,case,Temp,Pressure,e11,e22,e33,e12,e23,e13,s11,s22,s33,s12,s23,s13
0,5.0,300.0,-95.690516,0.0,0.0,0.0,0.0,0.0,0.0,0.03135048093105157,-0.0009151688379426322,-0.0013477841450659387,0.011679414728918489,-0.021638678332821275,0.008275374268165853
1,5.0,300.91344,-241.78202000000002,0.0,0.0,0.0,0.0,9.966809583820822e-06,0.0,0.05802015473989344,0.02794939753939077,-0.012473855496323688,0.001029787253557089,-0.005425809897360745,0.011713720337554188
2,5.0,300.27242,33.774209,0.0,0.0,0.0,0.0,1.9933619167641644e-05,0.0,0.01082475144181979,-0.004743774536424095,-0.016347492390121884,0.019601863246803283,0.004500646897454266,-0.004822077085601955
3,5.0,300.01392999999996,392.7643,0.0,0.0,0.0,0.0,2.9900428751462466e-05,0.0,-0.05548118303681645,-0.042287613967962566,-0.021621742870649878,-0.005533742817887895,0.019595428095418182,0.009182694947061431
4,5.0,298.82542,138.92852,0.0,0.0,0.0,0.0,3.986723833528329e-05,0.0,-0.04570614147334495,0.01949795951529878,-0.016022619076809384,0.018468221809671583,0.025153067403664475,0.0011290444227530089
5,5.0,298.99171,85.741055,0.0,0.0,0.0,0.0,4.983404791910411e-05,0.0,-0.0028035756845413776,-0.016106973160884483,-0.007152591224405793,-0.016979686485264583,0.019519106044885784,0.0092978525434516
6,5.0,299.53582,294.92461000000003,0.0,0.0,0.0,0.0,5.980085750292493e-05,0.0,-0.03180987738064047,-0.026176547276674077,-0.03166329251517367,0.012084865743183388,-0.01127282482154119,-0.01865632459798588
7,5.0,299.92674,706.40716,0.0,0.0,0.0,0.0,6.976766708674576e-05,0.0,-0.05789431617022415,-0.06496568121361353,-0.09187014026937691,-0.02651731240455497,-0.017727527880570783,0.004958120097028356
8,5.0,299.5141,436.87383,0.0,0.0,0.0,0.0,7.973447667056658e-05,0.0,-0.04009490934080946,-0.052619952205684946,-0.04008387504722046,-0.0033050116781292572,0.00934850552390066,-0.014036367197281588
9,5.0,300.09648,113.38268000000001,0.0,0.0,0.0,0.0,8.97012862543874e-05,0.0,-0.04003507590915436,-0.003844037629226976,0.00941360876800085,-0.012642631552230589,0.004005649601626837,0.03840784285805896
10,5.0,299.90146,83.991334,0.0,0.0,0.0,0.0,9.966809583820821e-05,0.0,-0.028290049183260474,-0.017478118394955982,0.02023689950847648,0.02212121842794428,0.015220596158905884,0.0016986616102698485
11,5.0,299.40132,80.06160799999999,0.0,0.0,0.0,0.0,0.00010963490542202905,0.0,-0.006630528295882194,-0.0004995396554957255,-0.017206661600415285,0.006042049153778824,-0.01896028746898468,0.03551715076701987
12,5.0,299.54618999999997,294.57537,0.0,0.0,0.0,0.0,0.00011960171500584987,0.0,0.00026193071359304875,-0.02958974609978057,-0.06021574206358104,0.016865120322957786,0.0036875595924337964,-0.014318489462374887
13,5.0,299.37606,611.32744,0.0,0.0,0.0,0.0,0.00012956852458967068,0.0,-0.030323953201741177,-0.07571774411975953,-0.07978658060557242,-0.00952783153984876,0.01143706557000049,0.01050102107462009
14,5.0,299.16562999999996,413.37343,0.0,0.0,0.0,0.0,0.00013953533417349152,0.0,-0.03326829384582496,-0.05368745070278886,-0.03869945725008907,-0.002739410203408737,0.012394185667460887,-0.04311432269805236
15,5.0,300.68127999999996,336.93618,0.0,0.0,0.0,0.0,0.00014950214375731235,0.0,-0.055422241265249354,-0.050197661317873454,0.0031997173621875173,-0.014128766487150685,0.004118436496758036,-0.01203359934112379
16,5.0,300.99293,398.24171,0.0,0.0,0.0,0.0,0.00015946895334113315,0.0,-0.06215536822650723,-0.04151668668237796,-0.017383481848866084,-0.01890966549398868,0.024167049413352078,0.007207726012697173
17,5.0,300.84362999999996,248.73157999999998,0.0,0.0,0.0,0.0,0.00016943576292495396,0.0,-0.03222420041278097,-0.010704849504486389,-0.03267914058843007,0.009604292608294882,0.006025196474140594,0.03518858010409247
18,5.0,300.35954,121.18533000000001,0.0,0.0,0.0,0.0,0.0001794025725087748,0.0,0.005155863858719145,-0.024719882720912478,-0.017273295966741584,0.0018701573307701581,-0.007742005495026453,0.00983888483107233
19,5.0,299.51949,168.47163,0.0,0.0,0.0,0.0,0.00018936938209259562,0.0,-0.028150273358465674,0.003020863318135997,-0.026081757729819074,0.016638704521862283,-0.02809700477420847,0.007045752512661633
20,5.0,299.03209,309.67632000000003,0.0,0.0,0.0,0.0,0.00019933619167641643,0.0,-0.038357660633606364,-0.029275989153315175,-0.02650022090186818,0.007213202122862622,0.008971313142999671,0.02692554884334477
21,5.0,299.08554,438.01335,0.0,0.0,0.0,0.0,0.00020930300126023726,0.0,-0.07742641410789212,-0.03607733621730586,-0.019641369868202283,-0.0062882395438259246,0.025955358832844475,0.005199519536627625
22,5.0,299.57896,807.37422,0.0,0.0,0.0,0.0,0.0002192698108440581,0.0,-0.08817812845600373,-0.07513293567879344,-0.08211053962417933,-0.02147557647747438,0.024121292052086178,0.011225654989635887
23,5.0,299.54514,602.0366799999999,0.0,0.0,0.0,0.0,0.00022923662042787893,0.0,-0.06407010390072694,-0.06923128377609573,-0.04970273120052766,0.0025268826161338976,-0.015070080896301186,0.0011326867528874789
24,5.0,301.25686,204.898,0.0,0.0,0.0,0.0,0.00023920343001169973,0.0,0.01967446362971838,-0.021556530094213877,-0.06040181125894464,0.01015833989080009,0.018674949148073983,-0.001251235798687359
25,5.0,301.36711,175.45228999999998,0.0,0.0,0.0,0.0,0.00024917023959552056,0.0,-0.026787582683228575,-0.021192020463489582,-0.005353511260325425,0.027176421462103972,-0.0018869443518019081,-0.015490972828839983
26,5.0,300.41875,290.59144,0.0,0.0,0.0,0.0,0.00025913704917934137,0.0,-0.036281335886439066,-0.03545273136541217,-0.016598475453141984,-0.0005390043587380885,0.03085000732240867,-0.013579085400651386
27,5.0,300.07422,83.649712,0.0,0.0,0.0,0.0,0.00026910385876316217,0.0,-0.05569543274396124,0.008972709806937512,0.02129529901968238,0.012638484319571288,0.007665346234860772,-0.013573058589056589
28,5.0,299.40681,-35.344073,0.0,0.0,0.0,0.0,0.00027907066834698303,0.0,0.033565901612196566,-0.030856877158086674,0.008034691601687323,0.001030197923822619,0.038196020898153764,0.011772826255637489
29,5.0,299.9221,144.78615,0.0,0.0,0.0,0.0,0.0002890374779308038,0.0,-0.007196120550026804,-0.013274482155589388,-0.02354077269879338,0.01072738418671039,0.0019349854774681982,0.012360824407918388
30,5.0,299.69024,664.33965,0.0,0.0,0.0,0.0,0.0002990042875146247,0.0,-0.027878149845359173,-0.07744285307751451,-0.0966216611028155,-0.04329369431025496,-0.006638813844599914,-0.0004596737153462636
31,5.0,299.20146,571.42183,0.0,0.0,0.0,0.0,0.0003089710970984455,0.0,-0.05479795964013755,-0.06184559132643464,-0.057054416950332545,-0.012996436195648386,-0.05332647934141375,-0.00994970014415895
32,5.0,300.55172999999996,372.42157000000003,0.0,0.0,0.0,0.0,0.0003189379066822663,0.0,-0.04224305629481506,-0.03402292097705086,-0.036940879628280965,0.00977307423707733,0.0019095188547548381,-0.0012951124664426488
33,5.0,301.10419,282.31388,0.0,0.0,0.0,0.0,0.00032890471626608717,0.0,-0.03685686700948956,-0.02377117867878268,-0.025188325467394176,0.03701376473447417,0.029306178940044673,0.012080902922042289
34,5.0,300.64434,106.13578000000001,0.0,0.0,0.0,0.0,0.0003388715258499079,0.0,-0.014839350676279886,-0.009298489269814442,-0.008124787774079122,0.009582010225345782,0.04137897079503646,0.008243770288271782
35,5.0,300.14328,209.33784,0.0,0.0,0.0,0.0,0.0003488383354337288,0.0,-0.017612566550724983,0.0012594533583233688,-0.04728036330570855,0.007743083187832811,-0.011013678002465388,0.03318245535035337
36,5.0,299.7724,192.44633000000002,0.0,0.0,0.0,0.0,0.0003588051450175496,0.0,-0.02325448901553938,-0.003173387855688997,-0.03207100105066137,0.007007145758676442,0.013291948560813187,0.012626838022921888
37,5.0,298.93577999999997,-78.15156,0.0,0.0,0.0,0.0,0.0003687719546013704,0.0,-0.006748467871746924,0.025308928573796775,0.005195661890846905,0.01936347690902638,-0.007360586746633354,0.000908439914956039
38,5.0,298.69173,179.15403999999998,0.0,0.0,0.0,0.0,0.00037873876418519125,0.0,-0.036149230364901266,-0.018724083671923183,0.0004149573165705986,-0.001009527165820074,-0.00931019980652018,-0.03149733836079527
39,5.0,298.73937,595.52409,0.0,0.0,0.0,0.0,0.000388705573769012,0.0,-0.07516936100663833,-0.03356924331102637,-0.07228584981905793,-0.017390574599566087,-0.039195507008795365,0.015802965706881285
40,5.0,299.53115,354.61619,0.0,0.0,0.0,0.0,0.00039867238335283286,0.0,-0.041059105976968255,-0.019968823929519482,-0.046766538100497954,-0.003796159434176767,0.01815259237702138,-0.017401985822192285
41,5.0,299.83232999999996,137.79971,0.0,0.0,0.0,0.0,0.00040863919293665377,0.0,0.017899912120083784,-0.015387338621862085,-0.04440024447946296,0.015598006489903385,0.004732151341876975,0.04571133741985775
42,5.0,300.51462000000004,129.44021,0.0,0.0,0.0,0.0,0.0004186060025204745,0.0,0.001969892044738208,0.0064152742552382735,-0.04773175913250786,0.04223387523565896,0.040552467754716964,-0.017459785660896683
43,5.0,300.47667,309.7042,0.0,0.0,0.0,0.0,0.0004285728121042954,0.0,-0.03331452135513727,-0.027700409565817572,-0.03312741155192097,0.02049615271881278,-0.023517086964455775,0.04655311925843516
44,5.0,300.24202,231.05726,0.0,0.0,0.0,0.0,0.0004385396216881162,0.0,-0.03194069911430157,-0.026687134134565072,-0.01160780327810099,0.03221899129401687,0.010713902894129889,-0.04271147776304466
45,5.0,300.05368,182.85957,0.0,0.0,0.0,0.0,0.000448506431271937,0.0,-0.027047037530334772,-0.007327669087984634,-0.021210037063517678,0.025230454380051975,-0.01133087290652009,0.013767047347201787
46,5.0,299.7704,58.12550400000001,0.0,0.0,0.0,0.0,0.00045847324085575785,0.0,-0.014895762362347284,-0.02903213430474857,0.02625919504758077,0.004300341436860656,0.002686533544290217,-0.05469610774008554
47,5.0,299.68635,17.867559,0.0,0.0,0.0,0.0,0.0004684400504395786,0.0,0.009428411541361773,0.0025192580104564074,-0.017378961740169983,-0.028242638197831373,-0.038541218995222164,0.0026562128456477973
48,5.0,299.59962,304.42013,0.0,0.0,0.0,0.0,0.00047840686002339946,0.0,-0.052206400256870546,-0.020227581660556878,-0.020102135218676282,-0.00998200782624747,0.027764166301859874,-0.03389177399010767
49,5.0,299.72923,455.06172000000004,0.0,0.0,0.0,0.0,0.0004883736696072203,0.0,-0.05773454182820564,-0.03825164326239326,-0.042341214898252565,0.010189840823158991,0.017911905961517482,0.0060661755505849145
50,5.0,299.75543,163.67815,0.0,0.0,0.0,0.0,0.0004983404791910411,0.0,-0.040600903135997166,-0.008133727882361443,-0.001019440348835929,0.027169266903147873,0.02127790658171588,0.007188757362875113
51,5.0,299.54181,247.76742000000002,0.0,0.0,0.0,0.0,0.0005083072887748619,0.0,-0.02073803983568518,-0.02359539295868398,-0.03098167511990327,0.013494467871550288,-0.014408269500735487,0.018661265205473482
52,5.0,299.87712999999997,539.2234599999999,0.0,0.0,0.0,0.0,0.0005182740983586827,0.0,-0.039620111489700564,-0.049192233508645454,-0.07509812141860753,0.0059899240222594735,0.011287220065711888,0.05859134408626544
53,5.0,300.77351,569.61194,0.0,0.0,0.0,0.0,0.0005282409079425035,0.0,-0.03588702353052346,-0.03776482421209796,-0.09949595880723659,0.0074714530262000025,0.003933360387817447,0.013646666142571089
54,5.0,299.94032999999996,223.91933999999998,0.0,0.0,0.0,0.0,0.0005382077175263243,0.0,-0.020968402245920177,-0.014925135469496186,-0.03217235037866377,-0.014809822541865685,0.025634645924442576,0.026654752687869272
55,5.0,300.05391000000003,3.0601863999999996,0.0,0.0,0.0,0.0,0.0005481745271101452,0.0,-0.025559315845758077,0.014472224833797384,0.01015687067815509,0.015300968170087987,0.006463088108907134,-0.013318961808479185
56,5.0,300.59393,156.33100000000002,0.0,0.0,0.0,0.0,0.0005581413366939661,0.0,-0.024666965734439977,-0.015781902263802484,-0.007071853328612583,-0.006761968517404333,0.03495688121697557,0.006351855944729375
57,5.0,299.79582999999997,307.56954,0.0,0.0,0.0,0.0,0.0005681081462777869,0.0,-0.047503920728271955,-0.02843395096246247,-0.017555590484351884,0.03281046286764057,0.004404833967998266,-0.03451161960628167
58,5.0,299.56602999999996,425.20790999999997,0.0,0.0,0.0,0.0,0.0005780749558616076,0.0,-0.04527012678306366,-0.03889456666284486,-0.045087892739328554,-0.01073116360958339,-0.016773561017421584,-0.002856918540030907
59,5.0,300.08889,189.16189,0.0,0.0,0.0,0.0,0.0005880417654454285,0.0,-0.008779002428345083,-0.02109021922594258,-0.027631269431993975,0.006876994897906555,-0.02103423209166708,-0.01047551149010249
60,5.0,299.83885,20.214471,0.0,0.0,0.0,0.0,0.0005980085750292494,0.0,0.012036046340115288,-0.015084960474019686,-0.0030957800921047073,-0.01227602246729909,0.008884684717750111,-0.004137913392830256
61,5.0,299.08727000000005,332.88469,0.0,0.0,0.0,0.0,0.0006079753846130702,0.0,-0.03070711271380607,-0.04995563335923715,-0.02052588755624738,0.01009835984185552,0.05139851062088805,-0.006222450025433004
62,5.0,300.07434,628.74172,0.0,0.0,0.0,0.0,0.000617942194196891,0.0,-0.06090642602074624,-0.06331656702660865,-0.06689879116514665,-0.03978164179414236,0.03823477467472846,0.008573996905837612
63,5.0,299.64192,265.24396,0.0,0.0,0.0,0.0,0.0006279090037807117,0.0,-0.03688690480870407,-0.02116051345163008,-0.022580120411484376,-8.213349480519482e-07,-5.172019624938595e-05,0.0021426736809404276
64,5.0,299.84154,63.632948,0.0,0.0,0.0,0.0,0.0006378758133645326,0.0,0.03482637257759537,-0.025866639667338577,-0.028302559782245173,-0.007954766839099361,0.007026431454454795,0.012742962563882488
65,5.0,300.32826,97.68469,0.0,0.0,0.0,0.0,0.0006478426229483534,0.0,0.004064782066862756,-0.0067601282525727125,-0.026998359982280676,0.026123525925441274,0.0008604278087726131,-0.016571191667699284
66,5.0,300.12846,356.05296,0.0,0.0,0.0,0.0,0.0006578094325321743,0.0,-0.017016543457652085,-0.05398825628647604,-0.037226410466710665,0.018607321796649683,-0.006540235350320973,-0.004277590729715336
67,5.0,299.64956,541.3104,0.0,0.0,0.0,0.0,0.000667776242115995,0.0,-0.08382778373465813,-0.02906266251701147,-0.05165439882764225,0.00043697668005874055,0.016250778681326985,-0.017884204717033586
68,5.0,300.47004,473.12458,0.0,0.0,0.0,0.0,0.0006777430516998158,0.0,-0.07519992164290443,-0.04514669265588166,-0.02347144207395098,0.017372276316010182,0.02122396519939228,0.00950271185396964
69,5.0,300.23728,26.681890999999997,0.0,0.0,0.0,0.0,0.0006877098612836366,0.0,-0.014890808582608385,-0.003809588747027137,0.010589768611128791,-0.025370417656115276,0.029560462158640475,-0.007464159955955233
70,5.0,300.88455,250.27362000000002,0.0,0.0,0.0,0.0,0.0006976766708674576,0.0,-0.029161029849969572,-0.004469457539501116,-0.042446442947637754,-0.02988234537090787,0.0036286682807216766,0.025696893931085974
71,5.0,300.68702,741.68379,0.0,0.0,0.0,0.0,0.0007076434804512785,0.0,-0.06255143350509584,-0.06448710799263203,-0.0984148108180356,-0.03194602171707687,-0.01999578854118068,0.056399432833940645
72,5.0,300.48181,481.77603,0.0,0.0,0.0,0.0,0.0007176102900350992,0.0,-0.05537695607853005,-0.014100002343311884,-0.07697092373743872,0.008061672526675133,6.611524182306635e-05,0.03917992524875757
73,5.0,300.90201,296.48143999999996,0.0,0.0,0.0,0.0,0.00072757709961892,0.0,-0.02991799556242627,-0.03651417265341826,-0.02369078538934848,0.018346809116439083,0.014895561738827485,0.016163257177439286
74,5.0,300.51624,221.49796,0.0,0.0,0.0,0.0,0.0007375439092027408,0.0,-0.05222025543873795,-0.002901376205393537,-0.012208216783857188,0.03135682792967797,0.008767558376415642,-0.012294922621414387
75,5.0,300.1357,332.65207000000004,0.0,0.0,0.0,0.0,0.0007475107187865617,0.0,-0.016485114045204086,-0.02477975262957118,-0.05985305729628685,-0.0012202335880276787,0.014997910131428486,0.01028294938809809
76,5.0,300.8058,441.00625999999994,0.0,0.0,0.0,0.0,0.0007574775283703825,0.0,-0.034652887948473765,-0.05392303236428895,-0.045478971814175054,0.02095348923094838,0.0018774469559645882,-0.0098826751699191
77,5.0,298.96311000000003,264.22157000000004,0.0,0.0,0.0,0.0,0.0007674443379542033,0.0,0.0064608018113814945,-0.03915829945187326,-0.04761926202690525,-0.016664992282456683,0.004616786130541316,0.01105453933924809
78,5.0,299.42569,-23.933488,0.0,0.0,0.0,0.0,0.000777411147538024,0.0,-0.0016436655359171584,-0.007009617176995353,0.015928465851017183,0.024106764072152374,-0.019811958628538084,-0.014479586095773886
79,5.0,300.35562000000004,34.140556,0.0,0.0,0.0,0.0,0.0007873779571218449,0.0,-0.004933421315240776,-0.02941595040287827,0.02397149518380238,0.012985391769558386,-0.01045202840578489,-0.0008382294445218051
80,5.0,299.86023,306.45911,0.0,0.0,0.0,0.0,0.0007973447667056657,0.0,-0.07040947072737373,-0.023432177619325877,0.0006857317276989523,0.01161368114193109,0.018997287309636283,-0.0090181559990977
81,5.0,301.15169,490.39799000000005,0.0,0.0,0.0,0.0,0.0008073115762894866,0.0,-0.040819930317363466,-0.04434295430555886,-0.06390586011251735,-0.00025090188142208776,0.01917317840774538,-0.016616777789698285
82,5.0,301.08991000000003,78.581793,0.0,0.0,0.0,0.0,0.0008172783858733075,0.0,0.012323255120710589,-0.010855106388315591,-0.025355051718348773,-0.001972866744381788,0.008613085662895372,-0.015168715727285684
83,5.0,300.62628,34.031858,0.0,0.0,0.0,0.0,0.0008272451954571281,0.0,0.015532295194418186,0.011776803262279988,-0.03765393412115397,-0.009639045161549691,-0.0016877232714653187,0.00042523605995753157
84,5.0,300.04418,428.93327999999997,0.0,0.0,0.0,0.0,0.000837212005040949,0.0,-0.04407315417493166,-0.038162285749324364,-0.04814956571849216,0.02283634197752148,-0.0052972910785269245,0.01008506508861843
85,5.0,299.61174,443.64880999999997,0.0,0.0,0.0,0.0,0.0008471788146247698,0.0,-0.07244826367758693,-0.024428440581399376,-0.03798145505697777,-0.008963880548216133,0.016894144872072286,0.0024167367573883474
86,5.0,298.64919,294.67277,0.0,0.0,0.0,0.0,0.0008571456242085908,0.0,-0.049611027000227154,-0.043518375427179255,0.0035562384277984067,0.012718874569255188,0.0014155882073076786,-0.005335199905843235
87,5.0,299.42928,115.83854,0.0,0.0,0.0,0.0,0.0008671124337924116,0.0,-0.025827393451215274,0.0008208954710860752,-0.01020552492145689,0.02044435334720058,0.02384921920148468,-0.005670609297670564
88,5.0,299.5101,34.880749,0.0,0.0,0.0,0.0,0.0008770792433762324,0.0,-0.0014214060867318585,0.017078299024746883,-0.026259769560387475,0.018227409751155284,0.01890126058440918,0.027365304452995273
89,5.0,300.92105,424.28452000000004,0.0,0.0,0.0,0.0,0.0008870460529600531,0.0,-0.04274995593559216,-0.05075857732148155,-0.03546336542521167,0.017190505327570785,0.015484982494248786,0.014816185752493684
90,5.0,299.84067000000005,606.78508,0.0,0.0,0.0,0.0,0.000897012862543874,0.0,-0.07614320074399883,-0.02123778187775588,-0.08706653027479752,-0.004755433194724715,-0.025600067751529974,0.03357195274179376
91,5.0,300.03097,349.36191,0.0,0.0,0.0,0.0,0.0009069796721276949,0.0,-0.06176189180192414,-0.03965057586720716,-0.004784828897350845,0.016107672303453485,-0.0017669126171306984,-0.01215979660132849
92,5.0,299.85299,161.04921000000002,0.0,0.0,0.0,0.0,0.0009169464817115157,0.0,-0.011193963566258189,-0.023765847970006578,-0.013995126904961486,-0.0005137110625868345,-0.01014704417868529,-0.009254247933348161
93,5.0,300.8072,419.85488,0.0,0.0,0.0,0.0,0.0009269132912953365,0.0,-0.03422584254807767,-0.045460906578142155,-0.04793865264392666,-0.017519108414501383,0.03369278078971857,-0.04467321202990275
94,5.0,300.46907999999996,552.74678,0.0,0.0,0.0,0.0,0.0009368801008791572,0.0,-0.030752969373581768,-0.07207270050152173,-0.06519555017104985,-0.024200213089125077,0.006141844865402894,0.004117710401736376
95,5.0,301.2315,104.10106,0.0,0.0,0.0,0.0,0.0009468469104629781,0.0,0.012257653256236189,-0.02143397850786898,-0.02246779657164888,0.010920451900514688,0.03071297841863497,-0.037218507115930666
96,5.0,299.7472,-110.82438,0.0,0.0,0.0,0.0,0.0009568137200467989,0.0,0.024576067067968974,-0.011960670665176289,0.02107244681918858,0.03835168448451656,0.008310505169008001,0.026043962487838978
97,5.0,299.34899,16.512429,0.0,0.0,0.0,0.0,0.0009667805296306198,0.0,-0.02318804716673208,-0.025558252946403178,0.04372693472176246,0.055467795976495246,0.013198760962366288,-0.02332418745016808
98,5.0,299.80433999999997,485.30395,0.0,0.0,0.0,0.0,0.0009767473392144406,0.0,-0.05507165673064935,-0.05963133385640444,-0.032817290146814365,0.012367578733084987,-0.008586646421411022,0.012205093947048988
99,5.0,299.38566000000003,593.38364,0.0,0.0,0.0,0.0,0.0009867141487982613,0.0,-0.07025684891781113,-0.06880207204698584,-0.04131488880571206,-0.006552651109096313,-0.007359380573714312,-0.024333575040786874
100,5.0,298.65243,459.60396,0.0,0.0,0.0,0.0,0.0009966809583820823,0.0,-0.025073060162518375,-0.04662490296176965,-0.06801016440483064,-0.007149876220762842,0.0033045340320321166,0.03131656339720417
101,5.0,299.21464,211.39716,0.0,0.0,0.0,0.0,0.001006647767965903,0.0,0.003924263935044696,-0.015975493827908485,-0.05220822714680085,-0.01878226651916538,0.031672067261039674,0.004223804678632066
102,5.0,300.09603,382.46177,0.0,0.0,0.0,0.0,0.0010166145775497239,0.0,-0.03243004825009657,-0.03558758279472097,-0.04824119595153536,-0.0082643830377061,0.0032600514407170275,0.027064143218522976
103,5.0,300.78536,656.90522,0.0,0.0,0.0,0.0,0.0010265813871335446,0.0,-0.09442994338125982,-0.04425995898986786,-0.060992881585528735,-0.015697730564745382,0.0045191141911268455,0.02817425496183247
104,5.0,300.60863,360.23648,0.0,0.0,0.0,0.0,0.0010365481967173655,0.0,-0.043208290499076256,-0.04059400898231676,-0.025700594320451176,0.025307658971421475,-0.012539473572799689,0.004824392058105425
105,5.0,300.31465,65.670004,0.0,0.0,0.0,0.0,0.0010465150063011862,0.0,-0.005105384549337225,-0.02231743329655918,0.007460776308571293,0.003317291053441137,0.015254636296015384,-0.014411240350028685
106,5.0,300.47108,231.46847999999997,0.0,0.0,0.0,0.0,0.001056481815885007,0.0,0.003055007718680787,-0.02276342140757478,-0.05065222355123525,0.017139848902071382,-0.008441486185584822,-0.01273268111511779
107,5.0,299.63302999999996,403.1358,0.0,0.0,0.0,0.0,0.001066448625468828,0.0,-0.03287872654012767,-0.05193863270594395,-0.037725857653002265,-0.013552438949521588,0.02216142621841248,0.007816903827843343
108,5.0,299.8251,295.39745,0.0,0.0,0.0,0.0,0.0010764154350526487,0.0,-0.03135884733712727,-0.03159840093901937,-0.02683620044952677,0.001168774060499019,0.016010840044396884,-0.007795980111953332
109,5.0,299.92194,227.69836,0.0,0.0,0.0,0.0,0.0010863822446364696,0.0,-0.022746313692886377,-0.026350829333624374,-0.02011747278543998,0.009327323327910142,0.017218483189331984,0.01987530499828988
110,5.0,299.39819,129.9767,0.0,0.0,0.0,0.0,0.0010963490542202903,0.0,0.0036837062023034966,-0.039187992746053765,-0.004005385548650777,0.016779339582741883,-0.005311809837884815,-0.02093642204626398
111,5.0,300.2319,321.6748,0.0,0.0,0.0,0.0,0.0011063158638041112,0.0,-0.01195401563851949,-0.035522904001087666,-0.05030418835388686,-0.029162743255888673,-0.008867473651551511,-0.0024993966872962473
112,5.0,299.73901,576.39251,0.0,0.0,0.0,0.0,0.0011162826733879321,0.0,-0.025618339690583275,-0.06641725418762263,-0.08317333664081922,-0.009017019335135523,0.006145890773052194,-0.0025868220337494576
113,5.0,299.34807,476.9176,0.0,0.0,0.0,0.0,0.0011262494829717528,0.0,-0.037799992096568764,-0.03939397737213286,-0.06777707331207633,-0.022694099901983275,0.04487566041313286,0.01026064572689689
114,5.0,300.68658999999997,93.532921,0.0,0.0,0.0,0.0,0.0011362162925555737,0.0,-0.024507647354966477,-0.013733466212387586,0.00980944140436649,0.015013788773745587,0.04001392532656696,0.0001954255670520018
115,5.0,299.88228,77.179035,0.0,0.0,0.0,0.0,0.0011461831021393944,0.0,-0.019053226821157083,-0.027670752748640674,0.023263480596926775,-0.005481328808765035,0.03736772845815767,0.014287269200293686
116,5.0,298.73699,511.74483,0.0,0.0,0.0,0.0,0.0011561499117232151,0.0,-0.08348586856791372,-0.03956666558667586,-0.03250511488375507,-0.0002375933783811408,0.031301851005752175,0.0043662069490110755
117,5.0,299.12543,621.60596,0.0,0.0,0.0,0.0,0.0011661167213070363,0.0,-0.05137312262638245,-0.06855036957639474,-0.06902919712315134,0.011250507988088689,-0.0005771071525210415,-0.01010112905437882
118,5.0,298.80945,259.30407,0.0,0.0,0.0,0.0,0.001176083530890857,0.0,-0.009429027394772553,-0.046867739493985754,-0.02252519415006358,0.02068649782959838,0.0024294007624381876,-0.014260960161447187
119,5.0,300.37872000000004,259.95505,0.0,0.0,0.0,0.0,0.0011860503404746779,0.0,-0.02431117005457568,-0.013851305172517387,-0.04085736889530836,-0.002021282569935058,0.004477963976740636,0.018849423722543283
120,5.0,300.26329,412.21108,0.0,0.0,0.0,0.0,0.0011960171500584988,0.0,-0.06672123124412284,-0.03149202285077067,-0.02708862131443877,0.016067698573758386,0.00987949478050522,0.025780280361315577
121,5.0,299.75865,523.1805099999999,0.0,0.0,0.0,0.0,0.0012059839596423193,0.0,-0.08571800280945822,-0.017984791067710684,-0.055331017345496246,-0.02205646870680398,0.03559974280917107,0.028156959795875573
122,5.0,300.0099,464.65902,0.0,0.0,0.0,0.0,0.0012159507692261404,0.0,-0.06669870872090003,-0.025310772688978776,-0.04923525610789145,0.0003232264373949657,0.008256963513848851,0.009311610757284431
123,5.0,300.44372000000004,116.37936,0.0,0.0,0.0,0.0,0.001225917578809961,0.0,0.006352111385079583,-0.01874616239160218,-0.022982369555433275,-0.006351458446715144,1.081470810682859e-05,0.004129100244785466
124,5.0,300.14857,-4.2259667,0.0,0.0,0.0,0.0,0.001235884388393782,0.0,0.013968922230875286,-0.0004911597529286936,-0.01219317407287259,0.002283921555480508,0.0005909604193457524,-0.015029380666284385
125,5.0,300.39214,353.26254,0.0,0.0,0.0,0.0,0.001245851197977603,0.0,-0.04981303765941405,-0.01901313656770048,-0.03855681899376176,0.01953840035328998,0.02194662226346298,0.017609583542430585
126,5.0,299.13585,381.12877000000003,0.0,0.0,0.0,0.0,0.0012558180075614234,0.0,-0.028172668212175875,-0.053030878823490245,-0.034650083272196965,0.014225579494455385,0.03252253163972397,0.003376038686289077
127,5.0,299.74341,48.600147,0.0,0.0,0.0,0.0,0.0012657848171452445,0.0,-0.018085114986611882,-0.02175539866484068,0.025067282610448178,0.014052839604157286,0.026253259428494973,0.008920018065962243
128,5.0,299.77959,72.527402,0.0,0.0,0.0,0.0,0.0012757516267290652,0.0,0.008416819726475433,-0.03073025331958987,0.00026691393837985475,0.011815761715374889,0.0015168404659504987,-0.019031978966560083
129,5.0,300.08115,377.74995,0.0,0.0,0.0,0.0,0.0012857184363128861,0.0,-0.041158065047984756,-0.02335326671478798,-0.050315220620975654,-0.0023454688996797576,0.012604196949437388,-0.013717833789844787
130,5.0,299.92745,465.03589000000005,0.0,0.0,0.0,0.0,0.0012956852458967068,0.0,-0.011989324364754188,-0.04960812099894036,-0.07976185325013202,-0.015548652090782485,-0.016261444151879585,-0.014368800369590186
131,5.0,300.09074,379.21943999999996,0.0,0.0,0.0,0.0,0.0013056520554805275,0.0,-0.056099617195601144,-0.01814027733530598,-0.04103334611967596,-0.002985158512437207,-0.00916140048295983,0.026627640141693474
132,5.0,299.93847999999997,340.77884,0.0,0.0,0.0,0.0,0.0013156188650643487,0.0,-0.04842376538105355,-0.022448164850961377,-0.03271632788035017,-0.003167829672265447,0.010194745966893091,0.03321754622781657
133,5.0,299.79802,65.144176,0.0,0.0,0.0,0.0,0.0013255856746481694,0.0,-0.048639409320335954,0.018576567629614484,0.01026063863414619,0.028473522431867876,0.03255879180780257,0.02246409415578348
134,5.0,300.13813999999996,295.72578,0.0,0.0,0.0,0.0,0.00133555248423199,0.0,-0.02654152097594418,-0.02219022177300438,-0.04116150908507466,0.0021323687247734083,0.027222212260623175,0.0041015717594436165
135,5.0,300.21281,654.25957,0.0,0.0,0.0,0.0,0.001345519293815811,0.0,-0.06511099343695473,-0.04616411329329326,-0.08760346568828892,0.005991330210748254,0.002244910818680448,-0.0070945415182267334
136,5.0,301.26765,363.85872,0.0,0.0,0.0,0.0,0.0013554861033996317,0.0,-0.024837845297554475,-0.03043667930186637,-0.05532944072834065,-0.004120126293949806,0.005270647464497405,-0.008647023157769742
137,5.0,301.52616,88.533589,0.0,0.0,0.0,0.0,0.0013654529129834528,0.0,-0.011133081420749591,-0.011913048923726388,-0.0038658704331067063,0.022370788007074878,0.005515270964589865,-0.0017654896086902584
138,5.0,301.15495,229.37684,0.0,0.0,0.0,0.0,0.0013754197225672733,0.0,-0.05143162566065625,-0.00940720168364352,-0.008886004374680352,0.02101241985676438,-0.003443967479618127,0.01076588363750999
139,5.0,299.68352000000004,372.34394,0.0,0.0,0.0,0.0,0.0013853865321510942,0.0,-0.053209423623611245,-0.024417841985353374,-0.03555599370960336,-0.006063143804960704,-0.009030572568473122,0.027938392630054674
140,5.0,299.95977,269.80669,0.0,0.0,0.0,0.0,0.001395353341734915,0.0,-0.009914280467038301,-0.046071326941885954,-0.02602888735285118,-0.018752376654465483,-0.01156455877708309,-0.005089965719915505
141,5.0,299.01126,112.46035,0.0,0.0,0.0,0.0,0.0014053201513187358,0.0,0.012088063560498987,-0.0014797526751902186,-0.044793448339769164,0.009692670815142131,0.004172396624208485,-0.0015622155279536687
142,5.0,300.13121,193.3267,0.0,0.0,0.0,0.0,0.001415286960902557,0.0,0.0012909722252090387,-0.025728915673996273,-0.034328545578213666,-0.00896078202941033,0.031104383760013673,-0.013989048417611586
143,5.0,299.86728999999997,354.80453,0.0,0.0,0.0,0.0,0.0014252537704863774,0.0,-0.04519215617461855,-0.036182785155212865,-0.026476775307804276,0.012305132129421989,-0.00037822949304084464,-0.0055274074716376445
144,5.0,299.19458,567.81827,0.0,0.0,0.0,0.0,0.0014352205800701983,0.0,-0.08348500325232833,-0.050352839557438356,-0.03876473386128137,-0.005362693738031665,0.016626371241645087,-0.01945273512358548
145,5.0,301.01101,504.25163,0.0,0.0,0.0,0.0,0.0014451873896540192,0.0,-0.08459967462108782,-0.037303281698797264,-0.031376950063413865,0.0035217765759972862,0.013630736837748987,0.007517816513675722
146,5.0,300.3673,-2.9963911,0.0,0.0,0.0,0.0,0.00145515419923784,0.0,0.008605169747814133,-0.016696490175065283,0.009002148876667922,0.01569689159366259,0.009603899568581091,-0.03958557789979236
147,5.0,299.86751,193.16218,0.0,0.0,0.0,0.0,0.001465121008821661,0.0,0.01906147569022118,-0.01966074321011428,-0.058117211940472244,-0.0005010500770222925,0.007814661302722022,-0.0016264965195977082
148,5.0,300.98906,570.01695,0.0,0.0,0.0,0.0,0.0014750878184054815,0.0,-0.025445037446479676,-0.06892130219950293,-0.07890458185727593,0.006898570741560924,0.027311012486137078,-0.02253166881820258
149,5.0,300.24509,219.98646000000002,0.0,0.0,0.0,0.0,0.0014850546279893025,0.0,-0.023701081023614578,-0.02791754602249727,-0.015251762718731784,0.014265208719116487,0.0022734813304251377,0.015321468246111185
150,5.0,299.36987,28.722942,0.0,0.0,0.0,0.0,0.0014950214375731234,0.0,-0.03879471694499046,0.012882306744134688,0.017181352639417485,0.017955784757097984,0.008675094947815211,0.010832093452044389
151,5.0,299.97707,347.55506,0.0,0.0,0.0,0.0,0.0015049882471569439,0.0,-0.08058123618199882,-0.0018837925360408484,-0.02318303157873708,0.019251572554732282,-0.02986559736000497,0.024114904523455775
152,5.0,299.16786,415.61635,0.0,0.0,0.0,0.0,0.001514955056740765,0.0,-0.06039131804090904,-0.016387493477569685,-0.049558181954511754,0.002535001687860188,0.013597794050497788,0.006848707994864854
153,5.0,300.29264,491.41282,0.0,0.0,0.0,0.0,0.0015249218663245857,0.0,-0.01190917729509429,-0.049218873880274655,-0.0882491765397656,-0.022889632853280877,0.04300696479695696,-0.01335986570176609
154,5.0,300.23213,517.1940599999999,0.0,0.0,0.0,0.0,0.0015348886759084066,0.0,-0.04346506023341746,-0.03523398890732397,-0.07851503076358023,-0.02791481024722727,0.06555817110358773,0.008664329469477742
155,5.0,298.94014,217.49465,0.0,0.0,0.0,0.0,0.0015448554854922275,0.0,-0.018328339593616284,-0.015433321937900287,-0.03235128122707287,-0.007785652965609123,0.035307560997084965,-0.007470766954557294
156,5.0,299.48625,101.83334,0.0,0.0,0.0,0.0,0.001554822295076048,0.0,-0.03450948367507087,-0.02254707427272298,0.02610176536629368,0.017007724128781685,0.03574299914805937,0.005782595319922724
157,5.0,300.56772,458.87408,0.0,0.0,0.0,0.0,0.0015647891046598691,0.0,-0.06022555235104924,-0.04061125652551896,-0.03864945538415426,0.01065864833967669,-0.021709246136035778,0.0004359915071190116
158,5.0,300.28337999999997,398.95806,0.0,0.0,0.0,0.0,0.0015747559142436898,0.0,-0.04086329539514326,-0.028544420554614973,-0.05186557332073355,0.00032975137287142675,-0.025163897020733274,0.015905826804032883
159,5.0,300.23236,27.466977000000004,0.0,0.0,0.0,0.0,0.0015847227238275107,0.0,0.033454474498699566,-0.02189963785632598,-0.01990411068538278,-0.002990563796420667,-0.03449232732437767,-0.015443343994639385
160,5.0,300.30107999999996,288.87421,0.0,0.0,0.0,0.0,0.0015946895334113314,0.0,-0.016545277796391786,-0.03344747496700876,-0.03781779490082576,0.007111228531473613,0.017287663853159583,0.0008516981626685643
161,5.0,299.62755,472.68136,0.0,0.0,0.0,0.0,0.0016046563429951521,0.0,-0.07350729039060473,-0.03663511013235386,-0.03354093107673217,0.0011171032703245088,0.035213783687079864,9.026474985068721e-05
162,5.0,300.20729,374.53958,0.0,0.0,0.0,0.0,0.0016146231525789733,0.0,-0.06719056565069254,-0.037672105748447364,-0.008988010491397571,-0.018140518488829784,0.042097330665433065,0.02332280740353188
163,5.0,300.51132,321.38603,0.0,0.0,0.0,0.0,0.001624589962162794,0.0,-0.04867823301116755,-0.01923293077939248,-0.02978216432027077,-0.004259763202155896,0.023949407344872477,0.011970001685347188
164,5.0,299.95011,405.03762,0.0,0.0,0.0,0.0,0.001634556771746615,0.0,-0.03045947844236647,-0.026000539654803475,-0.06666130459345854,0.016103790542320386,0.02351643645789158,-0.003076284754880667
165,5.0,300.00411,396.37767,0.0,0.0,0.0,0.0,0.0016445235813304356,0.0,0.006826564224529433,-0.06430050886746615,-0.06301497110784345,0.02763558283766968,0.026067756639937274,-0.015880278716011484
166,5.0,299.8152,446.51967,0.0,0.0,0.0,0.0,0.0016544903909142563,0.0,-0.04427415766351916,-0.03574018535253167,-0.055716487067789144,-0.014554035660121485,0.013153457537145186,-0.01402559128246809
167,5.0,300.18832000000003,567.2312400000001,0.0,0.0,0.0,0.0,0.0016644572004980774,0.0,-0.09641254958692781,-0.039345181273817066,-0.036666401321942065,0.006411456734161514,0.007168417279042703,-0.0025044164296166575
168,5.0,301.35722000000004,224.08194,0.0,0.0,0.0,0.0,0.001674424010081898,0.0,-0.06648778551383354,-0.004073703126043196,0.0024461733953185178,-0.025083779335326274,0.016615323775804783,0.020841008337347377
169,5.0,299.7718,-97.0863,0.0,0.0,0.0,0.0,0.0016843908196657192,0.0,0.01129966581669019,0.0025181440432964675,0.015694000791127285,0.007710630104354943,0.0012541468662246589,-0.004787872599326235
170,5.0,298.95123,319.96558999999996,0.0,0.0,0.0,0.0,0.0016943576292495397,0.0,-0.024285334203525875,-0.028084566115980873,-0.04489165051296096,-0.006080865650534714,-0.00945487054122307,0.015392615628382884
171,5.0,299.21696000000003,420.5076,0.0,0.0,0.0,0.0,0.0017043244388333606,0.0,-0.011820270678319889,-0.03979215933018036,-0.07621137930347752,-0.00912349074371843,-0.012431053785599487,-0.004720727757599555
172,5.0,299.41665,225.3249,0.0,0.0,0.0,0.0,0.0017142912484171815,0.0,-0.03084762314492337,-0.02220947149840418,-0.015436047580669285,0.023472622510317478,0.006693707580692504,-0.001082504629759889
173,5.0,300.00363,445.55967000000004,0.0,0.0,0.0,0.0,0.001724258058001002,0.0,-0.052889601362047255,-0.051700622283954153,-0.03084878838253837,0.014328866156648985,0.04508208985600586,-0.01676623319269838
174,5.0,299.90648999999996,495.03494000000006,0.0,0.0,0.0,0.0,0.0017342248675848231,0.0,-0.07794141670971892,-0.03117971789169857,-0.041357124109630355,0.036236012196215965,0.03169071511588007,0.03407713796340167
175,5.0,300.04913999999997,312.21663,0.0,0.0,0.0,0.0,0.0017441916771686438,0.0,-0.033168725811498365,-0.02031175538611418,-0.041425578273136254,-0.012108642670029987,0.0018506834744482384,0.005019036997015385
176,5.0,301.29214,385.04162,0.0,0.0,0.0,0.0,0.0017541584867524647,0.0,-0.028972224879335973,-0.027011786559355773,-0.06105902756530684,-0.03179424799784797,0.014587151713139785,0.013695836130173788
177,5.0,299.91879,320.93331,0.0,0.0,0.0,0.0,0.0017641252963362857,0.0,-0.008096959974657732,-0.029896019181007375,-0.059562734798134245,-0.008984526633578743,-0.0035161096708380066,-0.00816155466853273
178,5.0,299.59753,15.789647,0.0,0.0,0.0,0.0,0.0017740921059201061,0.0,-0.0019388462643242282,-0.013817134326144986,0.01095632196730479,-0.02885075544409787,-0.006386034795777563,-0.016568968596979882
179,5.0,299.66722999999996,48.358261,0.0,0.0,0.0,0.0,0.0017840589155039273,0.0,-0.026426822077874276,-0.007822227038568703,0.01954934548087018,0.006511482352233274,0.026465016540393772,0.005851495617447655
180,5.0,300.57309,398.4072,0.0,0.0,0.0,0.0,0.001794025725087748,0.0,-0.07178812313143612,-0.03205448811378167,-0.017263228313747984,0.019016550207287382,0.038744364494521066,0.0028381618621297674
181,5.0,299.77787,315.08834,0.0,0.0,0.0,0.0,0.0018039925346715689,0.0,-0.01010983277141281,-0.053004108755848246,-0.03266504729278917,0.05059444499078295,0.05026781976804755,0.006332054302000104
182,5.0,300.19287,262.7661,0.0,0.0,0.0,0.0,0.0018139593442553898,0.0,0.007417023561303232,-0.033393658214447466,-0.05389769908528874,0.03370246847392467,-0.012191502210207589,-0.014728027927543186
183,5.0,299.7938,661.1983799999999,0.0,0.0,0.0,0.0,0.0018239261538392103,0.0,-0.04494600327482516,-0.08344257745739123,-0.07259921767748494,0.02712539722681827,-0.011345253965189388,-0.004984500367356886
184,5.0,301.33006,505.22525,0.0,0.0,0.0,0.0,0.0018338929634230314,0.0,-0.08068760616424672,-0.019953838973790584,-0.05293441437421995,0.018768502529806982,0.0008172145665202983,0.010901822284176091
185,5.0,300.66638,101.41805,0.0,0.0,0.0,0.0,0.001843859773006852,0.0,-0.027822826389899174,-0.005865568546761545,0.002859841867894417,-0.0005543115077337866,0.029167414338849677,-0.015279376823707088
186,5.0,300.53735,141.35294,0.0,0.0,0.0,0.0,0.001853826582590673,0.0,-0.03687025103006047,-0.0003754879017152707,-0.005722023836894785,-0.016662128837674085,0.028712522799205373,0.021030515490300283
187,5.0,299.46494,88.01244200000001,0.0,0.0,0.0,0.0,0.0018637933921744937,0.0,0.004261849585436806,0.016768655873687484,-0.047784089447172454,-0.01884210501707098,0.022835403707928876,0.0035010687837035872
188,5.0,300.24077,171.31458999999998,0.0,0.0,0.0,0.0,0.0018737602017583144,0.0,0.026303366672440175,-0.053436178863490245,-0.024942544430387476,0.012967136042506686,0.05166167598986045,-0.006383404094542933
189,5.0,299.48618,439.75012000000004,0.0,0.0,0.0,0.0,0.0018837270113421355,0.0,-0.03263591229941377,-0.05007208011372955,-0.05096506249311005,0.00953933932520949,0.004565183126798496,-0.013045466354737287
190,5.0,298.6114,490.80035,0.0,0.0,0.0,0.0,0.0018936938209259562,0.0,-0.059077818631526745,-0.056585452380049354,-0.03352778010368426,0.04318174131995606,-0.01168277973250059,0.013762733941526089
191,5.0,299.82942,281.90166,0.0,0.0,0.0,0.0,0.001903660630509777,0.0,-0.06513413404273853,-0.04196180339830756,0.021404869858996183,0.002944713013495547,-0.006883083416432444,-0.008302822402774773
192,5.0,300.13501,310.15352,0.0,0.0,0.0,0.0,0.0019136274400935978,0.0,-0.055206773631484345,-0.009711260408101781,-0.02936089140569437,0.031348582100364175,0.017772594205268482,0.02071689938559878
193,5.0,300.38626,548.15947,0.0,0.0,0.0,0.0,0.0019235942496774185,0.0,-0.06473265598211574,-0.04667962049366986,-0.05521451486224835,-0.00029336306918518074,0.041793849088231756,0.004242415752493837
194,5.0,300.76119,345.54082999999997,0.0,0.0,0.0,0.0,0.0019335610592612397,0.0,-0.011486324723611989,-0.03016089896914897,-0.06338856047271385,-0.03218920984707767,0.013359683316748088,-0.004314678115175575
195,5.0,300.1126,39.959547,0.0,0.0,0.0,0.0,0.0019435278688450601,0.0,0.014223505371500685,-0.03038233667250317,0.0040121268028910865,-0.006112130495620313,0.022142614217055878,-0.016357803223139487
196,5.0,300.27396,268.66412,0.0,0.0,0.0,0.0,0.0019534946784288813,0.0,-0.035314293030749365,-0.04238574217389706,-0.003967149745527196,0.0067989729176813835,0.03132875786215768,-0.01991165737212758
197,5.0,300.50919,198.31748000000002,0.0,0.0,0.0,0.0,0.0019634614880127015,0.0,-0.05790691897496795,-0.002137249854480138,-0.00023939300175124977,0.03164307310942817,0.04338004145727676,-0.005123295163404865
198,5.0,299.71502999999996,91.387928,0.0,0.0,0.0,0.0,0.0019734282975965227,0.0,-0.002036629458599678,-0.035807790412453765,0.01006477201959066,-0.004593610770279086,-0.025878147148724273,-0.003142853563925497
199,5.0,299.85605,354.39367999999996,0.0,0.0,0.0,0.0,0.001983395107180344,0.0,-0.0072507965386729035,-0.03780569568138167,-0.06267033637783063,-0.00846333965976659,0.02148663103606538,0.00048820576411715753
200,5.0,300.53764,390.6696,0.0,0.0,0.0,0.0,0.0019933619167641645,0.0,-0.023864229488466077,-0.03886113852879576,-0.056028437389326245,0.004926236358781675,0.029781686066223573,0.007520639732429353
201,5.0,299.62595,272.34258,0.0,0.0,0.0,0.0,0.002003328726347985,0.0,-0.013746448985918886,-0.06818071871466304,-0.0008581754956553273,-0.0016648774201356083,0.03762389530868936,-0.020886919712628477
202,5.0,299.96811,517.3371599999999,0.0,0.0,0.0,0.0,0.002013295535931806,0.0,-0.06785995007750564,-0.04859992904343955,-0.04079770062341956,0.0005680557083177335,-0.0042253507969596555,0.037004357720545764
203,5.0,299.36614,612.00807,0.0,0.0,0.0,0.0,0.002023262345515627,0.0,-0.07652978200165143,-0.056761756884199245,-0.05274363255264125,0.0015861118156620484,0.0007287639021583974,0.02209471383182848
204,5.0,300.26485,386.27194,0.0,0.0,0.0,0.0,0.0020332291550994477,0.0,-0.037744957417387266,-0.04907521832084695,-0.03059684779817377,0.026353763705913975,0.04116771422868706,0.028560734894475075
205,5.0,300.04906,303.28242,0.0,0.0,0.0,0.0,0.0020431959646832684,0.0,-0.018975036337440285,-0.0015435763870641286,-0.07167167029744313,0.003032112420746197,0.02948157050585447,0.010149396945417489
206,5.0,299.80827999999997,419.95392000000004,0.0,0.0,0.0,0.0,0.002053162774267089,0.0,-0.025609565957967373,-0.04667265845223275,-0.05537328203366745,-0.02029146606611178,0.01142130446469499,0.017134826221325682
207,5.0,299.99298999999996,231.90202000000002,0.0,0.0,0.0,0.0,0.00206312958385091,0.0,-0.03258692773657937,-0.015602441485591086,-0.02230305527764018,-0.043286596493304456,0.03826655222436466,-0.017509995243101983
208,5.0,300.39672,233.91942999999998,0.0,0.0,0.0,0.0,0.002073096393434731,0.0,-0.04023636817402036,-0.024732761129683475,-0.006136537360054084,-0.02815857896953537,0.040012157205142465,-0.018075502282913183
209,5.0,299.74537999999995,410.31135,0.0,0.0,0.0,0.0,0.002083063203018552,0.0,-0.07911956414424302,-0.031241383279534466,-0.014363456488562786,-0.001316981646000969,0.03734548255221217,0.0019897892369519082
210,5.0,299.76454,186.89764,0.0,0.0,0.0,0.0,0.0020930300126023723,0.0,-0.014964509355132086,-0.008786915911626081,-0.03306079238434617,-0.000995919024459555,-0.028406958993048577,0.016517234073374087
211,5.0,300.15563,164.26288,0.0,0.0,0.0,0.0,0.0021029968221861935,0.0,0.026921357027681073,-0.05502526507482085,-0.02182790582874658,-3.751546538898816e-05,-0.004734721146780595,0.014620149215896385
212,5.0,300.31527,531.43927,0.0,0.0,0.0,0.0,0.002112963631770014,0.0,-0.04155504934441406,-0.04775139389294566,-0.07223782277756802,0.021996228961858776,0.016090483528757086,0.006814131341827403
213,5.0,299.49907,398.78729,0.0,0.0,0.0,0.0,0.0021229304413538353,0.0,-0.056179128957448345,-0.02761611019724787,-0.037426139286672364,0.03942828500726876,0.06890592511598534,0.01009188851744185
214,5.0,299.04413999999997,95.637199,0.0,0.0,0.0,0.0,0.002132897250937656,0.0,-0.031724844418998366,-0.022624864522650275,0.025278388202532677,0.005213230735655815,0.03322633718568417,-0.017344222460491485
215,5.0,298.44834,311.5377,0.0,0.0,0.0,0.0,0.0021428640605214767,0.0,-0.06129419278101585,-0.0024055085277302074,-0.030999980496209868,0.012378715364934088,0.03506015875991826,0.00021512807339148774
216,5.0,299.42057,430.55939000000006,0.0,0.0,0.0,0.0,0.0021528308701052974,0.0,-0.02248940413003138,-0.06540233627795802,-0.04298756207079205,0.0020097678944736483,0.015566604856054288,-0.0006051560836442554
217,5.0,299.64909,121.6065,0.0,0.0,0.0,0.0,0.002162797679689118,0.0,0.028034177188507873,-0.03624596332544806,-0.02875355334875477,-0.006254271347473524,0.005749465689353084,-0.004043232973011027
218,5.0,299.2189,150.7234,0.0,0.0,0.0,0.0,0.002172764489272939,0.0,-0.01120271602062199,-0.007407773499815322,-0.02720565879373947,-0.004287359372604426,-0.014769246941611186,0.01054134842860009
219,5.0,300.18192,342.68973,0.0,0.0,0.0,0.0,0.0021827312988567603,0.0,-0.04361122054709236,-0.03637566035149817,-0.024182239045601177,0.0015143286189525987,0.02320060741497168,0.007861155600785654
220,5.0,300.64016000000004,256.85381,0.0,0.0,0.0,0.0,0.0021926981084405806,0.0,-0.05665629680054115,-0.02006894215865038,-0.0013519059451477288,0.01089036647854549,0.04925846460143195,-0.004827352977547645
221,5.0,300.19926,566.47217,0.0,0.0,0.0,0.0,0.0022026649180244017,0.0,-0.08137951210103252,-0.050776058925456856,-0.04003782384342556,0.012668370131270788,0.02899077242241647,0.019625342278120482
222,5.0,300.26988,765.75602,0.0,0.0,0.0,0.0,0.0022126317276082224,0.0,-0.07116221017366334,-0.07344821993627494,-0.08816028005549222,-0.003944879724229316,-0.01014763996974409,0.028455587905097873
223,5.0,300.46747,349.42447000000004,0.0,0.0,0.0,0.0,0.0022225985371920436,0.0,-0.012363681773200387,-0.033597581889823175,-0.06025504907471035,0.001012103465656835,-0.017988333390060285,0.03135677017442227
224,5.0,300.17124,177.31797,0.0,0.0,0.0,0.0,0.0022325653467758643,0.0,-0.009210587391839201,-0.02971634562027497,-0.014973303352749986,0.03659964435235367,0.005849858103961045,-0.00949075246303934
225,5.0,299.55258,568.90362,0.0,0.0,0.0,0.0,0.002242532156359685,0.0,-0.06618435865213763,-0.05295286464529085,-0.05379527064592985,0.008926815555583101,0.04204861157412486,0.026390596360299074
226,5.0,298.99777,325.1565,0.0,0.0,0.0,0.0,0.0022524989659435057,0.0,-0.06264344472017663,-0.02855104113076837,-0.007644969674024763,0.013754867067749687,0.01898317070924308,-0.007532223106247543
227,5.0,299.83756,10.226947000000001,0.0,0.0,0.0,0.0,0.0022624657755273263,0.0,-0.01293789465787079,0.0006757971752384884,0.00915336145799144,0.005793749886298594,0.04034429856142226,0.0011527429240418688
228,5.0,299.85337000000004,381.6944,0.0,0.0,0.0,0.0,0.0022724325851111475,0.0,-0.027472826500606874,-0.02181773178449248,-0.06673500840573253,0.03242631847647847,0.04874540237354666,-0.0052099351397055646
229,5.0,299.8307,404.66077,0.0,0.0,0.0,0.0,0.002282399394694968,0.0,-0.014714922550749788,-0.03575843297358256,-0.07253341417624062,0.006269577098184084,0.023694900198004576,0.016616738272944385
230,5.0,299.89257000000003,167.79156,0.0,0.0,0.0,0.0,0.002292366204278789,0.0,-0.019407635361634482,-0.005736388075612425,-0.025860419324974678,-0.030233347364549072,-0.026194526386448477,-0.007107785912933854
231,5.0,300.24346,405.24391,0.0,0.0,0.0,0.0,0.00230233301386261,0.0,-0.05091718135963454,-0.027631815573797874,-0.04463503175288466,-0.009727445558574131,0.008176358455143752,-0.011052257500022889
232,5.0,300.00322,462.93906,0.0,0.0,0.0,0.0,0.0023122998234464303,0.0,-0.08714519698606132,-0.04752087949519566,-0.0060558376637896445,0.013051380695570988,0.010340572921285091,-0.019846310846678383
233,5.0,300.1194,138.55700000000002,0.0,0.0,0.0,0.0,0.0023222666330302514,0.0,-0.029087766801489074,-0.013783220845297987,0.0007531206715072233,0.04036033020450446,0.03795458771732617,-0.029702633306671673
234,5.0,299.01662000000005,353.62129,0.0,0.0,0.0,0.0,0.0023322334426140725,0.0,-0.026955815637081874,-0.04711464827835375,-0.033421577307702864,0.028386804435309474,-0.0008424016943260741,0.016296860282624885
235,5.0,299.49872,348.05402999999995,0.0,0.0,0.0,0.0,0.0023422002521978932,0.0,-0.02935675937178657,-0.017679658906096483,-0.05876331593298774,0.05185617441280595,0.025494479998359274,0.019690781009328782
236,5.0,298.83727000000005,3.2805614000000003,0.0,0.0,0.0,0.0,0.002352167061781714,0.0,0.03234162090061947,-0.01173797146544759,-0.02160085877283878,0.03667482244352317,0.03623474867334126,0.019039390891041584
237,5.0,299.25547,209.30254,0.0,0.0,0.0,0.0,0.0023621338713655346,0.0,-0.002908893203910407,-0.04905656843950636,-0.01165728534673449,0.016520235320170284,0.037471069835856664,-0.007037388538386174
238,5.0,300.41232,706.84159,0.0,0.0,0.0,0.0,0.0023721006809493557,0.0,-0.10302296385507491,-0.05556989916257204,-0.056269334560850946,-0.024768800409240274,0.013539847290528885,0.012914690217330688
239,5.0,301.12636000000003,499.02574000000004,0.0,0.0,0.0,0.0,0.0023820674905331764,0.0,-0.038706285542512965,-0.06022701345769345,-0.05275806528706565,-0.03560266096945907,0.03210195989421676,-0.01052954001193469
240,5.0,300.62348,158.57238,0.0,0.0,0.0,0.0,0.0023920343001169976,0.0,-0.003914022610983957,-0.020730101021151682,-0.02355791993023568,-0.01982357756743478,0.029044201100189473,-0.017521381134475683
241,5.0,300.01902,418.72607999999997,0.0,0.0,0.0,0.0,0.002402001109700818,0.0,-0.029746851541035672,-0.039903400005658965,-0.05763202219633774,0.006830043725372832,0.003651693983944137,0.007142934646977763
242,5.0,300.535,416.46984,0.0,0.0,0.0,0.0,0.0024119679192846385,0.0,-0.03409701691711357,-0.03722709745027847,-0.05527231774070305,0.015921710512600485,0.0015052953929860886,-0.0017253358244523885
243,5.0,301.04894,170.06763999999998,0.0,0.0,0.0,0.0,0.00242193472886846,0.0,-0.014685705484116287,-0.028411677698764272,-0.008598933092123623,0.023119170477934478,0.029384415020015972,-0.011912325463154988
244,5.0,300.59416,457.71831,0.0,0.0,0.0,0.0,0.002431901538452281,0.0,-0.060984933651744344,-0.05816328036951885,-0.01998672197928588,0.02484023352804018,0.057532702408285646,-0.007362626824384692
245,5.0,300.73295,325.41848,0.0,0.0,0.0,0.0,0.002441868348036101,0.0,-0.009039163004145931,-0.05263721697413886,-0.03724271163431946,0.0033612427017038265,0.056696873414045744,-0.010152460000469791
246,5.0,300.36719,55.451657999999995,0.0,0.0,0.0,0.0,0.002451835157619922,0.0,0.012562881676609886,-0.0033950825192685568,-0.026023718764091076,-0.011894236922369789,0.005419242820812625,0.0016601657058455985
247,5.0,301.44022,511.89047,0.0,0.0,0.0,0.0,0.002461801967203743,0.0,-0.030590816933578575,-0.034012330487005665,-0.09099877355437973,0.002294806799979798,0.005184548665075115,0.007820425277240882
248,5.0,300.88371,697.3494099999999,0.0,0.0,0.0,0.0,0.002471768776787564,0.0,-0.06433604658822344,-0.06430983684788674,-0.08333092236262173,-0.0033433809262910065,0.025708111622943078,0.01214216706283859
249,5.0,299.44842,178.90695,0.0,0.0,0.0,0.0,0.0024817355863713847,0.0,-0.018101824494010984,-0.012506275446523288,-0.023775147579424376,0.03369830300276357,0.024126332971333677,-0.007933048532480932
250,5.0,299.9077,326.0495,0.0,0.0,0.0,0.0,0.002491702395955206,0.0,-0.05357347222554005,-0.018460570758166484,-0.027076861533778175,0.011494520903670888,-0.003399776501681817,0.0034158800855211167
251,5.0,298.68007,497.17167,0.0,0.0,0.0,0.0,0.002501669205539026,0.0,-0.06489264310665524,-0.041335832685279066,-0.04489929649821556,0.02984744802421377,0.03550579831289946,-0.00872360439767772
252,5.0,298.68188,107.13138000000001,0.0,0.0,0.0,0.0,0.002511636015122847,0.0,-0.03428961853587187,-0.004416287443153636,0.006140640111033994,0.013639093111323688,0.04448298040312836,-0.006817936095952904
253,5.0,300.12832000000003,113.98643,0.0,0.0,0.0,0.0,0.0025216028247066684,0.0,0.016213528567900686,-0.031167867931779072,-0.01969468810171438,-0.015858932576154786,0.04857446100217605,-0.02461926799923258
254,5.0,300.62845,318.68775,0.0,0.0,0.0,0.0,0.002531569634290489,0.0,-0.04270567183997166,-0.009577458908546601,-0.04458998670643905,-0.029648275478556974,0.01797272933852028,0.007325539134949423
255,5.0,300.83713,165.75826999999998,0.0,0.0,0.0,0.0,0.0025415364438743093,0.0,-0.00962178323019607,-0.023418670995492878,-0.017345919654408983,-0.017018843535379087,0.003221631732700297,0.0004735007997883905
256,5.0,301.36226,282.79614,0.0,0.0,0.0,0.0,0.0025515032534581305,0.0,-0.02319315800023648,-0.026803471458046676,-0.03596633568210097,-0.004072541029503506,0.04740294528955646,-0.006657943499862864
257,5.0,299.64117000000005,694.437,0.0,0.0,0.0,0.0,0.002561470063041951,0.0,-0.06362718289776403,-0.06092861619793624,-0.08653570982565961,0.012608755561637288,0.03419694566847577,0.016987929274828086
258,5.0,299.52116,461.73385999999994,0.0,0.0,0.0,0.0,0.0025714368726257723,0.0,-0.06310168809115174,-0.04538012521391966,-0.031873750640444266,0.031239225056821467,0.013917188720519589,0.012572750732583888
259,5.0,300.13337,307.76624,0.0,0.0,0.0,0.0,0.002581403682209593,0.0,-0.025701974367087373,-0.035417479381183066,-0.03243379828871667,0.028513370518550574,0.016674827901177382,-0.005031750448670105
260,5.0,298.89354,628.96297,0.0,0.0,0.0,0.0,0.0025913704917934137,0.0,-0.0974165213557621,-0.04976412807708705,-0.04400838824178976,0.04583171659798826,0.04602504471706825,0.003435683754750587
261,5.0,299.73857999999996,394.10974,0.0,0.0,0.0,0.0,0.002601337301377235,0.0,-0.04503145470875855,-0.046537616531905156,-0.02823044778587827,-0.0007639176720553042,0.025338632000478273,-0.007750723904186893
262,5.0,299.89963,32.402277000000005,0.0,0.0,0.0,0.0,0.002611304110961055,0.0,0.003148418840099747,-0.01278334159361759,-0.0002145605621429788,-0.03532930534423096,0.0015665044129769485,-0.005897242643562535
263,5.0,300.35952000000003,137.72422,0.0,0.0,0.0,0.0,0.0026212709205448766,0.0,-0.006519879865087044,-0.01727806634821238,-0.018066778199552182,-0.03759391526473056,0.00985172929596498,-0.018360490019289286
264,5.0,301.18232,374.09199,0.0,0.0,0.0,0.0,0.0026312377301286973,0.0,-0.056514897749086156,-0.022076391230270182,-0.035123332877153066,0.0017331716927757284,0.049076680440741254,0.028340675211256872
265,5.0,300.7471,199.81823,0.0,0.0,0.0,0.0,0.0026412045397125176,0.0,-0.007645622409739182,-0.016822808012031884,-0.03627132193570076,0.011530235943195688,0.03723440906300007,-0.01980171872302748
266,5.0,300.17633,401.26217,0.0,0.0,0.0,0.0,0.0026511713492963387,0.0,-0.036942377211928765,-0.05896059978045815,-0.026070704184478176,0.013570357264289987,0.018997001573108085,0.015085981830120485
267,5.0,299.18676,706.1141,0.0,0.0,0.0,0.0,0.0026611381588801594,0.0,-0.06842140107716653,-0.051797802087795046,-0.0944218505527111,0.03209984625450817,0.014981088153268287,0.003377311024439647
268,5.0,299.77721,402.87625,0.0,0.0,0.0,0.0,0.00267110496846398,0.0,-0.03767269242025526,-0.04135980010314446,-0.04343182765663766,0.05781322779122135,0.04044875451423126,0.013102217479588188
269,5.0,299.48989,217.49307000000002,0.0,0.0,0.0,0.0,0.0026810717780478012,0.0,0.0003430465212760557,-0.03615452459667376,-0.03030098484847437,0.021192383207025378,0.01911849026009808,0.005028339747508495
270,5.0,299.22716,449.39707999999996,0.0,0.0,0.0,0.0,0.002691038587631622,0.0,-0.05195655710021295,-0.025331461229520576,-0.05931747355842885,-0.019931649809850682,-0.013896628862740486,0.02235232861675308
271,5.0,299.05651,255.25311000000002,0.0,0.0,0.0,0.0,0.002701005397215443,0.0,-0.027941707984381874,-0.038124133843309066,-0.011524730955402388,-0.029874232277357176,0.02962222481848597,-0.0077759043850720135
272,5.0,299.49436000000003,84.829208,0.0,0.0,0.0,0.0,0.0027109722067992633,0.0,-0.03123253152666087,-0.012852758344718489,0.01829932923000318,-0.012689663582122288,0.05597934339548104,-0.019306655869918584
273,5.0,300.18933,349.96531,0.0,0.0,0.0,0.0,0.0027209390163830845,0.0,-0.054709088487116656,-0.022980246796473775,-0.02869138133586887,0.027991587247054577,0.023861642660960775,-0.009401640764444701
274,5.0,299.76164,214.96302999999997,0.0,0.0,0.0,0.0,0.0027309058259669056,0.0,-0.017387939136055984,-0.023109258865456277,-0.024846197518128776,0.01102893146947079,0.009060381069189992,-0.004355120473041926
275,5.0,299.80085,134.57877,0.0,0.0,0.0,0.0,0.002740872635550726,0.0,0.022024941429942477,-0.023623003010658877,-0.039310524067396664,0.022090355843148377,0.012124004554796088,-0.016324457162348482
276,5.0,300.20568,550.78167,0.0,0.0,0.0,0.0,0.0027508394451345466,0.0,-0.040277787811608165,-0.05130780751168636,-0.07583827933840542,0.03289431843266647,0.03447219911114117,0.02219072738480428
277,5.0,300.69266,506.58907999999997,0.0,0.0,0.0,0.0,0.0027608062547183677,0.0,-0.05410405253440424,-0.03981110001429966,-0.06007527925521844,0.02025977362948398,0.038793569945877265,0.007920779998945124
278,5.0,300.37926,273.13499,0.0,0.0,0.0,0.0,0.0027707730643021884,0.0,-0.04045865599420846,-0.03621549894794147,-0.006352062546424764,-0.0010662591909065889,0.0023808281870944478,0.014712996362309686
279,5.0,300.79655,530.54998,0.0,0.0,0.0,0.0,0.0027807398738860095,0.0,-0.039131680358496165,-0.07299790322083213,-0.049144361494420856,-0.0007385843626576014,0.02212405856797458,-0.011639927359271388
280,5.0,299.92235,668.13565,0.0,0.0,0.0,0.0,0.00279070668346983,0.0,-0.07264638446963992,-0.058170488630730245,-0.07227968115244914,0.005388964881324425,0.025277513767696377,0.026665154713395874
281,5.0,301.10921,91.378394,0.0,0.0,0.0,0.0,0.002800673493053651,0.0,0.016352616395877585,-0.017945388811071983,-0.026183976426407275,0.021002614635546677,-0.004934287745401285,0.002187726225436768
282,5.0,299.88948,-1.7511113999999999,0.0,0.0,0.0,0.0,0.0028106403026374716,0.0,0.005363910043451704,-0.012143350538955386,0.007311734311611993,0.006960396425562643,-0.018255846615211783,0.0009649493188630831
283,5.0,299.46974,401.2716,0.0,0.0,0.0,0.0,0.0028206071122212927,0.0,-0.05137976042778755,-0.02232636509619068,-0.048270421124169655,0.03359901361221447,0.03160285417320887,-0.0015146582292101286
284,5.0,299.47204,387.35995,0.0,0.0,0.0,0.0,0.002830573921805114,0.0,-0.07765762562171093,-0.04099587714422806,0.0009057511342256773,0.015493619438101186,0.05444828601737745,-0.0036228870809511165
285,5.0,299.45043,266.95556,0.0,0.0,0.0,0.0,0.002840540731388934,0.0,-0.016260348828521485,-0.04174367193002966,-0.02314380360111558,-0.0077477097891144224,0.06846119039534343,-0.01034488126071029
286,5.0,299.51362,489.40985,0.0,0.0,0.0,0.0,0.002850507540972755,0.0,-0.05933253653441545,-0.030391070888365176,-0.05904476540001465,-0.017295855980218083,0.02212566355613298,0.0046732122047601354
287,5.0,300.04651,431.82435999999996,0.0,0.0,0.0,0.0,0.002860474350556576,0.0,0.004083862376845836,-0.07061681006883652,-0.06473087468843994,0.0030067337481415176,0.01935453700339408,0.017379656829738584
288,5.0,299.71672,313.22639,0.0,0.0,0.0,0.0,0.0028704411601403967,0.0,-0.02065911575889598,-0.045842779262580055,-0.028711105262315476,0.01901742160237338,0.033430188920302764,0.004634828669771975
289,5.0,300.21459,630.46257,0.0,0.0,0.0,0.0,0.002880407969724218,0.0,-0.08814424334615951,-0.04016872866359486,-0.06333190459337235,0.023827664332107378,0.01349531190888359,0.02279225546567048
290,5.0,301.23447000000004,514.42259,0.0,0.0,0.0,0.0,0.0028903747793080385,0.0,-0.1106345391362789,-0.04061604818524186,-0.005121033285206635,0.008600011291555033,0.007310285465294003,0.005764105126797885
291,5.0,301.01532000000003,99.85439699999999,0.0,0.0,0.0,0.0,0.002900341588891859,0.0,0.016491554262839686,-0.056044945259955445,0.009200148078708921,0.027028281257733676,0.014571635814358485,-0.028564886180134773
292,5.0,300.7095,383.05541,0.0,0.0,0.0,0.0,0.00291030839847568,0.0,-0.035222174411157964,-0.05176444488125295,-0.02945266045400127,0.027719428270194572,0.032974614450091075,-0.0027180827073538774
293,5.0,300.802,671.96754,0.0,0.0,0.0,0.0,0.002920275208059501,0.0,-0.027722275502975572,-0.06617133230885204,-0.11036774025244789,-0.014078943966483588,0.014539536051190485,0.0018910980692618483
294,5.0,299.85607999999996,146.11483,0.0,0.0,0.0,0.0,0.002930242017643322,0.0,0.00023309814497499576,-0.025569512181514376,-0.019078847863185682,-0.031187394274456173,0.017359547868253982,-0.012825839329311788
295,5.0,299.76859,-28.492733,0.0,0.0,0.0,0.0,0.0029402088272271424,0.0,0.000927016761229431,-0.008132945045334182,0.015867008179451785,-0.037366438590780364,0.039943792207645365,-0.027147892392288372
296,5.0,300.00886,321.37237000000005,0.0,0.0,0.0,0.0,0.002950175636810963,0.0,-0.06987778800240073,-0.03447438165185657,0.0066629943489613435,0.01770147114099918,0.06563961715987583,0.0035932308717242767
297,5.0,299.86877999999996,176.77773,0.0,0.0,0.0,0.0,0.0029601424463947842,0.0,-0.02310887281716818,-0.01013811136580369,-0.020489032610360083,-0.017108111882439183,0.04282360401911066,-0.009894123173523929
298,5.0,299.23852999999997,247.94202,0.0,0.0,0.0,0.0,0.002970109255978605,0.0,-0.03163829462195657,-0.026868750095739174,-0.016861140276564983,0.006699804610519233,0.005302465544137605,0.004749562119670285
299,5.0,300.11068,531.0570299999999,0.0,0.0,0.0,0.0,0.0029800760655624256,0.0,-0.023582448688656478,-0.04965322481389175,-0.08819240211016242,0.01687941120236818,0.02089866024153718,0.028991849507272772
300,5.0,299.13568,343.3365,0.0,0.0,0.0,0.0,0.0029900428751462468,0.0,-0.036913281735307266,-0.032930825833769474,-0.034521616331768264,0.028172314587890976,0.035763021983285466,0.023803122401435273
301,5.0,299.99676,278.3355,0.0,0.0,0.0,0.0,0.0030000096847300674,0.0,-0.027077632617104275,-0.044284516119291455,-0.013244892212919088,0.014063759400484986,0.006286749458228864,0.003191362912462997
302,5.0,301.04034,633.40982,0.0,0.0,0.0,0.0,0.0030099764943138877,0.0,-0.12496781293086287,-0.03627210112502767,-0.03130085903390427,-0.023366661881109977,-0.005592624706374084,0.015022258531331486
303,5.0,300.93037999999996,524.5309900000001,0.0,0.0,0.0,0.0,0.0030199433038977093,0.0,-0.05662642517434304,-0.052932857008816246,-0.04988504123802025,-0.013399027818131088,0.046928316651214254,-0.016372559184345787
304,5.0,301.39915,15.941585,0.0,0.0,0.0,0.0,0.00302991011348153,0.0,0.019646276025186482,-0.004890893080718565,-0.01960122692574048,0.012525039825125187,0.05067700967518145,-0.0029140630085706274
305,5.0,300.84876,216.40127,0.0,0.0,0.0,0.0,0.0030398769230653507,0.0,0.03864007471472846,-0.03466923268583687,-0.06975142456917963,0.01828049899014478,0.06668960669525173,-0.006515103910740694
306,5.0,299.20067,530.84544,0.0,0.0,0.0,0.0,0.0030498437326491714,0.0,-0.06042197392268454,-0.029894099072067873,-0.07104768656786073,-0.007777184119948312,0.035162312608500064,0.04337769173029486
307,5.0,300.33122000000003,254.91224,0.0,0.0,0.0,0.0,0.003059810542232992,0.0,-0.025858308725016377,-0.04713941515054806,-0.0044892313178526355,0.034489536833602265,0.03603890465426297,-0.012297079830877288
308,5.0,299.30093,228.26892,0.0,0.0,0.0,0.0,0.003069777351816813,0.0,-0.04285314025952566,-0.01970422177190528,-0.006830689267011544,0.007133646588611103,0.04040499325566236,0.02215391094242078
309,5.0,299.55841000000004,544.82759,0.0,0.0,0.0,0.0,0.003079744161400634,0.0,-0.05103925671843245,-0.08623541998627332,-0.028339304283871575,0.014608699489766385,0.014270878866676088,-0.01074178145738129
310,5.0,300.28956,472.39445,0.0,0.0,0.0,0.0,0.003089710970984455,0.0,-0.04526472919978095,-0.047533518776943055,-0.05079786812060925,-0.014074944668338885,0.004810123368872215,0.017526619637492684
311,5.0,300.51029,409.72431,0.0,0.0,0.0,0.0,0.0030996777805682757,0.0,-0.008376548810526002,-0.06340837761816964,-0.05276103208335845,-0.002806690314023767,0.025478242665506773,-0.026879609097060875
312,5.0,300.56614,385.41149,0.0,0.0,0.0,0.0,0.003109644590152096,0.0,-0.04186899171564776,-0.05646689502559865,-0.018819580467347982,0.0088518917901887,0.03267256864828147,0.021528684968215778
313,5.0,301.65828999999997,94.549225,0.0,0.0,0.0,0.0,0.0031196113997359175,0.0,0.006788669684039533,-0.012282701811958289,-0.023246571479257978,0.016243555221364087,0.02083123452688278,-0.008265154019707191
314,5.0,300.37861000000004,149.03017,0.0,0.0,0.0,0.0,0.0031295782093197382,0.0,-0.02942439280271147,-0.018178201260048783,0.002301144476705278,0.01297373635365809,0.005101975469375775,-0.008024517557433223
315,5.0,299.9671,584.23626,0.0,0.0,0.0,0.0,0.0031395450189035585,0.0,-0.06644906213476184,-0.033334241228583465,-0.07780992927074212,0.035784029697608764,0.03497241434100857,-0.005340505891316895
316,5.0,299.90828,458.05192999999997,0.0,0.0,0.0,0.0,0.0031495118284873796,0.0,-0.05689693863304065,-0.018610470977960484,-0.06372894056555674,0.002349846950711838,0.04315339970140896,0.01118693465031449
317,5.0,299.80053,126.49306000000001,0.0,0.0,0.0,0.0,0.0031594786380712003,0.0,0.011131504803593989,-0.033157646934904965,-0.016424589576980786,0.014820482946167788,0.031129569104499266,0.003993953047772477
318,5.0,299.01614,585.38617,0.0,0.0,0.0,0.0,0.0031694454476550215,0.0,-0.09443903527440711,-0.043119575386570755,-0.040384165899856855,-0.04621117369418776,0.014316254232654289,0.029594078757208174
319,5.0,300.20962000000003,676.84162,0.0,0.0,0.0,0.0,0.003179412257238842,0.0,-0.09841813731811391,-0.06743496664106303,-0.03988984778557146,0.01051950174319399,0.04186113801412266,0.01066148847970699
320,5.0,299.83097000000004,179.39547,0.0,0.0,0.0,0.0,0.003189379066822663,0.0,-0.02707293721614087,-0.036366454974339664,0.008907649727291581,0.0037296390584867158,0.04642153353419866,0.003059616081460597
321,5.0,300.13863,282.30929,0.0,0.0,0.0,0.0,0.003199345876406484,0.0,-0.00993374925710972,-0.033296668901625366,-0.04258455704226855,0.029240697652332177,0.03172516257952977,-0.0011969141436012289
322,5.0,300.14486,413.55327,0.0,0.0,0.0,0.0,0.0032093126859903042,0.0,-0.02924491885224877,-0.03016531977933527,-0.06629963104976414,0.031490728930392974,-0.009825590280485262,0.007836290949956703
323,5.0,300.59734,112.21458,0.0,0.0,0.0,0.0,0.003219279495574126,0.0,0.017818839953082585,-0.013598587425326089,-0.03833068284969386,0.03226517219382457,0.034633721309582165,-0.01974791311621728
324,5.0,300.4066,99.171476,0.0,0.0,0.0,0.0,0.0032292463051579465,0.0,-0.028288191895827174,0.0017790245022010483,-0.003636484593318087,0.031112211117036173,0.043728273225144554,-0.005739491660668725
325,5.0,300.38437000000005,443.10461,0.0,0.0,0.0,0.0,0.0032392131147417668,0.0,-0.03833829539769516,-0.03342520271656067,-0.06292923799038223,0.001186241884272959,0.03126680572454347,-0.008636817297462502
326,5.0,299.91832999999997,364.19076,0.0,0.0,0.0,0.0,0.003249179924325588,0.0,-0.033316546842087166,-0.04524928929475716,-0.03213906105987837,-0.004658408722124146,0.024620095824564276,0.010096056825703229
327,5.0,300.90536000000003,405.33378,0.0,0.0,0.0,0.0,0.0032591467339094086,0.0,-0.006599621128081894,-0.05560360188739824,-0.06100812492003315,-0.0068455868805818235,0.03712198288490447,-0.009107980519137691
328,5.0,300.72526,682.86965,0.0,0.0,0.0,0.0,0.00326911354349323,0.0,-0.06572508581906095,-0.06115779209230414,-0.08069244544672433,0.02027653177288788,0.06792617306429134,0.01160156165748499
329,5.0,300.71069,299.48524,0.0,0.0,0.0,0.0,0.0032790803530770504,0.0,-0.022484868822583777,-0.03169978167777487,-0.03685138431319846,-0.013636897398356987,0.02896147632227517,0.015530412575732384
330,5.0,299.77406,-117.82583000000001,0.0,0.0,0.0,0.0,0.003289047162660871,0.0,-0.01600686810400488,0.009237310242026541,0.04258566857762826,0.006929404955354024,0.003479371248712207,-0.006597814199178563
331,5.0,299.16736000000003,348.29334,0.0,0.0,0.0,0.0,0.0032990139722446923,0.0,-0.05250808027539404,-0.03343610528763667,-0.01992829189901928,0.004621034080260556,0.016950758194909585,0.007775899217496504
332,5.0,299.49383,485.23553,0.0,0.0,0.0,0.0,0.0033089807818285125,0.0,-0.06723883992520684,-0.016212843610833087,-0.06404780226602594,0.03380276300857297,0.027288355200650972,0.00988933343897622
333,5.0,299.92379,214.0072,0.0,0.0,0.0,0.0,0.003318947591412334,0.0,0.007725423251839913,-0.02276931548340648,-0.05000895159274925,0.006078820303882854,-0.0002984863352683077,-0.01258046359234509
334,5.0,299.27269,439.76437999999996,0.0,0.0,0.0,0.0,0.0033289144009961548,0.0,-0.012067203780690289,-0.031179665202693368,-0.0904305206067975,-0.024875364935507373,-0.011265152491783989,-0.009753207442366631
335,5.0,299.95387,566.69017,0.0,0.0,0.0,0.0,0.0033388812105799755,0.0,-0.06656541668349514,-0.023728833943853576,-0.08196540978585612,-0.0031940377914019867,0.004474197624793925,0.01118128172800659
336,5.0,300.36548,382.66651,0.0,0.0,0.0,0.0,0.003348848020163796,0.0,-0.05587327738826315,-0.045357087959646054,-0.015090700535836185,0.030547507584554268,0.05996659804949244,-0.014463162324902985
337,5.0,299.90276,273.71856,0.0,0.0,0.0,0.0,0.003358814829747617,0.0,-0.05894327320374815,0.0007791162411702863,-0.025039450656701375,0.023673916801683677,0.06139719471993135,0.007919402282784153
338,5.0,299.91521,265.22532,0.0,0.0,0.0,0.0,0.0033687816393314384,0.0,-0.05365001009834375,-0.022586088454573376,-0.0043857761521674055,0.017062394037927184,0.03143055403345417,0.0057492249411293245
339,5.0,299.92877000000004,-27.254984000000004,0.0,0.0,0.0,0.0,0.0033787484489152587,0.0,0.05862952436328354,-0.03345106795186337,-0.016893622035020685,0.002096955329803378,0.05023467737052665,-0.037772756947130864
340,5.0,299.64392000000004,167.77167,0.0,0.0,0.0,0.0,0.0033887152584990794,0.0,-0.004321979595396176,-0.014066011855457286,-0.032610406767896574,0.01078130530403199,0.039394467785181256,-0.00996493010376203
341,5.0,300.76741,657.77937,0.0,0.0,0.0,0.0,0.0033986820680829005,0.0,-0.05424869297292915,-0.06982541513123193,-0.07587439663821993,-0.01880584282249218,0.002359434627133068,-0.004991739634021345
342,5.0,299.60076000000004,348.75049,0.0,0.0,0.0,0.0,0.0034086488776667212,0.0,-0.07157118831152634,-0.024339278625599776,-0.010100973317838451,-0.047833266527525856,-0.005088830879803505,0.016101488438093184
343,5.0,300.1863,198.72946000000002,0.0,0.0,0.0,0.0,0.003418615687250542,0.0,-0.02183490232068708,-0.029130414498198077,-0.009443476341198551,-0.013501526171746886,0.009204954531883282,-0.02400461630307118
344,5.0,299.09656,579.94165,0.0,0.0,0.0,0.0,0.003428582496834363,0.0,-0.07978167850158863,-0.059084436167929855,-0.037421665787480865,0.010920940287062888,0.03696444073285626,0.018413016904473282
345,5.0,299.97117000000003,607.89221,0.0,0.0,0.0,0.0,0.0034385493064181837,0.0,-0.02452449365112908,-0.04824507061991775,-0.1120144844474689,0.04109219872523426,0.03269774791326647,0.006828322213452933
346,5.0,299.82606,229.90957999999998,0.0,0.0,0.0,0.0,0.003448516116002004,0.0,-0.008564897311989552,-0.02486375511586158,-0.03645811965788626,0.025230517201558177,0.022317764629341878,0.004916527193673455
347,5.0,300.1072,279.90727000000004,0.0,0.0,0.0,0.0,0.003458482925585825,0.0,-0.014478014544868785,-0.022575079492236878,-0.048031725745112254,0.033942955279158867,0.02951053527321307,0.011595580442144688
348,5.0,300.24681,302.48528,0.0,0.0,0.0,0.0,0.0034684497351696463,0.0,-0.08160900311618152,0.0013491121106469987,-0.01168807903052359,-0.0004754867091893845,0.06299648030676853,0.010132059324281401
349,5.0,300.74624,245.36607999999998,0.0,0.0,0.0,0.0,0.003478416544753467,0.0,-0.060154468803533846,-0.029764345304012178,0.015333650552063484,-0.006412075424672574,0.04672341822924236,-0.009459321546262351
350,5.0,300.28348,408.95819,0.0,0.0,0.0,0.0,0.0034883833543372877,0.0,-0.06186545812114535,-0.015449482263745184,-0.046998137689105046,-0.036048736219983266,0.025311372533037977,-0.004580416430126906
351,5.0,300.51644,455.83963,0.0,0.0,0.0,0.0,0.0034983501639211084,0.0,-0.023168959561348276,-0.037067967535323564,-0.07832693810776692,-0.026441090665782478,0.015316916726661986,0.006439053208585074
352,5.0,300.69365,115.79801,0.0,0.0,0.0,0.0,0.0035083169735049295,0.0,0.03467698506235197,-0.03843466561470617,-0.03144202301133607,-0.0016326997380349186,0.030330411657878576,-0.027582186583899874
353,5.0,300.03875,221.7418,0.0,0.0,0.0,0.0,0.00351828378308875,0.0,-0.008469408419915532,-0.014242736858398684,-0.04469182442098966,0.01690870730250948,0.010866795241469189,0.00865107433431956
354,5.0,300.04135,718.47447,0.0,0.0,0.0,0.0,0.0035282505926725713,0.0,-0.09252618931162392,-0.07721438848471683,-0.04865772077614316,0.03802620727414446,0.023576489764818378,-0.008842738291435321
355,5.0,299.4337,438.7018,0.0,0.0,0.0,0.0,0.003538217402256392,0.0,-0.07097723224865744,-0.020462460126487583,-0.04191470044090886,0.035020093837714164,0.02943635320689187,0.004570009946299866
356,5.0,299.41485,169.36443,0.0,0.0,0.0,0.0,0.0035481842118402123,0.0,-0.03667053639560017,-0.013159443818735989,-0.0016525780837967584,0.020274946036481382,0.05228773992189815,-0.016621937259207485
357,5.0,298.4653,456.60492,0.0,0.0,0.0,0.0,0.0035581510214240334,0.0,-0.032698448069085576,-0.03971013065508476,-0.06638791553097714,-0.009500236889275381,0.030100580190695968,0.007265485422722583
358,5.0,299.93686,442.41204000000005,0.0,0.0,0.0,0.0,0.0035681178310078545,0.0,-0.044111830944498755,-0.017074798245651383,-0.07329558292796083,-0.036426751461290464,0.03711359216082637,0.004060560461646117
359,5.0,299.02531,263.03966,0.0,0.0,0.0,0.0,0.003578084640591675,0.0,-0.004212176924459497,-0.04413113031915346,-0.03161418230932687,-0.02148886727903608,0.04309279417317766,-0.00997066094500262
360,5.0,300.2942,428.10125,0.0,0.0,0.0,0.0,0.003588051450175496,0.0,-0.07038642131409893,-0.04041490790789086,-0.01933076108979758,-0.016058639104614286,0.04292467166358526,0.02036992404785498
361,5.0,300.1767,287.41056000000003,0.0,0.0,0.0,0.0,0.0035980182597593166,0.0,-0.05041861671418005,-0.015248117044871985,-0.02169889882601458,0.005070184443513245,0.023931887237393375,0.0013897350296811688
362,5.0,300.53152,224.70213999999999,0.0,0.0,0.0,0.0,0.0036079850693431378,0.0,-0.015742577014171383,-0.044179871701963865,-0.008381391740703962,0.02604972686765787,0.024227846445852273,0.0035091219941733765
363,5.0,300.02329,593.60625,0.0,0.0,0.0,0.0,0.0036179518789269585,0.0,-0.03378651554321947,-0.034594089045170764,-0.1120608710370469,0.02252078043262798,0.03125632466550907,0.005435660309532905
364,5.0,299.98679,589.12866,0.0,0.0,0.0,0.0,0.0036279186885107796,0.0,-0.04075482291893786,-0.05227732573737035,-0.08604825344105142,0.024974350351026478,0.05357201821164655,0.015290323977787486
365,5.0,299.91381,181.74726,0.0,0.0,0.0,0.0,0.0036378854980946003,0.0,-0.001050777134678629,-0.023928872818345874,-0.030266978148618177,-0.019813348807675282,0.005827809984435064,0.015152513858186684
366,5.0,300.50987000000003,216.50807000000003,0.0,0.0,0.0,0.0,0.0036478523076784205,0.0,-0.05302897290005215,-0.005734332089834515,-0.007049741880955353,0.007762170185266553,0.03226528263808547,0.007964430509278092
367,5.0,299.46295,526.29749,0.0,0.0,0.0,0.0,0.0036578191172622417,0.0,-0.08013130855459442,-0.04101976147558526,-0.038830225281494865,0.00936731843718235,0.02186103809376648,0.025847451750194872
368,5.0,299.27619,364.58625,0.0,0.0,0.0,0.0,0.003667785926846063,0.0,-0.06183371907501294,-0.031213779307060176,-0.01777761688601418,0.04021960800411626,0.05701928655611544,-0.03155576742781177
369,5.0,298.79372,278.4632,0.0,0.0,0.0,0.0,0.003677752736429883,0.0,-0.01074817506551229,-0.030225703405794675,-0.04367198110258896,0.006923609772732083,0.023815343210891377,0.009180267402471852
370,5.0,299.19452,443.83325999999994,0.0,0.0,0.0,0.0,0.003687719546013704,0.0,-0.04661079548062736,-0.06257830185799754,-0.02572513118487277,0.01315658746670409,0.04052304905131356,-0.04319707989996986
371,5.0,299.70682,334.96207999999996,0.0,0.0,0.0,0.0,0.003697686355597525,0.0,-0.035363353587341266,-0.015127441997712286,-0.05132931273180875,0.01156887724900929,0.05087389632861265,0.014936575063125186
372,5.0,300.373,363.56835,0.0,0.0,0.0,0.0,0.003707653165181346,0.0,-0.05012561112976265,-0.053863065183620655,-0.006527022974317014,0.007161297373240023,0.027229756920867768,-0.03210638374415337
373,5.0,299.68642,553.76832,0.0,0.0,0.0,0.0,0.0037176199747651667,0.0,-0.06830732026165763,-0.03263422422474717,-0.06739019618539453,0.0018667103552549682,-0.005030946130740725,0.04202496839629146
374,5.0,301.10258999999996,325.53222999999997,0.0,0.0,0.0,0.0,0.0037275867843489874,0.0,-0.024302125784183077,-0.03205268452860367,-0.04259885805417996,-0.014656749836008589,0.004802162668136555,0.001257221472328099
375,5.0,300.44112,-30.524762,0.0,0.0,0.0,0.0,0.0037375535939328085,0.0,0.042313926046559355,-0.02159716344972408,-0.011437997760092489,0.00969673080696782,0.04419364987682366,0.001966069254760928
376,5.0,300.17037999999997,418.84955,0.0,0.0,0.0,0.0,0.003747520403516629,0.0,-0.04324670281036726,-0.025428866988133774,-0.058644233714985235,-0.005390775255278095,0.03729803306327926,-0.003002965369694607
377,5.0,299.17477,571.5964299999999,0.0,0.0,0.0,0.0,0.0037574872131004495,0.0,-0.07126153097496553,-0.03897981443350817,-0.06350969553541895,0.017217546946239587,0.03607041977212327,0.012310882323739487
378,5.0,300.09626000000003,55.77285,0.0,0.0,0.0,0.0,0.003767454022684271,0.0,-0.025246729203158177,-0.015216670828018485,0.023509847292491275,0.018869001740975482,0.03841055735507686,0.004070625480189456
379,5.0,299.61807999999996,136.2682,0.0,0.0,0.0,0.0,0.0037774208322680913,0.0,-0.02658577974031218,0.0018605727954242382,-0.016696924859358184,0.050748916995028155,0.04378323089731846,0.016088201689531883
380,5.0,299.95476,413.7037,0.0,0.0,0.0,0.0,0.0037873876418519125,0.0,-0.05086754426373575,-0.02116144969472248,-0.05372660066015265,0.012444282778905089,0.04693485819385986,-0.0006873316597393534
381,5.0,299.27785,395.00928,0.0,0.0,0.0,0.0,0.003797354451435733,0.0,-0.009889207491988792,-0.041255009777802464,-0.06892874249498723,-0.024802128231529476,-0.005173521666886835,-0.01087541293356969
382,5.0,299.8429,453.41222,0.0,0.0,0.0,0.0,0.003807321261019554,0.0,-0.04627869364110145,-0.04977249043016235,-0.04177480809235256,-0.024188776535246377,0.03489505168262347,6.600086919152864e-06
383,5.0,300.19442999999995,512.02543,0.0,0.0,0.0,0.0,0.003817288070603375,0.0,-0.05525289880253654,-0.04705654547786946,-0.05333350217785686,-0.025355137844607276,0.044158154712570556,0.025796328216399374
384,5.0,300.19593,203.31933,0.0,0.0,0.0,0.0,0.0038272548801871957,0.0,-0.03331422852585837,-0.02397898614179168,-0.004510783350129655,0.002074858371622578,0.04346266794993136,0.020772456901831878
385,5.0,300.05388999999997,324.80647999999997,0.0,0.0,0.0,0.0,0.003837221689771017,0.0,-0.008805878076647502,-0.05942359529440225,-0.030503587245719676,0.02300927945158908,0.010462507438319089,0.04075682611438556
386,5.0,299.37307000000004,582.70145,0.0,0.0,0.0,0.0,0.003847188499354837,0.0,-0.06099708657344374,-0.05505009476852135,-0.06107950940282824,0.03842606109485697,0.043668406356236165,0.00984061566489315
387,5.0,299.34296,354.70937999999995,0.0,0.0,0.0,0.0,0.0038571553089386578,0.0,-0.04129666651591366,-0.03587763171534657,-0.03064849619552107,0.05320743765341525,0.03609623941117147,0.00974259597804436
388,5.0,300.57125,113.30785,0.0,0.0,0.0,0.0,0.0038671221185224793,0.0,-0.008447572981585542,-0.05021605079393836,0.024220866165913377,-0.0015773472022970485,0.035409312585377065,-0.05619590432610395
389,5.0,301.1724,408.48449,0.0,0.0,0.0,0.0,0.0038770889281062996,0.0,-0.07113747876522253,-0.02054704928458588,-0.03248455603922607,-0.014128441233868586,0.012288801577560288,-0.010159461558660791
390,5.0,299.70198999999997,557.87788,0.0,0.0,0.0,0.0,0.0038870557376901203,0.0,-0.060779483008467944,-0.06718076144272495,-0.04162070288464356,-0.01999751410610098,0.03079938129441227,-0.03200909552255177
391,5.0,300.28166,322.72272000000004,0.0,0.0,0.0,0.0,0.003897022547273942,0.0,-0.008105783255203523,-0.03724815177410636,-0.05274571275509655,0.023118961748413876,0.06595165563417163,0.0012492389867152889
392,5.0,301.42278999999996,298.65666,0.0,0.0,0.0,0.0,0.0039069893568577626,0.0,-0.004861903894032555,-0.04432751744028536,-0.04159474645683186,-0.0065042581829953035,0.03181690021708357,-0.0007574543421849233
393,5.0,301.16315,235.69082000000003,0.0,0.0,0.0,0.0,0.003916956166441583,0.0,-0.007916188760092003,-0.040745679350035466,-0.02298225708467218,0.008071617981706672,0.003248551153407037,0.030987231783451672
394,5.0,301.34734,257.01995,0.0,0.0,0.0,0.0,0.003926922976025403,0.0,-0.03241351707471507,-0.03995825837932306,-0.0057558706458852036,-0.01019989530390129,0.04014788712228796,0.012099251868103188
395,5.0,300.46857,656.06691,0.0,0.0,0.0,0.0,0.003936889785609225,0.0,-0.07598152858454302,-0.06681364775924363,-0.05663278230547045,0.01738143609691418,0.05737874209534094,0.026040188131216474
396,5.0,299.46492,576.5507200000001,0.0,0.0,0.0,0.0,0.003946856595193045,0.0,-0.0982840255613781,-0.046780070055583454,-0.03019292577830977,0.012404884575266789,0.05965425762666685,0.02822103266594907
397,5.0,300.62987999999996,175.04825,0.0,0.0,0.0,0.0,0.0039568234047768665,0.0,0.013674688587336685,-0.017271054657520383,-0.04961393097501375,-0.01045391913047149,0.03965673642781516,-0.0028147913498982775
398,5.0,300.24052,234.22437999999997,0.0,0.0,0.0,0.0,0.003966790214360688,0.0,-0.029281382683597475,-0.026677653153379374,-0.015239327100254486,0.03024143816659757,0.03610738212252117,-0.014790124959921684
399,5.0,299.59687,616.01436,0.0,0.0,0.0,0.0,0.003976757023944508,0.0,-0.07327525409120453,-0.04145503649329356,-0.07252269297693252,0.00987634580184444,0.030320175805368367,-0.006794209628961284
400,5.0,299.53328999999997,491.52919,0.0,0.0,0.0,0.0,0.003986723833528329,0.0,-0.08851990176773411,-0.047943753344930055,-0.012948946176711487,0.02183353443305208,0.02181808236902708,0.002935511891987467
401,5.0,300.41056000000003,118.44641999999999,0.0,0.0,0.0,0.0,0.00399669064311215,0.0,-0.01779275686900838,-0.018657072376559683,0.0004450765101656316,0.0014886103049143987,0.006490288909166643,0.002379385014977018
402,5.0,300.23106,198.08076,0.0,0.0,0.0,0.0,0.00400665745269597,0.0,-0.03198238624991577,-0.0038833319747300266,-0.02434588704275198,0.0034566303700928566,0.040429059972037565,0.027853010097128074
403,5.0,300.27313,400.89446,0.0,0.0,0.0,0.0,0.0040166242622797915,0.0,-0.0023329385423181076,-0.05103012936153165,-0.06849883770280893,0.014421269499518488,0.052530651434621656,0.035726747629705465
404,5.0,299.82273,392.66307,0.0,0.0,0.0,0.0,0.004026591071863612,0.0,-0.014506327792413088,-0.043202568675761555,-0.06165087201496735,-0.01923178479352938,0.03868450978461386,0.021865614944468183
405,5.0,298.71578,490.52518,0.0,0.0,0.0,0.0,0.004036557881447433,0.0,-0.03129590728066557,-0.048523385091135254,-0.06928811494770452,-0.019781240938506483,0.026766084555856873,0.023792795356416076
406,5.0,298.71386,382.42947999999996,0.0,0.0,0.0,0.0,0.004046524691031254,0.0,-0.03452968990856507,-0.057636515960531244,-0.024082805773537875,-0.007523611189672613,0.03467399698780707,-0.02091847536049278
407,5.0,299.51088,181.56826999999998,0.0,0.0,0.0,0.0,0.004056491500615074,0.0,-0.03740157911749846,-0.02917131940473507,0.01138067820193549,0.022799752503160377,0.05724065738496304,-0.013712987414616486
408,5.0,300.2775,455.63139,0.0,0.0,0.0,0.0,0.0040664583101988954,0.0,-0.07882269909019472,-0.03106381525250987,-0.02861404907498677,0.038535816345688964,0.015991727107760586,-0.016062747833769785
409,5.0,300.03454,371.58169,0.0,0.0,0.0,0.0,0.004076425119782716,0.0,-0.030511660822516468,-0.028435076683323575,-0.054004817859360545,0.031180729115298365,0.030543953103203472,0.001102834783741319
410,5.0,300.5583,-17.761314000000002,0.0,0.0,0.0,0.0,0.004086391929366537,0.0,0.026190811811581872,-0.00912718708008323,-0.01166462938345929,0.04602769537932986,0.04036954875391426,-0.01146095598085829
411,5.0,300.00515,151.33726000000001,0.0,0.0,0.0,0.0,0.004096358738950358,0.0,0.011451619894436889,-0.04487426314124496,-0.012580104901809688,0.014663483896173186,0.04988647701341195,0.0015186826559573084
412,5.0,300.24033,586.45416,0.0,0.0,0.0,0.0,0.004106325548534178,0.0,-0.08863630596572232,-0.04138407656229036,-0.04824703733836186,0.005025563746209526,0.02566426018511527,0.028225958074685177
413,5.0,299.93341000000004,571.05545,0.0,0.0,0.0,0.0,0.004116292358117999,0.0,-0.05893134015732044,-0.060193096937096145,-0.054462161464246844,-0.009989653203552011,-0.006379210759004083,0.026778633658345374
414,5.0,300.17671,408.43843,0.0,0.0,0.0,0.0,0.00412625916770182,0.0,-0.04464053066117736,-0.026541460180938177,-0.05297309317028725,-0.003877989005627716,0.027472271239552076,0.02140990165899278
415,5.0,299.96884,535.71069,0.0,0.0,0.0,0.0,0.004136225977285642,0.0,-0.03726580157759826,-0.031080725383428764,-0.09449614407654332,-0.005428648010890844,0.06422723365998444,0.04136111834152456
416,5.0,300.53797000000003,541.4834900000001,0.0,0.0,0.0,0.0,0.004146192786869462,0.0,-0.07216407032928923,-0.00986132963801246,-0.08257206187247801,-0.0006641539892668953,0.040903719007882755,0.03226386915419597
417,5.0,302.42735,465.21640999999994,0.0,0.0,0.0,0.0,0.004156159596453282,0.0,-0.039496651018015964,-0.039065128065427966,-0.06285239310279825,-0.009782411134098811,0.04206188616368496,-0.009212712177298901
418,5.0,301.64669,533.60924,0.0,0.0,0.0,0.0,0.004166126406037104,0.0,-0.08587561994201381,-0.043601099191843455,-0.03272716762991997,0.024746564635795772,0.04673004285839615,0.015421860052769085
419,5.0,301.52967,395.7416,0.0,0.0,0.0,0.0,0.004176093215620924,0.0,-0.047843536830539456,-0.05769136622819455,-0.014760660660263785,0.046718703576527056,0.044371220943598556,-0.016476742572877883
420,5.0,300.23445,58.871516,0.0,0.0,0.0,0.0,0.004186060025204745,0.0,-0.016100415406237283,-0.01168693912416109,0.009891883789477921,0.02015668455105988,0.011712311919915187,-0.008424939000851743
421,5.0,300.74641,267.15976,0.0,0.0,0.0,0.0,0.004196026834788567,0.0,-0.018924773052979682,-0.039265515497954664,-0.02301960548335818,0.027501794307715776,0.006422562968507614,-0.016678098672500183
422,5.0,300.46341,543.2126599999999,0.0,0.0,0.0,0.0,0.004205993644372387,0.0,-0.03398511357606957,-0.08055105348802002,-0.05058691856904016,0.015930559225723787,0.03488852331222917,0.0006080169142415974
423,5.0,299.17496,290.52912000000003,0.0,0.0,0.0,0.0,0.004215960453956208,0.0,-0.02333699594468218,-0.05043960517675145,-0.014536996846439885,0.007549647360267181,0.06876428896400694,-0.008808349190991382
424,5.0,298.75145,345.00526,0.0,0.0,0.0,0.0,0.004225927263540028,0.0,-0.028394784793097073,-0.06510418946253324,-0.011374010003027388,-0.0013923206412863487,0.04837405229139725,-0.006498003187477983
425,5.0,300.37759,511.76106,0.0,0.0,0.0,0.0,0.0042358940731238495,0.0,-0.06530596302119673,-0.031855449317138074,-0.05840116920149665,-0.004297400782420436,0.04673715486084805,0.013736416796678787
426,5.0,299.40828999999997,201.09392,0.0,0.0,0.0,0.0,0.004245860882707671,0.0,0.0026498900636987874,-0.026653605688756077,-0.037123815854335364,0.02480367445118208,0.04374361687140887,-0.011873634508086489
427,5.0,301.33727000000005,222.28682,0.0,0.0,0.0,0.0,0.004255827692291491,0.0,-0.016167251409333484,-0.023531740587401977,-0.027870650781369074,0.02029620503682948,0.057190495425512446,0.0010036577930258121
428,5.0,300.59078999999997,476.53975999999994,0.0,0.0,0.0,0.0,0.004265794501875312,0.0,-0.055452923491527445,-0.031715008800277666,-0.05768825453713745,-0.00910385659123069,0.03576114848385057,0.0014678396911144986
429,5.0,298.74848,280.23567,0.0,0.0,0.0,0.0,0.004275761311459132,0.0,-0.05533871905950635,-0.016107334891170184,-0.013738591231393387,-0.01041615124624409,0.033686429738091765,-0.015497295509463986
430,5.0,299.5155,236.41827,0.0,0.0,0.0,0.0,0.004285728121042953,0.0,-0.04183889616117756,-0.02390125060736978,-0.006125105568450854,0.019864883721011382,0.02964588724807127,0.0019485923117360882
431,5.0,299.69543,485.00077000000005,0.0,0.0,0.0,0.0,0.0042956949306267745,0.0,-0.0875506013908216,-0.01010043295156012,-0.04977708855911615,0.034740801580150166,0.03853634323574096,0.01001202860286029
432,5.0,298.95025,371.8767,0.0,0.0,0.0,0.0,0.004305661740210595,0.0,-0.046388784277716553,-0.01208078437178059,-0.05457166238930375,0.03745253141202707,0.005480434919526814,0.03977875808435776
433,5.0,301.39735,224.40663999999998,0.0,0.0,0.0,0.0,0.004315628549794416,0.0,-0.03304776604106057,-0.005746027022488715,-0.02942022226529987,0.019631878754515584,0.02380410829378258,0.009261749935763551
434,5.0,300.05773,422.07589,0.0,0.0,0.0,0.0,0.004325595359378236,0.0,-0.04229828045176526,-0.027171167760335475,-0.058831081086425645,0.011466829791687989,0.044843698451978456,0.044892585742803255
435,5.0,300.83971,749.91785,0.0,0.0,0.0,0.0,0.004335562168962057,0.0,-0.09080416975342383,-0.07397899478915833,-0.06317313539545304,-0.016658090022775483,0.06921310404280154,0.005095189632131065
436,5.0,300.3038,527.40459,0.0,0.0,0.0,0.0,0.004345528978545878,0.0,-0.05414176772962646,-0.06690152694041664,-0.03927453038409436,-0.015887078637432585,0.06283305725113994,0.015710088162964986
437,5.0,299.94989,288.18661000000003,0.0,0.0,0.0,0.0,0.004355495788129699,0.0,-0.02505051838754368,-0.036143205579806666,-0.026407810466247975,-0.018415461876964585,0.05400248434438025,-0.005035774267467225
438,5.0,298.73911,336.21084,0.0,0.0,0.0,0.0,0.004365462597713521,0.0,-0.0003105469498835977,-0.04259225470327826,-0.059296896475398035,0.015155497879731184,0.03799134437795376,-0.0037029485309775663
439,5.0,298.63772,120.47665,0.0,0.0,0.0,0.0,0.004375429407297341,0.0,0.007399149018939153,-0.017455270618451084,-0.026565771090587473,0.019295421966059878,0.035711610686461566,-0.006538169637342103
440,5.0,298.4446,65.948317,0.0,0.0,0.0,0.0,0.004385396216881161,0.0,0.015358530908268985,-0.014885009752286087,-0.02052016370643248,0.035049354474101964,0.027973303149000074,-0.030661172967522174
441,5.0,300.25536,304.19712999999996,0.0,0.0,0.0,0.0,0.004395363026464983,0.0,-0.044943322215060554,-0.029746057152957268,-0.017778952349645983,0.01086720966076009,0.017412738432253484,-0.025270346036488974
442,5.0,299.89646,127.34966999999999,0.0,0.0,0.0,0.0,0.0044053298360488035,0.0,-0.018000714293032183,-0.0031603767111548975,-0.01755002875455298,0.031059461316830173,0.04620989395931146,-0.03795400509851867
443,5.0,299.67681,343.65561,0.0,0.0,0.0,0.0,0.004415296645632624,0.0,-0.03809601210003367,-0.05531722194538475,-0.01104949031399979,0.002931717371687977,0.07108154026695183,-0.013768835733628288
444,5.0,300.59457000000003,879.5051900000001,0.0,0.0,0.0,0.0,0.004425263455216445,0.0,-0.09126879761327901,-0.05937601002995594,-0.1167028027926699,0.004334760022882506,0.04257888486820876,0.02128740580140338
445,5.0,299.55638999999996,588.71184,0.0,0.0,0.0,0.0,0.004435230264800266,0.0,-0.06746081465111403,-0.04445797440391046,-0.06703491118358064,-0.004980719424608735,0.03311556057875137,0.038491624455827565
446,5.0,300.32651,253.70871,0.0,0.0,0.0,0.0,0.004445197074384087,0.0,-0.007002677832360494,-0.03212798117003487,-0.03799045373111586,0.0002622084859754627,0.022568786195865775,0.033580899740176764
447,5.0,300.44316000000003,458.38009000000005,0.0,0.0,0.0,0.0,0.004455163883967907,0.0,-0.07437992468147701,-0.01026075617115779,-0.054695420756517746,0.012889265745821488,0.05238301582880116,0.027736654535144678
448,5.0,299.14387,450.55661,0.0,0.0,0.0,0.0,0.0044651306935517285,0.0,-0.08390477453025652,-0.02465183487069668,-0.02840134862724487,-0.016578368518157586,0.05094080123271565,0.017948286706357983
449,5.0,299.13597999999996,232.19654,0.0,0.0,0.0,0.0,0.004475097503135549,0.0,-0.027338873824136772,-0.02010939110264238,-0.023133684272366877,-0.0026216106587078273,0.05494699150459586,-0.00890605497295919
450,5.0,299.75406,236.2895,0.0,0.0,0.0,0.0,0.00448506431271937,0.0,-0.016522494867893287,-0.0034182451125795267,-0.05188536817468715,0.0024098765475862975,0.03568979743830876,0.015757177948112384
451,5.0,299.12061,410.29177999999996,0.0,0.0,0.0,0.0,0.004495031122303191,0.0,-0.028385094069140672,-0.04203725709350426,-0.054296104971608354,0.025313599656757772,0.045335690144034255,-0.006674608120282534
452,5.0,300.8934,481.06605,0.0,0.0,0.0,0.0,0.004504997931887011,0.0,-0.036342406496466265,-0.04415239033275166,-0.06573726913826333,0.02279379256607218,0.010329951020486791,0.0009169852407343972
453,5.0,300.349,562.85551,0.0,0.0,0.0,0.0,0.004514964741470832,0.0,-0.07255849312946573,-0.06374283323767785,-0.03479269518402167,0.004411884162194066,0.014940025179715686,-0.026864491405568874
454,5.0,300.51007999999996,558.47113,0.0,0.0,0.0,0.0,0.004524931551054653,0.0,-0.06730199377743963,-0.04860206396140025,-0.053857220757043855,0.018045007507903582,0.04166093803286446,0.014591782266096786
455,5.0,300.22219,146.54004,0.0,0.0,0.0,0.0,0.004534898360638474,0.0,0.004932054238205855,-0.04139761662337666,-0.008078952189905503,0.021703323689201276,0.06193183816169654,-0.005425989242628444
456,5.0,299.82514,-37.411998,0.0,0.0,0.0,0.0,0.004544865170222295,0.0,0.03834655845226066,-0.023551418917594078,-0.003422827232181747,0.02179914877765848,0.06866394781985403,0.011334574309135387
457,5.0,298.57572000000005,406.7857,0.0,0.0,0.0,0.0,0.004554831979806115,0.0,-0.02362953948705398,-0.049781707966322045,-0.05024144892094495,0.0034030379511036974,0.03186587464741697,0.01905329572216388
458,5.0,299.1528,372.07159,0.0,0.0,0.0,0.0,0.004564798789389936,0.0,-0.025281574874097178,-0.046573301173926954,-0.041245596684373456,0.0009008588689003481,0.04386013556665836,-0.0036263892785967566
459,5.0,298.73055,54.215801,0.0,0.0,0.0,0.0,0.004574765598973757,0.0,-0.02707954765979327,-0.016141788434320486,0.026741085649389675,0.015493939625132788,0.05037656683503005,-0.026195616643556078
460,5.0,300.77386,432.04532,0.0,0.0,0.0,0.0,0.004584732408557578,0.0,-0.061207772679986845,-0.03580080202651407,-0.03432241440185857,0.01144913337869149,0.05912743850217385,-0.013128203291652788
461,5.0,300.31293999999997,528.19655,0.0,0.0,0.0,0.0,0.0045946992181414,0.0,-0.07114740962945264,-0.04077162767184636,-0.04863952584409745,-0.026425141095958376,0.037930881717986566,-0.009390257406196251
462,5.0,299.82544,294.69065,0.0,0.0,0.0,0.0,0.00460466602772522,0.0,0.004852098672814855,-0.030153401931659073,-0.06427729632092524,0.008114637642527383,0.02208734750360148,-0.003652459798369716
463,5.0,300.07013,392.7236,0.0,0.0,0.0,0.0,0.00461463283730904,0.0,-0.054455597630099044,-0.012776127252905589,-0.05214644219545315,0.02378613323700858,0.044781487935588754,0.010870812778115689
464,5.0,300.20198,390.9516,0.0,0.0,0.0,0.0,0.0046245996468928605,0.0,-0.05847142695018054,-0.023810732922936378,-0.03655736547868107,0.03885801771848776,0.02205478975138828,0.03866283535172476
465,5.0,299.3118,80.062732,0.0,0.0,0.0,0.0,0.0046345664564766825,0.0,-0.051694180039818356,-0.004904424326528996,0.03226153259946537,0.04476995410970046,0.004074535814975376,0.0025630019424485975
466,5.0,299.30321000000004,436.57620999999995,0.0,0.0,0.0,0.0,0.004644533266060503,0.0,-0.05186273926020385,-0.05025386224792005,-0.030591666037162374,0.004581154278849725,0.03480744607897746,0.03354910800503917
467,5.0,299.35955,771.84233,0.0,0.0,0.0,0.0,0.004654500075644324,0.0,-0.07598616825675093,-0.07119426130082653,-0.08744036585944222,0.025350948055443776,0.05451742513795095,0.022287205006325878
468,5.0,300.02123,452.8936,0.0,0.0,0.0,0.0,0.004664466885228145,0.0,-0.007279558757336514,-0.05693402156020044,-0.07345476553192093,-0.004029727463753136,0.05331380155616255,0.036734564682669266
469,5.0,299.8613,355.7324,0.0,0.0,0.0,0.0,0.004674433694811965,0.0,-0.01930582703133678,-0.06207191694827124,-0.026756022982363875,-0.03070249634635047,0.03755317450470976,-0.007730944856934852
470,5.0,299.53777,434.90817000000004,0.0,0.0,0.0,0.0,0.0046844005043957864,0.0,-0.04931471518073345,-0.03360963449976267,-0.049276874342498854,-0.0009211007384005651,0.03643112262222187,-0.0008131673720433713
471,5.0,299.61863,386.27507,0.0,0.0,0.0,0.0,0.004694367313979608,0.0,-0.04415738058949416,-0.06997232727648102,-0.0032882673149267167,0.014588664495539087,0.03963693346786076,-0.03122604064652027
472,5.0,301.068,280.98011,0.0,0.0,0.0,0.0,0.004704334123563428,0.0,-0.02258239313145868,-0.04235620390698186,-0.020472339314962583,0.04145203321999716,0.038309837255386565,-0.027934667922687076
473,5.0,300.77438,328.58709,0.0,0.0,0.0,0.0,0.004714300933147249,0.0,-0.014621377275017586,-0.04147910016991846,-0.043781793095426555,0.034665872748505265,0.017079052882821282,-0.022109840642571377
474,5.0,300.14081,166.32154,0.0,0.0,0.0,0.0,0.004724267742731069,0.0,0.03008022804918737,-0.051657628055710954,-0.028980195104622575,0.02250071402764758,0.054134479421657146,-0.016593877324188183
475,5.0,298.90466000000004,144.91545,0.0,0.0,0.0,0.0,0.00473423455231489,0.0,-0.009467173423937271,-0.03458404874992987,5.435057121748375e-07,0.004439905695034576,0.023009302756341377,0.0013512409491070988
476,5.0,299.84808,637.81565,0.0,0.0,0.0,0.0,0.0047442013618987115,0.0,-0.09973067920615171,-0.048863591918211054,-0.04528576123210666,0.015905115502462687,0.03846934916562917,0.013545158747553089
477,5.0,300.0082,606.62489,0.0,0.0,0.0,0.0,0.004754168171482532,0.0,-0.09847378298710571,-0.03937285110754786,-0.04655218706834316,0.011271411337651688,0.007011454300751664,0.03254051682899897
478,5.0,299.55064,117.61688000000001,0.0,0.0,0.0,0.0,0.004764134981066353,0.0,-0.0022704590080268577,-0.015753943653793186,-0.017728190546136183,0.00955016823300322,0.03513417667972327,0.003011453264457297
479,5.0,298.43107000000003,346.47176,0.0,0.0,0.0,0.0,0.004774101790650173,0.0,-0.0037961088729967763,-0.025544759494821476,-0.07597789506968443,0.01960920829677818,0.026722626259067874,0.03775018882765356
480,5.0,299.0237,736.76621,0.0,0.0,0.0,0.0,0.004784068600233995,0.0,-0.06812739744140064,-0.04737892315618566,-0.10845221120339989,0.003926962220060996,0.05504338603960924,0.02814093423229397
481,5.0,300.73957,460.16527,0.0,0.0,0.0,0.0,0.004794035409817816,0.0,-0.06304238864229934,-0.014434743699348287,-0.062401618398310245,0.01390769963333309,0.06829426858711952,0.013420692118519187
482,5.0,300.55609,154.94214,0.0,0.0,0.0,0.0,0.004804002219401636,0.0,-0.05060057819363825,-0.01109415741815809,0.014596191930531986,-0.002331743312500148,0.07721529838330662,-0.016392651933828786
483,5.0,300.93277,149.77243,0.0,0.0,0.0,0.0,0.004813969028985457,0.0,-0.05209530751590654,0.004133146861709836,0.0024350819544238776,0.016924072227025883,0.05944079420159965,0.014338861868885487
484,5.0,299.12157,148.07941,0.0,0.0,0.0,0.0,0.004823935838569277,0.0,-0.04287007876144736,-0.007616177057858153,0.005473812418198225,-0.01183674308519559,0.034105067189158074,-0.014862547010819184
485,5.0,298.92839,469.8115,0.0,0.0,0.0,0.0,0.004833902648153099,0.0,-0.02892659214783237,-0.040015724858744564,-0.07386864780026793,0.03290885958485157,0.027145614606063576,-0.004172622275005756
486,5.0,299.66123999999996,594.00665,0.0,0.0,0.0,0.0,0.00484386945773692,0.0,-0.03723735559429086,-0.06888510079993014,-0.07444073387297843,0.014706867212454785,0.045553275470508255,-8.522186388474312e-06
487,5.0,299.63342,151.16477,0.0,0.0,0.0,0.0,0.0048538362673207405,0.0,-0.0002177629188190268,-0.03452227494433326,-0.01121027790611829,0.015827986904850686,0.04064149393500316,0.011466322153387888
488,5.0,299.00982,81.38383,0.0,0.0,0.0,0.0,0.004863803076904562,0.0,-0.026594119801885273,-0.0026579484417440877,0.004513416280514506,0.015483010709554185,0.05519781852710054,-0.0032549627973898166
489,5.0,299.75255,737.06147,0.0,0.0,0.0,0.0,0.004873769886488381,0.0,-0.08971258934119322,-0.08923475883253501,-0.04510093630786586,0.01978323400145318,0.061999130127337744,0.0026426306333573375
490,5.0,300.84644,555.63491,0.0,0.0,0.0,0.0,0.004883736696072202,0.0,-0.03475618372991826,-0.07191113777307673,-0.06223181592005204,0.01990929852589478,0.07757729718028313,-0.013492600451615986
491,5.0,301.33411,57.891726,0.0,0.0,0.0,0.0,0.004893703505656024,0.0,0.05220477399046005,-0.03773131096504046,-0.032071102375671366,0.0023933490199051577,0.03994635167739796,-0.014966065707285684
492,5.0,300.47721,178.30619,0.0,0.0,0.0,0.0,0.004903670315239844,0.0,0.020580012336839083,-0.03240369260174547,-0.04237695020277936,-0.01186061525755159,0.055723960800526745,-0.02001850459517258
493,5.0,299.35271,368.55871,0.0,0.0,0.0,0.0,0.0049136371248236655,0.0,-0.06446757759695454,-0.017090694113220183,-0.030474372205586374,-0.0007561336314745793,0.03674298276450007,0.004504258120810666
494,5.0,299.26616,257.68429,0.0,0.0,0.0,0.0,0.004923603934407486,0.0,-0.04055980064569067,-0.047088991772571656,0.009319202331008662,0.007175980177789103,0.06581618612230185,-0.022714427725489476
495,5.0,299.38101,304.4475,0.0,0.0,0.0,0.0,0.004933570743991308,0.0,-0.06661805198643984,-0.016501300715551587,-0.009425085243933491,0.01041342864322539,0.036894204262424464,0.017781685085165682
496,5.0,300.41893999999996,474.76825,0.0,0.0,0.0,0.0,0.004943537553575128,0.0,-0.06021961267896304,-0.026379267210930975,-0.05771881112040314,0.013861097221483787,0.03473775575034957,0.014210885341505186
497,5.0,300.45599,393.72631,0.0,0.0,0.0,0.0,0.004953504363158948,0.0,-0.035914978087532363,-0.03129401351622867,-0.052473975290278155,0.027779566690129775,0.029151140528993574,0.02027747510873098
498,5.0,300.36866000000003,613.25679,0.0,0.0,0.0,0.0,0.004963471172742769,0.0,-0.041076535905188456,-0.05257709881920565,-0.09276111641355941,0.02284593441621818,0.04662395151992576,0.008925058073284652
499,5.0,301.20544,739.53065,0.0,0.0,0.0,0.0,0.00497343798232659,0.0,-0.11725821583498489,-0.033709197467838764,-0.07383144125659592,0.023157310224948578,0.04614460924211836,0.041533026353490564
500,5.0,300.96506,426.4962,0.0,0.0,0.0,0.0,0.004983404791910412,0.0,-0.06712315918779004,-0.044934672098956865,-0.01758636390313898,-0.008797949901240052,0.04483129120450396,0.018089210543516084
501,5.0,300.96612999999996,269.23073,0.0,0.0,0.0,0.0,0.004993371601494233,0.0,-0.05627763003941964,-0.02346060232438118,-0.0021011872701710383,0.01791714142478418,0.050119962260455155,0.0007647489525698452
502,5.0,299.38435,600.1150200000001,0.0,0.0,0.0,0.0,0.005003338411078052,0.0,-0.04293309177191626,-0.08161484551625812,-0.057872043919776045,0.007644276408306343,0.044246268967766754,0.0002986015114071747
503,5.0,299.24737000000005,479.97762,0.0,0.0,0.0,0.0,0.005013305220661873,0.0,-0.007842172866787202,-0.06359436575352524,-0.07446467190659092,0.00883382614885576,0.022182925359034277,-0.003443420628539157
504,5.0,299.1854,130.08909,0.0,0.0,0.0,0.0,0.005023272030245694,0.0,0.02007368822211878,-0.03503081301052207,-0.024586711260269477,0.021496336958773277,0.00869550707372973,-0.009132271467760023
505,5.0,301.02551,308.11267999999995,0.0,0.0,0.0,0.0,0.005033238839829515,0.0,-0.05475875598051844,-0.030458996135318866,-0.008440809739818061,0.014728683500357885,0.03368432724413427,-0.010133466627345291
506,5.0,300.24517000000003,323.43952,0.0,0.0,0.0,0.0,0.005043205649413337,0.0,-0.037548215658720366,-0.04649877865557216,-0.014270543480892987,0.03432800754241057,0.07798086050961173,-0.008183276420201504
507,5.0,299.74066,267.42215,0.0,0.0,0.0,0.0,0.005053172458997157,0.0,-0.041611140843449856,-0.042781331224938664,0.003102814580923957,-0.0015369720229123284,0.06791516106220453,-0.0053622898565418055
508,5.0,299.56417000000005,679.67628,0.0,0.0,0.0,0.0,0.005063139268580978,0.0,-0.059513321630507536,-0.07412966305252813,-0.07296163292025253,0.02359106232775658,0.06164374177401365,0.007107757541931053
509,5.0,299.70406,624.65073,0.0,0.0,0.0,0.0,0.0050731060781647975,0.0,-0.04711946222957886,-0.05856509280267465,-0.08419367037226833,0.01962304321364358,0.027722875347034773,0.025321730988810274
510,5.0,298.79028999999997,71.11593,0.0,0.0,0.0,0.0,0.005083072887748619,0.0,0.016713474273241484,-0.02201086333305308,-0.016320077895416285,0.030576992149214173,0.02820637397675237,-0.010011475165655672
511,5.0,299.02203,392.18361,0.0,0.0,0.0,0.0,0.005093039697332441,0.0,-0.05562341295335344,-0.03359017705809236,-0.03000043460381237,0.027570660864012376,-0.0011890109954712487,0.03500195666092417
512,5.0,298.8772,801.7602099999999,0.0,0.0,0.0,0.0,0.005103006506916261,0.0,-0.11908445728522088,-0.04908760935631985,-0.07554301927251553,0.001808726712982428,0.037765516261916265,0.010305125379786688
513,5.0,299.9555,392.23413999999997,0.0,0.0,0.0,0.0,0.005112973316500082,0.0,-0.07696223207808092,-0.03606917752750067,-0.006197975881192593,0.01990612907958198,0.06684287597162823,0.02200045320152568
514,5.0,300.66481,48.286842,0.0,0.0,0.0,0.0,0.005122940126083902,0.0,0.014262331088832486,-0.01968871296587468,-0.009251612064538022,0.006838821916289174,0.09346559171783572,-0.014416521409549887
515,5.0,300.94522,254.61667000000003,0.0,0.0,0.0,0.0,0.0051329069356677234,0.0,-0.011842104191474688,-0.02466451062944768,-0.04089049609407776,0.004041994173438766,0.0912882499886988,0.044462467154853864
516,5.0,300.63447,403.53177999999997,0.0,0.0,0.0,0.0,0.005142873745251545,0.0,-0.03864708437892026,-0.04119555631493486,-0.042820943224348054,0.010909794535962887,0.03415828409766017,-0.006222898895227305
517,5.0,300.85632999999996,412.12654,0.0,0.0,0.0,0.0,0.005152840554835365,0.0,-0.06616085023656752,-0.03038752552626527,-0.02872780159746327,0.03248705167422237,0.02249588183792068,0.012225094490772888
518,5.0,298.82781,367.64947,0.0,0.0,0.0,0.0,0.005162807364419186,0.0,-0.040541890436923064,-0.03831142197854297,-0.03290294625726797,0.03007907902357397,0.0005446112389614445,-0.006243140187174963
519,5.0,299.82282999999995,302.51136,0.0,0.0,0.0,0.0,0.005172774174003006,0.0,-0.046785240670843754,-0.021552593617575378,-0.023618064429671477,0.03827911044610406,0.024847010144708977,0.017565578090587584
520,5.0,299.86494,368.33041000000003,0.0,0.0,0.0,0.0,0.005182740983586827,0.0,0.007482316283172123,-0.06849423552085473,-0.05095132788800454,0.004569399665764636,0.04503463124782205,-0.02559833712035918
521,5.0,300.51032000000004,690.5838200000001,0.0,0.0,0.0,0.0,0.005192707793170649,0.0,-0.06086913132431554,-0.07902533289819312,-0.07002577317950574,-0.004548221117474475,0.08239561450006401,0.004540479481410436
522,5.0,300.69397999999995,402.05814,0.0,0.0,0.0,0.0,0.00520267460275447,0.0,-0.027436460954517874,-0.050917194531885854,-0.043861979681840364,0.015654864006014787,0.06298734180411664,-0.019532198249427882
523,5.0,300.23447999999996,-61.279588000000004,0.0,0.0,0.0,0.0,0.00521264141233829,0.0,0.002082202509672388,-0.021030730299321482,0.037575992896961764,0.011308964412857888,0.06862888936639402,-0.012373278264897489
524,5.0,299.94453,237.29705,0.0,0.0,0.0,0.0,0.00522260822192211,0.0,-0.017046824436890585,-0.03328093414082247,-0.02180462134144858,0.014131418162662387,0.03239396742728567,-0.009013314690119902
525,5.0,300.93759,852.37599,0.0,0.0,0.0,0.0,0.005232575031505931,0.0,-0.1161773819533149,-0.06937385617116654,-0.07354978103354823,-0.001052421538265919,0.03435983778105197,0.00918454716824423
526,5.0,299.62694,565.19967,0.0,0.0,0.0,0.0,0.005242541841089753,0.0,-0.04394928029720626,-0.04782289185975195,-0.08003441448728171,0.0016002133186287586,0.04231381458904836,0.001151364498605829
527,5.0,299.80625,186.7865,0.0,0.0,0.0,0.0,0.0052525086506735735,0.0,-0.00939794625193008,-0.010556963625891189,-0.03682352297519876,0.01118878383174699,0.05339052890673495,0.0062847305574046134
528,5.0,299.85077,409.85045,0.0,0.0,0.0,0.0,0.005262475460257395,0.0,-0.03697485694388426,-0.02067248559396548,-0.06693696130966373,0.001014232344646939,0.05660781683625655,0.03685013396257507
529,5.0,300.07372999999995,547.16291,0.0,0.0,0.0,0.0,0.005272442269841215,0.0,-0.08020760932687472,-0.03873162388776366,-0.04738462876749876,0.009290164305667831,0.04612078671901725,0.003576857560708356
530,5.0,299.97647,545.66316,0.0,0.0,0.0,0.0,0.005282409079425035,0.0,-0.059205609734138735,-0.05538227260180474,-0.05128009309495115,0.011757690325643689,0.027231294021269475,0.010912138183444189
531,5.0,299.97754,466.3556,0.0,0.0,0.0,0.0,0.005292375889008856,0.0,-0.07126202949401472,-0.01772762819233068,-0.05277079880107236,0.023597130682605476,0.05564047101878695,0.02260703030764018
532,5.0,299.42616,173.70178,0.0,0.0,0.0,0.0,0.0053023426985926774,0.0,0.0034288542464265665,-0.02246991527760798,-0.033759942046096864,0.02066610009183528,0.05497255377811865,-0.0035638853249780962
533,5.0,299.67092,154.68723,0.0,0.0,0.0,0.0,0.005312309508176499,0.0,-0.039206739899403965,-0.004701238398551105,-0.003113077081911787,0.01019539849995749,0.07393455769277273,-0.012596807316458089
534,5.0,298.68858,560.31198,0.0,0.0,0.0,0.0,0.005322276317760319,0.0,-0.05987268091097354,-0.05573691621630535,-0.054711254815830446,-0.0014463775341213487,0.04109058259132476,0.014016726357343186
535,5.0,300.16656,468.43743,0.0,0.0,0.0,0.0,0.00533224312734414,0.0,-0.07546175458799532,-0.038230547395311267,-0.028700979854066173,0.017716233181706086,0.04975674958985885,0.004955034649148845
536,5.0,300.55292000000003,158.90992,0.0,0.0,0.0,0.0,0.00534220993692796,0.0,0.0026932474407778276,-0.03106725726309957,-0.019930636559750678,0.02105764424847768,0.024556425214780478,-0.005691510722058375
537,5.0,300.7943,303.74814,0.0,0.0,0.0,0.0,0.005352176746511781,0.0,-0.05857622132852294,-0.023887797685792078,-0.00986783054932905,0.01049572988259789,0.03290412466713427,-0.004795791351507756
538,5.0,300.27353,415.40957000000003,0.0,0.0,0.0,0.0,0.0053621435560956025,0.0,-0.014985883865991588,-0.037229143202230364,-0.07405911146131523,0.006701645685950932,0.04032591415160786,-0.007104301041864924
539,5.0,300.53746,223.13001,0.0,0.0,0.0,0.0,0.005372110365679423,0.0,-0.013856747338804487,-0.030355733791127673,-0.02361347136696818,-0.02198700838594878,0.05246100670224825,-0.008990288784247421
540,5.0,300.65308999999996,346.33949,0.0,0.0,0.0,0.0,0.005382077175263244,0.0,0.0015162135681136286,-0.059172857437906345,-0.04762191268916686,0.017007967308805685,0.06214881959111094,-0.003575097849259687
541,5.0,300.2967,376.43589,0.0,0.0,0.0,0.0,0.005392043984847066,0.0,-0.055977665453315444,-0.047846212824053554,-0.01060323369170769,3.154067101457187e-05,0.05937793520514594,-0.01164812860558079
542,5.0,299.10426,196.76218,0.0,0.0,0.0,0.0,0.005402010794430886,0.0,-0.016584283872241385,-0.017611882606907485,-0.025614624102466576,0.034318292500451764,0.038455102869223164,0.006622619270901633
543,5.0,299.39441,295.43702,0.0,0.0,0.0,0.0,0.005411977604014706,0.0,-0.02860024455562437,-0.03755073257196877,-0.023654499890017378,0.02022398867570228,0.034590745319840764,0.018856625904254083
544,5.0,299.3648,539.88795,0.0,0.0,0.0,0.0,0.005421944413598527,0.0,-0.06061890211936985,-0.03442120122035807,-0.06907235448466063,0.04264875960835486,0.032490947620856865,0.03191193294396257
545,5.0,299.44747,449.35445,0.0,0.0,0.0,0.0,0.005431911223182348,0.0,-0.05966241935622235,-0.03600441463410907,-0.04092569640255176,0.025655500638000775,0.045655870082883555,0.003204395436574207
546,5.0,298.77763,225.62433,0.0,0.0,0.0,0.0,0.005441878032766169,0.0,-0.03689165593842297,-0.011304627702429888,-0.02038787782637688,-0.0005564262822824984,0.046793979952956255,0.014446532864261785
547,5.0,299.38105,379.80157,0.0,0.0,0.0,0.0,0.00545184484234999,0.0,-0.050959735837334354,-0.014503756163659285,-0.04998670264705345,-0.006843758774751404,0.09400881232169742,0.03289644119162597
548,5.0,299.82237000000003,464.3063,0.0,0.0,0.0,0.0,0.005461811651933811,0.0,-0.04491714996497755,-0.04988524996754086,-0.046335122552420546,-0.0045729395563139956,0.07262484783876443,0.01109185835368119
549,5.0,300.39881,402.03424,0.0,0.0,0.0,0.0,0.0054717784615176315,0.0,-0.05280130674833325,-0.04341305922503536,-0.02599400419165847,0.010827290646570387,0.07417288728854403,-0.003544060276171517
550,5.0,298.97247000000004,274.41655,0.0,0.0,0.0,0.0,0.005481745271101452,0.0,-0.03356255079411587,-0.01161569244337959,-0.03823753476800086,-0.008715140618267411,0.013912551074811885,-0.022255055593902978
551,5.0,301.01779,216.78718999999998,0.0,0.0,0.0,0.0,0.005491712080685273,0.0,-0.04223407889892906,-0.026181790845941574,0.0025179758437798676,0.04023423933556026,0.03108969366006387,-0.003424001082422597
552,5.0,300.71977999999996,184.27002,0.0,0.0,0.0,0.0,0.005501678890269093,0.0,0.00950443731756493,-0.031011214400068574,-0.03450670939629707,0.027447371631594678,0.03219805653370077,-0.02343194659830308
553,5.0,300.48308,498.05865,0.0,0.0,0.0,0.0,0.005511645699852915,0.0,-0.051401327456166046,-0.05698338710507245,-0.043012679527520956,0.04875285077503175,0.058339461257156534,0.0012920093880113986
554,5.0,299.17463,338.69137,0.0,0.0,0.0,0.0,0.005521612509436735,0.0,-0.04269372055504216,-0.027158192079554874,-0.03310180570864387,0.008744037700519331,0.033205505776878266,-1.3614305974127388e-06
555,5.0,299.61775,-90.894615,0.0,0.0,0.0,0.0,0.0055315793190205565,0.0,0.012027333402505388,0.006702779310162813,0.008899580811445242,-0.004667273647249046,0.08245809758073062,0.002348708158924448
556,5.0,299.17266,202.18334,0.0,0.0,0.0,0.0,0.005541546128604377,0.0,0.0008161276632705293,-0.04853487737376946,-0.013739937840776288,-0.00973824011718947,0.05465178007471075,-0.015711403361594784
557,5.0,299.25497,695.48504,0.0,0.0,0.0,0.0,0.005551512938188197,0.0,-0.08376079067779642,-0.07678560637364934,-0.05086368682060505,0.0008388783400183462,0.06120411788687615,-0.012778793113918687
558,5.0,299.41953,392.94326,0.0,0.0,0.0,0.0,0.005561479747772019,0.0,-0.053318738110649744,-0.03206058483963337,-0.034065614270014366,-0.00894976891274842,0.02986950141264027,-0.009234868410610551
559,5.0,299.5052,216.41298999999998,0.0,0.0,0.0,0.0,0.005571446557355839,0.0,-0.02946966177742917,-0.03660534895041667,0.00029086692756383073,0.015459728248756384,0.06281820199142384,-0.014361633651632883
560,5.0,299.77576,481.78198,0.0,0.0,0.0,0.0,0.00558141336693966,0.0,-0.05286926948554065,-0.031676952139771765,-0.061903470198646844,0.03646274615784286,0.05240514217123485,0.023613133954684878
561,5.0,299.69359,499.15165,0.0,0.0,0.0,0.0,0.0055913801765234816,0.0,-0.03333580872648817,-0.05460042551989244,-0.06379340455016884,0.027628765690996874,0.047793978768148455,-0.01000405098084796
562,5.0,299.83672,441.20215999999994,0.0,0.0,0.0,0.0,0.005601346986107302,0.0,-0.045138319157055254,-0.02057324585267128,-0.06840287379908803,0.01145356837437919,0.015465180547544484,0.027440407563657374
563,5.0,299.28345,438.34859000000006,0.0,0.0,0.0,0.0,0.005611313795691123,0.0,-0.07720352948339512,-0.013732598870301987,-0.042310896428760354,0.013445467096714287,0.026434506566632678,-0.0010100160691258252
564,5.0,300.22163,336.71844,0.0,0.0,0.0,0.0,0.005621280605274943,0.0,-0.017841098018029283,-0.024196962582804273,-0.060315937299719534,0.03691139607687117,0.03811760851266506,0.031068205665193173
565,5.0,300.32797999999997,228.73538,0.0,0.0,0.0,0.0,0.005631247414858764,0.0,-0.037843154524328564,-0.025621479752643176,-0.006065210936489714,0.025466978364145076,0.04247755479195826,0.003923747684118747
566,5.0,300.14832,570.33413,0.0,0.0,0.0,0.0,0.0056412142244425855,0.0,-0.05671920240649944,-0.03343767177229127,-0.08321045908473292,0.020333489600759178,0.03830839641374436,0.038011999481242266
567,5.0,302.56787,625.5442400000001,0.0,0.0,0.0,0.0,0.005651181034026406,0.0,-0.07918519235322002,-0.048535236064304856,-0.06242940171605224,-0.0016415917169374885,0.08072071613776442,0.004945800394362495
568,5.0,301.59812999999997,213.75263999999999,0.0,0.0,0.0,0.0,0.005661147843610228,0.0,-0.005176519873932735,-0.02265680621880268,-0.03714213845589366,0.016978254762873284,0.07020884315457335,0.010298763182408792
569,5.0,300.09695,299.09735,0.0,0.0,0.0,0.0,0.005671114653194048,0.0,-0.043137958783135054,-0.03407588254652777,-0.013704285622757686,0.015328220544777586,0.051749473097775354,-0.014493174792864985
570,5.0,300.26904,715.08436,0.0,0.0,0.0,0.0,0.005681081462777868,0.0,-0.07442435265861172,-0.07144105558793323,-0.07150238052373553,0.0019594987331624683,0.005707963775857165,-0.01125597041937779
571,5.0,301.36935,387.36827999999997,0.0,0.0,0.0,0.0,0.005691048272361689,0.0,-0.06521795819701134,-0.02971153774855047,-0.02282078960173658,-0.008340798611222732,0.032564445743360565,-0.00977266620126206
572,5.0,300.32959,3.595133,0.0,0.0,0.0,0.0,0.00570101508194551,0.0,0.03207248140905747,-0.027055339088404077,-0.006109972576882344,0.017291739145061782,0.05882774850684674,-0.008126401881488422
573,5.0,299.62066,139.43236000000002,0.0,0.0,0.0,0.0,0.005710981891529332,0.0,0.0069132383473585034,-0.02917215229631727,-0.020125042776937083,-0.005097573201666305,0.07481255005017383,-0.009419605283417662
574,5.0,299.30581,350.06101,0.0,0.0,0.0,0.0,0.005720948701113152,0.0,-0.03757509211762287,-0.029937060876307868,-0.03889765099614926,0.00043753226535357253,0.05212227618056815,0.007558563454522133
575,5.0,300.15245,463.43827000000005,0.0,0.0,0.0,0.0,0.005730915510696973,0.0,-0.054349102004838744,-0.055571244758704855,-0.03095331627610447,-0.010677866654323388,0.07401009548772773,-0.025617239300974676
576,5.0,300.81712999999996,478.20022,0.0,0.0,0.0,0.0,0.005740882320280793,0.0,-0.05230383337323646,-0.042310267200448254,-0.05074682564682175,0.05271504268781965,0.06667416881672814,0.0007880712746265792
577,5.0,299.73973,287.96022,0.0,0.0,0.0,0.0,0.005750849129864614,0.0,-0.02836892969029537,-0.04084605393144166,-0.018317731878319383,0.03347626241559987,0.03242378839097877,-0.01185443645844179
578,5.0,299.22211,339.8004,0.0,0.0,0.0,0.0,0.005760815939448436,0.0,-0.024348215491481775,-0.04706022762873286,-0.031882395690297466,0.030959440359708868,0.015373116643458487,0.006698916496806583
579,5.0,299.17636,676.11123,0.0,0.0,0.0,0.0,0.005770782749032256,0.0,-0.07821986492994963,-0.04621407260272386,-0.08108699287666313,-0.0031744043481893173,0.04215073806495396,0.004408823234966976
580,5.0,300.25927,504.36897999999997,0.0,0.0,0.0,0.0,0.005780749558616077,0.0,-0.06870250198615903,-0.023045116081125878,-0.06156795674603424,0.0008635262769159082,0.08675330325813442,0.013350621821103787
581,5.0,300.29571,89.542066,0.0,0.0,0.0,0.0,0.005790716368199898,0.0,0.0014190011376195087,-0.02140890056789398,-0.0072286532749625335,-0.02282348383375248,0.08498819726593201,0.005535683799779454
582,5.0,300.58851,194.83088,0.0,0.0,0.0,0.0,0.005800683177783718,0.0,-0.025190388444597773,-0.014675243676833786,-0.019358090471494782,-0.026744923840768473,0.049402632865410245,-0.00016192748834849884
583,5.0,300.45722,574.1229400000001,0.0,0.0,0.0,0.0,0.005810649987367539,0.0,-0.058145772421040944,-0.06031847346471985,-0.05605479101117714,0.018596582358839785,0.054034636796553445,0.03452374213047806
584,5.0,300.83272999999997,356.50497,0.0,0.0,0.0,0.0,0.00582061679695136,0.0,-0.02745780405462427,-0.04619174867652066,-0.03471905723300417,0.03017709779849767,0.04614041337345426,-0.01024125414648309
585,5.0,300.02126,236.39296000000002,0.0,0.0,0.0,0.0,0.005830583606535181,0.0,-0.02141451498669808,-0.02972054047568897,-0.020722502658651783,0.05113256590689136,0.04426630497524416,0.021944046581708777
586,5.0,299.63599,383.37477,0.0,0.0,0.0,0.0,0.005840550416119002,0.0,-0.04725509690121496,-0.06078209212747545,-0.0084991692978777,0.009266807573637702,0.02026885336363008,-0.029526528412791474
587,5.0,299.7246,506.36722000000003,0.0,0.0,0.0,0.0,0.005850517225702822,0.0,-0.05230162246151825,-0.04197510737212056,-0.05964626105687765,0.027016738312594477,0.07644847374737693,-0.007383750251869413
588,5.0,300.05259,679.2541200000001,0.0,0.0,0.0,0.0,0.005860484035286644,0.0,-0.07114058032377864,-0.08085909773042162,-0.05447661345042315,0.004135385941780817,0.06594267317203514,-0.03148592612491897
589,5.0,300.33194,539.44706,0.0,0.0,0.0,0.0,0.0058704508448704645,0.0,-0.06046815380924214,-0.04148389385614156,-0.062026389594778034,0.012049525606195589,0.05533416044730644,0.01107897082565929
590,5.0,299.98787999999996,28.522275,0.0,0.0,0.0,0.0,0.005880417654454285,0.0,0.007482482557513533,-0.0006318211481783924,-0.015520720838525882,-0.02726493797758987,0.015209474725808286,0.009815723352336471
591,5.0,300.54418,-84.85790899999999,0.0,0.0,0.0,0.0,0.005890384464038106,0.0,0.01933858844682008,0.004116119295104346,0.002339977388112788,-0.004853062172334945,0.052592591413234656,0.01263798073427159
592,5.0,299.69895,313.24775,0.0,0.0,0.0,0.0,0.005900351273621926,0.0,-0.018958248809783484,-0.02243060117372798,-0.05383064523342105,0.0049433649464221355,0.08225211092815134,0.02378641188078608
593,5.0,299.07777999999996,460.36020999999994,0.0,0.0,0.0,0.0,0.005910318083205747,0.0,-0.04218655746923906,-0.048359244654435855,-0.049392207535131356,-0.003956709520471826,0.06970260516611153,-0.01045007181984179
594,5.0,299.34721,300.48519,0.0,0.0,0.0,0.0,0.0059202848927895685,0.0,-0.026827114635880077,-0.06353419490958685,-0.0009786847852311681,0.004428166078050966,0.04794524079607686,-0.005346879031795875
595,5.0,299.7557,281.07171,0.0,0.0,0.0,0.0,0.00593025170237339,0.0,-0.05813423859515265,-0.043943235247109656,0.016638692362861085,0.043834544922132755,0.044858960024984657,-0.021869551421106682
596,5.0,300.16138,524.5951,0.0,0.0,0.0,0.0,0.00594021851195721,0.0,-0.07054694748769164,-0.05958119114870574,-0.029335673637205573,0.04718939979123116,0.04279620269665636,0.01015447839466899
597,5.0,300.36647,493.82597000000004,0.0,0.0,0.0,0.0,0.00595018532154103,0.0,-0.05920150404473353,-0.061412189808161245,-0.02949706917938407,0.031757647377735766,0.022218253337020877,-0.009380521389960381
598,5.0,300.83005,472.08880999999997,0.0,0.0,0.0,0.0,0.005960152131124851,0.0,-0.04061013384440816,-0.04680076974187636,-0.05609230760937975,0.002777300994873268,0.03970519612709776,0.006995080179135664
599,5.0,300.29011,363.63992,0.0,0.0,0.0,0.0,0.0059701189407086715,0.0,-0.004581390062147995,-0.04695436731128525,-0.05900169923101435,0.01295104157791829,0.07444193660084712,0.01055766074195999
600,5.0,299.75933,162.32846,0.0,0.0,0.0,0.0,0.0059800857502924935,0.0,0.014923868906871184,-0.028865481007801175,-0.03540218639742377,-0.0033963387467425363,0.08687792592768373,0.002120786668180348
601,5.0,299.09481,402.59758999999997,0.0,0.0,0.0,0.0,0.005990052559876315,0.0,-0.034113306938971265,-0.03665265151808507,-0.051613656041121246,0.0004158420156304116,0.05273752468103845,0.02499444006075918
602,5.0,299.20107,713.92683,0.0,0.0,0.0,0.0,0.006000019369460135,0.0,-0.06503451635915704,-0.07642699892475753,-0.07555441529639023,-0.0016160663257183284,0.00958922993628331,0.0012614272708431787
603,5.0,299.31469,398.60274,0.0,0.0,0.0,0.0,0.006009986179043955,0.0,-0.04478387920582476,-0.04075097459505806,-0.03563042604869927,0.02275269311551598,0.026575219647769974,0.00858228640623072
604,5.0,300.24126,240.05357999999998,0.0,0.0,0.0,0.0,0.006019952988627775,0.0,0.002045223643297858,-0.05492671029059425,-0.02008880692686088,0.03078924474041187,0.06190613808616015,-0.024042185590278976
605,5.0,299.45842000000005,389.66263,0.0,0.0,0.0,0.0,0.006029919798211597,0.0,-0.05177376982192325,-0.025651191285325475,-0.041022748536880066,0.02228635894249238,0.050663873900885045,0.0015031502411993786
606,5.0,299.56784,546.20076,0.0,0.0,0.0,0.0,0.0060398866077954185,0.0,-0.07516878852033183,-0.04756308338836086,-0.04329952049832996,0.02983756376948827,0.08579823397887643,0.015214525777556788
607,5.0,301.10012,360.19872999999995,0.0,0.0,0.0,0.0,0.006049853417379239,0.0,-0.06832501059515353,-0.025709832121612874,-0.015456578054195484,0.014632751007390088,0.08493826024800362,0.005362367268849444
608,5.0,300.3993,290.38215,0.0,0.0,0.0,0.0,0.00605982022696306,0.0,-0.04454520003876895,-0.015470627780082085,-0.02825309291236317,0.036791164833255265,0.08582371113939082,0.031725058214769467
609,5.0,300.21519,370.95215,0.0,0.0,0.0,0.0,0.00606978703654688,0.0,-0.054065841859883154,-0.014943702264328588,-0.04375064680060266,-0.002304610399997338,0.040325754058092064,0.02097530045260098
610,5.0,300.03235,496.15903,0.0,0.0,0.0,0.0,0.006079753846130701,0.0,-0.024759109685283876,-0.06307601537336803,-0.06298482995711874,0.006172083389462204,0.016089546272414584,0.020404838619800778
611,5.0,298.59313,538.9692,0.0,0.0,0.0,0.0,0.0060897206557145225,0.0,-0.03397902090321826,-0.06439168617771464,-0.06546247165814294,0.015631833844491884,0.029453026237287374,-0.003187769117008317
612,5.0,298.8767,278.66227000000003,0.0,0.0,0.0,0.0,0.006099687465298343,0.0,-0.024652173296230078,-0.03659517085316217,-0.02345902976022598,0.007677244932110082,0.06774501610541253,-0.0015207748147637887
613,5.0,300.19705,-53.48526999999999,0.0,0.0,0.0,0.0,0.006109654274882164,0.0,0.026982280716443773,-0.03174996390222747,0.02102586973859178,0.025410826070103275,0.04181935867274936,-0.014734945385975884
614,5.0,299.62652,68.081303,0.0,0.0,0.0,0.0,0.006119621084465984,0.0,-0.024391796391532876,-0.005418472142786564,0.009115253020405431,0.004758349936462575,0.06703390401298123,-0.006580316484526675
615,5.0,299.16239,546.87589,0.0,0.0,0.0,0.0,0.006129587894049806,0.0,-0.07099163661207902,-0.061345225122302345,-0.03389975232139507,0.03558315691828417,0.07118952334335893,0.0008972561872422909
616,5.0,299.02252000000004,419.08648,0.0,0.0,0.0,0.0,0.006139554703633626,0.0,-0.03854911018700097,-0.05519605141892615,-0.033646663724667174,0.01742368153333348,0.06799351163943713,-0.033553600755982564
617,5.0,299.97505,202.77081,0.0,0.0,0.0,0.0,0.006149521513217447,0.0,-0.01972415138812218,-0.028046454739969574,-0.013866654898282286,0.04029155889371726,0.04400537179624205,0.005055644912528305
618,5.0,300.92749,421.24983,0.0,0.0,0.0,0.0,0.006159488322801268,0.0,-0.037772056791311764,-0.04258563818012526,-0.04769173474030775,0.004250360241227896,0.04104449085752586,-0.018060593320941783
619,5.0,301.28561,528.06182,0.0,0.0,0.0,0.0,0.006169455132385088,0.0,-0.061082726471895735,-0.035542133461485464,-0.06389274764297323,0.03727791396929367,0.046937074171828554,0.03028215359536587
620,5.0,299.86752,384.33177,0.0,0.0,0.0,0.0,0.00617942194196891,0.0,-0.014469026003231687,-0.04572494131570036,-0.05663329298352085,0.009408035081850771,0.07615382163154702,0.014413583997509987
621,5.0,299.71501,411.84943,0.0,0.0,0.0,0.0,0.006189388751552731,0.0,-0.05712412045121174,-0.030040625169028872,-0.038027196206242064,0.0044904908890519455,0.04996674871283415,0.036868796002916863
622,5.0,300.24706000000003,274.73232,0.0,0.0,0.0,0.0,0.006199355561136551,0.0,-0.007264413404116783,-0.03134091787660777,-0.044906434845170054,-0.027732352275220078,0.05172541347415085,0.012474638738650987
623,5.0,299.67683999999997,176.58085,0.0,0.0,0.0,0.0,0.006209322370720372,0.0,-0.03259369624724737,-0.028541418294568674,0.007458943541790413,-0.012300186455683888,0.05029838243081386,-0.001119776224088309
624,5.0,298.6995,586.2649200000001,0.0,0.0,0.0,0.0,0.006219289180304192,0.0,-0.05537744547832835,-0.055043471152617644,-0.06778897798750123,-0.02298880268031818,0.08426890520544342,-0.012556342160464487
625,5.0,299.21517,590.18077,0.0,0.0,0.0,0.0,0.006229255989888014,0.0,-0.08567569455153273,-0.032260913503654266,-0.06146361022423604,0.02089774325019668,0.06402561715508644,0.016507948649457684
626,5.0,299.07728,66.009688,0.0,0.0,0.0,0.0,0.006239222799471835,0.0,-0.019782873284417583,-0.001053790135175989,0.0007713665497679513,0.0036772693283932266,0.054379771058865545,0.024331667090848576
627,5.0,300.36881,202.61693,0.0,0.0,0.0,0.0,0.006249189609055655,0.0,-0.02999330942910917,-0.0018134559564991683,-0.02978372371217467,0.04431386592168805,0.06432748462487843,0.00031807628978668573
628,5.0,300.39918,583.72819,0.0,0.0,0.0,0.0,0.0062591564186394765,0.0,-0.05635837897963894,-0.05152737475535595,-0.06955303931885053,0.03013834908817347,0.046138303786746056,0.005618207954173954
629,5.0,299.64637999999997,493.68953,0.0,0.0,0.0,0.0,0.006269123228223297,0.0,-0.047662314010404154,-0.07027844938344294,-0.03212852427208847,0.034694811171361264,0.03291258125246887,-0.026774475279934973
630,5.0,299.2181,242.54985,0.0,0.0,0.0,0.0,0.006279090037807117,0.0,-0.011625153159563289,-0.02966008896147287,-0.03244385479595917,-0.02294136636363658,0.03651176618443076,-0.014288819472946685
631,5.0,300.03782,278.58563,0.0,0.0,0.0,0.0,0.006289056847390939,0.0,-0.025002380901792878,-0.04679030185509325,-0.012890394506432888,-0.02098834098138798,0.07607783192704742,-0.013258416062003788
632,5.0,299.68748999999997,42.269877,0.0,0.0,0.0,0.0,0.006299023656974759,0.0,0.01057240657066529,-0.02265547683467148,-0.0007659170171526242,-0.03083034317771797,0.10162309804691891,-0.012286669699349887
633,5.0,300.83105,51.92346,0.0,0.0,0.0,0.0,0.00630899046655858,0.0,-0.007782394251962512,-0.006159171138137865,-0.0018418698197783983,0.0006831236320740534,0.08701426987438982,-0.005714402473617615
634,5.0,299.29012,403.12529,0.0,0.0,0.0,0.0,0.006318957276142401,0.0,-0.025234373631438774,-0.05768051330637344,-0.03962513417044626,0.01115655538581629,0.03922572820627796,-0.000966371091138401
635,5.0,299.28026,308.87444,0.0,0.0,0.0,0.0,0.006328924085726223,0.0,-0.059128373732016154,-0.02589176016381777,-0.008869981850849052,0.037457380827005664,0.024825619421847873,0.006669597193237994
636,5.0,299.9502,265.44986,0.0,0.0,0.0,0.0,0.006338890895310043,0.0,-0.005971052340471984,-0.05128632863606655,-0.02343274807913218,0.05369542700757604,0.02961897127241487,-0.024261856185458775
637,5.0,300.86424,600.58366,0.0,0.0,0.0,0.0,0.006348857704893863,0.0,-0.09337329273972651,-0.043934726986019954,-0.045254415327013055,0.04817639860764036,0.038277613875706364,0.013252797590199287
638,5.0,299.67528,825.48662,0.0,0.0,0.0,0.0,0.006358824514477684,0.0,-0.09110114727823322,-0.06190493637154154,-0.0979212354160735,0.02358756154866108,0.06626613502795835,0.03139200392014957
639,5.0,299.52074,556.2522,0.0,0.0,0.0,0.0,0.006368791324061505,0.0,-0.07617947104457842,-0.03086667427330357,-0.06204063386468384,0.006234792931526154,0.0932857063878324,0.01082937084902569
640,5.0,299.78161,422.27630999999997,0.0,0.0,0.0,0.0,0.006378758133645326,0.0,-0.045551009843284654,-0.029007472810564674,-0.05380297235993995,0.008294750852478173,0.08167255517570363,0.014931069062081786
641,5.0,300.85219,317.64056,0.0,0.0,0.0,0.0,0.006388724943229148,0.0,-0.026172328103257675,-0.015990923600431285,-0.054391549078027956,-0.003294803386021777,0.06345204160472893,0.02303145443002758
642,5.0,300.65115,205.02822,0.0,0.0,0.0,0.0,0.006398691752812968,0.0,0.01086771527255999,-0.029421365211412677,-0.043769808373243756,-0.00969216115034183,0.027002259981915574,-0.001825711317783678
643,5.0,299.46565,322.42312999999996,0.0,0.0,0.0,0.0,0.006408658562396788,0.0,-0.04353191650151566,-0.03076066602134137,-0.023715997078336677,0.031903718525401865,0.043689854834352955,-0.01184221463573559
644,5.0,298.53726,316.67167,0.0,0.0,0.0,0.0,0.0064186253719806085,0.0,-0.036023297562972664,-0.03217828194474917,-0.028058699867428077,0.0050198853913241154,0.060866339820290036,-0.0036699415036700266
645,5.0,299.469,147.92067,0.0,0.0,0.0,0.0,0.00642859218156443,0.0,-0.006004418564939974,-0.04574066391750205,0.006780892178921954,0.009406165331441242,0.07040192505387903,-0.026154965049544076
646,5.0,299.87778,250.96448999999998,0.0,0.0,0.0,0.0,0.006438558991148252,0.0,-0.015857079341721883,-0.025933417915179075,-0.03449644213303377,-0.002244879813227388,0.06940375616836744,-0.003442382553811707
647,5.0,298.8035,731.8500700000001,0.0,0.0,0.0,0.0,0.006448525800732072,0.0,-0.09145283828194241,-0.06399112308193214,-0.06702018460662723,0.014809409135824885,0.0959999146294539,-0.007679809772088212
648,5.0,298.90853,646.45459,0.0,0.0,0.0,0.0,0.006458492610315893,0.0,-0.04950760152276986,-0.05501749547305405,-0.0919809563930636,0.03042757018346737,0.04138027282141496,-0.0058806154120715545
649,5.0,300.14279,233.33417999999998,0.0,0.0,0.0,0.0,0.006468459419899713,0.0,-0.03408289525046987,-0.026846706839813675,-0.00999816257921682,0.02212823214513648,0.034175535693862766,0.009645218995734001
650,5.0,300.24686,196.06161,0.0,0.0,0.0,0.0,0.006478426229483535,0.0,-0.005646323212648715,-0.02964767158149737,-0.02430383919010218,0.026081917823334872,0.025785963681126477,-0.0022996726296100178
651,5.0,300.15477000000004,469.80123,0.0,0.0,0.0,0.0,0.0064883930390673555,0.0,-0.07127301211184864,-0.013432368812671588,-0.058102461045516446,0.04913646624964166,0.05181704877344455,0.032612188061572366
652,5.0,299.35204,270.20333999999997,0.0,0.0,0.0,0.0,0.006498359848651176,0.0,-0.036964280639340465,-0.03090784363811667,-0.01426294511839309,0.03278295515392577,0.048207163920426656,-0.023046579214270276
653,5.0,299.46522000000004,134.47509,0.0,0.0,0.0,0.0,0.006508326658234997,0.0,-0.0065110583070664245,-0.024552365121629775,-0.00981364497373135,0.01026104798718659,0.039300082525116166,0.017384238746690785
654,5.0,301.56023999999996,395.7744,0.0,0.0,0.0,0.0,0.006518293467818817,0.0,-0.01985483937277008,-0.05334652345489195,-0.04710417228556986,0.014306353765927187,0.03595691144292087,-0.012046700664916789
655,5.0,300.47837999999996,520.41296,0.0,0.0,0.0,0.0,0.006528260277402638,0.0,-0.07041092372801713,-0.04881061109698225,-0.03897101030338926,0.03439701392722097,0.09744180093250701,0.013688515398201288
656,5.0,300.72996,688.82159,0.0,0.0,0.0,0.0,0.00653822708698646,0.0,-0.08490394045386651,-0.049625817411936855,-0.07485480359259393,0.025517678359398777,0.06641113213051843,0.0028607832785623273
657,5.0,301.43557000000004,593.03729,0.0,0.0,0.0,0.0,0.00654819389657028,0.0,-0.07828662899228872,-0.04168734535697066,-0.06029455569610935,-0.0019460948528896079,0.05790026090856085,0.024082687223276177
658,5.0,301.19884,150.47239,0.0,0.0,0.0,0.0,0.006558160706154101,0.0,-0.0063786165891454435,-0.010647489416325389,-0.028713741739075677,-0.012144940328362289,0.04963953073879025,0.00023294605613498578
659,5.0,300.79089,348.74489,0.0,0.0,0.0,0.0,0.006568127515737921,0.0,-0.018331397582418082,-0.04627545833353216,-0.041402881470896255,0.024121856432391876,0.08063655558445842,-0.01152758528093409
660,5.0,300.93493,767.1725700000001,0.0,0.0,0.0,0.0,0.006578094325321742,0.0,-0.0911740901396821,-0.06420601012338983,-0.07782120573110501,0.04728634958729936,0.05548335037878035,0.01026895437771689
661,5.0,299.38025,498.89594000000005,0.0,0.0,0.0,0.0,0.006588061134905564,0.0,-0.07191516848197453,-0.05091410715883116,-0.028822632687572375,0.04386147609654066,0.02876949886557847,-0.02251139976320218
662,5.0,299.34727000000004,176.64534,0.0,0.0,0.0,0.0,0.0065980279444893845,0.0,0.010126967843853911,-0.06029565608571795,-0.003527083372071027,0.03071525924461007,-0.0100375453814536,0.0009608226247833102
663,5.0,299.79171,418.86707,0.0,0.0,0.0,0.0,0.006607994754073206,0.0,-0.05359286785895425,-0.051224802063494355,-0.02250746227331358,0.007916628814610431,0.05911574559601985,-0.002490957225888338
664,5.0,299.7902,584.07756,0.0,0.0,0.0,0.0,0.006617961563657025,0.0,-0.04607589264683656,-0.06385741662523635,-0.06761168455125373,-0.0015966828513053284,0.05953002809815635,0.015676118953362485
665,5.0,300.37329,416.9469,0.0,0.0,0.0,0.0,0.006627928373240846,0.0,-0.02785510752483508,-0.054442985706104355,-0.04444335421821755,-0.023143562447591776,0.07742391847289583,-0.014985392439693088
666,5.0,299.72742999999997,243.45372000000003,0.0,0.0,0.0,0.0,0.006637895182824668,0.0,-0.0024147423772165177,-0.024953698287488273,-0.046635410365306655,-0.016995713062096286,0.06652562027256753,0.014810849977467087
667,5.0,298.51305,134.89592,0.0,0.0,0.0,0.0,0.006647861992408488,0.0,-0.03547184227554826,0.005727526494212855,-0.01126067696609229,0.017115256308894284,0.095633554804047,0.004327048682996456
668,5.0,299.39518,226.43351,0.0,0.0,0.0,0.0,0.0066578288019923096,0.0,-0.023181200635806375,-0.016301802916612686,-0.029347131469336374,0.023588233333477378,0.07110485211200253,-0.005427921307919125
669,5.0,299.62495,371.68851,0.0,0.0,0.0,0.0,0.00666779561157613,0.0,-0.08152397116778952,0.00016819249477680685,-0.03162824723396497,0.024828932749674876,0.05271546825286165,0.016725752837953287
670,5.0,299.6081,526.17498,0.0,0.0,0.0,0.0,0.006677762421159951,0.0,-0.052251751304846356,-0.05727842628244054,-0.05041387774346235,0.01993064973200198,0.026094167003793776,-0.009683392382651422
671,5.0,298.66312999999997,395.84586,0.0,0.0,0.0,0.0,0.006687729230743771,0.0,-0.04939461299086875,-0.03205169964950647,-0.03888094351525036,0.0096612232810635,0.07291334851323722,-0.015763939366029683
672,5.0,299.65834,503.60289000000006,0.0,0.0,0.0,0.0,0.006697696040327592,0.0,-0.04699543332458816,-0.045441332612710356,-0.06064593867178814,0.007999611971300231,0.05780849996625475,-0.01875464836118968
673,5.0,300.76226,513.2883099999999,0.0,0.0,0.0,0.0,0.0067076628499114135,0.0,-0.06095393123843465,-0.04518252320591786,-0.04989037397329655,0.009284746254733111,0.05226253937866105,-0.0003263010840284097
674,5.0,300.70536,87.17827,0.0,0.0,0.0,0.0,0.006717629659495234,0.0,0.008356108718908722,-0.0033646896772190167,-0.031491436178962766,0.01949034696729748,0.025760474361610875,-0.001118775335639529
675,5.0,300.20999,-16.503334,0.0,0.0,0.0,0.0,0.006727596469079055,0.0,-0.008842516794963461,-0.015447950229593985,0.02930706857363247,0.024449273003455375,0.06851492000839614,0.008652182728603951
676,5.0,299.86,226.19717999999997,0.0,0.0,0.0,0.0,0.006737563278662877,0.0,-0.01938935025032988,-0.01988771224576438,-0.029481231067070974,0.014025355195194785,0.07388827344145484,0.015698062910778184
677,5.0,299.27797999999996,395.07999,0.0,0.0,0.0,0.0,0.006747530088246697,0.0,-0.045670535864830955,-0.037165355055434966,-0.03725855987913357,0.0028738791308047873,0.07797697266897803,-0.0025819418159678175
678,5.0,299.40412000000003,496.04594000000003,0.0,0.0,0.0,0.0,0.006757496897830517,0.0,-0.03759837052542026,-0.06222627242875494,-0.05096093552545275,0.015873637874856086,0.07826232213563983,-0.015883035769533586
679,5.0,300.51092,692.38369,0.0,0.0,0.0,0.0,0.006767463707414338,0.0,-0.057269846080593746,-0.07790382006475843,-0.07529368780715844,0.006238382572655425,0.1030076739110659,-0.006911282065390432
680,5.0,300.89195,592.80164,0.0,0.0,0.0,0.0,0.006777430516998159,0.0,-0.06045408685810384,-0.07160565705342813,-0.048137151378266956,0.009246152065049163,0.045824717066297455,-0.02144722168667598
681,5.0,301.2708,398.33096,0.0,0.0,0.0,0.0,0.00678739732658198,0.0,-0.05700082919229385,-0.019695143051009282,-0.04438669225937546,-0.016519057923554088,0.03312435254986907,-0.0029475487965504167
682,5.0,300.2219,394.98503,0.0,0.0,0.0,0.0,0.006797364136165801,0.0,-0.03618571446125197,-0.017322207575568786,-0.06655766228047984,0.025445106347486476,0.013037576176208588,0.004745794247848425
683,5.0,300.30949,358.13813,0.0,0.0,0.0,0.0,0.006807330945749622,0.0,-0.023792185379855876,-0.03297021289165667,-0.05210265155263136,0.028812267139049372,0.055614267357950845,0.025789625566987873
684,5.0,299.94546,159.74133,0.0,0.0,0.0,0.0,0.0068172977553334424,0.0,-0.00947400181768618,-0.005340817972347694,-0.03374255670088107,0.03690834112781967,0.07628746931973703,0.003707820034808346
685,5.0,299.47249,343.51417000000004,0.0,0.0,0.0,0.0,0.006827264564917263,0.0,-0.041009957267617664,-0.030257791009961472,-0.03315197982709567,0.01965186612598818,0.06723897367422003,0.028823876958695177
686,5.0,299.28267999999997,464.82510999999994,0.0,0.0,0.0,0.0,0.006837231374501084,0.0,-0.07396412838369112,-0.04140069690368066,-0.025930401469631374,0.02544561905203708,0.05600977838873474,-7.746355175055733e-05
687,5.0,299.79066,578.80134,0.0,0.0,0.0,0.0,0.006847198184084904,0.0,-0.07804014374646252,-0.056786281589619646,-0.04111472935445786,0.012966964803239788,0.07621821772840243,0.044207648940205256
688,5.0,300.0282,658.1128,0.0,0.0,0.0,0.0,0.006857164993668726,0.0,-0.06295698989737114,-0.09016105079570291,-0.04693181641705966,0.007520251353666023,0.06455413347349694,-0.015863902567895286
689,5.0,300.06759,673.2078,0.0,0.0,0.0,0.0,0.006867131803252546,0.0,-0.08717900002264742,-0.05530310027874104,-0.06215626191309544,-0.009735284770622802,0.06257997270741245,0.028616134343692572
690,5.0,300.14071,280.50529,0.0,0.0,0.0,0.0,0.0068770986128363675,0.0,-0.008970499705819392,-0.031077777838887873,-0.04521832639820136,0.009117794150331222,0.05301591818576375,-0.027733701924353274
691,5.0,299.50555,94.790993,0.0,0.0,0.0,0.0,0.006887065422420188,0.0,0.01124633745067709,-0.01950650222689188,-0.02055393026601498,0.036191243767047666,0.08915505860616922,-0.01002467882770877
692,5.0,299.80957,344.47501,0.0,0.0,0.0,0.0,0.006897032232004008,0.0,-0.038025392621064066,-0.027639382525544674,-0.03904702635239146,0.04492824809332286,0.0911567331654691,-0.015439759115785587
693,5.0,299.97382999999996,212.5938,0.0,0.0,0.0,0.0,0.00690699904158783,0.0,-0.02762193030582227,-0.01948607510487588,-0.017515199295615583,0.03312737811466767,0.06479114483088813,-0.0038693829659033666
694,5.0,299.82315,52.47726899999999,0.0,0.0,0.0,0.0,0.00691696585117165,0.0,0.002983130897662097,-0.02109684588159658,0.002161935160041388,0.012886339479532688,0.02155171512973868,-0.005553140984427344
695,5.0,301.53623999999996,519.53778,0.0,0.0,0.0,0.0,0.006926932660755471,0.0,-0.02968253853068847,-0.06989802868639833,-0.05834594403129635,0.028307889477771173,0.03215056246176347,0.0018064071808535085
696,5.0,300.6209,649.58155,0.0,0.0,0.0,0.0,0.0069368994703392925,0.0,-0.05060135636971505,-0.09939407954943191,-0.047461136242799455,0.024971430164238275,0.03873082645993496,0.007610012241599733
697,5.0,300.05188,491.16284,0.0,0.0,0.0,0.0,0.006946866279923114,0.0,-0.05174421432975636,-0.06734833071776274,-0.03020869397636597,0.030126924693295976,0.05241099065081205,-0.016557360803834284
698,5.0,300.60102,569.0086,0.0,0.0,0.0,0.0,0.006956833089506934,0.0,-0.07946152490724193,-0.03752235548966817,-0.05598052687159786,0.007905096305947263,0.06297299519595075,0.03228103158438977
699,5.0,299.86899,517.50556,0.0,0.0,0.0,0.0,0.006966799899090754,0.0,-0.06749249594199073,-0.05059375192771454,-0.03922252025646136,0.027008892717070177,0.08231494864635293,0.00980624085127562
700,5.0,298.27982000000003,398.17523,0.0,0.0,0.0,0.0,0.006976766708674575,0.0,-0.04457813472001936,-0.011886811825636988,-0.06457038093885044,0.015751895875341086,0.07004634418303593,0.02008108900084918
701,5.0,298.99699,579.87196,0.0,0.0,0.0,0.0,0.0069867335182583964,0.0,-0.0965718780989023,-0.037179223409553666,-0.04251549695520286,0.027266508515244873,0.07116006917620203,0.012425853786086289
702,5.0,298.51402,356.48579,0.0,0.0,0.0,0.0,0.006996700327842217,0.0,-0.036367193633662566,-0.004807341186747635,-0.06718824429471344,-0.006962919418311644,0.048339161024203756,0.027928754595103474
703,5.0,300.52344,173.77241999999998,0.0,0.0,0.0,0.0,0.007006667137426039,0.0,-0.018923972585400683,-0.017215899401576983,-0.016682605608944984,0.016876204265801685,0.06715025653521434,0.008184420582214422
704,5.0,300.76018999999997,374.78742,0.0,0.0,0.0,0.0,0.007016633947009859,0.0,-0.024860872419327076,-0.05729761825258465,-0.03176752757946087,0.013157434543787688,0.08721554795375441,0.005623616379232724
705,5.0,299.78591,603.16991,0.0,0.0,0.0,0.0,0.007026600756593679,0.0,-0.1047731811503079,-0.05056000563313405,-0.028015405717155273,0.03323275409856746,0.052877057325809246,0.013866255677742887
706,5.0,299.70693,462.91798,0.0,0.0,0.0,0.0,0.0070365675661775,0.0,-0.02106850223654928,-0.08653642416698011,-0.03311058146775997,0.021308542198489377,0.019737600256699482,0.01020606397051009
707,5.0,300.48364,224.6778,0.0,0.0,0.0,0.0,0.007046534375761321,0.0,-0.035982127184909465,-0.06328662953915402,0.030972316741979672,0.04264049858028955,0.03858821556136036,0.005016436186658706
708,5.0,299.27,573.27688,0.0,0.0,0.0,0.0,0.007056501185345143,0.0,-0.0078073280064482825,-0.0917053067696091,-0.07474922191892383,0.05449843581782685,0.05484880149040525,-0.010050802847087011
709,5.0,300.07903,534.2710599999999,0.0,0.0,0.0,0.0,0.007066467994928963,0.0,-0.04825207217810875,-0.05802099472422635,-0.056131993576046445,0.025301031302517377,0.05748650529647635,-0.014079778884565988
710,5.0,299.83982000000003,120.57831999999999,0.0,0.0,0.0,0.0,0.007076434804512784,0.0,0.0032584309498320967,-0.01110401836813129,-0.02880721203430047,-0.004312700453630396,0.07099166498308183,-0.01043780946713159
711,5.0,300.34666,206.54555,0.0,0.0,0.0,0.0,0.007086401614096604,0.0,-0.028174711937627574,-0.007683526880080062,-0.02692645164918387,-0.020912842703186878,0.07504193974031284,-0.012268816232587888
712,5.0,301.09592000000004,513.90177,0.0,0.0,0.0,0.0,0.0070963684236804245,0.0,-0.06740828979243023,-0.04176143724403296,-0.04704357891633976,-0.026946506908413177,0.07433903294719134,0.0003460396114089507
713,5.0,301.15029,542.11816,0.0,0.0,0.0,0.0,0.0071063352332642465,0.0,-0.07190370862334353,-0.06031176372255764,-0.032574910590393365,-0.015457436277030185,0.043042130654927555,-0.015803733750457086
714,5.0,299.97326,484.16617,0.0,0.0,0.0,0.0,0.007116302042848067,0.0,-0.02934674744754847,-0.06421466429249394,-0.05361301532394265,0.024979701324804576,0.04892264312078895,0.01731003236236718
715,5.0,300.2675,390.11321,0.0,0.0,0.0,0.0,0.007126268852431888,0.0,-0.01076854139252229,-0.05043337875488695,-0.05738275355248685,0.04996498464441005,0.06535851929063363,0.01173639788804229
716,5.0,299.4404,382.70172,0.0,0.0,0.0,0.0,0.007136235662015709,0.0,-0.034391904106966666,-0.03674854246779876,-0.04519132125653616,0.056375409687319744,0.09068149657706691,0.038495354229445666
717,5.0,299.70922,709.2664,0.0,0.0,0.0,0.0,0.007146202471599529,0.0,-0.08063502253705714,-0.08046101203113364,-0.05450323862330086,0.018702870267829585,0.05489159610837875,0.01206266948649279
718,5.0,299.53502000000003,550.13269,0.0,0.0,0.0,0.0,0.00715616928118335,0.0,-0.11110015795473188,-0.012660779874771688,-0.043465662103976864,-0.0007412529594459714,0.05750717559851635,0.04585988596401836
719,5.0,300.27811,66.892167,0.0,0.0,0.0,0.0,0.007166136090767171,0.0,-0.029611292863157074,0.01091979430119979,-0.0016420490980326285,0.0043591861390681755,0.07626396394391723,-0.013255267893943087
720,5.0,300.32048,82.32634499999999,0.0,0.0,0.0,0.0,0.007176102900350992,0.0,0.008702721515766742,0.011208125762905889,-0.04493600046983796,-0.001033080924332149,0.09569855277146182,-0.016555978730697883
721,5.0,300.2269,447.63935999999995,0.0,0.0,0.0,0.0,0.007186069709934813,0.0,-0.03351529787570237,-0.04520323910421236,-0.05735264989201585,0.004989582728533475,0.048095228155379456,-0.019951729387082378
722,5.0,299.90346,473.38993,0.0,0.0,0.0,0.0,0.007196036519518633,0.0,-0.045468964956187456,-0.03205951586077787,-0.06637023634323233,-0.0033202567351588268,0.05331315003634824,-0.026833705827780573
723,5.0,299.30977,187.75581,0.0,0.0,0.0,0.0,0.007206003329102455,0.0,-0.01938738961138638,-0.026148600825665974,-0.011537087540371888,0.033422132568757666,0.07377538319481343,-0.01129189925467369
724,5.0,300.33062,316.05400000000003,0.0,0.0,0.0,0.0,0.0072159701386862755,0.0,-0.04677890481796845,-0.04646578925881636,-0.002827828838934977,0.03182300403568597,0.09075747513581542,-0.005731333173513545
725,5.0,300.96521,489.96357,0.0,0.0,0.0,0.0,0.007225936948270096,0.0,-0.03685376241118316,-0.06953568437113773,-0.04254724309408596,0.02046640876212728,0.07805605785253313,-0.000973638505890639
726,5.0,300.2314,470.85859000000005,0.0,0.0,0.0,0.0,0.007235903757853917,0.0,-0.0037379685822587767,-0.08677533638155892,-0.05261594784128974,-0.001957057914996578,0.06448796013596614,-0.016581175220934583
727,5.0,299.84332,346.28022000000004,0.0,0.0,0.0,0.0,0.007245870567437737,0.0,-0.005563134568838634,-0.05421688603904004,-0.04548052006032786,0.007499866281529174,0.07426835672621614,0.0005461357345319005
728,5.0,299.7644,142.07523,0.0,0.0,0.0,0.0,0.007255837377021559,0.0,0.005806327359789894,-0.002769776498305657,-0.04622387377094116,0.01123648156695439,0.06465323541277754,0.0030482675790155876
729,5.0,299.61851,97.6658,0.0,0.0,0.0,0.0,0.007265804186605379,0.0,-0.025965044490550378,-0.02202935008112758,0.018306430086703983,0.007200284906612794,0.035630934700249466,-0.025420871431594678
730,5.0,299.84722,348.1385,0.0,0.0,0.0,0.0,0.0072757709961892006,0.0,-0.06958253502926152,-0.013567337778991988,-0.022675537160151277,-0.018608695763785283,0.053123166655848354,0.007266012312774583
731,5.0,299.07647000000003,483.64959000000005,0.0,0.0,0.0,0.0,0.007285737805773021,0.0,-0.05770589826112874,-0.037116793017892266,-0.05219470937721675,0.03499907801739007,0.07636156829955003,-0.03645133392196657
732,5.0,298.94548,348.81154,0.0,0.0,0.0,0.0,0.007295704615356841,0.0,-0.02822868473070427,-0.014252184402331088,-0.06354912818956064,0.024167613793657776,0.07291141725854662,0.0055962933810111545
733,5.0,300.84913,579.0842700000001,0.0,0.0,0.0,0.0,0.007305671424940662,0.0,-0.054488869723632746,-0.04753028954887436,-0.07400799806002073,0.02338502298617208,0.04592411183485696,-0.013015069864987386
734,5.0,300.64646,750.17879,0.0,0.0,0.0,0.0,0.007315638234524483,0.0,-0.06942361384382724,-0.04817897631589475,-0.11043303408889191,-0.015495022789489684,0.02123963916518918,0.04807453860158755
735,5.0,300.82146,505.96441,0.0,0.0,0.0,0.0,0.0073256050441083045,0.0,-0.06710089909634313,-0.04833266203806236,-0.03836698658752676,0.02941180418346907,0.05873897158608515,0.024188316519700978
736,5.0,300.40545,370.23082,0.0,0.0,0.0,0.0,0.007335571853692126,0.0,-0.057389457215148446,-0.03988990452757706,-0.015261563886949086,0.018816433312537382,0.08696986722850761,0.05166055938825025
737,5.0,298.74242999999996,406.5915,0.0,0.0,0.0,0.0,0.007345538663275946,0.0,-0.04556481740239736,-0.04241840327762046,-0.03561044070372686,0.025909578166826274,0.05173379102597765,-0.0033500844876275964
738,5.0,299.68552,300.46078,0.0,0.0,0.0,0.0,0.007355505472859766,0.0,-0.012241355128377688,-0.037675296473012265,-0.041415920986433166,0.030174024610944372,0.07412913109622563,-0.004696417759875345
739,5.0,300.89151,165.65717,0.0,0.0,0.0,0.0,0.007365472282443586,0.0,0.009492034933690911,-0.03230231996899077,-0.027545357982515173,0.03180050785696577,0.10392821162691591,-0.03137943353940897
740,5.0,300.01818,313.5707,0.0,0.0,0.0,0.0,0.007375439092027408,0.0,-0.021812750647000875,-0.03656176399736517,-0.03694314728200476,0.022875811108666776,0.08827491511880582,-0.020905946523006282
741,5.0,300.08921000000004,363.02895,0.0,0.0,0.0,0.0,0.0073854059016112295,0.0,-0.0968932567126199,0.004973051755801995,-0.018431529997050382,0.00023811265892488976,0.03180239858165237,-0.0030800116913984868
742,5.0,300.09524,327.72379,0.0,0.0,0.0,0.0,0.00739537271119505,0.0,-0.042621751426939365,-0.038528018372919366,-0.018470080110354985,0.012649599673168288,0.054328822817337356,-0.04032316419083646
743,5.0,299.32486,454.50985,0.0,0.0,0.0,0.0,0.007405339520778871,0.0,-0.03248982392649597,-0.06251994473173814,-0.04314987663081126,0.012241398698131989,0.07105677339475754,-0.01822896407680868
744,5.0,300.71979,678.42233,0.0,0.0,0.0,0.0,0.007415306330362692,0.0,-0.041474935712007464,-0.08163721706521603,-0.08311129736369642,0.006348596116507654,0.05734881879338775,-0.01084028456585279
745,5.0,299.11961,458.26282000000003,0.0,0.0,0.0,0.0,0.007425273139946512,0.0,-0.032154633700665264,-0.06709250735901494,-0.04005331441095436,0.00990235420938627,0.035295246968619666,0.01998981441859108
746,5.0,299.3877,401.11233,0.0,0.0,0.0,0.0,0.0074352399495303334,0.0,-0.016108664275301384,-0.05329820966362375,-0.05252125759294454,0.03571473554976996,0.046922341515374555,0.00822821233961133
747,5.0,299.84817000000004,317.22125,0.0,0.0,0.0,0.0,0.007445206759114154,0.0,-0.03426365704180967,-0.045076672007721155,-0.017087009935856583,0.048470981822463455,0.08289045241165072,0.03010228549061427
748,5.0,300.46412000000004,195.69048,0.0,0.0,0.0,0.0,0.007455173568697975,0.0,-0.008444670121374053,-0.02894838715748337,-0.02209196387105708,0.03325260873427697,0.07574638768683642,0.026374424888703077
749,5.0,300.48436,464.58442,0.0,0.0,0.0,0.0,0.007465140378281795,0.0,-0.062091505099204435,-0.03616906878860917,-0.04296149013246896,0.012443130713541388,0.05706203051158395,0.0008648628956528222
750,5.0,300.64281,644.33689,0.0,0.0,0.0,0.0,0.007475107187865617,0.0,-0.10413103389943289,-0.028257047627503477,-0.06347423684816944,0.02209520728462718,0.07612543239024523,0.0063213457683182536
751,5.0,300.17706,508.56293,0.0,0.0,0.0,0.0,0.007485073997449437,0.0,-0.05743848838748744,-0.05131497118989335,-0.045836972326256956,0.0014829856522842887,0.09172758003330732,-0.047301716538315955
752,5.0,301.21718,475.15444,0.0,0.0,0.0,0.0,0.007495040807033258,0.0,-0.061336663158957354,-0.03573072058334757,-0.047367700398078055,0.0017885874553198382,0.06821642463493693,-0.005041008109533765
753,5.0,300.03719,774.33074,0.0,0.0,0.0,0.0,0.007505007616617079,0.0,-0.12246670638402288,-0.056062676123455356,-0.056847824374193445,-0.018507996942347085,0.03740476984206337,0.013068377965998489
754,5.0,299.30255,653.3852,0.0,0.0,0.0,0.0,0.007514974426200899,0.0,-0.08915382852054782,-0.052010669721803446,-0.05744828752920455,0.03486066096097937,0.06480440422169673,0.02115033535437558
755,5.0,298.69498,215.14235,0.0,0.0,0.0,0.0,0.007524941235784721,0.0,-0.003642220298159156,-0.033599949855306864,-0.028155732750004474,0.05679179468341374,0.09181396163083251,0.021787930072551278
756,5.0,299.04039,245.12865,0.0,0.0,0.0,0.0,0.007534908045368542,0.0,0.005933768283167334,-0.04066348956817396,-0.039783267047302756,0.03285068788336047,0.07393278045209734,0.0034791277647131767
757,5.0,300.0199,534.0035799999999,0.0,0.0,0.0,0.0,0.007544874854952362,0.0,-0.04574472603715296,-0.04370869723321255,-0.07287033199349184,0.00979845939448265,0.03068055644193517,0.026944828966247572
758,5.0,300.45493,267.64642000000003,0.0,0.0,0.0,0.0,0.007554841664536183,0.0,-0.017837471595921382,-0.033643881339892566,-0.02987647459982847,0.0041908306832777855,0.032444145598737865,-0.03086314107020487
759,5.0,300.84256,139.23476000000002,0.0,0.0,0.0,0.0,0.007564808474120003,0.0,-0.03179283451395847,-0.012727408161597387,0.002196351618238028,0.005288548148714065,0.07461689449561414,0.01074676563462319
760,5.0,301.12863,327.69695,0.0,0.0,0.0,0.0,0.007574775283703825,0.0,0.002729496159130297,-0.050151739810091356,-0.05218944655619735,0.0037552794535922265,0.04954723986668186,-0.04121043082640286
761,5.0,300.21567999999996,373.0613,0.0,0.0,0.0,0.0,0.007584742093287646,0.0,-0.05136580594741035,-0.04824829174198566,-0.013787221156692786,0.019542702613214582,0.04998343998173146,0.001173845579899539
762,5.0,300.33006,654.3443900000001,0.0,0.0,0.0,0.0,0.007594708902871466,0.0,-0.07153296446475393,-0.06907702962062204,-0.05829436250845564,0.025674434229369374,0.06843074121658833,-0.059114283476125545
763,5.0,299.7342,720.34234,0.0,0.0,0.0,0.0,0.0076046757124552875,0.0,-0.08545571795482272,-0.05639168653692615,-0.07711868093327122,0.051172464656079046,0.08825586905667611,-0.0068141689334061135
764,5.0,299.06946,272.02261,0.0,0.0,0.0,0.0,0.007614642522039108,0.0,-0.022238768611795582,-0.05347094854067175,-0.006978362667060773,0.009341963879930052,0.07959630338254352,-0.007021997775992223
765,5.0,300.08203,339.66357999999997,0.0,0.0,0.0,0.0,0.007624609331622928,0.0,-0.05533356465624765,-0.02072855986774958,-0.02718712138315997,-0.010755637652498791,0.07849154362626222,0.03468620259851166
766,5.0,299.74826,679.35414,0.0,0.0,0.0,0.0,0.00763457614120675,0.0,-0.07595042484622333,-0.04953056683628636,-0.08102570137811413,0.0058621819609523135,0.06781196457926984,0.04997119586752305
767,5.0,299.31498999999997,372.19495,0.0,0.0,0.0,0.0,0.00764454295079057,0.0,-0.055921263899749045,-0.007792271616587332,-0.049424435981062054,-0.005058876977697285,0.08383443166856422,0.03103872515353367
768,5.0,300.01063999999997,36.352394,0.0,0.0,0.0,0.0,0.007654509760374391,0.0,0.028171557690066275,-0.004164292548583676,-0.03505748580615447,0.018552248613964383,0.06593976311774793,0.02242565752649008
769,5.0,299.89428,409.07691,0.0,0.0,0.0,0.0,0.007664476569958212,0.0,-0.03383528428378257,-0.054938601793767854,-0.03557527889875667,0.007572010397924242,0.04538656036530476,-0.013188186684322686
770,5.0,299.09073,621.78963,0.0,0.0,0.0,0.0,0.007674443379542034,0.0,-0.094818476158605,-0.03707868164188097,-0.05711136363245274,0.03875892793820836,0.05317191006515895,0.006428816545474794
771,5.0,298.1647,467.07228,0.0,0.0,0.0,0.0,0.007684410189125854,0.0,-0.04856814338780255,-0.05466827781283895,-0.03874189013777686,0.03010783607466207,0.07289269138344853,-0.04111133597987296
772,5.0,298.3556,318.8544,0.0,0.0,0.0,0.0,0.007694376998709674,0.0,-0.0055822401087492046,-0.04549018342653156,-0.04585135439817636,0.023779945318647876,0.06907506999492864,-0.009375723853386902
773,5.0,299.54546,343.60666000000003,0.0,0.0,0.0,0.0,0.007704343808293494,0.0,-0.03981180017011876,-0.023475237708825578,-0.04116080690275536,-0.006304889776094174,0.06576286383578935,0.004394254522379155
774,5.0,299.9561,318.37692999999996,0.0,0.0,0.0,0.0,0.0077143106178773155,0.0,-0.004077887139681126,-0.05516413606727635,-0.03753661293182526,0.015206803798544685,0.06266146334670493,-0.02041203674851118
775,5.0,299.88902,182.65718,0.0,0.0,0.0,0.0,0.0077242774274611375,0.0,-0.035554650139970764,-0.01284322974077809,-0.007125341382841442,0.007522338952847054,0.08099076856766652,-0.0026804684318416376
776,5.0,299.93946,138.17099,0.0,0.0,0.0,0.0,0.007734244237044959,0.0,-0.01213380977601379,-0.024091276544373874,-0.005775443699391915,0.007511333942185943,0.05598302048009395,-0.015710021288458383
777,5.0,300.18824,7.395710799999999,0.0,0.0,0.0,0.0,0.007744211046628779,0.0,-0.005930142469009495,-0.0008116499489586133,0.004493681005666786,0.006450601827924834,0.06109167752327914,0.007832859578493053
778,5.0,300.20961,432.66629000000006,0.0,0.0,0.0,0.0,0.007754177856212599,0.0,-0.029420068251284674,-0.055965995851913745,-0.04613368437954016,0.03706697151047526,0.07171762017622803,-0.016852080807420882
779,5.0,299.54726,728.0074099999999,0.0,0.0,0.0,0.0,0.0077641446657964195,0.0,-0.09384658591443691,-0.06272129373860974,-0.06472819464192543,0.04229913867459996,0.07950535810656792,0.03326018683177487
780,5.0,298.93768,419.03565,0.0,0.0,0.0,0.0,0.007774111475380241,0.0,0.0037288905706378463,-0.07098600395477313,-0.06011926038905904,0.014646793640525988,0.06890852410249183,-0.018546998965196283
781,5.0,300.20144,289.42935,0.0,0.0,0.0,0.0,0.007784078284964063,0.0,-0.02916839415169637,-0.031578151135770866,-0.027232750061663175,-0.006513241557056895,0.040994250877817565,0.0028865770797329767
782,5.0,299.78817999999995,594.4011,0.0,0.0,0.0,0.0,0.007794045094547884,0.0,-0.06323266789182844,-0.06066633336980094,-0.05678408992965335,-0.013856901352819686,0.06722147788474334,-0.02308594702040558
783,5.0,300.66639,566.83211,0.0,0.0,0.0,0.0,0.007804011904131703,0.0,-0.08818218854915441,-0.025537315146336774,-0.05858330495997204,0.02121016675953048,0.08114489302712742,0.014601913753846686
784,5.0,300.68469,64.017643,0.0,0.0,0.0,0.0,0.007813978713715525,0.0,-0.008337705867942502,0.017664148073565682,-0.028786206346477373,0.025281233408813476,0.08380662403281983,0.02091698993584618
785,5.0,300.0023,243.06222000000002,0.0,0.0,0.0,0.0,0.007823945523299345,0.0,-0.039634818814902065,-0.006681443100157093,-0.02756858268805727,0.008644386377034512,0.08460412684202721,0.027226702985066374
786,5.0,298.92224,564.65314,0.0,0.0,0.0,0.0,0.007833912332883166,0.0,-0.062419070618032646,-0.043510223830124754,-0.06571116173618674,0.00856961561240521,0.057476453855484354,0.02012844121777248
787,5.0,299.77241000000004,598.36193,0.0,0.0,0.0,0.0,0.007843879142466988,0.0,-0.08575324567443643,-0.07874488148251473,-0.017388957452406484,0.035944898349735264,0.07779971469648403,-0.027082090917544273
788,5.0,299.32533,485.21062,0.0,0.0,0.0,0.0,0.007853845952050806,0.0,-0.03250072649757197,-0.07010496576757144,-0.04488621949242496,0.017130407437639585,0.07026184018780374,-0.012735432089139288
789,5.0,299.90743,453.5468,0.0,0.0,0.0,0.0,0.007863812761634628,0.0,-0.02117607595991598,-0.07025565834894364,-0.04643516681429416,0.021133996696513082,0.04741420857766805,0.0046534707490868054
790,5.0,299.64463,129.96786,0.0,0.0,0.0,0.0,0.00787377957121845,0.0,0.01089430396843409,-0.042629303179934665,-0.007771983613810063,0.01062788505339059,0.056547398759293745,-0.005372815194605574
791,5.0,298.8391,227.80756,0.0,0.0,0.0,0.0,0.00788374638080227,0.0,-0.013421681050616788,-0.020638623788873583,-0.03518750504573637,0.02353578548180118,0.07974617219158442,0.007732261575439802
792,5.0,299.19818,478.16810999999996,0.0,0.0,0.0,0.0,0.00789371319038609,0.0,-0.04181418603098886,-0.03569071240314907,-0.06784626714815523,0.016206935349499983,0.06255759203920365,-0.016410728315612785
793,5.0,299.81596,405.91141,0.0,0.0,0.0,0.0,0.007903679999969911,0.0,-0.05290233690255415,-0.028825935882898373,-0.04165865923338956,-0.004138236923587186,0.07700902599419913,0.013184597752468486
794,5.0,299.37155,373.90468,0.0,0.0,0.0,0.0,0.007913646809553733,0.0,-0.01067931762846659,-0.057253434468724045,-0.045724936249449864,0.02901998442279947,0.06737735324037704,-0.03899628481388367
795,5.0,299.85489,646.36092,0.0,0.0,0.0,0.0,0.007923613619137553,0.0,-0.08185252055246482,-0.05357991953592635,-0.06104514198593645,0.019637303695550983,0.07501049048370902,0.038776814842223666
796,5.0,300.01093,583.96516,0.0,0.0,0.0,0.0,0.007933580428721375,0.0,-0.053504236846207046,-0.05433114822631684,-0.06967544297068083,0.046382435252589956,0.07387656331004913,0.014173642320829587
797,5.0,300.5325,437.12452,0.0,0.0,0.0,0.0,0.007943547238305195,0.0,-0.041421793784012756,-0.05073678940458125,-0.04071635589214146,0.006935844159739524,0.049709812805476546,0.04921356951600116
798,5.0,300.95475,597.1460400000001,0.0,0.0,0.0,0.0,0.007953514047889016,0.0,-0.05602411891740004,-0.06882709527145543,-0.05666627123452555,0.017112904555412183,0.04886566908091605,-0.015772628998887286
799,5.0,301.18982,599.09527,0.0,0.0,0.0,0.0,0.007963480857472836,0.0,-0.09026523317098491,-0.052609181357121955,-0.039235588143001064,0.0064713038446929634,0.06394971560334553,0.00999640124656799
800,5.0,300.01633,215.43984,0.0,0.0,0.0,0.0,0.007973447667056658,0.0,0.012769805585531686,-0.04146599985937556,-0.03679213654010116,0.03655328512052836,0.09088466234136781,-0.02523009467626648
801,5.0,300.13512000000003,406.04811,0.0,0.0,0.0,0.0,0.007983414476640478,0.0,-0.05249550381515285,-0.027728162486056574,-0.043204821130733866,0.03240584575820797,0.08791664710869751,0.02857067183820577
802,5.0,299.02513999999996,580.03608,0.0,0.0,0.0,0.0,0.0079933812862243,0.0,-0.05562396922765835,-0.04043529044690246,-0.08025722514452142,0.04641331607588766,0.09323073047715673,0.025732026351803272
803,5.0,299.3831,475.14517,0.0,0.0,0.0,0.0,0.008003348095808119,0.0,-0.043234559007918755,-0.055400485772352244,-0.04579722353808405,0.0012497807715437586,0.07608171976768112,0.007919835649851922
804,5.0,299.04073,454.11102,0.0,0.0,0.0,0.0,0.00801331490539194,0.0,-0.055374539477041546,-0.03312709440463967,-0.04953677805939936,0.004095180785762876,0.07663960007398962,0.016573769375953683
805,5.0,299.49802,562.74949,0.0,0.0,0.0,0.0,0.008023281714975761,0.0,-0.06653429875967402,-0.05519227807555375,-0.04933521627000675,-0.001892390064464358,0.06872280650491294,-0.0027623897024266373
806,5.0,300.5202,466.52733,0.0,0.0,0.0,0.0,0.008033248524559583,0.0,-0.03840355073063536,-0.059578385459178845,-0.04383072091625536,0.00975384052102911,0.04979391053727636,-0.015186953215835587
807,5.0,300.83786000000003,465.19575,0.0,0.0,0.0,0.0,0.008043215334143403,0.0,-0.058527064513171544,-0.05236014677404415,-0.030520681788156766,0.024261704197943778,0.03604838563544867,-0.01224466237670409
808,5.0,300.14371,319.81933,0.0,0.0,0.0,0.0,0.008053182143727224,0.0,-0.008022973972230882,-0.05569897000006035,-0.03349514635771357,0.03284229918578257,0.05315330578007286,0.014841112718203786
809,5.0,300.13462000000004,125.42083999999998,0.0,0.0,0.0,0.0,0.008063148953311046,0.0,-0.00985425613906436,-0.0036355380150746666,-0.024635009852786178,0.05581769859377794,0.04160736243382696,-0.0021928599583934277
810,5.0,299.92309,320.21538,0.0,0.0,0.0,0.0,0.008073115762894866,0.0,-0.019384494755850683,-0.045486176022386055,-0.03246681099022477,0.014026089801517285,0.08119614727018583,-0.029498198953245576
811,5.0,299.23579,532.37267,0.0,0.0,0.0,0.0,0.008083082572478688,0.0,-0.06259846452173745,-0.05033545218572235,-0.04889408365347036,0.01250337451148699,0.09513554136664691,-0.025690244983929772
812,5.0,300.11064,303.24962999999997,0.0,0.0,0.0,0.0,0.008093049382062508,0.0,-0.009554224982428592,-0.036596502263793566,-0.04602958711726655,0.00012965819830626786,0.1027757713606789,-0.01066246423955329
813,5.0,300.59269,176.90284,0.0,0.0,0.0,0.0,0.008103016191646327,0.0,-0.04420832984427246,-0.006209625420242314,-0.0033560911355454063,0.007828803639667764,0.1087171254420449,0.03557417445614767
814,5.0,299.80871,607.2864599999999,0.0,0.0,0.0,0.0,0.008112983001230149,0.0,-0.06420496546253673,-0.03427478252790767,-0.08612017089339911,-0.012789480875973489,0.08344586038771522,0.03471032301714217
815,5.0,300.16101000000003,786.6942700000001,0.0,0.0,0.0,0.0,0.00812294981081397,0.0,-0.13574582517206987,-0.060024436391700645,-0.04336515073380716,0.010853201478127591,0.047207183343736255,0.034332974494400766
816,5.0,299.8334,409.29952000000003,0.0,0.0,0.0,0.0,0.008132916620397791,0.0,-0.04424493553063516,-0.04767954736810495,-0.032492350972245364,-0.0001770353006520238,0.06635004226873933,-0.0010806049884724092
817,5.0,299.39988999999997,400.70067,0.0,0.0,0.0,0.0,0.008142883429981613,0.0,-0.052652361010133444,-0.04356858399613446,-0.025582052164751977,0.031577437807700476,0.06937382172066314,-0.0078092071800837425
818,5.0,300.28618,541.29175,0.0,0.0,0.0,0.0,0.008152850239565431,0.0,-0.04672646203254275,-0.04750405447728516,-0.07030865943517443,0.009825743889200421,0.08746080412720933,-0.02921951565899167
819,5.0,299.41182000000003,313.62525,0.0,0.0,0.0,0.0,0.008162817049149252,0.0,-0.048523415488638255,-0.03637495715592876,-0.01043587213294039,0.006708197665072564,0.07505953178854903,-0.013797423571949687
820,5.0,299.27013,173.10426999999999,0.0,0.0,0.0,0.0,0.008172783858733074,0.0,0.007417991316473743,-0.024850406559044178,-0.03518696093043267,0.011397819353877188,0.08619049146358923,-0.014310913391377186
821,5.0,300.0756,346.40213,0.0,0.0,0.0,0.0,0.008182750668316896,0.0,-0.04461955739735746,-0.03231269970301517,-0.028365339745191075,0.02641332963954268,0.08816460258041882,0.0063633898719426835
822,5.0,299.64385,298.64358,0.0,0.0,0.0,0.0,0.008192717477900716,0.0,-0.013794681717179087,-0.04551719870069775,-0.03146830975868037,0.008194848344293562,0.07632428474887043,-0.007930221564701932
823,5.0,300.66616,429.05363,0.0,0.0,0.0,0.0,0.008202684287484536,0.0,-0.017865770657964283,-0.07302117960212934,-0.03953463877751506,0.007828202579708442,0.046891669421597455,-0.029715200647661973
824,5.0,300.07979,598.26352,0.0,0.0,0.0,0.0,0.008212651097068356,0.0,-0.03502218113292017,-0.07677257699061342,-0.07006241230312173,0.017967807982784585,0.09553526751784681,0.018681244470945282
825,5.0,299.14977999999996,417.48795,0.0,0.0,0.0,0.0,0.008222617906652178,0.0,-0.046283413360067256,-0.04499571433798125,-0.035626782401339666,0.02046166573840918,0.08200982459073952,0.026737358915521873
826,5.0,300.43104,342.83103,0.0,0.0,0.0,0.0,0.008232584716235999,0.0,-0.03455567673387977,-0.04779948983544236,-0.021856907073108778,0.006515193887349573,0.10470584054866189,-0.003900156688665496
827,5.0,299.66149,483.00219000000004,0.0,0.0,0.0,0.0,0.00824255152581982,0.0,-0.09566955760660022,-0.026084954533884576,-0.025066092041580678,-0.007639812737640812,0.06303276175309924,-0.002643709846038847
828,5.0,298.72934,281.2017,0.0,0.0,0.0,0.0,0.00825251833540364,0.0,-0.02569009704941518,-0.037984160434744764,-0.02180403872264108,0.010823354169931888,0.06350524736747995,-0.04331860303746326
829,5.0,299.4028,95.049724,0.0,0.0,0.0,0.0,0.008262485144987461,0.0,0.0025558775783454776,-0.03634246019872157,0.004893839814659386,0.004249123265505817,0.05391432347967945,-0.04780979357570925
830,5.0,298.79900000000004,421.97560999999996,0.0,0.0,0.0,0.0,0.008272451954571283,0.0,-0.05254915946094825,-0.019383394366242084,-0.05633749488182785,0.015712231186926485,0.052666731936301746,-0.014333422742348686
831,5.0,298.7479,571.1242900000001,0.0,0.0,0.0,0.0,0.008282418764155104,0.0,-0.1029751384503549,-0.02048500595446268,-0.05014737270216035,0.0003830584403674247,0.05951994119341085,0.029334366544576572
832,5.0,299.65662000000003,187.48873999999998,0.0,0.0,0.0,0.0,0.008292385573738924,0.0,-0.010993812221004791,-0.006253156569713504,-0.03974492667676886,0.039921779349222856,0.08081276180334863,0.04069937382046546
833,5.0,299.37793,301.35361,0.0,0.0,0.0,0.0,0.008302352383322744,0.0,-0.04946648180721165,-0.0018980871644766182,-0.04023940285806986,0.03575846641083587,0.06381681569372934,0.05432946825765105
834,5.0,300.06264,738.33935,0.0,0.0,0.0,0.0,0.008312319192906564,0.0,-0.06880143673917313,-0.048710753273127044,-0.10692453402762989,0.031108401296660173,0.06658295097647564,0.025389503234998875
835,5.0,300.11256000000003,602.6225099999999,0.0,0.0,0.0,0.0,0.008322286002490386,0.0,-0.06048182964584185,-0.053757699332221846,-0.06894266657786144,0.02075637864924508,0.057821325686020546,0.008431960925369752
836,5.0,299.98483999999996,429.89050999999995,0.0,0.0,0.0,0.0,0.008332252812074208,0.0,-0.05815247000420195,-0.027225617794209272,-0.04529789287555396,0.019601611960778483,0.1048248163754039,0.011681712780145289
837,5.0,300.32594,456.11075,0.0,0.0,0.0,0.0,0.008342219621658029,0.0,-0.05622019091775085,-0.056713718696958244,-0.025712368286613177,0.006725626782692683,0.08208634321179133,-0.003168836538889817
838,5.0,300.23048,230.76117000000002,0.0,0.0,0.0,0.0,0.008352186431241849,0.0,-0.027326401728655872,-0.007056279066625524,-0.03576295206902856,0.030626456992595967,0.06660781309417935,0.005082783904531715
839,5.0,300.38511,295.57929,0.0,0.0,0.0,0.0,0.008362153240825669,0.0,-0.06092846319717115,-0.03146254335236127,0.0025422838150038775,0.03359543987911177,0.05420721558008565,-0.034257784244230066
840,5.0,299.59621,490.97364000000005,0.0,0.0,0.0,0.0,0.00837212005040949,0.0,-0.029367185715315575,-0.04692490503812755,-0.07295163619476593,0.04912209228372305,0.06412672532956504,-0.01223047687530409
841,5.0,298.78976,109.79456,0.0,0.0,0.0,0.0,0.008382086859993311,0.0,-0.0060328402302449735,-0.01963258600308538,-0.007709377828556352,0.04198500074609696,0.047745484618362456,-0.02256929586066608
842,5.0,298.98276,121.42647,0.0,0.0,0.0,0.0,0.008392053669577133,0.0,0.009212136043292043,-0.028261340768177177,-0.017861410642783983,0.01619167681624409,0.06957276324529714,-0.0029080373115509374
843,5.0,298.97938999999997,660.0335299999999,0.0,0.0,0.0,0.0,0.008402020479160952,0.0,-0.07146163368421414,-0.045240683761657866,-0.08393139463688372,0.04532774525000016,0.08089339421980642,0.026196131374606874
844,5.0,299.48172,682.70656,0.0,0.0,0.0,0.0,0.008411987288744774,0.0,-0.052322658546844356,-0.07173482110992563,-0.08346826740042662,0.008810261599230122,0.09211221078451741,0.04128028631479706
845,5.0,299.48064,263.81569,0.0,0.0,0.0,0.0,0.008421954098328596,0.0,-0.02199311220455118,-0.03247912197893977,-0.02572114809872968,0.01905422183275528,0.06827100335157343,0.009001143833893731
846,5.0,299.55432,498.64455,0.0,0.0,0.0,0.0,0.008431920907912416,0.0,-0.0036708170530814366,-0.06671617816587413,-0.08118849621868071,0.004180713988979346,0.040744865710205164,-0.009454989091484772
847,5.0,300.20044,840.5468599999999,0.0,0.0,0.0,0.0,0.008441887717496236,0.0,-0.12482218862649089,-0.07464081023772444,-0.056042256094190036,0.01936622180354728,0.05587405860409025,0.008039242715836482
848,5.0,300.5094,496.45495999999997,0.0,0.0,0.0,0.0,0.008451854527080057,0.0,-0.07077504325745294,-0.025352744547871075,-0.054782123554324644,0.017310788246941784,0.07980328909972143,-0.014790744055732788
849,5.0,300.81323,330.65251,0.0,0.0,0.0,0.0,0.008461821336663877,0.0,-0.06746067380935014,-0.005300297188923605,-0.027749134736626373,0.006155430522743694,0.0840506318821515,0.012362251064059188
850,5.0,300.37043,368.95502,0.0,0.0,0.0,0.0,0.008471788146247697,0.0,-0.05098643700396955,-0.006756977450061754,-0.05440970044031935,2.1501981775080378e-05,0.08917366289125532,0.027470357210113178
851,5.0,299.35656,268.53816,0.0,0.0,0.0,0.0,0.008481754955831521,0.0,-0.04422955034111675,-0.006016992694705944,-0.031382350686446875,0.007909297646161903,0.08755997192774641,0.0047508518857225755
852,5.0,300.04213,516.1541900000001,0.0,0.0,0.0,0.0,0.008491721765415341,0.0,-0.029625215932781175,-0.057679998575322654,-0.06959277088177174,0.020568111714414583,0.0979281062650016,0.0008666679297784652
853,5.0,299.48219,633.5020400000001,0.0,0.0,0.0,0.0,0.00850168857499916,0.0,-0.08118697837003093,-0.06328204660895173,-0.04809977866157855,0.02140998677200118,0.05370636301590535,0.0047373203359371155
854,5.0,299.02802,299.68313,0.0,0.0,0.0,0.0,0.008511655384582982,0.0,-0.011536533292567189,-0.04618827018892736,-0.03337138495074927,0.023714881489976577,0.05833576897379215,0.007289204290338453
855,5.0,299.60368,362.15049,0.0,0.0,0.0,0.0,0.008521622194166802,0.0,-0.04677754300983405,-0.048155055507533955,-0.015152107544896586,0.03817697990227457,0.06462500119874102,-0.00038965667435611966
856,5.0,299.18228,533.82475,0.0,0.0,0.0,0.0,0.008531589003750624,0.0,-0.08556156510001901,-0.04200610066617936,-0.03470172862979397,0.04129995248598796,0.09133880508918822,0.013214857453454888
857,5.0,300.13227,417.24284,0.0,0.0,0.0,0.0,0.008541555813334446,0.0,-0.016755117839101386,-0.05934439257383554,-0.05073189439334815,0.02019978821031388,0.07272210870261334,-0.01320832097705979
858,5.0,300.80669,142.60192,0.0,0.0,0.0,0.0,0.008551522622918264,0.0,0.03119885514633727,-0.04097002609442676,-0.03357625196196807,0.025718592681977476,0.07726617367082762,-0.03337576117793117
859,5.0,298.8852,297.42367,0.0,0.0,0.0,0.0,0.008561489432502086,0.0,-0.04637899222875016,-0.016377169472300782,-0.027653207309909073,0.010516083037356589,0.0938632396930805,-0.011870525856779689
860,5.0,299.75826,440.19237999999996,0.0,0.0,0.0,0.0,0.008571456242085907,0.0,-0.06340226974656685,-0.03166488635758097,-0.038740335812123466,0.00921806497492718,0.08180183068971213,-0.031177003394680675
861,5.0,300.67348,317.91375,0.0,0.0,0.0,0.0,0.008581423051669729,0.0,-0.05696513137802075,-0.024131679892111377,-0.015541029410280184,0.00010356899420146391,0.053431824927810546,0.0038524244016296862
862,5.0,299.89409,390.25475,0.0,0.0,0.0,0.0,0.008591389861253549,0.0,-0.029939509901799572,-0.05547805108075735,-0.03321013835633547,-0.016181289989468984,0.046332963316457455,0.003737060507519156
863,5.0,300.11651,705.77957,0.0,0.0,0.0,0.0,0.00860135667083737,0.0,-0.06546157999805494,-0.07083503171637334,-0.07824275526295872,0.005785744805208555,0.055531071418740044,0.03206631882194927
864,5.0,299.71364,554.3253900000001,0.0,0.0,0.0,0.0,0.00861132348042119,0.0,-0.04781024447200375,-0.059981924470505044,-0.060708908112502735,0.046150609709210554,0.11681667183890788,0.007118270518343604
865,5.0,299.27322000000004,512.26637,0.0,0.0,0.0,0.0,0.008621290290005012,0.0,-0.07338115696515633,-0.047346604530996046,-0.034988422679338466,0.011890379479239089,0.1015587870630719,0.038546727022765764
866,5.0,299.35366,652.0413599999999,0.0,0.0,0.0,0.0,0.008631257099588832,0.0,-0.06497981098625803,-0.03887339277550517,-0.09435108617897722,0.01988812666505528,0.07883510228466883,0.01891345403611258
867,5.0,298.86871,335.10201,0.0,0.0,0.0,0.0,0.008641223909172654,0.0,-0.06168870677370134,-0.023743363950287578,-0.016430571805571184,-0.017758121954090184,0.056280756929228244,0.021079614550395982
868,5.0,300.25867,177.88173,0.0,0.0,0.0,0.0,0.008651190718756472,0.0,-0.012254785758453188,0.0019319737941959681,-0.043748791539669554,0.020876132652063877,0.08438596700274652,-0.0018823342664969279
869,5.0,301.6573,443.03035,0.0,0.0,0.0,0.0,0.008661157528340294,0.0,-0.04456299879002555,-0.028244083092473976,-0.06186308002316064,0.004543919364174926,0.07460079800452553,0.0016135581264207885
870,5.0,301.01166,199.27208000000002,0.0,0.0,0.0,0.0,0.008671124337924115,0.0,-0.001986976758649338,-0.028553389844500173,-0.03003336928506277,0.013659040966042386,0.08175136982148203,-0.03415817973289986
871,5.0,300.32979,183.80622,0.0,0.0,0.0,0.0,0.008681091147507937,0.0,-0.014664994652072287,-0.03843012422775796,-0.0027773831694563773,0.022907776109571478,0.07601934206502493,-0.020011425016723882
872,5.0,300.25486,552.7565400000001,0.0,0.0,0.0,0.0,0.008691057957091757,0.0,-0.04970017882352575,-0.06739130468100393,-0.05093270232466635,0.03552494975303957,0.091680156888877,-0.017221427694122587
873,5.0,299.78288,399.60452999999995,0.0,0.0,0.0,0.0,0.008701024766675577,0.0,-0.05431985859370265,-0.032748970745571766,-0.03440097066886147,0.03415181854877207,0.07401347366356113,0.012850588976254386
874,5.0,300.04117,226.29012000000003,0.0,0.0,0.0,0.0,0.008710991576259397,0.0,0.03621043472394166,-0.05879320073143715,-0.04620378102145816,0.018469618068309383,0.06228282596983635,-0.00017577169671731586
875,5.0,299.35182000000003,632.86719,0.0,0.0,0.0,0.0,0.00872095838584322,0.0,-0.04935364830257586,-0.06489873881925684,-0.07812343695768292,0.03383670080742236,0.08098676825627171,0.015585387473157984
876,5.0,299.35997000000003,649.0137900000001,0.0,0.0,0.0,0.0,0.008730925195427041,0.0,-0.06633669472517204,-0.061366417248143845,-0.06958087532559773,0.02085573491430078,0.100970180960731,0.01821197693888218
877,5.0,300.76681,264.25583,0.0,0.0,0.0,0.0,0.008740892005010862,0.0,-0.04936214237816416,-0.01124717743500999,-0.01971785403875068,-0.009274995445045781,0.08762533567844732,-0.006074475284804035
878,5.0,300.78463999999997,281.34156,0.0,0.0,0.0,0.0,0.008750858814594682,0.0,-0.011208729659965489,-0.035483724659470965,-0.03882835482181026,-0.0035927826098800363,0.05016806630895265,-0.006071761699711224
879,5.0,300.61141000000003,541.6859400000001,0.0,0.0,0.0,0.0,0.008760825624178502,0.0,-0.08888290570880981,-0.024890790655029776,-0.050885304511488545,0.01986732362725218,0.05310742986854524,0.0014774076091587786
880,5.0,301.30275,563.61944,0.0,0.0,0.0,0.0,0.008770792433762322,0.0,-0.03310645551335277,-0.04775048399435586,-0.09046929667487441,0.05876281437418824,0.08077084162021142,-0.004256660022399637
881,5.0,300.22666,330.85901,0.0,0.0,0.0,0.0,0.008780759243346144,0.0,-0.05867783714130165,-0.016434182015677482,-0.025460859346791178,0.02542359200811318,0.07035092007034523,0.0001790272490236138
882,5.0,300.18387,442.40725999999995,0.0,0.0,0.0,0.0,0.008790726052929966,0.0,-0.06031707923258224,-0.024840105858527577,-0.04932357503960785,3.963105864378096e-06,0.08953213557788381,0.017676059841741282
883,5.0,300.16911,523.92332,0.0,0.0,0.0,0.0,0.008800692862513785,0.0,-0.05520267402157974,-0.04228873056957276,-0.06176820131029684,0.008851476864272751,0.10052472581926801,0.015828826889183585
884,5.0,299.98933,614.60548,0.0,0.0,0.0,0.0,0.008810659672097607,0.0,-0.056037348923955746,-0.07008613552771302,-0.06070123375624535,0.02909992985568947,0.09739606991574372,0.007947801656586952
885,5.0,299.29003,717.805,0.0,0.0,0.0,0.0,0.008820626481681427,0.0,-0.09128522341065011,-0.06728562776182444,-0.05962394624992534,-0.011856846980429688,0.06976386424065734,0.02281019607194108
886,5.0,300.35517000000004,373.8823,0.0,0.0,0.0,0.0,0.008830593291265247,0.0,-0.03224743727732427,-0.04505471082505375,-0.036348734243340765,-0.00100674980676597,0.039735552086843665,0.014723232214819885
887,5.0,299.41045,180.40979,0.0,0.0,0.0,0.0,0.00884056010084907,0.0,-0.023314954715256877,-0.014691267213915187,-0.016833849398371587,0.05174009242834955,0.07491698979098123,-0.007207030416503523
888,5.0,300.63788999999997,625.5618599999999,0.0,0.0,0.0,0.0,0.00885052691043289,0.0,-0.07473470812449143,-0.058609889602845744,-0.056810586419768355,0.06632818747733243,0.07887317009092583,0.014139200936680486
889,5.0,300.54426,509.20455999999996,0.0,0.0,0.0,0.0,0.00886049372001671,0.0,-0.04386360898800116,-0.06024553566952144,-0.050676327757864154,0.045402804790907955,0.06816678145953753,-0.03596000388222607
890,5.0,300.38154,77.39679,0.0,0.0,0.0,0.0,0.008870460529600532,0.0,0.007376754773179013,-0.030646833452106968,-0.00025661287309321874,0.01034692802591229,0.06621093316251034,-0.025910954160462078
891,5.0,300.31781,302.62287000000003,0.0,0.0,0.0,0.0,0.008880427339184354,0.0,-0.01850446272599828,-0.047597177227725655,-0.025888155019961973,0.02365877783193958,0.09379824273891581,-0.027143065268811974
892,5.0,300.56967000000003,581.70705,0.0,0.0,0.0,0.0,0.008890394148768174,0.0,-0.05133681483554915,-0.07127484406802943,-0.05421275805813265,0.04551570719655055,0.09650795620309371,0.004133905279409686
893,5.0,300.72652999999997,408.04637,0.0,0.0,0.0,0.0,0.008900360958351995,0.0,-0.04396133999989646,-0.057034227942090045,-0.023040340633404578,0.012595895391368088,0.07705993573222351,-0.007294138818325453
894,5.0,299.71291,453.61409000000003,0.0,0.0,0.0,0.0,0.008910327767935815,0.0,-0.04751087466370826,-0.059684389658140644,-0.03069209128107357,0.003244468059479067,0.06348434401791694,0.007684502538601353
895,5.0,299.02747999999997,708.65856,0.0,0.0,0.0,0.0,0.008920294577519635,0.0,-0.07089180209297614,-0.062464347698751144,-0.08205835825727942,0.003468993743838027,0.06689265188279074,0.043212772104268556
896,5.0,299.23382000000004,579.3409,0.0,0.0,0.0,0.0,0.008930261387103457,0.0,-0.07251601160577313,-0.05343610590948304,-0.050153049942470655,0.03387978217517417,0.08312250289655232,0.00943621903868231
897,5.0,300.07768,660.25981,0.0,0.0,0.0,0.0,0.008940228196687279,0.0,-0.05629488974162305,-0.08120740549204693,-0.06320019829237394,0.03608038812660706,0.06287323464410514,0.03660860046998757
898,5.0,300.32161,701.28364,0.0,0.0,0.0,0.0,0.008950195006271098,0.0,-0.08036508865741672,-0.047275960734024056,-0.08553166611606822,0.04684263014325765,0.05583769508450145,0.01150886041908609
899,5.0,300.41969,296.34249,0.0,0.0,0.0,0.0,0.00896016181585492,0.0,-0.027244217013044872,-0.026301774856533074,-0.03653472541844667,0.015901534676609288,0.07432546046210184,0.01863761797463968
900,5.0,301.25226000000004,165.1169,0.0,0.0,0.0,0.0,0.00897012862543874,0.0,-0.02281738406815048,-0.02342019289714308,-0.003953839286913556,0.03347409710013617,0.07063183048831893,-0.026094860066862176
901,5.0,302.0235,590.50207,0.0,0.0,0.0,0.0,0.00898009543502256,0.0,-0.04252485735962666,-0.05238559556355575,-0.08458743354662972,0.024689161991130578,0.05912487295292064,-0.0023499128119683376
902,5.0,300.78459,432.73040999999995,0.0,0.0,0.0,0.0,0.008990062244606382,0.0,-0.03448543114419707,-0.06581876585705644,-0.031235041347158574,0.01253180732254309,0.05244837957950204,-0.025440240720506276
903,5.0,300.40834,219.06586000000001,0.0,0.0,0.0,0.0,0.009000029054190202,0.0,0.003607418906249527,-0.02987305994699147,-0.04032491103400886,0.0019044979978593182,0.08776626458185592,-0.0006326156983768084
904,5.0,300.30363,601.27922,0.0,0.0,0.0,0.0,0.009009995863774023,0.0,-0.07553698334166983,-0.05944974221323274,-0.04778714236972375,0.013857389739367886,0.08822184107856783,0.022899280007482977
905,5.0,300.23332,723.88212,0.0,0.0,0.0,0.0,0.009019962673357845,0.0,-0.09789605919083881,-0.06426807574501524,-0.05787795420760935,0.021898516188465278,0.08247144715079813,0.03164890233725347
906,5.0,301.20592,434.06417000000005,0.0,0.0,0.0,0.0,0.009029929482941665,0.0,-0.05298440509440366,-0.051102789526202654,-0.027857474477068673,0.044926440455144455,0.06429885625655303,0.013420882609537988
907,5.0,300.40285,475.81271,0.0,0.0,0.0,0.0,0.009039896292525487,0.0,-0.025936819395764775,-0.07355856793841543,-0.04513979647570105,0.026800705285273677,0.07127124196392393,0.001195388999550709
908,5.0,299.51474,494.38724,0.0,0.0,0.0,0.0,0.009049863102109305,0.0,-0.06477310188635745,-0.03819299330685496,-0.04731528091740466,0.017074483124870286,0.07645505683327664,-0.017641243555055183
909,5.0,299.45134,263.12018,0.0,0.0,0.0,0.0,0.009059829911693127,0.0,-0.011769803730589189,-0.03684640520220706,-0.031365755676309066,-0.003697739412213466,0.06574942205996273,-0.015708918872349587
910,5.0,299.74801,251.06275,0.0,0.0,0.0,0.0,0.009069796721276948,0.0,-0.011099078773893791,-0.03816022986487146,-0.027057497311117076,0.03552460828775587,0.08446808585710101,-0.03873137158848876
911,5.0,299.5786,468.41078,0.0,0.0,0.0,0.0,0.00907976353086077,0.0,-0.046822499903520956,-0.02634649768944687,-0.06921618330985543,0.03362972319624526,0.1125696543097599,0.027132113048481076
912,5.0,299.65162999999995,440.81672000000003,0.0,0.0,0.0,0.0,0.00908973034044459,0.0,-0.044647644690129454,-0.05243427919111045,-0.036915351805261565,0.025107244181142074,0.13436906146619387,-0.015997121651292984
913,5.0,300.59073,548.5577,0.0,0.0,0.0,0.0,0.00909969715002841,0.0,-0.04689743278816626,-0.06860051025759323,-0.051249898241971154,0.004320285137253946,0.08598210543477311,0.028935837041744773
914,5.0,300.28095,743.90526,0.0,0.0,0.0,0.0,0.00910966395961223,0.0,-0.08432017667375352,-0.06690619397037724,-0.07490225409477694,0.016078301222804785,0.07681047355760352,0.01211149598231159
915,5.0,300.37728,811.1503299999999,0.0,0.0,0.0,0.0,0.009119630769196052,0.0,-0.06260536475491844,-0.0944117535154646,-0.0895523276258766,0.01227545707374329,0.07720428638121983,0.026290860126455876
916,5.0,300.26873,621.02735,0.0,0.0,0.0,0.0,0.009129597578779873,0.0,-0.08545328210158232,-0.06638361529755273,-0.036939909947935265,0.0005833444364266135,0.07885133556452092,0.017911451012222586
917,5.0,299.67777,501.13955,0.0,0.0,0.0,0.0,0.009139564388363695,0.0,-0.06708159060243753,-0.021805955791830277,-0.06344636233791844,-0.015895568660020485,0.07537566885949933,0.007404130359080774
918,5.0,299.56459,292.91213999999997,0.0,0.0,0.0,0.0,0.009149531197947513,0.0,-0.027539734444460173,-0.04252482189587316,-0.018973420203530784,0.02069188528038008,0.07823933149087083,-0.022047245091143683
919,5.0,300.05733,70.095516,0.0,0.0,0.0,0.0,0.009159498007531335,0.0,0.0006540127540510335,0.0051484375460862245,-0.027109736433272677,0.03393300516317687,0.0925950771461726,-0.03210524586429107
920,5.0,300.09597,460.12405,0.0,0.0,0.0,0.0,0.009169464817115155,0.0,-0.053887832055814947,-0.04927505353206915,-0.03670333631458726,0.03473751155707547,0.08325098199598223,-0.02285906512426408
921,5.0,299.51144,514.9168099999999,0.0,0.0,0.0,0.0,0.009179431626698977,0.0,-0.046424658397507056,-0.05150614108626035,-0.058591053283486745,0.016988487575633184,0.07618272256414933,-0.027530515895050373
922,5.0,299.62327,117.49425,0.0,0.0,0.0,0.0,0.0091893984362828,0.0,-0.03300184453327847,-0.0027565456811498774,4.307317359824126e-05,0.02244972626936548,0.08134804460592693,0.0024814016694952776
923,5.0,299.8562,392.71193,0.0,0.0,0.0,0.0,0.009199365245866618,0.0,-0.031660624627660366,-0.05476413431204925,-0.03294986277664826,0.04093340115631216,0.09303759487559572,0.006356518719039555
924,5.0,301.00991,897.39231,0.0,0.0,0.0,0.0,0.00920933205545044,0.0,-0.11185035819627089,-0.07888247983284462,-0.08205201835140373,0.024166704908318078,0.08846841853015311,0.04066343890566896
925,5.0,300.82464,693.7319,0.0,0.0,0.0,0.0,0.00921929886503426,0.0,-0.1006356341487138,-0.04981392931950205,-0.06042761063299085,0.00961705550655448,0.07491189719597863,0.00919798012879496
926,5.0,300.86592,288.25837,0.0,0.0,0.0,0.0,0.00922926567461808,0.0,-0.018542478856500184,-0.03990313250763256,-0.02917773530436827,-0.021878671685256777,0.08100621860519133,-0.01021332188097639
927,5.0,300.95322999999996,195.96391,0.0,0.0,0.0,0.0,0.009239232484201903,0.0,-0.004678566116963526,-0.014209097968328786,-0.04068047062659986,0.016493671955548683,0.08564994786649173,0.0037858767695119464
928,5.0,300.86082000000005,335.44108,0.0,0.0,0.0,0.0,0.009249199293785721,0.0,-0.050638656132396244,-0.021618437648823683,-0.02970861857501237,0.024385151497377078,0.09409610381781242,-0.012549819869570789
929,5.0,300.30768,449.81658,0.0,0.0,0.0,0.0,0.009259166103369543,0.0,-0.05000582267644045,-0.034993353154325064,-0.051733833582481854,0.048035627771247355,0.07110447720946553,-0.015571993320086087
930,5.0,300.43573,319.00317,0.0,0.0,0.0,0.0,0.009269132912953365,0.0,-0.044368524685082456,-0.025186679949231773,-0.02741379353653077,0.009187813582591601,0.07559380944702812,-0.018879349050996683
931,5.0,299.57087,27.179869,0.0,0.0,0.0,0.0,0.009279099722537185,0.0,0.006684291346188193,-0.017740562329857185,0.002794268779722857,0.031045800678981966,0.07060936166735143,-0.004943286824839425
932,5.0,299.51957999999996,238.9978,0.0,0.0,0.0,0.0,0.009289066532121006,0.0,-0.0035821041697261563,-0.024154767808889976,-0.04491249104101776,0.03323298714609047,0.08426309522937002,-0.0038121930024341564
933,5.0,299.82076,902.77266,0.0,0.0,0.0,0.0,0.009299033341704826,0.0,-0.1146430578568889,-0.07015295835855793,-0.0896243241117321,0.014720517717801987,0.056799251190899645,0.02021500013406518
934,5.0,300.03472,799.87447,0.0,0.0,0.0,0.0,0.009309000151288648,0.0,-0.1057263151218749,-0.05456958117359835,-0.08284597377201101,0.024488160529043276,0.07271536147019743,0.051490506637217354
935,5.0,300.54282,271.58423999999997,0.0,0.0,0.0,0.0,0.009318966960872468,0.0,-0.0029895825650238274,-0.04322623009209676,-0.036339015148381566,0.0038476882680122666,0.08030041391678383,0.013942913114058387
936,5.0,300.48643,500.77198,0.0,0.0,0.0,0.0,0.00932893377045629,0.0,-0.05306306167316645,-0.05974587570070884,-0.03941324128303406,0.036112049152481764,0.099305836611473,0.03118957884167177
937,5.0,300.55352,785.3772299999999,0.0,0.0,0.0,0.0,0.00933890058004011,0.0,-0.0983007786385315,-0.07311615153400233,-0.06731813586478273,0.014140383399547186,0.05401260063337865,-0.02989337763799667
938,5.0,299.7714,340.72314,0.0,0.0,0.0,0.0,0.00934886738962393,0.0,-0.027840417424885276,-0.02783499349709997,-0.04789591476795875,0.02207490884537388,0.08580914972220373,-0.013106346473745688
939,5.0,299.96269,-78.666002,0.0,0.0,0.0,0.0,0.009358834199207753,0.0,0.02276918072114318,-0.028622898801360173,0.02976621779019697,0.007251583226050543,0.08057833626021262,-0.03205833947741177
940,5.0,300.45736,20.900303,0.0,0.0,0.0,0.0,0.009368801008791573,0.0,-0.013344019483452188,0.013940885600608289,-0.006950036551240203,0.02229426533302268,0.09141171653988402,-0.006135391678166014
941,5.0,300.51147000000003,498.93830999999994,0.0,0.0,0.0,0.0,0.009378767818375393,0.0,-0.043908934704724456,-0.045447918738360356,-0.06230793430731435,0.033665851641810865,0.06570655854098244,-0.017441766021118285
942,5.0,299.55625,626.24146,0.0,0.0,0.0,0.0,0.009388734627959215,0.0,-0.1055216284691739,-0.03864967019317546,-0.04619046488864396,0.03488164739705057,0.05594685758402495,-0.012175889039416687
943,5.0,299.81767,614.59934,0.0,0.0,0.0,0.0,0.009398701437543034,0.0,-0.05305635294425435,-0.05583226609046565,-0.07793423580626023,0.027606673799066575,0.09774416489484801,0.025484851082658976
944,5.0,299.76004,416.44007,0.0,0.0,0.0,0.0,0.009408668247126856,0.0,-0.036949775964158965,-0.05553539900991715,-0.03410220678412577,0.041988149927407764,0.10491980857227891,0.0018210119651448883
945,5.0,299.81719,544.3380599999999,0.0,0.0,0.0,0.0,0.009418635056710678,0.0,-0.05832908456288244,-0.057482049022536535,-0.04965404655972286,0.031845553916661475,0.09712801561503881,0.03244244333856987
946,5.0,300.30362,828.32926,0.0,0.0,0.0,0.0,0.009428601866294498,0.0,-0.1053993190496029,-0.07678004059085003,-0.06961205100467452,0.0069166719479723734,0.08203645888286813,0.022072603701396378
947,5.0,300.20716,428.84727000000004,0.0,0.0,0.0,0.0,0.00943856867587832,0.0,-0.029275177539985073,-0.04443794042293326,-0.056645745827249856,-0.004626792684553885,0.09029575733024742,0.024106368904613377
948,5.0,299.24852000000004,-127.86801000000001,0.0,0.0,0.0,0.0,0.009448535485462138,0.0,0.02224419051308068,-0.0015440109700320184,0.018168503443341682,-0.02125990822018958,0.1033602342833609,-0.018124758396774382
949,5.0,300.16533,165.61108000000002,0.0,0.0,0.0,0.0,0.00945850229504596,0.0,0.0001259358214138979,-0.027779098568583575,-0.02268847028442768,-0.015862069598464385,0.06614250534350703,-0.03791227135339986
950,5.0,301.78517999999997,665.7321400000001,0.0,0.0,0.0,0.0,0.009468469104629782,0.0,-0.08217447671873943,-0.04765103653679116,-0.07254043397293343,0.01869220479727698,0.07343275571324873,-0.005133965598882955
951,5.0,301.26709,502.55387,0.0,0.0,0.0,0.0,0.009478435914213601,0.0,-0.06989192486779593,-0.04704218569745225,-0.03582971917111797,0.05151482261311715,0.07669435205639322,-0.03024317690376917
952,5.0,300.04668,391.26878,0.0,0.0,0.0,0.0,0.009488402723797423,0.0,-0.04255079250918626,-0.04403903905731475,-0.032346105545562075,0.06131463206203303,0.09871467914538032,0.026853186574203176
953,5.0,299.82723,521.0747299999999,0.0,0.0,0.0,0.0,0.009498369533381242,0.0,-0.04927093467041266,-0.051958059750111245,-0.057164712263467844,0.036993695289743465,0.06788615880459224,-0.004384225676864386
954,5.0,301.01083,559.88638,0.0,0.0,0.0,0.0,0.009508336342965064,0.0,-0.07519529210319752,-0.04827441839581415,-0.046721768658079546,0.007328818822873102,0.08941091438892022,0.03419842197387147
955,5.0,299.97476,579.37541,0.0,0.0,0.0,0.0,0.009518303152548886,0.0,-0.032990372515646266,-0.06388320890653185,-0.07924207520058392,0.02666083117521918,0.1061222122009469,-0.005480287288987245
956,5.0,300.57455,468.67321,0.0,0.0,0.0,0.0,0.009528269962132706,0.0,-0.04211464508314186,-0.04297614882166566,-0.05737416119163885,-0.0027531468350144375,0.12033245716838888,0.03362469747574927
957,5.0,298.6661,49.933510999999996,0.0,0.0,0.0,0.0,0.009538236771716528,0.0,0.008954507680816102,-0.02222219791966018,-0.0019108507720112882,-0.013234949189687789,0.09531964789656681,0.009233795176104632
958,5.0,299.61694,147.45021,0.0,0.0,0.0,0.0,0.009548203581300346,0.0,-0.021916628034002777,-0.008230345433721852,-0.014674208135231586,-0.01982440032651598,0.06475963173952803,-4.8360016751012054e-05
959,5.0,299.77236,572.2545,0.0,0.0,0.0,0.0,0.009558170390884168,0.0,-0.06505896507081994,-0.059836957765447944,-0.04905515698211705,0.03525202982535447,0.0899960379506674,0.0016694414025610383
960,5.0,300.45423999999997,514.8483200000001,0.0,0.0,0.0,0.0,0.00956813720046799,0.0,-0.06385893346063604,-0.03167338651266987,-0.06096871354414354,0.05023653871096036,0.08590254908992151,-0.016916756561303883
961,5.0,299.87096,441.20735,0.0,0.0,0.0,0.0,0.00957810401005181,0.0,-0.03528180620604317,-0.05581659617766915,-0.04301761506875806,0.05746919594501804,0.06907203531087913,-0.026635652923484274
962,5.0,300.50293999999997,613.34696,0.0,0.0,0.0,0.0,0.009588070819635633,0.0,-0.08405073320716153,-0.04746659664758836,-0.054924831724908856,0.02056911989826408,0.08481996127232842,0.017214265029165683
963,5.0,300.86726,516.10898,0.0,0.0,0.0,0.0,0.009598037629219451,0.0,-0.08799205014138922,-0.024126407951841077,-0.04476578255903876,0.03670351869960526,0.10413997076531491,0.028498603411593174
964,5.0,301.64132,404.53694,0.0,0.0,0.0,0.0,0.009608004438803271,0.0,-0.026425803761523772,-0.05163195533792725,-0.04491136937315705,0.028123078739031773,0.11361349443027889,0.018584336218131183
965,5.0,301.72256,326.59562,0.0,0.0,0.0,0.0,0.009617971248387093,0.0,-0.04639349791718175,-0.012252123950440489,-0.04063129151974626,0.011000850256199388,0.07850229927607373,0.019043998139246284
966,5.0,301.82678,432.80945999999994,0.0,0.0,0.0,0.0,0.009627938057970914,0.0,-0.03581383242280007,-0.06523257635620404,-0.030516860822029673,-0.012396917389730488,0.08236378122167233,0.011461539612915888
967,5.0,301.54939,201.60543,0.0,0.0,0.0,0.0,0.009637904867554736,0.0,0.018486086422184682,-0.045639616538029455,-0.03412948752981817,-0.0029459264818153075,0.08424845477867512,-0.027228513662995075
968,5.0,300.37307999999996,398.98978,0.0,0.0,0.0,0.0,0.009647871677138554,0.0,-0.03130117111493507,-0.052209954738221355,-0.03777180347878677,0.03476494935653337,0.1009346624917256,-5.5153122038689354e-05
969,5.0,300.25172000000003,670.30166,0.0,0.0,0.0,0.0,0.009657838486722376,0.0,-0.04133438069788576,-0.07947191173401702,-0.08294867376239672,0.020534896362886478,0.054021895176545945,-0.02137099994790348
970,5.0,301.26935,438.96713,0.0,0.0,0.0,0.0,0.009667805296306198,0.0,-0.06476428965023774,-0.026410629328026177,-0.04226012753249986,0.02250930436199538,0.08793843299909761,0.008381058584071082
971,5.0,299.80821000000003,113.11493999999999,0.0,0.0,0.0,0.0,0.009677772105890018,0.0,-0.03796882286798107,0.006755241448665424,-0.003170536873882627,0.02088710209764648,0.0914395150563775,-0.02006737364749558
972,5.0,300.08394,539.71966,0.0,0.0,0.0,0.0,0.00968773891547384,0.0,-0.0915715628226596,-0.042365910842939856,-0.030123825161240073,0.03372455833935476,0.08751795751234992,0.023602812989166274
973,5.0,299.90751,721.9143799999999,0.0,0.0,0.0,0.0,0.009697705725057659,0.0,-0.08764325297996561,-0.04434391587990376,-0.08745677747131192,0.028193561429237873,0.051726889779546543,-0.00964238777230458
974,5.0,300.35721,470.48209,0.0,0.0,0.0,0.0,0.009707672534641481,0.0,-0.09497841059413932,-0.035011240058340366,-0.013025155756482788,0.031158491315353674,0.09590650816898541,0.023757358960668776
975,5.0,298.86852999999996,407.17543,0.0,0.0,0.0,0.0,0.009717639344225303,0.0,-0.011110965210816889,-0.05297280034100835,-0.059687396984437445,0.027040499027439473,0.1155800406218619,0.0025516571890289576
976,5.0,300.3462,446.43615,0.0,0.0,0.0,0.0,0.009727606153809123,0.0,-0.03506603966349867,-0.038589247049962166,-0.062050154362623434,0.04088940279721986,0.1159004505684839,0.017047050391662884
977,5.0,300.04999,465.94588,0.0,0.0,0.0,0.0,0.009737572963392943,0.0,-0.024503754448082275,-0.07662887076868072,-0.04050328864786336,0.006784892287666734,0.060462190832403645,-0.00941394283655882
978,5.0,300.61522,549.06191,0.0,0.0,0.0,0.0,0.009747539772976762,0.0,-0.06239170171958154,-0.04700926114870286,-0.05750014870907285,0.03113615421689917,0.06742653437373085,-0.001154379120303349
979,5.0,301.55607000000003,332.37084,0.0,0.0,0.0,0.0,0.009757506582560584,0.0,-0.022675410503888774,-0.05125960517792915,-0.027097418351806974,0.008917713732584822,0.0956674439668916,-0.021735195471096775
980,5.0,302.14127,38.22817,0.0,0.0,0.0,0.0,0.009767473392144404,0.0,-0.010867057673245091,-0.007033384680616023,0.0062800329272909945,0.005860343317320854,0.0980889060161213,-0.006113439412099494
981,5.0,300.32542,336.21763,0.0,0.0,0.0,0.0,0.009777440201728226,0.0,-0.0017880059510874484,-0.04397307647580476,-0.056440682245511645,-0.003101068852326667,0.08165721456918962,-0.005442566723539515
982,5.0,300.14246,731.40052,0.0,0.0,0.0,0.0,0.009787407011312048,0.0,-0.0885108838418441,-0.06716734297165064,-0.06664926920877073,0.03064925005359547,0.11121184851325489,0.003379422941623077
983,5.0,299.38461,481.57345999999995,0.0,0.0,0.0,0.0,0.009797373820895867,0.0,-0.03870530674291636,-0.05080433265624725,-0.056876666538289954,0.05050748280095045,0.12295045224676489,0.00016061894677185586
984,5.0,299.5663,442.5955,0.0,0.0,0.0,0.0,0.009807340630479689,0.0,-0.050210237778114654,-0.056344730500791945,-0.027983011098208173,0.03037705865273227,0.09071937895855561,-0.007566571980662513
985,5.0,299.7308,681.85961,0.0,0.0,0.0,0.0,0.00981730744006351,0.0,-0.07483739291612564,-0.06833557879369652,-0.06409532470896603,0.03327619922310517,0.03340286561810617,-0.001123571554987879
986,5.0,300.63722,674.7613,0.0,0.0,0.0,0.0,0.009827274249647331,0.0,-0.095557277336519,-0.040558982952859965,-0.06899432612095985,0.04411814247937166,0.058198090576704345,0.024863088397295775
987,5.0,300.50697,380.76085,0.0,0.0,0.0,0.0,0.009837241059231153,0.0,0.01082253445060099,-0.05077171106927775,-0.07579261418289862,0.06499036094629924,0.10124350213545572,-0.005395588091928085
988,5.0,300.43989,184.44231000000002,0.0,0.0,0.0,0.0,0.009847207868814972,0.0,-0.022518822833434777,-0.005064201404322765,-0.028482832173786676,0.00952698274023999,0.10212734195918391,0.02702563768822277
989,5.0,300.10573999999997,289.80084,0.0,0.0,0.0,0.0,0.009857174678398794,0.0,-0.002137107290191068,-0.04971881553261505,-0.036236296919494065,-0.024755872351214375,0.06462424430091634,-0.006294903284433584
990,5.0,301.07804,577.37634,0.0,0.0,0.0,0.0,0.009867141487982616,0.0,-0.06121774914047144,-0.06982359533405233,-0.04446664681151636,-0.014661338845711485,0.0953847978514966,0.0022765331384013276
991,5.0,299.89409,756.78175,0.0,0.0,0.0,0.0,0.009877108297566434,0.0,-0.08230398528027093,-0.07309855036651522,-0.07464022052616623,0.027637673172625974,0.1271429467880319,-0.015329668479170484
992,5.0,299.75367,659.42955,0.0,0.0,0.0,0.0,0.009887075107150256,0.0,-0.07938198072139152,-0.06475093704041993,-0.05631719846907474,0.04584281776608386,0.1135608864850869,0.025414088735425274
993,5.0,300.50338,368.21632,0.0,0.0,0.0,0.0,0.009897041916734075,0.0,-0.005820934474556505,-0.04621284758335296,-0.05989478597515515,0.028644088900701473,0.08447843519362243,-0.0035497798703359967
994,5.0,301.0306,428.42995,0.0,0.0,0.0,0.0,0.009907008726317897,0.0,-0.06933694448327363,-0.022678698500463276,-0.038216363920411466,0.028411296716726674,0.09673105361011171,0.03075914006669077
995,5.0,300.43088,709.74438,0.0,0.0,0.0,0.0,0.009916975535901717,0.0,-0.07231050523374123,-0.07372861055694734,-0.06970545138564244,0.07095233365395014,0.1046153269172289,-0.003589238565005267
996,5.0,300.89808,471.0327,0.0,0.0,0.0,0.0,0.009926942345485539,0.0,-0.03590127793293026,-0.07242423951771594,-0.03485666166283467,0.044745200409757456,0.06697033776795774,-0.014876008038397684
997,5.0,299.59457000000003,219.08576000000002,0.0,0.0,0.0,0.0,0.00993690915506936,0.0,-0.024111779660147374,-0.04266273232723387,0.00017791173159102083,0.00834643937452943,0.06391646985431444,-0.012687425312651388
998,5.0,299.41452000000004,385.22751,0.0,0.0,0.0,0.0,0.00994687596465318,0.0,-0.02005008658753948,-0.057465602960163446,-0.03958385436137226,-0.008062765316907984,0.07573605456231663,-0.008825392665623441
999,5.0,300.04017999999996,314.65787,0.0,0.0,0.0,0.0,0.009956842774237001,0.0,-0.014328934044405687,-0.040502081866994256,-0.04081711956158606,0.016143736914262786,0.12644761403940788,-0.0017281770790577983
1000,5.0,299.84461,324.61224,0.0,0.0,0.0,0.0,0.009966809583820823,0.0,-0.015442221313528586,-0.05197013465155295,-0.03126165942728557,0.014615132614651286,0.08717651148040181,-0.008438871797676804
1001,5.0,298.90441,562.34331,0.0,0.0,0.0,0.0,0.009976776393404644,0.0,-0.060084444102372944,-0.04679622430192776,-0.06405765612324843,0.021411199632370877,0.06652246095875573,0.02087855837280328
1002,5.0,299.91327,556.20577,0.0,0.0,0.0,0.0,0.009986743202988466,0.0,-0.07726163228387943,-0.028838207354859473,-0.06297282699643414,0.01827123383123038,0.08607430410112242,0.018711574086188582
1003,5.0,300.90783,469.49689000000006,0.0,0.0,0.0,0.0,0.009996710012572284,0.0,-0.08050158560488792,-0.027923666053101273,-0.034290081591167566,0.04423391947554796,0.1073122947083989,0.013288548093477588
1004,5.0,300.95049,675.59053,0.0,0.0,0.0,0.0,0.010006676822156104,0.0,-0.07644799245357942,-0.07025149794403303,-0.05866315920035304,0.04352995282282186,0.08717377469188173,0.006518000286151545
1005,5.0,300.78791,573.9051900000001,0.0,0.0,0.0,0.0,0.010016643631739925,0.0,-0.06825026617502684,-0.04470179074897326,-0.06150078839690524,0.02602320707279058,0.07673295283220283,0.004941569163269904
1006,5.0,300.07662,333.99074,0.0,0.0,0.0,0.0,0.010026610441323747,0.0,-0.05317171045488925,-0.028482505907254475,-0.01987062884907838,0.036946286330814565,0.08653191419078501,0.0035151306685913867
1007,5.0,299.06895,275.81442000000004,0.0,0.0,0.0,0.0,0.010036577250907569,0.0,-0.021742688455586277,-0.04202916933120606,-0.02006883982039028,-0.0028360020182166073,0.0988078596510765,-0.03069892565299807
1008,5.0,300.25836,333.2283,0.0,0.0,0.0,0.0,0.010046544060491387,0.0,-0.04909996391478916,-0.031290142900846675,-0.02090297364721288,-0.001826277420614548,0.0898485918226156,0.007402063430201783
1009,5.0,299.79895,316.46456,0.0,0.0,0.0,0.0,0.01005651087007521,0.0,-0.029111001639532175,-0.04143201747752176,-0.025654305002882776,0.004824888955954465,0.08710392325648793,-0.01083746063782409
1010,5.0,299.11565,329.21279,0.0,0.0,0.0,0.0,0.01006647767965903,0.0,-0.025729925884345976,-0.03869192069584526,-0.03565062214969247,0.021907051807307683,0.10144079408892691,0.012318446235735988
1011,5.0,299.77258,449.29707,0.0,0.0,0.0,0.0,0.010076444489242851,0.0,-0.03727157912966847,-0.039018033214030065,-0.060285476975213345,0.019091465866680982,0.11788120252646889,0.016544104452775984
1012,5.0,299.95942,286.73779,0.0,0.0,0.0,0.0,0.010086411298826673,0.0,-0.025239727644967177,-0.03941068485303176,-0.02251071581938468,0.004405970125335396,0.07079931566359844,-0.0030779527671952866
1013,5.0,299.85425,459.39203,0.0,0.0,0.0,0.0,0.010096378108410492,0.0,-0.046040909173883954,-0.052779993032479745,-0.04082280186814686,0.015917700068704684,0.07549685559795953,0.009320608924797481
1014,5.0,300.46137999999996,727.08434,0.0,0.0,0.0,0.0,0.010106344917994314,0.0,-0.1015667005463529,-0.06531835912292014,-0.05413042236825675,0.04855184627319416,0.08829083733087723,-0.002827017630904917
1015,5.0,300.64061,598.33639,0.0,0.0,0.0,0.0,0.010116311727578134,0.0,-0.07296378810321523,-0.06354125523628365,-0.04537427774759255,0.04320926727217266,0.14850784190408287,0.016695696800236984
1016,5.0,301.34488,285.15522000000004,0.0,0.0,0.0,0.0,0.010126278537161956,0.0,0.015739108659079085,-0.06191370807765723,-0.04050546713557836,0.012777963262086788,0.0979344279323755,-0.05299320821127245
1017,5.0,300.36212,294.54348999999996,0.0,0.0,0.0,0.0,0.010136245346745777,0.0,-0.02816861115877547,-0.016826468884643186,-0.04453878616563596,0.0026173939170916678,0.07826737318738833,0.03254757715569577
1018,5.0,300.78032,478.79357000000005,0.0,0.0,0.0,0.0,0.010146212156329595,0.0,-0.028763267377463472,-0.059006087617197445,-0.057771935823146145,0.03121065039075137,0.08369187244574472,-0.03132363993590257
1019,5.0,300.77288,364.82749,0.0,0.0,0.0,0.0,0.010156178965913417,0.0,-0.056566358695164944,-0.007576237474691424,-0.04675585033844316,0.03484738029191867,0.08084752641427963,0.035483813825479764
1020,5.0,300.89603999999997,334.62847999999997,0.0,0.0,0.0,0.0,0.010166145775497237,0.0,-0.048134478424503156,-0.040580230807456964,-0.013003993014894187,0.015322383210951484,0.06970879916397284,-0.01042923534478539
1021,5.0,300.13698,433.38280999999995,0.0,0.0,0.0,0.0,0.01017611258508106,0.0,-0.052304653092567356,-0.015725823937017984,-0.06370707665489894,-0.02814578466052268,0.07414139851518634,0.05587330677251604
1022,5.0,299.85431,471.28011,0.0,0.0,0.0,0.0,0.010186079394664881,0.0,-0.03824442790843117,-0.03326686921618437,-0.07174608946428773,0.026904282750245978,0.09409421815937631,0.0050077420955006655
1023,5.0,298.57867000000005,707.18078,0.0,0.0,0.0,0.0,0.0101960462042487,0.0,-0.07359603083436272,-0.06892001435862584,-0.07244925260968453,0.02126034594423278,0.1345112001902219,0.02169280513991318
1024,5.0,300.41382999999996,756.03439,0.0,0.0,0.0,0.0,0.010206013013832522,0.0,-0.06815799050166993,-0.06865859583282584,-0.09299899004678572,0.05105501073098725,0.0954201785184884,-0.0023612218989844573
1025,5.0,300.2087,366.66673,0.0,0.0,0.0,0.0,0.010215979823416342,0.0,-0.06145914179129504,-0.031760373020504766,-0.018238015439951984,0.019963951209788583,0.07505232454058772,-0.008979798403312101
1026,5.0,299.83789,220.5398,0.0,0.0,0.0,0.0,0.010225946633000164,0.0,-0.04783840370553286,-0.027888275253608475,0.008688086333972361,0.04684000075924816,0.07943524423939823,-0.028895796437543073
1027,5.0,300.24348,337.65767999999997,0.0,0.0,0.0,0.0,0.010235913442583986,0.0,-0.032625228590359365,-0.025136717600050873,-0.044877557217320056,0.05113936684156255,0.11369927618374488,-0.01989171964990988
1028,5.0,299.2992,12.398872,0.0,0.0,0.0,0.0,0.010245880252167805,0.0,0.03115213925047677,-0.03927561354845126,0.004354526505833306,0.028512583223222872,0.07738168924847813,-0.024025368678369276
1029,5.0,298.76082,-71.840011,0.0,0.0,0.0,0.0,0.010255847061751627,0.0,0.029171771314279678,-0.00950048341302471,0.0021662821042953977,-0.0009865255070224872,0.08233603235443372,-0.008031617096908892
1030,5.0,299.41487,366.50031,0.0,0.0,0.0,0.0,0.010265813871335447,0.0,-0.012014364814475488,-0.05061536049934715,-0.04877721741343655,-0.002925310591305677,0.07278702966302053,-0.005537596714643245
1031,5.0,299.47404,620.50549,0.0,0.0,0.0,0.0,0.010275780680919267,0.0,-0.08583245751425402,-0.08782169746832673,-0.014964020968583886,0.026974621558937876,0.13556343002156887,0.01179442976101959
1032,5.0,299.47008,690.6007599999999,0.0,0.0,0.0,0.0,0.01028574749050309,0.0,-0.06502425112239395,-0.07648586166281683,-0.06841527395381183,0.03018195227972677,0.08114083698697712,-0.003779112007869316
1033,5.0,300.0227,844.1212800000001,0.0,0.0,0.0,0.0,0.010295714300086908,0.0,-0.07317941583049603,-0.08879526160166001,-0.0946171119529819,0.025598302669855775,0.08082497349355382,0.027485046296812872
1034,5.0,299.75356,693.0618599999999,0.0,0.0,0.0,0.0,0.01030568110967073,0.0,-0.052806026467299046,-0.07846550309869223,-0.07940197113261442,0.03403630297112157,0.07422365517155442,-0.0009101992515021722
1035,5.0,301.13704,498.17469000000006,0.0,0.0,0.0,0.0,0.01031564791925455,0.0,-0.07149550663505713,-0.020736318323765282,-0.05920084137916815,0.059781170241442146,0.12276670947363089,0.024648030116571178
1036,5.0,300.62782000000004,403.80656,0.0,0.0,0.0,0.0,0.010325614728838372,0.0,-0.03794340751572276,-0.05507924192089794,-0.029724462766826075,0.03456838795638427,0.09330844675982672,-0.01983693119050268
1037,5.0,299.69032999999996,226.18301,0.0,0.0,0.0,0.0,0.010335581538422194,0.0,-0.08809204070100751,0.019188258608983683,0.00014979476072359184,0.03377385093021957,0.07800248326674572,0.041321469865111565
1038,5.0,299.83481,320.68565,0.0,0.0,0.0,0.0,0.010345548348006012,0.0,-0.037290923087327565,-0.03523456544663087,-0.024954941545360976,0.00891014667951301,0.06946906925656333,-0.02058260828359528
1039,5.0,300.82111000000003,432.05278,0.0,0.0,0.0,0.0,0.010355515157589834,0.0,-0.04451275982356736,-0.04756566210986536,-0.039254833815400465,0.017561929376977484,0.10026343800273091,-0.012383347944391289
1040,5.0,301.27488,538.59559,0.0,0.0,0.0,0.0,0.010365481967173655,0.0,-0.03307972597571477,-0.052346758700472854,-0.07829312696518002,0.004979109775499876,0.08054149955282713,0.01214464952558359
1041,5.0,300.64527000000004,616.25586,0.0,0.0,0.0,0.0,0.010375448776757477,0.0,-0.04249506375368626,-0.07888307055765292,-0.06594826023308653,0.03438363497290057,0.06879470470550873,0.012723852666996488
1042,5.0,298.80733,506.32287,0.0,0.0,0.0,0.0,0.010385415586341299,0.0,-0.06890587647998053,-0.021253862156842877,-0.06374976994786244,0.03138328895603947,0.10472311646286692,0.016734327973549585
1043,5.0,299.07338,614.9420700000001,0.0,0.0,0.0,0.0,0.010395382395925117,0.0,-0.11714301943111588,-0.039796697677378264,-0.029987318081267873,0.03794794484967057,0.11139560141888988,0.020919026568547182
1044,5.0,299.96265,437.34655999999995,0.0,0.0,0.0,0.0,0.01040534920550894,0.0,-0.04340478401146866,-0.03419904410943286,-0.05533860557549515,0.03843127325337136,0.09466799635975381,-0.0008895086641951701
1045,5.0,299.75498,203.12,0.0,0.0,0.0,0.0,0.010415316015092758,0.0,0.0075956313855804515,-0.010326066219603391,-0.059012972651626944,0.008500641651598011,0.0926003815104461,-0.014059124794527589
1046,5.0,299.24125,301.6496,0.0,0.0,0.0,0.0,0.01042528282467658,0.0,0.014770082872943686,-0.036868309642868864,-0.06959571842631264,0.03053723525504047,0.08392298364780362,-0.007935281127751272
1047,5.0,299.51273,419.55012999999997,0.0,0.0,0.0,0.0,0.010435249634260402,0.0,-0.03113903995318397,-0.04044219371983376,-0.05595152866698595,0.02966328981853877,0.1051986549997989,-0.030840346995955267
1048,5.0,300.15566,234.1833,0.0,0.0,0.0,0.0,0.01044521644384422,0.0,-0.024361847758327178,-0.043213292914819956,-0.003610735881776887,0.010721013883331689,0.09320994061160491,-0.008316127085862842
1049,5.0,301.91991,308.49484,0.0,0.0,0.0,0.0,0.010455183253428042,0.0,-0.07469044125412264,-0.03804264320401656,0.018958357227544183,0.0070216758664354536,0.08492057498075822,0.019416458743505283
1050,5.0,301.31729,438.55655,0.0,0.0,0.0,0.0,0.010465150063011863,0.0,-0.03278118399275097,-0.03398105753591926,-0.06654799790102603,0.01982265247009348,0.08034601625078443,-0.005002951955652916
1051,5.0,300.49852999999996,541.06391,0.0,0.0,0.0,0.0,0.010475116872595685,0.0,-0.04977169198908355,-0.06451414454505035,-0.05018408174003325,0.03612214213672787,0.09690206489573922,0.002311159238043658
1052,5.0,300.73006000000004,684.2418700000001,0.0,0.0,0.0,0.0,0.010485083682179507,0.0,-0.04563881404395025,-0.07001224730392083,-0.09234138262588491,0.023819106421762774,0.08040191523230122,-0.008178625500917493
1053,5.0,300.20142000000004,595.69185,0.0,0.0,0.0,0.0,0.010495050491763325,0.0,-0.07601619389696422,-0.029566173849454175,-0.07549308022808693,0.0006109125905098784,0.08017571424022692,0.04445033145840616
1054,5.0,300.33258,434.78315,0.0,0.0,0.0,0.0,0.010505017301347147,0.0,-0.07779063800208823,-0.02485750234949448,-0.02951507969991157,0.01070694085269279,0.09056113361093801,0.006001492298651175
1055,5.0,300.15098,524.42242,0.0,0.0,0.0,0.0,0.010514984110930967,0.0,-0.0977364044123321,-0.02017318026268788,-0.04150173719040256,0.03314778598493177,0.11126555076855488,0.021855011282171682
1056,5.0,298.21237,572.16083,0.0,0.0,0.0,0.0,0.01052495092051479,0.0,-0.036491203286901364,-0.05076565892643045,-0.08666574325074292,0.025726169766225274,0.12108524119768288,-0.019897263141206982
1057,5.0,298.64928,410.96742,0.0,0.0,0.0,0.0,0.010534917730098608,0.0,-0.03208907236619487,-0.028018897376999873,-0.06481586509357784,0.012006392562688688,0.0965519099791816,-0.0018984124177587182
1058,5.0,300.53538,283.68845,0.0,0.0,0.0,0.0,0.01054488453968243,0.0,0.0014172403115957288,-0.023259894704822877,-0.06439155141545133,0.03286061368134007,0.1202400690242709,-0.003910517880213066
1059,5.0,301.12124,325.43141,0.0,0.0,0.0,0.0,0.01055485134926625,0.0,-0.04026405624625296,-0.05188388984279125,-0.006775076731298013,0.05579166110595824,0.1014530848126399,-0.019219762581092883
1060,5.0,301.08058,400.76452,0.0,0.0,0.0,0.0,0.01056481815885007,0.0,-0.09197725499044831,-0.015188347447973186,-0.014656804551513986,0.03765539826754846,0.10564147569100191,0.03552957017349557
1061,5.0,300.54598,353.86635,0.0,0.0,0.0,0.0,0.010574784968433892,0.0,-0.044190617219274364,-0.04509490746977086,-0.018281008654945082,0.002974630539923177,0.08079264068286283,-0.024416426474963678
1062,5.0,300.08484,440.9335,0.0,0.0,0.0,0.0,0.010584751778017713,0.0,-0.03999633834458126,-0.042136875790335857,-0.05189955975558774,-0.0030758401407367866,0.10148946049122991,0.009755495462417439
1063,5.0,300.51664,724.48426,0.0,0.0,0.0,0.0,0.010594718587601533,0.0,-0.03835683179502456,-0.07844076054450032,-0.1034275343550029,0.014155957053584186,0.1017011790996249,-0.03737294162992216
1064,5.0,300.22437,509.52462,0.0,0.0,0.0,0.0,0.010604685397185355,0.0,-0.03208932871847017,-0.05726287491990575,-0.06553055902511264,0.006753085151127614,0.0953614616884435,0.001066624771542669
1065,5.0,298.95968999999997,256.51339,0.0,0.0,0.0,0.0,0.010614652206769175,0.0,-0.02206160081856048,-0.011992260763543988,-0.043919802825297054,0.016701171390527285,0.07770822530520473,-0.017191308834900082
1066,5.0,299.87316,414.35864,0.0,0.0,0.0,0.0,0.010624619016352997,0.0,-0.08952684742561191,-0.009625465685034501,-0.026802367015437676,0.015800400157628087,0.07761048720055873,0.04438602655405976
1067,5.0,299.89342,285.73814,0.0,0.0,0.0,0.0,0.01063458582593682,0.0,-0.02996168893323847,-0.04499738822714646,-0.011898182518259188,0.04756923381646786,0.1077494918615469,-0.012690466076201487
1068,5.0,299.86375,285.19434,0.0,0.0,0.0,0.0,0.010644552635520638,0.0,-0.0058722624822221845,-0.01930668018792098,-0.06151301629911204,0.029924912007608873,0.1131287049199339,0.018548681973612383
1069,5.0,300.17379,447.38212999999996,0.0,0.0,0.0,0.0,0.01065451944510446,0.0,-0.02330340569061708,-0.05538143464397204,-0.05730815706687475,0.041984101993258256,0.1030074813935469,0.0039513428413171766
1070,5.0,300.01131000000004,483.77907999999996,0.0,0.0,0.0,0.0,0.01066448625468828,0.0,-0.03428580668899567,-0.05990341177325644,-0.05286754189412015,0.016641441310382383,0.08456993370415263,0.01006563530867586
1071,5.0,300.30827,492.85234,0.0,0.0,0.0,0.0,0.0106744530642721,0.0,-0.09633053813708391,-0.04218282972212116,-0.011301439004365189,0.020712855504449682,0.07360653823789973,-0.0034579147659196167
1072,5.0,301.49602999999996,529.88107,0.0,0.0,0.0,0.0,0.01068441987385592,0.0,-0.09396000203788021,-0.052642989459958545,-0.014467621638593086,0.01101313895341219,0.07146395098719284,0.02179963615095658
1073,5.0,300.76755,299.2657,0.0,0.0,0.0,0.0,0.01069438668343974,0.0,-0.04619765085835316,-0.012763287347638387,-0.032008360916229266,0.01989734825421538,0.07529672958395862,-0.002514439803580888
1074,5.0,300.27828999999997,379.05841000000004,0.0,0.0,0.0,0.0,0.010704353493023563,0.0,0.005213628233670045,-0.03916533850031796,-0.08127258077822923,0.026603637260074572,0.1194654798528249,0.0003483952456389337
1075,5.0,300.11528,559.7262,0.0,0.0,0.0,0.0,0.010714320302607383,0.0,-0.00966393808205643,-0.07314240484409334,-0.08733644490268601,0.025245230606260275,0.12246666585401889,-0.031643389243459365
1076,5.0,299.28904,461.2617,0.0,0.0,0.0,0.0,0.010724287112191205,0.0,-0.007574680210612733,-0.04197974400457816,-0.09065761629871011,0.01806116276749798,0.12051619994152288,-0.0004013904651516546
1077,5.0,299.09746,292.51701,0.0,0.0,0.0,0.0,0.010734253921775025,0.0,-0.053735134252494855,-0.04070677155944556,0.005524037807105085,0.040553815377349964,0.08594299296766301,-0.018674741431803484
1078,5.0,299.11189,436.45070999999996,0.0,0.0,0.0,0.0,0.010744220731358846,0.0,-0.09357674525380572,-0.031666671704257174,-0.007426702024933424,0.05549808607498465,0.08566241185597182,0.028554615877121173
1079,5.0,299.38854,637.5244700000001,0.0,0.0,0.0,0.0,0.010754187540942668,0.0,-0.08169652462006922,-0.07001659819985023,-0.04207839606081436,0.04570144607238155,0.07362806270977403,-0.02118274415882408
1080,5.0,299.32018,513.5346900000001,0.0,0.0,0.0,0.0,0.010764154350526488,0.0,-0.034074020192843966,-0.07347020543694473,-0.048557498182251954,0.016194730752045486,0.07933204978296372,0.012136977195826387
1081,5.0,299.91846,385.51026,0.0,0.0,0.0,0.0,0.01077412116011031,0.0,0.0016863560931053886,-0.05761661572856724,-0.06125523432792094,0.0038767393642793863,0.06373395007405114,-0.023690050783025978
1082,5.0,300.06928,372.25366,0.0,0.0,0.0,0.0,0.010784087969694132,0.0,-0.024491590380631777,-0.04010541066484586,-0.04855881743388216,0.015621936417515086,0.09805792285456351,0.005464531351257255
1083,5.0,299.80959,417.30181,0.0,0.0,0.0,0.0,0.01079405477927795,0.0,-0.08276012413078833,-0.035469065970274265,-0.008620139403466523,0.02802350158545427,0.1034399568012289,-0.03111226481929147
1084,5.0,299.91112000000004,557.3098200000001,0.0,0.0,0.0,0.0,0.010804021588861772,0.0,-0.1098411541754779,-0.031245542671194972,-0.02832157747337207,0.014643959579996287,0.08392284381928983,0.018744663794704283
1085,5.0,300.13791000000003,532.56858,0.0,0.0,0.0,0.0,0.01081398839844559,0.0,-0.05620115802787244,-0.05231213087830536,-0.05337426016312936,0.021283029574221478,0.08566600281432622,-0.0016149623897343784
1086,5.0,299.52598,441.91239,0.0,0.0,0.0,0.0,0.010823955208029413,0.0,-0.040730634612550665,-0.02170424270704198,-0.07189545570127903,0.02681845438727537,0.0991960904798919,0.018258291587703084
1087,5.0,299.7493,517.70915,0.0,0.0,0.0,0.0,0.010833922017613233,0.0,0.004369140105400556,-0.05310855356290615,-0.1086312423635689,0.05325537654214645,0.1071905628413849,0.008057265496690192
1088,5.0,300.70965,662.46184,0.0,0.0,0.0,0.0,0.010843888827197053,0.0,-0.07674760341539873,-0.06578381176835674,-0.05884044149084945,0.03382559862607667,0.1097826288497019,0.005671793584387444
1089,5.0,300.17758,506.16467,0.0,0.0,0.0,0.0,0.010853855636780874,0.0,-0.09256314254277091,-0.025590578664343475,-0.03570769954107556,0.03347737293770947,0.10149014950129791,0.03817826875640176
1090,5.0,300.47552,353.88878,0.0,0.0,0.0,0.0,0.010863822446364696,0.0,-0.07944285476089932,-0.05077809758465805,0.022647600841644182,0.03925613178877856,0.09926255360695131,-0.02201943340239888
1091,5.0,299.91954,514.39328,0.0,0.0,0.0,0.0,0.010873789255948518,0.0,-0.05138832239113255,-0.05021259155809695,-0.05476179978381885,0.04969630314189325,0.10211307539777591,0.006367698819317943
1092,5.0,299.78626,572.94349,0.0,0.0,0.0,0.0,0.010883756065532338,0.0,-0.050558132133699155,-0.05919852002318903,-0.06440386341741644,0.006499787723554103,0.08036861476776472,-0.014292738724333485
1093,5.0,299.35112999999996,351.22469,0.0,0.0,0.0,0.0,0.010893722875116158,0.0,0.03160175277035017,-0.05525334057958015,-0.08311194888351073,-0.002380509519937998,0.07978975309163551,0.003499156071489817
1094,5.0,299.10942,264.26784,0.0,0.0,0.0,0.0,0.01090368968469998,0.0,-0.037580275905134464,-0.009167787403640172,-0.03358276209386057,-0.02725868521122277,0.12072206196433988,-0.01926260178207078
1095,5.0,298.74087000000003,324.82375,0.0,0.0,0.0,0.0,0.0109136564942838,0.0,-0.04905285589113996,-0.02887373494311577,-0.020811720343206882,0.03194183294116347,0.1243754973199059,0.004484468434432576
1096,5.0,299.92927000000003,437.83284000000003,0.0,0.0,0.0,0.0,0.010923623303867622,0.0,-0.07355129077619722,-0.04009862999517667,-0.019440329902611183,0.024795775153402477,0.1135283915543799,-0.00941861685794511
1097,5.0,300.07658,589.64652,0.0,0.0,0.0,0.0,0.010933590113451441,0.0,-0.053821549287273354,-0.04217878077472156,-0.08323748753115041,0.04888874078569305,0.08093981627313793,0.01169790958299379
1098,5.0,300.51445,496.89024000000006,0.0,0.0,0.0,0.0,0.010943556923035263,0.0,-0.03311183587138376,-0.06261111798898623,-0.055319271750337046,0.056056578384353545,0.085629067821681,0.013213844203354886
1099,5.0,300.74179,450.65180999999995,0.0,0.0,0.0,0.0,0.010953523732619081,0.0,0.002232176291423648,-0.06565120468801944,-0.07356786856108334,0.026931136917646273,0.09659373289030922,-0.007725387788086413
1100,5.0,301.02702999999997,513.11155,0.0,0.0,0.0,0.0,0.010963490542202903,0.0,-0.07366353963552534,-0.057858564653695745,-0.024450994515375274,0.02286699279304648,0.08062674428374013,0.014816291130504087
1101,5.0,300.4132,609.2248599999999,0.0,0.0,0.0,0.0,0.010973457351786725,0.0,-0.08097321502293413,-0.06219591241600864,-0.04202001866955296,-0.004995515713169015,0.0906165948684116,-0.0006805198022320753
1102,5.0,300.24363999999997,530.42796,0.0,0.0,0.0,0.0,0.010983424161370546,0.0,-0.08602358586736693,-0.048056880692094864,-0.027156386467876676,-0.011215442441877988,0.11657684567273888,-0.001006782180106665
1103,5.0,298.74863,234.64878,0.0,0.0,0.0,0.0,0.010993390970954366,0.0,-0.018049627928359582,-0.04112795429476306,-0.012149787716840688,-0.010960551273222189,0.09279908289480641,-0.006298289464942774
1104,5.0,299.53054,263.9865,0.0,0.0,0.0,0.0,0.011003357780538186,0.0,-0.0017582819554289185,-0.03319877576971407,-0.045288247747852055,0.009515009569108331,0.08919142516550832,-0.014264123528259386
1105,5.0,300.54344,450.64727999999997,0.0,0.0,0.0,0.0,0.011013324590122008,0.0,-0.026548300632363273,-0.007693343854998923,-0.1027438742475309,0.034872049892103366,0.07267984502769223,0.021934345725251377
1106,5.0,300.03035,513.87537,0.0,0.0,0.0,0.0,0.01102329139970583,0.0,-0.06013994994285095,-0.04849251237383836,-0.04757281768207155,0.07108708375824893,0.08044124250843251,-0.007934243964948913
1107,5.0,299.24418,522.3071,0.0,0.0,0.0,0.0,0.01103325820928965,0.0,-0.07063281232766583,-0.03346456140344507,-0.05467094266060195,0.04623604999739286,0.12549607087049788,0.024349817439889877
1108,5.0,300.04627,564.42432,0.0,0.0,0.0,0.0,0.01104322501887347,0.0,-0.07267108244082743,-0.06754066382524453,-0.03135915536515767,0.028110639067554073,0.1135659527355869,0.002255265525427378
1109,5.0,300.19591,555.8207,0.0,0.0,0.0,0.0,0.011053191828457293,0.0,-0.054408850323485455,-0.07020411330310652,-0.04434265033052886,0.019066679742734783,0.1290474111459879,0.019777633768150484
1110,5.0,301.01644,664.01118,0.0,0.0,0.0,0.0,0.011063158638041113,0.0,-0.03254196476339186,-0.08218749191627392,-0.08711336168116941,0.043398875750135554,0.11754509733579789,-0.016228075799586385
1111,5.0,301.00082000000003,499.57122999999996,0.0,0.0,0.0,0.0,0.011073125447624933,0.0,-0.02279518983796008,-0.08008362601813852,-0.04897836377028816,0.03171704644622877,0.08030813082954542,-0.005817574030599854
1112,5.0,300.38208,189.39297,0.0,0.0,0.0,0.0,0.011083092257208754,0.0,-0.02991585557821507,-0.03069362128872457,0.003038743838675667,0.012274371882886187,0.06508537746117664,-0.01969129371387938
1113,5.0,300.63369,119.52356,0.0,0.0,0.0,0.0,0.011093059066792574,0.0,-0.03053403034497417,-0.00035236306210302673,-0.005445785312482166,0.0005901096945617924,0.06821593827488893,0.01067021458956819
1114,5.0,300.2336,398.49186000000003,0.0,0.0,0.0,0.0,0.011103025876376394,0.0,-0.06432886264501443,-0.04298745466628146,-0.013815258800209887,0.037730935049253365,0.10921163202084891,-0.009287081188263551
1115,5.0,300.25951000000003,496.25632,0.0,0.0,0.0,0.0,0.011112992685960216,0.0,-0.040059984636362664,-0.042745539178406254,-0.06804400493167044,0.02966185606964727,0.12645104895724688,-0.004179944729503426
1116,5.0,299.66202999999996,412.96991,0.0,0.0,0.0,0.0,0.011122959495544038,0.0,-0.007887854740920653,-0.05129360579828475,-0.06635107983684173,0.027540281599514174,0.0984589672441435,-0.004479899487081655
1117,5.0,299.55765,635.72479,0.0,0.0,0.0,0.0,0.011132926305127858,0.0,-0.025582724962818375,-0.07871676277898962,-0.08894497335693541,0.017917028954023084,0.07973374771885823,-0.012343772421985488
1118,5.0,299.83036,795.2147,0.0,0.0,0.0,0.0,0.011142893114711679,0.0,-0.0991992893104576,-0.06415259157811784,-0.07837352937386513,0.06211524250929714,0.08835175392688922,0.01028376201467829
1119,5.0,300.13412999999997,631.7547400000001,0.0,0.0,0.0,0.0,0.011152859924295499,0.0,-0.06389845933378693,-0.08136896822049193,-0.046770237476613054,0.05776560199677104,0.10248779554975791,-0.013463421888486286
1120,5.0,299.56496,315.79874,0.0,0.0,0.0,0.0,0.01116282673387932,0.0,-0.052617339033677046,-0.04300900345615816,-0.00036858851966435467,0.05016333949723615,0.1024855866645399,0.022386132666589276
1121,5.0,300.07164,147.36165,0.0,0.0,0.0,0.0,0.011172793543463143,0.0,0.008637332129838311,-0.012474385426125988,-0.04095720848066176,0.02314350063933568,0.11889168645369588,0.01784995787690368
1122,5.0,300.16649,182.40371000000002,0.0,0.0,0.0,0.0,0.011182760353046963,0.0,0.003972035840159416,-0.03443161540488587,-0.02498659243873468,0.03980697405989247,0.1094978143790929,-0.01088732064874489
1123,5.0,300.70533,406.91843,0.0,0.0,0.0,0.0,0.011192727162630783,0.0,-0.021522763534631378,-0.02488129548834268,-0.07728898395707884,0.04333710701078946,0.11333846795563589,0.0016605830635617884
1124,5.0,301.11478,618.8487200000001,0.0,0.0,0.0,0.0,0.011202693972214604,0.0,-0.0898031151316274,-0.059869218635381846,-0.038442223447202065,0.0018389210593373784,0.06994142416168114,-0.004348233918737276
1125,5.0,301.37579,608.87081,0.0,0.0,0.0,0.0,0.011212660781798424,0.0,-0.07412193702051563,-0.047582665459793456,-0.06337692025556503,-0.01785154158680998,0.0888031203694356,0.01770583318267968
1126,5.0,300.20914,509.15053,0.0,0.0,0.0,0.0,0.011222627591382246,0.0,-0.06760269803611683,-0.04264402165088726,-0.04452232997076186,-0.004819408691463605,0.11961559285513988,-0.00044360428816783454
1127,5.0,300.16188,670.11268,0.0,0.0,0.0,0.0,0.011232594400966066,0.0,-0.047257763775478155,-0.0908493059923784,-0.06559045223852364,0.05438637440976724,0.12912334410848186,0.017475332970431082
1128,5.0,299.32515,576.38044,0.0,0.0,0.0,0.0,0.011242561210549886,0.0,-0.04292238577135966,-0.06340110349570174,-0.06888177227335163,0.06120713027942345,0.0968190918715504,-0.024782179363560676
1129,5.0,299.88164,290.68708,0.0,0.0,0.0,0.0,0.011252528020133707,0.0,-0.032039965200098365,-0.044901497277432756,-0.01142015037283109,0.06418575424064074,0.1055307173225709,0.0051260245551992345
1130,5.0,299.72732,122.87688,0.0,0.0,0.0,0.0,0.011262494829717529,0.0,-0.03991457108801146,-0.03381167454320247,0.03637474336015766,0.05993543959566735,0.07944101672521792,-0.025364559044037074
1131,5.0,299.29939,-56.388631999999994,0.0,0.0,0.0,0.0,0.01127246163930135,0.0,0.003923358900055376,0.020869854554444282,-0.007652477755940753,0.03008088362200207,0.091985226228985,0.00032867327476502673
1132,5.0,299.97872,63.555445,0.0,0.0,0.0,0.0,0.011282428448885171,0.0,-0.004264460528294486,-0.003435547269962116,-0.01161926009698169,0.01628990533393848,0.07897871427434222,-0.008199308671233762
1133,5.0,300.11821000000003,502.28995,0.0,0.0,0.0,0.0,0.011292395258468991,0.0,-0.013687994587649887,-0.04271872452775986,-0.0962768835045386,-0.009539171733642951,0.096722008326469,0.025224662642480376
1134,5.0,300.44291,602.92192,0.0,0.0,0.0,0.0,0.011302362068052811,0.0,-0.04766518758768775,-0.04600949335453346,-0.08959852777743622,-0.002057478295307298,0.10126139309247141,0.002610835858469437
1135,5.0,300.25338999999997,657.0788200000001,0.0,0.0,0.0,0.0,0.011312328877636633,0.0,-0.06897585862463723,-0.07449126465546543,-0.05626843074176175,0.009951448203231471,0.08899993710860993,-0.005754336483908795
1136,5.0,301.26953,702.40094,0.0,0.0,0.0,0.0,0.011322295687220455,0.0,-0.11889440196396389,-0.03706686613246486,-0.05755107972534935,0.04484352113321096,0.06892940212080234,0.008600384978191912
1137,5.0,301.3682,580.5359599999999,0.0,0.0,0.0,0.0,0.011332262496804276,0.0,-0.07819056376355782,-0.05831929555366634,-0.039958577553104564,0.039446415091308064,0.0920560767289774,0.012799642761226387
1138,5.0,301.42016,281.48275,0.0,0.0,0.0,0.0,0.011342229306388096,0.0,-0.03327752658073617,-0.013767847814780788,-0.03851835298021546,0.050530728784744655,0.1030840121735999,0.032983457083713766
1139,5.0,299.95493,181.85603,0.0,0.0,0.0,0.0,0.011352196115971915,0.0,0.011556455816033389,-0.014954273502621886,-0.051881873475092245,0.025073730934084576,0.1257477014003319,0.005019103972846995
1140,5.0,299.65505,326.9514,0.0,0.0,0.0,0.0,0.011362162925555737,0.0,-0.020486035416564283,-0.03575818979355857,-0.04314083641341905,0.046074922966490864,0.1106892951716829,0.02445338781211148
1141,5.0,299.51518,387.1565,0.0,0.0,0.0,0.0,0.011372129735139559,0.0,-0.07421862641130812,-0.017252108907150582,-0.02621517439698627,0.03140553992823547,0.1036199302839909,-0.011052809721327389
1142,5.0,299.94952,467.20155,0.0,0.0,0.0,0.0,0.011382096544723379,0.0,-0.06389410337160703,-0.05859815110043724,-0.01952534969200198,0.04308254312191596,0.1036278741647749,-0.011904456562878387
1143,5.0,299.55797,643.43475,0.0,0.0,0.0,0.0,0.011392063354307199,0.0,-0.08142020523829863,-0.04592487582543236,-0.06824301738381144,0.025277978849492275,0.09716566190925421,-0.015735936173015986
1144,5.0,300.41249,644.37199,0.0,0.0,0.0,0.0,0.01140203016389102,0.0,-0.05695927580569285,-0.05545974773095095,-0.08345397145476571,0.017089923029894084,0.07295660213350602,0.011589229390517888
1145,5.0,301.14436,465.07427,0.0,0.0,0.0,0.0,0.011411996973474841,0.0,0.008256655181843422,-0.058173014663229536,-0.09145460437686673,0.027183384516791177,0.08769427822850141,-0.0057371304839606944
1146,5.0,301.62177,509.76654,0.0,0.0,0.0,0.0,0.011421963783058663,0.0,-0.034594489278960264,-0.025044638497213376,-0.09531717252657251,0.02937056490439907,0.08451689006141762,0.01881600166799478
1147,5.0,300.96434,316.80753,0.0,0.0,0.0,0.0,0.011431930592642484,0.0,-0.04008063872640106,-0.042205228628831755,-0.014015712093993085,0.02285296333216188,0.12972351240771388,-0.005588889562530454
1148,5.0,300.16669,278.4389,0.0,0.0,0.0,0.0,0.011441897402226304,0.0,-0.051769819159783355,-0.04406371676350026,0.01119506395586679,0.011993987341714387,0.1101580785417559,-0.02015308143370428
1149,5.0,298.73627999999997,397.21133,0.0,0.0,0.0,0.0,0.011451864211810124,0.0,-0.06939417994167234,-0.03323632479191987,-0.018111821219497583,0.024138538582038276,0.1081571223767769,-0.013005104550253888
1150,5.0,299.27027000000004,423.48614000000003,0.0,0.0,0.0,0.0,0.011461831021393946,0.0,-0.046388256374414454,-0.05047436066843155,-0.031866595068238066,0.01997537864441638,0.1066325964088179,-0.010274913301554991
1151,5.0,299.01982000000004,353.28876,0.0,0.0,0.0,0.0,0.011471797830977768,0.0,-0.0016769344883755485,-0.023759057167836377,-0.08195497027007582,0.03855876646045396,0.12496680981326387,-0.017293745380259785
1152,5.0,299.7075,618.58379,0.0,0.0,0.0,0.0,0.011481764640561587,0.0,-0.05369176613496475,-0.058042071339556446,-0.07630018763499223,0.02260934659736878,0.0970822602802731,0.02620892568361958
1153,5.0,299.59407000000004,692.32182,0.0,0.0,0.0,0.0,0.011491731450145407,0.0,-0.08113483854638512,-0.07896718450145433,-0.050346523969565043,0.023840234712847977,0.10334260373162091,-0.007042661187931544
1154,5.0,300.79155,425.89895,0.0,0.0,0.0,0.0,0.011501698259729227,0.0,-0.06729370133862123,0.0042680403408977855,-0.06643698520681994,0.031481747481506575,0.0930697392217681,0.02049803432424848
1155,5.0,300.10567000000003,394.52555,0.0,0.0,0.0,0.0,0.01151166506931305,0.0,-0.061286025985209845,-0.04115611555479236,-0.017483773343764084,0.04134032948922286,0.099214421187451,-0.014815008355877487
1156,5.0,300.27335,753.69413,0.0,0.0,0.0,0.0,0.011521631878896871,0.0,-0.07782168803815262,-0.03649233711376326,-0.11479017163890788,0.008750586639890662,0.08789246589506101,0.046238505102385155
1157,5.0,300.66913,628.4277099999999,0.0,0.0,0.0,0.0,0.011531598688480691,0.0,-0.03420767396053456,-0.05126496020470765,-0.1055536978348389,-0.002291695311572718,0.08542820618810751,0.015851199451391587
1158,5.0,299.96847,258.969,0.0,0.0,0.0,0.0,0.011541565498064512,0.0,-0.015638501030149885,-0.03175890684761007,-0.03132270166630997,0.03311672277661607,0.11823481667886789,0.017397804139029586
1159,5.0,300.61767000000003,488.45007999999996,0.0,0.0,0.0,0.0,0.011551532307648332,0.0,-0.05855709319313515,-0.03668150482793267,-0.05323802970043445,0.04505317879090255,0.13618037774245687,-0.007428415430852523
1160,5.0,300.23126,533.47504,0.0,0.0,0.0,0.0,0.011561499117232154,0.0,-0.07240634349444973,-0.06842400816967384,-0.02133273962412748,0.06257756725167503,0.13394200694654687,-0.03071789065511977
1161,5.0,298.8711,320.11036,0.0,0.0,0.0,0.0,0.011571465926815976,0.0,-0.04387211927559106,-0.05440576092393054,0.0009723259214460972,0.025042728520774875,0.13192690581017189,-0.045109294607940754
1162,5.0,299.59865,481.97502000000003,0.0,0.0,0.0,0.0,0.011581432736399796,0.0,-0.036323198314320564,-0.03627528273034167,-0.07390988910583812,0.028506101462333174,0.1120191555304299,-0.013684855538840086
1163,5.0,300.05865,312.43182,0.0,0.0,0.0,0.0,0.011591399545983616,0.0,-0.006718510828565394,-0.053986137580516944,-0.03426682446162227,0.016686171236046883,0.08490885674335172,0.0016807716665042482
1164,5.0,299.58551,119.44581000000001,0.0,0.0,0.0,0.0,0.011601366355567437,0.0,0.00016205370891345583,0.0007804034740973263,-0.03725100002013747,0.02294319325356688,0.056437968761743854,0.018738006741547283
1165,5.0,300.51215,559.94415,0.0,0.0,0.0,0.0,0.011611333165151259,0.0,-0.045325476583026256,-0.06359367370370694,-0.06128989153434134,0.001240283781006479,0.06422730357424133,0.009191620768517341
1166,5.0,300.493,772.68257,0.0,0.0,0.0,0.0,0.011621299974735077,0.0,-0.09663423351005632,-0.07610433550991312,-0.062137638376257444,0.008432365009509632,0.1022922078829549,0.014533933791387586
1167,5.0,300.62384,545.88302,0.0,0.0,0.0,0.0,0.0116312667843189,0.0,-0.05359175429709435,-0.04432492959952996,-0.06801812348436613,0.014806367359024684,0.11574595019323589,0.004362869607156706
1168,5.0,300.87632,541.34037,0.0,0.0,0.0,0.0,0.01164123359390272,0.0,-0.04487211403778286,-0.05987543999099585,-0.05980640016893215,0.03203210035282217,0.1075897935132859,-0.005991974739136864
1169,5.0,299.94727,497.33462000000003,0.0,0.0,0.0,0.0,0.01165120040348654,0.0,-0.04650899626958055,-0.05069448317315595,-0.053973824565301746,0.05004952010025305,0.0939909507489346,-0.005508694971440865
1170,5.0,299.92678,180.84375,0.0,0.0,0.0,0.0,0.011661167213070362,0.0,-0.04382133923357946,0.0030122623446621473,-0.014162906936020089,0.05240462642693395,0.1033686341266899,-0.0030000930083111275
1171,5.0,300.17751,147.46693,0.0,0.0,0.0,0.0,0.011671134022654182,0.0,-0.007130562356631713,-0.03767372492210717,-2.197558905732178e-05,0.024180393917169078,0.08455024929445992,-0.02925307551555377
1172,5.0,299.0852,360.20256,0.0,0.0,0.0,0.0,0.011681100832238004,0.0,-0.07115531196698253,-0.008951161726335881,-0.02938611018743327,0.03262561565189757,0.1005905779565171,0.031947863805758675
1173,5.0,298.51616,563.68303,0.0,0.0,0.0,0.0,0.011691067641821824,0.0,-0.03223722979581686,-0.06925129242582043,-0.06985704373310343,0.03014434752876547,0.09665962961056272,-0.008305643696353211
1174,5.0,298.43593,596.95312,0.0,0.0,0.0,0.0,0.011701034451405645,0.0,-0.06207368405644565,-0.060515754272439944,-0.05886940423170785,0.010252295532822791,0.13418063747759787,0.017751641206450584
1175,5.0,298.62006,718.10815,0.0,0.0,0.0,0.0,0.011711001260989467,0.0,-0.05711676121573544,-0.05588723693489085,-0.10528294727561789,0.02012302539598798,0.11935796388471388,0.02256783678052208
1176,5.0,299.35685,759.82464,0.0,0.0,0.0,0.0,0.011720968070573289,0.0,-0.09358603169097221,-0.08010172367817463,-0.05727996338284224,0.022563471699091276,0.1094989796167079,0.03267497511726897
1177,5.0,300.19175,453.90585999999996,0.0,0.0,0.0,0.0,0.011730934880157109,0.0,-0.03483292931899246,-0.05083090615336986,-0.05231221092506325,0.06192345149061884,0.08731132237970661,0.00015422157948298486
1178,5.0,300.01267,497.09907000000004,0.0,0.0,0.0,0.0,0.011740901689740929,0.0,-0.051465317239731356,-0.06646076010716634,-0.03317962635607417,0.03297474009310347,0.08483088208190623,-0.0018590999350788784
1179,5.0,300.26295,444.45984000000004,0.0,0.0,0.0,0.0,0.01175086849932475,0.0,-0.019584868002875983,-0.05601823598731945,-0.05950159022084974,0.049861220741419354,0.09601681057487141,-0.015903566243059785
1180,5.0,300.84226,116.85092,0.0,0.0,0.0,0.0,0.01176083530890857,0.0,-0.011929664198866189,0.004712131951701216,-0.028302230475962677,-0.0017178077815094284,0.1101862570270369,-0.035039531014382466
1181,5.0,299.70464,185.60494,0.0,0.0,0.0,0.0,0.01177080211849239,0.0,-0.030574399242208266,-0.02415875697453368,-0.0016861098733310885,0.049702939930048255,0.1010425523491235,-0.03650122230389017
1182,5.0,299.56821,452.60475999999994,0.0,0.0,0.0,0.0,0.011780768928076212,0.0,-0.057376843264653546,-0.048569428188929356,-0.03163427505880987,0.022982336118179975,0.1140909074798959,-0.020285121093985583
1183,5.0,299.48708,377.63892999999996,0.0,0.0,0.0,0.0,0.01179073573766003,0.0,-0.04325694778212836,-0.05029921228264575,-0.02123664399789358,0.04776967191149955,0.09633352722487891,-0.0027013268944252075
1184,5.0,299.72672,581.29304,0.0,0.0,0.0,0.0,0.011800702547243852,0.0,-0.048895493084359455,-0.08225861092754282,-0.045544466274138856,0.006696011711419904,0.11122477758453089,0.013499024457249986
1185,5.0,299.12144,756.19528,0.0,0.0,0.0,0.0,0.011810669356827674,0.0,-0.07224078856061074,-0.05450076527980675,-0.1031229311099409,0.01769833006568918,0.10882951514313689,0.042358479666706465
1186,5.0,298.82145,449.41399,0.0,0.0,0.0,0.0,0.011820636166411495,0.0,-0.032628214638404075,-0.04158292993416566,-0.06239948652009985,0.013872286542338089,0.13749529266222887,0.005675516062604824
1187,5.0,298.67906,345.75642999999997,0.0,0.0,0.0,0.0,0.011830602975995317,0.0,-0.04432613536714896,-0.025059341769414475,-0.035715844045379364,0.024162333747386678,0.11636766018959388,-0.002823190281302187
1188,5.0,300.10446,536.50648,0.0,0.0,0.0,0.0,0.011840569785579137,0.0,-0.1022037410167239,-0.012602758134295388,-0.048278078255175355,0.018062298620860083,0.11761637948033289,0.010640181856604189
1189,5.0,300.47821,472.22804,0.0,0.0,0.0,0.0,0.011850536595162957,0.0,-0.06930518415888913,-0.04241867280214706,-0.031821676678054966,0.02099959109724828,0.08340815633824412,-0.024914461190615876
1190,5.0,299.64047,267.05776000000003,0.0,0.0,0.0,0.0,0.01186050340474678,0.0,-0.04496501184670116,-0.014100524167113385,-0.02211335459391818,0.045912645896725356,0.1208919840061099,-0.0009199274657122721
1191,5.0,299.79627999999997,217.2194,0.0,0.0,0.0,0.0,0.011870470214330601,0.0,0.02361859233297358,-0.03100861034731157,-0.05863925460399385,0.04748972408112086,0.0963395428907226,-0.017326975930539383
1192,5.0,300.85387000000003,330.47137000000004,0.0,0.0,0.0,0.0,0.01188043702391442,0.0,-0.026620239362963077,-0.04155240678815326,-0.032282396432274464,0.03939033271152316,0.12088473926789489,-0.0014162375992967686
1193,5.0,300.37917999999996,525.64837,0.0,0.0,0.0,0.0,0.011890403833498242,0.0,-0.05506846195308404,-0.05405411956947625,-0.05066139549114045,0.023733558729069876,0.11667263833719288,-0.02067900180535858
1194,5.0,298.88518999999997,679.1252400000001,0.0,0.0,0.0,0.0,0.01190037064308206,0.0,-0.09299892013252882,-0.08482395651747272,-0.028614238552755474,0.03298102730997397,0.12216834475957687,-0.007743286851102913
1195,5.0,299.31061,524.79245,0.0,0.0,0.0,0.0,0.011910337452665882,0.0,-0.06676632897957363,-0.05824099259918845,-0.03451647814051117,0.053193063687496656,0.10619490276312091,0.0101005725774239
1196,5.0,298.79255,396.54197999999997,0.0,0.0,0.0,0.0,0.011920304262249702,0.0,-0.04327945206684936,-0.031329214837952764,-0.045930194375207255,0.03015416490898437,0.0959112674047051,0.025595056216535374
1197,5.0,299.19948999999997,643.76353,0.0,0.0,0.0,0.0,0.011930271071833524,0.0,-0.03657402635007537,-0.06654007023224365,-0.0925739407490866,0.011681550660129289,0.07944175842429113,0.03046912458331847
1198,5.0,300.19936,745.57236,0.0,0.0,0.0,0.0,0.011940237881417343,0.0,-0.07817718987548793,-0.043028446712327056,-0.1054297469501059,-0.004975035598172785,0.12160599095407688,0.02981090617260737
1199,5.0,300.02121,369.73854,0.0,0.0,0.0,0.0,0.011950204691001165,0.0,-0.024698112029263874,-0.05014661681758575,-0.03754655392855636,0.02146772176269918,0.1072791310326259,-0.01062878785922969
1200,5.0,300.26506,417.12583,0.0,0.0,0.0,0.0,0.011960171500584987,0.0,-0.05855244946792685,-0.06561277515147673,-0.002630613689821357,0.033329306700596466,0.10239701847329889,-0.035274534110075466
1201,5.0,300.56935,542.63349,0.0,0.0,0.0,0.0,0.011970138310168807,0.0,-0.08592792087242551,-0.05103827690558575,-0.027980832610493177,0.03954230502777167,0.09382342605690122,-0.009911268479791041
1202,5.0,300.0888,454.34013,0.0,0.0,0.0,0.0,0.01198010511975263,0.0,-0.04314352152618405,-0.08525562943107552,-0.009708903183069141,0.03063044615823967,0.11105733800550589,-0.027914725134218873
1203,5.0,300.82212000000004,390.51002,0.0,0.0,0.0,0.0,0.01199007192933645,0.0,0.006186308204966084,-0.04774216014478436,-0.07714944320630722,0.039691037983450465,0.08393956548569012,0.016173241743924684
1204,5.0,299.87207,472.41632999999996,0.0,0.0,0.0,0.0,0.01200003873892027,0.0,-0.05071893492456915,-0.05147609214129475,-0.04140774203162596,0.025801730865932574,0.1002331519572419,0.026040743392271273
1205,5.0,299.98166000000003,597.22475,0.0,0.0,0.0,0.0,0.012010005548504092,0.0,-0.061231708687099144,-0.05299555489850405,-0.06731414568588893,0.019531930751401482,0.08538194118854152,0.016857522973707986
1206,5.0,299.48781,716.7800900000001,0.0,0.0,0.0,0.0,0.01201997235808791,0.0,-0.12161506967497289,-0.043835540946981055,-0.052432645831949246,0.0011910015252926988,0.11729909034401889,0.012465993688797788
1207,5.0,300.43487000000005,749.1707,0.0,0.0,0.0,0.0,0.012029939167671732,0.0,-0.09115184626023681,-0.08059337289169663,-0.05598396685568736,0.012493876305049589,0.11585279741628088,0.011018522351193489
1208,5.0,299.96547000000004,410.51979,0.0,0.0,0.0,0.0,0.01203990597725555,0.0,-0.038567492570315165,-0.04081154769928617,-0.045408724197992155,0.019046822067274982,0.11716622285840589,0.012289163307845989
1209,5.0,299.81796,291.25124,0.0,0.0,0.0,0.0,0.012049872786839373,0.0,0.0018581751417126081,-0.03840924012994686,-0.05198203831372775,0.055051551822165146,0.1125122942215989,-0.004163953008475166
1210,5.0,298.12026000000003,420.04697000000004,0.0,0.0,0.0,0.0,0.012059839596423195,0.0,-0.057913305490348246,-0.046358449596222755,-0.023412035220587976,0.017578856733148084,0.11136687577855488,-0.004232457834486066
1211,5.0,299.57279,441.50692999999995,0.0,0.0,0.0,0.0,0.012069806406007015,0.0,-0.04967171966796705,-0.03671408588489817,-0.047821276739092554,0.04019181860687366,0.07712151094080053,-0.006480885745588623
1212,5.0,299.53046,199.08518999999998,0.0,0.0,0.0,0.0,0.012079773215590837,0.0,-0.03716839683223517,-0.05657976095423765,0.03323123219691727,0.02454709520785968,0.091457545841907,-0.03306542699030357
1213,5.0,300.98042000000004,398.37703,0.0,0.0,0.0,0.0,0.012089740025174656,0.0,-0.05386607352316755,-0.04288372420054406,-0.024346872935099274,0.07314268450112094,0.10775285585187888,0.015239538869525384
1214,5.0,301.02778,568.96011,0.0,0.0,0.0,0.0,0.012099706834758478,0.0,-0.057352317545983036,-0.03255079321151317,-0.08304655574855692,0.05973462355834835,0.12372976316367688,0.007649634576160152
1215,5.0,301.59206,438.11067,0.0,0.0,0.0,0.0,0.0121096736443423,0.0,-0.0016142446033635385,-0.062204524028608536,-0.06935593481664784,0.03451210900607997,0.1107940145695179,0.024119532036662478
1216,5.0,300.27119,493.17215999999996,0.0,0.0,0.0,0.0,0.01211964045392612,0.0,-0.02347206724926268,-0.056791172547852355,-0.06964878233404964,0.010007929398255731,0.08677683193870651,-0.0010125720634305822
1217,5.0,300.12961,655.13545,0.0,0.0,0.0,0.0,0.012129607263509942,0.0,-0.06489605066674153,-0.06227090001615935,-0.07197786738491244,0.036079531930272565,0.0970100905286505,0.007317675199598313
1218,5.0,299.66622,461.55827999999997,0.0,0.0,0.0,0.0,0.01213957407309376,0.0,-0.07675587153621473,-0.062390671244229846,-0.0011556499385787689,0.04024616123623686,0.1094289640347979,-0.033824784986246366
1219,5.0,299.7144,437.34112000000005,0.0,0.0,0.0,0.0,0.012149540882677582,0.0,-0.06164482899137094,-0.02084105494685198,-0.05045489816051075,0.022452844039923182,0.0957963091146096,-0.005724225325387055
1220,5.0,298.71687000000003,401.6583,0.0,0.0,0.0,0.0,0.012159507692261403,0.0,-0.027051343843259773,-0.045309742835473454,-0.04973300711351565,0.005755037652977995,0.10623795575986991,-0.017730677061881587
1221,5.0,299.32214,89.055283,0.0,0.0,0.0,0.0,0.012169474501845223,0.0,0.029049913804253272,-0.005633053284039074,-0.05048744274047265,0.014551529892624185,0.11693063207765489,-0.003566537203139817
1222,5.0,299.74899,143.22474,0.0,0.0,0.0,0.0,0.012179441311429045,0.0,-0.00984448749617527,-0.014860686683635587,-0.018831569242531182,0.037658189771573966,0.12622350338228988,-0.014632644616129585
1223,5.0,300.59047000000004,543.2659,0.0,0.0,0.0,0.0,0.012189408121012863,0.0,-0.06205442217204465,-0.06263676537551743,-0.04044808070291476,0.03290009902448696,0.0954825308898921,-0.006096765672428925
1224,5.0,300.16665,655.59033,0.0,0.0,0.0,0.0,0.012199374930596685,0.0,-0.096442027058837,-0.03890534156440826,-0.06393572160621444,0.04805622207952986,0.09431685352434872,0.02293239504725118
1225,5.0,299.66262,589.43404,0.0,0.0,0.0,0.0,0.012209341740180507,0.0,-0.06199064821075064,-0.08010184324168641,-0.037080739552834065,0.055453043055039244,0.13448694298282787,-0.002787067205962117
1226,5.0,299.00354,655.8990200000001,0.0,0.0,0.0,0.0,0.012219308549764328,0.0,-0.09051245099663342,-0.03395738497383297,-0.07490708729775393,0.06466026534197135,0.13883633930207986,0.01750390966300138
1227,5.0,300.82318,631.77568,0.0,0.0,0.0,0.0,0.01222927535934815,0.0,-0.037228271807144366,-0.04776133286317655,-0.1070544225579489,0.03831053639795557,0.1031429427994159,0.005989580631800584
1228,5.0,300.35232,436.91843,0.0,0.0,0.0,0.0,0.012239242168931968,0.0,-0.035300526001640666,-0.07471373992692203,-0.02279802693824008,0.012814046111397887,0.07764922577838193,-0.02080744037478448
1229,5.0,301.87661,598.8623299999999,0.0,0.0,0.0,0.0,0.01224920897851579,0.0,-0.06304109776167194,-0.03628575163037486,-0.08271234533557292,0.021857368101904275,0.08185456934416702,-0.015286351024145384
1230,5.0,301.50273,546.34839,0.0,0.0,0.0,0.0,0.012259175788099612,0.0,-0.10225127257891489,-0.05063893376292365,-0.013186056832612486,0.026318504628934175,0.10553557079054991,-0.01850184448773988
1231,5.0,301.98033,109.74707,0.0,0.0,0.0,0.0,0.012269142597683433,0.0,0.0027788203633982173,-0.016192292872304885,-0.019946898210605583,0.019736498853840784,0.09256539803749352,-0.002892395567107217
1232,5.0,301.14713,235.1665,0.0,0.0,0.0,0.0,0.012279109407267253,0.0,0.0047521727585529356,-0.013393199603555887,-0.06284371664219195,0.029303495853779872,0.09698550097522372,-0.007220139744972313
1233,5.0,300.61987999999997,645.69755,0.0,0.0,0.0,0.0,0.012289076216851073,0.0,-0.031802752205937264,-0.08402802627242052,-0.08044515466706863,0.04242610195188026,0.14974669213884786,0.011535043814920189
1234,5.0,299.78688999999997,647.1891400000001,0.0,0.0,0.0,0.0,0.012299043026434893,0.0,-0.06007189803963474,-0.07831081121917534,-0.05834662797511385,0.043545450483101364,0.14389558824388884,-0.015921211993551284
1235,5.0,300.85567000000003,523.88875,0.0,0.0,0.0,0.0,0.012309009836018715,0.0,-0.08443748874383132,-0.060431858177410036,-0.014379752589921087,0.03309044109552227,0.09531018008763241,-0.005463095677190564
1236,5.0,299.487,494.89660999999995,0.0,0.0,0.0,0.0,0.012318976645602536,0.0,-0.0976618119797204,-0.04006455135456336,-0.012709849550614487,0.026241744854358574,0.07694047658518383,0.013840527231203686
1237,5.0,299.449,398.39026,0.0,0.0,0.0,0.0,0.012328943455186358,0.0,-0.038701744155564766,-0.02601266116574977,-0.056386286927143245,0.03031661828426727,0.1061993104010559,0.02239905464511458
1238,5.0,300.27507,485.29121,0.0,0.0,0.0,0.0,0.012338910264770176,0.0,-0.026172972530321272,-0.04491153351967325,-0.07643190406849162,0.02282531680318338,0.12046175801364989,-0.003891141599875777
1239,5.0,299.54785,563.17706,0.0,0.0,0.0,0.0,0.012348877074353998,0.0,-0.04489025425432316,-0.03957485872698446,-0.08672665072750402,-0.021307842042670277,0.11621760798228488,0.00913780067223071
1240,5.0,299.6258,283.5973,0.0,0.0,0.0,0.0,0.01235884388393782,0.0,-0.02148549315620308,-0.01960300517966598,-0.04511799943954986,0.02868705982419237,0.08946383644164321,-0.008176286514386653
1241,5.0,299.9655,156.95784,0.0,0.0,0.0,0.0,0.01236881069352164,0.0,-0.026203492636583375,-0.030949393984967367,0.009441623309415672,0.041764057508791565,0.1131018943222879,-0.03207150058296067
1242,5.0,297.92714,545.20363,0.0,0.0,0.0,0.0,0.012378777503105462,0.0,-0.10927510200711289,-0.021205783439597878,-0.03524739825914736,0.07713917898279422,0.0943607059754266,0.02158328192335408
1243,5.0,299.21143,726.2377299999999,0.0,0.0,0.0,0.0,0.01238874431268928,0.0,-0.07440194463265024,-0.05996174052851304,-0.08639445060271841,0.03125993588886547,0.06717941584659214,0.0052735514392840055
1244,5.0,299.90799,261.84803999999997,0.0,0.0,0.0,0.0,0.012398711122273103,0.0,0.004512258439625236,-0.029209026493956472,-0.05489849735480985,0.030224873553962767,0.08878989644238051,0.028494588914696972
1245,5.0,299.20802000000003,363.1307,0.0,0.0,0.0,0.0,0.012408677931856925,0.0,0.0014168122134284788,-0.03796356207346186,-0.07383591475578744,0.019984944738610483,0.13514540356031288,0.007709010525395102
1246,5.0,300.20772999999997,912.8802300000001,0.0,0.0,0.0,0.0,0.012418644741440743,0.0,-0.10059575059827759,-0.099103926264046,-0.07779311742508292,0.03130531024159357,0.15313854684859785,-0.0012868754524047188
1247,5.0,300.90322000000003,716.59083,0.0,0.0,0.0,0.0,0.012428611551024565,0.0,-0.12435548563043089,-0.05618494197327205,-0.03728529448302206,-0.02589152610304468,0.1271885531750329,-0.009414798222293241
1248,5.0,299.38563,223.67278,0.0,0.0,0.0,0.0,0.012438578360608384,0.0,-0.056518525184444154,-0.008252608463594041,-0.003219808085170317,0.01674984184583068,0.10518871501631791,-0.004861044455297735
1249,5.0,300.08928,270.19405,0.0,0.0,0.0,0.0,0.012448545170192206,0.0,-0.0025342035507564175,-0.04360545110102296,-0.035992587978941865,0.044562218587448556,0.12747570825337287,-0.007130875349587603
1250,5.0,300.00187999999997,311.60238,0.0,0.0,0.0,0.0,0.012458511979776028,0.0,-0.009454328756394601,-0.002195966177899988,-0.08306904888752682,0.06156453500044654,0.11432141174514489,-0.003995571613482216
1251,5.0,298.93538,387.7339,0.0,0.0,0.0,0.0,0.012468478789359848,0.0,-0.00011060892417375091,-0.07181195274728792,-0.04593886171656266,0.01176349016921609,0.09296747695542561,-0.02169979555235308
1252,5.0,299.24237,560.9811599999999,0.0,0.0,0.0,0.0,0.01247844559894367,0.0,-0.08660053756705761,-0.03090424761351177,-0.05301948178636545,0.006928703887609833,0.08233074318891172,0.01186157987164679
1253,5.0,299.66622,284.82505,0.0,0.0,0.0,0.0,0.012488412408527489,0.0,-0.05280268780821954,-0.04063564038917546,0.006858625990818683,0.007142709401480533,0.10998738642990989,-0.011082857653042889
1254,5.0,300.00798,198.3188,0.0,0.0,0.0,0.0,0.01249837921811131,0.0,-0.043736986162754454,-0.037124433936896364,0.02057745793333698,0.04163882080968166,0.11452208592744988,0.00985992355084869
1255,5.0,300.26828,781.7836599999999,0.0,0.0,0.0,0.0,0.012508346027695133,0.0,-0.05911227420117725,-0.061890767082143146,-0.1166396671789389,0.028006236817000374,0.0931876004734001,-0.015486408137139486
1256,5.0,300.78854,808.51605,0.0,0.0,0.0,0.0,0.012518312837278953,0.0,-0.06462571857981184,-0.06656466181217065,-0.1145783111754989,0.03552592652613597,0.1079628823326069,0.03863423028815167
1257,5.0,300.4569,170.26644,0.0,0.0,0.0,0.0,0.012528279646862775,0.0,0.04140799838390126,-0.03816305277965006,-0.05500169181124435,0.020053762658902283,0.13446041609520987,-0.035312885626360466
1258,5.0,300.13711,207.06115,0.0,0.0,0.0,0.0,0.012538246456446593,0.0,-0.05727199417080575,0.001088487871600389,-0.006757912983879084,0.04882105567901305,0.14872537656805185,0.026226534957107476
1259,5.0,300.71443999999997,475.86751,0.0,0.0,0.0,0.0,0.012548213266030415,0.0,-0.09581838580778841,-0.04093776725099306,-0.007895686049618543,0.00015519647806669986,0.11555596579948589,-0.02965742411370987
1260,5.0,300.15702999999996,392.32192000000003,0.0,0.0,0.0,0.0,0.012558180075614234,0.0,-0.050554427691333545,-0.02317241373093918,-0.04552922597938476,0.027312061199990575,0.1119117003573249,0.031054175191058467
1261,5.0,299.89784,331.61487999999997,0.0,0.0,0.0,0.0,0.012568146885198056,0.0,0.0060606595183655245,-0.04733688847578715,-0.059526412821799546,0.0011340194807440088,0.1155279190367179,-0.018681878765507882
1262,5.0,299.56034,627.7198599999999,0.0,0.0,0.0,0.0,0.012578113694781878,0.0,-0.027284809838551076,-0.06759507738211473,-0.09593127706767991,0.033657315009718365,0.10294239020712291,0.017184088414687482
1263,5.0,300.15242,643.64955,0.0,0.0,0.0,0.0,0.012588080504365697,0.0,-0.049341211670848456,-0.07268831782502842,-0.07362386177485943,0.03329857887806387,0.07762580450232043,-0.0071260709229134436
1264,5.0,299.76606,640.08093,0.0,0.0,0.0,0.0,0.012598047313949519,0.0,-0.08642845831582473,-0.06213738303723224,-0.046002778546120754,0.04284082015155976,0.0950686263300429,0.01156689431856359
1265,5.0,299.08693999999997,684.86986,0.0,0.0,0.0,0.0,0.01260801412353334,0.0,-0.12243146554554488,-0.058833949597458746,-0.02691792008334187,0.051028857732656155,0.13542210189762086,0.01120412342501089
1266,5.0,298.72634,303.79185,0.0,0.0,0.0,0.0,0.01261798093311716,0.0,-0.01950964634195218,-0.02527546497599418,-0.04756002539955905,0.05767349148318044,0.12995092626015786,0.015926596404582685
1267,5.0,299.21656,23.798269,0.0,0.0,0.0,0.0,0.012627947742700983,0.0,0.036813903178749365,-0.028113051616042176,-0.015934931399905285,0.049570338929211546,0.1098253778714209,-0.012780286644566088
1268,5.0,299.93422999999996,455.50946,0.0,0.0,0.0,0.0,0.012637914552284801,0.0,-0.0024975745596414176,-0.04162284793510526,-0.09434307745018682,0.05433214931741565,0.09610004805733632,0.002098529211183708
1269,5.0,300.10217,532.66675,0.0,0.0,0.0,0.0,0.012647881361868623,0.0,-0.033810232688310175,-0.06410627692929693,-0.06400088270689534,0.01924865540769438,0.10816128683468791,-0.008433168618163941
1270,5.0,301.02572000000004,311.99815,0.0,0.0,0.0,0.0,0.012657848171452445,0.0,-0.07124212926205073,-0.03020647597189707,0.0066089595449785234,0.00039341617673215365,0.10912029765683491,-0.023732777513242778
1271,5.0,300.5135,470.38224,0.0,0.0,0.0,0.0,0.012667814981036266,0.0,-0.1008774706030812,-0.04725373002683005,0.005146744101194095,-0.004488566727112045,0.1022830886320549,-0.012309690741621887
1272,5.0,300.50248999999997,620.64742,0.0,0.0,0.0,0.0,0.012677781790620086,0.0,-0.07518946287537223,-0.06158722774968614,-0.05188462850211415,0.03030015499664247,0.1305847648602129,0.008121269769731923
1273,5.0,300.59927000000005,680.3016200000001,0.0,0.0,0.0,0.0,0.012687748600203906,0.0,-0.02150522113565008,-0.07548926736796063,-0.1098002188714379,0.03303279628408317,0.14379313852627787,5.259498572322094e-05
1274,5.0,300.25858999999997,594.73603,0.0,0.0,0.0,0.0,0.012697715409787726,0.0,-0.03606433925827317,-0.05720936112912434,-0.0875112011606831,0.05016926498382095,0.1140779885411209,0.017838381494511182
1275,5.0,299.41481,384.87865,0.0,0.0,0.0,0.0,0.012707682219371547,0.0,-0.046282446719471855,-0.04753355829369696,-0.02317749416694058,0.02086879976109018,0.06299366549799074,-0.00952360375380651
1276,5.0,299.73227,137.2142,0.0,0.0,0.0,0.0,0.012717649028955369,0.0,-0.06344217761500544,0.007811127592998272,0.013921360271181288,0.05201382194286455,0.08728964794681751,0.019117738428523882
1277,5.0,300.1889,336.05386,0.0,0.0,0.0,0.0,0.01272761583853919,0.0,-0.07262651159542863,-0.023673618906154277,-0.005851851977507824,0.06934593809116123,0.0996863586335276,0.004549280977079076
1278,5.0,300.10025,694.56429,0.0,0.0,0.0,0.0,0.01273758264812301,0.0,-0.06255983638817514,-0.061651826496561535,-0.08691853800494183,0.05982097779812085,0.12581220490169787,0.018424159615822982
1279,5.0,300.277,383.72534,0.0,0.0,0.0,0.0,0.012747549457706831,0.0,-0.008461815934266212,-0.030682602193887073,-0.07749850279950672,0.02925050287354987,0.11269988734511288,0.015638436182143486
1280,5.0,300.21511,176.75888,0.0,0.0,0.0,0.0,0.012757516267290651,0.0,0.014201270611306287,-0.04981514319312186,-0.01811641225570068,0.038584569887500565,0.12734396547537088,-0.03612086341510167
1281,5.0,299.70155,584.7221400000001,0.0,0.0,0.0,0.0,0.012767483076874473,0.0,-0.08905412369745772,-0.03273561205625337,-0.055951194294452944,0.042873051637240756,0.13519534665774188,0.01027946380775409
1282,5.0,299.94107,761.61591,0.0,0.0,0.0,0.0,0.012777449886458295,0.0,-0.1189958282989739,-0.08246952400210832,-0.030046869829395174,0.03845346241731126,0.14594055999321187,-0.02805972628977937
1283,5.0,300.08541,446.3816,0.0,0.0,0.0,0.0,0.012787416696042114,0.0,-0.06456471889729164,-0.06233735098421754,-0.00878678864741352,-0.005476730882461255,0.1121251110933869,0.0061244666129377946
1284,5.0,299.89389,284.09289,0.0,0.0,0.0,0.0,0.012797383505625936,0.0,-0.011540437345202489,-0.02051410244433428,-0.05430260497099986,-0.0036554927598940463,0.12970928637630988,-0.005395046509749635
1285,5.0,299.91102,293.21374,0.0,0.0,0.0,0.0,0.012807350315209758,0.0,0.02035428149281118,-0.04578690155931536,-0.06369703635965804,0.012881951093349588,0.13293336713450188,0.016499569071130683
1286,5.0,301.00545,424.32135,0.0,0.0,0.0,0.0,0.012817317124793576,0.0,-0.01664934972741288,-0.04153158753834856,-0.07080215783012893,0.033436377851913564,0.1304549371248999,0.009663784878641309
1287,5.0,300.82103,597.98313,0.0,0.0,0.0,0.0,0.012827283934377398,0.0,-0.06722683899102244,-0.06095196553324064,-0.053593134343730545,0.024608648124934476,0.09330796647927932,-0.013578526086596186
1288,5.0,301.00832,355.28845,0.0,0.0,0.0,0.0,0.012837250743961217,0.0,-0.07987855838339993,-0.028852440479014172,0.0007321808348081222,0.02105862000832398,0.10845130941081091,-0.001017525204821919
1289,5.0,300.75524,321.34276,0.0,0.0,0.0,0.0,0.012847217553545039,0.0,-0.03378169551249377,-0.03451635553724907,-0.02938212304828977,0.05000355704921686,0.11062140741498289,-0.01963239348556638
1290,5.0,300.97328999999996,772.7495299999999,0.0,0.0,0.0,0.0,0.01285718436312886,0.0,-0.05093363350150825,-0.08518525313212992,-0.0987776739173474,0.05534536192716194,0.1263511019673829,0.0044751222155101755
1291,5.0,301.01652,794.80044,0.0,0.0,0.0,0.0,0.012867151172712681,0.0,-0.053532516656498046,-0.07354396599122433,-0.1145230079850409,0.04385067181072436,0.11501759562385289,0.0003670436071043836
1292,5.0,300.8454,348.39145,0.0,0.0,0.0,0.0,0.012877117982296503,0.0,-0.005224469199139965,-0.054325604735019746,-0.04635222824060875,0.0062646512841479434,0.13036773682129388,0.02013185789710968
1293,5.0,300.29162,180.17928,0.0,0.0,0.0,0.0,0.012887084791880322,0.0,-0.04770388360900676,-0.02997639929819027,0.02291028086381868,0.009827491745622922,0.11773514252455389,0.0001930027847378918
1294,5.0,299.27907999999996,536.14032,0.0,0.0,0.0,0.0,0.012897051601464144,0.0,-0.1151304210224879,-0.017853261072229683,-0.029989587761491868,0.010878329067357488,0.1002073201591925,0.03156611068483257
1295,5.0,299.8804,707.49252,0.0,0.0,0.0,0.0,0.012907018411047964,0.0,-0.09472181108581491,-0.05128996721717566,-0.06904828067553473,0.027763034501498175,0.09397921022002591,0.015690998531080986
1296,5.0,299.63416,384.2915,0.0,0.0,0.0,0.0,0.012916985220631786,0.0,0.027512731329295173,-0.06680880949001614,-0.07751894106727383,0.02471780251845718,0.12587678946307188,-0.012617546519504887
1297,5.0,300.07705,321.69497,0.0,0.0,0.0,0.0,0.012926952030215608,0.0,0.017973497382096085,-0.02348194441123748,-0.0922787911274576,0.04725661373661466,0.14522638079272787,0.03181712009235527
1298,5.0,299.6561,520.48426,0.0,0.0,0.0,0.0,0.012936918839799427,0.0,-0.015954972473633183,-0.08703596254578072,-0.055223285555113945,0.04728529074094486,0.15940856886490085,-0.02089483623565978
1299,5.0,300.00073,568.19072,0.0,0.0,0.0,0.0,0.012946885649383249,0.0,-0.0962793781262848,-0.05486031809104185,-0.02157609392714468,0.04849387924822325,0.13525821882644687,0.010120787423543949
1300,5.0,300.97181,732.47243,0.0,0.0,0.0,0.0,0.01295685245896707,0.0,-0.10075196336619459,-0.09680667550482501,-0.025094691025653176,0.04523001221160466,0.13112458398348886,-0.013142313812545386
1301,5.0,301.34531,475.9361,0.0,0.0,0.0,0.0,0.012966819268550889,0.0,-0.03938640332763536,-0.05958704064153304,-0.04569924731966455,0.034931188234189864,0.11870228974500388,0.018524766231502083
1302,5.0,300.69762000000003,199.56226,0.0,0.0,0.0,0.0,0.012976786078134711,0.0,0.03561871895704386,-0.03001384395563577,-0.06626681897177585,0.01173439165284429,0.09338594418047509,-0.01010263717582766
1303,5.0,300.53991,465.9963,0.0,0.0,0.0,0.0,0.01298675288771853,0.0,-0.010842884565609388,-0.06144213641486674,-0.06936621829191274,0.025222344326251575,0.07562826400342852,0.014432767861653288
1304,5.0,300.47782,651.1416,0.0,0.0,0.0,0.0,0.012996719697302352,0.0,-0.07488910717472942,-0.05667253514664375,-0.06636914608612474,0.019649076648462882,0.1152163344984669,0.012877250626135687
1305,5.0,299.40274,339.38156000000004,0.0,0.0,0.0,0.0,0.013006686506886172,0.0,-0.06629397204795563,-0.04209636098508736,0.005226811934696175,0.03633574336380867,0.14044261428810687,0.0017748901378180182
1306,5.0,299.9365,143.43295,0.0,0.0,0.0,0.0,0.013016653316469994,0.0,-0.06304352550891154,-0.018021951001878082,0.03746544123155117,0.01022689943231639,0.12996604395164987,-0.006660415627456843
1307,5.0,299.39437999999996,571.01007,0.0,0.0,0.0,0.0,0.013026620126053816,0.0,-0.043924248966735864,-0.04979811957819175,-0.07985043562687442,0.03248978947599257,0.08507005672826091,-0.0051783395697873255
1308,5.0,300.0399,707.36013,0.0,0.0,0.0,0.0,0.013036586935637634,0.0,-0.04963294461314025,-0.05460603689894625,-0.1107808321857169,0.05003770155108666,0.1086266523406159,0.010788966488038091
1309,5.0,300.61347,581.43834,0.0,0.0,0.0,0.0,0.013046553745221456,0.0,-0.0035503417175164463,-0.08389912262119871,-0.08929327098605971,0.08046557976258442,0.13066845931847287,-0.0002215087524512118
1310,5.0,300.96178,608.3757,0.0,0.0,0.0,0.0,0.013056520554805277,0.0,-0.09443420308468022,-0.04533268180448736,-0.045164138796103453,0.035646307730766665,0.13126759410260286,0.02882214328777407
1311,5.0,299.37118,570.51186,0.0,0.0,0.0,0.0,0.013066487364389099,0.0,-0.11960897633198687,-0.03642435715130417,-0.017388028302064783,0.015595863465941884,0.11834108634935589,0.01738939618969978
1312,5.0,299.33791,473.57069,0.0,0.0,0.0,0.0,0.01307645417397292,0.0,-0.11412261207552489,-0.052378326507338355,0.022547269829992278,0.043390320879541255,0.13515154385591885,-0.004846506849487986
1313,5.0,298.91251,478.62755,0.0,0.0,0.0,0.0,0.01308642098355674,0.0,-0.020211949238014084,-0.04074776664524146,-0.08453110900007092,0.06487688402784994,0.12929791696821086,0.006868401625133464
1314,5.0,299.49755,301.45881,0.0,0.0,0.0,0.0,0.01309638779314056,0.0,0.006283998180232334,-0.046165625062442456,-0.05175432251275395,0.059319919544170235,0.10827811457121789,-0.03192265211677047
1315,5.0,299.19998,207.78682,0.0,0.0,0.0,0.0,0.01310635460272438,0.0,0.02157838083262038,-0.037301961433916966,-0.047438424241807955,0.04030237027228426,0.06896650632621423,0.0009789140634637958
1316,5.0,299.09809,518.0459599999999,0.0,0.0,0.0,0.0,0.013116321412308202,0.0,-0.07928017441759402,-0.05051891124882835,-0.027673951579206373,0.024950183322891374,0.11455322310302289,-0.023726318043855277
1317,5.0,300.24534,755.66157,0.0,0.0,0.0,0.0,0.013126288221892024,0.0,-0.12662039344645987,-0.07126566199562323,-0.031816194995013966,0.03585516289437907,0.13522806450347086,0.0026281242356506677
1318,5.0,300.69425,493.51320999999996,0.0,0.0,0.0,0.0,0.013136255031475842,0.0,-0.05010086249607015,-0.06147195231230935,-0.038442879020016765,0.025589506645737677,0.1410014217182569,-0.013204330798165987
1319,5.0,300.07207999999997,339.37342,0.0,0.0,0.0,0.0,0.013146221841059664,0.0,-0.005615753659781734,-0.04683653747040636,-0.05070875480081445,0.013771486395889885,0.11840983536864089,-0.0069635557393744425
1320,5.0,299.96814,571.29389,0.0,0.0,0.0,0.0,0.013156188650643484,0.0,-0.0024086037028106778,-0.05623939302039594,-0.1150110804257099,0.025192976285353177,0.13390828598321886,0.016482140156160587
1321,5.0,299.28087,454.7837,0.0,0.0,0.0,0.0,0.013166155460227306,0.0,-0.021380126291554183,-0.03990673866473846,-0.07695602288146813,0.05620428187793075,0.13992480295700285,0.008313248847628782
1322,5.0,299.42553,389.61918,0.0,0.0,0.0,0.0,0.013176122269811128,0.0,-0.06358134548974023,-0.04098358236751466,-0.013869574071820386,0.05120801757558786,0.11507460107447888,0.011260665820341189
1323,5.0,299.62232,345.72767000000005,0.0,0.0,0.0,0.0,0.013186089079394947,0.0,-0.10563157623752491,-0.013064320912598088,0.013603319303293088,0.04077525916020476,0.1069423064343839,0.006408632502157784
1324,5.0,298.57475,197.06906999999998,0.0,0.0,0.0,0.0,0.013196055888978769,0.0,-0.05576740389856425,-0.009331746772546702,0.005195073597838845,0.025050978403089078,0.12840970193055087,-0.002484326922533978
1325,5.0,298.21166,427.49862,0.0,0.0,0.0,0.0,0.01320602269856259,0.0,-0.02096662703174498,-0.05513163607031885,-0.05385064273739465,0.02474030072367758,0.11167194511866288,-0.030953712456893573
1326,5.0,299.39513999999997,844.87085,0.0,0.0,0.0,0.0,0.013215989508146411,0.0,-0.048834368772076954,-0.06455069754240783,-0.14343457971339085,0.056448040467737846,0.1092823163478249,-0.0029916948875072973
1327,5.0,299.32952,683.0726400000001,0.0,0.0,0.0,0.0,0.01322595631773023,0.0,-0.034504016177531266,-0.08762388369105402,-0.08550912636759372,0.03622287743516967,0.08973038403944941,-0.014955285739471786
1328,5.0,300.09152,318.71295,0.0,0.0,0.0,0.0,0.01323592312731405,0.0,-0.05693627300192265,-0.02082626960139278,-0.019118234921072882,0.040888904278170664,0.11947907766916689,0.00895796519413233
1329,5.0,300.0683,346.33793,0.0,0.0,0.0,0.0,0.013245889936897872,0.0,-0.06948968281659773,-0.0016316291379792586,-0.03415677131526087,0.03595683038291286,0.13550234117303986,0.012826451332372188
1330,5.0,300.4685,573.60593,0.0,0.0,0.0,0.0,0.013255856746481692,0.0,-0.05250368479646025,-0.05916329235696235,-0.06269490262650515,0.05313319377883795,0.14424455157832888,0.012519171080545987
1331,5.0,300.21243,407.5213,0.0,0.0,0.0,0.0,0.013265823556065514,0.0,-0.008065426618295632,-0.037763478615965164,-0.07804739557742822,0.04786181079609295,0.12409630638735189,-0.012398644981150987
1332,5.0,300.72417,381.26044,0.0,0.0,0.0,0.0,0.013275790365649336,0.0,0.0013514516038028888,-0.044863250125908055,-0.07238185526603293,0.026988509164808473,0.1335978160200779,0.006831826944223823
1333,5.0,300.12019,293.23368999999997,0.0,0.0,0.0,0.0,0.013285757175233155,0.0,-0.016442449123243382,-0.04408012432236955,-0.02861314728239777,0.009306230601903451,0.12126982496839987,-0.01764768782569118
1334,5.0,300.67118,315.36155,0.0,0.0,0.0,0.0,0.013295723984816977,0.0,-0.06717820906572303,-0.044053204293712754,0.015369375724089286,-0.0051124867232631545,0.09779242903686132,-0.0047780502541818455
1335,5.0,299.44682,682.59217,0.0,0.0,0.0,0.0,0.013305690794400797,0.0,-0.09543609971730971,-0.06627805388888464,-0.04577682276057066,0.015045409269616285,0.0921051494445705,-0.02209389005949718
1336,5.0,298.7977,890.72006,0.0,0.0,0.0,0.0,0.013315657603984619,0.0,-0.1032264548726579,-0.07518932102035823,-0.09234088005383533,0.013225792448534088,0.12858034337989188,-0.013075980381498788
1337,5.0,299.48057,430.60413,0.0,0.0,0.0,0.0,0.013325624413568441,0.0,-0.013043030501496886,-0.039691865808782166,-0.07815800702459472,0.05025098056463566,0.13933555749384888,-0.0012678160153736986
1338,5.0,300.49542,276.18494,0.0,0.0,0.0,0.0,0.01333559122315226,0.0,0.012796879628203688,-0.04273133442525436,-0.054018870624997446,0.027298617397663774,0.12854722023412288,-0.0038275814343528766
1339,5.0,299.77137,656.34753,0.0,0.0,0.0,0.0,0.013345558032736082,0.0,-0.056263609697785946,-0.046440521841072654,-0.096809127570067,0.050848313790087855,0.09400654061497322,0.034049195565393965
1340,5.0,300.07304,715.6663599999999,0.0,0.0,0.0,0.0,0.013355524842319902,0.0,-0.13210439683018887,-0.037321059171801764,-0.04811924319599955,0.057788392018020246,0.0902715021493536,0.023851234555933576
1341,5.0,299.48506000000003,339.99059,0.0,0.0,0.0,0.0,0.013365491651903722,0.0,-0.047247003059416155,-0.02247732821533958,-0.03362431953346197,0.03824504599099217,0.1140768233035059,0.028219083172756676
1342,5.0,299.2749,211.58517,0.0,0.0,0.0,0.0,0.013375458461487542,0.0,-0.00014626246954998188,-0.01953425616038098,-0.044636091612489256,0.022553788067885577,0.10023221470089941,-0.005628447049084474
1343,5.0,300.485,525.92935,0.0,0.0,0.0,0.0,0.013385425271071363,0.0,0.0015975086501368284,-0.08414047271551812,-0.07732642557477402,0.014941835857644385,0.14011516225328985,-0.01044034056588139
1344,5.0,300.81276,687.98647,0.0,0.0,0.0,0.0,0.013395392080655185,0.0,-0.04390384210972186,-0.08874029987648573,-0.07648656587163633,0.04906423063676255,0.17112068624079685,-0.024067244278502077
1345,5.0,300.31609,647.18152,0.0,0.0,0.0,0.0,0.013405358890239005,0.0,-0.0909587795596826,-0.05442061010414605,-0.05134763128036666,0.025392330202777876,0.15929488220368085,-0.009085579180626852
1346,5.0,301.35445,248.39289,0.0,0.0,0.0,0.0,0.013415325699822827,0.0,-0.08723953057037133,-0.004723077484581456,0.016457372270716183,0.015637274997528886,0.11606016918174689,0.004438787370899206
1347,5.0,301.19203,92.233906,0.0,0.0,0.0,0.0,0.013425292509406649,0.0,-0.021035787430570583,-0.007884973158961263,0.0008839566210672261,0.013114528468303186,0.08423128728223082,-0.0056405365413276145
1348,5.0,300.03409,665.24019,0.0,0.0,0.0,0.0,0.013435259318990467,0.0,-0.043991208586344255,-0.06465444725989715,-0.09357074985296401,0.03772819927398337,0.1014030707877039,0.0009132557812238282
1349,5.0,300.21398,924.9912,0.0,0.0,0.0,0.0,0.01344522612857429,0.0,-0.05169456912785675,-0.08573931044581111,-0.14374034819606787,0.04359593769583406,0.10669334075231289,1.3156681698963387e-05
1350,5.0,299.07743,399.76617000000005,0.0,0.0,0.0,0.0,0.01345519293815811,0.0,-0.01244875830459679,-0.055376771667011854,-0.053693401520626155,0.031747215967956266,0.12474633672400488,-0.007282218640174024
1351,5.0,299.00336,85.56265400000001,0.0,0.0,0.0,0.0,0.013465159747741932,0.0,-0.017243518572802784,-0.012620344103030989,0.0038549526632792068,0.026308231286170273,0.12535212856129188,-0.010691373278156389
1352,5.0,299.72202000000004,427.57725,0.0,0.0,0.0,0.0,0.013475126557325754,0.0,-0.0998544618913681,-0.03151204568599677,0.0013936994720224287,0.05825283445310714,0.14027064548113485,0.011193548133717188
1353,5.0,300.17747,668.06312,0.0,0.0,0.0,0.0,0.013485093366909572,0.0,-0.06445709349816985,-0.07260069296963054,-0.06601671946284295,0.04829589119193336,0.13404816515952386,-0.020376810095534582
1354,5.0,299.85356,602.16608,0.0,0.0,0.0,0.0,0.013495060176493394,0.0,-0.03817009689434526,-0.060680164233665936,-0.08419319110497102,0.042826988274444665,0.1114764182468659,-0.006122499387868644
1355,5.0,299.56192999999996,384.41949,0.0,0.0,0.0,0.0,0.013505026986077213,0.0,0.01097684838783059,-0.07059405956434123,-0.057236715842074036,0.009145079050349033,0.08710999161133683,-0.021139896851845377
1356,5.0,300.22212,273.55922999999996,0.0,0.0,0.0,0.0,0.013514993795661035,0.0,-0.018100062452087083,-0.015689381383921387,-0.04936573131001836,0.017408242641559785,0.13515264829852786,0.009454187002705611
1357,5.0,301.57745,707.55853,0.0,0.0,0.0,0.0,0.013524960605244855,0.0,-0.11627037804749288,-0.06491067591868495,-0.033899073443828066,0.003236567647124357,0.13844074619803787,-0.0031683340681652266
1358,5.0,299.99643,1003.6865,0.0,0.0,0.0,0.0,0.013534927414828675,0.0,-0.15532028709641885,-0.059686595503608345,-0.09008875438781781,0.01954649520833888,0.1289208866060009,0.028829016163202374
1359,5.0,298.93821,562.50625,0.0,0.0,0.0,0.0,0.013544894224412497,0.0,-0.07383725123266933,-0.033975611316631765,-0.06317499166963624,0.014395623126237385,0.1124748647629049,0.006695656465934843
1360,5.0,299.9726,316.82857,0.0,0.0,0.0,0.0,0.013554861033996318,0.0,0.013630436915719387,-0.049369067942597655,-0.060569342030478646,0.05092299336220815,0.1270758392339089,0.007268536217448674
1361,5.0,300.24961,441.41672,0.0,0.0,0.0,0.0,0.01356482784358014,0.0,-0.01126257377027949,-0.053305466560839954,-0.06961161936013194,0.04006071518968476,0.12334267122797388,-0.027942048436415474
1362,5.0,300.43113,672.46718,0.0,0.0,0.0,0.0,0.01357479465316396,0.0,-0.06939135094739314,-0.05459503806911074,-0.08042684219801133,0.07742637357788813,0.10872837251815488,0.003696919186257517
1363,5.0,301.70734,475.66700999999995,0.0,0.0,0.0,0.0,0.01358476146274778,0.0,-0.1106257947879159,-0.03128107025945127,-0.0026840287900430177,0.055380807442160146,0.10575920522012089,-0.013343484487399386
1364,5.0,299.43191,224.1418,0.0,0.0,0.0,0.0,0.013594728272331602,0.0,-0.047060659273275456,-0.026172129506238075,0.005099278906884645,0.03411222985411497,0.1080337490446009,0.01932297020977868
1365,5.0,300.43113,355.15547999999995,0.0,0.0,0.0,0.0,0.013604695081915422,0.0,-0.02228001903661668,-0.04448837899966116,-0.04118999863813636,0.017253643981052086,0.1030051813158199,-0.0030615190664734066
1366,5.0,301.04863,711.85562,0.0,0.0,0.0,0.0,0.013614661891499244,0.0,-0.04189568072328176,-0.07144885964020344,-0.10304179004193291,0.0033145749352230768,0.0996083485083286,0.005526222982270745
1367,5.0,299.39951,777.85364,0.0,0.0,0.0,0.0,0.013624628701083063,0.0,-0.02145419284736398,-0.0905134916044861,-0.12448039910275889,0.018022566044688784,0.0961581863215741,-0.042222958479081564
1368,5.0,298.61236,565.64454,0.0,0.0,0.0,0.0,0.013634595510666885,0.0,-0.07385570960974103,-0.05357855367479154,-0.04450755171805336,0.04253041503642516,0.13978805472350686,0.014553508770069485
1369,5.0,300.6462,91.03439399999999,0.0,0.0,0.0,0.0,0.013644562320250703,0.0,-0.03058720773672237,-0.014130294468301488,0.017045319760492082,0.039079427050839166,0.16947096309048185,-0.017830153903699183
1370,5.0,300.42784,92.559136,0.0,0.0,0.0,0.0,0.013654529129834525,0.0,-0.04035316449979726,0.008373093931660032,0.0038444047297382065,0.025310486952450577,0.13975878192811786,0.0008033630931482642
1371,5.0,301.29307,674.357,0.0,0.0,0.0,0.0,0.013664495939418347,0.0,-0.08030565343305093,-0.04957501406517295,-0.07510702180748594,0.040481832063745754,0.11854039264402588,0.001192292304595089
1372,5.0,301.27182,584.99522,0.0,0.0,0.0,0.0,0.013674462749002168,0.0,-0.050300701760292756,-0.033676361071848064,-0.0938468767172156,0.05603128563535736,0.1132295030398819,0.009876337391868611
1373,5.0,300.77457000000004,219.2693,0.0,0.0,0.0,0.0,0.013684429558585988,0.0,0.01991910070736218,-0.051197180865768355,-0.03537431087392267,0.05553927570479974,0.1053330220955599,-0.02660212042467487
1374,5.0,301.17438,437.94965,0.0,0.0,0.0,0.0,0.013694396368169808,0.0,-0.06006340295079635,-0.04712013705414546,-0.025942216979047472,0.037236957387001564,0.08904805635585891,-0.0016574383405514284
1375,5.0,299.99055,748.1056,0.0,0.0,0.0,0.0,0.01370436317775363,0.0,-0.12297177102886887,-0.04690963839887086,-0.05752401378867815,0.03703814758488057,0.0967138172126606,0.010846573809223489
1376,5.0,299.58741000000003,803.52184,0.0,0.0,0.0,0.0,0.013714329987337452,0.0,-0.1025938119077209,-0.06292832403879205,-0.07872843845989193,0.027977097770624574,0.12516501166532487,0.0067190862532971836
1377,5.0,299.02027999999996,502.15879,0.0,0.0,0.0,0.0,0.013724296796921272,0.0,-0.031411858555859075,-0.05081277809583075,-0.07041909761657383,0.017370124172797784,0.15442601282316085,0.02135971842129008
1378,5.0,299.32114,287.25442999999996,0.0,0.0,0.0,0.0,0.013734263606505093,0.0,0.029725667521194973,-0.03859647861592586,-0.07844736288215193,0.01194090924847599,0.13414283311636688,0.0026178709552387475
1379,5.0,300.23236,309.14277000000004,0.0,0.0,0.0,0.0,0.013744230416088915,0.0,0.016078033724778385,-0.05222224343543415,-0.057827474087627354,0.007713062917845043,0.14076072415700186,-0.011685638111032688
1380,5.0,300.15083,562.91894,0.0,0.0,0.0,0.0,0.013754197225672735,0.0,-0.09220817874123872,-0.043852793556433754,-0.03505233038964567,0.04056098918805796,0.13173129787836688,-0.004443607401624906
1381,5.0,299.82056,491.59556,0.0,0.0,0.0,0.0,0.013764164035256555,0.0,-0.08543215381049711,-0.03152598091462207,-0.03247464037374747,0.04935945017264846,0.12791166924139888,0.0028681182973612374
1382,5.0,300.99078,194.30128,0.0,0.0,0.0,0.0,0.013774130844840375,0.0,-0.029894010919309176,-0.04642577195936695,0.01725704647488788,0.024598104244393876,0.11377848194406188,-0.013686575024259788
1383,5.0,301.83265,182.76848999999999,0.0,0.0,0.0,0.0,0.013784097654424196,0.0,0.004318897288591976,-0.033574670278561966,-0.026301285456734772,0.016408186071111882,0.1285857136054219,-0.02339306211246548
1384,5.0,300.25383999999997,736.8118,0.0,0.0,0.0,0.0,0.013794064464008016,0.0,-0.053428024226685446,-0.07168852571285664,-0.09885583906981171,0.040353168552797664,0.14424512913088586,-0.005632736542057815
1385,5.0,299.69712999999996,957.90974,0.0,0.0,0.0,0.0,0.013804031273591838,0.0,-0.08852309350554911,-0.10955145583938689,-0.0931060895691056,0.04581183257802586,0.14265034440099286,-0.024915686209986774
1386,5.0,298.46913,401.67066,0.0,0.0,0.0,0.0,0.01381399808317566,0.0,-0.05870250167523585,-0.043162808741837554,-0.02023254050654628,0.05388727983451045,0.1002958893636836,0.0033439381125209967
1387,5.0,299.62871,237.48086,0.0,0.0,0.0,0.0,0.01382396489275948,0.0,-0.035951691178405666,-0.027831972998551873,-0.008404586048743062,0.009630979690753692,0.09396977483509471,0.014531776581924687
1388,5.0,299.97438999999997,493.54343,0.0,0.0,0.0,0.0,0.0138339317023433,0.0,-0.05819907545580154,-0.029869748645664673,-0.061956053825836445,0.029875004373933374,0.12740359524375588,0.06087042727119345
1389,5.0,299.92995,516.46223,0.0,0.0,0.0,0.0,0.01384389851192712,0.0,-0.028783160516676773,-0.05500923343173865,-0.07319922892295143,-0.008093614729452582,0.12143417413461988,0.014214665777628288
1390,5.0,299.84054,554.0774700000001,0.0,0.0,0.0,0.0,0.013853865321510943,0.0,-0.016021531859452084,-0.06319816976567373,-0.08920601495369822,0.018998417083497785,0.12933974393233888,0.0034411698960920265
1391,5.0,300.70661,507.34087999999997,0.0,0.0,0.0,0.0,0.013863832131094765,0.0,-0.04443103208375146,-0.061190498792282035,-0.04859742834219275,0.012001556319961387,0.12307005628856889,-0.02131041671117438
1392,5.0,299.98552,340.81545,0.0,0.0,0.0,0.0,0.013873798940678585,0.0,-0.04413617326490116,-0.05744431558881254,-0.0020188979871497183,0.07288543651273253,0.15298118910806785,-0.02068716961441468
1393,5.0,301.29154,698.72454,0.0,0.0,0.0,0.0,0.013883765750262405,0.0,-0.1034437463566029,-0.07957433105412502,-0.029376730531257573,0.055556599241759444,0.10814019096760591,-0.030223640428591072
1394,5.0,300.81632,874.0084099999999,0.0,0.0,0.0,0.0,0.013893732559846227,0.0,-0.10397199416373691,-0.09280387455452932,-0.06890085886548535,0.06019882281341124,0.08573187116357692,0.0040246204805991165
1395,5.0,300.1548,247.59089,0.0,0.0,0.0,0.0,0.013903699369430046,0.0,0.017335860107416185,-0.049218559772743656,-0.043378747536899055,0.03436517254282847,0.1080798417916499,-0.016347079997331187
1396,5.0,301.57027999999997,150.21396000000001,0.0,0.0,0.0,0.0,0.013913666179013868,0.0,0.006221670228156045,-0.02248730366257408,-0.029395661082875873,0.02926340560032327,0.12871541975072287,0.016004840590554785
1397,5.0,300.0079,546.18809,0.0,0.0,0.0,0.0,0.013923632988597688,0.0,-0.062438469291197146,-0.03516398852416546,-0.06842508424128003,0.033750754907440166,0.11446551617436689,0.004591548603675566
1398,5.0,298.89814,561.31854,0.0,0.0,0.0,0.0,0.013933599798181508,0.0,-0.08013882079083583,-0.05676589803735795,-0.033722101207862266,0.012753485166170987,0.09346081525686431,0.01019944947385729
1399,5.0,300.85625,352.59529,0.0,0.0,0.0,0.0,0.013943566607765329,0.0,-0.04778278843404405,-0.021335988103948083,-0.03806138630436636,0.03822959088721686,0.1138206230157209,0.0014232012619340285
1400,5.0,300.61472000000003,431.48844,0.0,0.0,0.0,0.0,0.01395353341734915,0.0,-0.046627469524272956,-0.025625470944787076,-0.05890877203784314,0.013934284276206787,0.1285450620114099,0.02408119774562918
1401,5.0,299.44678999999996,440.2877,0.0,0.0,0.0,0.0,0.013963500226932973,0.0,-0.01966315981160278,-0.04620389754521966,-0.06796940743280824,0.04319689548845166,0.13920014675048487,-0.016748015969150484
1402,5.0,299.94493,556.58971,0.0,0.0,0.0,0.0,0.013973467036516793,0.0,-0.051141998252072246,-0.04930367075464345,-0.06874370276172524,0.021763643480904378,0.13503449320436686,-0.009141995831619742
1403,5.0,299.48275,765.95415,0.0,0.0,0.0,0.0,0.013983433846100613,0.0,-0.07633826557375023,-0.07820730164195971,-0.07828536952241442,0.03204238382808707,0.13501140123458788,-0.023118884741406276
1404,5.0,300.6995,630.17472,0.0,0.0,0.0,0.0,0.013993400655684433,0.0,-0.1047714788901399,-0.040535361053278665,-0.04625054352682325,0.030443565349545974,0.13811639470852685,0.014966740531852285
1405,5.0,301.3386,358.78757,0.0,0.0,0.0,0.0,0.014003367465268255,0.0,-0.04636883439649766,-0.03108024814263167,-0.03161337880199758,0.01914859189406888,0.10121980829511731,0.007296522894485744
1406,5.0,300.66123,410.3216,0.0,0.0,0.0,0.0,0.014013334274852077,0.0,-0.05720178100512625,-0.022967783820243778,-0.04455795483102776,0.006552658303172023,0.09150340554143302,0.02037742919134568
1407,5.0,299.27402,631.59559,0.0,0.0,0.0,0.0,0.014023301084435896,0.0,-0.03018329382285917,-0.05192610488170754,-0.1098798907268009,0.03824107405060017,0.08859048071669973,0.033167749038401965
1408,5.0,299.78592000000003,460.00614,0.0,0.0,0.0,0.0,0.014033267894019718,0.0,-0.033845385374029466,-0.04439374144032116,-0.06159125440558354,0.039367743313793765,0.1373684945447149,-0.0026807389696183377
1409,5.0,299.92773,354.78578999999996,0.0,0.0,0.0,0.0,0.014043234703603536,0.0,-0.02497796360088308,-0.03056383307016547,-0.05230422347452495,0.050014890251585356,0.14045600945442888,-0.004205554524455916
1410,5.0,299.30144,560.01224,0.0,0.0,0.0,0.0,0.014053201513187358,0.0,-0.07569584981159873,-0.06239177771333904,-0.03214210891617917,0.030176950877233173,0.14749229172635586,-0.04476797421900505
1411,5.0,300.31777999999997,656.81986,0.0,0.0,0.0,0.0,0.01406316832277118,0.0,-0.07222767305131633,-0.08695916021470092,-0.04047000540857856,0.05019647176225605,0.14802579830150886,-0.026043201537013873
1412,5.0,300.38209,508.64448,0.0,0.0,0.0,0.0,0.014073135132355,0.0,-0.046078928344136155,-0.04520611166824586,-0.06333018004170214,0.027757918601743273,0.14195159699953186,-0.006919748276600983
1413,5.0,299.85205,548.34651,0.0,0.0,0.0,0.0,0.014083101941938821,0.0,-0.02989454692861207,-0.06673051058853864,-0.07005859032374454,0.029754714361811676,0.12244987629986188,0.016659864223700586
1414,5.0,300.32409,397.90927999999997,0.0,0.0,0.0,0.0,0.014093068751522641,0.0,-0.02313595192609068,-0.028347715272951674,-0.06947081913948604,0.004998765814189775,0.1027033138460279,0.017862453277136883
1415,5.0,300.07711,289.25602000000003,0.0,0.0,0.0,0.0,0.014103035561106463,0.0,-0.03046302380446637,-0.0090953747759686,-0.04836821090457075,0.03877728499027007,0.11112301687698789,0.01870831547386698
1416,5.0,298.80602000000005,736.3557099999999,0.0,0.0,0.0,0.0,0.014113002370690285,0.0,-0.10905912774829789,-0.05346528548586285,-0.06130933783026054,0.05550885692354765,0.13942526052520185,0.017293588326494285
1417,5.0,298.98014,824.99855,0.0,0.0,0.0,0.0,0.014122969180274106,0.0,-0.12847753902474587,-0.03381485209551607,-0.08848656583944411,0.048630087419415956,0.13902768145096386,0.02043461702698968
1418,5.0,298.38169,305.43157,0.0,0.0,0.0,0.0,0.014132935989857926,0.0,-0.028847956847321676,-0.02025228875099528,-0.04374332606863016,0.04420998144193546,0.13405280584498186,-0.0016277753425489184
1419,5.0,298.27387999999996,360.47612000000004,0.0,0.0,0.0,0.0,0.014142902799441746,0.0,-0.01096844550475129,-0.03014074643791007,-0.06846654744862213,0.028338207947263373,0.1060208263959409,0.006466948287813103
1420,5.0,299.6006,573.17472,0.0,0.0,0.0,0.0,0.014152869609025568,0.0,-0.032639187123736965,-0.05785091968169124,-0.08374069691506333,0.04983143017522925,0.13768501361095287,0.009656170304139811
1421,5.0,299.85312000000005,474.24317,0.0,0.0,0.0,0.0,0.014162836418609388,0.0,-0.05149881123503695,-0.06443002553499844,-0.028229246071259675,0.014377145497413786,0.1130319699328869,-0.01997343624397468
1422,5.0,301.02692,618.9961900000001,0.0,0.0,0.0,0.0,0.014172803228193209,0.0,-0.07976941513562832,-0.08113269450917353,-0.02725727780683387,0.028372560165403675,0.1122504906607609,-0.01964215311052958
1423,5.0,300.23911,395.63966,0.0,0.0,0.0,0.0,0.014182770037777029,0.0,-0.06908536461594464,-0.038681563253323066,-0.01249764964842199,0.0035213651964566867,0.11792917991870389,0.004735831972865225
1424,5.0,299.30894,79.747295,0.0,0.0,0.0,0.0,0.014192736847360849,0.0,-0.002274971719997228,-0.014808773828012186,-0.007157440538059384,0.03306709885296857,0.14240144964642887,-0.002695524821702588
1425,5.0,299.63852,523.54931,0.0,0.0,0.0,0.0,0.014202703656944671,0.0,-0.03911396165399746,-0.05367046761786275,-0.06636148895511904,0.02406639720141848,0.1132225217466929,0.007507639733646352
1426,5.0,299.71733,791.30293,0.0,0.0,0.0,0.0,0.014212670466528493,0.0,-0.07395577717636694,-0.07484849104447093,-0.09173206467824992,0.04181074098064886,0.1047272505232749,0.0057790712360749254
1427,5.0,300.06194,419.32113,0.0,0.0,0.0,0.0,0.014222637276112313,0.0,-0.03553225123326017,-0.04218939963576956,-0.04974150220235405,0.06955320447861683,0.09446098429807331,-0.012046199106117289
1428,5.0,301.15706,215.29113999999998,0.0,0.0,0.0,0.0,0.014232604085696134,0.0,-0.022472961107408578,-0.033140948573256966,-0.00982922146486863,0.04100374300475436,0.12269753488930388,-0.01016779250098299
1429,5.0,299.98602,488.76927,0.0,0.0,0.0,0.0,0.014242570895279954,0.0,-0.05988955456488884,-0.055833641070851356,-0.03285045787558777,0.026109877446594272,0.13013644222096687,-0.01969566690131098
1430,5.0,300.79107999999997,743.43312,0.0,0.0,0.0,0.0,0.014252537704863776,0.0,-0.07076835074054244,-0.07569798675605963,-0.07951876644514122,0.01222533868404699,0.11880965372559989,-0.008425842515965912
1431,5.0,300.42376,388.93637,0.0,0.0,0.0,0.0,0.014262504514447598,0.0,-0.027080321782869676,-0.04702225608123536,-0.04412436586148586,0.037762981110166065,0.12545456814640188,-0.0036200385309449867
1432,5.0,299.85561,168.16689,0.0,0.0,0.0,0.0,0.014272471324031418,0.0,0.005878222216660364,-0.028596188515474075,-0.02840057045116807,0.04055197227541806,0.13907569937320288,0.007042662302506654
1433,5.0,300.05782,273.64931,0.0,0.0,0.0,0.0,0.014282438133615238,0.0,-0.03808432426013016,-0.008397628161631372,-0.036700604592317665,0.047642874807235655,0.14292098350270285,0.022956837679413478
1434,5.0,299.52691,497.55737999999997,0.0,0.0,0.0,0.0,0.014292404943199059,0.0,-0.086454674135662,-0.05758273568497354,-0.007207610907485812,0.034860872730250264,0.12551676143753987,-0.002109969818062808
1435,5.0,298.58927,717.3362099999999,0.0,0.0,0.0,0.0,0.014302371752782879,0.0,-0.11865781819811488,-0.027192595973450272,-0.07220188178327093,0.038259323698151264,0.13076950061844486,0.031192822255241868
1436,5.0,300.01155,608.78428,0.0,0.0,0.0,0.0,0.0143123385623667,0.0,-0.07828439984206872,-0.02273847822986308,-0.08403234271784651,-0.002264029530842318,0.13357273808010287,0.016922578696378483
1437,5.0,299.59832,306.12618,0.0,0.0,0.0,0.0,0.014322305371950521,0.0,-0.015073798510918088,-0.024969049026503272,-0.05301186822511404,0.0037390176000873065,0.12085587177254588,0.026214853196704576
1438,5.0,300.26056,777.92812,0.0,0.0,0.0,0.0,0.014332272181534341,0.0,-0.054805739374405346,-0.09222216159261873,-0.08944282366106941,0.007722546229505973,0.09560057553979222,-0.016455260657507784
1439,5.0,300.25416,1024.9266,0.0,0.0,0.0,0.0,0.014342238991118162,0.0,-0.12239413741186088,-0.0956489247948139,-0.0935090186038716,0.060921410976475146,0.11138632004797389,0.019262096170270884
1440,5.0,300.07537,372.79421,0.0,0.0,0.0,0.0,0.014352205800701984,0.0,-0.04570906368663336,-0.04801145263711145,-0.01959961585808148,0.05678712258720265,0.12892104872601687,-0.017287303136123984
1441,5.0,300.48494,108.68489,0.0,0.0,0.0,0.0,0.014362172610285806,0.0,-0.001167190350592719,-0.02958335553139987,-0.002286946005703998,0.05906822213982965,0.13190838359834386,-0.013947925662303089
1442,5.0,300.81205,154.68803,0.0,0.0,0.0,0.0,0.014372139419869626,0.0,0.0020353143612948884,-0.04003647318104226,-0.009020138625568372,0.01070667740766679,0.13696691313258186,-0.03547327197143937
1443,5.0,300.29204,290.70376,0.0,0.0,0.0,0.0,0.014382106229453446,0.0,-0.017458537336773484,-0.02007340147234048,-0.05083474637124886,0.01884440205504768,0.14616592708045387,0.018053243204716383
1444,5.0,299.68552999999997,572.77632,0.0,0.0,0.0,0.0,0.014392073039037266,0.0,-0.014182505219454286,-0.07219301179189552,-0.08773418204393961,0.0031655483396652966,0.13795906736549987,-0.02137631849767838
1445,5.0,299.2347,726.91287,0.0,0.0,0.0,0.0,0.014402039848621088,0.0,-0.09495825603640022,-0.06436927511200284,-0.06163583133048295,0.024808512720409577,0.13765560909305088,0.008321117747905383
1446,5.0,299.57018,535.01892,0.0,0.0,0.0,0.0,0.01441200665820491,0.0,-0.06663814574917293,-0.06133893993193204,-0.034655306576462465,0.008953119021554053,0.1046401211471759,-0.01093334145503679
1447,5.0,300.24854,574.81208,0.0,0.0,0.0,0.0,0.01442197346778873,0.0,-0.06685925211974444,-0.05997179500925534,-0.04789747010686225,0.03155590826957567,0.11850891096341888,0.0008352812717658431
1448,5.0,299.84317000000004,787.11923,0.0,0.0,0.0,0.0,0.014431940277372551,0.0,-0.09677284409723609,-0.04682293864081426,-0.0956688098280264,0.042766933954267755,0.13969152238647986,0.022244627223873777
1449,5.0,300.65013999999996,742.58322,0.0,0.0,0.0,0.0,0.01444190708695637,0.0,-0.0865092832498015,-0.037083323340589065,-0.1021341509998559,0.07244324707634184,0.13712214304790185,0.03503935065586467
1450,5.0,301.01171,258.12075,0.0,0.0,0.0,0.0,0.014451873896540192,0.0,-0.017125842745939084,-0.028016777657790676,-0.033319643334392766,0.06724892379020203,0.13837418579896887,-0.012623241998316988
1451,5.0,301.01712000000003,91.194903,0.0,0.0,0.0,0.0,0.014461840706124012,0.0,-0.03413781441913997,0.014934014580122485,-0.008517173637579591,0.04711754414713955,0.12664013155840786,0.02281458445812418
1452,5.0,301.30534,478.34711,0.0,0.0,0.0,0.0,0.014471807515707834,0.0,-0.05798867204603635,-0.04118317743846316,-0.04623372864141376,0.047965848276610656,0.12323009914186389,0.01090330162932209
1453,5.0,299.82137,570.01175,0.0,0.0,0.0,0.0,0.014481774325291654,0.0,-0.05519085749891354,-0.055358551403713645,-0.06271992889072503,0.020156333966525282,0.12357169614807689,0.015776956590064384
1454,5.0,299.55371,567.2699700000001,0.0,0.0,0.0,0.0,0.014491741134875474,0.0,-0.042540889002708866,-0.06003552641404515,-0.06985949073209494,0.018511490628691882,0.12060538621532489,0.003959734578645376
1455,5.0,299.98386,698.05039,0.0,0.0,0.0,0.0,0.014501707944459296,0.0,-0.07232954015011983,-0.05505858884410965,-0.08480175722103182,-0.004571331629730306,0.12281485911838287,0.024973551909947676
1456,5.0,300.05722000000003,646.63188,0.0,0.0,0.0,0.0,0.014511674754043118,0.0,-0.045691526353902556,-0.06163206001361074,-0.08923635774119282,0.03265114246166687,0.13810929182532586,0.013260433442952886
1457,5.0,299.94138,582.75475,0.0,0.0,0.0,0.0,0.014521641563626939,0.0,-0.0911576349580581,-0.05586784839422735,-0.03011741027485697,0.03583304263144597,0.1196258976086569,-0.015115439037027686
1458,5.0,300.06837,728.4137,0.0,0.0,0.0,0.0,0.014531608373210759,0.0,-0.07408798503616483,-0.08512503061243643,-0.06220655964805945,0.06166656827226644,0.10269829825803291,-0.0013964700017708585
1459,5.0,300.18634,364.04138,0.0,0.0,0.0,0.0,0.014541575182794579,0.0,-0.044355724296569164,-0.028879075784392874,-0.03742468932577926,0.024373101927187876,0.1067529603881969,-0.01992201886765018
1460,5.0,301.20212999999995,112.33756000000001,0.0,0.0,0.0,0.0,0.014551541992378401,0.0,0.017142683975851183,-0.03584247598987697,-0.015448022170351086,0.037732785243935967,0.1059705590584799,-0.022322179360027578
1461,5.0,300.91292999999996,378.16252000000003,0.0,0.0,0.0,0.0,0.01456150880196222,0.0,-0.021294370882590778,-0.02971001179389987,-0.06394758169863494,0.02249103647594248,0.14188899840835387,-0.016224033944937485
1462,5.0,300.17877000000004,519.36154,0.0,0.0,0.0,0.0,0.014571475611546042,0.0,-0.03520234004045047,-0.051676417765565356,-0.07099418088308013,0.02410394926337458,0.14505564815087788,-0.007314910749350483
1463,5.0,299.87438,463.82329000000004,0.0,0.0,0.0,0.0,0.01458144242112986,0.0,-0.06789574415053823,-0.05926046101505215,-0.013834493326858186,0.02406573048285268,0.15572027770589486,-0.02016132422326778
1464,5.0,299.28213,579.68606,0.0,0.0,0.0,0.0,0.014591409230713682,0.0,-0.050122515650707154,-0.04659646609771316,-0.07949110471741122,0.03556031724778007,0.14312715963305087,0.02130028623667458
1465,5.0,299.15792000000005,650.5885,0.0,0.0,0.0,0.0,0.014601376040297504,0.0,-0.0933574515876631,-0.05539839746389615,-0.049006809753595545,0.04445839084970155,0.12149190912531788,0.024546712199321873
1466,5.0,299.85046,622.7705599999999,0.0,0.0,0.0,0.0,0.014611342849881324,0.0,-0.04290487782288176,-0.062052661143370845,-0.08434916170611412,0.03412392782651947,0.0989231573799555,0.00996937128027534
1467,5.0,299.93886000000003,610.23893,0.0,0.0,0.0,0.0,0.014621309659465146,0.0,-0.07076479423269143,-0.042502522287672366,-0.07223008053355394,0.040371564108363164,0.096842635750874,0.034540787023660265
1468,5.0,299.74337,542.05204,0.0,0.0,0.0,0.0,0.014631276469048967,0.0,-0.051028449392865854,-0.05911338371003674,-0.054628452017658445,0.024994011455966875,0.1212605739949869,0.017387803360542586
1469,5.0,300.9555,365.66031,0.0,0.0,0.0,0.0,0.014641243278632787,0.0,-0.06738970070609564,-0.03012921159877167,-0.013632691397191886,0.027050579852684373,0.14200099294190688,-0.00098469175738901
1470,5.0,300.38988,322.13036,0.0,0.0,0.0,0.0,0.014651210088216609,0.0,-0.023634016025995776,-0.04118959333809636,-0.03309597749406867,0.026946376199150274,0.13575723436819587,-0.03046393572955637
1471,5.0,300.81073,531.54042,0.0,0.0,0.0,0.0,0.01466117689780043,0.0,-0.07836366943714201,-0.04826418558305425,-0.03494715908226607,0.045438220921653255,0.16553411154944486,-0.003102473723590317
1472,5.0,300.46231,329.91941,0.0,0.0,0.0,0.0,0.014671143707384251,0.0,-0.005651633352447785,-0.024556606586548377,-0.07007902251201102,0.04634633619127725,0.14544223346153087,-0.02641319994352987
1473,5.0,299.34628,232.54351,0.0,0.0,0.0,0.0,0.014681110516968071,0.0,-0.01142440298350079,-0.06382085349537785,0.004557834834423276,0.048943436026091046,0.14489632470515387,-0.014768936887080586
1474,5.0,299.65209,543.34289,0.0,0.0,0.0,0.0,0.014691077326551892,0.0,-0.05869499653174515,-0.056334731748805156,-0.05013294300748625,0.016299365036872085,0.12227056142966489,-0.007490286001833674
1475,5.0,299.47153,687.36813,0.0,0.0,0.0,0.0,0.014701044136135712,0.0,-0.09056615730493382,-0.06928354518975353,-0.049093046456356454,0.02506432898640668,0.14035557610451688,0.005952961063911515
1476,5.0,298.5828,461.08205999999996,0.0,0.0,0.0,0.0,0.014711010945719532,0.0,-0.023202482940906776,-0.08583518011727272,-0.031119769962782172,-0.010679238594958791,0.12280475701488587,-0.006197889653609084
1477,5.0,299.72246,690.17934,0.0,0.0,0.0,0.0,0.014720977755303354,0.0,-0.0888826199722816,-0.056101409635028035,-0.06481325597457034,0.02063724070248708,0.13788747111343386,0.006785406208117454
1478,5.0,299.90744,682.60077,0.0,0.0,0.0,0.0,0.014730944564887173,0.0,-0.043524174257501554,-0.07054084468233933,-0.093428570598932,0.021390559727833876,0.11763603653227289,-0.015971027421467686
1479,5.0,299.92082999999997,390.67917,0.0,0.0,0.0,0.0,0.014740911374470995,0.0,-0.03462636815360647,-0.04824505947416666,-0.035885283780101765,0.04028031688385776,0.15050078326077085,-0.014651881169278087
1480,5.0,300.19912999999997,413.06215,0.0,0.0,0.0,0.0,0.014750878184054817,0.0,-0.04165680194595626,-0.029190496176127675,-0.05471328232928054,0.06585584270471564,0.14074448175789886,-0.01015544807501469
1481,5.0,299.00507999999996,477.61498,0.0,0.0,0.0,0.0,0.014760844993638637,0.0,-0.05175236896656115,-0.05984755028199335,-0.03358310761214467,0.05789220253051554,0.15436778133991386,0.0018073771651742382
1482,5.0,300.09311,237.65221,0.0,0.0,0.0,0.0,0.014770811803222459,0.0,-0.014972145207885685,-0.014571807053625385,-0.04269638540280516,0.051261689433384855,0.14862105233775585,-0.0008979933976175481
1483,5.0,300.75813,320.53905,0.0,0.0,0.0,0.0,0.014780778612806278,0.0,-0.061944177521414345,-0.01928544753207548,-0.016206244312931786,0.04114899139333926,0.15461915855722283,0.024929513020851373
1484,5.0,299.80568,663.6523,0.0,0.0,0.0,0.0,0.0147907454223901,0.0,-0.048044186694842055,-0.06769079303956113,-0.08599874806766561,0.02714909714665727,0.1145565364308499,0.014224230858572285
1485,5.0,300.57217,669.77868,0.0,0.0,0.0,0.0,0.014800712231973922,0.0,-0.08852169116741072,-0.04559161584104216,-0.06948268936440752,0.019531060369565582,0.1089028136553709,0.010619264321539791
1486,5.0,300.58916,611.25975,0.0,0.0,0.0,0.0,0.014810679041557742,0.0,-0.058973535944484845,-0.05978385535420714,-0.06705031055860043,0.023739097154116477,0.0997378469373591,0.0006588864667670314
1487,5.0,299.48188999999996,760.09604,0.0,0.0,0.0,0.0,0.014820645851141564,0.0,-0.09770100854658882,-0.05807032277884464,-0.07527888523644753,0.04719055185659486,0.13074905323142688,0.004324908597460246
1488,5.0,299.24731,566.41972,0.0,0.0,0.0,0.0,0.014830612660725384,0.0,-0.06232766127351124,-0.035188394679324164,-0.07466139745325623,0.03643825184992547,0.1043498148610249,0.01160783975510459
1489,5.0,298.65146,177.38814,0.0,0.0,0.0,0.0,0.014840579470309203,0.0,-0.02680832593927577,-0.018546566307403586,-0.00856667222218972,0.02628456986983508,0.13384656891962787,-0.007064718528033433
1490,5.0,298.92954,328.46412000000004,0.0,0.0,0.0,0.0,0.014850546279893025,0.0,-0.006193800277530494,-0.022165845002098578,-0.07148524443804434,0.044917065865219256,0.13946933690455188,-0.0016611644664691685
1491,5.0,300.00158,421.1778,0.0,0.0,0.0,0.0,0.014860513089476845,0.0,-0.06946567385547824,-0.030440284445722176,-0.028121575075883375,0.02034577931122208,0.15272192880498087,-0.004275146162524076
1492,5.0,300.06425,196.57885,0.0,0.0,0.0,0.0,0.014870479899060667,0.0,0.012824781496207386,-0.04911990670325736,-0.023459935605815375,0.03801409386919896,0.1163066625335739,-0.01984963836000678
1493,5.0,300.13818,347.09831,0.0,0.0,0.0,0.0,0.014880446708644485,0.0,-0.04317676119571456,-0.03377848756267717,-0.02855396841030727,0.008058756899512381,0.11325209851711189,-0.02043383783766278
1494,5.0,300.66265,733.3539999999999,0.0,0.0,0.0,0.0,0.014890413518228307,0.0,-0.04870369497293045,-0.08707674282255541,-0.08714086736838401,0.048098997445751454,0.1195302771967199,0.009203200494635171
1495,5.0,300.74917999999997,661.7513,0.0,0.0,0.0,0.0,0.01490038032781213,0.0,-0.1004418561465894,-0.05421267902462485,-0.04650133609882455,0.017420950824313983,0.1203927050193349,0.01264194963491329
1496,5.0,301.19707,699.23639,0.0,0.0,0.0,0.0,0.01491034713739595,0.0,-0.038872212339138665,-0.07032428071196614,-0.1033539116027369,0.053284571317277755,0.14271346988222286,0.005668916460728495
1497,5.0,301.1413,639.2053599999999,0.0,0.0,0.0,0.0,0.014920313946979772,0.0,-0.1034094174432149,-0.05856885297379574,-0.03232419806514997,0.023098468765141378,0.1302094164931689,-0.005710631055420404
1498,5.0,301.24663,461.40964,0.0,0.0,0.0,0.0,0.01493028075656359,0.0,-0.02632394476872108,-0.023740005026206077,-0.09019305936636192,0.06120264766098104,0.12840711814279587,0.00937050804717214
1499,5.0,300.64497,518.9058200000001,0.0,0.0,0.0,0.0,0.014940247566147412,0.0,-0.06580956858589873,-0.04133028716748176,-0.050594555435043854,0.017105135966895484,0.12467924943488387,-0.0034619132534642366
1500,5.0,299.83457999999996,455.82464000000004,0.0,0.0,0.0,0.0,0.014950214375731234,0.0,-0.05774263364350424,-0.004436049670454016,-0.07638062550743083,0.026375093633769078,0.09000368089617172,0.025539623330064577
1501,5.0,300.14338,328.9581,0.0,0.0,0.0,0.0,0.014960181185315054,0.0,-0.05706045186792815,-0.006980336984880623,-0.03595425976740917,0.04172537769947417,0.13409752057189486,0.013629065988334087
1502,5.0,300.36357999999996,392.99658999999997,0.0,0.0,0.0,0.0,0.014970147994898875,0.0,-0.024517760604214577,-0.042620232565039454,-0.05232315706589355,0.03953446551174796,0.14737293086457587,0.002319715425863088
1503,5.0,298.54436,730.28363,0.0,0.0,0.0,0.0,0.014980114804482693,0.0,-0.1019082671550629,-0.06542796542598743,-0.054651758796458644,0.06506342945076053,0.16728640600738284,0.008931290068024702
1504,5.0,299.68748,766.5384799999999,0.0,0.0,0.0,0.0,0.014990081614066515,0.0,-0.06168678159851135,-0.09380844110117231,-0.07751333576772063,0.01730870703123638,0.14300125317562487,0.001135405809530829
1505,5.0,300.0267,459.20610999999997,0.0,0.0,0.0,0.0,0.015000048423650337,0.0,-0.035016702489629466,-0.08084676951645492,-0.023723719057348776,0.047598247219831254,0.1332142704597249,-0.012123985303044189
1506,5.0,299.39862,483.05949000000004,0.0,0.0,0.0,0.0,0.015010015233234157,0.0,-0.03305932722470157,-0.03983715878037146,-0.07394153594621142,0.017029832232713583,0.12598664603891388,0.011990764193146288
1507,5.0,301.59587,554.32663,0.0,0.0,0.0,0.0,0.01501998204281798,0.0,-0.07770784128341683,-0.05009251635499645,-0.04070109533238536,0.03207232840829237,0.14762170402912786,0.0014238857123765785
1508,5.0,301.05809,300.82157,0.0,0.0,0.0,0.0,0.015029948852401798,0.0,-0.025404410170470078,-0.02689188867502277,-0.03914594793315426,0.023965496743210378,0.12879053198063586,-0.004126597618363476
1509,5.0,300.07099,333.65339,0.0,0.0,0.0,0.0,0.01503991566198562,0.0,-0.050468013669805155,-0.03878996176227117,-0.012164324816025389,0.025921009654454475,0.14449487501553387,-0.023952170477895177
1510,5.0,300.7047,534.73722,0.0,0.0,0.0,0.0,0.015049882471569442,0.0,-0.02414560498823568,-0.06851285905769273,-0.06988830047218823,0.03992966750125136,0.14957197742410486,-0.020389925604828982
1511,5.0,299.75647000000004,326.38799,0.0,0.0,0.0,0.0,0.015059849281153262,0.0,-0.033962641715351766,-0.03201828367445857,-0.033232872648829175,0.04133490860118786,0.15109358523177585,-0.019508170036556482
1512,5.0,298.98555,433.73849,0.0,0.0,0.0,0.0,0.015069816090737084,0.0,-0.02138553299408778,-0.06705718242077864,-0.04340295610828825,0.04989777981827745,0.13762220223725388,-0.0007511398790192343
1513,5.0,300.2331,718.46887,0.0,0.0,0.0,0.0,0.015079782900320903,0.0,-0.06964918054133894,-0.06278826247746903,-0.08595915329350792,0.058548051962492846,0.13301364693992487,0.0051557224090051845
1514,5.0,298.93186000000003,641.00917,0.0,0.0,0.0,0.0,0.015089749709904725,0.0,-0.07319834739536442,-0.07015276178803853,-0.05149967148437185,0.05462299161286954,0.13290431725413487,0.03337404574551187
1515,5.0,300.6962,677.98785,0.0,0.0,0.0,0.0,0.015099716519488547,0.0,-0.07617726519911072,-0.07798590750835983,-0.05192820433591475,0.046668475755819956,0.14968268513003086,0.017344404845509483
1516,5.0,301.09055,771.63487,0.0,0.0,0.0,0.0,0.015109683329072365,0.0,-0.08479314763493212,-0.07426971245484994,-0.07549487165426373,0.01155274630741729,0.1248994793441189,0.019132446766975484
1517,5.0,300.50822,575.0215,0.0,0.0,0.0,0.0,0.015119650138656187,0.0,-0.05690331805567025,-0.05145432043639605,-0.06643454023432864,0.027921621314399476,0.13917230263773686,0.03064995426241497
1518,5.0,300.46429,427.91972000000004,0.0,0.0,0.0,0.0,0.015129616948240006,0.0,-0.054385181814399546,-0.011508535165803989,-0.06418319274438794,0.03032160550125947,0.1166754551724709,0.007924805236292382
1519,5.0,300.54603,510.51270999999997,0.0,0.0,0.0,0.0,0.015139583757823828,0.0,-0.07013975672300503,-0.026183490066359276,-0.058859869548266844,0.040332516489259465,0.1090535244752449,0.010025855211074871
1520,5.0,299.2405,361.00869,0.0,0.0,0.0,0.0,0.01514955056740765,0.0,-0.08054125333305283,-0.020569189812520983,-0.008627184024786773,0.04451848367338226,0.10981945035833589,-0.006059090399260665
1521,5.0,299.24426,322.3448,0.0,0.0,0.0,0.0,0.01515951737699147,0.0,-0.04395569822333966,-0.04280036715456736,-0.011228703859186789,0.05867729099949775,0.10856048710908589,-0.02728624054769227
1522,5.0,299.90902,428.10003,0.0,0.0,0.0,0.0,0.015169484186575292,0.0,-0.01032685756793149,-0.06152080920563115,-0.05828405471518835,0.04532179848516325,0.13635931771011686,-0.017841277363296982
1523,5.0,301.31152000000003,556.7076900000001,0.0,0.0,0.0,0.0,0.01517945099615911,0.0,-0.05608548235670615,-0.06858990862179694,-0.04454984579047746,0.017205989815598982,0.1325388784730689,0.0012174799795559188
1524,5.0,300.19292,438.44542,0.0,0.0,0.0,0.0,0.015189417805742933,0.0,0.008032748390645543,-0.05777053652475804,-0.08353867207037502,0.02296604001682168,0.12473084412997587,-0.015364507057358787
1525,5.0,299.52053,303.47405,0.0,0.0,0.0,0.0,0.015199384615326755,0.0,-0.03986607288522506,-0.03478637351664777,-0.017596088064348682,0.016749873256583784,0.12459131959120588,0.006174375665163433
1526,5.0,299.1971,394.78298,0.0,0.0,0.0,0.0,0.015209351424910575,0.0,-0.037347677251928765,-0.04108081486036076,-0.04157567607669976,0.05918693350829554,0.14658039703385886,-0.0013365139668536589
1527,5.0,299.62331,456.61610999999994,0.0,0.0,0.0,0.0,0.015219318234494397,0.0,-0.05797156838434835,-0.038721302922245064,-0.04210702341588966,0.03227389729043567,0.13522953371611587,-0.0032361691358600273
1528,5.0,299.51763,424.45221,0.0,0.0,0.0,0.0,0.015229285044078215,0.0,-0.015910408720985085,-0.06934018485709344,-0.04377228070348775,0.029074043342134672,0.13847329179124987,-0.03788406956336656
1529,5.0,300.48455,464.29542000000004,0.0,0.0,0.0,0.0,0.015239251853662037,0.0,-0.05942844470938085,-0.039274827266373664,-0.04243094123435786,0.011595431494379988,0.14344114557403886,0.007248423608263713
1530,5.0,299.8326,378.6937,0.0,0.0,0.0,0.0,0.015249218663245856,0.0,-0.013447894843953884,-0.052142077114022356,-0.049523457873584746,0.033416519163203665,0.16287457321696883,-0.024830168914796877
1531,5.0,301.37059,539.26487,0.0,0.0,0.0,0.0,0.015259185472829678,0.0,-0.08360625483879493,-0.04317285612982916,-0.03714394305432176,0.03653825051554457,0.12963954437192687,0.015857198905233683
1532,5.0,301.30138999999997,813.43678,0.0,0.0,0.0,0.0,0.0152691522824135,0.0,-0.09024264579975573,-0.07224488411751492,-0.08477694069958262,0.042325676707969065,0.1035222225768479,-0.01118704408132529
1533,5.0,300.77723,690.34088,0.0,0.0,0.0,0.0,0.015279119091997318,0.0,-0.07500160428033203,-0.058390822904725546,-0.07645396150991852,0.03938980582147116,0.12263713505084288,0.017197320447743383
1534,5.0,299.7828,538.93971,0.0,0.0,0.0,0.0,0.01528908590158114,0.0,-0.015705879122049585,-0.07228599674032243,-0.07583233763981902,0.03982736369165476,0.15823720108679584,0.0018692969801102483
1535,5.0,299.41912,648.62311,0.0,0.0,0.0,0.0,0.015299052711164962,0.0,-0.07486265526761883,-0.03815232955384176,-0.08415024551273262,0.04327223468638705,0.15183210269966185,0.030404749764715175
1536,5.0,299.25919,653.54894,0.0,0.0,0.0,0.0,0.015309019520748783,0.0,-0.049482343224277046,-0.049511242130379156,-0.09966897430156191,0.03370658024283047,0.15914849796173383,0.021475925035508776
1537,5.0,299.08856000000003,422.17395999999997,0.0,0.0,0.0,0.0,0.015318986330332605,0.0,-0.08462515279485232,-0.011733509112007188,-0.031971680249359175,0.042708153289466554,0.13518062413378887,0.03088689063929877
1538,5.0,300.22058,428.9362,0.0,0.0,0.0,0.0,0.015328953139916423,0.0,-0.027740979086571475,-0.05698013659875165,-0.04566477857776275,0.025770732505623273,0.12309336104086889,0.002457289964815638
1539,5.0,300.65052000000003,599.9459400000001,0.0,0.0,0.0,0.0,0.015338919949500245,0.0,-0.09006856943257573,-0.050336974087372546,-0.04196304158992976,0.03432378228949357,0.1023272663364149,-0.01249988487814259
1540,5.0,300.4327,704.3007,0.0,0.0,0.0,0.0,0.015348886759084067,0.0,-0.057414500704620036,-0.08828404348895673,-0.06839128323119413,0.004178261721087326,0.11413493319674088,-0.03233584030879897
1541,5.0,301.25515,570.5013,0.0,0.0,0.0,0.0,0.015358853568667888,0.0,-0.059800759405625445,-0.04854289522181075,-0.06507449515510264,0.027640293437384573,0.15362436987404487,-0.005999759438330155
1542,5.0,300.99112,599.39645,0.0,0.0,0.0,0.0,0.015368820378251708,0.0,-0.044724817870745864,-0.062037823108906445,-0.07543891390424114,-0.0037672796785015563,0.16656880202156082,-0.00991790465999598
1543,5.0,300.84946,514.50546,0.0,0.0,0.0,0.0,0.015378787187835528,0.0,-0.06283183324501915,-0.05911925042811575,-0.03444572795227867,0.04521480434085375,0.15953459691233884,0.018156944286200884
1544,5.0,300.93755,285.60474,0.0,0.0,0.0,0.0,0.015388753997419348,0.0,-0.007074188566118053,-0.06713052855576734,-0.012611991882456687,0.03679013030490317,0.13569516266706988,-0.04012854620437917
1545,5.0,300.1305,322.88586000000004,0.0,0.0,0.0,0.0,0.015398720807003169,0.0,-0.030583068610063872,-0.027423880441276274,-0.040142289928735565,0.07136327648375702,0.13720867460644187,0.008757758120123431
1546,5.0,300.20738,427.13979000000006,0.0,0.0,0.0,0.0,0.015408687616586989,0.0,-0.029106992208886472,-0.05824954037703204,-0.042483298906775165,0.04098102087126186,0.12831870193906986,-0.024828675384149478
1547,5.0,300.44506,425.00775999999996,0.0,0.0,0.0,0.0,0.015418654426170813,0.0,-0.05331981924850645,-0.02151804888191608,-0.05435387846581015,0.03835681254327267,0.11628799846673188,0.02288606823942908
1548,5.0,299.83685,552.9119099999999,0.0,0.0,0.0,0.0,0.015428621235754631,0.0,-0.048386768580152256,-0.05760434425660615,-0.06208030260609884,0.02237382877062498,0.13250876468009687,-0.022505956583664978
1549,5.0,299.57398,648.11224,0.0,0.0,0.0,0.0,0.015438588045338455,0.0,-0.09782175350800541,-0.04854245040501686,-0.050645734697594855,0.05206042334146375,0.13789914375458587,0.020746515672771682
1550,5.0,299.35053,522.16418,0.0,0.0,0.0,0.0,0.015448554854922275,0.0,-0.049238264447438354,-0.04266368072932746,-0.06682292609040934,0.029914153318047074,0.16494876709917583,-0.00955590039146894
1551,5.0,299.10547,677.686,0.0,0.0,0.0,0.0,0.015458521664506094,0.0,-0.09788285552878571,-0.07360355624285543,-0.03451321243543887,0.028142663850214678,0.100256852890331,-0.0007574047334600272
1552,5.0,300.08657,662.17744,0.0,0.0,0.0,0.0,0.015468488474089917,0.0,-0.06254379258609175,-0.04950475631648905,-0.08923685929999232,0.03192501906900407,0.11585920115691288,0.004948621687940935
1553,5.0,300.12,291.88772,0.0,0.0,0.0,0.0,0.015478455283673736,0.0,-0.026923455468638176,-0.01963973650904108,-0.042163387479202355,0.052357370468770155,0.12333261978698189,0.024095456201036376
1554,5.0,300.29427000000004,167.16345,0.0,0.0,0.0,0.0,0.015488422093257558,0.0,0.006503370373257683,-0.01401201879737859,-0.04330486640585755,0.06296936573409254,0.13496667637517387,0.021087010262875877
1555,5.0,300.38875,636.22755,0.0,0.0,0.0,0.0,0.01549838890284138,0.0,-0.08099141603448042,-0.03736705971309166,-0.07503881285050423,0.03315736727787737,0.14312340047517985,0.03278524205940147
1556,5.0,300.73651,800.53202,0.0,0.0,0.0,0.0,0.015508355712425198,0.0,-0.07326038667248723,-0.08551444187761832,-0.08456691827185502,0.02993690483579247,0.12538881834741286,-0.013219982472460687
1557,5.0,299.91761,555.12023,0.0,0.0,0.0,0.0,0.01551832252200902,0.0,-0.06287322856460453,-0.07330849376073503,-0.032560967255767265,0.03895437577649757,0.12243527536592089,-0.002334994426771008
1558,5.0,300.32743,483.78677000000005,0.0,0.0,0.0,0.0,0.015528289331592839,0.0,-0.047010224749547955,-0.044985897971012455,-0.05506297419054245,0.035079008251528564,0.13470108325896185,-0.009218013603147111
1559,5.0,300.02952999999997,621.02931,0.0,0.0,0.0,0.0,0.015538256141176663,0.0,-0.056975084533753044,-0.08666668456008582,-0.04513563303104016,0.01871928390619948,0.0986199118900275,-0.0044110700157387155
1560,5.0,299.34006,599.09222,0.0,0.0,0.0,0.0,0.015548222950760481,0.0,-0.06170732727078904,-0.06394241614962515,-0.05645933212685225,0.015833435150638384,0.11640647780092489,-0.016146099813495986
1561,5.0,299.74596,414.3294,0.0,0.0,0.0,0.0,0.015558189760344301,0.0,-0.06034606223844265,-0.028475313858044672,-0.03712441468514446,0.02357065141774218,0.15336146187059785,0.0020708989955318183
1562,5.0,300.65779,236.59412999999998,0.0,0.0,0.0,0.0,0.015568156569928125,0.0,-0.00027215502518460977,-0.04059123976979346,-0.031055314084170872,0.07424275797568973,0.16066396547379883,-0.013473896868020087
1563,5.0,300.77178,295.814,0.0,0.0,0.0,0.0,0.015578123379511944,0.0,-0.031028228895747773,-0.03794443596457426,-0.02094740466409788,0.022783583058064577,0.13248083950734085,0.00032579621190108267
1564,5.0,300.87563,714.3840799999999,0.0,0.0,0.0,0.0,0.015588090189095767,0.0,-0.050083598740866354,-0.07219714990530393,-0.0948741755298521,0.03133324048060007,0.12371693541741088,-0.014305347608577886
1565,5.0,300.81756,871.91761,0.0,0.0,0.0,0.0,0.015598056998679586,0.0,-0.07578343312374253,-0.1022882967375689,-0.08696944976946641,0.034828944206349174,0.12383742098680188,-0.00024919349109098275
1566,5.0,301.34917,444.48152000000005,0.0,0.0,0.0,0.0,0.015608023808263406,0.0,-0.017877043065326784,-0.04691059997321575,-0.07032363831140273,0.05469279745200885,0.15384903781871784,0.017509915196344084
1567,5.0,300.64967,285.06506,0.0,0.0,0.0,0.0,0.01561799061784723,0.0,-0.04158293196066586,-0.04295167072574987,-0.0021180572763859784,0.048203584107823355,0.11460466581059989,0.0005400147312078045
1568,5.0,300.1673,659.34919,0.0,0.0,0.0,0.0,0.01562795742743105,0.0,-0.08425273272059733,-0.05864956949001184,-0.05752338760011634,0.014374412761894089,0.13854956925877787,0.014938395873554885
1569,5.0,299.82959,503.29035,0.0,0.0,0.0,0.0,0.01563792423701487,0.0,-0.099040121905249,-0.03071411427199707,-0.023233464075964376,0.027322833061803675,0.14923585196843187,-0.009115039629934372
1570,5.0,300.04933,329.78394,0.0,0.0,0.0,0.0,0.01564789104659869,0.0,-0.03498497458924817,-0.03835033584863347,-0.026910771603886375,0.02028747386071778,0.15496060357592087,-0.01016148400586039
1571,5.0,300.2996,417.89398,0.0,0.0,0.0,0.0,0.01565785785618251,0.0,-0.035370591232805566,-0.03652318855280806,-0.055135557348205855,0.04009913155397617,0.12248337434816789,-0.02101038322406338
1572,5.0,299.58429,462.53104,0.0,0.0,0.0,0.0,0.01566782466576633,0.0,-0.03983948925560146,-0.04293216262157456,-0.05782623488275505,0.023100133535055682,0.12712431311869288,0.012814475729440288
1573,5.0,298.76183,542.5940400000001,0.0,0.0,0.0,0.0,0.01567779147535015,0.0,-0.04471764203353766,-0.04758285392431205,-0.07263454362897134,0.04136467484937557,0.15641272269173384,-0.018054923173382184
1574,5.0,299.82403999999997,582.24451,0.0,0.0,0.0,0.0,0.015687758284933975,0.0,-0.039841230019273255,-0.03489611559522847,-0.10225044171383289,0.024833037425829978,0.16917900520666784,0.023462564989824877
1575,5.0,301.13219,338.53805,0.0,0.0,0.0,0.0,0.015697725094517796,0.0,-0.05069900429510216,-0.029555063562107672,-0.02265304604768158,0.022595627191014777,0.13862824812904287,-0.0092817226151097
1576,5.0,300.5472,289.01971000000003,0.0,0.0,0.0,0.0,0.015707691904101612,0.0,-0.012645908403053989,-0.037894955922440965,-0.037313911705596364,0.015613036028636685,0.13875875474192287,-0.003155725487895857
1577,5.0,301.14049,532.90383,0.0,0.0,0.0,0.0,0.015717658713685436,0.0,-0.07744837731705972,-0.04098629585128246,-0.04355478555627266,0.035750893379588464,0.13347234526019489,-0.004899212573314635
1578,5.0,299.96935,699.32783,0.0,0.0,0.0,0.0,0.015727625523269256,0.0,-0.06132496822630314,-0.07643332160538154,-0.07481990725914993,0.04948481352802085,0.12807735589775088,0.004571809681127486
1579,5.0,300.97362000000004,672.32145,0.0,0.0,0.0,0.0,0.01573759233285308,0.0,-0.07492014910479303,-0.07670279952247692,-0.052745985319373453,0.030679552311086072,0.11624368903985888,0.0015296007297598386
1580,5.0,300.35008999999997,683.35001,0.0,0.0,0.0,0.0,0.0157475591424369,0.0,-0.053425051350892046,-0.07445330222721884,-0.07984298722538934,0.059233811524172036,0.13217025808668886,-0.006502515291498294
1581,5.0,299.59807,682.53539,0.0,0.0,0.0,0.0,0.015757525952020717,0.0,-0.08374680883966652,-0.06913040763589003,-0.05459649714925475,0.03822131668690026,0.14964167889848387,-0.002542685973968568
1582,5.0,299.33801,565.6029599999999,0.0,0.0,0.0,0.0,0.01576749276160454,0.0,-0.02338476866039698,-0.05200676769566835,-0.09653764139127341,0.030882972401162074,0.16373440711932785,-0.0064125109195655545
1583,5.0,299.59047999999996,369.23905,0.0,0.0,0.0,0.0,0.01577745957118836,0.0,-0.03301951662827257,-0.03092511144632087,-0.04829482322632795,0.03424444176691326,0.12422636717018788,-0.023807771192894078
1584,5.0,299.66396000000003,253.94142999999997,0.0,0.0,0.0,0.0,0.01578742638077218,0.0,-0.02137576019687328,-0.014267779334620185,-0.04154831528424946,0.030017161336463174,0.12404313102210388,-0.0026227970732499175
1585,5.0,300.87171,224.71501,0.0,0.0,0.0,0.0,0.015797393190356,0.0,-0.028993111003647272,-0.008407425580823302,-0.030907215423054673,0.06362102639015645,0.1151634732407499,0.008649291824743643
1586,5.0,300.7074,326.26732999999996,0.0,0.0,0.0,0.0,0.015807359999939822,0.0,-0.057181325512107445,-0.013720037608812286,-0.028275758303850075,0.05417352501426065,0.12786924445971187,0.024801396664957277
1587,5.0,299.87799,741.61063,0.0,0.0,0.0,0.0,0.015817326809523646,0.0,-0.0877348193782525,-0.056106844708564446,-0.08158944941575172,0.03854062725716376,0.14015849896006685,0.02078774887234108
1588,5.0,299.75312,975.2420699999999,0.0,0.0,0.0,0.0,0.015827293619107466,0.0,-0.0934232976454116,-0.09255564449203091,-0.1104702912950689,0.029607721156554575,0.13958438132090586,-0.0026533394710142174
1589,5.0,298.58097999999995,686.4830099999999,0.0,0.0,0.0,0.0,0.015837260428691286,0.0,-0.07351705204206813,-0.07985891551696132,-0.05529772600021065,0.03367151165686947,0.14826480373509687,-0.012710868880215088
1590,5.0,298.75808,493.10177999999996,0.0,0.0,0.0,0.0,0.015847227238275106,0.0,-0.05356557698076086,-0.08006223934827782,-0.016262812039514584,0.03267535001980597,0.15290918755596186,-0.007185287487907663
1591,5.0,298.98003,585.56194,0.0,0.0,0.0,0.0,0.015857194047858927,0.0,-0.06027051025798624,-0.06017607433541614,-0.057549625711455846,0.035600853331280664,0.09295343938854021,-0.0016865566153001785
1592,5.0,298.74487999999997,320.15522000000004,0.0,0.0,0.0,0.0,0.01586716085744275,0.0,-0.05196507549380365,-0.011915698572737887,-0.03343841752436487,0.03268134643389777,0.11156039641515389,-0.012045989363346589
1593,5.0,300.1647,29.76728,0.0,0.0,0.0,0.0,0.01587712766702657,0.0,0.00934875610065039,0.009189675024350311,-0.027586940753369073,0.03133079145510837,0.1260426179744379,-0.0036963707139783864
1594,5.0,299.86206,36.29753,0.0,0.0,0.0,0.0,0.01588709447661039,0.0,0.011185753200697889,0.02366164431647248,-0.045880940287846256,0.06136703634395494,0.15961049947732983,-0.00997436082774277
1595,5.0,300.25925,463.41747999999995,0.0,0.0,0.0,0.0,0.01589706128619421,0.0,-0.03138640773984727,-0.04950590027585195,-0.05997503335657495,0.026527617158071976,0.16211722956222485,-0.017184106653189285
1596,5.0,299.93816,896.81613,0.0,0.0,0.0,0.0,0.01590702809577803,0.0,-0.09133146307896362,-0.0872145468626556,-0.09406369906636432,0.04354242593155286,0.14216604125069587,-0.019909196187634683
1597,5.0,300.65221,1023.8186,0.0,0.0,0.0,0.0,0.015916994905361852,0.0,-0.1113419396935939,-0.12179082803731889,-0.07808251381264412,0.04117819427447136,0.13493974418751586,0.016740525011161182
1598,5.0,299.62495,635.1465900000001,0.0,0.0,0.0,0.0,0.015926961714945672,0.0,-0.07504961409657022,-0.07686355773034252,-0.04115552989623456,0.05832077084581194,0.13980313188499485,0.0069707436342588336
1599,5.0,300.87025,495.06223,0.0,0.0,0.0,0.0,0.015936928524529496,0.0,-0.03217830727600167,-0.06258177223959004,-0.05572647467402485,0.04846903334252115,0.13792423182706187,0.02069457140639518
1600,5.0,301.32349,697.56533,0.0,0.0,0.0,0.0,0.015946895334113316,0.0,-0.06454668000576134,-0.08963386994092423,-0.05786189216702414,0.02393793228748998,0.13337714028079886,0.016877979479976882
1601,5.0,301.21155,608.7031599999999,0.0,0.0,0.0,0.0,0.015956862143697133,0.0,-0.06993514201106114,-0.04826016703315766,-0.06683525126462574,0.016474643118670685,0.15379191077807985,0.007296238576507683
1602,5.0,300.6666,229.93537,0.0,0.0,0.0,0.0,0.015966828953280957,0.0,-0.02130004001690028,-0.023432133036321478,-0.025162438953839374,0.01996616516125708,0.14804877881377687,0.004379234305546776
1603,5.0,299.84861,49.267610999999995,0.0,0.0,0.0,0.0,0.015976795762864777,0.0,-0.012477236711907388,0.016024255475720884,-0.018523140978341682,0.049027714116408654,0.15032048553797686,-0.003568275535011377
1604,5.0,299.96018,541.4003299999999,0.0,0.0,0.0,0.0,0.0159867625724486,0.0,-0.06854726295158814,-0.03045681866085397,-0.06556809994131764,0.04467288576337056,0.14751352944845186,0.023140107264750773
1605,5.0,299.9541,1015.4393,0.0,0.0,0.0,0.0,0.01599672938203242,0.0,-0.1020568704147289,-0.09652460998173731,-0.11008671533721288,0.029674005951596374,0.13900101270833187,-0.026118679550212975
1606,5.0,300.70759,917.5795400000001,0.0,0.0,0.0,0.0,0.016006696191616238,0.0,-0.08951045607874422,-0.07733892705450783,-0.1120718850656339,0.04193381439079526,0.14173096179025685,0.004792393113322376
1607,5.0,299.64673999999997,550.5591400000001,0.0,0.0,0.0,0.0,0.01601666300120006,0.0,-0.030779102106910868,-0.08414675891913852,-0.05243037108547474,0.027121249994158977,0.13524637393277789,-0.03678413591731156
1608,5.0,300.59756,463.42194000000006,0.0,0.0,0.0,0.0,0.01602662981078388,0.0,-0.022700627259127477,-0.08376882473783932,-0.034399246117191265,0.033751046723468965,0.14719628084214184,0.004140246198535486
1609,5.0,300.8904,583.9859,0.0,0.0,0.0,0.0,0.016036596620367702,0.0,-0.07579716975534823,-0.08342147247105831,-0.01829848924567028,0.01188350964356109,0.14335444176298187,-0.004818688371967516
1610,5.0,300.16927000000004,540.62555,0.0,0.0,0.0,0.0,0.016046563429951522,0.0,-0.05761760364741474,-0.05721474351365554,-0.04950432163219616,0.02375644298257838,0.13608117042516588,0.024067935315070278
1611,5.0,299.27452999999997,182.81975,0.0,0.0,0.0,0.0,0.016056530239535342,0.0,0.0026721858215492077,-0.04102022149113066,-0.017224604233186086,0.03790054500999256,0.15808263991654184,-0.016655703818789985
1612,5.0,299.6234,167.21212,0.0,0.0,0.0,0.0,0.016066497049119166,0.0,-0.006057962043949304,-0.018693258577380984,-0.026077089686608376,0.04253764660238886,0.14577228954910484,0.006408127700957964
1613,5.0,299.77121,564.08633,0.0,0.0,0.0,0.0,0.016076463858702983,0.0,-0.046471430022123054,-0.06008018845195294,-0.06491654061026374,0.036921461703364564,0.15842030551236685,-0.027777700283445575
1614,5.0,299.29292000000004,762.55925,0.0,0.0,0.0,0.0,0.016086430668286807,0.0,-0.08386857009093342,-0.06379155840848663,-0.08413884442260743,0.03042156161037437,0.12609195312180688,-0.0008761592157176823
1615,5.0,300.77878,606.7654,0.0,0.0,0.0,0.0,0.016096397477870627,0.0,-0.07274323496719834,-0.05455484446414395,-0.05714345123661954,0.04564966493927116,0.12966800656723587,-0.004019888703957126
1616,5.0,301.11667,457.14585999999997,0.0,0.0,0.0,0.0,0.016106364287454447,0.0,-0.06167843951043804,-0.03817862136743656,-0.03910386461675096,0.05891382612934195,0.11771946754550688,0.013313738504213687
1617,5.0,300.93698,463.69255,0.0,0.0,0.0,0.0,0.01611633109703827,0.0,-0.041387041332082965,-0.040037785339921764,-0.059526131138271744,0.05014344331827255,0.1338998557423869,0.009250143561168092
1618,5.0,300.96259,674.49702,0.0,0.0,0.0,0.0,0.01612629790662209,0.0,-0.0852041218754921,-0.05014726225789945,-0.06967886572951863,0.04553987118493536,0.13340154947570787,0.030945222434305673
1619,5.0,300.80435,767.6139599999999,0.0,0.0,0.0,0.0,0.01613626471620591,0.0,-0.061008814943351246,-0.07166485213752023,-0.10066181045179722,0.02314162815315088,0.15474157943430486,0.018956144289325783
1620,5.0,299.21828999999997,470.5361,0.0,0.0,0.0,0.0,0.01614623152578973,0.0,-0.06899176766445735,-0.04101776537288826,-0.03302169308948737,0.054379175267806744,0.16058520554352584,0.026224347350141577
1621,5.0,299.25842,162.36088999999998,0.0,0.0,0.0,0.0,0.016156198335373552,0.0,-0.01981126860521998,-0.016114040580331983,-0.013428346209774589,0.03939937090241516,0.13110780456183288,-4.659513874008216e-05
1622,5.0,300.13687999999996,417.84776,0.0,0.0,0.0,0.0,0.016166165144957376,0.0,-0.05842513459286185,-0.029889802891643873,-0.03870034992342716,0.046621250195159156,0.11732269907134889,0.004832049290436136
1623,5.0,299.87194,738.85509,0.0,0.0,0.0,0.0,0.016176131954541196,0.0,-0.051910787579945855,-0.06580727965392284,-0.10687543192778388,0.016847343863203385,0.11454884586259088,-0.036702192355224365
1624,5.0,300.61438,668.07588,0.0,0.0,0.0,0.0,0.016186098764125016,0.0,-0.09639662028210572,-0.05144046829427895,-0.055241296075641454,0.038147076865323364,0.1249281847194519,-0.013717585543570289
1625,5.0,300.4661,463.80114000000003,0.0,0.0,0.0,0.0,0.016196065573708836,0.0,0.0033859081475631166,-0.07007138665925743,-0.07429848673118972,0.02570806298693827,0.14596749218086988,-0.04094110489682246
1626,5.0,301.07603,515.6316099999999,0.0,0.0,0.0,0.0,0.016206032383292653,0.0,-0.08301373556456781,-0.04305475879092386,-0.030670640776456575,0.029072720037504073,0.14359476442169988,0.0071525376234755035
1627,5.0,300.46299,570.77982,0.0,0.0,0.0,0.0,0.016215999192876477,0.0,-0.05726306541092454,-0.05526799420252636,-0.060971753294443536,0.04045918389751056,0.16214954210791385,0.008729172206977222
1628,5.0,300.40635,463.97283,0.0,0.0,0.0,0.0,0.016225966002460297,0.0,-0.06826677708540634,-0.04438309927452086,-0.028386279571757676,0.03919383514613036,0.1438115391480939,0.011594430403281189
1629,5.0,299.99773999999996,341.0637,0.0,0.0,0.0,0.0,0.01623593281204412,0.0,-0.02127205810213868,-0.033890161909198566,-0.04851262640157345,0.057392422998191146,0.15292718287773785,0.008265982149013923
1630,5.0,300.09651,145.68749,0.0,0.0,0.0,0.0,0.01624589962162794,0.0,-0.03438191548748087,-0.021343248040914583,0.01143980641152099,0.035597289730678966,0.12585990871640587,-0.0016809890086506986
1631,5.0,300.12304,304.99046,0.0,0.0,0.0,0.0,0.016255866431211758,0.0,0.0007566071232463093,-0.04576450366585486,-0.047701587584280156,0.04201750986230536,0.14100897043150187,-0.02908730273294327
1632,5.0,300.36753999999996,693.01235,0.0,0.0,0.0,0.0,0.016265833240795582,0.0,-0.10513015929303891,-0.03433436973978847,-0.07119391679579253,0.04442703987835746,0.11385346245146188,0.008684810192424033
1633,5.0,299.09786,782.44028,0.0,0.0,0.0,0.0,0.016275800050379402,0.0,-0.09194736917874881,-0.06833826390646153,-0.07755667450099783,0.04792625147595275,0.13881087632706687,0.015363811967790185
1634,5.0,298.54022000000003,527.056,0.0,0.0,0.0,0.0,0.016285766859963226,0.0,-0.042946072518947366,-0.036827191953810866,-0.08043859792567153,0.04977721014912816,0.13278342638470386,0.02016696498657448
1635,5.0,297.83031,556.0061400000001,0.0,0.0,0.0,0.0,0.016295733669547046,0.0,-0.07264213591197062,-0.02962038374305427,-0.06674946241840904,0.033740903076717864,0.14642395121841886,-0.0004045802372614606
1636,5.0,299.28406,858.22221,0.0,0.0,0.0,0.0,0.016305700479130863,0.0,-0.0954642873218416,-0.06185032320440164,-0.1035635125184229,0.04063558871342036,0.16387353649055886,0.018849641571314784
1637,5.0,299.50665,670.55405,0.0,0.0,0.0,0.0,0.016315667288714687,0.0,-0.08513005734618251,-0.03536771562902176,-0.08333391449016701,0.011716899916367988,0.15258564666653085,-0.005758390193583865
1638,5.0,300.4288,282.72832999999997,0.0,0.0,0.0,0.0,0.016325634098298503,0.0,-0.06284903823171714,-0.022379779588462274,-0.0007135341654703393,0.020766459474489983,0.17522755101611284,0.02051627991879918
1639,5.0,300.4591,181.62103000000002,0.0,0.0,0.0,0.0,0.016335600907882327,0.0,-0.021476295885045377,-0.026213836906854273,-0.007518124237731093,0.01919754808590048,0.16448346238825384,-0.007056242893596953
1640,5.0,300.54682,615.04935,0.0,0.0,0.0,0.0,0.016345567717466147,0.0,-0.05631088592095174,-0.06942750472421122,-0.06122125599906753,0.03523749779242026,0.14761415531588284,0.027129429962216272
1641,5.0,299.68183,786.92484,0.0,0.0,0.0,0.0,0.016355534527049968,0.0,-0.07529335039487513,-0.10227681661393591,-0.061635338890934345,0.016014475585755684,0.16201905576003583,-0.02205663285332018
1642,5.0,300.36691,787.40657,0.0,0.0,0.0,0.0,0.01636550133663379,0.0,-0.04934260286323575,-0.0917146185380281,-0.098294714336683,0.04152921957286486,0.12894661302603988,0.0005164693725390585
1643,5.0,299.73041,416.65405,0.0,0.0,0.0,0.0,0.016375468146217608,0.0,-0.0062879810637254145,-0.08128259675546771,-0.03908184973182826,0.05630195817432065,0.10433687565724789,-0.04540099107322896
1644,5.0,299.51164,299.20445,0.0,0.0,0.0,0.0,0.016385434955801432,0.0,-0.042879554676382554,-0.027576603575848877,-0.02049452341265198,0.036881201223891165,0.11536599153823689,0.016080231464245285
1645,5.0,298.95699,522.81264,0.0,0.0,0.0,0.0,0.016395401765385252,0.0,-0.04160598137394066,-0.036051012992957966,-0.08126499457473052,0.054102602573511155,0.14396542144078087,-0.013517853683858288
1646,5.0,299.16976,413.42433,0.0,0.0,0.0,0.0,0.016405368574969072,0.0,-0.043149476397021755,-0.03664643218897126,-0.045874765541736855,0.032655564285103265,0.17387646306777083,0.030822164222910772
1647,5.0,299.77646,152.92243,0.0,0.0,0.0,0.0,0.016415335384552896,0.0,-0.018244366491578783,-0.024225020491323374,-0.004015213770645746,0.039854928147375165,0.16608832895664183,-0.02386712839700218
1648,5.0,300.906,443.86782999999997,0.0,0.0,0.0,0.0,0.016425302194136713,0.0,-0.03188896459069577,-0.060348490998932344,-0.042687281350656664,0.03418593771938937,0.15428951790218987,-0.008289464422731442
1649,5.0,301.48597,660.22883,0.0,0.0,0.0,0.0,0.016435269003720537,0.0,-0.090461632451118,-0.06407427443813853,-0.04615717151685816,0.03616281906199236,0.16502700013939683,-0.009142860032630032
1650,5.0,299.46909,774.57845,0.0,0.0,0.0,0.0,0.016445235813304357,0.0,-0.1090500084973979,-0.06535820214335235,-0.061044293895602744,0.04033056902256726,0.14324364286454686,0.015493172594807085
1651,5.0,299.10937,607.8584599999999,0.0,0.0,0.0,0.0,0.016455202622888177,0.0,-0.03746804427105807,-0.07369782497915903,-0.07360792537728662,0.04775880277767686,0.12502700700170488,-0.006705458546077233
1652,5.0,299.42666,312.88916,0.0,0.0,0.0,0.0,0.016465169432471997,0.0,-0.05566512339371994,-0.023800372440663877,-0.015644996976540985,0.047949467062243956,0.14424417667579184,0.02021215391453428
1653,5.0,299.32656000000003,411.9163,0.0,0.0,0.0,0.0,0.016475136242055818,0.0,-0.01876166714463238,-0.03140057297624527,-0.07505003155561144,0.06139594639580814,0.14964424242123686,0.032414162515028766
1654,5.0,299.22364,538.6043599999999,0.0,0.0,0.0,0.0,0.01648510305163964,0.0,-0.05544115053861555,-0.06495689734849663,-0.043324228602018455,0.03231425504191867,0.14542146183448088,-0.0037248880300928267
1655,5.0,299.75892999999996,549.84173,0.0,0.0,0.0,0.0,0.01649506986122346,0.0,-0.05624287252123934,-0.045903824541354755,-0.06499145829615753,0.038805254746030464,0.13740695751851087,0.0042902448049141955
1656,5.0,300.07866,413.47526,0.0,0.0,0.0,0.0,0.01650503667080728,0.0,-0.06774889989304583,-0.03751754559144346,-0.02041970907826838,0.03877492513078716,0.11143412518769188,-0.018975494326485483
1657,5.0,300.04059,362.09648,0.0,0.0,0.0,0.0,0.016515003480391102,0.0,-0.005017190652683165,-0.039268114484461165,-0.06578298292977493,0.061383180457798246,0.15287223432481487,0.0016166424597251884
1658,5.0,299.62002,550.90112,0.0,0.0,0.0,0.0,0.016524970289974922,0.0,-0.08038921008929734,-0.04147136501865506,-0.045599610384331156,0.03801351226364156,0.16608753862156386,-0.0030168199436119473
1659,5.0,300.92045,878.70034,0.0,0.0,0.0,0.0,0.016534937099558746,0.0,-0.042499609193634866,-0.11727486353412789,-0.1073284864449969,0.03503782976746457,0.16096195219570783,-0.012558550032432387
1660,5.0,299.61092,602.36942,0.0,0.0,0.0,0.0,0.016544903909142566,0.0,-0.053626745876047745,-0.08512190676237812,-0.04435660886390646,0.014324019781420685,0.15250569110113985,-0.047574516902489254
1661,5.0,300.31239,375.84013,0.0,0.0,0.0,0.0,0.016554870718726383,0.0,-0.04922744394962045,-0.056220717807802856,-0.00879785242658043,0.021490683023215277,0.13741482033928687,0.004242557303532806
1662,5.0,300.2325,280.08423999999997,0.0,0.0,0.0,0.0,0.016564837528310207,0.0,-0.04159854310495656,-0.03411399898878957,-0.00942607184555586,0.04038885116831926,0.14393512526279087,-0.026998644705558773
1663,5.0,300.6694,419.95508,0.0,0.0,0.0,0.0,0.016574804337894027,0.0,-0.002165386087231968,-0.06681043069017613,-0.05868004096026915,0.04837247770074186,0.12537927353147088,0.010270071992577191
1664,5.0,299.56859,407.50458,0.0,0.0,0.0,0.0,0.016584771147477848,0.0,-0.028115162216000474,-0.04528782319606016,-0.050468231518576656,0.05494836040548094,0.12759935516307588,-0.00988374262889945
1665,5.0,301.16947000000005,551.01868,0.0,0.0,0.0,0.0,0.016594737957061668,0.0,-0.01942686482203228,-0.04824353351951605,-0.0998255214420119,0.048262228997111155,0.14256957823552188,0.034346318998217766
1666,5.0,300.11824,507.28394000000003,0.0,0.0,0.0,0.0,0.016604704766645488,0.0,-0.07629076542231233,-0.02191848126843568,-0.05599240520252015,0.05902468075653244,0.17456165318289382,-0.0012675080886683087
1667,5.0,300.623,749.23262,0.0,0.0,0.0,0.0,0.016614671576229312,0.0,-0.1091339967981869,-0.04684938142867395,-0.07176463194111772,0.04634380002627696,0.14965741467253685,0.02303525513115268
1668,5.0,299.29057,930.4920800000001,0.0,0.0,0.0,0.0,0.01662463838581313,0.0,-0.12336347325252689,-0.08053606447929072,-0.07894682020094453,0.03996764411499936,0.14470999814426486,-0.011373655365492388
1669,5.0,299.39414,655.3217599999999,0.0,0.0,0.0,0.0,0.016634605195396952,0.0,-0.08237623406540132,-0.018920733224830982,-0.09790448335217022,0.048069108594301656,0.14946195872824686,0.03712995412344117
1670,5.0,298.82151,241.42727000000002,0.0,0.0,0.0,0.0,0.016644572004980773,0.0,-0.03173106881436267,-0.017730917202155284,-0.023925875624550078,0.03749577692629506,0.17851078531514283,-0.01144644117317579
1671,5.0,300.91369,206.68513000000002,0.0,0.0,0.0,0.0,0.016654538814564593,0.0,0.017708072465400685,-0.026879390235039276,-0.05365579980941515,0.047712951184151656,0.18197481382951583,0.0003302939480349747
1672,5.0,300.69698,341.70657,0.0,0.0,0.0,0.0,0.016664505624148417,0.0,-0.051056947051928356,-0.039277115185099465,-0.013536202629919185,0.0007588125532814683,0.15224286415770086,-0.012097696529199689
1673,5.0,299.85287,384.79919,0.0,0.0,0.0,0.0,0.016674472433732233,0.0,-0.04121475436457956,-0.05175023506185055,-0.024004354884545376,0.019636312736953182,0.15264987659036985,-0.0012725608629419788
1674,5.0,300.45218,524.38612,0.0,0.0,0.0,0.0,0.016684439243316057,0.0,-0.059688673679563445,-0.05273753684003965,-0.04697407705223045,0.022645708090457378,0.15877322052219686,-0.0032811472064740166
1675,5.0,301.35924,601.48203,0.0,0.0,0.0,0.0,0.016694406052899877,0.0,-0.054222039429048643,-0.07235891021751843,-0.05625456948039375,0.044041245916032555,0.12191945000501288,-0.007383724211341843
1676,5.0,300.64311000000004,683.91612,0.0,0.0,0.0,0.0,0.016704372862483698,0.0,-0.03397619393543926,-0.08245677326284992,-0.0914604548829441,0.06196901734761584,0.11979954841079489,-0.001208609988180519
1677,5.0,300.27077,830.97578,0.0,0.0,0.0,0.0,0.016714339672067518,0.0,-0.06210268732730804,-0.07266612967433862,-0.11782707470612688,0.039934974905275165,0.12801834421192687,0.013024336037151887
1678,5.0,300.44743,663.90639,0.0,0.0,0.0,0.0,0.016724306481651338,0.0,-0.1002103528167418,-0.05103173232318985,-0.05056887866425975,0.05241391590385075,0.18022689661200983,0.0016515780059480584
1679,5.0,300.77463,220.69196000000002,0.0,0.0,0.0,0.0,0.016734273291235162,0.0,-0.04904895589150505,-0.02442516069082568,0.006389269596721814,0.020602252163283978,0.15694020042879187,-0.028552831543695072
1680,5.0,300.49971,38.757542,0.0,0.0,0.0,0.0,0.01674424010081898,0.0,-0.02165399968758338,-0.014307668964556987,0.024180343254664078,0.03507634137726537,0.14781806176600684,-0.036917826162005764
1681,5.0,299.63427,274.80543,0.0,0.0,0.0,0.0,0.0167542069104028,0.0,-0.05016853848349925,-0.024824529164740275,-0.00854092290269846,0.03718180719730867,0.13185085125766588,-0.0031588107331253466
1682,5.0,299.07453,651.64648,0.0,0.0,0.0,0.0,0.016764173719986623,0.0,-0.06425448299492374,-0.06481694724468465,-0.06901282908103594,0.02313276829427648,0.16292316869176485,-0.012374556986523687
1683,5.0,298.66253,454.89831,0.0,0.0,0.0,0.0,0.016774140529570443,0.0,-0.03164208316408047,-0.022636312222280082,-0.08399933102958851,0.02871724859767177,0.14664295509503286,0.01203702412646179
1684,5.0,299.93182,349.78229,0.0,0.0,0.0,0.0,0.016784107339154267,0.0,-0.04699844774363566,-0.03652460001019737,-0.02280203535563568,0.014415784776727185,0.13905962922661688,0.014245010591623086
1685,5.0,300.98028999999997,554.8050099999999,0.0,0.0,0.0,0.0,0.016794074148738087,0.0,-0.048906185912664754,-0.017106167455497284,-0.10263451416423791,0.058740577587493646,0.14306094373901584,0.03861746809174736
1686,5.0,300.34254,823.0980900000001,0.0,0.0,0.0,0.0,0.016804040958321904,0.0,-0.08996299079865591,-0.07187866209412162,-0.08835961370791492,0.04996251434066625,0.14313217522104585,0.005031604439330695
1687,5.0,299.98847,754.64907,0.0,0.0,0.0,0.0,0.016814007767905727,0.0,-0.08512245898368262,-0.04775295227159945,-0.0965190634506899,0.08332527349331421,0.15130299362994287,0.01138682153729179
1688,5.0,300.62599,389.02296,0.0,0.0,0.0,0.0,0.016823974577489548,0.0,-0.03346361908085207,-0.048411149404058454,-0.03637849947827836,0.05563056447255925,0.12994401589447588,-0.014528126855064487
1689,5.0,299.51522,89.592336,0.0,0.0,0.0,0.0,0.016833941387073368,0.0,-0.011535324485197888,-0.017433021672755285,0.0017345127292830783,0.06815038707291954,0.13450886971499187,-0.004048140649870377
1690,5.0,299.96605,524.70587,0.0,0.0,0.0,0.0,0.01684390819665719,0.0,-0.09283858343670481,-0.026641948246355577,-0.040016949878115465,0.018150938752858184,0.16138700048015683,-0.01138947118630329
1691,5.0,300.72103,844.5836800000001,0.0,0.0,0.0,0.0,0.01685387500624101,0.0,-0.08895392846131922,-0.08534956886109661,-0.08242885315634442,0.0027110957399643174,0.15347228103403485,-0.036472644598069766
1692,5.0,301.16414,317.60749,0.0,0.0,0.0,0.0,0.016863841815824832,0.0,-0.03142178232733847,-0.05848469951324045,-0.0066382646630457134,0.0015334561463903385,0.16379140243745285,-0.029957911536865677
1693,5.0,300.88279,236.1407,0.0,0.0,0.0,0.0,0.01687380862540865,0.0,0.019771668764811783,-0.06108748368111524,-0.030465063476917676,0.029501477830569174,0.15323799734591287,-0.018088970403242383
1694,5.0,300.82054,632.3442299999999,0.0,0.0,0.0,0.0,0.016883775434992473,0.0,-0.05566195192090694,-0.06487067685773734,-0.07168422649268233,0.039856916144071365,0.16570984964678886,-0.011024195538503388
1695,5.0,300.05224,786.00321,0.0,0.0,0.0,0.0,0.016893742244576293,0.0,-0.07006312056494163,-0.0938825836507396,-0.07497964411091473,0.03268775220102997,0.13952349512239687,0.004802156082010905
1696,5.0,299.5795,505.18397999999996,0.0,0.0,0.0,0.0,0.016903709054160113,0.0,-0.061433774061791444,-0.05351059195083425,-0.038618948450143464,0.026027753525989274,0.14045991046731385,0.005899596524869844
1697,5.0,299.34015,453.60240999999996,0.0,0.0,0.0,0.0,0.016913675863743937,0.0,0.00935069839976708,-0.07831297957438933,-0.06892152511452493,0.026098925226263378,0.13693069957400786,0.012498557520511589
1698,5.0,299.24156,367.88703,0.0,0.0,0.0,0.0,0.016923642673327754,0.0,-0.05986002541722454,-0.02491288862646068,-0.027055556937175575,0.05496993655311036,0.16318637053774085,-0.0015514904782951884
1699,5.0,300.53862999999996,674.0255400000001,0.0,0.0,0.0,0.0,0.016933609482911578,0.0,-0.04127202731323196,-0.06028541415370715,-0.1033294922753269,0.05513696272609454,0.16197172684786484,-0.023607120315341377
1700,5.0,299.92252,628.951,0.0,0.0,0.0,0.0,0.016943576292495394,0.0,-0.0950097585257331,-0.034459003555088866,-0.06171663903920803,0.05863249521257675,0.16237242673241084,-0.017280314750184284
1701,5.0,300.8771,309.93642,0.0,0.0,0.0,0.0,0.016953543102079218,0.0,-0.056007777219787246,-0.004943309825616696,-0.03326184552218857,0.05743872548801086,0.17299575621335184,0.008233474957980711
1702,5.0,300.19354,390.46927,0.0,0.0,0.0,0.0,0.016963509911663042,0.0,-0.05418228962762565,-0.043320252608626056,-0.02119036582607628,0.03490303406691126,0.16159670272085283,0.0015563303687228486
1703,5.0,301.73541,775.0273,0.0,0.0,0.0,0.0,0.01697347672124686,0.0,-0.07702599084062343,-0.05223366377731125,-0.10632929012388391,0.010674722539263092,0.14255006303859585,0.005385911350823064
1704,5.0,301.26383,877.5624,0.0,0.0,0.0,0.0,0.016983443530830682,0.0,-0.07767262881594163,-0.08287935428330542,-0.10620507579412489,0.03630023502730426,0.14383497562290687,0.03271264268973647
1705,5.0,300.64134,389.54337000000004,0.0,0.0,0.0,0.0,0.0169934103404145,0.0,0.015686009287588586,-0.06227219191003685,-0.07182527597285283,0.042488208103509666,0.16006122351931285,-0.0006557468910671794
1706,5.0,299.38035,341.47067000000004,0.0,0.0,0.0,0.0,0.01700337714999832,0.0,-0.027432587299385573,-0.04977201116286505,-0.026593958695119373,0.06586832695919774,0.15982341372084286,0.011590946849437388
1707,5.0,300.17096000000004,608.80288,0.0,0.0,0.0,0.0,0.017013343959582143,0.0,-0.08998369960419972,-0.07254672625605443,-0.02253044886508218,0.04133424998862286,0.11659141620917689,-0.02056244967285578
1708,5.0,300.11206,479.55188,0.0,0.0,0.0,0.0,0.017023310769165963,0.0,-0.06435354440420034,-0.04487488223705605,-0.03654336945504976,0.05727005886311474,0.12976494420430287,0.0021414935485489575
1709,5.0,300.0968,106.50563000000001,0.0,0.0,0.0,0.0,0.017033277578749787,0.0,-0.0027535991498590776,-0.022991995431383274,-0.0066294567839014435,0.03780024034284326,0.14069310997782886,-0.03644504366534576
1710,5.0,300.3914,197.82638,0.0,0.0,0.0,0.0,0.017043244388333604,0.0,-0.004266902359710475,-0.024464998645007376,-0.03140237757467337,0.060278587887783446,0.16978864739433486,-0.005073792424469325
1711,5.0,299.43077,465.12264000000005,0.0,0.0,0.0,0.0,0.017053211197917424,0.0,-0.00991082153517193,-0.06636058209627954,-0.06511426522152765,0.023643075495139877,0.16533953713274185,-0.06320065830791934
1712,5.0,299.62155,695.52734,0.0,0.0,0.0,0.0,0.017063178007501248,0.0,-0.10834097660742188,-0.04039476449590286,-0.06268720091249504,0.029650408370017475,0.15077910279823886,0.006574281566931073
1713,5.0,299.9675,654.08383,0.0,0.0,0.0,0.0,0.017073144817085068,0.0,-0.10459159659988691,-0.035444481483097964,-0.05878907173727965,0.02860408578675347,0.14531957953692587,-0.03529237845758657
1714,5.0,299.89887000000004,441.0316,0.0,0.0,0.0,0.0,0.017083111626668892,0.0,-0.04581667996650426,-0.044256592973035656,-0.04398931887490776,0.02943772210777697,0.14004780138664186,0.03063284654772657
1715,5.0,300.62426,327.00192000000004,0.0,0.0,0.0,0.0,0.01709307843625271,0.0,-0.03093396319919447,-0.046744834283355956,-0.021721622986007275,0.04665800178953625,0.10698298842589889,-0.01226157554737329
1716,5.0,300.39064,560.97942,0.0,0.0,0.0,0.0,0.01710304524583653,0.0,-0.04008791892836956,-0.04182100723066206,-0.08861480885160072,0.05490733897518244,0.12403606866890687,0.05485460943997845
1717,5.0,299.76135,595.83258,0.0,0.0,0.0,0.0,0.017113012055420353,0.0,-0.056338283190405646,-0.043243863683587055,-0.08153608051973463,0.07259545750636384,0.15690336878765684,0.01035876481358049
1718,5.0,300.46612000000005,425.31522,0.0,0.0,0.0,0.0,0.017122978865004173,0.0,-0.038256992209671166,-0.04359322725181656,-0.04743498628421866,0.06704429185300644,0.17172850457828384,0.03060718193594367
1719,5.0,300.58985,380.42292000000003,0.0,0.0,0.0,0.0,0.017132945674587993,0.0,-0.05998159820397285,-0.053780627155484644,-0.0018768437681800582,0.028015756301689874,0.16058055472556684,-0.028588981267512772
1720,5.0,299.8982,634.70957,0.0,0.0,0.0,0.0,0.017142912484171813,0.0,-0.08386595489242532,-0.03669136881765617,-0.07237853687195543,0.03139201506590067,0.14865857298895885,-0.005063320383360816
1721,5.0,298.99825,660.8242799999999,0.0,0.0,0.0,0.0,0.017152879293755634,0.0,-0.11639681139497089,-0.023269541859024977,-0.061207727083732344,0.043875446788919456,0.15037280977314085,-0.005719227975893855
1722,5.0,299.27711,698.07298,0.0,0.0,0.0,0.0,0.017162846103339457,0.0,-0.05235229611226935,-0.06156211130620734,-0.09828234559271232,0.046229283513225056,0.15542765107701484,-0.014092959241866787
1723,5.0,299.96071,489.17731,0.0,0.0,0.0,0.0,0.017172812912923274,0.0,-0.029993388462616972,-0.049552374004938546,-0.06915192400176354,0.043472109414363164,0.13818238768753985,-0.0018417605914176182
1724,5.0,299.83633,298.50569,0.0,0.0,0.0,0.0,0.017182779722507098,0.0,-0.04068262479631246,-0.034464016103333564,-0.015591636186524684,0.029325895773740573,0.14454961078593587,-0.004799312902230305
1725,5.0,298.90475,368.4057,0.0,0.0,0.0,0.0,0.01719274653209092,0.0,-0.02989747218165077,-0.03961015022796746,-0.04247851130005266,0.027721777997176473,0.16417471495028285,0.005107732959093995
1726,5.0,300.36219,462.0618,0.0,0.0,0.0,0.0,0.01720271334167474,0.0,-0.046401283730950156,-0.05751618744490575,-0.036537778340997966,0.03581727544663987,0.13756107285872088,-0.016654532501674382
1727,5.0,300.18881,300.32215,0.0,0.0,0.0,0.0,0.017212680151258562,0.0,0.019480279314303878,-0.06914663078324114,-0.04162408410022726,0.02321996961113258,0.13830947964758286,-0.019585150699653883
1728,5.0,300.29868,252.51712999999998,0.0,0.0,0.0,0.0,0.01722264696084238,0.0,0.006812940874284914,-0.04628178202740625,-0.037290061824742565,0.045836061414417054,0.11806919081752187,-0.012360270160113688
1729,5.0,299.96272,449.82319,0.0,0.0,0.0,0.0,0.017232613770426203,0.0,-0.053369839352943045,-0.026337038999763373,-0.05702813729573895,0.06659696625185883,0.16541725341541183,-0.007580108191398433
1730,5.0,299.32451000000003,542.63642,0.0,0.0,0.0,0.0,0.017242580580010023,0.0,-0.09242124193251641,-0.027081843684519876,-0.04544483541830605,0.05636794912683345,0.18159995182251984,0.0038727349998841864
1731,5.0,300.41335,648.93012,0.0,0.0,0.0,0.0,0.017252547389593843,0.0,-0.042687124296891164,-0.07685431080992994,-0.07771711758808232,0.020479521231671377,0.17272738679186583,-0.02153841318242588
1732,5.0,300.41755,576.8879400000001,0.0,0.0,0.0,0.0,0.017262514199177664,0.0,-0.08221097398734142,-0.03678362321276096,-0.056364929641535444,0.023351041617568378,0.17713850017470884,0.006245589415316684
1733,5.0,299.63255,480.56870999999995,0.0,0.0,0.0,0.0,0.017272481008761484,0.0,-0.04200003231133046,-0.034833641633812765,-0.06924721510741803,0.026430148577952575,0.17267347175404485,0.011835720715844688
1734,5.0,299.83144,450.40694,0.0,0.0,0.0,0.0,0.017282447818345308,0.0,-0.04895527889325986,-0.029410416030832075,-0.05854676716136604,0.061572681531250534,0.16529090112794184,0.022188486075583082
1735,5.0,300.05737,699.22635,0.0,0.0,0.0,0.0,0.017292414627929124,0.0,-0.061761990087183846,-0.06521539163450804,-0.08556996798309832,0.03569057764088576,0.13568493897356088,0.028419387518775176
1736,5.0,300.33197,645.1769400000001,0.0,0.0,0.0,0.0,0.017302381437512945,0.0,-0.08871632029961911,-0.04949133379241436,-0.05791002458652445,0.05601379389888104,0.13513025547131788,0.02736506127297127
1737,5.0,299.28208,417.01562,0.0,0.0,0.0,0.0,0.01731234824709677,0.0,-0.028692303393459875,-0.04842905454657555,-0.04964097765993305,0.02059700555426618,0.15725188629205286,0.025808034294804678
1738,5.0,299.60828,446.23345,0.0,0.0,0.0,0.0,0.01732231505668059,0.0,-0.04581541036412896,-0.05694812802809265,-0.03288028795853177,0.04682174401894636,0.16018140511367385,-0.013220338123245788
1739,5.0,300.31541,658.32777,0.0,0.0,0.0,0.0,0.017332281866264412,0.0,-0.04915267926449175,-0.08617465841752661,-0.06478786595356453,0.029894110217818973,0.14549349378408985,-0.005873529146172194
1740,5.0,300.02466,581.99595,0.0,0.0,0.0,0.0,0.01734224867584823,0.0,-0.02901145285695747,-0.09163515743868592,-0.05626562403898474,0.05274430636395775,0.13823916009064288,-0.03920827396005536
1741,5.0,300.52202,227.63818999999998,0.0,0.0,0.0,0.0,0.01735221548543205,0.0,-0.034350958670425674,-0.02050180969412108,-0.014343558283098986,0.05179022804329755,0.15842609117043785,-0.019542751249219382
1742,5.0,300.43716,175.45263,0.0,0.0,0.0,0.0,0.017362182295015873,0.0,-0.022977997381251777,-0.02169107450874238,-0.008664146071209642,0.05394235707019615,0.14535133479505988,-0.02722591163673827
1743,5.0,299.58463,275.75169,0.0,0.0,0.0,0.0,0.017372149104599693,0.0,-0.033709037374322966,-0.028888507116323674,-0.02122408374965398,0.016219346649974882,0.15535592310243584,-0.013735861535623986
1744,5.0,299.5431,517.84841,0.0,0.0,0.0,0.0,0.017382115914183514,0.0,-0.03671908830064186,-0.07010371237719773,-0.050590185287362546,0.014175559390018787,0.14903109438822387,-0.0009704406784425381
1745,5.0,299.87191,688.8785,0.0,0.0,0.0,0.0,0.017392082723767334,0.0,-0.05858174658131825,-0.06807331927031354,-0.08274679583897292,0.004013432274319926,0.15936950807354583,0.008737057420580431
1746,5.0,299.18017000000003,452.14217,0.0,0.0,0.0,0.0,0.017402049533351154,0.0,-0.02153379377521998,-0.050327509318188454,-0.06557862760985664,0.03908494318438356,0.14551172215338887,0.018858518655440883
1747,5.0,298.84257,340.09226,0.0,0.0,0.0,0.0,0.017412016342934978,0.0,-0.03340932002124317,-0.05536584883093385,-0.014604385070840586,0.027600661172973176,0.1183831767585099,-0.018625746736468083
1748,5.0,299.22718,628.64586,0.0,0.0,0.0,0.0,0.017421983152518795,0.0,-0.06642514841915173,-0.06827570179228713,-0.05639179292818665,0.06073441263076985,0.13622786877464388,0.009192168126221362
1749,5.0,299.68867,778.02314,0.0,0.0,0.0,0.0,0.01743194996210262,0.0,-0.08541421523072673,-0.07717984577555773,-0.07390554631590952,0.04698621477517836,0.17895732463421282,-0.013391767881164588
1750,5.0,299.57096,441.15315999999996,0.0,0.0,0.0,0.0,0.01744191677168644,0.0,-0.04666845042456746,-0.04829952268029175,-0.03913157295398556,0.05756940840640825,0.17855442599694982,-0.0007850626108396473
1751,5.0,300.87427,278.43113,0.0,0.0,0.0,0.0,0.01745188358127026,0.0,-0.030829068509092172,-0.012844150785118988,-0.04096289281372276,0.044658907978241055,0.17033279309553784,-0.01036388679283599
1752,5.0,299.57676000000004,353.35962,0.0,0.0,0.0,0.0,0.017461850390854083,0.0,-0.04819016259699875,-0.006955094189114353,-0.05226724491212545,0.04314500492433046,0.14806977335584887,0.028598327486435177
1753,5.0,299.89805,607.26905,0.0,0.0,0.0,0.0,0.0174718172004379,0.0,-0.07904381964626762,-0.029142963600686574,-0.07640784343161702,0.07817025924480393,0.15182561789902185,0.02984998722896437
1754,5.0,300.24503,886.8494400000001,0.0,0.0,0.0,0.0,0.017481784010021723,0.0,-0.08944612179014491,-0.08001018565089052,-0.1001237776884475,0.04170944940790216,0.12155478129402288,0.014001355353326186
1755,5.0,299.89538,657.39122,0.0,0.0,0.0,0.0,0.017491750819605544,0.0,-0.06724472690828784,-0.05455938889084245,-0.07802639799560593,0.061464219187546146,0.13071746009330887,0.006349424347139395
1756,5.0,299.41241,435.0556,0.0,0.0,0.0,0.0,0.017501717629189364,0.0,-0.012404605931489288,-0.07280578086937113,-0.04703565124755736,0.013920562843352588,0.14159874278470788,-0.014816622463286785
1757,5.0,299.81492000000003,465.3248,0.0,0.0,0.0,0.0,0.017511684438773184,0.0,-0.02473445021760018,-0.06091438206053144,-0.05579828776161225,0.03869232092963476,0.19077783950580682,-0.004073678402740756
1758,5.0,299.17105,562.30077,0.0,0.0,0.0,0.0,0.017521651248357004,0.0,-0.054348249861504654,-0.06607664003400664,-0.050500504547511746,0.017182817799062083,0.16961591864978784,-0.041485929475592466
1759,5.0,300.02552000000003,297.49087000000003,0.0,0.0,0.0,0.0,0.017531618057940828,0.0,-0.02166740295990618,-0.03543424664383786,-0.03332814754248207,0.030785630477305176,0.14467689526349786,-0.007674715150585413
1760,5.0,299.87268,78.592741,0.0,0.0,0.0,0.0,0.017541584867524645,0.0,0.002320920078906978,-0.03058241101074897,0.004371260229909796,0.045117843399034456,0.14890537031581585,-0.03988076703817526
1761,5.0,299.39342,343.00147999999996,0.0,0.0,0.0,0.0,0.017551551677108465,0.0,-0.017448713877053983,-0.03646692074825487,-0.050348251560985546,0.06025434587914094,0.15366418047047384,0.009341603264219461
1762,5.0,300.98162,800.09201,0.0,0.0,0.0,0.0,0.01756151848669229,0.0,-0.07969489059077332,-0.06871558507145023,-0.09479751809353659,0.05675151393893835,0.14621315466761486,-0.007436089584459903
1763,5.0,300.11486,774.8843400000001,0.0,0.0,0.0,0.0,0.01757148529627611,0.0,-0.054582818272904746,-0.06650138333017554,-0.1144612909214499,0.031633493842982766,0.14625074624632486,-0.006602169857383434
1764,5.0,299.70283,515.6632599999999,0.0,0.0,0.0,0.0,0.017581452105859933,0.0,-0.09068503281991591,-0.022511853699246978,-0.04355186739598466,0.054071012475143454,0.15524285452377684,0.005368682147447675
1765,5.0,300.51717,487.25067,0.0,0.0,0.0,0.0,0.01759141891544375,0.0,-0.04798779628702675,-0.03871427805930176,-0.061409962684441446,0.051233157323818945,0.16386427538464485,0.021720462814642776
1766,5.0,301.13142,508.8259,0.0,0.0,0.0,0.0,0.01760138572502757,0.0,-0.08077163499503971,-0.05659356952660044,-0.017305164708886784,0.02771941104494287,0.13622548763690887,0.002791914087815467
1767,5.0,299.25304,646.96183,0.0,0.0,0.0,0.0,0.017611352534611394,0.0,-0.059956509118246744,-0.06019200161373804,-0.07651173196437003,0.038170777798412464,0.13096036653978188,0.0006975398707868253
1768,5.0,299.90702000000005,470.49645999999996,0.0,0.0,0.0,0.0,0.017621319344195214,0.0,-0.06252423280616135,-0.03428845025850657,-0.046206492478725755,0.02048814399002238,0.15261148454408086,0.0016982851878576985
1769,5.0,299.24322,223.89633999999998,0.0,0.0,0.0,0.0,0.017631286153779038,0.0,-0.0035392232228441366,-0.02554310992365868,-0.03897656291393726,0.06919821635908223,0.1879109395403658,-0.005265255656740276
1770,5.0,299.66412,544.47277,0.0,0.0,0.0,0.0,0.017641252963362854,0.0,-0.07495743772172313,-0.045873927583904156,-0.044674761289305656,0.03558671342613517,0.18405657668996983,-0.01119527065888719
1771,5.0,299.11458,928.5622800000001,0.0,0.0,0.0,0.0,0.017651219772946675,0.0,-0.1051899410489389,-0.08545750431474902,-0.09161230560918061,0.04529643075565966,0.17980522245039382,-0.016646487295880384
1772,5.0,299.67034,616.5867900000001,0.0,0.0,0.0,0.0,0.017661186582530495,0.0,-0.07817797311781523,-0.05249715541281585,-0.056751857430722245,0.054568807050521945,0.14320522042075484,-0.016127882589948087
1773,5.0,299.09696,288.2492,0.0,0.0,0.0,0.0,0.017671153392114315,0.0,-0.04372189785551536,-0.024105077010735877,-0.01979358435122468,0.06335317980572204,0.15476312113143084,0.01955811110748528
1774,5.0,301.50086,423.04290999999995,0.0,0.0,0.0,0.0,0.01768112020169814,0.0,-0.013387080586201989,-0.05995201738055344,-0.05525538329178174,0.027875133399811475,0.13095851229209887,-0.015658755899648883
1775,5.0,300.63367,511.22455,0.0,0.0,0.0,0.0,0.01769108701128196,0.0,-0.043595333798774456,-0.05240918807888415,-0.05939497503207764,0.023896913896941777,0.13628897788817487,-0.006047276105744684
1776,5.0,300.64968,616.05823,0.0,0.0,0.0,0.0,0.01770105382086578,0.0,-0.05923735587302185,-0.053527294365482654,-0.07450166870749222,0.02259894457184218,0.15015009740116086,-0.027688964905938078
1777,5.0,300.33617999999996,559.3354,0.0,0.0,0.0,0.0,0.0177110206304496,0.0,-0.043559931853530555,-0.08061908613948433,-0.04584497902854716,0.03148276985085747,0.15045452839370585,-0.013160612096101287
1778,5.0,300.64558,449.12788,0.0,0.0,0.0,0.0,0.01772098744003342,0.0,-0.017078320302998985,-0.07061835020898853,-0.048826989271598654,0.03126578335519257,0.14137936400555684,-0.014943327361791587
1779,5.0,299.50842,406.5282,0.0,0.0,0.0,0.0,0.017730954249617244,0.0,-0.02031745187817638,-0.08638085075987623,-0.016876120166043382,0.020816361028664878,0.13802016634652986,-0.034174770690037264
1780,5.0,298.82876,697.1578099999999,0.0,0.0,0.0,0.0,0.017740921059201064,0.0,-0.05653193656276775,-0.053394052990582745,-0.1019925796958839,0.041981918439292755,0.14024170705827887,0.026673767339245875
1781,5.0,298.42694,491.24096,0.0,0.0,0.0,0.0,0.017750887868784884,0.0,-0.07866259746839392,-0.011264992398268189,-0.05939739669981665,0.05761544846445204,0.17852150550120083,0.012306727998329488
1782,5.0,299.94417999999996,299.04892,0.0,0.0,0.0,0.0,0.017760854678368708,0.0,-0.03574796306029926,-0.019798945457503783,-0.03535649591066446,0.059844848957226734,0.16960305037351783,0.04157338207847336
1783,5.0,299.13129,527.9174,0.0,0.0,0.0,0.0,0.017770821487952525,0.0,-0.06849757417993423,-0.03220904624428537,-0.05976708606505215,0.04355597308538987,0.16018223597875586,-0.008542410657820293
1784,5.0,299.24894,894.13586,0.0,0.0,0.0,0.0,0.01778078829753635,0.0,-0.1263503622948099,-0.055008163439633044,-0.09043645115963282,0.025343271672686178,0.16342087714088485,0.05562096291461165
1785,5.0,299.98535,742.90212,0.0,0.0,0.0,0.0,0.017790755107120165,0.0,-0.07065190195954983,-0.061126088509925236,-0.09404570273133822,0.05835993397542705,0.14482168870278786,-0.01033330487831779
1786,5.0,300.26479,463.46734000000004,0.0,0.0,0.0,0.0,0.01780072191670399,0.0,-0.040904936934502964,-0.033307335385428065,-0.06667022727383914,0.04284531290250316,0.13758559351114086,0.021481233452782682
1787,5.0,300.38575,564.62054,0.0,0.0,0.0,0.0,0.01781068872628781,0.0,-0.055929641451575855,-0.06575846025085473,-0.04994244185618525,0.044984108571335855,0.1282837650756219,-0.023799172752545478
1788,5.0,300.58342999999996,611.9329,0.0,0.0,0.0,0.0,0.01782065553587163,0.0,-0.06672074387082473,-0.057696635128714535,-0.061594942635947544,0.03361608788964957,0.12709535443083486,0.003982023345070106
1789,5.0,300.23912,486.71079000000003,0.0,0.0,0.0,0.0,0.017830622345455453,0.0,-0.03840840014561396,-0.07671469913165133,-0.03282482568780807,0.05679038322602444,0.16506211938786283,-0.02089762875293538
1790,5.0,300.14948,370.08321,0.0,0.0,0.0,0.0,0.01784058915503927,0.0,-0.031594389481873465,-0.05948695787615565,-0.02141470750421708,0.05504515112128344,0.16232869485809484,-0.01976006502466658
1791,5.0,298.86967999999996,111.1013,0.0,0.0,0.0,0.0,0.01785055596462309,0.0,0.024774460424298875,-0.03635090665155517,-0.02219557376003258,0.05716324811707336,0.15385335426414384,-0.02952283308967677
1792,5.0,299.17134,289.39771,0.0,0.0,0.0,0.0,0.017860522774206914,0.0,-0.026854515958334373,-0.048012111249676456,-0.01310304935792029,0.009820016391685163,0.17861772373069684,-0.02090854449626268
1793,5.0,299.06867,717.3498599999999,0.0,0.0,0.0,0.0,0.017870489583790734,0.0,-0.08342893505804483,-0.05207339800899426,-0.08255411417345672,0.03305870812889047,0.17469355808091183,0.009086190271762162
1794,5.0,298.99132000000003,838.15868,0.0,0.0,0.0,0.0,0.017880456393374558,0.0,-0.08492421761486771,-0.08585237902447011,-0.08400271427167241,0.005047097134684706,0.15385582659438785,-0.016733958137263083
1795,5.0,299.7896,630.52977,0.0,0.0,0.0,0.0,0.017890423202958375,0.0,-0.04487762814482705,-0.09194506403477132,-0.05484261357204455,0.007548396097718693,0.15035681055406186,-0.01760855306707888
1796,5.0,300.44748,555.2629900000001,0.0,0.0,0.0,0.0,0.017900390012542195,0.0,-0.06553435364673714,-0.046925182668654954,-0.05632654772774745,0.026128955932727176,0.1404360585599599,0.004492937381418396
1797,5.0,300.96008,606.7581799999999,0.0,0.0,0.0,0.0,0.01791035682212602,0.0,-0.041191047351989855,-0.06555944070596303,-0.07768884993679252,0.04179149530824946,0.17497041853823583,0.00983295164378677
1798,5.0,300.75529,528.37345,0.0,0.0,0.0,0.0,0.01792032363170984,0.0,-0.08013370286458073,-0.03493263211558237,-0.04554600134804036,0.04315721965428596,0.15932750885690086,0.009662421753281782
1799,5.0,299.41141,442.50705999999997,0.0,0.0,0.0,0.0,0.01793029044129366,0.0,-0.04539212209510366,-0.03517668454791847,-0.05394229120893965,0.06296134079330054,0.12333207263192789,-0.007403267880595653
1800,5.0,299.20058,449.64529000000005,0.0,0.0,0.0,0.0,0.01794025725087748,0.0,-0.06914649298122752,-0.021255686007022878,-0.046278762542108255,0.06252075634506825,0.15454685303008686,0.02131851967222408
1801,5.0,299.45338,475.70959000000005,0.0,0.0,0.0,0.0,0.0179502240604613,0.0,-0.07100411073406014,-0.022402081223163277,-0.051197643921064045,0.07887348723820713,0.16499107029085083,0.0026381339307385474
1802,5.0,299.51562,563.3793099999999,0.0,0.0,0.0,0.0,0.01796019087004512,0.0,-0.08393478598496842,-0.030819382851386266,-0.056499072809024345,0.05544499987574545,0.18195759871031683,-0.012169726452308488
1803,5.0,299.67727,957.0161,0.0,0.0,0.0,0.0,0.01797015767962894,0.0,-0.07773710799930522,-0.0898864215150991,-0.12328546312732788,0.032721638324124266,0.16602165710006184,0.003173990435523467
1804,5.0,300.31958,655.48668,0.0,0.0,0.0,0.0,0.017980124489212764,0.0,-0.09339416670503661,-0.03491703819654336,-0.07094037730277013,0.03117795888952497,0.1815694124645058,0.010830621199649091
1805,5.0,300.48579,417.90316,0.0,0.0,0.0,0.0,0.017990091298796584,0.0,-0.03166352353619647,-0.040806637489301564,-0.05456196558584675,0.03032483776907847,0.18635106127641785,0.017577134207978084
1806,5.0,300.4405,593.95615,0.0,0.0,0.0,0.0,0.018000058108380405,0.0,-0.06570304256313543,-0.060159220946502855,-0.05468557500529605,0.028864579215212172,0.15857630549776286,-0.027758896388089774
1807,5.0,299.54765,485.3886,0.0,0.0,0.0,0.0,0.018010024917964225,0.0,-0.047357837421604654,-0.06195704073143384,-0.038231138120119565,0.035789664381414864,0.1223961537795599,-0.01112536957423849
1808,5.0,300.42701,179.11338,0.0,0.0,0.0,0.0,0.018019991727548045,0.0,0.016509675227628084,-0.05029071820705745,-0.02066495106622188,0.04532171843840536,0.15630276479088184,-0.03904024061647176
1809,5.0,300.77472,272.76675,0.0,0.0,0.0,0.0,0.01802995853713187,0.0,-0.0004584490708779005,-0.02882976900802667,-0.053626060918980145,0.06307221365899283,0.15523284361278886,0.008447694166297502
1810,5.0,300.6107,438.24735,0.0,0.0,0.0,0.0,0.01803992534671569,0.0,-0.04599098836795716,-0.05222020376298285,-0.035005058219480266,0.043312135462074956,0.15204623284329485,-0.016611954719222284
1811,5.0,299.172,413.61671,0.0,0.0,0.0,0.0,0.01804989215629951,0.0,-0.03901472191270326,-0.03949587385518926,-0.047218555049608556,0.027357406168465773,0.15868877625886285,-0.023260010215334276
1812,5.0,299.36292000000003,617.59831,0.0,0.0,0.0,0.0,0.01805985896588333,0.0,-0.08427898299093801,-0.04826034840492555,-0.05519513544083574,0.05031399053535425,0.15614976402578185,-0.005381753479037714
1813,5.0,299.46261,716.08291,0.0,0.0,0.0,0.0,0.01806982577546715,0.0,-0.0907412499619641,-0.035601861515130166,-0.09132821358589291,0.04203379988416306,0.16269322171407083,0.0022170609304068777
1814,5.0,300.12617,618.3588,0.0,0.0,0.0,0.0,0.018079792585050974,0.0,-0.06332279547497334,-0.05275700238771074,-0.07188583590482964,0.037623031006354064,0.15791980049297086,0.005548628069806954
1815,5.0,300.41596,487.61483,0.0,0.0,0.0,0.0,0.01808975939463479,0.0,-0.04446090978945016,-0.04098657044205956,-0.06277525335943515,0.012724037078514688,0.13550926167122287,0.02065217904871138
1816,5.0,300.11627000000004,572.41055,0.0,0.0,0.0,0.0,0.01809972620421861,0.0,-0.05992017498291084,-0.05180273357603175,-0.06227560554962375,0.023833744845957478,0.16786237789422684,0.044706390904427254
1817,5.0,300.31098,604.27315,0.0,0.0,0.0,0.0,0.018109693013802435,0.0,-0.04609825102354315,-0.05032375927956836,-0.08726193960958292,0.03877006153030716,0.17316514123256885,0.008939940184128402
1818,5.0,300.84047000000004,519.59204,0.0,0.0,0.0,0.0,0.018119659823386255,0.0,-0.06559214132644034,-0.07544678787076822,-0.016904075736302385,0.055289885470936856,0.17837661073690084,-0.016185935741177486
1819,5.0,299.9478,502.22575,0.0,0.0,0.0,0.0,0.01812962663297008,0.0,-0.05028030807553005,-0.053159927369476355,-0.049223852991266054,0.05730049081661815,0.13926826755470786,-0.019774374142578783
1820,5.0,300.23264,511.70912000000004,0.0,0.0,0.0,0.0,0.018139593442553895,0.0,-0.045861847616211954,-0.05065837803234265,-0.059026568441468745,0.04593957200488276,0.15315177989490383,-0.008353872374613013
1821,5.0,300.22927999999996,481.32862,0.0,0.0,0.0,0.0,0.018149560252137716,0.0,-0.046546021441484654,-0.04359725492096405,-0.05616860534190974,0.06273978656618484,0.16958997944722784,0.002294661905215498
1822,5.0,299.28675,675.67848,0.0,0.0,0.0,0.0,0.01815952706172154,0.0,-0.07692033114669564,-0.05464073564862074,-0.07382831943303783,0.03998408916412236,0.16826188214365484,-0.02134081725392468
1823,5.0,299.79776,743.27003,0.0,0.0,0.0,0.0,0.01816949387130536,0.0,-0.08505901128892082,-0.06525544845071135,-0.07562107094096862,0.024474755230220274,0.14245521269673486,0.01094427138386549
1824,5.0,300.53162000000003,391.46917,0.0,0.0,0.0,0.0,0.01817946068088918,0.0,-0.06036777010858504,-0.039916040300656465,-0.01871304228558348,0.03704148827046026,0.15892790328246284,-0.02306925980450868
1825,5.0,300.17475,437.72148,0.0,0.0,0.0,0.0,0.018189427490473,0.0,-0.06001430186420044,-0.03313100352352547,-0.03991109564016846,0.03927478065686907,0.17086833630339182,0.02106313099776918
1826,5.0,299.00252,787.82981,0.0,0.0,0.0,0.0,0.01819939430005682,0.0,-0.06885410750587134,-0.0962568545898119,-0.07436962904721092,0.037576505601512364,0.15181680262315186,-0.00972775004022918
1827,5.0,298.57647000000003,612.07053,0.0,0.0,0.0,0.0,0.01820936110964064,0.0,-0.06415860116446094,-0.04441655476632266,-0.07747900178808213,0.04467444819502475,0.14737462299224288,0.038212967506076265
1828,5.0,299.2422,347.73,0.0,0.0,0.0,0.0,0.01821932791922446,0.0,-0.020855971001574082,-0.05066005597450825,-0.034185210205817565,0.026798152908271772,0.17287532130646585,-0.01997631691400898
1829,5.0,298.73991,415.95952,0.0,0.0,0.0,0.0,0.018229294728808285,0.0,-0.03203472973683168,-0.04591771417372555,-0.048488863660228254,0.05159569314334845,0.1996736687587568,0.011539911468400589
1830,5.0,298.94231,456.90008,0.0,0.0,0.0,0.0,0.018239261538392105,0.0,-0.07905265924014002,-0.04358870612987036,-0.016244849141741787,0.045833254711640056,0.17086521549308384,-0.033078576950101364
1831,5.0,299.69246,570.20672,0.0,0.0,0.0,0.0,0.01824922834797592,0.0,-0.041378433772483465,-0.07225740079600024,-0.05969276923646764,0.03743773390756667,0.15162091098131886,-0.0015146267171320183
1832,5.0,300.11216,545.76425,0.0,0.0,0.0,0.0,0.018259195157559745,0.0,-0.05809466307274685,-0.03980270321072096,-0.06800133899645965,0.06043590104530904,0.15331553124356487,0.015987695385612684
1833,5.0,301.28779,401.40524,0.0,0.0,0.0,0.0,0.018269161967143566,0.0,-0.021409377808691083,-0.02022624214392468,-0.08038154890529123,0.02958966706627277,0.16933352584691785,0.026709233119246074
1834,5.0,300.10891000000004,433.04380999999995,0.0,0.0,0.0,0.0,0.01827912877672739,0.0,-0.05411183936142275,-0.052316139295700954,-0.025206527492190576,0.003101391065858467,0.14563437607799387,-0.02850342749531927
1835,5.0,299.36947999999995,775.84473,0.0,0.0,0.0,0.0,0.01828909558631121,0.0,-0.08072917576284933,-0.06903173024840134,-0.08607651805259092,0.021163550162179783,0.13969259643158585,-0.006699720612085944
1836,5.0,300.21122,666.43862,0.0,0.0,0.0,0.0,0.018299062395895026,0.0,-0.13017489506226188,-0.05365427689451486,-0.018751533630382282,0.04343614916831416,0.15877596642996783,-0.01118173769055159
1837,5.0,300.00732999999997,281.98187,0.0,0.0,0.0,0.0,0.01830902920547885,0.0,0.005858603668224165,-0.047603359066585756,-0.04397069128506936,0.07355090776765942,0.16945552115895784,0.005559864304140885
1838,5.0,300.63947,265.08619,0.0,0.0,0.0,0.0,0.01831899601506267,0.0,-0.01187277932500209,-0.044570909233556257,-0.024135895012527376,0.06694946886889813,0.16037399356018084,-0.014351076598840985
1839,5.0,300.35148,607.64603,0.0,0.0,0.0,0.0,0.01832896282464649,0.0,-0.03594715485770797,-0.07556475855341102,-0.07319730678751173,0.04793132076620305,0.14658047809386687,0.02868838819507347
1840,5.0,299.84316,555.58683,0.0,0.0,0.0,0.0,0.01833892963423031,0.0,-0.05397419237508805,-0.042124185846083455,-0.07278614509568324,0.05120056309460215,0.17338805625456882,-0.018427009888354284
1841,5.0,301.01355,521.9154,0.0,0.0,0.0,0.0,0.01834889644381413,0.0,-0.051661360869079354,-0.04572803882125605,-0.06125984866887635,0.028328789787583873,0.2029084291730028,0.011662677863766688
1842,5.0,300.60212,483.75399000000004,0.0,0.0,0.0,0.0,0.018358863253397955,0.0,-0.08646736104016411,-0.04480824381772936,-0.015773527751725983,0.03524417409732917,0.15645334388824286,-0.01830086734365498
1843,5.0,299.36652000000004,380.07655,0.0,0.0,0.0,0.0,0.018368830062981775,0.0,-0.027709789221993273,-0.03361379490467327,-0.05421019757512995,0.0034596158101874966,0.15379469721585484,0.005916595315172494
1844,5.0,299.9362,608.62851,0.0,0.0,0.0,0.0,0.0183787968725656,0.0,-0.08105138929464932,-0.03712041437374967,-0.06683606591770613,0.060492462692391245,0.15780854563199084,0.014940611851523585
1845,5.0,299.23326000000003,734.1556,0.0,0.0,0.0,0.0,0.018388763682149416,0.0,-0.06806262137575773,-0.06045644266458634,-0.09464590649432371,0.06746422930395103,0.15490606032303783,0.04079733078713306
1846,5.0,300.16121,486.1861,0.0,0.0,0.0,0.0,0.018398730491733236,0.0,-0.043535568254876054,-0.07343044043677023,-0.030822425641436575,0.07850977503531152,0.15339943848434587,-0.026250888423260975
1847,5.0,300.33628,394.75857,0.0,0.0,0.0,0.0,0.01840869730131706,0.0,-0.04352194510728155,-0.057112338379048944,-0.019362465685426582,0.05023899482920275,0.13713309628148287,-0.03680916826103207
1848,5.0,299.31131,695.09067,0.0,0.0,0.0,0.0,0.01841866411090088,0.0,-0.11043397641148489,-0.06796312832193853,-0.03289309645304587,0.05602364268985305,0.15967146673584687,-0.0036432835014890866
1849,5.0,298.32141,685.5575299999999,0.0,0.0,0.0,0.0,0.018428630920484704,0.0,-0.04920961581411095,-0.07025192148257484,-0.08893083243853982,0.036505539762566264,0.16218362784127785,-0.0006244776282111435
1850,5.0,298.44557000000003,387.38042,0.0,0.0,0.0,0.0,0.01843859773006852,0.0,-0.03285469326100576,-0.03517535921678767,-0.04972392231311905,0.04257573771339816,0.12481639283591887,0.007882485224665722
1851,5.0,298.66065,284.78627,0.0,0.0,0.0,0.0,0.01844856453965234,0.0,0.008807810344588201,-0.035873845199722865,-0.05950187899712825,0.01638332597990838,0.14704763705247187,-0.006204361079347765
1852,5.0,299.30872,359.08589,0.0,0.0,0.0,0.0,0.01845853134923616,0.0,-0.05576249267532954,-0.019765873987489878,-0.03362477752250717,0.028685040416743073,0.17869044469037382,0.030489939780122773
1853,5.0,299.64895,397.8098,0.0,0.0,0.0,0.0,0.018468498158819985,0.0,-0.06248103390139795,-0.03127064695567257,-0.027172564018973274,0.05697552732404674,0.18530947057112082,-0.02026604159460258
1854,5.0,299.66164,605.6918400000001,0.0,0.0,0.0,0.0,0.018478464968403805,0.0,-0.06795385100402293,-0.07578254146365453,-0.040378802767077566,0.057514905683529245,0.18271786052534883,-0.006046890260106604
1855,5.0,299.59553,640.16593,0.0,0.0,0.0,0.0,0.018488431777987625,0.0,-0.053548587816334155,-0.08163894972288702,-0.059406920237506544,0.07161075370143113,0.16913274020710184,-0.015546726915592484
1856,5.0,299.9254,430.76710999999995,0.0,0.0,0.0,0.0,0.018498398587571442,0.0,-0.05129212949288905,-0.03455598374866007,-0.04509432991721386,0.04827219329859455,0.16144340811322386,0.012677295851401687
1857,5.0,299.88967,454.92652999999996,0.0,0.0,0.0,0.0,0.018508365397155266,0.0,-0.03623723518908666,-0.04959303877120186,-0.05245603164425725,0.02799668592155777,0.16345713122946284,-0.01945554182636248
1858,5.0,299.46355,646.0964799999999,0.0,0.0,0.0,0.0,0.018518332206739086,0.0,-0.08365011032962312,-0.05624021476622704,-0.056506871795044045,0.03142468022262447,0.12079953506698587,0.002922259897904597
1859,5.0,299.98567,425.43442999999996,0.0,0.0,0.0,0.0,0.01852829901632291,0.0,-0.048223013178490856,-0.05624270533497285,-0.02485572409556898,0.047375263296824455,0.14547291467455886,-0.026853882677021875
1860,5.0,299.92963,324.42798,0.0,0.0,0.0,0.0,0.01853826582590673,0.0,-0.028659898642011773,-0.037659514089454664,-0.032298591208622766,0.053042977029684246,0.17522655803101483,0.005292281164732485
1861,5.0,300.47847,604.56997,0.0,0.0,0.0,0.0,0.018548232635490547,0.0,-0.04861768017194145,-0.03877020135882096,-0.0963862922238364,0.06334270583943835,0.19308416898592382,0.018093386147178182
1862,5.0,300.12984,555.53748,0.0,0.0,0.0,0.0,0.01855819944507437,0.0,-0.050144350177112045,-0.03238591411549087,-0.0863392598830215,0.042579966006065464,0.18330471471826684,0.009415242127162052
1863,5.0,300.70092,494.84132,0.0,0.0,0.0,0.0,0.01856816625465819,0.0,-0.024897645291956275,-0.04299019652105206,-0.08253156226598102,0.05441354268469855,0.19811883648030681,-0.001864488703085708
1864,5.0,301.40404,763.4044700000001,0.0,0.0,0.0,0.0,0.01857813306424201,0.0,-0.11364829957121389,-0.06493250943183974,-0.05347508564083005,0.02659071426829918,0.1969825170231608,0.020590674767641377
1865,5.0,301.37835,643.6299799999999,0.0,0.0,0.0,0.0,0.018588099873825835,0.0,-0.08778190308389933,-0.06290701133618865,-0.044958529072561364,0.008668126117602442,0.18048234709472083,-0.006398505878008364
1866,5.0,299.77825,478.17129000000006,0.0,0.0,0.0,0.0,0.01859806668340965,0.0,-0.05902032986060304,-0.05508961253567145,-0.03124218982661407,-2.051419870309378e-05,0.15904645354416286,-0.011459867750250888
1867,5.0,299.93757,533.8840700000001,0.0,0.0,0.0,0.0,0.018608033492993475,0.0,-0.025251474253376475,-0.06694035265774843,-0.07009560029689713,0.03636608311155297,0.15549234709589985,-0.02209600977870638
1868,5.0,299.17817,481.21019,0.0,0.0,0.0,0.0,0.018618000302577296,0.0,-0.04724400789212055,-0.024636215620405178,-0.07439565842902984,0.07120922599155344,0.15810750507399585,0.033983466031406964
1869,5.0,300.22617,375.55908999999997,0.0,0.0,0.0,0.0,0.018627967112161116,0.0,0.0014092423232563889,-0.05298880462633785,-0.06258102344776614,0.06677464573639444,0.15757966256690184,-0.009659240350617802
1870,5.0,300.1618,391.89201,0.0,0.0,0.0,0.0,0.018637933921744936,0.0,-0.06817916844201002,-0.03640637500177946,-0.014539841039470586,0.05188219163562365,0.13981650678631485,-0.001762013654222208
1871,5.0,299.4632,411.14106,0.0,0.0,0.0,0.0,0.018647900731328756,0.0,-0.025074432103153774,-0.057642178002090046,-0.04226000492923776,0.06384813424107023,0.1339477824721169,-0.028645402072831075
1872,5.0,299.54586,388.69147999999996,0.0,0.0,0.0,0.0,0.01865786754091258,0.0,-0.043459741683642555,-0.03794329200521136,-0.03674947060489036,0.06390532916946494,0.1863973972034908,0.003635215396242827
1873,5.0,299.73866,596.35704,0.0,0.0,0.0,0.0,0.0186678343504964,0.0,-0.01199150893196979,-0.06946736294339494,-0.0998187752228461,0.051548507099441546,0.17477212549366583,0.0004958180790709345
1874,5.0,299.289,678.52359,0.0,0.0,0.0,0.0,0.01867780116008022,0.0,-0.08250452368706251,-0.04255522142537336,-0.08119448250027152,0.022983166983261978,0.17432221205176285,0.017135959034937483
1875,5.0,299.57551,478.65155,0.0,0.0,0.0,0.0,0.01868776796966404,0.0,-0.03889934413706636,-0.06353721439488484,-0.043061560738845164,0.0097544767407669,0.1847453435779458,-0.009819057755765552
1876,5.0,300.20919,331.84767,0.0,0.0,0.0,0.0,0.01869773477924786,0.0,-0.07068274529259383,-0.028653748213904772,-0.0015369120385064087,0.04873230104975366,0.1915642431734188,-0.0009521397199063741
1877,5.0,300.04366,617.54895,0.0,0.0,0.0,0.0,0.018707701588831685,0.0,-0.07436293754355053,-0.06373644266929714,-0.049620080389870654,0.04117748601265146,0.17451079816037482,-0.03046922185532807
1878,5.0,300.51698999999996,678.92848,0.0,0.0,0.0,0.0,0.018717668398415505,0.0,-0.07283795257329623,-0.060172326323296235,-0.07336702719251183,0.03574443391020097,0.16328554745752885,-0.03446911477783676
1879,5.0,300.08783,193.94993,0.0,0.0,0.0,0.0,0.018727635207999326,0.0,0.0017781266612874383,-0.0004595200053060936,-0.06027454198013414,0.055765126112339455,0.15063982143949287,-0.030201977141453073
1880,5.0,299.71963999999997,56.803534,0.0,0.0,0.0,0.0,0.018737602017583146,0.0,0.01878102630104298,-0.007716403806074763,-0.028331478953349268,0.04816888535814886,0.17297099238090782,0.028102639458014576
1881,5.0,298.88629,297.03975,0.0,0.0,0.0,0.0,0.018747568827166963,0.0,-0.03020506451450777,-0.013455525630456988,-0.04663207575922755,0.05675621643265245,0.15242027411770986,0.017420212164991084
1882,5.0,298.86227,676.51968,0.0,0.0,0.0,0.0,0.018757535636750786,0.0,-0.08882672099076483,-0.06732391139035274,-0.04949445662922255,0.03356560270341707,0.13736886944725188,0.018452482995868283
1883,5.0,299.34651,909.7824400000001,0.0,0.0,0.0,0.0,0.018767502446334607,0.0,-0.096318988099194,-0.09487642089207371,-0.08535573752770541,0.047501307556264055,0.16866404110834482,-0.02014764129391738
1884,5.0,301.45659,841.29308,0.0,0.0,0.0,0.0,0.01877746925591843,0.0,-0.07884223759187302,-0.06611424985121844,-0.1107756038152009,0.06114960300499594,0.16737735533635884,0.028981101963462073
1885,5.0,301.20422,520.0604400000001,0.0,0.0,0.0,0.0,0.01878743606550225,0.0,-0.024599726457803974,-0.07312037070741874,-0.06036529068559034,0.06260728385060785,0.16854600760419583,-0.02695247191175187
1886,5.0,301.46148,696.1363,0.0,0.0,0.0,0.0,0.018797402875086067,0.0,-0.07359846770085322,-0.06305517079231085,-0.07495441317017464,0.027331444674403575,0.17097107986353183,0.01932968501819138
1887,5.0,301.29232,731.10473,0.0,0.0,0.0,0.0,0.01880736968466989,0.0,-0.08079888939622952,-0.07343810770027692,-0.06800058311188503,0.027107433315795373,0.15727995331982284,-0.008903866758043232
1888,5.0,300.39096,190.65417,0.0,0.0,0.0,0.0,0.01881733649425371,0.0,-0.03891342324720586,-0.028104452162443474,0.009063767756324231,0.019413479788211282,0.1892063899257168,0.018042767211932483
1889,5.0,300.11927000000003,166.6692,0.0,0.0,0.0,0.0,0.018827303303837535,0.0,0.009358873402898892,-0.04159896664349836,-0.01842318081622638,0.01776504954502388,0.16787971460343784,-0.042705211824426256
1890,5.0,299.77427,634.91682,0.0,0.0,0.0,0.0,0.018837270113421355,0.0,-0.04749608526524866,-0.07093419242415973,-0.07456858374409622,0.04567608746212886,0.15459491148232984,-0.00951272762855812
1891,5.0,298.50117,663.95703,0.0,0.0,0.0,0.0,0.018847236923005172,0.0,-0.030237304106189574,-0.06183167636281134,-0.1097573786572099,0.05561937211195465,0.14707285684746085,-0.036966429742802565
1892,5.0,300.43978,605.74243,0.0,0.0,0.0,0.0,0.018857203732588996,0.0,-0.04546526254032206,-0.05703137665630864,-0.08163393413489202,0.07853401197770352,0.1865550690515518,0.02161656009638838
1893,5.0,300.82268999999997,523.87585,0.0,0.0,0.0,0.0,0.018867170542172816,0.0,-0.052590261951254755,-0.06365039139130453,-0.04300452387746606,0.05338694200138095,0.16399347490489585,-0.0004582517302884246
1894,5.0,301.16272999999995,613.2192299999999,0.0,0.0,0.0,0.0,0.01887713735175664,0.0,-0.07305159635688123,-0.07363006083897122,-0.03972167663997426,0.054068285819124345,0.16923161315185986,0.01101385633448299
1895,5.0,300.84963,666.1709099999999,0.0,0.0,0.0,0.0,0.01888710416134046,0.0,-0.06940861064959652,-0.06393075566747435,-0.06915995704855633,0.04435750052399446,0.16269726458196987,-0.014558978294109287
1896,5.0,299.09396,602.2688400000001,0.0,0.0,0.0,0.0,0.018897070970924277,0.0,-0.06133322520136803,-0.06653727771496804,-0.055204186803979045,0.04199546356662956,0.14795672504219187,0.002370292209904628
1897,5.0,299.05728,425.00642999999997,0.0,0.0,0.0,0.0,0.0189070377805081,0.0,-0.02821804864440457,-0.036026356565024564,-0.06494693811326373,0.02869644454661857,0.15203565451225087,-0.004493008714225436
1898,5.0,299.65715,277.80269,0.0,0.0,0.0,0.0,0.01891700459009192,0.0,-0.02125715724616808,-0.04553669464587186,-0.017651229134790683,0.007489476415003774,0.15191394291023885,-0.00994206804043072
1899,5.0,298.59157000000005,391.11032,0.0,0.0,0.0,0.0,0.01892697139967574,0.0,-0.06719683665556143,-0.022541176143890878,-0.029149758455857173,0.05470120236158835,0.20340368555688082,0.007464910470304303
1900,5.0,299.81742,816.79301,0.0,0.0,0.0,0.0,0.018936938209259565,0.0,-0.1245458347942169,-0.05313651318616555,-0.07060232768515723,0.04941516474264705,0.18945713892796381,0.01922777029663318
1901,5.0,300.54339,682.71958,0.0,0.0,0.0,0.0,0.01894690501884338,0.0,-0.03653645807611767,-0.07852046077086614,-0.09247278697835351,0.08154211239757993,0.18087319818829484,0.004216897251375356
1902,5.0,301.52461,464.44795,0.0,0.0,0.0,0.0,0.018956871828427202,0.0,-0.01864629747499628,-0.05895329931348764,-0.06358098274620444,0.05217331966760575,0.13629065988334088,-0.01977438022207938
1903,5.0,301.35075,595.42745,0.0,0.0,0.0,0.0,0.018966838638011022,0.0,-0.003683821611489887,-0.07969985146326292,-0.0976114038004955,0.06634881116986785,0.14686279996922982,-0.001940892826876208
1904,5.0,299.98797,484.30152000000004,0.0,0.0,0.0,0.0,0.018976805447594846,0.0,-0.06731228434545523,-0.04419955611165655,-0.03570372760068356,0.055932510975859044,0.16443380300085284,-0.01045803191262739
1905,5.0,299.33747,434.90592999999996,0.0,0.0,0.0,0.0,0.018986772257178666,0.0,-0.058706545556384944,-0.06444553940727954,-0.009048457851288261,0.04009896234120946,0.17897526929348384,-0.010082985696763209
1906,5.0,300.42697999999996,358.60483999999997,0.0,0.0,0.0,0.0,0.018996739066762483,0.0,-0.05868008554327354,-0.04678142071796675,-0.0035454120531299266,-0.0030532787087101474,0.16402579758308586,-0.01198557635263429
1907,5.0,299.45898,249.98334,0.0,0.0,0.0,0.0,0.019006705876346307,0.0,0.007959543198745752,-0.05338409172884965,-0.03056414515119627,0.03426933326886987,0.15536005716284385,-0.03049460782333347
1908,5.0,299.75252,330.17986,0.0,0.0,0.0,0.0,0.019016672685930127,0.0,-0.025673673278544275,-0.035328411657642764,-0.039364347912708667,0.05507195057317835,0.17762777838299684,-0.018472129915307285
1909,5.0,300.07761,744.8027900000001,0.0,0.0,0.0,0.0,0.01902663949551395,0.0,-0.050608240390894454,-0.07835404254794193,-0.097439166482247,0.07866225093685972,0.15326117037569983,-0.014099620348024188
1910,5.0,300.40342000000004,586.02272,0.0,0.0,0.0,0.0,0.01903660630509777,0.0,-0.07688201914716453,-0.04936477784167425,-0.05188947791709275,0.042555036000605055,0.15168436070258084,-0.007597068680847303
1911,5.0,300.86296,382.34764,0.0,0.0,0.0,0.0,0.019046573114681588,0.0,-0.06871734002062344,-0.03411601231673827,-0.013390781988817288,0.039064880832403566,0.1801865591255288,0.006747343468110953
1912,5.0,300.19027,608.73347,0.0,0.0,0.0,0.0,0.01905653992426541,0.0,-0.09167217450458923,-0.025588341408122675,-0.06777925889254204,0.05162024925952195,0.1839366484081338,0.037481981526183566
1913,5.0,299.31789,782.882,0.0,0.0,0.0,0.0,0.019066506733849232,0.0,-0.09877089122117799,-0.03702126177196407,-0.1021844284698179,0.06027471727240144,0.16046654382431483,0.03937133427214816
1914,5.0,299.60396000000003,636.4258,0.0,0.0,0.0,0.0,0.019076473543433056,0.0,-0.017949880548765285,-0.07011634760594473,-0.1053913245063139,0.040863530469166465,0.1277143185194219,-0.002178447792946058
1915,5.0,299.53477999999996,471.91335999999995,0.0,0.0,0.0,0.0,0.019086440353016876,0.0,-0.017580082765769084,-0.050872257903200956,-0.07499753608118052,0.058352046836648644,0.15440237369832785,0.016220543298342986
1916,5.0,298.69695,497.7699,0.0,0.0,0.0,0.0,0.019096407162600693,0.0,-0.061588563213317946,-0.039691036970200363,-0.050030019088828453,0.06318134170801294,0.17774529512959483,-0.0005594629928321986
1917,5.0,299.25273,606.93711,0.0,0.0,0.0,0.0,0.019106373972184516,0.0,-0.10049025403761591,-0.05960978607977785,-0.024393686102969377,0.04074010850098566,0.18337207558491483,0.024411201144197977
1918,5.0,300.55075,508.72857,0.0,0.0,0.0,0.0,0.019116340781768337,0.0,-0.053229254954568456,-0.08163274356602453,-0.01977878380701398,0.028234600084788074,0.17944034095688283,-0.025123576759503975
1919,5.0,300.35044,344.7462,0.0,0.0,0.0,0.0,0.01912630759135216,0.0,-0.011217106198542189,-0.047752028187508254,-0.04582510007483526,-0.007276621649271644,0.17322354496833284,-0.004079303258020886
1920,5.0,300.65817000000004,343.83645,0.0,0.0,0.0,0.0,0.01913627440093598,0.0,0.02144067001152938,-0.06564865535076783,-0.06030971189110514,0.03141215442488827,0.16534246542553085,-0.029565368315624677
1921,5.0,299.53893,457.77592999999996,0.0,0.0,0.0,0.0,0.019146241210519797,0.0,-0.01090070973556629,-0.061176852339935237,-0.06707489099277635,0.01017562695075619,0.14486521792708387,-0.021151969726786877
1922,5.0,300.46385,659.91327,0.0,0.0,0.0,0.0,0.01915620802010362,0.0,-0.06187125695146764,-0.05702176496586004,-0.08170413412832023,0.06402278410780683,0.1067231505702549,-0.0025676133449787073
1923,5.0,300.47624,627.43165,0.0,0.0,0.0,0.0,0.01916617482968744,0.0,-0.08311891092494782,-0.07857766279201152,-0.029026980914739972,0.05464754468929274,0.14526069957361487,-0.0070064418538319725
1924,5.0,299.56917000000004,343.85655,0.0,0.0,0.0,0.0,0.019176141639271265,0.0,-0.04304246705396075,-0.033326183863788265,-0.02815515418419737,0.06795861327949293,0.1973227360092378,0.01955385241731498
1925,5.0,299.5459,610.55183,0.0,0.0,0.0,0.0,0.019186108448855085,0.0,-0.07204582505586934,-0.04402631567580906,-0.06952037010912634,0.07031279552208264,0.17750646194852382,-0.0010027477931110022
1926,5.0,300.74935,754.14671,0.0,0.0,0.0,0.0,0.019196075258438902,0.0,-0.03627273035333976,-0.08614324462467632,-0.10682579280538491,0.03916957895198646,0.17195945467357684,0.0014190172482960988
1927,5.0,299.72971,404.94851,0.0,0.0,0.0,0.0,0.019206042068022722,0.0,-0.023831327231218877,-0.057355951060841646,-0.04190695819689476,0.043034628551187164,0.17276505943058382,-0.02047379839510658
1928,5.0,300.47062,460.30751,0.0,0.0,0.0,0.0,0.019216008877606543,0.0,-0.051303525516763746,-0.06267659522369834,-0.025941867407762973,0.03222075130944057,0.16981004723644685,0.00857762292264547
1929,5.0,299.16724,489.07840999999996,0.0,0.0,0.0,0.0,0.019225975687190366,0.0,-0.11076019228117989,-0.023478953296942277,-0.014428480800480186,0.01007415572876676,0.1760326896780738,0.013958767438373088
1930,5.0,299.03972000000005,565.59572,0.0,0.0,0.0,0.0,0.019235942496774187,0.0,-0.06511941861153624,-0.05221499160446846,-0.05459256573886674,0.007999154894180124,0.14224848941133286,-0.005919948767703454
1931,5.0,299.73456,646.88896,0.0,0.0,0.0,0.0,0.019245909306358003,0.0,-0.05634602340791954,-0.04840107567156425,-0.09189099295643491,0.04912318558058096,0.17718340741914082,0.00987428890414144
1932,5.0,300.20632,716.60887,0.0,0.0,0.0,0.0,0.019255876115941827,0.0,-0.02305836736593368,-0.07013025952981773,-0.1246425697812639,0.06991757124107703,0.20041027118395383,-0.008129262083870702
1933,5.0,300.50476000000003,555.42536,0.0,0.0,0.0,0.0,0.019265842925525647,0.0,-0.07188318828231834,-0.02971965185535127,-0.06723260033109103,0.06320175971077803,0.17244264324876385,0.016453565490090485
1934,5.0,301.53184,608.65748,0.0,0.0,0.0,0.0,0.01927580973510947,0.0,-0.09164049118721232,-0.04950892077440005,-0.043867264794361954,0.045268785239931254,0.15473925909157585,-0.012275218959969789
1935,5.0,299.98312000000004,796.76771,0.0,0.0,0.0,0.0,0.01928577654469329,0.0,-0.11530557143477389,-0.08069005924273882,-0.046201856859518255,0.04152914560560756,0.16760452600877884,0.014470528653129986
1936,5.0,300.20038999999997,495.18354000000005,0.0,0.0,0.0,0.0,0.01929574335427711,0.0,-0.03563187904934267,-0.055719962515632146,-0.05917159087528135,0.06144797070894254,0.18923553099859283,-0.007247979602069894
1937,5.0,300.3698,296.4661,0.0,0.0,0.0,0.0,0.019305710163860932,0.0,-0.0005860610612697235,-0.044201986898646455,-0.04533024291149666,0.011275091462014889,0.17754144947447684,-0.003238484108363497
1938,5.0,300.17394,470.72697999999997,0.0,0.0,0.0,0.0,0.019315676973444752,0.0,-0.010169487668400291,-0.05840038697241944,-0.07451937221323943,0.009099632655538821,0.14941677790628785,-0.025777427049033977
1939,5.0,299.85202999999996,617.7553,0.0,0.0,0.0,0.0,0.019325643783028576,0.0,-0.06650495199702773,-0.07990769844302582,-0.041369536423355356,0.03757756850086726,0.17840538703974082,-0.012239554582949988
1940,5.0,299.34866,563.64348,0.0,0.0,0.0,0.0,0.019335610592612396,0.0,-0.061621290178297844,-0.06866611212206764,-0.04104614245518886,0.06910846975797494,0.19102170853987482,-0.00986688802408603
1941,5.0,299.2136,617.58848,0.0,0.0,0.0,0.0,0.019345577402196213,0.0,-0.08800644234580961,-0.055139555633100454,-0.04458547875674416,0.05957766503835774,0.17316127061718684,0.0017922451868558282
1942,5.0,300.21367000000004,562.36564,0.0,0.0,0.0,0.0,0.019355544211780037,0.0,-0.047877249687866656,-0.04228016455322736,-0.08078769804887502,0.006892935855104805,0.14057529938870186,-0.009998661199591032
1943,5.0,301.66885,380.1758,0.0,0.0,0.0,0.0,0.019365511021363857,0.0,-0.008723154008008271,-0.031256254751252176,-0.07558454124836343,0.03638460836313126,0.16977149307014183,-0.0025999285251179674
1944,5.0,300.64243,497.33637000000004,0.0,0.0,0.0,0.0,0.01937547783094768,0.0,-0.018617115872116282,-0.05657220920124235,-0.07598851190423223,0.05206446519611265,0.19214587912832182,-0.0014314569197737986
1945,5.0,301.36527,805.38804,0.0,0.0,0.0,0.0,0.0193854446405315,0.0,-0.11411078744685789,-0.04846024745090405,-0.08224681872287902,0.06482297101652915,0.18331983240975883,0.01987760304951668
1946,5.0,300.56166,557.22323,0.0,0.0,0.0,0.0,0.019395411450115318,0.0,-0.09538155849092692,-0.04774923769673286,-0.026251152881537076,0.059433385316868446,0.15726891902623386,-0.013324927825067986
1947,5.0,299.99301,388.21886,0.0,0.0,0.0,0.0,0.01940537825969914,0.0,-0.06620458109763343,-0.02721835887049287,-0.024585898633689277,0.04683935734543466,0.16300619440495884,0.02150686057431188
1948,5.0,299.75502,640.57739,0.0,0.0,0.0,0.0,0.019415345069282962,0.0,-0.056148333247159045,-0.06191950082847894,-0.07665169726693352,0.09171703209976631,0.19541646806610383,-0.006287425397370573
1949,5.0,300.42997,674.26529,0.0,0.0,0.0,0.0,0.019425311878866786,0.0,-0.02345230380606218,-0.07523109529548101,-0.10627640860116491,0.03450250035538167,0.15038151359149987,0.041933120314476754
1950,5.0,299.51668,531.35221,0.0,0.0,0.0,0.0,0.0194352786884506,0.0,-0.021436249201343082,-0.07578781441717493,-0.06429373833029794,0.025137623445640273,0.15664714823486986,-0.04662094824662936
1951,5.0,300.20191,605.9191099999999,0.0,0.0,0.0,0.0,0.019445245498034423,0.0,-0.09211496479828922,-0.047632181978930356,-0.044437133875853664,-0.006010816428721395,0.14476914155260184,0.007950505717128823
1952,5.0,299.86687,470.64106,0.0,0.0,0.0,0.0,0.019455212307618246,0.0,-0.06294742988267765,-0.045769269994325255,-0.034346430455728764,0.051859152354849856,0.19402620786889582,-0.03038709692147297
1953,5.0,300.62748999999997,606.4810200000001,0.0,0.0,0.0,0.0,0.019465179117202067,0.0,-0.06058456509998104,-0.06884821950954023,-0.05492230062615904,0.03381525840880617,0.15229124684997586,0.004774521712033605
1954,5.0,301.40427999999997,804.63226,0.0,0.0,0.0,0.0,0.019475145926785887,0.0,-0.05361318757645966,-0.07652728940640542,-0.11444764244260289,0.04383778934895296,0.14474888668310287,-0.02005118191089758
1955,5.0,301.12399,644.80536,0.0,0.0,0.0,0.0,0.019485112736369704,0.0,-0.02246451161482468,-0.07666543795153963,-0.09687477807054622,0.045014499994835255,0.14518767463890786,-0.002734759790749778
1956,5.0,300.22331,240.70223,0.0,0.0,0.0,0.0,0.019495079545953524,0.0,-0.009492186819880902,-0.025445465038021874,-0.03822981481548896,0.07628315490081122,0.18529386651958082,-0.01689860925201288
1957,5.0,301.43179,441.90837999999997,0.0,0.0,0.0,0.0,0.019505046355537348,0.0,-0.06629974250727515,-0.057476773029265855,-0.010552597531210291,0.07529980581126222,0.17899913133333883,0.005632867757945765
1958,5.0,301.20515,734.7163,0.0,0.0,0.0,0.0,0.019515013165121168,0.0,-0.09578487154748082,-0.07401332775554673,-0.05353721003096125,0.05683926849034904,0.15385450936925785,-0.0003608450293526317
1959,5.0,301.16074,445.59769000000006,0.0,0.0,0.0,0.0,0.01952497997470499,0.0,-0.07312881817350243,-0.040494466279242664,-0.02182728673293548,0.034942484959554765,0.17548222129624685,0.020595036809321877
1960,5.0,300.38083,371.62766,0.0,0.0,0.0,0.0,0.01953494678428881,0.0,-0.014847471875831386,-0.03119262669797257,-0.06692543153677584,0.02949612077729047,0.20120977617535882,0.004197410729427186
1961,5.0,299.50071,677.52803,0.0,0.0,0.0,0.0,0.01954491359387263,0.0,-0.05005464613250895,-0.04856652725389305,-0.1073304318851889,0.013264711384875087,0.16431336809396685,-0.0019840004378055983
1962,5.0,299.58338,794.47704,0.0,0.0,0.0,0.0,0.019554880403456452,0.0,-0.06459788966581534,-0.08221105504734942,-0.0946922363418961,0.021988853514380877,0.17197440011255183,-0.03462488272895987
1963,5.0,299.97028,723.0454599999999,0.0,0.0,0.0,0.0,0.019564847213040273,0.0,-0.11315336742736788,-0.06629061413712424,-0.040343785856871664,0.044655721306676555,0.18601262561051682,-0.02432829296801558
1964,5.0,299.55612,509.07975,0.0,0.0,0.0,0.0,0.019574814022624096,0.0,-0.06297264967766664,-0.036674111141952966,-0.05510077247227286,0.0908025617255151,0.22393566882572977,-0.011326757084613889
1965,5.0,300.36523,240.91881,0.0,0.0,0.0,0.0,0.019584780832207917,0.0,-0.04508387418943196,-0.013403331091305789,-0.014746096203326385,0.06109337066419624,0.16458008591778983,0.016176833715529183
1966,5.0,301.27844,381.19462999999996,0.0,0.0,0.0,0.0,0.019594747641791734,0.0,0.02638895894813748,-0.06473607063495274,-0.07752653841652363,0.05176079211464245,0.12928447113938388,0.005796968171266214
1967,5.0,299.72144,669.2314200000001,0.0,0.0,0.0,0.0,0.019604714451375557,0.0,-0.05189499911688765,-0.061630428680949735,-0.08990421418685511,0.04340981175846487,0.15165001152419086,0.012513687371004788
1968,5.0,301.11859,729.27119,0.0,0.0,0.0,0.0,0.019614681260959378,0.0,-0.05598342274038365,-0.06214590143082294,-0.1035509076871789,0.04264233154972046,0.18830332064159083,0.024034959090565775
1969,5.0,301.26027,503.55837,0.0,0.0,0.0,0.0,0.0196246480705432,0.0,-0.09174691385846541,-0.046193840024727054,-0.015128417757558585,0.04768095578574396,0.17592235687468483,-0.01758720388747188
1970,5.0,299.57809,473.75574000000006,0.0,0.0,0.0,0.0,0.01963461488012702,0.0,-0.049512270579230654,-0.06187564027140024,-0.03262200341529107,-0.0016978588122156183,0.16888197093985285,-0.00954248374424482
1971,5.0,300.1753,701.77981,0.0,0.0,0.0,0.0,0.01964458168971084,0.0,-0.08517023068614732,-0.08034405358534072,-0.04780925351340595,0.031422218024881474,0.19939023230828382,-0.012895399961926887
1972,5.0,299.53014,511.70369000000005,0.0,0.0,0.0,0.0,0.019654548499294662,0.0,0.004304030579149746,-0.05696761992026635,-0.1028815546711189,0.024513098640504476,0.19954470228602883,0.0015697521835224787
1973,5.0,300.10997000000003,306.48945,0.0,0.0,0.0,0.0,0.019664515308878482,0.0,-0.02025906840741438,-0.017886750001284785,-0.055019321349734245,0.025466497070347576,0.17203273292080884,-0.012921012897954687
1974,5.0,300.61388,598.14997,0.0,0.0,0.0,0.0,0.019674482118462306,0.0,-0.04167301597405646,-0.06488853133774944,-0.07526110675019293,0.02652065005038437,0.13409839196698087,0.0024605083511082676
1975,5.0,300.02912000000003,533.68925,0.0,0.0,0.0,0.0,0.019684448928046126,0.0,-0.09185754658388401,-0.047724584308549756,-0.022646073873743476,0.06292119177133815,0.1857304151926648,0.0019715602597028484
1976,5.0,299.44551,562.27395,0.0,0.0,0.0,0.0,0.019694415737629943,0.0,-0.08565379112412101,-0.03937178820819296,-0.04589166250040446,0.08259523996851552,0.2044542029955588,0.024822441869534275
1977,5.0,301.17795,815.80332,0.0,0.0,0.0,0.0,0.019704382547213767,0.0,-0.1132899636733489,-0.05828201808248735,-0.07641185792851322,0.05140349074512955,0.15473018037067984,0.03145726330609017
1978,5.0,300.55942999999996,772.99843,0.0,0.0,0.0,0.0,0.019714349356797587,0.0,-0.054506232777346356,-0.08999663678147651,-0.09046935139037982,0.05268902546500195,0.13857234712102587,0.006535153293119414
1979,5.0,301.76394,702.04837,0.0,0.0,0.0,0.0,0.019724316166381407,0.0,-0.05697600152509354,-0.08498657201277161,-0.07144260180758584,0.05144905356237625,0.15943519707752885,0.01134196495536479
1980,5.0,301.47598,631.8955599999999,0.0,0.0,0.0,0.0,0.01973428297596523,0.0,-0.06675561791276653,-0.06611384961742893,-0.05921100427767114,0.0991134872919896,0.20425651790104882,-0.014439233410541385
1981,5.0,301.30818999999997,490.65227999999996,0.0,0.0,0.0,0.0,0.019744249785549048,0.0,-0.07920964511788332,-0.04177598447571866,-0.028160411938966273,0.033249105928681265,0.15930770994994684,-0.008974347320424122
1982,5.0,301.43426,294.72931,0.0,0.0,0.0,0.0,0.019754216595132868,0.0,-0.03145645675901057,-0.035713793227176965,-0.02242009984969158,0.03131601928190047,0.15460343291567086,-0.03135214975396627
1983,5.0,301.14883,284.37276,0.0,0.0,0.0,0.0,0.01976418340471669,0.0,-0.013993524956553385,-0.04068567670561366,-0.03176301557676557,0.0061973689443826935,0.18005695430523783,-0.017397677482767087
1984,5.0,299.91893,393.54638,0.0,0.0,0.0,0.0,0.019774150214300512,0.0,-0.0025775987220641875,-0.024809610070267874,-0.09224106377323422,0.04450104665241136,0.2096992617407058,0.015885941770820384
1985,5.0,300.32507999999996,667.2291299999999,0.0,0.0,0.0,0.0,0.01978411702388433,0.0,-0.05867090245761725,-0.06572422658297615,-0.07842586576803033,0.04609356575508076,0.16709781989877084,-0.0005160491878550894
1986,5.0,299.85721,909.6587099999999,0.0,0.0,0.0,0.0,0.01979408383346815,0.0,-0.12479016992333089,-0.07908130280721692,-0.07264206599771374,0.07102375664024903,0.13698182817405388,0.0034230793288066268
1987,5.0,300.03448,911.21519,0.0,0.0,0.0,0.0,0.019804050643051973,0.0,-0.13504786810568686,-0.09603637542105231,-0.04590242422971655,0.06947151220255443,0.16847675195986084,-0.013813904084826186
1988,5.0,300.34292,713.75932,0.0,0.0,0.0,0.0,0.019814017452635793,0.0,-0.08477684444082312,-0.06815303976168134,-0.06403512549402483,0.08471510711223013,0.19089648096001582,0.007127622107491533
1989,5.0,301.02425,671.1368,0.0,0.0,0.0,0.0,0.019823984262219617,0.0,-0.060954561479996845,-0.06875015108536163,-0.07430411634874534,0.035545885526605765,0.15343863099821387,0.0011040208943083791
1990,5.0,299.3418,621.16793,0.0,0.0,0.0,0.0,0.019833951071803434,0.0,-0.02914672985130827,-0.06156234030072994,-0.0981104689914994,0.017624313159134285,0.13031397377098788,-0.0001980628037497768
1991,5.0,299.43806,374.66626,0.0,0.0,0.0,0.0,0.019843917881387254,0.0,-0.03783632015240407,-0.041775970290217256,-0.034276898194116466,0.011882216736433488,0.17099400971329484,-0.0037203895036238563
1992,5.0,299.73132999999996,129.54518000000002,0.0,0.0,0.0,0.0,0.019853884690971078,0.0,-0.003968469807757476,-0.01230788918294409,-0.023102140783503776,0.04869882833270015,0.18972373516177482,-0.004288404438757566
1993,5.0,300.027,408.73854,0.0,0.0,0.0,0.0,0.019863851500554898,0.0,-0.06363273956131245,-0.04147216447298396,-0.019141404911109584,0.02280940067061258,0.17343276084898085,0.01095746693991779
1994,5.0,299.33898999999997,707.48217,0.0,0.0,0.0,0.0,0.01987381831013872,0.0,-0.06031175460330674,-0.06139285902275344,-0.09335230022415472,0.05360097993925485,0.16130336681690285,-0.02616772389480327
1995,5.0,300.5808,756.90965,0.0,0.0,0.0,0.0,0.01988378511972254,0.0,-0.06258904332230765,-0.07222469206952213,-0.0952678991874596,0.07257643272248623,0.20787693143585578,0.007252368596203054
1996,5.0,300.72062999999997,737.76048,0.0,0.0,0.0,0.0,0.01989375192930636,0.0,-0.027104860673791472,-0.08067885978938352,-0.11647704053788889,0.06215245006621924,0.21387796594811181,-0.0005240802790751966
1997,5.0,301.17267000000004,656.2502400000001,0.0,0.0,0.0,0.0,0.019903718738890182,0.0,-0.07855560535058462,-0.06391624693929245,-0.057011836128130156,0.06042329418756485,0.18165552859050482,0.03231742651473167
1998,5.0,300.19523,579.13255,0.0,0.0,0.0,0.0,0.019913685548474003,0.0,-0.06823213710423763,-0.04586024060155336,-0.061949456554435345,0.03473765341208947,0.13132459955322887,-0.007195948500159822
1999,5.0,299.94693,597.32736,0.0,0.0,0.0,0.0,0.019923652358057826,0.0,-0.0939007694635344,-0.06148244654359504,-0.026189384142190977,0.06441815429682685,0.18204566027650781,-0.003793813354895226
2000,5.0,299.28238999999996,238.78548999999998,0.0,0.0,0.0,0.0,0.019933619167641647,0.0,-0.005663449875113984,-0.025046699447916775,-0.04187467706195886,0.03680387706900986,0.17090352647936485,0.01087902213042589
2001,5.0,299.92566,109.49523,0.0,0.0,0.0,0.0,0.019943585977225464,0.0,0.007888889370597762,-0.024340209802441677,-0.01683249468298788,0.03597138369409917,0.16843758984349583,-0.039989615430167755
2002,5.0,299.13747,436.43482,0.0,0.0,0.0,0.0,0.019953552786809287,0.0,-0.022810230522444477,-0.03572150912668847,-0.07413354886666162,0.004946800776186225,0.14776623402339184,0.007698703238752852
2003,5.0,298.87363999999997,715.69576,0.0,0.0,0.0,0.0,0.019963519596393108,0.0,-0.11249071199446889,-0.051252017961180354,-0.05381090610822295,0.06618282965773674,0.2042570346585998,-0.04056653065285486
2004,5.0,300.15865,767.70881,0.0,0.0,0.0,0.0,0.01997348640597693,0.0,-0.07966897570621573,-0.09199565966526473,-0.06169967317953364,0.04457718733117586,0.2206253908815308,0.03359448033126707
2005,5.0,300.40861,624.68495,0.0,0.0,0.0,0.0,0.01998345321556075,0.0,-0.0932855766918196,-0.05306195824380754,-0.04354109148117116,0.05055403252379455,0.17862309395622683,-0.012394124872454887
2006,5.0,299.76603,848.88863,0.0,0.0,0.0,0.0,0.01999342002514457,0.0,-0.08379660096283062,-0.07681390138269183,-0.09743044543863631,0.025616255435127574,0.13661780794312786,0.023929477728655578
2007,5.0,299.91202000000004,726.29175,0.0,0.0,0.0,0.0,0.02000338683472839,0.0,-0.08597059288713692,-0.07446645725326713,-0.060337504328098035,0.04470687726447526,0.18153005783062184,-0.023234253397792278
2008,5.0,299.69229,390.8785,0.0,0.0,0.0,0.0,0.02001335364431221,0.0,-0.031058721644257173,-0.037888365743790564,-0.04987021536255705,0.029975144894566475,0.1973779480071868,0.006228700562649884
2009,5.0,300.35677999999996,391.78282,0.0,0.0,0.0,0.0,0.020023320453896033,0.0,-0.05674450630124674,-0.06074551886511595,-0.0016021704111969085,0.026347379217033874,0.16829433654435783,-0.02078969937878358
2010,5.0,299.59943,402.18602999999996,0.0,0.0,0.0,0.0,0.02003328726347985,0.0,-0.05220621179235194,-0.015400191699380587,-0.05464810805634834,0.03235236844443017,0.15748215750977887,-0.013426735142115587
2011,5.0,298.90536000000003,300.48386,0.0,0.0,0.0,0.0,0.02004325407306367,0.0,-0.04450275093907955,-0.04863549918820005,0.0017986597692638984,0.07210847126980204,0.2050088358352968,-0.025224808550494776
2012,5.0,300.95416,650.51885,0.0,0.0,0.0,0.0,0.020053220882647493,0.0,-0.008837570513275302,-0.08073398566107401,-0.1081699298580409,0.07176370583052634,0.1938436708633808,-0.008645143882809273
2013,5.0,300.99471,778.60228,0.0,0.0,0.0,0.0,0.020063187692231314,0.0,-0.04156867755825906,-0.09456854180943841,-0.10053843306662082,0.022155146094292682,0.16554467974798784,-0.02055213985308828
2014,5.0,299.88302999999996,683.4983,0.0,0.0,0.0,0.0,0.020073154501815137,0.0,-0.05075207124258945,-0.07703123542314103,-0.07998310856846821,0.023158317395547977,0.16056754459428285,-0.016374505637787886
2015,5.0,301.07774,669.5546099999999,0.0,0.0,0.0,0.0,0.020083121311398954,0.0,-0.1223552286080209,-0.04739921956893876,-0.033773440563929065,0.04032089856361286,0.1994315121173578,0.005968371989982454
2016,5.0,301.05118,577.53574,0.0,0.0,0.0,0.0,0.020093088120982774,0.0,-0.0949390741987571,-0.022313018565873477,-0.058304352141191534,0.09427552001301942,0.1996748035988688,0.03965752878939336
2017,5.0,299.21637999999996,432.07282999999995,0.0,0.0,0.0,0.0,0.020103054930566598,0.0,-0.060076805209869036,-0.022134228559228277,-0.04912831870558755,0.04173346850152266,0.15742630716426684,0.028700441818263072
2018,5.0,298.9575,690.09972,0.0,0.0,0.0,0.0,0.02011302174015042,0.0,-0.031509426434488265,-0.07002658580608594,-0.1082370678096669,0.06233626984636084,0.14665208447843386,0.012843687729823288
2019,5.0,298.86112,825.6091299999999,0.0,0.0,0.0,0.0,0.020122988549734242,0.0,-0.07589171409567902,-0.07696876247497543,-0.0981040834893692,0.038795175947285765,0.18947529636975582,-0.01077183242884709
2020,5.0,299.9265,609.37935,0.0,0.0,0.0,0.0,0.02013295535931806,0.0,-0.05114212490833475,-0.06867838562052894,-0.06541559465551652,0.06059183719594874,0.2087686117888578,-0.016455249511756684
2021,5.0,300.69085,430.64704000000006,0.0,0.0,0.0,0.0,0.02014292216890188,0.0,-0.06770965063717223,-0.05176974417927595,-0.011426553100212988,0.009301772301463451,0.16484257848869585,-0.010013064752412551
2022,5.0,300.67777,531.43246,0.0,0.0,0.0,0.0,0.020152888978485703,0.0,-0.07194617798803493,-0.05103297558106255,-0.03856304338912606,0.036539140149132364,0.17271894641853283,-0.014034689255115985
2023,5.0,300.03533,599.90214,0.0,0.0,0.0,0.0,0.020162855788069523,0.0,-0.07209166449039334,-0.03272664175311807,-0.07753696374680252,0.04286456870740356,0.18140698847347583,0.016756515110989283
2024,5.0,300.63096,445.29344000000003,0.0,0.0,0.0,0.0,0.020172822597653347,0.0,0.014304684943012487,-0.04434912499866786,-0.1053136487536479,0.05572545534442425,0.17969264023178283,0.01009712357540851
2025,5.0,300.11751,578.806,0.0,0.0,0.0,0.0,0.020182789407237164,0.0,-0.026518416847163977,-0.06264891424421644,-0.08677523910954932,0.038381894536248067,0.15069938028037086,0.02305912629025858
2026,5.0,299.36884,667.1514400000001,0.0,0.0,0.0,0.0,0.020192756216820984,0.0,-0.07035952661669465,-0.05856681532784464,-0.07387103603075364,0.04203422342270486,0.17267902436459284,-0.004479945083336156
2027,5.0,298.07492,593.38388,0.0,0.0,0.0,0.0,0.020202723026404808,0.0,-0.1083609376343919,-0.061504638747285234,-0.01050830634283909,0.06522848789205053,0.2236914856841308,0.002202869045531248
2028,5.0,298.84309,593.14453,0.0,0.0,0.0,0.0,0.020212689835988628,0.0,-0.09031292178694142,-0.033849024968388666,-0.05613918055900574,0.06554249308479045,0.20194025856995182,-0.014064328847041185
2029,5.0,299.50222,552.55012,0.0,0.0,0.0,0.0,0.02022265664557245,0.0,-0.04268013591095146,-0.05944186622020544,-0.06583943615909645,0.048669801757085455,0.16289797929427882,0.005838859375450555
2030,5.0,299.3179,382.28918,0.0,0.0,0.0,0.0,0.02023262345515627,0.0,0.03357732499382397,-0.07044187041257133,-0.07934182156692812,0.01211154867131679,0.15394650234583684,-0.040203810421807165
2031,5.0,299.81441,467.89965,0.0,0.0,0.0,0.0,0.02024259026474009,0.0,-0.03029884790401347,-0.05143495114748445,-0.06049601109424145,0.031264248281291075,0.19118419332591083,-0.0039414162327374965
2032,5.0,299.98191,508.38882,0.0,0.0,0.0,0.0,0.020252557074323913,0.0,-0.07179205758157443,-0.045706176937098456,-0.037039273305741666,0.024806951302005477,0.19964643259606882,-0.02114625398297278
2033,5.0,299.29087000000004,373.67516,0.0,0.0,0.0,0.0,0.020262523883907733,0.0,-0.08790991000878261,-0.02891763704344857,0.0032396288783264767,0.05436182437309435,0.16778114563370986,0.006976004226128013
2034,5.0,300.14001,569.62679,0.0,0.0,0.0,0.0,0.020272490693491553,0.0,-0.04989169525142695,-0.08656072798387873,-0.03669989835699796,0.05732031201507435,0.17560546290590984,-0.017753523825136383
2035,5.0,300.28786,761.20578,0.0,0.0,0.0,0.0,0.02028245750307537,0.0,-0.07091979515348884,-0.057881433708452744,-0.1025863239894819,0.1044877688621399,0.19990314964140482,0.024265953768863178
2036,5.0,299.30697000000004,751.72678,0.0,0.0,0.0,0.0,0.02029242431265919,0.0,-0.016318008838712084,-0.07176551954820533,-0.14042264312863587,0.06436840776991723,0.17208346635331584,0.029524826152623473
2037,5.0,300.78696,663.68273,0.0,0.0,0.0,0.0,0.020302391122243014,0.0,-0.060347753352859544,-0.05879571156518495,-0.08259951284418722,0.05227555660269575,0.14186937175391687,0.008490729228519733
2038,5.0,300.36732,628.702,0.0,0.0,0.0,0.0,0.020312357931826834,0.0,-0.07795995006729803,-0.05806936120449974,-0.05508039601276186,0.015915798198266985,0.16132889058692185,-0.006034004859909914
2039,5.0,301.20206,575.5158700000001,0.0,0.0,0.0,0.0,0.020322324741410658,0.0,-0.13577929282287288,-0.046677307243691554,0.007514146724463543,0.06684857854319104,0.21655536787985077,-0.003873359871220856
2040,5.0,301.01159,450.09986,0.0,0.0,0.0,0.0,0.020332291550994475,0.0,-0.07935238672572083,-0.04199375725346116,-0.015472974467313685,0.033410473099856966,0.19562948363462682,-0.02708960112728547
2041,5.0,299.79801000000003,409.3321,0.0,0.0,0.0,0.0,0.020342258360578295,0.0,-0.03643976564557487,-0.030691963611560968,-0.05729500710707695,0.05472383634232215,0.1268114417528149,0.0008291833502790251
2042,5.0,299.56667000000004,514.1527,0.0,0.0,0.0,0.0,0.02035222517016212,0.0,0.029128605846769573,-0.09215614733535361,-0.09326203990524672,0.01821822869199918,0.14797187313118687,-0.030134424770536176
2043,5.0,300.87484,565.03701,0.0,0.0,0.0,0.0,0.02036219197974594,0.0,-0.050871846523660356,-0.050362566758398356,-0.07052272777055132,0.06417605845043385,0.2003041535009808,0.006088040069192775
2044,5.0,299.58727999999996,699.8099900000001,0.0,0.0,0.0,0.0,0.020372158789329763,0.0,-0.08183132234712272,-0.06175910435089904,-0.06913433600652773,0.05609634946402865,0.1999737529083728,0.0030688372653206565
2045,5.0,300.26433,800.0762900000001,0.0,0.0,0.0,0.0,0.02038212559891358,0.0,-0.13339993840804887,-0.06363274766731324,-0.04617052311342586,0.05054333361598865,0.16960713377142084,0.026300573141914474
2046,5.0,299.46324,497.46734000000004,0.0,0.0,0.0,0.0,0.0203920924084974,0.0,-0.02074803858767198,-0.053804736428364044,-0.07666487458448402,0.06368097735882315,0.18442195467602981,-0.02006469461423118
2047,5.0,299.362,545.85204,0.0,0.0,0.0,0.0,0.020402059218081223,0.0,-0.027418984416793073,-0.07199142365800033,-0.06651498215976764,0.06493686336751943,0.2104640933136888,0.002119911220093948
2048,5.0,300.36521,777.59884,0.0,0.0,0.0,0.0,0.020412026027665044,0.0,-0.03647741599279067,-0.07305427640339572,-0.12683894136052887,0.05389381935065586,0.18593211275757082,-0.012763130293872887
2049,5.0,300.10397,434.42787000000004,0.0,0.0,0.0,0.0,0.020421992837248867,0.0,-0.0905249545028674,-0.014257532336358885,-0.027272736963609573,0.025312138550113578,0.1307009137191759,-0.002074666056753598
2050,5.0,298.9896,191.78996,0.0,0.0,0.0,0.0,0.020431959646832684,0.0,-0.030636591520096172,-0.03842704698720426,0.010764279662601689,0.04040472778413616,0.18020819201516383,-0.045047089157801555
2051,5.0,299.37015,361.82863,0.0,0.0,0.0,0.0,0.020441926456416504,0.0,-0.1067222285126639,-0.00991423750523406,0.006649592292538664,0.06020910122242565,0.2154145394597598,-0.015565943203738985
2052,5.0,299.50131,539.71988,0.0,0.0,0.0,0.0,0.020451893266000328,0.0,-0.03981321466725836,-0.05462140587646304,-0.06962674617087485,0.053067757074129855,0.2110644845279428,-0.027672458048558977
2053,5.0,300.59572000000003,705.4371,0.0,0.0,0.0,0.0,0.02046186007558415,0.0,-0.048002488413476756,-0.08020639747975512,-0.08622637774238093,0.016063572619351187,0.14158524629337588,0.002303014835064868
2054,5.0,301.31962000000004,426.36799,0.0,0.0,0.0,0.0,0.020471826885167972,0.0,0.02337478409391158,-0.05750132711893915,-0.095478679526262,0.04102993450658926,0.15695059637481784,-0.0021569958697789183
2055,5.0,300.57908,298.69849,0.0,0.0,0.0,0.0,0.02048179369475179,0.0,-0.03136562699354637,-0.03382588638910507,-0.025605370089303272,0.07353809319364472,0.20527234165630281,0.022226205323805683
2056,5.0,299.81628,526.59549,0.0,0.0,0.0,0.0,0.02049176050433561,0.0,-0.07200131703197672,-0.043337952061372864,-0.04473261280376516,0.05700042389225384,0.2022262990731818,0.002314278832451538
2057,5.0,299.38456,826.19704,0.0,0.0,0.0,0.0,0.020501727313919433,0.0,-0.14187390098186387,-0.05341094386974974,-0.05585842618154745,0.020309476586639282,0.15298487733843186,0.015533581008795087
2058,5.0,300.05593999999996,718.24108,0.0,0.0,0.0,0.0,0.020511694123503253,0.0,-0.054489704641715146,-0.09360682966252482,-0.07023082156249243,0.057054397698580644,0.2035171594355798,-0.04742141582562936
2059,5.0,299.2429,415.9788,0.0,0.0,0.0,0.0,0.020521660933087073,0.0,-0.03943908726658486,-0.025448799644100975,-0.061559280285427946,0.06477748216653974,0.23433967019002477,-0.0023549055005110775
2060,5.0,298.5528,446.47398,0.0,0.0,0.0,0.0,0.020531627742670894,0.0,-0.012212369082766988,-0.06797445848455673,-0.05553011592389575,0.04773836147015945,0.18732313289235383,-0.044990770690743365
2061,5.0,299.79482,735.61514,0.0,0.0,0.0,0.0,0.020541594552254714,0.0,-0.1049864601638569,-0.050871769516652746,-0.06775040456944434,0.0016271544228876385,0.10757191978152189,0.016915887192718086
2062,5.0,301.19852000000003,535.20303,0.0,0.0,0.0,0.0,0.020551561361838534,0.0,-0.07004956125210343,-0.03698580409796467,-0.05565299073702255,0.033323338657507466,0.14627519597123786,-0.027244688174341374
2063,5.0,301.34333,260.87095,0.0,0.0,0.0,0.0,0.020561528171422355,0.0,-0.024723140319983978,-0.03587042953363576,-0.018704686012008784,0.056400825039578044,0.19204070376794183,0.01021211813985759
2064,5.0,301.48947000000004,313.64062,0.0,0.0,0.0,0.0,0.02057149498100618,0.0,0.01079720015835069,-0.013623586331793287,-0.09251253171352601,0.03833027552315366,0.1983850679440818,-0.013201045841341786
2065,5.0,298.98389,467.589,0.0,0.0,0.0,0.0,0.020581461790589995,0.0,-0.019826726748745582,-0.042470387060750854,-0.07983826649317342,0.017721225464948785,0.15590095033122583,0.014178941618852586
2066,5.0,299.09382999999997,662.31218,0.0,0.0,0.0,0.0,0.020591428600173815,0.0,-0.05036711726459745,-0.06799587757842064,-0.08296336994184712,0.04401186976913336,0.1813902394493228,-0.01152663687884049
2067,5.0,299.93169,811.2522,0.0,0.0,0.0,0.0,0.02060139540975764,0.0,-0.14335299281533886,-0.049901441704138856,-0.05334598035283835,0.10034605638938472,0.22731670202441182,0.024219954240823374
2068,5.0,299.77747,577.3727299999999,0.0,0.0,0.0,0.0,0.02061136221934146,0.0,-0.09731127709437531,-0.05189361805700136,-0.02630199878480518,0.062141557627644235,0.18649622961824483,0.0025629182479903374
2069,5.0,299.55258,531.57714,0.0,0.0,0.0,0.0,0.020621329028925283,0.0,-0.08191647892527701,-0.05216339589612635,-0.027506301244160578,0.043075274065698554,0.14562704014726988,0.01191200223637309
2070,5.0,300.22707,788.82807,0.0,0.0,0.0,0.0,0.0206312958385091,0.0,-0.04004071363271076,-0.07528868539141473,-0.12445464228521688,0.02413245300193768,0.18715144779540985,0.00954574458571664
2071,5.0,300.0535,761.65877,0.0,0.0,0.0,0.0,0.02064126264809292,0.0,-0.05939493348882355,-0.06763923482147273,-0.10449108218996689,0.06975066665810484,0.23776388810796875,-0.0008418652290606293
2072,5.0,300.92848,328.32296,0.0,0.0,0.0,0.0,0.020651229457676744,0.0,-0.009587933989405412,-0.027350306325015075,-0.06286374150391824,0.025055217841507476,0.2011851440654278,-0.01153058146147979
2073,5.0,301.19759,284.03718,0.0,0.0,0.0,0.0,0.020661196267260564,0.0,-0.07057812519326863,-0.023992722773397375,0.008230637857700712,0.004943344073470075,0.13650757646474887,-0.02224318638223158
2074,5.0,300.19097999999997,554.43562,0.0,0.0,0.0,0.0,0.020671163076844388,0.0,-0.06164911098629354,-0.07824731083540833,-0.028638163414116676,0.030172360854280173,0.16323145003468986,-0.02081155720994078
2075,5.0,299.70642000000004,843.7158800000001,0.0,0.0,0.0,0.0,0.020681129886428205,0.0,-0.0962275777414225,-0.07798073182684903,-0.08226025036620462,0.06942761415522203,0.18801031911017382,0.011151730288840091
2076,5.0,299.66296,815.71739,0.0,0.0,0.0,0.0,0.020691096696012025,0.0,-0.005767086919192165,-0.12357770472116988,-0.1186129312186849,0.062087122792521945,0.16749434519290485,-0.007028148710724274
2077,5.0,299.72805,491.66079,0.0,0.0,0.0,0.0,0.02070106350559585,0.0,-0.03345032827929036,-0.052888148361403854,-0.06311412573612923,0.03687782507455797,0.14146146766115986,0.007570433071493572
2078,5.0,300.56127000000004,453.5056,0.0,0.0,0.0,0.0,0.02071103031517967,0.0,-0.016200094898074884,-0.05383990836583524,-0.06781437611450784,0.06329330077781244,0.2087336445279068,-0.004056971529791916
2079,5.0,300.59694,591.64459,0.0,0.0,0.0,0.0,0.020720997124763493,0.0,-0.13769742592467785,-0.04192344478927186,-0.0002243137124380398,0.07777123223617302,0.2576867560792028,0.001232294405292989
2080,5.0,299.95939,779.30723,0.0,0.0,0.0,0.0,0.02073096393434731,0.0,-0.0980526144372896,-0.055989311749964854,-0.08284801344446233,0.051670219714703654,0.18014949443687084,-0.009448203760865111
2081,5.0,300.12962999999996,692.23471,0.0,0.0,0.0,0.0,0.02074093074393113,0.0,-0.09550587515894601,-0.06652690912669473,-0.04838928144040025,0.01108689950769179,0.11001238330987688,-0.0027120800111114576
2082,5.0,299.0754,273.26166,0.0,0.0,0.0,0.0,0.020750897553514953,0.0,0.04883636892777436,-0.05536053129440904,-0.07654055994296513,0.03861835569883497,0.15286803946940086,-0.019259433349008082
2083,5.0,299.5283,398.58668,0.0,0.0,0.0,0.0,0.020760864363098774,0.0,-0.028543927101816267,-0.03486496018115367,-0.05775151072763036,0.06160029158322544,0.20646460265146982,-0.008737368589686142
2084,5.0,299.57011,771.7447900000001,0.0,0.0,0.0,0.0,0.020770831172682597,0.0,-0.08280955452366671,-0.07855758220152972,-0.07322400795414694,0.04672433927358326,0.1963885903445448,-0.0012661287513071788
2085,5.0,299.98237,664.31326,0.0,0.0,0.0,0.0,0.020780797982266414,0.0,-0.1284627253082839,-0.06583672774157914,-0.007635193533084932,0.009514541751537162,0.18013806497574283,-0.010106170480251371
2086,5.0,299.97736000000003,223.14947999999998,0.0,0.0,0.0,0.0,0.020790764791850234,0.0,-0.026041627959608578,-0.03747925284366426,-0.0043109879596363865,0.06216123595783635,0.2057860797220048,-0.0026219101754373876
2087,5.0,300.68136,343.588,0.0,0.0,0.0,0.0,0.020800731601434055,0.0,-0.02789036254881447,-0.03539892879835227,-0.041152880247223064,0.0892408221211334,0.23092149124267677,-0.0014761991057645086
2088,5.0,300.75487000000004,750.74989,0.0,0.0,0.0,0.0,0.02081069841101788,0.0,-0.0042881317731556555,-0.07072635659014793,-0.15319473156664284,0.0981377477106916,0.16911152275000785,0.015304735433959786
2089,5.0,301.40186,892.04395,0.0,0.0,0.0,0.0,0.020820665220601695,0.0,-0.07473694943371263,-0.08611395865703601,-0.11030818141156988,0.049207679493169856,0.1087361948089269,-0.01212369044726509
2090,5.0,300.62102999999996,659.11153,0.0,0.0,0.0,0.0,0.020830632030185516,0.0,-0.07016365422661354,-0.061022861629487536,-0.06916693124899463,0.08267638002327342,0.17667941681940083,-0.014737458246223885
2091,5.0,300.52929,372.96349,0.0,0.0,0.0,0.0,0.020840598839769336,0.0,-0.091446785125845,-0.035754949419738766,0.01383014547067909,0.06433349421122153,0.2290507883780528,-0.018408432961020883
2092,5.0,299.94304,500.76764000000003,0.0,0.0,0.0,0.0,0.02085056564935316,0.0,-0.06403079992934795,-0.06534457899575784,-0.022845479466923276,0.04706964680166245,0.2137999355579108,-0.014327762727290087
2093,5.0,299.93739,749.71164,0.0,0.0,0.0,0.0,0.02086053245893698,0.0,-0.07246508565574714,-0.08260846794857102,-0.07282006566928093,-0.01337350100836179,0.15594123715520183,-0.0035654822071356966
2094,5.0,299.58349,422.87375,0.0,0.0,0.0,0.0,0.020870499268520804,0.0,0.04123586137741266,-0.06485750561968744,-0.1049214196399379,0.03873155397350676,0.17702685014618982,-0.0011167152968612189
2095,5.0,298.90996,-55.331214,0.0,0.0,0.0,0.0,0.02088046607810462,0.0,0.02596269172381818,-0.004363185335887866,-0.004780198952343905,0.05375818163926945,0.2004213662725488,0.004620283059286435
2096,5.0,300.15155,256.43162,0.0,0.0,0.0,0.0,0.02089043288768844,0.0,-0.00927979662931962,-0.03036456021274877,-0.03830445183110506,0.04693894057851276,0.16457456370474485,-0.00043971731892922055
2097,5.0,300.2026,796.2584400000001,0.0,0.0,0.0,0.0,0.020900399697272264,0.0,-0.13378432496598489,-0.07266539202826584,-0.03559296619250226,0.030966734747178766,0.14520917580602985,-0.002959727353477347
2098,5.0,300.14189,897.6668900000001,0.0,0.0,0.0,0.0,0.020910366506856085,0.0,-0.09726890804144382,-0.0870478469562036,-0.0885515658333591,0.06472173517253793,0.18927293005978382,-0.00990043480972184
2099,5.0,299.1797,681.0387599999999,0.0,0.0,0.0,0.0,0.02092033331643991,0.0,-0.07208012965125493,-0.051775210663565455,-0.08316343718734222,0.07304103626433903,0.2160817646506098,0.006921125790111933
2100,5.0,299.92552,408.17766,0.0,0.0,0.0,0.0,0.020930300126023725,0.0,-0.007258026990061494,-0.013411592119371088,-0.10340619530789691,0.06822714482099494,0.16370777890669985,0.008344460497084132
2101,5.0,299.58985,473.8013,0.0,0.0,0.0,0.0,0.020940266935607545,0.0,-0.05380905287379004,-0.036931780642382964,-0.05328292985211575,0.04883543876418255,0.14176065001818686,0.018053154038707584
2102,5.0,300.25376,586.05984,0.0,0.0,0.0,0.0,0.02095023374519137,0.0,-0.07195489295214502,-0.05789640549193035,-0.04829625900171965,0.05071438543162015,0.1986400624642478,-0.01132114266580979
2103,5.0,300.22702999999996,476.44308,0.0,0.0,0.0,0.0,0.02096020055477519,0.0,-0.11689533044417087,-0.03330389337483836,0.005372429247642485,0.05420967068507795,0.24675144689247175,0.015809580203534086
2104,5.0,300.02452,209.82394,0.0,0.0,0.0,0.0,0.020970167364359013,0.0,-0.027958764023315177,-0.05030486925795405,0.014482396851551286,0.020912877153690283,0.19618606191455681,-0.013499464207793386
2105,5.0,299.60143,228.46939,0.0,0.0,0.0,0.0,0.02098013417394283,0.0,-0.007954363565559562,-0.04202209583225796,-0.01947253099078918,0.004422586211075276,0.15834518314995286,-0.001061986923184949
2106,5.0,300.05107999999996,715.22002,0.0,0.0,0.0,0.0,0.02099010098352665,0.0,-0.021368471888903978,-0.06615935873242033,-0.1298811943882759,0.03149026688834737,0.17386680679431785,0.007830029266988722
2107,5.0,300.20265,875.02211,0.0,0.0,0.0,0.0,0.021000067793110474,0.0,-0.1001888121328659,-0.08658668339844032,-0.07920937660660683,0.07461270065345023,0.2037420300302728,0.010119905490656911
2108,5.0,299.06868,525.62534,0.0,0.0,0.0,0.0,0.021010034602694294,0.0,-0.04491910351117036,-0.04311004374288005,-0.07174783022795952,0.07311822869670734,0.17739502470252583,-0.008787322630216221
2109,5.0,299.8634,408.66328,0.0,0.0,0.0,0.0,0.021020001412278118,0.0,-0.1023801681241359,-0.04227551474851846,0.020432254127756483,0.07095766030972583,0.17598767097613083,-0.03049935692655217
2110,5.0,299.65192,524.32265,0.0,0.0,0.0,0.0,0.021029968221861935,0.0,-0.039329353294004964,-0.08369158366946622,-0.03636005528670807,0.04185736061774986,0.2082615206438118,-0.03936930675869806
2111,5.0,299.83133,564.53441,0.0,0.0,0.0,0.0,0.021039935031445755,0.0,-0.04925427075926805,-0.039782866813513264,-0.08256722562975072,0.04394925901895416,0.2248103873720578,-0.008954946620759421
2112,5.0,301.26072999999997,582.2135,0.0,0.0,0.0,0.0,0.02104990184102958,0.0,-0.01100240762160309,-0.07327641426256903,-0.0926995432314826,0.015830102571059487,0.15572048035591485,-0.002556282675735457
2113,5.0,301.06622000000004,400.23868999999996,0.0,0.0,0.0,0.0,0.0210598686506134,0.0,-0.036123720780383665,-0.03568208255204736,-0.049856762440979356,0.02774608992007587,0.15073145977853686,0.018859523799540083
2114,5.0,299.87962999999996,499.77736,0.0,0.0,0.0,0.0,0.021069835460197216,0.0,-0.042987133465999756,-0.06743179922125044,-0.04150090531207046,0.04579714957082675,0.17336319109711482,0.01107111003138349
2115,5.0,300.44333,982.3267199999999,0.0,0.0,0.0,0.0,0.021079802269781036,0.0,-0.15399136906026484,-0.08658066671934651,-0.058030756375689746,0.07186024627355413,0.22576122126589782,0.015179822974881884
2116,5.0,300.55208,1195.4239,0.0,0.0,0.0,0.0,0.02108976907936486,0.0,-0.14088253708402387,-0.08971177164836251,-0.13278471321233087,0.024109764305698476,0.21359258405744683,0.020416179928170082
2117,5.0,299.75166,689.7857799999999,0.0,0.0,0.0,0.0,0.02109973588894868,0.0,-0.055439545550457145,-0.07878737719170872,-0.07545073144015743,0.027631044490471775,0.20170632951936482,0.008660305042730562
2118,5.0,300.11081,307.9526,0.0,0.0,0.0,0.0,0.0211097026985325,0.0,-0.0017753822733915883,-0.035671203285723665,-0.05616331516313765,0.05714636838365745,0.2056456331256438,0.0011763520566719088
2119,5.0,299.07043,574.4854799999999,0.0,0.0,0.0,0.0,0.02111966950811632,0.0,-0.050620955666399355,-0.05515196389382505,-0.06885632044408974,0.06193831181658544,0.22544348629953975,0.02773534034976497
2120,5.0,298.81236,731.8769,0.0,0.0,0.0,0.0,0.02112963631770014,0.0,-0.09943047042677342,-0.07637741046486352,-0.04666442072891975,0.059462258891718044,0.16796537476689186,0.0047166332139454556
2121,5.0,298.51089,543.18648,0.0,0.0,0.0,0.0,0.02113960312728396,0.0,-0.11332056382636889,-0.05726701100681395,0.005472446962363465,0.04459514617594826,0.14962848638218185,-0.006311068372553954
2122,5.0,299.20399,280.80138,0.0,0.0,0.0,0.0,0.021149569936867785,0.0,-0.005542720821723954,-0.05506838089307604,-0.02474550477619118,0.05890898380711404,0.18770548281758884,-0.035752358539233066
2123,5.0,299.50512000000003,257.78243,0.0,0.0,0.0,0.0,0.021159536746451605,0.0,0.008859322358472043,-0.038538512604205065,-0.04868023215361486,0.05328508503507844,0.20065744341334782,-0.008941576481714892
2124,5.0,300.09879,635.1405,0.0,0.0,0.0,0.0,0.021169503556035425,0.0,-0.016592793146581183,-0.05564617460359986,-0.12082788580478389,0.04378990922872756,0.17154746718291683,-0.011681797893153689
2125,5.0,300.16827,861.4282400000001,0.0,0.0,0.0,0.0,0.021179470365619246,0.0,-0.08426120957093391,-0.09286822606838031,-0.08472323844428262,0.022747234737227277,0.16504913965408186,0.017793971755878282
2126,5.0,301.11811,537.71786,0.0,0.0,0.0,0.0,0.021189437175203066,0.0,-0.06810958247814243,-0.06649259642530835,-0.028850622708334772,0.08393525511976473,0.18170482320786982,-0.00982158236971471
2127,5.0,301.22556000000003,142.61236,0.0,0.0,0.0,0.0,0.02119940398478689,0.0,-0.05391847983158965,-0.0005811180422468854,0.01114900160632079,0.062191240319797544,0.19938005927727978,0.03013705111479537
2128,5.0,301.76165,368.8953,0.0,0.0,0.0,0.0,0.02120937079437071,0.0,-0.026184680635226772,-0.06440550386932833,-0.02154477740630398,0.04324440678564066,0.18157582633763883,-0.03103394565281197
2129,5.0,301.00178999999997,908.2292,0.0,0.0,0.0,0.0,0.021219337603954534,0.0,-0.0973817192545774,-0.07539946605134794,-0.1032978180772009,0.027719091871161377,0.15785337181641484,0.004394714943224596
2130,5.0,298.76397000000003,805.67634,0.0,0.0,0.0,0.0,0.02122930441353835,0.0,-0.05378452715511955,-0.08548094889556282,-0.10564001661085791,0.06210488405352484,0.20184997798604182,-0.030547118496515868
2131,5.0,298.92387,457.30067,0.0,0.0,0.0,0.0,0.02123927122312217,0.0,-0.03999706585815306,-0.054896816372893946,-0.044114103664473055,0.08673951089777322,0.21673856349793078,0.016100436684489385
2132,5.0,300.44271000000003,383.2974,0.0,0.0,0.0,0.0,0.021249238032705994,0.0,-0.07106119217844364,-0.005302117796703285,-0.04014952757419986,0.06032784906789515,0.17214348115673883,0.016415165337800682
2133,5.0,299.84591,673.29233,0.0,0.0,0.0,0.0,0.021259204842289815,0.0,-0.10177833809473989,-0.06501200903468574,-0.03787370502809367,0.03359196848426917,0.15337519140945285,-0.0006732709806191722
2134,5.0,299.64574,724.0828700000001,0.0,0.0,0.0,0.0,0.02126917165187364,0.0,-0.07307751529443923,-0.05306289448689996,-0.09396270234939672,0.03879742637575786,0.18072991449165385,-0.01016356015531529
2135,5.0,300.70694,453.07518,0.0,0.0,0.0,0.0,0.021279138461457455,0.0,-0.028766003152733473,-0.03012267714887677,-0.07883486113114502,0.05586531222922705,0.2119401960593688,9.676490730920281e-05
2136,5.0,301.48012,219.38242000000002,0.0,0.0,0.0,0.0,0.021289105271041275,0.0,0.022983684754063077,-0.03370514446743877,-0.05596531798759685,0.03423389687312257,0.17522311298067483,-0.0008929575243555461
2137,5.0,301.74244,486.27482000000003,0.0,0.0,0.0,0.0,0.0212990720806251,0.0,-0.05396824054400065,-0.058026457155515444,-0.03582070631147847,0.061167039012716744,0.16663355883545183,-0.025810703195568076
2138,5.0,299.89813,700.01044,0.0,0.0,0.0,0.0,0.02130903889020892,0.0,-0.08883091888592912,-0.07493614427087163,-0.04901863032926215,0.07827223780111843,0.19310253921023682,-0.00950109004585958
2139,5.0,299.38707,469.71864000000005,0.0,0.0,0.0,0.0,0.021319005699792743,0.0,-0.07039499543644513,-0.06628226900930063,-0.0061054744557134145,0.09282131461525052,0.21247334799698678,-0.035891865852751365
2140,5.0,300.52528,187.06803,0.0,0.0,0.0,0.0,0.02132897250937656,0.0,0.012423286210332889,-0.03253313226227017,-0.036754161952853366,0.045244571602291554,0.17741821799731483,-0.024795819736406877
2141,5.0,300.32117,279.90647,0.0,0.0,0.0,0.0,0.02133893931896038,0.0,-0.02075721154082728,-0.04006623537622956,-0.02426113069838718,0.035064433662090166,0.1738642128740618,-0.04047471094204296
2142,5.0,299.9323,643.8425599999999,0.0,0.0,0.0,0.0,0.0213489061285442,0.0,-0.051291921776618545,-0.05950671321335535,-0.08491342548805261,0.026139249540493074,0.21390602284338078,-0.014646261684223486
2143,5.0,298.69599,683.21802,0.0,0.0,0.0,0.0,0.021358872938128017,0.0,-0.1110485227296359,-0.03106275235315497,-0.06556993797699903,0.06453704197081014,0.2368474033925188,0.017233369859801183
2144,5.0,299.1658,646.98208,0.0,0.0,0.0,0.0,0.02136883974771184,0.0,-0.09191309700736641,-0.053796871581087854,-0.050956429602258047,0.027140100499019375,0.19293792659899084,0.011111963262165389
2145,5.0,300.44718,615.10027,0.0,0.0,0.0,0.0,0.02137880655729566,0.0,-0.08832491901124083,-0.02229301599564938,-0.07635718700611763,0.03051119371422037,0.15845631642092087,0.02088692984512948
2146,5.0,301.15272999999996,743.27577,0.0,0.0,0.0,0.0,0.02138877336687948,0.0,-0.05818561138847274,-0.058986845997798444,-0.10876481912425189,0.031325573217093367,0.18138388637119582,0.007557551420322253
2147,5.0,300.70044,747.40143,0.0,0.0,0.0,0.0,0.021398740176463305,0.0,-0.07434747940002494,-0.06053447508128754,-0.09230941762498023,0.07817688792695814,0.20763145133412877,0.006363781189131304
2148,5.0,300.0702,639.0884900000001,0.0,0.0,0.0,0.0,0.021408706986047125,0.0,-0.05469894180061524,-0.05157394676970225,-0.08799405333683692,0.04566427600571316,0.18400663359254082,0.02737082159978977
2149,5.0,300.38285,389.62381,0.0,0.0,0.0,0.0,0.021418673795630946,0.0,-0.07633556222248342,-0.06052836416993445,0.018428017058953684,0.05742637295604175,0.18199242411625383,-0.006350566381327104
2150,5.0,300.50858999999997,245.29719,0.0,0.0,0.0,0.0,0.021428640605214766,0.0,-0.05345809242340294,-0.027959274701365572,0.0068531479554780434,0.03963241234591456,0.2128604095351868,0.007241068932412863
2151,5.0,299.96008,468.13791,0.0,0.0,0.0,0.0,0.021438607414798586,0.0,-0.04735762970533416,-0.03529741329733346,-0.05964719020721935,0.05962954850972824,0.2248874957046678,-0.02066779829900288
2152,5.0,299.93807000000004,816.6893299999999,0.0,0.0,0.0,0.0,0.02144857422438241,0.0,-0.046323823800555455,-0.096215221156453,-0.1057141155906709,0.03626333448516247,0.17807064973670483,-0.011852784860778788
2153,5.0,300.10492,696.22964,0.0,0.0,0.0,0.0,0.02145854103396623,0.0,-0.045587335872619754,-0.05349255001955365,-0.1125565428534659,0.02883547563258987,0.15678964159643285,-0.03553836214461327
2154,5.0,299.88424,501.18604000000005,0.0,0.0,0.0,0.0,0.02146850784355005,0.0,-0.025584685601761872,-0.06130839449441744,-0.06545496144840174,0.05443057440562945,0.18880971264406782,-0.010623068062415189
2155,5.0,300.21084,486.21778,0.0,0.0,0.0,0.0,0.02147847465313387,0.0,-0.07102718851833774,-0.04661642509818296,-0.03015445165876267,0.07445506528239283,0.23634656400058976,-0.011757499834624888
2156,5.0,299.99957,498.47623,0.0,0.0,0.0,0.0,0.02148844146271769,0.0,-0.06900386688390144,-0.05114960776032325,-0.031370852324312075,0.05203950377989915,0.21475942260760478,0.008649001832565022
2157,5.0,299.70476,557.13428,0.0,0.0,0.0,0.0,0.021498408272301515,0.0,-0.026976011738075074,-0.08773612140463101,-0.05464277734757225,0.02133141834599708,0.1899122807403828,-0.017967743134778183
2158,5.0,300.33731,541.2365599999999,0.0,0.0,0.0,0.0,0.021508375081885335,0.0,-0.02793797314451327,-0.05948107291957485,-0.07710335451225862,0.04221826105161796,0.1951281274851468,0.009930083622222951
2159,5.0,300.06802999999996,377.9556,0.0,0.0,0.0,0.0,0.021518341891469155,0.0,0.0036228679305242264,-0.06785027860530114,-0.05066165285666586,0.04380258701397875,0.1993427615410988,0.006204304843967214
2160,5.0,300.48941,573.26112,0.0,0.0,0.0,0.0,0.021528308701052976,0.0,-0.04773089077717216,-0.07492441792746433,-0.051601757445196954,0.03138220984468297,0.18184390191659583,0.012870478062467288
2161,5.0,300.37421,1001.4209,0.0,0.0,0.0,0.0,0.021538275510636796,0.0,-0.14605279770678886,-0.07255798346466542,-0.08579617100167282,0.03296428537857167,0.15166493669816386,0.012109828172646988
2162,5.0,300.22461,824.6118299999999,0.0,0.0,0.0,0.0,0.02154824232022062,0.0,-0.12438853784869289,-0.05451521017323235,-0.07175766179367983,0.06410389680481204,0.1930228673548738,0.007210115357757983
2163,5.0,299.94225,377.22421,0.0,0.0,0.0,0.0,0.02155820912980444,0.0,-0.04110700534894556,-0.015854413480708783,-0.05770532172182185,0.07423622453904492,0.21171902382754082,0.005898566252168165
2164,5.0,300.30265,480.71207999999996,0.0,0.0,0.0,0.0,0.021568175939388264,0.0,-0.04168105510034986,-0.016153715401247586,-0.08828970046426501,0.05515166498504554,0.1888306362586328,0.01940992429361038
2165,5.0,299.67446,834.58411,0.0,0.0,0.0,0.0,0.02157814274897208,0.0,-0.07188705788445023,-0.06817403329050324,-0.11363164173956988,0.03243230171831897,0.16409663389757687,0.01103213131328659
2166,5.0,299.40509,695.812,0.0,0.0,0.0,0.0,0.0215881095585559,0.0,-0.08430095227960623,-0.058062913894113444,-0.06914560638739004,0.039899681377791964,0.1898434405285888,0.006062032269601004
2167,5.0,299.10157999999996,429.84744000000006,0.0,0.0,0.0,0.0,0.021598076368139724,0.0,-0.07012441105024053,-0.05834352742980784,-0.002194949786724678,0.07832626226995022,0.2120496979976758,-0.0003743783928557706
2168,5.0,300.85567000000003,588.99468,0.0,0.0,0.0,0.0,0.021608043177723545,0.0,-0.07185157994544884,-0.07556782160846333,-0.031620272955677965,0.04012818548734356,0.2039150627498498,-0.013290924164962088
2169,5.0,300.49994,740.92468,0.0,0.0,0.0,0.0,0.02161800998730736,0.0,-0.035222770202216765,-0.11243240958371489,-0.07756742204480853,0.018869701896794582,0.19047016611294182,-0.02230994436507008
2170,5.0,300.21205,829.2432,0.0,0.0,0.0,0.0,0.02162797679689118,0.0,-0.041104812675729165,-0.1156359517623799,-0.095328465198937,0.02302803471094008,0.1989054934604438,-0.008725881879927492
2171,5.0,300.04007,724.04219,0.0,0.0,0.0,0.0,0.021637943606475002,0.0,-0.03284600362814817,-0.07531110861612773,-0.11193363722198987,0.07176195898735394,0.22152682883299576,-0.002992123188324567
2172,5.0,300.31561,276.40517,0.0,0.0,0.0,0.0,0.021647910416058826,0.0,-0.03158945698038667,-0.03855042639888086,-0.013880386463637488,0.07627206791821703,0.16821141215617386,-0.007350069919870424
2173,5.0,300.29302,140.46854,0.0,0.0,0.0,0.0,0.021657877225642642,0.0,-0.037048637763165866,-0.004854397838616765,-0.0007958922583059503,0.07949546777234183,0.14321530225924986,-0.02616042849408327
2174,5.0,300.21075,637.75303,0.0,0.0,0.0,0.0,0.021667844035226466,0.0,-0.0931118701609261,-0.04640549277186555,-0.054343632480798945,0.07270526037995052,0.18061875082318282,-0.005827241145828925
2175,5.0,299.47685,749.94469,0.0,0.0,0.0,0.0,0.021677810844810286,0.0,-0.0866288264965995,-0.04776486606627525,-0.0935707680914658,0.05962619363864715,0.2072997639138938,-0.02758924995034697
2176,5.0,300.24545,567.4109599999999,0.0,0.0,0.0,0.0,0.021687777654394107,0.0,-0.036813861635495264,-0.04499717747112566,-0.09066772650820791,0.03041170876640197,0.20340610722461983,0.0010093517519627622
2177,5.0,300.91823999999997,654.2649200000001,0.0,0.0,0.0,0.0,0.02169774446397793,0.0,-0.05396197764513255,-0.07404347599902213,-0.07087474504079273,0.024902025572138577,0.17512781680876985,-0.010648208823896388
2178,5.0,300.23375,843.36809,0.0,0.0,0.0,0.0,0.021707711273561747,0.0,-0.10593697995016589,-0.06546136518903373,-0.08496449835934311,0.058501526557651146,0.22459621669842078,0.04708498436842616
2179,5.0,299.37015,661.4226,0.0,0.0,0.0,0.0,0.02171767808314557,0.0,-0.09867196558741481,-0.04332522867986716,-0.059058759397145735,0.051146316723998456,0.2346712157552458,0.026919793582776776
2180,5.0,300.29461000000003,494.08404,0.0,0.0,0.0,0.0,0.02172764489272939,0.0,-0.05793810276004554,-0.050469019827154446,-0.041782089307571164,0.06571262081633072,0.1861523527993068,0.03192617518736818
2181,5.0,299.4106,399.55374,0.0,0.0,0.0,0.0,0.02173761170231321,0.0,-0.026554879665262574,-0.023678402459876378,-0.07122107696472303,0.045052676218852956,0.15160490162973886,-0.0016710368661684983
2182,5.0,299.90896000000004,450.76847000000004,0.0,0.0,0.0,0.0,0.021747578511897035,0.0,-0.039257955638958564,-0.03778815226915026,-0.05997625128319515,0.044533077514572555,0.1860899163281448,-0.006770122343609055
2183,5.0,300.01259,575.53252,0.0,0.0,0.0,0.0,0.021757545321480855,0.0,-0.06311683719339685,-0.04109201026071566,-0.07073866757886293,0.06973629471868643,0.17854466839848684,-0.036489512172484466
2184,5.0,300.65131,771.05345,0.0,0.0,0.0,0.0,0.021767512131064676,0.0,-0.12235525900552388,-0.04919084332950825,-0.06283489022057084,0.04408776828112396,0.16323654668269283,-0.01061187772831079
2185,5.0,299.8128,595.24654,0.0,0.0,0.0,0.0,0.021777478940648496,0.0,-0.059940551442421844,-0.07687999366021463,-0.044119537724759364,0.08349460987652642,0.15490197692513485,-0.034471281106550566
2186,5.0,301.07757999999995,538.56384,0.0,0.0,0.0,0.0,0.021787445750232316,0.0,-0.06472938926379333,-0.04958111180427475,-0.04939945936609705,0.05861543816039335,0.18656772454530082,-0.00988579587890209
2187,5.0,300.19344,757.4825900000001,0.0,0.0,0.0,0.0,0.02179741255981614,0.0,-0.04681013014630016,-0.09090652827852581,-0.09253913459490151,0.05359859981476995,0.2064687265793768,-0.013611843776384386
2188,5.0,300.33248,615.21685,0.0,0.0,0.0,0.0,0.02180737936939996,0.0,-0.04100221198385326,-0.07330688066657584,-0.07270146677157613,0.023245071869109974,0.18719047818926182,-0.01072624326709779
2189,5.0,299.68685,150.00374,0.0,0.0,0.0,0.0,0.02181734617898378,0.0,0.01968084507884818,-0.023081951775261275,-0.04219628467019906,0.034198218310601367,0.19707305091959582,-0.0028235692368395876
2190,5.0,299.25697,313.36703,0.0,0.0,0.0,0.0,0.0218273129885676,0.0,-0.037604603026785366,-0.05476990477136875,-0.0028812453577067776,0.07115215366642083,0.23095742109122278,-0.012870154835685387
2191,5.0,298.49504,464.71618,0.0,0.0,0.0,0.0,0.02183727979815142,0.0,-0.05096583661618645,-0.03034949825001227,-0.05994678090403665,0.04604394284468336,0.2035692303582188,0.015911412851834186
2192,5.0,298.90907000000004,503.7651,0.0,0.0,0.0,0.0,0.021847246607735245,0.0,-0.06525514244918114,-0.035900717605624966,-0.051976150317396656,0.03833899048726376,0.20421670730461983,0.0036934011819103165
2193,5.0,299.34413,550.07669,0.0,0.0,0.0,0.0,0.021857213417319065,0.0,-0.03436478750779046,-0.04049100501690106,-0.09235378582035901,0.028384626960844574,0.15936258757536284,-0.01070347351085059
2194,5.0,299.76797,546.62798,0.0,0.0,0.0,0.0,0.021867180226902882,0.0,-0.09305142776596091,-0.01955392537132218,-0.05355590348205615,0.06796661998178313,0.2222565512900138,-0.015811246999948583
2195,5.0,300.2446,586.47063,0.0,0.0,0.0,0.0,0.021877147036486706,0.0,-0.07992988659371562,-0.04127466480324226,-0.05706787595141085,0.05340187730785494,0.1968635209314168,-0.017887664966125084
2196,5.0,300.44584,679.69548,0.0,0.0,0.0,0.0,0.021887113846070526,0.0,-0.1294673526499329,-0.06050800189592485,-0.016635098364756382,0.06508916802980073,0.2054009332264938,-0.008155437576354023
2197,5.0,300.04422999999997,839.54069,0.0,0.0,0.0,0.0,0.021897080655654346,0.0,-0.0990810845670417,-0.07052839183861034,-0.08558993002331843,0.04179159055375886,0.18067472275870683,0.03669219562973776
2198,5.0,300.77092000000005,577.3307599999999,0.0,0.0,0.0,0.0,0.021907047465238163,0.0,-0.06230982503200094,-0.06652700031920374,-0.04665731075296805,0.07962758443963072,0.19407520864373182,0.018476398737978583
2199,5.0,300.25375,469.91717,0.0,0.0,0.0,0.0,0.021917014274821987,0.0,-0.0018080559414162282,-0.05979081232939374,-0.08124421686817992,0.05989942564736304,0.17651214949289282,0.024961753625783272
2200,5.0,299.90182999999996,636.79086,0.0,0.0,0.0,0.0,0.021926981084405807,0.0,-0.059138601478525545,-0.056881423747509444,-0.07754849554619063,0.03809754413418486,0.17538561803171282,-0.008096103676998222
2201,5.0,298.97695,671.18424,0.0,0.0,0.0,0.0,0.021936947893989627,0.0,-0.03406962876691057,-0.1007602598580134,-0.06919336086460304,0.03358237807207267,0.1938112367276798,-0.011433095656108689
2202,5.0,298.69854,487.93735,0.0,0.0,0.0,0.0,0.02194691470357345,0.0,-0.06956877914590394,-0.049612685690640854,-0.02913930576782557,0.03411483289362187,0.2372023145050458,-0.025008305375127576
2203,5.0,298.53816,527.12759,0.0,0.0,0.0,0.0,0.021956881513157268,0.0,-0.04640959339502025,-0.08334678884593762,-0.03047724071661947,0.03531362428568336,0.2183537145548338,-0.010415977980476991
2204,5.0,298.85226,465.05262,0.0,0.0,0.0,0.0,0.02196684832274109,0.0,-0.04519726092862236,-0.06101557433476835,-0.03515155087918796,0.04265927309139246,0.2102168298917858,-0.023988631269493577
2205,5.0,299.74386,439.82095,0.0,0.0,0.0,0.0,0.02197681513232491,0.0,0.0030252564665945673,-0.05090100988803854,-0.08581883234015933,0.013746434800417488,0.17463476931010982,-0.028090762140342375
2206,5.0,300.75072,648.70525,0.0,0.0,0.0,0.0,0.021986781941908732,0.0,-0.046863696626086755,-0.08784690915731491,-0.06247959204650565,0.07072345565511164,0.19556356158312083,-0.026714371310503176
2207,5.0,300.88734,619.31794,0.0,0.0,0.0,0.0,0.021996748751492556,0.0,-0.047023591544867155,-0.06369819855752275,-0.07753539928864812,0.049824105390256355,0.18032814056200183,-0.007060398130932044
2208,5.0,300.13555,520.48982,0.0,0.0,0.0,0.0,0.022006715561076372,0.0,-0.07487525807236263,-0.05896630032552075,-0.02437435025131108,0.06962194741840123,0.2047394531637108,-0.003419103639389257
2209,5.0,299.39252,541.2039599999999,0.0,0.0,0.0,0.0,0.022016682370660196,0.0,-0.05163474988170305,-0.05038431414529466,-0.06249342696337104,0.03899779455653267,0.1881765427890788,0.01955289185622018
2210,5.0,299.09259,736.61269,0.0,0.0,0.0,0.0,0.022026649180244016,0.0,-0.07124604040743673,-0.04798456604570796,-0.1046812591012359,0.05487357038909975,0.23903587162100376,0.05294485186350004
2211,5.0,299.81931000000003,625.88539,0.0,0.0,0.0,0.0,0.022036615989827837,0.0,-0.03585338261395336,-0.04939296544620615,-0.1050071811284019,0.040050684013694764,0.2046814040654818,0.048808497457273656
2212,5.0,299.27997,465.54918,0.0,0.0,0.0,0.0,0.02204658279941166,0.0,-0.05214604398816385,-0.035511900105001666,-0.05385738186380975,0.03440216225097907,0.17795863493814984,0.033966726126504865
2213,5.0,299.91701,577.52198,0.0,0.0,0.0,0.0,0.022056549608995477,0.0,-0.06799521592610534,-0.04309129152327937,-0.06446575476002464,0.04547238062227455,0.16119042996075686,0.007987640320043723
2214,5.0,301.6693,579.76385,0.0,0.0,0.0,0.0,0.0220665164185793,0.0,-0.1010868516434955,-0.05154861957020265,-0.02359826248296718,0.045912690479729755,0.2093032025416178,0.005385947321201614
2215,5.0,301.17794,577.57303,0.0,0.0,0.0,0.0,0.02207648322816312,0.0,-0.08146158738563272,-0.051622149103459455,-0.04248404161909846,0.06373547400220153,0.2015194862009248,-0.0037742692803413766
2216,5.0,301.12792,713.8685,0.0,0.0,0.0,0.0,0.02208645003774694,0.0,-0.07911061309285963,-0.06486175012435634,-0.07302583649958892,0.03701236644933617,0.19608850619492882,-0.0015915098042447885
2217,5.0,300.37132,616.25725,0.0,0.0,0.0,0.0,0.022096416847330765,0.0,-0.036069657808048064,-0.06306017422130464,-0.08819698402711461,0.07275759880061593,0.18658576039708083,-0.002749972119801117
2218,5.0,299.21189,491.79841,0.0,0.0,0.0,0.0,0.022106383656914586,0.0,-0.01925301136987428,-0.07047609698769923,-0.05976532908937873,0.07389458700282793,0.19842298376282383,-0.004775590285589066
2219,5.0,299.39862,620.3668299999999,0.0,0.0,0.0,0.0,0.022116350466498406,0.0,-0.028114621140447077,-0.09082572766255141,-0.06963567695725624,0.06891912877803844,0.19123827048374784,-0.03694284330697476
2220,5.0,298.94624,765.6959099999999,0.0,0.0,0.0,0.0,0.022126317276082226,0.0,-0.096201582810107,-0.09060371949939092,-0.04594713693012936,0.03757982196908967,0.17457013408623084,-0.005987374381032844
2221,5.0,299.78145,443.35704000000004,0.0,0.0,0.0,0.0,0.022136284085666046,0.0,-0.016088514783812787,-0.07554394436985683,-0.043137009367791364,0.024386531544013275,0.16857229131178983,-0.018271391898245982
2222,5.0,300.84733,325.8314,0.0,0.0,0.0,0.0,0.022146250895249867,0.0,-0.012117614999665488,-0.053764044304348044,-0.03316295129917847,0.03042623775958587,0.2016004043539108,-0.014876763922972285
2223,5.0,299.78902,478.63669000000004,0.0,0.0,0.0,0.0,0.02215621770483369,0.0,-0.013082196670862288,-0.045465381090583755,-0.08694602342715442,0.03605588672593897,0.2013732134164888,0.013526498733711487
2224,5.0,300.39909,587.07284,0.0,0.0,0.0,0.0,0.022166184514417507,0.0,-0.05077695463854525,-0.0867307908674126,-0.04094773763197706,0.041161843457607664,0.1986238605951488,-0.028018835568743773
2225,5.0,300.61967000000004,628.77782,0.0,0.0,0.0,0.0,0.022176151324001327,0.0,-0.06511874986647023,-0.06747798012105814,-0.058536025697055946,0.046570673816417656,0.18261447861764582,-0.006116718188098084
2226,5.0,299.91792000000004,689.86906,0.0,0.0,0.0,0.0,0.022186118133585148,0.0,-0.13046754195614388,-0.03401613524113117,-0.04521928695929616,0.07287157930436493,0.2050365583580328,-0.015160451659470088
2227,5.0,299.82327999999995,674.90887,0.0,0.0,0.0,0.0,0.02219608494316897,0.0,-0.08172832446120762,-0.048688518512932655,-0.07473860305787583,0.07754623599846763,0.2049043798824878,0.00995858715813603
2228,5.0,298.65146,562.17115,0.0,0.0,0.0,0.0,0.022206051752752788,0.0,-0.07699793394535442,-0.03514580068487047,-0.058742257556159444,0.05927000177799375,0.2147751077191528,-0.005963091133111275
2229,5.0,300.1745,747.59954,0.0,0.0,0.0,0.0,0.022216018562336612,0.0,-0.04986010413980915,-0.058345228676725744,-0.11904625775645088,0.047600060937510257,0.19592792631908082,0.03777136676799367
2230,5.0,301.29486,713.56645,0.0,0.0,0.0,0.0,0.022225985371920432,0.0,-0.08468549893105802,-0.05622917540638755,-0.07599170972154784,0.04454799559579486,0.1999665790976648,0.024570163872886377
2231,5.0,300.28816,443.51215,0.0,0.0,0.0,0.0,0.022235952181504252,0.0,-0.04045231406183256,-0.03688054463782636,-0.05748375938870535,0.05869474727222054,0.18345076458768084,0.015315709945792885
2232,5.0,299.6869,485.35649000000006,0.0,0.0,0.0,0.0,0.022245918991088076,0.0,-0.1051456316220659,-0.027291125426424374,-0.015099493520203984,0.07476249448198373,0.18207230875413782,0.008848569444435812
2233,5.0,300.3953,719.01149,0.0,0.0,0.0,0.0,0.022255885800671893,0.0,-0.06099120263011303,-0.06482781435200714,-0.09274252124772422,0.03999812065150716,0.19591117729492782,0.002509400404208538
2234,5.0,299.66568,487.2447,0.0,0.0,0.0,0.0,0.022265852610255717,0.0,-0.05154549572014435,-0.06147612183647085,-0.03508860372997557,0.05252139438170804,0.20873323922786682,-0.026440271959701677
2235,5.0,300.35686,504.0905,0.0,0.0,0.0,0.0,0.022275819419839537,0.0,0.004410364996319136,-0.07502424231406622,-0.08261704916366792,0.03344612329137537,0.21064340818388583,-0.027420902499232375
2236,5.0,298.85228,420.75861,0.0,0.0,0.0,0.0,0.022285786229423357,0.0,-0.03433032180563897,-0.06005646522736165,-0.03351332609100777,0.05423687037076235,0.2231044896361988,-0.042961497225219664
2237,5.0,300.1067,212.53356000000002,0.0,0.0,0.0,0.0,0.02229575303900718,0.0,-0.004457977314543106,-0.02424029219683058,-0.035906624853707964,0.028289985348504174,0.19764083574563182,-0.02304659542627188
2238,5.0,300.50889,346.29171,0.0,0.0,0.0,0.0,0.022305719848590998,0.0,-0.055893295157238745,-0.024016621290255977,-0.025354115475256376,0.04568349634686005,0.18626298957772583,-0.017114958413364884
2239,5.0,299.58272999999997,597.89644,0.0,0.0,0.0,0.0,0.02231568665817482,0.0,-0.04570181692191816,-0.048110106719847855,-0.08793366464412702,0.03658170577258326,0.17427307955441382,-0.0019757918960954784
2240,5.0,298.6932,503.86277,0.0,0.0,0.0,0.0,0.02232565346775864,0.0,-0.05075150990203405,-0.04775008072081605,-0.054660110003782854,0.07405356493026784,0.19050212402109581,-0.01803654484306838
2241,5.0,298.75116,432.77135,0.0,0.0,0.0,0.0,0.022335620277342462,0.0,-0.008332174434321592,-0.05626421866109604,-0.06695529100397274,0.056888445570702446,0.2277915718162778,-0.009439776559783411
2242,5.0,298.56945,745.77793,0.0,0.0,0.0,0.0,0.022345587086926286,0.0,-0.08778981960693061,-0.06091187122678364,-0.07799617578487322,0.05515237932636605,0.2317095566404528,-0.012845632156765187
2243,5.0,299.19956,803.73723,0.0,0.0,0.0,0.0,0.022355553896510102,0.0,-0.09805439978396581,-0.05787689536125485,-0.0883847544693961,0.04112015429549326,0.2296663074162998,0.024844136567425373
2244,5.0,299.62203,388.05017000000004,0.0,0.0,0.0,0.0,0.022365520706093926,0.0,-0.055490814992267046,-0.04070120273689596,-0.02176554433809198,0.036131822728183265,0.17283387937737582,-0.007564832432890832
2245,5.0,300.36342,309.96099,0.0,0.0,0.0,0.0,0.022375487515677746,0.0,-0.02278811127276148,-0.016400315144335084,-0.05503197481698304,0.058808225203919935,0.15282842139049085,0.024104528842431774
2246,5.0,300.32063999999997,566.37808,0.0,0.0,0.0,0.0,0.022385454325261567,0.0,-0.07515721213793934,-0.035282119300324065,-0.06172546343432894,0.034513795054246364,0.16527975537684184,0.005720076471527594
2247,5.0,299.94717,562.0618099999999,0.0,0.0,0.0,0.0,0.02239542113484539,0.0,-0.04541273565513806,-0.03617366590431286,-0.08926635399715323,0.04550985365072286,0.17927603232066683,-0.01949822903982538
2248,5.0,299.1014,613.50446,0.0,0.0,0.0,0.0,0.022405387944429207,0.0,-0.09591293724086991,-0.04076482572392506,-0.04981227468208875,0.04758604870187736,0.20491519126105479,-0.0006151434163024285
2249,5.0,299.47467,752.2845599999999,0.0,0.0,0.0,0.0,0.022415354754013028,0.0,-0.08883508638359042,-0.07061984171313573,-0.06922079461106052,0.07517981065491963,0.22827638159162478,-0.0048942873672285555
2250,5.0,300.58848,554.0512200000001,0.0,0.0,0.0,0.0,0.022425321563596848,0.0,-0.07083907762402264,-0.044357037468698755,-0.05322162011506495,0.06994980374000813,0.20126138100295182,0.021362225202037483
2251,5.0,300.58848,706.6621,0.0,0.0,0.0,0.0,0.02243528837318067,0.0,-0.05066798060354036,-0.07464777227916153,-0.08949187915141081,0.06069077802846345,0.18888125823362883,-0.020246814160704982
2252,5.0,299.76445,957.6627699999999,0.0,0.0,0.0,0.0,0.022445255182764492,0.0,-0.09872490081238909,-0.11035927961411289,-0.08202138476113043,0.04600689538127706,0.16480811785279487,0.01032154104465679
2253,5.0,300.76863,501.28722999999997,0.0,0.0,0.0,0.0,0.02245522199234831,0.0,-0.002079291948760138,-0.09180697121839261,-0.05849253801601404,0.03227660064170247,0.20908029765211877,-0.049123464224358454
2254,5.0,300.83821,237.51082999999997,0.0,0.0,0.0,0.0,0.022465188801932132,0.0,-0.016308893640812484,-0.06447346052703515,0.008584993506522892,0.018132251381263884,0.2239537046775098,-0.006319530226789074
2255,5.0,300.31055,438.3095,0.0,0.0,0.0,0.0,0.022475155611515953,0.0,-0.01706608936104188,-0.06975592137312343,-0.04641313166436946,0.02007236795723848,0.24771983027804376,-0.022441566566310182
2256,5.0,299.40421000000003,679.71102,0.0,0.0,0.0,0.0,0.022485122421099773,0.0,-0.06435857620419694,-0.06465371062707444,-0.07760288985130892,0.03125427283405657,0.21937958975107977,0.004406906875052846
2257,5.0,299.17216,593.08492,0.0,0.0,0.0,0.0,0.022495089230683597,0.0,-0.025613472037102875,-0.06414890841400435,-0.09052062488519011,0.06923993794519984,0.19315791332820184,-0.02135795536611608
2258,5.0,299.21532,613.50838,0.0,0.0,0.0,0.0,0.022505056040267413,0.0,-0.05166149056509215,-0.058027210000339745,-0.07680252663706923,0.06853108945349193,0.14686045936149886,-0.0011211054055694889
2259,5.0,299.26455,651.37598,0.0,0.0,0.0,0.0,0.022515022849851237,0.0,-0.04419116944057886,-0.05741891847505604,-0.0963919461593944,0.05844137293896444,0.16507150208378885,-0.011880332091247489
2260,5.0,298.88557000000003,622.9773299999999,0.0,0.0,0.0,0.0,0.022524989659435057,0.0,-0.1156312705469179,-0.04913820296031305,-0.024600074002588276,0.04955470954641905,0.18330421822571782,-0.00046532238200374363
2261,5.0,300.23301000000004,844.30607,0.0,0.0,0.0,0.0,0.022534956469018878,0.0,-0.1111759389297109,-0.06450554002520115,-0.08096647994951943,0.03514620294516017,0.21417094721452679,0.02592695540604127
2262,5.0,301.05491,721.0654,0.0,0.0,0.0,0.0,0.0225449232786027,0.0,-0.10619487236561789,-0.03988177522202476,-0.07310923407556963,0.038231999382704565,0.2172826585366288,0.03834565159342117
2263,5.0,300.48098999999996,394.63515,0.0,0.0,0.0,0.0,0.022554890088186518,0.0,-0.013445897728006789,-0.050860900382830046,-0.05565243446271764,0.03449848281873517,0.19998791814477082,0.028680613527056177
2264,5.0,300.15046,459.17352999999997,0.0,0.0,0.0,0.0,0.022564856897770342,0.0,-0.036924712209685365,-0.04512367465335996,-0.057528899680660356,0.07153067046652753,0.2226406440054208,0.01253701036180659
2265,5.0,300.72735,796.43924,0.0,0.0,0.0,0.0,0.022574823707354162,0.0,-0.057128748977668536,-0.0972516270609883,-0.08771726684677023,0.07047321125141442,0.22688101461391277,-0.012044178685417888
2266,5.0,299.98489,558.22048,0.0,0.0,0.0,0.0,0.022584790516937982,0.0,-0.1063387032173129,-0.054145543099499045,-0.009200845093452712,0.06206600868693814,0.2146106977579268,-0.028069850684778578
2267,5.0,300.59508,382.44692000000003,0.0,0.0,0.0,0.0,0.022594757326521806,0.0,-0.02663690124760747,-0.04959051780495305,-0.04002689695434716,0.02067862791607168,0.18660656242163381,-0.038003892467192164
2268,5.0,300.56673,346.75475,0.0,0.0,0.0,0.0,0.022604724136105623,0.0,-0.03056991155751537,-0.05342202071984294,-0.02141285224328398,0.04539822591370605,0.19729567209906682,-0.013193632903610187
2269,5.0,299.61588,337.02178,0.0,0.0,0.0,0.0,0.022614690945689447,0.0,0.02462945217598768,-0.04349293575691856,-0.08358272109197232,0.042502292279899656,0.19443069730881582,-0.026710273727098773
2270,5.0,299.57317,525.90335,0.0,0.0,0.0,0.0,0.022624657755273267,0.0,-0.028108962138638574,-0.06479438621795804,-0.06695813722350363,0.042366384030736566,0.16362737751126485,0.005520584448114265
2271,5.0,299.40775,656.58747,0.0,0.0,0.0,0.0,0.022634624564857087,0.0,-0.04578135806801825,-0.08802180119082541,-0.06578303460553003,0.04408914731451005,0.17671338096275283,-0.027560965073805475
2272,5.0,300.03663,564.6603299999999,0.0,0.0,0.0,0.0,0.02264459137444091,0.0,-0.11359963316891089,-0.03535227775049817,-0.02269072983215068,0.08523024042331982,0.18994179671579584,0.01072971162219009
2273,5.0,300.79298,643.19652,0.0,0.0,0.0,0.0,0.022654558184024728,0.0,-0.06391889456180373,-0.07727213259466573,-0.05432465329317585,0.0881297042204746,0.2420263880986448,-0.019235912774436783
2274,5.0,300.90514,918.9050800000001,0.0,0.0,0.0,0.0,0.02266452499360855,0.0,-0.10510684440823789,-0.08250900326575462,-0.0917083566524101,0.059562701360880946,0.20242423748021682,0.03809202597414026
2275,5.0,299.87323,746.66903,0.0,0.0,0.0,0.0,0.02267449180319237,0.0,-0.02367378001292018,-0.07054037149454263,-0.13275458928685788,0.04169710092893346,0.2049636448808368,0.015028371469184785
2276,5.0,301.20855,522.3086,0.0,0.0,0.0,0.0,0.022684458612776192,0.0,-0.031532109051226866,-0.054886208657597045,-0.07235045667193413,0.036962637147678265,0.2134340712118028,0.007222215995752223
2277,5.0,300.27804,484.99854000000005,0.0,0.0,0.0,0.0,0.022694425422360012,0.0,-0.05224949074387325,-0.028689919215974576,-0.06648803376010803,0.05670822282841585,0.2045590135859028,-0.008252089476892823
2278,5.0,301.16695,540.33729,0.0,0.0,0.0,0.0,0.02270439223194383,0.0,-0.11661686905168887,-0.015504876646712185,-0.03212729418646707,0.02469231319894158,0.18049782955624882,0.016654644972435483
2279,5.0,299.66077,427.62214000000006,0.0,0.0,0.0,0.0,0.022714359041527653,0.0,-0.04855901096465125,-0.04714119340447355,-0.03428624947928937,0.02230911451323818,0.17132573766353384,-0.025328009086429876
2280,5.0,299.98,510.50269000000003,0.0,0.0,0.0,0.0,0.022724325851111473,0.0,-0.07073443219344494,-0.029879341084361372,-0.05456629520352404,0.06548123299699454,0.19194064532056682,0.026529411623999074
2281,5.0,299.54804,483.47817000000003,0.0,0.0,0.0,0.0,0.022734292660695293,0.0,-0.00015086009187873187,-0.05157464185927085,-0.0952397885899353,0.09047885972931823,0.22687170284549377,-0.0025513624345748676
2282,5.0,299.8961,557.2975799999999,0.0,0.0,0.0,0.0,0.022744259470279117,0.0,-0.024436944789488678,-0.06972565153963603,-0.07524195227030252,0.08000225291585762,0.2041489918004368,0.01236582378391179
2283,5.0,299.3018,720.49077,0.0,0.0,0.0,0.0,0.022754226279862934,0.0,-0.06290440019068094,-0.07578641309228662,-0.08032038912925522,0.07464501117263903,0.17866004718737383,-0.02055050345417678
2284,5.0,300.45111,833.0081299999999,0.0,0.0,0.0,0.0,0.022764193089446758,0.0,-0.1325613726252889,-0.07939935694735642,-0.04125294072109826,0.04053659316540026,0.1909571645085048,-0.014275067642589486
2285,5.0,300.08785,484.3332,0.0,0.0,0.0,0.0,0.022774159899030578,0.0,-0.054964247153798856,-0.041742022358866857,-0.050518928474080044,0.061968824830096844,0.2106854681955368,-0.034585473379570464
2286,5.0,300.50542,309.3893,0.0,0.0,0.0,0.0,0.022784126708614398,0.0,-0.017072690685443384,-0.047048935969618455,-0.029924996107367173,0.027204165263092075,0.2005782883155358,0.001091690856491499
2287,5.0,300.88461,527.6691599999999,0.0,0.0,0.0,0.0,0.022794093518198222,0.0,0.013797289822936489,-0.07619631430099072,-0.0979992242630204,0.03667045432234207,0.21834288291126477,-0.03094351713438737
2288,5.0,301.70642999999995,537.1539799999999,0.0,0.0,0.0,0.0,0.02280406032778204,0.0,-0.02388381155989868,-0.05277232475572295,-0.08662526188274772,0.04514833108129336,0.2173608105168418,0.014553579697576487
2289,5.0,299.7335,385.56127000000004,0.0,0.0,0.0,0.0,0.022814027137365862,0.0,-0.018508220870619183,-0.06780791259211993,-0.03088486515234887,0.05530424423810394,0.2159408620917038,-0.018124750290773584
2290,5.0,299.53783,519.81962,0.0,0.0,0.0,0.0,0.022823993946949683,0.0,-0.09031502833389932,-0.040236013536485364,-0.02746114372695387,0.04819796867576916,0.17903908378478184,0.02087614683756528
2291,5.0,300.06004,620.64235,0.0,0.0,0.0,0.0,0.022833960756533503,0.0,-0.06671751768250633,-0.06333387536481684,-0.058608381886696946,0.04128763845752267,0.18197454025198884,-0.00933747123031166
2292,5.0,300.3571,834.46451,0.0,0.0,0.0,0.0,0.022843927566117327,0.0,-0.09588044433666311,-0.08033612895630862,-0.07743980116821332,0.03760735906705736,0.2250436983400838,-0.0016729165464290086
2293,5.0,299.818,834.7266599999999,0.0,0.0,0.0,0.0,0.022853894375701143,0.0,-0.036609328996809465,-0.06515172203797434,-0.15197501149376585,0.04541586254494666,0.2304470672808548,0.0001288400495130229
2294,5.0,300.24772,714.79676,0.0,0.0,0.0,0.0,0.022863861185284967,0.0,-0.058620395993132644,-0.08248980926911033,-0.07617016231590973,0.046840348304032456,0.2205589926024778,0.00977897702685989
2295,5.0,298.91519,413.68577,0.0,0.0,0.0,0.0,0.022873827994868787,0.0,-0.024696396596844576,-0.05985552658678053,-0.04119822116269786,0.05640639183562745,0.18259560176828282,-0.000975148714634685
2296,5.0,300.17406,479.68649000000005,0.0,0.0,0.0,0.0,0.022883794804452608,0.0,-0.1117893605402509,-0.02764567278216547,-0.006377682575203264,0.07257444168603973,0.17800707842543084,-0.006355594128323305
2297,5.0,300.91956,603.7953,0.0,0.0,0.0,0.0,0.02289376161403643,0.0,-0.07301535240080423,-0.05881738295832375,-0.05170596008548095,0.06320375480022494,0.18005204004225284,-0.007300093182538103
2298,5.0,301.26063,343.42078,0.0,0.0,0.0,0.0,0.022903728423620248,0.0,-0.04097295641371596,-0.029422238632998872,-0.03399614584315836,0.042874912977674456,0.16507402507653784,-0.0066453776787477135
2299,5.0,300.72992999999997,311.3284,0.0,0.0,0.0,0.0,0.022913695233204072,0.0,0.051384209608976654,-0.07960180837033683,-0.06641845894199153,0.04866913909152005,0.2011940910638108,-0.025317659749908475
2300,5.0,301.04951,762.15481,0.0,0.0,0.0,0.0,0.022923662042787892,0.0,-0.06362022896232775,-0.08056344148374263,-0.08749236078832372,0.04985426680598305,0.24888262596030275,0.02114214424056718
2301,5.0,301.30189,804.28081,0.0,0.0,0.0,0.0,0.022933628852371712,0.0,-0.0877247172747555,-0.06012226568885565,-0.09663430038456292,0.048447341684380356,0.25722288005092175,0.0015381352340271286
2302,5.0,300.07944,638.19623,0.0,0.0,0.0,0.0,0.022943595661955536,0.0,-0.1035040955325589,-0.07097293100198293,-0.01951869669184538,0.030261399193567573,0.22923479459621277,-0.002953754852087907
2303,5.0,299.86851,746.99811,0.0,0.0,0.0,0.0,0.022953562471539353,0.0,-0.07714755248162063,-0.07320844949886143,-0.07671277192996113,0.04760929468567155,0.2039609224493758,0.0002012737325216708
2304,5.0,300.79399,656.06475,0.0,0.0,0.0,0.0,0.022963529281123173,0.0,-0.07386367983502763,-0.06407544879500444,-0.06148817241991015,0.06442382241788623,0.2080064045336338,-0.0016759911525324484
2305,5.0,300.77257000000003,533.8954,0.0,0.0,0.0,0.0,0.022973496090706993,0.0,0.01132235856592979,-0.07957876199681232,-0.09403446578772921,0.05780927408933115,0.1935924760310898,-0.032100697384592175
2306,5.0,299.39269,472.76705999999996,0.0,0.0,0.0,0.0,0.022983462900290814,0.0,-0.05403384240847505,-0.04293852177920216,-0.04673701807208455,0.052387404214984244,0.18693009317856382,0.005222921054312175
2307,5.0,299.44162,402.20799,0.0,0.0,0.0,0.0,0.022993429709874634,0.0,-0.05171510669413365,-0.04309756252814826,-0.027448516604207676,0.03440606529036427,0.17716631388995382,-0.01013300255879949
2308,5.0,300.26371,429.35205999999994,0.0,0.0,0.0,0.0,0.023003396519458454,0.0,-0.05848653653567174,-0.04762125002360145,-0.024404519773038577,0.04873273066779605,0.1995703172485568,0.0008426954456625652
2309,5.0,299.67512,600.50128,0.0,0.0,0.0,0.0,0.023013363329042278,0.0,-0.05401955254231475,-0.058417162341075045,-0.07010067870639833,0.05381545357467175,0.16560858543179482,0.006517607246437753
2310,5.0,299.90502000000004,922.7168199999999,0.0,0.0,0.0,0.0,0.0230233301386261,0.0,-0.07647659346415213,-0.08671087037044661,-0.1172954122461559,0.023090164167321774,0.18899665728751783,0.002071016633868428
2311,5.0,300.3176,842.90121,0.0,0.0,0.0,0.0,0.02303329694820992,0.0,-0.03305109456763907,-0.08483690788025092,-0.13833291612239587,0.052400827752309045,0.19857108039743981,0.008861264556263721
2312,5.0,300.55883,739.32752,0.0,0.0,0.0,0.0,0.023043263757793742,0.0,-0.08361688788534433,-0.08098262102361242,-0.06013759616286865,0.06072769275610665,0.2246383679025808,0.024625442745341976
2313,5.0,301.48647,783.09943,0.0,0.0,0.0,0.0,0.02305323056737756,0.0,-0.1075883445656429,-0.05427322983735075,-0.07618109832423903,0.07708649301734452,0.23369551670395178,0.02751899828116368
2314,5.0,301.96244,485.62740999999994,0.0,0.0,0.0,0.0,0.023063197376961383,0.0,-0.07334320061641034,-0.03325442042545577,-0.04102098446845596,0.05355125671709754,0.2001177458800838,0.0030436572910605875
2315,5.0,300.35128,110.31835,0.0,0.0,0.0,0.0,0.023073164186545203,0.0,-0.0024252079335243875,-0.023541020945067877,-0.007567794365583153,0.037658523130856866,0.1936379000330728,-0.039935996261375964
2316,5.0,300.23627,262.08851,0.0,0.0,0.0,0.0,0.023083130996129023,0.0,0.002061194491374058,-0.02348887098892108,-0.05824068659765825,0.039149637176768365,0.1906674560399128,-0.018752430356720782
2317,5.0,300.8578,369.52606000000003,0.0,0.0,0.0,0.0,0.023093097805712847,0.0,-0.015565858090730586,-0.05762193529159224,-0.03913890179195886,0.05979398582870695,0.17296802355811483,-0.05374470034668895
2318,5.0,300.4641,386.26762,0.0,0.0,0.0,0.0,0.023103064615296664,0.0,-0.07480917998034123,-0.026251232928294975,-0.016355298468892283,0.05800395996354515,0.18356559622151383,-0.0029880495176225277
2319,5.0,299.21627,596.44758,0.0,0.0,0.0,0.0,0.023113031424880488,0.0,-0.07605528103282183,-0.036960147592182566,-0.06828974138567273,0.06434030527839374,0.20686019575551182,-0.011021358438223388
2320,5.0,299.1423,775.0840599999999,0.0,0.0,0.0,0.0,0.023122998234464308,0.0,-0.1073648215935829,-0.07706936909065452,-0.051172010720034244,0.07343885446560063,0.2402454794578828,0.03341379656018497
2321,5.0,300.23062000000004,702.46805,0.0,0.0,0.0,0.0,0.023132965044048128,0.0,-0.047159549443285154,-0.05254371932116135,-0.11382947882159489,0.06790615225556544,0.2240054614926178,0.012051656471155888
2322,5.0,300.84091,814.72112,0.0,0.0,0.0,0.0,0.023142931853631952,0.0,-0.05010467636944655,-0.08440050815493162,-0.11314968932950488,0.07516219732843132,0.2036568156968628,0.019439026862982583
2323,5.0,301.05337000000003,845.41084,0.0,0.0,0.0,0.0,0.02315289866321577,0.0,-0.07320450896922254,-0.08330349570891492,-0.1004757807731875,0.05412606437957665,0.17925588890867883,-0.0005483746930128685
2324,5.0,300.96945,585.43935,0.0,0.0,0.0,0.0,0.023162865472799592,0.0,-0.10496671191940792,-0.041214464575050964,-0.03177776241872097,0.03981423906310946,0.20912822438184883,0.015236980413022884
2325,5.0,300.42167,478.48864000000003,0.0,0.0,0.0,0.0,0.023172832282383413,0.0,-0.06936871291365894,-0.048276872487556355,-0.027803012284193677,0.036473283958882864,0.19147121668173783,-0.016503344441003282
2326,5.0,300.21454,508.60799000000003,0.0,0.0,0.0,0.0,0.023182799091967233,0.0,-0.06730023477526603,-0.03612372989963457,-0.05118016434358895,0.022376316299620478,0.1929028073505248,-0.014836534854251985
2327,5.0,301.73176,377.57122000000004,0.0,0.0,0.0,0.0,0.023192765901551057,0.0,-0.0027831192795974872,-0.039060899772760664,-0.07292820275970323,0.036920631851532666,0.20944427735304078,-0.02071894007130018
2328,5.0,301.30307,503.5504,0.0,0.0,0.0,0.0,0.023202732711134873,0.0,3.031937837753967e-05,-0.08242046648526673,-0.07067660094398742,0.03645232184081407,0.2156197124725088,-0.04169183202841346
2329,5.0,300.2801,750.95735,0.0,0.0,0.0,0.0,0.023212699520718694,0.0,-0.07622537735360903,-0.06109841462319404,-0.09094849203141732,0.05958197743078335,0.20367088974075181,-0.0015496390677124685
2330,5.0,299.81407,565.95917,0.0,0.0,0.0,0.0,0.023222666330302517,0.0,-0.09424413459117191,-0.05245920818332075,-0.025334113918282376,0.07522955515532903,0.19505885157580982,-0.014097645523579288
2331,5.0,300.12773,402.71012,0.0,0.0,0.0,0.0,0.023232633139886338,0.0,-0.031472186453562964,-0.04653181871483295,-0.04440981665315766,0.08375375973535251,0.18787235497655783,0.008819129766755342
2332,5.0,298.7938,567.3607099999999,0.0,0.0,0.0,0.0,0.023242599949470154,0.0,-0.07516647223060323,-0.02219689098516258,-0.07510012461405523,0.08114758117964273,0.2103331206057628,0.025960687515120377
2333,5.0,299.96945,823.8068599999999,0.0,0.0,0.0,0.0,0.023252566759053975,0.0,-0.006843291565130294,-0.11644843648756588,-0.12712499199625987,0.04559809962843205,0.19383703407522582,0.0009117121554914841
2334,5.0,299.82703,628.80837,0.0,0.0,0.0,0.0,0.0232625335686378,0.0,-0.04394751217578176,-0.04248665783085666,-0.10470787718136289,0.050532937669962655,0.20025279185341183,-0.007341915688365663
2335,5.0,300.58752000000004,579.24895,0.0,0.0,0.0,0.0,0.02327250037822162,0.0,-0.062472693839824844,-0.07160187965705533,-0.04200264244358806,0.03922129523709046,0.2030337074153668,-0.018571466928611082
2336,5.0,300.11396,464.93494000000004,0.0,0.0,0.0,0.0,0.02328246718780544,0.0,-0.10538253962794689,-0.030795112471740972,-0.005150956181859795,0.06417942852026644,0.2343210871831908,-0.024435852505880876
2337,5.0,301.84013,399.81021,0.0,0.0,0.0,0.0,0.02329243399738926,0.0,-0.059558720301238044,-0.023096648967961774,-0.03887695130985636,0.04874936316818755,0.23213218325716278,-0.02361059576318438
2338,5.0,300.76124,434.47542000000004,0.0,0.0,0.0,0.0,0.02330240080697308,0.0,-0.05943409560518854,-0.06285746137979845,-0.009778120830525391,0.03449007182965507,0.21181824127733279,-0.04146800305482326
2339,5.0,300.46139,461.08275,0.0,0.0,0.0,0.0,0.023312367616556903,0.0,0.004716972044778896,-0.05126724609693325,-0.09360736871157802,0.04794680221448096,0.2007959952320218,-0.001142008552482469
2340,5.0,299.01228,415.74872999999997,0.0,0.0,0.0,0.0,0.023322334426140724,0.0,-0.02618715803172127,-0.05405325121414055,-0.046136822415099865,0.05317678987764054,0.22064302143327078,0.010904880272977889
2341,5.0,299.4344,696.44142,0.0,0.0,0.0,0.0,0.023332301235724544,0.0,-0.06566573469445343,-0.09246620287920372,-0.053568864977335345,0.05713581943686635,0.2001336032441488,0.014634785613590886
2342,5.0,298.36715,918.3744199999999,0.0,0.0,0.0,0.0,0.023342268045308364,0.0,-0.12812212128716888,-0.06731066415854535,-0.08373010642501812,0.04322182752041225,0.19244029920987882,0.025421616170418177
2343,5.0,300.66781000000003,783.59411,0.0,0.0,0.0,0.0,0.023352234854892184,0.0,-0.08092965540113513,-0.08006465189676593,-0.07719873579717203,0.05179608462887555,0.18199454180896285,0.019981799610300083
2344,5.0,300.69729,445.20512,0.0,0.0,0.0,0.0,0.023362201664476008,0.0,-0.017233925120855982,-0.05139284249982865,-0.06670447208746884,0.08879200400258852,0.2080315128711118,-0.003903412869186856
2345,5.0,299.8806,400.59123,0.0,0.0,0.0,0.0,0.02337216847405983,0.0,0.03457580494711627,-0.05087738089570655,-0.1054681592613969,0.04846346857297195,0.1909708737823578,-0.007699667042247972
2346,5.0,299.54892,463.38701,0.0,0.0,0.0,0.0,0.02338213528364365,0.0,-0.02404792159909508,-0.06772299007473874,-0.04908716960577646,0.05247744769837085,0.2048689363939898,-0.025561449750468677
2347,5.0,300.45755,402.34792999999996,0.0,0.0,0.0,0.0,0.023392102093227472,0.0,-0.05395369736531535,-0.034060390965748866,-0.03428963474787347,0.007443066723323493,0.18669682274054183,-0.013509696007303187
2348,5.0,300.14277999999996,337.10057,0.0,0.0,0.0,0.0,0.02340206890281129,0.0,-0.08652930608502761,-0.021371399168442877,0.005430547753503334,0.04092599328483106,0.2293316207757688,-0.019178586123529084
2349,5.0,301.38614,389.24185,0.0,0.0,0.0,0.0,0.023412035712395113,0.0,-0.04244768924526075,-0.051494320510593744,-0.024377794288400978,0.03796254477036146,0.2020197277752948,-0.02278050379101068
2350,5.0,300.6209,590.72141,0.0,0.0,0.0,0.0,0.023422002521978933,0.0,-0.045259338709248954,-0.05175700357251855,-0.08254821807112482,0.04985557592511225,0.20701411857820282,-0.002126871437680868
2351,5.0,300.98208999999997,1043.6178,0.0,0.0,0.0,0.0,0.023431969331562753,0.0,-0.044435808544722864,-0.12155444692148987,-0.15124350571657186,0.03786225327546346,0.17993383428558685,0.00027025724827731373
2352,5.0,299.71132,1024.7060000000001,0.0,0.0,0.0,0.0,0.023441936141146577,0.0,-0.1167121652235939,-0.08640113602687823,-0.10837171861545589,0.06735918262633374,0.2103712390745248,0.044182689550491955
2353,5.0,300.39499,569.77046,0.0,0.0,0.0,0.0,0.023451902950730394,0.0,-0.06882269371302102,-0.04140302940541086,-0.06297026955318173,0.057783841511821143,0.22711068801407977,0.017647280499150982
2354,5.0,299.76741,389.2804,0.0,0.0,0.0,0.0,0.023461869760314218,0.0,-0.04200760635582796,-0.06341464254353794,-0.012909273382296088,0.08030007954425082,0.2299980454990398,-0.002050860758904198
2355,5.0,299.62683,547.52223,0.0,0.0,0.0,0.0,0.023471836569898038,0.0,-0.07358953691447183,-0.021933395296657582,-0.07091015306553723,0.041730540208733666,0.2126489239743148,-0.02010227099418968
2356,5.0,298.56656,599.00972,0.0,0.0,0.0,0.0,0.023481803379481858,0.0,-0.05280940970938295,-0.05141664881092815,-0.07785793807373022,0.05336693132515605,0.20322386406163379,-0.02379463541859768
2357,5.0,299.93899,389.33322000000004,0.0,0.0,0.0,0.0,0.023491770189065675,0.0,-0.016403759181424987,-0.05574387116499175,-0.04619994586982966,0.050648995336416654,0.18624764897121182,-0.026110545178410178
2358,5.0,300.08204,343.6624,0.0,0.0,0.0,0.0,0.0235017369986495,0.0,-0.05252978713228636,-0.018333375446613284,-0.03360162475772217,0.05854161681110774,0.20518258796244482,-0.006628445864276675
2359,5.0,299.5555,421.57015,0.0,0.0,0.0,0.0,0.02351170380823332,0.0,-0.05213806768337665,-0.056601660328648946,-0.01940707199457888,0.03259653942702797,0.1950271773776838,-0.011253306584864889
2360,5.0,300.42077,721.95638,0.0,0.0,0.0,0.0,0.02352167061781714,0.0,-0.09173328159162,-0.06322763913158215,-0.06449579154598904,0.04616412443904436,0.2117068546938398,-0.0002954269380488687
2361,5.0,299.94334,908.6993,0.0,0.0,0.0,0.0,0.023531637427400956,0.0,-0.07929726186728044,-0.08526133605563874,-0.11166330209530989,0.05536745077934195,0.2275261813500858,0.017626608170610784
2362,5.0,299.65709,701.6993,0.0,0.0,0.0,0.0,0.02354160423698478,0.0,-0.04007234628758266,-0.08377593370054091,-0.08945078476710511,0.07615607408651932,0.22951717726658177,-0.021063158355521878
2363,5.0,298.34342000000004,409.82886,0.0,0.0,0.0,0.0,0.0235515710465686,0.0,0.002009843482931108,-0.049284767560777855,-0.07730281583419392,0.06220042948495444,0.1902211092383618,-0.0008708209784933392
2364,5.0,298.95979,480.74120999999997,0.0,0.0,0.0,0.0,0.023561537856152424,0.0,-0.07625604438113563,-0.034401709328184364,-0.03547556900941607,0.05776379537184275,0.19711474616121083,-0.007344602928955874
2365,5.0,298.0918,692.8106799999999,0.0,0.0,0.0,0.0,0.023571504665736244,0.0,-0.09096264105581373,-0.03786294532528176,-0.08177156186947483,0.047589051975173755,0.18461846440042382,0.018577864589742484
2366,5.0,299.83161,304.59002999999996,0.0,0.0,0.0,0.0,0.02358147147532006,0.0,-0.04410999088231716,-0.006934037332161204,-0.04154373640704757,0.04829156461400636,0.20700349971715482,-0.015823764691683985
2367,5.0,300.04856,137.69853999999998,0.0,0.0,0.0,0.0,0.023591438284903885,0.0,0.012558699993447187,-0.03642931093104307,-0.017986306889860283,0.05534119544275075,0.2058531264811218,-0.013256447317059487
2368,5.0,299.78573,509.88124000000005,0.0,0.0,0.0,0.0,0.023601405094487705,0.0,-0.034644924815937866,-0.03722747640581586,-0.08311876400368333,0.04398263345074795,0.20733047552442482,-0.012428898602636788
2369,5.0,299.3447,832.3213900000001,0.0,0.0,0.0,0.0,0.02361137190407153,0.0,-0.12084063249104188,-0.041963718440996556,-0.0902005695761031,0.047090957477765656,0.2147421162958968,0.005529573800351444
2370,5.0,300.88152,837.37448,0.0,0.0,0.0,0.0,0.02362133871365535,0.0,-0.12715950329466588,-0.055225790309361145,-0.07215564312820753,0.045940936852767456,0.2145629027507098,-0.008229055262369523
2371,5.0,300.1728,519.06722,0.0,0.0,0.0,0.0,0.02363130552323917,0.0,-0.06336540973442903,-0.03729684452091197,-0.057121218502925356,0.05559386556718735,0.20645352782787682,0.03406440647589517
2372,5.0,299.49994,328.9794,0.0,0.0,0.0,0.0,0.02364127233282299,0.0,-0.003145576572244237,-0.06554412137770114,-0.031311824426486466,0.07997353538152342,0.2047377711685448,0.013780236823753487
2373,5.0,299.7872,653.3709200000001,0.0,0.0,0.0,0.0,0.02365123914240681,0.0,-0.020640140624273284,-0.056272003461614345,-0.12169630193548989,0.049105406081076254,0.18838633622228382,0.02210725178856588
2374,5.0,300.36933,872.84364,0.0,0.0,0.0,0.0,0.023661205951990633,0.0,-0.056558687378657845,-0.09526202436337981,-0.1135019558592709,0.06479622121388914,0.19255371229357182,-0.028698122488784176
2375,5.0,301.37584,506.23265999999995,0.0,0.0,0.0,0.0,0.023671172761574454,0.0,-0.05234362167816325,-0.06281062389392594,-0.03872784243839046,0.06885311350752324,0.18184519887672382,-0.024698056300508375
2376,5.0,301.81892999999997,55.299886,0.0,0.0,0.0,0.0,0.023681139571158274,0.0,-0.042633219391571164,-0.005891221202193264,0.031714656189242865,0.07131537609852964,0.22432796886694678,-0.037240672975118266
2377,5.0,300.46861,369.57571,0.0,0.0,0.0,0.0,0.023691106380742094,0.0,-0.039292372705105265,-0.05920477785580664,-0.013844639000109488,0.05684539561370374,0.1974037757522358,-0.019049035005493382
2378,5.0,299.25705,990.95481,0.0,0.0,0.0,0.0,0.023701073190325914,0.0,-0.11165210568170489,-0.08044969808051701,-0.1091237224421729,0.07111025881453613,0.2161308971479588,-0.009530867946423431
2379,5.0,299.57847000000004,940.15986,0.0,0.0,0.0,0.0,0.023711039999909738,0.0,-0.025969000218940778,-0.1122880822394709,-0.14752803918988386,0.03313485894015597,0.1973891241557898,-0.007807018458542732
2380,5.0,299.35537999999997,403.13488,0.0,0.0,0.0,0.0,0.02372100680949356,0.0,-0.0006254544722350504,-0.07075114676709453,-0.05116633449297405,0.06464863120432314,0.19771583651803382,0.0004383664437633996
2381,5.0,299.73922999999996,311.29016,0.0,0.0,0.0,0.0,0.02373097361907738,0.0,-0.06234776010249485,-0.01889292964208698,-0.013383744966872786,0.03379678280648277,0.20284411818915582,0.008967394702212951
2382,5.0,298.87021,599.34932,0.0,0.0,0.0,0.0,0.023740940428661202,0.0,-0.1151967078440299,-0.05752666445093974,-0.0094638583735851,0.05034926886408595,0.2258124917209578,0.01022358914423969
2383,5.0,300.42692,723.3762,0.0,0.0,0.0,0.0,0.02375090723824502,0.0,-0.08400738028838292,-0.07189902943438173,-0.06398189338677124,0.04343067052502346,0.21118094749443678,-0.009471276782867242
2384,5.0,300.74773999999996,477.34239,0.0,0.0,0.0,0.0,0.02376087404782884,0.0,-0.019705696050800782,-0.04846923599254115,-0.07692523426392953,0.06795821608545373,0.20199425466778081,-0.0048664870268848755
2385,5.0,301.95417000000003,141.45183,0.0,0.0,0.0,0.0,0.02377084085741266,0.0,0.05092910630006145,-0.04116096699627116,-0.05276596559809535,0.06265002071332565,0.1865122085723218,-0.027266445693738678
2386,5.0,300.41083,254.05587000000003,0.0,0.0,0.0,0.0,0.023780807666996483,0.0,-0.0033970607887637964,-0.03899515098702176,-0.03483442892914047,0.06130221569530764,0.2024519397379508,-0.02630049106865637
2387,5.0,300.37465,762.9599599999999,0.0,0.0,0.0,0.0,0.0237907744765803,0.0,-0.14218835301789787,-0.04535996558993006,-0.04437245508222036,0.03150212090126727,0.23745633630511576,-0.0069855159087917435
2388,5.0,299.23076000000003,883.07333,0.0,0.0,0.0,0.0,0.02380074128616412,0.0,-0.11895548067999188,-0.0967729221174938,-0.05270383816821385,0.038337173729834466,0.24131141856308277,-0.025623761591868372
2389,5.0,300.62948,448.07599000000005,0.0,0.0,0.0,0.0,0.023810708095747944,0.0,-0.07498580061852232,-0.03260917972202547,-0.02860893216198177,0.04371600580618386,0.23121952862709078,0.017720068333334584
2390,5.0,300.58054,469.98175,0.0,0.0,0.0,0.0,0.023820674905331764,0.0,-0.03113564455209887,-0.06918382922091233,-0.04254324379594126,0.07739434879522752,0.2155159049997638,0.0013917602126560387
2391,5.0,300.3894,845.39043,0.0,0.0,0.0,0.0,0.02383064171491558,0.0,-0.05321596820600715,-0.07246121200061482,-0.13130040314084088,0.05235773523880616,0.1955274594820578,0.030107165303095873
2392,5.0,299.40299,904.83142,0.0,0.0,0.0,0.0,0.023840608524499405,0.0,-0.07235975121510142,-0.09545185069011422,-0.1072345581607269,0.03705722809751367,0.18611417353553883,0.01878946363462568
2393,5.0,300.95153999999997,751.48044,0.0,0.0,0.0,0.0,0.023850575334083225,0.0,-0.09771293044726541,-0.07309846322700662,-0.05761989460589084,0.047810051954484754,0.1957690385708998,0.02254765689153048
2394,5.0,300.93688,546.6694,0.0,0.0,0.0,0.0,0.02386054214366705,0.0,-0.07446045374642463,-0.04996576180723675,-0.04174762968492026,0.06483863991607554,0.2408088971759878,-0.03325903071341076
2395,5.0,301.2307,359.5697,0.0,0.0,0.0,0.0,0.02387050895325087,0.0,-0.023701508615156776,-0.06215916183488164,-0.02343953989455248,0.06333285299546594,0.2331916578267248,-0.027546683313645973
2396,5.0,300.53009,471.72132,0.0,0.0,0.0,0.0,0.023880475762834686,0.0,-0.004408829618442606,-0.06848844783628354,-0.07049422605848843,0.03958261920950036,0.2229747328283928,-0.027907845166039873
2397,5.0,300.10872,739.3759200000001,0.0,0.0,0.0,0.0,0.02389044257241851,0.0,-0.014474799502301487,-0.07839706717368813,-0.13187995180053785,0.03536408819366376,0.1970742364222128,0.006241074980821145
2398,5.0,300.13826,389.45169,0.0,0.0,0.0,0.0,0.02390040938200233,0.0,-0.04340641939713005,-0.03165458464381427,-0.04332258409710616,0.05975268575463095,0.20111346675335381,0.006498584083760314
2399,5.0,299.7644,281.54192,0.0,0.0,0.0,0.0,0.023910376191586154,0.0,-0.054970141229630544,-0.009114848530965511,-0.02149672402031148,0.04990250156374345,0.21710851124194178,0.015093925710904486
2400,5.0,299.01117999999997,673.46774,0.0,0.0,0.0,0.0,0.023920343001169974,0.0,-0.09201621445679332,-0.05811275566653244,-0.05458840634720625,0.042760350868368054,0.2232828925813058,0.01355915679768459
2401,5.0,299.44782000000004,894.4408800000001,0.0,0.0,0.0,0.0,0.02393030981075379,0.0,-0.10877494149275091,-0.05339982750290265,-0.10971291724282191,0.035869555098799466,0.23896141800365578,0.035345545716833765
2402,5.0,299.02194,631.5243,0.0,0.0,0.0,0.0,0.023940276620337615,0.0,-0.04719805497358536,-0.05366556652712904,-0.09110399653751441,0.04705090268806255,0.2180901986013268,-0.014872927758093686
2403,5.0,299.87023999999997,343.50939,0.0,0.0,0.0,0.0,0.023950243429921435,0.0,-0.002007439040443808,-0.04887876635170865,-0.05353207285295425,0.07134007406971714,0.2042167680996258,0.0026199658498204975
2404,5.0,299.52033,288.32254,0.0,0.0,0.0,0.0,0.02396021023950526,0.0,-0.04118774314341376,-0.03188343427164997,-0.014571674317862285,0.06594069226808964,0.2034312459596008,-0.0021161248057952583
2405,5.0,300.03686,538.6406599999999,0.0,0.0,0.0,0.0,0.02397017704908908,0.0,-0.08184508025698052,-0.04166502143076746,-0.040223209094971665,0.06767863302511104,0.1869241757979798,0.012012652421806488
2406,5.0,300.25681000000003,796.43064,0.0,0.0,0.0,0.0,0.0239801438586729,0.0,-0.10960258443943288,-0.0910768282625831,-0.04141561295840276,0.05109125975331475,0.19305237319778581,-0.03376534469563007
2407,5.0,300.39692,602.8996599999999,0.0,0.0,0.0,0.0,0.02399011066825672,0.0,-0.06930504838337573,-0.047160190830598456,-0.06680120099501523,0.06833647855978534,0.2022629888593028,0.027539822597218877
2408,5.0,299.97783,257.64518,0.0,0.0,0.0,0.0,0.02400007747784054,0.0,0.012396679275956987,-0.038410906926361364,-0.052303473669450956,0.08176818774664182,0.2086399999536648,-0.024533847976052275
2409,5.0,301.14389,612.79881,0.0,0.0,0.0,0.0,0.024010044287424363,0.0,-0.03551215544402687,-0.05190256100238395,-0.0988608212205534,0.04837500271999105,0.2031292771647988,0.015255149000565986
2410,5.0,301.30489,953.48275,0.0,0.0,0.0,0.0,0.024020011097008184,0.0,-0.11145546423479791,-0.07203318982712233,-0.1063462924605619,0.03343536156206326,0.20340725219723282,3.565277429290487e-05
2411,5.0,300.69577000000004,689.74708,0.0,0.0,0.0,0.0,0.024029977906592004,0.0,-0.0851887154077216,-0.07147481201501472,-0.05300236089942575,0.050605317164355956,0.2128212575513228,-0.0027270830026921377
2412,5.0,299.33517,329.21733,0.0,0.0,0.0,0.0,0.02403994471617582,0.0,-0.02659238917071448,-0.03966189893707466,-0.033819560668730764,0.06243704364830644,0.23413773957759576,-0.0030769640377477075
2413,5.0,299.65342000000004,498.20512,0.0,0.0,0.0,0.0,0.02404991152575964,0.0,-0.029322121417118076,-0.06011249491814134,-0.06200729996289404,0.05148317374624365,0.22641234591265877,-0.011768488531959389
2414,5.0,299.97835,693.27153,0.0,0.0,0.0,0.0,0.024059878335343465,0.0,-0.027255951462452972,-0.091880233253623,-0.0916010484005696,0.04934724557519395,0.21977357178746276,-0.02923473163574337
2415,5.0,299.83444,707.89622,0.0,0.0,0.0,0.0,0.024069845144927285,0.0,-0.07355351486016672,-0.07050567274486813,-0.07112358710635153,0.07222337585764223,0.1930106374261668,-0.035781915044650066
2416,5.0,298.96172,466.765,0.0,0.0,0.0,0.0,0.0240798119545111,0.0,-0.07130520712052603,-0.049664599559514355,-0.02091509718465938,0.08865080456140322,0.2033559108146658,0.005422800443238734
2417,5.0,299.28879,283.33909,0.0,0.0,0.0,0.0,0.024089778764094925,0.0,-0.05442545850587454,-0.008196889029994962,-0.023505660543078077,0.0885754684032181,0.18634424210324482,0.0019184767962389182
2418,5.0,299.79183,637.00962,0.0,0.0,0.0,0.0,0.024099745573678746,0.0,-0.06292746784245754,-0.06217725341541714,-0.06853029607866364,0.049700824263839455,0.19384743002125182,0.02258029469050158
2419,5.0,301.09734,979.5811,0.0,0.0,0.0,0.0,0.02410971238326257,0.0,-0.09285892341921223,-0.07238263242885964,-0.13252663841186085,0.04659617428168436,0.2123918218939408,0.014138793610140286
2420,5.0,300.27063,853.41484,0.0,0.0,0.0,0.0,0.02411967919284639,0.0,-0.06811104763778704,-0.06394921911079654,-0.12735652977661088,0.03120421827911657,0.2311475270749848,0.028014522163068073
2421,5.0,300.59993,392.93108,0.0,0.0,0.0,0.0,0.024129646002430206,0.0,-0.02971827383521527,-0.04393544639359096,-0.045787518628626254,0.06519041299304285,0.22279127376528676,-0.012463902340591387
2422,5.0,300.12127999999996,525.3562599999999,0.0,0.0,0.0,0.0,0.02413961281201403,0.0,-0.06876690720226535,-0.05750265852957054,-0.03342562017560186,0.03135985450772667,0.21023524064610277,-0.016077679087243384
2423,5.0,300.38752999999997,885.37773,0.0,0.0,0.0,0.0,0.02414957962159785,0.0,-0.12209281709712287,-0.08125294804429163,-0.06578695892316734,0.06564515761142263,0.2148004795016568,-0.00916600276623904
2424,5.0,299.61114,601.9210400000001,0.0,0.0,0.0,0.0,0.024159546431181674,0.0,-0.06292850743706013,-0.06907047997197564,-0.050969978782595245,0.05653407148072845,0.1964130400694578,-0.0038672260604154965
2425,5.0,299.67098,277.18695,0.0,0.0,0.0,0.0,0.024169513240765494,0.0,-0.005386483533154535,-0.04515101822055855,-0.03372040908019527,0.06583480459288935,0.23017217252872477,-0.012658446359791386
2426,5.0,299.12541,155.39101000000002,0.0,0.0,0.0,0.0,0.02417948005034931,0.0,0.018263611150728085,-0.02893255005842037,-0.03656604903203806,0.07560266322640194,0.22757906287280477,-0.01029402927794159
2427,5.0,299.28182999999996,426.18577999999997,0.0,0.0,0.0,0.0,0.024189446859933135,0.0,-0.04589804800253466,-0.06656096142280543,-0.01709082583573318,0.048376470919385954,0.23152687777992378,-0.01883276082464878
2428,5.0,299.41726,786.35459,0.0,0.0,0.0,0.0,0.024199413669516955,0.0,-0.08288699418905941,-0.06508315844345765,-0.09106200644012032,0.038225473038810465,0.2214232442752728,-0.010066235051410051
2429,5.0,299.84989,722.58953,0.0,0.0,0.0,0.0,0.02420938047910078,0.0,-0.07954323542180612,-0.08543078288311183,-0.05467515474126765,0.03355958501107317,0.19696110704854783,-0.013935220519299187
2430,5.0,301.18252,401.10176,0.0,0.0,0.0,0.0,0.0242193472886846,0.0,-0.005545074804356275,-0.05933710933211674,-0.057042734176679544,0.04817040928629925,0.2081872494114818,-0.00897839424132352
2431,5.0,300.11159,386.08662000000004,0.0,0.0,0.0,0.0,0.024229314098268416,0.0,0.004259426296497646,-0.05905777249154835,-0.06256234519542274,0.04072151738815086,0.2151212238208118,-0.017919165898483982
2432,5.0,299.65519,915.2168199999999,0.0,0.0,0.0,0.0,0.02423928090785224,0.0,-0.07650565246377003,-0.09282221640783951,-0.10887519245764489,0.044131232657413554,0.20865950501808977,0.007588551097856683
2433,5.0,300.19884,1017.4273,0.0,0.0,0.0,0.0,0.02424924771743606,0.0,-0.14345854307825584,-0.06975944140397085,-0.09605449942559101,0.047252908280998956,0.23414605836091676,0.0010872950735826689
2434,5.0,300.14012,374.67978999999997,0.0,0.0,0.0,0.0,0.024259214527019884,0.0,-0.06756086093948785,-0.037016129660207564,-0.009316309704623181,0.07152307007752744,0.2286316169441838,0.0016422300645004884
2435,5.0,299.55417,99.273662,0.0,0.0,0.0,0.0,0.024269181336603704,0.0,0.007260751822230414,-0.02100441923397478,-0.016433046162315383,0.07279240799455133,0.24013560261703876,-0.00916982292176606
2436,5.0,300.50587,636.75872,0.0,0.0,0.0,0.0,0.02427914814618752,0.0,-0.052000542287053954,-0.04027651922248296,-0.10128169153172471,0.04357529880454716,0.20274486020935983,0.04119752809962946
2437,5.0,300.47152,975.9246199999999,0.0,0.0,0.0,0.0,0.024289114955771345,0.0,-0.06311827904828915,-0.09881605380463522,-0.13472238177606385,0.06308933353268244,0.2036162451628588,0.00996772444488781
2438,5.0,300.05526000000003,735.15683,0.0,0.0,0.0,0.0,0.024299081765355165,0.0,-0.07784639512859103,-0.07414254044804904,-0.07148038489056473,0.03994636991589976,0.17701427571244882,0.01741487132371398
2439,5.0,300.05006000000003,511.17277,0.0,0.0,0.0,0.0,0.024309048574938985,0.0,-0.07080784114993983,-0.05156673344224036,-0.03300918147725257,0.05870193425517984,0.2026191867994568,-0.0062347565558475634
2440,5.0,299.15881,507.37402000000003,0.0,0.0,0.0,0.0,0.024319015384522805,0.0,-0.06761799101987613,-0.06578462135518665,-0.02082642158890778,0.051186465745960856,0.19111960876453682,-0.014148915978639287
2441,5.0,299.78695,859.57121,0.0,0.0,0.0,0.0,0.024328982194106622,0.0,-0.08999571371063542,-0.07484016719489943,-0.0964523024281011,0.058282320031017146,0.2281145148881498,-0.02485597842134408
2442,5.0,300.26238,794.20114,0.0,0.0,0.0,0.0,0.024338949003690446,0.0,-0.06088623295950334,-0.07300509223029164,-0.10752598915448891,0.06823469758724034,0.21563564076408082,-0.018231648176323584
2443,5.0,299.62014,244.01248999999999,0.0,0.0,0.0,0.0,0.024348915813274266,0.0,0.007330357240499933,-0.03617636621582936,-0.04532769458749516,0.06895213540004594,0.2119153511669168,-0.016181589911498585
2444,5.0,299.84742,21.165303,0.0,0.0,0.0,0.0,0.02435888262285809,0.0,0.015550471887962087,-0.0015997608011340985,-0.020384434802537082,0.07802433907140272,0.19129016915386984,0.008437794611495493
2445,5.0,299.87174,588.28354,0.0,0.0,0.0,0.0,0.02436884943244191,0.0,-0.09650482627353481,-0.04590326826704986,-0.03641541217942136,0.05571935253907195,0.20650144442510582,0.006846334152530573
2446,5.0,300.66942,1029.5844,0.0,0.0,0.0,0.0,0.024378816242025727,0.0,-0.09402418535221461,-0.11566005698225888,-0.10328372376830991,0.04501450607433586,0.1997884395975838,0.005291188982449695
2447,5.0,300.8514,547.03693,0.0,0.0,0.0,0.0,0.02438878305160955,0.0,-0.04656942549229445,-0.05317906259761485,-0.06653707911794844,0.019791692613287983,0.2272117090490498,-0.013387071466951088
2448,5.0,300.63079,391.01034,0.0,0.0,0.0,0.0,0.02439874986119337,0.0,0.010978759377519189,-0.06365679715843674,-0.06617934407739273,0.049385811900500155,0.22768818990857478,0.01119178913154359
2449,5.0,301.07818,782.99261,0.0,0.0,0.0,0.0,0.024408716670777195,0.0,-0.06406413687088804,-0.06944723169040813,-0.1044988335532319,0.07108731477927173,0.22642729135163378,0.005458848132771365
2450,5.0,301.12575,901.68829,0.0,0.0,0.0,0.0,0.024418683480361015,0.0,-0.09619354267056351,-0.08183863902609483,-0.09605854431999021,0.06172512906179595,0.2007198089570028,-0.0043114668216336464
2451,5.0,300.96406,709.7662799999999,0.0,0.0,0.0,0.0,0.02442865028994483,0.0,-0.1072544279951879,-0.05422531425337185,-0.05427148704717875,0.05817111279279184,0.2036382833525338,-0.01032933091142559
2452,5.0,300.31314,412.52761,0.0,0.0,0.0,0.0,0.024438617099528655,0.0,-0.061001678622896946,-0.018513628586402882,-0.04588278338977816,0.07362753379322183,0.2297867017931818,0.009372374149881312
2453,5.0,300.13051,347.63346,0.0,0.0,0.0,0.0,0.024448583909112476,0.0,-0.04326194918462196,-0.03374116956149417,-0.028668772686387574,0.06754491744916434,0.25447757009748073,-0.012492867107949989
2454,5.0,300.16598999999997,627.9576099999999,0.0,0.0,0.0,0.0,0.0244585507186963,0.0,-0.05638203938272405,-0.04140896502449666,-0.09309242791800731,0.06224399721275424,0.2024033442631548,0.017147320608308786
2455,5.0,300.27111,894.9308199999999,0.0,0.0,0.0,0.0,0.02446851752828012,0.0,-0.0925451735654975,-0.08177536662360033,-0.09771608064182631,0.04538960315535505,0.20726256750272282,-0.0053806120528000646
2456,5.0,300.1018,563.10247,0.0,0.0,0.0,0.0,0.024478484337863936,0.0,-0.05357703481289165,-0.05264538782294525,-0.06494666757548703,0.06076258301005003,0.1890478669475718,0.014218968037552886
2457,5.0,300.37981,310.76272,0.0,0.0,0.0,0.0,0.02448845114744776,0.0,-0.042073242670805755,-0.047104563400108455,-0.005286301367942325,0.06721433953778884,0.17950260517552782,-0.016975619299363184
2458,5.0,299.92163,723.55372,0.0,0.0,0.0,0.0,0.02449841795703158,0.0,-0.06150606135042564,-0.0949533752106685,-0.06348282819576734,0.08340996802942292,0.20292762012989682,0.0009729412682318272
2459,5.0,301.4574,913.27402,0.0,0.0,0.0,0.0,0.024508384766615404,0.0,-0.09298741670414351,-0.09184287066943561,-0.09278221025414123,0.055028153850855945,0.25982097489733375,-0.01867133387171718
2460,5.0,301.30907,588.65706,0.0,0.0,0.0,0.0,0.024518351576199224,0.0,-0.023980355042676777,-0.06307149830442224,-0.0918851941261126,0.06591135867769464,0.2573282985913257,-0.0014679229802727187
2461,5.0,301.0394,314.51675,0.0,0.0,0.0,0.0,0.02452831838578304,0.0,-0.029826821291928072,-0.03135158334716037,-0.034426833877663966,0.035837118936598265,0.23330025797244275,-0.02721585614274587
2462,5.0,301.02617999999995,302.65407000000005,0.0,0.0,0.0,0.0,0.024538285195366865,0.0,-0.04325390701857825,-0.02450898484509848,-0.024236390170695475,0.05533522841291186,0.19537166214668183,-0.026693846916477575
2463,5.0,300.68226,455.60183,0.0,0.0,0.0,0.0,0.024548252004950685,0.0,-0.06709920798192623,-0.04151294069675826,-0.02987943227687037,0.05925360637812565,0.1964226760779088,-0.01884403829826178
2464,5.0,300.60102,779.07776,0.0,0.0,0.0,0.0,0.024558218814534506,0.0,-0.07214178997284033,-0.08932625025031452,-0.07535214524517772,0.055692001879122655,0.21680919716240182,-0.017302173594591585
2465,5.0,300.48652999999996,650.1573599999999,0.0,0.0,0.0,0.0,0.024568185624118326,0.0,-0.06154276025579753,-0.05706931172680254,-0.07901953204137063,0.04877075794404905,0.2190470714657628,0.023142487389235678
2466,5.0,299.56543,482.43934,0.0,0.0,0.0,0.0,0.024578152433702146,0.0,-0.024423201065132273,-0.05813604015383045,-0.06409026960421714,0.06538379785412844,0.2043857984813078,-0.005993288519216525
2467,5.0,299.36213,760.1610000000001,0.0,0.0,0.0,0.0,0.024588119243285966,0.0,-0.09248311908962321,-0.055944419704284355,-0.08264242297267212,0.08064415090720801,0.2213587509064078,0.04473595855559536
2468,5.0,299.91651,1191.6487,0.0,0.0,0.0,0.0,0.024598086052869787,0.0,-0.13521385873706887,-0.0962273852239035,-0.13079022158298986,0.06162407154982235,0.21701468428268178,0.020571857700034283
2469,5.0,300.93913,918.41935,0.0,0.0,0.0,0.0,0.02460805286245361,0.0,-0.10776532896060992,-0.08721063065101911,-0.08420058985720122,0.02969474312814297,0.20813689088151177,0.009107015702392472
2470,5.0,300.77605,317.16978,0.0,0.0,0.0,0.0,0.02461801967203743,0.0,-0.02124197268016948,-0.02240289080999318,-0.05276683091368074,0.03965704242934536,0.19614959504345783,-0.006038462248424824
2471,5.0,300.08639,286.33931,0.0,0.0,0.0,0.0,0.024627986481621247,0.0,-0.004117776566967906,-0.05357786669122375,-0.029344356177312472,0.05880188529804425,0.23410874035973375,-0.019151255728581784
2472,5.0,299.95972,363.00185,0.0,0.0,0.0,0.0,0.02463795329120507,0.0,-0.027105705724374877,-0.004223987063650066,-0.07901380413855533,0.06443769685150554,0.23078282796649177,0.008814133126537211
2473,5.0,300.60119,592.83012,0.0,0.0,0.0,0.0,0.02464792010078889,0.0,-0.06325448924598204,-0.06455677906950803,-0.05239428620966345,0.040815571315433265,0.23351956582408678,-0.029945445520885374
2474,5.0,299.98349,550.46175,0.0,0.0,0.0,0.0,0.024657886910372715,0.0,-0.07706412552138703,-0.04112957144192266,-0.049132930006792655,0.04619386738247975,0.21040540586789677,-0.0033211597436479472
2475,5.0,300.8886,401.06755,0.0,0.0,0.0,0.0,0.024667853719956535,0.0,-0.03728431365692526,-0.048627248292635754,-0.03600296062021557,0.07265229475747323,0.2206865506575668,-0.023522224142462776
2476,5.0,300.49296,637.63805,0.0,0.0,0.0,0.0,0.024677820529540352,0.0,-0.04273701369206486,-0.08444555117487701,-0.06664347949769935,0.09984234848642261,0.20915260317925477,-0.0035384995596227167
2477,5.0,301.19718,1218.8458,0.0,0.0,0.0,0.0,0.024687787339124176,0.0,-0.09855717954983631,-0.1220895341667989,-0.14985197895673885,0.06894572963291373,0.2091287006093958,0.006848750754019073
2478,5.0,300.58224,987.46656,0.0,0.0,0.0,0.0,0.024697754148707996,0.0,-0.05813431357566004,-0.11547428770892489,-0.1265565688226609,0.04612512545594546,0.17937954595088282,0.0002017941783030348
2479,5.0,300.8288,297.84855,0.0,0.0,0.0,0.0,0.02470772095829182,0.0,-0.018201947789392384,-0.038223735314888964,-0.03411283679092487,0.05519321837164654,0.2142739238221898,-0.002268443552252948
2480,5.0,299.6132,225.65757999999997,0.0,0.0,0.0,0.0,0.02471768776787564,0.0,-0.012735043001100886,-0.02515358618771568,-0.030705641474660872,0.05476652862203555,0.22971278519838675,-0.024810061979812476
2481,5.0,299.50484,613.70257,0.0,0.0,0.0,0.0,0.024727654577459457,0.0,-0.07988523570155892,-0.050852828832533455,-0.05581219461923475,0.06584276367242484,0.22220270717969975,0.0027767080409147474
2482,5.0,299.67367,742.3679599999999,0.0,0.0,0.0,0.0,0.02473762138704328,0.0,-0.05510854714029014,-0.07553790134626043,-0.0950148754387381,0.03230811879931307,0.2172095424094128,-0.02333217692720658
2483,5.0,298.75666,397.16325,0.0,0.0,0.0,0.0,0.0247475881966271,0.0,-0.04675831354943625,-0.020209858903057782,-0.05375953736790325,0.061833712995512345,0.21049647678688482,0.03176971113342637
2484,5.0,298.98823,305.49638999999996,0.0,0.0,0.0,0.0,0.024757555006210925,0.0,-0.005320692393561454,-0.026554439914719178,-0.06098814160156094,0.06161501208067823,0.2196790963481388,0.009015361556646912
2485,5.0,301.1415,587.2547,0.0,0.0,0.0,0.0,0.024767521815794745,0.0,-0.08815259657998391,-0.02930428112260737,-0.06105388633429944,0.05098916365998866,0.23285947391394077,0.038511524687791565
2486,5.0,300.27168,1021.3051,0.0,0.0,0.0,0.0,0.02477748862537856,0.0,-0.1051024266378019,-0.1053697422791839,-0.0999790713886661,0.053292698596329846,0.22351742958195278,-0.014348981197634185
2487,5.0,300.15744,1016.4951,0.0,0.0,0.0,0.0,0.024787455434962385,0.0,-0.12152386703347187,-0.0934794519659536,-0.09398582066367832,0.04287655140308616,0.2259268977897488,0.01032440955568989
2488,5.0,301.0701,326.15652,0.0,0.0,0.0,0.0,0.024797422244546206,0.0,-0.01978835395420848,-0.02034735288862738,-0.05900773110885965,0.07856103941087092,0.23316057131365675,0.012973993719183488
2489,5.0,300.58695,99.936637,0.0,0.0,0.0,0.0,0.02480738905413003,0.0,0.025668198688253974,-0.039310061012100966,-0.016736379805002085,0.08264868080528973,0.1963426495850108,-0.024533346417252775
2490,5.0,299.94035,663.84427,0.0,0.0,0.0,0.0,0.02481735586371385,0.0,-0.056840054772426644,-0.04015518758925846,-0.1047968405401429,0.08043862325692402,0.2121348819335828,0.014692957315081984
2491,5.0,300.16491,769.988,0.0,0.0,0.0,0.0,0.024827322673297667,0.0,-0.08675275407658022,-0.06206033549962824,-0.08524403683668141,0.046077875577282254,0.20969993048577182,-0.01812970305726238
2492,5.0,299.3993,282.29157999999995,0.0,0.0,0.0,0.0,0.024837289482881487,0.0,-0.032271293237678675,-0.031151095602873765,-0.02238720265869488,0.05572125947576015,0.2348193934498698,-0.00012866784765852788
2493,5.0,300.07694,419.63347000000005,0.0,0.0,0.0,0.0,0.024847256292465307,0.0,-0.05882441086101734,-0.03257498861065107,-0.03615869817383567,0.03309683571690337,0.25445588654534074,-0.03398516930482507
2494,5.0,300.01396,891.0106900000001,0.0,0.0,0.0,0.0,0.02485722310204913,0.0,-0.08644354864956401,-0.0986036998884275,-0.08579775167182883,0.05485389813840824,0.2269346155442028,-0.017135556774647783
2495,5.0,300.18747,946.0723800000001,0.0,0.0,0.0,0.0,0.02486718991163295,0.0,-0.08851263879101731,-0.08888928614468951,-0.1101804511039639,0.035809134995336465,0.22156456226671978,-0.01091635229061009
2496,5.0,299.81052,908.8163300000001,0.0,0.0,0.0,0.0,0.024877156721216768,0.0,-0.08884515099683372,-0.08656315471786823,-0.10084916647478781,0.04138994733336976,0.2139001561253018,0.026345978905395674
2497,5.0,300.00237000000004,487.78533,0.0,0.0,0.0,0.0,0.02488712353080059,0.0,-0.07195219568037883,-0.04988696438671005,-0.026435400253220873,0.08721218092367211,0.2062055753959058,0.012749436218771386
2498,5.0,299.3604,90.550589,0.0,0.0,0.0,0.0,0.024897090340384412,0.0,-0.0054959044114535355,-0.012938242202655088,-0.009090971596334041,0.07390565878667063,0.2041211071576848,-0.015142930538740884
2499,5.0,300.03754,513.22787,0.0,0.0,0.0,0.0,0.024907057149968236,0.0,-0.05059438216927675,-0.060474478516366344,-0.04493959649444286,0.06148663633275853,0.2130799909643578,-0.025967931240085274
2500,5.0,300.55778,850.94251,0.0,0.0,0.0,0.0,0.024917023959552056,0.0,-0.056761195543643846,-0.07207686799918303,-0.12982720842294787,0.04287937735761505,0.23509489615205978,-0.010295900750876292
2501,5.0,300.86371,468.23015,0.0,0.0,0.0,0.0,0.024926990769135873,0.0,-0.04578311099069126,-0.02191602920319368,-0.07463113471251953,0.05478046587716104,0.22876619682246577,0.0016135088824659283
2502,5.0,300.55944,134.39455,0.0,0.0,0.0,0.0,0.024936957578719696,0.0,0.0058313975990641346,-0.031650769757187766,-0.015033215817912884,0.04014483318648656,0.23553811201080177,-0.019705035411735582
2503,5.0,298.98054,417.43711,0.0,0.0,0.0,0.0,0.024946924388303517,0.0,-0.06482707670593434,-0.02727150789123827,-0.03479187343819057,0.05028059887830875,0.20392806274863282,0.023170333528483876
2504,5.0,299.52536000000003,1058.272,0.0,0.0,0.0,0.0,0.02495689119788734,0.0,-0.11769933426601988,-0.10041468483190781,-0.10357424283698191,0.04467972418829545,0.22706799978736678,0.016694583238377084
2505,5.0,299.80165,1060.5379,0.0,0.0,0.0,0.0,0.02496685800747116,0.0,-0.12187323566795188,-0.1062996322934569,-0.0942041770734784,0.05691578609815074,0.22163156849583276,0.0013907197061283488
2506,5.0,298.49562000000003,544.64259,0.0,0.0,0.0,0.0,0.024976824817054977,0.0,-0.05537560642939686,-0.03964121647603346,-0.07054092472909723,0.06010132484903895,0.23098016855596776,-0.013280952770727987
2507,5.0,298.61017999999996,324.09716000000003,0.0,0.0,0.0,0.0,0.0249867916266388,0.0,-0.029075551058283473,-0.03406131302333987,-0.03538057883904126,0.1033186606317579,0.22684539887289779,0.01112892709533959
2508,5.0,299.71251,373.77704,0.0,0.0,0.0,0.0,0.02499675843622262,0.0,-0.03493316305863476,-0.03183195103406897,-0.04685377184135726,0.060087390633663744,0.2273502507352228,0.013311397896482686
2509,5.0,298.91492,706.93965,0.0,0.0,0.0,0.0,0.025006725245806445,0.0,-0.06993159766221134,-0.05831677864041794,-0.08664362704081022,0.07998135767229543,0.1985075293511678,0.009325978441052412
2510,5.0,300.01949,595.7927900000001,0.0,0.0,0.0,0.0,0.025016692055390265,0.0,-0.04875050510105025,-0.06783919162270693,-0.06451643449027634,0.017566079649387084,0.18823442976729182,-0.003573093843211906
2511,5.0,299.81945,105.1083,0.0,0.0,0.0,0.0,0.025026658864974082,0.0,0.017586714487673585,-0.03191784120529567,-0.017619172941376982,0.05903809416135624,0.21042950095527482,-0.03893231529532036
2512,5.0,300.11944,276.39459,0.0,0.0,0.0,0.0,0.025036625674557906,0.0,-0.0004786526395243375,-0.04208188366765856,-0.04145651685168966,0.04586126398415436,0.2319242744691438,-0.04462572201096586
2513,5.0,300.73287999999997,966.99146,0.0,0.0,0.0,0.0,0.025046592484141726,0.0,-0.0969167337174369,-0.09118244843975701,-0.10584207894579989,0.06382153845244544,0.24504216490127875,-0.014135851131849885
2514,5.0,300.82012000000003,839.3041599999999,0.0,0.0,0.0,0.0,0.02505655929372555,0.0,-0.08536646278001392,-0.09306251981480561,-0.07669852563355513,0.03946238695263436,0.23420726879945777,-0.022545946525361682
2515,5.0,300.01872000000003,495.26275,0.0,0.0,0.0,0.0,0.02506652610330937,0.0,-0.07366709715662643,-0.051393861829429247,-0.025486549289826577,0.06703334773867634,0.2084865938885248,0.02785636699470937
2516,5.0,299.89131000000003,550.7793,0.0,0.0,0.0,0.0,0.025076492912893187,0.0,-0.051583798600424544,-0.05739350616254804,-0.058445849477906237,0.05003675416224315,0.2279413200485568,0.01019090676226419
2517,5.0,297.89662000000004,641.84412,0.0,0.0,0.0,0.0,0.02508645972247701,0.0,-0.06917612244065174,-0.04386376502851655,-0.08206469714990501,0.07369807525193373,0.18418596872773982,0.031000463816507572
2518,5.0,299.56919,822.1943,0.0,0.0,0.0,0.0,0.02509642653206083,0.0,-0.06529370269498674,-0.07289254750193433,-0.11174028883790789,0.06647392931871604,0.19724987319454682,-0.025713672339491876
2519,5.0,299.63029,718.32489,0.0,0.0,0.0,0.0,0.02510639334164465,0.0,-0.07165737029878184,-0.055836080977092147,-0.09085937871162252,0.06342562820112214,0.1976308653646478,0.03985236867762257
2520,5.0,300.2934,327.60642,0.0,0.0,0.0,0.0,0.025116360151228468,0.0,-0.017302211084845285,-0.03672772524449426,-0.04555423603160305,0.08396076166453202,0.2266566405117688,-0.005472708988839324
2521,5.0,300.63161,375.54267999999996,0.0,0.0,0.0,0.0,0.02512632696081229,0.0,-0.027095565117374078,-0.03745049781907636,-0.049609533469579754,0.07031077814113354,0.20445090993273382,0.021635266719734578
2522,5.0,300.63626,923.5554900000001,0.0,0.0,0.0,0.0,0.025136293770396112,0.0,-0.07342625875360753,-0.0995749852222859,-0.1077365627902709,0.07380741608347484,0.2360810823418888,-0.025117530696157277
2523,5.0,299.84165,951.22299,0.0,0.0,0.0,0.0,0.025146260579979932,0.0,-0.09363790604309181,-0.07909869524518343,-0.11641143259391389,0.06143298980621403,0.23823215150918275,0.002705101352372717
2524,5.0,301.61557999999997,477.50852000000003,0.0,0.0,0.0,0.0,0.025156227389563756,0.0,-0.054807735477102354,-0.051201652338459656,-0.039141279889943564,0.044333842147409555,0.2676275501602827,-0.019767624883662682
2525,5.0,299.81474,453.07974,0.0,0.0,0.0,0.0,0.025166194199147573,0.0,-0.04768783980692336,-0.05284905413279555,-0.03718803159267296,0.053862573757322146,0.23769331523850376,0.002730197024224467
2526,5.0,298.87686,675.36398,0.0,0.0,0.0,0.0,0.025176161008731393,0.0,-0.1078023227217609,-0.06410950919711593,-0.03338195821554277,0.04822368091030675,0.21092092725377481,0.006920070895432824
2527,5.0,298.77794,701.70405,0.0,0.0,0.0,0.0,0.025186127818315217,0.0,-0.09223578271371301,-0.06034041843538565,-0.060724307487522534,0.07156224333964353,0.20977882213855778,-0.016452035482439484
2528,5.0,299.70588,485.47683,0.0,0.0,0.0,0.0,0.025196094627899037,0.0,-0.02021218127228698,-0.06298710166384294,-0.06437355102742484,0.046693250734015056,0.21210321786795777,0.0031662730161368174
2529,5.0,298.99336,264.63162,0.0,0.0,0.0,0.0,0.02520606143748286,0.0,0.0044634585922840656,-0.029239081518422673,-0.055665780993034854,0.06536439918096394,0.2094378026849018,-0.023963636416026775
2530,5.0,300.25368,369.02744,0.0,0.0,0.0,0.0,0.02521602824706668,0.0,0.017117094344575683,-0.06989778753287453,-0.05939443395652424,0.07506623342471043,0.19886350437629982,-0.028737673693187575
2531,5.0,300.14139,660.86267,0.0,0.0,0.0,0.0,0.025225995056650498,0.0,-0.06522342974755134,-0.05954015553290584,-0.07612216364542264,0.07774674502100633,0.22111977587032278,-0.01203034478180259
2532,5.0,300.94768,1014.3967,0.0,0.0,0.0,0.0,0.02523596186623432,0.0,-0.1141918981173629,-0.09410656461184481,-0.1000527985056924,0.04378079200432775,0.23413630076245376,0.01085913304421299
2533,5.0,301.11065,725.00091,0.0,0.0,0.0,0.0,0.025245928675818142,0.0,-0.10011818353464541,-0.06131843276315815,-0.058945555042973344,0.02882093448040477,0.2397249830140138,0.023132966891296076
2534,5.0,300.46783,440.7786,0.0,0.0,0.0,0.0,0.025255895485401966,0.0,-0.034567210559768066,-0.05118370058643795,-0.04823477701215186,0.013657861542925986,0.24264943558513477,-0.003996757217424225
2535,5.0,299.18131,721.5332,0.0,0.0,0.0,0.0,0.025265862294985786,0.0,-0.07817067265084472,-0.05690637401797185,-0.08425103147367942,0.06946655740956544,0.2326489002781588,0.021780756261843278
2536,5.0,300.96836,903.90069,0.0,0.0,0.0,0.0,0.025275829104569603,0.0,-0.08664379220057652,-0.06777233738110894,-0.12034710876483488,0.04385383720403676,0.25555392541370875,-0.0011031991484772789
2537,5.0,299.66794,552.84659,0.0,0.0,0.0,0.0,0.025285795914153426,0.0,-0.06489991824237323,-0.061432482167913936,-0.04171915837036036,0.042246288562634064,0.20893361956764278,0.024233974582457078
2538,5.0,299.43612,454.16270999999995,0.0,0.0,0.0,0.0,0.025295762723737247,0.0,-0.05130276355268855,-0.05287153004651375,-0.03387982979792887,0.044209225557360864,0.19485981885866682,-0.02024175905595608
2539,5.0,300.31719,524.08582,0.0,0.0,0.0,0.0,0.02530572953332107,0.0,-0.08316410897215852,-0.03613966528395726,-0.04000522860095866,0.09096428961372642,0.21721725324267382,0.014924545757937986
2540,5.0,300.26302999999996,518.09243,0.0,0.0,0.0,0.0,0.02531569634290489,0.0,-0.02092255774514568,-0.06585296304793144,-0.07071164318544583,0.07681092546714813,0.2294474352621988,-0.03090582828366777
2541,5.0,300.93715,755.17593,0.0,0.0,0.0,0.0,0.025325663152488707,0.0,-0.03931526202486426,-0.07147598434538043,-0.11876337859353289,0.07251570256449263,0.2221516495071608,-0.01027318267038419
2542,5.0,301.1783,810.7402400000001,0.0,0.0,0.0,0.0,0.02533562996207253,0.0,-0.04542291273914245,-0.08096065072169412,-0.12006123038162089,0.017732796781090784,0.20552562378379982,-0.01097066553572039
2543,5.0,300.82655,413.27207999999996,0.0,0.0,0.0,0.0,0.02534559677165635,0.0,-0.04402122206755636,-0.04904760928212216,-0.03255556055323367,0.08714804117909201,0.20307907062234382,-0.01204508757075759
2544,5.0,300.73764,424.67636,0.0,0.0,0.0,0.0,0.02535556358124017,0.0,-0.05997978043329344,-0.02695348516185187,-0.04215774570264556,0.06975776650155553,0.23468863352446478,0.009302314998217012
2545,5.0,301.09254,868.4490699999999,0.0,0.0,0.0,0.0,0.025365530390823995,0.0,-0.11235685152375789,-0.08888959923897041,-0.06274038438374384,0.07454251585877351,0.24874437811665875,0.0023061826601775076
2546,5.0,300.1638,632.1193,0.0,0.0,0.0,0.0,0.025375497200407812,0.0,-0.07631901686160053,-0.05981188489172345,-0.05601758142775485,0.03100298275625617,0.2283044283543928,-0.016100061781952384
2547,5.0,300.08097999999995,292.84252000000004,0.0,0.0,0.0,0.0,0.025385464009991632,0.0,-0.016465923088310085,-0.041237068158281764,-0.031313823568933766,0.05047174546992345,0.23568241909004375,-0.01928018471105608
2548,5.0,300.16707,536.50894,0.0,0.0,0.0,0.0,0.025395430819575453,0.0,-0.037694283766636166,-0.05137219043629045,-0.07401884692884143,0.08404865705770662,0.22103204867666476,-0.013857774774405886
2549,5.0,300.15033,760.6784700000001,0.0,0.0,0.0,0.0,0.025405397629159276,0.0,-0.07644957818998593,-0.059954550505803436,-0.0948231320428145,0.048589084227619254,0.1970275255926028,0.002182050201026588
2550,5.0,299.87706000000003,704.0282,0.0,0.0,0.0,0.0,0.0254153644387431,0.0,-0.0876393620995816,-0.06483860749207233,-0.061529022610941744,0.05852288283000885,0.18448437088218983,-0.01981528918161678
2551,5.0,300.79572,743.39442,0.0,0.0,0.0,0.0,0.025425331248326914,0.0,-0.08798995676668261,-0.05961195342174174,-0.07837143093290802,0.04195226668836636,0.21677970145199077,0.02059360610018068
2552,5.0,300.44093,475.02465,0.0,0.0,0.0,0.0,0.025435298057910737,0.0,-0.040960444801481165,-0.027321996117221074,-0.07611319030253702,0.09031793230868591,0.2420058393866168,0.024360677454461677
2553,5.0,299.57253,372.40146,0.0,0.0,0.0,0.0,0.025445264867494558,0.0,-0.025663660341056074,-0.048514751187033155,-0.03902233243420436,0.06374067298846464,0.2357849701326648,-0.0027635130928125072
2554,5.0,299.98012,805.73925,0.0,0.0,0.0,0.0,0.02545523167707838,0.0,-0.06841874433540433,-0.07167888362490503,-0.1048269847306179,0.061356120600627645,0.2246512665763538,-0.0006015372406471036
2555,5.0,299.9053,986.10326,0.0,0.0,0.0,0.0,0.025465198486662198,0.0,-0.11837166623737388,-0.10123199161431971,-0.08014710715015362,0.04177641916001156,0.2267808244440248,0.008714171343221753
2556,5.0,301.00982999999997,483.1452,0.0,0.0,0.0,0.0,0.02547516529624602,0.0,-0.05723904834380425,-0.06123366425979214,-0.028391363047509374,0.07756863085217783,0.2081877155065278,0.0027223968223046477
2557,5.0,300.87608,332.96742,0.0,0.0,0.0,0.0,0.025485132105829842,0.0,-0.03893570563015496,-0.03143325130522037,-0.030844824548147177,0.06582013374469144,0.2220908038386558,-0.013227234303426386
2558,5.0,300.39072000000004,774.2667,0.0,0.0,0.0,0.0,0.025495098915413662,0.0,-0.03675329866376817,-0.10235859602950691,-0.09624584461422532,0.06503627333483045,0.1975075730924798,-0.03146041654040137
2559,5.0,299.9559,874.4598800000001,0.0,0.0,0.0,0.0,0.025505065724997486,0.0,-0.06574937342395794,-0.1035320308378159,-0.0965325670347726,0.05097120481521625,0.23154810536951878,-0.04027101119493936
2560,5.0,300.53145,660.5059200000001,0.0,0.0,0.0,0.0,0.025515032534581303,0.0,-0.027177361758196773,-0.06986438574332803,-0.10373556238540291,0.05106094736332315,0.25772998132846875,-0.004096437925161947
2561,5.0,300.4873,377.42516,0.0,0.0,0.0,0.0,0.025524999344165123,0.0,-0.03967669542828496,-0.04187121275986696,-0.03317991817210297,0.08186291852499102,0.24260790246353575,-0.01950478071497198
2562,5.0,299.56651,381.82691,0.0,0.0,0.0,0.0,0.025534966153748947,0.0,-0.05262726989790715,-0.022549844498496376,-0.04088872999915346,0.07091990458449964,0.22628147452974276,0.024100734220807277
2563,5.0,298.76146,691.50117,0.0,0.0,0.0,0.0,0.025544932963332767,0.0,-0.08037596893699052,-0.07909461488703072,-0.05072850405851355,0.06603286357668624,0.2154387865346528,-0.008621630097013642
2564,5.0,298.20341,949.88105,0.0,0.0,0.0,0.0,0.02555489977291659,0.0,-0.07707112910607823,-0.07915600973708992,-0.13251297980051288,0.057568993987117345,0.22004001603375878,0.03411075253546917
2565,5.0,298.64041000000003,650.65126,0.0,0.0,0.0,0.0,0.02556486658250041,0.0,-0.07244109594637953,-0.05582757980875315,-0.06951305950965485,0.053749654126427855,0.24545995831501177,-0.01144348552263409
2566,5.0,299.14675,435.26724,0.0,0.0,0.0,0.0,0.025574833392084228,0.0,-0.03409044295046477,-0.04471318170659745,-0.05350674869320495,0.05842656732850324,0.19467327951525681,0.0021848344096513676
2567,5.0,299.39085,634.72715,0.0,0.0,0.0,0.0,0.02558480020166805,0.0,-0.08194574158816502,-0.05114201851707425,-0.059853443344574944,0.05218198396921085,0.2226973860110208,-0.003057563946033067
2568,5.0,298.92692,840.5263699999999,0.0,0.0,0.0,0.0,0.025594767011251872,0.0,-0.10977391489884189,-0.048836428709530255,-0.09688868290166851,0.039573459428596365,0.20792328762793078,0.031108214858641764
2569,5.0,300.45422,663.29114,0.0,0.0,0.0,0.0,0.025604733820835696,0.0,-0.08500657762274602,-0.05162603289109275,-0.06499133569289543,0.05391012963751555,0.22184932607482377,-0.006440616349514344
2570,5.0,300.07631000000003,392.39921,0.0,0.0,0.0,0.0,0.025614700630419516,0.0,-0.008302490158066982,-0.03367025016049497,-0.07730682019858913,0.061017647444472946,0.2066819144004168,-0.000933155060732734
2571,5.0,300.38159,572.55033,0.0,0.0,0.0,0.0,0.025624667440003333,0.0,-0.05699215678468794,-0.06615497439923763,-0.05089387458083436,0.07592231627519923,0.24956838349548177,-0.008676367083315761
2572,5.0,299.62428,735.31757,0.0,0.0,0.0,0.0,0.025634634249587153,0.0,-0.04807017250690666,-0.07256082259144564,-0.1028871883416749,0.060619457380424645,0.23643545643186276,-0.0016450395030527588
2573,5.0,298.88739,783.2379,0.0,0.0,0.0,0.0,0.025644601059170977,0.0,-0.11188081649427689,-0.07342613716359553,-0.05277781353151465,0.03735601731350186,0.25123095465706474,-0.0006098225563173004
2574,5.0,300.39585,669.42777,0.0,0.0,0.0,0.0,0.025654567868754797,0.0,-0.06790609855331013,-0.07101699015608122,-0.06456623674594145,0.04985316844287465,0.2047683206590598,0.011558213804956887
2575,5.0,300.42787000000004,224.95096,0.0,0.0,0.0,0.0,0.025664534678338614,0.0,-0.02373082903330048,-0.018556005745335183,-0.026092640035893077,0.06831585182749964,0.2185602047927128,-0.011377838061905189
2576,5.0,300.12982999999997,435.36667,0.0,0.0,0.0,0.0,0.025674501487922434,0.0,-0.02038560409315248,-0.054753365489986446,-0.057201626991111046,0.08329960888153133,0.2220083658105198,0.0027279617945038673
2577,5.0,301.1563,959.43438,0.0,0.0,0.0,0.0,0.025684468297506258,0.0,-0.07959468319563362,-0.08125650759189293,-0.13079290669575486,0.05829915416817854,0.24439249933466176,-0.02371340721108108
2578,5.0,299.9369,739.56692,0.0,0.0,0.0,0.0,0.025694435107090078,0.0,-0.05213684165075565,-0.07810267951613432,-0.09457035451386732,0.04084019531936346,0.2196642724991758,-0.0035295132471358367
2579,5.0,299.72708,158.22669,0.0,0.0,0.0,0.0,0.0257044019166739,0.0,-0.0024873583641831574,-0.03235854015078927,-0.013251062906028089,0.03675132991882386,0.2350348914811378,-0.028140751847275974
2580,5.0,299.57196,470.37944000000005,0.0,0.0,0.0,0.0,0.02571436872625772,0.0,-0.06470021981991453,-0.026704327975511973,-0.05157905861645675,0.05527891197235384,0.2174085548615538,0.03147290687438407
2581,5.0,298.79708,833.31923,0.0,0.0,0.0,0.0,0.02572433553584154,0.0,-0.08468832488558692,-0.08376254765346983,-0.08485736438651982,0.057630307777168543,0.2413511278345018,0.0021970465051566078
2582,5.0,299.32451000000003,768.35791,0.0,0.0,0.0,0.0,0.025734302345425362,0.0,-0.09168594963969873,-0.04323315768303046,-0.0986425114202579,0.04365645709780686,0.1922200591681428,0.03851811993269246
2583,5.0,300.31945,699.60218,0.0,0.0,0.0,0.0,0.025744269155009183,0.0,-0.041778127499680164,-0.07158149711804374,-0.09930196802259121,0.03348626319408687,0.24505665437770877,-0.01167098955433699
2584,5.0,300.32063,541.56947,0.0,0.0,0.0,0.0,0.025754235964593006,0.0,-0.08321430639536262,-0.025307990304204178,-0.05610129919076715,0.07542091452946473,0.2203309606674728,0.024570409079410577
2585,5.0,300.86854,663.78435,0.0,0.0,0.0,0.0,0.025764202774176823,0.0,-0.09788921367316321,-0.06892940414730253,-0.034955248871064465,0.06169744200281344,0.24569404948561474,-0.015646700249959088
2586,5.0,300.58216,941.2708,0.0,0.0,0.0,0.0,0.025774169583760644,0.0,-0.13771253348366888,-0.07756897941021224,-0.07084130677424264,0.047827190066676156,0.20456506268899982,-0.0031393593709556473
2587,5.0,300.43596,775.12535,0.0,0.0,0.0,0.0,0.025784136393344467,0.0,-0.1018562367624279,-0.05225641934805704,-0.08150609034327483,0.05093640879353216,0.24141315900562374,0.004248538113573066
2588,5.0,300.38219,254.9437,0.0,0.0,0.0,0.0,0.025794103202928288,0.0,-0.00036508573433365667,-0.015647914123578882,-0.06148351754895074,0.07089199663699533,0.23935110385961475,-0.007090004386928952
2589,5.0,300.16117,292.67207,0.0,0.0,0.0,0.0,0.02580407001251211,0.0,0.029940941624190868,-0.07124142100023084,-0.047664522895622154,0.05813992090171344,0.22834011502291476,-0.03521953692114767
2590,5.0,300.07504,703.58476,0.0,0.0,0.0,0.0,0.025814036822095928,0.0,-0.056345419510859945,-0.07775124385145032,-0.07977553617948242,0.06181836225649734,0.2014486296214318,-0.02317612222630518
2591,5.0,299.92575,845.38059,0.0,0.0,0.0,0.0,0.02582400363167975,0.0,-0.08163785541277901,-0.1045719395479469,-0.07076479625919163,0.036590919255742566,0.22362422614249278,-0.004816632892814655
2592,5.0,300.18776,579.2141799999999,0.0,0.0,0.0,0.0,0.025833970441263572,0.0,-0.07370818850118184,-0.07069263765332012,-0.03166581956092307,0.08144704218044721,0.2271080535638198,-0.004503516624387486
2593,5.0,300.08261,641.9851,0.0,0.0,0.0,0.0,0.025843937250847392,0.0,-0.06767667035966733,-0.05340290170370605,-0.07406786898192952,0.08186775983396882,0.24713135488496576,0.014701889114713486
2594,5.0,300.92437,837.72009,0.0,0.0,0.0,0.0,0.025853904060431216,0.0,-0.03756481978810906,-0.10642247873558089,-0.11065869501866289,0.08385567141716042,0.22779539176915478,-0.013514002320228187
2595,5.0,301.54816,709.7953,0.0,0.0,0.0,0.0,0.025863870870015033,0.0,-0.034570066911799965,-0.06502284574450523,-0.11616713799480388,0.06054020197085274,0.23628715714722676,-0.007635879604727643
2596,5.0,301.19087,862.0573400000001,0.0,0.0,0.0,0.0,0.025873837679598853,0.0,-0.07467330922143184,-0.09111712623231022,-0.0962534723609781,0.02944515936351097,0.23941808982372578,0.006398144553022704
2597,5.0,300.26403999999997,623.11986,0.0,0.0,0.0,0.0,0.025883804489182677,0.0,-0.09495325767365691,-0.05793639138062665,-0.036523228069561965,0.03929788985189976,0.24379879557106776,-0.024610133549581078
2598,5.0,300.67372,315.91992999999997,0.0,0.0,0.0,0.0,0.025893771298766497,0.0,-0.060543913505969035,-0.018839495898063482,-0.016648359782065185,0.06327851340585304,0.2007248549425008,0.017539082613722685
2599,5.0,300.05515,571.7103,0.0,0.0,0.0,0.0,0.025903738108350317,0.0,-0.07825610381977613,-0.035115862184165764,-0.06041369060311704,0.08819593733976132,0.26377649050521274,0.0005202365249533475
2600,5.0,300.89364,975.50424,0.0,0.0,0.0,0.0,0.02591370491793414,0.0,-0.07889161225599593,-0.05852708173842325,-0.15911023763795787,0.07509661572895893,0.23429624229073875,0.04705245802696605
2601,5.0,300.75858,769.64144,0.0,0.0,0.0,0.0,0.025923671727517958,0.0,-0.05491271528021304,-0.06844116654686723,-0.1105979000126629,0.05300097679978916,0.2170848113221028,-0.018293032893881785
2602,5.0,300.23337000000004,501.36918,0.0,0.0,0.0,0.0,0.025933638537101778,0.0,-0.049840814897655454,-0.049893517075106746,-0.05266937955881305,0.050712413646925546,0.19532405965698382,0.015675605235561788
2603,5.0,299.99755,626.13175,0.0,0.0,0.0,0.0,0.0259436053466856,0.0,-0.09035757065259792,-0.046712274504642555,-0.05325857131971175,0.06173471035474153,0.2304813961942428,-0.008202402022464052
2604,5.0,299.6313,679.34158,0.0,0.0,0.0,0.0,0.025953572156269422,0.0,-0.11109751337197091,-0.037348444282254464,-0.05805691545352145,0.06124361741552444,0.24254607394243374,0.01998505619612148
2605,5.0,299.56088,532.18918,0.0,0.0,0.0,0.0,0.02596353896585324,0.0,-0.038714523265825966,-0.08064821404010901,-0.04240948566349036,0.02814747780143977,0.23922105320927975,-0.028470366157806373
2606,5.0,299.6785,451.21038,0.0,0.0,0.0,0.0,0.02597350577543706,0.0,0.0096477977172385,-0.07128693923447313,-0.07551754616500153,0.055290710256518244,0.2150154607753738,-0.02292473487649518
2607,5.0,300.21271,269.36919,0.0,0.0,0.0,0.0,0.025983472585020883,0.0,0.006143681178559124,-0.04425131900626516,-0.04377386846639446,0.08934066879923751,0.2177749157002108,-0.045977058205582365
2608,5.0,300.03715,392.35593,0.0,0.0,0.0,0.0,0.025993439394604703,0.0,-0.014984765237881184,-0.06741217459331364,-0.03686946576123296,0.09619227104168801,0.22389513882172976,-0.02476262363663068
2609,5.0,300.4553,878.5863800000001,0.0,0.0,0.0,0.0,0.026003406204188527,0.0,-0.1061402379202259,-0.07997693179585863,-0.08095114947550643,0.07380958646518902,0.2167221184488078,-0.012043858498386288
2610,5.0,300.97652999999997,819.71282,0.0,0.0,0.0,0.0,0.026013373013772344,0.0,-0.1089622509062369,-0.07836559765208233,-0.061844380492565146,0.049293604114899955,0.22915298478313878,0.009047410859959932
2611,5.0,301.44793,366.41254,0.0,0.0,0.0,0.0,0.026023339823356164,0.0,-0.01336133491441109,-0.04560284569190046,-0.052416082232564554,0.06385394928339415,0.27843801680219277,0.004102340816269517
2612,5.0,300.48983,670.39116,0.0,0.0,0.0,0.0,0.026033306632939988,0.0,-0.04075188550689796,-0.05701223433541945,-0.10601805009066691,0.037192106884575166,0.24355486574199375,0.01233813976467959
2613,5.0,299.5248,1087.6783,0.0,0.0,0.0,0.0,0.026043273442523808,0.0,-0.11147771520699389,-0.09258946880686911,-0.12655987201798688,0.04304566081827596,0.22942726145270775,-0.003615328741830167
2614,5.0,299.51162999999997,963.3850800000001,0.0,0.0,0.0,0.0,0.02605324025210763,0.0,-0.1084322501764299,-0.09213976105473641,-0.09227299837663591,0.008035698569636701,0.2077336477392148,-0.007172960084541043
2615,5.0,299.3054,500.05167,0.0,0.0,0.0,0.0,0.02606320706169145,0.0,-0.06347602118159554,-0.02754490911272087,-0.06098229008223344,0.08323239594939792,0.22669540746059477,0.013727643064062886
2616,5.0,299.82686,474.89793,0.0,0.0,0.0,0.0,0.02607317387127527,0.0,-0.08986110647460072,-0.026254505726117976,-0.028241500317969077,0.09245535603688322,0.22740809718343177,0.038722493491112564
2617,5.0,300.05955,548.80466,0.0,0.0,0.0,0.0,0.026083140680859093,0.0,-0.03661945541830886,-0.04195805741268786,-0.08824540116989302,0.07187903193040812,0.2286989778108318,0.015066423063440184
2618,5.0,299.79513,725.0989599999999,0.0,0.0,0.0,0.0,0.026093107490442913,0.0,-0.06272667510989084,-0.08214475708005632,-0.07554054592902143,0.051972173310754155,0.23552613539461978,-0.008517561611042883
2619,5.0,299.36589,838.7720099999999,0.0,0.0,0.0,0.0,0.026103074300026737,0.0,-0.05687708399733115,-0.08269285850964972,-0.11539580135617888,0.039920760019622255,0.22703232325134576,-0.0005443652522346675
2620,5.0,300.1449,460.62976,0.0,0.0,0.0,0.0,0.026113041109610553,0.0,-0.06350784027448585,-0.027237310700363275,-0.049274793126793455,0.06152129252592885,0.21223306586827279,-0.015992961246382383
2621,5.0,300.31822,506.29697000000004,0.0,0.0,0.0,0.0,0.026123007919194374,0.0,-0.04261167769444516,-0.06531277510161904,-0.04597718182209456,0.06470379152651703,0.2080686484872768,-0.012144081092277489
2622,5.0,300.24392,771.25548,0.0,0.0,0.0,0.0,0.026132974728778197,0.0,-0.09178726958344822,-0.04758057816458745,-0.09507456093587861,0.06690545835080464,0.2462751180204618,-0.0006391573727449214
2623,5.0,299.97985,738.23284,0.0,0.0,0.0,0.0,0.026142941538362018,0.0,-0.05526633956511304,-0.08315342627635422,-0.08598458384451772,0.05382616464147885,0.24753910699020773,0.006437682078549754
2624,5.0,300.14299,468.61798,0.0,0.0,0.0,0.0,0.02615290834794584,0.0,-0.031397424808184575,-0.07202015132483552,-0.03903058839601917,0.06490925838179504,0.25546795114272375,-0.03278323683745357
2625,5.0,301.33291,551.28412,0.0,0.0,0.0,0.0,0.026162875157529658,0.0,-0.060102334046138545,-0.054115245908258953,-0.05335902594787586,0.07273051158569263,0.27957458957186376,-0.018745158260753084
2626,5.0,301.63698,585.09747,0.0,0.0,0.0,0.0,0.02617284196711348,0.0,-0.051352687398365654,-0.09054962714280242,-0.03595270746825597,0.05219101202760185,0.26886195222710874,-0.05180605906285995
2627,5.0,301.14187000000004,555.19075,0.0,0.0,0.0,0.0,0.0261828087766973,0.0,-0.06465894001084053,-0.06859242553504534,-0.035512757314586266,0.06359959108429093,0.22124929963060577,0.00014662029882279686
2628,5.0,300.05029,667.6884299999999,0.0,0.0,0.0,0.0,0.02619277558628112,0.0,-0.06224705114855564,-0.05178866155864295,-0.08892489681945401,0.015544122862835484,0.1926711175826588,-0.0037298618721837064
2629,5.0,299.56203999999997,708.94805,0.0,0.0,0.0,0.0,0.026202742395864943,0.0,-0.029453655465599474,-0.08020172335704383,-0.10584712493129789,0.07212744336467443,0.20032548241558581,0.024415581424380273
2630,5.0,300.59354,567.28773,0.0,0.0,0.0,0.0,0.02621270920544876,0.0,-0.05092587909849296,-0.05938898165773615,-0.06212644398915264,0.07815615075041152,0.23325493529546978,-0.005062285855008715
2631,5.0,299.85449,781.11745,0.0,0.0,0.0,0.0,0.02622267601503258,0.0,-0.06385645403764134,-0.07190408352588053,-0.1016796678000019,0.07408567178618652,0.2335704816416118,0.028610126783849676
2632,5.0,299.77402,1122.1876,0.0,0.0,0.0,0.0,0.026232642824616403,0.0,-0.14708053728321885,-0.09401611582841822,-0.10002035018449,0.04285722061767836,0.23212183797364178,0.00975817662350705
2633,5.0,299.78418999999997,880.7292,0.0,0.0,0.0,0.0,0.026242609634200224,0.0,-0.11460929636355689,-0.05229245862761386,-0.1008179269609547,0.05670923506526574,0.24287331319472977,0.029445342761779073
2634,5.0,299.70276,595.29675,0.0,0.0,0.0,0.0,0.026252576443784047,0.0,-0.04896268879124115,-0.06979323532130603,-0.062199424340855236,0.08362168866431813,0.2878883167748647,0.013074555751858188
2635,5.0,300.07169,561.74009,0.0,0.0,0.0,0.0,0.026262543253367864,0.0,-0.025960850648386474,-0.05606084822027495,-0.08873326082804102,0.05142158435216525,0.23720260834757478,0.019631188731197482
2636,5.0,300.6162,524.41222,0.0,0.0,0.0,0.0,0.026272510062951684,0.0,-0.05922904519570164,-0.05373632076836195,-0.04644285434280286,0.028390479493422174,0.22601060238050977,0.00997376554330902
2637,5.0,300.59817000000004,556.03552,0.0,0.0,0.0,0.0,0.026282476872535508,0.0,-0.04365139996655776,-0.0989563271352291,-0.026413186771278577,0.027109356464485174,0.20742095875835478,-0.04004307349219366
2638,5.0,301.26691,513.53664,0.0,0.0,0.0,0.0,0.02629244368211933,0.0,-0.07161747256284423,-0.06405895814962695,-0.02042588382437778,0.05422746335683395,0.23938994173594777,-0.01240328667985909
2639,5.0,299.87989,263.7455,0.0,0.0,0.0,0.0,0.026302410491703152,0.0,-0.02190666373251938,-0.03378388514595987,-0.024481498409635774,0.06463383167336254,0.21642062588155278,-0.02946311719503327
2640,5.0,299.12684,377.27207000000004,0.0,0.0,0.0,0.0,0.02631237730128697,0.0,0.015764363917821586,-0.06586005883838174,-0.06458559387585185,0.05855251228943304,0.2256576367081748,-0.025102626800436376
2641,5.0,300.12054,795.9399,0.0,0.0,0.0,0.0,0.02632234411087079,0.0,-0.05411444949368035,-0.055618963772164354,-0.13221243968835186,0.08979770741584372,0.2174126078619538,-0.010694096894425189
2642,5.0,300.21606,714.0475299999999,0.0,0.0,0.0,0.0,0.026332310920454613,0.0,-0.08255234605203221,-0.06443272685976503,-0.07006754644137843,0.08510979842368312,0.22463293688204478,-0.024820133685806475
2643,5.0,299.23035,262.12201,0.0,0.0,0.0,0.0,0.026342277730038433,0.0,-0.02209474321608138,-0.02587589064075158,-0.03170791199657727,0.07670456561740123,0.2099014152681568,-0.007848804284716673
2644,5.0,299.86041,482.64004000000006,0.0,0.0,0.0,0.0,0.026352244539622257,0.0,-0.08383993665635751,-0.053234749809860746,-0.009635835489207921,0.04957597462626775,0.20090634830041282,-0.015657164083741786
2645,5.0,298.56501000000003,746.06031,0.0,0.0,0.0,0.0,0.026362211349206074,0.0,-0.0937754831151696,-0.06342923131847775,-0.06957899068041173,0.054039002891234346,0.24134630476402577,0.01031052296306939
2646,5.0,299.68155,586.52575,0.0,0.0,0.0,0.0,0.026372178158789894,0.0,-0.04399368699608886,-0.07774526668911043,-0.05655022978007315,0.046772184943305255,0.3007242703666747,-0.015363383362997885
2647,5.0,299.61715,447.50027,0.0,0.0,0.0,0.0,0.026382144968373718,0.0,-0.029217350343527973,-0.03586009336936567,-0.07095146529861443,0.07344898291360023,0.24186827042053977,0.03420738011800557
2648,5.0,298.71166,602.98453,0.0,0.0,0.0,0.0,0.026392111777957538,0.0,-0.05830490638899624,-0.05710052084313265,-0.06788681133765664,0.04333703810978266,0.23815163865623679,0.012692146044867288
2649,5.0,299.58276,747.01796,0.0,0.0,0.0,0.0,0.026402078587541362,0.0,-0.0988670638544195,-0.05366845125016375,-0.07453929169695532,0.05345306670290695,0.2013492196541208,0.015288743307631485
2650,5.0,301.00755,878.34473,0.0,0.0,0.0,0.0,0.026412045397125175,0.0,-0.13723335737887787,-0.05566561988626895,-0.07409588534719452,0.06678210325713044,0.22391721754140878,0.0027479885814053573
2651,5.0,300.75304,857.66219,0.0,0.0,0.0,0.0,0.026422012206709,0.0,-0.11254087800691989,-0.03108879389397507,-0.11707822208722088,0.04219762722658156,0.19747313272158082,0.02120150549767568
2652,5.0,300.46931,555.18777,0.0,0.0,0.0,0.0,0.026431979016292823,0.0,-0.019274116356207183,-0.06025433777314015,-0.08923476491203561,0.06462106573535263,0.2125370003682688,0.02354982811493708
2653,5.0,300.23397,486.22500999999994,0.0,0.0,0.0,0.0,0.026441945825876643,0.0,-0.02056076362468938,-0.05158262424355865,-0.07565687312000202,0.07081210997261113,0.22451717305811977,-0.01049231016351039
2654,5.0,299.04798999999997,751.69333,0.0,0.0,0.0,0.0,0.02645191263546046,0.0,-0.07499750467042743,-0.06723643953571994,-0.08626205833140231,0.052328558702176654,0.25622851693278575,-0.019132125566693782
2655,5.0,298.86574,625.6159,0.0,0.0,0.0,0.0,0.02646187944504428,0.0,-0.07204927719896004,-0.07095735329494553,-0.04716498147707125,0.06588505875809904,0.21864249083333379,-0.004353643559696166
2656,5.0,299.37324,81.588388,0.0,0.0,0.0,0.0,0.0264718462546281,0.0,-0.01804539456944178,-0.046844424609184754,0.04008898689397496,0.04500655003455066,0.2173343140267268,-0.04527597627589095
2657,5.0,299.48834,419.93093,0.0,0.0,0.0,0.0,0.026481813064211924,0.0,-0.005539092170465835,-0.06397935114227034,-0.05813007211074145,0.08221112394835622,0.26358438841875376,-0.013320338815365087
2658,5.0,299.99048,816.78597,0.0,0.0,0.0,0.0,0.026491779873795744,0.0,-0.053793729492527746,-0.1003196693302805,-0.0941691398982705,0.06712525762874715,0.2795684695412597,-0.027374335551136574
2659,5.0,300.46329,604.8908700000001,0.0,0.0,0.0,0.0,0.026501746683379568,0.0,-0.025075037013463475,-0.05189591408172796,-0.10690077331278489,0.041441249199182864,0.23170077176208578,0.02827371356514827
2660,5.0,300.65095,585.29764,0.0,0.0,0.0,0.0,0.026511713492963385,0.0,-0.06704893760471493,-0.06160556554999594,-0.04926136350996805,0.012639146985136688,0.2147481957964968,-0.03229849900286367
2661,5.0,300.77827,848.33603,0.0,0.0,0.0,0.0,0.026521680302547205,0.0,-0.101128977516403,-0.08969200617866181,-0.06705198647426584,0.04332708495405036,0.2134907726873988,0.027742482749719872
2662,5.0,300.03129,752.24786,0.0,0.0,0.0,0.0,0.02653164711213103,0.0,-0.13868596285473886,-0.052712760848594456,-0.037265840081102064,0.07688908352686173,0.25865187679945273,-0.040596030416266256
2663,5.0,299.55711,784.056,0.0,0.0,0.0,0.0,0.02654161392171485,0.0,-0.08013552671476072,-0.04688049529949466,-0.1113174291736749,0.06626095630669723,0.2340644005353578,0.04146241700702196
2664,5.0,299.77862000000005,834.54785,0.0,0.0,0.0,0.0,0.026551580731298673,0.0,-0.08893232698243732,-0.06668078837963144,-0.0980685933913666,0.089513463405041,0.24666792468672877,0.0008630303619194651
2665,5.0,298.95095,535.0532900000001,0.0,0.0,0.0,0.0,0.02656154754088249,0.0,-0.024552016563595378,-0.04772153138599845,-0.09036929294300482,0.062284848417035944,0.23752634175452475,0.02884583712811247
2666,5.0,300.44682,641.82393,0.0,0.0,0.0,0.0,0.02657151435046631,0.0,-0.09107793371844222,-0.06077296578382474,-0.04324754786095066,0.08364227587984992,0.24824012407189278,-0.013511735679754487
2667,5.0,300.22108,913.49501,0.0,0.0,0.0,0.0,0.026581481160050133,0.0,-0.12467217694918588,-0.07247122088510263,-0.08053628030156201,0.02298696261813658,0.19564675954883182,0.011692109739421388
2668,5.0,299.83689,706.0725,0.0,0.0,0.0,0.0,0.026591447969633954,0.0,-0.07959650603256352,-0.07190964120267904,-0.06312226314768235,0.011889904264942188,0.2090315805873108,-0.006628033978111025
2669,5.0,301.21937,514.6624099999999,0.0,0.0,0.0,0.0,0.026601414779217777,0.0,0.01982390788696738,-0.092032919911192,-0.08423551050864762,0.012756359756704687,0.23895229875275575,-0.032188696129276974
2670,5.0,301.76286,630.23812,0.0,0.0,0.0,0.0,0.026611381588801594,0.0,-0.03087640350076377,-0.0898498816899929,-0.07085036725663683,0.05162274996076875,0.24861695178408277,-0.012992490599758988
2671,5.0,301.07572999999996,504.35194,0.0,0.0,0.0,0.0,0.026621348398385414,0.0,-0.028103910073639975,-0.04426207668257686,-0.08094441034909132,0.04954116644558245,0.23682168710498075,-0.01031509272102039
2672,5.0,301.48246,346.91494,0.0,0.0,0.0,0.0,0.026631315207969238,0.0,-0.05443786879309935,-0.050526153960543156,-0.0004894562464630705,0.06946641352805123,0.23239393615549575,-0.014374752200677587
2673,5.0,299.96825,453.3385,0.0,0.0,0.0,0.0,0.02664128201755306,0.0,-0.05314533758128645,-0.04771330480843655,-0.036944942761181966,0.0958070678041714,0.2455964127059788,-0.021349497767531377
2674,5.0,299.6361,654.7490799999999,0.0,0.0,0.0,0.0,0.026651248827136882,0.0,-0.08547794866201673,-0.06532463215428924,-0.04822478839266605,0.08252484340456792,0.24743694098262475,-0.011483608200093887
2675,5.0,299.47693,642.90455,0.0,0.0,0.0,0.0,0.0266612156367207,0.0,-0.029119341701105268,-0.07281591539687134,-0.09349167378865982,0.07352375874448001,0.21240347427009082,-0.011110000596721688
2676,5.0,299.65648999999996,679.14147,0.0,0.0,0.0,0.0,0.02667118244630452,0.0,-0.07194039030346372,-0.046949000125505555,-0.08755265828852461,0.05385779121685015,0.2030415905011448,-0.003843768510000416
2677,5.0,300.62054,823.63398,0.0,0.0,0.0,0.0,0.026681149255888343,0.0,-0.08999384527745101,-0.07928767246833401,-0.08108264704698423,0.037966042509706664,0.2358296645945758,0.02295568358754958
2678,5.0,300.77955,410.18764,0.0,0.0,0.0,0.0,0.026691116065472163,0.0,-0.061968035508268945,-0.034159689475548864,-0.028559077217311473,0.050911173799791654,0.24335404970467478,0.003916695868722786
2679,5.0,300.22476,328.49298999999996,0.0,0.0,0.0,0.0,0.02670108287505598,0.0,-0.05610673325105345,-0.015910652914259183,-0.027836279311476874,0.04276240877932116,0.2253707957373658,0.024092801485774376
2680,5.0,299.92517999999995,846.9410300000001,0.0,0.0,0.0,0.0,0.026711049684639804,0.0,-0.08224604763955291,-0.07109595374962434,-0.10410691854705291,0.06482947000267053,0.2293172731543528,0.007548538054057703
2681,5.0,298.43197000000004,628.5101599999999,0.0,0.0,0.0,0.0,0.026721016494223624,0.0,-0.024475022728246677,-0.06649450741499693,-0.100081864598061,0.09129918498377801,0.24219849876063076,0.004400617935657176
2682,5.0,298.84802,489.10169,0.0,0.0,0.0,0.0,0.026730983303807444,0.0,-0.038372368972057966,-0.054115304676764744,-0.05618702926847804,0.05737842190830934,0.2507200232941397,0.008408286134133231
2683,5.0,298.96654,602.8532700000001,0.0,0.0,0.0,0.0,0.026740950113391265,0.0,-0.08726749829963151,-0.04222114374815246,-0.053763699799314044,0.045565556061720254,0.2217651452565158,0.003923281791722766
2684,5.0,298.51347000000004,475.96612999999996,0.0,0.0,0.0,0.0,0.026750916922975085,0.0,-0.09278169045683991,-0.026864952434364375,-0.025035175754529473,0.042958211255145366,0.20495504238748782,-0.0017144842198564185
2685,5.0,299.21234,531.83564,0.0,0.0,0.0,0.0,0.026760883732558905,0.0,-0.06845485251596793,-0.06946268274118303,-0.023747221393418276,0.06143999035115494,0.26725917295392676,-0.049946232424809354
2686,5.0,300.515,906.54215,0.0,0.0,0.0,0.0,0.026770850542142725,0.0,-0.07877497197073442,-0.1011543462591567,-0.0956368590126231,0.05816853812428774,0.27399506710120775,-0.007985408636698473
2687,5.0,300.8717,700.01708,0.0,0.0,0.0,0.0,0.02678081735172655,0.0,-0.013305462277396886,-0.07787156730082533,-0.12161068230203988,0.04988665433217945,0.24045340851090377,-0.03276213083787057
2688,5.0,301.3048,329.31861000000004,0.0,0.0,0.0,0.0,0.02679078416131037,0.0,-0.019091704993704585,-0.04032078507960166,-0.04069214529425206,0.054833116378857245,0.2149040843243818,-0.0037727466694161063
2689,5.0,300.5156,560.24665,0.0,0.0,0.0,0.0,0.02680075097089419,0.0,-0.03061024397774587,-0.06711809901679064,-0.07257265025986294,0.06843530286853854,0.2376512552268528,-0.027312506016784473
2690,5.0,299.50327999999996,830.53058,0.0,0.0,0.0,0.0,0.02681071778047801,0.0,-0.1175756366938119,-0.07146191536774192,-0.06342300590986334,0.07031637229493563,0.22995655290744477,0.023894932992996276
2691,5.0,299.22296,587.80908,0.0,0.0,0.0,0.0,0.02682068459006183,0.0,-0.05861371766172354,-0.05815573570927424,-0.06190982834302435,0.017278782716033083,0.2142914631814208,-0.006031093488397584
2692,5.0,299.16787,408.04818,0.0,0.0,0.0,0.0,0.026830651399645654,0.0,-0.02497374240096648,-0.02422103537868008,-0.07484167997729872,0.04589133116762176,0.21408337200838382,0.012208804468915188
2693,5.0,299.47303,519.03295,0.0,0.0,0.0,0.0,0.026840618209229474,0.0,-0.02419919578602468,-0.054426480875225454,-0.07914737988598823,0.08070560756552332,0.25578106568862574,-0.00986170920149992
2694,5.0,299.83221000000003,507.35798,0.0,0.0,0.0,0.0,0.026850585018813298,0.0,-0.07287931952187884,-0.03272185718614587,-0.04862297946996445,0.1137091047097149,0.2732894295990667,0.013700003627835088
2695,5.0,299.9797,709.08955,0.0,0.0,0.0,0.0,0.026860551828397115,0.0,-0.1000519990513635,-0.06320523921162144,-0.052288278970951355,0.07565187779700902,0.2297386129434358,-9.418751721533421e-05
2696,5.0,301.36343,1061.8971,0.0,0.0,0.0,0.0,0.026870518637980935,0.0,-0.1912857716484358,-0.06788329130680923,-0.06362113075491674,0.07577761402841822,0.21582433833020379,0.015491684130410185
2697,5.0,300.69722,754.42806,0.0,0.0,0.0,0.0,0.02688048544756476,0.0,-0.08525397276716203,-0.06845645345112594,-0.07561686595305363,0.08409256523754001,0.26591735624399976,-0.01265070411577729
2698,5.0,300.42965,515.26258,0.0,0.0,0.0,0.0,0.02689045225714858,0.0,0.0022928928718659075,-0.07188824136056703,-0.08703161063660123,0.07226787780203422,0.25286196307803277,-0.0007438809249053313
2699,5.0,300.36756,818.2027,0.0,0.0,0.0,0.0,0.026900419066732403,0.0,-0.03319459003355097,-0.06179477886041984,-0.15372382037135984,0.027623021576179973,0.2138302621334038,0.019409992181367082
2700,5.0,300.10576000000003,940.5422699999999,0.0,0.0,0.0,0.0,0.02691038587631622,0.0,-0.10187872078214691,-0.07242172564421784,-0.11160091628665288,0.016225983438129886,0.2012772890295218,0.04507379437743716
2701,5.0,299.37405,275.59889,0.0,0.0,0.0,0.0,0.02692035268590004,0.0,-0.010063984217637911,-0.04727395753857636,-0.026437240315402476,0.049590187485420455,0.23940474531990874,-0.01021588135072899
2702,5.0,300.91056000000003,334.00917000000004,0.0,0.0,0.0,0.0,0.026930319495483863,0.0,-0.07878053268728323,-0.04329802899418275,0.02054811421044098,0.08661570288130432,0.23405070139400577,0.011611822841247689
2703,5.0,299.79776,736.3349400000001,0.0,0.0,0.0,0.0,0.026940286305067684,0.0,-0.050160850954990545,-0.09353640270107422,-0.08013018384698342,0.06583233834214594,0.21958732628658179,-0.03743044053334687
2704,5.0,299.03182999999996,779.28463,0.0,0.0,0.0,0.0,0.026950253114651507,0.0,-0.03508474324709457,-0.09549268973539472,-0.1063056307340489,0.07325905627510593,0.21059595768170283,-0.030899320178275468
2705,5.0,299.75943,658.2311900000001,0.0,0.0,0.0,0.0,0.026960219924235324,0.0,-0.01227432729988179,-0.08791058888634962,-0.09990093055420421,0.08746436063506031,0.26433662529299373,-0.05486978995297665
2706,5.0,299.25547,438.875,0.0,0.0,0.0,0.0,0.026970186733819144,0.0,-0.056108674638245044,-0.031060428970675673,-0.04623793869557925,0.08944062490835242,0.24912571479179377,0.01133719558714409
2707,5.0,299.50849,522.6234,0.0,0.0,0.0,0.0,0.026980153543402965,0.0,-0.06701585802870023,-0.052675774180194146,-0.039172832498057565,0.050897628672454856,0.2060283478209148,-0.012268635874070089
2708,5.0,299.77864,888.6308,0.0,0.0,0.0,0.0,0.02699012035298679,0.0,-0.13405805448049987,-0.05873867774355615,-0.07732483781186733,0.03456307751261017,0.2255161971267158,0.03295866386701687
2709,5.0,299.02535,993.02155,0.0,0.0,0.0,0.0,0.027000087162570605,0.0,-0.07673308455471584,-0.09689727627576661,-0.12822339563466387,0.03911527178637676,0.25857385654175274,-0.0027194906183678276
2710,5.0,299.74487,570.09957,0.0,0.0,0.0,0.0,0.027010053972154426,0.0,-0.01008242820655819,-0.05765220411182954,-0.1055613985355989,0.06107998765687544,0.24209330313524877,0.042750746270670166
2711,5.0,300.60413,225.19922000000003,0.0,0.0,0.0,0.0,0.027020020781738246,0.0,0.01130874453758619,-0.033009437829527866,-0.04675424535028475,0.05406885019943004,0.23142231036960378,0.013308795870225886
2712,5.0,300.48927000000003,717.89372,0.0,0.0,0.0,0.0,0.02702998759132207,0.0,-0.09364010175605851,-0.06151902791195534,-0.06306263540579753,0.04810300383664686,0.2168581067447288,0.03636246884844626
2713,5.0,301.07974,1053.6267,0.0,0.0,0.0,0.0,0.027039954400905886,0.0,-0.15380480945185288,-0.0942559916438421,-0.07221539955285503,0.07606159358094483,0.24309823445192774,-0.015938467642754285
2714,5.0,299.98048,647.4384299999999,0.0,0.0,0.0,0.0,0.02704992121048971,0.0,-0.1207274321898699,-0.053202932743470654,-0.022874752262312278,0.06667801815385803,0.22786964273648277,-0.010226265137753791
2715,5.0,298.98168,435.40200999999996,0.0,0.0,0.0,0.0,0.02705988802007353,0.0,-0.017174843520775085,-0.04330584317895396,-0.07187065336533123,0.09007197192641152,0.22896761067734375,-0.04731866213298836
2716,5.0,300.19333,712.73745,0.0,0.0,0.0,0.0,0.02706985482965735,0.0,-0.04739767436253625,-0.06943917432561293,-0.09981754007097422,0.07609355250234894,0.22037376035169678,-0.030128912689992172
2717,5.0,299.57623,650.55035,0.0,0.0,0.0,0.0,0.027079821639241174,0.0,-0.018539175661174183,-0.06849562671324202,-0.1107162577568439,0.06814168426781064,0.26897141363541177,-0.01843389188303348
2718,5.0,299.12887,560.98798,0.0,0.0,0.0,0.0,0.027089788448824995,0.0,-0.06409144497433314,-0.05000128027624215,-0.05643361279956395,0.05020973115306465,0.26299817257339875,0.022343373512369275
2719,5.0,300.38032999999996,433.40286,0.0,0.0,0.0,0.0,0.027099755258408815,0.0,-0.07148715948073334,-0.045081460627693755,-0.015175026248908485,0.03539389902485587,0.24807329244292778,0.021565415284340778
2720,5.0,300.74582000000004,400.75194,0.0,0.0,0.0,0.0,0.027109722067992635,0.0,-0.05992780576941395,-0.05160244848176515,-0.010288327719628891,0.03557456050443576,0.24469870351488174,0.016885132012432785
2721,5.0,301.20439,753.55934,0.0,0.0,0.0,0.0,0.027119688877576455,0.0,-0.018299095169230083,-0.1058387250879689,-0.1049254017128309,0.04773371369195075,0.27849409006272674,-0.035626269696789066
2722,5.0,301.15114,1082.7079,0.0,0.0,0.0,0.0,0.02712965568716028,0.0,-0.08959525599286332,-0.09231711427273982,-0.14720379915788384,0.06334765049992634,0.2742852923273507,0.012219964405516589
2723,5.0,299.91417,790.9615,0.0,0.0,0.0,0.0,0.0271396224967441,0.0,-0.054163383394009744,-0.07897948738416853,-0.1072896789661669,0.029906823466823673,0.23093736887174376,-0.011611973815512591
2724,5.0,299.64374,502.21914000000004,0.0,0.0,0.0,0.0,0.02714958930632792,0.0,-0.07866789879291712,-0.04079124926003286,-0.03320292908187397,0.06752875307031904,0.22476715199029082,-0.010666786764479888
2725,5.0,300.06658,707.36609,0.0,0.0,0.0,0.0,0.02715955611591174,0.0,-0.1004035036170543,-0.053087257072304356,-0.061530865712873646,0.08026209786425233,0.24102189247950875,-0.005026331283160276
2726,5.0,300.01135,816.37533,0.0,0.0,0.0,0.0,0.02716952292549556,0.0,-0.12702209644860488,-0.06013731143959054,-0.060998307539814244,0.08397400686983922,0.24681946637168478,0.013103758632990287
2727,5.0,300.02372,592.51634,0.0,0.0,0.0,0.0,0.027179489735079384,0.0,-0.025881028832008678,-0.050920310275943355,-0.1033088321057879,0.06885409230711984,0.2410250740848228,0.0028676660838416073
2728,5.0,299.50094,389.10185,0.0,0.0,0.0,0.0,0.027189456544663204,0.0,-0.03144400391528157,-0.04803678287636136,-0.038796459735162464,0.07057599128855803,0.23050638294170878,-0.006368305553477824
2729,5.0,297.85554,535.20555,0.0,0.0,0.0,0.0,0.027199423354247028,0.0,-0.01793700821949488,-0.06211834406785324,-0.08263377184331833,0.05557712160928485,0.25259781890946376,0.007220635629571252
2730,5.0,298.52169,789.57346,0.0,0.0,0.0,0.0,0.027209390163830845,0.0,-0.1143899378494079,-0.05715615232662304,-0.06846452601467264,0.04484756298785986,0.21130948840212282,0.004115674376985436
2731,5.0,298.87677,1029.2513,0.0,0.0,0.0,0.0,0.027219356973414665,0.0,-0.14291961561506789,-0.07418557115329583,-0.0957615039736746,0.017356190970672685,0.2167393437005078,0.03335768479614717
2732,5.0,300.63072,792.1492099999999,0.0,0.0,0.0,0.0,0.02722932378299849,0.0,-0.08454435015237773,-0.09044220034070022,-0.06580702836789804,0.028866858014687073,0.2450161851687148,-0.02302072715121888
2733,5.0,300.28601000000003,267.48996,0.0,0.0,0.0,0.0,0.02723929059258231,0.0,0.02262997332965448,-0.03775863224073686,-0.06618160970461634,0.07221520196908553,0.28517737626481576,-0.02433903949857618
2734,5.0,299.62613999999996,401.37261,0.0,0.0,0.0,0.0,0.027249257402166126,0.0,-0.0015830473420596085,-0.058975280761157045,-0.061448923164036544,0.07608040760880164,0.27979567061118277,-0.03392554054969017
2735,5.0,299.63929,818.9337400000001,0.0,0.0,0.0,0.0,0.027259224211749946,0.0,-0.08181314768007902,-0.07068532502734844,-0.09643693547708451,0.061351319821653844,0.24758141018188273,-0.02085576024555328
2736,5.0,300.8631,725.42291,0.0,0.0,0.0,0.0,0.02726919102133377,0.0,-0.1066014288357419,-0.06731537273176004,-0.04659364520943476,0.08621818257557211,0.22563965151889978,-0.024860854180825273
2737,5.0,300.31728,188.21885,0.0,0.0,0.0,0.0,0.02727915783091759,0.0,-0.03709320658206447,-0.027036593961554077,0.006915970069628102,0.07354675952175004,0.23106388327922975,-0.009508506833941562
2738,5.0,299.13975,354.75476000000003,0.0,0.0,0.0,0.0,0.027289124640501407,0.0,-0.02942046544532387,-0.04285774041497966,-0.03555838497983937,0.09546406136706932,0.21560107880316978,0.004229096782579355
2739,5.0,298.93367,917.7656199999999,0.0,0.0,0.0,0.0,0.02729909145008523,0.0,-0.07110152257217393,-0.06327732992973624,-0.14459897633080787,0.060278765206550934,0.1898418294609298,0.019898530717082082
2740,5.0,299.448,1013.4871,0.0,0.0,0.0,0.0,0.02730905825966905,0.0,-0.07864819817122283,-0.1016054573626779,-0.12782110494746088,0.04341507964573476,0.23352917143503477,-0.015068085806854287
2741,5.0,300.24838,835.73319,0.0,0.0,0.0,0.0,0.02731902506925287,0.0,-0.05589334075349325,-0.09226381326447941,-0.1058848684975229,0.051912472614862155,0.2570124482701538,0.004268319795275366
2742,5.0,300.02929,559.9311700000001,0.0,0.0,0.0,0.0,0.027328991878836695,0.0,-0.0973174052309801,-0.03580335237701576,-0.03708433659068907,0.051812802242275455,0.25735796655425375,0.022538572091133878
2743,5.0,300.42503999999997,671.94421,0.0,0.0,0.0,0.0,0.02733895868842051,0.0,-0.10914099835637789,-0.048486157269211155,-0.04662711083373755,0.07798136510816152,0.24173598048748376,0.03753048884822086
2744,5.0,299.67959,931.02129,0.0,0.0,0.0,0.0,0.027348925498004335,0.0,-0.1123937135623959,-0.06657977241091194,-0.10403373149232989,0.060399622638728646,0.27279298771257177,0.012132229105857789
2745,5.0,300.45482000000004,816.90415,0.0,0.0,0.0,0.0,0.027358892307588156,0.0,-0.06576162564416714,-0.08066935651669563,-0.1018874853955119,0.06755773404967924,0.2707702973329478,0.002960076924761847
2746,5.0,299.42354,344.48864,0.0,0.0,0.0,0.0,0.027368859117171976,0.0,0.0016265906505319985,-0.05642764475647495,-0.04991488955946605,0.04296580455139475,0.23780152021668274,-0.00898725724127323
2747,5.0,300.39321,442.23404000000005,0.0,0.0,0.0,0.0,0.0273788259267558,0.0,-0.05613143730174155,-0.035147745111812366,-0.04314892316246716,0.06930495719086673,0.19319126952149382,-0.00865215212845093
2748,5.0,299.75651,900.8476300000001,0.0,0.0,0.0,0.0,0.027388792736339616,0.0,-0.13459586736857787,-0.07781781640952051,-0.06142150258983034,0.06093805056961734,0.2064125621263338,-0.007722713719747503
2749,5.0,300.45236,772.6029599999999,0.0,0.0,0.0,0.0,0.02739875954592344,0.0,-0.09226928785476972,-0.05844042251037064,-0.08414229859219832,0.08653145518848973,0.2336242649569198,0.0003470167695403886
2750,5.0,300.05388,408.17609,0.0,0.0,0.0,0.0,0.02740872635550726,0.0,0.004238021996085206,-0.06280786785365394,-0.06550549425738893,0.07473222059549593,0.24406666850000477,-0.003960505459321456
2751,5.0,300.46313,455.33187999999996,0.0,0.0,0.0,0.0,0.02741869316509108,0.0,-0.002035313753344828,-0.058690055924257536,-0.07768415048282871,0.08214489994832042,0.24408429905174478,-0.024172259545366274
2752,5.0,300.03548,712.81062,0.0,0.0,0.0,0.0,0.027428659974674904,0.0,-0.03933813918562206,-0.07508426218373972,-0.10225423126920691,0.06987517888339323,0.2718136713584207,-0.034766594874695765
2753,5.0,300.27062,752.30503,0.0,0.0,0.0,0.0,0.027438626784258725,0.0,-0.06636917851012793,-0.100041719629099,-0.06227104491092364,0.04609154330788116,0.2672121581492867,-0.026212095129932375
2754,5.0,298.44961,535.23446,0.0,0.0,0.0,0.0,0.027448593593842545,0.0,-0.1012430066561568,-0.03983908091581116,-0.021615821437065478,0.015787326191587785,0.24010001727352676,0.01980084226169098
2755,5.0,298.56985,346.96321,0.0,0.0,0.0,0.0,0.027458560403426365,0.0,-0.04172683272661776,-0.030185109567038373,-0.03355620987499007,0.016260396451276183,0.2291586285861958,0.016439245226427184
2756,5.0,299.88927,555.46795,0.0,0.0,0.0,0.0,0.027468527213010185,0.0,-0.05280726871192166,-0.052681127180472444,-0.06335999188614434,0.06668583639162963,0.27196937750128775,0.004842674534959766
2757,5.0,300.29828,929.5731300000001,0.0,0.0,0.0,0.0,0.02747849402259401,0.0,-0.07190780721999802,-0.05613591992018395,-0.15452329496526185,0.08915557333722,0.26652045283602077,0.024035459636115176
2758,5.0,299.86123,882.2864599999999,0.0,0.0,0.0,0.0,0.02748846083217783,0.0,-0.06820244279680703,-0.07517981268141984,-0.12481079969536689,0.07276965039730533,0.2510260450893418,0.0027096817494497677
2759,5.0,299.81632,553.1687099999999,0.0,0.0,0.0,0.0,0.02749842764176165,0.0,-0.07326393710083763,-0.03169101807765996,-0.06319452003881353,0.06575875915963424,0.22462044350831178,0.019464806985276882
2760,5.0,300.17933999999997,541.84954,0.0,0.0,0.0,0.0,0.02750839445134547,0.0,-0.11162049227858489,-0.027587529451677174,-0.025500713512974477,0.08420084722272661,0.23370516284490378,-0.005520950028750345
2761,5.0,300.87174,925.56606,0.0,0.0,0.0,0.0,0.02751836126092929,0.0,-0.1101993988808339,-0.08451238616472312,-0.08663718986292492,0.09090468922959431,0.2342288307615858,0.00935207469737791
2762,5.0,300.18345,786.5142900000001,0.0,0.0,0.0,0.0,0.02752832807051311,0.0,-0.06952407759124224,-0.06419226234603304,-0.1053643619211529,0.04742875783585396,0.2294121538937168,-0.00918183003677607
2763,5.0,299.68647999999996,512.05872,0.0,0.0,0.0,0.0,0.027538294880096927,0.0,-0.0013045589971249487,-0.07160155035077283,-0.08274695491923861,0.03203378842748877,0.22398908737100176,0.004519796919044225
2764,5.0,299.56816000000003,612.84907,0.0,0.0,0.0,0.0,0.02754826168968075,0.0,-0.02991695799432387,-0.07579231324761893,-0.08058154319677913,0.03871324859720016,0.26694714258563174,-0.03218342520225677
2765,5.0,299.35407999999995,640.55201,0.0,0.0,0.0,0.0,0.02755822849926457,0.0,-0.08771670043996432,-0.05332142828966525,-0.05367368873993065,0.06566179821781494,0.25317942446686376,0.0023053390281442478
2766,5.0,299.82142999999996,626.87359,0.0,0.0,0.0,0.0,0.02756819530884839,0.0,-0.09592605882966491,-0.07003195197861553,-0.024595905491676874,0.06614046465780564,0.24938030401191977,-0.019149938503451782
2767,5.0,300.32754,784.40155,0.0,0.0,0.0,0.0,0.027578162118432215,0.0,-0.08297404453165062,-0.07382105544307092,-0.08164338370532462,0.06711204788719344,0.24230177934332375,0.004232231474413726
2768,5.0,300.39607,535.0278099999999,0.0,0.0,0.0,0.0,0.027588128928016032,0.0,-0.030709751217066473,-0.05763171315505724,-0.07429363123671053,0.08688600862373141,0.24000608898925674,-0.03171336632186557
2769,5.0,301.93607000000003,496.29855,0.0,0.0,0.0,0.0,0.027598095737599856,0.0,-0.01089200895695759,-0.07027391508924542,-0.06969644359225344,0.08066525386704072,0.23349660557682078,-0.03493586640990157
2770,5.0,301.11803,705.73377,0.0,0.0,0.0,0.0,0.027608062547183676,0.0,-0.044169956036485256,-0.06578559914153315,-0.1045698927827449,0.06672563685555764,0.2311521069654368,-0.042898625056514664
2771,5.0,299.86858,755.50725,0.0,0.0,0.0,0.0,0.027618029356767496,0.0,-0.1114013060169529,-0.06663788129089684,-0.05161614762311715,0.043136429788734165,0.2300121499404318,-0.012731382128489588
2772,5.0,300.01275,507.99212,0.0,0.0,0.0,0.0,0.02762799616635132,0.0,-0.07667735478596573,-0.043992650441236555,-0.03374691570281127,0.05217021202954905,0.2527566154651358,-0.0097654522658501
2773,5.0,300.33771,375.20207,0.0,0.0,0.0,0.0,0.027637962975935137,0.0,-0.055478585063560036,-0.024207429456337276,-0.034366046977664766,0.060809231018153845,0.26096000986474777,0.024337749631198877
2774,5.0,300.27776,449.68383,0.0,0.0,0.0,0.0,0.02764792978551896,0.0,-0.034510129115384564,-0.027191852247876874,-0.07499067536475343,0.08411250599950802,0.26558146383584974,0.030328258501416072
2775,5.0,300.41845,741.3247,0.0,0.0,0.0,0.0,0.02765789659510278,0.0,-0.06185258072562444,-0.05046428288293695,-0.11302732924742889,0.06219787001520184,0.26557776547298473,0.017552178871265183
2776,5.0,299.82464,1029.4737,0.0,0.0,0.0,0.0,0.0276678634046866,0.0,-0.0989374502858661,-0.08999545026560941,-0.12400138511798388,0.05206918491507845,0.24414007846974975,0.012284327065118688
2777,5.0,300.39946000000003,951.90046,0.0,0.0,0.0,0.0,0.027677830214270425,0.0,-0.14721411404390186,-0.06189647877295685,-0.08024338110840512,0.04502480069535186,0.22798553828292079,0.002973798661591077
2778,5.0,300.66308,739.14565,0.0,0.0,0.0,0.0,0.02768779702385424,0.0,-0.08627733712966022,-0.07004723584312393,-0.06835724816033513,0.08132913026631022,0.24271107158871777,0.016430986224862085
2779,5.0,300.14965,729.56715,0.0,0.0,0.0,0.0,0.027697763833438065,0.0,-0.06868784633671264,-0.0901149641281545,-0.06296738483014704,0.09568258800288622,0.23040477422168076,-0.030341781337250674
2780,5.0,300.09077,836.0253700000001,0.0,0.0,0.0,0.0,0.027707730643021886,0.0,-0.05670457107505544,-0.07884719745111252,-0.1185790684003429,0.08065671926144842,0.23587194752124876,-0.018410032882928782
2781,5.0,301.31352000000004,451.83139000000006,0.0,0.0,0.0,0.0,0.027717697452605706,0.0,-0.015525504392247985,-0.06136197009345494,-0.06045798483123854,0.08042670338274763,0.2284661430703528,-0.05586914738085554
2782,5.0,301.5323,55.284423,0.0,0.0,0.0,0.0,0.02772766426218953,0.0,0.013039122395861186,-0.023729991075467777,-0.0061142146497510045,0.07510954277373472,0.23547478387955176,-0.021901202314480377
2783,5.0,301.54586,195.19708,0.0,0.0,0.0,0.0,0.027737631071773346,0.0,-0.02687508392211427,-0.012708194913201187,-0.01975175941359688,0.05567719120241094,0.25701472808287873,-0.02307755832282768
2784,5.0,300.54892,625.61648,0.0,0.0,0.0,0.0,0.02774759788135717,0.0,-0.033943467983709466,-0.0973619629041276,-0.05886635637540704,0.04059996486640456,0.27073258416422574,0.004286487470893376
2785,5.0,300.1707,781.90107,0.0,0.0,0.0,0.0,0.02775756469094099,0.0,-0.06164575003571185,-0.08590957192636461,-0.09012307924820542,0.016374246245762288,0.27619474187579873,0.007112021095701833
2786,5.0,300.3292,732.37604,0.0,0.0,0.0,0.0,0.02776753150052481,0.0,-0.03209165108769937,-0.06513229398055694,-0.12540008568852487,0.037368543111238064,0.25782252146010176,0.01037888492081619
2787,5.0,300.63982999999996,673.7843799999999,0.0,0.0,0.0,0.0,0.027777498310108634,0.0,-0.05119180760048805,-0.07008263778836783,-0.08353918072192522,0.06174790489754373,0.2211307898989098,-0.012996834402937687
2788,5.0,300.18687,789.81674,0.0,0.0,0.0,0.0,0.027787465119692455,0.0,-0.09627163284252041,-0.05798806612247654,-0.0858248692842551,0.07463789106418633,0.21235591231039677,-0.01909911083868548
2789,5.0,299.61593999999997,892.71305,0.0,0.0,0.0,0.0,0.02779743192927627,0.0,-0.14772387003671086,-0.07071439415946733,-0.052924206892712544,0.08570808511747942,0.22830102383405676,-0.005800633400852944
2790,5.0,299.12021,714.4847,0.0,0.0,0.0,0.0,0.02780739873886009,0.0,-0.1078715682335949,-0.037741227643769165,-0.07157271021317653,0.0973764716323095,0.23447028826041577,0.032011888039827366
2791,5.0,299.18081,296.53277,0.0,0.0,0.0,0.0,0.027817365548443912,0.0,-0.03493001083757367,-0.011944024992533489,-0.043264520813375756,0.09256102890306232,0.27043358419221675,0.04386909269754236
2792,5.0,300.2627,374.72857999999997,0.0,0.0,0.0,0.0,0.027827332358027736,0.0,-0.002078767287858358,-0.05131596012199095,-0.06051340454545803,0.07298632481193942,0.2716265949924578,0.00992513774583483
2793,5.0,300.71231,844.2139699999999,0.0,0.0,0.0,0.0,0.027837299167611552,0.0,-0.08123005163178192,-0.06976047289257263,-0.10562943827981389,0.057424292753586445,0.25396564574945774,0.012005972063897188
2794,5.0,299.67015,971.3638900000001,0.0,0.0,0.0,0.0,0.027847265977195376,0.0,-0.12160849368182387,-0.08377068911802332,-0.08989118683031942,0.02930359920529007,0.25011792981971775,0.0006591450481925514
2795,5.0,299.63768,836.29547,0.0,0.0,0.0,0.0,0.027857232786779196,0.0,-0.1004600753966375,-0.1023021073364319,-0.05145075379604405,0.03438297940008587,0.24781278584221775,-0.022608556262290778
2796,5.0,300.60777,652.0269099999999,0.0,0.0,0.0,0.0,0.027867199596363017,0.0,-0.07219214647631014,-0.07211228210342813,-0.053895470948318855,0.06313493485343294,0.26391587318896875,-0.018713394896618284
2797,5.0,300.28111,555.58045,0.0,0.0,0.0,0.0,0.02787716640594684,0.0,-0.01863487611986908,-0.08565692004042982,-0.06459078779586444,0.06698230729138903,0.27151332376377874,-0.0007755502796958534
2798,5.0,300.57799,470.38181,0.0,0.0,0.0,0.0,0.027887133215530657,0.0,-0.01102404051123809,-0.047168558249924254,-0.08479172604504183,0.07943715826883713,0.2501567778285518,-0.015640611630108183
2799,5.0,299.97491,556.0038400000001,0.0,0.0,0.0,0.0,0.02789710002511448,0.0,-0.02324776812762608,-0.06498675478919334,-0.08077676102729563,0.07099924814683023,0.22635389151438978,-0.005026050815532595
2800,5.0,299.78389,392.69843,0.0,0.0,0.0,0.0,0.0279070668346983,0.0,-0.04074659836787616,-0.06982732004141992,-0.008796597516331581,0.07443863441877123,0.2165947833087408,-0.04789010884488575
2801,5.0,299.97189,456.07928,0.0,0.0,0.0,0.0,0.02791703364428212,0.0,-0.04849710138354125,-0.060537366897072946,-0.02960224453976407,0.07089887559192423,0.22425608890485277,-0.012053709315858488
2802,5.0,300.06137,584.64332,0.0,0.0,0.0,0.0,0.027927000453865945,0.0,-0.08707140400777852,-0.06104140714606785,-0.02960416059570317,0.07023037775894864,0.23491506452431177,-0.004073539283502026
2803,5.0,298.8537,737.58125,0.0,0.0,0.0,0.0,0.027936967263449762,0.0,-0.08125844999233463,-0.06311893462110384,-0.07982889899599893,0.06421372500965124,0.24982796803860075,0.01221907477192879
2804,5.0,299.46156,864.57289,0.0,0.0,0.0,0.0,0.027946934073033586,0.0,-0.06301174289302484,-0.08813214615321562,-0.11166468011544589,0.04810959604179746,0.26301848823790375,-0.017205343362035184
2805,5.0,299.8823,724.86334,0.0,0.0,0.0,0.0,0.027956900882617406,0.0,-0.06870694002159704,-0.06938031260080373,-0.08225310289999921,0.04476950726640636,0.26007304112471075,0.0012343630566971488
2806,5.0,300.24131,581.29166,0.0,0.0,0.0,0.0,0.027966867692201226,0.0,-0.08701060900177851,-0.03290468499443957,-0.056782854777781444,0.06146778886764844,0.2511565517022218,-0.001968514936527298
2807,5.0,299.57526,489.53146,0.0,0.0,0.0,0.0,0.02797683450178505,0.0,-0.07081390950478873,-0.024773785599732274,-0.05321764513492265,0.06699634891127483,0.24653477349108777,0.00915328455230885
2808,5.0,299.37093,579.06347,0.0,0.0,0.0,0.0,0.027986801311368867,0.0,-0.06844251619600043,-0.04283590082232426,-0.06474241864682924,0.08068687155792421,0.23000582725980775,0.015214525777556788
2809,5.0,299.75707,638.36276,0.0,0.0,0.0,0.0,0.02799676812095269,0.0,-0.05600093879486235,-0.027820967075965673,-0.1102244362908049,0.05980624311516664,0.2533098500197357,0.03196525624372517
2810,5.0,300.60867,622.65342,0.0,0.0,0.0,0.0,0.02800673493053651,0.0,-0.03097441822268707,-0.06304392472945095,-0.09525274704546421,0.06647042955287064,0.26350599325851676,0.018084661050567084
2811,5.0,301.09828,641.30225,0.0,0.0,0.0,0.0,0.02801670174012033,0.0,-0.04275326217066846,-0.07217969565908133,-0.08000691386631763,0.07423706148362752,0.26042681739712575,-0.00919809259955606
2812,5.0,301.03176,899.59649,0.0,0.0,0.0,0.0,0.028026668549704155,0.0,-0.07736206360729123,-0.0974319247837823,-0.098660882657821,0.0926154232081806,0.2522033505130328,-0.02013321767874388
2813,5.0,299.76896,957.4979699999999,0.0,0.0,0.0,0.0,0.02803663535928797,0.0,-0.10001698923390831,-0.1214872684398599,-0.06955121648192063,0.08019856505648212,0.23808721621487877,-0.027210455519712875
2814,5.0,298.87915,704.55249,0.0,0.0,0.0,0.0,0.028046602168871792,0.0,-0.06964911569333253,-0.061601077865303035,-0.08291616869918872,0.09570554115740151,0.2100523895330568,0.0030969320561433974
2815,5.0,299.43269,446.98144,0.0,0.0,0.0,0.0,0.028056568978455616,0.0,-0.02948397900134217,-0.04603464019551526,-0.06035257743658564,0.07130267906152653,0.2343677878802998,-0.017035331141006284
2816,5.0,299.67267999999996,279.68153,0.0,0.0,0.0,0.0,0.028066535788039436,0.0,0.005770770184630675,-0.03512642632970837,-0.05566054654301825,0.059869895486448645,0.25419948360753575,0.0009348367721887061
2817,5.0,299.83752000000004,285.33914,0.0,0.0,0.0,0.0,0.028076502597623256,0.0,-0.024120051833963773,-0.02106441478564588,-0.04155150499556426,0.02376852902977118,0.27452132893814574,-0.0047306552781043254
2818,5.0,299.53642,518.81642,0.0,0.0,0.0,0.0,0.028086469407207073,0.0,-0.042800742057104366,-0.05767835609691054,-0.057228139693227646,0.003963393323431466,0.27902644153276573,0.005370410245493225
2819,5.0,299.26813,719.74579,0.0,0.0,0.0,0.0,0.028096436216790897,0.0,-0.08263265220195783,-0.05377060813849586,-0.08238148675391972,0.04329937053731516,0.26345213901570175,-0.006704806114337844
2820,5.0,298.20804,707.2554299999999,0.0,0.0,0.0,0.0,0.028106403026374717,0.0,-0.06203806932868074,-0.07251083085801184,-0.08043909137847022,0.06952551539313413,0.24466446579400275,-0.003061041217726247
2821,5.0,299.30707,634.7269200000001,0.0,0.0,0.0,0.0,0.028116369835958537,0.0,-0.04540180775280955,-0.06514897410370314,-0.08239035370554483,0.1027767339482739,0.23861139075661075,-0.006597532616975774
2822,5.0,299.63784,820.90485,0.0,0.0,0.0,0.0,0.02812633664554236,0.0,-0.06928881003727314,-0.07845097309225822,-0.1017947932763639,0.07761913832991252,0.20921904198831182,0.01001244221155111
2823,5.0,299.70963,775.8836200000001,0.0,0.0,0.0,0.0,0.028136303455126178,0.0,-0.09703592030019972,-0.06384887188714303,-0.07496445447866563,0.08307103181797253,0.24541610485068377,0.004527391025893706
2824,5.0,299.94945,511.16348,0.0,0.0,0.0,0.0,0.02814627026471,0.0,-0.08646818481249542,-0.03800117290392376,-0.030911575438234973,0.06590838478865114,0.24338095149482974,-0.003073288979635007
2825,5.0,300.55915,389.38439,0.0,0.0,0.0,0.0,0.02815623707429382,0.0,-0.059545847971967644,-0.007412537295160473,-0.05140474717525355,0.07477507499522533,0.2499544317835818,0.005095537784865425
2826,5.0,300.0407,554.01051,0.0,0.0,0.0,0.0,0.028166203883877642,0.0,-0.052540004746294756,-0.05710684048400635,-0.05875851616726404,0.05472103774554595,0.23584156015074975,-0.006366006894300964
2827,5.0,300.63801,846.15993,0.0,0.0,0.0,0.0,0.028176170693461466,0.0,-0.07984405924399512,-0.07282822638558634,-0.10453920143721591,0.06555495707427053,0.24139763601409178,0.004157709969309026
2828,5.0,299.67977,759.35311,0.0,0.0,0.0,0.0,0.028186137503045283,0.0,-0.07281465592699703,-0.07284040261203803,-0.08516932484055792,0.07656567638644393,0.24876189721088776,-0.028605980564440473
2829,5.0,299.33906,562.66811,0.0,0.0,0.0,0.0,0.028196104312629106,0.0,-0.04437980114544536,-0.08795743853122333,-0.038699814927374364,0.06458886566042474,0.2914880498751307,-0.012208770018411788
2830,5.0,299.17871,479.08168,0.0,0.0,0.0,0.0,0.028206071122212927,0.0,-0.05194732132555145,-0.05042821928537775,-0.043253328452771155,0.06394205644583964,0.27580094222443374,-0.025170394993624577
2831,5.0,299.05697000000004,608.76458,0.0,0.0,0.0,0.0,0.028216037931796747,0.0,-0.04943149732100895,-0.0929003694013026,-0.04271736474612566,0.05149866431377245,0.28390993211222876,-0.015782828374393883
2832,5.0,299.17897,570.02255,0.0,0.0,0.0,0.0,0.02822600474138057,0.0,-0.06300966573031984,-0.04357395928791496,-0.06668899671869152,0.04739068698984666,0.2367158024695308,-0.019506517425643383
2833,5.0,299.66053999999997,400.37817,0.0,0.0,0.0,0.0,0.028235971550964387,0.0,-0.007281861469513773,-0.059422293268023736,-0.05500081129690745,0.07231797086047803,0.2156140180069468,0.0027867639402071875
2834,5.0,299.30935,276.58631,0.0,0.0,0.0,0.0,0.02824593836054821,0.0,-0.012550908100178188,-0.045525886307055154,-0.025998536459355775,0.07552060314055323,0.21613972255632977,-0.012778847829424088
2835,5.0,300.23973,691.88263,0.0,0.0,0.0,0.0,0.02825590517013203,0.0,-0.06822511122804424,-0.06663051394941974,-0.07545941803326474,0.07428401042701102,0.2340239718563678,0.005273547386283605
2836,5.0,299.49074,986.7879300000001,0.0,0.0,0.0,0.0,0.02826587197971585,0.0,-0.1173607668776059,-0.1045372357320219,-0.07806089206876023,0.06639105052678654,0.24154524628865978,-0.015939496091605786
2837,5.0,299.64983,931.91216,0.0,0.0,0.0,0.0,0.028275838789299675,0.0,-0.08729045956014761,-0.09007236912045072,-0.1059151950730159,0.07187905118216002,0.2932833770648157,0.004239997023180127
2838,5.0,299.99962,615.13579,0.0,0.0,0.0,0.0,0.028285805598883492,0.0,-0.04717013486707986,-0.05232776228759805,-0.08748802407789573,0.05720358965655475,0.27189400182634876,0.013636286408546687
2839,5.0,300.52173999999997,497.06424000000004,0.0,0.0,0.0,0.0,0.028295772408467316,0.0,-0.02434147129881618,-0.057126716397967944,-0.06962692956914293,0.042222460973282465,0.2580819844132088,-0.006808651482636583
2840,5.0,300.31951000000004,832.86466,0.0,0.0,0.0,0.0,0.028305739218051136,0.0,-0.1055460579290849,-0.05610901407702854,-0.09151499104307641,0.029341925390322574,0.2351501790775158,0.01081456422531439
2841,5.0,301.27436,919.18896,0.0,0.0,0.0,0.0,0.028315706027634956,0.0,-0.12122128015610888,-0.07599585391445683,-0.08219336167410322,0.03819645659569676,0.2233381552417598,0.014652037209793488
2842,5.0,300.1893,587.81002,0.0,0.0,0.0,0.0,0.028325672837218777,0.0,-0.07629741538271863,-0.03925938026859917,-0.06312277281248264,0.07043302879219873,0.24259753691501276,0.022511735148985277
2843,5.0,299.66631,480.42758,0.0,0.0,0.0,0.0,0.028335639646802597,0.0,-0.04834120576290555,-0.027189001975345576,-0.07050778131832623,0.07256769951987434,0.26067891402200577,0.006267833497412004
2844,5.0,299.16177999999996,727.11443,0.0,0.0,0.0,0.0,0.028345606456386417,0.0,-0.05188683333433175,-0.07974374444434483,-0.08939405390725623,0.0933510123832776,0.2681918088759707,-0.0037674571999190766
2845,5.0,300.09058999999996,893.0378900000001,0.0,0.0,0.0,0.0,0.028355573265970237,0.0,-0.07867993721735522,-0.08893421770712391,-0.10384706042640689,0.09659683242236511,0.24750101891894874,-0.008481230414132271
2846,5.0,299.36662,644.87755,0.0,0.0,0.0,0.0,0.028365540075554058,0.0,-0.05319435659462425,-0.059745584897930144,-0.08308673010177182,0.1028567097786669,0.2596687442023098,-0.016905742532716882
2847,5.0,299.99711,312.32415,0.0,0.0,0.0,0.0,0.02837550688513788,0.0,-0.027787771989439575,-0.06858073870839193,0.0014297664133069586,0.06454212443331174,0.24860672809057377,-0.04573047467449646
2848,5.0,300.53668,468.93172000000004,0.0,0.0,0.0,0.0,0.028385473694721698,0.0,-0.030377710172546573,-0.04458540884248726,-0.06758041463991764,0.039201116361348966,0.2290482248552998,-0.014827934387403185
2849,5.0,300.62403,699.6704,0.0,0.0,0.0,0.0,0.028395440504305522,0.0,-0.06177671261113685,-0.07165321496012174,-0.07925240325885322,0.04930008587578965,0.24395744013922477,-0.0037330300012713763
2850,5.0,300.55606,723.57362,0.0,0.0,0.0,0.0,0.028405407313889346,0.0,-0.03984036369043776,-0.059401949232515946,-0.12070600195025488,0.03644879167746567,0.2614246660956057,0.028986793389273773
2851,5.0,301.45667000000003,596.4635,0.0,0.0,0.0,0.0,0.028415374123473162,0.0,-0.048387161721191056,-0.042533315971461455,-0.09038953160050221,0.05764291970116324,0.27680772778879575,-0.002106746466844688
2852,5.0,299.48714,560.49658,0.0,0.0,0.0,0.0,0.028425340933056986,0.0,-0.06205348288920194,-0.05221247874422045,-0.05611100207372474,0.038305515743710064,0.26229746959924477,-0.007396686415896113
2853,5.0,299.40342000000004,797.62054,0.0,0.0,0.0,0.0,0.028435307742640803,0.0,-0.1136746035438099,-0.054591872675798354,-0.07419025540850813,0.07301253759202643,0.24248552211645774,0.006118093067158775
2854,5.0,300.09726,931.3430699999999,0.0,0.0,0.0,0.0,0.028445274552224627,0.0,-0.1055470306491809,-0.08326919516652971,-0.09428880777483081,0.06513307722288424,0.21868082208461678,0.007520103216501403
2855,5.0,299.40162999999995,600.45341,0.0,0.0,0.0,0.0,0.028455241361808447,0.0,-0.056747974656339045,-0.06972216089304153,-0.05605270979547175,0.1011746801621635,0.26287855839909374,-0.008953151952182301
2856,5.0,299.78236,288.42458999999997,0.0,0.0,0.0,0.0,0.028465208171392267,0.0,0.0006524541626147124,-0.024262124696735273,-0.06406420374539465,0.08907681745994742,0.25605277883544175,0.004119329068771126
2857,5.0,300.06375,361.90384,0.0,0.0,0.0,0.0,0.02847517498097609,0.0,-0.018054733695613483,-0.04463068288345546,-0.047324312015545954,0.08504237068252853,0.2518071697239328,0.010412856156918891
2858,5.0,299.54177999999996,732.2198599999999,0.0,0.0,0.0,0.0,0.028485141790559908,0.0,-0.0932619122357341,-0.03728769791225926,-0.09202694477535232,0.05012685438763535,0.23440308951378377,0.010339754215204291
2859,5.0,300.60506000000004,1005.357,0.0,0.0,0.0,0.0,0.02849510860014373,0.0,-0.14337725002273288,-0.07177571892371194,-0.09045046339526572,0.05610085640047345,0.23639446033281677,-0.005253886382668215
2860,5.0,299.72495,656.64116,0.0,0.0,0.0,0.0,0.028505075409727552,0.0,-0.08643052129302832,-0.048654251407800754,-0.06451774360940553,0.04805763758991955,0.24573662625481674,-0.013771009155092787
2861,5.0,300.27962,442.1902,0.0,0.0,0.0,0.0,0.028515042219311372,0.0,-0.04040358078502296,-0.02276622405735138,-0.07124497446833153,0.04815832323910645,0.24997143412025974,0.001227372542932239
2862,5.0,300.85613,655.56164,0.0,0.0,0.0,0.0,0.028525009028895196,0.0,-0.04971316058380695,-0.05704063168272204,-0.09252057489281981,0.061229039786335746,0.2778931719584207,0.002022621275967178
2863,5.0,300.63936,710.34202,0.0,0.0,0.0,0.0,0.028534975838479013,0.0,-0.04539710627234555,-0.09283591048294101,-0.07769322008447384,0.057342489020013036,0.26157014854496374,-0.01994715557613098
2864,5.0,301.13063,354.77227999999997,0.0,0.0,0.0,0.0,0.028544942648062836,0.0,-0.03948440994355786,-0.05430581798706694,-0.014051685512293386,0.0880846348560266,0.26636673266334976,-0.036792916742678164
2865,5.0,301.92975,273.16504,0.0,0.0,0.0,0.0,0.028554909457646657,0.0,-0.02694531329979537,-0.06417320412490214,0.008083167816946553,0.07780394704215172,0.24113657212582676,-0.03908438083057807
2866,5.0,301.41414,611.31931,0.0,0.0,0.0,0.0,0.028564876267230477,0.0,-0.06820906235971035,-0.06387779308474735,-0.053738950152371456,0.07831725143681093,0.2414380545605808,-0.01302194578016599
2867,5.0,301.92657,921.2206800000001,0.0,0.0,0.0,0.0,0.0285748430768143,0.0,-0.07439206037792473,-0.09256072492803231,-0.1130752965071629,0.07960626160452633,0.24512539326449279,-0.006287171172920484
2868,5.0,300.66045,959.89529,0.0,0.0,0.0,0.0,0.028584809886398117,0.0,-0.08209445022584143,-0.0992421589089385,-0.11044759449282888,0.06742640569096814,0.2615663083270848,0.002222767858945108
2869,5.0,299.08352,666.07421,0.0,0.0,0.0,0.0,0.028594776695981938,0.0,-0.06758126577000165,-0.04978777328142065,-0.08510088891555383,0.06499259009651924,0.2803478412531777,0.016347833855405586
2870,5.0,300.11675,584.60955,0.0,0.0,0.0,0.0,0.028604743505565758,0.0,-0.07328679804959383,-0.049261251039206956,-0.05515865539748545,0.03142770477417297,0.2666890981826648,-0.0026696859309024877
2871,5.0,300.88622999999995,808.1891400000001,0.0,0.0,0.0,0.0,0.02861471031514958,0.0,-0.11323867295328689,-0.05959764937008004,-0.07283299980680744,0.05395924389636275,0.2680784059247787,-0.0008939969771031321
2872,5.0,298.86578,769.6897799999999,0.0,0.0,0.0,0.0,0.0286246771247334,0.0,-0.08488495822649313,-0.06370646971808903,-0.08537504602161101,0.05005214644451225,0.23913374144816277,-0.0030083504900010774
2873,5.0,298.48576,436.22150999999997,0.0,0.0,0.0,0.0,0.02863464393431722,0.0,-0.027281108435935775,-0.04295570954064846,-0.06236362962556104,0.07529952210123422,0.23356694539876277,0.0033262925646795173
2874,5.0,299.27111,188.27771,0.0,0.0,0.0,0.0,0.028644610743901042,0.0,0.020440990370118678,-0.012136136198243387,-0.06553657570420644,0.07418429851117023,0.22940075483009179,0.01167359867334449
2875,5.0,298.8833,514.69595,0.0,0.0,0.0,0.0,0.028654577553484863,0.0,-0.03392607453249287,-0.07333520404662112,-0.04919343826301436,0.0839459530143205,0.24598223807905675,-0.01018595399577539
2876,5.0,300.05891,1056.9063,0.0,0.0,0.0,0.0,0.028664544363068683,0.0,-0.1095040458672079,-0.1041905116803029,-0.1075785565696769,0.09268508009955521,0.24945295404408976,-0.00986959056475275
2877,5.0,300.17457,965.10611,0.0,0.0,0.0,0.0,0.028674511172652507,0.0,-0.12098398711518989,-0.09639951311114121,-0.07598465750085183,0.08150235550340622,0.23682352108766178,-0.01082353959470019
2878,5.0,299.64891,635.61384,0.0,0.0,0.0,0.0,0.028684477982236323,0.0,-0.07285846278182043,-0.07481483898214972,-0.045537433305194754,0.07559642768528653,0.2693519295779658,-0.015379399807328586
2879,5.0,300.19834,626.54908,0.0,0.0,0.0,0.0,0.028694444791820147,0.0,-0.06115187977797064,-0.03995998698399366,-0.08934340964075801,0.07855938983970813,0.26327078751280375,-0.003290858499407447
2880,5.0,300.49311,705.52872,0.0,0.0,0.0,0.0,0.028704411601403967,0.0,-0.036877891949064566,-0.07550938443544603,-0.10207583845660091,0.07125580509865043,0.2724523938239577,-0.0074300599357648225
2881,5.0,299.74149,712.8202200000001,0.0,0.0,0.0,0.0,0.028714378410987788,0.0,-0.07869422809676563,-0.05429027675703315,-0.08369504391855771,0.04067180733824486,0.24475021714996575,-0.013493379640942885
2882,5.0,300.14353,513.1829299999999,0.0,0.0,0.0,0.0,0.02872434522057161,0.0,-0.06516171471046053,-0.03292017049571787,-0.05791291032280924,0.039036690188121365,0.25034764374988877,-0.008505097013612722
2883,5.0,299.24003999999996,213.74312999999998,0.0,0.0,0.0,0.0,0.028734312030155428,0.0,-0.047901930433802455,-0.04172304215799366,0.024652399251002377,0.051644594619674654,0.26091208313501774,-0.02900940406525527
2884,5.0,299.76135,624.3205,0.0,0.0,0.0,0.0,0.028744278839739252,0.0,-0.061838751888259644,-0.06769295328877434,-0.060246138553330934,0.05320819759099024,0.26154512126749374,-0.019091293614163982
2885,5.0,299.65452,863.7330099999999,0.0,0.0,0.0,0.0,0.028754245649323072,0.0,-0.08298783587876171,-0.06434247768660814,-0.11522295102161989,0.07642699892475753,0.25252105508188777,0.002182066615678208
2886,5.0,299.93703999999997,634.86653,0.0,0.0,0.0,0.0,0.028764212458906892,0.0,-0.019485831924851878,-0.07715433923079043,-0.0963434013471034,0.059399701843794145,0.24491578221630575,0.015629619893023385
2887,5.0,298.76942,353.76338,0.0,0.0,0.0,0.0,0.028774179268490716,0.0,-0.028463412222370074,-0.013510341447616888,-0.06556148037841435,0.10525031048989691,0.25005961727646275,0.018555535597288782
2888,5.0,298.86352999999997,586.76372,0.0,0.0,0.0,0.0,0.028784146078074533,0.0,-0.04826077498321766,-0.06152658473120115,-0.06857415866224252,0.08862001797036481,0.2605091439677507,0.01069575355833869
2889,5.0,299.23066,827.81323,0.0,0.0,0.0,0.0,0.028794112887658357,0.0,-0.13078125431960486,-0.05173132274873405,-0.06912197638180793,0.08051872777007972,0.24320294371726178,0.016835326717017384
2890,5.0,299.56273,825.59638,0.0,0.0,0.0,0.0,0.028804079697242177,0.0,-0.09998680451342931,-0.04787586660148015,-0.1030980152899819,0.04803352426403975,0.23873723641903077,-0.016967991552610383
2891,5.0,299.01476,618.52751,0.0,0.0,0.0,0.0,0.028814046506825997,0.0,-0.04968978389074986,-0.06353096872126844,-0.07479616579605683,0.05187500161291404,0.24422042920267978,-0.009103554946675921
2892,5.0,299.47541,425.31791,0.0,0.0,0.0,0.0,0.02882401331640982,0.0,-0.0045981353372756256,-0.044127236399019165,-0.08056065301946742,0.08226874342854283,0.24085938742847077,-0.007345070543877024
2893,5.0,300.35763,483.75920999999994,0.0,0.0,0.0,0.0,0.028833980125993638,0.0,-0.03415797404312956,-0.06796774772914443,-0.04492499860025216,0.04348934783831446,0.25596209295149175,-0.014528229193324587
2894,5.0,300.56541,692.00937,0.0,0.0,0.0,0.0,0.02884394693557746,0.0,-0.09162139750232791,-0.06217091553604164,-0.05656125799416154,0.05661732010894445,0.2709032965410737,-0.018597070745387984
2895,5.0,299.91407000000004,656.58642,0.0,0.0,0.0,0.0,0.028853913745161282,0.0,-0.08712210704278252,-0.05527663418612905,-0.05718713447493074,0.05660379119360925,0.2780554642269377,0.0016959328264255383
2896,5.0,299.28854,338.52072999999996,0.0,0.0,0.0,0.0,0.028863880554745102,0.0,-0.021633847156344477,-0.05726751256561344,-0.024000491361914077,0.06597400387837724,0.2908700585066397,-0.03179763427968217
2897,5.0,300.58838,529.29158,0.0,0.0,0.0,0.0,0.02887384736432892,0.0,-0.015266239022910487,-0.055524442736585855,-0.09010074113650082,0.07725770188674153,0.2600269787751648,0.010029538577838391
2898,5.0,301.02182999999997,962.22961,0.0,0.0,0.0,0.0,0.02888381417391274,0.0,-0.04914328136981425,-0.09877182645102031,-0.14457867079880388,0.09240186859060441,0.24303452128563977,-0.00037993187479885664
2899,5.0,300.1737,1033.1464,0.0,0.0,0.0,0.0,0.028893780983496563,0.0,-0.08170415844632262,-0.1118237705136469,-0.12052279619967389,0.08707901351602952,0.23247229078572879,-0.007836790786231031
2900,5.0,300.31502,604.17175,0.0,0.0,0.0,0.0,0.028903747793080383,0.0,-0.06898834085261914,-0.04861327557375675,-0.06605150940502644,0.08886513836830633,0.22515558141612577,-0.016979926625538284
2901,5.0,300.51636,457.87528,0.0,0.0,0.0,0.0,0.028913714602664203,0.0,-0.07796067048811912,-0.046323662693789555,-0.014898316765849384,0.07086759250833684,0.25367252262802875,0.012393621287155187
2902,5.0,301.46991,630.72288,0.0,0.0,0.0,0.0,0.028923681412248024,0.0,-0.07812225854781663,-0.056375291137058046,-0.05722645668481154,0.061189920226474945,0.25171202553954275,-0.012692352747887688
2903,5.0,301.83973,838.8678800000001,0.0,0.0,0.0,0.0,0.028933648221831844,0.0,-0.08142151233092762,-0.07994334964779433,-0.0936300259970641,0.05743444045333795,0.26514641477291373,0.003412866578398707
2904,5.0,301.15234,828.48592,0.0,0.0,0.0,0.0,0.028943615031415668,0.0,-0.045190776127982356,-0.10895608021312789,-0.097692175032217,0.04359773925451186,0.28335192514965774,-0.02239744155095538
2905,5.0,299.55489,541.3050099999999,0.0,0.0,0.0,0.0,0.028953581840999488,0.0,-0.06976887172265153,-0.03377199769578667,-0.06100233622221184,0.06543280572171514,0.26588830636363275,0.019047520196593882
2906,5.0,300.48719,586.0831,0.0,0.0,0.0,0.0,0.028963548650583308,0.0,-0.07925391705450263,-0.06939994229499102,-0.029500767542249076,0.04221976978101686,0.2720968544963687,-0.010146718925403189
2907,5.0,300.6787,1059.1475,0.0,0.0,0.0,0.0,0.02897351546016713,0.0,-0.12799424912454888,-0.10388075099223189,-0.09007941424839601,0.04907804224887565,0.28716385308586573,0.019825006250075782
2908,5.0,299.52974,1032.499,0.0,0.0,0.0,0.0,0.02898348226975095,0.0,-0.10618113269426191,-0.07841875680532873,-0.12925401284137789,0.07214674577907944,0.2552383385375628,0.008665063366525172
2909,5.0,300.22244,643.81351,0.0,0.0,0.0,0.0,0.028993449079334772,0.0,-0.03628366332191876,-0.08106903808489112,-0.07835052859659514,0.07300284281506964,0.26732031246496074,0.00899981222061231
2910,5.0,299.87573,390.5635,0.0,0.0,0.0,0.0,0.029003415888918593,0.0,0.001252651815702109,-0.03595419390615267,-0.08402000943762931,0.11026119700443289,0.23331055259345876,-0.01882630540826168
2911,5.0,299.71603,567.03198,0.0,0.0,0.0,0.0,0.029013382698502413,0.0,-0.057612202011131645,-0.07061786283569042,-0.04413349727138705,0.1147454163819909,0.2168875619251358,-0.023644511270531576
2912,5.0,300.13768,594.03754,0.0,0.0,0.0,0.0,0.029023349508086237,0.0,-0.07844276475319813,-0.07131395146888903,-0.030815862820538872,0.07109197167673134,0.2277923621513558,-0.029718305245968368
2913,5.0,300.18186000000003,412.30089,0.0,0.0,0.0,0.0,0.029033316317670053,0.0,-0.08471303298927542,-0.023413897574271775,-0.01720224484322938,0.061245831366992944,0.2319710460937598,-0.020591952476017483
2914,5.0,299.93748999999997,493.49237999999997,0.0,0.0,0.0,0.0,0.029043283127253877,0.0,-0.04109231727549596,-0.06090048432215985,-0.04801656144411565,0.034865321911439366,0.2596752796654548,-0.016494763225906383
2915,5.0,301.9381,650.1692400000001,0.0,0.0,0.0,0.0,0.029053249936837697,0.0,-0.04206440003718306,-0.07209882816860033,-0.08347198400179343,0.04581134216497745,0.2969025240369977,-0.03331844668602467
2916,5.0,301.25707,765.6598299999999,0.0,0.0,0.0,0.0,0.029063216746421518,0.0,-0.023041068146976377,-0.0918535493122395,-0.11784685334807889,0.05137525247809265,0.28048847023455675,-0.003123840128449017
2917,5.0,300.40373,919.49515,0.0,0.0,0.0,0.0,0.02907318355600534,0.0,-0.1139419597151959,-0.07846711720610153,-0.08709448989805692,0.06310819214354364,0.2890584483878477,0.0028443350883640174
2918,5.0,300.06227,719.64886,0.0,0.0,0.0,0.0,0.029083150365589158,0.0,-0.08918475899310042,-0.043216591043895455,-0.0863539327577196,0.07077784894697983,0.2756332898628877,0.023523557579594376
2919,5.0,300.12407,303.52362999999997,0.0,0.0,0.0,0.0,0.029093117175172982,0.0,-0.05755155797939654,-0.03281649474548587,-0.0018955531273015282,0.07962759355888162,0.27025621476221173,0.007382602847456173
2920,5.0,299.16067999999996,649.9977,0.0,0.0,0.0,0.0,0.029103083984756802,0.0,-0.04340072695806826,-0.06158937077364764,-0.09259297363896501,0.07797268054155443,0.24767551071866978,0.013806025052048587
2921,5.0,299.66972999999996,1051.8767,0.0,0.0,0.0,0.0,0.029113050794340622,0.0,-0.09249120178567091,-0.08014141775084212,-0.14711163392878784,0.06392998154439794,0.24615675014377975,0.005973283618517193
2922,5.0,298.95867999999996,703.47656,0.0,0.0,0.0,0.0,0.02912301760392444,0.0,-0.03359037464186187,-0.07138229822788435,-0.1088666406268009,0.04796886269565816,0.23180620043499078,-0.014106005850154387
2923,5.0,300.31248,469.72399,0.0,0.0,0.0,0.0,0.029132984413508263,0.0,-0.059565007518108545,-0.03474180976399967,-0.04847754768311145,0.055976524533702846,0.23736617731121776,-0.027874348130983977
2924,5.0,300.52943999999997,549.5946799999999,0.0,0.0,0.0,0.0,0.029142951223092083,0.0,-0.08679304394030651,-0.051681619791578745,-0.028588394595704874,0.05919500201884185,0.2288785155960508,-0.010266239880698991
2925,5.0,301.1079,665.1172799999999,0.0,0.0,0.0,0.0,0.029152918032675904,0.0,-0.1029211524850269,-0.05909149446812644,-0.04016639920161496,0.06410095837952204,0.26910984386407377,-0.012106886707606688
2926,5.0,300.42822,737.6302400000001,0.0,0.0,0.0,0.0,0.02916288484225972,0.0,-0.051513679667004354,-0.057457783709141744,-0.11524971095676088,0.07765442172489471,0.2797842006200507,0.017459311459849882
2927,5.0,300.60957,642.8441,0.0,0.0,0.0,0.0,0.029172851651843544,0.0,-0.01953677915312998,-0.08101812936011683,-0.09485364809607622,0.07396697561647213,0.3152172019795157,-0.005726347983021545
2928,5.0,300.53513,395.04138,0.0,0.0,0.0,0.0,0.029182818461427364,0.0,0.005692432171699314,-0.04875660486665225,-0.07701854446563852,0.045745531570982455,0.2695342031384547,-0.003623666472928036
2929,5.0,300.64416,591.45545,0.0,0.0,0.0,0.0,0.029192785271011188,0.0,-0.05982076400234974,-0.06336073257196743,-0.05660619158309615,0.06106769389341215,0.28433022825370874,0.003039886582138447
2930,5.0,298.96812,870.90162,0.0,0.0,0.0,0.0,0.02920275208059501,0.0,-0.1120431391602969,-0.06436430106726193,-0.08832490786548973,0.04109206497622107,0.2581637942262827,-0.010434038150259391
2931,5.0,299.92745,699.33722,0.0,0.0,0.0,0.0,0.029212718890178825,0.0,-0.0929571671356581,-0.05845587964064614,-0.061168004640062036,0.062281517863957234,0.2406213952449828,0.004572870857957215
2932,5.0,300.78434,398.21766,0.0,0.0,0.0,0.0,0.02922268569976265,0.0,-0.014674673217027487,-0.043111300173004054,-0.06326225276824823,0.06887986331016324,0.21770934828623978,-0.029645619750044868
2933,5.0,300.11171,566.28455,0.0,0.0,0.0,0.0,0.02923265250934647,0.0,-0.006517569958834074,-0.06489571021470794,-0.1007230826985943,0.07923316163945422,0.23705504873551175,0.01036434680838139
2934,5.0,300.5088,751.49143,0.0,0.0,0.0,0.0,0.029242619318930293,0.0,-0.08070721458018192,-0.05479068855741994,-0.09293672785464091,0.0924943094237276,0.25381946415753076,-0.021657267419155878
2935,5.0,300.5492,725.05192,0.0,0.0,0.0,0.0,0.029252586128514113,0.0,-0.08134044219042663,-0.08836791627923432,-0.05068932167714654,0.06704441648276874,0.26051504108333273,-0.00901946643545203
2936,5.0,299.92166000000003,634.2031099999999,0.0,0.0,0.0,0.0,0.029262552938097933,0.0,-0.1083013585285119,-0.052568368656344046,-0.03191217815048677,0.0972335202817013,0.25487277816648474,-0.00931368812263945
2937,5.0,300.47536,639.21822,0.0,0.0,0.0,0.0,0.029272519747681754,0.0,-0.08350923614171993,-0.06522100200031174,-0.04557614047226486,0.06962896214884354,0.2751826874109167,0.027261468609247476
2938,5.0,300.14625,629.2549,0.0,0.0,0.0,0.0,0.029282486557265574,0.0,-0.04662415416994575,-0.07524589887944202,-0.06940772405575903,0.08576956508054702,0.2608800644318578,0.00887802634736798
2939,5.0,299.08391,935.6385,0.0,0.0,0.0,0.0,0.029292453366849398,0.0,-0.06149215854580354,-0.08470517422149983,-0.13821340327310086,0.04231267265618566,0.23914765337203575,-0.0073975922614855135
2940,5.0,299.03937,899.3666400000001,0.0,0.0,0.0,0.0,0.029302420176433218,0.0,-0.07455918280966843,-0.08890995644672951,-0.1099158611053509,0.04785214844313936,0.2192072156440678,-0.015827285735781484
2941,5.0,299.28459,431.32492,0.0,0.0,0.0,0.0,0.029312386986017038,0.0,-0.05887721436347864,-0.03401280671455267,-0.03822198543196626,0.06528753909462844,0.24706198778311975,-0.012988831753647886
2942,5.0,299.45772999999997,409.52759,0.0,0.0,0.0,0.0,0.02932235379560086,0.0,-0.061317535023569535,-0.04094882991558486,-0.022219798543423378,0.07761730941348202,0.26337715850830173,-0.007549786276855893
2943,5.0,299.64704,786.68701,0.0,0.0,0.0,0.0,0.02933232060518468,0.0,-0.09478871801641811,-0.08187099311503791,-0.06247349633390403,0.07815829174787282,0.2644603228652017,-0.007444209770761303
2944,5.0,299.03677000000005,728.67367,0.0,0.0,0.0,0.0,0.029342287414768502,0.0,-0.03732237639693176,-0.06748246780575103,-0.11669375446927688,0.06611118172991565,0.2444322896660888,0.013021078438080386
2945,5.0,299.15552,553.93195,0.0,0.0,0.0,0.0,0.029352254224352323,0.0,-0.027159804160463975,-0.07102384985925823,-0.07019782912598634,0.08026651766118852,0.27766158351556475,-0.0023772281094891477
2946,5.0,299.89653,657.548,0.0,0.0,0.0,0.0,0.029362221033936143,0.0,-0.04499109797052566,-0.06995087879836423,-0.08493619524429982,0.08011440956942663,0.25072366086199877,-0.01114517456069309
2947,5.0,300.47132,897.0603699999999,0.0,0.0,0.0,0.0,0.029372187843519967,0.0,-0.12469810601924489,-0.10055999908174922,-0.04742585386106736,0.08621174742418701,0.26951397866645876,-0.016773369513152683
2948,5.0,301.08758,901.216,0.0,0.0,0.0,0.0,0.029382154653103783,0.0,-0.10962727734436989,-0.1044241570208619,-0.059895721204997435,0.05438898454202486,0.24340166232687374,-0.015223179946660883
2949,5.0,299.84377,665.23581,0.0,0.0,0.0,0.0,0.029392121462687604,0.0,-0.0929144231801896,-0.04733054856991146,-0.06197010355172304,0.07763284557726532,0.2702745444565207,0.006752502734970134
2950,5.0,299.79382000000004,422.12447000000003,0.0,0.0,0.0,0.0,0.029402088272271424,0.0,-0.0027903461846107273,-0.048309799062805955,-0.07721515450179244,0.06250665595667665,0.27466516992234175,0.0006278630487827584
2951,5.0,299.66814,289.9191,0.0,0.0,0.0,0.0,0.029412055081855248,0.0,-0.008643359752033192,-0.04134375934081136,-0.038141049040478464,0.0945156065844641,0.24367377064122875,-0.016758783777963183
2952,5.0,299.147,572.64766,0.0,0.0,0.0,0.0,0.029422021891439065,0.0,-0.03414007194036276,-0.05575834442942015,-0.08417217123164651,0.06949656278477673,0.23132278894478178,-0.014921099694347883
2953,5.0,299.56098,823.57651,0.0,0.0,0.0,0.0,0.029431988701022885,0.0,-0.14275962342427787,-0.047066421626594156,-0.060520645230672646,0.07548550213058902,0.26260547736464274,-0.013322489945327386
2954,5.0,299.26864,655.58775,0.0,0.0,0.0,0.0,0.02944195551060671,0.0,-0.09486733305192681,-0.04873696909296436,-0.05567800382899115,0.07906885502973843,0.26159713139512675,-0.0014903307022591887
2955,5.0,299.78109,540.9633,0.0,0.0,0.0,0.0,0.02945192232019053,0.0,-0.06448169622384795,-0.06233001201374324,-0.03762762710880767,0.06435225149707273,0.2878870704772417,-0.010281628109967689
2956,5.0,300.26339,785.82884,0.0,0.0,0.0,0.0,0.029461889129774346,0.0,-0.03609643800819107,-0.07734627413098293,-0.12542963206144087,0.05410736586223124,0.27113928248936375,0.018215272028207382
2957,5.0,299.82962000000003,774.25177,0.0,0.0,0.0,0.0,0.02947185593935817,0.0,-0.04552224975244626,-0.06401023399206823,-0.12582071620253787,0.054395316341899744,0.27143333780088474,0.018288517851436183
2958,5.0,300.25639,820.13675,0.0,0.0,0.0,0.0,0.02948182274894199,0.0,-0.05203869824606966,-0.10006832352372459,-0.09719407141555801,0.04754684504225826,0.27820472609916874,-0.020561697841281583
2959,5.0,300.24585,769.87212,0.0,0.0,0.0,0.0,0.029491789558525813,0.0,-0.12267664167224189,-0.058382497028653856,-0.05296276004576744,0.05290081398765386,0.2759891432980077,-0.0003164082369420617
2960,5.0,299.05136,501.04848,0.0,0.0,0.0,0.0,0.029501756368109634,0.0,-0.06887065489325445,-0.04064742854083886,-0.042788142292110865,0.06745889758192485,0.2586912516983388,-0.012545505450644987
2961,5.0,300.13888,428.77682000000004,0.0,0.0,0.0,0.0,0.02951172317769345,0.0,-0.028229224793007577,-0.039160821431372166,-0.06294739948517464,0.06058287398556415,0.2668699937230178,0.013144088013470487
2962,5.0,299.30325,676.95318,0.0,0.0,0.0,0.0,0.029521689987277274,0.0,-0.035916978243229765,-0.03525523068242036,-0.13460465224694487,0.06824204770346573,0.23975280686175976,0.0013950596589566689
2963,5.0,299.29733,702.41298,0.0,0.0,0.0,0.0,0.029531656796861094,0.0,-0.03699629224974976,-0.06445883020884124,-0.11206088116954789,0.05438233255511835,0.2271059764011148,-0.0026921823122727077
2964,5.0,301.11523,418.84609,0.0,0.0,0.0,0.0,0.029541623606444918,0.0,-0.02523059724831608,-0.04970943283668905,-0.05237872471462765,0.07059556221423953,0.22066673148561078,-0.028156672032847174
2965,5.0,300.6089,638.84316,0.0,0.0,0.0,0.0,0.02955159041602874,0.0,-0.09792101858055209,-0.052243780066309656,-0.044027572105933055,0.07830387349574063,0.23667252655775975,0.006208774999433384
2966,5.0,299.12132,913.93385,0.0,0.0,0.0,0.0,0.029561557225612555,0.0,-0.1099287395141219,-0.10034221515825559,-0.06754211986563824,0.09554534023709091,0.2866489903125527,-0.018922083887214284
2967,5.0,300.49124,874.9979099999999,0.0,0.0,0.0,0.0,0.02957152403519638,0.0,-0.08492964762215362,-0.07768990878314702,-0.10335796460313691,0.07000467933892393,0.3069771076612817,0.007866741547261942
2968,5.0,300.87327,448.46079000000003,0.0,0.0,0.0,0.0,0.0295814908447802,0.0,0.01074171052987429,-0.06378694508078134,-0.08327564855641661,0.07118812100522053,0.29538967071019073,-0.007774396466273192
2969,5.0,301.11357000000004,492.24605,0.0,0.0,0.0,0.0,0.029591457654364023,0.0,-0.004853089226112615,-0.04079445011709876,-0.1039829676623199,0.05140730056550555,0.2912541816195497,0.015440618351870383
2970,5.0,300.00252,676.92354,0.0,0.0,0.0,0.0,0.029601424463947843,0.0,-0.05275040511630966,-0.057151761913939746,-0.0958656853357065,0.05443516442858245,0.27400634457482076,-0.03809236135992337
2971,5.0,300.33285,760.22113,0.0,0.0,0.0,0.0,0.029611391273531663,0.0,-0.1137456729058239,-0.07646180811869292,-0.04088076484011736,0.05360344112374774,0.2362798414815048,-0.02150829837620378
2972,5.0,300.31675,771.20329,0.0,0.0,0.0,0.0,0.029621358083115484,0.0,-0.1084939267100169,-0.05643838622078505,-0.06949422825654633,0.02942891797765807,0.21894094365028877,-0.03921169773214326
2973,5.0,299.68137,537.42613,0.0,0.0,0.0,0.0,0.029631324892699304,0.0,-0.05711675614948494,-0.037955401357156464,-0.06829196546964224,0.06071102985821215,0.23179219731860878,0.0008274487674328352
2974,5.0,299.82825,506.97522999999995,0.0,0.0,0.0,0.0,0.029641291702283128,0.0,-0.010868308023868489,-0.07522280893616322,-0.06801669581497523,0.09737684957459682,0.25659078424103876,-0.028289579035214073
2975,5.0,299.63366,875.4797199999999,0.0,0.0,0.0,0.0,0.029651258511866948,0.0,-0.06911667201753444,-0.08620858912362532,-0.1107987160499819,0.12028885701658588,0.2638882519912427,0.006777933792604984
2976,5.0,299.45212000000004,822.0998900000001,0.0,0.0,0.0,0.0,0.029661225321450768,0.0,-0.11956594360023988,-0.07407716960459743,-0.05625473058715964,0.0979578441421865,0.24568353194957676,-0.009333356219005542
2977,5.0,300.07183,533.40223,0.0,0.0,0.0,0.0,0.029671192131034585,0.0,-0.08669690575756842,-0.05026636879390436,-0.025177685328094074,0.08308375215972792,0.26630448870970674,0.0049395003092157245
2978,5.0,300.04379,546.52324,0.0,0.0,0.0,0.0,0.029681158940618405,0.0,-0.06461705123845643,-0.04662344489487575,-0.05488892214136485,0.07885775653040462,0.28493904970879474,-0.009024380090486972
2979,5.0,299.65237,777.41831,0.0,0.0,0.0,0.0,0.02969112575020223,0.0,-0.06236969190090935,-0.08151550546320402,-0.0924305557274356,0.04540822973194336,0.27652693592108374,-0.006895219416855175
2980,5.0,300.37491,650.72978,0.0,0.0,0.0,0.0,0.02970109255978605,0.0,-0.022645353452922377,-0.056276713048079144,-0.11888353992289188,0.023728785307848776,0.26610019722454475,0.008607332226177553
2981,5.0,300.4342,609.1202099999999,0.0,0.0,0.0,0.0,0.029711059369369866,0.0,-0.04796231406026186,-0.06173179016795335,-0.07546323089339102,0.026867113696827677,0.26244758260155976,-0.007714460595032983
2982,5.0,300.25324,747.64063,0.0,0.0,0.0,0.0,0.02972102617895369,0.0,-0.08781730705564342,-0.07321255721476683,-0.06623421764980833,0.05692141875545664,0.28532666853454974,-0.017965538302560584
2983,5.0,300.62751000000003,647.4556,0.0,0.0,0.0,0.0,0.02973099298853751,0.0,-0.10931203497325791,-0.04247044582925666,-0.04502785159140296,0.10079135954333271,0.26985326546244376,-0.035279199113535865
2984,5.0,300.1363,665.70637,0.0,0.0,0.0,0.0,0.029740959798121334,0.0,-0.06836425275827643,-0.07625581437336293,-0.05773804564705144,0.07353220317081344,0.2511729562213408,-0.02375629302156358
2985,5.0,299.15184,784.00008,0.0,0.0,0.0,0.0,0.029750926607705154,0.0,-0.1006214901905679,-0.06038279559431794,-0.07731216103986623,0.08492761504245301,0.24911321128555977,-0.011863889068624688
2986,5.0,299.65828999999997,811.6863599999999,0.0,0.0,0.0,0.0,0.02976089341728897,0.0,-0.03292035389398597,-0.09341125719447331,-0.12040077049013087,0.09515188813051022,0.24736775626579674,-0.02011082586478398
2987,5.0,299.43477,633.8194,0.0,0.0,0.0,0.0,0.029770860226872795,0.0,-0.04763780956998575,-0.08732346922190543,-0.05770399233769064,0.09560743118996881,0.25494451627356474,-0.017248191682263984
2988,5.0,298.91796,641.44695,0.0,0.0,0.0,0.0,0.029780827036456615,0.0,-0.07784104618131313,-0.05122677891443945,-0.06591602976065564,0.08013940340964333,0.24451617664186776,0.015003415119221786
2989,5.0,299.64612,532.54447,0.0,0.0,0.0,0.0,0.02979079384604044,0.0,-0.08807937203500722,-0.05200894517013325,-0.021791905052693582,0.06610008664132064,0.25695305154929177,-0.006144098637600324
2990,5.0,300.83317,483.00609000000003,0.0,0.0,0.0,0.0,0.02980076065562426,0.0,-0.04379127002361186,-0.05520523653108265,-0.04782528515648816,0.04935058119452315,0.30024692824456467,0.003955856769187666
2991,5.0,301.3011,692.55817,0.0,0.0,0.0,0.0,0.029810727465208076,0.0,-0.07703229528274563,-0.048386766553652046,-0.08510132967934733,0.07167886741290343,0.28720253897468373,-0.007648143578638003
2992,5.0,300.89658,820.84482,0.0,0.0,0.0,0.0,0.0298206942747919,0.0,-0.035964346672154666,-0.08553638482178393,-0.12801559830415588,0.05117218195930115,0.27877946182089075,-0.007219533618762493
2993,5.0,299.43719,664.6139999999999,0.0,0.0,0.0,0.0,0.02983066108437572,0.0,-0.08267879358501162,-0.04548008334953475,-0.07386718162737323,0.029449063416146268,0.26190105576262174,0.0012521902802815586
2994,5.0,298.87507999999997,681.96501,0.0,0.0,0.0,0.0,0.029840627893959543,0.0,-0.08072416625435493,-0.07817702775547192,-0.048399139350623156,0.07033678928445064,0.25791100859133476,-0.016883535130275185
2995,5.0,299.8916,639.0586900000001,0.0,0.0,0.0,0.0,0.029850594703543364,0.0,-0.08648017358767861,-0.06124168008133324,-0.04653603079549866,0.05161563289206635,0.27122383821020873,-0.022142013359746582
2996,5.0,299.82977,411.61696,0.0,0.0,0.0,0.0,0.02986056151312718,0.0,-0.028170947713506075,-0.04556490251540575,-0.05138542854884695,0.09354811789873041,0.23929845538441874,0.012331485751272887
2997,5.0,299.08033,360.26013,0.0,0.0,0.0,0.0,0.029870528322711004,0.0,0.008462480221031772,-0.06248992314452524,-0.05548264110371035,0.09527658882031723,0.21533855583476078,-0.006639041116597343
2998,5.0,300.18939,698.31519,0.0,0.0,0.0,0.0,0.029880495132294824,0.0,-0.015871049020850587,-0.08142193384296922,-0.11497739999238588,0.10730331731251289,0.2534179131429008,-0.0100131047757915
2999,5.0,300.75737000000004,766.37857,0.0,0.0,0.0,0.0,0.029890461941878648,0.0,-0.08474940360161493,-0.08121626129792092,-0.06699428289432094,0.099010301954806,0.26703898357469574,-0.003999056585876157
3000,5.0,301.44399,776.26727,0.0,0.0,0.0,0.0,0.02990042875146247,0.0,-0.0962072823419195,-0.07130177625568744,-0.06845680707541084,0.06289374383937925,0.24885408270498574,0.005345536070113334
3001,5.0,299.87012000000004,887.15223,0.0,0.0,0.0,0.0,0.029910395561046285,0.0,-0.0993598651333052,-0.07289776067369882,-0.0974144999218126,0.037367181303103666,0.2737240226994577,0.02084709797044838
3002,5.0,299.94628,800.44275,0.0,0.0,0.0,0.0,0.02992036237063011,0.0,-0.05995804621864845,-0.07774514611234852,-0.10561142269303589,0.040633821605245965,0.2870558000952017,0.005474442558435415
3003,5.0,300.32857,642.59808,0.0,0.0,0.0,0.0,0.02993032918021393,0.0,-0.027542051747438876,-0.06232092113384603,-0.10547079371165691,0.04483891793800666,0.2716190361467118,0.004371283939962136
3004,5.0,300.47114,549.15075,0.0,0.0,0.0,0.0,0.02994029598979775,0.0,-0.033294864303197266,-0.05079283733386275,-0.08284041406871231,0.04332001246835236,0.2315768310098538,-0.0016637234295967182
3005,5.0,299.31187,531.58838,0.0,0.0,0.0,0.0,0.02995026279938157,0.0,-0.09267600847140992,-0.042260268374263756,-0.026653317925727674,0.057058857012270744,0.23610587657183577,-0.0031291035574184767
3006,5.0,299.78341,593.39118,0.0,0.0,0.0,0.0,0.029960229608965386,0.0,-0.1055791912073549,-0.049902242171717855,-0.024894667349912376,0.0975440409073473,0.2878273495163477,-0.03790384516556826
3007,5.0,299.85429,694.85195,0.0,0.0,0.0,0.0,0.02997019641854921,0.0,-0.07641504460007773,-0.07340286990154923,-0.06139972784518135,0.08958163081876862,0.2848247652300157,-0.008674632703119592
3008,5.0,298.73282,683.4868799999999,0.0,0.0,0.0,0.0,0.02998016322813303,0.0,-0.05580346648287335,-0.06255173444037554,-0.08940774494260742,0.08722916502184833,0.26666802258058475,-0.0011027888835117888
3009,5.0,298.7845,786.68142,0.0,0.0,0.0,0.0,0.029990130037716854,0.0,-0.022102402373587276,-0.06924036654999215,-0.14778873830811287,0.06288186550845694,0.2293745927125098,0.026026226558088575
3010,5.0,299.09202999999997,793.4483700000001,0.0,0.0,0.0,0.0,0.030000096847300674,0.0,-0.05241920405612265,-0.09523206661092322,-0.09353722039390491,0.06168860139569095,0.26124098411747776,-0.005180707332621005
3011,5.0,299.12485,674.9680400000001,0.0,0.0,0.0,0.0,0.03001006365688449,0.0,-0.09498324177061611,-0.06314989346465923,-0.047040293959515554,0.049902243184967957,0.2411100249732068,-0.007742572104482373
3012,5.0,299.98036,517.92214,0.0,0.0,0.0,0.0,0.030020030466468315,0.0,-0.08590406085907072,-0.06054715995928944,-0.010984177225803889,0.04217095645744936,0.24599557245037276,-0.020025886122151084
3013,5.0,298.69315,471.19420999999994,0.0,0.0,0.0,0.0,0.030029997276052135,0.0,-0.06549027828063723,-0.06395289011590884,-0.013788106737280188,0.045871830156197155,0.26907215096035375,-0.027159268151161074
3014,5.0,299.32363,449.91702999999995,0.0,0.0,0.0,0.0,0.03003996408563596,0.0,-0.03279728757659027,-0.047603249635574954,-0.05636300649284565,0.07888449113429312,0.2949362514229417,-0.016736100147974484
3015,5.0,300.28618,411.71474,0.0,0.0,0.0,0.0,0.03004993089521978,0.0,0.016819326484688285,-0.07622107712018462,-0.06574925082069584,0.07904818472769842,0.29825053170503574,-0.027913178914566274
3016,5.0,299.67438,494.90252000000004,0.0,0.0,0.0,0.0,0.030059897704803596,0.0,-0.04233950554533386,-0.042565304277118465,-0.06553319752837303,0.03798309652213976,0.25205830376121774,0.0007898261528722722
3017,5.0,299.24596,745.09762,0.0,0.0,0.0,0.0,0.03006986451438742,0.0,-0.10873544500385289,-0.059619126219199646,-0.058136498142875644,0.08800269636018991,0.2604052858325008,-0.019628225987905083
3018,5.0,300.13711,833.23136,0.0,0.0,0.0,0.0,0.03007983132397124,0.0,-0.10758525415283789,-0.08725444763834352,-0.05844182484850904,0.06926389320406404,0.2871029972848597,-0.005471760384095704
3019,5.0,300.58522,815.3195,0.0,0.0,0.0,0.0,0.030089798133555064,0.0,-0.08963524188155961,-0.07725531162975563,-0.08094621697401963,0.09257059195750611,0.2910060772000637,-0.03236117460104927
3020,5.0,300.89232000000004,769.5629299999999,0.0,0.0,0.0,0.0,0.030099764943138884,0.0,-0.04693746528636716,-0.08034097229178663,-0.10664947715548388,0.07070538535282823,0.27072982812395374,0.031729128440421174
3021,5.0,300.44293999999996,588.24572,0.0,0.0,0.0,0.0,0.0301097317527227,0.0,-0.02120138796066408,-0.051387439850295445,-0.1062231825734119,0.046575398601633955,0.25629930258477174,0.012385512246604887
3022,5.0,301.09251,604.9578,0.0,0.0,0.0,0.0,0.030119698562306525,0.0,-0.06441012125003404,-0.052176507352420354,-0.06730543680127944,0.07505673724477323,0.2773241205697597,0.026633548403026577
3023,5.0,300.95456,572.59525,0.0,0.0,0.0,0.0,0.030129665371890345,0.0,-0.10001260186097531,-0.04806744382438736,-0.025974613624494772,0.06048985965288435,0.25693166183968075,-0.022379870780971277
3024,5.0,299.26698999999996,600.09046,0.0,0.0,0.0,0.0,0.03013963218147417,0.0,-0.10059923212562122,-0.04232090835299846,-0.03949237408934386,0.07056161124313884,0.24974106157752374,-0.01058168084883059
3025,5.0,299.47738,536.4870900000001,0.0,0.0,0.0,0.0,0.03014959899105799,0.0,-0.07178253708363483,-0.03616492763545046,-0.05513121658477745,0.04943991540283975,0.24646863865706076,-0.03093345961389477
3026,5.0,299.87567,695.15364,0.0,0.0,0.0,0.0,0.030159565800641806,0.0,-0.03083519259269657,-0.07212911624058953,-0.1083450397403229,0.057235294252183745,0.3153126096089317,-0.019744705166400683
3027,5.0,299.25136000000003,651.4532,0.0,0.0,0.0,0.0,0.03016953261022563,0.0,-0.041557228845379164,-0.04260853763238526,-0.11385973446958089,0.06565567920046103,0.2807335754337467,-0.004431770816606726
3028,5.0,299.82189,678.7472799999999,0.0,0.0,0.0,0.0,0.03017949941980945,0.0,-0.07774719186430043,-0.048136738985476255,-0.08043829496389163,0.06573657607519494,0.27275791912661074,0.026258087565221477
3029,5.0,300.17124,814.36561,0.0,0.0,0.0,0.0,0.03018946622939327,0.0,-0.1046442450750829,-0.06839271090058503,-0.07450985880805053,0.08706455646360273,0.24945721982701077,0.013154625814510488
3030,5.0,300.91488,865.1382699999999,0.0,0.0,0.0,0.0,0.030199433038977094,0.0,-0.1009541655296504,-0.07852410948447622,-0.08350215453677101,0.09296153120383881,0.26866370984504373,0.008293124180767632
3031,5.0,300.78065,723.22257,0.0,0.0,0.0,0.0,0.03020939984856091,0.0,-0.04994701668038675,-0.0964069544198756,-0.07348763029891443,0.07365475881015873,0.2662916609634407,-0.025360123035099272
3032,5.0,300.78237,603.66529,0.0,0.0,0.0,0.0,0.03021936665814473,0.0,-0.017641678239348084,-0.056927323977039444,-0.10893017140807089,0.059319011672080646,0.2406567475409718,-0.01101208821305849
3033,5.0,299.91096,565.35077,0.0,0.0,0.0,0.0,0.03022933346772855,0.0,-0.03356824829942817,-0.05181857675459536,-0.08646569323049952,0.03985502440613466,0.27690458436585474,-0.008046051249883432
3034,5.0,300.05818,458.64799000000005,0.0,0.0,0.0,0.0,0.030239300277312375,0.0,-0.07425448431909702,-0.03649383469741106,-0.028669217503181472,0.05166857824954165,0.3071263087385067,-0.005775369022859545
3035,5.0,299.19194,556.96032,0.0,0.0,0.0,0.0,0.030249267086896195,0.0,-0.06714014632571652,-0.05539299278786275,-0.04676889086723016,0.04047029215835686,0.23537667087236877,-0.041659159778938956
3036,5.0,299.14952,687.2645,0.0,0.0,0.0,0.0,0.03025923389648001,0.0,-0.09670670622345881,-0.06762781751934593,-0.04457672224937996,0.06751024808374273,0.2534710175806417,-0.008375432918190871
3037,5.0,298.34906,650.3793099999999,0.0,0.0,0.0,0.0,0.030269200706063835,0.0,-0.038545600288654565,-0.06606105624746864,-0.09309241474575601,0.08913469937190992,0.2256283132502808,-0.026833752437285176
3038,5.0,300.45912000000004,776.12316,0.0,0.0,0.0,0.0,0.030279167515647656,0.0,-0.04402034763272006,-0.07545369114369953,-0.1164480210550249,0.11070256874799289,0.26998925375836474,-0.0015038332730917888
3039,5.0,300.22444,919.6749599999999,0.0,0.0,0.0,0.0,0.03028913432523148,0.0,-0.059356640741044346,-0.0962555829609364,-0.12394600086751788,0.06120591741905374,0.26936709793196273,0.008169597239876472
3040,5.0,300.06307999999996,880.45561,0.0,0.0,0.0,0.0,0.0302991011348153,0.0,-0.1101507122135289,-0.06792260541068923,-0.08956320182594982,0.06048908654305805,0.26464436961336574,0.04196015686689506
3041,5.0,300.28444,761.33547,0.0,0.0,0.0,0.0,0.030309067944399117,0.0,-0.10311263648892491,-0.07894645543090852,-0.04936788345323075,0.03997979703669876,0.27370965481303977,0.008260973957744652
3042,5.0,300.0087,702.35404,0.0,0.0,0.0,0.0,0.03031903475398294,0.0,-0.09041101452912241,-0.07719778435532813,-0.045889292508420554,0.06762376755869623,0.28684514539941175,0.002280070090525398
3043,5.0,299.75768,683.74028,0.0,0.0,0.0,0.0,0.03032900156356676,0.0,-0.05694740963377174,-0.06292888335284723,-0.08796368015183932,0.08617389949320171,0.22324272734734177,-0.014269421813032285
3044,5.0,299.65871,644.92134,0.0,0.0,0.0,0.0,0.030338968373150584,0.0,-0.03136763322874437,-0.07678511900035122,-0.08788723144504441,0.03457719309975326,0.24854313651429774,-0.02874167603108257
3045,5.0,298.29316,541.70477,0.0,0.0,0.0,0.0,0.030348935182734404,0.0,-0.03826404341711706,-0.055766192051444646,-0.07063448723008113,0.09185727300635702,0.26644579656865275,-0.007114693644165593
3046,5.0,299.01534,653.73318,0.0,0.0,0.0,0.0,0.03035890199231822,0.0,-0.08666884480929903,-0.06092929000925274,-0.05112042919719355,0.06841779795981093,0.3006532111371617,-0.01812677983072388
3047,5.0,298.88788,736.1731599999999,0.0,0.0,0.0,0.0,0.030368868801902045,0.0,-0.08962224796227722,-0.08395947787665532,-0.050196530530761854,0.07324563071128093,0.28088036497573377,-0.019397411668125482
3048,5.0,299.57334,601.1591099999999,0.0,0.0,0.0,0.0,0.030378835611485865,0.0,-0.07358477767875213,-0.05204599060703936,-0.057106591224481744,0.07482811154520963,0.24684796909699774,6.851567082672024e-06
3049,5.0,300.1676,783.28605,0.0,0.0,0.0,0.0,0.03038880242106969,0.0,-0.01892749666924848,-0.11053567632402189,-0.10863622755406088,0.08208013097542821,0.2776220566291637,-0.013571687661671286
3050,5.0,300.78808,827.25124,0.0,0.0,0.0,0.0,0.03039876923065351,0.0,-0.03859576224810517,-0.07948458647951794,-0.13338337176891388,0.08135338240745371,0.28461585332439776,0.007755416772025043
3051,5.0,299.75657,620.4406299999999,0.0,0.0,0.0,0.0,0.030408736040237326,0.0,-0.05960781429508324,-0.07732907826353583,-0.051661567572099755,0.07576510950893413,0.25161768182273175,-0.005073706906160885
3052,5.0,300.50664,700.9142400000001,0.0,0.0,0.0,0.0,0.03041870284982115,0.0,-0.11432694409069089,-0.05398018270967925,-0.04475330033105686,0.054133864378846444,0.26723242315128676,0.03595451611968447
3053,5.0,300.09739,791.61505,0.0,0.0,0.0,0.0,0.03042866965940497,0.0,-0.12012430520034588,-0.05879448451931384,-0.06171241479954114,0.07204312778410313,0.29208094303864474,-0.002199479926596768
3054,5.0,298.80036,599.76195,0.0,0.0,0.0,0.0,0.030438636468988794,0.0,-0.06862257580502094,-0.07615335857625133,-0.037536721349585966,0.07739635705692573,0.2981335114509867,0.0005812135714663135
3055,5.0,299.23917,671.42311,0.0,0.0,0.0,0.0,0.030448603278572614,0.0,-0.025999378470188874,-0.06580066313076985,-0.1122958234702349,0.05805575325565675,0.2501557443134497,-0.03814500172911856
3056,5.0,299.40247,783.14728,0.0,0.0,0.0,0.0,0.03045857008815643,0.0,-0.037209102128502466,-0.08189363621502262,-0.11895447756239289,0.06965209363537643,0.23778929028797577,0.01055469698541749
3057,5.0,300.31552999999997,500.61427000000003,0.0,0.0,0.0,0.0,0.03046853689774025,0.0,-0.07239980195180414,-0.052700423515376855,-0.027074011261246873,0.04308844125074805,0.26125541279890174,-0.02246857474772568
3058,5.0,300.56699,517.07059,0.0,0.0,0.0,0.0,0.030478503707324075,0.0,-0.09541610829283671,-0.03551237025304806,-0.026248068548232674,0.05303242808289315,0.27678054228861276,-0.0017774310650937885
3059,5.0,300.54524,682.29711,0.0,0.0,0.0,0.0,0.030488470516907895,0.0,-0.1158999236784319,-0.06451760175439153,-0.026983756008589373,0.04195136590902746,0.26191832154432576,-0.012904508067075788
3060,5.0,299.38265,717.18032,0.0,0.0,0.0,0.0,0.030498437326491712,0.0,-0.061992529816186345,-0.06593241300152253,-0.09007996748295061,0.06245880319420394,0.25149086344021576,-0.004798489433874035
3061,5.0,300.9363,802.1895400000001,0.0,0.0,0.0,0.0,0.030508404136075532,0.0,-0.036324726295471364,-0.07733403710952523,-0.1301868210159389,0.10981015885491889,0.27087890761116673,-1.152446143087579e-05
3062,5.0,299.88214,705.37562,0.0,0.0,0.0,0.0,0.030518370945659356,0.0,-0.03113852623538327,-0.08778530253798482,-0.09549274546415022,0.100602067199401,0.2741188153359207,-0.02014088392900048
3063,5.0,298.76284,463.55215999999996,0.0,0.0,0.0,0.0,0.030528337755243176,0.0,-0.06489219727661123,-0.05425011354956936,-0.02176597091638408,0.07662404161870412,0.2312346564510838,-0.0037231143357927764
3064,5.0,298.89607,553.18164,0.0,0.0,0.0,0.0,0.030538304564827,0.0,-0.07862092249178092,-0.07029037331061973,-0.019242108798798282,0.05294086776410686,0.25524733619845075,-0.018220426431466086
3065,5.0,299.77662999999995,805.62321,0.0,0.0,0.0,0.0,0.03054827137441082,0.0,-0.10909733740956888,-0.08001727738834043,-0.055774723617286644,0.027198413042274373,0.3006913397384247,-0.010944401079878291
3066,5.0,300.6362,725.07921,0.0,0.0,0.0,0.0,0.030558238183994637,0.0,-0.04910121527866265,-0.06398485106381313,-0.1073199042166499,0.05216963751674235,0.3093398751719687,-0.021884775503859182
3067,5.0,299.56147999999996,511.42798,0.0,0.0,0.0,0.0,0.03056820499357846,0.0,0.022899276967732682,-0.08423539195838592,-0.094125220572686,0.02438105391397268,0.2820146275351767,-0.027424866333623576
3068,5.0,300.02952,575.95347,0.0,0.0,0.0,0.0,0.03057817180316228,0.0,-0.04229137717883396,-0.04367378266126676,-0.08911031246850311,0.07141506470961813,0.25584608594754277,0.01011909296540172
3069,5.0,301.48919,821.62372,0.0,0.0,0.0,0.0,0.030588138612746105,0.0,-0.09439771696182932,-0.061902376901788944,-0.09345300005884301,0.08745444192983141,0.27242732601648373,0.007924560739043253
3070,5.0,300.83617000000004,679.68767,0.0,0.0,0.0,0.0,0.030598105422329925,0.0,-0.12637335293957888,-0.05527292771726324,-0.024961794155787274,0.0978832891998285,0.27389704528653375,-0.009196071570906602
3071,5.0,299.05786,529.34676,0.0,0.0,0.0,0.0,0.030608072231913742,0.0,-0.07060349190952214,-0.03412196313457557,-0.05618274322055505,0.08893454194715592,0.26547172885001974,0.0035570072819742864
3072,5.0,300.17061,664.60911,0.0,0.0,0.0,0.0,0.030618039041497565,0.0,-0.03969746401558467,-0.08795014921000392,-0.07437696193818463,0.06611815795685415,0.2623189505013648,-0.015720064623449586
3073,5.0,300.35955,777.2665400000001,0.0,0.0,0.0,0.0,0.030628005851081386,0.0,-0.023518973636141978,-0.07594400388033963,-0.13680664736426487,0.06802367406841393,0.2868224181996687,-0.016582728533337882
3074,5.0,300.49809,849.9336,0.0,0.0,0.0,0.0,0.03063797266066521,0.0,-0.07260761650756384,-0.08700948936041802,-0.09874148670327601,0.05574774785987435,0.25008011532598573,-0.013614455935142185
3075,5.0,300.56837,721.22612,0.0,0.0,0.0,0.0,0.03064793947024903,0.0,-0.07947814322213202,-0.06487343593775964,-0.07488315129064163,0.03694412304185107,0.2415218402113498,0.012264822000693688
3076,5.0,300.05312000000004,369.87915,0.0,0.0,0.0,0.0,0.030657906279832847,0.0,-0.08536414243728492,-0.016419505087978983,-0.010650377179110389,0.04276588321391406,0.2610554276266647,-0.004064664833826186
3077,5.0,300.3577,613.91806,0.0,0.0,0.0,0.0,0.03066787308941667,0.0,-0.07159201769383203,-0.059205191261847444,-0.055818550737112047,0.06516428127296384,0.31261069715727374,0.009213429153069662
3078,5.0,300.59387999999996,978.7105300000001,0.0,0.0,0.0,0.0,0.03067783989900049,0.0,-0.06890877234876633,-0.09442544961706631,-0.13416933973898287,0.07131795380678403,0.3172878900163767,-0.04411923577622956
3079,5.0,299.05102999999997,705.75118,0.0,0.0,0.0,0.0,0.030687806708584314,0.0,-0.032399384262320266,-0.04820169946263736,-0.13392965542782787,0.07650730203493283,0.29688329255009976,-0.004905087093419405
3080,5.0,298.6734,478.31088,0.0,0.0,0.0,0.0,0.030697773518168135,0.0,-0.019507983598538083,-0.06259439733583604,-0.06329218214970203,0.0913246945682956,0.27532773416273176,-0.025686769536086774
3081,5.0,299.74368,579.5670200000001,0.0,0.0,0.0,0.0,0.03070774032775195,0.0,-0.06563589346575834,-0.043173559325398556,-0.06736444747385334,0.08488199953620112,0.2635761810929438,0.007902048246996442
3082,5.0,299.92089,600.1462700000001,0.0,0.0,0.0,0.0,0.030717707137335775,0.0,-0.08227451996736293,-0.06582438230236073,-0.034330578157914265,0.08088715158594033,0.24690767992539076,-0.01810108887443838
3083,5.0,300.08247,675.41197,0.0,0.0,0.0,0.0,0.030727673946919595,0.0,-0.04724718747093436,-0.09021917994068981,-0.06784200643148473,0.05836967637513854,0.22626131085275275,-0.01141499698282249
3084,5.0,300.2916,735.80943,0.0,0.0,0.0,0.0,0.030737640756503416,0.0,-0.046338984048551655,-0.07361967097244583,-0.1037090354977849,0.07881962488939133,0.24927262592379276,-0.00949731173756169
3085,5.0,300.44989,608.18404,0.0,0.0,0.0,0.0,0.030747607566087232,0.0,-0.02708405763598837,-0.09028636247532022,-0.06750234270646253,0.08142491279826322,0.28269146846947574,-0.01989357389759288
3086,5.0,301.26339,612.99037,0.0,0.0,0.0,0.0,0.030757574375671056,0.0,-0.07189986941871464,-0.060959793903513235,-0.05347410380148315,0.07343027933000433,0.2621287533250937,0.015542544219179685
3087,5.0,300.34832,978.47188,0.0,0.0,0.0,0.0,0.030767541185254876,0.0,-0.13722046883760589,-0.08460744320960452,-0.07560310601669563,0.06011795633618034,0.26153839328682976,-0.003316018309990527
3088,5.0,300.60168999999996,1103.1281,0.0,0.0,0.0,0.0,0.030777507994838697,0.0,-0.16648904910618983,-0.08417070404550171,-0.0846636329939,0.06597320847704874,0.26240508689236575,0.034913490807943266
3089,5.0,299.12896,797.65587,0.0,0.0,0.0,0.0,0.03078747480442252,0.0,-0.07041993253465624,-0.06052611880771285,-0.11152141668380688,0.06590193241201435,0.2889500812896527,-0.003321673664098667
3090,5.0,298.55221,701.0041200000001,0.0,0.0,0.0,0.0,0.030797441614006337,0.0,-0.029249541299204974,-0.08374953346918541,-0.1000886726254829,0.057290710926652944,0.28680792872323874,-0.013290449963915287
3091,5.0,298.95207999999997,696.6719099999999,0.0,0.0,0.0,0.0,0.030807408423590157,0.0,-0.04477080726628466,-0.06204367462823394,-0.10495638690088889,0.03564136003052837,0.26804000374598874,-0.02505941472342168
3092,5.0,300.29079,587.10985,0.0,0.0,0.0,0.0,0.030817375233173978,0.0,-0.051073993971610755,-0.062105263009062245,-0.06528747829962245,0.09151767007634082,0.27300625659361977,0.02047193502817268
3093,5.0,299.53261000000003,506.59983,0.0,0.0,0.0,0.0,0.030827342042757805,0.0,-0.059037280521525945,-0.06721562028591524,-0.027740798728053673,0.07834675322672252,0.2988838738125417,0.0027599047065563873
3094,5.0,300.05201,584.1269900000001,0.0,0.0,0.0,0.0,0.030837308852341625,0.0,-0.07903596391824233,-0.04789777002889186,-0.05062628434867525,0.1100487387234649,0.2599706015396007,0.02040780338959338
3095,5.0,299.7389,600.23418,0.0,0.0,0.0,0.0,0.030847275661925442,0.0,-0.03056137492542287,-0.07474365816262472,-0.07715116978447763,0.054753376635737545,0.23003515071770178,0.0024826083490393676
3096,5.0,300.73744,947.05522,0.0,0.0,0.0,0.0,0.030857242471509262,0.0,-0.06026843106878104,-0.12569245900487988,-0.10192024377124491,0.08336667489240022,0.26388426991834973,-0.025916527036012077
3097,5.0,301.22492,1178.6301,0.0,0.0,0.0,0.0,0.030867209281093082,0.0,-0.13445035452171689,-0.08304907063530513,-0.14077468674337987,0.05880465147081724,0.28953936728281077,-0.017172054043249785
3098,5.0,300.29017000000005,977.56426,0.0,0.0,0.0,0.0,0.03087717609067691,0.0,-0.12640503727020588,-0.1082054341415449,-0.06254465283542665,0.04679111346842336,0.28139064785859474,-0.023723514380828578
3099,5.0,300.01044,479.27230999999995,0.0,0.0,0.0,0.0,0.03088714290026073,0.0,-0.08552938225034282,-0.021993565127345877,-0.03816386844598056,0.023697506277261776,0.2779530854368337,0.007435687932120264
3100,5.0,300.20034,571.13815,0.0,0.0,0.0,0.0,0.03089710970984455,0.0,-0.06625425872353623,-0.04701353706412486,-0.06034393947948314,0.07975916408436663,0.2840737746533987,0.012582691729314989
3101,5.0,301.17417,690.69347,0.0,0.0,0.0,0.0,0.030907076519428367,0.0,-0.03481397647587196,-0.07095329117529463,-0.10418629655988691,0.09010788961595632,0.3200364221051357,-0.005981562175809224
3102,5.0,301.18287000000004,515.12176,0.0,0.0,0.0,0.0,0.030917043329012187,0.0,-0.016388904934958985,-0.03750721449342387,-0.1026880340345199,0.07699079863815023,0.2875699839909477,-0.023800574077433776
3103,5.0,299.97959,484.78416,0.0,0.0,0.0,0.0,0.030927010138596014,0.0,-0.021849960230423182,-0.07295585638143243,-0.05255646296766905,0.06158688831090265,0.27950304398230275,-0.032405090886883474
3104,5.0,299.35177000000004,658.42592,0.0,0.0,0.0,0.0,0.030936976948179835,0.0,-0.1089011721902089,-0.04164475237576706,-0.049599117258551755,0.05894760890092604,0.2964756113723647,0.0047572646442804655
3105,5.0,300.27366,947.4417699999999,0.0,0.0,0.0,0.0,0.030946943757763655,0.0,-0.12560791341653588,-0.07571955479768823,-0.08667117123152861,0.07089193584198934,0.2912737272139787,0.008001757427061973
3106,5.0,299.49609,953.40439,0.0,0.0,0.0,0.0,0.030956910567347472,0.0,-0.10931815500386188,-0.06820236275004914,-0.11229061536472089,0.05539571640413155,0.2664144162130558,0.026230085385457874
3107,5.0,299.79811,773.31812,0.0,0.0,0.0,0.0,0.030966877376931292,0.0,-0.02919226125780187,-0.06986075324171953,-0.13601638321377185,0.058180841007001945,0.22574644807943978,0.016412878432324984
3108,5.0,299.68095,502.78172,0.0,0.0,0.0,0.0,0.030976844186515116,0.0,-0.02139662706943268,-0.04052920758542136,-0.09090725376559741,0.1000916637397781,0.2618481033123957,0.01109879506386579
3109,5.0,298.53749,560.75788,0.0,0.0,0.0,0.0,0.03098681099609894,0.0,-0.03258591448647937,-0.08117669388151592,-0.056693785027740945,0.08965644312665201,0.27884478605483776,-0.03018912102418427
3110,5.0,298.80699,757.20688,0.0,0.0,0.0,0.0,0.03099677780568276,0.0,-0.13286367579262387,-0.04381712816616386,-0.053491179092168356,0.08882439963478572,0.2803926573051007,-0.016640673266806585
3111,5.0,299.8527,586.7785200000001,0.0,0.0,0.0,0.0,0.031006744615266577,0.0,-0.09979540055628922,-0.04862863137902226,-0.029941987298294073,0.049611846719558046,0.27073089203655876,-0.021684730549866277
3112,5.0,300.24276000000003,347.39726,0.0,0.0,0.0,0.0,0.031016711424850397,0.0,-0.035129967638807866,-0.039883334613928664,-0.030586790277681176,0.07297839612990692,0.2954268873863637,-0.006545568085597274
3113,5.0,300.69917999999996,544.83921,0.0,0.0,0.0,0.0,0.03102667823443422,0.0,-0.001030560160733369,-0.05858489170962864,-0.10600206100408889,0.06872671663704884,0.3045598475602167,-0.008338441082215061
3114,5.0,301.13751,896.6908199999999,0.0,0.0,0.0,0.0,0.03103664504401804,0.0,-0.06904624606933393,-0.09117156613368302,-0.11235381177345789,0.039894806631560864,0.25929426723035176,-0.02280382374206218
3115,5.0,300.59164,836.2199,0.0,0.0,0.0,0.0,0.031046611853601858,0.0,-0.06979617982609664,-0.08612337580346542,-0.0982704125462846,0.06708138085966683,0.23149742259951678,-0.013366210673892287
3116,5.0,300.54075,607.52979,0.0,0.0,0.0,0.0,0.031056578663185678,0.0,-0.10511857784439589,-0.050226049545925154,-0.02932926179057277,0.09193384938266451,0.27966079689037177,-0.023145367046019875
3117,5.0,300.1972,523.06827,0.0,0.0,0.0,0.0,0.031066545472769498,0.0,-0.08639459651073282,-0.03975660033117096,-0.03284849521014407,0.0994290670753849,0.29149326811314574,0.014535423269034587
3118,5.0,299.12703,512.28979,0.0,0.0,0.0,0.0,0.031076512282353325,0.0,-0.044379170903883165,-0.06283440487377294,-0.04850972850628746,0.06181243575666244,0.2634013650531908,-0.0038873078667974164
3119,5.0,299.21531,819.7228200000001,0.0,0.0,0.0,0.0,0.031086479091937146,0.0,-0.04018875352532117,-0.06798195754854684,-0.14100455266106587,0.044052680443411055,0.25929071072250076,0.02296862684432698
3120,5.0,299.65582,763.00579,0.0,0.0,0.0,0.0,0.031096445901520962,0.0,-0.057254636183342644,-0.055657877642254855,-0.11902219306657588,0.06154154030267714,0.26810566235246874,0.0033159885204375873
3121,5.0,299.47348,420.67672000000005,0.0,0.0,0.0,0.0,0.031106412711104783,0.0,-0.03562586642324926,-0.045130813000314456,-0.047118540171987855,0.06504206608565213,0.2732759128427327,-0.014114011539194489
3122,5.0,300.0427,456.00579000000005,0.0,0.0,0.0,0.0,0.031116379520688603,0.0,-0.09319278426091172,-0.042584409107753955,-0.002837179921457857,0.04652426594858755,0.26045880570278274,-0.04152901692284486
3123,5.0,299.82804,817.29921,0.0,0.0,0.0,0.0,0.03112634633027243,0.0,-0.13543947913683588,-0.06178766280496754,-0.051211411963422854,0.05919040794288845,0.23555122346709578,-0.012083922407340289
3124,5.0,300.35164,759.1383900000001,0.0,0.0,0.0,0.0,0.03113631313985625,0.0,-0.0891903034976476,-0.06709866184012234,-0.07447015054988163,0.10210234507921691,0.31298000655372166,-0.007725440477091613
3125,5.0,300.64273,468.83457000000004,0.0,0.0,0.0,0.0,0.031146279949440067,0.0,0.003983686595109256,-0.06495138425470254,-0.08154630319999352,0.1191309451998089,0.3029440986857547,-0.005564824062055375
3126,5.0,299.39874,408.50927,0.0,0.0,0.0,0.0,0.031156246759023887,0.0,0.0014637227546331886,-0.059677953493505444,-0.06596238696598074,0.09567344342073371,0.27480944660408074,0.0002776044058124218
3127,5.0,300.51415,654.24087,0.0,0.0,0.0,0.0,0.031166213568607708,0.0,-0.03533450129074377,-0.07679376101045414,-0.08674462477102791,0.05500939555175465,0.2558650438569138,-0.015487521698999385
3128,5.0,300.49832999999995,736.72791,0.0,0.0,0.0,0.0,0.031176180378191535,0.0,-0.1030771626029239,-0.07098790481196074,-0.04988182315570265,0.06636135317960563,0.2990340374773617,-0.0038682184375634365
3129,5.0,298.8973,685.00764,0.0,0.0,0.0,0.0,0.031186147187775355,0.0,-0.07733160834903552,-0.060899907782852945,-0.06999370178734053,0.05779253013142865,0.2887342894158557,-0.013907211246784887
3130,5.0,299.48278,738.32903,0.0,0.0,0.0,0.0,0.031196113997359172,0.0,-0.06497142634168053,-0.07128794640507252,-0.08817421528411751,0.02991959041808367,0.27752725694980773,-0.01074182097413519
3131,5.0,299.3014,645.7505,0.0,0.0,0.0,0.0,0.031206080806942992,0.0,-0.02143865161733018,-0.07244807825281864,-0.1024052967266159,0.04081823413669606,0.25937432412075273,0.0036180686714255765
3132,5.0,298.30559,816.97862,0.0,0.0,0.0,0.0,0.031216047616526812,0.0,-0.07111399973390534,-0.06900744770975484,-0.10821965004044788,0.08406122642519712,0.2936099577045467,0.003947643870502116
3133,5.0,298.89545,974.0200199999999,0.0,0.0,0.0,0.0,0.03122601442611064,0.0,-0.11835225236545789,-0.08792522427079402,-0.08980028208434782,0.10232310187850391,0.26897627723589174,-0.01245125089984279
3134,5.0,299.47524,683.8662,0.0,0.0,0.0,0.0,0.03123598123569446,0.0,-0.11506244207327888,-0.07236460670958064,-0.020451202917876582,0.08600286692932212,0.24457478302765176,-0.01965876129291868
3135,5.0,299.74962,640.68198,0.0,0.0,0.0,0.0,0.03124594804527828,0.0,-0.08678412227317601,-0.06612613324839123,-0.041841068569391966,0.06808560290127584,0.24529819293654678,-0.01047541320484279
3136,5.0,300.59096,886.57465,0.0,0.0,0.0,0.0,0.0312559148548621,0.0,-0.09373158608108732,-0.06692076045381484,-0.10884420726958689,0.10029134696348531,0.29858063845511473,0.02928617434332037
3137,5.0,299.86394,748.1257400000001,0.0,0.0,0.0,0.0,0.03126588166444592,0.0,-0.056200002922758445,-0.05873018670771815,-0.11248134956354489,0.06476875099042803,0.26863968568517277,0.02027289319177878
3138,5.0,299.59063,772.1719400000001,0.0,0.0,0.0,0.0,0.03127584847402974,0.0,-0.026313583273198472,-0.08854655227186431,-0.1198608500418449,0.04947293215734825,0.2778543644795907,-0.006742245806857853
3139,5.0,300.09888,839.48685,0.0,0.0,0.0,0.0,0.03128581528361356,0.0,-0.09200989380266951,-0.08127596706006342,-0.08189717853737222,0.05674016959081874,0.24892188940167778,0.003954644415443016
3140,5.0,299.48686000000004,627.74378,0.0,0.0,0.0,0.0,0.03129578209319738,0.0,-0.08065810640083533,-0.07406758223215124,-0.03609274673807676,0.06961815583652703,0.2940358773840817,-0.012347160730319887
3141,5.0,299.73106,669.12823,0.0,0.0,0.0,0.0,0.0313057489027812,0.0,-0.06741262852935843,-0.07303083790208252,-0.06295480836990584,0.08407837770963981,0.27395728300497874,-0.01009551595279985
3142,5.0,300.01771,892.8153800000001,0.0,0.0,0.0,0.0,0.03131571571236502,0.0,-0.08033302841100262,-0.09557291482531231,-0.0954876396968963,0.07902551123021072,0.27083521626685475,-0.009021454128173201
3143,5.0,300.02316,717.1018799999999,0.0,0.0,0.0,0.0,0.031325682521948846,0.0,-0.03621367205801117,-0.07415421410245114,-0.1076131793255939,0.08282211375865622,0.2807055590684817,-0.004927564324362735
3144,5.0,300.02482000000003,434.76999000000006,0.0,0.0,0.0,0.0,0.03133564933153266,0.0,-0.029998062585328267,-0.037582586115362464,-0.06457857407915904,0.07792859301645333,0.29500266996699676,-0.005602757410024105
3145,5.0,299.59749,706.82524,0.0,0.0,0.0,0.0,0.031345616141116486,0.0,-0.08881743050059791,-0.06010282040618654,-0.06593697161372244,0.08779916683910312,0.25701693696809674,-0.01085830217913099
3146,5.0,299.59886,949.3325800000001,0.0,0.0,0.0,0.0,0.0313555829507003,0.0,-0.12443131726791488,-0.08202717041920142,-0.08211491585136121,0.052012168318701354,0.23879571108230177,-0.011780282763123389
3147,5.0,300.03878,743.36012,0.0,0.0,0.0,0.0,0.03136554976028412,0.0,-0.06622317930321894,-0.08275358765439322,-0.07698614883344133,0.0929393997951546,0.2503559321357068,-0.019302714327029583
3148,5.0,299.185,536.58428,0.0,0.0,0.0,0.0,0.03137551656986795,0.0,-0.04122449271129067,-0.04988726532198975,-0.07199646559049794,0.06663109758147734,0.28180937346241974,0.003220480781911707
3149,5.0,298.95347000000004,763.4499099999999,0.0,0.0,0.0,0.0,0.03138548337945177,0.0,-0.05470422387338655,-0.06377710034280974,-0.11358838609280089,0.09630288046235431,0.26651320809780576,0.011671981526184889
3150,5.0,300.30879,741.66642,0.0,0.0,0.0,0.0,0.03139545018903559,0.0,-0.06540618156208754,-0.07774943520002184,-0.08229245550738301,0.05766381494472544,0.27039557718096574,-0.006158238542745824
3151,5.0,300.3031,628.1723400000001,0.0,0.0,0.0,0.0,0.03140541699861941,0.0,-0.07947450565427303,-0.06604080441771994,-0.04543339683792716,0.07143347141093473,0.27367665325728274,0.007502537006142752
3152,5.0,300.33956,791.11217,0.0,0.0,0.0,0.0,0.031415383808203225,0.0,-0.10094300761954922,-0.07997209859288162,-0.059563240409934146,0.060484112498317144,0.29703809690037775,0.0022423983637324878
3153,5.0,300.06163,651.9332,0.0,0.0,0.0,0.0,0.031425350617787055,0.0,-0.07462392746455823,-0.05195981165953416,-0.07158767591715354,0.04504301082614905,0.27056343219253176,0.012223127772328788
3154,5.0,300.01607,631.9835099999999,0.0,0.0,0.0,0.0,0.03143531742737087,0.0,-0.055418319987362345,-0.05506799079178754,-0.08162089563260522,0.026942924056059574,0.26947226315984174,-0.016747157746315782
3155,5.0,300.26467,888.6799800000001,0.0,0.0,0.0,0.0,0.031445284236954696,0.0,-0.07410994115258174,-0.07048307726763814,-0.1255435011076789,0.06854966942057564,0.2963299465379887,-0.0026743090871337574
3156,5.0,300.09051,634.80491,0.0,0.0,0.0,0.0,0.03145525104653851,0.0,-0.06348420317615304,-0.05444751898705175,-0.07503311939819234,0.07748037575521773,0.3168289991785877,-0.028367756346679575
3157,5.0,300.67831,391.45747,0.0,0.0,0.0,0.0,0.03146521785612233,0.0,-0.03479771583826717,-0.043978998922639255,-0.040216581426067564,0.11236067147663491,0.2744810117166668,-0.016711516674048285
3158,5.0,301.26354,720.01303,0.0,0.0,0.0,0.0,0.03147518466570616,0.0,-0.08298616401609672,-0.07219809526764723,-0.06368172412414684,0.08658675533919742,0.26318515774685275,-0.015423661611446884
3159,5.0,299.28078999999997,759.2194900000001,0.0,0.0,0.0,0.0,0.03148515147528998,0.0,-0.048405675827018255,-0.07837709601421713,-0.1040009933815989,0.09759513505688991,0.26618221982013973,0.01022401166953139
3160,5.0,299.12527,525.53949,0.0,0.0,0.0,0.0,0.0314951182848738,0.0,-0.03045371811554797,-0.05991580382197944,-0.06938136030140714,0.08387815847662972,0.27471200234196375,0.006284736332930183
3161,5.0,299.50881,631.9606,0.0,0.0,0.0,0.0,0.03150508509445762,0.0,-0.04318111715789446,-0.07553867141633643,-0.07338045376958693,0.05317070632404015,0.24630000344291778,-0.010808489790964888
3162,5.0,298.73312999999996,731.40365,0.0,0.0,0.0,0.0,0.031515051904041434,0.0,-0.10165678861274391,-0.05852488501220644,-0.06214676978615864,0.037339244984596565,0.27215743671984777,-0.011445166504549988
3163,5.0,299.96882,815.11916,0.0,0.0,0.0,0.0,0.03152501871362526,0.0,-0.11136850711121589,-0.09593749234379331,-0.040469870646315256,0.04454271656277386,0.3080185666440657,-0.037684412684161964
3164,5.0,299.28012,822.51914,0.0,0.0,0.0,0.0,0.03153498552320908,0.0,-0.08068120546336502,-0.07190190402491543,-0.09744217076879351,0.07163899196846803,0.3447085148850817,0.0038790983118371964
3165,5.0,299.50459,644.71324,0.0,0.0,0.0,0.0,0.031544952332792905,0.0,-0.04113379466833946,-0.06834063896469593,-0.0865022928373616,0.07226022877702934,0.2935930668253797,-0.02414105954828708
3166,5.0,301.05273,283.54555,0.0,0.0,0.0,0.0,0.03155491914237672,0.0,-0.0032881595051160767,-0.006898701957448874,-0.07600390519975142,0.08388541841359622,0.2731957951573257,0.013097201891593187
3167,5.0,299.81608,247.17597999999998,0.0,0.0,0.0,0.0,0.03156488595196054,0.0,-0.0028123443509067776,-0.02028749108596948,-0.05203548826975285,0.07705378226436622,0.2635951086048118,-0.034897240302839465
3168,5.0,299.80291,874.45515,0.0,0.0,0.0,0.0,0.03157485276154436,0.0,-0.09712747859248581,-0.08612378819625612,-0.08256126467941242,0.07682944666572603,0.26569324558688173,-0.01021081712672919
3169,5.0,300.4892,900.45066,0.0,0.0,0.0,0.0,0.031584819571128186,0.0,-0.10820440062644289,-0.08929371884260391,-0.07621639489147251,0.05102067573809865,0.22994832531663278,-0.02381853089570598
3170,5.0,299.86602,580.9150900000001,0.0,0.0,0.0,0.0,0.031594786380712,0.0,-0.052618985565089545,-0.08570267233544523,-0.03826202299641766,0.07012117574267122,0.23638229119911577,-0.005633312473414655
3171,5.0,300.72739,639.02684,0.0,0.0,0.0,0.0,0.03160475319029583,0.0,-0.052648630223265255,-0.056212594581751145,-0.08538697906803872,0.048824970877399454,0.27329990660510073,0.002786378601194157
3172,5.0,300.15172,790.23951,0.0,0.0,0.0,0.0,0.031614719999879644,0.0,-0.06766338462435613,-0.07337804527409923,-0.09917164886097972,0.08230233874885842,0.2855899210430307,0.03656722237565386
3173,5.0,299.28597,701.1275400000001,0.0,0.0,0.0,0.0,0.03162468680946347,0.0,-0.049537221862943154,-0.08986531348901591,-0.07372273066661703,0.07586619235216023,0.2590084699071457,-0.03152951918397127
3174,5.0,299.91321,906.67441,0.0,0.0,0.0,0.0,0.03163465361904729,0.0,-0.1081993343759429,-0.08201809676455592,-0.08538894679973291,0.0982241303214669,0.2862423730474227,-0.0005664093390252494
3175,5.0,299.12202,700.04164,0.0,0.0,0.0,0.0,0.03164462042863111,0.0,-0.1078843351848549,-0.058615889056687846,-0.04629495326545616,0.08116063285418083,0.3004176710189157,-0.04096837247026356
3176,5.0,298.75133999999997,301.7625,0.0,0.0,0.0,0.0,0.03165458723821493,0.0,-0.04206758569549746,-0.011739144809063387,-0.03792153347256396,0.06593928283720053,0.3197318897875807,-0.020187214789822983
3177,5.0,299.50147000000004,563.5828,0.0,0.0,0.0,0.0,0.03166455404779875,0.0,-0.03347609117633297,-0.055255103634754145,-0.08258390271314663,0.04029941563499267,0.2715292216578477,-0.005825730187279805
3178,5.0,299.27452999999997,730.393,0.0,0.0,0.0,0.0,0.03167452085738257,0.0,-0.03440665905492287,-0.06668664901820984,-0.12092792398715688,0.04039474321765076,0.26360824032610775,0.02935066163268477
3179,5.0,300.40662000000003,557.28585,0.0,0.0,0.0,0.0,0.031684487666966396,0.0,-0.03358907058898317,-0.07312925083129512,-0.06268266155204703,0.06425175431240444,0.27941822481643175,-0.01055460376640829
3180,5.0,301.09307,604.7889299999999,0.0,0.0,0.0,0.0,0.03169445447655021,0.0,-0.07220504818983343,-0.06852309288370273,-0.043112590040381364,0.06840191019824293,0.26123546190443275,0.004685404440563415
3181,5.0,300.34569,840.49407,0.0,0.0,0.0,0.0,0.03170442128613404,0.0,-0.09121912809337701,-0.1099445056856779,-0.054325575350766854,0.1031494073350539,0.2712314882484637,-0.008886584055062562
3182,5.0,300.84249,865.3191699999999,0.0,0.0,0.0,0.0,0.03171438809571785,0.0,-0.08572122089177582,-0.09188302475764851,-0.08543117399765042,0.06982307553675103,0.26621589012096275,-0.002401221770532138
3183,5.0,300.88192999999995,706.40246,0.0,0.0,0.0,0.0,0.03172435490530168,0.0,-0.05023511104156945,-0.06975164140470103,-0.0947419565243031,0.12166387793228989,0.2898344459769327,-0.019434417588277682
3184,5.0,299.74057999999997,678.13056,0.0,0.0,0.0,0.0,0.0317343217148855,0.0,-0.04526726637803136,-0.06404393975664474,-0.09682355219849059,0.048316425718459954,0.26923563886398877,0.008854594330855423
3185,5.0,299.70538999999997,563.8307,0.0,0.0,0.0,0.0,0.03174428852446932,0.0,-0.051733764681475045,-0.04533331913880025,-0.07432336911389542,0.06878560166661034,0.26827869507204577,-0.020136139892032282
3186,5.0,299.30138999999997,732.49527,0.0,0.0,0.0,0.0,0.03175425533405314,0.0,-0.08902872962345151,-0.08095316482995533,-0.05267837721970104,0.04175909764955207,0.25005410519591875,-0.03122115475453807
3187,5.0,298.64134,985.1709800000001,0.0,0.0,0.0,0.0,0.03176422214363696,0.0,-0.13974052316131585,-0.08290761281534433,-0.07681924627696933,0.08008441939296683,0.3158113819706567,-0.03791671141533807
3188,5.0,300.26127,677.25707,0.0,0.0,0.0,0.0,0.03177418895322078,0.0,-0.06461697119169853,-0.06784289606507253,-0.07340936990094073,0.07947760721282912,0.30516161679460674,0.0013754856935248687
3189,5.0,301.18787000000003,266.94442000000004,0.0,0.0,0.0,0.0,0.031784155762804606,0.0,0.01252454231932609,-0.05497709719156704,-0.038691882192341466,0.06415620786772473,0.3083538004396507,-0.013167438362024986
3190,5.0,300.45041000000003,754.5863400000001,0.0,0.0,0.0,0.0,0.03179412257238842,0.0,-0.027431965163824172,-0.09577896024639741,-0.1061644748626179,0.07336519523633102,0.3122348320326787,0.02310690103247358
3191,5.0,300.83922,1110.7627,0.0,0.0,0.0,0.0,0.031804089381972246,0.0,-0.1054670649512889,-0.11668001479792088,-0.11549703517366988,0.07551669503491752,0.2808187593696537,0.01093263623296719
3192,5.0,299.66515,836.5633,0.0,0.0,0.0,0.0,0.03181405619155606,0.0,-0.08601537854155691,-0.09021257253678772,-0.07806640313605413,0.07411246211883052,0.2499287864235508,-0.0004981802690290645
3193,5.0,299.54021,512.7554,0.0,0.0,0.0,0.0,0.03182402300113989,0.0,-0.07662948378499122,-0.05668932064780035,-0.02254603265162018,0.05792115007262245,0.2241656462009268,-0.027592553145672973
3194,5.0,300.21823,524.23859,0.0,0.0,0.0,0.0,0.031833989810723703,0.0,-0.04241980460250876,-0.04736381154419425,-0.06957182598895464,0.07200197868429203,0.2501956055723838,-0.012331638752037988
3195,5.0,299.70689,577.56552,0.0,0.0,0.0,0.0,0.03184395662030753,0.0,-0.05928998813621624,-0.05578264419331835,-0.06049286495268094,0.06401625675066265,0.29211869673737073,-0.028866357469137675
3196,5.0,298.27513999999996,557.96232,0.0,0.0,0.0,0.0,0.031853923429891344,0.0,-0.039865105231379566,-0.033979052313971365,-0.0957624554155185,0.09100451665594651,0.29255858913578475,-0.0034862028848614366
3197,5.0,298.45942,565.97728,0.0,0.0,0.0,0.0,0.03186389023947516,0.0,-0.07752689305405863,-0.046041370202679455,-0.04847469741058016,0.07250351113928943,0.29496967854374073,-0.009795147485205791
3198,5.0,299.02961,376.88819,0.0,0.0,0.0,0.0,0.03187385704905899,0.0,-0.04759110380662625,-0.040780749962496664,-0.02619274407952258,0.08331466780451752,0.28917777885212476,0.002153050577864548
3199,5.0,299.13784,552.79987,0.0,0.0,0.0,0.0,0.03188382385864281,0.0,-0.05280573667777045,-0.06629461140876874,-0.04893700898070675,0.08833595533133001,0.30086576061063874,-0.016388035566373183
3200,5.0,299.78946,1156.965,0.0,0.0,0.0,0.0,0.03189379066822663,0.0,-0.09353439443937601,-0.1174528206491909,-0.14070124637613188,0.06040405966091654,0.2771923068642507,0.007415623350990044
3201,5.0,299.4397,996.7108099999999,0.0,0.0,0.0,0.0,0.03190375747781045,0.0,-0.07660781745810293,-0.09216519261899632,-0.13420218930722488,0.04894686182467915,0.2636201460147828,0.0036184110486343667
3202,5.0,299.35853,629.41542,0.0,0.0,0.0,0.0,0.031913724287394266,0.0,-0.03311637725833197,-0.08375914921263443,-0.07445104369274592,0.054133444893305044,0.2733539128354307,-0.003124844360623127
3203,5.0,300.22915,722.94408,0.0,0.0,0.0,0.0,0.031923691096978096,0.0,-0.09427455033267372,-0.05972270368417194,-0.06575969438947654,0.05733956478022445,0.2940050036535347,-0.007345155960860453
3204,5.0,300.35354,670.22968,0.0,0.0,0.0,0.0,0.03193365790656191,0.0,-0.08930716771118122,-0.05559800064084545,-0.05882791873286355,0.0955848944812446,0.2778481633889787,-0.0031026871140613773
3205,5.0,299.80922999999996,365.55303,0.0,0.0,0.0,0.0,0.03194362471614574,0.0,-0.036114326938706566,-0.04666204364418516,-0.02834262166469897,0.07119889185378353,0.25109852286899476,-0.04281173683393946
3206,5.0,301.17402999999996,516.69593,0.0,0.0,0.0,0.0,0.031953591525729554,0.0,-0.01998616570498098,-0.04272053723218876,-0.0943559588987081,0.1172225291664629,0.27927340097963876,-0.03394518544262897
3207,5.0,299.56617,493.3448,0.0,0.0,0.0,0.0,0.03196355833531337,0.0,-0.02755001690647497,-0.036982877831675864,-0.08543160564219301,0.062047006194562736,0.2915934278855307,-0.03566436891379916
3208,5.0,298.81633999999997,470.21292,0.0,0.0,0.0,0.0,0.0319735251448972,0.0,-0.04713752037286105,-0.037583808094983066,-0.05821165698229324,0.06742198893378223,0.2797977072438837,-0.029512039949611574
3209,5.0,299.1359,903.34659,0.0,0.0,0.0,0.0,0.03198349195448102,0.0,-0.11940145257900588,-0.06074640343245324,-0.09444695483718872,0.029862393463188766,0.2848854386460037,0.0047074252023366955
3210,5.0,298.44649,1007.137,0.0,0.0,0.0,0.0,0.03199345876406484,0.0,-0.13280396496423086,-0.09272110114061022,-0.08061943368426863,0.05588380910980255,0.28184886995131775,-0.0015516704315129486
3211,5.0,299.142,711.36375,0.0,0.0,0.0,0.0,0.03200342557364866,0.0,-0.05995757911035235,-0.06072260320085434,-0.09555663594920571,0.09136493275626681,0.3039610471486197,0.030121510898011676
3212,5.0,301.00372999999996,579.2896400000001,0.0,0.0,0.0,0.0,0.032013392383232475,0.0,-0.02142795980227498,-0.07798679308894722,-0.07667483280646684,0.061681461022236234,0.2700541726922717,-0.005812502916499374
3213,5.0,299.70292,751.6941400000001,0.0,0.0,0.0,0.0,0.032023359192816306,0.0,-0.04573181925737916,-0.052825170814688446,-0.12993926375150686,0.08521570737713552,0.2923580770734957,0.04447313667840686
3214,5.0,300.41447,810.2314299999999,0.0,0.0,0.0,0.0,0.03203332600240012,0.0,-0.08526274143352743,-0.08025887471568423,-0.08076850506548083,0.06082481379144174,0.28623603010179677,-0.01993368137630118
3215,5.0,299.84394,527.6447400000001,0.0,0.0,0.0,0.0,0.032043292811983946,0.0,-0.08218931373995371,-0.050256842216464155,-0.02794467072767427,0.08142719463748842,0.3397166166774197,-0.01044260416660479
3216,5.0,299.49091,489.46352,0.0,0.0,0.0,0.0,0.03205325962156776,0.0,-0.07344866779281914,-0.03803616549612726,-0.037299855900209164,0.03465101748878917,0.28629024911464773,-0.05452658390560485
3217,5.0,300.22015,542.63449,0.0,0.0,0.0,0.0,0.03206322643115158,0.0,-0.03707116433938907,-0.05915961121934905,-0.06871655880479634,0.04505848011542575,0.28810051161080674,-0.03288066184781867
3218,5.0,299.89015,589.1972400000001,0.0,0.0,0.0,0.0,0.032073193240735404,0.0,0.0009421543833508982,-0.07893859058363233,-0.10110481352801821,0.051963003397349154,0.26535670469866773,-0.04682496412776416
3219,5.0,298.90391,781.69431,0.0,0.0,0.0,0.0,0.03208316005031923,0.0,-0.04158931746279606,-0.06882980064922244,-0.1271964362608109,0.1030828368034839,0.2861371774220407,-0.0029680286075716173
3220,5.0,299.48849,790.14095,0.0,0.0,0.0,0.0,0.032093126859903044,0.0,-0.07828808401943232,-0.08764163988580642,-0.07425339406198943,0.08346289818814671,0.25900652446695377,-0.007932564908208203
3221,5.0,299.74253999999996,460.82934000000006,0.0,0.0,0.0,0.0,0.03210309366948687,0.0,-0.06718223572162044,-0.03953579692237936,-0.033362578794130175,0.08573617646325182,0.2562811248779777,-0.002205603908876158
3222,5.0,299.82887999999997,637.39955,0.0,0.0,0.0,0.0,0.032113060479070685,0.0,-0.08728401427626152,-0.06323781418908635,-0.04323171785463836,0.08538029769687933,0.28685500432288474,-0.008540910743697262
3223,5.0,300.91238,1058.7282,0.0,0.0,0.0,0.0,0.03212302728865451,0.0,-0.08248176608981651,-0.1081534138814109,-0.13119176246511888,0.06610690784099384,0.32109070883418567,-0.006821515097956124
3224,5.0,300.33038,670.96136,0.0,0.0,0.0,0.0,0.03213299409823833,0.0,-0.04101320980043866,-0.058665637610097646,-0.1042766480713039,0.03875156768948196,0.2658592058207608,-0.01029607097689309
3225,5.0,300.68989,537.5112,0.0,0.0,0.0,0.0,0.03214296090782215,0.0,-0.014563311964786987,-0.05883306097712104,-0.08999360919017772,0.024121708497877276,0.28289740141979974,-0.01236844100892009
3226,5.0,300.35761,711.1707700000001,0.0,0.0,0.0,0.0,0.032152927717405966,0.0,-0.1055343346254279,-0.05828100483238735,-0.05236281668805766,0.07300364226939852,0.2917657918600417,-0.0024889095487612475
3227,5.0,300.62925,615.23697,0.0,0.0,0.0,0.0,0.03216289452698979,0.0,-0.0930760872336446,-0.04418056172528196,-0.04976002846718246,0.1160524684809869,0.3149317998238487,-0.02190544073964868
3228,5.0,299.74034,586.08128,0.0,0.0,0.0,0.0,0.03217286133657361,0.0,-0.08111285203246522,-0.07101846443497674,-0.02602275820299627,0.09471101389274932,0.28338775367319374,-0.04576299594970605
3229,5.0,299.53805,784.40995,0.0,0.0,0.0,0.0,0.03218282814615744,0.0,-0.06000617357189824,-0.05671110755145055,-0.12172376101319987,0.09570888792248182,0.2733434763594007,0.0024657225361228675
3230,5.0,299.33803,657.80165,0.0,0.0,0.0,0.0,0.032192794955741254,0.0,-0.014089688470543985,-0.08225028910447152,-0.1036152997310339,0.10032222069403231,0.28068481783893473,0.003900907405664586
3231,5.0,300.2179,713.7886,0.0,0.0,0.0,0.0,0.03220276176532507,0.0,-0.037420332350349264,-0.07487394287373283,-0.1046796379010759,0.06893386954049324,0.3045727057039857,0.02094171526478638
3232,5.0,299.67521,958.14812,0.0,0.0,0.0,0.0,0.032212728574908894,0.0,-0.1137387017451359,-0.07350960060083274,-0.1040048032019749,0.06320774193936844,0.23559515799143177,0.02534912217876358
3233,5.0,300.40056,760.10021,0.0,0.0,0.0,0.0,0.03222269538449272,0.0,-0.11044798966036791,-0.08216737282228832,-0.03843612570810026,0.024156534917064376,0.24907074597386877,-0.00963221676780078
3234,5.0,300.88739,539.8353599999999,0.0,0.0,0.0,0.0,0.03223266219407654,0.0,-0.051468026670498754,-0.06574182065771253,-0.046886621409599254,0.07022349475101934,0.28277181920240574,-0.03007486896940847
3235,5.0,300.5824,681.17289,0.0,0.0,0.0,0.0,0.03224262900366036,0.0,-0.039092396652119166,-0.08329102867968452,-0.08467612535438292,0.09897796610436471,0.3057729207124377,-0.03370672311109457
3236,5.0,300.91382999999996,805.96319,0.0,0.0,0.0,0.0,0.03225259581324418,0.0,-0.03494485697803887,-0.08587756132920542,-0.12417026351215087,0.07640824366540652,0.29276290088594875,-0.013622056324142288
3237,5.0,300.94876,600.1568599999999,0.0,0.0,0.0,0.0,0.032262562622828,0.0,-0.018525474493321984,-0.07228935870415423,-0.0916178673389795,0.06513256147858335,0.27410941237499276,0.016039397485215285
3238,5.0,300.13785,587.40539,0.0,0.0,0.0,0.0,0.03227252943241182,0.0,-0.07203637345893653,-0.06689988547525465,-0.03962031109997026,0.08479298348841592,0.2877581850645217,0.0032411049810721565
3239,5.0,299.6749,834.24432,0.0,0.0,0.0,0.0,0.03228249624199565,0.0,-0.10511155602120291,-0.08755247387700642,-0.06092540926136974,0.0880397174790936,0.29205294693838174,0.0053188689486814945
3240,5.0,300.17601,811.9388700000001,0.0,0.0,0.0,0.0,0.03229246305157946,0.0,-0.10030677774925821,-0.06474642807747494,-0.08175593552643262,0.08182414853641472,0.2266707348206598,-0.00980785951831037
3241,5.0,298.70531,815.00868,0.0,0.0,0.0,0.0,0.03230242986116329,0.0,-0.03432536599939987,-0.1082049376489959,-0.1052119792386139,0.03984645940303936,0.25535905715447677,-0.026981741667390573
3242,5.0,299.62113,854.7417199999999,0.0,0.0,0.0,0.0,0.032312396670747104,0.0,-0.058970670473202036,-0.06459924235469884,-0.13625023120435087,0.05578774286782154,0.29132353858889476,0.016927558820619984
3243,5.0,300.60264,599.41971,0.0,0.0,0.0,0.0,0.03232236348033093,0.0,-0.03422113093511266,-0.06792690463086354,-0.08006058977711501,0.07720982683276663,0.3138779893223457,0.0022490780123667177
3244,5.0,300.20146,377.76451000000003,0.0,0.0,0.0,0.0,0.03233233028991475,0.0,-0.06890396954329234,-0.043650485001717455,-0.0022765244244504677,0.06865642747761183,0.28789693953321577,0.016986558347442785
3245,5.0,299.78976,636.5176,0.0,0.0,0.0,0.0,0.03234229709949857,0.0,-0.1001206244541363,-0.05069676095938075,-0.04266807215526087,0.07876860268060583,0.25875938263506276,-0.015811352377958984
3246,5.0,300.49811,758.90075,0.0,0.0,0.0,0.0,0.03235226390908239,0.0,-0.06877396043621142,-0.0989089414810525,-0.06300397734425843,0.07532237595723973,0.28991324643720967,-0.026135399190113075
3247,5.0,300.65816,549.18846,0.0,0.0,0.0,0.0,0.03236223071866621,0.0,0.009112414298925273,-0.06921872352785613,-0.1068332705911229,0.0938241799149756,0.30300853125961374,-0.04984098613692235
3248,5.0,300.8938,753.46466,0.0,0.0,0.0,0.0,0.03237219752825003,0.0,-0.038343765934985063,-0.07360796793379083,-0.11708271078516388,0.05296635201737195,0.27022785389191273,-0.012101476965322789
3249,5.0,301.58509,857.9729,0.0,0.0,0.0,0.0,0.03238216433783385,0.0,-0.07927456911804083,-0.08208301468521283,-0.0994447542134331,0.034859967897910966,0.2940943115173487,0.0004750584792996216
3250,5.0,301.72283,630.19706,0.0,0.0,0.0,0.0,0.03239213114741767,0.0,-0.1083256967959139,-0.03236563391473937,-0.05087283545575795,0.04359656895064636,0.3042584968479757,0.01129846410207159
3251,5.0,300.54177000000004,786.51044,0.0,0.0,0.0,0.0,0.03240209795700149,0.0,-0.1047267742957279,-0.08801824670947461,-0.046334516628860754,0.09930262359540591,0.3346449452893847,0.005622913183663324
3252,5.0,300.43753,1033.0362,0.0,0.0,0.0,0.0,0.032412064766585306,0.0,-0.10346837846653391,-0.1022671400754809,-0.10828169134407088,0.07252810170596634,0.2712504360253337,0.005363099038071665
3253,5.0,299.63172000000003,721.9780599999999,0.0,0.0,0.0,0.0,0.03242203157616914,0.0,-0.02070706680662838,-0.09483269104425791,-0.1039235405439549,0.12391596813455388,0.25061680350645277,-0.03161484092189187
3254,5.0,299.07482999999996,632.52705,0.0,0.0,0.0,0.0,0.032431998385752954,0.0,-0.03967568015168476,-0.07657566297942953,-0.07602108485519692,0.07775020223034752,0.28077070091741074,-0.017014394354189985
3255,5.0,300.08581000000004,819.69307,0.0,0.0,0.0,0.0,0.03244196519533678,0.0,-0.09087536475845022,-0.06503886421533614,-0.09325199555700542,0.09764311042262472,0.3110484174905887,0.0041388860116012465
3256,5.0,300.03472,510.07192000000003,0.0,0.0,0.0,0.0,0.032451932004920594,0.0,-0.09007061518452761,-0.04233624794626236,-0.022642265066617578,0.044383156016526454,0.2603364050907027,0.008110200822989503
3257,5.0,299.51838,343.27157,0.0,0.0,0.0,0.0,0.03246189881450441,0.0,-0.06436355531518834,-0.01939421486405998,-0.020588213583148482,0.04015101502534667,0.2600731019197168,-0.007269515422345312
3258,5.0,300.00232,691.29026,0.0,0.0,0.0,0.0,0.03247186562408824,0.0,-0.05597094152565185,-0.053432405520117854,-0.10073162946318781,0.08007008393055202,0.2836556873971367,-0.026890974723432576
3259,5.0,299.96477999999996,695.6492900000001,0.0,0.0,0.0,0.0,0.03248183243367206,0.0,-0.02261572703324848,-0.07993244099721772,-0.10891184171376189,0.07915047536504372,0.3086994403137627,-0.03427438128086807
3260,5.0,300.36079,659.75169,0.0,0.0,0.0,0.0,0.03249179924325588,0.0,-0.04904711481607336,-0.06466902286258563,-0.08683190309489161,0.06883783572251544,0.28379029767292174,-0.021138193578427278
3261,5.0,301.29098,881.4314199999999,0.0,0.0,0.0,0.0,0.0325017660528397,0.0,-0.09343370068418833,-0.08706078717323072,-0.08743865448002332,0.08092239343766842,0.29232705135543374,-0.007398695589519403
3262,5.0,301.0305,702.9740400000001,0.0,0.0,0.0,0.0,0.032511732862423516,0.0,-0.13750988346366888,-0.047955026765542655,-0.02822164365575937,0.08121778015982083,0.33106358241343165,0.026539043579449677
3263,5.0,300.25476000000003,524.9177099999999,0.0,0.0,0.0,0.0,0.03252169967200735,0.0,-0.05304616370124874,-0.07291042224694842,-0.03360529170983407,0.08596277667586551,0.3226070578738377,0.0019028246153191685
3264,5.0,299.82529,923.5029400000001,0.0,0.0,0.0,0.0,0.032531666481591164,0.0,-0.06982054646450143,-0.11009096085513191,-0.10081032758520471,0.050511427383589755,0.2805619511318087,0.0016276388577604487
3265,5.0,299.22132,1017.1863,0.0,0.0,0.0,0.0,0.03254163329117499,0.0,-0.04902539580017986,-0.1032882124662529,-0.15688563691090684,0.053733693410852656,0.27018655381783674,-0.032003936053042574
3266,5.0,299.7885,532.37241,0.0,0.0,0.0,0.0,0.032551600100758804,0.0,-0.028649824909517573,-0.07740044653432933,-0.05577764684382515,0.08063750499980213,0.28259023465198474,-0.030781085037356572
3267,5.0,299.11529,397.71241000000003,0.0,0.0,0.0,0.0,0.03256156691034262,0.0,-0.03577604731332097,-0.03810377460904976,-0.04701482085200155,0.0878963405634434,0.2969279262170047,-0.031382476329459265
3268,5.0,299.44158999999996,695.67334,0.0,0.0,0.0,0.0,0.03257153371992645,0.0,-0.13177784658796088,-0.03278703551207847,-0.04690243723041016,0.06335936164458214,0.28395614644928974,0.012556390796469289
3269,5.0,299.41562999999996,641.01755,0.0,0.0,0.0,0.0,0.03258150052951027,0.0,-0.06723626323020253,-0.047180075863810955,-0.08043698888451271,0.07833351714066622,0.30413418119320673,-0.007450112763193882
3270,5.0,300.97139,633.44065,0.0,0.0,0.0,0.0,0.03259146733909409,0.0,-0.018536997173459184,-0.06047491117415904,-0.1135382302128509,0.08131694188085732,0.3356544260990127,-0.016892942144203584
3271,5.0,300.36329,792.81267,0.0,0.0,0.0,0.0,0.03260143414867791,0.0,-0.03103533380544897,-0.09440539233133681,-0.1155545269843439,0.08637545722959392,0.2906732144097127,-0.015513072826771087
3272,5.0,301.34472999999997,895.6348,0.0,0.0,0.0,0.0,0.032611400958261726,0.0,-0.05491887077457054,-0.11281259115373589,-0.1045191593502379,0.06001558666532724,0.25147508713615874,-0.02458803760465038
3273,5.0,301.26387,891.60466,0.0,0.0,0.0,0.0,0.03262136776784555,0.0,-0.09649621263443472,-0.09250326047511101,-0.08202607914884372,0.04792141928622586,0.23942042029895574,-0.0008059985465258632
3274,5.0,301.99625,1035.0439,0.0,0.0,0.0,0.0,0.03263133457742937,0.0,-0.15163201620241487,-0.09625918303854171,-0.06673631043211103,0.09077056227410701,0.2849193825243537,0.012490633904729589
3275,5.0,300.95115,577.89501,0.0,0.0,0.0,0.0,0.03264130138701319,0.0,-0.05192520106261836,-0.04598807730041986,-0.07775237362531183,0.07530703839047602,0.2928193997115247,0.024814321683232877
3276,5.0,300.62422999999995,335.64673999999997,0.0,0.0,0.0,0.0,0.03265126819659701,0.0,0.017097014767343984,-0.051498762599032154,-0.06762647800271374,0.08664586835003142,0.29784259721477574,-0.016127918053701586
3277,5.0,300.04957,817.22588,0.0,0.0,0.0,0.0,0.03266123500618083,0.0,-0.03124155350555127,-0.08306638100001351,-0.13410832181796087,0.07833948315725502,0.3055470267351437,-0.015521983348150487
3278,5.0,299.82677,894.3033800000001,0.0,0.0,0.0,0.0,0.032671201815764654,0.0,-0.1026082405891449,-0.05333463093846824,-0.1159030242237379,0.09520719334746841,0.3290635280410417,-0.0072511774193854935
3279,5.0,299.4318,348.04124,0.0,0.0,0.0,0.0,0.03268116862534848,0.0,-0.05043594329089005,-0.05150675004957045,-0.0038531532324266164,0.07270083247701353,0.2841259975635527,-0.03545895576077647
3280,5.0,300.05754,413.38537,0.0,0.0,0.0,0.0,0.032691135434932295,0.0,-0.08668832251597132,-0.016267279459205485,-0.02270322827213418,0.04256730848581626,0.2605975297739737,0.005757955509290965
3281,5.0,299.89801,888.3209,0.0,0.0,0.0,0.0,0.03270110224451611,0.0,-0.07777727728626962,-0.09190213262803432,-0.10034796129957271,0.05002478463881186,0.2955305631365957,-0.017975630273556583
3282,5.0,300.43411000000003,989.1383199999999,0.0,0.0,0.0,0.0,0.032711069054099935,0.0,-0.06183042803868815,-0.1064638497371639,-0.13237906866729687,0.07198060822643293,0.33959278738269866,-0.0038201392136933865
3283,5.0,300.24791,896.01363,0.0,0.0,0.0,0.0,0.03272103586368376,0.0,-0.032427225335317965,-0.098805128942057,-0.14113341780878388,0.07844854230526833,0.3199590604600007,-0.027687974960590372
3284,5.0,299.8008,712.2013599999999,0.0,0.0,0.0,0.0,0.03273100267326758,0.0,-0.05830320108907794,-0.08344750083962713,-0.07474072784333553,0.0934062638979805,0.25670865562517176,0.01167665970189659
3285,5.0,299.65923,464.12448,0.0,0.0,0.0,0.0,0.0327409694828514,0.0,-0.06675542640849765,-0.055648545608833845,-0.018678280714402782,0.11045900368895491,0.27836851797783374,-0.021836095929304876
3286,5.0,299.04242999999997,421.81048,0.0,0.0,0.0,0.0,0.032750936292435216,0.0,-0.06719534008516373,-0.04182410473621776,-0.019200406464432582,0.1147400765539639,0.2996548355486297,0.006817284778788624
3287,5.0,299.12008,729.9449099999999,0.0,0.0,0.0,0.0,0.03276090310201904,0.0,-0.06369338764604794,-0.08084626390465502,-0.07734537335164401,0.08067842105209022,0.2967547719074157,-0.015725633445999185
3288,5.0,300.06007999999997,569.6189099999999,0.0,0.0,0.0,0.0,0.032770869911602864,0.0,-0.03461019161575996,-0.04004906281353476,-0.0984906688000222,0.03793575342446736,0.26848679637758377,-0.015729404762871383
3289,5.0,298.79483,244.2612,0.0,0.0,0.0,0.0,0.03278083672118669,0.0,0.024239914254543273,-0.05151478714936365,-0.04697443168976545,0.05621271110551265,0.3134583011309257,-0.05904916594519895
3290,5.0,299.76673999999997,786.1256400000001,0.0,0.0,0.0,0.0,0.032790803530770504,0.0,-0.08064123781317052,-0.08769406037972992,-0.07062726782311864,0.06435942024153024,0.3362991064751377,-0.03234140305184797
3291,5.0,300.69876,1137.4217,0.0,0.0,0.0,0.0,0.03280077034035432,0.0,-0.16265558960535684,-0.07479460640415293,-0.1082975993706409,0.07477089229881252,0.3061591513855557,0.0001947585242461698
3292,5.0,300.7834,937.2456300000001,0.0,0.0,0.0,0.0,0.032810737149938145,0.0,-0.1096777068018469,-0.09591398190172301,-0.07930758283279901,0.059405523978868745,0.25211999042730576,-0.005987524747347684
3293,5.0,300.6991,780.20006,0.0,0.0,0.0,0.0,0.03282070395952197,0.0,-0.07816356166164293,-0.06747146086991473,-0.09152631512619401,0.07202458125427273,0.27764026473346076,0.017835016490929084
3294,5.0,299.39495,637.24281,0.0,0.0,0.0,0.0,0.03283067076910579,0.0,-0.024683035881025977,-0.06207732061105454,-0.10694554883470389,0.08809884264892882,0.3050326097918747,0.016989049929438685
3295,5.0,299.20957000000004,397.36575,0.0,0.0,0.0,0.0,0.03284063757868961,0.0,-0.00047388075844338956,-0.06505006366869144,-0.055265321248762544,0.08936478111186723,0.2954796270540687,-0.013620619535500486
3296,5.0,300.33709,692.90858,0.0,0.0,0.0,0.0,0.032850604388273426,0.0,-0.06600792850497533,-0.06714691382313444,-0.07747206305139732,0.052568536855860645,0.25426168703117474,0.01197106154495179
3297,5.0,299.98327,822.3231599999999,0.0,0.0,0.0,0.0,0.03286057119785725,0.0,-0.1028814736111109,-0.08140757000955162,-0.06567666057028174,0.09182314370323873,0.2693153107193517,-0.017309565254071083
3298,5.0,300.50356,583.7800599999999,0.0,0.0,0.0,0.0,0.03287053800744107,0.0,-0.07481177795359763,-0.05987376002233004,-0.04276902226272386,0.08704622879579392,0.2940006264131027,-0.004875399169464435
3299,5.0,300.449,639.73019,0.0,0.0,0.0,0.0,0.03288050481702489,0.0,-0.02739768285994077,-0.06211408841743324,-0.1049502364727819,0.0926916692649555,0.29101454797089976,-0.02194170800047798
3300,5.0,300.58452,1087.8489,0.0,0.0,0.0,0.0,0.032890471626608714,0.0,-0.09027562709051072,-0.10113807954205131,-0.13926519740690485,0.05537581313241724,0.27467628527593874,0.013605255624234185
3301,5.0,301.23319,1138.2986,0.0,0.0,0.0,0.0,0.03290043843619253,0.0,-0.07412771051958543,-0.1142237243030039,-0.15766291119511786,0.06146092612472114,0.3194114089134517,-0.03329201504391607
3302,5.0,300.68622999999997,635.00368,0.0,0.0,0.0,0.0,0.032910405245776354,0.0,-0.07895961552320734,-0.06008919219234154,-0.053976455975811445,0.08011161299915062,0.32697689144760667,0.0017201613588417083
3303,5.0,299.54918,565.41805,0.0,0.0,0.0,0.0,0.03292037205536018,0.0,-0.05282035078396275,-0.07452973573526223,-0.04452288320531646,0.06719821467569743,0.30074191105091574,-0.004911256266653255
3304,5.0,299.49228,619.15486,0.0,0.0,0.0,0.0,0.032930338864943995,0.0,-0.09225718458232522,-0.03682277620987506,-0.05912765635094534,0.06066439400910954,0.23731164419083578,0.02910202019064577
3305,5.0,299.09278,694.3865400000001,0.0,0.0,0.0,0.0,0.03294030567452782,0.0,-0.046095122107234356,-0.0903447905290866,-0.07463625669177502,0.07768550722471262,0.24982874824117776,-0.004093123482759837
3306,5.0,299.05983,840.80405,0.0,0.0,0.0,0.0,0.032950272484111635,0.0,-0.07795764188357023,-0.08015324339275923,-0.09747255205979191,0.09186182553905631,0.28373903735036277,-0.011667666094008988
3307,5.0,300.58036,676.76408,0.0,0.0,0.0,0.0,0.03296023929369545,0.0,-0.04321770865875576,-0.06568243204285133,-0.096819239806065,0.08853588477481152,0.2784968866330027,-0.017034310798155584
3308,5.0,299.8923,439.28844000000004,0.0,0.0,0.0,0.0,0.03297020610327928,0.0,-0.03371231929139687,-0.07586378790967294,-0.02395660851333318,0.06993745424778934,0.28649872532272275,-0.037494202335639666
3309,5.0,299.46108,904.00715,0.0,0.0,0.0,0.0,0.0329801729128631,0.0,-0.0926419602282996,-0.07878676012239783,-0.10336688120401691,0.05163783725475775,0.3319402666649537,-0.018541363268140085
3310,5.0,299.87525,1222.4179,0.0,0.0,0.0,0.0,0.03299013972244692,0.0,-0.14050155504642386,-0.09770590355782191,-0.13337706935329185,0.08670007317738102,0.3285883441416447,0.006276572272899453
3311,5.0,299.87052,499.60205999999994,0.0,0.0,0.0,0.0,0.03300010653203074,0.0,-0.02251452969276108,-0.05303919152731066,-0.07631282995648991,0.054346831311364655,0.28963938520018173,-0.004356756973278436
3312,5.0,300.10326000000003,267.64359,0.0,0.0,0.0,0.0,0.03301007334161456,0.0,-0.001015168790389359,-0.02320390453079708,-0.05713789457307114,0.07556326198301333,0.24919374440350778,-0.007618383105975873
3313,5.0,301.29465,788.953,0.0,0.0,0.0,0.0,0.03302004015119839,0.0,-0.08720932457164023,-0.08484597545539582,-0.06776671282980383,0.04943771057062215,0.2552187321481278,-0.01019358072927809
3314,5.0,301.50412,976.4199199999999,0.0,0.0,0.0,0.0,0.033030006960782204,0.0,-0.13596524448122488,-0.07248920506112752,-0.08835281986599441,0.06911446515881664,0.31279314297027966,-0.02078879150669398
3315,5.0,301.35832999999997,668.31011,0.0,0.0,0.0,0.0,0.03303997377036603,0.0,-0.07586576881361842,-0.062173457780542535,-0.06511036015564223,0.07264584136758634,0.3000687279494777,-0.018997928696949586
3316,5.0,301.684,568.1768099999999,0.0,0.0,0.0,0.0,0.033049940579949845,0.0,-0.06318140047651874,-0.04413770529905236,-0.06539245708948303,0.09011922889782542,0.2930532882321077,0.008292768631307542
3317,5.0,300.04728,662.8743599999999,0.0,0.0,0.0,0.0,0.03305990738953366,0.0,-0.024422032787766976,-0.07375296098335052,-0.10332225766961291,0.08950544251724941,0.3080647809811267,-0.02428538283953068
3318,5.0,300.17896,902.1088199999999,0.0,0.0,0.0,0.0,0.03306987419911749,0.0,-0.06016338033816335,-0.0936325327778115,-0.12042264655978989,0.1094623607580939,0.2991428098755967,-0.005534676730505064
3319,5.0,300.43656,1145.7910000000002,0.0,0.0,0.0,0.0,0.03307984100870131,0.0,-0.09788981351722241,-0.1160396812647249,-0.1343623740155339,0.08470366853185121,0.2931032211970357,-0.012814692564961688
3320,5.0,299.5765,720.43355,0.0,0.0,0.0,0.0,0.03308980781828513,0.0,-0.09056726174754282,-0.02950437673910527,-0.09892217148760821,0.06948390729102774,0.2626409208531408,0.024879523313917774
3321,5.0,299.75317,412.90735,0.0,0.0,0.0,0.0,0.03309977462786895,0.0,-0.025717807413149975,-0.051883670980769646,-0.04791204570955075,0.06853661065328684,0.31677385810814573,-0.0028636404411943074
3322,5.0,299.78477999999996,731.91012,0.0,0.0,0.0,0.0,0.03310974143745277,0.0,-0.07352880472997803,-0.05926820427231635,-0.08968539168200901,0.05108636170233136,0.31787873641468867,0.026328890442459178
3323,5.0,299.31934,976.37829,0.0,0.0,0.0,0.0,0.0331197082470366,0.0,-0.07892276361707033,-0.094548414609452,-0.12332343974107589,0.06052248326635404,0.2930864620403817,-0.0012645089696973189
3324,5.0,299.91511,753.7282700000001,0.0,0.0,0.0,0.0,0.033129675056620414,0.0,-0.05786981983580654,-0.09853933520232522,-0.07270541844696614,0.03922625205657966,0.25184738562040176,-0.026738987208432576
3325,5.0,300.13473,425.53089000000006,0.0,0.0,0.0,0.0,0.03313964186620424,0.0,-0.052381545602906046,-0.05828401621168454,-0.018685204252336083,0.08475049993822312,0.2840788713014017,-0.04840717239741595
3326,5.0,299.76013,613.0305900000001,0.0,0.0,0.0,0.0,0.033149608675788055,0.0,-0.07317469307177993,-0.08223435473339892,-0.03093694418098867,0.09087270092393732,0.30304464349317767,-0.038499745655379065
3327,5.0,300.23677999999995,686.16583,0.0,0.0,0.0,0.0,0.03315957548537187,0.0,-0.06928298182269793,-0.07210115357757983,-0.06719314335894692,0.07771130862525902,0.3028750558239407,-0.008912415447811923
3328,5.0,300.36019,712.40625,0.0,0.0,0.0,0.0,0.033169542294955695,0.0,-0.038773122558859265,-0.07160929563453722,-0.1061712940357909,0.06333372439055195,0.27938767532591674,-0.004615584010622675
3329,5.0,300.74061,702.77182,0.0,0.0,0.0,0.0,0.03317950910453952,0.0,-0.033928543822986566,-0.06073634591196064,-0.11896019229295687,0.07488057966188784,0.3066722815011977,0.0019625324039618678
3330,5.0,300.86885,515.67259,0.0,0.0,0.0,0.0,0.033189475914123336,0.0,-0.029547983983658974,-0.050998571687167156,-0.07620503635785153,0.07669837060628984,0.3122887876005037,-0.003025330940476917
3331,5.0,299.74132000000003,645.14202,0.0,0.0,0.0,0.0,0.03319944272370715,0.0,-0.08265153513082142,-0.06144825340572044,-0.052007276347218544,0.08497970825659422,0.2930555072498267,0.005665115151653334
3332,5.0,299.71836,1359.0638,0.0,0.0,0.0,0.0,0.033209409533290976,0.0,-0.19254998353320382,-0.10905136625253191,-0.1115200994586769,0.05493513850492605,0.25789743103999474,0.0013652168090614088
3333,5.0,299.22994,1139.6589999999999,0.0,0.0,0.0,0.0,0.0332193763428748,0.0,-0.16043447445864986,-0.07741928893318893,-0.10857412545543191,0.0934071737965703,0.2969190400136277,0.016859507930653883
3334,5.0,299.91871000000003,349.07066000000003,0.0,0.0,0.0,0.0,0.033229343152458624,0.0,-0.017591744261169984,-0.04991004723723815,-0.03860697284721156,0.07885860360748823,0.3011575158444327,-0.01158212245431649
3335,5.0,300.44307000000003,354.98581,0.0,0.0,0.0,0.0,0.03323930996204244,0.0,0.01029405866219449,-0.06152184272073314,-0.05667903919903564,0.07647191022218992,0.2999384746491227,-0.001164860989937829
3336,5.0,300.40936,788.05547,0.0,0.0,0.0,0.0,0.03324927677162626,0.0,-0.07119401001480173,-0.098116017549047,-0.07023915757106514,0.043191093618379056,0.27222730031424275,-0.02333239578922818
3337,5.0,299.97477000000003,847.63541,0.0,0.0,0.0,0.0,0.03325924358121008,0.0,-0.08712137344971012,-0.08622096293384651,-0.08431766482675562,0.06913880241296853,0.3059675863216497,-0.04035131227861446
3338,5.0,300.64091,603.91972,0.0,0.0,0.0,0.0,0.033269210390793905,0.0,-0.07864289785994973,-0.059999926885031744,-0.04493368924635986,0.08962493814129273,0.2880086098267367,-0.037111988185918064
3339,5.0,300.39464,484.70914000000005,0.0,0.0,0.0,0.0,0.03327917720037773,0.0,-0.026458610773261577,-0.050045693054625355,-0.07083517154488712,0.09303927281776131,0.2851910348761637,-0.012900528020682986
3340,5.0,299.57615,539.44815,0.0,0.0,0.0,0.0,0.033289144009961545,0.0,-0.003938406575965466,-0.05790695646522164,-0.1021334011947819,0.07180579421318013,0.28028001429148375,0.0022708365450141176
3341,5.0,298.84425,1046.5816,0.0,0.0,0.0,0.0,0.03329911081954536,0.0,-0.07510671276620542,-0.08618282926633301,-0.15684513730440985,0.06999842251955643,0.3023625437908597,0.014573909547582883
3342,5.0,299.46709,1191.6749,0.0,0.0,0.0,0.0,0.033309077629129186,0.0,-0.13118068764152585,-0.10382615707684391,-0.12723255862687588,0.06796667064428813,0.3252848043106107,-0.0009878458225652921
3343,5.0,300.10983,470.55632,0.0,0.0,0.0,0.0,0.03331904443871301,0.0,-0.07361604049733753,-0.03402754038425677,-0.03539379060709517,0.049793858861521254,0.2799821086295827,-0.005926382703188434
3344,5.0,300.26395,327.66037,0.0,0.0,0.0,0.0,0.03332901124829683,0.0,-0.051754726799543856,-0.061325077657313945,0.013479233656296788,0.07398077608283413,0.2957665592173867,-0.038300453546210464
3345,5.0,300.82687000000004,1069.3069,0.0,0.0,0.0,0.0,0.03333897805788065,0.0,-0.13565953679355386,-0.08600838812911701,-0.1033746730972859,0.036485490582837565,0.28016553729518573,0.008242668480113041
3346,5.0,299.81891,1089.2514,0.0,0.0,0.0,0.0,0.03334894486746447,0.0,-0.09183132772429642,-0.08707857781848652,-0.15219532246300885,0.07171111815033633,0.3052715442979557,-0.0030716280600710873
3347,5.0,299.41637000000003,437.12838,0.0,0.0,0.0,0.0,0.03335891167704829,0.0,-0.0038077876949743866,-0.048527403641031856,-0.08054092098702001,0.040851844655763164,0.2900556384737627,0.006669043046758303
3348,5.0,300.21299,405.88152,0.0,0.0,0.0,0.0,0.033368878486632114,0.0,0.0013628701218298088,-0.04700865522514305,-0.07773206201380722,0.09293092091831781,0.33400731713395565,-0.014892255503751187
3349,5.0,300.01282000000003,923.3167,0.0,0.0,0.0,0.0,0.03337884529621594,0.0,-0.1053101023782979,-0.0890722851922501,-0.08628283198495251,0.1192107791751879,0.32833017814866566,0.012131308061516887
3350,5.0,300.35606,1183.2056,0.0,0.0,0.0,0.0,0.033388812105799755,0.0,-0.14745709141788185,-0.0846296506120462,-0.12757821876598988,0.09428116381607642,0.30802959080515374,-0.016762127503293183
3351,5.0,300.61408,1049.5999,0.0,0.0,0.0,0.0,0.03339877891538357,0.0,-0.10842531954574589,-0.08081573467914202,-0.12981109774635788,0.08491994777894632,0.2525532055075608,0.007703746995100632
3352,5.0,299.13379,418.36081,0.0,0.0,0.0,0.0,0.033408745724967395,0.0,-0.00032433887454725473,-0.06316694342409195,-0.06367995701597244,0.08674520637658532,0.2527979256717128,-0.01112486902868909
3353,5.0,300.46589,396.53055,0.0,0.0,0.0,0.0,0.03341871253455122,0.0,-0.006000619991640084,-0.050058553224894546,-0.06447621150105665,0.09000911799620832,0.3032092257069207,0.01088151877867229
3354,5.0,300.41888,974.2049900000001,0.0,0.0,0.0,0.0,0.033428679344135036,0.0,-0.10520498781292391,-0.0997793192639521,-0.09114968702427372,0.06935267215132583,0.2916719446357797,-0.030294619611346173
3355,5.0,299.30556,1152.4345,0.0,0.0,0.0,0.0,0.03343864615371885,0.0,-0.13652773000923787,-0.1060278583516349,-0.1077557132171609,0.05340972898287986,0.28243376857154273,-0.011737479025898988
3356,5.0,299.6401,479.83439000000004,0.0,0.0,0.0,0.0,0.033448612963302676,0.0,-0.04069073586336296,-0.06446300682575344,-0.04070392939291506,0.06043629013334744,0.2914848480048147,-0.029452362558471872
3357,5.0,299.23855,74.50024,0.0,0.0,0.0,0.0,0.0334585797728865,0.0,0.040034502409597765,-0.04186201042245876,-0.02081870467614618,0.1101757090934959,0.3171345954087477,-0.018727300740990684
3358,5.0,300.79067000000003,746.4222,0.0,0.0,0.0,0.0,0.033468546582470324,0.0,-0.058398258133959345,-0.05739195588989504,-0.1111035016800619,0.08253850100266583,0.3008237715264947,0.00016247543373757684
3359,5.0,301.32247,1116.4071,0.0,0.0,0.0,0.0,0.03347851339205414,0.0,-0.0996717951898403,-0.07073058285631503,-0.16895750873480783,0.06873461086857793,0.2547894484782608,0.025183222739890578
3360,5.0,300.13866,748.1893299999999,0.0,0.0,0.0,0.0,0.03348848020163796,0.0,-0.07033031765606193,-0.08276844595385963,-0.07433211042250813,0.053024605792121156,0.28725972681032774,-0.002227620212348998
3361,5.0,300.63729,646.36772,0.0,0.0,0.0,0.0,0.03349844701122178,0.0,-0.08972461965963051,-0.04956557462724136,-0.05718945177790944,0.08223455029066822,0.3023352164356627,0.016913927567024683
3362,5.0,301.00426,912.9153699999999,0.0,0.0,0.0,0.0,0.0335084138208056,0.0,-0.1122788211335569,-0.08265671385208252,-0.08256794402407162,0.05965387360487894,0.3021995017172687,0.0069005114194774534
3363,5.0,300.01417000000004,1108.1224,0.0,0.0,0.0,0.0,0.03351838063038943,0.0,-0.12775415951335387,-0.08055147905306201,-0.1285358920980049,0.050807017769012246,0.2559857827388297,0.0018087933848390083
3364,5.0,300.09006,1049.5643,0.0,0.0,0.0,0.0,0.033528347439973245,0.0,-0.07622955498377132,-0.10012422655824181,-0.14268756107716585,0.06888973844563784,0.27285500875119273,0.0015302815325020285
3365,5.0,300.5458,441.93593,0.0,0.0,0.0,0.0,0.03353831424955707,0.0,-0.03579380046832307,-0.059081162356856745,-0.03946252576789806,0.1093880287307579,0.3018396358117527,-0.008316478886297562
3366,5.0,300.17222999999996,76.353943,0.0,0.0,0.0,0.0,0.033548281059140886,0.0,-0.015689256754159085,-0.00998036808361064,0.002459932825051468,0.09567819455045261,0.3133602489187487,-0.030071009499777573
3367,5.0,300.54341,666.34527,0.0,0.0,0.0,0.0,0.0335582478687247,0.0,-0.07702281734131022,-0.07997806967572092,-0.04555143642157676,0.08107364026684533,0.2753358097660287,-0.02010308970027048
3368,5.0,299.4566,978.41125,0.0,0.0,0.0,0.0,0.03356821467830853,0.0,-0.1029037651133109,-0.10626392535993291,-0.08824489353159291,0.05177241510653954,0.2974099394220757,-0.016247270809480786
3369,5.0,300.06962000000004,696.98632,0.0,0.0,0.0,0.0,0.03357818148789235,0.0,-0.04855059186957036,-0.06764109210890604,-0.09567475557961322,0.08641903205014442,0.3071449424078457,-0.0021938518289163177
3370,5.0,299.81951000000004,497.95264000000003,0.0,0.0,0.0,0.0,0.033588148297476174,0.0,-0.003975799760305886,-0.08409716944599442,-0.06329219836170365,0.07340015641778143,0.3174398775313767,-0.008602644525914912
3371,5.0,299.84455,855.1556400000001,0.0,0.0,0.0,0.0,0.03359811510705999,0.0,-0.08230790858465813,-0.06595274082502874,-0.11168530988748189,0.07172043194525553,0.2688173996202118,0.016536617547787083
3372,5.0,300.28996,1206.6996,0.0,0.0,0.0,0.0,0.03360808191664381,0.0,-0.1363513940943349,-0.1039939614259049,-0.1264612017232489,0.07759015127105172,0.2583765058197758,-0.002810628209212407
3373,5.0,300.46569,1067.3489,0.0,0.0,0.0,0.0,0.03361804872622764,0.0,-0.12356427915734489,-0.13198521835342686,-0.06889791942694523,0.10206323362535691,0.28634019221207674,-0.022953665193350375
3374,5.0,299.74711,535.38359,0.0,0.0,0.0,0.0,0.033628015535811455,0.0,-0.06756573061946844,-0.039927205303508365,-0.05525030690878074,0.07740202517798513,0.31356702286665566,-0.00933695467541068
3375,5.0,299.89252,264.18743,0.0,0.0,0.0,0.0,0.03363798234539528,0.0,-0.02410195822692808,-0.03390097430101567,-0.02230345044517918,0.05904757007629144,0.2959640112643737,-0.02160378807887788
3376,5.0,299.57715,405.7135,0.0,0.0,0.0,0.0,0.033647949154979095,0.0,-0.0005134100361146256,-0.04554170415436625,-0.07727165940686902,0.050396173224465046,0.3184821471142407,-0.02032191423161678
3377,5.0,300.47823,840.49721,0.0,0.0,0.0,0.0,0.03365791596456291,0.0,-0.08075863803600702,-0.051572653862574654,-0.12315886765983389,0.06730772775975553,0.33624859595765266,0.006021978797123034
3378,5.0,300.34431,824.98286,0.0,0.0,0.0,0.0,0.033667882774146736,0.0,-0.08916610100575902,-0.08153673710579942,-0.08007135150642712,0.06984193617411243,0.3181867340475857,-0.014772762919458185
3379,5.0,300.21246,483.20036,0.0,0.0,0.0,0.0,0.03367784958373056,0.0,-0.06196871134608564,-0.04231833469774446,-0.04259379889643066,0.060968352827107934,0.2665530794892408,0.008875444079488131
3380,5.0,301.23964,661.98546,0.0,0.0,0.0,0.0,0.03368781639331438,0.0,-0.06934996069405823,-0.049329690003961355,-0.08254740037829413,0.08201353409935562,0.28731929578370674,0.007144187226751383
3381,5.0,301.63728,1165.9515,0.0,0.0,0.0,0.0,0.0336977832028982,0.0,-0.09974049050687,-0.0945731693226451,-0.16010649553378084,0.09554058100137121,0.3185971307355887,0.03529292662589067
3382,5.0,299.85318,963.96215,0.0,0.0,0.0,0.0,0.03370775001248202,0.0,-0.08960319379414672,-0.07361222865046134,-0.12980499798075587,0.08905981411001931,0.32168657082049273,0.017099186162308284
3383,5.0,299.58948,635.16565,0.0,0.0,0.0,0.0,0.03371771682206584,0.0,-0.05933067924698215,-0.06940623660461223,-0.06433758267537504,0.06608321805365584,0.27413495641001373,-0.00989878939288445
3384,5.0,298.89703,483.0264,0.0,0.0,0.0,0.0,0.033727683631649664,0.0,-0.07500071667324443,-0.05153790749014545,-0.02028933824090178,0.07548688116397513,0.2873859372427837,-0.014038045139447185
3385,5.0,300.17521,580.13541,0.0,0.0,0.0,0.0,0.03373765044123348,0.0,-0.06434144822450653,-0.05565732643420044,-0.056347904000105156,0.08827170007623851,0.3128594500568237,-0.02416826632672218
3386,5.0,300.08534,739.56923,0.0,0.0,0.0,0.0,0.0337476172508173,0.0,-0.06664079134518404,-0.09732554365578332,-0.06084424387535935,0.08670503810287102,0.3125213386309547,-0.05553420337479915
3387,5.0,299.19291,645.7376,0.0,0.0,0.0,0.0,0.03375758406040112,0.0,-0.02155633149719428,-0.06309225371947064,-0.1116395211154629,0.06164263125190404,0.2772879070111857,-0.015532532294941585
3388,5.0,299.69165,412.95962000000003,0.0,0.0,0.0,0.0,0.033767550869984946,0.0,0.004203726519950507,-0.06204018499488954,-0.06769295531527453,0.08260184939891783,0.2969212995613507,-0.01102160161824739
3389,5.0,300.70489,638.38562,0.0,0.0,0.0,0.0,0.03377751767956877,0.0,-0.03580935385735807,-0.07693466458261022,-0.08130927056435022,0.09139678933941082,0.3238623430252247,-0.004389634709873216
3390,5.0,300.0919,1033.3055,0.0,0.0,0.0,0.0,0.033787484489152586,0.0,-0.12947551944573887,-0.08601290114506242,-0.09861063862511231,0.08491672564362833,0.3054218194202867,0.0026121322106473777
3391,5.0,299.72767999999996,977.2030599999999,0.0,0.0,0.0,0.0,0.0337974512987364,0.0,-0.12651390086094988,-0.09889088333777031,-0.07164054021462084,0.04179993568158246,0.25906167566989674,-0.007758970848075804
3392,5.0,300.04225,512.58116,0.0,0.0,0.0,0.0,0.03380741810832023,0.0,-0.04091773428326596,-0.05010063654129786,-0.06479350266387084,0.04992849750830905,0.27133108060079275,-0.006113872880492275
3393,5.0,300.10998,500.93705,0.0,0.0,0.0,0.0,0.03381738491790405,0.0,-0.04557361241326536,-0.01898175519885338,-0.08771698617649251,0.07711432699759152,0.2965111865833757,-0.0036230997621471066
3394,5.0,299.56076,932.6016900000001,0.0,0.0,0.0,0.0,0.033827351727487874,0.0,-0.0908709307760126,-0.08982906750643872,-0.1027876263868489,0.09466692130139771,0.29994371315213975,0.007800939565892793
3395,5.0,299.07444,824.8168900000001,0.0,0.0,0.0,0.0,0.03383731853707169,0.0,-0.11798721888443188,-0.06488729314612725,-0.06784922381194702,0.08655757778931782,0.26963386641829074,-0.007212954585863193
3396,5.0,300.10221,686.47954,0.0,0.0,0.0,0.0,0.03384728534665551,0.0,-0.1099101767722899,-0.05501399469395854,-0.04374846932613776,0.1033482475346779,0.29718595035496975,-0.009203137673128971
3397,5.0,300.00619,702.2404700000001,0.0,0.0,0.0,0.0,0.03385725215623933,0.0,-0.1018522952195389,-0.05409186009595095,-0.05751941059347385,0.11394468535796488,0.3341419882047467,-0.02787152116320497
3398,5.0,299.76022,681.1641,0.0,0.0,0.0,0.0,0.033867218965823155,0.0,-0.038121159954265564,-0.06961055139452653,-0.09932516537038061,0.09432159857456701,0.3159158885859707,0.0016780858444641784
3399,5.0,300.03127,734.5683799999999,0.0,0.0,0.0,0.0,0.03387718577540698,0.0,-0.03265185882948757,-0.08466790992257212,-0.10597068064849191,0.054305359998021746,0.29076162048093773,0.0006174240598925104
3400,5.0,300.97301,834.24171,0.0,0.0,0.0,0.0,0.03388715258499079,0.0,-0.052609049634608954,-0.050861871076425855,-0.15011772406046583,0.03660908683003557,0.28730346881714475,0.031236597699312172
3401,5.0,301.09438,629.97062,0.0,0.0,0.0,0.0,0.03389711939457461,0.0,-0.07803381498633792,-0.057347057764713945,-0.05611446434931645,0.054883695797349044,0.31533724171886274,0.012212201896500487
3402,5.0,300.53112000000004,550.82801,0.0,0.0,0.0,0.0,0.033907086204158436,0.0,-0.07671403443958573,-0.06384387757740013,-0.026880050874104475,0.05659303047754724,0.29408154456608876,-0.03206521539259037
3403,5.0,300.00992,963.20495,0.0,0.0,0.0,0.0,0.03391705301374226,0.0,-0.1259959071448279,-0.07984972837830462,-0.08694461906251581,0.09208744289907302,0.2920237450704997,-0.032096012116129766
3404,5.0,300.9668,980.5806699999999,0.0,0.0,0.0,0.0,0.033927019823326084,0.0,-0.04413230568926946,-0.10836695633998589,-0.14557277047191386,0.09929233708039072,0.29673034244750474,-0.03334716827335927
3405,5.0,300.34319,620.9746,0.0,0.0,0.0,0.0,0.0339369866329099,0.0,-0.030398818198629766,-0.05541030821882165,-0.1029516411805359,0.11927740036926289,0.3346931455966417,-0.012400324949816788
3406,5.0,299.57267,639.04895,0.0,0.0,0.0,0.0,0.03394695344249372,0.0,-0.02872952918888377,-0.07036499512748433,-0.09516040044460031,0.1027734408854489,0.29238296249595175,0.008865312591738232
3407,5.0,298.73312000000004,621.2309799999999,0.0,0.0,0.0,0.0,0.03395692025207754,0.0,-0.08705786901294273,-0.055312250940394145,-0.046468587855592554,0.07269658695909452,0.28179986917648175,0.0032777456245633068
3408,5.0,298.99455,561.50194,0.0,0.0,0.0,0.0,0.033966887061661365,0.0,-0.08427633840817701,-0.04795921858120636,-0.03844701004067447,0.05555504896910645,0.29083201096538475,-0.02040122131694378
3409,5.0,300.1969,747.0649400000001,0.0,0.0,0.0,0.0,0.03397685387124518,0.0,-0.1026716801779059,-0.05813256875898785,-0.06628483557180394,0.042567375360322866,0.3309557726027917,-0.007187124814313993
3410,5.0,300.4328,982.00245,0.0,0.0,0.0,0.0,0.033986820680829,0.0,-0.07465171382205052,-0.09542965038042321,-0.12842286404934988,0.04475339355006606,0.3062506073395817,0.0014418502313495386
3411,5.0,298.94595,799.12263,0.0,0.0,0.0,0.0,0.03399678749041282,0.0,-0.05198927595919205,-0.07096799444749573,-0.11995605502124089,0.049720589733540155,0.3046233884739877,0.015654166889945986
3412,5.0,300.41282,903.3828599999999,0.0,0.0,0.0,0.0,0.03400675429999664,0.0,-0.08806587047742473,-0.09957553035083971,-0.08696443215497122,0.08504469102525751,0.3106724003784787,0.0048934886221747255
3413,5.0,300.0907,1020.1096,0.0,0.0,0.0,0.0,0.03401672110958047,0.0,-0.13136026595674888,-0.07932249280802052,-0.0994050783792674,0.0981569082700826,0.32755896310005267,0.0007692848679675051
3414,5.0,299.85726,568.7326099999999,0.0,0.0,0.0,0.0,0.034026687919164286,0.0,-0.09256268455372572,-0.06172334675487004,-0.018594480878132383,0.1018548891397949,0.2966803486875707,-0.03614756154198657
3415,5.0,300.18417999999997,360.24638,0.0,0.0,0.0,0.0,0.0340366547287481,0.0,-0.02040012194058528,-0.06034971095205274,-0.02875607127525327,0.08431449132744241,0.2714073580683207,-0.05170779710791225
3416,5.0,300.26608999999996,578.9098799999999,0.0,0.0,0.0,0.0,0.03404662153833193,0.0,-0.019345547448506882,-0.07280067915511763,-0.08382792153667172,0.1043121016923029,0.2862713925302867,-0.029317390552401172
3417,5.0,299.47334,573.4590000000001,0.0,0.0,0.0,0.0,0.034056588347915744,0.0,-0.034816381931609366,-0.05968921070211644,-0.07981162409504403,0.1046081632390219,0.3118500097771997,0.006046356074653884
3418,5.0,298.91736000000003,539.49703,0.0,0.0,0.0,0.0,0.034066555157499574,0.0,-0.042862407444940256,-0.04477655746060216,-0.07635465894711813,0.08995448152431611,0.2965516659248707,0.00041270863088867064
3419,5.0,299.38245,747.8163099999999,0.0,0.0,0.0,0.0,0.03407652196708339,0.0,-0.10538036114023192,-0.06373497852290264,-0.058202142563854246,0.053713042360564546,0.2834972860090037,0.021395570249578378
3420,5.0,299.17778,823.01687,0.0,0.0,0.0,0.0,0.03408648877666721,0.0,-0.09846492312823131,-0.08689707027507311,-0.06481458535870153,0.0999028020271389,0.2993321964517877,-0.012641567639625588
3421,5.0,299.59481,990.21647,0.0,0.0,0.0,0.0,0.03409645558625103,0.0,-0.09868700120564872,-0.08676839764487411,-0.11554568131097089,0.07599181408630813,0.32303264318083974,-0.015515174307478485
3422,5.0,298.83101,1086.3938,0.0,0.0,0.0,0.0,0.03410642239583485,0.0,-0.07872423448522702,-0.1113885390656929,-0.14012380527664287,0.08232887475572732,0.2986258395420757,-0.05057508684762245
3423,5.0,300.08723,891.0736,0.0,0.0,0.0,0.0,0.03411638920541868,0.0,-0.08665660474809102,-0.07382434647939573,-0.11038317205147088,0.03690692865718026,0.2846270902680067,0.012692319310634387
3424,5.0,300.67172999999997,422.63954,0.0,0.0,0.0,0.0,0.034126356015002496,0.0,-0.03708248740925656,-0.06245508456633694,-0.028934293861842476,0.07410041660164172,0.2910864380654947,-0.022759146505402877
3425,5.0,300.16238,473.66844000000003,0.0,0.0,0.0,0.0,0.03413632282458631,0.0,-0.1033904088713389,-0.03767627831235917,-0.0029166905687299472,0.08111833675525652,0.3069462237982337,0.025851309193325577
3426,5.0,299.61473,894.1171800000001,0.0,0.0,0.0,0.0,0.034146289634170136,0.0,-0.1088332337710039,-0.07143947795752753,-0.09151658488548371,0.08702183378638632,0.2910016796946297,-0.018468208637420283
3427,5.0,300.24757,779.01683,0.0,0.0,0.0,0.0,0.03415625644375395,0.0,-0.05306581163393785,-0.07769301540795363,-0.1060428341881129,0.07357167736820923,0.27147836663532876,-0.005347078642065575
3428,5.0,301.34889,642.49196,0.0,0.0,0.0,0.0,0.034166223253337784,0.0,-0.007547509605206202,-0.06710892099738483,-0.12064508535424287,0.1004786087542166,0.29644889196722773,-0.021884466462578682
3429,5.0,301.02654,906.60516,0.0,0.0,0.0,0.0,0.0341761900629216,0.0,-0.07664405938767972,-0.06312285285924055,-0.13581841440923387,0.09944914665261659,0.3214436137115147,0.01175932571130509
3430,5.0,300.32712000000004,976.0384300000001,0.0,0.0,0.0,0.0,0.03418615687250542,0.0,-0.10076638495486791,-0.07291574180997343,-0.12300918022256088,0.0895767966025415,0.3022720605569297,0.012894764654114188
3431,5.0,298.82392000000004,937.2089300000001,0.0,0.0,0.0,0.0,0.03419612368208924,0.0,-0.13860050534130486,-0.05846662211820635,-0.08782098008725592,0.03855757386508626,0.3021697628268337,0.0011413245073399589
3432,5.0,300.39973,904.8213,0.0,0.0,0.0,0.0,0.03420609049167306,0.0,-0.07315558013514363,-0.10060953383938791,-0.1012779668243571,0.030093893753286076,0.2978346229364887,-5.4300241058516544e-05
3433,5.0,299.78467,464.02075999999994,0.0,0.0,0.0,0.0,0.03421605730125688,0.0,-0.024292720796754874,-0.06465968677616424,-0.052098316868703545,0.052828023113719945,0.3180219086538187,-0.039006452778637166
3434,5.0,299.42994,354.86147,0.0,0.0,0.0,0.0,0.034226024110840705,0.0,0.0023481871457230277,-0.035640691285462364,-0.07457652255862973,0.06249706757098034,0.3034558305162587,-0.01132525342146549
3435,5.0,299.67947000000004,774.10821,0.0,0.0,0.0,0.0,0.03423599092042452,0.0,-0.09885436479091622,-0.04754309095063775,-0.08891210960319201,0.10775275452686889,0.2915241621086947,-0.014022660963178887
3436,5.0,300.43292,811.23559,0.0,0.0,0.0,0.0,0.034245957730008346,0.0,-0.1070048847605599,-0.06264214674679854,-0.07694832724695863,0.09408891987460341,0.3151274685506597,0.007739838558362592
3437,5.0,299.33538,513.81421,0.0,0.0,0.0,0.0,0.03425592453959216,0.0,-0.08781159739132992,-0.04049518163381326,-0.027879910874032975,0.11442919115828189,0.3306968061422337,-0.004697869949918666
3438,5.0,299.72456,809.1382,0.0,0.0,0.0,0.0,0.034265891349175986,0.0,-0.06416567263690884,-0.09399184342227271,-0.08780029154671411,0.07067510640008992,0.29222698277555775,-0.029142284723119572
3439,5.0,300.9981,1195.33,0.0,0.0,0.0,0.0,0.03427585815875981,0.0,-0.10519652717458891,-0.1017018883746949,-0.15645204692811485,0.05414526242922135,0.2929047964299527,-0.0013869304547293787
3440,5.0,301.97796,1099.0505,0.0,0.0,0.0,0.0,0.03428582496834363,0.0,-0.05540500892079865,-0.11990591940629289,-0.15877298747467386,0.05610317066370185,0.2882769589832207,-0.039280263353160164
3441,5.0,300.93653,695.31531,0.0,0.0,0.0,0.0,0.034295791777927444,0.0,-0.035356695520934164,-0.08943654455019973,-0.0865652511323251,0.06985920600881683,0.3029541501267467,-0.0062166801740635635
3442,5.0,300.48008,460.58806,0.0,0.0,0.0,0.0,0.03430575858751127,0.0,-0.06220286533819484,-0.022888289283648278,-0.05491611372104845,0.04589814223479396,0.2882749426155217,-0.0038118199237473366
3443,5.0,299.98098999999996,341.33013,0.0,0.0,0.0,0.0,0.03431572539709509,0.0,-0.086688147223704,-0.04100318977019976,0.023935499473999877,0.06524836583251234,0.27846881960523273,-0.012903366134213088
3444,5.0,300.09566,573.2587,0.0,0.0,0.0,0.0,0.034325692206678915,0.0,-0.05421791347464145,-0.06450004820965914,-0.055538369859210346,0.06184941634556214,0.3250256655975357,-0.027062683125128877
3445,5.0,300.40845,861.18031,0.0,0.0,0.0,0.0,0.03433565901626273,0.0,-0.09343688330275242,-0.08016268283069082,-0.08817774443421582,0.07944393488550593,0.33892290747658665,-0.02227484943460648
3446,5.0,299.53283,690.5129900000001,0.0,0.0,0.0,0.0,0.03434562582584655,0.0,-0.042988318968616754,-0.07195524252342954,-0.09495514434534309,0.07498510451570363,0.3277618157700727,-0.014907294161735385
3447,5.0,299.02946000000003,673.45862,0.0,0.0,0.0,0.0,0.03435559263543037,0.0,-0.06311381264184834,-0.056621002259807846,-0.08497978830335212,0.07310261856566673,0.2912126991604557,-0.016524729084363782
3448,5.0,299.87023,1079.2787,0.0,0.0,0.0,0.0,0.034365559445014196,0.0,-0.13291668903785586,-0.09484710655343061,-0.10030997050032331,0.09797183104656691,0.27770760533510674,0.02317730671567208
3449,5.0,300.00431000000003,1111.0797,0.0,0.0,0.0,0.0,0.03437552625459802,0.0,-0.13252704371190088,-0.11018832405724088,-0.09502511737074891,0.0981323460744085,0.2822701692103967,-0.014649049135248586
3450,5.0,300.2303,689.1372700000001,0.0,0.0,0.0,0.0,0.03438549306418184,0.0,-0.056223801127857145,-0.06423968245071304,-0.0890170377305476,0.07782053191978852,0.28361213790783874,-0.0015115885880321784
3451,5.0,300.22774,674.99688,0.0,0.0,0.0,0.0,0.03439545987376565,0.0,-0.036351422395856064,-0.08561977834476422,-0.08321099509403583,0.06384477734348894,0.2843768580233107,-0.03219581421122947
3452,5.0,300.68433999999996,706.16429,0.0,0.0,0.0,0.0,0.03440542668334948,0.0,-0.03774836193772326,-0.06083468082091553,-0.11607327050553988,0.08531008554444992,0.33428845350670167,-0.005908548994803385
3453,5.0,299.94915,479.90752000000003,0.0,0.0,0.0,0.0,0.0344153934929333,0.0,-0.025811015276598872,-0.05592369266023874,-0.06414519383913773,0.0991700215813191,0.33549079634036366,-0.01057132745930879
3454,5.0,300.37637,590.74914,0.0,0.0,0.0,0.0,0.034425360302517125,0.0,-0.08297259963700802,-0.06504288884473335,-0.03155749805898257,0.07600745461485173,0.31266746956037667,-0.0021154098565246983
3455,5.0,299.69647000000003,917.45024,0.0,0.0,0.0,0.0,0.03443532711210094,0.0,-0.1215761203411289,-0.07795432450274282,-0.07935152039688532,0.028027058093305274,0.25944061094229476,0.017096015702745382
3456,5.0,299.1868,840.76458,0.0,0.0,0.0,0.0,0.03444529392168476,0.0,-0.08529869458682574,-0.0939458094437295,-0.07632693439788192,0.07540402365029772,0.30697257843333475,-0.03608887916244507
3457,5.0,298.49742000000003,905.10468,0.0,0.0,0.0,0.0,0.03445526073126858,0.0,-0.08512021362146102,-0.09839204916778921,-0.09161695845363982,0.06854002023987334,0.3052329394691457,-0.014346752047414186
3458,5.0,299.00682,952.01222,0.0,0.0,0.0,0.0,0.034465227540852406,0.0,-0.06478481809726373,-0.07731555542770123,-0.14728756454365086,0.10730911310308491,0.3209413861669487,-0.019033209052181484
3459,5.0,299.85882000000004,785.13734,0.0,0.0,0.0,0.0,0.03447519435043623,0.0,-0.08639101973787983,-0.06706401881920335,-0.08520710792353682,0.08067728519872813,0.28837277191267674,0.015169228431836285
3460,5.0,300.65525,547.7302,0.0,0.0,0.0,0.0,0.034485161160020046,0.0,-0.058411909652556646,-0.028525089769207177,-0.07955930658164222,0.0992870742593713,0.31164812982727574,0.011419737980040388
3461,5.0,300.12995,524.3270200000001,0.0,0.0,0.0,0.0,0.03449512796960386,0.0,-0.05964148054290584,-0.04024857986422556,-0.05949226122717904,0.09377118490824542,0.2817086564024797,0.028404176608273973
3462,5.0,300.0561,630.49108,0.0,0.0,0.0,0.0,0.03450509477918769,0.0,-0.04260644729742896,-0.06095376810516853,-0.08809332854188462,0.07006217520259833,0.2799318311596207,-0.0018148025658820685
3463,5.0,300.47877,732.8583,0.0,0.0,0.0,0.0,0.03451506158877151,0.0,-0.06700218523185084,-0.06509525057015104,-0.09067318792624691,0.06032591376020414,0.25072591027722074,-0.016868144874506285
3464,5.0,300.4336,952.9480199999999,0.0,0.0,0.0,0.0,0.03452502839835533,0.0,-0.07980513422815352,-0.1046536986985159,-0.1052135700412709,0.05712796066909075,0.3168576842889187,-0.02288847166866628
3465,5.0,301.27918999999997,850.9819699999999,0.0,0.0,0.0,0.0,0.034534995207939144,0.0,-0.1097862664175609,-0.07564568379914773,-0.07324532470975073,0.08249968541783502,0.32488101401325964,-0.021996724441157682
3466,5.0,301.18016,647.18336,0.0,0.0,0.0,0.0,0.03454496201752297,0.0,-0.07835741363102464,-0.05843794714037635,-0.05993221847359945,0.07461422964785114,0.31549563297449473,0.007208331733606952
3467,5.0,300.65207000000004,838.2767200000001,0.0,0.0,0.0,0.0,0.034554928827106784,0.0,-0.07935735469096113,-0.09725882012344822,-0.07819901629589202,0.06885692839414974,0.28734549843129276,-0.004706863557806266
3468,5.0,300.27392000000003,937.68483,0.0,0.0,0.0,0.0,0.034564895636690615,0.0,-0.11016301306974291,-0.05260168026663166,-0.12226807896691988,0.08507732882422861,0.3132793206332617,0.028377967881187374
3469,5.0,300.21974,650.71143,0.0,0.0,0.0,0.0,0.03457486244627443,0.0,-0.04968792559006645,-0.06125319060246924,-0.08685891127630711,0.11344337987098989,0.30984165688649074,-0.02819038894317477
3470,5.0,298.7886,502.56109000000004,0.0,0.0,0.0,0.0,0.03458482925585825,0.0,-0.016979028885949682,-0.04913729812797375,-0.08664969539565912,0.08278005476025532,0.3059635029237467,-0.004828711036656675
3471,5.0,299.03747999999996,653.01439,0.0,0.0,0.0,0.0,0.03459479606544207,0.0,-0.059631885064458844,-0.05984275659577024,-0.07902542611720233,0.0952659334822656,0.25836929147906373,-0.01166688082518149
3472,5.0,298.81737000000004,818.99236,0.0,0.0,0.0,0.0,0.03460476287502589,0.0,-0.06352186061611953,-0.10567322081663491,-0.07975814880776642,0.057664556643798645,0.3247616024889747,-0.01939727285286178
3473,5.0,299.23049,849.7351800000001,0.0,0.0,0.0,0.0,0.03461472968460972,0.0,-0.1051220228947359,-0.07477385301560473,-0.07840240294871473,0.07335998510431684,0.3011260240313247,-0.005468967157545035
3474,5.0,299.36314,907.6139099999999,0.0,0.0,0.0,0.0,0.03462469649419354,0.0,-0.09137317554583031,-0.0947336022772286,-0.08978518668435802,0.06641415262906653,0.2900970702703517,-0.0045121849789929854
3475,5.0,299.52787,780.10384,0.0,0.0,0.0,0.0,0.034634663303777354,0.0,-0.07606659903643882,-0.09107803301695201,-0.06998745510047404,0.07543656316400914,0.2597825017910368,-0.0091668160007693
3476,5.0,300.00011,748.15298,0.0,0.0,0.0,0.0,0.03464463011336118,0.0,-0.05810040921406394,-0.08034726254840742,-0.08897215277761782,0.08317026446651601,0.3171824005484657,-0.028671386871645572
3477,5.0,300.12372999999997,1003.7998,0.0,0.0,0.0,0.0,0.034654596922944994,0.0,-0.1251771200040199,-0.09277840752651592,-0.08717453564270682,0.09816182354631771,0.3269547519329217,0.005836912314058394
3478,5.0,300.47801,787.27468,0.0,0.0,0.0,0.0,0.034664563732528825,0.0,-0.07913203725297402,-0.05737031590750935,-0.10280949232400691,0.04680842585963195,0.3159948511662637,-0.007813839455565913
3479,5.0,299.47636,294.547,0.0,0.0,0.0,0.0,0.03467453054211264,0.0,-0.017226390593112383,-0.02241962260889448,-0.04988891995940305,0.056527674832847145,0.29155984877721675,0.012219135566934788
3480,5.0,299.30144,496.7166,0.0,0.0,0.0,0.0,0.03468449735169646,0.0,-0.03068532277040557,-0.04460862949502896,-0.07569549010781323,0.05633818693164615,0.3187135430395777,-0.02064995901774228
3481,5.0,299.47409,860.04168,0.0,0.0,0.0,0.0,0.03469446416128028,0.0,-0.06992355853591793,-0.051896206911006854,-0.13961143509857588,0.08075223125562472,0.3059851966083877,-0.005019886911199266
3482,5.0,299.69081,736.61096,0.0,0.0,0.0,0.0,0.0347044309708641,0.0,-0.05266578252095805,-0.1020323193648059,-0.06921324083156503,0.08189905507655743,0.29475078612463773,-0.03370246644742447
3483,5.0,299.39742,727.3607599999999,0.0,0.0,0.0,0.0,0.03471439778044793,0.0,-0.07115536972223824,-0.08154082860970321,-0.06840331050988113,0.07220440477601993,0.26545714818108074,-0.006885708342141504
3484,5.0,299.02299999999997,736.1612700000001,0.0,0.0,0.0,0.0,0.034724364590031746,0.0,-0.099187630854807,-0.07399833570706714,-0.05058867858446386,0.1176102087872239,0.3252781776549567,0.003259181970806217
3485,5.0,298.70451,704.51833,0.0,0.0,0.0,0.0,0.03473433139961556,0.0,-0.09732580102130871,-0.062154812965452444,-0.05467536549728844,0.07130895107964552,0.3284056247511117,0.006533282225484754
3486,5.0,299.72325,843.51255,0.0,0.0,0.0,0.0,0.03474429820919939,0.0,-0.11011416428242189,-0.045471342040922055,-0.1008212483947825,0.0924457038164306,0.33449594686217965,-0.004029877019467896
3487,5.0,299.79666000000003,859.4252,0.0,0.0,0.0,0.0,0.034754265018783204,0.0,-0.08168312540074683,-0.07896334225707513,-0.100597335321434,0.04725809510826086,0.2945538001726967,-0.006057252870204314
3488,5.0,300.0779,523.65008,0.0,0.0,0.0,0.0,0.03476423182836703,0.0,-0.030773933518150772,-0.05611594470771254,-0.07228667055163893,0.08724138177830401,0.3280277432588177,-0.04719626658715886
3489,5.0,301.16365,601.93423,0.0,0.0,0.0,0.0,0.03477419863795085,0.0,-0.04902192440533725,-0.06744141699119964,-0.06650963523898992,0.0953972496819755,0.28930027065671376,-0.010412314068115389
3490,5.0,300.06506,775.96379,0.0,0.0,0.0,0.0,0.03478416544753467,0.0,-0.07927937698976532,-0.08578502930357322,-0.07080921106407503,0.08752366109716282,0.2957066862689777,-0.04840494324719596
3491,5.0,299.70815,803.3257,0.0,0.0,0.0,0.0,0.034794132257118485,0.0,-0.08845008680934391,-0.04731514210214095,-0.1084257248457859,0.06516799990083084,0.2613852000042107,0.03219619418001697
3492,5.0,299.93327,583.8534900000001,0.0,0.0,0.0,0.0,0.03480409906670231,0.0,-0.03153901739040867,-0.08088905345637802,-0.06504881230481795,0.09227445036402922,0.2931947784760717,-0.044560952024823554
3493,5.0,299.8252,697.29647,0.0,0.0,0.0,0.0,0.03481406587628613,0.0,-0.040975975899013965,-0.07685057090381082,-0.0941341685843191,0.08220333712133772,0.31462674061624174,0.03065673290558397
3494,5.0,299.95549,979.9201099999999,0.0,0.0,0.0,0.0,0.034824032685869956,0.0,-0.10476854046484989,-0.09352677479862401,-0.0995759275448789,0.08781886138129683,0.3041399263212737,-0.01142870119042499
3495,5.0,299.65096,911.3098699999999,0.0,0.0,0.0,0.0,0.03483399949545377,0.0,-0.0977691506290639,-0.08383753626687061,-0.09540875716336122,0.04181901619421556,0.2884483401051347,0.03464135006958507
3496,5.0,298.75126,856.2806800000001,0.0,0.0,0.0,0.0,0.03484396630503759,0.0,-0.11275752101080089,-0.06093347777191603,-0.08659694255570283,0.05459228101558865,0.3139591709203577,0.012996657084170188
3497,5.0,299.66684,783.19587,0.0,0.0,0.0,0.0,0.03485393311462141,0.0,-0.08528778086999861,-0.06281111430697435,-0.08997309290215291,0.07209205560493193,0.3110888968320837,0.004572704684940816
3498,5.0,299.17728999999997,510.53047000000004,0.0,0.0,0.0,0.0,0.03486389992420524,0.0,-0.04020137558181686,-0.06399501092256583,-0.05099212842978125,0.09457545521487072,0.3146380991498627,-0.018572081971421784
3499,5.0,300.29301,785.1075599999999,0.0,0.0,0.0,0.0,0.03487386673378906,0.0,-0.06635900345262373,-0.06453037579840223,-0.1077637178929509,0.0974025334381316,0.3087231301011007,-0.06266867059466624
3500,5.0,300.44555,1022.388,0.0,0.0,0.0,0.0,0.03488383354337288,0.0,-0.0992890024743116,-0.11773547689708688,-0.09375592840148972,0.1014599445158169,0.3043185116513987,-0.03415365861095367
3501,5.0,299.40292999999997,563.44754,0.0,0.0,0.0,0.0,0.034893800352956694,0.0,-0.039826524720571965,-0.06568075714043604,-0.06576670101391803,0.07866912887853852,0.3043970790641527,-0.049113516134876654
3502,5.0,299.98079,377.87613,0.0,0.0,0.0,0.0,0.03490376716254052,0.0,-0.02956788928187347,-0.04277224541129196,-0.042524772246618256,0.082962720448533,0.2725073221118787,0.013435814876261687
3503,5.0,300.51027999999997,766.4757400000001,0.0,0.0,0.0,0.0,0.03491373397212434,0.0,-0.07510706031098972,-0.07020770628796114,-0.08767472047507122,0.07119291165169334,0.2899779120585917,0.02013364324378588
3504,5.0,300.91418999999996,884.5142,0.0,0.0,0.0,0.0,0.034923700781708165,0.0,-0.05465823346459765,-0.07787575810323892,-0.13633623587283886,0.07356665063446313,0.3089601394319917,0.026829810894396174
3505,5.0,301.03497000000004,887.54753,0.0,0.0,0.0,0.0,0.03493366759129198,0.0,-0.04857924556914825,-0.12122956854192689,-0.09998346990735021,0.07770409631104723,0.3333359376176957,-0.011770331633891289
3506,5.0,300.14536,851.9970400000001,0.0,0.0,0.0,0.0,0.0349436344008758,0.0,-0.0938625567625131,-0.07068366431043453,-0.09443960370771322,0.07086925525175093,0.3147159876850497,-0.01284130152583779
3507,5.0,299.17115,700.3917700000001,0.0,0.0,0.0,0.0,0.03495360121045962,0.0,-0.09819834817267241,-0.04844830123222505,-0.06625495989260544,0.09193036481557061,0.31909188049441667,-0.008565450749194172
3508,5.0,299.91573,799.13072,0.0,0.0,0.0,0.0,0.034963568020043446,0.0,-0.08002295564190082,-0.08750575088839523,-0.07538707805562533,0.06762009047408334,0.3037301173183287,-0.03433377698847997
3509,5.0,300.16292000000004,780.47615,0.0,0.0,0.0,0.0,0.03497353482962727,0.0,-0.0945491998782795,-0.040195374101474564,-0.10250068409102991,0.057371956359421244,0.3112000605005547,0.0037800152190084566
3510,5.0,300.46884,611.23018,0.0,0.0,0.0,0.0,0.03498350163921109,0.0,-0.017928808999685682,-0.06959422286916503,-0.09827567942030441,0.04573032775323196,0.2948452007689557,-0.015870037797250786
3511,5.0,299.86877999999996,436.40938,0.0,0.0,0.0,0.0,0.034993468448794904,0.0,-0.025383060990863078,-0.038476482446333164,-0.06879801094058502,0.05020757495685185,0.3031667299977267,-0.0037462473422008266
3512,5.0,300.23309,799.75415,0.0,0.0,0.0,0.0,0.03500343525837873,0.0,-0.07905689259905783,-0.05505789679429135,-0.1089905003190249,0.08303478178239493,0.2925741830548237,-0.003111799170885667
3513,5.0,300.49692999999996,989.41049,0.0,0.0,0.0,0.0,0.03501340206796255,0.0,-0.09659635416831791,-0.10883586822126391,-0.095323865043483,0.1006779728041423,0.2920815712537067,0.0076197836202640925
3514,5.0,299.84528,704.6128,0.0,0.0,0.0,0.0,0.03502336887754637,0.0,-0.06355988789237253,-0.06085886406105224,-0.08976594506495901,0.08791403393668962,0.28036550220242074,0.042163402677953855
3515,5.0,299.95392000000004,834.3419,0.0,0.0,0.0,0.0,0.03503333568713019,0.0,-0.08341211004013432,-0.07608335819309284,-0.09412363686277972,0.0889607314224906,0.3092065111938067,0.016719306540817085
3516,5.0,299.72649,971.8616900000001,0.0,0.0,0.0,0.0,0.03504330249671401,0.0,-0.07353706778454352,-0.10438958492744989,-0.1174950326483569,0.1001925327872331,0.2974067071542567,0.007463719293486743
3517,5.0,299.88605,703.9946,0.0,0.0,0.0,0.0,0.03505326930629783,0.0,-0.04788244360787925,-0.07065028481239023,-0.09546405022131822,0.09635073018507671,0.3295528163818307,-0.037878830047099465
3518,5.0,300.17349,661.34037,0.0,0.0,0.0,0.0,0.035063236115881656,0.0,-0.05265985500787305,-0.08404985370607472,-0.06432125111026324,0.06829739041067763,0.3039318554132387,-0.03849922383157756
3519,5.0,300.44973,673.5717900000001,0.0,0.0,0.0,0.0,0.03507320292546547,0.0,-0.08328313343490533,-0.046377620288114756,-0.07508825033613334,0.05096259016286605,0.3055427609522227,-0.031425126052668464
3520,5.0,300.22832,291.6564,0.0,0.0,0.0,0.0,0.03508316973504929,0.0,-0.056218865586620044,-0.0026290796291699573,-0.029808316305351773,0.0908604730217305,0.2957857704392827,-0.03063018372646377
3521,5.0,300.4343,457.61510999999996,0.0,0.0,0.0,0.0,0.03509313654463311,0.0,-0.017995601433027586,-0.06929780364516074,-0.05181016069926475,0.09081081059457922,0.3265596046589237,-0.018627339565625282
3522,5.0,299.36349,887.18295,0.0,0.0,0.0,0.0,0.03510310335421693,0.0,-0.07900563531624913,-0.06927986202564003,-0.1213959644733489,0.08642856673358543,0.3127711858406127,-0.012348858937487488
3523,5.0,298.80143,912.0102699999999,0.0,0.0,0.0,0.0,0.03511307016380076,0.0,-0.09254625875635461,-0.07981269307389952,-0.1048693993798039,0.07093961229894463,0.30406907987428167,0.02191900207898708
3524,5.0,300.03,848.7755300000001,0.0,0.0,0.0,0.0,0.03512303697338458,0.0,-0.0978543811744755,-0.08417841183901242,-0.07597377418152773,0.08487097841486342,0.2993270592737807,-0.014074190810264488
3525,5.0,299.88788,982.4219300000001,0.0,0.0,0.0,0.0,0.035133003782968394,0.0,-0.11949400284313987,-0.08245133717606343,-0.09668639258545401,0.08625008678147082,0.31073558665471473,0.032143464644812964
3526,5.0,300.20092,920.49064,0.0,0.0,0.0,0.0,0.03514297059255222,0.0,-0.1044826012866299,-0.0971907530214805,-0.07813281357410833,0.09272569116356322,0.3019856046211587,0.01064547406187649
3527,5.0,300.98295,648.53738,0.0,0.0,0.0,0.0,0.035152937402136035,0.0,-0.05372097813534774,-0.05567606649479995,-0.08774212592472361,0.05592003685387795,0.2858939872655397,0.020236154769652983
3528,5.0,301.3158,692.35731,0.0,0.0,0.0,0.0,0.035162904211719866,0.0,-0.06657661208385003,-0.05655664669295645,-0.08732607631441272,0.08043863845567552,0.27958887639827373,-0.02792805342603427
3529,5.0,300.44432,764.3182,0.0,0.0,0.0,0.0,0.03517287102130368,0.0,-0.08122090400987912,-0.06645374233697372,-0.08465899940119272,0.08744817396471281,0.3163044699993207,-0.04106900644369536
3530,5.0,300.36371,586.0282900000001,0.0,0.0,0.0,0.0,0.0351828378308875,0.0,-0.04676933061777355,-0.05427560692208535,-0.07709302848048952,0.07942353410799252,0.3241601372296147,-0.060588043587574344
3531,5.0,299.59629,609.66496,0.0,0.0,0.0,0.0,0.03519280464047132,0.0,-0.05161277755328455,-0.07924934729655163,-0.05446079864286235,0.04882335980974045,0.3147404678074657,-0.042144779141115855
3532,5.0,299.77417,806.5060900000001,0.0,0.0,0.0,0.0,0.03520277145005514,0.0,-0.08897988894213131,-0.06898879580191403,-0.08718902815888711,0.04807456494609016,0.3016047948360757,0.003497073234584257
3533,5.0,299.56068,673.55484,0.0,0.0,0.0,0.0,0.03521273825963897,0.0,-0.034773008747828765,-0.08316136914388812,-0.08680947480392812,0.07340877512313203,0.32215224030145073,-0.031662316755327366
3534,5.0,298.84604,575.92699,0.0,0.0,0.0,0.0,0.03522270506922279,0.0,-0.03488049431843677,-0.07401631988309203,-0.06617060986153074,0.08439072927821652,0.3176532680024367,0.016222081411994785
3535,5.0,299.08567,825.33816,0.0,0.0,0.0,0.0,0.035232671878806604,0.0,-0.06451342209772903,-0.0941055696002466,-0.09226320126141901,0.095701817463284,0.3208742786128257,-0.0017709383611030083
3536,5.0,299.92149,790.1961299999999,0.0,0.0,0.0,0.0,0.03524263868839043,0.0,-0.08998242290907373,-0.08209017836341982,-0.06812729003689004,0.0997027763248979,0.2959854820339927,0.01311081591993679
3537,5.0,299.77262,595.9992,0.0,0.0,0.0,0.0,0.035252605497974245,0.0,-0.06919554036556813,-0.05213812138563195,-0.059835213962025846,0.09736850444677321,0.3036933363396987,-0.013097572741129788
3538,5.0,298.89885,747.1899400000001,0.0,0.0,0.0,0.0,0.035262572307558075,0.0,-0.07668974683468872,-0.060984132170915244,-0.08945320744809422,0.08740849002454633,0.2993503133635757,0.005436459257236756
3539,5.0,299.18031,737.5732,0.0,0.0,0.0,0.0,0.03527253911714189,0.0,-0.06911915954652993,-0.04802300368825146,-0.1070616774286649,0.06842758696902702,0.3061686658039947,-0.011419690357285689
3540,5.0,299.5412,709.31345,0.0,0.0,0.0,0.0,0.03528250592672571,0.0,-0.08069727864970133,-0.05354918259414285,-0.08136711599930913,0.05859046458517865,0.3101136030808297,-0.03312861326653957
3541,5.0,299.98862,863.1796,0.0,0.0,0.0,0.0,0.03529247273630953,0.0,-0.1039427821633539,-0.06893798130939903,-0.08950428639888532,0.06348168423640443,0.30510812732182774,-0.029889567817620675
3542,5.0,299.74015,788.50361,0.0,0.0,0.0,0.0,0.03530243954589335,0.0,-0.07742286874579223,-0.06916151745371034,-0.09310102230535551,0.07699966558977533,0.30511179528718974,-0.024695812964786977
3543,5.0,299.60765,583.23086,0.0,0.0,0.0,0.0,0.03531240635547717,0.0,-0.07814551973036234,-0.05930796825924074,-0.039834129162572465,0.07560180399031713,0.3140893330282037,0.002293508421301658
3544,5.0,301.54958999999997,821.0527,0.0,0.0,0.0,0.0,0.03532237316506099,0.0,-0.055315362631451245,-0.07807547679069964,-0.11618867969192989,0.07942859225249173,0.32404947005369267,0.029976143959165074
3545,5.0,300.99388999999996,872.24421,0.0,0.0,0.0,0.0,0.035332339974644814,0.0,-0.08319178995164042,-0.07208329200481703,-0.1098653809853689,0.07879808825851582,0.3244788651810707,0.023632394825835776
3546,5.0,300.14887000000004,725.89212,0.0,0.0,0.0,0.0,0.03534230678422863,0.0,-0.04051886027540016,-0.0911158535901846,-0.0890183650881786,0.07933730247148213,0.3093745789878937,0.015297288045724788
3547,5.0,299.86399,702.65221,0.0,0.0,0.0,0.0,0.035352273593812454,0.0,-0.06311979385718865,-0.07916128167736022,-0.07130765107976723,0.08759675898587702,0.3075970242049627,-0.02086274356524248
3548,5.0,299.84782,940.34828,0.0,0.0,0.0,0.0,0.03536224040339628,0.0,-0.08866160580746922,-0.1064397850472889,-0.09074100678194011,0.07756542188911113,0.2919310124213477,-0.026505957923934374
3549,5.0,300.05044,748.5891799999999,0.0,0.0,0.0,0.0,0.035372207212980095,0.0,-0.08785905498626362,-0.06582792361146024,-0.07386543782395114,0.08433028789650142,0.29551353040241474,-0.05211736394408335
3550,5.0,299.50897000000003,459.17675,0.0,0.0,0.0,0.0,0.03538217402256392,0.0,-0.02115273371736228,-0.043021908209431754,-0.07540362544300842,0.06781924275473815,0.29252528360499774,-0.017354227291978882
3551,5.0,299.24157,556.57982,0.0,0.0,0.0,0.0,0.035392140832147735,0.0,-0.03677598330700697,-0.06011314339820534,-0.07229724077668213,0.08121370993416913,0.29943610524954273,-0.014630793408196886
3552,5.0,299.39837,742.51751,0.0,0.0,0.0,0.0,0.03540210764173156,0.0,-0.07750529968117752,-0.04518645056330546,-0.1030150301067919,0.07486843281968902,0.30203010656555074,-0.0028724521706889575
3553,5.0,300.77819,902.31915,0.0,0.0,0.0,0.0,0.03541207445131538,0.0,-0.09679166319134341,-0.09395553360493922,-0.08353529490779171,0.08858803473095832,0.3042556293501927,-0.02712644188767137
3554,5.0,300.37389,970.10057,0.0,0.0,0.0,0.0,0.0354220412608992,0.0,-0.1202761407278309,-0.08923998821630111,-0.08537021788488451,0.09459497547804721,0.3147713010080087,0.003941360503981996
3555,5.0,300.62683,997.79072,0.0,0.0,0.0,0.0,0.03543200807048302,0.0,-0.1036056434575809,-0.09646287670614472,-0.1032349459084959,0.08409656960193522,0.30586007035353874,0.032512570377990865
3556,5.0,300.44209,833.28301,0.0,0.0,0.0,0.0,0.03544197488006684,0.0,-0.04161568527014836,-0.0979242974578757,-0.1137572442219659,0.1020084370599489,0.3175638486811117,0.017340963848169882
3557,5.0,300.64398,948.66971,0.0,0.0,0.0,0.0,0.035451941689650664,0.0,-0.08964864312738222,-0.07954638966936742,-0.11917686569434088,0.09004373264612452,0.31519926745274573,0.026369375863454773
3558,5.0,299.35561,797.40071,0.0,0.0,0.0,0.0,0.03546190849923449,0.0,-0.07478779938998113,-0.05770126568167154,-0.10990083460636789,0.08228939447883092,0.30732518946813475,0.009162365198380042
3559,5.0,300.01856000000004,470.92647,0.0,0.0,0.0,0.0,0.03547187530881831,0.0,-0.04502043257417075,-0.049199351590597955,-0.04893010266802516,0.08194672140101172,0.2893405878781927,-0.015908725712568985
3560,5.0,300.21667,495.33642000000003,0.0,0.0,0.0,0.0,0.03548184211840213,0.0,-0.038554061940239664,-0.05265759039389954,-0.059358249782203144,0.05583521566150674,0.31174605031693975,-0.04237059408490206
3561,5.0,299.54632999999995,781.73092,0.0,0.0,0.0,0.0,0.035491808927985945,0.0,-0.09281792225391572,-0.06554653189968904,-0.07926222570532263,0.06436349857318273,0.3162401387504717,-0.026792496946213575
3562,5.0,299.1628,697.35995,0.0,0.0,0.0,0.0,0.03550177573756977,0.0,-0.058837258872285345,-0.058493483378357344,-0.09464927149790581,0.06119800900202323,0.3277484611337547,-0.01969705910694838
3563,5.0,300.61028,731.3247,0.0,0.0,0.0,0.0,0.03551174254715359,0.0,-0.07773200020555113,-0.05940020745559403,-0.08517224097434573,0.07138699869509822,0.33797353266289065,0.02314461420119558
3564,5.0,301.29276,995.0106400000001,0.0,0.0,0.0,0.0,0.035521709356737416,0.0,-0.07698383659671314,-0.11419238447741088,-0.1112821680701949,0.08309739861207473,0.3428299390671807,-0.00996480152232434
3565,5.0,301.39995,998.73407,0.0,0.0,0.0,0.0,0.03553167616632123,0.0,-0.0954486011970435,-0.1130510696972719,-0.0950905530622069,0.093488575269854,0.3300451039429157,-0.005064965496223176
3566,5.0,300.81836,882.78351,0.0,0.0,0.0,0.0,0.03554164297590505,0.0,-0.08490105978383222,-0.1048597532388519,-0.07858332787332063,0.08989711940965492,0.3240301473742857,-0.013420785337528385
3567,5.0,300.04142,728.54336,0.0,0.0,0.0,0.0,0.03555160978548887,0.0,-0.061919330602462144,-0.08211244250786712,-0.07742721558872122,0.08261755781521812,0.2957680588275347,0.0008172031775891743
3568,5.0,299.76153999999997,539.95682,0.0,0.0,0.0,0.0,0.0355615765950727,0.0,-0.026776683151902875,-0.03841996639550546,-0.09893674303729631,0.07940122132754042,0.31945827173057667,-0.0029822913186292373
3569,5.0,300.30716,552.5596099999999,0.0,0.0,0.0,0.0,0.035571543404656514,0.0,-0.04712996659336555,-0.05444095312640375,-0.06639340532001893,0.08497478183460802,0.3038910518317117,-0.016783325708635284
3570,5.0,299.33829,654.66256,0.0,0.0,0.0,0.0,0.03558151021424033,0.0,-0.05485248668101895,-0.03262618509845376,-0.11152239953640389,0.10033365927441121,0.3123047158920757,-0.015221516189996686
3571,5.0,299.97395,763.1198,0.0,0.0,0.0,0.0,0.035591477023824154,0.0,-0.09136519822779302,-0.05397208785463035,-0.08663207801617041,0.07997684161659972,0.28981363381987874,-0.014236186196502186
3572,5.0,299.50509,622.7142200000001,0.0,0.0,0.0,0.0,0.03560144383340798,0.0,-0.06671107847812084,-0.055886236857042144,-0.06669225735751334,0.07577353772326592,0.3114153457493017,-0.02175725696552408
3573,5.0,299.97886,851.0863099999999,0.0,0.0,0.0,0.0,0.0356114106429918,0.0,-0.1040321305571719,-0.06953864407467984,-0.08513820894323701,0.06551843954066652,0.3238683819958207,-0.018827657083895083
3574,5.0,300.87951,954.25131,0.0,0.0,0.0,0.0,0.03562137745257562,0.0,-0.09923505298598721,-0.07409432291554033,-0.11673919873626189,0.06975030898081953,0.3317684802429997,0.00956280812270068
3575,5.0,301.79452000000003,660.29718,0.0,0.0,0.0,0.0,0.035631344262159435,0.0,-0.08087803030854013,-0.050095643244805046,-0.06974017951956984,0.09541319621204931,0.31940359675518065,0.00933028049832699
3576,5.0,300.57204,559.40972,0.0,0.0,0.0,0.0,0.03564131107174326,0.0,-0.009173473357901332,-0.06458909262844714,-0.0962840198249929,0.07388706970033602,0.3163402478603517,-0.002941190652172917
3577,5.0,299.98244,730.45619,0.0,0.0,0.0,0.0,0.035651277881327076,0.0,-0.06728841217309924,-0.09203994376088522,-0.06271208734820113,0.08535294501042982,0.3094648393068017,-0.011894835753178888
3578,5.0,299.38377,780.8163400000001,0.0,0.0,0.0,0.0,0.03566124469091091,0.0,-0.05533286146067824,-0.06757254472639093,-0.1144432652021709,0.07490089431314273,0.3053313868488617,-0.011315414762994488
3579,5.0,300.20521,750.7674099999999,0.0,0.0,0.0,0.0,0.03567121150049472,0.0,-0.07920141854032142,-0.07200823955665994,-0.07700488788079073,0.0992268831504309,0.2890056479251367,-0.0025295634732484776
3580,5.0,299.87555,577.1544700000001,0.0,0.0,0.0,0.0,0.03568117831007854,0.0,-0.03330783086472697,-0.07013053817359523,-0.07200217728131163,0.08483724833228452,0.3116326068357437,-0.03085308962921287
3581,5.0,299.8959,562.1550900000001,0.0,0.0,0.0,0.0,0.035691145119662364,0.0,-0.054850817858104244,-0.06508972835710602,-0.050940563118942156,0.05608538103169615,0.3076205417397837,-0.01024155305526259
3582,5.0,299.05462,778.8831799999999,0.0,0.0,0.0,0.0,0.03570111192924618,0.0,-0.05441220114156615,-0.08731450094527031,-0.0950343369334088,0.05557008965359086,0.32219757311092473,-0.03454486231556247
3583,5.0,299.96949,886.13234,0.0,0.0,0.0,0.0,0.03571107873883001,0.0,-0.11556176159005788,-0.06249613031463785,-0.09130421070427401,0.05664578939700415,0.3154448387469817,-0.007661162525197872
3584,5.0,299.78114,730.3004099999999,0.0,0.0,0.0,0.0,0.03572104554841383,0.0,-0.061416212411058234,-0.06940782740726924,-0.09116904922043462,0.08650934911105801,0.3466649589731677,-0.016240666445328986
3585,5.0,300.74636,583.66242,0.0,0.0,0.0,0.0,0.035731012357997645,0.0,-0.04609280987050616,-0.06958624048487724,-0.06173975026073894,0.09130357235671101,0.3204764158285597,-0.008390980126400263
3586,5.0,299.42228,795.4906900000001,0.0,0.0,0.0,0.0,0.03574097916758147,0.0,-0.07990706414846321,-0.06747694153970564,-0.0944253006693016,0.06609345086641573,0.3175041581177207,0.0048752581250505155
3587,5.0,300.22819,1009.6374,0.0,0.0,0.0,0.0,0.035750945977165285,0.0,-0.1099689250130879,-0.08052232886093513,-0.11641329697409789,0.093996446617477,0.3067299151668857,0.015986177536962885
3588,5.0,300.16666000000004,904.57295,0.0,0.0,0.0,0.0,0.035760912786749116,0.0,-0.06611849739563763,-0.0977758542917255,-0.1110732358995749,0.08683511611095872,0.3153580741409187,-0.009208563931389501
3589,5.0,300.94667999999996,687.67902,0.0,0.0,0.0,0.0,0.03577087959633293,0.0,-0.07136190960937214,-0.06529960690331944,-0.07237573422217884,0.095491821380059,0.3153528761679057,0.01080244271436809
3590,5.0,300.7275,660.04678,0.0,0.0,0.0,0.0,0.03578084640591675,0.0,-0.05298383260809715,-0.06708884547315354,-0.08056506065740242,0.05917190903581274,0.28412298821075577,-0.02140431257144118
3591,5.0,300.37438,793.56827,0.0,0.0,0.0,0.0,0.03579081321550057,0.0,-0.07809597686672283,-0.060563611087913034,-0.10256534971241191,0.07969735177526621,0.3060831677605567,0.0067928244147495735
3592,5.0,299.33477,893.6573199999999,0.0,0.0,0.0,0.0,0.03580078002508439,0.0,-0.0987745956635436,-0.06436643598522264,-0.10850847698145288,0.0974311678859576,0.30919578087524774,-0.03421651355440697
3593,5.0,300.77315,940.4014599999999,0.0,0.0,0.0,0.0,0.035810746834668214,0.0,-0.09881839846536661,-0.0913546462412516,-0.09568551629567522,0.09093742126082473,0.31183291624801274,-0.008191508266663924
3594,5.0,300.16032,630.59032,0.0,0.0,0.0,0.0,0.03582071364425204,0.0,-0.07022440160985884,-0.06758301666617443,-0.05387629316367615,0.07275904065550823,0.3182544698167707,-0.04041945638758976
3595,5.0,300.21005,519.35839,0.0,0.0,0.0,0.0,0.035830680453835854,0.0,-0.053564828188936944,-0.06801397017220624,-0.03629318280660826,0.07290641788255323,0.3059135496938167,-0.004563970773053845
3596,5.0,299.79746,767.71006,0.0,0.0,0.0,0.0,0.03584064726341968,0.0,-0.051445813188556455,-0.0899869308587686,-0.0919319454857266,0.07866196216058122,0.35009212544890267,-0.021277415155417378
3597,5.0,300.1545,887.7598800000001,0.0,0.0,0.0,0.0,0.035850614073003495,0.0,-0.06698560035421404,-0.0947437702419821,-0.1081274645463499,0.07927791284337082,0.3235291661273427,0.0025914208719783273
3598,5.0,300.3548,711.85498,0.0,0.0,0.0,0.0,0.03586058088258732,0.0,-0.05159191878672595,-0.0960957295854101,-0.06869848951576303,0.07609638656287863,0.3157872564857757,-0.01872506348476988
3599,5.0,301.61784,765.83815,0.0,0.0,0.0,0.0,0.035870547692171136,0.0,-0.06414144582701783,-0.07834568830086742,-0.090308540493509,0.06407886142134124,0.2992976243583757,0.012664386031877589
3600,5.0,300.48431,763.8523299999999,0.0,0.0,0.0,0.0,0.03588051450175496,0.0,-0.07664154551418163,-0.06475273150634704,-0.09079775790679101,0.09651183087147609,0.3068781435240147,-0.01835662953640828
3601,5.0,300.46176,818.0889900000001,0.0,0.0,0.0,0.0,0.035890481311338776,0.0,-0.07749008877067633,-0.07709057337549723,-0.09409796414499601,0.09049166315758182,0.3110371805469797,0.001200674213397319
3602,5.0,299.60617,710.3779400000001,0.0,0.0,0.0,0.0,0.0359004481209226,0.0,-0.06692072701656153,-0.05886109963388824,-0.09015533099888842,0.08615903106123432,0.3034543410386117,-0.008086354285861033
3603,5.0,299.63252,534.93717,0.0,0.0,0.0,0.0,0.035910414930506424,0.0,-0.058266576150963346,-0.036194856003654165,-0.06814611014424744,0.07853052639735952,0.30446004242536673,0.019991242087981982
3604,5.0,298.98602,526.493,0.0,0.0,0.0,0.0,0.03592038174009024,0.0,-0.05713027594556924,-0.04364469529064605,-0.05926575220707435,0.08015787090596592,0.3172668549443007,-0.030689488241566674
3605,5.0,298.88164,925.82198,0.0,0.0,0.0,0.0,0.035930348549674064,0.0,-0.0913245577795321,-0.0988601393032361,-0.09124206503589072,0.09898832253363682,0.31523972652923865,-0.018252429935874583
3606,5.0,299.00442999999996,1059.4373,0.0,0.0,0.0,0.0,0.03594031535925788,0.0,-0.12067104482180488,-0.10195539341721391,-0.09941604579834981,0.07934211642270722,0.2948671376336207,-0.024569884215858775
3607,5.0,299.8764,758.77756,0.0,0.0,0.0,0.0,0.035950282168841705,0.0,-0.06855234440083964,-0.08460680790179181,-0.07749027723519493,0.07980952666733701,0.3152740351776247,0.0035056831246589866
3608,5.0,300.80048999999997,520.95934,0.0,0.0,0.0,0.0,0.03596024897842553,0.0,-0.027111673767463876,-0.05807906206095715,-0.07316789416360893,0.08767261190161312,0.3276229599763687,-0.005287979816732975
3609,5.0,300.47007,829.4960599999999,0.0,0.0,0.0,0.0,0.035970215788009345,0.0,-0.05260514963497405,-0.07784284672674083,-0.1216980953881669,0.06630941397947963,0.3289416745840157,0.02062551030607938
3610,5.0,300.1136,901.4775300000001,0.0,0.0,0.0,0.0,0.03598018259759317,0.0,-0.07645105449538163,-0.08043957469876792,-0.11713602800542589,0.08123932489669712,0.30814849570438874,0.012610282529537989
3611,5.0,300.06271,759.2095099999999,0.0,0.0,0.0,0.0,0.035990149407176986,0.0,-0.07525490869933123,-0.07426298346093582,-0.08126284040501792,0.06723112605219553,0.3000383304464777,-0.014631990056564986
3612,5.0,300.41578,736.67263,0.0,0.0,0.0,0.0,0.03600011621676081,0.0,-0.09411077466601031,-0.059003617313453646,-0.07081569383821484,0.09140145535612132,0.32127069244944867,-0.02190179810553918
3613,5.0,299.3467,738.79402,0.0,0.0,0.0,0.0,0.03601008302634463,0.0,-0.06954649169670434,-0.07344297028750683,-0.08158547240910922,0.07776255678881683,0.3153954428046067,-0.043022286151719054
3614,5.0,300.72778,983.49126,0.0,0.0,0.0,0.0,0.03602004983592845,0.0,-0.07617543425618002,-0.1023796412340839,-0.1204017128127239,0.08301044452824301,0.3075693320797297,-0.016652809976504382
3615,5.0,300.55618,939.2910300000001,0.0,0.0,0.0,0.0,0.036030016645512274,0.0,-0.09532951087304022,-0.06920885751163243,-0.12098264962505788,0.07660668464449114,0.3055204593175217,-0.004369153682951896
3616,5.0,300.31847,682.02273,0.0,0.0,0.0,0.0,0.03603998345509609,0.0,-0.047923673767698356,-0.06953196878302102,-0.08986223827496241,0.08382692044557292,0.3191597986486197,0.010797840532413889
3617,5.0,299.90292999999997,359.66848999999996,0.0,0.0,0.0,0.0,0.036049950264679914,0.0,-0.04943137674424705,-0.033240982702629575,-0.026657881604178073,0.09200035506622811,0.34248167487530967,-0.029878901333817973
3618,5.0,299.05143,557.86684,0.0,0.0,0.0,0.0,0.03605991707426374,0.0,-0.056324391531534644,-0.038793783741648366,-0.07445941313857193,0.06121926394937094,0.31267079302070466,0.003375587891319587
3619,5.0,298.83195,951.17491,0.0,0.0,0.0,0.0,0.036069883883847555,0.0,-0.09496464660478092,-0.1041598405997759,-0.09000893155818991,0.07347656966082283,0.3345486966623857,-0.04213121577527726
3620,5.0,299.8274,1036.6758,0.0,0.0,0.0,0.0,0.03607985069343138,0.0,-0.07778246411353153,-0.09432147698455501,-0.14301960313493586,0.07929833793888663,0.32801796539535266,0.007565156267622794
3621,5.0,299.33321,656.34106,0.0,0.0,0.0,0.0,0.036089817503015195,0.0,-0.05499745338607605,-0.06046775661520294,-0.08404608238920251,0.08403327288143832,0.34484326701588064,-0.02983510157174527
3622,5.0,299.28721,782.36641,0.0,0.0,0.0,0.0,0.03609978431259902,0.0,-0.06601465445913914,-0.056072068951882346,-0.1157331325794709,0.07791271944038672,0.29552273071332275,0.024221841925759678
3623,5.0,300.15992,1007.9148,0.0,0.0,0.0,0.0,0.03610975112218284,0.0,-0.13454765692881987,-0.06740620756347473,-0.10442705491614791,0.07208147220763743,0.3017392632568467,-0.01174553031119359
3624,5.0,300.26829,899.0269,0.0,0.0,0.0,0.0,0.03611971793176666,0.0,-0.11348635180773091,-0.06265659062697404,-0.09713879051660221,0.0958460992112735,0.30911078945685966,-0.014809508434334685
3625,5.0,300.98989,592.0982799999999,0.0,0.0,0.0,0.0,0.036129684741350476,0.0,-0.06020068415384494,-0.04932365711286595,-0.07045875014598724,0.08269403084001542,0.31706425558680573,-0.043921469621711555
3626,5.0,299.72154,309.97038,0.0,0.0,0.0,0.0,0.0361396515509343,0.0,-0.02982686891468277,-0.026417579210462075,-0.03797880844771657,0.0989637846559651,0.3090464987380147,-0.010250908393435891
3627,5.0,299.3054,584.11288,0.0,0.0,0.0,0.0,0.036149618360518124,0.0,-0.04219420244124356,-0.06991980849729784,-0.06544171826959473,0.05803997391184944,0.3105320044446227,-0.023765754750997375
3628,5.0,299.12816000000004,1047.1338,0.0,0.0,0.0,0.0,0.03615958517010195,0.0,-0.0999818304686884,-0.08205908881060152,-0.13626161000297388,0.08437837674624742,0.3381777430880447,0.016102133878406883
3629,5.0,299.30735,941.48767,0.0,0.0,0.0,0.0,0.036169551979685764,0.0,-0.093203801329249,-0.1076837724600609,-0.08530117299657032,0.06474969378254723,0.3288839699908207,-0.016842656568240785
3630,5.0,299.96945,578.42545,0.0,0.0,0.0,0.0,0.03617951878926958,0.0,-0.034227126335954365,-0.08253791939710843,-0.05906184677020044,0.07096195243714944,0.31424894018395566,-0.01198716512879109
3631,5.0,301.13299,711.11286,0.0,0.0,0.0,0.0,0.036189485598853405,0.0,-0.05485912346917395,-0.07588819507808173,-0.08541323440462993,0.07755457606004072,0.2977980142103757,-0.030712016844290074
3632,5.0,301.43566,1154.4441,0.0,0.0,0.0,0.0,0.03619945240843722,0.0,-0.1081102696921529,-0.12416856125198289,-0.11864333885418589,0.0982584957118585,0.3266959779898827,-0.012911039477220387
3633,5.0,301.64715,936.75039,0.0,0.0,0.0,0.0,0.03620941921802105,0.0,-0.08548229246519541,-0.06661325424721634,-0.13265318321684988,0.11011385017489089,0.32316953326934966,-0.009510597270222871
3634,5.0,300.72535,453.32973,0.0,0.0,0.0,0.0,0.03621938602760487,0.0,-0.04138949745032536,-0.02369471882623668,-0.07271669997357953,0.08198343550513512,0.30157904815103476,-0.003030248547187247
3635,5.0,299.39134,452.8312,0.0,0.0,0.0,0.0,0.036229352837188686,0.0,-0.05164688355165054,-0.03558571740128687,-0.05041677563874836,0.08939238001809101,0.3305353346062977,0.005432405344911666
3636,5.0,299.87575,871.56971,0.0,0.0,0.0,0.0,0.03623931964677251,0.0,-0.08596440598202632,-0.06948612934849703,-0.10948489544031789,0.08425386148120872,0.35185643705302666,-0.021391060273383278
3637,5.0,299.78547000000003,1180.1317,0.0,0.0,0.0,0.0,0.036249286456356326,0.0,-0.1135912637230849,-0.12632926642772788,-0.11881005902563987,0.07806555504572042,0.34497394588127767,0.0003695080846601086
3638,5.0,299.48415,990.99279,0.0,0.0,0.0,0.0,0.03625925326594016,0.0,-0.11922880489446688,-0.07945264377011543,-0.1025556123789509,0.07768849732575772,0.2930088876127257,-0.006701368258073555
3639,5.0,299.45421,596.63183,0.0,0.0,0.0,0.0,0.036269220075523974,0.0,-0.02409188753418418,-0.06960347080282774,-0.08766582109944292,0.07180296927190134,0.2826195885073817,0.0047129906811609655
3640,5.0,299.51585,557.94609,0.0,0.0,0.0,0.0,0.03627918688510779,0.0,-0.042530971310730054,-0.06611288095033334,-0.06095782718506915,0.09279482015163572,0.3125585553071277,-0.00033732066522595765
3641,5.0,300.32623,1069.1309,0.0,0.0,0.0,0.0,0.036289153694691614,0.0,-0.08358615499656122,-0.10208389379489591,-0.1393190516497199,0.06702738881483823,0.3193467230270677,0.00869327883543482
3642,5.0,300.19271000000003,1030.3305,0.0,0.0,0.0,0.0,0.03629912050427543,0.0,-0.11263205025091788,-0.09230868403190781,-0.10825401948383989,0.07626818311733363,0.31600227828949673,0.017495637489184982
3643,5.0,300.88835,512.35453,0.0,0.0,0.0,0.0,0.03630908731385926,0.0,-0.05936783411489904,-0.050385185540380656,-0.045989962958855955,0.06201820152071994,0.3413870911897827,-0.02134424203926268
3644,5.0,299.83021,396.88757000000004,0.0,0.0,0.0,0.0,0.03631905412344308,0.0,-0.05380770727765724,-0.013380933197845286,-0.05345527052187445,0.09883706759845909,0.34581367690165266,-0.006710215856621744
3645,5.0,300.43977,820.33312,0.0,0.0,0.0,0.0,0.036329020933026895,0.0,-0.07408773375014002,-0.0949352177688765,-0.08033783222972672,0.08665502509118511,0.3276645944229777,-0.05281896060482555
3646,5.0,298.97121,987.21065,0.0,0.0,0.0,0.0,0.03633898774261072,0.0,-0.1089807123230589,-0.06724735223929694,-0.1238593173214629,0.08456106269952712,0.27858878841707274,-0.00909446366147868
3647,5.0,300.31674,916.16887,0.0,0.0,0.0,0.0,0.036348954552194536,0.0,-0.05997673662999304,-0.1076590288926189,-0.1108566942207039,0.07994937341963883,0.29794370944225473,-0.03980954568864626
3648,5.0,300.17241,560.1616799999999,0.0,0.0,0.0,0.0,0.03635892136177836,0.0,-0.023403632337508678,-0.08396503656670391,-0.06290649559188773,0.08560527569608292,0.3370630058580287,-0.019435130916348083
3649,5.0,300.19309,403.23045,0.0,0.0,0.0,0.0,0.036368888171362176,0.0,-0.02694900659640987,-0.04187966225245086,-0.053743320300052744,0.09270840511685723,0.35368460367845267,-0.012083589048057387
3650,5.0,299.46012,862.34776,0.0,0.0,0.0,0.0,0.036378854980946,0.0,-0.06891017772665503,-0.10108433878324749,-0.09213766970653,0.06359114260495714,0.3093673038521757,0.005010004277673925
3651,5.0,300.4848,946.2524400000001,0.0,0.0,0.0,0.0,0.036388821790529824,0.0,-0.12127803229420989,-0.05790297033932824,-0.10845610208378391,0.07196730019961953,0.29812474683762175,0.013339781058283887
3652,5.0,301.15961,619.06799,0.0,0.0,0.0,0.0,0.03639878860011364,0.0,-0.056621695322876246,-0.07045451881356964,-0.06110499770909374,0.08258854947810522,0.3213698288392327,-0.015140251505476486
3653,5.0,300.56618,529.09454,0.0,0.0,0.0,0.0,0.036408755409697464,0.0,-0.05296165053690795,-0.06194124112262454,-0.04592863802305366,0.08543331600836182,0.3192444455619737,-0.008049469854395822
3654,5.0,300.50612,958.7934,0.0,0.0,0.0,0.0,0.03641872221928128,0.0,-0.1031616169987589,-0.07415124122665773,-0.11413640240938588,0.06893972207307084,0.3098607566508757,0.0031320154355558567
3655,5.0,300.24762999999996,1039.4428,0.0,0.0,0.0,0.0,0.036428689028865105,0.0,-0.13595566926777986,-0.07845650543780422,-0.1015524745149489,0.087665751185186,0.3251771870174897,0.002152193874904998
3656,5.0,301.19671,784.8960900000001,0.0,0.0,0.0,0.0,0.03643865583844892,0.0,-0.07837484862549533,-0.06563639198480753,-0.09457757189432961,0.10355928726550591,0.3623224087934377,-0.015159601542636186
3657,5.0,301.15201,549.7128799999999,0.0,0.0,0.0,0.0,0.03644862264803274,0.0,-0.059923376853226844,-0.05599333333961175,-0.051182277983297546,0.09194602256936592,0.33641447513152367,-0.016775737478636383
3658,5.0,301.42823,669.54535,0.0,0.0,0.0,0.0,0.03645858945761657,0.0,-0.06787154064539953,-0.05721546596097685,-0.07843806225948402,0.07487976602205752,0.3036281134307617,-0.004037575288427656
3659,5.0,299.5974,867.52268,0.0,0.0,0.0,0.0,0.036468556267200386,0.0,-0.06949047720467613,-0.07301692091195904,-0.12119783354879489,0.06881536791479803,0.28983799235228275,-0.0047491682693564154
3660,5.0,300.41025,1154.6303,0.0,0.0,0.0,0.0,0.03647852307678421,0.0,-0.10621967672806588,-0.1070552027605259,-0.13770389046031586,0.08876919776933773,0.3251620895909997,0.032575689779720265
3661,5.0,299.77256,744.5077,0.0,0.0,0.0,0.0,0.03648848988636803,0.0,-0.060361247817691345,-0.062245581935910635,-0.1037049217023789,0.08225121724156313,0.33185983487201565,0.003374736153285527
3662,5.0,300.01678,353.96297000000004,0.0,0.0,0.0,0.0,0.03649845669595184,0.0,-0.02015246943064388,-0.03791643885106116,-0.04952699614293395,0.07215885614427463,0.3040037556403347,0.01729146151453438
3663,5.0,300.51961,842.15229,0.0,0.0,0.0,0.0,0.036508423505535674,0.0,-0.08420325774471452,-0.09049521358593222,-0.08129479527342162,0.07935112624259642,0.3059401373764407,-0.028734384683362972
3664,5.0,300.30368,1113.0874,0.0,0.0,0.0,0.0,0.03651839031511949,0.0,-0.14691176021406185,-0.08211667080053442,-0.1093223498592759,0.09923721627495072,0.3222410010102107,-0.024338513621774277
3665,5.0,300.44496000000004,640.6326799999999,0.0,0.0,0.0,0.0,0.036528357124703315,0.0,-0.059617234481262944,-0.07160265479338183,-0.06351644783408535,0.10660797443138789,0.31057856328671773,-0.034885675066198066
3666,5.0,302.26676000000003,385.55715,0.0,0.0,0.0,0.0,0.03653832393428713,0.0,-0.050788811691215456,-0.03500124434610386,-0.03140968918739497,0.07673067504597803,0.2929766155970407,-0.016457245614453685
3667,5.0,301.6699,646.20619,0.0,0.0,0.0,0.0,0.03654829074387095,0.0,-0.06308993945624224,-0.03359510651982887,-0.0997455000153644,0.06651961473922484,0.3056884055215967,0.003109040293513387
3668,5.0,300.57354,956.0061800000001,0.0,0.0,0.0,0.0,0.03655825755345478,0.0,-0.08803291755767251,-0.09338985735236131,-0.1091792282826509,0.07826880997603013,0.3284625491417297,-0.026800719470775076
3669,5.0,300.10519,976.18879,0.0,0.0,0.0,0.0,0.036568224363038596,0.0,-0.08052385278908551,-0.07435017869829133,-0.14186298827828686,0.07532785662703063,0.3341835111938447,0.017731934505255682
3670,5.0,299.65536000000003,833.59371,0.0,0.0,0.0,0.0,0.03657819117262242,0.0,-0.07412833772139733,-0.09182619459928981,-0.08743714068437392,0.05609366232476345,0.3280628523747827,-0.027127700344295572
3671,5.0,298.78219,514.25168,0.0,0.0,0.0,0.0,0.036588157982206236,0.0,-0.03916580358211386,-0.03320525246435327,-0.08394861380908313,0.08656161964396672,0.3056492231402297,0.028792112581310272
3672,5.0,299.17499,631.51044,0.0,0.0,0.0,0.0,0.03659812479179005,0.0,-0.06017794580835085,-0.06921928588166164,-0.06256617426755065,0.1016671237637639,0.3313032565920857,-0.012901583827287186
3673,5.0,299.69147999999996,1018.6893,0.0,0.0,0.0,0.0,0.036608091601373884,0.0,-0.08977935036378201,-0.1047275544983049,-0.11514920667934188,0.11259706272496489,0.3140870430829777,0.04138932823755866
3674,5.0,300.60022000000004,829.94733,0.0,0.0,0.0,0.0,0.0366180584109577,0.0,-0.0907804272770806,-0.06709975513698023,-0.09440308313435891,0.09159038799626751,0.3008859242876287,-0.0014699656924743187
3675,5.0,301.03847,534.79582,0.0,0.0,0.0,0.0,0.036628025220541524,0.0,-0.054272297647258744,-0.058536582984610945,-0.04975569277000455,0.08272409194398223,0.3072745877581407,0.004720436346870796
3676,5.0,300.3764,691.16493,0.0,0.0,0.0,0.0,0.03663799203012534,0.0,-0.06882439090693852,-0.06633726214522803,-0.07493522930603133,0.06759347442045653,0.3398793243784777,-0.039333898733953564
3677,5.0,298.89495,1128.5673,0.0,0.0,0.0,0.0,0.036647958839709165,0.0,-0.12473356977274488,-0.09912251028413009,-0.11920018057914188,0.07125731484129944,0.34437852972501465,-0.01937868883277768
3678,5.0,298.78751,954.60614,0.0,0.0,0.0,0.0,0.03665792564929298,0.0,-0.11562139135844289,-0.08247409376005933,-0.0920809439129316,0.07159201769383203,0.3412230156010897,-0.007853189124524424
3679,5.0,298.72764,535.30622,0.0,0.0,0.0,0.0,0.036667892458876805,0.0,-0.03330105424805817,-0.05060192986927165,-0.07881674117960673,0.08181563622232463,0.32223322938194365,-0.008600175438071232
3680,5.0,299.27377,305.61915,0.0,0.0,0.0,0.0,0.03667785926846062,0.0,-0.008486408831418341,-0.04312169003952946,-0.04129248989900146,0.10020652070486359,0.3463948974240147,-0.0028685959434583772
3681,5.0,299.43084,570.34842,0.0,0.0,0.0,0.0,0.036687826078044446,0.0,-0.0072445554246819525,-0.08538739044757931,-0.08073973180239112,0.08934070628949121,0.3354304674294097,-0.012965022402798088
3682,5.0,299.32739,865.8616199999999,0.0,0.0,0.0,0.0,0.03669779288762826,0.0,-0.07786725490839973,-0.08645716673090802,-0.09887588926279049,0.08532220705539623,0.3234855254455357,-0.011980308465364388
3683,5.0,299.85103,915.71568,0.0,0.0,0.0,0.0,0.036707759697212086,0.0,-0.10738473195804789,-0.0999486262629114,-0.07102134105201063,0.07823905082059313,0.3076463796173337,-0.017894489205548585
3684,5.0,299.50644,586.65823,0.0,0.0,0.0,0.0,0.03671772650679591,0.0,-0.07616519941691993,-0.07471989846102983,-0.027444354172796875,0.07252955268010952,0.3252807715752127,-0.017784714702964683
3685,5.0,300.19489,613.0211099999999,0.0,0.0,0.0,0.0,0.03672769331637973,0.0,-0.06735718044413615,-0.06795801748843414,-0.05102791135706275,0.07660592673341633,0.30440678600011073,-0.024481782119663776
3686,5.0,299.5522,1132.9057,0.0,0.0,0.0,0.0,0.03673766012596355,0.0,-0.12014556318744389,-0.1103238259931139,-0.11390566509661389,0.08978775426011142,0.3189891369342767,-0.01869451906050538
3687,5.0,299.22931,1071.107,0.0,0.0,0.0,0.0,0.03674762693554737,0.0,-0.10535538452526688,-0.06899921302619214,-0.15123517680074985,0.10107571197189609,0.31720843094353474,-0.007148247421227093
3688,5.0,299.12838,574.2722200000001,0.0,0.0,0.0,0.0,0.0367575937451312,0.0,-0.01055283159198339,-0.09266416661749123,-0.07134741709319183,0.09088849749299631,0.3332633686455337,-0.03884244811745116
3689,5.0,300.83977999999996,385.16052,0.0,0.0,0.0,0.0,0.036767560554715015,0.0,-0.03482992300594576,-0.03828357381279456,-0.04396568380307516,0.1024450059980349,0.3324934201595457,-0.004260827925360975
3690,5.0,300.56268,715.7269299999999,0.0,0.0,0.0,0.0,0.03677752736429883,0.0,-0.08153758418288302,-0.04430301806611746,-0.0917225117563071,0.06458214679901164,0.3372868530701207,0.014508578220885185
3691,5.0,300.4682,845.24626,0.0,0.0,0.0,0.0,0.036787494173882655,0.0,-0.07307062316725903,-0.09551754780009801,-0.08834558728678062,0.08931126934758601,0.34402768174538867,0.0097004239009323
3692,5.0,299.981,782.42522,0.0,0.0,0.0,0.0,0.03679746098346647,0.0,-0.06625353120996444,-0.05576123523195545,-0.11582295720083588,0.06346708532896364,0.3408205627938707,0.006247340716789525
3693,5.0,300.16145,785.79083,0.0,0.0,0.0,0.0,0.0368074277930503,0.0,-0.03229421295494067,-0.09686077596741431,-0.1097058042271199,0.06721668521177035,0.3327780725101387,-0.0018608991632814483
3694,5.0,300.42118,700.85547,0.0,0.0,0.0,0.0,0.03681739460263412,0.0,-0.05513874401977035,-0.06471718365308875,-0.09318663484605481,0.07101509740489444,0.3238703882310187,0.006784402482568393
3695,5.0,300.11134,933.0506300000001,0.0,0.0,0.0,0.0,0.036827361412217936,0.0,-0.11119963884954989,-0.08860903839228122,-0.08381541701718762,0.094808708427641,0.3221448841057247,-0.007232688340835763
3696,5.0,299.70155,1103.1885,0.0,0.0,0.0,0.0,0.03683732822180176,0.0,-0.14805056213395285,-0.0975243210339011,-0.08976688232130152,0.1130800486501319,0.3239535760642287,-0.004451950401623295
3697,5.0,299.47747000000004,650.91328,0.0,0.0,0.0,0.0,0.03684729503138558,0.0,-0.06734927608010603,-0.05078053951739905,-0.07973156821789312,0.10274028734217691,0.3020254760125937,-0.015565949283239587
3698,5.0,300.51956,267.66844,0.0,0.0,0.0,0.0,0.03685726184096941,0.0,-0.03182816046544487,-0.01871211414849188,-0.030824247465116368,0.07907133343948301,0.2933760894489657,0.0018908655283638982
3699,5.0,299.46019,637.20641,0.0,0.0,0.0,0.0,0.036867228650553224,0.0,-0.027950593174508768,-0.06088760287363854,-0.10485664256104489,0.08098861338470383,0.3014497270407717,-0.019342580652214083
3700,5.0,299.07105,1027.8184,0.0,0.0,0.0,0.0,0.03687719546013704,0.0,-0.08240524442901442,-0.08756605852109711,-0.14245982298468987,0.08019150878278572,0.3351041299697027,-0.005600156093042374
3701,5.0,299.23713,620.84123,0.0,0.0,0.0,0.0,0.036887162269720865,0.0,-0.04664106430086466,-0.05551710376611155,-0.08656206243426041,0.07831688666677493,0.33089397447919267,-0.006119156371813714
3702,5.0,300.17717000000005,498.39997,0.0,0.0,0.0,0.0,0.03689712907930468,0.0,-0.06483941403915194,-0.048898106256367355,-0.03776362655047976,0.07280850043263952,0.3159169322335737,0.008398414747684003
3703,5.0,299.61587000000003,586.05494,0.0,0.0,0.0,0.0,0.036907095888888505,0.0,-0.06396711108106234,-0.05027881961113315,-0.06390013828920264,0.08078037529040233,0.3278614081224017,0.01876232575719738
3704,5.0,300.84294,873.0500300000001,0.0,0.0,0.0,0.0,0.03691706269847232,0.0,-0.10698528850362589,-0.09030590097699852,-0.06809421958012624,0.07151297202703083,0.33831251548384567,-0.04257114870369526
3705,5.0,300.03456,1018.6688,0.0,0.0,0.0,0.0,0.036927029508056146,0.0,-0.07084052758491573,-0.11947415327368088,-0.11933518602246589,0.09050125154327811,0.3231578910257007,-0.015577079835588085
3706,5.0,300.57063,868.1491699999999,0.0,0.0,0.0,0.0,0.03693699631763997,0.0,-0.09644766376914332,-0.06547578272470664,-0.1019722235013749,0.06343545064759153,0.29461981341671173,-0.03230904490990447
3707,5.0,299.5856,501.33782,0.0,0.0,0.0,0.0,0.036946963127223786,0.0,-0.045883621347610856,-0.045398375874720856,-0.06111218165230274,0.08852608360659421,0.3113799427908077,-0.002380749558886688
3708,5.0,300.33055,578.88579,0.0,0.0,0.0,0.0,0.03695692993680761,0.0,-0.08907636251065251,-0.03827597139729426,-0.04861449350037695,0.09646534093038792,0.3395107951846067,-0.027189788257423176
3709,5.0,300.30451,1014.5707,0.0,0.0,0.0,0.0,0.03696689674639143,0.0,-0.1060293478292819,-0.08659633764539311,-0.1157784856539469,0.08567720936043223,0.3297438646881857,0.02061406361969968
3710,5.0,300.3062,760.2994,0.0,0.0,0.0,0.0,0.03697686355597525,0.0,-0.08908464076396952,-0.052425005926195256,-0.08960238724706711,0.09814059089047222,0.31691799293487066,0.009115408148995741
3711,5.0,299.14633,657.52684,0.0,0.0,0.0,0.0,0.03698683036555907,0.0,-0.005986409969587664,-0.08549697952539492,-0.1083883460495969,0.07001808463774693,0.31771357664838873,-0.012895742440460687
3712,5.0,299.49115,873.4306300000001,0.0,0.0,0.0,0.0,0.036996797175142884,0.0,-0.1063053368915199,-0.06863675826667064,-0.09055900375922782,0.10742803826732189,0.34675078125663766,-0.003998555939001746
3713,5.0,300.1587,1013.9134,0.0,0.0,0.0,0.0,0.037006763984726715,0.0,-0.08573912299454262,-0.09979450990945131,-0.12267072429165789,0.07575952143463263,0.3380669239246077,-0.008757733802121033
3714,5.0,300.52769,904.35999,0.0,0.0,0.0,0.0,0.03701673079431053,0.0,-0.09246880287896031,-0.10210392574937291,-0.08033012240971582,0.08600385687466983,0.31730335221290273,0.02199379614836868
3715,5.0,299.49622999999997,855.7855,0.0,0.0,0.0,0.0,0.037026697603894355,0.0,-0.07841236522369793,-0.07979899089279723,-0.10192606995931991,0.06430030115119563,0.3251815845229237,-0.01046096020541639
3716,5.0,299.65152,767.26945,0.0,0.0,0.0,0.0,0.03703666441347817,0.0,-0.07154504645894634,-0.08575808191716372,-0.07592762570572323,0.07769665905531323,0.33951831350034867,-0.012523965780019188
3717,5.0,300.28666,485.41680999999994,0.0,0.0,0.0,0.0,0.03704663122306199,0.0,0.0033499493200642573,-0.061638884253034244,-0.0892656538413341,0.058816891532025246,0.34715948581697365,-0.049796368682018956
3718,5.0,301.12266,577.23635,0.0,0.0,0.0,0.0,0.03705659803264582,0.0,-0.06688445164973143,-0.05141253906852255,-0.05716844609008635,0.07173176109462363,0.3192722896747217,-0.01794785810156568
3719,5.0,300.74394,616.42679,0.0,0.0,0.0,0.0,0.037066564842229636,0.0,-0.06414012657538765,-0.03172395579866067,-0.09151426859575511,0.08471732207694872,0.3475919409596537,-0.022696572232227277
3720,5.0,300.75399,596.1935,0.0,0.0,0.0,0.0,0.03707653165181346,0.0,-0.06823101037012644,-0.06636213540868284,-0.046634793295995756,0.0946256860753281,0.32123255371568465,-0.007545397789347783
3721,5.0,300.44631,647.22028,0.0,0.0,0.0,0.0,0.03708649846139728,0.0,-0.06947662404930893,-0.07292488943187624,-0.05433728852192285,0.08675072757638022,0.3231257102025247,-0.0067068268390122745
3722,5.0,301.27322999999996,1050.9791,0.0,0.0,0.0,0.0,0.037096465270981094,0.0,-0.0907894178452179,-0.1024432632078629,-0.1262387325312929,0.06995899189191493,0.2966852832155577,0.0027882972915835172
3723,5.0,300.00909,996.04179,0.0,0.0,0.0,0.0,0.037106432080564924,0.0,-0.06403983001423913,-0.11333469866526388,-0.1253973093832509,0.07102436053730864,0.3176741105569937,-0.03109323699566357
3724,5.0,299.31417999999996,813.1331700000001,0.0,0.0,0.0,0.0,0.03711639889014874,0.0,-0.06554419838470874,-0.0985138853995635,-0.08311409596047263,0.07132548833452763,0.33880766041021265,-0.03604544721015867
3725,5.0,299.2038,744.5942200000001,0.0,0.0,0.0,0.0,0.037126365699732565,0.0,-0.06253870303083944,-0.058462380653287745,-0.10533696363844891,0.07638719136807884,0.33282656665992466,-0.010542797376243088
3726,5.0,299.9225,509.87717000000004,0.0,0.0,0.0,0.0,0.03713633250931638,0.0,-0.07410415549451073,-0.02114159303251278,-0.05974417952004144,0.08325922681204592,0.3225917881948307,0.02163862564381608
3727,5.0,299.47179,334.13982999999996,0.0,0.0,0.0,0.0,0.0371462993189002,0.0,-0.025916509810760376,-0.014043796347014787,-0.06160985970391974,0.08818991762091723,0.33990877955888466,0.02214585864387608
3728,5.0,300.72944,677.82637,0.0,0.0,0.0,0.0,0.03715626612848402,0.0,-0.07211023837797643,-0.04888122854945166,-0.08505082321486272,0.10236159524980291,0.34470246578198466,0.010833111768394889
3729,5.0,300.34582,849.6605199999999,0.0,0.0,0.0,0.0,0.037166232938067846,0.0,-0.08038442045607463,-0.07216061615969833,-0.1057305403747919,0.08368930081699093,0.3359277401809867,-0.016797782761062086
3730,5.0,300.75908,832.47064,0.0,0.0,0.0,0.0,0.03717619974765167,0.0,-0.10970791178732789,-0.06176239538722385,-0.08157998363331752,0.07492456586197893,0.3130264134083017,-0.001961623214647138
3731,5.0,300.4895,1221.5434,0.0,0.0,0.0,0.0,0.03718616655723549,0.0,-0.1121813464739369,-0.12814927638984888,-0.13098808906251788,0.07877916175989792,0.3368690393913857,-0.04335486219229175
3732,5.0,300.62958,1167.6528,0.0,0.0,0.0,0.0,0.0371961333668193,0.0,-0.14582650856195586,-0.12121077275257189,-0.08790001663480623,0.07804731553067033,0.3232315239104677,0.02758901588957387
3733,5.0,299.63031,604.8166,0.0,0.0,0.0,0.0,0.03720610017640313,0.0,-0.03594735649447786,-0.06809554896425743,-0.07980623867076253,0.09441420558070661,0.3369409902809867,-0.01116058305496379
3734,5.0,299.91437,523.35154,0.0,0.0,0.0,0.0,0.03721606698598695,0.0,-0.03874073705916307,-0.08162623748713242,-0.038718824512500465,0.07049121873219164,0.28553164902977973,0.016272992163269287
3735,5.0,299.65542999999997,477.36262,0.0,0.0,0.0,0.0,0.03722603379557077,0.0,-0.014849192374501186,-0.059611495432696546,-0.07064562892818073,0.1029753917628799,0.3231777000651557,-0.015575282329910685
3736,5.0,299.89056,428.97503,0.0,0.0,0.0,0.0,0.03723600060515459,0.0,-0.01836177887341648,-0.07359180862119602,-0.038444111132138366,0.07609655678889543,0.31994393263600773,-0.057321113495903436
3737,5.0,299.46977999999996,628.20381,0.0,0.0,0.0,0.0,0.03724596741473841,0.0,-0.045600523322671255,-0.06969841537694803,-0.07565933430449492,0.08310855348242563,0.3257683880533367,-0.03218173510108997
3738,5.0,298.98,846.96556,0.0,0.0,0.0,0.0,0.03725593422432223,0.0,-0.1261468611447259,-0.04557871412751886,-0.08573080623772182,0.08333516990704093,0.29805909836364275,-0.023532986885024976
3739,5.0,298.87225,817.13337,0.0,0.0,0.0,0.0,0.037265901033906056,0.0,-0.07500782563594602,-0.08198215779675902,-0.09139815824029592,0.05745315416943485,0.3285504080579007,0.0012150935729203988
3740,5.0,300.45335,925.44796,0.0,0.0,0.0,0.0,0.03727586784348987,0.0,-0.09199289045274141,-0.0934645115932291,-0.0958556703717181,0.08592605547899142,0.3171954410772527,-0.039751951539712164
3741,5.0,299.11124,1161.1907,0.0,0.0,0.0,0.0,0.037285834653073696,0.0,-0.12323435479228388,-0.08265210255087742,-0.14708650532630785,0.07536044376349672,0.32274795030024267,0.00931867827805694
3742,5.0,299.7181,924.18624,0.0,0.0,0.0,0.0,0.03729580146265751,0.0,-0.0957049565120938,-0.07701302731884402,-0.1082115541721489,0.10428752024487689,0.3302205684627327,-0.01157945760655349
3743,5.0,300.65955,591.13256,0.0,0.0,0.0,0.0,0.03730576827224134,0.0,-0.047772894046817546,-0.05271868430867905,-0.07919795829122993,0.08281845693904533,0.3375538850014747,0.006510429788029393
3744,5.0,300.6895,557.9354,0.0,0.0,0.0,0.0,0.03731573508182516,0.0,-0.06446193278064744,-0.037596286269964564,-0.06754020988919973,0.09601907924184531,0.3593657956641427,0.012494988853659388
3745,5.0,300.0106,589.01946,0.0,0.0,0.0,0.0,0.03732570189140898,0.0,-0.05149664287982295,-0.03666826367562587,-0.0908823024818849,0.05197997128352375,0.3313498356991827,0.021891920943564378
3746,5.0,300.97671,633.2056,0.0,0.0,0.0,0.0,0.0373356687009928,0.0,-0.06409409766309493,-0.03754087466174587,-0.09084371791807691,0.06297709987210584,0.2975465458005577,0.024492741432745376
3747,5.0,298.37079,829.3452,0.0,0.0,0.0,0.0,0.03734563551057662,0.0,-0.05876746620539734,-0.09026396154210942,-0.1030688032895989,0.05687180800406045,0.32069276498991167,-0.036033580024987466
3748,5.0,300.08395,1109.4591,0.0,0.0,0.0,0.0,0.03735560232016044,0.0,-0.1119156621652159,-0.09592047886136422,-0.12941171508694188,0.0887024934887545,0.3241281185264547,0.005691183746251105
3749,5.0,300.13543,932.30107,0.0,0.0,0.0,0.0,0.037365569129744265,0.0,-0.06481595831258705,-0.1057008622793629,-0.1128794251303319,0.08560959822100951,0.32494443333701867,-0.05436492694490054
3750,5.0,299.572,814.33005,0.0,0.0,0.0,0.0,0.03737553593932808,0.0,-0.1104295079785439,-0.051201629033707355,-0.08590486132664973,0.1131939582263739,0.31727907474050665,0.027284960812815978
3751,5.0,299.4739,860.4975300000001,0.0,0.0,0.0,0.0,0.037385502748911906,0.0,-0.06877516721708053,-0.07761462126096673,-0.1151799689523779,0.10250795922674791,0.3544924679831827,-0.02503072859984058
3752,5.0,300.88985,556.56848,0.0,0.0,0.0,0.0,0.03739546955849572,0.0,-0.037522886432720566,-0.06362967853276034,-0.06803035645282343,0.09226842152593422,0.35783225177029365,0.0005728601552568954
3753,5.0,299.62838999999997,420.56324000000006,0.0,0.0,0.0,0.0,0.037405436368079546,0.0,-0.0077274169227366735,-0.05766773926236274,-0.06244556710814764,0.05833709633142315,0.3526554860818867,-0.06106451127484804
3754,5.0,300.05464,801.52598,0.0,0.0,0.0,0.0,0.03741540317766337,0.0,-0.06631659589618843,-0.07572084567831562,-0.1016064402152749,0.07304443571842452,0.3294296355671737,0.0007781523768801602
3755,5.0,300.31902,754.68609,0.0,0.0,0.0,0.0,0.03742536998724719,0.0,-0.06704046278087852,-0.07453266909430172,-0.08783259497315221,0.04641600422840296,0.3342438502372997,-0.04832116266267745
3756,5.0,299.9651,647.14252,0.0,0.0,0.0,0.0,0.03743533679683101,0.0,-0.06328401940689644,-0.056567543184531846,-0.07686360433984714,0.06854193325606214,0.3329487342244817,-0.001146781264428499
3757,5.0,300.87265,900.2625300000001,0.0,0.0,0.0,0.0,0.03744530360641483,0.0,-0.08457684508308472,-0.08506805657256351,-0.1040124329752279,0.06013212461232865,0.3112960963450327,0.0033668044315027265
3758,5.0,301.40736,955.86356,0.0,0.0,0.0,0.0,0.03745527041599865,0.0,-0.1084328885239929,-0.058419207079776846,-0.12370654960388588,0.08635413338123941,0.3077514435202027,0.03689316669432206
3759,5.0,300.94539,924.35004,0.0,0.0,0.0,0.0,0.03746523722558247,0.0,-0.1059750376239219,-0.08316404615065233,-0.09184025040467701,0.10332042368693191,0.3197977307790787,-0.011572341551101187
3760,5.0,300.35067000000004,1093.6121,0.0,0.0,0.0,0.0,0.03747520403516629,0.0,-0.09247017076659532,-0.0981852721801319,-0.14177533201213588,0.09565349961901541,0.32081486162696166,0.0014431810340308786
3761,5.0,300.69489,1016.6001,0.0,0.0,0.0,0.0,0.03748517084475011,0.0,-0.10674869460527589,-0.09010884004455011,-0.11216351327217688,0.1077454591261489,0.3165761628811347,-0.015802076073293484
3762,5.0,300.90812,658.78638,0.0,0.0,0.0,0.0,0.037495137654333925,0.0,-0.07751095057698522,-0.04437075687505276,-0.07837290318530334,0.07147980024525703,0.3120731983767267,-0.0016894160070823785
3763,5.0,300.383,629.51217,0.0,0.0,0.0,0.0,0.037505104463917756,0.0,-0.05628265778641585,-0.06359245983008714,-0.07148086415786202,0.0929094450824483,0.34164129537487065,-0.029707191918871573
3764,5.0,299.4671,769.8043,0.0,0.0,0.0,0.0,0.03751507127350157,0.0,-0.07923979133485852,-0.07469598575866983,-0.08006550707985033,0.06619095389703852,0.3446606489503577,-0.007535701188540803
3765,5.0,299.73367,601.85517,0.0,0.0,0.0,0.0,0.037525038083085396,0.0,-0.033556120708981264,-0.08493823694325132,-0.06445458570417234,0.08424175415576382,0.3524718547662637,-0.05410933866017595
3766,5.0,299.49377999999996,611.27669,0.0,0.0,0.0,0.0,0.03753500489266921,0.0,-0.03543352419651657,-0.07200489279157964,-0.07837443420620442,0.06514134838345054,0.3322846298439397,-0.004946692459750535
3767,5.0,299.74991,851.07017,0.0,0.0,0.0,0.0,0.03754497170225303,0.0,-0.07383674866061972,-0.09424050107631332,-0.09062683173417191,0.0950103097337875,0.3586969695381347,-0.03436257862257247
3768,5.0,300.40736,828.52436,0.0,0.0,0.0,0.0,0.03755493851183686,0.0,-0.07063683898356322,-0.08296076994209052,-0.09825310826107682,0.06651227779525073,0.33826397067155467,0.014198074820490887
3769,5.0,300.55984,837.09488,0.0,0.0,0.0,0.0,0.03756490532142068,0.0,-0.05548410525010485,-0.09495704418928061,-0.1040147938479609,0.07097627776706322,0.3152951411772077,-0.013532363425290288
3770,5.0,299.97489,1089.3894,0.0,0.0,0.0,0.0,0.0375748721310045,0.0,-0.12502297426630687,-0.08236226539952271,-0.12376193385435187,0.06610674673422794,0.3115185452719867,0.04717625793743416
3771,5.0,299.56523,899.0909800000001,0.0,0.0,0.0,0.0,0.03758483894058832,0.0,-0.07457089800732464,-0.09634048116031521,-0.10238982439758891,0.0940644519111886,0.3058169666942847,-0.028872695348513173
3772,5.0,299.97844,668.9474799999999,0.0,0.0,0.0,0.0,0.037594805750172135,0.0,-0.07145004615607053,-0.08228761926465572,-0.04960566488069795,0.11446508047682388,0.3095947582346237,-0.05119507431881045
3773,5.0,300.20987,754.96837,0.0,0.0,0.0,0.0,0.037604772559755965,0.0,-0.07495864551584233,-0.08239457287896122,-0.07213831452499733,0.0902856167232466,0.3130733471529337,-0.03648924771420836
3774,5.0,300.55916,580.54017,0.0,0.0,0.0,0.0,0.03761473936933978,0.0,-0.05441643450048395,-0.04971139854188305,-0.07234188153633783,0.1022407955728809,0.3224720625630147,-0.011931939958590789
3775,5.0,301.19171,455.00699000000003,0.0,0.0,0.0,0.0,0.037624706178923606,0.0,-0.02355094775629758,-0.054971834370547645,-0.059787981308614346,0.08345487628710502,0.36428978585010263,-0.0015527456925190687
3776,5.0,300.30958,775.20102,0.0,0.0,0.0,0.0,0.03763467298850742,0.0,-0.1011219637992108,-0.05980757553904814,-0.07471221599877163,0.08081523210709242,0.38121837818582466,0.00923684262710539
3777,5.0,299.38606,954.25124,0.0,0.0,0.0,0.0,0.03764463979809124,0.0,-0.0942227144840579,-0.08434080441928933,-0.1115050324296899,0.06536046371757553,0.3352524495193407,0.017274790510639085
3778,5.0,299.97373999999996,952.96791,0.0,0.0,0.0,0.0,0.03765460660767507,0.0,-0.09945681391612331,-0.08749551604913511,-0.1027261221057789,0.06455125179021254,0.3237865620502457,-0.009448136379733461
3779,5.0,299.61728,1116.1467,0.0,0.0,0.0,0.0,0.03766457341725889,0.0,-0.09230849759388941,-0.1151940125987639,-0.13177822149049787,0.061608812003316346,0.31498675850927266,0.01093903896034909
3780,5.0,299.10792000000004,987.05511,0.0,0.0,0.0,0.0,0.03767454022684271,0.0,-0.07294609371671894,-0.08890154241789912,-0.13819246952603487,0.08683958758365001,0.3208000073804957,-0.02107155313260038
3781,5.0,299.62687999999997,559.3679,0.0,0.0,0.0,0.0,0.03768450703642653,0.0,-0.029822083334460472,-0.06178010699897185,-0.07843168283685442,0.07086281604736543,0.3162947731958637,-0.001143425785397339
3782,5.0,299.53411,374.55189,0.0,0.0,0.0,0.0,0.037694473846010344,0.0,-0.04426729086759146,-0.029271956417917175,-0.04031517268729776,0.10756627597846491,0.3196018999322517,-0.01957948865809508
3783,5.0,299.86424,594.50668,0.0,0.0,0.0,0.0,0.037704440655594175,0.0,-0.04586842259611086,-0.056631663677360035,-0.07821509961472933,0.08600452359323561,0.3330807201825077,-0.032284942729775765
3784,5.0,300.95219,563.06378,0.0,0.0,0.0,0.0,0.03771440746517799,0.0,-0.06794361717801294,-0.055482947105240536,-0.04773076614740986,0.1159013016985679,0.3433901853124727,-0.05639729284972944
3785,5.0,300.33981,501.46962,0.0,0.0,0.0,0.0,0.037724374274761815,0.0,-0.017931736279224585,-0.08147623290257813,-0.053026273601785745,0.08534500416939611,0.3099402055912167,-0.05246792416068095
3786,5.0,300.47042000000005,816.6501,0.0,0.0,0.0,0.0,0.03773434108434563,0.0,-0.057815270503422944,-0.08071817389326352,-0.1097077901973159,0.07097035329372853,0.31486961666521174,0.005997581761215234
3787,5.0,300.76998,953.56072,0.0,0.0,0.0,0.0,0.03774430789392945,0.0,-0.07294740891534873,-0.0971648229381714,-0.1197464135755509,0.05926703802145124,0.3217304546823237,0.00925233714630958
3788,5.0,300.04826,952.67718,0.0,0.0,0.0,0.0,0.03775427470351328,0.0,-0.1190752063118079,-0.06362767128431224,-0.1068872058939459,0.05293608927663525,0.3416812072963097,0.017662957504698183
3789,5.0,299.67298,972.4078199999999,0.0,0.0,0.0,0.0,0.0377642415130971,0.0,-0.11687181290934988,-0.06297576744822435,-0.1157401240051609,0.08586311947553012,0.3235574763351367,0.015300509167792685
3790,5.0,299.71646,804.09966,0.0,0.0,0.0,0.0,0.03777420832268092,0.0,-0.1104257184231699,-0.05902696056925744,-0.07497354029231233,0.08647781170169552,0.3278453683733187,0.009993853429191542
3791,5.0,299.96727999999996,654.2003900000001,0.0,0.0,0.0,0.0,0.03778417513226474,0.0,-0.035909037402196066,-0.05809551420283085,-0.1048560346109849,0.1049117532339839,0.3386525520849047,-0.013901103375182088
3792,5.0,299.49883,867.0200199999999,0.0,0.0,0.0,0.0,0.037794141941848554,0.0,-0.05264457013011455,-0.08269966248407122,-0.12820820701566488,0.07813398793097423,0.3358339233542277,-0.01998656087251998
3793,5.0,299.8698,817.97906,0.0,0.0,0.0,0.0,0.037804108751432385,0.0,-0.06934011899583693,-0.058225022764362346,-0.12108007362217289,0.0985797871860675,0.32356084032546867,0.009743590077717471
3794,5.0,300.4767,572.2105700000001,0.0,0.0,0.0,0.0,0.0378140755610162,0.0,-0.05733943001796114,-0.05666938900508325,-0.059928907172272644,0.07547518116507043,0.3232949432342267,-0.02069800125798368
3795,5.0,301.07012000000003,716.30448,0.0,0.0,0.0,0.0,0.037824042370600025,0.0,-0.09500545525255841,-0.08390991677451402,-0.03882330377006176,0.1101375196972269,0.3287153753066817,-0.005490245409645035
3796,5.0,299.99,1013.4403,0.0,0.0,0.0,0.0,0.03783400918018384,0.0,-0.1285394486058559,-0.09094077106565532,-0.08858033099044801,0.08865062926913592,0.33830893871099266,-0.03158681746387617
3797,5.0,300.07153,952.85424,0.0,0.0,0.0,0.0,0.03784397598976766,0.0,-0.07331370693249953,-0.0994906544429631,-0.1168395408936649,0.09192631282842072,0.3245256266731857,-0.01945941446824468
3798,5.0,299.19661,725.45101,0.0,0.0,0.0,0.0,0.03785394279935148,0.0,-0.02263754332115158,-0.0852633260788351,-0.1126181180620429,0.08794517313876282,0.32541216984818067,-0.009121436987090741
3799,5.0,299.1709,696.72645,0.0,0.0,0.0,0.0,0.0378639096089353,0.0,-0.04085425821750136,-0.04730448575083925,-0.12362870159870289,0.07379874671561923,0.3303701647074967,0.013545008786538288
3800,5.0,299.26288999999997,725.3815,0.0,0.0,0.0,0.0,0.03787387641851913,0.0,-0.05497842454919804,-0.07645097242212352,-0.08906846422612301,0.07524538009539083,0.3452375530272937,-0.012511490644787989
3801,5.0,299.93692000000004,846.95765,0.0,0.0,0.0,0.0,0.03788384322810294,0.0,-0.1134943666160219,-0.06013979694208584,-0.08381981249612143,0.05552302013344545,0.3467578841398387,-0.0008097927020553172
3802,5.0,300.09296,905.46465,0.0,0.0,0.0,0.0,0.03789381003768676,0.0,-0.11123397789543889,-0.08062497008281502,-0.08337969211643492,0.07420514613197772,0.34886506944530166,-0.013315987919435687
3803,5.0,300.34127,672.27908,0.0,0.0,0.0,0.0,0.03790377684727059,0.0,-0.03555964748946396,-0.09031454096060122,-0.07848186708780722,0.08612335756496362,0.3272171735763207,-0.04403569634523486
3804,5.0,300.53446,699.86239,0.0,0.0,0.0,0.0,0.037913743656854404,0.0,-0.05135259924560695,-0.07335245766932394,-0.08803563509444072,0.08501667567324261,0.3407027826022467,-0.023077773131848875
3805,5.0,300.73434,1187.5416,0.0,0.0,0.0,0.0,0.03792371046643823,0.0,-0.1082494395933879,-0.10653659096184288,-0.14619697306351787,0.12235291839779287,0.3146076205868547,0.004081473741060096
3806,5.0,300.02049,1033.3432,0.0,0.0,0.0,0.0,0.037933677276022044,0.0,-0.12612919006298187,-0.08890811638454792,-0.09907321364026492,0.11706902177631288,0.3343994145251527,0.024358258826472978
3807,5.0,300.42443,627.66885,0.0,0.0,0.0,0.0,0.03794364408560586,0.0,-0.09230849252763891,-0.04283738118072036,-0.055649781773955846,0.10628069464908789,0.33165993075978667,0.017998538845067483
3808,5.0,300.28997000000004,804.0169900000001,0.0,0.0,0.0,0.0,0.03795361089518969,0.0,-0.10121967049310371,-0.08987818075203581,-0.053303238423870046,0.09195153464990992,0.33244431805969965,-0.01092002430897249
3809,5.0,300.39527000000004,1002.4399,0.0,0.0,0.0,0.0,0.03796357770477351,0.0,-0.08749801675038191,-0.06790385623083883,-0.14931482468122584,0.06758912048477683,0.3214935568089437,0.007937617783806883
3810,5.0,300.32627,778.81192,0.0,0.0,0.0,0.0,0.03797354451435733,0.0,-0.052112096056813446,-0.08303959674687011,-0.10158768495592391,0.03593886140563946,0.33301114029814066,-0.017507287838834783
3811,5.0,299.48996,675.4608,0.0,0.0,0.0,0.0,0.03798351132394115,0.0,-0.01903587288669438,-0.08351898664743222,-0.1027683543699469,0.061780087747219936,0.3108986793908107,0.01061775255239059
3812,5.0,298.61478,636.73938,0.0,0.0,0.0,0.0,0.037993478133524966,0.0,-0.05878345630522545,-0.05960802505110404,-0.07516138976810163,0.08514282835044291,0.3506081230623277,-0.019276022279645283
3813,5.0,299.36637,701.54588,0.0,0.0,0.0,0.0,0.0380034449431088,0.0,-0.08334163444267893,-0.08983157631368632,-0.040079219163010965,0.11839997644516789,0.33761222794223267,-0.012155260280630789
3814,5.0,300.51987,902.48086,0.0,0.0,0.0,0.0,0.038013411752692614,0.0,-0.096803088599471,-0.0910862160247596,-0.08644234288194502,0.11986520701727488,0.35265816106215064,-0.03364041197155017
3815,5.0,299.70769,829.54688,0.0,0.0,0.0,0.0,0.03802337856227644,0.0,-0.05822080156444574,-0.0941163019453058,-0.09982443422465459,0.088107609288794,0.3294355225502547,-0.008570897272456702
3816,5.0,299.74206000000004,353.87028,0.0,0.0,0.0,0.0,0.038033345371860254,0.0,-0.0010656478971212589,-0.04479295792672076,-0.06170912376321635,0.10867522755040991,0.3226542854609987,-0.03186691930827007
3817,5.0,300.22132,593.90692,0.0,0.0,0.0,0.0,0.03804331218144407,0.0,-0.027194468459635072,-0.05491001192894625,-0.09842839343562611,0.07830565073641602,0.30196892652451274,0.02098234558054628
3818,5.0,300.48425,1048.3351,0.0,0.0,0.0,0.0,0.0380532789910279,0.0,-0.13121174375709088,-0.08266963279085753,-0.10478631287160389,0.09488745721216292,0.33462360624227866,-0.011685371626256389
3819,5.0,300.79196,999.0608300000001,0.0,0.0,0.0,0.0,0.03806324580061172,0.0,-0.11729573648618788,-0.07970943579595882,-0.10668437348892791,0.05929619125332845,0.3271282102175407,0.001016948868165039
3820,5.0,300.24592,595.50688,0.0,0.0,0.0,0.0,0.03807321261019554,0.0,-0.04985368114742525,-0.07501137201129603,-0.05615416855448494,0.053270736400412355,0.3352169756333397,-0.034371101069163565
3821,5.0,298.90696,492.79141,0.0,0.0,0.0,0.0,0.03808317941977936,0.0,-0.026627617850191274,-0.044684831982049554,-0.07848383279300122,0.06153401590743454,0.3278577097595367,0.001931198657869468
3822,5.0,300.15982,826.57163,0.0,0.0,0.0,0.0,0.038093146229363176,0.0,-0.06988436804855014,-0.06894881295296804,-0.11242395907788089,0.07739734598902333,0.34912550511850465,0.004574188792362286
3823,5.0,299.58069,829.73634,0.0,0.0,0.0,0.0,0.038103113038947006,0.0,-0.07486596859544584,-0.05748385260771455,-0.11986931068017989,0.11576349968496788,0.33238673505651667,-0.002532086465997478
3824,5.0,298.6718,687.9864,0.0,0.0,0.0,0.0,0.03811307984853082,0.0,-0.08564357857636312,-0.06886602636679763,-0.05462108264968115,0.08985982977947472,0.33756506115007767,0.0061121319141704536
3825,5.0,299.24934,651.4284299999999,0.0,0.0,0.0,0.0,0.03812304665811465,0.0,-0.08588800388473601,-0.044651292390489455,-0.06747868027687723,0.1005692693069141,0.3344766647127767,0.007898271559898713
3826,5.0,298.8318,742.62885,0.0,0.0,0.0,0.0,0.038133013467698464,0.0,-0.062358241161529236,-0.08550314211250311,-0.07787924267033283,0.1098338385097559,0.33439042699676563,-0.02376721484439148
3827,5.0,299.24165,987.1121,0.0,0.0,0.0,0.0,0.03814298027728228,0.0,-0.09751070497905731,-0.08380717726737441,-0.11873954695118087,0.0969536403390793,0.33493660933066965,-0.014462446970332386
3828,5.0,300.45505,1035.5029,0.0,0.0,0.0,0.0,0.03815294708686611,0.0,-0.08834901004561842,-0.0957975351472306,-0.1306204717937369,0.08911077451054873,0.33060529952570267,-0.0092158188021055
3829,5.0,300.50924,486.10983,0.0,0.0,0.0,0.0,0.03816291389644993,0.0,-0.027104162544472572,-0.06268468805224703,-0.057976399560825155,0.06678572359973774,0.3356892211074467,-0.01028792241958889
3830,5.0,300.81768,387.17127999999997,0.0,0.0,0.0,0.0,0.03817288070603375,0.0,-0.06901652643065083,-0.029091728609380075,-0.01958214641310738,0.08175966631330082,0.35470268698142965,-0.023703654678868577
3831,5.0,300.45432999999997,941.95243,0.0,0.0,0.0,0.0,0.03818284751561757,0.0,-0.0915900941537385,-0.1063094709519279,-0.08843045407540631,0.07275747011785323,0.3354325141946117,-0.03079414380464537
3832,5.0,299.54134,855.42523,0.0,0.0,0.0,0.0,0.038192814325201385,0.0,-0.05700917229361724,-0.1057115419354169,-0.09730719369647231,0.06807719900494644,0.33578213614161667,-0.04175456842160506
3833,5.0,299.85118,625.12107,0.0,0.0,0.0,0.0,0.038202781134785216,0.0,-0.03413752260311117,-0.051509848568376246,-0.10437381875589391,0.06586354137897545,0.31866969970775066,-0.014978587452021484
3834,5.0,299.67447999999996,610.07025,0.0,0.0,0.0,0.0,0.03821274794436903,0.0,-0.013047958949983288,-0.07701741266527683,-0.09538075093059721,0.09450633433279901,0.3381167251670227,-0.0043941354654924054
3835,5.0,298.57506,663.40077,0.0,0.0,0.0,0.0,0.038222714753952856,0.0,-0.06059003867702124,-0.06043439332916024,-0.08063283796984151,0.1018921362134709,0.34757250682273566,0.015455403697329586
3836,5.0,298.87271,916.48918,0.0,0.0,0.0,0.0,0.03823268156353667,0.0,-0.11240210327322389,-0.07782851126432602,-0.08835921347412541,0.11472984272795389,0.34009356597962165,0.02081880296140588
3837,5.0,298.99699,1087.6185,0.0,0.0,0.0,0.0,0.03824264837312049,0.0,-0.1302209574118079,-0.09002512329478791,-0.11036279559195991,0.09787072895158891,0.34878618792501664,0.0026940666534836775
3838,5.0,299.14355,967.10142,0.0,0.0,0.0,0.0,0.03825261518270432,0.0,-0.08601065679609092,-0.0966828806606074,-0.11128114468759388,0.08710752029434292,0.3492759423608517,-0.016881338404058383
3839,5.0,299.51656,665.54853,0.0,0.0,0.0,0.0,0.03826258199228814,0.0,-0.05380421257806235,-0.07694109568099493,-0.07156482611414844,0.0937609936387396,0.33678413916550665,-0.02351368548387008
3840,5.0,299.97115,758.91275,0.0,0.0,0.0,0.0,0.03827254880187196,0.0,-0.048172885669543655,-0.09001402313994242,-0.09250361916564641,0.07929437005149502,0.3250524660626807,-0.02052298155496058
3841,5.0,300.20961,834.12598,0.0,0.0,0.0,0.0,0.03828251561145578,0.0,-0.11397697763865189,-0.030073673334290472,-0.10950281983458689,0.0898696116959401,0.33205934381670565,0.024704773135421274
3842,5.0,300.11408,594.4331900000001,0.0,0.0,0.0,0.0,0.038292482421039595,0.0,-0.07602709038853964,-0.05210853650921215,-0.05255722087874385,0.08973285434319322,0.3308050415179157,-0.015849641072737786
3843,5.0,299.97796,588.35317,0.0,0.0,0.0,0.0,0.038302449230623425,0.0,-0.05593993505934174,-0.05700230549768954,-0.06590243295756373,0.07956399792960522,0.34387989921830364,-0.01325395776156379
3844,5.0,299.66612000000003,755.38899,0.0,0.0,0.0,0.0,0.03831241604020724,0.0,-0.06223593174195824,-0.06676216046866223,-0.1006212976730489,0.08697372061863791,0.3288941126243217,-0.028121603446886176
3845,5.0,301.01248,1032.5139,0.0,0.0,0.0,0.0,0.038322382849791066,0.0,-0.08641687078768112,-0.09773434447487882,-0.12970723961110786,0.08029502241300171,0.3369262069620277,0.004976003555993315
3846,5.0,300.40046,1047.6668,0.0,0.0,0.0,0.0,0.03833234965937488,0.0,-0.08902817942864723,-0.09025165359314473,-0.13918471495146187,0.11218334257663388,0.3346961650819397,-0.013052393945670988
3847,5.0,299.74807999999996,854.2922900000001,0.0,0.0,0.0,0.0,0.0383423164689587,0.0,-0.1005517248814326,-0.08263983715841691,-0.07649196142841884,0.09760078291294731,0.3393417749354257,0.025225773164589977
3848,5.0,300.19432,490.03919,0.0,0.0,0.0,0.0,0.03835228327854253,0.0,-0.060186363890181636,-0.053914570712703856,-0.03485874389179017,0.1034870425333759,0.3332030903970847,-0.012554961100578188
3849,5.0,300.31377000000003,601.49977,0.0,0.0,0.0,0.0,0.03836225008812635,0.0,-0.04090524293603316,-0.05977526805960964,-0.08216039963510012,0.08838329234950182,0.3257097411375487,0.009845156849191329
3850,5.0,299.38884,943.00279,0.0,0.0,0.0,0.0,0.03837221689771017,0.0,-0.07855848906036922,-0.11083109952317789,-0.0972597107702861,0.07988428932596552,0.3253736663443807,-0.04382113151730896
3851,5.0,299.49123,797.64895,0.0,0.0,0.0,0.0,0.03838218370729399,0.0,-0.06701835467694664,-0.07114894065035374,-0.1042980681784179,0.06725818590936614,0.3233371856308957,-0.018124406798989683
3852,5.0,299.24676,334.6324,0.0,0.0,0.0,0.0,0.038392150516877804,0.0,0.0018374070610379582,-0.05216178482846735,-0.051395516466842546,0.06639314592799335,0.32377237654884566,-0.03200861118900397
3853,5.0,299.08525,591.01887,0.0,0.0,0.0,0.0,0.03840211732646163,0.0,-0.07687402460387552,-0.03163175814556147,-0.07114919598937894,0.06913100849319934,0.3578317248802416,0.02092095478348748
3854,5.0,300.14422,1160.1118,0.0,0.0,0.0,0.0,0.038412084136045445,0.0,-0.13723511030155086,-0.09240167100683491,-0.12300823789996787,0.0963969364161369,0.35692729784098165,0.0033836314759134265
3855,5.0,299.33972,1016.5475,0.0,0.0,0.0,0.0,0.03842205094562926,0.0,-0.09553232503955641,-0.09109094891597672,-0.1223817757606409,0.07038609504756672,0.35792303897925365,-0.00043780570102555855
3856,5.0,299.70454,802.5631400000001,0.0,0.0,0.0,0.0,0.038432017755213085,0.0,-0.05131948319258865,-0.08532339357126333,-0.10731627678129191,0.08837088408877722,0.33510155631444866,-0.013281779582809588
3857,5.0,300.83473,807.97123,0.0,0.0,0.0,0.0,0.0384419845647969,0.0,-0.06533507369656974,-0.062043203466937445,-0.11822480576787989,0.09169189032503501,0.3208114672391267,0.037303720436090565
3858,5.0,300.26251,851.7130699999999,0.0,0.0,0.0,0.0,0.03845195137438073,0.0,-0.07324521122573953,-0.07799080859909352,-0.1076634871930589,0.1175604886048169,0.32763414625747267,-0.0009141416860512601
3859,5.0,300.0347,978.2058900000001,0.0,0.0,0.0,0.0,0.03846191818396455,0.0,-0.12340220980384989,-0.07649847156031132,-0.0974494823815151,0.09136851358212023,0.3222131771624647,0.04004850147297936
3860,5.0,300.37345,802.74599,0.0,0.0,0.0,0.0,0.03847188499354837,0.0,-0.07785850144078582,-0.07564294397087733,-0.09051328996771622,0.1034435639715849,0.3352710933211807,-0.002220532223924468
3861,5.0,300.22204,553.08426,0.0,0.0,0.0,0.0,0.03848185180313219,0.0,-0.04098417005257266,-0.06709720985272903,-0.06004242462072594,0.05625639941007435,0.35770159316989864,-0.014870937734897288
3862,5.0,299.91224,577.79447,0.0,0.0,0.0,0.0,0.03849181861271601,0.0,-0.026013574104089877,-0.07265026116452253,-0.07697125608347152,0.07803936658363583,0.3746168713993066,-0.050321805733375545
3863,5.0,299.94214,891.4315,0.0,0.0,0.0,0.0,0.03850178542229984,0.0,-0.0970609131271663,-0.08707811577644091,-0.08683388805183752,0.06838734574130553,0.37364678575356663,-0.04628023175475325
3864,5.0,300.19432,708.809,0.0,0.0,0.0,0.0,0.038511752231883654,0.0,-0.060880555719193034,-0.08117962116105483,-0.07340005914577183,0.06943859272005554,0.3385231904446377,-0.046454139922416655
3865,5.0,300.16253,399.54227000000003,0.0,0.0,0.0,0.0,0.03852171904146748,0.0,-0.07078283920372234,-0.034815888478810675,-0.015852144813734884,0.08408141644668972,0.3142618692552317,-0.005636430446622374
3866,5.0,299.15359,753.5368900000001,0.0,0.0,0.0,0.0,0.038531685851051295,0.0,-0.05452913628260674,-0.08572877973752183,-0.08879848272372791,0.08155299774340422,0.32886045245599965,-0.0059890892055020845
3867,5.0,299.12605,1017.4474,0.0,0.0,0.0,0.0,0.03854165266063511,0.0,-0.11139043384337989,-0.08285709925810902,-0.11503106171768189,0.1003001531201044,0.34025805700085565,-0.015825025174808383
3868,5.0,299.39808,936.05491,0.0,0.0,0.0,0.0,0.03855161947021894,0.0,-0.03985457452309026,-0.09384677336570542,-0.15083597652635186,0.07046253666161094,0.3257878221902547,-0.005575462985455354
3869,5.0,300.57232999999997,762.2655900000001,0.0,0.0,0.0,0.0,0.03856158627980276,0.0,-0.06996297497805803,-0.08230586688570662,-0.07944086473770293,0.09630748568405881,0.3355382671075487,-0.008424984090481192
3870,5.0,300.35645,632.4335,0.0,0.0,0.0,0.0,0.03857155308938658,0.0,-0.05160710639247485,-0.05500643280846224,-0.08563045293456772,0.10315146423275691,0.3465732497066167,0.012145998161466687
3871,5.0,300.85901,565.22605,0.0,0.0,0.0,0.0,0.0385815198989704,0.0,-0.09559445652243831,-0.046837250798476754,-0.02938289919786637,0.11676669834397589,0.34125617927686264,-0.023559867396927878
3872,5.0,301.5953,838.7502599999999,0.0,0.0,0.0,0.0,0.03859148670855422,0.0,-0.07373832053265564,-0.06403829494033764,-0.1171825159200139,0.09166485579911691,0.3171806678907947,0.0001008615240730074
3873,5.0,300.88667999999996,849.22428,0.0,0.0,0.0,0.0,0.03860145351813805,0.0,-0.09823561956435081,-0.06630758404979903,-0.09359977136232822,0.08060225301557303,0.3163355362473867,-0.008358804065499732
3874,5.0,299.79491,718.95012,0.0,0.0,0.0,0.0,0.038611420327721864,0.0,-0.07184982702277584,-0.05919657052999665,-0.08749648572948082,0.07139238614587994,0.3517408049516147,-0.017105102529642185
3875,5.0,299.09166,746.91129,0.0,0.0,0.0,0.0,0.03862138713730569,0.0,-0.1042104625747719,-0.05763634877426474,-0.06519557144930194,0.08484417490996812,0.3613754151174767,-0.01799046729477088
3876,5.0,299.09892,915.2239599999999,0.0,0.0,0.0,0.0,0.038631353946889505,0.0,-0.1167442649867619,-0.05878030205766415,-0.1026806677062929,0.07770888999727033,0.3452500261360247,0.01982082760666338
3877,5.0,300.28153,1037.0557,0.0,0.0,0.0,0.0,0.03864132075647332,0.0,-0.12035172918529088,-0.095952698188044,-0.09893459089408391,0.097003377746738,0.3420937115445207,0.02016947683357238
3878,5.0,300.48902000000004,940.569,0.0,0.0,0.0,0.0,0.03865128756605715,0.0,-0.06735028831695594,-0.0852585587371146,-0.1333006398982489,0.0962471233358515,0.33319514651630067,0.01987166844368098
3879,5.0,299.43402000000003,832.5903400000001,0.0,0.0,0.0,0.0,0.03866125437564097,0.0,-0.06389872075231273,-0.09942313246954922,-0.08976481934409791,0.11246445868437789,0.3180679203408597,-0.03881136464413346
3880,5.0,300.71307,629.45685,0.0,0.0,0.0,0.0,0.03867122118522479,0.0,-0.03452906675975357,-0.05537834220466685,-0.10143175589803491,0.08910020124575523,0.3000689002019947,-0.016165111425122284
3881,5.0,301.54534,603.1144,0.0,0.0,0.0,0.0,0.03868118799480861,0.0,-0.04906594809568205,-0.07649607826357513,-0.05776969147417464,0.08080991153081732,0.32432424321581066,-0.05208033775892915
3882,5.0,300.83504,749.1433099999999,0.0,0.0,0.0,0.0,0.038691154804392426,0.0,-0.09138427874042611,-0.05777015554272045,-0.07856642584840252,0.09342826865040221,0.34649239234863666,-0.006540821920803863
3883,5.0,300.34357,723.93986,0.0,0.0,0.0,0.0,0.03870112161397626,0.0,-0.09847905999362651,-0.07505368634872213,-0.04652689431934696,0.0986336920913875,0.34017487930014667,-0.04527284431983186
3884,5.0,300.13527,597.90932,0.0,0.0,0.0,0.0,0.038711088423560074,0.0,-0.049691097062879455,-0.047903581018215353,-0.08415482540318463,0.09025501859672681,0.3352144425080897,0.006872463440809334
3885,5.0,300.59747000000004,850.52669,0.0,0.0,0.0,0.0,0.0387210552331439,0.0,-0.08035311812073533,-0.08094667293656463,-0.0972390860645006,0.07714054484392903,0.34567018042249065,-0.011591071479199688
3886,5.0,299.81115,1279.2627,0.0,0.0,0.0,0.0,0.038731022042727714,0.0,-0.1117648297553299,-0.11360637128207589,-0.16349271657297484,0.09325650046695001,0.36395348814191264,0.018771994189651583
3887,5.0,300.20088,1131.3957,0.0,0.0,0.0,0.0,0.03874098885231153,0.0,-0.14664760591299186,-0.09679378493705282,-0.1004746489728258,0.06081905143812304,0.35991706451354866,-0.023653441043662876
3888,5.0,298.56827000000004,740.1550599999999,0.0,0.0,0.0,0.0,0.03875095566189536,0.0,-0.07889204592703873,-0.05540327828962786,-0.09069333133823491,0.08439582592621953,0.33627177911994066,0.028265584259595977
3889,5.0,299.5601,637.37075,0.0,0.0,0.0,0.0,0.03876092247147918,0.0,-0.07298112481242622,-0.05199661594291645,-0.06876705209702964,0.06829910179009653,0.3296938506632497,0.009250822134760061
3890,5.0,299.85395,765.5894599999999,0.0,0.0,0.0,0.0,0.038770889281063,0.0,-0.060392616014287144,-0.04726622644031336,-0.12506123459008286,0.10039952661041181,0.34623288886552567,0.010712672808508489
3891,5.0,300.05571000000003,836.94785,0.0,0.0,0.0,0.0,0.03878085609064682,0.0,-0.06355084260872984,-0.0922876064033276,-0.09857279677362761,0.0926444254657929,0.3136691584767357,-0.029320800138987677
3892,5.0,299.98646,614.73464,0.0,0.0,0.0,0.0,0.038790822900230636,0.0,-0.032337398687452765,-0.055389404869258654,-0.09913717809257772,0.10649161278990389,0.3229749588526467,-0.012247228939207386
3893,5.0,301.05897000000004,490.3438,0.0,0.0,0.0,0.0,0.038800789709814466,0.0,-0.046072144634716664,-0.05117142810122675,-0.05180869857937045,0.0906644658693861,0.3391629565577777,-0.026754387596702477
3894,5.0,301.29745,931.17415,0.0,0.0,0.0,0.0,0.03881075651939828,0.0,-0.08604825040130111,-0.09315936625936361,-0.10384607757380991,0.08916859562750523,0.3521428727237957,0.01002580748699516
3895,5.0,301.26356,1317.4289999999999,0.0,0.0,0.0,0.0,0.03882072332898211,0.0,-0.16073069812538485,-0.12139457632071189,-0.1183402453517729,0.06716800057096553,0.34903817309238566,-0.017787733175012584
3896,5.0,300.70921,1071.9912,0.0,0.0,0.0,0.0,0.038830690138565924,0.0,-0.1124057408410829,-0.08301944320238112,-0.13043337516277187,0.04073408270264096,0.3313041279871717,0.02756182532314037
3897,5.0,300.39431,629.89707,0.0,0.0,0.0,0.0,0.03884065694814974,0.0,-0.04385342278474586,-0.07499330373551283,-0.07262625422990322,0.05876403128755835,0.3395643555848927,-0.03886489160716616
3898,5.0,300.86821000000003,733.53894,0.0,0.0,0.0,0.0,0.03885062375773357,0.0,-0.04772103691994966,-0.05165266414347104,-0.12360381617624688,0.05828115378015204,0.3370461352438637,0.015340931767282085
3899,5.0,300.17314,1106.7388,0.0,0.0,0.0,0.0,0.03886059056731739,0.0,-0.1118419583529419,-0.13354224938459386,-0.09103675624762832,0.08254400092420863,0.34234393365671567,-0.06466578248876584
3900,5.0,300.04225,911.61384,0.0,0.0,0.0,0.0,0.0388705573769012,0.0,-0.08124798311880163,-0.08444987167330341,-0.11140998957030988,0.0888861359501286,0.3271201244817427,0.02317493165743768
3901,5.0,299.48828,380.51547,0.0,0.0,0.0,0.0,0.03888052418648503,0.0,-0.03317009471238347,-0.060298498252248436,-0.02219860844408208,0.11996433327455788,0.36210483359946466,-0.02989283858894347
3902,5.0,299.32239,424.53382,0.0,0.0,0.0,0.0,0.038890490996068845,0.0,-0.004483558434517766,-0.07672425610659452,-0.04783986582542715,0.0988911011865418,0.35725044356287367,0.02788997852702657
3903,5.0,300.39827,879.7064,0.0,0.0,0.0,0.0,0.03890045780565267,0.0,-0.08839590123374623,-0.0963413363433996,-0.08267154175404592,0.09637583345630421,0.3245856820066127,-0.023004602289127478
3904,5.0,299.79486,1151.0213,0.0,0.0,0.0,0.0,0.03891042461523649,0.0,-0.11228669408683388,-0.1140378233071569,-0.12355720667164688,0.07656460335458802,0.3320023788960837,-0.011757935532167888
3905,5.0,300.23007,942.0918,0.0,0.0,0.0,0.0,0.038920391424820316,0.0,-0.1253153171851589,-0.06934534939285313,-0.09171171658974171,0.07730986906814002,0.3442786131326537,-0.017057825293226286
3906,5.0,300.17098,696.85605,0.0,0.0,0.0,0.0,0.03893035823440413,0.0,-0.08729940453203042,-0.04120973269708396,-0.08331770046206682,0.07458876464633793,0.3464791694348317,0.00977295153249022
3907,5.0,300.80749,730.00465,0.0,0.0,0.0,0.0,0.03894032504398795,0.0,-0.09993553608486949,-0.05752334909661254,-0.06444430121565735,0.07093011713225753,0.32407667581887767,0.008879833985546383
3908,5.0,300.52939,1029.6426,0.0,0.0,0.0,0.0,0.038950291853571774,0.0,-0.09094258073033391,-0.05484200764848474,-0.16720104981895884,0.07197736075986244,0.32959838223882765,0.029219649408004873
3909,5.0,300.00462000000005,924.7647800000001,0.0,0.0,0.0,0.0,0.03896025866315559,0.0,-0.08502136499470542,-0.08449004501326822,-0.11159399578846989,0.1151536447147799,0.3663969204930606,0.0005803200267331275
3910,5.0,299.23238,671.65178,0.0,0.0,0.0,0.0,0.03897022547273941,0.0,-0.014854726746547385,-0.08535268967140461,-0.1039579505173509,0.1011665133663575,0.36307219360243564,-0.018102434470571183
3911,5.0,299.97361,677.09471,0.0,0.0,0.0,0.0,0.03898019228232323,0.0,-0.07244901246941084,-0.0910368504798876,-0.042334021835792664,0.09341359881545441,0.3295703152110577,-0.037189223174790564
3912,5.0,299.03853,738.14269,0.0,0.0,0.0,0.0,0.03899015909190705,0.0,-0.07915360124160221,-0.08131740290965282,-0.06390594218577543,0.08487532019154191,0.3280127268923357,-0.013663519531484385
3913,5.0,299.48924,712.42207,0.0,0.0,0.0,0.0,0.03900012590149088,0.0,-0.0970645618407764,-0.06506541440770644,-0.05442854385242905,0.096105222725597,0.35575988173826667,-0.013836503615056589
3914,5.0,300.20254,665.1098599999999,0.0,0.0,0.0,0.0,0.039010092711074695,0.0,-0.05842126397747985,-0.05083931815570005,-0.09291620751361572,0.1012443826497926,0.3449844228873117,0.014027874134943386
3915,5.0,300.48325,688.81948,0.0,0.0,0.0,0.0,0.03902005952065851,0.0,-0.05173629983322525,-0.07194461555638074,-0.08570300569472812,0.06544609247027644,0.33584375188019766,-0.027441583947023476
3916,5.0,301.13226000000003,768.84542,0.0,0.0,0.0,0.0,0.039030026330242336,0.0,-0.06653506072374923,-0.06377609925171095,-0.1033986465946519,0.09843774066779859,0.3444530137398657,-0.0016856397252846883
3917,5.0,300.7758,959.9544099999999,0.0,0.0,0.0,0.0,0.03903999313982615,0.0,-0.10103152514828521,-0.08081524426609363,-0.10995539812425291,0.08859282639068122,0.3715909924931756,-0.032439364071515965
3918,5.0,299.92554,1025.2332,0.0,0.0,0.0,0.0,0.03904995994940998,0.0,-0.11430435874596188,-0.07690391649507562,-0.12043702457870888,0.0925224321802531,0.3344999694650767,-0.006861344844812013
3919,5.0,300.41339,824.00368,0.0,0.0,0.0,0.0,0.0390599267589938,0.0,-0.09107635304828622,-0.06492849392169343,-0.09447169536488041,0.05469161802889244,0.3032423387201887,-0.015890171076737784
3920,5.0,299.87935,512.5286,0.0,0.0,0.0,0.0,0.03906989356857762,0.0,-0.033056456687168265,-0.06224909588725744,-0.060490344999682234,0.05813691053566635,0.3212073035231927,0.004521669709204056
3921,5.0,299.36351,512.6938299999999,0.0,0.0,0.0,0.0,0.03907986037816144,0.0,-0.03212992964997717,-0.03788859068531276,-0.08582760100652473,0.08481077210717151,0.3619278694694996,0.016277469715461183
3922,5.0,300.3574,833.5893900000001,0.0,0.0,0.0,0.0,0.03908982718774526,0.0,-0.08065007335404252,-0.07541152170103772,-0.09732876579110131,0.08097522632438263,0.34586301204902165,-0.017342669148088182
3923,5.0,300.35643,845.43199,0.0,0.0,0.0,0.0,0.03909979399732909,0.0,-0.095095093435905,-0.07071243960002443,-0.09118268047402991,0.08823492213735883,0.33499975507690166,0.002112246388387488
3924,5.0,299.60695,759.2762700000001,0.0,0.0,0.0,0.0,0.039109760806912905,0.0,-0.07275850768595563,-0.07960641055229102,-0.07843610871329122,0.11800205286589589,0.3425840739304157,-0.004500583974623056
3925,5.0,299.93068,930.5818300000001,0.0,0.0,0.0,0.0,0.03911972761649672,0.0,-0.09170879842945372,-0.08168953623412951,-0.1094753100943719,0.12361163846701888,0.36769811600647867,0.01598282671888218
3926,5.0,300.59063,1033.7469,0.0,0.0,0.0,0.0,0.039129694426080545,0.0,-0.1145425231819669,-0.07652276321820872,-0.12316795651323088,0.10808930554758389,0.3394939651004457,-0.013592882827263087
3927,5.0,300.62968,1046.768,0.0,0.0,0.0,0.0,0.03913966123566436,0.0,-0.1096863194276969,-0.09178743778296482,-0.1167175861116289,0.07706647930136933,0.3221423813779777,-0.003963741070865786
3928,5.0,300.36487,948.00096,0.0,0.0,0.0,0.0,0.03914962804524819,0.0,-0.100079250412803,-0.08691592685943411,-0.10117344095729121,0.08277968391071872,0.3417664418947217,-0.027538426338581078
3929,5.0,300.36192,476.46485,0.0,0.0,0.0,0.0,0.03915959485483201,0.0,-0.045520581942781656,-0.038899484978830265,-0.060413352177583646,0.07541613604199313,0.3653211427293897,-0.017025545171540486
3930,5.0,300.81948,470.63457999999997,0.0,0.0,0.0,0.0,0.03916956166441583,0.0,-0.033264237805674675,-0.052966085532595644,-0.05683083622301685,0.07669062937552583,0.3354243777963087,-0.01266968532990059
3931,5.0,300.34884,781.94443,0.0,0.0,0.0,0.0,0.03917952847399965,0.0,-0.07733664521528263,-0.07121559021543153,-0.0891393471501186,0.08025425125547793,0.3106597752822327,-0.017878508224971383
3932,5.0,299.59846,794.16436,0.0,0.0,0.0,0.0,0.03918949528358347,0.0,-0.08197970775801722,-0.09012918610655811,-0.06929724129135523,0.0997332467819051,0.3256450045886597,-0.001998656999177088
3933,5.0,299.93222000000003,635.4676,0.0,0.0,0.0,0.0,0.0391994620931673,0.0,-0.038897006569085665,-0.08644136408234843,-0.06782791009609354,0.11226591232728289,0.37045954676901066,-0.02269645773496598
3934,5.0,299.54668,736.84736,0.0,0.0,0.0,0.0,0.039209428902751114,0.0,-0.06614558461056094,-0.07895565371531633,-0.07888195902229322,0.09254862064233772,0.35504941103314863,-0.008925699764572982
3935,5.0,300.03884,1131.5,0.0,0.0,0.0,0.0,0.03921939571233494,0.0,-0.10268852039456791,-0.1029186700222819,-0.13834055602814987,0.07368449871384383,0.34817338439703766,0.0003464771935971367
3936,5.0,299.93593,1261.7964,0.0,0.0,0.0,0.0,0.039229362521918755,0.0,-0.12984376492958188,-0.10702419730746589,-0.14668661604184186,0.06659935752209484,0.3495183523147757,0.0027065436125650573
3937,5.0,299.79418,999.29256,0.0,0.0,0.0,0.0,0.03923932933150257,0.0,-0.1032543496479109,-0.08183060192630162,-0.11867503331731388,0.0917557696643394,0.3584469602084607,0.00922944286162509
3938,5.0,300.96336,698.2823099999999,0.0,0.0,0.0,0.0,0.0392492961410864,0.0,-0.06768483411572303,-0.05052077866876265,-0.09405477334623341,0.06131906300472034,0.30125065379362476,-0.004267741128143256
3939,5.0,300.65889,741.14091,0.0,0.0,0.0,0.0,0.03925926295067022,0.0,-0.08446943246648392,-0.07252329079449153,-0.06829560810375174,0.06962301943700702,0.3093879944192177,-0.0029819757925480966
3940,5.0,299.79429,907.7424300000001,0.0,0.0,0.0,0.0,0.03926922976025404,0.0,-0.1030504735952899,-0.07835452485498952,-0.09452603495449331,0.08346203287256132,0.3449410963130357,-0.039764980922748064
3941,5.0,299.92228,808.57429,0.0,0.0,0.0,0.0,0.03927919656983786,0.0,-0.07064206532757904,-0.07629955334042962,-0.09884477437871972,0.1105488587078229,0.3810111888053766,0.006622027634168244
3942,5.0,299.95736,516.7875,0.0,0.0,0.0,0.0,0.03928916337942168,0.0,-0.0006756180326208085,-0.07946903410373303,-0.07694584377096353,0.09339539577740791,0.36392886616448267,-0.03274583271001207
3943,5.0,299.74478999999997,591.57426,0.0,0.0,0.0,0.0,0.03929913018900551,0.0,-0.05283981531838375,-0.04757345197663415,-0.07941053613570973,0.06601726763114704,0.34417203948713565,0.015936843402843986
3944,5.0,299.28823,1024.4355,0.0,0.0,0.0,0.0,0.039309096998589324,0.0,-0.1052971530420199,-0.09293118841634422,-0.11317447342695089,0.0928783413441286,0.36426057384971966,-0.01971534219175278
3945,5.0,298.89285,1123.3577,0.0,0.0,0.0,0.0,0.03931906380817315,0.0,-0.12721548536269087,-0.0991504699073895,-0.11510672110264888,0.0981736461484845,0.36972296460881565,0.019330915103812782
3946,5.0,299.96245,829.43886,0.0,0.0,0.0,0.0,0.039329030617756965,0.0,-0.06256331082276803,-0.1005446513824845,-0.08902073811991282,0.11554614740601689,0.3344711121022287,-0.028000283972662875
3947,5.0,299.96148,604.25383,0.0,0.0,0.0,0.0,0.03933899742734078,0.0,-0.03518849600433417,-0.052408666255082656,-0.09608091384244792,0.09400698745826731,0.3152014459404607,0.00910906712854493
3948,5.0,299.77239,707.29839,0.0,0.0,0.0,0.0,0.03934896423692461,0.0,-0.06070035729490885,-0.037626767872722865,-0.11667392516481989,0.1017619943706269,0.3389239207266867,-0.0010263294362658289
3949,5.0,300.52859,766.3074799999999,0.0,0.0,0.0,0.0,0.03935893104650843,0.0,-0.07238346228069152,-0.05376822497426065,-0.1067866509540219,0.09869406355884572,0.3508678697254627,0.012640319315502387
3950,5.0,300.93767,638.01194,0.0,0.0,0.0,0.0,0.03936889785609225,0.0,-0.07209178506715523,-0.06601378002430285,-0.055834133510399946,0.07678776763611263,0.3167198113478117,-0.014909529391455985
3951,5.0,300.3541,547.09429,0.0,0.0,0.0,0.0,0.03937886466567607,0.0,-0.05955297314667085,-0.05310395847370265,-0.05364606956870486,0.08212422458002992,0.3401030398680567,-0.017684325936057083
3952,5.0,300.43048999999996,740.18963,0.0,0.0,0.0,0.0,0.039388831475259886,0.0,-0.08520413910074383,-0.08526082031133782,-0.05453420759935725,0.08812146041766102,0.34286858442599466,-0.04980381404375375
3953,5.0,300.65528,1104.2730000000001,0.0,0.0,0.0,0.0,0.03939879828484372,0.0,-0.09277335140851692,-0.11367595116644288,-0.1292221258607309,0.09796578498322021,0.37356050750755165,-0.022504790332799878
3954,5.0,299.694,1080.2591,0.0,0.0,0.0,0.0,0.039408765094427534,0.0,-0.08809768754381482,-0.1175439624956859,-0.12273014127752187,0.08543850080912352,0.3278723512234817,-0.01127697306745059
3955,5.0,298.45595,787.99906,0.0,0.0,0.0,0.0,0.03941873190401136,0.0,-0.06275370355630835,-0.06865688040040653,-0.10812145597325691,0.09292956822943432,0.3533477892127117,0.015597359023089487
3956,5.0,299.37785,709.64131,0.0,0.0,0.0,0.0,0.039428698713595174,0.0,-0.09502910349664231,-0.028395205291888572,-0.0922889286947081,0.10907272556463989,0.3609715133626147,0.01873411687441338
3957,5.0,299.45832,803.14652,0.0,0.0,0.0,0.0,0.03943866552317899,0.0,-0.11010221806374289,-0.05469817173053925,-0.07933609771711322,0.11433803917928588,0.34137502338109166,0.034768282949362364
3958,5.0,299.48812000000004,858.00144,0.0,0.0,0.0,0.0,0.039448632332762815,0.0,-0.07267061938553172,-0.07655348698774092,-0.1115869030377699,0.09545359348028622,0.3173937341218227,-0.028932248109890573
3959,5.0,300.06516,857.1120199999999,0.0,0.0,0.0,0.0,0.03945859914234663,0.0,-0.08144519806526522,-0.06949357774998213,-0.1096018751643629,0.07390888497498903,0.3226492800055047,-0.01043940533603909
3960,5.0,299.62113,721.02608,0.0,0.0,0.0,0.0,0.03946856595193046,0.0,-0.04216701086155996,-0.07775338079591122,-0.0992535336545611,0.093770704627698,0.3527639545050917,-0.04151647592635716
3961,5.0,300.0412,700.71231,0.0,0.0,0.0,0.0,0.03947853276151428,0.0,-0.07266099958908233,-0.05975243750835644,-0.08058560734293023,0.09009900949207993,0.37196777967536165,-0.0006112917182997953
3962,5.0,300.67906,842.5604699999999,0.0,0.0,0.0,0.0,0.039488499571098096,0.0,-0.06240033765018384,-0.1133299971847999,-0.08038701538958072,0.09656379438960451,0.35171247447881865,-0.03865323582027736
3963,5.0,299.58471000000003,824.51475,0.0,0.0,0.0,0.0,0.03949846638068192,0.0,-0.1063824249591279,-0.08140988933903051,-0.06283958055528374,0.0992053009233009,0.36879265916200166,-0.0013278798601015387
3964,5.0,300.22567000000004,771.4730000000001,0.0,0.0,0.0,0.0,0.039508433190265736,0.0,-0.09075115144194132,-0.07111836278883593,-0.07263901408841253,0.11489469851922389,0.35755494548292566,-0.028601270977975674
3965,5.0,300.0751,649.44907,0.0,0.0,0.0,0.0,0.03951839999984955,0.0,-0.08102082359213272,-0.05484510008778995,-0.061550375843549145,0.1063975021206159,0.37159897690396365,-0.017368212169859083
3966,5.0,300.09353,636.46864,0.0,0.0,0.0,0.0,0.03952836680943338,0.0,-0.026032346588692575,-0.05918472968932804,-0.10825349259378789,0.07593019632122693,0.3281860230569387,-0.008351249576729163
3967,5.0,300.21827,874.4625300000001,0.0,0.0,0.0,0.0,0.039538333619017194,0.0,-0.07292637789627313,-0.06604624861050724,-0.12684214323084486,0.06392352004851024,0.36332033855192564,0.02050005981119838
3968,5.0,299.7618,983.34735,0.0,0.0,0.0,0.0,0.039548300428601024,0.0,-0.08594666295952523,-0.08259651869014172,-0.13036985451400288,0.09099657986791322,0.35833715429512364,0.017957780859794985
3969,5.0,300.00887,925.8936699999999,0.0,0.0,0.0,0.0,0.03955826723818484,0.0,-0.1067240422303429,-0.07473421568494283,-0.09999030022627431,0.09723811841065509,0.36882673476286465,-0.010249863732582791
3970,5.0,300.18245,849.2828099999999,0.0,0.0,0.0,0.0,0.03956823404776866,0.0,-0.07483866961125163,-0.09633640485516291,-0.0869856931818195,0.1003040419739882,0.3238902175354757,-0.03598414659235877
3971,5.0,298.60478,814.76074,0.0,0.0,0.0,0.0,0.03957820085735248,0.0,-0.07117836745975793,-0.09718700602261071,-0.07930154588870322,0.08116608109996852,0.3183306864892927,-0.049239594844819656
3972,5.0,299.68042,801.28002,0.0,0.0,0.0,0.0,0.0395881676669363,0.0,-0.07369287930542093,-0.07578347466699663,-0.094092766171983,0.12424936794745788,0.3343715400149017,-0.019147561418717183
3973,5.0,299.86836,744.4777799999999,0.0,0.0,0.0,0.0,0.03959813447652013,0.0,-0.08857257658743273,-0.05457358959099394,-0.08315648831815642,0.09057316291612522,0.35881233819452063,0.008392583392033493
3974,5.0,298.54848,554.40432,0.0,0.0,0.0,0.0,0.039608101286103946,0.0,-0.04435374845887416,-0.06805007429976943,-0.05612124603223574,0.08442693777054003,0.35270722263199267,0.00024223042627128177
3975,5.0,300.09205,668.3074,0.0,0.0,0.0,0.0,0.03961806809568776,0.0,-0.06113647331020015,-0.06763371159517764,-0.07437857705884403,0.06646177842351683,0.3623060853343266,0.004005311784043496
3976,5.0,300.80232,1059.5285,0.0,0.0,0.0,0.0,0.039628034905271586,0.0,-0.0912716661243121,-0.1053464476593849,-0.12545210594865888,0.09045591569405383,0.37514357906628865,-0.02221700197314738
3977,5.0,300.74026000000003,1052.6294,0.0,0.0,0.0,0.0,0.0396380017148554,0.0,-0.1089755042175449,-0.08411554372330782,-0.12688200448977888,0.1001126390300982,0.35665915133451764,-0.02282497432464958
3978,5.0,300.7307,653.0043599999999,0.0,0.0,0.0,0.0,0.039647968524439234,0.0,-0.04831900545321455,-0.06065865597379324,-0.08951935748087272,0.0975928603104154,0.3194044377527637,-0.040675744828133464
3979,5.0,300.40097000000003,506.69853,0.0,0.0,0.0,0.0,0.03965793533402305,0.0,-0.035821595945066266,-0.035855499293412266,-0.08234660561922721,0.1035396504785679,0.3343671627744697,-0.0006217928802161795
3980,5.0,299.80203,794.7151,0.0,0.0,0.0,0.0,0.03966790214360687,0.0,-0.05828654325743394,-0.06703573799566223,-0.11625126815060689,0.09664086016571032,0.34774212488947565,-0.003853550223815796
3981,5.0,299.99146,842.5277699999999,0.0,0.0,0.0,0.0,0.03967786895319069,0.0,-0.09439019763283722,-0.06710446978969553,-0.0946127367390501,0.10274142218228889,0.3564283836242427,0.012858719295056787
3982,5.0,299.65666,680.6311400000001,0.0,0.0,0.0,0.0,0.03968783576277451,0.0,-0.06094671993747294,-0.07805983727540612,-0.06788831500080503,0.06624227400135344,0.33498698812564165,-0.026393461831581873
3983,5.0,299.98155,597.14626,0.0,0.0,0.0,0.0,0.03969780257235834,0.0,-0.06845495181447774,-0.06386016050650714,-0.04920243896365266,0.0880813205149495,0.3281167066175977,-0.002476867172647758
3984,5.0,299.84591,757.36903,0.0,0.0,0.0,0.0,0.039707769381942155,0.0,-0.10052419284971541,-0.06672807372204814,-0.06296900907005734,0.1027903317646159,0.3407779556271657,-0.002335108924032308
3985,5.0,300.45012,1176.5178,0.0,0.0,0.0,0.0,0.03971773619152597,0.0,-0.13196988787941386,-0.1084898027821099,-0.11717236315401189,0.09541005007048882,0.35704078185218163,0.020189625311810882
3986,5.0,300.98911,1170.6764,0.0,0.0,0.0,0.0,0.039727703001109796,0.0,-0.11460812099344089,-0.1036227876492729,-0.13762547503507688,0.07782353519308492,0.3434757238859147,0.0036353945388605067
3987,5.0,301.46576,844.96569,0.0,0.0,0.0,0.0,0.03973766981069361,0.0,-0.06900528543404143,-0.0978300631720755,-0.09001312134735341,0.07553408240663352,0.35338544158642765,-0.007059437164537203
3988,5.0,301.21257,789.1978799999999,0.0,0.0,0.0,0.0,0.03974763662027744,0.0,-0.044231326568542055,-0.07776565834737292,-0.11789946129327089,0.09685097682569721,0.36746750028371866,-0.02068965309040978
3989,5.0,300.97097,1004.4976,0.0,0.0,0.0,0.0,0.03975760342986126,0.0,-0.10146687514650089,-0.0957823900979859,-0.1080929329829419,0.09191177572923602,0.34917288469318064,-0.03379808787261157
3990,5.0,300.29211000000004,771.22355,0.0,0.0,0.0,0.0,0.03976757023944508,0.0,-0.06442979552722573,-0.07959127968854772,-0.09041162754543292,0.07632124195882013,0.32848834648927566,-0.015053179884633186
3991,5.0,300.50405,429.10172,0.0,0.0,0.0,0.0,0.0397775370490289,0.0,-0.023548088364515374,-0.045160504267994755,-0.06172761456429124,0.08509230668720683,0.31315152953064973,-0.017741009173151284
3992,5.0,300.84958,649.31611,0.0,0.0,0.0,0.0,0.03978750385861272,0.0,-0.03410370842077397,-0.07483421029756153,-0.08843796428514751,0.1060750150112889,0.3277214276210867,0.015218160305665486
3993,5.0,300.15387999999996,927.3956800000001,0.0,0.0,0.0,0.0,0.03979747066819655,0.0,-0.1064620360194849,-0.1014452523893669,-0.07399784326751851,0.10366712747364891,0.35676109442707865,-0.016468483571312784
3994,5.0,299.5077,1094.6768,0.0,0.0,0.0,0.0,0.039807437477780365,0.0,-0.10868441772881689,-0.10784382544585691,-0.1162261699456299,0.07946369123595573,0.35999473013371364,-0.0038286965160879262
3995,5.0,300.19937999999996,1131.7841,0.0,0.0,0.0,0.0,0.03981740428736418,0.0,-0.1263660271413559,-0.1086571916986299,-0.10901088691103689,0.1015367691383989,0.37365601646197766,-0.005837363615652934
3996,5.0,299.14672,837.62938,0.0,0.0,0.0,0.0,0.039827371096948005,0.0,-0.07010436795001243,-0.07488998160956573,-0.10962406534155289,0.09722977024308121,0.3870698671158216,0.008939878679847331
3997,5.0,299.60927999999996,752.8951099999999,0.0,0.0,0.0,0.0,0.03983733790653182,0.0,-0.06427488883868765,-0.06207944640976435,-0.1025069763741509,0.09895349408794951,0.3562795270520516,0.014523688819626486
3998,5.0,300.24141000000003,816.11133,0.0,0.0,0.0,0.0,0.03984730471611565,0.0,-0.06955897088493594,-0.05195806481636175,-0.12656042930554187,0.07213727797014502,0.3362621633764917,0.0017557366711777184
3999,5.0,300.17319,745.22471,0.0,0.0,0.0,0.0,0.03985727152569947,0.0,-0.08439906022053872,-0.051095421171475454,-0.091035223200227,0.05741149337832324,0.3239151130904327,0.0026178616333378275
4000,5.0,300.84834,655.22178,0.0,0.0,0.0,0.0,0.039867238335283293,0.0,-0.057116412657701045,-0.06230369182914564,-0.07975095675855663,0.0936510843738924,0.3414308027990967,-0.02160467264621518
4001,5.0,300.64227,741.31489,0.0,0.0,0.0,0.0,0.03987720514486711,0.0,-0.09142185917338501,-0.07528777042657443,-0.058631586327237036,0.0907173413126045,0.3534015927930217,-0.01859199537563708
4002,5.0,300.62522,1006.1093,0.0,0.0,0.0,0.0,0.03988717195445093,0.0,-0.0992070639784749,-0.1056680127111209,-0.1009570168154318,0.1003980472652658,0.3511717434304527,-0.025016499528686273
4003,5.0,301.19095,1062.9859,0.0,0.0,0.0,0.0,0.03989713876403476,0.0,-0.09700852607049609,-0.1125782264056059,-0.11353442039247488,0.1089203428821009,0.3492823562339846,-0.005986029696825134
4004,5.0,300.45351,904.68846,0.0,0.0,0.0,0.0,0.039907105573618575,0.0,-0.08752756717629831,-0.07889904545872953,-0.10857609116062589,0.1078060616146299,0.39291600608529065,0.0025098688297297677
4005,5.0,300.04422,789.45803,0.0,0.0,0.0,0.0,0.0399170723832024,0.0,-0.08452222988944462,-0.07431800800761633,-0.08113529146917983,0.09887521747797422,0.3672091823032247,-0.015371333323282485
4006,5.0,299.88102000000003,796.69847,0.0,0.0,0.0,0.0,0.039927039192786215,0.0,-0.06270742437124094,-0.07223769916105584,-0.1072313157604069,0.07867219294684091,0.35110806066166766,-0.013153545689903885
4007,5.0,299.17971,708.23189,0.0,0.0,0.0,0.0,0.03993700600237003,0.0,-0.05391618279361295,-0.06853640395026643,-0.092832222252577,0.06655552432276884,0.3242406196850577,-0.04104882047520316
4008,5.0,300.42425,840.0105599999999,0.0,0.0,0.0,0.0,0.03994697281195386,0.0,-0.04234866329973766,-0.08182843154458742,-0.13116513425249088,0.07097405773609414,0.34558976889455467,-0.002859930729928187
4009,5.0,300.66222999999997,639.19997,0.0,0.0,0.0,0.0,0.03995693962153768,0.0,-0.04293328631593546,-0.07609885889312264,-0.07526868484769084,0.08253877255369263,0.3446255094368897,-0.036231848751555065
4010,5.0,299.4283,566.1824,0.0,0.0,0.0,0.0,0.0399669064311215,0.0,-0.07356641353393974,-0.061252956541696144,-0.03728594194983597,0.09269802031658231,0.33003023956394867,0.0007359350176211313
4011,5.0,299.86714,852.7908800000001,0.0,0.0,0.0,0.0,0.03997687324070532,0.0,-0.10911763280907191,-0.06805603727660793,-0.08205346121954613,0.1074432978138279,0.3227247975354577,-0.03751919921560667
4012,5.0,300.24456000000004,948.94765,0.0,0.0,0.0,0.0,0.03998684005028914,0.0,-0.1013468252746529,-0.09957163237770501,-0.08753793069832111,0.11250244543062689,0.35865485886397863,-0.0025360275022614275
4013,5.0,300.31774,928.67435,0.0,0.0,0.0,0.0,0.03999680685987296,0.0,-0.0992143766044466,-0.10054083446935781,-0.08253860131442572,0.13088298462964487,0.3528869833322337,-0.02331655261066458
4014,5.0,299.54342,906.7153900000001,0.0,0.0,0.0,0.0,0.04000677366945678,0.0,-0.06832981846687804,-0.07922056694071122,-0.12806844942937187,0.08566508582298572,0.35484137052261666,0.013574677762716385
4015,5.0,299.65705,786.5863400000001,0.0,0.0,0.0,0.0,0.040016740479040594,0.0,-0.07315109245045073,-0.07639497819509733,-0.08955653768004211,0.09804041186633532,0.34275209106199767,0.024737324808133874
4016,5.0,298.8537,722.6560099999999,0.0,0.0,0.0,0.0,0.04002670728862442,0.0,-0.08521094510166552,-0.03343555711933257,-0.1010228790851819,0.06180027574221234,0.36643100622642466,0.00952659628665185
4017,5.0,299.82097999999996,915.3148699999999,0.0,0.0,0.0,0.0,0.04003667409820824,0.0,-0.12942160440791786,-0.07979558535921112,-0.06901567428731673,0.06398673064274864,0.37151906186857664,-0.012026860214708689
4018,5.0,299.54722000000004,734.69791,0.0,0.0,0.0,0.0,0.040046640907792065,0.0,-0.06520086568107443,-0.07192559786525383,-0.08620335568685882,0.05918374379698074,0.34807800716512466,-0.038421394064896364
4019,5.0,300.15456,465.64474,0.0,0.0,0.0,0.0,0.04005660771737588,0.0,-0.06657812182649903,-0.02776524136021597,-0.04720101163737715,0.08451552521353292,0.36107302075763265,-0.021521409832497777
4020,5.0,299.69741,762.73117,0.0,0.0,0.0,0.0,0.0400665745269597,0.0,-0.00907897360057493,-0.0995852342470474,-0.12318702588011288,0.09707029480984222,0.37882108924423064,-0.03441507207050317
4021,5.0,300.84024,1089.0221,0.0,0.0,0.0,0.0,0.04007654133654352,0.0,-0.1026391751146979,-0.1025191657728539,-0.12587719476311188,0.1235256135335289,0.3661410849753116,0.013099934627112885
4022,5.0,300.94427,996.22355,0.0,0.0,0.0,0.0,0.04008650814612734,0.0,-0.08795463588144672,-0.09678020130621222,-0.11809224225729689,0.06874483050908653,0.3486791785819557,-0.013029005093612687
4023,5.0,301.17935,663.0400099999999,0.0,0.0,0.0,0.0,0.04009647495571117,0.0,-0.06862975772172973,-0.09084065891602501,-0.04207719029319536,0.08687227503187601,0.33152770162173667,-0.01084851418316499
4024,5.0,300.33271,650.42249,0.0,0.0,0.0,0.0,0.04010644176529499,0.0,-0.07598756248888852,-0.04632778358194625,-0.07539684882633962,0.08551289565796573,0.35283687811478864,-0.017109138304790484
4025,5.0,299.59772000000004,963.3453599999999,0.0,0.0,0.0,0.0,0.040116408574878804,0.0,-0.08542694063873262,-0.09634080033409671,-0.11106519069378089,0.1122119466269569,0.37939834795870164,-0.017050008068704783
4026,5.0,299.96986,1077.9879,0.0,0.0,0.0,0.0,0.04012637538446263,0.0,-0.07193474548715664,-0.11172259749116188,-0.14402407848906987,0.1070643017464239,0.37010470658399064,-0.0072895548748730535
4027,5.0,300.19664,959.68161,0.0,0.0,0.0,0.0,0.040136342194046444,0.0,-0.08200317260383302,-0.08235218052127742,-0.12736389610483786,0.09049104304852061,0.37644220092445263,0.014212203579885287
4028,5.0,299.75494,681.58817,0.0,0.0,0.0,0.0,0.040146309003630275,0.0,-0.08323106859176692,-0.05066596322259125,-0.07328875260903672,0.086451776240376,0.3758326803267976,0.0026846306606024173
4029,5.0,299.31335,878.6446699999999,0.0,0.0,0.0,0.0,0.04015627581321409,0.0,-0.09722197834981222,-0.08525011228428102,-0.08461395030174672,0.08474667593234572,0.35489001665991765,-0.020802485581795482
4030,5.0,298.89771,1242.5923,0.0,0.0,0.0,0.0,0.04016624262279791,0.0,-0.15179483536098387,-0.09277798196147391,-0.13314420421530987,0.06125166768756894,0.3175800809477137,-0.01128109902185779
4031,5.0,300.64215,1120.953,0.0,0.0,0.0,0.0,0.04017620943238173,0.0,-0.08415083218454052,-0.11335451783721989,-0.14323637786132984,0.08244613717655022,0.3195268687623467,-0.006387083914931103
4032,5.0,301.28597,493.55085999999994,0.0,0.0,0.0,0.0,0.04018617624196555,0.0,-0.016332929959684682,-0.036405072975400965,-0.0972891355531901,0.094575316399607,0.3443408165562927,-0.000991848251652801
4033,5.0,300.84555,536.7280099999999,0.0,0.0,0.0,0.0,0.04019614305154938,0.0,-0.052569825709987854,-0.048820111329919855,-0.061761976914932536,0.12324829711365988,0.35304583055041067,0.012805499346804387
4034,5.0,300.19119,967.91667,0.0,0.0,0.0,0.0,0.040206109861133196,0.0,-0.1007047347657835,-0.08780510245818891,-0.10571266664302789,0.1165636430239359,0.35170685094076365,0.002058136401247248
4035,5.0,300.25742,1069.7884,0.0,0.0,0.0,0.0,0.04021607667071701,0.0,-0.14928140769292786,-0.1038453682987399,-0.07206216472698193,0.11258295828357288,0.3448865023976477,-0.003894832464690036
4036,5.0,299.90157,1053.2682,0.0,0.0,0.0,0.0,0.04022604348030084,0.0,-0.08836983638817382,-0.1277916295020519,-0.1040057657895699,0.10988697334499989,0.3703352716442456,-0.037983539312433465
4037,5.0,300.92618,919.86504,0.0,0.0,0.0,0.0,0.040236010289884654,0.0,-0.07577150514356533,-0.0880203441371816,-0.11582415283595389,0.1018706755763529,0.35442997071701465,-0.019129874124971583
4038,5.0,300.1761,682.1802299999999,0.0,0.0,0.0,0.0,0.040245977099468484,0.0,-0.037063695672901964,-0.07255654667602363,-0.09774551454398123,0.09260280723118551,0.34964218160949667,-0.03400591965362297
4039,5.0,300.49026000000003,784.5013299999999,0.0,0.0,0.0,0.0,0.0402559439090523,0.0,-0.07823421761761613,-0.06391882566079694,-0.0963157720433766,0.062092180937021145,0.34693100805192467,-0.0021732109111292177
4040,5.0,300.10343,783.24437,0.0,0.0,0.0,0.0,0.04026591071863612,0.0,-0.06872569933394844,-0.05119627704667915,-0.1181647605669539,0.05851167729715294,0.3399412542245897,0.004024603761972466
4041,5.0,300.02624,547.56675,0.0,0.0,0.0,0.0,0.04027587752821994,0.0,-0.07909146975872032,-0.051861195067051453,-0.03549395544573067,0.07319898371642723,0.3266882671566217,-0.005452785553448035
4042,5.0,299.17049,706.5405,0.0,0.0,0.0,0.0,0.04028584433780376,0.0,-0.04804972917288905,-0.09517753450379131,-0.07154340600703443,0.08725327834772811,0.32186364640796866,-0.03178027527896897
4043,5.0,299.0911,1139.9707,0.0,0.0,0.0,0.0,0.04029581114738759,0.0,-0.1085884325468439,-0.1064012004834809,-0.13153298456879486,0.1017150910234979,0.33954207421519367,-0.014374623517914886
4044,5.0,298.4496,1196.6658,0.0,0.0,0.0,0.0,0.040305777956971406,0.0,-0.08661358214884501,-0.13121821842522988,-0.14592471276164787,0.10496201043894389,0.3632632520412916,0.009604746443014671
4045,5.0,299.37888,889.2271199999999,0.0,0.0,0.0,0.0,0.04031574476655522,0.0,-0.1034097923457519,-0.07017686396816723,-0.09671618112514391,0.08287153604553384,0.37304456055663165,0.0051625720810061955
4046,5.0,299.64566,745.90363,0.0,0.0,0.0,0.0,0.040325711576139046,0.0,-0.055459341417660846,-0.07366390339231123,-0.09761283450963672,0.08037172848532202,0.3504051488022957,0.02122849037433888
4047,5.0,300.78407000000004,851.7171300000001,0.0,0.0,0.0,0.0,0.04033567838572286,0.0,-0.11383510235964989,-0.06820586454239473,-0.07685977932071962,0.08671881526448073,0.36950292721709965,0.007747014091595762
4048,5.0,300.60247000000004,876.58511,0.0,0.0,0.0,0.0,0.040345645195306694,0.0,-0.07888933852277152,-0.07639575941092443,-0.1111748851496069,0.09457568319614322,0.3596568213578647,-0.01874350970284038
4049,5.0,299.91497999999996,876.96395,0.0,0.0,0.0,0.0,0.04035561200489051,0.0,-0.101183743684308,-0.08097889226324442,-0.08441250807586592,0.09848526311073871,0.34571763092467367,-0.027823721089737474
4050,5.0,299.66517999999996,781.20554,0.0,0.0,0.0,0.0,0.04036557881447433,0.0,-0.07207645054014183,-0.04993675144362365,-0.1154537693943999,0.097141260820346,0.3362178843471217,-0.023565720942755577
4051,5.0,300.00921,569.9725599999999,0.0,0.0,0.0,0.0,0.04037554562405815,0.0,-0.06828843631954393,-0.03512593186365957,-0.06984305682872302,0.10492482416027389,0.3435469958979487,0.0038957351692041264
4052,5.0,299.8506,679.66985,0.0,0.0,0.0,0.0,0.04038551243364197,0.0,-0.045384685852619754,-0.07485280039714623,-0.08636517679407932,0.08584064761481232,0.3679639725677166,-0.026251591618830374
4053,5.0,299.62851,994.83425,0.0,0.0,0.0,0.0,0.0403954792432258,0.0,-0.12152795043137489,-0.07531098195986523,-0.1055658365710369,0.07079641878156252,0.34168316286900263,0.014908735003377587
4054,5.0,299.64101,825.4064099999999,0.0,0.0,0.0,0.0,0.040405446052809615,0.0,-0.06983415441334442,-0.11040318374094589,-0.07066559806115154,0.07489042034685903,0.3422395283664117,-0.03955649154242176
4055,5.0,299.26191,693.54313,0.0,0.0,0.0,0.0,0.04041541286239343,0.0,-0.07776580628188752,-0.06891942566031774,-0.06413456079258834,0.0925075819867875,0.36263226067401766,-0.01398411895587509
4056,5.0,300.32809,981.97736,0.0,0.0,0.0,0.0,0.040425379671977256,0.0,-0.08871590892007851,-0.09769052140805382,-0.11209016409743788,0.1209335677902139,0.36028084156445067,-0.008896636914604702
4057,5.0,298.98297,941.90974,0.0,0.0,0.0,0.0,0.04043534648156107,0.0,-0.09740053834868471,-0.0938829484207756,-0.0950335547043316,0.1100322328793359,0.3695780597120147,0.016897400444643586
4058,5.0,298.70912000000004,829.25354,0.0,0.0,0.0,0.0,0.0404453132911449,0.0,-0.05924626031490064,-0.07416244574626352,-0.1186636646511919,0.0909068707570596,0.34447343072938064,-0.013935845694610887
4059,5.0,299.66957,812.97262,0.0,0.0,0.0,0.0,0.04045528010072872,0.0,-0.08414085268430561,-0.058414014173014346,-0.1045685147626089,0.10109381976443321,0.3715457914062147,-0.024386332946993678
4060,5.0,300.70317,608.2042799999999,0.0,0.0,0.0,0.0,0.04046524691031254,0.0,-0.037160804549235864,-0.06666599999442194,-0.08105211174197062,0.07408239493536313,0.37021203003458264,-0.04380684773064926
4061,5.0,300.33893,662.2013599999999,0.0,0.0,0.0,0.0,0.04047521371989636,0.0,-0.05147416595285465,-0.05540796254484015,-0.0944105507875959,0.07757094207565593,0.34820002274216666,-0.03610024580206686
4062,5.0,300.57813,959.7557699999999,0.0,0.0,0.0,0.0,0.04048518052948018,0.0,-0.11241797076978989,-0.08102499716929464,-0.09829882610558881,0.05695178788745386,0.3127451959755477,-0.02357424744234708
4063,5.0,299.68762000000004,955.5441800000001,0.0,0.0,0.0,0.0,0.04049514733906401,0.0,-0.0971700219244345,-0.08748410482650891,-0.1058074460573819,0.08586102306107322,0.35483805719478967,-0.0001067469619476049
4064,5.0,300.82948999999996,758.15327,0.0,0.0,0.0,0.0,0.040505114148647825,0.0,-0.061858547755463344,-0.0950302889992593,-0.07357082623812523,0.1098265836390399,0.34464762868657267,-0.015797572176598985
4065,5.0,301.06046000000003,963.78989,0.0,0.0,0.0,0.0,0.04051508095823164,0.0,-0.07642781256458783,-0.10015188828597181,-0.1163883608891369,0.1036156645010699,0.3433857270120327,0.013525243316837588
4066,5.0,299.24854,1124.4531,0.0,0.0,0.0,0.0,0.040525047767815466,0.0,-0.12274103371609688,-0.10598995266539389,-0.11307466829210089,0.11946450713272888,0.3265091144064407,-0.008715646331392322
4067,5.0,298.78222999999997,958.7474800000001,0.0,0.0,0.0,0.0,0.04053501457739928,0.0,-0.1029381953517089,-0.08348617760919422,-0.1050109200212709,0.13631872691111088,0.37822628103802763,-0.0019073502968908183
4068,5.0,299.21736,596.25942,0.0,0.0,0.0,0.0,0.040544981386983106,0.0,-0.061478952857250246,-0.03643615239571826,-0.08333286982931393,0.12113617728020988,0.38075564713015664,-0.006294284796572545
4069,5.0,299.54385,562.08355,0.0,0.0,0.0,0.0,0.04055494819656692,0.0,-0.03926502407165616,-0.03300922606025697,-0.09858511384184321,0.06982089400928573,0.36333400729577464,0.012436419958129089
4070,5.0,299.66982,689.86339,0.0,0.0,0.0,0.0,0.04056491500615074,0.0,-0.03915096149464906,-0.06193034767079945,-0.1086199344924529,0.06117289357179454,0.3266989569451767,-0.025501873684338976
4071,5.0,299.8355,719.46645,0.0,0.0,0.0,0.0,0.04057488181573456,0.0,-0.060447310241435036,-0.07334513389760114,-0.08490739259695722,0.07245073094158043,0.3667744574803206,-0.017277773518933483
4072,5.0,300.0514,841.00136,0.0,0.0,0.0,0.0,0.04058484862531838,0.0,-0.048877970950380156,-0.09103333146229031,-0.11573210919686988,0.0959410924213986,0.3494536461633897,-0.039183279106588566
4073,5.0,300.23592,720.1343400000001,0.0,0.0,0.0,0.0,0.04059481543490221,0.0,-0.08619227883676561,-0.07996870319179653,-0.052741874563717754,0.08358147479434933,0.3581532291369717,-0.014239810592109886
4074,5.0,299.46671000000003,600.83961,0.0,0.0,0.0,0.0,0.04060478224448603,0.0,-0.05139889362942585,-0.07345516272596013,-0.057786182119552144,0.11089180333666888,0.3364297549430317,-0.01799553658502118
4075,5.0,300.29345,1129.1436,0.0,0.0,0.0,0.0,0.040614749054069844,0.0,-0.12460887921543887,-0.1015570442728999,-0.11706553619596889,0.1190315250999969,0.37577900846900064,0.019320357037770783
4076,5.0,299.5055,1238.9152,0.0,0.0,0.0,0.0,0.04062471586365367,0.0,-0.08345587535170362,-0.12102102140634487,-0.17212238528965684,0.1299795708404849,0.37729059523318265,0.013605176590726386
4077,5.0,299.79372,765.64423,0.0,0.0,0.0,0.0,0.040634682673237485,0.0,-0.05952153604906824,-0.06911110724798523,-0.10410408144677291,0.07417375969688014,0.34492884611932667,0.002075024443313968
4078,5.0,299.78781000000004,782.51383,0.0,0.0,0.0,0.0,0.040644649482821316,0.0,-0.058390695235212946,-0.07811843251543901,-0.1013555392255129,0.08071429618513083,0.32924312662126665,-0.0006243199664955835
4079,5.0,299.76737,870.2735,0.0,0.0,0.0,0.0,0.04065461629240513,0.0,-0.11807009261011088,-0.05062028692133336,-0.09585103677901081,0.06712303455802773,0.37155619748474167,-0.01836718050969958
4080,5.0,299.4279,660.70415,0.0,0.0,0.0,0.0,0.04066458310198895,0.0,-0.05882202161728154,-0.053478271299144446,-0.08853727090094832,0.11444735873257489,0.36838103644137765,-0.021419826443722277
4081,5.0,300.95608,695.27089,0.0,0.0,0.0,0.0,0.04067454991157277,0.0,-0.048046017637772755,-0.06141590539627794,-0.1018830676250759,0.04358484463373926,0.35593824415336967,-0.02204763215268188
4082,5.0,300.47348999999997,740.8112,0.0,0.0,0.0,0.0,0.04068451672115659,0.0,-0.05172451776106245,-0.06959756963424533,-0.10386601833577791,0.07646259744052084,0.3456873651441867,-0.008873643230085403
4083,5.0,300.25254,615.18895,0.0,0.0,0.0,0.0,0.04069448353074042,0.0,-0.04805811888371705,-0.07930014659031513,-0.05964381608438635,0.08289288218539052,0.3830688971084566,-0.03783074119735346
4084,5.0,299.27698,904.14456,0.0,0.0,0.0,0.0,0.04070445034032424,0.0,-0.09060006166652991,-0.1015103233107889,-0.08272698679951793,0.1193281540667719,0.38342517610861865,0.0021437575545723976
4085,5.0,299.51257999999996,1210.2552,0.0,0.0,0.0,0.0,0.040714417149908054,0.0,-0.15728400632022285,-0.10405663094458989,-0.1065467234628429,0.08545355162610892,0.35247946427451465,-0.007063530188316154
4086,5.0,297.74372,994.28565,0.0,0.0,0.0,0.0,0.04072438395949188,0.0,-0.09072915884852081,-0.09620551118074472,-0.1153033422845539,0.07371364991922083,0.3338728487131847,0.0034738235017646867
4087,5.0,298.83918,702.8624900000001,0.0,0.0,0.0,0.0,0.040734350769075695,0.0,-0.04835077591010005,-0.06365083215509804,-0.1016510434846769,0.09103716154766832,0.39498105031909464,-0.01097170513032299
4088,5.0,298.53651,715.56571,0.0,0.0,0.0,0.0,0.040744317578659525,0.0,-0.044188541069819454,-0.06686513606307513,-0.1064604350843269,0.096760491565267,0.35600911086536363,-0.015757745368168385
4089,5.0,299.50093,706.7166,0.0,0.0,0.0,0.0,0.04075428438824334,0.0,-0.06810016026546252,-0.05584718822468835,-0.09087685018309682,0.0996349392307029,0.3372556247020387,-0.014018904845058185
4090,5.0,300.98478,653.3998,0.0,0.0,0.0,0.0,0.04076425119782716,0.0,-0.06636922106663214,-0.06536591398986344,-0.06688208976374833,0.07211833525952553,0.3173200607070517,-0.044204496719144164
4091,5.0,300.55206,685.99239,0.0,0.0,0.0,0.0,0.04077421800741098,0.0,-0.07370234812760543,-0.07526509287608633,-0.05955711531307964,0.1024151759150909,0.3764239320251496,-0.004639582129966105
4092,5.0,299.57867999999996,761.88108,0.0,0.0,0.0,0.0,0.0407841848169948,0.0,-0.06543388685957184,-0.08072928316735993,-0.08542965513575052,0.07246291932703333,0.3844724815444796,-0.043291739750812054
4093,5.0,299.76547,910.27889,0.0,0.0,0.0,0.0,0.04079415162657863,0.0,-0.057383304760541244,-0.11570869298705888,-0.1036100612280169,0.07512457839196864,0.36142876273524166,-0.002024283310106208
4094,5.0,300.31686,1073.7887,0.0,0.0,0.0,0.0,0.04080411843616245,0.0,-0.1064577094415579,-0.10691433059912289,-0.11303292238798089,0.06611140160518734,0.34404823045741667,-0.008351038111433293
4095,5.0,300.3207,1034.7489,0.0,0.0,0.0,0.0,0.040814085245746264,0.0,-0.10664362056990591,-0.09125622520603822,-0.11663796491877088,0.09524227713218092,0.3836277045386067,0.020759146848518283
4096,5.0,301.10085,740.25838,0.0,0.0,0.0,0.0,0.04082405205533009,0.0,-0.07972593961358763,-0.07770694658357852,-0.06758717605783493,0.11025239186106388,0.3640299074644546,-0.00033838930970892466
4097,5.0,301.21655,765.54116,0.0,0.0,0.0,0.0,0.040834018864913904,0.0,-0.07840525626099633,-0.06252487014047424,-0.0917752716890141,0.1169771098597419,0.3370214119414237,0.00932809268871107
4098,5.0,301.18747,1006.5845,0.0,0.0,0.0,0.0,0.040843985674497735,0.0,-0.08531991812342032,-0.09474506517560992,-0.12591156420650387,0.11231664575978989,0.34358913696960763,-0.008592807184669041
4099,5.0,301.01182,928.37059,0.0,0.0,0.0,0.0,0.04085395248408155,0.0,-0.08978923563175761,-0.07961250626489264,-0.11279973300996689,0.1102829818815829,0.37159510628858167,-0.02062098310463258
4100,5.0,299.62196,579.71068,0.0,0.0,0.0,0.0,0.04086391929366537,0.0,-0.03980144171434646,-0.05045418787219065,-0.08596193973128291,0.0935215930376126,0.35470290989645165,-0.017150401901862886
4101,5.0,298.95682999999997,605.27483,0.0,0.0,0.0,0.0,0.04087388610324919,0.0,-0.07298414227122403,-0.06737401356804744,-0.04363027775497316,0.0952270804071811,0.3258359313050027,-0.03272442982814976
4102,5.0,299.74248,780.29904,0.0,0.0,0.0,0.0,0.04088385291283301,0.0,-0.09734574380977691,-0.06471314990444064,-0.07513253139200353,0.08469852527434361,0.3160808659672527,-0.015783018865412685
4103,5.0,300.47035,937.59516,0.0,0.0,0.0,0.0,0.04089381972241684,0.0,-0.1106888392091379,-0.0861974210810231,-0.08811925254569311,0.09918604309190031,0.3689123037338096,-0.011720931638515888
4104,5.0,300.38427,1009.475,0.0,0.0,0.0,0.0,0.040903786532000656,0.0,-0.07582577380567122,-0.09681904931504622,-0.13421037636803287,0.06753484574317034,0.3637377975931257,-0.009791243635220511
4105,5.0,299.93085,802.5507299999999,0.0,0.0,0.0,0.0,0.04091375334158447,0.0,-0.06499705447645984,-0.06788374929585445,-0.1110745733897069,0.07932283629980443,0.36079236061243364,0.02235013797003688
4106,5.0,300.47826000000003,719.95686,0.0,0.0,0.0,0.0,0.0409237201511683,0.0,-0.04233324264646576,-0.09559121310886823,-0.08092445134862152,0.09363411952746811,0.36991737690550264,-0.011992020623270289
4107,5.0,300.55942000000005,865.58754,0.0,0.0,0.0,0.0,0.040933686960752114,0.0,-0.10063431388383351,-0.07495732221121172,-0.08752536234408072,0.1053542395526539,0.37903790450062863,0.0050100031630988156
4108,5.0,300.54514,1039.9867,0.0,0.0,0.0,0.0,0.040943653770335944,0.0,-0.12120442980694589,-0.08210943112856992,-0.11281612739658489,0.1102558267789029,0.36751669357607364,-0.005946944688792744
4109,5.0,300.23516,806.26062,0.0,0.0,0.0,0.0,0.04095362057991976,0.0,-0.05377834430300935,-0.09576529150254841,-0.09553946136001072,0.07067275363335773,0.3182293817442947,-0.01107900628941279
4110,5.0,299.32721000000004,572.70321,0.0,0.0,0.0,0.0,0.04096358738950358,0.0,-0.009449647946232641,-0.05336599001581315,-0.11127183291917489,0.07991795962678852,0.33057370638758465,-0.01808198911005338
4111,5.0,298.69512000000003,910.10317,0.0,0.0,0.0,0.0,0.0409735541990874,0.0,-0.06687168267197123,-0.09979414513941531,-0.1099828065394579,0.07591620637709622,0.35840514337683366,-0.024202778638378275
4112,5.0,299.46242,1017.6259,0.0,0.0,0.0,0.0,0.04098352100867122,0.0,-0.1008534383372094,-0.08519529038762051,-0.12328414590219788,0.1091400256362819,0.35915283075812465,0.0018607287346146283
4113,5.0,300.46519,866.3577300000001,0.0,0.0,0.0,0.0,0.04099348781825505,0.0,-0.11155740732735889,-0.08708244640736833,-0.06471125816650394,0.09132974460679401,0.35943716900118666,-0.02990793500218337
4114,5.0,299.93966,896.28171,0.0,0.0,0.0,0.0,0.041003454627838866,0.0,-0.09314772604221482,-0.09986620140702672,-0.07943333223645953,0.1048854796588909,0.37284255901669566,0.0005098777550735166
4115,5.0,299.94197,861.3701900000001,0.0,0.0,0.0,0.0,0.04101342143742268,0.0,-0.07490079298813272,-0.0885295884386901,-0.0984046479195326,0.13721254522182386,0.3736599276073636,-0.037942312192364665
4116,5.0,300.03771,874.8682699999999,0.0,0.0,0.0,0.0,0.041023388247006506,0.0,-0.05431135134586305,-0.10122632957276091,-0.11040042770067389,0.10903801161621389,0.36419700253844567,0.016340373294919285
4117,5.0,299.91844,746.1034099999999,0.0,0.0,0.0,0.0,0.04103335505659032,0.0,-0.04255929266427516,-0.09047161195135292,-0.0937659008089739,0.07967048443561463,0.3260122469549037,-0.034249422904404865
4118,5.0,300.00911,583.15274,0.0,0.0,0.0,0.0,0.04104332186617415,0.0,-0.05553701109082625,-0.038952563072068666,-0.08277429544668692,0.058438725316453145,0.3271072562054727,0.019421732710275783
4119,5.0,301.17859,562.0351900000001,0.0,0.0,0.0,0.0,0.04105328867575797,0.0,-0.06919533163604753,-0.06672186148568504,-0.03492746960632287,0.08448740651000781,0.38015984593885566,-0.04128329972059446
4120,5.0,300.6506,831.34569,0.0,0.0,0.0,0.0,0.04106325548534179,0.0,-0.10124714578281531,-0.05874081671451724,-0.09272036754753782,0.0969735122000405,0.3948535530590116,-0.009696676091462422
4121,5.0,300.03784,1144.9631,0.0,0.0,0.0,0.0,0.04107322229492561,0.0,-0.11964630446567089,-0.09999894223637722,-0.1283949287440929,0.0921363990909046,0.36827554697346665,-0.022693729052446678
4122,5.0,300.47274,1070.3839,0.0,0.0,0.0,0.0,0.04108318910450943,0.0,-0.09185185009182181,-0.09403309790009422,-0.13948502201609986,0.07644066361560613,0.3746132034339446,0.004443050418044936
4123,5.0,300.09634,766.23287,0.0,0.0,0.0,0.0,0.04109315591409325,0.0,-0.06369021313348465,-0.07097331806352114,-0.09825212743498,0.1133462598489049,0.36363548973052867,-0.004143433883350087
4124,5.0,299.69061,870.56484,0.0,0.0,0.0,0.0,0.04110312272367707,0.0,-0.07148345199861743,-0.1003142727602479,-0.0928322485970796,0.08721367242781931,0.35790774903524464,-0.002089948806686888
4125,5.0,299.22632000000004,939.3339199999999,0.0,0.0,0.0,0.0,0.041113089533260885,0.0,-0.14236588456791885,-0.07628265435526184,-0.06688552265508714,0.08990609579229082,0.33887609532196666,0.007732363204424832
4126,5.0,299.77776,892.2393300000001,0.0,0.0,0.0,0.0,0.04112305634284471,0.0,-0.08076553826918802,-0.09331888424910682,-0.09713405458563482,0.06343247979829834,0.3508372189099377,-0.013218617624575988
4127,5.0,299.63316000000003,731.8102700000001,0.0,0.0,0.0,0.0,0.041133023152428526,0.0,-0.07426164191780343,-0.07718418349923584,-0.07100622234726853,0.0915891052216409,0.38611842527192164,0.012329322462309387
4128,5.0,300.6807,582.51481,0.0,0.0,0.0,0.0,0.04114298996201236,0.0,-0.026886200288961375,-0.03324180748821097,-0.11694195008127188,0.06627217602505453,0.3603948423332017,-0.0018829964254372784
4129,5.0,299.87318999999997,654.71364,0.0,0.0,0.0,0.0,0.04115295677159617,0.0,-0.03395350625245017,-0.06388718996617473,-0.1011759021417841,0.1142352044266369,0.3265961829875337,0.0011856789225173987
4130,5.0,299.30959,912.7466800000001,0.0,0.0,0.0,0.0,0.04116292358117999,0.0,-0.08714320594961482,-0.07274113753949132,-0.11756785493304389,0.09225227538559072,0.3492749493757537,-0.010542236035687689
4131,5.0,298.84522999999996,1094.4396,0.0,0.0,0.0,0.0,0.041172890390763814,0.0,-0.13900046555327786,-0.08750137972746383,-0.10618046394919589,0.13676001759466289,0.37576317136993764,-0.016286421780094682
4132,5.0,298.05855,734.45146,0.0,0.0,0.0,0.0,0.04118285720034763,0.0,-0.08168057910324553,-0.07270404954608102,-0.06887027593771702,0.07925932781003663,0.3584985245060497,-0.025997227340226574
4133,5.0,299.47564,630.35033,0.0,0.0,0.0,0.0,0.04119282400993146,0.0,-0.07675725259610101,-0.049274455714510154,-0.06557905114839843,0.0961262061219179,0.35666903052299265,-0.01081818558117179
4134,5.0,299.35317000000003,676.71075,0.0,0.0,0.0,0.0,0.04120279081951528,0.0,-0.04305839129253236,-0.07836950170471763,-0.08427527753532232,0.07151116134910213,0.37910267144702064,-0.004673056366894755
4135,5.0,299.46984,732.43975,0.0,0.0,0.0,0.0,0.041212757629099095,0.0,-0.041221099336705765,-0.07725534101400852,-0.10416695361547791,0.09631789885533651,0.38093792069064564,-0.021275313674709976
4136,5.0,299.69575,703.89799,0.0,0.0,0.0,0.0,0.04122272443868292,0.0,-0.06810955106738933,-0.06372144454131694,-0.08213641803173333,0.08976614264872852,0.36251962779290164,-0.005856702000436484
4137,5.0,300.36113,801.99812,0.0,0.0,0.0,0.0,0.041232691248266735,0.0,-0.08089574901303884,-0.08206655038433792,-0.08082510217631651,0.0865400759203405,0.3362155032093867,-0.013826295120299087
4138,5.0,301.29281000000003,764.11274,0.0,0.0,0.0,0.0,0.041242658057850566,0.0,-0.08605100441507292,-0.06743022260409484,-0.07878996705896432,0.10928521424311088,0.36243378524442965,-0.009164221371238231
4139,5.0,301.21176,896.0931199999999,0.0,0.0,0.0,0.0,0.04125262486743438,0.0,-0.0913008821776955,-0.0903610633256926,-0.0907279865181551,0.10718079511042089,0.37296142338592664,-0.004108490433776436
4140,5.0,299.10197,1060.3942,0.0,0.0,0.0,0.0,0.0412625916770182,0.0,-0.09702574828244581,-0.08967505653098902,-0.13563256407589186,0.08364571991693982,0.36279137133722067,-0.018532951265809883
4141,5.0,299.19011,972.1227,0.0,0.0,0.0,0.0,0.04127255848660202,0.0,-0.08624186223040911,-0.06225997312708093,-0.14699919356519087,0.06646303384039073,0.3303543073434317,0.005558668162397835
4142,5.0,300.56327000000005,884.2257,0.0,0.0,0.0,0.0,0.04128252529618584,0.0,-0.07955773401748702,-0.09569927319228291,-0.09352552546125072,0.08622570595756461,0.36134377131685363,-0.0033895652711490466
4143,5.0,299.39777999999995,841.06351,0.0,0.0,0.0,0.0,0.04129249210576967,0.0,-0.09298522707067741,-0.05390815987932115,-0.1087689227871569,0.10233098496428189,0.36553703592819664,0.01123755155905999
4144,5.0,299.47766,904.1904099999999,0.0,0.0,0.0,0.0,0.04130245891535349,0.0,-0.11993348994151388,-0.059458316335578944,-0.09545949566211871,0.10054394514716482,0.37214690202803963,-0.008156340179543102
4145,5.0,299.94968,676.68365,0.0,0.0,0.0,0.0,0.041312425724937304,0.0,-0.07104193840004344,-0.06277765577542224,-0.07187533964704373,0.08762507425992151,0.3590321729362167,-0.0027887772681558878
4146,5.0,300.82607,699.07283,0.0,0.0,0.0,0.0,0.04132239253452113,0.0,-0.044990477861464456,-0.06944790448847453,-0.09806230212149572,0.10786004757995789,0.39059006008323766,-0.02393848146904418
4147,5.0,300.70071,638.73693,0.0,0.0,0.0,0.0,0.041332359344104945,0.0,-0.03193151704189537,-0.08107701540292843,-0.08115154400078382,0.1002892616947795,0.38097409371921565,-0.02086175159339458
4148,5.0,300.69468,710.77248,0.0,0.0,0.0,0.0,0.041342326153688776,0.0,-0.04284963340092956,-0.0927089654441625,-0.08049848607283203,0.09634679877468871,0.36456083025185265,-0.02060693743174638
4149,5.0,299.85639,947.77499,0.0,0.0,0.0,0.0,0.04135229296327259,0.0,-0.0951359020836825,-0.08275160269744733,-0.1102124292771199,0.06667971534777553,0.3302742808505337,-0.026095340347409575
4150,5.0,299.23918,1023.4483,0.0,0.0,0.0,0.0,0.04136225977285641,0.0,-0.12008039094101189,-0.10681791985210791,-0.08420441082332833,0.09637609690133021,0.3673755073071397,-0.004790348779920616
4151,5.0,300.30736,865.00904,0.0,0.0,0.0,0.0,0.04137222658244023,0.0,-0.07285652038137873,-0.08529987198344192,-0.1047847524664499,0.10955300611203989,0.36776813158838867,-0.024160046841910976
4152,5.0,300.31548,786.66017,0.0,0.0,0.0,0.0,0.04138219339202405,0.0,-0.06624979637009584,-0.06043363035183494,-0.11244162002712388,0.1069396922491259,0.36390744605736863,-0.002803591187267907
4153,5.0,299.55458,903.55697,0.0,0.0,0.0,0.0,0.04139216020160788,0.0,-0.09012581401022532,-0.07312123703625423,-0.11141170196297889,0.10586223249028891,0.3572176547896377,-0.007280128811842773
4154,5.0,298.73275,824.44412,0.0,0.0,0.0,0.0,0.0414021270111917,0.0,-0.07110064915058772,-0.05608496458590504,-0.12342481541358087,0.09327985284200471,0.3778046879364197,0.006865515686198644
4155,5.0,299.33195,746.23594,0.0,0.0,0.0,0.0,0.041412093820775514,0.0,-0.08565660593289882,-0.07440762491271083,-0.06677286140296834,0.0986093973937398,0.3872161601652596,-0.02558982581951918
4156,5.0,299.43262999999996,776.76425,0.0,0.0,0.0,0.0,0.04142206063035934,0.0,-0.08412573803256392,-0.06802673712346623,-0.08396446205389721,0.07582425393052122,0.3463953533865597,-0.007450433558175543
4157,5.0,300.69927,745.92198,0.0,0.0,0.0,0.0,0.041432027439943155,0.0,-0.07660759150333063,-0.07690527728995994,-0.07322878644161852,0.07261068665536684,0.35253103870460467,-0.025683900011803578
4158,5.0,300.78511000000003,689.55802,0.0,0.0,0.0,0.0,0.041441994249526985,0.0,-0.04610080036079475,-0.08987577630954852,-0.07363184314589713,0.08270548056614542,0.36684330782461566,-0.05487918278140365
4159,5.0,299.94,879.57618,0.0,0.0,0.0,0.0,0.0414519610591108,0.0,-0.07452294088009163,-0.07569829478409001,-0.11714796409160388,0.1125688639746819,0.3901760866223816,-0.0040202036220882064
4160,5.0,300.20696,1009.8955,0.0,0.0,0.0,0.0,0.04146192786869462,0.0,-0.08664047583299923,-0.1042830214144329,-0.1160595308341839,0.10970923914495888,0.36046073398720463,-0.007970550033257043
4161,5.0,300.50539,850.23615,0.0,0.0,0.0,0.0,0.04147189467827844,0.0,-0.1127150658316109,-0.05383156931751224,-0.09190392608071132,0.1077756945091329,0.3374660970128107,0.04495704770091516
4162,5.0,300.16071,907.7602,0.0,0.0,0.0,0.0,0.04148186148786226,0.0,-0.09075290943086482,-0.07926761923560494,-0.10591590434808591,0.0979680820211969,0.3795415607278357,1.974386214231748e-05
4163,5.0,298.82653,1007.2421,0.0,0.0,0.0,0.0,0.04149182829744609,0.0,-0.08777873667733682,-0.08923818159137283,-0.1291595171370519,0.09566035222944172,0.3742941309774546,0.021436429559860876
4164,5.0,299.5717,992.3109800000001,0.0,0.0,0.0,0.0,0.04150179510702991,0.0,-0.07490592104688884,-0.0928814145316819,-0.13385041927000788,0.07366386387555733,0.33859029799876067,-0.029210522051104075
4165,5.0,299.99059,1013.529,0.0,0.0,0.0,0.0,0.041511761916613724,0.0,-0.09010213334213822,-0.0980870770996908,-0.11989828963303988,0.08544195396546432,0.3271842733455737,-0.008250434636829502
4166,5.0,300.29061,896.16792,0.0,0.0,0.0,0.0,0.04152172872619755,0.0,-0.08878197991934922,-0.08040383939424113,-0.1032268500401969,0.1153503672216949,0.37189079293276367,-0.033907733692432766
4167,5.0,300.34094,609.08475,0.0,0.0,0.0,0.0,0.041531695535781364,0.0,-0.06311161591563154,-0.06502906507361902,-0.05700587517779185,0.1255173288575959,0.3934359959041096,-0.030551410623939474
4168,5.0,300.7849,549.06528,0.0,0.0,0.0,0.0,0.041541662345365195,0.0,-0.05134915520851705,-0.06327485962599244,-0.05227811911219865,0.0861750485188151,0.36007702630683563,-0.028502163972444573
4169,5.0,301.74318999999997,976.4259599999999,0.0,0.0,0.0,0.0,0.04155162915494901,0.0,-0.07091032126505384,-0.09650296088010071,-0.12939582732537386,0.10719810142212889,0.34765436729831467,0.0043846894414351556
4170,5.0,300.79531000000003,998.34959,0.0,0.0,0.0,0.0,0.04156159596453283,0.0,-0.08777542233625973,-0.07655530475842033,-0.13914261440980688,0.09733931372464232,0.35931742310436865,0.0034912854486880466
4171,5.0,299.76507999999995,794.26213,0.0,0.0,0.0,0.0,0.04157156277411665,0.0,-0.06370419294511434,-0.07619860323296662,-0.10153306064303291,0.1084242657656419,0.3895483376554276,-0.010374487415382189
4172,5.0,299.67672999999996,998.2062800000001,0.0,0.0,0.0,0.0,0.04158152958370047,0.0,-0.12918035969160888,-0.06751410248712314,-0.1067353197039559,0.08391790422505233,0.35178388834586666,0.011324218893113388
4173,5.0,299.70805,1137.4892,0.0,0.0,0.0,0.0,0.041591496393284286,0.0,-0.13973285285805886,-0.07743455253269534,-0.12860091235692186,0.07794733409030292,0.34578832538415066,0.0049163998281358855
4174,5.0,300.82642000000004,971.27042,0.0,0.0,0.0,0.0,0.04160146320286811,0.0,-0.12079183436622588,-0.07841240372720172,-0.09603772101718511,0.11066695300697789,0.37343592840775663,-0.01040769466090949
4175,5.0,299.47545,744.53055,0.0,0.0,0.0,0.0,0.04161143001245193,0.0,-0.05409660919916965,-0.07160955603981294,-0.10061253103318371,0.1077994349589759,0.3802669870044296,-0.029130836010239677
4176,5.0,299.19552000000004,552.7409,0.0,0.0,0.0,0.0,0.04162139682203576,0.0,-0.022661182445984578,-0.06827458012442643,-0.07708367010256593,0.12561144965938487,0.36199199806832866,-0.03543868366602576
4177,5.0,300.13247,620.1781599999999,0.0,0.0,0.0,0.0,0.041631363631619574,0.0,-0.06428692321012534,-0.06201849941624935,-0.06221325317822003,0.07852285204110213,0.3274596139277477,-0.03685615976091976
4178,5.0,300.68529,879.48676,0.0,0.0,0.0,0.0,0.04164133044120339,0.0,-0.092623371141965,-0.08626268148021382,-0.08845596163342372,0.12602539272273788,0.3717907243528876,-0.02830238043697747
4179,5.0,298.65719,806.20408,0.0,0.0,0.0,0.0,0.041651297250787214,0.0,-0.08642683002291401,-0.07321247210175842,-0.08542660829269982,0.08612410737003762,0.38482643006941164,-0.02327813016687258
4180,5.0,298.73362000000003,780.1625700000001,0.0,0.0,0.0,0.0,0.04166126406037103,0.0,-0.029476792018382873,-0.07754069554692083,-0.13013245001557286,0.09241818597021481,0.3795660509827526,0.008996969344806743
4181,5.0,299.48716,815.0826400000001,0.0,0.0,0.0,0.0,0.041671230869954855,0.0,-0.05283169006583185,-0.09150774427836122,-0.10342533560228591,0.04165325962360666,0.3419665486569707,-0.0028272795560557677
4182,5.0,300.59483,1243.8298,0.0,0.0,0.0,0.0,0.04168119767953867,0.0,-0.11373429410720089,-0.09904204809368909,-0.16531685046300285,0.0946012211516636,0.38606036604119165,0.012302950601956688
4183,5.0,301.29016,1279.4875,0.0,0.0,0.0,0.0,0.0416911644891225,0.0,-0.16108188047754385,-0.09610455600703122,-0.13174582788480088,0.10017275718503141,0.3954823558060696,-0.01081984832458589
4184,5.0,300.65094,746.79814,0.0,0.0,0.0,0.0,0.04170113129870632,0.0,-0.07995068557851834,-0.06883649417938303,-0.07822080725254263,0.1188218937868079,0.35783015434258664,-0.012733949704242988
4185,5.0,300.21156,592.0237099999999,0.0,0.0,0.0,0.0,0.041711098108290136,0.0,-0.07271723800938264,-0.051335048740624854,-0.05590813927120374,0.08518659872826273,0.36176283129321163,-0.039573342904834864
4186,5.0,300.8292,782.29724,0.0,0.0,0.0,0.0,0.04172106491787396,0.0,-0.05934510387540574,-0.07640056626939883,-0.1020531619193629,0.09117988086400361,0.35750420191791765,-0.02556905925871968
4187,5.0,300.12976000000003,732.68987,0.0,0.0,0.0,0.0,0.041731031727457776,0.0,-0.057625059141650545,-0.08914182150686281,-0.07595254456543253,0.08480458520206093,0.40154537082694264,-0.030457543134675472
4188,5.0,299.76451000000003,698.49109,0.0,0.0,0.0,0.0,0.04174099853704161,0.0,-0.04937731681166175,-0.06058875792889485,-0.1023577752969259,0.08074177248809251,0.34594531835464465,0.0028519748927930072
4189,5.0,299.17766,707.13762,0.0,0.0,0.0,0.0,0.041750965346625424,0.0,-0.05287983971058386,-0.08178662991171193,-0.08028571165783283,0.08885433002948961,0.33963233453410163,-0.014059497670564386
4190,5.0,299.46162999999996,910.5067300000001,0.0,0.0,0.0,0.0,0.04176093215620924,0.0,-0.09825556944556971,-0.07765249958945503,-0.1008632415319269,0.08368070541639262,0.35957204272199766,0.015579497450326683
4191,5.0,299.28767999999997,1265.7468,0.0,0.0,0.0,0.0,0.041770898965793064,0.0,-0.13504218377262586,-0.09172169912972691,-0.15799152846754985,0.1035368944382959,0.4036060378203146,-0.012115601671716788
4192,5.0,300.54136,1214.3177,0.0,0.0,0.0,0.0,0.04178086577537688,0.0,-0.1059854335699479,-0.1166562844805789,-0.14648053110400286,0.1024012031962119,0.36932618600215666,0.01965561109835778
4193,5.0,299.79128,664.77753,0.0,0.0,0.0,0.0,0.04179083258496071,0.0,-0.042355123782375256,-0.06760597590019034,-0.09211466892926001,0.08537147735475882,0.35945069589002165,-0.021891104263983777
4194,5.0,300.80683,581.7364,0.0,0.0,0.0,0.0,0.04180079939454453,0.0,-0.05278821758354145,-0.060230085631996645,-0.06381503743980384,0.10391442129305489,0.3794827922220356,-0.02054878295550698
4195,5.0,300.84967,776.82119,0.0,0.0,0.0,0.0,0.041810766204128345,0.0,-0.0936612219411429,-0.06781793262235884,-0.07465509098463384,0.09440676123222191,0.3947014135564966,-0.03833912524952707
4196,5.0,301.01855,727.33502,0.0,0.0,0.0,0.0,0.04182073301371217,0.0,-0.09394667475931491,-0.06559008949498785,-0.06155492027024764,0.08301255208845101,0.3545765170789777,-0.03237650203531197
4197,5.0,301.18664,564.57932,0.0,0.0,0.0,0.0,0.041830699823295986,0.0,-0.03319391520898437,-0.08866773698382431,-0.04975636455482085,0.09086019235145282,0.35137053296757165,-0.05570915012381505
4198,5.0,299.73145,624.09465,0.0,0.0,0.0,0.0,0.04184066663287982,0.0,-0.04260400232493766,-0.06318722261159335,-0.08391796502005833,0.11262011416473988,0.3634141655111856,-0.032172669552445264
4199,5.0,298.57383,849.91657,0.0,0.0,0.0,0.0,0.04185063344246363,0.0,-0.06815834007295443,-0.07167473335249543,-0.11852034042454689,0.13613651414562786,0.39045610842001766,0.00988378741455387
4200,5.0,299.46585,1149.9663,0.0,0.0,0.0,0.0,0.04186060025204745,0.0,-0.1078312814096189,-0.10331832625922491,-0.13841143287264487,0.09929287410294371,0.3513895618044497,0.01095499359642369
4201,5.0,299.50333,1153.3996,0.0,0.0,0.0,0.0,0.041870567061631274,0.0,-0.11932483060644387,-0.0969626562384691,-0.13431718306107387,0.10924548470668988,0.3524085063700117,0.036044921333356766
4202,5.0,300.25746000000004,923.70606,0.0,0.0,0.0,0.0,0.04188053387121509,0.0,-0.08740902603384922,-0.1064432199651279,-0.08693133434045473,0.0994463784533434,0.3538255771648657,5.267757371237175e-05
4203,5.0,299.84707000000003,873.8825300000001,0.0,0.0,0.0,0.0,0.04189050068079892,0.0,-0.08011371853285842,-0.07119047275870263,-0.11433428002141488,0.09669536491508951,0.3965753385564386,-0.013181110145624288
4204,5.0,301.02677,1009.091,0.0,0.0,0.0,0.0,0.04190046749038274,0.0,-0.1043473323982799,-0.0892798038789806,-0.11311132768071888,0.07736976329480112,0.34136815354541367,-0.027927127315442873
4205,5.0,300.64758,1006.0684,0.0,0.0,0.0,0.0,0.041910434299966555,0.0,-0.10489885456021089,-0.09628466729180682,-0.10463614920678391,0.06776885686701543,0.3669094223936406,-0.03441656458790047
4206,5.0,299.91755,632.72646,0.0,0.0,0.0,0.0,0.04192040110955038,0.0,-0.04975827959750986,-0.05773909638740514,-0.08483566664887841,0.13123309293669785,0.3683731736206016,-0.028700538077022577
4207,5.0,298.79312000000004,605.36609,0.0,0.0,0.0,0.0,0.041930367919134195,0.0,-0.08732870873817251,-0.051889363419831455,-0.044798102197478464,0.12600921111864088,0.4048305303011626,-0.027627122199334674
4208,5.0,299.5811,970.76845,0.0,0.0,0.0,0.0,0.041940334728718026,0.0,-0.0903233683954724,-0.09163609976127891,-0.1131299005550519,0.10932327191686689,0.3550985131329947,0.004318423391520206
4209,5.0,299.11797,1043.6576,0.0,0.0,0.0,0.0,0.04195030153830184,0.0,-0.09822184341599122,-0.08366222778756902,-0.13536176285416587,0.09104209506240522,0.34083472803026865,0.007353304011539603
4210,5.0,299.49084,977.3069199999999,0.0,0.0,0.0,0.0,0.04196026834788566,0.0,-0.050795719017147155,-0.1098838424021909,-0.13639734498636988,0.0948223153632339,0.33639663179726265,0.020301868091638378
4211,5.0,298.88839,990.50913,0.0,0.0,0.0,0.0,0.04197023515746948,0.0,-0.08836496164194271,-0.08448580456159972,-0.12823927326373089,0.09408643538535823,0.36705641458564764,0.017806239174838985
4212,5.0,300.24379,1045.7537,0.0,0.0,0.0,0.0,0.0419802019670533,0.0,-0.08148319291751502,-0.0961083850791591,-0.14029143737318686,0.08402828262469583,0.33135753639994264,0.008756661783515233
4213,5.0,300.54545,1056.1021,0.0,0.0,0.0,0.0,0.04199016877663713,0.0,-0.11645533672074687,-0.10898533274351489,-0.0955880102253021,0.06582511994843353,0.3569470967479357,-0.000876281241427225
4214,5.0,299.68904,976.2215,0.0,0.0,0.0,0.0,0.04200013558622095,0.0,-0.07362148367687474,-0.09418609157244351,-0.12893938855282688,0.1113204891889769,0.3814753080136816,-0.022609018304336377
4215,5.0,299.99557999999996,731.0164900000001,0.0,0.0,0.0,0.0,0.042010102395804765,0.0,-0.07566765612756622,-0.08993729376286981,-0.056605808574558346,0.11641471552423789,0.4012092251062676,-0.035626134934525766
4216,5.0,299.97221,526.9172900000001,0.0,0.0,0.0,0.0,0.04202006920538859,0.0,-0.041989751875815856,-0.04991539415801585,-0.06826455198818673,0.11506096272813289,0.37723147208984764,-0.04205529902478486
4217,5.0,300.47895,779.56069,0.0,0.0,0.0,0.0,0.042030036014972405,0.0,-0.0845408726780345,-0.05513401416830355,-0.09729209626998231,0.09035636893797933,0.36342066044432664,-0.02421906967348608
4218,5.0,300.505,1017.9818,0.0,0.0,0.0,0.0,0.042040002824556236,0.0,-0.0996633862272604,-0.09322834427317123,-0.11654930553502088,0.1062117936422879,0.3856695960076256,-0.018901497684932583
4219,5.0,300.25997,819.3319700000001,0.0,0.0,0.0,0.0,0.04204996963414005,0.0,-0.08621819473457333,-0.05943994003176535,-0.1033983223546199,0.09394592495424091,0.37725052119172764,-0.005006608876588825
4220,5.0,300.0306,804.67655,0.0,0.0,0.0,0.0,0.04205993644372387,0.0,-0.05352967752971785,-0.08437001743292241,-0.10670188245065589,0.07663058113484952,0.3475057437736467,0.01120235530358639
4221,5.0,299.79706,1093.489,0.0,0.0,0.0,0.0,0.04206990325330769,0.0,-0.08345955040981633,-0.0990810349177868,-0.14985276929181687,0.06815117436824723,0.35128402167403366,0.004428208735880176
4222,5.0,299.46396,1144.1443,0.0,0.0,0.0,0.0,0.04207987006289151,0.0,-0.08865825093638811,-0.10970031241157789,-0.14943272646286185,0.0944748992616966,0.3660824583245257,0.014560502222259684
4223,5.0,300.13706,1061.8851,0.0,0.0,0.0,0.0,0.04208983687247534,0.0,-0.08283905226057793,-0.13058628473536288,-0.10936119786810991,0.09519063076133381,0.39233438026288864,-0.034733563934685865
4224,5.0,299.56088,822.01891,0.0,0.0,0.0,0.0,0.04209980368205916,0.0,-0.09082433039066351,-0.05902521169958485,-0.1000236827640689,0.09596599608235641,0.3480343259533137,-0.006825105043060425
4225,5.0,298.83066,609.88875,0.0,0.0,0.0,0.0,0.042109770491642974,0.0,-0.07603925141623982,-0.056582785505786146,-0.052768914155886346,0.0904467488203991,0.37957224194086364,-0.03045834258900437
4226,5.0,298.82551,805.03801,0.0,0.0,0.0,0.0,0.0421197373012268,0.0,-0.06226716213654044,-0.08932555414749582,-0.09311873797010391,0.08673593716467051,0.37408111540893163,-0.023226122065739777
4227,5.0,299.10732,814.0156,0.0,0.0,0.0,0.0,0.042129704110810615,0.0,-0.07627900462840162,-0.06780910214773733,-0.1033523106675789,0.095680924246222,0.3814698871256466,-0.00985868029297599
4228,5.0,300.68143,828.4607599999999,0.0,0.0,0.0,0.0,0.04213967092039443,0.0,-0.06050409885653964,-0.08709648093450341,-0.10423080863677991,0.07447414275527563,0.3361844572263227,-0.018570854925550682
4229,5.0,300.71101,856.4408099999999,0.0,0.0,0.0,0.0,0.042149637729978255,0.0,-0.08388495434505042,-0.051391177729914354,-0.1250604847850089,0.1085351355915839,0.3478761373477017,0.004757696187498055
4230,5.0,300.31112,973.35327,0.0,0.0,0.0,0.0,0.04215960453956207,0.0,-0.09982688223689622,-0.08025967113026283,-0.11578853709493889,0.10390987180010591,0.36836116660691665,-0.02037838873919038
4231,5.0,300.74932,1244.1243,0.0,0.0,0.0,0.0,0.0421695713491459,0.0,-0.12788312598608187,-0.12219429409463789,-0.12810531146800988,0.10036551383105499,0.36821198579469366,0.0011149110024081489
4232,5.0,300.49807000000004,1062.7532,0.0,0.0,0.0,0.0,0.04217953815872972,0.0,-0.08312992698003502,-0.08726212604760132,-0.15265839802371087,0.0969141367574306,0.3648979081626197,-0.015142531318201487
4233,5.0,299.6027,829.1213799999999,0.0,0.0,0.0,0.0,0.042189504968313536,0.0,-0.06363332218011994,-0.10476670648216889,-0.08363217073660262,0.07978566260098183,0.38487109413381965,0.006481254163324983
4234,5.0,299.40052000000003,692.33953,0.0,0.0,0.0,0.0,0.04219947177789736,0.0,-0.04957767182018525,-0.05878219480885094,-0.1020940668258999,0.0985808723769246,0.4059118302778786,-0.012078988892603388
4235,5.0,298.89801,589.57186,0.0,0.0,0.0,0.0,0.04220943858748118,0.0,-0.05168863249552085,-0.07199420502952483,-0.055532286305609954,0.1017301681849859,0.36974293576828665,-0.016701961725605285
4236,5.0,298.99277,693.01117,0.0,0.0,0.0,0.0,0.042219405397065,0.0,-0.07396879338715152,-0.07680441330875543,-0.05988488652167814,0.09059817600809382,0.36655538267619964,-0.028464941216770973
4237,5.0,299.80657,869.28396,0.0,0.0,0.0,0.0,0.04222937220664882,0.0,-0.1048963720974659,-0.05396289058347265,-0.10538135412532991,0.11237415783546588,0.35928044960821964,-0.017611655638885084
4238,5.0,300.91482,725.00877,0.0,0.0,0.0,0.0,0.04223933901623264,0.0,-0.061690759618403944,-0.08365728211383092,-0.07503652087877802,0.1131243074144999,0.3805895247762617,-0.029683743285057372
4239,5.0,301.21775,857.74048,0.0,0.0,0.0,0.0,0.042249305825816465,0.0,-0.0908019578284555,-0.07093118307136273,-0.09899854622714581,0.09746744426603782,0.35549094489672467,-0.01121741118682229
4240,5.0,300.66782,1271.9227,0.0,0.0,0.0,0.0,0.04225927263540028,0.0,-0.12003665906669587,-0.10177545033195491,-0.16482065175653185,0.07710513175293403,0.3471765793461607,-0.005957276496087414
4241,5.0,299.8079,1311.5253,0.0,0.0,0.0,0.0,0.042269239444984105,0.0,-0.12761270979939388,-0.14214090251571487,-0.12891733009814987,0.08724847554225411,0.3755600856523947,-0.008478146486127913
4242,5.0,300.20245,985.91941,0.0,0.0,0.0,0.0,0.04227920625456792,0.0,-0.0957383279041373,-0.08710137999873692,-0.1168551753427079,0.07870151741798502,0.3782464548475187,-0.03161327849023767
4243,5.0,299.95655,665.99241,0.0,0.0,0.0,0.0,0.042289173064151746,0.0,-0.03714834055975576,-0.08988913398561682,-0.07540758725089944,0.08784267174539673,0.37270811086092664,-0.03461835334531547
4244,5.0,299.94882,507.46840999999995,0.0,0.0,0.0,0.0,0.04229913987373557,0.0,-0.016532788475659185,-0.06807770562999643,-0.06964722902164633,0.07728204218064373,0.3506507403615337,-0.03316363017674547
4245,5.0,299.37949,677.17538,0.0,0.0,0.0,0.0,0.042309106683319386,0.0,-0.04935151338461516,-0.04687985593868155,-0.10961304118046489,0.10719696658201691,0.36989604799089765,-0.002069792729072638
4246,5.0,298.90873,753.30583,0.0,0.0,0.0,0.0,0.04231907349290321,0.0,-0.04800251577122946,-0.08159920296121433,-0.099384444554231,0.10519522008195992,0.3874342723817856,-0.03518067371356217
4247,5.0,299.78694,694.7171599999999,0.0,0.0,0.0,0.0,0.04232904030248703,0.0,-0.07265283178002623,-0.036191895286861966,-0.1023319374193759,0.11092455157990089,0.3421689149669427,0.01103638291070619
4248,5.0,300.7625,872.59783,0.0,0.0,0.0,0.0,0.04233900711207085,0.0,-0.0863446108567996,-0.07594374854131443,-0.1029595951938209,0.09444183589768351,0.35909792273520563,-0.03258839998897467
4249,5.0,299.44563999999997,1215.4331,0.0,0.0,0.0,0.0,0.042348973921654674,0.0,-0.11725368660703789,-0.1162097755590119,-0.13599784073694185,0.07466807578466533,0.3650538777505127,-0.017421271011345583
4250,5.0,299.51588,1356.7605,0.0,0.0,0.0,0.0,0.04235894073123849,0.0,-0.15193339731215885,-0.08743284855695031,-0.17305508200670683,0.10579407115606189,0.38697311186377265,-0.002178146351041308
4251,5.0,299.61463,972.68706,0.0,0.0,0.0,0.0,0.042368907540822315,0.0,-0.07940307861497373,-0.11011855165535489,-0.10615094797378291,0.08125470096696462,0.3460202481995397,-0.007713696807107602
4252,5.0,300.10674,640.81537,0.0,0.0,0.0,0.0,0.04237887435040613,0.0,-0.04167646913039726,-0.05633307711139185,-0.0967823240651717,0.10968141529721288,0.36535545137777564,0.015015737253687883
4253,5.0,300.69777,693.84766,0.0,0.0,0.0,0.0,0.04238884115998996,0.0,-0.06623839426672053,-0.048598463883794955,-0.0960755051134141,0.12268429171049688,0.3903519159122346,0.0009373152629933142
4254,5.0,300.16191000000003,875.12854,0.0,0.0,0.0,0.0,0.04239880796957378,0.0,-0.07036100494859053,-0.0968528604576331,-0.0988033608206325,0.1009414644396469,0.4216179768979546,0.004765768649719745
4255,5.0,299.9432,819.04433,0.0,0.0,0.0,0.0,0.042408774779157596,0.0,-0.06033234181883854,-0.05908530452326553,-0.12955138148072587,0.09797488396911821,0.37171039388495963,-0.01115689077159939
4256,5.0,301.41078999999996,932.20383,0.0,0.0,0.0,0.0,0.04241874158874142,0.0,-0.08306252862313333,-0.1032382896338259,-0.09706586893340541,0.06289087026209564,0.36102712052810265,0.0035399222640881264
4257,5.0,302.59643,843.4611699999999,0.0,0.0,0.0,0.0,0.042428708398325236,0.0,-0.05719121483308345,-0.08592414347605273,-0.1132757781719489,0.11705523144245189,0.37430223697825465,-0.02445925149044018
4258,5.0,302.10146000000003,950.59931,0.0,0.0,0.0,0.0,0.04243867520790907,0.0,-0.08778825920177662,-0.08859545881444102,-0.1125747306927609,0.08336263607750162,0.36976794278075464,-0.007337361737116224
4259,5.0,302.05294,1268.2822,0.0,0.0,0.0,0.0,0.042448642017492884,0.0,-0.13880455364644287,-0.12249488486930388,-0.12422668127771888,0.09862262334729509,0.33227815517580067,-0.016849066388373385
4260,5.0,300.82194,1002.9687,0.0,0.0,0.0,0.0,0.0424586088270767,0.0,-0.0937917255142726,-0.07915813654904982,-0.13192759482023986,0.09540807321954373,0.3205505958683807,-0.006268097043763014
4261,5.0,300.46404,534.91435,0.0,0.0,0.0,0.0,0.042468575636660524,0.0,-0.039081108032755066,-0.056659820884388944,-0.06685967667153635,0.11123173861271789,0.34472586172679365,-0.03206002451232807
4262,5.0,300.6465,616.29439,0.0,0.0,0.0,0.0,0.04247854244624434,0.0,-0.038127312408872766,-0.06148691700303624,-0.08772387627717251,0.09948100120926041,0.3781759731705627,-0.03971332543265006
4263,5.0,300.1951,1049.7941,0.0,0.0,0.0,0.0,0.04248850925582817,0.0,-0.0947579901938855,-0.07998791036069212,-0.14436530059274585,0.08258050224581101,0.34514491157065064,0.008834831394279971
4264,5.0,299.5376,1002.9742,0.0,0.0,0.0,0.0,0.04249847606541199,0.0,-0.09179262157047641,-0.1025542140938129,-0.11053228193618689,0.08499079827893871,0.39606184367076064,-0.014827479438108287
4265,5.0,299.61132000000003,810.29562,0.0,0.0,0.0,0.0,0.042508442874995805,0.0,-0.08940296746838591,-0.058464978626544144,-0.0984416913299385,0.08828088113539462,0.3909945495231576,0.01174158066230379
4266,5.0,299.04465,859.5808599999999,0.0,0.0,0.0,0.0,0.04251840968457963,0.0,-0.06855682093978144,-0.08027723176774593,-0.1124570619586479,0.08171823350346172,0.4205403955491056,-0.019276035451896583
4267,5.0,300.4221,1038.0549,0.0,0.0,0.0,0.0,0.042528376494163446,0.0,-0.1118149755027789,-0.1079727007260759,-0.095755084021041,0.06826181823941693,0.35549526134215065,0.006843232391324454
4268,5.0,300.26138,1157.3061,0.0,0.0,0.0,0.0,0.04253834330374728,0.0,-0.1071208107045009,-0.07525671127125913,-0.16941463651742283,0.1019070613874439,0.3557869760459406,-0.0018441552053789483
4269,5.0,299.70148,1007.1032,0.0,0.0,0.0,0.0,0.04254831011333109,0.0,-0.0958287310913094,-0.11295335185762789,-0.09735215160340932,0.12833126624030988,0.37198432604949466,-0.008184392515186652
4270,5.0,300.21026,595.7097,0.0,0.0,0.0,0.0,0.04255827692291491,0.0,-0.08424404612749002,-0.034113434608483865,-0.06272339217956684,0.11953516106220188,0.3667735556877317,-0.006297916892881004
4271,5.0,301.22101000000004,533.18262,0.0,0.0,0.0,0.0,0.042568243732498734,0.0,-0.06218427625186024,-0.04630972037241355,-0.05358020628570465,0.1004030719725117,0.3398266556382797,-0.02116372038819658
4272,5.0,301.24331,862.59014,0.0,0.0,0.0,0.0,0.04257821054208255,0.0,-0.08579385065894382,-0.08691878726446642,-0.0894932247475436,0.06260848860497674,0.3691340028556897,-0.007228878115159723
4273,5.0,301.58732000000003,1005.9527,0.0,0.0,0.0,0.0,0.04258817735166638,0.0,-0.09429631291832151,-0.07607760293252483,-0.13541058124398386,0.1065605948567119,0.38950970242911465,-0.012456590727869789
4274,5.0,299.66808,795.4642299999999,0.0,0.0,0.0,0.0,0.0425981441612502,0.0,-0.04227169986189196,-0.09043573276531192,-0.10909383156422289,0.08400627685902402,0.4057392636533476,-0.018332803973556883
4275,5.0,299.75469,845.06748,0.0,0.0,0.0,0.0,0.042608110970834015,0.0,-0.050771343259491446,-0.10518421618587388,-0.1009238490866584,0.09033137205801232,0.34864654179623467,-0.03936971509848836
4276,5.0,299.94761,959.5562199999999,0.0,0.0,0.0,0.0,0.04261807778041784,0.0,-0.1161330421289389,-0.05813021193925524,-0.11741787365324188,0.08639528957380123,0.35934620953970964,-0.002987360608879537
4277,5.0,299.88599,862.5147400000001,0.0,0.0,0.0,0.0,0.042628044590001656,0.0,-0.07800976650846451,-0.11804708170033988,-0.06612609879788783,0.1016140801210289,0.3901359011234157,-0.03316398886728087
4278,5.0,299.3344,695.72955,0.0,0.0,0.0,0.0,0.042638011399585486,0.0,-0.07582868588645862,-0.04879577508901805,-0.08685995087090972,0.11429546241008388,0.4035354142883446,0.0101005644714231
4279,5.0,300.08497,524.47689,0.0,0.0,0.0,0.0,0.0426479782091693,0.0,-0.025498063863962975,-0.04763778423873325,-0.08629203128261041,0.09183939218184232,0.3798638755846456,0.004296181031950056
4280,5.0,300.23368999999997,621.29199,0.0,0.0,0.0,0.0,0.04265794501875312,0.0,-0.038288832580813566,-0.07154570203176103,-0.07902271567318483,0.06768573286856173,0.3755872812850786,-0.00956126555074844
4281,5.0,300.89967,992.3779199999999,0.0,0.0,0.0,0.0,0.042667911828336944,0.0,-0.1018656397233559,-0.06006017676247794,-0.13973228543800287,0.0999998916517209,0.37257563854285264,-0.010871904048473388
4282,5.0,299.69032999999996,1140.3223,0.0,0.0,0.0,0.0,0.04267787863792076,0.0,-0.14150225097768485,-0.09453148016053071,-0.1105957519224509,0.09269931626346022,0.38760343448598067,-0.03009082867173357
4283,5.0,299.51962000000003,775.7574599999999,0.0,0.0,0.0,0.0,0.04268784544750458,0.0,-0.06934051011037552,-0.06660949103634493,-0.09986089704275321,0.1099939725555599,0.36852680260076365,-0.03240548909417277
4284,5.0,299.77747999999997,789.0333400000001,0.0,0.0,0.0,0.0,0.0426978122570884,0.0,-0.07527894096520302,-0.06883588420282284,-0.09573161005597432,0.1046842583215319,0.3702232568456907,-0.01704983682943788
4285,5.0,300.64544,1007.5738,0.0,0.0,0.0,0.0,0.04270777906667222,0.0,-0.0865638477809366,-0.10881820727202089,-0.1108952281220069,0.11431266739678189,0.4007905197674446,-0.01258516709930929
4286,5.0,300.74595,990.71872,0.0,0.0,0.0,0.0,0.042717745876256034,0.0,-0.09080381511588882,-0.06554851077713435,-0.14480142370078786,0.1037132607507019,0.3982668886708816,0.016055830375337084
4287,5.0,300.02756,767.64005,0.0,0.0,0.0,0.0,0.042727712685839865,0.0,-0.08540088491241112,-0.059012168131047545,-0.08893035317124251,0.08520000706683602,0.37599764757557863,0.008798092769504152
4288,5.0,299.2219,718.67511,0.0,0.0,0.0,0.0,0.04273767949542368,0.0,-0.05825286687711035,-0.07456020011276883,-0.08564622011937381,0.08690246583185561,0.37503959934102665,0.008924099538690052
4289,5.0,300.4293,892.58424,0.0,0.0,0.0,0.0,0.042747646305007506,0.0,-0.08049678583916423,-0.09154311278635181,-0.0992834225060109,0.09445611461809271,0.3734353204576966,-0.0069173230624866335
4290,5.0,300.58254,1134.0437,0.0,0.0,0.0,0.0,0.04275761311459132,0.0,-0.1024430098953379,-0.12938380004668687,-0.11289416791928689,0.09959205443347051,0.38764106659469466,-0.029888409672756373
4291,5.0,299.79685,1071.6407,0.0,0.0,0.0,0.0,0.04276757992417514,0.0,-0.1026672218774659,-0.08244250366169162,-0.14064228535281287,0.09006734137345451,0.36165000589457663,-0.011946783059305688
4292,5.0,300.09625,692.24973,0.0,0.0,0.0,0.0,0.04277754673375896,0.0,-0.04724948754866136,-0.07214298358145813,-0.0910341633406224,0.1084309430838009,0.36569829468161164,-0.01843702991859318
4293,5.0,300.69575,553.25124,0.0,0.0,0.0,0.0,0.04278751354334279,0.0,-0.06905654575660043,-0.05466323182734095,-0.04445478469259566,0.10720750438305689,0.37408187534650666,-0.01981395574448518
4294,5.0,300.9658,834.06489,0.0,0.0,0.0,0.0,0.04279748035292661,0.0,-0.07580608331647792,-0.05548091351228985,-0.12224790515742888,0.1147511412450559,0.36658079498870766,-0.023295313875318475
4295,5.0,300.90551,971.99285,0.0,0.0,0.0,0.0,0.04280744716251043,0.0,-0.10474112191714391,-0.1025145757499009,-0.08820585604499022,0.07514832998756273,0.35694175691990865,-0.007799266993952723
4296,5.0,299.59391,786.6829799999999,0.0,0.0,0.0,0.0,0.04281741397209425,0.0,-0.06924456545840653,-0.07505078946668622,-0.09483662853414651,0.1115368180853269,0.37546634988564365,-0.02728804210637007
4297,5.0,298.85037,914.3625199999999,0.0,0.0,0.0,0.0,0.04282738078167807,0.0,-0.06933858696168574,-0.1057252917392739,-0.1028794977734159,0.10056863298585131,0.3845411393712556,0.011001790552292189
4298,5.0,299.65272999999996,1058.2956,0.0,0.0,0.0,0.0,0.04283734759126189,0.0,-0.07131410649615434,-0.13039948194692688,-0.11998184223628588,0.10231263500497091,0.3822686929744826,-0.004883198256809145
4299,5.0,300.50998,993.45236,0.0,0.0,0.0,0.0,0.042847314400845715,0.0,-0.1028326146912889,-0.057655339107638946,-0.14149675916214288,0.08710010026386061,0.36634890257082164,0.034406502001157364
4300,5.0,300.48168,846.24535,0.0,0.0,0.0,0.0,0.04285728121042953,0.0,-0.04880739098816445,-0.10497861760808289,-0.10345144705736291,0.07564524404860434,0.38608905115152264,-0.03237125441304407
4301,5.0,300.38951000000003,684.86091,0.0,0.0,0.0,0.0,0.042867248020013356,0.0,-0.06484676415537734,-0.05973818614569995,-0.08359566536199982,0.1103058306713379,0.37667006060694064,-0.017632504272942683
4302,5.0,301.14686,754.29513,0.0,0.0,0.0,0.0,0.04287721482959717,0.0,-0.07139945863157793,-0.05082076250661875,-0.1070666626191569,0.10630058474855089,0.39195133119508463,-0.027329488088460474
4303,5.0,300.16475,836.16522,0.0,0.0,0.0,0.0,0.042887181639180996,0.0,-0.07639938583303232,-0.06749359430509913,-0.11028036769632489,0.07225112776463113,0.3897491232952436,-0.016448700876360384
4304,5.0,299.97488,902.36495,0.0,0.0,0.0,0.0,0.04289714844876482,0.0,-0.10768199927238589,-0.06087152259455154,-0.10574289189351091,0.091232138224661,0.37155550847467367,-0.002180980310245998
4305,5.0,299.73025,801.15939,0.0,0.0,0.0,0.0,0.04290711525834864,0.0,-0.07994059056777202,-0.05922109320891685,-0.10437076887309289,0.08482152167748241,0.3833441464981216,0.006569218964131433
4306,5.0,299.6059,738.9157799999999,0.0,0.0,0.0,0.0,0.04291708206793246,0.0,-0.057281126593957045,-0.1143009947556299,-0.05302982504338624,0.11976294981718288,0.3733498122817576,-0.026612227594422375
4307,5.0,299.9998,1021.0287,0.0,0.0,0.0,0.0,0.04292704887751628,0.0,-0.08757861370308623,-0.0992700628034424,-0.12351854104783089,0.11976056867944788,0.37190559651672467,0.011624767111275188
4308,5.0,300.47555,1024.2959,0.0,0.0,0.0,0.0,0.0429370156871001,0.0,-0.1110755866398069,-0.11364962692884488,-0.08663514917722351,0.0969163446293985,0.37225532992124066,-0.030454127468588367
4309,5.0,299.6823,740.81976,0.0,0.0,0.0,0.0,0.042946982496683925,0.0,-0.04940403115054825,-0.07633447804487643,-0.0994521995751679,0.10761771868604189,0.37501617299871465,0.0005261607145780195
4310,5.0,300.04873,641.9472900000001,0.0,0.0,0.0,0.0,0.04295694930626774,0.0,-0.07473021436029793,-0.04596697130083686,-0.07443876107503372,0.07529641851617792,0.37738851572284665,-0.013242509048683886
4311,5.0,299.35791,718.26596,0.0,0.0,0.0,0.0,0.042966916115851565,0.0,-0.044873475845917256,-0.07430731315281083,-0.09915412774025051,0.07398871084436723,0.38495202241930665,0.00013658280015217287
4312,5.0,299.5053,826.70295,0.0,0.0,0.0,0.0,0.04297688292543538,0.0,-0.05777190441239304,-0.07741319018083702,-0.11611195639435788,0.06466951834188453,0.36337613823493264,-0.03632945817343836
4313,5.0,299.51825,999.9858300000001,0.0,0.0,0.0,0.0,0.042986849735019206,0.0,-0.08766022897214101,-0.0990419346096779,-0.11726856111850589,0.07659023756886793,0.3778791618187696,-0.026337740168832578
4314,5.0,299.18,836.26117,0.0,0.0,0.0,0.0,0.04299681654460303,0.0,-0.08824388737424362,-0.09106778601869071,-0.07489084084565052,0.10531046714833389,0.3805122137936316,-0.038361955800780265
4315,5.0,299.91562999999996,787.8058599999999,0.0,0.0,0.0,0.0,0.043006783354186846,0.0,-0.07993279867450302,-0.06371487868066894,-0.0958256325725036,0.12969585067998388,0.3948307042692566,0.015191000136734984
4316,5.0,300.60719,846.96485,0.0,0.0,0.0,0.0,0.04301675016377067,0.0,-0.08652213936707032,-0.10109278624933121,-0.06984124007129373,0.12561278714951687,0.3975116728413476,-0.013049478825133288
4317,5.0,300.55589,1102.8713,0.0,0.0,0.0,0.0,0.04302671697335449,0.0,-0.09553049409662571,-0.10830340529371389,-0.13141142495429786,0.11174772609364189,0.3683549249863006,0.021392494022274777
4318,5.0,301.0653,1102.6005,0.0,0.0,0.0,0.0,0.04303668378293831,0.0,-0.07538712263862972,-0.12491413094056487,-0.1348617644598199,0.1046969948752889,0.37224782173799964,-0.015243007224617685
4319,5.0,299.94037000000003,852.10777,0.0,0.0,0.0,0.0,0.043046650592522134,0.0,-0.09060138801091082,-0.08225680328936442,-0.08616129162220741,0.09035962248405041,0.35541270172400263,0.0026905026475819377
4320,5.0,299.37208,1009.0714,0.0,0.0,0.0,0.0,0.04305661740210595,0.0,-0.11410884200666589,-0.07493843928234813,-0.1176852095596259,0.10029870214596122,0.36431520829511166,-0.017702770127627384
4321,5.0,300.12052,1018.6439,0.0,0.0,0.0,0.0,0.043066584211689775,0.0,-0.1294535825810739,-0.08070388706685352,-0.0994848383873891,0.07478631092558423,0.36600845053722164,0.01051826456482189
4322,5.0,299.82661,797.92396,0.0,0.0,0.0,0.0,0.04307655102127359,0.0,-0.06656236477419393,-0.07785224766116862,-0.098134347243356,0.1025053653064919,0.3638006697618307,-0.00889220809974261
4323,5.0,299.19995,808.2707,0.0,0.0,0.0,0.0,0.04308651783085742,0.0,-0.06842646530116633,-0.06486798667872185,-0.11239966134048289,0.09410174255461891,0.39517870501610164,0.020137502713416782
4324,5.0,298.82048,861.93619,0.0,0.0,0.0,0.0,0.04309648464044124,0.0,-0.053707915315058544,-0.09539286737529301,-0.11290629652298388,0.1110667105689309,0.3938818563456126,-0.026048171528754376
4325,5.0,299.17991,998.86822,0.0,0.0,0.0,0.0,0.043106451450025056,0.0,-0.09425918439490721,-0.0912814743852801,-0.11809033734710889,0.11673351440320089,0.3649328956885727,-0.004592636631632945
4326,5.0,300.34061,1102.7843,0.0,0.0,0.0,0.0,0.04311641825960888,0.0,-0.09279306317596231,-0.12447079349181088,-0.11795504819375689,0.0945445125833169,0.3752325626900706,-0.04051077859260256
4327,5.0,300.61926,972.4408900000001,0.0,0.0,0.0,0.0,0.043126385069192696,0.0,-0.1048005085055049,-0.084909467733162,-0.1058877765253099,0.09411650155557551,0.3736860086649377,-0.007241956032875413
4328,5.0,299.68352000000004,634.83305,0.0,0.0,0.0,0.0,0.04313635187877653,0.0,-0.059165807243710546,-0.057083857945238146,-0.07672372921654252,0.09139776611250722,0.3966827126695356,-0.018582349234685085
4329,5.0,300.69657,681.54319,0.0,0.0,0.0,0.0,0.043146318688360344,0.0,-0.022056694661576278,-0.096527150199738,-0.0885882657519811,0.05804998887583785,0.37756036293980666,-0.019706563392886383
4330,5.0,299.86691,807.26276,0.0,0.0,0.0,0.0,0.04315628549794416,0.0,-0.05997697069076615,-0.0920001868667115,-0.09341056311815481,0.10072483562126731,0.35666616302520965,-0.027515675834085776
4331,5.0,299.63802999999996,776.64073,0.0,0.0,0.0,0.0,0.043166252307527984,0.0,-0.06606823917742753,-0.06444136684336774,-0.1055697882464269,0.07287495444044803,0.3733690539011566,-0.0036777064444863668
4332,5.0,300.6233,732.7658299999999,0.0,0.0,0.0,0.0,0.0431762191171118,0.0,-0.059730945460485345,-0.08890665325140351,-0.07410491543208572,0.11754758993104389,0.38819415929428064,-0.029723304621961773
4333,5.0,300.18424,905.74364,0.0,0.0,0.0,0.0,0.04318618592669563,0.0,-0.1040610487150259,-0.05240975651219024,-0.11885264592734289,0.1047979956452569,0.36415577339187666,0.00012733774411975688
4334,5.0,299.19753,1047.3366,0.0,0.0,0.0,0.0,0.04319615273627945,0.0,-0.11170506826443188,-0.0973157637658181,-0.1093433342688469,0.10226084779235992,0.38321100543498166,-0.02288680385900168
4335,5.0,299.07998,1092.2626,0.0,0.0,0.0,0.0,0.043206119545863265,0.0,-0.09155152174893172,-0.08898873866850472,-0.15148028199993985,0.07994282782399283,0.3707652443241806,-0.004607586123608345
4336,5.0,298.64943,1119.5885,0.0,0.0,0.0,0.0,0.04321608635544709,0.0,-0.12246293709365089,-0.08528223028595083,-0.13258176934980187,0.06891494000212503,0.4015885454137036,-0.005279367494858005
4337,5.0,299.34417,962.00259,0.0,0.0,0.0,0.0,0.043226053165030906,0.0,-0.08741400007859011,-0.07863328110325063,-0.12637748699998688,0.10234769345843091,0.39982980668512963,0.0015525764797523684
4338,5.0,300.95106,686.3532700000001,0.0,0.0,0.0,0.0,0.04323601997461472,0.0,-0.05165451433815365,-0.04488730468328205,-0.1120924337776619,0.1143282613158209,0.3915296772984706,-0.0090676167894791
4339,5.0,299.02385,624.505,0.0,0.0,0.0,0.0,0.043245986784198547,0.0,-0.056336000337930354,-0.04043002255963256,-0.09306790321258691,0.1088880303364119,0.3867845865501666,0.0023903603374101977
4340,5.0,298.81934,905.4929699999999,0.0,0.0,0.0,0.0,0.04325595359378236,0.0,-0.08697824579358451,-0.08396396454809811,-0.1043050393391059,0.09065228255018372,0.37492081603180366,-0.029780148965821873
4341,5.0,300.45022,853.65926,0.0,0.0,0.0,0.0,0.04326592040336618,0.0,-0.07146283337233253,-0.06820297779285983,-0.11982528496333489,0.08472693680714763,0.36747541376699966,-0.017213118030052484
4342,5.0,301.31131,765.62371,0.0,0.0,0.0,0.0,0.043275887212950004,0.0,-0.09499687606396172,-0.08449512646251972,-0.05323848566297945,0.06903352978057893,0.37750443153428664,-0.03045785622895637
4343,5.0,300.34159,1037.5635,0.0,0.0,0.0,0.0,0.04328585402253383,0.0,-0.092608445967992,-0.08880209192058411,-0.13398287132307987,0.09521314923155622,0.37665173091263165,-0.015162755790197484
4344,5.0,300.06697,1013.8528,0.0,0.0,0.0,0.0,0.04329582083211765,0.0,-0.1040399731129459,-0.08429337722185862,-0.11985258192102889,0.09195340004334401,0.39970572407788363,-0.015887836548507384
4345,5.0,300.67449,1007.4212,0.0,0.0,0.0,0.0,0.04330578764170147,0.0,-0.10022323021226272,-0.10411239009759289,-0.1018952874212819,0.0980753011070286,0.39254938180160764,-0.014567431839693586
4346,5.0,299.34162000000003,906.1496800000001,0.0,0.0,0.0,0.0,0.043315754451285285,0.0,-0.08252586476066871,-0.05674684589572765,-0.1361741665193439,0.11206154991461388,0.3895011303332686,-0.02005083740586358
4347,5.0,300.13358,659.8942,0.0,0.0,0.0,0.0,0.04332572126086911,0.0,-0.054622473842068454,-0.08721854920055061,-0.058750336199206735,0.1082706266529789,0.36735899133050964,-0.03377049808563867
4348,5.0,298.78267,504.7803,0.0,0.0,0.0,0.0,0.04333568807045293,0.0,-0.04758725041649595,-0.06319733383434123,-0.042656020558571456,0.13585354379020087,0.3669020054029086,-0.01865100604821098
4349,5.0,298.67667,796.22794,0.0,0.0,0.0,0.0,0.043345654880036756,0.0,-0.06782782700958534,-0.08099013022010351,-0.09321545269214891,0.09848036607300541,0.35719714660761365,-0.030079759927641173
4350,5.0,299.68979,885.1292199999999,0.0,0.0,0.0,0.0,0.04335562168962058,0.0,-0.08399478254988962,-0.08550713026489673,-0.0995552694018401,0.1052440080742749,0.38679645170883764,-0.013293015513168487
4351,5.0,300.63426,814.30975,0.0,0.0,0.0,0.0,0.04336558849920439,0.0,-0.06451445561283103,-0.06625524866888394,-0.11676012235082688,0.08253650287346861,0.37828888976170666,-0.01844929227130338
4352,5.0,299.42503999999997,916.2289900000001,0.0,0.0,0.0,0.0,0.04337555530878821,0.0,-0.06068799159068844,-0.09244107427672373,-0.1253816749342079,0.08301208194040463,0.3869561703221006,-0.02936039592639547
4353,5.0,300.45297,1078.026,0.0,0.0,0.0,0.0,0.04338552211837204,0.0,-0.13117908670636788,-0.09054297008964542,-0.10597092382851589,0.07555505567045342,0.3743490896628786,-0.019097636559789983
4354,5.0,300.57685,906.2363,0.0,0.0,0.0,0.0,0.04339548892795586,0.0,-0.12573566398914388,-0.05306804990340874,-0.0966694966400365,0.08720186907740442,0.3913334006215996,-0.005571706563359625
4355,5.0,299.80213,831.99501,0.0,0.0,0.0,0.0,0.04340545573753968,0.0,-0.07208001718049384,-0.09109534236841033,-0.08973034857569592,0.11374120447288288,0.38885610545210963,-0.02376354282602908
4356,5.0,299.99456000000004,959.9916599999999,0.0,0.0,0.0,0.0,0.043415422547123494,0.0,-0.10242589610114891,-0.07967277843384102,-0.10971482215300991,0.13270333909679988,0.37883154598526264,0.01069283438480059
4357,5.0,299.15471,768.7,0.0,0.0,0.0,0.0,0.04342538935670732,0.0,-0.06059860266686644,-0.06958632863763593,-0.10348066919024691,0.10782762357675789,0.3596560614202897,-0.016234301208200783
4358,5.0,299.84744,929.89679,0.0,0.0,0.0,0.0,0.04343535616629114,0.0,-0.08191948118532333,-0.08006809188085542,-0.12067783359747487,0.08086186998269522,0.34858552387521263,-0.006194965109845453
4359,5.0,299.73284,1029.3033,0.0,0.0,0.0,0.0,0.043445322975874966,0.0,-0.1173511511341569,-0.07816588605737233,-0.1173654683580699,0.09508571783272972,0.36041238169243267,-0.008717528038153033
4360,5.0,300.11997,919.6116199999999,0.0,0.0,0.0,0.0,0.04345528978545878,0.0,-0.1019639047180539,-0.09280872498275801,-0.08476633703728612,0.09695435569364991,0.37405942172429063,-0.0018207303829420984
4361,5.0,300.86547,958.72293,0.0,0.0,0.0,0.0,0.0434652565950426,0.0,-0.06362334369313515,-0.1117034673292739,-0.1161010234257789,0.1023336498120449,0.36315052796766667,-0.045691911388940555
4362,5.0,301.60425,1067.6183,0.0,0.0,0.0,0.0,0.04347522340462642,0.0,-0.1192439833809649,-0.07768340777050543,-0.12760190855332787,0.1003262747076824,0.3882460883619056,-0.0007442931657085164
4363,5.0,300.92002,916.66937,0.0,0.0,0.0,0.0,0.04348519021421025,0.0,-0.046236379303675364,-0.10124180595478831,-0.13116641094761688,0.09944712116566672,0.40980573014717664,-0.042658920480357666
4364,5.0,300.03279,845.38813,0.0,0.0,0.0,0.0,0.04349515702379407,0.0,-0.06751009812272793,-0.07414851355738852,-0.11531826745852689,0.08413462423594092,0.3964304944546436,0.008537621125922601
4365,5.0,299.74987999999996,923.33834,0.0,0.0,0.0,0.0,0.04350512383337789,0.0,-0.09532092459169282,-0.08501680739575561,-0.1003340686274516,0.08175905431024041,0.3788402295386196,-0.03206084828465937
4366,5.0,299.85064,982.8385300000001,0.0,0.0,0.0,0.0,0.04351509064296171,0.0,-0.11700211687220989,-0.08506598143635873,-0.0966902763730873,0.10004926023634321,0.37448589869138066,0.025387227475274273
4367,5.0,299.82851,833.8840299999999,0.0,0.0,0.0,0.0,0.04352505745254553,0.0,-0.08107879568335412,-0.06381862029215743,-0.1085825050337589,0.1058472769188129,0.40227675501412463,-0.04957634648905445
4368,5.0,299.75659,934.4792699999999,0.0,0.0,0.0,0.0,0.04353502426212935,0.0,-0.09387599853833972,-0.08263294401798663,-0.1075494154968009,0.0981820399123129,0.3891362995022626,0.001296928818571909
4369,5.0,300.58412999999996,1002.9967,0.0,0.0,0.0,0.0,0.043544991071713175,0.0,-0.06111357081818985,-0.1050233728649999,-0.13874899714345987,0.09524427323487791,0.36203040024711863,-0.03759321105591107
4370,5.0,300.27099999999996,810.83737,0.0,0.0,0.0,0.0,0.04355495788129699,0.0,-0.07845171479133142,-0.06917889266642513,-0.09884370641311431,0.10088010606659131,0.36453018956882866,0.0100831649407059
4371,5.0,300.31047,769.10987,0.0,0.0,0.0,0.0,0.043564924690880816,0.0,-0.08050361311833802,-0.07045247610136803,-0.08283410658683983,0.09753941744714101,0.38784148746447467,-0.023257082935795377
4372,5.0,298.69694,1006.7886,0.0,0.0,0.0,0.0,0.04357489150046463,0.0,-0.10430075329118291,-0.07581129547499234,-0.12592654004298187,0.07793120517521113,0.38227801487540264,-0.0007568501816802972
4373,5.0,298.16604,897.99277,0.0,0.0,0.0,0.0,0.043584858310048456,0.0,-0.07754363093246053,-0.0968880891371099,-0.0985356611574626,0.07377863572763443,0.35830204517915865,-0.04931765461927355
4374,5.0,298.56104,762.7039,0.0,0.0,0.0,0.0,0.04359482511963228,0.0,-0.07341371573061962,-0.06689516170328844,-0.09153406344970871,0.11598059865139389,0.37546474895048565,-0.012795419534809588
4375,5.0,298.64729,731.02996,0.0,0.0,0.0,0.0,0.0436047919292161,0.0,-0.042023497157146254,-0.07451045966535982,-0.10568090125239289,0.11198775490983089,0.41459905160024063,-0.024043147164623874
4376,5.0,298.70061,594.77981,0.0,0.0,0.0,0.0,0.04361475873879992,0.0,-0.06703929653001343,-0.041404289888535256,-0.07235462416959544,0.07897603321457762,0.38779761373514465,0.01137237765711629
4377,5.0,299.84099,665.1186299999999,0.0,0.0,0.0,0.0,0.04362472554838374,0.0,-0.06203596683472325,-0.06443619318835714,-0.07570729649797843,0.06580351948280173,0.36408856451274363,-0.028699064811377174
4378,5.0,299.04371000000003,956.95479,0.0,0.0,0.0,0.0,0.04363469235796756,0.0,-0.08005505439181872,-0.09960862411235581,-0.1112266824947189,0.1123450167625899,0.3770945718688366,0.0017989240248899782
4379,5.0,299.85092000000003,1012.2004,0.0,0.0,0.0,0.0,0.043644659167551385,0.0,-0.07844818564123313,-0.1043463292806809,-0.12488911379559589,0.15843396412371485,0.4062653836352716,-0.03314369448102797
4380,5.0,299.71475,774.34048,0.0,0.0,0.0,0.0,0.0436546259771352,0.0,-0.05138445076250045,-0.08402374326424783,-0.09997197661146591,0.12068604092328489,0.3872922248502666,-0.02769647207592897
4381,5.0,299.99771,802.5537,0.0,0.0,0.0,0.0,0.043664592786719025,0.0,-0.034493633403756566,-0.11192644314627989,-0.0975362034178238,0.08779233550692891,0.36317599094267966,-0.04526375040018436
4382,5.0,300.44462000000004,956.66701,0.0,0.0,0.0,0.0,0.04367455959630284,0.0,-0.12452160798432589,-0.05893603454503374,-0.10734524560165089,0.08959396308573572,0.36534124561137366,0.018684791859545382
4383,5.0,300.62908999999996,904.4933599999999,0.0,0.0,0.0,0.0,0.043684526405886666,0.0,-0.07402693874414003,-0.08982940897172241,-0.11108704649843791,0.08633515824661672,0.3886863151328526,-0.00900735992060721
4384,5.0,300.22646000000003,896.1075400000001,0.0,0.0,0.0,0.0,0.04369449321547049,0.0,-0.08900699338230632,-0.06725023493583145,-0.11613708499683789,0.0934079215751441,0.37279238287174365,0.008531580838101472
4385,5.0,300.28127,937.33869,0.0,0.0,0.0,0.0,0.043704460025054306,0.0,-0.07979766657491652,-0.059060202265288145,-0.14606968858595587,0.08588871315980601,0.3633385669212246,0.0024849789489733275
4386,5.0,300.32178,952.36182,0.0,0.0,0.0,0.0,0.04371442683463813,0.0,-0.0924377396706446,-0.0985322617033771,-0.0985242124445827,0.1059141818229159,0.40222637621915264,-0.01962554594139058
4387,5.0,299.80319,883.44461,0.0,0.0,0.0,0.0,0.04372439364422195,0.0,-0.06189973738527844,-0.09504186031540131,-0.1116035102069089,0.12731482440249486,0.42379123624243864,-0.031270354126393674
4388,5.0,299.04668,920.14731,0.0,0.0,0.0,0.0,0.043734360453805764,0.0,-0.13515420870368186,-0.07390536595739174,-0.07064223150059543,0.09859562631163071,0.40644145610514865,0.0011943122186694388
4389,5.0,298.85789,833.53901,0.0,0.0,0.0,0.0,0.043744327263389594,0.0,-0.06389152667660274,-0.08789272528708661,-0.1015907956337309,0.07516285999399673,0.3609935312872876,-0.026512451843825276
4390,5.0,299.0063,668.79972,0.0,0.0,0.0,0.0,0.04375429407297341,0.0,-0.05736885480086514,-0.06424118510061134,-0.08168837504951493,0.08223872589433033,0.37148673919038666,-0.014842309366571885
4391,5.0,299.07547,801.81836,0.0,0.0,0.0,0.0,0.043764260882557235,0.0,-0.04008165400300126,-0.07826080530024013,-0.12539029769255888,0.1025170683451469,0.3762727449777286,-0.028188336098472176
4392,5.0,300.25965,902.88989,0.0,0.0,0.0,0.0,0.04377422769214105,0.0,-0.07744682501790652,-0.08047489457075373,-0.11653425877103588,0.1157803905641349,0.36144606904694965,-0.026650443335193976
4393,5.0,299.51333999999997,683.79108,0.0,0.0,0.0,0.0,0.04378419450172487,0.0,-0.06375043869292844,-0.05349560902160555,-0.09060936735544832,0.08739098916881911,0.3565723259334487,-0.01907469151127548
4394,5.0,299.51022,702.40473,0.0,0.0,0.0,0.0,0.04379416131130869,0.0,-0.1196781914463179,-0.056414839301711144,-0.03742046609936246,0.08202209099645012,0.3864097752056756,-0.007921951822685772
4395,5.0,300.07343,926.71319,0.0,0.0,0.0,0.0,0.04380412812089251,0.0,-0.07677315555642053,-0.07538258733118212,-0.12954192785729288,0.088697726147034,0.40062758915136465,0.004109209942672446
4396,5.0,300.32701000000003,990.40445,0.0,0.0,0.0,0.0,0.043814094930476326,0.0,-0.10390422799704889,-0.1022524986115359,-0.09490149579229841,0.09350742476146431,0.4127806831032816,-0.027092239630545877
4397,5.0,300.69532000000004,1097.1159,0.0,0.0,0.0,0.0,0.04382406174006015,0.0,-0.08220656330965612,-0.1084521808058969,-0.14283709652692386,0.0978935625425924,0.3909844372871596,0.000947631668886464
4398,5.0,300.60483999999997,1094.5308,0.0,0.0,0.0,0.0,0.04383402854964397,0.0,-0.07554601545306124,-0.1168755214047159,-0.14028850908039786,0.1017732819767409,0.39849906479879565,-0.037006867541043466
4399,5.0,300.09587999999997,784.59934,0.0,0.0,0.0,0.0,0.0438439953592278,0.0,-0.06583432127259164,-0.09504383513984623,-0.07762045251529222,0.09494276040262091,0.40313306280613564,-0.011655085580767388
4400,5.0,299.45589,800.5659400000001,0.0,0.0,0.0,0.0,0.043853962168811614,0.0,-0.08765188384431741,-0.07573680234089043,-0.07996337045652022,0.08270315617041601,0.3782603363738886,-0.035626036649266064
4401,5.0,300.47007,968.42105,0.0,0.0,0.0,0.0,0.04386392897839543,0.0,-0.10849112000723989,-0.06646434701252034,-0.11942034969337088,0.1009321567242283,0.36167264190181064,0.011600471400377389
4402,5.0,299.81995,719.40296,0.0,0.0,0.0,0.0,0.043873895787979254,0.0,-0.08111133215731522,-0.055068741610111646,-0.08250046359391182,0.0998298885499429,0.4030324977337106,-0.01026246856382679
4403,5.0,299.45486,565.6127700000001,0.0,0.0,0.0,0.0,0.04388386259756308,0.0,-0.03879230439650236,-0.04930258657703645,-0.08383726674234401,0.1154219128112559,0.4067619572442796,-0.01315383851918279
4404,5.0,298.91558,879.07917,0.0,0.0,0.0,0.0,0.0438938294071469,0.0,-0.06251594340709324,-0.08944344073038032,-0.1152587288826509,0.08741790919747593,0.3946858399024596,-0.031319070177951575
4405,5.0,299.87827000000004,1181.2305,0.0,0.0,0.0,0.0,0.04390379621673072,0.0,-0.14025649037723786,-0.09243523896939781,-0.12637284631452889,0.09591569125464171,0.36481755742968963,0.0024719605090385076
4406,5.0,300.52304,1060.1471,0.0,0.0,0.0,0.0,0.043913763026314535,0.0,-0.12585591651101188,-0.0965975822274391,-0.0998047366427106,0.1089406382816039,0.37511316129828665,-0.017096787799321587
4407,5.0,300.59589,881.49905,0.0,0.0,0.0,0.0,0.04392372983589836,0.0,-0.07462137306105614,-0.09573491021155,-0.0975974168961151,0.12017537300538589,0.4082037918715776,-0.008195955016052784
4408,5.0,299.68651,770.9141900000001,0.0,0.0,0.0,0.0,0.04393369664548218,0.0,-0.07596871502377843,-0.08238739197550252,-0.07598255703339453,0.1003074910773286,0.3836542314262246,-0.018185690191537884
4409,5.0,299.42293,843.30064,0.0,0.0,0.0,0.0,0.04394366345506601,0.0,-0.04223637593690576,-0.08377053713050832,-0.13033542427560488,0.08403814762766941,0.3657102003702866,-0.01186367729935379
4410,5.0,299.01097999999996,858.7027,0.0,0.0,0.0,0.0,0.04395363026464982,0.0,-0.07439649334711222,-0.08201230705348451,-0.10461537757973391,0.08575479493383932,0.3864874306933397,-0.02686942897330618
4411,5.0,298.50368,758.84006,0.0,0.0,0.0,0.0,0.04396359707423364,0.0,-0.07344864043506644,-0.07411722034130012,-0.08310256821408492,0.11498821137095289,0.38204426820983367,-0.003428862453752377
4412,5.0,299.00336,636.4160400000001,0.0,0.0,0.0,0.0,0.043973563883817464,0.0,-0.06360933145750224,-0.06196702327141904,-0.06787823113580985,0.07459999044419582,0.38577113380014666,-0.017089575485109785
4413,5.0,299.3717,896.03852,0.0,0.0,0.0,0.0,0.04398353069340129,0.0,-0.08393552464429133,-0.05657790670655465,-0.13185989958105887,0.07092717870696753,0.38199945215791065,0.018228510140763883
4414,5.0,299.1517,1306.3726,0.0,0.0,0.0,0.0,0.04399349750298511,0.0,-0.13451966082855688,-0.11383634865727289,-0.14874864079034786,0.10726615129884488,0.41129184380384465,-0.00918216856363448
4415,5.0,300.6401,1174.6137,0.0,0.0,0.0,0.0,0.04400346431256893,0.0,-0.095043843245847,-0.1091369250909759,-0.15287245723983686,0.12059291310659388,0.4052299838880856,-0.006771522047297193
4416,5.0,300.41398,844.66699,0.0,0.0,0.0,0.0,0.044013431122152745,0.0,-0.07365065312075353,-0.0943315740218015,-0.08877544648270441,0.1001224077743123,0.37390562049161163,-0.03938064705381726
4417,5.0,300.03283999999996,918.9236900000001,0.0,0.0,0.0,0.0,0.04402339793173657,0.0,-0.1092901487710979,-0.06889316931047643,-0.101146537140636,0.08311519331033092,0.35918350183865166,0.025204665138506773
4418,5.0,300.11978,1100.9891,0.0,0.0,0.0,0.0,0.04403336474132039,0.0,-0.11325244302214589,-0.0955475815463121,-0.12587319242521688,0.08756854402359242,0.37803344941149664,-0.008122858545888722
4419,5.0,300.6471,770.9119099999999,0.0,0.0,0.0,0.0,0.044043331550904216,0.0,-0.06565381482027703,-0.07435163879168542,-0.09433251837089472,0.11716164296795388,0.38079666349420466,0.013463528279746789
4420,5.0,299.12973,467.18424000000005,0.0,0.0,0.0,0.0,0.04405329836048803,0.0,-0.027214351466347375,-0.06259246405464523,-0.05220552683528436,0.11843626093124889,0.3936148142817576,-0.022035426541977276
4421,5.0,300.50387,789.75825,0.0,0.0,0.0,0.0,0.04406326517007185,0.0,-0.04800796705676746,-0.06601329163775464,-0.12604552600222488,0.10866405140180689,0.3788227205768916,0.004586611339913295
4422,5.0,299.05622,1067.8134,0.0,0.0,0.0,0.0,0.04407323197965567,0.0,-0.12487223304892989,-0.08312654677770141,-0.11658981527401889,0.08061591973292183,0.38333198749692166,-0.011465920906348289
4423,5.0,298.81082000000004,1251.8594,0.0,0.0,0.0,0.0,0.0440831987892395,0.0,-0.1274735297656579,-0.12093298010515588,-0.1321274989324689,0.07681037628559392,0.38675215241446564,-0.0002514519141063718
4424,5.0,299.1022,992.7991599999999,0.0,0.0,0.0,0.0,0.04409316559882332,0.0,-0.07651651957109253,-0.11430482484100789,-0.1109648080063739,0.11876137235833488,0.37383594941473564,-0.014826106484222787
4425,5.0,299.40482000000003,690.67178,0.0,0.0,0.0,0.0,0.04410313240840714,0.0,-0.04829504411484975,-0.07506383506172372,-0.08658809485582962,0.08466729386651131,0.3845755594771526,-0.006054875278844665
4426,5.0,299.58035,733.7305,0.0,0.0,0.0,0.0,0.044113099217990955,0.0,-0.06661001691314684,-0.08041752029709133,-0.07600821353917664,0.1021518524791029,0.3928714230808906,-0.028896030498316173
4427,5.0,300.74413,1103.5706,0.0,0.0,0.0,0.0,0.04412306602757478,0.0,-0.07789557220894443,-0.12368895958214987,-0.13387337951727388,0.09124022396045901,0.40209347833603665,-0.04276841937891436
4428,5.0,299.80848,778.83916,0.0,0.0,0.0,0.0,0.0441330328371586,0.0,-0.08861533371515251,-0.07722181560794983,-0.07091050871632235,0.1143869183641099,0.4221640984368526,-0.038886941955842365
4429,5.0,300.41192,565.96004,0.0,0.0,0.0,0.0,0.044142999646742426,0.0,-0.059675966510059346,-0.05744135284552015,-0.05492039875572135,0.1056659051509129,0.3991198324725606,-0.0023344459544918776
4430,5.0,300.79492999999997,861.9199699999999,0.0,0.0,0.0,0.0,0.04415296645632624,0.0,-0.07724308068779852,-0.07425959920560184,-0.11049947289794891,0.08715506604203532,0.40201401926319463,-0.0008230326080644942
4431,5.0,299.66256,1197.479,0.0,0.0,0.0,0.0,0.04416293326591006,0.0,-0.1256624668019199,-0.09201224859590192,-0.14632898941904687,0.07638297118141234,0.39786224724344665,0.03245826523888137
4432,5.0,300.03657000000004,1177.6596,0.0,0.0,0.0,0.0,0.04417290007549388,0.0,-0.0898704881572766,-0.1271678423429889,-0.14094077869977187,0.10088804184137451,0.38962410849790563,-0.01963285248786168
4433,5.0,300.07572000000005,1048.0653,0.0,0.0,0.0,0.0,0.04418286688507771,0.0,-0.07599347682972223,-0.11521491594832688,-0.12737729127115988,0.1102818571739719,0.3826140592710676,-0.005760272508294635
4434,5.0,300.23129,977.5531199999999,0.0,0.0,0.0,0.0,0.04419283369466153,0.0,-0.13089623794095287,-0.08510133373234773,-0.08115416527879252,0.1002685498494854,0.36845721258389563,-0.02124554540002208
4435,5.0,300.68259,896.37324,0.0,0.0,0.0,0.0,0.04420280050424535,0.0,-0.11769831088341888,-0.06466027142147193,-0.0901164951490556,0.1090902345263679,0.36887621176524765,-0.0087836787802066
4436,5.0,300.54915,981.1886800000001,0.0,0.0,0.0,0.0,0.04421276731382917,0.0,-0.09498643148193091,-0.09309497624200881,-0.1101754456484699,0.1051232286623549,0.38527965683914167,-0.015716310531829085
4437,5.0,299.31338,867.32692,0.0,0.0,0.0,0.0,0.04422273412341299,0.0,-0.07825994809065552,-0.06564647787630294,-0.11973930055984888,0.11758344885208288,0.4117282708869166,0.005970200399787904
4438,5.0,299.69794,850.48462,0.0,0.0,0.0,0.0,0.04423270093299681,0.0,-0.07962359020773653,-0.08219992652150113,-0.09670257216305081,0.09070827880371012,0.41236746958000065,-0.027217576641415678
4439,5.0,299.90134,988.33525,0.0,0.0,0.0,0.0,0.044242667742580635,0.0,-0.07479022409747042,-0.09353331735451971,-0.13210569379031686,0.09321042291865252,0.42060893178586967,-0.03890569518869317
4440,5.0,299.62383,972.36279,0.0,0.0,0.0,0.0,0.04425263455216445,0.0,-0.13554129050688388,-0.08348840878591442,-0.07654430390208464,0.08123143877116883,0.4057756697294406,-0.014242965852921285
4441,5.0,299.89806,911.07561,0.0,0.0,0.0,0.0,0.044262601361748276,0.0,-0.05407178963797015,-0.10003726335515922,-0.12283518491538889,0.08625410330486723,0.3945708968111156,-0.00974275505831006
4442,5.0,299.63297,712.42115,0.0,0.0,0.0,0.0,0.04427256817133209,0.0,-0.07262320536035234,-0.06967896908102884,-0.07425606498925302,0.1135536721443749,0.37409597978789866,0.012000069882064687
4443,5.0,300.36147,769.7509,0.0,0.0,0.0,0.0,0.04428253498091591,0.0,-0.04306264390320206,-0.08633226136458082,-0.1045901476522439,0.11767555328617288,0.3874534836036816,-0.004235354615196956
4444,5.0,301.48882000000003,976.5772599999999,0.0,0.0,0.0,0.0,0.04429250179049973,0.0,-0.07439905079036463,-0.08947585966732982,-0.13298018942162287,0.1075938769111889,0.37361065325500065,-0.012181198469940688
4445,5.0,300.65418999999997,812.90512,0.0,0.0,0.0,0.0,0.04430246860008356,0.0,-0.05570914505756455,-0.07889462768829351,-0.1124990915727959,0.11128372847534891,0.37902702219455464,-0.05375514999497025
4446,5.0,299.73976,982.4549199999999,0.0,0.0,0.0,0.0,0.04431243540966738,0.0,-0.13891730811757086,-0.07396965363648643,-0.08575480101333992,0.09630886573069501,0.38712776422653566,-0.017785265911019085
4447,5.0,300.13262000000003,1202.9258,0.0,0.0,0.0,0.0,0.0443224022192512,0.0,-0.14274960238078885,-0.07480253103318503,-0.14810727374204985,0.09996332548211209,0.38489056880074163,-0.03345505914400727
4448,5.0,299.8392,1013.6052,0.0,0.0,0.0,0.0,0.044332369028835014,0.0,-0.1339638526187029,-0.07112719731645784,-0.1030196099972439,0.06888840906150663,0.39527345403295266,-0.007077445050614443
4449,5.0,299.73534,807.01163,0.0,0.0,0.0,0.0,0.04434233583841884,0.0,-0.04765956708938305,-0.06222778723765444,-0.13542402707281087,0.09480472027524742,0.4140994483734336,0.007553572285854543
4450,5.0,299.88616,848.2615400000001,0.0,0.0,0.0,0.0,0.044352302648002655,0.0,-0.04799093837558686,-0.08328245658383852,-0.1265769351496709,0.0991951856475526,0.4035785078150976,0.010595587706453089
4451,5.0,298.63595,1008.5817,0.0,0.0,0.0,0.0,0.04436226945758647,0.0,-0.09060774311553801,-0.11409374458017588,-0.1018821658324869,0.1075273874396269,0.41649097192195855,-0.006083259757870995
4452,5.0,299.25875,1108.6581,0.0,0.0,0.0,0.0,0.044372236267170295,0.0,-0.14871366339689585,-0.0938642134264266,-0.09442650846342081,0.1094670723710589,0.38004366668238965,-0.015468953890916884
4453,5.0,299.36084,944.47009,0.0,0.0,0.0,0.0,0.04438220307675412,0.0,-0.07875744375725452,-0.10057877865910259,-0.10775909747249489,0.07833374613518883,0.38200019183048367,-0.008496880669876831
4454,5.0,299.38818,708.61084,0.0,0.0,0.0,0.0,0.04439216988633794,0.0,-0.06960937399791034,-0.05872622793957745,-0.08706439940983723,0.08879265653565291,0.35884248238499566,0.0008057616486524832
4455,5.0,300.18448,918.8201,0.0,0.0,0.0,0.0,0.04440213669592176,0.0,-0.056565026271283445,-0.07983889673473563,-0.14289444648258387,0.0938565461629199,0.3651413516316457,-0.01851247854753938
4456,5.0,300.72736000000003,1104.7586,0.0,0.0,0.0,0.0,0.044412103505505576,0.0,-0.09850910184584141,-0.08131517983893342,-0.15599475702548385,0.11868158904546089,0.3882460883619056,-0.01910731208499488
4457,5.0,300.54721,881.3795,0.0,0.0,0.0,0.0,0.0444220703150894,0.0,-0.08282990666517533,-0.07377158755993883,-0.1113158687685209,0.1015823451278969,0.4035190502992296,-0.036138993499140966
4458,5.0,301.29874,625.57957,0.0,0.0,0.0,0.0,0.044432037124673224,0.0,-0.07412275370009623,-0.06317196306508735,-0.052865850779703245,0.11799774655297089,0.4065764412834706,-0.032642189383783264
4459,5.0,300.45058,870.16664,0.0,0.0,0.0,0.0,0.04444200393425705,0.0,-0.07802084538505792,-0.1104970816277129,-0.07599100145972792,0.11153236991738791,0.3935316264485476,-0.04994092907378595
4460,5.0,299.89144,1016.4262,0.0,0.0,0.0,0.0,0.044451970743840864,0.0,-0.11932473941393487,-0.09412337848400422,-0.09552006471334641,0.13514208009998485,0.38473067793496163,-0.0037848079933064664
4461,5.0,298.94862,962.3186599999999,0.0,0.0,0.0,0.0,0.04446193755342468,0.0,-0.05319330180127015,-0.11310206657480489,-0.12622547921998487,0.0982722495687159,0.4062763470013536,-0.028972410304104274
4462,5.0,299.57679,903.37764,0.0,0.0,0.0,0.0,0.044471904363008505,0.0,-0.06435667737350953,-0.07797935887296352,-0.13226820897385588,0.07848033809340633,0.4055842667855506,0.034142403428842866
4463,5.0,299.75843,877.08158,0.0,0.0,0.0,0.0,0.04448187117259233,0.0,-0.07066639852873052,-0.08534948678783852,-0.1105950122498779,0.07247529009750424,0.4010742297954446,-0.01228522277820709
4464,5.0,300.32172,952.11454,0.0,0.0,0.0,0.0,0.04449183798217615,0.0,-0.1184589881309919,-0.06778547112890514,-0.1031745866000389,0.06777411360853423,0.3910908690776636,0.0008327086702919473
4465,5.0,299.62532000000004,1041.6819,0.0,0.0,0.0,0.0,0.04450180479175997,0.0,-0.1095889460930869,-0.06764968244325384,-0.13940665725336587,0.09789471055495572,0.39106135310225065,-0.013196516613394788
4466,5.0,300.27887000000004,1058.5068,0.0,0.0,0.0,0.0,0.044511771601343786,0.0,-0.13482081902327886,-0.05913255946817925,-0.12780625070099488,0.1033956473743559,0.3884484445393766,0.005119715654776594
4467,5.0,300.69446,826.69805,0.0,0.0,0.0,0.0,0.04452173841092761,0.0,-0.05185154588634915,-0.06860103106814464,-0.13084298151569687,0.08477547655318812,0.35716200709414564,-0.03898376408239796
4468,5.0,301.87978,882.47856,0.0,0.0,0.0,0.0,0.04453170522051143,0.0,-0.06744176453598394,-0.08506220403998592,-0.11574748020088689,0.12332563849379288,0.3929138579950786,-0.0005510799086598524
4469,5.0,300.1769,936.9423,0.0,0.0,0.0,0.0,0.04454167203009526,0.0,-0.08983055698408572,-0.08794994453348373,-0.1070265683126999,0.1206046262777499,0.3948800090191226,-0.025616238209875877
4470,5.0,300.18551,925.56477,0.0,0.0,0.0,0.0,0.044551638839679074,0.0,-0.08750288845686273,-0.08715127749991142,-0.1066944147974189,0.14095308968848685,0.38775605021604265,-0.002249754762108508
4471,5.0,300.0492,675.13079,0.0,0.0,0.0,0.0,0.04456160564926289,0.0,-0.05440559576416425,-0.08039166924729002,-0.07042563713271922,0.07919765228969972,0.38395797340870164,-0.047087844773458454
4472,5.0,299.64673,764.6850599999999,0.0,0.0,0.0,0.0,0.044571572458846714,0.0,-0.08293818257086133,-0.07415054005758853,-0.07535644142560173,0.09041229325074861,0.38994447791452364,-0.004479272893219816
4473,5.0,299.1758,803.7305,0.0,0.0,0.0,0.0,0.04458153926843054,0.0,-0.06524844790577043,-0.07484910102103114,-0.1042164508828629,0.0884909025498721,0.40201702861599165,-0.018695548522606985
4474,5.0,300.07567,940.40946,0.0,0.0,0.0,0.0,0.04459150607801436,0.0,-0.08287643713626752,-0.08631458724308652,-0.11666997348942988,0.07888471708906543,0.40642952001897065,0.010091536615682122
4475,5.0,299.08165,1092.5291,0.0,0.0,0.0,0.0,0.04460147288759818,0.0,-0.0980946065611839,-0.1023592445095709,-0.1316477047451169,0.098039679286513,0.38057600801992764,-0.04041279224168206
4476,5.0,300.47535,1122.4082,0.0,0.0,0.0,0.0,0.044611439697181995,0.0,-0.098018786069451,-0.10649118722486191,-0.13667408385368185,0.08674469468528483,0.37300957303067866,-0.024137100780146376
4477,5.0,300.18318999999997,903.4467400000001,0.0,0.0,0.0,0.0,0.04462140650676582,0.0,-0.09164420170907851,-0.08131346440651413,-0.1016675797263089,0.13742492244278387,0.3925953630911456,-0.043400527347798555
4478,5.0,300.1361,911.68389,0.0,0.0,0.0,0.0,0.04463137331634964,0.0,-0.10678770473412591,-0.05769407464571185,-0.1126473503274279,0.13388914568882984,0.38489289927597164,0.006238287529796044
4479,5.0,299.94558,919.8588199999999,0.0,0.0,0.0,0.0,0.04464134012593347,0.0,-0.08605725616818992,-0.1008743771505259,-0.0926824800997986,0.1328549415767619,0.3836300046163337,-0.024870212558748876
4480,5.0,300.37743,678.58255,0.0,0.0,0.0,0.0,0.04465130693551728,0.0,-0.08620567400308761,-0.06325141099217824,-0.05681506701171054,0.10242658511121691,0.39069839678392965,-0.006271405204014504
4481,5.0,299.37281,658.8607599999999,0.0,0.0,0.0,0.0,0.0446612737451011,0.0,-0.055547665415627744,-0.06644338996070202,-0.07828616492374292,0.10678670161652691,0.4040426979509096,-0.008622751258249291
4482,5.0,299.70724,1046.6669,0.0,0.0,0.0,0.0,0.044671240554684924,0.0,-0.0948939004695488,-0.1162935713422819,-0.1069731193699249,0.0921177542758145,0.4176698985458096,-0.008794896674713722
4483,5.0,299.19727,1141.3254,0.0,0.0,0.0,0.0,0.04468120736426875,0.0,-0.10166770131632091,-0.09772278734423821,-0.14754394721645386,0.1019811198372529,0.37291368917371565,-0.009782534750611012
4484,5.0,299.79397,1183.5694,0.0,0.0,0.0,0.0,0.04469117417385257,0.0,-0.10831787450514191,-0.11385508365162189,-0.13760258571531786,0.09218380804983352,0.3782774501680776,-0.024021757455012876
4485,5.0,299.6253,1153.325,0.0,0.0,0.0,0.0,0.04470114098343639,0.0,-0.10636175465708791,-0.07868300229890772,-0.16553724249225385,0.0959097292910533,0.37146111409535765,0.01828300779739238
4486,5.0,299.99057,863.4715800000001,0.0,0.0,0.0,0.0,0.044711107793020205,0.0,-0.12287031429635589,-0.05252561456837454,-0.08707786955666662,0.0910975390946271,0.3892086556919036,-0.004033643371414606
4487,5.0,300.29932,911.16699,0.0,0.0,0.0,0.0,0.04472107460260403,0.0,-0.06475594249591395,-0.09785668327870271,-0.1143593883588929,0.09564860460778231,0.37853906121139663,-0.019264096325968285
4488,5.0,300.22014,909.9407,0.0,0.0,0.0,0.0,0.04473104141218785,0.0,-0.06692459053919285,-0.08807010687609282,-0.12160455213893487,0.10875649020842991,0.3994016173253706,-0.05701265584746105
4489,5.0,299.6661,625.80913,0.0,0.0,0.0,0.0,0.044741008221771676,0.0,-0.039587833394514965,-0.07649996711745893,-0.07414254956729993,0.12153780935484788,0.4180883201746046,-0.014359014400124385
4490,5.0,300.5722,503.47219,0.0,0.0,0.0,0.0,0.04475097503135549,0.0,-0.03138171031238367,-0.04961695856631255,-0.07204430315421913,0.0957157658641606,0.42011737376485664,-0.04388889160449636
4491,5.0,300.62537000000003,837.86722,0.0,0.0,0.0,0.0,0.04476094184093931,0.0,-0.08502896335720532,-0.07568168761495102,-0.09398006236336,0.11451878273212387,0.39750191524288464,0.0034260390323487266
4492,5.0,300.94164,1106.4928,0.0,0.0,0.0,0.0,0.044770908650523134,0.0,-0.13723927475946188,-0.11750405057424688,-0.08160285572782482,0.09469703408111961,0.3875253838307776,-0.020148602868262283
4493,5.0,300.08002999999997,1124.7984,0.0,0.0,0.0,0.0,0.04478087546010696,0.0,-0.084770237036921,-0.0983920724725415,-0.15874832496723984,0.11522283956410889,0.3936486568350976,0.0071146332544596335
4494,5.0,299.4726,1082.9051,0.0,0.0,0.0,0.0,0.04479084226969078,0.0,-0.0976600094077925,-0.1022169335330259,-0.12929916326583388,0.08962128638793232,0.37862481256735964,-0.018238284964478584
4495,5.0,299.69051,1058.9759,0.0,0.0,0.0,0.0,0.0448008090792746,0.0,-0.08448940970545551,-0.08496584192897572,-0.15244697325784484,0.0946652808494858,0.37876938309162766,-0.0004213955685010046
4496,5.0,300.13881000000003,847.7036300000001,0.0,0.0,0.0,0.0,0.044810775888858415,0.0,-0.08136007188461393,-0.06140768388496654,-0.11491297755102788,0.11938751025762988,0.39280145816148565,-0.02106263146546988
4497,5.0,298.9988,593.11542,0.0,0.0,0.0,0.0,0.04482074269844224,0.0,-0.06844706062269894,-0.04492268636352396,-0.06692252958848943,0.1006861507456994,0.38229755033733065,-0.0063868172275047845
4498,5.0,299.43275,724.2102,0.0,0.0,0.0,0.0,0.044830709508026055,0.0,-0.1132754437994159,-0.04069784887906496,-0.06616852560607504,0.0937938178757291,0.4100307527293846,-0.003185017737686777
4499,5.0,300.50749,819.0011599999999,0.0,0.0,0.0,0.0,0.04484067631760988,0.0,-0.06126400907378694,-0.07516644689935072,-0.1125254462078969,0.06975635403091614,0.3907198979510516,-0.03583338004372926
4500,5.0,301.12461,1002.7112,0.0,0.0,0.0,0.0,0.044850643127193696,0.0,-0.08272507682307942,-0.11940620472197488,-0.10266788049003091,0.10540311873747792,0.43127151457568463,-0.029254615655705772
4501,5.0,300.64827,1093.3697,0.0,0.0,0.0,0.0,0.04486060993677751,0.0,-0.07956263612147084,-0.08888273142979261,-0.16391171575432686,0.1136428482856759,0.41893364433553165,-0.007903199501760062
4502,5.0,299.62122,1033.8003,0.0,0.0,0.0,0.0,0.04487057674636134,0.0,-0.08410819462033252,-0.1058189869760209,-0.12432230168965588,0.1098576904171099,0.4129954110644736,0.00932324307108245
4503,5.0,300.50022,1023.367,0.0,0.0,0.0,0.0,0.04488054355594516,0.0,-0.10987184552100689,-0.09287709302000541,-0.1083290709187469,0.08203884508685363,0.37995033621567864,0.007051223759226603
4504,5.0,301.0552,1118.7621,0.0,0.0,0.0,0.0,0.044890510365528984,0.0,-0.12355240386617287,-0.09523184572240141,-0.12129150852053987,0.08860104486224232,0.36165071516964664,0.004649272853922506
4505,5.0,300.11606,885.97429,0.0,0.0,0.0,0.0,0.0449004771751128,0.0,-0.06135464733498224,-0.1031895219065129,-0.1047698880874829,0.09343345142466372,0.37168921695786966,-0.03802422940994926
4506,5.0,299.72959,672.54316,0.0,0.0,0.0,0.0,0.04491044398469662,0.0,-0.05604485812044684,-0.06174469998747744,-0.08664677014262043,0.07763926147689852,0.38080844759286764,-0.03028181922283287
4507,5.0,299.83473,849.7279,0.0,0.0,0.0,0.0,0.04492041079428044,0.0,-0.05756808408852754,-0.07849880558972892,-0.12222917016307988,0.0989634198859291,0.4049704398749706,-0.04618003246561436
4508,5.0,298.31387,901.1076800000001,0.0,0.0,0.0,0.0,0.044930377603864265,0.0,-0.07393397304746503,-0.1046116589518669,-0.0953685990221479,0.08982107397639982,0.40480348665599364,-0.029266996558677674
4509,5.0,299.11309,721.53024,0.0,0.0,0.0,0.0,0.04494034441344809,0.0,-0.1042010494813429,-0.04675635189724266,-0.06836977193157114,0.12450560876524687,0.4073559649829036,-0.012056266759110888
4510,5.0,298.86003,775.5925900000001,0.0,0.0,0.0,0.0,0.044950311223031905,0.0,-0.0915848262664686,-0.0905476817026104,-0.053628273857198545,0.1318827281058119,0.39003345140580464,-0.022395654177778977
4511,5.0,299.10215,1004.2968,0.0,0.0,0.0,0.0,0.04496027803261572,0.0,-0.11436870012731189,-0.096772316193934,-0.0941401214286566,0.11729907007901688,0.38874513430115765,-0.012869642131134788
4512,5.0,300.44864,1086.9805,0.0,0.0,0.0,0.0,0.044970244842199546,0.0,-0.10716729861908889,-0.07755972539704892,-0.14568789594827586,0.09668810700462321,0.38211523624683763,0.004247397193960466
4513,5.0,300.00961,1024.7362,0.0,0.0,0.0,0.0,0.04498021165178337,0.0,-0.047688069814696046,-0.09495405408823551,-0.16885209019440384,0.09001589765262741,0.41355682254738063,0.00920434962157358
4514,5.0,299.84682000000004,884.35524,0.0,0.0,0.0,0.0,0.04499017846136719,0.0,-0.08359993519792122,-0.04845529671091545,-0.13676667464781989,0.08978197670804122,0.4230747772292296,0.03109470823480877
4515,5.0,300.251,881.34656,0.0,0.0,0.0,0.0,0.04500014527095101,0.0,-0.1030786419480699,-0.07073018870202613,-0.0940985173795506,0.0978357272401345,0.4063783610214216,-0.016274617416429684
4516,5.0,299.70876,977.9577199999999,0.0,0.0,0.0,0.0,0.04501011208053483,0.0,-0.1206808024202679,-0.0898106253413686,-0.0867832974875946,0.08188986591140053,0.3765784425328987,-0.02717884718284337
4517,5.0,300.4134,1011.7021,0.0,0.0,0.0,0.0,0.04502007889011865,0.0,-0.1197643784998239,-0.09284807252389131,-0.09491973733384872,0.12076887411895988,0.3703524462334406,-0.028915864869023675
4518,5.0,300.67786,781.82669,0.0,0.0,0.0,0.0,0.045030045699702474,0.0,-0.05795330556454595,-0.09758839491722472,-0.08211409207902992,0.1135022497017999,0.35732161424989767,-0.040107810041082666
4519,5.0,299.77226,683.6331299999999,0.0,0.0,0.0,0.0,0.0450400125092863,0.0,-0.005198426239769725,-0.10224783766107591,-0.1003611325376226,0.1307793696744189,0.3972743696679276,-0.046759579098811156
4520,5.0,300.0431,989.9871099999999,0.0,0.0,0.0,0.0,0.045049979318870115,0.0,-0.11408535486934789,-0.08359784283646472,-0.1032481586897999,0.1057273992994819,0.3843050318329536,-0.008059993773909452
4521,5.0,299.36191,1065.1787,0.0,0.0,0.0,0.0,0.04505994612845393,0.0,-0.11112879240255788,-0.1007114759186988,-0.11194745795335388,0.1131029481023919,0.4099844674648166,0.007831189438353222
4522,5.0,299.33366,979.7247199999999,0.0,0.0,0.0,0.0,0.045069912938037755,0.0,-0.0934243331870138,-0.08995748277111232,-0.11443003215586488,0.09558162067017151,0.39329638017283064,-0.011670460637784789
4523,5.0,299.56244,1013.9424,0.0,0.0,0.0,0.0,0.04507987974762158,0.0,-0.08182092133484622,-0.1081816126316939,-0.1182106506639829,0.09943534112000409,0.4201818468687196,-0.012590506927336289
4524,5.0,299.81852000000003,984.82156,0.0,0.0,0.0,0.0,0.0450898465572054,0.0,-0.06232563173356094,-0.0935772336403539,-0.14345829989823186,0.10303599425136091,0.4066695792326626,-0.022339828150269376
4525,5.0,300.63968,964.02186,0.0,0.0,0.0,0.0,0.04509981336678922,0.0,-0.03643605512370866,-0.09363375374418201,-0.16296876494626486,0.07938548757998763,0.3964409917256796,0.0027396660490589873
4526,5.0,300.90594,965.2778199999999,0.0,0.0,0.0,0.0,0.045109780176373036,0.0,-0.09282606067871892,-0.08841675797380462,-0.1121775366535609,0.07897729673745232,0.3789990970217986,-0.007733934451354903
4527,5.0,300.42981000000003,906.80887,0.0,0.0,0.0,0.0,0.04511974698595686,0.0,-0.09166350209698332,-0.08224065005627022,-0.1017430972562619,0.06712051967127954,0.4009494987081346,-0.01976191319284898
4528,5.0,299.86155,784.5099700000001,0.0,0.0,0.0,0.0,0.045129713795540684,0.0,-0.09055904530248192,-0.08346428532753362,-0.06444811103603335,0.11137593423444889,0.3938563629730966,-0.039880989953197256
4529,5.0,300.6499,973.4831199999999,0.0,0.0,0.0,0.0,0.04513968060512451,0.0,-0.10544189581880489,-0.09441176060821532,-0.096060903166223,0.1039671609607599,0.38849995817446065,-0.02079677389098178
4530,5.0,300.34528,1257.5364,0.0,0.0,0.0,0.0,0.045149647414708324,0.0,-0.0938472313547506,-0.12908510404970788,-0.15932732647188286,0.13509129600497288,0.37257952942323663,-0.006820043960135933
4531,5.0,299.80619,1099.4519,0.0,0.0,0.0,0.0,0.04515961422429214,0.0,-0.060516484825762044,-0.13880153416114485,-0.13488789617989888,0.1173716795811829,0.3885069901301546,-0.02453489466340558
4532,5.0,299.76597000000004,820.66465,0.0,0.0,0.0,0.0,0.045169581033875965,0.0,-0.1072479938570529,-0.05549030735396695,-0.08672325836616923,0.14274001703484288,0.37086245553877467,0.03220605209023987
4533,5.0,299.49813,944.4494300000001,0.0,0.0,0.0,0.0,0.04517954784345979,0.0,-0.092489378948741,-0.08225370274405842,-0.11234595908518288,0.1113784166971939,0.4133842660553506,0.0017801071599328985
4534,5.0,299.67686000000003,977.22592,0.0,0.0,0.0,0.0,0.04518951465304361,0.0,-0.1071868847435219,-0.08278661656790293,-0.1070787810903529,0.09877361483744682,0.3937971385047516,0.000973132488790699
4535,5.0,298.73394,779.28663,0.0,0.0,0.0,0.0,0.04519948146262743,0.0,-0.047433691350590855,-0.0931765286895574,-0.09627345567945031,0.06057709339374365,0.42871958340382854,-0.058531026321062544
4536,5.0,297.54111,807.3884099999999,0.0,0.0,0.0,0.0,0.045209448272211246,0.0,-0.05201316535679975,-0.09825491792575541,-0.095157833882097,0.06048965294986394,0.3910945573080276,-0.025171607853994273
4537,5.0,298.20301,751.28585,0.0,0.0,0.0,0.0,0.04521941508179507,0.0,-0.059393995219230944,-0.06823201146122523,-0.1007461321118691,0.059804746544768944,0.39171103893386966,-0.026139028651971274
4538,5.0,299.46157999999997,736.88057,0.0,0.0,0.0,0.0,0.04522938189137889,0.0,-0.07062885659927544,-0.09350494736496981,-0.05985948839467154,0.1095227808615569,0.38530727803686765,-0.0005399620422026045
4539,5.0,299.4585,868.50559,0.0,0.0,0.0,0.0,0.04523934870096272,0.0,-0.05873369964581485,-0.12665472235984787,-0.07861558975650464,0.11969192098517288,0.4216750938060916,-0.02343450910780598
4540,5.0,299.45588,967.3856099999999,0.0,0.0,0.0,0.0,0.045249315510546534,0.0,-0.0938944376636595,-0.09136930898344872,-0.10879732418745991,0.14404274255591187,0.4027213894230066,-0.0043776623493416355
4541,5.0,299.62775,854.78167,0.0,0.0,0.0,0.0,0.04525928232013035,0.0,-0.07789973362710513,-0.09199539723348882,-0.08993715190785581,0.11217916798622189,0.4090810334106546,-0.03130210026527677
4542,5.0,300.02884,1006.2573,0.0,0.0,0.0,0.0,0.045269249129714174,0.0,-0.06216380961309034,-0.0983282083319886,-0.14538507602338985,0.11548408583739189,0.3922357099681506,-0.006883358716484614
4543,5.0,300.7783,1110.7451,0.0,0.0,0.0,0.0,0.045279215939298,0.0,-0.11080237388284289,-0.10744767505425991,-0.1193887261577499,0.09876672980301732,0.3943962732888816,-0.014392283453907787
4544,5.0,300.10087999999996,963.91088,0.0,0.0,0.0,0.0,0.04528918274888182,0.0,-0.07909782486334752,-0.09348234276848891,-0.12042467305998988,0.08246226001214142,0.3711043386026467,0.019768951228043584
4545,5.0,299.29767000000004,889.8919699999999,0.0,0.0,0.0,0.0,0.04529914955846564,0.0,-0.1078686298083049,-0.051341762535787455,-0.11129454998641689,0.07490615916066233,0.4016348205457706,0.0014077108970552486
4546,5.0,299.48323,968.43199,0.0,0.0,0.0,0.0,0.045309116368049455,0.0,-0.0914236080430576,-0.08831290794455542,-0.1146426221593459,0.09704237166358641,0.3875358507043106,0.0024855748413571375
4547,5.0,300.67636,948.64903,0.0,0.0,0.0,0.0,0.04531908317763328,0.0,-0.07230412986411203,-0.10806031646222289,-0.1080011730538859,0.1193152047304939,0.43413627658341464,-0.048792213514916555
4548,5.0,300.19228,1039.4591,0.0,0.0,0.0,0.0,0.0453290499872171,0.0,-0.08042851000767592,-0.09878369768919192,-0.13675739327690387,0.09645390032350881,0.40217987817206363,-0.02316394599985348
4549,5.0,298.86399,1121.8493,0.0,0.0,0.0,0.0,0.04533901679680093,0.0,-0.13473305129961688,-0.08910308191578951,-0.1171780373545719,0.1131341460729709,0.40885210981556164,-0.0058459409803994535
4550,5.0,298.9304,700.90845,0.0,0.0,0.0,0.0,0.04534898360638474,0.0,-0.08583401690615793,-0.046022754771842256,-0.08120189341150293,0.09396732378310281,0.37866394428622163,0.016483171644762384
4551,5.0,299.01288,619.5371200000001,0.0,0.0,0.0,0.0,0.04535895041596856,0.0,-0.037618902012196566,-0.08244791644372582,-0.06825699719544114,0.12331740077047988,0.4168880038411426,-0.016770434127612983
4552,5.0,300.5585,971.1440699999999,0.0,0.0,0.0,0.0,0.045368917225552384,0.0,-0.08993812057495142,-0.097554646596144,-0.1077107755752259,0.10554739541921691,0.37778729043220266,0.0005596492383330795
4553,5.0,299.86323,1076.649,0.0,0.0,0.0,0.0,0.0453788840351362,0.0,-0.08758256841822652,-0.09587662945003661,-0.14381522737845787,0.09405908776515923,0.4065255153334446,-0.028827654355067973
4554,5.0,299.98807999999997,805.0553,0.0,0.0,0.0,0.0,0.045388850844720025,0.0,-0.06513243279582065,-0.0863799520070375,-0.09320432315305051,0.0977072967767094,0.39481382352259065,-0.05865186247498815
4555,5.0,300.04952000000003,738.12861,0.0,0.0,0.0,0.0,0.04539881765430384,0.0,-0.05935539343017124,-0.08835358993607041,-0.07666368300236644,0.12097210169151687,0.4001814652648356,-0.05401486220760185
4556,5.0,301.43736,979.965,0.0,0.0,0.0,0.0,0.04540878446388766,0.0,-0.07933943434969251,-0.1069618621613139,-0.1115835998424439,0.11940530292938588,0.3884409059586326,-0.027492309273529674
4557,5.0,301.12417,1181.4256,0.0,0.0,0.0,0.0,0.04541875127347148,0.0,-0.1095931510810019,-0.1148253820798829,-0.1347053490418829,0.10510012656007489,0.37807881261847365,-0.013693535039196686
4558,5.0,300.50286,1113.275,0.0,0.0,0.0,0.0,0.045428718083055306,0.0,-0.1153196657436649,-0.08984775285153282,-0.13324038191480186,0.08997301184214491,0.38695051638654265,-0.008125192567494072
4559,5.0,299.86233,819.28198,0.0,0.0,0.0,0.0,0.04543868489263913,0.0,-0.03829544606421626,-0.08363743153112183,-0.12710838482712086,0.08627623775330172,0.4127735802200806,-0.009154084006637753
4560,5.0,300.91173,632.10004,0.0,0.0,0.0,0.0,0.045448651702222946,0.0,-0.06282578718167244,-0.048172290891734956,-0.08114455054859362,0.08194954330254023,0.4206773464326216,-0.0013412850575995287
4561,5.0,300.46006,1119.8813,0.0,0.0,0.0,0.0,0.04545861851180676,0.0,-0.13421010279050588,-0.06208709543476924,-0.14411876671091486,0.08378940182087012,0.4311668458403546,0.028552279322390572
4562,5.0,299.81296000000003,1439.5993,0.0,0.0,0.0,0.0,0.04546858532139059,0.0,-0.18837638610630184,-0.09869762715944741,-0.15052824233848086,0.09360751765934272,0.4242032946606056,0.017107378289366783
4563,5.0,300.21955,1013.8425,0.0,0.0,0.0,0.0,0.04547855213097441,0.0,-0.11051717437719588,-0.07412648246046423,-0.12353914042236389,0.1065615270468039,0.4281003761352176,-0.013173854261658187
4564,5.0,299.44357,696.71408,0.0,0.0,0.0,0.0,0.045488518940558234,0.0,-0.03404646485637447,-0.08651421777778852,-0.0912229997220091,0.11582457840099589,0.38466837318631264,-0.032624325784520264
4565,5.0,299.80316,1051.8263,0.0,0.0,0.0,0.0,0.04549848575014205,0.0,-0.07022078633350204,-0.098144570936865,-0.15136356572092086,0.09939391641616581,0.3690603801034236,-0.023985852937719376
4566,5.0,299.94299,1265.3548,0.0,0.0,0.0,0.0,0.04550845255972587,0.0,-0.12490558924222188,-0.11161944863098189,-0.14811123554994085,0.10057896307062081,0.35265579005691666,-0.03418358292615697
4567,5.0,299.49445,744.86641,0.0,0.0,0.0,0.0,0.04551841936930969,0.0,-0.06987362658424003,-0.07144045169087362,-0.08510671307712861,0.1040646761503839,0.37296984349425766,-0.03715096386426467
4568,5.0,300.23142,292.73722000000004,0.0,0.0,0.0,0.0,0.045528386178893515,0.0,0.00016252938930540184,-0.03940603099532246,-0.04974130461858455,0.11164999812149688,0.39694120290254664,-0.023736273226087776
4569,5.0,299.66576000000003,516.21408,0.0,0.0,0.0,0.0,0.04553835298847734,0.0,-0.04516410333234996,-0.05734186283145124,-0.05441022327737095,0.1079279049391549,0.3940518290498876,0.00930326785861105
4570,5.0,299.20604,1098.5452,0.0,0.0,0.0,0.0,0.045548319798061156,0.0,-0.09276493231343601,-0.09688197822575681,-0.14428339958716288,0.1227874203056749,0.40607068762855664,-0.025196527726953678
4571,5.0,298.96443999999997,1479.5306,0.0,0.0,0.0,0.0,0.04555828660764497,0.0,-0.13215077328726588,-0.15441595124966784,-0.16317364411648486,0.09332838346879432,0.4036071827929276,-0.018324450739732483
4572,5.0,300.16546,1086.6762,0.0,0.0,0.0,0.0,0.045568253417228796,0.0,-0.09610108157243831,-0.1036050456400219,-0.13061630733582588,0.1041186722482129,0.4374164204696396,-0.011359399949835489
4573,5.0,300.06503,635.2317400000001,0.0,0.0,0.0,0.0,0.04557822022681262,0.0,-0.06867681609612403,-0.06837526982661374,-0.05604250231396435,0.07611008165123022,0.4119242739862606,-0.030296213453753475
4574,5.0,300.09839,1001.2743,0.0,0.0,0.0,0.0,0.045588187036396444,0.0,-0.10635361825878491,-0.09410930140036491,-0.10389947585407991,0.08715088841187302,0.4243195347120776,-0.019139282152150085
4575,5.0,299.87897000000004,1299.5665,0.0,0.0,0.0,0.0,0.04559815384598026,0.0,-0.16788291647375383,-0.08086610334161301,-0.14628675715487888,0.0896012321419531,0.4097716038838086,-0.014898475846115087
4576,5.0,300.78909,802.21776,0.0,0.0,0.0,0.0,0.04560812065556408,0.0,-0.031756521656874676,-0.09051850516598092,-0.12157913982642689,0.10145614482794191,0.3985635784326626,-0.008572127966028163
4577,5.0,299.8944,376.43802,0.0,0.0,0.0,0.0,0.0456180874651479,0.0,-0.02288578554265118,-0.025131946205329974,-0.06641002667465934,0.10798255964954889,0.3681664604677007,0.015930071852425683
4578,5.0,299.5289,885.1191,0.0,0.0,0.0,0.0,0.045628054274731725,0.0,-0.08935726380937532,-0.09272134634713441,-0.08697549279306283,0.100936389069896,0.37000006824616366,0.010771210293285689
4579,5.0,299.67842,1457.0365,0.0,0.0,0.0,0.0,0.04563802108431555,0.0,-0.18345275055787683,-0.12331632672537388,-0.13613361625034187,0.12001019297408388,0.39847594243151363,-0.0025773024477349477
4580,5.0,300.53226,1525.9407,0.0,0.0,0.0,0.0,0.045647987893899365,0.0,-0.14906144122871887,-0.15121512458127084,-0.16357129411822982,0.1016846732554959,0.41264314453470763,-0.0035929977228762668
4581,5.0,300.379,1036.7456,0.0,0.0,0.0,0.0,0.04565795470348318,0.0,-0.09495694083777041,-0.12011924908234688,-0.10006858899525081,0.1141970352953699,0.3984315215471296,0.005382694585730595
4582,5.0,301.03634,794.60541,0.0,0.0,0.0,0.0,0.045667921513067006,0.0,-0.012493291659741888,-0.11143274716755588,-0.1176141604626139,0.0950739276545661,0.3969095996319276,-0.04146132472341416
4583,5.0,301.61024,938.1212199999999,0.0,0.0,0.0,0.0,0.04567788832265083,0.0,-0.09315747046842651,-0.09666820778590932,-0.0953397477388005,0.11211548521743689,0.41237260675800763,-0.019045436954388283
4584,5.0,301.38781,1043.5629,0.0,0.0,0.0,0.0,0.04568785513223465,0.0,-0.1047315872337029,-0.09243008659263932,-0.12005537379604288,0.09009550769973432,0.4147345130061096,-0.044084992989100055
4585,5.0,300.55973,739.87155,0.0,0.0,0.0,0.0,0.04569782194181847,0.0,-0.08170025034068693,-0.05660329470106025,-0.08659893359214932,0.09515913489522541,0.3856096723967117,-0.024765423246656974
4586,5.0,301.04711000000003,480.43220999999994,0.0,0.0,0.0,0.0,0.04570778875140229,0.0,-0.05016253295015655,-0.06243935689828474,-0.03343750458602477,0.0983556218134441,0.4050156713594346,-0.054406399271493544
4587,5.0,300.10117,724.4698900000001,0.0,0.0,0.0,0.0,0.04571775556098611,0.0,-0.04085992633856076,-0.08141554124808834,-0.09794528896019741,0.12741586570246688,0.4040083183750166,-0.024284826565225775
4588,5.0,300.33317999999997,1174.2372,0.0,0.0,0.0,0.0,0.045727722370569934,0.0,-0.09789948296292672,-0.1018913965408979,-0.15714791669929185,0.09625814952343971,0.4211480213690736,4.331129851749236e-05
4589,5.0,300.48551000000003,1310.4053,0.0,0.0,0.0,0.0,0.04573768918015376,0.0,-0.11855929989089188,-0.13121745848765487,-0.14855372186861088,0.0924424705353615,0.37006075179465264,0.02845633264392137
4590,5.0,299.38135,958.8063,0.0,0.0,0.0,0.0,0.045747655989737575,0.0,-0.1013401276914919,-0.0857145618121186,-0.10439848126332789,0.07293819745868964,0.38796004785867566,-0.009370903214711141
4591,5.0,300.21315,986.7812,0.0,0.0,0.0,0.0,0.04575762279932139,0.0,-0.10078008612272009,-0.0968326917143926,-0.1023440660230729,0.11702739746220488,0.4134453143738756,-0.018307655106074884
4592,5.0,300.85848,1042.9372,0.0,0.0,0.0,0.0,0.045767589608905215,0.0,-0.11963333486439089,-0.0915679141090495,-0.1058256237641759,0.1076195020062179,0.4317764981605226,-0.02193821836713358
4593,5.0,300.06888,1085.3461,0.0,0.0,0.0,0.0,0.04577755641848904,0.0,-0.0966633462119295,-0.07473619658888833,-0.15851856037456385,0.11765768968690989,0.3993536196681336,-0.017474039050053382
4594,5.0,300.0591,1000.3889,0.0,0.0,0.0,0.0,0.04578752322807286,0.0,-0.08281075725153542,-0.09300399246252941,-0.12827850630760287,0.1094525626296269,0.4114993776893266,-0.02313211677446218
4595,5.0,300.37205,544.15498,0.0,0.0,0.0,0.0,0.04579749003765668,0.0,-0.07514681011241273,-0.01118732475160299,-0.07907539049288342,0.1101016607761879,0.40174521414416564,0.0022396733289135476
4596,5.0,300.92883,500.51304000000005,0.0,0.0,0.0,0.0,0.045807456847240496,0.0,-0.05068670546538836,-0.02259115673157358,-0.07886560516567923,0.08485562463609812,0.4108368235814376,-0.03344681635444377
4597,5.0,300.72139,1111.279,0.0,0.0,0.0,0.0,0.04581742365682432,0.0,-0.13230982315546286,-0.1002728987189146,-0.10521834244924189,0.09899234513653381,0.3625252817284596,0.015479962853253385
4598,5.0,299.69227,1214.8487,0.0,0.0,0.0,0.0,0.045827390466408144,0.0,-0.09278237237415722,-0.12268162686273389,-0.15381966369831884,0.07975868988331983,0.40228216576965864,-0.05004724434052845
4599,5.0,299.20378999999997,832.61176,0.0,0.0,0.0,0.0,0.04583735727599197,0.0,-0.03557433252316326,-0.12028473308867889,-0.09723412316551082,0.0902353544520361,0.40438462932965563,-0.018702015084745182
4600,5.0,299.06973,715.18137,0.0,0.0,0.0,0.0,0.045847324085575784,0.0,-0.045075364915092155,-0.06635693540916963,-0.10596497605042889,0.1111312140702969,0.4321797514353206,-0.03679474261935836
4601,5.0,299.39016000000004,969.74553,0.0,0.0,0.0,0.0,0.0458572908951596,0.0,-0.0898361896413916,-0.08058084101445982,-0.12436139287851389,0.1084110833818409,0.4108911743168016,0.03632969628721186
4602,5.0,300.2522,963.8177199999999,0.0,0.0,0.0,0.0,0.045867257704743425,0.0,-0.08584603101259361,-0.08564926290942411,-0.12148122946926389,0.0937708930922166,0.4214498179113586,-0.03471396869100196
4603,5.0,299.49476,983.76349,0.0,0.0,0.0,0.0,0.04587722451432724,0.0,-0.1112579007302999,-0.08746432415805672,-0.1003173145370481,0.1054515318272559,0.4002076983099246,-0.002413934512911788
4604,5.0,299.88799,871.7964300000001,0.0,0.0,0.0,0.0,0.04588719132391107,0.0,-0.09579878245810372,-0.050767547624616854,-0.11843801385392189,0.1134645162680759,0.40360838856054665,-0.018421779491338084
4605,5.0,299.71031,786.61764,0.0,0.0,0.0,0.0,0.04589715813349489,0.0,-0.08137202316954342,-0.052804117504110654,-0.1049359800438749,0.10346194432839889,0.36288691068914963,-0.02991390507177257
4606,5.0,299.6958,1018.9129,0.0,0.0,0.0,0.0,0.045907124943078706,0.0,-0.1124416808221299,-0.08779463659790601,-0.10948775280559989,0.07851081361666402,0.38024002441926863,-0.01118626489199839
4607,5.0,300.06082000000004,1243.6696,0.0,0.0,0.0,0.0,0.04591709175266253,0.0,-0.13644816961138587,-0.11357867915684289,-0.12801764506935787,0.07442280441245892,0.4020782390545326,-0.030193503330866768
4608,5.0,300.02152,982.0567,0.0,0.0,0.0,0.0,0.045927058562246346,0.0,-0.08754428073669783,-0.0954323598111906,-0.1155440702433119,0.1035931703488499,0.4243382089114206,0.018017982101236382
4609,5.0,300.53057,823.93313,0.0,0.0,0.0,0.0,0.04593702537183016,0.0,-0.09160228152594133,-0.06947736473513202,-0.08937545266192042,0.0992206172118125,0.3926360045526566,-0.005351886108490036
4610,5.0,300.14579,1234.2203,0.0,0.0,0.0,0.0,0.04594699218141399,0.0,-0.06740610826496493,-0.14871600400462687,-0.15905004044951684,0.11807910040349988,0.4013677480844126,0.0019077599539062482
4611,5.0,300.90693,1290.0973,0.0,0.0,0.0,0.0,0.045956958990997804,0.0,-0.09521476637871581,-0.11503333139790589,-0.1819092768130478,0.11063850094416988,0.4061627008701376,-0.025601558242427075
4612,5.0,301.27095,942.58511,0.0,0.0,0.0,0.0,0.04596692580058163,0.0,-0.07163667263898914,-0.09104933169461941,-0.12383633680919488,0.08569319540725993,0.43217852540269963,-0.010716464390382688
4613,5.0,302.32299,785.97414,0.0,0.0,0.0,0.0,0.04597689261016545,0.0,-0.08970084374603401,-0.04871200869000095,-0.10050365933643891,0.1024044962590369,0.3912594130992976,-0.0100216272223826
4614,5.0,301.8263,779.7300799999999,0.0,0.0,0.0,0.0,0.04598685941974927,0.0,-0.07353854003693884,-0.07923622469450652,-0.08424370770195662,0.0970008203034856,0.38965362447331864,-0.03026982335489897
4615,5.0,301.02105,774.18074,0.0,0.0,0.0,0.0,0.04599682622933309,0.0,-0.07763813676928752,-0.0975048919632336,-0.06018858290790065,0.13504293357769986,0.3986318917544046,-0.02297062294702398
4616,5.0,299.82527000000005,960.7652400000001,0.0,0.0,0.0,0.0,0.04600679303891691,0.0,-0.06627707711578824,-0.10231735675043689,-0.12345420979898189,0.12023142600091788,0.38038767522384065,-0.03860881189614306
4617,5.0,299.55672999999996,997.73049,0.0,0.0,0.0,0.0,0.04601675984850073,0.0,-0.09847611447558581,-0.0930925474815191,-0.1117164875930589,0.11176234729258488,0.37378132510184464,0.003964053050571576
4618,5.0,299.86329,945.45471,0.0,0.0,0.0,0.0,0.046026726658084556,0.0,-0.10910626414294991,-0.1030979848924789,-0.07519038290646302,0.08548731210619083,0.3706924828344996,-0.02853362741454977
4619,5.0,299.71614,1172.3544,0.0,0.0,0.0,0.0,0.04603669346766837,0.0,-0.12310231817175289,-0.13654168246311488,-0.0967224653022641,0.12084063249104188,0.4027983052380976,-0.01022008127239349
4620,5.0,299.31237999999996,1322.828,0.0,0.0,0.0,0.0,0.0460466602772522,0.0,-0.1287932272259019,-0.12452201328436588,-0.14879144047457185,0.07935209896269244,0.42440739362824853,0.014718569237859684
4621,5.0,299.6803,1058.3001,0.0,0.0,0.0,0.0,0.04605662708683601,0.0,-0.09691428773169551,-0.09403025978656411,-0.13075224496924187,0.092643544951456,0.41628380280651267,0.01050446612496009
4622,5.0,300.68504,889.622,0.0,0.0,0.0,0.0,0.04606659389641984,0.0,-0.04250091527301376,-0.087516965540502,-0.14040499231189385,0.06624481928560463,0.4000854192878566,-0.0036769896713656266
4623,5.0,300.14345,1000.8508,0.0,0.0,0.0,0.0,0.04607656070600366,0.0,-0.07338154301344443,-0.08910690288191661,-0.14174521821916386,0.11750929920976488,0.4226554639403466,-0.020596665102232584
4624,5.0,300.88882,995.60648,0.0,0.0,0.0,0.0,0.046086527515587485,0.0,-0.08812102168036773,-0.0945669479670311,-0.1199515359257949,0.11834617286485788,0.4285389107784976,-0.000979224016669386
4625,5.0,300.2452,879.05853,0.0,0.0,0.0,0.0,0.0460964943251713,0.0,-0.1090602727209109,-0.08025269287682413,-0.07789887743077063,0.11196701368028389,0.4131511172073406,-0.020253501611364983
4626,5.0,300.42643,1058.0746,0.0,0.0,0.0,0.0,0.04610646113475512,0.0,-0.12892928644932988,-0.10400817732480791,-0.08869078842359931,0.11642290258504588,0.3830743483939946,-0.011777811446129488
4627,5.0,300.59278,1052.3178,0.0,0.0,0.0,0.0,0.04611642794433894,0.0,-0.11904332946366188,-0.1036274080697289,-0.09720760742364391,0.1167696975642719,0.4089061464433946,-0.038909137199282864
4628,5.0,300.00717000000003,999.0117300000001,0.0,0.0,0.0,0.0,0.046126394753922766,0.0,-0.06724985598029402,-0.12301412488304889,-0.1134106417602589,0.08573730117086283,0.39616364490830763,-0.03254233155992807
4629,5.0,299.24651,1246.5901,0.0,0.0,0.0,0.0,0.04613636156350659,0.0,-0.11826940903728189,-0.12483432736268889,-0.1358285165127309,0.10341265984353491,0.3904971349165666,0.0043421607002878965
4630,5.0,299.28105,1212.8453,0.0,0.0,0.0,0.0,0.046146328373090406,0.0,-0.1081407482551609,-0.11626488623195089,-0.14426905196574685,0.08031204602793182,0.39394219538906766,-0.022359054570916876
4631,5.0,298.79091,739.9051599999999,0.0,0.0,0.0,0.0,0.04615629518267422,0.0,-0.05842232079733415,-0.08810759510329261,-0.07838277730752784,0.12382593073066789,0.4191053294324756,-0.018515043083542484
4632,5.0,299.38852,705.3569200000001,0.0,0.0,0.0,0.0,0.04616626199225805,0.0,-0.05565269182824304,-0.07922905493679892,-0.07952914516591551,0.11881673634379887,0.40285669884136066,-0.02053789963618288
4633,5.0,299.61258,895.1710199999999,0.0,0.0,0.0,0.0,0.04617622880184187,0.0,-0.05260534215249305,-0.08593499234487342,-0.13356930316226387,0.10724029315629291,0.4212027672719766,-0.008111348734027793
4634,5.0,300.3951,901.84559,0.0,0.0,0.0,0.0,0.046186195611425694,0.0,-0.04390666299800026,-0.08645672292736421,-0.14377515333700286,0.1037957899713469,0.40353660992346263,-0.04090423779193396
4635,5.0,301.26137,975.53861,0.0,0.0,0.0,0.0,0.04619616242100951,0.0,-0.09485470998218101,-0.08309299705364033,-0.11859167323158688,0.08009503926726493,0.4469095099940346,-0.02373125966459298
4636,5.0,300.28841,987.44786,0.0,0.0,0.0,0.0,0.04620612923059333,0.0,-0.11396165729713989,-0.07977121466780593,-0.1064266229284899,0.09062057288830422,0.41513929628855856,-0.02315118918109448
4637,5.0,300.23132000000004,1022.9197,0.0,0.0,0.0,0.0,0.04621609604017715,0.0,-0.12950999021414086,-0.07429104238270504,-0.1071410149114949,0.06549943198204064,0.38383625167418867,-0.015330708073773087
4638,5.0,300.73792000000003,1237.8544,0.0,0.0,0.0,0.0,0.046226062849760975,0.0,-0.13919986304045687,-0.11863049084291788,-0.11844648462475788,0.0965479380387896,0.38057144839447765,-0.002864807198684458
4639,5.0,299.34237,1123.3351,0.0,0.0,0.0,0.0,0.0462360296593448,0.0,-0.0984241205599544,-0.10032306067836522,-0.14271864759023387,0.1149960032642219,0.38960679205369664,-0.01145319955134279
4640,5.0,300.69742,978.4885800000001,0.0,0.0,0.0,0.0,0.046245996468928616,0.0,-0.05426128564517195,-0.10384050469825991,-0.13933431119622586,0.12849523037149188,0.4154923835509057,0.011527526512428289
4641,5.0,300.21724,661.1188900000001,0.0,0.0,0.0,0.0,0.04625596327851243,0.0,-0.04215649231227186,-0.06614878546762684,-0.09265835664141782,0.09316125495755001,0.42543098901176957,-0.007819136321788673
4642,5.0,298.99811,886.2212199999999,0.0,0.0,0.0,0.0,0.046265930088096256,0.0,-0.08026498664028742,-0.07288433004362334,-0.11623980829197589,0.12380753010885187,0.39628526531781066,0.015080203264800184
4643,5.0,299.42977,1094.9418,0.0,0.0,0.0,0.0,0.04627589689768008,0.0,-0.1280773761627529,-0.09102449896116861,-0.11373309847208289,0.07885133657777102,0.44059506709334756,-0.016933571446713383
4644,5.0,299.76635,787.41476,0.0,0.0,0.0,0.0,0.046285863707263904,0.0,-0.08251439983578722,-0.06626370728071873,-0.0905763161504364,0.1127869255287029,0.3977058926205156,-0.011494309134399989
4645,5.0,299.20754,717.33469,0.0,0.0,0.0,0.0,0.04629583051684772,0.0,-0.029519916955888976,-0.06872211445509463,-0.11980980250180688,0.08571139743205633,0.3938338789533776,-0.04972527094900216
4646,5.0,299.58329,873.02493,0.0,0.0,0.0,0.0,0.04630579732643154,0.0,-0.06521366100333724,-0.09750437824543291,-0.10265974409172791,0.09599075282204972,0.38694484218598263,-0.04896267967199025
4647,5.0,298.49946,910.90591,0.0,0.0,0.0,0.0,0.04631576413601536,0.0,-0.09971568715767211,-0.08250610942346902,-0.09467085473828592,0.12058102768292088,0.4167680856918076,-0.05200978414121605
4648,5.0,299.00784,1059.2873,0.0,0.0,0.0,0.0,0.046325730945599185,0.0,-0.11064058823937589,-0.10673886607930588,-0.1046174344774369,0.1060372613125629,0.4041674189057186,-0.028270849107115577
4649,5.0,300.24522,853.1214,0.0,0.0,0.0,0.0,0.04633569775518301,0.0,-0.1022392655652299,-0.08036554461996172,-0.07672279398670022,0.1010163740195399,0.4066839167215776,-0.0038208363297621865
4650,5.0,299.71457000000004,745.0521,0.0,0.0,0.0,0.0,0.04634566456476682,0.0,-0.039464218908815164,-0.08432097106183192,-0.1026920465049159,0.13610821407033488,0.3950420175776116,-0.016647316134462183
4651,5.0,300.37212999999997,969.4903300000001,0.0,0.0,0.0,0.0,0.04635563137435064,0.0,-0.05441865351820294,-0.10418464496222392,-0.13609754454678188,0.09946152552908831,0.4311558622092706,-0.0099731280063461
4652,5.0,299.75343,1141.8794,0.0,0.0,0.0,0.0,0.046365598183934466,0.0,-0.095930376288341,-0.0967899781564271,-0.15438248359886486,0.1076146688032409,0.3983324155548486,0.0007335314667939192
4653,5.0,300.05653,934.87274,0.0,0.0,0.0,0.0,0.04637556499351829,0.0,-0.09501082243833811,-0.07981851115597373,-0.10934863356686989,0.05637782730205835,0.3981309510374656,-0.018689526777262683
4654,5.0,300.43705,805.04296,0.0,0.0,0.0,0.0,0.04638553180310211,0.0,-0.08287036067541782,-0.07596693778310303,-0.08587566148526792,0.07588721323873483,0.39314348073274064,-0.03963063510523916
4655,5.0,299.54172,974.84685,0.0,0.0,0.0,0.0,0.04639549861268593,0.0,-0.11821634512954489,-0.08896423524133641,-0.08914852212977412,0.11182749927401489,0.4409091644918466,-0.018521565374436184
4656,5.0,299.56179,1179.9526,0.0,0.0,0.0,0.0,0.04640546542226975,0.0,-0.12291502902326888,-0.1144853961413289,-0.12127569168647888,0.09994257614656431,0.42437798911034663,-0.018465572160660085
4657,5.0,300.28121,1132.4189,0.0,0.0,0.0,0.0,0.04641543223185357,0.0,-0.09049160134932573,-0.11183400433965689,-0.14190146138458387,0.1212066285596629,0.3953087151364326,-0.015820523304614087
4658,5.0,299.2529,918.3000099999999,0.0,0.0,0.0,0.0,0.04642539904143739,0.0,-0.09013312359644672,-0.08659763967177161,-0.10240951184703191,0.09556727710175592,0.3872383908724536,-0.012226451232656789
4659,5.0,298.69212000000005,906.02623,0.0,0.0,0.0,0.0,0.046435365851021204,0.0,-0.08277732405123583,-0.0905685921449241,-0.1020634362753769,0.12102298711153889,0.42850291000244456,-0.008853730737795192
4660,5.0,299.37281,998.72282,0.0,0.0,0.0,0.0,0.046445332660605035,0.0,-0.0989996364842534,-0.07867408468477763,-0.12591307394915288,0.10668061433105691,0.3877455833425096,-0.01131436098289049
4661,5.0,299.30695,1035.756,0.0,0.0,0.0,0.0,0.04645529947018885,0.0,-0.07420491207120462,-0.12487049025875788,-0.1157685558029669,0.08569634053557032,0.4022725804237126,0.00085037633738311
4662,5.0,300.76751,842.94568,0.0,0.0,0.0,0.0,0.046465266279772675,0.0,-0.027969898628664072,-0.09204047774368791,-0.13622405895426787,0.10165426561999491,0.38836682724382166,-0.03047681413832737
4663,5.0,300.18397999999996,676.37245,0.0,0.0,0.0,0.0,0.04647523308935649,0.0,-0.004547377688091235,-0.1165279462229129,-0.08452500720796871,0.1275355710692809,0.4228459448266456,-0.024248975750187578
4664,5.0,300.58481,929.47451,0.0,0.0,0.0,0.0,0.04648519989894031,0.0,-0.07783333433480202,-0.09223367110050461,-0.11247004169242888,0.10503736584888089,0.41588342716199855,-0.029091292911837076
4665,5.0,300.0587,1298.2159,0.0,0.0,0.0,0.0,0.04649516670852413,0.0,-0.13278708421756488,-0.1353320036987289,-0.12650613936518387,0.1069445051871009,0.39545474474084463,-0.01154582580923429
4666,5.0,300.25645,1220.1436,0.0,0.0,0.0,0.0,0.04650513351810795,0.0,-0.13763369249338786,-0.13333494854663488,-0.09992455448028571,0.09138933688492532,0.3964518841642546,-0.03334574465696877
4667,5.0,299.86765,1217.2215,0.0,0.0,0.0,0.0,0.04651510032769177,0.0,-0.13473676992748387,-0.1115106458352439,-0.12375751608391587,0.10214418217584591,0.41895953287558657,0.002936019327637547
4668,5.0,300.71403,1293.9165,0.0,0.0,0.0,0.0,0.0465250671372756,0.0,-0.12276305164076988,-0.10895275675279989,-0.16160248837892385,0.11748564995243088,0.38251791196907864,0.0088174108892857
4669,5.0,300.54011,1045.6685,0.0,0.0,0.0,0.0,0.046535033946859414,0.0,-0.0956537600242911,-0.07898220796068701,-0.14322114871232686,0.0995740793766965,0.38673229271250564,0.029048800242393372
4670,5.0,301.34827,1023.7077,0.0,0.0,0.0,0.0,0.04654500075644324,0.0,-0.09748029227730581,-0.07864595382225133,-0.13505533575892387,0.09873713783384681,0.3757790793965076,0.003322937186973367
4671,5.0,299.45579,1007.6621,0.0,0.0,0.0,0.0,0.046554967566027054,0.0,-0.10062924965983372,-0.08726987943736651,-0.1184049717681609,0.1017712554765409,0.43406479178885954,-0.01185198236669959
4672,5.0,299.31369,871.6212400000001,0.0,0.0,0.0,0.0,0.04656493437561088,0.0,-0.0996888461625231,-0.08149771481794822,-0.08376453058391552,0.1097003428090809,0.43656330441544355,-0.02040768686583188
4673,5.0,300.19486,792.70196,0.0,0.0,0.0,0.0,0.0465749011851947,0.0,-0.07579353826698983,-0.07823552673674533,-0.08693253706832342,0.1041613706074269,0.4211283643171336,-0.040974204737839165
4674,5.0,299.80848,973.47149,0.0,0.0,0.0,0.0,0.04658486799477852,0.0,-0.062220806957715535,-0.12813325690576788,-0.1055569605001609,0.09040255186428722,0.4062830851145186,-0.026043417359285177
4675,5.0,300.09978,1018.3998,0.0,0.0,0.0,0.0,0.04659483480436234,0.0,-0.0929487824910806,-0.1096059382972639,-0.10701337579639789,0.1008515070825188,0.3957766846951176,-0.041884592727437456
4676,5.0,299.23946,974.3555,0.0,0.0,0.0,0.0,0.04660480161394616,0.0,-0.08073008160843873,-0.1035610908506839,-0.1118885678575419,0.0985852182066035,0.40037735690666865,-0.015136583540114485
4677,5.0,299.26756,982.49458,0.0,0.0,0.0,0.0,0.04661476842352998,0.0,-0.09168541059064551,-0.11564948878371588,-0.0913189190427256,0.08095575672371112,0.3895469292377886,-0.03352807495946337
4678,5.0,300.43377999999996,1128.1603,0.0,0.0,0.0,0.0,0.046624735233113807,0.0,-0.1021076139797369,-0.10101060153372021,-0.13981434856360186,0.13134876556811387,0.4163976211902456,0.004339306577406215
4679,5.0,300.5692,909.3674,0.0,0.0,0.0,0.0,0.04663470204269762,0.0,-0.07023549669845383,-0.09700650564979672,-0.1091829773080209,0.0945628888871305,0.4295579364040676,-0.037602269511805064
4680,5.0,300.69147000000004,827.0718099999999,0.0,0.0,0.0,0.0,0.04664466885228145,0.0,-0.055050138338275656,-0.05937530886088674,-0.13698373308424186,0.12645341996248088,0.4083903818774926,-0.007051684889347113
4681,5.0,300.28257,998.74629,0.0,0.0,0.0,0.0,0.046654635661865264,0.0,-0.0979324602006813,-0.09703830143793471,-0.1086231768927729,0.10850966248406989,0.3807082574229796,-0.025720803593695676
4682,5.0,299.43899,910.3811699999999,0.0,0.0,0.0,0.0,0.04666460247144909,0.0,-0.05732825893560865,-0.09152314567988122,-0.12788173783344486,0.1097098268300169,0.39979895321958464,-0.01138997578485309
4683,5.0,300.21997000000005,1036.5101,0.0,0.0,0.0,0.0,0.04667456928103291,0.0,-0.10632100173806588,-0.11106774408403289,-0.09768443785445341,0.11403562455443988,0.41777721186390054,-0.038550670592154966
4684,5.0,300.6011,1204.3506,0.0,0.0,0.0,0.0,0.04668453609061673,0.0,-0.1122351297892449,-0.1110335367606569,-0.14282386348061785,0.07148789915330633,0.43924713035281654,0.0025332857488158376
4685,5.0,298.84071,867.7751400000001,0.0,0.0,0.0,0.0,0.04669450290020055,0.0,-0.09126572746547601,-0.06953206098878013,-0.1029841867737479,0.07919283327222412,0.43793688651600554,-0.015325470584006184
4686,5.0,300.24247,912.2937,0.0,0.0,0.0,0.0,0.04670446970978437,0.0,-0.06487779189993953,-0.08870390089314341,-0.12373281304647787,0.11396984435794788,0.4155596937550486,-0.00088725073767233
4687,5.0,299.95133,1085.6153,0.0,0.0,0.0,0.0,0.04671443651936819,0.0,-0.13180802117593887,-0.06762810933537473,-0.13056380071564389,0.12718989066516487,0.42374459634033557,-0.005226338138949415
4688,5.0,300.68379,1051.2277,0.0,0.0,0.0,0.0,0.046724403328952016,0.0,-0.0915354657878471,-0.07762862032434834,-0.15038289161163587,0.12051098170350788,0.38136376944267364,0.011679832187959689
4689,5.0,300.212,828.96341,0.0,0.0,0.0,0.0,0.04673437013853583,0.0,-0.0976263391069695,-0.06490140873327034,-0.08945642958341223,0.11783822045722689,0.3756117310099917,-0.024133003196741977
4690,5.0,300.06647999999996,872.81505,0.0,0.0,0.0,0.0,0.04674433694811966,0.0,-0.07506723350255913,-0.059768076010399844,-0.13047866744224187,0.09810644537535232,0.4039498133142426,-0.018452671460386882
4691,5.0,300.67909,908.0850800000001,0.0,0.0,0.0,0.0,0.04675430375770347,0.0,-0.08622514867000962,-0.07994483405919083,-0.1098652087328519,0.13246888315616087,0.4070346937736966,-0.04684920816290686
4692,5.0,302.45665,899.03213,0.0,0.0,0.0,0.0,0.0467642705672873,0.0,-0.08584609586060002,-0.08834286569701202,-0.0990943571301016,0.07262092048137683,0.4239036664735346,-0.037840773386593564
4693,5.0,300.22801,928.0353,0.0,0.0,0.0,0.0,0.04677423737687112,0.0,-0.098681167924823,-0.09506513973644881,-0.08835325252378712,0.0938081594176445,0.4009917208398016,-0.030495815617452675
4694,5.0,299.34936,963.30345,0.0,0.0,0.0,0.0,0.046784204186454945,0.0,-0.09460683658371782,-0.0942005567308711,-0.1040128078777649,0.10834217224253989,0.4285410183387056,-0.045970151892900754
4695,5.0,299.32497,871.16354,0.0,0.0,0.0,0.0,0.04679417099603876,0.0,-0.07864714641761902,-0.1023678875329239,-0.08379692418961251,0.1278431634021379,0.4356435266371686,-0.0028091614283676475
4696,5.0,299.91407999999996,794.48245,0.0,0.0,0.0,0.0,0.04680413780562258,0.0,-0.06854804619391544,-0.07583473600280573,-0.0971200423500019,0.12954072208967388,0.4226569432854926,-0.01077412946682379
4697,5.0,298.40473,937.81246,0.0,0.0,0.0,0.0,0.0468141046152064,0.0,-0.05993751473187215,-0.09877836698041581,-0.1263556919903359,0.10215683766959491,0.3951940962851206,0.0016233031605825481
4698,5.0,299.16456,777.34781,0.0,0.0,0.0,0.0,0.046824071424790226,0.0,-0.08922000895082932,-0.04270836404548736,-0.1043659559351179,0.08683035991498932,0.4148306907056016,-0.007770071306896333
4699,5.0,300.14845,880.2162699999999,0.0,0.0,0.0,0.0,0.04683403823437405,0.0,-0.07834279344533172,-0.07905299766567343,-0.1101679779952329,0.11712557126439388,0.40847491733333563,-0.02130353572974528
4700,5.0,300.9791,1190.3139,0.0,0.0,0.0,0.0,0.046844005043957866,0.0,-0.1215645490249869,-0.096229041887817,-0.14403212369486387,0.08279721921694932,0.4137827063921736,-0.011640777476105289
4701,5.0,301.14487,1201.5583,0.0,0.0,0.0,0.0,0.04685397185354168,0.0,-0.13504656101305787,-0.08690934478678451,-0.14328782056890685,0.1085287926459579,0.38589313924468766,-0.006706819138311513
4702,5.0,299.79606,1053.5814,0.0,0.0,0.0,0.0,0.04686393866312551,0.0,-0.09433467254060732,-0.11670628837301389,-0.10922147067931989,0.1015495259571579,0.4001775743844516,-0.024975939127183273
4703,5.0,298.93622999999997,1104.0096,0.0,0.0,0.0,0.0,0.04687390547270933,0.0,-0.0916080144950071,-0.1024921423926869,-0.14149117615409187,0.13119111398505487,0.42052114379720557,0.0005072454326387265
4704,5.0,300.73228,1206.5426,0.0,0.0,0.0,0.0,0.046883872282293154,0.0,-0.13026846870899686,-0.10811583243520188,-0.12837453201957988,0.12056188738853188,0.4243475916073466,0.01124701632824409
4705,5.0,299.77862000000005,1000.953,0.0,0.0,0.0,0.0,0.04689383909187697,0.0,-0.11059443469732089,-0.09587468806284499,-0.09779560658917491,0.0978030205401566,0.4127066043884706,-0.008348114378269742
4706,5.0,299.76847999999995,1036.8269,0.0,0.0,0.0,0.0,0.04690380590146079,0.0,-0.0934582294426091,-0.1014214714095199,-0.12028977907417689,0.08480097803170492,0.42861056782556956,-0.01164691473196099
4707,5.0,300.91163,1014.1885,0.0,0.0,0.0,0.0,0.04691377271104461,0.0,-0.10939554704649991,-0.1087668658894539,-0.09012556677720092,0.09325688854173832,0.4058857390878036,0.0004444064377420005
4708,5.0,301.09069,820.87435,0.0,0.0,0.0,0.0,0.046923739520628435,0.0,-0.027256288874736273,-0.0975379745789986,-0.12473103664749487,0.08384915013951683,0.41035553991643864,-0.012945348125606387
4709,5.0,301.05352,856.4768300000001,0.0,0.0,0.0,0.0,0.04693370633021226,0.0,-0.07941785585443213,-0.08041793775613251,-0.1005117754697399,0.08982804108408741,0.3624076737893527,-0.020993863194432978
4710,5.0,301.08921000000004,1062.2919,0.0,0.0,0.0,0.0,0.046943673139796076,0.0,-0.07521208064410442,-0.11199628647567289,-0.13570182985272786,0.10747355346181389,0.4144210134251696,-0.01937227191989438
4711,5.0,300.46232000000003,860.33652,0.0,0.0,0.0,0.0,0.04695363994937989,0.0,-0.08100311603338513,-0.08315351240261272,-0.09736419002784741,0.1234032838489559,0.41878476749833854,-0.04651422464009655
4712,5.0,300.37471,946.55671,0.0,0.0,0.0,0.0,0.046963606758963716,0.0,-0.06666967403928453,-0.1064095293993029,-0.11465039378761288,0.13131021140180887,0.44421534890564157,-0.03649602939712766
4713,5.0,300.47727000000003,1095.7747,0.0,0.0,0.0,0.0,0.04697357356854753,0.0,-0.12118599878762688,-0.0990540956373781,-0.1128480447747349,0.095908338098666,0.39632226921146263,-0.020888834755317477
4714,5.0,300.06996000000004,937.62279,0.0,0.0,0.0,0.0,0.04698354037813135,0.0,-0.04862723106738405,-0.10085875790023441,-0.13552792573806485,0.1001299878983104,0.39758720050380164,-0.014156650116652587
4715,5.0,300.33437000000004,851.9023300000001,0.0,0.0,0.0,0.0,0.046993507187715174,0.0,-0.06849971821714584,-0.10091589507337341,-0.08954142505480062,0.1024319249392439,0.3985662635454276,0.008144896836888732
4716,5.0,299.45466,1012.3996,0.0,0.0,0.0,0.0,0.047003473997299,0.0,-0.09181021665846292,-0.08386685263201392,-0.1320671193590099,0.08985717405096261,0.4252342361073516,0.034945596650611865
4717,5.0,298.96322000000004,1188.8265,0.0,0.0,0.0,0.0,0.04701344080688282,0.0,-0.13071049906512186,-0.10470523259860191,-0.12595783933857088,0.0877199914762891,0.3978234194996146,-0.005561421568219574
4718,5.0,299.42357000000004,1166.4404,0.0,0.0,0.0,0.0,0.04702340761646664,0.0,-0.11140509557232689,-0.12034006667663988,-0.1228236034667459,0.09581444933114991,0.4374726963801936,-0.01035789037874419
4719,5.0,299.96421000000004,1122.5373,0.0,0.0,0.0,0.0,0.047033374426050455,0.0,-0.13432693052703587,-0.09767378251640181,-0.1092225953869309,0.11726026260018689,0.42842434258969064,-0.007123972380631333
4720,5.0,299.32831,1047.6981,0.0,0.0,0.0,0.0,0.04704334123563428,0.0,-0.08856738672042051,-0.0975718981923466,-0.13233478963792686,0.12545474039891888,0.41842033183487154,-0.003380259582230647
4721,5.0,299.29096,882.0667699999999,0.0,0.0,0.0,0.0,0.047053308045218095,0.0,-0.0981501995411705,-0.05384462605830086,-0.1161314513262819,0.1054345396230789,0.39008738670862764,-0.0016963126938880281
4722,5.0,300.17176,1047.9302,0.0,0.0,0.0,0.0,0.04706327485480191,0.0,-0.08484123851117832,-0.1095592072026519,-0.12414417232207588,0.09898395947870621,0.3928614121699026,-0.01741440725516818
4723,5.0,301.17614,1001.8895,0.0,0.0,0.0,0.0,0.04707324166438574,0.0,-0.09233430710043661,-0.08447190986297842,-0.12774317588226985,0.09005102095409383,0.39358057656087864,-0.014128116993836587
4724,5.0,300.97092999999995,680.64345,0.0,0.0,0.0,0.0,0.04708320847396956,0.0,-0.05384205949579754,-0.06643604085772674,-0.08662051277952901,0.08679087558509252,0.4191051571799586,-0.030339111423237173
4725,5.0,300.48741,789.44016,0.0,0.0,0.0,0.0,0.04709317528355338,0.0,-0.05118815888687795,-0.10029122942647371,-0.08849070699260281,0.0951480266343791,0.3985419860730316,-0.017734929672551285
4726,5.0,299.37747,1104.7035,0.0,0.0,0.0,0.0,0.0471031420931372,0.0,-0.08662572595129352,-0.12072530436465989,-0.12845123505214986,0.1000196297636689,0.39652244690121863,-0.04487109065518186
4727,5.0,299.33842999999996,1053.2786,0.0,0.0,0.0,0.0,0.04711310890272102,0.0,-0.07489490904480203,-0.12909099103278887,-0.11618448483651587,0.13193757533372488,0.3956176956219266,0.014975077553675088
4728,5.0,299.35997000000003,804.31439,0.0,0.0,0.0,0.0,0.04712307571230485,0.0,-0.054237073020782345,-0.12052276580217089,-0.06973165403322844,0.12417555267767288,0.40618697834253364,-0.049280596010116154
4729,5.0,299.78897,972.61831,0.0,0.0,0.0,0.0,0.047133042521888664,0.0,-0.08906656742193582,-0.09385434538370271,-0.1127307712081609,0.15635520048355686,0.4118713215360346,-0.005958988888756414
4730,5.0,300.82272,1027.0231,0.0,0.0,0.0,0.0,0.04714300933147249,0.0,-0.11820882681380289,-0.1114019848945199,-0.08257857808387112,0.10870275755562689,0.40546602049888064,-0.05069924139562555
4731,5.0,301.28181,1003.8912,0.0,0.0,0.0,0.0,0.047152976141056305,0.0,-0.1033680667066339,-0.07370179286655064,-0.1280879950238009,0.1056321537900819,0.41289143133921163,0.001896086907454208
4732,5.0,300.90495,1024.2741,0.0,0.0,0.0,0.0,0.04716294295064012,0.0,-0.11494216928640891,-0.061344727616503246,-0.13506686654506186,0.08454765841395422,0.4206813487705166,-0.005167544200571905
4733,5.0,301.09681,890.3968,0.0,0.0,0.0,0.0,0.04717290976022395,0.0,-0.1165892579864639,-0.03531411267223157,-0.11875501928020789,0.1123048920586299,0.4276047853788066,0.02110869989451648
4734,5.0,300.558,846.1858199999999,0.0,0.0,0.0,0.0,0.04718287656980777,0.0,-0.06995786718430393,-0.06444221999995194,-0.1228192667563179,0.08343044986694433,0.4323389127610286,-0.01253520373687829
4735,5.0,300.60616,1192.0161,0.0,0.0,0.0,0.0,0.04719284337939159,0.0,-0.12234846009735288,-0.1006348711713885,-0.13935979443624086,0.1173581222948449,0.4510847691511006,0.017407007489687883
4736,5.0,299.96042,1238.7906,0.0,0.0,0.0,0.0,0.04720281018897541,0.0,-0.1334773000531839,-0.10294580485995991,-0.14013831501807486,0.11486624645641588,0.44489823894303754,-0.00872428540306993
4737,5.0,299.08454,949.04303,0.0,0.0,0.0,0.0,0.04721277699855923,0.0,-0.08085753833851772,-0.0938726740647616,-0.11375516705926088,0.1148477242445879,0.42115236821200264,-0.002370021672127928
4738,5.0,299.96537,825.43012,0.0,0.0,0.0,0.0,0.04722274380814306,0.0,-0.07227620469135602,-0.0893142594486311,-0.08931968134991622,0.09310971801771373,0.37741969342842363,-0.03479706735820317
4739,5.0,301.15937,927.68848,0.0,0.0,0.0,0.0,0.047232710617726874,0.0,-0.09649919665597922,-0.07737818340313213,-0.10811675449279289,0.07939119927080134,0.3977916642414806,0.002133165038026998
4740,5.0,299.82457,733.68345,0.0,0.0,0.0,0.0,0.0472426774273107,0.0,-0.03891510321587167,-0.08373057555981442,-0.10037576994856721,0.1055464024341189,0.3933931354248796,-0.044064041003532256
4741,5.0,299.9468,789.60295,0.0,0.0,0.0,0.0,0.047252644236894514,0.0,-0.07613841313727633,-0.07071623219514872,-0.0931649340686631,0.11856890550183988,0.4165858121313186,-0.03825893157036256
4742,5.0,298.59668999999997,874.10136,0.0,0.0,0.0,0.0,0.04726261104647834,0.0,-0.08168341316377521,-0.05105639077762345,-0.1329651831876419,0.12733078309156987,0.4084056718215016,-0.054487594041756855
4743,5.0,299.11614,788.83223,0.0,0.0,0.0,0.0,0.04727257785606216,0.0,-0.06214570182055324,-0.07378678124518832,-0.1038528156869749,0.1145231093100509,0.44347277843735555,-0.03416638300570946
4744,5.0,299.02904,766.4345099999999,0.0,0.0,0.0,0.0,0.04728254466564598,0.0,-0.07150126290887522,-0.05699070885029504,-0.10448498242436491,0.09668066974888921,0.4359961984669746,-0.02250100179067598
4745,5.0,298.47237,953.7923099999999,0.0,0.0,0.0,0.0,0.0472925114752298,0.0,-0.09123559036775172,-0.07094230653096052,-0.12775115016055685,0.08625736293043892,0.4253705891733086,0.007308574389850133
4746,5.0,298.15786,950.33155,0.0,0.0,0.0,0.0,0.04730247828481362,0.0,-0.06294275069371584,-0.1159470094105789,-0.1099873053699019,0.1096935641659119,0.4075297171100516,-0.0012792454765016986
4747,5.0,299.88833999999997,827.32107,0.0,0.0,0.0,0.0,0.04731244509439744,0.0,-0.09115436013373492,-0.06424373646436314,-0.0960868514880339,0.0966509946932105,0.41510672029784357,0.008683822577551561
4748,5.0,300.03173,1045.15,0.0,0.0,0.0,0.0,0.04732241190398127,0.0,-0.08834795018601382,-0.1099602009297269,-0.11939135047550888,0.10680604456093588,0.4188985453520676,0.007785979232141323
4749,5.0,300.60302,1163.5631,0.0,0.0,0.0,0.0,0.04733237871356508,0.0,-0.13345418781840288,-0.09882428240869731,-0.12141565192279188,0.08115962467033133,0.4083216936532136,-0.002769718945699977
4750,5.0,300.17152000000004,1086.8339,0.0,0.0,0.0,0.0,0.04734234552314891,0.0,-0.12304617398371188,-0.07869855467469264,-0.1286256356593619,0.11581847863539388,0.40275555621637865,0.0019276133737156284
4751,5.0,298.99025,1088.3346,0.0,0.0,0.0,0.0,0.047352312332732724,0.0,-0.12270799163033588,-0.08642089845682861,-0.12169764955812289,0.11956295451244489,0.41768194608949855,-0.01942099202445268
4752,5.0,299.5069,1179.0419,0.0,0.0,0.0,0.0,0.04736227914231655,0.0,-0.09816547935267851,-0.09403376157890972,-0.16620007017766986,0.1188139195085209,0.4127183986196346,-0.0015856354867900386
4753,5.0,300.11827,1076.3689,0.0,0.0,0.0,0.0,0.04737224595190037,0.0,-0.1095509390818359,-0.09144385885955622,-0.1261944737669249,0.1067541864208179,0.4184078080636356,-0.02091095299175038
4754,5.0,300.21915,1103.2064,0.0,0.0,0.0,0.0,0.04738221276148419,0.0,-0.06135156401492794,-0.13280853472218188,-0.14118710993158287,0.1047222349352799,0.4042105833599786,-0.02059990446280228
4755,5.0,300.27207000000004,1002.8989,0.0,0.0,0.0,0.0,0.04739217957106801,0.0,-0.1097654643930079,-0.08358426021887422,-0.1115065016423349,0.09735189018488351,0.4226268092275186,-0.016131428965298084
4756,5.0,300.17507,819.13073,0.0,0.0,0.0,0.0,0.04740214638065183,0.0,-0.07624790595633242,-0.08279276800926001,-0.08995461527332932,0.07982506688412072,0.4141392083073576,-0.01056081296302109
4757,5.0,299.80574,845.24289,0.0,0.0,0.0,0.0,0.04741211319023565,0.0,-0.05661054754527604,-0.1069987444649539,-0.09332344286130671,0.06780681220251134,0.44432723198168356,-0.01027517775983109
4758,5.0,299.6983,1088.3113,0.0,0.0,0.0,0.0,0.047422079999819476,0.0,-0.06884140742911793,-0.1230010843542619,-0.13897697841595988,0.1139453946330349,0.4131048623402756,-0.017291522309540383
4759,5.0,299.66685,1041.5385,0.0,0.0,0.0,0.0,0.04743204680940329,0.0,-0.07473888068840323,-0.13038052403755587,-0.1114822748324439,0.11095468563787489,0.4293133479624286,-0.014673418813403687
4760,5.0,299.60105,842.19425,0.0,0.0,0.0,0.0,0.04744201361898712,0.0,-0.04534926161587366,-0.08885861810391282,-0.12179814370304089,0.11441082093396888,0.41744266707838357,-0.02623476558766977
4761,5.0,299.89697,1040.8101,0.0,0.0,0.0,0.0,0.04745198042857093,0.0,-0.12160614294159189,-0.09228081458790732,-0.1024933380278049,0.10535299325503089,0.4237933742001496,-0.012811858504431988
4762,5.0,299.86855,1110.5943,0.0,0.0,0.0,0.0,0.04746194723815476,0.0,-0.1314991724129579,-0.09840367722593682,-0.10769009514068491,0.08878392434629111,0.39080122140407764,-0.02307529776185458
4763,5.0,299.6792,834.10586,0.0,0.0,0.0,0.0,0.04747191404773858,0.0,-0.09383847484738642,-0.06372061266298484,-0.09598826529305422,0.11407042969537488,0.39723022236107064,-0.021415499865795277
4764,5.0,299.34036000000003,834.21267,0.0,0.0,0.0,0.0,0.047481880857322405,0.0,-0.0935039624858726,-0.06190790012808403,-0.0981679577624231,0.12365624173642088,0.4036946060115556,-0.0005395596907203954
4765,5.0,300.14883,1033.2445,0.0,0.0,0.0,0.0,0.04749184766690622,0.0,-0.09468793408197151,-0.08394800484577301,-0.1354446061823419,0.1144882433741099,0.4427394589424826,-0.012248547177587488
4766,5.0,299.58731,931.43795,0.0,0.0,0.0,0.0,0.04750181447649004,0.0,-0.060618611316591145,-0.09444760027750242,-0.12806766922679488,0.08594903903100973,0.4088027645356916,-0.013197096192451989
4767,5.0,300.66003,1102.858,0.0,0.0,0.0,0.0,0.04751178128607386,0.0,-0.1142368864218029,-0.10525845702070089,-0.11574596032573688,0.10773345211246389,0.4344214963540636,0.004613017346794365
4768,5.0,301.07617,1165.5988,0.0,0.0,0.0,0.0,0.04752174809565768,0.0,-0.13636995683616687,-0.08335868237561142,-0.13458429605243588,0.0947276342341396,0.41297375790983665,0.01986340741561568
4769,5.0,300.40677,908.53481,0.0,0.0,0.0,0.0,0.047531714905241496,0.0,-0.08005318190563393,-0.1129851780432689,-0.08313353516364112,0.1261997122699419,0.4359326271557006,-0.009088097715075412
4770,5.0,300.22649,970.80038,0.0,0.0,0.0,0.0,0.04754168171482532,0.0,-0.08511160910161182,-0.1023492437310839,-0.1076382167355649,0.07330832961421883,0.3847653209558806,-0.035355067228023465
4771,5.0,299.30208999999996,1156.3814,0.0,0.0,0.0,0.0,0.047551648524409136,0.0,-0.09553909253697432,-0.11631700781709488,-0.13965497445537287,0.12789714936746588,0.3958577649681196,-0.02797151881557397
4772,5.0,299.00586,828.9356799999999,0.0,0.0,0.0,0.0,0.04756161533399297,0.0,-0.038099780377155563,-0.09815448052284301,-0.1157214903358219,0.1258068042786649,0.4041204142335796,-0.04559122877950396
4773,5.0,299.48814,636.90984,0.0,0.0,0.0,0.0,0.047571582143576784,0.0,-0.05689709163380575,-0.06945552919547704,-0.06725206790526235,0.12249353724667088,0.42709007459300863,-0.04249414068284516
4774,5.0,299.9333,799.6236200000001,0.0,0.0,0.0,0.0,0.0475815489531606,0.0,-0.07617148663379043,-0.08429846171086042,-0.08259566654680763,0.1138143003350969,0.3836703522353156,-0.055376531526738146
4775,5.0,300.42256000000003,932.02341,0.0,0.0,0.0,0.0,0.047591515762744424,0.0,-0.10921163202084891,-0.09262271962215071,-0.08147749541220273,0.0928465648077425,0.4221553844859926,-0.034903571089464264
4776,5.0,300.68417,868.50405,0.0,0.0,0.0,0.0,0.04760148257232824,0.0,-0.09426200730968581,-0.07424334667399783,-0.09549819168343772,0.12654741917425788,0.4147767554027786,-0.008192872101298522
4777,5.0,301.62358,995.7832599999999,0.0,0.0,0.0,0.0,0.04761144938191206,0.0,-0.07681726638627392,-0.1072618956484249,-0.11861407619129788,0.11082086569716788,0.4181978018479096,-0.017770615327823182
4778,5.0,301.01141,1122.5442,0.0,0.0,0.0,0.0,0.04762141619149589,0.0,-0.06954117010717914,-0.12060603469538889,-0.15107819396275685,0.09913553358766541,0.39046076937047763,0.0027324628540980876
4779,5.0,299.65819,1059.0817,0.0,0.0,0.0,0.0,0.047631383001079705,0.0,-0.09693236310022942,-0.09738415916081822,-0.12761787737490388,0.09179968291042331,0.39080367346931966,-0.002127526807845548
4780,5.0,299.37442999999996,1183.7839,0.0,0.0,0.0,0.0,0.04764134981066353,0.0,-0.1011143857017129,-0.10505030505265789,-0.15367605576164586,0.12979999252526186,0.4204652934516936,0.026232668159962773
4781,5.0,299.52898999999996,1032.5419,0.0,0.0,0.0,0.0,0.047651316620247346,0.0,-0.14594630512127885,-0.06519577207282173,-0.10272487580815591,0.12176170722944489,0.4369025608139256,0.0006033794205214124
4782,5.0,298.61938,532.5090799999999,0.0,0.0,0.0,0.0,0.04766128342983116,0.0,-0.04894605933059995,-0.033092768531001966,-0.07983063570667033,0.15082712072047785,0.42047098791725557,-0.005999718503026114
4783,5.0,300.62156,782.8627299999999,0.0,0.0,0.0,0.0,0.04767125023941499,0.0,-0.07245826242957373,-0.06247265128332065,-0.1030398040717369,0.10934028438604589,0.4416698417394196,-0.05101686490447255
4784,5.0,300.20176000000004,1162.3173,0.0,0.0,0.0,0.0,0.04768121704899881,0.0,-0.09686275585810972,-0.07683475305649973,-0.17961793330190984,0.1224936284391799,0.45193845262535254,0.0008170316343472442
4785,5.0,299.49161000000004,838.40546,0.0,0.0,0.0,0.0,0.047691183858582634,0.0,-0.12507892593682887,-0.05503728728725735,-0.07473811163157733,0.08293492294528962,0.42277966813760465,-0.03770956763114457
4786,5.0,300.23248,781.01383,0.0,0.0,0.0,0.0,0.04770115066816645,0.0,-0.07667112532435093,-0.06858537331434934,-0.09215220376596442,0.08010011869001622,0.4052203377471336,-0.02645123025953318
4787,5.0,299.36349,930.37255,0.0,0.0,0.0,0.0,0.04771111747775027,0.0,-0.12548278716168687,-0.08167521191746582,-0.07565202370502343,0.08063924373697372,0.3980064428651776,-0.002129923954932128
4788,5.0,299.81445,1205.8552,0.0,0.0,0.0,0.0,0.0477210842873341,0.0,-0.08816698270490372,-0.12167089975548288,-0.15671198610876885,0.10731352074101988,0.4199507042559076,0.005776224915219015
4789,5.0,300.90567000000004,1306.6414,0.0,0.0,0.0,0.0,0.047731051096917915,0.0,-0.08287739161786173,-0.13819927856670686,-0.17610968655317283,0.1210435155585649,0.42010838623646957,-0.006987239852511884
4790,5.0,299.96868,1139.9249,0.0,0.0,0.0,0.0,0.04774101790650174,0.0,-0.06579445393415703,-0.13247642173690485,-0.14823782088493387,0.12558305839158287,0.4035438850591806,-0.013909825432042887
4791,5.0,300.49945,900.27541,0.0,0.0,0.0,0.0,0.047750984716085555,0.0,-0.06917633826292303,-0.09569839875744661,-0.1087865128088929,0.12018588040892288,0.3991752268555276,-0.02043912295018438
4792,5.0,300.7756,810.49147,0.0,0.0,0.0,0.0,0.04776095152566937,0.0,-0.05777281431098285,-0.08737227241297191,-0.1012240801575389,0.1122243792056839,0.4004099632948866,-0.022912695438806977
4793,5.0,300.14387,908.9971300000001,0.0,0.0,0.0,0.0,0.0477709183352532,0.0,-0.11278457478847088,-0.098648976969146,-0.06487887607754654,0.10801294702004789,0.4254139258800856,-0.03579930140311596
4794,5.0,300.24301,1019.9914,0.0,0.0,0.0,0.0,0.04778088514483702,0.0,-0.0858642999118966,-0.09494554177414541,-0.12924206662269888,0.08787646363623172,0.4176030037742076,-0.04232972058911816
4795,5.0,300.17955,714.45512,0.0,0.0,0.0,0.0,0.04779085195442084,0.0,-0.04666471457144875,-0.07715686323678952,-0.093354937714165,0.1007933667917808,0.43149808743054563,-0.04675183989454736
4796,5.0,298.73494,836.5935900000001,0.0,0.0,0.0,0.0,0.04780081876400466,0.0,-0.07842359203480592,-0.07311277335816893,-0.1027671992648329,0.07352865679546343,0.44560141424743555,-0.002706826917293018
4797,5.0,300.22544,1358.8581,0.0,0.0,0.0,0.0,0.04781078557358848,0.0,-0.14614588499347586,-0.1088379048539649,-0.15807514186580185,0.10676254573414289,0.4476229292569436,-0.003972567796461916
4798,5.0,299.56342,1244.2093,0.0,0.0,0.0,0.0,0.04782075238317231,0.0,-0.14659455213775585,-0.1006988822332059,-0.13091512492281687,0.08834720646044042,0.43452609416188653,-0.012986696835687189
4799,5.0,300.0555,1075.6227,0.0,0.0,0.0,0.0,0.047830719192756124,0.0,-0.12857825608468587,-0.07666525151352123,-0.1217189278102229,0.11497286063193789,0.4273007799513036,0.021618828763362276
4800,5.0,300.9028,1021.4821,0.0,0.0,0.0,0.0,0.04784068600233995,0.0,-0.08273253130406512,-0.07321091980260523,-0.15456160595154284,0.13770013130244488,0.4327231675964516,0.01283377003784449
4801,5.0,300.27932000000004,968.4730900000001,0.0,0.0,0.0,0.0,0.047850652811923765,0.0,-0.06205786418263434,-0.1128542863953509,-0.11947948296920688,0.12319034934044089,0.42471574589868055,-0.009504975049393002
4802,5.0,299.31526,956.79661,0.0,0.0,0.0,0.0,0.04786061962150758,0.0,-0.0924362248617451,-0.08371467259949492,-0.11469137975415788,0.10154430771914291,0.3886586432726216,-0.04508487122753036
4803,5.0,301.72642,1027.1852,0.0,0.0,0.0,0.0,0.04787058643109141,0.0,-0.100562783493024,-0.1043022832988339,-0.1073735760744469,0.10132296019504759,0.3763923591520336,-0.015887846681008386
4804,5.0,300.75935,570.68458,0.0,0.0,0.0,0.0,0.04788055324067523,0.0,-0.05320321645349865,-0.04171129352308416,-0.07855935133620433,0.1060355083898899,0.4119514898839466,-0.03543828647198657
4805,5.0,300.84947999999997,761.68817,0.0,0.0,0.0,0.0,0.04789052005025905,0.0,-0.07893753275052794,-0.0864337414018461,-0.06616291017402084,0.13685194977623585,0.4154039268171756,-0.019717452791711082
4806,5.0,300.1826,1417.3159,0.0,0.0,0.0,0.0,0.04790048685984287,0.0,-0.11906908628120388,-0.13500998268444786,-0.17674957425632482,0.10042777703644991,0.4517518930169405,-0.058488828507397936
4807,5.0,299.45436,1314.5643,0.0,0.0,0.0,0.0,0.04791045366942669,0.0,-0.13548350485368085,-0.09243077256295701,-0.17168045625854184,0.1067700336523819,0.41637725486323557,0.006264914627848933
4808,5.0,299.91183,978.39909,0.0,0.0,0.0,0.0,0.04792042047901052,0.0,-0.07120065186920724,-0.1027489404980309,-0.12345929631448388,0.07975048863701042,0.44400608236248856,-0.02104948758517268
4809,5.0,300.38197,957.6702,0.0,0.0,0.0,0.0,0.047930387288594334,0.0,-0.0983748208763389,-0.07904275776016283,-0.11369024812535389,0.09668116016193759,0.4393833820937636,-0.000887402775849835
4810,5.0,299.58027000000004,1013.4149,0.0,0.0,0.0,0.0,0.04794035409817816,0.0,-0.1142981475228489,-0.09136256681728332,-0.10239211434281491,0.07491994949452332,0.4133313338701266,-0.01087598845962649
4811,5.0,300.3285,1024.0397,0.0,0.0,0.0,0.0,0.047950320907761974,0.0,-0.1082786921237749,-0.1095795836621629,-0.09342422274275292,0.0991747575122865,0.4095664612685626,-0.01182515657030209
4812,5.0,299.09664,933.9798699999999,0.0,0.0,0.0,0.0,0.0479602877173458,0.0,-0.046240481953330255,-0.08913424746236531,-0.14853183566645087,0.12568160709630888,0.4356302023983536,0.004735646548096925
4813,5.0,299.64235,911.93705,0.0,0.0,0.0,0.0,0.04797025452692962,0.0,-0.06284573199664084,-0.10451973690279491,-0.1098406272854259,0.16043495068619684,0.42588416511899463,-0.04041240315364367
4814,5.0,301.44345,1001.9223,0.0,0.0,0.0,0.0,0.04798022133651344,0.0,-0.052957908604288645,-0.11884460072154888,-0.1327568488345809,0.1298129519940409,0.40542846945017463,-0.03855006568184526
4815,5.0,301.75532000000004,1072.8974,0.0,0.0,0.0,0.0,0.04799018814609726,0.0,-0.12375053479072688,-0.07988443320747972,-0.12249904932721489,0.1072492198896739,0.38995758937081765,-0.03804269082677126
4816,5.0,300.98514,1154.1054,0.0,0.0,0.0,0.0,0.04800015495568108,0.0,-0.13283712864000385,-0.09882949051421132,-0.11915260848694689,0.1248313585398959,0.4255855907120276,0.01049600548662509
4817,5.0,302.08136,981.26285,0.0,0.0,0.0,0.0,0.0480101217652649,0.0,-0.1034648118261819,-0.07364664369010784,-0.12116794267084488,0.10813355417945089,0.4304144671111006,-0.02860871937946077
4818,5.0,300.39259,791.68777,0.0,0.0,0.0,0.0,0.04802008857484873,0.0,-0.04316371053442655,-0.07130258989551773,-0.12618701624618886,0.10917999835272689,0.43838290907752453,0.0026623861732070573
4819,5.0,299.8898,1075.8586,0.0,0.0,0.0,0.0,0.04803005538443254,0.0,-0.11596758852010988,-0.09713614086759072,-0.1139304187965569,0.06765893442991694,0.4070482307950326,-0.027532381288484474
4820,5.0,300.16700000000003,1117.9818,0.0,0.0,0.0,0.0,0.04804002219401637,0.0,-0.09636647913138101,-0.07859596816831813,-0.16487609680200382,0.08951002139445133,0.46119034809594356,0.014914693927215686
4821,5.0,299.43751000000003,876.52866,0.0,0.0,0.0,0.0,0.048049989003600184,0.0,-0.09148177569154832,-0.1127250666100979,-0.062235986457463637,0.1045685248951099,0.45587507111886655,-0.05669133093599874
4822,5.0,299.38437999999996,958.159,0.0,0.0,0.0,0.0,0.04805995581318401,0.0,-0.09069560101845892,-0.1073080289254779,-0.09325277981258281,0.12306585130065388,0.4586786125555546,-0.026492363147342674
4823,5.0,301.29047,937.6156199999999,0.0,0.0,0.0,0.0,0.048069922622767824,0.0,-0.0984039882937175,-0.07834488378028802,-0.1082628651572129,0.13288065786429987,0.3940568851678866,-0.018002881634996082
4824,5.0,301.03422,890.90307,0.0,0.0,0.0,0.0,0.04807988943235164,0.0,-0.051151444782754546,-0.1063142838899029,-0.11334656382393488,0.1164919657118619,0.40708736251389466,-0.03177298697099967
4825,5.0,300.16647,1048.8226,0.0,0.0,0.0,0.0,0.048089856241935465,0.0,-0.09954336067341481,-0.06664794995714053,-0.15262456560287185,0.14087164464544888,0.3756733670135747,-0.014583532383782589
4826,5.0,300.70782,1074.3572,0.0,0.0,0.0,0.0,0.04809982305151928,0.0,-0.06964902855382393,-0.11765686895432889,-0.13927186459256286,0.1068816938134019,0.37954730585590263,-0.04698550853985865
4827,5.0,299.34661,691.42898,0.0,0.0,0.0,0.0,0.0481097898611031,0.0,-0.0995254839019005,-0.04195333668047196,-0.06869832536924683,0.10718731030856389,0.3775710831258646,-0.028014216161537875
4828,5.0,299.00787,972.42929,0.0,0.0,0.0,0.0,0.04811975667068693,0.0,-0.11358313745728289,-0.05617780565281775,-0.12583328050377787,0.1092777060598699,0.4252286328342986,-0.007659620155895653
4829,5.0,299.59278,1394.5806,0.0,0.0,0.0,0.0,0.048129723480270746,0.0,-0.15683542023595085,-0.12754206600242188,-0.13954021374904688,0.11901402627076989,0.45909017448117256,-0.0035408611416307863
4830,5.0,300.4106,1073.3903,0.0,0.0,0.0,0.0,0.04813969028985457,0.0,-0.08550742106767542,-0.097268454105399,-0.14350797955063485,0.10054090843661509,0.44834898374859955,-0.019686334867889982
4831,5.0,300.95851,854.3330800000001,0.0,0.0,0.0,0.0,0.04814965709943839,0.0,-0.06315398800831334,-0.0913531314323521,-0.10518880620882691,0.0963336204438881,0.4066837951315656,-0.02331424645343698
4832,5.0,299.96811,1027.8789,0.0,0.0,0.0,0.0,0.0481596239090222,0.0,-0.07551412239291364,-0.1189106544955679,-0.11802473953563489,0.1011221370649779,0.4324264778346706,-0.026594799692702373
4833,5.0,298.82339,1048.9111,0.0,0.0,0.0,0.0,0.048169590718606034,0.0,-0.1116688749708599,-0.09179004183572181,-0.1153838551374999,0.08182141782739523,0.4244864170035476,-0.015148570288797486
4834,5.0,300.32559,941.7706400000001,0.0,0.0,0.0,0.0,0.04817955752818985,0.0,-0.07234221692212092,-0.12293486846022689,-0.09099767721777151,0.10757660099698389,0.41916655000351766,-0.032970606032695464
4835,5.0,300.72234,783.88652,0.0,0.0,0.0,0.0,0.048189524337773675,0.0,-0.06263366888321184,-0.05899430655828474,-0.1166539540053489,0.1066765410656549,0.40390884761269963,0.01044007408110509
4836,5.0,300.55023,616.63007,0.0,0.0,0.0,0.0,0.04819949114735749,0.0,-0.04940837191397666,-0.03647450289875317,-0.1015572671879219,0.15174680730624385,0.4123436075401456,0.01060064585095229
4837,5.0,300.9445,1011.4383,0.0,0.0,0.0,0.0,0.04820945795694131,0.0,-0.07869091172918834,-0.1081910561226259,-0.12057001365433387,0.16447683573259983,0.4045419262751796,0.00882618725635186
4838,5.0,301.07412999999997,1544.991,0.0,0.0,0.0,0.0,0.04821942476652514,0.0,-0.14257898119644985,-0.1372531258883289,-0.1898065683574498,0.12160117801610189,0.4116305125172686,-0.034305086811898464
4839,5.0,300.23441,1393.1158,0.0,0.0,0.0,0.0,0.048229391576108956,0.0,-0.15517253496683686,-0.12219372667458189,-0.14610614532455388,0.10689323473204089,0.39499482038795364,0.012642593048726789
4840,5.0,300.79865,825.5211400000001,0.0,0.0,0.0,0.0,0.04823935838569278,0.0,-0.09002569476784432,-0.09670519546755972,-0.06420692306172994,0.058737020066392545,0.45567524806664556,-0.05609356910575424
4841,5.0,299.80537999999996,848.26084,0.0,0.0,0.0,0.0,0.048249325195276596,0.0,-0.08411622969362552,-0.06490205822658444,-0.10883182535336489,0.0951165702850246,0.46114201606617355,-0.002971755341439417
4842,5.0,299.78177999999997,1080.1186,0.0,0.0,0.0,0.0,0.04825929200486041,0.0,-0.07951808452782393,-0.1344808330847249,-0.11433017635850991,0.06946951508660734,0.4179136763873686,-0.06342021237933763
4843,5.0,300.33317999999997,729.34113,0.0,0.0,0.0,0.0,0.048269258814444244,0.0,-0.031126345955931174,-0.07385686066185464,-0.11671828525419788,0.09213705061071892,0.4117041960645406,0.002981747811275597
4844,5.0,299.84795,582.57627,0.0,0.0,0.0,0.0,0.04827922562402806,0.0,-0.016837161712948485,-0.07134759035895893,-0.0889038870786305,0.1364523543342989,0.4375375241215916,-0.023602609325896178
4845,5.0,299.99573,901.0228400000001,0.0,0.0,0.0,0.0,0.048289192433611884,0.0,-0.08507919624416292,-0.09864906613515481,-0.09016018142711711,0.15921151198545286,0.44921248561632054,-0.0020104292428139185
4846,5.0,300.56687999999997,1075.6675,0.0,0.0,0.0,0.0,0.0482991592431957,0.0,-0.1013804043829669,-0.09230095799989532,-0.13329470225266288,0.11986312985456987,0.4065112589045376,-0.013920619585358186
4847,5.0,302.14729,1326.2814,0.0,0.0,0.0,0.0,0.04830912605277952,0.0,-0.13832994729960285,-0.11853880184136889,-0.14628766907996887,0.09310794786978902,0.39116633594511163,-0.013577861394530587
4848,5.0,300.88735,1435.9709,0.0,0.0,0.0,0.0,0.04831909286236335,0.0,-0.15861956114453185,-0.1022997059336949,-0.17558001006339782,0.1086133990293079,0.4460739434315706,-0.011574958776109489
4849,5.0,301.06216,1114.4371,0.0,0.0,0.0,0.0,0.048329059671947165,0.0,-0.10808389479204988,-0.08842837589945123,-0.14224876298885986,0.0904456180332875,0.44002790034987255,-0.05359356092202265
4850,5.0,300.20942,778.34198,0.0,0.0,0.0,0.0,0.04833902648153099,0.0,-0.06878478093402933,-0.0988593216104054,-0.06895242518957452,0.09858000300833882,0.4040288670870446,-0.038696880555084766
4851,5.0,299.64416,944.5871900000001,0.0,0.0,0.0,0.0,0.048348993291114806,0.0,-0.1143078240613039,-0.06157771231799704,-0.1112453870915649,0.07428480076208903,0.3999276967772906,-0.014470928886919485
4852,5.0,299.32361000000003,887.7292800000001,0.0,0.0,0.0,0.0,0.04835896010069862,0.0,-0.09042654360015502,-0.06818782058461394,-0.1112331672953589,0.1376979122847259,0.4454398413864896,0.02334612228833288
4853,5.0,300.43425,527.68868,0.0,0.0,0.0,0.0,0.04836892691028245,0.0,-0.046524403750601157,-0.04808128178100305,-0.06579849477555584,0.14119165942453185,0.45849305606474156,-0.005874390104782165
4854,5.0,300.29985,662.80885,0.0,0.0,0.0,0.0,0.04837889371986627,0.0,-0.028065061051555873,-0.07106904790646892,-0.1023432351579909,0.12027462085268088,0.4308542277870016,0.012197945467593488
4855,5.0,300.87602999999996,1179.0538,0.0,0.0,0.0,0.0,0.048388860529450094,0.0,-0.09875909091051341,-0.1172342018076149,-0.14240962657473588,0.07521553076069493,0.4097201307787286,-0.020209613696533582
4856,5.0,299.44288,1512.7087,0.0,0.0,0.0,0.0,0.04839882733903391,0.0,-0.12574720490778288,-0.15532712653459385,-0.17875134102138385,0.1083267201785149,0.4377010018927256,-0.015659913031263087
4857,5.0,299.14993,1397.5219,0.0,0.0,0.0,0.0,0.04840879414861773,0.0,-0.15443217338376886,-0.13328328292403588,-0.13709631530285288,0.1026216864179719,0.4468871475643275,-0.02159273453353698
4858,5.0,299.36143,1104.6409,0.0,0.0,0.0,0.0,0.04841876095820156,0.0,-0.09100918773890751,-0.1180571939363379,-0.12671687512098187,0.10341822258658391,0.38663851641575064,-0.037108345551808565
4859,5.0,300.00317,597.2481700000001,0.0,0.0,0.0,0.0,0.048428727767785375,0.0,-0.08107805398428092,-0.03942779358097026,-0.061042683841193844,0.09433523996066331,0.37216497840982365,-0.013197006013193088
4860,5.0,300.20119,642.12122,0.0,0.0,0.0,0.0,0.0484386945773692,0.0,-0.028369539666855573,-0.07927209982754713,-0.08754717660548361,0.13954736729475287,0.42782911895094655,-0.04426860505297116
4861,5.0,300.65537,908.13759,0.0,0.0,0.0,0.0,0.048448661386953015,0.0,-0.08197397073595102,-0.07743943538492723,-0.11663774200374889,0.14689689583509485,0.4677224573831126,-0.053896716232691745
4862,5.0,300.25876,788.15982,0.0,0.0,0.0,0.0,0.04845862819653683,0.0,-0.07932406841192603,-0.06479632760514964,-0.09546050992546881,0.12792049464976987,0.4355535196307856,-0.03500833507030367
4863,5.0,301.07299,689.45929,0.0,0.0,0.0,0.0,0.04846859500612066,0.0,-0.06968263805964094,-0.08356330722005632,-0.05633246206858115,0.1009324049705028,0.40915982373843063,-0.023486745190211274
4864,5.0,300.36046,1040.7278,0.0,0.0,0.0,0.0,0.04847856181570448,0.0,-0.08970350048779623,-0.09317004692866772,-0.1334817178236199,0.1022156264403969,0.4231288239895636,0.016778742778432984
4865,5.0,300.17195,1411.7661,0.0,0.0,0.0,0.0,0.0484885286252883,0.0,-0.14130071553279488,-0.13043543206047487,-0.15740550513971385,0.1093773288097019,0.43949429244970956,-0.0022527959309586476
4866,5.0,299.60576000000003,1406.5120000000002,0.0,0.0,0.0,0.0,0.04849849543487212,0.0,-0.1070596002659599,-0.12766422343447786,-0.19282069356242082,0.08769688937400912,0.3855074861241266,0.004076081831977957
4867,5.0,300.34668,1319.2766,0.0,0.0,0.0,0.0,0.04850846224445594,0.0,-0.11980092643093089,-0.12510481447688387,-0.15612140315548284,0.096403665410051,0.3924397988032926,-0.01795117446914298
4868,5.0,299.70779,958.90046,0.0,0.0,0.0,0.0,0.04851842905403977,0.0,-0.10445026847593891,-0.07517150707035013,-0.1118600144697239,0.13842238610622587,0.4366437159433796,0.0001024153177701049
4869,5.0,300.74735,816.02275,0.0,0.0,0.0,0.0,0.048528395863623584,0.0,-0.08598058859937342,-0.06277674790333264,-0.0992932023959761,0.1359517175923899,0.46129353748612756,-0.023257443652830976
4870,5.0,299.58019,876.0089800000001,0.0,0.0,0.0,0.0,0.04853836267320741,0.0,-0.1102647332472819,-0.05580187770671654,-0.1002182490747711,0.11631022917392587,0.4185506864602366,-0.015441314454689086
4871,5.0,299.68421,962.9628,0.0,0.0,0.0,0.0,0.048548329482791225,0.0,-0.1031176723419219,-0.061174130750166644,-0.1284248398870449,0.09879767750082159,0.4054504468448436,-0.006339629258422693
4872,5.0,300.60997000000003,1018.9437,0.0,0.0,0.0,0.0,0.04855829629237504,0.0,-0.06370049255574914,-0.10620389029150788,-0.13982906095505387,0.1032755569725039,0.43799993093722756,-0.04532341867207316
4873,5.0,301.08529,1064.2875,0.0,0.0,0.0,0.0,0.048568263101958865,0.0,-0.06883512933149834,-0.13106299864241086,-0.12361871095271688,0.10727900944261391,0.44880906008900556,-0.05027920464617115
4874,5.0,300.45497,1275.8105,0.0,0.0,0.0,0.0,0.04857822991154269,0.0,-0.1174367606351059,-0.13746823888455886,-0.13290952535964887,0.09919644005117641,0.4060060017421726,-0.04110900449139286
4875,5.0,300.67792000000003,1303.6173,0.0,0.0,0.0,0.0,0.04858819672112651,0.0,-0.1270589078247379,-0.13199779278716786,-0.13721042752911486,0.1215110595522079,0.4085790591786136,0.006775739498188425
4876,5.0,300.29819,907.78633,0.0,0.0,0.0,0.0,0.04859816353071033,0.0,-0.07816796220682722,-0.09934122437121551,-0.0984351903172969,0.14160481215280687,0.4429565173789046,-0.005270779896285474
4877,5.0,300.62537000000003,716.42384,0.0,0.0,0.0,0.0,0.04860813034029415,0.0,-0.038585599349602165,-0.06552167586148594,-0.11366768304562688,0.14372788521983787,0.4487464209678236,0.02062636244941348
4878,5.0,300.76757000000003,864.5418300000001,0.0,0.0,0.0,0.0,0.04861809714987797,0.0,-0.04192523925519896,-0.089338799352803,-0.13153509212900288,0.08832903280664682,0.3860598594161416,-0.038342729380132765
4879,5.0,299.13286,878.54482,0.0,0.0,0.0,0.0,0.04862806395946179,0.0,-0.09021233746276451,-0.056923071366369746,-0.11992027716020988,0.1017588836928199,0.4082147653701606,-0.03210217065023757
4880,5.0,300.22906,1043.1702,0.0,0.0,0.0,0.0,0.04863803076904561,0.0,-0.1213682115531099,-0.09283126169148222,-0.10289823276776491,0.1026935461150639,0.4546738225953125,-0.05399052900645035
4881,5.0,300.03843,841.93839,0.0,0.0,0.0,0.0,0.04864799757862943,0.0,-0.1021770621415909,-0.07642841038214683,-0.07732277382141363,0.1119635483649419,0.4888791397361145,-0.04255023015538076
4882,5.0,299.52473,667.51089,0.0,0.0,0.0,0.0,0.048657964388213244,0.0,-0.09604273356542982,-0.04464650073076655,-0.06221740953013023,0.08415029921498791,0.4304656261086496,-0.01081803663340709
4883,5.0,299.18529,1117.2708,0.0,0.0,0.0,0.0,0.048667931197797075,0.0,-0.1068247491577819,-0.09272087417258781,-0.14007680060450386,0.1039058593297099,0.4194382530178326,-0.013306395480738989
4884,5.0,299.72154,1302.2975,0.0,0.0,0.0,0.0,0.04867789800738089,0.0,-0.1050398787091289,-0.09384474483900522,-0.19698130112304083,0.13547305824514988,0.43486800527563063,0.01129834251205959
4885,5.0,300.11411,1023.4966,0.0,0.0,0.0,0.0,0.048687864816964715,0.0,-0.07418395400613623,-0.1092024418424419,-0.12773099661606788,0.1294976589604239,0.4288940549385476,-0.014639537756559885
4886,5.0,300.73887,815.5872400000001,0.0,0.0,0.0,0.0,0.04869783162654853,0.0,-0.06045424391186934,-0.08846180606000051,-0.0990021057747471,0.1205555241779039,0.38614669494971166,0.01169457599016479
4887,5.0,300.86888,975.9548199999999,0.0,0.0,0.0,0.0,0.04870779843613235,0.0,-0.13455758677979987,-0.06418113179368454,-0.09792717508815971,0.08720814413527372,0.4234596298822116,0.00838820949532682
4888,5.0,300.48523,1192.9852,0.0,0.0,0.0,0.0,0.04871776524571618,0.0,-0.12435057136744589,-0.09008984160517511,-0.14819731114593584,0.1132985965642009,0.4676865275345665,0.017364140930957284
4889,5.0,300.77288,978.62273,0.0,0.0,0.0,0.0,0.048727732055299997,0.0,-0.07754713880430673,-0.10288453362641291,-0.11704520026646188,0.09426435298366731,0.46000670985912756,-0.03723744577354977
4890,5.0,301.17816,816.24282,0.0,0.0,0.0,0.0,0.04873769886488382,0.0,-0.031631665939802364,-0.0993087699705125,-0.11717700383946987,0.08578887053470233,0.4132269184473216,-0.04513764331923855
4891,5.0,301.82216,880.7501699999999,0.0,0.0,0.0,0.0,0.04874766567446764,0.0,-0.09609381150297082,-0.10016298844081731,-0.07146926143096693,0.10755276935463189,0.39108729230481065,-0.051118563803759454
4892,5.0,301.37678,1096.0106,0.0,0.0,0.0,0.0,0.048757632484051454,0.0,-0.08150373453679233,-0.12266685367627589,-0.12898925059024788,0.13596019849572685,0.44053902423031654,-0.06581955517888434
4893,5.0,300.8333,1150.6604,0.0,0.0,0.0,0.0,0.048767599293635285,0.0,-0.13371602177674388,-0.1079501356463489,-0.1081058721867189,0.12503923693041186,0.4531273597626886,-0.03063108754555297
4894,5.0,300.49802,887.20019,0.0,0.0,0.0,0.0,0.0487775661032191,0.0,-0.05477739572935805,-0.10612017556824589,-0.10878912699415089,0.08641735917422932,0.4193097222426476,-0.03451524298863926
4895,5.0,300.40788,600.9373,0.0,0.0,0.0,0.0,0.048787532912802925,0.0,-0.05717480423446385,-0.04175858494500146,-0.08373654461615351,0.07407302946468883,0.42615836072855556,-0.006706011172681774
4896,5.0,299.98241,1013.6695,0.0,0.0,0.0,0.0,0.04879749972238674,0.0,-0.06987952977932264,-0.1020247402540579,-0.13622594359945386,0.09917144215795931,0.44850233915123455,-0.0015783721047731986
4897,5.0,299.47971,1245.5968,0.0,0.0,0.0,0.0,0.04880746653197056,0.0,-0.14525234026028985,-0.11936005117991988,-0.11401792307519289,0.1033805499478659,0.4226860742258676,-0.01241324692834209
4898,5.0,299.76752999999997,1048.3723,0.0,0.0,0.0,0.0,0.04881743334155439,0.0,-0.09040204321273701,-0.10094609397935381,-0.12733086415157788,0.09158116944685772,0.3801454375224336,0.008928775079951492
4899,5.0,299.02419,787.76247,0.0,0.0,0.0,0.0,0.048827400151138206,0.0,-0.09082479952545981,-0.06322448995027134,-0.08541082996214261,0.12222088177726188,0.38612006673708366,-0.01037258453169439
4900,5.0,299.77077,1016.5608,0.0,0.0,0.0,0.0,0.04883736696072203,0.0,-0.11101083995841689,-0.05947473301369914,-0.13852353886370886,0.16075912992319083,0.44284636696053353,0.02491329291325058
4901,5.0,299.6061,1097.8367,0.0,0.0,0.0,0.0,0.04884733377030585,0.0,-0.11229191232484889,-0.08922015485884371,-0.13220288473990888,0.13201521055638687,0.43599974484232457,-0.04779007471551316
4902,5.0,300.4167,1087.2636,0.0,0.0,0.0,0.0,0.04885730057988966,0.0,-0.12407370077762088,-0.08779404992609811,-0.11863323675068889,0.11732640756671488,0.39674564563324666,0.007686336622607363
4903,5.0,301.29062999999996,1050.0663,0.0,0.0,0.0,0.0,0.048867267389473494,0.0,-0.12697375428633387,-0.09400365386543832,-0.0982165279059666,0.09657695042890291,0.40216839804843063,-0.02966850299030327
4904,5.0,301.23165,897.42359,0.0,0.0,0.0,0.0,0.04887723419905731,0.0,-0.10893184327073589,-0.06964320540549923,-0.09421930996372191,0.10280040347060991,0.4648841817329965,-0.0042807676740788765
4905,5.0,300.26892000000004,920.94523,0.0,0.0,0.0,0.0,0.048887201008641135,0.0,-0.08385932621027112,-0.1086230553027609,-0.08746197139132451,0.09530128679150472,0.4392533517084306,-0.01115800939970979
4906,5.0,300.30556,1080.4522,0.0,0.0,0.0,0.0,0.04889716781822495,0.0,-0.08270717978656313,-0.09825634660839641,-0.14746697060635686,0.07051631997691894,0.4090589749559776,-0.008849310636883961
4907,5.0,300.25285,1132.0562,0.0,0.0,0.0,0.0,0.04890713462780877,0.0,-0.07590670513090853,-0.14920412710780084,-0.11900597093247488,0.0967873822096709,0.41865399744043263,-0.016958722340695585
4908,5.0,300.86911000000003,901.6392199999999,0.0,0.0,0.0,0.0,0.0489171014373926,0.0,-0.07241594707889754,-0.08265505516166882,-0.1190048056948599,0.13411727894884487,0.45990594213668257,-0.03673007395822606
4909,5.0,300.18563,859.98095,0.0,0.0,0.0,0.0,0.048927068246976416,0.0,-0.07893859159688243,-0.08975541536991982,-0.09271872608237582,0.16096090854810485,0.44780919502282657,-0.03011316273043777
4910,5.0,299.70697,852.77533,0.0,0.0,0.0,0.0,0.04893703505656024,0.0,-0.06798801779739494,-0.09104900644133732,-0.10018538126802731,0.10837161729044589,0.39843076160955465,-0.05687935570405535
4911,5.0,300.06588999999997,854.7529,0.0,0.0,0.0,0.0,0.048947001866144056,0.0,-0.0994729468842155,-0.058015148271149355,-0.10233544326472191,0.12273832833832989,0.3912854333618656,0.016101309092825485
4912,5.0,300.24953999999997,1021.1615,0.0,0.0,0.0,0.0,0.04895696867572787,0.0,-0.05961999660103554,-0.1136581686271879,-0.13712942831612088,0.1060388825127229,0.4244144154514416,-0.04231658582807186
4913,5.0,300.72637000000003,939.5661,0.0,0.0,0.0,0.0,0.048966935485311704,0.0,-0.0963188442176798,-0.07917265236998243,-0.11011314089982088,0.11500004613212089,0.4296953533826296,-0.006628873050518833
4914,5.0,299.22706,739.3825400000001,0.0,0.0,0.0,0.0,0.04897690229489552,0.0,-0.06074336874840374,-0.0917222827617845,-0.07228817928103784,0.08909039501128742,0.4186372990787846,-0.03669029781230047
4915,5.0,298.26502999999997,938.43969,0.0,0.0,0.0,0.0,0.048986869104479344,0.0,-0.0992023341270081,-0.09570305058865572,-0.09035684921852671,0.11675128680995489,0.45197533492899256,-0.026920273863324178
4916,5.0,299.77312,1257.9842,0.0,0.0,0.0,0.0,0.04899683591406316,0.0,-0.14269684244808187,-0.09193616161939272,-0.14776277884055086,0.12789294437955087,0.4903686781781205,-0.01060852083072949
4917,5.0,299.62664,1050.1934,0.0,0.0,0.0,0.0,0.04900680272364698,0.0,-0.08903412315373381,-0.09791719457467472,-0.13228123937014188,0.12093104479746489,0.4283501828148715,-0.007523522428963853
4918,5.0,300.3666,775.67651,0.0,0.0,0.0,0.0,0.04901676953323081,0.0,-0.04392361061917286,-0.04353523286909296,-0.14832744285627886,0.1048452434974199,0.41496728695158264,0.016539317859303584
4919,5.0,300.64856000000003,950.01681,0.0,0.0,0.0,0.0,0.049026736342814625,0.0,-0.08292386028069783,-0.06815841100046144,-0.13769911805234486,0.1080691722680969,0.4086569578463016,-0.00982812816801073
4920,5.0,300.52465,1105.2615,0.0,0.0,0.0,0.0,0.04903670315239845,0.0,-0.15072305993520785,-0.06561571155026653,-0.11963314234687189,0.10709404063685889,0.4409650654998636,0.0057185928707311744
4921,5.0,300.26369,1145.2513,0.0,0.0,0.0,0.0,0.049046669961982266,0.0,-0.12654458207397787,-0.09774409295409091,-0.12383913337947089,0.09702739988010882,0.43508760696980364,-0.04469787149758646
4922,5.0,300.10988,919.00728,0.0,0.0,0.0,0.0,0.04905663677156608,0.0,-0.1049086526886779,-0.08630126807052202,-0.08814534069601782,0.1119963979331839,0.4223514483803426,-0.01162473570052209
4923,5.0,299.39595,940.01004,0.0,0.0,0.0,0.0,0.04906660358114991,0.0,-0.06800750259681793,-0.11124348218137689,-0.10648859330460592,0.1359793286576149,0.4184123778215866,-0.028223971091239076
4924,5.0,299.11509,1080.2692,0.0,0.0,0.0,0.0,0.04907657039073373,0.0,-0.06151934708573684,-0.11813820328183287,-0.14871732122975687,0.12388639136413489,0.43710086399099657,-0.01137999425811799
4925,5.0,299.71241000000003,1028.0462,0.0,0.0,0.0,0.0,0.049086537200317554,0.0,-0.08931202523216061,-0.11184531221077289,-0.1113430238712009,0.14005725501007485,0.4077044520897966,-0.03674088635004317
4926,5.0,301.01628,947.11267,0.0,0.0,0.0,0.0,0.04909650400990137,0.0,-0.06644608824571833,-0.1102003006734229,-0.1112522163972389,0.11063214786604289,0.41778466938463665,-0.027311254652910972
4927,5.0,300.89782,702.16827,0.0,0.0,0.0,0.0,0.04910647081948519,0.0,-0.059558533863219645,-0.06605094907772113,-0.0878321379973571,0.09074889696046881,0.44166965935440156,-0.03273358656930347
4928,5.0,300.36508,893.13712,0.0,0.0,0.0,0.0,0.04911643762906901,0.0,-0.07023913325306273,-0.0951403796358744,-0.1061118669174259,0.08976230445734971,0.4830731963981126,-0.03530616169869687
4929,5.0,300.46886,1040.0433,0.0,0.0,0.0,0.0,0.04912640443865283,0.0,-0.0929840841245646,-0.07387219822861833,-0.14929091197886588,0.06793389605655353,0.45253624991935054,-0.01046496659631179
4930,5.0,299.78421000000003,1063.6406,0.0,0.0,0.0,0.0,0.04913637124823665,0.0,-0.07348656030680883,-0.10504496522463089,-0.14478865674952787,0.09618516613198681,0.4280280706080816,-0.02326806960662968
4931,5.0,299.84468,945.5772900000001,0.0,0.0,0.0,0.0,0.049146338057820475,0.0,-0.1047743463879229,-0.07463535895218643,-0.1080221777284589,0.10681119187144389,0.4006941900804376,0.0011694486824155989
4932,5.0,300.1479,1047.6545,0.0,0.0,0.0,0.0,0.04915630486740429,0.0,-0.11935968640988388,-0.0905283357184511,-0.1085727879652999,0.14351339030616886,0.4554968045915346,-0.013514305282008088
4933,5.0,299.34206,1200.3108,0.0,0.0,0.0,0.0,0.049166271676988116,0.0,-0.14494517349247485,-0.1032494657824289,-0.1166698620319189,0.1341815392701869,0.4207892396411646,-0.03181835625747727
4934,5.0,299.43061,1371.0078,0.0,0.0,0.0,0.0,0.04917623848657193,0.0,-0.16260833162069285,-0.1008607590691819,-0.15328304644535887,0.12341352780746688,0.4170102423332066,0.026079875111133275
4935,5.0,300.23956,1078.7773,0.0,0.0,0.0,0.0,0.049186205296155756,0.0,-0.08105609178836343,-0.0995517331589911,-0.14731354427621485,0.12151104941970689,0.40360139713485665,-0.01953602833480588
4936,5.0,300.36739,770.81604,0.0,0.0,0.0,0.0,0.04919617210573957,0.0,-0.07255437224130902,-0.03647933306197986,-0.1252751215536919,0.12718324374450887,0.4207082606931726,0.03181277020967597
4937,5.0,299.89171,868.7604699999999,0.0,0.0,0.0,0.0,0.04920613891532339,0.0,-0.1015117114634259,-0.05736356056909265,-0.10520621384554489,0.10681917628223189,0.4072131879113126,-0.015360079154421787
4938,5.0,298.843,997.88239,0.0,0.0,0.0,0.0,0.04921610572490722,0.0,-0.11279870962736589,-0.06979931380865594,-0.12073330904044989,0.10232111590830789,0.42461684255641957,0.003446583894026347
4939,5.0,299.09495,1040.0464,0.0,0.0,0.0,0.0,0.04922607253449104,0.0,-0.1024876232972409,-0.09670070676961671,-0.11695980354803388,0.09835897567127509,0.45442579923583454,-0.04907272268585065
4940,5.0,299.88633,903.0323300000001,0.0,0.0,0.0,0.0,0.04923603934407486,0.0,-0.09201128904805722,-0.08005344231090962,-0.1024345492570029,0.09707589402989482,0.4840137052734335,-0.02757950552413527
4941,5.0,300.48483,845.2710599999999,0.0,0.0,0.0,0.0,0.04924600615365868,0.0,-0.041328755133330564,-0.10623472349205089,-0.10937781516974988,0.093105394479537,0.47121199953500353,-0.05857441976984514
4942,5.0,300.61321,815.05786,0.0,0.0,0.0,0.0,0.049255972963242495,0.0,-0.08373087750834422,-0.07562679681728372,-0.08839956210635751,0.10132034803628981,0.44096172177453363,-0.02782216879058427
4943,5.0,300.81113999999997,984.55938,0.0,0.0,0.0,0.0,0.049265939772826325,0.0,-0.10629961202845489,-0.09148489244885591,-0.1014969686744709,0.12919114067267287,0.42080844073055956,-0.0052105057008368745
4944,5.0,300.18689,1063.1081,0.0,0.0,0.0,0.0,0.04927590658241014,0.0,-0.08325626204225332,-0.1098335649322289,-0.13006847340425887,0.14997367029374886,0.4413042813683416,-0.047937530976065956
4945,5.0,300.18979,938.5028199999999,0.0,0.0,0.0,0.0,0.049285873391993966,0.0,-0.08382042145943151,-0.07414448892799133,-0.12731651653016188,0.1161348659791189,0.4149942698017456,0.009054599565444401
4946,5.0,299.94945,984.2095,0.0,0.0,0.0,0.0,0.04929584020157778,0.0,-0.07212406620209114,-0.11293657243597188,-0.11411446554472089,0.12168619983199289,0.40901502016663965,-0.05467136923889404
4947,5.0,298.40518,984.4759300000001,0.0,0.0,0.0,0.0,0.0493058070111616,0.0,-0.05155524217285625,-0.06795486324087284,-0.17974599798204882,0.100072208324608,0.4242449088422126,0.02373768569672718
4948,5.0,298.84577,848.1405199999999,0.0,0.0,0.0,0.0,0.04931577382074543,0.0,-0.095804966323464,-0.07626729145724563,-0.08574128425700592,0.1103693614526079,0.4449604524991776,-0.025451954904912377
4949,5.0,299.59825,954.3779599999999,0.0,0.0,0.0,0.0,0.04932574063032925,0.0,-0.1092605720006789,-0.07839643389237563,-0.1024500621160339,0.1051642247614009,0.4509103482788866,0.02427105041686618
4950,5.0,299.78211,1018.044,0.0,0.0,0.0,0.0,0.04933570743991308,0.0,-0.12259789187446987,-0.08927330894583961,-0.09758875563426031,0.0909804215685685,0.4476619495182946,-0.03597528065398377
4951,5.0,300.4857,1063.1316,0.0,0.0,0.0,0.0,0.04934567424949689,0.0,-0.11540227602431789,-0.09292494172947771,-0.11483825035615289,0.10905347381273989,0.4557349892925416,-0.002167184302184438
4952,5.0,299.59387999999996,1090.3103,0.0,0.0,0.0,0.0,0.049355641059080704,0.0,-0.11762282375096889,-0.07865653721954582,-0.13514773403554287,0.09777137572628351,0.45056225633953256,-0.04003328954922806
4953,5.0,299.3346,1230.6167,0.0,0.0,0.0,0.0,0.049365607868664535,0.0,-0.08608080308726383,-0.10905381831777389,-0.17894213601521383,0.11671903505927189,0.4523743933483766,-0.00961849776674682
4954,5.0,300.29464,854.7229800000001,0.0,0.0,0.0,0.0,0.04937557467824835,0.0,-0.12153992704755688,-0.05692350199766224,-0.08135101342871992,0.1047494407004649,0.41169482350111564,0.01136350665249079
4955,5.0,300.97102,753.6376,0.0,0.0,0.0,0.0,0.049385541487832176,0.0,-0.05478686353829245,-0.04658095323868216,-0.12771919225240289,0.12692215959124187,0.4338037481655966,0.007166082548162284
4956,5.0,300.43228999999997,947.84971,0.0,0.0,0.0,0.0,0.04939550829741599,0.0,-0.09676509982672181,-0.1063709245704929,-0.08498661862227622,0.13640800437742187,0.44485652343642057,-0.012173844300714887
4957,5.0,299.22902999999997,1007.9052,0.0,0.0,0.0,0.0,0.04940547510699981,0.0,-0.08397651770358701,-0.0967574629607181,-0.12564404591510187,0.14177737877733787,0.4218167867000756,-0.013167184036249885
4958,5.0,299.87785,915.45689,0.0,0.0,0.0,0.0,0.04941544191658364,0.0,-0.04602557262037036,-0.1097673895681979,-0.1224830805056389,0.09907133203482922,0.4224936175018736,-0.041417791446117756
4959,5.0,300.94858999999997,940.1730699999999,0.0,0.0,0.0,0.0,0.04942540872616746,0.0,-0.04412102416265605,-0.1080886368025179,-0.13357947619326788,0.09099522211277922,0.4031051680308826,-0.03069824373568077
4960,5.0,300.62171,896.91313,0.0,0.0,0.0,0.0,0.04943537553575128,0.0,-0.0996229950385241,-0.0873165811477256,-0.08569961839964382,0.1094263802470429,0.44515183517806556,-0.030623981622601673
4961,5.0,299.18543,900.40256,0.0,0.0,0.0,0.0,0.0494453423453351,0.0,-0.0986256286470917,-0.1055284273773449,-0.06954584220339023,0.1082854910319459,0.4320829556532676,-0.030910731400901673
4962,5.0,299.44137,1019.0667,0.0,0.0,0.0,0.0,0.049455309154918914,0.0,-0.1118035055116469,-0.1062999666659899,-0.09166734839436291,0.12782492490033787,0.4245600397558136,-0.050733661501522545
4963,5.0,299.35221,853.54475,0.0,0.0,0.0,0.0,0.049465275964502745,0.0,-0.1090979453596289,-0.05866536504582075,-0.09169298463514301,0.10600179755906292,0.4270030566744206,0.004138717913409656
4964,5.0,299.64601,736.40843,0.0,0.0,0.0,0.0,0.04947524277408656,0.0,-0.0014408365759494986,-0.1056190423337879,-0.1167898916387649,0.1112852179529959,0.4415216032497896,-0.052891648127249245
4965,5.0,299.04102,893.6990800000001,0.0,0.0,0.0,0.0,0.049485209583670385,0.0,-0.08877003370067021,-0.05298017781498645,-0.12991199719131588,0.09740008947889041,0.43310974277460357,0.014162276694457885
4966,5.0,299.60935,1246.8072,0.0,0.0,0.0,0.0,0.0494951763932542,0.0,-0.1115030464594939,-0.11476754576417489,-0.15272765366804586,0.11704880743681789,0.4270995383489426,-0.006301282099113124
4967,5.0,299.2966,1244.3431,0.0,0.0,0.0,0.0,0.04950514320283802,0.0,-0.13233335082278486,-0.0980960423365756,-0.14781984508618287,0.13425650964508587,0.4266179405764126,0.016440308125782083
4968,5.0,300.39207000000005,1117.2492,0.0,0.0,0.0,0.0,0.04951511001242185,0.0,-0.1304170821011639,-0.07894825293658592,-0.13025052404972587,0.13286981608822987,0.4218726877080926,-0.007526647494922273
4969,5.0,301.22803,1183.4327,0.0,0.0,0.0,0.0,0.049525076822005666,0.0,-0.11242249999773689,-0.12608421189104288,-0.12122728872920188,0.1305413774909309,0.42301530958086064,-0.027049706431098178
4970,5.0,300.0223,1022.6875,0.0,0.0,0.0,0.0,0.04953504363158949,0.0,-0.05786794633637164,-0.1021955640884169,-0.15080796016108686,0.11929443310344388,0.4221018240857066,-0.013539279870472886
4971,5.0,300.02955,856.0703699999999,0.0,0.0,0.0,0.0,0.04954501044117331,0.0,-0.0912511721277895,-0.07542427649329653,-0.09354856879502492,0.0919726680072456,0.43245516294500164,-0.020489657785671783
4972,5.0,300.1684,875.5675,0.0,0.0,0.0,0.0,0.04955497725075712,0.0,-0.1000325750469465,-0.09593511728555891,-0.07018296576026944,0.11806251349936289,0.43694248286786563,-0.015496930739427987
4973,5.0,299.85944,770.3108900000001,0.0,0.0,0.0,0.0,0.049564944060340954,0.0,-0.09800305232189822,-0.035416891696125066,-0.1007353328923033,0.09103029677824082,0.45513130501546256,-0.03310451513941127
4974,5.0,300.4318,778.07644,0.0,0.0,0.0,0.0,0.04957491086992477,0.0,-0.0998675855066633,-0.08770247238206011,-0.048945750289319453,0.1240761123128589,0.43914594719783057,-0.01930236678224528
4975,5.0,300.13241,1145.1458,0.0,0.0,0.0,0.0,0.049584877679508595,0.0,-0.08924949858173972,-0.1068909853168189,-0.15195523285181384,0.11829796242509989,0.4299743214001616,-0.04187005968125316
4976,5.0,298.44565,1150.8043,0.0,0.0,0.0,0.0,0.04959484448909241,0.0,-0.07542954742031673,-0.1014216639270389,-0.17296454811027184,0.11493670786836989,0.44829090425286755,-0.03654535846499607
4977,5.0,299.91657999999995,994.7402199999999,0.0,0.0,0.0,0.0,0.04960481129867623,0.0,-0.06695780082447043,-0.12393376080630988,-0.11148462557267588,0.1060084444797189,0.43157440542807757,-0.03024811649800667
4978,5.0,299.43875,794.0652,0.0,0.0,0.0,0.0,0.04961477810826006,0.0,-0.06892159705528203,-0.07257703155329533,-0.09987736438337841,0.1067492012303259,0.4381353112830886,-0.024025158935598576
4979,5.0,298.02361,838.66804,0.0,0.0,0.0,0.0,0.049624744917843876,0.0,-0.08590463334537723,-0.08124407298666572,-0.087785436286998,0.11095308470271689,0.42125085612172264,0.007227479222071663
4980,5.0,298.87511,1003.5988,0.0,0.0,0.0,0.0,0.0496347117274277,0.0,-0.11272325289241888,-0.10719033992636288,-0.08515536022767972,0.12026753823448189,0.43234842717946753,-0.03419992665026997
4981,5.0,298.93152000000003,965.2910300000001,0.0,0.0,0.0,0.0,0.049644678537011516,0.0,-0.07984245526908683,-0.06928598813574464,-0.14429592335839886,0.10940534517496689,0.4463065045945226,0.007941462054686283
4982,5.0,299.89829,893.1659,0.0,0.0,0.0,0.0,0.04965464534659533,0.0,-0.05642691926940335,-0.1170422111786669,-0.09803100282590672,0.10177444721435591,0.4421034013247086,-0.06530613324721353
4983,5.0,300.14168,1061.0129,0.0,0.0,0.0,0.0,0.04966461215617916,0.0,-0.1121459333829419,-0.07456098132859593,-0.13581450326384786,0.0975326641352245,0.4282840277158426,0.026837212686376677
4984,5.0,299.78128,1123.4357,0.0,0.0,0.0,0.0,0.049674578965762974,0.0,-0.13279997275883687,-0.08241422486465072,-0.12628219082808187,0.09369525802525201,0.44087526114350056,-0.042670598187760166
4985,5.0,300.50956,1168.4642,0.0,0.0,0.0,0.0,0.04968454577534679,0.0,-0.13459367874836187,-0.10740630405267691,-0.1131839371828849,0.12140836665457289,0.4476953361090896,0.028856186464633872
4986,5.0,301.1437,1002.5037,0.0,0.0,0.0,0.0,0.049694512584930614,0.0,-0.12684540589616689,-0.059865469610011844,-0.11802521576318188,0.1182235898677599,0.4439433013862925,-0.023079774300796378
4987,5.0,299.25437,951.2220900000001,0.0,0.0,0.0,0.0,0.04970447939451444,0.0,-0.04139048435592276,-0.1133739519741379,-0.13438331789510086,0.1149469518268809,0.4355073559562295,-0.015499621931693587
4988,5.0,300.01973,1186.8012,0.0,0.0,0.0,0.0,0.04971444620409826,0.0,-0.10023097042977659,-0.0975808634292314,-0.16294608840902686,0.10788063682198988,0.4482867397949566,-0.02497012712460968
4989,5.0,300.37806,1354.2022,0.0,0.0,0.0,0.0,0.04972441301368208,0.0,-0.11739877388885689,-0.1191959147962209,-0.17504896568598782,0.10413702220752391,0.4538349629700236,0.0039865440617162665
4990,5.0,301.09832,1097.3166,0.0,0.0,0.0,0.0,0.0497343798232659,0.0,-0.1039310791246989,-0.12874663798630387,-0.10087912118749409,0.0936594852304715,0.4285304602726636,-0.017423876077352685
4991,5.0,301.10437,956.60014,0.0,0.0,0.0,0.0,0.04974434663284972,0.0,-0.1127842809459419,-0.07445448165033523,-0.1035437946714769,0.10022202951089422,0.4068737491278126,-0.0002248331449693038
4992,5.0,300.58692,891.19469,0.0,0.0,0.0,0.0,0.049754313442433536,0.0,-0.1189541533223609,-0.06226657141173214,-0.08968020789449742,0.11894430453138888,0.43009334788940856,-0.015012647854132985
4993,5.0,301.25251000000003,1046.3051,0.0,0.0,0.0,0.0,0.049764280252017366,0.0,-0.07291453806885463,-0.1034308071528259,-0.14170528603272287,0.1060903353528009,0.4474612348059856,-0.05623573822728524
4994,5.0,301.3526,1060.0908,0.0,0.0,0.0,0.0,0.04977424706160118,0.0,-0.06658323164675334,-0.09256345969005222,-0.16309444848866883,0.07369958499458273,0.44563595594334454,-0.026559270077945875
4995,5.0,300.07351,1012.8014,0.0,0.0,0.0,0.0,0.04978421387118501,0.0,-0.08871796379128133,-0.09332210233142442,-0.1258262688130859,0.08830669672144242,0.4185294386056396,-0.03927747691538516
4996,5.0,299.7143,1080.0999,0.0,0.0,0.0,0.0,0.049794180680768824,0.0,-0.11144600047886391,-0.0918999257693165,-0.12497746920431586,0.12097800893959988,0.45090139114800254,-0.012596982608725387
4997,5.0,299.8535,1081.2556,0.0,0.0,0.0,0.0,0.04980414749035264,0.0,-0.15191217985506486,-0.07513979132897003,-0.10162273327688291,0.12876888895849986,0.4382872076055796,-0.0012684320714344988
4998,5.0,300.54747000000003,1117.3208,0.0,0.0,0.0,0.0,0.04981411429993647,0.0,-0.07963874640273233,-0.12337212640838088,-0.13662674480900988,0.13491279173485587,0.42975566202858156,-0.016988468323881283
4999,5.0,300.23717999999997,1063.7929,0.0,0.0,0.0,0.0,0.04982408110952029,0.0,-0.07170805509528402,-0.08150052861347593,-0.17015787573077484,0.09819858122019541,0.4193451353336426,-0.012692030534355888
5000,5.0,300.04413,1022.7364,0.0,0.0,0.0,0.0,0.04983404791910411,0.0,-0.07160034762290414,-0.0999897247002175,-0.13929626365497086,0.1070050772780789,0.44373218059545655,-0.0018336057519627983
5001,5.0,299.26909,884.64588,0.0,0.0,0.0,0.0,0.04984401472868793,0.0,-0.11117254454187589,-0.04907534700360966,-0.10866235927413989,0.0993685780709151,0.4350180574829396,-0.015639930726040984
5002,5.0,299.46623999999997,783.96639,0.0,0.0,0.0,0.0,0.049853981538271745,0.0,-0.08698956075745123,-0.053999127446798946,-0.09731751972824142,0.1009259100373618,0.43612901529008263,0.022787160844167677
5003,5.0,299.67322,719.2939299999999,0.0,0.0,0.0,0.0,0.049863948347855576,0.0,-0.09704327750917581,-0.07728884716831533,-0.04431526927307655,0.12685521415713488,0.42383611308936764,-0.04534490869344405
5004,5.0,299.26955,1071.2294,0.0,0.0,0.0,0.0,0.04987391515743939,0.0,-0.08257748884001362,-0.06636609215032334,-0.1766833988922938,0.13267106708111487,0.45479317332459157,-0.002732942526695427
5005,5.0,300.58101,1179.6061,0.0,0.0,0.0,0.0,0.049883881967023216,0.0,-0.08920289718314052,-0.13060431045464185,-0.13876357781239887,0.12494503506861487,0.45501594649157756,-0.08143105005411892
5006,5.0,300.19763,983.15805,0.0,0.0,0.0,0.0,0.04989384877660703,0.0,-0.06972382363645564,-0.1038048585597419,-0.12532681757379388,0.13058937514816787,0.4295071523090556,-0.014012422070918384
5007,5.0,299.88315,884.4182699999999,0.0,0.0,0.0,0.0,0.04990381558619085,0.0,-0.06375194640907723,-0.08393609713059783,-0.12115302762937288,0.09809525909424831,0.4202065701711596,-0.04678465906528636
5008,5.0,300.54916000000003,959.5505400000001,0.0,0.0,0.0,0.0,0.04991378239577468,0.0,-0.1112326201403049,-0.1007223784897748,-0.07972440656618633,0.1130730166944379,0.4463059169094646,0.015106617681657086
5009,5.0,300.96342000000004,957.25964,0.0,0.0,0.0,0.0,0.0499237492053585,0.0,-0.12110615467974688,-0.05458040065816615,-0.11529647244887589,0.1130776067173909,0.4486146781898216,-0.005403088675793334
5010,5.0,300.18408999999997,942.92031,0.0,0.0,0.0,0.0,0.04993371601494232,0.0,-0.06765088415787243,-0.07996529765821042,-0.13900804466402586,0.11697524547955788,0.4190958251465376,-0.004997590241423755
5011,5.0,300.30681,981.20166,0.0,0.0,0.0,0.0,0.04994368282452614,0.0,-0.06650139852892703,-0.11469544288705888,-0.1170639656583139,0.1214771764688639,0.4073996664597166,-0.033095112178483266
5012,5.0,299.30605,1130.1449,0.0,0.0,0.0,0.0,0.049953649634109955,0.0,-0.11347615851172488,-0.08802072917221962,-0.14203893915815186,0.12848111579759888,0.4326719984664016,0.009490917318830611
5013,5.0,299.72484,1263.8045,0.0,0.0,0.0,0.0,0.049963616443693785,0.0,-0.12786547516933988,-0.13490647918673287,-0.12139305644556188,0.11735217451675789,0.4510311175583056,-0.027718362331089375
5014,5.0,299.48463,1174.0241,0.0,0.0,0.0,0.0,0.0499735832532776,0.0,-0.17193173215084084,-0.08560400609370761,-0.0993382666941736,0.10755384339973789,0.42737425071605456,-0.023067806803865276
5015,5.0,299.95446,818.46862,0.0,0.0,0.0,0.0,0.049983550062861426,0.0,-0.07296329262391633,-0.07865662435905442,-0.09717410734883772,0.10093880871113481,0.44894363996728753,-0.016726330390510285
5016,5.0,299.74375,714.3736200000001,0.0,0.0,0.0,0.0,0.04999351687244524,0.0,-0.026174473153719374,-0.09798923767003481,-0.09298803174695422,0.1092352508806799,0.47536451122732454,-0.05828004123154224
5017,5.0,299.22357,1133.6598,0.0,0.0,0.0,0.0,0.05000348368202906,0.0,-0.09046018350347501,-0.07824614661104343,-0.17589794767977582,0.1047625318917569,0.4643678497470386,-0.016877887274217785
5018,5.0,299.67982,1169.4034,0.0,0.0,0.0,0.0,0.05001345049161289,0.0,-0.13081668767560187,-0.0985761800157115,-0.12607657198528888,0.0937728719696619,0.4349174214830076,-0.03393322199869826
5019,5.0,299.73791,793.86918,0.0,0.0,0.0,0.0,0.05002341730119671,0.0,-0.061702680505830436,-0.07982012222363273,-0.09979360406386191,0.1091706967168089,0.4111018999400986,-0.008588451425139162
5020,5.0,299.83505,723.93462,0.0,0.0,0.0,0.0,0.05003338411078053,0.0,-0.1032414611066389,-0.04371012084960305,-0.07310646587629643,0.13521012997670087,0.4351557784365316,0.00910459008297808
5021,5.0,300.48351,1178.736,0.0,0.0,0.0,0.0,0.05004335092036435,0.0,-0.07846340668423533,-0.14662498003825886,-0.13321790802758388,0.14728433227583188,0.44956816679892353,-0.013298850820494387
5022,5.0,299.97926,1147.7492,0.0,0.0,0.0,0.0,0.050053317729948164,0.0,-0.09146111045575882,-0.1030568874684229,-0.15436908843254285,0.12231085838614188,0.4292086184320926,-0.02085502969223118
5023,5.0,299.47265,1047.0939,0.0,0.0,0.0,0.0,0.050063284539531995,0.0,-0.07174465875514653,-0.12186322475696389,-0.12468252223270689,0.1093753631045079,0.41615094545340064,-0.02066990687246098
5024,5.0,301.22404,983.49582,0.0,0.0,0.0,0.0,0.05007325134911581,0.0,-0.09483665994489959,-0.1033232101247069,-0.1007982972667674,0.12125775715970889,0.44199466945647753,-0.033339289240581674
5025,5.0,300.44992,943.10002,0.0,0.0,0.0,0.0,0.050083218158699636,0.0,-0.10983092034946788,-0.07992630678111233,-0.09692163379492051,0.1145247710402149,0.4636412987628336,-0.02252193756424218
5026,5.0,299.97095,971.51228,0.0,0.0,0.0,0.0,0.05009318496828345,0.0,-0.12304341794343988,-0.0943710411264466,-0.07790101538848163,0.095814926571947,0.44411897868863054,-0.01964588187089758
5027,5.0,299.68262000000004,1082.7404,0.0,0.0,0.0,0.0,0.05010315177786727,0.0,-0.11194463098557489,-0.07049045372836614,-0.14669096288477088,0.08596439382302512,0.45089409574728256,-0.00947320702430774
5028,5.0,299.90519,1095.7612,0.0,0.0,0.0,0.0,0.0501131185874511,0.0,-0.07178121985850484,-0.0993347983390813,-0.16196802848499983,0.11320738379019889,0.45825215585346657,0.004682575750259246
5029,5.0,299.88716,970.2805400000001,0.0,0.0,0.0,0.0,0.05012308539703492,0.0,-0.08879350969223711,-0.096190578914021,-0.1099569686619079,0.1265784955548249,0.43645869647511953,-0.015178197721721484
5030,5.0,299.88853,1102.8980000000001,0.0,0.0,0.0,0.0,0.05013305220661874,0.0,-0.10569829875660991,-0.08334600864336061,-0.14620914219721887,0.09247154777348122,0.4053098381284666,-0.0007408123577724873
5031,5.0,299.37562,1032.2289,0.0,0.0,0.0,0.0,0.05014301901620256,0.0,-0.1207337751354959,-0.09177167262465892,-0.10126634687221031,0.09305044390011381,0.4255056250141356,-0.009824888604791011
5032,5.0,300.92107000000004,951.25301,0.0,0.0,0.0,0.0,0.050152985825786374,0.0,-0.07588334262335283,-0.0939612615077545,-0.1193125601477329,0.1043662193801439,0.4482462807184636,0.017342182788040183
5033,5.0,300.89014,942.7372,0.0,0.0,0.0,0.0,0.050162952635370205,0.0,-0.06070752907911664,-0.11763204432687888,-0.1082290023388709,0.11783128982654288,0.4546662536170656,-0.03934613980841166
5034,5.0,300.23116,912.48671,0.0,0.0,0.0,0.0,0.05017291944495402,0.0,-0.07030845779840453,-0.10308651490134689,-0.1039781952543489,0.1223254998500869,0.4319230546549866,-0.020557883967905182
5035,5.0,300.25854,749.1134400000001,0.0,0.0,0.0,0.0,0.050182886254537845,0.0,-0.07789012598965692,-0.05583514777375004,-0.09398650764724611,0.13425227425966788,0.43171154882911256,-0.04300879371338746
5036,5.0,300.57407,893.4392,0.0,0.0,0.0,0.0,0.05019285306412166,0.0,-0.07805280835946242,-0.08705799870895552,-0.1064724015680079,0.11885620243519388,0.4500796149193995,-0.012268915531097687
5037,5.0,299.63048,998.5966199999999,0.0,0.0,0.0,0.0,0.05020281987370548,0.0,-0.12629073252642486,-0.08048715489696372,-0.09677054908575959,0.09714683065614571,0.4419756000895956,-0.04399800648126516
5038,5.0,299.66901,1053.3249,0.0,0.0,0.0,0.0,0.0502127866832893,0.0,-0.08606525577772942,-0.08906620265189982,-0.14505302383311885,0.09597960403119941,0.4295729426380486,0.012483050740981187
5039,5.0,298.22396000000003,934.61149,0.0,0.0,0.0,0.0,0.05022275349287312,0.0,-0.08568647553259673,-0.08545702910045211,-0.1129550541177959,0.1036244291144349,0.4443297955044366,-0.050854111607160045
5040,5.0,299.32652,1193.2958,0.0,0.0,0.0,0.0,0.050232720302456936,0.0,-0.0987404460954233,-0.09254282789151601,-0.17144885768318485,0.12895048364142186,0.46882881503480156,0.01005679064855296
5041,5.0,300.14361,1227.9157,0.0,0.0,0.0,0.0,0.05024268711204076,0.0,-0.1110898937312189,-0.11443126832098689,-0.14773452942776286,0.1150949066064829,0.46473450442822456,-0.045594925115868754
5042,5.0,299.7325,987.8511800000001,0.0,0.0,0.0,0.0,0.05025265392162458,0.0,-0.07535217868243102,-0.1108541205654499,-0.1140757897884039,0.1037356941079159,0.4372288070811236,-0.007970217585899234
5043,5.0,300.18807999999996,784.9684900000001,0.0,0.0,0.0,0.0,0.05026262073120841,0.0,-0.08521258048732692,-0.047672873089696255,-0.10572536266678091,0.12513683318004387,0.42968290053890057,0.0009294183767489522
5044,5.0,300.40379,855.33781,0.0,0.0,0.0,0.0,0.050272587540792224,0.0,-0.05512160692082904,-0.08333194675847283,-0.12154777973583189,0.10313874794400191,0.43383353771853655,0.01926833373788648
5045,5.0,299.19777,973.73002,0.0,0.0,0.0,0.0,0.05028255435037604,0.0,-0.061616887606613345,-0.1000047309341985,-0.13436799755358886,0.11951077213229488,0.4313597078643886,-0.015303690773106683
5046,5.0,299.45286,1382.6966,0.0,0.0,0.0,0.0,0.050292521159959865,0.0,-0.14477214077289785,-0.1171785743771249,-0.15835452531587485,0.09537016753330271,0.38557654925094265,-0.012411282236398188
5047,5.0,299.39948,1190.1071,0.0,0.0,0.0,0.0,0.05030248796954368,0.0,-0.1276762101831609,-0.1021339686148379,-0.13195267276021488,0.13409166398631686,0.4394528910506236,-0.023267039131277978
5048,5.0,299.57257000000004,867.8851099999999,0.0,0.0,0.0,0.0,0.05031245477912751,0.0,-0.0997042303387914,-0.04806889581178066,-0.11604227518498089,0.10705337891034589,0.4462763198740436,-0.021082252040406278
5049,5.0,300.80478,1089.6391,0.0,0.0,0.0,0.0,0.05032242158871133,0.0,-0.08911551348126642,-0.1039392357880039,-0.13816832377615187,0.11633872176673789,0.4651520749269355,-0.026006978859188977
5050,5.0,299.34083,1116.1016,0.0,0.0,0.0,0.0,0.050332388398295146,0.0,-0.09428236350419482,-0.11057705745810589,-0.1344076054999979,0.08136593150994222,0.4307180368410606,-0.02247845900245118
5051,5.0,299.62197000000003,986.43026,0.0,0.0,0.0,0.0,0.05034235520787897,0.0,-0.08426567293762441,-0.09549770532338972,-0.12008679468164388,0.13301627125768387,0.44338340977853563,0.000930400560600886
5052,5.0,298.99061,715.81892,0.0,0.0,0.0,0.0,0.050352322017462786,0.0,-0.07988070748686202,-0.06652408823841634,-0.07118628296953913,0.12437606473996189,0.44153880823648756,-0.025857004672137675
5053,5.0,298.34389,808.26463,0.0,0.0,0.0,0.0,0.05036228882704662,0.0,-0.06376790408490214,-0.08174975875382301,-0.1001746023134635,0.12109495826614189,0.45116798738181363,-0.027314023865434273
5054,5.0,297.92572,1000.0899,0.0,0.0,0.0,0.0,0.050372255636630434,0.0,-0.08637995504678782,-0.0972341718015156,-0.12038823658639389,0.07590772344725902,0.43040266274743555,-0.040097595466824565
5055,5.0,299.45113,1135.9403,0.0,0.0,0.0,0.0,0.05038222244621425,0.0,-0.08642496665598011,-0.11253689593402691,-0.14633562620720186,0.07928233669330742,0.43549035361955163,-0.01927031261533178
5056,5.0,299.3739,925.9083800000001,0.0,0.0,0.0,0.0,0.050392189255798074,0.0,-0.08980185059550261,-0.05090054176649235,-0.14075063218600586,0.12107872599953988,0.45001355101287954,-0.024861770158915678
5057,5.0,300.50867,808.17384,0.0,0.0,0.0,0.0,0.05040215606538189,0.0,-0.08439524026766171,-0.05603223201095075,-0.1052371990336029,0.12789767625751788,0.44184045279125755,-0.015253136685867384
5058,5.0,299.74227,855.1356199999999,0.0,0.0,0.0,0.0,0.05041212287496572,0.0,-0.08604215975495001,-0.0899918957842586,-0.08390582121760982,0.1193969942785659,0.4013449600896636,-0.06162520233693394
5059,5.0,299.61936000000003,1184.6991,0.0,0.0,0.0,0.0,0.05042208968454954,0.0,-0.1265496787219809,-0.08601908501042273,-0.14755018883706986,0.10703475537350789,0.44478923349727956,-0.017069589126887285
5060,5.0,300.67008,1311.8325,0.0,0.0,0.0,0.0,0.05043205649413336,0.0,-0.14545912434069785,-0.10592129483861788,-0.14738389423065787,0.12599108407435186,0.45891877309425655,-0.03952765140482546
5061,5.0,300.32313999999997,949.30085,0.0,0.0,0.0,0.0,0.05044202330371718,0.0,-0.07272507752540633,-0.09244422548453472,-0.12339444830808387,0.12880867928992687,0.4801802457726006,-0.005689450885930085
5062,5.0,300.46259,826.75207,0.0,0.0,0.0,0.0,0.050451990113300996,0.0,-0.04115343550827786,-0.08985151910215451,-0.12030703472337988,0.08477185114433032,0.43223713178848355,-0.016881426556817087
5063,5.0,301.32042,1115.137,0.0,0.0,0.0,0.0,0.050461956922884826,0.0,-0.0984489472139046,-0.11248856390425689,-0.12803630913619987,0.1103805781312149,0.4333989040881416,0.015266757806961684
5064,5.0,301.58002999999997,1142.1915,0.0,0.0,0.0,0.0,0.05047192373246864,0.0,-0.1127851827385309,-0.09335810108097721,-0.14105442483098787,0.10857924236843688,0.43426859691397357,-0.007886090165871502
5065,5.0,300.10978,999.2976800000001,0.0,0.0,0.0,0.0,0.05048189054205247,0.0,-0.10429919288602892,-0.09113183153101151,-0.10833051986638989,0.11932428345138987,0.46533659790264653,-0.041132275806439564
5066,5.0,299.81979,1018.3616,0.0,0.0,0.0,0.0,0.050491857351636284,0.0,-0.08893357935956092,-0.08177477589879202,-0.13884815379824586,0.11546289877780089,0.4128120026638726,-0.03525228009812917
5067,5.0,298.74867,873.88616,0.0,0.0,0.0,0.0,0.0505018241612201,0.0,-0.05334590739883115,-0.08275055297034373,-0.12954311335990987,0.07877456363094412,0.46990189755320655,-0.03866805054998946
5068,5.0,298.97686,878.13391,0.0,0.0,0.0,0.0,0.05051179097080393,0.0,-0.07140242441462064,-0.06693845078731074,-0.12858990846083587,0.0972196265963301,0.4665108331785346,0.006513695087801654
5069,5.0,299.53301,1030.3478,0.0,0.0,0.0,0.0,0.05052175778038775,0.0,-0.13527755163835486,-0.05682714799265284,-0.12109530277117589,0.13229965012445888,0.4488640289069306,-0.015931024307519685
5070,5.0,299.95291000000003,935.47864,0.0,0.0,0.0,0.0,0.05053172458997157,0.0,-0.1099025976615419,-0.08902506672434002,-0.08543448833872751,0.11657855806540789,0.4131332536080776,-0.008277780027878281
5071,5.0,301.25203999999997,795.51581,0.0,0.0,0.0,0.0,0.05054169139955539,0.0,-0.07568565550234263,-0.1036461227990759,-0.06248516694855585,0.11827614715044688,0.42247960425299064,-0.052143173450630555
5072,5.0,301.27109,1179.7308,0.0,0.0,0.0,0.0,0.050551658209139205,0.0,-0.10117565794851,-0.11905120241693888,-0.13838183583722388,0.13749976109516987,0.4482207670809456,-0.0040996427339032365
5073,5.0,300.14673999999997,1262.5152,0.0,0.0,0.0,0.0,0.050561625018723036,0.0,-0.10068530265536571,-0.13875613042416388,-0.14433166068942588,0.11359544844599789,0.47087262154650955,-0.02417388986477718
5074,5.0,300.08451,1010.9702,0.0,0.0,0.0,0.0,0.05057159182830685,0.0,-0.06711016729500784,-0.1116588640598719,-0.12854067463847688,0.12038495365606988,0.4402223734415656,-0.00870161271618231
5075,5.0,300.02142000000003,672.62598,0.0,0.0,0.0,0.0,0.050581558637890676,0.0,-0.06776845865972614,-0.04876733113221086,-0.0879257116440921,0.11533367899254789,0.4497330225901936,-1.937108439077718e-05
5076,5.0,299.17667,821.85784,0.0,0.0,0.0,0.0,0.05059152544747449,0.0,-0.04944897689848405,-0.09685158578900732,-0.1035237019219939,0.10867853074573589,0.4417481051771436,-0.028246129857675974
5077,5.0,299.80422999999996,1012.6102,0.0,0.0,0.0,0.0,0.05060149225705831,0.0,-0.1091742126946559,-0.07820919034014613,-0.12042480478250288,0.09277097939003282,0.44103527359929257,-0.030011802256684268
5078,5.0,299.56766,1099.4085,0.0,0.0,0.0,0.0,0.05061145906664214,0.0,-0.09610951282652042,-0.10464326222248589,-0.13343996178699888,0.07119784415318015,0.4234997241886686,-0.049076370386210655
5079,5.0,299.49388,856.26042,0.0,0.0,0.0,0.0,0.05062142587622596,0.0,-0.07292723915885813,-0.07877268506525872,-0.10858186668619589,0.1094100567879319,0.4416477731522415,-0.004042287711992736
5080,5.0,301.16541,743.0074599999999,0.0,0.0,0.0,0.0,0.05063139268580978,0.0,-0.05785819380415915,-0.07374301492036893,-0.09425450520594542,0.1092386452685149,0.4565896049568856,0.002144162550637368
5081,5.0,300.56341000000003,1094.7622,0.0,0.0,0.0,0.0,0.0506413594953936,0.0,-0.12030703472337988,-0.0982258700718886,-0.11424747488534788,0.13991203600574287,0.4618075288643545,0.016084166927633686
5082,5.0,299.36261,1550.8065,0.0,0.0,0.0,0.0,0.050651326304977415,0.0,-0.16120458506465385,-0.1401755012967449,-0.17002637613279684,0.1141115676494349,0.42540191886640055,-0.0015323477521059486
5083,5.0,299.62093,1361.2268,0.0,0.0,0.0,0.0,0.050661293114561246,0.0,-0.13184015133660987,-0.1253305665991639,-0.15660823943102983,0.14104055343711885,0.4294085022793196,-0.004155220413813327
5084,5.0,298.76941,725.31899,0.0,0.0,0.0,0.0,0.05067125992414506,0.0,-0.022606586504096377,-0.08898896664977722,-0.10888330859094589,0.12920718042175589,0.4177124347850076,-0.023645684614147375
5085,5.0,299.56385,856.83293,0.0,0.0,0.0,0.0,0.050681226733728886,0.0,-0.03407987069892136,-0.08112831828199163,-0.14524762864732488,0.1134618716853149,0.4546127134817816,-0.004308836627024065
5086,5.0,300.78529,959.1032,0.0,0.0,0.0,0.0,0.0506911935433127,0.0,-0.11126683759618189,-0.07447498476610873,-0.1058015996043049,0.08341721986038862,0.43057602983954557,-0.013193843659630987
5087,5.0,300.89453,856.8537699999999,0.0,0.0,0.0,0.0,0.05070116035289652,0.0,-0.0908175172969911,-0.07734842222119492,-0.09229621092317682,0.10288318600377991,0.4416915252915596,0.005482724966077824
5088,5.0,300.56872000000004,747.51617,0.0,0.0,0.0,0.0,0.05071112716248034,0.0,-0.06927013685118023,-0.07312122487725303,-0.08483488644630141,0.1026996357481649,0.4581827887516205,-0.027592782140195577
5089,5.0,300.9106,1016.2676,0.0,0.0,0.0,0.0,0.05072109397206417,0.0,-0.09172828728187711,-0.11047142613518089,-0.1067202526749689,0.14315979641877186,0.4454449886969976,-0.03489080819120467
5090,5.0,299.78632999999996,1167.23,0.0,0.0,0.0,0.0,0.05073106078164799,0.0,-0.1127285623229429,-0.11928774565278388,-0.12279246629117287,0.09599131010960471,0.43233488002563064,-0.06379427391875464
5091,5.0,300.57847999999996,1351.6656,0.0,0.0,0.0,0.0,0.05074102759123181,0.0,-0.11749442469829689,-0.11397788956374189,-0.17940028718042983,0.11809397491496788,0.4302827142005976,-0.015982884474137884
5092,5.0,300.16552,1163.0201,0.0,0.0,0.0,0.0,0.050750994400815624,0.0,-0.13004340559678487,-0.1003344891262431,-0.12315115682657289,0.12797593969524187,0.46347384905130756,-0.019252316280305683
5093,5.0,298.95055,618.45144,0.0,0.0,0.0,0.0,0.05076096121039945,0.0,-0.03534030518731657,-0.06892945683630773,-0.08372403097741851,0.12848155149514187,0.47723611588453757,0.009973736564356161
5094,5.0,299.31231,775.54254,0.0,0.0,0.0,0.0,0.050770928019983265,0.0,-0.06730607920184284,-0.07406690234133413,-0.09437258531959901,0.11889519229904189,0.4477669526261575,-0.026087489685634777
5095,5.0,299.8346,1220.8824,0.0,0.0,0.0,0.0,0.05078089482956708,0.0,-0.1103879951219469,-0.10475660437867189,-0.15597316466585284,0.08373124430488042,0.44382073865419663,0.006326888145040244
5096,5.0,300.07828,865.8248199999999,0.0,0.0,0.0,0.0,0.050790861639150905,0.0,-0.05467300361130535,-0.0992680575814945,-0.1092480684944449,0.11045942925399689,0.4491350935736826,-0.04358963224046176
5097,5.0,300.46436,719.56772,0.0,0.0,0.0,0.0,0.05080082844873472,0.0,-0.05258290879527905,-0.07699652350121522,-0.08915118697753711,0.11333402992019789,0.44979823536662955,-0.024972797038623176
5098,5.0,300.34476,1245.6458,0.0,0.0,0.0,0.0,0.05081079525831855,0.0,-0.17610096246981183,-0.07695437027055503,-0.12558988769725687,0.11524168601596889,0.43848924967551955,-0.001167653304563409
5099,5.0,299.31849,1294.1680000000001,0.0,0.0,0.0,0.0,0.05082076206790237,0.0,-0.15089991260766186,-0.10801937102568189,-0.13447548312419685,0.09731088395333651,0.4432793895232696,-0.017527434290573084
5100,5.0,300.5991,1237.7160000000001,0.0,0.0,0.0,0.0,0.0508307288774862,0.0,-0.13896385682716486,-0.1107215063923619,-0.1265494051444539,0.11271125601123488,0.4512533739677405,-0.005314324623308005
5101,5.0,299.51093,1156.4374,0.0,0.0,0.0,0.0,0.05084069568707001,0.0,-0.08642236564297343,-0.1255384551221809,-0.1395672675267169,0.11385618809423088,0.4507242750305226,-0.047162347026811255
5102,5.0,299.70263,908.6337300000001,0.0,0.0,0.0,0.0,0.05085066249665383,0.0,-0.05851545469352574,-0.1022089389897369,-0.11547757063924889,0.12162020685297989,0.4413012416180415,-0.012140546875928688
5103,5.0,299.87894,836.42262,0.0,0.0,0.0,0.0,0.05086062930623766,0.0,-0.07392190726527423,-0.07049963377427214,-0.1098300489543819,0.11718058061232288,0.4383504040143166,-0.05269227698457285
5104,5.0,299.17017999999996,1059.9387,0.0,0.0,0.0,0.0,0.050870596115821475,0.0,-0.1087033857706889,-0.0924745561130281,-0.12101693800844189,0.11852751423525489,0.4626948117119225,0.022505940371663376
5105,5.0,299.17716,806.02985,0.0,0.0,0.0,0.0,0.05088056292540529,0.0,-0.06785740175350413,-0.07987851177389534,-0.09727703532049592,0.0965468285299301,0.47503117220942653,-0.030612167126435674
5106,5.0,301.06442000000004,791.8936,0.0,0.0,0.0,0.0,0.050890529734989115,0.0,-0.06616754579322835,-0.0866414880698491,-0.08790684695373031,0.1070909299590519,0.4682956732296846,0.01002871470418208
5107,5.0,299.70867999999996,985.28803,0.0,0.0,0.0,0.0,0.05090049654457293,0.0,-0.0969519097079085,-0.09177936116641773,-0.11077168253731388,0.098833114909819,0.4662436897896696,-0.05129246791842245
5108,5.0,299.37192000000005,1308.6541,0.0,0.0,0.0,0.0,0.05091046335415676,0.0,-0.1050918280417559,-0.1170654956659649,-0.17564086586440383,0.1033719271895149,0.4527443613573896,-0.008407028792084142
5109,5.0,299.51339,1100.87,0.0,0.0,0.0,0.0,0.05092043016374058,0.0,-0.1119221165683529,-0.1041409941479159,-0.11857387042732988,0.1087331347936249,0.43386936624207256,-0.04274361501646636
5110,5.0,299.80629,904.8249099999999,0.0,0.0,0.0,0.0,0.050930396973324396,0.0,-0.07671674589685333,-0.07884270470016913,-0.11948473160472489,0.1183376818290199,0.4288821695148746,-0.02564649689761218
5111,5.0,300.27738999999997,1012.6083,0.0,0.0,0.0,0.0,0.05094036378290822,0.0,-0.1287560510797329,-0.07905913694802934,-0.0999924543959869,0.12378311078144187,0.4259524075132296,-0.016633450820093786
5112,5.0,299.62102999999996,853.3200800000001,0.0,0.0,0.0,0.0,0.05095033059249204,0.0,-0.0983542670980604,-0.07068246563556624,-0.09035126215747531,0.12444153082892288,0.4352349841968486,-0.006141676361911264
5113,5.0,298.22787999999997,727.17532,0.0,0.0,0.0,0.0,0.05096029740207587,0.0,-0.04935527963523686,-0.056778264754828445,-0.1149095932956939,0.11711215583306989,0.4450818601261596,-0.02133063206391948
5114,5.0,298.85665,1049.6385,0.0,0.0,0.0,0.0,0.050970264211659684,0.0,-0.051038952743402456,-0.1083988838506369,-0.15962606299886586,0.1108195484720379,0.4374812887410416,-0.006573960163999353
5115,5.0,300.4927,1035.1689999999999,0.0,0.0,0.0,0.0,0.0509802310212435,0.0,-0.10289131226958191,-0.08585832173630661,-0.12591588065192988,0.12829860918958688,0.45166423675078965,-0.007243216819974843
5116,5.0,299.81881,855.4626300000001,0.0,0.0,0.0,0.0,0.050990197830827325,0.0,-0.07965181124952173,-0.07596600559301102,-0.1044214617755959,0.11845548228564588,0.43843653027281654,-0.011373913744267888
5117,5.0,300.15389,1118.6291,0.0,0.0,0.0,0.0,0.05100016464041114,0.0,-0.12449923542211788,-0.1090431386617199,-0.1064929401475349,0.1070708574745709,0.4522403200951446,-0.038200863220381666
5118,5.0,300.69651,1260.0868,0.0,0.0,0.0,0.0,0.05101013144999497,0.0,-0.15133437398553984,-0.0993285678642164,-0.13237196578409588,0.08686358033276792,0.4355657090294886,-0.014454205194018988
5119,5.0,300.27931,998.1899400000001,0.0,0.0,0.0,0.0,0.05102009825957879,0.0,-0.06259446218384243,-0.10565861988269389,-0.13517173793041187,0.09434346653822523,0.4513934456615646,-0.054428348295159745
5120,5.0,299.85121000000004,900.3698300000001,0.0,0.0,0.0,0.0,0.051030065069162606,0.0,-0.061451809913571444,-0.08262512375371482,-0.1296130174843089,0.1024337183919209,0.43898927846736857,-0.028863256923831675
5121,5.0,300.06064,846.0990300000001,0.0,0.0,0.0,0.0,0.05104003187874643,0.0,-0.042691975738369956,-0.05511832500375515,-0.15938268032484584,0.14361417829361586,0.45338281024539956,-0.002679863318881917
5122,5.0,300.2931,762.8555299999999,0.0,0.0,0.0,0.0,0.051049998688330246,0.0,-0.06069482596261294,-0.07851756794183064,-0.0926766387129721,0.11958861000497688,0.4410754793632606,-0.02120346005711858
5123,5.0,299.95159,1103.0908,0.0,0.0,0.0,0.0,0.05105996549791408,0.0,-0.12234510623952188,-0.08863163386951123,-0.12433533208594189,0.13455734359977586,0.43116408980008264,0.027072798400877174
5124,5.0,300.03247000000005,1284.4842,0.0,0.0,0.0,0.0,0.051069932307497894,0.0,-0.17331375462473583,-0.08978283999712643,-0.1273545336739139,0.13476840359560588,0.4378066838781556,-0.015565555128950685
5125,5.0,299.70837,1065.6249,0.0,0.0,0.0,0.0,0.05107989911708171,0.0,-0.044611614529823554,-0.13503375353179387,-0.14427798883162887,0.1134809815822009,0.4569250110049876,-0.01119437089279839
5126,5.0,299.62657,1077.983,0.0,0.0,0.0,0.0,0.051089865926665534,0.0,-0.07185685188571914,-0.1054919098437409,-0.15033114492902885,0.095226988201422,0.4699221726877076,-0.04799564694880155
5127,5.0,299.05794,1472.2021,0.0,0.0,0.0,0.0,0.05109983273624935,0.0,-0.13440837557007387,-0.14243843327507888,-0.17066585853590882,0.07930340621588683,0.4536759029693256,-0.013685395601143386
5128,5.0,298.98481,1094.861,0.0,0.0,0.0,0.0,0.05110979954583318,0.0,-0.1364224431913469,-0.08074285159944902,-0.1156451115432839,0.0982403858928212,0.4492370670637466,-0.031709617296495574
5129,5.0,298.87108,563.62673,0.0,0.0,0.0,0.0,0.051119766355417,0.0,-0.06757155984729374,-0.040204539961879164,-0.06355235032487865,0.11005579094416089,0.44921619411168656,-0.012416000942113889
5130,5.0,299.84255,716.57173,0.0,0.0,0.0,0.0,0.05112973316500082,0.0,-0.08321554053398442,-0.061791892110884934,-0.07281248047903233,0.13417760785979888,0.4374117189891756,-0.016244398245447284
5131,5.0,300.28148,1152.64,0.0,0.0,0.0,0.0,0.05113969997458464,0.0,-0.09740209470083831,-0.07915226679122052,-0.17381941708714083,0.0941433364712239,0.4330239508886366,-0.02060261085381938
5132,5.0,299.10031000000004,1193.309,0.0,0.0,0.0,0.0,0.051149666784168456,0.0,-0.0944557984840615,-0.1071308013504869,-0.16114953518672084,0.1135541889019259,0.4553716986016876,-0.016552208427075787
5133,5.0,299.97822,1158.8216,0.0,0.0,0.0,0.0,0.051159633593752286,0.0,-0.07267060216028003,-0.0987892340877383,-0.18079298931037882,0.13570960148099487,0.46942879081651456,-0.013703573307937388
5134,5.0,300.09537,995.47561,0.0,0.0,0.0,0.0,0.0511696004033361,0.0,-0.094949266481513,-0.08724254498941882,-0.12040791390333588,0.1241867085612739,0.4757105462689756,0.008404202128280172
5135,5.0,301.93261,945.9361,0.0,0.0,0.0,0.0,0.05117956721291993,0.0,-0.13543033962093387,-0.08180737519425932,-0.07030323854713943,0.12128622948751888,0.45195007460399955,-0.023578689530785478
5136,5.0,301.1302,1223.5089,0.0,0.0,0.0,0.0,0.051189534022503744,0.0,-0.13996571799604088,-0.11264800893999288,-0.11930243777923388,0.1053172356590019,0.43059310310373056,-0.034587702529790466
5137,5.0,299.78753,1148.0801,0.0,0.0,0.0,0.0,0.05119950083208756,0.0,-0.12363560183188388,-0.0957828764580339,-0.12956919441748388,0.10127600719866371,0.44245856574976056,-0.05031370581207616
5138,5.0,299.32457999999997,795.90768,0.0,0.0,0.0,0.0,0.05120946764167139,0.0,-0.03442258126699427,-0.10668590349657889,-0.1008275710754065,0.12037242988483389,0.44738322468078656,-0.03140604655328547
5139,5.0,300.26367999999997,767.8023599999999,0.0,0.0,0.0,0.0,0.05121943445125521,0.0,-0.046302898159490256,-0.08144195363844502,-0.1056478996966359,0.1003549213145096,0.4618624571522756,-0.032658001151593764
5140,5.0,299.36079,1090.8286,0.0,0.0,0.0,0.0,0.05122940126083903,0.0,-0.1031372584663549,-0.09631180719573532,-0.1321355846682669,0.1044761164859899,0.4532691641141835,-0.007974903664961713
5141,5.0,300.40132,985.0892,0.0,0.0,0.0,0.0,0.05123936807042285,0.0,-0.13803900266588887,-0.06978044202554343,-0.09162307443124341,0.1025876716121149,0.4571996524445926,-0.01150753508795529
5142,5.0,299.8474,751.76998,0.0,0.0,0.0,0.0,0.051249334880006665,0.0,-0.05217333385310715,-0.07393549798886553,-0.1024104744346269,0.12113643059273489,0.4625782271554165,-0.020372500742859283
5143,5.0,299.5326,877.00914,0.0,0.0,0.0,0.0,0.05125930168959049,0.0,-0.07839949796067802,-0.08596032359737342,-0.10222906213672289,0.12928753115468586,0.44023805855311354,-0.03534586286411507
5144,5.0,300.54438999999996,1076.2587,0.0,0.0,0.0,0.0,0.051269268499174306,0.0,-0.07925530318063942,-0.10331882275177391,-0.14458162948909586,0.12495546141214389,0.43688596377728756,-0.019166883084874083
5145,5.0,300.01656,1154.8209,0.0,0.0,0.0,0.0,0.051279235308758137,0.0,-0.1040455561209969,-0.11489122307138087,-0.13209994866224986,0.11750363514170588,0.4706321975627815,-0.03063445558888537
5146,5.0,299.84002000000004,1221.5047,0.0,0.0,0.0,0.0,0.05128920211834195,0.0,-0.14952145677411888,-0.09012221595912022,-0.13166324800165086,0.11953187813187788,0.4474994647322586,0.01921926304879358
5147,5.0,300.03144,1088.1715,0.0,0.0,0.0,0.0,0.05129916892792577,0.0,-0.13756599725420685,-0.1060266221865129,-0.08718435504942591,0.11598523933685188,0.4365725553888566,-0.007801402418538473
5148,5.0,300.52025,1009.1039999999999,0.0,0.0,0.0,0.0,0.051309135737509594,0.0,-0.096707751897562,-0.10635204772112991,-0.1036826200676779,0.1009959843877776,0.4195049552719156,-0.028294232892923373
5149,5.0,301.02392000000003,1190.7289,0.0,0.0,0.0,0.0,0.05131910254709341,0.0,-0.12057401599222889,-0.1034156185338269,-0.1379622084408099,0.1049966027973579,0.4301798895804496,-0.021666692671586083
5150,5.0,300.64035,1166.0611,0.0,0.0,0.0,0.0,0.05132906935667723,0.0,-0.09003382812639701,-0.11849262803431189,-0.14592699257437286,0.1113789334547449,0.4387587742021196,-0.014896977249217184
5151,5.0,300.15492,751.80311,0.0,0.0,0.0,0.0,0.05133903616626105,0.0,-0.03351554004247627,-0.07043856417749503,-0.12457526970962188,0.13259736326884086,0.45795162587380656,-0.012738771761468887
5152,5.0,299.36843,680.86194,0.0,0.0,0.0,0.0,0.05134900297584487,0.0,-0.06588034005238334,-0.060923915730722346,-0.08016077285425233,0.12160767294924288,0.4552864437382736,-0.02341964472883898
5153,5.0,300.42814,894.1666,0.0,0.0,0.0,0.0,0.0513589697854287,0.0,-0.08564084077459291,-0.06490395908377203,-0.12125952021488288,0.12203909457682088,0.4843196764061305,0.00978365783702185
5154,5.0,300.06358,956.59682,0.0,0.0,0.0,0.0,0.051368936595012515,0.0,-0.08076775627365691,-0.07831361285570183,-0.13170018096779587,0.097052905411626,0.45615284350128055,-0.03093727652702147
5155,5.0,300.29418,1191.4745,0.0,0.0,0.0,0.0,0.05137890340459633,0.0,-0.0979136218548221,-0.12574859306041988,-0.13851627386049187,0.13504957036585485,0.4396056689007016,-0.011996898409251687
5156,5.0,299.88014,1245.6998,0.0,0.0,0.0,0.0,0.051388870214180156,0.0,-0.0888981784275671,-0.14170844737303487,-0.14805500016939085,0.12606664213430888,0.4247180561089086,-0.06624405934802964
5157,5.0,300.5678,1068.0561,0.0,0.0,0.0,0.0,0.05139883702376397,0.0,-0.08827753741006461,-0.1040855085724399,-0.13229934614942887,0.14575835736022985,0.4425701144532696,-0.01038963449112709
5158,5.0,300.03375,973.4234,0.0,0.0,0.0,0.0,0.0514088038333478,0.0,-0.1191449584486919,-0.08445441407350172,-0.09229703672200831,0.10612689341640891,0.4423081183749126,-0.044517985154333056
5159,5.0,299.97494,1207.9024,0.0,0.0,0.0,0.0,0.05141877064293162,0.0,-0.12489724006139788,-0.09408939103589992,-0.14818553717977387,0.1004685390747228,0.46354548583337757,0.017087406116645682
5160,5.0,299.86567,919.4422,0.0,0.0,0.0,0.0,0.05142873745251544,0.0,-0.07215425092257013,-0.09667156265699041,-0.11066165370895491,0.095397102760711,0.46144412671598956,-0.03852726350159486
5161,5.0,300.43617,575.05449,0.0,0.0,0.0,0.0,0.05143870426209926,0.0,-0.02013587138075578,-0.059401607767232245,-0.0952647267013965,0.1235923360526139,0.4806276868842595,0.0032527078092922674
5162,5.0,299.52148,844.80887,0.0,0.0,0.0,0.0,0.05144867107168308,0.0,-0.05020516342161385,-0.05739934349637415,-0.14919629468452786,0.12479750585405489,0.45484817254001964,-0.02285108375322638
5163,5.0,299.67992999999996,1262.8516,0.0,0.0,0.0,0.0,0.05145863788126691,0.0,-0.12509379031579587,-0.11009394994292689,-0.14868762286932588,0.1132203128614749,0.4403905729581656,0.004251801792145166
5164,5.0,300.14493999999996,1167.6583,0.0,0.0,0.0,0.0,0.051468604690850725,0.0,-0.1348638213575229,-0.09849718906441571,-0.12157794419130889,0.11416478354468688,0.4351332842843116,-0.015716451373592986
5165,5.0,301.08878,1263.8672,0.0,0.0,0.0,0.0,0.05147857150043454,0.0,-0.1170644216208589,-0.12262774222241589,-0.14449192645774286,0.12836510879364987,0.4535578694651766,-0.01017623490081619
5166,5.0,299.79093,1240.298,0.0,0.0,0.0,0.0,0.051488538310018366,0.0,-0.13351905608980486,-0.1026716801779059,-0.14082888549122888,0.12750963186672087,0.4653170827057206,-0.0046470890973069855
5167,5.0,299.11212,1127.9963,0.0,0.0,0.0,0.0,0.05149850511960218,0.0,-0.10195634587230791,-0.0944297478239905,-0.14649662151559084,0.10523918500379889,0.48031795659369153,-0.028179161118816673
5168,5.0,298.92876,1179.0801,0.0,0.0,0.0,0.0,0.05150847192918601,0.0,-0.09855841064870781,-0.1280870830987109,-0.13176540387673286,0.12253525275328789,0.4600436833552765,-0.04037734672668386
5169,5.0,300.39336000000003,928.8694800000001,0.0,0.0,0.0,0.0,0.05151843873876983,0.0,-0.1009732267905316,-0.08254834878038772,-0.0988315534914149,0.12716262410497386,0.4748142657605195,-0.03074502245304747
5170,5.0,300.20149,478.24875,0.0,0.0,0.0,0.0,0.05152840554835365,0.0,-0.026850794290717076,-0.042671509099600054,-0.07585337473839522,0.13031076176817089,0.4452159232468905,-0.015561168769267787
5171,5.0,300.19299,639.74499,0.0,0.0,0.0,0.0,0.05153837235793747,0.0,-0.040669551843522264,-0.08189877541952982,-0.07189817425129734,0.08693479256304601,0.4467368927069985,-0.04047504328807576
5172,5.0,300.45094,1094.4744,0.0,0.0,0.0,0.0,0.05154833916752129,0.0,-0.07965508506059482,-0.0947186872357566,-0.15831910209237884,0.09511007940488402,0.43126357069490057,-0.013169941089771988
5173,5.0,300.72753,1073.6439,0.0,0.0,0.0,0.0,0.05155830597710512,0.0,-0.08345973887433492,-0.1118546949066989,-0.13104649279828187,0.11981023819934988,0.45488246092340356,-0.04237232066307246
5174,5.0,299.90757,893.8183300000001,0.0,0.0,0.0,0.0,0.051568272786688935,0.0,-0.057231867440345544,-0.0986271829727451,-0.11583940224995888,0.14730565105793586,0.45405727004196356,-0.01935360886630248
5175,5.0,298.881,1078.1319,0.0,0.0,0.0,0.0,0.05157823959627275,0.0,-0.14748661752579587,-0.08302082831526783,-0.0972177318186431,0.12290918257019187,0.46533901957038554,-0.02946766668798227
5176,5.0,299.04014,1345.4581,0.0,0.0,0.0,0.0,0.051588206405856575,0.0,-0.16295816635021884,-0.11817894606835389,-0.1278485538926699,0.12163517255695688,0.4565407156395606,-0.012927671977611887
5177,5.0,300.02684,1028.8914,0.0,0.0,0.0,0.0,0.05159817321544039,0.0,-0.14124738818003188,-0.07081127809427903,-0.10069863905318191,0.0910184245268191,0.4791804921639325,-0.00966261599332595
5178,5.0,299.63867,828.97994,0.0,0.0,0.0,0.0,0.05160814002502422,0.0,-0.07267913271287194,-0.07035072653957614,-0.1089593428784499,0.10829815665819591,0.4707861001204705,0.01048596417813409
5179,5.0,299.59755,883.70742,0.0,0.0,0.0,0.0,0.05161810683460804,0.0,-0.0921384590283579,-0.049275155870329254,-0.12721137156728488,0.08417514309418983,0.4581207778455006,-0.02179890762413468
5180,5.0,300.00427,1174.5869,0.0,0.0,0.0,0.0,0.051628073644191856,0.0,-0.10966502091059491,-0.0971639555960858,-0.15021610051267484,0.1047937399948369,0.43904197760506963,-0.015282666846781786
5181,5.0,299.54999,1253.479,0.0,0.0,0.0,0.0,0.05163804045377568,0.0,-0.12779980643035888,-0.1180660902722159,-0.13516041992679487,0.09789394555113022,0.43644256553352756,-0.038156041088958065
5182,5.0,300.86397999999997,1201.3664,0.0,0.0,0.0,0.0,0.0516480072633595,0.0,-0.11611546223970388,-0.10360725452523989,-0.14546269098104986,0.10428204869433691,0.41718660864561263,0.0006880435996571163
5183,5.0,301.05523,967.5174800000001,0.0,0.0,0.0,0.0,0.05165797407294333,0.0,-0.08175945353077983,-0.0978010021459574,-0.11454069933178689,0.12420203903528688,0.4332033164213386,-0.03027940160809427
5184,5.0,300.24941,912.7563,0.0,0.0,0.0,0.0,0.051667940882527144,0.0,-0.08444876216444391,-0.06376472653258854,-0.12924164105765687,0.1163260257429849,0.44987273964648256,0.0009185045079343372
5185,5.0,300.98885,1074.9305,0.0,0.0,0.0,0.0,0.05167790769211096,0.0,-0.08201154508940932,-0.08361485327914352,-0.16112564274936286,0.13631629511087087,0.4880631998280875,-0.00979816089100319
5186,5.0,300.0891,914.80786,0.0,0.0,0.0,0.0,0.051687874501694785,0.0,-0.07309366244803282,-0.08673036732887082,-0.11825471691083189,0.1137798802291999,0.4721349690510936,-0.003842008393251706
5187,5.0,299.75897000000003,983.5952900000001,0.0,0.0,0.0,0.0,0.0516978413112786,0.0,-0.1017890076182929,-0.08628642193005681,-0.1109129802637589,0.1195138321475969,0.4547442941397676,-0.03928769858239396
5188,5.0,299.51162999999997,1158.281,0.0,0.0,0.0,0.0,0.05170780812086243,0.0,-0.13775125990249087,-0.0891743802723261,-0.12516284331011088,0.10691690425437689,0.42991918032971954,-0.027202731514200572
5189,5.0,299.35207,1076.6713,0.0,0.0,0.0,0.0,0.05171777493044625,0.0,-0.1067393929693579,-0.0952942791538131,-0.1252475206209679,0.11646332113153487,0.45200780959469755,-0.01937316965948298
5190,5.0,298.50439,972.2769999999999,0.0,0.0,0.0,0.0,0.051727741740030066,0.0,-0.06430536233544515,-0.0910305024680111,-0.14021205936035286,0.1075348956228679,0.46007404032827254,-0.018455580501423985
5191,5.0,299.71856,1193.3735,0.0,0.0,0.0,0.0,0.05173770854961389,0.0,-0.07314975597356883,-0.11842398034003689,-0.17118199800434783,0.0939921696888049,0.48330506855099653,-0.016893400133248786
5192,5.0,299.88863,1200.6992,0.0,0.0,0.0,0.0,0.051747675359197706,0.0,-0.11457804773047288,-0.1095030224846069,-0.14090151525839686,0.1136534266167199,0.46416593939961154,-0.03691144876587637
5193,5.0,300.06224,1027.7634,0.0,0.0,0.0,0.0,0.05175764216878154,0.0,-0.08204457197641883,-0.11050698108118989,-0.1198628664095439,0.14545965123074986,0.47815643068536556,-0.00998511364045399
5194,5.0,299.29225,939.51025,0.0,0.0,0.0,0.0,0.051767608978365354,0.0,-0.08797349955855842,-0.1069216867948489,-0.0906924670358996,0.12778955233934688,0.4552691982215715,-0.03793466418060986
5195,5.0,301.05147,1087.0361,0.0,0.0,0.0,0.0,0.05177757578794917,0.0,-0.11482843196268389,-0.07174474285490484,-0.14385866541024486,0.12896305807516287,0.42300183335453057,0.014782199317639485
5196,5.0,301.57907,1087.7482,0.0,0.0,0.0,0.0,0.051787542597532994,0.0,-0.09593700091749481,-0.1127514820402049,-0.12195981788899687,0.10002748954469459,0.42096135030315057,-0.033797194186023366
5197,5.0,301.08024,1028.0057,0.0,0.0,0.0,0.0,0.05179750940711681,0.0,-0.07191089155330244,-0.08527211197045222,-0.15530504781491486,0.11782428826835188,0.46528272339482957,-0.015578517637479984
5198,5.0,300.30092,1265.108,0.0,0.0,0.0,0.0,0.051807476216700635,0.0,-0.11953316495950488,-0.0988265348636696,-0.16620152925781384,0.09641068621999391,0.46824929677260757,-0.021666243801791777
5199,5.0,300.30249,1311.4033,0.0,0.0,0.0,0.0,0.05181744302628445,0.0,-0.1079225043161219,-0.14535291546521587,-0.14535844781076185,0.08098186108603742,0.4588127770012956,-0.033189117469760866
5200,5.0,299.47807,1181.2448,0.0,0.0,0.0,0.0,0.05182740983586828,0.0,-0.13547661475300085,-0.08994152408203732,-0.1336507786028049,0.10104658812427181,0.43856966120345553,-0.037029226931000164
5201,5.0,300.03882000000004,1164.7597,0.0,0.0,0.0,0.0,0.0518373766454521,0.0,-0.11839328899450789,-0.1125047657733559,-0.12315979984992588,0.13176254651145086,0.44799454886361956,-0.024412693661595278
5202,5.0,299.46477000000004,663.52932,0.0,0.0,0.0,0.0,0.051847343455035916,0.0,-0.051243012194291546,-0.05219049729655105,-0.0982628354620368,0.13190436099544686,0.45997112451561556,-0.014780898304511087
5203,5.0,299.35916000000003,731.24527,0.0,0.0,0.0,0.0,0.05185731026461974,0.0,-0.01980190617429598,-0.07250309975974883,-0.12997529492506288,0.1095639796106229,0.4669153631484586,-0.03284374610692537
5204,5.0,299.6962,1094.8594,0.0,0.0,0.0,0.0,0.051867277074203556,0.0,-0.09856682062453781,-0.11655875915845389,-0.11768433816453988,0.10756678260351489,0.4742363889634875,-0.013190322615533486
5205,5.0,300.50417000000004,1017.9494,0.0,0.0,0.0,0.0,0.05187724388378737,0.0,-0.09123640096783173,-0.0993029579679389,-0.11889184857371189,0.1021815711045359,0.4704552840953215,-0.03399868504790897
5206,5.0,300.61181,761.1168299999999,0.0,0.0,0.0,0.0,0.0518872106933712,0.0,-0.07641107772593622,-0.06544479247039814,-0.08950464204967042,0.15007875446161986,0.4573697568713806,-0.023422693598389877
5207,5.0,301.00908,890.4427800000001,0.0,0.0,0.0,0.0,0.051897177502955014,0.0,-0.08411635027038743,-0.08310979167404783,-0.1034462288193479,0.1102437083077069,0.41516281382337955,-0.027084589592290872
5208,5.0,300.30307999999997,1420.0999,0.0,0.0,0.0,0.0,0.051907144312538844,0.0,-0.13337945049102687,-0.12933628874949787,-0.16895916033247085,0.12576322439186388,0.4200476722904776,-0.007533215990020533
5209,5.0,300.21173,1441.6996,0.0,0.0,0.0,0.0,0.05191711112212266,0.0,-0.14081257216461887,-0.13427654159956287,-0.16315155526430483,0.1180528774909119,0.4401783983872256,-0.03502956975264937
5210,5.0,299.14862,1128.4585,0.0,0.0,0.0,0.0,0.05192707793170648,0.0,-0.0993179794006714,-0.1108553060680669,-0.1328499361212679,0.14806524412790184,0.4633734967614036,-0.005813692573441785
5211,5.0,299.48902999999996,925.6011699999999,0.0,0.0,0.0,0.0,0.0519370447412903,0.0,-0.07492005385928363,-0.07153957997465683,-0.13490001465109488,0.1151838497002609,0.45265039254311557,-0.023175566965250374
5212,5.0,299.51126,849.63049,0.0,0.0,0.0,0.0,0.05194701155087412,0.0,-0.07704103963110863,-0.09201919037233701,-0.08920622469646891,0.1048255155179729,0.4417666679189756,-0.005835633693757204
5213,5.0,299.49922000000004,958.5772599999999,0.0,0.0,0.0,0.0,0.05195697836045795,0.0,-0.098923669071256,-0.06501706819243504,-0.12744281815512687,0.1187978392294339,0.45236242686469563,-0.024822544207794374
5214,5.0,299.96671000000003,1209.5766,0.0,0.0,0.0,0.0,0.051966945170041766,0.0,-0.0975987168959934,-0.09717958193912801,-0.17290280064917782,0.1089471737447489,0.44785620982746654,-0.003580782790270747
5215,5.0,300.35947999999996,877.2003,0.0,0.0,0.0,0.0,0.05197691197962558,0.0,-0.07172749125870223,-0.099936939436258,-0.0949825568135485,0.11838093747578889,0.45492372046747553,-0.025224041520169077
5216,5.0,300.0978,932.9677300000001,0.0,0.0,0.0,0.0,0.051986878789209406,0.0,-0.08238737069725043,-0.08305971989385612,-0.1181518010981749,0.08662833101730062,0.4593994994717006,-0.03189195570499097
5217,5.0,300.72686,1328.003,0.0,0.0,0.0,0.0,0.05199684559879322,0.0,-0.15431779771248086,-0.12058676267848689,-0.12877517110911987,0.10630329012631791,0.48844533697080156,-0.02078075542015088
5218,5.0,300.55003,1240.6644,0.0,0.0,0.0,0.0,0.052006812408377054,0.0,-0.14606386239788086,-0.1108166809742549,-0.12025044470529489,0.09559747499448622,0.47759170587463157,-0.013754514456714887
5219,5.0,301.01141,907.7003199999999,0.0,0.0,0.0,0.0,0.05201677921796087,0.0,-0.07082862088299063,-0.0917627935140326,-0.11332681557948589,0.11426936108750789,0.4512475579121666,-0.007754087185243823
5220,5.0,300.53224,993.3591,0.0,0.0,0.0,0.0,0.05202674602754469,0.0,-0.08137258552334892,-0.09286315373837972,-0.12772062093504388,0.10941103964052888,0.44445562090185453,-0.016678083473748682
5221,5.0,299.09035,1275.8712,0.0,0.0,0.0,0.0,0.05203671283712851,0.0,-0.11882368723948489,-0.11472858629782991,-0.15428070262631985,0.12277361983931288,0.4434612476512176,-0.0018337895555309383
5222,5.0,300.29655,1026.7731,0.0,0.0,0.0,0.0,0.05204667964671233,0.0,-0.09972312745315641,-0.0939374906604085,-0.1184527566428769,0.1010933526561371,0.43024278201415656,-0.023944106020349274
5223,5.0,300.55093999999997,910.31111,0.0,0.0,0.0,0.0,0.05205664645629616,0.0,-0.062211675547814344,-0.10752358775175189,-0.10697658468526688,0.11901604263846889,0.4323126493184366,-0.03859912725168726
5224,5.0,299.90326,975.04915,0.0,0.0,0.0,0.0,0.052066613265879975,0.0,-0.09307704171523881,-0.08246351846876562,-0.12085003545196987,0.11334004862579188,0.4561056057816186,-0.028230850046167974
5225,5.0,299.63867,913.57838,0.0,0.0,0.0,0.0,0.05207658007546379,0.0,-0.051280660515007154,-0.09243580132320331,-0.13398855565614087,0.13090766740208087,0.47907941033395657,-0.038760322170345966
5226,5.0,299.86918,991.6120800000001,0.0,0.0,0.0,0.0,0.052086546885047616,0.0,-0.07820549400378134,-0.10817925175896088,-0.11504056600361989,0.11105748999302091,0.4790252521161116,-0.03455190643025767
5227,5.0,299.5521,1180.4467,0.0,0.0,0.0,0.0,0.05209651369463143,0.0,-0.10564312728866491,-0.09326628238341542,-0.15991691644007086,0.11790150805847288,0.4639710610078786,-0.002112736598785868
5228,5.0,300.50785,1040.7157,0.0,0.0,0.0,0.0,0.05210648050421526,0.0,-0.1019877464929069,-0.11911181503792087,-0.09525203878364431,0.1003759746250874,0.46243834797911154,-0.042978222944620365
5229,5.0,298.81363999999996,1053.1221,0.0,0.0,0.0,0.0,0.05211644731379908,0.0,-0.13229331731133387,-0.07478378691958514,-0.1130457197367439,0.11169001136794589,0.4715130462722145,-0.004517622281679605
5230,5.0,299.22069,1320.5243,0.0,0.0,0.0,0.0,0.0521264141233829,0.0,-0.15388842285010487,-0.09820876438370041,-0.14930922140817285,0.1029276271531659,0.45104106767428753,-0.003216489387117787
5231,5.0,300.21009,1216.2097,0.0,0.0,0.0,0.0,0.05213638093296672,0.0,-0.1054948482690309,-0.09274341898731281,-0.17145910164169584,0.12861216956553287,0.4496027794223396,0.014450055934859487
5232,5.0,299.81318999999996,911.4663199999999,0.0,0.0,0.0,0.0,0.05214634774255054,0.0,-0.07543360548696723,-0.05781192475159274,-0.14381747679367984,0.13672642835384788,0.4481990328663006,-0.013140599393376185
5233,5.0,300.16889,1078.5681,0.0,0.0,0.0,0.0,0.05215631455213437,0.0,-0.09627435848528941,-0.0944325758050196,-0.13715082815823287,0.14214474273359387,0.43946454342677355,-1.7897489439094683e-05
5234,5.0,300.7088,1164.9164,0.0,0.0,0.0,0.0,0.052166281361718185,0.0,-0.09405853858360501,-0.1086345455588949,-0.15141242464074287,0.1044619613820929,0.42030232230560954,-0.019288110353338283
5235,5.0,300.34805,870.2031300000001,0.0,0.0,0.0,0.0,0.052176248171302,0.0,-0.07183351065641554,-0.09001392080168232,-0.10267259210299591,0.09483409540889651,0.42771808700498853,-0.007495912680963983
5236,5.0,300.56377000000003,1102.8926,0.0,0.0,0.0,0.0,0.052186214980885826,0.0,-0.08469609144760343,-0.1210054376198069,-0.12955028717061787,0.10377804796209589,0.4681333708286665,-0.04242570678434125
5237,5.0,300.17031000000003,1222.1888,0.0,0.0,0.0,0.0,0.05219618179046964,0.0,-0.1032941805093419,-0.10653282167147089,-0.16168788509735185,0.09252367847787611,0.48371943717939153,-0.013008889039377386
5238,5.0,299.71696000000003,856.20967,0.0,0.0,0.0,0.0,0.05220614860005347,0.0,-0.08078040771440552,-0.07771184564781201,-0.1017741027093219,0.11061510499936088,0.4880500377092885,-0.03326331777458387
5239,5.0,300.20991000000004,1096.8058,0.0,0.0,0.0,0.0,0.05221611540963729,0.0,-0.08927533139303923,-0.11439858087276089,-0.12972764646812188,0.1161109836742619,0.44961950818149055,-0.031177595132739072
5240,5.0,298.08515,1111.0508,0.0,0.0,0.0,0.0,0.05222608221922111,0.0,-0.11550031810399389,-0.08260570177579801,-0.13962569152748286,0.12856353356073288,0.4622715062176456,-0.011366734867309389
5241,5.0,299.12883999999997,974.5454300000001,0.0,0.0,0.0,0.0,0.05223604902880493,0.0,-0.11019801072819689,-0.0995293535040324,-0.08651011208838333,0.1159059829140299,0.42267989340025763,-0.02794764562996787
5242,5.0,299.65636,929.5387400000001,0.0,0.0,0.0,0.0,0.05224601583838875,0.0,-0.053161126044344656,-0.09636919869464941,-0.13302624163866789,0.11878083689275588,0.4514548688826266,-0.01933652749611668
5243,5.0,300.00007,894.88959,0.0,0.0,0.0,0.0,0.05225598264797258,0.0,-0.07142429339152893,-0.06274184143738765,-0.13785795513802088,0.1046426542724259,0.4548004687253116,-0.023087328080291878
5244,5.0,300.21719,1044.4335,0.0,0.0,0.0,0.0,0.052265949457556395,0.0,-0.07326869431005713,-0.11110547751775689,-0.13310755495919288,0.13080536967198486,0.4772190932828575,-0.01934026841548588
5245,5.0,300.39774,1009.1793,0.0,0.0,0.0,0.0,0.05227591626714021,0.0,-0.0996860982282519,-0.07059856852728623,-0.13648064427709086,0.10714400399928989,0.4659472330754115,-0.012586651510705787
5246,5.0,300.57886,1159.8349,0.0,0.0,0.0,0.0,0.052285883076724035,0.0,-0.11572135861330889,-0.11697804204983389,-0.11986145799190488,0.11501571097866689,0.4368456465558086,-0.023569135595592577
5247,5.0,300.89921,1121.1048,0.0,0.0,0.0,0.0,0.05229584988630785,0.0,-0.12366831967761287,-0.0979781233296879,-0.11914141207334189,0.1336017069004619,0.4259924815546846,0.006597770933399294
5248,5.0,300.07097000000005,926.3575,0.0,0.0,0.0,0.0,0.05230581669589168,0.0,-0.06336715556435135,-0.08394224857195492,-0.13428014876991887,0.14647001356796485,0.4709344196701086,-0.03051926627776707
5249,5.0,299.64923,1225.4255,0.0,0.0,0.0,0.0,0.0523157835054755,0.0,-0.1172860396827309,-0.11630278178569088,-0.13890995192184488,0.13598466848564186,0.4904626571248955,0.0014908681301122287
5250,5.0,300.57739,1225.7725,0.0,0.0,0.0,0.0,0.052325750315059316,0.0,-0.11943229591204987,-0.08124794562854792,-0.17192398078757581,0.0985007435457665,0.48229441237125253,-0.014853565561932786
5251,5.0,299.92315,731.95461,0.0,0.0,0.0,0.0,0.05233571712464314,0.0,-0.061578955575869745,-0.07550026417129592,-0.08541670579947251,0.1028961657375609,0.47470724628495753,-0.01971841639255618
5252,5.0,298.9245,915.9081199999999,0.0,0.0,0.0,0.0,0.05234568393422696,0.0,-0.08113973051786792,-0.1023270130238899,-0.0949464607919861,0.09978733508549321,0.4775091259914815,-0.044901054487139054
5253,5.0,298.8698,1355.0213,0.0,0.0,0.0,0.0,0.05235565074381078,0.0,-0.14684093403207188,-0.09821021535784359,-0.16684148788847283,0.09964532301772772,0.4280387097341316,-0.02173088814492168
5254,5.0,299.85185,1146.5691,0.0,0.0,0.0,0.0,0.0523656175533946,0.0,-0.07125056355588313,-0.14499340419723486,-0.13228441084295486,0.0976640958454458,0.42440314811032953,-0.04559700531832405
5255,5.0,300.27858,865.44521,0.0,0.0,0.0,0.0,0.052375584362978414,0.0,-0.06101554089751504,-0.08640249074226192,-0.11565570000682888,0.11857013153446087,0.46126574403588455,-0.021474345378602877
5256,5.0,300.33662999999996,919.08096,0.0,0.0,0.0,0.0,0.05238555117256224,0.0,-0.05833586725905184,-0.09865155265090021,-0.12239024653147688,0.16169690302324186,0.4875974391546205,-0.011734615581116388
5257,5.0,300.89745,1050.4805,0.0,0.0,0.0,0.0,0.05239551798214606,0.0,-0.1082751862784289,-0.11305433236259388,-0.09799032590064222,0.13616200751814386,0.4825510483565805,-0.025717661505135575
5258,5.0,300.3684,1142.7212,0.0,0.0,0.0,0.0,0.052405484791729885,0.0,-0.1339909367938759,-0.08305689089957692,-0.13031087322568186,0.09664916679003009,0.46054212134446854,-0.02185608532727768
5259,5.0,299.52957000000004,1202.1222,0.0,0.0,0.0,0.0,0.0524154516013137,0.0,-0.1066291412259769,-0.14194216364110088,-0.11684383707408888,0.10848928602455889,0.44578711259326254,-0.02247308269742058
5260,5.0,299.47952000000004,976.4681,0.0,0.0,0.0,0.0,0.05242541841089752,0.0,-0.07706326324555193,-0.08856268118695611,-0.13119597758553486,0.11495260576243889,0.4570518800500086,-0.022785795996282977
5261,5.0,299.71699,965.4430800000001,0.0,0.0,0.0,0.0,0.05243538522048134,0.0,-0.08199703636122742,-0.07910236219729533,-0.13237119571401987,0.13072871730191987,0.4405073500321906,0.0028078073209340075
5262,5.0,300.53569,1270.191,0.0,0.0,0.0,0.0,0.05244535203006516,0.0,-0.1140703992978719,-0.10855912935395189,-0.16347682881140685,0.09326697848623411,0.43164870705791064,-0.03531818087138307
5263,5.0,300.05043,1186.8521,0.0,0.0,0.0,0.0,0.05245531883964899,0.0,-0.1189490161443539,-0.07508749749130902,-0.16673689008064985,0.1051440813494129,0.47758606207157456,0.006829185502538133
5264,5.0,299.64808999999997,923.73364,0.0,0.0,0.0,0.0,0.05246528564923281,0.0,-0.08812106221037173,-0.09046448778989982,-0.1022064058644869,0.1145700430546829,0.49720443825525756,-0.042905054128399164
5265,5.0,299.57058,1130.9494,0.0,0.0,0.0,0.0,0.052475252458816624,0.0,-0.08783949014008273,-0.11017107854053891,-0.14576980708635986,0.1282004252548969,0.46546631418044854,-0.011860798655819687
5266,5.0,299.84644,1211.856,0.0,0.0,0.0,0.0,0.05248521926840045,0.0,-0.13301935153798788,-0.06248259937280244,-0.17287200797863883,0.1092663475262489,0.43063277184514565,-0.007756207816378112
5267,5.0,299.71327,1019.1269,0.0,0.0,0.0,0.0,0.052495186077984264,0.0,-0.08684353317953941,-0.11221851248760491,-0.11072707926791188,0.1171548237947809,0.44568497698318255,-0.009947791180970552
5268,5.0,299.75433,931.60143,0.0,0.0,0.0,0.0,0.052505152887568095,0.0,-0.06556966642597223,-0.07297333595890752,-0.14464057024741286,0.12252908206017889,0.47809967854726454,-0.01037290978497649
5269,5.0,300.87698,1044.5757,0.0,0.0,0.0,0.0,0.05251511969715191,0.0,-0.13137648809084987,-0.07998409648731572,-0.10616434314010491,0.11263828173903288,0.4523146723874826,-0.02215556355333388
5270,5.0,300.59055,1033.4763,0.0,0.0,0.0,0.0,0.05252508650673573,0.0,-0.1009470636596995,-0.10904454707935889,-0.1041593846372309,0.1141947453501439,0.45236945882038965,-0.026345373995085974
5271,5.0,300.95423,936.4037599999999,0.0,0.0,0.0,0.0,0.05253505331631955,0.0,-0.08922345096141901,-0.06645753189234774,-0.1289623791975959,0.10615405865158989,0.4512066226081266,-0.03498622291337136
5272,5.0,299.50555,1103.2418,0.0,0.0,0.0,0.0,0.05254502012590337,0.0,-0.07671581269351123,-0.11900713617008989,-0.13963500329590187,0.14463389292925388,0.46724555095854553,-0.01188003419571809
5273,5.0,299.11035,1156.6572,0.0,0.0,0.0,0.0,0.0525549869354872,0.0,-0.1016761214246519,-0.09500390903290581,-0.15491486546640684,0.12339396194803588,0.4246995541620826,-0.01855142180188278
5274,5.0,300.13782000000003,1132.1778,0.0,0.0,0.0,0.0,0.052564953745071016,0.0,-0.08234582541665023,-0.09667138635147302,-0.16513656287270984,0.12781192490155488,0.43264582621631864,0.0034257958523247266
5275,5.0,299.60477000000003,1127.6306,0.0,0.0,0.0,0.0,0.05257492055465483,0.0,-0.11926827098586189,-0.1181532905758219,-0.1053499636372319,0.09093844970967623,0.46145581962214355,-0.01620032794559788
5276,5.0,299.30356,873.97969,0.0,0.0,0.0,0.0,0.05258488736423866,0.0,-0.08111849380902202,-0.04853539109157016,-0.13601411353354786,0.100693786598453,0.49907223309209453,0.0008058761661787851
5277,5.0,299.93164,860.8144800000001,0.0,0.0,0.0,0.0,0.052594854173822474,0.0,-0.08679676966092423,-0.09634650493215971,-0.07852283380260033,0.07925095431121022,0.48964679827687657,-0.03528926170027896
5278,5.0,299.49492000000004,1004.4397,0.0,0.0,0.0,0.0,0.052604820983406304,0.0,-0.11627789636323489,-0.06521895320860953,-0.12382772418334488,0.1102619670745089,0.43538380023903556,-0.007092029468578813
5279,5.0,299.24973,1062.7657,0.0,0.0,0.0,0.0,0.05261478779299012,0.0,-0.08476222121537992,-0.08574267240964292,-0.15254933178294686,0.14080069687344687,0.4285265896572815,-0.014817564785879785
5280,5.0,300.67056,856.65894,0.0,0.0,0.0,0.0,0.05262475460257394,0.0,-0.02772366568211277,-0.1159665246075049,-0.11671274277615089,0.17451850899363583,0.4445189794306076,-0.03124298421469247
5281,5.0,300.08502000000004,999.0738,0.0,0.0,0.0,0.0,0.05263472141215776,0.0,-0.1072297046927479,-0.08121374134492222,-0.11525003519679289,0.1169005993446909,0.4399507818847616,-0.014874380758737087
5282,5.0,301.67792000000003,1417.8764,0.0,0.0,0.0,0.0,0.05264468822174158,0.0,-0.13348898282683688,-0.13376085809366886,-0.16374917017328486,0.09691460690547701,0.43044019353113966,-0.032757373628651075
5283,5.0,301.00176,1092.2907,0.0,0.0,0.0,0.0,0.05265465503132541,0.0,-0.12191973371504089,-0.1059574678671879,-0.1041518967189919,0.07788072910822952,0.4914587832982055,-0.01909285604581818
5284,5.0,300.35626,894.4758699999999,0.0,0.0,0.0,0.0,0.052664621840909226,0.0,-0.06151063212162674,-0.07854097097939033,-0.13184672732975886,0.09918991877353281,0.5000158627777235,0.0016470422932004184
5285,5.0,300.7065,1162.954,0.0,0.0,0.0,0.0,0.05267458865049304,0.0,-0.10465167219831589,-0.1119640448574909,-0.13689324985031187,0.09112266161760652,0.44917342482496564,-0.017114210634791086
5286,5.0,299.80539,1117.8197,0.0,0.0,0.0,0.0,0.052684555460076866,0.0,-0.09099875024962742,-0.09239943577711432,-0.15639109993459985,0.08286585677872332,0.4343153584060886,0.002390641210337918
5287,5.0,299.94858,1001.5112,0.0,0.0,0.0,0.0,0.05269452226966068,0.0,-0.0969552139164846,-0.09464340376657672,-0.11283579458102588,0.11862711672008487,0.4536370042979866,-0.018312477163300783
5288,5.0,300.5565,1120.5912,0.0,0.0,0.0,0.0,0.052704489079244514,0.0,-0.08086496242200043,-0.12045047040753588,-0.13931630574194886,0.14456880174282985,0.48536679945697353,-0.02254638222290468
5289,5.0,299.63505,1057.149,0.0,0.0,0.0,0.0,0.05271445588882833,0.0,-0.12167334168822388,-0.08537440666079792,-0.11429914050794689,0.14260772710178685,0.4997016336567115,-0.03110904977672417
5290,5.0,299.41267,1110.0734,0.0,0.0,0.0,0.0,0.05272442269841215,0.0,-0.09762993918457481,-0.12593046132086888,-0.11387418341600689,0.11414722392045389,0.4719479534801366,-0.04422906398106875
5291,5.0,300.35356,1179.8711,0.0,0.0,0.0,0.0,0.05273438950799597,0.0,-0.1020598595025239,-0.09624099317274651,-0.16035050642286283,0.11826697723704188,0.4786829255698265,-0.013047466510434688
5292,5.0,299.43959,857.82063,0.0,0.0,0.0,0.0,0.05274435631757979,0.0,-0.07215559955845323,-0.06131347594366894,-0.1272869802897469,0.09768656365316322,0.4476942823289856,-0.01047480221503249
5293,5.0,299.32165,860.4368,0.0,0.0,0.0,0.0,0.05275432312716362,0.0,-0.06301696923704064,-0.09845534386178591,-0.1000789900075273,0.12090192398959089,0.4206938117467466,-0.005663957209439055
5294,5.0,298.86453,1210.6027,0.0,0.0,0.0,0.0,0.052764289936747436,0.0,-0.13912318027288886,-0.07770609140049413,-0.15116372240369785,0.08412650607613971,0.4158561099393026,-0.015952067485596487
5295,5.0,298.54357000000005,1290.0069,0.0,0.0,0.0,0.0,0.05277425674633125,0.0,-0.15443585148163186,-0.1133499683442709,-0.12434406630180388,0.13351181135158985,0.47179958326799354,-0.007244007763002902
5296,5.0,299.763,904.2574900000001,0.0,0.0,0.0,0.0,0.052784223555915076,0.0,-0.09435982951409011,-0.08678421650543532,-0.09372765163094901,0.14623802995756988,0.48881284278207154,-0.026231859586382977
5297,5.0,300.20682,878.24109,0.0,0.0,0.0,0.0,0.05279419036549889,0.0,-0.07327142603232673,-0.07170973709045003,-0.12198220058370587,0.15109442622935884,0.4830819103489725,-0.01959384843851228
5298,5.0,300.25946,1155.0234,0.0,0.0,0.0,0.0,0.052804157175082723,0.0,-0.09719385052703622,-0.1193902966954049,-0.1345141183505099,0.11905471839478587,0.4545230611129335,-0.024370596159690578
5299,5.0,300.88532000000004,1119.5982,0.0,0.0,0.0,0.0,0.05281412398466654,0.0,-0.08173776693888951,-0.11290463479281988,-0.14568749064823586,0.1108654183040649,0.4607868009786166,-0.02137452909800178
5300,5.0,300.45066,958.9103,0.0,0.0,0.0,0.0,0.05282409079425035,0.0,-0.05780574797898315,-0.0999909436400878,-0.13368809660398787,0.09158535619627092,0.48126815213996854,-0.039714075237724064
5301,5.0,299.76963,972.0093699999999,0.0,0.0,0.0,0.0,0.05283405760383418,0.0,-0.09667688120676532,-0.10349819841697691,-0.0952914967690385,0.08650418356204823,0.47464033124835353,-0.034409314783434966
5302,5.0,299.25228,1111.7686,0.0,0.0,0.0,0.0,0.052844024413418,0.0,-0.11858788367621288,-0.07946406411199251,-0.13989795182935288,0.1029049607484289,0.47049031215127857,-0.027675150254074674
5303,5.0,299.1323,1124.9134,0.0,0.0,0.0,0.0,0.05285399122300183,0.0,-0.12947855919603887,-0.0977661037860132,-0.11470093470260088,0.13367042552224387,0.4819125184085626,-0.02071590640050078
5304,5.0,299.11982,1101.5372,0.0,0.0,0.0,0.0,0.052863958032585645,0.0,-0.10222033805336189,-0.08557252238660042,-0.14704694804240384,0.13934031976931888,0.4575466804713416,-0.005178950559597625
5305,5.0,299.55811,1067.3456,0.0,0.0,0.0,0.0,0.05287392484216946,0.0,-0.08404708044055102,-0.1031409872267229,-0.13725834412634386,0.13930683185351386,0.4125917119596316,0.01237054046312729
5306,5.0,300.27936,964.0524,0.0,0.0,0.0,0.0,0.052883891651753286,0.0,-0.07246194559368724,-0.11050255317825289,-0.11008335134688091,0.14768421142779686,0.41704177467631864,-0.03330834863552807
5307,5.0,301.43424,1257.9161,0.0,0.0,0.0,0.0,0.0528938584613371,0.0,-0.1341118073983049,-0.10992315650607089,-0.13834011019810588,0.1292198156505029,0.46568394003692654,-0.009571031660512281
5308,5.0,300.94225,1120.672,0.0,0.0,0.0,0.0,0.05290382527092092,0.0,-0.1148236899522159,-0.08822796414892212,-0.13760463248051988,0.12876324515544288,0.48869449517039154,-0.03926788447668846
5309,5.0,300.54803,883.5007,0.0,0.0,0.0,0.0,0.05291379208050474,0.0,-0.08614143698649793,-0.08079880023022072,-0.1016219125443019,0.07875641024215253,0.48758734718362456,-0.019050267117614983
5310,5.0,299.63691,896.3971300000001,0.0,0.0,0.0,0.0,0.05292375889008856,0.0,-0.07965932652551341,-0.06130052863389115,-0.1315224872977589,0.12039794352235189,0.48528577997897754,-0.01098003911239549
5311,5.0,299.67543,1067.2966,0.0,0.0,0.0,0.0,0.05293372569967238,0.0,-0.09082691620491873,-0.10419086631783789,-0.12941373145464086,0.12294175856090687,0.47260323245230756,-0.015349220153100087
5312,5.0,299.25191,925.8957199999999,0.0,0.0,0.0,0.0,0.0529436925092562,0.0,-0.06511857558745303,-0.08037666200005893,-0.13595394674260985,0.14941239053335484,0.4537025210494526,-0.007700267595582242
5313,5.0,299.122,848.8143,0.0,0.0,0.0,0.0,0.052953659318840024,0.0,-0.09631110400016592,-0.05779361532228574,-0.10391363095797691,0.11024879482320889,0.42433600002620253,-0.015573399711224884
5314,5.0,299.57436,1106.6444,0.0,0.0,0.0,0.0,0.05296362612842385,0.0,-0.1111253574847189,-0.0982208747488956,-0.12704602941596688,0.11984353359763589,0.4509589032236786,-0.013149005316205787
5315,5.0,300.49948,1094.5808,0.0,0.0,0.0,0.0,0.052973592938007664,0.0,-0.12343346856943489,-0.07167786834830484,-0.13761390371893487,0.08479076649719712,0.4777644852816835,-0.03193823995630887
5316,5.0,300.04943,1138.8905,0.0,0.0,0.0,0.0,0.05298355974759149,0.0,-0.094720829246468,-0.1124577307037139,-0.13901571496728288,0.1021818345495619,0.48159402350462954,-0.030944783697012368
5317,5.0,300.42381,1268.2002,0.0,0.0,0.0,0.0,0.052993526557175305,0.0,-0.11460385521051988,-0.11507473279699189,-0.15582261596599487,0.09196914189689762,0.4300732956699295,-0.03173943420718827
5318,5.0,301.02601,1206.7405,0.0,0.0,0.0,0.0,0.053003493366759136,0.0,-0.1016453388866139,-0.1125663511144339,-0.15260728968866685,0.11538086604970488,0.43259694703149465,-0.017220000024731685
5319,5.0,301.34005,943.22057,0.0,0.0,0.0,0.0,0.05301346017634295,0.0,-0.07028490783958033,-0.1251941426056999,-0.09123645163033672,0.16321761917082483,0.4603473746752486,-0.042899476186598666
5320,5.0,300.71654,1124.4944,0.0,0.0,0.0,0.0,0.05302342698592677,0.0,-0.10690030721773888,-0.10114662022714421,-0.13377129456969888,0.15601584276006486,0.4742598153057995,-0.00981350980616801
5321,5.0,300.26774,1124.777,0.0,0.0,0.0,0.0,0.05303339379551059,0.0,-0.12233131590566089,-0.09209158101248141,-0.12748122033391687,0.12434944665983488,0.4603062063236855,-0.01079748082862839
5322,5.0,299.89611,893.85012,0.0,0.0,0.0,0.0,0.05304336060509441,0.0,-0.08985393367714282,-0.06999785205975013,-0.11185632623935991,0.091543580907898,0.47507507633625956,-0.005680157558662905
5323,5.0,300.2018,1122.0608,0.0,0.0,0.0,0.0,0.05305332741467824,0.0,-0.08459597727147292,-0.10277138398774589,-0.15371110408260485,0.0971274917647371,0.49500002147019856,-0.0003078643094488417
5324,5.0,299.7006,1165.5653,0.0,0.0,0.0,0.0,0.05306329422426206,0.0,-0.10979348075827289,-0.09471877538851531,-0.14979048480816987,0.07395273337306651,0.46364027538023256,0.0013929491603233788
5325,5.0,299.06584,1162.9715,0.0,0.0,0.0,0.0,0.053073261033845874,0.0,-0.1100841011519549,-0.09021877464064981,-0.15321140966328886,0.11542038280360489,0.42677003954892356,-0.015737761036446085
5326,5.0,300.16938999999996,1308.7653,0.0,0.0,0.0,0.0,0.0530832278434297,0.0,-0.14013873045061587,-0.09536262996580881,-0.16233063016578586,0.10349640496429989,0.4552308467052866,-0.015646169306906686
5327,5.0,300.13271000000003,1205.0589,0.0,0.0,0.0,0.0,0.053093194653013515,0.0,-0.13954892769990687,-0.1204784462427969,-0.10628045146906391,0.15606990978540083,0.4657575627891925,-0.035701148879179065
5328,5.0,300.12591000000003,989.7343300000001,0.0,0.0,0.0,0.0,0.053103161462597345,0.0,-0.07736770639709813,-0.11525222381700889,-0.10823458534692189,0.13989197365376285,0.48395485570762553,-0.03574799041805197
5329,5.0,299.38023,967.5674300000001,0.0,0.0,0.0,0.0,0.05311312827218116,0.0,-0.08678444955295832,-0.0961716260709005,-0.11116026395066389,0.12267400722198189,0.47634092968618963,-0.02090778658518788
5330,5.0,299.29061,1067.5078,0.0,0.0,0.0,0.0,0.05312309508176498,0.0,-0.10936616279359988,-0.0901007745737541,-0.12502878018937988,0.12592388532771986,0.46783086501131155,-0.014150356820281488
5331,5.0,300.4446,1046.468,0.0,0.0,0.0,0.0,0.0531330618913488,0.0,-0.10080142618307622,-0.08068169587641343,-0.13661701760804987,0.1156761372613459,0.4729080890098945,0.0056461324176548845
5332,5.0,300.84583,1033.3929,0.0,0.0,0.0,0.0,0.05314302870093262,0.0,-0.08676908462844192,-0.1126987018424959,-0.1146578513083489,0.09142771778546323,0.46752863277148354,-0.04061986509836856
5333,5.0,300.93091,1199.8391,0.0,0.0,0.0,0.0,0.05315299551051645,0.0,-0.11556066727994987,-0.10489309929964291,-0.14426736997058087,0.1008863557932081,0.4354965445776626,-0.001946539467033488
5334,5.0,301.27082,1301.9792,0.0,0.0,0.0,0.0,0.05316296232010027,0.0,-0.11869521725930587,-0.11508900949090088,-0.16198493962916885,0.1038008359568449,0.45860906306869054,-0.06046606043453554
5335,5.0,300.25511,1175.3836,0.0,0.0,0.0,0.0,0.053172929129684084,0.0,-0.1087132852241659,-0.12419197746179388,-0.12438202265054989,0.12391590733954788,0.48170125576271255,-0.03531598414516627
5336,5.0,299.41119,1088.2546,0.0,0.0,0.0,0.0,0.05318289593926791,0.0,-0.07677942554803933,-0.11319741340921488,-0.14082539991088489,0.1204689520893599,0.4855284128479236,-0.04579725900183755
5337,5.0,300.53087,1071.8057,0.0,0.0,0.0,0.0,0.053192862748851724,0.0,-0.07546725552278823,-0.1181851370264649,-0.13214978030216787,0.12070646804530089,0.4527005788205685,-0.0071871675734682125
5338,5.0,299.15937,918.0750400000001,0.0,0.0,0.0,0.0,0.053202829558435555,0.0,-0.07761630629588302,-0.08547939862290982,-0.11597618088095789,0.13742782033806988,0.4648972019967816,-0.02079105916041778
5339,5.0,299.01736,1039.4494,0.0,0.0,0.0,0.0,0.05321279636801937,0.0,-0.1120001874885579,-0.08310043126962402,-0.1208660346710489,0.1204908180265179,0.4514986007569426,-0.011353765266029388
5340,5.0,299.12254,1130.3059,0.0,0.0,0.0,0.0,0.05322276317760319,0.0,-0.08590310029797592,-0.12007217348270088,-0.13760948594849887,0.1173838081848799,0.45049763124815456,-0.03715312411347786
5341,5.0,300.05787999999995,1222.3655,0.0,0.0,0.0,0.0,0.05323272998718701,0.0,-0.1284211009941759,-0.1019417348058659,-0.14120576386592387,0.08606243590270111,0.4425889710376306,-0.006651693773246063
5342,5.0,299.75112,1187.4117,0.0,0.0,0.0,0.0,0.05324269679677083,0.0,-0.10570735721250389,-0.09422561339259401,-0.16101053753800285,0.13006151237607186,0.48088406955706253,-0.017038019293521584
5343,5.0,301.25313,1271.278,0.0,0.0,0.0,0.0,0.05325266360635466,0.0,-0.13660230521659786,-0.1087258596579069,-0.14110861344633585,0.12411986445217688,0.4820358613432355,-0.014886564077939486
5344,5.0,299.62179,1105.545,0.0,0.0,0.0,0.0,0.053262630415938476,0.0,-0.0936229271668635,-0.1066943033399079,-0.13574083998157788,0.12528583160724888,0.47860219993435954,-0.01842962508686238
5345,5.0,299.56385,1050.1557,0.0,0.0,0.0,0.0,0.05327259722552229,0.0,-0.08931317121802372,-0.10898390406087388,-0.1209240331067729,0.10517101353707091,0.4389204078580716,-0.03013435586952937
5346,5.0,299.45103,1242.8561,0.0,0.0,0.0,0.0,0.05328256403510612,0.0,-0.1164658137267809,-0.12338664628231387,-0.13794477040658887,0.12255298463003787,0.47483226108229554,-0.025063942938118578
5347,5.0,299.15647,940.15409,0.0,0.0,0.0,0.0,0.053292530844689934,0.0,-0.1055091958904469,-0.07629131156411623,-0.1039828562048089,0.12343737971482088,0.4836063078057265,-0.04162238487980956
5348,5.0,298.13775,721.70524,0.0,0.0,0.0,0.0,0.053302497654273764,0.0,-0.03773236677164467,-0.09018931236749211,-0.09145869284102022,0.1298005092828129,0.48148178579105255,-0.027119481872734476
5349,5.0,299.66831,923.4717300000001,0.0,0.0,0.0,0.0,0.05331246446385758,0.0,-0.03910283008839886,-0.0933939022467605,-0.14821561044274187,0.10850981447158489,0.4629588646879826,-0.011799559846275887
5350,5.0,299.68612,1130.4923,0.0,0.0,0.0,0.0,0.0533224312734414,0.0,-0.0919835280218174,-0.09091136756100342,-0.16074654535694885,0.12540148397366288,0.45917177151172556,0.008246911971531842
5351,5.0,300.16141,1158.5267,0.0,0.0,0.0,0.0,0.05333239808302522,0.0,-0.09076610397366701,-0.13005809772323487,-0.13133897757214788,0.14369327259642187,0.44376922501911253,-0.047246868297152855
5352,5.0,299.84934,930.8265,0.0,0.0,0.0,0.0,0.05334236489260904,0.0,-0.09654962611345622,-0.08022648516298762,-0.1061719019858509,0.13168717083651188,0.4630398740334775,-0.036065456873133464
5353,5.0,300.60202999999996,928.2394,0.0,0.0,0.0,0.0,0.05335233170219287,0.0,-0.08441218788883433,-0.11394255753275488,-0.08380685708034281,0.12989205642934787,0.43773984990155956,-0.03922800497925267
5354,5.0,300.82721000000004,1148.5313,0.0,0.0,0.0,0.0,0.053362298511776686,0.0,-0.11400250140867088,-0.08975531505815992,-0.14536699964160585,0.11915741129242088,0.4730217554061125,-0.03492148433798217
5355,5.0,300.869,1289.9245,0.0,0.0,0.0,0.0,0.0533722653213605,0.0,-0.15593411400699886,-0.09549127219850481,-0.14067946149898186,0.1087483436776259,0.48249817696636255,-0.017649849088154482
5356,5.0,299.51704,990.5876199999999,0.0,0.0,0.0,0.0,0.053382232130944327,0.0,-0.08875943814437451,-0.08450911235365001,-0.1278453520223539,0.1038219115589249,0.46411522623210655,-9.71007743861003e-05
5357,5.0,299.54568,669.83952,0.0,0.0,0.0,0.0,0.05339219894052814,0.0,-0.05297854445582525,-0.05442761672858754,-0.09620832902927282,0.11462712956531688,0.4374952614599206,-0.002369032132080268
5358,5.0,298.69431000000003,1076.6104,0.0,0.0,0.0,0.0,0.05340216575011196,0.0,-0.09530216223959109,-0.09994397848470271,-0.13201652778151687,0.12652496555204187,0.45997331313583156,-0.00992719920316328
5359,5.0,298.4368,1579.8656,0.0,0.0,0.0,0.0,0.05341213255969579,0.0,-0.18343060091069083,-0.1044165272476089,-0.19239257513016883,0.14506376428417886,0.4648625792408646,-0.013813516010037887
5360,5.0,298.81667000000004,1359.5279,0.0,0.0,0.0,0.0,0.05342209936927961,0.0,-0.11941409794025389,-0.1192560106596519,-0.17459240532342885,0.12240202049763887,0.4638746097308595,-0.026926827564970973
5361,5.0,299.05351,861.46116,0.0,0.0,0.0,0.0,0.05343206617886343,0.0,-0.04831592618616065,-0.09266329826215551,-0.12088346257276888,0.12506865158081487,0.4686441400715755,-0.013146374918946187
5362,5.0,299.23253,890.1921,0.0,0.0,0.0,0.0,0.05344203298844725,0.0,-0.047126323959256054,-0.08296761039351563,-0.1405022339239909,0.1119502646561309,0.4683202850746136,-0.005070820156625985
5363,5.0,299.71797000000004,1122.4893,0.0,0.0,0.0,0.0,0.053451999798031065,0.0,-0.1014051378179079,-0.1034508897698079,-0.13635269105446288,0.12661571223099788,0.4614074166648666,-0.02270121595743558
5364,5.0,299.81089,1111.5333,0.0,0.0,0.0,0.0,0.05346196660761489,0.0,-0.1062656174875999,-0.10838127356389889,-0.12323146702949889,0.09699649271230851,0.4510740388325416,-0.049744357541135854
5365,5.0,299.89428,869.8331300000001,0.0,0.0,0.0,0.0,0.053471933417198705,0.0,-0.07061492846340084,-0.10076452868068471,-0.0930280946426581,0.11814809260280888,0.4426059936393106,-0.03941874120457686
5366,5.0,300.72417,953.35525,0.0,0.0,0.0,0.0,0.05348190022678253,0.0,-0.08568057943026482,-0.1129556012728499,-0.09116000798979232,0.1077451551511189,0.4828159727277266,-0.051343750532483655
5367,5.0,300.46027000000004,1175.5689,0.0,0.0,0.0,0.0,0.053491867036366346,0.0,-0.11668632734604388,-0.12484177475092388,-0.1158154794150979,0.12030464345314389,0.4953890385810915,-0.028793608138457872
5368,5.0,299.58286,1115.2301,0.0,0.0,0.0,0.0,0.05350183384595017,0.0,-0.11737826570683288,-0.09095022975533883,-0.1306735964964799,0.1197627269021609,0.47438133439029256,-0.013094223949549287
5369,5.0,300.80008,1124.7133,0.0,0.0,0.0,0.0,0.05351180065553399,0.0,-0.11038481351663289,-0.11602934611370488,-0.11547059947856089,0.10334424519678291,0.4620046161413056,-0.01090308074080029
5370,5.0,300.13186,939.4473800000001,0.0,0.0,0.0,0.0,0.05352176746511781,0.0,-0.07775839739715633,-0.05923873085340754,-0.14857141321535686,0.13242864699468987,0.4696823769190415,-0.008099743777982473
5371,5.0,298.78673,1099.1144,0.0,0.0,0.0,0.0,0.053531734274701634,0.0,-0.08178317270237072,-0.12433562592847087,-0.12798453205608987,0.1318736493849159,0.4756393958469535,-0.039368037156322755
5372,5.0,299.19657,1195.0414,0.0,0.0,0.0,0.0,0.05354170108428545,0.0,-0.13413301472289788,-0.08591872461451792,-0.14321100607882586,0.1097515727341369,0.46371471886507953,0.0015974452206805685
5373,5.0,299.5057,984.66574,0.0,0.0,0.0,0.0,0.053551667893869274,0.0,-0.10735627989523988,-0.07818713289871923,-0.11377038607576288,0.10069626602144771,0.4457985319218896,-0.01819343750180248
5374,5.0,299.33645,775.18116,0.0,0.0,0.0,0.0,0.0535616347034531,0.0,-0.056456453483318146,-0.09510368478350291,-0.08407557809961351,0.1097814028170809,0.46892491167428557,-0.009624022512917071
5375,5.0,300.16796,937.2446199999999,0.0,0.0,0.0,0.0,0.053571601513036915,0.0,-0.09300227804336021,-0.06342991424904515,-0.12846676817618288,0.11910881581762489,0.49886175064882154,-0.013660140342400887
5376,5.0,299.41107,1132.89,0.0,0.0,0.0,0.0,0.05358156832262074,0.0,-0.0984678737125225,-0.11780990011693188,-0.1280924938542449,0.12925996061946488,0.4676603654169846,-0.02151186906955618
5377,5.0,299.97175,1076.6731,0.0,0.0,0.0,0.0,0.053591535132204556,0.0,-0.097516457199875,-0.1091820248529269,-0.12058324670063987,0.1123626371818289,0.46678073260767156,-0.029062936094538472
5378,5.0,300.10078,1103.7843,0.0,0.0,0.0,0.0,0.05360150194178838,0.0,-0.1090367045235849,-0.09688981571528031,-0.12959633938766288,0.1197486224607689,0.4693718056308906,-0.020995612064105582
5379,5.0,300.21417,1045.4081,0.0,0.0,0.0,0.0,0.0536114687513722,0.0,-0.097219564788074,-0.11517682787706789,-0.1053815669078509,0.12092143918651688,0.4802669597161585,-0.026477573748883074
5380,5.0,300.11047,1161.0613,0.0,0.0,0.0,0.0,0.05362143556095602,0.0,-0.1079270132790669,-0.09586460521109991,-0.14914200474416986,0.1129996675196989,0.47212689344779657,-0.008146484397145413
5381,5.0,299.6959,1221.2069999999999,0.0,0.0,0.0,0.0,0.053631402370539843,0.0,-0.1086133990293079,-0.1034020713799899,-0.15920096405191184,0.1014439452967379,0.46456933452942356,0.0004938209529913336
5382,5.0,299.15112,986.1807699999999,0.0,0.0,0.0,0.0,0.05364136918012366,0.0,-0.042002860292359556,-0.1146639004114459,-0.14310757350861786,0.1178155439199889,0.46547628456143253,-0.024394236297773677
5383,5.0,299.33146,832.7074200000001,0.0,0.0,0.0,0.0,0.053651335989707484,0.0,-0.03501528495273957,-0.07768336622725133,-0.14042361584873186,0.1281123332912029,0.48282806080141955,-0.02325804349689018
5384,5.0,298.66276,1092.2041,0.0,0.0,0.0,0.0,0.05366130279929131,0.0,-0.08184180441940722,-0.11657818316287089,-0.13358278952109487,0.13479286345301988,0.4681386903916916,-0.03115931610093507
5385,5.0,298.44469,1158.911,0.0,0.0,0.0,0.0,0.053671269608875125,0.0,-0.13596014783322188,-0.09326969500975223,-0.12305017632160688,0.10792437882880689,0.4380989558695006,-0.022539360399711682
5386,5.0,298.29778,867.53161,0.0,0.0,0.0,0.0,0.05368123641845895,0.0,-0.09930219093761321,-0.05946849341958335,-0.1049372668715019,0.08917448261058622,0.4529481462175016,-0.01907019268083148
5387,5.0,300.59551,1136.1306,0.0,0.0,0.0,0.0,0.053691203228042765,0.0,-0.12022708929048988,-0.1131327680528349,-0.11199546574309188,0.11162026936356288,0.49757325115915646,-0.028966659096536673
5388,5.0,301.13318,1277.6481,0.0,0.0,0.0,0.0,0.053701170037626596,0.0,-0.11227658185083589,-0.093724074858096,-0.18237245369875982,0.13421692196367888,0.4774339124365585,0.006114984922477024
5389,5.0,300.06752,1240.9052,0.0,0.0,0.0,0.0,0.05371113684721041,0.0,-0.12033430128357088,-0.10468079300618989,-0.15218911123989587,0.1266215384190729,0.4637499394385555,-0.008963583767261842
5390,5.0,300.44968,1132.6447,0.0,0.0,0.0,0.0,0.05372110365679423,0.0,-0.0961911372148261,-0.1014129905061829,-0.14669159109983287,0.12727501380606587,0.4550473572446776,-0.020196137470203584
5391,5.0,300.11707,1082.4552,0.0,0.0,0.0,0.0,0.05373107046637805,0.0,-0.11898224061513289,-0.06895897281172074,-0.14109813644030186,0.14328480108360886,0.4565783984107795,-0.00031985486795221764
5392,5.0,300.19197,992.94202,0.0,0.0,0.0,0.0,0.05374103727596187,0.0,-0.07862375655231063,-0.12535901866197188,-0.0978468020637275,0.14704981554018687,0.4550202933345066,-0.04155552455871096
5393,5.0,299.39864,811.54867,0.0,0.0,0.0,0.0,0.0537510040855457,0.0,-0.09383567321085991,-0.04416379243612696,-0.1086910646494729,0.11838858751404388,0.45240199428110056,-0.0024545440570446376
5394,5.0,299.37007,1010.485,0.0,0.0,0.0,0.0,0.05376097089512952,0.0,-0.05547651600685586,-0.1119603667596279,-0.13972531427731488,0.10766721595342689,0.4719539316557265,-0.048718437761885454
5395,5.0,299.23659,1074.2211,0.0,0.0,0.0,0.0,0.053770937704713334,0.0,-0.08390025239506022,-0.1145467180373809,-0.12808942370644189,0.1044436519527859,0.5109755304968585,-0.014883944826430986
5396,5.0,299.64587,985.6075300000001,0.0,0.0,0.0,0.0,0.05378090451429716,0.0,-0.057500228755830746,-0.1045173760300619,-0.13758247270083288,0.1170461527215559,0.4831083865740855,-0.04170829328953806
5397,5.0,298.47045,1144.7830000000001,0.0,0.0,0.0,0.0,0.053790871323880975,0.0,-0.12063106197285889,-0.12257381705209387,-0.10478055761103588,0.12338405236205788,0.46174313682049956,-0.00988824034476834
5398,5.0,299.35522000000003,1294.8423,0.0,0.0,0.0,0.0,0.053800838133464805,0.0,-0.12441195405850389,-0.1100929873553319,-0.15909479570643384,0.1274898734897709,0.46319017955331154,-0.043184677718745866
5399,5.0,299.22179,1058.3444,0.0,0.0,0.0,0.0,0.05381080494304862,0.0,-0.1072794958026619,-0.09721549050942191,-0.11721527429574688,0.15379207289809585,0.4883505778214496,-0.023150063460233374
5400,5.0,299.77666,883.33345,0.0,0.0,0.0,0.0,0.05382077175263244,0.0,-0.06882581452332903,-0.10891688769925992,-0.09076860568816392,0.1061184834405789,0.47584535919478055,-0.036064228814012264
5401,5.0,299.94715,912.5178800000001,0.0,0.0,0.0,0.0,0.05383073856221626,0.0,-0.1010992021489644,-0.05796074991303065,-0.1183226958600409,0.11974995995090087,0.45940040126428955,-0.013054213742850587
5402,5.0,299.81149,889.98054,0.0,0.0,0.0,0.0,0.05384070537180008,0.0,-0.07472788996456853,-0.08599323598712161,-0.10981073640747589,0.10879637173236589,0.4660003881756576,-0.025820732345057874
5403,5.0,300.10337999999996,953.5129,0.0,0.0,0.0,0.0,0.05385067218138391,0.0,-0.08348681291700692,-0.08457953424885012,-0.12177776724352989,0.13979808589949685,0.4861957089662805,-0.012616988218699788
5404,5.0,300.87878,1142.5952,0.0,0.0,0.0,0.0,0.05386063899096773,0.0,-0.12427040301953389,-0.08779464875690723,-0.13525536146116487,0.0988665582426196,0.43475134979161756,-0.007097594846078072
5405,5.0,300.30933999999996,1244.4211,0.0,0.0,0.0,0.0,0.053870605800551544,0.0,-0.11425378743347088,-0.12486740997845387,-0.13915175392570886,0.1053207313718469,0.43075970168517264,-0.02128677555984118
5406,5.0,299.23717,1192.3951,0.0,0.0,0.0,0.0,0.05388057261013537,0.0,-0.1054419464813099,-0.0895562722085159,-0.16746012773702784,0.1232694740407499,0.46726942313090153,-0.025865770298752772
5407,5.0,299.35708,1260.5665,0.0,0.0,0.0,0.0,0.053890539419719184,0.0,-0.10563144451501189,-0.11251870809473188,-0.16503058704475085,0.14720043516755188,0.5161948628219666,-0.02689025734236177
5408,5.0,299.6332,992.90312,0.0,0.0,0.0,0.0,0.053900506229303015,0.0,-0.08360213901688872,-0.09181018828746011,-0.12640542230524388,0.1030796653306709,0.4915806570202335,-0.029747772585376576
5409,5.0,299.28761000000003,841.20395,0.0,0.0,0.0,0.0,0.05391047303888683,0.0,-0.07945206216455802,-0.07380383728412163,-0.1024490995284389,0.09701059006094981,0.46807996241589556,-0.005921736748829915
5410,5.0,299.44666,1028.3943,0.0,0.0,0.0,0.0,0.05392043984847065,0.0,-0.10203821648038791,-0.0905687988479445,-0.11999915868049489,0.1249793133194979,0.47397466646265757,-0.03820132424917717
5411,5.0,300.08408,1075.7987,0.0,0.0,0.0,0.0,0.05393040665805447,0.0,-0.1055785325947899,-0.09901713024722991,-0.12242025899943888,0.14890899775117386,0.49459682899040647,-0.004415299726956155
5412,5.0,300.28996,1002.5677,0.0,0.0,0.0,0.0,0.05394037346763829,0.0,-0.06700936816180973,-0.11149459595365989,-0.1262515906750619,0.12156528869755989,0.4741752899824575,-0.038533162643677066
5413,5.0,300.28857,999.1699199999999,0.0,0.0,0.0,0.0,0.053950340277222106,0.0,-0.07950942529246934,-0.09352389311533961,-0.1306893930655389,0.08719136977986822,0.4504241300859006,-0.020778115903640378
5414,5.0,299.2416,1101.3882,0.0,0.0,0.0,0.0,0.05396030708680593,0.0,-0.08275044860558342,-0.0945387167927449,-0.15750535080456785,0.11223612277434289,0.4633038966120345,-0.029999620963982072
5415,5.0,299.82505,1168.9828,0.0,0.0,0.0,0.0,0.053970273896389746,0.0,-0.11314681169922089,-0.1150238676419719,-0.12717091249079188,0.11908161005243988,0.49095666721115055,-0.015612445303828385
5416,5.0,300.46246,1075.6389,0.0,0.0,0.0,0.0,0.05398024070597358,0.0,-0.09706704936977191,-0.1019716560813189,-0.12792867157807689,0.12397715830809287,0.4556219308463835,-0.02167567108072218
5417,5.0,300.7818,1048.7965,0.0,0.0,0.0,0.0,0.053990207515557394,0.0,-0.11245455923090088,-0.1004928732891244,-0.1058605200976199,0.11800710898389488,0.4192919498358936,-0.008570961208538012
5418,5.0,300.77956,1109.4738,0.0,0.0,0.0,0.0,0.05400017432514121,0.0,-0.10942656263206091,-0.1030028407080889,-0.12482290803406187,0.13430748625761688,0.45615117163861557,-0.005118444431201135
5419,5.0,299.80953,1162.1798,0.0,0.0,0.0,0.0,0.054010141134725034,0.0,-0.12608029061315587,-0.0981277286937028,-0.12906562938278587,0.14977611692175186,0.5025651594993195,-0.023268247938647277
5420,5.0,299.94563,1243.2238,0.0,0.0,0.0,0.0,0.05402010794430885,0.0,-0.12557555020834188,-0.11100891478322689,-0.14132453704264586,0.11545762987728089,0.5032482623192366,0.0026469262058312778
5421,5.0,301.18555,1138.5492,0.0,0.0,0.0,0.0,0.05403007475389267,0.0,-0.12396446228433988,-0.08876958685737611,-0.13335648011125986,0.07795103143991783,0.4736742986030136,-0.016780231242829884
5422,5.0,299.81082999999995,965.19989,0.0,0.0,0.0,0.0,0.05404004156347649,0.0,-0.08367588741216712,-0.07420928931163663,-0.13551149082144287,0.1064459050778929,0.4739390000591376,-0.008595352063620202
5423,5.0,299.8848,1075.0081,0.0,0.0,0.0,0.0,0.054050008373060315,0.0,-0.11007854854140689,-0.08474804989948131,-0.13194901492735386,0.1015584324255369,0.47981707667175855,-0.03324117319364837
5424,5.0,299.73415,1182.4131,0.0,0.0,0.0,0.0,0.05405997518264414,0.0,-0.10688930332165289,-0.0895130236544976,-0.16302172752899186,0.12859337377617788,0.4334637824920446,-0.016987744863309884
5425,5.0,299.02938,945.54024,0.0,0.0,0.0,0.0,0.054069941992227956,0.0,-0.06582755580167395,-0.12312674763166388,-0.0984663133073685,0.12732964825145787,0.4231713196987576,-0.03718073923170326
5426,5.0,300.27651000000003,925.6785800000001,0.0,0.0,0.0,0.0,0.05407990880181177,0.0,-0.050624338908483245,-0.1029940254322189,-0.12776481890440586,0.14136732659436885,0.46962652657352955,-0.014144137491167686
5427,5.0,300.13099,1139.6653,0.0,0.0,0.0,0.0,0.054089875611395596,0.0,-0.1063662028250269,-0.11526272108804489,-0.12480086984438687,0.15402537373362085,0.5024127869492816,-0.013565885791598687
5428,5.0,299.37121,1130.3118,0.0,0.0,0.0,0.0,0.05409984242097942,0.0,-0.1055949573789109,-0.10759643030144089,-0.13039516550150088,0.13140018801068887,0.48409741999669553,-0.008328927170401113
5429,5.0,300.32052999999996,982.0418099999999,0.0,0.0,0.0,0.0,0.054109809230563244,0.0,-0.07944450534531222,-0.0920189938018176,-0.12705268646912388,0.1053618794584079,0.4846074394345305,-0.027410214737177575
5430,5.0,300.55629,935.17725,0.0,0.0,0.0,0.0,0.05411977604014706,0.0,-0.05907350927885144,-0.1081737092809139,-0.11702331406430189,0.1148735621221379,0.4774707339451925,-0.029293028980246872
5431,5.0,300.52876000000003,997.8228,0.0,0.0,0.0,0.0,0.054129742849730884,0.0,-0.08028407120592092,-0.1001781699670656,-0.12285097135194688,0.11809383305995388,0.5013441222013125,-0.06001768814603465
5432,5.0,300.99605,1239.9168,0.0,0.0,0.0,0.0,0.0541397096593147,0.0,-0.14040792060468288,-0.09452897540628351,-0.14196685654603788,0.09463457329195521,0.4540496807987146,-0.03046373307953637
5433,5.0,300.85239,1291.8084,0.0,0.0,0.0,0.0,0.054149676468898525,0.0,-0.14184347308136086,-0.11935655546707488,-0.13147746859581588,0.1005589270631434,0.45012992278686453,-0.03175091534407137
5434,5.0,300.57797999999997,986.50946,0.0,0.0,0.0,0.0,0.05415964327848235,0.0,-0.08004972773604302,-0.07877600143283602,-0.14104851758290488,0.1068290453382059,0.4884024562265695,-0.009538016831178971
5435,5.0,300.84373999999997,951.4199199999999,0.0,0.0,0.0,0.0,0.054169610088066165,0.0,-0.08505351339387823,-0.08158487965780072,-0.12256951073916887,0.1051008257026439,0.5204679411436866,-0.018177815211760682
5436,5.0,299.84032,1178.5757,0.0,0.0,0.0,0.0,0.05417957689764999,0.0,-0.11815606688109588,-0.0905915979884446,-0.14950992598798085,0.0936509901416331,0.46907961469955356,-0.01058972098837409
5437,5.0,300.29716,1309.0338,0.0,0.0,0.0,0.0,0.054189543707233806,0.0,-0.15418994581486287,-0.0934828058237846,-0.15024085421261785,0.1137888069625809,0.4606301423806555,-0.008502761674782242
5438,5.0,299.81292,1079.2823,0.0,0.0,0.0,0.0,0.05419951051681763,0.0,-0.07835703366223712,-0.12629432956427988,-0.12342350832095188,0.13270283247174988,0.48766455684124455,-0.022679620558054277
5439,5.0,299.22174,908.47324,0.0,0.0,0.0,0.0,0.05420947732640145,0.0,-0.07890175184974663,-0.08815417522363972,-0.10909725634956091,0.16104631539903383,0.4930410949193676,-0.01061556494542469
5440,5.0,299.18119,1221.4211,0.0,0.0,0.0,0.0,0.05421944413598527,0.0,-0.10304080718933589,-0.09607478266609282,-0.17216593477895484,0.1065502495731909,0.45883129921312354,-0.016879236923350985
5441,5.0,299.18108,1198.9112,0.0,0.0,0.0,0.0,0.054229410945569094,0.0,-0.11904790935411388,-0.1082755611809659,-0.13711559745225588,0.1085329469713679,0.47833094275008853,-0.028959582557838273
5442,5.0,300.439,944.1500599999999,0.0,0.0,0.0,0.0,0.05423937775515291,0.0,-0.06468782675794144,-0.09294437383989551,-0.12936584525491487,0.12788451413871887,0.4765791143871965,-0.052034756703180654
5443,5.0,301.09223,983.65355,0.0,0.0,0.0,0.0,0.054249344564736734,0.0,-0.08490523133449392,-0.11477566189747589,-0.0993252261653866,0.14151355884880087,0.4919462477888146,-0.043265699223242055
5444,5.0,300.13063999999997,1044.6922,0.0,0.0,0.0,0.0,0.05425931137432056,0.0,-0.11542336175889888,-0.09350000979723251,-0.1086369672266339,0.09248869297842333,0.42458148012792957,-0.03242501543684987
5445,5.0,298.6586,1234.2347,0.0,0.0,0.0,0.0,0.054269278183904375,0.0,-0.13004799561973787,-0.10978523290245888,-0.13534330143734388,0.1003701504635126,0.42296791987368365,-0.018690994976657584
5446,5.0,298.70281,1127.3482,0.0,0.0,0.0,0.0,0.0542792449934882,0.0,-0.08199764836428781,-0.11538067353218588,-0.14530739013822286,0.1203821469532929,0.46944430367554557,-0.006806760757949983
5447,5.0,298.68589,883.7718800000001,0.0,0.0,0.0,0.0,0.054289211803072016,0.0,-0.04471391935267025,-0.08581033218507042,-0.13812032611891487,0.13912542968811087,0.5043596760889245,-0.015744423155853587
5448,5.0,298.53611,1054.9193,0.0,0.0,0.0,0.0,0.05429917861265584,0.0,-0.06989437693303793,-0.1030475149049979,-0.14772722389454185,0.11900219150960188,0.4614270838493076,-0.00938249398525506
5449,5.0,297.96065,1387.7383,0.0,0.0,0.0,0.0,0.05430914542223966,0.0,-0.16141994124090783,-0.1240005846504049,-0.13641726548333585,0.11492647404235991,0.46421797992474756,-0.035889919399309266
5450,5.0,298.47504,1317.4241,0.0,0.0,0.0,0.0,0.05431911223182348,0.0,-0.13824452018367187,-0.1097544503644209,-0.15246505977212985,0.16569229002255584,0.48304156272999055,-0.01997609399898698
5451,5.0,300.2167,919.6264199999999,0.0,0.0,0.0,0.0,0.054329079041407304,0.0,-0.08809828029512332,-0.09269952195323052,-0.0987456663599385,0.13811160203555387,0.48145654573106156,-0.022718002471842278
5452,5.0,299.87595,855.4177,0.0,0.0,0.0,0.0,0.05433904585099112,0.0,-0.06426261027397585,-0.08393522776201202,-0.11182778298404289,0.11193600822722391,0.4535261040745416,-0.018791372597814084
5453,5.0,299.58902,1277.2646,0.0,0.0,0.0,0.0,0.054349012660574944,0.0,-0.14029066730311085,-0.08594648868050801,-0.16201940026506986,0.06089930793879374,0.4560965473257246,-0.006237266578995285
5454,5.0,299.42945,1382.1499,0.0,0.0,0.0,0.0,0.05435897947015877,0.0,-0.12890315472925087,-0.13219468754659988,-0.15904121504114585,0.1014986101396329,0.5003760427907705,-0.031627553157646475
5455,5.0,298.61688,1074.9403,0.0,0.0,0.0,0.0,0.054368946279742585,0.0,-0.14288624928927487,-0.07845649631855332,-0.10541227851838189,0.1069348691786499,0.5016110528076565,-0.01657365791844268
5456,5.0,300.08892000000003,1046.7785,0.0,0.0,0.0,0.0,0.05437891308932641,0.0,-0.1044700673828929,-0.09216608630558451,-0.12155838846437887,0.1259203288198689,0.4385467820161976,-0.012794767001745188
5457,5.0,300.89524,954.3506,0.0,0.0,0.0,0.0,0.054388879898910225,0.0,-0.10205181429672991,-0.07003397239931494,-0.1180129655694729,0.12275351695732888,0.45561897215609154,-0.008487523203878323
5458,5.0,300.2078,1105.9552,0.0,0.0,0.0,0.0,0.054398846708494056,0.0,-0.07388005193014344,-0.09029666824208732,-0.17200606417817685,0.13571029049106287,0.48873972665485554,-0.008899580102170172
5459,5.0,300.40987,1226.3335,0.0,0.0,0.0,0.0,0.05440881351807787,0.0,-0.08948945647042172,-0.1214488155985649,-0.16183650862201987,0.14772501500932386,0.5196363566541156,-0.02131919145704038
5460,5.0,300.2472,983.1854800000001,0.0,0.0,0.0,0.0,0.05441878032766169,0.0,-0.07912409438544013,-0.084284991564031,-0.13545474881584288,0.12621001702345888,0.4837911448889685,-0.02420546172464308
5461,5.0,298.39903,894.12511,0.0,0.0,0.0,0.0,0.05442874713724551,0.0,-0.1029015055655879,-0.0937405584107228,-0.07514964315969233,0.12557448629573686,0.4919621963453885,-0.03708949099394777
5462,5.0,300.0463,1235.6629,0.0,0.0,0.0,0.0,0.05443871394682933,0.0,-0.12359924641829588,-0.12359071485245389,-0.12842071595913787,0.14293430774151789,0.4892751482726975,-0.03585556008841827
5463,5.0,299.28604,1258.0693,0.0,0.0,0.0,0.0,0.05444868075641316,0.0,-0.1065190718676139,-0.11489157770891588,-0.16101099350054784,0.11635043493789388,0.49165966013053053,-0.016636968824440983
5464,5.0,299.12481,906.17628,0.0,0.0,0.0,0.0,0.05445864756599698,0.0,-0.045174667477892554,-0.0965693672651545,-0.13371092512874086,0.08730100546718841,0.43269227360090257,-0.010993243787698689
5465,5.0,298.93487999999996,875.2266800000001,0.0,0.0,0.0,0.0,0.054468614375580794,0.0,-0.07643924101246573,-0.06863256847750714,-0.12097524276682689,0.09712281358902541,0.44982358688413154,-0.021723492432441777
5466,5.0,300.08932000000004,1073.634,0.0,0.0,0.0,0.0,0.05447858118516462,0.0,-0.1019250668417209,-0.08481121489746522,-0.13962164865958387,0.1230580796723869,0.4933078228756915,-0.02488368067907808
5467,5.0,300.58689,1220.3419,0.0,0.0,0.0,0.0,0.054488547994748435,0.0,-0.14019656676632386,-0.11188936832512089,-0.11886755083631388,0.1211453066636109,0.5029026123126235,-0.01804854172425238
5468,5.0,300.0534,1210.7019,0.0,0.0,0.0,0.0,0.05449851480433225,0.0,-0.13261432507551488,-0.0941964672534675,-0.14121237025657588,0.1138676074228579,0.4502895502076186,-0.02877334617620817
5469,5.0,299.16584,1102.2262,0.0,0.0,0.0,0.0,0.054508481613916075,0.0,-0.13401372478862486,-0.06485048075674413,-0.13618502856041587,0.1135358490751159,0.4654639229102126,-0.004227956065616776
5470,5.0,299.43228,1010.1424,0.0,0.0,0.0,0.0,0.05451844842349989,0.0,-0.06747628900664124,-0.08429522336354082,-0.15528653573558784,0.14138494701360785,0.4936732008617515,-0.02005671628294378
5471,5.0,299.62017000000003,1094.754,0.0,0.0,0.0,0.0,0.05452841523308371,0.0,-0.1051020416027639,-0.08661309274904673,-0.14106275374680988,0.14312870990570387,0.48298240918915253,0.02091989999013338
5472,5.0,299.70835,1363.6691,0.0,0.0,0.0,0.0,0.05453838204266754,0.0,-0.1254599890344369,-0.13466771693316887,-0.15439364961496685,0.09454112123523221,0.43243881922088856,-0.021579468049977683
5473,5.0,299.95351,1262.2681,0.0,0.0,0.0,0.0,0.054548348852251356,0.0,-0.16727872557162482,-0.09409505307745872,-0.12232419275745787,0.1255890163021709,0.44772987780499857,0.0011524768445656088
5474,5.0,299.42935,809.4794099999999,0.0,0.0,0.0,0.0,0.05455831566183518,0.0,-0.06711632076286514,-0.0960669370705685,-0.08287826909244832,0.1251123125276239,0.48991180370803056,-0.059536633475558244
5475,5.0,300.39814,1050.8186,0.0,0.0,0.0,0.0,0.054568282471419,0.0,-0.09824659914243442,-0.0999413014779385,-0.12123472598493588,0.11880667477030589,0.4961149410852325,-0.012089711105161589
5476,5.0,300.50937000000005,1320.3795,0.0,0.0,0.0,0.0,0.054578249281002814,0.0,-0.0987364538900293,-0.12174056069985788,-0.18088539771949882,0.07969143034168183,0.4302646276863126,-0.035242892335952666
5477,5.0,299.19401,1136.7095,0.0,0.0,0.0,0.0,0.05458821609058664,0.0,-0.10111806582607609,-0.12657844489231987,-0.1178347956718889,0.12663430537033288,0.4744277716423756,-0.03487517374216167
5478,5.0,299.5245,992.88391,0.0,0.0,0.0,0.0,0.05459818290017046,0.0,-0.07363968671492123,-0.09418896818947742,-0.13398325635811786,0.13218271093041786,0.5173643966173905,-0.029688473136524174
5479,5.0,299.41713,1016.7586,0.0,0.0,0.0,0.0,0.054608149709754285,0.0,-0.09744919968473721,-0.08678137129915452,-0.12483864380811488,0.15656906718216385,0.5100859881015675,-0.025360361148872773
5480,5.0,298.66449,1124.532,0.0,0.0,0.0,0.0,0.0546181165193381,0.0,-0.08152914583605023,-0.11563924482520489,-0.14466125068195387,0.1169871309032309,0.45184392652352356,-0.030394728721226172
5481,5.0,299.02555,1402.6370000000002,0.0,0.0,0.0,0.0,0.05462808332892192,0.0,-0.12522554322629886,-0.12738419150434088,-0.17375689955597082,0.12143951396264688,0.47383010607089054,-0.026934872770764975
5482,5.0,299.48142,1199.5082,0.0,0.0,0.0,0.0,0.05463805013850574,0.0,-0.0922461188779831,-0.12235333383033388,-0.15002110053092985,0.14057688005885788,0.47777316883504056,-0.024631571895196876
5483,5.0,299.09027000000003,923.81834,0.0,0.0,0.0,0.0,0.054648016948089566,0.0,-0.08825826539316262,-0.07751355969599273,-0.1150458855666449,0.12318467513988089,0.4748338316199506,-0.017726499431719285
5484,5.0,300.43076,1059.4777,0.0,0.0,0.0,0.0,0.05465798375767339,0.0,-0.1145786354155309,-0.09637657920837782,-0.1110995601371729,0.1084062501788639,0.4354334190964326,-0.02806695582924287
5485,5.0,299.81549,1288.9567,0.0,0.0,0.0,0.0,0.054667950567257206,0.0,-0.14831502041005287,-0.11412160895792589,-0.1293740323157229,0.09909122416079241,0.46022956408612153,-0.016705643876468685
5486,5.0,301.27982000000003,1276.9388,0.0,0.0,0.0,0.0,0.05467791737684102,0.0,-0.11691468352108088,-0.09666744784833431,-0.17457537258924782,0.12477085737642488,0.5264666249157105,-0.02866054306907537
5487,5.0,299.68338,930.5953900000001,0.0,0.0,0.0,0.0,0.05468788418642485,0.0,-0.08698990830223552,-0.06790083877204103,-0.12798701451883487,0.0991047936061316,0.5085182470168436,-0.007645458972498053
5488,5.0,299.61447999999996,980.69616,0.0,0.0,0.0,0.0,0.05469785099600867,0.0,-0.06487978698938644,-0.06868165841835193,-0.16454569620939583,0.09603498625516521,0.4874150034741156,-0.02544473347144968
5489,5.0,299.50626,1304.1725,0.0,0.0,0.0,0.0,0.054707817805592494,0.0,-0.13369011297168687,-0.11450069621783888,-0.14824506562314888,0.10597120753854389,0.48821589661815756,-0.010210012606149791
5490,5.0,300.21168,1138.7362,0.0,0.0,0.0,0.0,0.05471778461517631,0.0,-0.08579607372966322,-0.12518009895931387,-0.1351712009078589,0.16282296838937585,0.5178477979750985,-0.052270462994443045
5491,5.0,299.62183,851.17201,0.0,0.0,0.0,0.0,0.05472775142476013,0.0,-0.08482113157619392,-0.08227503773816403,-0.0916388679605521,0.14950840611283087,0.47548559461427453,-0.02203252256719068
5492,5.0,300.63194,967.19249,0.0,0.0,0.0,0.0,0.05473771823434395,0.0,-0.07623771468682664,-0.0984645664641961,-0.11930008703900188,0.11013131860661489,0.4412090865214466,-0.03358480379281207
5493,5.0,299.35855,1127.9211,0.0,0.0,0.0,0.0,0.054747685043927775,0.0,-0.09288844750062601,-0.11977178535805488,-0.13019961836470187,0.12826457411872788,0.48054948424154154,-0.02595238190405068
5494,5.0,298.84596,1341.9593,0.0,0.0,0.0,0.0,0.0547576518535116,0.0,-0.11516102117550789,-0.11502674527225588,-0.17773434189601384,0.1089739438123909,0.5079938698250915,-0.018414333116353182
5495,5.0,298.39555,1115.4008,0.0,0.0,0.0,0.0,0.054767618663095416,0.0,-0.1164525198854689,-0.0978915400953928,-0.12470994078041289,0.1294891476595839,0.48955827061563956,-0.037681253370350165
5496,5.0,298.2662,809.16291,0.0,0.0,0.0,0.0,0.05477758547267923,0.0,-0.05975798099965354,-0.08568675214987401,-0.10052058770585959,0.1104093645665559,0.4314090227467555,-0.02251940950524268
5497,5.0,299.53941000000003,1081.3207,0.0,0.0,0.0,0.0,0.054787552282263056,0.0,-0.09650817709161551,-0.1082170155901879,-0.12396929548731689,0.14918646615855785,0.4539512334189986,-0.06708888701640764
5498,5.0,300.17942999999997,1419.6574,0.0,0.0,0.0,0.0,0.05479751909184688,0.0,-0.12902580865385588,-0.13074994489151487,-0.17176462694434882,0.14536882349178587,0.4951206792921065,-0.012315704380965388
5499,5.0,299.4431,1176.7675,0.0,0.0,0.0,0.0,0.054807485901430704,0.0,-0.1002359171167648,-0.0987930246563624,-0.15867898826289686,0.12536312232487687,0.49786381075783254,-0.022828645329761876
5500,5.0,300.54359,897.8303699999999,0.0,0.0,0.0,0.0,0.05481745271101452,0.0,-0.08632975154408311,-0.06595448969470134,-0.12063377748312688,0.11863349006321389,0.47500248709909554,-0.0012411244746144488
5501,5.0,300.36297,1131.3041,0.0,0.0,0.0,0.0,0.054827419520598344,0.0,-0.13251358775057287,-0.09159994294471051,-0.11977467312083986,0.1056975692165379,0.49805056288376354,-0.021954569183997276
5502,5.0,300.71609,1336.6559,0.0,0.0,0.0,0.0,0.05483738633018216,0.0,-0.15311157413093585,-0.10454919208320192,-0.14864925108803886,0.13638692877534186,0.5170913662454445,-0.007576570226024263
5503,5.0,299.48526,1294.1094,0.0,0.0,0.0,0.0,0.054847353139765985,0.0,-0.14348789693365285,-0.1085937926398729,-0.14129525411475585,0.1051562707481159,0.4685113536459706,-0.012918835423489788
5504,5.0,298.89745,1200.2669,0.0,0.0,0.0,0.0,0.05485731994934981,0.0,-0.1018407137708959,-0.09177111837685423,-0.17123932769500586,0.1044165069826069,0.4344578922976556,0.009484908036462542
5505,5.0,298.82252,1038.5734,0.0,0.0,0.0,0.0,0.054867286758933626,0.0,-0.07547691584924163,-0.08685509132343011,-0.15336838236878084,0.14887291591511284,0.4307631973980176,-0.0009547366495151711
5506,5.0,299.73422,969.6818900000001,0.0,0.0,0.0,0.0,0.05487725356851745,0.0,-0.07197841555321652,-0.09693864727734959,-0.12584202485214088,0.14431899506317586,0.4958058187447245,-0.029649005018628976
5507,5.0,298.89661,1120.487,0.0,0.0,0.0,0.0,0.054887220378101266,0.0,-0.12186892935502688,-0.08920441705829052,-0.12952670884079087,0.14172940138510284,0.4809811085191396,-0.016888772620042083
5508,5.0,299.31392999999997,1190.4293,0.0,0.0,0.0,0.0,0.05489718718768509,0.0,-0.13951177181873986,-0.0977244004383974,-0.12462462512199288,0.10177004970892191,0.4526540503759766,-0.03824282393352286
5509,5.0,298.91301,840.88955,0.0,0.0,0.0,0.0,0.054907153997268913,0.0,-0.07001891651607904,-0.10393269019235789,-0.08165782251924963,0.13361499060927287,0.5107069989553565,-0.061875932087429045
5510,5.0,300.06857,869.2977400000001,0.0,0.0,0.0,0.0,0.05491712080685273,0.0,-0.03978335520006146,-0.0991149048288795,-0.12534654555324087,0.12162021698548088,0.5221580524429874,-0.049032653710646155
5511,5.0,300.04183,1315.9493,0.0,0.0,0.0,0.0,0.054927087616436554,0.0,-0.09893907351252632,-0.12394944591785789,-0.17712720243609384,0.1300797914078759,0.5052324289300585,-0.02329112104640468
5512,5.0,299.99107999999995,1371.5713,0.0,0.0,0.0,0.0,0.05493705442602037,0.0,-0.12299576479123689,-0.12182711252339988,-0.17210055988250283,0.06639334249851273,0.4767731517813465,-0.006667818939312494
5513,5.0,300.44352000000003,1096.8726,0.0,0.0,0.0,0.0,0.054947021235604195,0.0,-0.10194656800884291,-0.1076473967814709,-0.12382791670086388,0.13844988571393987,0.4972987718395675,-0.02913752042114937
5514,5.0,300.30065,1051.7041,0.0,0.0,0.0,0.0,0.05495698804518802,0.0,-0.13500193747865386,-0.08837434940411923,-0.09631548934659871,0.13622086721645285,0.48983867744831355,-0.006928180949233223
5515,5.0,300.00227,1144.3210000000001,0.0,0.0,0.0,0.0,0.054966954854771835,0.0,-0.11635557211590088,-0.10716822067667992,-0.12432122764454988,0.14773013192232887,0.45988887900499853,-0.007313553804816562
5516,5.0,300.35559,1195.6785,0.0,0.0,0.0,0.0,0.05497692166435566,0.0,-0.1032653231464939,-0.09248076125664051,-0.16771030931921885,0.11641283087905188,0.42681667945102664,0.012775072459551487
5517,5.0,299.37596,1215.3843,0.0,0.0,0.0,0.0,0.054986888473939476,0.0,-0.08854132390134832,-0.12034339013696788,-0.16056175893621186,0.1090827770056319,0.47458192751258954,-0.01355652741367509
5518,5.0,299.63797999999997,1041.069,0.0,0.0,0.0,0.0,0.0549968552835233,0.0,-0.09127037828343501,-0.07927643451147492,-0.14591216872540988,0.12162719827866988,0.5166997045517905,-0.017812255853932785
5519,5.0,299.5315,909.2184699999999,0.0,0.0,0.0,0.0,0.05500682209310712,0.0,-0.1048696628248299,-0.09390239572994491,-0.07760765111352882,0.08944698102622972,0.5072286329520685,-0.04437957316417286
5520,5.0,298.85967,1244.4209,0.0,0.0,0.0,0.0,0.05501678890269094,0.0,-0.15248022812612685,-0.0984965314651008,-0.1272961096731479,0.1052903440013479,0.48193526587330754,-0.02831367614909227
5521,5.0,299.92846000000003,1566.2708,0.0,0.0,0.0,0.0,0.055026755712274764,0.0,-0.17237047957664184,-0.14059683095332687,-0.16313989275565385,0.11363885608028189,0.4881351709826906,-0.042940451007392556
5522,5.0,300.90887999999995,1229.4638,0.0,0.0,0.0,0.0,0.05503672252185858,0.0,-0.08336627972486121,-0.11877287274696988,-0.17158714605683284,0.13604396388149387,0.4980698146356635,-0.026867399433355876
5523,5.0,300.56526,666.64091,0.0,0.0,0.0,0.0,0.0550466893314424,0.0,-0.013866772435293885,-0.06301258085085754,-0.1257628393568259,0.12300307032445788,0.44922833284788455,0.0015373726620018684
5524,5.0,299.89943999999997,852.53261,0.0,0.0,0.0,0.0,0.05505665614102622,0.0,-0.049284478784499354,-0.07775822311813912,-0.13210592683783987,0.09962284001125882,0.4389508053610716,0.001129565334629419
5525,5.0,299.67256000000003,1229.6068,0.0,0.0,0.0,0.0,0.05506662295061004,0.0,-0.14147077942957886,-0.1138048467116639,-0.11849411751195887,0.12942444150819787,0.4829513834710905,-0.02789415007768827
5526,5.0,299.51908,1246.3663,0.0,0.0,0.0,0.0,0.055076589760193854,0.0,-0.14143868979891186,-0.12924126615511988,-0.1081842673469559,0.12056897000673088,0.5125343347157005,-0.03962420704660476
5527,5.0,299.30627999999996,957.0600800000001,0.0,0.0,0.0,0.0,0.05508655656977768,0.0,-0.0993393295935285,-0.09447536738324282,-0.0971076705662809,0.10976908169586488,0.49604890757621556,-0.04257033303736476
5528,5.0,298.6036,759.78768,0.0,0.0,0.0,0.0,0.0550965233793615,0.0,-0.03703563979088306,-0.07702952505697222,-0.11689131797377489,0.11772363200341789,0.4624865178888655,-0.037649528509719164
5529,5.0,299.61222000000004,1161.2368,0.0,0.0,0.0,0.0,0.055106490188945326,0.0,-0.09288675030670851,-0.10035263035603349,-0.15974760234836086,0.13368020338570888,0.4921404675679826,-0.03863737845621236
5530,5.0,300.93415,1525.7845,0.0,0.0,0.0,0.0,0.05511645699852914,0.0,-0.14216306229540185,-0.10887056190468791,-0.2127667852259468,0.14538439714582285,0.4969960228421885,-0.008104583668410131
5531,5.0,300.71713,1007.1547,0.0,0.0,0.0,0.0,0.05512642380811296,0.0,-0.12699823440874988,-0.06654790974826734,-0.1126037299106229,0.14057677873384786,0.4539127805777036,-0.006556220181248554
5532,5.0,300.42515,762.27922,0.0,0.0,0.0,0.0,0.05513639061769678,0.0,-0.07083302953417574,-0.07028469201730903,-0.09059612620314152,0.14461651569003886,0.4638118895496696,-0.005369704314148556
5533,5.0,299.78971,1290.365,0.0,0.0,0.0,0.0,0.05514635742728061,0.0,-0.12296566113076589,-0.12129068778795889,-0.14798239066722488,0.12416585587421587,0.4976584046975605,-0.02324433422303718
5534,5.0,299.57356,1566.4293,0.0,0.0,0.0,0.0,0.05515632423686443,0.0,-0.13917089422009787,-0.12105026380423088,-0.2159342354360498,0.14834646156065584,0.5146365550956735,0.0003524088711400476
5535,5.0,300.65722999999997,1351.3288,0.0,0.0,0.0,0.0,0.05516629104644825,0.0,-0.0989477489598825,-0.1189874588531479,-0.1928350107863338,0.08443676730976012,0.4831400405072095,-0.0052466842009574145
5536,5.0,300.60757,938.67365,0.0,0.0,0.0,0.0,0.055176257856032064,0.0,-0.07048751327657593,-0.07702893939841443,-0.13781689824396887,0.0925294783214485,0.4614749295190296,0.0042549941379102256
5537,5.0,300.42757,955.00855,0.0,0.0,0.0,0.0,0.05518622466561589,0.0,-0.11627157368261089,-0.08053899682508013,-0.0934881811155651,0.11644119174935089,0.48157003987476255,-0.03237707046861807
5538,5.0,301.31597999999997,1351.1586,0.0,0.0,0.0,0.0,0.05519619147519971,0.0,-0.14870041008558785,-0.1185412539066109,-0.14347682211005988,0.13142030102517388,0.4974756751745265,-0.030977616040002674
5539,5.0,301.0894,1362.3103,0.0,0.0,0.0,0.0,0.055206158284783535,0.0,-0.13673481806467586,-0.12487752221445189,-0.15249597403268086,0.14961079503543587,0.4764731790892416,-0.04397071053682126
5540,5.0,300.10244,1099.7906,0.0,0.0,0.0,0.0,0.05521612509436735,0.0,-0.07086452844003444,-0.1120689973028489,-0.15137535995208484,0.10544469238908091,0.47970225517042653,-0.021372964639847378
5541,5.0,299.52527000000003,767.5659,0.0,0.0,0.0,0.0,0.05522609190395117,0.0,-0.023867032138242678,-0.08185996996720002,-0.1275938633475339,0.14174357675400187,0.5343637138100925,-0.018259270387299683
5542,5.0,298.82455,974.42079,0.0,0.0,0.0,0.0,0.05523605871353499,0.0,-0.07015868930112353,-0.09006430060990442,-0.13597659288234487,0.12311658473316088,0.5216174632496355,-0.014010780605756385
5543,5.0,299.52589,1476.0595,0.0,0.0,0.0,0.0,0.055246025523118816,0.0,-0.1875964165768248,-0.1085610950591459,-0.15252771915831387,0.13184902740748586,0.4774743107180456,0.0016788817524177287
5544,5.0,299.01556,1347.0977,0.0,0.0,0.0,0.0,0.05525599233270264,0.0,-0.13356135928147986,-0.14321224224394788,-0.13271045211250188,0.09301108926622981,0.43415682529544253,-0.035151622819945064
5545,5.0,299.65641,842.01901,0.0,0.0,0.0,0.0,0.05526595914228646,0.0,-0.08215967313477843,-0.08494160802633402,-0.08885147165095751,0.12435205071259188,0.45782320655613257,-0.039492757097881664
5546,5.0,299.78417,996.16359,0.0,0.0,0.0,0.0,0.055275925951870274,0.0,-0.05552359971250265,-0.0935376074554431,-0.15374765201371185,0.11085216499275688,0.48599374795634853,-0.042953645550194756
5547,5.0,300.46116,1272.2212,0.0,0.0,0.0,0.0,0.0552858927614541,0.0,-0.08514137940279992,-0.13099303372300589,-0.17058907444333085,0.1039887533203909,0.4746665541609415,-0.014446608858019287
5548,5.0,300.64302000000004,1200.6499,0.0,0.0,0.0,0.0,0.05529585957103792,0.0,-0.1048048654809349,-0.09714269152948721,-0.16302003540132484,0.09561114373833522,0.48493954228730657,-0.018386484950604784
5549,5.0,301.11771,1029.8336,0.0,0.0,0.0,0.0,0.055305826380621745,0.0,-0.10001128564909541,-0.09916050412312981,-0.11387189347078089,0.13358968975427588,0.4964801569512765,-0.02311266541229248
5550,5.0,300.63459,803.07121,0.0,0.0,0.0,0.0,0.055315793190205555,0.0,-0.09485280709849322,-0.05727733906508324,-0.0919834489883096,0.15124630228684785,0.5098986077605745,-0.015655278425305685
5551,5.0,300.42759,1052.7314,0.0,0.0,0.0,0.0,0.05532575999978938,0.0,-0.1058120056828319,-0.08878651218704652,-0.12540554710656387,0.13687434260344586,0.48526994287991454,-0.031201623345610472
5552,5.0,299.21909,1485.5122,0.0,0.0,0.0,0.0,0.0553357268093732,0.0,-0.10140221965761989,-0.14318150023591386,-0.2069748855343308,0.12123654983511589,0.4587084325059976,-0.02099578836962298
5553,5.0,300.16405,1479.8270000000002,0.0,0.0,0.0,0.0,0.055345693618957026,0.0,-0.1166429399767619,-0.12805948216598687,-0.2051280345770608,0.1129501905173159,0.48416115342798555,-0.027600283230685876
5554,5.0,299.90196000000003,899.5640300000001,0.0,0.0,0.0,0.0,0.05535566042854085,0.0,-0.09575875097315291,-0.07640773906685673,-0.1012785139794111,0.11922568408415889,0.4855901501765166,0.003983818216297247
5555,5.0,299.3942,755.78629,0.0,0.0,0.0,0.0,0.055365627238124666,0.0,-0.1020846537324709,-0.05542412185743495,-0.07223139066593323,0.0932046514460829,0.4519987004762986,-0.01080142338476749
5556,5.0,299.24572,1361.4001,0.0,0.0,0.0,0.0,0.05537559404770848,0.0,-0.16221532230440583,-0.0974959946141055,-0.15412032540049184,0.09902893359764481,0.4350182905304626,-0.014364078624124185
5557,5.0,299.56068,1397.5665,0.0,0.0,0.0,0.0,0.05538556085729231,0.0,-0.14340062570253986,-0.11230053508319988,-0.16912415797875485,0.1217300228988179,0.47599501623455054,-0.026933257650105576
5558,5.0,299.16025,915.5898599999999,0.0,0.0,0.0,0.0,0.05539552766687613,0.0,-0.03830492704540197,-0.09767321408309572,-0.14233831403269787,0.14708659651881686,0.5152201770207725,-0.04574022112720836
5559,5.0,300.52042,793.65407,0.0,0.0,0.0,0.0,0.055405494476459954,0.0,-0.05484980663450445,-0.061749280891179543,-0.12465193221218789,0.12290798693507388,0.49406672693558956,-0.0041132661854727665
5560,5.0,300.12802999999997,1086.3717,0.0,0.0,0.0,0.0,0.05541546128604377,0.0,-0.1061484857760399,-0.09848648002410881,-0.1255949134177529,0.14468624756192086,0.5049174094739685,-0.03561833797500626
5561,5.0,300.60792000000004,1294.4735,0.0,0.0,0.0,0.0,0.05542542809562759,0.0,-0.13586192336852787,-0.11693217221780688,-0.14069353554287087,0.11633268279614188,0.5112183964133276,-0.01124653503444659
5562,5.0,301.32435,1245.7839999999999,0.0,0.0,0.0,0.0,0.05543539490521141,0.0,-0.1179474082880029,-0.11264031837173388,-0.14809950211378287,0.1297008358704759,0.49905766255565653,-0.046493210846272656
5563,5.0,301.57648,915.12195,0.0,0.0,0.0,0.0,0.055445361714795235,0.0,-0.06478068201035554,-0.09522870363384131,-0.11816484162696189,0.0901652020813626,0.4648761770572065,-0.006851350348475634
5564,5.0,299.80737,713.24308,0.0,0.0,0.0,0.0,0.05545532852437906,0.0,-0.014629339394303385,-0.06641962924585704,-0.13575911901338186,0.1132446207313739,0.47354475457772854,-0.048271129385989556
5565,5.0,299.95521,1229.6856,0.0,0.0,0.0,0.0,0.055465295333962876,0.0,-0.10535978203070089,-0.11409273133007589,-0.15434121392229186,0.11617924633349888,0.48334905373783754,0.00013332291113544688
5566,5.0,300.26743999999997,1543.6256,0.0,0.0,0.0,0.0,0.05547526214354669,0.0,-0.18370796799306482,-0.1095777598119829,-0.17593791026371983,0.12765049389562289,0.5039192466679575,-0.0012787863728813888
5567,5.0,300.91735,1151.5267,0.0,0.0,0.0,0.0,0.055485228953130517,0.0,-0.14377248848923987,-0.08072331005802043,-0.1255395494322889,0.11958222652934689,0.47452384801685754,0.003304892823892527
5568,5.0,299.53877,802.71834,0.0,0.0,0.0,0.0,0.05549519576271434,0.0,-0.0976905882825604,-0.07720639191492762,-0.06910935128556193,0.11213140337650788,0.45943687826788965,-0.013798090290515486
5569,5.0,298.77227999999997,1176.4316,0.0,0.0,0.0,0.0,0.055505162572298164,0.0,-0.1049409652343669,-0.1124993043553169,-0.14016556131326385,0.14274523527285787,0.4849341517967745,-0.029156537099026176
5570,5.0,298.97413,1439.3499,0.0,0.0,0.0,0.0,0.05551512938188198,0.0,-0.10555749752271391,-0.13364685732491788,-0.19832206405286382,0.13640786252240789,0.49478492873897056,-0.012710051187384386
5571,5.0,300.68724,1086.3049,0.0,0.0,0.0,0.0,0.055525096191465804,0.0,-0.08022744673733252,-0.1134979433888749,-0.13648416025493787,0.11410078666837088,0.4868945779577536,-0.027840097237853675
5572,5.0,300.26406000000003,652.31262,0.0,0.0,0.0,0.0,0.05553506300104962,0.0,-0.06570591411391884,-0.045072400145299556,-0.08750843397466002,0.1081904988350709,0.4893191131945365,0.01016472741943049
5573,5.0,300.14457000000004,780.57647,0.0,0.0,0.0,0.0,0.05554502981063344,0.0,-0.05734062058682864,-0.0949565456702314,-0.08497859165498402,0.14948851601336785,0.48560937153091355,-0.032875178138277464
5574,5.0,300.68719,1234.8939,0.0,0.0,0.0,0.0,0.05555499662021727,0.0,-0.12253913350117088,-0.100904897256788,-0.15193289068710886,0.15918404277524187,0.5006947403447235,-0.01722586370306038
5575,5.0,301.31742,1454.4959,0.0,0.0,0.0,0.0,0.055564963429801086,0.0,-0.12139756540850688,-0.13607776590482987,-0.18465510352403983,0.12983690522640487,0.4716414149273836,-0.03307139807314287
5576,5.0,301.68082999999996,1136.6666,0.0,0.0,0.0,0.0,0.05557493023938491,0.0,-0.07348428353383413,-0.1285981461841489,-0.14343584627601585,0.1025743777708029,0.4750985938710806,-0.05401365340023255
5577,5.0,299.8318,775.49986,0.0,0.0,0.0,0.0,0.055584897048968726,0.0,-0.05453385093532204,-0.07926765469935843,-0.1019310855473149,0.09016661759175232,0.4691873941126906,-0.030378074942582572
5578,5.0,299.85321,1192.5279,0.0,0.0,0.0,0.0,0.05559486385855254,0.0,-0.12390836875880389,-0.11011141837465088,-0.1284788967798799,0.10073201348497571,0.49705494333550354,-0.037011217423722764
5579,5.0,300.33966000000004,1618.9686,0.0,0.0,0.0,0.0,0.05560483066813637,0.0,-0.20860334056504679,-0.12826467544373787,-0.15525800261277184,0.11690302101242989,0.4778612911962376,-0.01043812154816239
5580,5.0,299.67588,1158.9517,0.0,0.0,0.0,0.0,0.05561479747772018,0.0,-0.13120251304867986,-0.08284362607152931,-0.13824623257634086,0.10014967129475301,0.4746768386494566,-0.03258348369948947
5581,5.0,300.0052,691.4159,0.0,0.0,0.0,0.0,0.055624764287304,0.0,-0.019654689040766782,-0.08737068971631573,-0.1031477861348939,0.16152014154329686,0.4768596630748846,-0.022292206408819477
5582,5.0,299.99837,932.6011199999999,0.0,0.0,0.0,0.0,0.055634731096887824,0.0,-0.03322668878346887,-0.08090409414086241,-0.16935666847920183,0.15548831436050184,0.4782202249116615,-0.02152150507800718
5583,5.0,299.28666,1351.5829999999999,0.0,0.0,0.0,0.0,0.05564469790647165,0.0,-0.11791830774513087,-0.11088289686828989,-0.18204628849156984,0.16453453019329384,0.4742013609075305,0.006950682903478993
5584,5.0,299.8729,1417.8078,0.0,0.0,0.0,0.0,0.05565466471605547,0.0,-0.14218039900461285,-0.1198129334446159,-0.16898483609000484,0.1010679535158804,0.48044701425892855,-0.0060410781562079945
5585,5.0,300.2605,1154.5069,0.0,0.0,0.0,0.0,0.05566463152563929,0.0,-0.13533528662905286,-0.08102408524420462,-0.13458188451719788,0.09432945024959191,0.4917877146781685,-0.012581410981188588
5586,5.0,300.55515,982.50981,0.0,0.0,0.0,0.0,0.055674598335223105,0.0,-0.09356763917515701,-0.09006240887196772,-0.11502839686991889,0.0930328569181281,0.5021800231363095,-0.0009333894660108681
5587,5.0,300.10677999999996,1162.4514,0.0,0.0,0.0,0.0,0.05568456514480693,0.0,-0.08350825531562313,-0.1093076982628299,-0.16054023750408783,0.08245932260010153,0.4829387887723476,-0.05103421478593485
5588,5.0,300.16081,1436.8619,0.0,0.0,0.0,0.0,0.05569453195439075,0.0,-0.14106026115156386,-0.1106348633763109,-0.18507503489548383,0.12353689100714187,0.48621304567549156,-0.017316441169249682
5589,5.0,300.41264,1213.0884,0.0,0.0,0.0,0.0,0.055704498763974576,0.0,-0.12269432288648688,-0.1196636006448779,-0.1263906491187859,0.12054115629148589,0.4954643635935255,-0.057633038486188046
5590,5.0,301.13482,673.68307,0.0,0.0,0.0,0.0,0.05571446557355839,0.0,-0.05957086511693665,-0.05788974945202345,-0.08732221684478182,0.15898248706534987,0.5075964123408655,-0.005391958528744875
5591,5.0,299.87822,777.73096,0.0,0.0,0.0,0.0,0.05572443238314221,0.0,-0.07840008767223622,-0.09748961823122622,-0.06052108498121604,0.13481776914047788,0.4655038753616556,-0.04176881674451126
5592,5.0,298.8349,1222.6746,0.0,0.0,0.0,0.0,0.055734399192726033,0.0,-0.1123380152043989,-0.10108884875944259,-0.15823568121164586,0.14786197602534087,0.47689974724884054,-0.02108817955349128
5593,5.0,299.0381,1252.3059,0.0,0.0,0.0,0.0,0.05574436600230986,0.0,-0.0869112740149749,-0.11310305955990288,-0.18065537981429783,0.12329311316558288,0.47668116893726853,-0.04153048106923936
5594,5.0,300.42131,1008.1675,0.0,0.0,0.0,0.0,0.05575433281189368,0.0,-0.051882140973118655,-0.12287731585454688,-0.13169829632260988,0.11139108232344389,0.48815064331171754,-0.041838436145632166
5595,5.0,299.79792000000003,902.61227,0.0,0.0,0.0,0.0,0.0557642996214775,0.0,-0.07951952232971583,-0.06452688515180774,-0.13032518031709386,0.09326530561031901,0.4726890142057736,0.006966524663492453
5596,5.0,299.55817,1137.9776,0.0,0.0,0.0,0.0,0.055774266431061315,0.0,-0.12276931352638788,-0.0950703640539644,-0.12807710258522587,0.11177977519430489,0.4883620174150785,-0.02238930515265238
5597,5.0,300.57117999999997,1298.1584,0.0,0.0,0.0,0.0,0.05578423324064514,0.0,-0.17804112362879085,-0.07383136627608854,-0.14273525475937288,0.14633140095428485,0.5145350983631605,0.009842338190063152
5598,5.0,300.6068,1159.2307,0.0,0.0,0.0,0.0,0.05579420005022896,0.0,-0.1135864406526089,-0.08378762964644522,-0.15500311955011686,0.13401553850630388,0.5281427837611345,-0.02893396455555997
5599,5.0,301.46897,810.9875,0.0,0.0,0.0,0.0,0.055804166859812786,0.0,-0.05027319100682766,-0.0916545024095951,-0.10459225521245191,0.13055700180747287,0.5061011389032934,-0.03258080162647477
5600,5.0,300.68214,892.8909199999999,0.0,0.0,0.0,0.0,0.0558141336693966,0.0,-0.06380847461890614,-0.07875805576031493,-0.12885000976150587,0.12949010011467788,0.49658753106437353,-0.04960922544154936
5601,5.0,300.31334,1276.4577,0.0,0.0,0.0,0.0,0.05582410047898042,0.0,-0.1250875182976769,-0.12506314963277188,-0.13786059972078185,0.13319437022776087,0.5033309232623945,-0.03609978983952187
5602,5.0,300.03717,1355.8334,0.0,0.0,0.0,0.0,0.05583406728856424,0.0,-0.14129034998427187,-0.12573902797947586,-0.14511013060875488,0.12398554801892088,0.48784731676178156,-0.013786568623628386
5603,5.0,299.8261,985.64724,0.0,0.0,0.0,0.0,0.05584403409814807,0.0,-0.0993775098705466,-0.07764776872473814,-0.12258686771338187,0.10263899272967991,0.4633012418967726,-0.016798477850630683
5604,5.0,300.04475,1000.9422,0.0,0.0,0.0,0.0,0.05585400090773189,0.0,-0.07708734718717883,-0.11504657457671288,-0.1121275226286249,0.11780643480158988,0.4675183178854655,-0.014789115762822087
5605,5.0,300.89898,1386.339,0.0,0.0,0.0,0.0,0.05586396771731571,0.0,-0.1108217573572559,-0.1102658984848969,-0.20032479340551781,0.15447575327056987,0.47889977122372757,-0.021256775250880378
5606,5.0,298.89419,1342.6601,0.0,0.0,0.0,0.0,0.055873934526899524,0.0,-0.13995328541731386,-0.1113375624531619,-0.15684430643932787,0.15581355751010084,0.5027119389088056,-0.000943894366820121
5607,5.0,298.68438,1206.893,0.0,0.0,0.0,0.0,0.05588390133648335,0.0,-0.09781606714844422,-0.12419411541950487,-0.14485515635359086,0.11454090198180689,0.47990521929795754,-0.02041296691210298
5608,5.0,298.42297,843.2899699999999,0.0,0.0,0.0,0.0,0.05589386814606717,0.0,-0.1118512295913569,-0.052376784340686156,-0.09211107695765551,0.08445071064438621,0.4674089983321766,-0.02512371962776808
5609,5.0,299.65131,753.18137,0.0,0.0,0.0,0.0,0.055903834955650995,0.0,-0.06990254879509443,-0.08556006954287142,-0.07348570917672484,0.1094534238922119,0.49572127315638054,-0.04491141294291136
5610,5.0,300.34982,937.81309,0.0,0.0,0.0,0.0,0.05591380176523481,0.0,-0.07693603044374502,-0.08114570970670801,-0.12699002708293985,0.10960567485223789,0.5078665144200225,-0.052634958439665945
5611,5.0,299.17983,1205.6897,0.0,0.0,0.0,0.0,0.05592376857481863,0.0,-0.07393196073276644,-0.12524630472084788,-0.16732130234082684,0.12466317928829788,0.4982961949730055,-0.022372850984278478
5612,5.0,299.57071,979.1473699999999,0.0,0.0,0.0,0.0,0.05593373538440245,0.0,-0.07384816697599662,-0.11495093389977389,-0.1088372563739009,0.12501711768072887,0.49141123147101257,-0.06557710064195593
5613,5.0,300.52115,961.09496,0.0,0.0,0.0,0.0,0.055943702193986276,0.0,-0.08869870697313081,-0.07553640578911283,-0.12791375653660486,0.14549778996451385,0.5003716351528354,0.0001171483491266419
5614,5.0,300.51561,1196.7053,0.0,0.0,0.0,0.0,0.0559536690035701,0.0,-0.12575132883568987,-0.10006867613475941,-0.13794853969696086,0.14234903421875586,0.4862192872961076,-0.014834943038344884
5615,5.0,300.94478,1350.5448,0.0,0.0,0.0,0.0,0.05596363581315392,0.0,-0.13804003618099087,-0.10678322616868391,-0.16570862361416783,0.13038389816038887,0.47824240495635056,0.03409432572484797
5616,5.0,300.83749,1307.0582,0.0,0.0,0.0,0.0,0.055973602622737734,0.0,-0.0968310076927264,-0.12857365592923187,-0.17190840713353883,0.11351989038604089,0.46427406331778254,-0.025934179879254275
5617,5.0,299.97937,1181.0463,0.0,0.0,0.0,0.0,0.05598356943232156,0.0,-0.12004560606507889,-0.1115589981300159,-0.12740398027879388,0.09598744050747282,0.4710167361082325,0.00011986249150700687
5618,5.0,299.66649,1201.9857,0.0,0.0,0.0,0.0,0.05599353624190538,0.0,-0.1255215034480079,-0.08478903079977582,-0.15506311408853787,0.12293496978523688,0.4821151177660576,-0.018066482330522982
5619,5.0,299.50051,1200.3826,0.0,0.0,0.0,0.0,0.056003503051489205,0.0,-0.1267800512647169,-0.1062328084493619,-0.1318734771323989,0.12069640647180789,0.47991965811188253,-0.03027911587156607
5620,5.0,300.14182999999997,1153.1347,0.0,0.0,0.0,0.0,0.05601346986107302,0.0,-0.1192490394989639,-0.11472398614237589,-0.11655111925269988,0.13648109010713488,0.4812969284428085,-0.04023136271852636
5621,5.0,299.74778,896.0785199999999,0.0,0.0,0.0,0.0,0.05602343667065684,0.0,-0.07744542470626833,-0.07784041593975093,-0.11709965232683589,0.1215841148844179,0.5195225788003865,-0.03779671727224557
5622,5.0,299.09167,522.3334,0.0,0.0,0.0,0.0,0.05603340348024066,0.0,-0.0010961886736853988,-0.06904247677896194,-0.08863764446910441,0.14050318637908488,0.5145323929853934,-0.026615723307267376
5623,5.0,298.90783,819.8582299999999,0.0,0.0,0.0,0.0,0.056043370289824486,0.0,-0.06107541080617374,-0.06978247055224364,-0.11835854464857888,0.11654799844239189,0.5088384543134455,-0.04330879173674496
5624,5.0,300.43381,1295.425,0.0,0.0,0.0,0.0,0.05605333709940831,0.0,-0.11977242370561789,-0.12605407783306888,-0.14795036183156388,0.1062585551344029,0.48679588739801355,-0.021542871482865877
5625,5.0,300.77943999999997,1225.1353,0.0,0.0,0.0,0.0,0.056063303908992126,0.0,-0.11538783721039288,-0.13446228047539385,-0.12256041175327088,0.08844724464281341,0.4883673369781036,-0.039082672490909465
5626,5.0,301.07159,1030.8342,0.0,0.0,0.0,0.0,0.05607327071857594,0.0,-0.1052136511012789,-0.08656858269865392,-0.12156562307009287,0.10933440753546589,0.4713064344443235,0.001874087829233068
5627,5.0,300.32372000000004,1142.361,0.0,0.0,0.0,0.0,0.05608323752815977,0.0,-0.1042347096496649,-0.1068706088573079,-0.13614389060635587,0.13974630881938685,0.45140882679808253,-0.04137906401404566
5628,5.0,300.50512000000003,1389.5554,0.0,0.0,0.0,0.0,0.056093204337743584,0.0,-0.10864899450532088,-0.13293773424243288,-0.1808034055214068,0.16350078204377083,0.47035114225004354,-0.02128382092254958
5629,5.0,300.13412,1267.9565,0.0,0.0,0.0,0.0,0.05610317114732741,0.0,-0.11903548690788789,-0.1216524687361639,-0.14473913921714085,0.15537564094938186,0.5108083138328555,-0.03648318645211017
5630,5.0,299.72086,997.16485,0.0,0.0,0.0,0.0,0.05611313795691123,0.0,-0.08991076586200172,-0.0946663822523445,-0.11853606606609889,0.14155888152577387,0.5241425534263424,-0.017414673739944483
5631,5.0,298.92971,742.3546200000001,0.0,0.0,0.0,0.0,0.05612310476649505,0.0,-0.07883625738978284,-0.04526766965157116,-0.1015533357775339,0.09487674918510611,0.5159533343956295,-0.027306801418721473
5632,5.0,299.2029,933.1783199999999,0.0,0.0,0.0,0.0,0.05613307157607887,0.0,-0.07735186423178463,-0.09284425155776423,-0.11346679608080089,0.10374027399836791,0.49001390892060753,-0.029919231727548273
5633,5.0,300.63176,1292.1639,0.0,0.0,0.0,0.0,0.05614303838566269,0.0,-0.11988876508209989,-0.09514431813901311,-0.17775245880780183,0.10218562410493591,0.5024709981675265,-0.014291021265413987
5634,5.0,300.4151,1398.9027,0.0,0.0,0.0,0.0,0.05615300519524651,0.0,-0.12266273988086988,-0.1010848514877981,-0.2014839109899138,0.0923731855067736,0.5076577545019195,0.007333385541073803
5635,5.0,300.92177999999996,1124.5386,0.0,0.0,0.0,0.0,0.05616297200483033,0.0,-0.1041861749698749,-0.0996962124907501,-0.13794925910453187,0.11285420533534289,0.4777721859824435,0.002209353136896178
5636,5.0,301.36996,1284.3747,0.0,0.0,0.0,0.0,0.056172938814414146,0.0,-0.12474501949887488,-0.10363128881761191,-0.16204153977975486,0.13255511073967088,0.4770779880739316,-0.007096466288116694
5637,5.0,301.26568,1527.3662,0.0,0.0,0.0,0.0,0.05618290562399797,0.0,-0.16234245479445286,-0.12140517491675788,-0.18053357701977682,0.14921533365390685,0.4803726619665905,-0.01954695015763378
5638,5.0,300.02105,1060.3788,0.0,0.0,0.0,0.0,0.05619287243358179,0.0,-0.10488155838100391,-0.09074387225322292,-0.12670324690713688,0.13475839268461787,0.4921325034221965,-0.034446691553123764
5639,5.0,299.60094,640.12028,0.0,0.0,0.0,0.0,0.05620283924316562,0.0,-0.02784792662137637,-0.04995324107575105,-0.1167794146327309,0.11666889944432388,0.4857403847688435,-0.03291185880514757
5640,5.0,299.33158,543.47614,0.0,0.0,0.0,0.0,0.056212806052749434,0.0,-0.025540841256684776,-0.08045826612336263,-0.059204068580736645,0.13759824900488987,0.4699965351125466,-0.042589628359019055
5641,5.0,299.20831,683.5268599999999,0.0,0.0,0.0,0.0,0.05622277286233325,0.0,-0.057862025916037355,-0.058753461062515146,-0.09115960978250301,0.13463472550991287,0.48560301845278653,-0.042693919152061756
5642,5.0,299.45477,1071.4161,0.0,0.0,0.0,0.0,0.056232739671917074,0.0,-0.11500603444021189,-0.09835811542194021,-0.1123195841850799,0.15531325514072486,0.5097315937465915,-0.04992911052461955
5643,5.0,300.56019,1389.7603,0.0,0.0,0.0,0.0,0.0562427064815009,0.0,-0.15598823169483986,-0.12374243892242788,-0.14272174813553984,0.10647383025064891,0.5023856723766056,-0.027560617529021173
5644,5.0,299.37393,1156.1526,0.0,0.0,0.0,0.0,0.05625267329108472,0.0,-0.0959894335704195,-0.10119837805550232,-0.15425370964365587,0.11837208166991489,0.4925602165544085,-0.028774071663279773
5645,5.0,300.40707000000003,1129.3677,0.0,0.0,0.0,0.0,0.05626264010066854,0.0,-0.06585965657809204,-0.1258660996745169,-0.15157382524917187,0.11687828757748889,0.4991998012796845,-0.013797666751973687
5646,5.0,299.67902999999995,1451.8533,0.0,0.0,0.0,0.0,0.056272606910252355,0.0,-0.14642982806899885,-0.10829098284748791,-0.18660634963911282,0.14362628663231086,0.5064987585075356,0.0034162595476835665
5647,5.0,300.75133999999997,1527.5555,0.0,0.0,0.0,0.0,0.05628257371983618,0.0,-0.17756401455420384,-0.10955840673507289,-0.17721629751738685,0.1134341592950799,0.48851905091557657,0.018082488642352682
5648,5.0,301.1866,906.9739400000001,0.0,0.0,0.0,0.0,0.05629254052942,0.0,-0.09670850879538671,-0.0909775175937819,-0.08801140321829923,0.10018585141607372,0.4701979793649276,-0.028454605052500873
5649,5.0,301.67044,781.77933,0.0,0.0,0.0,0.0,0.05630250733900383,0.0,-0.08740156952636333,-0.06102792078723685,-0.08921190396327941,0.11262625446034588,0.48129814434292856,-0.011910456016720488
5650,5.0,300.58572999999996,1155.0957,0.0,0.0,0.0,0.0,0.05631247414858764,0.0,-0.1018971315364639,-0.09291349301659782,-0.15630961436155785,0.13525484470361387,0.5000522283238126,-0.04454311780981346
5651,5.0,300.59279,1418.9202,0.0,0.0,0.0,0.0,0.05632244095817146,0.0,-0.1080406492777819,-0.13388053306297984,-0.18939512802184383,0.15535462614230786,0.49773607031772554,-0.02129035638569458
5652,5.0,300.07122999999996,1343.8203,0.0,0.0,0.0,0.0,0.056332407767755284,0.0,-0.1265333248653669,-0.1025205944554949,-0.17943389668624685,0.12670873872267888,0.4750329859271056,-0.03330768900971297
5653,5.0,299.95889,1234.7162,0.0,0.0,0.0,0.0,0.05634237457733911,0.0,-0.10419443295818989,-0.13280395483172988,-0.13832450614656588,0.1297366339965089,0.48522572464555047,-0.0076242126377762025
5654,5.0,299.7321,1091.2253,0.0,0.0,0.0,0.0,0.05635234138692293,0.0,-0.1177645875724599,-0.09252921183667222,-0.12141142666987488,0.13374402800950788,0.49554086397607555,-0.01993635635656518
5655,5.0,299.96602,1259.1974,0.0,0.0,0.0,0.0,0.05636230819650675,0.0,-0.1267434324061029,-0.1082246554959419,-0.14779647953887687,0.100160411745813,0.4814554412884525,-0.02099170395846988
5656,5.0,299.84339,1336.6015,0.0,0.0,0.0,0.0,0.056372275006090565,0.0,-0.09648637397596371,-0.13836312110787688,-0.17144399408270483,0.08074753180166093,0.4721844561859775,-0.02672459804376248
5657,5.0,299.07058,919.50015,0.0,0.0,0.0,0.0,0.05638224181567439,0.0,-0.05159566477234565,-0.08903216859429092,-0.13887725434111786,0.08363413441529642,0.49268184709641255,-0.031519082707941265
5658,5.0,300.27581000000004,795.91435,0.0,0.0,0.0,0.0,0.05639220862525821,0.0,-0.06359652093648795,-0.08285154462106083,-0.09549002286113151,0.14395630218988087,0.5287179855779025,-0.01027224338754149
5659,5.0,301.32282999999995,1247.547,0.0,0.0,0.0,0.0,0.056402175434842036,0.0,-0.12254579055432789,-0.12573455954653487,-0.13094276638554486,0.14736530109132287,0.5085162914441506,-0.03355785235340217
5660,5.0,301.37624,1426.6646,0.0,0.0,0.0,0.0,0.05641214224442585,0.0,-0.16184249693011085,-0.1177945088479129,-0.15403339867441285,0.16060237000021987,0.49356999120656553,-0.00925468525209132
5661,5.0,300.38832,960.01461,0.0,0.0,0.0,0.0,0.05642210905400967,0.0,-0.085810105217048,-0.1002152670797268,-0.10579509453866288,0.1295552824936109,0.5052748537117455,-0.06573199922449324
5662,5.0,300.1724,1010.408,0.0,0.0,0.0,0.0,0.056432075863593494,0.0,-0.04725415255212175,-0.10431461455255091,-0.15557003298106686,0.12740310888370787,0.5231400539099035,-0.024146079189282476
5663,5.0,300.89744,1155.5453,0.0,0.0,0.0,0.0,0.05644204267317732,0.0,-0.09935166287374572,-0.08386031818211902,-0.16804492503224286,0.11067180647495689,0.48032835253971756,-0.02251331277939098
5664,5.0,300.31059,1104.8215,0.0,0.0,0.0,0.0,0.05645200948276114,0.0,-0.09212268981705161,-0.09297614125703071,-0.15073933273181386,0.0962616036930306,0.45135035213481156,0.00038739268859768166
5665,5.0,299.60752,1095.0988,0.0,0.0,0.0,0.0,0.05646197629234496,0.0,-0.12641876680906086,-0.07589601128935314,-0.13056790437854887,0.1015080232330619,0.4749516624740795,0.02316720866517548
5666,5.0,298.79704,1170.5766,0.0,0.0,0.0,0.0,0.056471943101928775,0.0,-0.1173563795046729,-0.09007217964268201,-0.14839750910069388,0.09658026679648021,0.5051654632309496,0.0053371365307593645
5667,5.0,298.93889,1199.8473,0.0,0.0,0.0,0.0,0.0564819099115126,0.0,-0.12916281019987685,-0.09219503283444132,-0.14336578003160086,0.11829638175494389,0.49993277626952354,0.0003506756359164907
5668,5.0,300.19142,1342.4572,0.0,0.0,0.0,0.0,0.05649187672109642,0.0,-0.08131743128065562,-0.13044817874673287,-0.1963078647090778,0.12472267733416988,0.4934366576259065,-0.037851763097178165
5669,5.0,300.7181,1322.1132,0.0,0.0,0.0,0.0,0.056501843530680246,0.0,-0.13980225035740787,-0.13061558792825487,-0.13147155121523188,0.14421096233751388,0.4888067734139725,-0.03637302083498767
5670,5.0,300.68869,964.24985,0.0,0.0,0.0,0.0,0.05651181034026406,0.0,-0.09700450954709972,-0.06833801667343713,-0.12776535592695887,0.15561300491780786,0.5237010803577725,-0.05072059260173275
5671,5.0,300.68473,712.80166,0.0,0.0,0.0,0.0,0.05652177714984788,0.0,-0.0911175041745975,-0.07595634830630793,-0.04960005552814436,0.11839205282938588,0.4894177733567735,-0.05032761976244936
5672,5.0,300.69378,942.56941,0.0,0.0,0.0,0.0,0.0565317439594317,0.0,-0.07384781639146203,-0.09072338636270111,-0.12194636192766889,0.12324006952284787,0.47731909093522656,-0.03995426921367936
5673,5.0,299.56139,1109.2198,0.0,0.0,0.0,0.0,0.05654171076901553,0.0,-0.08258652905740582,-0.11340997301519289,-0.14117860876324387,0.11477638130504689,0.4902206119410075,-0.038088454267537764
5674,5.0,300.09505,1011.5652,0.0,0.0,0.0,0.0,0.05655167757859935,0.0,-0.03569185332276167,-0.13550824842112288,-0.13629045723332087,0.15628281389641285,0.5328509010132896,-0.034236796794908764
5675,5.0,299.31913,974.08149,0.0,0.0,0.0,0.0,0.05656164438818317,0.0,-0.08053115933555662,-0.08596413240449932,-0.12960116245813888,0.1040248452889529,0.49473562398910453,-0.023959330103101775
5676,5.0,298.96702,1151.1695,0.0,0.0,0.0,0.0,0.056571611197766984,0.0,-0.1091621448859649,-0.1039222739813299,-0.13684236443028988,0.1280317596432509,0.46695917608278253,-0.0006928104550175683
5677,5.0,299.02486,1180.2955,0.0,0.0,0.0,0.0,0.05658157800735081,0.0,-0.12860811656513288,-0.098902715059188,-0.13126952941029388,0.13123891912477287,0.4700530136731206,-0.01795617992463698
5678,5.0,299.68433,1186.5545,0.0,0.0,0.0,0.0,0.05659154481693463,0.0,-0.1263214036069519,-0.08735949026296042,-0.14700205093047286,0.14399395456359687,0.5155239899307565,-0.017621467952853482
5679,5.0,299.94298,1090.3803,0.0,0.0,0.0,0.0,0.056601511626518455,0.0,-0.09496653023671682,-0.09426976880545182,-0.14221209346774089,0.1010799716753165,0.5034449341636466,-0.02529108422628568
5680,5.0,299.60812000000004,995.7909199999999,0.0,0.0,0.0,0.0,0.05661147843610227,0.0,-0.09331032127251172,-0.0915715759949109,-0.11781367953980487,0.08317608558834051,0.4780072498731425,-0.04845370793475866
5681,5.0,299.95962000000003,1199.5624,0.0,0.0,0.0,0.0,0.05662144524568609,0.0,-0.12369854492809589,-0.09207192801354182,-0.14886654257198387,0.13812657787203186,0.5008620279362336,-0.01099236428661189
5682,5.0,300.38173,1330.4513,0.0,0.0,0.0,0.0,0.05663141205526991,0.0,-0.15138382059041988,-0.1026713660703749,-0.15036877703774287,0.15751980988349484,0.5204668265685765,-0.03160384006555617
5683,5.0,300.40861,1226.9274,0.0,0.0,0.0,0.0,0.05664137886485373,0.0,-0.13846127464506386,-0.09825902868141109,-0.13623499192284685,0.15402574863615787,0.49049671246075655,0.018247241082112484
5684,5.0,299.94497,903.58382,0.0,0.0,0.0,0.0,0.05665134567443755,0.0,-0.06889355434551443,-0.08354607183585533,-0.12222729565039489,0.1031828141908509,0.46477128540685453,-0.036231533630773964
5685,5.0,300.03739,1242.805,0.0,0.0,0.0,0.0,0.05666131248402137,0.0,-0.07728715808039863,-0.1286981438365179,-0.17179639233498384,0.12448244586796088,0.4819943383541376,0.007687168804914493
5686,5.0,299.92454,1518.0236,0.0,0.0,0.0,0.0,0.056671279293605194,0.0,-0.1106631229215999,-0.1292818569541259,-0.22149627934248076,0.11135191007457788,0.5107084175054964,-0.02760394005029677
5687,5.0,300.16106,1235.4831,0.0,0.0,0.0,0.0,0.05668124610318902,0.0,-0.11193215787684391,-0.1080472455359329,-0.15557660897421585,0.1083496702932799,0.4806881475177266,0.002230177756926408
5688,5.0,299.59092000000004,995.03802,0.0,0.0,0.0,0.0,0.056691212912772834,0.0,-0.09117338390436242,-0.097003023109203,-0.11429030496707489,0.08008196834097492,0.4598604776046956,-0.039296670912029465
5689,5.0,299.11676,1110.3814,0.0,0.0,0.0,0.0,0.05670117972235666,0.0,-0.13117607735357087,-0.09558168855792822,-0.11077045650469289,0.11669446374434689,0.4697444992826726,-0.017295507422183682
5690,5.0,299.67569,1292.4536,0.0,0.0,0.0,0.0,0.056711146531940475,0.0,-0.12284198382355989,-0.13749816016001187,-0.13253347785003589,0.15970895698954685,0.5355348890706785,-0.06298714624684734
5691,5.0,299.83443,1210.5344,0.0,0.0,0.0,0.0,0.05672111334152429,0.0,-0.0965024127117966,-0.10950218148702388,-0.16196763331746086,0.17131390290236584,0.4981600749545715,-0.040426424508527466
5692,5.0,300.57839,921.8343699999999,0.0,0.0,0.0,0.0,0.056731080151108115,0.0,-0.05922334870363945,-0.08937174821955482,-0.13161953639233687,0.13559073711176386,0.5041067688639645,-0.03906964310787356
5693,5.0,300.18151,824.2482,0.0,0.0,0.0,0.0,0.05674104696069194,0.0,-0.05701561960400354,-0.09007916093587101,-0.1034560978753219,0.13454368498842786,0.5085702368794746,-0.024235343483342178
5694,5.0,300.7451,1088.0968,0.0,0.0,0.0,0.0,0.05675101377027576,0.0,-0.1004509885697407,-0.09014478103884722,-0.14015848882756585,0.14717507351754885,0.5294085763160584,-0.0012110576964470888
5695,5.0,300.4192,1356.6029,0.0,0.0,0.0,0.0,0.05676098057985958,0.0,-0.15839725407259184,-0.11772222358577888,-0.13625391943471488,0.12311951302594988,0.49145236942507253,-0.0015286252738885688
5696,5.0,300.58878,1193.3115,0.0,0.0,0.0,0.0,0.056770947389443396,0.0,-0.1034997892196339,-0.0997713145881621,-0.15946577696554684,0.08128591920254562,0.4702370908187876,-0.01918761519517018
5697,5.0,299.20482000000004,1019.3949,0.0,0.0,0.0,0.0,0.05678091419902722,0.0,-0.07751261939989992,-0.0952327698064926,-0.13712519293070288,0.09204329052596551,0.47970513280071053,-0.0062023505884993444
5698,5.0,298.33087,1309.0151,0.0,0.0,0.0,0.0,0.056790881008611044,0.0,-0.09749682446593741,-0.12741397092477988,-0.17299709370348385,0.100972785013488,0.5312924007694775,-0.010998883537755291
5699,5.0,299.47103,1385.6987,0.0,0.0,0.0,0.0,0.05680084781819487,0.0,-0.16360065810612787,-0.08600202694498922,-0.17161510162709184,0.12335836647202288,0.5030754525146816,-0.01264705945516759
5700,5.0,299.91629,1125.7457,0.0,0.0,0.0,0.0,0.05681081462777869,0.0,-0.09303736892082341,-0.11993639796930089,-0.12922480084099489,0.13012667449000287,0.48868603453205656,-0.02871838647753407
5701,5.0,300.10433,968.6341199999999,0.0,0.0,0.0,0.0,0.0568207814373625,0.0,-0.12141251084748188,-0.07707565833402522,-0.09595242157076672,0.14423798571768087,0.48838204936955554,-0.030250855313026973
5702,5.0,300.34082,1014.168,0.0,0.0,0.0,0.0,0.056830748246946325,0.0,-0.07569378075489452,-0.09558334218209141,-0.13700461616880288,0.14268207939412486,0.5071839384901575,-0.028524716893170373
5703,5.0,299.48596000000003,1056.8639,0.0,0.0,0.0,0.0,0.05684071505653015,0.0,-0.08953065724598791,-0.13062404856658985,-0.1011055339488393,0.12977387093768386,0.47932526533822056,-0.04951402856815416
5704,5.0,300.18002,1252.9459,0.0,0.0,0.0,0.0,0.05685068186611397,0.0,-0.0966934944554049,-0.1026415055899279,-0.18152925736304282,0.10451727470505191,0.46029988364306157,-0.018114322933994485
5705,5.0,299.74663,1128.2096,0.0,0.0,0.0,0.0,0.05686064867569779,0.0,-0.1037597891952939,-0.09511022328639822,-0.14407752743184488,0.12305990352256688,0.48763033938536754,-0.03239673056030837
5706,5.0,299.36752,954.62544,0.0,0.0,0.0,0.0,0.056870615485281606,0.0,-0.053144982943751445,-0.1098737200336919,-0.1271635968250699,0.13024417097159888,0.5292437205247885,-0.025221034193872276
5707,5.0,300.25345,1191.2922,0.0,0.0,0.0,0.0,0.05688058229486543,0.0,-0.11433839381682089,-0.095430793326536,-0.15235389610365885,0.1163508098404309,0.49821066653206453,-0.023866437360433975
5708,5.0,300.02098,1543.2679999999998,0.0,0.0,0.0,0.0,0.05689054910444925,0.0,-0.12333458549217588,-0.17066965822378385,-0.17511070301458084,0.11213368318923289,0.4735668434299085,-0.02293030167254458
5709,5.0,300.00777999999997,1168.5546,0.0,0.0,0.0,0.0,0.05690051591403308,0.0,-0.09799831132468032,-0.097294930330512,-0.15991818300269586,0.11237411730546189,0.48976948259898456,-0.017673852983023482
5710,5.0,301.10021,854.26982,0.0,0.0,0.0,0.0,0.056910482723616894,0.0,-0.07959058358572901,-0.07157833679098184,-0.1085077778388839,0.13814185768353987,0.5285472022735475,-0.009117415296118831
5711,5.0,300.39218,1001.38,0.0,0.0,0.0,0.0,0.05692044953320071,0.0,-0.09885652098712899,-0.10256555236243191,-0.1029724330725879,0.12568959150709688,0.49904509825441656,-0.022634527888853978
5712,5.0,300.08029,1121.2338,0.0,0.0,0.0,0.0,0.056930416342784534,0.0,-0.11050685949117789,-0.08135845575070443,-0.14896177794888288,0.11772515187856789,0.47750754532132555,-0.019460835044884883
5713,5.0,299.56587,1120.363,0.0,0.0,0.0,0.0,0.05694038315236836,0.0,-0.1170975245016259,-0.09934388617922821,-0.12412097902728687,0.13186486450654888,0.48762256775710056,-0.02682525430869647
5714,5.0,298.52107,1138.6612,0.0,0.0,0.0,0.0,0.05695034996195218,0.0,-0.09825341020960661,-0.1017343123778949,-0.14613685693508485,0.16131214156276885,0.5279116918108275,-0.026966374716373975
5715,5.0,298.77878,1089.4855,0.0,0.0,0.0,0.0,0.056960316771536,0.0,-0.11404094411746489,-0.08200425779469013,-0.13513118766140989,0.14101350979194985,0.48658825218752155,-0.0013249708190644389
5716,5.0,299.60701,1137.7941,0.0,0.0,0.0,0.0,0.056970283581119815,0.0,-0.1157725986708659,-0.10378399574018289,-0.12630439113777286,0.0982735384228431,0.46802714168818255,-0.03330043109924667
5717,5.0,299.81289,1433.6697,0.0,0.0,0.0,0.0,0.05698025039070364,0.0,-0.12681154307782488,-0.1084730740229589,-0.2005151729668068,0.11006013778708988,0.4813808356835896,0.010980256961166989
5718,5.0,299.82343,1289.6776,0.0,0.0,0.0,0.0,0.05699021720028746,0.0,-0.1170040015173959,-0.11241099960910189,-0.16261477589132886,0.1180858283841639,0.5274865827313725,-0.03159432868686747
5719,5.0,300.36244,954.30466,0.0,0.0,0.0,0.0,0.05700018400987129,0.0,-0.06882603135885043,-0.11401268457217589,-0.1072460686818629,0.10840191346843589,0.5158686368197705,-0.015945284789427087
5720,5.0,300.72716,956.0336199999999,0.0,0.0,0.0,0.0,0.057010150819455103,0.0,-0.08282092724278912,-0.09427359382457931,-0.11351582725313987,0.07535280588424292,0.49158543956070555,-0.048765891303818754
5721,5.0,300.38813,1161.1529,0.0,0.0,0.0,0.0,0.05702011762903892,0.0,-0.1113919537185299,-0.13057739853198588,-0.11099214549407191,0.11189560994573688,0.5101457191949625,-0.02169564021369298
5722,5.0,299.96639,1018.1919,0.0,0.0,0.0,0.0,0.057030084438622744,0.0,-0.11347385843399789,-0.08262419156362283,-0.1134068724698869,0.15482013671455785,0.5330544325608765,-0.057469208104019245
5723,5.0,299.45196,976.43426,0.0,0.0,0.0,0.0,0.05704005124820657,0.0,-0.06798547149989363,-0.10710930018336488,-0.12171687091251988,0.17131264647224184,0.5115029575714115,-0.04206207969445406
5724,5.0,299.3025,1161.9803,0.0,0.0,0.0,0.0,0.05705001805779039,0.0,-0.1116133083353759,-0.12481856119113288,-0.1167811067603979,0.13764649997465186,0.46232898789581856,-0.05163841075431436
5725,5.0,299.67107000000004,1270.9074,0.0,0.0,0.0,0.0,0.05705998486737421,0.0,-0.1162900553644349,-0.08711829823565662,-0.1829157584023798,0.1051686222668349,0.4795042458358845,-0.018923635173117383
5726,5.0,300.19305,1333.3114,0.0,0.0,0.0,0.0,0.057069951676958025,0.0,-0.1119151859376689,-0.15319299890897187,-0.14018517783519988,0.11780671851161789,0.5129012629744135,-0.017580332025293684
5727,5.0,300.27472,1305.6796,0.0,0.0,0.0,0.0,0.05707991848654185,0.0,-0.13485510740666287,-0.10068110881320182,-0.16135776821477185,0.1214641460725779,0.49459421480514854,-0.005198037962331405
5728,5.0,300.38883,984.1903300000001,0.0,0.0,0.0,0.0,0.05708988529612567,0.0,-0.1015747964146519,-0.06575027521654694,-0.13184421446951086,0.1168925845363999,0.47200552635081855,0.005599076576385835
5729,5.0,300.0272,1008.4458,0.0,0.0,0.0,0.0,0.057099852105709496,0.0,-0.08163636998813242,-0.11204188273017289,-0.1128641047888199,0.11787001624536488,0.49290422509585946,-0.007706866285533483
5730,5.0,300.44743,1384.1512,0.0,0.0,0.0,0.0,0.05710981891529331,0.0,-0.15317655385984885,-0.1010088455712969,-0.16656201324589084,0.14830573903913685,0.5245524536217965,0.009312852799257011
5731,5.0,299.67756,1401.9001,0.0,0.0,0.0,0.0,0.05711978572487713,0.0,-0.1188065734452959,-0.13420520879252287,-0.17313085284918484,0.13335512235612587,0.5317073368179285,-0.028494655789203575
5732,5.0,300.67026,1010.3077,0.0,0.0,0.0,0.0,0.057129752534460954,0.0,-0.0988840976018506,-0.0984784125268126,-0.1097458073410679,0.12627308170968288,0.4982676821151915,-0.032087674081056866
5733,5.0,300.47952000000004,991.2261199999999,0.0,0.0,0.0,0.0,0.05713971934404478,0.0,-0.11453785209900588,-0.04667417427438236,-0.14009596116389486,0.12106863402854388,0.5287007096636975,-0.03125246215612787
5734,5.0,299.16067000000004,1099.6877,0.0,0.0,0.0,0.0,0.0571496861536286,0.0,-0.09910211051986681,-0.1016239998395079,-0.1335514902255059,0.11994220389237388,0.5252772415508276,-0.046190579385905255
5735,5.0,300.33884,1035.7094,0.0,0.0,0.0,0.0,0.05715965296321242,0.0,-0.08150395745181432,-0.09299135926028261,-0.14033449036993587,0.11382196050585289,0.4706470214117446,-0.03482443321690397
5736,5.0,301.1005,1115.5226,0.0,0.0,0.0,0.0,0.057169619772796235,0.0,-0.07969966907824493,-0.1217109535319359,-0.13768039319049688,0.1076903079232059,0.4239119244618496,-0.03963358163652996
5737,5.0,299.11515,1065.71,0.0,0.0,0.0,0.0,0.05717958658238006,0.0,-0.07293404617302993,-0.12442373815716688,-0.12659144489110288,0.15151500608086685,0.4639062839289856,-0.014148450896843384
5738,5.0,299.55773,1097.7449,0.0,0.0,0.0,0.0,0.057189553391963875,0.0,-0.08339713116390601,-0.09397386431249831,-0.15631603836719185,0.15488317100327886,0.5050135365109555,0.01040740892438129
5739,5.0,299.94936,1264.234,0.0,0.0,0.0,0.0,0.05719952020154769,0.0,-0.10969480033103389,-0.14667994885618388,-0.12792083915480387,0.13027994883262986,0.5181253271774885,-0.011873157267289389
5740,5.0,300.26134,1517.5132,0.0,0.0,0.0,0.0,0.057209487011131516,0.0,-0.14580771277260085,-0.13980040624222587,-0.17567801161306984,0.12437942873029387,0.49826818874024154,0.0007076183250264913
5741,5.0,302.44372999999996,1242.7413,0.0,0.0,0.0,0.0,0.05721945382071533,0.0,-0.12565928519660588,-0.0892463291354269,-0.16285670961770585,0.1268779717543809,0.5187781034219126,-0.027376882861887976
5742,5.0,301.61651,879.1510300000001,0.0,0.0,0.0,0.0,0.05722942063029916,0.0,-0.08726555083293933,-0.09253064862531402,-0.08744376024727722,0.13349122210955786,0.5188048228270495,-0.02428953007218998
5743,5.0,302.04121000000004,1018.1510000000001,0.0,0.0,0.0,0.0,0.05723938743988298,0.0,-0.08952184298336802,-0.06302240532382714,-0.15694824563458584,0.0951700232808,0.4950166995668446,-0.04582681956025496
5744,5.0,302.47516,1229.4553,0.0,0.0,0.0,0.0,0.0572493542494668,0.0,-0.13356636473697386,-0.1080432735955409,-0.13211407336864386,0.10566649283597089,0.4657181169627995,-0.002038504883209768
5745,5.0,301.63018999999997,1055.7304,0.0,0.0,0.0,0.0,0.05725932105905062,0.0,-0.0923911757622991,-0.09080761379051372,-0.13771690059159988,0.1327211520335579,0.49555439086491054,-0.03990808122112096
5746,5.0,300.45335,1235.2798,0.0,0.0,0.0,0.0,0.05726928786863444,0.0,-0.1284823620952219,-0.08974433953307673,-0.15726752074109585,0.15528549208798487,0.5197354930438995,0.005175404285572635
5747,5.0,300.061,1452.6668,0.0,0.0,0.0,0.0,0.05727925467821826,0.0,-0.11798410820662487,-0.16055283220283087,-0.16303748356804684,0.12858273465012787,0.4909411036896146,-0.035157744877049264
5748,5.0,299.46247,1355.3749,0.0,0.0,0.0,0.0,0.057289221487802085,0.0,-0.12773277993624388,-0.12196598858210589,-0.16230134723789585,0.12191971345003888,0.4587125159039005,0.002772474479346927
5749,5.0,299.86822,1324.4324,0.0,0.0,0.0,0.0,0.0572991882973859,0.0,-0.11516508430840888,-0.12359623706549888,-0.16383306728156485,0.11908698027796989,0.49214715501864253,-0.02022974292302018
5750,5.0,300.1106,1145.864,0.0,0.0,0.0,0.0,0.057309155106969725,0.0,-0.12803694748376288,-0.09259482687339791,-0.12768226941875888,0.14490032704304887,0.5137128661720125,0.007111611742661433
5751,5.0,298.89826,842.3547800000001,0.0,0.0,0.0,0.0,0.05731912191655354,0.0,-0.05827654146569685,-0.08884742878305851,-0.10893085028563788,0.10650806797152791,0.5086092470083245,-0.026110859285941174
5752,5.0,300.30652000000003,1032.1580000000001,0.0,0.0,0.0,0.0,0.057329088726137366,0.0,-0.07042286386719553,-0.13845344222179087,-0.1048739387402519,0.0916691337410391,0.47787055230215153,-0.06416520755511294
5753,5.0,300.18055,1245.1082,0.0,0.0,0.0,0.0,0.05733905553572119,0.0,-0.1023724268933719,-0.1085466055827159,-0.16756278010465883,0.1191754268791989,0.5090502843793515,-0.04034659053314846
5754,5.0,300.07918,1130.9309,0.0,0.0,0.0,0.0,0.05734902234530501,0.0,-0.1021010582515899,-0.11146681263591789,-0.13020689350041986,0.15042895396118183,0.5224306167198876,-0.05284749170114136
5755,5.0,300.38776,847.28611,0.0,0.0,0.0,0.0,0.05735898915488883,0.0,-0.060285689757734344,-0.09616999980449001,-0.1010981301303586,0.14843743115463387,0.4834403374393465,-0.03865610433131046
5756,5.0,300.60578,1004.8385,0.0,0.0,0.0,0.0,0.05736895596447265,0.0,-0.0992192250061751,-0.06700445288557463,-0.13922213427765487,0.1284105023981299,0.46127640342693654,-0.022663234277437078
5757,5.0,299.18005,1275.6479,0.0,0.0,0.0,0.0,0.05737892277405647,0.0,-0.08929547683152741,-0.13278688156754487,-0.16568275533911483,0.11239449376497289,0.5091106740853115,-0.014330781199337986
5758,5.0,299.58621,1234.8187,0.0,0.0,0.0,0.0,0.057388889583640294,0.0,-0.1143686697298089,-0.11698720183073788,-0.14399816968401286,0.13714722098787688,0.5393870531683574,-0.026463595963753576
5759,5.0,299.33634,1179.749,0.0,0.0,0.0,0.0,0.05739885639322412,0.0,-0.11251684371454788,-0.1064866275994119,-0.13961078661851187,0.097976310625259,0.5331961761173655,-0.005423002687958694
5760,5.0,299.42115,869.7696599999999,0.0,0.0,0.0,0.0,0.057408823202807935,0.0,-0.08717220516747683,-0.09086494145467151,-0.08635111085619111,0.101161198869583,0.4894534397602936,-0.03592706008172476
5761,5.0,300.17515,958.79701,0.0,0.0,0.0,0.0,0.05741879001239175,0.0,-0.10180588836495891,-0.05974905527952264,-0.12989541028717888,0.1281184735868089,0.5223734187517425,-0.02059960859377308
5762,5.0,300.93312000000003,1347.4704,0.0,0.0,0.0,0.0,0.057428756821975575,0.0,-0.15997138876544684,-0.0954326536537196,-0.15419333007019687,0.15053806073194986,0.5519950964151744,-0.009392886688880742
5763,5.0,300.16056000000003,1357.8998,0.0,0.0,0.0,0.0,0.0574387236315594,0.0,-0.11565618636687688,-0.11340194807440089,-0.18370949800071582,0.14784418335358487,0.5072100600777356,-0.04352867815419606
5764,5.0,299.99759,1002.8166,0.0,0.0,0.0,0.0,0.05744869044114322,0.0,-0.09770602920083431,-0.07326503647719614,-0.13386013633846688,0.11124883214190488,0.47234284744160954,-0.024956204054985578
5765,5.0,300.0734,843.86036,0.0,0.0,0.0,0.0,0.05745865725072704,0.0,-0.04904365254048165,-0.08926446428571673,-0.11820435838086188,0.1155485994712589,0.5057770508588085,-0.04095201050764876
5766,5.0,299.38937000000004,1134.1545,0.0,0.0,0.0,0.0,0.057468624060310856,0.0,-0.12301276712791488,-0.0917401301490459,-0.13000174075267287,0.13906484746463185,0.5137681288324665,-0.0036774938646153862
5767,5.0,299.26745,1267.1869,0.0,0.0,0.0,0.0,0.05747859086989468,0.0,-0.1262799312803589,-0.1179555852163099,-0.1409576391814359,0.13222127522922386,0.49106833750467155,-0.03236368138179667
5768,5.0,299.99097,1045.4284,0.0,0.0,0.0,0.0,0.057488557679478504,0.0,-0.09790161281463691,-0.11365044766142589,-0.10623205864428789,0.12623675669359788,0.4528173457620926,-0.025711694475296677
5769,5.0,299.83457000000004,1002.6125,0.0,0.0,0.0,0.0,0.05749852448906233,0.0,-0.06798658607500363,-0.1083304996013879,-0.12845207604973288,0.15494111877649785,0.48738707830135947,-0.028454725629262774
5770,5.0,300.45209,1182.1738,0.0,0.0,0.0,0.0,0.057508491298646144,0.0,-0.09678776521820871,-0.12356624486253888,-0.1389973143454669,0.1388657134224789,0.5461508116933884,-0.033448067718317265
5771,5.0,300.59247,1341.1576,0.0,0.0,0.0,0.0,0.05751845810822996,0.0,-0.1303160509336929,-0.12900210873401688,-0.14836027215951886,0.14429044167535787,0.5045427501169926,-0.04393376743817525
5772,5.0,300.22477000000003,1391.9729,0.0,0.0,0.0,0.0,0.057528424917813785,0.0,-0.15372024359850686,-0.1110613910059059,-0.15834336943227384,0.09296742021342,0.5009429055592155,-0.02324093882195208
5773,5.0,300.02075,996.8590199999999,0.0,0.0,0.0,0.0,0.05753839172739761,0.0,-0.11651621278675489,-0.06865487517845864,-0.11784916355830688,0.1313524335334759,0.5355474635044194,-0.028535565761991077
5774,5.0,299.42381,891.7652300000001,0.0,0.0,0.0,0.0,0.05754835853698143,0.0,-0.06423066148507274,-0.06169670739649094,-0.14514699264739286,0.12697554773901087,0.5401429478754585,0.0013096879678061387
5775,5.0,299.00628,1230.9698,0.0,0.0,0.0,0.0,0.05755832534656525,0.0,-0.095909776913808,-0.099865414111699,-0.17840888275258582,0.11467870399540689,0.48188558622090455,-0.008975945925106891
5776,5.0,298.56887,1417.0639,0.0,0.0,0.0,0.0,0.057568292156149066,0.0,-0.1241861614062199,-0.1277062935786299,-0.17885958652956682,0.1204344610559559,0.44978859935817855,-0.016971681809474587
5777,5.0,299.34684,1170.0394,0.0,0.0,0.0,0.0,0.05757825896573289,0.0,-0.1032719599346489,-0.10691820121450489,-0.14547259043452687,0.14135698131084787,0.4862286294620295,-0.02049389823734028
5778,5.0,299.89869,1011.1124,0.0,0.0,0.0,0.0,0.05758822577531671,0.0,-0.08315023656503942,-0.09670164909220971,-0.12750101924087087,0.17027265670210284,0.5302972169187605,-0.011380325590900688
5779,5.0,300.25198,1178.5888,0.0,0.0,0.0,0.0,0.05759819258490054,0.0,-0.1134330345874689,-0.1058986790963859,-0.13892985215380887,0.13172407340515388,0.4733479104808016,-0.028658379780111872
5780,5.0,300.10075,1296.8382,0.0,0.0,0.0,0.0,0.057608159394484354,0.0,-0.12292230415898688,-0.1121685288601719,-0.15911559773098685,0.12379203751482287,0.4811513953309456,-0.009841690013974181
5781,5.0,300.93805,1166.2953,0.0,0.0,0.0,0.0,0.05761812620406817,0.0,-0.09899953515924341,-0.1040527096667029,-0.15147241917916388,0.12859209708105188,0.5095543459065984,-0.04346286046745036
5782,5.0,299.70322999999996,994.8086400000001,0.0,0.0,0.0,0.0,0.057628093013651994,0.0,-0.10506007278362191,-0.06446823114326904,-0.13286868124811788,0.13525876598150088,0.5500678845924735,-0.022987790443468277
5783,5.0,300.46544,878.8484,0.0,0.0,0.0,0.0,0.05763805982323582,0.0,-0.08040361445271892,-0.07200907548799243,-0.11473527374848988,0.08038361086924473,0.5018847417921676,-0.05761482835539085
5784,5.0,300.02116,1155.2644,0.0,0.0,0.0,0.0,0.05764802663281964,0.0,-0.12539566791808887,-0.09040159839594311,-0.13537425622789886,0.09354079514025772,0.49320989225352657,-0.02171532158363538
5785,5.0,299.85355,1527.8507,0.0,0.0,0.0,0.0,0.05765799344240346,0.0,-0.15594677963324885,-0.11929444323594487,-0.18918724963132783,0.12123720844768089,0.5250640435972864,-0.01745209610588778
5786,5.0,299.56574,1325.8948,0.0,0.0,0.0,0.0,0.057667960251987276,0.0,-0.09669711986426271,-0.12113608608770088,-0.18520570362837982,0.16848759373593084,0.5235722760050605,-0.007665912033716612
5787,5.0,298.99926,1055.6922,0.0,0.0,0.0,0.0,0.0576779270615711,0.0,-0.06398055083038873,-0.10373665669551091,-0.15318685861336587,0.1363647082006489,0.4681218400425286,-0.024935441547186476
5788,5.0,298.43838999999997,1200.6739,0.0,0.0,0.0,0.0,0.05768789387115492,0.0,-0.10271655702483491,-0.1174298907994279,-0.14482844708095485,0.0969480188275245,0.4362490955594336,-0.02095418026751658
5789,5.0,299.50372000000004,1330.9227,0.0,0.0,0.0,0.0,0.05769786068073875,0.0,-0.12945917572162588,-0.11918968330810589,-0.15591838836544683,0.12660075665952186,0.48656472452019955,-0.01886516861584718
5790,5.0,299.20063,1048.496,0.0,0.0,0.0,0.0,0.057707827490322564,0.0,-0.11707827274972589,-0.09535803386335522,-0.1062802792165469,0.13975118255236785,0.5355891486135335,-0.012892333867124288
5791,5.0,299.36621,1002.0231,0.0,0.0,0.0,0.0,0.05771779429990638,0.0,-0.11130051802950588,-0.09450931024834272,-0.0987801837378451,0.14572618666955486,0.5182312118129385,-0.016488198378508484
5792,5.0,300.58165,1176.7737,0.0,0.0,0.0,0.0,0.057727761109490204,0.0,-0.1263906997812909,-0.1032978788722069,-0.12802124210721286,0.13150695417372588,0.5025229272351515,-0.03992156656670186
5793,5.0,300.79561,1235.5797,0.0,0.0,0.0,0.0,0.05773772791907402,0.0,-0.09858900066922681,-0.12167177115056889,-0.15532459340934388,0.12717189534338888,0.5458615895848444,-0.024376146743738374
5794,5.0,300.97508999999997,1397.4089999999999,0.0,0.0,0.0,0.0,0.05774769472865784,0.0,-0.12242133304454489,-0.13616421640336188,-0.16619189324936284,0.14078490030438787,0.5532683870208385,-0.03845587395254926
5795,5.0,300.19118,1373.4938,0.0,0.0,0.0,0.0,0.05775766153824166,0.0,-0.10500743444092689,-0.13302799456134087,-0.17947239005754584,0.11571207724239288,0.47922356542568356,-0.032773588670001366
5796,5.0,298.73365,1107.632,0.0,0.0,0.0,0.0,0.05776762834782548,0.0,-0.12794953439763587,-0.09296940922336631,-0.1157735207284569,0.1074262549471459,0.47481269522286457,-0.04514383630384975
5797,5.0,299.42094,1095.7936,0.0,0.0,0.0,0.0,0.0577775951574093,0.0,-0.08560056003011751,-0.0921230444545866,-0.15537029098885385,0.13602005117913385,0.5007723451698826,-0.015218883766236885
5798,5.0,298.84564,1081.2065,0.0,0.0,0.0,0.0,0.057787561966993126,0.0,-0.09063014100899851,-0.09228756283357333,-0.14574208456362386,0.13406385027107187,0.5377889449781365,-0.004828710530031625
5799,5.0,300.02015,912.3082400000001,0.0,0.0,0.0,0.0,0.05779752877657694,0.0,-0.05377058584699366,-0.0899252087289271,-0.13362312700757586,0.12313627218260387,0.4865624953699795,-0.016548337811693785
5800,5.0,301.07563,1058.9796,0.0,0.0,0.0,0.0,0.057807495586160766,0.0,-0.10864385732731388,-0.1103017878034389,-0.1029577206811359,0.11634707094756189,0.5002863194944155,-0.03128508171659717
5801,5.0,300.58414,1209.2465,0.0,0.0,0.0,0.0,0.05781746239574458,0.0,-0.11972616883855287,-0.10485873998875189,-0.14299582215508888,0.15834967184789586,0.5142276985478225,-0.04359631259837105
5802,5.0,301.41742999999997,1296.0225,0.0,0.0,0.0,0.0,0.05782742920532841,0.0,-0.16255818587324383,-0.1132876939931249,-0.11811258831930488,0.13982129945928787,0.5324461683933455,-0.021572089562749478
5803,5.0,301.03553999999997,1365.6341,0.0,0.0,0.0,0.0,0.05783739601491223,0.0,-0.13699942832829087,-0.1206550050727219,-0.15746423311550986,0.14227248317370086,0.47788709867628454,-0.02876460486759547
5804,5.0,300.34573,1385.7792,0.0,0.0,0.0,0.0,0.05784736282449605,0.0,-0.14422819772171486,-0.11857988913292389,-0.15843420730373886,0.12387549892555988,0.4694909233126465,-0.02190132491774248
5805,5.0,299.74487,1273.0587,0.0,0.0,0.0,0.0,0.05785732963407987,0.0,-0.09410502852469323,-0.1146140079765219,-0.17825903319529685,0.12367109598288689,0.5172057216517305,-0.018546077920855383
5806,5.0,300.10077,1055.6789999999999,0.0,0.0,0.0,0.0,0.05786729644366369,0.0,-0.07846902110303942,-0.07804955278689113,-0.16438149903069083,0.1015954565841909,0.5337610427831134,-0.009848107028182491
5807,5.0,299.30924,1098.1019999999999,0.0,0.0,0.0,0.0,0.05787726325324751,0.0,-0.07613884883481933,-0.10964590088120789,-0.14801085286253388,0.1008446372468408,0.5088583038829045,-0.012453717150586187
5808,5.0,299.93307999999996,1036.1929,0.0,0.0,0.0,0.0,0.057887230062831335,0.0,-0.13009527386940387,-0.07377223300025253,-0.1111092670731309,0.1102553809488589,0.5146514904021475,-0.017220742737054984
5809,5.0,299.27538,878.99458,0.0,0.0,0.0,0.0,0.05789719687241515,0.0,-0.08181834666634212,-0.09582366990705991,-0.08955038623868501,0.16854417362151483,0.5396685847086425,-0.00966746986660499
5810,5.0,300.28506,971.8403300000001,0.0,0.0,0.0,0.0,0.057907163681998976,0.0,-0.0986225878835416,-0.07986066539988403,-0.11693193917028388,0.15935244494186185,0.5298394913185864,-0.039396073786589755
5811,5.0,300.02261,1167.203,0.0,0.0,0.0,0.0,0.05791713049158279,0.0,-0.06856533832012203,-0.1194752678487909,-0.16675997191792782,0.12145435807661188,0.46916015795000254,-0.03458468507099267
5812,5.0,300.66246,1244.886,0.0,0.0,0.0,0.0,0.057927097301166616,0.0,-0.08368350097341852,-0.14414141285064988,-0.15058935145201185,0.12090185306208388,0.47570543948847155,-0.05583475969896174
5813,5.0,301.76718999999997,1289.9183,0.0,0.0,0.0,0.0,0.05793706411075044,0.0,-0.11581140614969589,-0.11457449122262188,-0.16171705656773086,0.12377773042341089,0.5155619158819995,-0.054644476567989944
5814,5.0,301.21769,1081.5999,0.0,0.0,0.0,0.0,0.05794703092033426,0.0,-0.14235983546482187,-0.058952197910628945,-0.1274673084100439,0.14087964932123886,0.5256357800987125,-0.01100771806537719
5815,5.0,300.58471000000003,817.70455,0.0,0.0,0.0,0.0,0.05795699772991808,0.0,-0.07863869895153533,-0.05925002352577204,-0.1106730426400789,0.10428816872494089,0.4829602190119625,-0.04789783183714796
5816,5.0,300.53809,1111.8605,0.0,0.0,0.0,0.0,0.0579669645395019,0.0,-0.11278260908327689,-0.08286062739495721,-0.14233458527232987,0.13179653091980487,0.5057746393235706,-0.0033605450790099765
5817,5.0,299.92095,1367.6832,0.0,0.0,0.0,0.0,0.05797693134908572,0.0,-0.12047966214291689,-0.12587360785775786,-0.16938826161731985,0.14727497997740885,0.5155259353709485,-0.02896927632154497
5818,5.0,299.83361,1131.437,0.0,0.0,0.0,0.0,0.057986898158669545,0.0,-0.0911315032379791,-0.10580740552737791,-0.14698969941175385,0.14266013239695885,0.5205148242258135,0.0024893219415519476
5819,5.0,300.425,1029.0627,0.0,0.0,0.0,0.0,0.05799686496825336,0.0,-0.07283259450676743,-0.11354745078876088,-0.12642932487510286,0.08695442428373351,0.4778154517617136,-0.016313703539037182
5820,5.0,299.81789,1323.0867,0.0,0.0,0.0,0.0,0.058006831777837185,0.0,-0.14119993767784889,-0.12313777179275189,-0.1378475895894979,0.10433763559482288,0.5063147421568746,-0.024347291407390576
5821,5.0,299.21226,1392.3406,0.0,0.0,0.0,0.0,0.058016798587421,0.0,-0.13607552662210887,-0.11031929676516689,-0.17684195226794183,0.14241274738504386,0.5537688616427314,-0.02427644090739818
5822,5.0,299.23964,1006.9871,0.0,0.0,0.0,0.0,0.058026765397004826,0.0,-0.1065019783384269,-0.06946798001270584,-0.13012898470023088,0.14992294699374284,0.5328673359299115,-0.026342708134072874
5823,5.0,300.23161,1013.4829,0.0,0.0,0.0,0.0,0.05803673220658865,0.0,-0.07403695978762903,-0.09457012146634432,-0.13946639847926187,0.12905954988218588,0.4808575933319495,-0.02326154224948548
5824,5.0,301.06556,1190.2425,0.0,0.0,0.0,0.0,0.05804669901617247,0.0,-0.12403106321341288,-0.07658672564402133,-0.16118621484034085,0.11400285604620589,0.4954955919616075,-0.022409765711921683
5825,5.0,300.86848,1216.4512,0.0,0.0,0.0,0.0,0.05805666582575629,0.0,-0.10916488066123489,-0.11200271048130689,-0.14860320900349486,0.14056136719982687,0.5418943912033125,-0.024474598176454775
5826,5.0,300.12066,1204.9355,0.0,0.0,0.0,0.0,0.05806663263534011,0.0,-0.11258592710636589,-0.0943693743300321,-0.15931501548316784,0.11878133338530489,0.5181525430751746,-0.023263207019399774
5827,5.0,300.22314,1224.3693,0.0,0.0,0.0,0.0,0.05807659944492393,0.0,-0.09220012137644351,-0.10964152364077591,-0.17033605576085983,0.1301558763578849,0.4653155324330676,-0.03376058647316047
5828,5.0,300.56653,1196.4505,0.0,0.0,0.0,0.0,0.058086566254507754,0.0,-0.1018555072223559,-0.13744826772508786,-0.12438730168357087,0.10094479397947549,0.49929691116926855,-0.038254101407135865
5829,5.0,300.4789,1324.1022,0.0,0.0,0.0,0.0,0.05809653306409158,0.0,-0.1061432472730229,-0.12769506676752188,-0.16865568179501986,0.13375193136028787,0.5580276936680455,-0.03645274132635547
5830,5.0,299.91017999999997,1299.1581,0.0,0.0,0.0,0.0,0.058106499873675395,0.0,-0.11474043119149888,-0.12432820893773887,-0.15584297216050386,0.1070768356501609,0.5295541094279215,-0.008699152747589532
5831,5.0,298.77767,937.08161,0.0,0.0,0.0,0.0,0.05811646668325921,0.0,-0.06807896003362024,-0.09494111792420881,-0.1218293315411189,0.10756185820802888,0.5071730764490855,-0.02708418125250058
5832,5.0,299.50359,959.12599,0.0,0.0,0.0,0.0,0.058126433492843035,0.0,-0.07653638028630264,-0.0889634722640111,-0.1260505010602159,0.1192213169762279,0.5285387922977175,-0.015357531843670384
5833,5.0,299.74228,1238.0586,0.0,0.0,0.0,0.0,0.05813640030242686,0.0,-0.1145396354191819,-0.1141982410629889,-0.14760103372708788,0.15912280193919784,0.5652145550373334,-0.004733047156290386
5834,5.0,300.22927000000004,1357.2121,0.0,0.0,0.0,0.0,0.05814636711201068,0.0,-0.14180494931255888,-0.09789043565278381,-0.17286319270276884,0.13627309012660685,0.5029239716247316,-0.0023030562769939577
5835,5.0,300.13107,1202.1517,0.0,0.0,0.0,0.0,0.0581563339215945,0.0,-0.0938850711797351,-0.1026183629576439,-0.16892065682867083,0.1130239652570969,0.43657387261398656,-0.02238397748362658
5836,5.0,300.76097000000004,1143.1012,0.0,0.0,0.0,0.0,0.058166300731178316,0.0,-0.1146529877078689,-0.09415164410879381,-0.13866957860062187,0.12223887709903788,0.46125647279746956,-0.030649133529833974
5837,5.0,300.04071,1210.7184,0.0,0.0,0.0,0.0,0.05817626754076214,0.0,-0.12312454887894689,-0.08935740971738972,-0.15554619120621385,0.12707149239097987,0.5199761500751504,0.002943553348756097
5838,5.0,299.89914,1152.3788,0.0,0.0,0.0,0.0,0.058186234350345964,0.0,-0.10677500871037289,-0.11918732243537289,-0.12433203902311687,0.13806664412861686,0.5157325978613445,-0.02916239571110437
5839,5.0,299.7636,1141.7241,0.0,0.0,0.0,0.0,0.05819620115992979,0.0,-0.12131706268806189,-0.1041183378756799,-0.12162021698548088,0.1162190467974269,0.4840459063616115,-0.008022719443805762
5840,5.0,300.64173,1129.2884,0.0,0.0,0.0,0.0,0.058206167969513604,0.0,-0.1076400709832479,-0.1065973859678429,-0.1290380081850599,0.13287392988363586,0.5133106464123165,-0.034189242941215565
5841,5.0,299.95849,980.67196,0.0,0.0,0.0,0.0,0.05821613477909742,0.0,-0.07300170696170752,-0.11308847889096388,-0.11200960058198689,0.13493369508441888,0.5508696693966034,-0.03629758639154287
5842,5.0,300.36451,1075.7869,0.0,0.0,0.0,0.0,0.058226101588681245,0.0,-0.1000378135499635,-0.10890686665577089,-0.11806767094237189,0.1183837441785659,0.4982581676967525,-0.03412949968881936
5843,5.0,300.09403,1318.6413,0.0,0.0,0.0,0.0,0.05823606839826506,0.0,-0.13372468506509888,-0.1116933449607749,-0.15541598856836383,0.1083894200947029,0.4709166371308535,-0.015658393156113087
5844,5.0,299.2557,1258.9115,0.0,0.0,0.0,0.0,0.05824603520784888,0.0,-0.10044698420534551,-0.13555207148794787,-0.14667861136605187,0.15309752035204885,0.5023843044889705,-0.027401410607058675
5845,5.0,299.24939,1175.4589,0.0,0.0,0.0,0.0,0.05825600201743271,0.0,-0.08340632742181363,-0.11269903621502889,-0.16120478771467384,0.15557699400925387,0.5558520025233215,-0.029255035141247172
5846,5.0,299.57347999999996,1304.175,0.0,0.0,0.0,0.0,0.058265968827016526,0.0,-0.09540115272136072,-0.13998572968551587,-0.16104976044937386,0.13353413325129287,0.5148184132236214,-0.02985486805469607
5847,5.0,299.20107,1140.0321,0.0,0.0,0.0,0.0,0.05827593563660035,0.0,-0.07439397643386383,-0.1263214036069519,-0.14582591074439685,0.11141761934356288,0.46878703873317856,-0.04371486792632155
5848,5.0,299.76144,1116.6588,0.0,0.0,0.0,0.0,0.05828590244618417,0.0,-0.10560681240508091,-0.10403477513993291,-0.12979480468474985,0.12786086488138487,0.5079260529958985,-0.02955242201909697
5849,5.0,300.45295,1149.4848,0.0,0.0,0.0,0.0,0.05829586925576798,0.0,-0.1087946998697009,-0.0995961895071286,-0.14102379428046485,0.1341479601618729,0.5433879826457185,-0.024844432436454577
5850,5.0,299.90225,955.56746,0.0,0.0,0.0,0.0,0.058305836065351814,0.0,-0.07039174999637483,-0.08986443500117923,-0.13021246637596987,0.14757475001949386,0.5069618745982415,-0.028353556659778175
5851,5.0,299.79517000000004,1072.7284,0.0,0.0,0.0,0.0,0.058315802874935624,0.0,-0.08960968163453702,-0.11263238462345089,-0.12384059245961487,0.0881108476361136,0.47572006068741457,-0.02003103444590918
5852,5.0,299.45731,1369.4266,0.0,0.0,0.0,0.0,0.05832576968451944,0.0,-0.15262771681068285,-0.10601621610798591,-0.15762754876662785,0.15436931134756485,0.4837386686662895,-0.02909071333277987
5853,5.0,299.25129,1387.4834,0.0,0.0,0.0,0.0,0.05833573649410327,0.0,-0.14264468033293387,-0.1010089823600604,-0.1781066505127578,0.16300193875453883,0.5345898104374065,-0.0028051081239926176
5854,5.0,300.09327,1090.3846,0.0,0.0,0.0,0.0,0.05834570330368709,0.0,-0.11264226381192591,-0.08802863353624972,-0.1307788022543629,0.13638668559531786,0.5158920530295815,-0.005647752401914764
5855,5.0,300.13561,1195.0991,0.0,0.0,0.0,0.0,0.05835567011327091,0.0,-0.11283451788589989,-0.09523160051587722,-0.15521417954594685,0.11345915617504689,0.4990493843023396,-0.005289253776083705
5856,5.0,299.52079,1393.8754,0.0,0.0,0.0,0.0,0.05836563692285473,0.0,-0.1321740375095619,-0.10936495702598088,-0.18216433212821984,0.11710629924749189,0.5317111061083005,0.005677615922112064
5857,5.0,299.03593,1181.4103,0.0,0.0,0.0,0.0,0.058375603732438545,0.0,-0.1126871406588549,-0.1014429219141369,-0.14498918907681888,0.13620575965746187,0.5612275577488475,-0.024181734447051375
5858,5.0,300.05177000000003,871.4544,0.0,0.0,0.0,0.0,0.058385570542022376,0.0,-0.05177507387480195,-0.0852551491505281,-0.12787015638480187,0.1117270760566039,0.5055161389580586,-0.04943925780352486
5859,5.0,300.77245,837.5878,0.0,0.0,0.0,0.0,0.05839553735160619,0.0,-0.056823269271270044,-0.0866390208058556,-0.11114348452900788,0.10556998076394591,0.4806313345846196,-0.048914154111451155
5860,5.0,300.43971,955.42529,0.0,0.0,0.0,0.0,0.05840550416119002,0.0,-0.07299324227037214,-0.10403084372954491,-0.11340135025684188,0.12599379958461987,0.4902658636904736,-0.05614772428384895
5861,5.0,299.61679,1145.0122,0.0,0.0,0.0,0.0,0.05841547097077383,0.0,-0.1118413402703809,-0.09698549084272272,-0.13922827457326087,0.16223482736883085,0.5416907887282185,-0.04900631123454636
5862,5.0,300.2032,1206.9496,0.0,0.0,0.0,0.0,0.05842543778035765,0.0,-0.10858960791695992,-0.11524892062168289,-0.14304400219734387,0.14965202418200485,0.5078563008590146,-0.03948057276542916
5863,5.0,301.13476,985.56291,0.0,0.0,0.0,0.0,0.05843540458994148,0.0,-0.07149056298781922,-0.1075537623397299,-0.12054218980658787,0.14557683360481488,0.4947861041090865,-0.023293108029850778
5864,5.0,301.64923,1047.0682,0.0,0.0,0.0,0.0,0.0584453713995253,0.0,-0.08013697971540414,-0.09286964056551991,-0.14527596925262184,0.13681202772229586,0.5242291559123895,-0.02064486135648918
5865,5.0,300.84258,1584.6331,0.0,0.0,0.0,0.0,0.05845533820910912,0.0,-0.16222310406517385,-0.12463901327341288,-0.19482677677290583,0.14815046859381287,0.5457462006634565,0.011560638512446188
5866,5.0,301.16459,1591.4685,0.0,0.0,0.0,0.0,0.05846530501869294,0.0,-0.15330950240546987,-0.12883502379252687,-0.20162214870105682,0.0910062604593686,0.49005272653193854,-0.016434922701500584
5867,5.0,300.3554,1110.7304,0.0,0.0,0.0,0.0,0.05847527182827676,0.0,-0.08153015503314982,-0.10685698064346288,-0.14924718010454985,0.09256083537229322,0.47047939944770156,-0.013184434619202387
5868,5.0,300.16156,960.54131,0.0,0.0,0.0,0.0,0.058485238637860586,0.0,-0.07594911471384402,-0.06916688159973973,-0.14686457315690485,0.1334953055074609,0.4977664475557235,-0.035266626706295066
5869,5.0,299.49239,1311.2322,0.0,0.0,0.0,0.0,0.0584952054474444,0.0,-0.14841697363511486,-0.1012763476506973,-0.14888850983415186,0.14278121578390887,0.5394717102142125,-0.01140635902571999
5870,5.0,299.18523999999996,1178.6119,0.0,0.0,0.0,0.0,0.058505172257028226,0.0,-0.12893666291005787,-0.09948654166080721,-0.1298453861297419,0.14857882007358786,0.49740221454227657,-0.04138933431705926
5871,5.0,299.29124,1028.1459,0.0,0.0,0.0,0.0,0.05851513906661204,0.0,-0.12131581639043887,-0.09038875139792522,-0.10082610895551222,0.12251995267677787,0.5029413589964475,-0.009115050269060421
5872,5.0,301.20713,1150.0578,0.0,0.0,0.0,0.0,0.05852510587619587,0.0,-0.11101048532088188,-0.1082363078720919,-0.13034207119626087,0.13884452636288788,0.5336421581488805,-0.005131668763556275
5873,5.0,300.86222999999995,1327.6276,0.0,0.0,0.0,0.0,0.05853507268577969,0.0,-0.12534925093100788,-0.11012917051640289,-0.16808722822391786,0.12674358439361788,0.5438398009978095,-0.00947742700832422
5874,5.0,299.8339,1478.9325,0.0,0.0,0.0,0.0,0.05854503949536351,0.0,-0.13839357940588284,-0.15234949859822486,-0.15881549331636885,0.1015498400646889,0.4956599208628255,-0.038819871891973064
5875,5.0,300.56305,1394.4265,0.0,0.0,0.0,0.0,0.05855500630494733,0.0,-0.11184170504041689,-0.13675963255962487,-0.17526949957025284,0.09306482698528332,0.4599442125929595,-0.040143035680809167
5876,5.0,300.17137,938.90825,0.0,0.0,0.0,0.0,0.05856497311453115,0.0,-0.04808698333931575,-0.1103291658211409,-0.12698851734029087,0.14267394299582187,0.4995883826930345,-0.04036082061755286
5877,5.0,299.54077,835.23684,0.0,0.0,0.0,0.0,0.05857493992411497,0.0,-0.05186730293865425,-0.08229400172703563,-0.11972983680391489,0.1345362781301969,0.5427030458431205,-0.030666201727768475
5878,5.0,298.81056,1173.4958,0.0,0.0,0.0,0.0,0.058584906733698795,0.0,-0.08794747625624011,-0.1112252132820739,-0.15754072336555885,0.14622796838407687,0.5053659854257395,-0.03567447304379637
5879,5.0,298.96817999999996,1176.1425,0.0,0.0,0.0,0.0,0.05859487354328261,0.0,-0.09004546935679592,-0.11255366522318189,-0.15491881714179684,0.1118030394166009,0.4959566308896085,-0.028882551232235872
5880,5.0,299.64731,889.91571,0.0,0.0,0.0,0.0,0.058604840352866436,0.0,-0.06682436389230123,-0.0897413139682781,-0.11394647881064189,0.14701894180963984,0.5384293494388395,-0.03192461782196447
5881,5.0,299.6963,1034.7086,0.0,0.0,0.0,0.0,0.05861480716245025,0.0,-0.092641883221292,-0.09169248206309341,-0.13019120838887185,0.12555217452853487,0.5348558696486645,-0.015312128106689384
5882,5.0,299.70367000000005,1353.97,0.0,0.0,0.0,0.0,0.058624773972034076,0.0,-0.13115371492386388,-0.13147152081772887,-0.14894784576000786,0.10625644757419489,0.5108809132025205,-0.03924436187561696
5883,5.0,300.50654,1441.9415,0.0,0.0,0.0,0.0,0.0586347407816179,0.0,-0.13853924424025887,-0.14094845913552986,-0.15882650734495585,0.098635551405321,0.4946443200225935,0.004149233017647416
5884,5.0,299.44867,1225.428,0.0,0.0,0.0,0.0,0.05864470759120172,0.0,-0.10414699258850789,-0.10030787307261631,-0.16804466158721684,0.13139634779280987,0.5297900548462074,-0.006026974221441044
5885,5.0,299.98655,1240.1387,0.0,0.0,0.0,0.0,0.05865467440078554,0.0,-0.11378221070442988,-0.1031652748316199,-0.16002372313311186,0.15928329062253685,0.5400814942568936,0.02238840842631388
5886,5.0,300.52299999999997,1173.6879,0.0,0.0,0.0,0.0,0.05866464121036936,0.0,-0.10322376975989289,-0.12547563361598088,-0.12807242136976388,0.14406739493084486,0.47962411332271454,-0.005614923909274844
5887,5.0,299.97092000000004,1189.655,0.0,0.0,0.0,0.0,0.05867460801995318,0.0,-0.11467183415972888,-0.1058312473022309,-0.14112233285268985,0.13793675559829788,0.4656595105770156,-0.02025633769839488
5888,5.0,299.73299,1371.5974,0.0,0.0,0.0,0.0,0.058684574829537005,0.0,-0.12469728528666389,-0.12266809997389887,-0.16956599581736084,0.14293920173950087,0.5013399982734056,-0.01028195741625019
5889,5.0,299.15604,1184.6446,0.0,0.0,0.0,0.0,0.05869454163912082,0.0,-0.1115751594691109,-0.0998795428710934,-0.14864768055038385,0.14070887614938488,0.5319315488000564,-0.013669630442837487
5890,5.0,298.27142000000003,1037.6111,0.0,0.0,0.0,0.0,0.058704508448704645,0.0,-0.08211035521266112,-0.1137599698647349,-0.11953755233243789,0.1006117021946019,0.48326220807176656,-0.05373534602176575
5891,5.0,299.37323,1120.0594,0.0,0.0,0.0,0.0,0.05871447525828846,0.0,-0.1077946726835059,-0.1051793728503959,-0.12749604418287988,0.1058236580589819,0.4764984596792366,-0.04378589169208106
5892,5.0,299.71693,1016.5483,0.0,0.0,0.0,0.0,0.058724442067872286,0.0,-0.08382821031295022,-0.0989646236270479,-0.12621247922120188,0.1244859821108099,0.5245688885384185,-0.04233500772813996
5893,5.0,299.52169,1020.5599,0.0,0.0,0.0,0.0,0.05873440887745611,0.0,-0.07052501771577734,-0.1226435995864809,-0.11705611297003889,0.14643764022726988,0.5320483461390835,-0.057507244499523144
5894,5.0,299.85777,1150.3026,0.0,0.0,0.0,0.0,0.05874437568703993,0.0,-0.0895465419678056,-0.1237084342490719,-0.13640828808744987,0.12085552726751188,0.4999306889743175,-0.051124135666059355
5895,5.0,300.20842999999996,1017.1157,0.0,0.0,0.0,0.0,0.05875434249662375,0.0,-0.08923123880168761,-0.11220160134343589,-0.1077449423685979,0.1068944404996599,0.4908002720582156,-0.035721585120445966
5896,5.0,300.48059,942.96505,0.0,0.0,0.0,0.0,0.05876430930620757,0.0,-0.06349451198267045,-0.09480093983912431,-0.12834238159390687,0.13130191288348986,0.5358388438356765,-0.03152257335453577
5897,5.0,299.91387000000003,1328.3849,0.0,0.0,0.0,0.0,0.05877427611579139,0.0,-0.13630509869726587,-0.1004404375964494,-0.16705030860158185,0.14242417684617187,0.5426890325942374,-0.014673813980942686
5898,5.0,299.5437,1501.4864,0.0,0.0,0.0,0.0,0.05878424292537521,0.0,-0.13476275979254887,-0.13388440367836188,-0.1877672201461818,0.13190204065271788,0.47643680341065153,-0.020517438063663483
5899,5.0,299.4082,1196.7916,0.0,0.0,0.0,0.0,0.058794209734959024,0.0,-0.11480862292322888,-0.0938956535637795,-0.15509048197373887,0.13873002910158785,0.44580370962990057,-0.018712607601290586
5900,5.0,299.66156,1138.9454,0.0,0.0,0.0,0.0,0.05880417654454285,0.0,-0.1032818087256209,-0.08514274121093432,-0.15778640611730585,0.14554476423914986,0.5042896807720165,-0.008751013927457831
5901,5.0,299.67194,1402.0299,0.0,0.0,0.0,0.0,0.05881414335412667,0.0,-0.14265462031641485,-0.1159111099595359,-0.16761636076994685,0.16720894303723785,0.5378774219768685,0.006103288875247714
5902,5.0,299.85666000000003,1360.9586,0.0,0.0,0.0,0.0,0.058824110163710495,0.0,-0.16179568477549083,-0.0987898744618015,-0.15311187810596585,0.11292904398772889,0.5282279879620435,-0.021936244555938778
5903,5.0,300.65974,1139.5149,0.0,0.0,0.0,0.0,0.05883407697329431,0.0,-0.13244614582391687,-0.10091088657812909,-0.11302703540489989,0.12047054289201689,0.5160830304084295,-0.02253262127329658
5904,5.0,301.11007,1031.7532,0.0,0.0,0.0,0.0,0.05884404378287813,0.0,-0.10487874154572589,-0.08574685409280561,-0.12300162137681488,0.11710201319956888,0.5342730785886475,-0.014990235775171086
5905,5.0,300.90371,1142.4244,0.0,0.0,0.0,0.0,0.05885401059246195,0.0,-0.08438118040927411,-0.1075887903956869,-0.15529851235176986,0.12394313336973489,0.5365066263140815,-0.03526329716646647
5906,5.0,300.71401000000003,1350.3324,0.0,0.0,0.0,0.0,0.05886397740204577,0.0,-0.1102116693395449,-0.13554566774731588,-0.16470998458060987,0.0961206454053691,0.4825873024451586,-0.04692441057207875
5907,5.0,300.20409,1417.8617,0.0,0.0,0.0,0.0,0.058873944211629586,0.0,-0.0970086881905121,-0.13565207927281786,-0.1983337974890218,0.11317289275679489,0.47666145109032254,-0.037024693650052766
5908,5.0,299.4088,1052.7815,0.0,0.0,0.0,0.0,0.05888391102121342,0.0,-0.07627545318680112,-0.0883766889986001,-0.15536716004604484,0.13632538396426785,0.5311364615790876,-0.017838177831241083
5909,5.0,299.34022000000004,825.01571,0.0,0.0,0.0,0.0,0.058893877830797234,0.0,-0.06532455312078145,-0.09182096825527401,-0.09363865179516542,0.1284452062140549,0.5273917526545134,-0.04246254045197646
5910,5.0,299.40424,1182.2036,0.0,0.0,0.0,0.0,0.05890384464038106,0.0,-0.09783891289844891,-0.12050893493830589,-0.14101253707185388,0.12086628798357389,0.5238397942964625,-0.05134140181875185
5911,5.0,299.49236,1233.2429,0.0,0.0,0.0,0.0,0.058913811449964874,0.0,-0.10506120762373389,-0.12318206095462288,-0.14663176881392886,0.11924882671644288,0.48050258089441256,-0.04613374821429645
5912,5.0,299.84115,907.82486,0.0,0.0,0.0,0.0,0.05892377825954869,0.0,-0.06104881907054935,-0.09114013916858142,-0.12376713182736487,0.14860339138851286,0.5266923162429845,-0.04874670541317525
5913,5.0,299.91893999999996,985.8294800000001,0.0,0.0,0.0,0.0,0.05893374506913252,0.0,-0.08328110490820512,-0.08874054305650972,-0.12764589374016888,0.15254651494766885,0.5278087962631725,-0.03316069580445587
5914,5.0,299.83565,1294.9001,0.0,0.0,0.0,0.0,0.05894371187871634,0.0,-0.14356644408140487,-0.11842625002026089,-0.13162461277533788,0.1142832932763829,0.5112674478506685,-0.03371238312615317
5915,5.0,300.24183,1383.5227,0.0,0.0,0.0,0.0,0.05895367868830016,0.0,-0.15212972465153485,-0.1192851922625319,-0.14914144745661484,0.0996774774964011,0.48139303521479354,0.0016171823193784685
5916,5.0,300.82087,1451.4707,0.0,0.0,0.0,0.0,0.05896364549788398,0.0,-0.14398059992727888,-0.11934333255326988,-0.17788690696357082,0.11508237270274589,0.5163989820546114,-0.01148488590846999
5917,5.0,300.29116,1403.6176,0.0,0.0,0.0,0.0,0.058973612307467796,0.0,-0.12423698603123587,-0.10892194381725889,-0.19350578235253382,0.15532611328449386,0.5337748128519725,0.01929511495127958
5918,5.0,300.55792,1302.769,0.0,0.0,0.0,0.0,0.05898357911705163,0.0,-0.1059908139279789,-0.11284508608444291,-0.17717334584564784,0.11893501302797188,0.5075425175680465,-0.016037502707528285
5919,5.0,301.20831,1297.0141,0.0,0.0,0.0,0.0,0.05899354592663544,0.0,-0.13587344402216486,-0.09274445756866531,-0.16564200242009283,0.15910461409990284,0.5029706824543415,0.005904643726267964
5920,5.0,300.7359,1209.3678,0.0,0.0,0.0,0.0,0.05900351273621927,0.0,-0.12684919545154089,-0.090325988660231,-0.15044243018751186,0.13876807664284288,0.5382138818050745,0.0007733477374234792
5921,5.0,300.18485,1114.3893,0.0,0.0,0.0,0.0,0.059013479545803084,0.0,-0.12233213663824188,-0.1010167387895759,-0.11539766573636288,0.14626169947990586,0.5328040685936675,-0.013234359478129589
5922,5.0,299.58876000000004,1025.4606,0.0,0.0,0.0,0.0,0.0590234463553869,0.0,-0.07712755295114683,-0.09197520315899582,-0.14261164837967386,0.08547259768823862,0.4905838924993605,-0.06383724281574533
5923,5.0,298.95392999999996,1183.3304,0.0,0.0,0.0,0.0,0.05903341316497073,0.0,-0.10048650298574571,-0.13584707925456288,-0.1233693095731029,0.08767054791115941,0.47798597162104256,-0.04874449652795725
5924,5.0,300.03872,1267.1014,0.0,0.0,0.0,0.0,0.05904337997455455,0.0,-0.1004704814751645,-0.11688198594035389,-0.16781472474202383,0.1164482135725439,0.5110213699313825,-0.03913958472252626
5925,5.0,300.42028999999997,1285.4093,0.0,0.0,0.0,0.0,0.05905334678413837,0.0,-0.1123679466123529,-0.13916586849960186,-0.13919851541782388,0.14091855812507886,0.5246772455041124,-0.04665868674660386
5926,5.0,300.04326000000003,1182.6945,0.0,0.0,0.0,0.0,0.05906331359372219,0.0,-0.1014127067961549,-0.12316558550799689,-0.13493129368168189,0.1297565950234789,0.5150317327671745,-0.020558428083208877
5927,5.0,301.12756,1293.4323,0.0,0.0,0.0,0.0,0.059073280403306005,0.0,-0.11969449464042688,-0.1216141982798869,-0.15186242927515486,0.1209224625691179,0.4820934950089235,-0.013003889663383988
5928,5.0,300.5174,1173.3343,0.0,0.0,0.0,0.0,0.059083247212889836,0.0,-0.07808516852790613,-0.11411952166271988,-0.16445965101090385,0.11945449622174088,0.5390321217908285,-0.023397797030182774
5929,5.0,300.61412,1110.1847,0.0,0.0,0.0,0.0,0.05909321402247365,0.0,-0.07573851574680952,-0.09176591027134022,-0.16996399032413984,0.13898480070673186,0.5421900575824925,-0.03548178631202967
5930,5.0,300.5484,1283.4288,0.0,0.0,0.0,0.0,0.05910318083205748,0.0,-0.10012466326903491,-0.1103254066632699,-0.17968024818305983,0.1037032093097099,0.5316159720564115,-0.04169379368060706
5931,5.0,300.02471,1177.5002,0.0,0.0,0.0,0.0,0.059113147641641293,0.0,-0.12029179544187588,-0.09864408195791291,-0.13899477108771588,0.13063979447314386,0.49369158121856554,-0.02375761024669358
5932,5.0,298.42206,1007.6828,0.0,0.0,0.0,0.0,0.05912311445122511,0.0,-0.09871010938742932,-0.07603434829900593,-0.13156595572704888,0.12187958874607888,0.5070244731894196,-0.013638222729487788
5933,5.0,300.19368,1362.1716,0.0,0.0,0.0,0.0,0.05913308126080894,0.0,-0.14693913823176386,-0.10732738200238791,-0.15979963274099585,0.15097645352021585,0.49864577639000646,-0.001020888080578809
5934,5.0,300.11605,1500.5326,0.0,0.0,0.0,0.0,0.05914304807039276,0.0,-0.14835222695372485,-0.13044457157637687,-0.17732763343837485,0.1052564001229979,0.4954222022568645,-0.02145171545086948
5935,5.0,300.30029,1362.5858,0.0,0.0,0.0,0.0,0.05915301487997658,0.0,-0.14529227244673085,-0.11196690222277289,-0.15693289489557086,0.13996539375600886,0.5200336520183255,-0.013587364667218486
5936,5.0,300.55555,1302.3011,0.0,0.0,0.0,0.0,0.0591629816895604,0.0,-0.1062366081372369,-0.10783820190780188,-0.18179219576399283,0.12410838432854387,0.5528877089582684,-0.018244389796331084
5937,5.0,299.99429,1078.7658,0.0,0.0,0.0,0.0,0.05917294849914422,0.0,-0.1138726838058589,-0.08765748306437,-0.12638769042849388,0.1275166739549159,0.5482739354229245,-0.03059181295842687
5938,5.0,299.78955,1070.9536,0.0,0.0,0.0,0.0,0.059182915308728046,0.0,-0.08790102988490622,-0.1057007102918479,-0.13194140541910288,0.1137730002610209,0.5041465085328866,-0.02017383482225248
5939,5.0,300.9975,1242.624,0.0,0.0,0.0,0.0,0.05919288211831186,0.0,-0.14196410050576588,-0.10397814459184392,-0.13178441244860886,0.12793320080602388,0.47901899023049355,-0.031954411427904866
5940,5.0,300.68005,1057.8473,0.0,0.0,0.0,0.0,0.059202848927895686,0.0,-0.07560400274303412,-0.1030361462388759,-0.14291899753250686,0.14106948172747386,0.5221804047401936,-0.02028917814738598
5941,5.0,300.18473,941.41974,0.0,0.0,0.0,0.0,0.0592128157374795,0.0,-0.05719121787283374,-0.1120639614498519,-0.1169129103334059,0.15129710664686186,0.5180846654509755,-0.07863739996490712
5942,5.0,301.1617,1272.3369,0.0,0.0,0.0,0.0,0.05922278254706333,0.0,-0.07871512232707772,-0.13654892720132986,-0.17149460592519983,0.15188653449503386,0.5067904529463235,-0.045680011779766154
5943,5.0,300.22458,1410.2543,0.0,0.0,0.0,0.0,0.05923274935664715,0.0,-0.15162016117624486,-0.13125785676914187,-0.14580407520474187,0.12210250376807888,0.5040845077592675,-0.06073227365980874
5944,5.0,299.99874,1156.1826,0.0,0.0,0.0,0.0,0.05924271616623097,0.0,-0.10764803512903388,-0.12119665817867888,-0.12260596747776688,0.1276965461126679,0.5230950149429585,-0.020813210834103982
5945,5.0,299.65299,1039.1844,0.0,0.0,0.0,0.0,0.05925268297581479,0.0,-0.11801097959927688,-0.09126625638202822,-0.1066088559589749,0.10307733485544089,0.5035734548063305,-0.024120930321800477
5946,5.0,299.16001,1311.2288,0.0,0.0,0.0,0.0,0.05926264978539861,0.0,-0.1277771298931209,-0.1067189151848369,-0.16408476873890585,0.09543717578891592,0.4970291459879575,-0.008525159365592722
5947,5.0,299.81501000000003,1419.9105,0.0,0.0,0.0,0.0,0.05927261659498243,0.0,-0.15302588356997887,-0.09341657270449791,-0.18517488056033782,0.13732168239009485,0.48762467531730846,-0.005251809827913276
5948,5.0,298.34627,1349.7981,0.0,0.0,0.0,0.0,0.059282583404566255,0.0,-0.09455279083663391,-0.11844754853736289,-0.19730457856744582,0.15876084873847585,0.5348422110373166,-0.01018874549980089
5949,5.0,300.25912999999997,1319.3475,0.0,0.0,0.0,0.0,0.05929255021415007,0.0,-0.14318479329873887,-0.1007966730268571,-0.15706723159382885,0.17996902446155982,0.5344314597117784,-0.0074567602917999425
5950,5.0,301.01372000000003,1249.4345,0.0,0.0,0.0,0.0,0.059302517023733896,0.0,-0.1151887842282479,-0.08605258913822933,-0.17855551017455681,0.15268799505913186,0.5056520461939715,-0.023250049966851278
5951,5.0,301.0636,1265.0279,0.0,0.0,0.0,0.0,0.05931248383331771,0.0,-0.16932178227825884,-0.09149527116963022,-0.12371985357769888,0.12950732536637788,0.5032915787610115,-0.008519706661504582
5952,5.0,299.90431,1317.7467,0.0,0.0,0.0,0.0,0.059322450642901536,0.0,-0.12985091847528787,-0.08851840317083622,-0.18219276392602582,0.10789980751388191,0.5043958187199915,-0.012993928401650886
5953,5.0,300.09054,1257.0199,0.0,0.0,0.0,0.0,0.05933241745248535,0.0,-0.13135175465590887,-0.10376928334873091,-0.14698161367595586,0.10928954082103791,0.5055790313917655,-0.015271524135432086
5954,5.0,299.78808,1108.8715,0.0,0.0,0.0,0.0,0.05934238426206917,0.0,-0.07978365535253372,-0.1061777788364309,-0.15110781126317985,0.1111409007412529,0.5102922858219275,-0.03159164053435217
5955,5.0,300.71723,1313.9461,0.0,0.0,0.0,0.0,0.059352351071652994,0.0,-0.14117693690057886,-0.1079180561481829,-0.15031182224962186,0.12078352571540589,0.5105577168181235,-0.01111208383892729
5956,5.0,300.02897,1460.4405,0.0,0.0,0.0,0.0,0.05936231788123681,0.0,-0.13250888627010887,-0.14511286638402485,-0.16631570227908185,0.13746809702954488,0.5416681223234815,-0.03072665628173487
5957,5.0,299.53663,1136.871,0.0,0.0,0.0,0.0,0.05937228469082064,0.0,-0.09934021821386621,-0.1156468847309589,-0.13059329642605486,0.13559823516250386,0.5349369803191695,-0.04072350234509676
5958,5.0,299.29849,1062.3403,0.0,0.0,0.0,0.0,0.05938225150040446,0.0,-0.06465226370593163,-0.11890397717740889,-0.13936868063961788,0.13843300496727387,0.5071373289855575,-0.04538814002221066
5959,5.0,299.48722000000004,1118.6307,0.0,0.0,0.0,0.0,0.059392218309988275,0.0,-0.07422152126684384,-0.11901576906094188,-0.14679850925038487,0.11813359299387788,0.49966124550772556,-0.05102149039117904
5960,5.0,299.06788,947.92792,0.0,0.0,0.0,0.0,0.0594021851195721,0.0,-0.05394317678952704,-0.09065459377366182,-0.14354864127714786,0.13796461997604786,0.5256102259311904,-0.03841473093223876
5961,5.0,298.69173,1109.3849,0.0,0.0,0.0,0.0,0.059412151929155915,0.0,-0.08619791858682223,-0.1286916387708759,-0.12233574380859788,0.12382348879792687,0.5334417372791005,-0.06228606938340644
5962,5.0,298.86269,1358.609,0.0,0.0,0.0,0.0,0.05942211873873973,0.0,-0.1246214739141819,-0.11535102583425991,-0.17301069151982584,0.1032518469201639,0.5143019191176476,-0.022910177512308477
5963,5.0,298.50496,1207.1724,0.0,0.0,0.0,0.0,0.05943208554832356,0.0,-0.15686058936843483,-0.08352264144054292,-0.12656704582869488,0.12185483504613587,0.5103496864400925,-0.016129860454143285
5964,5.0,298.78157999999996,1190.0587,0.0,0.0,0.0,0.0,0.05944205235790738,0.0,-0.1062224429008389,-0.0999270055322776,-0.15559866742889286,0.14359196785142386,0.5272139779244684,-0.010991123055239388
5965,5.0,300.37769,1444.2908,0.0,0.0,0.0,0.0,0.0594520191674912,0.0,-0.14174011143865986,-0.1058738038064309,-0.19141443414613382,0.14772655514947586,0.5244888113830155,0.00047943117023867255
5966,5.0,300.20307,1401.5692,0.0,0.0,0.0,0.0,0.05946198597707502,0.0,-0.1096918315082409,-0.12063482113072989,-0.1957153869781048,0.14335866701589886,0.49419024212277957,-0.013425220333216088
5967,5.0,299.78705,1187.8622,0.0,0.0,0.0,0.0,0.05947195278665884,0.0,-0.13527356956546188,-0.0963062637044382,-0.12950059738571387,0.12720907148955787,0.5331379345016175,0.004815890687116405
5968,5.0,299.73939,1297.8366,0.0,0.0,0.0,0.0,0.05948191959624267,0.0,-0.12371041008676688,-0.08914271316695081,-0.18165679515312982,0.11295922870820789,0.5386314928337895,-0.014470448606372088
5969,5.0,300.7366,1380.4163,0.0,0.0,0.0,0.0,0.059491886405826484,0.0,-0.16984891551028283,-0.11706125014804589,-0.13270193067916086,0.1059319744946719,0.5342722477235655,-0.007758589967363212
5970,5.0,300.85922,1253.233,0.0,0.0,0.0,0.0,0.05950185321541031,0.0,-0.0949606381873853,-0.12133254514958987,-0.16465834935551385,0.09856806692216082,0.4953576278279916,-0.04589542571127586
5971,5.0,300.93309,1337.2201,0.0,0.0,0.0,0.0,0.059511820024994125,0.0,-0.12579327738982987,-0.1353614588791359,-0.14532679387763786,0.14604598866611684,0.5082841558462405,-0.03100391595959827
5972,5.0,300.75113999999996,1331.9903,0.0,0.0,0.0,0.0,0.05952178683457794,0.0,-0.0944919208501265,-0.14930001096476386,-0.16109984540181685,0.16800251038305683,0.5188733286663104,-0.04528569739735036
5973,5.0,300.97934,1175.8678,0.0,0.0,0.0,0.0,0.05953175364416177,0.0,-0.11171389367280288,-0.1026632803345769,-0.14305726564115287,0.17603971150126685,0.5171973319409024,-0.03464292060724007
5974,5.0,299.71606,1185.6658,0.0,0.0,0.0,0.0,0.05954172045374559,0.0,-0.08778657011385993,-0.14908314504586084,-0.12354307183275189,0.1377880206161189,0.5127281593273295,-0.04932557519530525
5975,5.0,299.71162999999996,1187.695,0.0,0.0,0.0,0.0,0.05955168726332941,0.0,-0.13400394692515988,-0.099263168649762,-0.12776251882667888,0.11430663855868689,0.5404096353017784,-0.016292480002442586
5976,5.0,299.71569,984.6320300000001,0.0,0.0,0.0,0.0,0.05956165407291323,0.0,-0.06103801478473304,-0.09864210713346801,-0.13962343197975988,0.1129045132028079,0.5447280363004715,-0.04735150359522955
5977,5.0,299.65566,1077.7352,0.0,0.0,0.0,0.0,0.059571620882497046,0.0,-0.08326472572033862,-0.1030441306496639,-0.14129574047480387,0.08589615345529032,0.5462354383417405,-0.04870305966511775
5978,5.0,299.86498,1388.0297,0.0,0.0,0.0,0.0,0.05958158769208088,0.0,-0.1039954711685539,-0.12455386986750988,-0.1933770286623268,0.11359746481369688,0.5087060326578765,-0.01952026925600058
5979,5.0,299.44267,1391.1972,0.0,0.0,0.0,0.0,0.059591554501664694,0.0,-0.13645468480952888,-0.12009119218707788,-0.16634332347680786,0.12731344638235886,0.4941832506970895,-0.015293439721844987
5980,5.0,299.84076,1129.162,0.0,0.0,0.0,0.0,0.05960152131124852,0.0,-0.10047665824777409,-0.07901935269610293,-0.16374105403998385,0.16559896968834584,0.5225237951990835,-0.012722093664822888
5981,5.0,300.81224,1231.8065,0.0,0.0,0.0,0.0,0.059611488120832334,0.0,-0.15905614021511885,-0.08171483100962591,-0.13366745669945088,0.13839543365356588,0.5374844329255835,-0.009129012652788402
5982,5.0,300.98287,1382.7357,0.0,0.0,0.0,0.0,0.05962145493041615,0.0,-0.11357315694379788,-0.12229209299428986,-0.18445187595148282,0.16129726705130085,0.5198982210099595,-0.022383206400300476
5983,5.0,299.82903,1360.5143,0.0,0.0,0.0,0.0,0.05963142173999998,0.0,-0.14248969359763786,-0.1062094530345569,-0.16486321839323284,0.12324546001337988,0.5410359555860915,-0.014907787614534086
5984,5.0,299.45215,1418.0603,0.0,0.0,0.0,0.0,0.0596413885495838,0.0,-0.1057470766164239,-0.14661708681997984,-0.17869074866540383,0.15741329703298285,0.5193888804496914,-0.03576841044731727
5985,5.0,300.32047,1366.8441,0.0,0.0,0.0,0.0,0.05965135535916762,0.0,-0.15938973254554184,-0.09297419784333891,-0.16312254591394185,0.11210860524925789,0.5245290779419896,0.017728641442430682
5986,5.0,301.7301,1227.953,0.0,0.0,0.0,0.0,0.05966132216875144,0.0,-0.12770098414810588,-0.1093902680134789,-0.13617579785200487,0.1094179601387119,0.49162125795174055,-0.025588938212431574
5987,5.0,302.45282000000003,1318.9621,0.0,0.0,0.0,0.0,0.059671288978335256,0.0,-0.14792822231687885,-0.1022536030541449,-0.15074971854533883,0.09743163904725409,0.5274169521845005,0.0005841868120297494
5988,5.0,302.20571,1459.53,0.0,0.0,0.0,0.0,0.05968125578791909,0.0,-0.11782052911048088,-0.1275628680269749,-0.1982772783984438,0.14368701071080386,0.5394816198001905,-0.060879389468327945
5989,5.0,301.6855,1352.7216,0.0,0.0,0.0,0.0,0.0596912225975029,0.0,-0.09135519947580621,-0.14151260639370686,-0.17832576584688284,0.14433614938736888,0.5647593726949105,-0.033432047220986166
5990,5.0,300.98848,957.4943400000001,0.0,0.0,0.0,0.0,0.05970118940708673,0.0,-0.03238581279048087,-0.1032889724038279,-0.15537959262477186,0.13498609024708985,0.5107721610692875,-0.06989874201446873
5991,5.0,301.39886,913.99834,0.0,0.0,0.0,0.0,0.059711156216670544,0.0,-0.07923897668177812,-0.098052425972771,-0.1005412711801509,0.10768832195300991,0.4994223920616525,-0.02062292550507428
5992,5.0,301.20704,1080.0692,0.0,0.0,0.0,0.0,0.05972112302625436,0.0,-0.1034286995926179,-0.1088138806940939,-0.11607147705286289,0.14667432531812885,0.5110781625994876,-0.035353330517352066
5993,5.0,299.74483,1186.2836,0.0,0.0,0.0,0.0,0.05973108983583819,0.0,-0.12925353661383088,-0.10393564888264992,-0.1274114074020269,0.1071604591809139,0.5290865249042744,-0.04238268215859506
5994,5.0,299.25805,1267.6247,0.0,0.0,0.0,0.0,0.05974105664542201,0.0,-0.10112147946566301,-0.12107005257868389,-0.16313471504764285,0.12818700982357287,0.5075196687782916,-0.03213674679664997
5995,5.0,300.28776,1390.4720000000002,0.0,0.0,0.0,0.0,0.05975102345500583,0.0,-0.1275500098832059,-0.13785749917547588,-0.15726124872297687,0.10923718618837089,0.5316327616105685,-0.032906765196894866
5996,5.0,300.77191,1462.4971,0.0,0.0,0.0,0.0,0.05976099026458965,0.0,-0.12955065194065388,-0.12280362217477388,-0.19220831559948381,0.14352189147450786,0.5435328470125155,-0.026160848992874776
5997,5.0,300.47553,1588.4995,0.0,0.0,0.0,0.0,0.059770957074173466,0.0,-0.1874254103574478,-0.13365073807280087,-0.16178804486973686,0.12754505509021688,0.5233120531143785,0.004133088295854056
5998,5.0,299.98734,1432.3607,0.0,0.0,0.0,0.0,0.059780923883757296,0.0,-0.15594012258009185,-0.1029471423500919,-0.17651462182313682,0.1269811104820599,0.49625588417414257,0.02311962846697968
5999,5.0,298.98436,1257.3696,0.0,0.0,0.0,0.0,0.05979089069334111,0.0,-0.13647658114418987,-0.08724018411668583,-0.15849220573946285,0.12313111473959487,0.5238383048188154,0.006889182371434364
6000,5.0,300.27972,1285.7091,0.0,0.0,0.0,0.0,0.05980085750292494,0.0,-0.08705032941894861,-0.12349836723833986,-0.18027475241423283,0.12481922993619887,0.5355795126050825,-0.026489003210011075
6001,5.0,301.01887,1438.0597,0.0,0.0,0.0,0.0,0.059810824312508754,0.0,-0.14238928051272787,-0.11472736026520888,-0.18001758953885283,0.13651754684573286,0.5456723347311664,-0.003435362250493856
6002,5.0,301.01735,1189.3452,0.0,0.0,0.0,0.0,0.05982079112209257,0.0,-0.08561275246857082,-0.1314404241721599,-0.14447807532887585,0.11724692822887088,0.4923162157978275,-0.07516256513821763
6003,5.0,300.6403,931.31284,0.0,0.0,0.0,0.0,0.0598307579316764,0.0,-0.10884052917172389,-0.07506258369785022,-0.09919273358231061,0.15744182002329785,0.5109195382963325,0.0003847646015483096
6004,5.0,301.08666,1203.4529,0.0,0.0,0.0,0.0,0.05984072474126022,0.0,-0.10752621206951089,-0.12387084810760088,-0.13442257120397488,0.14741090747832386,0.4971158903290185,-0.03044853838103677
6005,5.0,300.35137000000003,1231.4254,0.0,0.0,0.0,0.0,0.05985069155084404,0.0,-0.1142251833831479,-0.1359882249934929,-0.12410917466362188,0.16057917670543087,0.5323526251441135,-0.02139326510560088
6006,5.0,299.44223,1192.9647,0.0,0.0,0.0,0.0,0.05986065836042786,0.0,-0.06393549058519164,-0.13443589544278986,-0.16426010153620985,0.11725074818174788,0.5125625638634864,-0.04707720362090825
6007,5.0,299.6729,1314.6302,0.0,0.0,0.0,0.0,0.05987062517001168,0.0,-0.1121158398549719,-0.13329672875286286,-0.15420218587607085,0.13676341198249786,0.5463619122192225,-0.05408664591093635
6008,5.0,299.14168,1232.4014,0.0,0.0,0.0,0.0,0.0598805919795955,0.0,-0.06833174364206804,-0.13307242557822588,-0.17321507419749685,0.11842005906214988,0.5386239035905405,-0.04950626099288755
6009,5.0,299.22662,1136.4421,0.0,0.0,0.0,0.0,0.059890558789179316,0.0,-0.13289265474548387,-0.09931285032866521,-0.1132445295388649,0.1026247363007729,0.5241000982471525,-0.04213124617278026
6010,5.0,299.75891,1165.1511,0.0,0.0,0.0,0.0,0.05990052559876314,0.0,-0.10115537572125831,-0.09892592152622831,-0.15409553117054484,0.1149352285232239,0.5010329936256065,-0.002432408899335068
6011,5.0,299.89703,1144.3742,0.0,0.0,0.0,0.0,0.059910492408346956,0.0,-0.11729440912855689,-0.08881528342363601,-0.14175149023728287,0.14063751294484186,0.5151042713418335,-0.013615652583510288
6012,5.0,300.04082,1039.6554,0.0,0.0,0.0,0.0,0.05992045921793077,0.0,-0.06020178656995374,-0.1055265731296619,-0.15030091967854584,0.16002248696798985,0.5530492615542125,-0.013874901740846187
6013,5.0,300.93352000000004,1299.2492,0.0,0.0,0.0,0.0,0.059930426027514604,0.0,-0.1132771967220889,-0.1202010690279219,-0.16146104879746484,0.13352753699314188,0.5296258678000035,-0.03856756552432236
6014,5.0,300.4474,1501.3652,0.0,0.0,0.0,0.0,0.05994039283709842,0.0,-0.14636743212784087,-0.12913994114511987,-0.18087015843799484,0.12153924816998989,0.5108350940329985,-0.029951182542951572
6015,5.0,300.04341,1316.7583,0.0,0.0,0.0,0.0,0.059950359646682244,0.0,-0.18067155128589382,-0.11304540562921289,-0.1065446868301419,0.11766074970221188,0.5246058721670686,-0.011521360885569789
6016,5.0,300.35314,1285.6428,0.0,0.0,0.0,0.0,0.05996032645626606,0.0,-0.12039383985944689,-0.12254800957204688,-0.14786145926778985,0.13942197759487787,0.5250191160878525,-0.019192074508860284
6017,5.0,299.74474,1332.9847,0.0,0.0,0.0,0.0,0.05997029326584988,0.0,-0.14596019678014988,-0.085811888537224,-0.17342200013291884,0.12457247313934589,0.49869730015759156,0.013698627634199287
6018,5.0,300.75107,1408.1876,0.0,0.0,0.0,0.0,0.05998026007543371,0.0,-0.09344474105727792,-0.13352847931573486,-0.20108064758261482,0.11711724234857188,0.49720703217551354,-0.020742798058154783
6019,5.0,300.60552,1185.066,0.0,0.0,0.0,0.0,0.059990226885017525,0.0,-0.12369562676780788,-0.07085787037362734,-0.16567698994604582,0.13261516607309787,0.5321172572783844,-0.012002882664342289
6020,5.0,300.88126,1126.4798,0.0,0.0,0.0,0.0,0.06000019369460135,0.0,-0.0984602783897729,-0.11506465095849688,-0.12889680165112388,0.14735387163019487,0.5367807813936385,-0.05508935314364585
6021,5.0,299.87677,983.42069,0.0,0.0,0.0,0.0,0.060010160504185166,0.0,-0.1115347713201249,-0.09488781488944822,-0.09251274753579732,0.12840672297525688,0.5220807313278565,-0.028630606594870874
6022,5.0,299.87072,1103.8635,0.0,0.0,0.0,0.0,0.06002012731376898,0.0,-0.07076455206591753,-0.11579951059352189,-0.14898289408096688,0.11625413564838988,0.5092773233292586,-0.060140911517195854
6023,5.0,299.18301,1371.3178,0.0,0.0,0.0,0.0,0.06003009412335281,0.0,-0.13096978976571189,-0.14358048772779086,-0.14229610203353188,0.12057565745739089,0.5276421470192255,-0.013534964438296987
6024,5.0,299.9959,1263.4116,0.0,0.0,0.0,0.0,0.06004006093293663,0.0,-0.07994003125371682,-0.13942994174066387,-0.16467561513721785,0.13920571962603487,0.5299594702629276,-0.03685255563031407
6025,5.0,299.08263,1003.8336,0.0,0.0,0.0,0.0,0.060050027742520454,0.0,-0.06326884092039844,-0.11668484800089789,-0.1251866445549599,0.12953006269862188,0.4920248658640735,-0.033026687399230266
6026,5.0,300.46495,1197.8125,0.0,0.0,0.0,0.0,0.06005999455210427,0.0,-0.1189380933082759,-0.1050933377844049,-0.14007365952919387,0.14387493820685085,0.5001123951147505,-0.03800187711274326
6027,5.0,300.45926000000003,1480.3693,0.0,0.0,0.0,0.0,0.06006996136168809,0.0,-0.17000415555810386,-0.1063171716526879,-0.17367398530028785,0.12739602626550886,0.5344071113118755,-0.007205964274748304
6028,5.0,300.79032,1281.9523,0.0,0.0,0.0,0.0,0.06007992817127192,0.0,-0.14359936457715386,-0.08616521087359423,-0.15991692657257184,0.12453745521588988,0.5863609427693194,-0.013590836062061087
6029,5.0,300.15497999999997,1182.8959,0.0,0.0,0.0,0.0,0.060089894980855735,0.0,-0.11839141448182289,-0.06954206683351763,-0.17163734246678683,0.12285178195202688,0.5399677265356655,0.005703911788707264
6030,5.0,300.35618999999997,1299.4180000000001,0.0,0.0,0.0,0.0,0.06009986179043956,0.0,-0.1003328273960791,-0.1204734813173069,-0.17418432897815483,0.10156904115408391,0.5418629095227054,-0.01010459305249569
6031,5.0,300.31793999999996,1370.8812,0.0,0.0,0.0,0.0,0.060109828600023375,0.0,-0.1241500897026599,-0.11697387759192288,-0.17558968660185284,0.12910937138960288,0.5157678184348206,-0.025703370625725176
6032,5.0,300.40247999999997,1476.7705,0.0,0.0,0.0,0.0,0.06011979540960719,0.0,-0.15310662947044784,-0.1316192324173069,-0.16417549515285984,0.11250173615555688,0.5331345097162795,-0.023894424341446077
6033,5.0,299.85164,1284.5019,0.0,0.0,0.0,0.0,0.06012976221919102,0.0,-0.14295830150388586,-0.11487759485753589,-0.13262061735863587,0.14218125013469687,0.4937068205000696,-0.025860185264201578
6034,5.0,300.55114,1049.1834,0.0,0.0,0.0,0.0,0.06013972902877484,0.0,-0.07470037211835273,-0.1054967937092229,-0.13872837750392486,0.12271502358602988,0.5076671777278495,-0.024419910028807477
6035,5.0,299.41872,1157.2895,0.0,0.0,0.0,0.0,0.06014969583835866,0.0,-0.1010207765912244,-0.1061121404949529,-0.14465418832875687,0.17085683591475684,0.5600860403186885,-0.014280558444881387
6036,5.0,299.51802000000004,1374.0602,0.0,0.0,0.0,0.0,0.06015966264794248,0.0,-0.1052470984870799,-0.11759877932609589,-0.1948341127036298,0.12934001750986587,0.5551444297134895,-0.033049221068204175
6037,5.0,299.93265,1134.212,0.0,0.0,0.0,0.0,0.0601696294575263,0.0,-0.1080625456124429,-0.0918766068315151,-0.14483298644140286,0.14214095317821987,0.5208502606714185,-0.029308650257038577
6038,5.0,299.09541,966.22193,0.0,0.0,0.0,0.0,0.06017959626711013,0.0,-0.07096964807165893,-0.1022868275249239,-0.12045085544257388,0.1002839715160074,0.5057612542897496,-0.05943013075754724
6039,5.0,299.24837,1280.862,0.0,0.0,0.0,0.0,0.060189563076693944,0.0,-0.13333596179673488,-0.11054756174769491,-0.14546656159643187,0.15602252007822384,0.5348928938073184,-0.03493662736072667
6040,5.0,300.16434,1426.3775,0.0,0.0,0.0,0.0,0.06019952988627777,0.0,-0.1267344347452149,-0.12063088972034189,-0.18621781888826783,0.1255872836444999,0.5677877948587924,-0.02114121103722508
6041,5.0,300.6422,1097.9215,0.0,0.0,0.0,0.0,0.060209496695861585,0.0,-0.08994532073016201,-0.0962393780520871,-0.14755600489264387,0.12194063706460388,0.5338242594568525,-0.023047760663886876
6042,5.0,300.2667,1027.9085,0.0,0.0,0.0,0.0,0.0602194635054454,0.0,-0.05788530432383474,-0.09462747040875422,-0.15994575353791685,0.0972057177122074,0.5128458381939435,-0.029180014103843174
6043,5.0,301.45518,1223.0279,0.0,0.0,0.0,0.0,0.06022943031502923,0.0,-0.1004907880204186,-0.12492788074442188,-0.14635127078874588,0.14240123686390785,0.5081312564061505,-0.031374378434660066
6044,5.0,300.53237,1303.1349,0.0,0.0,0.0,0.0,0.06023939712461305,0.0,-0.1194654798528249,-0.11979094591744588,-0.15686405468377684,0.17455786362751985,0.5218943135744585,-0.019979182385291783
6045,5.0,301.27808,1470.0407,0.0,0.0,0.0,0.0,0.06024936393419687,0.0,-0.14748320287295888,-0.1380992505168349,-0.16127320236142584,0.15450853191130484,0.48365597732562854,-0.042176643830260666
6046,5.0,300.32566,1226.4353,0.0,0.0,0.0,0.0,0.06025933074378069,0.0,-0.11665561573551289,-0.08893426431662851,-0.16721584327041883,0.09971562838916631,0.5107498087720815,-0.0025619914281238675
6047,5.0,299.7264,987.08163,0.0,0.0,0.0,0.0,0.060269297553364506,0.0,-0.0955526204390594,-0.08902777210210702,-0.11546777251078189,0.12713829597007287,0.5351723785824015,-0.025979711285747876
6048,5.0,298.88797,1354.711,0.0,0.0,0.0,0.0,0.06027926436294834,0.0,-0.13805731209519587,-0.1055953424139489,-0.16814567248968584,0.1205425748416259,0.5821728254684845,-0.0028969189182036373
6049,5.0,300.33691,1574.3699,0.0,0.0,0.0,0.0,0.060289231172532154,0.0,-0.1919280607543248,-0.12291221218799088,-0.16372886464128084,0.1299118452038009,0.5082284574882435,-0.01037396457833059
6050,5.0,300.44757999999996,1244.6311,0.0,0.0,0.0,0.0,0.06029919798211597,0.0,-0.11788424227676889,-0.07193333909601783,-0.18851918344289484,0.1212989457762739,0.5075753772687895,0.00010633154967160689
6051,5.0,300.75382,989.4827300000001,0.0,0.0,0.0,0.0,0.060309164791699794,0.0,-0.07041037758621324,-0.07835101596989322,-0.15201664594037484,0.16290373455484683,0.5057801818016175,-0.017879709939589983
6052,5.0,300.24821000000003,1215.6149,0.0,0.0,0.0,0.0,0.06031913160128361,0.0,-0.08568249447295383,-0.1019556669947409,-0.18187840308250083,0.16982566142048783,0.5326072346292415,-0.008703271811896052
6053,5.0,300.31234,1380.2612,0.0,0.0,0.0,0.0,0.06032909841086744,0.0,-0.13219050282368688,-0.11481446937630589,-0.17255996747784283,0.13280524165935687,0.5175345010441785,-0.010875983393375989
6054,5.0,300.97798,1205.7822,0.0,0.0,0.0,0.0,0.06033906522045126,0.0,-0.1067322596886539,-0.12261513739117187,-0.13718028333863988,0.1043549216415289,0.5232922339424225,-0.05430622227385685
6055,5.0,300.35632000000004,972.03266,0.0,0.0,0.0,0.0,0.06034903203003508,0.0,-0.10883133899331689,-0.1077765760367199,-0.07886574195444272,0.1081955549530699,0.5335505603398405,-0.046031350172440554
6056,5.0,299.57457,1052.0537,0.0,0.0,0.0,0.0,0.0603589988396189,0.0,-0.08354838812558392,-0.11308250071537389,-0.12316715604565188,0.13061811092100387,0.5443028461610085,-0.05447803301381325
6057,5.0,298.94622999999996,1199.6118,0.0,0.0,0.0,0.0,0.060368965649202716,0.0,-0.08944390986517661,-0.1356452499671439,-0.13956287002128287,0.1255608783468939,0.4954859356881545,-0.04015930847741516
6058,5.0,298.99107999999995,1367.8793,0.0,0.0,0.0,0.0,0.06037893245878654,0.0,-0.09747281043856741,-0.11545969690748488,-0.2028686489740768,0.12430168205012088,0.5028025336002465,-0.006612043472982884
6059,5.0,299.41353,1437.3173,0.0,0.0,0.0,0.0,0.060388899268370363,0.0,-0.1270229273136869,-0.11743017450945589,-0.19245545743137482,0.14119104134197089,0.5442149163173305,-0.015862800151786486
6060,5.0,299.97144,1215.912,0.0,0.0,0.0,0.0,0.06039886607795419,0.0,-0.12888176501963988,-0.10029764633935699,-0.14042747633161287,0.15170669273478485,0.5734007951127524,-0.017005133248275982
6061,5.0,299.97436,1324.4311,0.0,0.0,0.0,0.0,0.060408832887538004,0.0,-0.15301614623651785,-0.10875599371588089,-0.14082183327053288,0.11766067877470487,0.5358140192082265,-0.04343280240323386
6062,5.0,300.54253,1515.2515,0.0,0.0,0.0,0.0,0.06041879969712182,0.0,-0.13729174084963985,-0.12109673145381687,-0.2022101478665878,0.11943363340218188,0.5020226856607816,-0.0002971455115434787
6063,5.0,300.14439,1363.3895,0.0,0.0,0.0,0.0,0.060428766506705645,0.0,-0.1122818811488589,-0.1211880658178309,-0.18096641719749482,0.12696040978251688,0.5178407964169075,-0.017758971057673986
6064,5.0,300.05075,1168.8294,0.0,0.0,0.0,0.0,0.06043873331628946,0.0,-0.06284620417118744,-0.10892466946002789,-0.18352408336491682,0.13811112580800686,0.5460755069459564,-0.0032535208411725073
6065,5.0,299.88634,1182.4833,0.0,0.0,0.0,0.0,0.060448700125873285,0.0,-0.1216932216551859,-0.12176885064264989,-0.1159833445591649,0.13301392051745187,0.4996177162834295,-0.018006912343893882
6066,5.0,299.76159,1286.6073,0.0,0.0,0.0,0.0,0.0604586669354571,0.0,-0.14841773357268986,-0.10211655084561891,-0.14056221832991087,0.11999635197771788,0.5098988813381015,-0.010994438409566591
6067,5.0,299.99259,1437.9796,0.0,0.0,0.0,0.0,0.06046863374504092,0.0,-0.17905574161642582,-0.1279689685345539,-0.13008517176590687,0.14926191276100387,0.5600078579409725,-0.03823441294444276
6068,5.0,299.20531,1356.9504,0.0,0.0,0.0,0.0,0.06047860055462475,0.0,-0.1041446823782799,-0.1313604078117629,-0.17697393822596783,0.16214041272451285,0.5576051683763456,-0.032988665189227766
6069,5.0,299.29249,1176.8581,0.0,0.0,0.0,0.0,0.060488567364208566,0.0,-0.0988469194291814,-0.1031296692231059,-0.15575888253470485,0.1360248438521069,0.5063848489312935,-0.025290796463257274
6070,5.0,299.72756,1211.4826,0.0,0.0,0.0,0.0,0.06049853417379239,0.0,-0.06102335812203654,-0.1190194978213099,-0.18821761994813282,0.1271651470977229,0.49457449695820255,-0.03090845868092737
6071,5.0,299.60891000000004,1350.8489,0.0,0.0,0.0,0.0,0.06050850098337621,0.0,-0.12926201751716787,-0.11877145419682988,-0.16259086318896884,0.15488674777613184,0.5509781580848104,-0.014971602105832088
6072,5.0,300.28054,1390.921,0.0,0.0,0.0,0.0,0.06051846779296002,0.0,-0.14150280826523987,-0.1354596529463269,-0.14584278135856185,0.12392041630249288,0.5526385811561815,-0.05055777648291405
6073,5.0,301.4147,1091.5227,0.0,0.0,0.0,0.0,0.060528434602543854,0.0,-0.1174320996846459,-0.1264664604912679,-0.0878970923950176,0.10451543058986991,0.5239871208610025,-0.06942202405442034
6074,5.0,300.64152,891.1079,0.0,0.0,0.0,0.0,0.06053840141212767,0.0,-0.05996745728557724,-0.0911841213156721,-0.11972297710073787,0.09084093249355202,0.5095220232284086,-0.04067663750147156
6075,5.0,300.53409,1280.9302,0.0,0.0,0.0,0.0,0.060548368221711495,0.0,-0.10019808235803081,-0.12852622569205086,-0.16064649704207484,0.16670918782291586,0.5608938843584165,-0.027864175099979974
6076,5.0,299.83815,1471.6843,0.0,0.0,0.0,0.0,0.06055833503129531,0.0,-0.11555955270483988,-0.12162535416348788,-0.21017038250720183,0.14546877048164986,0.5324425510904884,-0.006189230519579494
6077,5.0,299.5689,1169.4154,0.0,0.0,0.0,0.0,0.06056830184087913,0.0,-0.09833862555626671,-0.10536044064326591,-0.15177402320392983,0.13217260882692086,0.48315797503397956,-0.0058642030909267845
6078,5.0,299.36157000000003,1168.1904,0.0,0.0,0.0,0.0,0.06057826865046296,0.0,-0.14475161232587186,-0.09425436233768132,-0.1160947514076599,0.10867156971754889,0.46241281407659157,0.0003062868512956587
6079,5.0,299.54388,1507.8904,0.0,0.0,0.0,0.0,0.060588235460046776,0.0,-0.16146462557031785,-0.12187668071829187,-0.17501974355310385,0.13669420700066787,0.5393030851325704,-0.05312202066998524
6080,5.0,300.06411,1625.8754,0.0,0.0,0.0,0.0,0.0605982022696306,0.0,-0.15500247107005286,-0.15065364217085686,-0.18856942038285282,0.14730466820533886,0.5644547491848465,-0.03977945013417607
6081,5.0,300.56889,1478.4868,0.0,0.0,0.0,0.0,0.060608169079214416,0.0,-0.11590941783186888,-0.13522418375558787,-0.19828946779714682,0.12280618569752688,0.5436079693749295,-0.036633729072467563
6082,5.0,300.59601000000004,1098.1931,0.0,0.0,0.0,0.0,0.06061813588879823,0.0,-0.08401298254818582,-0.08355977705670792,-0.16625050976764782,0.1324776376370249,0.5291794095409414,-7.938198882739233e-05
6083,5.0,300.68678,874.07832,0.0,0.0,0.0,0.0,0.060628102698382064,0.0,-0.06834023873090643,-0.06934317090513814,-0.12801457492155488,0.14503686249402387,0.5604920800312614,-0.004296549652336436
6084,5.0,300.6343,1207.7407,0.0,0.0,0.0,0.0,0.06063806950796588,0.0,-0.16397019041759786,-0.08287447548407392,-0.12027833948054788,0.15481036898359385,0.5192332047043274,-0.018077727380132785
6085,5.0,300.2101,1428.9344,0.0,0.0,0.0,0.0,0.060648036317549704,0.0,-0.15094927815253387,-0.13034654976170287,-0.15306453906129386,0.1106436077246739,0.47212200958231454,-0.04386652613503905
6086,5.0,299.77106000000003,1134.7983,0.0,0.0,0.0,0.0,0.06065800312713352,0.0,-0.1020952421960159,-0.1170027349547709,-0.12585238026816287,0.14188512779297185,0.4960528592516055,-0.06617085810780524
6087,5.0,299.69851,1104.0526,0.0,0.0,0.0,0.0,0.06066796993671734,0.0,-0.07049644912920784,-0.1025988882907219,-0.16250909390589885,0.13305521045902688,0.5729773680284634,-0.02725359261622018
6088,5.0,299.9287,1343.2113,0.0,0.0,0.0,0.0,0.06067793674630117,0.0,-0.1023469132558539,-0.1278669849119889,-0.17808877678099383,0.15946358834533086,0.5455343604650494,-0.025202363034279574
6089,5.0,300.08104,1329.5533,0.0,0.0,0.0,0.0,0.060687903555884985,0.0,-0.13069453024354585,-0.1024162904902009,-0.17104017338785085,0.10807539362371091,0.5184331424253675,0.02312319004108118
6090,5.0,300.19818,1161.8049,0.0,0.0,0.0,0.0,0.06069787036546881,0.0,-0.14285963120914785,-0.07116914587059783,-0.13913091137115186,0.14381382909331988,0.5076896516150675,-0.018341614183176383
6091,5.0,299.40941000000004,1161.7851,0.0,0.0,0.0,0.0,0.060707837175052626,0.0,-0.11108814080854588,-0.1047687937773749,-0.13729670577512987,0.14177439982204387,0.5765415563152215,-0.009286295615461022
6092,5.0,299.53445,1168.3125,0.0,0.0,0.0,0.0,0.06071780398463644,0.0,-0.11229595519274789,-0.10459011725474089,-0.13825176492188687,0.15684872420976384,0.5412651730237135,-0.08134101872973351
6093,5.0,298.82629,1349.8868,0.0,0.0,0.0,0.0,0.06072777079422027,0.0,-0.09522723948744681,-0.13670723739695387,-0.1783973924964518,0.11424172975728089,0.5223125832157386,-0.04668525821722625
6094,5.0,299.07055,1393.9104,0.0,0.0,0.0,0.0,0.06073773760380409,0.0,-0.11168543147749388,-0.14837581541605285,-0.16365270876376486,0.12229553804462988,0.5099920192872935,-0.04782292935000566
6095,5.0,299.7656,1223.264,0.0,0.0,0.0,0.0,0.060747704413387914,0.0,-0.1147389822438559,-0.1102242539057869,-0.14687847494827685,0.11854383769436588,0.5552493517613445,0.004077791387546676
6096,5.0,301.129,1074.3756,0.0,0.0,0.0,0.0,0.06075767122297173,0.0,-0.10899112853408689,-0.10755983170782889,-0.11003239499935188,0.11972207530814889,0.5137883634369635,-0.023711558029648576
6097,5.0,300.25239,1340.9612,0.0,0.0,0.0,0.0,0.06076763803255555,0.0,-0.1122152295572809,-0.13819462774874788,-0.15720886369280684,0.09332791230749782,0.49599368544576555,-0.027982051550363474
6098,5.0,300.52731,1618.1112,0.0,0.0,0.0,0.0,0.06077760484213938,0.0,-0.15909143171610185,-0.14028017003207485,-0.19249379881515882,0.13927595812296686,0.5139448193849045,-0.03186899241797467
6099,5.0,299.73508,1435.3782,0.0,0.0,0.0,0.0,0.060787571651723195,0.0,-0.1033758585999029,-0.12694955787394588,-0.2059937250649978,0.15907235221671887,0.5972384460378454,-0.033762671741866264
6100,5.0,300.13631000000004,1186.5942,0.0,0.0,0.0,0.0,0.06079753846130702,0.0,-0.1032470238496879,-0.0993228825179053,-0.15812510522823284,0.16557319260580186,0.5382957726781565,-0.008522015149207413
6101,5.0,299.50394,1164.7455,0.0,0.0,0.0,0.0,0.060807505270890835,0.0,-0.1128050323079899,-0.08023028890386302,-0.16101822810626185,0.11841812375445888,0.5044075116261455,-0.008295857118937352
6102,5.0,299.70559,1245.5027,0.0,0.0,0.0,0.0,0.06081747208047465,0.0,-0.11346051393018089,-0.11128883525585288,-0.15385238154404784,0.1158107779346339,0.48337542863794053,-0.009106747900391041
6103,5.0,298.75083,1388.1747,0.0,0.0,0.0,0.0,0.06082743889005848,0.0,-0.1263620045384589,-0.11576529313764489,-0.17984312813663483,0.13211254336099287,0.5449198952069065,-0.038617372846237966
6104,5.0,299.97066,1462.8281,0.0,0.0,0.0,0.0,0.0608374056996423,0.0,-0.1378393316011829,-0.14190134992707287,-0.16492254418658783,0.10500222633541291,0.5180387550889446,-0.06416006125785503
6105,5.0,299.89322000000004,1100.5088,0.0,0.0,0.0,0.0,0.06084737250922612,0.0,-0.08093785056794392,-0.1142393182220429,-0.13935003683777789,0.10564218496607189,0.5235746368777935,-0.06058275948830284
6106,5.0,300.65125,1204.5806,0.0,0.0,0.0,0.0,0.06085733931880994,0.0,-0.11393668068217488,-0.1211262170317269,-0.13109953644101688,0.1014774737425469,0.5416800888071625,-0.016637950663787884
6107,5.0,299.99176,1435.1851,0.0,0.0,0.0,0.0,0.06086730612839376,0.0,-0.15013168664684387,-0.11428924105446989,-0.17183949599423784,0.15224687662809686,0.6095775929731244,0.016712116518107487
6108,5.0,299.97502000000003,1409.4504,0.0,0.0,0.0,0.0,0.06087727293797759,0.0,-0.14001035166294587,-0.1022486786586589,-0.18617871756690882,0.14478834264199686,0.5186274331320425,0.004138308357719236
6109,5.0,299.89243,1155.848,0.0,0.0,0.0,0.0,0.060887239747561404,0.0,-0.08933409179283842,-0.0952650306764265,-0.16674981915192585,0.1376735334873199,0.4866295015990926,-0.015246623514224587
6110,5.0,301.04622,1355.8695,0.0,0.0,0.0,0.0,0.06089720655714523,0.0,-0.1130879520009119,-0.11980635745146688,-0.17925615235370482,0.14038714897763288,0.5004340209614925,-0.03486485986939377
6111,5.0,300.06793999999996,1517.0648,0.0,0.0,0.0,0.0,0.060907173366729045,0.0,-0.1150796673249789,-0.12947242903293388,-0.21659771160152977,0.16254811416724985,0.5502433693772925,-0.045876351278143365
6112,5.0,299.84747000000004,1464.8403,0.0,0.0,0.0,0.0,0.06091714017631286,0.0,-0.17846654681577684,-0.11725967491512888,-0.14954863214180086,0.13093254269203589,0.5285492389062485,-0.02152129432198638
6113,5.0,299.25192000000004,1250.6243,0.0,0.0,0.0,0.0,0.060927106985896685,0.0,-0.11526682475094989,-0.11520104455445788,-0.14969068980582087,0.09248178058624111,0.5050835926228695,-0.025566950685261578
6114,5.0,298.93358,914.4989199999999,0.0,0.0,0.0,0.0,0.0609370737954805,0.0,-0.07969991833776953,-0.08530771656571612,-0.1129772037649819,0.13102473831863487,0.5208423674531395,0.003420650365666906
6115,5.0,299.54225,1032.8385,0.0,0.0,0.0,0.0,0.06094704060506433,0.0,-0.06192328227785214,-0.11108483761321988,-0.14094899615808285,0.12848741821322088,0.5822252104986544,-0.034004276161960764
6116,5.0,299.97897,1501.8964,0.0,0.0,0.0,0.0,0.06095700741464815,0.0,-0.13810332378223686,-0.1321709977592619,-0.18626469183789382,0.13835696054726887,0.5166633896682066,-0.029819715368976766
6117,5.0,300.6527,1384.9209,0.0,0.0,0.0,0.0,0.060966974224231966,0.0,-0.12859100277094387,-0.1269502063540099,-0.16544016300017284,0.1033793543127479,0.4745050420950016,-0.04199899778297836
6118,5.0,300.48696,918.41721,0.0,0.0,0.0,0.0,0.06097694103381579,0.0,-0.13565109642022086,-0.056440700484013444,-0.08708410509778201,0.13215028692721786,0.5273581026186925,0.0028876924654430572
6119,5.0,301.02419,1070.5957,0.0,0.0,0.0,0.0,0.06098690784339961,0.0,-0.0903676038550881,-0.09773713496565421,-0.13732962627087886,0.14248815345748586,0.5814123306059296,-0.017480048636396482
6120,5.0,300.93594,1612.0707,0.0,0.0,0.0,0.0,0.060996874652983424,0.0,-0.18037650298927482,-0.1323305441200079,-0.17732219228533783,0.12767003949005187,0.5331672680920124,-0.015331315010582986
6121,5.0,301.30318,1588.658,0.0,0.0,0.0,0.0,0.06100684146256725,0.0,-0.14430365445666185,-0.12860457018978289,-0.2100041284307938,0.1174325353821889,0.4906068122166225,-0.024181252140003776
6122,5.0,300.08738,1131.4886,0.0,0.0,0.0,0.0,0.061016808272151064,0.0,-0.08065230757051302,-0.1188235555169719,-0.14446840892292187,0.17102639318649085,0.5271797503360904,-0.06616378460885713
6123,5.0,298.43865,945.50821,0.0,0.0,0.0,0.0,0.061026775081734895,0.0,-0.06433219725109354,-0.08992130264979162,-0.1331573865991109,0.17420777558546885,0.5667747474088125,-0.04665824091655986
6124,5.0,299.7611,1093.5971,0.0,0.0,0.0,0.0,0.06103674189131871,0.0,-0.14287154703032387,-0.090985188910289,-0.09856948445905071,0.12953295046140686,0.5223116003631415,-0.045796475759510256
6125,5.0,299.96162000000004,1276.7907,0.0,0.0,0.0,0.0,0.061046708700902536,0.0,-0.12344786685335589,-0.12097127082643487,-0.14369336378893086,0.1039893612704509,0.5098279740961035,-0.01958371289776198
6126,5.0,299.21404,1173.2196,0.0,0.0,0.0,0.0,0.06105667551048635,0.0,-0.14203574742033687,-0.08439852117148551,-0.13019521072676687,0.11841429366908089,0.5448394330164655,-0.018692285857284982
6127,5.0,299.24155,1074.1071,0.0,0.0,0.0,0.0,0.06106664232007017,0.0,-0.06947910245905353,-0.10846975056263089,-0.14855290113602984,0.14471060609432485,0.5745267388888744,-0.015929809420649785
6128,5.0,300.40324,1245.0813,0.0,0.0,0.0,0.0,0.061076609129654,0.0,-0.096270858719444,-0.12325087076891388,-0.15895188691232984,0.11710512387737589,0.5056521677839835,-0.04195321711696016
6129,5.0,300.582,1591.517,0.0,0.0,0.0,0.0,0.06108657593923782,0.0,-0.1360404479036469,-0.15319588667175685,-0.19454508311260482,0.13429399989878588,0.4779055398281045,-0.04929889226717186
6130,5.0,300.54483999999997,1727.1327,0.0,0.0,0.0,0.0,0.06109654274882164,0.0,-0.1919718331586448,-0.1357523403702129,-0.1972810306351218,0.15909258682121585,0.5224336767351895,-0.016384750609548984
6131,5.0,299.9155,1353.9373,0.0,0.0,0.0,0.0,0.06110650955840546,0.0,-0.0968852895270836,-0.12540915427691987,-0.18926867440936382,0.16974979938550083,0.5760105727328174,-0.045924099675855756
6132,5.0,299.7578,979.1134599999999,0.0,0.0,0.0,0.0,0.061116476367989274,0.0,-0.1037747852967739,-0.07551752691324963,-0.1183337301536299,0.13499392267036286,0.5466677110994025,0.0027603550962258376
6133,5.0,300.23816,1172.6267,0.0,0.0,0.0,0.0,0.061126443177573105,0.0,-0.07848282359590163,-0.1004953628446201,-0.17747104885752882,0.0947614251117245,0.5081751909304866,-0.052284199626048744
6134,5.0,299.53697999999997,1250.3588,0.0,0.0,0.0,0.0,0.06113640998715692,0.0,-0.11679244502901688,-0.1039670900332529,-0.15931830854599285,0.12892750312915388,0.5414358448705575,-0.0024838288087848178
6135,5.0,299.92134,1137.4329,0.0,0.0,0.0,0.0,0.061146376796740745,0.0,-0.1072357537958449,-0.10300955855625189,-0.13550587741588888,0.13323470771424187,0.5549792496821875,-0.06374791570017944
6136,5.0,299.53112999999996,1217.4797,0.0,0.0,0.0,0.0,0.06115634360632456,0.0,-0.15638115995111887,-0.09386962722171091,-0.11983265129156187,0.1127946464944649,0.5172411448752265,0.006039889411190675
6137,5.0,300.35146000000003,1364.6842,0.0,0.0,0.0,0.0,0.06116631041590838,0.0,-0.13715398949854485,-0.12912151012580086,-0.14855442101117985,0.08658633585365602,0.5151258333039616,-0.029731053958726574
6138,5.0,299.93081,1497.5246,0.0,0.0,0.0,0.0,0.06117627722549221,0.0,-0.15928597573530184,-0.12581487988196188,-0.17010922959347385,0.13097580847130588,0.5592343732121354,0.01048443619698329
6139,5.0,299.31004,1463.1246,0.0,0.0,0.0,0.0,0.061186244035076026,0.0,-0.10396969408600991,-0.1250962930435429,-0.2156873671816858,0.16243713288379685,0.5572031715316714,-0.039025037811971364
6140,5.0,300.32367,1345.0506,0.0,0.0,0.0,0.0,0.06119621084465985,0.0,-0.093191226895508,-0.1274106778619549,-0.18825991300730682,0.1324872837779769,0.5147599081628476,-0.020242597013788784
6141,5.0,300.36647999999997,872.8878900000001,0.0,0.0,0.0,0.0,0.06120617765424367,0.0,-0.06755626889003463,-0.07206031554554942,-0.12571954318005288,0.15301932784183184,0.48602479393941256,-0.05674207044800635
6142,5.0,299.9541,1084.4834,0.0,0.0,0.0,0.0,0.061216144463827483,0.0,-0.09535404267121131,-0.10188916739067791,-0.1324126781731139,0.14622476651376085,0.5350324892735955,-0.044770421217996556
6143,5.0,300.05713,1397.9745,0.0,0.0,0.0,0.0,0.061226111273411314,0.0,-0.15013492904716386,-0.12376779043992987,-0.15104663122214185,0.17863754290265282,0.5542136075091245,-0.042772603088577256
6144,5.0,301.39552000000003,1228.8928,0.0,0.0,0.0,0.0,0.06123607808299513,0.0,-0.12322525580638588,-0.11310580546767389,-0.13722166447272388,0.13504800996070085,0.5437503107489775,-0.02047596067081998
6145,5.0,300.64443,1026.7874,0.0,0.0,0.0,0.0,0.061246044892578955,0.0,-0.07007540318265384,-0.11505494402253888,-0.12698738250017888,0.1204643823314089,0.5397876314628915,-0.041202097857580465
6146,5.0,301.12523,1310.6428,0.0,0.0,0.0,0.0,0.06125601170216277,0.0,-0.11229366524752188,-0.12309879206140488,-0.16301022714035684,0.1045284711186569,0.5428897270415445,-0.003245140148270397
6147,5.0,300.21016000000003,1571.3537,0.0,0.0,0.0,0.0,0.06126597851174659,0.0,-0.13548157967849087,-0.14394486259625186,-0.19822583569086683,0.13074922548394385,0.5364856115070075,-0.03298853042696447
6148,5.0,299.60376,1791.1438,0.0,0.0,0.0,0.0,0.06127594532133042,0.0,-0.17811546578862783,-0.16966093735173082,-0.19668657706645382,0.12405463141073889,0.5094993162936675,0.012428662515363488
6149,5.0,299.59331000000003,1494.5238,0.0,0.0,0.0,0.0,0.061285912130914236,0.0,-0.16948550322941686,-0.09989623413999071,-0.18491617754480583,0.12543746448471388,0.4720773252529046,-0.010891191264126888
6150,5.0,299.67971,1141.6201,0.0,0.0,0.0,0.0,0.06129587894049806,0.0,-0.12346076552712888,-0.07952906106615722,-0.14403417046006586,0.1151383345057689,0.5322060382521465,0.015894438886158987
6151,5.0,300.26585,1167.9952,0.0,0.0,0.0,0.0,0.061305845750081876,0.0,-0.06223901607526264,-0.11873659839338987,-0.17406575845145283,0.13875986931703285,0.5430586155682124,-0.03881583611682476
6152,5.0,299.35061,1422.5731,0.0,0.0,0.0,0.0,0.06131581255966569,0.0,-0.13986243741334786,-0.10859903114288989,-0.18396523219345481,0.15601708905768785,0.5471058201776405,-0.0031273979535251474
6153,5.0,300.5535,1404.6503,0.0,0.0,0.0,0.0,0.061325779369249524,0.0,-0.1151845995053349,-0.13734194739209488,-0.17445207018457884,0.14743379679808286,0.5304031116867115,-0.055519281240576444
6154,5.0,300.25704,939.1619699999999,0.0,0.0,0.0,0.0,0.06133574617883334,0.0,-0.10703696425872589,-0.08214878778895413,-0.09629603291817851,0.15925199132694784,0.5331416835269875,-0.03515539515006736
6155,5.0,300.32214,1034.5644,0.0,0.0,0.0,0.0,0.061345712988417164,0.0,-0.1023516350013199,-0.1053320595079649,-0.10679805001764689,0.16706898280092483,0.5467891491238874,-0.04541127657499405
6156,5.0,299.52382,1495.4643,0.0,0.0,0.0,0.0,0.06135567979800098,0.0,-0.15326711815378685,-0.13651606750058687,-0.16480060966955384,0.13128686611950488,0.5597035890684434,-0.04294316753091066
6157,5.0,300.26462000000004,1519.2106,0.0,0.0,0.0,0.0,0.0613656466075848,0.0,-0.1114651103757499,-0.14464707531305485,-0.2056899121550138,0.12516448477527287,0.5373444524242685,-0.025852733822966177
6158,5.0,298.18121,1139.5614,0.0,0.0,0.0,0.0,0.06137561341716863,0.0,-0.11818469119642089,-0.1029615406340129,-0.12525196878890688,0.0988950559016821,0.5467102270735985,-0.04176927372030636
6159,5.0,300.19587,1263.1404,0.0,0.0,0.0,0.0,0.061385580226752445,0.0,-0.09966621623478972,-0.11679360013413088,-0.16750332258879086,0.12929044931497388,0.5457506488313956,-0.00927362654416068
6160,5.0,299.78971,1205.1748,0.0,0.0,0.0,0.0,0.06139554703633627,0.0,-0.11662208728970389,-0.1120724524856899,-0.13764851634235087,0.14396669813590687,0.5560722729625605,-0.04335152758621266
6161,5.0,300.09101,1333.3781,0.0,0.0,0.0,0.0,0.061405513845920086,0.0,-0.12983174778339587,-0.13133231038648988,-0.14414958977895687,0.14504339795716886,0.5253549375684955,-0.012223486462864188
6162,5.0,299.66143999999997,1378.3819,0.0,0.0,0.0,0.0,0.0614154806555039,0.0,-0.13565422736302987,-0.11940495842435188,-0.16393448348407386,0.15508149444535185,0.5351770294003605,-0.03886532122520856
6163,5.0,299.42432,1013.9524,0.0,0.0,0.0,0.0,0.06142544746508773,0.0,-0.036807223834090165,-0.1171076671351269,-0.15430130200085285,0.14772629170444984,0.5330091504139075,-0.03333921426007427
6164,5.0,298.69862,990.3599,0.0,0.0,0.0,0.0,0.06143541427467155,0.0,-0.0893517091723271,-0.09979497600449731,-0.11189799108347188,0.14400625541981085,0.5629202224384005,-0.054138448322298846
6165,5.0,299.38435,1579.6321,0.0,0.0,0.0,0.0,0.061445381084255374,0.0,-0.1328009860089369,-0.13112815062384087,-0.21623958848618577,0.11298330353058388,0.5258100591159125,-0.027283391288411077
6166,5.0,299.2293,1459.0318,0.0,0.0,0.0,0.0,0.06145534789383919,0.0,-0.17731183686931581,-0.10971720329074489,-0.15648019501589286,0.12839855617945087,0.5569120141154364,-0.029324952437897473
6167,5.0,299.98794,994.19596,0.0,0.0,0.0,0.0,0.06146531470342301,0.0,-0.11512551689200388,-0.061798073949745035,-0.12528714883237888,0.11609674751035688,0.5395189681988765,-0.014964070617838787
6168,5.0,300.53285,1104.9461,0.0,0.0,0.0,0.0,0.06147528151300683,0.0,-0.10482113827754092,-0.07915378767962063,-0.15190108476646988,0.11567556984128988,0.5286944173805765,0.0005224664655084255
6169,5.0,300.05106,1348.5073,0.0,0.0,0.0,0.0,0.06148524832259065,0.0,-0.11983977443976489,-0.1206115062459289,-0.16946125615452381,0.10595437745438291,0.5135151608125005,-0.03253234294044227
6170,5.0,300.16837999999996,1429.6607,0.0,0.0,0.0,0.0,0.061495215132174465,0.0,-0.15946059925753586,-0.10696683721930489,-0.16815370756297884,0.1255286772587159,0.5298268155598355,-0.0007513456802470453
6171,5.0,300.20715,1508.5768,0.0,0.0,0.0,0.0,0.061505181941758295,0.0,-0.1311373205372459,-0.15451901904983983,-0.17291334858271884,0.16282872364994386,0.5456386441653415,-0.04593676124910536
6172,5.0,299.91547,1232.7589,0.0,0.0,0.0,0.0,0.06151514875134211,0.0,-0.12262783341492489,-0.09342017379535332,-0.15867991032048784,0.15229375971022385,0.5450982272245065,-0.005701064251951235
6173,5.0,299.5553,919.31979,0.0,0.0,0.0,0.0,0.061525115560925936,0.0,-0.07070494053603434,-0.08870846355834372,-0.12003686171671588,0.15113630385599186,0.5274109740089105,-0.03055750937629137
6174,5.0,299.2557,1305.1541,0.0,0.0,0.0,0.0,0.06153508237050975,0.0,-0.08841087200397373,-0.12867360291909588,-0.17964977975255284,0.12614430775447388,0.5290477478229475,-0.024790960188927274
6175,5.0,299.24268,1503.4604,0.0,0.0,0.0,0.0,0.06154504918009357,0.0,-0.16242109313471384,-0.10509278049684989,-0.18950054656224782,0.15782843573145386,0.5327607724168946,-0.02058705949128458
6176,5.0,299.45749,1273.5936,0.0,0.0,0.0,0.0,0.06155501598967739,0.0,-0.13077413117140188,-0.11472856603282788,-0.14163794543107686,0.1398003454472199,0.5317820741453044,-0.03850002835215697
6177,5.0,300.69167000000004,1188.2781,0.0,0.0,0.0,0.0,0.06156498279926121,0.0,-0.09194127549264741,-0.1255301160738579,-0.14373548459558785,0.11624430712241988,0.5411524793475915,-0.038933744991211466
6178,5.0,300.3041,1425.7838,0.0,0.0,0.0,0.0,0.06157494960884504,0.0,-0.13787826067002487,-0.1298268537854129,-0.16569755892307586,0.1037203231038989,0.5466020828904254,-0.024059613491998977
6179,5.0,300.60969,1473.8974,0.0,0.0,0.0,0.0,0.06158491641842886,0.0,-0.11850486809551988,-0.13340280590583187,-0.1961203425130708,0.1092024823724459,0.5588417489308865,0.0038543705510967565
6180,5.0,301.38265,1324.5202,0.0,0.0,0.0,0.0,0.061594883228012674,0.0,-0.09384989316276332,-0.12197566512056089,-0.18679552343278283,0.12216529487677588,0.5477811513692905,-0.03001904294189887
6181,5.0,300.37985,1183.5569,0.0,0.0,0.0,0.0,0.0616048500375965,0.0,-0.11255044308786388,-0.1139814460715929,-0.1332398651572509,0.1222664577667599,0.5239905152488374,-0.019044003205496783
6182,5.0,299.9088,1333.1419,0.0,0.0,0.0,0.0,0.061614816847180315,0.0,-0.1328147560777959,-0.12954863557295487,-0.14287844726350488,0.11761700769539489,0.5411986024921435,-0.042867582113200964
6183,5.0,299.35541,1349.625,0.0,0.0,0.0,0.0,0.061624783656764145,0.0,-0.14657108526543985,-0.10987323367364389,-0.15380799105716686,0.14687585063051786,0.5380350026324205,-0.03496875954789786
6184,5.0,299.1207,1469.1125,0.0,0.0,0.0,0.0,0.061634750466347955,0.0,-0.15542190594894786,-0.1258917349020469,-0.16525985514487784,0.15604654423809486,0.5087277466075195,-0.013788980158866386
6185,5.0,300.16141,1411.6519,0.0,0.0,0.0,0.0,0.06164471727593178,0.0,-0.1056888856631809,-0.1305948669637099,-0.19282316589266482,0.17667800840176184,0.5183288485925744,-0.016851328975846683
6186,5.0,300.00526,1125.7274,0.0,0.0,0.0,0.0,0.06165468408551561,0.0,-0.06785753347601714,-0.11666972017690488,-0.15766576856039985,0.14488083211112485,0.5311620258791105,-0.008007216615950752
6187,5.0,300.33744,1360.4507,0.0,0.0,0.0,0.0,0.06166465089509942,0.0,-0.11999990848556889,-0.13771731602414086,-0.15582581783631086,0.1168898386286289,0.5582802563879715,-0.029315910194005073
6188,5.0,300.96491000000003,1792.4777,0.0,0.0,0.0,0.0,0.06167461770468325,0.0,-0.21103200986223783,-0.13672357098856588,-0.1971128716485258,0.1095731799215309,0.5347668556273795,-0.02084045814254308
6189,5.0,301.02804,1433.1824,0.0,0.0,0.0,0.0,0.06168458451426706,0.0,-0.14394500445126587,-0.14366236846837185,-0.14804430024833484,0.11791620018492288,0.5398003477516465,-0.036155991782818565
6190,5.0,301.27932999999996,971.42702,0.0,0.0,0.0,0.0,0.061694551323850884,0.0,-0.0930915322049189,-0.1131255942421269,-0.0890724270472641,0.1152801084597609,0.5727868162146574,-0.052458187840470044
6191,5.0,300.76734,1151.5879,0.0,0.0,0.0,0.0,0.061704518133434715,0.0,-0.05462345264166504,-0.0961965986328651,-0.1992339182153568,0.1131614835606689,0.5646526267968754,-0.013547459838530188
6192,5.0,299.71112,1209.1978,0.0,0.0,0.0,0.0,0.061714484943018524,0.0,-0.11322860124729289,-0.09888447351763771,-0.15545285060700184,0.12483408418266488,0.5471573135477225,-0.03429622999277437
6193,5.0,300.22553,1274.9465,0.0,0.0,0.0,0.0,0.061724451752602355,0.0,-0.1067236875928079,-0.1183939273420709,-0.16243427551851483,0.1342305501775239,0.5197157650644525,-0.010773833597794592
6194,5.0,300.2203,1229.9522,0.0,0.0,0.0,0.0,0.061734418562186165,0.0,-0.13315094232847488,-0.1322610554281499,-0.10846276926944189,0.20824948323262382,0.5262603271953505,-0.056540737653136344
6195,5.0,300.23487,1200.4188,0.0,0.0,0.0,0.0,0.061744385371769996,0.0,-0.13204603362442888,-0.13041851078380487,-0.1024327963343299,0.16224103859194386,0.5251794831811795,-0.035899531089757866
6196,5.0,300.51712000000003,1272.8094,0.0,0.0,0.0,0.0,0.06175435218135382,0.0,-0.12798098568073987,-0.12640976914817287,-0.13251152072036887,0.16705918467245784,0.5216478708851365,-0.05154794981188655
6197,5.0,300.32367999999997,1526.7557,0.0,0.0,0.0,0.0,0.06176431899093763,0.0,-0.11909371839113488,-0.14654524738788985,-0.19845665406364682,0.11872630377237388,0.5284767003315896,-0.015820060249318382
6198,5.0,299.17819,1414.9664,0.0,0.0,0.0,0.0,0.06177428580052146,0.0,-0.10816732580528389,-0.12031246574391588,-0.2016346724722928,0.12617464446246787,0.5412351706882526,-0.008142883914240073
6199,5.0,299.99847,1157.6504,0.0,0.0,0.0,0.0,0.06178425261010527,0.0,-0.09236807467326921,-0.10601941797830192,-0.15350932545769086,0.0902512665316065,0.5449149910764225,-0.018163958003393085
6200,5.0,299.69185,1227.9491,0.0,0.0,0.0,0.0,0.0617942194196891,0.0,-0.12976145862395888,-0.0991446133218115,-0.14435980877720386,0.10599215141811089,0.5230113103521975,-0.025980147996540977
6201,5.0,299.39855,1401.1075,0.0,0.0,0.0,0.0,0.061804186229272924,0.0,-0.17504350426794885,-0.0938040061054846,-0.15705417080003983,0.1154441435184499,0.5373945475092125,-0.030927039661261174
6202,5.0,300.26673,1224.6525,0.0,0.0,0.0,0.0,0.061814153038856734,0.0,-0.1106698306372619,-0.1041537408341739,-0.15744019882313784,0.15239444637266086,0.5536131656323655,-0.034037495566489266
6203,5.0,301.00764,1144.3516,0.0,0.0,0.0,0.0,0.061824119848440565,0.0,-0.07312784140040603,-0.1020585220123919,-0.17266795967350085,0.14413238479225884,0.5734848036785435,-0.04401164685411136
6204,5.0,300.12644,1300.0844,0.0,0.0,0.0,0.0,0.061834086658024374,0.0,-0.12648163897776588,-0.09211207298250382,-0.17659948151901184,0.13030935335053187,0.5310940773274044,0.008722339962877931
6205,5.0,300.61347,1508.8808,0.0,0.0,0.0,0.0,0.061844053467608205,0.0,-0.1396662113989819,-0.15188675741005586,-0.16710911763738584,0.12242126211703788,0.5511557909598415,-0.03636872364131356
6206,5.0,299.50272,1612.6166,0.0,0.0,0.0,0.0,0.06185402027719203,0.0,-0.17689548227072482,-0.13465428123684287,-0.17864539559092782,0.14743663389836284,0.5166316546750744,-0.027218664872023075
6207,5.0,298.77152,1649.0532,0.0,0.0,0.0,0.0,0.06186398708677584,0.0,-0.17264469545120484,-0.15905122595213386,-0.16957509480325883,0.16683952218327885,0.5297313775329164,-0.05445346169888825
6208,5.0,299.7686,1391.2541,0.0,0.0,0.0,0.0,0.06187395389635967,0.0,-0.12256161752088987,-0.13407002096418089,-0.16627487843255284,0.15522235647425386,0.5108669708811445,-0.03006542243872617
6209,5.0,299.33756,1093.0675,0.0,0.0,0.0,0.0,0.06188392070594348,0.0,-0.08279108398759381,-0.09128961686308372,-0.15818454247909886,0.13402743406247788,0.5383018015162515,-0.03811663579256907
6210,5.0,299.24022,1222.0795,0.0,0.0,0.0,0.0,0.06189388751552731,0.0,-0.09317681138633532,-0.1021274230191919,-0.17617742232235784,0.12389590578257388,0.5375393409485025,-0.003169839352513787
6211,5.0,300.12768,1307.2119,0.0,0.0,0.0,0.0,0.061903854325111134,0.0,-0.11608974595216588,-0.10097137355609871,-0.18029864485159083,0.1033354197884119,0.5683698969087415,-0.029212319556781476
6212,5.0,299.8186,1128.5251,0.0,0.0,0.0,0.0,0.061913821134694944,0.0,-0.09068878387178611,-0.1081892120074439,-0.14416545727552288,0.1164878519164559,0.5496574169769635,-0.04362304922875976
6213,5.0,299.44885,1213.4058,0.0,0.0,0.0,0.0,0.061923787944278774,0.0,-0.12198823955430188,-0.1194419623180039,-0.1274148727173689,0.11964379160542289,0.5522166334170385,-0.06360914197973352
6214,5.0,300.45901000000003,1660.2337,0.0,0.0,0.0,0.0,0.061933754753862584,0.0,-0.14230990249989386,-0.16288949839094186,-0.19947018787367482,0.13221704997630687,0.5348480169603895,-0.04739971504823765
6215,5.0,300.89423,1479.8972,0.0,0.0,0.0,0.0,0.061943721563446415,0.0,-0.1148102846533929,-0.14656804551513986,-0.18847346559838282,0.13552401459267888,0.5460264352436135,-0.03157978348168197
6216,5.0,300.15483,1259.9141,0.0,0.0,0.0,0.0,0.06195368837303023,0.0,-0.09986238753365032,-0.10721392838869089,-0.17590610434308082,0.13168242882604386,0.5180566592182115,-0.007987562603761053
6217,5.0,299.85181,1317.628,0.0,0.0,0.0,0.0,0.06196365518261405,0.0,-0.13283124165692287,-0.07291872177851753,-0.1947760433403988,0.14489189680221687,0.5515720442334225,0.007626617080263503
6218,5.0,299.25922,1230.5721,0.0,0.0,0.0,0.0,0.06197362199219788,0.0,-0.13413525400561888,-0.09370576238903872,-0.14622218272600587,0.14766208204561287,0.5319961029639274,-0.014661855603262485
6219,5.0,299.73761,1303.9021,0.0,0.0,0.0,0.0,0.06198358880178169,0.0,-0.13193149583312488,-0.0987461456272358,-0.16567603749095183,0.15480598161066086,0.5382580797744365,-0.025047495862495373
6220,5.0,300.66811,1645.5425,0.0,0.0,0.0,0.0,0.06199355561136552,0.0,-0.14949581141408785,-0.13771009155092787,-0.21299791770625778,0.14102181844276987,0.5047857477559745,-0.03714878132354926
6221,5.0,299.24541,1427.7720000000002,0.0,0.0,0.0,0.0,0.062003522420949336,0.0,-0.1333086243090369,-0.12562892822360988,-0.17506947386801183,0.11902819150716788,0.5274157160193785,-0.025589235094710876
6222,5.0,299.34558,1154.2837,0.0,0.0,0.0,0.0,0.06201348923053315,0.0,-0.10459492006021491,-0.1082381215897709,-0.13804039081852587,0.13288928062265087,0.5254676413771185,-0.04496202478540636
6223,5.0,299.74641,1390.3169,0.0,0.0,0.0,0.0,0.06202345604011698,0.0,-0.13703185233149087,-0.14315000842280587,-0.14243978089771187,0.1096705228586379,0.5576666321274115,-0.014434820706355886
6224,5.0,300.64211,1326.1115,0.0,0.0,0.0,0.0,0.062033422849700794,0.0,-0.13715278373092588,-0.11671011845839188,-0.14924187067402583,0.13093309997959088,0.5226140352529896,-0.03844861502883286
6225,5.0,301.12903,1096.8053,0.0,0.0,0.0,0.0,0.06204338965928461,0.0,-0.06785024516804784,-0.11209881725329188,-0.15345235040456784,0.14650667295658287,0.5571309166670405,-0.04625796153080536
6226,5.0,300.83509,1145.3949,0.0,0.0,0.0,0.0,0.06205335646886844,0.0,-0.08367045335188082,-0.11475959175088989,-0.14974140297332586,0.16795948778381084,0.5483094599714305,-0.06297277532067903
6227,5.0,300.02949,1318.6214,0.0,0.0,0.0,0.0,0.06206332327845225,0.0,-0.1117414540755229,-0.1113353333029419,-0.17775118211267582,0.13533954227947287,0.5400456961308605,-0.034475740420240666
6228,5.0,300.88242,1343.5002,0.0,0.0,0.0,0.0,0.06207329008803608,0.0,-0.10267099116783791,-0.14067625962866587,-0.16504327293600285,0.13337458689054688,0.5208974983910806,-0.05261277434197655
6229,5.0,300.12244,1404.6743,0.0,0.0,0.0,0.0,0.0620832568976199,0.0,-0.13466895309829086,-0.11284662622459489,-0.17947035342484483,0.10860492825847189,0.5540461274000955,-0.02290914501045658
6230,5.0,299.72104,1384.6339,0.0,0.0,0.0,0.0,0.062093223707203715,0.0,-0.14277585569087986,-0.12167071737046488,-0.15644755823017184,0.14945082310964786,0.5367293386860615,-0.046790633187875956
6231,5.0,299.93882,1229.4118,0.0,0.0,0.0,0.0,0.062103190516787546,0.0,-0.07811857842345343,-0.11880967399060188,-0.17678223130704782,0.10947777229211489,0.5513840863398725,-0.03868395958980956
6232,5.0,299.54467999999997,1243.6102,0.0,0.0,0.0,0.0,0.062113157326371356,0.0,-0.1045298694037949,-0.11591242718466589,-0.15758414113234384,0.13234609750904286,0.5099247698781565,-0.04693433130380786
6233,5.0,299.38101,1558.0372,0.0,0.0,0.0,0.0,0.062123124135955186,0.0,-0.14021197830034487,-0.12117498475903989,-0.2122174415517308,0.12877528256663087,0.5316338761856785,0.009107678266632861
6234,5.0,300.82909,1518.8728,0.0,0.0,0.0,0.0,0.062133090945538996,0.0,-0.16302411879922785,-0.12481589634336988,-0.17385937967108483,0.16077632477738785,0.5353938345242575,-0.014286113081929588
6235,5.0,299.75296000000003,1206.3183,0.0,0.0,0.0,0.0,0.06214305775512282,0.0,-0.14754513271907085,-0.08736675526617742,-0.13177876864555188,0.13111526208256888,0.5490144084635035,0.015826921978995587
6236,5.0,301.32084,1473.6168,0.0,0.0,0.0,0.0,0.06215302456470665,0.0,-0.16804728590497583,-0.12510273731417887,-0.15479266750434686,0.11647594622778089,0.5525371142911675,-0.02104764245674058
6237,5.0,300.98453,1702.7281,0.0,0.0,0.0,0.0,0.06216299137429046,0.0,-0.15693989645376186,-0.13452489933157388,-0.22612201936150578,0.1210003004417999,0.5796704827565224,0.0060378281565122436
6238,5.0,301.76045,1496.0139,0.0,0.0,0.0,0.0,0.06217295818387429,0.0,-0.13738274084112087,-0.11395744217672388,-0.20341068711507182,0.13533360463388686,0.5699821703353605,-0.03527233029110796
6239,5.0,300.48824,1347.095,0.0,0.0,0.0,0.0,0.0621829249934581,0.0,-0.11332745392704889,-0.11693301321538989,-0.17922277589541083,0.1185674869516999,0.5396363532229614,-0.029970929774150473
6240,5.0,301.30635,1175.555,0.0,0.0,0.0,0.0,0.062192891803041925,0.0,-0.09007185337614983,-0.1080015276914209,-0.15926598431082886,0.14030010066154186,0.5048624507885445,-0.03627174142124216
6241,5.0,300.32291000000004,1040.7248,0.0,0.0,0.0,0.0,0.062202858612625755,0.0,-0.0929904524014431,-0.12661015962044989,-0.09675375041235172,0.14006204768304786,0.5213297407512395,-0.05067274997176105
6242,5.0,300.25495,1407.4531,0.0,0.0,0.0,0.0,0.062212825422209565,0.0,-0.13368886667406388,-0.16393017717114886,-0.13021155445087987,0.14986821122334085,0.5324335838271035,-0.057752522964480246
6243,5.0,299.56937999999997,1406.5235,0.0,0.0,0.0,0.0,0.062222792231793396,0.0,-0.12674777924903188,-0.14181213325576786,-0.15898812073590585,0.14100639677624788,0.5277023948701716,-0.05503789523731735
6244,5.0,299.99596,890.8860699999999,0.0,0.0,0.0,0.0,0.062232759041377206,0.0,-0.05433290418874015,-0.1056100953354049,-0.1108641213439369,0.14052777795901186,0.5268147675175695,-0.048188872729621454
6245,5.0,301.03997999999996,1064.1192,0.0,0.0,0.0,0.0,0.06224272585096103,0.0,-0.05575199135129315,-0.1163691699322429,-0.15134449635403885,0.11314617335165789,0.5500477411804855,-0.04822223601566416
6246,5.0,300.2512,1578.0216,0.0,0.0,0.0,0.0,0.06225269266054486,0.0,-0.15686913106677786,-0.13441386738561587,-0.1883961748807548,0.1138390236375369,0.5596818548537985,-0.015175054619911286
6247,5.0,299.92206,1507.8561,0.0,0.0,0.0,0.0,0.06226265947012867,0.0,-0.1865647151925038,-0.11801256026943288,-0.15377332777124586,0.1175327559495799,0.5416469453963915,-0.040813148634444164
6248,5.0,299.31154,1282.4378,0.0,0.0,0.0,0.0,0.0622726262797125,0.0,-0.12948322014649888,-0.09883827944557871,-0.16150756710955586,0.13560470983064288,0.5222704725415825,-0.029839006637630672
6249,5.0,299.23382999999995,1368.094,0.0,0.0,0.0,0.0,0.06228259308929631,0.0,-0.1173739087314029,-0.13344313325981186,-0.16504939296660684,0.16410590513599185,0.5367865569192085,-0.035417890760723665
6250,5.0,299.14075,1504.3426,0.0,0.0,0.0,0.0,0.062292559898880134,0.0,-0.1066228084128519,-0.12765932943649488,-0.22300045924843176,0.15574822314365286,0.5450376956635324,-0.00994147944344763
6251,5.0,301.20499,1449.3448,0.0,0.0,0.0,0.0,0.062302526708463965,0.0,-0.1302098724557139,-0.14084767114808286,-0.16950708545654683,0.14590802453250085,0.5248268113513734,-0.02067968372267588
6252,5.0,300.03257,1332.3393,0.0,0.0,0.0,0.0,0.062312493518047775,0.0,-0.13293483634714687,-0.1144060890560019,-0.15765696341703084,0.1270387644127499,0.5285855841873355,0.004561169237852356
6253,5.0,300.26227,1119.2198,0.0,0.0,0.0,0.0,0.062322460327631606,0.0,-0.13698355069922385,-0.1023103855897489,-0.10092094612512191,0.14596055141768485,0.5395145504284405,-0.026908148299377474
6254,5.0,300.57657,1198.0489,0.0,0.0,0.0,0.0,0.062332427137215415,0.0,-0.10362574633956491,-0.1222804304856389,-0.13827078362626388,0.1158400608625239,0.5721503127668395,-0.0056975190925013545
6255,5.0,300.45002,1538.9927,0.0,0.0,0.0,0.0,0.06234239394679924,0.0,-0.16724366711816482,-0.1307843042024059,-0.16978738083170986,0.11858092264802589,0.5320808917322954,-0.02346017574608908
6256,5.0,300.26661,1618.0166,0.0,0.0,0.0,0.0,0.06235236075638307,0.0,-0.14084463139778286,-0.11152390927905288,-0.23946812411366375,0.12364736566554488,0.5321050780121825,-0.008780495148392402
6257,5.0,300.36616000000004,1364.214,0.0,0.0,0.0,0.0,0.06236232756596688,0.0,-0.1167669415239999,-0.12733706524218988,-0.17058298481022982,0.16044375582956585,0.5409470428898165,-0.03699339840746417
6258,5.0,300.46894,1375.4148,0.0,0.0,0.0,0.0,0.06237229437555071,0.0,-0.11703940447588988,-0.1271454191182759,-0.17390693149827785,0.16216228879417185,0.5580820748009124,-0.03692414276312917
6259,5.0,301.32239,1593.9251,0.0,0.0,0.0,0.0,0.06238226118513452,0.0,-0.15465681093093886,-0.14792695575425388,-0.18192965327255883,0.15299649931707887,0.5010130731286405,-0.04042182840607386
6260,5.0,302.22355,1330.1267,0.0,0.0,0.0,0.0,0.062392227994718344,0.0,-0.11596077947943789,-0.12269811244186088,-0.16566639134999983,0.12823574715338287,0.5105761377049415,-0.05462654508097025
6261,5.0,301.13548,903.3764800000001,0.0,0.0,0.0,0.0,0.062402194804302175,0.0,-0.05713544453432935,-0.1013740513048399,-0.1160943967701249,0.13399426025420386,0.5299001242045704,-0.04909098246590275
6262,5.0,300.04371000000003,949.38452,0.0,0.0,0.0,0.0,0.062412161613885984,0.0,-0.051182540415073446,-0.09939555585482761,-0.13801108762563388,0.12820799423314388,0.5781466863286354,-0.04847677659978536
6263,5.0,299.52771,1130.6082,0.0,0.0,0.0,0.0,0.062422128423469815,0.0,-0.09143704475263371,-0.1042472840834059,-0.14799234078320686,0.0941921771525441,0.5406178480648275,-0.022840935040224775
6264,5.0,300.29776,1197.403,0.0,0.0,0.0,0.0,0.062432095233053625,0.0,-0.11813371458388988,-0.097732664506213,-0.14811423477023686,0.09744161044148822,0.5308810212288776,-0.003517034565529286
6265,5.0,300.2257,1544.5362,0.0,0.0,0.0,0.0,0.062442062042637456,0.0,-0.14903745759885184,-0.12903344855960988,-0.19142954170512483,0.15249958120303686,0.5446598749662445,-0.002263931144257608
6266,5.0,300.27677,1734.2472,0.0,0.0,0.0,0.0,0.06245202885222128,0.0,-0.16098994829597085,-0.14164550427682285,-0.2245324022071228,0.17274683106128483,0.5769031346134065,0.007103484666259353
6267,5.0,299.46868,1701.5474,0.0,0.0,0.0,0.0,0.06246199566180509,0.0,-0.16235989282867386,-0.14485641278371486,-0.2100116163490328,0.1395448848320079,0.5212478904081616,-0.026215117654980677
6268,5.0,300.28475,1825.6799,0.0,0.0,0.0,0.0,0.06247196247138892,0.0,-0.16844079171381185,-0.11549394476086487,-0.2710263557657187,0.12308978426801588,0.5332696570146175,0.000876625351293686
6269,5.0,299.80127999999996,1462.734,0.0,0.0,0.0,0.0,0.06248192928097273,0.0,-0.16534080369536686,-0.10298846268916989,-0.17630535527998384,0.1284853207855139,0.5450889559860914,-0.010141216977360189
6270,5.0,298.84957,892.3485199999999,0.0,0.0,0.0,0.0,0.06249189609055656,0.0,-0.08411584060558712,-0.07480923570909673,-0.1123265857432709,0.1356257550352199,0.5922749796279895,-0.021310298160912684
6271,5.0,298.74641,732.20479,0.0,0.0,0.0,0.0,0.06250186290014037,0.0,-0.06313157998235185,-0.06741805144389364,-0.09202234360664821,0.1186956022943439,0.5310922230797215,-0.03949247946735426
6272,5.0,298.64783,1128.1839,0.0,0.0,0.0,0.0,0.0625118297097242,0.0,-0.1097250357140179,-0.0998301286902166,-0.13338457753653288,0.1133699091062389,0.5343687597955905,-0.027854056784481374
6273,5.0,299.26151,1435.6724,0.0,0.0,0.0,0.0,0.06252179651930802,0.0,-0.1183877667814629,-0.1316929362295809,-0.18632784771662683,0.15623094562379386,0.5254783919606795,-0.04074349680932006
6274,5.0,300.15456,1427.3622,0.0,0.0,0.0,0.0,0.06253176332889183,0.0,-0.0974776932907993,-0.15973114716673686,-0.1766736311613298,0.17305434233413383,0.5586358565105665,-0.04038321749776326
6275,5.0,299.69059,1359.6226,0.0,0.0,0.0,0.0,0.06254173013847567,0.0,-0.1186048252178849,-0.14382833883475188,-0.15085815657104085,0.14763945617087987,0.5365470245955685,-0.01992837701202768
6276,5.0,299.15951,1362.0610000000001,0.0,0.0,0.0,0.0,0.06255169694805948,0.0,-0.12027964657317688,-0.11978874716472888,-0.17396412946642284,0.12265598150270288,0.5700412124186874,-0.030542956065105074
6277,5.0,300.18878,1481.3606,0.0,0.0,0.0,0.0,0.0625616637576433,0.0,-0.16036328350662385,-0.13139829323300187,-0.15853506621869284,0.12898725448755088,0.5714314219533905,-0.028591765678787573
6278,5.0,299.76754,1404.1194,0.0,0.0,0.0,0.0,0.06257163056722712,0.0,-0.11408407817422189,-0.13324229695749087,-0.17949086160686883,0.12189438219753888,0.5768754019581693,-0.07048193736127563
6279,5.0,300.25691,993.0917599999999,0.0,0.0,0.0,0.0,0.06258159737681093,0.0,-0.09408679204939341,-0.0876608835317056,-0.12012742601065388,0.14418503326745485,0.5353500519874365,-0.07099457301086884
6280,5.0,300.12722,718.10517,0.0,0.0,0.0,0.0,0.06259156418639476,0.0,-0.024489664192191677,-0.07491086672062693,-0.11888550562808589,0.10007813887744331,0.5239472190720645,-0.06622172731582564
6281,5.0,300.93077,1222.928,0.0,0.0,0.0,0.0,0.06260153099597858,0.0,-0.15951937789583684,-0.0981157399185196,-0.1141044546337329,0.14200258374456387,0.5277933036691435,-0.03652382082087046
6282,5.0,300.14317,1726.9658,0.0,0.0,0.0,0.0,0.0626114978055624,0.0,-0.15513366669300085,-0.15909920334436883,-0.21072161082660382,0.13113896200240788,0.5456845545273724,-0.02360106918574418
6283,5.0,300.17352999999997,1501.7796,0.0,0.0,0.0,0.0,0.06262146461514623,0.0,-0.15824257131232586,-0.13948064477566788,-0.15878030314039585,0.15505251549249185,0.5493150195031715,-0.0017190920760111782
6284,5.0,300.37271,1409.1425,0.0,0.0,0.0,0.0,0.06263143142473004,0.0,-0.10730596189527389,-0.1124587338213129,-0.20857943799518777,0.12205612731100189,0.5485911637642326,0.009751601643608152
6285,5.0,299.5977,1666.3141,0.0,0.0,0.0,0.0,0.06264139823431386,0.0,-0.15567421535634884,-0.15154869664669185,-0.19929496653388182,0.14700252715801987,0.5496020428589985,0.008085848674061133
6286,5.0,298.86816,1663.8061,0.0,0.0,0.0,0.0,0.06265136504389769,0.0,-0.13869755443588286,-0.14313371536119784,-0.2239242393646018,0.11639490648478289,0.5768230473255025,-0.00982901496449825
6287,5.0,300.35104,1445.7151,0.0,0.0,0.0,0.0,0.06266133185348151,0.0,-0.15891936158411984,-0.11308332144795488,-0.16745861799437883,0.14532522333998285,0.5481920546823436,-0.008886215333351172
6288,5.0,300.43714,1176.8534,0.0,0.0,0.0,0.0,0.06267129866306533,0.0,-0.12620244804521186,-0.08908382712413922,-0.14244776530849987,0.11889947834696489,0.5611635000775255,-0.03714866378653767
6289,5.0,300.06171,910.80709,0.0,0.0,0.0,0.0,0.06268126547264914,0.0,-0.09768969662247241,-0.056005807461592845,-0.12316710538314687,0.14275239895106487,0.5618510713303835,-0.03368339606729237
6290,5.0,300.46912000000003,1134.4603,0.0,0.0,0.0,0.0,0.06269123228223297,0.0,-0.08646361100154401,-0.10961791491344589,-0.14876606869206785,0.12774544556249387,0.5719531748273835,-0.07157502143665463
6291,5.0,299.78758,1339.8924,0.0,0.0,0.0,0.0,0.06270119909181679,0.0,-0.09845069203057681,-0.13215603205528487,-0.17668710738765983,0.13190424953793586,0.5580403795592974,-0.05578184473898945
6292,5.0,299.31907,1116.2472,0.0,0.0,0.0,0.0,0.0627111659014006,0.0,-0.06154771707528674,-0.13028077969771187,-0.14748276717541586,0.13045335645474387,0.5475323680722375,-0.031680439746615975
6293,5.0,299.26283,981.82644,0.0,0.0,0.0,0.0,0.06272113271098444,0.0,-0.057265183103633543,-0.14512229974245586,-0.0960632397209536,0.14295448155100884,0.5224398778258016,-0.020542776408914182
6294,5.0,298.50171,1348.1158,0.0,0.0,0.0,0.0,0.06273109952056824,0.0,-0.1172303413247339,-0.1309843197721459,-0.16157887965159384,0.15311147280592585,0.5152622572974255,-0.013411839352395488
6295,5.0,299.1584,1732.9482,0.0,0.0,0.0,0.0,0.06274106633015207,0.0,-0.17810160452725984,-0.15832931565338684,-0.19034207103529982,0.14340198345767385,0.5045120081089586,0.013627046580884788
6296,5.0,300.10433,1505.6307,0.0,0.0,0.0,0.0,0.0627510331397359,0.0,-0.13224785277934686,-0.11763602639977189,-0.2077902681548028,0.13650950163993886,0.5384498576208635,-0.01786741313637638
6297,5.0,301.22129,1357.4289999999999,0.0,0.0,0.0,0.0,0.06276099994931972,0.0,-0.13432655562449888,-0.1007629976597836,-0.17753497480633784,0.14677675477073784,0.5334539874728095,-0.023077944371115777
6298,5.0,300.7097,1369.2956,0.0,0.0,0.0,0.0,0.06277096675890353,0.0,-0.13118524726697586,-0.1060612449424299,-0.17898516874696083,0.16649232190401284,0.5783805748492185,-0.054694448036421754
6299,5.0,300.80278,1395.8074,0.0,0.0,0.0,0.0,0.06278093356848735,0.0,-0.16236880942955384,-0.09870084422851491,-0.16322094263115283,0.14300362418085888,0.5470296339026215,-0.03019467262148217
6300,5.0,299.36208999999997,1404.4372,0.0,0.0,0.0,0.0,0.06279090037807118,0.0,-0.15008635383736987,-0.1117750433163379,-0.16505244284940784,0.13904629485530087,0.5326874941696625,-0.03585028510839767
6301,5.0,298.86555,1246.2583,0.0,0.0,0.0,0.0,0.062800867187655,0.0,-0.13153072502107185,-0.0915626715530321,-0.15573799945014385,0.1185572024631849,0.5202227548844885,0.00014043269456962787
6302,5.0,299.84574,971.27335,0.0,0.0,0.0,0.0,0.06281083399723882,0.0,-0.056648779498049244,-0.07417061051556932,-0.16442345771733183,0.13652060686103487,0.5368900401519215,-0.04143697936326146
6303,5.0,299.71069,1222.7906,0.0,0.0,0.0,0.0,0.06282080080682265,0.0,-0.0987784146031705,-0.1109691649818039,-0.16195022568074285,0.11785623604400489,0.5537804025613705,0.0007587041760507723
6304,5.0,300.47361,1690.9148,0.0,0.0,0.0,0.0,0.06283076761640645,0.0,-0.14888203516601287,-0.15317372689206987,-0.2119401251318618,0.1256326975139819,0.5611061906518695,-0.017921292710443883
6305,5.0,300.51743999999997,1665.4073,0.0,0.0,0.0,0.0,0.06284073442599028,0.0,-0.17212189892960883,-0.14912350279734388,-0.1849968423852668,0.14666472983968187,0.5480305324839024,-0.007819092752034372
6306,5.0,300.5519,1420.6581,0.0,0.0,0.0,0.0,0.06285070123557411,0.0,-0.13428958212834988,-0.14669215851988887,-0.15086283778650286,0.14609205101566286,0.5457592513247445,-0.03275357394077607
6307,5.0,300.78,1411.6145,0.0,0.0,0.0,0.0,0.06286066804515793,0.0,-0.17004401681703785,-0.1171092174077799,-0.14194234602611888,0.15692904454519085,0.5270968462129085,-0.01001812228896169
6308,5.0,300.2359,1329.3265,0.0,0.0,0.0,0.0,0.06287063485474174,0.0,-0.09718725933513571,-0.12376366651202288,-0.18313113484363583,0.16054419931197883,0.5247836772946165,-0.02769021930956187
6309,5.0,298.41525,1131.9708,0.0,0.0,0.0,0.0,0.06288060166432556,0.0,-0.10752925181981089,-0.1138008950362739,-0.1227607110330389,0.12555456579877086,0.5614223854780754,-0.06480493415149903
6310,5.0,299.62186,1243.6389,0.0,0.0,0.0,0.0,0.06289056847390939,0.0,-0.06986360351425083,-0.13982552471220486,-0.16834605282946186,0.14077834457624086,0.5382192722956065,-0.06552859129341844
6311,5.0,299.39041000000003,1152.7248,0.0,0.0,0.0,0.0,0.06290053528349322,0.0,-0.12326320202263087,-0.1131369629082489,-0.11399939073086389,0.1268322741748709,0.5559015909832155,-0.06429274534519994
6312,5.0,299.37191,1039.6444,0.0,0.0,0.0,0.0,0.06291050209307703,0.0,-0.07755185649677233,-0.1030784696955529,-0.1353956054075059,0.13677857020399387,0.5528292444274985,-0.01099088899446629
6313,5.0,300.06583,1445.4622,0.0,0.0,0.0,0.0,0.06292046890266086,0.0,-0.15246977138509485,-0.13259798135140188,-0.15431667300486987,0.13071753102081587,0.5555024920338275,-0.0026548049346338475
6314,5.0,300.65303,1730.4489,0.0,0.0,0.0,0.0,0.06293043571224466,0.0,-0.1258670217321079,-0.15729864778416786,-0.24284758677469076,0.12129739550362088,0.5729794350586674,0.011563027756181989
6315,5.0,300.3335,1410.6061,0.0,0.0,0.0,0.0,0.06294040252182849,0.0,-0.11401489345739388,-0.13795951319554386,-0.17681462491274483,0.13842836428181585,0.5800544032194125,-0.011571254333743888
6316,5.0,300.29937,1296.2364,0.0,0.0,0.0,0.0,0.06295036933141232,0.0,-0.08833291558103001,-0.11326081246797189,-0.1924297715413398,0.14322004426971788,0.5603961961742985,-0.007555247492244873
6317,5.0,299.87305,1563.2945,0.0,0.0,0.0,0.0,0.06296033614099614,0.0,-0.16982593499801485,-0.1272160021202419,-0.17816053515307584,0.13719743766283288,0.5723448973160434,-0.01108732203298349
6318,5.0,298.96286000000003,1335.6232,0.0,0.0,0.0,0.0,0.06297030295057995,0.0,-0.14464132005248687,-0.10535408756513889,-0.15600070480357084,0.1330971792781689,0.5165413538261625,-0.009225655535401311
6319,5.0,299.32761,960.7774199999999,0.0,0.0,0.0,0.0,0.06298026976016377,0.0,-0.12604903184757088,-0.060454425283637245,-0.1055488950293649,0.13130166970346588,0.5181420052741345,-0.035289720702574266
6320,5.0,299.50988,962.8405300000001,0.0,0.0,0.0,0.0,0.0629902365697476,0.0,-0.07467820625916513,-0.07375404110795712,-0.14424723669109388,0.15091661096930986,0.5042792848259906,-0.032956565426059764
6321,5.0,299.22604,1000.6893,0.0,0.0,0.0,0.0,0.06300020337933143,0.0,-0.08357502039121231,-0.09057153766296482,-0.13003799484125086,0.16219636439503485,0.5466456526447255,-0.06703354532244585
6322,5.0,300.27341,1347.7799,0.0,0.0,0.0,0.0,0.06301017018891523,0.0,-0.08776252062273641,-0.15176981821601485,-0.17015909163089485,0.12400889330122487,0.5557618029994194,-0.06082472361218285
6323,5.0,299.50782999999996,1625.463,0.0,0.0,0.0,0.0,0.06302013699849907,0.0,-0.17194309068446184,-0.15635776400630985,-0.16579929936561683,0.1055469597216739,0.5842553685315155,-0.04946524462883955
6324,5.0,299.76206,1426.6369,0.0,0.0,0.0,0.0,0.06303010380808287,0.0,-0.14505446264826086,-0.1096450193536209,-0.17896250234222383,0.11959172068278388,0.5693820526986335,0.0003110265008909257
6325,5.0,300.48855,1024.2168,0.0,0.0,0.0,0.0,0.0630400706176667,0.0,-0.08814584428131751,-0.100862513005105,-0.12232796204782989,0.11875620478282489,0.5788524048907844,-0.02984275262325037
6326,5.0,300.50139,1283.2119,0.0,0.0,0.0,0.0,0.06305003742725052,0.0,-0.06861016247804584,-0.12622969434040088,-0.19522452809966082,0.12292652941190388,0.5343076912120635,-0.020766122062206682
6327,5.0,300.17067000000003,1647.1962,0.0,0.0,0.0,0.0,0.06306000423683435,0.0,-0.13581617512651287,-0.14402455471661688,-0.2208657946002568,0.1066566914961959,0.5461381055371345,-0.023574074176579977
6328,5.0,300.73689,1313.3894,0.0,0.0,0.0,0.0,0.06306997104641816,0.0,-0.1086037123583519,-0.11253817262915289,-0.17809569727917682,0.15305956400330287,0.5353307090430275,-0.03711118873158917
6329,5.0,299.98068,998.56072,0.0,0.0,0.0,0.0,0.06307993785600198,0.0,-0.10416946647572589,-0.09279374002702911,-0.10657432439556691,0.14959434998631285,0.5512221689738924,-0.04811799791162666
6330,5.0,300.82417999999996,1302.5627,0.0,0.0,0.0,0.0,0.06308990466558581,0.0,-0.14894830172255286,-0.11467671802521089,-0.13232150592911587,0.17715029440587282,0.5344430310279205,-0.037658069194812065
6331,5.0,298.75822,1529.2479,0.0,0.0,0.0,0.0,0.06309987147516963,0.0,-0.17585243248528382,-0.11650498597564687,-0.17249575781900583,0.12132790446413189,0.5531870027728065,-0.03642892589600506
6332,5.0,298.59125,1511.395,0.0,0.0,0.0,0.0,0.06310983828475344,0.0,-0.13318865549719688,-0.11457833144050088,-0.2116593535291518,0.15215649471917686,0.5323540335617525,-0.03600224222589467
6333,5.0,298.89179,1582.8756,0.0,0.0,0.0,0.0,0.06311980509433726,0.0,-0.15896882845400184,-0.13786448046866487,-0.18432134907360084,0.13013527698335187,0.5406142814244755,-0.02186924035332598
6334,5.0,299.22736000000003,1186.7259,0.0,0.0,0.0,0.0,0.06312977190392108,0.0,-0.08332447809198572,-0.0996396275389156,-0.17777092022462382,0.14558412900553486,0.5284547330694216,-0.01145469713499059
6335,5.0,299.432,1131.2061,0.0,0.0,0.0,0.0,0.06313973871350491,0.0,-0.13369156191932988,-0.09184378056802542,-0.1183230606300769,0.1045641983171829,0.5752787629805934,-0.015134327032141785
6336,5.0,300.29192,1656.6146,0.0,0.0,0.0,0.0,0.06314970552308873,0.0,-0.17381932589463184,-0.11957548841618187,-0.2101746685551248,0.16029204189209284,0.5711402949346585,0.00905064951125456
6337,5.0,299.45441,1531.3299,0.0,0.0,0.0,0.0,0.06315967233267254,0.0,-0.16223720850656584,-0.12628821966617687,-0.17696062411965383,0.11158842291291989,0.5945396037339904,-0.02966649472860507
6338,5.0,300.55222000000003,1033.6807,0.0,0.0,0.0,0.0,0.06316963914225637,0.0,-0.03237235682915287,-0.12344667121823787,-0.15839409273227983,0.16172758423626987,0.5477417764704045,-0.056139359904273455
6339,5.0,300.4896,1126.9438,0.0,0.0,0.0,0.0,0.06317960595184018,0.0,-0.09721449853757401,-0.10685827760359089,-0.13849000028539887,0.13147358784793287,0.5475079386123264,-0.06116011446153334
6340,5.0,299.67274,1532.7551,0.0,0.0,0.0,0.0,0.063189572761424,0.0,-0.11484377256919788,-0.13434787440660287,-0.2167276305293518,0.15895516984265384,0.5362488453561405,-0.035226679321102565
6341,5.0,300.0253,1365.6762,0.0,0.0,0.0,0.0,0.06319953957100784,0.0,-0.15177845110686686,-0.11787816277616889,-0.14547483984974885,0.10871158296399788,0.5366240113381665,-0.054502277048955945
6342,5.0,300.05562000000003,964.29394,0.0,0.0,0.0,0.0,0.06320950638059165,0.0,-0.07758334729663023,-0.08059165441952702,-0.13494627965066086,0.14184692826420187,0.5319917561209985,-0.01870590697837928
6343,5.0,300.01687000000004,1033.2084,0.0,0.0,0.0,0.0,0.06321947319017547,0.0,-0.10516393091887188,-0.07528844525114102,-0.13361717922948887,0.11243893491435888,0.5536731703032874,-0.02949305164273757
6344,5.0,299.27485,1394.355,0.0,0.0,0.0,0.0,0.06322943999975929,0.0,-0.09538159699443072,-0.13158432595136188,-0.19688317798335683,0.16859903098192883,0.5626603541852535,-0.018038926994053482
6345,5.0,299.07853,1745.5366,0.0,0.0,0.0,0.0,0.06323940680934312,0.0,-0.16783515186403983,-0.15168854542549387,-0.21107582279656179,0.13278653706251087,0.5708682170178064,-0.03492498309057747
6346,5.0,299.84479,1757.88,0.0,0.0,0.0,0.0,0.06324937361892694,0.0,-0.12858999965334486,-0.17855860058736184,-0.2272030254956928,0.15864266324681184,0.5493960085836644,-0.023571417434817776
6347,5.0,300.23523,1096.1958,0.0,0.0,0.0,0.0,0.06325934042851075,0.0,-0.1119424727628619,-0.0886184302074581,-0.13265526037955488,0.13523589692674387,0.5613839832992855,-0.008644227398093821
6348,5.0,299.94647000000003,1089.0074,0.0,0.0,0.0,0.0,0.06326930723809458,0.0,-0.08865510276832742,-0.08553250407390091,-0.15684346544174485,0.12268750371331388,0.5524027775929095,-0.0017268514439519685
6349,5.0,301.33897,1707.1455,0.0,0.0,0.0,0.0,0.06327927404767839,0.0,-0.18812436040892883,-0.12547707243112288,-0.2053281818693138,0.1094819468825269,0.5640190313768445,-0.01172439796710799
6350,5.0,300.6701,1543.9933,0.0,0.0,0.0,0.0,0.06328924085726222,0.0,-0.12882775878930988,-0.13991297832833585,-0.2005946827021538,0.1063436884078049,0.5329828667063136,-0.03590752563304686
6351,5.0,300.07029,912.3443900000001,0.0,0.0,0.0,0.0,0.06329920766684605,0.0,-0.06698677167132965,-0.09301663275752692,-0.11732650889172488,0.16309162152088985,0.5572722549234895,-0.052346327055930245
6352,5.0,300.07249,982.0423900000001,0.0,0.0,0.0,0.0,0.06330917447642986,0.0,-0.04684126732187316,-0.08264846802276872,-0.16902663265662982,0.16262833317766684,0.5588550934347035,-0.03152775004929667
6353,5.0,299.61338,1540.0433,0.0,0.0,0.0,0.0,0.06331914128601368,0.0,-0.17464923852153783,-0.13410289079742488,-0.15938257899983585,0.1909498589752838,0.5531571625573615,-0.012314619190108289
6354,5.0,299.29117,1728.2998,0.0,0.0,0.0,0.0,0.0633291080955975,0.0,-0.15813467030917686,-0.16456588015138784,-0.2026594533584308,0.14519720932234886,0.5159842790536835,-0.014508649148392188
6355,5.0,300.13282999999996,1472.3288,0.0,0.0,0.0,0.0,0.06333907490518133,0.0,-0.16216125527906985,-0.13100657074434185,-0.15438336512645184,0.13188734852626788,0.5449272007401276,-0.02203031773497308
6356,5.0,300.77083,1278.3774,0.0,0.0,0.0,0.0,0.06334904171476514,0.0,-0.1106983536275769,-0.13266034689505687,-0.14523610799368786,0.14365989613812785,0.5498268729236875,-0.02192828648965338
6357,5.0,299.63709,1257.1853,0.0,0.0,0.0,0.0,0.06335900852434896,0.0,-0.11304716868438688,-0.11378735801493789,-0.15531841258373386,0.13448638569527288,0.5655746641228735,-0.04217315926316676
6358,5.0,300.0531,1487.1024,0.0,0.0,0.0,0.0,0.06336897533393279,0.0,-0.1012188386147716,-0.15332808541230383,-0.19749506958624582,0.11774843636586589,0.5440318118917594,-0.03264866303867217
6359,5.0,300.74056,1606.2728,0.0,0.0,0.0,0.0,0.0633789421435166,0.0,-0.17021972451687883,-0.12073452494056988,-0.19731256297823382,0.13203054103039988,0.5298456113491905,0.005588716499413375
6360,5.0,300.36804,1019.2561,0.0,0.0,0.0,0.0,0.06338890895310043,0.0,-0.07926563326540892,-0.07812594880468082,-0.15243683062434388,0.12458046768263488,0.5461523011710355,-0.02348238618828108
6361,5.0,300.63858,863.32789,0.0,0.0,0.0,0.0,0.06339887576268426,0.0,-0.0902888236598131,-0.07765446326814883,-0.0944868353478746,0.13956289028628488,0.5407934443071575,-0.03024607682555537
6362,5.0,300.2978,1416.9025,0.0,0.0,0.0,0.0,0.06340884257226807,0.0,-0.11366374150273789,-0.1255334395341859,-0.19150578877514982,0.14809555043839287,0.5439401532877134,-0.05933692289409835
6363,5.0,299.99408,1758.9159,0.0,0.0,0.0,0.0,0.06341880938185189,0.0,-0.1972101740556288,-0.15517749989232685,-0.1822788395220208,0.14363997564116185,0.5787798257861214,-0.031777422979937464
6364,5.0,299.82682,1452.4059,0.0,0.0,0.0,0.0,0.0634287761914357,0.0,-0.1188887277634039,-0.14836424409991086,-0.17424216529386283,0.13390901552329088,0.5646294638995895,-0.03964859192351136
6365,5.0,300.26779,1263.3458,0.0,0.0,0.0,0.0,0.06343874300101954,0.0,-0.16436832677939084,-0.08824624419397623,-0.13141098925675487,0.13652822650178686,0.5459592263644805,0.015517950612752485
6366,5.0,298.98708999999997,1245.8989,0.0,0.0,0.0,0.0,0.06344870981060335,0.0,-0.09130214164756982,-0.12165403927381889,-0.16576597356982783,0.12038992871406087,0.5348029678609435,-0.02003928331497328
6367,5.0,298.84743,1387.2529,0.0,0.0,0.0,0.0,0.06345867662018717,0.0,-0.15428987253972487,-0.11418072196875989,-0.15321964738660185,0.17226481785621384,0.5292812310434906,-0.0035466392003260364
6368,5.0,299.59912,1601.3812,0.0,0.0,0.0,0.0,0.063468643429771,0.0,-0.1285652662184039,-0.13463408716234987,-0.2235805347981808,0.15116480658130485,0.5626588951051095,-0.04477294623724576
6369,5.0,299.71281,1300.6183,0.0,0.0,0.0,0.0,0.0634786102393548,0.0,-0.12234851075985788,-0.12300039534419388,-0.15000659078949788,0.14060481536411487,0.5536966777056075,-0.037723434972013165
6370,5.0,299.00362,987.4797599999999,0.0,0.0,0.0,0.0,0.06348857704893864,0.0,-0.03766748431474126,-0.10315379470798691,-0.15934790558141385,0.13508581432193187,0.5652928184750574,-0.04556234203240305
6371,5.0,299.7819,1284.2304,0.0,0.0,0.0,0.0,0.06349854385852247,0.0,-0.11483518020834989,-0.1101842305268369,-0.16535456363172482,0.12983747264646087,0.5682076553027294,-0.017349094166972282
6372,5.0,299.77265,1481.4195,0.0,0.0,0.0,0.0,0.06350851066810628,0.0,-0.11946168016494987,-0.13363745436398985,-0.1972154024261448,0.13000277426777487,0.5596848338090925,-0.015908849329081185
6373,5.0,300.41174,1314.3349,0.0,0.0,0.0,0.0,0.0635184774776901,0.0,-0.14718378746840885,-0.1065674950898929,-0.14577372836424687,0.1085235136129369,0.5194204634553085,-0.03288762287600567
6374,5.0,300.39692,1156.9569,0.0,0.0,0.0,0.0,0.06352844428727392,0.0,-0.09110695522780642,-0.10577848736952389,-0.15480058098762786,0.13366686901439287,0.5641451911467955,-0.05801855177823524
6375,5.0,300.21009,1395.299,0.0,0.0,0.0,0.0,0.06353841109685775,0.0,-0.13366010050372487,-0.12934640098549588,-0.16112954376224783,0.15707499308959486,0.5648701715933455,-0.05310386626794354
6376,5.0,299.7579,1558.3608,0.0,0.0,0.0,0.0,0.06354837790644156,0.0,-0.14162354714715586,-0.1314105130292079,-0.20066871075445983,0.16622813720543983,0.6097356599887245,-0.03366929466565067
6377,5.0,299.8264,1456.2895,0.0,0.0,0.0,0.0,0.06355834471602538,0.0,-0.17865464656434082,-0.09897227873155341,-0.16504870395653884,0.12407472416022189,0.5423683896000925,-0.027003122257750672
6378,5.0,299.01625,1242.9967,0.0,0.0,0.0,0.0,0.06356831152560921,0.0,-0.0906769632961195,-0.09755875431204941,-0.18960424257748182,0.1064822807564829,0.5717731709471184,-0.015837773887566586
6379,5.0,299.59841,1031.8893,0.0,0.0,0.0,0.0,0.06357827833519301,0.0,-0.08677174339670432,-0.1018331143951459,-0.12506372718532888,0.13697419840080086,0.5464798140008584,-0.018507547059302683
6380,5.0,298.72700000000003,1348.7091,0.0,0.0,0.0,0.0,0.06358824514477684,0.0,-0.08731547366536632,-0.13062273134145988,-0.19203568817994682,0.12930725913413288,0.5675394472592824,-0.03519321167029957
6381,5.0,300.48924,1723.0273,0.0,0.0,0.0,0.0,0.06359821195436066,0.0,-0.18110186847086282,-0.16185121088097085,-0.18080420598898583,0.13183911782150787,0.5213559231338235,-0.05382770883463124
6382,5.0,300.36839,1365.8806,0.0,0.0,0.0,0.0,0.06360817876394449,0.0,-0.12127931912183688,-0.1290628024150069,-0.16485146469207285,0.11747472711635287,0.5504923147943614,-0.04666525666025226
6383,5.0,300.55379,887.5692300000001,0.0,0.0,0.0,0.0,0.06361814557352831,0.0,-0.09995299134434221,-0.060380875485378446,-0.10946501547335591,0.16094315640635284,0.5486524552627815,-0.02003961768750628
6384,5.0,299.76412999999997,1177.4837,0.0,0.0,0.0,0.0,0.06362811238311213,0.0,-0.07481324919274283,-0.10517720449518189,-0.17793518833083583,0.13356484486182385,0.5790963347198584,-0.01996851995448948
6385,5.0,300.14021,1591.7966,0.0,0.0,0.0,0.0,0.06363807919269594,0.0,-0.17375079979036884,-0.13126089651944187,-0.17885471279658582,0.18920453567803383,0.5348812515636694,-0.006357262039312914
6386,5.0,300.90712,1530.9111,0.0,0.0,0.0,0.0,0.06364804600227977,0.0,-0.12705213931406986,-0.14388301381014784,-0.1944236045581158,0.12264825040443988,0.5583130248962055,-0.06575985448299233
6387,5.0,301.05003999999997,1269.6178,0.0,0.0,0.0,0.0,0.06365801281186359,0.0,-0.13240030638939287,-0.12213314445110289,-0.13139865800303788,0.16128395294498685,0.5597491853229435,-0.046818178391844455
6388,5.0,299.89822999999996,1114.9551,0.0,0.0,0.0,0.0,0.06366797962144741,0.0,-0.0898017492704926,-0.0965250142685272,-0.15259172616713085,0.1235046088589559,0.5694167767795605,-0.05435390987656325
6389,5.0,300.1657,1361.3491,0.0,0.0,0.0,0.0,0.06367794643103122,0.0,-0.14127892052314386,-0.1083303780113759,-0.16420685524345482,0.11013319311929991,0.5598968259950144,-0.02671210568327958
6390,5.0,300.49962999999997,1511.9272,0.0,0.0,0.0,0.0,0.06368791324061505,0.0,-0.12520679809944887,-0.13476498894276887,-0.1996163492005998,0.08420614550749951,0.5548628981732044,-0.022177008991700376
6391,5.0,300.42225,1343.8829999999998,0.0,0.0,0.0,0.0,0.06369788005019887,0.0,-0.14118846768671686,-0.11228812276947489,-0.15503028478529784,0.1283305974952439,0.5318684131863255,0.01161780709633829
6392,5.0,300.53355,1052.7211,0.0,0.0,0.0,0.0,0.06370784685978269,0.0,-0.054526220148818944,-0.1102161681699889,-0.15525853963532485,0.14028095023465187,0.5680772702798614,-0.026971109634091273
6393,5.0,297.70727,1299.3965,0.0,0.0,0.0,0.0,0.06371781366936652,0.0,-0.11675231019255589,-0.13190577954558688,-0.14632601046375285,0.1932419624239968,0.5243249384443425,-0.03313856946202217
6394,5.0,298.75694,1828.1333,0.0,0.0,0.0,0.0,0.06372778047895032,0.0,-0.18260405227411683,-0.15397299883595186,-0.21912984386643178,0.15364421944350387,0.5327473468530695,-0.03510644098473596
6395,5.0,300.3433,1715.1967,0.0,0.0,0.0,0.0,0.06373774728853415,0.0,-0.18149443195710585,-0.14065785900684985,-0.19922467737444483,0.14537473073986887,0.5297781086275285,0.0007019811790226484
6396,5.0,300.13479,1037.7213,0.0,0.0,0.0,0.0,0.06374771409811798,0.0,-0.06973978435203083,-0.1131978085767539,-0.13250377948960487,0.11419033771220889,0.5519810527687884,-0.013366445747915488
6397,5.0,300.28456,1143.9703,0.0,0.0,0.0,0.0,0.0637576809077018,0.0,-0.09376449847083551,-0.10586400567796389,-0.14810991832481085,0.13445504586967985,0.5318813321251006,-0.019856800011713582
6398,5.0,300.50883999999996,1635.4412,0.0,0.0,0.0,0.0,0.06376764771728562,0.0,-0.14065392759646186,-0.15224813305822085,-0.2042312373110538,0.11408448347426191,0.5605702320114745,-0.057061287799260646
6399,5.0,300.18278,1574.3094,0.0,0.0,0.0,0.0,0.06377761452686943,0.0,-0.15744585275869585,-0.14113140144108488,-0.17997350302700182,0.15454613362251585,0.5562121318738635,-0.033975846390654964
6400,5.0,300.76374,1317.4749,0.0,0.0,0.0,0.0,0.06378758133645326,0.0,-0.11652699376781889,-0.11954375342304989,-0.16440874532587985,0.1068886751065909,0.5797188046537914,-0.04401252939494846
6401,5.0,300.02886,977.7686,0.0,0.0,0.0,0.0,0.06379754814603708,0.0,-0.07222005847681483,-0.10745839524031789,-0.11753878478767488,0.13923499242142387,0.5491905417283865,-0.02672202945475898
6402,5.0,299.05068,1005.4845,0.0,0.0,0.0,0.0,0.0638075149556209,0.0,-0.07628681172042213,-0.1019435687885469,-0.12741178230456388,0.12351142803212888,0.5562441607095245,-0.01949626941413198
6403,5.0,299.74172000000004,1702.3857,0.0,0.0,0.0,0.0,0.06381748176520473,0.0,-0.16816704193429483,-0.15071056656147486,-0.19860514586580183,0.14790046939663987,0.5568686774086594,0.004754967302328735
6404,5.0,299.8558,1823.6994,0.0,0.0,0.0,0.0,0.06382744857478853,0.0,-0.16116730759347486,-0.18035332995948783,-0.21283845240551982,0.15028149567412885,0.5563921762841325,-0.017760443310069284
6405,5.0,300.56136000000004,1287.6416,0.0,0.0,0.0,0.0,0.06383741538437236,0.0,-0.1160049166537939,-0.1186110972360039,-0.15679488009944983,0.14746956452661286,0.5011773412348526,-0.015812471006069386
6406,5.0,299.67003,1231.3519999999999,0.0,0.0,0.0,0.0,0.06384738219395619,0.0,-0.08895164560884392,-0.13291957680064087,-0.15242901846607285,0.16785114095061784,0.5528556699901065,-0.05120007369480386
6407,5.0,300.90112,1619.047,0.0,0.0,0.0,0.0,0.06385734900354001,0.0,-0.17641283071809083,-0.11760622671433088,-0.1981307928314868,0.14027274290884187,0.5549631390055975,-0.01165016726478199
6408,5.0,301.48418,1709.9447,0.0,0.0,0.0,0.0,0.06386731581312383,0.0,-0.15941120331516084,-0.14926882312668585,-0.21110046503899377,0.15910297263474085,0.5877096191824235,-0.01156750632162399
6409,5.0,301.24334,1272.8077,0.0,0.0,0.0,0.0,0.06387728262270764,0.0,-0.0996610223147771,-0.12866829348857187,-0.15857243488238085,0.09281872170824461,0.5632800072839085,-0.03678364145126276
6410,5.0,300.17416000000003,985.03994,0.0,0.0,0.0,0.0,0.06388724943229147,0.0,-0.06716288467121063,-0.08229503524213762,-0.14996962742584985,0.1156385355501349,0.5892364148306064,-0.04838787403601136
6411,5.0,300.29972000000004,1148.8029,0.0,0.0,0.0,0.0,0.06389721624187529,0.0,-0.1044968678480379,-0.09913103881022181,-0.14557949845257787,0.12346176864472788,0.5696730479948525,-0.036920429201512665
6412,5.0,300.18536,1460.0531,0.0,0.0,0.0,0.0,0.06390718305145911,0.0,-0.1224241600123239,-0.14048502893729287,-0.18091048579197483,0.12849254525872686,0.5621210315545264,-0.03283475756528827
6413,5.0,300.90856,1603.6601,0.0,0.0,0.0,0.0,0.06391714986104294,0.0,-0.16051634506672982,-0.13052603688441689,-0.1964302551886568,0.11753681908248088,0.5293115677514845,-0.029967883944349873
6414,5.0,300.41096,1291.1301,0.0,0.0,0.0,0.0,0.06392711667062674,0.0,-0.12275518881999388,-0.1325747576591099,-0.13714137453479988,0.11544261351079889,0.5618432389071105,-0.024250301081318378
6415,5.0,299.32551,1123.6689999999999,0.0,0.0,0.0,0.0,0.06393708348021057,0.0,-0.11342630660680489,-0.09150027763837432,-0.13664073779289088,0.14967714265198387,0.5741304365097625,-0.014174098283374587
6416,5.0,299.94455,1648.4654,0.0,0.0,0.0,0.0,0.0639470502897944,0.0,-0.15719024015596886,-0.14979790179890187,-0.19410419772909282,0.17882879385902783,0.5577203546477134,-0.03538050689828417
6417,5.0,300.47493,1942.1686,0.0,0.0,0.0,0.0,0.06395701709937822,0.0,-0.19689373604939883,-0.17293591366244584,-0.22054111887071376,0.16002823209605685,0.5429606342835425,-0.029112367500666973
6418,5.0,300.01045,1307.8698,0.0,0.0,0.0,0.0,0.06396698390896204,0.0,-0.07562143368450443,-0.1166749789449239,-0.20526334399541482,0.15378294351469485,0.5471640415283865,-0.06475746135781384
6419,5.0,299.86352,851.52949,0.0,0.0,0.0,0.0,0.06397695071854585,0.0,-0.07671017800970513,-0.06694314416177394,-0.11519038516340589,0.14136470227660988,0.5541854391563444,-0.017036838857155085
6420,5.0,299.9023,1103.9997,0.0,0.0,0.0,0.0,0.06398691752812968,0.0,-0.08944942498547091,-0.09742665385676211,-0.14871226511175786,0.12968260750117688,0.5645403384207934,-0.040217139726872665
6421,5.0,301.20082,1412.6119,0.0,0.0,0.0,0.0,0.0639968843377135,0.0,-0.15035597968897985,-0.10362884688487091,-0.17541391810700582,0.1151787834497609,0.5600083443010204,-0.014405104107423088
6422,5.0,300.62041,1399.9898,0.0,0.0,0.0,0.0,0.06400685114729732,0.0,-0.12212273837257588,-0.14561136516822287,-0.15782782778139384,0.13967843119518789,0.5834503311945645,-0.06467287118646545
6423,5.0,301.05355,1269.0478,0.0,0.0,0.0,0.0,0.06401681795688115,0.0,-0.12851373231831786,-0.099526147580716,-0.15771895405814887,0.12622328046726788,0.5854565055975585,-0.014026361352544089
6424,5.0,300.69953,1213.5586,0.0,0.0,0.0,0.0,0.06402678476646495,0.0,-0.06883313221555123,-0.13203006480285287,-0.16802833812810583,0.13265097433163187,0.5563325363832465,-0.058939652861140855
6425,5.0,301.04702000000003,1575.1504,0.0,0.0,0.0,0.0,0.06403675157604878,0.0,-0.14514391236708887,-0.15557284981634484,-0.17808962791107782,0.13366831796203588,0.5307495621609035,-0.01989091715583068
6426,5.0,300.68536,1830.6564,0.0,0.0,0.0,0.0,0.06404671838563261,0.0,-0.17690409489657483,-0.16298423727529185,-0.21658548167282277,0.14598127238222985,0.5532958359660475,-0.03202067595794467
6427,5.0,300.65531,1557.3534,0.0,0.0,0.0,0.0,0.06405668519521643,0.0,-0.18093012257891283,-0.12088452648537387,-0.17158188728881382,0.15867930237042785,0.5630154679478004,-0.012816390772129288
6428,5.0,299.56945,1014.9774,0.0,0.0,0.0,0.0,0.06406665200480025,0.0,-0.11317708761220889,-0.07930285399458234,-0.1160478480605309,0.12584484168741888,0.5330343702088964,-0.04790701390955416
6429,5.0,299.64628,1116.5462,0.0,0.0,0.0,0.0,0.06407661881438406,0.0,-0.09973632300920872,-0.07935232998371522,-0.16031352279421285,0.15139539190656184,0.5366460292628396,-0.03439083411486107
6430,5.0,299.31972,1420.2465,0.0,0.0,0.0,0.0,0.06408658562396789,0.0,-0.1026383645146179,-0.13076759570825688,-0.19831351222201984,0.13855984361479187,0.5516400130501304,-0.06293244391369864
6431,5.0,299.12514,1301.6234,0.0,0.0,0.0,0.0,0.06409655243355171,0.0,-0.1044735428307359,-0.10930795157535489,-0.18187951765761082,0.16083792025096685,0.5576370046944875,0.01141318934464409
6432,5.0,299.31718,1090.8319999999999,0.0,0.0,0.0,0.0,0.06410651924313553,0.0,-0.098177876467652,-0.1076296649047209,-0.12577813943333588,0.12792210571742887,0.5397056189997975,-0.03051235895183537
6433,5.0,299.81461,1278.4733,0.0,0.0,0.0,0.0,0.06411648605271936,0.0,-0.13150321528085687,-0.13296412940753788,-0.12415661503330389,0.12216088723884089,0.5644570999250784,-0.00932917139476753
6434,5.0,300.45435,1595.0214,0.0,0.0,0.0,0.0,0.06412645286230316,0.0,-0.15054405917254188,-0.16319955292154184,-0.17110305568905684,0.15775872412457384,0.5796311889176444,-0.06016514440658745
6435,5.0,301.52468999999996,1719.2369,0.0,0.0,0.0,0.0,0.06413641967188699,0.0,-0.15078685416150386,-0.15978953063749884,-0.2120287135881048,0.13676990691563887,0.6043360299408225,-0.02889338794205537
6436,5.0,300.59769,1378.6891,0.0,0.0,0.0,0.0,0.06414638648147081,0.0,-0.1007847551791809,-0.13277607018897786,-0.18552624529751482,0.14122575529039688,0.5731118364492345,-0.028714661770166475
6437,5.0,300.02872,911.4992800000001,0.0,0.0,0.0,0.0,0.06415635329105464,0.0,-0.08816838099004173,-0.06990257919259744,-0.1190020597870889,0.12332979281920288,0.5458518015888785,-0.014821792065296985
6438,5.0,299.39639,1190.6178,0.0,0.0,0.0,0.0,0.06416632010063845,0.0,-0.1118315928044189,-0.1058914343581709,-0.14419506444344485,0.16316738223086685,0.5636528529232054,-0.034610156152006466
6439,5.0,300.03462,1613.0751,0.0,0.0,0.0,0.0,0.06417628691022227,0.0,-0.18903778510907682,-0.11907826632710988,-0.18221852074356784,0.15308688122599884,0.5556433743277315,-0.014901788160691985
6440,5.0,299.65154,1512.2715,0.0,0.0,0.0,0.0,0.06418625371980609,0.0,-0.14684323410979885,-0.13798497617055686,-0.17486457443278983,0.16615411928563484,0.5332814005832764,-0.05395457686640215
6441,5.0,299.19596,1231.5849,0.0,0.0,0.0,0.0,0.06419622052938992,0.0,-0.07984547982063532,-0.13606163496323787,-0.15846393606167286,0.09583362002304191,0.5483290967583685,-0.05712514991331335
6442,5.0,299.3258,1234.0847,0.0,0.0,0.0,0.0,0.06420618733897374,0.0,-0.06476759487206395,-0.14027700869176288,-0.17008633014121383,0.15056407086201687,0.5699878040059164,-0.05238487412948454
6443,5.0,301.38642000000004,1567.6641,0.0,0.0,0.0,0.0,0.06421615414855755,0.0,-0.13195396972034287,-0.16279615779172982,-0.18178060418284883,0.1097409133430849,0.5798779558469984,-0.01067253290579699
6444,5.0,301.30284,1615.9062,0.0,0.0,0.0,0.0,0.06422612095814137,0.0,-0.15916391962825585,-0.14273086738643986,-0.18930034860748982,0.13397371154217586,0.5491348636353915,-0.01999062603192118
6445,5.0,300.87775,1237.3015,0.0,0.0,0.0,0.0,0.0642360877677252,0.0,-0.14381143782308387,-0.1085154785396439,-0.12378183408631588,0.1013612134260729,0.5393457328292796,-0.015910563748250384
6446,5.0,300.45082,859.58091,0.0,0.0,0.0,0.0,0.06424605457730902,0.0,-0.06002211706222174,-0.07358650527017263,-0.12768251259878288,0.15635773360880684,0.5808980251201715,-0.045108670445879157
6447,5.0,299.80683,1149.8891,0.0,0.0,0.0,0.0,0.06425602138689283,0.0,-0.07305335941205522,-0.1152695706587209,-0.16121464663814683,0.14200271546707685,0.5740058776749694,-0.04756825197712096
6448,5.0,299.85782,1698.1987,0.0,0.0,0.0,0.0,0.06426598819647666,0.0,-0.14541787492912686,-0.15590834705695586,-0.2148837686598768,0.17281587392309883,0.5541268631680635,-0.025807827591784273
6449,5.0,299.53067000000004,1538.957,0.0,0.0,0.0,0.0,0.06427595500606047,0.0,-0.15844702491750384,-0.11445063153039789,-0.1949068437958078,0.12594767644006788,0.5538799037211904,-0.019060595175884282
6450,5.0,299.41874,923.24582,0.0,0.0,0.0,0.0,0.06428592181564431,0.0,-0.06658271488920234,-0.1010162382440265,-0.1130447267516459,0.16958700049193384,0.5605653582784935,-0.024903770388810774
6451,5.0,299.65246,1040.6092,0.0,0.0,0.0,0.0,0.06429588862522813,0.0,-0.11417983030867188,-0.07983343126369623,-0.1223059441231569,0.13476735994800287,0.5576053406288625,-0.008150188738186003
6452,5.0,300.1666,1800.9418,0.0,0.0,0.0,0.0,0.06430585543481193,0.0,-0.16143811894770185,-0.15706408038601785,-0.2289391282170328,0.14912403981989686,0.5340593841425575,-0.030083029685713872
6453,5.0,299.84717,1834.1077,0.0,0.0,0.0,0.0,0.06431582224439576,0.0,-0.17243416234542683,-0.17358306636881482,-0.2115057144164888,0.14102492912057688,0.5546194547041785,-0.04356155811994106
6454,5.0,299.75462999999996,1289.9286,0.0,0.0,0.0,0.0,0.06432578905397958,0.0,-0.09336623545278,-0.1187802289426959,-0.17995962150063183,0.14600370573944388,0.5620777759077575,-0.02005330061685668
6455,5.0,301.04229,1096.4317,0.0,0.0,0.0,0.0,0.06433575586356341,0.0,-0.10446871976025991,-0.09794859519527371,-0.13087053178591587,0.14440187892135586,0.5846630598417514,-0.01878387353382398
6456,5.0,301.17014,1225.3376,0.0,0.0,0.0,0.0,0.06434572267314723,0.0,-0.08986183601467272,-0.1064158622124279,-0.17619433346652685,0.11975600905399787,0.5452844321953835,0.0025351779933775877
6457,5.0,300.8976,1514.8684,0.0,0.0,0.0,0.0,0.06435568948273104,0.0,-0.15984804583077383,-0.13064592463624888,-0.16998819686902883,0.14363737158840487,0.5647285394943675,-0.02607615547001618
6458,5.0,300.99269,1558.6508,0.0,0.0,0.0,0.0,0.06436565629231487,0.0,-0.1155091029823609,-0.13810635340003588,-0.2201754470421248,0.13842677347915885,0.5578541340584164,-0.038709456002075864
6459,5.0,300.64811000000003,1149.195,0.0,0.0,0.0,0.0,0.06437562310189868,0.0,-0.09143638614006873,-0.1151217881316359,-0.14276839817014386,0.15527794337473985,0.5705990673937434,-0.07351773395938542
6460,5.0,299.82271000000003,1003.1665,0.0,0.0,0.0,0.0,0.06438558991148251,0.0,-0.08088343802432382,-0.10493064021584791,-0.11912347754657189,0.12754842921304987,0.5539266753458065,-0.05123721235071915
6461,5.0,300.09186,1540.0762,0.0,0.0,0.0,0.0,0.06439555672106634,0.0,-0.16732084637828185,-0.12145648590182188,-0.17936737681718185,0.14529532232953185,0.5646001404416955,-0.044397901845231756
6462,5.0,300.15337999999997,1671.6643,0.0,0.0,0.0,0.0,0.06440552353065014,0.0,-0.19051605620997084,-0.11054655863009591,-0.2070815807698608,0.14058667818732487,0.5689734697283094,-0.006359654120148993
6463,5.0,299.60703,1093.3661,0.0,0.0,0.0,0.0,0.06441549034023397,0.0,-0.10700780292084791,-0.09596392702565221,-0.12938426614173287,0.13560516579318788,0.5597196389500275,-0.029652171425191474
6464,5.0,299.80282,930.4938699999999,0.0,0.0,0.0,0.0,0.06442545714981779,0.0,-0.06059769884777724,-0.07588363950563214,-0.14636556774765686,0.14111436870690386,0.5420294169116384,-0.022061529891053477
6465,5.0,299.8237,1414.6526,0.0,0.0,0.0,0.0,0.06443542395940162,0.0,-0.12391185433914788,-0.12851440106338388,-0.17759279085704383,0.13634796930899687,0.5541817711909824,-0.049919274905898856
6466,5.0,300.55107000000004,1780.4674,0.0,0.0,0.0,0.0,0.06444539076898544,0.0,-0.18220511544474483,-0.16495876787766284,-0.19405374800661382,0.16991751254205284,0.5507376631735755,-0.004215741639636306
6467,5.0,300.86566,1584.2145,0.0,0.0,0.0,0.0,0.06445535757856925,0.0,-0.16361802521284186,-0.13778628795844788,-0.18015733699264483,0.15397686945133385,0.5677309413956815,-0.026674837331351474
6468,5.0,300.30034,1233.1278,0.0,0.0,0.0,0.0,0.06446532438815308,0.0,-0.13543565918395886,-0.10050275653059981,-0.13890164327102486,0.15319782197944784,0.5720017905671815,-0.01016621487057729
6469,5.0,301.04046,1073.5674,0.0,0.0,0.0,0.0,0.06447529119773689,0.0,-0.08964098903612683,-0.08440863644723383,-0.15228806524466187,0.13447483464413287,0.5743460257335394,-0.04914820069904975
6470,5.0,300.45262,1487.1343,0.0,0.0,0.0,0.0,0.06448525800732072,0.0,-0.0906572971249286,-0.14614927938131086,-0.21524511391053877,0.12623211600813986,0.5636082395213025,-0.04004608892449126
6471,5.0,300.57915,1791.4418,0.0,0.0,0.0,0.0,0.06449522481690455,0.0,-0.16055591248313483,-0.15836913638231687,-0.2256285057677998,0.12757442921061588,0.5728334155867564,-0.05537952466753355
6472,5.0,299.57796,1345.8713,0.0,0.0,0.0,0.0,0.06450519162648836,0.0,-0.12178983505222088,-0.1060448708208139,-0.18127655278810284,0.13846862070828886,0.5545708490968815,-0.03199355429251797
6473,5.0,299.44218,749.73035,0.0,0.0,0.0,0.0,0.06451515843607218,0.0,-0.05115488375359395,-0.085185953287949,-0.09155846960486741,0.11314565659410689,0.5552036136518305,-0.028155175462449476
6474,5.0,299.00101,1161.748,0.0,0.0,0.0,0.0,0.064525125245656,0.0,-0.1077688956009619,-0.0882940280554421,-0.15707944125753387,0.12827350085210887,0.5623710307516995,-0.017075663561236784
6475,5.0,298.7869,1876.5545,0.0,0.0,0.0,0.0,0.06453509205523983,0.0,-0.15847551751031586,-0.16277817260245483,-0.24917201018886279,0.1263536350926329,0.5742051637046375,-0.016542788240896084
6476,5.0,298.32203,1657.3129999999999,0.0,0.0,0.0,0.0,0.06454505886482365,0.0,-0.13415359383242886,-0.15489179376162984,-0.2147364015653328,0.15324170584127886,0.5823535994188255,-0.04702641648614595
6477,5.0,298.59378,1099.9571,0.0,0.0,0.0,0.0,0.06455502567440746,0.0,-0.0857154788034591,-0.11905120241693888,-0.12959282340981587,0.1223118209737369,0.5628175903357714,-0.024638805487660776
6478,5.0,299.68517,930.62914,0.0,0.0,0.0,0.0,0.0645649924839913,0.0,-0.0930178446046465,-0.09601315375526051,-0.09385702239046691,0.14137341622746988,0.5590626171876845,-0.03759112173420487
6479,5.0,300.66446,1493.2971,0.0,0.0,0.0,0.0,0.0645749592935751,0.0,-0.15873539589596383,-0.1214914025002679,-0.17369824250768184,0.12410360178807188,0.5330690942898235,-0.012095053972938887
6480,5.0,300.29655,1698.0429,0.0,0.0,0.0,0.0,0.06458492610315893,0.0,-0.1974646518182438,-0.10837032033031789,-0.2103276794527258,0.17024490378186385,0.5525616349435875,-0.017762319849254485
6481,5.0,299.82597999999996,1295.4991,0.0,0.0,0.0,0.0,0.06459489291274276,0.0,-0.08212213424507363,-0.12036356394645889,-0.1913136765561898,0.15020909895448387,0.5355931205539255,-0.04762954448892005
6482,5.0,301.09933,907.6298800000001,0.0,0.0,0.0,0.0,0.06460485972232657,0.0,-0.041901326552838965,-0.0912815554452881,-0.14271393597726886,0.15310319455260885,0.5557043213212465,-0.03899738013724176
6483,5.0,299.97348,1200.2314,0.0,0.0,0.0,0.0,0.06461482653191039,0.0,-0.0891115638323766,-0.12323456757480487,-0.15249424137500986,0.13774098554647687,0.5663635806507334,-0.06157624918485265
6484,5.0,300.03257,1839.276,0.0,0.0,0.0,0.0,0.06462479334149421,0.0,-0.2036160526453398,-0.15217511825601485,-0.2033028165094258,0.17045748365284383,0.5920745587582095,-0.011947147829341687
6485,5.0,300.55851,1485.5071,0.0,0.0,0.0,0.0,0.06463476015107804,0.0,-0.14985721745975586,-0.13969563618188585,-0.16200420151356987,0.13209063689383088,0.5773765149276254,-0.03354540660242387
6486,5.0,298.88478,754.7634099999999,0.0,0.0,0.0,0.0,0.06464472696066186,0.0,-0.058528895456102244,-0.06882720774221654,-0.1020731229463329,0.12311056602756687,0.5879019847139084,-0.01056756931468789
6487,5.0,298.68458,1037.9701,0.0,0.0,0.0,0.0,0.06465469377024567,0.0,-0.04620316901839776,-0.1154401918430599,-0.15387362939864485,0.11200342988887789,0.5760857052277324,-0.039676454274761165
6488,5.0,299.13137,1802.7902,0.0,0.0,0.0,0.0,0.0646646605798295,0.0,-0.18136978192980382,-0.15965256962148186,-0.2069808637099208,0.14716560976161486,0.5753156047542295,-0.027718493040352274
6489,5.0,298.93102000000005,1897.745,0.0,0.0,0.0,0.0,0.0646746273894133,0.0,-0.17422255890442784,-0.18222967662716882,-0.2204148476432518,0.15844075289938483,0.5291954087600205,-0.03655753671794797
6490,5.0,299.07309,1354.9285,0.0,0.0,0.0,0.0,0.06468459419899714,0.0,-0.14038264001468787,-0.1271130255125789,-0.14436876590808786,0.14992837801427886,0.5377834632950955,-0.03592139398716557
6491,5.0,300.06486,1024.2452,0.0,0.0,0.0,0.0,0.06469456100858095,0.0,-0.07800723034346423,-0.09089322937096331,-0.14244449251067687,0.17444248483863284,0.5281424899186055,-0.018071392540507585
6492,5.0,299.67797,1329.1616,0.0,0.0,0.0,0.0,0.06470452781816478,0.0,-0.1120998001058889,-0.12117314064385788,-0.17075898635259984,0.15213607772966187,0.5534056925418895,-0.03194865920708717
6493,5.0,300.91323,1861.7536,0.0,0.0,0.0,0.0,0.0647144946277486,0.0,-0.14030742645976488,-0.17160299328839684,-0.25401619679694676,0.16319022088812085,0.5617134213042985,-0.037770836838191366
6494,5.0,300.46272,1546.2588,0.0,0.0,0.0,0.0,0.06472446143733242,0.0,-0.14614214610060686,-0.12501386514790788,-0.1988680538692488,0.1059190352908949,0.5589613327076884,-0.043064888252173555
6495,5.0,300.09975,837.16201,0.0,0.0,0.0,0.0,0.06473442824691623,0.0,-0.06402046477832794,-0.09617224516671159,-0.0942836381728206,0.13126517243486388,0.5707691211580265,-0.04819482152095855
6496,5.0,300.33321,1055.7371,0.0,0.0,0.0,0.0,0.06474439505650006,0.0,-0.11036568335474489,-0.09394991209338441,-0.1166021363952349,0.09758761066164731,0.5642825169328485,-0.024046750281979477
6497,5.0,299.30818,1792.1548,0.0,0.0,0.0,0.0,0.06475436186608387,0.0,-0.16796990399483883,-0.14872650127566286,-0.22807389369164077,0.16196100666180682,0.5427843591636454,-0.015802759003860883
6498,5.0,299.88997,1917.7920000000001,0.0,0.0,0.0,0.0,0.0647643286756677,0.0,-0.17270614906976983,-0.16100323200478184,-0.24925147939420575,0.12548973805737287,0.5516747168660555,0.0035723527520887667
6499,5.0,300.00858999999997,1254.152,0.0,0.0,0.0,0.0,0.06477429548525152,0.0,-0.08601601992887023,-0.11695293371235589,-0.17826193109058283,0.16338272827461986,0.5590263225691025,-0.03990983110404366
6500,5.0,299.251,1054.9112,0.0,0.0,0.0,0.0,0.06478426229483535,0.0,-0.11231449766957788,-0.0959345985015077,-0.11241757560225091,0.13890407507126487,0.5824095105593434,-0.015987271847070883
6501,5.0,299.85787999999997,1530.1889999999999,0.0,0.0,0.0,0.0,0.06479422910441916,0.0,-0.16738534987964784,-0.12893601442999386,-0.16881788287102784,0.16725630234691183,0.5591134215476985,-0.05424043397136404
6502,5.0,300.29282,1836.5808,0.0,0.0,0.0,0.0,0.06480419591400298,0.0,-0.2033665195432128,-0.14662742197099984,-0.20828076226321082,0.14602910791945084,0.5763626568775654,-0.02683464004437277
6503,5.0,299.7638,1519.9821,0.0,0.0,0.0,0.0,0.06481416272358681,0.0,-0.11056240586165991,-0.13089729172105688,-0.22057690686424578,0.16986694122956184,0.5583472119545795,-0.04225559323830236
6504,5.0,300.75487000000004,1058.7939999999999,0.0,0.0,0.0,0.0,0.06482412953317061,0.0,-0.07031500643380084,-0.0912169850694155,-0.16031495147685385,0.14384305122620386,0.5796881741032684,-0.004398920437764646
6505,5.0,300.5734,1092.6641,0.0,0.0,0.0,0.0,0.06483409634275444,0.0,-0.06911004130888003,-0.11229150702480889,-0.15074105525698386,0.14258085570913487,0.5389520041054214,-0.04134973447665106
6506,5.0,300.07421,1679.5839999999998,0.0,0.0,0.0,0.0,0.06484406315233827,0.0,-0.17882862160651083,-0.14826098378221989,-0.18346199139878883,0.13590423669270388,0.5383952333079725,-0.03804447617344746
6507,5.0,300.21714,1898.878,0.0,0.0,0.0,0.0,0.06485402996192208,0.0,-0.2060646829695008,-0.17248710466315184,-0.19865970938368682,0.15601587315756787,0.5603346614957255,-0.029197987134116973
6508,5.0,299.64626,1199.7508,0.0,0.0,0.0,0.0,0.06486399677150591,0.0,-0.09453534266991191,-0.1263361261309049,-0.14382280648920587,0.12492509430664689,0.6036193277475894,-0.045931779098363656
6509,5.0,300.012,885.2035699999999,0.0,0.0,0.0,0.0,0.06487396358108972,0.0,-0.046365803765448556,-0.08423088198219082,-0.13848310005221787,0.12504851830132788,0.5886233478576014,-0.02004168066470988
6510,5.0,299.93093999999996,1381.0255,0.0,0.0,0.0,0.0,0.06488393039067356,0.0,-0.1019335477450579,-0.11774410978793888,-0.20011962039276882,0.12065361692008487,0.5742724435112775,-0.03919760646300256
6511,5.0,299.52574,1692.9294,0.0,0.0,0.0,0.0,0.06489389720025737,0.0,-0.16355370409649383,-0.12849593964656186,-0.2225586315423268,0.12767019147756686,0.5741299805472175,-0.015597908204643685
6512,5.0,299.46196000000003,1428.5745,0.0,0.0,0.0,0.0,0.06490386400984119,0.0,-0.16456557617635784,-0.12491993686363789,-0.14476544318973686,0.16333165033707886,0.5761705446586054,-0.04501768261339936
6513,5.0,299.23713,1016.8486,0.0,0.0,0.0,0.0,0.06491383081942502,0.0,-0.11806991022509288,-0.05908145619938574,-0.1319452253719799,0.16629798053483286,0.5334191519343715,-0.03742380475844197
6514,5.0,300.49722,1114.8305,0.0,0.0,0.0,0.0,0.06492379762900882,0.0,-0.10849719950783988,-0.1046598085966189,-0.12572361644545488,0.15536711951604085,0.5496199368557645,-0.04173380287405566
6515,5.0,301.14437000000004,1660.2936,0.0,0.0,0.0,0.0,0.06493376443859265,0.0,-0.13643914155299489,-0.14182283317682384,-0.2264258221389888,0.15930692974736985,0.5292618374365765,-0.016713954553788886
6516,5.0,300.82555,1917.1848,0.0,0.0,0.0,0.0,0.06494373124817648,0.0,-0.18749696607950983,-0.16446706800163585,-0.23081228314689878,0.15920572632738184,0.5892254615970254,-0.020993223833619876
6517,5.0,301.17126,1394.2846,0.0,0.0,0.0,0.0,0.06495369805776029,0.0,-0.11198994353004689,-0.13346768430973488,-0.17837007527375584,0.11867947135275189,0.5634794149035884,-0.028930281391446475
6518,5.0,301.07506,1002.4536,0.0,0.0,0.0,0.0,0.06496366486734412,0.0,-0.1298118171539289,-0.1081519345362649,-0.06675711549641435,0.13362971313322586,0.5847415056644935,-0.04664148581290625
6519,5.0,300.58724,1444.2866,0.0,0.0,0.0,0.0,0.06497363167692793,0.0,-0.1229439066511189,-0.14551919993912688,-0.17056395597335183,0.13263563372511789,0.5783021898214824,-0.04390265052760425
6520,5.0,300.22407999999996,1782.7271,0.0,0.0,0.0,0.0,0.06498359848651176,0.0,-0.18835609070679882,-0.15614066503988386,-0.1974077679576298,0.15679972343492785,0.6005780778374414,-0.029654340793655573
6521,5.0,300.04174,1269.5908,0.0,0.0,0.0,0.0,0.06499356529609558,0.0,-0.05322888613153205,-0.11935387035430989,-0.21334113591263082,0.1374096324987749,0.5608589576274694,-0.03258441994258187
6522,5.0,299.80172999999996,686.87283,0.0,0.0,0.0,0.0,0.0650035321056794,0.0,-0.040451992861550864,-0.05944010823128194,-0.10890008801260188,0.12133974935780088,0.5784881110823314,-0.051424830805485655
6523,5.0,300.01935,959.0703199999999,0.0,0.0,0.0,0.0,0.06501349891526323,0.0,-0.06207294033087224,-0.08046349550712872,-0.14899699852235884,0.14757508439202685,0.5758576631602265,-0.027741050014078474
6524,5.0,299.72291,1545.1867,0.0,0.0,0.0,0.0,0.06502346572484703,0.0,-0.1963096784267568,-0.1204050970680579,-0.15298340812578687,0.13545511358587886,0.5729392292946994,-0.044871941785265865
6525,5.0,298.73325,1799.1398,0.0,0.0,0.0,0.0,0.06503343253443086,0.0,-0.18351556193157584,-0.17141758878509883,-0.19196043409501984,0.16757660083602285,0.5553016759965085,-0.037245094798554666
6526,5.0,300.01606,1405.8784,0.0,0.0,0.0,0.0,0.0650433993440147,0.0,-0.15975619470920885,-0.12110529341716189,-0.14649044068998085,0.13780329029512586,0.5387339526839015,-0.04307898762731505
6527,5.0,300.95705,1060.0753,0.0,0.0,0.0,0.0,0.0650533661535985,0.0,-0.04387848451271926,-0.11876576986376888,-0.15959216978302085,0.16783438179396384,0.5548428662187275,-0.018155089025267784
6528,5.0,299.97253,1376.9456,0.0,0.0,0.0,0.0,0.06506333296318233,0.0,-0.1005361512273956,-0.13695096457600786,-0.18106997135771483,0.13651832704830988,0.5688837059019505,-0.04373026527484116
6529,5.0,300.92872,2020.4992,0.0,0.0,0.0,0.0,0.06507329977276614,0.0,-0.19837661743824783,-0.15105010666998483,-0.26475459095924375,0.15069120335206385,0.5702151367983525,0.006287582451136074
6530,5.0,301.26203,1632.9004,0.0,0.0,0.0,0.0,0.06508326658234997,0.0,-0.18502828353586984,-0.15402889984396884,-0.15730378496217484,0.13391724311410289,0.5772183769845185,-0.03850970286411176
6531,5.0,299.53735,797.13247,0.0,0.0,0.0,0.0,0.06509323339193379,0.0,-0.06574398495992614,-0.06008957418762924,-0.1164748113876689,0.15039068350490487,0.5917729446009424,-0.016484132205857184
6532,5.0,299.66321,1014.5584,0.0,0.0,0.0,0.0,0.06510320020151761,0.0,-0.08723619292454192,-0.07728623602280763,-0.14387797795715085,0.13921121144157686,0.5920015338235024,-0.043697227242080555
6533,5.0,299.68883999999997,1828.5286,0.0,0.0,0.0,0.0,0.06511316701110144,0.0,-0.14708726526388285,-0.15253526787155886,-0.2562044826404138,0.13445794376496586,0.5423555010588205,0.005548929309061684
6534,5.0,299.26025,1812.8836,0.0,0.0,0.0,0.0,0.06512313382068524,0.0,-0.15376626541804886,-0.15659436803716087,-0.24071071324129778,0.12590541377839687,0.5494717591611404,-0.034421891243676166
6535,5.0,300.5459,1325.5549,0.0,0.0,0.0,0.0,0.06513310063026907,0.0,-0.11721013711773988,-0.11768079178918987,-0.16804465145471584,0.14941889559899685,0.5881363899920424,-0.023187456441923777
6536,5.0,299.75496,1042.1318,0.0,0.0,0.0,0.0,0.0651430674398529,0.0,-0.11818532954398389,-0.10118350455728439,-0.09741321917368621,0.14243557590979689,0.5874068803175455,-0.044165200853765955
6537,5.0,300.29811,1536.9329,0.0,0.0,0.0,0.0,0.0651530342494367,0.0,-0.15471887249956384,-0.12868701835041987,-0.18378334366800383,0.13644753126382286,0.5574030756439005,-0.040858738809443566
6538,5.0,301.04822,2054.3972,0.0,0.0,0.0,0.0,0.06516300105902054,0.0,-0.18433070137202381,-0.2169619040849728,-0.2231928551774198,0.13448941531307188,0.5507246834397945,-0.048463328744458155
6539,5.0,300.72263,1606.0877,0.0,0.0,0.0,0.0,0.06517296786860435,0.0,-0.11723752526794289,-0.13320068277588387,-0.2377723588788048,0.15248890154698286,0.5742221153788104,-0.026368796284397575
6540,5.0,300.21768,898.5691300000001,0.0,0.0,0.0,0.0,0.06518293467818818,0.0,-0.04807349292748436,-0.08890894319662951,-0.13616014313795988,0.13677376739851987,0.5733702861522414,-0.02150533664616148
6541,5.0,299.43705,996.73266,0.0,0.0,0.0,0.0,0.065192901487772,0.0,-0.08211367664648893,-0.07720360953015303,-0.14366455708858786,0.12798610259374488,0.5487357241559995,-0.01918089329400678
6542,5.0,298.91562000000005,1825.4272,0.0,0.0,0.0,0.0,0.06520286829735582,0.0,-0.20288762714844982,-0.14613163869706988,-0.20586503216979682,0.14576454831834088,0.5434306708724315,-0.012362330097566987
6543,5.0,299.93262000000004,1983.4263,0.0,0.0,0.0,0.0,0.06521283510693963,0.0,-0.19518866917862182,-0.16206421631699283,-0.2456591936821748,0.14099302187492788,0.5888692839218734,-0.03318845987044597
6544,5.0,299.41693,1105.6439,0.0,0.0,0.0,0.0,0.06522280191652345,0.0,-0.1015316015628889,-0.08718226167471932,-0.14737428861970986,0.16431340862397084,0.5765629156273294,-0.042315323318447264
6545,5.0,298.96443,950.3020300000001,0.0,0.0,0.0,0.0,0.06523276872610728,0.0,-0.043713452415931865,-0.07731351170224952,-0.16784111990712883,0.1267778322469979,0.5457819379944835,-0.02344624963671468
6546,5.0,299.62504,1601.4589999999998,0.0,0.0,0.0,0.0,0.0652427355356911,0.0,-0.14603323184735786,-0.16237764497042584,-0.17839268088348684,0.15634748965029585,0.5588241994391545,-0.03103353528652147
6547,5.0,298.05994,1926.3725,0.0,0.0,0.0,0.0,0.06525270234527493,0.0,-0.2093494979386868,-0.14911124247113386,-0.22710838793635277,0.15314313687155084,0.5851226295571075,-0.013949649200723184
6548,5.0,298.06785,1647.5592,0.0,0.0,0.0,0.0,0.06526266915485875,0.0,-0.19222766867639382,-0.14700187867795586,-0.16158729975992486,0.17714852121819782,0.6043771172323774,-0.044684687087285256
6549,5.0,297.98719,962.83472,0.0,0.0,0.0,0.0,0.06527263596444256,0.0,-0.08356941205190882,-0.08138308988713562,-0.12772521095799688,0.1072279112400709,0.5598890948967514,-0.03464503120719836
6550,5.0,298.80206,899.6894199999999,0.0,0.0,0.0,0.0,0.06528260277402638,0.0,-0.06147979284158314,-0.09028192747963251,-0.1217214001404669,0.14213685964781586,0.5466644484340805,-0.06230126813490643
6551,5.0,299.26068,1556.7591,0.0,0.0,0.0,0.0,0.06529256958361021,0.0,-0.1117222833836309,-0.13983897054103187,-0.2216546604656118,0.14909323701685687,0.5812025067752215,-0.03811385746079486
6552,5.0,299.40969,1666.5127,0.0,0.0,0.0,0.0,0.06530253639319401,0.0,-0.15929527737121985,-0.12311859096835889,-0.2241643897708028,0.1847620419395938,0.5772111727763074,-0.026834537706112677
6553,5.0,299.47951,962.78126,0.0,0.0,0.0,0.0,0.06531250320277784,0.0,-0.08755502220100791,-0.08501286382636643,-0.12009357332481288,0.14065014817358887,0.5357742086117975,-0.022921337448909875
6554,5.0,300.60389,768.28756,0.0,0.0,0.0,0.0,0.06532247001236166,0.0,-0.07753892438574603,-0.09125349247051852,-0.06474781724336204,0.14999806935615687,0.5615915070522665,-0.06601188018036534
6555,5.0,300.62833,1548.1198,0.0,0.0,0.0,0.0,0.06533243682194549,0.0,-0.13919366194984487,-0.15673830021386587,-0.17465781061738384,0.14393726322050185,0.6073802385412624,-0.03171581332085707
6556,5.0,300.71038,2079.3076,0.0,0.0,0.0,0.0,0.06534240363152931,0.0,-0.21245484605016077,-0.18927486536747481,-0.23032788880409277,0.16701859387345183,0.5881107344995105,-0.05810160788893225
6557,5.0,299.69219,1482.4511,0.0,0.0,0.0,0.0,0.06535237044111313,0.0,-0.10585945618501491,-0.1319018380026979,-0.2128668335408208,0.1218922239748259,0.5466273533479195,-0.044316364596434656
6558,5.0,299.82912000000005,858.52375,0.0,0.0,0.0,0.0,0.06536233725069696,0.0,-0.08174877286147572,-0.058455490552607736,-0.1207655202611289,0.13484324224799185,0.5269370060096334,-0.04465438280329446
6559,5.0,301.2802,1195.6616,0.0,0.0,0.0,0.0,0.06537230406028076,0.0,-0.11994561854521088,-0.1034572833779389,-0.14004835867419685,0.14007868524968986,0.5841553607466454,-0.033426187595657866
6560,5.0,300.05631,1600.2159,0.0,0.0,0.0,0.0,0.06538227086986459,0.0,-0.1851562570234998,-0.1036384727608209,-0.1976309362921548,0.16881242145298883,0.5702604594753254,-0.011564658075592888
6561,5.0,298.99608,1682.2529,0.0,0.0,0.0,0.0,0.06539223767944842,0.0,-0.15281687033935085,-0.13339985734804088,-0.2251461581901958,0.13335698673630988,0.5572370546150154,-0.01684976857069268
6562,5.0,298.80843,1205.2291,0.0,0.0,0.0,0.0,0.06540220448903222,0.0,-0.09721387842851281,-0.09681663474005792,-0.17232902751505083,0.14089660099541185,0.5662854894655265,-0.01997133881626768
6563,5.0,299.014,1031.458,0.0,0.0,0.0,0.0,0.06541217129861605,0.0,-0.03772891158880366,-0.11424388797999388,-0.16156466375269085,0.1267371705204849,0.6075644474094425,-0.034311829991313963
6564,5.0,299.54164,1583.5995,0.0,0.0,0.0,0.0,0.06542213810819987,0.0,-0.16293412192534584,-0.14294734827030486,-0.17549321505983181,0.13830149523679486,0.5826188074999994,-0.02038201617454838
6565,5.0,300.11127,2081.4398,0.0,0.0,0.0,0.0,0.0654321049177837,0.0,-0.23838282179905276,-0.16476258239330083,-0.22956032145583977,0.12784207922453086,0.5629394437927975,-0.026663511221733674
6566,5.0,299.24482,1533.1806,0.0,0.0,0.0,0.0,0.06544207172736752,0.0,-0.17310136727127484,-0.14622753268653385,-0.14671972905510985,0.1327196726884119,0.5363843168945105,-0.04871692801923645
6567,5.0,300.54024,962.05657,0.0,0.0,0.0,0.0,0.06545203853695133,0.0,-0.06727497647677323,-0.0951306949914186,-0.13003550224600488,0.15555842113492085,0.5908599353333355,-0.04534461282441486
6568,5.0,300.55259,1067.3623,0.0,0.0,0.0,0.0,0.06546200534653517,0.0,-0.049135968743842545,-0.09115572295511941,-0.1841597863451558,0.13118328156178188,0.5850839943307944,-0.04070673305594176
6569,5.0,300.47679,1430.8565,0.0,0.0,0.0,0.0,0.06547197215611897,0.0,-0.08616745927556611,-0.13171090115385387,-0.2170662891102748,0.13509397098523687,0.5759795368822545,-0.03243013437635507
6570,5.0,301.24567,1580.8346,0.0,0.0,0.0,0.0,0.0654819389657028,0.0,-0.16344414136318083,-0.12235124653512788,-0.19473886719422978,0.12506873264082288,0.5708878538047445,-0.03148220648380187
6571,5.0,300.34427999999997,1249.5649,0.0,0.0,0.0,0.0,0.06549190577528663,0.0,-0.11309765893686988,-0.11778870292483988,-0.14895015597023586,0.15351173699292883,0.6039663861718414,-0.04562052082664486
6572,5.0,300.12047,1065.3524,0.0,0.0,0.0,0.0,0.06550187258487043,0.0,-0.10475938068394591,-0.10237743234886591,-0.1167037248502609,0.13614586644405086,0.5634485411730414,-0.03051580805517577
6573,5.0,299.1529,1558.6548,0.0,0.0,0.0,0.0,0.06551183939445426,0.0,-0.13243170700999188,-0.14352382678219888,-0.19783660579745282,0.12449091663879688,0.5348931065898396,-0.03781771890706826
6574,5.0,298.89571,2074.6448,0.0,0.0,0.0,0.0,0.06552180620403808,0.0,-0.17319930802594083,-0.19124890960979782,-0.26619198755110374,0.14398988129819487,0.5433216451616715,-0.022525231640317278
6575,5.0,299.26448,1574.8105,0.0,0.0,0.0,0.0,0.06553177301362191,0.0,-0.14127527282278385,-0.12892817187421987,-0.2084996040198088,0.14874804297278887,0.5839484652087265,-0.04684256326875105
6576,5.0,299.66967,849.39256,0.0,0.0,0.0,0.0,0.06554173982320573,0.0,-0.11112945101512291,-0.057250217399656536,-0.08981446353274741,0.16005824456401885,0.5777072296277644,0.003901110157009596
6577,5.0,299.25164,1021.0995,0.0,0.0,0.0,0.0,0.06555170663278954,0.0,-0.1184933373093819,-0.08328411527425222,-0.1086113016016009,0.13515656957641486,0.5494546858969555,-0.04638101771570005
6578,5.0,299.82475,1769.2464,0.0,0.0,0.0,0.0,0.06556167344237337,0.0,-0.23072223561051178,-0.1022905258877889,-0.2047939660190908,0.15829656741015485,0.5407086859362924,0.022162249990743777
6579,5.0,300.2877,1718.9708,0.0,0.0,0.0,0.0,0.06557164025195718,0.0,-0.14153666095108086,-0.1338602072659739,-0.2471273322820688,0.15375020540396386,0.5826386469369574,-0.05428140777890786
6580,5.0,300.15342000000004,1276.7013,0.0,0.0,0.0,0.0,0.06558160706154101,0.0,-0.06835201573681873,-0.11238140257368089,-0.2073518854990378,0.13753426226107487,0.5694564455209755,-0.004149253586624446
6581,5.0,300.35528999999997,1155.1085,0.0,0.0,0.0,0.0,0.06559157387112484,0.0,-0.06801746993805163,-0.1125691274197079,-0.17053753041074382,0.095259766842157,0.5668330599520675,-0.06485596851928574
6582,5.0,300.16504,1680.6462,0.0,0.0,0.0,0.0,0.06560154068070864,0.0,-0.2040655709197038,-0.15566393086783387,-0.15114498740934884,0.11999906748798589,0.5587855743453425,-0.01204239435199179
6583,5.0,299.96951,1967.6474,0.0,0.0,0.0,0.0,0.06561150749029247,0.0,-0.21896643702280477,-0.1871375966665428,-0.1920116336225728,0.16644637101197785,0.5985750546422585,-0.056549337106735036
6584,5.0,299.48841,1497.8654,0.0,0.0,0.0,0.0,0.06562147429987629,0.0,-0.17056261848321985,-0.14027975459953387,-0.14447129668570685,0.16728983079272083,0.5772107269462634,-0.015314973312970185
6585,5.0,299.88167999999996,785.30199,0.0,0.0,0.0,0.0,0.06563144110946012,0.0,-0.01095333997226049,-0.10948213940004589,-0.11827672470300389,0.14015766809498487,0.5352669553467355,-0.05529086224403324
6586,5.0,300.01277999999996,1020.0234,0.0,0.0,0.0,0.0,0.06564140791904394,0.0,-0.015694059559633086,-0.11835515026074389,-0.17601245507357682,0.15957740672906384,0.5520238929830165,-0.04778296575281155
6587,5.0,299.92717000000005,1572.0892,0.0,0.0,0.0,0.0,0.06565137472862775,0.0,-0.13105934080954987,-0.14354605748939286,-0.2032704533012318,0.14984623382867185,0.5924495727527205,-0.054102460718497156
6588,5.0,299.28008,1500.6592,0.0,0.0,0.0,0.0,0.06566134153821158,0.0,-0.16409198307961784,-0.1085519454107429,-0.18351900698191584,0.15218955706993983,0.5939222507130625,-0.02959333604488487
6589,5.0,298.96218,915.9413599999999,0.0,0.0,0.0,0.0,0.06567130834779539,0.0,-0.10496110864635491,-0.08236604887539613,-0.09109614182273922,0.1059113447226359,0.5549686916161455,-0.037095067922498164
6590,5.0,299.58864,932.54794,0.0,0.0,0.0,0.0,0.06568127515737922,0.0,-0.09560168504865171,-0.07233083609699774,-0.11553877094528889,0.13942391290256886,0.5821959782332694,-0.03725393945867756
6591,5.0,300.90479,1775.6865,0.0,0.0,0.0,0.0,0.06569124196696305,0.0,-0.12936279537211387,-0.14920639678802486,-0.26119516494795575,0.13695105576851685,0.5677406179341364,-0.02805624982868627
6592,5.0,300.34945,2027.9708,0.0,0.0,0.0,0.0,0.06570120877654685,0.0,-0.16525643035953982,-0.1845175548229648,-0.2666784894541177,0.15926707862093684,0.5686288633692995,-0.004928371074092355
6593,5.0,300.05705,1643.0321,0.0,0.0,0.0,0.0,0.06571117558613068,0.0,-0.15374323424327585,-0.13646298332784787,-0.20923449405233682,0.14384299043119786,0.5377621647779934,0.006399058403287894
6594,5.0,300.43362,1298.6622,0.0,0.0,0.0,0.0,0.0657211423957145,0.0,-0.1790255366309448,-0.08030404236539193,-0.13543129207602786,0.15590684744680786,0.5759532227771574,0.027262969232645578
6595,5.0,300.30486,1356.4495,0.0,0.0,0.0,0.0,0.06573110920529833,0.0,-0.17838865828058983,-0.1094994761092569,-0.1244386531986389,0.16795318536818885,0.6176569655604963,-0.0045347586713458355
6596,5.0,300.30568,1763.5386,0.0,0.0,0.0,0.0,0.06574107601488215,0.0,-0.2246397155252138,-0.11032264049049689,-0.2011093428254468,0.12448262825297889,0.5825857248842344,0.024013382942936378
6597,5.0,299.307,1738.0835,0.0,0.0,0.0,0.0,0.06575104282446596,0.0,-0.1098227130236579,-0.17935086084055182,-0.23916041019079476,0.14883744202911187,0.5562334810534705,-0.04901033789044375
6598,5.0,298.59608,1106.8681,0.0,0.0,0.0,0.0,0.06576100963404978,0.0,-0.059447016570463744,-0.11384153649778488,-0.16317171894129484,0.1133455708388369,0.5576967053903795,-0.061258423025985644
6599,5.0,298.71401000000003,897.44292,0.0,0.0,0.0,0.0,0.0657709764436336,0.0,-0.03605910886125697,-0.1088436398495309,-0.12789749387249988,0.16603116138599983,0.5875280852945074,-0.1011238585768978
6600,5.0,298.71131,1338.1108,0.0,0.0,0.0,0.0,0.06578094325321743,0.0,-0.16334131674303284,-0.11825200140056388,-0.12515895242972688,0.11875730922543389,0.5890384966885734,-0.05332545089256224
6601,5.0,299.63651,1762.1013,0.0,0.0,0.0,0.0,0.06579091006280124,0.0,-0.20067794146287082,-0.15545996362270387,-0.1794969005774648,0.14401967085113485,0.5745311363943085,-0.048126068448673155
6602,5.0,300.95981,1476.4403,0.0,0.0,0.0,0.0,0.06580087687238506,0.0,-0.14055667585186388,-0.1306773961843549,-0.17756691244948983,0.12984769633996987,0.5950386192757395,-0.04895559300079086
6603,5.0,301.02846,1042.7623,0.0,0.0,0.0,0.0,0.06581084368196889,0.0,-0.02864190433348587,-0.12693612217761988,-0.16139567390101284,0.15597420831345588,0.5864492069855305,-0.04200536302010656
6604,5.0,300.45614,1290.3425,0.0,0.0,0.0,0.0,0.06582081049155271,0.0,-0.07966400368797502,-0.1168632205485019,-0.19570467692454782,0.14537187337458685,0.5673517528107584,-0.018686516411215583
6605,5.0,299.70803,1683.0064,0.0,0.0,0.0,0.0,0.06583077730113653,0.0,-0.15637681310818985,-0.15974320484292684,-0.19547189284657382,0.14797737507922984,0.5357580574052035,-0.019014036333789282
6606,5.0,299.37425,1745.8413,0.0,0.0,0.0,0.0,0.06584074411072036,0.0,-0.1998266087288508,-0.15003270224457485,-0.18083285056931284,0.16023900838185884,0.5914099477526175,-0.020733573429244378
6607,5.0,299.37797,1442.5916,0.0,0.0,0.0,0.0,0.06585071092030416,0.0,-0.16291898396885185,-0.12954739940783289,-0.14604545164356386,0.17649744723394184,0.5932589974626045,-0.012556565075486487
6608,5.0,299.91822,1248.7726,0.0,0.0,0.0,0.0,0.06586067772988799,0.0,-0.1103645181171299,-0.1031318882408249,-0.16609929232272386,0.12104174237088988,0.5924037434506975,-0.015285387423300285
6609,5.0,300.09322000000003,1588.6874,0.0,0.0,0.0,0.0,0.0658706445394718,0.0,-0.09538233362725342,-0.14758640239564386,-0.23995257925147576,0.14285914484909987,0.5535510027387305,-0.03127960307330647
6610,5.0,300.78799,2002.4333,0.0,0.0,0.0,0.0,0.06588061134905564,0.0,-0.18876455208711082,-0.14998120887449284,-0.26994396147889477,0.1218971585028129,0.5710547462287155,-0.005796929870412434
6611,5.0,300.98686000000004,1663.3537,0.0,0.0,0.0,0.0,0.06589057815863945,0.0,-0.17411904527421185,-0.12228642892623089,-0.2092125267901688,0.16151623039791083,0.5834781550423105,-0.042439479892950556
6612,5.0,300.90712,1079.6159,0.0,0.0,0.0,0.0,0.06590054496822327,0.0,-0.15065616516360586,-0.07058142129584392,-0.10693869926402791,0.11764469982062788,0.5620237088824215,0.02212129138195148
6613,5.0,300.08474,1142.1515,0.0,0.0,0.0,0.0,0.0659105117778071,0.0,-0.12379391202750789,-0.1031486676624809,-0.12024294665455489,0.13694426699284687,0.5653858956292435,-0.02809997258375137
6614,5.0,298.85839,1649.7415,0.0,0.0,0.0,0.0,0.0659204785873909,0.0,-0.13801119908314485,-0.15044058607232985,-0.2130284266667688,0.13245865946265187,0.5938754588234445,-0.004192801556047296
6615,5.0,299.18994,1675.6661,0.0,0.0,0.0,0.0,0.06593044539697474,0.0,-0.0995514220912104,-0.16989739952756786,-0.23991182633245375,0.16867202551913282,0.6012272165140065,-0.06509476826310344
6616,5.0,298.84422,1282.2476,0.0,0.0,0.0,0.0,0.06594041220655857,0.0,-0.09327994910076422,-0.13713573073174287,-0.15935557588467086,0.14277451820074788,0.5964574429932664,-0.04180225703756156
6617,5.0,299.30948,1007.9607,0.0,0.0,0.0,0.0,0.06595037901614237,0.0,-0.08329376040195413,-0.09850591922727732,-0.12459521047158986,0.12885292792179387,0.5412852151106915,-0.05428963638296995
6618,5.0,300.58717,1289.4123,0.0,0.0,0.0,0.0,0.0659603458257262,0.0,-0.13154517396749787,-0.12375811390147488,-0.13664585470589588,0.12410691511589887,0.5875554329147065,-0.05925400255891474
6619,5.0,300.67857000000004,1567.9284,0.0,0.0,0.0,0.0,0.06597031263531002,0.0,-0.13602823823994187,-0.13550904888870188,-0.2050737851667068,0.14139268824437187,0.5730935574174304,-0.012689854073141089
6620,5.0,300.80421,1379.0625,0.0,0.0,0.0,0.0,0.06598027944489385,0.0,-0.09803736097028422,-0.12284133534349588,-0.1983218715353448,0.13390155800255488,0.5744524271265404,-0.04596219787961576
6621,5.0,300.92758,1027.7398,0.0,0.0,0.0,0.0,0.06599024625447766,0.0,-0.03548757602310107,-0.10931199444325389,-0.16760766708408883,0.12072488893211888,0.5478232113809415,-0.03136978739845697
6622,5.0,299.85847,1203.8003,0.0,0.0,0.0,0.0,0.06600021306406148,0.0,-0.11572132821580589,-0.1084614317793099,-0.14174247231139286,0.15799172098506886,0.5862326551741585,-0.06350143856035403
6623,5.0,299.47008999999997,1824.5156,0.0,0.0,0.0,0.0,0.06601017987364531,0.0,-0.21586657059437178,-0.15381757640311286,-0.1849230271154818,0.17758395531617183,0.5904963204024495,-0.01029209599675079
6624,5.0,299.87772,1948.0526,0.0,0.0,0.0,0.0,0.06602014668322911,0.0,-0.2553895357174848,-0.16343548820732684,-0.17333433373426682,0.14639516478307787,0.5655138893818755,-0.01837198230192348
6625,5.0,299.45441,1501.0315,0.0,0.0,0.0,0.0,0.06603011349281294,0.0,-0.15618190431895387,-0.1131463152066719,-0.18694787571781882,0.14726953882437185,0.5525897830313654,0.014270733971911788
6626,5.0,299.67415,1315.9927,0.0,0.0,0.0,0.0,0.06604008030239678,0.0,-0.1104177238798809,-0.10484656072254991,-0.18476461559484783,0.12747194909550186,0.5868619037512605,-0.0003994335853660256
6627,5.0,299.3909,1638.2752,0.0,0.0,0.0,0.0,0.06605004711198058,0.0,-0.11638701326650389,-0.13857138453343087,-0.24303636540082174,0.16845708477541985,0.6000546429682825,0.014926969452177186
6628,5.0,300.26516000000004,1780.3452,0.0,0.0,0.0,0.0,0.06606001392156441,0.0,-0.19192940837695782,-0.13034686386923386,-0.2189042133341638,0.15979761637329684,0.5586983233792315,0.0009834160552481081
6629,5.0,301.19248999999996,1573.2357,0.0,0.0,0.0,0.0,0.06606998073114823,0.0,-0.14405093974922087,-0.14675041026813784,-0.1874230089547108,0.16858020479507085,0.5351545757781445,-0.03752323499075496
6630,5.0,301.26563,1110.9256,0.0,0.0,0.0,0.0,0.06607994754073206,0.0,-0.12414803280495687,-0.09556209331424431,-0.11798353065406789,0.15599749280075384,0.5777547206599515,-0.04723736705096516
6631,5.0,299.95601,1089.6097,0.0,0.0,0.0,0.0,0.06608991435031587,0.0,-0.07213660517207864,-0.1079696609757759,-0.15110788219068685,0.14428283216710688,0.5835493257293345,-0.05575295697863844
6632,5.0,300.17511,1612.0556,0.0,0.0,0.0,0.0,0.06609988115989969,0.0,-0.12686111127271688,-0.15764369997322186,-0.2055198279932278,0.11301339705855389,0.5882506643383204,-0.04791555662114725
6633,5.0,299.86327,1580.6528,0.0,0.0,0.0,0.0,0.06610984796948352,0.0,-0.10857342631286289,-0.16420561907833284,-0.2076999369083878,0.1020477005013239,0.5681080426853984,-0.07106601220916933
6634,5.0,299.97803,1081.0477,0.0,0.0,0.0,0.0,0.06611981477906732,0.0,-0.10111587416610981,-0.14038831421524786,-0.08710732777682392,0.12987679688284187,0.6092804472487984,-0.07896336049557692
6635,5.0,299.81596,1070.8448,0.0,0.0,0.0,0.0,0.06612978158865115,0.0,-0.10636472347988091,-0.12397206166008988,-0.09517328797262221,0.15902417217446385,0.5924790887281335,-0.050982642382345046
6636,5.0,299.31641,1429.4259,0.0,0.0,0.0,0.0,0.06613974839823498,0.0,-0.16999201682190582,-0.12898873383269688,-0.1355290403131749,0.14661782649255287,0.5595288135586944,-0.04069837576911696
6637,5.0,299.66584,1763.7455,0.0,0.0,0.0,0.0,0.06614971520781879,0.0,-0.13954711398222786,-0.15867534056253685,-0.23791212659759878,0.16563761504715985,0.5180136771489695,0.0015494616476199586
6638,5.0,300.39543,1613.1862,0.0,0.0,0.0,0.0,0.06615968201740262,0.0,-0.0955004907479146,-0.14590775095497385,-0.24896008893044777,0.15815930241910786,0.5638732854824605,-0.015407184138320684
6639,5.0,298.5744,1313.3099,0.0,0.0,0.0,0.0,0.06616964882698644,0.0,-0.09837423420453101,-0.0977306025422595,-0.2031085967302578,0.18909612804983483,0.5863504252332814,0.008857687378110681
6640,5.0,299.2572,1484.5583,0.0,0.0,0.0,0.0,0.06617961563657027,0.0,-0.15900098901217585,-0.11925842219488988,-0.17300924257218284,0.13702509395332388,0.5642677538788914,-0.03856658875122596
6641,5.0,300.16286,1679.7507,0.0,0.0,0.0,0.0,0.06618958244615408,0.0,-0.21303790055520377,-0.1126394368441469,-0.18492494215817082,0.14326149633130889,0.5694234946277235,-0.03308996993422576
6642,5.0,300.44061,1757.9233,0.0,0.0,0.0,0.0,0.0661995492557379,0.0,-0.2048641437210168,-0.13626544008835187,-0.1932352040458298,0.11524430020122688,0.5958449839703214,-0.037494351283404365
6643,5.0,299.88749,1310.4898,0.0,0.0,0.0,0.0,0.06620951606532173,0.0,-0.13416330076838687,-0.07494180631243043,-0.18925106412262582,0.14712938607053985,0.6015588026092314,0.0041745472475457355
6644,5.0,300.01682999999997,1016.2157,0.0,0.0,0.0,0.0,0.06621948287490553,0.0,-0.06606259740087074,-0.07902196485486072,-0.16381962145273785,0.12120999254999487,0.5792427797568115,0.007285167907240093
6645,5.0,299.55091,1509.0141,0.0,0.0,0.0,0.0,0.06622944968448936,0.0,-0.12971266049914287,-0.13608269030031586,-0.1929072555184638,0.15572261831362585,0.5545790564226915,-0.019439351103014584
6646,5.0,300.42755,2040.4279,0.0,0.0,0.0,0.0,0.0662394164940732,0.0,-0.21711871467044877,-0.17679942616124483,-0.22632100141614378,0.17148701668195082,0.5911922205711294,-0.004731894989601675
6647,5.0,299.06886000000003,1783.1186,0.0,0.0,0.0,0.0,0.066249383303657,0.0,-0.17764559131975483,-0.18516594369445583,-0.17921199491434683,0.18058096672695384,0.6048355926376254,-0.04822128153406995
6648,5.0,298.28739,1325.6668,0.0,0.0,0.0,0.0,0.06625935011324083,0.0,-0.12218637047885589,-0.12891693493061088,-0.15186631002303785,0.15520697533773586,0.5538159169773755,-0.02922485852676897
6649,5.0,299.43465,1258.5275,0.0,0.0,0.0,0.0,0.06626931692282464,0.0,-0.05111853543275665,-0.12407526118277487,-0.2073671450455438,0.10733963219609689,0.5433206116465694,-0.061636830395081534
6650,5.0,299.60348999999997,1173.9488,0.0,0.0,0.0,0.0,0.06627928373240846,0.0,-0.06162704341236565,-0.12888071123953587,-0.16634336400681185,0.1290178141105669,0.5785230175482764,-0.02761837987747187
6651,5.0,299.34963999999997,1093.7367,0.0,0.0,0.0,0.0,0.06628925054199229,0.0,-0.055369556313049746,-0.11616422996701689,-0.16093485788803386,0.13092101190589786,0.6069889821476484,-0.052451053546515955
6652,5.0,299.62516,1148.8598,0.0,0.0,0.0,0.0,0.06629921735157611,0.0,-0.1152824186699889,-0.13173041635077987,-0.1022118470175239,0.12748396624168787,0.5674039250584074,-0.07602849475317822
6653,5.0,299.88967,1103.3916,0.0,0.0,0.0,0.0,0.06630918416115993,0.0,-0.11007616740367189,-0.12288409449771588,-0.10244323281035991,0.13629406440367686,0.5694630417791264,-0.0837277496052855
6654,5.0,300.62052,1399.3827,0.0,0.0,0.0,0.0,0.06631915097074374,0.0,-0.13870700805931585,-0.14503262710860587,-0.14163775291355787,0.16463864164106884,0.5993121434275034,-0.05856132756530304
6655,5.0,301.0761,1832.4174,0.0,0.0,0.0,0.0,0.06632911778032757,0.0,-0.15899501083658585,-0.16249237527924884,-0.23552175815418777,0.15619913970315485,0.6084906390608504,0.0027002936832982373
6656,5.0,299.78815,1691.2152,0.0,0.0,0.0,0.0,0.06633908458991139,0.0,-0.16854034353613684,-0.12674031159579488,-0.21880654615702477,0.15888608645083585,0.5444285601009154,0.005389942161045875
6657,5.0,300.30201,1414.0804,0.0,0.0,0.0,0.0,0.0663490513994952,0.0,-0.13295733049936687,-0.1103716412653329,-0.18651617038021284,0.11901513071337888,0.5405588465115044,0.02219557781303298
6658,5.0,300.89097000000004,1474.9899,0.0,0.0,0.0,0.0,0.06635901820907904,0.0,-0.15405116094866586,-0.12777295530270888,-0.16653598285082186,0.17145121855591783,0.5796823175176905,-0.026773058756295178
6659,5.0,300.2766,1643.4615,0.0,0.0,0.0,0.0,0.06636898501866285,0.0,-0.18459617289822383,-0.10904418230932289,-0.2059308934262968,0.15138731630326485,0.6068133555078155,0.020641524723909878
6660,5.0,299.45636,1673.7246,0.0,0.0,0.0,0.0,0.06637895182824667,0.0,-0.16649777318955084,-0.14155994543837885,-0.20071277700130882,0.14942499536459886,0.5714369745639385,-0.03487687904207997
6661,5.0,299.40013999999996,1382.5945,0.0,0.0,0.0,0.0,0.0663889186378305,0.0,-0.10386664655083988,-0.1041776028740289,-0.2122299450579648,0.1161443905300589,0.5576255245708545,-8.754590396335801e-05
6662,5.0,299.53454,1102.3519,0.0,0.0,0.0,0.0,0.0663988854474143,0.0,-0.09314356563730422,-0.0934950053549886,-0.14844889101326486,0.14936618632879486,0.5876899317329805,-0.036444095263252166
6663,5.0,300.13642999999996,1249.1599,0.0,0.0,0.0,0.0,0.06640885225699814,0.0,-0.08938241571660761,-0.13577299040725088,-0.15455799878118684,0.14274595468042886,0.6136528038153164,-0.03423994192321917
6664,5.0,300.32833999999997,1467.3845,0.0,0.0,0.0,0.0,0.06641881906658195,0.0,-0.17038132777532783,-0.1319847015958759,-0.14368222817033188,0.1353239179629309,0.5612564049791945,-0.06519992639823173
6665,5.0,300.06534,1533.7192,0.0,0.0,0.0,0.0,0.06642878587616578,0.0,-0.12845497394501887,-0.17468454015502183,-0.16307281559903383,0.12326664707297089,0.5815820702626815,-0.07532493340049214
6666,5.0,299.58867999999995,1142.9907,0.0,0.0,0.0,0.0,0.0664387526857496,0.0,-0.08995434473555261,-0.1135547867194849,-0.14393151809243487,0.14188024392748988,0.5989722182839554,-0.05232780788385255
6667,5.0,299.7609,1104.5462,0.0,0.0,0.0,0.0,0.06644871949533342,0.0,-0.04261147403117505,-0.1149539229875689,-0.17818908854089383,0.13014453808926588,0.6345372765289534,-0.044879001098712554
6668,5.0,299.20877,1396.848,0.0,0.0,0.0,0.0,0.06645868630491725,0.0,-0.1057304187847799,-0.13939829794004088,-0.17947819598061882,0.12347960184648787,0.5374205880367825,-0.02475927484505018
6669,5.0,299.22132999999997,1634.1064,0.0,0.0,0.0,0.0,0.06646865311450105,0.0,-0.13864038686524088,-0.15156958986375385,-0.2065175551016958,0.16553484108951685,0.5477230820060595,-0.033975060108577364
6670,5.0,298.44666,1497.9655,0.0,0.0,0.0,0.0,0.06647861992408488,0.0,-0.14268016435143588,-0.15365651016721685,-0.15900742315031083,0.18360930783082782,0.5859444969782194,-0.03768641182660926
6671,5.0,299.25335,1262.6537,0.0,0.0,0.0,0.0,0.06648858673366871,0.0,-0.1116065803547119,-0.0949754802748501,-0.17723313773404883,0.16529706168854985,0.5908936866941664,-0.024579060208764377
6672,5.0,300.30183999999997,1342.5294,0.0,0.0,0.0,0.0,0.06649855354325251,0.0,-0.12174293170509189,-0.0936058539026785,-0.1927466351126118,0.13472788372410685,0.5354392585262405,-0.02396855473201218
6673,5.0,301.12066,1495.6304,0.0,0.0,0.0,0.0,0.06650852035283635,0.0,-0.13979261434895687,-0.1164798877706699,-0.19836177332428281,0.11396640944010888,0.5676674511444155,-0.009543037586749481
6674,5.0,299.73191,1612.5029,0.0,0.0,0.0,0.0,0.06651848716242016,0.0,-0.18941092459090283,-0.09442115343664231,-0.2063285434280418,0.15573432135228085,0.5827288869908634,-0.012446958772419189
6675,5.0,300.34443,1645.4669,0.0,0.0,0.0,0.0,0.06652845397200399,0.0,-0.21948180642116777,-0.10932302873684288,-0.17137601513349585,0.14464063104241887,0.6252588643032454,0.0032525528833519768
6676,5.0,300.13548,1504.5982,0.0,0.0,0.0,0.0,0.06653842078158781,0.0,-0.1929005478028018,-0.11958519535213988,-0.14487452969550288,0.13660441277680585,0.5462682372474775,-0.02805480797379397
6677,5.0,300.31743,1570.9787,0.0,0.0,0.0,0.0,0.06654838759117163,0.0,-0.15428736981197785,-0.12993510942609687,-0.1933158283562868,0.14976934841108386,0.5559335387588685,-0.03472742161257967
6678,5.0,299.53454,1743.6297,0.0,0.0,0.0,0.0,0.06655835440075546,0.0,-0.1274894073947249,-0.16379348973265886,-0.2387369932390068,0.16610609123089484,0.5945393200239625,-0.03964808732496156
6679,5.0,299.14556,1543.0924,0.0,0.0,0.0,0.0,0.06656832121033926,0.0,-0.0990760507405449,-0.1279099061862249,-0.24207560165600175,0.15647116695750185,0.6065991747016775,-0.025642981933015275
6680,5.0,298.7733,1087.4202,0.0,0.0,0.0,0.0,0.06657828801992309,0.0,-0.07628546612428934,-0.11169907995634089,-0.14256404588997584,0.12292979207722589,0.5396582191601195,-0.033757539630109766
6681,5.0,299.79424,1028.7403,0.0,0.0,0.0,0.0,0.06658825482950692,0.0,-0.07674771487290973,-0.10898762268874089,-0.1269760340990589,0.13155499236096688,0.5677778650078125,-0.05884570836486924
6682,5.0,299.28049,1262.0362,0.0,0.0,0.0,0.0,0.06659822163909072,0.0,-0.1272360239422179,-0.11529172030590688,-0.14109973737545986,0.16329516320097784,0.5864418102598005,-0.03662061862942367
6683,5.0,299.70301,1348.4427,0.0,0.0,0.0,0.0,0.06660818844867455,0.0,-0.10357191236175191,-0.13844926763137885,-0.16787173019264984,0.14675857706394385,0.6279463075434754,-0.060329131842521734
6684,5.0,300.53994,1355.7396,0.0,0.0,0.0,0.0,0.06661815525825837,0.0,-0.10995169976138788,-0.12343167511675789,-0.17872761070404183,0.10933541065306489,0.5546836035680094,-0.027078634721453172
6685,5.0,301.1637,1476.2919,0.0,0.0,0.0,0.0,0.0666281220678422,0.0,-0.12238714598617088,-0.14068721286224686,-0.1856815157428388,0.12071999493413589,0.5969939994512203,-0.05183501167121735
6686,5.0,300.00932,1591.4114,0.0,0.0,0.0,0.0,0.06663808887742602,0.0,-0.16228080865836886,-0.14343142850557986,-0.17803710102589385,0.17071170810293385,0.6282496746234154,-0.01880211608862438
6687,5.0,299.96877,1829.9837,0.0,0.0,0.0,0.0,0.06664805568700984,0.0,-0.2053252637090258,-0.15231140039446486,-0.19863269613602083,0.17871646495294183,0.6352065282200033,-0.03344713654147537
6688,5.0,299.81922000000003,1814.425,0.0,0.0,0.0,0.0,0.06665802249659367,0.0,-0.19916244355330281,-0.16635395247035684,-0.1860234977840898,0.13544403876228586,0.5150792947268685,-0.02084202868019808
6689,5.0,299.32604,1289.2732,0.0,0.0,0.0,0.0,0.06666798930617747,0.0,-0.09372307883324772,-0.11048621958664089,-0.1876975490693058,0.12126338069776388,0.5248182189905255,-0.02210157860125598
6690,5.0,300.10902000000004,1139.7315,0.0,0.0,0.0,0.0,0.0666779561157613,0.0,-0.04434961743821646,-0.10767687222687991,-0.1944234323055988,0.16158344940954486,0.5445517003855684,-0.010923301159795888
6691,5.0,299.62494,1413.128,0.0,0.0,0.0,0.0,0.06668792292534513,0.0,-0.09961542808677731,-0.10759336015363791,-0.2223468420064248,0.16036341522913686,0.5918218237857664,0.01957690487034008
6692,5.0,298.2814,1419.5157,0.0,0.0,0.0,0.0,0.06669788973492893,0.0,-0.14781638990334187,-0.1022688626006509,-0.18141207498897782,0.14371480416104687,0.5423962539778425,-0.025138186812695876
6693,5.0,298.78559,1397.1226,0.0,0.0,0.0,0.0,0.06670785654451276,0.0,-0.16524033994795184,-0.1194759264613559,-0.13997410770686886,0.10698542022613891,0.5878912847928524,-0.020022199918287284
6694,5.0,299.81588999999997,1473.2858,0.0,0.0,0.0,0.0,0.06671782335409658,0.0,-0.16645570304539883,-0.13088363310970888,-0.15050276923096687,0.16007582445325383,0.6195906216538334,-0.05157346446265465
6695,5.0,299.73502,1647.6938,0.0,0.0,0.0,0.0,0.06672779016368041,0.0,-0.13003008135796987,-0.15158880108564987,-0.2192388695771918,0.1360530122048869,0.6158858246506984,-0.024212583859595977
6696,5.0,300.66454,1736.6671,0.0,0.0,0.0,0.0,0.06673775697326423,0.0,-0.13723428956896988,-0.18223701255789282,-0.2084321519606518,0.11958333097195589,0.5495288254067725,-0.03550270587359427
6697,5.0,300.19532000000004,1470.3877,0.0,0.0,0.0,0.0,0.06674772378284805,0.0,-0.11844113466422988,-0.1119301617741469,-0.2165898386482528,0.11797284086551289,0.5584471589444435,-0.02123336816032028
6698,5.0,299.69375,1071.9253,0.0,0.0,0.0,0.0,0.06675769059243188,0.0,-0.09558717125421931,-0.12354889802082687,-0.1067024701357139,0.17248465259790985,0.6063692885189894,-0.03984472066586776
6699,5.0,300.3604,1105.0914,0.0,0.0,0.0,0.0,0.06676765740201568,0.0,-0.0962445658925991,-0.1123104244041759,-0.12736519306496588,0.17399117311159185,0.6154478675599754,-0.041294526531702465
6700,5.0,299.91252000000003,1426.8081,0.0,0.0,0.0,0.0,0.06677762421159951,0.0,-0.13697939637381387,-0.14391584311338787,-0.15281880564704184,0.17280560969958583,0.5346158712299786,-0.05517031993263666
6701,5.0,299.58321,1513.9366,0.0,0.0,0.0,0.0,0.06678759102118333,0.0,-0.09010739008365701,-0.17231711169387484,-0.19777443277131682,0.13863166278187986,0.5609124471002485,-0.06593800107582404
6702,5.0,300.38319,1251.7606,0.0,0.0,0.0,0.0,0.06679755783076714,0.0,-0.07687318968579314,-0.1029465445325329,-0.2006842337459918,0.15466197850644886,0.5828890311691685,-0.02149990967862588
6703,5.0,300.6151,1225.502,0.0,0.0,0.0,0.0,0.06680752464035097,0.0,-0.07632972488865733,-0.1209473378590729,-0.17524494852032982,0.15216767086777983,0.5948799949725844,-0.01153907756356829
6704,5.0,300.18077,1561.7697,0.0,0.0,0.0,0.0,0.06681749144993479,0.0,-0.18329434916974383,-0.1266494737243299,-0.16479514825151484,0.09653604349586573,0.5530114267954784,-0.014187788305475686
6705,5.0,300.55986,1931.1906,0.0,0.0,0.0,0.0,0.06682745825951862,0.0,-0.2507621846308008,-0.15127863509753886,-0.18499289070987682,0.13819368542615487,0.5979852822890525,-0.001104038828835149
6706,5.0,299.41487,1728.4037,0.0,0.0,0.0,0.0,0.06683742506910244,0.0,-0.2025425648268948,-0.14752864713994387,-0.17532035459277184,0.12821054762339587,0.6362075382587954,-0.038104258942597564
6707,5.0,298.87871,1523.6064,0.0,0.0,0.0,0.0,0.06684739187868625,0.0,-0.11565783796453988,-0.12008877051933889,-0.22739168253181177,0.15940545818709384,0.6174883303463534,-0.012563470374917987
6708,5.0,299.15372,1439.6696,0.0,0.0,0.0,0.0,0.06685735868827007,0.0,-0.09873003191089551,-0.13300174125124986,-0.20589184276744282,0.1409959805652199,0.5461017703885485,-0.04036574703953907
6709,5.0,299.10389,1416.3395,0.0,0.0,0.0,0.0,0.06686732549785389,0.0,-0.1197999030483299,-0.12233535877355989,-0.18839658018079483,0.15847641930290485,0.5624179037013255,-0.024666538142897775
6710,5.0,299.54843999999997,1376.7729,0.0,0.0,0.0,0.0,0.0668772923074377,0.0,-0.14199530860884588,-0.11208483440191189,-0.16442444056992883,0.17061090998298584,0.5968286775649044,-0.03062940757688717
6711,5.0,300.30096000000003,1192.7739,0.0,0.0,0.0,0.0,0.06688725911702154,0.0,-0.12941923340268388,-0.11112958273763589,-0.12202467602789789,0.14610436200437785,0.5780855670826035,-0.03551872839742557
6712,5.0,300.7711,1125.6284,0.0,0.0,0.0,0.0,0.06689722592660535,0.0,-0.0949180533121825,-0.1059543166593769,-0.14129056276679286,0.11999753748033488,0.5326527194262305,-0.042692126712634865
6713,5.0,300.52524,1323.5645,0.0,0.0,0.0,0.0,0.06690719273618918,0.0,-0.1098631113051449,-0.11256211572901588,-0.17990534169277483,0.13580241519015487,0.5710939488750845,-0.051717396639359654
6714,5.0,300.87979,1679.8935,0.0,0.0,0.0,0.0,0.066917159545773,0.0,-0.12735626633158487,-0.15088311292100387,-0.23240630793921677,0.15082862033062586,0.6351534339147633,-0.032654022118451066
6715,5.0,299.88772,1523.7101,0.0,0.0,0.0,0.0,0.06692712635535682,0.0,-0.1248845947001499,-0.1217403985798419,-0.21654481994630978,0.17259696123899385,0.6118630596336824,-0.02366251672480858
6716,5.0,299.21562,1478.8156,0.0,0.0,0.0,0.0,0.06693709316494065,0.0,-0.14458473003440186,-0.15370906744990384,-0.15122922902266286,0.12841984456405187,0.5747837497767394,-0.015083378790613588
6717,5.0,298.98271,1555.4147,0.0,0.0,0.0,0.0,0.06694705997452445,0.0,-0.19136068122832883,-0.13611550947105486,-0.14533102926305586,0.16357301664339985,0.5868329855934065,-0.04267139460233876
6718,5.0,299.34077,1549.7038,0.0,0.0,0.0,0.0,0.06695702678410828,0.0,-0.15587563934372786,-0.1308915871229939,-0.18430402249689082,0.14325560934822784,0.6046316557899984,-0.029043369221857372
6719,5.0,300.28165,1279.2158,0.0,0.0,0.0,0.0,0.0669669935936921,0.0,-0.07619794259390142,-0.1187105882633229,-0.1939411252579988,0.14708073993323886,0.6124354547476734,-0.050281722572669656
6720,5.0,301.16514,1057.9187,0.0,0.0,0.0,0.0,0.06697696040327591,0.0,-0.05276492397699254,-0.07347536591970402,-0.19534058576611482,0.1062885574698639,0.5450524080549844,-0.03672732906370517
6721,5.0,300.70126,1212.1553,0.0,0.0,0.0,0.0,0.06698692721285975,0.0,-0.1031394065565669,-0.1054833985429009,-0.15984214871519184,0.16014367167994983,0.5652923422475105,-0.040876583156954666
6722,5.0,300.34685,1522.6945,0.0,0.0,0.0,0.0,0.06699689402244356,0.0,-0.2061987866202358,-0.1077558348071729,-0.14890649502342684,0.17431338664339183,0.5960637446669115,-0.015884627585440684
6723,5.0,300.48411,1658.3645,0.0,0.0,0.0,0.0,0.06700686083202739,0.0,-0.2003368308167058,-0.12399005698186588,-0.17977452097236382,0.1904260694685898,0.5728206790329995,-0.018559375815167783
6724,5.0,300.15497999999997,1653.7574,0.0,0.0,0.0,0.0,0.0670168276416112,0.0,-0.17219349518167484,-0.15339516256892385,-0.17711229752712282,0.13030985997558187,0.5543386932339694,-0.03082819610075607
6725,5.0,300.08563,1844.3144,0.0,0.0,0.0,0.0,0.06702679445119503,0.0,-0.13979836960952488,-0.16041860696208385,-0.26040852823282074,0.14578873459822786,0.5551113876277285,-0.027006360605070272
6726,5.0,299.37314,1722.3068,0.0,0.0,0.0,0.0,0.06703676126077886,0.0,-0.13132997991125986,-0.15972368964600087,-0.2324845916419428,0.15386188582998583,0.6196362787033394,-0.016664073264615983
6727,5.0,298.91357999999997,1421.5402,0.0,0.0,0.0,0.0,0.06704672807036266,0.0,-0.11542155817372089,-0.12273153956265989,-0.19395963733732582,0.12690334353688487,0.6013868844647644,0.004150959798467836
6728,5.0,300.51191,1273.2862,0.0,0.0,0.0,0.0,0.06705669487994649,0.0,-0.14982265549884485,-0.0981011977530844,-0.13912337279040787,0.1093234340368829,0.5800333884123384,-0.0024711526447337775
6729,5.0,300.59372,1129.0233,0.0,0.0,0.0,0.0,0.06706666168953031,0.0,-0.11561121832743888,-0.09754892477282931,-0.13003474230842987,0.1182594690538009,0.5687540301541524,-0.03406441660839617
6730,5.0,301.05118,1255.1866,0.0,0.0,0.0,0.0,0.06707662849911414,0.0,-0.10904061566897089,-0.11098198259556889,-0.16152277599355686,0.14959373190375186,0.6114245959179094,-0.06444030293076274
6731,5.0,300.75455,1420.0193,0.0,0.0,0.0,0.0,0.06708659530869795,0.0,-0.08337455291192772,-0.13008022710541886,-0.2181956272742318,0.14904212868181285,0.5628836441097904,-0.07011432819849543
6732,5.0,299.79699,1422.2606,0.0,0.0,0.0,0.0,0.06709656211828177,0.0,-0.07904131691852063,-0.15576878198818184,-0.19752159647386383,0.14273434283428288,0.5712788366208315,-0.07414396507768962
6733,5.0,299.84682000000004,1549.0768,0.0,0.0,0.0,0.0,0.0671065289278656,0.0,-0.12997867918039688,-0.15886278169853585,-0.1820392160058718,0.18213089487491985,0.5763902780752914,-0.04017344939581076
6734,5.0,300.30793,1695.0668,0.0,0.0,0.0,0.0,0.0671164957374494,0.0,-0.21818034746272377,-0.15499052485137385,-0.14208711920040687,0.1862287923868508,0.6067689042259284,-0.011011695072019689
6735,5.0,299.25532999999996,1598.3248,0.0,0.0,0.0,0.0,0.06712646254703324,0.0,-0.16650357911262384,-0.14973855574054484,-0.16960868404407384,0.14762959724740687,0.5729549853337544,0.0017499372329053582
6736,5.0,299.45799,1482.4483,0.0,0.0,0.0,0.0,0.06713642935661707,0.0,-0.14277514641580988,-0.14196226652308488,-0.16588986365955485,0.09530896418751242,0.5420409578302775,0.009109090534622243
6737,5.0,299.53884,1613.4838,0.0,0.0,0.0,0.0,0.06714639616620087,0.0,-0.10882558373274888,-0.16036791405958084,-0.22126528871718382,0.11675524861784588,0.5519150597897755,-0.018626473236789783
6738,5.0,300.37086,1570.2638,0.0,0.0,0.0,0.0,0.0671563629757847,0.0,-0.12094611182645187,-0.13408073101773788,-0.22229412260372178,0.14831430100248186,0.6156740959098024,-0.027386781302114874
6739,5.0,300.55409,1372.3631,0.0,0.0,0.0,0.0,0.06716632978536852,0.0,-0.13511706295501588,-0.10130580789735481,-0.18074125276027284,0.14851004065679987,0.5962938132346174,-0.03042418896788367
6740,5.0,300.62317,1421.5982,0.0,0.0,0.0,0.0,0.06717629659495235,0.0,-0.1860638656680738,-0.1028389677694159,-0.14322751192295485,0.13873436581201587,0.5874632068906044,-0.025504171735565774
6741,5.0,300.4893,1560.52,0.0,0.0,0.0,0.0,0.06718626340453616,0.0,-0.16071005822084786,-0.11730463282206588,-0.1963444126401848,0.15844973029527085,0.5802534156715534,-0.020605827922886878
6742,5.0,300.31221,1357.0157,0.0,0.0,0.0,0.0,0.06719623021411998,0.0,-0.12060328878761789,-0.11275575795562688,-0.17913985150722683,0.14805332830672588,0.6091618361920924,-0.03657198262462367
6743,5.0,300.83574,1435.1219,0.0,0.0,0.0,0.0,0.06720619702370381,0.0,-0.09729429400944922,-0.12664440747382988,-0.2123025241626278,0.12430070933002489,0.5592554994767205,-0.030173111672604266
6744,5.0,300.95437999999996,1658.7852,0.0,0.0,0.0,0.0,0.06721616383328761,0.0,-0.14186803426378486,-0.14465020625586386,-0.2177110404139068,0.13377324000989088,0.5621022053676684,-0.031045437935446174
6745,5.0,300.12207,1489.6817,0.0,0.0,0.0,0.0,0.06722613064287145,0.0,-0.18021693636352681,-0.15554011170561385,-0.1170689812463089,0.14273157666150987,0.5664790810296325,-0.024711690593853978
6746,5.0,300.2514,1427.2624,0.0,0.0,0.0,0.0,0.06723609745245528,0.0,-0.18021661212349482,-0.1261327972333379,-0.1275027215010389,0.17133643758458983,0.6093400263546784,-0.015788899768993083
6747,5.0,299.78323,1401.5211,0.0,0.0,0.0,0.0,0.06724606426203908,0.0,-0.11991401527459189,-0.1363108235603309,-0.16980255931820784,0.15867236160724285,0.5624210954391404,-0.02195147775794218
6748,5.0,298.93556,1295.8573,0.0,0.0,0.0,0.0,0.06725603107162291,0.0,-0.060624724254444436,-0.12780147829302388,-0.2054820641620008,0.12416096187623288,0.5784514111637095,-0.045238914626983255
6749,5.0,299.40386,1352.2986,0.0,0.0,0.0,0.0,0.06726599788120673,0.0,-0.04568822417182666,-0.13960049199749588,-0.2257762680298828,0.15210446432654184,0.5852310371853064,-0.06520656622613703
6750,5.0,299.28282,1516.9508,0.0,0.0,0.0,0.0,0.06727596469079056,0.0,-0.11682562896979189,-0.15303152737303585,-0.19125802886069782,0.14137704366282786,0.6293035256549224,-0.07242540171558064
6751,5.0,299.37323,1370.8348,0.0,0.0,0.0,0.0,0.06728593150037437,0.0,-0.15848257986351286,-0.1024201307080799,-0.15579683888345086,0.14632900968404886,0.5850062375181204,-0.03495727537126447
6752,5.0,301.28394,1542.2135,0.0,0.0,0.0,0.0,0.06729589830995819,0.0,-0.2024176513545668,-0.12148146251678688,-0.14489529119005187,0.11090300988277489,0.5652421863675604,-0.03413776476988507
6753,5.0,300.43946,1685.8211,0.0,0.0,0.0,0.0,0.06730586511954202,0.0,-0.16633429541841685,-0.14938261111291587,-0.1967306230483008,0.15108885335380887,0.5992316407070585,-0.024853025810552678
6754,5.0,300.54865,1584.5819,0.0,0.0,0.0,0.0,0.06731583192912582,0.0,-0.13627028342382985,-0.14205539433977585,-0.2033476426938498,0.16147787888162585,0.6088843981822114,-0.010016958875196871
6755,5.0,300.78927000000004,1518.9096,0.0,0.0,0.0,0.0,0.06732579873870966,0.0,-0.09618372427709451,-0.16422515454026085,-0.2013016982244308,0.18190379513000685,0.5818282799044804,-0.042373758464964356
6756,5.0,300.29507,1608.6806,0.0,0.0,0.0,0.0,0.06733576554829347,0.0,-0.14185890488038386,-0.14218204046977487,-0.20495778829525882,0.18774558725654683,0.5652643664122495,-0.0036785941528989768
6757,5.0,299.97684,1444.3667,0.0,0.0,0.0,0.0,0.06734573235787729,0.0,-0.17043029815266084,-0.11089593739707689,-0.15772516528126185,0.17302019580576383,0.5844202445877874,-0.045706735237903556
6758,5.0,300.35071,1119.3273,0.0,0.0,0.0,0.0,0.06735569916746112,0.0,-0.12754673708538286,-0.0856861604118156,-0.1270146591928709,0.15162131628135886,0.6076858449039234,-0.02349553817457908
6759,5.0,299.83347000000003,1077.4054,0.0,0.0,0.0,0.0,0.06736566597704494,0.0,-0.08860791368467023,-0.07124127711871664,-0.16765515811627585,0.09938548110908331,0.5754921635841544,-0.03430770606340697
6760,5.0,299.64162999999996,1329.5177,0.0,0.0,0.0,0.0,0.06737563278662877,0.0,-0.08518161252452061,-0.09274741727220741,-0.22621115497280278,0.1056839207376909,0.5805469947555275,-0.04186218571472606
6761,5.0,300.68332000000004,1661.6029,0.0,0.0,0.0,0.0,0.06738559959621258,0.0,-0.11651430787656689,-0.16401921145743584,-0.22455227204158376,0.12183843052701689,0.5921180879825054,-0.04301808926980486
6762,5.0,300.65604,1669.4032,0.0,0.0,0.0,0.0,0.0673955664057964,0.0,-0.17141431598727583,-0.14713925512651385,-0.18890332682080682,0.16907215798362285,0.6157059119629423,-0.05159116999490204
6763,5.0,300.1234,1558.4379,0.0,0.0,0.0,0.0,0.06740553321538022,0.0,-0.2067323134603908,-0.1364376622078489,-0.13055625200239887,0.14744143670383686,0.5653003671883025,-0.03204905304024527
6764,5.0,300.49596,1427.9975,0.0,0.0,0.0,0.0,0.06741550002496403,0.0,-0.16260469405283384,-0.12287928155974087,-0.14859161742235086,0.17245417403490182,0.5721868100354415,-0.04381741288944196
6765,5.0,301.33957000000004,1394.4124,0.0,0.0,0.0,0.0,0.06742546683454785,0.0,-0.11731957826104089,-0.1339191480242909,-0.17262781470453883,0.14557847506997684,0.6013580878969224,-0.013265239288177187
6766,5.0,301.74338,1321.9379,0.0,0.0,0.0,0.0,0.06743543364413168,0.0,-0.06629765419881904,-0.13439717915646887,-0.2011412703360978,0.15416865743026187,0.6030256645139994,-0.06404718823646534
6767,5.0,301.6709,1118.5532,0.0,0.0,0.0,0.0,0.0674454004537155,0.0,-0.046224494893252456,-0.0961825782912314,-0.1976051794746128,0.09751396663112921,0.5786283347636705,-0.021744636935528583
6768,5.0,299.698,1127.0435,0.0,0.0,0.0,0.0,0.06745536726329933,0.0,-0.07658271925312593,-0.11765854081699388,-0.14835181152118387,0.13352654400804387,0.5766808275414664,-0.05241794863924875
6769,5.0,298.92655,1560.5473,0.0,0.0,0.0,0.0,0.06746533407288315,0.0,-0.16856765062633183,-0.1164924622044109,-0.18930728937067484,0.13745384060063787,0.5850411439840655,-0.01894258193673728
6770,5.0,299.71686,1910.4562,0.0,0.0,0.0,0.0,0.06747530088246696,0.0,-0.2115485748957188,-0.15375139090658085,-0.21543099464138377,0.15484072595658985,0.5902683492624504,-0.01940120223674958
6771,5.0,299.57882,1733.5306,0.0,0.0,0.0,0.0,0.0674852676920508,0.0,-0.16443686301615484,-0.15034289863018885,-0.2121702747595758,0.13506417129979587,0.5687100956298164,-0.015359665748380985
6772,5.0,300.38232,1609.854,0.0,0.0,0.0,0.0,0.0674952345016346,0.0,-0.1145199783672419,-0.15528890674082185,-0.21954651257255378,0.15234155471744085,0.5821065893094475,-0.018064147802292586
6773,5.0,300.36096000000003,1700.4313,0.0,0.0,0.0,0.0,0.06750520131121843,0.0,-0.16023672856913385,-0.15952045194094286,-0.19713148505286282,0.15912423062183884,0.6111926528375184,-0.029119881763408576
6774,5.0,300.19881000000004,1510.3262,0.0,0.0,0.0,0.0,0.06751516812080224,0.0,-0.18885564327110083,-0.1284728172792799,-0.14177299140440486,0.16669811299932283,0.5746777334187765,-0.008130948436012132
6775,5.0,300.80023,1285.8017,0.0,0.0,0.0,0.0,0.06752513493038606,0.0,-0.19444534890526183,-0.1024295235365069,-0.09397673383678151,0.13094348579311588,0.5527199248742094,-0.03652109112510107
6776,5.0,300.61307999999997,1133.4604,0.0,0.0,0.0,0.0,0.06753510173996989,0.0,-0.12946388733459088,-0.08780335156201612,-0.1272764222237049,0.12302350757897489,0.5619667743593024,-0.011743611215504188
6777,5.0,299.77137999999997,1271.8355,0.0,0.0,0.0,0.0,0.06754506854955371,0.0,-0.08285400073930323,-0.12411617622181288,-0.17963606034619883,0.13333405688654687,0.5934229210637825,-0.03615087689631376
6778,5.0,300.35177000000004,1573.4602,0.0,0.0,0.0,0.0,0.06755503535913754,0.0,-0.07396823103334603,-0.16872687274704584,-0.23559752899666578,0.14579208845605887,0.5983567904382174,-0.05468367516135854
6779,5.0,300.09513,1789.9565,0.0,0.0,0.0,0.0,0.06756500216872134,0.0,-0.1144284109557049,-0.17360240931322385,-0.25607127064976676,0.15262324837774185,0.5882321623914945,-0.03676366218579096
6780,5.0,300.14126,1568.9182,0.0,0.0,0.0,0.0,0.06757496897830517,0.0,-0.14255981050455785,-0.14423626319251084,-0.19011590348047883,0.15387163329594786,0.5821492572711584,-0.040488808290684256
6781,5.0,300.64406,1228.0211,0.0,0.0,0.0,0.0,0.067584935787889,0.0,-0.13943782482644188,-0.12179518501274887,-0.11205473074144089,0.16261599179144884,0.6095934300721874,-0.018655024598107584
6782,5.0,300.36408,1316.5351,0.0,0.0,0.0,0.0,0.0675949025974728,0.0,-0.13307612394109086,-0.12152381637096689,-0.14559384607399387,0.14337958049796287,0.5641805130452814,-0.03793987735237436
6783,5.0,299.56638,1457.7401,0.0,0.0,0.0,0.0,0.06760486940705664,0.0,-0.13421674971116188,-0.13442269279398686,-0.17447716838955585,0.13780435420773088,0.5561942277445965,-0.022414090263348476
6784,5.0,299.34765,1441.4421,0.0,0.0,0.0,0.0,0.06761483621664045,0.0,-0.10125113190870871,-0.14674079452468886,-0.19017048726336583,0.12363603752942688,0.5860560152842255,-0.03567838216268217
6785,5.0,298.94276,1326.5009,0.0,0.0,0.0,0.0,0.06762480302622427,0.0,-0.14464624444797286,-0.10132118295437222,-0.15725572650993183,0.15145036072448684,0.6184454970533184,-0.053675835816892545
6786,5.0,298.59333,1653.5853,0.0,0.0,0.0,0.0,0.0676347698358081,0.0,-0.18658432158193883,-0.14183225640275388,-0.17423205305786482,0.14856159482188785,0.6105044635020994,-0.027248059257424077
6787,5.0,298.17682,1928.0529,0.0,0.0,0.0,0.0,0.06764473664539192,0.0,-0.23047868068397478,-0.16884450095115486,-0.18675675648395682,0.14312596399793287,0.5839022812691684,-0.03448154127706317
6788,5.0,299.18844,1840.2966,0.0,0.0,0.0,0.0,0.06765470345497575,0.0,-0.15405823343436387,-0.15274689528744487,-0.25259907533958775,0.15849925796015885,0.5637667726319485,0.0014481082666171587
6789,5.0,299.70849,1510.4346,0.0,0.0,0.0,0.0,0.06766467026455955,0.0,-0.09543704203990272,-0.12587725555811788,-0.23782009309101576,0.17330525345639683,0.6011657223654374,-0.011422934784105887
6790,5.0,301.16726,1240.8791,0.0,0.0,0.0,0.0,0.06767463707414338,0.0,-0.04775501727530325,-0.12096180707050087,-0.2084794403428188,0.16208899028193785,0.5684104775752464,-0.006343902944694474
6791,5.0,299.77212000000003,1192.558,0.0,0.0,0.0,0.0,0.06768460388372721,0.0,-0.0942823006826886,-0.1112592483529329,-0.15696631188386884,0.12338369772452287,0.5725115972224954,-0.04122454641354596
6792,5.0,299.73609,1369.765,0.0,0.0,0.0,0.0,0.06769457069331102,0.0,-0.17217586462993484,-0.1015068883929499,-0.14269160394506486,0.13233281380023187,0.6152782697582374,-0.02111937245781978
6793,5.0,299.00862,1409.6967,0.0,0.0,0.0,0.0,0.06770453750289485,0.0,-0.1772740122430828,-0.1077774170343029,-0.14346116739601486,0.13488640670225188,0.6281462724507104,-0.038425071149509264
6794,5.0,299.81629,1262.9142,0.0,0.0,0.0,0.0,0.06771450431247866,0.0,-0.12505403038187188,-0.11863101773296988,-0.14020932358508287,0.14273080659143386,0.6016035781311504,-0.06322436734700923
6795,5.0,299.76087,1372.1784,0.0,0.0,0.0,0.0,0.0677244711220625,0.0,-0.09257458720265041,-0.13029175319629488,-0.1942416248401558,0.12425233677025088,0.5776519163048054,-0.05472810617824354
6796,5.0,299.64829,1575.7448,0.0,0.0,0.0,0.0,0.06773443793164631,0.0,-0.1122846777191349,-0.15374344702579684,-0.21295895823991282,0.19138436088316582,0.5716563330780874,-0.06306634694091386
6797,5.0,298.69731,1621.6595,0.0,0.0,0.0,0.0,0.06774440474123013,0.0,-0.14720096205760386,-0.14252103342323086,-0.2032219895489488,0.17899772291569982,0.6102182608788534,-0.02882227805003737
6798,5.0,299.43722,1463.4399,0.0,0.0,0.0,0.0,0.06775437155081396,0.0,-0.14547522488478684,-0.12941486629475288,-0.16995908619365585,0.17885640492425284,0.5911624816806944,-0.03966328404996136
6799,5.0,299.13802000000004,1193.1555,0.0,0.0,0.0,0.0,0.06776433836039776,0.0,-0.11144210959847989,-0.1088306702482509,-0.14241668892793286,0.11724212542339689,0.5732969977725084,-0.017049265356381484
6800,5.0,299.17822,1181.2538,0.0,0.0,0.0,0.0,0.06777430516998158,0.0,-0.06728053719332204,-0.099453244236021,-0.19233786975726982,0.13704702068548788,0.5777674977437124,-0.03798334983466476
6801,5.0,299.51805,1410.0049,0.0,0.0,0.0,0.0,0.06778427197956542,0.0,-0.08723914654858342,-0.12000803475137088,-0.2213590954114418,0.14639188185275387,0.5958526745385805,-0.01036160900661119
6802,5.0,299.70786,1593.7674,0.0,0.0,0.0,0.0,0.06779423878914922,0.0,-0.1169210568642099,-0.13993260498277285,-0.22761184151353978,0.14018965640064188,0.5712926573521955,-0.03799172130699096
6803,5.0,300.39555,1319.5638,0.0,0.0,0.0,0.0,0.06780420559873306,0.0,-0.15459771818510687,-0.09212833665985891,-0.15438840097944884,0.12942129030038688,0.5673750879605615,-0.03186015687710267
6804,5.0,300.53797000000003,1248.4297,0.0,0.0,0.0,0.0,0.06781417240831687,0.0,-0.14773432677774287,-0.1259670599144809,-0.1057900789506679,0.14900709049335484,0.6060770367926464,-0.06337764574263664
6805,5.0,300.57457,1686.7142,0.0,0.0,0.0,0.0,0.0678241392179007,0.0,-0.19550718434755682,-0.13177927527060188,-0.18543253992826683,0.16521404610785684,0.6355503239789334,-0.033468080421042365
6806,5.0,300.00518,1811.2521,0.0,0.0,0.0,0.0,0.06783410602748452,0.0,-0.16932815562138784,-0.16053325621089884,-0.22071398947027482,0.15779703511085483,0.5890737071295484,-0.03639179433284046
6807,5.0,298.92728999999997,1490.6538,0.0,0.0,0.0,0.0,0.06784407283706834,0.0,-0.1000714848640366,-0.13683337690190286,-0.2162166789014248,0.13626095139040886,0.5602002133399565,-0.04288764243868076
6808,5.0,299.26462000000004,1148.3748,0.0,0.0,0.0,0.0,0.06785403964665217,0.0,-0.08148687506837843,-0.08481958333004111,-0.18277081297557482,0.14238263359207187,0.5788791242959215,-0.024809340545741274
6809,5.0,299.59524,1218.5468,0.0,0.0,0.0,0.0,0.06786400645623597,0.0,-0.1045439535801849,-0.12448121983533987,-0.14138262667087886,0.15858971079658585,0.5926003747651034,-0.026730957201390074
6810,5.0,299.43798,1519.6051,0.0,0.0,0.0,0.0,0.0678739732658198,0.0,-0.15331245096326085,-0.14257174659073585,-0.16603781843915685,0.14751810933890386,0.5829091036536495,-0.021612454406983183
6811,5.0,299.91499,1746.7491,0.0,0.0,0.0,0.0,0.06788394007540362,0.0,-0.16363223097924384,-0.15389794740104484,-0.2134379215621828,0.13113197057671788,0.5767438111676825,-0.05162458191694955
6812,5.0,299.17875,1368.9988,0.0,0.0,0.0,0.0,0.06789390688498743,0.0,-0.08872746098446861,-0.14898720039389188,-0.17842678688185284,0.15805486673130087,0.6034516753860435,-0.03129613931493847
6813,5.0,300.2104,1080.6607,0.0,0.0,0.0,0.0,0.06790387369457127,0.0,-0.04809297468715705,-0.11047997796602489,-0.16992092719488985,0.13942775312044786,0.6202082381197874,-0.027874401833239273
6814,5.0,300.39837,1614.0129,0.0,0.0,0.0,0.0,0.06791384050415508,0.0,-0.13409419711156687,-0.16594249186974883,-0.19058294084907182,0.15050650812383584,0.6002827660957964,-0.041129336367899456
6815,5.0,300.03556000000003,1914.9574,0.0,0.0,0.0,0.0,0.06792380731373891,0.0,-0.22889558886023578,-0.15253674721670485,-0.2006668970367808,0.13382125793212987,0.5675346343213075,-0.02654188371947997
6816,5.0,299.91187,1616.6292,0.0,0.0,0.0,0.0,0.06793377412332273,0.0,-0.16656254013594285,-0.13788818038850387,-0.18696417891192782,0.14361978156666885,0.6167945681353844,-0.04125199941175536
6817,5.0,299.70797999999996,1323.6727,0.0,0.0,0.0,0.0,0.06794374093290655,0.0,-0.14450489605902286,-0.09378093338745751,-0.16407762532570083,0.14405426320954887,0.6316471022087154,-0.029500120075435173
6818,5.0,299.99869,1509.8721,0.0,0.0,0.0,0.0,0.06795370774249036,0.0,-0.11888160461520088,-0.12855064501946087,-0.2115311571264998,0.15037735926608986,0.6163135884454154,-0.031872301692801266
6819,5.0,300.07525,1690.3086,0.0,0.0,0.0,0.0,0.06796367455207418,0.0,-0.13509830769566486,-0.13905799789395587,-0.23965530180463676,0.15492031675194487,0.5738865269456904,-0.025154563974062176
6820,5.0,299.15427,1640.4725,0.0,0.0,0.0,0.0,0.067973641361658,0.0,-0.14056862207054285,-0.15559820133384686,-0.2024958641297858,0.15568445931485986,0.5827905229944464,-0.02510433210035468
6821,5.0,299.30793,1304.8846,0.0,0.0,0.0,0.0,0.06798360817124183,0.0,-0.11753061799186888,-0.12425563996557688,-0.15486606734159086,0.17124241810781082,0.5885500898753714,0.006288021999029453
6822,5.0,299.5951,1034.2318,0.0,0.0,0.0,0.0,0.06799357498082564,0.0,-0.09745397209270822,-0.10632281545574489,-0.1106038680557519,0.12761835360245088,0.5694776832430715,-0.024806142728425677
6823,5.0,299.19367,1252.7067,0.0,0.0,0.0,0.0,0.06800354179040947,0.0,-0.10865914727132289,-0.1104524986233129,-0.16167990068656385,0.15367295521633986,0.5588140061431485,-0.03800370501592367
6824,5.0,299.24778,1769.4834,0.0,0.0,0.0,0.0,0.06801350859999328,0.0,-0.16832474417985882,-0.15163303958501587,-0.21792097570212576,0.13907757388588787,0.6068651731179295,-0.03942469911516486
6825,5.0,299.43656,1725.7245,0.0,0.0,0.0,0.0,0.06802347540957711,0.0,-0.14630941342711484,-0.15473836743148783,-0.22352938593313276,0.16699412388353682,0.6145488208787464,-0.03397697008501587
6826,5.0,299.70396,1251.1542,0.0,0.0,0.0,0.0,0.06803344221916094,0.0,-0.12038274477085188,-0.11766962577308789,-0.14226725480318486,0.13875961600450787,0.5974928731379555,-0.02717519948248337
6827,5.0,300.4832,1527.5667,0.0,0.0,0.0,0.0,0.06804340902874474,0.0,-0.14987586126159586,-0.14116100860900685,-0.17330526358889783,0.12505609741207588,0.5597653973245434,-0.03986575067169326
6828,5.0,300.33539,1918.1393,0.0,0.0,0.0,0.0,0.06805337583832857,0.0,-0.1990390904861288,-0.14521864969446485,-0.23880872121358576,0.15269156169948386,0.5769854510515305,-0.012932796996617688
6829,5.0,300.04398,1699.2389,0.0,0.0,0.0,0.0,0.06806334264791239,0.0,-0.13506250956963187,-0.15572955907681085,-0.22573411682572275,0.14927029233933087,0.6035715732703764,-0.024374528583328677
6830,5.0,299.32757000000004,1224.69,0.0,0.0,0.0,0.0,0.0680733094574962,0.0,-0.07630496612246383,-0.1269258883516099,-0.16904432400337585,0.14472034342778586,0.6077976266549554,-0.02259426234313008
6831,5.0,300.02439,1121.9747,0.0,0.0,0.0,0.0,0.06808327626708004,0.0,-0.07222271724507723,-0.10530342506013889,-0.16352615382627486,0.13638880328802686,0.5562076837059244,-0.04524870768919976
6832,5.0,300.20996,1332.8777,0.0,0.0,0.0,0.0,0.06809324307666385,0.0,-0.13790231522739888,-0.12367295023056989,-0.14358626325336085,0.17051580632859983,0.6054260438683984,-0.023723428254570078
6833,5.0,299.90783999999996,1605.2749,0.0,0.0,0.0,0.0,0.06810320988624768,0.0,-0.15802683010103385,-0.14161978798928487,-0.1883168677954278,0.18217563999933584,0.5874649598132774,-0.019182937019458484
6834,5.0,300.435,1709.0284,0.0,0.0,0.0,0.0,0.06811317669583149,0.0,-0.17661386967043183,-0.14611918585334085,-0.1967689137695798,0.16360782178433486,0.5826487389079534,-0.01882726698260658
6835,5.0,300.18743,1464.943,0.0,0.0,0.0,0.0,0.06812314350541532,0.0,-0.12734608316807988,-0.13724161536719287,-0.18071838370551582,0.1264473505943819,0.5591867301924335,-0.041971082742723355
6836,5.0,299.92492000000004,1431.6139,0.0,0.0,0.0,0.0,0.06813311031499915,0.0,-0.15558601193514385,-0.12041865435439587,-0.15917022204387785,0.15353871984309184,0.6064410367585704,-0.04179080021868086
6837,5.0,299.63694,1860.7102,0.0,0.0,0.0,0.0,0.06814307712458295,0.0,-0.18131604927700082,-0.14631043680971587,-0.23798296291208976,0.16469361045899383,0.6068016929991644,-0.026551296812908978
6838,5.0,299.92764,1737.5218,0.0,0.0,0.0,0.0,0.06815304393416678,0.0,-0.1938095142025098,-0.13383838185881988,-0.2005153452193238,0.15842767184059386,0.6178399382635543,-0.02454358936251368
6839,5.0,299.38572999999997,1200.8567,0.0,0.0,0.0,0.0,0.0681630107437506,0.0,-0.09889108902754061,-0.1127345303660319,-0.15340482897487787,0.1102839039391739,0.5510536958797655,-0.04167562914606436
6840,5.0,299.57301,1105.3899,0.0,0.0,0.0,0.0,0.06817297755333442,0.0,-0.08847928766397582,-0.09372634757807032,-0.15380530594440187,0.16028467556386586,0.5947707260818004,-0.04443033091468226
6841,5.0,299.42331,1280.4906,0.0,0.0,0.0,0.0,0.06818294436291825,0.0,-0.08222269019824772,-0.13110458242651488,-0.17590990403095585,0.16268139708540386,0.5937447292955425,-0.04705194937541586
6842,5.0,300.41141,1572.7761,0.0,0.0,0.0,0.0,0.06819291117250206,0.0,-0.1257198471550829,-0.15747420349649385,-0.1948905912642038,0.17266826364853083,0.5998044411210894,-0.05006378868816125
6843,5.0,300.32459,1591.6313,0.0,0.0,0.0,0.0,0.0682028779820859,0.0,-0.13964338287422887,-0.16959999035821582,-0.17457280906649483,0.14555810874296687,0.5690336973142535,-0.06291425911415394
6844,5.0,300.64449,1232.1978,0.0,0.0,0.0,0.0,0.0682128447916697,0.0,-0.12308405940495089,-0.10817167264821291,-0.14330163116776987,0.14821444520512686,0.6195467783220064,-0.02394226089191718
6845,5.0,300.37482,1266.3401,0.0,0.0,0.0,0.0,0.06822281160125353,0.0,-0.1029707510774219,-0.1286430838260839,-0.15332191471919485,0.13679173232279287,0.6184546568342224,-0.05499203249804105
6846,5.0,300.28738,1808.2238,0.0,0.0,0.0,0.0,0.06823277841083736,0.0,-0.15769514268079884,-0.14852341555811988,-0.24343632561279477,0.13480772783198686,0.6076191933123454,-0.019496287652633785
6847,5.0,300.20476,1833.9346,0.0,0.0,0.0,0.0,0.06824274522042116,0.0,-0.15943197494221084,-0.16852910659252784,-0.22950925365079977,0.12823021480783686,0.5563240554799095,-0.05551802683695265
6848,5.0,299.69442999999995,1340.0271,0.0,0.0,0.0,0.0,0.06825271203000499,0.0,-0.12228133227822788,-0.11063905823172489,-0.17441438741335982,0.14351333964366386,0.5966938747716004,-0.022134062386211878
6849,5.0,299.80926,1104.5619,0.0,0.0,0.0,0.0,0.06826267883958881,0.0,-0.0965703004684966,-0.08135188381055582,-0.15783705848980484,0.15742394629153383,0.5797342972478204,-0.03843106452385076
6850,5.0,299.8998,1492.8576,0.0,0.0,0.0,0.0,0.06827264564917263,0.0,-0.14255460239904386,-0.13538857345181188,-0.17584826802737283,0.14679023099706787,0.5900817288590324,-0.015458060439091785
6851,5.0,299.65837999999997,1754.7748,0.0,0.0,0.0,0.0,0.06828261245875646,0.0,-0.15996532952984885,-0.15760328142673286,-0.2158391115166618,0.14813853250763487,0.5583155681539564,-0.04573061348976016
6852,5.0,300.11933,1549.1492,0.0,0.0,0.0,0.0,0.06829257926834027,0.0,-0.13196627057655688,-0.14796413190042287,-0.19097228219999682,0.16982730288564984,0.6182488860039144,-0.024217579182588978
6853,5.0,299.1762,1219.4556,0.0,0.0,0.0,0.0,0.0683025460779241,0.0,-0.08650623944650111,-0.14214583704370187,-0.14203196799746387,0.17391285901136283,0.6150487078155814,-0.03336164255103777
6854,5.0,299.79603,1426.369,0.0,0.0,0.0,0.0,0.0683125128875079,0.0,-0.13681217970981085,-0.1145739542000689,-0.18219443578869082,0.14800656681461086,0.5987611988181294,-0.016305330040210786
6855,5.0,300.84154,1903.1741,0.0,0.0,0.0,0.0,0.06832247969709174,0.0,-0.2098560115311758,-0.15884583002436287,-0.2098155625871838,0.14255122827621086,0.5617843386787974,-0.04065168723100916
6856,5.0,300.06811,1800.1104,0.0,0.0,0.0,0.0,0.06833244650667557,0.0,-0.18791949137120983,-0.13548310968614186,-0.2237860219184608,0.14849635164794886,0.6126257127189504,-0.02065477803521788
6857,5.0,300.9953,1201.7037,0.0,0.0,0.0,0.0,0.06834241331625937,0.0,-0.0995071552208416,-0.0964557170809381,-0.16932505507608184,0.14879973899289087,0.6198386754108144,-0.043411029685085055
6858,5.0,301.57386,1039.3483,0.0,0.0,0.0,0.0,0.0683523801258432,0.0,-0.06465534195973545,-0.1102714916254489,-0.14100910215401485,0.11616232505682889,0.5933788649494345,-0.051277211411666745
6859,5.0,299.84159,1473.7166,0.0,0.0,0.0,0.0,0.06836234693542702,0.0,-0.12991815775192386,-0.13683190768925788,-0.18122296199031385,0.14236188223002388,0.5722224359089575,-0.05715614726037255
6860,5.0,299.81185,1807.6928,0.0,0.0,0.0,0.0,0.06837231374501083,0.0,-0.2033932085508468,-0.15617302824807786,-0.18992724644435982,0.16069420085678285,0.6014114355146873,-0.04327025175594136
6861,5.0,299.04972999999995,1426.5134,0.0,0.0,0.0,0.0,0.06838228055459467,0.0,-0.12807425535244488,-0.15205193744135787,-0.15349824050159686,0.17463424242005782,0.5928639109836124,-0.037633822119919065
6862,5.0,299.30021,1102.3874,0.0,0.0,0.0,0.0,0.06839224736417848,0.0,-0.08106935421892233,-0.11817794295075489,-0.13585096000244587,0.11788303650914989,0.5707001593562204,-0.03367159676987787
6863,5.0,300.43225,1559.8376,0.0,0.0,0.0,0.0,0.06840221417376231,0.0,-0.1128151952064929,-0.15875384718028485,-0.2025826287358488,0.14142248792981285,0.5479886244597665,-0.04152810601100496
6864,5.0,300.14925,1846.0722,0.0,0.0,0.0,0.0,0.06841218098334612,0.0,-0.15516161213075885,-0.16208952730449086,-0.24390872307441674,0.15279427486212085,0.6013152578151953,-0.03616174501688637
6865,5.0,299.46265,1800.1617,0.0,0.0,0.0,0.0,0.06842214779292995,0.0,-0.15170529444964687,-0.15930367721454886,-0.23619524523065577,0.18204742333168183,0.6358530425788094,-0.02192422133025218
6866,5.0,300.68959,1494.0391,0.0,0.0,0.0,0.0,0.06843211460251376,0.0,-0.15616387859967484,-0.12036786012688289,-0.17761883138461382,0.15359293885594286,0.6148405457150374,-0.017100408141928883
6867,5.0,300.8616,1238.298,0.0,0.0,0.0,0.0,0.06844208141209758,0.0,-0.11502308743939489,-0.0994187846133701,-0.16196979154017385,0.12967099565503087,0.5887589713834864,-0.008158776134108512
6868,5.0,300.50702,1466.692,0.0,0.0,0.0,0.0,0.06845204822168141,0.0,-0.1347317543394889,-0.11282355451981789,-0.1982824257089518,0.12953527080413588,0.6254447754315934,-0.03145220617484107
6869,5.0,300.35986,1765.1009,0.0,0.0,0.0,0.0,0.06846201503126523,0.0,-0.15961831163560083,-0.15253434581396785,-0.22439395171345877,0.15841720496706085,0.6100526755475114,-0.011993014621618387
6870,5.0,299.34885,1373.0486,0.0,0.0,0.0,0.0,0.06847198184084904,0.0,-0.1153654545156839,-0.1211606270051229,-0.18084639772314984,0.12318938675284588,0.5998726733828235,-0.041987064736550665
6871,5.0,298.59687,990.05974,0.0,0.0,0.0,0.0,0.06848194865043288,0.0,-0.09168188042729711,-0.0964711924497154,-0.11280036122502889,0.13926635251201888,0.5788650502520325,-0.048406728593872156
6872,5.0,299.86544,1412.764,0.0,0.0,0.0,0.0,0.06849191546001669,0.0,-0.15336132001558384,-0.1184328665434139,-0.15765080285642286,0.16417734940054285,0.5979008582907205,-0.04071783321078726
6873,5.0,299.49025,1904.4539,0.0,0.0,0.0,0.0,0.06850188226960051,0.0,-0.18479662416550682,-0.16808413781111284,-0.2260256694094968,0.16288624585812086,0.6060988419347985,-0.018782749839463084
6874,5.0,299.25002,1758.6875,0.0,0.0,0.0,0.0,0.06851184907918433,0.0,-0.13669352812310087,-0.16941458585491784,-0.22848897159510578,0.16498981386072684,0.5694205156724295,-0.015558588021263085
6875,5.0,300.13681,1343.7811,0.0,0.0,0.0,0.0,0.06852181588876814,0.0,-0.0960231129904934,-0.1119306380016939,-0.2005221542599958,0.15333785314326787,0.5599897410291844,-0.03168480786779707
6876,5.0,300.42857999999995,1258.335,0.0,0.0,0.0,0.0,0.06853178269835197,0.0,-0.1006633779497019,-0.12627813782768188,-0.15556089346516486,0.15727260725659784,0.5986329618854734,-0.02099849982689058
6877,5.0,300.21052000000003,1330.8007,0.0,0.0,0.0,0.0,0.06854174950793579,0.0,-0.14391494132079885,-0.09370352918581831,-0.16691170612040282,0.17665243396923783,0.6129119761372024,-0.04488694599274666
6878,5.0,301.01328,1466.2906,0.0,0.0,0.0,0.0,0.06855171631751962,0.0,-0.18471552362750282,-0.10071566469461221,-0.16028453370885185,0.14348264829813487,0.6091346202944065,-0.02758519492344677
6879,5.0,299.2042,1263.0981,0.0,0.0,0.0,0.0,0.06856168312710342,0.0,-0.1259403506418449,-0.11490677646041589,-0.14310316587068286,0.11175087730145289,0.5978176704575104,-0.06922073786905493
6880,5.0,298.82164,1064.6699,0.0,0.0,0.0,0.0,0.06857164993668725,0.0,-0.08843795313939642,-0.07840084051706052,-0.15679426201688887,0.12178131361887988,0.6057011007405444,-0.04398030398876806
6881,5.0,299.83754,1351.4068,0.0,0.0,0.0,0.0,0.06858161674627108,0.0,-0.09758372484751382,-0.13365579419079987,-0.17955441265314084,0.13313691894709087,0.6128813050566754,-0.05531458141562415
6882,5.0,299.92941,1807.4686,0.0,0.0,0.0,0.0,0.06859158355585489,0.0,-0.16077066070932886,-0.15669320045191484,-0.23196146074781376,0.15548180929485986,0.5877025973592305,-0.03039767829226727
6883,5.0,299.19507999999996,1853.1932,0.0,0.0,0.0,0.0,0.06860155036543872,0.0,-0.19712354117207884,-0.14654382883774986,-0.21965707842346577,0.15791133985463585,0.5860923909628155,-0.016907189453859685
6884,5.0,298.90741,1391.6645,0.0,0.0,0.0,0.0,0.06861151717502253,0.0,-0.14511359592409687,-0.11807689151828188,-0.15984076056255483,0.17248603061804582,0.6015754097783704,-0.023382342939657578
6885,5.0,298.61557,1184.8002,0.0,0.0,0.0,0.0,0.06862148398460635,0.0,-0.11921385945549189,-0.08357383286209512,-0.15736196578291686,0.17103024353687085,0.5953630011627534,-0.0038921642732017065
6886,5.0,299.99192,1551.8110000000001,0.0,0.0,0.0,0.0,0.06863145079419018,0.0,-0.13327415354063488,-0.1261982734547999,-0.2122393682838948,0.14482623819573687,0.5803659472276594,-0.02858287238265987
6887,5.0,299.74156,1692.7132,0.0,0.0,0.0,0.0,0.068641417603774,0.0,-0.15053046135619985,-0.14950275217727285,-0.21450934235042377,0.14520827401344086,0.5727469954857275,-0.02189874315648768
6888,5.0,300.6355,1536.0234,0.0,0.0,0.0,0.0,0.06865138441335783,0.0,-0.12110607361973888,-0.1398514132522599,-0.2059552722237028,0.15165173404936083,0.5784595272970104,-0.047621517521627854
6889,5.0,299.83266000000003,1266.5522,0.0,0.0,0.0,0.0,0.06866135122294163,0.0,-0.12833789289596387,-0.10926961019157089,-0.14739273990403087,0.13921829405977587,0.6072793086988014,-0.03266338353612497
6890,5.0,299.82768,1418.9184,0.0,0.0,0.0,0.0,0.06867131803252546,0.0,-0.13263580597763489,-0.13258420115004188,-0.16609575607987484,0.13171696038945188,0.6024607269207444,-0.05246542244618405
6891,5.0,300.11982,1786.3035,0.0,0.0,0.0,0.0,0.0686812848421093,0.0,-0.17347673590332086,-0.15015338033148487,-0.2193615538992998,0.1140364047570169,0.6236874957831634,-0.05670883888447665
6892,5.0,301.16696,1695.8835,0.0,0.0,0.0,0.0,0.0686912516516931,0.0,-0.14160535930786086,-0.16354087635022785,-0.2103599919984148,0.11867682676999089,0.6241031208416824,-0.046506663767850356
6893,5.0,299.46623,990.5872199999999,0.0,0.0,0.0,0.0,0.06870121846127693,0.0,-0.06449781804618904,-0.09663916702479322,-0.13997679281963388,0.14279004119227984,0.6169261285283685,-0.04098709429236126
6894,5.0,299.87262999999996,1003.4546,0.0,0.0,0.0,0.0,0.06871118527086074,0.0,-0.07289206924788713,-0.1166900561064119,-0.11544302894333987,0.16281855061893985,0.5835203163789715,-0.012507698049663687
6895,5.0,299.13862,1576.0036,0.0,0.0,0.0,0.0,0.06872115208044456,0.0,-0.15232682206098686,-0.13689809318578985,-0.1898408162108298,0.18532932014057982,0.5859649544977384,-0.027711870437698672
6896,5.0,299.18077,1878.7539,0.0,0.0,0.0,0.0,0.06873111889002839,0.0,-0.2006687918144678,-0.16630277320780584,-0.2041227080928428,0.16296980859386784,0.5779627206404795,-0.024629852409777178
6897,5.0,299.71121,1691.0575,0.0,0.0,0.0,0.0,0.06874108569961221,0.0,-0.15133059456266684,-0.17461049183771385,-0.18809816789384382,0.15751204838772884,0.5980719151726024,-0.058669384608967444
6898,5.0,300.02446000000003,1226.9957,0.0,0.0,0.0,0.0,0.06875105250919604,0.0,-0.0932635790321486,-0.11393741022224689,-0.16577507255572585,0.13741996764979486,0.5804442511953875,-0.04140914031676396
6899,5.0,299.89747,1328.5220000000002,0.0,0.0,0.0,0.0,0.06876101931877984,0.0,-0.0999836522923682,-0.14275361485118487,-0.16110025070185685,0.15085759928348585,0.5980906096369475,-0.042400259008079755
6900,5.0,301.32471,1896.2045,0.0,0.0,0.0,0.0,0.06877098612836367,0.0,-0.1847418478651008,-0.16698629146026384,-0.22467069058077077,0.17645796087754484,0.5874770073569665,-0.03846468314891866
6901,5.0,300.83041000000003,1743.844,0.0,0.0,0.0,0.0,0.0687809529379475,0.0,-0.17561632494698184,-0.15454160439456885,-0.1999271028737688,0.15470790913348184,0.6082591215455014,-0.012077903701746289
6902,5.0,300.13757999999996,1026.316,0.0,0.0,0.0,0.0,0.0687909197475313,0.0,-0.07281751126577883,-0.09170242609957482,-0.14745450763012685,0.15038933588227185,0.6070406781677504,-0.04653970788011155
6903,5.0,299.79514,1023.377,0.0,0.0,0.0,0.0,0.06880088655711514,0.0,-0.09200111703030332,-0.06339343724544515,-0.15568650608006185,0.11472819113029088,0.6110264494236154,-0.017687947291914485
6904,5.0,298.89782,1595.7172,0.0,0.0,0.0,0.0,0.06881085336669895,0.0,-0.14919395407679684,-0.14192348944175787,-0.1939407300904598,0.1343370123655309,0.6215461740818314,-0.04317845636313187
6905,5.0,299.34333,1938.6167,0.0,0.0,0.0,0.0,0.06882082017628277,0.0,-0.1850738392603658,-0.16697739512438584,-0.23723984528874978,0.1258323483136859,0.6242109509173244,-0.0019236905759534783
6906,5.0,299.71441,1619.9520000000002,0.0,0.0,0.0,0.0,0.0688307869858666,0.0,-0.14392057499135488,-0.15497703849254285,-0.19352734431466181,0.18571064668321383,0.5831805938854434,-0.03601949483534737
6907,5.0,299.73582000000005,1296.6374,0.0,0.0,0.0,0.0,0.06884075379545042,0.0,-0.13147992066105788,-0.12347449506598389,-0.13919096670457887,0.15845426965571885,0.5834868385956674,-0.03380568319536117
6908,5.0,300.88568,1558.715,0.0,0.0,0.0,0.0,0.06885072060503425,0.0,-0.15036343720971587,-0.13914721456526088,-0.18429978711147282,0.17911528019230183,0.5941692202924365,-0.04301514577826436
6909,5.0,300.63031,1742.5589,0.0,0.0,0.0,0.0,0.06886068741461805,0.0,-0.17393476547852482,-0.14795888326490486,-0.2078007552933378,0.14868766339932984,0.5995527903262534,-0.061830750252219936
6910,5.0,300.07203,1405.5453,0.0,0.0,0.0,0.0,0.06887065422420188,0.0,-0.10931750652379789,-0.13695505810641187,-0.18097811010364884,0.15083767878651985,0.5889632527361475,-0.04442426154658325
6911,5.0,299.95543,1037.9783,0.0,0.0,0.0,0.0,0.06888062103378571,0.0,-0.08449919972792172,-0.08330753249731333,-0.14771276481561485,0.13118082949653986,0.5956932396353454,-0.05332523608354105
6912,5.0,299.73825,1203.6882,0.0,0.0,0.0,0.0,0.06889058784336952,0.0,-0.13318780436711286,-0.0912158208450506,-0.14148753858623286,0.15750736717226685,0.5803348100520864,-0.00925184845578635
6913,5.0,298.50366,1511.5853,0.0,0.0,0.0,0.0,0.06890055465295335,0.0,-0.15155437084725187,-0.11945600596438988,-0.18847381010341682,0.13652378846634888,0.5970626268804934,-0.017925236279833084
6914,5.0,298.83231,1721.4778,0.0,0.0,0.0,0.0,0.06891052146253716,0.0,-0.14590565352726687,-0.14966616915340084,-0.22771445335116677,0.15913928751832485,0.5991616555226514,-0.009088973669786862
6915,5.0,299.17927000000003,1523.8811,0.0,0.0,0.0,0.0,0.06892048827212098,0.0,-0.12103732460045388,-0.15411882579034386,-0.1880656628306358,0.12439206395904089,0.6325970951049724,-0.04199155850074416
6916,5.0,299.66976,1343.8584,0.0,0.0,0.0,0.0,0.06893045508170481,0.0,-0.1063606907444829,-0.11009929990345489,-0.1920394068078138,0.14312273173011386,0.6535093916663554,-0.04493462143645186
6917,5.0,299.22237,1529.2043,0.0,0.0,0.0,0.0,0.06894042189128863,0.0,-0.12912668783381187,-0.14330529913313186,-0.1924079562666868,0.13806978520392688,0.6175663607365544,-0.044931973813940554
6918,5.0,299.67357999999996,1631.4301,0.0,0.0,0.0,0.0,0.06895038870087246,0.0,-0.16562579041849285,-0.13692860214630087,-0.19335961089310783,0.16524801025120883,0.6016260216208654,-0.05545275123901045
6919,5.0,299.69602000000003,1532.6703,0.0,0.0,0.0,0.0,0.06896035551045626,0.0,-0.15547631747931787,-0.12277004306645987,-0.18764712974432982,0.15156227419803187,0.5632060096291055,-0.03809964764139247
6920,5.0,299.61422999999996,1298.0585,0.0,0.0,0.0,0.0,0.06897032232004009,0.0,-0.1140481483256759,-0.11996976429509387,-0.16055945885848485,0.16653385502561185,0.5656670016044865,-0.055761662823497656
6921,5.0,300.25511,1214.0569,0.0,0.0,0.0,0.0,0.06898028912962391,0.0,-0.11674727433955888,-0.07574852868429773,-0.17654717754884983,0.14304757897019688,0.5734685106169354,-0.01050532434779479
6922,5.0,299.4026,1506.7775,0.0,0.0,0.0,0.0,0.06899025593920773,0.0,-0.09795162076007231,-0.14116342014424488,-0.21890768878200678,0.14498664581906787,0.5714243899976964,-0.024490311659005577
6923,5.0,300.56321,1861.7152,0.0,0.0,0.0,0.0,0.06900022274879156,0.0,-0.18063786072006885,-0.15442443215300486,-0.23085265103088276,0.15064420881242585,0.6106440691008774,-0.015572550607641084
6924,5.0,300.77461,1728.1926,0.0,0.0,0.0,0.0,0.06901018955837537,0.0,-0.17814742369678183,-0.12283296589766989,-0.2243470179688268,0.14758829717333086,0.6234150834937785,-0.0017030528335532286
6925,5.0,300.82953,1333.2186,0.0,0.0,0.0,0.0,0.06902015636795919,0.0,-0.12745341675117286,-0.12348341166686388,-0.15432833551352085,0.16555686914669085,0.6303630204894863,-0.04134646775832866
6926,5.0,299.75992,1277.4902,0.0,0.0,0.0,0.0,0.06903012317754302,0.0,-0.12114674547875287,-0.10912504979980389,-0.15805331645864787,0.12305536416211889,0.5986949930565955,-0.02842200778353377
6927,5.0,299.45318,1521.0223,0.0,0.0,0.0,0.0,0.06904008998712684,0.0,-0.12216615613936087,-0.14397375035660287,-0.1962129130422068,0.15621049823677585,0.6078845837785374,-0.08163615112611082
6928,5.0,298.65789,1611.8375,0.0,0.0,0.0,0.0,0.06905005679671065,0.0,-0.13557246821246088,-0.14495877130881685,-0.2094271128963468,0.14268983075738986,0.6029637245353864,-0.06755617668427553
6929,5.0,298.2925,1205.5510000000002,0.0,0.0,0.0,0.0,0.06906002360629447,0.0,-0.12089980629688189,-0.08795766245949542,-0.15759994783390385,0.1779041727452748,0.6150293750036734,-0.05761201658636335
6930,5.0,299.24657,1013.7389,0.0,0.0,0.0,0.0,0.06906999041587829,0.0,-0.0918007873530323,-0.08206257033794513,-0.13428795079568887,0.16567417311076785,0.5994425183178704,-0.015338651954557088
6931,5.0,300.25399,1557.4726,0.0,0.0,0.0,0.0,0.06907995722546212,0.0,-0.14307999284089587,-0.13968944522377488,-0.19066336250950883,0.16697388927903983,0.6031014353564774,-0.013978149899535986
6932,5.0,299.5313,1999.8315,0.0,0.0,0.0,0.0,0.06908992403504594,0.0,-0.2024197285172718,-0.15108365538079585,-0.2543954765743787,0.16000096553586585,0.5907973367421574,0.004017948330015626
6933,5.0,299.91881,1841.2814,0.0,0.0,0.0,0.0,0.06909989084462977,0.0,-0.15071112384902985,-0.17903350077673083,-0.22995892391267878,0.13889494568786387,0.5844788611060724,-0.008980800912961042
6934,5.0,300.54499,1419.6877,0.0,0.0,0.0,0.0,0.06910985765421357,0.0,-0.0967044122252324,-0.12922087956310788,-0.2056243143435398,0.13404775985948386,0.5742140803055175,-0.031815693436214466
6935,5.0,300.09589,1473.2373,0.0,0.0,0.0,0.0,0.0691198244637974,0.0,-0.13767344229481088,-0.13812836119220787,-0.17202556924260182,0.13262551135661887,0.5830649313865285,-0.03403185378993247
6936,5.0,300.76732999999996,1805.6738,0.0,0.0,0.0,0.0,0.06912979127338123,0.0,-0.19836527916962882,-0.15042186121048184,-0.2000926071451028,0.14678502289155387,0.6232685877943204,-0.04611992039018176
6937,5.0,299.47375,1600.9815,0.0,0.0,0.0,0.0,0.06913975808296503,0.0,-0.1853132905239978,-0.11047357422539289,-0.1908715347425538,0.16193801601703783,0.6220644109779775,-0.026309197926765674
6938,5.0,298.5455,1071.7585,0.0,0.0,0.0,0.0,0.06914972489254886,0.0,-0.08356195250467262,-0.09877900431472872,-0.14344687043710386,0.15808424085169986,0.6182207075186334,-0.03767436124316996
6939,5.0,299.39007000000004,1045.7666,0.0,0.0,0.0,0.0,0.06915969170213268,0.0,-0.055148479326731156,-0.08915534738244772,-0.17358310689881884,0.14756660348868986,0.6044040088900314,-0.03648683415247017
6940,5.0,298.87035,1527.2939999999999,0.0,0.0,0.0,0.0,0.0691696585117165,0.0,-0.11353276879481189,-0.13859845857610287,-0.2121280019654038,0.15623670088436187,0.5983495963625074,-0.027657332251066178
6941,5.0,298.17888,1812.2217,0.0,0.0,0.0,0.0,0.06917962532130033,0.0,-0.19509637222701282,-0.15188070830695885,-0.2038930853551808,0.15325948838053385,0.6081647069011834,-0.026591482311874973
6942,5.0,298.68652000000003,1656.3297,0.0,0.0,0.0,0.0,0.06918959213088414,0.0,-0.17380053010527685,-0.12421965945452589,-0.20546267055508682,0.15237462720070485,0.6004067473780323,-0.016780928358898682
6943,5.0,299.12791,1209.1735,0.0,0.0,0.0,0.0,0.06919955894046798,0.0,-0.11072837622803988,-0.12581840599230987,-0.13101177884985588,0.14544402691420788,0.5980669806446154,-0.03889565286695206
6944,5.0,300.31774,1307.4106,0.0,0.0,0.0,0.0,0.06920952575005178,0.0,-0.11174049148792789,-0.13471109416994986,-0.15096858056693885,0.13837041650859686,0.6146176104280354,-0.038314828525379166
6945,5.0,299.69333,1735.2437,0.0,0.0,0.0,0.0,0.06921949255963561,0.0,-0.13688656239965188,-0.16926077448973784,-0.22132340874291978,0.14533329894327987,0.6101611946332214,-0.05488330062981004
6946,5.0,299.38083,1644.3028,0.0,0.0,0.0,0.0,0.06922945936921944,0.0,-0.14426018602737187,-0.15632360734543885,-0.19924320971877382,0.16627242636731085,0.6066709837362645,-0.03949585662993756
6947,5.0,300.43523,1161.0718,0.0,0.0,0.0,0.0,0.06923942617880324,0.0,-0.10977026719848189,-0.097455540603863,-0.14571101831555788,0.15859695553480085,0.5913596196201504,-0.05045806456707325
6948,5.0,299.88094,915.8037099999999,0.0,0.0,0.0,0.0,0.06924939298838707,0.0,-0.07941735125588233,-0.08548385793659992,-0.11348025204212889,0.18264652771830883,0.6200396839656525,-0.049264301935258055
6949,5.0,299.68615,1347.6204,0.0,0.0,0.0,0.0,0.06925935979797089,0.0,-0.13650339174183587,-0.1157234155110119,-0.15741614426576384,0.15356123426031387,0.6017420894198204,-0.06179921689585784
6950,5.0,300.30666,1708.7145,0.0,0.0,0.0,0.0,0.06926932660755472,0.0,-0.16267948204271485,-0.14272420020078186,-0.2140028692879388,0.13185824798339588,0.5955704438557264,-0.036917886957011765
6951,5.0,300.56891,1496.7905,0.0,0.0,0.0,0.0,0.06927929341713854,0.0,-0.10192133808135291,-0.15145241762218986,-0.2016131713051708,0.11122557805210989,0.5800417071956594,-0.05285111305699875
6952,5.0,300.79226,1358.6968,0.0,0.0,0.0,0.0,0.06928926022672235,0.0,-0.09934494603883282,-0.11263680239388689,-0.20102814096243282,0.13255532352219188,0.6154668052043445,-0.007691093325201812
6953,5.0,299.63867,1490.9015,0.0,0.0,0.0,0.0,0.06929922703630619,0.0,-0.13674638938081787,-0.13458015185952688,-0.18187029708170083,0.14318921106917487,0.6140955434465114,-0.013862208756843486
6954,5.0,298.28794,1703.6277,0.0,0.0,0.0,0.0,0.06930919384588999,0.0,-0.15476500577661687,-0.14896830327952687,-0.21412696202768577,0.14740865806310186,0.6086025120043914,-0.027011530207080477
6955,5.0,298.97776,1805.0307,0.0,0.0,0.0,0.0,0.06931916065547382,0.0,-0.1897916634484788,-0.15101930386694487,-0.2078732837354958,0.18213637655796083,0.5938101751195014,-0.02472693190185818
6956,5.0,299.64865,1294.9506,0.0,0.0,0.0,0.0,0.06932912746505765,0.0,-0.11269361532699389,-0.10470329729091091,-0.17623574499811384,0.16224497000233185,0.6219121093554465,-0.04978846533123895
6957,5.0,299.88043999999996,957.1627800000001,0.0,0.0,0.0,0.0,0.06933909427464145,0.0,-0.07282075467934893,-0.08489864115584352,-0.13323419095669087,0.16787900532836783,0.6200724727388884,-0.04272312405969405
6958,5.0,299.82402,1279.0226,0.0,0.0,0.0,0.0,0.06934906108422528,0.0,-0.13272256045119687,-0.08515543318168692,-0.17091291930779184,0.13346238501171187,0.5989358324728644,-0.03359783216259787
6959,5.0,300.68608,1670.5620000000001,0.0,0.0,0.0,0.0,0.0693590278938091,0.0,-0.16772007705018283,-0.14573132384756188,-0.1943577331691148,0.14460110415601785,0.5824177381501554,-0.028703484608313373
6960,5.0,300.5614,1569.4176,0.0,0.0,0.0,0.0,0.06936899470339292,0.0,-0.13716713135234188,-0.12757745882841487,-0.2123191718617708,0.13702917735122686,0.5822937163379154,-0.03549372341145776
6961,5.0,300.34915,1362.2098,0.0,0.0,0.0,0.0,0.06937896151297675,0.0,-0.12152672439875388,-0.13535309956581087,-0.15719795098922984,0.1787528710290348,0.5989871535904295,-0.036092595763811866
6962,5.0,300.11568,1554.7431,0.0,0.0,0.0,0.0,0.06938892832256056,0.0,-0.10454770260555489,-0.17138229728411583,-0.19667309070762282,0.13886218731213087,0.6069922853429743,-0.045967142540103756
6963,5.0,300.26475,1744.2301,0.0,0.0,0.0,0.0,0.0693988951321444,0.0,-0.15728636719295586,-0.15963956962269885,-0.21327647029124877,0.18279758304321683,0.6007029609122665,-0.04105056326537516
6964,5.0,299.96578999999997,1571.6435,0.0,0.0,0.0,0.0,0.0694088619417282,0.0,-0.16715880742228983,-0.1283153379487379,-0.18226623469077682,0.14432022109579687,0.6261589242345744,-0.016362328398086084
6965,5.0,300.45925,1247.1488,0.0,0.0,0.0,0.0,0.06941882875131203,0.0,-0.10502201510986589,-0.09935575741739981,-0.17472431022144683,0.16631931958193885,0.6164294637268514,-0.014643117569163186
6966,5.0,299.37658999999996,1127.3174,0.0,0.0,0.0,0.0,0.06942879556089586,0.0,-0.093662560444525,-0.10520119825754991,-0.14381258279569686,0.13024969318464388,0.6020584261010404,-0.031334408757965365
6967,5.0,298.81318,1450.4427,0.0,0.0,0.0,0.0,0.06943876237047966,0.0,-0.13792180002682186,-0.12765316887588687,-0.17532338421057084,0.15607191602059886,0.5922587878913914,-0.04059004008167506
6968,5.0,299.14546,1952.5974,0.0,0.0,0.0,0.0,0.06944872918006349,0.0,-0.1971015941749128,-0.16728825012256485,-0.22915098868044176,0.15007743723648984,0.6019240488727784,-0.04793173923849436
6969,5.0,298.86307,1837.1516,0.0,0.0,0.0,0.0,0.06945869598964731,0.0,-0.2095742266783658,-0.15070298745072686,-0.1981709884629538,0.17570065775280483,0.6070699408306385,-0.04660674450672755
6970,5.0,299.39297,1390.2678,0.0,0.0,0.0,0.0,0.06946866279923113,0.0,-0.15641149665911286,-0.10790601873699489,-0.15828918081692586,0.15604782093322087,0.6022292904654034,-0.03829557373372886
6971,5.0,299.83695,1336.2663,0.0,0.0,0.0,0.0,0.06947862960881496,0.0,-0.11026413542972288,-0.1017769499421029,-0.1941504931261618,0.16701925248601684,0.5747455502479694,-0.01076943811886079
6972,5.0,300.58729,1722.4429,0.0,0.0,0.0,0.0,0.06948859641839877,0.0,-0.15557670016672484,-0.13336851752244785,-0.23463441451161376,0.14953796261824787,0.5919023670362155,-0.015762626193900085
6973,5.0,300.10917,1864.1287,0.0,0.0,0.0,0.0,0.0694985632279826,0.0,-0.18006140247317684,-0.15482474700251284,-0.2317624178981698,0.17622787204483684,0.5905063211809365,-0.0024735749204228374
6974,5.0,300.28999,1394.8073,0.0,0.0,0.0,0.0,0.06950853003756641,0.0,-0.10755533287738489,-0.12842994666754887,-0.18800130118428382,0.14865237189834687,0.5939283200811615,-0.044794765564899156
6975,5.0,300.41303999999997,1114.3213,0.0,0.0,0.0,0.0,0.06951849684715024,0.0,-0.09645372300474131,-0.12249135875895589,-0.11978078301894288,0.12460699457025289,0.6031266247539634,-0.04302499355598626
6976,5.0,299.8714,1468.4841,0.0,0.0,0.0,0.0,0.06952846365673405,0.0,-0.15534805014915884,-0.11795742933149189,-0.17307702900387284,0.14163940451122087,0.6339935766577943,-0.03211599948760237
6977,5.0,299.15314,1860.9827,0.0,0.0,0.0,0.0,0.06953843046631787,0.0,-0.18638570429733683,-0.16566817467017583,-0.2136383930944678,0.13804135340612086,0.6364997393226334,-0.04031135374767086
6978,5.0,299.97015,1589.4553,0.0,0.0,0.0,0.0,0.0695483972759017,0.0,-0.15471249915643484,-0.13158089103352288,-0.19686133231120082,0.16245159196272385,0.6271250784699264,-0.03756316717719597
6979,5.0,299.60369,1114.045,0.0,0.0,0.0,0.0,0.06955836408548552,0.0,-0.061123406436910534,-0.11142678925696789,-0.16609167268197184,0.16952694515850683,0.6015574651190995,-0.04621641928995546
6980,5.0,299.73461000000003,1206.0637,0.0,0.0,0.0,0.0,0.06956833089506934,0.0,-0.0909395369270335,-0.12906511262523487,-0.14660860591664285,0.17911694192246583,0.6420579936736904,-0.04783596785229245
6981,5.0,299.50611000000004,1756.9582,0.0,0.0,0.0,0.0,0.06957829770465317,0.0,-0.19626660516500583,-0.10861981290244088,-0.2291849933537978,0.16047314008246585,0.6023662514814204,-0.036451623711495164
6982,5.0,298.91212,1766.1757,0.0,0.0,0.0,0.0,0.06958826451423697,0.0,-0.18289537181036783,-0.14064305542288888,-0.21333487402701282,0.12268904385346589,0.5822220694233444,-0.04071086306334936
6983,5.0,299.70841,1296.1372,0.0,0.0,0.0,0.0,0.0695982313238208,0.0,-0.11139327094365989,-0.1031803114631039,-0.17941975171485083,0.11252701674555189,0.5662852564180034,-0.026586557916388972
6984,5.0,300.17755,1141.5246,0.0,0.0,0.0,0.0,0.06960819813340462,0.0,-0.07381758607472852,-0.1032579872157699,-0.16991939718723884,0.16079089531382584,0.5950219817090975,-0.023414971619377774
6985,5.0,299.30937,1440.9260000000002,0.0,0.0,0.0,0.0,0.06961816494298843,0.0,-0.09003664597492511,-0.15537081787890586,-0.19259807238294982,0.15817699376585384,0.6075271598057624,-0.02399458512708118
6986,5.0,298.77566,1811.1003,0.0,0.0,0.0,0.0,0.06962813175257226,0.0,-0.16440546239555584,-0.16229789205505485,-0.22382591357489778,0.16717739042912383,0.5877166612706184,-0.04590523802524425
6987,5.0,300.133,1588.3573,0.0,0.0,0.0,0.0,0.06963809856215608,0.0,-0.1858886443282808,-0.1115030971219989,-0.1854292266004398,0.15685396271278085,0.6121287844724074,-0.029780927141898672
6988,5.0,300.01176,1034.5741,0.0,0.0,0.0,0.0,0.06964806537173991,0.0,-0.0983589128497689,-0.09641087468451251,-0.11971490149744088,0.13445284711696287,0.6203921430129374,-0.05908901707163194
6989,5.0,300.59257,1145.8773,0.0,0.0,0.0,0.0,0.06965803218132371,0.0,-0.1162184591123689,-0.06985572346822314,-0.16224389595722585,0.12944839474056188,0.6218818030449554,-0.025870896331008676
6990,5.0,299.6616,1783.0195,0.0,0.0,0.0,0.0,0.06966799899090755,0.0,-0.16793717601660885,-0.13979236103643186,-0.23426387908254478,0.1085855447840589,0.6130726776030624,-0.032136971738172176
6991,5.0,299.77692,1925.9529,0.0,0.0,0.0,0.0,0.06967796580049138,0.0,-0.15545228318694584,-0.17327925345883083,-0.25671006404281077,0.12220557156825089,0.6176043677478055,-0.013948164789326686
6992,5.0,300.16187,1494.3270000000002,0.0,0.0,0.0,0.0,0.06968793261007518,0.0,-0.13335640918375286,-0.11468943431396589,-0.2061922511570908,0.14415487894447884,0.6310030500476524,-0.0017949983900275481
6993,5.0,301.13965,1417.0166,0.0,0.0,0.0,0.0,0.06969789941965901,0.0,-0.12954142123224288,-0.14640920842946387,-0.15478702370128986,0.15511129413079286,0.6173509842952984,-0.04094953919065486
6994,5.0,301.09333,1704.0862,0.0,0.0,0.0,0.0,0.06970786622924283,0.0,-0.15018541929964685,-0.16561774521269884,-0.2021964892552398,0.15205932403458686,0.5853513403696795,-0.02409151769789768
6995,5.0,301.5519,1818.2679999999998,0.0,0.0,0.0,0.0,0.06971783303882664,0.0,-0.16259313286919286,-0.17699684781072883,-0.2131180689031158,0.17032988506775085,0.5961317134836194,-0.04606649475215905
6996,5.0,300.34258,1528.2559,0.0,0.0,0.0,0.0,0.06972779984841047,0.0,-0.11118240346534891,-0.16886298263297883,-0.18450626721685082,0.17134376338281285,0.6108129474950444,-0.05320549525297355
6997,5.0,300.53749,1120.7099,0.0,0.0,0.0,0.0,0.06973776665799429,0.0,-0.06251358152111014,-0.10003192859338271,-0.17812230522680284,0.16508917316553284,0.6168224527781364,-0.053879306569473547
6998,5.0,300.18849,1128.39,0.0,0.0,0.0,0.0,0.06974773346757812,0.0,-0.10782286130128789,-0.13288180283691287,-0.1022977300959999,0.1347161502879489,0.5960784671908644,-0.049803463459219155
6999,5.0,300.07336000000004,1480.9599,0.0,0.0,0.0,0.0,0.06975770027716192,0.0,-0.15145873017031286,-0.11967468560097187,-0.17904141426001183,0.14162046686685184,0.6158371683808964,-0.062456033981680634
7000,5.0,299.93124,1710.7719,0.0,0.0,0.0,0.0,0.06976766708674575,0.0,-0.17860155225910085,-0.1268167410508379,-0.2146136463157178,0.13291235232742787,0.6146156751203444,-0.04188005944649006
7001,5.0,299.78747000000004,1590.8144,0.0,0.0,0.0,0.0,0.06977763389632959,0.0,-0.16741581831015484,-0.14353307775561186,-0.17261896903116583,0.13961824413924787,0.6188646583546864,-0.02835273795369737
7002,5.0,299.25784,1402.6911,0.0,0.0,0.0,0.0,0.06978760070591339,0.0,-0.1125323971035829,-0.1177919453251599,-0.1960587267744898,0.14098253473639288,0.5778230137166914,-0.04752566102241755
7003,5.0,300.29017999999996,1629.1459,0.0,0.0,0.0,0.0,0.06979756751549722,0.0,-0.13306176618717389,-0.15105567954553487,-0.2111022280941678,0.17795260610005484,0.6189893489119924,-0.003781326769937896
7004,5.0,301.45578,1916.3951,0.0,0.0,0.0,0.0,0.06980753432508104,0.0,-0.19337929834255083,-0.16374535022040784,-0.22541159931889276,0.17977000187691783,0.6093396919821454,-0.015717736174719787
7005,5.0,300.61421,1585.9802,0.0,0.0,0.0,0.0,0.06981750113466485,0.0,-0.15720292604722086,-0.1053618591934059,-0.21953360376627976,0.14258873879491285,0.6061200796568945,0.012311583492808689
7006,5.0,299.52457000000004,1147.8841,0.0,0.0,0.0,0.0,0.06982746794424868,0.0,-0.09147688270681542,-0.13851192701756287,-0.1189392889433939,0.13092259257605388,0.5776103730507055,-0.08001564402917921
7007,5.0,299.8573,1189.9634,0.0,0.0,0.0,0.0,0.0698374347538325,0.0,-0.1139852052294639,-0.09183353964926472,-0.15590043357367486,0.13348553777649685,0.5969915575184795,-0.025464159502366874
7008,5.0,300.72861,1476.8197,0.0,0.0,0.0,0.0,0.06984740156341633,0.0,-0.12520892592465888,-0.12314111551808188,-0.2005662914343518,0.16444434080189285,0.6143873290778084,-0.07102673356904284
7009,5.0,300.16348999999997,1628.4097,0.0,0.0,0.0,0.0,0.06985736837300013,0.0,-0.14658403460171787,-0.15072805525820085,-0.1976837874173708,0.15606706255261987,0.6139571233503505,-0.029949550197040473
7010,5.0,300.90713,1412.391,0.0,0.0,0.0,0.0,0.06986733518258396,0.0,-0.15503746872850685,-0.09806124834139171,-0.1762328673678298,0.17673150800704182,0.5906820592782804,-0.027488306935634674
7011,5.0,300.36495,1408.7498,0.0,0.0,0.0,0.0,0.0698773019921678,0.0,-0.1001793534431824,-0.13542066308247888,-0.19262475125808282,0.14933836248104887,0.6137655886839474,-0.027165595898035577
7012,5.0,299.44091000000003,1650.8772,0.0,0.0,0.0,0.0,0.0698872688017516,0.0,-0.13975381700262787,-0.14744696904938287,-0.2146246603443048,0.16506182554533386,0.6051286144340444,-0.025556116001942273
7013,5.0,299.45276,1919.9716,0.0,0.0,0.0,0.0,0.06989723561133543,0.0,-0.1844177598206158,-0.14461153049954686,-0.25459412425648376,0.14382102316902984,0.6034186535652845,-0.01925032119085878
7014,5.0,299.80413,1658.1239,0.0,0.0,0.0,0.0,0.06990720242091925,0.0,-0.14085050824836287,-0.18318185814364182,-0.17999589585421183,0.14756804230383186,0.5839884176601694,-0.05800444835009334
7015,5.0,299.45777999999996,1158.9397,0.0,0.0,0.0,0.0,0.06991716923050306,0.0,-0.08568853344354983,-0.1141347812092259,-0.15246540427716385,0.15112618148749285,0.6318261840313895,-0.046660054634238855
7016,5.0,299.09449,1082.2303,0.0,0.0,0.0,0.0,0.06992713604008689,0.0,-0.09391037102148202,-0.10657332127796791,-0.12848728649070787,0.16259426770930485,0.6172673607645455,-0.03391399152505037
7017,5.0,300.00147000000004,1416.9289999999999,0.0,0.0,0.0,0.0,0.06993710284967071,0.0,-0.11922359678895288,-0.1277336614638309,-0.18375378716258683,0.14212273494142186,0.6157561387703994,-0.03672700988992367
7018,5.0,300.94289,1593.0858,0.0,0.0,0.0,0.0,0.06994706965925454,0.0,-0.16547403595101584,-0.12969602293250088,-0.18908824496405682,0.12847552265704687,0.5742303328371214,-0.025947675357336174
7019,5.0,301.19507000000004,1480.5801,0.0,0.0,0.0,0.0,0.06995703646883834,0.0,-0.13481139579734885,-0.12969141264454587,-0.1855565718730078,0.15370200509670684,0.6102779514422444,-0.04480382098104286
7020,5.0,301.06612,1584.0308,0.0,0.0,0.0,0.0,0.06996700327842217,0.0,-0.15609239380511986,-0.13471314093515188,-0.1907002853431528,0.18461267874235282,0.5963322458109104,-0.041792497412598356
7021,5.0,300.42479,1901.3054,0.0,0.0,0.0,0.0,0.069976970088006,0.0,-0.19956902028842882,-0.14398593975530588,-0.23439440596042677,0.16754586896048984,0.5983754646375604,-0.004724440711265996
7022,5.0,300.51387,2075.2031,0.0,0.0,0.0,0.0,0.06998693689758981,0.0,-0.2228191685405398,-0.18255107955888883,-0.22543966634666276,0.16982492174791483,0.5535400596376504,-0.04211808608048146
7023,5.0,300.92728,1660.6258,0.0,0.0,0.0,0.0,0.06999690370717364,0.0,-0.13620135201952688,-0.14456814313026486,-0.2240192822239818,0.1309000274963269,0.6085486172315724,-0.0032507917533531666
7024,5.0,300.82412,1037.7408,0.0,0.0,0.0,0.0,0.07000687051675746,0.0,-0.07236405752802642,-0.1253467076732569,-0.11773652054468989,0.13999930723685586,0.6259986078037524,-0.046423609683653555
7025,5.0,298.98135,1176.3189,0.0,0.0,0.0,0.0,0.07001683732634127,0.0,-0.07951771874453784,-0.13442515499172986,-0.14362871843255087,0.12170494495884288,0.6128845271919935,-0.04038567158950546
7026,5.0,300.18236,1642.8534,0.0,0.0,0.0,0.0,0.0700268041359251,0.0,-0.16833486654835786,-0.15010986123968986,-0.18094168376255382,0.14614960362134286,0.5950894844307595,-0.06051924187928414
7027,5.0,300.24641,1498.872,0.0,0.0,0.0,0.0,0.07003677094550892,0.0,-0.15049227195993084,-0.14515466295064985,-0.15997272625557885,0.15941870136590083,0.6301337929193633,-0.04196751204937096
7028,5.0,300.06408999999996,1146.8495,0.0,0.0,0.0,0.0,0.07004673775509274,0.0,-0.08095416997405452,-0.093883661748846,-0.17377577640533384,0.16784901312540784,0.6248197217099054,-0.030595145538005773
7029,5.0,298.71462,1363.4293,0.0,0.0,0.0,0.0,0.07005670456467655,0.0,-0.08768976926555642,-0.13380456970298288,-0.19295413860059082,0.14913412165839185,0.6241057248944395,-0.03386775185673687
7030,5.0,299.99147999999997,1822.8838,0.0,0.0,0.0,0.0,0.07006667137426038,0.0,-0.17746974176489982,-0.15044456814522286,-0.22619684788139077,0.11822557583795588,0.5937219615657955,-0.039917489248299465
7031,5.0,300.16357,1908.8157,0.0,0.0,0.0,0.0,0.0700766381838442,0.0,-0.16167617192619585,-0.16342600418639086,-0.25513013355938374,0.15210636923672982,0.6185272258063844,-0.06710065996931953
7032,5.0,300.54471,1485.6765,0.0,0.0,0.0,0.0,0.07008660499342802,0.0,-0.15431120145432986,-0.13190121992013687,-0.16539615754832981,0.15227070827044886,0.6077788106005985,-0.03782207689574836
7033,5.0,300.0701,1113.7156,0.0,0.0,0.0,0.0,0.07009657180301183,0.0,-0.11920638166975389,-0.07852501938306602,-0.14081033288189787,0.15698387150810184,0.6054700797177445,-0.04192982522515156
7034,5.0,300.48058,1237.8487,0.0,0.0,0.0,0.0,0.07010653861259566,0.0,-0.1025828384091379,-0.12514271003062388,-0.14854953714569785,0.13672676272638085,0.5772877744838675,-0.034469985159672666
7035,5.0,300.34643,1592.8832,0.0,0.0,0.0,0.0,0.07011650542217948,0.0,-0.12582172945263786,-0.14716631903668487,-0.21120867001717278,0.14758437589544385,0.6348182507816833,-0.027517578717773574
7036,5.0,300.24762999999996,1717.0163,0.0,0.0,0.0,0.0,0.07012647223176331,0.0,-0.15631701108728785,-0.13667431690120488,-0.22893875331449579,0.12359777720565089,0.6361041056885874,0.0013993481386799088
7037,5.0,299.42708999999996,1354.0543,0.0,0.0,0.0,0.0,0.07013643904134712,0.0,-0.08175533466912333,-0.14011132203541085,-0.1897320336800938,0.12611066785115388,0.6218882878455954,-0.032376350047796966
7038,5.0,300.47704,1387.6466,0.0,0.0,0.0,0.0,0.07014640585093095,0.0,-0.15289322886688686,-0.1084189563351179,-0.16049772152989183,0.13743372758615285,0.5950048172524034,-0.034128650585235565
7039,5.0,300.32722,1858.8658,0.0,0.0,0.0,0.0,0.07015637266051476,0.0,-0.20738722766252582,-0.1337931909043599,-0.2238683687540878,0.18545146744013483,0.6059084218435054,-0.025446458023119876
7040,5.0,299.31211,1799.6624,0.0,0.0,0.0,0.0,0.07016633947009858,0.0,-0.15644597756001585,-0.14906656827422485,-0.24153989632813178,0.16272090370680284,0.6049555209194615,-0.026440512099975375
7041,5.0,298.97186,1483.5439999999999,0.0,0.0,0.0,0.0,0.07017630627968241,0.0,-0.14623002528177984,-0.1030297728957469,-0.20170052359629181,0.15039938732326386,0.6038053807309514,-0.036651428525214365
7042,5.0,299.29228,1329.8107,0.0,0.0,0.0,0.0,0.07018627308926623,0.0,-0.09167605119947181,-0.13411377310349887,-0.17843941197809882,0.1263190326017179,0.6110161244050963,-0.05486014989152524
7043,5.0,299.40227999999996,1133.3076,0.0,0.0,0.0,0.0,0.07019623989885004,0.0,-0.08626589854928132,-0.0997233088249243,-0.15850801244102286,0.16404853491532984,0.6426719421742824,-0.047243337120554355
7044,5.0,300.0065,1288.5882,0.0,0.0,0.0,0.0,0.07020620670843386,0.0,-0.14877521834047086,-0.094832844045023,-0.14809057538040185,0.16718059229943982,0.6170327325713895,-0.03422061721731197
7045,5.0,299.16146000000003,1553.7806,0.0,0.0,0.0,0.0,0.07021617351801769,0.0,-0.14756953178147886,-0.15470725052091686,-0.17003371206352083,0.16320891535246584,0.5674679219347234,-0.05221925840063954
7046,5.0,300.23152999999996,1404.7515,0.0,0.0,0.0,0.0,0.07022614032760152,0.0,-0.1086178269322449,-0.13067793320690788,-0.18771360908339083,0.14549359510909987,0.5648026992691865,-0.06607561462490544
7047,5.0,300.51401,1192.6467,0.0,0.0,0.0,0.0,0.07023610713718532,0.0,-0.07044471764535234,-0.13520035211323586,-0.15688976083881384,0.16937657884366683,0.5991743312814024,-0.06560228902619185
7048,5.0,301.04478,1532.0972,0.0,0.0,0.0,0.0,0.07024607394676916,0.0,-0.0974706228316015,-0.14759319117131386,-0.22065548440950078,0.14864543113516185,0.6085694192561255,-0.029031064312642973
7049,5.0,300.07771,1934.7561,0.0,0.0,0.0,0.0,0.07025604075635297,0.0,-0.16995772843852183,-0.15791476463997384,-0.2602450403291858,0.15645358706826687,0.5934089990074084,-0.03769775516147876
7050,5.0,299.7202,1743.2313,0.0,0.0,0.0,0.0,0.07026600756593679,0.0,-0.2182224784018818,-0.14438942607762686,-0.16728687210242885,0.16428680067634482,0.6326739805225604,-0.02405457966550218
7051,5.0,298.27554,1436.2655,0.0,0.0,0.0,0.0,0.07027597437552062,0.0,-0.15291363572390085,-0.10901005604595489,-0.17466516681310984,0.18374076689880184,0.6316949580109383,-0.05162657599314636
7052,5.0,298.63351,1481.6536,0.0,0.0,0.0,0.0,0.07028594118510444,0.0,-0.16086460925860085,-0.10953696636295689,-0.17998413202055083,0.16642245830961785,0.6112111649168454,-0.017158257629888183
7053,5.0,299.15124,1544.9969,0.0,0.0,0.0,0.0,0.07029590799468827,0.0,-0.1258378502617289,-0.13534821570032887,-0.2084544231978498,0.14049322613060186,0.5752675766994895,-0.04585304753909346
7054,5.0,300.21872,1642.0601,0.0,0.0,0.0,0.0,0.07030587480427207,0.0,-0.11797845427106689,-0.14256536311510587,-0.23860146090563075,0.13729136594710287,0.5993562400718554,-0.014379269269623386
7055,5.0,300.45362,1410.727,0.0,0.0,0.0,0.0,0.0703158416138559,0.0,-0.12197257470775588,-0.11875738015294089,-0.18809583741861383,0.13780107127740687,0.6182504970715734,-0.03527402545852527
7056,5.0,299.43658,1073.5999,0.0,0.0,0.0,0.0,0.07032580842343973,0.0,-0.12410645915335387,-0.05805417461200095,-0.14418691791264088,0.16950969964180485,0.6087039586044035,-0.008997228432857312
7057,5.0,299.49037999999996,1415.5422,0.0,0.0,0.0,0.0,0.07033577523302353,0.0,-0.14050908349466687,-0.1103895251295979,-0.17939088421950183,0.16823890163138683,0.5848011253003774,-0.036162000355911564
7058,5.0,299.77657,1849.7773,0.0,0.0,0.0,0.0,0.07034574204260736,0.0,-0.17117441889359983,-0.16654826344203386,-0.22456341779268377,0.16745674348169384,0.6118109887110434,-0.04675635696349315
7059,5.0,299.51737,1689.5065,0.0,0.0,0.0,0.0,0.07035570885219118,0.0,-0.13971439144123687,-0.15162876366959385,-0.22222463391186378,0.15898261878786285,0.6261933646054735,-0.04700368624665266
7060,5.0,299.84907000000004,1418.1543,0.0,0.0,0.0,0.0,0.070365675661775,0.0,-0.08629433541333782,-0.13634664195136587,-0.2084425276416758,0.13768373691582686,0.6313210991215414,-0.043933574920656256
7061,5.0,300.47348999999997,1408.8341,0.0,0.0,0.0,0.0,0.07037564247135883,0.0,-0.13877560509108586,-0.1382767618018539,-0.15119803105208385,0.14864694087781086,0.6111456684303814,-0.051854377920378655
7062,5.0,300.4073,1597.7482,0.0,0.0,0.0,0.0,0.07038560928094265,0.0,-0.16874376362621285,-0.1309838536770999,-0.1859479295916318,0.17913723732196882,0.6361483441879534,-0.040197677218951865
7063,5.0,301.5547,1680.0581,0.0,0.0,0.0,0.0,0.07039557609052648,0.0,-0.15258698415666286,-0.17665162336915782,-0.18145710382342184,0.15577006881580885,0.6401018028981293,-0.06006771027697144
7064,5.0,301.00472,1331.9653,0.0,0.0,0.0,0.0,0.07040554290011028,0.0,-0.1132425334361679,-0.1140405590824269,-0.17760109950786382,0.12607295468243188,0.6047411881258085,-0.03263138915096737
7065,5.0,300.61577,1109.4887,0.0,0.0,0.0,0.0,0.07041550970969411,0.0,-0.07046633736273603,-0.10959126643581589,-0.15719926821435987,0.13936067596382787,0.5850533536477704,-0.04760106101535896
7066,5.0,300.89214,1317.5937,0.0,0.0,0.0,0.0,0.07042547651927794,0.0,-0.08947756598049822,-0.11941648921048989,-0.19162153233407284,0.14657329415065787,0.6171841324013314,-0.033740218119650264
7067,5.0,300.32389,1588.0032,0.0,0.0,0.0,0.0,0.07043544332886174,0.0,-0.15247821175842785,-0.13168407029120588,-0.19855105857546382,0.17183247417104483,0.6266496311255034,-0.02067883867209248
7068,5.0,299.86069,1732.8874,0.0,0.0,0.0,0.0,0.07044541013844557,0.0,-0.18546711202167881,-0.1137199363532839,-0.2275674408941578,0.13590661783043886,0.6105328952999054,-0.005256683763544295
7069,5.0,300.4628,1550.5976,0.0,0.0,0.0,0.0,0.07045537694802939,0.0,-0.12854356240126186,-0.15307076041690787,-0.1897286291597578,0.14434122577036987,0.5954771539190193,-0.03867413916984036
7070,5.0,299.58929,1526.6123,0.0,0.0,0.0,0.0,0.07046534375761321,0.0,-0.14751508985360587,-0.12649984708206288,-0.19003708275519982,0.15174679717374284,0.6225891529397654,-0.021028863892637282
7071,5.0,299.86894,1812.8487,0.0,0.0,0.0,0.0,0.07047531056719704,0.0,-0.14653997848736988,-0.17496226187493083,-0.2295584976056598,0.17928749217929782,0.6204754017736543,-0.06589398245172974
7072,5.0,299.35822,1576.0288,0.0,0.0,0.0,0.0,0.07048527737678086,0.0,-0.14218416829498487,-0.12011395991682487,-0.2167752735490538,0.14344144954906884,0.5907412229516193,-0.01023790738140279
7073,5.0,300.17666,1228.9739,0.0,0.0,0.0,0.0,0.07049524418636469,0.0,-0.12312782167676987,-0.1052656409639099,-0.14518391548103685,0.16028804968669885,0.6055208536802554,-0.04223128638165346
7074,5.0,301.65642,1294.1153,0.0,0.0,0.0,0.0,0.07050521099594849,0.0,-0.13612899582988586,-0.1025407783974869,-0.15470895278108485,0.15956929059576283,0.6389812090825354,-0.01154497771890059
7075,5.0,300.64545,1471.9843,0.0,0.0,0.0,0.0,0.07051517780553232,0.0,-0.13456497337302886,-0.14451795685281185,-0.16836356179118983,0.19103590417377583,0.6497421885895613,-0.053826719902533654
7076,5.0,299.62891,1673.8254,0.0,0.0,0.0,0.0,0.07052514461511615,0.0,-0.15952686581407585,-0.15984577615054985,-0.1894284943476368,0.13181015913364988,0.6128387181549724,-0.03140194896988107
7077,5.0,300.59039,1771.3869,0.0,0.0,0.0,0.0,0.07053511142469995,0.0,-0.13647706750423788,-0.18301927203259583,-0.2189610465322728,0.14450048842108787,0.5933130442229384,-0.07747517676895463
7078,5.0,300.02126,1508.9228,0.0,0.0,0.0,0.0,0.07054507823428378,0.0,-0.13766910558438286,-0.13531492030204287,-0.18569083764375882,0.14542455224728584,0.6087286819068435,-0.04297699893849956
7079,5.0,300.36454,1398.7618,0.0,0.0,0.0,0.0,0.0705550450438676,0.0,-0.13381315193132987,-0.13809143835856386,-0.15328406982795986,0.17364843113276582,0.6109986458408714,-0.04850640707245966
7080,5.0,299.72733,1497.5803,0.0,0.0,0.0,0.0,0.07056501185345142,0.0,-0.14338749398124387,-0.12314873515883387,-0.1886907773473298,0.15518784517584785,0.5882214726029394,-0.03173015587602257
7081,5.0,298.7152,1566.4855,0.0,0.0,0.0,0.0,0.07057497866303525,0.0,-0.14793666269021186,-0.14051027912978487,-0.18772552490456682,0.14799913969137785,0.6193292639230394,-0.04992711948817305
7082,5.0,300.43314,1606.5955,0.0,0.0,0.0,0.0,0.07058494547261907,0.0,-0.13272125335856788,-0.16394812183041985,-0.19169552998887582,0.17109107907287482,0.6560508154346744,-0.048020452324499655
7083,5.0,300.73645,1426.7555,0.0,0.0,0.0,0.0,0.07059491228220288,0.0,-0.095633949971586,-0.13684224284027788,-0.2012218439840498,0.15094487051459887,0.6241086734522304,-0.04891862963714286
7084,5.0,300.3783,1525.6089,0.0,0.0,0.0,0.0,0.0706048790917867,0.0,-0.15710662675771686,-0.12355133995356789,-0.18308903430198084,0.15118977306376885,0.5816554397024224,-0.013273492210241686
7085,5.0,301.1507,1726.8727,0.0,0.0,0.0,0.0,0.07061484590137053,0.0,-0.1761629531109298,-0.12834733638689588,-0.22041588115835378,0.15290653284069985,0.5749267902933564,-0.005506401277189495
7086,5.0,299.9438,1664.1365,0.0,0.0,0.0,0.0,0.07062481271095435,0.0,-0.15244578775522785,-0.14480332861097586,-0.2086068261453908,0.17340076241082283,0.6212753221976004,-0.013138162526885686
7087,5.0,300.6506,1508.7396,0.0,0.0,0.0,0.0,0.07063477952053816,0.0,-0.14351322818615286,-0.11898923204082289,-0.1961166948127108,0.15980568184409286,0.6309216759321213,-0.03926830396222986
7088,5.0,300.53886,1362.8171,0.0,0.0,0.0,0.0,0.07064474633012198,0.0,-0.11427642344070489,-0.11701405295838789,-0.18297189245791984,0.13874517719058285,0.6159367708657264,-0.03569937670475417
7089,5.0,299.95351,1346.3981,0.0,0.0,0.0,0.0,0.07065471313970581,0.0,-0.08944097042663651,-0.13026685764133789,-0.18956357071846783,0.12458041702012987,0.6408572416426854,-0.06602461673412234
7090,5.0,300.01489,1609.2862,0.0,0.0,0.0,0.0,0.07066467994928963,0.0,-0.18939109528644582,-0.1116825639797109,-0.18810915152492783,0.16061534973400085,0.6414809882717444,-0.01044217049556199
7091,5.0,300.18528,1628.7404,0.0,0.0,0.0,0.0,0.07067464675887346,0.0,-0.17372373588019785,-0.12914764184587987,-0.19222503422613382,0.14939388858652886,0.6107035164842445,-0.028105886924585072
7092,5.0,299.36048,1357.3286,0.0,0.0,0.0,0.0,0.07068461356845726,0.0,-0.1240921824594449,-0.1027089981790889,-0.18579281113382282,0.15422726381604585,0.5744079049171466,-0.00781758503588557
7093,5.0,301.28841,1618.3371,0.0,0.0,0.0,0.0,0.07069458037804109,0.0,-0.12823352813566388,-0.14858636878683285,-0.2151141817326168,0.17080010404165782,0.5770812741134874,-0.041358727071288556
7094,5.0,300.50313,1819.1919,0.0,0.0,0.0,0.0,0.07070454718762491,0.0,-0.14491031768903484,-0.16727928285917984,-0.24079931183004175,0.1806810555718318,0.6194775429426734,-0.04070337818486066
7095,5.0,299.40927,1506.5599,0.0,0.0,0.0,0.0,0.07071451399720872,0.0,-0.10920065852226589,-0.14235003733635487,-0.20640589494067582,0.15763636404249787,0.6267295056308865,-0.05119047213685625
7096,5.0,299.91578,1216.5019,0.0,0.0,0.0,0.0,0.07072448080679256,0.0,-0.12608460705858188,-0.1018770995819869,-0.14182448477448686,0.14970091349932985,0.5931881510156125,-0.03967521304338866
7097,5.0,300.09435,1212.0775,0.0,0.0,0.0,0.0,0.07073444761637637,0.0,-0.1034851477556889,-0.10848983317961289,-0.15646631348952283,0.15173448618502786,0.5981827242035385,-0.015653983491677882
7098,5.0,299.65366,1387.8857,0.0,0.0,0.0,0.0,0.07074441442596019,0.0,-0.1092289991275629,-0.14021346777799185,-0.17244013038851583,0.16638820032373686,0.6302234756857144,-0.04837295392828886
7099,5.0,299.91547,1666.2241,0.0,0.0,0.0,0.0,0.070754381235544,0.0,-0.13310132347107786,-0.16484015682095685,-0.2085490303596868,0.16284374001642585,0.6140248084570303,-0.03342437286472877
7100,5.0,299.32867999999996,1695.1112,0.0,0.0,0.0,0.0,0.07076434804512784,0.0,-0.13058262690250186,-0.15255059834557186,-0.23213824249276077,0.12899786321609788,0.6053273735736604,-0.06311356338232374
7101,5.0,299.35469,1535.4332,0.0,0.0,0.0,0.0,0.07077431485471167,0.0,-0.13897958246871686,-0.1325304988947419,-0.1952232514045348,0.11663793452126789,0.6363898118192844,-0.031016360697326467
7102,5.0,300.36694,1605.4305,0.0,0.0,0.0,0.0,0.07078428166429547,0.0,-0.19009981306889082,-0.11126903634889888,-0.18664194511512583,0.14048305309959788,0.6353194042811434,-0.016997105267733684
7103,5.0,300.23976,1712.4326,0.0,0.0,0.0,0.0,0.0707942484738793,0.0,-0.18392632338961482,-0.11559002113534689,-0.2210203963005148,0.15487688885265885,0.6003319999181554,-0.007234682721007592
7104,5.0,299.24857000000003,1537.7906,0.0,0.0,0.0,0.0,0.07080421528346312,0.0,-0.16139125613057687,-0.12522885655412588,-0.18082984121651582,0.15025037876355787,0.5742550054770565,-0.008363200861658662
7105,5.0,300.06836,1283.2396,0.0,0.0,0.0,0.0,0.07081418209304693,0.0,-0.0924376555708863,-0.12056566681140488,-0.17706947757789684,0.17322620981609582,0.5918238502859664,-0.037424366098997366
7106,5.0,300.25265,1385.703,0.0,0.0,0.0,0.0,0.07082414890263077,0.0,-0.09909028386469959,-0.14363649006081786,-0.17849235429582383,0.16915116109391984,0.6366337315158573,-0.047012704172542656
7107,5.0,300.13908,1691.3712,0.0,0.0,0.0,0.0,0.07083411571221458,0.0,-0.15179023520552984,-0.17365339605825583,-0.18869099012985083,0.16045215567289486,0.6443273496576584,-0.06122303526624315
7108,5.0,299.6587,1633.6070000000002,0.0,0.0,0.0,0.0,0.0708440825217984,0.0,-0.17789265209163782,-0.13382010282701587,-0.18486297178205482,0.12900543219434488,0.6257680427434974,-0.04028497986081796
7109,5.0,299.71151000000003,1538.7675,0.0,0.0,0.0,0.0,0.07085404933138222,0.0,-0.13093718337749385,-0.14993448791238187,-0.18687523581814983,0.13356242319408487,0.6532753511582573,-0.04766446615361655
7110,5.0,300.44505,1461.0374,0.0,0.0,0.0,0.0,0.07086401614096605,0.0,-0.12670204113951788,-0.12008766607672988,-0.19732919041237482,0.13862271578349686,0.6331174395613264,-0.03392311685545097
7111,5.0,301.21502000000004,1449.5065,0.0,0.0,0.0,0.0,0.07087398295054988,0.0,-0.12063571279081788,-0.13407209812688586,-0.18590597090499084,0.15255824838382687,0.6080928269390895,-0.029501693652840468
7112,5.0,301.10523,1532.4023,0.0,0.0,0.0,0.0,0.07088394976013368,0.0,-0.13604536216663188,-0.13891432916227686,-0.19085235391816083,0.1338358082035659,0.5945925460517154,-0.06365424174168453
7113,5.0,300.60286,1663.5951,0.0,0.0,0.0,0.0,0.07089391656971751,0.0,-0.18348978484903183,-0.14234587287844386,-0.17985571270287684,0.16549229471781784,0.6147514506337444,-0.025372988271618976
7114,5.0,299.87886000000003,1542.0135,0.0,0.0,0.0,0.0,0.07090388337930133,0.0,-0.15208566853718686,-0.14481831457995487,-0.17182962693826384,0.16076809718657584,0.6468897679680494,-0.06596524737101303
7115,5.0,299.12832000000003,1493.8141,0.0,0.0,0.0,0.0,0.07091385018888514,0.0,-0.13046614367100587,-0.14852989022625887,-0.17508615196465782,0.16094146427868586,0.6109484190334145,-0.02119768453154858
7116,5.0,299.99177000000003,1666.4985,0.0,0.0,0.0,0.0,0.07092381699846897,0.0,-0.15259374253482985,-0.16674880590182586,-0.18723138309579881,0.15761727441061385,0.5964308857081454,-0.04288929200984355
7117,5.0,299.27391,1706.9755,0.0,0.0,0.0,0.0,0.07093378380805279,0.0,-0.1317192807321809,-0.16430278976292284,-0.2228558481941598,0.15208322660444587,0.5922684036348405,-0.018627569573397982
7118,5.0,298.99823,1538.9272,0.0,0.0,0.0,0.0,0.07094375061763662,0.0,-0.11885827959789888,-0.16399814598785684,-0.18493901620205982,0.1831042330534808,0.6080490342697674,-0.049463704488687546
7119,5.0,299.98065,1666.5034,0.0,0.0,0.0,0.0,0.07095371742722043,0.0,-0.17810034809713585,-0.12099384603866288,-0.2074812268743028,0.12648986656857789,0.6205076231268344,0.005938606248419805
7120,5.0,301.34499,1776.4479,0.0,0.0,0.0,0.0,0.07096368423680426,0.0,-0.17970748434574785,-0.14749983030709987,-0.2127884890430888,0.16147063414341087,0.6093878314943965,-0.008690900940100141
7121,5.0,299.94822999999997,1539.6295,0.0,0.0,0.0,0.0,0.07097365104638809,0.0,-0.1447759100632699,-0.10478091224857089,-0.21845211127204478,0.1386324733819599,0.6357407744677294,-0.0031963616805063375
7122,5.0,300.46127,1619.0895,0.0,0.0,0.0,0.0,0.07098361785597189,0.0,-0.15068866009431287,-0.13729587491004785,-0.2041782443308238,0.17400163998512483,0.6515056693286033,-0.004676940255853065
7123,5.0,300.00628,1665.0466,0.0,0.0,0.0,0.0,0.07099358466555572,0.0,-0.13942114672979586,-0.15961749090301985,-0.20709394242108078,0.15632643431321785,0.6223422238903954,-0.031564057840129965
7124,5.0,300.30733,1487.0887,0.0,0.0,0.0,0.0,0.07100355147513954,0.0,-0.14273746364459086,-0.13418828751585288,-0.17511208103471684,0.15162362649158684,0.6004418260964944,-0.04191119054256246
7125,5.0,300.57559,1552.5629,0.0,0.0,0.0,0.0,0.07101351828472335,0.0,-0.14960181763954986,-0.15719253010119486,-0.16514599623114085,0.15862379652994985,0.6035891632921124,-0.057856157171458145
7126,5.0,299.78449,1436.7812,0.0,0.0,0.0,0.0,0.07102348509430718,0.0,-0.13705522801129785,-0.13516687432993185,-0.16452351616470684,0.16813621886625282,0.6246969765927914,-0.06628120712319584
7127,5.0,298.83251,1218.6414,0.0,0.0,0.0,0.0,0.071033451903891,0.0,-0.11011209725221789,-0.10486453577932389,-0.15545993322520085,0.15089055017673786,0.6185945765405314,-0.028565909562735768
7128,5.0,300.32557,1257.9865,0.0,0.0,0.0,0.0,0.07104341871347483,0.0,-0.09086206179788732,-0.12289313268860788,-0.16864129364359984,0.15178776287528586,0.5882703619202644,-0.06582987006490233
7129,5.0,299.71551,1395.5354,0.0,0.0,0.0,0.0,0.07105338552305863,0.0,-0.1028992257528629,-0.1167236352147259,-0.2045850439809718,0.15179973949146786,0.6087233015488124,-0.012543720103968788
7130,5.0,299.53243,1501.5206,0.0,0.0,0.0,0.0,0.07106335233264247,0.0,-0.11369852637867088,-0.14151302182624786,-0.2012132110931978,0.17274243355585084,0.6365285358904754,-0.05765182515629215
7131,5.0,299.51725,1498.9694,0.0,0.0,0.0,0.0,0.0710733191422263,0.0,-0.14646039782451586,-0.11298786315603389,-0.19620099722103082,0.14989034060552486,0.6144728372537474,-0.0063611974013763044
7132,5.0,299.1015,1675.5769,0.0,0.0,0.0,0.0,0.0710832859518101,0.0,-0.16181401446979984,-0.14895857607856686,-0.1985609580289408,0.1262715719670339,0.6095438416122935,-0.05817896446781675
7133,5.0,300.75465,1664.1966,0.0,0.0,0.0,0.0,0.07109325276139393,0.0,-0.17327263693567785,-0.12181349444205589,-0.2107880699006628,0.12273571415307188,0.6233353812409124,-0.0008959469971855843
7134,5.0,300.45568,1401.2019,0.0,0.0,0.0,0.0,0.07110321957097775,0.0,-0.12185129880328689,-0.13436097573039588,-0.16971812518737484,0.15442220300278484,0.6452349583022323,-0.07697425023751703
7135,5.0,300.93562000000003,1465.8482,0.0,0.0,0.0,0.0,0.07111318638056156,0.0,-0.13429904588428387,-0.1142977219578069,-0.1969844827283548,0.13321217303201788,0.6189941314524644,-0.018299165083486984
7136,5.0,300.82644,1639.5903,0.0,0.0,0.0,0.0,0.0711231531901454,0.0,-0.15036271780214486,-0.13214306245400487,-0.2158887303740588,0.15769689560347183,0.5974550079817185,-0.05250992641707625
7137,5.0,299.72021,1421.8362,0.0,0.0,0.0,0.0,0.07113311999972921,0.0,-0.1156486883161369,-0.1010568634935359,-0.21549714974041279,0.17836940652868982,0.5970272745845044,-0.03388674624311147
7138,5.0,298.82902,1366.0326,0.0,0.0,0.0,0.0,0.07114308680931303,0.0,-0.12274944369192689,-0.1040026753767649,-0.18848769162978682,0.17527624781591883,0.6331813452451334,-0.024282024928699276
7139,5.0,300.32832,1628.5308,0.0,0.0,0.0,0.0,0.07115305361889684,0.0,-0.15907228128921186,-0.13636314779549488,-0.1995972697012168,0.16790509651844285,0.6088855735523274,-0.003719181101554596
7140,5.0,299.00592,1509.9395,0.0,0.0,0.0,0.0,0.07116302042848066,0.0,-0.14721635332662286,-0.11923492492507089,-0.19253262655899084,0.13500574729902984,0.6067613656451845,-0.009076449189275793
7141,5.0,299.75389,1591.2304,0.0,0.0,0.0,0.0,0.07117298723806449,0.0,-0.13093449826472886,-0.14083159086899585,-0.2119282295756878,0.16044142535433586,0.6298251366739014,-0.037637352283267464
7142,5.0,299.36704,1593.2477,0.0,0.0,0.0,0.0,0.07118295404764831,0.0,-0.14847577253841784,-0.14026140464022288,-0.19557035035879083,0.16652695479243082,0.6455561991139364,-0.03364114556462257
7143,5.0,300.28774,1430.2033,0.0,0.0,0.0,0.0,0.07119292085723213,0.0,-0.1220369363541079,-0.11527792997204589,-0.1974312246974448,0.15462989900828283,0.6241204879483965,-0.037724071293075964
7144,5.0,300.67728999999997,1382.9920000000002,0.0,0.0,0.0,0.0,0.07120288766681596,0.0,-0.12288166269747587,-0.13332008416766788,-0.16419327769211484,0.13077773834175788,0.5862493535358065,-0.05746868931996804
7145,5.0,300.58082,1524.3412,0.0,0.0,0.0,0.0,0.07121285447639977,0.0,-0.13619055077346087,-0.14931371010611585,-0.17785740112065884,0.16376809768515285,0.5911939430962995,-0.03500761768923286
7146,5.0,300.12971,1322.3981,0.0,0.0,0.0,0.0,0.0712228212859836,0.0,-0.11732899135446988,-0.11744463358838288,-0.16720237717658984,0.16486309680322087,0.6499363982362284,-0.07750323569072383
7147,5.0,300.89679,1301.3239,0.0,0.0,0.0,0.0,0.0712327880955674,0.0,-0.12172142040546889,-0.1094461386239929,-0.16440242264525584,0.15621521998224186,0.6294634975807104,-0.04423604527425776
7148,5.0,300.84218,1447.354,0.0,0.0,0.0,0.0,0.07124275490515124,0.0,-0.14063741161983184,-0.1126240861051319,-0.1866979778456558,0.15269521953234486,0.6291254266848454,-0.059768514747693145
7149,5.0,300.46457999999996,1555.2234,0.0,0.0,0.0,0.0,0.07125272171473505,0.0,-0.15324279001888585,-0.1107478610274629,-0.20875843875785383,0.13585398962024486,0.6264692624752024,-0.02657219509622147
7150,5.0,299.62498,1501.1615,0.0,0.0,0.0,0.0,0.07126268852431887,0.0,-0.1143260828281059,-0.14703198233842685,-0.19495754683081182,0.14643229026674184,0.6252985735746645,-0.03306727515848597
7151,5.0,300.90432999999996,1599.135,0.0,0.0,0.0,0.0,0.0712726553339027,0.0,-0.15968115340680283,-0.12337337270600389,-0.20304257335374182,0.14010710691499487,0.5954225093411264,0.010453676963697589
7152,5.0,300.30807999999996,1792.5898,0.0,0.0,0.0,0.0,0.07128262214348652,0.0,-0.16857090315915282,-0.15174813466387485,-0.22458348014466376,0.13198944360634388,0.6076479088201794,-0.005792736534873584
7153,5.0,299.67375,1738.7834,0.0,0.0,0.0,0.0,0.07129258895307033,0.0,-0.17954365193707883,-0.14787226051385588,-0.2011308439925688,0.16329444379340685,0.6126790603367154,-0.025408615158385075
7154,5.0,299.8911,1731.2977,0.0,0.0,0.0,0.0,0.07130255576265415,0.0,-0.16373167134405783,-0.14418868096781487,-0.2183509179845578,0.17201003611856883,0.6570214988979735,-0.034573391385378065
7155,5.0,300.45071,1789.6179,0.0,0.0,0.0,0.0,0.07131252257223798,0.0,-0.17001167387384586,-0.15120358366263187,-0.22278391756956079,0.17157785455341584,0.6281301516416193,-0.04219598069516906
7156,5.0,300.24518,1461.4498,0.0,0.0,0.0,0.0,0.07132248938182181,0.0,-0.13671230364745388,-0.11512229475668588,-0.19240963826185284,0.14302202480267487,0.6144418520656895,-0.03587953459903436
7157,5.0,299.42747,1316.9476,0.0,0.0,0.0,0.0,0.07133245619140562,0.0,-0.1027274595959109,-0.1281764922875349,-0.16941522420248084,0.15019303894039884,0.6186063606391944,-0.04234361022148896
7158,5.0,299.09275,1298.9351,0.0,0.0,0.0,0.0,0.07134242300098945,0.0,-0.1028532545958259,-0.11706069286049088,-0.17492988853423583,0.14949516293402385,0.6398803874862774,-0.03299214165032086
7159,5.0,300.76442000000003,1416.616,0.0,0.0,0.0,0.0,0.07135238981057326,0.0,-0.1202134914741479,-0.12479391894870089,-0.18560849080813183,0.16879627024639485,0.6327099103711065,-0.025891264684518873
7160,5.0,301.4945,1587.7077,0.0,0.0,0.0,0.0,0.07136235662015708,0.0,-0.14085751993905488,-0.15218163345415786,-0.18958434234551783,0.15143842463830884,0.6256114449405423,-0.051942912674366355
7161,5.0,301.02127,1738.8276,0.0,0.0,0.0,0.0,0.07137232342974091,0.0,-0.16645449727777983,-0.16554686836820384,-0.1965587960963428,0.15041707867000986,0.6145857741098935,-0.05918773194937435
7162,5.0,300.61099,1657.1083,0.0,0.0,0.0,0.0,0.07138229023932473,0.0,-0.11432967986596089,-0.16714170376060183,-0.2222481818441878,0.14532458499241988,0.6277054985247094,-0.03988663578275446
7163,5.0,300.51125,1422.4443,0.0,0.0,0.0,0.0,0.07139225704890854,0.0,-0.11735734209226788,-0.1300982528246979,-0.1849319335838608,0.13248828689557587,0.6188081595291104,-0.030556328939924868
7164,5.0,300.30525,1414.8936,0.0,0.0,0.0,0.0,0.07140222385849236,0.0,-0.0967625849399736,-0.1099370684299439,-0.22339266809713978,0.14803797756771087,0.6099091892008505,-0.02168664356605508
7165,5.0,301.04318,1386.0725,0.0,0.0,0.0,0.0,0.07141219066807619,0.0,-0.16289021779851284,-0.08344378727801062,-0.17499743178590185,0.15633827920688684,0.6207635498370925,-0.024553056158197976
7166,5.0,298.93235,1205.1791,0.0,0.0,0.0,0.0,0.07142215747766002,0.0,-0.12068466290314889,-0.09647379954222271,-0.14918589873850185,0.17256860036869484,0.6335376546427984,-0.05301529503695225
7167,5.0,298.53067000000004,1386.5804,0.0,0.0,0.0,0.0,0.07143212428724383,0.0,-0.15349720698649486,-0.1045967439103949,-0.16339186779052187,0.15329010879855587,0.6106322039422064,-0.044397055781398256
7168,5.0,301.03681,1877.0391,0.0,0.0,0.0,0.0,0.07144209109682766,0.0,-0.16535537423180482,-0.15354872062157884,-0.25166891174778777,0.14878523938395985,0.6015887542821874,-0.027869788505533975
7169,5.0,299.99501000000004,1709.2136,0.0,0.0,0.0,0.0,0.07145205790641147,0.0,-0.14994318159823983,-0.14145000780252887,-0.22816507606813977,0.14922056202442285,0.6112141134746364,-0.018351903737941884
7170,5.0,300.84949,1497.6088,0.0,0.0,0.0,0.0,0.07146202471599529,0.0,-0.11653827124143189,-0.11711478015082889,-0.22158261838350177,0.14696872513468387,0.6368501516047164,-0.02310518661330438
7171,5.0,300.66821,1637.2833,0.0,0.0,0.0,0.0,0.07147199152557912,0.0,-0.14472685862592888,-0.13312748558865986,-0.21983887575640781,0.14526214852125788,0.6192747004051544,0.0036872330219265667
7172,5.0,300.72132,1684.3566,0.0,0.0,0.0,0.0,0.07148195833516294,0.0,-0.14559253898136487,-0.14908993382153085,-0.21731988534530278,0.13637071677374188,0.6144003392090924,-0.03816332129092657
7173,5.0,300.68223,1605.3163,0.0,0.0,0.0,0.0,0.07149192514474675,0.0,-0.14063106867420586,-0.15696775069901087,-0.19037726121127282,0.14724688255213586,0.6384343985335694,-0.07499481043841152
7174,5.0,301.55219,1388.0667,0.0,0.0,0.0,0.0,0.07150189195433057,0.0,-0.096894858661028,-0.13469652363351187,-0.1903462354932108,0.15107489076743086,0.6361985811279114,-0.06052677944677804
7175,5.0,299.38149,1129.5568,0.0,0.0,0.0,0.0,0.0715118587639144,0.0,-0.08297629901312312,-0.09640587125551872,-0.16397488176556085,0.14342063739201485,0.6130492309957484,-0.042955225207100656
7176,5.0,300.80908999999997,1278.6214,0.0,0.0,0.0,0.0,0.07152182557349823,0.0,-0.10630742418672591,-0.09742841792518622,-0.18493314948398085,0.14899973429762886,0.5932358143003164,-0.017479968589638586
7177,5.0,299.92247000000003,1645.9148,0.0,0.0,0.0,0.0,0.07153179238308204,0.0,-0.16686880511116883,-0.14670698236885185,-0.18674121322742282,0.1971692894140938,0.5948140526560763,-0.03754021402268067
7178,5.0,300.65977999999996,1721.6629,0.0,0.0,0.0,0.0,0.07154175919266587,0.0,-0.18066210779496183,-0.11438432444385388,-0.22829610957107177,0.17546196642674783,0.6289984360498124,-0.03219672208331907
7179,5.0,300.00838,1563.5189,0.0,0.0,0.0,0.0,0.07155172600224968,0.0,-0.1414376562838099,-0.15100489545052287,-0.18282816293123483,0.16587717776830285,0.6197498336420464,-0.06539626589660893
7180,5.0,299.72286,1772.9221,0.0,0.0,0.0,0.0,0.0715616928118335,0.0,-0.16520091438656084,-0.15792916292389486,-0.2157939610922058,0.13832639079175185,0.6020376240764874,-0.031112779550342265
7181,5.0,299.59717,2003.255,0.0,0.0,0.0,0.0,0.07157165962141733,0.0,-0.19432730526861183,-0.16659507559665385,-0.24801711785738378,0.1326107381701609,0.6289690517969124,-0.011274174470674388
7182,5.0,299.58668,1534.1639,0.0,0.0,0.0,0.0,0.07158162643100115,0.0,-0.12967249526517888,-0.12730535051405986,-0.2093696616156768,0.14257682297373686,0.6269664440342704,-0.012462204133423789
7183,5.0,299.40019,1076.7722,0.0,0.0,0.0,0.0,0.07159159324058496,0.0,-0.1045649987847619,-0.07249790583973623,-0.15024895008091685,0.15480653889821586,0.6152294209709164,0.013783145864790588
7184,5.0,300.49514,1345.9549,0.0,0.0,0.0,0.0,0.07160156005016878,0.0,-0.11077883608301989,-0.1152367109579779,-0.18312113406514882,0.12857803316966387,0.5959183635425634,-0.03698703114383576
7185,5.0,300.2867,1618.2579999999998,0.0,0.0,0.0,0.0,0.07161152685975261,0.0,-0.16374613042298486,-0.13504200138760789,-0.19312188215464582,0.17293539690489482,0.6113388141644435,-0.06483360001007814
7186,5.0,300.64057,1633.1747,0.0,0.0,0.0,0.0,0.07162149366933643,0.0,-0.16023047681601685,-0.13783283666804189,-0.1983810048111808,0.17745757263119882,0.6369074407653703,-0.07116226083616833
7187,5.0,301.59992,1492.5481,0.0,0.0,0.0,0.0,0.07163146047892024,0.0,-0.14939349341898986,-0.11850101774513988,-0.1858028321773118,0.16279708998182185,0.6246493943680954,-0.03819687202823776
7188,5.0,301.47632999999996,1477.9699,0.0,0.0,0.0,0.0,0.07164142728850408,0.0,-0.13451775591836887,-0.12733995300497486,-0.1874082459007538,0.15028809193227985,0.6123007634118804,-0.03381947656897247
7189,5.0,301.28263,1727.8570000000002,0.0,0.0,0.0,0.0,0.07165139409808789,0.0,-0.18511808789223283,-0.13512892811368687,-0.2049783572722888,0.14471480094973885,0.6307369199088874,-0.042112449370175165
7190,5.0,300.98346000000004,1921.9507,0.0,0.0,0.0,0.0,0.07166136090767171,0.0,-0.15530730736263784,-0.1964354835591728,-0.23248224090171077,0.14934665086686685,0.6410067061649364,-0.04078744855890776
7191,5.0,300.35597,1464.6726,0.0,0.0,0.0,0.0,0.07167132771725554,0.0,-0.1104028797659159,-0.14786223947036686,-0.1869587681563938,0.15402079384316886,0.6466759114019435,-0.046284330351407756
7192,5.0,300.50172000000003,1157.0228,0.0,0.0,0.0,0.0,0.07168129452683936,0.0,-0.06985699307059844,-0.11567545838377888,-0.16617357368755484,0.12057141193947189,0.6247590178964144,-0.037423881765449564
7193,5.0,299.5073,1398.491,0.0,0.0,0.0,0.0,0.07169126133642317,0.0,-0.12864021632830086,-0.13894691528549286,-0.15751922219843684,0.14122179348250588,0.6058518926204264,-0.06310026852776164
7194,5.0,299.92987999999997,1536.8794,0.0,0.0,0.0,0.0,0.07170122814600699,0.0,-0.15805820032412982,-0.10758846615565489,-0.2015262952415968,0.16163002851664185,0.6084919360209784,0.002878582232468947
7195,5.0,299.89002,1444.4518,0.0,0.0,0.0,0.0,0.0717111949555908,0.0,-0.14572089750403286,-0.14139913251500788,-0.15195725935201385,0.18085249748875182,0.6227101957967114,-0.04402406322083676
7196,5.0,299.09637999999995,1527.5726,0.0,0.0,0.0,0.0,0.07172116176517464,0.0,-0.11956681499532588,-0.12742624138349087,-0.2173508705333608,0.17033208382046786,0.6023813387754094,-0.02734626751011647
7197,5.0,299.40778,1727.5026,0.0,0.0,0.0,0.0,0.07173112857475845,0.0,-0.17457992208219683,-0.15678772655374384,-0.19375000602413683,0.14517004408716785,0.6388217235167954,-0.06769181844866233
7198,5.0,300.18685,1741.4042,0.0,0.0,0.0,0.0,0.07174109538434227,0.0,-0.15524481009646987,-0.15828886670939485,-0.2158097272637618,0.14876277562924284,0.6503048970325963,-0.035293588278205966
7199,5.0,300.87637,1734.9673,0.0,0.0,0.0,0.0,0.0717510621939261,0.0,-0.1915614770006458,-0.13654408386585187,-0.1992811863325218,0.14261568111507186,0.6305485060527924,-0.01134269652193699
7200,5.0,301.33893,1761.2661,0.0,0.0,0.0,0.0,0.07176102900350992,0.0,-0.18867331904810683,-0.13067714287182988,-0.2160304536655458,0.15340591315248484,0.6214011070650144,-0.007047487602132873
7201,5.0,300.59601000000004,1409.4335,0.0,0.0,0.0,0.0,0.07177099581309375,0.0,-0.14250506460165488,-0.11538369301748388,-0.17054384295886685,0.14284836386803587,0.6107646255977754,-0.03387680828613067
7202,5.0,300.38137,1288.2349,0.0,0.0,0.0,0.0,0.07178096262267755,0.0,-0.05943899061642164,-0.12847237144923587,-0.2036798975341408,0.16360189427124985,0.6247959407300584,-0.042421503822926455
7203,5.0,300.03573,1579.4341,0.0,0.0,0.0,0.0,0.07179092943226138,0.0,-0.1350639990472789,-0.14399550483624987,-0.20104902404699382,0.11875423907763087,0.6263063115941203,-0.05083856024462525
7204,5.0,299.71308,1627.5387,0.0,0.0,0.0,0.0,0.0718008962418452,0.0,-0.11602011540529387,-0.15854811687998085,-0.22016288274088477,0.13171912874466588,0.6173578237334734,-0.03652914646339606
7205,5.0,299.17546,1383.8439,0.0,0.0,0.0,0.0,0.07181086305142902,0.0,-0.14629700111338986,-0.12548898825229887,-0.14886800165212785,0.14156517380889486,0.6149916922324544,-0.05218212886397515
7206,5.0,298.67784,1457.8597,0.0,0.0,0.0,0.0,0.07182082986101285,0.0,-0.13950446628551885,-0.11118191710530088,-0.19246654238746883,0.15718790968073887,0.6314177834460835,-0.003164074871369877
7207,5.0,299.5101,1561.2733,0.0,0.0,0.0,0.0,0.07183079667059666,0.0,-0.13355921119126787,-0.14454889137836485,-0.19647999563606583,0.17691720635286884,0.6190296762659725,-0.02964665833139737
7208,5.0,300.34648,1775.3923,0.0,0.0,0.0,0.0,0.07184076348018048,0.0,-0.12672600450438287,-0.15104475670945686,-0.26190416644042874,0.15011782538547586,0.6077564785683944,-0.03604004050762507
7209,5.0,299.82673,1967.1085,0.0,0.0,0.0,0.0,0.0718507302897643,0.0,-0.18184434774663982,-0.16792680033558485,-0.24818072735103075,0.15485811332830585,0.6305612831365534,-0.05858621805400954
7210,5.0,300.12105,1664.6992,0.0,0.0,0.0,0.0,0.07186069709934813,0.0,-0.15500989819328587,-0.13243187926250888,-0.2185852219376818,0.12806666610919587,0.6248830701061574,-0.033053443281370866
7211,5.0,299.98494,1196.6221,0.0,0.0,0.0,0.0,0.07187066390893196,0.0,-0.1340678424764659,-0.07406211270811143,-0.15561329876033686,0.14023249661486986,0.6497613086189484,-0.04172572119125806
7212,5.0,299.92291,1483.6902,0.0,0.0,0.0,0.0,0.07188063071851576,0.0,-0.17190268227047384,-0.09489476375863401,-0.18420733817234883,0.13350240839066188,0.6056320578787304,-0.016211917500241684
7213,5.0,300.04157999999995,1919.0365,0.0,0.0,0.0,0.0,0.07189059752809959,0.0,-0.19471010102389083,-0.15577077809087886,-0.23285830867632576,0.16604904525026484,0.6222790781441634,-0.03143210025310677
7214,5.0,300.86622,1535.0779,0.0,0.0,0.0,0.0,0.07190056433768341,0.0,-0.11243380786885289,-0.13767062545953285,-0.2165209072439498,0.15870497812796186,0.6215720930193894,-0.025051935924433576
7215,5.0,301.73267999999996,1218.9969,0.0,0.0,0.0,0.0,0.07191053114726723,0.0,-0.08069154061438502,-0.13352431485782387,-0.15632876478844787,0.14647632611608785,0.6109490371159754,-0.02899474740255877
7216,5.0,301.69946,1677.9695,0.0,0.0,0.0,0.0,0.07192049795685106,0.0,-0.14887683719299985,-0.14153760327367387,-0.2196463987674118,0.15750792445982184,0.6081071340305014,-0.02015152710805088
7217,5.0,300.63066000000003,2131.5027,0.0,0.0,0.0,0.0,0.07193046476643487,0.0,-0.25555037903835875,-0.17113036277925184,-0.2212428654924708,0.15785531725660684,0.6198869871755823,-0.0015757997667443283
7218,5.0,299.68743,1873.5784,0.0,0.0,0.0,0.0,0.07194043157601869,0.0,-0.1948154182392848,-0.14985613328214886,-0.22484950895841876,0.18646441356510482,0.6275094650278624,-0.01940499483187388
7219,5.0,299.031,1552.7303,0.0,0.0,0.0,0.0,0.07195039838560251,0.0,-0.12925458026143388,-0.13400918542817689,-0.2087274738347978,0.17509124861266084,0.6232167600517055,-0.03077187256744737
7220,5.0,299.20174,1284.5536,0.0,0.0,0.0,0.0,0.07196036519518634,0.0,-0.08394927343489822,-0.13216438123610885,-0.17435856746535083,0.14167813093004286,0.6225400913699234,-0.07257078790617913
7221,5.0,299.055,1329.8999,0.0,0.0,0.0,0.0,0.07197033200477017,0.0,-0.12479202417101389,-0.12061488036876188,-0.15884944732721987,0.13404520646923188,0.6381582878813193,-0.07836616304563812
7222,5.0,298.91639,1527.0639999999999,0.0,0.0,0.0,0.0,0.07198029881435397,0.0,-0.14515753044843285,-0.13285499223926686,-0.18617679239171883,0.1342588401203159,0.6460613042887864,-0.07077166508161953
7223,5.0,299.58022,1268.2538,0.0,0.0,0.0,0.0,0.0719902656239378,0.0,-0.14581340723816286,-0.12389088006207788,-0.1158131793373709,0.16420639928090985,0.6522359592056773,-0.03554057102983126
7224,5.0,301.14591,1018.3593,0.0,0.0,0.0,0.0,0.07200023243352162,0.0,-0.07913915128192613,-0.1096117948828419,-0.12080486476251187,0.14478580951674686,0.6107885585651374,-0.03443771314398767
7225,5.0,300.55082999999996,1538.2228,0.0,0.0,0.0,0.0,0.07201019924310544,0.0,-0.1165740389699619,-0.15648472424383986,-0.1945225484303808,0.16798153610598685,0.6213138662314045,-0.03279665429527777
7226,5.0,299.70378999999997,2084.8877,0.0,0.0,0.0,0.0,0.07202016605268927,0.0,-0.18093167285156583,-0.18636100125989882,-0.2664611169101648,0.15670462991304285,0.6131679839074684,-0.018401769828363283
7227,5.0,299.39378999999997,1912.1288,0.0,0.0,0.0,0.0,0.07203013286227308,0.0,-0.17623220875526482,-0.16170085469863185,-0.24330635602246775,0.17499530396069182,0.6243365230022174,-0.029097632817712767
7228,5.0,299.32689,1633.1733,0.0,0.0,0.0,0.0,0.0720400996718569,0.0,-0.14193815117070488,-0.14643283742179586,-0.20807290413769677,0.16194444002267186,0.6014135025448915,-0.023537516112971977
7229,5.0,299.71218,1578.8371,0.0,0.0,0.0,0.0,0.07205006648144072,0.0,-0.2216480946049638,-0.0895913276222256,-0.16868763970317383,0.17376188474646284,0.6183563411770193,-0.02246147186452468
7230,5.0,300.22042999999996,1492.3413,0.0,0.0,0.0,0.0,0.07206003329102455,0.0,-0.16080417902263686,-0.0976647169677571,-0.19516558734134382,0.17718795691208983,0.6338500295161273,-0.015415545478145885
7231,5.0,300.47737,1315.4477,0.0,0.0,0.0,0.0,0.07207000010060838,0.0,-0.12928484604192086,-0.1042660798727609,-0.16631233828874983,0.16110154766198484,0.6257912259057854,-0.05318629416357854
7232,5.0,300.24081,1372.8912,0.0,0.0,0.0,0.0,0.07207996691019218,0.0,-0.0942255434783371,-0.11895817592525787,-0.2041409161971398,0.14987279111379287,0.6268978774000034,-0.05497492579660275
7233,5.0,300.42474,1347.4785,0.0,0.0,0.0,0.0,0.07208993371977601,0.0,-0.11717340680161488,-0.1215649239275239,-0.17086147660021483,0.11094335750175689,0.6268445399147394,-0.059341090391759645
7234,5.0,300.89172,1473.4985,0.0,0.0,0.0,0.0,0.07209990052935983,0.0,-0.13672653981135888,-0.14009137114094186,-0.17108882965765285,0.14818278113950187,0.6303713494053084,-0.05095809437217236
7235,5.0,300.62917000000004,1882.7805,0.0,0.0,0.0,0.0,0.07210986733894365,0.0,-0.2182561081727008,-0.14190963831289086,-0.2121525226178238,0.14296461405200886,0.6426145314236165,-0.0034664841259903463
7236,5.0,300.57524,1990.2403,0.0,0.0,0.0,0.0,0.07211983414852748,0.0,-0.15722429549182984,-0.20083100302297682,-0.24692803611989975,0.15836571159697885,0.6129199605479905,-0.028658086950832974
7237,5.0,301.08516000000003,1663.8816,0.0,0.0,0.0,0.0,0.07212980095811129,0.0,-0.12868816332303287,-0.14354340277413086,-0.23354689317928376,0.14331809648189486,0.6104779670119844,-0.03140834055151187
7238,5.0,301.74455,1494.1774,0.0,0.0,0.0,0.0,0.07213976776769511,0.0,-0.1162130584893359,-0.1252420693354299,-0.21273749216555582,0.15715219261471383,0.6177986888519834,-0.024226913242510178
7239,5.0,300.97256,1434.4934,0.0,0.0,0.0,0.0,0.07214973457727893,0.0,-0.11890303485481589,-0.13320145284595988,-0.18394569673152683,0.16228047428583584,0.6335064668047204,-0.04665862088534736
7240,5.0,300.57542,1392.8844,0.0,0.0,0.0,0.0,0.07215970138686276,0.0,-0.13146223944681287,-0.1023512600987829,-0.18958859799593783,0.15897546524215683,0.6164845541347884,-0.05530082654551664
7241,5.0,299.8549,1447.655,0.0,0.0,0.0,0.0,0.07216966819644657,0.0,-0.14475216961342685,-0.13267779506177887,-0.16262101751194485,0.15325035899713285,0.6647761552257984,-0.06521221002919403
7242,5.0,300.14147,1569.9039,0.0,0.0,0.0,0.0,0.07217963500603039,0.0,-0.13666120544491087,-0.13212142956436987,-0.2084289399578348,0.14214932262404587,0.6299056191293444,-0.043216804839666556
7243,5.0,299.48888999999997,1521.4809,0.0,0.0,0.0,0.0,0.07218960181561421,0.0,-0.1267180099610939,-0.12719470360313986,-0.2085794886576928,0.13787214063942085,0.6223007312988005,-0.05683655905958165
7244,5.0,300.15904,1813.3029999999999,0.0,0.0,0.0,0.0,0.07219956862519804,0.0,-0.14025173823426887,-0.1855136404662708,-0.22543344499104875,0.15337957878238584,0.5958289442212384,-0.04292727470309216
7245,5.0,300.00325,2194.881,0.0,0.0,0.0,0.0,0.07220953543478185,0.0,-0.21162523739828482,-0.18207908739730683,-0.2734847132908398,0.16102058897899485,0.6048447625510305,-0.004318987062550836
7246,5.0,300.42964,1765.6467,0.0,0.0,0.0,0.0,0.07221950224436569,0.0,-0.19377758669185882,-0.13516665141490988,-0.2077682806276328,0.15850648243337184,0.6148640429848564,0.004138473416160526
7247,5.0,300.94511,1101.0725,0.0,0.0,0.0,0.0,0.0722294690539495,0.0,-0.1052573931080959,-0.09456238530183081,-0.1348787870614999,0.14999537411089084,0.6375021172490604,-0.006189041649760854
7248,5.0,301.43685,1352.704,0.0,0.0,0.0,0.0,0.07223943586353332,0.0,-0.1016182141814369,-0.11474743274968989,-0.1948226021824938,0.15820608417622484,0.6370512006895583,-0.027426432818278175
7249,5.0,299.24031,1642.9354,0.0,0.0,0.0,0.0,0.07224940267311714,0.0,-0.14872030018505086,-0.13943477494364087,-0.21125626237436979,0.14694894649273188,0.6454532833012795,-0.02409576321581668
7250,5.0,299.61467000000005,1671.8403,0.0,0.0,0.0,0.0,0.07225936948270095,0.0,-0.15111039505093485,-0.14122337415266187,-0.21586393614411178,0.13880596206408188,0.6336526281316454,-0.06634627500486753
7251,5.0,299.35335,1457.2135,0.0,0.0,0.0,0.0,0.07226933629228478,0.0,-0.14228835067026685,-0.1075863788604489,-0.19308177771568782,0.14531186870366486,0.6177097964207104,-0.05866175584896455
7252,5.0,298.6709,1256.2271,0.0,0.0,0.0,0.0,0.0722793031018686,0.0,-0.11487038051682388,-0.11623620112161989,-0.15075509890336988,0.14548521553077284,0.6062429260990184,-0.07176340996149713
7253,5.0,299.25192999999996,1515.7051,0.0,0.0,0.0,0.0,0.07228926991145242,0.0,-0.14350710815554887,-0.12273019194002688,-0.1944992031480768,0.15588446475209886,0.6386250516723854,-0.042656653839883964
7254,5.0,300.69352000000003,1851.7432,0.0,0.0,0.0,0.0,0.07229923672103625,0.0,-0.16858172467022084,-0.15949529294095985,-0.23480667716111478,0.13153322774881887,0.6280207408958214,-0.04815988364426045
7255,5.0,300.50507999999996,1754.839,0.0,0.0,0.0,0.0,0.07230920353062006,0.0,-0.18565877841059483,-0.15221856642030285,-0.19554988270677082,0.14678243910379885,0.6447651040983614,-0.026359024500433176
7256,5.0,301.30779,1359.7012,0.0,0.0,0.0,0.0,0.0723191703402039,0.0,-0.1023378041374549,-0.12652066937161788,-0.18445673955196282,0.15020587681916586,0.6148247896759824,-0.03453094127243857
7257,5.0,300.10659,1343.5479,0.0,0.0,0.0,0.0,0.0723291371497877,0.0,-0.11634565239742188,-0.13976556057128686,-0.15229379010772687,0.16455723712803486,0.6302788295386774,-0.028026155287466176
7258,5.0,299.91757,1839.9482,0.0,0.0,0.0,0.0,0.07233910395937153,0.0,-0.16885414709210686,-0.17119738927336683,-0.21924679319297377,0.18072472665114184,0.5813282713776334,-0.026807556882449877
7259,5.0,300.21952000000005,1767.7519,0.0,0.0,0.0,0.0,0.07234907076895533,0.0,-0.15288039098811987,-0.14823461901461787,-0.23623741669981776,0.18001903848649584,0.6199607720478644,-0.028336458064340677
7260,5.0,299.54882000000003,1175.3447,0.0,0.0,0.0,0.0,0.07235903757853916,0.0,-0.07355303559286944,-0.1177182820428899,-0.16600410760832982,0.18499677145775983,0.6531029567862433,-0.06626850400669214
7261,5.0,300.13194,1252.9413,0.0,0.0,0.0,0.0,0.07236900438812299,0.0,-0.12816510335641088,-0.08515244510714201,-0.16754530154043384,0.16922733723643785,0.6707243183478363,-0.038030524732820564
7262,5.0,300.25019,1736.5367,0.0,0.0,0.0,0.0,0.07237897119770681,0.0,-0.16461410072364685,-0.15258528189649484,-0.2106644027259578,0.15153490631283087,0.6590783662034704,-0.07192466060891133
7263,5.0,300.40984,1861.4628,0.0,0.0,0.0,0.0,0.07238893800729063,0.0,-0.20584208205503182,-0.13060309455452188,-0.22939302373182877,0.1284565140851709,0.6160842291527794,-0.03222793423939947
7264,5.0,301.27226,1679.9576,0.0,0.0,0.0,0.0,0.07239890481687444,0.0,-0.16978816103428684,-0.13316976851533288,-0.20770723230910781,0.13806415153337087,0.6058956447597444,-0.036490716926853364
7265,5.0,301.69042,1594.8598,0.0,0.0,0.0,0.0,0.07240887162645827,0.0,-0.13316293920965885,-0.1358833130781389,-0.2157513133954968,0.13696010409190987,0.6071778722312904,-0.01049092505062369
7266,5.0,301.18357000000003,1669.9953,0.0,0.0,0.0,0.0,0.0724188384360421,0.0,-0.14489892875791086,-0.14342287667473586,-0.2193150558522108,0.15165087278677586,0.5951550721097324,-0.005422304862614824
7267,5.0,301.58376,1837.9881,0.0,0.0,0.0,0.0,0.07242880524562591,0.0,-0.17974758878470584,-0.15263162795606885,-0.2263232913613698,0.16349851236354684,0.6415244870985374,-0.017406793693916785
7268,5.0,300.10492999999997,1623.5144,0.0,0.0,0.0,0.0,0.07243877205520974,0.0,-0.1253017497663199,-0.15547507118169485,-0.2127310073649158,0.17570537949827084,0.6268782507455665,-0.039530513836357965
7269,5.0,299.5719,1193.8186,0.0,0.0,0.0,0.0,0.07244873886479354,0.0,-0.1095277356545459,-0.1185343638059309,-0.13482894528908088,0.17644828433908982,0.6485029229222553,-0.05466314874083275
7270,5.0,300.57739,1338.3452,0.0,0.0,0.0,0.0,0.07245870567437737,0.0,-0.10820661964416188,-0.1284277580473329,-0.17018915476136182,0.13782475093224386,0.6412434317857993,-0.07091529733629494
7271,5.0,300.18296000000004,1570.1106,0.0,0.0,0.0,0.0,0.0724686724839612,0.0,-0.14042202504607487,-0.12405677950095088,-0.21279563245629377,0.16125288669692084,0.6321142814323224,-0.06315238200690484
7272,5.0,299.10541,1343.2776,0.0,0.0,0.0,0.0,0.07247863929354502,0.0,-0.08822519493639883,-0.12056907133174088,-0.1995285814769378,0.13199076083147387,0.6246136367720664,-0.04665962704269666
7273,5.0,299.88602000000003,1414.3854,0.0,0.0,0.0,0.0,0.07248860610312884,0.0,-0.11999113373970288,-0.11985411192867988,-0.19009260886067983,0.13565950639605087,0.6470494561838093,-0.043621783679384865
7274,5.0,300.03319,1656.1922,0.0,0.0,0.0,0.0,0.07249857291271265,0.0,-0.16228766836154584,-0.12625098272500188,-0.2149024428592198,0.1358011790250329,0.6189401150896334,-0.04873972411998625
7275,5.0,299.53597,1703.4847,0.0,0.0,0.0,0.0,0.07250853972229648,0.0,-0.1921082774171108,-0.12644318613647088,-0.1992653391009578,0.14211159932282288,0.6327746975825004,-0.04260935532521596
7276,5.0,300.35332999999997,1704.5562,0.0,0.0,0.0,0.0,0.07251850653188031,0.0,-0.15855880666853583,-0.15649569774242283,-0.2030880378857288,0.1797244562849228,0.6138921942839424,-0.04922403436303396
7277,5.0,298.49576,1586.9323,0.0,0.0,0.0,0.0,0.07252847334146412,0.0,-0.12358279123667189,-0.14667285610548386,-0.2121321360258118,0.18332661105292783,0.6337554020892884,0.004794358717191366
7278,5.0,298.25257,1572.899,0.0,0.0,0.0,0.0,0.07253844015104795,0.0,-0.12875306199193787,-0.14836353482484085,-0.20100541376268982,0.17287079207851883,0.6261070660944564,-0.02121720276822488
7279,5.0,299.70771,1530.5391,0.0,0.0,0.0,0.0,0.07254840696063176,0.0,-0.1032149443515219,-0.13784291850653688,-0.2241878059806138,0.17241522470105783,0.6032477588034184,-0.02398017975040948
7280,5.0,300.33477999999997,1688.2413,0.0,0.0,0.0,0.0,0.07255837377021558,0.0,-0.14127576931533287,-0.17619050338114883,-0.19571692711825683,0.15124296869401888,0.6094191307899854,-0.05579075931336925
7281,5.0,300.37243,1792.4124,0.0,0.0,0.0,0.0,0.07256834057979941,0.0,-0.16264879069718582,-0.14054191279790687,-0.24165790956727876,0.15818439049158387,0.6350583505253794,-0.04223597772961646
7282,5.0,300.29703,1609.9453,0.0,0.0,0.0,0.0,0.07257830738938323,0.0,-0.15833784721922886,-0.1140875536220649,-0.21695777002456476,0.14409343545841485,0.6236858543180014,-0.05347514440933585
7283,5.0,300.19115,1585.1562,0.0,0.0,0.0,0.0,0.07258827419896705,0.0,-0.14736181551097885,-0.12544921818587387,-0.20903685962033178,0.14164770302953986,0.6531576114966374,-0.03907788184443667
7284,5.0,300.90645,1699.6781,0.0,0.0,0.0,0.0,0.07259824100855086,0.0,-0.15882506852981385,-0.12152819361139887,-0.23630642916412875,0.13110101578616287,0.6351686124012613,0.0025666628150598975
7285,5.0,300.33637999999996,1588.9289999999999,0.0,0.0,0.0,0.0,0.07260820781813469,0.0,-0.13201042801591487,-0.14804230414563785,-0.2029420082813168,0.14668570411675186,0.6593067629085114,-0.03275388906155717
7286,5.0,299.66546,1713.2519,0.0,0.0,0.0,0.0,0.07261817462771852,0.0,-0.17289120906803385,-0.14198275444010686,-0.2059118341919158,0.13915511791604088,0.6379549995137563,-0.023785494889445577
7287,5.0,299.56112,1728.9161,0.0,0.0,0.0,0.0,0.07262814143730233,0.0,-0.16529889567123085,-0.16342613590890384,-0.1968223120498498,0.13985679361029085,0.6471734881285504,-0.057458069445669946
7288,5.0,298.81922000000003,1292.2505,0.0,0.0,0.0,0.0,0.07263810824688616,0.0,-0.10051439674774859,-0.14465920391675186,-0.14763829093326486,0.14359671999439286,0.6199155912259054,-0.05786177969626304
7289,5.0,299.46328,1266.6085,0.0,0.0,0.0,0.0,0.07264807505646997,0.0,-0.07351761743562393,-0.13931451228927189,-0.17218523719335985,0.16317708916682483,0.6321914100299344,-0.04868194859928425
7290,5.0,300.10035,1709.0017,0.0,0.0,0.0,0.0,0.07265804186605379,0.0,-0.15783499145960084,-0.15512561135470587,-0.2065332503457448,0.18202959012992181,0.6126617742900095,-0.024601711414749875
7291,5.0,299.62829,1663.8870000000002,0.0,0.0,0.0,0.0,0.07266800867563762,0.0,-0.12685810191991986,-0.14525234026028985,-0.23366964842889879,0.18086606490759083,0.6097060122907983,-0.04516389358957925
7292,5.0,299.53735,1331.8698,0.0,0.0,0.0,0.0,0.07267797548522144,0.0,-0.1136747150013209,-0.11077927178056289,-0.18040117562920982,0.1856621727984298,0.6359338999367894,-0.04442169701058016
7293,5.0,300.16572,1491.9158,0.0,0.0,0.0,0.0,0.07268794229480526,0.0,-0.1139354647820549,-0.13957809917028588,-0.19999159624263382,0.17251939694383883,0.6523641556083294,-0.06839810645736753
7294,5.0,299.25439,1795.2942,0.0,0.0,0.0,0.0,0.07269790910438907,0.0,-0.17827565049693683,-0.1308155933654939,-0.2366333543088938,0.17552612542307983,0.6636985434794463,-0.026079469811093273
7295,5.0,300.05065,1659.8151,0.0,0.0,0.0,0.0,0.0727078759139729,0.0,-0.16305510398728584,-0.12292825193707388,-0.21855897876009178,0.12902789594906186,0.6352166505885024,-0.036215785697719764
7296,5.0,300.45335,1471.6315,0.0,0.0,0.0,0.0,0.07271784272355672,0.0,-0.13522004969517984,-0.13121488483240087,-0.18090431509886584,0.11592500161840688,0.6192128009565454,0.002971386923703057
7297,5.0,300.78375,1356.1931,0.0,0.0,0.0,0.0,0.07272780953314054,0.0,-0.1044679192926809,-0.0997356623701435,-0.20804527280746984,0.1103557636362659,0.6310112573734624,-0.02306422901776218
7298,5.0,299.61911000000003,1614.6728,0.0,0.0,0.0,0.0,0.07273777634272435,0.0,-0.16460393782514385,-0.14481338005196787,-0.18140290507557283,0.14340693825066286,0.6487342783175883,-0.005585817286902245
7299,5.0,299.85555,1812.381,0.0,0.0,0.0,0.0,0.07274774315230818,0.0,-0.16610680050596485,-0.17836713684846583,-0.2064446416244998,0.17773796933137181,0.6551602901867865,-0.07087762064457653
7300,5.0,299.36104,1589.4215,0.0,0.0,0.0,0.0,0.072757709961892,0.0,-0.15209696627580185,-0.11947645335140787,-0.2115710183854338,0.18631705660306183,0.6457548163985384,-0.023888418808103377
7301,5.0,298.18213,1304.2866,0.0,0.0,0.0,0.0,0.07276767677147583,0.0,-0.1016158634412049,-0.1475263774597199,-0.14732830733017185,0.19242718775358483,0.6373330463373744,-0.062182729018957536
7302,5.0,298.97533,1593.4537,0.0,0.0,0.0,0.0,0.07277764358105965,0.0,-0.14918494628340787,-0.11140651412246688,-0.22377868598773681,0.17760792881353785,0.6029785179868464,-0.01044264570985889
7303,5.0,299.60818,1804.9707,0.0,0.0,0.0,0.0,0.07278761039064346,0.0,-0.16321766983332983,-0.16164180248280385,-0.22380655036548677,0.16444911320986386,0.6060786579928065,-0.07496762392497842
7304,5.0,300.00872999999996,1506.9785,0.0,0.0,0.0,0.0,0.07279757720022728,0.0,-0.16152639329641386,-0.1251342899222929,-0.17142316166064883,0.14656962618529587,0.6068901092028904,-0.03871924602454206
7305,5.0,299.72198,1229.777,0.0,0.0,0.0,0.0,0.0728075440098111,0.0,-0.08368911539222262,-0.1082864333545389,-0.18184595881429882,0.12768798414932286,0.6444296271227524,-0.07167471612724373
7306,5.0,300.15724,1473.5199,0.0,0.0,0.0,0.0,0.07281751081939493,0.0,-0.1359847292806479,-0.14210206463938188,-0.16982646188806685,0.11964739877577889,0.6473446564679434,-0.043756019052632864
7307,5.0,300.1248,1639.6537,0.0,0.0,0.0,0.0,0.07282747762897875,0.0,-0.16230766991851986,-0.13938624026385085,-0.1967198825972408,0.15796170851710686,0.6405748387073144,-0.056746637166207044
7308,5.0,300.07234,1577.6386,0.0,0.0,0.0,0.0,0.07283744443856256,0.0,-0.13004078127902585,-0.15479968932753985,-0.19472226002509083,0.16009695071783883,0.6483316836553554,-0.02982111365411477
7309,5.0,299.91752,1462.899,0.0,0.0,0.0,0.0,0.07284741124814638,0.0,-0.09468440391862311,-0.15273593192136284,-0.1972644437309848,0.2007286242328728,0.6412430568832623,-0.06134726884775403
7310,5.0,299.78451,1619.0679,0.0,0.0,0.0,0.0,0.07285737805773021,0.0,-0.14864874446298887,-0.13471629214296288,-0.20879117686858478,0.14852525967330188,0.6428251354569013,-0.028487839655780868
7311,5.0,299.24241,1856.5256,0.0,0.0,0.0,0.0,0.07286734486731404,0.0,-0.14835777956427287,-0.19575534956204882,-0.22022429582944578,0.15038182769903086,0.6211377228340205,-0.07261547628858953
7312,5.0,299.87397999999996,1877.3982,0.0,0.0,0.0,0.0,0.07287731167689784,0.0,-0.1979585099169838,-0.14457904570134086,-0.2281446084161198,0.13718220851382984,0.6175754495899515,-0.020169106997285878
7313,5.0,300.26507000000004,1718.5938,0.0,0.0,0.0,0.0,0.07288727848648167,0.0,-0.15384173228549686,-0.15060427662598486,-0.21796360313383278,0.16273604166329683,0.6225205153779915,0.0014761229093569886
7314,5.0,300.29759,1560.8424,0.0,0.0,0.0,0.0,0.07289724529606548,0.0,-0.13547160929750687,-0.13410341768747686,-0.2048820985127888,0.15499675633948887,0.6212788685729504,-0.013356487525932687
7315,5.0,300.65597,1576.7653,0.0,0.0,0.0,0.0,0.07290721210564931,0.0,-0.15876295629868387,-0.11834991175772688,-0.2021844214465488,0.16150653359445385,0.6013548049665984,-0.021903470981454277
7316,5.0,300.84448,1645.8222,0.0,0.0,0.0,0.0,0.07291717891523314,0.0,-0.1754740342354388,-0.1251135892227499,-0.1997012190289758,0.14980623071472388,0.6301421015701834,-0.029839131267392974
7317,5.0,300.12543999999997,1535.1689999999999,0.0,0.0,0.0,0.0,0.07292714572481696,0.0,-0.11102141828946088,-0.16007342305051683,-0.1955581913575908,0.16881899744613785,0.6342589265939824,-0.04673339671622716
7318,5.0,299.99551,1433.4137,0.0,0.0,0.0,0.0,0.07293711253440077,0.0,-0.13718467071157286,-0.1250873967076649,-0.17344989490817184,0.13545335053070487,0.6654177147916154,-0.038323779576762564
7319,5.0,298.51836000000003,1600.2798,0.0,0.0,0.0,0.0,0.07294707934398459,0.0,-0.12453195326784687,-0.16784621655513185,-0.1940669303904148,0.12731491559500388,0.6405000304524314,-0.04764455882890186
7320,5.0,299.61859,1787.1103,0.0,0.0,0.0,0.0,0.07295704615356842,0.0,-0.15756188002764684,-0.15989111909252485,-0.22578391806813777,0.11941862716820088,0.6355271610816473,-0.04093276584849946
7321,5.0,299.71745,1622.0002,0.0,0.0,0.0,0.0,0.07296701296315225,0.0,-0.12378793385191789,-0.14092359397807588,-0.22833602149251078,0.14242044808580387,0.6538506948300393,-0.03744615502914776
7322,5.0,300.41312999999997,1549.9892,0.0,0.0,0.0,0.0,0.07297697977273605,0.0,-0.12215661132341887,-0.15042468817826085,-0.19857672420049682,0.15438997151710385,0.6419362212766724,-0.045248173706397055
7323,5.0,299.91714,1441.5735,0.0,0.0,0.0,0.0,0.07298694658231988,0.0,-0.12049547897697788,-0.11843754775887588,-0.1992693211738508,0.18258177090441782,0.6083858588680093,-0.06762285766010644
7324,5.0,300.0733,1369.683,0.0,0.0,0.0,0.0,0.07299691339190369,0.0,-0.14638616712218985,-0.12190448430103587,-0.14805878972476486,0.1834164863367978,0.6057476595826394,-0.05136404897173695
7325,5.0,300.52572000000004,1473.6475,0.0,0.0,0.0,0.0,0.07300688020148752,0.0,-0.13764145398915387,-0.12136628637791988,-0.18894431278735183,0.1992763835270478,0.5960486675054235,-0.03574371146287966
7326,5.0,299.74453,1592.3273,0.0,0.0,0.0,0.0,0.07301684701107135,0.0,-0.16185295367114283,-0.11966550555506587,-0.20250928969361082,0.15772436481368285,0.6210192738973305,-0.017609757821447785
7327,5.0,298.80683999999997,1642.2422,0.0,0.0,0.0,0.0,0.07302681382065516,0.0,-0.15723863298074484,-0.15425031525582086,-0.1877116839082008,0.12602447066514688,0.6211735108275523,-0.030054777233175574
7328,5.0,299.68092,1824.3694,0.0,0.0,0.0,0.0,0.07303678063023898,0.0,-0.15054758528288986,-0.15965146517887285,-0.2443637027668198,0.13844462694592088,0.6384113673587964,-0.03841208736272786
7329,5.0,299.63602000000003,1884.5758,0.0,0.0,0.0,0.0,0.0730467474398228,0.0,-0.15117151429696685,-0.18350014026505382,-0.23819232064775178,0.13957076323956188,0.6333410131958914,-0.02085878074410138
7330,5.0,299.5689,1699.3075,0.0,0.0,0.0,0.0,0.07305671424940663,0.0,-0.15738127832982285,-0.14409524917609387,-0.2150705410508098,0.15883090485038984,0.6667789251084564,-0.026964172923906675
7331,5.0,299.36945,1611.325,0.0,0.0,0.0,0.0,0.07306668105899046,0.0,-0.14156481917135985,-0.13776925522426686,-0.2104685009516238,0.15945012225150185,0.6236114716281604,-0.01922207785757138
7332,5.0,299.55337000000003,1490.2665,0.0,0.0,0.0,0.0,0.07307664786857426,0.0,-0.14357504657475387,-0.13051392854572189,-0.17891482892501884,0.17658207388229383,0.6426479585444154,-0.039427458195187164
7333,5.0,299.39656,1269.2816,0.0,0.0,0.0,0.0,0.0730866146781581,0.0,-0.1133548319447509,-0.09690607736613521,-0.17556899603481083,0.16531479356529985,0.6294683510486895,-0.016345337207159184
7334,5.0,300.52395,1450.1221,0.0,0.0,0.0,0.0,0.0730965814877419,0.0,-0.1063018614436769,-0.15256126786912486,-0.18193776940585982,0.12412161737484988,0.6534540479458933,-0.06709102294761843
7335,5.0,299.65749,1648.1298,0.0,0.0,0.0,0.0,0.07310654829732573,0.0,-0.14989178955316787,-0.15534029878589387,-0.19575822719233282,0.14635901201950988,0.6247818058911634,-0.059842116221707035
7336,5.0,299.84725,1666.8633,0.0,0.0,0.0,0.0,0.07311651510690956,0.0,-0.16338422788476784,-0.16689961804670986,-0.17640095542691883,0.11968727016721388,0.6138738443246314,-0.06720493556361073
7337,5.0,300.1866,1574.5663,0.0,0.0,0.0,0.0,0.07312648191649337,0.0,-0.13917198853020588,-0.15118191024299285,-0.18827493950628982,0.14715130267020285,0.6255850295104354,-0.042733203871688864
7338,5.0,300.48694,1635.3714,0.0,0.0,0.0,0.0,0.07313644872607719,0.0,-0.15598767440728484,-0.15673279826582284,-0.18439158757053284,0.14027484033654886,0.6227177445099564,-0.04236571832542086
7339,5.0,300.78382999999997,1761.7306,0.0,0.0,0.0,0.0,0.07314641553566101,0.0,-0.14133416291859588,-0.16577239757546183,-0.22841555149285978,0.17942491929036083,0.6302363135644814,-0.047452678644214756
7340,5.0,300.80445,1696.3846,0.0,0.0,0.0,0.0,0.07315638234524484,0.0,-0.1273645141873989,-0.1815136938415068,-0.2067803516476318,0.16466005161568184,0.6296641818955164,-0.054435133017829346
7341,5.0,300.00956,1442.9588,0.0,0.0,0.0,0.0,0.07316634915482867,0.0,-0.11805294841841887,-0.12787816106059188,-0.19269232490725183,0.18490116117832384,0.6440070916985514,-0.025997273949731177
7342,5.0,299.9387,1435.6525,0.0,0.0,0.0,0.0,0.07317631596441247,0.0,-0.1253822322217629,-0.12641184631087787,-0.18460842309193282,0.14723760118121987,0.6457283604384274,-0.019260031166567083
7343,5.0,301.04531000000003,1623.5486,0.0,0.0,0.0,0.0,0.0731862827739963,0.0,-0.15889220648143984,-0.13879860586835588,-0.1958274119091608,0.13939260347447885,0.6165023265415425,-0.01944179607550588
7344,5.0,300.58959,1639.8464,0.0,0.0,0.0,0.0,0.0731962495835801,0.0,-0.20256692335929882,-0.09598739997746882,-0.1999180342853738,0.13309913485086186,0.6192725523149425,-0.023392792587938877
7345,5.0,299.98879,1648.5613,0.0,0.0,0.0,0.0,0.07320621639316394,0.0,-0.13750482734566988,-0.1379392988560489,-0.22567733429011877,0.15515986934058687,0.6205607275645754,-0.02640630578984948
7346,5.0,299.48182,1597.9175,0.0,0.0,0.0,0.0,0.07321618320274777,0.0,-0.15466469401671687,-0.12114379692096187,-0.2099185290623458,0.18034667290633083,0.6350699015765193,-0.054644431984985545
7347,5.0,299.38746000000003,1909.1749,0.0,0.0,0.0,0.0,0.07322615001233158,0.0,-0.17123471740705082,-0.17259130730343583,-0.2365154727922598,0.16607417385274484,0.6333738323666304,-0.04744470031292736
7348,5.0,299.86548,1945.392,0.0,0.0,0.0,0.0,0.0732361168219154,0.0,-0.18470219938868782,-0.1834257373102108,-0.2232226447303598,0.15906999134398583,0.6403191146470764,-0.05370609247812865
7349,5.0,299.87485,1482.0729,0.0,0.0,0.0,0.0,0.07324608363149922,0.0,-0.1252120771324699,-0.1120759785960379,-0.2132250883786778,0.17152450693565083,0.6537298242256103,-0.008481378348646873
7350,5.0,300.13545,1183.5652,0.0,0.0,0.0,0.0,0.07325605044108305,0.0,-0.1021851782748919,-0.09852749942790709,-0.15906159150065685,0.13768854985380188,0.6572108348116594,-0.03780452031126567
7351,5.0,300.42874,1331.1617,0.0,0.0,0.0,0.0,0.07326601725066686,0.0,-0.08526451056820201,-0.11706756269616889,-0.20230785557373082,0.13779837603214087,0.6456397517171825,-0.03720837765468096
7352,5.0,300.9398,1557.1502,0.0,0.0,0.0,0.0,0.07327598406025068,0.0,-0.14412379243141088,-0.13728654287662687,-0.1919244535839688,0.11644147545937888,0.6169699921251974,-0.07244340615660752
7353,5.0,301.46792999999997,1533.2363,0.0,0.0,0.0,0.0,0.0732859508698345,0.0,-0.13386418933886687,-0.14057325262349984,-0.1916281083272218,0.16802481201775782,0.6282070877217124,-0.05980542744883614
7354,5.0,301.67548999999997,1473.5417,0.0,0.0,0.0,0.0,0.07329591767941833,0.0,-0.12989283663192489,-0.12771502779449187,-0.1903120383023358,0.16273492708818685,0.6167996647833874,-0.056057905741984534
7355,5.0,301.01942,1576.6954,0.0,0.0,0.0,0.0,0.07330588448900215,0.0,-0.15517454120203486,-0.11841626950677589,-0.20568521067454978,0.15744266102088084,0.6329281239126424,-0.05717842863007154
7356,5.0,300.62779,1833.7587,0.0,0.0,0.0,0.0,0.07331585129858596,0.0,-0.17503022055913783,-0.16133738162275985,-0.22104926379586382,0.16925277994644883,0.6265179592750084,-0.026309486703044175
7357,5.0,300.15257,1854.0939,0.0,0.0,0.0,0.0,0.0733258181081698,0.0,-0.14981645440823285,-0.14877934226837786,-0.2650024623312067,0.15490252408018887,0.6641062550546843,-0.047034723110465755
7358,5.0,300.16536,1631.8001,0.0,0.0,0.0,0.0,0.07333578491775361,0.0,-0.15269234190206085,-0.13557859837556585,-0.2077555542063768,0.17088262312980185,0.6472352862521494,-0.02842319632590107
7359,5.0,299.87008,1465.8714,0.0,0.0,0.0,0.0,0.07334575172733743,0.0,-0.14027335085890189,-0.12644089619124488,-0.17887405574099483,0.11130103478705689,0.6242469820908804,-0.04889797453385436
7360,5.0,299.68234,1432.1246,0.0,0.0,0.0,0.0,0.07335571853692124,0.0,-0.15259739023518987,-0.09926171260936831,-0.18347102958968084,0.12709242613804586,0.6278517105141395,-0.014974113952829984
7361,5.0,299.9048,1521.2392,0.0,0.0,0.0,0.0,0.07336568534650507,0.0,-0.14966357523314486,-0.11868123440792588,-0.19407391168360383,0.13998027839997787,0.6369606262631193,-0.024893142408511874
7362,5.0,298.90832,1484.205,0.0,0.0,0.0,0.0,0.07337565215608889,0.0,-0.1161758722106659,-0.1103145648871999,-0.22467083243578478,0.18153301652091383,0.6378570992890944,-0.02041092217340118
7363,5.0,299.98235,1690.5464,0.0,0.0,0.0,0.0,0.07338561896567271,0.0,-0.12509627277854088,-0.16148656243498286,-0.22730103717786576,0.16924060068024682,0.6300559449141804,-0.05867978764774414
7364,5.0,299.97859,1853.155,0.0,0.0,0.0,0.0,0.07339558577525652,0.0,-0.1937261439842818,-0.16050846198095184,-0.2090782306219148,0.1903858839696238,0.6178394620360075,-0.04034992007297706
7365,5.0,299.17089,1917.6012,0.0,0.0,0.0,0.0,0.07340555258484036,0.0,-0.18552454303734683,-0.17353618328668782,-0.2238421661065018,0.17588057044056082,0.6291432092241004,-0.04268501268368276
7366,5.0,300.29902000000004,1861.356,0.0,0.0,0.0,0.0,0.07341551939442417,0.0,-0.17882022176318182,-0.16295532924993883,-0.2240301949275588,0.1873024828553158,0.6028945803485625,-0.04165602073012916
7367,5.0,300.74255,1689.7748,0.0,0.0,0.0,0.0,0.07342548620400799,0.0,-0.16113936215571684,-0.14034456207592985,-0.21216542129159682,0.15068583312653386,0.6162481831514605,-0.03693024151548107
7368,5.0,299.94397999999995,1502.3566,0.0,0.0,0.0,0.0,0.07343545301359182,0.0,-0.1172742251865649,-0.13224871404193186,-0.2071559533272008,0.13729524669498586,0.6279579903171284,-0.027804644630104774
7369,5.0,300.98214,1263.8946,0.0,0.0,0.0,0.0,0.07344541982317562,0.0,-0.08280531001899782,-0.1064705675853269,-0.19491652033426282,0.14297391568792686,0.6683555219990543,-0.017180586622341884
7370,5.0,301.27288,1219.3463,0.0,0.0,0.0,0.0,0.07345538663275945,0.0,-0.0993456330224006,-0.10760857917013988,-0.16369662302309884,0.13537921102088787,0.6748947443019254,-0.03633645973162936
7371,5.0,299.99356,1426.5738,0.0,0.0,0.0,0.0,0.07346535344234328,0.0,-0.1275318119114099,-0.12449704680190188,-0.18161393467389983,0.14286716978989186,0.6799710361104163,-0.061173549144609235
7372,5.0,299.85764,1732.704,0.0,0.0,0.0,0.0,0.0734753202519271,0.0,-0.17246117559309282,-0.17418520037324084,-0.1800523845472868,0.17620450649753083,0.6486317171424664,-0.053661987727775855
7373,5.0,299.73389,1580.4270000000001,0.0,0.0,0.0,0.0,0.07348528706151092,0.0,-0.13035273058731286,-0.15039873884319985,-0.1996588651747958,0.16752282765321583,0.6589317894440043,-0.05452665078011145
7374,5.0,299.1941,1543.9731,0.0,0.0,0.0,0.0,0.07349525387109473,0.0,-0.10073461956423291,-0.16792552364045885,-0.2006691160544998,0.18174155352399482,0.6139774998098615,-0.04818075153006995
7375,5.0,298.81254,1830.1657,0.0,0.0,0.0,0.0,0.07350522068067857,0.0,-0.16609244275204785,-0.15669842882243085,-0.2335338121204928,0.13353202569108488,0.6021259490877043,-0.03760744316681567
7376,5.0,299.92386,1874.7929,0.0,0.0,0.0,0.0,0.0735151874902624,0.0,-0.21759927892787678,-0.13593236451547985,-0.21635859471043078,0.15669952313253885,0.6041455591870245,-0.023019550767852774
7377,5.0,300.30542,1605.2149,0.0,0.0,0.0,0.0,0.0735251542998462,0.0,-0.17454845053409085,-0.11611644509230089,-0.19728035175755482,0.15404245713030684,0.6509460006358684,-0.03664038207262417
7378,5.0,300.56669,1386.5801,0.0,0.0,0.0,0.0,0.07353512110943003,0.0,-0.14537595677248985,-0.09616771897851491,-0.17994204161139682,0.17573109578580884,0.6383703307297464,-0.016407508206794985
7379,5.0,299.94465,1535.6829,0.0,0.0,0.0,0.0,0.07354508791901383,0.0,-0.12305906252498387,-0.13112535405356487,-0.2126248390194378,0.16657193296436987,0.6397595776768543,-0.01965676113722128
7380,5.0,299.69052,1669.9689,0.0,0.0,0.0,0.0,0.07355505472859766,0.0,-0.13389736314714087,-0.14904229080182885,-0.22468919252759678,0.16579895486058283,0.6455019902335863,-0.01670226468738518
7381,5.0,299.69163,1665.8844,0.0,0.0,0.0,0.0,0.0735650215381815,0.0,-0.14500698174857488,-0.12943965039219887,-0.23194063845825877,0.17172653887308983,0.6870141476880174,-0.019989404052300583
7382,5.0,299.28418999999997,1549.9433,0.0,0.0,0.0,0.0,0.07357498834776531,0.0,-0.13229413804391488,-0.15196465607774387,-0.18688527712664083,0.14254409499550685,0.6521406427687704,-0.039584949684730364
7383,5.0,298.62361,1628.8633,0.0,0.0,0.0,0.0,0.07358495515734913,0.0,-0.14345541213544685,-0.14272963122131788,-0.2089487271266338,0.12037687805277288,0.6440767121129224,-0.05721896876657255
7384,5.0,298.74949,1727.3255,0.0,0.0,0.0,0.0,0.07359492196693294,0.0,-0.1877920245086298,-0.13886705091261087,-0.1984047553935248,0.1288132591803789,0.6237021676446114,-0.05181519148601125
7385,5.0,298.69297,1675.1464,0.0,0.0,0.0,0.0,0.07360488877651677,0.0,-0.14424172461054988,-0.13936517479427188,-0.22559577778956982,0.16310833001503883,0.6524617619904624,-0.037820237846816866
7386,5.0,299.84382,1345.2068,0.0,0.0,0.0,0.0,0.0736148555861006,0.0,-0.08731384942545602,-0.1062937858403799,-0.2153016330011168,0.16849689537184884,0.6255282571073324,-0.037137517022187566
7387,5.0,299.82092,1184.3501,0.0,0.0,0.0,0.0,0.07362482239568441,0.0,-0.1065947413850819,-0.08719284000576331,-0.16622528997265884,0.16841757815402084,0.6163303881320734,-0.025617646627514874
7388,5.0,299.26972,1547.986,0.0,0.0,0.0,0.0,0.07363478920526824,0.0,-0.16114073004335183,-0.13940926130612286,-0.16999909944010486,0.18072195034586783,0.6208632637794335,-0.04379752278997896
7389,5.0,300.21837,1829.5181,0.0,0.0,0.0,0.0,0.07364475601485204,0.0,-0.19216944732564784,-0.16319338222843285,-0.2007649796464608,0.16019349318736684,0.6549407492876194,-0.047067540254704554
7390,5.0,299.60006,1716.2865,0.0,0.0,0.0,0.0,0.07365472282443587,0.0,-0.13297635933624485,-0.20876730469622878,-0.17996458642612184,0.17080797699493483,0.6423163015216834,-0.07018776856574344
7391,5.0,299.39266000000003,1635.4415,0.0,0.0,0.0,0.0,0.0736646896340197,0.0,-0.11699003893101788,-0.16987258503261884,-0.21027077532710983,0.14180276069234288,0.6201824813022454,-0.06326831808334685
7392,5.0,300.73779,1648.4929,0.0,0.0,0.0,0.0,0.07367465644360352,0.0,-0.12445593924534488,-0.14745090045977086,-0.22919383902717078,0.15172315804890987,0.6180541697321974,-0.028141874528386773
7393,5.0,301.35947000000004,1473.5638,0.0,0.0,0.0,0.0,0.07368462325318734,0.0,-0.14874969457045187,-0.09197702295617542,-0.2071998878515368,0.1428687707250499,0.6709863042936924,-0.016995499266325185
7394,5.0,300.40616,1443.2853,0.0,0.0,0.0,0.0,0.07369459006277115,0.0,-0.12557749564853388,-0.10678832281668689,-0.20635687390083782,0.15872539511747683,0.6489889688627244,-0.016419293318708086
7395,5.0,299.80011,1457.906,0.0,0.0,0.0,0.0,0.07370455687235498,0.0,-0.15096218695880784,-0.1040448975084319,-0.18815993561993982,0.16430498851563982,0.6246369212593644,-0.03064660851058477
7396,5.0,298.71511,1596.7303,0.0,0.0,0.0,0.0,0.07371452368193881,0.0,-0.16184242600260385,-0.1163691800647439,-0.2071545449095618,0.16969683680277384,0.6225553407839284,-0.030855219480923072
7397,5.0,299.24167,1768.0054,0.0,0.0,0.0,0.0,0.07372449049152262,0.0,-0.1794406550644138,-0.13313008964141687,-0.2248587396668298,0.17913816951206085,0.6563763726918044,-0.02769896568442507
7398,5.0,299.72302,1763.2620000000002,0.0,0.0,0.0,0.0,0.07373445730110645,0.0,-0.16315742198238384,-0.14958418708780985,-0.2232460204101668,0.16393188956381785,0.6386592893932644,-0.038144527528071764
7399,5.0,299.37583,1654.2217,0.0,0.0,0.0,0.0,0.07374442411069025,0.0,-0.16279643136925684,-0.13811232144312488,-0.2019333279392678,0.14383794444569986,0.6283046535738415,-0.02004494940953248
7400,5.0,299.08406,1653.6173,0.0,0.0,0.0,0.0,0.07375439092027408,0.0,-0.14417334036130086,-0.16305748512502083,-0.19542754288969683,0.16844649631187483,0.6275935749186634,-0.055397981018105044
7401,5.0,299.87307999999996,1603.4129999999998,0.0,0.0,0.0,0.0,0.0737643577298579,0.0,-0.15968160936934786,-0.14738827147108985,-0.18032762380445083,0.17196559496918284,0.6507118486702593,-0.05321431863484435
7402,5.0,300.43304,1343.7898,0.0,0.0,0.0,0.0,0.07377432453944173,0.0,-0.08728870359772432,-0.13159422540483887,-0.1895956198191308,0.18006701587873084,0.6695816559450644,-0.06442686723443673
7403,5.0,300.99814,1423.7978,0.0,0.0,0.0,0.0,0.07378429134902555,0.0,-0.07404020725419953,-0.17405569687795983,-0.18470308091627483,0.14957764149216385,0.6270010363926845,-0.04092391409562586
7404,5.0,300.4024,1530.3970000000002,0.0,0.0,0.0,0.0,0.07379425815860936,0.0,-0.11663432735091189,-0.1288848351674429,-0.2196833114685548,0.14963813252313385,0.6543860759178773,-0.024623039316104774
7405,5.0,300.1326,1590.7096,0.0,0.0,0.0,0.0,0.0738042249681932,0.0,-0.15538575318537984,-0.13206936877423187,-0.1960808561566738,0.13548147835348087,0.6744164598572224,0.0037788676119451963
7406,5.0,300.9092,1645.5309,0.0,0.0,0.0,0.0,0.07381419177777701,0.0,-0.13541698498461588,-0.16000619390638185,-0.2047771055374268,0.13690719217168787,0.6527469310986064,-0.038847216472421765
7407,5.0,302.1414,1826.1316,0.0,0.0,0.0,0.0,0.07382415858736083,0.0,-0.17058700741312682,-0.15619618101286284,-0.22831521946795777,0.12836977987661088,0.6098442702669434,-0.054238553379178454
7408,5.0,300.27111,2017.0839,0.0,0.0,0.0,0.0,0.07383412539694464,0.0,-0.18445098429139484,-0.1953865771881538,-0.2333055775354678,0.15678577098105084,0.6341389881796454,-0.06458410439820483
7409,5.0,300.07076,1829.4481,0.0,0.0,0.0,0.0,0.07384409220652846,0.0,-0.19327248151700882,-0.13771080082599788,-0.2251232486054348,0.20548877187766282,0.6707780813981423,-0.05825024458585154
7410,5.0,299.23278,1455.8575,0.0,0.0,0.0,0.0,0.07385405901611229,0.0,-0.12910459898163187,-0.11667972095539188,-0.1967599971686998,0.16477290741181985,0.6664973530381674,-0.03158559447100547
7411,5.0,300.22763,1519.463,0.0,0.0,0.0,0.0,0.07386402582569611,0.0,-0.1211181312959289,-0.14601890449094385,-0.19474176508951582,0.15124677851439486,0.6401695994623204,-0.014756300645083487
7412,5.0,300.32472,1754.5465,0.0,0.0,0.0,0.0,0.07387399263527994,0.0,-0.14534367462430386,-0.15227476127084885,-0.2357198890787418,0.14439535359071187,0.6477088286863844,-0.00924804370166085
7413,5.0,299.309,1780.1887,0.0,0.0,0.0,0.0,0.07388395944486376,0.0,-0.1795436620695798,-0.16037214944499886,-0.2012170918410808,0.16453816776115285,0.6586660848702813,-0.024933074594952875
7414,5.0,298.93538,1625.3268,0.0,0.0,0.0,0.0,0.07389392625444757,0.0,-0.13205431187774588,-0.14699068226435086,-0.21501375851520577,0.14328473015610188,0.6328147614914543,-0.02966328475228827
7415,5.0,300.13726,1586.4426,0.0,0.0,0.0,0.0,0.07390389306403139,0.0,-0.16112780097207585,-0.12484675994141588,-0.1962643760147858,0.13171918953967188,0.5857666107906634,-0.02011545439124078
7416,5.0,300.56147999999996,1652.7466,0.0,0.0,0.0,0.0,0.07391385987361522,0.0,-0.15565996905994287,-0.1255768978309749,-0.22115683042647977,0.15291429433646586,0.6404599361459744,-0.01886178638701338
7417,5.0,301.19365,1810.0446,0.0,0.0,0.0,0.0,0.07392382668319904,0.0,-0.19454078693218083,-0.1264543116225689,-0.2292132630315878,0.18557774880009784,0.6615040768103693,-0.00970292024520367
7418,5.0,300.9171,1678.5925,0.0,0.0,0.0,0.0,0.07393379349278285,0.0,-0.14441912443805788,-0.12964197617216688,-0.2361891049350498,0.17975457007789483,0.6641437554408853,-0.05909805424927384
7419,5.0,299.94875,1500.9105,0.0,0.0,0.0,0.0,0.07394376030236667,0.0,-0.12767652429069187,-0.15935670059228185,-0.16920608938184084,0.16914195065051083,0.6264397971622945,-0.07583425369575814
7420,5.0,301.02768,1534.431,0.0,0.0,0.0,0.0,0.0739537271119505,0.0,-0.09747775915205581,-0.15118631788092785,-0.2177646109466938,0.15966582293278986,0.6535034540207693,-0.07441450488088983
7421,5.0,299.50993,1634.594,0.0,0.0,0.0,0.0,0.07396369392153432,0.0,-0.16408315767124684,-0.16792204819261586,-0.16487055432395684,0.18465418146644882,0.6690754361951043,-0.06410854255652053
7422,5.0,299.43701,1631.4438,0.0,0.0,0.0,0.0,0.07397366073111813,0.0,-0.12664271534616287,-0.15797918708133185,-0.21129628575331982,0.11922997013208189,0.6398974506179613,-0.03188888657043807
7423,5.0,299.72739,1464.8682,0.0,0.0,0.0,0.0,0.07398362754070197,0.0,-0.11596352538720889,-0.14831534465008486,-0.18100447487125082,0.12715439651416185,0.6182765072016404,-0.034085443574471366
7424,5.0,299.66036,1521.1371,0.0,0.0,0.0,0.0,0.07399359435028577,0.0,-0.1164262665753779,-0.13146667748225088,-0.21449474141648278,0.13509523754786187,0.6411072408398584,-0.007606594852987462
7425,5.0,299.36851,1793.2267,0.0,0.0,0.0,0.0,0.0740035611598696,0.0,-0.19724609377167382,-0.1403023399442629,-0.2075477163458648,0.18739347271429582,0.6587898331049944,-0.05276539412503895
7426,5.0,300.03204,1858.2561,0.0,0.0,0.0,0.0,0.07401352796945343,0.0,-0.17209977967992585,-0.15362986168958684,-0.2391338225081708,0.18302875605353183,0.6223381810224964,0.002403079159290448
7427,5.0,299.71414,1599.4189999999999,0.0,0.0,0.0,0.0,0.07402349477903725,0.0,-0.2027906996438838,-0.1054135957435119,-0.17797914312017382,0.18690518749110582,0.6098602188235175,-0.051914890229600746
7428,5.0,300.91329,1778.8056,0.0,0.0,0.0,0.0,0.07403346158862106,0.0,-0.18242737185417982,-0.13172429632017588,-0.22656082758231277,0.17560792510365283,0.6317654498203954,0.01678652352595088
7429,5.0,300.78076,1818.4888,0.0,0.0,0.0,0.0,0.07404342839820488,0.0,-0.1931166537841298,-0.16278550853317886,-0.1968730353498558,0.16904128425307585,0.6580417606886654,-0.05555597507969785
7430,5.0,300.88627,1770.0186,0.0,0.0,0.0,0.0,0.07405339520778871,0.0,-0.17379909129013485,-0.12800986330858988,-0.23623249230433177,0.15517107588669285,0.6726696673473274,-0.024999274276986276
7431,5.0,299.34488999999996,1648.9874,0.0,0.0,0.0,0.0,0.07406336201737253,0.0,-0.16366171655715384,-0.14451402544242387,-0.19307524225254283,0.13872741491632984,0.6382481631651894,-0.06670956468247144
7432,5.0,300.7824,1564.1519,0.0,0.0,0.0,0.0,0.07407332882695634,0.0,-0.1084405689597509,-0.14767616622200286,-0.2193463652803008,0.15382212589606184,0.6804753306851863,-0.02904736041400127
7433,5.0,299.3567,1538.4882,0.0,0.0,0.0,0.0,0.07408329563654018,0.0,-0.12877231374383788,-0.14405513460463487,-0.1948345484011728,0.14877300945525285,0.6422511090102494,-0.028686823736919075
7434,5.0,300.74842,1665.5258,0.0,0.0,0.0,0.0,0.07409326244612398,0.0,-0.12245709064057388,-0.16013752125184283,-0.22368363299585578,0.14476696306488687,0.6304414460472264,-0.030432681016971767
7435,5.0,298.91961000000003,1533.4532,0.0,0.0,0.0,0.0,0.07410322925570781,0.0,-0.13557251887496585,-0.14079580287546387,-0.1897631404581638,0.13915876561640086,0.5879744928910644,-0.019427217433067082
7436,5.0,298.72955,1482.2084,0.0,0.0,0.0,0.0,0.07411319606529164,0.0,-0.10898633586111389,-0.13584551884940888,-0.2057224881457288,0.16837512297483084,0.6448779294969964,-0.04245413959539736
7437,5.0,298.09058,1760.4834,0.0,0.0,0.0,0.0,0.07412316287487546,0.0,-0.16882509721173983,-0.17106339708014284,-0.1952544797726168,0.17753409327875083,0.6532337977716564,-0.06295353066152973
7438,5.0,300.15407999999996,1968.3338,0.0,0.0,0.0,0.0,0.07413312968445927,0.0,-0.16884636533133884,-0.18231853866093883,-0.24715941178023473,0.14532790845274784,0.6319644724050374,-0.06707786994807034
7439,5.0,299.9192,1670.5247,0.0,0.0,0.0,0.0,0.07414309649404309,0.0,-0.19278333503123382,-0.13598966380863486,-0.17902478682587084,0.16930332086143685,0.6195210721669693,-0.04911207833298475
7440,5.0,300.44122999999996,1562.3643,0.0,0.0,0.0,0.0,0.07415306330362692,0.0,-0.13896245854202688,-0.13785841110056585,-0.1980988754533368,0.16259534175441084,0.6618925467662083,-0.04098394916405086
7441,5.0,299.81458,1513.4079,0.0,0.0,0.0,0.0,0.07416303011321074,0.0,-0.17170440949090585,-0.1010610046466946,-0.18727280475988684,0.2020460520128928,0.6687762031755724,-0.03358215211730036
7442,5.0,300.12968,1620.2998,0.0,0.0,0.0,0.0,0.07417299692279455,0.0,-0.12828965205870288,-0.15636346860437286,-0.2078775697834188,0.15725556438991586,0.6507245750915154,-0.023393265775735576
7443,5.0,300.12552999999997,1655.9861,0.0,0.0,0.0,0.0,0.07418296373237838,0.0,-0.15270112678042785,-0.13290964694966087,-0.21776764056449283,0.14729818340469886,0.6369042794250585,-0.028301311458121974
7444,5.0,299.69049,1675.0399,0.0,0.0,0.0,0.0,0.07419293054196219,0.0,-0.14046654725546887,-0.13136851381256287,-0.23733526305066677,0.16036039574383884,0.6631562013634213,-0.005458558849867815
7445,5.0,300.0237,1642.6504,0.0,0.0,0.0,0.0,0.07420289735154602,0.0,-0.16426871416205985,-0.13883833540477686,-0.1962176651851758,0.14351714946403987,0.6619622178430844,-0.008034819372524933
7446,5.0,299.75838999999996,1528.3425,0.0,0.0,0.0,0.0,0.07421286416112985,0.0,-0.14007640543696487,-0.11742093366854388,-0.20708062831476678,0.14014867043409687,0.6409030608122074,-0.01822254108442478
7447,5.0,299.59232000000003,1787.0113,0.0,0.0,0.0,0.0,0.07422283097071367,0.0,-0.18854216395516282,-0.15684175304907585,-0.1978228863910988,0.14507894277067687,0.6104266357619184,-0.03387167110812367
7448,5.0,299.93341000000004,1761.1218,0.0,0.0,0.0,0.0,0.07423279778029748,0.0,-0.16451052629842483,-0.14227362814631386,-0.22855290767641578,0.18401893444875483,0.6473702309004674,-0.04930681284320355
7449,5.0,300.6364,1505.013,0.0,0.0,0.0,0.0,0.0742427645898813,0.0,-0.15056353383946386,-0.12699006761294387,-0.1799327906379838,0.2076104973220608,0.6404376953062795,-0.06088085868097294
7450,5.0,300.82002,1491.4404,0.0,0.0,0.0,0.0,0.07425273139946513,0.0,-0.12264339693646088,-0.13785767142799285,-0.19285956183625683,0.17010069802763184,0.6321959899203864,-0.08425698229151672
7451,5.0,300.91402999999997,1726.6772,0.0,0.0,0.0,0.0,0.07426269820904896,0.0,-0.18358871858879583,-0.13132299861807087,-0.20995504659594977,0.14826086219220785,0.6382026783682004,-0.00885039907014138
7452,5.0,300.68313,1626.3089,0.0,0.0,0.0,0.0,0.07427266501863276,0.0,-0.12011893497481589,-0.14650547732146488,-0.22773289450298675,0.13576468175643086,0.6617089762455913,-0.03650017257678657
7453,5.0,300.11637,1497.8145,0.0,0.0,0.0,0.0,0.0742826318282166,0.0,-0.14086021518432087,-0.12449842482203788,-0.18993957769807682,0.15768581064737786,0.6715635022131574,-0.005768412452972984
7454,5.0,299.71279,1600.3942,0.0,0.0,0.0,0.0,0.0742925986378004,0.0,-0.07930796482808672,-0.17388310998842682,-0.23328879811381176,0.12070785619793788,0.6384107290112334,-0.054117915822272454
7455,5.0,299.3154,1677.2592,0.0,0.0,0.0,0.0,0.07430256544738423,0.0,-0.13875504624655688,-0.18501603334216082,-0.18607382591655683,0.15000978252731284,0.6245706344378223,-0.02609627861700218
7456,5.0,299.08969,1823.4244,0.0,0.0,0.0,0.0,0.07431253225696804,0.0,-0.14779322700605588,-0.17248571651051484,-0.2339965431761608,0.13353470067134887,0.6495072665538764,-0.05366074345665304
7457,5.0,299.88589,1777.2017,0.0,0.0,0.0,0.0,0.07432249906655188,0.0,-0.19599916793361183,-0.13411458370357887,-0.2101111783038588,0.16295159035706985,0.6521743434670965,-0.030066233038806175
7458,5.0,299.72073,1424.3536,0.0,0.0,0.0,0.0,0.07433246587613569,0.0,-0.11152570273172989,-0.12067767147745888,-0.2007645338164168,0.17675612998447185,0.6406698005066864,-0.05251185767176685
7459,5.0,300.09995,1442.5118,0.0,0.0,0.0,0.0,0.07434243268571951,0.0,-0.14157645128250787,-0.10040073136478071,-0.19651039313906582,0.18001990988158184,0.6351482359417504,-0.03779116871469797
7460,5.0,300.71137999999996,1900.6185,0.0,0.0,0.0,0.0,0.07435239949530334,0.0,-0.15846226419900783,-0.16123079784474084,-0.25804749337980476,0.1838849929180358,0.6446908024685284,-0.04439335741853326
7461,5.0,299.54262,1962.0676,0.0,0.0,0.0,0.0,0.07436236630488716,0.0,-0.2231875660118978,-0.13945188873782985,-0.23378009268979877,0.17666469429544782,0.6358470238732155,-0.039959844115729566
7462,5.0,299.49818999999997,1666.2138,0.0,0.0,0.0,0.0,0.07437233311447097,0.0,-0.16506644596578984,-0.14285854703154086,-0.1985623968440828,0.16276290292344786,0.6529777494713864,-0.044558137216045755
7463,5.0,300.41795,1533.8785,0.0,0.0,0.0,0.0,0.07438229992405479,0.0,-0.15993547918190285,-0.13334389554501788,-0.17298138832693385,0.14047350828365587,0.6501848370282474,-0.04708582739250936
7464,5.0,299.82206,1666.4325,0.0,0.0,0.0,0.0,0.0743922667336386,0.0,-0.12599732569496788,-0.12432900940531788,-0.2562275340801888,0.13792352255199186,0.6739758379187364,-0.011110106987982189
7465,5.0,300.08586,1822.9888,0.0,0.0,0.0,0.0,0.07440223354322244,0.0,-0.15936588063818785,-0.17472771474178284,-0.2200494696571918,0.13251276701799186,0.6756189242808964,-0.037333658936795265
7466,5.0,300.53815,1634.5373,0.0,0.0,0.0,0.0,0.07441220035280625,0.0,-0.09817932440204491,-0.15667674527029085,-0.2420024449987818,0.13571220553375188,0.6305533797857734,-0.03621072957972076
7467,5.0,299.93827999999996,1311.1209,0.0,0.0,0.0,0.0,0.07442216716239007,0.0,-0.14338874027886686,-0.1083515650709669,-0.14680771969379386,0.15009629382085085,0.6149235005007244,-0.04807070041020875
7468,5.0,300.70088,1464.3657,0.0,0.0,0.0,0.0,0.0744321339719739,0.0,-0.11802915730607089,-0.15048427741664186,-0.17661716273325684,0.14732117404946785,0.6132798669835104,-0.05740096368328404
7469,5.0,299.57765,1739.8987,0.0,0.0,0.0,0.0,0.07444210078155772,0.0,-0.2170789851340278,-0.1134743853240499,-0.19833238907138281,0.16399535955008185,0.6459911063218584,-0.04982517842211225
7470,5.0,298.46057,1913.4145,0.0,0.0,0.0,0.0,0.07445206759114154,0.0,-0.16867724375714785,-0.18579225384626782,-0.22716073243651877,0.16989616336244584,0.6543057049199453,-0.06027446193337624
7471,5.0,299.47911,1649.4423,0.0,0.0,0.0,0.0,0.07446203440072537,0.0,-0.16285503775504084,-0.12333541635725788,-0.21519882864597079,0.15631987858507085,0.6714651257609484,-0.05275694665895525
7472,5.0,300.14153999999996,1452.4235,0.0,0.0,0.0,0.0,0.07447200121030918,0.0,-0.07145367764442893,-0.14013391751264087,-0.2299128716956338,0.1884513970112048,0.6696758882043643,-0.06924692430463934
7473,5.0,299.76286,1786.5554,0.0,0.0,0.0,0.0,0.074481968019893,0.0,-0.1932711642918788,-0.15262308625772586,-0.1971739807620568,0.16493894870570683,0.6529008640537983,-0.02611981236382477
7474,5.0,299.49403,2008.6975,0.0,0.0,0.0,0.0,0.07449193482947682,0.0,-0.17439533831147983,-0.17855491235699783,-0.2576436321549468,0.16476140702318484,0.6213328849357814,-0.034008579435135466
7475,5.0,299.90144,1605.7494,0.0,0.0,0.0,0.0,0.07450190163906065,0.0,-0.17065189594953084,-0.13937386848012986,-0.17808196774032184,0.15165498658218185,0.6244196297754193,-0.03160535487445567
7476,5.0,300.37949,1256.7993,0.0,0.0,0.0,0.0,0.07451186844864446,0.0,-0.08239321411057712,-0.1109887511062369,-0.18865362146616282,0.16128443930503486,0.6425558845078284,-0.015812402105062587
7477,5.0,300.6053,1495.0236,0.0,0.0,0.0,0.0,0.07452183525822828,0.0,-0.12721820087295888,-0.1260091705886369,-0.20122246206661082,0.14990518471948985,0.6572841941188994,-0.00017648630148284184
7478,5.0,300.26217,1795.2345,0.0,0.0,0.0,0.0,0.07453180206781211,0.0,-0.14362003487919386,-0.16401038604906484,-0.23807604006627575,0.14723966821142387,0.6396649705150174,-0.044699771341523954
7479,5.0,300.08216,1841.5436,0.0,0.0,0.0,0.0,0.07454176887739591,0.0,-0.2106629943083188,-0.12214255754453188,-0.2269777090709558,0.16992636834792685,0.6410699025736734,-0.03576831824155817
7480,5.0,299.2899,1517.6064,0.0,0.0,0.0,0.0,0.07455173568697974,0.0,-0.15086745820695885,-0.13127048186538787,-0.17917650076334382,0.1865179942303928,0.6345746857226454,-0.055322345951140446
7481,5.0,299.7855,1420.0891,0.0,0.0,0.0,0.0,0.07456170249656358,0.0,-0.15668969460656884,-0.12471565551097688,-0.15026626652512587,0.2012963583964038,0.6678791221995374,-0.06391350711102203
7482,5.0,299.29647,1644.3455,0.0,0.0,0.0,0.0,0.07457166930614739,0.0,-0.16779450027002785,-0.11836775509198788,-0.21367773759585076,0.16214727242768984,0.6431048228820044,-0.06829107482280435
7483,5.0,299.60273,2045.1173,0.0,0.0,0.0,0.0,0.07458163611573121,0.0,-0.19144375760402782,-0.1987282658854528,-0.2314925691315378,0.17130488497647584,0.6540160268488564,-0.045342385700695056
7484,5.0,300.60167,1758.9908,0.0,0.0,0.0,0.0,0.07459160292531503,0.0,-0.14020478422463487,-0.14295362028842387,-0.2515308665541638,0.14198782069060686,0.6400080975288814,-0.03789122817532307
7485,5.0,300.26627,1445.1743,0.0,0.0,0.0,0.0,0.07460156973489886,0.0,-0.12567144419780588,-0.12953170416378387,-0.18409375283613882,0.15586927613309984,0.6507223256762934,-0.0032048090452650273
7486,5.0,300.66832,1607.8343,0.0,0.0,0.0,0.0,0.07461153654448267,0.0,-0.12126840641825988,-0.15884539432681985,-0.2086276889649498,0.13690060604603788,0.6105720168862664,-0.03757933155604126
7487,5.0,300.6492,1860.6466,0.0,0.0,0.0,0.0,0.07462150335406649,0.0,-0.19355013230941082,-0.14175622211524988,-0.2302837617622378,0.13410186741482388,0.6165508206913284,-0.0034598612193617166
7488,5.0,298.77393,1862.1478,0.0,0.0,0.0,0.0,0.07463147016365032,0.0,-0.14041170002755587,-0.21137563336865078,-0.2142591202382288,0.16310727623493484,0.6228917296846275,-0.06547873634874814
7489,5.0,299.50951000000003,1815.1365,0.0,0.0,0.0,0.0,0.07464143697323412,0.0,-0.17996559967622183,-0.15570696359958086,-0.2160836087657918,0.17628926486839583,0.6719332979696534,-0.02104757355573378
7490,5.0,298.9607,1635.954,0.0,0.0,0.0,0.0,0.07465140378281795,0.0,-0.12717074023827488,-0.14903977794158088,-0.22107863791626278,0.17212662067507484,0.6530885585023224,-0.07219969316305494
7491,5.0,299.75007,1607.2004,0.0,0.0,0.0,0.0,0.07466137059240179,0.0,-0.18220795254502484,-0.12389159946964888,-0.18244924792383882,0.15416628642502786,0.6715580509276193,-0.03707067392634067
7492,5.0,299.13015,1878.894,0.0,0.0,0.0,0.0,0.0746713374019856,0.0,-0.15485586391308384,-0.15124140828886487,-0.26503959794737175,0.16948802622216583,0.6515337262238724,-0.04219601311917226
7493,5.0,300.12914,1842.9796,0.0,0.0,0.0,0.0,0.07468130421156942,0.0,-0.18823895899523882,-0.15441723807729485,-0.2175635719943528,0.16896863422090583,0.6571041497086303,-0.04106076872038236
7494,5.0,299.95427,1378.4264,0.0,0.0,0.0,0.0,0.07469127102115324,0.0,-0.08440095702472593,-0.12840769569535287,-0.2061985637052138,0.15969678785584585,0.6236626711557134,-0.05494401761555236
7495,5.0,301.33896,1409.7948,0.0,0.0,0.0,0.0,0.07470123783073707,0.0,-0.12913347660948188,-0.13452148467873687,-0.16488744520312384,0.14126042870881889,0.6423992056448654,-0.04850742234905986
7496,5.0,300.50152,1666.7347,0.0,0.0,0.0,0.0,0.07471120464032088,0.0,-0.13350012857793686,-0.16426520831671385,-0.2088803834073888,0.15308064973788385,0.6436193816802874,-0.026155526390099475
7497,5.0,300.64391,1697.3867,0.0,0.0,0.0,0.0,0.0747211714499047,0.0,-0.15787171164322486,-0.15197962178172086,-0.2061118497616558,0.14212096175374686,0.6757715400109584,-0.03054306650936597
7498,5.0,299.81692999999996,1643.6356,0.0,0.0,0.0,0.0,0.07473113825948853,0.0,-0.1102393108022729,-0.16517892685939084,-0.2242059431574038,0.15734947240918384,0.6273674478938464,-0.029706427928296173
7499,5.0,300.65121,1676.9363,0.0,0.0,0.0,0.0,0.07474110506907233,0.0,-0.15419566054542685,-0.16086208626585186,-0.19468900515680881,0.12207317017768388,0.6357231439159894,-0.054951469056787744
7500,5.0,300.35827,1718.8371,0.0,0.0,0.0,0.0,0.07475107187865616,0.0,-0.13414570061414988,-0.14637015777060988,-0.24196769052035175,0.15609882794325483,0.6203152069328444,-0.044716130264388455
7501,5.0,299.44092,1808.3434,0.0,0.0,0.0,0.0,0.07476103868824,0.0,-0.19990027201112082,-0.14949818241932186,-0.20029279496735983,0.13550988988628487,0.6529372194673864,-0.05233169775098645
7502,5.0,300.71592000000004,1823.0505,0.0,0.0,0.0,0.0,0.07477100549782381,0.0,-0.1928468455475018,-0.1321436805365659,-0.2291713043449468,0.17404514894441883,0.6443767050700294,-0.02204125678305268
7503,5.0,300.45241,1424.9305,0.0,0.0,0.0,0.0,0.07478097230740763,0.0,-0.16229583515735185,-0.1086746499978529,-0.16217279619770886,0.15518121852019384,0.6771981454892534,-0.04617376247399555
7504,5.0,299.16938999999996,1235.5038,0.0,0.0,0.0,0.0,0.07479093911699145,0.0,-0.06772640574082583,-0.13122666893106386,-0.17660923911747484,0.17947598709540083,0.6641073088347884,-0.041238921392714664
7505,5.0,298.52835,1761.7404,0.0,0.0,0.0,0.0,0.07480090592657528,0.0,-0.16255665586559284,-0.14782150681634687,-0.22514691812777077,0.17301738910298683,0.6717941483334203,-0.03779968406853836
7506,5.0,298.70224,2017.1939,0.0,0.0,0.0,0.0,0.07481087273615909,0.0,-0.14565797467282288,-0.2094248330836218,-0.2580937786443728,0.16725136781892483,0.6191065718160614,-0.045059501471526556
7507,5.0,299.46098,1605.8643,0.0,0.0,0.0,0.0,0.07482083954574291,0.0,-0.18865097688340182,-0.13661285315013885,-0.16287882886738886,0.15238851885957586,0.6286059637560784,-0.02412437030588998
7508,5.0,300.28299,1468.7893,0.0,0.0,0.0,0.0,0.07483080635532674,0.0,-0.1141531615660399,-0.14352628897994188,-0.18879582098519682,0.13616479395591885,0.6219460127037924,-0.03776469856908557
7509,5.0,300.51049,1648.1805,0.0,0.0,0.0,0.0,0.07484077316491054,0.0,-0.15523012810252085,-0.14138478489359188,-0.2043907938043008,0.14462634421600884,0.6705282240559833,-0.016299675091402687
7510,5.0,300.7337,1882.4758,0.0,0.0,0.0,0.0,0.07485073997449437,0.0,-0.12292495887424888,-0.18082257621329884,-0.26847811282422673,0.14196183082554187,0.6387030314000814,-0.04220479597103906
7511,5.0,301.66051,1827.7272,0.0,0.0,0.0,0.0,0.07486070678407819,0.0,-0.16886566774574382,-0.15761919958580387,-0.2290985631202678,0.16675817846525084,0.6552980415378814,-0.04757341245988025
7512,5.0,299.86776000000003,1390.4441,0.0,0.0,0.0,0.0,0.07487067359366202,0.0,-0.11387310937090088,-0.12954142123224288,-0.17924575640767884,0.18262377012106282,0.6411985042763654,-0.07168856522961052
7513,5.0,298.68327999999997,1251.9649,0.0,0.0,0.0,0.0,0.07488064040324584,0.0,-0.17436095873558685,-0.10187165842894991,-0.1043334508719099,0.17076416406061082,0.6405648075313244,-0.04166516429903156
7514,5.0,298.90519,1693.162,0.0,0.0,0.0,0.0,0.07489060721282965,0.0,-0.17947741577804183,-0.15306824755665988,-0.18213330641015782,0.15525983659545284,0.6292518498998224,-0.047559270528234554
7515,5.0,301.01146,2061.0147,0.0,0.0,0.0,0.0,0.07490057402241349,0.0,-0.2148009962592078,-0.18799762308642082,-0.2236983859173118,0.15768208188700986,0.6364643566291414,-0.04218970057104926
7516,5.0,300.93141,1685.0220000000002,0.0,0.0,0.0,0.0,0.0749105408319973,0.0,-0.09799701943080281,-0.16348277658949384,-0.25072481596711277,0.15841212858405984,0.6680787527342393,-0.03402100897411217
7517,5.0,300.48963,1463.7639,0.0,0.0,0.0,0.0,0.07492050764158112,0.0,-0.09709383260966523,-0.16194757096548085,-0.18590626474751984,0.15722331263923284,0.6829232719992794,-0.04786139941655236
7518,5.0,300.43555,1856.4052,0.0,0.0,0.0,0.0,0.07493047445116494,0.0,-0.15494504005438486,-0.16681844658119882,-0.24253734985907274,0.15529964719188186,0.6473843657393624,-0.030617978115759174
7519,5.0,301.06465,2056.1293,0.0,0.0,0.0,0.0,0.07494044126074875,0.0,-0.24483958580878576,-0.1793644890543968,-0.2008079009206968,0.14502885781823385,0.6311829222054044,-0.02127865334703958
7520,5.0,301.33416,1783.2220000000002,0.0,0.0,0.0,0.0,0.07495040807033258,0.0,-0.17105173457149184,-0.14124111616191287,-0.22976211021325477,0.15373274710474086,0.6243398059325415,-0.03184484464159147
7521,5.0,300.6771,1527.1281,0.0,0.0,0.0,0.0,0.0749603748799164,0.0,-0.12570545900366287,-0.13629976900173987,-0.20220357187343882,0.17159049991466385,0.6463806705878054,-0.02742618457200368
7522,5.0,299.79899,1466.5214,0.0,0.0,0.0,0.0,0.07497034168950022,0.0,-0.07385771179193863,-0.14736766196405587,-0.22456053002989879,0.15996606920242185,0.6399012807033394,-0.060908302559931446
7523,5.0,300.20872,1899.656,0.0,0.0,0.0,0.0,0.07498030849908405,0.0,-0.17310756836188682,-0.15854627276479885,-0.24579414846299374,0.15882372090718086,0.6449465771912714,-0.05284190565334005
7524,5.0,300.56127000000004,2006.1867,0.0,0.0,0.0,0.0,0.07499027530866785,0.0,-0.1974234733341798,-0.15485712034320784,-0.2575500585082117,0.16663472407306684,0.6618318632177194,-0.048502848538108455
7525,5.0,300.85048,1538.3598,0.0,0.0,0.0,0.0,0.07500024211825168,0.0,-0.21156135197947978,-0.1158550164339999,-0.14020659794231385,0.18056055986993982,0.6522812818826503,-0.02193583824264868
7526,5.0,300.47791,1307.8411,0.0,0.0,0.0,0.0,0.07501020892783551,0.0,-0.0977780692564441,-0.1077181419034529,-0.19205481834183483,0.17457720657192882,0.6450389045403834,-0.04178048330616266
7527,5.0,299.55459,1685.6286,0.0,0.0,0.0,0.0,0.07502017573741931,0.0,-0.15200273401650186,-0.15322483522711383,-0.2071614248777408,0.15055014880564285,0.6505436896836634,-0.031146413374161675
7528,5.0,298.86972000000003,1956.2723,0.0,0.0,0.0,0.0,0.07503014254700315,0.0,-0.1138427625304059,-0.17059699805911283,-0.3102181603586487,0.16587513100310083,0.6718362894050794,-0.04844584815373295
7529,5.0,299.42231,1730.406,0.0,0.0,0.0,0.0,0.07504010935658696,0.0,-0.14169324862153485,-0.13742099103239588,-0.24688597610824878,0.14102997510607487,0.6589633217871164,-0.03233034444025657
7530,5.0,299.14261,1336.9022,0.0,0.0,0.0,0.0,0.07505007616617079,0.0,-0.09675737683445959,-0.1366719864259749,-0.17295550991937983,0.15133766704836485,0.6405946376142684,-0.03844316982279546
7531,5.0,299.61412,1435.8251,0.0,0.0,0.0,0.0,0.07506004297575461,0.0,-0.18723083594074483,-0.09085213599990773,-0.15837201401260084,0.13056279759804487,0.6078240420850625,-0.0006441406684592344
7532,5.0,299.41947000000005,1818.6399,0.0,0.0,0.0,0.0,0.07507000978533843,0.0,-0.17177987635835382,-0.14914567270953186,-0.23189554882880878,0.15894796563444286,0.6457989231753914,-0.04632392715206566
7533,5.0,299.67501,1996.0981,0.0,0.0,0.0,0.0,0.07507997659492226,0.0,-0.1935601837504028,-0.16071785011411685,-0.2524859459659227,0.15748036405710183,0.6318396399927174,-0.03116526894527257
7534,5.0,300.69977,1829.3427,0.0,0.0,0.0,0.0,0.07508994340450606,0.0,-0.12104806505151389,-0.16496695493847083,-0.27005947199029473,0.18461562730014383,0.6751139609610604,-0.062301642024193346
7535,5.0,300.43555,1544.9847,0.0,0.0,0.0,0.0,0.07509991021408989,0.0,-0.12382309363038789,-0.15186838718574286,-0.19394529984841083,0.18262210839089882,0.6698629848353294,-0.07207629551287652
7536,5.0,299.89903,1488.0644,0.0,0.0,0.0,0.0,0.07510987702367372,0.0,-0.14390322814964288,-0.12754830762303787,-0.18088287472674983,0.16766970838771184,0.6843435243994473,-0.047628485642565555
7537,5.0,299.86548999999997,1914.4299,0.0,0.0,0.0,0.0,0.07511984383325754,0.0,-0.2091911776105618,-0.17093218119219283,-0.20181553761514281,0.15093022905065384,0.6484667296286835,-0.023604738164356275
7538,5.0,300.10887,1912.1098,0.0,0.0,0.0,0.0,0.07512981064284135,0.0,-0.14588555064528286,-0.18161209055871783,-0.25373598248179174,0.14102659085074087,0.6303232402905604,-0.02149422129256448
7539,5.0,300.8889,1584.5121,0.0,0.0,0.0,0.0,0.07513977745242517,0.0,-0.1262203623069799,-0.13593598181833685,-0.2194957690075458,0.14763581860302086,0.6173937029195145,-0.029945731257413573
7540,5.0,301.05091,1517.4586,0.0,0.0,0.0,0.0,0.075149744262009,0.0,-0.07197816021419133,-0.16390815924647584,-0.2253832080510908,0.13846481088791288,0.6688067324010853,-0.04925701362728875
7541,5.0,300.5158,1797.4281,0.0,0.0,0.0,0.0,0.07515971107159282,0.0,-0.18897655440553382,-0.14580833085516187,-0.21158836522714577,0.14787454032658087,0.6398340718242064,-0.023269663449036977
7542,5.0,300.85314,1905.5913,0.0,0.0,0.0,0.0,0.07516967788117664,0.0,-0.20447149917476581,-0.13754206428684487,-0.2372385989911268,0.14608776496773984,0.6584175650182543,-0.029876209128302272
7543,5.0,300.66584,1741.4933,0.0,0.0,0.0,0.0,0.07517964469076047,0.0,-0.2149048341294558,-0.15511016942318184,-0.15935546442715987,0.19038683642471782,0.6554400080093924,-0.04043129621500826
7544,5.0,300.43396,1491.1504,0.0,0.0,0.0,0.0,0.07518961150034427,0.0,-0.13011784908163188,-0.1258915221195259,-0.1972631163733538,0.1889886931417318,0.6830933561610654,-0.06463456425318484
7545,5.0,300.26261,1432.4011,0.0,0.0,0.0,0.0,0.0751995783099281,0.0,-0.13539458202490487,-0.1330132821698889,-0.16700631328223983,0.18179234775150782,0.6449851313575764,-0.03921916741188046
7546,5.0,300.41805,1871.5807,0.0,0.0,0.0,0.0,0.07520954511951193,0.0,-0.11695205218476888,-0.1998037700715968,-0.25215798730605576,0.17340953715668883,0.6560663485587074,-0.08256366506889933
7547,5.0,299.7601,2109.2924,0.0,0.0,0.0,0.0,0.07521951192909575,0.0,-0.2290147572044968,-0.16038145108091684,-0.25177600215085677,0.17167541027304384,0.6457800159285254,-0.026320544301385477
7548,5.0,299.6712,1527.0274,0.0,0.0,0.0,0.0,0.07522947873867956,0.0,-0.12399702814255388,-0.15537386776170684,-0.18480730382156083,0.13017850223261787,0.6890989502987713,-0.047721023747698356
7549,5.0,299.16200000000003,1092.5768,0.0,0.0,0.0,0.0,0.07523944554826338,0.0,-0.10380540571479589,-0.06822178574121604,-0.16008887511454184,0.13207887306016988,0.6464659153187184,-0.003103398314306567
7550,5.0,300.21185,1675.3797,0.0,0.0,0.0,0.0,0.07524941235784721,0.0,-0.11910598884984588,-0.15287739176782386,-0.23729022408372175,0.099416412594886,0.6623151733829183,-0.031076481892009965
7551,5.0,300.09238999999997,2134.0528,0.0,0.0,0.0,0.0,0.07525937916743103,0.0,-0.2007098791060228,-0.1951193223417778,-0.2528695624537827,0.17107675171646083,0.6482901910637604,-0.03532410230496747
7552,5.0,300.65186,1753.0202,0.0,0.0,0.0,0.0,0.07526934597701485,0.0,-0.13166572033189486,-0.16891741442835084,-0.23229124325786077,0.18180584424283983,0.6767855601810344,-0.06133239230978584
7553,5.0,300.80453,1275.0234,0.0,0.0,0.0,0.0,0.07527931278659868,0.0,-0.15121428358368785,-0.1110257752648909,-0.12533522754962387,0.19666236038906382,0.6485752892443974,-0.05918146905050624
7554,5.0,300.5313,1494.1935,0.0,0.0,0.0,0.0,0.07528927959618248,0.0,-0.14534800120223085,-0.12371982318019589,-0.18512967947337683,0.14128998521423589,0.6631463829699523,-0.06297109028576274
7555,5.0,300.14115,1987.1476,0.0,0.0,0.0,0.0,0.07529924640576631,0.0,-0.22117066129034482,-0.1747525089717298,-0.2081200709298518,0.14884266026712686,0.6503945494014444,-0.03801619433665626
7556,5.0,300.77783999999997,2005.6199,0.0,0.0,0.0,0.0,0.07530921321535014,0.0,-0.15236732166748385,-0.17577921503305785,-0.28151183257055473,0.15926878088110485,0.6785151781017343,-0.04598584511044955
7557,5.0,300.12477,1597.4668,0.0,0.0,0.0,0.0,0.07531918002493396,0.0,-0.1300429293692379,-0.11696225561327589,-0.23858482333898878,0.16020233886073984,0.6353333770000225,-0.014793909449045184
7558,5.0,299.98615,1293.8452,0.0,0.0,0.0,0.0,0.07532914683451777,0.0,-0.06726898006268144,-0.1184436677894799,-0.2075839805669438,0.16926270979742883,0.6416458947255194,-0.03664182595401667
7559,5.0,299.29264,1631.4626,0.0,0.0,0.0,0.0,0.07533911364410159,0.0,-0.18478550881190983,-0.1260587489160299,-0.18507964518343883,0.17817402151190684,0.6269948656995754,-0.022126358645701578
7560,5.0,298.77223,2020.6131,0.0,0.0,0.0,0.0,0.07534908045368542,0.0,-0.18916032757617082,-0.16099381891135284,-0.26406176093836675,0.17568339197110083,0.6648527771983604,-0.038183623783180264
7561,5.0,300.01701,1660.9767,0.0,0.0,0.0,0.0,0.07535904726326924,0.0,-0.15763155110452284,-0.15069856968029086,-0.1965653315594878,0.14216666946575787,0.6409265276845234,-0.015088004277320087
7562,5.0,300.94727,1231.4082,0.0,0.0,0.0,0.0,0.07536901407285305,0.0,-0.06943850152754653,-0.1077711450161839,-0.1971077040730158,0.15705430252255284,0.6735369993004263,-0.04244706001694866
7563,5.0,301.24107999999995,1570.0597,0.0,0.0,0.0,0.0,0.07537898088243689,0.0,-0.1311819136741469,-0.13774755140712489,-0.2083294793280188,0.14929550200181887,0.6486196493337754,-0.044809914667144256
7564,5.0,300.21885,2058.5044,0.0,0.0,0.0,0.0,0.07538894769202069,0.0,-0.18427701938172583,-0.1869451399425488,-0.2545117774208568,0.17197303222491683,0.6560711108341774,-0.06983202152188393
7565,5.0,301.5542,1905.9967,0.0,0.0,0.0,0.0,0.07539891450160452,0.0,-0.23413130543946079,-0.14955474203990385,-0.1956893363180338,0.17246556296602583,0.6193485460724424,-0.05117821586364665
7566,5.0,300.81551,1433.8277,0.0,0.0,0.0,0.0,0.07540888131118835,0.0,-0.12091912897628888,-0.12672796007707587,-0.18820073920146682,0.16404725822020386,0.6300571608143004,-0.06385722917396784
7567,5.0,299.35302,1270.0174,0.0,0.0,0.0,0.0,0.07541884812077217,0.0,-0.1123043550360769,-0.1250052930520619,-0.14874393930988386,0.1768091432297038,0.6552144585371324,-0.03629265591655627
7568,5.0,299.07596,1494.1132,0.0,0.0,0.0,0.0,0.07542881493035598,0.0,-0.08867037954008511,-0.13813420764528486,-0.22736850950202478,0.16021570362955884,0.6622300907720213,-0.022381299463612277
7569,5.0,300.07579,2023.4438,0.0,0.0,0.0,0.0,0.0754387817399398,0.0,-0.16237210249237885,-0.18548353680579982,-0.2672207505101348,0.16188313839162186,0.6267692149023054,-0.008180940676070982
7570,5.0,300.0618,1825.7513,0.0,0.0,0.0,0.0,0.07544874854952363,0.0,-0.15194031781034187,-0.15484354279186785,-0.24819895572032977,0.14009761276155785,0.6499918838117044,-0.03548548974114517
7571,5.0,300.28385,1527.6621,0.0,0.0,0.0,0.0,0.07545871535910745,0.0,-0.16721215504005485,-0.1297171086670819,-0.16744186897022584,0.17217185215953884,0.6532051633238304,-0.03447851976526497
7572,5.0,299.74741,1682.7060000000001,0.0,0.0,0.0,0.0,0.07546868216869126,0.0,-0.14336260855878785,-0.16567450748330084,-0.20246349078909082,0.14159651363448786,0.6415978160082744,-0.08497838596521372
7573,5.0,300.04126,2127.6842,0.0,0.0,0.0,0.0,0.0754786489782751,0.0,-0.23858087166359876,-0.16559208972016684,-0.24258991727426077,0.13906136188428786,0.6276089763201834,-0.025859367571370875
7574,5.0,301.65972,1962.4209,0.0,0.0,0.0,0.0,0.0754886157878589,0.0,-0.15719462752890184,-0.18004531206158883,-0.25928702249213675,0.15814065861726784,0.6594286974255454,-0.07754797473563922
7575,5.0,301.01142999999996,1396.0695,0.0,0.0,0.0,0.0,0.07549858259744273,0.0,-0.12029329505202388,-0.11428307036136089,-0.1897939027311998,0.18103849980960884,0.6706685997248374,-0.03113735390501757
7576,5.0,301.06155,1158.7303,0.0,0.0,0.0,0.0,0.07550854940702656,0.0,-0.09061961638020982,-0.1106166958020179,-0.15098877464143184,0.19650085845562482,0.6597316085429403,-0.05938526201661904
7577,5.0,300.9559,1613.386,0.0,0.0,0.0,0.0,0.07551851621661038,0.0,-0.17931468781198184,-0.13519249942496087,-0.17592189077963882,0.17011327246137284,0.6176401354763355,-0.02195408586369958
7578,5.0,299.90803,2061.4808,0.0,0.0,0.0,0.0,0.0755284830261942,0.0,-0.17785803946822185,-0.18658591238459582,-0.26219472603910476,0.16406264948922283,0.6438397737095384,-0.04343944425763936
7579,5.0,299.44007,1930.2013,0.0,0.0,0.0,0.0,0.07553844983577801,0.0,-0.18285735466661582,-0.17153813514949584,-0.23233750825742674,0.16138753750270984,0.6732173999538844,-0.005837138674130734
7580,5.0,299.96074,1622.8578,0.0,0.0,0.0,0.0,0.07554841664536184,0.0,-0.09015603014145741,-0.16124324055596884,-0.24190897267705677,0.15420899491674284,0.6586139126226324,-0.03762089912814367
7581,5.0,299.1005,1643.8263,0.0,0.0,0.0,0.0,0.07555838345494566,0.0,-0.14283969044717984,-0.16028088600849186,-0.1965615622691158,0.15877900618026786,0.6440671774294814,-0.04294748093658636
7582,5.0,299.84185,1978.1152,0.0,0.0,0.0,0.0,0.07556835026452947,0.0,-0.18480631083646284,-0.1853523715803548,-0.2311389347141368,0.16481322463329884,0.6516798571532944,-0.046741540207280864
7583,5.0,300.77312,2030.0493,0.0,0.0,0.0,0.0,0.0755783170741133,0.0,-0.23520900837832176,-0.17777489216501582,-0.2041003963256408,0.18641294046002482,0.6805054140806553,-0.050584322622283955
7584,5.0,300.60874,1466.0087,0.0,0.0,0.0,0.0,0.07558828388369711,0.0,-0.14240811683208685,-0.1236860515543629,-0.17953586004380984,0.14149576617704487,0.6619136730307933,-0.05825843063340945
7585,5.0,300.87766,1176.7699,0.0,0.0,0.0,0.0,0.07559825069328094,0.0,-0.12893345090724087,-0.10565002752184591,-0.12312518722650989,0.14817294248103086,0.6639174257660484,-0.05552864569800065
7586,5.0,300.14682,1486.0361,0.0,0.0,0.0,0.0,0.07560821750286477,0.0,-0.10078930163237959,-0.12632338957714787,-0.22460519409430676,0.14259487909051885,0.6845449281218243,-0.04188874299984706
7587,5.0,299.16297000000003,1951.9979999999998,0.0,0.0,0.0,0.0,0.07561818431244859,0.0,-0.18453858989504082,-0.15184207308064585,-0.2569779775017518,0.16666843490389385,0.6809638084258953,-0.034411137620364865
7588,5.0,299.94036,2044.4934,0.0,0.0,0.0,0.0,0.0756281511220324,0.0,-0.16844854307707682,-0.17508422678946783,-0.2779421828657577,0.16827304815975683,0.6441322990134084,-0.03671608401409536
7589,5.0,300.35627,1725.0007,0.0,0.0,0.0,0.0,0.07563811793161622,0.0,-0.16878697874297785,-0.15266520706438286,-0.20290494359265882,0.17006568010417583,0.6192615484188564,-0.03723019900883457
7590,5.0,299.49646,1618.9847,0.0,0.0,0.0,0.0,0.07564808474120005,0.0,-0.1264818416277859,-0.15584323560552985,-0.2098058455187248,0.18587494518692882,0.6289481281823475,-0.04436508976724346
7591,5.0,299.57353,1967.1577,0.0,0.0,0.0,0.0,0.07565805155078385,0.0,-0.2212973074203438,-0.14103916528448188,-0.23563035829990578,0.16292418194186484,0.6543325459150944,-0.024376587507531876
7592,5.0,300.17829,2024.8416,0.0,0.0,0.0,0.0,0.07566801836036768,0.0,-0.16448500252840584,-0.18006415851344884,-0.27095213519589373,0.15416471588737285,0.6457271445383074,-0.04152763890270886
7593,5.0,300.22517,1401.4513,0.0,0.0,0.0,0.0,0.07567798516995151,0.0,-0.15699937423463184,-0.09526812108923151,-0.17373872184917682,0.12540153463616788,0.6523337783703314,-0.02418271729964838
7594,5.0,300.44982999999996,1089.944,0.0,0.0,0.0,0.0,0.07568795197953532,0.0,-0.06952378374871324,-0.1067069689661579,-0.15508500029069786,0.14671692235233286,0.6911934699779844,-0.049711408674384054
7595,5.0,300.57811,1486.3304,0.0,0.0,0.0,0.0,0.07569791878911915,0.0,-0.16653026812025784,-0.1045419980074919,-0.18073506180216184,0.15579952399621586,0.6917511020380184,-0.04282664782241105
7596,5.0,300.12153,2064.2328,0.0,0.0,0.0,0.0,0.07570788559870296,0.0,-0.1870777845131398,-0.16066856562925286,-0.2797288872970917,0.14626049371228686,0.6645010882211514,-0.033067962142053764
7597,5.0,300.12144,2038.892,0.0,0.0,0.0,0.0,0.0757178524082868,0.0,-0.1993743445467158,-0.17053080243007981,-0.24986712002246478,0.14688021773844886,0.6357555881841914,-0.06567917951003034
7598,5.0,300.55921,1567.3399,0.0,0.0,0.0,0.0,0.0757278192178706,0.0,-0.08385130937547992,-0.14215990095508987,-0.25042097265962576,0.18852523254599182,0.6426834222979153,-0.051059703092200356
7599,5.0,300.58558,1462.8108,0.0,0.0,0.0,0.0,0.07573778602745443,0.0,-0.13263216840977587,-0.12750052274832188,-0.18452526565622582,0.18642193812091282,0.6791499387593803,-0.05052773767044945
7600,5.0,300.20034,1915.6443,0.0,0.0,0.0,0.0,0.07574775283703826,0.0,-0.16044569113725685,-0.18403941223327583,-0.23782292005879477,0.16882757967448483,0.6398855449292864,-0.035403890684091964
7601,5.0,299.67987,1945.6068,0.0,0.0,0.0,0.0,0.07575771964662206,0.0,-0.19628847110216383,-0.17442102420151484,-0.22070640022702578,0.14939160877380386,0.6446690682538834,-0.03531369622644046
7602,5.0,298.7795,1355.5148,0.0,0.0,0.0,0.0,0.07576768645620588,0.0,-0.08814755870048673,-0.13580958900086287,-0.1880855124000948,0.13870489036660685,0.6605735484485333,-0.05045263759953766
7603,5.0,299.51506,1256.6480000000001,0.0,0.0,0.0,0.0,0.07577765326578971,0.0,-0.08991788394395422,-0.11660314964533489,-0.17546857281739983,0.15511126373328984,0.6713530299023853,-0.031135377054072468
7604,5.0,299.16478,1674.3455,0.0,0.0,0.0,0.0,0.07578762007537353,0.0,-0.15595125819869085,-0.13367614025280788,-0.2193318352738668,0.13428012850491688,0.6434889054649104,-0.05589130716054254
7605,5.0,299.65969,2134.6307,0.0,0.0,0.0,0.0,0.07579758688495734,0.0,-0.2431919904836808,-0.16504020278819984,-0.24064223779953975,0.14678419202647186,0.6486925830759733,-0.034458553672044465
7606,5.0,299.98458,1992.9206,0.0,0.0,0.0,0.0,0.07580755369454117,0.0,-0.2113490558185278,-0.15001296413262685,-0.2444360690889618,0.18027875475212782,0.6473784584912794,-0.060335023891853246
7607,5.0,299.75962000000004,1620.5232,0.0,0.0,0.0,0.0,0.07581752050412498,0.0,-0.15533795817816284,-0.12489391660106988,-0.21236671355646278,0.18742075953948883,0.6799979480330723,-0.022367063299707276
7608,5.0,300.32509,1427.8199,0.0,0.0,0.0,0.0,0.07582748731370881,0.0,-0.11530431500464988,-0.1033765172124679,-0.2153407748524798,0.15857927432055585,0.6409306313474284,-0.06082657279361534
7609,5.0,300.40677,1769.1225,0.0,0.0,0.0,0.0,0.07583745412329262,0.0,-0.14821989649066486,-0.14985594076462985,-0.23969322775587976,0.15289474874203685,0.6322271169634585,-0.019642600967073782
7610,5.0,299.71185,1818.2094,0.0,0.0,0.0,0.0,0.07584742093287646,0.0,-0.15092722983035786,-0.17530181211594184,-0.22646121496498178,0.16808842385903586,0.6635711475443733,-0.055216812913475154
7611,5.0,299.69701000000003,1352.8495,0.0,0.0,0.0,0.0,0.07585738774246027,0.0,-0.14598632850022886,-0.1041301726368479,-0.16111597634340885,0.17151523569723584,0.6730918076039893,-0.007527423137873822
7612,5.0,299.67877999999996,1272.8129,0.0,0.0,0.0,0.0,0.07586735455204409,0.0,-0.12027558344027588,-0.1115268882343469,-0.15510085765476286,0.14653910709228385,0.6464789355825034,-0.050541117638019946
7613,5.0,299.15221,1724.7773,0.0,0.0,0.0,0.0,0.07587732136162792,0.0,-0.17118135965678483,-0.16188987650478684,-0.1912180054817478,0.14139387374698886,0.6603811221220424,-0.033116698458613675
7614,5.0,299.73884,2102.6337,0.0,0.0,0.0,0.0,0.07588728817121172,0.0,-0.17314673047825183,-0.18604254688596986,-0.27995886467228875,0.19433040581391783,0.6670384691215713,-0.04903892775526536
7615,5.0,300.76689,2056.3865,0.0,0.0,0.0,0.0,0.07589725498079555,0.0,-0.15323484613810184,-0.21071003951046183,-0.26114526238053076,0.1870469817100998,0.6931103770471684,-0.05364602093270004
7616,5.0,301.4414,1627.9345,0.0,0.0,0.0,0.0,0.07590722179037938,0.0,-0.15959450025825084,-0.14157709976257188,-0.19367983845471182,0.19034075381016982,0.6394862635948804,-0.05406614178191275
7617,5.0,300.95313,1476.2454,0.0,0.0,0.0,0.0,0.07591718859996319,0.0,-0.15974145192025385,-0.12419666880975688,-0.16480362915485186,0.16405502984847084,0.6386179791866874,-0.07343252367897583
7618,5.0,301.11016,1801.8169,0.0,0.0,0.0,0.0,0.07592715540954702,0.0,-0.17663176366719785,-0.18039298856840183,-0.1906825939964068,0.17364572575499884,0.6586393452001423,-0.04915802213226905
7619,5.0,300.05147999999997,1797.5948,0.0,0.0,0.0,0.0,0.07593712221913083,0.0,-0.17074890451410482,-0.14191432966085385,-0.23376068895038377,0.15107479957492184,0.6813870632576674,-0.038771283509927756
7620,5.0,299.41654,1555.6793,0.0,0.0,0.0,0.0,0.07594708902871466,0.0,-0.11333957239824488,-0.13908728082184588,-0.22046079853528677,0.14022776473690288,0.6549346191245143,-0.014964101015341786
7621,5.0,299.88428999999996,1453.5194,0.0,0.0,0.0,0.0,0.07595705583829848,0.0,-0.1189654307959739,-0.12664793358417786,-0.1962202287079288,0.13849536037842786,0.6545098140200893,-0.03645693111551897
7622,5.0,299.46091,1781.9954,0.0,0.0,0.0,0.0,0.0759670226478823,0.0,-0.17959499331964582,-0.14431577292785788,-0.21777134905985882,0.17377113571987582,0.6649613672115774,-0.01041990533786459
7623,5.0,299.32794,2225.5185,0.0,0.0,0.0,0.0,0.07597698945746613,0.0,-0.24019825187072177,-0.20815456196325582,-0.2281492389690768,0.18423676295525282,0.6588447005979093,-0.032103673300135874
7624,5.0,300.9324,2146.311,0.0,0.0,0.0,0.0,0.07598695626704993,0.0,-0.2287441788977928,-0.17358596426410083,-0.2500947871874337,0.16595363762084886,0.6173204044072804,-0.02036453153082278
7625,5.0,299.601,1589.3035,0.0,0.0,0.0,0.0,0.07599692307663376,0.0,-0.15420988657683085,-0.15048443953665785,-0.17841426311061684,0.14864559325517787,0.6397029775262684,-0.03532623924942836
7626,5.0,299.61032,1435.3342,0.0,0.0,0.0,0.0,0.0760068898862176,0.0,-0.09192631890792131,-0.15482890132792285,-0.18955054032218183,0.15159540747630187,0.6804008872003394,-0.029158846296004074
7627,5.0,299.3198,1548.8829999999998,0.0,0.0,0.0,0.0,0.0760168566958014,0.0,-0.1311788739238469,-0.13110881781193287,-0.20853406465570978,0.15158185018996387,0.6934406357847623,-0.04716378381545305
7628,5.0,298.99159,1802.4597,0.0,0.0,0.0,0.0,0.07602682350538523,0.0,-0.16884904031160283,-0.17495214963893282,-0.20410155143075479,0.13646500982804785,0.6567655823202164,-0.04852637113917995
7629,5.0,298.96226,1556.6829,0.0,0.0,0.0,0.0,0.07603679031496904,0.0,-0.16512291439386284,-0.13579565681198785,-0.17227417015463684,0.15598831275484784,0.6332655767259464,-0.07345213918766172
7630,5.0,299.55379,1313.6522,0.0,0.0,0.0,0.0,0.07604675712455287,0.0,-0.1035743340294909,-0.13696432934482689,-0.15877881366274885,0.18534406292953484,0.6467708833338164,-0.07356367269241923
7631,5.0,299.74817,1610.7851,0.0,0.0,0.0,0.0,0.07605672393413669,0.0,-0.1023310558917889,-0.18043641646768782,-0.2068709868690768,0.19156336164583182,0.6731676595064754,-0.046629805065753455
7632,5.0,300.83799999999997,2084.651,0.0,0.0,0.0,0.0,0.07606669074372051,0.0,-0.14937773737993487,-0.1866588359942928,-0.2976452566252997,0.15920542235235186,0.6498315471158804,-0.005599753934077684
7633,5.0,300.43835,1956.543,0.0,0.0,0.0,0.0,0.07607665755330434,0.0,-0.16439409372943387,-0.1766081549398678,-0.25373794818698575,0.13979271567396687,0.6599788213023384,-0.025617031584704176
7634,5.0,300.27353999999997,1611.0146,0.0,0.0,0.0,0.0,0.07608662436288814,0.0,-0.13386739120918287,-0.15886938808918785,-0.1969714320670668,0.14802062059349785,0.6849969997864404,-0.020116548701348783
7635,5.0,299.76701,1499.0913,0.0,0.0,0.0,0.0,0.07609659117247197,0.0,-0.14001838673623887,-0.14581273849309687,-0.16985519766090285,0.16305329026960685,0.6708390283916573,-0.04890130508693305
7636,5.0,299.6882,1793.3891,0.0,0.0,0.0,0.0,0.0761065579820558,0.0,-0.18642964895417383,-0.16614165630940483,-0.19257421034309483,0.13882731124368886,0.6321785316211633,-0.06294637711582374
7637,5.0,300.12079,2134.0859,0.0,0.0,0.0,0.0,0.0761165247916396,0.0,-0.2069349533478898,-0.17621397025346483,-0.26555991200622275,0.14907550514010687,0.6241098184248435,-0.07422212415065334
7638,5.0,299.87764,1694.2746,0.0,0.0,0.0,0.0,0.07612649160122344,0.0,-0.14089683404293488,-0.15032825716624384,-0.2237920710215578,0.16089287893639084,0.6455824422915264,-0.047491880277333656
7639,5.0,299.0673,1102.6317,0.0,0.0,0.0,0.0,0.07613645841080725,0.0,-0.06222422566355295,-0.09250307201059241,-0.18044520134605482,0.18317275915774384,0.6845339748882434,-0.042575764057900756
7640,5.0,299.87785,1443.5004,0.0,0.0,0.0,0.0,0.07614642522039108,0.0,-0.13836429647799287,-0.10113882326762472,-0.1992849556228938,0.18130989884889384,0.6461091904885125,-0.003213959909568147
7641,5.0,298.89857,2124.6456,0.0,0.0,0.0,0.0,0.0761563920299749,0.0,-0.21165996147921182,-0.18600578617234184,-0.24817344208281175,0.16634801482477085,0.6476234826304613,-0.05236266368729254
7642,5.0,298.74097,2079.9716,0.0,0.0,0.0,0.0,0.07616635883955872,0.0,-0.21726138028452882,-0.16377900025622885,-0.25121904896838976,0.15034832965072487,0.6500022088302234,-0.030572955360815772
7643,5.0,299.3596,1501.6719,0.0,0.0,0.0,0.0,0.07617632564914255,0.0,-0.11297767999252889,-0.14879317313224286,-0.19469991786038582,0.15004334137062486,0.6652704996845864,-0.049779759486379756
7644,5.0,299.66527,1401.4481,0.0,0.0,0.0,0.0,0.07618629245872635,0.0,-0.1154464131986739,-0.12681417752808488,-0.18374462738168282,0.13934409919219187,0.6600869654855114,-0.013884446556788187
7645,5.0,301.15475,1807.3662,0.0,0.0,0.0,0.0,0.07619625926831018,0.0,-0.17908457871427183,-0.12377877407101388,-0.24653084208069978,0.15163625158783287,0.6774513060267383,-0.005650314810092655
7646,5.0,300.75962000000004,1964.4192,0.0,0.0,0.0,0.0,0.07620622607789401,0.0,-0.2093426787655138,-0.15274839489759284,-0.23504330145696778,0.16144905191628084,0.6869246270416823,-0.03707219076174036
7647,5.0,299.89583,1608.0777,0.0,0.0,0.0,0.0,0.07621619288747782,0.0,-0.14059352775800085,-0.14448148998171287,-0.20374044936011682,0.17548690251170884,0.6675512547321795,-0.07796332216363082
7648,5.0,300.32061,1319.7463,0.0,0.0,0.0,0.0,0.07622615969706165,0.0,-0.1111458150042379,-0.12782541126038588,-0.16219870500276584,0.16445960034839885,0.6325011808505063,-0.07340421651093212
7649,5.0,299.88626,1509.523,0.0,0.0,0.0,0.0,0.07623612650664546,0.0,-0.12214349986712489,-0.15514688960680584,-0.18156691986925985,0.17913039788379384,0.6443722670345914,-0.0879347852987376
7650,5.0,299.0172,1804.1471,0.0,0.0,0.0,0.0,0.0762460933162293,0.0,-0.17288182637210783,-0.13519238796744987,-0.24034144437485377,0.17480733593464082,0.6633017040777813,-0.053741628172385744
7651,5.0,299.53222999999997,1687.4912,0.0,0.0,0.0,0.0,0.07625606012581311,0.0,-0.13068567443767187,-0.15678925656139486,-0.2254802470131678,0.13437326645410888,0.6758305922267864,-0.029228368425115375
7652,5.0,299.39628,1414.005,0.0,0.0,0.0,0.0,0.07626602693539693,0.0,-0.11897100367152388,-0.1276492374654989,-0.1832019812906278,0.1356621205813089,0.6575678129543904,-0.006515907316744984
7653,5.0,300.40479,1682.3667,0.0,0.0,0.0,0.0,0.07627599374498076,0.0,-0.14805118021651387,-0.14912120271961687,-0.2142250851673698,0.16159013686020485,0.6820197974151134,-0.041827472779550165
7654,5.0,301.04388,2151.6495,0.0,0.0,0.0,0.0,0.07628596055456456,0.0,-0.23265682389394077,-0.17259599865139882,-0.24879488863414378,0.16754755095565582,0.6749632805386894,-0.02047447625942348
7655,5.0,301.18034,2178.1874,0.0,0.0,0.0,0.0,0.07629592736414839,0.0,-0.1991251660821238,-0.19635959112668283,-0.2666298331843157,0.1953088811704858,0.6548776846013954,-0.06798279753287972
7656,5.0,300.56378,1683.11,0.0,0.0,0.0,0.0,0.07630589417373222,0.0,-0.17120879846949283,-0.13713103938377985,-0.20328356475752582,0.16206964733752885,0.6283899590997604,-0.02069314880325478
7657,5.0,300.0767,1402.1173,0.0,0.0,0.0,0.0,0.07631586098331603,0.0,-0.12000826779889388,-0.1263208564518979,-0.17987953421272782,0.17594540831445984,0.6468468669588153,-0.06271602990434023
7658,5.0,299.61569,1549.3739,0.0,0.0,0.0,0.0,0.07632582779289986,0.0,-0.16645813484563884,-0.1116203909535749,-0.1928924620670038,0.15365474711204286,0.6722633439247264,-0.026530321522588874
7659,5.0,299.71437000000003,1735.3568,0.0,0.0,0.0,0.0,0.07633579460248367,0.0,-0.15891580507626885,-0.14436017354723985,-0.2242291567171948,0.14822849898401386,0.6800462901953434,-0.07597007885841303
7660,5.0,299.48994,1776.5275,0.0,0.0,0.0,0.0,0.0763457614120675,0.0,-0.15058100227118784,-0.15350729895749085,-0.23593169887964574,0.14765361127477686,0.6576503725725383,-0.038243984104887364
7661,5.0,299.72167,1539.7262,0.0,0.0,0.0,0.0,0.07635572822165132,0.0,-0.11461050213117589,-0.12857986715234487,-0.22484793842076378,0.16116794594103787,0.6540015779024303,-0.06356863426723573
7662,5.0,299.74942000000004,1498.2097,0.0,0.0,0.0,0.0,0.07636569503123514,0.0,-0.14024792841389286,-0.12020204174801788,-0.1949683784743808,0.15864834757987284,0.6749673639365924,-0.03350314495400297
7663,5.0,300.90144,1929.8736,0.0,0.0,0.0,0.0,0.07637566184081897,0.0,-0.16734729220589184,-0.15570254582914486,-0.26358354742117074,0.19027062677074882,0.6432943209157064,-0.012534890642597388
7664,5.0,301.57076,2085.9633,0.0,0.0,0.0,0.0,0.07638562865040277,0.0,-0.2113815102192308,-0.17768583761372683,-0.24501340886344075,0.17390751918333583,0.6632701919996714,-0.00024349651266873478
7665,5.0,301.46586,1780.7428,0.0,0.0,0.0,0.0,0.0763955954599866,0.0,-0.15058524778910684,-0.17152198394290183,-0.2191941143202748,0.16982544863796684,0.6602673240033113,-0.012126745396316588
7666,5.0,300.57277999999997,1549.5877,0.0,0.0,0.0,0.0,0.07640556226957043,0.0,-0.13506669429254486,-0.14950769683776086,-0.18646157646482484,0.14847321914816586,0.6802713026450504,-0.06866580814703763
7667,5.0,300.31056,1537.1586,0.0,0.0,0.0,0.0,0.07641552907915423,0.0,-0.1232000664088999,-0.1254509711085469,-0.21860679403231079,0.13823289820502488,0.6621155833782204,-0.05751094387563825
7668,5.0,299.99127999999996,1740.134,0.0,0.0,0.0,0.0,0.07642549588873807,0.0,-0.14754119117618184,-0.15315636991785683,-0.22825972375998077,0.14117656199804188,0.6406606508582834,-0.06200865974452823
7669,5.0,300.74635,1710.4042,0.0,0.0,0.0,0.0,0.07643546269832188,0.0,-0.14786985911111886,-0.13116862996533588,-0.24088167893067078,0.14984438971348985,0.6435140745973944,-0.05788512396531695
7670,5.0,299.50657,1474.4563,0.0,0.0,0.0,0.0,0.07644542950790571,0.0,-0.14037089644602888,-0.1141949074701599,-0.19363208397749881,0.16257287799969383,0.6650072471761054,-0.036200685231479464
7671,5.0,300.11382000000003,1484.7393,0.0,0.0,0.0,0.0,0.07645539631748953,0.0,-0.1162556352585379,-0.1292076465168019,-0.2058604016168398,0.16538035084676986,0.6754298619447373,-0.021559048020712377
7672,5.0,299.93549,1699.3595,0.0,0.0,0.0,0.0,0.07646536312707335,0.0,-0.16636994155693485,-0.13075288331680487,-0.21944005038454678,0.16450472037535185,0.6543008919819704,-0.025150673093678178
7673,5.0,300.13992,2025.5085,0.0,0.0,0.0,0.0,0.07647532993665718,0.0,-0.18159029554906683,-0.17733608394420883,-0.25677762755947875,0.17396473741648283,0.6570663656124014,-0.03370141976007117
7674,5.0,299.87802,2052.5496,0.0,0.0,0.0,0.0,0.07648529674624098,0.0,-0.2161199337818768,-0.18479231785258182,-0.2230115746020288,0.16033240977607685,0.6693174408489884,-0.035175609489562366
7675,5.0,300.24123,1640.2567,0.0,0.0,0.0,0.0,0.07649526355582481,0.0,-0.13895952011673687,-0.15565305869426085,-0.2039845007792028,0.15968985722516185,0.6614612163311394,-0.04233487701887706
7676,5.0,299.78378,1512.1331,0.0,0.0,0.0,0.0,0.07650523036540864,0.0,-0.15684317159921585,-0.13493841682988486,-0.16786912613989283,0.15136223836328985,0.6446377588257933,-0.029700260274937468
7677,5.0,300.92543,1920.5157,0.0,0.0,0.0,0.0,0.07651519717499246,0.0,-0.16371291608470684,-0.17515714026666385,-0.24491875103909877,0.14933623465583887,0.6561886985082824,-0.04589070193930966
7678,5.0,300.15461,1771.9743,0.0,0.0,0.0,0.0,0.07652516398457627,0.0,-0.17162027933510282,-0.14934389482659485,-0.21767177697253182,0.16065337701025384,0.6860294104458313,-0.06624566230968784
7679,5.0,300.41722000000004,1291.6164,0.0,0.0,0.0,0.0,0.07653513079416009,0.0,-0.07369229364686314,-0.1090277473927009,-0.2098990847929268,0.17440136714957483,0.6725399105395213,-0.061245817181491545
7680,5.0,301.19722,1254.7745,0.0,0.0,0.0,0.0,0.07654509760374392,0.0,-0.1054764983097199,-0.09560347444832831,-0.18034013744318583,0.16319976570406286,0.6650289611257483,-0.05371339294509915
7681,5.0,299.80982,1684.6466,0.0,0.0,0.0,0.0,0.07655506441332774,0.0,-0.1266952320988459,-0.15048719557692986,-0.23490806296612077,0.18327363833769983,0.6421195790147683,-0.02203976730540568
7682,5.0,299.45144,2135.3091,0.0,0.0,0.0,0.0,0.07656503122291156,0.0,-0.22718811045422077,-0.2013783505944958,-0.22051419681555678,0.17287401421383686,0.6881406791491973,-0.051483134229489746
7683,5.0,300.36897999999997,2037.7194,0.0,0.0,0.0,0.0,0.07657499803249539,0.0,-0.18303306236645683,-0.19662502212287883,-0.23975772112474475,0.17071401831316182,0.6783576177111843,-0.010565687709252189
7684,5.0,299.37435,1499.7348,0.0,0.0,0.0,0.0,0.07658496484207919,0.0,-0.13596269109097286,-0.14744968455965085,-0.17246954503891884,0.15786453783251686,0.6790976854517234,-0.053715375875544855
7685,5.0,301.03366,1546.6719,0.0,0.0,0.0,0.0,0.07659493165166302,0.0,-0.1171399290183109,-0.13824796523401187,-0.2147617328178328,0.16422659335540282,0.6891089004147534,-0.03871129201125706
7686,5.0,300.38504,1975.5279999999998,0.0,0.0,0.0,0.0,0.07660489846124685,0.0,-0.18442565303889483,-0.18237125806364182,-0.23371426183080177,0.1824802837744018,0.6834604769372974,-0.06507628050177884
7687,5.0,298.82313,1923.4735,0.0,0.0,0.0,0.0,0.07661486527083067,0.0,-0.18591357028074082,-0.15281174329384484,-0.24596261142461975,0.16943450635188384,0.6543789325046724,-0.03590632493167836
7688,5.0,299.02664,1317.2366,0.0,0.0,0.0,0.0,0.07662483208041448,0.0,-0.14819935791113786,-0.0949022668756245,-0.15730541629483585,0.16005135446333885,0.6377931530752834,-0.06390269269270474
7689,5.0,299.5291,1263.6132,0.0,0.0,0.0,0.0,0.0766347988899983,0.0,-0.1036236691768599,-0.1107781166754489,-0.16970508465858783,0.17454769059651581,0.6321002479184373,-0.04290972318485996
7690,5.0,298.84695,1822.9826,0.0,0.0,0.0,0.0,0.07664476569958213,0.0,-0.18534276596940683,-0.15216422581743985,-0.21663419873763082,0.15467391459262686,0.6695981516566923,-0.07579760545289123
7691,5.0,300.21227000000005,2068.1882,0.0,0.0,0.0,0.0,0.07665473250916595,0.0,-0.15175025235658385,-0.18770978913051384,-0.2892175286535477,0.16632841856783684,0.6592185898848093,-0.037546254006526766
7692,5.0,300.06389,1691.9139,0.0,0.0,0.0,0.0,0.07666469931874977,0.0,-0.13370892902604387,-0.16330135415908884,-0.21728929532478378,0.15587226522089487,0.6709450346171193,-0.03747899547813886
7693,5.0,299.96247,1560.4802,0.0,0.0,0.0,0.0,0.0766746661283336,0.0,-0.12839627636672588,-0.14535389831781287,-0.20059683079236582,0.16911431932028384,0.6707541484307803,-0.01958551546968988
7694,5.0,300.61249,1645.6774,0.0,0.0,0.0,0.0,0.0766846329379174,0.0,-0.18271152771222385,-0.14555719681787688,-0.17197611250522082,0.18266124010976084,0.6820435277324554,-0.02454551960395418
7695,5.0,299.75636000000003,1779.4619,0.0,0.0,0.0,0.0,0.07669459974750123,0.0,-0.16940873940184084,-0.15008379031461686,-0.22141943445489679,0.15891224856841785,0.6810204187089823,-0.01950396200889118
7696,5.0,299.61107999999996,1788.9138,0.0,0.0,0.0,0.0,0.07670456655708506,0.0,-0.17080340723698384,-0.14815984115723785,-0.22482188776069278,0.16778148000624282,0.6692368165385313,-0.040098984632711665
7697,5.0,299.7892,1487.845,0.0,0.0,0.0,0.0,0.07671453336666888,0.0,-0.09327407225018422,-0.12182041494023887,-0.2371732443596768,0.15609821999319487,0.6594291939180944,-0.04726941209862775
7698,5.0,300.51475,1320.4122,0.0,0.0,0.0,0.0,0.0767245001762527,0.0,-0.096466091748712,-0.1090636975062489,-0.1958425397331538,0.15830380201586886,0.6979189783117403,-0.06743461706977853
7699,5.0,300.06517,1707.9321,0.0,0.0,0.0,0.0,0.07673446698583651,0.0,-0.16756207082958885,-0.14068986757750887,-0.2109167526633628,0.15084391027463487,0.6581396811783294,-0.034741910075759566
7700,5.0,299.35308,1883.1,0.0,0.0,0.0,0.0,0.07674443379542034,0.0,-0.2211290572412388,-0.15338926545334186,-0.1978970664309198,0.15592008049311384,0.6452003355463154,-0.052711111277431645
7701,5.0,299.27064,1625.0033,0.0,0.0,0.0,0.0,0.07675440060500414,0.0,-0.16221680164955185,-0.12232675628021088,-0.20941688920283782,0.16561919416034185,0.6320041816764564,-0.039548608456643757
7702,5.0,299.67869,1572.4802,0.0,0.0,0.0,0.0,0.07676436741458798,0.0,-0.14723974927143185,-0.13873077890666186,-0.19202417765881083,0.19049620664051184,0.6542914180935354,-0.06416394403223824
7703,5.0,300.30286,1832.6848,0.0,0.0,0.0,0.0,0.07677433422417179,0.0,-0.1279621594938819,-0.15262754455816588,-0.2765007231409968,0.17975484365542183,0.6637788536823723,-0.019750549592977482
7704,5.0,300.5439,1952.4769,0.0,0.0,0.0,0.0,0.07678430103375561,0.0,-0.17160937676402685,-0.17788209402559582,-0.2440127534621838,0.17641144256545382,0.6818222136456134,-0.024023843736968774
7705,5.0,299.49192999999997,1833.1163,0.0,0.0,0.0,0.0,0.07679426784333943,0.0,-0.15825916834896386,-0.15814865316055685,-0.2408137709089688,0.15535266043711385,0.6928117925077003,-0.012398375456624387
7706,5.0,300.1815,1608.6956,0.0,0.0,0.0,0.0,0.07680423465292326,0.0,-0.18615938475500082,-0.13271908500335386,-0.17012481338001184,0.14035190813915488,0.6528532412990984,-0.027194883892176072
7707,5.0,300.79904,1484.2973,0.0,0.0,0.0,0.0,0.07681420146250709,0.0,-0.11746978245586488,-0.13370974975862487,-0.2000097942144298,0.14761218961068887,0.6488708239010643,-0.04946682833874586
7708,5.0,300.1459,1778.2079,0.0,0.0,0.0,0.0,0.07682416827209089,0.0,-0.17363532980897284,-0.14446886488546687,-0.22242661518679777,0.14836835789531685,0.6320567490916443,-0.049950501247480655
7709,5.0,300.99612,2155.0342,0.0,0.0,0.0,0.0,0.07683413508167472,0.0,-0.16653771550849286,-0.17691670986031985,-0.31162216022721273,0.1929718704773408,0.6506572142248673,-0.04452362895739005
7710,5.0,299.65463,1842.0873,0.0,0.0,0.0,0.0,0.07684410189125852,0.0,-0.1923048074065068,-0.14752174690676287,-0.2201220082318508,0.16816289774138585,0.6487527599994124,-0.05639575068307724
7711,5.0,299.2255,1454.056,0.0,0.0,0.0,0.0,0.07685406870084235,0.0,-0.11398689735713088,-0.1146510827976809,-0.21335874619936882,0.17228283344299183,0.6731752386172233,-0.042136814995329855
7712,5.0,300.1965,1640.2613,0.0,0.0,0.0,0.0,0.07686403551042617,0.0,-0.18659366374786082,-0.13776495904384287,-0.17423986521613583,0.16311901980359386,0.6675695844264884,-0.04287112747530086
7713,5.0,299.7576,1915.7386,0.0,0.0,0.0,0.0,0.07687400232001,0.0,-0.16999910957260583,-0.16087669733229384,-0.25146089150225776,0.16376551389739785,0.6930428945905084,-0.01757248237676898
7714,5.0,299.37565,1844.4754,0.0,0.0,0.0,0.0,0.0768839691295938,0.0,-0.17504861104845282,-0.16340078439140185,-0.22222507974190778,0.17136815231271985,0.6859657580745493,-0.05156661691847886
7715,5.0,299.99331,1659.2041,0.0,0.0,0.0,0.0,0.07689393593917764,0.0,-0.09685052086315221,-0.17141928091276581,-0.23608681733745476,0.15953557976493585,0.6778266239962795,-0.03876458288701646
7716,5.0,298.78684,1525.0975,0.0,0.0,0.0,0.0,0.07690390274876147,0.0,-0.14588234877496686,-0.11771188843475888,-0.1999973109731978,0.15929213629590985,0.6658868597204164,-0.03313142503556707
7717,5.0,300.57995,1844.5787,0.0,0.0,0.0,0.0,0.07691386955834527,0.0,-0.15079055252436885,-0.16128753985034086,-0.24862778342765174,0.16225529502085084,0.6811855683427813,-0.014027106091367588
7718,5.0,301.47923,2005.5886,0.0,0.0,0.0,0.0,0.0769238363679291,0.0,-0.22691692419745677,-0.15091431089158286,-0.23181762989611876,0.16812841684048282,0.6865654704112364,-0.04029125086568686
7719,5.0,300.91432000000003,1718.2006,0.0,0.0,0.0,0.0,0.07693380317751292,0.0,-0.13857822397160585,-0.14528341664085687,-0.23842841805355278,0.17852716956925985,0.6582176913035284,-0.05952598016400684
7720,5.0,300.59132,1413.7553,0.0,0.0,0.0,0.0,0.07694376998709675,0.0,-0.13400657124291887,-0.1319193469644259,-0.16382040165531486,0.18515030924541284,0.6490493484361834,-0.08513467877988862
7721,5.0,299.64893,1615.3236,0.0,0.0,0.0,0.0,0.07695373679668056,0.0,-0.1113201142864399,-0.14715326837539686,-0.23254465710787078,0.16645086984242183,0.6558215169370444,-0.07331871542774383
7722,5.0,299.53899,1919.9694,0.0,0.0,0.0,0.0,0.07696370360626438,0.0,-0.2060095317665578,-0.16184160527002286,-0.21577161892750082,0.16458034936281585,0.6520700293693014,-0.05614122124470715
7723,5.0,300.43204,1595.606,0.0,0.0,0.0,0.0,0.07697367041584821,0.0,-0.14172781058244585,-0.14052271170851188,-0.2027738695597228,0.14572693647462887,0.6625199816256313,-0.06306085917837223
7724,5.0,299.43545,1194.7772,0.0,0.0,0.0,0.0,0.07698363722543201,0.0,-0.1045590408741739,-0.11529548959627889,-0.14332789461036186,0.16624471397707583,0.6698885288703503,-0.029353354851450575
7725,5.0,298.84831,1529.4733,0.0,0.0,0.0,0.0,0.07699360403501584,0.0,-0.10927865851496389,-0.13606952818151685,-0.21957351568771882,0.17495830006703983,0.7086254956258914,-0.03491157171225387
7726,5.0,298.80843,2167.5021,0.0,0.0,0.0,0.0,0.07700357084459968,0.0,-0.2011899063408978,-0.2037242272260158,-0.25395238230564876,0.18893164716110183,0.6767882554263004,-0.026933352895614975
7727,5.0,299.70636,2162.2249,0.0,0.0,0.0,0.0,0.07701353765418348,0.0,-0.17133533314198085,-0.20243742999651881,-0.28348961570574677,0.17084081643067583,0.6613743402675654,-0.057051488657543545
7728,5.0,301.1382,1709.4565,0.0,0.0,0.0,0.0,0.07702350446376731,0.0,-0.15595220052128386,-0.15123096168033387,-0.21244891853707581,0.1788521594063338,0.6579865588232173,-0.026183006746061575
7729,5.0,301.24571000000003,1413.7777,0.0,0.0,0.0,0.0,0.07703347127335113,0.0,-0.1113017541946279,-0.11689972794960488,-0.2015516467590988,0.13868217329936486,0.6804845309960943,-0.03563677710032607
7730,5.0,300.31978,1595.517,0.0,0.0,0.0,0.0,0.07704343808293496,0.0,-0.14437148141835587,-0.1195099615322149,-0.22111588498993878,0.13432495468934086,0.6925244955743464,-0.016433661205126085
7731,5.0,299.90918999999997,1967.4327,0.0,0.0,0.0,0.0,0.07705340489251877,0.0,-0.17896636282510484,-0.16486627840853485,-0.25421775250683876,0.12882017967856188,0.6832263351041893,-0.060115326952170846
7732,5.0,299.21981,1752.6589999999999,0.0,0.0,0.0,0.0,0.07706337170210259,0.0,-0.17519454946035581,-0.13720430749851087,-0.2203657050134018,0.16946273549966984,0.6591381682243723,-0.03196647619684557
7733,5.0,298.78506,1283.995,0.0,0.0,0.0,0.0,0.07707333851168642,0.0,-0.0986549906084895,-0.12781141827650488,-0.16383601583935584,0.18673681572198883,0.6669189968022804,-0.052370191122285456
7734,5.0,299.95419,1565.8881,0.0,0.0,0.0,0.0,0.07708330532127022,0.0,-0.15199724220095986,-0.15873639901356285,-0.16525724095961986,0.2006950653895608,0.6598489226395183,-0.03705810151909986
7735,5.0,299.58215,2013.6575,0.0,0.0,0.0,0.0,0.07709327213085405,0.0,-0.17236657856375684,-0.17638986033832382,-0.26334514993764274,0.1880718740537488,0.6545401304630815,-0.03561225746115616
7736,5.0,300.18311,2086.1108,0.0,0.0,0.0,0.0,0.07710323894043788,0.0,-0.1788006761687528,-0.19280293128816783,-0.26252198555640277,0.17206183346368084,0.6717580766298604,-0.006744010685882034
7737,5.0,300.31961,1500.7712,0.0,0.0,0.0,0.0,0.07711320575002169,0.0,-0.0896357991691146,-0.12515926653725787,-0.24140191192951377,0.15791108654211083,0.7068280304784953,-0.04226405894288786
7738,5.0,300.26406000000003,1484.1146,0.0,0.0,0.0,0.0,0.07712317255960552,0.0,-0.14479924521307286,-0.12172429803575288,-0.18461023680961183,0.14221136392766887,0.6777330098195403,-0.03021360519960067
7739,5.0,299.70103,1815.4959,0.0,0.0,0.0,0.0,0.07713313936918934,0.0,-0.17333848805967683,-0.15789443884296786,-0.2206324937647318,0.13602474252709687,0.6562309611699534,-0.08483140795870812
7740,5.0,299.09316,1906.8284,0.0,0.0,0.0,0.0,0.07714310617877317,0.0,-0.22278881156754377,-0.14268925320483286,-0.21415015532247478,0.14666272360448385,0.6410897014806274,-0.04414360748088486
7741,5.0,299.45606000000004,1575.4636,0.0,0.0,0.0,0.0,0.07715307298835698,0.0,-0.12395343812325188,-0.14448512754957188,-0.21046303953358478,0.16127838006943684,0.6650765838804483,-0.058308966482146944
7742,5.0,299.35544,1312.4133,0.0,0.0,0.0,0.0,0.0771630397979408,0.0,-0.11183318360707589,-0.11143661778293788,-0.17567106071738384,0.16991777598707886,0.6630548966184234,-0.01955367813829778
7743,5.0,299.02872,1571.7499,0.0,0.0,0.0,0.0,0.07717300660752463,0.0,-0.1112785305023359,-0.14238050576686187,-0.22411368673579882,0.17929604401014185,0.6948225366686454,-0.049249313939778855
7744,5.0,300.41441000000003,2134.5703,0.0,0.0,0.0,0.0,0.07718297341710843,0.0,-0.24195648397424574,-0.17180984829631185,-0.23508971844404877,0.18212545372188282,0.6760695875278734,-0.024393129828664477
7745,5.0,300.73456,2112.8353,0.0,0.0,0.0,0.0,0.07719294022669226,0.0,-0.19066672649984082,-0.18116394017198884,-0.2704185070307287,0.2010328120453938,0.6880961265423003,-0.025498795430535178
7746,5.0,300.64322000000004,1627.6232,0.0,0.0,0.0,0.0,0.0772029070362761,0.0,-0.17186278048153586,-0.14218892043795386,-0.18070513039420782,0.17784048997648982,0.6693113512158874,-0.026382221848222573
7747,5.0,300.24897999999996,1478.0155,0.0,0.0,0.0,0.0,0.0772128738458599,0.0,-0.1007787111423344,-0.13564982985759588,-0.21285125988678377,0.17564017685433583,0.6549358248921333,-0.03613747058424067
7748,5.0,300.08796,1678.1470000000002,0.0,0.0,0.0,0.0,0.07722284065544373,0.0,-0.16640957990084684,-0.1271828181794669,-0.2165223663240938,0.14598678446277386,0.6459580743685984,-0.04258089009015666
7749,5.0,299.66557,1819.6959,0.0,0.0,0.0,0.0,0.07723280746502754,0.0,-0.13938604774633187,-0.16237268004493585,-0.25138337786960774,0.16048059760320185,0.6731235121996184,-0.045881584714909864
7750,5.0,300.73634,1795.4477,0.0,0.0,0.0,0.0,0.07724277427461138,0.0,-0.2027325796181478,-0.15602202358567485,-0.18701664500210582,0.18145318254553483,0.6684520036735763,-0.06795689886032373
7751,5.0,299.21536000000003,1546.3932,0.0,0.0,0.0,0.0,0.07725274108419519,0.0,-0.12361063534941988,-0.15760083949399187,-0.18885344451838382,0.15584039850524986,0.6557967632371015,-0.07401739696794833
7752,5.0,300.93838,1605.5337,0.0,0.0,0.0,0.0,0.07726270789377901,0.0,-0.17926800737987483,-0.12171529024236388,-0.1870588570012718,0.17368345918872283,0.6689408259193194,-0.043579226161934756
7753,5.0,301.29169,1976.1565,0.0,0.0,0.0,0.0,0.07727267470336284,0.0,-0.14194420027380186,-0.17450581296988282,-0.2842522181285097,0.16901602392808282,0.6793845973500393,-0.021020264439038584
7754,5.0,300.66751,2001.7534,0.0,0.0,0.0,0.0,0.07728264151294664,0.0,-0.18804411100100882,-0.17016886949435986,-0.2502700591897318,0.18374472870669284,0.6984859728026983,-0.01127018530503069
7755,5.0,300.87482,1801.7919,0.0,0.0,0.0,0.0,0.07729260832253047,0.0,-0.13056670874343088,-0.16570224013853785,-0.25143081823928976,0.16527211547108783,0.6742042954187834,-0.028967213344341373
7756,5.0,300.55766,1536.1386,0.0,0.0,0.0,0.0,0.0773025751321143,0.0,-0.14504134105946587,-0.14837173201814988,-0.17353468367653985,0.18063419275470682,0.6595087644484473,-0.03525052818870626
7757,5.0,300.56427,1629.2211,0.0,0.0,0.0,0.0,0.0773125419416981,0.0,-0.12857160916402988,-0.16503274526746384,-0.20163819858264082,0.18429084011308983,0.6567791092090514,-0.04755026172159546
7758,5.0,300.7356,2043.5766,0.0,0.0,0.0,0.0,0.07732250875128194,0.0,-0.23037761911900076,-0.17197923331552883,-0.2188394058577678,0.18030554508477184,0.6457012965282564,-0.044096084024694664
7759,5.0,298.79146000000003,1805.2479,0.0,0.0,0.0,0.0,0.07733247556086575,0.0,-0.13653657568261088,-0.16374792387566184,-0.24846578500166377,0.16399295814734485,0.6307427359644614,-0.05597603513390454
7760,5.0,299.43458,1502.5681,0.0,0.0,0.0,0.0,0.07734244237044959,0.0,-0.16895974801752883,-0.1045972201379419,-0.18318622525157283,0.14413401612491988,0.6391595208351334,-0.025918954783251676
7761,5.0,300.49757,1789.5552,0.0,0.0,0.0,0.0,0.0773524091800334,0.0,-0.15477339548744484,-0.13440435296717687,-0.25480234715203376,0.16202847898596584,0.6824237093024763,-0.014755227613227586
7762,5.0,300.05588,1934.6158,0.0,0.0,0.0,0.0,0.07736237598961722,0.0,-0.1986759011202848,-0.14040849815723985,-0.24899050669844974,0.14716261054131888,0.7094491261021774,-0.03331183421587207
7763,5.0,300.10196,1884.1002,0.0,0.0,0.0,0.0,0.07737234279920105,0.0,-0.15435689903383987,-0.16208914226945287,-0.25627336338221174,0.15201897641560486,0.6850121073454314,-0.04551690688466896
7764,5.0,300.4398,1608.7818,0.0,0.0,0.0,0.0,0.07738230960878485,0.0,-0.15271228266402886,-0.13076784902078187,-0.2055493743661438,0.15738807723799386,0.6733470858341833,-0.026684485498803673
7765,5.0,301.62016,1370.7369,0.0,0.0,0.0,0.0,0.07739227641836868,0.0,-0.08062406119747532,-0.13149583882012886,-0.2045498842025018,0.18211953634129882,0.6727306548708464,-0.03324435783871267
7766,5.0,302.50387,1646.5869,0.0,0.0,0.0,0.0,0.07740224322795251,0.0,-0.14567904014240185,-0.16250942827843184,-0.1923328440367738,0.19072940615102682,0.6875003456160014,-0.03759910107874236
7767,5.0,300.82745,1918.3426,0.0,0.0,0.0,0.0,0.07741221003753632,0.0,-0.16638619408853886,-0.18718418590614083,-0.22955786939059777,0.17258365726518082,0.6452680713155005,-0.06069555347618474
7768,5.0,299.11638999999997,1747.415,0.0,0.0,0.0,0.0,0.07742217684712015,0.0,-0.17528885264716285,-0.15320848137049986,-0.20267321329478882,0.17175210317311285,0.6703910097274414,-0.050188338403703354
7769,5.0,299.32871,1461.068,0.0,0.0,0.0,0.0,0.07743214365670396,0.0,-0.12036702926180089,-0.14298757429927486,-0.18077359570346485,0.16337921229677285,0.6640734764139494,-0.06376758288462044
7770,5.0,299.89795,1695.595,0.0,0.0,0.0,0.0,0.0774421104662878,0.0,-0.15030208491616084,-0.15357614930178584,-0.21154029664240181,0.15835989554140484,0.6687234128453623,-0.027309917162778974
7771,5.0,300.51667000000003,2012.7882,0.0,0.0,0.0,0.0,0.07745207727587161,0.0,-0.16589798992535684,-0.17797501919226683,-0.26796434436102173,0.15523542740054386,0.6424517223975483,-0.05229641942225474
7772,5.0,300.05129,1944.8505,0.0,0.0,0.0,0.0,0.07746204408545543,0.0,-0.2003033327683998,-0.14919949655484385,-0.24168316989227176,0.15764966801631086,0.6683829101492573,0.009779149380701901
7773,5.0,300.14115,1684.9445,0.0,0.0,0.0,0.0,0.07747201089503926,0.0,-0.15695481149523385,-0.12529519403817288,-0.2299310595349288,0.1941126583674278,0.6767071447557954,-0.03860419046243696
7774,5.0,300.38743,1746.019,0.0,0.0,0.0,0.0,0.07748197770462306,0.0,-0.18007164643168783,-0.14381246120568486,-0.2068620702681968,0.17270111321677284,0.7020284674048154,-0.03003532587100587
7775,5.0,301.24172000000004,1884.1239,0.0,0.0,0.0,0.0,0.07749194451420689,0.0,-0.14942140845924487,-0.19591088345239882,-0.22739433724707375,0.17281206410272285,0.6987998979486802,-0.07296538802512313
7776,5.0,300.98556,2087.5378,0.0,0.0,0.0,0.0,0.07750191132379072,0.0,-0.2001245346557538,-0.18352250269476084,-0.25091231789811774,0.14412352898638486,0.6790163316011943,-0.039268432644992565
7777,5.0,300.56282000000004,1961.0498,0.0,0.0,0.0,0.0,0.07751187813337453,0.0,-0.15522085686410583,-0.18992198767634083,-0.25096731711354575,0.17174049132696684,0.6866167509987973,-0.051669874196419545
7778,5.0,300.08918,1389.9334,0.0,0.0,0.0,0.0,0.07752184494295836,0.0,-0.14398193741741086,-0.1271017379064649,-0.15142138177162687,0.17494293919552384,0.6717632644703724,-0.04558468419710805
7779,5.0,301.27822000000003,1408.267,0.0,0.0,0.0,0.0,0.07753181175254217,0.0,-0.12284188249854988,-0.13012410083474887,-0.17511203037221182,0.16474240858380984,0.6581564707324864,-0.06433809031367514
7780,5.0,301.88175,1795.6687,0.0,0.0,0.0,0.0,0.077541778562126,0.0,-0.18323458767884584,-0.14935151446734685,-0.2132523346738668,0.14978902572802585,0.6564194358210543,-0.04564406369271836
7781,5.0,300.41905,1779.201,0.0,0.0,0.0,0.0,0.07755174537170982,0.0,-0.14283418849913687,-0.14728387631328685,-0.2507146125386058,0.15809425176268785,0.6699675826431524,-0.038292419486167566
7782,5.0,300.0121,1581.4096,0.0,0.0,0.0,0.0,0.07756171218129364,0.0,-0.11895764903520589,-0.13550415489071888,-0.22624723680886377,0.16956641124990182,0.7007239788285723,-0.05967262683772974
7783,5.0,299.96236,1528.1424,0.0,0.0,0.0,0.0,0.07757167899087747,0.0,-0.12214565808983788,-0.13100788796947188,-0.2113635959574628,0.1822075472449848,0.6667690357874804,-0.043544790857286256
7784,5.0,300.28013,1728.0607,0.0,0.0,0.0,0.0,0.07758164580046127,0.0,-0.18266119957975682,-0.14454597321807686,-0.1980801303264868,0.18052509611643983,0.6821409821270734,-0.029010040386318072
7785,5.0,299.8844,1936.4215,0.0,0.0,0.0,0.0,0.0775916126100451,0.0,-0.19398802860512782,-0.1710627587325798,-0.22357298608493575,0.17651815806598584,0.6472770118912674,-0.03403602838034447
7786,5.0,299.86791,1862.2142,0.0,0.0,0.0,0.0,0.07760157941962893,0.0,-0.18473073251150382,-0.17303693469741585,-0.20829893997000481,0.17894582424557784,0.6700558164618603,-0.06995697755071614
7787,5.0,299.2927,1547.4161,0.0,0.0,0.0,0.0,0.07761154622921274,0.0,-0.11738675674267089,-0.13928630340648787,-0.21370280540332479,0.17200514212058585,0.6590558213887454,-0.05484004700954124
7788,5.0,300.22949,1410.0714,0.0,0.0,0.0,0.0,0.07762151303879657,0.0,-0.0911811018303741,-0.14803408668732687,-0.18941129949343982,0.16014843395541986,0.6852024666417184,-0.03812355426425186
7789,5.0,300.5467,1698.9174,0.0,0.0,0.0,0.0,0.07763147984838038,0.0,-0.14270638726402385,-0.13715332075347886,-0.23656874948251777,0.17697225623080184,0.6778707003756294,0.007299714328325713
7790,5.0,299.57027999999997,1779.3641,0.0,0.0,0.0,0.0,0.07764144665796421,0.0,-0.19432969653884782,-0.12866313604556287,-0.2178894332265128,0.16896787428333085,0.6814151606829404,-0.013086179757005385
7791,5.0,300.07962000000003,1607.0164,0.0,0.0,0.0,0.0,0.07765141346754803,0.0,-0.16599650823257983,-0.12213888957916988,-0.2003574707212428,0.18980259641705782,0.6571762120557424,-0.037818937846938565
7792,5.0,300.27913,1623.1451,0.0,0.0,0.0,0.0,0.07766138027713185,0.0,-0.16908258432715184,-0.1023582515244729,-0.2219547446152278,0.13953865334389287,0.6741159298775624,-0.030835189552946268
7793,5.0,300.48017999999996,1989.9178,0.0,0.0,0.0,0.0,0.07767134708671568,0.0,-0.15632738676831187,-0.16911015486237285,-0.27944780158685073,0.15282609091526086,0.6819874139419173,-0.05868808109981265
7794,5.0,301.2087,2037.8135,0.0,0.0,0.0,0.0,0.07768131389629948,0.0,-0.16323444925498584,-0.18274625179315082,-0.27346371874876774,0.13876798545033386,0.6917917232345273,-0.05204899894658625
7795,5.0,300.75149,1618.0243,0.0,0.0,0.0,0.0,0.07769128070588331,0.0,-0.13451749247334288,-0.16351264720244185,-0.1938088454574438,0.17393166493321882,0.6738324022345803,-0.07095679499414043
7796,5.0,301.0978,1541.6938,0.0,0.0,0.0,0.0,0.07770124751546714,0.0,-0.16015990394655183,-0.13152695573069986,-0.17694953916355982,0.17979533312941784,0.6884994304796034,-0.01996111410950858
7797,5.0,300.26537,1608.2065,0.0,0.0,0.0,0.0,0.07771121432505095,0.0,-0.15553742659284886,-0.14730490125286186,-0.18601229123798382,0.17518775055218483,0.6549517329187033,-0.043816446248846556
7798,5.0,299.73161,1793.1215,0.0,0.0,0.0,0.0,0.07772118113463478,0.0,-0.16665182773475484,-0.16382179994045284,-0.21459054421343782,0.16538585279481283,0.6414473787659274,-0.02851653084561247
7799,5.0,299.12036,2063.0169,0.0,0.0,0.0,0.0,0.07773114794421859,0.0,-0.15641539767199786,-0.1903800476490478,-0.28031016861445973,0.17785729979564885,0.6292877189533624,-0.057786979547380844
7800,5.0,298.6978,1850.9257,0.0,0.0,0.0,0.0,0.0777411147538024,0.0,-0.15009026498275585,-0.12876335661295388,-0.28378157358956074,0.16236967069213884,0.6828067077077754,-0.006257822890399035
7801,5.0,299.25894,1673.0384,0.0,0.0,0.0,0.0,0.07775108156338624,0.0,-0.14657703304352684,-0.1384869301375959,-0.2234979245175278,0.16450641250301884,0.6830707708163364,-0.04179979990606906
7802,5.0,301.0309,2056.4806,0.0,0.0,0.0,0.0,0.07776104837297006,0.0,-0.2134596355118258,-0.15292771990029086,-0.2587314067998018,0.14705556066825384,0.6923420294963383,-0.016428758087892185
7803,5.0,301.19187999999997,2224.8520000000003,0.0,0.0,0.0,0.0,0.07777101518255389,0.0,-0.24183478250473478,-0.17327730801863883,-0.26118735278968475,0.15064347927235386,0.6660300319595464,-0.04037175662588216
7804,5.0,301.20707999999996,1923.1157,0.0,0.0,0.0,0.0,0.07778098199213769,0.0,-0.18839390520053084,-0.16976930444992583,-0.22641594295051376,0.17043418903304483,0.6873433931755113,-0.05354423692040475
7805,5.0,300.80152000000004,1523.1207,0.0,0.0,0.0,0.0,0.07779094880172152,0.0,-0.1067146190044129,-0.14407456874155286,-0.2122014727301548,0.16443896044386183,0.6753028510447023,-0.06653862837735135
7806,5.0,299.66188999999997,1529.9532,0.0,0.0,0.0,0.0,0.07780091561130534,0.0,-0.09210488701279461,-0.17573980973666883,-0.1972228802118828,0.18178204299799083,0.6825330896507713,-0.07227828286731114
7807,5.0,299.33446000000004,1771.2411,0.0,0.0,0.0,0.0,0.07781088242088915,0.0,-0.15656540934930285,-0.18750625758292683,-0.19434141984250483,0.17550966010895483,0.6703789115212473,-0.04563119541644836
7808,5.0,299.55097,1731.5696,0.0,0.0,0.0,0.0,0.07782084923047299,0.0,-0.16274184758636986,-0.13155647170611287,-0.23205561194710578,0.1940484487085908,0.6861459544723334,-0.010285042762804689
7809,5.0,299.62701,1507.4783,0.0,0.0,0.0,0.0,0.0778308160400568,0.0,-0.15160003802925884,-0.13602325304944987,-0.17061248052064085,0.15588556919470786,0.6621826200048363,-0.024242079570006975
7810,5.0,299.56412,1586.2804,0.0,0.0,0.0,0.0,0.07784078284964063,0.0,-0.1275623614019249,-0.14305757974868388,-0.2115697011603038,0.16162171986582186,0.6514842694864914,-0.03916165736270466
7811,5.0,300.69462000000004,2015.3499,0.0,0.0,0.0,0.0,0.07785074965922444,0.0,-0.15957887594170886,-0.1894594896681958,-0.2635776705705907,0.13182123395724288,0.6389301007474915,-0.06980724451718864
7812,5.0,300.27987,2144.2262,0.0,0.0,0.0,0.0,0.07786071646880827,0.0,-0.2015456787160098,-0.18883867133192583,-0.2614068835563507,0.16379436112774484,0.6756277699542693,-0.05327928721800624
7813,5.0,300.75642999999997,1796.8956,0.0,0.0,0.0,0.0,0.07787068327839208,0.0,-0.18010669475264682,-0.14781303604551085,-0.21829167325121077,0.17928919443946584,0.6929910060528873,-0.055240367938549854
7814,5.0,300.41329,1389.9920000000002,0.0,0.0,0.0,0.0,0.0778806500879759,0.0,-0.12887929268939588,-0.14408188440727485,-0.14956168280308885,0.17604310588910183,0.7310883688153043,-0.06794527080217613
7815,5.0,300.40904,1597.6353,0.0,0.0,0.0,0.0,0.07789061689755972,0.0,-0.14567666913716784,-0.14922556747991686,-0.19073901176197483,0.14142063368212987,0.7060881755204773,-0.060183409252890036
7816,5.0,299.30053,1939.7632,0.0,0.0,0.0,0.0,0.07790058370714355,0.0,-0.18083185758421483,-0.16644203430154983,-0.24236569515963177,0.14225973648744286,0.6761538190086863,-0.03246488682828487
7817,5.0,299.00926,1829.3210000000001,0.0,0.0,0.0,0.0,0.07791055051672735,0.0,-0.13811020375041588,-0.16506458158560586,-0.2528931306511088,0.17218809455864184,0.6460266106053624,-0.04913935806542705
7818,5.0,299.10625,1490.0356,0.0,0.0,0.0,0.0,0.07792051732631118,0.0,-0.13547698965553787,-0.11362195506861389,-0.2038346816194168,0.17577600303024085,0.6456399948972064,-0.025953157040377175
7819,5.0,300.1519,1530.8205,0.0,0.0,0.0,0.0,0.07793048413589501,0.0,-0.12680659841733688,-0.13778606504342586,-0.2007385439513518,0.18890841333630884,0.6410032712470973,-0.008624410353963032
7820,5.0,299.20954,1749.237,0.0,0.0,0.0,0.0,0.07794045094547881,0.0,-0.18582626865212484,-0.14008558548287087,-0.20581250528461278,0.17389860258245582,0.6921563919455174,-0.004053368817736356
7821,5.0,300.75966,2089.4304,0.0,0.0,0.0,0.0,0.07795041775506265,0.0,-0.2160328449357818,-0.14298130228115588,-0.27612052130597375,0.17180381945821682,0.7002391994507283,0.014987264925877887
7822,5.0,300.50486,1996.2264,0.0,0.0,0.0,0.0,0.07796038456464646,0.0,-0.17536161413684384,-0.17963968778155684,-0.2518016576433888,0.16095839568785683,0.7033170783519913,-0.05569916251757935
7823,5.0,300.04525,1577.1675,0.0,0.0,0.0,0.0,0.07797035137423029,0.0,-0.1004796169380661,-0.16544076081773185,-0.21349914213322482,0.15181924455589285,0.6735994763015923,-0.07355333348839883
7824,5.0,300.02141,1659.5702,0.0,0.0,0.0,0.0,0.0779803181838141,0.0,-0.14140208107279886,-0.17083663170776284,-0.19222919868404484,0.16712074974853383,0.6617099489656874,-0.08428936069846221
7825,5.0,299.90744,1944.8899,0.0,0.0,0.0,0.0,0.07799028499339793,0.0,-0.2013234020415728,-0.16981603554453784,-0.2200585382455868,0.17619040205613884,0.6554615801040214,-0.04612593909577575
7826,5.0,299.48111,1694.3901,0.0,0.0,0.0,0.0,0.07800025180298176,0.0,-0.1879464640888718,-0.12590509967086588,-0.20120070758696382,0.15995323132365485,0.6872796901417243,-0.04521609218173086
7827,5.0,300.27787,1236.2033,0.0,0.0,0.0,0.0,0.07801021861256556,0.0,-0.1002191072976058,-0.10250520318647591,-0.17305063383876784,0.16411769936715584,0.6988077405044543,-0.029794503679988572
7828,5.0,299.94475,1128.3547,0.0,0.0,0.0,0.0,0.07802018542214939,0.0,-0.062116731986944146,-0.094643254818812,-0.18623168014963581,0.12726858980043187,0.6760072321167193,-0.045079425008242864
7829,5.0,299.3414,1642.7883,0.0,0.0,0.0,0.0,0.07803015223173321,0.0,-0.11278301438331689,-0.14422281736368386,-0.2423608011616488,0.16370450610887685,0.6772782023796544,-0.037748108625198264
7830,5.0,299.07741,2137.0939,0.0,0.0,0.0,0.0,0.07804011904131702,0.0,-0.2014836880748918,-0.2140283525279538,-0.23411115189497175,0.18249623233097584,0.6404571902382034,-0.05761157784907004
7831,5.0,298.31359,2063.1797,0.0,0.0,0.0,0.0,0.07805008585090085,0.0,-0.2048917041237368,-0.17738704029173782,-0.24487635665491478,0.2167490709014678,0.6591939071123734,-0.037671083379096464
7832,5.0,299.16264,1680.6064,0.0,0.0,0.0,0.0,0.07806005266048467,0.0,-0.17437390807186484,-0.15579988876625184,-0.18068859415257582,0.18713260134354984,0.6501471846545314,-0.03504619009403967
7833,5.0,299.65202999999997,1650.0101,0.0,0.0,0.0,0.0,0.0780700194700685,0.0,-0.16326354979785784,-0.1251478269436289,-0.21315049290631582,0.15449392084486285,0.6817956664929934,-0.01960727298908718
7834,5.0,298.43448,1952.0874,0.0,0.0,0.0,0.0,0.0780799862796523,0.0,-0.1874856784733958,-0.13907237591287486,-0.26682778172385174,0.13474018458032086,0.6882805481930013,-0.048642401447881255
7835,5.0,300.10773,1879.3827,0.0,0.0,0.0,0.0,0.07808995308923614,0.0,-0.17420190886738984,-0.15755454409692285,-0.2395289799146698,0.14080474987384686,0.6926256787293323,-0.04656554677091165
7836,5.0,300.18726000000004,1217.0801,0.0,0.0,0.0,0.0,0.07809991989881997,0.0,-0.08859511532265711,-0.1068807210933059,-0.17448613565294085,0.18458810742742782,0.6891207453084224,-0.06156185191418174
7837,5.0,299.19512000000003,1197.7741,0.0,0.0,0.0,0.0,0.07810988670840377,0.0,-0.1060177359831359,-0.096967417500689,-0.16110828577514985,0.17194780229742684,0.6695788188447844,-0.02968197415038277
7838,5.0,299.60303999999996,2016.0791,0.0,0.0,0.0,0.0,0.0781198535179876,0.0,-0.19367687976441983,-0.17730193741583883,-0.24185889785711476,0.1924795322537508,0.6589965462578954,-0.031194655224672768
7839,5.0,299.98888,2250.3466,0.0,0.0,0.0,0.0,0.07812982032757142,0.0,-0.2227272566239688,-0.17179414291976183,-0.2895277959666687,0.15514886544450085,0.6511211003856493,-0.007889914475723932
7840,5.0,299.68678,1822.9436,0.0,0.0,0.0,0.0,0.07813978713715523,0.0,-0.13438489856525687,-0.17661476133051984,-0.24312968573503177,0.14785479208213184,0.6794209021011224,-0.04012574862085306
7841,5.0,301.47188,1753.5086,0.0,0.0,0.0,0.0,0.07814975394673906,0.0,-0.12427087924708088,-0.17308558083471684,-0.23566635907595876,0.14751745072633887,0.6990629072771374,-0.026616039441298575
7842,5.0,301.77546,2015.8681,0.0,0.0,0.0,0.0,0.07815972075632288,0.0,-0.18274556278308282,-0.18806879377344482,-0.24195921974951576,0.17211282020871282,0.6729472674772243,-0.07515347729807073
7843,5.0,300.63305,2118.1123,0.0,0.0,0.0,0.0,0.07816968756590671,0.0,-0.22213136424015878,-0.19322153530198083,-0.22850035039372876,0.16541991826317484,0.6877188023375613,-0.04834549383732875
7844,5.0,300.26027999999997,1664.9655,0.0,0.0,0.0,0.0,0.07817965437549051,0.0,-0.17234260506639085,-0.1344589772800679,-0.1993063655975068,0.17415471167773183,0.6537554594531403,-0.036947779861461964
7845,5.0,299.49069,1161.7275,0.0,0.0,0.0,0.0,0.07818962118507435,0.0,-0.07381558591903113,-0.1028379849168189,-0.17648259298747582,0.16531493542031386,0.6790213674541914,-0.03455728881478887
7846,5.0,299.19292,1359.8312,0.0,0.0,0.0,0.0,0.07819958799465818,0.0,-0.08744232852488591,-0.12973631988897788,-0.19617608140107182,0.14958320423521287,0.6823066383859224,-0.06154980741024304
7847,5.0,300.01783,1949.1003,0.0,0.0,0.0,0.0,0.07820955480424198,0.0,-0.18837549444621382,-0.14464857492320288,-0.25945376292859273,0.15606306021472485,0.7095748704395873,-0.049815227292880154
7848,5.0,299.26099999999997,1990.1576,0.0,0.0,0.0,0.0,0.07821952161382581,0.0,-0.17837675259191482,-0.18241538510549682,-0.24416607846731578,0.16664327590391084,0.6941402647138103,-0.04850272492159625
7849,5.0,299.49365,1650.8218,0.0,0.0,0.0,0.0,0.07822948842340963,0.0,-0.15564649283361284,-0.13331763210242586,-0.2128444913761158,0.15736238121545787,0.7008724098357213,-0.04117876270777746
7850,5.0,300.9002,1657.5729999999999,0.0,0.0,0.0,0.0,0.07823945523299344,0.0,-0.15599761439076587,-0.15172729210931787,-0.1961358857696048,0.16289670259915284,0.6489150421354284,-0.03868263020567836
7851,5.0,300.19124,1897.6471,0.0,0.0,0.0,0.0,0.07824942204257727,0.0,-0.16995014932777383,-0.16940493971396584,-0.23748223497767176,0.13623347204769687,0.6505118938955253,-0.012607379568001488
7852,5.0,300.11152000000004,2011.759,0.0,0.0,0.0,0.0,0.07825938885216109,0.0,-0.18274145912017783,-0.15462986861077985,-0.2741531746468117,0.15586315610249588,0.6486841123051373,-0.016508304300242787
7853,5.0,300.29947000000004,1875.1179,0.0,0.0,0.0,0.0,0.07826935566174492,0.0,-0.15271036762133985,-0.16583303046144585,-0.25144564208825276,0.17096544619297585,0.6998266445400123,-0.026050264903460973
7854,5.0,300.14423,1546.5339,0.0,0.0,0.0,0.0,0.07827932247132872,0.0,-0.14210899527006585,-0.13166156600648488,-0.1963371375044668,0.18902903062821283,0.6946170698133673,-0.04877088764006186
7855,5.0,301.29867,1564.3115,0.0,0.0,0.0,0.0,0.07828928928091256,0.0,-0.16330959188240185,-0.1120627050197279,-0.2001393483722158,0.1916811722349588,0.7011675797223523,-0.04074785074499976
7856,5.0,301.55311,1812.4499,0.0,0.0,0.0,0.0,0.07829925609049639,0.0,-0.2032401368582398,-0.13871574227517788,-0.2089836335925788,0.16705611452465485,0.6511100356945574,-0.049072491664827855
7857,5.0,299.86723,1883.5318,0.0,0.0,0.0,0.0,0.07830922290008019,0.0,-0.16232942439816686,-0.14937785896994685,-0.26083935204283976,0.15994404114524785,0.6598544347200623,-0.04104949833952006
7858,5.0,299.81491,1703.9126,0.0,0.0,0.0,0.0,0.07831918970966402,0.0,-0.12482074981134889,-0.1867925039474848,-0.2063336299435438,0.13088591292243387,0.6309417484166023,-0.07112387081637953
7859,5.0,300.14609,1489.5042,0.0,0.0,0.0,0.0,0.07832915651924784,0.0,-0.09940634392864231,-0.15792811927629186,-0.19543762472819182,0.15499069710389085,0.6817534038313223,-0.07447641851500023
7860,5.0,299.5528,1700.9260000000002,0.0,0.0,0.0,0.0,0.07833912332883167,0.0,-0.15824261184232985,-0.14449674952821887,-0.2142996705072308,0.14943852225343385,0.6885757282121333,-0.035669600324065465
7861,5.0,300.25453,1972.6837,0.0,0.0,0.0,0.0,0.07834909013841548,0.0,-0.2168308300520368,-0.16921209795493383,-0.2136036791460418,0.16096222577323485,0.7197136434577063,-0.03576817638654417
7862,5.0,299.44973,1847.394,0.0,0.0,0.0,0.0,0.0783590569479993,0.0,-0.18020278125962982,-0.15725892838024785,-0.22409993693194177,0.17667758283671983,0.6741220093781624,-0.024400150638607374
7863,5.0,299.2707,1659.9388,0.0,0.0,0.0,0.0,0.07836902375758313,0.0,-0.14515952655112985,-0.15129433034158785,-0.20812608963544582,0.17624943400696483,0.6894188738853453,-0.053850000336831245
7864,5.0,300.69293,1789.254,0.0,0.0,0.0,0.0,0.07837899056716693,0.0,-0.14329304893942285,-0.15198095927185287,-0.24861453011634377,0.2019406638699918,0.6632271795329263,-0.04473886759663246
7865,5.0,301.35623,2011.6893,0.0,0.0,0.0,0.0,0.07838895737675076,0.0,-0.16168548369461483,-0.18133515917388682,-0.26848265218467476,0.19259721112036482,0.6680926849231144,-0.06740457927056404
7866,5.0,300.68119,1968.7392,0.0,0.0,0.0,0.0,0.0783989241863346,0.0,-0.17391313258888982,-0.19687949988549383,-0.22765492490779177,0.17268916699809383,0.6574610974538584,-0.07046565645866884
7867,5.0,300.32962000000003,1761.2595,0.0,0.0,0.0,0.0,0.0784088909959184,0.0,-0.2005825844959598,-0.13415305680987585,-0.2006432680444488,0.13524498578014088,0.6846801767451723,-0.058803052562159445
7868,5.0,300.68568,1502.8305,0.0,0.0,0.0,0.0,0.07841885780550223,0.0,-0.13499153140012687,-0.1008205350667121,-0.22101089201457677,0.15820683398129884,0.6870373511153074,-0.04437602577557275
7869,5.0,299.72449,1583.2336,0.0,0.0,0.0,0.0,0.07842882461508605,0.0,-0.13289884570359486,-0.12101683668343188,-0.22734779866998076,0.14511160995390088,0.7037498881322063,-0.04547214554825136
7870,5.0,300.79267000000004,1897.8715,0.0,0.0,0.0,0.0,0.07843879142466988,0.0,-0.16275581017274784,-0.14455498101146586,-0.26959476509693175,0.16513458703501485,0.6664336196068773,-0.024788518256186273
7871,5.0,300.2053,1962.5620000000001,0.0,0.0,0.0,0.0,0.0784487582342537,0.0,-0.15708350439043484,-0.1888726962702838,-0.2506136320336398,0.17200549675812085,0.6972313057338724,-0.04055291865101146
7872,5.0,300.6925,1730.9223,0.0,0.0,0.0,0.0,0.07845872504383751,0.0,-0.17574431869961382,-0.12795910961108087,-0.2224537398919748,0.19882047164455283,0.6918911230693373,-0.012827527403978387
7873,5.0,300.62565,1851.7928,0.0,0.0,0.0,0.0,0.07846869185342134,0.0,-0.2021701346201388,-0.13914759960029888,-0.22158102758084477,0.2107210535390488,0.6960959893943254,-0.014719664561217786
7874,5.0,300.15538,2004.4354,0.0,0.0,0.0,0.0,0.07847865866300514,0.0,-0.18613640424273284,-0.17671468805538182,-0.2464472388149488,0.15493478596337285,0.6596092991233693,-0.02265183622706218
7875,5.0,299.33754,1879.9747,0.0,0.0,0.0,0.0,0.07848862547258897,0.0,-0.16354756380088784,-0.14372594991214685,-0.26419184198620477,0.15635998302402884,0.6625549792840854,-0.04510742820125655
7876,5.0,299.65495,1814.8818,0.0,0.0,0.0,0.0,0.0784985922821728,0.0,-0.13417817527985487,-0.16718425013230084,-0.2503163343217988,0.15291774951930684,0.6547029901516543,-0.05973002340289435
7877,5.0,299.28735,1621.6678,0.0,0.0,0.0,0.0,0.07850855909175661,0.0,-0.12595828516861488,-0.14401270982294787,-0.2229755332959718,0.16098179163266585,0.6526935936133424,-0.06433986958085074
7878,5.0,299.45902,1740.4251,0.0,0.0,0.0,0.0,0.07851852590134044,0.0,-0.16442920284539883,-0.14269381283028285,-0.22192274617706984,0.16822406764992281,0.6596645415188214,-0.07970945707421093
7879,5.0,299.99528,1824.3513,0.0,0.0,0.0,0.0,0.07852849271092426,0.0,-0.17283405162989282,-0.14933215125793586,-0.23239104839271077,0.15960869589215185,0.6693621555759013,-0.05135711935430305
7880,5.0,300.06612,1690.6843,0.0,0.0,0.0,0.0,0.07853845952050809,0.0,-0.13410036780467588,-0.14857415912312785,-0.23125127375272375,0.1900495761289328,0.7199118250447654,-0.045680932824107054
7881,5.0,300.90687,1465.4493,0.0,0.0,0.0,0.0,0.0785484263300919,0.0,-0.1078761683890489,-0.11082352041242989,-0.2267602959969988,0.14604885616389987,0.7036178312466733,-0.017847613216172283
7882,5.0,300.38307000000003,1588.1919,0.0,0.0,0.0,0.0,0.07855839313967572,0.0,-0.11744837248125188,-0.14750340707995285,-0.2178188907545508,0.14924980442230887,0.6906767225594853,-0.06030501142389124
7883,5.0,299.62507,1984.1889999999999,0.0,0.0,0.0,0.0,0.07856835994925955,0.0,-0.2070605254327828,-0.16521743036319084,-0.2308659448721948,0.14939826582696084,0.6594763201802454,-0.019168663365299782
7884,5.0,299.30616000000003,2009.4982,0.0,0.0,0.0,0.0,0.07857832675884335,0.0,-0.23517336223980376,-0.16480552393253883,-0.2108583995901038,0.17969238691925782,0.6691970464721063,-0.03167058892914377
7885,5.0,299.0834,1738.2664,0.0,0.0,0.0,0.0,0.07858829356842718,0.0,-0.16606833753216882,-0.16033351421868586,-0.20198771920463582,0.18633263025709884,0.6673808361978604,-0.017419329624153983
7886,5.0,299.41697999999997,1629.7752,0.0,0.0,0.0,0.0,0.07859826037801101,0.0,-0.13148937428449087,-0.12381741942982788,-0.24010415133393478,0.18159200794173583,0.6652298784880774,-0.049493274166355856
7887,5.0,299.80072,1828.2160000000001,0.0,0.0,0.0,0.0,0.07860822718759482,0.0,-0.15496275166613285,-0.14100160410327486,-0.25976764754457077,0.16314959969161186,0.7053296564956174,-0.04051314959783656
7888,5.0,299.96612000000005,1795.4243,0.0,0.0,0.0,0.0,0.07861819399717865,0.0,-0.16121752426843086,-0.14049132122041388,-0.24405529983388277,0.17746221331665682,0.6837469632705714,-0.03718774180314436
7889,5.0,300.01462999999995,1710.0226,0.0,0.0,0.0,0.0,0.07862816080676246,0.0,-0.18690930128651181,-0.12712672465393088,-0.2057681249302328,0.17407021675189283,0.6991139953471794,-0.041479485204956465
7890,5.0,300.87471,1611.4699,0.0,0.0,0.0,0.0,0.0786381276163463,0.0,-0.1793754017579738,-0.1301643268637189,-0.18030687244240282,0.16912191869603382,0.6472254171961753,-0.044137951518826664
7891,5.0,300.26162,1518.2909,0.0,0.0,0.0,0.0,0.07864809442593011,0.0,-0.1317184296020969,-0.14726979213689684,-0.18253429000473181,0.18499341759992882,0.6457958428950873,-0.055067153847204946
7892,5.0,299.79906,1783.7439,0.0,0.0,0.0,0.0,0.07865806123551393,0.0,-0.12515986435481688,-0.17012516801754685,-0.24692857314245276,0.16123218599737785,0.6903216493269424,-0.05470349534656465
7893,5.0,299.47328999999996,1896.6712,0.0,0.0,0.0,0.0,0.07866802804509776,0.0,-0.14531758343422888,-0.17398235783572183,-0.25724073351768373,0.14645965815194287,0.6940197082169124,-0.06140064382327174
7894,5.0,299.73276,1637.233,0.0,0.0,0.0,0.0,0.07867799485468156,0.0,-0.12123896137035388,-0.17436247861073684,-0.2020765204433998,0.14218923454548488,0.7152840686580413,-0.06862763901577064
7895,5.0,300.27328,1528.4608,0.0,0.0,0.0,0.0,0.0786879616642654,0.0,-0.15083985727423488,-0.15452658802808686,-0.15924746209900084,0.13436052990035188,0.6865096301982254,-0.06020162850293814
7896,5.0,299.7349,1738.7014,0.0,0.0,0.0,0.0,0.07869792847384922,0.0,-0.18070113818881384,-0.15142188839667686,-0.19639877350804982,0.18732680085771583,0.6814823188995683,-0.03251639235736807
7897,5.0,299.15679,1796.9832,0.0,0.0,0.0,0.0,0.07870789528343303,0.0,-0.17257826677464883,-0.15913895314579185,-0.21452078194405277,0.17415174285493884,0.6505637520356434,-0.043222124402691554
7898,5.0,299.43976000000004,1759.1236,0.0,0.0,0.0,0.0,0.07871786209301686,0.0,-0.11247409469282889,-0.15772206473595585,-0.2645334795224218,0.16241832696194083,0.6518387449014754,-0.05457714407234474
7899,5.0,298.66184,1719.9504,0.0,0.0,0.0,0.0,0.07872782890260067,0.0,-0.14068314972934587,-0.15426422717969385,-0.22787459752947178,0.17578596327872384,0.6567284467040514,-0.03348405532211897
7900,5.0,298.84442,1728.6073,0.0,0.0,0.0,0.0,0.0787377957121845,0.0,-0.15529556379397885,-0.13783730510098288,-0.23232059711325778,0.17410971324079083,0.7267515469297934,-0.023160514121764775
7901,5.0,298.60081,1752.4388,0.0,0.0,0.0,0.0,0.07874776252176832,0.0,-0.21820533421018978,-0.12784149153947288,-0.18665082118600182,0.2039349832468158,0.7112749217223693,-0.026092978461426476
7902,5.0,298.83195,1754.5508,0.0,0.0,0.0,0.0,0.07875772933135214,0.0,-0.1949063169057558,-0.14300971381395985,-0.1954236114793088,0.16241975564458186,0.6791524212221254,-0.05389945504771204
7903,5.0,299.43405,1773.6051,0.0,0.0,0.0,0.0,0.07876769614093597,0.0,-0.17601794688911884,-0.15188877377775487,-0.21122495294627977,0.17216490126385284,0.6641266619116983,-0.04679153396721486
7904,5.0,300.16842,1699.5029,0.0,0.0,0.0,0.0,0.07877766295051977,0.0,-0.11720811061753988,-0.16063370982581285,-0.23876461443673277,0.14444684696079388,0.6862951150195543,-0.04414130841640796
7905,5.0,299.64082,1754.332,0.0,0.0,0.0,0.0,0.0787876297601036,0.0,-0.13710469488117985,-0.15415215158613285,-0.24201626573014576,0.16121842606101985,0.7046411935826713,-0.05191962008106755
7906,5.0,300.66726,1967.2064,0.0,0.0,0.0,0.0,0.07879759656968743,0.0,-0.17196047805617784,-0.16694171858836482,-0.25907941767914777,0.13819423258120886,0.7020668898486073,-0.025379621006773576
7907,5.0,300.78656,1844.651,0.0,0.0,0.0,0.0,0.07880756337927124,0.0,-0.20923694611757881,-0.14654220763758985,-0.2049486994418618,0.14970873579010185,0.6976724950924144,-0.02772667503490977
7908,5.0,300.24289,1660.4611,0.0,0.0,0.0,0.0,0.07881753018885507,0.0,-0.16738360708947583,-0.1120700308179509,-0.2252850747789058,0.17594344260926584,0.7139847375248074,-0.006128576659318425
7909,5.0,299.64324,1772.1526,0.0,0.0,0.0,0.0,0.07882749699843888,0.0,-0.15697018249925085,-0.14575361534976186,-0.23596634190056479,0.1886460119579118,0.6557992963623513,-0.059107210990427546
7910,5.0,299.75569,1819.2569,0.0,0.0,0.0,0.0,0.07883746380802271,0.0,-0.12425082702760187,-0.18301801560247183,-0.2457398281251328,0.20663870941615278,0.6402533040530815,-0.05795570291428254
7911,5.0,299.21513,1639.3215,0.0,0.0,0.0,0.0,0.07884743061760653,0.0,-0.11652203897482988,-0.16202546963316886,-0.21976530366664676,0.18244735314615182,0.6298716043234873,-0.07552000532299423
7912,5.0,299.346,1763.6434,0.0,0.0,0.0,0.0,0.07885739742719035,0.0,-0.16645429462775985,-0.17486261886009685,-0.19478665206894583,0.17197878748548484,0.6984601957201544,-0.05940386934145544
7913,5.0,298.90281,1758.5027,0.0,0.0,0.0,0.0,0.07886736423677418,0.0,-0.2029775125648208,-0.15067411995537786,-0.18088928859988282,0.14782304695649884,0.6771538360623803,-0.06306659012093785
7914,5.0,298.83023,1674.8163,0.0,0.0,0.0,0.0,0.07887733104635798,0.0,-0.14632511880366486,-0.16752545197097485,-0.1952517642623488,0.15723849112573085,0.6949480479585323,-0.07472702566223323
7915,5.0,300.44847999999996,1760.6176,0.0,0.0,0.0,0.0,0.07888729785594181,0.0,-0.14933551524826785,-0.14597359194647186,-0.23987468058378777,0.13012957238528888,0.6728778497128733,-0.02695107767961427
7916,5.0,301.20963,1895.0387,0.0,0.0,0.0,0.0,0.07889726466552563,0.0,-0.14216591966068387,-0.14929155032642885,-0.28458698582904873,0.16976242448174683,0.7058541350123794,-0.03344119990913947
7917,5.0,300.63197,1825.4376,0.0,0.0,0.0,0.0,0.07890723147510945,0.0,-0.14099759163287887,-0.15299594202952385,-0.2608939256932257,0.18341206856636183,0.6876001912808554,-0.007459195233115254
7918,5.0,300.32422,1801.4134,0.0,0.0,0.0,0.0,0.07891719828469326,0.0,-0.17175515305591385,-0.14051470703272187,-0.23531484235126676,0.17568638105889584,0.6961831694329293,-0.023786886081832877
7919,5.0,300.49602000000004,1909.9873,0.0,0.0,0.0,0.0,0.0789271650942771,0.0,-0.2179517278426608,-0.14017403208409987,-0.2224626868903578,0.18217312713908781,0.6799963673629164,-0.008011814339604512
7920,5.0,299.645,1882.0016,0.0,0.0,0.0,0.0,0.07893713190386092,0.0,-0.17343136256384284,-0.14857557767326787,-0.25007455258293676,0.15398698168733185,0.7062418146331403,-0.043909069466987756
7921,5.0,299.53422,1791.4719,0.0,0.0,0.0,0.0,0.07894709871344473,0.0,-0.16409302672722084,-0.14862774992091685,-0.23184194789851878,0.16824993592497584,0.6657154178034963,-0.058026229174242945
7922,5.0,299.46288,1705.4694,0.0,0.0,0.0,0.0,0.07895706552302856,0.0,-0.1117866247649809,-0.16268057635282285,-0.24395292104377878,0.16438458944349585,0.6448415335534045,-0.06990476274656293
7923,5.0,299.96411,1738.4423,0.0,0.0,0.0,0.0,0.07896703233261237,0.0,-0.13572837700534787,-0.16497356132912283,-0.22774112209379876,0.18189784735191983,0.6496656274120054,-0.05862529607061624
7924,5.0,300.07465,1672.7999,0.0,0.0,0.0,0.0,0.07897699914219619,0.0,-0.16083442453812186,-0.13655455073938486,-0.2111004346414908,0.17462628840677283,0.7022654767357064,-0.03354766615014687
7925,5.0,299.92712,1838.2189,0.0,0.0,0.0,0.0,0.07898696595178001,0.0,-0.2062983485750618,-0.16769706614041183,-0.18477724069109383,0.15149676757906685,0.6901201645445573,-0.05124462326195055
7926,5.0,299.88296,1888.835,0.0,0.0,0.0,0.0,0.07899693276136384,0.0,-0.15962327656109085,-0.17660396008445384,-0.2379314290120038,0.13709705497542587,0.7167415174693803,-0.04303740485646116
7927,5.0,299.91387000000003,1775.1246,0.0,0.0,0.0,0.0,0.07900689957094764,0.0,-0.13296545676516888,-0.16752084168301987,-0.23910725509054878,0.16478822775333185,0.7191235569969693,-0.05144595707007065
7928,5.0,300.26205,1823.7686,0.0,0.0,0.0,0.0,0.07901686638053147,0.0,-0.1079885986201449,-0.17775965288351184,-0.2686318633944007,0.16469481622661283,0.7035367408411703,-0.05382675232653685
7929,5.0,299.86552,1861.0895,0.0,0.0,0.0,0.0,0.07902683319011529,0.0,-0.15195333807412686,-0.16921096311482184,-0.24456044553873676,0.15759501330591685,0.6637588217278954,-0.04721868677212155
7930,5.0,300.00896,1642.7485,0.0,0.0,0.0,0.0,0.0790367999996991,0.0,-0.12496904909598489,-0.17242950139496682,-0.20195598421150382,0.14233667256753588,0.6550516697760664,-0.07073628644112794
7931,5.0,300.48581,1628.8865,0.0,0.0,0.0,0.0,0.07904676680928294,0.0,-0.18518381742621984,-0.12546399137233186,-0.18449301390554282,0.18305708652632782,0.6639438310636544,-0.05794272723350194
7932,5.0,300.66446,1900.1219,0.0,0.0,0.0,0.0,0.07905673361886675,0.0,-0.17781304103128082,-0.16355688570180785,-0.23621969495556877,0.17933514533150083,0.7065565503792023,-0.047872097311108155
7933,5.0,300.82137,1746.9218,0.0,0.0,0.0,0.0,0.07906670042845058,0.0,-0.15545422862713784,-0.14214127741825186,-0.23342509038476275,0.1996770530140908,0.7065638052499184,-0.031934689527958464
7934,5.0,301.96089,1811.0908,0.0,0.0,0.0,0.0,0.07907666723803439,0.0,-0.1125415163544829,-0.16582000006515984,-0.27216487397558176,0.15598482717450385,0.7034470783398213,-0.043578943465156866
7935,5.0,301.3678,2014.4016,0.0,0.0,0.0,0.0,0.07908663404761822,0.0,-0.19422012367303382,-0.16363570642708683,-0.25447194655942573,0.2046998756148048,0.6962941912463864,-0.02144580009678568
7936,5.0,300.64926,2006.5544,0.0,0.0,0.0,0.0,0.07909660085720205,0.0,-0.2139837087285478,-0.14796753642075886,-0.24799117865482376,0.16845214011493184,0.6804736284250184,-0.01014884371086289
7937,5.0,300.74899,1884.2636,0.0,0.0,0.0,0.0,0.07910656766678585,0.0,-0.2238082323606528,-0.14177186669679387,-0.2071890055454628,0.15679861899231884,0.6571415892998254,-0.032049446181284066
7938,5.0,299.97872,1673.6779,0.0,0.0,0.0,0.0,0.07911653447636968,0.0,-0.13522120480029387,-0.16389765184293884,-0.20963744335210482,0.1170582813252529,0.6747986071324373,-0.037538520881763564
7939,5.0,298.97898,1538.904,0.0,0.0,0.0,0.0,0.0791265012859535,0.0,-0.1040236496538349,-0.14299200220221187,-0.2207727174460708,0.16711569363053483,0.7054649152514664,-0.04590133903885946
7940,5.0,300.51589,1601.4634,0.0,0.0,0.0,0.0,0.07913646809553732,0.0,-0.1059490680238589,-0.14385984078036088,-0.23699596612218077,0.18442194454352884,0.7171410521163113,-0.04735687382075955
7941,5.0,299.7243,1655.7203,0.0,0.0,0.0,0.0,0.07914643490512115,0.0,-0.17490273343155585,-0.1341936476088819,-0.19420123669116984,0.17271432599807685,0.6911472252434203,-0.06404691567218844
7942,5.0,300.2137,1707.5172,0.0,0.0,0.0,0.0,0.07915640171470496,0.0,-0.1771939350876798,-0.14430241829153986,-0.1975462285837948,0.16629060407410484,0.6527081540172794,-0.05772110309212935
7943,5.0,300.31999,1650.1027,0.0,0.0,0.0,0.0,0.0791663685242888,0.0,-0.17052483438699084,-0.15762640379401485,-0.17343878968707582,0.18255977324474681,0.6819219478529563,-0.06002642844139724
7944,5.0,300.7481,1902.0962,0.0,0.0,0.0,0.0,0.0791763353338726,0.0,-0.15415946725185486,-0.16622234141486783,-0.25780796105616477,0.19092053551738983,0.6998263304324813,-0.03955971671749006
7945,5.0,300.13591,2078.6514,0.0,0.0,0.0,0.0,0.07918630214345643,0.0,-0.1900137070753928,-0.16502845921954085,-0.27681596551210874,0.16278404945303485,0.6887049277323843,-0.03445674806036626
7946,5.0,301.39375,1986.4589,0.0,0.0,0.0,0.0,0.07919626895304026,0.0,-0.13223678808825487,-0.19336843630147882,-0.2782286793315327,0.13815091613943387,0.7004864020776254,-0.04675395556075616
7947,5.0,299.88142,1726.0656,0.0,0.0,0.0,0.0,0.07920623576262406,0.0,-0.15617253175552884,-0.15599119038513187,-0.2125171406663088,0.13783305958306385,0.7180114136872092,-0.02721284071044827
7948,5.0,300.90542,1741.4444,0.0,0.0,0.0,0.0,0.07921620257220789,0.0,-0.16401034551906082,-0.15825235930829185,-0.2070929291709808,0.1871433417946098,0.6800118295594424,-0.04955891757408436
7949,5.0,300.9169,1735.8327,0.0,0.0,0.0,0.0,0.07922616938179171,0.0,-0.19327968572521984,-0.14412431932146288,-0.1902457920107978,0.17162145470521883,0.6458227142877394,-0.045167828039717556
7950,5.0,300.42829,1638.8822,0.0,0.0,0.0,0.0,0.07923613619137553,0.0,-0.11302001358170688,-0.15664572968472984,-0.22851353277752975,0.17973277506824384,0.6401677553471383,-0.07757661830271613
7951,5.0,300.31985,1601.4524,0.0,0.0,0.0,0.0,0.07924610300095936,0.0,-0.12435926505330389,-0.14248973412764188,-0.2199525421526258,0.18123110852111782,0.6961363066158044,-0.030502192000331975
7952,5.0,300.16303999999997,1615.037,0.0,0.0,0.0,0.0,0.07925606981054317,0.0,-0.12976153968396686,-0.13318246453908586,-0.22798691630305676,0.17617868888498284,0.7271873660628053,-0.05155479634281225
7953,5.0,299.76003,1894.5371,0.0,0.0,0.0,0.0,0.079266036620127,0.0,-0.22686887587771476,-0.13307614420609287,-0.2159469415923038,0.16052581895516485,0.7006805610617873,-0.031731528829908075
7954,5.0,299.3464,2121.5375,0.0,0.0,0.0,0.0,0.0792760034297108,0.0,-0.23904309609421676,-0.16416763233208384,-0.2416836866498228,0.16143643695253584,0.6713196635765923,-0.05677562929131835
7955,5.0,298.84342999999996,1915.4933,0.0,0.0,0.0,0.0,0.07928597023929464,0.0,-0.20853173418047977,-0.14838946389489985,-0.2253409453894198,0.16058700912870386,0.7002060357749553,-0.028591350246246573
7956,5.0,299.89541,1639.0222,0.0,0.0,0.0,0.0,0.07929593704887847,0.0,-0.1022106513824059,-0.14519349069448187,-0.25081768033877777,0.1792614820492308,0.6676405524634923,-0.04127194321347366
7957,5.0,300.73896,1665.0538,0.0,0.0,0.0,0.0,0.07930590385846227,0.0,-0.12672934822971288,-0.14019573590124187,-0.23920969467565878,0.17796626471140284,0.6805580726883523,-0.03662379618173726
7958,5.0,300.00612,1632.0817,0.0,0.0,0.0,0.0,0.0793158706680461,0.0,-0.1278037479732479,-0.14008862523317087,-0.2282197105135318,0.15426168392194287,0.6601728384314863,-0.04205896496364666
7959,5.0,300.82144,1536.0602,0.0,0.0,0.0,0.0,0.07932583747762992,0.0,-0.15034937329832784,-0.13797980859504685,-0.17859477361593185,0.17522189708055483,0.7332024948839523,-0.05389658045717836
7960,5.0,301.30414,1479.3975,0.0,0.0,0.0,0.0,0.07933580428721373,0.0,-0.13681497628008688,-0.14626038225477586,-0.16662454090956186,0.15723325262271387,0.7145690788574773,-0.06418555564362115
7961,5.0,300.40436,1762.8821,0.0,0.0,0.0,0.0,0.07934577109679757,0.0,-0.18223275690747281,-0.17086650232071082,-0.18277286987327782,0.15793326658679985,0.6866303893451433,-0.08886020789331972
7962,5.0,300.34794,2019.2906,0.0,0.0,0.0,0.0,0.07935573790638138,0.0,-0.16140485394691884,-0.1899158473807348,-0.26249321938606374,0.16225373461569684,0.6255069788552324,-0.08375100065533023
7963,5.0,299.47906,1999.7768,0.0,0.0,0.0,0.0,0.07936570471596521,0.0,-0.17734040038963483,-0.16745839507935684,-0.2630834274368128,0.19200896877480983,0.6878762107405963,-0.04943336372769316
7964,5.0,299.96963,1937.779,0.0,0.0,0.0,0.0,0.07937567152554902,0.0,-0.16281014064310986,-0.15419234721759986,-0.2720339316651587,0.20293266611539482,0.6947003083090824,-0.015303543851842186
7965,5.0,300.16413,1879.3085,0.0,0.0,0.0,0.0,0.07938563833513285,0.0,-0.2088205509889838,-0.12186278905942088,-0.24057953788335176,0.18062971418926482,0.7000533389848853,-0.01143481412827829
7966,5.0,299.45502999999997,1800.5911,0.0,0.0,0.0,0.0,0.07939560514471668,0.0,-0.17405577793796784,-0.15094682608729185,-0.22233211948247178,0.16881206681545383,0.6827856827682003,-0.04655760390337776
7967,5.0,298.83895,1786.3644,0.0,0.0,0.0,0.0,0.07940557195430048,0.0,-0.16894137779321583,-0.14624449449320787,-0.2278242997945078,0.17177861992822982,0.7151685986766453,-0.03355854541647057
7968,5.0,299.67863,1705.7975,0.0,0.0,0.0,0.0,0.07941553876388431,0.0,-0.11071505198922489,-0.16476899626643385,-0.2430357878482648,0.16047508552265782,0.6917117068741303,-0.06363727790851034
7969,5.0,300.46043,1637.5452,0.0,0.0,0.0,0.0,0.07942550557346813,0.0,-0.13790249761241688,-0.15441416792949186,-0.2054561958869478,0.13362511297777188,0.6599581813978014,-0.040583845070563666
7970,5.0,300.40481,1676.6841,0.0,0.0,0.0,0.0,0.07943547238305194,0.0,-0.13869401819303387,-0.15925196092944485,-0.21172413060804482,0.14606902997339086,0.6443493371848283,-0.07567360795865363
7971,5.0,300.74323,1883.4625,0.0,0.0,0.0,0.0,0.07944543919263578,0.0,-0.21804538254940378,-0.13797197617177387,-0.21650821122019678,0.18041762067833284,0.7171524207824334,-0.028946280610525472
7972,5.0,301.21314,1947.8555,0.0,0.0,0.0,0.0,0.07945540600221959,0.0,-0.16983700982160785,-0.16297555372193484,-0.25928687050462174,0.19220068582623082,0.7195425460458202,-0.03534579193660807
7973,5.0,301.07696,1966.8476,0.0,0.0,0.0,0.0,0.07946537281180342,0.0,-0.2082848963236188,-0.16383876174712686,-0.22574890014468177,0.17375823704610285,0.6963369807981094,-0.03812165340706426
7974,5.0,300.96142000000003,1942.1652,0.0,0.0,0.0,0.0,0.07947533962138723,0.0,-0.13349879108780488,-0.18282600470852184,-0.27404492913862877,0.18345700620829683,0.6367855467783404,-0.03996210366345256
7975,5.0,300.24098,1702.6795,0.0,0.0,0.0,0.0,0.07948530643097106,0.0,-0.15621540236725986,-0.13211250283098888,-0.2292441468946358,0.18756278680600583,0.6936831166661933,-0.046748042233172554
7976,5.0,300.19892000000004,1747.039,0.0,0.0,0.0,0.0,0.07949527324055489,0.0,-0.1322519767072539,-0.15048186588140386,-0.2483223898475118,0.1986236478126278,0.6959134321238083,-0.03965181101907907
7977,5.0,300.44937999999996,1949.0806,0.0,0.0,0.0,0.0,0.07950524005013869,0.0,-0.22864455614796078,-0.16563956048735184,-0.1981877172221048,0.14406134582774785,0.7027109217446683,-0.04665486375397655
7978,5.0,299.86095,1740.1025,0.0,0.0,0.0,0.0,0.07951520685972252,0.0,-0.13504817208071687,-0.18618646893017382,-0.20771306862968383,0.13130216619601487,0.6980397273261573,-0.08906502728178382
7979,5.0,299.4732,1556.3132,0.0,0.0,0.0,0.0,0.07952517366930634,0.0,-0.12267778664485489,-0.14601033239509786,-0.2043922326194428,0.12383212168877887,0.7381589293381142,-0.05756873459509174
7980,5.0,300.61876,1752.9664,0.0,0.0,0.0,0.0,0.07953514047889015,0.0,-0.11676890722919389,-0.16479430725393185,-0.25129478941336475,0.1984836065163068,0.7185001346079423,-0.05707832255994185
7981,5.0,300.04263,1951.2579999999998,0.0,0.0,0.0,0.0,0.07954510728847398,0.0,-0.17858814696027783,-0.14769273286113788,-0.26685281913382275,0.16722001786083085,0.6888879409654464,-0.011681521275876388
7982,5.0,299.6395,1897.0735,0.0,0.0,0.0,0.0,0.0795550740980578,0.0,-0.17014972919997084,-0.1847265275235888,-0.22178669708614282,0.18313365783638483,0.6349839475705364,-0.061001445575373944
7983,5.0,300.0908,1857.2376,0.0,0.0,0.0,0.0,0.07956504090764163,0.0,-0.2214689317222818,-0.13385881911333686,-0.2092261144740098,0.17132671038362982,0.6761856249293253,0.01067872994340859
7984,5.0,298.7632,1815.1202,0.0,0.0,0.0,0.0,0.07957500771722543,0.0,-0.14353780963357887,-0.14902201566732787,-0.25919138181519774,0.17866800120065884,0.7105371135295533,-0.028397177076583176
7985,5.0,298.06369,1872.7133,0.0,0.0,0.0,0.0,0.07958497452680927,0.0,-0.16568696032702984,-0.15106455561641086,-0.25250655547295675,0.16132092644113583,0.6796022130740164,-0.02047796082651738
7986,5.0,299.33878,1964.6611,0.0,0.0,0.0,0.0,0.0795949413363931,0.0,-0.15410064808354987,-0.16988993187433082,-0.27321733685445176,0.15446696839220284,0.6496098378614994,-0.06938010995078374
7987,5.0,299.95341,1742.1589999999999,0.0,0.0,0.0,0.0,0.0796049081459769,0.0,-0.18594251883609783,-0.13315615043398887,-0.21047415488718177,0.18007927620494082,0.6954702061325653,-0.03145990788885117
7988,5.0,299.96692,1418.9211,0.0,0.0,0.0,0.0,0.07961487495556073,0.0,-0.14008233295004988,-0.13251202734541886,-0.15872223377716485,0.21913267083421079,0.6873622294948704,-0.08571908800031532
7989,5.0,300.33442,1656.3317,0.0,0.0,0.0,0.0,0.07962484176514455,0.0,-0.2039223986805738,-0.13301296806235788,-0.16654812158701987,0.18603876746309683,0.6830556024623394,-0.06479446626471594
7990,5.0,300.22956,1895.6172,0.0,0.0,0.0,0.0,0.07963480857472836,0.0,-0.14452175654068686,-0.18743801518869183,-0.24426053364163774,0.14729588332697185,0.6720089472221193,-0.08703192170438193
7991,5.0,300.43507999999997,1768.5632,0.0,0.0,0.0,0.0,0.0796447753843122,0.0,-0.12313018254950288,-0.15772823542906486,-0.25674064393082874,0.13064514443367187,0.7248017396298623,-0.043587104181462256
7992,5.0,300.19649,1531.2919,0.0,0.0,0.0,0.0,0.07965474219389601,0.0,-0.08419772641241861,-0.1170165860836379,-0.26426017557294873,0.12109053036320488,0.7617895935327793,-0.018418328361497482
7993,5.0,299.74183999999997,1686.7013,0.0,0.0,0.0,0.0,0.07966470900347984,0.0,-0.14836465953245187,-0.14438515016220485,-0.2199652787063828,0.14822509446367785,0.7063820991094854,-0.013443539895024089
7994,5.0,298.70937000000004,1867.7467,0.0,0.0,0.0,0.0,0.07967467581306364,0.0,-0.19091376700672183,-0.14371614165117885,-0.23311846063950079,0.16240416172554284,0.6510585017944713,-0.024522690065951078
7995,5.0,299.23897,1889.8023,0.0,0.0,0.0,0.0,0.07968464262264748,0.0,-0.2164651683559488,-0.16047463969261386,-0.19751291292050682,0.1920664200554798,0.6780328406566314,-0.05057711740082286
7996,5.0,299.35466,1776.8934,0.0,0.0,0.0,0.0,0.0796946094322313,0.0,-0.14505804955361487,-0.14868665014922983,-0.24638653500145774,0.19752233614643683,0.6922138634911894,-0.054599416322792846
7997,5.0,299.3779,1747.9955,0.0,0.0,0.0,0.0,0.07970457624181511,0.0,-0.14425322499918486,-0.13153119111611786,-0.25556256843706177,0.17421111931079883,0.6739042821966743,-0.054616887794267155
7998,5.0,300.35447,1853.1885,0.0,0.0,0.0,0.0,0.07971454305139894,0.0,-0.13439973254672088,-0.17593034128547283,-0.25299296618346173,0.17020549848547484,0.6664037388614283,-0.05936451774732174
7999,5.0,300.55637,1903.1555,0.0,0.0,0.0,0.0,0.07972450986098276,0.0,-0.2054438545007298,-0.13699770580312087,-0.23607017977081277,0.19136757132900883,0.7073546165554653,-0.028186684500809175
8000,5.0,300.86582000000004,1855.7751,0.0,0.0,0.0,0.0,0.07973447667056659,0.0,-0.1893579417431738,-0.15243651651681286,-0.22231483343576577,0.19278414563131382,0.7149419751592794,-0.03243787662036917
8001,5.0,300.51583999999997,1726.7384,0.0,0.0,0.0,0.0,0.0797444434801504,0.0,-0.19726573055861182,-0.17029849457965285,-0.15732112167138584,0.16266185149097484,0.6736861699801484,-0.04150707296542916
8002,5.0,299.83644,1828.4165,0.0,0.0,0.0,0.0,0.07975441028973422,0.0,-0.13589118603141587,-0.17142614061594283,-0.24847562366013476,0.13459070992556887,0.6507075322248334,-0.06114965670725124
8003,5.0,299.31175,2022.2624,0.0,0.0,0.0,0.0,0.07976437709931805,0.0,-0.17793733642104784,-0.17401703125414383,-0.2627628959001787,0.16202116332024386,0.7103154853351803,-0.022731023748877376
8004,5.0,299.68092,1795.6777,0.0,0.0,0.0,0.0,0.07977434390890185,0.0,-0.12250848268564588,-0.14417074644104486,-0.2791619637336407,0.16661432734855383,0.7609334985232893,-0.025220934895362476
8005,5.0,298.97991,1641.1096,0.0,0.0,0.0,0.0,0.07978431071848568,0.0,-0.16976126937663283,-0.12283097992747388,-0.2062640804566798,0.14853031579130085,0.7172102672306423,-0.043211109360854455
8006,5.0,299.59504,1779.6773,0.0,0.0,0.0,0.0,0.07979427752806952,0.0,-0.15995919936674385,-0.17425517542514682,-0.20676307573342678,0.16506770239591384,0.6736733928963873,-0.07227970344395133
8007,5.0,299.58193,1680.2799,0.0,0.0,0.0,0.0,0.07980424433765332,0.0,-0.19193841617034682,-0.14892560492031287,-0.16989911192023682,0.19625930976428582,0.6746790436206374,-0.07936534416799963
8008,5.0,299.866,1699.0156,0.0,0.0,0.0,0.0,0.07981421114723715,0.0,-0.12302186611381288,-0.16955111117339183,-0.2238853305607618,0.2183094051279608,0.6921823919430833,-0.08838433194410442
8009,5.0,299.53123,1749.8415,0.0,0.0,0.0,0.0,0.07982417795682097,0.0,-0.17250617403003385,-0.16085157886231485,-0.19855036956539582,0.17911997154026482,0.6561164841736554,-0.07564173617675814
8010,5.0,299.03077,1566.5338,0.0,0.0,0.0,0.0,0.0798341447664048,0.0,-0.1079348457023399,-0.16289318662130584,-0.2053591163948668,0.16170223271876785,0.6713101795556564,-0.052116708371268645
8011,5.0,299.13149,1526.6656,0.0,0.0,0.0,0.0,0.07984411157598861,0.0,-0.13700554835889486,-0.14363911437857688,-0.1834235486899948,0.16872707539706583,0.6958254820151283,-0.04363992490917526
8012,5.0,300.10367,1886.0813,0.0,0.0,0.0,0.0,0.07985407838557243,0.0,-0.17449916604922683,-0.16870776285015984,-0.23011469085055175,0.1887466074278398,0.7455340424434813,0.0005764171089379395
8013,5.0,300.18543,2040.3317,0.0,0.0,0.0,0.0,0.07986404519515626,0.0,-0.2074978745734458,-0.18022953106226983,-0.2324824739492338,0.17231484201365083,0.6940689217742693,-0.04103017768661326
8014,5.0,300.38446,1992.4089,0.0,0.0,0.0,0.0,0.07987401200474006,0.0,-0.16779314251489383,-0.18981025658781384,-0.24803915604705876,0.14604811649132687,0.6791461593365073,-0.053848911092973746
8015,5.0,300.25187,1883.8985,0.0,0.0,0.0,0.0,0.0798839788143239,0.0,-0.18350580433311284,-0.15280578538325687,-0.2363465133380848,0.14289111288975487,0.6916288432809523,-0.04456964165768116
8016,5.0,300.06512000000004,1866.4197,0.0,0.0,0.0,0.0,0.07989394562390773,0.0,-0.14984472408602287,-0.14931045757329486,-0.26818981277327375,0.17336648415993983,0.7349336326798023,-0.025455520532014275
8017,5.0,300.50477,1891.1905,0.0,0.0,0.0,0.0,0.07990391243349153,0.0,-0.1928399554468218,-0.15778633518979884,-0.22424838820409276,0.16192970736621784,0.6936753146404233,-0.05387801974184654
8018,5.0,299.7684,1896.9113,0.0,0.0,0.0,0.0,0.07991387924307536,0.0,-0.18468702090218983,-0.15950124071904687,-0.23242541783610277,0.14615761842963387,0.6930845898321234,-0.05874564789099404
8019,5.0,299.65711,1823.8151,0.0,0.0,0.0,0.0,0.07992384605265918,0.0,-0.17580423217802682,-0.16029531468991584,-0.2182947130015108,0.1925579375464888,0.6798929145277064,-0.05618429349320805
8020,5.0,298.77195,1429.7363,0.0,0.0,0.0,0.0,0.079933812862243,0.0,-0.0986068440034878,-0.12449153472135788,-0.21150576507899377,0.20603548110161882,0.6797061320042724,-0.03862297206629056
8021,5.0,298.64838,1368.6921,0.0,0.0,0.0,0.0,0.07994377967182681,0.0,-0.1137670524829339,-0.11516320979572389,-0.18711794974710383,0.2141720313921338,0.6372104329427734,-0.02118580924037658
8022,5.0,299.74979,1874.5827,0.0,0.0,0.0,0.0,0.07995374648141064,0.0,-0.15239630062034384,-0.16939864743084485,-0.24803139455129278,0.17265285211450984,0.6656923258337174,-0.04528931672670756
8023,5.0,299.79544,1943.1104,0.0,0.0,0.0,0.0,0.07996371329099447,0.0,-0.2075315651392708,-0.15621043744176988,-0.22691504968477177,0.15338041977996886,0.7024034915318272,-0.018050727304718083
8024,5.0,299.53499,1744.3902,0.0,0.0,0.0,0.0,0.07997368010057827,0.0,-0.14994971706138485,-0.16726448940771985,-0.2130368569076008,0.15107419162486185,0.7502249547089382,-0.06024852779706674
8025,5.0,299.91854,1982.2429,0.0,0.0,0.0,0.0,0.0799836469101621,0.0,-0.16297520921690084,-0.18090363622129882,-0.2586734894240858,0.15587792928895386,0.6957443612121224,-0.04925267995661105
8026,5.0,300.2453,2038.558,0.0,0.0,0.0,0.0,0.07999361371974592,0.0,-0.17173260824118883,-0.17851514229057283,-0.2694229786749778,0.14471733407498888,0.6914378152395994,-0.08363074104071151
8027,5.0,300.835,1816.9743,0.0,0.0,0.0,0.0,0.08000358052932974,0.0,-0.15663452313862386,-0.15999683147545785,-0.2356834627376468,0.16773261095391984,0.6822652167218344,-0.04776687635447365
8028,5.0,301.33686,1619.9486,0.0,0.0,0.0,0.0,0.08001354733891355,0.0,-0.13354803504266488,-0.1317932479894809,-0.22708264125131175,0.16267611805238286,0.7050242223854734,-0.045024347772557156
8029,5.0,300.44673,1457.7121,0.0,0.0,0.0,0.0,0.08002351414849738,0.0,-0.15548786853045787,-0.13026431438358688,-0.15735588628231686,0.19252841143857483,0.6677561642999024,-0.03319575729766617
8030,5.0,300.19514,1656.6037,0.0,0.0,0.0,0.0,0.08003348095808119,0.0,-0.14733899711872686,-0.16544829939847586,-0.1907788628884078,0.18335279343551183,0.7045922941328453,-0.045900188999995956
8031,5.0,299.85395,2026.181,0.0,0.0,0.0,0.0,0.08004344776766502,0.0,-0.17798511116326282,-0.17626119784062583,-0.26166211112403975,0.2111492732963108,0.7016058813181093,-0.026924967237787378
8032,5.0,299.24698,2016.4533,0.0,0.0,0.0,0.0,0.08005341457724884,0.0,-0.16535556674932383,-0.16933553208211585,-0.2782603535296588,0.1814447624372038,0.7083031706365803,-0.00032221832447297267
8033,5.0,299.51355,1909.7119,0.0,0.0,0.0,0.0,0.08006338138683265,0.0,-0.16263033941286484,-0.16118374251009684,-0.2566906704358968,0.17217804311764984,0.6501001901148934,-0.027640160701621473
8034,5.0,299.46002000000004,2075.2325,0.0,0.0,0.0,0.0,0.08007334819641648,0.0,-0.2005306452958338,-0.16619713175237982,-0.2640910945287618,0.15543715536295286,0.6502710240817534,-0.037867881879768965
8035,5.0,299.53111,2160.4215,0.0,0.0,0.0,0.0,0.0800833150060003,0.0,-0.25501790597830776,-0.17766943309460784,-0.22402685120222882,0.16676587916601085,0.6861544049781673,-0.034396692726939265
8036,5.0,300.43327999999997,1877.8283,0.0,0.0,0.0,0.0,0.08009328181558413,0.0,-0.17536417765959683,-0.14787234157386386,-0.24757640472638875,0.15318112361779984,0.7164305307486883,-0.05197877159540535
8037,5.0,300.23287999999997,1611.3407,0.0,0.0,0.0,0.0,0.08010324862516793,0.0,-0.13945931586106286,-0.15570803764468685,-0.19463999424947181,0.15386812745060185,0.7071127942865993,-0.06768097363284203
8038,5.0,299.99793,1566.7107,0.0,0.0,0.0,0.0,0.08011321543475176,0.0,-0.11965761233678687,-0.14024369302847486,-0.2163396266685588,0.15638493937399187,0.7209677228414744,-0.08088399328537862
8039,5.0,300.58763,1645.2581,0.0,0.0,0.0,0.0,0.08012318224433558,0.0,-0.14091837574006086,-0.14707001974718087,-0.21212897468549982,0.18493939110459684,0.6940267705701093,-0.06589534932611463
8040,5.0,300.4163,1757.4266,0.0,0.0,0.0,0.0,0.0801331490539194,0.0,-0.15041079651938985,-0.16777479255558284,-0.2160282245153258,0.18174060106890083,0.6900362573037764,-0.054119851129963446
8041,5.0,300.68057000000005,1924.9981,0.0,0.0,0.0,0.0,0.08014311586350323,0.0,-0.1944855850667328,-0.17617353144197384,-0.2144922386887358,0.15620808670153785,0.6524980566090444,-0.05281242818143086
8042,5.0,300.72146000000004,1987.0533,0.0,0.0,0.0,0.0,0.08015308267308704,0.0,-0.15706917703402085,-0.2006235400650018,-0.24632187951257678,0.18109050993724185,0.6852239982063434,-0.05628562255620845
8043,5.0,300.33682000000005,1860.1623,0.0,0.0,0.0,0.0,0.08016304948267088,0.0,-0.16151116414741085,-0.16022465062794186,-0.24370706603951478,0.18843838687992082,0.7177936662407193,-0.054383110731195144
8044,5.0,299.85794,1871.8229999999999,0.0,0.0,0.0,0.0,0.08017301629225468,0.0,-0.15585865727205186,-0.14418775891022387,-0.26894103639741374,0.1897122145081378,0.7389873423548723,-0.005003443685926445
8045,5.0,300.78471,1831.8521,0.0,0.0,0.0,0.0,0.08018298310183851,0.0,-0.15276733254196187,-0.14527789442781186,-0.25879209034829076,0.16243021238561384,0.6847449740890673,-0.05635375551943265
8046,5.0,300.33997999999997,1717.6753,0.0,0.0,0.0,0.0,0.08019294991142234,0.0,-0.14963560953038488,-0.14954085038103285,-0.22295392067133876,0.15277336138005684,0.6931934432903663,-0.033847380463476365
8047,5.0,300.15876000000003,1611.1681,0.0,0.0,0.0,0.0,0.08020291672100614,0.0,-0.18879830344794182,-0.12883301755732887,-0.17212354039477085,0.15858261804588586,0.6836121300797643,-0.07797681358871232
8048,5.0,299.17400000000004,1710.5276,0.0,0.0,0.0,0.0,0.08021288353058997,0.0,-0.16606237962158085,-0.1208412404411019,-0.2330540483306438,0.16642358301722884,0.6917257302555143,-0.03020265703227017
8049,5.0,300.42795,1780.1795,0.0,0.0,0.0,0.0,0.08022285034017379,0.0,-0.17992429960214584,-0.1372128390643529,-0.2239929782513858,0.14971751053596785,0.6992166477148103,-0.06670618853313824
8050,5.0,300.52991000000003,1929.0753,0.0,0.0,0.0,0.0,0.08023281714975761,0.0,-0.15219848380332085,-0.16152540031131585,-0.27266683807512176,0.16397489189806183,0.7091186647145633,-0.034244495469168565
8051,5.0,301.13841,2126.5168,0.0,0.0,0.0,0.0,0.08024278395934144,0.0,-0.17495674979438683,-0.18308431255651483,-0.28836695585710276,0.18042315302387882,0.7164516367482713,-0.03054525918258237
8052,5.0,301.5258,1988.8961,0.0,0.0,0.0,0.0,0.08025275076892525,0.0,-0.2061896775018368,-0.12875306199193787,-0.2696320020381067,0.2040957961701868,0.6952338554142393,-0.0026455082636413375
8053,5.0,301.27956,1866.6570000000002,0.0,0.0,0.0,0.0,0.08026271757850909,0.0,-0.17888671123474384,-0.17294811319364983,-0.2155822830138148,0.2016300317868348,0.6607835647967604,-0.039643560123514755
8054,5.0,300.53454,1849.3531,0.0,0.0,0.0,0.0,0.08027268438809289,0.0,-0.16088907924851584,-0.15826991893252484,-0.24299815573955078,0.18580077527960884,0.6748668697916743,-0.04511123700838246
8055,5.0,300.93664,1796.0084,0.0,0.0,0.0,0.0,0.08028265119767672,0.0,-0.17847775336188285,-0.14475705347890888,-0.2227069004294598,0.16741473413254784,0.7108435912873003,-0.03990676500924106
8056,5.0,299.44138,1624.1444,0.0,0.0,0.0,0.0,0.08029261800726055,0.0,-0.11739404201088988,-0.12980669010842288,-0.24649860046251776,0.13456289621032388,0.7186671587544263,-0.06017278532559154
8057,5.0,298.68836,1493.0108,0.0,0.0,0.0,0.0,0.08030258481684435,0.0,-0.11384941958356289,-0.11851048150107389,-0.22147810163568676,0.12409787692500689,0.7126821234612494,-0.06269727768473954
8058,5.0,299.5806,1745.8284,0.0,0.0,0.0,0.0,0.08031255162642818,0.0,-0.15674528150705486,-0.16387317172052285,-0.21006978703727383,0.14438246504943986,0.6912795962364844,-0.07555959097790102
8059,5.0,300.06637,1766.3267,0.0,0.0,0.0,0.0,0.080322518436012,0.0,-0.17178171034103484,-0.15241534972222387,-0.21272215155904178,0.14845821291418484,0.7042062357122444,-0.06976265745978823
8060,5.0,300.23887,1888.8482,0.0,0.0,0.0,0.0,0.08033248524559582,0.0,-0.18413557980026682,-0.16619055575923083,-0.2238365425684468,0.18011777970874082,0.6584100669675144,-0.03903483796693856
8061,5.0,301.01236,2012.8074,0.0,0.0,0.0,0.0,0.08034245205517965,0.0,-0.18423487831006682,-0.18378882535104482,-0.24381948613810978,0.1990612502658158,0.6712840782330803,-0.04241598768938206
8062,5.0,299.92124,1834.1661,0.0,0.0,0.0,0.0,0.08035241886476346,0.0,-0.13709925372814288,-0.16562768519617985,-0.2548137563481598,0.2153381606672218,0.6834101488048304,-0.05062606042040316
8063,5.0,300.07982999999996,1771.902,0.0,0.0,0.0,0.0,0.0803623856743473,0.0,-0.14173485267064087,-0.16527245997612183,-0.23160666109279776,0.19991220809729882,0.7438292086202273,-0.03352370278528187
8064,5.0,299.47541,1704.0555,0.0,0.0,0.0,0.0,0.0803723524839311,0.0,-0.1914045346926568,-0.1122493760856509,-0.2143364210883578,0.15674225188925586,0.7254376959226263,-0.011487343039962489
8065,5.0,299.77848,1682.4694,0.0,0.0,0.0,0.0,0.08038231929351493,0.0,-0.14720634241563485,-0.15059422518499285,-0.21362809847345182,0.15329990692702283,0.6948951968333164,-0.062426456198011536
8066,5.0,298.96097000000003,1738.9163,0.0,0.0,0.0,0.0,0.08039228610309876,0.0,-0.17951545318679582,-0.14763643668558185,-0.2014352344551098,0.17604624696441182,0.6655788519550184,-0.06368103511407884
8067,5.0,299.29332,1911.7341,0.0,0.0,0.0,0.0,0.08040225291268256,0.0,-0.15814536009773186,-0.16639492830440084,-0.25657913186488873,0.16626919409949184,0.7091771596428363,-0.06641485278488564
8068,5.0,300.02679,1865.7189,0.0,0.0,0.0,0.0,0.08041221972226639,0.0,-0.14345262569767187,-0.15401976032806686,-0.26965956244082673,0.15615494173379285,0.6755525766643484,-0.044262762652894555
8069,5.0,300.54963,1900.9215,0.0,0.0,0.0,0.0,0.08042218653185021,0.0,-0.15738214972490885,-0.18046073447008784,-0.23998980606014975,0.12694052981555487,0.7030056052712513,-0.03881158857240557
8070,5.0,300.25663,1885.73,0.0,0.0,0.0,0.0,0.08043215334143403,0.0,-0.17377664780041985,-0.16335467137935084,-0.23608351414212878,0.16151446734273683,0.7049902177121173,-0.030947933891573267
8071,5.0,300.5428,1875.2781,0.0,0.0,0.0,0.0,0.08044212015101786,0.0,-0.16182132000302085,-0.17702847134634983,-0.23118791522397078,0.17279158631820185,0.7297178872600483,-0.04252093709498976
8072,5.0,300.14481,1750.0503,0.0,0.0,0.0,0.0,0.08045208696060167,0.0,-0.16897175503121384,-0.16096044245305885,-0.2020394152247378,0.16567386913573784,0.6752873381856714,-0.03364667183066797
8073,5.0,300.61649,1777.9076,0.0,0.0,0.0,0.0,0.0804620537701855,0.0,-0.13350968352637987,-0.17726835830752483,-0.22966146408082178,0.16701362894796185,0.6599996942543984,-0.05488410616363955
8074,5.0,300.19316000000003,1819.7156,0.0,0.0,0.0,0.0,0.08047202057976931,0.0,-0.13332408650556288,-0.18817758643668184,-0.2316464311592228,0.1917449259312508,0.6570924365374744,-0.07381891748535993
8075,5.0,299.6494,1577.1846,0.0,0.0,0.0,0.0,0.08048198738935314,0.0,-0.14101432039202985,-0.12397770546314688,-0.21443271024536079,0.18886173290420183,0.7226044155955034,-0.06482307943428985
8076,5.0,299.56652,1556.1618,0.0,0.0,0.0,0.0,0.08049195419893697,0.0,-0.14255448080903185,-0.12855283363967687,-0.20192702552364583,0.18409861643661882,0.6945536808871113,-0.05205966644363905
8077,5.0,299.22935,1712.7552,0.0,0.0,0.0,0.0,0.08050192100852077,0.0,-0.16578680599188383,-0.12870809395249988,-0.2261399032257708,0.12647804193991088,0.7120725724660913,-0.06390598778202994
8078,5.0,299.884,1830.9659,0.0,0.0,0.0,0.0,0.0805118878181046,0.0,-0.18843464798705184,-0.14820584271177786,-0.21992741355014578,0.14581721705853887,0.7035233355423474,-0.03441393925689137
8079,5.0,300.52103999999997,1885.7396,0.0,0.0,0.0,0.0,0.08052185462768842,0.0,-0.14674594183519687,-0.17188831438405583,-0.2545834851304338,0.16159577053076085,0.7028634766797243,-0.030867085652844174
8080,5.0,299.62739,1886.3395,0.0,0.0,0.0,0.0,0.08053182143727224,0.0,-0.16151752735803887,-0.15019483239307588,-0.26168773621906877,0.17703712450220382,0.6750292633852013,0.00041702560320472257
8081,5.0,299.81361,1989.9521,0.0,0.0,0.0,0.0,0.08054178824685607,0.0,-0.19753350216253882,-0.18137482791530182,-0.22598740908572076,0.16749249094522184,0.6921827668456203,-0.01917396468982298
8082,5.0,300.30143,2038.0075,0.0,0.0,0.0,0.0,0.08055175505643988,0.0,-0.1978452285558038,-0.17503133513424785,-0.24662683739517377,0.18821811644068182,0.6906363242779984,-0.018614098413318483
8083,5.0,300.75417000000004,1936.6917,0.0,0.0,0.0,0.0,0.08056172186602371,0.0,-0.19694788413474282,-0.14883293306616685,-0.24292511053984175,0.20234354224225282,0.7116040658848533,-0.027176173215829474
8084,5.0,300.65393,1765.5205,0.0,0.0,0.0,0.0,0.08057168867560752,0.0,-0.16061797405175987,-0.15248868876446187,-0.22356747400439178,0.22267147720596378,0.6786154493316303,-0.027210035020921376
8085,5.0,300.5056,1684.2077,0.0,0.0,0.0,0.0,0.08058165548519135,0.0,-0.1148987717846259,-0.14255208953879586,-0.25450622481030877,0.19466192098163582,0.6694891462109344,-0.06938795959930844
8086,5.0,300.62015,1788.7285,0.0,0.0,0.0,0.0,0.08059162229477518,0.0,-0.15387183594596784,-0.16629000625654586,-0.22356695724684078,0.17713681817954285,0.6739074941994914,-0.07646813890531773
8087,5.0,300.39848,1755.3432,0.0,0.0,0.0,0.0,0.08060158910435898,0.0,-0.16802785176805785,-0.14825066889620186,-0.21730198121603578,0.13403510436573488,0.7198507159312343,-0.06456684773575173
8088,5.0,300.09599,1634.3313,0.0,0.0,0.0,0.0,0.08061155591394281,0.0,-0.14358217985545788,-0.14542653821748186,-0.20778717774199779,0.12706627415296487,0.7064790063490493,-0.08788761242708201
8089,5.0,299.81474,1756.3658,0.0,0.0,0.0,0.0,0.08062152272352663,0.0,-0.17237346866443684,-0.15662895026307383,-0.2048889278184628,0.1300273861127039,0.7428625376273243,-0.06676642118533273
8090,5.0,299.41472000000005,1937.5892,0.0,0.0,0.0,0.0,0.08063148953311045,0.0,-0.16567758776360483,-0.18625784226721784,-0.23704331529935377,0.14263603730958088,0.7292850268173283,-0.051164774087820046
8091,5.0,299.18591000000004,1878.7676,0.0,0.0,0.0,0.0,0.08064145634269428,0.0,-0.14525339404039386,-0.14902406243252986,-0.2768209709676027,0.16786500221198583,0.7021158298284373,-0.018492291565797084
8092,5.0,299.67155,1884.4577,0.0,0.0,0.0,0.0,0.08065142315227809,0.0,-0.15843007324333086,-0.19209257204056082,-0.22230543047483778,0.19293208014591381,0.6625260104637264,-0.012768255312878687
8093,5.0,299.78914,1870.9527,0.0,0.0,0.0,0.0,0.08066138996186192,0.0,-0.17152234871293784,-0.15812306859553185,-0.23907747567010976,0.2014941752134268,0.6626135147423623,-0.03193161735365527
8094,5.0,300.18295,1868.6901,0.0,0.0,0.0,0.0,0.08067135677144573,0.0,-0.17114976651866684,-0.16839761712705084,-0.22848775569498578,0.20045755956612082,0.6741984894957104,-0.06651630546439824
8095,5.0,299.80442,1897.2127,0.0,0.0,0.0,0.0,0.08068132358102956,0.0,-0.18662899577884784,-0.15469369323457888,-0.23538259838545378,0.17694432092554482,0.7143580695241523,-0.04935417519262786
8096,5.0,300.17823,1798.6483,0.0,0.0,0.0,0.0,0.08069129039061339,0.0,-0.18025402131718682,-0.13409655798429987,-0.23239358151796077,0.16425884510608585,0.7073121512437743,-0.062397753862428844
8097,5.0,300.9863,1758.4363,0.0,0.0,0.0,0.0,0.08070125720019719,0.0,-0.12042430828995389,-0.16946938242032583,-0.24462702620280777,0.17767406364756483,0.7000225159168434,-0.07315560040014564
8098,5.0,300.98071,1643.2771,0.0,0.0,0.0,0.0,0.08071122400978102,0.0,-0.18949295731899882,-0.11081535361662388,-0.1992069049676908,0.19260971462659882,0.6934828477839283,-0.04430790598459986
8099,5.0,300.88575,1893.9277,0.0,0.0,0.0,0.0,0.08072119081936484,0.0,-0.15819306391243984,-0.16869418529881985,-0.24881949034657178,0.19068251293639882,0.6796198638907583,-0.03967021468064536
8100,5.0,300.70903,2025.5967,0.0,0.0,0.0,0.0,0.08073115762894865,0.0,-0.2028129708810818,-0.17392796657035384,-0.23898988019896475,0.13901646477235685,0.6838167356724573,-0.03831192556384267
8101,5.0,299.98409,2087.001,0.0,0.0,0.0,0.0,0.08074112443853249,0.0,-0.1926839047989208,-0.17554939977787684,-0.26616289714073277,0.14725319510025886,0.6795350345923863,-0.02943120994938427
8102,5.0,300.35141,1990.6594,0.0,0.0,0.0,0.0,0.0807510912481163,0.0,-0.16920669733190083,-0.18685953044159984,-0.24904451292877974,0.14812616072391385,0.7273595780498013,-0.04862556123121926
8103,5.0,299.42488,1705.1473,0.0,0.0,0.0,0.0,0.08076105805770013,0.0,-0.13535752746874788,-0.12267659100973688,-0.2602880933259347,0.17476996727095284,0.7392617912769582,-0.024585644307914177
8104,5.0,300.02495,1744.9979,0.0,0.0,0.0,0.0,0.08077102486728394,0.0,-0.16684105219092982,-0.14498734496163687,-0.21860740198237077,0.15186720168312584,0.7008039749239674,-0.04041766496141296
8105,5.0,300.50521000000003,1842.6648,0.0,0.0,0.0,0.0,0.08078099167686777,0.0,-0.14380036299949087,-0.16734368503553584,-0.24898002969241576,0.16340095664391885,0.6708053074283294,-0.05800608677550504
8106,5.0,300.23812999999996,1794.7761,0.0,0.0,0.0,0.0,0.0807909584864516,0.0,-0.16881429596567382,-0.15935989233009684,-0.21739294067751277,0.18679979934820481,0.6829969251490484,-0.08307434818554982
8107,5.0,299.64779,1641.0042,0.0,0.0,0.0,0.0,0.0808009252960354,0.0,-0.15549732215389087,-0.1411535409557699,-0.2021734378154648,0.21874289378574283,0.6957965638572743,-0.06290637805487614
8108,5.0,300.92776000000003,1778.0326,0.0,0.0,0.0,0.0,0.08081089210561923,0.0,-0.15196996550826786,-0.16716372168527482,-0.2213438257324348,0.16400319197335483,0.6809637071008854,-0.08312231747178402
8109,5.0,301.69023,2039.9347,0.0,0.0,0.0,0.0,0.08082085891520305,0.0,-0.16836467636629984,-0.18122680220819284,-0.27049773305604774,0.14036102739005488,0.6912723818957723,-0.039578285538822665
8110,5.0,301.12241,1964.5079999999998,0.0,0.0,0.0,0.0,0.08083082572478686,0.0,-0.18909265260199182,-0.16263679381600185,-0.24543193181724576,0.13889876564074088,0.7235423508155703,-0.03203994594834647
8111,5.0,300.76944,1863.0544,0.0,0.0,0.0,0.0,0.0808407925343707,0.0,-0.14132647235033685,-0.16031040198390484,-0.26468514279738975,0.16007587511575885,0.7324223024394533,-0.0006431594674598974
8112,5.0,300.69721,1823.8893,0.0,0.0,0.0,0.0,0.08085075934395451,0.0,-0.19659096678701782,-0.14872825419833585,-0.20909759383132578,0.16138421404238185,0.6985714100511303,-0.012692186574871287
8113,5.0,300.63357,1916.891,0.0,0.0,0.0,0.0,0.08086072615353834,0.0,-0.16435491134806685,-0.1839396172309268,-0.2343924807852368,0.16631063602858184,0.6905550514874773,-0.058198845448028856
8114,5.0,300.24799,1929.8239,0.0,0.0,0.0,0.0,0.08087069296312215,0.0,-0.18077920910901885,-0.16425837901103985,-0.24158068977715777,0.18350167027270484,0.7174461923839264,-0.050818470534892544
8115,5.0,300.08232000000004,1750.8961,0.0,0.0,0.0,0.0,0.08088065977270598,0.0,-0.13836236117030187,-0.15318288667297383,-0.24068343654860577,0.2033582919524008,0.7283873176262313,-0.06015519631710564
8116,5.0,299.2275,1424.77,0.0,0.0,0.0,0.0,0.0808906265822898,0.0,-0.1269193528884649,-0.1036843020628439,-0.2024908485417908,0.1966345061438148,0.7171050006777534,-0.03664324247765646
8117,5.0,300.2096,1689.6319,0.0,0.0,0.0,0.0,0.08090059339187361,0.0,-0.11078744870886989,-0.16957241982299484,-0.2332460490920928,0.17799065364130984,0.6622931250607423,-0.07378547820555972
8118,5.0,300.21431,2052.6698,0.0,0.0,0.0,0.0,0.08091056020145744,0.0,-0.21636956820901382,-0.18413313786752583,-0.2234576478260528,0.15795358225130485,0.6851698095909953,-0.058318216442309855
8119,5.0,299.81836,2085.6907,0.0,0.0,0.0,0.0,0.08092052701104126,0.0,-0.19634517257775982,-0.17257594643191984,-0.26507677409354075,0.16330748432219383,0.6740058301216963,-0.060451402758588936
8120,5.0,300.8601,1957.5868,0.0,0.0,0.0,0.0,0.08093049382062507,0.0,-0.18279929543588583,-0.18909524652224782,-0.22316295416696877,0.14679475009251386,0.6708653526292553,-0.050699067116608355
8121,5.0,300.73155,1869.3168,0.0,0.0,0.0,0.0,0.0809404606302089,0.0,-0.17627552519703982,-0.16275368234753784,-0.22919642281492578,0.14038967197038185,0.6756085789973754,-0.042318583957269056
8122,5.0,300.26011,2158.7119,0.0,0.0,0.0,0.0,0.08095042743979272,0.0,-0.16430102670774882,-0.2208044017766978,-0.27108907594690873,0.14587315859655986,0.7348225196738364,-0.030314327325791174
8123,5.0,301.0965,2014.6939,0.0,0.0,0.0,0.0,0.08096039424937655,0.0,-0.15387276813605985,-0.19553688270798783,-0.26300700811427075,0.15141544412604085,0.7568556430983363,-0.01870688577797588
8124,5.0,300.22355,1640.4707,0.0,0.0,0.0,0.0,0.08097036105896036,0.0,-0.15109557120197187,-0.13996754184622087,-0.2075990171984278,0.15762233052861285,0.7318272611857273,-0.041606546767496456
8125,5.0,299.83642000000003,1464.3803,0.0,0.0,0.0,0.0,0.08098032786854419,0.0,-0.08818311871274623,-0.14407051574115284,-0.21288140407725878,0.1903563274642068,0.6686076084914333,-0.07206600393161083
8126,5.0,299.74767,1661.3746,0.0,0.0,0.0,0.0,0.08099029467812802,0.0,-0.16182797705617785,-0.14303332254128986,-0.20015509427876982,0.18243572103500383,0.6937859311538404,-0.08507292827904432
8127,5.0,299.22947,1929.7301,0.0,0.0,0.0,0.0,0.08100026148771182,0.0,-0.16718719869009183,-0.14947878881240786,-0.2699237876694037,0.2008360794059778,0.7006458977758663,-0.05248716071382945
8128,5.0,298.5881,1970.8120000000001,0.0,0.0,0.0,0.0,0.08101022829729565,0.0,-0.1818484007470398,-0.16565801177167286,-0.2515712344381478,0.1842780123668238,0.6898748262978444,-0.05788924384022354
8129,5.0,300.51574,1875.7021,0.0,0.0,0.0,0.0,0.08102019510687947,0.0,-0.16741551433512483,-0.15356224751041386,-0.24918883014052273,0.16516759872327283,0.6807595473382363,-0.041073634970152165
8130,5.0,299.70808999999997,1927.5211,0.0,0.0,0.0,0.0,0.08103016191646328,0.0,-0.20125947609276382,-0.15987839267126885,-0.2247804053015988,0.17701605903262482,0.7017690044517083,-0.024296683617895977
8131,5.0,301.13853,2270.6486,0.0,0.0,0.0,0.0,0.0810401287260471,0.0,-0.16972972690101984,-0.20927264291860181,-0.31121809635233466,0.16293233860516984,0.7054029144778473,-0.022544773181745876
8132,5.0,300.84819,2041.6923,0.0,0.0,0.0,0.0,0.08105009553563093,0.0,-0.2176089858638348,-0.15199234820297686,-0.2510221339439557,0.13005085298501987,0.6883732909746544,-0.016740353771894284
8133,5.0,300.41798,1731.9117,0.0,0.0,0.0,0.0,0.08106006234521473,0.0,-0.11083571994363389,-0.17838819218554383,-0.23723400896817376,0.15706053401066786,0.6593284261956494,-0.06475643594871264
8134,5.0,299.28309,1491.4611,0.0,0.0,0.0,0.0,0.08107002915479856,0.0,-0.12386186057921388,-0.12247705166754388,-0.20702801023707382,0.16200694742134084,0.7077921480811463,-0.05778531883046694
8135,5.0,300.43698,1562.8053,0.0,0.0,0.0,0.0,0.0810799959643824,0.0,-0.1092809281951879,-0.13889733695809986,-0.22687550253336877,0.16673532967549584,0.7376848296163243,-0.050986408632966745
8136,5.0,299.81228,1737.7649,0.0,0.0,0.0,0.0,0.08108996277396621,0.0,-0.16551156673471987,-0.13856454509525587,-0.22416101564796978,0.15133491100809285,0.7124103495194273,-0.07205731024575283
8137,5.0,300.35197,1890.6737,0.0,0.0,0.0,0.0,0.08109992958355003,0.0,-0.15201955396816186,-0.16831383147628184,-0.25438420923326677,0.15803200780904486,0.6885561826177043,-0.06323583429839094
8138,5.0,299.4206,1765.6689999999999,0.0,0.0,0.0,0.0,0.08110989639313385,0.0,-0.18145926204613483,-0.16544310142546284,-0.1898169237734718,0.18131264475666484,0.6977367756787584,-0.06674197450017004
8139,5.0,300.77182999999997,1972.1712,0.0,0.0,0.0,0.0,0.08111986320271768,0.0,-0.17678934432274984,-0.16796325707418283,-0.25473820842070377,0.17702617126862283,0.6938510628702683,-0.04592671892736425
8140,5.0,299.93417999999997,2329.06,0.0,0.0,0.0,0.0,0.08112983001230148,0.0,-0.23191518561574678,-0.20435242202301382,-0.27170846560053774,0.14571528409847886,0.6836823787091973,-0.037525068973435965
8141,5.0,299.78918,2129.3453,0.0,0.0,0.0,0.0,0.08113979682188531,0.0,-0.2133509441735988,-0.17309388948553683,-0.2608229576562217,0.13882225512568985,0.6871663479855383,-0.018418376997502282
8142,5.0,298.64562,1712.2725,0.0,0.0,0.0,0.0,0.08114976363146913,0.0,-0.14543501912081885,-0.13416314878087188,-0.24088991665398377,0.14880029628044586,0.7088561012161503,-0.03086641589452807
8143,5.0,298.1393,1497.4343,0.0,0.0,0.0,0.0,0.08115973044105294,0.0,-0.10015993855801632,-0.14238302875961087,-0.21263966286840078,0.18248207722707885,0.7080710553036723,-0.02676499936499977
8144,5.0,298.86098,1678.4315,0.0,0.0,0.0,0.0,0.08116969725063676,0.0,-0.15006283630254885,-0.12898643375496988,-0.2311519955079258,0.17699520634556684,0.6893038193364903,-0.03855980301530627
8145,5.0,300.63588,1860.7502,0.0,0.0,0.0,0.0,0.08117966406022059,0.0,-0.13670102617384086,-0.17476417148038084,-0.25415642047828574,0.19001901650591682,0.6858707456126724,-0.06365948531095203
8146,5.0,299.35785,1593.4006,0.0,0.0,0.0,0.0,0.08118963086980442,0.0,-0.15093293442842087,-0.14084144979246888,-0.1925796008336268,0.18852881945134584,0.6896324568739244,-0.06746873320064553
8147,5.0,300.41693,1510.4204,0.0,0.0,0.0,0.0,0.08119959767938822,0.0,-0.13978336337554387,-0.11509969927945589,-0.2042470237476118,0.2066956338067708,0.7176655205005723,-0.05573192899931315
8148,5.0,299.84557,1778.4009,0.0,0.0,0.0,0.0,0.08120956448897206,0.0,-0.18583651261063583,-0.14726412806883787,-0.2074888465150548,0.19231100849711882,0.6967338607297783,-0.04259923498321716
8149,5.0,300.35456,2276.1835,0.0,0.0,0.0,0.0,0.08121953129855587,0.0,-0.22381643968646278,-0.1992882284207168,-0.26879828972332576,0.1802561288773948,0.7079016804169563,-0.07781219185821543
8150,5.0,300.35922999999997,2258.4638,0.0,0.0,0.0,0.0,0.08122949810813969,0.0,-0.2325523882061338,-0.1795879714964528,-0.27437624165632674,0.16759525477036383,0.7008435423403724,-0.026111976900801477
8151,5.0,300.86175,1701.2964,0.0,0.0,0.0,0.0,0.08123946491772352,0.0,-0.12110601282473289,-0.16618693845637386,-0.2298586628152838,0.17857473152895384,0.7040493238017583,-0.06774909545031514
8152,5.0,299.80414,1551.8592,0.0,0.0,0.0,0.0,0.08124943172730734,0.0,-0.13962577258749087,-0.11317942821993988,-0.2189212460683448,0.15386789440307885,0.7014871993338962,-0.02216691398095408
8153,5.0,299.13555,1861.3371,0.0,0.0,0.0,0.0,0.08125939853689115,0.0,-0.15733019025978084,-0.16882773166199985,-0.23964206875833075,0.16082178930937485,0.6879528935081644,-0.06346721299847624
8154,5.0,297.66831,1806.9173,0.0,0.0,0.0,0.0,0.08126936534647497,0.0,-0.16673035461750485,-0.14832121136816384,-0.2342061643568488,0.16357591453868583,0.7196950503183713,-0.046532498605650056
8155,5.0,299.18631,1382.0745,0.0,0.0,0.0,0.0,0.0812793321560588,0.0,-0.12196015226152988,-0.10806829074050991,-0.1900876743326928,0.15851872249457982,0.7067253173158583,-0.06714573946626853
8156,5.0,299.08019,1495.0182,0.0,0.0,0.0,0.0,0.08128929896564263,0.0,-0.11529577330630689,-0.14666372672208286,-0.1924887224321578,0.19266693285974582,0.6969260540087464,-0.05854823637401104
8157,5.0,299.1176,1888.0085,0.0,0.0,0.0,0.0,0.08129926577522643,0.0,-0.15055202331832784,-0.18803556930266582,-0.23531983767425976,0.17418322453554583,0.6766637877840164,-0.07763554386228162
8158,5.0,299.4746,2316.488,0.0,0.0,0.0,0.0,0.08130923258481026,0.0,-0.22864883206338277,-0.2025421595268548,-0.27296351770440175,0.18367145045946082,0.6871445327108854,-0.05006474620950575
8159,5.0,299.63802000000004,2193.1867,0.0,0.0,0.0,0.0,0.08131919939439408,0.0,-0.23082331744048779,-0.18205366495229783,-0.2537970004028137,0.17019496068443485,0.6965234289490103,-0.048880733070152754
8160,5.0,300.22857,1802.2729,0.0,0.0,0.0,0.0,0.0813291662039779,0.0,-0.16899064201307784,-0.14449761079080387,-0.23435770604180478,0.16686441773823585,0.7086169437950472,-0.03534419201470017
8161,5.0,300.74568,1662.4146,0.0,0.0,0.0,0.0,0.08133913301356173,0.0,-0.13846664487059387,-0.14425083372894887,-0.2226150594403958,0.17147124037789382,0.7256209016732074,-0.058087083961998846
8162,5.0,299.67132999999995,1935.7433,0.0,0.0,0.0,0.0,0.08134909982314555,0.0,-0.14728474770837285,-0.16999939328263383,-0.27113349683129273,0.17418776389599383,0.7019490285969754,-0.04189898797160816
8163,5.0,299.9528,1993.3382,0.0,0.0,0.0,0.0,0.08135906663272936,0.0,-0.14392828582461586,-0.17654942696407183,-0.28544731622395675,0.16987378066773684,0.6956155365944083,-0.04515711798616055
8164,5.0,299.46246,1699.8945,0.0,0.0,0.0,0.0,0.08136903344231318,0.0,-0.1357178493368089,-0.17236467365356883,-0.2086429485114558,0.15732356360412686,0.6859159770971364,-0.041033104966152166
8165,5.0,300.40979,1605.6311,0.0,0.0,0.0,0.0,0.08137900025189701,0.0,-0.1271401907477599,-0.16349257471796086,-0.1974389861932108,0.17742223046771083,0.6902994084872474,-0.07644489798777403
8166,5.0,301.33971,1962.2679999999998,0.0,0.0,0.0,0.0,0.08138896706148084,0.0,-0.2010148471211208,-0.16471403758100986,-0.23075159959840977,0.17535177547837283,0.6969048365516523,-0.034796466500893866
8167,5.0,301.69686,2369.3223,0.0,0.0,0.0,0.0,0.08139893387106464,0.0,-0.22986522867593176,-0.21141343772988178,-0.2789361710813567,0.16499774760900984,0.7215745785913663,-0.047594833580244356
8168,5.0,300.34559,2122.4245,0.0,0.0,0.0,0.0,0.08140890068064847,0.0,-0.18371950891170383,-0.16680496022236782,-0.29463956166116073,0.18025256223704283,0.7097777332421084,-0.029636857163180076
8169,5.0,299.89384,1784.8626,0.0,0.0,0.0,0.0,0.08141886749023229,0.0,-0.14971831100354688,-0.15892152993933384,-0.23391381130549577,0.16713539121247883,0.7168360131737064,-0.03911452603430316
8170,5.0,299.90862999999996,1710.7666,0.0,0.0,0.0,0.0,0.08142883429981611,0.0,-0.18293771553204682,-0.1136057025370099,-0.2234869206214418,0.2072747366364238,0.7207687914493413,-0.04305964366965596
8171,5.0,300.09013999999996,1898.7283,0.0,0.0,0.0,0.0,0.08143880110939994,0.0,-0.2081234855826888,-0.14959354951873385,-0.2194489669854268,0.18463637866219182,0.7043117758426604,-0.04877027057075096
8172,5.0,300.0053,1900.4001,0.0,0.0,0.0,0.0,0.08144876791898376,0.0,-0.1979440508380568,-0.15185032093645986,-0.22787981576748678,0.15207582987871585,0.7126494866755283,-0.07149581668958774
8173,5.0,299.48503,1712.5206,0.0,0.0,0.0,0.0,0.08145873472856757,0.0,-0.1332531792635649,-0.15110419396032287,-0.23620613766923076,0.14128939752917785,0.7026336614245433,-0.06945159575858884
8174,5.0,299.05876,1408.0653,0.0,0.0,0.0,0.0,0.08146870153815139,0.0,-0.07210122450508684,-0.14589104246082485,-0.2100244238302968,0.15741444200559584,0.6902310546355013,-0.07919228611717014
8175,5.0,299.20607,1732.2502,0.0,0.0,0.0,0.0,0.08147866834773522,0.0,-0.13282350042615887,-0.16297891771226683,-0.23075839850658078,0.16135089837909386,0.7135672379536033,-0.03375703604481007
8176,5.0,299.99273999999997,2102.1907,0.0,0.0,0.0,0.0,0.08148863515731905,0.0,-0.1930516740552168,-0.1980179269028478,-0.24794390040515776,0.18330014496031583,0.6867952552689143,-0.051599841389257856
8177,5.0,299.33797999999996,1897.6534,0.0,0.0,0.0,0.0,0.08149860196690285,0.0,-0.1928848221612498,-0.15964691568592385,-0.2243075214799288,0.20005895710928182,0.7128792310032024,-0.033286308419352865
8178,5.0,300.08376,1865.1057,0.0,0.0,0.0,0.0,0.08150856877648668,0.0,-0.19528755225588082,-0.14459622029053587,-0.2270617885642538,0.17152372673307384,0.6926639390531084,-0.034735858946162365
8179,5.0,300.40805,1850.9907,0.0,0.0,0.0,0.0,0.0815185355860705,0.0,-0.1795583541960298,-0.13415119242969187,-0.24894539680399777,0.1979360968247718,0.7024536170142743,-0.027586637791589177
8180,5.0,299.5598,1864.5818,0.0,0.0,0.0,0.0,0.08152850239565432,0.0,-0.16482433998689583,-0.14170548868274288,-0.26025645965781274,0.17683496084225184,0.6902295550253533,-0.049332423752731155
8181,5.0,300.59744,1947.6255,0.0,0.0,0.0,0.0,0.08153846920523815,0.0,-0.17275405553449785,-0.14968132737489687,-0.26959413688186973,0.1912071029106718,0.7133657937012223,-0.07331473234160073
8182,5.0,300.16107,1791.5103,0.0,0.0,0.0,0.0,0.08154843601482197,0.0,-0.17185593091085985,-0.14657811722113387,-0.2261403591883158,0.17892606586862783,0.6902255628199594,-0.05457923440730104
8183,5.0,299.10561,1578.223,0.0,0.0,0.0,0.0,0.0815584028244058,0.0,-0.15914196249858883,-0.13617097478152887,-0.18442744649157183,0.15357839871700787,0.7120855623323733,-0.07046852800945223
8184,5.0,299.15054,1877.6844,0.0,0.0,0.0,0.0,0.0815683696339896,0.0,-0.19258004666367082,-0.15405572057411585,-0.22413339445024377,0.16469996353712085,0.6938186793970723,-0.05024535601333054
8185,5.0,299.16413,2120.6256,0.0,0.0,0.0,0.0,0.08157833644357343,0.0,-0.18201992372396783,-0.1962367345520578,-0.2663605721027417,0.16265081719738583,0.7297825630139313,-0.07538629278679783
8186,5.0,299.19617999999997,2020.9073,0.0,0.0,0.0,0.0,0.08158830325315726,0.0,-0.16679085578097586,-0.18865620525391782,-0.25885829610982475,0.16960490462120084,0.7264459912296374,-0.023168641400816876
8187,5.0,300.99679,1876.2869,0.0,0.0,0.0,0.0,0.08159827006274106,0.0,-0.14759498462399087,-0.18363112310548083,-0.23911825898663477,0.15694015989878785,0.7034458827047033,-0.04200630027644906
8188,5.0,300.45525,1809.0887,0.0,0.0,0.0,0.0,0.0816082368723249,0.0,-0.16410709063860884,-0.15258999350945987,-0.23322069757459077,0.1982702667077518,0.6860005125529794,-0.033360791420953766
8189,5.0,300.24714,1920.88,0.0,0.0,0.0,0.0,0.08161820368190871,0.0,-0.20184474961552581,-0.15581339539008485,-0.22624141062078879,0.1932210286769308,0.7041189340836284,-0.05901896906571874
8190,5.0,300.60191000000003,1985.2812,0.0,0.0,0.0,0.0,0.08162817049149253,0.0,-0.2008834893781568,-0.16073843935614884,-0.24185400385913178,0.17127819596884183,0.6958669746067234,-0.04948309302935105
8191,5.0,300.01578,1884.1035,0.0,0.0,0.0,0.0,0.08163813730107636,0.0,-0.17798809011855685,-0.15194652903345485,-0.24278578865109177,0.14603586629761786,0.7063381848501513,-0.07350594479447192
8192,5.0,299.93433999999996,1916.4514,0.0,0.0,0.0,0.0,0.08164810411066017,0.0,-0.15481666126671484,-0.16145334809670484,-0.26628335231262074,0.16375701272905885,0.7011549748911083,-0.07734525277488212
8193,5.0,299.22877,1853.4095,0.0,0.0,0.0,0.0,0.081658070920244,0.0,-0.14551716330642586,-0.16712390095634483,-0.25074913396951276,0.19060095643584982,0.7257819577766023,-0.058597392176112345
8194,5.0,299.38775,1977.6097,0.0,0.0,0.0,0.0,0.08166803772982781,0.0,-0.15421386864972386,-0.19428772771970582,-0.25264238164886177,0.1920070334671188,0.6982098621504483,-0.03336123826424787
8195,5.0,298.76819,1939.6424,0.0,0.0,0.0,0.0,0.08167800453941164,0.0,-0.21232112743446377,-0.14959982153685286,-0.22768191789045578,0.15917286662663885,0.6860712374099593,-0.02086357848332488
8196,5.0,299.61625,1853.5708,0.0,0.0,0.0,0.0,0.08168797134899547,0.0,-0.16590158696321186,-0.15829431799493285,-0.23924331431397677,0.16216784140471988,0.6812229775364733,-0.023438529684202774
8197,5.0,298.56792,1661.6456,0.0,0.0,0.0,0.0,0.08169793815857927,0.0,-0.14972988231968887,-0.14396773165100885,-0.21140116727117078,0.15927991649970383,0.7202431172974613,-0.04563220765329826
8198,5.0,299.02714,1845.5095,0.0,0.0,0.0,0.0,0.0817079049681631,0.0,-0.17639903025172884,-0.13037468771697988,-0.25421507752657474,0.17414727442199784,0.7287252264020803,-0.02552378724425168
8199,5.0,300.04086,2187.7387,0.0,0.0,0.0,0.0,0.08171787177774692,0.0,-0.2120813924608038,-0.19108275685839982,-0.26185379777795775,0.13940978819617486,0.7242930678146603,-0.05647356626425704
8200,5.0,300.26541000000003,1977.8411,0.0,0.0,0.0,0.0,0.08172783858733074,0.0,-0.1997152221453578,-0.14335066234010888,-0.25814841308976477,0.17764514548971083,0.7062829525872003,-0.04451248827254055
8201,5.0,298.84764,1793.3705,0.0,0.0,0.0,0.0,0.08173780539691457,0.0,-0.17066976968129483,-0.15421801284263287,-0.22025206901468677,0.17628359066783583,0.7145603345091144,-0.06562370204055513
8202,5.0,301.05394,1890.9399,0.0,0.0,0.0,0.0,0.08174777220649838,0.0,-0.15079368346717784,-0.16196739013743686,-0.26203741896107974,0.1998872720123378,0.6910523546365573,-0.03831168137056856
8203,5.0,299.86244,1769.1511,0.0,0.0,0.0,0.0,0.08175773901608221,0.0,-0.1394477344124199,-0.15256698259968887,-0.24576304168492377,0.16168901993746385,0.6874406347876084,-0.06997120054236984
8204,5.0,299.92432,1837.7926,0.0,0.0,0.0,0.0,0.08176770582566602,0.0,-0.14752671183225285,-0.16799679565249284,-0.24311955323403178,0.15210738248682987,0.7011680458173983,-0.06699889520877614
8205,5.0,300.04556,1798.0093,0.0,0.0,0.0,0.0,0.08177767263524985,0.0,-0.14353717128601587,-0.1954866052380258,-0.2075261543837368,0.16230530904578686,0.7160751940711192,-0.08218611288288782
8206,5.0,299.51619,1433.7064,0.0,0.0,0.0,0.0,0.08178763944483368,0.0,-0.13263728532278088,-0.1297303214483859,-0.17344331891502285,0.18024449676624685,0.7106662623872992,-0.044133622914399456
8207,5.0,298.97545,1664.7507,0.0,0.0,0.0,0.0,0.08179760625441748,0.0,-0.15891151902834583,-0.15571005401238583,-0.19142108106678982,0.17901626539252982,0.7157571956597354,-0.03808311646601096
8208,5.0,299.65597,2025.6234,0.0,0.0,0.0,0.0,0.08180757306400131,0.0,-0.1849071697514168,-0.18101931898521584,-0.24981243491456775,0.16246377122892583,0.6824370943362973,-0.04976155138208275
8209,5.0,298.56465,1837.6006,0.0,0.0,0.0,0.0,0.08181753987358513,0.0,-0.16128099425469483,-0.16018675507420185,-0.2371169279191188,0.17113200424441383,0.7116297923048923,-0.048093609994969755
8210,5.0,299.58776,1813.6078,0.0,0.0,0.0,0.0,0.08182750668316895,0.0,-0.13631311350555686,-0.15874492044690383,-0.25623346159327376,0.17549760243276483,0.7136712379438673,-0.054396220160988946
8211,5.0,299.95804,2051.4996,0.0,0.0,0.0,0.0,0.08183747349275278,0.0,-0.20698302193263382,-0.14823596663725086,-0.26838567401760377,0.2114515663311448,0.7182364464019183,-0.05227554241719435
8212,5.0,300.16027,2109.4285,0.0,0.0,0.0,0.0,0.0818474403023366,0.0,-0.2051167267059448,-0.16528238982710183,-0.27081446490480676,0.18468016119901282,0.7183381969769603,-0.03139348326529557
8213,5.0,300.37228,1892.1067,0.0,0.0,0.0,0.0,0.08185740711192042,0.0,-0.17214747336213282,-0.13873707118978287,-0.2642686463437847,0.1983842573440018,0.7081812969145523,-0.04238384435645976
8214,5.0,300.03474,1765.0354,0.0,0.0,0.0,0.0,0.08186737392150423,0.0,-0.14039254960066588,-0.14510569257331685,-0.2510284464920787,0.15493429960332486,0.6789260510172843,-0.01968914258391708
8215,5.0,299.25245,1772.8024,0.0,0.0,0.0,0.0,0.08187734073108806,0.0,-0.17108236512201483,-0.13767374626984086,-0.2301315411997148,0.15836682617208886,0.7055825839855794,-0.035316962944762866
8216,5.0,300.07479,1939.8026,0.0,0.0,0.0,0.0,0.08188730754067189,0.0,-0.15111807548669287,-0.18395998355793683,-0.2545735046169488,0.15867335459234083,0.6918850739662403,-0.03190916879768977
8217,5.0,298.20965,1938.5512,0.0,0.0,0.0,0.0,0.08189727435025569,0.0,-0.19759998150159983,-0.17703247368424485,-0.21463870399069082,0.15712730719225784,0.7103818126867263,-0.07619130175274602
8218,5.0,298.33892000000003,1807.5325,0.0,0.0,0.0,0.0,0.08190724115983952,0.0,-0.17060115238452284,-0.15862087836966185,-0.22022272529179077,0.15067117139758687,0.7243137583817023,-0.03133904640367307
8219,5.0,299.42809,1772.5486,0.0,0.0,0.0,0.0,0.08191720796942334,0.0,-0.17496876694057284,-0.14704448584466087,-0.2167972712087248,0.17927558649062283,0.7180361268571483,-0.05700113620707414
8220,5.0,299.67266,1975.4079,0.0,0.0,0.0,0.0,0.08192717477900716,0.0,-0.15325267933986186,-0.17165160902819485,-0.2755703974291807,0.17795349776014283,0.7085669500351134,-0.05092486990139335
8221,5.0,299.45481,1952.1817,0.0,0.0,0.0,0.0,0.08193714158859099,0.0,-0.18946197213094082,-0.14949736168674085,-0.2544551570052687,0.18359449411436582,0.7067963056178643,-0.05558145730646275
8222,5.0,300.77983,1762.9449,0.0,0.0,0.0,0.0,0.0819471083981748,0.0,-0.10296060844392091,-0.16360430580648783,-0.2693263146154377,0.18137366267768684,0.6895797374712214,-0.06526442179359694
8223,5.0,300.41999,1739.6686,0.0,0.0,0.0,0.0,0.08195707520775863,0.0,-0.1935046373799208,-0.12679909023409588,-0.2085121075260428,0.18282508265093084,0.7124200260578823,-0.06573651426693884
8224,5.0,299.5624,1961.2551,0.0,0.0,0.0,0.0,0.08196704201734244,0.0,-0.17244836811182884,-0.17116647501281584,-0.25255772460300674,0.1927680856172288,0.7203858639715492,-0.06878839722363624
8225,5.0,299.73072,1854.4532,0.0,0.0,0.0,0.0,0.08197700882692627,0.0,-0.17466419409301384,-0.17304172737038884,-0.2160015659051948,0.20074730856471681,0.7147425168770943,-0.056597203041459036
8226,5.0,299.67177000000004,1603.1127,0.0,0.0,0.0,0.0,0.0819869756365101,0.0,-0.0990934735760144,-0.15812349416057384,-0.23008926840554275,0.15691971251176987,0.7044684040431183,-0.04481894677853566
8227,5.0,299.69327999999996,1819.8106,0.0,0.0,0.0,0.0,0.0819969424460939,0.0,-0.16821058129109184,-0.16332431440635486,-0.22164207589936977,0.15269867471518586,0.7035197992994983,-0.0061082443775117845
8228,5.0,300.15747000000005,1999.8514,0.0,0.0,0.0,0.0,0.08200690925567773,0.0,-0.16857848226990083,-0.17838999577072184,-0.26093641126991873,0.15202675817637287,0.6958108608161853,-0.037772513767106865
8229,5.0,300.52308,2005.4976,0.0,0.0,0.0,0.0,0.08201687606526155,0.0,-0.22269038445282976,-0.15245936530656784,-0.23447145349803078,0.19132398130970682,0.6984531536319594,-0.029747251774825175
8230,5.0,299.69912999999997,2137.1872,0.0,0.0,0.0,0.0,0.08202684287484537,0.0,-0.2010777598198298,-0.1782964423889888,-0.2702773207617948,0.19076713958475083,0.7090515875579433,-0.03962183604137076
8231,5.0,300.10631,2156.913,0.0,0.0,0.0,0.0,0.0820368096844292,0.0,-0.2215157641419038,-0.13725459510097388,-0.2968773346395117,0.19652863164086581,0.7197684805531183,-0.025462016478405375
8232,5.0,298.66576000000003,1903.8491,0.0,0.0,0.0,0.0,0.08204677649401301,0.0,-0.15946424695789585,-0.14267020410295286,-0.27658814635962475,0.17862444157885982,0.7138488809513993,-0.057133655134652746
8233,5.0,297.00158,1743.5164,0.0,0.0,0.0,0.0,0.08205674330359684,0.0,-0.14014072655331286,-0.1378633760260559,-0.2519813474161227,0.14698257626355085,0.7008324269867753,-0.043905302203115955
8234,5.0,298.66832999999997,1635.1771,0.0,0.0,0.0,0.0,0.08206671011318065,0.0,-0.12354305156774989,-0.14323254777595187,-0.23027739855160978,0.16468358941550484,0.6963661826659913,-0.07199706036830662
8235,5.0,298.66853,1641.5689,0.0,0.0,0.0,0.0,0.08207667692276448,0.0,-0.16406349048680582,-0.14256054004462987,-0.1923719149606298,0.16972454919300883,0.7130490517199622,-0.05000252252086475
8236,5.0,298.84694,1712.8929999999998,0.0,0.0,0.0,0.0,0.0820866437323483,0.0,-0.15519124969618386,-0.16319832688892086,-0.20228712447668482,0.16047002940465885,0.7257446397754193,-0.08927159452667041
8237,5.0,299.90866,1826.8146,0.0,0.0,0.0,0.0,0.08209661054193211,0.0,-0.17325231113867182,-0.15337569803450285,-0.22867801366626278,0.15045426494867986,0.7210143526110763,-0.038635393499266465
8238,5.0,299.80136,1728.8756,0.0,0.0,0.0,0.0,0.08210657735151594,0.0,-0.12046257874623088,-0.18050689814464382,-0.2245655456178938,0.15273422966119485,0.7127335560363253,-0.07044019652340613
8239,5.0,299.71529,1998.5413,0.0,0.0,0.0,0.0,0.08211654416109976,0.0,-0.15613734157955586,-0.17172932531086482,-0.27963997460081674,0.17005676350329585,0.7092132414788973,-0.023776729262830476
8240,5.0,301.4437,2200.5628,0.0,0.0,0.0,0.0,0.08212651097068357,0.0,-0.1965291686634188,-0.19661226530411982,-0.27577469904684376,0.18129015060444484,0.7154832938927034,-0.07606762039253963
8241,5.0,299.67329,1851.2156,0.0,0.0,0.0,0.0,0.08213647778026739,0.0,-0.1986365971489058,-0.13396605137141987,-0.23012065889364075,0.2003666608996498,0.6981304436076103,-0.04174195548436026
8242,5.0,299.72005,1584.993,0.0,0.0,0.0,0.0,0.08214644458985122,0.0,-0.14137021435715386,-0.13256675298331985,-0.20786133751681682,0.18951787313895782,0.7093040590853603,-0.09852699989560781
8243,5.0,299.08238,1863.6043,0.0,0.0,0.0,0.0,0.08215641139943503,0.0,-0.17528977470475385,-0.15473447655110387,-0.23646492174477077,0.1997336328996748,0.7051020298606524,-0.030703832823232368
8244,5.0,299.1748,1973.0853,0.0,0.0,0.0,0.0,0.08216637820901886,0.0,-0.17993799874349783,-0.15512311875945986,-0.26470755588960176,0.15967087905078883,0.7271523684043513,-0.07822035736949823
8245,5.0,299.7015,1976.3296,0.0,0.0,0.0,0.0,0.08217634501860267,0.0,-0.18026318109809084,-0.17272857229448282,-0.24776309605731378,0.14744212571390486,0.7133047757802002,-0.02414198059262798
8246,5.0,300.10407999999995,1856.7401,0.0,0.0,0.0,0.0,0.0821863118281865,0.0,-0.16202972528358883,-0.16364712575571386,-0.2387257866929008,0.15889453695666986,0.7109545320407493,-0.04399793758025836
8247,5.0,300.23807,1861.6921,0.0,0.0,0.0,0.0,0.08219627863777032,0.0,-0.1780397253436528,-0.15360616176974784,-0.23426203496736278,0.19166471705333482,0.7117076707075782,0.0048715912742636255
8248,5.0,301.10696,2057.1204,0.0,0.0,0.0,0.0,0.08220624544735414,0.0,-0.18402993834484083,-0.19544084686350982,-0.24584243996275976,0.1842491955339798,0.7075176079665514,-0.05664698807187244
8249,5.0,300.58874,2179.4341,0.0,0.0,0.0,0.0,0.08221621225693797,0.0,-0.22501659389990877,-0.16460530571277884,-0.27287166658283674,0.18605629668982682,0.7020152343585093,-0.02011145509309608
8250,5.0,300.54977,1904.6196,0.0,0.0,0.0,0.0,0.08222617906652177,0.0,-0.16036939340472686,-0.15043749565952486,-0.26814989071933376,0.14919898992979386,0.7159810327393263,-0.050824710129008355
8251,5.0,300.08445,1594.4265,0.0,0.0,0.0,0.0,0.0822361458761056,0.0,-0.14399275892847885,-0.12265146240725688,-0.2180216117020578,0.17885635426174784,0.7326576601726813,-0.04424464270135625
8252,5.0,299.57944,1745.9357,0.0,0.0,0.0,0.0,0.08224611268568942,0.0,-0.15067962190342085,-0.14833765641728686,-0.23170358859736376,0.1847700263503818,0.7290990143639703,-0.06058515177178894
8253,5.0,298.99472000000003,1950.5948,0.0,0.0,0.0,0.0,0.08225607949527323,0.0,-0.22352673121787078,-0.15964499051073386,-0.20976039111923878,0.18766239942333682,0.7123466971481452,-0.07781222326896853
8254,5.0,298.91053,1739.1136,0.0,0.0,0.0,0.0,0.08226604630485705,0.0,-0.12697925623437686,-0.17009355461442685,-0.23157429788460376,0.16571695252998986,0.6821633242917783,-0.0955221185712991
8255,5.0,300.01183,1547.5943,0.0,0.0,0.0,0.0,0.08227601311444088,0.0,-0.13418857122588088,-0.14182533590457086,-0.19441612677237782,0.16852395928201985,0.7137167227408563,-0.06799438708752352
8256,5.0,300.44197,1699.7289,0.0,0.0,0.0,0.0,0.08228597992402471,0.0,-0.12247141799698787,-0.16093712756825784,-0.2332665876716198,0.17926196840927883,0.7297163471198963,-0.07972624966811823
8257,5.0,300.27328,1850.5307,0.0,0.0,0.0,0.0,0.08229594673360852,0.0,-0.16847290160948084,-0.15746435470552186,-0.2365778687334178,0.17550874818386483,0.7150966781845474,-0.051074364821147356
8258,5.0,300.33263999999997,1810.6576,0.0,0.0,0.0,0.0,0.08230591354319235,0.0,-0.14963217461254585,-0.14960443182480787,-0.25115810197487476,0.16187405967072585,0.7300285193432053,-0.03550503938857457
8259,5.0,299.34831,1883.595,0.0,0.0,0.0,0.0,0.08231588035277615,0.0,-0.18865527306382582,-0.16058093976060486,-0.22332963380841878,0.18060363313169084,0.7052191615722123,-0.014898154645833384
8260,5.0,299.92929,2057.5919,0.0,0.0,0.0,0.0,0.08232584716235998,0.0,-0.16647429618473386,-0.17379949659017482,-0.28518275662284676,0.1908188963998588,0.7076309602552383,-0.03583878775951296
8261,5.0,300.79149,2041.4728,0.0,0.0,0.0,0.0,0.08233581397194381,0.0,-0.19350797097274983,-0.1848139203447138,-0.24223485417421875,0.1853336163210038,0.6882977126496954,-0.04496580826127975
8262,5.0,299.71472,2003.354,0.0,0.0,0.0,0.0,0.08234578078152763,0.0,-0.16119345957855585,-0.16093376357792585,-0.2868423690941377,0.17140868231671985,0.6763638961519193,-0.035865462581645566
8263,5.0,299.48661,1947.4272,0.0,0.0,0.0,0.0,0.08235574759111144,0.0,-0.1984317078461848,-0.13608591243563387,-0.25745163139349775,0.16472812175739984,0.7174836218426203,-0.05359271384493905
8264,5.0,299.61523,1783.8236,0.0,0.0,0.0,0.0,0.08236571440069526,0.0,-0.17572317217002684,-0.13957318490730086,-0.22694146511487878,0.16955654219392785,0.7368737026462723,-0.061262697928157535
8265,5.0,300.08765,1766.8289,0.0,0.0,0.0,0.0,0.08237568121027909,0.0,-0.18982905237716882,-0.13996603210357186,-0.2072767834016258,0.18176905313170882,0.6992908074896294,-0.07701383386592363
8266,5.0,299.89441,1906.6879999999999,0.0,0.0,0.0,0.0,0.08238564801986292,0.0,-0.16336673918804184,-0.16230868316861985,-0.25391012977647875,0.16250964106095284,0.6873943596555413,-0.03961389418708697
8267,5.0,300.79585,1828.898,0.0,0.0,0.0,0.0,0.08239561482944673,0.0,-0.17559349642222882,-0.15580024340378684,-0.22454558459092377,0.16502522695172184,0.7007028120339833,-0.02719979004916027
8268,5.0,300.53875,1737.6049,0.0,0.0,0.0,0.0,0.08240558163903056,0.0,-0.12972599487045888,-0.15641815371226986,-0.24204436315541877,0.17063937217829483,0.7199875249597363,-0.035288802697983665
8269,5.0,300.18672000000004,1910.2929,0.0,0.0,0.0,0.0,0.08241554844861437,0.0,-0.17738634114916882,-0.16380445309874084,-0.23949055747087775,0.17569766866500983,0.7185990379502033,-0.025106555171074078
8270,5.0,300.48124,2051.5478,0.0,0.0,0.0,0.0,0.08242551525819819,0.0,-0.18599892646916483,-0.18210940384029883,-0.2555109737419698,0.17832452968176082,0.7272834930997923,-0.032624767561563864
8271,5.0,299.82265,2056.2796,0.0,0.0,0.0,0.0,0.08243548206778202,0.0,-0.18217208349148484,-0.17372987617580385,-0.26915570356359975,0.17055682269264782,0.7145684911724193,-0.03847339406002836
8272,5.0,299.39751,2059.6055,0.0,0.0,0.0,0.0,0.08244544887736584,0.0,-0.17531864220010282,-0.18552412760480583,-0.26522587384575574,0.1904613103070678,0.7376005880030103,-0.08397306252074602
8273,5.0,299.24664,1833.2937,0.0,0.0,0.0,0.0,0.08245541568694965,0.0,-0.15477643523774484,-0.16985253281313983,-0.23264652927292478,0.16030521414339285,0.6902645729488093,-0.06072538963862934
8274,5.0,299.88252,1523.1113,0.0,0.0,0.0,0.0,0.08246538249653347,0.0,-0.08828065416737223,-0.14589153895337384,-0.22881560289734176,0.18793876338811183,0.7009310871490124,-0.09092694628129092
8275,5.0,299.57327000000004,1643.4679,0.0,0.0,0.0,0.0,0.0824753493061173,0.0,-0.15923986272325086,-0.12468151911510789,-0.2156518122356768,0.16175054448353585,0.7018352304782443,-0.051215692945095356
8276,5.0,300.23312000000004,1836.6165,0.0,0.0,0.0,0.0,0.08248531611570113,0.0,-0.18659669336565982,-0.14823509524216485,-0.22345375694566877,0.16347261369099084,0.7157200195135663,-0.07934199483269523
8277,5.0,300.28811,1963.9144,0.0,0.0,0.0,0.0,0.08249528292528494,0.0,-0.1978416315179488,-0.1891774616353618,-0.2099618455041208,0.16334352562825086,0.6990445167878223,-0.06035232615056085
8278,5.0,300.51276,1873.0693,0.0,0.0,0.0,0.0,0.08250524973486877,0.0,-0.15720829627275085,-0.15764328454068086,-0.25451470571364576,0.16880881428263284,0.7193236941567213,-0.05134810852116375
8279,5.0,300.08405,1922.1745,0.0,0.0,0.0,0.0,0.08251521654445258,0.0,-0.16086656483129386,-0.16691512077323983,-0.25651135556569976,0.16486273203318486,0.7412629500919573,-0.007757758089031113
8280,5.0,300.22802,2070.4643,0.0,0.0,0.0,0.0,0.0825251833540364,0.0,-0.15860518312561286,-0.1891870368488068,-0.28157723786450967,0.17394010530655182,0.7311731069211673,-0.030313031378913266
8281,5.0,299.06436,2124.3474,0.0,0.0,0.0,0.0,0.08253515016362023,0.0,-0.2287035374362818,-0.16632140687714483,-0.2507236203319948,0.16727446992120484,0.7201886145745824,-0.03254960061614547
8282,5.0,298.51658,1889.7120000000002,0.0,0.0,0.0,0.0,0.08254511697320405,0.0,-0.17585290871283085,-0.14632948591159586,-0.25224286726693274,0.16947725537360284,0.7130486768174252,-0.04085830817815106
8283,5.0,300.01394,1755.5520000000001,0.0,0.0,0.0,0.0,0.08255508378278786,0.0,-0.1900596782324298,-0.12424729078475288,-0.2193370028493768,0.17045851716794583,0.7308214686064632,-0.04727024093720955
8284,5.0,299.71814,1819.1003,0.0,0.0,0.0,0.0,0.08256505059237168,0.0,-0.14891004139877687,-0.16655342088504285,-0.23749759584918775,0.16375037594090386,0.7177189491783453,-0.07033514984578884
8285,5.0,299.35695,1977.0049,0.0,0.0,0.0,0.0,0.08257501740195551,0.0,-0.17301951692819684,-0.18129097133702585,-0.24664963552242378,0.16351864564303384,0.7002120848780523,-0.06893676135627864
8286,5.0,300.20259,1940.7803,0.0,0.0,0.0,0.0,0.08258498421153934,0.0,-0.13333379344152088,-0.18066068924482181,-0.2759542570970647,0.16967657180077383,0.7139567008945403,-0.05863333215715935
8287,5.0,300.31689,1657.3947,0.0,0.0,0.0,0.0,0.08259495102112314,0.0,-0.17641150336045983,-0.13434405445372585,-0.1930510357076538,0.1794727953575858,0.7205703464172563,-0.03873179208728026
8288,5.0,300.59758,1935.7521,0.0,0.0,0.0,0.0,0.08260491783070698,0.0,-0.16695216519689585,-0.1784089739450948,-0.24305915339557077,0.17818661621064982,0.7227591794157773,-0.043057742812468366
8289,5.0,300.32547999999997,2092.424,0.0,0.0,0.0,0.0,0.08261488464029079,0.0,-0.18979053874086782,-0.2105600278331568,-0.23569408159869476,0.18178592374587382,0.7089215774376123,-0.05262101510503986
8290,5.0,299.91918,1905.2796,0.0,0.0,0.0,0.0,0.08262485144987461,0.0,-0.1324450515138089,-0.1952479949719768,-0.25146436695010077,0.16515464938699484,0.7350959857433252,-0.05077898823149595
8291,5.0,299.65165,1922.8282,0.0,0.0,0.0,0.0,0.08263481825945844,0.0,-0.15188275507216087,-0.17592812226775384,-0.25668089257243176,0.17790362559022083,0.7285822568129703,-0.051151703161530046
8292,5.0,300.06956,1952.0396,0.0,0.0,0.0,0.0,0.08264478506904226,0.0,-0.1401326914800199,-0.18143163071590782,-0.27180696364275875,0.15970471147162785,0.6943013005522034,-0.054114679501453045
8293,5.0,300.46765,1805.3355,0.0,0.0,0.0,0.0,0.08265475187862607,0.0,-0.19208263205707982,-0.14100986209158986,-0.2156844084913938,0.16563202190660786,0.6782201804676203,-0.05480704038753374
8294,5.0,299.66444,1916.0683,0.0,0.0,0.0,0.0,0.08266471868820989,0.0,-0.17619038179113683,-0.16643125332048586,-0.2398152838629258,0.17253778743315384,0.6879316557860683,-0.05669299975891345
8295,5.0,299.81657,1890.1898,0.0,0.0,0.0,0.0,0.08267468549779372,0.0,-0.2100897885942478,-0.14554278840145488,-0.2189379241649908,0.1922454309506468,0.7257292687714023,-0.05665179290384665
8296,5.0,300.06199,1886.2966,0.0,0.0,0.0,0.0,0.08268465230737755,0.0,-0.1901228746411668,-0.15424059818736185,-0.2290235927453688,0.17464342246596382,0.7255579383119933,-0.049641440715228746
8297,5.0,300.77115,1941.7761,0.0,0.0,0.0,0.0,0.08269461911696135,0.0,-0.17884939323356083,-0.18573234036785483,-0.22566972478186778,0.18246808424319783,0.6966976471712043,-0.07356548539684812
8298,5.0,300.87175,2101.4712,0.0,0.0,0.0,0.0,0.08270458592654518,0.0,-0.18818878285028684,-0.18674370582266883,-0.26386227225867875,0.1890848809737248,0.7181734627757024,-0.02328229969103408
8299,5.0,300.76311,2121.7576,0.0,0.0,0.0,0.0,0.082714552736129,0.0,-0.1928384051741688,-0.18419526023115684,-0.26792766470740176,0.17365184578560283,0.7168514348402283,-0.013708629425936385
8300,5.0,300.48359,2140.6183,0.0,0.0,0.0,0.0,0.08272451954571282,0.0,-0.17658926795800384,-0.20330503552714482,-0.27080020847589975,0.16434646084223287,0.6916404551270984,-0.02176240326278198
8301,5.0,301.51469,2106.0237,0.0,0.0,0.0,0.0,0.08273448635529665,0.0,-0.1921546437416868,-0.16914851651115884,-0.27887545713536477,0.12863036753732887,0.6992739470079653,-0.04036275085899336
8302,5.0,300.14554,1927.0303,0.0,0.0,0.0,0.0,0.08274445316488047,0.0,-0.16182008383789884,-0.17005851642596884,-0.25389050312204176,0.19529510096912583,0.7205343355087023,-0.043457567248927964
8303,5.0,299.7728,1959.0585,0.0,0.0,0.0,0.0,0.08275441997446428,0.0,-0.16789523759496985,-0.16852683691230383,-0.25908278166947973,0.1805771771715798,0.7504412937377893,-0.06279272280440924
8304,5.0,299.48807,1962.1828,0.0,0.0,0.0,0.0,0.0827643867840481,0.0,-0.17133293173924385,-0.16532542255884886,-0.25979621106488976,0.1839959843339898,0.7221426775249333,-0.04959141757104186
8305,5.0,299.29694,1575.9714,0.0,0.0,0.0,0.0,0.08277435359363193,0.0,-0.13852510940136387,-0.13366168117388086,-0.2068691630188968,0.15813259314647185,0.6786568304657143,-0.05997018292834624
8306,5.0,299.98892,1448.7415,0.0,0.0,0.0,0.0,0.08278432040321576,0.0,-0.11044370361244489,-0.12879031919811487,-0.2011472079816838,0.18534442769957082,0.6940955195893944,-0.07137522472893623
8307,5.0,299.94741,1937.0213,0.0,0.0,0.0,0.0,0.08279428721279956,0.0,-0.18929483652694581,-0.17374726354751985,-0.22576401783617378,0.15266744634710386,0.7237178862628943,-0.05804188084853764
8308,5.0,299.5858,2271.4663,0.0,0.0,0.0,0.0,0.0828042540223834,0.0,-0.2185680068184828,-0.2152095792295318,-0.25669144050597276,0.18182144829437982,0.7118928826933573,-0.09511462788458291
8309,5.0,300.14602,2228.0466,0.0,0.0,0.0,0.0,0.08281422083196721,0.0,-0.20123182449753482,-0.19599027159773383,-0.2800484461136297,0.1393227804100879,0.7101717456759944,-0.050125732719774656
8310,5.0,300.06639,1829.5499,0.0,0.0,0.0,0.0,0.08282418764155103,0.0,-0.15639016774450787,-0.15786560174512185,-0.24188172638186775,0.18318411769136483,0.7198458016682493,-0.05073322479072945
8311,5.0,300.93931000000003,1780.2562,0.0,0.0,0.0,0.0,0.08283415445113486,0.0,-0.1296778046957029,-0.14567537217703985,-0.26580026506244375,0.18345495944309484,0.7238439751053384,-0.010986217911505291
8312,5.0,301.37192999999996,1954.7683,0.0,0.0,0.0,0.0,0.08284412126071868,0.0,-0.18114415139753584,-0.15456882029225485,-0.25848779107825876,0.17310740624187085,0.7160500452036374,-0.03966651834428057
8313,5.0,300.71785,1916.4709,0.0,0.0,0.0,0.0,0.08285408807030249,0.0,-0.19917506864954881,-0.15231292026961485,-0.2310713205349638,0.15254494441001387,0.6996094847785804,-0.04427240474084616
8314,5.0,299.95649,1690.1022,0.0,0.0,0.0,0.0,0.08286405487988631,0.0,-0.15980642151666585,-0.14095989872915887,-0.2129825264372388,0.15513278516541387,0.7111822397357223,-0.06384770158327753
8315,5.0,299.77923,1619.6807,0.0,0.0,0.0,0.0,0.08287402168947014,0.0,-0.13638971521311688,-0.13551242301153485,-0.22044036128076983,0.17561677077702584,0.7260040014035163,-0.06042560743754315
8316,5.0,299.32454,1950.3499,0.0,0.0,0.0,0.0,0.08288398849905397,0.0,-0.2053278170992778,-0.14621213128501387,-0.24131771084620374,0.17926242437182383,0.7023234853039314,-0.05348751821955704
8317,5.0,299.43924,2305.8453,0.0,0.0,0.0,0.0,0.08289395530863777,0.0,-0.2071111372752778,-0.18778182108012284,-0.3060264257549567,0.17497660949634683,0.7014266576404213,-0.04617309980843016
8318,5.0,299.54455,2058.5531,0.0,0.0,0.0,0.0,0.0829039221182216,0.0,-0.2016583622596308,-0.15338133170505885,-0.27070905649690374,0.14920398525278686,0.7075508830998353,-0.01191177324185049
8319,5.0,300.18356,2001.2925,0.0,0.0,0.0,0.0,0.08291388892780542,0.0,-0.16517882553438085,-0.19706333385113683,-0.24610077820825577,0.1953637486634008,0.7232554389172543,-0.05715899753290385
8320,5.0,300.52946000000003,2071.2594,0.0,0.0,0.0,0.0,0.08292385573738924,0.0,-0.1919884403277838,-0.18703700119661482,-0.25058567646338076,0.18443557275737382,0.7187915250717003,-0.04520341439647966
8321,5.0,300.81225,2216.8831,0.0,0.0,0.0,0.0,0.08293382254697307,0.0,-0.2117828383188388,-0.2156809735735548,-0.24641330506909975,0.1868023122084528,0.7219656525999623,-0.07073733312848123
8322,5.0,300.39701,1950.8896,0.0,0.0,0.0,0.0,0.08294378935655689,0.0,-0.17103252334959582,-0.16798270134360185,-0.2540064999934898,0.14872043190756384,0.7129226994324923,-0.018296034140677982
8323,5.0,300.53371,1494.8232,0.0,0.0,0.0,0.0,0.08295375616614072,0.0,-0.08553359331775842,-0.14661260825453787,-0.2222427204261488,0.15743538588516284,0.7429718267831102,-0.07102572741169352
8324,5.0,300.72457,1640.6292,0.0,0.0,0.0,0.0,0.08296372297572452,0.0,-0.1105959343074689,-0.16141430757035186,-0.2267000481460528,0.15752263685127385,0.7234693360133644,-0.03797003572835076
8325,5.0,301.18406,2042.1328,0.0,0.0,0.0,0.0,0.08297368978530835,0.0,-0.19103689715887381,-0.17843146809731483,-0.2512890138877948,0.17207751857522882,0.7205495950552083,-0.09619859473556211
8326,5.0,301.67176,2146.1725,0.0,0.0,0.0,0.0,0.08298365659489218,0.0,-0.20922574970397378,-0.18764572132669083,-0.25551137904200977,0.17085780863485284,0.7054425426892583,-0.04761494355497905
8327,5.0,300.62638,1870.8641,0.0,0.0,0.0,0.0,0.08299362340447598,0.0,-0.2030459981390798,-0.15974688294078984,-0.2059030695785508,0.1988127506787908,0.7156219774338903,-0.07778073753536113
8328,5.0,300.26132,1867.2315,0.0,0.0,0.0,0.0,0.08300359021405981,0.0,-0.15813495401920485,-0.14745020131720185,-0.26200658576053676,0.20783784024699778,0.7014967137523352,-0.04630189706839146
8329,5.0,300.01411,1957.6198,0.0,0.0,0.0,0.0,0.08301355702364363,0.0,-0.19434163262502582,-0.16175859982183086,-0.23896730498673677,0.1821565908974558,0.6931953482005544,-0.07151953687442873
8330,5.0,300.48486,2060.9182,0.0,0.0,0.0,0.0,0.08302352383322745,0.0,-0.18512270831268882,-0.16611894937466384,-0.27522599372019074,0.15490725595815585,0.6960584890081244,0.0056146279389206345
8331,5.0,300.03274,1832.1218,0.0,0.0,0.0,0.0,0.08303349064281128,0.0,-0.17687990861668781,-0.15709519729658883,-0.22294417320537677,0.14051277172503085,0.7113457783018624,-0.044517343767019754
8332,5.0,299.66472000000005,1777.7879999999998,0.0,0.0,0.0,0.0,0.0830434574523951,0.0,-0.14985365081940386,-0.17345768680144083,-0.2170918230127948,0.16176482117744484,0.7249261667421423,-0.027824401993804676
8333,5.0,298.9874,1858.7989,0.0,0.0,0.0,0.0,0.08305342426197893,0.0,-0.20379221630772582,-0.14477850398352585,-0.21645773110021477,0.16799502246481784,0.7342094324358294,-0.07248148409536553
8334,5.0,299.13095,2075.2887,0.0,0.0,0.0,0.0,0.08306339107156273,0.0,-0.17235135954725483,-0.17547858372838784,-0.28300600156551775,0.17396186991869983,0.7203679902397854,-0.036532026120180264
8335,5.0,299.53466000000003,1982.6026,0.0,0.0,0.0,0.0,0.08307335788114656,0.0,-0.16103267705268784,-0.16975098488811782,-0.2718780228722717,0.16595693068367384,0.7268068703852534,-0.06142671474834474
8336,5.0,300.54239,1763.9123,0.0,0.0,0.0,0.0,0.08308332469073039,0.0,-0.14118972411684086,-0.14636969167556385,-0.2486258886499648,0.17739968565298583,0.6992995417054914,-0.04195205187934516
8337,5.0,300.74726,1744.8078,0.0,0.0,0.0,0.0,0.08309329150031419,0.0,-0.14427626630645887,-0.16126763961837684,-0.2248340974243978,0.19350078702954082,0.6801430251823903,-0.07767201275988082
8338,5.0,301.16718,1847.1136,0.0,0.0,0.0,0.0,0.08310325830989802,0.0,-0.2034157634980728,-0.1347482804486199,-0.22331236802671478,0.19950800236740682,0.6936419787121333,-0.051003019855106156
8339,5.0,300.46521,1931.6346,0.0,0.0,0.0,0.0,0.08311322511948184,0.0,-0.16580548019122684,-0.18016009303291683,-0.24120311225989377,0.18757374003958682,0.7180849351144654,-0.05843194768653424
8340,5.0,300.2451,1828.3546,0.0,0.0,0.0,0.0,0.08312319192906566,0.0,-0.14227944420188784,-0.18009489038898183,-0.2333998199272688,0.17700099200363784,0.7199500245735353,-0.08392446907245023
8341,5.0,299.94473,1804.8225,0.0,0.0,0.0,0.0,0.08313315873864949,0.0,-0.12341645610025588,-0.16577641004585786,-0.25942810743606076,0.14831194012974885,0.7263671198418533,-0.05781837611497944
8342,5.0,300.52261,1882.8336,0.0,0.0,0.0,0.0,0.0831431255482333,0.0,-0.15996266468208584,-0.17429406396398484,-0.2380776713989368,0.17641246594805482,0.7167424192619692,-0.04868506029034136
8343,5.0,299.90963,1933.2564,0.0,0.0,0.0,0.0,0.08315309235781713,0.0,-0.14884789877014387,-0.16600041937796584,-0.2728133337745797,0.18821071971495182,0.7345352430054843,-0.02799597664648777
8344,5.0,300.05894,1909.9776,0.0,0.0,0.0,0.0,0.08316305916740094,0.0,-0.1906291247886298,-0.16935056871359982,-0.22060579462459678,0.17838148446988183,0.7520296443295473,-0.06140507983220954
8345,5.0,299.78106,1896.03,0.0,0.0,0.0,0.0,0.08317302597698477,0.0,-0.16631092987111085,-0.15369148756066886,-0.2563433586991198,0.15937318617140886,0.7278103527542893,-0.03737492557361797
8346,5.0,300.42094,1981.0162,0.0,0.0,0.0,0.0,0.08318299278656857,0.0,-0.16665871783543484,-0.15309835121713083,-0.2824223897729197,0.17222974927025284,0.7193227619666294,-0.062190832993257346
8347,5.0,299.12304,2102.5943,0.0,0.0,0.0,0.0,0.0831929595961524,0.0,-0.17437728219469784,-0.15923684323795284,-0.30552203998767774,0.16084393895656085,0.7250912758459372,-0.02442338750315068
8348,5.0,298.70235,2117.8724,0.0,0.0,0.0,0.0,0.08320292640573622,0.0,-0.20831291268888377,-0.16552563064610784,-0.26994176272617776,0.14553934335111485,0.6899392588717034,-0.051155558578160544
8349,5.0,300.50047,2136.3265,0.0,0.0,0.0,0.0,0.08321289321532005,0.0,-0.2049365708381648,-0.16658218705538183,-0.27787115403374774,0.17539669285530585,0.6966290197419313,-0.026115762403175074
8350,5.0,300.3991,1926.8628,0.0,0.0,0.0,0.0,0.08322286002490387,0.0,-0.22276106877980578,-0.14740264949000886,-0.2155544490335678,0.18163559796103784,0.6987033960091563,-0.04715462504779916
8351,5.0,300.14167000000003,1998.4063,0.0,0.0,0.0,0.0,0.08323282683448768,0.0,-0.16622634375276285,-0.16975482510599685,-0.27148444613592876,0.21081901455871682,0.7160603398246533,-0.03845216951018367
8352,5.0,300.66402999999997,1985.6084,0.0,0.0,0.0,0.0,0.08324279364407151,0.0,-0.15857990253561785,-0.19373266931492583,-0.25126281124020877,0.17126062621210783,0.7199550705590333,-0.08083192540248992
8353,5.0,300.69277999999997,1837.3461,0.0,0.0,0.0,0.0,0.08325276045365532,0.0,-0.11883031389513887,-0.19190500931454982,-0.24777202279069477,0.18233649345271083,0.7344519335822624,-0.07681242102429572
8354,5.0,300.0295,1688.9087,0.0,0.0,0.0,0.0,0.08326272726323915,0.0,-0.13442045351126589,-0.15775960565216085,-0.2212060338513358,0.14945876699043187,0.7308813111573692,-0.09734244466745132
8355,5.0,299.77915,1811.614,0.0,0.0,0.0,0.0,0.08327269407282296,0.0,-0.15417479772586787,-0.17013230129825083,-0.2263783209743008,0.16172339951335685,0.7524213870832093,-0.052817615008692746
8356,5.0,298.96009,1871.3429999999998,0.0,0.0,0.0,0.0,0.08328266088240678,0.0,-0.17485866718470683,-0.17405921285580683,-0.2199236847897778,0.15144046127100988,0.6945916169708554,-0.07710233112965763
8357,5.0,300.48259,2010.6095,0.0,0.0,0.0,0.0,0.0832926276919906,0.0,-0.16836683458901283,-0.16898120865464683,-0.2738270499696257,0.16467123789678584,0.6890380539677614,-0.05074110585000725
8358,5.0,299.65852,1913.1416,0.0,0.0,0.0,0.0,0.08330259450157443,0.0,-0.14677295508286287,-0.17239055206112283,-0.26238377824276277,0.15168019624466986,0.7101525648516014,-0.060185631310359346
8359,5.0,299.56908,2002.1813,0.0,0.0,0.0,0.0,0.08331256131115826,0.0,-0.17465198442930885,-0.15776757993044785,-0.2761935462406807,0.1880435638459548,0.7336816608562423,-0.02873405436383037
8360,5.0,300.11312000000004,2220.3212,0.0,0.0,0.0,0.0,0.08332252812074206,0.0,-0.2109680535159258,-0.1898027484045728,-0.27415139132663574,0.18065920989967582,0.7400263999349193,-0.042783686018171056
8361,5.0,300.39891,2197.5768,0.0,0.0,0.0,0.0,0.08333249493032589,0.0,-0.25576559335959875,-0.16765137869340285,-0.24459152191930378,0.2012339928527488,0.7388659853903953,-0.016897414630144984
8362,5.0,300.70975,2107.2851,0.0,0.0,0.0,0.0,0.08334246173990971,0.0,-0.2130163183280738,-0.1874886472961888,-0.24005707573428875,0.2041378967118418,0.7113386652861603,-0.02184267597545428
8363,5.0,300.37568999999996,1840.635,0.0,0.0,0.0,0.0,0.08335242854949353,0.0,-0.16699383004100785,-0.13110560580911587,-0.26140765362642676,0.18045497920951986,0.6986626126926314,-0.04306484468241926
8364,5.0,299.66756000000004,1909.088,0.0,0.0,0.0,0.0,0.08336239535907734,0.0,-0.14469070586236088,-0.16088761003587085,-0.27473676617440773,0.18038686853779784,0.6775788032868214,-0.05163002813623705
8365,5.0,300.06315,1958.8521,0.0,0.0,0.0,0.0,0.08337236216866117,0.0,-0.1814161279893778,-0.15364638779871784,-0.26037959994246573,0.17173135181106486,0.6981034202274433,-0.05863045857987574
8366,5.0,299.74969,1874.7232,0.0,0.0,0.0,0.0,0.083382328978245,0.0,-0.18927988095546983,-0.14413629593764488,-0.23645286406858076,0.14687704626563586,0.7343757675722452,-0.03999081815803646
8367,5.0,299.53581,1864.3582,0.0,0.0,0.0,0.0,0.08339229578782881,0.0,-0.1980176938553248,-0.15003537722483884,-0.2186652585630808,0.13751648985432086,0.7312196961607653,-0.055550443747401944
8368,5.0,298.33201,2053.1732,0.0,0.0,0.0,0.0,0.08340226259741264,0.0,-0.20523004859712882,-0.17900114770103784,-0.23988219889952977,0.14716140477369985,0.7438757978598253,-0.038089222311113564
8369,5.0,298.44687000000005,2091.8424,0.0,0.0,0.0,0.0,0.08341222940699644,0.0,-0.15285214157533186,-0.18404047614588082,-0.2989752385740587,0.15516522943361585,0.7225208021972513,-0.05931894581082414
8370,5.0,298.66887,1975.8185,0.0,0.0,0.0,0.0,0.08342219621658027,0.0,-0.13237193538659286,-0.20043736549162783,-0.2677901869338338,0.18552307382470182,0.7104354642795213,-0.05531661906157524
8371,5.0,298.78421000000003,1807.0021,0.0,0.0,0.0,0.0,0.0834321630261641,0.0,-0.11060699899856088,-0.18353676925616882,-0.2551397493028328,0.17050323189485883,0.7102104416973133,-0.06749384153812353
8372,5.0,299.34783999999996,1720.4755,0.0,0.0,0.0,0.0,0.08344212983574792,0.0,-0.16618197353088385,-0.15594391213546585,-0.2008557060604148,0.18716865278210784,0.7183949592475624,-0.07875036215230562
8373,5.0,300.09406,1810.239,0.0,0.0,0.0,0.0,0.08345209664533174,0.0,-0.1897612254154748,-0.14915580521053187,-0.21135043383866378,0.17485883943722386,0.7297342715141653,-0.06156864474285214
8374,5.0,299.59474,1733.9981,0.0,0.0,0.0,0.0,0.08346206345491555,0.0,-0.17977757085516483,-0.1220512637105219,-0.2252632899017558,0.1942789732388418,0.7248456437566954,-0.07271794019170193
8375,5.0,299.9914,1783.7822,0.0,0.0,0.0,0.0,0.08347203026449938,0.0,-0.1131837851953699,-0.16830227029264086,-0.2607391821379538,0.17957106035228382,0.7077237131693923,-0.048726064495388154
8376,5.0,300.13764,1815.4070000000002,0.0,0.0,0.0,0.0,0.08348199707408321,0.0,-0.1479929791307699,-0.13475414716669887,-0.2690912709897407,0.16186974322529984,0.7028231695907463,-0.06912084660794644
8377,5.0,300.16526,2134.9617,0.0,0.0,0.0,0.0,0.08349196388366702,0.0,-0.19500805734829682,-0.17090052725906882,-0.28306646219898474,0.16214645169510886,0.7058685332963004,-0.01967050283507748
8378,5.0,300.23361,2264.6821,0.0,0.0,0.0,0.0,0.08350193069325085,0.0,-0.26139881808555476,-0.17049659510670384,-0.2565113859632027,0.16202302770042784,0.7351675009353833,-0.04211237438966776
8379,5.0,299.69102999999996,2049.4222,0.0,0.0,0.0,0.0,0.08351189750283465,0.0,-0.2316891396509378,-0.14612982497939087,-0.24515418983233475,0.15563349283482986,0.7475311077280763,0.0058276210132914156
8380,5.0,299.52949,2061.9983,0.0,0.0,0.0,0.0,0.08352186431241848,0.0,-0.21755617526862278,-0.17258667675047884,-0.23665314308334676,0.17522827042368383,0.7381271335499763,-0.03868928523233516
8381,5.0,299.50612,2100.6892,0.0,0.0,0.0,0.0,0.08353183112200231,0.0,-0.17531619013486083,-0.16897129906866884,-0.2942695733871457,0.16705537485208186,0.7390838240293943,-0.004703805974304505
8382,5.0,298.8763,1828.9232,0.0,0.0,0.0,0.0,0.08354179793158613,0.0,-0.14201447930073785,-0.16047858123550285,-0.2534539139189537,0.1930489686774498,0.7212543206322592,-0.06663116648248414
8383,5.0,298.9267,1686.033,0.0,0.0,0.0,0.0,0.08355176474116995,0.0,-0.1005270856787509,-0.16454902980222486,-0.24743581627501376,0.19235910747936583,0.6819206508928284,-0.06197640495409494
8384,5.0,299.3888,1664.2295,0.0,0.0,0.0,0.0,0.08356173155075376,0.0,-0.16461443509617985,-0.16610865475364786,-0.17516114260455884,0.1881276636042548,0.7053651405141192,-0.08035959988162501
8385,5.0,299.59803999999997,1726.2588,0.0,0.0,0.0,0.0,0.08357169836033759,0.0,-0.15686427759879884,-0.15720370624979785,-0.21067158666916683,0.16911965914831084,0.7255016218714353,-0.07426506670314144
8386,5.0,300.22491,1770.7666,0.0,0.0,0.0,0.0,0.08358166516992142,0.0,-0.16686907868869583,-0.16280704009780386,-0.2085927115714978,0.15005867184463786,0.7390194826480443,-0.08150512167617922
8387,5.0,300.54271,1988.8398,0.0,0.0,0.0,0.0,0.08359163197950523,0.0,-0.12582319866528288,-0.19177361104158183,-0.28696082816332874,0.15344474089631685,0.7359592950935273,-0.06678881299929264
8388,5.0,299.86723,1999.4579999999999,0.0,0.0,0.0,0.0,0.08360159878908906,0.0,-0.14614269325566087,-0.2002017139158708,-0.26144088822970674,0.16514443582598684,0.7146308972460783,-0.05689019950662554
8389,5.0,299.5945,2024.7973,0.0,0.0,0.0,0.0,0.08361156559867286,0.0,-0.16186696692002586,-0.1845469998708708,-0.26907386335302275,0.17607101079685583,0.7177065368646203,-0.04500041277869496
8390,5.0,299.58381,1941.5936,0.0,0.0,0.0,0.0,0.08362153240825669,0.0,-0.2181002500423188,-0.14831359172741185,-0.22378211077307478,0.16253511416846686,0.7179747745635934,-0.005759917566784604
8391,5.0,298.94789,1823.3002,0.0,0.0,0.0,0.0,0.08363149921784052,0.0,-0.17269032210320784,-0.16286968935148685,-0.21867772153931078,0.18873357703155383,0.7054831030907613,-0.030355562551860768
8392,5.0,299.90294,1862.4637,0.0,0.0,0.0,0.0,0.08364146602742434,0.0,-0.18248413412478182,-0.15447147735514785,-0.22918684760148078,0.19019882786866282,0.7263111175088263,-0.04740284801754686
8393,5.0,299.7048,1988.8148,0.0,0.0,0.0,0.0,0.08365143283700816,0.0,-0.15131947920906988,-0.19075254878331083,-0.26247800036956176,0.1980305823965968,0.7325713717941652,-0.07778048624933633
8394,5.0,299.45522,2034.5685,0.0,0.0,0.0,0.0,0.08366139964659197,0.0,-0.18302017382518482,-0.16548974132756583,-0.2699481056718038,0.17589257745424583,0.7363309653627084,-0.04778195756896205
8395,5.0,299.57607,2026.5026,0.0,0.0,0.0,0.0,0.0836713664561758,0.0,-0.1926567902262448,-0.16164481183560084,-0.26170459670073276,0.15213658435471186,0.7220556292088423,-0.048269971241125254
8396,5.0,300.04143,2041.5217,0.0,0.0,0.0,0.0,0.08368133326575963,0.0,-0.2161390132812598,-0.16999810645500685,-0.2344345103993848,0.17312866422896883,0.7302606448086143,-0.026233935735837877
8397,5.0,300.04372,2048.4831,0.0,0.0,0.0,0.0,0.08369130007534344,0.0,-0.2130893939252858,-0.14825827840445288,-0.26134003944725376,0.1832195206498588,0.7318525012457183,-0.03868750292540926
8398,5.0,299.76335,2195.61,0.0,0.0,0.0,0.0,0.08370126688492727,0.0,-0.20994581588753883,-0.17870861226466683,-0.27875617733359276,0.17488383631719084,0.7535558928226763,-0.021687262661866182
8399,5.0,299.85499,1944.0008,0.0,0.0,0.0,0.0,0.08371123369451107,0.0,-0.14560674474776686,-0.17472550585656485,-0.27059544076319075,0.15204317282799285,0.6967646331353153,-0.04985746259679845
8400,5.0,300.83581000000004,1910.4752,0.0,0.0,0.0,0.0,0.0837212005040949,0.0,-0.11995090771073288,-0.1972289293149798,-0.2635569090760418,0.18131389105428783,0.7172177956788853,-0.028497269974461576
8401,5.0,300.94706,1801.7392,0.0,0.0,0.0,0.0,0.08373116731367873,0.0,-0.14796715138572086,-0.17469513875106785,-0.22502144736788776,0.19484465050466981,0.7177901705278743,-0.05616561321436445
8402,5.0,300.8059,1874.0392,0.0,0.0,0.0,0.0,0.08374113412326255,0.0,-0.18134563617992083,-0.17030955927074484,-0.2180059265905098,0.1992685409712738,0.7153774801847603,-0.03158753383169687
8403,5.0,301.12399,1876.763,0.0,0.0,0.0,0.0,0.08375110093284636,0.0,-0.18792288575904484,-0.17849818048389882,-0.2040680128524448,0.16310633391234186,0.7040543495222543,-0.07864773714242733
8404,5.0,299.9196,1812.7313,0.0,0.0,0.0,0.0,0.08376106774243018,0.0,-0.13894779681307987,-0.18574565447416883,-0.2263316000121898,0.15928546911025185,0.7434328859761132,-0.08049267001725802
8405,5.0,299.86449,1942.3504,0.0,0.0,0.0,0.0,0.08377103455201401,0.0,-0.14949181920869387,-0.19291976915719883,-0.24801444287711977,0.17993502992070484,0.7387810648995143,-0.11207494508093589
8406,5.0,300.67335,2093.8092,0.0,0.0,0.0,0.0,0.08378100136159784,0.0,-0.1924877497120618,-0.16544613104326183,-0.2785318234964508,0.15852448788764884,0.7321844318459773,-0.03735729502187796
8407,5.0,299.89277999999996,1936.6046,0.0,0.0,0.0,0.0,0.08379096817118165,0.0,-0.19636817335502982,-0.15907817840479385,-0.23323307949081276,0.14462879628125086,0.7059952503538063,-0.05110209848963446
8408,5.0,300.04115,1870.0271,0.0,0.0,0.0,0.0,0.08380093498076548,0.0,-0.19290472239321382,-0.13848221852463086,-0.2370546029054678,0.15676955897945083,0.7298745458580093,-0.011190964345962189
8409,5.0,299.87158999999997,2008.6685,0.0,0.0,0.0,0.0,0.0838109017903493,0.0,-0.1784356730852298,-0.16529132669298383,-0.26685806776934073,0.1875270596074798,0.7248625143708604,-0.016342371424116486
8410,5.0,299.90376000000003,2102.2686,0.0,0.0,0.0,0.0,0.08382086859993311,0.0,-0.1929773014978768,-0.18112553799319883,-0.26493432126198174,0.1906904669496838,0.7215204609035253,-0.004085806297162686
8411,5.0,300.80471,2064.764,0.0,0.0,0.0,0.0,0.08383083540951694,0.0,-0.17395500008302184,-0.17181884595719984,-0.28186285280269774,0.16782559691559684,0.6925125392231664,-0.030574191525937766
8412,5.0,301.25709,2055.3737,0.0,0.0,0.0,0.0,0.08384080221910076,0.0,-0.18707617344548083,-0.18018325593020282,-0.2575228324780247,0.1865913940676368,0.7524603566820554,-0.03610749459328227
8413,5.0,300.93611,2011.0789,0.0,0.0,0.0,0.0,0.08385076902868457,0.0,-0.16957001842025782,-0.17773124135070784,-0.26401650918890074,0.19344667947420083,0.7451215584602723,-0.03684441315251047
8414,5.0,301.02296,1955.8103,0.0,0.0,0.0,0.0,0.08386073583826839,0.0,-0.21873930688038878,-0.13800071194460986,-0.23777747579180977,0.20527029489110082,0.7447211726832572,-0.043312876147898055
8415,5.0,300.46993,2023.2528,0.0,0.0,0.0,0.0,0.08387070264785222,0.0,-0.17880533711921281,-0.17856595678308784,-0.25764702654278177,0.15719072651601684,0.6939183832069123,-0.044702253804268954
8416,5.0,301.37408,1993.9667,0.0,0.0,0.0,0.0,0.08388066945743605,0.0,-0.17129818739331484,-0.18086954035543382,-0.25394836983525276,0.17491500389026682,0.7187716147072354,-0.07643837063062983
8417,5.0,300.80171,1856.2676,0.0,0.0,0.0,0.0,0.08389063626701986,0.0,-0.12626251351113987,-0.17687736535893683,-0.2611191205279507,0.13983208044035186,0.7069677779322873,-0.07860770363097633
8418,5.0,300.34177999999997,1995.1734,0.0,0.0,0.0,0.0,0.08390060307660369,0.0,-0.1786161126630378,-0.18133941482430682,-0.24652736663285676,0.16458313580059084,0.7332734325234533,-0.07527123925119292
8419,5.0,299.88282000000004,1942.9137,0.0,0.0,0.0,0.0,0.0839105698861875,0.0,-0.17042818045995184,-0.16456869698666585,-0.2556003626657918,0.15235991480925287,0.7097265235820543,-0.04493115713435995
8420,5.0,300.34522000000004,1823.0639999999999,0.0,0.0,0.0,0.0,0.08392053669577132,0.0,-0.17602897105020684,-0.15185906528482285,-0.2262778876243888,0.17160109851070984,0.7424977473263223,-0.04930559086358295
8421,5.0,301.19391,1907.5766,0.0,0.0,0.0,0.0,0.08393050350535515,0.0,-0.13368357750854187,-0.19396709485806182,-0.25220498184569373,0.16408415065634482,0.7401636547934652,-0.053273862276970854
8422,5.0,300.5595,1945.5348,0.0,0.0,0.0,0.0,0.08394047031493897,0.0,-0.18498510894910883,-0.16407205245015086,-0.24233682766428277,0.17267949045963885,0.7365423901285743,-0.04445235187910555
8423,5.0,299.86917,2042.3073,0.0,0.0,0.0,0.0,0.08395043712452278,0.0,-0.16316725050835384,-0.2051464554638788,-0.25249671681448577,0.18397065308148983,0.6975812823184123,-0.06989134528873873
8424,5.0,300.34447,1958.1819,0.0,0.0,0.0,0.0,0.0839604039341066,0.0,-0.20023004438866682,-0.16716848396074482,-0.22783987344854478,0.17490412158419283,0.7154567467400833,-0.055306103552037446
8425,5.0,300.20018,1946.1227,0.0,0.0,0.0,0.0,0.08397037074369043,0.0,-0.18161866655186681,-0.15856001243615486,-0.2513940169956577,0.19569591231118283,0.7300763447479253,-0.05313895714540674
8426,5.0,300.87831,2099.5948,0.0,0.0,0.0,0.0,0.08398033755327426,0.0,-0.22318655276179777,-0.15871785653673284,-0.2563199830193128,0.16723283547459583,0.7301502512102193,-0.019120138818010782
8427,5.0,300.80821000000003,1923.0587,0.0,0.0,0.0,0.0,0.08399030436285806,0.0,-0.17352196738778483,-0.13289518787073387,-0.27814468089824274,0.17229442502413583,0.7093215680470882,-0.032180211172939566
8428,5.0,300.31302,1818.2773,0.0,0.0,0.0,0.0,0.0840002711724419,0.0,-0.16381716938749585,-0.13942267673744688,-0.24947105069087575,0.16585819959392983,0.7157428784358223,-0.04367938492106966
8429,5.0,300.62756,1924.6246,0.0,0.0,0.0,0.0,0.08401023798202571,0.0,-0.18032069317376684,-0.15192058983089485,-0.25279652738657477,0.18895965339386583,0.7185816809759904,-0.038567837075349165
8430,5.0,300.46299,2034.1761,0.0,0.0,0.0,0.0,0.08402020479160953,0.0,-0.18993798689541982,-0.16190912825668685,-0.26649163600317677,0.17541592434220382,0.7455216706597603,-0.03796585809818846
8431,5.0,300.14325,1990.2077,0.0,0.0,0.0,0.0,0.08403017160119336,0.0,-0.19300614872822383,-0.1898616891628898,-0.22210559729011578,0.18692022412258982,0.7263206015297623,-0.060739085740231034
8432,5.0,300.05561,1873.7247,0.0,0.0,0.0,0.0,0.08404013841077718,0.0,-0.16863367400284782,-0.16675025484946884,-0.23418159304192376,0.16636203820615486,0.7547954827300143,-0.050113128901780754
8433,5.0,299.72177999999997,1804.9249,0.0,0.0,0.0,0.0,0.084050105220361,0.0,-0.14236281442011586,-0.17062185308406583,-0.23566743312106475,0.17433926505094582,0.7552168123865963,-0.08519009342785762
8434,5.0,299.86334,1861.7087,0.0,0.0,0.0,0.0,0.08406007202994481,0.0,-0.15778606161227185,-0.16373461990184884,-0.2443922865521408,0.15676980215947486,0.7129430454945003,-0.08323439813159553
8435,5.0,299.2839,1804.6201,0.0,0.0,0.0,0.0,0.08407003883952864,0.0,-0.17113808374501385,-0.15642672580811584,-0.22099461921797076,0.16403720677921185,0.6955939543672783,-0.09640306455274172
8436,5.0,300.42177000000004,1825.7447,0.0,0.0,0.0,0.0,0.08408000564911247,0.0,-0.16775975592409886,-0.16947932240380684,-0.21774172162693478,0.16197569878825685,0.7114507510122223,-0.06676460341465333
8437,5.0,299.61084,1761.6456,0.0,0.0,0.0,0.0,0.08408997245869627,0.0,-0.14916031417347686,-0.15745049344415385,-0.22888546649173677,0.20770240923863179,0.7239087724492332,-0.06448921555284003
8438,5.0,299.08047,2046.3198,0.0,0.0,0.0,0.0,0.0840999392682801,0.0,-0.1900759104990318,-0.17132282963574683,-0.26063138245981476,0.15695938125318487,0.7220779815060483,-0.015204370985054587
8439,5.0,299.82907,2311.1783,0.0,0.0,0.0,0.0,0.08410990607786392,0.0,-0.17394006477654783,-0.20727190966864478,-0.3213285186326557,0.13975571178031487,0.7029301991988093,-0.052241625896597046
8440,5.0,300.58416,2076.8377,0.0,0.0,0.0,0.0,0.08411987288744774,0.0,-0.17400153866011484,-0.17914632617536583,-0.27815895759215176,0.14979179190079886,0.7298770384532554,-0.03875300650462396
8441,5.0,300.54025,1907.9899,0.0,0.0,0.0,0.0,0.08412983969703157,0.0,-0.14294613237018486,-0.17916959039766184,-0.25786557445685077,0.16133774639279586,0.7626830369409552,-0.07264434378393853
8442,5.0,302.0982,2006.5311,0.0,0.0,0.0,0.0,0.08413980650661539,0.0,-0.2085526273975418,-0.17351786372487982,-0.2278648500635098,0.1939590395197668,0.7383987960342873,-0.046755238335382754
8443,5.0,300.37094,1876.7198,0.0,0.0,0.0,0.0,0.0841497733161992,0.0,-0.2033121586753478,-0.14109735623772487,-0.22606645272602177,0.17542705996080285,0.7210585505804383,-0.05850095609784485
8444,5.0,299.1881,1856.9738,0.0,0.0,0.0,0.0,0.08415974012578302,0.0,-0.18208891592327683,-0.17034422255666584,-0.2120405280842708,0.1984556002835428,0.7435705360021982,-0.04306924624085366
8445,5.0,299.69572,1886.5659,0.0,0.0,0.0,0.0,0.08416970693536685,0.0,-0.14847273278811784,-0.14407903717449386,-0.28091714595436373,0.17971935963691982,0.7280703020674443,-0.03156791832301097
8446,5.0,299.20224,1809.3391,0.0,0.0,0.0,0.0,0.08417967374495068,0.0,-0.15648624411898984,-0.14546845637411887,-0.24803920670956375,0.18642515012372982,0.7155005596744074,-0.04011786350857486
8447,5.0,299.28535,1892.0985,0.0,0.0,0.0,0.0,0.08418964055453448,0.0,-0.15631327219441885,-0.14778454345269887,-0.27105288265333677,0.15241336375202785,0.6967144772553654,-0.04188565157379196
8448,5.0,299.64243,2148.2874,0.0,0.0,0.0,0.0,0.08419960736411831,0.0,-0.2239189198015768,-0.17282007891101384,-0.25628672815103076,0.18385379494745682,0.7047395700348803,-0.05539938234299335
8449,5.0,299.8021,2082.8481,0.0,0.0,0.0,0.0,0.08420957417370213,0.0,-0.18402831714468082,-0.17394215207175384,-0.27516334446650775,0.15724812713418185,0.7375574742112553,-0.018840286233141483
8450,5.0,301.06467999999995,2008.5804,0.0,0.0,0.0,0.0,0.08421954098328595,0.0,-0.18859078982746183,-0.18687062553019484,-0.23509685172475278,0.16650026578479685,0.7033687541070913,-0.05088595907105316
8451,5.0,301.14146,1966.7443,0.0,0.0,0.0,0.0,0.08422950779286978,0.0,-0.13617770276219288,-0.19023809131003783,-0.2714253736550987,0.14677899405345887,0.6949683028280313,-0.042711143390511665
8452,5.0,300.65636,1811.5425,0.0,0.0,0.0,0.0,0.0842394746024536,0.0,-0.14050396658166187,-0.1975086370050848,-0.21265107206452677,0.17822272844421383,0.7205747033926863,-0.100228603477543
8453,5.0,299.90139,1766.6878,0.0,0.0,0.0,0.0,0.08424944141203741,0.0,-0.12187131049276188,-0.17747264979268684,-0.23768502685268575,0.1958214337335708,0.7574977903492113,-0.06489130966952364
8454,5.0,299.62095,1803.1567,0.0,0.0,0.0,0.0,0.08425940822162123,0.0,-0.2078312845188508,-0.16761075749689383,-0.17267255982895485,0.17893913679491782,0.7297980758729623,-0.08996030771239111
8455,5.0,299.49311,1766.378,0.0,0.0,0.0,0.0,0.08426937503120506,0.0,-0.17538696565434583,-0.14491128027662983,-0.2166365697428648,0.17172981167091284,0.7234237296263634,-0.046262782574781156
8456,5.0,299.84692,1666.3573,0.0,0.0,0.0,0.0,0.08427934184078886,0.0,-0.14393704030547985,-0.14809557070339485,-0.21449840938184478,0.16832432874731784,0.7189817019829693,-0.06552221288403894
8457,5.0,299.27547999999996,1878.7807,0.0,0.0,0.0,0.0,0.0842893086503727,0.0,-0.1313672979124429,-0.14477911193358586,-0.2949560097998917,0.17006303552141483,0.7263788330130092,-0.032896475642129365
8458,5.0,299.74282,2310.8532,0.0,0.0,0.0,0.0,0.08429927545995651,0.0,-0.2071784677444228,-0.18399314723370983,-0.3112700456849617,0.16314433079109186,0.7071552393332884,-0.03410813429721077
8459,5.0,301.16876,2329.3262,0.0,0.0,0.0,0.0,0.08430924226954034,0.0,-0.2163601348505828,-0.1868270963058988,-0.3048697703683037,0.17666505906548383,0.7213185708211003,-0.03927746475638396
8460,5.0,300.7409,1996.5403,0.0,0.0,0.0,0.0,0.08431920907912414,0.0,-0.2096003077359398,-0.1788348226971228,-0.21846326715564582,0.2200321836104858,0.7233997763939993,-0.05731366306791815
8461,5.0,300.31002,2012.0439999999999,0.0,0.0,0.0,0.0,0.08432917588870797,0.0,-0.2064035239354418,-0.16853305826791784,-0.23667454292545878,0.20596752241741179,0.7473109994088533,-0.017136642978754984
8462,5.0,299.87681000000003,1872.4729,0.0,0.0,0.0,0.0,0.0843391426982918,0.0,-0.17930130277816084,-0.15645434700584185,-0.23342934603518278,0.17488668354997183,0.7114580261479403,-0.03406781302273137
8463,5.0,300.1289,1707.1053,0.0,0.0,0.0,0.0,0.08434910950787561,0.0,-0.12972280313264387,-0.14613366519726986,-0.24306089618574278,0.1790944680352478,0.7168897154290064,-0.026300345160641978
8464,5.0,299.59886,1737.5952,0.0,0.0,0.0,0.0,0.08435907631745944,0.0,-0.14926746537155186,-0.16221713602208485,-0.21670095165421877,0.1803223447714298,0.7232337351001124,-0.07518209553389513
8465,5.0,299.92125,1709.6808,0.0,0.0,0.0,0.0,0.08436904312704326,0.0,-0.14589465976368185,-0.14053683641490589,-0.23326876615933478,0.2084474824346648,0.7521686926407704,-0.05458555607467495
8466,5.0,299.59749,1820.5086,0.0,0.0,0.0,0.0,0.08437900993662707,0.0,-0.2033937354408988,-0.14593147113981486,-0.2040639598520448,0.15506228322345586,0.7227969533795053,-0.08643336548605901
8467,5.0,300.38526,2203.2241,0.0,0.0,0.0,0.0,0.08438897674621089,0.0,-0.2189554229942178,-0.17609059692128884,-0.27467908184621476,0.16295733548513683,0.7388253236638822,-0.05167646234856975
8468,5.0,300.43146,2193.7233,0.0,0.0,0.0,0.0,0.08439894355579472,0.0,-0.18020913433775682,-0.21039266931413977,-0.27623531240980276,0.1805141023528548,0.7283390970539723,-0.06926506958743013
8469,5.0,301.63787,1953.6507,0.0,0.0,0.0,0.0,0.08440891036537852,0.0,-0.14310575979093887,-0.17776580331161884,-0.27298945690696175,0.17175843598623786,0.7518019467670752,-0.044759157929884955
8470,5.0,301.2054,2039.7396,0.0,0.0,0.0,0.0,0.08441887717496235,0.0,-0.17784744087217583,-0.18646387654255184,-0.25571859881996073,0.14664388728512487,0.7179178299079734,-0.046302455369196555
8471,5.0,300.03947,2142.1266,0.0,0.0,0.0,0.0,0.08442884398454618,0.0,-0.20062203032235282,-0.19420085165613182,-0.25633012565281377,0.16641871941674885,0.7132956362642984,-0.05409497178700805
8472,5.0,300.29397,1974.9869,0.0,0.0,0.0,0.0,0.08443881079413,0.0,-0.20066250966384783,-0.18248471167733882,-0.21719949096842078,0.1872987439624468,0.7506525259861363,-0.06512156670174823
8473,5.0,299.90882999999997,1763.0378,0.0,0.0,0.0,0.0,0.08444877760371382,0.0,-0.13433551275538286,-0.16957131538038583,-0.2320126602753668,0.1911678496017978,0.7652978808115203,-0.046460774684071456
8474,5.0,299.14836,1780.5546,0.0,0.0,0.0,0.0,0.08445874441329763,0.0,-0.16683327043016186,-0.13554341833209388,-0.23886745932188275,0.18271388858495682,0.7319515261779913,-0.041778530773219955
8475,5.0,299.08794,1919.6362,0.0,0.0,0.0,0.0,0.08446871122288147,0.0,-0.16809976212765484,-0.16240044309767585,-0.25302126625875476,0.14922298369216186,0.7158121138151553,-0.06124900081330575
8476,5.0,300.05273,1992.0099,0.0,0.0,0.0,0.0,0.08447867803246528,0.0,-0.19308564833106984,-0.17204126448665083,-0.24039435629507577,0.1931896077913298,0.7221504187556973,-0.07207618912161602
8477,5.0,300.01877,2049.5191,0.0,0.0,0.0,0.0,0.0844886448420491,0.0,-0.18548496548844082,-0.18004964877201685,-0.25746801564761473,0.1848730941505538,0.7240180210750152,-0.059759830181086035
8478,5.0,300.55042000000003,1965.5445,0.0,0.0,0.0,0.0,0.08449861165163293,0.0,-0.2203600308128418,-0.15267002000235785,-0.22444639753863477,0.19702802208515183,0.7127305466835283,-0.043699378372042866
8479,5.0,300.48382999999995,1968.1307,0.0,0.0,0.0,0.0,0.08450857846121673,0.0,-0.16554166026268985,-0.16223656002650186,-0.27048436828722877,0.15795750352919186,0.7311189385708213,-0.03729585862856467
8480,5.0,300.8514,2119.2801,0.0,0.0,0.0,0.0,0.08451854527080056,0.0,-0.1969848880283948,-0.19031202816983483,-0.2569113259101738,0.17261843200861285,0.7588831768134383,-0.035086627892280564
8481,5.0,301.09529,1980.971,0.0,0.0,0.0,0.0,0.0845285120803844,0.0,-0.13904177575985488,-0.17617080579920483,-0.28695313759506974,0.16599062124949884,0.7576578129375043,-0.03676312718973817
8482,5.0,301.20099999999996,1881.3045,0.0,0.0,0.0,0.0,0.08453847888996821,0.0,-0.16950405583874784,-0.17271249201539585,-0.22965304397249078,0.17825195057709783,0.7222133415869073,-0.04817950320594675
8483,5.0,300.19444,1990.5229,0.0,0.0,0.0,0.0,0.08454844569955203,0.0,-0.1861056926322018,-0.17307489104616183,-0.24588866443232177,0.17891039088958083,0.7009641393672743,-0.06505073748000795
8484,5.0,298.86408,1925.5503,0.0,0.0,0.0,0.0,0.08455841250913584,0.0,-0.18438281282466681,-0.17047898481996585,-0.2304574024318748,0.20590897682663378,0.7144289565011482,-0.06095440543948145
8485,5.0,300.17986,1749.1774,0.0,0.0,0.0,0.0,0.08456837931871967,0.0,-0.1126766129903159,-0.17236331589843484,-0.2466663136190698,0.17033236753049585,0.7232153344782963,-0.060232136450199036
8486,5.0,300.70485,1899.0055,0.0,0.0,0.0,0.0,0.08457834612830349,0.0,-0.15400350779646285,-0.17417152149689083,-0.24907522453931075,0.16846750098644783,0.7019525141773193,-0.04233091115798566
8487,5.0,299.88561,2058.4273,0.0,0.0,0.0,0.0,0.08458831293788731,0.0,-0.16346708134544485,-0.18005386389243283,-0.28218954489993975,0.1359693380116289,0.7055830298156233,-0.06664711199930784
8488,5.0,299.11364,2004.3222,0.0,0.0,0.0,0.0,0.08459827974747114,0.0,-0.20383614069956082,-0.17535768272645583,-0.23007008758114975,0.15036981055284485,0.7366871835678643,-0.07657901481076033
8489,5.0,299.5235,2057.1242,0.0,0.0,0.0,0.0,0.08460824655705494,0.0,-0.18213429939525583,-0.18364592668944182,-0.25953415419152676,0.15901657279871384,0.7248982719668894,-0.055751655965510044
8490,5.0,300.04966,2042.1452,0.0,0.0,0.0,0.0,0.08461821336663877,0.0,-0.1983417920323108,-0.14570253741222086,-0.27671680885732275,0.17865968241733782,0.7171008564848442,-0.040077246365066266
8491,5.0,300.49123,2028.4175,0.0,0.0,0.0,0.0,0.0846281801762226,0.0,-0.16774701937034184,-0.18073839539499081,-0.2681028556496917,0.18529331936452684,0.7169961066895063,-0.03221100992297917
8492,5.0,300.29695,1891.0428,0.0,0.0,0.0,0.0,0.08463814698580642,0.0,-0.15810410055365984,-0.14794984507401285,-0.2687758462336107,0.1902353454022668,0.7481920406358054,-0.039416192880575365
8493,5.0,300.66578,1949.8319,0.0,0.0,0.0,0.0,0.08464811379539024,0.0,-0.15448725365920485,-0.18008038064754983,-0.2581325861232027,0.16953503089430483,0.7415614839689203,-0.036582850745196266
8494,5.0,300.35535,2046.4707,0.0,0.0,0.0,0.0,0.08465808060497405,0.0,-0.2096720255780178,-0.18099194096751384,-0.23141201574858777,0.1914878745133818,0.7205119325489913,-0.056142621556345355
8495,5.0,300.80478,2215.0393,0.0,0.0,0.0,0.0,0.08466804741455788,0.0,-0.2170835548919788,-0.1989699969618098,-0.2572630959473907,0.1967906175867218,0.7390735598058813,-0.05177623708591675
8496,5.0,299.64004,2041.3071,0.0,0.0,0.0,0.0,0.0846780142241417,0.0,-0.17471087452512082,-0.20159510505588782,-0.24420042764570576,0.2044000751752168,0.7316179541125702,-0.05876519348542304
8497,5.0,300.29747000000003,1882.8258,0.0,0.0,0.0,0.0,0.08468798103372552,0.0,-0.13290993065968887,-0.14827241324334786,-0.29114969526923773,0.1975842659925488,0.7259041253411593,-0.037960261917886165
8498,5.0,299.66663,1851.1182,0.0,0.0,0.0,0.0,0.08469794784330935,0.0,-0.13970854498815988,-0.14038240696716486,-0.28260276855572175,0.14712788646039185,0.7189525406450914,-0.04168255065749746
8499,5.0,300.33269,1949.5714,0.0,0.0,0.0,0.0,0.08470791465289315,0.0,-0.16303655137795484,-0.16139669728361386,-0.26818777614057276,0.16814855011996985,0.7243869049064213,-0.06905542510198984
8500,5.0,299.29427999999996,2066.4677,0.0,0.0,0.0,0.0,0.08471788146247698,0.0,-0.2327072736164198,-0.16414244293459784,-0.2313048645505128,0.16526985592336482,0.7568903773117642,-0.05481550203911885
8501,5.0,300.26531,1857.1643,0.0,0.0,0.0,0.0,0.08472784827206081,0.0,-0.16025637548857283,-0.17584881518242684,-0.22842638313642877,0.18287527906088483,0.7500368245628712,-0.07481204139862363
8502,5.0,299.98055,1902.4105,0.0,0.0,0.0,0.0,0.08473781508164463,0.0,-0.16523245686217383,-0.18805992783506983,-0.22499290411257078,0.17139755683062186,0.7086394683447703,-0.04734609081319536
8503,5.0,300.46783,2264.9022,0.0,0.0,0.0,0.0,0.08474778189122845,0.0,-0.16930509404911184,-0.21242752882746482,-0.3067410913154887,0.18041192621277083,0.7150562292405553,-0.04725828255952936
8504,5.0,299.49919,2177.4545,0.0,0.0,0.0,0.0,0.08475774870081226,0.0,-0.18894488020740782,-0.2059687180525298,-0.26697818856869576,0.17978732845362783,0.7380339145407763,-0.027106986472501274
8505,5.0,299.85807,1709.0994,0.0,0.0,0.0,0.0,0.0847677155103961,0.0,-0.14518186871583486,-0.14367849940996386,-0.23066316312968177,0.17657901386699185,0.7368163628231132,-0.059599297927992734
8506,5.0,300.40961,1744.8984,0.0,0.0,0.0,0.0,0.08477768231997992,0.0,-0.18737125213960282,-0.13746052805129785,-0.2055737835610528,0.17111281328751984,0.7549856393762813,-0.04788212240759755
8507,5.0,298.70554,1948.4821,0.0,0.0,0.0,0.0,0.08478764912956373,0.0,-0.1998570467618548,-0.15602524572099286,-0.23640761231911478,0.16295739628014286,0.7374634446019753,-0.07375533908133522
8508,5.0,298.78312999999997,2015.1222,0.0,0.0,0.0,0.0,0.08479761593914756,0.0,-0.19333922430109582,-0.14138611225122286,-0.2778214845138457,0.18626547204047084,0.7574765830246183,-0.040395073537183364
8509,5.0,298.28204,1826.3114,0.0,0.0,0.0,0.0,0.08480758274873136,0.0,-0.14032726589672287,-0.15714462363646686,-0.25768116293865073,0.17253282250766383,0.7272935344082834,-0.03372094610274827
8510,5.0,298.68616000000003,1748.7055,0.0,0.0,0.0,0.0,0.08481754955831519,0.0,-0.15253357574389187,-0.13697758265613486,-0.24205163829113677,0.18100420129372383,0.7052755489402773,-0.023452398038321477
8511,5.0,299.97168,2084.0239,0.0,0.0,0.0,0.0,0.08482751636789902,0.0,-0.2045064360382138,-0.19174793528404782,-0.23723686633345578,0.15826758845729483,0.7007558962067223,-0.057391438119093946
8512,5.0,299.84016,2199.8343,0.0,0.0,0.0,0.0,0.08483748317748284,0.0,-0.2441274939035078,-0.19467698801062283,-0.22989022555589878,0.2015845267248438,0.7435160231468182,-0.06245169828450274
8513,5.0,299.51431,1972.6018,0.0,0.0,0.0,0.0,0.08484744998706666,0.0,-0.19002653482165882,-0.18231869064845382,-0.22727645573043978,0.18158223007827082,0.7454081359860553,-0.06490995347136364
8514,5.0,300.50827999999996,1708.7125,0.0,0.0,0.0,0.0,0.08485741679665047,0.0,-0.12375982629414387,-0.16201818436494983,-0.23362792278978076,0.1906903960221768,0.7473523096154303,-0.05176471643227975
8515,5.0,300.47004,1593.0035,0.0,0.0,0.0,0.0,0.0848673836062343,0.0,-0.09016597924418931,-0.14831643896019286,-0.24575087255122277,0.17243888409089284,0.7387243431589163,-0.04409222151531345
8516,5.0,300.72672,1964.2053,0.0,0.0,0.0,0.0,0.08487735041581813,0.0,-0.16319045393564385,-0.17226129174586585,-0.26161760917964777,0.17438203433766683,0.7635118349927513,-0.06112262420783334
8517,5.0,301.40142000000003,2121.8832,0.0,0.0,0.0,0.0,0.08488731722540194,0.0,-0.2078102798442778,-0.16732864840405184,-0.26986060139316775,0.16772187050285986,0.7416316008758403,-0.05102069701635075
8518,5.0,300.62397999999996,1875.1729,0.0,0.0,0.0,0.0,0.08489728403498577,0.0,-0.18452591413628983,-0.17993138222034483,-0.2055484421760518,0.17111029029477084,0.7212479776866334,-0.07174618876279752
8519,5.0,300.03826000000004,2070.2155,0.0,0.0,0.0,0.0,0.08490725084456957,0.0,-0.17830682820251384,-0.2028150379112858,-0.24817193234016274,0.16918276436453883,0.7129146542266983,-0.08618264485481482
8520,5.0,299.82147000000003,2288.1675,0.0,0.0,0.0,0.0,0.0849172176541534,0.0,-0.21272831211964982,-0.1932615586809308,-0.2895559136569437,0.19127404834477882,0.7433427371147163,-0.047210346710548454
8521,5.0,299.7843,2137.2847,0.0,0.0,0.0,0.0,0.08492718446373723,0.0,-0.16656278331596686,-0.2001324582715358,-0.2829859493460387,0.17042455302459383,0.7157000686190974,-0.03991557724536076
8522,5.0,299.70266000000004,1883.1439,0.0,0.0,0.0,0.0,0.08493715127332105,0.0,-0.15282855311300386,-0.16071609719144384,-0.2588840630598678,0.16686065858036483,0.7031771890431853,-0.020559046165769878
8523,5.0,298.99913,1833.3981,0.0,0.0,0.0,0.0,0.08494711808290487,0.0,-0.16580354488353582,-0.16283478288554185,-0.2286689045478638,0.16276392630604886,0.7111273114478014,-0.03662009579237207
8524,5.0,299.62672000000003,1809.5875,0.0,0.0,0.0,0.0,0.08495708489248868,0.0,-0.18096949747779884,-0.16462152784687983,-0.2044783892754458,0.17702158124566983,0.7612277159548262,-0.06385643275938924
8525,5.0,300.58376,2005.1329,0.0,0.0,0.0,0.0,0.08496705170207251,0.0,-0.18144110460434282,-0.17413924948120582,-0.25392998947843876,0.16857973870002485,0.7388006307589453,-0.06144766673391253
8526,5.0,300.75546,2104.7262,0.0,0.0,0.0,0.0,0.08497701851165634,0.0,-0.19343328430787882,-0.17542314881541682,-0.27092777666348977,0.17023222802311286,0.7437452507169413,-0.05169050599495575
8527,5.0,300.47038,1806.4822,0.0,0.0,0.0,0.0,0.08498698532124015,0.0,-0.1046350244991729,-0.17386561115919985,-0.2706248351485917,0.17845402304454083,0.7386549861895713,-0.027084222795754676
8528,5.0,300.52063,1738.3066,0.0,0.0,0.0,0.0,0.08499695213082398,0.0,-0.13675300590397085,-0.14743426289312886,-0.24421452195459675,0.17996331986349684,0.7513337137633643,-0.036169043457356664
8529,5.0,299.81019,2101.4971,0.0,0.0,0.0,0.0,0.08500691894040778,0.0,-0.2233025597657468,-0.15693409053068885,-0.2585660038534778,0.18621157726765183,0.7190118461734444,-0.02240774833097258
8530,5.0,299.59517999999997,2242.501,0.0,0.0,0.0,0.0,0.08501688574999161,0.0,-0.24533216721239975,-0.18229016765813882,-0.25404198401199174,0.16897551418908485,0.7145356720016803,-0.06216410142911914
8531,5.0,300.02322999999996,1987.9387,0.0,0.0,0.0,0.0,0.08502685255957544,0.0,-0.17633872160577685,-0.1861494853015238,-0.24179552919586078,0.1917744723041668,0.7128387009992023,-0.07294623557173294
8532,5.0,299.57351,1768.2333,0.0,0.0,0.0,0.0,0.08503681936915926,0.0,-0.14284192972990087,-0.16973930211446484,-0.2249175183051308,0.1866618858770938,0.7420325034104063,-0.08116160861402713
8533,5.0,299.96176,1763.4291,0.0,0.0,0.0,0.0,0.08504678617874308,0.0,-0.1164382837215639,-0.14404511356114588,-0.27555500616016176,0.18383270921287584,0.7312993578836273,-0.04861218126364875
8534,5.0,301.15252999999996,1999.1271,0.0,0.0,0.0,0.0,0.08505675298832689,0.0,-0.16975183601820185,-0.17807991084261882,-0.25985297333549173,0.16291146565310985,0.7341056857580903,-0.027073002064147273
8535,5.0,300.12826,2160.5243,0.0,0.0,0.0,0.0,0.08506671979791072,0.0,-0.19619825131325982,-0.1902024046415158,-0.2703447829534527,0.18699724126269082,0.7373033916161793,-0.03465121203280837
8536,5.0,300.81212,2263.9922,0.0,0.0,0.0,0.0,0.08507668660749455,0.0,-0.2149573610146398,-0.20167263895353982,-0.2715671070790867,0.19062036017526482,0.7499499181017943,-0.03401949112546237
8537,5.0,300.12037000000004,1990.9154,0.0,0.0,0.0,0.0,0.08508665341707836,0.0,-0.16600287144320783,-0.20099937479209382,-0.23818632220715977,0.17942246722511881,0.7314159120426303,-0.07688088937330302
8538,5.0,300.27812,1981.9779999999998,0.0,0.0,0.0,0.0,0.08509662022666219,0.0,-0.1847189990753458,-0.16381722005000085,-0.25393560288399275,0.17206870329935883,0.7337278751933033,-0.05890444039366565
8539,5.0,299.73582999999996,2135.2643,0.0,0.0,0.0,0.0,0.08510658703624599,0.0,-0.16643208418556785,-0.19145139750978182,-0.2911835378225777,0.18709600274993782,0.7261760918005004,-0.06537458741071944
8540,5.0,300.14333999999997,1825.3702,0.0,0.0,0.0,0.0,0.08511655384582982,0.0,-0.1814397164517058,-0.14566453040096988,-0.22776272458593078,0.18182742646996983,0.7636320165871122,-0.035890716827137965
8541,5.0,299.74832999999995,1626.7159,0.0,0.0,0.0,0.0,0.08512652065541365,0.0,-0.14467741202104886,-0.13176515056420787,-0.2180384620512208,0.15712937422246184,0.7379182723068632,-0.062206404620794145
8542,5.0,300.57964,1936.8098,0.0,0.0,0.0,0.0,0.08513648746499747,0.0,-0.19074748253281082,-0.16866377766331883,-0.2293305771281658,0.14867901024347585,0.7267212304868013,-0.05950290947247995
8543,5.0,298.894,2119.9613,0.0,0.0,0.0,0.0,0.08514645427458128,0.0,-0.1977968661285308,-0.17518740604715083,-0.27143101745815573,0.16163323038695784,0.7177611814425133,-0.07433389272943403
8544,5.0,299.71609,2264.2196,0.0,0.0,0.0,0.0,0.0851564210841651,0.0,-0.1985274903781378,-0.1952975530343678,-0.2944411774240817,0.18688744548185482,0.7370207556332853,-0.05105723684145695
8545,5.0,299.57882,2115.5927,0.0,0.0,0.0,0.0,0.08516638789374893,0.0,-0.18161265797877382,-0.18988741558292882,-0.27158727075607675,0.19155571160757684,0.7124725630755674,-0.038793564879626756
8546,5.0,299.65717,1785.3179,0.0,0.0,0.0,0.0,0.08517635470333276,0.0,-0.16087559288968484,-0.12015671907104487,-0.2616597401188058,0.19535229893727082,0.7156662058007554,-0.014506069413637586
8547,5.0,299.82749,1690.3572,0.0,0.0,0.0,0.0,0.08518632151291657,0.0,-0.14183715040073686,-0.15507330738454386,-0.2169159329279358,0.18806289665786283,0.7382846534105223,-0.062336751140158346
8548,5.0,300.11704,2060.6896,0.0,0.0,0.0,0.0,0.0851962883225004,0.0,-0.1949092350660438,-0.16811482915664183,-0.2633741288905027,0.19579275875574081,0.7548777789031362,-0.06589285470436844
8549,5.0,300.35931,2082.5297,0.0,0.0,0.0,0.0,0.08520625513208421,0.0,-0.20970943477170984,-0.17259374923617685,-0.25073383389300274,0.1976371171177648,0.7407790015791953,-0.08823047802242022
8550,5.0,300.76892000000004,1717.8147,0.0,0.0,0.0,0.0,0.08521622194166802,0.0,-0.14488121714616287,-0.14997524083140384,-0.22731632712187477,0.17629852597430984,0.7442223192615243,-0.062210658244713946
8551,5.0,300.32614,1836.4797,0.0,0.0,0.0,0.0,0.08522618875125186,0.0,-0.15787168124572185,-0.15150394138977485,-0.24886834926639376,0.15938936777550586,0.7384790961047123,-0.08329627528870232
8552,5.0,300.43381,2392.026,0.0,0.0,0.0,0.0,0.08523615556083568,0.0,-0.23215709907712176,-0.18712386712768783,-0.3078352190384707,0.16472151536674784,0.7559166338331632,-0.03253653171635567
8553,5.0,299.58582,2275.0828,0.0,0.0,0.0,0.0,0.0852461223704195,0.0,-0.19932659006950282,-0.2014139055405048,-0.29082786677247574,0.13713780789444788,0.7515087831156423,-0.05771683021645765
8554,5.0,300.05048,1816.6035,0.0,0.0,0.0,0.0,0.08525608918000331,0.0,-0.16940556792902783,-0.1326539532869259,-0.2501425720621498,0.17362531889798485,0.7277718897804933,-0.038081160893317964
8555,5.0,299.60447999999997,1747.9633,0.0,0.0,0.0,0.0,0.08526605598958714,0.0,-0.12658563896802988,-0.16648007171030385,-0.2382714858780648,0.16794712613259083,0.7172579305153464,-0.05292084695538095
8556,5.0,300.09417,1940.2424,0.0,0.0,0.0,0.0,0.08527602279917097,0.0,-0.16717737016412185,-0.16720578169692585,-0.25540208988622376,0.2177805392382658,0.7081309687820854,-0.03549536791637006
8557,5.0,299.61177999999995,2124.9226,0.0,0.0,0.0,0.0,0.08528598960875478,0.0,-0.18839189896533282,-0.18851930503290681,-0.26901221721693874,0.2007270942252218,0.7045895482250742,-0.054451105892405746
8558,5.0,300.08831000000004,2164.4125,0.0,0.0,0.0,0.0,0.0852959564183386,0.0,-0.24667302133473176,-0.16717594148148085,-0.2440784019361628,0.18977091208643082,0.7343529694449953,-0.04207424274865446
8559,5.0,299.67443,1891.1294,0.0,0.0,0.0,0.0,0.08530592322792242,0.0,-0.17485838347467883,-0.14828821994490787,-0.25170951267929476,0.17405138043253385,0.7343139390511434,-0.06394952308582653
8560,5.0,300.28119,1927.8375,0.0,0.0,0.0,0.0,0.08531589003750624,0.0,-0.18036538763567783,-0.1813233244127188,-0.22432573971672679,0.15691929707922886,0.7604565110387143,-0.07238257973985443
8561,5.0,300.70519,2325.2438,0.0,0.0,0.0,0.0,0.08532585684709006,0.0,-0.19698196986810682,-0.19487243382241182,-0.3149616400392937,0.16336879608574484,0.7611266543898523,-0.058088435637632246
8562,5.0,299.72407999999996,2224.0354,0.0,0.0,0.0,0.0,0.08533582365667389,0.0,-0.19981183554239282,-0.18489933732814381,-0.29134004443302375,0.17541944032005083,0.7349399452279253,-0.051343710002479656
8563,5.0,299.79626,1583.5661,0.0,0.0,0.0,0.0,0.08534579046625769,0.0,-0.11344000574815691,-0.13195996816093486,-0.2359645889778918,0.17126084912712983,0.7373662536523833,-0.06901884373362953
8564,5.0,299.95035,1585.8762,0.0,0.0,0.0,0.0,0.08535575727584152,0.0,-0.14947168592920684,-0.13260646225473888,-0.1999886172873398,0.18548485403092982,0.7351319358568733,-0.051448855978606746
8565,5.0,301.12561,1860.8917,0.0,0.0,0.0,0.0,0.08536572408542535,0.0,-0.14432362561613285,-0.17030923503071285,-0.25103173955490377,0.1963466215254028,0.7567198675849363,-0.057575187984978654
8566,5.0,300.32491,1902.2979999999998,0.0,0.0,0.0,0.0,0.08537569089500915,0.0,-0.16944622965554085,-0.16072741519506084,-0.24807744676833776,0.1834693070645108,0.7485224310959123,-0.050531559649826654
8567,5.0,300.99177000000003,2041.8719,0.0,0.0,0.0,0.0,0.08538565770459298,0.0,-0.16606515592685483,-0.17649982837167683,-0.2781130877601247,0.18678877518711684,0.7464449542833813,-0.05077552392940404
8568,5.0,299.44973999999996,1981.7827,0.0,0.0,0.0,0.0,0.0853956245141768,0.0,-0.18806812502837883,-0.15081066553885383,-0.26353366511874776,0.17187376411261984,0.7228841334181093,-0.040774324943612564
8569,5.0,299.92361,2038.2811,0.0,0.0,0.0,0.0,0.08540559132376063,0.0,-0.17753647441648582,-0.18315216991571184,-0.25889792432123576,0.1900970468961178,0.7335511238458592,-0.032197723174417874
8570,5.0,300.06531,2145.7337,0.0,0.0,0.0,0.0,0.08541555813334444,0.0,-0.24261467097420378,-0.16390907117156583,-0.24572571355123973,0.17118082263423184,0.7150433406992833,-0.04454466504271616
8571,5.0,299.07501,2273.5069,0.0,0.0,0.0,0.0,0.08542552494292827,0.0,-0.22764737619454675,-0.1879465248838778,-0.2754954270542817,0.17784245568168383,0.7238312486840823,-0.04759133888064945
8572,5.0,299.07612,1892.1013,0.0,0.0,0.0,0.0,0.08543549175251207,0.0,-0.1967001444852928,-0.14266753925518985,-0.23578386569005577,0.15776615124780685,0.7213489277940963,-0.056296221152254446
8573,5.0,299.63842,1587.3357,0.0,0.0,0.0,0.0,0.0854454585620959,0.0,-0.1010508093241884,-0.13301686907524288,-0.24844273356188878,0.16427199709238383,0.7495602221133343,-0.04917952329939105
8574,5.0,300.10722000000004,1705.0236,0.0,0.0,0.0,0.0,0.08545542537167973,0.0,-0.13856484907028588,-0.1165594380360209,-0.2631602925893987,0.16275936668059884,0.7424857301801363,-0.038460042463460666
8575,5.0,299.95047,1934.9403,0.0,0.0,0.0,0.0,0.08546539218126355,0.0,-0.18574096312620583,-0.13069139930073687,-0.27174119357876775,0.18864275942509082,0.7620421461202043,-0.03220804413993647
8576,5.0,300.52139,1916.5709,0.0,0.0,0.0,0.0,0.08547535899084736,0.0,-0.18515269038314783,-0.18271869139043084,-0.2147183049185468,0.17386224716886783,0.7409834045218683,-0.06884111561308913
8577,5.0,299.8482,1975.3246,0.0,0.0,0.0,0.0,0.08548532580043118,0.0,-0.19653029337102979,-0.18102247019302684,-0.2228966011131818,0.17881026151469884,0.7374680650224313,-0.05299191226439455
8578,5.0,300.31109,2171.4771,0.0,0.0,0.0,0.0,0.08549529261001501,0.0,-0.1940906303102538,-0.22794006361843278,-0.23804411255562477,0.16661680981129884,0.7274439007231233,-0.07168089289985333
8579,5.0,299.28452000000004,2014.0431,0.0,0.0,0.0,0.0,0.08550525941959881,0.0,-0.14951303666578786,-0.20886291497566478,-0.25384287023484076,0.17357579123309683,0.7329558495446103,-0.06986411925855174
8580,5.0,299.1872,2071.0477,0.0,0.0,0.0,0.0,0.08551522622918264,0.0,-0.16705680353472283,-0.19688147572318881,-0.2656085176135198,0.1879364329128818,0.7228930094889854,-0.06531107993420174
8581,5.0,299.10326000000003,1943.6884,0.0,0.0,0.0,0.0,0.08552519303876648,0.0,-0.16587002422259686,-0.15791051912205487,-0.26705218622349874,0.18998554885511382,0.7474452955771073,-0.040397994737221665
8582,5.0,299.21839,1616.0387,0.0,0.0,0.0,0.0,0.08553515984835028,0.0,-0.13993750911325686,-0.13572797170530787,-0.2155699213625948,0.18466296634481583,0.7360101298510443,-0.04393015824131905
8583,5.0,298.58677,1782.6856,0.0,0.0,0.0,0.0,0.08554512665793411,0.0,-0.17120936588954883,-0.1331498784158699,-0.23753266443514878,0.1851186249147858,0.7626326277484803,-0.05999927435196734
8584,5.0,299.93684,2114.3424,0.0,0.0,0.0,0.0,0.08555509346751793,0.0,-0.2082923741093568,-0.16769365148757484,-0.2667212688733398,0.17600401470024382,0.7310636252478623,-0.062484899450529444
8585,5.0,299.8917,1988.9741,0.0,0.0,0.0,0.0,0.08556506027710176,0.0,-0.15194194914300285,-0.17166889507490082,-0.2809876377638207,0.18720979073616784,0.7214335949724523,-0.06931661463326723
8586,5.0,299.68932,1847.1655,0.0,0.0,0.0,0.0,0.08557502708668557,0.0,-0.15404348051290787,-0.16935165289120682,-0.23809705487334978,0.15657126593488085,0.7211645466733994,-0.044705129408052754
8587,5.0,300.10731,2204.061,0.0,0.0,0.0,0.0,0.08558499389626939,0.0,-0.2119426075946068,-0.18243191121462782,-0.27560497965509373,0.19061469610720583,0.7320970998198583,-0.03026078617725707
8588,5.0,300.80462,2244.5642,0.0,0.0,0.0,0.0,0.08559496070585322,0.0,-0.24817579282304375,-0.17407407723477383,-0.26004159997410775,0.18799873766153083,0.7509334293113592,-0.02521040418707318
8589,5.0,300.61149,2024.9234,0.0,0.0,0.0,0.0,0.08560492751543702,0.0,-0.21830318377234678,-0.15249681503026385,-0.24472613219508874,0.18617773471431182,0.7433160177095793,-0.044632146016599865
8590,5.0,299.58054,2059.9085,0.0,0.0,0.0,0.0,0.08561489432502085,0.0,-0.17485715744205782,-0.17621865146892685,-0.27508494930627075,0.18708834257918183,0.7188402218715063,-0.036374313742115263
8591,5.0,298.59126000000003,1970.491,0.0,0.0,0.0,0.0,0.08562486113460469,0.0,-0.14146296727130786,-0.17744592025504882,-0.28007118344587373,0.16775864134898882,0.7318975706101664,-0.04466816503115466
8592,5.0,298.82966,2014.7391,0.0,0.0,0.0,0.0,0.0856348279441885,0.0,-0.15845754245354185,-0.17199321616690885,-0.28197961974422175,0.19337447527207483,0.7548005185830112,-0.04192496365117176
8593,5.0,299.67869,1987.8394,0.0,0.0,0.0,0.0,0.08564479475377232,0.0,-0.17666546436552383,-0.14128324710107085,-0.28630481965108573,0.18144443819717182,0.7476321388955472,-0.03623634859524917
8594,5.0,299.36017000000004,1906.585,0.0,0.0,0.0,0.0,0.08565476156335614,0.0,-0.17050878450540685,-0.17979689353457184,-0.2292485646650718,0.17079008299816884,0.7517792803623383,-0.04800145287187455
8595,5.0,298.77612,1786.9057,0.0,0.0,0.0,0.0,0.08566472837293997,0.0,-0.14777013503627687,-0.16833815961118284,-0.2270664393822128,0.15318872299354985,0.7276767557286042,-0.07843214285239983
8596,5.0,299.2584,2083.064,0.0,0.0,0.0,0.0,0.08567469518252378,0.0,-0.18301523929719785,-0.2145151685384988,-0.2356690441887238,0.15616683728996683,0.7184627659442543,-0.1073898184735499
8597,5.0,300.42387,2227.3553,0.0,0.0,0.0,0.0,0.0856846619921076,0.0,-0.2085645229537158,-0.2008561012279538,-0.26763976995648875,0.17552748317821384,0.7188132491538444,-0.06454265132336373
8598,5.0,300.61544,1892.1575,0.0,0.0,0.0,0.0,0.08569462880169143,0.0,-0.16884778388147884,-0.15955811444715987,-0.24676273449858577,0.19342228041179282,0.7258127504471413,-0.08193372950822951
8599,5.0,299.96729,1728.2106,0.0,0.0,0.0,0.0,0.08570459561127523,0.0,-0.14434747752348687,-0.15775683947938784,-0.2232285418459418,0.18675400044368481,0.7624569200486393,-0.02068293118924638
8600,5.0,300.61566,1939.5129,0.0,0.0,0.0,0.0,0.08571456242085906,0.0,-0.18780156932457182,-0.14602040410109188,-0.25574152866972377,0.18180519576277582,0.7645823337234012,-0.03468219012811567
8601,5.0,299.63256,2028.0743,0.0,0.0,0.0,0.0,0.0857245292304429,0.0,-0.17834864503414083,-0.15819344894747786,-0.2799418522031097,0.16317761605687683,0.7647128302037802,-0.005845108392792285
8602,5.0,299.92548,2032.4105,0.0,0.0,0.0,0.0,0.08573449604002671,0.0,-0.16744741144827283,-0.17847077206869383,-0.27188385919284774,0.15708984733606085,0.7356289654284263,-0.05595744706082004
8603,5.0,300.52852,2353.5851,0.0,0.0,0.0,0.0,0.08574446284961053,0.0,-0.20707874366958082,-0.2028745764871618,-0.30547778122330965,0.1950135998263438,0.7249851682954652,-0.039292570288874756
8604,5.0,300.30536,2129.0164,0.0,0.0,0.0,0.0,0.08575442965919435,0.0,-0.21231149142601277,-0.17558029377342582,-0.2592760489935537,0.17067832151213883,0.7285343604807434,-0.08096666132128733
8605,5.0,299.97822,2081.4326,0.0,0.0,0.0,0.0,0.08576439646877818,0.0,-0.21507441166619182,-0.17872518903630283,-0.23890392619298179,0.19477610413540483,0.7193659264208893,-0.027577683700455474
8606,5.0,299.88029,2115.2563,0.0,0.0,0.0,0.0,0.08577436327836199,0.0,-0.22787418209693078,-0.15431582187478585,-0.2607950831459708,0.16884454148115885,0.7313474366008723,-0.04072082533833256
8607,5.0,299.36963,1862.2135,0.0,0.0,0.0,0.0,0.08578433008794581,0.0,-0.16833138096801384,-0.15013029849420684,-0.2476047351991848,0.17990731753046982,0.7452501297654612,-0.04105650293746136
8608,5.0,299.55328,1613.5479,0.0,0.0,0.0,0.0,0.08579429689752964,0.0,-0.11886572698613389,-0.16149544863835985,-0.21011708555194178,0.17452748638952184,0.7230515020696273,-0.07255528315314892
8609,5.0,298.69683,1963.3799,0.0,0.0,0.0,0.0,0.08580426370711344,0.0,-0.1883493627261348,-0.16105127019202284,-0.24741782095323778,0.17936280705923083,0.7186705024797563,-0.04501329524046636
8610,5.0,298.96466000000004,2313.5357,0.0,0.0,0.0,0.0,0.08581423051669727,0.0,-0.2126595529678638,-0.2085271238925248,-0.28207039682068075,0.1946106505265758,0.7350938173881113,-0.06450850378174364
8611,5.0,299.71167,2057.4813,0.0,0.0,0.0,0.0,0.0858241973262811,0.0,-0.16547155348827083,-0.19910342173497783,-0.26084795453618875,0.2089443397537008,0.7462842832150243,-0.04615221469736896
8612,5.0,300.56995,1891.2697,0.0,0.0,0.0,0.0,0.08583416413586492,0.0,-0.12358095725399089,-0.2019046833589408,-0.2494131130501578,0.15950529371944686,0.7596356568677023,-0.07300653003218352
8613,5.0,300.63839,1940.6017,0.0,0.0,0.0,0.0,0.08584413094544874,0.0,-0.13545471841833986,-0.17248857387579683,-0.28195117781391477,0.17551101786408882,0.7462984281864203,-0.04879250837069565
8614,5.0,300.88108,1877.266,0.0,0.0,0.0,0.0,0.08585409775503255,0.0,-0.15538740478304286,-0.16187784922609982,-0.25337672452633575,0.1407525168311919,0.7743312081030403,-0.08469744210998673
8615,5.0,299.69457,1904.3263,0.0,0.0,0.0,0.0,0.08586406456461639,0.0,-0.16506994167863484,-0.18983036960229882,-0.2239673227588538,0.18460149246124882,0.7747918822610053,-0.08368421126173863
8616,5.0,299.67792000000003,1788.9431,0.0,0.0,0.0,0.0,0.0858740313742002,0.0,-0.18778630977806582,-0.13230080522957288,-0.2237069073506528,0.16986654606202284,0.7333463763981524,-0.06349703598866954
8617,5.0,299.08425,1622.7613,0.0,0.0,0.0,0.0,0.08588399818378402,0.0,-0.15707746541983886,-0.13582167707455586,-0.2003797622234428,0.16439522856954586,0.7273065141420644,-0.04246760974222676
8618,5.0,299.84976,2005.1589999999999,0.0,0.0,0.0,0.0,0.08589396499336785,0.0,-0.19960574047205282,-0.14791932598100088,-0.26199321085921673,0.17073347271508182,0.7214219121987994,-0.021679412000091377
8619,5.0,299.64962,2509.2642,0.0,0.0,0.0,0.0,0.08590393180295165,0.0,-0.2234569588159848,-0.19360783690260583,-0.34568887488683564,0.19128721046357783,0.7452541017058533,-0.028564976359393673
8620,5.0,299.41058,2454.025,0.0,0.0,0.0,0.0,0.08591389861253548,0.0,-0.2055065037544128,-0.22289091678012077,-0.3175649024612157,0.17473638816263884,0.7322913094665253,-0.024821869383227772
8621,5.0,300.64874,2094.9848,0.0,0.0,0.0,0.0,0.08592386542211931,0.0,-0.18964110461611983,-0.16872657890451684,-0.27845538390890673,0.1917668931934188,0.7303850111258883,-0.060806178095602535
8622,5.0,300.58211,2169.505,0.0,0.0,0.0,0.0,0.08593383223170313,0.0,-0.2104497760897758,-0.17650787357747083,-0.27251770792540375,0.18833605875232182,0.7559728185512082,-0.027707530687520375
8623,5.0,300.0379,2026.1001,0.0,0.0,0.0,0.0,0.08594379904128695,0.0,-0.20231834271226581,-0.16644769836960885,-0.24711780773112876,0.18463788840484083,0.7695328102669753,-0.06662634645175844
8624,5.0,300.69476000000003,1705.2319,0.0,0.0,0.0,0.0,0.08595376585087076,0.0,-0.13943358944102385,-0.12475954950530888,-0.2541547790131237,0.17470406548444883,0.7443579326549082,-0.02828482891874527
8625,5.0,300.10412,1712.1711,0.0,0.0,0.0,0.0,0.0859637326604546,0.0,-0.13487344723347286,-0.16240804247342583,-0.2231757616482328,0.13706394196215788,0.7405244022265682,-0.07896813898304851
8626,5.0,299.46182000000005,1885.0698,0.0,0.0,0.0,0.0,0.08597369947003841,0.0,-0.13840273918678686,-0.15176804502833985,-0.28284335465946575,0.17899127864506384,0.7346936342611163,-0.046645155804768454
8627,5.0,299.82479,1905.4327,0.0,0.0,0.0,0.0,0.08598366627962223,0.0,-0.19325496242277979,-0.16482860576981684,-0.2211203838203828,0.16794419783980183,0.7494388854138593,-0.08950899598535011
8628,5.0,299.52917,2224.3727,0.0,0.0,0.0,0.0,0.08599363308920606,0.0,-0.1886665606699398,-0.2175750723829878,-0.26991212516075275,0.17399588472455682,0.7224395800692354,-0.07243094925987813
8629,5.0,299.41503,2340.9491,0.0,0.0,0.0,0.0,0.08600359989878986,0.0,-0.23240972259205375,-0.1950905561714388,-0.2840897840049787,0.16482754185721185,0.7065551723590663,-0.03427195859987897
8630,5.0,299.65858,2062.1566,0.0,0.0,0.0,0.0,0.08601356670837369,0.0,-0.16032715100805786,-0.1989608675784088,-0.2675561058957317,0.19331110661082082,0.7419008720899153,-0.06148077468093004
8631,5.0,299.42761,1862.5833,0.0,0.0,0.0,0.0,0.08602353351795752,0.0,-0.15698483409569686,-0.17200489894056184,-0.23718908145873976,0.19552924280223383,0.7489442775100453,-0.04577123671276936
8632,5.0,300.54406,1841.2147,0.0,0.0,0.0,0.0,0.08603350032754134,0.0,-0.14601690838824685,-0.13722526151057887,-0.27644112377011476,0.20266632319410882,0.7411170623425593,-0.03727640118689436
8633,5.0,301.1639,1716.9613,0.0,0.0,0.0,0.0,0.08604346713712516,0.0,-0.15313416960816587,-0.16824757505224286,-0.20053160788342883,0.17018447354589983,0.7201264719459494,-0.05447387159565254
8634,5.0,301.04933,1770.4662,0.0,0.0,0.0,0.0,0.08605343394670897,0.0,-0.16175806279927785,-0.1271524105439659,-0.24926704291574175,0.1989914677314288,0.7512983918648783,-0.04593447231712945
8635,5.0,301.18855,2093.2848,0.0,0.0,0.0,0.0,0.0860634007562928,0.0,-0.2080532470857568,-0.18132271646265885,-0.24693034633012775,0.17667725859668781,0.7568198652373053,-0.06077356664113404
8636,5.0,300.67187,2122.0465,0.0,0.0,0.0,0.0,0.08607336756587662,0.0,-0.20015882303913782,-0.17396590265409784,-0.2709244329381597,0.1845532516239878,0.7375572715612353,-0.03252865268357807
8637,5.0,301.02002000000005,2179.8691,0.0,0.0,0.0,0.0,0.08608333437546044,0.0,-0.2114185951728908,-0.16359575397564385,-0.28761142592003774,0.13979704225189388,0.7240267856883803,-0.04837689243142755
8638,5.0,300.16696,2521.4774,0.0,0.0,0.0,0.0,0.08609330118504427,0.0,-0.24882522534213777,-0.21737877544111478,-0.3002621675260687,0.16056025932606383,0.7544859044269613,-0.03272159272786977
8639,5.0,299.70365,2328.2779,0.0,0.0,0.0,0.0,0.08610326799462807,0.0,-0.2320907717255758,-0.18590384307978083,-0.28974371956297873,0.16895765058982182,0.7738629345693253,-0.05480880344270775
8640,5.0,299.56046000000003,1784.6652,0.0,0.0,0.0,0.0,0.0861132348042119,0.0,-0.16171776584280084,-0.15943569357007786,-0.2213402084295778,0.17332068525541985,0.7438012733149703,-0.03410640163953976
8641,5.0,299.93887,1752.7463,0.0,0.0,0.0,0.0,0.08612320161379573,0.0,-0.12852076427401188,-0.16235863639854986,-0.2419117185848278,0.1806790493366338,0.7316730445205073,-0.06774501103916203
8642,5.0,299.96961,1949.8652,0.0,0.0,0.0,0.0,0.08613316842337955,0.0,-0.16878046354483484,-0.14207398747911087,-0.2818559019070117,0.1998058978968068,0.7228605449557813,-0.04238314217414046
8643,5.0,300.33727000000005,2004.3746,0.0,0.0,0.0,0.0,0.08614313523296337,0.0,-0.14535900509831687,-0.20795150664321582,-0.2559693072922038,0.2162548581651928,0.7431515064233433,-0.07654830623997963
8644,5.0,300.14873,1839.7373,0.0,0.0,0.0,0.0,0.08615310204254718,0.0,-0.16158080482678386,-0.16012222117533284,-0.2375311850900028,0.19969882775873982,0.7205109699613963,-0.07257380232522663
8645,5.0,301.66162,2039.2721,0.0,0.0,0.0,0.0,0.08616306885213101,0.0,-0.17877110953083483,-0.18865527306382582,-0.2524614050485008,0.17605409965268684,0.7418829780931493,-0.06019793317982344
8646,5.0,301.7301,2159.6134,0.0,0.0,0.0,0.0,0.08617303566171484,0.0,-0.18951959566412782,-0.2102891658164248,-0.2566598068378508,0.17358343113885083,0.7655775074416172,-0.096493449501412
8647,5.0,301.04262,2284.674,0.0,0.0,0.0,0.0,0.08618300247129865,0.0,-0.20772659551851883,-0.20342795289677582,-0.2833292891424237,0.16575743187148484,0.7716383642397773,-0.06778663737977024
8648,5.0,300.85173,2172.6228,0.0,0.0,0.0,0.0,0.08619296928088248,0.0,-0.22289038989006876,-0.19510268477513582,-0.24242999601097778,0.14735922159072287,0.7388343517222733,-0.05042525350233505
8649,5.0,299.62158,1604.6738,0.0,0.0,0.0,0.0,0.08620293609046628,0.0,-0.14678855913440286,-0.12284724259157888,-0.21814496476923181,0.16977220234521184,0.7200612085070083,-0.03191471634198727
8650,5.0,299.49707,1538.1593,0.0,0.0,0.0,0.0,0.08621290290005011,0.0,-0.1322896898759759,-0.11709999683186988,-0.21817234278693381,0.18183741711595583,0.7590504340074453,-0.03828425471686176
8651,5.0,300.43604,1967.7444,0.0,0.0,0.0,0.0,0.08622286970963394,0.0,-0.18003394339546683,-0.15035369987625485,-0.26775751975060974,0.1982973914129288,0.7629866573334203,-0.05106334268655954
8652,5.0,299.02557,2220.7892,0.0,0.0,0.0,0.0,0.08623283651921776,0.0,-0.1899366798027908,-0.15933991103812484,-0.3257878728527597,0.20810693920855577,0.7363874641882843,-0.025551895815275772
8653,5.0,300.3431,2075.4255,0.0,0.0,0.0,0.0,0.08624280332880158,0.0,-0.16778037556363384,-0.18085685446418184,-0.2822403087299497,0.2025043450331228,0.7403471746515773,-0.06970317765241803
8654,5.0,300.75091000000003,2072.5448,0.0,0.0,0.0,0.0,0.08625277013838539,0.0,-0.18054568535847182,-0.16903207380966684,-0.2804241187207057,0.2145077312827648,0.7374362388367903,-0.028144781542923675
8655,5.0,300.77528,2141.6303,0.0,0.0,0.0,0.0,0.08626273694796922,0.0,-0.21721730390517877,-0.16117443074167784,-0.27261041017705273,0.1917762049618378,0.7345581221927423,-0.06977894950814613
8656,5.0,301.30212,2200.4199,0.0,0.0,0.0,0.0,0.08627270375755305,0.0,-0.22188916706875578,-0.18828068463435682,-0.25870284327948273,0.16784492972750484,0.7206084952835213,-0.028465984864373975
8657,5.0,300.31854,2051.0089,0.0,0.0,0.0,0.0,0.08628267056713686,0.0,-0.2057650142524258,-0.15401850389794286,-0.26367198388989876,0.15570797684968085,0.7375849332889653,-0.05758292313624205
8658,5.0,299.64282000000003,1812.7233,0.0,0.0,0.0,0.0,0.08629263737672069,0.0,-0.13324886281813889,-0.16238015783067383,-0.25539358871788476,0.17538147383880384,0.7790530447615492,-0.04758242025326925
8659,5.0,299.76517,1670.2278,0.0,0.0,0.0,0.0,0.08630260418630449,0.0,-0.12921966366298787,-0.16072928970774583,-0.21775860237360078,0.15309237304154086,0.7753515306887382,-0.08668700934384173
8660,5.0,299.14252999999997,1802.2849,0.0,0.0,0.0,0.0,0.08631257099588832,0.0,-0.15015022912367387,-0.13733385152379587,-0.26036551576607575,0.1861101813301448,0.7300352067938652,-0.047881563093542356
8661,5.0,299.7115,2095.6839,0.0,0.0,0.0,0.0,0.08632253780547215,0.0,-0.21117294281864682,-0.17680981197476983,-0.24905281144709876,0.18539177687674382,0.7352435352228873,-0.046851580181390955
8662,5.0,300.57703,1935.9795,0.0,0.0,0.0,0.0,0.08633250461505597,0.0,-0.16695490097216584,-0.16445499006044384,-0.25707954569177577,0.22303797989963478,0.7292436254182423,-0.08480444841329741
8663,5.0,300.64132,1777.0424,0.0,0.0,0.0,0.0,0.08634247142463979,0.0,-0.12569790015791688,-0.17885580710669383,-0.23562280958666076,0.18369284016907184,0.7375428935423163,-0.0958711781644986
8664,5.0,302.08529,1968.0172,0.0,0.0,0.0,0.0,0.0863524382342236,0.0,-0.12195879450639588,-0.1929861775687528,-0.2832831052028657,0.17598996092135683,0.7421270092472333,-0.08436657035608222
8665,5.0,300.48591,2081.9708,0.0,0.0,0.0,0.0,0.08636240504380743,0.0,-0.1780833356279568,-0.15855836083849187,-0.29622545005517575,0.16159915478609485,0.7466179160754512,-0.047419759161715855
8666,5.0,299.94282999999996,2081.0891,0.0,0.0,0.0,0.0,0.08637237185339126,0.0,-0.19236597731504382,-0.19688133386817483,-0.24335182055445476,0.17711261163465383,0.7699808998586982,-0.05760802843396974
8667,5.0,300.25205,1894.4172,0.0,0.0,0.0,0.0,0.08638233866297507,0.0,-0.2072072947097678,-0.14894843344506586,-0.2196997767826798,0.17187514213275584,0.7588366787663493,-0.03351206864763367
8668,5.0,298.90461,1798.7465,0.0,0.0,0.0,0.0,0.0863923054725589,0.0,-0.18867541647581382,-0.14308154311354887,-0.2150170718430328,0.16522991360442282,0.7375190416349623,-0.030277673003423676
8669,5.0,299.29003,1957.1921,0.0,0.0,0.0,0.0,0.0864022722821427,0.0,-0.16862868881235585,-0.17537286121295384,-0.2509359772879528,0.17086266210283185,0.7399208091419982,-0.05488803250777704
8670,5.0,300.21811,2403.4867,0.0,0.0,0.0,0.0,0.08641223909172653,0.0,-0.23004697534636878,-0.17390912011849385,-0.3266438361397367,0.2092700388658448,0.7503615408224182,-0.035944452519691264
8671,5.0,299.67546,2307.4546,0.0,0.0,0.0,0.0,0.08642220590131035,0.0,-0.1910855635611768,-0.19360000447933282,-0.31672301321812774,0.1903200733756288,0.7437141743363743,-0.04899925394759986
8672,5.0,299.82864,1710.5609,0.0,0.0,0.0,0.0,0.08643217271089418,0.0,-0.14851336411712787,-0.14228116672705787,-0.22917327005014076,0.16514513496855585,0.7387013626466483,-0.044534822331244756
8673,5.0,301.08193,1743.0475,0.0,0.0,0.0,0.0,0.08644213952047798,0.0,-0.16156978066569586,-0.11578837497492288,-0.25248477059580676,0.16885143158183885,0.7365136340907363,-0.026467620593150776
8674,5.0,300.15561,2170.2388,0.0,0.0,0.0,0.0,0.08645210633006181,0.0,-0.21204631374234179,-0.18755481252771883,-0.26009726793460175,0.18669300278766482,0.7811161334226603,-0.05990116134478435
8675,5.0,299.69767,2121.4679,0.0,0.0,0.0,0.0,0.08646207313964563,0.0,-0.18304652846028582,-0.18632652035899583,-0.27550022985975575,0.18309164848723883,0.7514301042453773,-0.04352685430401605
8676,5.0,298.8237,1696.9160000000002,0.0,0.0,0.0,0.0,0.08647203994922945,0.0,-0.13672394589110287,-0.15215827803935286,-0.2269378680770238,0.16466568528623785,0.7464251351114253,-0.07928318782339143
8677,5.0,299.53769,1774.651,0.0,0.0,0.0,0.0,0.08648200675881328,0.0,-0.11387820601890389,-0.18312177241271183,-0.24244961253291378,0.18715840882359683,0.7561316961668882,-0.02586820716524327
8678,5.0,299.72914,2070.0496,0.0,0.0,0.0,0.0,0.08649197356839709,0.0,-0.2085584637181178,-0.15624579987025985,-0.2644391256731098,0.18391985885397683,0.7593308104426163,-0.07214824640247752
8679,5.0,299.87612,2313.8609,0.0,0.0,0.0,0.0,0.08650194037798091,0.0,-0.2201541485250228,-0.21971909946208681,-0.26348268850621676,0.1921442883256648,0.7377256838603563,-0.04123354914068446
8680,5.0,299.80557000000005,2089.8456,0.0,0.0,0.0,0.0,0.08651190718756473,0.0,-0.20769139521004482,-0.17945260128309282,-0.2481168723297288,0.15150739657261586,0.7070760031754684,-0.08320653983334612
8681,5.0,300.05984,1757.3577,0.0,0.0,0.0,0.0,0.08652187399714856,0.0,-0.13449193830582087,-0.14327832641546986,-0.2564225847244388,0.16862370362186385,0.7508857153641503,-0.05610215538710164
8682,5.0,301.05366000000004,1697.0129,0.0,0.0,0.0,0.0,0.08653184080673236,0.0,-0.12774617510256586,-0.16063799587373584,-0.22746537621158477,0.15365673308223884,0.7446986076035303,-0.09519628874989222
8683,5.0,300.57902,2161.5914,0.0,0.0,0.0,0.0,0.08654180761631619,0.0,-0.18399782844917184,-0.16603800082417483,-0.3070339915218957,0.22087304947097278,0.7514228696396633,-0.04578098316548126
8684,5.0,299.44869,2150.8478,0.0,0.0,0.0,0.0,0.08655177442590001,0.0,-0.2068809977800648,-0.18098917479474083,-0.26593385195562774,0.18761496918615583,0.7329549984145263,-0.03747613405985647
8685,5.0,299.9966,1735.8473,0.0,0.0,0.0,0.0,0.08656174123548384,0.0,-0.16830741760314885,-0.13628979862075585,-0.2230570188690138,0.21551694864736679,0.7788512256066312,-0.03389589183851407
8686,5.0,300.04791,2017.7339,0.0,0.0,0.0,0.0,0.08657170804506766,0.0,-0.19418823669238683,-0.16025729754616386,-0.2588951885459657,0.1800484227393958,0.7562667624052183,-0.03195756972846657
8687,5.0,299.94955,2493.5344,0.0,0.0,0.0,0.0,0.08658167485465147,0.0,-0.24738367442486778,-0.2313734615822828,-0.2792150681713817,0.14711582878420187,0.7331174426705583,-0.054146543177347746
8688,5.0,301.01677,2358.3185,0.0,0.0,0.0,0.0,0.0865916416642353,0.0,-0.2318658403358768,-0.19569570966116281,-0.28930839692251575,0.13667408385368185,0.7169884769162533,-0.037390472883152365
8689,5.0,300.91006,2055.9139,0.0,0.0,0.0,0.0,0.0866016084738191,0.0,-0.19224602876820582,-0.16879408162617884,-0.26390635877052976,0.16363326449434584,0.7350028477941334,-0.02800542925667068
8690,5.0,301.26227,1885.6737,0.0,0.0,0.0,0.0,0.08661157528340294,0.0,-0.16030943939630984,-0.1831389064719028,-0.22974939392449975,0.2098498205730648,0.7624934679797463,-0.04487739104430366
8691,5.0,300.36871,1897.0501,0.0,0.0,0.0,0.0,0.08662154209298677,0.0,-0.17029469489177784,-0.15348057955235386,-0.2528805764823698,0.1867127915621178,0.7380897142237832,-0.03669215611298386
8692,5.0,299.75546,2139.1176,0.0,0.0,0.0,0.0,0.08663150890257057,0.0,-0.18017851391973483,-0.1964966636002108,-0.27356314898108075,0.2023128306317218,0.7294215622683032,-0.06779845491568653
8693,5.0,300.17683,2228.9934,0.0,0.0,0.0,0.0,0.0866414757121544,0.0,-0.19247421269072582,-0.18559879400467483,-0.2994853188068997,0.2066063867379628,0.7576527770845073,-0.05624356659755786
8694,5.0,300.29562000000004,1953.501,0.0,0.0,0.0,0.0,0.08665144252173822,0.0,-0.15592104308070884,-0.16896711434575584,-0.2689273575210638,0.2076395674674298,0.7710013845644124,-0.092561643945873
8695,5.0,300.05874,1863.6605,0.0,0.0,0.0,0.0,0.08666140933132205,0.0,-0.14114259785468988,-0.17906141581698581,-0.24630223259313774,0.1935436272437688,0.7427706459757553,-0.06438777199257834
8696,5.0,300.25928999999996,2231.1029,0.0,0.0,0.0,0.0,0.08667137614090586,0.0,-0.1997521753765048,-0.1938932694557758,-0.2845541362608067,0.16355256925638184,0.7238979306731633,-0.03161003406341747
8697,5.0,300.12773,2137.351,0.0,0.0,0.0,0.0,0.08668134295048968,0.0,-0.19003413419740883,-0.18038897609800583,-0.2792782139176137,0.16328282181475987,0.7546242130656113,-0.04479896548656366
8698,5.0,301.08616,2007.6959,0.0,0.0,0.0,0.0,0.08669130976007351,0.0,-0.18216471716325783,-0.1917170210234968,-0.23640769337912276,0.16133200126472885,0.7531818110182572,-0.050498401040304154
8699,5.0,301.67118999999997,2053.4685,0.0,0.0,0.0,0.0,0.08670127656965732,0.0,-0.19113554718860984,-0.17058181957261484,-0.26248577199782874,0.15729113960092683,0.7563292698038873,-0.07424294036070773
8700,5.0,300.76031,2146.663,0.0,0.0,0.0,0.0,0.08671124337924116,0.0,-0.2005669095169128,-0.2115096964893818,-0.24045534381859476,0.15092612538774886,0.7335128635220833,-0.04707950977813586
8701,5.0,300.68973,2135.4645,0.0,0.0,0.0,0.0,0.08672121018882498,0.0,-0.18944798927956083,-0.18023708990801582,-0.27944280626385776,0.19362687587198482,0.7577952096510643,-0.08256120996390702
8702,5.0,300.27475,2135.3071,0.0,0.0,0.0,0.0,0.08673117699840878,0.0,-0.20886174973804977,-0.16343867994514186,-0.2767796202310217,0.1950320207131618,0.7764473505393873,-0.036108542293885666
8703,5.0,300.77403,1934.4344,0.0,0.0,0.0,0.0,0.08674114380799261,0.0,-0.15458167843602386,-0.18210288864215582,-0.25133519782735275,0.17783528187097583,0.7325363640032103,-0.06631337578737063
8704,5.0,300.76175,1776.3842,0.0,0.0,0.0,0.0,0.08675111061757643,0.0,-0.17711303719969582,-0.13627169184146887,-0.22659171144536078,0.17448822294814684,0.7196593535173483,-0.04916983662843505
8705,5.0,300.22612000000004,2062.5512,0.0,0.0,0.0,0.0,0.08676107742716026,0.0,-0.1846906584700488,-0.17118601047474385,-0.27108740408424375,0.16822489851500486,0.7343221565094543,-0.05899857842070635
8706,5.0,300.638,2326.5322,0.0,0.0,0.0,0.0,0.08677104423674407,0.0,-0.22600798819525178,-0.1977305185119828,-0.2834691784512297,0.2026926271667048,0.7519831868124622,-0.05475328240347825
8707,5.0,300.45228,2062.2594,0.0,0.0,0.0,0.0,0.08678101104632789,0.0,-0.16640664147555684,-0.16723654396996185,-0.2932321876697637,0.1887369207568838,0.7419782843975553,-0.03338352773994767
8708,5.0,299.37059,1812.7969,0.0,0.0,0.0,0.0,0.08679097785591172,0.0,-0.14464986175082986,-0.17353306247637984,-0.23286204756919476,0.18132103446749281,0.7632971678265653,-0.06229064218110773
8709,5.0,300.56913,2041.1554,0.0,0.0,0.0,0.0,0.08680094466549552,0.0,-0.16161061464472584,-0.17763889373659383,-0.28121077570084274,0.18736782735426483,0.7725049058577983,-0.012207012029488288
8710,5.0,299.39727,2031.5522,0.0,0.0,0.0,0.0,0.08681091147507936,0.0,-0.18742192477710382,-0.19244078556992683,-0.23767842046203377,0.15180042850153586,0.7855828235734883,-0.07170394535287844
8711,5.0,299.28491,2009.4533,0.0,0.0,0.0,0.0,0.08682087828466319,0.0,-0.18137467592778683,-0.1990787997575478,-0.2303701615982648,0.14412905119942987,0.7439305234977264,-0.06576392774839433
8712,5.0,300.13954,1979.4072,0.0,0.0,0.0,0.0,0.08683084509424699,0.0,-0.18184342568904882,-0.16581910840507183,-0.25402781877559377,0.13706011187677986,0.7316121887195013,-0.09701929286605872
8713,5.0,300.99109,1769.8347,0.0,0.0,0.0,0.0,0.08684081190383082,0.0,-0.14028061586211887,-0.16255050543748584,-0.23515443472793576,0.17121272987988084,0.7587346444812794,-0.08783925303955932
8714,5.0,300.83826,1924.4588,0.0,0.0,0.0,0.0,0.08685077871341464,0.0,-0.15371069878256485,-0.16836144409848083,-0.26291527858271774,0.18590346817724382,0.7412868830593192,-0.07071542159506873
8715,5.0,300.45457999999996,2238.6334,0.0,0.0,0.0,0.0,0.08686074552299847,0.0,-0.19880623548064782,-0.17862040884346184,-0.3030620105998917,0.2105144011811538,0.7254548299818173,-0.03584248916212826
8716,5.0,299.07716,2109.8245,0.0,0.0,0.0,0.0,0.08687071233258228,0.0,-0.2098312679637338,-0.17425732351535883,-0.25724539446814376,0.1999378737223318,0.7302416767667422,-0.025339689833582677
8717,5.0,299.48739,2019.3110000000001,0.0,0.0,0.0,0.0,0.0868806791421661,0.0,-0.18260272491648583,-0.17479031333296083,-0.25642707342238175,0.2248238028033818,0.7649635488085242,-0.032168473683781174
8718,5.0,300.07847000000004,2222.2087,0.0,0.0,0.0,0.0,0.08689064595174993,0.0,-0.22730566773082278,-0.1861958516260998,-0.26199442675933676,0.17515708960415882,0.7666728004022142,-0.017369148412951483
8719,5.0,300.50521000000003,2390.3078,0.0,0.0,0.0,0.0,0.08690061276133373,0.0,-0.2208489341185928,-0.21441402591351683,-0.2913309251821237,0.16013009412860985,0.7259912952472624,-0.05041749504631936
8720,5.0,300.6482,2089.4573,0.0,0.0,0.0,0.0,0.08691057957091756,0.0,-0.2113276357114138,-0.14304561326500287,-0.28076960660730277,0.12054904950976489,0.7440190308939613,-0.025096349716066876
8721,5.0,301.13133999999997,1906.3767,0.0,0.0,0.0,0.0,0.0869205463805014,0.0,-0.14140640765072587,-0.18028169317741782,-0.2578028238781577,0.15502633310990785,0.7742245635300152,-0.07280497736204183
8722,5.0,301.39901000000003,1939.9283,0.0,0.0,0.0,0.0,0.0869305131900852,0.0,-0.1830410974397498,-0.14541168397101586,-0.26123699191208377,0.17450639052243982,0.7722297476606422,-0.03909534419666006
8723,5.0,301.42625,1998.8613,0.0,0.0,0.0,0.0,0.08694047999966903,0.0,-0.18003825984089283,-0.17760256872050884,-0.24996309507193673,0.16967301529292284,0.7349511011115263,-0.06682150247401884
8724,5.0,299.96668999999997,2030.0911,0.0,0.0,0.0,0.0,0.08695044680925285,0.0,-0.2059784553859908,-0.17122787796887584,-0.23989066967036576,0.1946660347770418,0.7423467325314183,-0.07112660557839943
8725,5.0,300.39794,1993.3792,0.0,0.0,0.0,0.0,0.08696041361883668,0.0,-0.16745769593678783,-0.17059711964912483,-0.26788266627046076,0.23128052628311077,0.7401106719457363,-0.06528322771545293
8726,5.0,299.79505,1817.5657,0.0,0.0,0.0,0.0,0.0869703804284205,0.0,-0.13550757967605687,-0.16834969039732084,-0.24863731811109277,0.21508241634198177,0.7710859402852573,-0.04832507786106385
8727,5.0,300.14932000000005,1894.5252,0.0,0.0,0.0,0.0,0.08698034723800431,0.0,-0.14000375540479487,-0.16796534436938884,-0.26791925473157174,0.17151157786437485,0.7081318097796684,-0.03251194824242947
8728,5.0,299.14702,2161.1331,0.0,0.0,0.0,0.0,0.08699031404758814,0.0,-0.2013651175481898,-0.1791353932067868,-0.27642997801901475,0.15706516456362485,0.7313076462694453,-0.03059797757203527
8729,5.0,299.54145,2166.2994,0.0,0.0,0.0,0.0,0.08700028085717194,0.0,-0.18819602758850182,-0.2127130728381458,-0.2575918348098347,0.16604904525026484,0.7669847193129983,-0.07027423021002653
8730,5.0,299.52837999999997,2117.8499,0.0,0.0,0.0,0.0,0.08701024766675577,0.0,-0.1910246064351608,-0.1926768424457238,-0.26007203800711176,0.1933637550860168,0.7567509844955073,-0.07814769213857672
8731,5.0,299.65173,2073.6814,0.0,0.0,0.0,0.0,0.0870202144763396,0.0,-0.18913971806913682,-0.1958849239848368,-0.24532274398646975,0.17555802253622785,0.7165368612141824,-0.08332791098332451
8732,5.0,299.83497,2017.6681,0.0,0.0,0.0,0.0,0.08703018128592342,0.0,-0.2009826966954478,-0.14996512859540587,-0.2623728858041877,0.17215572121794684,0.7331344247422343,-0.04153980600990966
8733,5.0,300.39651000000003,1777.5524,0.0,0.0,0.0,0.0,0.08704014809550724,0.0,-0.13053411248771388,-0.14289912769804586,-0.26689830393081176,0.1937181595734938,0.7686561868104592,-0.06266995539579304
8734,5.0,300.32065,1833.9986,0.0,0.0,0.0,0.0,0.08705011490509106,0.0,-0.15584254659546184,-0.15298946736138486,-0.24865777563061178,0.17923026381364984,0.7776089607190293,-0.013689062553255285
8735,5.0,300.75087,2061.9076,0.0,0.0,0.0,0.0,0.08706008171467489,0.0,-0.1917614621728828,-0.15532965965984386,-0.27967730273450075,0.16146135277249485,0.7351118127098873,-0.04545588795039686
8736,5.0,300.16886,2208.3985,0.0,0.0,0.0,0.0,0.0870700485242587,0.0,-0.22496814028012682,-0.17321392922488382,-0.27311593078444374,0.17691806761545384,0.7337366600716703,-0.028740539164470374
8737,5.0,299.00755,2309.547,0.0,0.0,0.0,0.0,0.08708001533384252,0.0,-0.20755244822383181,-0.21919321252768578,-0.2752989578598917,0.1955339746802008,0.7681560566936002,-0.05506579811857115
8738,5.0,299.48224,2396.0815,0.0,0.0,0.0,0.0,0.08708998214342635,0.0,-0.23065041644342377,-0.18558467943078183,-0.3121138398382377,0.21692437330126882,0.7270341525151843,-0.015024055023758786
8739,5.0,299.99682,2349.5204,0.0,0.0,0.0,0.0,0.08709994895301015,0.0,-0.2149638762127828,-0.2199899513463178,-0.2792416963840097,0.17648687903539884,0.7114731134419293,-0.04804827009274505
8740,5.0,300.01135,2093.5448,0.0,0.0,0.0,0.0,0.08710991576259398,0.0,-0.21109774952872581,-0.16240520537314584,-0.26288238848447176,0.17941571897945283,0.7341241269099104,-0.03664149360798386
8741,5.0,300.30348,1772.4682,0.0,0.0,0.0,0.0,0.08711988257217781,0.0,-0.15420125368597884,-0.14728451466084985,-0.23730029578971576,0.17867404017125485,0.7892222152826682,-0.07041840151375514
8742,5.0,299.5671,1542.8563,0.0,0.0,0.0,0.0,0.08712984938176163,0.0,-0.1242859158785649,-0.14174001011364987,-0.20296388435097582,0.16403432914892785,0.7880537453998492,-0.092926343054366
8743,5.0,300.59037,1802.4085,0.0,0.0,0.0,0.0,0.08713981619134545,0.0,-0.14780184976440686,-0.16266604634638884,-0.23741928174895877,0.14732017093186886,0.7402241863544393,-0.08244062306950602
8744,5.0,300.08702999999997,2005.095,0.0,0.0,0.0,0.0,0.08714978300092927,0.0,-0.17238960973852982,-0.1882758412988788,-0.24883337187294174,0.15915422282479885,0.7535176628964033,-0.07230000796270523
8745,5.0,300.42602999999997,2024.9762,0.0,0.0,0.0,0.0,0.0871597498105131,0.0,-0.16732986430417185,-0.17837144316139084,-0.2698408936787227,0.17802633017733083,0.7721913657468542,-0.048663903628253354
8746,5.0,300.83276,2069.395,0.0,0.0,0.0,0.0,0.08716971662009691,0.0,-0.18113111086874883,-0.17451625957841382,-0.27339704689218775,0.18769444852399983,0.7531323745458783,-0.04600401876424316
8747,5.0,300.45565,2270.4442,0.0,0.0,0.0,0.0,0.08717968342968073,0.0,-0.2170056258267878,-0.20227105433009882,-0.2708816535189377,0.18697239637023882,0.7385885271155123,-0.04124417306798296
8748,5.0,300.71168,2341.3374,0.0,0.0,0.0,0.0,0.08718965023926456,0.0,-0.2228318848292948,-0.1886648989397758,-0.3002113226360507,0.21692922676924778,0.7424351386026433,-0.04004122836376156
8749,5.0,302.54773,2127.3135,0.0,0.0,0.0,0.0,0.08719961704884836,0.0,-0.18363415272327982,-0.1996442642408548,-0.26337176801776974,0.20114411756887882,0.7693258336690483,-0.062035116717889346
8750,5.0,300.48541,1814.7021,0.0,0.0,0.0,0.0,0.0872095838584322,0.0,-0.15470795979598687,-0.15443415935396487,-0.24248202640361277,0.17731188753182084,0.7360039794229374,-0.04510797535631055
8751,5.0,300.10455,1827.3551,0.0,0.0,0.0,0.0,0.08721955066801602,0.0,-0.16781467407951883,-0.13588669733347286,-0.25176896006266175,0.14302406143537588,0.7330853125098873,-0.060270919611026645
8752,5.0,299.5346,1923.8527,0.0,0.0,0.0,0.0,0.08722951747759984,0.0,-0.18755350543508983,-0.15658967668919785,-0.24065998994129176,0.13465472706688686,0.7489680990198962,-0.049657740869587456
8753,5.0,299.76047,1991.9806,0.0,0.0,0.0,0.0,0.08723948428718366,0.0,-0.18444795467359582,-0.15260866770880285,-0.26845574026201874,0.16966300438193485,0.7758832032812103,-0.06606205429881713
8754,5.0,300.25618,2080.0755,0.0,0.0,0.0,0.0,0.08724945109676747,0.0,-0.18855914602683882,-0.17247397294185585,-0.27125788341356877,0.17184559575983982,0.7673942040759113,-0.026383273601826372
8755,5.0,299.85346,2122.4120000000003,0.0,0.0,0.0,0.0,0.0872594179063513,0.0,-0.17428653551574183,-0.2014935368658638,-0.2693801587257518,0.1885380501597568,0.7394383602393844,-0.06643264039039114
8756,5.0,299.47062,2230.7179,0.0,0.0,0.0,0.0,0.08726938471593512,0.0,-0.2143261062023398,-0.17559172323455383,-0.2881647212696437,0.22269919972869978,0.7262080801061572,-0.02245863071124428
8757,5.0,300.90914,2284.0297,0.0,0.0,0.0,0.0,0.08727935152551894,0.0,-0.2067767242122738,-0.1953944501414308,-0.2921168222246857,0.22242044449368878,0.7624566363386113,-0.046124446578378456
8758,5.0,301.24037999999996,2079.6571,0.0,0.0,0.0,0.0,0.08728931833510277,0.0,-0.20310569883497182,-0.17972627000260183,-0.24933185039213776,0.21245755142792783,0.7397650624691273,-0.03640389051253426
8759,5.0,301.04221,1825.4385,0.0,0.0,0.0,0.0,0.08729928514468657,0.0,-0.17913212040896384,-0.14330624145572488,-0.23244938120096775,0.15710691046774486,0.7356589981613904,-0.06429959998212645
8760,5.0,299.99764,1979.2568,0.0,0.0,0.0,0.0,0.0873092519542704,0.0,-0.16872198888156384,-0.1845633638599858,-0.24835928228365275,0.16527271328864684,0.7706163292614102,-0.07137017975668834
8761,5.0,299.73537000000005,1949.31,0.0,0.0,0.0,0.0,0.08731921876385423,0.0,-0.14436221017994086,-0.17055214147718584,-0.2776272039396717,0.17004671206230382,0.7873069902086502,-0.08501816413763952
8762,5.0,300.94412,1890.0752,0.0,0.0,0.0,0.0,0.08732918557343805,0.0,-0.12649622977920588,-0.17834409554119185,-0.26969533016935676,0.16277730120736886,0.7593706007740433,-0.08453683284988583
8763,5.0,301.67044,1955.9839,0.0,0.0,0.0,0.0,0.08733915238302187,0.0,-0.18126721062218082,-0.17482903975178285,-0.23847401430805276,0.14366176051831187,0.7410730264932133,-0.07422478899841634
8764,5.0,299.93393,1907.1273,0.0,0.0,0.0,0.0,0.08734911919260568,0.0,-0.1875744493146568,-0.14707988880315484,-0.24506476037850874,0.1922469710907988,0.7640965512279583,-0.04759985524773996
8765,5.0,300.36163,1985.5843,0.0,0.0,0.0,0.0,0.08735908600218951,0.0,-0.19532398872947682,-0.16798504195133285,-0.24025899621421676,0.18885463002100084,0.7760739273475332,-0.04257378822020576
8766,5.0,299.77727000000004,2301.5253,0.0,0.0,0.0,0.0,0.08736905281177333,0.0,-0.1980844974344178,-0.18656897084292381,-0.3149527538359167,0.1916612517379928,0.7524435468628963,-0.02035599692523048
8767,5.0,299.61607999999995,2394.3549,0.0,0.0,0.0,0.0,0.08737901962135715,0.0,-0.20916373879785383,-0.18426156731770083,-0.3343988065750927,0.15875128365753186,0.7454589099485663,-0.025172690005101077
8768,5.0,299.67602999999997,2154.0799,0.0,0.0,0.0,0.0,0.08738898643094098,0.0,-0.18924510621203783,-0.17746858665978582,-0.28807282961807473,0.18632116026596682,0.7611716224292903,-0.06236161528436224
8769,5.0,299.94378,2078.1058,0.0,0.0,0.0,0.0,0.08739895324052478,0.0,-0.2123148756813468,-0.14223319946732388,-0.2771442078820038,0.2012350770303558,0.7756234768830772,-0.049503438078108954
8770,5.0,299.98867,2167.8927,0.0,0.0,0.0,0.0,0.08740892005010861,0.0,-0.2341463218059428,-0.16202851951596986,-0.26281039706486675,0.1958118585201258,0.7404782385520122,-0.06699657587929723
8771,5.0,300.14612999999997,2107.7977,0.0,0.0,0.0,0.0,0.08741888685969244,0.0,-0.2047476402245188,-0.16825866000833684,-0.2677115789910757,0.18266641781777182,0.7105181454876813,-0.06078799836230834
8772,5.0,301.01546,1908.6835,0.0,0.0,0.0,0.0,0.08742885366927626,0.0,-0.14709225045437485,-0.15866930159194084,-0.27443056199418775,0.1917732260065438,0.7369898515052353,-0.07120767166590003
8773,5.0,301.43746,1870.6557,0.0,0.0,0.0,0.0,0.08743882047886008,0.0,-0.1254507076635209,-0.1746139672855568,-0.2685679475780927,0.18080412492897782,0.7935804775402953,-0.05946980760496304
8774,5.0,301.09258,1750.5420000000001,0.0,0.0,0.0,0.0,0.0874487872884439,0.0,-0.13055285761456387,-0.13976450679118288,-0.26180370269301373,0.1842337637349568,0.7399316407855673,-0.06754238837691473
8775,5.0,300.8536,2042.7705,0.0,0.0,0.0,0.0,0.08745875409802772,0.0,-0.1979096915271658,-0.17334027137985283,-0.24970125098109477,0.14329159999177984,0.7373350151518002,-0.03272723045142617
8776,5.0,300.40072999999995,2429.3709,0.0,0.0,0.0,0.0,0.08746872090761153,0.0,-0.2576054934211828,-0.21781563822172978,-0.26304697069821475,0.18112117088526783,0.7480727912315362,-0.06867215514566404
8777,5.0,300.56007999999997,2306.6136,0.0,0.0,0.0,0.0,0.08747868771719536,0.0,-0.23947548030938975,-0.18178807183608583,-0.27988937598043073,0.2050862380104358,0.7882306487348082,-0.05628464983611245
8778,5.0,300.51921,2038.4908,0.0,0.0,0.0,0.0,0.08748865452677919,0.0,-0.14334033732158985,-0.19537010174152783,-0.2809398528891047,0.1857506193996588,0.7541899036752483,-0.08208760977441633
8779,5.0,299.79242999999997,2044.8352,0.0,0.0,0.0,0.0,0.08749862133636299,0.0,-0.17355918406395784,-0.15369583440359785,-0.29432382279749975,0.18958859799593783,0.7361266232150413,-0.056838306916004146
8780,5.0,299.22868,2152.7006,0.0,0.0,0.0,0.0,0.08750858814594682,0.0,-0.1917764177443588,-0.17161315618689985,-0.29097764540225773,0.2036413535003368,0.7717372270520342,-0.06925866686004822
8781,5.0,299.55266,1870.7313,0.0,0.0,0.0,0.0,0.08751855495553064,0.0,-0.2040747509656098,-0.14510293653304485,-0.2194779256732848,0.19361951967625882,0.7713794281767223,-0.04146725324974926
8782,5.0,299.74415,1636.8033,0.0,0.0,0.0,0.0,0.08752852176511447,0.0,-0.17676300995265085,-0.1040460323485439,-0.2167382797879028,0.17873152184942784,0.7208523947150923,-0.05643689167688754
8783,5.0,300.61098,1883.3829,0.0,0.0,0.0,0.0,0.08753848857469827,0.0,-0.17381111856882184,-0.15007086124334085,-0.2486193937168238,0.13889414522028487,0.7219746299958483,-0.028739088190327174
8784,5.0,300.55523999999997,2238.9617,0.0,0.0,0.0,0.0,0.0875484553842821,0.0,-0.18850519045901382,-0.18923647332118582,-0.3028467760136497,0.1916558004524548,0.7437424338816633,-0.06820482494779213
8785,5.0,301.73253,2609.2982,0.0,0.0,0.0,0.0,0.08755842219386592,0.0,-0.24073929702661878,-0.2055288965816228,-0.34689329488320264,0.19752480847668083,0.7853864557041083,-0.020225932089394084
8786,5.0,302.49997,2374.4073,0.0,0.0,0.0,0.0,0.08756838900344974,0.0,-0.21178758032930678,-0.2126873768156098,-0.2972855731048017,0.16424764869248085,0.7624833253462453,-0.03628082926138907
8787,5.0,301.77407,1977.6168,0.0,0.0,0.0,0.0,0.08757835581303355,0.0,-0.1818322596729468,-0.16498505158525684,-0.25432882498280074,0.17486662119799182,0.7427175212730123,-0.03022378532335537
8788,5.0,301.03452999999996,2190.4107,0.0,0.0,0.0,0.0,0.08758832262261738,0.0,-0.20955136775610977,-0.19697117875454181,-0.25930760160166777,0.17727394131557583,0.7724295504478612,-0.06216946354864834
8789,5.0,300.80634,2400.8703,0.0,0.0,0.0,0.0,0.0875982894322012,0.0,-0.23790132535153277,-0.20806847623475982,-0.28383484014731775,0.19091581377192382,0.7796450563974763,-0.07476720001544812
8790,5.0,300.39288999999997,1776.5238,0.0,0.0,0.0,0.0,0.08760825624178502,0.0,-0.1252691535106029,-0.14703059418578984,-0.26771912770432077,0.17198294181089485,0.7264606833560873,-0.08195276645110831
8791,5.0,300.48037999999997,1417.7248,0.0,0.0,0.0,0.0,0.08761822305136885,0.0,-0.08555539238040982,-0.13647653048168487,-0.2089210046038978,0.16452014204187385,0.7393429424774672,-0.07613998367493134
8792,5.0,299.87214,1826.5086,0.0,0.0,0.0,0.0,0.08762818986095265,0.0,-0.12591168579651588,-0.15749425571597284,-0.27180706496776874,0.20055925947865783,0.7427309569693383,-0.08313435893597243
8793,5.0,299.45273,2208.4237,0.0,0.0,0.0,0.0,0.08763815667053648,0.0,-0.22556073960111175,-0.2014072282223458,-0.24433769263675276,0.19913326195042283,0.7647107733060773,-0.05129111218978865
8794,5.0,299.35111,2244.9786,0.0,0.0,0.0,0.0,0.0876481234801203,0.0,-0.20455112036762382,-0.2262499117891278,-0.25161640512760575,0.16912781581161582,0.7489278425934234,-0.07903988620937942
8795,5.0,299.471,2127.5854,0.0,0.0,0.0,0.0,0.08765809028970413,0.0,-0.18221021209274782,-0.18903296203860084,-0.27548968192621476,0.16543963611012083,0.7426121939251173,-0.051420545770812745
8796,5.0,300.18262000000004,2115.4353,0.0,0.0,0.0,0.0,0.08766805709928795,0.0,-0.14222131404365088,-0.2258816359077818,-0.2749365486966247,0.16885759214244683,0.7917281854299882,-0.07998530934768543
8797,5.0,299.60064,2209.2506,0.0,0.0,0.0,0.0,0.08767802390887176,0.0,-0.2001385479046368,-0.16346638220287585,-0.3079520974375057,0.17016212124869384,0.7918361573606443,-0.017860451094939285
8798,5.0,299.59726,2227.1301,0.0,0.0,0.0,0.0,0.0876879907184556,0.0,-0.2014731705388538,-0.18514637783502483,-0.2903723804550227,0.16667088696913585,0.7580173951329923,-0.04917991036092925
8799,5.0,300.71173,1981.1729999999998,0.0,0.0,0.0,0.0,0.0876979575280394,0.0,-0.2074464318658688,-0.13842399717388487,-0.25635669307043574,0.16940149466362583,0.7437530730077132,0.004046102091994186
8800,5.0,301.49722,1790.3629,0.0,0.0,0.0,0.0,0.08770792433762323,0.0,-0.15077274972011184,-0.13889401349777186,-0.25455885302050274,0.2177574979309918,0.7631551810900522,-0.06374181390807723
8801,5.0,301.57412999999997,2075.5405,0.0,0.0,0.0,0.0,0.08771789114720706,0.0,-0.17121146331725584,-0.18294120111239082,-0.27675982132406773,0.2120397276166918,0.7690290121847542,-0.05272297846260285
8802,5.0,300.26886,2217.761,0.0,0.0,0.0,0.0,0.08772785795679086,0.0,-0.17430186598975483,-0.18490530537123281,-0.3149368052793427,0.19505091782752682,0.7342436194942032,-0.07678398112048893
8803,5.0,298.76319,2161.616,0.0,0.0,0.0,0.0,0.08773782476637469,0.0,-0.19186351672295482,-0.17322648339362284,-0.29198728833190174,0.18148976087414484,0.7416551893381683,-0.05773844892059124
8804,5.0,299.57858999999996,2107.7159,0.0,0.0,0.0,0.0,0.08774779157595851,0.0,-0.17830430520976484,-0.21399596905475782,-0.24839272966945378,0.17888234412681284,0.7700562248711322,-0.06729269518127194
8805,5.0,301.04925,2197.1437,0.0,0.0,0.0,0.0,0.08775775838554234,0.0,-0.23950336495214175,-0.16834178704654085,-0.2600316599906268,0.17335789179909183,0.7626029800505543,-0.026209743376450274
8806,5.0,299.9771,2127.4789,0.0,0.0,0.0,0.0,0.08776772519512616,0.0,-0.2030174244862598,-0.18229909439151984,-0.26138394357408673,0.11909812602906988,0.7483960788084423,-0.03871536730315926
8807,5.0,299.55143,2167.1058,0.0,0.0,0.0,0.0,0.08777769200470997,0.0,-0.2012244379043058,-0.17070100818187783,-0.2868205943494887,0.15279952349763884,0.7411266679535073,-0.045005749566971655
8808,5.0,299.72767000000005,2089.7518,0.0,0.0,0.0,0.0,0.0877876588142938,0.0,-0.17429776232684982,-0.18129950290286784,-0.2796351008678358,0.18625330290676984,0.7684975422423023,-0.055847829612001645
8809,5.0,300.0833,1890.6008,0.0,0.0,0.0,0.0,0.0877976256238776,0.0,-0.14321471457419188,-0.17033672450592582,-0.2611439958179057,0.1979289230140638,0.7690487806942053,-0.06629325973313534
8810,5.0,300.96615,1863.4260000000002,0.0,0.0,0.0,0.0,0.08780759243346144,0.0,-0.16056978387700385,-0.15182284159374787,-0.25404236904702976,0.2113171080428748,0.7264623045562473,-0.07561545956191484
8811,5.0,301.00343,1891.4718,0.0,0.0,0.0,0.0,0.08781755924304527,0.0,-0.19393678854757082,-0.15282881655802985,-0.2281945920435528,0.19802943742398382,0.7268676755237543,-0.05647877740952135
8812,5.0,301.08372,1795.7476,0.0,0.0,0.0,0.0,0.08782752605262907,0.0,-0.13360116987790888,-0.18554027881139984,-0.2267209818931188,0.19364703954897483,0.7773049654240273,-0.09309088777785532
8813,5.0,301.37234,1978.1903,0.0,0.0,0.0,0.0,0.0878374928622129,0.0,-0.1886564686989438,-0.15315858893557585,-0.2595053981536887,0.18579692492922883,0.7733672222229022,-0.05199836886558945
8814,5.0,300.86054,2277.2887,0.0,0.0,0.0,0.0,0.08784745967179672,0.0,-0.19031305155243583,-0.22030935817534078,-0.28161651143838573,0.13648463648248485,0.7515223505344812,-0.09130355817120961
8815,5.0,299.31157,2273.3784,0.0,0.0,0.0,0.0,0.08785742648138055,0.0,-0.23867543829543178,-0.16357679606627284,-0.28879802284714573,0.16998159047837685,0.7411391207972362,-0.026993235976524973
8816,5.0,301.11869,2404.2761,0.0,0.0,0.0,0.0,0.08786739329096437,0.0,-0.23376846057865078,-0.1900561318570798,-0.3070152970575507,0.17636892659125783,0.7697715826530402,-0.03934749351054526
8817,5.0,299.93937999999997,2293.788,0.0,0.0,0.0,0.0,0.08787736010054818,0.0,-0.2654328099136788,-0.18224160258084582,-0.24957986361911477,0.18742418432482683,0.7818531614128993,-0.01054335365054799
8818,5.0,300.10348,2127.8052,0.0,0.0,0.0,0.0,0.08788732691013201,0.0,-0.17257638212946283,-0.14906813881187986,-0.3251551285628127,0.16483575931552286,0.7495961316968782,-0.012613373955593088
8819,5.0,299.60261,2104.2202,0.0,0.0,0.0,0.0,0.08789729371971582,0.0,-0.18782983900236183,-0.17812872923243683,-0.27367183018680674,0.17297545068134784,0.7422919460985113,-0.03184624393997957
8820,5.0,299.86933999999997,2058.5782,0.0,0.0,0.0,0.0,0.08790726052929965,0.0,-0.14401030842021087,-0.17906080786692583,-0.3026852538152087,0.18461038879712682,0.7839260684674793,-0.05678255586900195
8821,5.0,299.25972,1906.9853,0.0,0.0,0.0,0.0,0.08791722733888348,0.0,-0.16095871992788885,-0.18104725429047283,-0.23766992942619578,0.21612094703197682,0.7580775416589283,-0.07186610285913214
8822,5.0,299.68467000000004,1771.7,0.0,0.0,0.0,0.0,0.08792719414846728,0.0,-0.15945132801912085,-0.1854828173982288,-0.1936184152336498,0.1929229304975108,0.7270200075437883,-0.06540015475049273
8823,5.0,299.35085,1940.5899,0.0,0.0,0.0,0.0,0.08793716095805111,0.0,-0.2003147419645258,-0.17476890335834785,-0.2148072277473228,0.18302679034833783,0.7254132360652124,-0.07526590752916673
8824,5.0,299.4114,2261.7372,0.0,0.0,0.0,0.0,0.08794712776763493,0.0,-0.19330501697771985,-0.21299721856368878,-0.28120939768070674,0.18501687433974384,0.7869009606285783,-0.04208963097792316
8825,5.0,299.2912,2074.0602,0.0,0.0,0.0,0.0,0.08795709457721876,0.0,-0.17409470700680985,-0.19503896147634683,-0.26132884303364873,0.18025460900224483,0.7889190001902433,-0.08969067071503001
8826,5.0,300.43707,1939.5770000000002,0.0,0.0,0.0,0.0,0.08796706138680258,0.0,-0.13425903263783487,-0.16924675110835383,-0.2860771930161207,0.15234520241780086,0.7670528705147243,-0.06100916350138564
8827,5.0,299.94497,1987.4779,0.0,0.0,0.0,0.0,0.08797702819638639,0.0,-0.18660239796372283,-0.18070679212437182,-0.23683447432124277,0.15010150192636487,0.7448599676819553,-0.08752666639695943
8828,5.0,300.81532999999996,2170.714,0.0,0.0,0.0,0.0,0.08798699500597022,0.0,-0.20519705717387282,-0.16626868747444185,-0.2883771187556057,0.18513326637873082,0.7827848448798492,-0.04338871082513236
8829,5.0,301.29188999999997,2251.6037,0.0,0.0,0.0,0.0,0.08799696181555403,0.0,-0.22752392180236278,-0.19172933201221182,-0.26517804844103576,0.19226456111253482,0.7720998186003192,-0.057647229053838546
8830,5.0,299.55292000000003,2029.5698,0.0,0.0,0.0,0.0,0.08800692862513786,0.0,-0.15376087492751686,-0.17832647512195285,-0.2848511806601227,0.17704430844541283,0.7439518017498262,-0.04731856688747896
8831,5.0,300.13502,1906.6622,0.0,0.0,0.0,0.0,0.08801689543472169,0.0,-0.16744902251593186,-0.16317390756151084,-0.24895475923492177,0.16161373545503385,0.7526182514451383,-0.03950975132855886
8832,5.0,300.6405,2073.8528,0.0,0.0,0.0,0.0,0.08802686224430549,0.0,-0.13223356595293687,-0.1966305443359238,-0.3015353466742217,0.16962372067555784,0.7879708007466633,-0.06440703590347954
8833,5.0,298.79801000000003,2224.5012,0.0,0.0,0.0,0.0,0.08803682905388932,0.0,-0.24168890488783779,-0.2037371056347868,-0.2307668084824108,0.2032967268763248,0.7585613179191733,-0.04419750124045376
8834,5.0,298.80875,2210.6826,0.0,0.0,0.0,0.0,0.08804679586347314,0.0,-0.2310005450154788,-0.17673533809241984,-0.26425642654757875,0.18909506413722982,0.7276596824644193,-0.04315766041807946
8835,5.0,300.21165,1960.3971,0.0,0.0,0.0,0.0,0.08805676267305697,0.0,-0.2183134885258638,-0.15945406379439087,-0.21814423522915982,0.18161707574920982,0.7299259784330854,-0.03607240371581907
8836,5.0,299.235,1935.1055,0.0,0.0,0.0,0.0,0.08806672948264078,0.0,-0.16029630767501385,-0.14223908645040487,-0.28568835829024575,0.2063015301803758,0.7667530194126313,-0.043004351624949054
8837,5.0,299.94981,2303.3505,0.0,0.0,0.0,0.0,0.0880766962922246,0.0,-0.2001253553883348,-0.18841621696773284,-0.3116194751144477,0.17121414843002083,0.7656583344020943,-0.04735244794432275
8838,5.0,300.16143,2355.1408,0.0,0.0,0.0,0.0,0.08808666310180843,0.0,-0.1868211991903168,-0.1955558406173588,-0.33352695552654765,0.15164769118146185,0.7544624578196473,-0.05730440094875404
8839,5.0,300.1187,2053.2891,0.0,0.0,0.0,0.0,0.08809662991139224,0.0,-0.17615558678270282,-0.18526395537662882,-0.2627290634793397,0.15778099536177187,0.7510096054538773,-0.05159296040782874
8840,5.0,300.55158,1995.1381,0.0,0.0,0.0,0.0,0.08810659672097607,0.0,-0.19388376516983782,-0.17501373498001083,-0.23757467378429478,0.1886381997996408,0.8073783398495383,-0.035930314641045964
8841,5.0,299.70052000000004,2019.3291,0.0,0.0,0.0,0.0,0.0881165635305599,0.0,-0.1954901110833718,-0.19226035612461984,-0.22607513627937878,0.18687704953582884,0.7563406384700093,-0.07061556883746402
8842,5.0,299.2171,1963.7106,0.0,0.0,0.0,0.0,0.0881265303401437,0.0,-0.15069118308706186,-0.19020998375226383,-0.2560178217069918,0.18451523448023582,0.7444044813645023,-0.050957156102579754
8843,5.0,299.40359,1820.0331,0.0,0.0,0.0,0.0,0.08813649714972753,0.0,-0.1321055114052989,-0.1801213058190888,-0.24101779894910477,0.19713950999365482,0.7183709249551904,-0.07819809119855073
8844,5.0,299.55089,1773.3913,0.0,0.0,0.0,0.0,0.08814646395931135,0.0,-0.1050897508790509,-0.16588455422903084,-0.26809237864365776,0.2003529617582978,0.7575691940837582,-0.047898714377985055
8845,5.0,298.74137,2013.8629999999998,0.0,0.0,0.0,0.0,0.08815643076889518,0.0,-0.1903561754766918,-0.17449738272905083,-0.24731050763514678,0.17573220022841782,0.7409103187921553,-0.062217353801374733
8846,5.0,298.77472,2444.3992,0.0,0.0,0.0,0.0,0.088166397578479,0.0,-0.23584551182613978,-0.18727005885211584,-0.3199207596062207,0.14845773668663786,0.7201760705383443,-0.04564544373935456
8847,5.0,299.90772999999996,2599.5888,0.0,0.0,0.0,0.0,0.08817636438806281,0.0,-0.3054054250336687,-0.18990196585436483,-0.2949026723146277,0.18621896386088083,0.7625981873775813,-0.044855080290351755
8848,5.0,300.00366,2145.9832,0.0,0.0,0.0,0.0,0.08818633119764664,0.0,-0.2063069004059058,-0.15216559370507485,-0.2938528236210157,0.16799172940199283,0.7967199316501352,-0.06009489983015485
8849,5.0,299.92376,2037.8974,0.0,0.0,0.0,0.0,0.08819629800723044,0.0,-0.2030467276791518,-0.16197943768112583,-0.25444375794164376,0.1979664234002648,0.7794724796404443,-0.03176327192904087
8850,5.0,298.97794,2231.5761,0.0,0.0,0.0,0.0,0.08820626481681428,0.0,-0.17979876804725684,-0.19415402936901083,-0.30439061452851474,0.14691368538925184,0.7391095099194294,-0.05881705770504165
8851,5.0,299.53772000000004,2151.462,0.0,0.0,0.0,0.0,0.0882162316263981,0.0,-0.21797232721719378,-0.19107145911978482,-0.24494693965688075,0.1948601937612038,0.7559707008584993,-0.034631691769631864
8852,5.0,300.2584,1850.826,0.0,0.0,0.0,0.0,0.08822619843598191,0.0,-0.15479322479190186,-0.17300918177717683,-0.2348024721731998,0.2014869912702178,0.7781950245768693,-0.06869937306985023
8853,5.0,300.54773,1797.5029,0.0,0.0,0.0,0.0,0.08823616524556574,0.0,-0.18755865274559783,-0.15221234506468886,-0.2066250102748008,0.2078734357230108,0.7535743339744962,-0.048181400010133955
8854,5.0,300.44014,2054.4156,0.0,0.0,0.0,0.0,0.08824613205514956,0.0,-0.15716264935574584,-0.17385905543105282,-0.2934693287231677,0.19486641511681782,0.7383990493468123,-0.07909879150394293
8855,5.0,301.18637,2292.5626,0.0,0.0,0.0,0.0,0.08825609886473339,0.0,-0.1881486480138258,-0.20229249470221483,-0.30644064239583674,0.18995366187446683,0.7457009652649553,-0.07481076065049722
8856,5.0,301.49039,2362.0019,0.0,0.0,0.0,0.0,0.0882660656743172,0.0,-0.18119213892227184,-0.1919208869436168,-0.34487657254666765,0.1992115963156538,0.7908572463065333,-0.04272613645224136
8857,5.0,300.74277,2129.6996,0.0,0.0,0.0,0.0,0.08827603248390102,0.0,-0.2201022802524038,-0.16841775040653784,-0.25885546914204577,0.17026750939159482,0.7816037600332852,-0.07644133844017273
8858,5.0,299.72607,1966.5327,0.0,0.0,0.0,0.0,0.08828599929348485,0.0,-0.16926268953242685,-0.17299578661085482,-0.25551836033519876,0.16864179013614886,0.7952388031839592,-0.04773468742529686
8859,5.0,299.9893,2089.7284,0.0,0.0,0.0,0.0,0.08829596610306865,0.0,-0.23145621371794978,-0.18125442340591882,-0.2225145956929808,0.17615734983787684,0.7737281013785182,-0.0973903328936775
8860,5.0,299.82237000000003,2111.507,0.0,0.0,0.0,0.0,0.08830593291265249,0.0,-0.17117706347636083,-0.1946579997037488,-0.2760103506226007,0.19578062001954283,0.7875962933772023,-0.058064693161289045
8861,5.0,298.76546,1723.9574,0.0,0.0,0.0,0.0,0.08831589972223632,0.0,-0.14525048601260687,-0.16595420504090486,-0.2128353113302098,0.18656650864518082,0.7383646900359213,-0.1042751788586589
8862,5.0,300.2114,1814.0158,0.0,0.0,0.0,0.0,0.08832586653182012,0.0,-0.15010479498918985,-0.16015345967591585,-0.24115725256036777,0.19104106161678483,0.7199119567672783,-0.05955846394896275
8863,5.0,299.33767,2160.9681,0.0,0.0,0.0,0.0,0.08833583334140395,0.0,-0.2166657716107468,-0.18922184198974182,-0.2509927395585548,0.18594187035603382,0.7499958487288273,-0.06510031783390115
8864,5.0,299.65269,2234.0359,0.0,0.0,0.0,0.0,0.08834580015098777,0.0,-0.2011993498318298,-0.17714027336238383,-0.3007515166618637,0.19999726031069281,0.7755259515609523,-0.04112667962613726
8865,5.0,301.62194,2279.4764,0.0,0.0,0.0,0.0,0.0883557669605716,0.0,-0.2256681238467098,-0.17616862731148983,-0.2910671559160917,0.17854979544399283,0.7772753075936002,-0.038567817823597264
8866,5.0,300.7864,2148.8038,0.0,0.0,0.0,0.0,0.08836573377015541,0.0,-0.16354122085526185,-0.16309434716365884,-0.3265471214176917,0.18520725390103282,0.7777122109042193,-0.06586080256395514
8867,5.0,299.79504,2127.8826,0.0,0.0,0.0,0.0,0.08837570057973923,0.0,-0.1966948249222678,-0.15275081656533188,-0.29737752555137675,0.16923911120259985,0.7616535748393553,-0.052547682142302446
8868,5.0,300.37004,2350.6813,0.0,0.0,0.0,0.0,0.08838566738932306,0.0,-0.2114205608780848,-0.19337119234175082,-0.3097566654681027,0.18035080696673883,0.7810254171412072,-0.06967825169995803
8869,5.0,298.99487,2237.1747,0.0,0.0,0.0,0.0,0.08839563419890686,0.0,-0.2682617130003698,-0.15829848245284384,-0.25348505109452674,0.16807511988522286,0.7380184219467473,-0.043458674731287256
8870,5.0,299.41991,1929.6352,0.0,0.0,0.0,0.0,0.0884056010084907,0.0,-0.17573195704839384,-0.16917377683615184,-0.24165518392450977,0.20289231849641282,0.7379456807220683,-0.07186933310045093
8871,5.0,300.04046,1721.8881,0.0,0.0,0.0,0.0,0.08841556781807453,0.0,-0.16399063780461584,-0.14415567941205787,-0.2152646696374688,0.18796967764866282,0.7618091593922103,-0.04993001130395845
8872,5.0,299.25985,1960.4098,0.0,0.0,0.0,0.0,0.08842553462765834,0.0,-0.1162806321385049,-0.19380434662699983,-0.28583065913428973,0.2078233913005718,0.7747974044740502,-0.08438508851490982
8873,5.0,298.84966000000003,2248.2107,0.0,0.0,0.0,0.0,0.08843550143724216,0.0,-0.19242782610114784,-0.21221593180908177,-0.27875615706859075,0.18711718980952882,0.7476952441117752,-0.06014457340305725
8874,5.0,299.73924,2180.3208,0.0,0.0,0.0,0.0,0.08844546824682598,0.0,-0.19169727277904783,-0.1879538709471028,-0.28311192673097174,0.19121393221634583,0.7581835580168913,-0.05950327930876645
8875,5.0,300.10045,1979.3583,0.0,0.0,0.0,0.0,0.0884554350564098,0.0,-0.1874084181532708,-0.1872917930667608,-0.22697527727071581,0.19069216920985183,0.7581015050237933,-0.05691587323765935
8876,5.0,300.57457999999997,1912.9470000000001,0.0,0.0,0.0,0.0,0.08846540186599362,0.0,-0.16838978470377783,-0.15488141808060585,-0.25821692906152677,0.1907986617953618,0.7703477774549063,-0.04017106116532506
8877,5.0,300.72992,2143.9837,0.0,0.0,0.0,0.0,0.08847536867557744,0.0,-0.19050256985113984,-0.16657352376702686,-0.2946414159088437,0.16928678461980481,0.7721051685608472,-0.056289803226121045
8878,5.0,300.40502000000004,2278.4444,0.0,0.0,0.0,0.0,0.08848533548516127,0.0,-0.18349220651677084,-0.18380597967523782,-0.32529201865132273,0.17070927630269384,0.7495728472095803,-0.05400294739967594
8879,5.0,300.01987,2272.0427,0.0,0.0,0.0,0.0,0.08849530229474507,0.0,-0.2085632057285858,-0.19073806943938182,-0.2913429727258127,0.18234934146397883,0.7716612636920372,-0.07350799966567473
8880,5.0,300.20395,2027.0195,0.0,0.0,0.0,0.0,0.0885052691043289,0.0,-0.2104167137390128,-0.15358186403234986,-0.25216472541922075,0.1814828606409638,0.7495533928076603,-0.06237368207980314
8881,5.0,299.30942000000005,2061.8678,0.0,0.0,0.0,0.0,0.08851523591391273,0.0,-0.2290842864263588,-0.18537782442286682,-0.21229422564430878,0.16316485923811783,0.7384631576806393,-0.06188372195419785
8882,5.0,299.27718,2159.2986,0.0,0.0,0.0,0.0,0.08852520272349655,0.0,-0.2118043293534598,-0.18558233882305084,-0.25898616827244475,0.17654011519565282,0.7426960302383914,-0.04630966768340836
8883,5.0,299.22983,2088.1831,0.0,0.0,0.0,0.0,0.08853516953308037,0.0,-0.16464336338653482,-0.18985959173518283,-0.28025254508127273,0.17089633240365484,0.7631925598862412,-0.033898904231061365
8884,5.0,299.26632,1872.3509,0.0,0.0,0.0,0.0,0.08854513634266419,0.0,-0.0944966466485929,-0.17926090449667384,-0.2953903698527597,0.18961947172648483,0.7625080891786893,-0.04627604703184025
8885,5.0,299.80753,1944.412,0.0,0.0,0.0,0.0,0.08855510315224802,0.0,-0.17753767005160384,-0.16892702003929885,-0.24458800594145677,0.1795379372065148,0.7683599124812192,-0.02699334540753577
8886,5.0,300.15674,2300.071,0.0,0.0,0.0,0.0,0.08856506996183182,0.0,-0.22403544356307678,-0.18129073828950282,-0.2938379693745497,0.2022955547175168,0.7458376527034454,-0.061183988660389536
8887,5.0,299.37932,2403.6708,0.0,0.0,0.0,0.0,0.08857503677141565,0.0,-0.26727361176785175,-0.2062902223092598,-0.25709205933051077,0.21018799279393977,0.7747547669098422,-0.044952381684204665
8888,5.0,299.88063,2286.458,0.0,0.0,0.0,0.0,0.08858500358099947,0.0,-0.1985339447812748,-0.20501634401853783,-0.2914758503439267,0.2103086810133508,0.7615262599642904,-0.07448071064242383
8889,5.0,299.66397,2039.0529,0.0,0.0,0.0,0.0,0.08859497039058328,0.0,-0.17623392114793385,-0.15981036305955484,-0.2837768822415977,0.19465870897881882,0.7536403168210083,-0.052804922024690046
8890,5.0,300.4329,2137.0706,0.0,0.0,0.0,0.0,0.08860493720016711,0.0,-0.14545985388076987,-0.1917576726175088,-0.3123985732488387,0.15948111757206085,0.7454286340355782,-0.06549334234893964
8891,5.0,300.30069,2139.9116,0.0,0.0,0.0,0.0,0.08861490400975093,0.0,-0.2023765539305108,-0.17434692522170184,-0.27375621365513475,0.15486636118411987,0.7831334535767542,-0.07809831747445382
8892,5.0,300.66196,1928.5787,0.0,0.0,0.0,0.0,0.08862487081933476,0.0,-0.1815820476932528,-0.17063061769743082,-0.2340271129316778,0.15465124818788986,0.7746734738543193,-0.07703453861846703
8893,5.0,300.92002,1857.9822,0.0,0.0,0.0,0.0,0.08863483762891856,0.0,-0.19267796715333482,-0.17038778217846484,-0.2017144355201648,0.16161306670996783,0.7832010474909252,-0.08068580764531921
8894,5.0,300.10201,1923.9113,0.0,0.0,0.0,0.0,0.0886448044385024,0.0,-0.1942044284289848,-0.15455846487623284,-0.23605809169711978,0.1955715662589108,0.7684913816816943,-0.04160873640096256
8895,5.0,299.53418999999997,2183.3936,0.0,0.0,0.0,0.0,0.0886547712480862,0.0,-0.16873496861534484,-0.19329308089154182,-0.3016690855549207,0.18942702513499182,0.7944848437845492,-0.05648230453311945
8896,5.0,299.42817,2379.0764,0.0,0.0,0.0,0.0,0.08866473805767003,0.0,-0.18555810188065883,-0.19235801316925782,-0.3452637252773767,0.20700392528219683,0.7765652827185263,-0.00958541930530723
8897,5.0,298.93714,2306.3025,0.0,0.0,0.0,0.0,0.08867470486725385,0.0,-0.2102355243561308,-0.18596259132057882,-0.3048602559498647,0.1743208644291298,0.7570846477534372,-0.058230365632139645
8898,5.0,299.95992,2226.3053,0.0,0.0,0.0,0.0,0.08868467167683768,0.0,-0.24078878416150276,-0.1773006404557108,-0.25865180587194575,0.21649062119846083,0.7600037604965313,-0.05259458650268154
8899,5.0,299.72798,2211.8798,0.0,0.0,0.0,0.0,0.08869463848642148,0.0,-0.25044359853435877,-0.16134513298602485,-0.2605674869085087,0.17467817694439383,0.7575943226862383,-0.1000423407514103
8900,5.0,299.9533,2208.2454,0.0,0.0,0.0,0.0,0.08870460529600531,0.0,-0.2196667245644178,-0.1902382736950558,-0.26134645332038675,0.2011762882595538,0.7410546360038983,-0.07333026242588343
8901,5.0,300.48296,2064.9895,0.0,0.0,0.0,0.0,0.08871457210558914,0.0,-0.15362049925866283,-0.18374934912714883,-0.2903353866938717,0.14541813837415285,0.7399047085979094,-0.07287995178994124
8902,5.0,300.47388,1960.7799,0.0,0.0,0.0,0.0,0.08872453891517294,0.0,-0.15672630333268184,-0.16560098605604484,-0.2737008395371697,0.18792084912634383,0.7603078267190403,-0.05583612454684645
8903,5.0,300.04386,2024.4786,0.0,0.0,0.0,0.0,0.08873450572475677,0.0,-0.18604480643369284,-0.19019388320817482,-0.23915226365999076,0.16539628927084285,0.8007538728157543,-0.05768364019618204
8904,5.0,300.47686,2027.1184,0.0,0.0,0.0,0.0,0.08874447253434059,0.0,-0.19953010135208782,-0.17222146088443485,-0.24444180408452776,0.18771141033067382,0.7867119590874252,-0.05224702044012945
8905,5.0,300.12892999999997,2197.0833,0.0,0.0,0.0,0.0,0.08875443934392441,0.0,-0.21587394705509982,-0.1980174506753008,-0.25396706429959776,0.18085925586691884,0.7719861218065982,-0.04846468751284225
8906,5.0,299.70518,2532.6445,0.0,0.0,0.0,0.0,0.08876440615350824,0.0,-0.2063800874606288,-0.24966380125739876,-0.3138168092813077,0.2127299839823148,0.7539750338590423,-0.07925262009437463
8907,5.0,299.45529,2392.743,0.0,0.0,0.0,0.0,0.08877437296309205,0.0,-0.17707284156822883,-0.2004768721130268,-0.3497844013935327,0.2174139960145908,0.7650062978302433,-0.03341994800154207
8908,5.0,299.60787999999997,2028.6783,0.0,0.0,0.0,0.0,0.08878433977267589,0.0,-0.14587004791875285,-0.1871621983789708,-0.2836353008051247,0.19201167415257683,0.7394005660106543,-0.06845594986582623
8909,5.0,299.31055,1971.0745,0.0,0.0,0.0,0.0,0.08879430658225969,0.0,-0.18059685448852184,-0.15053378481652788,-0.2680267808321838,0.17604358211664883,0.7536290089498923,-0.024124765473428976
8910,5.0,299.21245,2081.0792,0.0,0.0,0.0,0.0,0.08880427339184352,0.0,-0.23322098128461877,-0.15551651311078485,-0.2438585975919698,0.1856174175415128,0.7694050090318623,-0.07250635229256984
8911,5.0,299.71918999999997,2062.0124,0.0,0.0,0.0,0.0,0.08881424020142735,0.0,-0.22118187796895178,-0.16062281738723785,-0.24499558579418176,0.1845589359570488,0.7897188294216803,-0.06935021907283373
8912,5.0,299.58957000000004,1925.6329999999998,0.0,0.0,0.0,0.0,0.08882420701101115,0.0,-0.19151207092576983,-0.14155536554792686,-0.25227691247029277,0.16001208088946287,0.7601438423228564,-0.06917799999308703
8913,5.0,300.04598,2063.2397,0.0,0.0,0.0,0.0,0.08883417382059498,0.0,-0.15267496466284586,-0.18831415228515982,-0.28618425302168676,0.15042164842796085,0.7429166553151653,-0.05590797411143744
8914,5.0,299.96358,2274.038,0.0,0.0,0.0,0.0,0.0888441406301788,0.0,-0.18630436057930883,-0.2161057381479758,-0.2888406806763557,0.16635434763789586,0.7622393448546663,-0.04721653564215925
8915,5.0,301.01686,2498.6178,0.0,0.0,0.0,0.0,0.08885410743976263,0.0,-0.21893046664425478,-0.2169942571606658,-0.3235926867761117,0.19033559636716083,0.7864768242692192,-0.026440724882496373
8916,5.0,301.42084,2331.7469,0.0,0.0,0.0,0.0,0.08886407424934645,0.0,-0.23573751963048178,-0.20678191205278582,-0.26627340219663875,0.18173076241042982,0.7628188124543552,-0.054202768425396744
8917,5.0,300.30799,2159.8777,0.0,0.0,0.0,0.0,0.08887404105893026,0.0,-0.17350367822347984,-0.17654316507845383,-0.30650203521939573,0.19263950417953882,0.7757196951125733,-0.039389946663235066
8918,5.0,300.19414,2159.6679999999997,0.0,0.0,0.0,0.0,0.0888840078685141,0.0,-0.1777802623905458,-0.1930661837966488,-0.2856387090353457,0.1927746210803738,0.7726432448939513,-0.08395026540674612
8919,5.0,299.9544,2249.3492,0.0,0.0,0.0,0.0,0.0888939746780979,0.0,-0.15193639653245486,-0.1938391821654378,-0.3379704017200817,0.2241609244554608,0.7719109285166773,-0.08408478145027183
8920,5.0,299.18311,1885.7037,0.0,0.0,0.0,0.0,0.08890394148768173,0.0,-0.19129956198229683,-0.13173208821344487,-0.2501751987153698,0.18259858072357682,0.7446491306011473,-0.08441478890184102
8921,5.0,300.6639,1653.9825,0.0,0.0,0.0,0.0,0.08891390829726556,0.0,-0.13698400666176885,-0.14045906946973086,-0.22532630392547479,0.17150560982128585,0.7424245602715993,-0.06302975645330265
8922,5.0,300.10517000000004,1737.1453,0.0,0.0,0.0,0.0,0.08892387510684936,0.0,-0.18998388712494982,-0.14522216567231186,-0.19284273175209582,0.15277207455242986,0.7618547860442133,-0.07184575274412373
8923,5.0,300.04755,2158.6757,0.0,0.0,0.0,0.0,0.08893384191643319,0.0,-0.1957490674114288,-0.17817992875998984,-0.28225450436385074,0.16855814634039382,0.8020641977125733,-0.03492109626319387
8924,5.0,299.73922999999996,2506.6339,0.0,0.0,0.0,0.0,0.08894380872601701,0.0,-0.22342119108745478,-0.24335422195719178,-0.29517870190686973,0.17378811779155182,0.7924817699268613,-0.04877425568339425
8925,5.0,300.37127000000004,2444.794,0.0,0.0,0.0,0.0,0.08895377553560084,0.0,-0.1994279860070098,-0.2078264614483748,-0.3359018719059337,0.17957505255767783,0.7517782569797372,-0.025915845118694773
8926,5.0,299.54558,2297.1199,0.0,0.0,0.0,0.0,0.08896374234518466,0.0,-0.2143000555422688,-0.2071523562893458,-0.2768146685519807,0.20440563791826583,0.7750809827795373,-0.05221875076233946
8927,5.0,299.8336,2195.4832,0.0,0.0,0.0,0.0,0.08897370915476847,0.0,-0.1926811892886528,-0.19338404035301882,-0.28130683181032273,0.2144760672171398,0.7580914333177993,-0.03271686591615327
8928,5.0,299.62815,2121.0811,0.0,0.0,0.0,0.0,0.0889836759643523,0.0,-0.2084062532880958,-0.16953933720722983,-0.26681009037710574,0.2124457470642628,0.7787613097927573,-0.06112466894653514
8929,5.0,299.99335,1921.4661,0.0,0.0,0.0,0.0,0.08899364277393611,0.0,-0.16177041431799685,-0.13678902694502587,-0.28551828426096076,0.16853984704358785,0.7589874301162273,-0.03946766294590506
8930,5.0,299.37799,1647.3152,0.0,0.0,0.0,0.0,0.08900360958351994,0.0,-0.12357326668573189,-0.12580960084894088,-0.2513598198047828,0.17855556083706184,0.7839059047904893,-0.0972612103804341
8931,5.0,300.22891,1762.3071,0.0,0.0,0.0,0.0,0.08901357639310377,0.0,-0.13285198288646988,-0.15027774664875887,-0.25256762405648375,0.14248464761213986,0.7822213663667382,-0.08247503912240263
8932,5.0,300.82363,2167.9249,0.0,0.0,0.0,0.0,0.08902354320268757,0.0,-0.2231410679648088,-0.19172488384427283,-0.2441290847061648,0.15286606363170585,0.7693002288390213,-0.09416423982078691
8933,5.0,300.76622000000003,2445.9187,0.0,0.0,0.0,0.0,0.0890335100122714,0.0,-0.24699766666677178,-0.2145841911353108,-0.28191636254047875,0.15948798740773884,0.7239024092386053,-0.056313852717244546
8934,5.0,300.6093,2429.558,0.0,0.0,0.0,0.0,0.08904347682185522,0.0,-0.25134203726552773,-0.23787686549411877,-0.24930605304459175,0.16344407043567383,0.7734166586952812,-0.07215680532607223
8935,5.0,300.45454,2261.3081,0.0,0.0,0.0,0.0,0.08905344363143905,0.0,-0.15414638619306384,-0.22612640673443882,-0.3071084147417407,0.2023986833126948,0.7686996147097452,-0.05356861673106085
8936,5.0,299.03208,2184.6339,0.0,0.0,0.0,0.0,0.08906341044102287,0.0,-0.14954140766858787,-0.20532135256363981,-0.30921138492678774,0.2037203160806298,0.7836855735562442,-0.04212055131797476
8937,5.0,300.07812,2237.1463,0.0,0.0,0.0,0.0,0.08907337725060668,0.0,-0.15784484025057285,-0.19373028817719082,-0.3284614649641227,0.2024550200182548,0.7711045942195982,-0.03992030507032736
8938,5.0,299.44263,1999.6621,0.0,0.0,0.0,0.0,0.08908334406019051,0.0,-0.1993036703522408,-0.16005073638077785,-0.24849294010434378,0.20172791174649482,0.7812564685615102,-0.061523443655891144
8939,5.0,298.92601,1855.7025,0.0,0.0,0.0,0.0,0.08909331086977432,0.0,-0.17251900177629984,-0.15511372593103284,-0.2364544954012418,0.18218181069244482,0.7748526570020032,-0.07080620069802794
8940,5.0,298.84576,1948.8409,0.0,0.0,0.0,0.0,0.08910327767935815,0.0,-0.19172050660384082,-0.16338428867977384,-0.23729417575911177,0.16080857652807085,0.7759872944639833,-0.07405810023771543
8941,5.0,300.17222000000004,2214.0723,0.0,0.0,0.0,0.0,0.08911324448894198,0.0,-0.17638422666776785,-0.17636079019295484,-0.3202776769539457,0.16796358131421482,0.7481037966845964,-0.06566589681446944
8942,5.0,300.20597000000004,2400.8705,0.0,0.0,0.0,0.0,0.08912321129852578,0.0,-0.22756710652162476,-0.19958262823727183,-0.3026549576372187,0.16058915721891584,0.7608500168475503,-0.08275169895620682
8943,5.0,300.52769,2337.8502,0.0,0.0,0.0,0.0,0.08913317810810961,0.0,-0.21673774276534977,-0.2027856029958808,-0.2911247287867737,0.18573380958049981,0.7627548054455383,-0.036656030707168566
8944,5.0,301.18453,2120.8918,0.0,0.0,0.0,0.0,0.08914314491769343,0.0,-0.22264417011576879,-0.1990407522162928,-0.2230132363321928,0.17788771756365082,0.7899649174734673,-0.07433470535601423
8945,5.0,299.97389,2308.0983,0.0,0.0,0.0,0.0,0.08915311172727726,0.0,-0.22914482811983378,-0.1891506003752108,-0.28330881135790276,0.1980734226108248,0.7541626573800593,-0.0022164014059167883
8946,5.0,299.72022999999996,2526.5628,0.0,0.0,0.0,0.0,0.08916307853686108,0.0,-0.26888284544417074,-0.2119298507758478,-0.2871992965743637,0.19440361313364282,0.7656260015914033,-0.042510966714005755
8947,5.0,300.01003,2217.6042,0.0,0.0,0.0,0.0,0.08917304534644489,0.0,-0.13536240120172888,-0.21160419219370782,-0.3271296996951877,0.2222759144994248,0.7450980713229544,-0.015572462454882382
8948,5.0,299.96218999999996,1797.3595,0.0,0.0,0.0,0.0,0.08918301215602872,0.0,-0.1280722187197439,-0.15432965273865085,-0.26395053647488975,0.19845033138302282,0.7678748088633433,-0.062264763773553736
8949,5.0,299.49624,1991.5445,0.0,0.0,0.0,0.0,0.08919297896561253,0.0,-0.15258921330688285,-0.17670775742469785,-0.27608281826975273,0.2065894553287918,0.7534469380394233,-0.057661946511541044
8950,5.0,299.8355,2188.1368,0.0,0.0,0.0,0.0,0.08920294577519636,0.0,-0.25329222960049674,-0.18395533273997783,-0.22789139721612978,0.14901483172411886,0.7886360804973213,-0.1156520928364729
8951,5.0,300.93682,2063.8681,0.0,0.0,0.0,0.0,0.08921291258478019,0.0,-0.1933525586724118,-0.18593218368507783,-0.24807963538855377,0.18674407059270484,0.7735575004591813,-0.1055650259709569
8952,5.0,300.25278,1955.8001,0.0,0.0,0.0,0.0,0.08922287939436399,0.0,-0.2005226912825488,-0.1846175930053378,-0.2093741097836158,0.16882809643203583,0.7870271710610343,-0.07769874736376933
8953,5.0,299.93077,1919.5363,0.0,0.0,0.0,0.0,0.08923284620394782,0.0,-0.11766637324026688,-0.17085342126191982,-0.29497132000890275,0.18877772433841083,0.7429447223429353,-0.06776790745167173
8954,5.0,299.5824,2230.4536,0.0,0.0,0.0,0.0,0.08924281301353164,0.0,-0.1982893158096318,-0.2000527965486738,-0.27966007748280075,0.16223527319887485,0.7415426577820623,-0.038736033552198866
8955,5.0,299.32251,2521.8205,0.0,0.0,0.0,0.0,0.08925277982311547,0.0,-0.20427265897514182,-0.2209256168861608,-0.3413721862808117,0.1928434612921678,0.7335852501092274,-0.03393288863941536
8956,5.0,298.82837,2234.0953,0.0,0.0,0.0,0.0,0.08926274663269929,0.0,-0.22804763024904878,-0.16160338003901184,-0.28945817555229775,0.18506182211417982,0.7778953659922953,-0.01076826680174519
8957,5.0,299.73891000000003,1959.4820000000002,0.0,0.0,0.0,0.0,0.0892727134422831,0.0,-0.16476166033570985,-0.18253398602970183,-0.24833794323654676,0.1955919832484258,0.7728761809594402,-0.05905137989666744
8958,5.0,299.26595,2234.2632,0.0,0.0,0.0,0.0,0.08928268025186693,0.0,-0.2167765097141758,-0.17954267921698283,-0.28284103431673674,0.18267520269613882,0.7943273745865083,-0.03598148073134567
8959,5.0,299.89768,2309.6425,0.0,0.0,0.0,0.0,0.08929264706145074,0.0,-0.18006179764071584,-0.1951516348874668,-0.3268602258310927,0.20984439968502977,0.7789637976927413,-0.08049374102261372
8960,5.0,300.85807,2012.6753,0.0,0.0,0.0,0.0,0.08930261387103457,0.0,-0.17672291564619383,-0.15861720027179885,-0.27646290864726475,0.2101881853114588,0.7910443328049972,-0.05961987602427365
8961,5.0,299.92902000000004,1782.1152,0.0,0.0,0.0,0.0,0.0893125806806184,0.0,-0.14904632353722685,-0.14793484897253287,-0.24473734887369578,0.1901255394889298,0.7502892352952822,-0.08083779921331963
8962,5.0,299.39659,2169.6197,0.0,0.0,0.0,0.0,0.0893225474902022,0.0,-0.22827629039911576,-0.18183953480866483,-0.24939438818830978,0.17746555704198683,0.7728839323227052,-0.06488397880505013
8963,5.0,300.42332000000005,2354.7218,0.0,0.0,0.0,0.0,0.08933251429978603,0.0,-0.23353453152806378,-0.1847691144252918,-0.2974729737107967,0.15835150583057686,0.7745496749571013,-0.058868866195904736
8964,5.0,299.95362,2466.1162,0.0,0.0,0.0,0.0,0.08934248110936985,0.0,-0.2339177629808858,-0.20217547444816583,-0.31354451858193466,0.17433841392086183,0.7938799537398512,-0.03616855608405857
8965,5.0,299.78562999999997,2405.8693,0.0,0.0,0.0,0.0,0.08935244791895368,0.0,-0.18326768042711183,-0.21546486759222677,-0.3325916547567407,0.16178131688907285,0.7457740813921713,-0.04788200892358636
8966,5.0,299.49177000000003,2093.0229,0.0,0.0,0.0,0.0,0.0893624147285375,0.0,-0.18525228273547684,-0.16519636489361184,-0.28577804105659677,0.18620434266193783,0.7735943219678153,-0.031197594663212865
8967,5.0,299.38716,2043.2902,0.0,0.0,0.0,0.0,0.08937238153812131,0.0,-0.13105509529163087,-0.2114892592348648,-0.27856485544971077,0.17964805722738283,0.7540737345512832,-0.07889069729115564
8968,5.0,298.96477999999996,2287.9536,0.0,0.0,0.0,0.0,0.08938234834770514,0.0,-0.2207056706869538,-0.2013758782642518,-0.27339922537990274,0.2046694679793038,0.7900153064009403,-0.043138372189175864
8969,5.0,299.78639,2089.0428,0.0,0.0,0.0,0.0,0.08939231515728895,0.0,-0.16832083303447284,-0.19633414841667182,-0.27036185621763775,0.17973785145124482,0.7851152491823422,-0.08335808455805242
8970,5.0,299.98971,1689.7445,0.0,0.0,0.0,0.0,0.08940228196687278,0.0,-0.14527339559736785,-0.15212967398902982,-0.21623708575843878,0.19483065752078882,0.7946518983285362,-0.07412446406626504
8971,5.0,300.49946,1847.1006,0.0,0.0,0.0,0.0,0.08941224877645661,0.0,-0.13120444835637088,-0.16331861994079286,-0.26694938186835276,0.1977800461768708,0.7656278153090823,-0.0914597000116196
8972,5.0,299.92405,2255.7349,0.0,0.0,0.0,0.0,0.08942221558604041,0.0,-0.23107956839077778,-0.17403167271808884,-0.28057583265817876,0.18579331775887284,0.7629455497768632,-0.04510484846650196
8973,5.0,300.29598,2480.7893,0.0,0.0,0.0,0.0,0.08943218239562424,0.0,-0.2185710364362818,-0.22536641849693378,-0.31016053682546174,0.16835050099740084,0.7408302619017543,-0.07595256483043453
8974,5.0,300.19802999999996,2560.4346,0.0,0.0,0.0,0.0,0.08944214920520806,0.0,-0.2777331493701277,-0.2030073426477648,-0.29756769233014474,0.18038159963727782,0.7664966063423253,-0.04354310379586975
8975,5.0,299.96688,2395.6728,0.0,0.0,0.0,0.0,0.08945211601479189,0.0,-0.2069270702621118,-0.21255361766990877,-0.30874401318566175,0.18040592777217884,0.7742318082682302,-0.05909514824798704
8976,5.0,300.38806,2061.4812,0.0,0.0,0.0,0.0,0.0894620828243757,0.0,-0.19644938535054482,-0.16347456926368384,-0.26671487526520876,0.18202887072235083,0.7881607446104093,-0.04010352297990956
8977,5.0,300.47923,2084.1551,0.0,0.0,0.0,0.0,0.08947204963395952,0.0,-0.14284675280037687,-0.18572331230946382,-0.3049610439373117,0.1933578883679378,0.7800061483356132,-0.04806928895281946
8978,5.0,299.11163999999997,2120.6976,0.0,0.0,0.0,0.0,0.08948201644354335,0.0,-0.21362491686813778,-0.14994755883867183,-0.28106665100661876,0.19122992130292382,0.8051662932912262,-0.04679553529185976
8979,5.0,300.0069,1903.8041,0.0,0.0,0.0,0.0,0.08949198325312716,0.0,-0.12948401048157687,-0.17578433194606283,-0.27344055585148175,0.2098411370197078,0.7753076468269073,-0.06344248159003545
8980,5.0,299.83224,1810.7742,0.0,0.0,0.0,0.0,0.08950195006271099,0.0,-0.1963186254251398,-0.13946085600121486,-0.21465064007686882,0.18238468362746682,0.7848238080560793,-0.06341123498345164
8981,5.0,299.60938,2254.1467,0.0,0.0,0.0,0.0,0.08951191687229482,0.0,-0.1786034673017898,-0.21544398450766578,-0.2911568589474447,0.18245244979415484,0.7594199561864142,-0.09646034155439451
8982,5.0,300.78604,2545.1042,0.0,0.0,0.0,0.0,0.08952188368187862,0.0,-0.26346190674666575,-0.2067135683335408,-0.30347263020291676,0.17781130837360984,0.7687648680161853,-0.06534240557429334
8983,5.0,299.98047,2186.2055,0.0,0.0,0.0,0.0,0.08953185049146245,0.0,-0.17220094256990984,-0.18353077081557684,-0.3088201589306767,0.19003627215511984,0.7708986612692742,-0.1054124305058969
8984,5.0,299.14479,2028.7048,0.0,0.0,0.0,0.0,0.08954181730104627,0.0,-0.20115840439528881,-0.15094398898701186,-0.26457320905884274,0.18774113908860782,0.7703363277287762,-0.04156975970936586
8985,5.0,300.75458,2039.4504,0.0,0.0,0.0,0.0,0.0895517841106301,0.0,-0.15492895977529786,-0.19792087780826984,-0.26709214880744275,0.1997325588545688,0.7730426072883653,-0.08546774422025961
8986,5.0,300.44926,1970.2143,0.0,0.0,0.0,0.0,0.08956175092021391,0.0,-0.21040378466773682,-0.16828423444086082,-0.22020794197283178,0.16690219170196385,0.7803942737864182,-0.02813164779512747
8987,5.0,301.18941,2050.1753,0.0,0.0,0.0,0.0,0.08957171772979773,0.0,-0.15609361983774087,-0.17692156332829884,-0.29018690502421773,0.18418737714537883,0.7852489374005363,-0.08392119627462721
8988,5.0,300.2102,1930.345,0.0,0.0,0.0,0.0,0.08958168453938156,0.0,-0.18078859180494483,-0.13475762261454186,-0.27123044460086077,0.15338116958504286,0.7706191967591932,-0.026682442786602076
8989,5.0,299.53154,1849.3429,0.0,0.0,0.0,0.0,0.08959165134896536,0.0,-0.1123290580735149,-0.17085663326473685,-0.27896836203703373,0.18019923488427983,0.7721535309881202,-0.09233485526874072
8990,5.0,299.92012,2449.6955,0.0,0.0,0.0,0.0,0.0896016181585492,0.0,-0.24714301739361677,-0.2005859180887888,-0.2969173377534597,0.18935711087809182,0.7767584892475943,-0.04143040640986276
8991,5.0,299.16609,2662.3496,0.0,0.0,0.0,0.0,0.08961158496813301,0.0,-0.2585486671442668,-0.22383901489869076,-0.3269001276200307,0.19034041943763683,0.7769366287476753,-0.06589354675418674
8992,5.0,298.84852,2366.9264,0.0,0.0,0.0,0.0,0.08962155177771683,0.0,-0.24953731724741574,-0.1974227235291058,-0.2725264928037708,0.20775855342667282,0.7539318491397803,-0.013272308734124886
8993,5.0,298.6267,2039.4523,0.0,0.0,0.0,0.0,0.08963151858730066,0.0,-0.15356054525024584,-0.1896835800603118,-0.27669844876551075,0.2031662810584508,0.7647115636411553,-0.07429652507899613
8994,5.0,298.54579,2164.5591,0.0,0.0,0.0,0.0,0.08964148539688448,0.0,-0.20861588460128477,-0.16364370097037587,-0.28571232165511073,0.2070796961246748,0.7800072021157173,-0.012615663900819089
8995,5.0,300.78495,2308.4591,0.0,0.0,0.0,0.0,0.08965145220646831,0.0,-0.1982545410661998,-0.20505102756946078,-0.2984083656731127,0.17388637265374884,0.7632813104625003,-0.07315914778874573
8996,5.0,301.2838,2072.4486,0.0,0.0,0.0,0.0,0.08966141901605211,0.0,-0.20123458053780682,-0.15294151023415184,-0.2757965345864987,0.17711307772969984,0.7653258870442843,-0.02973680313979397
8997,5.0,299.39585,1985.5379,0.0,0.0,0.0,0.0,0.08967138582563594,0.0,-0.16913015641934684,-0.1851019468181398,-0.24932183948114975,0.15725124794448983,0.7536000299970324,-0.1010357291229501
8998,5.0,300.19934,2158.2663,0.0,0.0,0.0,0.0,0.08968135263521976,0.0,-0.20248076670329582,-0.18519448694977284,-0.26838380963741976,0.18608800128545583,0.7601347636019603,-0.05375360884156816
8999,5.0,299.8791,2260.6791,0.0,0.0,0.0,0.0,0.08969131944480357,0.0,-0.16958598724183382,-0.21790438879798876,-0.2996996313355507,0.17024229972910682,0.7792556643840463,-0.09889265044594471
9000,5.0,299.36322,2509.637,0.0,0.0,0.0,0.0,0.08970128625438739,0.0,-0.22891501286465277,-0.2238647818487338,-0.3100871977832237,0.2027758859274218,0.7796317929536672,-0.03538197104467867
9001,5.0,299.36133,2225.285,0.0,0.0,0.0,0.0,0.08971125306397122,0.0,-0.16207478451553584,-0.2097375119319808,-0.3046187781860327,0.1982218232204708,0.7849262273761872,-0.08238649626241412
9002,5.0,299.42739,1836.1754,0.0,0.0,0.0,0.0,0.08972121987355502,0.0,-0.17019992560992483,-0.17685015959375183,-0.21110139722908583,0.23931932833647876,0.7812695496203013,-0.04082976188308376
9003,5.0,299.63759,2044.0727,0.0,0.0,0.0,0.0,0.08973118668313886,0.0,-0.1970599293308008,-0.17621797259135982,-0.24806915838251975,0.17797913298767282,0.7671473459540483,-0.06995906180617183
9004,5.0,300.438,2271.8914,0.0,0.0,0.0,0.0,0.08974115349272269,0.0,-0.25790469604321176,-0.16134673392118284,-0.27134682650734676,0.17236794645139183,0.7394012955507263,-0.03230157016391677
9005,5.0,299.82788999999997,2103.0686,0.0,0.0,0.0,0.0,0.08975112030230649,0.0,-0.15472550928771886,-0.17612564524224783,-0.3084291963795917,0.14153029774045287,0.7403048714599023,-0.06099255734549674
9006,5.0,300.29426,2106.1389,0.0,0.0,0.0,0.0,0.08976108711189032,0.0,-0.1978611669798768,-0.16171282118231284,-0.28063964714947676,0.1826207202382618,0.7721563984859032,-0.06196269568024194
9007,5.0,299.43127000000004,2302.4495,0.0,0.0,0.0,0.0,0.08977105392147414,0.0,-0.19261345351946782,-0.1922113452172828,-0.3150623469667327,0.16099227877120087,0.7843000996093933,-0.06039375288089934
9008,5.0,300.26398,2345.6187,0.0,0.0,0.0,0.0,0.08978102073105797,0.0,-0.25896674426802774,-0.18496712375983382,-0.2690756568056998,0.2054452933158718,0.7857229256648153,-0.06129164344376424
9009,5.0,299.75805,2138.2670000000003,0.0,0.0,0.0,0.0,0.08979098754064177,0.0,-0.17718929440222184,-0.1928027083731458,-0.27998777269764175,0.17519524860292485,0.8044477773803143,-0.05862403457424174
9010,5.0,300.62882,2007.392,0.0,0.0,0.0,0.0,0.0898009543502256,0.0,-0.1963498943232258,-0.17616567875369882,-0.23768146021233377,0.2078038355736418,0.7849056685316582,-0.04721493977325175
9011,5.0,300.55475,2079.7005,0.0,0.0,0.0,0.0,0.08981092115980943,0.0,-0.1369297876489179,-0.18136167592900382,-0.31388556843309373,0.1892556744105808,0.7817718784898773,-0.03905041871372626
9012,5.0,301.4987,2240.616,0.0,0.0,0.0,0.0,0.08982088796939323,0.0,-0.2231903017871678,-0.16560786602422384,-0.2922931581395887,0.16885818996000584,0.7546156511022662,-0.0018378029378520282
9013,5.0,299.91252000000003,2398.3725,0.0,0.0,0.0,0.0,0.08983085477897707,0.0,-0.20594848344803282,-0.1995098262175868,-0.3235870429730547,0.16131905192845084,0.7502409539280173,-0.04610600745305866
9014,5.0,299.67154,2453.5884,0.0,0.0,0.0,0.0,0.08984082158856088,0.0,-0.26576692913415373,-0.1961509933285958,-0.2839116951674027,0.16429688251483984,0.7571854154758824,-0.03766907815714857
9015,5.0,298.78491,2295.7395,0.0,0.0,0.0,0.0,0.0898507883981447,0.0,-0.2002551527261448,-0.2025236677125298,-0.2950686528135087,0.19743616935793282,0.7930480247452463,-0.07877089059933164
9016,5.0,299.28378,2260.0292,0.0,0.0,0.0,0.0,0.08986075520772853,0.0,-0.22999974775920776,-0.1906865558042978,-0.2663061504398707,0.1936949764112058,0.7596716171137513,-0.07416184792870452
9017,5.0,299.28307,2110.9987,0.0,0.0,0.0,0.0,0.08987072201731235,0.0,-0.14423789452517186,-0.1858253364620328,-0.31162766217525567,0.18823172438952482,0.7820897249137463,-0.08210283183066862
9018,5.0,300.11413999999996,1717.7017,0.0,0.0,0.0,0.0,0.08988068882689618,0.0,-0.12615552443308087,-0.16862095771409286,-0.22736192337637476,0.1882066261845478,0.7806542230995733,-0.09007202562866681
9019,5.0,299.55831,1681.9812,0.0,0.0,0.0,0.0,0.08989065563647998,0.0,-0.12195933152894889,-0.15936199989030486,-0.22995894417768076,0.19660583116598482,0.7915371776536373,-0.06950326543418822
9020,5.0,299.62338,2019.0595,0.0,0.0,0.0,0.0,0.08990062244606381,0.0,-0.23034340166312375,-0.15742453397659187,-0.2259757465770698,0.17798740110848882,0.7679144472072552,-0.059834629316718145
9021,5.0,300.05093999999997,2215.1662,0.0,0.0,0.0,0.0,0.08991058925564764,0.0,-0.1994251083767258,-0.2024768758229118,-0.27145323803284876,0.16368840556478786,0.7864306403296613,-0.06059157172442254
9022,5.0,300.57227,2290.8334,0.0,0.0,0.0,0.0,0.08992055606523144,0.0,-0.2071872627552908,-0.22011940417909379,-0.2690494744231157,0.1827945534254178,0.7884397835554482,-0.07754118292021893
9023,5.0,300.81615,2446.3492,0.0,0.0,0.0,0.0,0.08993052287481527,0.0,-0.1933565407453048,-0.21530017392097278,-0.3349723466616967,0.1831920514396478,0.7871576776739142,-0.05188438228233985
9024,5.0,300.31936,2339.9345,0.0,0.0,0.0,0.0,0.08994048968439909,0.0,-0.1961629294147738,-0.20337640886418878,-0.31174233168907267,0.19925211618715283,0.7590263997150734,-0.04366469988737036
9025,5.0,300.37629,2187.615,0.0,0.0,0.0,0.0,0.08995045649398291,0.0,-0.19341210738078882,-0.16645304833013683,-0.3051151694100227,0.2045438553644068,0.7604936466548793,-0.048741404088652046
9026,5.0,299.51907,2199.5469,0.0,0.0,0.0,0.0,0.08996042330356674,0.0,-0.2293987384623928,-0.1926730123603458,-0.24653558409116774,0.19168691736302582,0.7614035452446793,-0.05802144866027115
9027,5.0,299.64392999999995,2028.5688,0.0,0.0,0.0,0.0,0.08997039011315056,0.0,-0.18377165076184981,-0.16026235366416286,-0.2726002675435517,0.19246951121026182,0.7714202216257482,-0.07189334307482054
9028,5.0,298.86444,1938.463,0.0,0.0,0.0,0.0,0.08998035692273439,0.0,-0.18179475928674582,-0.16879776985654282,-0.23865180930309976,0.1884583985693958,0.7810603438721543,-0.08262356740156121
9029,5.0,299.32559,2255.3282,0.0,0.0,0.0,0.0,0.08999032373231819,0.0,-0.16440787393079384,-0.1853064004233178,-0.3358491829007337,0.17679460309076883,0.7843491510467342,-0.06965431366634553
9030,5.0,299.10763,2456.4701,0.0,0.0,0.0,0.0,0.09000029054190202,0.0,-0.2132416246203098,-0.2290575366237188,-0.3044064009650727,0.19234466866544084,0.7817650998467083,-0.06012575126919965
9031,5.0,299.81591000000003,2312.6735,0.0,0.0,0.0,0.0,0.09001025735148585,0.0,-0.19916114659317483,-0.2128221593439118,-0.2910116906056177,0.18971174841309182,0.7713486152411813,-0.02921766039805857
9032,5.0,300.5963,2175.3235,0.0,0.0,0.0,0.0,0.09002022416106965,0.0,-0.24730201659930875,-0.18015815772522584,-0.2337838518476698,0.21910590076656877,0.7862511937369513,-0.05083242298876955
9033,5.0,300.76772,2281.3915,0.0,0.0,0.0,0.0,0.09003019097065348,0.0,-0.19381718450576682,-0.2043761118103518,-0.2952927533381257,0.17250611323502785,0.7937124432333191,-0.04247582314753736
9034,5.0,300.6355,2221.6515,0.0,0.0,0.0,0.0,0.0900401577802373,0.0,-0.18827839468913082,-0.20961882994776782,-0.27742934659264473,0.1960365872598048,0.8066347156011482,-0.08827785759709622
9035,5.0,300.38362,2269.3761,0.0,0.0,0.0,0.0,0.09005012458982112,0.0,-0.15997432719073684,-0.18998960185551383,-0.33986972890003064,0.14525089131264685,0.7800274975152203,-0.06608581906666253
9036,5.0,299.9339,2130.5316,0.0,0.0,0.0,0.0,0.09006009139940495,0.0,-0.21651654013601881,-0.15379487960087285,-0.27731700755405775,0.18248379975224882,0.7798726323699362,-0.07717067180915234
9037,5.0,299.49721,1849.432,0.0,0.0,0.0,0.0,0.09007005820898877,0.0,-0.17005850629346783,-0.14387913306226485,-0.24824352859222878,0.18282317774074283,0.7372231624732614,-0.03624546075339847
9038,5.0,299.38763,1948.0995,0.0,0.0,0.0,0.0,0.0900800250185726,0.0,-0.2130030548842648,-0.16113976745575687,-0.2180307917479638,0.19878785512383382,0.7505431659028432,-0.08414195408716432
9039,5.0,298.6054,2430.9434,0.0,0.0,0.0,0.0,0.0900899918281564,0.0,-0.1985640687067478,-0.2196907487242888,-0.3206912653797637,0.18668980091734882,0.7729873750254143,-0.04391822620814145
9040,5.0,300.32248,2481.11,0.0,0.0,0.0,0.0,0.09009995863774023,0.0,-0.2284554836793008,-0.2329278885606928,-0.29281210431080473,0.19665358564319782,0.7870359964694053,-0.052430638583501145
9041,5.0,300.79287,2171.8666,0.0,0.0,0.0,0.0,0.09010992544732406,0.0,-0.14325294450046486,-0.19389848769379084,-0.32304178269674166,0.18659939874342682,0.8026643660118052,-0.03614128344436696
9042,5.0,300.68676,2172.3179,0.0,0.0,0.0,0.0,0.09011989225690786,0.0,-0.1934182882063988,-0.21459840703421382,-0.25231372384642575,0.17613914173357983,0.7855866739238683,-0.05147555815849205
9043,5.0,300.77393,2362.1293,0.0,0.0,0.0,0.0,0.0901298590664917,0.0,-0.2156445067024558,-0.1880458639236818,-0.3143379542052407,0.20296551568363683,0.7733325386719793,-0.02183236007618618
9044,5.0,301.0975,2318.2339,0.0,0.0,0.0,0.0,0.09013982587607551,0.0,-0.23269178102239074,-0.2135101865593148,-0.25848326185031173,0.16995113218037083,0.7744450264867733,-0.07494886663912723
9045,5.0,300.92547,2172.6043,0.0,0.0,0.0,0.0,0.09014979268565933,0.0,-0.17780555311304183,-0.1785730697987898,-0.3040388343587967,0.1968089979435358,0.7618655163627722,-0.05758529110172575
9046,5.0,299.94527999999997,2203.9686,0.0,0.0,0.0,0.0,0.09015975949524316,0.0,-0.18061541723035382,-0.2012967130339388,-0.2880392809072637,0.16282048592663084,0.7715814905116642,-0.1107949366271089
9047,5.0,298.98454,2133.502,0.0,0.0,0.0,0.0,0.09016972630482697,0.0,-0.1358778111300959,-0.19334799904696182,-0.3193055242780017,0.18538743003381483,0.7724751061723573,-0.07728892316207282
9048,5.0,299.61452,2084.324,0.0,0.0,0.0,0.0,0.0901796931144108,0.0,-0.22016764501635477,-0.15915101082198185,-0.25426379459138276,0.18143470086371083,0.7888980157806722,-0.06869170074009304
9049,5.0,299.74088,2263.7634,0.0,0.0,0.0,0.0,0.09018965992399461,0.0,-0.2237282261327568,-0.2163429602613878,-0.24805636103375678,0.19360449317727582,0.7832807294787892,-0.03747514310125867
9050,5.0,300.38961,2031.9338,0.0,0.0,0.0,0.0,0.09019962673357844,0.0,-0.2072759626690448,-0.17662470131400085,-0.2337564636974668,0.1978799121067268,0.7917834886204462,-0.05711014570583254
9051,5.0,300.42327,2232.1604,0.0,0.0,0.0,0.0,0.09020959354316227,0.0,-0.16983213608862682,-0.23191082864031679,-0.2767780496933667,0.19221986665062382,0.7809411552628913,-0.048593858662090456
9052,5.0,299.90563,2481.9319,0.0,0.0,0.0,0.0,0.09021956035274607,0.0,-0.21394062533429578,-0.22218872432831982,-0.31831596396533973,0.19416857964044681,0.7850408563600003,-0.05699980074344235
9053,5.0,300.52904,2484.4394,0.0,0.0,0.0,0.0,0.0902295271623299,0.0,-0.19325209492499681,-0.2128348452351638,-0.34912060098802067,0.20397059898783082,0.7508831315763953,-0.049175137952958255
9054,5.0,300.71876000000003,2102.5268,0.0,0.0,0.0,0.0,0.09023949397191372,0.0,-0.2028837261355648,-0.17662626171915483,-0.25960565925108375,0.17258790278309982,0.7586133989743133,-0.06146217039584394
9055,5.0,299.79828,1967.3608,0.0,0.0,0.0,0.0,0.09024946078149754,0.0,-0.1971892605735648,-0.14625056386130686,-0.25458874389845276,0.17437572178954383,0.7810895153425332,-0.04394191092922896
9056,5.0,300.38645,2122.6877,0.0,0.0,0.0,0.0,0.09025942759108137,0.0,-0.21951741202968178,-0.15875853852824787,-0.26696809659769977,0.15045582535383384,0.7744882922660433,-0.048343252528107554
9057,5.0,300.2616,2013.5551,0.0,0.0,0.0,0.0,0.09026939440066518,0.0,-0.18398719945562284,-0.15998319312911186,-0.2681000894769187,0.17694134197025083,0.8007867223839963,-0.06287143916492793
9058,5.0,299.58214,1996.4111,0.0,0.0,0.0,0.0,0.09027936121024902,0.0,-0.16049269580939585,-0.16906589609800485,-0.2773005321074317,0.16771181906186783,0.7960521593042312,-0.07793091639893263
9059,5.0,299.96092999999996,2110.0741,0.0,0.0,0.0,0.0,0.09028932801983282,0.0,-0.17941607361698783,-0.18113843666697182,-0.28085532756576276,0.1887160883348278,0.8035636862705612,-0.06936782024032084
9060,5.0,299.74599,2255.8686,0.0,0.0,0.0,0.0,0.09029929482941665,0.0,-0.23906890357426375,-0.20561061520218782,-0.24104820658460577,0.1973740773918048,0.7850910223724513,-0.06040066425983145
9061,5.0,299.78897,2319.0194,0.0,0.0,0.0,0.0,0.09030926163900048,0.0,-0.23763815390305978,-0.19353634197554984,-0.2737494856744707,0.21125484382422977,0.7752561129268213,-0.04868126769521705
9062,5.0,299.10173,2437.699,0.0,0.0,0.0,0.0,0.09031922844858428,0.0,-0.23687550081779177,-0.2272720987550098,-0.27685200681816574,0.21476497521815283,0.7655408683180013,-0.04143327897389626
9063,5.0,298.63319,2243.2504,0.0,0.0,0.0,0.0,0.09032919525816811,0.0,-0.16767121813036084,-0.1899732378663988,-0.3242476617732527,0.18454932021359982,0.7720513447155353,-0.049815556599162654
9064,5.0,300.51268,2235.2443,0.0,0.0,0.0,0.0,0.09033916206775193,0.0,-0.16019188211970786,-0.1871231882501208,-0.3321434030450017,0.18151216383385582,0.7845952087010182,-0.06129423736402024
9065,5.0,300.22193,2182.4865,0.0,0.0,0.0,0.0,0.09034912887733576,0.0,-0.15723576548296184,-0.2003927216922218,-0.30579291213691073,0.1807040158190978,0.7401842339029963,-0.07893667250119303
9066,5.0,300.71222,1950.0845,0.0,0.0,0.0,0.0,0.09035909568691958,0.0,-0.2086877139008738,-0.13656934419084488,-0.2475199464308168,0.19022436177118282,0.7818404147266412,-0.058534515954406945
9067,5.0,299.14358,1927.2319,0.0,0.0,0.0,0.0,0.0903690624965034,0.0,-0.18747893022772982,-0.16880095146185684,-0.22955048279736878,0.15714902114190085,0.7578128300703032,-0.07830432236553492
9068,5.0,299.26294,2163.2168,0.0,0.0,0.0,0.0,0.09037902930608722,0.0,-0.21684149957558976,-0.16925445180911383,-0.2714679605568017,0.17477155807360983,0.7819263991301273,-0.05903631894718104
9069,5.0,299.78546,2478.6081,0.0,0.0,0.0,0.0,0.09038899611567103,0.0,-0.19657133000007979,-0.22410862048529878,-0.3327550109378627,0.17082296296391383,0.7854589132187593,-0.06143159861382674
9070,5.0,300.29578,2408.9087,0.0,0.0,0.0,0.0,0.09039896292525486,0.0,-0.2073154794229448,-0.2124464360743308,-0.3124861687199837,0.1997656212053318,0.7950275202731073,-0.07300845723387372
9071,5.0,299.15802,2321.0151,0.0,0.0,0.0,0.0,0.09040892973483869,0.0,-0.2130518428765798,-0.17993681324088082,-0.3125419886679927,0.19508954292133882,0.7820728745645833,-0.048465106998383654
9072,5.0,300.27611,2362.4706,0.0,0.0,0.0,0.0,0.09041889654442249,0.0,-0.24969955885342776,-0.18785706503254881,-0.2805754577556417,0.1966309496359638,0.7918344753654782,-0.03479826907282176
9073,5.0,300.45047999999997,2110.5185,0.0,0.0,0.0,0.0,0.09042886335400632,0.0,-0.19779649122599383,-0.16483439142788783,-0.2789140315666717,0.20134753765895483,0.7745270186848653,-0.02096421853625728
9074,5.0,300.23396,2040.9458,0.0,0.0,0.0,0.0,0.09043883016359014,0.0,-0.16880694990244882,-0.17455924164765582,-0.27703035910076773,0.1945213021327578,0.7837263264752663,-0.04950365187388005
9075,5.0,299.4816,2106.1721,0.0,0.0,0.0,0.0,0.09044879697317397,0.0,-0.15978047218160485,-0.17103393176723483,-0.3094093334663237,0.1935759701869608,0.7851529522185632,-0.043318881681240755
9076,5.0,298.13742,1989.8491,0.0,0.0,0.0,0.0,0.09045876378275779,0.0,-0.14935219334491387,-0.16231805573204486,-0.2931942009235147,0.17995573062024783,0.7717897843347212,-0.09696840845928681
9077,5.0,298.70762,2064.4411,0.0,0.0,0.0,0.0,0.0904687305923416,0.0,-0.18001768073136182,-0.1894911132038168,-0.2580297513705538,0.18328323381614683,0.7610961048993372,-0.06506019920944173
9078,5.0,299.48891000000003,2205.0427,0.0,0.0,0.0,0.0,0.09047869740192543,0.0,-0.2270251190431348,-0.19397532244887383,-0.24927747939177178,0.16847085484427882,0.7629049589778573,-0.09219289892973072
9079,5.0,299.75631,2145.4198,0.0,0.0,0.0,0.0,0.09048866421150924,0.0,-0.21349627463544177,-0.18125957071642684,-0.2573981925832238,0.2102560730681588,0.7727162292986542,-0.04436950753767946
9080,5.0,300.45015,2116.7671,0.0,0.0,0.0,0.0,0.09049863102109307,0.0,-0.19252800613853482,-0.17020906512582684,-0.2807072714611507,0.1814472347674478,0.8050672075639472,-0.05780510760491994
9081,5.0,300.66688999999997,2314.3152,0.0,0.0,0.0,0.0,0.0905085978306769,0.0,-0.16816131707122983,-0.2262717878587868,-0.30906093755193975,0.1996477903512028,0.7837779110378572,-0.03630817282858767
9082,5.0,300.77156,2204.6043,0.0,0.0,0.0,0.0,0.0905185646402607,0.0,-0.17508484487202883,-0.19003117550711682,-0.3050286378514827,0.17097814221672883,0.7986540842360212,-0.05952765709292235
9083,5.0,301.02776,2223.7325,0.0,0.0,0.0,0.0,0.09052853144984453,0.0,-0.18925519818303382,-0.2033579373148658,-0.28334600776907376,0.21919851182570882,0.7969472847075733,-0.06466843619077774
9084,5.0,300.10581,2246.6735,0.0,0.0,0.0,0.0,0.09053849825942835,0.0,-0.2233650063694098,-0.18211070080042682,-0.27745692726036675,0.17508488540203282,0.7780917439941762,-0.06638699043363584
9085,5.0,299.86253,2342.0779,0.0,0.0,0.0,0.0,0.09054846506901218,0.0,-0.21743902329206077,-0.2156707498800458,-0.2788234267427297,0.18061685604549582,0.7567358161415103,-0.06652946656994714
9086,5.0,299.58787,2139.1771,0.0,0.0,0.0,0.0,0.090558431878596,0.0,-0.2002295174986148,-0.17158781480189886,-0.27843909084729873,0.16395697763629385,0.7546685022274823,-0.06298866814849755
9087,5.0,300.24457,2069.446,0.0,0.0,0.0,0.0,0.09056839868817981,0.0,-0.15715288162478186,-0.17173539467896384,-0.3001716437621347,0.19190638733468582,0.7790965739858453,-0.09625025123891022
9088,5.0,301.38645,2244.8849,0.0,0.0,0.0,0.0,0.09057836549776364,0.0,-0.2066941240641218,-0.18513666076656582,-0.2905581801258597,0.19286281436907782,0.7822079509354143,-0.038842577813463966
9089,5.0,301.16994,2298.6775,0.0,0.0,0.0,0.0,0.09058833230734745,0.0,-0.23613239332695277,-0.18859636270301183,-0.2740118059928597,0.1975267133868688,0.7719085980414473,-0.07103724806533053
9090,5.0,300.46019,2324.7661,0.0,0.0,0.0,0.0,0.09059829911693128,0.0,-0.23680856551618576,-0.2052641140654908,-0.26459816540880576,0.17725578387378382,0.7942182880807422,-0.030370409705576074
9091,5.0,300.90708,2322.6183,0.0,0.0,0.0,0.0,0.09060826592651511,0.0,-0.22352697439789476,-0.1951448055817928,-0.2873461773088597,0.19183316988245983,0.7958784781045902,-0.027821191004237772
9092,5.0,300.3805,2315.5764,0.0,0.0,0.0,0.0,0.09061823273609891,0.0,-0.2081053990684038,-0.1953596146029928,-0.3004123919858947,0.2071069018898598,0.7988385768142293,-0.005335341355557194
9093,5.0,300.58378,2253.5028,0.0,0.0,0.0,0.0,0.09062819954568274,0.0,-0.15459600579243785,-0.22091382265499676,-0.3094987527876487,0.18470316197628284,0.7849891299423952,-0.05615974345653514
9094,5.0,299.8823,2302.2259,0.0,0.0,0.0,0.0,0.09063816635526656,0.0,-0.1957146473055318,-0.2081559703808948,-0.2959485895978517,0.1925549585911948,0.7610422911865262,-0.07265856576234214
9095,5.0,298.82337,2049.9866,0.0,0.0,0.0,0.0,0.09064813316485039,0.0,-0.18074757544089684,-0.19482511504274183,-0.24757205788345976,0.1907146329645688,0.7742002556601163,-0.1032570448931769
9096,5.0,299.55715,1982.9445,0.0,0.0,0.0,0.0,0.0906580999744342,0.0,-0.1891928326393788,-0.16861371297587785,-0.24495906826057778,0.20506337908817981,0.7757793046159562,-0.08491971169167302
9097,5.0,300.78628,2108.2747,0.0,0.0,0.0,0.0,0.09066806678401802,0.0,-0.2084747895248598,-0.18591778540115683,-0.24647028012222275,0.18635722183702583,0.7514104877234412,-0.08391745636850813
9098,5.0,300.84606,2039.977,0.0,0.0,0.0,0.0,0.09067803359360185,0.0,-0.2017648244476378,-0.14567667926966885,-0.2726605559245018,0.20635703602085378,0.7764099312131942,-0.06190441150798974
9099,5.0,300.21939,2150.7003,0.0,0.0,0.0,0.0,0.09068800040318566,0.0,-0.17130147032363885,-0.18328024472835183,-0.2991774528965157,0.2008295946053378,0.7957231164667572,-0.06748488339398943
9100,5.0,299.70829,2337.6661,0.0,0.0,0.0,0.0,0.09069796721276949,0.0,-0.21983932158645178,-0.2015348876024448,-0.28921792382108674,0.1940112826949228,0.7878744203971512,-0.03949729747157976
9101,5.0,298.73283,2400.6487,0.0,0.0,0.0,0.0,0.0907079340223533,0.0,-0.2330586180885948,-0.18877530267067183,-0.30790333984269375,0.16415494644083184,0.7798413634718502,-0.07205427150870293
9102,5.0,299.39691,2517.3676,0.0,0.0,0.0,0.0,0.09071790083193712,0.0,-0.23590158508667375,-0.22044131373586381,-0.3088739929084897,0.2026954946644878,0.7825049852022293,-0.033470132252494865
9103,5.0,299.78548,2249.5822,0.0,0.0,0.0,0.0,0.09072786764152094,0.0,-0.1979783696189438,-0.20067478012255882,-0.28516365685846173,0.17951226144898083,0.7981491817111912,-0.043482639109402366
9104,5.0,300.08741000000003,2126.8466,0.0,0.0,0.0,0.0,0.09073783445110477,0.0,-0.17054384295886685,-0.16552650204119385,-0.3104378937753347,0.19835306950592382,0.7938310036275202,-0.018029447026117883
9105,5.0,300.94377000000003,2208.1948,0.0,0.0,0.0,0.0,0.0907478012606886,0.0,-0.18203588241304283,-0.18754412273916382,-0.3016560652911357,0.16322329337138486,0.7607459560622803,-0.08665331675151651
9106,5.0,301.12352999999996,2218.7696,0.0,0.0,0.0,0.0,0.0907577680702724,0.0,-0.2142393111987738,-0.17777414235994185,-0.2824370818993697,0.19646897147497783,0.7744820506454273,-0.062083197461634536
9107,5.0,301.01736,2061.1685,0.0,0.0,0.0,0.0,0.09076773487985623,0.0,-0.20184153761270882,-0.16696606698826785,-0.2577361317565758,0.17489280358057585,0.7759526818405673,-0.08338530248223863
9108,5.0,300.28833,2036.7067,0.0,0.0,0.0,0.0,0.09077770168944005,0.0,-0.18602618289685482,-0.17018627713107784,-0.26289552020576773,0.20098674969584782,0.7750708705435393,-0.07095471681818534
9109,5.0,300.64477999999997,2174.1316,0.0,0.0,0.0,0.0,0.09078766849902387,0.0,-0.2232841996739348,-0.15342751564461687,-0.28416999288289474,0.18303110679376383,0.7897486899021273,-0.06564976384637723
9110,5.0,300.23765,2380.5032,0.0,0.0,0.0,0.0,0.09079763530860768,0.0,-0.2124618678733538,-0.18784727703658283,-0.3233043664601567,0.2014387403004558,0.7898613430482453,-0.06406396765812135
9111,5.0,300.98997,2370.6238,0.0,0.0,0.0,0.0,0.09080760211819151,0.0,-0.18232565167664083,-0.23504635133976878,-0.3032384377073037,0.2012100497528858,0.8003589991192832,-0.05738800928075554
9112,5.0,300.37616,2223.6426,0.0,0.0,0.0,0.0,0.09081756892777532,0.0,-0.19908166725533083,-0.2005018385954908,-0.27634833032595674,0.1785984922437988,0.7804163727710992,-0.07146588730813393
9113,5.0,300.11722000000003,2360.2372,0.0,0.0,0.0,0.0,0.09082753573735915,0.0,-0.19838583801415782,-0.2303533011166008,-0.28871405481135876,0.1993551941198258,0.7636084686547883,-0.06734501435018543
9114,5.0,300.33508,2224.7617,0.0,0.0,0.0,0.0,0.09083750254694296,0.0,-0.21070074800704477,-0.1979937102254578,-0.26757752600284573,0.1991026212673988,0.7642063267437922,-0.04259265696356796
9115,5.0,301.55072,2167.7611,0.0,0.0,0.0,0.0,0.09084746935652678,0.0,-0.17961119518874483,-0.17813522416557784,-0.3011988361835107,0.21764030542442578,0.8001901815201222,-0.02299295092622758
9116,5.0,299.82995,2025.5129,0.0,0.0,0.0,0.0,0.09085743616611061,0.0,-0.14926177090598985,-0.17040937453809585,-0.29603417883379873,0.17303350991207783,0.7586608292114944,-0.059255460625808644
9117,5.0,300.58878,1950.3099,0.0,0.0,0.0,0.0,0.09086740297569443,0.0,-0.17371022925636484,-0.14622737056651788,-0.2729079004064127,0.18533319075596183,0.7741372821664012,-0.08004624012919882
9118,5.0,300.75324,2221.3931,0.0,0.0,0.0,0.0,0.09087736978527826,0.0,-0.23221944435577477,-0.17261575702834883,-0.27041282269766775,0.16293623961805484,0.7782757096823323,-0.07344267036547723
9119,5.0,300.76497,2288.2205,0.0,0.0,0.0,0.0,0.09088733659486206,0.0,-0.22320578424869578,-0.17940514064840882,-0.2929509601045087,0.2019737464857568,0.7854022016106623,-0.07710353487077642
9120,5.0,300.74009,2171.9291,0.0,0.0,0.0,0.0,0.09089730340444589,0.0,-0.2289014657108158,-0.16023807619176686,-0.27107268156029074,0.18712453587275382,0.7789049683919352,-0.023796356930517577
9121,5.0,300.46977999999996,2143.2152,0.0,0.0,0.0,0.0,0.09090727021402972,0.0,-0.18535765061337584,-0.16921696155541385,-0.2969093128126677,0.18557730297005381,0.7826587155074013,-0.06772491423667863
9122,5.0,298.76164,2333.0632,0.0,0.0,0.0,0.0,0.09091723702361353,0.0,-0.2122666449765868,-0.1952544392426128,-0.30167187199269574,0.18450784788700683,0.7965861218419292,-0.02549831920298818
9123,5.0,299.57062,2514.0788,0.0,0.0,0.0,0.0,0.09092720383319736,0.0,-0.2386731584827068,-0.20785631179632078,-0.3176877083733357,0.19254631556784182,0.8130209067414162,-0.046670793058798656
9124,5.0,300.74322,2477.885,0.0,0.0,0.0,0.0,0.09093717064278117,0.0,-0.24230317762846176,-0.2267538517263628,-0.28415814798922573,0.17803041357523383,0.7828990584311212,-0.035571563310639966
9125,5.0,300.41641,2113.019,0.0,0.0,0.0,0.0,0.09094713745236499,0.0,-0.17053730749572185,-0.2060531217858598,-0.2657145643689858,0.17759656014741584,0.7852339615640582,-0.07738067599837813
9126,5.0,300.6889,2042.0639,0.0,0.0,0.0,0.0,0.09095710426194882,0.0,-0.1959479076110528,-0.15206691327783586,-0.2727216143755277,0.18263655733732484,0.7825603593201943,-0.03903377101458326
9127,5.0,300.34325,2107.9268,0.0,0.0,0.0,0.0,0.09096707107153264,0.0,-0.16089651650424985,-0.18783076105995283,-0.2920298245710997,0.18039099246570484,0.7805574982450273,-0.07133431272964853
9128,5.0,299.78852,2101.3204,0.0,0.0,0.0,0.0,0.09097703788111647,0.0,-0.16250182890268183,-0.17176530582191585,-0.3044817867725127,0.18250488548682983,0.7657962580057063,-0.05954608304599085
9129,5.0,300.52646,2254.6671,0.0,0.0,0.0,0.0,0.09098700469070027,0.0,-0.2005418214444368,-0.20500027387195183,-0.27982040404612374,0.17539434211507382,0.7858113722660443,-0.1002486060477671
9130,5.0,300.73645,2304.4334,0.0,0.0,0.0,0.0,0.0909969715002841,0.0,-0.1959769068289148,-0.2009002991973158,-0.3036129957392697,0.1956637720180108,0.7858377269011453,-0.08221578591206632
9131,5.0,300.63293,2280.0628,0.0,0.0,0.0,0.0,0.09100693830986793,0.0,-0.2138840150512088,-0.1918619765828028,-0.28733615626537073,0.17455042637178583,0.7955653331611853,-0.08337407871088093
9132,5.0,299.99746,2438.8695,0.0,0.0,0.0,0.0,0.09101690511945174,0.0,-0.22798720001308478,-0.2048752590746138,-0.3084929703408857,0.1859857440853638,0.7650384786534192,-0.030588902904139674
9133,5.0,299.42692,2484.8562,0.0,0.0,0.0,0.0,0.09102687192903557,0.0,-0.22642620717402678,-0.2139678817619858,-0.3149401287396707,0.16475556057010785,0.7797497453978083,-0.04989916999741465
9134,5.0,299.18175,2321.9139,0.0,0.0,0.0,0.0,0.09103683873861938,0.0,-0.17997708993235584,-0.2133502247660278,-0.3124765327115327,0.2093593061996548,0.8025056403836403,-0.02157255667104558
9135,5.0,300.79792000000003,2179.1288,0.0,0.0,0.0,0.0,0.0910468055482032,0.0,-0.21127577757129581,-0.18361905529678982,-0.26750591961827874,0.17930654128117782,0.8056506775015312,-0.038167621524350964
9136,5.0,300.21494,2352.1294,0.0,0.0,0.0,0.0,0.09105677235778703,0.0,-0.19684969006755182,-0.2044257914627548,-0.3137131031335727,0.18377283626446683,0.7681632811668133,-0.025737737029366874
9137,5.0,300.95027000000005,2320.6178,0.0,0.0,0.0,0.0,0.09106673916737085,0.0,-0.23246945368544877,-0.18766289591588584,-0.2852775056396977,0.16615815202103285,0.7779550362906843,-0.06792684079610724
9138,5.0,301.2145,2255.5277,0.0,0.0,0.0,0.0,0.09107670597695468,0.0,-0.21616501327882578,-0.17481480358787785,-0.29464427327412573,0.1984174919472818,0.7903153398880512,-0.037931645708561966
9139,5.0,299.76536,2176.6651,0.0,0.0,0.0,0.0,0.09108667278653848,0.0,-0.18883253103631983,-0.15614829481313686,-0.31667100309049473,0.1802218708915138,0.7774775624460613,-0.06866647182585314
9140,5.0,300.5525,2328.2035,0.0,0.0,0.0,0.0,0.09109663959612231,0.0,-0.23103184431106777,-0.1939752717863688,-0.2827086227936687,0.17356729006475782,0.7634086760000702,-0.04057393852433596
9141,5.0,300.13582,2509.1501,0.0,0.0,0.0,0.0,0.09110660640570614,0.0,-0.23637238161313776,-0.2116159256298658,-0.31473068994400066,0.16967062402268684,0.7854121922566483,-0.08716726658648942
9142,5.0,298.87317,2549.5037,0.0,0.0,0.0,0.0,0.09111657321528994,0.0,-0.2375808242124018,-0.2171250778810768,-0.3202795615991317,0.19340476131756382,0.8143560461331842,-0.07127612684265604
9143,5.0,299.95558,2254.135,0.0,0.0,0.0,0.0,0.09112654002487378,0.0,-0.2022974292302018,-0.2175719921026838,-0.2653313227836628,0.19948651133278583,0.7990177599619132,-0.06895290445687184
9144,5.0,300.07037,1876.9387,0.0,0.0,0.0,0.0,0.09113650683445759,0.0,-0.16280736433783585,-0.15297720703517484,-0.25475791613514875,0.17992133077935285,0.7745224489269142,-0.03378613253468167
9145,5.0,299.88925,2000.6112,0.0,0.0,0.0,0.0,0.09114647364404141,0.0,-0.13604891867448288,-0.2045301967530588,-0.26755674424329473,0.18132501654038582,0.7726228684344403,-0.06242144061001654
9146,5.0,300.84642,2214.6696,0.0,0.0,0.0,0.0,0.09115644045362524,0.0,-0.18785082341193282,-0.2097009234708698,-0.27565252134978574,0.1952350253706968,0.7954189894492422,-0.05994092431845864
9147,5.0,301.13397000000003,2109.9289,0.0,0.0,0.0,0.0,0.09116640726320906,0.0,-0.17799664194940085,-0.18544134507163584,-0.2779277237868308,0.17786136292854984,0.7922422578682232,-0.07663632119666602
9148,5.0,300.54019,2155.3873,0.0,0.0,0.0,0.0,0.09117637407279289,0.0,-0.1920068612146018,-0.2104512655674228,-0.25272581266209576,0.16501798221350683,0.7452985124577363,-0.0892568486979651
9149,5.0,300.99961,2356.5677,0.0,0.0,0.0,0.0,0.09118634088237669,0.0,-0.2325222744131618,-0.1864880830874408,-0.2973273696714267,0.18222577561428382,0.7741407778792462,-0.07517071268227173
9150,5.0,300.11136,2598.3423,0.0,0.0,0.0,0.0,0.09119630769196052,0.0,-0.2404922970497418,-0.22106482731739976,-0.3282740643581277,0.2065461287545158,0.8034698491788003,-0.06766730995524353
9151,5.0,300.87278,2684.5603,0.0,0.0,0.0,0.0,0.09120627450154435,0.0,-0.24505940028547973,-0.2085225237370708,-0.3624573635742566,0.2350789678604878,0.7921599819601033,-0.026983904956354072
9152,5.0,298.95752999999996,2315.8134,0.0,0.0,0.0,0.0,0.09121624131112815,0.0,-0.2515863926596437,-0.17068046960235084,-0.2816825854774067,0.18569523514919284,0.7546644998895873,-0.03038762279827487
9153,5.0,299.34674,2001.9617,0.0,0.0,0.0,0.0,0.09122620812071199,0.0,-0.17550688380368082,-0.15189179326305285,-0.2811477110146187,0.19598199334441682,0.7717476331305613,-0.04293339473369616
9154,5.0,300.66423,1941.9739,0.0,0.0,0.0,0.0,0.0912361749302958,0.0,-0.18607770666443982,-0.15817038737520184,-0.24606347033957374,0.17870915941972082,0.7873148732944283,-0.06736683975733944
9155,5.0,299.9001,1978.2814,0.0,0.0,0.0,0.0,0.09124614173987962,0.0,-0.1795950338496498,-0.16090043778213683,-0.26085267628165476,0.17766868328953384,0.8080781308986023,-0.03450868422074197
9156,5.0,299.15522999999996,2089.633,0.0,0.0,0.0,0.0,0.09125610854946345,0.0,-0.16691197969792984,-0.2007055626605968,-0.26757872163796376,0.14723416626338084,0.7768424572833813,-0.06335082298598943
9157,5.0,299.86189,2163.777,0.0,0.0,0.0,0.0,0.09126607535904727,0.0,-0.1771113653370308,-0.2000907832949228,-0.2805320298563557,0.19744058712836882,0.7922149001155232,-0.044884785743533454
9158,5.0,298.45358,2098.4235,0.0,0.0,0.0,0.0,0.0912760421686311,0.0,-0.18945746316799583,-0.18852837362130181,-0.25988252984090876,0.2008652711413588,0.7982972986108092,-0.06840821565361524
9159,5.0,299.34831,2329.7876,0.0,0.0,0.0,0.0,0.0912860089782149,0.0,-0.2000001582059788,-0.22225643983250282,-0.28594066769764676,0.21253831759339878,0.7672506265367413,-0.06868010611919874
9160,5.0,300.33004,2333.297,0.0,0.0,0.0,0.0,0.09129597578779873,0.0,-0.23012467136403678,-0.18491466780215682,-0.2942246762752147,0.20553432760215878,0.7570933819692993,-0.08474338793577121
9161,5.0,300.85368,2257.1734,0.0,0.0,0.0,0.0,0.09130594259738256,0.0,-0.21705642005430079,-0.18682219217541482,-0.28224576001548773,0.20949983385602383,0.7837745369150242,-0.07400422269014813
9162,5.0,300.71025,1986.7715,0.0,0.0,0.0,0.0,0.09131590940696636,0.0,-0.13797922090998888,-0.1876436238989838,-0.27830607137417074,0.22390000242220978,0.8258400606465682,-0.08622918849815832
9163,5.0,300.95681,1765.9735,0.0,0.0,0.0,0.0,0.0913258762165502,0.0,-0.15493684286107587,-0.14252654550377486,-0.23934843901185177,0.19249145820742783,0.8305803384568973,-0.03931243303058506
9164,5.0,299.10215,2027.8679,0.0,0.0,0.0,0.0,0.09133584302613401,0.0,-0.17620260158734283,-0.19130227749256482,-0.24891632665862878,0.16474576244164085,0.7804870469655742,-0.06483501552046785
9165,5.0,299.24089,2253.1892,0.0,0.0,0.0,0.0,0.09134580983571783,0.0,-0.2118395499269358,-0.1937694198960528,-0.2793042949751877,0.17129319207032184,0.7746826640327263,-0.05284820705571195
9166,5.0,298.85647,2159.0405,0.0,0.0,0.0,0.0,0.09135577664530166,0.0,-0.18850727775421983,-0.1974164008484818,-0.27037073228851377,0.19018306169710683,0.8028765101852422,-0.07324964824792743
9167,5.0,299.29539,2282.9344,0.0,0.0,0.0,0.0,0.09136574345488548,0.0,-0.18131293859919384,-0.21105051180906378,-0.3015916023197737,0.17789811350967683,0.7927612445694433,-0.04252926398431156
9168,5.0,299.19957,2504.3892,0.0,0.0,0.0,0.0,0.0913757102644693,0.0,-0.19395417591928682,-0.2060941077524048,-0.36122349852998364,0.16893451809003884,0.7659833039741663,-0.04599042804065186
9169,5.0,300.02277000000004,2407.0272,0.0,0.0,0.0,0.0,0.09138567707405311,0.0,-0.23621440579004677,-0.1882839979621838,-0.3071777615785847,0.18376456814365083,0.7920729235115113,-0.02995765417134027
9170,5.0,300.0714,2336.4066,0.0,0.0,0.0,0.0,0.09139564388363694,0.0,-0.23962969697460978,-0.16850481898763084,-0.30207474023245573,0.19449298179246283,0.8027707978023092,-0.034893661503486266
9171,5.0,300.21957000000003,2260.1358,0.0,0.0,0.0,0.0,0.09140561069322077,0.0,-0.2327635089969698,-0.17495165314638383,-0.2793096753332187,0.18353099373059883,0.7509336319613794,-0.041523432901543755
9172,5.0,299.40019,2276.277,0.0,0.0,0.0,0.0,0.09141557750280457,0.0,-0.25294949775417175,-0.17201464640652384,-0.26696723533511474,0.16745249796377484,0.7396154966218663,-0.05863522490834614
9173,5.0,299.62349,2303.3674,0.0,0.0,0.0,0.0,0.0914255443123884,0.0,-0.2151626758824028,-0.18858023176141983,-0.29642327700469967,0.19477168636496883,0.7581362898997263,-0.0916642853393106
9174,5.0,300.0702,2117.0119,0.0,0.0,0.0,0.0,0.09143551112197222,0.0,-0.18266523231515483,-0.19354400214630582,-0.26730953148389675,0.2168373452501798,0.8375343245557021,-0.07464055591194933
9175,5.0,299.43146,1868.9575,0.0,0.0,0.0,0.0,0.09144547793155604,0.0,-0.16177488275093785,-0.15553071887718684,-0.2508108105030998,0.19619255684769782,0.8134280103665942,-0.05955039239866615
9176,5.0,298.50822999999997,2047.5119,0.0,0.0,0.0,0.0,0.09145544474113987,0.0,-0.15963475668472385,-0.19144961418960582,-0.27130811022102574,0.16585156280577484,0.8015569343150103,-0.05365063628690554
9177,5.0,299.73312000000004,2374.2443,0.0,0.0,0.0,0.0,0.09146541155072369,0.0,-0.18915036732768784,-0.23638630366951177,-0.2961743011901277,0.16718716829258884,0.7935388126961833,-0.060405218819030944
9178,5.0,299.53298,2423.246,0.0,0.0,0.0,0.0,0.09147537836030752,0.0,-0.22707449472050778,-0.2005377279140328,-0.3089940630453397,0.19271067486656282,0.8158713616577342,-0.05829461480773054
9179,5.0,300.67687,2331.9344,0.0,0.0,0.0,0.0,0.09148534516989132,0.0,-0.18144612019233783,-0.21576754566209877,-0.31163615321109367,0.1984170967797428,0.7844419546233933,-0.06054350415292865
9180,5.0,301.12601,2295.5776,0.0,0.0,0.0,0.0,0.09149531197947515,0.0,-0.2061440305848318,-0.18862144064298683,-0.3030327884670077,0.1942724479081978,0.7781414135140783,-0.06731462799293654
9181,5.0,300.84321,2337.7423,0.0,0.0,0.0,0.0,0.09150527878905898,0.0,-0.23206030329506877,-0.17228507272571283,-0.3062699097539867,0.2064495558874848,0.7817180039820603,-0.04327164801457916
9182,5.0,299.72805,2247.8235,0.0,0.0,0.0,0.0,0.09151524559864278,0.0,-0.21886766540305677,-0.18883446634401083,-0.27558009423263774,0.2069319743925958,0.7995390670058622,-0.08697385842065151
9183,5.0,300.31557999999995,2161.9698,0.0,0.0,0.0,0.0,0.09152521240822661,0.0,-0.22511624704724378,-0.14941270464088585,-0.2826558628609617,0.21368290517136082,0.7872503393955592,-0.039107780828387465
9184,5.0,299.68883,2129.12,0.0,0.0,0.0,0.0,0.09153517921781043,0.0,-0.21323454200211078,-0.17322446702592384,-0.26074030684556476,0.16488892454826987,0.7619751601560933,-0.07520787362968923
9185,5.0,300.94421,2255.4172,0.0,0.0,0.0,0.0,0.09154514602739425,0.0,-0.2025425850918968,-0.19528943690106682,-0.28775847890705075,0.18613082123468183,0.7665039726705523,-0.06303939043525345
9186,5.0,300.81345,2341.0666,0.0,0.0,0.0,0.0,0.09155511283697808,0.0,-0.22340265874312581,-0.19121050743100781,-0.29701261366036275,0.17237219196931083,0.7976958232189483,-0.08143860889986491
9187,5.0,299.61892,2366.8935,0.0,0.0,0.0,0.0,0.0915650796465619,0.0,-0.23000286856951577,-0.2028347253607288,-0.28663891860655877,0.18594833489167184,0.7801400392038272,-0.046052374098765454
9188,5.0,299.97335,2232.0262,0.0,0.0,0.0,0.0,0.09157504645614573,0.0,-0.18275294937631184,-0.1898352433352798,-0.3058920485266947,0.14092938976864788,0.7668613459808222,-0.05630610844673025
9189,5.0,299.24187,1995.8211,0.0,0.0,0.0,0.0,0.09158501326572953,0.0,-0.17450527594732984,-0.18860832918669282,-0.24356617361310978,0.17288159332458483,0.7786637540731293,-0.05680212780793354
9190,5.0,299.16537999999997,2047.0378,0.0,0.0,0.0,0.0,0.09159498007531336,0.0,-0.17329375306776185,-0.17818802462828884,-0.27076657870508075,0.18122993315100183,0.8039122240399592,-0.07122495467285572
9191,5.0,299.41064,2051.9063,0.0,0.0,0.0,0.0,0.09160494688489719,0.0,-0.16706672325320185,-0.17523260713411185,-0.28142895884487573,0.21425418571024177,0.7702928289019833,-0.06384196354796123
9192,5.0,299.53096,1929.654,0.0,0.0,0.0,0.0,0.09161491369448099,0.0,-0.17137556930345182,-0.18167865095778685,-0.2335124224108818,0.19833102118374782,0.7952170892343162,-0.0992096133157265
9193,5.0,299.88248,2165.3066,0.0,0.0,0.0,0.0,0.09162488050406482,0.0,-0.16603866956924085,-0.1852888509315858,-0.3068716283258717,0.21786411210651382,0.8062121903094482,-0.1024432733403639
9194,5.0,300.76973,2305.2797,0.0,0.0,0.0,0.0,0.09163484731364864,0.0,-0.1983705480701488,-0.2111618679950538,-0.29121507016568976,0.2017206568757788,0.8225289619697882,-0.09406673071066352
9195,5.0,299.8796,2203.2223,0.0,0.0,0.0,0.0,0.09164481412323246,0.0,-0.2034051851670288,-0.1985391022242838,-0.26778027734785576,0.18451754469046383,0.7963481195259403,-0.055979338329230535
9196,5.0,300.78181,2296.2849,0.0,0.0,0.0,0.0,0.09165478093281629,0.0,-0.19786321374507881,-0.19290684008592282,-0.3072432175350447,0.17474361263585184,0.7924587387520882,-0.06696646816582584
9197,5.0,300.87517,2424.1492,0.0,0.0,0.0,0.0,0.0916647477424001,0.0,-0.20804298286224382,-0.22980539625752677,-0.29903243654220374,0.1941450418406238,0.7805821810174632,-0.04728845613425725
9198,5.0,299.27065,2292.3858,0.0,0.0,0.0,0.0,0.09167471455198394,0.0,-0.2039721695254858,-0.19557812198705782,-0.29727774068152873,0.18540582052312982,0.8033516940846392,-0.05826942338374434
9199,5.0,300.173,2205.4367,0.0,0.0,0.0,0.0,0.09168468136156774,0.0,-0.20441899255458382,-0.16930609716671083,-0.29667259732430573,0.1867697159527358,0.7622272263834703,-0.021452236261420878
9200,5.0,299.56414,2127.4984,0.0,0.0,0.0,0.0,0.09169464817115157,0.0,-0.2067136392610478,-0.17586123762865283,-0.2641315029427498,0.15902462813700885,0.7702443752822012,-0.04511309024281536
9201,5.0,299.23025,2352.678,0.0,0.0,0.0,0.0,0.0917046149807354,0.0,-0.25856746293362176,-0.16485588246250885,-0.2917320101017077,0.18501090629665484,0.7849321751542743,-0.022903823420931377
9202,5.0,299.88062,2579.5809,0.0,0.0,0.0,0.0,0.0917145817903192,0.0,-0.22709119308215578,-0.2139550337507178,-0.34308195463205265,0.18255136326891683,0.8048111997936812,-0.06274505647995494
9203,5.0,301.12439,2427.4329,0.0,0.0,0.0,0.0,0.09172454859990303,0.0,-0.23570540973481277,-0.18829174932544884,-0.3138818498052267,0.19772234158367583,0.7637654312277793,-0.06111936255576144
9204,5.0,300.76066000000003,2270.4583,0.0,0.0,0.0,0.0,0.09173451540948685,0.0,-0.2037077821768928,-0.18505270286327982,-0.3014021549485767,0.1991756259371038,0.7773166279326782,-0.060411156464616936
9205,5.0,301.09667,2231.1305,0.0,0.0,0.0,0.0,0.09174448221907068,0.0,-0.1843495072938798,-0.21523852778488878,-0.27861992559264576,0.22030484921239576,0.7794880228969783,-0.08845339101792
9206,5.0,299.515,2229.3642,0.0,0.0,0.0,0.0,0.09175444902865448,0.0,-0.21624838349705378,-0.1963907485672578,-0.26503190737911275,0.19478214310600084,0.7998305486621293,-0.056627430318442244
9207,5.0,299.57245,2123.0097,0.0,0.0,0.0,0.0,0.09176441583823831,0.0,-0.1941135094975118,-0.17433664073318683,-0.2768917870170917,0.14898726118889785,0.7758053654085283,-0.05067239837397635
9208,5.0,299.67012,1920.0213,0.0,0.0,0.0,0.0,0.09177438264782214,0.0,-0.14151160327610784,-0.1890383221316298,-0.2530886068604008,0.16289592239657585,0.8034962747414083,-0.060495131593154644
9209,5.0,300.02418,1963.4178,0.0,0.0,0.0,0.0,0.09178434945740595,0.0,-0.16556282705727884,-0.15506906186662484,-0.27619810586613075,0.16812703882034682,0.8223180742264753,-0.06657057513975423
9210,5.0,299.70027000000005,2332.4527,0.0,0.0,0.0,0.0,0.09179431626698978,0.0,-0.18291175606448482,-0.22061019213003077,-0.3054854413940657,0.18477547763591984,0.8010360021735983,-0.07013050574959202
9211,5.0,299.82137,2528.0473,0.0,0.0,0.0,0.0,0.0918042830765736,0.0,-0.2240713632791218,-0.2249090880642988,-0.3194828126479987,0.17567519477779184,0.7555284881173563,-0.09026650885286082
9212,5.0,299.81236,2329.5368,0.0,0.0,0.0,0.0,0.09181424988615741,0.0,-0.22995479998477175,-0.17418445056816684,-0.30398177824566575,0.20025215350584882,0.7713508342589003,-0.06372986667614815
9213,5.0,299.77566,2049.3728,0.0,0.0,0.0,0.0,0.09182421669574123,0.0,-0.18703485310640283,-0.18418074035722384,-0.25174257503005776,0.22290039066855577,0.8070166196963392,-0.0878543687045511
9214,5.0,300.47409,1947.2654,0.0,0.0,0.0,0.0,0.09183418350532506,0.0,-0.16688265624003584,-0.14718198388323087,-0.27785541825969473,0.21937728967335282,0.8194975405856102,-0.062321442957647535
9215,5.0,300.5644,2152.3824,0.0,0.0,0.0,0.0,0.09184415031490886,0.0,-0.2045766644026448,-0.16517944361694184,-0.28451439659188477,0.2119441578672598,0.7822179010513962,-0.027783237695242075
9216,5.0,300.37004,2326.176,0.0,0.0,0.0,0.0,0.09185411712449269,0.0,-0.19303954545151983,-0.2096950263552878,-0.3043648678434737,0.1920035377542738,0.7717180968901463,-0.04022456482360546
9217,5.0,301.81728,2401.6017,0.0,0.0,0.0,0.0,0.09186408393407652,0.0,-0.2263819180121558,-0.18417071931373483,-0.3194743013471587,0.18718668863388782,0.8034054470024442,-0.022522652918812777
9218,5.0,300.95679,2302.2063,0.0,0.0,0.0,0.0,0.09187405074366033,0.0,-0.24458725613638277,-0.18263144042431984,-0.2725945224154847,0.13898093009134987,0.8073923125684173,-0.04805629706003725
9219,5.0,300.57657,2488.4839,0.0,0.0,0.0,0.0,0.09188401755324416,0.0,-0.25559791060054976,-0.18184242257144984,-0.3189966248525157,0.12898063796439788,0.7823004708020452,-0.017452780049705283
9220,5.0,301.05835,2638.4390000000003,0.0,0.0,0.0,0.0,0.09189398436282797,0.0,-0.26056301847556773,-0.19626354514970382,-0.3451930206853987,0.14005578579742986,0.7944523387213412,-0.053964882633169245
9221,5.0,300.1796,2295.3308,0.0,0.0,0.0,0.0,0.0919039511724118,0.0,-0.18833755836246982,-0.2070923718834258,-0.30229330841152674,0.2001244637282468,0.8101194954775692,-0.05823074357442694
9222,5.0,300.14406,2050.6603,0.0,0.0,0.0,0.0,0.09191391798199561,0.0,-0.16519458157343583,-0.18606384540307183,-0.27209107897079876,0.2067603095606538,0.7849723505207393,-0.0942776934344839
9223,5.0,300.9104,2059.9215,0.0,0.0,0.0,0.0,0.09192388479157944,0.0,-0.17573744886393583,-0.1958780237516558,-0.25454922714455275,0.19159723459667483,0.7584854964141903,-0.08060516104336002
9224,5.0,300.5929,2130.6409,0.0,0.0,0.0,0.0,0.09193385160116326,0.0,-0.2024300434032898,-0.1952159154738108,-0.25001567261962576,0.2226352839123918,0.7519462234488143,-0.0908957584432129
9225,5.0,299.52961,2213.5262,0.0,0.0,0.0,0.0,0.09194381841074707,0.0,-0.18483075042887484,-0.20411608143718882,-0.28390987131722273,0.2188776965790468,0.7919114823730782,-0.0920755463296489
9226,5.0,300.0452,2306.126,0.0,0.0,0.0,0.0,0.0919537852203309,0.0,-0.20778843417212178,-0.22007409163462177,-0.27314220435953673,0.21241487333371578,0.8059682402153723,-0.06764491206178304
9227,5.0,299.06972,2210.4007,0.0,0.0,0.0,0.0,0.09196375202991472,0.0,-0.18657984301649683,-0.1910234513300468,-0.2943033348804777,0.16430490745563184,0.7934282873752753,-0.06715278966046434
9228,5.0,299.42981000000003,2218.4504,0.0,0.0,0.0,0.0,0.09197371883949854,0.0,-0.19408554379475182,-0.18058816080266382,-0.29967981216359474,0.16624532192713584,0.8025695663324492,-0.04671718978087765
9229,5.0,298.68654,2396.343,0.0,0.0,0.0,0.0,0.09198368564908235,0.0,-0.22070810248719377,-0.21829802632933776,-0.2894223166312587,0.15081986584976187,0.8177464417627902,-0.07163564013713723
9230,5.0,299.86897999999997,2277.2069,0.0,0.0,0.0,0.0,0.09199365245866618,0.0,-0.2266958330256368,-0.17047617811718885,-0.2950420246008807,0.19276835919475582,0.8179645337143142,-0.03872349559546146
9231,5.0,300.15677,1934.5173,0.0,0.0,0.0,0.0,0.09200361926825001,0.0,-0.17621299753336883,-0.16903912603036284,-0.24279281047428478,0.17983321855065684,0.7932581525509842,-0.06379428709100594
9232,5.0,301.29658,2092.1882,0.0,0.0,0.0,0.0,0.09201358607783382,0.0,-0.19192865857188382,-0.17044166681878284,-0.2736026454699787,0.20022177626785082,0.7934962257944802,-0.055378376655170244
9233,5.0,299.98411,2355.9184,0.0,0.0,0.0,0.0,0.09202355288741765,0.0,-0.2160169470417128,-0.1954897260483338,-0.3046336830950037,0.2098989024079088,0.7993079649230542,-0.07283793129504414
9234,5.0,300.27488999999997,2481.1078,0.0,0.0,0.0,0.0,0.09203351969700146,0.0,-0.2184096459603538,-0.22001091549088678,-0.3157742463544917,0.2210743214708368,0.7870486114331502,-0.05766498727509115
9235,5.0,299.72396000000003,2336.6721,0.0,0.0,0.0,0.0,0.09204348650658528,0.0,-0.25203671140158673,-0.16300262776460686,-0.2952506325314687,0.19762587004165483,0.7639009838261572,-0.056875030139378446
9236,5.0,299.21377,2266.3347,0.0,0.0,0.0,0.0,0.09205345331616911,0.0,-0.22725795378361377,-0.18415699990738083,-0.27749420473154573,0.1820795129623488,0.7641009082033883,-0.04771698797255005
9237,5.0,298.7337,2213.3872,0.0,0.0,0.0,0.0,0.09206342012575293,0.0,-0.2045898366539448,-0.18732942517547482,-0.28089516855969476,0.1968652231915848,0.7866994961111953,-0.07353490044257963
9238,5.0,299.53328999999997,2365.9021,0.0,0.0,0.0,0.0,0.09207338693533675,0.0,-0.21566740615471577,-0.17354687307524283,-0.3299608724621027,0.17958828560398382,0.7994764278846802,-0.041091269574892564
9239,5.0,299.19619,2321.3958,0.0,0.0,0.0,0.0,0.09208335374492056,0.0,-0.2109255882042348,-0.18783996137086081,-0.30688081850427873,0.16936892880541182,0.8167455127840062,-0.07098317901349434
9240,5.0,300.50208,2163.1502,0.0,0.0,0.0,0.0,0.0920933205545044,0.0,-0.16603939910931284,-0.18227853554699083,-0.3092257122832017,0.14668880466205786,0.8091329951802092,-0.04693669825604146
9241,5.0,301.57653999999997,2068.4549,0.0,0.0,0.0,0.0,0.09210328736408822,0.0,-0.17247312181177185,-0.1875183861866238,-0.26876714241525174,0.15495985377084687,0.8319190748865202,-0.08125140790413962
9242,5.0,301.46546,2304.5955,0.0,0.0,0.0,0.0,0.09211325417367203,0.0,-0.1887854250391708,-0.21690403737176178,-0.2948500441044337,0.17783031694548584,0.7966868591668713,-0.06765747838952323
9243,5.0,300.99329,2471.2028,0.0,0.0,0.0,0.0,0.09212322098325586,0.0,-0.23221864388819577,-0.2097320606464428,-0.3092332305989437,0.2017908751077088,0.7836197629622493,-0.07837998985650271
9244,5.0,300.09249,2274.4474,0.0,0.0,0.0,0.0,0.09213318779283967,0.0,-0.2038802272114118,-0.2068709970015778,-0.28062398230293073,0.22911340723423276,0.7689394712734173,-0.06087089133973924
9245,5.0,299.47411,1998.1781,0.0,0.0,0.0,0.0,0.09214315460242349,0.0,-0.15305100203995783,-0.19585887332476581,-0.25848636239561773,0.2154449369627598,0.7919966865739873,-0.08405837919241613
9246,5.0,300.04706,1963.4677,0.0,0.0,0.0,0.0,0.09215312141200732,0.0,-0.15039931639575688,-0.16548845449993885,-0.28095738211583476,0.2169341815622368,0.7747099508579192,-0.05030653706761865
9247,5.0,299.98237,2244.7018,0.0,0.0,0.0,0.0,0.09216308822159114,0.0,-0.22391101645079675,-0.19004880605885682,-0.26837348461890076,0.17376166183144084,0.7914686819468773,-0.049150792592805546
9248,5.0,299.44365,2425.5452,0.0,0.0,0.0,0.0,0.09217305503117497,0.0,-0.22327248650277878,-0.18146398379160084,-0.3325687046419757,0.19805101965111382,0.7668346671056893,-0.03482536135399557
9249,5.0,299.14031,2285.6014,0.0,0.0,0.0,0.0,0.09218302184075877,0.0,-0.21356657392737977,-0.19670916241118283,-0.28449000766197774,0.16626628607170485,0.8014831899727323,-0.06736155565806794
9250,5.0,300.48301000000004,2147.5097,0.0,0.0,0.0,0.0,0.0921929886503426,0.0,-0.19637850850604982,-0.17651144021782283,-0.27989937675891774,0.1874019333526308,0.8021019514112993,-0.05442040340112565
9251,5.0,300.39592999999996,2402.1156,0.0,0.0,0.0,0.0,0.09220295545992643,0.0,-0.2227084608346138,-0.19297291412494383,-0.3145017764814087,0.15964146440038585,0.7882633665805372,-0.05595283373311474
9252,5.0,300.76117999999997,2547.9933,0.0,0.0,0.0,0.0,0.09221292226951024,0.0,-0.24042517936311777,-0.20824499453468082,-0.3258561659094997,0.16866737470117385,0.7863267416644073,-0.052872070108817046
9253,5.0,300.67408,2343.756,0.0,0.0,0.0,0.0,0.09222288907909407,0.0,-0.22997971580473078,-0.19562696064187782,-0.28683663409857174,0.1781115141132378,0.7964194725979823,-0.04495912689012036
9254,5.0,300.84896000000003,1955.6495,0.0,0.0,0.0,0.0,0.09223285588867788,0.0,-0.16057488052500685,-0.18285987765936482,-0.2510338572476128,0.2024941213396138,0.7926584908768023,-0.06154455573497474
9255,5.0,299.7414,1974.4434,0.0,0.0,0.0,0.0,0.0922428226982617,0.0,-0.16438625117365985,-0.18393588847055883,-0.2518593419715817,0.1940199257182758,0.7897184241216403,-0.05336447014066315
9256,5.0,299.62712999999997,2411.0604,0.0,0.0,0.0,0.0,0.09225278950784553,0.0,-0.2154714942478808,-0.19182580355423282,-0.3256048494871967,0.22369575146705178,0.7739810390009813,-0.06288783355154594
9257,5.0,298.45381000000003,2434.9415,0.0,0.0,0.0,0.0,0.09226275631742935,0.0,-0.19009605391101983,-0.2319802464046678,-0.31808512532755767,0.19525857330302082,0.7897917530313773,-0.09511715999658281
9258,5.0,299.66515,2155.9874,0.0,0.0,0.0,0.0,0.09227272312701318,0.0,-0.16989169492950484,-0.18962553096208282,-0.2958490985705327,0.2006028191004568,0.7906776882563122,-0.05998317988737894
9259,5.0,299.87331,2186.9681,0.0,0.0,0.0,0.0,0.09228268993659698,0.0,-0.1971401078112138,-0.2031450230713528,-0.2644985629239757,0.16575345993109286,0.7937222920242912,-0.06622602653599995
9260,5.0,299.79177999999996,2328.2854,0.0,0.0,0.0,0.0,0.09229265674618081,0.0,-0.2010518003522678,-0.2229644584723788,-0.2837243756214157,0.16297732690960984,0.8040055443741692,-0.07524584517718672
9261,5.0,299.94768,2415.1081,0.0,0.0,0.0,0.0,0.09230262355576464,0.0,-0.2309291818109358,-0.20971876680513082,-0.29348461866717673,0.16846514011371483,0.8205930463287282,-0.07724789261252342
9262,5.0,300.3145,2350.723,0.0,0.0,0.0,0.0,0.09231259036534845,0.0,-0.1942888118973128,-0.2227762877963078,-0.29749600488556976,0.18980396430469282,0.8149766618194343,-0.05696405327991435
9263,5.0,299.63167000000004,2008.4215,0.0,0.0,0.0,0.0,0.09232255717493228,0.0,-0.18129560188998284,-0.18403731480556884,-0.24517707915209377,0.16929614705072882,0.7978985542989563,-0.06285920113022014
9264,5.0,300.50698,2107.3051,0.0,0.0,0.0,0.0,0.0923325239845161,0.0,-0.2035124072926108,-0.15613911476723086,-0.28091658866680874,0.19231116048463381,0.7753658479126513,-0.03827747202069236
9265,5.0,301.23911,2377.6069,0.0,0.0,0.0,0.0,0.09234249079409991,0.0,-0.23799769556854378,-0.2102987207648678,-0.2744367022897938,0.18830582336933782,0.7754196616254623,-0.07944721072307923
9266,5.0,300.55269,2338.3209,0.0,0.0,0.0,0.0,0.09235245760368374,0.0,-0.22041272995054276,-0.16382350220062086,-0.32655494370846366,0.19235277466624082,0.7798519620678963,-0.027676204034178677
9267,5.0,299.39898,2282.6791,0.0,0.0,0.0,0.0,0.09236242441326756,0.0,-0.19895698683052582,-0.18061515378532783,-0.3143053072870187,0.18139304615209983,0.8031910128837813,-0.05805005980334484
9268,5.0,299.228,2308.4536,0.0,0.0,0.0,0.0,0.09237239122285139,0.0,-0.17258664635297585,-0.18220443656717783,-0.3469211592609527,0.1951564275604398,0.7956169379887783,-0.02892880609930087
9269,5.0,299.34557,2392.7964,0.0,0.0,0.0,0.0,0.09238235803243519,0.0,-0.2171347138895278,-0.17929750309028583,-0.3309181404940777,0.18969692456412882,0.8224781373447722,-0.06624538163941014
9270,5.0,299.84931,2419.4636,0.0,0.0,0.0,0.0,0.09239232484201902,0.0,-0.22720573087345977,-0.20886903500626883,-0.29938174438167775,0.18372900306514084,0.8019357682623982,-0.04514471377843636
9271,5.0,299.96699,2199.5703,0.0,0.0,0.0,0.0,0.09240229165160285,0.0,-0.2293331507834198,-0.18207562208196482,-0.25720568519672476,0.2006668261092738,0.7855722553749452,-0.06850992772515344
9272,5.0,299.52814,2073.3874,0.0,0.0,0.0,0.0,0.09241225846118666,0.0,-0.19151704598376082,-0.17420447239014283,-0.26453646861021674,0.19241698432507784,0.8102074354537482,-0.06133899363418734
9273,5.0,299.59887000000003,2150.9889,0.0,0.0,0.0,0.0,0.09242222527077049,0.0,-0.19707425668721482,-0.18878079448621382,-0.2679918642337377,0.17721526400228482,0.8125355802085182,-0.08396217818817182
9274,5.0,300.24806,2305.0565,0.0,0.0,0.0,0.0,0.0924321920803543,0.0,-0.15822838581092585,-0.1932493084872218,-0.34920192444104664,0.17996476881113982,0.7977159970284392,-0.06274477175667685
9275,5.0,300.20502999999997,2214.9026,0.0,0.0,0.0,0.0,0.09244215888993812,0.0,-0.1916535105072288,-0.2003850817864678,-0.28123650212088175,0.16411762843964883,0.8074159010307452,-0.06396341069169714
9276,5.0,300.0624,2037.316,0.0,0.0,0.0,0.0,0.09245212569952195,0.0,-0.15093275204340287,-0.1871068343935068,-0.2812536159150707,0.2017711673932638,0.8063960141425902,-0.08606283816299082
9277,5.0,300.111,2101.5828,0.0,0.0,0.0,0.0,0.09246209250910577,0.0,-0.2032989762915468,-0.18382886899499684,-0.25170085952344073,0.19631423805220682,0.7840778128024553,-0.07820520016125232
9278,5.0,299.61836,2366.2473,0.0,0.0,0.0,0.0,0.0924720593186896,0.0,-0.20670179436737882,-0.23031616550043577,-0.2822621442696047,0.19898961348374583,0.7892309798960332,-0.08447282685431892
9279,5.0,300.12287000000003,2410.4972,0.0,0.0,0.0,0.0,0.0924820261282734,0.0,-0.21698877547762477,-0.2073469003085458,-0.30839527276624373,0.2237530102302028,0.7747016928696043,-0.04171996187768966
9280,5.0,300.68237,2304.8969,0.0,0.0,0.0,0.0,0.09249199293785723,0.0,-0.16996854994958982,-0.2141764998250748,-0.3164860545497417,0.21535997594187478,0.8050174772490393,-0.07020199966339793
9281,5.0,301.08036,2262.8078,0.0,0.0,0.0,0.0,0.09250195974744106,0.0,-0.2133176690403148,-0.18723930671158084,-0.2872800931373377,0.18393197732517283,0.7872359005816342,-0.03638092418576767
9282,5.0,300.49682,2245.4824,0.0,0.0,0.0,0.0,0.09251192655702487,0.0,-0.2168968534285528,-0.18491777847996382,-0.2807559581284557,0.16364579839808283,0.7719489760579323,-0.06263079327942804
9283,5.0,300.44614,2376.0939,0.0,0.0,0.0,0.0,0.0925218933666087,0.0,-0.25747010294282074,-0.18598359599515182,-0.27881950546484274,0.15422449764327284,0.7887684717553872,-0.05231919829775286
9284,5.0,300.48892,2389.9607,0.0,0.0,0.0,0.0,0.09253186017619251,0.0,-0.24541223423530178,-0.18667623349850984,-0.29439990774750874,0.18587830917726084,0.8214573993265333,-0.06505208003639044
9285,5.0,299.59743,2342.0621,0.0,0.0,0.0,0.0,0.09254182698577633,0.0,-0.18937772038512582,-0.21204653665736378,-0.3105041198018707,0.18556782908161884,0.7987536056608432,-0.06483124521684573
9286,5.0,298.7496,2304.3097,0.0,0.0,0.0,0.0,0.09255179379536016,0.0,-0.1852345407262258,-0.2057752176809328,-0.3094428416471307,0.18341905999205182,0.7829846172695653,-0.05371515194727274
9287,5.0,299.37192000000005,2484.9144,0.0,0.0,0.0,0.0,0.09256176060494398,0.0,-0.2178707083646648,-0.2096586506766978,-0.3278225601135677,0.2004755244903938,0.7840436054790793,-0.02929548509848927
9288,5.0,299.34074,2379.8545,0.0,0.0,0.0,0.0,0.09257172741452781,0.0,-0.2100389842342338,-0.21293031365958578,-0.3004470552718157,0.2020029483536388,0.8047569605158282,-0.06028802529921484
9289,5.0,300.43451,2207.7278,0.0,0.0,0.0,0.0,0.09258169422411161,0.0,-0.2074857358372478,-0.19354301929370882,-0.27006536910587675,0.20803297195125578,0.7792885544822923,-0.06109724533257865
9290,5.0,299.56352000000004,2099.1218,0.0,0.0,0.0,0.0,0.09259166103369544,0.0,-0.19372580961174882,-0.2018342320794878,-0.24252058056991774,0.18866832372511383,0.7838546039379263,-0.08459116534674802
9291,5.0,300.39508,2175.7769,0.0,0.0,0.0,0.0,0.09260162784327927,0.0,-0.16939525304300984,-0.1998968776232858,-0.29208971778451076,0.18313140842116282,0.7904614708174733,-0.07927667465174862
9292,5.0,300.93065,2235.2543,0.0,0.0,0.0,0.0,0.09261159465286307,0.0,-0.18586825773626883,-0.2052540423594968,-0.28833918267186176,0.19717562222721882,0.8228306875845662,-0.1091614558758969
9293,5.0,301.51934,2066.0977,0.0,0.0,0.0,0.0,0.0926215614624469,0.0,-0.15549661287882086,-0.1877344516379478,-0.28481104582366173,0.17154005019218482,0.8021232701934032,-0.08028854673161262
9294,5.0,299.81226000000004,2014.088,0.0,0.0,0.0,0.0,0.09263152827203072,0.0,-0.16190195444597885,-0.19098367113112083,-0.25934682451303875,0.17539828365796284,0.7910126282093682,-0.08480381918498534
9295,5.0,299.95222,2330.9088,0.0,0.0,0.0,0.0,0.09264149508161454,0.0,-0.2252024948957558,-0.18758887799608082,-0.2957466995154267,0.18521785249707884,0.7958322131050242,-0.048592997399505455
9296,5.0,299.91228,2656.7908,0.0,0.0,0.0,0.0,0.09265146189119837,0.0,-0.25088789857070776,-0.22329027917453478,-0.3334198853884807,0.17879257016795283,0.8221097196084122,-0.056663415895743745
9297,5.0,301.58297999999996,2722.8618,0.0,0.0,0.0,0.0,0.09266142870078219,0.0,-0.2335187349590048,-0.22841449771275577,-0.36574875453659167,0.2049609800330738,0.7597418353456813,-0.03451751672186367
9298,5.0,300.61012999999997,2342.9881,0.0,0.0,0.0,0.0,0.09267139551036602,0.0,-0.22654307544056076,-0.17533552294676882,-0.3103312795998127,0.17159045938465986,0.7532061999481643,-0.03547546363140566
9299,5.0,299.17887,2191.4502,0.0,0.0,0.0,0.0,0.09268136231994982,0.0,-0.2008359274184628,-0.16130116806418585,-0.30400905493835767,0.19852404532779783,0.7645334748035792,-0.020245913381366082
9300,5.0,299.63672,2482.4577,0.0,0.0,0.0,0.0,0.09269132912953364,0.0,-0.23442978865391878,-0.2059878887444218,-0.3141874865653907,0.1955201944788408,0.8066998067875722,-0.05325678597303555
9301,5.0,299.56782000000004,2572.0437,0.0,0.0,0.0,0.0,0.09270129593911748,0.0,-0.26598499068817477,-0.2124702575841818,-0.3033818125964537,0.1933337527505558,0.8126915497964112,-0.05800956424984824
9302,5.0,299.66707,2336.2343,0.0,0.0,0.0,0.0,0.09271126274870128,0.0,-0.21483600405016276,-0.2067137709835608,-0.2886071062633037,0.1881269036666798,0.8155759789885823,-0.08389942456972851
9303,5.0,300.10107999999997,2172.3873,0.0,0.0,0.0,0.0,0.09272122955828511,0.0,-0.1974617539229578,-0.18887739775074783,-0.2740123227504107,0.2085492836722118,0.8069487927346453,-0.07224297211457623
9304,5.0,300.2483,2091.9873,0.0,0.0,0.0,0.0,0.09273119636786893,0.0,-0.18142061668732082,-0.17737920786846484,-0.27711208785383373,0.17430543263010684,0.8131270750868943,-0.07277093013218164
9305,5.0,300.76085,2391.924,0.0,0.0,0.0,0.0,0.09274116317745275,0.0,-0.20527469239653479,-0.22148319828368981,-0.3003272688449937,0.17586543248406683,0.7611125094184562,-0.05947861578808234
9306,5.0,302.0872,2380.9942,0.0,0.0,0.0,0.0,0.09275112998703658,0.0,-0.2055051156017758,-0.2027847721307988,-0.31547288550974967,0.15127033657921987,0.7778945452597142,-0.050798512547672856
9307,5.0,300.79276,2066.4971,0.0,0.0,0.0,0.0,0.0927610967966204,0.0,-0.18518933963926482,-0.16938045959154985,-0.2735937187365977,0.20727264934121778,0.7994086921154953,-0.03724375832167276
9308,5.0,300.91162,2196.7954,0.0,0.0,0.0,0.0,0.09277106360620423,0.0,-0.17426153863577484,-0.21800029291995376,-0.27550910593063177,0.2023153536244708,0.8216125988443502,-0.0972621770210295
9309,5.0,300.13597999999996,2393.7675,0.0,0.0,0.0,0.0,0.09278103041578803,0.0,-0.20430311727314782,-0.2178385275414888,-0.30550391294338874,0.20770489170137682,0.7858934556566453,-0.08244870171255334
9310,5.0,299.45673999999997,2307.0316,0.0,0.0,0.0,0.0,0.09279099722537186,0.0,-0.18869267212501684,-0.2366201516600908,-0.27596717603583976,0.1912406921514868,0.7659349922093983,-0.1048708584599479
9311,5.0,300.50568,2210.5399,0.0,0.0,0.0,0.0,0.09280096403495569,0.0,-0.19419163108022183,-0.17956252878644183,-0.29819477255203275,0.19492667310026482,0.7748110630853983,-0.06834516717939285
9312,5.0,300.20917000000003,2253.9993,0.0,0.0,0.0,0.0,0.0928109308445395,0.0,-0.2066660671688528,-0.19669645625492882,-0.28179696114869474,0.1886623151520208,0.8253158759723351,-0.06640359962927503
9313,5.0,299.70788999999996,2209.6127,0.0,0.0,0.0,0.0,0.09282089765412332,0.0,-0.19211126650490581,-0.17751023123889584,-0.30204559915957974,0.17267816310200784,0.8019666217279432,-0.036167309786435564
9314,5.0,300.8032,2365.6751,0.0,0.0,0.0,0.0,0.09283086446370714,0.0,-0.21178251407880683,-0.18724881099751883,-0.3200748242839257,0.15125297960500686,0.8118830775416213,-0.05686983317961554
9315,5.0,300.85151,2520.5459,0.0,0.0,0.0,0.0,0.09284083127329096,0.0,-0.24635945082628474,-0.1779298789003118,-0.3418937061072817,0.18684612514277682,0.7902818823697493,-0.022073105260195878
9316,5.0,300.90502999999995,2366.9416,0.0,0.0,0.0,0.0,0.09285079808287477,0.0,-0.23753114455999874,-0.19071896967499682,-0.29124102963325177,0.1906493289956238,0.8164424091490923,-0.05998075315338944
9317,5.0,300.71788,2235.4462,0.0,0.0,0.0,0.0,0.0928607648924586,0.0,-0.18944517244428283,-0.1839981729542058,-0.3060765005748987,0.20077531479748081,0.7610912007688533,-0.03303902574569797
9318,5.0,300.15803,2353.6249,0.0,0.0,0.0,0.0,0.09287073170204241,0.0,-0.21809101933390782,-0.20821156741388178,-0.2891406128384567,0.18402410202426484,0.7773529529487633,-0.06625723463907994
9319,5.0,300.97425,2513.48,0.0,0.0,0.0,0.0,0.09288069851162624,0.0,-0.2131236316461648,-0.21057825620245582,-0.3403332705557787,0.18691609006218182,0.7886385426950643,-0.039921974906492165
9320,5.0,300.63984,2317.484,0.0,0.0,0.0,0.0,0.09289066532121007,0.0,-0.1904958621354778,-0.21476078036273882,-0.2992006157938017,0.18331332734411684,0.8065981271400373,-0.10794623463346388
9321,5.0,299.44557000000003,2143.4185,0.0,0.0,0.0,0.0,0.09290063213079389,0.0,-0.17427461969456584,-0.19274448702239982,-0.2845265961230887,0.18336290567150984,0.7832786523160843,-0.07896922417390563
9322,5.0,299.13025,2243.123,0.0,0.0,0.0,0.0,0.0929105989403777,0.0,-0.1932062656229738,-0.21061973866154982,-0.27802737693416574,0.16436595577415686,0.7732881279200963,-0.1038097728227269
9323,5.0,299.96535,2395.2022,0.0,0.0,0.0,0.0,0.09292056574996152,0.0,-0.2009370700434448,-0.2227984577084958,-0.3043461429816257,0.2029696193465418,0.7838506623950373,-0.05616373971492954
9324,5.0,299.85407000000004,2317.8523,0.0,0.0,0.0,0.0,0.09293053255954535,0.0,-0.21106830448081984,-0.2073661723254478,-0.2861347658868027,0.18962939144496382,0.8211493206336282,-0.07553771592149214
9325,5.0,300.05657,2079.496,0.0,0.0,0.0,0.0,0.09294049936912915,0.0,-0.15324633639423585,-0.1858371610906998,-0.2930313513674427,0.21325999484462282,0.8115333745346083,-0.048940176400519356
9326,5.0,299.45443,1942.7402,0.0,0.0,0.0,0.0,0.09295046617871298,0.0,-0.15789615123563686,-0.17515053387601184,-0.25749781533305577,0.1821689221511728,0.8156131652672522,-0.07367770791167363
9327,5.0,299.87526,2279.6717,0.0,0.0,0.0,0.0,0.0929604329882968,0.0,-0.2059230002080178,-0.2042669645095798,-0.28277329854755173,0.16450521686790084,0.8190484985387932,-0.06201714064786524
9328,5.0,299.51296,2515.1558,0.0,0.0,0.0,0.0,0.09297039979788062,0.0,-0.24754760815854676,-0.2046382396112218,-0.3123587018574037,0.16163200435433686,0.8077980787034633,-0.09332400217536191
9329,5.0,300.80807999999996,2331.5783,0.0,0.0,0.0,0.0,0.09298036660746443,0.0,-0.2163402042211158,-0.2028221205294848,-0.2895792589392477,0.16829329289675485,0.7789756527189112,-0.06112155826872815
9330,5.0,301.31517,2025.8589,0.0,0.0,0.0,0.0,0.09299033341704827,0.0,-0.18566817123902182,-0.15589751541338687,-0.27424483325085774,0.2160052946655628,0.7657389587125513,-0.05057996868660425
9331,5.0,301.37228999999996,2292.19,0.0,0.0,0.0,0.0,0.0930003002266321,0.0,-0.17644865924162684,-0.19727114131414583,-0.3230487133274257,0.24320807076276776,0.7637168762829872,-0.04101505290237056
9332,5.0,300.55054,2506.4872,0.0,0.0,0.0,0.0,0.0930102670362159,0.0,-0.2473674117607628,-0.17631194140563383,-0.3382301787807197,0.23870244141059674,0.7938282577197493,-0.01003922879516974
9333,5.0,300.6032,2461.7823,0.0,0.0,0.0,0.0,0.09302023384579973,0.0,-0.24844675616478576,-0.18077901659149984,-0.3190945656071817,0.2092013810390688,0.8001972438733191,-0.045929534749392154
9334,5.0,299.81572,2295.4324,0.0,0.0,0.0,0.0,0.09303020065538355,0.0,-0.22757048064445778,-0.1835361613061088,-0.2866474907024047,0.18301144974182382,0.8100172585424793,-0.035184587898698466
9335,5.0,300.23976,2242.502,0.0,0.0,0.0,0.0,0.09304016746496736,0.0,-0.2225259643591028,-0.17801237772345382,-0.28112628077500373,0.1952646933336248,0.8409439314072041,-0.06721618669272114
9336,5.0,299.31347999999997,2438.0615,0.0,0.0,0.0,0.0,0.0930501342745512,0.0,-0.2289652396721098,-0.2157575550161128,-0.29638702291612173,0.16998100279331882,0.8137101397244383,-0.05780106068402054
9337,5.0,299.27085,2534.5635,0.0,0.0,0.0,0.0,0.09306010108413501,0.0,-0.2225386502503548,-0.23954773517402075,-0.30835762039252773,0.16256654518656885,0.7940569989298243,-0.08264282725946202
9338,5.0,298.9705,2162.5153,0.0,0.0,0.0,0.0,0.09307006789371883,0.0,-0.18094202826758785,-0.19770762919222382,-0.2787009957331467,0.16367009613548084,0.7697206972330183,-0.06601526544894944
9339,5.0,299.9927,1638.5939,0.0,0.0,0.0,0.0,0.09308003470330264,0.0,-0.10120090003500122,-0.16552117234566785,-0.23136956056939778,0.1984864233515848,0.8089187333140632,-0.10506520996162891
9340,5.0,300.50027,2050.8203,0.0,0.0,0.0,0.0,0.09309000151288647,0.0,-0.15430888111160085,-0.19109564539967183,-0.27799364583833674,0.2078428355699908,0.8161336414461191,-0.08702141126109461
9341,5.0,300.79215,2494.0482,0.0,0.0,0.0,0.0,0.0930999683224703,0.0,-0.23208374990238279,-0.20867927352754082,-0.3173653428540207,0.1891648264066148,0.8127768553223302,-0.08306894046976612
9342,5.0,300.79977,2368.2706,0.0,0.0,0.0,0.0,0.09310993513205411,0.0,-0.2175162126846788,-0.21881130843249477,-0.28356761569844474,0.18951032442571283,0.7885239035787502,-0.054976859077793545
9343,5.0,300.60382000000004,2032.0318,0.0,0.0,0.0,0.0,0.09311990194163794,0.0,-0.14915507567045985,-0.18595019927185583,-0.2825816422911367,0.18804302682340182,0.7996207146989203,-0.07428738961609453
9344,5.0,299.79747000000003,2062.7953,0.0,0.0,0.0,0.0,0.09312986875122176,0.0,-0.1928799484282688,-0.16281511570110085,-0.27134320920448973,0.2020791346286578,0.7888514265410742,-0.04955465685741385
9345,5.0,299.90089,2381.8327,0.0,0.0,0.0,0.0,0.09313983556080557,0.0,-0.18569165837633983,-0.22145530350843678,-0.31687070455270366,0.15851255180147084,0.7826931153482963,-0.07234384521503164
9346,5.0,300.93071000000003,2498.8106,0.0,0.0,0.0,0.0,0.0931498023703894,0.0,-0.23329128057655676,-0.2059205684077778,-0.3203641679824817,0.18088146630911084,0.8064939751622583,-0.046802762804823046
9347,5.0,299.56408,2221.1103,0.0,0.0,0.0,0.0,0.09315976917997322,0.0,-0.2038740261207998,-0.19171613949590982,-0.27957190445909874,0.18357212155215782,0.8381663089080743,-0.09278955125111572
9348,5.0,299.36588,2119.1889,0.0,0.0,0.0,0.0,0.09316973598955704,0.0,-0.22608386036273978,-0.15525866122533685,-0.2628379979975908,0.23125466814055876,0.8222630952760491,-0.012381222145681488
9349,5.0,299.56809,2331.0435,0.0,0.0,0.0,0.0,0.09317970279914085,0.0,-0.21141004334204677,-0.1997492572162168,-0.2974197172855407,0.2000419345076018,0.8152235604713012,-0.06747654738541674
9350,5.0,299.94387,2635.4586,0.0,0.0,0.0,0.0,0.09318966960872468,0.0,-0.26321658876495474,-0.1980896954074308,-0.33980733295887267,0.18055775316716283,0.7736163196274862,0.013462038802099788
9351,5.0,299.52057,2595.422,0.0,0.0,0.0,0.0,0.09319963641830852,0.0,-0.21106068484006782,-0.22098384836940776,-0.35689894710318365,0.1873255444275918,0.7922439398633893,-0.07741296625256493
9352,5.0,300.40952999999996,2296.3609,0.0,0.0,0.0,0.0,0.09320960322789232,0.0,-0.2101948626296178,-0.18644035900773084,-0.3014011518309777,0.15730191044948982,0.7927442726302683,-0.03503738900367107
9353,5.0,299.65949,2121.1335,0.0,0.0,0.0,0.0,0.09321957003747615,0.0,-0.1938711299410908,-0.17810285082488284,-0.27279762839802973,0.16254131525907883,0.8048176744618203,-0.08612822319194383
9354,5.0,300.94135,2431.493,0.0,0.0,0.0,0.0,0.09322953684705997,0.0,-0.23485781589366178,-0.1964817181612358,-0.3077736235648917,0.17195496597563384,0.7845662905431643,-0.02963527244002367
9355,5.0,299.74965,2337.0978,0.0,0.0,0.0,0.0,0.09323950365664378,0.0,-0.1972876066282708,-0.2236026439153628,-0.2895291435893017,0.1867992116631468,0.8210291390392672,-0.06942342841905894
9356,5.0,299.1708,2165.4793,0.0,0.0,0.0,0.0,0.09324947046622761,0.0,-0.18841275165239083,-0.19256891104507182,-0.27726997248441576,0.2209552037890808,0.7754597660644202,-0.06287896659992084
9357,5.0,299.68881,2210.6043,0.0,0.0,0.0,0.0,0.09325943727581143,0.0,-0.15333628260561286,-0.23264452303772679,-0.28598770276728874,0.18462854623891883,0.7814159845247532,-0.08240038792128512
9358,5.0,300.34721,2195.6095,0.0,0.0,0.0,0.0,0.09326940408539525,0.0,-0.1900876743326928,-0.2049008639046408,-0.2724219355259518,0.20073701394370083,0.7766885749906942,-0.07180615290371553
9359,5.0,300.51159,2249.9754,0.0,0.0,0.0,0.0,0.09327937089497906,0.0,-0.19066104216677981,-0.21656228837803376,-0.27671300916944774,0.16316763554339184,0.8018090512048922,-0.06764382991067623
9360,5.0,300.37889,2336.6503,0.0,0.0,0.0,0.0,0.0932893377045629,0.0,-0.21976280093889977,-0.2063181677470178,-0.28420237635609075,0.19412210185835982,0.8135239752835652,-0.07940012296443202
9361,5.0,300.31386000000003,2199.5626,0.0,0.0,0.0,0.0,0.09329930451414672,0.0,-0.19950845832995182,-0.17418698369341684,-0.2949166754310097,0.15499748587956086,0.8111737315441142,-0.05932958696337435
9362,5.0,300.3236,2022.0004,0.0,0.0,0.0,0.0,0.09330927132373053,0.0,-0.1981698536228418,-0.14078527520692488,-0.27568251355274576,0.19798902900999582,0.7988345339463302,-0.03502096421955007
9363,5.0,300.16463,2281.1127,0.0,0.0,0.0,0.0,0.09331923813331436,0.0,-0.18967356914932382,-0.19629626299543282,-0.3074314692711237,0.17865477828685383,0.8128711078466322,-0.07235780881465974
9364,5.0,298.69358,2543.7079,0.0,0.0,0.0,0.0,0.09332920494289818,0.0,-0.26441900252612377,-0.18666332469223582,-0.3221413681278777,0.22012024517667678,0.7914388923939373,-0.012969362152976387
9365,5.0,299.50701000000004,2405.2859,0.0,0.0,0.0,0.0,0.09333917175248199,0.0,-0.2162474310419598,-0.2263429686783118,-0.2885564437583037,0.2019726116456448,0.7937711813416162,-0.07491247576178572
9366,5.0,299.41744,2246.3918,0.0,0.0,0.0,0.0,0.09334913856206582,0.0,-0.2221558240975728,-0.16578106086381683,-0.29491013996786475,0.21568233132868878,0.7955363744733273,-0.013088850684268986
9367,5.0,300.26752,2409.7725,0.0,0.0,0.0,0.0,0.09335910537164964,0.0,-0.2255396538665308,-0.19811653640257978,-0.30885449797656567,0.17206577500656986,0.8161156055943393,-0.06396446953805164
9368,5.0,300.65184,2520.3396,0.0,0.0,0.0,0.0,0.09336907218123346,0.0,-0.2157385363117358,-0.2252949134373768,-0.3250868557710747,0.17623851117088685,0.7917081737405133,-0.025889824856126776
9369,5.0,301.19836000000004,2417.6947,0.0,0.0,0.0,0.0,0.09337903899081727,0.0,-0.2010559141476738,-0.22185100806998978,-0.3120118967456767,0.14745787162045887,0.7972349261459613,-0.0914262799835713
9370,5.0,300.79661,2331.8897,0.0,0.0,0.0,0.0,0.0933890058004011,0.0,-0.2251328846138858,-0.18206957297886783,-0.3016337737889357,0.18048379604236384,0.7850740403007752,-0.024563609157989476
9371,5.0,299.33855,2105.8513,0.0,0.0,0.0,0.0,0.09339897260998493,0.0,-0.16146512206286687,-0.19722872666495983,-0.2814323734977127,0.18643639719983982,0.8143292152705363,-0.0875217896242281
9372,5.0,299.98467,2108.9762,0.0,0.0,0.0,0.0,0.09340893941956874,0.0,-0.17642101777889882,-0.16523381461730785,-0.2994212611355777,0.2017843599095658,0.8160753896978702,-0.06748604052560364
9373,5.0,299.9389,2390.9552,0.0,0.0,0.0,0.0,0.09341890622915257,0.0,-0.20284366222661082,-0.22690243472102678,-0.2970445918335187,0.1761355953582298,0.8262841175028932,-0.08655862751642142
9374,5.0,299.77918,2326.3359,0.0,0.0,0.0,0.0,0.09342887303873638,0.0,-0.19453480875659082,-0.20833503193856678,-0.3042781741649177,0.18893929719935681,0.8113956941110202,-0.07710497773891883
9375,5.0,299.32207,1968.1731,0.0,0.0,0.0,0.0,0.0934388398483202,0.0,-0.14809302744564384,-0.19359601227393883,-0.25658643739810977,0.16679407791629383,0.7944818445642533,-0.08874732372617891
9376,5.0,299.55152999999996,2260.4096,0.0,0.0,0.0,0.0,0.09344880665790403,0.0,-0.2095047278540068,-0.22478868355491577,-0.25281466456336477,0.18760697464286683,0.7546219231203852,-0.07381423424339772
9377,5.0,299.59982,2469.3237,0.0,0.0,0.0,0.0,0.09345877346748785,0.0,-0.21469249743849977,-0.2178658751616878,-0.3180543731870227,0.2057245045134278,0.7807454865360803,-0.05156399868022045
9378,5.0,300.0274,2338.5460000000003,0.0,0.0,0.0,0.0,0.09346874027707167,0.0,-0.2128074976149648,-0.19508355461324783,-0.3029685484106677,0.20821715042193278,0.8217626510516592,-0.03972875824492317
9379,5.0,300.2497,2184.8261,0.0,0.0,0.0,0.0,0.09347870708665548,0.0,-0.18558708083351882,-0.16564463687035283,-0.31290086158841074,0.2099712991275538,0.8435390979608272,-0.05653105807493104
9380,5.0,300.14099999999996,2097.4031,0.0,0.0,0.0,0.0,0.09348867389623931,0.0,-0.17933527705401384,-0.15062721660824888,-0.30759567658232967,0.2067241061345808,0.8276076551810162,-0.02152088496894598
9381,5.0,300.45714,2113.5729,0.0,0.0,0.0,0.0,0.09349864070582314,0.0,-0.19388129283959382,-0.17746171682410783,-0.2711303760209847,0.1922638518374648,0.8200020783404042,-0.08295176924145221
9382,5.0,300.03063,2406.8471,0.0,0.0,0.0,0.0,0.09350860751540695,0.0,-0.26924419069483274,-0.15506568774379187,-0.3073115612542897,0.16854198500129883,0.7925317636867952,-0.019106162046131383
9383,5.0,300.16864,2469.9169,0.0,0.0,0.0,0.0,0.09351857432499078,0.0,-0.22209382332395378,-0.1984472815002218,-0.3302519488183297,0.17853243846977981,0.8025633247118332,-0.06536869840113824
9384,5.0,299.57727,2117.279,0.0,0.0,0.0,0.0,0.0935285411345746,0.0,-0.1909455526623588,-0.17517769911119285,-0.2774766856373167,0.17421229468091484,0.7877088350658092,-0.04709036269995696
9385,5.0,300.82079,2281.5162,0.0,0.0,0.0,0.0,0.09353850794415841,0.0,-0.17523096566894983,-0.2037003651861608,-0.31459263461787573,0.18346881057196182,0.7908252377358742,-0.06989235347258824
9386,5.0,300.66715,2603.4227,0.0,0.0,0.0,0.0,0.09354847475374224,0.0,-0.25691363612040174,-0.2200726325544778,-0.31438923479280173,0.18496821806994182,0.7954071952180782,-0.05556636798597354
9387,5.0,299.03612999999996,2451.1271,0.0,0.0,0.0,0.0,0.09355844156332606,0.0,-0.24540859666744275,-0.2091367762126928,-0.2905360507436757,0.21419326911422978,0.7997678791434443,-0.06670671137018984
9388,5.0,299.76051,2066.7665,0.0,0.0,0.0,0.0,0.09356840837290989,0.0,-0.19032103596322383,-0.1848329795790948,-0.25309138316567475,0.23433561718962478,0.7973913516963993,-0.07189401688613703
9389,5.0,300.10514,2024.9545,0.0,0.0,0.0,0.0,0.09357837518249369,0.0,-0.14714007585909486,-0.18326168198651982,-0.2851338571730207,0.22900266913080378,0.7960681483908093,-0.07369730822160803
9390,5.0,300.17885,2200.9319,0.0,0.0,0.0,0.0,0.09358834199207752,0.0,-0.17448943884826684,-0.17645762650501182,-0.3180812749771777,0.2050197586713748,0.8056741545063483,-0.05846895867293694
9391,5.0,299.73688,2224.9508,0.0,0.0,0.0,0.0,0.09359830880166135,0.0,-0.17844667698131583,-0.18750894269569182,-0.3103738563690147,0.14164929383219688,0.8076198986733782,-0.07388117461125424
9392,5.0,299.86087000000003,2284.9616,0.0,0.0,0.0,0.0,0.09360827561124516,0.0,-0.2044757750901878,-0.19362373479667483,-0.2964717812869867,0.1368348055845439,0.8225169549561032,-0.07874490580051713
9393,5.0,299.80712,2236.3289999999997,0.0,0.0,0.0,0.0,0.09361824242082899,0.0,-0.21338627620458578,-0.16813130460326783,-0.2982705839245147,0.13943041796821085,0.8269489514235072,-0.060240468405771345
9394,5.0,300.46988,2212.2081,0.0,0.0,0.0,0.0,0.0936282092304128,0.0,-0.21185675491363382,-0.1952113761133628,-0.2653878925367457,0.17730591948873184,0.8400482385838062,-0.07193349918953362
9395,5.0,300.25422000000003,2540.0691,0.0,0.0,0.0,0.0,0.09363817603999662,0.0,-0.22640592190702477,-0.2043007969304188,-0.34141084177212666,0.19914178338376382,0.8076192501933143,-0.048837466277632656
9396,5.0,300.47032,2651.3251,0.0,0.0,0.0,0.0,0.09364814284958045,0.0,-0.24005140153372875,-0.20900474972466282,-0.35688046542135965,0.21408854971639482,0.7954168920215352,-0.01979800820116128
9397,5.0,299.7965,2192.0038,0.0,0.0,0.0,0.0,0.09365810965916427,0.0,-0.16300013516936082,-0.19133151989045083,-0.3119827556728007,0.22630109105167878,0.7701127135642073,-0.043215449111032755
9398,5.0,300.03983,2230.6151,0.0,0.0,0.0,0.0,0.0936680764687481,0.0,-0.2183809101875178,-0.17715732636156684,-0.28251304525936677,0.23311038503620377,0.8056759783565283,-0.030232693818234572
9399,5.0,299.84541,2652.1526,0.0,0.0,0.0,0.0,0.0936780432783319,0.0,-0.25820988697333175,-0.22557118620964278,-0.3224070929666027,0.20576969546788781,0.7901356906453212,-0.05767010013509575
9400,5.0,298.80582999999996,2528.3137,0.0,0.0,0.0,0.0,0.09368801008791573,0.0,-0.25647590194470077,-0.2082724637448918,-0.3037958569848167,0.19442427330318182,0.8033635693758112,-0.06586064044393913
9401,5.0,300.70474,2383.8787,0.0,0.0,0.0,0.0,0.09369797689749956,0.0,-0.2049606659255428,-0.19280227267560282,-0.32687666074771465,0.16013793668438384,0.8111521087869802,-0.06771826123652203
9402,5.0,300.91865,2193.1865,0.0,0.0,0.0,0.0,0.09370794370708337,0.0,-0.19267637635067783,-0.16685686902499083,-0.30714067662492467,0.18749979304728884,0.8330909594221761,-0.06772989436092014
9403,5.0,300.80811,1983.5236,0.0,0.0,0.0,0.0,0.0937179105166672,0.0,-0.15553817639792286,-0.15708387929297185,-0.29031960025731374,0.18629892955877284,0.7950802700733133,-0.07112621142411053
9404,5.0,301.25017,2115.1847,0.0,0.0,0.0,0.0,0.09372787732625101,0.0,-0.2094443280155458,-0.17602287128460484,-0.25749614347039074,0.17345346154852384,0.8098660107000523,-0.07548977601951083
9405,5.0,300.04282,2494.4073,0.0,0.0,0.0,0.0,0.09373784413583483,0.0,-0.24487715712249378,-0.2152837592693528,-0.2980766073253707,0.17716124763945384,0.8030171594316232,-0.05161272587752945
9406,5.0,299.80775,2389.1585,0.0,0.0,0.0,0.0,0.09374781094541866,0.0,-0.21141993266302278,-0.2219019948150218,-0.2929225992342097,0.19286189231148682,0.8364769980763522,-0.08504152259219482
9407,5.0,299.91947000000005,2233.4443,0.0,0.0,0.0,0.0,0.09375777775500248,0.0,-0.15337475571190987,-0.22705032870562278,-0.2984862136782957,0.18972701809209883,0.7912105260863993,-0.05981331154786424
9408,5.0,299.27867000000003,2516.8903,0.0,0.0,0.0,0.0,0.09376774456458631,0.0,-0.18611447751056884,-0.24754620987340878,-0.3314111069327296,0.18023572202038082,0.7678120177546464,-0.07241533608908723
9409,5.0,299.16598999999997,2574.844,0.0,0.0,0.0,0.0,0.09377771137417011,0.0,-0.22230683889247677,-0.21044064670637477,-0.34994078641396664,0.2018536358189028,0.7814609525641912,-0.032982744768893464
9410,5.0,299.98095,2340.3524,0.0,0.0,0.0,0.0,0.09378767818375394,0.0,-0.22292895418887476,-0.20357487416127582,-0.28490486265042075,0.20231719773965282,0.8223006361922541,-0.06591563661961684
9411,5.0,300.31324,2020.5767,0.0,0.0,0.0,0.0,0.09379764499333777,0.0,-0.19288068810084183,-0.15047851202357285,-0.27084567300788676,0.2200787525850818,0.8073290654971752,-0.04951008195901466
9412,5.0,300.81579,2152.1341,0.0,0.0,0.0,0.0,0.09380761180292158,0.0,-0.1990696298441428,-0.17095006505645785,-0.2841753225784207,0.1707887759055398,0.8168802345173022,-0.07955170213964173
9413,5.0,300.92871,2390.3363,0.0,0.0,0.0,0.0,0.0938175786125054,0.0,-0.2242643266281658,-0.16284232146628586,-0.3394958801431347,0.18989425502110382,0.8000362992274352,-0.03192671018342097
9414,5.0,300.95791,2565.6396,0.0,0.0,0.0,0.0,0.09382754542208922,0.0,-0.24320601386506477,-0.1981704109103968,-0.33851395973622667,0.14401003484268385,0.8179690832072631,-0.05984869221485603
9415,5.0,301.14874,2565.4584,0.0,0.0,0.0,0.0,0.09383751223167304,0.0,-0.2391473088670018,-0.20379860991585683,-0.3368893651883917,0.17324280685273383,0.7658789088163633,-0.026318917021724873
9416,5.0,301.00178999999997,2312.4208,0.0,0.0,0.0,0.0,0.09384747904125687,0.0,-0.2327095635616458,-0.1989559735804258,-0.27125264491055173,0.15740314426698085,0.7847804814818032,-0.04460143744581915
9417,5.0,300.46127,2375.3697,0.0,0.0,0.0,0.0,0.09385744585084069,0.0,-0.2003610576265968,-0.2158983663825098,-0.3057936619419847,0.20505316552717182,0.8015847277652532,-0.03491975573331157
9418,5.0,299.82627,2572.663,0.0,0.0,0.0,0.0,0.09386741266042452,0.0,-0.2354735882444338,-0.21101803714335882,-0.33553368721709664,0.1962645077372988,0.8394043485427591,-0.06192958773322444
9419,5.0,299.41718,2308.5947,0.0,0.0,0.0,0.0,0.09387737947000832,0.0,-0.17410180989001084,-0.21725464217136378,-0.31039869112896573,0.2122155265090418,0.8013177768939073,-0.04411981231553646
9420,5.0,299.60215,1713.14,0.0,0.0,0.0,0.0,0.09388734627959215,0.0,-0.12281315685821488,-0.15568354738976986,-0.24225508877871577,0.18966650679612682,0.8053355364554293,-0.08732244482605432
9421,5.0,299.38249,2061.6594,0.0,0.0,0.0,0.0,0.09389731308917598,0.0,-0.19696476488140882,-0.14679213590725587,-0.28293608730861775,0.23372776845463475,0.8010980941397262,-0.04487587015590356
9422,5.0,299.79972000000004,2507.746,0.0,0.0,0.0,0.0,0.09390727989875979,0.0,-0.25091075749296377,-0.22543763984646278,-0.28594375811045175,0.18661193264716383,0.8003006764435272,-0.09457040416312222
9423,5.0,300.26992,2451.8577,0.0,0.0,0.0,0.0,0.09391724670834362,0.0,-0.2241951216463358,-0.21963784693656782,-0.3014705594628277,0.17758339802861683,0.7611320448803842,-0.06694130511284244
9424,5.0,300.27984,2415.5734,0.0,0.0,0.0,0.0,0.09392721351792743,0.0,-0.2014336740499558,-0.22495366093619779,-0.30788666174604773,0.16578394862660184,0.7848350652646903,-0.1032517861251579
9425,5.0,300.77481,2382.3653,0.0,0.0,0.0,0.0,0.09393718032751125,0.0,-0.22163826607899376,-0.18871015068924182,-0.31383113663772166,0.1952970058793138,0.8159573865912243,-0.059775487934881355
9426,5.0,300.77279,2443.6861,0.0,0.0,0.0,0.0,0.09394714713709507,0.0,-0.2269438563851148,-0.2138472543375808,-0.3020284245703847,0.1812352223165238,0.8354368968487023,-0.0967820818983978
9427,5.0,301.02731,2464.7236,0.0,0.0,0.0,0.0,0.0939571139466789,0.0,-0.24311908713898578,-0.2082251044352178,-0.2978702285450027,0.17926094502667783,0.8044734531378482,-0.04315014919508816
9428,5.0,300.64102,2290.1621,0.0,0.0,0.0,0.0,0.0939670807562627,0.0,-0.19592152257844883,-0.20967556182086677,-0.29055501878554774,0.17691444018009583,0.8184385523760962,-0.06748980272322494
9429,5.0,300.37762000000004,2001.5766,0.0,0.0,0.0,0.0,0.09397704756584653,0.0,-0.14180478719254286,-0.15471630897681085,-0.31190821086294374,0.1995470124962568,0.8194360667020432,-0.026241736748357773
9430,5.0,299.34382,2216.9854,0.0,0.0,0.0,0.0,0.09398701437543035,0.0,-0.18544053447155584,-0.1905655737423578,-0.2979021053931487,0.2222882964156468,0.8287948296606812,-0.06949645436701603
9431,5.0,299.41072,2614.7864,0.0,0.0,0.0,0.0,0.09399698118501418,0.0,-0.23428860238498478,-0.20237590545044679,-0.35816525641565866,0.18035546791719884,0.7628855451059412,-0.027106664258969473
9432,5.0,299.20477999999997,2591.839,0.0,0.0,0.0,0.0,0.094006947994598,0.0,-0.25509823644623575,-0.22877653197348577,-0.3039795794929487,0.20285273081500582,0.7779463527373273,-0.07059302706248934
9433,5.0,300.14392000000004,2340.1219,0.0,0.0,0.0,0.0,0.09401691480418181,0.0,-0.2383982535980758,-0.1860066879649308,-0.2869336730606487,0.19207287445861682,0.7971937983244023,-0.041402567363365256
9434,5.0,300.11328,2239.5588,0.0,0.0,0.0,0.0,0.09402688161376564,0.0,-0.22921203699896675,-0.16334723412361685,-0.2882106721616787,0.2169330365896238,0.8295199620947462,-0.07523456061082302
9435,5.0,300.0621,2466.7703,0.0,0.0,0.0,0.0,0.09403684842334945,0.0,-0.2265480403660508,-0.22064415627338277,-0.3026443691736737,0.18631165598002883,0.8065033578581843,-0.06954887587418963
9436,5.0,300.77787,2370.8324,0.0,0.0,0.0,0.0,0.09404681523293328,0.0,-0.2093344917047058,-0.18672189054801583,-0.3246174575297487,0.17480312081422483,0.8227986790139072,-0.08447891142116942
9437,5.0,300.38534,2149.7542,0.0,0.0,0.0,0.0,0.09405678204251709,0.0,-0.16458352083562883,-0.2015528930567218,-0.2873352038102767,0.1960519076013168,0.8164842867757253,-0.06389130477483083
9438,5.0,300.9764,2094.9135,0.0,0.0,0.0,0.0,0.09406674885210091,0.0,-0.1864126162199928,-0.1907574833112978,-0.2596312944786137,0.17933100113859185,0.8168463413014573,-0.06499180786744203
9439,5.0,301.59026,2176.1009,0.0,0.0,0.0,0.0,0.09407671566168473,0.0,-0.2013010396118658,-0.18557931933775282,-0.27459997741090775,0.18147812876299682,0.7881430228661602,-0.05431759803272954
9440,5.0,300.82148,2372.0053,0.0,0.0,0.0,0.0,0.09408668247126856,0.0,-0.17346973434512983,-0.24987241932048776,-0.2976882488270427,0.19085410684083381,0.7777959965549882,-0.08101630247018651
9441,5.0,300.40217,2522.8669,0.0,0.0,0.0,0.0,0.09409664928085239,0.0,-0.2133874718397038,-0.2073732650761478,-0.3461278046976547,0.2051998436116478,0.8211809036392452,-0.03730931155014237
9442,5.0,300.6574,2320.7689,0.0,0.0,0.0,0.0,0.09410661609043619,0.0,-0.18916939616456582,-0.1977160290355528,-0.3185703708004477,0.1955696106862178,0.8165775969774342,-0.08336909757338933
9443,5.0,299.53639,2148.4508,0.0,0.0,0.0,0.0,0.09411658290002002,0.0,-0.17784715716214783,-0.17990293015753683,-0.2953253191963397,0.19505139405507382,0.8088605828908243,-0.058520422658766044
9444,5.0,298.80704,2399.5658,0.0,0.0,0.0,0.0,0.09412654970960382,0.0,-0.23527191094452976,-0.18577962875002182,-0.3083565666124237,0.16138479159493885,0.8120970455652382,-0.06784973043699703
9445,5.0,299.63424,2505.3025,0.0,0.0,0.0,0.0,0.09413651651918765,0.0,-0.24682092545182874,-0.2078344255941608,-0.3068940414180837,0.17508253466180085,0.8094514191566352,-0.034410344245536566
9446,5.0,300.27196000000004,2357.1471,0.0,0.0,0.0,0.0,0.09414648332877149,0.0,-0.2302014554566148,-0.1942743933483898,-0.29203802176440874,0.13613496387297486,0.8182281104628272,-0.06641721365761864
9447,5.0,301.33173999999997,2356.8389,0.0,0.0,0.0,0.0,0.0941564501383553,0.0,-0.2199390355287928,-0.17726590624228283,-0.3192152436940917,0.16093815095085884,0.7928637044195552,-0.03191899732365976
9448,5.0,300.7058,2298.2358,0.0,0.0,0.0,0.0,0.09416641694793912,0.0,-0.18920872040094683,-0.2062068419585308,-0.3031907541575977,0.17334227761505083,0.7791350774896453,-0.06162308160447464
9449,5.0,299.81649,2282.8491,0.0,0.0,0.0,0.0,0.09417638375752294,0.0,-0.17668774573522283,-0.18779494266891783,-0.3294464352538317,0.22541064686379877,0.8235278036533662,-0.03507403420678767
9450,5.0,299.2762,2490.5921,0.0,0.0,0.0,0.0,0.09418635056710678,0.0,-0.22851393807756978,-0.2205478468513778,-0.3080160132538137,0.20977720093839783,0.8087930396391583,-0.034940684414127066
9451,5.0,299.84788,2364.4326,0.0,0.0,0.0,0.0,0.0941963173766906,0.0,-0.2268590068217408,-0.19852713574060282,-0.2933423279556337,0.2251918355047038,0.8143353555661422,-0.07761752016950282
9452,5.0,299.05292000000003,1957.235,0.0,0.0,0.0,0.0,0.0942062841862744,0.0,-0.15443281173133186,-0.17883290765443385,-0.26168484845628376,0.2063961677397158,0.7989142159341942,-0.06604526677116034
9453,5.0,299.24197000000004,2138.163,0.0,0.0,0.0,0.0,0.09421625099585823,0.0,-0.18251727753555283,-0.1892837819683548,-0.27814709243348074,0.23153534855075977,0.8475302799722262,-0.1036597611454219
9454,5.0,300.20881,2476.361,0.0,0.0,0.0,0.0,0.09422621780544203,0.0,-0.2266754160361218,-0.18148809914398084,-0.3445884042182277,0.16951852505017584,0.8160543951557981,-0.05983590094559364
9455,5.0,300.91418,2419.8117,0.0,0.0,0.0,0.0,0.09423618461502586,0.0,-0.22684947213829978,-0.2077533149236558,-0.3009595673048967,0.16449060580145883,0.7965160859950172,-0.1053191608341919
9456,5.0,301.29447999999996,2089.7074,0.0,0.0,0.0,0.0,0.0942461514246097,0.0,-0.1907710507301368,-0.16951679239250486,-0.27493101635107875,0.15973478473459585,0.7964994990908802,-0.06559615886308684
9457,5.0,301.99777,2302.1499,0.0,0.0,0.0,0.0,0.09425611823419351,0.0,-0.2142218022370458,-0.18788153502246382,-0.2976927476574867,0.18725962237608582,0.8319262081672242,-0.057183878902359445
9458,5.0,300.10996,2607.4136,0.0,0.0,0.0,0.0,0.09426608504377733,0.0,-0.24867435240224775,-0.23865974305138277,-0.3052545419612777,0.18741724356164183,0.8092712430238532,-0.060448535260805944
9459,5.0,300.17737999999997,2628.6894,0.0,0.0,0.0,0.0,0.09427605185336115,0.0,-0.25512912030928375,-0.2097764713983258,-0.33415035765057266,0.17557961489585883,0.8025517939256952,-0.04707430065937175
9460,5.0,299.68182,2389.1688,0.0,0.0,0.0,0.0,0.09428601866294498,0.0,-0.16012132951524485,-0.23545448848004877,-0.3306718295272687,0.20455437290044481,0.7881844242652463,-0.06286661508120184
9461,5.0,299.30556,2019.0199,0.0,0.0,0.0,0.0,0.0942959854725288,0.0,-0.14755979444801787,-0.18728344388593682,-0.27888839633914175,0.20764867658582878,0.8123201835022602,-0.044537839790042555
9462,5.0,299.74916,2227.8173,0.0,0.0,0.0,0.0,0.09430595228211261,0.0,-0.18646992564564882,-0.18732030592457483,-0.30341059903179474,0.2244575027597308,0.7948646099220293,-0.07867957143406913
9463,5.0,299.76732999999996,2468.0385,0.0,0.0,0.0,0.0,0.09431591909169644,0.0,-0.24211055878445178,-0.2039185179326908,-0.3041929902290107,0.20174724455840282,0.7830432439203513,-0.07388598856247933
9464,5.0,300.15142000000003,2310.4969,0.0,0.0,0.0,0.0,0.09432588590128024,0.0,-0.23001548353326082,-0.17047241895931783,-0.3018454518673267,0.2001012400359548,0.7921977255263282,-0.07120166714580743
9465,5.0,300.85692,2058.9737,0.0,0.0,0.0,0.0,0.09433585271086407,0.0,-0.18606493971317983,-0.16977381341287084,-0.27003782896815876,0.1885131546047998,0.8337368860959242,-0.07156705627761853
9466,5.0,299.94784,2409.8419,0.0,0.0,0.0,0.0,0.0943458195204479,0.0,-0.2049804749649978,-0.19546970422635782,-0.3320815846564007,0.1962907407823878,0.8336082033332243,-0.05856251306792004
9467,5.0,300.64755,2822.2359,0.0,0.0,0.0,0.0,0.09435578633003172,0.0,-0.2796945685162047,-0.2169931831155598,-0.36120149073781166,0.15805994311430185,0.8229249806388722,-0.06421786109655943
9468,5.0,300.65623,2406.5614,0.0,0.0,0.0,0.0,0.09436575313961554,0.0,-0.2314322098230808,-0.1961310120366238,-0.3039713417696357,0.19246204355702481,0.8057361856774702,-0.05294966784122535
9469,5.0,300.06822,2072.6334,0.0,0.0,0.0,0.0,0.09437571994919935,0.0,-0.16180932312183685,-0.2059366689518668,-0.2622827977377968,0.20010763364408582,0.8347725999506412,-0.07006068876470163
9470,5.0,301.01147000000003,2183.6397,0.0,0.0,0.0,0.0,0.09438568675878319,0.0,-0.1950323145556908,-0.17821962789890783,-0.29052001099459274,0.2012954363388128,0.8043996581330652,-0.04388640812850125
9471,5.0,300.41988,2182.9107,0.0,0.0,0.0,0.0,0.09439565356836702,0.0,-0.19335583147023483,-0.2003559204485898,-0.2698385834684947,0.2047650377287358,0.7921368494603203,-0.09832250981342622
9472,5.0,299.49854,2253.1791,0.0,0.0,0.0,0.0,0.09440562037795082,0.0,-0.1902448091582008,-0.1860453839862498,-0.30862000150592267,0.2109447487636258,0.7752634893875493,-0.06687217916452023
9473,5.0,300.16664,2411.2137,0.0,0.0,0.0,0.0,0.09441558718753465,0.0,-0.2084562774455328,-0.2089544317246968,-0.3155380577561817,0.21298667063014778,0.8256156156169172,-0.06411386617254594
9474,5.0,299.80989,2247.7478,0.0,0.0,0.0,0.0,0.09442555399711847,0.0,-0.18534839963996283,-0.19183303815994682,-0.3060777570050227,0.22873475567186277,0.8079839695668092,-0.05959026075035084
9475,5.0,299.29654,2587.7812,0.0,0.0,0.0,0.0,0.09443552080670228,0.0,-0.2568072955224067,-0.2086664356487738,-0.3211471265997537,0.17753322188366483,0.8194291158063572,-0.04965997001980745
9476,5.0,299.25659,2773.4703,0.0,0.0,0.0,0.0,0.09444548761628611,0.0,-0.2885167446193857,-0.2104173216890728,-0.34413164120564865,0.18061290437010583,0.8069344856432332,-0.04885227290134395
9477,5.0,298.80203,2397.3043,0.0,0.0,0.0,0.0,0.09445545442586993,0.0,-0.23989861355114975,-0.17893057483157285,-0.3098914378639037,0.16640582074297586,0.8453900221834992,-0.04868190300302975
9478,5.0,299.40772000000004,2203.4005,0.0,0.0,0.0,0.0,0.09446542123545375,0.0,-0.1877873838231718,-0.19089584261245282,-0.29109551678639073,0.15964183930292286,0.8051129862034652,-0.06497223288876014
9479,5.0,298.56703,2131.9208,0.0,0.0,0.0,0.0,0.09447538804503756,0.0,-0.2056672356177758,-0.18773225288523082,-0.25465119050211577,0.15531442037833984,0.7911205393450182,-0.07660657014722982
9480,5.0,298.47987,2109.0609,0.0,0.0,0.0,0.0,0.0944853548546214,0.0,-0.16464141794634285,-0.18060775705959783,-0.2958526753433857,0.1975264499418428,0.7979509899916313,-0.07120876496275794
9481,5.0,299.6236,2134.4685,0.0,0.0,0.0,0.0,0.09449532166420523,0.0,-0.16723233898204684,-0.20954785177826282,-0.27204492542874376,0.23702191545724177,0.8356404486612912,-0.07722127655889663
9482,5.0,300.24381,2272.4384,0.0,0.0,0.0,0.0,0.09450528847378903,0.0,-0.16973779237181583,-0.21503984970528078,-0.30598688873605473,0.22536665154445681,0.8097196467231073,-0.06185543809090644
9483,5.0,300.48872,2332.8495,0.0,0.0,0.0,0.0,0.09451525528337286,0.0,-0.22097583356111677,-0.18613732630032384,-0.3020148368865437,0.1959704118957738,0.7968070508937333,-0.07819161349066142
9484,5.0,300.55905,2310.4325,0.0,0.0,0.0,0.0,0.09452522209295668,0.0,-0.2120005756328278,-0.1976778801692878,-0.29263533269835873,0.19310973328594683,0.7828985214085682,-0.05541275319131295
9485,5.0,300.52286000000004,2452.6629,0.0,0.0,0.0,0.0,0.09453518890254049,0.0,-0.23906466818884575,-0.2010708494541478,-0.30541277109689374,0.2083812868056318,0.8357159459262421,-0.06912961527431184
9486,5.0,299.98397,2648.8689,0.0,0.0,0.0,0.0,0.09454515571212432,0.0,-0.23277645833324775,-0.2267355118995528,-0.34567802297826467,0.19482194356992882,0.7949033464733523,-0.03320073336890727
9487,5.0,300.07826,2385.1431,0.0,0.0,0.0,0.0,0.09455512252170814,0.0,-0.22206261522087378,-0.21125691085443382,-0.2917044091689837,0.17649607934630682,0.8005997372105422,-0.06341137886496584
9488,5.0,300.23036,2241.7767,0.0,0.0,0.0,0.0,0.09456508933129196,0.0,-0.2094881916123748,-0.16480434856242282,-0.30715159946100273,0.17634613859650883,0.8007158354070002,-0.04193432304234546
9489,5.0,299.81018,2222.3572,0.0,0.0,0.0,0.0,0.09457505614087577,0.0,-0.1997859875323418,-0.18978578659789883,-0.28596934267547675,0.2198008890101588,0.8520463660654292,-0.09105536357246473
9490,5.0,299.99287000000004,2180.8976,0.0,0.0,0.0,0.0,0.0945850229504596,0.0,-0.2053682153807648,-0.19281942699979582,-0.26475077100636674,0.17327350833076383,0.8276155180017922,-0.05124073542131685
9491,5.0,300.65271,2310.4412,0.0,0.0,0.0,0.0,0.09459498976004344,0.0,-0.2153793695487888,-0.19596283278502583,-0.29097422061691974,0.18149435089709784,0.7955675015163993,-0.07929782827408632
9492,5.0,300.01907,2391.4161,0.0,0.0,0.0,0.0,0.09460495656962724,0.0,-0.20032217922025983,-0.2037882139698308,-0.3228203875498917,0.16944813456572883,0.7965739729732302,-0.054488423893588746
9493,5.0,300.73871,2258.5286,0.0,0.0,0.0,0.0,0.09461492337921107,0.0,-0.18795451942716682,-0.19244637871047882,-0.3061354109357127,0.18821998082086583,0.8561477086277002,-0.06907649361131914
9494,5.0,300.71849,2259.9949,0.0,0.0,0.0,0.0,0.09462489018879489,0.0,-0.14877146931510085,-0.19898081847287782,-0.3392297398718687,0.17984685689700283,0.8134589144946442,-0.05567679400837174
9495,5.0,299.69973,2663.8709,0.0,0.0,0.0,0.0,0.0946348569983787,0.0,-0.24549753976122077,-0.24404338401270678,-0.3202093028371977,0.15168780575292085,0.7874908951018003,-0.07393195667976603
9496,5.0,300.49158,2738.2935,0.0,0.0,0.0,0.0,0.09464482380796253,0.0,-0.2714381912688637,-0.21529563456052478,-0.3456390229819157,0.17955981327617385,0.7830006671511492,-0.05270415936849555
9497,5.0,300.45502999999997,2216.3533,0.0,0.0,0.0,0.0,0.09465479061754635,0.0,-0.2193897019870778,-0.19478887108666482,-0.25953748778435576,0.21478322385245377,0.8147061139102332,-0.08734428441870973
9498,5.0,298.89435,2115.1425,0.0,0.0,0.0,0.0,0.09466475742713017,0.0,-0.16796197024655585,-0.1885798264613798,-0.28640870818383873,0.24407540271586675,0.8162714231947172,-0.051597475450274356
9499,5.0,298.96811,2330.5283,0.0,0.0,0.0,0.0,0.09467472423671398,0.0,-0.22440748873479477,-0.17209832059978183,-0.3119166107062727,0.18326526889187383,0.7837964028521823,-0.06169490989081354
9500,5.0,299.17807999999997,2257.2525,0.0,0.0,0.0,0.0,0.09468469104629781,0.0,-0.15643225815366185,-0.1936824121099658,-0.33603373627394767,0.18275189559620783,0.8265140644805872,-0.07351282780240123
9501,5.0,299.54219,2113.2233,0.0,0.0,0.0,0.0,0.09469465785588164,0.0,-0.18135307343565482,-0.17334433451275383,-0.2876696979332887,0.15915504355737983,0.8591904784129982,-0.07635293034244753
9502,5.0,299.72215,2077.3969,0.0,0.0,0.0,0.0,0.09470462466546545,0.0,-0.18099674377298783,-0.17116779223794584,-0.27931225912097374,0.18514492888738182,0.8287774726864682,-0.05480227000606295
9503,5.0,300.37433,2227.2181,0.0,0.0,0.0,0.0,0.09471459147504928,0.0,-0.21608520970094977,-0.1998969890807968,-0.26103651024729774,0.16354824267845483,0.7941751337589833,-0.06719931911830644
9504,5.0,300.02468999999996,2560.0444,0.0,0.0,0.0,0.0,0.0947245582846331,0.0,-0.25889338496078773,-0.1999718682631868,-0.3193243099348557,0.20151011363749982,0.8154507412762222,-0.050964989539102855
9505,5.0,300.4199,2687.6372,0.0,0.0,0.0,0.0,0.09473452509421691,0.0,-0.2569838442198307,-0.23607380720617077,-0.3239169369406127,0.24258570215384478,0.8257095945636922,-0.04504830708442176
9506,5.0,299.94052,2297.8421,0.0,0.0,0.0,0.0,0.09474449190380074,0.0,-0.17484563678842083,-0.1924710310854118,-0.3311699736739317,0.22369588318956476,0.8100627940019732,-0.043413565850085364
9507,5.0,300.76416,2302.2764,0.0,0.0,0.0,0.0,0.09475445871338456,0.0,-0.2175248962380358,-0.1932755617973128,-0.2890340797229427,0.20615657462106982,0.7951131804365613,-0.04270138781854887
9508,5.0,300.05844,2624.2317,0.0,0.0,0.0,0.0,0.09476442552296838,0.0,-0.24560149922148075,-0.21248946880607783,-0.3396099417068917,0.1904229486582818,0.8028476629548952,-0.07243765190928964
9509,5.0,298.93575,2468.1829,0.0,0.0,0.0,0.0,0.0947743923325522,0.0,-0.2643318123550188,-0.1812102659665608,-0.3047239028839077,0.17745719772866184,0.8143950055995293,-0.06836252516685594
9510,5.0,298.71358,1905.7099,0.0,0.0,0.0,0.0,0.09478435914213602,0.0,-0.16998675805388683,-0.15203036534672887,-0.25727110062318076,0.1933689125290258,0.8076719493310153,-0.08127274087174502
9511,5.0,298.96524,2016.5602,0.0,0.0,0.0,0.0,0.09479432595171985,0.0,-0.17298914982269983,-0.17437801173476986,-0.2656167857343357,0.17259448890874984,0.7882651802982162,-0.07593507917345883
9512,5.0,300.07084,2435.6975,0.0,0.0,0.0,0.0,0.09480429276130366,0.0,-0.18911322157902183,-0.2049703525964988,-0.3463076464579037,0.1866623722371418,0.8267812990619613,-0.07094825937529803
9513,5.0,300.17722000000003,2583.1567,0.0,0.0,0.0,0.0,0.09481425957088749,0.0,-0.22841807448560877,-0.24222520803326678,-0.31457186299082573,0.16774115265226283,0.8337277567125232,-0.08154855362846562
9514,5.0,299.74483,2570.3557,0.0,0.0,0.0,0.0,0.0948242263804713,0.0,-0.22209341802391377,-0.23008003769713178,-0.3291504952971247,0.18831437520018182,0.8297849067308942,-0.058586732785060346
9515,5.0,300.02827,2416.6839,0.0,0.0,0.0,0.0,0.09483419319005512,0.0,-0.24698578124309878,-0.19826365018459882,-0.28936211944281776,0.19234973491594082,0.7905520553764133,-0.051391545539700656
9516,5.0,301.47048,2362.6438,0.0,0.0,0.0,0.0,0.09484415999963895,0.0,-0.21625212238992278,-0.22166560356669177,-0.2802669838951977,0.19187873573945682,0.8094539826793883,-0.06176978299370295
9517,5.0,299.83648,2256.7446,0.0,0.0,0.0,0.0,0.09485412680922277,0.0,-0.1993609189828908,-0.17843126544729482,-0.3082018230571517,0.2240502066170338,0.8127554352152162,-0.06966267804592104
9518,5.0,299.8677,2446.6566,0.0,0.0,0.0,0.0,0.09486409361880659,0.0,-0.18949754734195184,-0.21339644923558976,-0.3408285269396567,0.19332206997690282,0.8236723235151293,-0.06258930778058375
9519,5.0,299.55751000000004,2225.4862,0.0,0.0,0.0,0.0,0.0948740604283904,0.0,-0.18860444843880983,-0.18725567070069582,-0.3006321152700797,0.1974961132338488,0.8120519255382852,-0.06507482952763563
9520,5.0,299.87824,2026.085,0.0,0.0,0.0,0.0,0.09488402723797423,0.0,-0.17189939934014983,-0.17084856779394084,-0.2731312815234587,0.18666903942279983,0.8311428138524092,-0.07853386201668873
9521,5.0,299.30609,2409.6963,0.0,0.0,0.0,0.0,0.09489399404755806,0.0,-0.25599788094502374,-0.1952257338672798,-0.2812638902710847,0.2068266673097028,0.8477839268697592,-0.07331793015891633
9522,5.0,299.92606,2553.5071,0.0,0.0,0.0,0.0,0.09490396085714187,0.0,-0.2304875263573478,-0.19887785199771582,-0.34683699870764667,0.16960570508877984,0.8311460765177312,-0.049870903359374955
9523,5.0,299.75482,2381.2909,0.0,0.0,0.0,0.0,0.0949139276667257,0.0,-0.22999690052642677,-0.2026094494659958,-0.2912466126413027,0.19091794159713382,0.8161917310743523,-0.05747376266321874
9524,5.0,300.99411000000003,2417.0923,0.0,0.0,0.0,0.0,0.09492389447630951,0.0,-0.18887083189009982,-0.19941493534572183,-0.34644992703694566,0.17157768230089884,0.8223004132772321,-0.04639566424589555
9525,5.0,300.11442999999997,2232.5411,0.0,0.0,0.0,0.0,0.09493386128589333,0.0,-0.2198290776279408,-0.18189225421136782,-0.27691539574442176,0.19157649336712781,0.8149381076531292,-0.05084116024438186
9526,5.0,299.52749,2235.2251,0.0,0.0,0.0,0.0,0.09494382809547716,0.0,-0.17654310428344783,-0.1905854942393238,-0.3123240284389817,0.18702863175078882,0.8075220288462192,-0.026796107156319877
9527,5.0,299.51352,2509.7705,0.0,0.0,0.0,0.0,0.09495379490506098,0.0,-0.26994176272617776,-0.18367405451221783,-0.3092917457922187,0.2043174851595658,0.7912103639663832,-0.037630594918350566
9528,5.0,299.54128,2434.8379999999997,0.0,0.0,0.0,0.0,0.09496376171464481,0.0,-0.2033158367732108,-0.2065252254049528,-0.3302889020494767,0.2234371193790268,0.8153394864152422,-0.052481690176539544
9529,5.0,298.97215,2127.1661,0.0,0.0,0.0,0.0,0.09497372852422861,0.0,-0.1911991995598918,-0.1868460947452738,-0.26856008475731674,0.2136684967549388,0.8149850717952642,-0.09440280043758101
9530,5.0,299.73271,2303.0162,0.0,0.0,0.0,0.0,0.09498369533381244,0.0,-0.15045072870583087,-0.2025695983395628,-0.34703909144009165,0.19210716284200083,0.8174167808427553,-0.08103564642784562
9531,5.0,300.15344,2631.1002,0.0,0.0,0.0,0.0,0.09499366214339625,0.0,-0.2671332968940037,-0.2109082514950238,-0.3217472239714787,0.15639770632525185,0.7969151241493992,-0.08466167336820661
9532,5.0,300.55977,2631.1331,0.0,0.0,0.0,0.0,0.09500362895298008,0.0,-0.2342867582698028,-0.24069112711686474,-0.3248208776198247,0.15073496562388286,0.8197806730610533,-0.08695629778316842
9533,5.0,300.03215,2237.9177,0.0,0.0,0.0,0.0,0.0950135957625639,0.0,-0.2236592238009468,-0.18650303865891682,-0.27010884766766774,0.15954310821317885,0.8277999193874912,-0.056957056787973845
9534,5.0,300.24978,2226.4953,0.0,0.0,0.0,0.0,0.09502356257214772,0.0,-0.16290087718956484,-0.2094685244279338,-0.3044295841273607,0.15006260325502585,0.8383342855096522,-0.062367384730431644
9535,5.0,300.47809,2612.2504,0.0,0.0,0.0,0.0,0.09503352938173154,0.0,-0.24664633232709776,-0.2086484504594988,-0.3387640906559127,0.19773300097472782,0.8061979744105453,-0.028940719893976674
9536,5.0,300.38266,2813.7294,0.0,0.0,0.0,0.0,0.09504349619131536,0.0,-0.22524248787720277,-0.2547676028061047,-0.37529338809357365,0.2051247719117388,0.7993232143370592,-0.0915984696790651
9537,5.0,299.06896,2556.5259,0.0,0.0,0.0,0.0,0.09505346300089919,0.0,-0.26315219672109974,-0.2235307639532688,-0.2904370663414067,0.23477414170040375,0.8009528954003963,-0.049797034387334654
9538,5.0,299.86066,2068.0736,0.0,0.0,0.0,0.0,0.09506342981048299,0.0,-0.17547769206829983,-0.15976813079538685,-0.2933969016060198,0.2218890150812408,0.8162383709764552,-0.06040639216264674
9539,5.0,300.72517999999997,2173.8048,0.0,0.0,0.0,0.0,0.09507339662006682,0.0,-0.23282426347296578,-0.17884542129316883,-0.24911270466050975,0.2052418326957918,0.8106661236415172,-0.02640995045045918
9540,5.0,300.24667999999997,2681.7998,0.0,0.0,0.0,0.0,0.09508336342965064,0.0,-0.23067870638621576,-0.2077007779059708,-0.37682068023430565,0.18478321886668383,0.8402909322477583,-0.08395133742535192
9541,5.0,299.17987999999997,2644.2873,0.0,0.0,0.0,0.0,0.09509333023923446,0.0,-0.26799116509116877,-0.2080655986044758,-0.3277405375179727,0.1880591273674908,0.8289400790625162,-0.05698998842947395
9542,5.0,299.25172000000003,2021.6284,0.0,0.0,0.0,0.0,0.09510329704881827,0.0,-0.15494611409949086,-0.18669393497775683,-0.2728845044616038,0.18231397903548882,0.8415234091393943,-0.0957878028800201
9543,5.0,299.35317000000003,2097.9126,0.0,0.0,0.0,0.0,0.0951132638584021,0.0,-0.2105819343003188,-0.14279185490995885,-0.2843392563120997,0.16315674310481684,0.7856892654964933,-0.036972571051658666
9544,5.0,300.11612,2535.9849,0.0,0.0,0.0,0.0,0.09512323066798593,0.0,-0.26184623893221176,-0.2297113159857418,-0.2793185311390927,0.17586163279619185,0.8086041698205183,-0.09701102271874251
9545,5.0,300.45491,2301.1339,0.0,0.0,0.0,0.0,0.09513319747756974,0.0,-0.21080893272022178,-0.19561147818034982,-0.2930668455184457,0.17829811425165384,0.8113638273953752,-0.039435557103236464
9546,5.0,299.80568,1978.5354,0.0,0.0,0.0,0.0,0.09514316428715357,0.0,-0.1320833313606099,-0.18699949067791283,-0.28234252540003774,0.1956084586950518,0.8123906145167112,-0.08764502312789033
9547,5.0,300.40619,2158.7559,0.0,0.0,0.0,0.0,0.09515313109673738,0.0,-0.14175446919257687,-0.21015122194781083,-0.3043022084572897,0.1947332132586718,0.7940972958863012,-0.05645727522914925
9548,5.0,300.64711,2348.7734,0.0,0.0,0.0,0.0,0.0951630979063212,0.0,-0.17562382299772183,-0.22935878601094975,-0.3089858557195297,0.17888050001163083,0.8117432287628191,-0.10733848722348391
9549,5.0,300.47978,2691.6888,0.0,0.0,0.0,0.0,0.09517306471590502,0.0,-0.25929783387070376,-0.24765114205376476,-0.3112572078061947,0.22509653933279877,0.8290560961989663,-0.07644740578177152
9550,5.0,300.53049,2621.8645,0.0,0.0,0.0,0.0,0.09518303152548885,0.0,-0.2585159594310388,-0.2154756587057918,-0.3229897219066037,0.18324882384275082,0.8247352330025302,-0.06568915597051495
9551,5.0,300.51596,2275.1575,0.0,0.0,0.0,0.0,0.09519299833507266,0.0,-0.2256068120831588,-0.18628115715201882,-0.2797031000820467,0.23116064866377975,0.8026462693650191,-0.02453330386074858
9552,5.0,300.43345,2301.4745,0.0,0.0,0.0,0.0,0.09520296514465648,0.0,-0.16883992106070284,-0.20788954639960078,-0.3228613329864327,0.1791095046667318,0.8121287197633643,-0.07131699831193973
9553,5.0,300.52966000000004,2603.1792,0.0,0.0,0.0,0.0,0.09521293195424031,0.0,-0.25323752422759777,-0.1942567627966498,-0.34380718839112767,0.20890854162766778,0.8206587353327113,-0.041790497256900955
9554,5.0,299.78942,2519.7447,0.0,0.0,0.0,0.0,0.09522289876382412,0.0,-0.2054992792811998,-0.2075217467458018,-0.3529184548803397,0.15527285685923786,0.8299579597154733,-0.07399518348600602
9555,5.0,300.04812000000004,2178.0773,0.0,0.0,0.0,0.0,0.09523286557340795,0.0,-0.24714666509397676,-0.16515321057185287,-0.24978124707648974,0.16664455259903685,0.8117018172312322,-0.045066547612721955
9556,5.0,299.91955,2181.3706,0.0,0.0,0.0,0.0,0.09524283238299178,0.0,-0.2002199828151738,-0.17783068171552183,-0.2850315290454217,0.15940186114923885,0.8260434807366442,-0.06623600299648454
9557,5.0,299.08287,2362.8139,0.0,0.0,0.0,0.0,0.0952527991925756,0.0,-0.2353497994797168,-0.1973157952460528,-0.2855708415436477,0.1968086331734998,0.8271839545192002,-0.03417084231939957
9558,5.0,299.31026,2371.5570000000002,0.0,0.0,0.0,0.0,0.09526276600215941,0.0,-0.17034405030414884,-0.2029864089006988,-0.34756364088436065,0.2038682911252338,0.8220894850039152,-0.08027168321019833
9559,5.0,299.91489,2416.8049,0.0,0.0,0.0,0.0,0.09527273281174323,0.0,-0.2054521428865478,-0.21268678913055178,-0.3165094099645467,0.23289211069966176,0.7888012807936253,-0.035395563794770164
9560,5.0,298.99604,2307.4908,0.0,0.0,0.0,0.0,0.09528269962132706,0.0,-0.17499087605775482,-0.2175513724631488,-0.30887734676632067,0.2335692353439888,0.8125980876071872,-0.09759097465197931
9561,5.0,299.29113,2227.0005,0.0,0.0,0.0,0.0,0.09529266643091087,0.0,-0.2369379980839598,-0.16905722267714884,-0.27095734330140775,0.22810698643990676,0.8349664853572761,-0.06776143784978324
9562,5.0,300.40591,2389.139,0.0,0.0,0.0,0.0,0.09530263324049469,0.0,-0.2217882878887998,-0.2105074806829708,-0.2939428407598997,0.17041594039874383,0.8288925069703211,-0.08569785534446983
9563,5.0,299.91774,2521.3114,0.0,0.0,0.0,0.0,0.09531260005007852,0.0,-0.25045563594554676,-0.18832109304834482,-0.3276389997254517,0.14542733868506086,0.8122305007359092,-0.06601089023501763
9564,5.0,299.45371,2374.8688,0.0,0.0,0.0,0.0,0.09532256685966232,0.0,-0.16834194916655684,-0.23231085977979676,-0.3212480159122107,0.14994031410045686,0.7842350894829773,-0.08331492517004291
9565,5.0,300.07309,2109.6895,0.0,0.0,0.0,0.0,0.09533253366924616,0.0,-0.17160416865851283,-0.1958503417589238,-0.27383840850324676,0.18010355367733683,0.8307162760903132,-0.09904886524036191
9566,5.0,299.57524,2236.0311,0.0,0.0,0.0,0.0,0.09534250047882999,0.0,-0.15537572200938984,-0.2117859084666418,-0.3125359902274007,0.19317405440229482,0.8137250142359062,-0.07942878274351052
9567,5.0,299.76472,2374.7484,0.0,0.0,0.0,0.0,0.0953524672884138,0.0,-0.24582938930147175,-0.2056395029625388,-0.27039533400094173,0.20280037618233882,0.8252563171314572,-0.08187924603710242
9568,5.0,300.33726,2456.6069,0.0,0.0,0.0,0.0,0.09536243409799762,0.0,-0.2134109589770218,-0.22765756949055277,-0.30567860739312974,0.18299153937735882,0.8164515385324932,-0.06782663846721804
9569,5.0,299.63156000000004,2381.3237,0.0,0.0,0.0,0.0,0.09537240090758144,0.0,-0.23083907347954277,-0.18895812338621482,-0.3040657361489517,0.22480250428627976,0.8223587764829922,-0.03907484918688736
9570,5.0,300.19517,2383.697,0.0,0.0,0.0,0.0,0.09538236771716527,0.0,-0.17435224478472683,-0.22315156523584478,-0.32708055706533773,0.21425334471265878,0.8123990042275392,-0.04518232764864855
9571,5.0,299.06487000000004,2540.8195,0.0,0.0,0.0,0.0,0.0953923345267491,0.0,-0.2397351864425208,-0.18382594070220784,-0.3487845667248567,0.1957633441053378,0.7800006869175742,-0.01065088583066059
9572,5.0,298.13232999999997,2827.5074,0.0,0.0,0.0,0.0,0.0954023013363329,0.0,-0.26060934427013976,-0.24034294398500178,-0.3585393686175807,0.1962305030639428,0.7926200684330102,-0.08177270076258722
9573,5.0,299.11564,2668.0459,0.0,0.0,0.0,0.0,0.09541226814591673,0.0,-0.2812288318176247,-0.2077144669148218,-0.3220760236289287,0.17378990111172785,0.8272344549041842,-0.03304116471665907
9574,5.0,298.69756,2039.8969,0.0,0.0,0.0,0.0,0.09542223495550053,0.0,-0.1965776121506998,-0.16409178042959785,-0.25940832879410874,0.19252704355093983,0.8280989193595002,-0.08720324101803982
9575,5.0,298.70315,2125.6679999999997,0.0,0.0,0.0,0.0,0.09543220176508437,0.0,-0.2080709283000018,-0.16837459608477884,-0.26970446968525874,0.16597338586529783,0.8202016987426052,-0.04642728879476666
9576,5.0,299.37045,2522.0215,0.0,0.0,0.0,0.0,0.0954421685746682,0.0,-0.2263841572948768,-0.2037296886440548,-0.3365177151842127,0.1946473707101998,0.8196507034707262,-0.07158372221526334
9577,5.0,299.40735,2366.7765,0.0,0.0,0.0,0.0,0.09545213538425201,0.0,-0.1924505431683898,-0.22394902346204779,-0.3030413808278557,0.1949140074740148,0.8283177408510962,-0.05971021233693915
9578,5.0,299.97519,1915.6026,0.0,0.0,0.0,0.0,0.09546210219383583,0.0,-0.13495663506668287,-0.20049270921208978,-0.2468460033918038,0.2025188547745548,0.8170748595965103,-0.08880021740789912
9579,5.0,301.1165,2168.3304,0.0,0.0,0.0,0.0,0.09547206900341965,0.0,-0.20131755558849582,-0.18467862105886082,-0.27312212174255474,0.2039472739705288,0.8011465274945063,-0.05827652120069485
9580,5.0,299.59995,2546.6642,0.0,0.0,0.0,0.0,0.09548203581300348,0.0,-0.24006727916279574,-0.2359217183661608,-0.2981333189334677,0.17350664704627283,0.8080622228720322,-0.07590237753973143
9581,5.0,299.62685,2708.9283,0.0,0.0,0.0,0.0,0.09549200262258731,0.0,-0.27378326743280473,-0.2252993514728148,-0.3243639524872297,0.18052240087117383,0.8352857705962873,-0.07283833152883364
9582,5.0,299.783,2516.1825,0.0,0.0,0.0,0.0,0.09550196943217111,0.0,-0.1990633071635188,-0.2218665614590248,-0.34392678230043067,0.2047912099788188,0.8010336716983683,-0.07778094930463202
9583,5.0,298.69992,2234.8265,0.0,0.0,0.0,0.0,0.09551193624175494,0.0,-0.19239607084301383,-0.18315289945578384,-0.30378246181849466,0.20157754543165482,0.7967437227624833,-0.08204692271665082
9584,5.0,298.88274,2312.3136,0.0,0.0,0.0,0.0,0.09552190305133874,0.0,-0.18726968394957882,-0.1924975478405288,-0.3231183742718007,0.20577775080618282,0.7885223431735963,-0.09137670165617832
9585,5.0,299.0881,2578.6053,0.0,0.0,0.0,0.0,0.09553186986092257,0.0,-0.26973294201306874,-0.1933404402012158,-0.3207582513438747,0.17018736130868484,0.8219447016971262,-0.048205167817729655
9586,5.0,300.38374,2338.6402,0.0,0.0,0.0,0.0,0.0955418366705064,0.0,-0.2057985730957378,-0.2040908717747008,-0.3009987902162677,0.16737347458847585,0.8243930787087622,-0.07112799069128613
9587,5.0,300.83551,1965.1428,0.0,0.0,0.0,0.0,0.09555180348009022,0.0,-0.19702985606783283,-0.14618176417951687,-0.2541427314694347,0.18557530686735682,0.8317775542450532,-0.018452431320113184
9588,5.0,300.75366,2226.6409,0.0,0.0,0.0,0.0,0.09556177028967404,0.0,-0.16825411051538786,-0.1966022543931318,-0.3119868796007077,0.21518604142970876,0.8367634134821191,-0.07695531461964822
9589,5.0,299.87737999999996,2833.8799,0.0,0.0,0.0,0.0,0.09557173709925786,0.0,-0.2795521866121527,-0.23132532207003179,-0.3505512189367117,0.2088776273671168,0.8240316523980922,-0.02227864000323058
9590,5.0,300.83319,2797.3107,0.0,0.0,0.0,0.0,0.09558170390884169,0.0,-0.23109129169443476,-0.25103530619525577,-0.36818600606212964,0.21337766357873578,0.7986964786202052,-0.07515188041591313
9591,5.0,300.0662,2386.5433,0.0,0.0,0.0,0.0,0.09559167071842552,0.0,-0.23208311155481978,-0.19419063809512382,-0.29917581143135374,0.2047859512107998,0.7977101708403642,-0.051109719143636545
9592,5.0,299.96495,2368.5156,0.0,0.0,0.0,0.0,0.09560163752800932,0.0,-0.2006324465333808,-0.18762909389254984,-0.3317080500070357,0.20847642085752083,0.8082713982226762,-0.06330116765158884
9593,5.0,299.11156,2342.3513,0.0,0.0,0.0,0.0,0.09561160433759315,0.0,-0.25841958921402775,-0.15782590260620386,-0.2957708148678067,0.1873281383478478,0.8357545710200541,-0.06434217573807834
9594,5.0,299.89412000000004,2386.3731,0.0,0.0,0.0,0.0,0.09562157114717695,0.0,-0.21518996270759577,-0.19322129212195682,-0.3169865899666407,0.16002213233045484,0.8105173278643322,-0.07870729395680513
9595,5.0,300.63844,2407.4056,0.0,0.0,0.0,0.0,0.09563153795676078,0.0,-0.24569428253313774,-0.1913175167740688,-0.2947793901749607,0.18300522838620983,0.8254686538224132,-0.08640181895744561
9596,5.0,300.6271,2097.0759,0.0,0.0,0.0,0.0,0.09564150476634461,0.0,-0.17224036813130084,-0.1962779231686228,-0.26894040818235176,0.18984345066108982,0.8184183886991062,-0.06992680802898864
9597,5.0,299.64651000000003,2133.3267,0.0,0.0,0.0,0.0,0.09565147157592843,0.0,-0.18715115395288082,-0.1988361263585978,-0.26249075718832077,0.21669471003360277,0.8379124086980162,-0.1053844141406319
9598,5.0,299.89352,2599.4797,0.0,0.0,0.0,0.0,0.09566143838551225,0.0,-0.21969664583987078,-0.22726382050169278,-0.3432164534503267,0.19484270506447782,0.8359031033522133,-0.03467392504704996
9599,5.0,299.27648,2595.6283,0.0,0.0,0.0,0.0,0.09567140519509607,0.0,-0.2054904538728288,-0.24840021758769276,-0.3351155290333277,0.17119639628826883,0.8412154013739962,-0.06904396321685864
9600,5.0,300.03988,2385.9621,0.0,0.0,0.0,0.0,0.0956813720046799,0.0,-0.17487412938123284,-0.1946049661935148,-0.35579382561661665,0.17966744070179583,0.8428813973209172,-0.043848525747012555
9601,5.0,299.2637,2273.4277,0.0,0.0,0.0,0.0,0.09569133881426373,0.0,-0.2166184933610808,-0.16403783499427385,-0.31040892495497574,0.17163839624689084,0.8409605993713493,-0.07774013660385412
9602,5.0,298.32161,2417.8815,0.0,0.0,0.0,0.0,0.09570130562384753,0.0,-0.23331863832925676,-0.1951852038632798,-0.3064717694389087,0.21366054274165378,0.8006040333909662,-0.05598779896756555
9603,5.0,298.89974,2448.367,0.0,0.0,0.0,0.0,0.09571127243343136,0.0,-0.2448991649146658,-0.17712318996569784,-0.3222200875281467,0.19170587527239683,0.7785281913422503,-0.06625359808447102
9604,5.0,299.22837000000004,2305.6516,0.0,0.0,0.0,0.0,0.09572123924301516,0.0,-0.1970211522494738,-0.2021308205162588,-0.3017085516463157,0.22638053999201982,0.7997360225603002,-0.07020625328731772
9605,5.0,300.08928,2116.6214,0.0,0.0,0.0,0.0,0.095731206052599,0.0,-0.2080468940076298,-0.15596519038756584,-0.2793879691684457,0.2160741348773568,0.8105667238067072,-0.050943830850514654
9606,5.0,299.94917000000004,2056.8602,0.0,0.0,0.0,0.0,0.09574117286218282,0.0,-0.18050120367908185,-0.16372352481325383,-0.2810093922434677,0.2288412583898738,0.8276856247762112,-0.0976387230496917
9607,5.0,299.98174,2402.794,0.0,0.0,0.0,0.0,0.09575113967176664,0.0,-0.2336718877116198,-0.1986166361219358,-0.29810085440026374,0.1906776797334218,0.8359601493328432,-0.05950638390707284
9608,5.0,300.19444,2806.259,0.0,0.0,0.0,0.0,0.09576110648135046,0.0,-0.25819501246186377,-0.23301068122636376,-0.3618269801570426,0.1840891324156828,0.8560520274207573,-0.07257876117121603
9609,5.0,301.11046,2550.1411,0.0,0.0,0.0,0.0,0.09577107329093427,0.0,-0.23183316302015175,-0.21694467883327279,-0.3264013755233077,0.14268241376665786,0.8599725859001862,-0.05181472539096525
9610,5.0,300.4014,2006.3142,0.0,0.0,0.0,0.0,0.0957810401005181,0.0,-0.14932439989467086,-0.16536194009245284,-0.29518307914730174,0.17513496022197483,0.8371461281773903,-0.05668974621284235
9611,5.0,300.28092000000004,2254.1872,0.0,0.0,0.0,0.0,0.09579100691010194,0.0,-0.16948723588708786,-0.2042279239832268,-0.3115014720078017,0.18205435396236583,0.8187007916344772,-0.03570196353225947
9612,5.0,299.85132000000004,2505.9218,0.0,0.0,0.0,0.0,0.09580097371968574,0.0,-0.23035839776460376,-0.2116907946797548,-0.3196884517557937,0.21617608810241878,0.8189852109375472,-0.05517637308873405
9613,5.0,300.06411,2498.4818,0.0,0.0,0.0,0.0,0.09581094052926957,0.0,-0.24857113261456076,-0.21815587747280882,-0.2927490598895827,0.21534406791530478,0.8221497429873622,-0.07127034118458503
9614,5.0,299.47717,2296.8498,0.0,0.0,0.0,0.0,0.09582090733885339,0.0,-0.22788044398254878,-0.2121972170797348,-0.2581073257982097,0.23690484454068778,0.8146519354273862,-0.085174756874344
9615,5.0,298.81003,2229.2252,0.0,0.0,0.0,0.0,0.0958308741484372,0.0,-0.20085173412002283,-0.2036450822607048,-0.27313199079852873,0.20834243879679779,0.8005139655895772,-0.08938811828817042
9616,5.0,298.81077999999997,2337.9605,0.0,0.0,0.0,0.0,0.09584084095802103,0.0,-0.2050404087084128,-0.2142372340360688,-0.2914039805143337,0.18656087497462484,0.8040489520084533,-0.1056880142680949
9617,5.0,299.71595,2825.7668,0.0,0.0,0.0,0.0,0.09585080776760485,0.0,-0.23976649587061077,-0.25420625211820375,-0.36498979981418866,0.15323712595082684,0.8114680705656632,-0.07477075854979932
9618,5.0,300.48981000000003,2557.1967,0.0,0.0,0.0,0.0,0.09586077457718867,0.0,-0.24256228594403378,-0.2088158697735218,-0.32594578788084466,0.16731774583297584,0.8019839787021562,-0.07941857019575263
9619,5.0,300.3419,2046.5109,0.0,0.0,0.0,0.0,0.09587074138677248,0.0,-0.1773635936844238,-0.18522085171737482,-0.2595037769535287,0.2026848859359408,0.8394199120642951,-0.05851624198885345
9620,5.0,300.19298,2095.3424,0.0,0.0,0.0,0.0,0.09588070819635632,0.0,-0.17215028006490984,-0.17873859433512584,-0.28604290463273674,0.2278877900457738,0.8463740602831162,-0.07552990680297143
9621,5.0,299.40668999999997,2627.7253,0.0,0.0,0.0,0.0,0.09589067500594015,0.0,-0.25561055596179777,-0.21674345749591378,-0.3264088533090457,0.20648559719354181,0.8340628486530941,-0.03230607406061126
9622,5.0,299.97496,2699.5212,0.0,0.0,0.0,0.0,0.09590064181552395,0.0,-0.2282495507289768,-0.2391658716088338,-0.35317161541782466,0.17791398100624284,0.8154554224916842,-0.042796038550140164
9623,5.0,300.40389,2243.5673,0.0,0.0,0.0,0.0,0.09591060862510778,0.0,-0.1938891049978648,-0.1995319657322718,-0.28856736659438176,0.19188011375959282,0.8029961750220522,-0.03703137907421257
9624,5.0,300.57693,2119.6773,0.0,0.0,0.0,0.0,0.0959205754346916,0.0,-0.16584359865998885,-0.17953923416664283,-0.2989461278986857,0.2016142453502768,0.8189590792174682,-0.07169482407547823
9625,5.0,299.34828999999996,2430.0938,0.0,0.0,0.0,0.0,0.09593054224427541,0.0,-0.25641125658832076,-0.17183011329831185,-0.3104464557386797,0.18737091776706982,0.8278491329448483,-0.06634922761565894
9626,5.0,299.43311,2816.6834,0.0,0.0,0.0,0.0,0.09594050905385924,0.0,-0.28434227579739774,-0.22398719259331476,-0.3478719627572897,0.18292378334317183,0.8120235748004871,-0.07504757239761872
9627,5.0,298.10738,2584.6982,0.0,0.0,0.0,0.0,0.09595047586344306,0.0,-0.2608557058994538,-0.2002230023004718,-0.3246050148185207,0.18526772466700084,0.8225187990712852,-0.09715773626697201
9628,5.0,298.86554,2104.9774,0.0,0.0,0.0,0.0,0.09596044267302688,0.0,-0.16036696160448685,-0.15804911147073286,-0.3214444952391017,0.21316745471298978,0.8374666597140242,-0.05328644177696235
9629,5.0,299.21062,1990.6733,0.0,0.0,0.0,0.0,0.0959704094826107,0.0,-0.13757762936535486,-0.17397444435244083,-0.29356289223740173,0.22173189038823382,0.8401731013936293,-0.06751283491124803
9630,5.0,300.04399,2557.5213,0.0,0.0,0.0,0.0,0.09598037629219452,0.0,-0.22792691163213477,-0.2214431242422348,-0.3280525678862677,0.1931107262710448,0.8245886562430642,-0.02165399664783308
9631,5.0,299.74347,2535.385,0.0,0.0,0.0,0.0,0.09599034310177836,0.0,-0.24615315310592478,-0.2086922735263238,-0.31584831493680166,0.1936509000318558,0.8129169979436612,-0.04895634584561515
9632,5.0,300.18953,2210.0808,0.0,0.0,0.0,0.0,0.09600030991136216,0.0,-0.18447077306584783,-0.2183153529060478,-0.26902324137802675,0.17985034247734683,0.8288472045583503,-0.04695879116122186
9633,5.0,299.98573999999996,2390.3069,0.0,0.0,0.0,0.0,0.09601027672094599,0.0,-0.20040498201843182,-0.23205814507235578,-0.2941304744134177,0.1848946763776838,0.8308342791969592,-0.10390619370224291
9634,5.0,300.3501,2879.8129,0.0,0.0,0.0,0.0,0.0960202435305298,0.0,-0.25442409075720274,-0.25299785004894376,-0.36796926173323863,0.15458246877110185,0.8080891550596903,-0.07312950313057003
9635,5.0,300.35146000000003,2805.5266,0.0,0.0,0.0,0.0,0.09603021034011362,0.0,-0.25825969834824775,-0.24152920653957677,-0.35302112751297265,0.17753586646642583,0.8086213646747152,-0.1028724962152249
9636,5.0,299.91745,2314.5258,0.0,0.0,0.0,0.0,0.09604017714969745,0.0,-0.21261685460864976,-0.17288569698748985,-0.3180554978946337,0.1935910473484488,0.8363119599000641,-0.04994304271349455
9637,5.0,299.03382999999997,1848.4049,0.0,0.0,0.0,0.0,0.09605014395928127,0.0,-0.1863457113158898,-0.13251682001839185,-0.24300639346286376,0.23561692260357975,0.8295520415929122,-0.06771285048098803
9638,5.0,299.71173,2091.3944,0.0,0.0,0.0,0.0,0.09606011076886509,0.0,-0.18726451637406882,-0.17216618809147982,-0.27630096088378175,0.21419643045454181,0.8215788373510182,-0.06135180516845174
9639,5.0,299.2441,2509.366,0.0,0.0,0.0,0.0,0.0960700775784489,0.0,-0.23059063468752378,-0.2062230640926318,-0.32597090635082365,0.2093925104054318,0.8196483223329912,-0.07328433585185083
9640,5.0,299.38988,2676.7854,0.0,0.0,0.0,0.0,0.09608004438803273,0.0,-0.23652885782608077,-0.2424996873528558,-0.33464737708962466,0.18699986558044984,0.8459006698363961,-0.08337979749444532
9641,5.0,299.4899,2470.6106,0.0,0.0,0.0,0.0,0.09609001119761654,0.0,-0.22384825573960282,-0.2055044671217118,-0.3216511982595017,0.1944093785267118,0.8331935712598032,-0.040143614246616256
9642,5.0,298.99158,2444.9019,0.0,0.0,0.0,0.0,0.09609997800720037,0.0,-0.2215921429344418,-0.22450013019143777,-0.29709684514117574,0.1938071229322738,0.8194488235208022,-0.07734857826171032
9643,5.0,299.22772000000003,2832.1669,0.0,0.0,0.0,0.0,0.09610994481678418,0.0,-0.2879421811501807,-0.23547643547721478,-0.3374894017651107,0.2024849108962048,0.7973386525586982,-0.03941417245987596
9644,5.0,300.15796,2752.9522,0.0,0.0,0.0,0.0,0.09611991162636802,0.0,-0.26131670429745074,-0.21983467076849278,-0.35567735251762167,0.2041665615571708,0.8204621850783133,-0.05791628343239215
9645,5.0,300.03952999999996,2188.1423,0.0,0.0,0.0,0.0,0.09612987843595182,0.0,-0.16781900065744584,-0.2095708221580298,-0.2877508086037937,0.1957163090356958,0.8276525928229511,-0.07632867414830363
9646,5.0,299.94268999999997,1938.4227,0.0,0.0,0.0,0.0,0.09613984524553565,0.0,-0.16463515606072485,-0.14366002786064086,-0.28093689419881274,0.1915655198685448,0.8283624758430111,-0.11762983544166088
9647,5.0,300.05342,2180.6799,0.0,0.0,0.0,0.0,0.09614981205511948,0.0,-0.1891077297634798,-0.17018596302354685,-0.30357855536837075,0.18598989841077382,0.8368529138634523,-0.07189841945782152
9648,5.0,299.05386,2223.7206,0.0,0.0,0.0,0.0,0.09615977886470328,0.0,-0.2040112607143438,-0.18071874847555183,-0.2912255269067217,0.17583187364075484,0.8578850677791641,-0.08170614948276912
9649,5.0,300.64356000000004,2495.9084,0.0,0.0,0.0,0.0,0.09616974567428711,0.0,-0.23056599244509177,-0.19819500249032382,-0.3299328358318357,0.1911212907597028,0.8440422982254893,-0.04110696380569146
9650,5.0,299.74311,2654.1456,0.0,0.0,0.0,0.0,0.09617971248387093,0.0,-0.23426378789003577,-0.23242605618366577,-0.3401041443106657,0.19056459088976083,0.8308976275932113,-0.05768692616625635
9651,5.0,299.97186,2743.955,0.0,0.0,0.0,0.0,0.09618967929345475,0.0,-0.22897280865035677,-0.25881724934827377,-0.3463037251800167,0.2131395700702378,0.8008698696872022,-0.052482095476579546
9652,5.0,300.44527,2714.2945,0.0,0.0,0.0,0.0,0.09619964610303856,0.0,-0.25096238258555875,-0.2195163075870728,-0.35459906189370266,0.2242699704312228,0.8245687357460982,-0.05187782959394315
9653,5.0,300.81575,2751.5941,0.0,0.0,0.0,0.0,0.0962096129126224,0.0,-0.24397509095596678,-0.22678739030467276,-0.36565340770218163,0.1994608153102498,0.8162083990384972,-0.035231251105553765
9654,5.0,299.92368999999997,2408.4456,0.0,0.0,0.0,0.0,0.0962195797222062,0.0,-0.24612905801854676,-0.17724968410818182,-0.30872859151913973,0.18204222535866882,0.8093080138699823,-0.056631546140348446
9655,5.0,301.28649,2115.8275,0.0,0.0,0.0,0.0,0.09622954653179003,0.0,-0.2050499636568558,-0.13451324695542388,-0.30359551717504474,0.17233746788838383,0.8092595906477033,-0.04070199408522406
9656,5.0,299.80418,2098.8222,0.0,0.0,0.0,0.0,0.09623951334137386,0.0,-0.18142616929786884,-0.16978443227391884,-0.2867789396378777,0.18614705350128383,0.8386857921018432,-0.07192262802921072
9657,5.0,299.38076,2289.4255,0.0,0.0,0.0,0.0,0.09624948015095768,0.0,-0.18480150803098883,-0.16343883193265685,-0.34768783494911765,0.18984444364618783,0.8291593159866532,-0.07426687535456993
9658,5.0,299.6196,2483.3031,0.0,0.0,0.0,0.0,0.09625944696054149,0.0,-0.21906197637473376,-0.2265922282029118,-0.3092079196114457,0.17859763098121384,0.8484537054508612,-0.1187929148339479
9659,5.0,299.33668,2458.9061,0.0,0.0,0.0,0.0,0.09626941377012531,0.0,-0.21011791641702382,-0.21812815495007282,-0.3191999841475857,0.2107151564234668,0.8355939607467033,-0.090745008106585
9660,5.0,300.16044,2437.8198,0.0,0.0,0.0,0.0,0.09627938057970914,0.0,-0.23613445022465576,-0.2027928274690938,-0.3021090792783447,0.1930302134180988,0.8576440662428793,-0.07146344233564263
9661,5.0,300.79152999999997,2446.9583,0.0,0.0,0.0,0.0,0.09628934738929296,0.0,-0.2168307591245298,-0.2163824972802898,-0.31060095611392774,0.2158035464381518,0.8380941958984571,-0.050285245643267355
9662,5.0,300.59255,2528.2415,0.0,0.0,0.0,0.0,0.09629931419887677,0.0,-0.24236002095907178,-0.20731112244751482,-0.3188511322706567,0.18292595169838582,0.8286238741038091,-0.04014160193191767
9663,5.0,300.87459,2632.1527,0.0,0.0,0.0,0.0,0.0963092810084606,0.0,-0.24032362130559476,-0.23085887238649677,-0.3289261921224877,0.17904179929504985,0.8077965385633112,-0.05113048266468575
9664,5.0,300.87102000000004,2280.721,0.0,0.0,0.0,0.0,0.0963192478180444,0.0,-0.19430299739871282,-0.18986153717537482,-0.30911769982254167,0.16784582138759283,0.8124793650929703,-0.06380222083928894
9665,5.0,299.52916,2024.4962,0.0,0.0,0.0,0.0,0.09632921462762824,0.0,-0.14674922476552088,-0.17191417252660784,-0.2967329161027587,0.2041511196256468,0.7996414153984632,-0.08011098681058883
9666,5.0,299.91925,2460.1912,0.0,0.0,0.0,0.0,0.09633918143721207,0.0,-0.23363949410592275,-0.1921983857485038,-0.3219988038388077,0.18640759049949682,0.8241935798965733,-0.07869967228955292
9667,5.0,299.20347999999996,2647.0289,0.0,0.0,0.0,0.0,0.09634914824679588,0.0,-0.26965146657252775,-0.21737000069524878,-0.31760923215309067,0.2027026786076968,0.8213557095464973,-0.08643506875947711
9668,5.0,299.1987,2258.68,0.0,0.0,0.0,0.0,0.0963591150563797,0.0,-0.18306031879414683,-0.21554149969728978,-0.2879805022689627,0.1970030657351888,0.8632806144291632,-0.0969698259961767
9669,5.0,300.44894,2184.6592,0.0,0.0,0.0,0.0,0.09636908186596352,0.0,-0.17852509240655484,-0.18267521282863983,-0.30288154062458067,0.2069377093881618,0.8518633629648682,-0.05251561378988754
9670,5.0,300.18442000000005,2452.0242,0.0,0.0,0.0,0.0,0.09637904867554735,0.0,-0.19140253858995981,-0.24063191278102078,-0.31331967838474467,0.2016482196261298,0.8299586892555453,-0.07378877329488494
9671,5.0,300.57128,2640.5746,0.0,0.0,0.0,0.0,0.09638901548513117,0.0,-0.24038079900873777,-0.21754130075715478,-0.3447466434863447,0.17675789303964584,0.8250201791956522,-0.03315944646708257
9672,5.0,300.26977,2729.0586,0.0,0.0,0.0,0.0,0.09639898229471498,0.0,-0.2733273454178088,-0.2301386744804188,-0.3260996600410307,0.18488826250455082,0.8118379473821672,-0.03762587013313426
9673,5.0,299.01507000000004,2437.6222,0.0,0.0,0.0,0.0,0.09640894910429881,0.0,-0.2282630370878078,-0.19020592061936284,-0.32250734393149666,0.2011998463243788,0.8086323584383003,-0.03179035306446357
9674,5.0,298.2726,2302.5570000000002,0.0,0.0,0.0,0.0,0.09641891591388262,0.0,-0.2142119230485708,-0.2029132319784768,-0.2827946781246617,0.2065098544009358,0.8233921294649762,-0.05841763654212184
9675,5.0,298.72882000000004,2534.8789,0.0,0.0,0.0,0.0,0.09642888272346645,0.0,-0.23354594072418977,-0.1979981685258978,-0.3389957601587767,0.2150790016891448,0.8096060917844002,-0.06784547174682673
9676,5.0,299.05515,2498.0109,0.0,0.0,0.0,0.0,0.09643884953305028,0.0,-0.21475069852424378,-0.2128197376761728,-0.3317625020674097,0.17631610586354482,0.8352951330272111,-0.0916517362368221
9677,5.0,299.34614,2052.1973,0.0,0.0,0.0,0.0,0.0964488163426341,0.0,-0.15924795859154983,-0.17070520303729184,-0.2938635843370777,0.1889495006278638,0.8362685623982812,-0.08348848275317172
9678,5.0,300.43286,1966.8199,0.0,0.0,0.0,0.0,0.09645878315221791,0.0,-0.17483269758464384,-0.17964243368932784,-0.24338899670062375,0.20445062622270582,0.8586321066803911,-0.08176947356101873
9679,5.0,300.45466,2442.8113,0.0,0.0,0.0,0.0,0.09646874996180173,0.0,-0.21607628296756878,-0.2278471485842628,-0.2986302167825077,0.19654001043948882,0.8503742298229022,-0.07553510781573473
9680,5.0,300.36685,2644.3364,0.0,0.0,0.0,0.0,0.09647871677138556,0.0,-0.27077172601558874,-0.21786792192688978,-0.31517259871011366,0.19815380374125782,0.8474643883182231,-0.05691555913012835
9681,5.0,299.33926,2565.419,0.0,0.0,0.0,0.0,0.09648868358096938,0.0,-0.1923577395917308,-0.25029320182201575,-0.33717238620632367,0.18752597542987282,0.8436316178274582,-0.04042516098565276
9682,5.0,299.46522000000004,2462.5829,0.0,0.0,0.0,0.0,0.09649865039055319,0.0,-0.22958082963786378,-0.18706661849703782,-0.3319162830350867,0.2013139484181398,0.8311510515757222,-0.05154779478462125
9683,5.0,299.87852999999996,2461.7005,0.0,0.0,0.0,0.0,0.09650861720013702,0.0,-0.1941859062171568,-0.2210786683137658,-0.3330309088075917,0.2124375904009578,0.7877747773823172,-0.03375192419805557
9684,5.0,300.11899,2453.5871,0.0,0.0,0.0,0.0,0.09651858400972083,0.0,-0.24935009902643876,-0.19880149347017978,-0.2976776198334937,0.1931059437305728,0.8096261541363803,-0.08857970986813672
9685,5.0,299.79107999999997,2527.7565,0.0,0.0,0.0,0.0,0.09652855081930466,0.0,-0.2141017321001958,-0.2067334179029998,-0.3475397281820007,0.18599143855092581,0.8144570063731482,-0.06486607062278274
9686,5.0,300.41347,2305.6778,0.0,0.0,0.0,0.0,0.09653851762888849,0.0,-0.24890905152291076,-0.2074010078638858,-0.24455839877353477,0.18860511718387582,0.8198053963634933,-0.1043093355195299
9687,5.0,301.35874,2110.0712,0.0,0.0,0.0,0.0,0.0965484844384723,0.0,-0.15789919098593683,-0.17120096604621984,-0.31230878915747773,0.18811141107265084,0.8134791693641432,-0.06598737067369644
9688,5.0,301.39934,2269.1053,0.0,0.0,0.0,0.0,0.09655845124805612,0.0,-0.1937005087567518,-0.19971100702494182,-0.2963398257264637,0.22243639305026278,0.8241439610391762,-0.08784491102811773
9689,5.0,301.26194,2660.1458,0.0,0.0,0.0,0.0,0.09656841805763994,0.0,-0.2274372078588048,-0.23197806791695277,-0.3492026235836157,0.1836313257555008,0.8357496162270651,-0.04366499474314946
9690,5.0,299.58468999999997,2735.0601,0.0,0.0,0.0,0.0,0.09657838486722377,0.0,-0.27123133626094875,-0.2252356383065268,-0.3349229912493257,0.2057080999943088,0.8083160116245793,-0.04197074127743966
9691,5.0,299.66035,2515.2947,0.0,0.0,0.0,0.0,0.09658835167680759,0.0,-0.2519248283255448,-0.20832552765262882,-0.3043364259131667,0.19268177697371083,0.7953200962394823,-0.04026734525607756
9692,5.0,300.43912,2481.2959,0.0,0.0,0.0,0.0,0.0965983184863914,0.0,-0.2615580503387697,-0.1971538778800728,-0.29554006742253375,0.23594751571370676,0.8185307176051922,-0.03471768427911867
9693,5.0,300.15699,2471.6343,0.0,0.0,0.0,0.0,0.09660828529597523,0.0,-0.19474416649225282,-0.2045105700986218,-0.35206037390065364,0.2049906581285028,0.8244557279624453,-0.05064967928023415
9694,5.0,299.74501000000004,2551.3884,0.0,0.0,0.0,0.0,0.09661825210555904,0.0,-0.19920376389238081,-0.2297579660203458,-0.3465966557839267,0.17752211666256884,0.8336533537576801,-0.057507310360779655
9695,5.0,299.70668,2535.5442,0.0,0.0,0.0,0.0,0.09662821891514287,0.0,-0.2056617235372318,-0.2045047540430478,-0.3605756466810457,0.17967638770017882,0.8128169901587913,-0.06649924739896473
9696,5.0,299.92992000000004,2168.7684,0.0,0.0,0.0,0.0,0.0966381857247267,0.0,-0.1958369972551068,-0.17630781747772684,-0.28710660445521574,0.2093404496152938,0.8230233266935782,-0.07364447837464413
9697,5.0,300.14036,1885.5941,0.0,0.0,0.0,0.0,0.09664815253431051,0.0,-0.16266395905118286,-0.16460773751301883,-0.24590183668362176,0.1982127647645768,0.8497896757077111,-0.1149290476976139
9698,5.0,299.7559,2212.6265,0.0,0.0,0.0,0.0,0.09665811934389433,0.0,-0.23400131558413179,-0.15689679279450786,-0.28168508820515376,0.19111480595906283,0.8192944244705642,-0.08316910834815192
9699,5.0,299.37212999999997,2621.5086,0.0,0.0,0.0,0.0,0.09666808615347815,0.0,-0.2347835142638288,-0.24224147069737179,-0.3198481805015577,0.18662024129798382,0.8342058182422042,-0.08954000853116081
9700,5.0,298.21535,2413.6985,0.0,0.0,0.0,0.0,0.09667805296306198,0.0,-0.21461237975309277,-0.1940166427879518,-0.32507504127490866,0.17099110168550782,0.8467269347629421,-0.044973284020517555
9701,5.0,298.68664,2330.502,0.0,0.0,0.0,0.0,0.0966880197726458,0.0,-0.17044550703666184,-0.2111907456229038,-0.3267781627054937,0.19780951148977882,0.8553510204715732,-0.06076715884750165
9702,5.0,300.01349,2637.4186,0.0,0.0,0.0,0.0,0.09669798658222961,0.0,-0.2188186139657158,-0.24262625242284677,-0.3402645418014957,0.16743221269677286,0.8344043240692951,-0.028344846761918577
9703,5.0,300.49933,2721.9591,0.0,0.0,0.0,0.0,0.09670795339181344,0.0,-0.2607750207939908,-0.2025959327096618,-0.36403662531261766,0.2042143666968888,0.8355742327672563,-0.03572302494883806
9704,5.0,299.95165,2555.4882,0.0,0.0,0.0,0.0,0.09671792020139724,0.0,-0.23268658304937778,-0.2150269814290108,-0.3290910377812567,0.19467210414514083,0.8237327537510932,-0.07067162689924653
9705,5.0,300.12842,2249.51,0.0,0.0,0.0,0.0,0.09672788701098108,0.0,-0.1868320409663868,-0.1986722838174278,-0.2982905348189837,0.2058973041854818,0.8234829166739361,-0.1130339356380809
9706,5.0,299.27592000000004,2079.5347,0.0,0.0,0.0,0.0,0.0967378538205649,0.0,-0.17368346932122383,-0.16178110410655183,-0.29666204939076474,0.18891141255660482,0.8239146118790412,-0.08856226778091532
9707,5.0,299.93829,2237.572,0.0,0.0,0.0,0.0,0.09674782063014872,0.0,-0.2005532002430598,-0.18857250066315684,-0.29104030478844173,0.18457892738152182,0.8510814175976963,-0.1002613770520275
9708,5.0,300.07027999999997,2466.5324,0.0,0.0,0.0,0.0,0.09675778743973254,0.0,-0.23797246564105376,-0.19067861192351382,-0.3211131928539047,0.18251761190808583,0.8522198648800523,-0.03442834868656346
9709,5.0,300.53875,2146.4379,0.0,0.0,0.0,0.0,0.09676775424931636,0.0,-0.1934426062087988,-0.17178591532894982,-0.2872349933753867,0.2069406376809508,0.8456465771088192,-0.06212902169740704
9710,5.0,300.17899,2210.5301,0.0,0.0,0.0,0.0,0.09677772105890019,0.0,-0.18307331879292982,-0.21247939710008382,-0.27639325783539076,0.2067296688776298,0.8431780870826981,-0.05865449388549785
9711,5.0,300.91038,2771.3705,0.0,0.0,0.0,0.0,0.09678768786848402,0.0,-0.23508713465629374,-0.23570756795752576,-0.37163272826479465,0.2080872314941108,0.8436206341963742,-0.05511495392067244
9712,5.0,300.16682000000003,3020.2338,0.0,0.0,0.0,0.0,0.09679765467806782,0.0,-0.2976247889732797,-0.25863473260776076,-0.36181614851347366,0.2032450409887238,0.8430109717437052,-0.06398701536602673
9713,5.0,299.65604,2629.8325,0.0,0.0,0.0,0.0,0.09680762148765165,0.0,-0.2087456414090908,-0.2290255787155648,-0.3616322030903197,0.18740610794304283,0.8491714310266951,-0.06063000430071554
9714,5.0,299.51243,2098.9668,0.0,0.0,0.0,0.0,0.09681758829723545,0.0,-0.20526321227290178,-0.15666143506127983,-0.27610882839981976,0.1997877708525178,0.8540779730459331,-0.052054421861121455
9715,5.0,299.35086,2106.3706,0.0,0.0,0.0,0.0,0.09682755510681929,0.0,-0.15327913529997286,-0.19766715998322978,-0.2893377710429147,0.19287561171784082,0.8422435867804702,-0.06747695876495734
9716,5.0,299.41352,2222.8609,0.0,0.0,0.0,0.0,0.09683752191640312,0.0,-0.21529064937003278,-0.16820912221094786,-0.2921944270498447,0.2122468562021338,0.8305965605909982,-0.08151849252449883
9717,5.0,300.43482,2351.5696,0.0,0.0,0.0,0.0,0.09684748872598693,0.0,-0.1885792691738248,-0.23772780627190776,-0.2885113743938557,0.18428722281023283,0.8239774536502432,-0.12696192965766687
9718,5.0,300.01801,2112.3917,0.0,0.0,0.0,0.0,0.09685745553557075,0.0,-0.20831796880688278,-0.17937560440799383,-0.2544207774293758,0.21371723408474882,0.8063915659746512,-0.0979643167838253
9719,5.0,301.0013,2156.0808,0.0,0.0,0.0,0.0,0.09686742234515457,0.0,-0.18872085061029784,-0.18888695269919084,-0.27778693268543575,0.16912067239841086,0.8034230471566812,-0.08095850465798232
9720,5.0,300.2124,2551.6824,0.0,0.0,0.0,0.0,0.0968773891547384,0.0,-0.27225549906452573,-0.2143751373746788,-0.2890170976512667,0.2029929747613468,0.8420521129090732,-0.03648867928090226
9721,5.0,299.91424,2826.5876,0.0,0.0,0.0,0.0,0.09688735596432223,0.0,-0.24903988237582278,-0.2174756826806788,-0.39269647531862467,0.17637404350426283,0.8463414437623972,-0.03429828283747697
9722,5.0,298.87392,2733.9057,0.0,0.0,0.0,0.0,0.09689732277390603,0.0,-0.2362432732853958,-0.24703480228293678,-0.34776099160633767,0.19178995476569483,0.8611354322449501,-0.04237093352368556
9723,5.0,300.21034,2433.0417,0.0,0.0,0.0,0.0,0.09690728958348986,0.0,-0.17521959700282783,-0.2229244553584308,-0.34143988151999266,0.17485496882184182,0.8541494781054902,-0.06739775199139024
9724,5.0,300.12327999999997,2421.7743,0.0,0.0,0.0,0.0,0.09691725639307366,0.0,-0.22965664101034577,-0.2073316508945408,-0.2991706235908417,0.2081504988303548,0.8296737734599262,-0.08051674585288413
9725,5.0,300.66501,2443.1477,0.0,0.0,0.0,0.0,0.0969272232026575,0.0,-0.2094970575507498,-0.23531287664607278,-0.29784597133760876,0.1944401306672468,0.8258949180069822,-0.07740758893428423
9726,5.0,300.72847,2326.5363,0.0,0.0,0.0,0.0,0.09693719001224133,0.0,-0.24721780538349777,-0.16768017526124482,-0.2923109508113447,0.20241099430140982,0.7996845291902183,-0.05624537930198674
9727,5.0,301.09923,2317.5453,0.0,0.0,0.0,0.0,0.09694715682182514,0.0,-0.17758385399116183,-0.2009023560950188,-0.3259897021401787,0.1999187232954418,0.8023600464767713,-0.07138399238205152
9728,5.0,300.74631,2327.1405,0.0,0.0,0.0,0.0,0.09695712363140896,0.0,-0.2064185504344248,-0.2031065499650558,-0.2978675029022337,0.2009972874968878,0.8197217728327402,-0.060553554580670535
9729,5.0,300.58446000000004,2508.6079999999997,0.0,0.0,0.0,0.0,0.09696709044099278,0.0,-0.18512770363568182,-0.2281390355405698,-0.34928746301448865,0.2177648743917198,0.8300032621274442,-0.1022776373465169
9730,5.0,300.003,2827.4121,0.0,0.0,0.0,0.0,0.0969770572505766,0.0,-0.2745693569928857,-0.23496579795681877,-0.34992752297015767,0.1895869362657738,0.8311063773788132,-0.06347229343447765
9731,5.0,299.69628,2761.1499,0.0,0.0,0.0,0.0,0.09698702406016044,0.0,-0.2626805895945557,-0.24323129445505975,-0.33340872950487965,0.18436608406551583,0.8260133973411752,-0.05816971248115364
9732,5.0,300.08889,2362.7954,0.0,0.0,0.0,0.0,0.09699699086974424,0.0,-0.22742038790714478,-0.18549126790406284,-0.3053191569201547,0.2017464542233248,0.8238210787623103,-0.03427783747695917
9733,5.0,300.23544,2295.7473,0.0,0.0,0.0,0.0,0.09700695767932807,0.0,-0.15120462731023485,-0.24009796037582376,-0.3065472667038597,0.2067299019251528,0.8298479410196151,-0.07158594224623244
9734,5.0,298.84544,2532.4861,0.0,0.0,0.0,0.0,0.09701692448891187,0.0,-0.2112706910557938,-0.1981166883900948,-0.3604251486436926,0.19107335389747182,0.8353679958419022,-0.03558870040958126
9735,5.0,299.25717000000003,2577.8166,0.0,0.0,0.0,0.0,0.0970268912984957,0.0,-0.2053474944162198,-0.24590393411132877,-0.3323404396594477,0.18883380773144584,0.8173605859922092,-0.0957392722532305
9736,5.0,298.58261,2274.1508,0.0,0.0,0.0,0.0,0.09703685810807954,0.0,-0.2066453259393058,-0.1949566957007278,-0.28968303601448975,0.18083130029665984,0.8162428900719012,-0.08825188597053302
9737,5.0,299.21198,2176.6857,0.0,0.0,0.0,0.0,0.09704682491766335,0.0,-0.21283253502493577,-0.19435097479094782,-0.25447459114218673,0.22811740265093478,0.7996343935752702,-0.09969327001245971
9738,5.0,300.3812,2339.6910000000003,0.0,0.0,0.0,0.0,0.09705679172724717,0.0,-0.2385421148472738,-0.2070953305737178,-0.26557020662723874,0.21216328333388582,0.8008173225370162,-0.07418724200271072
9739,5.0,301.54252,2552.6915,0.0,0.0,0.0,0.0,0.09706675853683099,0.0,-0.2251113935792648,-0.19368788366050582,-0.35715517778847167,0.2114244517584688,0.8278781220302092,-0.06564717397912163
9740,5.0,300.20133,2767.7504,0.0,0.0,0.0,0.0,0.09707672534641482,0.0,-0.24320544644500877,-0.24453620859634478,-0.35358536596365864,0.17530886433663784,0.8365919209026942,-0.03760380255920636
9741,5.0,299.68265,2510.2723,0.0,0.0,0.0,0.0,0.09708669215599865,0.0,-0.18206198373561883,-0.2375820097150188,-0.34341611438253167,0.1980932823127848,0.8642561716254432,-0.07578024543892792
9742,5.0,300.08191,2365.1957,0.0,0.0,0.0,0.0,0.09709665896558245,0.0,-0.22288348965688778,-0.2014060933822338,-0.2946708609567497,0.19169843801666284,0.8569200990464292,-0.045030528598167155
9743,5.0,300.39363,2538.8553,0.0,0.0,0.0,0.0,0.09710662577516628,0.0,-0.22518405374393577,-0.24191111063476775,-0.30465346173695573,0.2029566700102638,0.8467339261886323,-0.05458695537306305
9744,5.0,299.32286,2568.7473,0.0,0.0,0.0,0.0,0.09711659258475008,0.0,-0.2776542577173417,-0.1921872298649028,-0.3109935398651727,0.2003055011236138,0.8184084588481263,-0.035660648259431965
9745,5.0,299.43419,2197.6438,0.0,0.0,0.0,0.0,0.09712655939433391,0.0,-0.16052847367042683,-0.20058220959342282,-0.30691815677046375,0.20422787332072181,0.8276254782502752,-0.09850221073191132
9746,5.0,299.64031,2070.7001,0.0,0.0,0.0,0.0,0.09713652620391773,0.0,-0.17484224240058585,-0.17787597399499183,-0.27672290862292476,0.2032702101212078,0.8134642137926673,-0.06448659326158124
9747,5.0,299.34232000000003,2509.0061,0.0,0.0,0.0,0.0,0.09714649301350156,0.0,-0.1946980534802018,-0.2113647307975748,-0.3566124202399057,0.2046242364948398,0.8040545958115103,-0.09417709087180522
9748,5.0,300.15732,2728.5286,0.0,0.0,0.0,0.0,0.09715645982308538,0.0,-0.2855579226048727,-0.2176357356664748,-0.32621090476950965,0.1999252080960818,0.8387547640361503,-0.05905752019227344
9749,5.0,299.84455,2529.0284,0.0,0.0,0.0,0.0,0.0971664266326692,0.0,-0.24203835458232575,-0.2344610879495078,-0.29226206149401973,0.17494653623337883,0.8336133607762333,-0.09255551580926823
9750,5.0,300.33644,2472.2759,0.0,0.0,0.0,0.0,0.09717639344225303,0.0,-0.2590020459015117,-0.1925608658392778,-0.2999472088649847,0.1971671007938778,0.8303200547712092,-0.023437107081062378
9751,5.0,300.26697,2513.1158,0.0,0.0,0.0,0.0,0.09718636025183683,0.0,-0.1986165043994228,-0.2436061969920598,-0.3217017493069907,0.19202792668418084,0.8368741110555442,-0.06039282879680815
9752,5.0,299.5688,2593.9039,0.0,0.0,0.0,0.0,0.09719632706142066,0.0,-0.23987963537677678,-0.19885315909277881,-0.34974923148256165,0.21084867238914382,0.8607065437426222,-0.03546841749021026
9753,5.0,299.54883,2612.4755,0.0,0.0,0.0,0.0,0.09720629387100448,0.0,-0.2022328041388238,-0.23173788711324877,-0.36015664749969367,0.18709915395774881,0.8520921345724461,-0.07962810727668232
9754,5.0,299.79846000000003,2269.2876,0.0,0.0,0.0,0.0,0.0972162606805883,0.0,-0.2114155858200938,-0.2020293739162468,-0.27636180655228676,0.1909761021528738,0.8497526008865522,-0.05646187538460325
9755,5.0,300.5081,2022.8158,0.0,0.0,0.0,0.0,0.09722622749017211,0.0,-0.16928597401972484,-0.17045538622513684,-0.27514412311211073,0.19666482258680681,0.8309308115339862,-0.07408529992339982
9756,5.0,299.88004,2416.9062,0.0,0.0,0.0,0.0,0.09723619429975594,0.0,-0.24034937812313678,-0.2027370987135938,-0.29159264768295373,0.20461440796886982,0.8495469111162521,-0.06837198689628973
9757,5.0,300.48847,2589.7706,0.0,0.0,0.0,0.0,0.09724616110933974,0.0,-0.22749627020713378,-0.2235930990994208,-0.33613623665406367,0.18360761570316084,0.8126726222845432,-0.0886592388552356
9758,5.0,300.55758,2236.2692,0.0,0.0,0.0,0.0,0.09725612791892357,0.0,-0.18295695715144583,-0.1968814047956818,-0.29993164534344874,0.20595885912905681,0.8170983264688262,-0.07705858000358973
9759,5.0,301.32005,2112.157,0.0,0.0,0.0,0.0,0.0972660947285074,0.0,-0.15634597990764684,-0.21676541462558083,-0.2689315827739807,0.17775526551057882,0.8230732596585062,-0.1117396200928419
9760,5.0,299.93888,2476.6809,0.0,0.0,0.0,0.0,0.09727606153809122,0.0,-0.25384139088969476,-0.18236628300565083,-0.3166414769825807,0.2236373072012838,0.8528225460395321,-0.05828017396730535
9761,5.0,299.15491000000003,2691.6643,0.0,0.0,0.0,0.0,0.09728602834767504,0.0,-0.25890934364986273,-0.23240280209387076,-0.3268866007311957,0.19026703986539484,0.8310472339704761,-0.0906846143476246
9762,5.0,298.52743,2487.0485,0.0,0.0,0.0,0.0,0.09729599515725885,0.0,-0.2370796909779438,-0.18309131411470583,-0.33582962717380366,0.19684233387182581,0.8494528207119663,-0.030507632140118868
9763,5.0,300.28716000000003,2327.1137,0.0,0.0,0.0,0.0,0.09730596196684269,0.0,-0.16997709164793284,-0.19194254009825382,-0.3454648250247237,0.18998010770207682,0.8416806148924092,-0.04410512018908646
9764,5.0,299.94597000000005,2281.0117,0.0,0.0,0.0,0.0,0.09731592877642649,0.0,-0.18571294676094083,-0.20222283375783978,-0.30543481941906975,0.2143991716670508,0.8508783521451553,-0.059814024875934645
9765,5.0,300.09634,2485.4169,0.0,0.0,0.0,0.0,0.09732589558601032,0.0,-0.1918458152437078,-0.2243341699575588,-0.3393247016712407,0.1982705909477838,0.8341055064823042,-0.08670135696525771
9766,5.0,300.43697000000003,2599.3314,0.0,0.0,0.0,0.0,0.09733586239559415,0.0,-0.2631642037347848,-0.2282944275759058,-0.2986732089842507,0.18037311873394082,0.8416350186379091,-0.07557952262061814
9767,5.0,300.05407,2337.3053,0.0,0.0,0.0,0.0,0.09734582920517795,0.0,-0.1961471328457148,-0.2013153669682798,-0.3130199488726637,0.19991375836995182,0.8304936853083452,-0.08670450108031802
9768,5.0,300.49747,2341.795,0.0,0.0,0.0,0.0,0.09735579601476178,0.0,-0.2206903402129408,-0.19082608034306783,-0.30033077469033975,0.19477768480556082,0.8310338185391523,-0.05295410790316355
9769,5.0,300.1732,2608.7692,0.0,0.0,0.0,0.0,0.0973657628243456,0.0,-0.22462988699924377,-0.2307965271078438,-0.3375743019909897,0.2147102901102558,0.8163534255253102,-0.07477010095048443
9770,5.0,299.138,2600.9981,0.0,0.0,0.0,0.0,0.09737572963392943,0.0,-0.24584678680568878,-0.2135710423603208,-0.33122062604643066,0.2010842952829748,0.8106501852174443,-0.07121140650576863
9771,5.0,299.76052999999996,2450.3639,0.0,0.0,0.0,0.0,0.09738569644351325,0.0,-0.20260777760333082,-0.21296242355525483,-0.3292792388548307,0.2038972903430958,0.8280978351818933,-0.08817800281299132
9772,5.0,300.16012,2556.3136,0.0,0.0,0.0,0.0,0.09739566325309706,0.0,-0.24215906306673873,-0.21148452735689782,-0.3234119330907727,0.18685617658376882,0.8604364213984632,-0.06209839722638464
9773,5.0,299.28767999999997,2483.1456,0.0,0.0,0.0,0.0,0.0974056300626809,0.0,-0.1928708899723748,-0.1846765236311538,-0.37726686491584066,0.2267290980264198,0.8536790564815632,-0.06928067769197052
9774,5.0,301.13507999999996,2350.3522,0.0,0.0,0.0,0.0,0.0974155968722647,0.0,-0.19999898283586282,-0.18533599745873883,-0.3291134103434647,0.2010588627054648,0.8754765891253122,-0.04422326616399655
9775,5.0,300.89171,2236.3132,0.0,0.0,0.0,0.0,0.09742556368184853,0.0,-0.14706289659897787,-0.2040753893131728,-0.3286450760147437,0.2189737628210278,0.8388340103264711,-0.06073234661381595
9776,5.0,301.45637999999997,2407.5565,0.0,0.0,0.0,0.0,0.09743553049143236,0.0,-0.22162202367989076,-0.2130895965753058,-0.29712542892649674,0.19083818868176283,0.8330487271580083,-0.08088208229569002
9777,5.0,301.01921,2484.7739,0.0,0.0,0.0,0.0,0.09744549730101616,0.0,-0.2112648547352178,-0.24086490964151577,-0.3031794564189827,0.17646987669872083,0.8091082313477652,-0.09689053613610141
9778,5.0,300.46424,2515.2622,0.0,0.0,0.0,0.0,0.09745546411059999,0.0,-0.24938296885968275,-0.2140750734900648,-0.3011188603531177,0.18556743391407982,0.8133489565937921,-0.09455113214622021
9779,5.0,300.18861,2679.1353,0.0,0.0,0.0,0.0,0.09746543092018381,0.0,-0.23227006633077077,-0.21352978281624876,-0.36859036377953663,0.18837354900602182,0.8234180990650392,-0.054195236937403454
9780,5.0,299.64948,2523.4119,0.0,0.0,0.0,0.0,0.09747539772976764,0.0,-0.2529186240236248,-0.2055112660298828,-0.3086243280838497,0.18299449806765083,0.8555279238065322,-0.05066893001888405
9781,5.0,299.56631,2399.9906,0.0,0.0,0.0,0.0,0.09748536453935146,0.0,-0.22549474662209876,-0.16616406940161685,-0.33787840874350267,0.21276173924044878,0.8292821624287773,-0.03784955218545996
9782,5.0,300.60578,2565.9957,0.0,0.0,0.0,0.0,0.09749533134893527,0.0,-0.27666382600959377,-0.21562346149787878,-0.2877113121148957,0.2173780661660448,0.8446802303559482,-0.061103988511994146
9783,5.0,300.18535,2513.4465,0.0,0.0,0.0,0.0,0.0975052981585191,0.0,-0.2425998268602388,-0.21472912642961478,-0.3066960016860387,0.23684864969014177,0.8202351157309032,-0.07031992272328604
9784,5.0,298.94908,2482.6089,0.0,0.0,0.0,0.0,0.09751526496810291,0.0,-0.21780643791082177,-0.23141609914649078,-0.3054285777984537,0.2241694458888018,0.8282417876236002,-0.07246624278736133
9785,5.0,299.80609,2435.0479,0.0,0.0,0.0,0.0,0.09752523177768674,0.0,-0.1961365038521658,-0.2014180801309168,-0.34263919473585563,0.2076473593606988,0.8242926858888543,-0.05438321408270535
9786,5.0,299.56641,2287.7267,0.0,0.0,0.0,0.0,0.09753519858727057,0.0,-0.18795350617706683,-0.18529248849944482,-0.32216580772028974,0.19795613891174982,0.8247633709578073,-0.028416516981241872
9787,5.0,299.99989,2290.6263,0.0,0.0,0.0,0.0,0.09754516539685437,0.0,-0.16888742222539083,-0.2051724453289438,-0.3222333307069537,0.18851486699746883,0.8337775883524411,-0.05466292481256065
9788,5.0,299.80535,2541.4008,0.0,0.0,0.0,0.0,0.0975551322064382,0.0,-0.25610214438031376,-0.21634913095449682,-0.30007110908721274,0.19563133788230982,0.8445768889782492,-0.08499516133386932
9789,5.0,300.69624,2656.8826,0.0,0.0,0.0,0.0,0.09756509901602202,0.0,-0.27763091243503774,-0.23071604465240078,-0.29927900082153774,0.16503965563314585,0.8226751232967132,-0.08165469056319052
9790,5.0,300.98335,2379.1541,0.0,0.0,0.0,0.0,0.09757506582560585,0.0,-0.24792400017319374,-0.1979206548932478,-0.27735878385568075,0.19574521706104883,0.8305715333135282,-0.09576046741882231
9791,5.0,300.55854,2334.4258,0.0,0.0,0.0,0.0,0.09758503263518967,0.0,-0.1876912973161888,-0.2046652731238898,-0.3172505618826927,0.2092182617857348,0.8275041618158022,-0.06708263323679044
9792,5.0,300.27875,2455.7399,0.0,0.0,0.0,0.0,0.09759499944477348,0.0,-0.2162910413262638,-0.19721407506851382,-0.3329784933799187,0.23681645873446477,0.8460142247751031,-0.062249930805339845
9793,5.0,299.47529,2409.2195,0.0,0.0,0.0,0.0,0.09760496625435731,0.0,-0.2003061293386758,-0.1984314646661608,-0.33360497578424764,0.20512421462418381,0.8369016410607611,-0.06238830733174654
9794,5.0,299.82883,2296.8658,0.0,0.0,0.0,0.0,0.09761493306394112,0.0,-0.2354341829480448,-0.18416160006283483,-0.27859406745009374,0.1935055898350148,0.8363079676946702,-0.07764046825776762
9795,5.0,299.84666,2355.3788,0.0,0.0,0.0,0.0,0.09762489987352495,0.0,-0.2030275063247548,-0.1993907186683318,-0.3135581366632787,0.18138428153873482,0.8189618656552432,-0.06838898619321743
9796,5.0,300.62705,2563.9676,0.0,0.0,0.0,0.0,0.09763486668310878,0.0,-0.22783279083034577,-0.23325461105543777,-0.31829473637574474,0.21737660708590079,0.8388568388512242,-0.08233965067054082
9797,5.0,299.95673,2692.8535,0.0,0.0,0.0,0.0,0.0976448334926926,0.0,-0.2164156305585598,-0.22965634716781677,-0.3724882457217276,0.18897543983042384,0.8289387821023882,-0.029321054464762773
9798,5.0,300.49907,2704.6284,0.0,0.0,0.0,0.0,0.09765480030227641,0.0,-0.2349857589837888,-0.22898580864913975,-0.3581679516609247,0.17281591445310285,0.8029205359020872,-0.03223051397415407
9799,5.0,300.55195,2409.1923,0.0,0.0,0.0,0.0,0.09766476711186023,0.0,-0.2053458225535548,-0.16595405305338984,-0.3610344057963217,0.17690400370406584,0.8285314859596912,-0.02405175573747348
9800,5.0,300.66003,2438.8814,0.0,0.0,0.0,0.0,0.09767473392144406,0.0,-0.2493160740880808,-0.21566679820465579,-0.2763761643062037,0.18465183072621683,0.8870109520361651,-0.08216049994686002
9801,5.0,300.53934,2597.7097,0.0,0.0,0.0,0.0,0.09768470073102788,0.0,-0.24334667324394674,-0.2078384177995548,-0.3384537828127877,0.23044718887086676,0.8789994064104872,-0.08357122678283792
9802,5.0,300.6668,2440.2752,0.0,0.0,0.0,0.0,0.0976946675406117,0.0,-0.25025154711040476,-0.1957415896256908,-0.2957895903921597,0.20104098897370082,0.8508980395945982,-0.1037443776612729
9803,5.0,300.13237999999996,2193.7593,0.0,0.0,0.0,0.0,0.09770463435019552,0.0,-0.16401827926734386,-0.18490104972081284,-0.3179287200421217,0.1863789357866688,0.8471876697159131,-0.05687360652298795
9804,5.0,300.33701,2218.3194,0.0,0.0,0.0,0.0,0.09771460115977933,0.0,-0.17798994436623983,-0.18821709305808082,-0.30810667887276166,0.2119180261471808,0.8488860288710282,-0.07878065934354572
9805,5.0,299.5927,2508.3565,0.0,0.0,0.0,0.0,0.09772456796936316,0.0,-0.19673576022630782,-0.22737206600987578,-0.3383699262345117,0.17780411429789983,0.8424511307984532,-0.05266809577093635
9806,5.0,299.56765,2629.639,0.0,0.0,0.0,0.0,0.09773453477894699,0.0,-0.27815581651684174,-0.2123342388907578,-0.3088545486390707,0.1987710959671798,0.8259818346005602,-0.10031348141191981
9807,5.0,298.79422999999997,2642.0863,0.0,0.0,0.0,0.0,0.0977445015885308,0.0,-0.22344771797507282,-0.22340088555545076,-0.3562796790395667,0.17594852912476783,0.8322117420454042,-0.07041090042326484
9808,5.0,299.8432,2512.5038,0.0,0.0,0.0,0.0,0.09775446839811462,0.0,-0.23948420439275075,-0.23244649343818277,-0.29180772014917966,0.1972430742863758,0.8550100618129232,-0.10501817489198689
9809,5.0,299.97607,2522.3374,0.0,0.0,0.0,0.0,0.09776443520769844,0.0,-0.18266292210492682,-0.2170448892681628,-0.3670197855945327,0.2066654186887888,0.8124643385939873,-0.03375055428392037
9810,5.0,300.96187000000003,2361.6507,0.0,0.0,0.0,0.0,0.09777440201728227,0.0,-0.2195495421903528,-0.1860411891308358,-0.3122921110608317,0.1936425711160338,0.7952696161195002,-0.06874016449237604
9811,5.0,299.69378,2213.1585,0.0,0.0,0.0,0.0,0.09778436882686609,0.0,-0.18986657302837182,-0.16421870013712384,-0.3186596381342577,0.2128594773450948,0.8231764085186862,-0.03695500940092546
9812,5.0,300.72194,2304.0736,0.0,0.0,0.0,0.0,0.0977943356364499,0.0,-0.24324228821864477,-0.18814898238635883,-0.26898958120970473,0.18795098318431783,0.8736163227367181,-0.08582164714893711
9813,5.0,300.9488,2470.1574,0.0,0.0,0.0,0.0,0.09780430244603373,0.0,-0.21347961680379782,-0.22361866339944378,-0.31376788956647966,0.19941528998325683,0.8903009548458631,-0.09459265006906772
9814,5.0,302.20514,2608.8329,0.0,0.0,0.0,0.0,0.09781426925561754,0.0,-0.24625007047798977,-0.21903297715687178,-0.3277370114076247,0.17790123431998484,0.8641382293138031,-0.09525593169052851
9815,5.0,300.70801,2502.2228,0.0,0.0,0.0,0.0,0.09782423606520137,0.0,-0.20789822995295779,-0.19300586501819583,-0.3597091455930287,0.20228001146098282,0.8562542924057192,-0.05850672351741404
9816,5.0,300.22666,2528.9054,0.0,0.0,0.0,0.0,0.0978342028747852,0.0,-0.20272699661009683,-0.23966240468783778,-0.32633469353422667,0.21581804604708277,0.8317948200267573,-0.08264244222442402
9817,5.0,300.15427,2543.8044,0.0,0.0,0.0,0.0,0.09784416968436901,0.0,-0.22378264779562781,-0.20852895787520578,-0.34094139286829567,0.21815153062987977,0.8130695123487133,-0.04769723060885016
9818,5.0,300.09876,2500.7307,0.0,0.0,0.0,0.0,0.09785413649395283,0.0,-0.24143433593271377,-0.22733427178114576,-0.29139109197306173,0.1937781946419188,0.7953103082435162,-0.06881063299708073
9819,5.0,300.10032,2332.9158,0.0,0.0,0.0,0.0,0.09786410330353665,0.0,-0.2033794992769938,-0.2032494790241618,-0.3025191719913177,0.22243928081304778,0.8172939647981342,-0.06058395613667094
9820,5.0,299.60652000000005,2270.1343,0.0,0.0,0.0,0.0,0.09787407011312048,0.0,-0.19148996180858782,-0.18267867814398184,-0.3158955019939587,0.18844911719847982,0.8646666291084523,-0.055549155906524844
9821,5.0,298.41502,2313.3959,0.0,0.0,0.0,0.0,0.0978840369227043,0.0,-0.17543521662410785,-0.2007587481583458,-0.32702063345442367,0.17022836754023185,0.8421957512432493,-0.05720887071607595
9822,5.0,300.54977,2448.5805,0.0,0.0,0.0,0.0,0.09789400373228811,0.0,-0.21946477368698677,-0.18890594100606484,-0.3359366061193617,0.17078925213308685,0.8311952799425871,-0.06470024920416743
9823,5.0,301.13822000000005,2638.3086,0.0,0.0,0.0,0.0,0.09790397054187194,0.0,-0.24839768446244276,-0.22486128292458077,-0.3287209684472337,0.19609493020056282,0.8520747978632351,-0.06746626897640233
9824,5.0,299.40105,2591.1726,0.0,0.0,0.0,0.0,0.09791393735145575,0.0,-0.24231334052696477,-0.22540647227338675,-0.3199319762848277,0.24864549503939976,0.8547991436721073,-0.10191648461337391
9825,5.0,300.91613,2656.0568,0.0,0.0,0.0,0.0,0.09792390416103958,0.0,-0.24739646164112974,-0.2247878020273288,-0.3351906716607437,0.1988506766300338,0.8427114550141452,-0.0904775252789365
9826,5.0,301.04049,2568.7154,0.0,0.0,0.0,0.0,0.09793387097062341,0.0,-0.22465258380148379,-0.2289388242420028,-0.32723391246797273,0.17965529183309684,0.8234274614959632,-0.07381903299587134
9827,5.0,301.33701,2412.7724,0.0,0.0,0.0,0.0,0.09794383778020722,0.0,-0.1861035141444868,-0.18728242050333582,-0.36003663815784964,0.1945579716538768,0.8217646978168612,-0.041394199944039464
9828,5.0,301.81498999999997,2399.7505,0.0,0.0,0.0,0.0,0.09795380458979104,0.0,-0.20080678634558682,-0.2032023831595138,-0.3254550505924127,0.1985921053370148,0.8526738921173611,-0.024492109164682977
9829,5.0,299.91972999999996,2189.9048,0.0,0.0,0.0,0.0,0.09796377139937486,0.0,-0.2104987160696058,-0.18885521770605881,-0.2663224536339797,0.2134758475134258,0.8320831302102111,-0.05497521761263154
9830,5.0,299.75266,2481.0093,0.0,0.0,0.0,0.0,0.09797373820895869,0.0,-0.24029998218076176,-0.20962403805328178,-0.30424085616373475,0.2072195145059738,0.8225730991441442,-0.04723864577259136
9831,5.0,300.10899,2748.5343,0.0,0.0,0.0,0.0,0.0979837050185425,0.0,-0.2610735749359558,-0.23891270093884776,-0.33549952042372466,0.2029212771842708,0.8422676818678483,-0.08345082733970542
9832,5.0,299.36709,2716.8175,0.0,0.0,0.0,0.0,0.09799367182812632,0.0,-0.23509788523985475,-0.24370998419980278,-0.34703681162736666,0.23184806792912277,0.8518008555661992,-0.07219073096592042
9833,5.0,300.61733,2604.1737,0.0,0.0,0.0,0.0,0.09800363863771015,0.0,-0.20077537559248682,-0.2253184613697008,-0.36550993148802163,0.18560463032525082,0.8621077875709142,-0.06982267530296153
9834,5.0,300.56313,2435.9651,0.0,0.0,0.0,0.0,0.09801360544729396,0.0,-0.24013942256991574,-0.2021265952633418,-0.2982065465181947,0.2055930859754578,0.8421758003487801,-0.06456868475818303
9835,5.0,299.8457,2400.8631,0.0,0.0,0.0,0.0,0.09802357225687779,0.0,-0.21463636338295983,-0.21279305880103977,-0.3023730309293947,0.19108099380322582,0.8306880874725311,-0.07753596468220393
9836,5.0,300.5898,2548.1376,0.0,0.0,0.0,0.0,0.09803353906646162,0.0,-0.2666853187597918,-0.20295619378271681,-0.3049286807291177,0.20992032251502282,0.8550182387412303,-0.0922464633830171
9837,5.0,299.84152,2508.1691,0.0,0.0,0.0,0.0,0.09804350587604543,0.0,-0.2204416987709018,-0.23874983111777376,-0.30322924752889674,0.2127587400201528,0.8085771667053532,-0.08382432247231653
9838,5.0,299.73985,2282.8963,0.0,0.0,0.0,0.0,0.09805347268562925,0.0,-0.19183403114504483,-0.18417763981191784,-0.3179318003224257,0.1920647076628108,0.8234551941512003,-0.061580271787749635
9839,5.0,300.81234,2339.9772,0.0,0.0,0.0,0.0,0.09806343949521307,0.0,-0.1773317472337808,-0.19949876152649482,-0.33446412067653863,0.18737046180452482,0.8492632517507572,-0.044489139950486256
9840,5.0,300.0272,2466.6579,0.0,0.0,0.0,0.0,0.0980734063047969,0.0,-0.22330153638314582,-0.21046707226898279,-0.3160338005001077,0.1910996781350698,0.8631499051662631,-0.03309187687091397
9841,5.0,299.34783,2623.9876,0.0,0.0,0.0,0.0,0.09808337311438071,0.0,-0.24917206085136778,-0.2268025079961648,-0.3216521405820947,0.1881891881503268,0.8494180257035323,-0.060958701619905444
9842,5.0,298.9916,2569.2231,0.0,0.0,0.0,0.0,0.09809333992396453,0.0,-0.2688547176213948,-0.22604866005426577,-0.28607629122353173,0.19430592569150182,0.8268199444207752,-0.057994219590333844
9843,5.0,298.64748,2599.9451,0.0,0.0,0.0,0.0,0.09810330673354836,0.0,-0.2533789536765558,-0.2105308563627778,-0.3264085695990177,0.1960452201506568,0.8363690058806942,-0.101209926066892
9844,5.0,299.68225,2778.4532,0.0,0.0,0.0,0.0,0.09811327354313217,0.0,-0.25309857724138474,-0.23213306478474977,-0.35934876292996165,0.18234725416877284,0.8266587363298652,-0.07277030293036972
9845,5.0,299.7983,2597.6421,0.0,0.0,0.0,0.0,0.098123240352716,0.0,-0.23271619021729978,-0.2027910340164168,-0.3541111009105447,0.21308257475211279,0.8401061255620191,-0.07784342427929783
9846,5.0,300.52647,2364.5460000000003,0.0,0.0,0.0,0.0,0.09813320716229983,0.0,-0.2126437867963078,-0.17144396368520182,-0.3346752009373707,0.19040278498129182,0.8320995144643282,-0.028825231674078872
9847,5.0,300.43099,2259.9120000000003,0.0,0.0,0.0,0.0,0.09814317397188364,0.0,-0.18959045224362084,-0.2035260253739548,-0.29384034037978374,0.23194367820855877,0.8574436757706021,-0.06392408949506645
9848,5.0,300.31979,2382.2225,0.0,0.0,0.0,0.0,0.09815314078146746,0.0,-0.22767520004229277,-0.2047256020348438,-0.2917353538270377,0.1951042553127908,0.8641478247922502,-0.05860210682882765
9849,5.0,300.285,2552.8054,0.0,0.0,0.0,0.0,0.09816310759105128,0.0,-0.2003467404026838,-0.23015428866445978,-0.34548805884951667,0.2081931465270638,0.8508075360956662,-0.08944445600698052
9850,5.0,299.81864,2529.1024,0.0,0.0,0.0,0.0,0.0981730744006351,0.0,-0.2116082654591098,-0.22567846913023076,-0.33149724332373065,0.2052733650389038,0.8272304323012872,-0.062208868845037346
9851,5.0,299.15786,2511.0257,0.0,0.0,0.0,0.0,0.09818304121021894,0.0,-0.2038199286979608,-0.22411032274546677,-0.3353588610448427,0.18145744832845584,0.8481385644047592,-0.07607346785886672
9852,5.0,300.32203,2544.5658,0.0,0.0,0.0,0.0,0.09819300801980274,0.0,-0.2324705378630558,-0.21108577291254377,-0.3299281546163737,0.17025777205813383,0.8496587333972881,-0.05636890158192745
9853,5.0,300.92697999999996,2677.9561,0.0,0.0,0.0,0.0,0.09820297482938657,0.0,-0.26249476965871676,-0.24784303135770278,-0.3036939746872617,0.16725786275206583,0.8298929597215582,-0.07256924776602713
9854,5.0,301.36937,2688.3659,0.0,0.0,0.0,0.0,0.09821294163897037,0.0,-0.27676331703691276,-0.1986931972994918,-0.34173959076707167,0.18089329093777784,0.8414812579352341,-0.06358045686940253
9855,5.0,300.54987,2539.1697,0.0,0.0,0.0,0.0,0.0982229084485542,0.0,-0.21183575023906082,-0.2285692311355268,-0.3314391942255017,0.2229179198952858,0.8478814319268821,-0.10376850314615389
9856,5.0,300.43977,2354.7909,0.0,0.0,0.0,0.0,0.09823287525813802,0.0,-0.18216861817614283,-0.18289403432023582,-0.35073499210734865,0.1956807844871898,0.8553615177426093,-0.05910150436586435
9857,5.0,300.48197000000005,2291.3196,0.0,0.0,0.0,0.0,0.09824284206772185,0.0,-0.20100841298298583,-0.18675325063861084,-0.3087422602629887,0.18492658362333284,0.8211911273327542,-0.07502728409086643
9858,5.0,299.95846,2371.1105,0.0,0.0,0.0,0.0,0.09825280887730566,0.0,-0.2286927767202198,-0.18672335976066082,-0.30534224888993367,0.17530319013607784,0.7936462476042863,-0.028044988567074873
9859,5.0,300.51792,2391.1798,0.0,0.0,0.0,0.0,0.09826277568688949,0.0,-0.24607688577089779,-0.1862830417972048,-0.2944990340047917,0.2072255838740728,0.8396423103287441,-0.04612864852654316
9860,5.0,299.56502,2491.2497,0.0,0.0,0.0,0.0,0.0982727424964733,0.0,-0.23347805296748975,-0.2115288570487728,-0.3122707922787277,0.22411458852838778,0.8444269583609523,-0.054278461247617045
9861,5.0,298.91076,2567.2647,0.0,0.0,0.0,0.0,0.09828270930605712,0.0,-0.2161647903638038,-0.20893960787573382,-0.35527994569590066,0.2004441340022958,0.8500486928307741,-0.08319610437056622
9862,5.0,300.30888,2768.2096,0.0,0.0,0.0,0.0,0.09829267611564095,0.0,-0.24652171269729875,-0.22459778723607576,-0.3703470962729126,0.1929748089026308,0.8336157317814672,-0.054253447142398346
9863,5.0,300.63327999999996,2635.2977,0.0,0.0,0.0,0.0,0.09830264292522477,0.0,-0.2118137120493858,-0.23564247677110178,-0.35360848833094066,0.2065065917356138,0.8386865216419153,-0.09310984467397622
9864,5.0,299.76577000000003,2372.8065,0.0,0.0,0.0,0.0,0.09831260973480858,0.0,-0.2239737163669848,-0.19044416611537582,-0.3068560445393337,0.2148831911073198,0.8790680439722611,-0.04634696035333886
9865,5.0,299.87186,2080.027,0.0,0.0,0.0,0.0,0.0983225765443924,0.0,-0.18585435594489683,-0.16804387125213885,-0.27837805266127474,0.18906880069463783,0.8471710422817721,-0.08606421415662661
9866,5.0,300.12366000000003,2204.5947,0.0,0.0,0.0,0.0,0.09833254335397623,0.0,-0.21560400709595878,-0.17010947277349783,-0.28442826020088374,0.2085717068969248,0.8477126649902261,-0.037700246743474664
9867,5.0,300.0755,2216.2726,0.0,0.0,0.0,0.0,0.09834251016356003,0.0,-0.16509255742086684,-0.1926833373788648,-0.31591562514094473,0.16498055275481283,0.8474507803693802,-0.08959853588343701
9868,5.0,300.91348,2286.8248,0.0,0.0,0.0,0.0,0.09835247697314387,0.0,-0.17909170186247483,-0.19745260427455483,-0.3185933209152127,0.2312215652597918,0.8581111340089752,-0.06753549827623473
9869,5.0,301.45682999999997,2524.1337,0.0,0.0,0.0,0.0,0.09836244378272768,0.0,-0.18947176012690684,-0.23894756687478877,-0.33885430031231567,0.19093942249925383,0.7990895993940033,-0.08645091295129083
9870,5.0,299.96461,2632.1885,0.0,0.0,0.0,0.0,0.09837241059231151,0.0,-0.2782418414503317,-0.2109128516504778,-0.3109648750198437,0.22355575070073477,0.8093155727157283,-0.03893872612870307
9871,5.0,299.55645,2855.4398,0.0,0.0,0.0,0.0,0.09838237740189533,0.0,-0.27520270923289275,-0.25722910140653577,-0.3355505780962637,0.2165181714686798,0.8387570134513722,-0.06849954900437913
9872,5.0,300.29062000000005,2812.3658,0.0,0.0,0.0,0.0,0.09839234421147915,0.0,-0.28161664316089874,-0.22128341576147278,-0.3519889296361026,0.2188492445162388,0.8672014566186202,-0.057165091219005246
9873,5.0,299.53626,2444.1165,0.0,0.0,0.0,0.0,0.09840231102106298,0.0,-0.20980817599395482,-0.2066852175957428,-0.3264570029537977,0.18689376816247882,0.8543713697448891,-0.07918798993674613
9874,5.0,300.03292999999996,2305.4648,0.0,0.0,0.0,0.0,0.09841227783064678,0.0,-0.20822716133292082,-0.17081128019026084,-0.32176530035326273,0.14590659584985988,0.8454663503135322,-0.08004645291171983
9875,5.0,299.27165,2299.3916,0.0,0.0,0.0,0.0,0.09842224464023061,0.0,-0.18360791967819082,-0.1981318567440918,-0.3172178440369637,0.17166345392186383,0.8527727853271212,-0.07253419235231744
9876,5.0,298.98527,2277.3855,0.0,0.0,0.0,0.0,0.09843221144981444,0.0,-0.23696441351406677,-0.17916296374200782,-0.2761409484279898,0.17302174607841683,0.8442792872913781,-0.07609817494930513
9877,5.0,300.6851,2472.6663,0.0,0.0,0.0,0.0,0.09844217825939824,0.0,-0.24078052617318776,-0.21473453718514882,-0.2961137493641517,0.20140417833954483,0.8185503037296252,-0.05196212085651204
9878,5.0,300.57394,2500.8915,0.0,0.0,0.0,0.0,0.09845214506898207,0.0,-0.2271481276052748,-0.2034680472032328,-0.3295923939307367,0.2184213489990088,0.7995137154883603,-0.06160247209744064
9879,5.0,300.00254,2640.2771,0.0,0.0,0.0,0.0,0.09846211187856589,0.0,-0.2034467588186318,-0.24845053558765876,-0.3506810162745217,0.24608139473384277,0.8413327965305822,-0.06181551603696644
9880,5.0,300.49256,2856.5037,0.0,0.0,0.0,0.0,0.09847207868814972,0.0,-0.2307270586809878,-0.26899844714807974,-0.36858029207354265,0.22380076470741578,0.8620607322362701,-0.07692667105257132
9881,5.0,300.05179,2713.5679,0.0,0.0,0.0,0.0,0.09848204549773354,0.0,-0.23671705889965475,-0.2361256856112908,-0.35201413929859066,0.2001803546037628,0.8311453672426612,-0.07194573621099135
9882,5.0,300.39957000000004,2480.5862,0.0,0.0,0.0,0.0,0.09849201230731736,0.0,-0.24996865781498576,-0.21200601678586478,-0.2920616000942357,0.1759866475935298,0.8380527944993712,-0.060640061821208145
9883,5.0,300.39518,2213.0098,0.0,0.0,0.0,0.0,0.09850197911690119,0.0,-0.23666997316750776,-0.14623408841468086,-0.2897956486306037,0.18959143509621781,0.8587404231160812,-0.06006352352755825
9884,5.0,298.62971,2176.544,0.0,0.0,0.0,0.0,0.09851194592648499,0.0,-0.2009548221851968,-0.15879623143196783,-0.30186398421165567,0.18819706110360382,0.8637447640349711,-0.07673337333099432
9885,5.0,299.22735,2369.9046,0.0,0.0,0.0,0.0,0.09852191273606882,0.0,-0.18600150012441882,-0.19657352875279682,-0.3378167727399197,0.17089589670611186,0.8440283457716121,-0.07839489881847413
9886,5.0,299.9857,2403.6187,0.0,0.0,0.0,0.0,0.09853187954565265,0.0,-0.18997917551198482,-0.18195023238208982,-0.35871064841448463,0.18528628740883282,0.8339404480410143,-0.05461794765387175
9887,5.0,299.44468,2405.9977,0.0,0.0,0.0,0.0,0.09854184635523645,0.0,-0.2052307173421948,-0.23433569824963277,-0.2917968074456027,0.22547631560277975,0.8796691444615853,-0.08693542685760862
9888,5.0,299.78544,2552.7672,0.0,0.0,0.0,0.0,0.09855181316482028,0.0,-0.26027736300737575,-0.21065391558742277,-0.3050462177407177,0.2082410935217958,0.8520407425273742,-0.042508477158510055
9889,5.0,300.64144,2729.6438,0.0,0.0,0.0,0.0,0.0985617799744041,0.0,-0.2756726748942747,-0.23366091421303678,-0.3204099567545007,0.21654267185609782,0.8302786837696262,-0.06794191086484454
9890,5.0,300.80262,2784.2165,0.0,0.0,0.0,0.0,0.09857174678398793,0.0,-0.26460991910996573,-0.2346666155997918,-0.34705576953673767,0.17818853125333883,0.8057985816186283,-0.039242032413637065
9891,5.0,300.80436000000003,2541.5264,0.0,0.0,0.0,0.0,0.09858171359357175,0.0,-0.21645893686783377,-0.2021777643933918,-0.35392386242456564,0.2068137281059258,0.8392217811397412,-0.07011682788649214
9892,5.0,300.91118,2442.6077,0.0,0.0,0.0,0.0,0.09859168040315557,0.0,-0.1917099688028008,-0.2049589130028698,-0.34582287721256066,0.1920714153784728,0.8437130122079911,-0.062064888032327535
9893,5.0,300.70505,2327.2033,0.0,0.0,0.0,0.0,0.0986016472127394,0.0,-0.21451514827349683,-0.17529065623234083,-0.3176058884277607,0.18848408445943082,0.8343444815183892,-0.07129511413627994
9894,5.0,300.59991,2439.1008,0.0,0.0,0.0,0.0,0.0986116140223232,0.0,-0.25862652528195074,-0.18530270206045282,-0.2974965013781187,0.19807908667888383,0.8474845519952131,-0.07521052631845102
9895,5.0,300.60249,2583.1103,0.0,0.0,0.0,0.0,0.09862158083190703,0.0,-0.26332072047773175,-0.2086948877115818,-0.3131854430114967,0.2019523567761458,0.8530071298102492,-0.08425479265805062
9896,5.0,300.11784,2379.8858,0.0,0.0,0.0,0.0,0.09863154764149086,0.0,-0.21202849067308283,-0.19375019854165582,-0.3176471682368347,0.2205818008622288,0.8563555464882121,-0.1109322826781639
9897,5.0,299.38035,2273.1647,0.0,0.0,0.0,0.0,0.09864151445107466,0.0,-0.15621567594478683,-0.22145573920597977,-0.3133138927266737,0.16798897336172083,0.8318964388792862,-0.07956442349464722
9898,5.0,299.58299,2813.8315,0.0,0.0,0.0,0.0,0.0986514812606585,0.0,-0.2095595345519158,-0.26134360608760576,-0.38443137398792265,0.20285284227251682,0.8457750572214991,-0.07079868846178654
9899,5.0,300.02398999999997,2943.8649,0.0,0.0,0.0,0.0,0.09866144807024231,0.0,-0.2863282966559027,-0.23149973280974476,-0.37703339182779866,0.18609297634344682,0.8538208203030542,-0.03363584626659957
9900,5.0,299.86921,2511.3205,0.0,0.0,0.0,0.0,0.09867141487982616,0.0,-0.25284137383600075,-0.2184500746393438,-0.2920872859842707,0.2254560303357778,0.8805065855367342,-0.05724402948129585
9901,5.0,301.27623,2212.308,0.0,0.0,0.0,0.0,0.09868138168940996,0.0,-0.21353921617467977,-0.14939206473634886,-0.3095551097582107,0.18726978527458882,0.8413777544375193,-0.03406213679567117
9902,5.0,301.76385,2385.6252,0.0,0.0,0.0,0.0,0.09869134849899378,0.0,-0.2218096775984108,-0.18714782036005181,-0.31621300391279367,0.2268292780638068,0.8474211833339592,-0.05130863027076755
9903,5.0,300.83044,2668.8728,0.0,0.0,0.0,0.0,0.0987013153085776,0.0,-0.2074874988924218,-0.2265429133205448,-0.3772402671007157,0.2248323647667268,0.8593490419211471,-0.07484725893234932
9904,5.0,299.75736,2581.3424,0.0,0.0,0.0,0.0,0.09871128211816141,0.0,-0.23265329778359278,-0.2098343077140338,-0.3421760279826447,0.24256683543698276,0.8368983885279401,-0.08332914512194632
9905,5.0,300.63416,2371.3253,0.0,0.0,0.0,0.0,0.09872124892774524,0.0,-0.23429241220536076,-0.1932837691231228,-0.2932474877462737,0.20026856815746882,0.8351425172971492,-0.07813407608373292
9906,5.0,299.30012999999997,2227.4802,0.0,0.0,0.0,0.0,0.09873121573732907,0.0,-0.23502971377312676,-0.16835712765305483,-0.27371152932572473,0.2041612217291438,0.8353242741000871,-0.07227841864282453
9907,5.0,299.70833999999996,2771.2628,0.0,0.0,0.0,0.0,0.09874118254691287,0.0,-0.2631801725563608,-0.22109972365084382,-0.3581147864281776,0.19241845353772283,0.868192648263943,-0.056309701431584855
9908,5.0,299.79685,2877.6927,0.0,0.0,0.0,0.0,0.0987511493564967,0.0,-0.25971675199204775,-0.24314783304432278,-0.37188212964440864,0.17969464646698083,0.8657741823952592,-0.07066817880915623
9909,5.0,299.34729,2385.2358,0.0,0.0,0.0,0.0,0.09876111616608052,0.0,-0.1854800613579568,-0.1916460124564888,-0.34792606018012867,0.18541984390451383,0.8441746996160562,-0.04445214720258536
9910,5.0,300.36719,2194.8408,0.0,0.0,0.0,0.0,0.09877108297566435,0.0,-0.16506710457835483,-0.1944645398621558,-0.3076451637172137,0.18590680177007282,0.8599366155216361,-0.07105377417446153
9911,5.0,301.00657,2486.768,0.0,0.0,0.0,0.0,0.09878104978524817,0.0,-0.25006090410408977,-0.19407440817615282,-0.3117800549902957,0.21060333414243082,0.8783511897915133,-0.029230812384356573
9912,5.0,301.25827999999996,2586.1857,0.0,0.0,0.0,0.0,0.09879101659483198,0.0,-0.24423533411165077,-0.2229658060950118,-0.3189347254039067,0.20981214793434677,0.8647469089138752,-0.09435038703640822
9913,5.0,301.17113,2427.6021,0.0,0.0,0.0,0.0,0.09880098340441582,0.0,-0.22537487913526877,-0.20072591885510582,-0.3118296130526867,0.1857250247021328,0.8339025119572702,-0.06324849384514035
9914,5.0,300.49062999999995,2346.7833,0.0,0.0,0.0,0.0,0.09881095021399962,0.0,-0.1834353834511628,-0.1901942479782108,-0.33973388245912367,0.19134337491662082,0.8307704647056612,-0.12565549564123188
9915,5.0,299.65864,2528.4067,0.0,0.0,0.0,0.0,0.09882091702358345,0.0,-0.20278564352588482,-0.22590713941279877,-0.3398797195460167,0.21749175282726482,0.8699843986807753,-0.1034228734045429
9916,5.0,300.79344,2628.3514,0.0,0.0,0.0,0.0,0.09883088383316728,0.0,-0.22665567792417377,-0.22406604371609679,-0.34823148415777166,0.19243278089413682,0.8580475323001981,-0.12450214344990489
9917,5.0,300.49237999999997,2563.1267,0.0,0.0,0.0,0.0,0.09884085064275108,0.0,-0.2827869470263987,-0.18226789642094082,-0.3140716720789607,0.18617913299944983,0.8399316540273003,-0.06470856393448803
9918,5.0,299.88544,2442.5002,0.0,0.0,0.0,0.0,0.09885081745233491,0.0,-0.23371593369346677,-0.1997009353189478,-0.30904220255759074,0.1816646782389078,0.8353724034798372,-0.040310282742315164
9919,5.0,299.64566,2367.6847,0.0,0.0,0.0,0.0,0.09886078426191873,0.0,-0.2008448338868418,-0.19112096651967084,-0.3277512374390287,0.2248716180756008,0.8750363218243612,-0.03459952006570676
9920,5.0,300.20977999999997,2558.6388,0.0,0.0,0.0,0.0,0.09887075107150256,0.0,-0.18247514659639483,-0.22105549528397878,-0.37423166410878966,0.2053931717307278,0.8673545992387341,-0.02558776892181618
9921,5.0,300.17791,2749.5025,0.0,0.0,0.0,0.0,0.09888071788108638,0.0,-0.2179770084326558,-0.24630869712877573,-0.37149439936114265,0.2015165173781318,0.8396836509328242,-0.07865006660440722
9922,5.0,299.21648,2558.4361,0.0,0.0,0.0,0.0,0.0988906846906702,0.0,-0.25368392169165377,-0.2065503134774288,-0.31746644494899867,0.17529127431490182,0.8269980636558543,-0.05974621919249274
9923,5.0,299.42487,2407.5519,0.0,0.0,0.0,0.0,0.09890065150025402,0.0,-0.2612927713300887,-0.2022331891738618,-0.2683097106576067,0.2079637973669288,0.8584896741138341,-0.09637789136725732
9924,5.0,299.18405,2371.6631,0.0,0.0,0.0,0.0,0.09891061830983783,0.0,-0.22902173849768576,-0.20178059061919382,-0.2901240429880137,0.2076882541347348,0.848595540199859,-0.05656341520362444
9925,5.0,300.32704,2349.1925,0.0,0.0,0.0,0.0,0.09892058511942166,0.0,-0.2178408276192158,-0.18312481216301182,-0.3131302107485457,0.18988257224745084,0.8308038918264602,-0.07302855808935751
9926,5.0,300.9257,2432.173,0.0,0.0,0.0,0.0,0.09893055192900549,0.0,-0.16690614337735385,-0.2178980863823668,-0.35451562074796766,0.1941005094987288,0.8308475426407682,-0.06815356259873294
9927,5.0,300.48918,2448.2493,0.0,0.0,0.0,0.0,0.09894051873858929,0.0,-0.24082848330042078,-0.18307094778769584,-0.3203072334593627,0.2133465568006658,0.8559888208795191,-0.07672032874920692
9928,5.0,300.10323,2476.8894,0.0,0.0,0.0,0.0,0.09895048554817312,0.0,-0.2297110221432128,-0.23245367738139178,-0.29074784027957773,0.1986923360369068,0.8526089326534503,-0.08778355873456273
9929,5.0,300.5821,2419.0926,0.0,0.0,0.0,0.0,0.09896045235775694,0.0,-0.27335251455029275,-0.19607495904109182,-0.26591627206639273,0.17528365467414983,0.8238118379213982,-0.034487421167393464
9930,5.0,299.35794,2609.1966,0.0,0.0,0.0,0.0,0.09897041916734077,0.0,-0.2314848988282808,-0.23692074243475678,-0.32472496336535867,0.1823785230668588,0.8214617259044602,-0.04608921181940105
9931,5.0,299.35544,2742.204,0.0,0.0,0.0,0.0,0.09898038597692459,0.0,-0.23820275712378178,-0.23714903781478777,-0.3582097482275497,0.17452968514223882,0.8467308661733302,-0.023026411484279877
9932,5.0,299.23816,2400.495,0.0,0.0,0.0,0.0,0.0989903527865084,0.0,-0.1286189380762009,-0.21995807449817179,-0.38111353719797764,0.21715983235950678,0.8473430110887442,-0.08206173643311282
9933,5.0,300.52154,2301.8219,0.0,0.0,0.0,0.0,0.09900031959609223,0.0,-0.17486086593742384,-0.20448951476154378,-0.3203459902756877,0.18222550203675683,0.8456882622179333,-0.08464035965235313
9934,5.0,300.17567,2589.8148,0.0,0.0,0.0,0.0,0.09901028640567604,0.0,-0.24148139126735776,-0.2277299864751998,-0.3180276639143867,0.2168766492215588,0.8561715098725491,-0.08942244112205781
9935,5.0,299.9502,2663.8198,0.0,0.0,0.0,0.0,0.09902025321525987,0.0,-0.30315887730945174,-0.20665709990546782,-0.2999187264046737,0.20465133080251383,0.8592180185507162,-0.07680574674588703
9936,5.0,299.36813,2476.7313,0.0,0.0,0.0,0.0,0.0990302200248437,0.0,-0.24326130692302178,-0.2018963848406218,-0.3077067895882957,0.23901084434353376,0.8463349792267592,-0.058461077613659145
9937,5.0,300.42229,2390.1714,0.0,0.0,0.0,0.0,0.09904018683442752,0.0,-0.2092104800249668,-0.1912222611321678,-0.32611969199550767,0.1922903077975758,0.8157915175498542,-0.045459068542460755
9938,5.0,300.3686,2375.5877,0.0,0.0,0.0,0.0,0.09905015364401133,0.0,-0.17669650021608682,-0.2021183879375318,-0.3433044643540127,0.2221803042199888,0.8340130676756812,-0.03833613413523186
9939,5.0,300.55998999999997,2618.6798,0.0,0.0,0.0,0.0,0.09906012045359515,0.0,-0.23270172100587178,-0.23234389173305678,-0.3309676478939637,0.18942618413740883,0.8489954700143293,-0.05485306524682604
9940,5.0,299.45518,2774.8086,0.0,0.0,0.0,0.0,0.09907008726317898,0.0,-0.30097225319614873,-0.21915371603878778,-0.3233465480618197,0.2150575005220228,0.8648577888723182,-0.04953450635267515
9941,5.0,300.25406,2620.3441,0.0,0.0,0.0,0.0,0.0990800540727628,0.0,-0.27510676458092376,-0.23736577201117778,-0.2840466398157207,0.17206783190427286,0.8552550454221012,-0.05432647410360554
9942,5.0,300.4519,2273.4099,0.0,0.0,0.0,0.0,0.09909002088234661,0.0,-0.1953240900544868,-0.2018698174229998,-0.29386594520981074,0.1965495349904288,0.8546892769637642,-0.07393976073203623
9943,5.0,301.01267,2554.4197,0.0,0.0,0.0,0.0,0.09909998769193044,0.0,-0.1895713930092398,-0.2189416022628538,-0.36796680966799666,0.2021559795162418,0.8602415227417282,-0.04864475826761386
9944,5.0,299.52131,2659.0513,0.0,0.0,0.0,0.0,0.09910995450151425,0.0,-0.1810430290375558,-0.23916861751660476,-0.38807353186987564,0.19046583953501484,0.8418718354512811,-0.1135539558544029
9945,5.0,299.26982999999996,2343.3952,0.0,0.0,0.0,0.0,0.09911992131109808,0.0,-0.19700683502556082,-0.17746621565455184,-0.3378605552767407,0.2072075074922888,0.8424203381279142,-0.07256086717445002
9946,5.0,299.91398,2311.3469,0.0,0.0,0.0,0.0,0.09912988812068191,0.0,-0.2055649378876798,-0.2159869041762478,-0.2810399113364797,0.18578764355831281,0.8470233104171923,-0.1288549949519979
9947,5.0,300.6077,2564.8989,0.0,0.0,0.0,0.0,0.09913985493026573,0.0,-0.2914423826931237,-0.20837361650237482,-0.27984922087896774,0.22162276335246378,0.8600593809037521,-0.05130449621035955
9948,5.0,299.98395,2701.7356,0.0,0.0,0.0,0.0,0.09914982173984954,0.0,-0.25968475355388976,-0.23420250652398777,-0.3273728999841897,0.17794719534452083,0.8238834240409633,-0.0994495448599059
9949,5.0,300.2569,2599.1286,0.0,0.0,0.0,0.0,0.09915978854943336,0.0,-0.2177105439213578,-0.23364450969391776,-0.33871513041108064,0.18877516081565782,0.8314723835799351,-0.04816645963740945
9950,5.0,300.02364,2470.9707,0.0,0.0,0.0,0.0,0.09916975535901719,0.0,-0.16712511685646483,-0.22011590846624876,-0.36387237747140766,0.2010264690997678,0.8221363275560383,-0.061272224505597744
9951,5.0,301.13068,2620.2627,0.0,0.0,0.0,0.0,0.099179722168601,0.0,-0.2243403913131728,-0.23117747874794078,-0.34097655264676563,0.2055837944720408,0.8640984491148772,-0.051289294419109246
9952,5.0,300.74376,2638.6529,0.0,0.0,0.0,0.0,0.09918968897818482,0.0,-0.27591114330530975,-0.21219408613692578,-0.3139793649948507,0.20442307595248682,0.8646079213976582,-0.05309441264451054
9953,5.0,300.415,2608.1707,0.0,0.0,0.0,0.0,0.09919965578776865,0.0,-0.25431066754100873,-0.2172139601798488,-0.3212941390567627,0.16850276208992784,0.8460425957779032,-0.07017504721073793
9954,5.0,300.18767,2428.5552,0.0,0.0,0.0,0.0,0.09920962259735246,0.0,-0.21753365071889977,-0.18939493550432482,-0.33129154342092965,0.18575477372506882,0.8641836634482871,-0.05033941399361336
9955,5.0,299.99255,2270.1342,0.0,0.0,0.0,0.0,0.09921958940693629,0.0,-0.17796472457125082,-0.17696436301252283,-0.3351350239652517,0.19248050497384683,0.8405673164775352,-0.08318600226706922
9956,5.0,300.02032,2569.5071,0.0,0.0,0.0,0.0,0.09922955621652012,0.0,-0.20886540757091082,-0.2159594349660368,-0.35624116540326567,0.1916501465168968,0.8496511137565362,-0.04464573066069056
9957,5.0,300.58007000000003,2636.6104,0.0,0.0,0.0,0.0,0.09923952302610393,0.0,-0.26443092847980076,-0.2177988891975768,-0.3192338976284327,0.21581143965643076,0.8278235585123243,-0.08566332682081211
9958,5.0,300.21322999999995,2469.2038,0.0,0.0,0.0,0.0,0.09924948983568775,0.0,-0.24410522266630974,-0.2112444985407088,-0.2952265881065957,0.1960292411965798,0.8341648728056632,-0.05721665652984435
9959,5.0,300.62957,2524.4046,0.0,0.0,0.0,0.0,0.09925945664527157,0.0,-0.27438293923948776,-0.2249436905552138,-0.26802932408993474,0.21386658714948878,0.8559679985899641,-0.08441608383546882
9960,5.0,300.6622,2609.1479,0.0,0.0,0.0,0.0,0.0992694234548554,0.0,-0.24472267701224776,-0.2195226910627028,-0.3288704633669877,0.18608139489480383,0.8342327504298622,-0.05751990505952265
9961,5.0,299.16683,2430.7942,0.0,0.0,0.0,0.0,0.0992793902644392,0.0,-0.1955505919818408,-0.22399343421393075,-0.3193567238055547,0.20461295902122678,0.8452597283531401,-0.07966231865305873
9962,5.0,299.3258,2427.3608,0.0,0.0,0.0,0.0,0.09928935707402303,0.0,-0.15792462356344686,-0.22170151315023578,-0.3582309352871407,0.1449125975017599,0.8480939104728521,-0.08112717938887921
9963,5.0,299.61802,2424.5509,0.0,0.0,0.0,0.0,0.09929932388360686,0.0,-0.24151936788110576,-0.19220758605941182,-0.3032759887560097,0.20154637785857882,0.8619627104215962,-0.07422989881867063
9964,5.0,299.81897999999995,2371.3606,0.0,0.0,0.0,0.0,0.09930929069319067,0.0,-0.2062140765642448,-0.21481992377107578,-0.2998003990579957,0.17494110521284284,0.8521860223267121,-0.0997063885615044
9965,5.0,300.18192999999997,2279.1097,0.0,0.0,0.0,0.0,0.0993192575027745,0.0,-0.2461208506927368,-0.17768657728629983,-0.26898501145175374,0.2004438604247688,0.8475879541679182,-0.08545545754954702
9966,5.0,299.86146,2362.5563,0.0,0.0,0.0,0.0,0.09932922431235831,0.0,-0.19261733426735084,-0.1807843057570218,-0.3447564720123147,0.21847682444198382,0.8591022648592922,-0.07683333855936013
9967,5.0,299.92561,2373.5565,0.0,0.0,0.0,0.0,0.09933919112194214,0.0,-0.1888798295509878,-0.19824197676495983,-0.3343800817132447,0.1994758418092328,0.8530485920043411,-0.056595923306582745
9968,5.0,300.92484,2610.3426,0.0,0.0,0.0,0.0,0.09934915793152595,0.0,-0.20267961703542078,-0.2294909746189958,-0.3613083683583596,0.23483423756383476,0.8529135764285161,-0.040701187538144466
9969,5.0,300.36433999999997,2955.17,0.0,0.0,0.0,0.0,0.09935912474110978,0.0,-0.3027666684607437,-0.24228789781695378,-0.35324333325990265,0.19195853931733284,0.8155043928690172,-0.04603017885532496
9970,5.0,300.1824,2885.0823,0.0,0.0,0.0,0.0,0.09936909155069358,0.0,-0.2920162368872587,-0.22613252676504278,-0.35884421504266667,0.2133023993613078,0.8462669800125482,-0.03123924633507357
9971,5.0,300.38125,2688.9746,0.0,0.0,0.0,0.0,0.09937905836027741,0.0,-0.25148227107936777,-0.23858831905183375,-0.32731055470553666,0.17859267618822483,0.8254289546834952,-0.07566823266687313
9972,5.0,300.82604,2586.304,0.0,0.0,0.0,0.0,0.09938902516986123,0.0,-0.2250089134641508,-0.2007073054507688,-0.36045560694169865,0.19456723275979082,0.8554073673096342,-0.05599580060360525
9973,5.0,299.78352,2456.5751,0.0,0.0,0.0,0.0,0.09939899197944506,0.0,-0.18918304464341282,-0.2112052148343318,-0.34634924037450865,0.18733583904860782,0.8553762402665622,-0.08523925024320901
9974,5.0,299.08307,2160.091,0.0,0.0,0.0,0.0,0.09940895878902888,0.0,-0.16318204395981384,-0.17842971517464182,-0.3150019673932737,0.2068249143870298,0.8838685291035322,-0.07178125430900824
9975,5.0,298.78451,2199.5344,0.0,0.0,0.0,0.0,0.09941892559861269,0.0,-0.20776573736988177,-0.17148336898159083,-0.2893544288745587,0.21598616450367478,0.8849636092816082,-0.07673863919176402
9976,5.0,298.63728,2478.9869,0.0,0.0,0.0,0.0,0.09942889240819652,0.0,-0.24443061780342376,-0.1956422911158908,-0.3134772185102927,0.2066652869662758,0.8653687911627502,-0.08283447946287663
9977,5.0,298.93584,2576.8969,0.0,0.0,0.0,0.0,0.09943885921778033,0.0,-0.24133565550547478,-0.2073319244720678,-0.33464474263936467,0.2041413012321778,0.8434275391248172,-0.07021985313015994
9978,5.0,299.41077,2675.2998,0.0,0.0,0.0,0.0,0.09944882602736416,0.0,-0.21864925934400178,-0.22967315698697577,-0.36490192063301563,0.1990684342090248,0.8507222710997513,-0.07141393696225684
9979,5.0,299.84533,2923.4041,0.0,0.0,0.0,0.0,0.09945879283694797,0.0,-0.25347391547592774,-0.25832056428175476,-0.3768473793744407,0.2039139076447358,0.8350376763093023,-0.024299621029935877
9980,5.0,301.01906,2757.5109,0.0,0.0,0.0,0.0,0.0994687596465318,0.0,-0.2395296182622328,-0.23135007576997477,-0.36733475438811763,0.19984419875058682,0.8348487051656522,-0.07901589143376132
9981,5.0,300.29648,2354.6553,0.0,0.0,0.0,0.0,0.09947872645611562,0.0,-0.23448543634941077,-0.20306592876854682,-0.27820506047170174,0.18946423167866383,0.8206520985445562,-0.06035582996940664
9982,5.0,300.29173,2235.6299,0.0,0.0,0.0,0.0,0.09948869326569944,0.0,-0.2001718838329268,-0.19666092157392182,-0.2827428706470487,0.2145631459307338,0.8703798904598071,-0.09715731576818051
9983,5.0,300.10865,2147.7079,0.0,0.0,0.0,0.0,0.09949866007528327,0.0,-0.16251400816888384,-0.18575320318741384,-0.3045823721099397,0.2152106532746378,0.8614506543510603,-0.07968776845582043
9984,5.0,299.31401,2200.4171,0.0,0.0,0.0,0.0,0.09950862688486707,0.0,-0.15261622655454885,-0.1981538848012658,-0.31810175276169866,0.19860144750293682,0.8574605463847672,-0.11383341023198289
9985,5.0,299.37791,2448.2968,0.0,0.0,0.0,0.0,0.0995185936944509,0.0,-0.20593590901429182,-0.1899509159666958,-0.3483342479829137,0.17491310911257982,0.8484515877581522,-0.06454294617914284
9986,5.0,299.04101,2538.0511,0.0,0.0,0.0,0.0,0.09952856050403473,0.0,-0.24459572690721876,-0.20551631201538081,-0.32139210007643065,0.17472449260646483,0.8755734760998741,-0.04645316010956996
9987,5.0,298.48987,2648.4592,0.0,0.0,0.0,0.0,0.09953852731361854,0.0,-0.2956025545562007,-0.21143564817207378,-0.29802726204550073,0.20884477779887478,0.8601974058323741,-0.05687696240731914
9988,5.0,300.26336000000003,2853.3497,0.0,0.0,0.0,0.0,0.09954849412320237,0.0,-0.28578129358941773,-0.2301942309834018,-0.35137154621767164,0.18005850457789083,0.8235012261032433,-0.05012360286806445
9989,5.0,299.59614,2875.0906,0.0,0.0,0.0,0.0,0.09955846093278618,0.0,-0.2746769641535058,-0.24870809363057778,-0.3505706936036337,0.23794120687546877,0.8201286130128923,-0.07665064044707923
9990,5.0,300.22977000000003,2589.9027,0.0,0.0,0.0,0.0,0.09956842774237001,0.0,-0.18142656446540784,-0.23106231274157477,-0.3747768737225976,0.18857659419356082,0.8381125559902692,-0.04782476839893715
9991,5.0,299.44854,2346.9394,0.0,0.0,0.0,0.0,0.09957839455195383,0.0,-0.20510942117272382,-0.2052550454770958,-0.3030465180058627,0.23605280253159777,0.8545074492333192,-0.06923745750895503
9992,5.0,299.44514,2409.1884,0.0,0.0,0.0,0.0,0.09958836136153765,0.0,-0.2011840396228188,-0.20816211067650078,-0.3229869759988327,0.19360867790018882,0.8384550446565703,-0.06511293583739644
9993,5.0,299.64493999999996,2325.653,0.0,0.0,0.0,0.0,0.09959832817112148,0.0,-0.2500114980292138,-0.1733982495505748,-0.2835307029973017,0.2151111115848138,0.8612786551465852,-0.09085292836148591
9994,5.0,300.48182,2233.1417,0.0,0.0,0.0,0.0,0.09960829498070528,0.0,-0.15507988337769285,-0.2141496385649238,-0.3095898034416347,0.18359521352193683,0.8870152076865853,-0.10660357692595389
9995,5.0,299.30437,2401.0248,0.0,0.0,0.0,0.0,0.09961826179028911,0.0,-0.2079990584704088,-0.2065795761403168,-0.31527294086751667,0.2047116901109708,0.8767524837837332,-0.07709987906441562
9996,5.0,300.69263,2625.9516,0.0,0.0,0.0,0.0,0.09962822859987294,0.0,-0.1796139208315138,-0.24740498307447076,-0.37120481248256265,0.17183152171595084,0.8705619107077712,-0.09642422425458001
9997,5.0,300.27802,2551.0285,0.0,0.0,0.0,0.0,0.09963819540945675,0.0,-0.25052965386535175,-0.21553022222367677,-0.3093890887293257,0.19523463020315782,0.8572399213079932,-0.05188684144033255
9998,5.0,299.95231,2696.4057,0.0,0.0,0.0,0.0,0.09964816221904058,0.0,-0.27656872235520774,-0.2187559849770348,-0.3243153063499287,0.19527515007465682,0.8700556504278072,-0.060011653228439044
9999,5.0,299.31654,2607.5417,0.0,0.0,0.0,0.0,0.09965812902862439,0.0,-0.3137209051593427,-0.20178857502998182,-0.27711808629442575,0.2042008702055568,0.8618272895457313,-0.03397091490241826
10000,5.0,299.18227,2421.677,0.0,0.0,0.0,0.0,0.09966809583820822,0.0,-0.18888620289411684,-0.22494026576987577,-0.3223028801938177,0.2102337005059508,0.8351542709983092,-0.0954925347081294
10001,5.0,298.96641,2502.2145,0.0,0.0,0.0,0.0,0.09967806264779204,0.0,-0.2032109451228588,-0.2161633414161608,-0.3412364411649147,0.2369370152313628,0.8208624897953203,-0.06321342525917935
10002,5.0,299.87375,2503.498,0.0,0.0,0.0,0.0,0.09968802945737586,0.0,-0.16250391619788784,-0.2131931710005278,-0.3853037823240226,0.2215057025684108,0.8394166190014702,-0.07407156227854403
10003,5.0,299.87916,2187.8242,0.0,0.0,0.0,0.0,0.09969799626695969,0.0,-0.1982577125390128,-0.16945480175138683,-0.2973314024068247,0.2042831258486748,0.8504712383874762,-0.07273714330759713
10004,5.0,299.18542,2299.3659,0.0,0.0,0.0,0.0,0.09970796307654349,0.0,-0.23490868104868176,-0.17583708174626883,-0.28820405563852575,0.18651962556305382,0.8601680013144721,-0.06889532348018904
10005,5.0,300.39247,2610.3941,0.0,0.0,0.0,0.0,0.09971792988612732,0.0,-0.28831319280679674,-0.2144049775901238,-0.29077645446240175,0.19648806110686182,0.8809727819077441,-0.07362834945955234
10006,5.0,301.16709,2544.8914,0.0,0.0,0.0,0.0,0.09972789669571115,0.0,-0.2237476602696748,-0.2117759178206558,-0.33805986157141066,0.1969762044750378,0.9056576619039521,-0.09775482833890041
10007,5.0,300.81084,2679.7092,0.0,0.0,0.0,0.0,0.09973786350529495,0.0,-0.2384292590511358,-0.23078665805186976,-0.3453487673582697,0.1817874537535248,0.8778150082360963,-0.07618650198702233
10008,5.0,299.99242999999996,2805.1276,0.0,0.0,0.0,0.0,0.09974783031487879,0.0,-0.2295876285460348,-0.23751916794381678,-0.38558193974147464,0.18422832258191982,0.8461822115091822,-0.06496072540737444
10009,5.0,299.28879,2521.7233,0.0,0.0,0.0,0.0,0.0997577971244626,0.0,-0.2370909887165588,-0.2013582882425158,-0.3280916388101237,0.19470129588052182,0.8303252426117212,-0.04514285142475255
10010,5.0,299.06935,2314.0732,0.0,0.0,0.0,0.0,0.09976776393404643,0.0,-0.22716287039422975,-0.19868509129869183,-0.2775725188317747,0.2260861908379698,0.8708780852689751,-0.08378984866416422
10011,5.0,299.82174,2461.0332,0.0,0.0,0.0,0.0,0.09977773074363025,0.0,-0.24654829024742178,-0.2049475949992528,-0.29659674542181974,0.21223495051345878,0.8433158384337932,-0.06721122075398103
10012,5.0,299.54825,2397.1139,0.0,0.0,0.0,0.0,0.09978769755321407,0.0,-0.18104077962233384,-0.23906687707406377,-0.3085551129695187,0.21006279561158378,0.8487589673084883,-0.14766120051802586
10013,5.0,299.34692,2221.6266,0.0,0.0,0.0,0.0,0.0997976643627979,0.0,-0.15554634319372887,-0.20955721420918683,-0.3102154651133827,0.17047368552194284,0.8480456189730862,-0.08828884021493011
10014,5.0,299.80539,2378.7829,0.0,0.0,0.0,0.0,0.0998076311723817,0.0,-0.15500905719570285,-0.20604519817007783,-0.36203636829020763,0.23446836308522576,0.8658545635256921,-0.1229346354127039
10015,5.0,301.1492,2564.1195,0.0,0.0,0.0,0.0,0.09981759798196553,0.0,-0.26272427080636673,-0.18351251204877483,-0.3331915089484417,0.19929223075861183,0.8604502927923322,-0.018182451844218284
10016,5.0,300.55863999999997,2500.3848,0.0,0.0,0.0,0.0,0.09982756479154936,0.0,-0.2602100528032327,-0.18435911290482782,-0.3154853586184807,0.2095111417271398,0.8473609557480153,-0.06005232610070315
10017,5.0,300.51951,2855.841,0.0,0.0,0.0,0.0,0.09983753160113316,0.0,-0.31198030360755874,-0.2226388708177458,-0.3334851690924237,0.20078916592634782,0.8345360769797983,-0.016787832645080082
10018,5.0,299.56632,3091.3238,0.0,0.0,0.0,0.0,0.099847498410717,0.0,-0.28080856607364774,-0.2532650947628188,-0.40561158400824665,0.1950336115158188,0.8488959587220082,-0.06734667608034943
10019,5.0,299.46938,2736.8285,0.0,0.0,0.0,0.0,0.09985746522030081,0.0,-0.2522391587715668,-0.21965098879036482,-0.36003737783042267,0.19035666183673983,0.8396345690979802,-0.05235804630658685
10020,5.0,298.79246,2426.1043,0.0,0.0,0.0,0.0,0.09986743202988464,0.0,-0.16812247919489684,-0.20391055378690479,-0.36544211465882864,0.17765537931572084,0.8255952492899071,-0.07491392572267883
10021,5.0,299.4503,2450.0075,0.0,0.0,0.0,0.0,0.09987739883946846,0.0,-0.2450595117429908,-0.17990686156792482,-0.3197747401343097,0.18907759570550584,0.8528537946726161,-0.045084680736511555
10022,5.0,298.49838,2226.1909,0.0,0.0,0.0,0.0,0.09988736564905228,0.0,-0.2125134727009468,-0.18499938564301782,-0.27919357713676074,0.2081937544771238,0.8489019774276022,-0.06748788565403574
10023,5.0,299.49454,2256.5179,0.0,0.0,0.0,0.0,0.0998973324586361,0.0,-0.2172848167593418,-0.1851755391729028,-0.2834647302832907,0.2198367377986968,0.8531728468641042,-0.08162922657492742
10024,5.0,299.21969,2602.208,0.0,0.0,0.0,0.0,0.09990729926821991,0.0,-0.21054516345418978,-0.22584836077449777,-0.35461274077005267,0.2060654023770718,0.8396212651241672,-0.08889595535684772
10025,5.0,300.26169,2658.8882,0.0,0.0,0.0,0.0,0.09991726607780374,0.0,-0.20107123448918582,-0.2388304148982268,-0.36833396084173164,0.2038681087402158,0.8458779122391502,-0.08972852979176642
10026,5.0,300.90515,2624.3211,0.0,0.0,0.0,0.0,0.09992723288738757,0.0,-0.1922280841089348,-0.23042727850640177,-0.3750727123542947,0.17752456872781083,0.8715937843446091,-0.08495443070634952
10027,5.0,300.40452,2747.4151,0.0,0.0,0.0,0.0,0.09993719969697137,0.0,-0.2735545566202327,-0.2251439898349818,-0.3364470409897377,0.18952102434676882,0.8698759707875742,-0.04158802354241836
10028,5.0,299.87516,2581.8617,0.0,0.0,0.0,0.0,0.0999471665065552,0.0,-0.25150646749175576,-0.22724738558507077,-0.30606762450402275,0.1765059382697798,0.8641191903444241,-0.058258270539893645
10029,5.0,300.62692999999996,2283.7899,0.0,0.0,0.0,0.0,0.09995713331613902,0.0,-0.23139395963180578,-0.1871371407039978,-0.27568399289789175,0.1979095091421478,0.8708358834023102,-0.05834909118610694
10030,5.0,299.77361,2337.9021,0.0,0.0,0.0,0.0,0.09996710012572285,0.0,-0.17506828836539484,-0.23399377700338778,-0.3016017956157797,0.17631630851356483,0.8579351223341042,-0.10104812826442382
10031,5.0,299.53913,2499.7024,0.0,0.0,0.0,0.0,0.09997706693530667,0.0,-0.20969731630051378,-0.2016512999064338,-0.3484985160891257,0.1994450086086898,0.8475283953270403,-0.09347230956599872
10032,5.0,299.72258,2408.2021,0.0,0.0,0.0,0.0,0.09998703374489049,0.0,-0.16365308366630185,-0.2003594364264368,-0.3680207652358216,0.19647648979071983,0.8427318720036602,-0.08438756287165401
10033,5.0,299.23214,2459.9667,0.0,0.0,0.0,0.0,0.09999700055447432,0.0,-0.2666683164231137,-0.18612777135188083,-0.29497237378900676,0.2282007120741568,0.8757430941666142,-0.05172540638140015
10034,5.0,299.03036000000003,2665.5252,0.0,0.0,0.0,0.0,0.10000696736405812,0.0,-0.24820260342068975,-0.20555455207415482,-0.35649594714091065,0.20441022794121882,0.8479949159380823,-0.025982634512286374
10035,5.0,299.57558,2742.8189,0.0,0.0,0.0,0.0,0.10001693417364195,0.0,-0.2780231010187437,-0.23051671809272878,-0.32520864843309466,0.1994263141443448,0.8628572582723811,-0.045590983572979756
10036,5.0,299.67777,2785.9483,0.0,0.0,0.0,0.0,0.10002690098322578,0.0,-0.23471732876729676,-0.2285005935737528,-0.3836408058623996,0.1961753822585028,0.8350047963435572,-0.050111504661870455
10037,5.0,299.6674,2768.7303,0.0,0.0,0.0,0.0,0.10003686779280958,0.0,-0.24717932214469973,-0.22859006355758277,-0.36585550043462667,0.21415069234502782,0.8701726402843531,-0.06542079668152993
10038,5.0,299.74822,2485.8349,0.0,0.0,0.0,0.0,0.10004683460239341,0.0,-0.1983476992803938,-0.2356737355366868,-0.32161031361796666,0.2073420772380698,0.8623585771031652,-0.07148769650328633
10039,5.0,299.85758,2322.1514,0.0,0.0,0.0,0.0,0.10005680141197723,0.0,-0.2488366953332698,-0.17996890287154782,-0.27707043314222274,0.17649617053881583,0.8618840214188301,-0.07595650232032314
10040,5.0,300.40629,2554.7035,0.0,0.0,0.0,0.0,0.10006676822156106,0.0,-0.24878246618791777,-0.2285615101697648,-0.2992220865634207,0.1992648730059118,0.8362477806387303,-0.07786499333417651
10041,5.0,299.77759,2423.1091,0.0,0.0,0.0,0.0,0.10007673503114488,0.0,-0.2348285329657718,-0.20060120803279782,-0.30113493049970375,0.17409699695203584,0.8704437150836061,-0.07888785208487482
10042,5.0,300.19869,2414.649,0.0,0.0,0.0,0.0,0.1000867018407287,0.0,-0.16485031971945985,-0.2289085584615158,-0.3402341139009927,0.22471132190978077,0.8665390950282502,-0.1020348524900559
10043,5.0,299.81889,2673.5529,0.0,0.0,0.0,0.0,0.10009666865031253,0.0,-0.2207313971069928,-0.26026393744355075,-0.3316979884335427,0.17189881165509183,0.8512636100981773,-0.11226702690239289
10044,5.0,299.51941,2708.3827,0.0,0.0,0.0,0.0,0.10010663545989633,0.0,-0.2292203861797908,-0.23457497726074777,-0.35948534904344165,0.21804699361706278,0.8482853032842411,-0.08759732741918311
10045,5.0,299.95364,2628.3945,0.0,0.0,0.0,0.0,0.10011660226948016,0.0,-0.26982399266705476,-0.23039234164295377,-0.29874994241432373,0.19594382421314982,0.8750763046733071,-0.06779819045741044
10046,5.0,299.54393999999996,2674.6167,0.0,0.0,0.0,0.0,0.10012656907906399,0.0,-0.2237456439019758,-0.24379394210308877,-0.3454771056159357,0.24208902721982678,0.8645202752640082,-0.05892743103843465
10047,5.0,299.87944,2664.2842,0.0,0.0,0.0,0.0,0.10013653588864779,0.0,-0.25501896989091277,-0.22152730506054277,-0.3333296048045707,0.1939629709301548,0.8501631596945712,-0.03165341940619927
10048,5.0,299.26442000000003,2466.9465,0.0,0.0,0.0,0.0,0.10014650269823162,0.0,-0.17572293912250384,-0.2141703899269718,-0.3599968174289197,0.2003859430490528,0.8283173051535533,-0.06248193974698735
10049,5.0,299.8991,2553.417,0.0,0.0,0.0,0.0,0.10015646950781544,0.0,-0.24534954445161478,-0.19447818834100283,-0.3363472763848917,0.16210705653122084,0.8486214490049162,-0.04567539845206086
10050,5.0,298.93695,2601.4336,0.0,0.0,0.0,0.0,0.10016643631739924,0.0,-0.24648067606824878,-0.2058461350554318,-0.33844404547932666,0.2070240382966818,0.8522609015091022,-0.07611846528255763
10051,5.0,299.83161,2442.9385,0.0,0.0,0.0,0.0,0.10017640312698309,0.0,-0.2530846653175118,-0.19996819016532383,-0.2895394483428187,0.19316412455131482,0.8660575681832272,-0.08129584804027552
10052,5.0,299.88357,2369.6658,0.0,0.0,0.0,0.0,0.1001863699365669,0.0,-0.2164624123156768,-0.19823589726435983,-0.3056209230649367,0.20971208948697181,0.8710445115979002,-0.08573503959663961
10053,5.0,300.26185,2579.9699,0.0,0.0,0.0,0.0,0.10019633674615074,0.0,-0.24176252764010378,-0.19814002353989782,-0.34434385630659264,0.18579874877940883,0.8784464656984162,-0.05276538804553836
10054,5.0,299.94675,2439.3643,0.0,0.0,0.0,0.0,0.10020630355573454,0.0,-0.17976675947659781,-0.20226717358221583,-0.35947190321461464,0.22261375234776679,0.8384089012470162,-0.06415930334678024
10055,5.0,299.93359,2367.748,0.0,0.0,0.0,0.0,0.10021627036531837,0.0,-0.17145658878144784,-0.2068967132891158,-0.34138295712937466,0.1985808278634018,0.8334767240002482,-0.06009776935443804
10056,5.0,300.27339,2686.2989,0.0,0.0,0.0,0.0,0.1002262371749022,0.0,-0.23076500489723278,-0.2304298014991508,-0.3553729924525837,0.23403060864452277,0.8287209231983873,-0.055044106460430356
10057,5.0,299.41519,2713.2144,0.0,0.0,0.0,0.0,0.100236203984486,0.0,-0.26740989390630177,-0.2289505880756638,-0.3283889365219647,0.18921579288664483,0.8563965729847611,-0.06617411672012684
10058,5.0,299.36731000000003,2478.4581,0.0,0.0,0.0,0.0,0.10024617079406983,0.0,-0.2126240689493618,-0.22779727641434078,-0.31296802993753975,0.1960074461869288,0.8625723526092632,-0.07132451966743203
10059,5.0,299.86994,2529.1238,0.0,0.0,0.0,0.0,0.10025613760365365,0.0,-0.2138829916686078,-0.2340366374826178,-0.3208708639599887,0.20507996599231682,0.8690201594881121,-0.08882594788093852
10060,5.0,299.3266,2348.1852,0.0,0.0,0.0,0.0,0.10026610441323748,0.0,-0.17451405069319584,-0.19066874286753982,-0.3486068730548197,0.1988201676695228,0.8388862028391222,-0.07091929866093984
10061,5.0,299.6732,2124.6428,0.0,0.0,0.0,0.0,0.1002760712228213,0.0,-0.19155566094507182,-0.19033985201758083,-0.26394283577412975,0.18462245660581783,0.8659691925095052,-0.10906457903383589
10062,5.0,299.96855,2357.752,0.0,0.0,0.0,0.0,0.10028603803240511,0.0,-0.2240388075534088,-0.1935435563162618,-0.2991153609303877,0.16185615554145885,0.8442302358540372,-0.10352362086198591
10063,5.0,299.56016,2574.7119,0.0,0.0,0.0,0.0,0.10029600484198894,0.0,-0.2811111428185097,-0.21145747357922778,-0.29007952077861976,0.2050465084740148,0.8623569356380032,-0.094168719399479
10064,5.0,299.82527000000005,2488.7627,0.0,0.0,0.0,0.0,0.10030597165157275,0.0,-0.22337836100572778,-0.21118231538207177,-0.3219610501400817,0.20925663356702182,0.8694532023158502,-0.07147576244360852
10065,5.0,300.82405,2713.6502,0.0,0.0,0.0,0.0,0.10031593846115658,0.0,-0.2567993719066248,-0.2144169947363098,-0.35366552417906966,0.2282881656902878,0.8566745682821972,-0.03042667244387877
10066,5.0,300.6727,2934.5213,0.0,0.0,0.0,0.0,0.10032590527074041,0.0,-0.24459903010254477,-0.23468956571455676,-0.4127326043860366,0.2153848309668278,0.8509135625861303,-0.015370457875196086
10067,5.0,300.53647,2778.1727,0.0,0.0,0.0,0.0,0.10033587208032421,0.0,-0.25467422167688875,-0.2209052505591508,-0.36891565759164063,0.21528859247232976,0.8523270363431292,-0.01694871750920818
10068,5.0,298.90389,2618.9619,0.0,0.0,0.0,0.0,0.10034583888990804,0.0,-0.2182738501819518,-0.22587219241684978,-0.35195297952255467,0.22663522040465475,0.8411648807240101,-0.04843567816247925
10069,5.0,298.68816,2617.014,0.0,0.0,0.0,0.0,0.10035580569949186,0.0,-0.2980362597063887,-0.19373701615785482,-0.3037336231636747,0.19949904523652282,0.8444748445606782,-0.07162124387971643
10070,5.0,299.23908,2513.8037,0.0,0.0,0.0,0.0,0.10036577250907569,0.0,-0.2313593571408908,-0.22125357554602781,-0.3115206325671927,0.17760154533790784,0.8794308989655722,-0.09373693198861491
10071,5.0,299.84947999999997,2067.9741,0.0,0.0,0.0,0.0,0.1003757393186595,0.0,-0.1916195666288788,-0.16561710686513584,-0.27137581559270774,0.17943569013892383,0.8668718868910942,-0.10712672808508489
10072,5.0,299.80467000000004,2223.3958,0.0,0.0,0.0,0.0,0.10038570612824332,0.0,-0.14459284616770285,-0.2012134846707248,-0.3300504843009467,0.1927933054122178,0.8811903571017171,-0.07472437196022133
10073,5.0,299.84691000000004,2428.7116,0.0,0.0,0.0,0.0,0.10039567293782714,0.0,-0.23949745770405878,-0.18916469468410183,-0.3096055088181847,0.21098793348288777,0.8536388608500962,-0.07137944694210292
10074,5.0,299.70234,2387.1048,0.0,0.0,0.0,0.0,0.10040563974741096,0.0,-0.1944539716636128,-0.2092693701207788,-0.3218969114087517,0.2228256634736808,0.8560489268754512,-0.07627732364648573
10075,5.0,300.01071,2551.0805,0.0,0.0,0.0,0.0,0.10041560655699479,0.0,-0.25758627206678575,-0.23444678085809578,-0.28343170846253174,0.20198973557233482,0.8780503153068191,-0.09073084489668722
10076,5.0,300.06982,2684.5669,0.0,0.0,0.0,0.0,0.1004255733665786,0.0,-0.2249051667864118,-0.23433705600476679,-0.35679909130582865,0.2254847863736158,0.8722006096969981,-0.05719061296252405
10077,5.0,299.7003,2610.2277,0.0,0.0,0.0,0.0,0.10043554017616244,0.0,-0.2100986849301258,-0.24149509040870978,-0.3418502782079957,0.18496824846744483,0.8645909494584832,-0.08104000239002553
10078,5.0,299.71893,2511.5211,0.0,0.0,0.0,0.0,0.10044550698574624,0.0,-0.2014862110676408,-0.2062734327551028,-0.35568004776288764,0.19553874708817182,0.8827415923423121,-0.06759370949447974
10079,5.0,299.36766,2428.6961,0.0,0.0,0.0,0.0,0.10045547379533007,0.0,-0.2137225131177698,-0.1937081081325018,-0.3308323587406117,0.17783761234620582,0.8622705864644813,-0.056064149389100745
10080,5.0,299.46166,2218.9052,0.0,0.0,0.0,0.0,0.10046544060491387,0.0,-0.1853392398590588,-0.1969460096220578,-0.29220651512353774,0.18958098848768684,0.8696355569363472,-0.09222970219986291
10081,5.0,299.07355,2398.9428,0.0,0.0,0.0,0.0,0.1004754074144977,0.0,-0.23507039576464175,-0.2046247329873888,-0.28952358084625274,0.19660397691830184,0.8382970890984812,-0.06590736241930023
10082,5.0,298.24637,2747.1004,0.0,0.0,0.0,0.0,0.10048537422408152,0.0,-0.26735924153380275,-0.2304705949481768,-0.3372201001535327,0.2100116872765398,0.8432126997061142,-0.08514700800710542
10083,5.0,299.16601,2578.8576,0.0,0.0,0.0,0.0,0.10049534103366535,0.0,-0.23036493322774876,-0.1987126517014118,-0.3548307313965667,0.19074070388964182,0.8219389667015602,-0.062391972257358236
10084,5.0,299.64105,2322.1787,0.0,0.0,0.0,0.0,0.10050530784324915,0.0,-0.17697039185061783,-0.19457257258781782,-0.33434137555942467,0.2028600971432328,0.8598593045390062,-0.05364265491586785
10085,5.0,300.35976,2696.384,0.0,0.0,0.0,0.0,0.10051527465283298,0.0,-0.2329896258892858,-0.21167313373051178,-0.3749706476717216,0.18620549776705184,0.8475990188590101,-0.02599697706745187
10086,5.0,299.97949,3013.9371,0.0,0.0,0.0,0.0,0.10052524146241681,0.0,-0.2863240612704847,-0.23386764763093978,-0.39596992162168865,0.2094335774319848,0.8676381167492151,-0.032444433361766264
10087,5.0,300.17509,2610.3602,0.0,0.0,0.0,0.0,0.10053520827200062,0.0,-0.2704421562880628,-0.2075717101082328,-0.31547045370950966,0.1938048836495528,0.8531222147566071,-0.04684531829577295
10088,5.0,300.64874,2513.9763,0.0,0.0,0.0,0.0,0.10054517508158445,0.0,-0.21697510673377576,-0.22419367269869278,-0.32301724177931973,0.2030247604169838,0.8490318760904221,-0.07447829201443514
10089,5.0,301.17907,2621.7258,0.0,0.0,0.0,0.0,0.10055514189116826,0.0,-0.23691301133649376,-0.21515078032622878,-0.3448753870440507,0.22224349049622477,0.8307807289291742,-0.06916546406284983
10090,5.0,299.98551000000003,2522.1652,0.0,0.0,0.0,0.0,0.10056510870075208,0.0,-0.20233091714600682,-0.23783689277767378,-0.32650742227877366,0.1927948962148748,0.8605107939558032,-0.1204548375154669
10091,5.0,299.73431,2462.1872,0.0,0.0,0.0,0.0,0.10057507551033591,0.0,-0.2003555658110548,-0.22670361478640477,-0.3213842473881557,0.22002954916022577,0.862004709638241,-0.08415460856766323
10092,5.0,300.50621,2363.1569,0.0,0.0,0.0,0.0,0.10058504231991973,0.0,-0.19870090813275282,-0.2024974853299458,-0.3171423062420087,0.18595843699516884,0.8684819109024912,-0.08247377154652752
10093,5.0,299.98985,2277.5725,0.0,0.0,0.0,0.0,0.10059500912950356,0.0,-0.18623199425716683,-0.21517682085379877,-0.29091635390370874,0.19820504379881482,0.8579413335572171,-0.07319955924248403
10094,5.0,299.56822,2372.3923,0.0,0.0,0.0,0.0,0.10060497593908736,0.0,-0.2202661329260748,-0.17547339588787583,-0.3254084917503177,0.16291293486575484,0.8581876141265232,-0.08337510209348192
10095,5.0,299.05617,2917.2357,0.0,0.0,0.0,0.0,0.1006149427486712,0.0,-0.25715599541182077,-0.25293507920524877,-0.3766757449400016,0.19179914494410183,0.8691100043744792,-0.05597590442464165
10096,5.0,299.37583,2825.8467,0.0,0.0,0.0,0.0,0.10062490955825502,0.0,-0.24973384723681177,-0.2094358977747138,-0.39981708026387364,0.17998389897302783,0.8828375572592833,-0.05615513316858015
10097,5.0,299.30379,2560.1459,0.0,0.0,0.0,0.0,0.10063487636783883,0.0,-0.2191681244552098,-0.2167119859478078,-0.34234032648635965,0.2313182394518328,0.8486689299046023,-0.06308465535697073
10098,5.0,299.84574,2749.0581,0.0,0.0,0.0,0.0,0.10064484317742266,0.0,-0.26238882422826076,-0.2267931962277458,-0.34646301822823766,0.20093951197618581,0.8658328394435482,-0.07796567189061272
10099,5.0,300.60791,2716.5468,0.0,0.0,0.0,0.0,0.10065480998700647,0.0,-0.26166520153684475,-0.1995502751615788,-0.36454693859298165,0.2288207096778458,0.8352688087896132,-0.07245418916417173
10100,5.0,300.08235,2393.9426,0.0,0.0,0.0,0.0,0.10066477679659029,0.0,-0.19669475399476083,-0.2090195026461188,-0.3219845271448987,0.1933785080074728,0.8250602937671112,-0.08388784210783543
10101,5.0,300.31638,2332.6784,0.0,0.0,0.0,0.0,0.10067474360617412,0.0,-0.2055035855941248,-0.17816270350828983,-0.3254096873854357,0.21683154945960778,0.8225213119315332,-0.07173411386135584
10102,5.0,300.53704,2496.5615,0.0,0.0,0.0,0.0,0.10068471041575794,0.0,-0.21465611162740877,-0.1982242347557088,-0.3460120003437257,0.19274310900226382,0.8798539410148233,-0.05076864396122505
10103,5.0,300.53188,2454.1457,0.0,0.0,0.0,0.0,0.10069467722534177,0.0,-0.23477187202017977,-0.2010795026100018,-0.3101476482841897,0.20825194543036682,0.9128296690267741,-0.06654107537634284
10104,5.0,300.37881,2812.9934,0.0,0.0,0.0,0.0,0.10070464403492557,0.0,-0.26209267148903276,-0.2088340069503118,-0.3841530645829556,0.18023899481820382,0.9063350702583071,-0.034030666260815266
10105,5.0,299.88147999999995,3016.4791,0.0,0.0,0.0,0.0,0.1007146108445094,0.0,-0.2977554982361797,-0.24269793986742177,-0.37648088681327063,0.2106235484819258,0.8757269632250222,-0.06806970298070664
10106,5.0,299.51542,2674.8577,0.0,0.0,0.0,0.0,0.10072457765409323,0.0,-0.22703498809910877,-0.24151506156818076,-0.3445399202009427,0.1917732766690488,0.8661247770623601,-0.06959986261922164
10107,5.0,299.39104,2334.1799,0.0,0.0,0.0,0.0,0.10073454446367704,0.0,-0.2096126795196608,-0.17100432459931283,-0.3289154010089227,0.2012195540388238,0.8609123449704332,-0.08138566050263933
10108,5.0,300.56527,2435.9163,0.0,0.0,0.0,0.0,0.10074451127326087,0.0,-0.2092131246077278,-0.20568367053439782,-0.3255609453603637,0.19335031938969083,0.8487764458727132,-0.08867948156573342
10109,5.0,299.82971000000003,2207.1716,0.0,0.0,0.0,0.0,0.10075447808284468,0.0,-0.2105898376510988,-0.17953927469664682,-0.28079593084490073,0.2036125974624988,0.8449082622909532,-0.10570907973767389
10110,5.0,300.20732999999996,2190.4929,0.0,0.0,0.0,0.0,0.1007644448924285,0.0,-0.19035648958422283,-0.17683545733480083,-0.29866319807326275,0.2010297216325888,0.8848070824061601,-0.09717558264098332
10111,5.0,301.54722999999996,2526.4122,0.0,0.0,0.0,0.0,0.10077441170201233,0.0,-0.2253999976052478,-0.2326308137638738,-0.3099354027857427,0.19333195929787883,0.8777511329497922,-0.087221218101314
10112,5.0,301.61262,2521.8234,0.0,0.0,0.0,0.0,0.10078437851159615,0.0,-0.22758865835125178,-0.18819058643546482,-0.3507920887504837,0.19216000383471582,0.8869947400345651,-0.045235608391906955
10113,5.0,300.43023999999997,2710.9824,0.0,0.0,0.0,0.0,0.10079434532117998,0.0,-0.23599412521830676,-0.25038467804104375,-0.3376921531101207,0.18008708836321183,0.8526144751314971,-0.07274940971330773
10114,5.0,300.30217999999996,3122.1490000000003,0.0,0.0,0.0,0.0,0.10080431213076378,0.0,-0.3063972144965507,-0.2568310663697528,-0.3858270449406646,0.2043128951366128,0.8478879673900273,-0.04894636938513055
10115,5.0,300.03833,2974.0640000000003,0.0,0.0,0.0,0.0,0.10081427894034761,0.0,-0.30288796463021467,-0.24693016394510975,-0.35422305491409367,0.18183424564314282,0.8493987536866302,-0.05721958887563375
10116,5.0,299.53295,2375.4618,0.0,0.0,0.0,0.0,0.10082424574993144,0.0,-0.22191161055847078,-0.2078524310484378,-0.2923170404444457,0.1814402737392608,0.8631835450695832,-0.05405469914853345
10117,5.0,299.58027999999996,2293.6517,0.0,0.0,0.0,0.0,0.10083421255951525,0.0,-0.2072125332127848,-0.17385831575847982,-0.3161420054782867,0.17795153205494882,0.8349447815401341,-0.07507957184902683
10118,5.0,298.62228,2401.2883,0.0,0.0,0.0,0.0,0.10084417936909908,0.0,-0.2088150389084398,-0.19790454421665782,-0.3232120897735497,0.1933851650606298,0.8618447377124532,-0.07934481369447342
10119,5.0,300.03311,2294.3064,0.0,0.0,0.0,0.0,0.1008541461786829,0.0,-0.1823266851917428,-0.2008169593765908,-0.3142682122008577,0.2129741975214168,0.8603649771339121,-0.0906370422554296
10120,5.0,300.44559,2404.9673,0.0,0.0,0.0,0.0,0.10086411298826672,0.0,-0.21782596324024878,-0.1916988433167028,-0.3215252107420677,0.22927320690750377,0.8696854392387702,-0.08738205128968701
10121,5.0,300.05522,2652.1699,0.0,0.0,0.0,0.0,0.10087407979785054,0.0,-0.2553227017408888,-0.2176302033209288,-0.3332405198557787,0.2232388871294628,0.8664433327612991,-0.07127071000762143
10122,5.0,299.3849,2736.1602,0.0,0.0,0.0,0.0,0.10088404660743436,0.0,-0.26511909755021773,-0.24211451045984175,-0.3244907506047437,0.2186731619138608,0.8454993012067842,-0.07767644775556852
10123,5.0,299.75133,2880.489,0.0,0.0,0.0,0.0,0.10089401341701819,0.0,-0.24391022268456475,-0.25474748979161976,-0.37693901771348465,0.2032530557970148,0.8435978968641302,-0.04409409501474836
10124,5.0,300.45346,2804.4358,0.0,0.0,0.0,0.0,0.10090398022660199,0.0,-0.25283634811550476,-0.2463930704646028,-0.35324904799046664,0.16389419666009786,0.8512617862479973,-0.05331335369961835
10125,5.0,300.30696,2373.3029,0.0,0.0,0.0,0.0,0.10091394703618582,0.0,-0.1995675612082848,-0.19254427893514084,-0.3293129800831607,0.18700693806614782,0.8399309143547271,-0.028164708119390272
10126,5.0,299.63207,2254.1202,0.0,0.0,0.0,0.0,0.10092391384576965,0.0,-0.2145479573117348,-0.1751073694217518,-0.2955409185526177,0.17328195883659783,0.8553188801784012,-0.08001905260251563
10127,5.0,299.3748,2645.7115,0.0,0.0,0.0,0.0,0.10093388065535346,0.0,-0.24472155230463674,-0.23476225627673078,-0.32474642400247666,0.2247147568276198,0.8703471523490761,-0.05602124230036615
10128,5.0,299.99363999999997,2426.4577,0.0,0.0,0.0,0.0,0.10094384746493729,0.0,-0.2225426221907468,-0.19085107722303482,-0.3241888426049477,0.19767848811934782,0.8760922297535712,-0.07576474372564802
10129,5.0,299.60618999999997,2347.3878,0.0,0.0,0.0,0.0,0.1009538142745211,0.0,-0.17787343073724082,-0.21591802343444982,-0.3197558328874437,0.20610933690140779,0.8855336435228662,-0.09511157192228131
10130,5.0,299.57295,2569.0308,0.0,0.0,0.0,0.0,0.10096378108410493,0.0,-0.23229983561870876,-0.21557395409799282,-0.33304741465172066,0.18929462374442482,0.8731842019665711,-0.08520555765088382
10131,5.0,298.98676,2674.572,0.0,0.0,0.0,0.0,0.10097374789368875,0.0,-0.2420928370402028,-0.2292801375381878,-0.3416301192262677,0.22636666859815077,0.8731652541897011,-0.06857579100815364
10132,5.0,298.83303,2478.774,0.0,0.0,0.0,0.0,0.10098371470327257,0.0,-0.2268445173453108,-0.21311046952736581,-0.3135304040080417,0.19591210948501983,0.8475345862851512,-0.058513956096627844
10133,5.0,299.6544,2506.5758,0.0,0.0,0.0,0.0,0.1009936815128564,0.0,-0.23910881549570276,-0.19424453286794283,-0.3285830853736257,0.23220868363971278,0.8366445288478861,-0.06342555727361515
10134,5.0,300.47553999999997,2475.8031,0.0,0.0,0.0,0.0,0.1010036483224402,0.0,-0.2107785960122278,-0.2236963087546068,-0.31810741682975774,0.18843376645946483,0.8204915997287162,-0.05416125050254925
10135,5.0,300.60431,2314.3215,0.0,0.0,0.0,0.0,0.10101361513202403,0.0,-0.18673510332931983,-0.2023154144194768,-0.31444543977584866,0.2142051038753978,0.8516399109203152,-0.08083430147397443
10136,5.0,300.12055,2550.6117,0.0,0.0,0.0,0.0,0.10102358194160786,0.0,-0.22325707496875777,-0.2015352118424768,-0.35052998121461565,0.17611089232079183,0.8786346059769842,-0.054225358836376254
10137,5.0,299.67919,2617.2519,0.0,0.0,0.0,0.0,0.10103354875119167,0.0,-0.24089119334910977,-0.21685148008907476,-0.3378365615143727,0.2058258295234278,0.8991695580686261,-0.07894806751181763
10138,5.0,300.19487999999996,2480.4429,0.0,0.0,0.0,0.0,0.1010435155607755,0.0,-0.22109360362023978,-0.21043624920094078,-0.3224628521196057,0.19149656819923982,0.8892908356886722,-0.06634388069488123
10139,5.0,300.75128,2598.3298,0.0,0.0,0.0,0.0,0.10105348237035931,0.0,-0.23813475790957078,-0.2278614354106728,-0.3238311855846497,0.2070429455435478,0.8923690489624682,-0.08123292014281502
10140,5.0,300.3851,2748.9716,0.0,0.0,0.0,0.0,0.10106344917994314,0.0,-0.24397857653631078,-0.24209534990045076,-0.3495447981423857,0.2242927989559758,0.8511701175114501,-0.061116504177229344
10141,5.0,299.14016000000004,2533.3199,0.0,0.0,0.0,0.0,0.10107341598952696,0.0,-0.2408115822887528,-0.19327823677757683,-0.33597618366826765,0.19678970566163181,0.8480630975373112,-0.06910911823803893
10142,5.0,299.45704,2614.1758,0.0,0.0,0.0,0.0,0.10108338279911078,0.0,-0.24335615726488277,-0.21977831379793078,-0.3315097062999607,0.19767223636623082,0.8353960730021731,-0.07296234219532254
10143,5.0,299.63515,2691.0981,0.0,0.0,0.0,0.0,0.10109334960869461,0.0,-0.26309436040539175,-0.20788608108425882,-0.34704619432329264,0.20980058675070581,0.8424167208250573,-0.05920804660062925
10144,5.0,299.64408,2669.3727,0.0,0.0,0.0,0.0,0.10110331641827841,0.0,-0.25804571005962873,-0.2257279157351108,-0.3276490005039387,0.21384778122763282,0.8624928631389183,-0.04869619286919005
10145,5.0,299.65989,2627.8739,0.0,0.0,0.0,0.0,0.10111328322786224,0.0,-0.21525449660646478,-0.24706773291118678,-0.33648581807106465,0.1989077935381708,0.8728033111214802,-0.08094685228183232
10146,5.0,300.18557999999996,2696.0174,0.0,0.0,0.0,0.0,0.10112325003744607,0.0,-0.23840738298147676,-0.22638870678782577,-0.35472587014371765,0.2085923164039588,0.8495722018387483,-0.07196672366031263
10147,5.0,301.23565,2531.0458,0.0,0.0,0.0,0.0,0.10113321684702987,0.0,-0.2058972332579748,-0.24345945811257774,-0.3200180316158207,0.17542677625077485,0.8922982633104822,-0.08652175433203231
10148,5.0,301.33601,2148.4063,0.0,0.0,0.0,0.0,0.1011431836566137,0.0,-0.16307592627684084,-0.19253299132902682,-0.2974529620213217,0.2137944538748698,0.8667584738074012,-0.08530046676125061
10149,5.0,300.73568,2266.6329,0.0,0.0,0.0,0.0,0.10115315046619752,0.0,-0.2017366662273588,-0.19397421800626483,-0.29328890941036173,0.1978064514744768,0.8871830221681472,-0.09835392056652621
10150,5.0,300.28796,2615.413,0.0,0.0,0.0,0.0,0.10116311727578135,0.0,-0.24549870499883578,-0.23354797735689078,-0.31597356278166266,0.22322926125351278,0.8604766879574371,-0.06418162119348285
10151,5.0,300.27314,2446.1459,0.0,0.0,0.0,0.0,0.10117308408536517,0.0,-0.2172239204283318,-0.18950491367017883,-0.3368384392383657,0.20095823683803382,0.8612852716697382,-0.08585965618668832
10152,5.0,299.7052,2426.3623,0.0,0.0,0.0,0.0,0.10118305089494899,0.0,-0.21039520243938978,-0.2018071580368158,-0.32535120258966366,0.22362468210503778,0.8487675191393322,-0.08064951606648753
10153,5.0,299.81751,2648.8456,0.0,0.0,0.0,0.0,0.10119301770453282,0.0,-0.23078049749126178,-0.2217895443189238,-0.35261287891518167,0.18735551636554984,0.8461235037983883,-0.07768956022511263
10154,5.0,299.46167,2576.0202,0.0,0.0,0.0,0.0,0.10120298451411662,0.0,-0.24630553578846376,-0.21209557796220382,-0.3246446936924367,0.2070001661243258,0.8512839156301812,-0.07925865095896982
10155,5.0,299.88873,2720.2519,0.0,0.0,0.0,0.0,0.10121295132370045,0.0,-0.24049058465707276,-0.23555648223511477,-0.35084157588536763,0.18146219033892383,0.8914709040738282,-0.06173143755691854
10156,5.0,300.28173,2714.5601,0.0,0.0,0.0,0.0,0.10122291813328428,0.0,-0.27368352309296073,-0.1965566784036338,-0.35491827620520666,0.21217746883528582,0.8839211674462271,-0.04628634165285626
10157,5.0,300.35828,2542.9998,0.0,0.0,0.0,0.0,0.10123288494286808,0.0,-0.2028045203752478,-0.2082861122237388,-0.3619177977635057,0.18850250534624882,0.8859764743465702,-0.03775854712772846
10158,5.0,300.797,2422.4244,0.0,0.0,0.0,0.0,0.10124285175245192,0.0,-0.2146808349298488,-0.1897167640010868,-0.3319589205992947,0.19224950421604883,0.8548836082004433,-0.06305655691844765
10159,5.0,300.5887,2614.2522,0.0,0.0,0.0,0.0,0.10125281856203573,0.0,-0.22864885232838478,-0.1902945192081068,-0.37572401938607364,0.2065151942289628,0.8468245310125742,-0.035354408615458466
10160,5.0,299.83418,2671.3188,0.0,0.0,0.0,0.0,0.10126278537161956,0.0,-0.2509582079951468,-0.22641608480552777,-0.33463991956888867,0.21218362939589377,0.8366933979002092,-0.07030657517971874
10161,5.0,299.68448,2483.3971,0.0,0.0,0.0,0.0,0.10127275218120338,0.0,-0.2214534897907578,-0.21410694020570978,-0.3193302881104457,0.2172270209736378,0.8764168446881082,-0.07288670104885733
10162,5.0,299.37285,2452.2529999999997,0.0,0.0,0.0,0.0,0.1012827189907872,0.0,-0.2338251417892448,-0.2114376037447668,-0.3001609235760767,0.19974297506559682,0.8583696647719902,-0.08366543675063572
10163,5.0,299.63531,2466.946,0.0,0.0,0.0,0.0,0.10129268580037103,0.0,-0.22978669166068078,-0.20900928908511082,-0.3110939934800867,0.17771158429876782,0.8880918163153382,-0.07378743783125313
10164,5.0,300.43142,2503.0921,0.0,0.0,0.0,0.0,0.10130265260995483,0.0,-0.2296898148186198,-0.2060495348805058,-0.3251381363586357,0.17864961071134383,0.8697829138983901,-0.08303944982560563
10165,5.0,300.362,2593.3306,0.0,0.0,0.0,0.0,0.10131261941953866,0.0,-0.1976341989574768,-0.24373919620018575,-0.34693433151225267,0.18951576557874983,0.8828757162580492,-0.09097741120252141
10166,5.0,298.90326,2680.6483,0.0,0.0,0.0,0.0,0.10132258622912249,0.0,-0.23293259004115677,-0.24506507448603976,-0.33685248288475167,0.2162231333045618,0.8546475310596442,-0.07864785873243932
10167,5.0,298.33128,2700.5268,0.0,0.0,0.0,0.0,0.1013325530387063,0.0,-0.23339570613186275,-0.24817170942514075,-0.33932530962130064,0.2105614261182948,0.8724271724193582,-0.08412130708987663
10168,5.0,298.13642999999996,2608.8994,0.0,0.0,0.0,0.0,0.10134251984829012,0.0,-0.25215451185821275,-0.21843288991764778,-0.3224528817386217,0.2183804339599708,0.8455433775861342,-0.053662917891367644
10169,5.0,299.54905,2516.2624,0.0,0.0,0.0,0.0,0.10135248665787394,0.0,-0.23774816246641678,-0.2023946303122948,-0.32473814574915966,0.22876392714224178,0.8706703588659741,-0.07187031696629803
10170,5.0,299.6234,2251.8025,0.0,0.0,0.0,0.0,0.10136245346745777,0.0,-0.19011308664520082,-0.18664120544255283,-0.3077374302713197,0.2099223794127258,0.8730092744693072,-0.06809640516059194
10171,5.0,299.93197999999995,2130.5736,0.0,0.0,0.0,0.0,0.10137242027704159,0.0,-0.16577064465278885,-0.17371043190638483,-0.30816008728553274,0.1916932197786478,0.8799894733481991,-0.0929869202115945
10172,5.0,300.14817,2717.6206,0.0,0.0,0.0,0.0,0.1013823870866254,0.0,-0.2566254171294568,-0.2286117167122198,-0.3408516797044417,0.2129903284630088,0.8753815766634352,-0.06373570097022394
10173,5.0,301.07838,2919.2281,0.0,0.0,0.0,0.0,0.10139235389620924,0.0,-0.2990886313927497,-0.22921414455917477,-0.3590696631899167,0.2024616973364138,0.8850402616516732,-0.11210842286423989
10174,5.0,300.21045,2651.0276,0.0,0.0,0.0,0.0,0.10140232070579304,0.0,-0.2523138859664418,-0.24108299146053877,-0.3124493168138467,0.2052630704178878,0.8664008573171073,-0.06448485047140924
10175,5.0,300.72562999999997,2703.6446,0.0,0.0,0.0,0.0,0.10141228751537687,0.0,-0.2523236435649047,-0.2252103273190288,-0.34430648764290467,0.18039782177137884,0.8679543926354292,-0.06926578899500115
10176,5.0,299.6143,2822.7454,0.0,0.0,0.0,0.0,0.10142225432496069,0.0,-0.24416762873996878,-0.2315517935998828,-0.3823246851750086,0.2082934481544628,0.8663919103187241,-0.031846489146503766
10177,5.0,299.57162999999997,2542.3443,0.0,0.0,0.0,0.0,0.1014322211345445,0.0,-0.2055236986086098,-0.2163319766303038,-0.35095351975641564,0.2145357881780338,0.8701000206496862,-0.08033257751470813
10178,5.0,299.96063,2457.3989,0.0,0.0,0.0,0.0,0.10144218794412833,0.0,-0.1970241210722668,-0.2202439934113898,-0.3297197999983107,0.23647211582048078,0.8668170396631811,-0.06150398722747095
10179,5.0,299.42367,2251.4783,0.0,0.0,0.0,0.0,0.10145215475371215,0.0,-0.2075541200864968,-0.18735412821291283,-0.2894849354874387,0.1997008035964348,0.8618433596923172,-0.08315484685299442
10180,5.0,299.46767,2216.3491,0.0,0.0,0.0,0.0,0.10146212156329598,0.0,-0.20390630826898581,-0.18409984246923983,-0.2857086232922457,0.22063201753718478,0.8729547210839232,-0.07617825007820793
10181,5.0,299.81849,2503.9257,0.0,0.0,0.0,0.0,0.10147208837287978,0.0,-0.23066244372211078,-0.20949833424587577,-0.3209701118072837,0.18017392389678183,0.8707083962747283,-0.1070369338612229
10182,5.0,299.03496,2762.9263,0.0,0.0,0.0,0.0,0.10148205518246362,0.0,-0.24739848814132975,-0.23124282324688977,-0.36121930367456967,0.2016480777711158,0.8681761424198141,-0.0903933606726301
10183,5.0,300.42014,2708.781,0.0,0.0,0.0,0.0,0.10149202199204743,0.0,-0.23438348312434878,-0.23272360720803176,-0.35629470553854964,0.19229653928569082,0.8637990742403312,-0.08395248239796492
10184,5.0,300.53386,2573.3834,0.0,0.0,0.0,0.0,0.10150198880163125,0.0,-0.24275140907519874,-0.2030638313408398,-0.3364290456679617,0.2141856292084758,0.8698138281589413,-0.06074741161630274
10185,5.0,299.66167,2683.9355,0.0,0.0,0.0,0.0,0.10151195561121507,0.0,-0.25363464733929075,-0.21429186848146078,-0.3479228583098127,0.2023184946997808,0.8599586435788102,-0.04295576628265406
10186,5.0,300.13962999999995,2532.9867,0.0,0.0,0.0,0.0,0.1015219224207989,0.0,-0.24396600210256977,-0.19326750645901783,-0.33273118942801166,0.22741862485197076,0.8344446007607702,-0.045774844896375455
10187,5.0,300.88676,2308.0117,0.0,0.0,0.0,0.0,0.10153188923038271,0.0,-0.2019429436827168,-0.17266661205086783,-0.32696837001426565,0.2013028533295448,0.8496777217041622,-0.04965684312999886
10188,5.0,300.41871000000003,2485.467,0.0,0.0,0.0,0.0,0.10154185603996653,0.0,-0.2185451377637258,-0.2072397491104708,-0.3297350291473137,0.20091653146391783,0.8786319816592252,-0.07223023353431902
10189,5.0,300.77699,2738.3154,0.0,0.0,0.0,0.0,0.10155182284955036,0.0,-0.22916598478192177,-0.2301349153225478,-0.37307862602499364,0.18618744165026982,0.8876806495572592,-0.07714166043228914
10190,5.0,299.40283999999997,2699.7637,0.0,0.0,0.0,0.0,0.10156178965913416,0.0,-0.24167265235623375,-0.23437093908811077,-0.34461718052106766,0.2010708595866488,0.9137966541272081,-0.08031870510758903
10191,5.0,298.84663,2727.6536,0.0,0.0,0.0,0.0,0.101571756468718,0.0,-0.24789430181276276,-0.2229750570684248,-0.35826922600841965,0.1969652005789518,0.9000586748988751,-0.07254373818150953
10192,5.0,300.50323,2762.2064,0.0,0.0,0.0,0.0,0.10158172327830181,0.0,-0.27849570113038574,-0.2115868960145008,-0.34955915589630265,0.2044404633242028,0.8725578310197531,-0.08638486627002251
10193,5.0,299.34472,2484.8767,0.0,0.0,0.0,0.0,0.10159169008788564,0.0,-0.20009540371537882,-0.21689569832343877,-0.3383493673899827,0.18445458132924983,0.8441841532394893,-0.09571360865469772
10194,5.0,299.24942000000004,2447.5581,0.0,0.0,0.0,0.0,0.10160165689746944,0.0,-0.2106159288411738,-0.21621152145841582,-0.3171690864421517,0.2008186616367588,0.8471224164094731,-0.09175843856510281
10195,5.0,300.02289,2655.1983,0.0,0.0,0.0,0.0,0.10161162370705328,0.0,-0.22722110187747677,-0.2149391225128398,-0.36495375850813166,0.2113790885514918,0.8573155908254613,-0.05824245573233285
10196,5.0,300.35584,2387.9203,0.0,0.0,0.0,0.0,0.1016215905166371,0.0,-0.24485609165291475,-0.17071322797808383,-0.3102988251991097,0.1991347210305668,0.8880048287942531,-0.04977402753056405
10197,5.0,300.34292,2311.4656,0.0,0.0,0.0,0.0,0.10163155732622091,0.0,-0.18440373643923183,-0.2054487890287168,-0.31277527937101673,0.2106579989853258,0.8737733765022182,-0.049008773432289356
10198,5.0,301.42412,2651.9532,0.0,0.0,0.0,0.0,0.10164152413580474,0.0,-0.26483093935427876,-0.2179976584696938,-0.3232989658371237,0.1854571720381978,0.8537361835222012,-0.06954913627946534
10199,5.0,300.28978,2815.5476,0.0,0.0,0.0,0.0,0.10165149094538856,0.0,-0.22784279160883278,-0.24804213500235275,-0.37997124969774265,0.2286471095382128,0.8778962303641121,-0.07611227837744702
10200,5.0,300.29585,2757.0941,0.0,0.0,0.0,0.0,0.1016614577549724,0.0,-0.24049038200705278,-0.22948651631855577,-0.36811087356721467,0.2020459506878828,0.8633570641492081,-0.1092009320997929
10201,5.0,300.27096,2720.5889,0.0,0.0,0.0,0.0,0.1016714245645562,0.0,-0.22555714256325676,-0.23483573717398276,-0.36659822289042765,0.2011292531899118,0.8792803502657142,-0.09466973813667572
10202,5.0,299.91283,2433.8873,0.0,0.0,0.0,0.0,0.10168139137414002,0.0,-0.2099266857256508,-0.2039556332838538,-0.3259586460246137,0.16931488204507786,0.877636909266019,-0.08632449682906451
10203,5.0,299.6309,2312.5438,0.0,0.0,0.0,0.0,0.10169135818372385,0.0,-0.1992758161069918,-0.18408733896300583,-0.3195924057788147,0.21965545722330576,0.8830517785954253,-0.04529579139484655
10204,5.0,299.98059,2558.4954,0.0,0.0,0.0,0.0,0.10170132499330765,0.0,-0.25228330607842375,-0.18991180451283582,-0.33552361551110266,0.17908067770138683,0.9044059535254182,-0.04923215353608525
10205,5.0,299.77022999999997,2447.402,0.0,0.0,0.0,0.0,0.10171129180289148,0.0,-0.21093780800044082,-0.1937715274562608,-0.3392397609153577,0.21289745395884282,0.8481905238698871,-0.062002736284443645
10206,5.0,299.73963,2379.2097,0.0,0.0,0.0,0.0,0.10172125861247532,0.0,-0.19902174364441683,-0.22473192128431377,-0.2994666851375607,0.1943088134542868,0.8615867946344961,-0.07802888552460142
10207,5.0,301.14619,2740.0622,0.0,0.0,0.0,0.0,0.10173122542205912,0.0,-0.24078614971124276,-0.24575587800671675,-0.3463684414639037,0.2271697402299078,0.8673448517727721,-0.07999253990039902
10208,5.0,301.26171,3054.9368,0.0,0.0,0.0,0.0,0.10174119223164295,0.0,-0.29608986705929474,-0.2573537919638417,-0.37518085653746763,0.22690338717612077,0.8751878635093172,-0.07242606843414644
10209,5.0,301.11505,2731.5158,0.0,0.0,0.0,0.0,0.10175115904122677,0.0,-0.24938072957696175,-0.22871958731786576,-0.35221227022314466,0.2127063448574818,0.8664361893480941,-0.07727200289865294
10210,5.0,300.3242,2424.6719,0.0,0.0,0.0,0.0,0.10176112585081058,0.0,-0.2109148578856758,-0.21602760643276478,-0.31009725935671667,0.1961002497635878,0.8620198273297333,-0.08743035393520411
10211,5.0,298.85814,2489.9117,0.0,0.0,0.0,0.0,0.10177109266039441,0.0,-0.18394698355915384,-0.22030820307022678,-0.35261578694296863,0.20260203247526382,0.8635937897700712,-0.08713627531893083
10212,5.0,299.03105,2555.4897,0.0,0.0,0.0,0.0,0.10178105946997823,0.0,-0.22722003796487178,-0.20870226417230983,-0.34088274595250767,0.20766219334216282,0.8934788719294993,-0.09169412859450592
10213,5.0,299.18188,2505.9228,0.0,0.0,0.0,0.0,0.10179102627956206,0.0,-0.2135057991863818,-0.21514248180790982,-0.3330896773133917,0.21252841813992182,0.8766818602517632,-0.07773154322975602
10214,5.0,299.74582999999996,2326.9251,0.0,0.0,0.0,0.0,0.10180099308914586,0.0,-0.22268675701747176,-0.2004665876245118,-0.28417378243826874,0.20655888557327481,0.8807132277621282,-0.06664227778308074
10215,5.0,300.20031,2287.345,0.0,0.0,0.0,0.0,0.1018109598987297,0.0,-0.2181174448965158,-0.1881867158200828,-0.28899160427875076,0.2071074085149098,0.8713835349488592,-0.050398194658414545
10216,5.0,300.73053,2797.2025,0.0,0.0,0.0,0.0,0.10182092670831352,0.0,-0.27471483944224373,-0.2415341815975678,-0.3340306725487607,0.2014812461421508,0.8802774694241221,-0.07573330561479534
10217,5.0,300.69719,3091.2516,0.0,0.0,0.0,0.0,0.10183089351789733,0.0,-0.27339558781204376,-0.26880450094643876,-0.3974632192215656,0.1972809698401158,0.8406217989354122,-0.07642513555782363
10218,5.0,300.55489,2923.4727,0.0,0.0,0.0,0.0,0.10184086032748116,0.0,-0.24885714272028778,-0.26073182594222777,-0.37907373302416464,0.2114688726428528,0.8511574417526993,-0.09184307737245602
10219,5.0,300.48929,2512.8832,0.0,0.0,0.0,0.0,0.10185082713706498,0.0,-0.1957214056836988,-0.22891996765764178,-0.3392123828976557,0.2062779113205448,0.8713108139891821,-0.08273286263684783
10220,5.0,299.51685,2412.8565,0.0,0.0,0.0,0.0,0.10186079394664879,0.0,-0.2303290236442048,-0.1982487452756278,-0.3048703580533617,0.21509556832827978,0.8754820505433512,-0.07187303348981613
10221,5.0,298.4719,2646.4549,0.0,0.0,0.0,0.0,0.10187076075623262,0.0,-0.2583289742575847,-0.18153707965381483,-0.3645901638422476,0.1924535829186898,0.8516250262763463,-0.02610650839001177
10222,5.0,298.74901,2519.0865,0.0,0.0,0.0,0.0,0.10188072756581644,0.0,-0.2337781067196028,-0.2012129577806728,-0.33074832990981873,0.1893297733903938,0.8748658222300343,-0.04749206570210195
10223,5.0,299.55599,2289.6818,0.0,0.0,0.0,0.0,0.10189069437540027,0.0,-0.15004926888370987,-0.1969262107151038,-0.3490306243791407,0.21334499639551177,0.8909134543988121,-0.04888232488605986
10224,5.0,299.6428,2523.8781,0.0,0.0,0.0,0.0,0.10190066118498407,0.0,-0.23958160812486376,-0.2042452910899408,-0.32336901181653666,0.19527070190671783,0.9054028295038022,-0.07658149727350533
10225,5.0,299.93849,2858.2467,0.0,0.0,0.0,0.0,0.1019106279945679,0.0,-0.24961803275038175,-0.24630914295881978,-0.37290845067069867,0.2056079503544248,0.8643376166684812,-0.07996675065885384
10226,5.0,299.60278999999997,2859.7561,0.0,0.0,0.0,0.0,0.10192059480415173,0.0,-0.3146143890975227,-0.23691592949678175,-0.3177641276958777,0.1896034522424038,0.8622467852196322,-0.08294752473678334
10227,5.0,300.50957999999997,2811.3035,0.0,0.0,0.0,0.0,0.10193056161373554,0.0,-0.2522217410023478,-0.23722931762021077,-0.36511499699654465,0.2032430144885238,0.8725424802807381,-0.06579680163463873
10228,5.0,300.28565,2386.9901,0.0,0.0,0.0,0.0,0.10194052842331937,0.0,-0.2260657637159538,-0.2032023730270128,-0.29631723024923373,0.20567740864877979,0.8767055095090971,-0.0922938429576931
10229,5.0,300.41726,2220.3396,0.0,0.0,0.0,0.0,0.10195049523290318,0.0,-0.13951133612119687,-0.1981383415447318,-0.3372781289867597,0.22079788657855481,0.8570683375360592,-0.09661057209372109
10230,5.0,299.46414,2397.7254,0.0,0.0,0.0,0.0,0.101960462042487,0.0,-0.2089808978173088,-0.18604436060364882,-0.3338233818433027,0.18992581776171882,0.8649124131852093,-0.1019553731522119
10231,5.0,299.0898,2601.2395,0.0,0.0,0.0,0.0,0.10197042885207083,0.0,-0.2048954126191028,-0.20248363420107882,-0.38333281836200367,0.2321246953389238,0.8679701689394863,-0.06621470346613244
10232,5.0,298.82533,2521.6487,0.0,0.0,0.0,0.0,0.10198039566165465,0.0,-0.24063408113623477,-0.21371731514475678,-0.3121668328184677,0.20798312004633582,0.8725165816081822,-0.06905014606896884
10233,5.0,298.73466,2572.8184,0.0,0.0,0.0,0.0,0.10199036247123848,0.0,-0.24260973644621678,-0.2071728746038708,-0.33228994940696466,0.1967018872754648,0.8517029553415372,-0.05773572327782225
10234,5.0,298.26816,2853.2032,0.0,0.0,0.0,0.0,0.10200032928082228,0.0,-0.27524516441208274,-0.24300773095299574,-0.34904962281851565,0.16150844863714287,0.8545818623206631,-0.06577903024113484
10235,5.0,299.06973999999997,2917.3331,0.0,0.0,0.0,0.0,0.10201029609040611,0.0,-0.2402837499141598,-0.26781455559873873,-0.37869810094709266,0.19232409968841083,0.8964639067240991,-0.07877047010054013
10236,5.0,299.96056,2868.1313,0.0,0.0,0.0,0.0,0.10202026289998994,0.0,-0.2504371947937267,-0.25313684769766176,-0.36826626560255066,0.18655354917640182,0.9205251515487591,-0.08430440239619671
10237,5.0,300.29786,2519.5501,0.0,0.0,0.0,0.0,0.10203022970957375,0.0,-0.22309714357297378,-0.22619156884836977,-0.3165916048126587,0.2067410375437518,0.8835011550147752,-0.08560150336596062
10238,5.0,300.42087000000004,2265.0898,0.0,0.0,0.0,0.0,0.10204019651915758,0.0,-0.24327198657907576,-0.18195805467286183,-0.2633006885232547,0.1940702842482458,0.8705131531129592,-0.07813006361333692
10239,5.0,300.11587000000003,2419.4757,0.0,0.0,0.0,0.0,0.1020501633287414,0.0,-0.2220941982264908,-0.19455026082061583,-0.3188157495771647,0.22248764324032078,0.8852301953829181,-0.06734830639976035
10240,5.0,299.3383,2681.4269,0.0,0.0,0.0,0.0,0.10206013013832521,0.0,-0.24481677754903475,-0.22931115312374875,-0.3409588916975227,0.22290022854853977,0.8688972319859801,-0.06393163212881084
10241,5.0,300.46578,2720.889,0.0,0.0,0.0,0.0,0.10207009694790904,0.0,-0.2051994484441088,-0.22915465664580376,-0.39272819004675463,0.2136012777433048,0.8613649840551051,-0.08752404714545092
10242,5.0,300.12012000000004,2560.1809,0.0,0.0,0.0,0.0,0.10208006375749286,0.0,-0.2029480573844138,-0.2133540345864038,-0.36192896377960765,0.18308209353879581,0.86569647624509,-0.05187410691307575
10243,5.0,300.39316,2622.5972,0.0,0.0,0.0,0.0,0.10209003056707669,0.0,-0.21058712214083078,-0.2204066909799468,-0.36621025955963865,0.2173173420875518,0.8759506989796032,-0.06446239380944294
10244,5.0,299.90345,2784.1499,0.0,0.0,0.0,0.0,0.10209999737666049,0.0,-0.2898744288258787,-0.2159952128270678,-0.3404424077240497,0.2064747959474758,0.8746942181930982,-0.03875627828919686
10245,5.0,299.65389,2549.4232,0.0,0.0,0.0,0.0,0.10210996418624432,0.0,-0.23465801310644277,-0.2303530072740718,-0.30994998345468167,0.1930727293922948,0.8637269105682092,-0.07792050728065532
10246,5.0,298.85767999999996,2245.5826,0.0,0.0,0.0,0.0,0.10211993099582815,0.0,-0.2351730785297758,-0.17205540945804682,-0.27537257047965674,0.19648228558129183,0.8711212956904781,-0.07040948288637494
10247,5.0,299.75925,2435.5306,0.0,0.0,0.0,0.0,0.10212989780541196,0.0,-0.18210640462000283,-0.23070214286102877,-0.32753194985238665,0.20187098266061482,0.9037014812608921,-0.1062539549789489
10248,5.0,299.82595,2499.429,0.0,0.0,0.0,0.0,0.10213986461499579,0.0,-0.2079837482613978,-0.2062734226226018,-0.3455068343738697,0.1984976602951938,0.9061519658327362,-0.09491053904944091
10249,5.0,300.04004,2586.8464,0.0,0.0,0.0,0.0,0.1021498314245796,0.0,-0.20192959917889983,-0.2081540046757008,-0.37625311832329167,0.18400399914228083,0.8766501556561341,-0.09396342783646831
10250,5.0,300.41216000000003,2608.9576,0.0,0.0,0.0,0.0,0.10215979823416342,0.0,-0.26351724033462676,-0.2021148719596848,-0.3274258321694137,0.1975230251565048,0.8634155489449803,-0.06990676290226033
10251,5.0,300.87125,2296.1516,0.0,0.0,0.0,0.0,0.10216976504374725,0.0,-0.18915672040581483,-0.17038074009026985,-0.3384352707334607,0.2018996069759398,0.8631860579298313,-0.06635173034340594
10252,5.0,300.62104,2418.8627,0.0,0.0,0.0,0.0,0.10217973185333107,0.0,-0.21884793742360978,-0.2086373047083988,-0.3077886196663717,0.2296520509873928,0.8615535397662141,-0.05903776181532344
10253,5.0,300.68539,2869.9472,0.0,0.0,0.0,0.0,0.1021896986629149,0.0,-0.23097475780043378,-0.25294913298413574,-0.3884683954338456,0.1868610300517478,0.8482469922979602,-0.049079732350042454
10254,5.0,299.80742999999995,2862.954,0.0,0.0,0.0,0.0,0.1021996654724987,0.0,-0.25349459591046875,-0.24498152188279376,-0.37179041024535664,0.21075774332516983,0.8731762479532862,-0.07230376712057623
10255,5.0,298.63999,2607.8543,0.0,0.0,0.0,0.0,0.10220963228208253,0.0,-0.21654901480172378,-0.2329061340810458,-0.34326745032785966,0.2063443197320988,0.911051536691286,-0.06635077687506184
10256,5.0,298.35983,2617.4894,0.0,0.0,0.0,0.0,0.10221959909166636,0.0,-0.26227764029478773,-0.22192174305947077,-0.3114520152704207,0.21072011121645579,0.8973942223034141,-0.08590484612789823
10257,5.0,297.84856,2614.0975,0.0,0.0,0.0,0.0,0.10222956590125017,0.0,-0.2264364410000368,-0.23318492984606076,-0.33499901540432864,0.1866236356858188,0.8570148581957812,-0.0909263099602281
10258,5.0,298.91369,2597.4377,0.0,0.0,0.0,0.0,0.102239532710834,0.0,-0.2559355255338698,-0.21876730298065178,-0.3148533742661087,0.19599088968029482,0.8625874297707511,-0.08845663645799032
10259,5.0,298.89221000000003,2388.8346,0.0,0.0,0.0,0.0,0.10224949952041781,0.0,-0.17641184786549385,-0.2053821779671428,-0.34435203323489966,0.2042541367633138,0.8863371609846672,-0.0977896122015833
10260,5.0,298.88338,2113.4189,0.0,0.0,0.0,0.0,0.10225946633000164,0.0,-0.17014417658942282,-0.17552036003001084,-0.29676202677813174,0.2159387545314958,0.8881505138936311,-0.06733626594882203
10261,5.0,300.13606,2392.9905,0.0,0.0,0.0,0.0,0.10226943313958546,0.0,-0.18812842354182982,-0.21645121590207178,-0.3228297297158137,0.2022020519982888,0.8685323910224731,-0.07477890204085302
10262,5.0,300.76557,2977.5271,0.0,0.0,0.0,0.0,0.10227939994916928,0.0,-0.29723700802750874,-0.23759555686885578,-0.37026133478444867,0.1931848252508578,0.8829638284867452,-0.049474309164234155
10263,5.0,299.52956,3056.2678,0.0,0.0,0.0,0.0,0.10228936675875311,0.0,-0.27970460982469575,-0.2771580894083737,-0.37216641722496563,0.2118321025387008,0.8886988848477512,-0.08739086149930651
10264,5.0,300.61367,2744.0931,0.0,0.0,0.0,0.0,0.10229933356833691,0.0,-0.27613819238771775,-0.2178123755564078,-0.3401852347161687,0.2147958084186958,0.8556365239522502,-0.06782217712702773
10265,5.0,299.83476,2692.3203,0.0,0.0,0.0,0.0,0.10230930037792074,0.0,-0.22184370253676877,-0.2562483057072388,-0.34030614585060165,0.20640995807357682,0.8199113620589512,-0.1024977659307419
10266,5.0,300.18138999999996,2766.8727,0.0,0.0,0.0,0.0,0.10231926718750457,0.0,-0.26591906863666875,-0.24434134033711277,-0.3307997928823977,0.21305486236187782,0.8515737760862881,-0.06710582045207884
10267,5.0,300.47814,2643.8531,0.0,0.0,0.0,0.0,0.10232923399708838,0.0,-0.23605253908657178,-0.2118718219426208,-0.3557409542263987,0.22446193066266779,0.9005386413387442,-0.07083879188749444
10268,5.0,299.24875,2291.5460000000003,0.0,0.0,0.0,0.0,0.1023392008066722,0.0,-0.19319729835958882,-0.1961251047885408,-0.3072503609482497,0.1934464160291748,0.8867887361567343,-0.05806263930333634
10269,5.0,298.6624,2209.3166,0.0,0.0,0.0,0.0,0.10234916761625602,0.0,-0.17608669590840384,-0.17462325878897383,-0.3208671250671197,0.1817204677894138,0.8666166795884072,-0.06290377602861935
10270,5.0,298.29999,2503.4725,0.0,0.0,0.0,0.0,0.10235913442583985,0.0,-0.2186222359638348,-0.19180792982246883,-0.35056296250537067,0.17799658115439482,0.8774610597111642,-0.07279749349680323
10271,5.0,299.06358,2827.9062,0.0,0.0,0.0,0.0,0.10236910123542367,0.0,-0.22487157754559675,-0.24180374665417176,-0.39293754778241663,0.21996283677364178,0.923833007825219,-0.08821754793789412
10272,5.0,299.72712,2943.4997,0.0,0.0,0.0,0.0,0.10237906804500749,0.0,-0.2838627653200737,-0.24453190228341978,-0.3663557521414977,0.2120290783581408,0.8703760502419282,-0.07468700127003314
10273,5.0,300.13039,2581.569,0.0,0.0,0.0,0.0,0.10238903485459132,0.0,-0.2406379112216128,-0.2269273201434828,-0.3171672625919717,0.2047323198830068,0.8395319775253551,-0.08449622279912791
10274,5.0,299.43125,2354.9311,0.0,0.0,0.0,0.0,0.10239900166417512,0.0,-0.19646177739926782,-0.2139395816866928,-0.30543890281697267,0.2051475092439828,0.8567170842563931,-0.08032389700110142
10275,5.0,300.04148,2546.6823,0.0,0.0,0.0,0.0,0.10240896847375895,0.0,-0.2062214530249728,-0.2350649444791038,-0.33284144117139264,0.2246178191905528,0.9113626044719862,-0.08342338548724713
10276,5.0,299.684,2584.4744,0.0,0.0,0.0,0.0,0.10241893528334278,0.0,-0.2088990778717338,-0.23263310370909976,-0.3440834915608967,0.1927471518701628,0.8792683229870271,-0.07091789834930164
10277,5.0,300.17922999999996,2355.9612,0.0,0.0,0.0,0.0,0.10242890209292659,0.0,-0.18753781019104082,-0.20394912821821182,-0.32466643803958267,0.17763198337091185,0.8760727652191502,-0.10515743598573091
10278,5.0,299.45111,2352.8292,0.0,0.0,0.0,0.0,0.10243886890251042,0.0,-0.22589918539951379,-0.1868689435350288,-0.3024332078528337,0.1938882741327828,0.8834870607058841,-0.06254785571899274
10279,5.0,299.54415,2660.9327,0.0,0.0,0.0,0.0,0.10244883571209423,0.0,-0.23362212699920878,-0.2132959854881748,-0.36193897469059566,0.2113905788076258,0.9107785468493441,-0.08782771718717082
10280,5.0,300.24456000000004,3020.0341,0.0,0.0,0.0,0.0,0.10245880252167806,0.0,-0.2907451956968167,-0.23607693814897973,-0.3911928223027256,0.20202945497625482,0.8601161431743541,-0.027798209478719672
10281,5.0,300.73292999999995,2871.5489,0.0,0.0,0.0,0.0,0.10246876933126188,0.0,-0.23427589622873077,-0.24408072227889177,-0.39452253438384266,0.17954041966925985,0.8497293771942602,-0.06896932822774272
10282,5.0,299.66579,2498.0644,0.0,0.0,0.0,0.0,0.1024787361408457,0.0,-0.20446474079659882,-0.19045503828894883,-0.36442942184638366,0.2148422355382778,0.8729663835925742,-0.05671072859591315
10283,5.0,300.04262,2453.2209,0.0,0.0,0.0,0.0,0.10248870295042953,0.0,-0.2043598187487438,-0.2163940685964318,-0.3249640093289507,0.22295633220657682,0.9119710307595331,-0.07755888237296572
10284,5.0,299.91844,2597.135,0.0,0.0,0.0,0.0,0.10249866976001333,0.0,-0.25902109500339177,-0.20892289938158481,-0.32152019515407265,0.22876001599685575,0.8611415218780513,-0.07245474645172673
10285,5.0,298.89422,2561.2928,0.0,0.0,0.0,0.0,0.10250863656959716,0.0,-0.2283330931997218,-0.21650472563985276,-0.33373124701170964,0.19086472570188182,0.8386907874248363,-0.08956598623722462
10286,5.0,298.58502000000004,2396.7111,0.0,0.0,0.0,0.0,0.10251860337918098,0.0,-0.2178484573924688,-0.20795854873141079,-0.3027333021349507,0.23141529867891178,0.8638459674549591,-0.07255956616132163
10287,5.0,298.87483,2392.9121,0.0,0.0,0.0,0.0,0.1025285701887648,0.0,-0.1856324541729968,-0.19088494004137682,-0.35086812303798764,0.20057313087252682,0.9205467540408911,-0.06685531057685544
10288,5.0,299.82383,2682.5097,0.0,0.0,0.0,0.0,0.10253853699834861,0.0,-0.22599518071398778,-0.2250532634210278,-0.36436753253027565,0.2156409907246088,0.8787835638741852,-0.06525041057121414
10289,5.0,300.69012000000004,2894.5882,0.0,0.0,0.0,0.0,0.10254850380793244,0.0,-0.28598405506692876,-0.21409447722947977,-0.3798040127687376,0.16879384857865584,0.8645155129885382,-0.06325345167787964
10290,5.0,300.23713,2875.0766,0.0,0.0,0.0,0.0,0.10255847061751627,0.0,-0.2941898204717747,-0.22691124999689677,-0.35285043540112665,0.21784750493737481,0.8833022540201452,-0.0883561646045745
10291,5.0,300.35294,2608.5423,0.0,0.0,0.0,0.0,0.10256843742710008,0.0,-0.2453025701769788,-0.22280029169117677,-0.3248288620306127,0.2048021733449008,0.8858201805186452,-0.08270915562425812
10292,5.0,301.01962000000003,2373.5699,0.0,0.0,0.0,0.0,0.1025784042366839,0.0,-0.2102927020592738,-0.2095273233312368,-0.3016859460365847,0.21863717127030882,0.8361037066070112,-0.08967889269586761
10293,5.0,302.22069,2460.5533,0.0,0.0,0.0,0.0,0.10258837104626771,0.0,-0.18440740440459383,-0.22191688959149178,-0.3416224691880127,0.17008403006348685,0.8298504944098671,-0.07222450664475383
10294,5.0,301.74234,2373.6533,0.0,0.0,0.0,0.0,0.10259833785585154,0.0,-0.16989638627746784,-0.2285551672241388,-0.32307977957549167,0.24005226279631378,0.8880418022904022,-0.1030164993194369
10295,5.0,300.63729,2418.9783,0.0,0.0,0.0,0.0,0.10260830466543536,0.0,-0.2091959601510338,-0.2119453737673798,-0.3141676673934347,0.21245619367279378,0.922510432734691,-0.08693016302333911
10296,5.0,300.21646,2450.9638,0.0,0.0,0.0,0.0,0.10261827147501919,0.0,-0.2450658445561158,-0.2049139956259368,-0.2950519544518607,0.2081837435661358,0.8660483273423151,-0.10017334790983971
10297,5.0,300.18089,2520.0288,0.0,0.0,0.0,0.0,0.10262823828460299,0.0,-0.2217026581228488,-0.2151145870326568,-0.32920859505785866,0.17181971735228582,0.8522633130443402,-0.1016573155027959
10298,5.0,300.49636,2554.9226,0.0,0.0,0.0,0.0,0.10263820509418682,0.0,-0.22932689903030276,-0.2055493439686408,-0.34175643098373365,0.20372438934603182,0.8868507977253591,-0.07163822189839203
10299,5.0,299.96029,2638.9038,0.0,0.0,0.0,0.0,0.10264817190377064,0.0,-0.19409573709075784,-0.22335372889579677,-0.3847113755205566,0.2114657822300478,0.927711658280512,-0.05399763492940165
10300,5.0,299.20745,2661.2366,0.0,0.0,0.0,0.0,0.10265813871335445,0.0,-0.2323630826899508,-0.19662688650306281,-0.37995951626158464,0.19482326079505882,0.8791124547241442,-0.04089306569633136
10301,5.0,299.51921,2715.9123,0.0,0.0,0.0,0.0,0.10266810552293829,0.0,-0.26170536677080874,-0.2054827531720688,-0.35838141305949167,0.20056659540938182,0.8719751311522451,-0.05066453453995025
10302,5.0,299.70887,2757.1196,0.0,0.0,0.0,0.0,0.1026780723325221,0.0,-0.26737573724543073,-0.23673477051140276,-0.3339849952342527,0.20989876055289478,0.8956456870033472,-0.08071681005862892
10303,5.0,299.55084,2687.0035,0.0,0.0,0.0,0.0,0.10268803914210593,0.0,-0.2526902577160868,-0.2083107848636738,-0.3557809370753447,0.2219782925475518,0.9188369451596462,-0.07796632847667753
10304,5.0,301.11334,2568.0229999999997,0.0,0.0,0.0,0.0,0.10269800595168974,0.0,-0.20244494831226081,-0.23346714026391274,-0.3447027697570147,0.18241659087311582,0.8448652802217113,-0.07101941081057013
10305,5.0,300.35377,2414.4408,0.0,0.0,0.0,0.0,0.10270797276127357,0.0,-0.18255640925441483,-0.20877778170226277,-0.34259553378904667,0.17665490629948183,0.8405027927111671,-0.06881336471935033
10306,5.0,300.75297,2490.4186,0.0,0.0,0.0,0.0,0.1027179395708574,0.0,-0.19591392320269882,-0.2108526949920408,-0.3502584605853187,0.21087109561385678,0.9026719077017812,-0.07798855006462063
10307,5.0,300.46647,2537.2870000000003,0.0,0.0,0.0,0.0,0.1027279063804412,0.0,-0.2387075380585998,-0.2232171731798198,-0.3093471908376907,0.2378207213060778,0.9226374537672271,-0.06531153589674674
10308,5.0,299.94747,2746.74,0.0,0.0,0.0,0.0,0.10273787319002503,0.0,-0.2551625778275858,-0.23849718733783978,-0.3412806290017757,0.18457556339118983,0.8650048519918322,-0.08919918058177372
10309,5.0,300.21682000000004,2828.0629,0.0,0.0,0.0,0.0,0.10274783999960885,0.0,-0.2793211047943467,-0.2308053221187118,-0.3495340779563276,0.19329435758666783,0.8513245570916922,-0.07906347872470783
10310,5.0,301.10093,2780.4287,0.0,0.0,0.0,0.0,0.10275780680919266,0.0,-0.2203143737633358,-0.2711765194305387,-0.3536900144339867,0.19723737982081382,0.8969519386347642,-0.08265644432755592
10311,5.0,300.61317,2678.9397,0.0,0.0,0.0,0.0,0.1027677736187765,0.0,-0.2126150104934678,-0.21796402869887477,-0.38375173648334765,0.2281439295385528,0.914085582393223,-0.05314292604604846
10312,5.0,301.14981,2790.0503,0.0,0.0,0.0,0.0,0.10277774042836031,0.0,-0.25054534910940074,-0.2400947686380088,-0.35746549576409764,0.17876058186229582,0.8673311222339171,-0.06215766526448394
10313,5.0,299.3881,2655.0909,0.0,0.0,0.0,0.0,0.10278770723794414,0.0,-0.2558744772153448,-0.2301346822750248,-0.3210721764898567,0.1912327685357048,0.8601193146471672,-0.09257420926036311
10314,5.0,299.87717000000004,2366.6736,0.0,0.0,0.0,0.0,0.10279767404752795,0.0,-0.23542995769512778,-0.2019820754015788,-0.28199764546350076,0.21729910358575183,0.9020905351919042,-0.09726844093314771
10315,5.0,300.13493,2332.7601,0.0,0.0,0.0,0.0,0.10280764085711178,0.0,-0.20614972505039378,-0.22404025650105178,-0.2789108398288567,0.2292501453352278,0.9079989890425231,-0.11505695025773689
10316,5.0,299.65903,2441.3617,0.0,0.0,0.0,0.0,0.1028176076666956,0.0,-0.1911636040838788,-0.2123853269607998,-0.3385640548211707,0.20558834396498982,0.8324760584664903,-0.06842001697752995
10317,5.0,299.28351000000004,2530.6211,0.0,0.0,0.0,0.0,0.10282757447627941,0.0,-0.2025830137708868,-0.2205126364104028,-0.3461499746098427,0.18896325043172083,0.8315873165387782,-0.06861184143346154
10318,5.0,299.11607999999995,2614.0985,0.0,0.0,0.0,0.0,0.10283754128586324,0.0,-0.2195302499084488,-0.23258798368214678,-0.34250242623735766,0.24574368860801374,0.9078299991908452,-0.047813901291614655
10319,5.0,300.37048,2643.4221,0.0,0.0,0.0,0.0,0.10284750809544706,0.0,-0.25153849632741676,-0.19961683556064783,-0.3523789701295967,0.22786686643120876,0.904485453128264,-0.046463536803844054
10320,5.0,301.69697,2946.7158,0.0,0.0,0.0,0.0,0.10285747490503087,0.0,-0.2910466882640717,-0.2668472462582727,-0.33783408918412866,0.2119744641777508,0.8633705809055422,-0.07491986640801512
10321,5.0,300.73609,3021.2274,0.0,0.0,0.0,0.0,0.1028674417146147,0.0,-0.3000263133002917,-0.25027808413052377,-0.36807327185600364,0.16460135403738885,0.8274456770200302,-0.055092483073204745
10322,5.0,300.52315,2619.7074,0.0,0.0,0.0,0.0,0.10287740852419852,0.0,-0.21953953127936476,-0.22249248657579881,-0.35429361765105766,0.21073074021000482,0.8913415930960662,-0.08612928305154842
10323,5.0,300.03767999999997,2364.7916,0.0,0.0,0.0,0.0,0.10288737533378235,0.0,-0.17609674734939582,-0.2143563213203218,-0.3283845288840297,0.19055195566101382,0.8854248812571321,-0.05463287586759504
10324,5.0,299.74664,2354.5373,0.0,0.0,0.0,0.0,0.10289734214336616,0.0,-0.21961718676702882,-0.18350478095051184,-0.3125985685535767,0.1895208318292498,0.8605626115659172,-0.0928920506179816
10325,5.0,299.73032,2489.4623,0.0,0.0,0.0,0.0,0.10290730895294999,0.0,-0.2249168292950628,-0.23016842350335479,-0.3016491245279507,0.1997529758440838,0.8537485755709242,-0.08474550765498043
10326,5.0,299.69454,2481.3035,0.0,0.0,0.0,0.0,0.10291727576253382,0.0,-0.2316063165877638,-0.21904208627527078,-0.3036059029885697,0.22088750854989977,0.9196732108646792,-0.1171359976079229
10327,5.0,300.01756,2463.308,0.0,0.0,0.0,0.0,0.10292724257211762,0.0,-0.1968043268605748,-0.2254169695444228,-0.32656280652923975,0.24373781818004978,0.8859500487839622,-0.07789748927813363
10328,5.0,300.06633999999997,2654.5414,0.0,0.0,0.0,0.0,0.10293720938170145,0.0,-0.21171627791976982,-0.25639346391656476,-0.33880458012990866,0.20200137781598382,0.8208820860522542,-0.08840924675081331
10329,5.0,299.50057999999996,2847.7964,0.0,0.0,0.0,0.0,0.10294717619128527,0.0,-0.24074600474228075,-0.22858349769693476,-0.3963294936846756,0.20527647571671082,0.8261244698171373,-0.03901772011974917
10330,5.0,298.49919,2818.237,0.0,0.0,0.0,0.0,0.10295714300086908,0.0,-0.2667968674633008,-0.2195805679084148,-0.37029622098539167,0.21200413214067879,0.8987678145364772,-0.04857936209290975
10331,5.0,299.50644,2815.0409999999997,0.0,0.0,0.0,0.0,0.10296710981045291,0.0,-0.2520197495949128,-0.23996942960063877,-0.3637129830981767,0.20519310549848283,0.9253973747871101,-0.04928781947007905
10332,5.0,298.74034,2596.689,0.0,0.0,0.0,0.0,0.10297707662003673,0.0,-0.27484938892302274,-0.18592598259446583,-0.3285532350256797,0.16168684144974885,0.8803749846137462,-0.06759624768598023
10333,5.0,298.79812999999996,2706.2884,0.0,0.0,0.0,0.0,0.10298704342962056,0.0,-0.23616485786015676,-0.2301574196072688,-0.35632183024372666,0.17068918355321083,0.8675989242353471,-0.0947106673612151
10334,5.0,299.3223,2735.2869,0.0,0.0,0.0,0.0,0.10299701023920436,0.0,-0.2362951415580148,-0.2064467289197058,-0.3887170470083856,0.21013125078833977,0.9192391851843441,-0.07057547453100703
10335,5.0,300.48599,2471.3904,0.0,0.0,0.0,0.0,0.1030069770487882,0.0,-0.1940730098910148,-0.1885831093917038,-0.36858485169899263,0.2337154574659198,0.8959191429403353,-0.06854004759762602
10336,5.0,299.913,2317.1557,0.0,0.0,0.0,0.0,0.10301694385837203,0.0,-0.21370752714879082,-0.1938891961903738,-0.2967607399505047,0.2077366773570138,0.8539223378305731,-0.08190831415597122
10337,5.0,300.72386,2482.8196,0.0,0.0,0.0,0.0,0.10302691066795583,0.0,-0.24279666082466478,-0.1894999284796868,-0.3224185730902357,0.18764552880917182,0.8360933613234901,-0.07068411115372863
10338,5.0,300.3188,2679.4577,0.0,0.0,0.0,0.0,0.10303687747753966,0.0,-0.27189234009618474,-0.2201726910018528,-0.3224232036431927,0.2026743987974058,0.9167590326495721,-0.06583406086731593
10339,5.0,299.99006,2744.1987,0.0,0.0,0.0,0.0,0.10304684428712348,0.0,-0.23227309594856976,-0.2332363725536378,-0.3686584035237516,0.2044240892025868,0.8938085835120391,-0.05004759796481335
10340,5.0,300.06599,2814.9614,0.0,0.0,0.0,0.0,0.1030568110967073,0.0,-0.2473847484699738,-0.24559147817799176,-0.3627017594983767,0.17513348087682884,0.8524461844223882,-0.062297159405750945
10341,5.0,300.28684,2773.4874,0.0,0.0,0.0,0.0,0.10306677790629112,0.0,-0.23783819987030277,-0.2273004292278058,-0.3779322865215126,0.20719216688577483,0.8528731477495262,-0.05746697692729904
10342,5.0,299.17976,2719.0405,0.0,0.0,0.0,0.0,0.10307674471587494,0.0,-0.23535139028237378,-0.21260312506979478,-0.3785658920740447,0.21751162266172577,0.8903998683206251,-0.07721231942801263
10343,5.0,299.23982,2795.9863,0.0,0.0,0.0,0.0,0.10308671152545877,0.0,-0.2796202770188727,-0.23852190050777877,-0.3317678520279377,0.2579414668893408,0.8829741940352682,-0.09057415894097351
10344,5.0,299.69191,2618.1313,0.0,0.0,0.0,0.0,0.10309667833504257,0.0,-0.2285386613800098,-0.2256488619623088,-0.3416590272516207,0.16749496327546584,0.8580358292615431,-0.1114305180173359
10345,5.0,299.65394,2127.7918,0.0,0.0,0.0,0.0,0.1031066451446264,0.0,-0.18217070547134884,-0.16328251783972983,-0.3013423630601757,0.17778675732368682,0.8790762411655701,-0.099112741539916
10346,5.0,301.0169,2202.0477,0.0,0.0,0.0,0.0,0.10311661195421024,0.0,-0.15790609121911786,-0.18240911308737784,-0.3290523214949357,0.16147058348090584,0.9373604032852692,-0.07587038112807364
10347,5.0,300.59087,2487.2096,0.0,0.0,0.0,0.0,0.10312657876379404,0.0,-0.22130419752102382,-0.19084401486983782,-0.34390142065042767,0.20244943701020382,0.9232915472367812,-0.055388006584120644
10348,5.0,301.01689,2550.6033,0.0,0.0,0.0,0.0,0.10313654557337787,0.0,-0.21462533922187177,-0.22591061486064176,-0.33478375042058367,0.1982305675688338,0.8487554209331382,-0.05657479298899735
10349,5.0,300.28758999999997,2746.1548,0.0,0.0,0.0,0.0,0.10314651238296169,0.0,-0.27200863081016174,-0.2569224209987688,-0.3058314561707147,0.2115413605550068,0.8546342473508332,-0.07541715030534323
10350,5.0,300.37277,2952.1428,0.0,0.0,0.0,0.0,0.10315647919254549,0.0,-0.27550107085733877,-0.24268400767854675,-0.3791926075258966,0.2320535753144048,0.901475228936178,-0.06150266797584074
10351,5.0,299.58164,3021.6998,0.0,0.0,0.0,0.0,0.10316644600212933,0.0,-0.27560597264019177,-0.2567433898385998,-0.38617191474470064,0.2182601510405998,0.8727523750389531,-0.07550218934648592
10352,5.0,299.9121,3012.1759,0.0,0.0,0.0,0.0,0.10317641281171315,0.0,-0.27494501946746075,-0.23392220101632377,-0.4067590593489936,0.2098289070910008,0.8741104848104881,-0.06013866210197385
10353,5.0,299.32955,2578.7312,0.0,0.0,0.0,0.0,0.10318637962129698,0.0,-0.2299812863423858,-0.18616062092012284,-0.3677279866194267,0.2074739010760798,0.8663836016679041,-0.07961290751193222
10354,5.0,300.87288,2242.4826,0.0,0.0,0.0,0.0,0.10319634643088078,0.0,-0.1992395518859128,-0.18641177522240981,-0.2960073986336557,0.2117798188335408,0.9129467500758291,-0.07576896695206484
10355,5.0,300.38566000000003,2241.3343,0.0,0.0,0.0,0.0,0.10320631324046461,0.0,-0.22156088416885678,-0.16226107054642086,-0.2974877266322527,0.16666637800619083,0.8736127256988631,-0.098456033885104
10356,5.0,299.56514,2521.6458,0.0,0.0,0.0,0.0,0.10321628005004845,0.0,-0.2183754183719758,-0.23679968944530977,-0.3113422397545867,0.16898654848267383,0.8489220195145801,-0.10657502353813589
10357,5.0,300.13637,2654.6803,0.0,0.0,0.0,0.0,0.10322624685963225,0.0,-0.22759109015149176,-0.23568809329060375,-0.3436773302583117,0.1967328116685168,0.8830620225539362,-0.07563899128223724
10358,5.0,300.13271000000003,2488.8902,0.0,0.0,0.0,0.0,0.10323621366921608,0.0,-0.19842952935846983,-0.2119957626948528,-0.3461351710258817,0.2114197300130028,0.946652575447335,-0.06267803910509084
10359,5.0,299.56404,2709.863,0.0,0.0,0.0,0.0,0.1032461804787999,0.0,-0.2236083079834218,-0.25109898896404076,-0.3490233897734267,0.2205036387495148,0.910631149357297,-0.049649346092508956
10360,5.0,299.96879,3026.1758,0.0,0.0,0.0,0.0,0.10325614728838371,0.0,-0.29150852765965174,-0.24042703361080078,-0.3879463183198206,0.18764159739878383,0.8676882219666602,-0.06560678279038534
10361,5.0,298.59694,2968.3579,0.0,0.0,0.0,0.0,0.10326611409796754,0.0,-0.2860372000346737,-0.27308679984406875,-0.3431826919569947,0.23473163585870876,0.8665735860616541,-0.06221874398051194
10362,5.0,299.50169,2718.3612,0.0,0.0,0.0,0.0,0.10327608090755136,0.0,-0.24708819043070576,-0.23651234184945077,-0.34271338490817765,0.22543001007320979,0.8874241554269452,-0.1039456192636339
10363,5.0,300.54998,2504.4582,0.0,0.0,0.0,0.0,0.10328604771713519,0.0,-0.2111914751629758,-0.2022031361758958,-0.34789814513987366,0.2151854132146468,0.8502978814278672,-0.06290669418890733
10364,5.0,300.38216,2407.016,0.0,0.0,0.0,0.0,0.103296014526719,0.0,-0.19405225852896682,-0.2047962964943208,-0.3328242057871917,0.18125718957869183,0.8346963528806163,-0.08963346261438401
10365,5.0,300.13486,2607.6603,0.0,0.0,0.0,0.0,0.10330598133630282,0.0,-0.21439887782452183,-0.2165399259483268,-0.3617248141494597,0.21526592606759282,0.8882063845041451,-0.04298003970204966
10366,5.0,300.3809,2668.5565,0.0,0.0,0.0,0.0,0.10331594814588665,0.0,-0.2787820253436437,-0.2083746094874728,-0.3240179275780797,0.2287056348639888,0.9401691933574752,-0.06371896815807254
10367,5.0,300.65541,2650.2038,0.0,0.0,0.0,0.0,0.10332591495547046,0.0,-0.25357556472595977,-0.22825143537416276,-0.32376879977599266,0.2031277876871518,0.885300808782387,-0.07054158030191193
10368,5.0,300.25647999999995,2689.6986,0.0,0.0,0.0,0.0,0.10333588176505429,0.0,-0.2419518331562868,-0.2229079900443058,-0.3527413691603627,0.17563520179634481,0.8535609216524042,-0.09370460931042492
10369,5.0,299.06275,2965.458,0.0,0.0,0.0,0.0,0.1033458485746381,0.0,-0.23414835843864376,-0.27377724872721076,-0.3934995874803856,0.1960565280217728,0.871098264515705,-0.07141357725847133
10370,5.0,300.19681,3073.8154,0.0,0.0,0.0,0.0,0.10335581538422192,0.0,-0.2797189574461117,-0.2547355030429368,-0.3999086578079116,0.2262734394564498,0.8960302052837961,-0.05256151097966725
10371,5.0,300.49019,2602.2336,0.0,0.0,0.0,0.0,0.10336578219380575,0.0,-0.21981102151115878,-0.20151716585819582,-0.36968584925765263,0.19265195702326782,0.8490272658024672,-0.04677315665015115
10372,5.0,299.93237999999997,2119.5604,0.0,0.0,0.0,0.0,0.10337574900338957,0.0,-0.17827029040390782,-0.1971297422626908,-0.26889341364271374,0.17652847295200383,0.8507402562890263,-0.055432491303260945
10373,5.0,300.2256,2550.9039,0.0,0.0,0.0,0.0,0.1033857158129734,0.0,-0.23546512760609878,-0.2175485758928728,-0.3223973758981437,0.2007367808961778,0.9011317878147831,-0.08997042805438991
10374,5.0,300.84992,2960.388,0.0,0.0,0.0,0.0,0.1033956826225572,0.0,-0.24549057873303373,-0.26689210284019976,-0.38750135967090665,0.21800537943545578,0.9258213388939521,-0.09809134186936172
10375,5.0,299.65108,2657.3697,0.0,0.0,0.0,0.0,0.10340564943214103,0.0,-0.24979194699754578,-0.2307098131642858,-0.3272722639842577,0.2060081638789228,0.8628621320053621,-0.1067218333451249
10376,5.0,298.98187,2353.7424,0.0,0.0,0.0,0.0,0.10341561624172486,0.0,-0.1749177497980378,-0.1956169395983888,-0.34494422725584467,0.17668432094988482,0.8305308513220132,-0.07005175899157033
10377,5.0,297.98007,2351.5597,0.0,0.0,0.0,0.0,0.10342558305130867,0.0,-0.2307542948436758,-0.20747035470072978,-0.27659078080988475,0.2364266816859968,0.8716580649309532,-0.07192344673529154
10378,5.0,298.57159,2689.2608,0.0,0.0,0.0,0.0,0.1034355498608925,0.0,-0.24394166383516774,-0.21677273029130278,-0.35675374836385365,0.2197017424878738,0.9253921160190911,-0.06373255178891314
10379,5.0,298.60336,2826.7554,0.0,0.0,0.0,0.0,0.10344551667047631,0.0,-0.2855718750587497,-0.2300935443209648,-0.34359763813794664,0.19329898813962482,0.8815524622899542,-0.07291035131944143
10380,5.0,300.10434,2648.5489,0.0,0.0,0.0,0.0,0.10345548348006013,0.0,-0.1987820492007608,-0.23981573982547075,-0.3664949423077346,0.16371275396469084,0.8590698611210942,-0.09072078838944472
10381,5.0,300.13322,2516.1735,0.0,0.0,0.0,0.0,0.10346545028964396,0.0,-0.21361065030672977,-0.21695001866129981,-0.33429322591467264,0.2094187738480238,0.9074469501230412,-0.08540708701627323
10382,5.0,299.43836,2773.9602,0.0,0.0,0.0,0.0,0.10347541709922778,0.0,-0.21279139707087577,-0.25180214400343676,-0.3786211040719936,0.23150791987055278,0.911585782939012,-0.06308784101528514
10383,5.0,300.03974,2938.9351,0.0,0.0,0.0,0.0,0.10348538390881161,0.0,-0.31546579275904973,-0.22306845846264278,-0.35482862383635866,0.2236353921585948,0.8505483365875851,-0.04841550232648805
10384,5.0,300.3131,2648.8228,0.0,0.0,0.0,0.0,0.10349535071839541,0.0,-0.24270767720088277,-0.21109765833621683,-0.3513706342925817,0.18936740549910783,0.8331989212203312,-0.048601165208561545
10385,5.0,300.32773,2341.6222,0.0,0.0,0.0,0.0,0.10350531752797924,0.0,-0.1954433191937538,-0.23218106244198677,-0.2841702968579247,0.21615209434005078,0.8968370259409231,-0.10770280129693889
10386,5.0,300.72985,2524.3838,0.0,0.0,0.0,0.0,0.10351528433756307,0.0,-0.2181493116121608,-0.2191680940577068,-0.33003224579914664,0.2005333912036048,0.9226682464377661,-0.08705468538112851
10387,5.0,300.74472000000003,2783.2599,0.0,0.0,0.0,0.0,0.10352525114714688,0.0,-0.27839363644781273,-0.23250617386907277,-0.3351417012834107,0.1931302414679708,0.8772753005703311,-0.1102968330104499
10388,5.0,299.33622,2759.2848,0.0,0.0,0.0,0.0,0.10353521795673071,0.0,-0.26920297168076474,-0.2360080776721838,-0.3335426305055947,0.18036105092524984,0.8346571603667482,-0.057961273763332356
10389,5.0,300.21822000000003,2710.6301,0.0,0.0,0.0,0.0,0.10354518476631452,0.0,-0.27854835973808273,-0.2200696333341818,-0.3253458627616367,0.24287165146456577,0.8863189934103742,-0.06563516899193683
10390,5.0,300.00921,2739.1282,0.0,0.0,0.0,0.0,0.10355515157589834,0.0,-0.2282215850262168,-0.24533326152250776,-0.3590717302201207,0.24372903330168275,0.9252416281142392,-0.05122750440151105
10391,5.0,299.33275,2864.245,0.0,0.0,0.0,0.0,0.10356511838548216,0.0,-0.24799062136726877,-0.23754391151125878,-0.38512442692382165,0.1841641939830908,0.8821396508554051,-0.06235691785689865
10392,5.0,299.54537,3062.3903,0.0,0.0,0.0,0.0,0.10357508519506599,0.0,-0.26867464281362274,-0.25235232867523577,-0.4098632016928486,0.16702281912636885,0.8766408438877151,-0.07065933009603294
10393,5.0,300.29797,2828.1094,0.0,0.0,0.0,0.0,0.10358505200464982,0.0,-0.23648529820428177,-0.25448103541282274,-0.36870831622367767,0.2002881542819018,0.9233188340619741,-0.09035399489299502
10394,5.0,300.85509,2195.2243,0.0,0.0,0.0,0.0,0.10359501881423362,0.0,-0.17304065332528282,-0.17825313607971485,-0.3159995627792287,0.23585062873914475,0.9299754312564291,-0.1007308847243643
10395,5.0,300.65224,2356.1884,0.0,0.0,0.0,0.0,0.10360498562381745,0.0,-0.23927994330509178,-0.1993040452547778,-0.27763844088328077,0.19384227257824282,0.8547911085988141,-0.06615049076754513
10396,5.0,301.42211000000003,2797.9748,0.0,0.0,0.0,0.0,0.10361495243340127,0.0,-0.2575458332552948,-0.23693089520075875,-0.3560377351806887,0.20791973112007978,0.8201663363141153,-0.1071318247330879
10397,5.0,301.36633,2781.6016,0.0,0.0,0.0,0.0,0.10362491924298509,0.0,-0.24117936167754978,-0.23269172022738477,-0.37166634790311265,0.2010895236534908,0.8965759417876561,-0.054625916865908244
10398,5.0,300.91474,2627.0698,0.0,0.0,0.0,0.0,0.1036348860525689,0.0,-0.1933272375524128,-0.25036309581391375,-0.35487329803326767,0.22855810564942877,0.9347399460091501,-0.12286586612841688
10399,5.0,299.66302,2711.9190000000003,0.0,0.0,0.0,0.0,0.10364485286215273,0.0,-0.25507014915346377,-0.2033253309266478,-0.36596017930245767,0.16088402313051683,0.9023396224639872,-0.046705966009519956
10400,5.0,300.70203,2785.2642,0.0,0.0,0.0,0.0,0.10365481967173656,0.0,-0.2658371372335827,-0.2177380941915768,-0.36307555759276766,0.17991154278338684,0.8753449780698233,-0.0931047824764766
10401,5.0,300.5181,2865.3964,0.0,0.0,0.0,0.0,0.10366478648132037,0.0,-0.2840830053618097,-0.2340545416118848,-0.35287139954569563,0.18889822004030282,0.9094086428466451,-0.04262986553374016
10402,5.0,300.13315,2606.4588,0.0,0.0,0.0,0.0,0.1036747532909042,0.0,-0.2093890450900898,-0.2167730646638358,-0.3661362821698376,0.23600235280911877,0.8957149426476821,-0.06292094048531334
10403,5.0,299.76498,2377.3379999999997,0.0,0.0,0.0,0.0,0.103684720100488,0.0,-0.21404620599471577,-0.19446202700190782,-0.3141431568735157,0.2009308790853338,0.8611294338043582,-0.06275545242598095
10404,5.0,299.91661,2431.7136,0.0,0.0,0.0,0.0,0.10369468691007183,0.0,-0.2053808607420128,-0.18862409535824884,-0.34517526854364666,0.20410580708117482,0.8635546884487122,-0.07805907531133092
10405,5.0,299.98182,2785.5032,0.0,0.0,0.0,0.0,0.10370465371965565,0.0,-0.2754872703909767,-0.21040852667820478,-0.36082762171591365,0.2017995586610658,0.9137957523346191,-0.08572133234928682
10406,5.0,301.19239,2831.3294,0.0,0.0,0.0,0.0,0.10371462052923948,0.0,-0.27011302225807976,-0.2365086637515878,-0.35403176342771464,0.23798054124435078,0.925346053669545,-0.08129365131405872
10407,5.0,299.68715,2652.0563,0.0,0.0,0.0,0.0,0.10372458733882328,0.0,-0.25791418006414774,-0.1995274263718238,-0.3487172767857157,0.1980264888661928,0.8632959043731723,-0.07142502090510074
10408,5.0,300.02999,2781.8119,0.0,0.0,0.0,0.0,0.10373455414840711,0.0,-0.2287990767882108,-0.24920156669427976,-0.36760071227436564,0.1933678891464248,0.8346786007388642,-0.07831739126532472
10409,5.0,299.89042,2868.2799,0.0,0.0,0.0,0.0,0.10374452095799093,0.0,-0.25248291634812375,-0.22116196760448678,-0.3982405948307866,0.2049404718510498,0.9100614798860751,-0.07305506673847373
10410,5.0,300.94453,2617.7433,0.0,0.0,0.0,0.0,0.10375448776757475,0.0,-0.1915575962527628,-0.21270913129525681,-0.3914618706017786,0.18933124260303882,0.9207795786488691,-0.07270985344265384
10411,5.0,299.5509,2425.1931,0.0,0.0,0.0,0.0,0.10376445457715858,0.0,-0.2018647917025038,-0.2168693538208388,-0.3184640099374507,0.17579061409668284,0.8933568259549542,-0.06896659346572283
10412,5.0,300.69397999999995,2584.8254,0.0,0.0,0.0,0.0,0.1037744213867424,0.0,-0.21628767733593177,-0.2120234142900818,-0.3574112868837477,0.17883507600964782,0.8764301891919252,-0.07627217025647713
10413,5.0,299.63167999999996,2749.5829,0.0,0.0,0.0,0.0,0.10378438819632621,0.0,-0.27131304474901274,-0.23792694031406078,-0.3265645493194117,0.2256820560355848,0.9278573433798902,-0.06974570477236514
10414,5.0,299.66695,2983.4713,0.0,0.0,0.0,0.0,0.10379435500591003,0.0,-0.23131122776114077,-0.2890218193967327,-0.3865677408962656,0.2188859444348608,0.8846870831968172,-0.09596682086793781
10415,5.0,299.3812,3020.1471,0.0,0.0,0.0,0.0,0.10380432181549386,0.0,-0.30347982427862674,-0.23993497909723877,-0.37463451208354764,0.19189378250344183,0.8302085769952072,-0.06978304506505034
10416,5.0,301.03107,3000.1686,0.0,0.0,0.0,0.0,0.10381428862507769,0.0,-0.24198240291180378,-0.28825005719306573,-0.3817438800851876,0.2032695717736448,0.8389895239518191,-0.09528013114266681
10417,5.0,300.74357000000003,2684.6466,0.0,0.0,0.0,0.0,0.10382425543466149,0.0,-0.3074907646669757,-0.17259813660910983,-0.3359766193658107,0.22832036677846576,0.9057080710964271,-0.07033206044623393
10418,5.0,300.55695,2597.2149,0.0,0.0,0.0,0.0,0.10383422224424532,0.0,-0.23180859170522677,-0.20161455945780782,-0.3560653361134127,0.22846869646060478,0.9038363448492022,-0.05629798623392865
10419,5.0,300.46924,2509.3662,0.0,0.0,0.0,0.0,0.10384418905382914,0.0,-0.24783777258968379,-0.1874381874412088,-0.3275086957625917,0.18975334232969682,0.8839493459315082,-0.06560781326573703
10420,5.0,300.41087999999996,2519.5292,0.0,0.0,0.0,0.0,0.10385415586341296,0.0,-0.21152742836613178,-0.18736275097126384,-0.36698378481847965,0.1903552534191008,0.8629349238925461,-0.07183299491211463
10421,5.0,299.79285,2605.8982,0.0,0.0,0.0,0.0,0.10386412267299679,0.0,-0.23462710897839278,-0.2191863426920078,-0.33831454198404565,0.2139847321111488,0.9146308426695361,-0.0974366242377461
10422,5.0,298.93827999999996,2767.4912,0.0,0.0,0.0,0.0,0.1038740894825806,0.0,-0.22702474414059778,-0.23973780062777877,-0.37448567577635866,0.20519402755607383,0.8972451833462052,-0.07591586085881213
10423,5.0,299.67314,2954.5547,0.0,0.0,0.0,0.0,0.10388405629216442,0.0,-0.27999535180838975,-0.24764301578796277,-0.37047247584028664,0.17802823508751883,0.8657035284657861,-0.08257017722729201
10424,5.0,299.66728,3050.0372,0.0,0.0,0.0,0.0,0.10389402310174824,0.0,-0.27660659764394574,-0.2807782394981547,-0.3697503324940166,0.17558799447418583,0.8588544542823351,-0.07579398713678413
10425,5.0,300.21575,2784.6341,0.0,0.0,0.0,0.0,0.10390398991133207,0.0,-0.26238103233499177,-0.2255372220662908,-0.3585409796852397,0.2226452137633718,0.9125900860406292,-0.07762558665354893
10426,5.0,300.30986,2390.2876,0.0,0.0,0.0,0.0,0.1039139567209159,0.0,-0.2084861885884848,-0.20417220536022782,-0.3139293408374137,0.23753326225270774,0.8859492787138861,-0.07587617185239513
10427,5.0,300.01182,2315.8746,0.0,0.0,0.0,0.0,0.1039239235304997,0.0,-0.20051271076906382,-0.1935635984032398,-0.3098917418389337,0.20243760224903581,0.8656284162358732,-0.08149528099120802
10428,5.0,299.90031,2530.9539,0.0,0.0,0.0,0.0,0.10393389034008353,0.0,-0.2158664084743558,-0.2127791671421688,-0.34070121206459164,0.2082691402845638,0.8608830113800382,-0.09370382201509722
10429,5.0,299.97275,2790.1359,0.0,0.0,0.0,0.0,0.10394385714966735,0.0,-0.27439361889554176,-0.2280966411563858,-0.34564140411965066,0.2150405488478498,0.9167598128521491,-0.05540341609164144
10430,5.0,298.87881,2690.1723,0.0,0.0,0.0,0.0,0.10395382395925117,0.0,-0.22434787923141178,-0.2214444921298698,-0.37195284436888765,0.2212802240236578,0.9139279004126611,-0.08918788486965892
10431,5.0,298.92135,2724.5411,0.0,0.0,0.0,0.0,0.103963790768835,0.0,-0.23898800568627973,-0.22807732860947977,-0.36112712831297267,0.18675398017868283,0.8658909797342862,-0.036730468112514965
10432,5.0,299.1783,2834.9949,0.0,0.0,0.0,0.0,0.10397375757841881,0.0,-0.24981910210022573,-0.2277040067426358,-0.3842445509344846,0.20104465693906282,0.8915522781893591,-0.10772713956434089
10433,5.0,299.21287,2969.225,0.0,0.0,0.0,0.0,0.10398372438800263,0.0,-0.2801124835199497,-0.23689739715245278,-0.3855603777793466,0.2037453737556028,0.9127779324766682,-0.04003666367206107
10434,5.0,298.90486,2643.2529,0.0,0.0,0.0,0.0,0.10399369119758645,0.0,-0.24218957202724975,-0.23066211948207876,-0.33063119819825865,0.23747352102681177,0.8922989624530512,-0.10913236546552589
10435,5.0,299.40027000000003,2370.6965,0.0,0.0,0.0,0.0,0.10400365800717028,0.0,-0.2046837953357178,-0.19187274743136581,-0.3240760070738117,0.19004851221632782,0.8565604965859392,-0.03337943420954367
10436,5.0,300.18442999999996,2330.7125,0.0,0.0,0.0,0.0,0.10401362481675411,0.0,-0.1933386872785428,-0.2128858421126968,-0.3022538828501357,0.21636401559846577,0.8554310874944752,-0.1067444997498619
10437,5.0,299.87545,2679.1481,0.0,0.0,0.0,0.0,0.10402359162633791,0.0,-0.23147365175217077,-0.23042315457849477,-0.3524973177412767,0.21686159232507282,0.9143196938288282,-0.03505361113777207
10438,5.0,298.01923,2728.0293,0.0,0.0,0.0,0.0,0.10403355843592174,0.0,-0.2625027135395008,-0.2001486094781298,-0.36660145515824666,0.20416640956965582,0.9236333874230181,-0.08251382633623063
10439,5.0,300.27982000000003,2701.5381,0.0,0.0,0.0,0.0,0.10404352524550556,0.0,-0.2354330886379368,-0.22804659673394675,-0.3577204396217587,0.18299766954046381,0.8743902228980961,-0.09304151412698251
10440,5.0,301.52754,2613.1718,0.0,0.0,0.0,0.0,0.10405349205508937,0.0,-0.2346123256594338,-0.2197961368671898,-0.3399305137735297,0.1885271070586768,0.8708575568219491,-0.1092813740252319
10441,5.0,300.88795,2830.9741,0.0,0.0,0.0,0.0,0.1040634588646732,0.0,-0.25470373765230175,-0.24080259476036575,-0.36503912482905665,0.20015193293845782,0.9188071252092033,-0.11067317436259189
10442,5.0,300.22013,2765.7469,0.0,0.0,0.0,0.0,0.10407342567425702,0.0,-0.23075378821862577,-0.2441810745687958,-0.3657831138474827,0.19374596315623782,0.8985715378596061,-0.06855380348098364
10443,5.0,299.81175,2551.9075,0.0,0.0,0.0,0.0,0.10408339248384085,0.0,-0.22556686976421678,-0.21290259113684978,-0.3372466979686577,0.1834819220282558,0.8797872590257422,-0.07698602217717883
10444,5.0,299.07985,2478.5467,0.0,0.0,0.0,0.0,0.10409335929342466,0.0,-0.16460980454322285,-0.2346738299405038,-0.3541326730051737,0.20506722943855982,0.879315935609226,-0.06752697278989334
10445,5.0,299.69116,2440.6637,0.0,0.0,0.0,0.0,0.10410332610300849,0.0,-0.1982936829175628,-0.20843672171860278,-0.3351704269237457,0.2307061046689198,0.921340848276762,-0.11716665855594889
10446,5.0,299.46412999999995,2611.8286,0.0,0.0,0.0,0.0,0.10411329291259232,0.0,-0.22446915513588078,-0.2081449867498108,-0.3613165452866667,0.2051492621666558,0.902344729244491,-0.08528223737870153
10447,5.0,298.87525,2746.7291,0.0,0.0,0.0,0.0,0.10412325972217612,0.0,-0.2819699533382677,-0.2182069959403538,-0.3347601112957507,0.17347729319087585,0.8572706937135303,-0.08881087882545131
10448,5.0,300.45288,2806.1929999999998,0.0,0.0,0.0,0.0,0.10413322653175995,0.0,-0.2520216545051008,-0.22855552186167377,-0.37243542499401466,0.18306902261250582,0.8567181076389941,-0.06355921002805565
10449,5.0,300.69381,2549.1511,0.0,0.0,0.0,0.0,0.10414319334134377,0.0,-0.25219162720937577,-0.18314616134261882,-0.3395404935450377,0.2230183735101998,0.9017022374885821,-0.06519217908796715
10450,5.0,300.88185,2561.0794,0.0,0.0,0.0,0.0,0.10415316015092758,0.0,-0.21635357912243577,-0.1973663158960388,-0.36478429242890664,0.20754109982271182,0.9232435698445461,-0.05231575324741285
10451,5.0,301.39661,2785.8590000000004,0.0,0.0,0.0,0.0,0.10416312696051142,0.0,-0.27810760607708374,-0.20103759458586581,-0.36768636230531865,0.2078391068096228,0.8883967741979353,-0.07736112331119843
10452,5.0,301.0419,2858.4036,0.0,0.0,0.0,0.0,0.10417309377009523,0.0,-0.2592320840717147,-0.23350061804721678,-0.37615060781067466,0.2025142951491048,0.8820878332452913,-0.09496405891972291
10453,5.0,300.3354,2652.1716,0.0,0.0,0.0,0.0,0.10418306057967906,0.0,-0.2544023869400608,-0.22628869900295578,-0.32550285573213067,0.23822801744877478,0.9183144728780822,-0.1053367103259239
10454,5.0,300.75829,2680.8832,0.0,0.0,0.0,0.0,0.10419302738926287,0.0,-0.23474462572499077,-0.2094843108644918,-0.37069262468951364,0.2013399889457098,0.8886695816548591,-0.043587390931240554
10455,5.0,300.37906,2516.6386,0.0,0.0,0.0,0.0,0.1042029941988467,0.0,-0.2390802418428828,-0.2002837871739708,-0.3256312547848027,0.1976238840714588,0.8463957337027552,-0.053682265902027154
10456,5.0,299.7401,2587.4315,0.0,0.0,0.0,0.0,0.10421296100843053,0.0,-0.18712412044021284,-0.2204152225457888,-0.3789752248494426,0.15734126508337384,0.8740817287726502,-0.033677645872974865
10457,5.0,299.25797,2655.298,0.0,0.0,0.0,0.0,0.10422292781801433,0.0,-0.24096896029428477,-0.22517912934844977,-0.3409961995662047,0.22232736733950278,0.9289010720428981,-0.1025637893072579
10458,5.0,299.31495,2647.6003,0.0,0.0,0.0,0.0,0.10423289462759816,0.0,-0.23500874962855775,-0.22386471092122678,-0.3459309200707237,0.19432429591581482,0.9270743037026101,-0.0851546854031131
10459,5.0,299.68042,2731.3646,0.0,0.0,0.0,0.0,0.10424286143718198,0.0,-0.27713712526380474,-0.22737142766231278,-0.3257580731673187,0.19371662956584282,0.8600326614986152,-0.1073116766258379
10460,5.0,300.96362999999997,2875.9417,0.0,0.0,0.0,0.0,0.1042528282467658,0.0,-0.2643163704234947,-0.24391859213039077,-0.36597951211436563,0.2108776614745048,0.8536169949129383,-0.09023681961168073
10461,5.0,299.87955,2776.6025,0.0,0.0,0.0,0.0,0.10426279505634962,0.0,-0.25276297867576375,-0.2238680039840518,-0.3673868354432577,0.24795116540837478,0.9115580705487771,-0.06876150860573253
10462,5.0,299.26412,2496.3874,0.0,0.0,0.0,0.0,0.10427276186593344,0.0,-0.1923808822240148,-0.21416919429185377,-0.3522893684232537,0.2529899872281678,0.9305897141295542,-0.07990723234797983
10463,5.0,299.58612,2504.3937,0.0,0.0,0.0,0.0,0.10428272867551727,0.0,-0.21820819157547178,-0.2034247814239628,-0.3396401872223767,0.2052027617719358,0.8833222758421212,-0.06787432100367394
10464,5.0,300.67857999999995,2813.9597,0.0,0.0,0.0,0.0,0.10429269548510108,0.0,-0.2634528786882747,-0.2510523085319338,-0.3408682970060817,0.18149121995428885,0.9107587986048952,-0.12110233472686988
10465,5.0,300.83036,2668.0935,0.0,0.0,0.0,0.0,0.1043026622946849,0.0,-0.2579870327463378,-0.23089113426968078,-0.3221556346892857,0.18417656576681182,0.916402713119406,-0.07610221984370434
10466,5.0,301.26336000000003,2390.3581,0.0,0.0,0.0,0.0,0.10431262910426874,0.0,-0.2171790233164008,-0.20149386110589582,-0.30793628060344475,0.18676470036474083,0.907230114601641,-0.07923227504561672
10467,5.0,300.03121,2517.4072,0.0,0.0,0.0,0.0,0.10432259591385254,0.0,-0.21034065918650682,-0.20888664529300677,-0.3460016246627017,0.20251679787685178,0.8485392845543072,-0.005832818884979404
10468,5.0,299.57194,2693.2563,0.0,0.0,0.0,0.0,0.10433256272343637,0.0,-0.21211053353367978,-0.2218448779068848,-0.38472725314962364,0.2213974671927288,0.8744615050426311,-0.08247608783625612
10469,5.0,299.63187,2998.2353,0.0,0.0,0.0,0.0,0.10434252953302019,0.0,-0.26163190613855875,-0.25946389542959275,-0.39029285356390564,0.2354652289311088,0.9049477586188902,-0.06432113762625204
10470,5.0,300.00789,3030.0798,0.0,0.0,0.0,0.0,0.104352496342604,0.0,-0.2847291752155817,-0.25846404049591476,-0.3778753722633956,0.1964765607182268,0.9191442335174731,-0.1060194483758049
10471,5.0,300.06602000000004,2844.4589,0.0,0.0,0.0,0.0,0.10436246315218783,0.0,-0.28726260444061175,-0.23444832099824775,-0.34293354388990566,0.19360489847731582,0.8325313515244471,-0.08147867179556882
10472,5.0,299.14808999999997,2516.5025,0.0,0.0,0.0,0.0,0.10437242996177165,0.0,-0.25204727960012974,-0.18504028041705384,-0.3278663527828897,0.2014685197208948,0.8586113046558381,-0.08164301690878843
10473,5.0,298.77893,2683.112,0.0,0.0,0.0,0.0,0.10438239677135548,0.0,-0.21128347827205576,-0.23867337126522778,-0.36564221128857666,0.23356381445595378,0.9006106124933472,-0.06403162978117984
10474,5.0,299.11945,2564.5534,0.0,0.0,0.0,0.0,0.10439236358093928,0.0,-0.1913713608843828,-0.21706948084808977,-0.3711193448366277,0.2048819363927728,0.9082373763935502,-0.06739286812590824
10475,5.0,300.95094,2539.2729999999997,0.0,0.0,0.0,0.0,0.10440233039052312,0.0,-0.1931452274369498,-0.24305747140040476,-0.3356728875158347,0.19575209702922783,0.8713633611393682,-0.08152188488583362
10476,5.0,300.84519,2687.5082,0.0,0.0,0.0,0.0,0.10441229720010695,0.0,-0.2230016751485518,-0.2682683801860278,-0.3256653101206637,0.1918713390137268,0.9175374113763922,-0.1061407952077809
10477,5.0,300.35504,2902.9353,0.0,0.0,0.0,0.0,0.10442226400969075,0.0,-0.2932533645968537,-0.2392457157167138,-0.3499207747244917,0.22159072438430177,0.9212277999631052,-0.08037464157935952
10478,5.0,299.95512,2779.7854,0.0,0.0,0.0,0.0,0.10443223081927458,0.0,-0.25206816268469073,-0.2420046336189978,-0.35091255405487265,0.19230365230139282,0.9043730026321662,-0.07781531976127413
10479,5.0,300.36634,2618.635,0.0,0.0,0.0,0.0,0.1044421976288584,0.0,-0.2214832894761988,-0.19610255997381582,-0.37841379310153367,0.19048978263487784,0.8262650987985163,-0.04022305609420656
10480,5.0,300.78316,2683.9523,0.0,0.0,0.0,0.0,0.10445216443844221,0.0,-0.2069257935669858,-0.21183506122899282,-0.3970936159825886,0.2220011210723048,0.8560122674868331,-0.07158487225412684
10481,5.0,299.7372,2723.2225,0.0,0.0,0.0,0.0,0.10446213124802604,0.0,-0.24485343693765277,-0.22095615624417478,-0.3619820580848477,0.24156524784563377,0.8945997089251172,-0.07803192527490142
10482,5.0,299.29812000000004,2747.8311,0.0,0.0,0.0,0.0,0.10447209805760986,0.0,-0.25548405168681276,-0.22479479345301878,-0.3549932060501017,0.21351784673007076,0.8982174170821572,-0.1115329373374439
10483,5.0,299.87523,2632.4084,0.0,0.0,0.0,0.0,0.10448206486719369,0.0,-0.28544743781396875,-0.2052710446961748,-0.30946792971960674,0.18267861734897584,0.8538121570146991,-0.09694868453284022
10484,5.0,300.34609,2552.2129,0.0,0.0,0.0,0.0,0.1044920316767775,0.0,-0.2181468899444218,-0.2283286450317828,-0.3293334578676817,0.19516532389631783,0.9053277882013961,-0.07261717753550744
10485,5.0,300.33875,2529.8617,0.0,0.0,0.0,0.0,0.10450199848636132,0.0,-0.2251234411229538,-0.2012076382176478,-0.3426837068127487,0.24356762256075276,0.9230423079771831,-0.056107882276666854
10486,5.0,299.82072999999997,2689.7825,0.0,0.0,0.0,0.0,0.10451196529594516,0.0,-0.2090692126960248,-0.23207648489916577,-0.37648103880078565,0.20571947879293181,0.9026461914142432,-0.03365679926541747
10487,5.0,298.48158,2811.3211,0.0,0.0,0.0,0.0,0.10452193210552896,0.0,-0.27000247667216976,-0.22518042630857782,-0.3593885228638857,0.1931897597788448,0.8485769470605242,-0.07168522657053103
10488,5.0,299.70569,2717.0877,0.0,0.0,0.0,0.0,0.10453189891511279,0.0,-0.23936775155875775,-0.2323802167491418,-0.3541788265472287,0.16690710596494884,0.8716983517549292,-0.07566016618282702
10489,5.0,299.89647,2589.5671,0.0,0.0,0.0,0.0,0.1045418657246966,0.0,-0.25772202731518373,-0.2057151116850008,-0.3237265979093277,0.2209694196879838,0.9201076823750581,-0.09673322196532572
10490,5.0,299.47075,2680.6609999999996,0.0,0.0,0.0,0.0,0.10455183253428042,0.0,-0.22276216308991378,-0.21542019339531782,-0.37667165140959763,0.1957718858036808,0.8838479398615002,-0.05699252256797404
10491,5.0,299.34697,2644.6036,0.0,0.0,0.0,0.0,0.10456179934386425,0.0,-0.2176422103346138,-0.2127684165586078,-0.37348282162238466,0.19980045674376984,0.8573319548145762,-0.07792013541786863
10492,5.0,299.84544,2720.9966,0.0,0.0,0.0,0.0,0.10457176615344807,0.0,-0.2079196500600718,-0.23765166052689277,-0.3815436922629306,0.1934876249107418,0.9047494351768172,-0.07615019520943914
10493,5.0,299.61099,2831.0351,0.0,0.0,0.0,0.0,0.1045817329630319,0.0,-0.26120043384847574,-0.22305873126168277,-0.37630480421089263,0.2220420969063488,0.9245574411167151,-0.0962644407933106
10494,5.0,301.56669,2787.3052,0.0,0.0,0.0,0.0,0.1045916997726157,0.0,-0.2618684189769007,-0.24911665633589977,-0.33628610647635465,0.2032883371654968,0.9051178833106802,-0.1164340686011479
10495,5.0,300.0243,2557.3255,0.0,0.0,0.0,0.0,0.10460166658219953,0.0,-0.25721258542990577,-0.2156082830113808,-0.30454223727347873,0.19033899075499583,0.8685089038851552,-0.09845467916972031
10496,5.0,299.67352,2723.6135,0.0,0.0,0.0,0.0,0.10461163339178337,0.0,-0.23650728573145177,-0.23593079708705678,-0.35547243281739765,0.18195723394028082,0.9099805718655902,-0.06416415884125944
10497,5.0,300.06683,2835.2883,0.0,0.0,0.0,0.0,0.10462160020136717,0.0,-0.25015007011288976,-0.2288612700793488,-0.3828455159914106,0.2073135643802558,0.9258492640667081,-0.029086378648852072
10498,5.0,300.26583,2748.4405,0.0,0.0,0.0,0.0,0.104631567010951,0.0,-0.23424163824284977,-0.2094550380691028,-0.39176060712876165,0.2057102278195188,0.9011276942843791,-0.04112091423306826
10499,5.0,299.35,2711.3874,0.0,0.0,0.0,0.0,0.10464153382053482,0.0,-0.22956462776876477,-0.22571591885392678,-0.3689135297664306,0.1967940322395588,0.878482841377006,-0.06621412895332573
10500,5.0,299.95187999999996,2811.9903,0.0,0.0,0.0,0.0,0.10465150063011863,0.0,-0.2705359123198158,-0.24020806013168977,-0.3440308532182017,0.21957533953789882,0.9037732801629781,-0.1042039980391339
10501,5.0,298.95912000000004,2734.4009,0.0,0.0,0.0,0.0,0.10466146743970245,0.0,-0.2731172581420747,-0.2042436901547828,-0.35382864731266866,0.20792446299804682,0.9236639673110361,-0.08874254219895701
10502,5.0,299.50051,2563.1136,0.0,0.0,0.0,0.0,0.10467143424928628,0.0,-0.24514775569419978,-0.2139542028856358,-0.3200205647410707,0.2071627319703698,0.9025223519870211,-0.09181627082781042
10503,5.0,299.78184,2529.9968,0.0,0.0,0.0,0.0,0.10468140105887008,0.0,-0.2048615092707568,-0.20188624220712081,-0.36230809156952465,0.2187860278424998,0.8824711660231233,-0.06686429810524244
10504,5.0,298.8544,2463.3942,0.0,0.0,0.0,0.0,0.10469136786845391,0.0,-0.2058441693502378,-0.20765040924349978,-0.3353157371205867,0.25439234563156976,0.9157172696917582,-0.1068954132197559
10505,5.0,299.2809,2684.5922,0.0,0.0,0.0,0.0,0.10470133467803774,0.0,-0.21944936215296582,-0.25569507115263873,-0.34090455109465967,0.21568761036170983,0.9298801452170252,-0.09088664831156382
10506,5.0,299.96151000000003,2889.1718,0.0,0.0,0.0,0.0,0.10471130148762156,0.0,-0.30099600377849267,-0.22981547809602176,-0.3474245925731377,0.20977346204552882,0.8725302807495341,-0.0963706071122884
10507,5.0,299.77973,2868.2245,0.0,0.0,0.0,0.0,0.10472126829720538,0.0,-0.25733417544190573,-0.25180794992650973,-0.36272650306581866,0.15972508793113885,0.8600924331220141,-0.07195328087123594
10508,5.0,300.10458,2605.431,0.0,0.0,0.0,0.0,0.1047312351067892,0.0,-0.21557840226593178,-0.24362256098117474,-0.33278499300832165,0.21853511672023682,0.8992401309380911,-0.08479438582655432
10509,5.0,300.52666,2691.8914,0.0,0.0,0.0,0.0,0.10474120191637303,0.0,-0.20232948846336582,-0.2255652890940608,-0.39037299151431465,0.2216398974116548,0.9294515505572262,-0.03439434705295776
10510,5.0,300.30705,2792.6567,0.0,0.0,0.0,0.0,0.10475116872595683,0.0,-0.24077691900283177,-0.24974936009584275,-0.35837163519602666,0.2144951061865188,0.8867494321853551,-0.08584513529950523
10511,5.0,300.0689,2581.4111,0.0,0.0,0.0,0.0,0.10476113553554066,0.0,-0.21796848699931481,-0.22875194039355878,-0.3379640891719587,0.18736309547629781,0.8638181436072132,-0.0870000164852331
10512,5.0,299.66146000000003,2522.6119,0.0,0.0,0.0,0.0,0.10477110234512448,0.0,-0.22681290394219075,-0.21998882663870678,-0.3200092872674577,0.2124517353723538,0.8778790152449133,-0.13223887538346088
10513,5.0,298.80917999999997,2662.8564,0.0,0.0,0.0,0.0,0.10478106915470829,0.0,-0.23188223472249478,-0.2282838897748658,-0.34927572957833064,0.21632838972494978,0.902496007484421,-0.08845782804010792
10514,5.0,299.28188,2431.062,0.0,0.0,0.0,0.0,0.10479103596429212,0.0,-0.2369056754057698,-0.15762536014641185,-0.34445111896217867,0.2018590364419358,0.8712170478249281,-0.05865590534288715
10515,5.0,299.39489,2598.7681,0.0,0.0,0.0,0.0,0.10480100277387594,0.0,-0.2537524579284178,-0.1969394234964078,-0.3392687398682177,0.2077765892784528,0.8966167149716803,-0.05682509717445045
10516,5.0,298.93806,2923.1668,0.0,0.0,0.0,0.0,0.10481096958345977,0.0,-0.2753012579376187,-0.22153592781889378,-0.3917325401009916,0.23592880098435978,0.9135103704439542,-0.038535692729176764
10517,5.0,299.82653999999997,2947.0681,0.0,0.0,0.0,0.0,0.10482093639304357,0.0,-0.2879978592431757,-0.2503228089899378,-0.35751444587642867,0.24880948956808477,0.9179419413463161,-0.05021269389635705
10518,5.0,300.40179,2842.1057,0.0,0.0,0.0,0.0,0.1048309032026274,0.0,-0.25166680418757975,-0.26218459353810475,-0.35007775756248466,0.1993927451685318,0.8543301203333181,-0.05874803308172945
10519,5.0,299.82907,2749.2743,0.0,0.0,0.0,0.0,0.10484087001221121,0.0,-0.24715471029977076,-0.2321825316546318,-0.35637349586632566,0.17645980499272684,0.8616496769357022,-0.06972724740854354
10520,5.0,300.59302,2701.0563,0.0,0.0,0.0,0.0,0.10485083682179504,0.0,-0.2214147431069338,-0.2504939975943328,-0.34914492912292167,0.1929057761733178,0.8819200592937332,-0.06892464693808303
10521,5.0,300.97423,2569.4037,0.0,0.0,0.0,0.0,0.10486080363137887,0.0,-0.21383187320106278,-0.2187760371965138,-0.34842665639203363,0.2124440549365958,0.9320301099417101,-0.08378218545365793
10522,5.0,300.83291,2432.3352,0.0,0.0,0.0,0.0,0.10487077044096269,0.0,-0.18964648497415082,-0.2088887731182168,-0.3408339174301887,0.19922955110742582,0.900955340442369,-0.08899415145053892
10523,5.0,299.66326000000004,2471.6471,0.0,0.0,0.0,0.0,0.1048807372505465,0.0,-0.22033421320029378,-0.2150195441732768,-0.3159652439983417,0.18910435564064682,0.8903195682502001,-0.11276779536681489
10524,5.0,299.13754,2653.1077,0.0,0.0,0.0,0.0,0.10489070406013032,0.0,-0.22953986393632075,-0.2227572082969248,-0.3541814204674847,0.2123979216595428,0.9051109324149941,-0.1005658698528286
10525,5.0,299.84042999999997,2762.7712,0.0,0.0,0.0,0.0,0.10490067086971415,0.0,-0.24443453908131077,-0.2201491937320338,-0.3752297357222917,0.2227417562328998,0.9191899412294842,-0.08167927606361693
10526,5.0,301.06257999999997,2937.9888,0.0,0.0,0.0,0.0,0.10491063767929798,0.0,-0.24667872593279477,-0.2532951680257868,-0.39310134979358263,0.2196529038330538,0.8714755887204442,-0.05239653157188505
10527,5.0,300.224,2795.7229,0.0,0.0,0.0,0.0,0.10492060448888178,0.0,-0.25762999380860074,-0.23295255106812676,-0.3592474176549596,0.21330324035889078,0.8673788159161241,-0.05684130410979995
10528,5.0,300.62591000000003,2792.4396,0.0,0.0,0.0,0.0,0.10493057129846561,0.0,-0.24208394070432476,-0.25378249066138175,-0.35296547981748067,0.2087934364163078,0.8973850017275041,-0.06249160209994094
10529,5.0,299.3345,2727.7185,0.0,0.0,0.0,0.0,0.10494053810804943,0.0,-0.27422270386867376,-0.21053702705588678,-0.3443985819444937,0.2067617078457918,0.907744764592433,-0.08287789925616182
10530,5.0,298.98737,2701.3992,0.0,0.0,0.0,0.0,0.10495050491763325,0.0,-0.24185582770931177,-0.2316158816687078,-0.34768619348395563,0.18109512022519683,0.8703335646652353,-0.08202464843970252
10531,5.0,298.26437999999996,2619.1235,0.0,0.0,0.0,0.0,0.10496047172721708,0.0,-0.21309345705818677,-0.2197733083424368,-0.36328136895307966,0.2038271835686768,0.8950063363227482,-0.1054275887273929
10532,5.0,297.58136,2640.9649,0.0,0.0,0.0,0.0,0.1049704385368009,0.0,-0.22627836385193578,-0.21374172433966582,-0.3627672965148447,0.23673036287346774,0.912768539648241,-0.06096178493995974
10533,5.0,297.73607999999996,2763.4748,0.0,0.0,0.0,0.0,0.10498040534638471,0.0,-0.24068419648618078,-0.21321195665738177,-0.38613118209068065,0.2178779125728758,0.9402137560968732,-0.05239673320865495
10534,5.0,300.79465,2826.0818,0.0,0.0,0.0,0.0,0.10499037215596853,0.0,-0.26771056574097574,-0.2195395211468638,-0.37180820291711264,0.2112254291738268,0.8896623033078331,-0.06956058803209553
10535,5.0,299.84988,2885.0076,0.0,0.0,0.0,0.0,0.10500033896555236,0.0,-0.2636560657308278,-0.25904782454102976,-0.35426638148836964,0.2072056329796038,0.8793719075447501,-0.08646977561515243
10536,5.0,300.343,2857.4818,0.0,0.0,0.0,0.0,0.10501030577513619,0.0,-0.2784962381529387,-0.25025969364120876,-0.33984716382030367,0.2110718812536728,0.9031445888734311,-0.1074506540095539
10537,5.0,300.52172,2852.3746,0.0,0.0,0.0,0.0,0.10502027258471999,0.0,-0.24460572768570576,-0.24901504761587176,-0.37342986917215865,0.18560330296761984,0.9187481033908782,-0.08411367123712302
10538,5.0,300.26183,2815.4722,0.0,0.0,0.0,0.0,0.10503023939430382,0.0,-0.24262015265724474,-0.25065911683062875,-0.36255397697129166,0.1918576500048758,0.8931485321318972,-0.07792169177002223
10539,5.0,299.35246,2706.1025,0.0,0.0,0.0,0.0,0.10504020620388764,0.0,-0.2202147712785058,-0.24312116430169078,-0.35925166317287865,0.1919944590333778,0.8857192000136792,-0.07299771982256402
10540,5.0,300.07353,2384.5577,0.0,0.0,0.0,0.0,0.10505017301347146,0.0,-0.2065140492563498,-0.2005826351584648,-0.3177493038469147,0.24150276071196677,0.9025555764578002,-0.100499678276796
10541,5.0,299.6009,2396.9037,0.0,0.0,0.0,0.0,0.10506013982305529,0.0,-0.19249195469997682,-0.1989550008603298,-0.3371519185543037,0.2058107827594428,0.9033174189429881,-0.07610240020222213
10542,5.0,300.16015,2701.2406,0.0,0.0,0.0,0.0,0.1050701066326391,0.0,-0.2386758537279728,-0.2163697708590338,-0.3660640577027096,0.18958382558796683,0.8821100943499882,-0.11526380526565189
10543,5.0,299.60831,2827.1629,0.0,0.0,0.0,0.0,0.10508007344222292,0.0,-0.23124933844503276,-0.2349618868114328,-0.3931757020859206,0.18047848661183982,0.8953804079946662,-0.07549476222325292
10544,5.0,299.57604,2761.9384,0.0,0.0,0.0,0.0,0.10509004025180674,0.0,-0.24708243517013778,-0.2254614613563138,-0.3670164216042006,0.23784981171644876,0.9245639360498561,-0.08412929656691512
10545,5.0,299.79975,2757.1507,0.0,0.0,0.0,0.0,0.10510000706139057,0.0,-0.24385416968903276,-0.2043011009054488,-0.38994967588753665,0.22892494271563277,0.9186481867985171,-0.028880693944802572
10546,5.0,299.57341,2792.0115,0.0,0.0,0.0,0.0,0.1051099738709744,0.0,-0.2862862062467487,-0.21646207794314382,-0.34595349528295166,0.20864590720174778,0.8905937030647552,-0.06444509965673614
10547,5.0,299.35476,2787.7336,0.0,0.0,0.0,0.0,0.1051199406805582,0.0,-0.2719253720494447,-0.22994285376609278,-0.3455331890089707,0.18988517630020782,0.8956729535635382,-0.08229429658281472
10548,5.0,299.43338,2615.214,0.0,0.0,0.0,0.0,0.10512990749014203,0.0,-0.24228145354631778,-0.22322901807348877,-0.3294492824866127,0.21601288390881176,0.9071577888095032,-0.11876623595881489
10549,5.0,298.42041,2372.356,0.0,0.0,0.0,0.0,0.10513987429972585,0.0,-0.1978819690044298,-0.19243260864161982,-0.33082240862462964,0.22184109848401176,0.9028316364475452,-0.08777411524363073
10550,5.0,298.96342999999996,2256.0972,0.0,0.0,0.0,0.0,0.10514984110930967,0.0,-0.1901633945126658,-0.17041134024328983,-0.3252224792969597,0.2121996590124758,0.8744774738642072,-0.07447926777428142
10551,5.0,300.44845,2646.3708,0.0,0.0,0.0,0.0,0.1051598079188935,0.0,-0.20172060621327378,-0.23906070638095475,-0.36364934085939565,0.18563937467117983,0.8811260562503712,-0.08653172572626643
10552,5.0,300.15356,2787.5625,0.0,0.0,0.0,0.0,0.10516977472847731,0.0,-0.25907845509155275,-0.2156878940717378,-0.37258304540108367,0.22258415531234577,0.9159584738780631,-0.06127858264997524
10553,5.0,300.92037999999997,2726.9240000000004,0.0,0.0,0.0,0.0,0.10517974153806113,0.0,-0.2293501733850998,-0.23591651026064678,-0.36365012106197264,0.23337309038963078,0.9263160177252732,-0.1036196972364679
10554,5.0,300.61605,2768.4175,0.0,0.0,0.0,0.0,0.10518970834764495,0.0,-0.24500648836525776,-0.24440437462583375,-0.3521189296239327,0.2030007565221148,0.9032986332861341,-0.07579201535208953
10555,5.0,298.78325,2996.829,0.0,0.0,0.0,0.0,0.10519967515722878,0.0,-0.2645909713330957,-0.27784928809658976,-0.36852093588268464,0.20392139556297478,0.8798199160764651,-0.1095607777403069
10556,5.0,299.77227999999997,2975.0982,0.0,0.0,0.0,0.0,0.10520964196681261,0.0,-0.25993943396652475,-0.26149096304964875,-0.38292518784677365,0.2097220801329578,0.9135113634290521,-0.06660422416232514
10557,5.0,299.96353,2530.7282,0.0,0.0,0.0,0.0,0.10521960877639641,0.0,-0.22381753399657078,-0.1981791755237618,-0.3472814811290137,0.2199389139387808,0.8860266504915222,-0.07103099225921314
10558,5.0,299.51148,2401.1497,0.0,0.0,0.0,0.0,0.10522957558598024,0.0,-0.2188586474771668,-0.17876142285987884,-0.3322694716224437,0.20980141761578777,0.8688171143005732,-0.04891050843759136
10559,5.0,300.36464,2535.2057,0.0,0.0,0.0,0.0,0.10523954239556406,0.0,-0.21985341589534277,-0.2086554114876858,-0.34213040133064165,0.19892238433961082,0.8925015618105462,-0.1028688890448689
10560,5.0,301.30555,2854.9087,0.0,0.0,0.0,0.0,0.10524950920514788,0.0,-0.24357914321438975,-0.2205145717180938,-0.4037272427972766,0.19267068188511582,0.9232622440438892,-0.0906088009486424
10561,5.0,301.15511000000004,2957.6231,0.0,0.0,0.0,0.0,0.1052594760147317,0.0,-0.26081194362763477,-0.2179669063291588,-0.4202647104618976,0.20825170225034279,0.9033445031181611,-0.07578089493224202
10562,5.0,301.92465,2895.9421,0.0,0.0,0.0,0.0,0.10526944282431552,0.0,-0.25647325736193977,-0.22255099163657277,-0.4012698478597506,0.20844778640969483,0.8876589153426142,-0.04644622035963505
10563,5.0,300.69837,2554.1321,0.0,0.0,0.0,0.0,0.10527940963389934,0.0,-0.22643255011965277,-0.19228049953660784,-0.3576793219327007,0.2304480501334518,0.8763838228673492,-0.06494385175345914
10564,5.0,300.63712000000004,2841.5013,0.0,0.0,0.0,0.0,0.10528937644348316,0.0,-0.26432335171668375,-0.23686677673443077,-0.3625553144614237,0.20393575331689182,0.927535403425617,-0.05452318343826924
10565,5.0,300.03475,3014.8675,0.0,0.0,0.0,0.0,0.10529934325306699,0.0,-0.30114340127053973,-0.23791860126573777,-0.37738242608974565,0.1935037254548308,0.9214291428904761,-0.06846720099493664
10566,5.0,299.2723,2758.5375,0.0,0.0,0.0,0.0,0.10530931006265082,0.0,-0.27147945081293573,-0.23276318475693777,-0.3342838837487507,0.17021105109602283,0.9053888466524221,-0.07848004526412743
10567,5.0,299.13567,2443.4609,0.0,0.0,0.0,0.0,0.10531927687223462,0.0,-0.20177659841379983,-0.23426981672813077,-0.30670466497439375,0.20783735388694982,0.8987269704249461,-0.1080966313458069
10568,5.0,299.74393,2366.1213,0.0,0.0,0.0,0.0,0.10532924368181845,0.0,-0.19868892138406982,-0.1862746926163808,-0.3342781791506877,0.22551272167887276,0.9029166683959372,-0.07138410687931283
10569,5.0,299.92177000000004,2568.5824,0.0,0.0,0.0,0.0,0.10533921049140227,0.0,-0.18992900949953384,-0.23798772518755976,-0.3528681672778767,0.22794398489631978,0.8704793814871262,-0.09299579121622001
10570,5.0,300.57275,2693.4049,0.0,0.0,0.0,0.0,0.10534917730098609,0.0,-0.24330624456495675,-0.19366577454332382,-0.3817558161713656,0.2117884719893948,0.8714912333019881,-0.06297395069079503
10571,5.0,299.68249,2803.7633,0.0,0.0,0.0,0.0,0.10535914411056992,0.0,-0.21654700856652578,-0.25015139747052073,-0.3855756170608506,0.22052441037656478,0.8845553505513162,-0.11645522526323589
10572,5.0,300.35733999999997,2749.7497,0.0,0.0,0.0,0.0,0.10536911092015373,0.0,-0.2360103777499108,-0.24097638741751778,-0.3588684722500607,0.22288360111439878,0.948762152023034,-0.0994710723715305
10573,5.0,300.6934,2830.0153,0.0,0.0,0.0,0.0,0.10537907772973755,0.0,-0.23349729458688878,-0.24630626532853575,-0.38045043593503464,0.18470248309871581,0.9299207360160311,-0.08852698438593311
10574,5.0,300.54049,3046.3782,0.0,0.0,0.0,0.0,0.10538904453932137,0.0,-0.29647918814521773,-0.25525262536397275,-0.37429109122715465,0.15567143905107486,0.9016426178526981,-0.057575669278776144
10575,5.0,299.69061,2957.0141,0.0,0.0,0.0,0.0,0.1053990113489052,0.0,-0.27439933362610575,-0.24428262249381777,-0.38017647337299665,0.1936376973830528,0.8620755560852332,-0.03248709524397667
10576,5.0,299.03917,2545.4662,0.0,0.0,0.0,0.0,0.10540897815848903,0.0,-0.24478075650797976,-0.2070035807771628,-0.3219738272238427,0.22533863517919175,0.9032435124806941,-0.056157679466081446
10577,5.0,299.46727000000004,2609.4543,0.0,0.0,0.0,0.0,0.10541894496807283,0.0,-0.2132560026392288,-0.23901239461618679,-0.34094054173821164,0.22758968173385277,0.8777734751144972,-0.052249720751645946
10578,5.0,299.86897,2912.6474,0.0,0.0,0.0,0.0,0.10542891177765666,0.0,-0.3066072004472747,-0.2275582709807528,-0.35120659923389264,0.20761358773486582,0.871812463981191,-0.09183350925176172
10579,5.0,299.43958,2860.1642,0.0,0.0,0.0,0.0,0.10543887858724048,0.0,-0.26238658494553974,-0.23960051537172974,-0.3674313981826557,0.20581464324232382,0.8886081381687951,-0.07581948861530093
10580,5.0,300.06466,2561.7328,0.0,0.0,0.0,0.0,0.1054488453968243,0.0,-0.23120057071771977,-0.2260848533478378,-0.32141737053392466,0.22921614066187176,0.92328353242849,-0.1141545294536749
10581,5.0,299.77377,2338.4644,0.0,0.0,0.0,0.0,0.10545881220640813,0.0,-0.18074134395278182,-0.17130778287176185,-0.35878564918688666,0.2141295458154408,0.9036775381610292,-0.046849255785661556
10582,5.0,300.10537999999997,2495.0425,0.0,0.0,0.0,0.0,0.10546877901599194,0.0,-0.22645986734234877,-0.21532948724636577,-0.31664127433256073,0.17431132974568883,0.8946830386133411,-0.1010731139986397
10583,5.0,300.87181,2860.2045,0.0,0.0,0.0,0.0,0.10547874582557577,0.0,-0.23828490130938879,-0.2515568158892248,-0.3795890416275216,0.19154296492131884,0.883767406743552,-0.07540767945665852
10584,5.0,300.63765,2829.5895,0.0,0.0,0.0,0.0,0.10548871263515958,0.0,-0.2939633590744247,-0.22713045652353075,-0.3390307375522287,0.21545908193415578,0.937190055678457,-0.09586148946704241
10585,5.0,299.82705,2565.616,0.0,0.0,0.0,0.0,0.1054986794447434,0.0,-0.1957706800360618,-0.26674661025834073,-0.31736591027407673,0.2331881013188738,0.9276731446442111,-0.1028809264560569
10586,5.0,300.24471,2543.7934,0.0,0.0,0.0,0.0,0.10550864625432724,0.0,-0.25543631747460177,-0.2041966145551368,-0.3136167531815637,0.24284121343156176,0.8934452624236822,-0.06034352607344235
10587,5.0,299.53406,2942.782,0.0,0.0,0.0,0.0,0.10551861306391104,0.0,-0.25317216959614774,-0.25879318465839873,-0.38256690261141363,0.23107512022283877,0.8732630125593491,-0.07695722966233723
10588,5.0,299.3018,3155.5229,0.0,0.0,0.0,0.0,0.10552857987349487,0.0,-0.2989857865075997,-0.2588370077252237,-0.4013773638278616,0.21150232002865382,0.8971957367413252,-0.05128807953223935
10589,5.0,300.88149,2922.4662,0.0,0.0,0.0,0.0,0.10553854668307869,0.0,-0.22912408689028677,-0.24351796317335175,-0.4157147007553466,0.20941405210255779,0.8992624123077901,-0.08459867555648921
10590,5.0,300.40124,2543.061,0.0,0.0,0.0,0.0,0.1055485134926625,0.0,-0.2356970098914838,-0.21650970069784378,-0.3208203433100027,0.16827316974976883,0.8932262180170641,-0.07947124501545122
10591,5.0,301.24474,2613.2289,0.0,0.0,0.0,0.0,0.10555848030224634,0.0,-0.2164438901038488,-0.21185512358097278,-0.3660572993245426,0.17038744780593185,0.8980860897366962,-0.11695349099991088
10592,5.0,300.75997,2870.7602,0.0,0.0,0.0,0.0,0.10556844711183015,0.0,-0.28392013554073575,-0.2205026558969178,-0.36821662648015163,0.16543892683505085,0.9250541059182321,-0.061092200360330744
10593,5.0,299.17551000000003,2738.3693,0.0,0.0,0.0,0.0,0.10557841392141398,0.0,-0.23822814917128776,-0.22317067513273078,-0.3709970658145596,0.2137109215366258,0.915020569055499,-0.08225612035879702
10594,5.0,299.29796,2701.5683,0.0,0.0,0.0,0.0,0.10558838073099779,0.0,-0.24792703992349377,-0.22421168828547075,-0.3490705869630847,0.2078728581704538,0.9004313786831581,-0.07241260841981803
10595,5.0,299.97301,2775.0731,0.0,0.0,0.0,0.0,0.10559834754058162,0.0,-0.25761495717711674,-0.2424647707544098,-0.3434732211581677,0.2391353423833208,0.8928549023854182,-0.08571202868686861
10596,5.0,298.46182000000005,2971.0115,0.0,0.0,0.0,0.0,0.10560831435016545,0.0,-0.2672479562753198,-0.25316319220026173,-0.38270215123476164,0.2252632392392508,0.906320742901893,-0.0918792716792781
10597,5.0,299.37357000000003,2969.2465,0.0,0.0,0.0,0.0,0.10561828115974925,0.0,-0.2877353869372717,-0.2160508301250568,-0.39879057685256564,0.21654399921372877,0.9102174494739681,-0.06006388019159344
10598,5.0,300.10004,2631.6129,0.0,0.0,0.0,0.0,0.10562824796933308,0.0,-0.2291099115213878,-0.23071189032699077,-0.34012280837750763,0.18729085074416782,0.8977504810385741,-0.07326571636801323
10599,5.0,300.30192,2423.7044,0.0,0.0,0.0,0.0,0.1056382147789169,0.0,-0.1979141295626038,-0.1964777056908398,-0.34235378244768766,0.2191065188491298,0.8939664377451181,-0.05830630366088415
10600,5.0,300.14922,2718.7556,0.0,0.0,0.0,0.0,0.1056481815885007,0.0,-0.23668310488880379,-0.22543260399346576,-0.3643181163228987,0.1944171096249748,0.9104649864733982,-0.07804754655169313
10601,5.0,299.43582000000004,2940.1985,0.0,0.0,0.0,0.0,0.10565814839808454,0.0,-0.26035361007740077,-0.24767272428089476,-0.38572058275265764,0.23752443684433677,0.8813462760271052,-0.0890942676531696
10602,5.0,300.03972000000005,2839.5609,0.0,0.0,0.0,0.0,0.10566811520766836,0.0,-0.2432550653024058,-0.25005930316893177,-0.3698412210279866,0.2159221169648538,0.8829734442301942,-0.09674062274405609
10603,5.0,300.60762,2702.9439,0.0,0.0,0.0,0.0,0.10567808201725219,0.0,-0.22330920668640278,-0.24053894708434578,-0.35777928918756663,0.2374562349801058,0.9009367371705332,-0.10521679217658889
10604,5.0,300.09575,2644.3316,0.0,0.0,0.0,0.0,0.105688048826836,0.0,-0.25501579841809974,-0.20862875287755483,-0.34016623627679365,0.2319417732983708,0.919809371413117,-0.06378101858094644
10605,5.0,299.25706,2729.3539,0.0,0.0,0.0,0.0,0.10569801563641983,0.0,-0.2651267678534747,-0.21353197143646477,-0.35099671460817866,0.19471328262920481,0.9451655498655771,-0.07306650227910234
10606,5.0,300.4404,2977.7617,0.0,0.0,0.0,0.0,0.10570798244600366,0.0,-0.3001859305885447,-0.24977586671845875,-0.35520340478334667,0.18572909796753484,0.8931851509905111,-0.055966079951672035
10607,5.0,300.29422999999997,2834.1561,0.0,0.0,0.0,0.0,0.10571794925558746,0.0,-0.2561442347894678,-0.2485865036185778,-0.35678193698163563,0.19592334642862883,0.9093542211837742,-0.09267852639790841
10608,5.0,301.00164,2550.2905,0.0,0.0,0.0,0.0,0.10572791606517129,0.0,-0.23409375439075478,-0.2064127546438528,-0.3347181120791057,0.2008430100366618,0.917616576606705,-0.08669283654516682
10609,5.0,299.61637,2633.586,0.0,0.0,0.0,0.0,0.10573788287475511,0.0,-0.21084511588129282,-0.2270647979170508,-0.3626344796917366,0.21336029647202182,0.8917214605585562,-0.07929486958379434
10610,5.0,299.4315,2828.7047,0.0,0.0,0.0,0.0,0.10574784968433892,0.0,-0.25839092436869876,-0.2234916524994088,-0.3779730090430316,0.19316562416146282,0.8754337590435851,-0.08935954463535041
10611,5.0,299.55337000000003,2937.2492,0.0,0.0,0.0,0.0,0.10575781649392274,0.0,-0.23511852514439174,-0.2685502663638477,-0.38918162217923563,0.21009218999698479,0.8915407372707201,-0.08007004441379813
10612,5.0,300.37587,2726.5497,0.0,0.0,0.0,0.0,0.10576778330350657,0.0,-0.24651307980644674,-0.23091443902198078,-0.35137549789306166,0.24765638055678174,0.8980660577822192,-0.09584028112919932
10613,5.0,299.67939,2451.5774,0.0,0.0,0.0,0.0,0.10577775011309037,0.0,-0.21494960965137477,-0.18710036985786882,-0.3431683139380757,0.21273469559527977,0.9115970806776271,-0.044632859344670255
10614,5.0,300.01193,2577.2715,0.0,0.0,0.0,0.0,0.1057877169226742,0.0,-0.2300243190741328,-0.2110856715875338,-0.3423161908689777,0.18738928799138282,0.8941893223696152,-0.09107279350068491
10615,5.0,299.87622000000005,2797.0033,0.0,0.0,0.0,0.0,0.10579768373225802,0.0,-0.2483121154914978,-0.22260262686166882,-0.37930442980693263,0.17056582035353582,0.9038895506119532,-0.051600443259817254
10616,5.0,299.93337,2861.2912,0.0,0.0,0.0,0.0,0.10580765054184184,0.0,-0.26591849108411175,-0.24612982808862274,-0.35771276931850166,0.2059297383211828,0.9370426683189111,-0.08033329388252883
10617,5.0,300.4494,2723.5494,0.0,0.0,0.0,0.0,0.10581761735142567,0.0,-0.24437938787836777,-0.21649782540667178,-0.36701377702143967,0.2297084788854618,0.9396311170243712,-0.04637023369488576
10618,5.0,299.40101,2761.567,0.0,0.0,0.0,0.0,0.10582758416100949,0.0,-0.26777758210258973,-0.2216705988896848,-0.34999924081223566,0.2206080643048208,0.9000490186254221,-0.07898753562971282
10619,5.0,298.4331,2879.8539,0.0,0.0,0.0,0.0,0.10583755097059332,0.0,-0.25447357789208674,-0.24018661975957376,-0.38074346786395463,0.2159812705056918,0.9022455928547071,-0.08883368911170252
10620,5.0,298.07799,2939.4591,0.0,0.0,0.0,0.0,0.10584751778017712,0.0,-0.26227826850984975,-0.2372362786483978,-0.3940076310805256,0.23083655048679377,0.8817970000690882,-0.09077059469811022
10621,5.0,299.62172999999996,2759.8707,0.0,0.0,0.0,0.0,0.10585748458976095,0.0,-0.2257647980387508,-0.23146731893904576,-0.3816996415858216,0.20733533912490482,0.8949262287698422,-0.07790300946467843
10622,5.0,299.98921,2525.8666,0.0,0.0,0.0,0.0,0.10586745139934477,0.0,-0.2325082408992768,-0.18967325504179283,-0.3456188897024287,0.1992833040252308,0.8761508665368583,-0.050719572258882045
10623,5.0,299.69462999999996,2642.6263,0.0,0.0,0.0,0.0,0.10587741820892858,0.0,-0.23242055423562277,-0.22955968310827676,-0.3413121816098897,0.16740618230170384,0.914101318167276,-0.08383152668052751
10624,5.0,299.81675,2715.9927,0.0,0.0,0.0,0.0,0.1058873850185124,0.0,-0.26600070619722577,-0.20623014671083081,-0.3533631196867247,0.20988563896409979,0.922400718013863,-0.058446418924462444
10625,5.0,300.0411,2888.4489,0.0,0.0,0.0,0.0,0.10589735182809623,0.0,-0.27175127541726274,-0.23385856891004375,-0.3724064865711586,0.18875027539320183,0.9275509973446562,-0.09383039417783891
10626,5.0,301.41781000000003,2793.127,0.0,0.0,0.0,0.0,0.10590731863768005,0.0,-0.25937956262376977,-0.2219715341693848,-0.3676897668256547,0.22659079952027075,0.8939135663549003,-0.1007640362411361
10627,5.0,300.55162,2500.6346,0.0,0.0,0.0,0.0,0.10591728544726386,0.0,-0.21285251631690777,-0.22081647971788976,-0.3264614612542377,0.2098860138666368,0.8920326499292682,-0.11402994022137888
10628,5.0,300.32644,2635.8544,0.0,0.0,0.0,0.0,0.1059272522568477,0.0,-0.2107403255559508,-0.24235363748344177,-0.3481399674087397,0.22386714272146677,0.9070078987222102,-0.0965110841061524
10629,5.0,299.21621,2802.0889,0.0,0.0,0.0,0.0,0.1059372190664315,0.0,-0.2583743070670588,-0.2234575262360408,-0.36993321400456564,0.1895806946451578,0.9129585645719951,-0.08017868812927043
10630,5.0,299.05366000000004,2733.0616,0.0,0.0,0.0,0.0,0.10594718587601533,0.0,-0.25702850828423873,-0.20231279010171782,-0.37144118346589067,0.20355708148951984,0.901523105003403,-0.0900035208026559
10631,5.0,299.40157999999997,2613.3920000000003,0.0,0.0,0.0,0.0,0.10595715268559916,0.0,-0.2298690891588128,-0.2244662673730958,-0.3400705652023517,0.17494542165826885,0.9292818007679731,-0.07902650928155923
10632,5.0,299.3027,2627.2309,0.0,0.0,0.0,0.0,0.10596711949518298,0.0,-0.2041052599261208,-0.2070111598879108,-0.38749617183039464,0.1957074430973208,0.9059891466741672,-0.07567375487991812
10633,5.0,299.11172999999997,2876.6059,0.0,0.0,0.0,0.0,0.1059770863047668,0.0,-0.25523873370510175,-0.23152721215245678,-0.38765041889311763,0.2041969995901748,0.9183001353891672,-0.05209301149117995
10634,5.0,300.02549,3077.5877,0.0,0.0,0.0,0.0,0.10598705311435061,0.0,-0.2629259075762667,-0.26188686012872076,-0.4106970558626436,0.22774209481389482,0.8701886496359331,-0.04308698115735396
10635,5.0,300.45479,2686.5623,0.0,0.0,0.0,0.0,0.10599701992393444,0.0,-0.2713390346140777,-0.1993893913107008,-0.3459194399470907,0.28527977531992177,0.8834133568936101,-0.05804358918820625
10636,5.0,299.79157000000004,2561.0017,0.0,0.0,0.0,0.0,0.10600698673351827,0.0,-0.2204211095288698,-0.23454400220519078,-0.3235154467209887,0.22937562622761176,0.918557875817104,-0.07101189046832794
10637,5.0,299.71006,2838.4816,0.0,0.0,0.0,0.0,0.10601695354310207,0.0,-0.27111520766698777,-0.24317796710229675,-0.34853435474516264,0.2093035875766558,0.925561257858284,-0.1112699888039929
10638,5.0,298.07853,3026.4714,0.0,0.0,0.0,0.0,0.1060269203526859,0.0,-0.29170161259870775,-0.23248577714455979,-0.3957843549983746,0.17584837948488383,0.9081201433569801,-0.1001133209474155
10639,5.0,298.27206,2781.6940000000004,0.0,0.0,0.0,0.0,0.10603688716226971,0.0,-0.24421942608508077,-0.2385148178895798,-0.36283128325865965,0.18274957525347882,0.929767603528418,-0.12997533545506687
10640,5.0,298.59477999999996,2337.9413,0.0,0.0,0.0,0.0,0.10604685397185354,0.0,-0.17673413232480084,-0.18425486973453983,-0.34968677474639764,0.2171889329023788,0.9097260535729712,-0.07550031382055082
10641,5.0,299.11422000000005,2395.2739,0.0,0.0,0.0,0.0,0.10605682078143737,0.0,-0.2021887581569768,-0.1992641434658398,-0.3266505337228977,0.1909662837594048,0.9214629347813111,-0.07499950685262502
10642,5.0,299.72789,2819.5425,0.0,0.0,0.0,0.0,0.10606678759102119,0.0,-0.26111448997499376,-0.2235265589653538,-0.3724294772159276,0.20820499142073282,0.8779066161776372,-0.04388084335895206
10643,5.0,299.29873,3016.2263,0.0,0.0,0.0,0.0,0.106076754400605,0.0,-0.26917262484026977,-0.2525994603746257,-0.39508539481439264,0.2104051626878728,0.8913793062647881,-0.07718446416951352
10644,5.0,300.00885,2815.158,0.0,0.0,0.0,0.0,0.10608672121018882,0.0,-0.24030036721579975,-0.23992409679116478,-0.37551329376277665,0.22030518358492882,0.8907954715571681,-0.07754770723761284
10645,5.0,300.70802000000003,2690.4679,0.0,0.0,0.0,0.0,0.10609668801977265,0.0,-0.20506182881552681,-0.2614355484016797,-0.3513376833993297,0.20040332028826782,0.8837182641137022,-0.0933730049766981
10646,5.0,299.34367000000003,2838.7839,0.0,0.0,0.0,0.0,0.10610665482935648,0.0,-0.2591901861800797,-0.23799966127373776,-0.36572957371219866,0.18720033711273482,0.8899025955690482,-0.0947913170029246
10647,5.0,299.82912000000005,2948.8964,0.0,0.0,0.0,0.0,0.10611662163894028,0.0,-0.2936672772627037,-0.23762190137145575,-0.36510170315523266,0.2097366101393918,0.9020666731520491,-0.07378531912529403
10648,5.0,300.33133,2780.7725,0.0,0.0,0.0,0.0,0.10612658844852411,0.0,-0.26911423123700673,-0.23239929624852476,-0.34377187662514264,0.2351576365982518,0.9351739311594812,-0.07202454680376934
10649,5.0,299.56753,2385.7158,0.0,0.0,0.0,0.0,0.10613655525810792,0.0,-0.2231105387392958,-0.18750769639806883,-0.31457978660660774,0.2199247487023828,0.9257523973571482,-0.08205208826566063
10650,5.0,300.13424,2610.0304,0.0,0.0,0.0,0.0,0.10614652206769176,0.0,-0.23103172272105577,-0.2086242743121128,-0.35372808224024366,0.21007258360754982,0.9017176591551042,-0.07305616206183183
10651,5.0,301.20087,3089.5295,0.0,0.0,0.0,0.0,0.10615648887727558,0.0,-0.28111404071379575,-0.24963081996664377,-0.4083949617679446,0.1861747962890218,0.9069367989626931,-0.06923501962921444
10652,5.0,300.12327,3147.4079,0.0,0.0,0.0,0.0,0.1061664556868594,0.0,-0.27671897721253674,-0.25373634725182775,-0.42627808636037157,0.22856838000544277,0.8933194876887692,-0.049287736383570854
10653,5.0,300.85963,2810.2028,0.0,0.0,0.0,0.0,0.10617642249644321,0.0,-0.24475312517775275,-0.24815221449321676,-0.36132613063261265,0.21705809191696582,0.8632474608858912,-0.06738601247573164
10654,5.0,300.04319,2688.4785,0.0,0.0,0.0,0.0,0.10618638930602703,0.0,-0.23807302058097776,-0.23388812541546078,-0.34526916643041367,0.18586248221069882,0.8968574530629392,-0.06298475700311153
10655,5.0,299.49631,2681.4677,0.0,0.0,0.0,0.0,0.10619635611561086,0.0,-0.24962146766822074,-0.21600053239009281,-0.34947720422821466,0.1810245980182368,0.914464375810607,-0.09090340240196731
10656,5.0,300.05786,2753.8743,0.0,0.0,0.0,0.0,0.10620632292519469,0.0,-0.24401673553507677,-0.23289771397271475,-0.36019457345093664,0.2163026025099048,0.9366702583771571,-0.0889516780328471
10657,5.0,299.51162,2577.7926,0.0,0.0,0.0,0.0,0.1062162897347785,0.0,-0.1960022178164128,-0.2284713917058708,-0.35911096326399267,0.21974457256960078,0.913635790541332,-0.1043479099508369
10658,5.0,298.77526,2403.9376,0.0,0.0,0.0,0.0,0.10622625654436232,0.0,-0.19379883454645583,-0.2149418582881098,-0.3219963112435617,0.25143815417001375,0.896171199035211,-0.0904166583321794
10659,5.0,299.49239,2614.597,0.0,0.0,0.0,0.0,0.10623622335394613,0.0,-0.24594616637549677,-0.2077738332381808,-0.3410522120317327,0.20730883250228882,0.8991264848068751,-0.0991798541602895
10660,5.0,300.11929,2887.578,0.0,0.0,0.0,0.0,0.10624619016352996,0.0,-0.2755924254863547,-0.2160735573247998,-0.3860856364986856,0.2165819758274768,0.8933404113033342,-0.06592865587015173
10661,5.0,299.78256,2973.7897,0.0,0.0,0.0,0.0,0.10625615697311379,0.0,-0.2906449649969247,-0.2550665419831078,-0.35824630629115767,0.18464201233274782,0.8729621482071562,-0.08078755315411072
10662,5.0,301.40989,2954.1097,0.0,0.0,0.0,0.0,0.1062661237826976,0.0,-0.24399350171028378,-0.24682339778207277,-0.4071586851884336,0.17106533238783383,0.9085901394158652,-0.08337184449441042
10663,5.0,301.07608999999997,2781.5294,0.0,0.0,0.0,0.0,0.10627609059228142,0.0,-0.24069792602503576,-0.23240118089371076,-0.37241638602463567,0.17535399449609185,0.9209012598533781,-0.0943511206294806
10664,5.0,301.52624,2816.5159,0.0,0.0,0.0,0.0,0.10628605740186524,0.0,-0.2343323139942988,-0.23719818044463778,-0.3846200006265386,0.17935500503346083,0.93842432602277,-0.08060821295266121
10665,5.0,301.12715,2737.9417,0.0,0.0,0.0,0.0,0.10629602421144907,0.0,-0.24662931985791878,-0.23174433138388478,-0.35389224902144567,0.1916801387198568,0.9176859639735532,-0.05329273811308375
10666,5.0,300.37761,2546.647,0.0,0.0,0.0,0.0,0.1063059910210329,0.0,-0.2122743456773468,-0.22932485226510077,-0.3325179104144627,0.23686976582222577,0.9088584683073472,-0.07987132985718652
10667,5.0,300.85365,2485.1702,0.0,0.0,0.0,0.0,0.1063159578306167,0.0,-0.23900867598831982,-0.18157300950236083,-0.3348480006094247,0.25330463178172075,0.9188854798394361,-0.06425338969806585
10668,5.0,301.42024,2595.0222,0.0,0.0,0.0,0.0,0.10632592464020053,0.0,-0.23351953542658377,-0.2044883089939248,-0.35081409654265566,0.2021798922186018,0.9171834831164621,-0.08572032923168782
10669,5.0,299.59574,2803.3383,0.0,0.0,0.0,0.0,0.10633589144978434,0.0,-0.24546896610840074,-0.23211235395270577,-0.3745635237815416,0.23825681401661677,0.9027163488511671,-0.08684377534631332
10670,5.0,299.86400000000003,3053.6244,0.0,0.0,0.0,0.0,0.10634585825936817,0.0,-0.2871636808333487,-0.2417874738575658,-0.3992744037753156,0.19757152943879183,0.886058375352153,-0.07643407445020584
10671,5.0,299.79421,2901.4229,0.0,0.0,0.0,0.0,0.106355825068952,0.0,-0.28018791998989473,-0.22558860397886177,-0.3761835891014296,0.25274040346353577,0.9024174096741641,-0.07161923764451844
10672,5.0,300.1195,2708.4664,0.0,0.0,0.0,0.0,0.10636579187853581,0.0,-0.25975076679790476,-0.2134267859435838,-0.35012862271750467,0.18730484372804884,0.9003973132147961,-0.06551797445887064
10673,5.0,299.18948,2715.5965,0.0,0.0,0.0,0.0,0.10637575868811963,0.0,-0.26406994799917477,-0.20092809264755881,-0.36047547677615965,0.2060721202252348,0.912748284778742,-0.05012920310136715
10674,5.0,299.34698,2779.4537,0.0,0.0,0.0,0.0,0.10638572549770345,0.0,-0.23849425904505075,-0.2634256526580877,-0.3429646202704727,0.17760135282038883,0.9096082227188421,-0.08857275289295011
10675,5.0,299.54562999999996,2685.2682,0.0,0.0,0.0,0.0,0.10639569230728728,0.0,-0.21813722353846776,-0.22952633704748576,-0.36859093119959263,0.2046765505975028,0.913164558317325,-0.08650121676575542
10676,5.0,300.77695,2485.0802,0.0,0.0,0.0,0.0,0.10640565911687111,0.0,-0.21344307900519183,-0.2171064442117378,-0.3248527848654737,0.1977117429876298,0.9166489734237102,-0.1003636889676249
10677,5.0,300.56532999999996,2599.1429,0.0,0.0,0.0,0.0,0.10641562592645491,0.0,-0.23678145094350977,-0.23432864602893677,-0.3189644440293397,0.22897820927338977,0.8984797880630512,-0.07392473220655302
10678,5.0,301.00189,2854.447,0.0,0.0,0.0,0.0,0.10642559273603874,0.0,-0.27361743892143875,-0.2179722664221878,-0.37609090711478266,0.2213458826301378,0.9007602897981192,-0.08467272792679761
10679,5.0,299.76415,3048.3285,0.0,0.0,0.0,0.0,0.10643555954562256,0.0,-0.2833264115121398,-0.25758700160685777,-0.38570234425085764,0.24300879486560079,0.8810586447212182,-0.06273390667585453
10680,5.0,300.44366,2969.0685,0.0,0.0,0.0,0.0,0.10644552635520638,0.0,-0.2430032321225518,-0.27097676730582476,-0.38854269706367867,0.2172951924403658,0.8920764932610952,-0.1051353066035469
10681,5.0,300.29713,2692.8962,0.0,0.0,0.0,0.0,0.10645549316479021,0.0,-0.22868452886440577,-0.1991164419987628,-0.39077223231871666,0.21137612986119977,0.8890561061705061,-0.05340521495368435
10682,5.0,299.60147,2830.8204,0.0,0.0,0.0,0.0,0.10646545997437402,0.0,-0.2537976995453828,-0.2592827060467108,-0.34741830029001664,0.2102574206907918,0.9198300518476582,-0.1062659417276319
10683,5.0,299.62666,2967.4586,0.0,0.0,0.0,0.0,0.10647542678395784,0.0,-0.29621922869956174,-0.20013482927676982,-0.40567925898242563,0.21013785717899178,0.9226911965525311,-0.02760596047099618
10684,5.0,300.2319,2769.9256,0.0,0.0,0.0,0.0,0.10648539359354166,0.0,-0.29353664905981175,-0.21112902855931281,-0.3373225397386427,0.19804244755526781,0.9008549577549622,-0.07580018316114563
10685,5.0,299.353,2708.75,0.0,0.0,0.0,0.0,0.10649536040312549,0.0,-0.25081215812573276,-0.23732701519485275,-0.33525319932441466,0.1959107517298858,0.8843872320947241,-0.038467803959226665
10686,5.0,299.84713,2829.5745,0.0,0.0,0.0,0.0,0.10650532721270932,0.0,-0.2512335485773208,-0.23139820514972476,-0.37748824993018965,0.2013175859859988,0.8780829014300352,-0.08624468109218733
10687,5.0,300.14848,3048.4182,0.0,0.0,0.0,0.0,0.10651529402229312,0.0,-0.2517801463437658,-0.2834805673823537,-0.3913822899389246,0.2136281997984618,0.8946811033056501,-0.07869727696631652
10688,5.0,300.82153,2924.2423,0.0,0.0,0.0,0.0,0.10652526083187695,0.0,-0.25348764501478277,-0.2398106127799648,-0.39559838307502065,0.2334179976340628,0.9306890430368571,-0.07867022521514672
10689,5.0,299.60443,2658.6982,0.0,0.0,0.0,0.0,0.10653522764146077,0.0,-0.24092337417228576,-0.1937635531779738,-0.37349092762318464,0.22927791852046878,0.9316887662480221,-0.06500739266723014
10690,5.0,300.16328,2560.5902,0.0,0.0,0.0,0.0,0.10654519445104459,0.0,-0.22951369168623775,-0.2359251127539958,-0.3129166682899707,0.2252643335493588,0.9268458462025632,-0.08815341528606473
10691,5.0,300.12393,2646.5112,0.0,0.0,0.0,0.0,0.10655516126062842,0.0,-0.23012004081107976,-0.2109627643504038,-0.36339052638635266,0.19589944385876984,0.9262149561602991,-0.08899072970495123
10692,5.0,299.88079,2884.4795,0.0,0.0,0.0,0.0,0.10656512807021223,0.0,-0.24718074069483975,-0.26653107169706874,-0.36309794028747666,0.1899011653867858,0.924755612571273,-0.1085981800128059
10693,5.0,300.62441,2893.8825,0.0,0.0,0.0,0.0,0.10657509487979605,0.0,-0.25516609380543276,-0.25317483444391076,-0.37132707123962866,0.19029247244290481,0.8920936171877851,-0.1134141982681099
10694,5.0,300.47478,2682.9805,0.0,0.0,0.0,0.0,0.10658506168937987,0.0,-0.2500165237497098,-0.2248468846406598,-0.3406956594540437,0.2024691548571498,0.909429424606196,-0.10806626424030989
10695,5.0,298.82996,2664.8587,0.0,0.0,0.0,0.0,0.1065950284989637,0.0,-0.22799721092407277,-0.25217329751506673,-0.32988000497162173,0.2103345999509088,0.9107306606496182,-0.09526202841638022
10696,5.0,299.73028999999997,2942.0641,0.0,0.0,0.0,0.0,0.10660499530854753,0.0,-0.2929565836425637,-0.23755362857971776,-0.3638038108371407,0.2079549212960528,0.9116556971959121,-0.07169163537741352
10697,5.0,299.58419,3001.8766,0.0,0.0,0.0,0.0,0.10661496211813133,0.0,-0.2730352152814778,-0.24680404470516273,-0.39265626955465666,0.20318048682485282,0.9080382626163991,-0.07177255251714944
10698,5.0,298.69703,2740.1282,0.0,0.0,0.0,0.0,0.10662492892771516,0.0,-0.20884164685606582,-0.25975115183294273,-0.3643377531098367,0.1977562651970238,0.9105952296412521,-0.08230836961345363
10699,5.0,299.09303,2752.8135,0.0,0.0,0.0,0.0,0.10663489573729898,0.0,-0.22674629288061682,-0.21136370741497382,-0.3986765456863116,0.2239900296935948,0.9341550879189291,-0.06514421486798344
10700,5.0,299.13473999999997,2870.5147,0.0,0.0,0.0,0.0,0.1066448625468828,0.0,-0.24207262270070776,-0.2530359178552008,-0.37745625149203166,0.20378842675235181,0.9303022449436831,-0.06316871559851685
10701,5.0,299.55124,2940.2824,0.0,0.0,0.0,0.0,0.10665482935646663,0.0,-0.28968472814215673,-0.2213653572970598,-0.38272235544175565,0.2187232266013018,0.9002247871202691,-0.07066553118664493
10702,5.0,300.85316,3032.6214,0.0,0.0,0.0,0.0,0.10666479616605044,0.0,-0.3085426094632847,-0.22604645116904776,-0.3872521102788076,0.1859952078412978,0.8837421464185591,-0.06311148014011814
10703,5.0,300.33984,2772.801,0.0,0.0,0.0,0.0,0.10667476297563426,0.0,-0.26249811338404677,-0.2307432706825878,-0.34962087295989364,0.22449428373836078,0.8999997240080572,-0.1036412490660949
10704,5.0,300.69542,2619.1451,0.0,0.0,0.0,0.0,0.10668472978521808,0.0,-0.23899723639469075,-0.20213675816184482,-0.3550207157903167,0.2036258811713098,0.9039504976054681,-0.08476678286733012
10705,5.0,300.8963,2906.2753,0.0,0.0,0.0,0.0,0.10669469659480191,0.0,-0.25469259190120175,-0.25993694137127876,-0.36880558823327764,0.22683701929457079,0.9234691699793112,-0.09221142418130901
10706,5.0,300.23047,2992.8259999999996,0.0,0.0,0.0,0.0,0.10670466340438574,0.0,-0.27948413673543676,-0.25532734242634675,-0.37493288384049467,0.18968896041834282,0.8957415809928111,-0.08398844467051413
10707,5.0,299.94272,2791.7597,0.0,0.0,0.0,0.0,0.10671463021396954,0.0,-0.2501130358217348,-0.21548432199414677,-0.38302789087690964,0.2173515088809238,0.9127743050413102,-0.05836079321151185
10708,5.0,300.13003,2636.301,0.0,0.0,0.0,0.0,0.10672459702355337,0.0,-0.22940867844587376,-0.23713520695092274,-0.3348257901672327,0.1949621773837688,0.933902221223973,-0.08466324897211212
10709,5.0,298.67261,2675.1222,0.0,0.0,0.0,0.0,0.10673456383313719,0.0,-0.21988729897868678,-0.2155634669594578,-0.3777195850605206,0.17858993028045383,0.9220549464172382,-0.07161510966361104
10710,5.0,299.30944,2996.9606,0.0,0.0,0.0,0.0,0.106744530642721,0.0,-0.2797404890107367,-0.25252435827721376,-0.3787363410058666,0.17689465140564284,0.9125065131723811,-0.0968106859487208
10711,5.0,299.99385,2922.7470000000003,0.0,0.0,0.0,0.0,0.10675449745230484,0.0,-0.25837624237474976,-0.23374016050335777,-0.3963257041293016,0.2041804836135448,0.9203770143841392,-0.09361057868789481
10712,5.0,299.08132,2610.0824,0.0,0.0,0.0,0.0,0.10676446426188865,0.0,-0.23036782099053377,-0.2091362594551418,-0.35389578526429466,0.2417553335643938,0.931768357043377,-0.08645993391693112
10713,5.0,300.80408,2553.5741,0.0,0.0,0.0,0.0,0.10677443107147247,0.0,-0.2268824230315518,-0.2112804385217558,-0.3380598919689137,0.22298270710667975,0.9032882778701121,-0.07048874842844784
10714,5.0,300.56579,2779.0431,0.0,0.0,0.0,0.0,0.10678439788105629,0.0,-0.2642558895250257,-0.2256967076320308,-0.35480710240423463,0.22772274173698479,0.8762402655931811,-0.08312059089361362
10715,5.0,299.79786,3005.2329,0.0,0.0,0.0,0.0,0.10679436469064012,0.0,-0.2741502058240187,-0.2539778250156598,-0.38538774022730865,0.2073954451208368,0.8860616582824771,-0.08680141135963233
10716,5.0,300.74441,2933.7347,0.0,0.0,0.0,0.0,0.10680433150022392,0.0,-0.2857522234440487,-0.23403425634488279,-0.3719956136556086,0.21014045109924778,0.9297813229347721,-0.09667459835429001
10717,5.0,300.84424,2720.9152,0.0,0.0,0.0,0.0,0.10681429830980775,0.0,-0.24004369070046777,-0.2205771196467668,-0.36646945906771966,0.19543772605320184,0.9235879026260292,-0.08147858465606023
10718,5.0,298.99204,2746.0686,0.0,0.0,0.0,0.0,0.10682426511939158,0.0,-0.23908558167090976,-0.22594376840391378,-0.3697069349922336,0.19222928987655383,0.9038718592652072,-0.06158726929294024
10719,5.0,299.36007,3081.2385,0.0,0.0,0.0,0.0,0.1068342319289754,0.0,-0.2852753271519827,-0.23833287870162378,-0.4130113596210476,0.2118672319196678,0.9069164326356831,-0.031334422943466764
10720,5.0,298.36072,3086.6599,0.0,0.0,0.0,0.0,0.10684419873855922,0.0,-0.27475279579098977,-0.2478921233250478,-0.4156226267187596,0.23055748114425179,0.8957517438913141,-0.05029114073234915
10721,5.0,299.57066000000003,2828.1884,0.0,0.0,0.0,0.0,0.10685416554814303,0.0,-0.2516013077011158,-0.24002948493406576,-0.36806788136547164,0.22756902156431377,0.9004369920887122,-0.06461731164373213
10722,5.0,300.79951,2616.1948,0.0,0.0,0.0,0.0,0.10686413235772686,0.0,-0.2466462208695868,-0.20175896786205982,-0.3468526939516957,0.21228477202087578,0.8875826074775832,-0.08346385064324072
10723,5.0,299.69305,2876.6756,0.0,0.0,0.0,0.0,0.10687409916731067,0.0,-0.2650153204749758,-0.24194052528517077,-0.36748170605012065,0.2243194069036018,0.9109627557175242,-0.09300399144927932
10724,5.0,300.12751000000003,3180.5992,0.0,0.0,0.0,0.0,0.1068840659768945,0.0,-0.32004145795813266,-0.24463670274126276,-0.4021445866710806,0.2184986397166368,0.9287620743941802,-0.09309887218864331
10725,5.0,300.53918,2985.1251,0.0,0.0,0.0,0.0,0.10689403278647831,0.0,-0.28875320679522276,-0.24221867257012178,-0.3764316124609076,0.2173296834737698,0.9184589116798372,-0.07945645359049143
10726,5.0,300.50718,2473.433,0.0,0.0,0.0,0.0,0.10690399959606213,0.0,-0.2042123300641878,-0.2286381524073288,-0.3190113879064727,0.21209895208503682,0.8987372042509562,-0.1017451237564619
10727,5.0,300.4398,2427.8054,0.0,0.0,0.0,0.0,0.10691396640564595,0.0,-0.2041032942209268,-0.20740428066170882,-0.3264846545490267,0.1956010923668248,0.9139214358770231,-0.09525495086443171
10728,5.0,299.25704,2897.4387,0.0,0.0,0.0,0.0,0.10692393321522978,0.0,-0.24037840773850175,-0.26482723085891274,-0.37554337715824565,0.2259452781465628,0.9104754128169272,-0.11163053358707589
10729,5.0,298.19091000000003,3080.9402,0.0,0.0,0.0,0.0,0.10693390002481361,0.0,-0.2590183693606228,-0.27804566609847076,-0.39946486439661266,0.19504662164710282,0.9212606596638481,-0.08619117844715701
10730,5.0,300.1549,2878.2732,0.0,0.0,0.0,0.0,0.10694386683439741,0.0,-0.2549334819799758,-0.21977069415717881,-0.4002190061810406,0.21409073833661077,0.9198574096003582,-0.05076590615945486
10731,5.0,299.78771,2551.2465,0.0,0.0,0.0,0.0,0.10695383364398124,0.0,-0.20469052331638182,-0.22324211939728178,-0.34758259879373166,0.18783973845583882,0.9296827944950481,-0.06713610649756785
10732,5.0,299.14594,2902.446,0.0,0.0,0.0,0.0,0.10696380045356506,0.0,-0.26757792117038476,-0.2118685086147938,-0.4028246801382006,0.1997837482496208,0.911439530419578,-0.045486763707444054
10733,5.0,300.53641,3418.0561,0.0,0.0,0.0,0.0,0.10697376726314888,0.0,-0.34345422271879267,-0.2993210000381827,-0.3962284827822066,0.21029352279185481,0.9021831462510441,-0.09765388329768791
10734,5.0,299.98096,3081.2454,0.0,0.0,0.0,0.0,0.10698373407273269,0.0,-0.30101553924042074,-0.26066346195798074,-0.3749426515714586,0.21565754723124278,0.8741464551890381,-0.08398804544997472
10735,5.0,300.38629,2550.9012,0.0,0.0,0.0,0.0,0.10699370088231652,0.0,-0.23375309970713476,-0.21787058677465276,-0.32378659244774866,0.23662967621103076,0.8996122369048151,-0.1111432109514809
10736,5.0,300.97177,2476.6998,0.0,0.0,0.0,0.0,0.10700366769190034,0.0,-0.2387081764061628,-0.2117234618629788,-0.3024232374718497,0.22756676201659076,0.9098367207488931,-0.06854480987309604
10737,5.0,299.89547000000005,2645.5029999999997,0.0,0.0,0.0,0.0,0.10701363450148416,0.0,-0.23654953826062175,-0.21705362348402482,-0.3505636819129416,0.22020484142752578,0.9398326018067561,-0.08356721228594172
10738,5.0,298.65628,2919.4695,0.0,0.0,0.0,0.0,0.10702360131106799,0.0,-0.27608296012476674,-0.21903869188743577,-0.3923241667018806,0.1973837640627608,0.9218493377069461,-0.04394968053099576
10739,5.0,299.40052000000003,2791.6952,0.0,0.0,0.0,0.0,0.10703356812065179,0.0,-0.25415674471831773,-0.24123438115797974,-0.35321451642705864,0.19759868454147184,0.9297960758562281,-0.0960727693381441
10740,5.0,298.98781,2536.326,0.0,0.0,0.0,0.0,0.10704353493023562,0.0,-0.2007294550979548,-0.2131316971169608,-0.35711861972486364,0.18503518376905081,0.9062860796159721,-0.08406444552076482
10741,5.0,299.62656,2759.3979999999997,0.0,0.0,0.0,0.0,0.10705350173981945,0.0,-0.23956446393317177,-0.24287844024023578,-0.35634520592353364,0.2071217662688268,0.9182790496545861,-0.1054113260632879
10742,5.0,299.41058,3207.0319,0.0,0.0,0.0,0.0,0.10706346854940327,0.0,-0.2699353691180468,-0.2885000867877417,-0.4164221722401686,0.22453193611207678,0.9149054841091411,-0.07187639140064753
10743,5.0,299.58355,3032.6236,0.0,0.0,0.0,0.0,0.10707343535898708,0.0,-0.2798273549418097,-0.24643562696880275,-0.3955788780105956,0.2077814934089368,0.9327427388695412,-0.08248510981514652
10744,5.0,300.12855,2419.9254,0.0,0.0,0.0,0.0,0.1070834021685709,0.0,-0.19138039907527482,-0.22959882495963976,-0.3146176821603477,0.2106493458294718,0.9185474292085732,-0.07816695503622784
10745,5.0,300.42683,2205.4147,0.0,0.0,0.0,0.0,0.10709336897815473,0.0,-0.19398246586207882,-0.18428409186742384,-0.29212444186543773,0.20363536519224582,0.9109578009245352,-0.1181674355472179
10746,5.0,299.7826,2895.1242,0.0,0.0,0.0,0.0,0.10710333578773855,0.0,-0.26814554387640477,-0.24386910499550674,-0.36803079641181163,0.2198106466086218,0.8961078405064581,-0.09476725535279991
10747,5.0,300.06307999999996,3165.9899,0.0,0.0,0.0,0.0,0.10711330259732237,0.0,-0.3171628752190387,-0.28149266187866273,-0.36372635799949665,0.2166335705225688,0.8984914505717021,-0.12282993627987089
10748,5.0,300.32661,2778.2025,0.0,0.0,0.0,0.0,0.1071232694069062,0.0,-0.26305289821129973,-0.21140274794132682,-0.3700485421309476,0.2319441341711038,0.9037536332435391,-0.07997900997181372
10749,5.0,300.91477000000003,2533.962,0.0,0.0,0.0,0.0,0.10713323621649,0.0,-0.1970120026010708,-0.2197590519135298,-0.3534901204542587,0.20231480646941682,0.9312073204630072,-0.09344985087753223
10750,5.0,300.58265,2691.8364,0.0,0.0,0.0,0.0,0.10714320302607383,0.0,-0.2524489927347758,-0.1970256308149158,-0.36877642689539963,0.22775359520252975,0.9106373808454122,-0.05708818148341485
10751,5.0,300.37292,3310.9439,0.0,0.0,0.0,0.0,0.10715316983565766,0.0,-0.2999104988138617,-0.26184669489475676,-0.44468707762219756,0.19437969029878183,0.934540670111983,-0.05951316356349194
10752,5.0,299.52912000000003,3253.8363,0.0,0.0,0.0,0.0,0.10716313664524148,0.0,-0.2956253526834507,-0.2748664317897047,-0.4185931923019316,0.18400959228283284,0.9182613279103371,-0.05569051037497545
10753,5.0,300.1489,2723.8117,0.0,0.0,0.0,0.0,0.1071731034548253,0.0,-0.2301981725262908,-0.23589831228885078,-0.3618742685392096,0.2036681337004798,0.9104504159369601,-0.07900812183199453
10754,5.0,300.14499,2598.515,0.0,0.0,0.0,0.0,0.10718307026440911,0.0,-0.22878342207416577,-0.2234378286540968,-0.3376624142196857,0.1972218568292818,0.8995928027678972,-0.06926896249431433
10755,5.0,299.84378,2940.1174,0.0,0.0,0.0,0.0,0.10719303707399294,0.0,-0.2743170881154887,-0.25461466283601075,-0.36479052391702166,0.22898711574176878,0.9133588591565012,-0.09243160038828872
10756,5.0,298.96077,3020.1563,0.0,0.0,0.0,0.0,0.10720300388357676,0.0,-0.3111864829492147,-0.2231127780220168,-0.38375285105845763,0.23074581394033877,0.9059485052126561,-0.07968493439529073
10757,5.0,300.94656000000003,2725.0426,0.0,0.0,0.0,0.0,0.10721297069316058,0.0,-0.24702275473924773,-0.2390122426286718,-0.34230990871835765,0.22134891224793682,0.9173210520825392,-0.10577448503162891
10758,5.0,300.98327,2383.9807,0.0,0.0,0.0,0.0,0.1072229375027444,0.0,-0.18869975474321582,-0.21454887936932582,-0.3214219808218797,0.2276609942758908,0.8891216837169781,-0.11661905767190488
10759,5.0,301.70125,2707.9325,0.0,0.0,0.0,0.0,0.10723290431232821,0.0,-0.2380027719515448,-0.2147170180909198,-0.37042406275050865,0.2137918599546138,0.9144276758919851,-0.08972092534976592
10760,5.0,301.11182,3239.8339,0.0,0.0,0.0,0.0,0.10724287112191204,0.0,-0.2721230166139508,-0.2861025445336227,-0.4266030356674416,0.22400565401013678,0.8980031957460152,-0.09617806628853609
10761,5.0,299.86469,3039.8393,0.0,0.0,0.0,0.0,0.10725283793149587,0.0,-0.26176275725647274,-0.24878516143318377,-0.4134873237230216,0.20122069901143683,0.8984225698299041,-0.06409087755427714
10762,5.0,300.05967000000004,2727.7481,0.0,0.0,0.0,0.0,0.10726280474107969,0.0,-0.24759278898050577,-0.22569806538716478,-0.35587647642727366,0.2017404051202278,0.9245393647349311,-0.05890653883462274
10763,5.0,300.18702,2924.3386,0.0,0.0,0.0,0.0,0.1072727715506635,0.0,-0.26238893568577176,-0.24672615616997579,-0.3798108218094096,0.1959410377753748,0.9316974498013793,-0.05593546257340035
10764,5.0,300.10666000000003,3172.6444,0.0,0.0,0.0,0.0,0.10728273836024732,0.0,-0.3034312895988367,-0.25208069658842774,-0.4088927006145676,0.21526037345704477,0.9312278894400372,-0.06363142740243294
10765,5.0,299.92931,3161.7113,0.0,0.0,0.0,0.0,0.10729270516983115,0.0,-0.29441073939107776,-0.2655094622837438,-0.40116107546151564,0.1849565352962888,0.9343954207101481,-0.07348925757857502
10766,5.0,299.26988,2784.4441,0.0,0.0,0.0,0.0,0.10730267197941497,0.0,-0.2574196836178448,-0.2266131619499778,-0.36236862313049867,0.2180060684455238,0.8873529847399212,-0.07319245331953272
10767,5.0,299.88461,2372.7551,0.0,0.0,0.0,0.0,0.10731263878899878,0.0,-0.22481034684205378,-0.18045518185953982,-0.3159927740035587,0.2063736127924898,0.9016566716315852,-0.10171070365056491
10768,5.0,300.24395,2611.4102,0.0,0.0,0.0,0.0,0.10732260559858262,0.0,-0.25608064321319174,-0.2017077278045028,-0.33601512286961066,0.2226332371471898,0.8809576439512501,-0.07740372946465333
10769,5.0,300.31027,3011.2125,0.0,0.0,0.0,0.0,0.10733257240816642,0.0,-0.2882379691193727,-0.22103011336897377,-0.40606531740302665,0.2323867522122868,0.9086017107320072,-0.08661215751920441
10770,5.0,300.62755,2944.074,0.0,0.0,0.0,0.0,0.10734253921775025,0.0,-0.25369409472265775,-0.2477114810972198,-0.39351941678484265,0.22281621998274878,0.92246371177258,-0.07153351567280834
10771,5.0,299.65695,2595.1820000000002,0.0,0.0,0.0,0.0,0.10735250602733408,0.0,-0.1978508723588608,-0.21564394941490078,-0.3753757247966997,0.22232851231211578,0.928048310626237,-0.08227910087106502
10772,5.0,299.48286,2671.5052,0.0,0.0,0.0,0.0,0.1073624728369179,0.0,-0.20941001936715978,-0.22880426462872278,-0.3738565893192726,0.2151599198421308,0.8924451237799761,-0.05981937990271314
10773,5.0,299.49683999999996,2856.2090000000003,0.0,0.0,0.0,0.0,0.10737243964650171,0.0,-0.2682962648287797,-0.2373767860397648,-0.36254316559272465,0.2276534962251508,0.9086562843823932,-0.08684449374063423
10774,5.0,298.77865,2817.6298,0.0,0.0,0.0,0.0,0.10738240645608553,0.0,-0.2563250897998167,-0.22391279977097278,-0.37625121341310364,0.2089483015615918,0.9269992218702001,-0.06971398801773493
10775,5.0,299.26482000000004,2597.9602,0.0,0.0,0.0,0.0,0.10739237326566936,0.0,-0.2327778566183858,-0.2237411146740288,-0.33319605844139066,0.1995929329907888,0.9571977630805641,-0.1006892989137601
10776,5.0,300.55187,2530.7123,0.0,0.0,0.0,0.0,0.10740234007525319,0.0,-0.2241704490064008,-0.20825836943600082,-0.3368445187389657,0.17655699594231883,0.946159892718711,-0.09211465373050852
10777,5.0,300.75182,2586.6454,0.0,0.0,0.0,0.0,0.107412306884837,0.0,-0.22165026296017779,-0.21178889755443678,-0.35283644241724565,0.1893040672353568,0.9243072595345241,-0.1066204171426159
10778,5.0,301.0623,2812.6955,0.0,0.0,0.0,0.0,0.10742227369442083,0.0,-0.24009534619056577,-0.23900381238783977,-0.3758900404149586,0.2107704900114278,0.9126521678742561,-0.09138492012773941
10779,5.0,300.1888,2956.3461,0.0,0.0,0.0,0.0,0.10743224050400463,0.0,-0.2785082958291287,-0.23372631950699177,-0.38642076896926064,0.23578074487974776,0.8954590564674281,-0.08283042646247663
10780,5.0,299.94485,2875.9027,0.0,0.0,0.0,0.0,0.10744220731358846,0.0,-0.27972239236395074,-0.2273489537750948,-0.36713127350303565,0.22454823930618575,0.8874457781840793,-0.07773019256737274
10781,5.0,299.65483,2875.4854,0.0,0.0,0.0,0.0,0.10745217412317229,0.0,-0.27482470615058674,-0.24238087364612976,-0.35687017080034367,0.2252175517922418,0.9117481157375331,-0.08634691093452661
10782,5.0,299.51034,3040.1657,0.0,0.0,0.0,0.0,0.1074621409327561,0.0,-0.3076916921618057,-0.23642609400093875,-0.38001666356722463,0.20430449529328382,0.9326266001430792,-0.06370467727866214
10783,5.0,299.54542000000004,2929.4056,0.0,0.0,0.0,0.0,0.10747210774233992,0.0,-0.23866316783672076,-0.26778903182871977,-0.3840139554767266,0.19840920356146383,0.9277931843835582,-0.08118349481618711
10784,5.0,300.22542000000004,2653.3814,0.0,0.0,0.0,0.0,0.10748207455192374,0.0,-0.2102409959066708,-0.23997577254626476,-0.35634492221350567,0.18776910479136782,0.9076804941385901,-0.05759232407066985
10785,5.0,301.21244,2586.4632,0.0,0.0,0.0,0.0,0.10749204136150757,0.0,-0.2208995054310838,-0.22105580939150976,-0.3442648937262997,0.1977798029968468,0.918519828275849,-0.07882190470211632
10786,5.0,300.07448,2752.8734,0.0,0.0,0.0,0.0,0.1075020081710914,0.0,-0.2641743330244768,-0.2234168442445258,-0.3492135869496977,0.19232362346086382,0.9382209667277001,-0.07917522805173663
10787,5.0,299.94717,2914.7909999999997,0.0,0.0,0.0,0.0,0.1075119749806752,0.0,-0.2654480086651787,-0.2372947938416728,-0.38328086902937664,0.2128869364228048,0.9455658444500832,-0.09258553536998092
10788,5.0,299.57372999999995,2961.4556,0.0,0.0,0.0,0.0,0.10752194179025903,0.0,-0.2986663492810737,-0.23680993340382075,-0.3647322620362716,0.19911585431370482,0.9353434377687101,-0.1072060858329169
10789,5.0,300.29419,2782.9005,0.0,0.0,0.0,0.0,0.10753190859984284,0.0,-0.2056930532303238,-0.23981984348837576,-0.4004193763883156,0.2127729052565508,0.9375486854188512,-0.09262252001188101
10790,5.0,300.33925,2687.373,0.0,0.0,0.0,0.0,0.10754187540942667,0.0,-0.22664622430074077,-0.2172688479377658,-0.37297920592518163,0.2014421853507958,0.9149728145782862,-0.1020212546737139
10791,5.0,300.2739,2938.8531,0.0,0.0,0.0,0.0,0.1075518422190105,0.0,-0.24212779416865277,-0.24867570002488076,-0.4025344853095606,0.24664273528924277,0.9107514829391732,-0.05760902040581765
10792,5.0,300.18815,2895.2036,0.0,0.0,0.0,0.0,0.10756180902859432,0.0,-0.25845427276495075,-0.24688399013805276,-0.3747313483956046,0.2164745510518748,0.9052278614765342,-0.08942411298472282
10793,5.0,300.27585,2681.9545,0.0,0.0,0.0,0.0,0.10757177583817813,0.0,-0.2280947463786988,-0.24749687472603973,-0.3396555683588947,0.2131620338249548,0.9091227847284331,-0.059574215935017355
10794,5.0,299.95074,2790.6315,0.0,0.0,0.0,0.0,0.10758174264776195,0.0,-0.2818643726778477,-0.2388891834040268,-0.3275287479820707,0.1919999103189158,0.9308679424745131,-0.10015242429527471
10795,5.0,299.3058,3180.4614,0.0,0.0,0.0,0.0,0.10759170945734578,0.0,-0.25430903620834777,-0.30091302872780373,-0.41155880480769164,0.2040886122269778,0.926374127618508,-0.06371431328711315
10796,5.0,299.74211,3106.2603,0.0,0.0,0.0,0.0,0.10760167626692961,0.0,-0.28133048106765673,-0.27228769002020276,-0.3906074069249496,0.2031784096621478,0.9019122031743042,-0.09429890481207731
10797,5.0,299.30685,2827.277,0.0,0.0,0.0,0.0,0.10761164307651341,0.0,-0.23508686107876675,-0.23253382546430176,-0.39180091421773966,0.20905566554218782,0.9069533656018282,-0.06389102917080364
10798,5.0,299.50694,2634.2379,0.0,0.0,0.0,0.0,0.10762160988609724,0.0,-0.2518239896755928,-0.1966483876701848,-0.3522701673338587,0.18916801814442982,0.9227133056697132,-0.08229695433782701
10799,5.0,299.99484,2586.1166,0.0,0.0,0.0,0.0,0.10763157669568105,0.0,-0.26620827048021073,-0.17449687610400083,-0.3454097244842857,0.2073928208030778,0.932049837921157,-0.08943969677126082
10800,5.0,300.70482999999996,2787.9437,0.0,0.0,0.0,0.0,0.10764154350526488,0.0,-0.27048318278461175,-0.21663170614238478,-0.36035038091881366,0.1971599877781758,0.9205753682237152,-0.08399881427203751
10801,5.0,300.64658,2852.0625,0.0,0.0,0.0,0.0,0.10765151031484871,0.0,-0.2277438173390648,-0.2309555871085418,-0.40825637955176763,0.2179899476364328,0.8928690068268101,-0.0937365570860779
10802,5.0,299.64761,2831.4891,0.0,0.0,0.0,0.0,0.10766147712443253,0.0,-0.24628409541634774,-0.22330509289099681,-0.3911128059423286,0.2098340645340098,0.9094958431502511,-0.04677912165348986
10803,5.0,299.59175,2920.0967,0.0,0.0,0.0,0.0,0.10767144393401634,0.0,-0.23330485812789675,-0.25942509808326375,-0.39490653590674063,0.23358530549057477,0.8890456595619751,-0.06332239422793373
10804,5.0,299.24422000000004,3172.0182,0.0,0.0,0.0,0.0,0.10768141074360016,0.0,-0.29139051442050473,-0.26741010668882276,-0.40541369626371665,0.22210796829534976,0.8851649116789752,-0.04627994095197455
10805,5.0,299.70285,3186.3867,0.0,0.0,0.0,0.0,0.10769137755318399,0.0,-0.3216921842260467,-0.25812423694237874,-0.38876557155567465,0.2136213704927878,0.916081016345157,-0.06747454317671894
10806,5.0,299.44371,2783.2414,0.0,0.0,0.0,0.0,0.10770134436276782,0.0,-0.26241565509090875,-0.24862251452713177,-0.33499770831169967,0.19368326324004984,0.92331058620616,-0.08831467606597992
10807,5.0,300.47307,2552.6043,0.0,0.0,0.0,0.0,0.10771131117235162,0.0,-0.2243410701907398,-0.2262355439027098,-0.32535134444467767,0.2042352700464518,0.9248807793561261,-0.1101193318579319
10808,5.0,300.40835,2600.4312,0.0,0.0,0.0,0.0,0.10772127798193545,0.0,-0.2163007583947228,-0.2119438944222338,-0.36222150934847963,0.18934429326432684,0.8906939438971483,-0.08426944324124652
10809,5.0,300.35264,2617.3918,0.0,0.0,0.0,0.0,0.10773124479151926,0.0,-0.2052606892801528,-0.22358153791577978,-0.3667795135983197,0.21639153547118178,0.8857146201232271,-0.09124948000012251
10810,5.0,299.7294,2760.1169,0.0,0.0,0.0,0.0,0.10774121160110309,0.0,-0.24507936131244976,-0.2044540915380478,-0.3894731544980076,0.19367576518930982,0.9201303487797952,-0.06202521625116224
10811,5.0,300.0727,2874.9578,0.0,0.0,0.0,0.0,0.10775117841068692,0.0,-0.27945085146965176,-0.2198470729497168,-0.3746174590843646,0.21524888320091082,0.9479695573973111,-0.06944028180797224
10812,5.0,302.01762,2711.3468,0.0,0.0,0.0,0.0,0.10776114522027073,0.0,-0.23782901982439678,-0.22043862862309882,-0.3659140764229077,0.19972591193391281,0.9450837299200021,-0.09438863824093331
10813,5.0,301.74416,2829.99,0.0,0.0,0.0,0.0,0.10777111202985455,0.0,-0.25498919047047375,-0.23274993144562978,-0.3725071934985977,0.22914342983469577,0.938075372820831,-0.09518537604631522
10814,5.0,301.8759,3226.0925,0.0,0.0,0.0,0.0,0.10778107883943837,0.0,-0.26750101548779476,-0.2860213832006127,-0.4271291556493656,0.2327557576337048,0.9262680808630421,-0.08571188885835482
10815,5.0,300.84684,2886.5826,0.0,0.0,0.0,0.0,0.1077910456490222,0.0,-0.24878409752057873,-0.2484080196134628,-0.38025691529843564,0.2323909166701978,0.8873244718821073,-0.05804811233665264
10816,5.0,302.01816,2563.9225,0.0,0.0,0.0,0.0,0.10780101245860603,0.0,-0.23453750727204978,-0.21525969457947777,-0.3295712170036467,0.20106205444327982,0.8988244248195641,-0.05076271138188955
10817,5.0,299.36343999999997,2760.3819,0.0,0.0,0.0,0.0,0.10781097926818983,0.0,-0.26589296731409273,-0.23833209849904677,-0.3348621050508167,0.20627922854567482,0.8847365399341982,-0.059488265982034744
10818,5.0,299.75962000000004,3053.2990000000004,0.0,0.0,0.0,0.0,0.10782094607777366,0.0,-0.3053903377396797,-0.24202646915865275,-0.38070983809313563,0.17693083456671382,0.9168302438666001,-0.08554916595854532
10819,5.0,298.91700000000003,2980.3334,0.0,0.0,0.0,0.0,0.10783091288735748,0.0,-0.3063509393644837,-0.22959119518638677,-0.3700048001241307,0.1906113827793788,0.928928470325602,-0.09260912383230892
10820,5.0,299.83037,2861.9816,0.0,0.0,0.0,0.0,0.1078408796969413,0.0,-0.2541403807292028,-0.2218791358927658,-0.39395142609747863,0.1985217655150728,0.9297293026746382,-0.09554382036194091
10821,5.0,299.67868,2720.0477,0.0,0.0,0.0,0.0,0.10785084650652513,0.0,-0.2144488107894498,-0.2173182438801408,-0.3950595062743376,0.22251076560760277,0.9263677137453751,-0.06623132786052315
10822,5.0,300.93748999999997,2659.7164,0.0,0.0,0.0,0.0,0.10786081331610894,0.0,-0.21954299659470677,-0.22738258354591376,-0.36156179234087066,0.22449113253054978,0.9517823668611061,-0.06951735670332894
10823,5.0,300.22314,2934.3876,0.0,0.0,0.0,0.0,0.10787078012569276,0.0,-0.24515313605223077,-0.25135689151199375,-0.39547052104490166,0.20340963333496778,0.9450447704536571,-0.06140569892802064
10824,5.0,300.63569,3029.0974,0.0,0.0,0.0,0.0,0.10788074693527658,0.0,-0.27338503987850277,-0.26345203769069175,-0.38393287520372466,0.19363341133512982,0.945372273150979,-0.092159697763704
10825,5.0,300.43269,2804.1936,0.0,0.0,0.0,0.0,0.10789071374486041,0.0,-0.23275513955114377,-0.2596064090561578,-0.36004329521100664,0.19568260833736983,0.9263788392314731,-0.09093454363054072
10826,5.0,299.27218999999997,2657.5881,0.0,0.0,0.0,0.0,0.10790068055444421,0.0,-0.2224469511163048,-0.24105025334980776,-0.3443432280915307,0.1907783157333538,0.9269398352818392,-0.13544697718757587
10827,5.0,299.47007,2878.8277,0.0,0.0,0.0,0.0,0.10791064736402804,0.0,-0.26175974790367573,-0.2368047759608118,-0.37652720247534166,0.21158247824406481,0.9099334354709381,-0.04640386245245466
10828,5.0,299.71932000000004,2765.08,0.0,0.0,0.0,0.0,0.10792061417361186,0.0,-0.2581482003072438,-0.2117280620184328,-0.37063900349422163,0.2121731523898598,0.907899883050242,-0.06497636289616773
10829,5.0,299.24332000000004,2448.0472,0.0,0.0,0.0,0.0,0.10793058098319569,0.0,-0.21114641593102879,-0.1995328472598588,-0.3334659477380267,0.2166643125306028,0.912528439904545,-0.035842881289916965
10830,5.0,299.44704,2701.6406,0.0,0.0,0.0,0.0,0.10794054779277949,0.0,-0.24583568158459276,-0.22228090982241777,-0.3531147112922086,0.21507029787078577,0.9398007553561131,-0.08311978130678371
10831,5.0,300.15308999999996,3106.3137,0.0,0.0,0.0,0.0,0.10795051460236332,0.0,-0.3018906732192897,-0.24441610806199177,-0.39793502899812966,0.2068754451695168,0.9203995288013612,-0.0921292810089521
10832,5.0,300.47197,3138.5935,0.0,0.0,0.0,0.0,0.10796048141194715,0.0,-0.2896403781852797,-0.2569210328461317,-0.4074926422888926,0.19863428693867782,0.9097322951935871,-0.1114794377321639
10833,5.0,300.18636000000004,3107.2485,0.0,0.0,0.0,0.0,0.10797044822153096,0.0,-0.2955897065449327,-0.26243599102041576,-0.3865002584396056,0.19669324425211182,0.9008447948564592,-0.08629984648063173
10834,5.0,300.33349,2875.0513,0.0,0.0,0.0,0.0,0.10798041503111479,0.0,-0.26649018705553373,-0.21726026570941878,-0.39019335240408565,0.2003643912194258,0.9031955452209602,-0.061417101031395936
10835,5.0,301.27013999999997,2618.9094,0.0,0.0,0.0,0.0,0.1079903818406986,0.0,-0.22313696430190377,-0.21224236750419082,-0.36070373162618663,0.20236799196716582,0.9211675622446601,-0.05393870227708544
10836,5.0,299.72641,2725.0368,0.0,0.0,0.0,0.0,0.10800034865028242,0.0,-0.2257072758305738,-0.23309796258997778,-0.36953790461055164,0.2042914344994948,0.9277959100263271,-0.06295996378641465
10837,5.0,298.86492999999996,2966.7322,0.0,0.0,0.0,0.0,0.10801031545986624,0.0,-0.25307057100862074,-0.25323679468752575,-0.39550515393331964,0.1954524587096558,0.9320684310604922,-0.07475163852041233
10838,5.0,299.02007000000003,2749.3903,0.0,0.0,0.0,0.0,0.10802028226945007,0.0,-0.21877126478854278,-0.2350348509511338,-0.38193989331703265,0.21712759074132482,0.9391714561165061,-0.08485421723170922
10839,5.0,299.49577,2594.9189,0.0,0.0,0.0,0.0,0.10803024907903387,0.0,-0.23631801061277177,-0.2229365231671218,-0.3295360065626717,0.21922124915795282,0.9147689182606631,-0.100496415611474
10840,5.0,299.59878,2901.8844,0.0,0.0,0.0,0.0,0.1080402158886177,0.0,-0.2365889435570108,-0.25487789507948977,-0.3906335791750326,0.2160602634834878,0.8967643657762521,-0.07964509644110902
10841,5.0,300.02212000000003,3030.1797,0.0,0.0,0.0,0.0,0.10805018269820153,0.0,-0.26693289628922573,-0.2645955816210508,-0.3895704873026136,0.1937792281570208,0.8785554002166672,-0.10507142118474191
10842,5.0,300.08232000000004,2839.3133,0.0,0.0,0.0,0.0,0.10806014950778534,0.0,-0.23678084299344976,-0.2550207228135858,-0.3712787898723636,0.20265419459041178,0.9073005658810942,-0.09859619879793721
10843,5.0,300.68723,2699.6197,0.0,0.0,0.0,0.0,0.10807011631736917,0.0,-0.26238192399507976,-0.2097017847334548,-0.34853326043505467,0.21043430376074881,0.9390479307968151,-0.11684325952153189
10844,5.0,301.26371,2785.5181,0.0,0.0,0.0,0.0,0.10808008312695298,0.0,-0.24761038913474276,-0.2256067816856558,-0.37351077719264364,0.23134166579414475,0.9125728506564282,-0.08770478461878832
10845,5.0,300.77414,2669.9857,0.0,0.0,0.0,0.0,0.10809004993653681,0.0,-0.24263745896895278,-0.2306203533129568,-0.33835116084265965,0.22740885712100678,0.9234873476861051,-0.09890988583014572
10846,5.0,299.99952,2838.9254,0.0,0.0,0.0,0.0,0.10810001674612063,0.0,-0.22752115562958977,-0.24120266642984978,-0.3942386014408206,0.2182242617220578,0.9158613639884792,-0.04228404023485986
10847,5.0,298.82111000000003,2857.4608,0.0,0.0,0.0,0.0,0.10810998355570445,0.0,-0.24030178576593977,-0.24865004453234876,-0.37964489197303364,0.2196401368817938,0.9185335071521991,-0.06365427315243764
10848,5.0,299.4296,2805.95,0.0,0.0,0.0,0.0,0.10811995036528828,0.0,-0.23620312831643378,-0.24436991398993277,-0.3723656829896317,0.19184538967866582,0.9122457127291421,-0.039405727020292464
10849,5.0,299.00223,2982.1323,0.0,0.0,0.0,0.0,0.10812991717487208,0.0,-0.27034773151124375,-0.2681790824547148,-0.3679669515230107,0.17815264193479685,0.91867496699866,-0.1029666271495149
10850,5.0,298.80925,3152.3457,0.0,0.0,0.0,0.0,0.10813988398445591,0.0,-0.2791396013039337,-0.26432609762445475,-0.4147686696669806,0.21895026555120878,0.9152046563336671,-0.08261437519665402
10851,5.0,300.24791,3010.8479,0.0,0.0,0.0,0.0,0.10814985079403974,0.0,-0.2777750472617627,-0.26246721938849776,-0.37498033434267763,0.20289485162166282,0.9398864661820721,-0.11751218697254989
10852,5.0,300.08538,2696.6328,0.0,0.0,0.0,0.0,0.10815981760362355,0.0,-0.2225982698862388,-0.2178374230988798,-0.37927335342636564,0.2303734850585928,0.906523028151857,-0.08689932576979573
10853,5.0,299.41785,2693.3304,0.0,0.0,0.0,0.0,0.10816978441320738,0.0,-0.24188774508746178,-0.2068893368283878,-0.36992811735656267,0.21081703872102178,0.9038084906039531,-0.08948203947968972
10854,5.0,300.09572000000003,2795.5831,0.0,0.0,0.0,0.0,0.10817975122279119,0.0,-0.24331004425283176,-0.2262212266787968,-0.3802561958908646,0.23510543395309977,0.9133626487118751,-0.06280043363767024
10855,5.0,300.61471,2779.7175,0.0,0.0,0.0,0.0,0.10818971803237502,0.0,-0.25754150667736775,-0.22751759912173877,-0.3599056046549176,0.2244420810932088,0.9331080053980901,-0.08407929166123002
10856,5.0,299.50246,2893.7646,0.0,0.0,0.0,0.0,0.10819968484195884,0.0,-0.25623610617603476,-0.25455278365240375,-0.36884329126949866,0.2136437937175008,0.9335308549298221,-0.08181173014318913
10857,5.0,300.05228999999997,2934.1955,0.0,0.0,0.0,0.0,0.10820965165154266,0.0,-0.2752668175667197,-0.2685520902140277,-0.34810325735761666,0.19014001883285883,0.9340687792754111,-0.08980867584817623
10858,5.0,299.65584,3010.0027,0.0,0.0,0.0,0.0,0.10821961846112649,0.0,-0.24002252390587878,-0.2927217527993877,-0.3822213944598146,0.21340281244621778,0.9216821615729471,-0.10010928618551732
10859,5.0,298.49251,3055.0878,0.0,0.0,0.0,0.0,0.10822958527071029,0.0,-0.2560522519453897,-0.2818102043275017,-0.3908079595172426,0.20976799049498882,0.9542037407575771,-0.07044232130886584
10860,5.0,298.84401,2896.1881,0.0,0.0,0.0,0.0,0.10823955208029412,0.0,-0.2540949769922218,-0.25511106419250174,-0.37116282339841866,0.2068247421345128,0.9103145796285541,-0.07406290000343914
10861,5.0,299.79663999999997,2557.1085,0.0,0.0,0.0,0.0,0.10824951888987795,0.0,-0.22528358530125878,-0.21544345761761377,-0.33657007994938065,0.19993591814963882,0.930418211417628,-0.08199861905788362
10862,5.0,300.21078,2534.9216,0.0,0.0,0.0,0.0,0.10825948569946177,0.0,-0.2335311675377318,-0.19220475909163282,-0.3448169427782827,0.2195776801456298,0.924663933702225,-0.1059679448732219
10863,5.0,300.33769,2898.7032,0.0,0.0,0.0,0.0,0.10826945250904559,0.0,-0.2693758118828227,-0.2323776430938878,-0.3793799372043847,0.21798607702105083,0.9496024403309641,-0.0956438484118129
10864,5.0,300.36617,2953.8595,0.0,0.0,0.0,0.0,0.1082794193186294,0.0,-0.27397989874721074,-0.2310490290327638,-0.3928706023483096,0.2039736792681348,0.919877522614843,-0.08792808974207682
10865,5.0,299.77709,3018.9345,0.0,0.0,0.0,0.0,0.10828938612821323,0.0,-0.2698709770741917,-0.24480869181323675,-0.4030010160531036,0.17584241144179483,0.9135097219638901,-0.07410812338190234
10866,5.0,300.67289,3156.1361,0.0,0.0,0.0,0.0,0.10829935293779705,0.0,-0.29109052146339776,-0.25437939629529177,-0.4139166580553936,0.21983164115069379,0.8813260515551092,-0.06044503346846035
10867,5.0,300.67748,3069.3901,0.0,0.0,0.0,0.0,0.10830931974738087,0.0,-0.2803003806184937,-0.27329488088460474,-0.37942268622610364,0.21404998541758877,0.9060547748831442,-0.06536460892373464
10868,5.0,299.99872999999997,2737.5681,0.0,0.0,0.0,0.0,0.1083192865569647,0.0,-0.24742341409378976,-0.22934164181925779,-0.35538728941149467,0.2404584747614038,0.9065540640024201,-0.06133474710301824
10869,5.0,299.74769,2771.522,0.0,0.0,0.0,0.0,0.1083292533665485,0.0,-0.2451705639539508,-0.24614060906968677,-0.3511623100720217,0.18431603964307683,0.9255106966782941,-0.08300172753763271
10870,5.0,299.78882000000004,2785.4392,0.0,0.0,0.0,0.0,0.10833922017613233,0.0,-0.23809049914520278,-0.23015910160243477,-0.37845436363553764,0.21337704549617478,0.9321337958244431,-0.08373064648732143
10871,5.0,299.98059,2541.3856,0.0,0.0,0.0,0.0,0.10834918698571616,0.0,-0.2110119779077608,-0.21444699707177078,-0.3470587991545367,0.18915504854314982,0.95112642927637,-0.0968832174306291
10872,5.0,299.74262000000004,2567.0915,0.0,0.0,0.0,0.0,0.10835915379529998,0.0,-0.2126067727701548,-0.21547532433325878,-0.35224962875433163,0.1949932031018308,0.9221992737614823,-0.07043909917354783
10873,5.0,300.0741,2750.0769,0.0,0.0,0.0,0.0,0.1083691206048838,0.0,-0.26097349622357874,-0.2020690831876658,-0.37291212876856167,0.17261111634289084,0.9171807473411921,-0.08408792961833252
10874,5.0,298.8608,2948.0386,0.0,0.0,0.0,0.0,0.10837908741446761,0.0,-0.2505400396788768,-0.25866707555095275,-0.38692299651382667,0.1999685042728548,0.9159155222063241,-0.1045421803925099
10875,5.0,299.48757,3133.1779,0.0,0.0,0.0,0.0,0.10838905422405144,0.0,-0.27874548754503775,-0.27371603828866975,-0.39994631018162763,0.21688890954776877,0.942112039629219,-0.1106014362555119
10876,5.0,299.69211,3088.7740000000003,0.0,0.0,0.0,0.0,0.10839902103363526,0.0,-0.2648647312451137,-0.27026034882261973,-0.4037850892454856,0.23040831046452978,0.9156178799894491,-0.09335057668573461
10877,5.0,299.67562999999996,2640.1769,0.0,0.0,0.0,0.0,0.10840898784321908,0.0,-0.23398370529739376,-0.22782554609213077,-0.3407386009932817,0.22337812795820478,0.9100780363927092,-0.08409948168272263
10878,5.0,300.40554,2769.5683,0.0,0.0,0.0,0.0,0.1084189546528029,0.0,-0.25102792973452775,-0.2160613071310908,-0.3747903499489276,0.22761833644668078,0.9001514683430332,-0.05799007033117435
10879,5.0,300.03342999999995,2933.8112,0.0,0.0,0.0,0.0,0.10842892146238671,0.0,-0.2788954384273368,-0.2424619133891278,-0.37044797545286867,0.2109552460346618,0.9215266074175951,-0.06009855158351524
10880,5.0,300.24232,2755.6466,0.0,0.0,0.0,0.0,0.10843888827197054,0.0,-0.23920891447308176,-0.22985592704001379,-0.36858292652380265,0.21562975378099977,0.8984485191649652,-0.060324399964554735
10881,5.0,301.08985,2732.4283,0.0,0.0,0.0,0.0,0.10844885508155437,0.0,-0.25241706522412477,-0.2157849127688128,-0.36238799647241066,0.18107923246362884,0.9079321550659272,-0.09687363107143301
10882,5.0,300.74066,2908.4414,0.0,0.0,0.0,0.0,0.10845882189113819,0.0,-0.24323623911554776,-0.2403494693156458,-0.4005078432545466,0.20665261120752482,0.9068650912531162,-0.07875866978987553
10883,5.0,299.59404,3000.9456,0.0,0.0,0.0,0.0,0.108468788700722,0.0,-0.28641467622692773,-0.23976426672039078,-0.38603360610605064,0.18780771975267882,0.9279326886573261,-0.1016343349905279
10884,5.0,299.97827,2913.0631,0.0,0.0,0.0,0.0,0.10847875551030582,0.0,-0.27443431101955773,-0.2238595332132158,-0.3872045888491176,0.22110303697867079,0.9177580769831701,-0.06874234905959163
10885,5.0,299.47796,2878.2183,0.0,0.0,0.0,0.0,0.10848872231988965,0.0,-0.28123625894085774,-0.22639526251597278,-0.36727497263221764,0.2044588132835138,0.932802561155445,-0.08116480237834232
10886,5.0,300.01002,2796.1086,0.0,0.0,0.0,0.0,0.10849868912947347,0.0,-0.24603198865896675,-0.20927242000357976,-0.3946427970382116,0.23715278684015778,0.9316830515174581,-0.06517226771025203
10887,5.0,300.0221,2766.725,0.0,0.0,0.0,0.0,0.10850865593905729,0.0,-0.22834515087591176,-0.23623479238205877,-0.3764353918837806,0.22115982964677577,0.9465818911203591,-0.09481172385993861
10888,5.0,299.66586,2992.8839,0.0,0.0,0.0,0.0,0.10851862274864112,0.0,-0.2437798072641938,-0.2528361758629878,-0.4131459901618346,0.2221664530911218,0.9349965110669711,-0.07887359058971732
10889,5.0,299.67766,3054.4826,0.0,0.0,0.0,0.0,0.10852858955822492,0.0,-0.3035916566921637,-0.22956471896127376,-0.3953300744485406,0.22624588918623076,0.9265574448266001,-0.07388063758870123
10890,5.0,300.30714,2808.8083,0.0,0.0,0.0,0.0,0.10853855636780875,0.0,-0.24688943129108976,-0.2594727816329698,-0.3474453743326887,0.2151679853129268,0.9026050027976782,-0.1002756507061862
10891,5.0,300.29991,2609.0334,0.0,0.0,0.0,0.0,0.10854852317739258,0.0,-0.22986211799812478,-0.22607922980978282,-0.33713965822809366,0.2242059127599008,0.9146560118020202,-0.08848556880134573
10892,5.0,300.49471,2899.4295,0.0,0.0,0.0,0.0,0.1085584899869764,0.0,-0.2184710793139168,-0.26599252926891875,-0.3968905809275506,0.19981455105266083,0.9000203031175882,-0.09132300041412841
10893,5.0,300.08541,2888.3497,0.0,0.0,0.0,0.0,0.10856845679656021,0.0,-0.23145798690562477,-0.25655678970018375,-0.3899714101021816,0.21518149193675978,0.9223272371166111,-0.09694034852426751
10894,5.0,301.21119,2879.9427,0.0,0.0,0.0,0.0,0.10857842360614403,0.0,-0.23464408091756778,-0.23517235912220477,-0.4056142184585066,0.20726723858568383,0.9311886665286662,-0.091737061014493
10895,5.0,301.11857000000003,2952.8499,0.0,0.0,0.0,0.0,0.10858839041572786,0.0,-0.2857500550888347,-0.24450309558307676,-0.36733947613358364,0.2215722933649828,0.958788778520085,-0.09106222124914151
10896,5.0,299.91314,2778.7297,0.0,0.0,0.0,0.0,0.10859835722531168,0.0,-0.26506393621477375,-0.21489322228330981,-0.36470729555380765,0.21068432322292377,0.9512351104820961,-0.0867281310859001
10897,5.0,299.46254,2906.5283,0.0,0.0,0.0,0.0,0.1086083240348955,0.0,-0.29240682453580674,-0.22806068091033677,-0.36304452174220464,0.2210421102501578,0.9269563512584691,-0.061901740580726144
10898,5.0,300.27418,3114.6338,0.0,0.0,0.0,0.0,0.10861829084447933,0.0,-0.27082557012590275,-0.2673888993642297,-0.40855643330388064,0.22530339434071375,0.9145198208560792,-0.07552400259463873
10899,5.0,299.7158,2850.1047,0.0,0.0,0.0,0.0,0.10862825765406313,0.0,-0.24492062555178373,-0.23809342743799178,-0.3833466188283656,0.2240016010097368,0.9051820321745111,-0.06531679871776613
10900,5.0,300.25291,2620.4939,0.0,0.0,0.0,0.0,0.10863822446364696,0.0,-0.2186020621543438,-0.2136741506904968,-0.3642884990224757,0.23849611329273376,0.9321214240407221,-0.08013369982483043
10901,5.0,300.10465,2869.7123,0.0,0.0,0.0,0.0,0.10864819127323079,0.0,-0.28709546883661674,-0.24547655535164975,-0.3397488481631007,0.2018703037830478,0.9143916143209261,-0.07917180529289883
10902,5.0,298.91818,2906.1719,0.0,0.0,0.0,0.0,0.10865815808281461,0.0,-0.3019990099199817,-0.22618997804571278,-0.3552146923894607,0.19583995594539882,0.9190898017221011,-0.08099096716468612
10903,5.0,299.68563,2896.5712,0.0,0.0,0.0,0.0,0.10866812489239842,0.0,-0.2781914930528628,-0.25499565500611177,-0.34729814909315865,0.18031331671303885,0.9074526243236011,-0.0922117848983446
10904,5.0,299.84923,2859.9197,0.0,0.0,0.0,0.0,0.10867809170198224,0.0,-0.21868094367462879,-0.24576472368008978,-0.40489850925037163,0.20756357370992978,0.9352441493914111,-0.08627304196248632
10905,5.0,299.91091,2839.6308,0.0,0.0,0.0,0.0,0.10868805851156607,0.0,-0.23843619981432077,-0.24850559559809277,-0.37623504194150764,0.20149336461334683,0.92988607273011,-0.07110459778622744
10906,5.0,301.20659,2973.028,0.0,0.0,0.0,0.0,0.10869802532114989,0.0,-0.25926867253282576,-0.24963081996664377,-0.39482680325637165,0.2118248071379808,0.9179733824969191,-0.0912108255220576
10907,5.0,300.81022,2898.9377,0.0,0.0,0.0,0.0,0.1087079921307337,0.0,-0.2826835853836977,-0.22853440572958977,-0.3699866832123427,0.2314952137142988,0.9314227779642711,-0.07633692605711802
10908,5.0,300.39297,2653.2531,0.0,0.0,0.0,0.0,0.10871795894031754,0.0,-0.22733655159387078,-0.23709658185711077,-0.34208955721911066,0.2289024282984108,0.954898992446193,-0.09079227825025023
10909,5.0,300.58766,2718.192,0.0,0.0,0.0,0.0,0.10872792574990134,0.0,-0.24049843734534776,-0.2307543252411788,-0.3550097220267317,0.2213554983735868,0.9223584958821961,-0.08675706545575572
10910,5.0,299.65626000000003,2887.6471,0.0,0.0,0.0,0.0,0.10873789255948517,0.0,-0.2169346983197878,-0.24403335283671676,-0.41680454243040566,0.17119953736357885,0.9292597119157932,-0.08596338665242573
10911,5.0,298.67445,2953.5085,0.0,0.0,0.0,0.0,0.108747859369069,0.0,-0.27507781602556675,-0.24187705529890677,-0.38083796356828065,0.1894648193637218,0.8844524550036612,-0.07278634166620264
10912,5.0,300.21058999999997,2914.4137,0.0,0.0,0.0,0.0,0.10875782617865282,0.0,-0.23997402975609278,-0.2507900388760498,-0.3951449333902686,0.20403981410216182,0.9253763194500322,-0.06640437780535184
10913,5.0,299.13647000000003,2767.9144,0.0,0.0,0.0,0.0,0.10876779298823663,0.0,-0.2753211176395787,-0.21954199347710776,-0.34651374152824366,0.20702760493703382,0.9184777885292,-0.06490230444635874
10914,5.0,301.04489,3125.1844,0.0,0.0,0.0,0.0,0.10877775979782045,0.0,-0.2938570995364377,-0.2477664499151448,-0.4083544824264496,0.20787297976046581,0.933402405214645,-0.06530766122836434
10915,5.0,300.58065,3176.2563,0.0,0.0,0.0,0.0,0.10878772660740428,0.0,-0.3264472250903327,-0.23860439933092076,-0.4004509695264336,0.2216275762904388,0.9114259933982422,-0.06088054457344194
10916,5.0,300.32637,2943.4088,0.0,0.0,0.0,0.0,0.10879769341698811,0.0,-0.24914394316109276,-0.24340287822699377,-0.40217597715917863,0.2339059484847198,0.9350302421628001,-0.062441247622971346
10917,5.0,301.0727,2877.3032,0.0,0.0,0.0,0.0,0.10880766022657191,0.0,-0.2604717550390608,-0.2321396610429008,-0.3820169205896346,0.24033621600433774,0.8897265534966741,-0.06154060912583524
10918,5.0,301.30453,2814.8203,0.0,0.0,0.0,0.0,0.10881762703615575,0.0,-0.23785332769429576,-0.22111336199718978,-0.3966683954456226,0.1932526927425558,0.9013463131259551,-0.07344370996007983
10919,5.0,299.12076,2816.8636,0.0,0.0,0.0,0.0,0.10882759384573955,0.0,-0.29146811924566374,-0.23494132796690378,-0.3298467399708387,0.1980968286881348,0.903137242810206,-0.10650355900858291
10920,5.0,299.50431000000003,2864.5767,0.0,0.0,0.0,0.0,0.10883756065532338,0.0,-0.24466087888864876,-0.23101624025952777,-0.3950826590391226,0.18851565733254683,0.9522973917544352,-0.09933741657733972
10921,5.0,299.92561,2715.4174,0.0,0.0,0.0,0.0,0.10884752746490721,0.0,-0.2616417346645288,-0.2309426377722638,-0.33283472332322966,0.2145389900483498,0.981288534013138,-0.1127943627844369
10922,5.0,299.92494,2671.173,0.0,0.0,0.0,0.0,0.10885749427449103,0.0,-0.1954345545803888,-0.24408014472633477,-0.3724552036359666,0.17014418672192383,0.96420161121679,-0.0953492885017421
10923,5.0,300.83516000000003,2887.9884,0.0,0.0,0.0,0.0,0.10886746108407484,0.0,-0.27515873417855274,-0.25814889944981273,-0.3445687370337867,0.2220924858338218,0.9173632640817051,-0.09621252388468682
10924,5.0,299.65966000000003,2876.3197,0.0,0.0,0.0,0.0,0.10887742789365866,0.0,-0.2224145068481028,-0.25170562179891076,-0.4002092384500766,0.21187177128011578,0.9142341147253822,-0.06709752598676023
10925,5.0,299.20095,2871.0569,0.0,0.0,0.0,0.0,0.10888739470324249,0.0,-0.2798841881399187,-0.2279746053143418,-0.3648708239874467,0.26493512172956074,0.8826857521293012,-0.06809008653296834
10926,5.0,298.69136000000003,2988.2636,0.0,0.0,0.0,0.0,0.10889736151282632,0.0,-0.24182996956675976,-0.25169048384241677,-0.4148370640487306,0.21199764734003881,0.9194810986457191,-0.08820507381591301
10927,5.0,298.46047999999996,2951.3367,0.0,0.0,0.0,0.0,0.10890732832241012,0.0,-0.2998037326508247,-0.23448294375416476,-0.3628459652526087,0.19972265940109182,0.9163484637090522,-0.08972218785939051
10928,5.0,298.62843,2801.2701,0.0,0.0,0.0,0.0,0.10891729513199395,0.0,-0.25342307058590974,-0.2227539962941078,-0.3753391059380856,0.20273236683562681,0.9422011448430131,-0.10333480170585091
10929,5.0,298.65871,2672.3225,0.0,0.0,0.0,0.0,0.10892726194157776,0.0,-0.27457389635333374,-0.19310546750302582,-0.3446399482508147,0.21970856166104677,0.945330456319352,-0.08085565065358143
10930,5.0,299.28463999999997,2755.8249,0.0,0.0,0.0,0.0,0.10893722875116159,0.0,-0.23233443810962376,-0.23170095414710376,-0.37366656439551865,0.21305042432643978,0.9526838453425752,-0.0975322223581809
10931,5.0,300.03857,2888.3644,0.0,0.0,0.0,0.0,0.1089471955607454,0.0,-0.27903760754886775,-0.2170165993253708,-0.3819364381341916,0.2191564518140578,0.914161262043192,-0.06401741388227684
10932,5.0,300.23349,3002.0934,0.0,0.0,0.0,0.0,0.10895716237032924,0.0,-0.25120688996718976,-0.2506498151947108,-0.41070471603339964,0.21970742682093478,0.94313593898777,-0.10511315695636089
10933,5.0,300.59711,3019.5169,0.0,0.0,0.0,0.0,0.10896712917991305,0.0,-0.28962585831134674,-0.2336647240334128,-0.39456714778574564,0.22774736371441479,0.9163446640211771,-0.05389578606909994
10934,5.0,300.84841,3058.2333,0.0,0.0,0.0,0.0,0.10897709598949687,0.0,-0.2594692555226218,-0.26650640918963475,-0.4036509045347426,0.1988624708611978,0.936785353456016,-0.0892868966296806
10935,5.0,299.41447,3007.2846,0.0,0.0,0.0,0.0,0.1089870627990807,0.0,-0.3014225618055907,-0.24366855240321375,-0.36904831229473267,0.1956420074058628,0.9128634406526072,-0.06117628897287964
10936,5.0,300.4726,2860.8918,0.0,0.0,0.0,0.0,0.1089970296086645,0.0,-0.25507037206848576,-0.20509747495404482,-0.40947181357672163,0.19522964501266582,0.931415411636044,-0.09116800455958152
10937,5.0,300.24629,2753.7864,0.0,0.0,0.0,0.0,0.10900699641824833,0.0,-0.23909525820936475,-0.2343822266942248,-0.36360480851750066,0.21543793540456882,0.9440171727322412,-0.06778959708331234
10938,5.0,299.16946,2528.7954,0.0,0.0,0.0,0.0,0.10901696322783215,0.0,-0.18436711758061783,-0.20809752611512683,-0.37622600375061566,0.20657126748949678,0.9394204927260842,-0.12653650647068088
10939,5.0,298.39596,2641.975,0.0,0.0,0.0,0.0,0.10902693003741597,0.0,-0.24389449704301278,-0.23188161663993376,-0.3273183162013027,0.22068056234947578,0.940190897174617,-0.1134698358311009
10940,5.0,299.33412999999996,2695.1813,0.0,0.0,0.0,0.0,0.10903689684699978,0.0,-0.23262424790322578,-0.2212002177957618,-0.36544337108895264,0.19908714893837182,0.9290594531660292,-0.14558534490565486
10941,5.0,299.17626,2764.4891,0.0,0.0,0.0,0.0,0.10904686365658361,0.0,-0.2732173875169568,-0.23057305479828877,-0.33654520465942567,0.2040399052946708,0.9033814664818092,-0.06662723811184644
10942,5.0,299.94617,2891.9441,0.0,0.0,0.0,0.0,0.10905683046616742,0.0,-0.2310198474298838,-0.25672359093164576,-0.3913353663267936,0.2243692081460168,0.9360424688801992,-0.0937313844443174
10943,5.0,299.6744,3174.3647,0.0,0.0,0.0,0.0,0.10906679727575125,0.0,-0.2709831203839517,-0.2521562951783888,-0.44178819948360054,0.21224425214937678,0.9261812047994682,-0.02499441371625658
10944,5.0,299.58982000000003,3233.0482,0.0,0.0,0.0,0.0,0.10907676408533508,0.0,-0.24777120205811376,-0.27141107669618775,-0.46358365496464454,0.20829361027447882,0.9241423328157472,-0.07207784781202974
10945,5.0,300.22028,3120.5856,0.0,0.0,0.0,0.0,0.1090867308949189,0.0,-0.29698447570508574,-0.23483634512404278,-0.4167592704159376,0.2015664098130558,0.9082046078853161,-0.023563069267243875
10946,5.0,300.42953,2885.4043,0.0,0.0,0.0,0.0,0.10909669770450271,0.0,-0.2792078436981687,-0.2257494574322368,-0.3721335777892247,0.2147780157469398,0.9460989963877012,-0.08073301294097801
10947,5.0,300.4017,2741.7936,0.0,0.0,0.0,0.0,0.10910666451408653,0.0,-0.3060890040811327,-0.20139509961864882,-0.32595268811402567,0.2083044216530458,0.934362520479401,-0.06830346991127763
10948,5.0,300.031,2774.1932,0.0,0.0,0.0,0.0,0.10911663132367036,0.0,-0.2390577375581618,-0.23288945598439978,-0.37133827778573464,0.1974708833063588,0.9307267562055792,-0.1112853902055129
10949,5.0,299.79917,2802.8628,0.0,0.0,0.0,0.0,0.10912659813325416,0.0,-0.23844671735035874,-0.2284147611577818,-0.3851388252077426,0.2177538097006278,0.9013054284844202,-0.08877899792430492
10950,5.0,300.04208,2836.48,0.0,0.0,0.0,0.0,0.10913656494283801,0.0,-0.2091278697443138,-0.25899350420316875,-0.39409770901441565,0.21772515498779982,0.9011444433085322,-0.10684035320932189
10951,5.0,299.84002999999996,2800.5526,0.0,0.0,0.0,0.0,0.10914653175242182,0.0,-0.25114044102563177,-0.2275320379356638,-0.37262559177278265,0.2256444745893758,0.9085132843957802,-0.09385500095651741
10952,5.0,299.54476,2791.844,0.0,0.0,0.0,0.0,0.10915649856200563,0.0,-0.2367711563224938,-0.24152708884686777,-0.37035262861845863,0.20201844094766783,0.894105192213812,-0.09142062503476321
10953,5.0,299.35593,2992.0337,0.0,0.0,0.0,0.0,0.10916646537158946,0.0,-0.3013523537061617,-0.23909658556699576,-0.36905459444535266,0.21062140039171381,0.9224206891733342,-0.06625500346235974
10954,5.0,300.10115,3042.8925,0.0,0.0,0.0,0.0,0.10917643218117327,0.0,-0.24740242968421874,-0.2542751936550077,-0.4232856953700456,0.2011955298789528,0.940196135677634,-0.07022632982479914
10955,5.0,300.44428999999997,2997.1848,0.0,0.0,0.0,0.0,0.1091863989907571,0.0,-0.2655520390529458,-0.27532333665729775,-0.3701939739178006,0.2039505265033498,0.9549850781746891,-0.07189453060393773
10956,5.0,300.241,2821.458,0.0,0.0,0.0,0.0,0.10919636580034092,0.0,-0.2070354373603068,-0.24441057571644578,-0.4062067671169866,0.17405763218565085,0.9321727755557901,-0.07866515187189602
10957,5.0,300.67702,2773.3545,0.0,0.0,0.0,0.0,0.10920633260992474,0.0,-0.26904343545251974,-0.23393364060995278,-0.34005343114316067,0.2052231483639478,0.9128891569401452,-0.07157531122618323
10958,5.0,300.51195,2923.579,0.0,0.0,0.0,0.0,0.10921629941950857,0.0,-0.25584936887786675,-0.2656658777016807,-0.3671797575203206,0.25403523576632575,0.919140464227101,-0.0995745363524916
10959,5.0,300.29725,3039.1409999999996,0.0,0.0,0.0,0.0,0.10922626622909237,0.0,-0.3412012205914387,-0.2234682768196018,-0.3591534792381887,0.25063987521122977,0.9313966158466891,-0.07853812273335922
10960,5.0,300.79396,2938.7929,0.0,0.0,0.0,0.0,0.1092362330386762,0.0,-0.2566406766759628,-0.26269799723127374,-0.37398098603404967,0.22897661847073278,0.902199074542616,-0.1201418952220819
10961,5.0,300.51516000000004,2797.2813,0.0,0.0,0.0,0.0,0.10924619984826003,0.0,-0.2756807302325697,-0.19769639224861482,-0.3769265547372546,0.1968728630973388,0.9293347532181991,-0.05696355476086514
10962,5.0,298.84533999999996,2963.0772,0.0,0.0,0.0,0.0,0.10925616665784384,0.0,-0.23988292843960177,-0.24704206728615377,-0.4137764951690606,0.22117837212360578,0.9590061713290401,-0.07198609902872484
10963,5.0,299.06759,3085.218,0.0,0.0,0.0,0.0,0.10926613346742767,0.0,-0.2991694178232227,-0.25210711201853475,-0.3865526941322806,0.2167081761274318,0.952555932649951,-0.051621387139384245
10964,5.0,299.25372999999996,2857.9173,0.0,0.0,0.0,0.0,0.10927610027701148,0.0,-0.25951900610253176,-0.22407006631899376,-0.3851464144509916,0.19534419293647082,0.9361934228800971,-0.06994588448862134
10965,5.0,299.67747,2700.7575,0.0,0.0,0.0,0.0,0.10928606708659531,0.0,-0.26493650988219775,-0.2266268306938268,-0.3293995015091997,0.18845864174941981,0.9217318310928491,-0.05380127415277235
10966,5.0,300.03302,2965.8852,0.0,0.0,0.0,0.0,0.10929603389617913,0.0,-0.2403873952668888,-0.2852404206860377,-0.37592721656112765,0.22188568148841178,0.9057733142703662,-0.09680809810796541
10967,5.0,300.20563,3185.2074,0.0,0.0,0.0,0.0,0.10930600070576295,0.0,-0.3136838708681877,-0.2685672383030227,-0.3859723956675096,0.2045434703293688,0.9327896928791751,-0.07762809140779613
10968,5.0,300.20301,2871.3326,0.0,0.0,0.0,0.0,0.10931596751534678,0.0,-0.24130397117484778,-0.25674636879389373,-0.37476306312373464,0.2142568606905058,0.9043993673997681,-0.11603628687688987
10969,5.0,300.98877999999996,2597.7614,0.0,0.0,0.0,0.0,0.10932593432493058,0.0,-0.22692623596587577,-0.2187732912887428,-0.3439550621107217,0.1988184350118518,0.9241285019518821,-0.0994355275580225
10970,5.0,301.04741,2606.7435,0.0,0.0,0.0,0.0,0.10933590113451441,0.0,-0.21853266465499477,-0.22932631134524478,-0.34452595761456467,0.23693188818585678,0.9509268899341771,-0.12007306514278888
10971,5.0,300.40271,3050.9845,0.0,0.0,0.0,0.0,0.10934586794409824,0.0,-0.2923252984327607,-0.2766112687269067,-0.3584865580223687,0.22365414741794581,0.9586851230348551,-0.11704094461604189
10972,5.0,300.09327,3035.8645,0.0,0.0,0.0,0.0,0.10935583475368205,0.0,-0.28412294768075175,-0.24698245778277075,-0.3917215969999116,0.2157410491719838,0.9299730095886901,-0.1121911547349049
10973,5.0,299.71729,2763.1285,0.0,0.0,0.0,0.0,0.10936580156326588,0.0,-0.24141668511597178,-0.24474633640208274,-0.35375905729580065,0.17489388775818282,0.9352865235105932,-0.06580694832114013
10974,5.0,299.27223,2542.2802,0.0,0.0,0.0,0.0,0.1093757683728497,0.0,-0.19904021519373982,-0.2236743009624348,-0.3500751839072307,0.2125538203199288,0.9503692578741431,-0.09005898104687941
10975,5.0,299.21305,2870.2314,0.0,0.0,0.0,0.0,0.10938573518243352,0.0,-0.23816672595022575,-0.2342821581143488,-0.40002978172486564,0.20853255491306077,0.9579764153849111,-0.05322825690321995
10976,5.0,299.84488,3158.3061,0.0,0.0,0.0,0.0,0.10939570199201734,0.0,-0.28393593210979473,-0.2749472486176807,-0.4011630209017076,0.2184499834468348,0.8948297673603223,-0.07828265097239612
10977,5.0,300.4199,3028.3223,0.0,0.0,0.0,0.0,0.10940566880160116,0.0,-0.2922992072426857,-0.2312703836496098,-0.3969647710998726,0.20057711294541983,0.8991627794254571,-0.05430374690386254
10978,5.0,299.99818999999997,2753.0664,0.0,0.0,0.0,0.0,0.10941563561118499,0.0,-0.24856468834392476,-0.23970788948482677,-0.34859087383574067,0.2341318525945148,0.9127173401206882,-0.07870065311564972
10979,5.0,300.38432,2761.8287,0.0,0.0,0.0,0.0,0.10942560242076879,0.0,-0.2814414218211057,-0.22044660290138582,-0.3376389270823677,0.23878777733401876,0.9439218056328292,-0.08813652136714742
10980,5.0,299.78526,3023.8145,0.0,0.0,0.0,0.0,0.10943556923035262,0.0,-0.28200898373211974,-0.24729345463596375,-0.3898616852488526,0.2275480979497488,0.9190156926097872,-0.08395967039417432
10981,5.0,300.0028,3060.0648,0.0,0.0,0.0,0.0,0.10944553603993645,0.0,-0.2959992217053487,-0.24046178808923077,-0.3937222897198646,0.1987757265201368,0.9520884697163161,-0.09450712669437722
10982,5.0,300.47008999999997,2860.1125,0.0,0.0,0.0,0.0,0.10945550284952026,0.0,-0.2429576054705488,-0.2370363846686698,-0.38940880298415664,0.20690932825286082,0.9483855978883711,-0.07531517377552893
10983,5.0,300.05753,2868.1056,0.0,0.0,0.0,0.0,0.10946546965910409,0.0,-0.26009635600951175,-0.23461654077984978,-0.37711957888130465,0.1963963923703148,0.94979268816974,-0.0870687290275145
10984,5.0,299.7944,3002.2151,0.0,0.0,0.0,0.0,0.1094754364686879,0.0,-0.25848114415760276,-0.25636024957828674,-0.3977570414855636,0.2181413373338738,0.9022782600379311,-0.07381460306643413
10985,5.0,300.32236,2937.7162,0.0,0.0,0.0,0.0,0.10948540327827173,0.0,-0.28610021405839275,-0.22693380494412277,-0.37995835102396963,0.1824947327208278,0.9063366610609641,-0.07657637529424983
10986,5.0,300.77612999999997,2717.4234,0.0,0.0,0.0,0.0,0.10949537008785555,0.0,-0.2001908113447948,-0.25187291952292173,-0.3739651388024856,0.21506849428560781,0.9296544032272461,-0.07095483638169714
10987,5.0,300.53044,2584.5541,0.0,0.0,0.0,0.0,0.10950533689743937,0.0,-0.21713061022662278,-0.2261882251230398,-0.3423210646019587,0.19153380514041482,0.958506487042225,-0.1055874491956699
10988,5.0,301.11795,2814.0647,0.0,0.0,0.0,0.0,0.1095153037070232,0.0,-0.22331253014673078,-0.23213824249276077,-0.3999546390974496,0.20948946830750081,0.9225278707689121,-0.07776317689787803
10989,5.0,300.30683,3039.8701,0.0,0.0,0.0,0.0,0.109525270516607,0.0,-0.2959925342546887,-0.25769351445736977,-0.3703585662640447,0.2015768564215868,0.9257588720252872,-0.0990099189462682
10990,5.0,299.73553,2950.3551,0.0,0.0,0.0,0.0,0.10953523732619083,0.0,-0.28558423670996974,-0.2162936656440228,-0.39495635741415763,0.25213892807167476,0.9261999904563221,-0.07286225942994513
10991,5.0,299.70164,2787.4128,0.0,0.0,0.0,0.0,0.10954520413577466,0.0,-0.2655460710098568,-0.23116065879628078,-0.35059715969624566,0.24005858547693779,0.9540474671946542,-0.11621333206686289
10992,5.0,299.59414,2829.7864,0.0,0.0,0.0,0.0,0.10955517094535847,0.0,-0.2346132882470288,-0.2509394730007978,-0.37463165471826565,0.23434323683037675,0.9024394478638391,-0.08977217047357341
10993,5.0,299.89054,3030.64,0.0,0.0,0.0,0.0,0.1095651377549423,0.0,-0.2949473465115367,-0.21749615033269878,-0.40879538807496363,0.2166106406728058,0.9068402564931651,-0.1067965706725009
10994,5.0,300.20738,3142.1079,0.0,0.0,0.0,0.0,0.10957510456452611,0.0,-0.26509962288329575,-0.2586105665928758,-0.4314121435570636,0.20837942242544782,0.9496893265270391,-0.03976378731413026
10995,5.0,301.05863,2749.4675,0.0,0.0,0.0,0.0,0.10958507137410994,0.0,-0.25311906515840676,-0.2034045670844678,-0.37924584368615066,0.2033423535283278,0.9631500096005051,-0.07850304401489723
10996,5.0,300.60067999999995,2680.7459,0.0,0.0,0.0,0.0,0.10959503818369376,0.0,-0.22129539237765478,-0.23400007941900977,-0.3595843537107127,0.16917513459128583,0.937815018207636,-0.041682789784521064
10997,5.0,301.76389,3075.5375,0.0,0.0,0.0,0.0,0.10960500499327758,0.0,-0.3040794555553057,-0.25800295090540876,-0.37280417710290764,0.18381873649399683,0.9292187867442541,-0.10125175303102
10998,5.0,299.91207,3396.2995,0.0,0.0,0.0,0.0,0.10961497180286141,0.0,-0.3070409018875777,-0.2879622738996637,-0.4373870767467436,0.23813516320961078,0.9347360449962651,-0.08432533310351242
10999,5.0,299.82595,3194.4593,0.0,0.0,0.0,0.0,0.10962493861244521,0.0,-0.30740822531382966,-0.2922447349173097,-0.3713828911876377,0.22636248387523777,0.9495793280961831,-0.11539873978146889
11000,5.0,299.54922999999997,2900.9702,0.0,0.0,0.0,0.0,0.10963490542202904,0.0,-0.24075055423522973,-0.2599412274192018,-0.3811307320521747,0.2342708603757338,0.9073683421802831,-0.08905185503048382
11001,5.0,299.78898,2697.2872,0.0,0.0,0.0,0.0,0.10964487223161287,0.0,-0.2515921681852138,-0.2182762617171898,-0.35003951750371065,0.23584894674397877,0.9010410107383242,-0.07148428995645013
11002,5.0,299.66449,2702.1398,0.0,0.0,0.0,0.0,0.10965483904119669,0.0,-0.24375956252719574,-0.1973046089649488,-0.3803188451445476,0.24432559443055876,0.9638853454630771,-0.06428390879107784
11003,5.0,299.64747,3046.5881,0.0,0.0,0.0,0.0,0.1096648058507805,0.0,-0.24798933453964175,-0.24313922041847275,-0.4349581541370276,0.22969538769416978,0.9501603864985292,-0.07094817527553973
11004,5.0,300.23824,2987.3617,0.0,0.0,0.0,0.0,0.10967477266036432,0.0,-0.2605622889354957,-0.23644741278304277,-0.4110736505273106,0.17225212183246083,0.9253181284967892,-0.1035501376171029
11005,5.0,299.91033,2933.6099,0.0,0.0,0.0,0.0,0.10968473946994815,0.0,-0.2607588999848997,-0.2687259132686827,-0.36225933397471266,0.17076153974285185,0.9245923577151611,-0.09502857052708971
11006,5.0,299.64259,3097.8224,0.0,0.0,0.0,0.0,0.10969470627953197,0.0,-0.3045219013439717,-0.24964219876526675,-0.3874965568654326,0.2149873430850988,0.9419009188383831,-0.0936375412730558
11007,5.0,299.91896,3255.9453,0.0,0.0,0.0,0.0,0.10970467308911579,0.0,-0.30895037170102774,-0.2832980202443377,-0.39747768843299364,0.20911263046280978,0.9646941824879031,-0.08068404459014522
11008,5.0,300.74163,2945.0682,0.0,0.0,0.0,0.0,0.10971463989869962,0.0,-0.27216528940812273,-0.2558465925725928,-0.36721532259883066,0.2025323411333858,0.9288935131971521,-0.06608256349409124
11009,5.0,300.81045,2552.4899,0.0,0.0,0.0,0.0,0.10972460670828342,0.0,-0.19416381736497682,-0.22952435107728977,-0.35220503561743066,0.2050824788525648,0.913762396141327,-0.09984910281158921
11010,5.0,301.09182999999996,2574.2723,0.0,0.0,0.0,0.0,0.10973457351786725,0.0,-0.2215691218921698,-0.22475818472690579,-0.33618718286909166,0.22952533392988678,0.9408794816775752,-0.07966259425708593
11011,5.0,299.78777,2936.7855,0.0,0.0,0.0,0.0,0.10974454032745108,0.0,-0.2677995696297597,-0.24133416602782776,-0.3835757146759756,0.24484083210640875,0.9181241845093021,-0.11504538907409588
11012,5.0,299.22188,3249.3709,0.0,0.0,0.0,0.0,0.1097545071370349,0.0,-0.2998976001400887,-0.27036781412822575,-0.4174622126728126,0.2233544280383658,0.9175316054533191,-0.06948091921648283
11013,5.0,299.56736,3024.3884,0.0,0.0,0.0,0.0,0.10976447394661872,0.0,-0.29708705714520967,-0.22468284958197077,-0.3975686478944706,0.19963577320501683,0.9160874808807951,-0.07956567181877043
11014,5.0,299.32076,2927.5798,0.0,0.0,0.0,0.0,0.10977444075620253,0.0,-0.2602436724415507,-0.21470646002487778,-0.4149610250659646,0.2052979464863298,0.9409671683412291,-0.036356402520097565
11015,5.0,300.42956000000004,3100.9987,0.0,0.0,0.0,0.0,0.10978440756578636,0.0,-0.2589532883066998,-0.2695713792846237,-0.41410149513863564,0.17860953666988882,0.9270402179692461,-0.08019367207174923
11016,5.0,300.70177,3207.3853,0.0,0.0,0.0,0.0,0.10979437437537018,0.0,-0.3111809100736647,-0.2583369384033708,-0.4054471943120226,0.18901112649894583,0.9347126287864541,-0.06032872350273144
11017,5.0,301.51282000000003,3129.5402,0.0,0.0,0.0,0.0,0.109804341184954,0.0,-0.28624601061528177,-0.2709251422132297,-0.3941309132201926,0.20837496412500778,0.9220869651203981,-0.0923944992226271
11018,5.0,301.21464,2708.5961,0.0,0.0,0.0,0.0,0.10981430799453783,0.0,-0.25068337403802277,-0.22827857021184078,-0.3443836466380197,0.23124590352719376,0.9723506447485372,-0.07681278782083192
11019,5.0,300.64371,2494.0576,0.0,0.0,0.0,0.0,0.10982427480412163,0.0,-0.22150831675366878,-0.2272700215923048,-0.3093529055682547,0.23775667376725676,0.947750816965723,-0.07902180881434533
11020,5.0,300.83943,2797.2644,0.0,0.0,0.0,0.0,0.10983424161370546,0.0,-0.23333097971547478,-0.24584184214520077,-0.37112570804725564,0.2093452220232648,0.9440889716343271,-0.07190166489789183
11021,5.0,299.75692000000004,3096.1058,0.0,0.0,0.0,0.0,0.10984420842328929,0.0,-0.26419423325644076,-0.27266367673480973,-0.4042809333144216,0.21397068846476278,0.9257760972769872,-0.0857184628250036
11022,5.0,299.49595,3059.1003,0.0,0.0,0.0,0.0,0.10985417523287311,0.0,-0.28422754548857476,-0.24289104507147974,-0.4027715149054536,0.22608618070546876,0.956166831766319,-0.07078340662377834
11023,5.0,300.08423999999997,2925.6171,0.0,0.0,0.0,0.0,0.10986414204245692,0.0,-0.26256823029096676,-0.25428713987368673,-0.37245918570885966,0.23311047622871275,0.9338436047056882,-0.12310999860751087
11024,5.0,300.28051,2931.7909,0.0,0.0,0.0,0.0,0.10987410885204074,0.0,-0.28803278597412274,-0.2302757874839508,-0.3728826431906516,0.2106134869084328,0.9033521835539191,-0.08382574811520721
11025,5.0,301.0312,3024.9828,0.0,0.0,0.0,0.0,0.10988407566162457,0.0,-0.3012860466196177,-0.24119266565136277,-0.3770405352410036,0.1999031293764028,0.8883188653977462,-0.1035476855518609
11026,5.0,301.16558,3098.9790000000003,0.0,0.0,0.0,0.0,0.10989404247120839,0.0,-0.2671347762391497,-0.25650239843481576,-0.41837504968790257,0.18945570011282184,0.952119779144406,-0.054634991533803856
11027,5.0,300.51342,2766.2754,0.0,0.0,0.0,0.0,0.1099040092807922,0.0,-0.2338809110747488,-0.2278749622995078,-0.37912277432900465,0.2180641580737568,0.950015329614213,-0.1008041133223414
11028,5.0,300.81055,2850.0837,0.0,0.0,0.0,0.0,0.10991397609037604,0.0,-0.24719329486357877,-0.25858693760054374,-0.36057404574588764,0.1839333756103108,0.942786357570769,-0.07364872186606293
11029,5.0,301.19818,3116.965,0.0,0.0,0.0,0.0,0.10992394289995984,0.0,-0.26739564760989576,-0.27136860125199574,-0.40871528052205763,0.23086643123224276,0.9407536765451591,-0.12348859950737588
11030,5.0,301.87366000000003,3206.9406,0.0,0.0,0.0,0.0,0.10993390970954367,0.0,-0.3164312681168347,-0.2714340673409567,-0.3869645397679266,0.23586670901823176,0.949964504989197,-0.07425084371148773
11031,5.0,301.34744,2869.6796,0.0,0.0,0.0,0.0,0.1099438765191275,0.0,-0.24902627442697975,-0.24585730434172678,-0.3774273738641816,0.24599978757078877,0.9186098555472342,-0.0953201980913711
11032,5.0,301.02526,2686.0853,0.0,0.0,0.0,0.0,0.10995384332871132,0.0,-0.2400692043379858,-0.1974376892330828,-0.37899596607898967,0.1986523329229588,0.911832843710895,-0.04662829532310445
11033,5.0,300.03779,2854.4286,0.0,0.0,0.0,0.0,0.10996381013829513,0.0,-0.25412338852502575,-0.22065347817430278,-0.3928981526185286,0.21798793126873378,0.9240240763965761,-0.07668035907251222
11034,5.0,300.14147,3144.9572,0.0,0.0,0.0,0.0,0.10997377694787895,0.0,-0.2976851989442417,-0.2302694040083208,-0.42803385626615265,0.2218016627901198,0.968859309143969,-0.059711204308787035
11035,5.0,299.60994,3068.3221,0.0,0.0,0.0,0.0,0.10998374375746278,0.0,-0.27619419472074475,-0.25036795941439377,-0.4061311583945246,0.23459698505291976,0.9543126550108262,-0.09427010824423532
11036,5.0,300.58616,2831.7071,0.0,0.0,0.0,0.0,0.1099937105670466,0.0,-0.27986412578793873,-0.2226348583473498,-0.3582692766709247,0.19285508327081483,0.9294494429970181,-0.10143255636561391
11037,5.0,299.36957,2813.3641,0.0,0.0,0.0,0.0,0.11000367737663042,0.0,-0.2331807045931438,-0.24052165090513877,-0.38149008120013966,0.1966957976423638,0.9012790130543131,-0.09702453643532621
11038,5.0,300.14808,3013.6354,0.0,0.0,0.0,0.0,0.11001364418621425,0.0,-0.2557644889169898,-0.29099439442641073,-0.36931102778066066,0.2124783129224768,0.9360928476751711,-0.1053674725989599
11039,5.0,299.87964,3010.9461,0.0,0.0,0.0,0.0,0.11002361099579805,0.0,-0.25792875060058573,-0.26701477702980675,-0.3903089034454897,0.22682226637311476,0.9330967887194831,-0.08340919086659622
11040,5.0,300.24782000000005,2776.2521,0.0,0.0,0.0,0.0,0.11003357780538188,0.0,-0.23904942890734177,-0.22890772759643377,-0.37595415888128664,0.21548919572712777,0.9582969469215451,-0.08935287643644231
11041,5.0,299.72292000000004,2535.4243,0.0,0.0,0.0,0.0,0.1100435446149657,0.0,-0.2066276852550648,-0.2189433450530258,-0.3451346574796387,0.23016835257584778,0.944227087755458,-0.08769783473635243
11042,5.0,299.27977999999996,2731.6642,0.0,0.0,0.0,0.0,0.11005351142454953,0.0,-0.2387224632325728,-0.21540985824429779,-0.37622539580055564,0.22716001302894778,0.9618795966251251,-0.08456864282352522
11043,5.0,299.12408999999997,3211.8618,0.0,0.0,0.0,0.0,0.11006347823413333,0.0,-0.2813769081872387,-0.26182416021253274,-0.4331247287435826,0.2092122734776438,0.9246216203780492,-0.09485826142378151
11044,5.0,298.89945,3247.5257,0.0,0.0,0.0,0.0,0.11007344504371716,0.0,-0.31604185583840266,-0.26033995146605277,-0.41078492491131563,0.2065220235346368,0.9017046692888221,-0.07714784125789913
11045,5.0,299.35053,2991.5476,0.0,0.0,0.0,0.0,0.11008341185330099,0.0,-0.28691167540097773,-0.2324008971836828,-0.39004319887176664,0.2186777114068098,0.9167716374808161,-0.08797406697861442
11046,5.0,299.64951,2893.2442,0.0,0.0,0.0,0.0,0.1100933786628848,0.0,-0.26160998953889575,-0.24993416678158176,-0.36792985643684967,0.19630321389111882,0.9402410429220661,-0.1045153596623629
11047,5.0,300.60425,3008.8668,0.0,0.0,0.0,0.0,0.11010334547246863,0.0,-0.26325962149670173,-0.2600049101879867,-0.39135585424381564,0.21686196722760978,0.9135498871978541,-0.1023954276706419
11048,5.0,300.473,2952.6440000000002,0.0,0.0,0.0,0.0,0.11011331228205244,0.0,-0.27195885996524977,-0.2309960157875318,-0.3945751828590386,0.2017906825901898,0.926496903133125,-0.08106110737635842
11049,5.0,300.45716,2726.8297,0.0,0.0,0.0,0.0,0.11012327909163626,0.0,-0.21048918138616482,-0.24894412010887176,-0.36945483836735366,0.2408577054333048,0.927035557018786,-0.08260996147921841
11050,5.0,299.92312999999996,2569.7594,0.0,0.0,0.0,0.0,0.11013324590122008,0.0,-0.23322922914043276,-0.2137397687669728,-0.3341736928003757,0.22480552377157778,0.93598999265752,-0.055058313240082445
11051,5.0,299.75674,2863.6993,0.0,0.0,0.0,0.0,0.1101432127108039,0.0,-0.23497840278806278,-0.2517019740985508,-0.3838127138743656,0.21997202695204882,0.9376694850957731,-0.07470862504041723
11052,5.0,300.10895,3171.0198,0.0,0.0,0.0,0.0,0.11015317952038771,0.0,-0.29563817029721573,-0.26075486724950175,-0.4075177911563746,0.22153305018860978,0.9377346877397081,-0.07901118083404642
11053,5.0,300.68045,3271.534,0.0,0.0,0.0,0.0,0.11016314632997154,0.0,-0.3037399661093007,-0.2590404075502977,-0.4316842721364206,0.22601315577076178,0.9484202510417912,-0.07558285114719662
11054,5.0,298.95927,2900.3119,0.0,0.0,0.0,0.0,0.11017311313955536,0.0,-0.24970766485422774,-0.24878645839331176,-0.38312827356431667,0.21186764735220878,0.9589141580874591,-0.09708207384225472
11055,5.0,299.42697999999996,2818.4581,0.0,0.0,0.0,0.0,0.11018307994913919,0.0,-0.23990746935702378,-0.23342628601988077,-0.38340713012433764,0.19964620968104682,0.9331626094459791,-0.0890450540958126
11056,5.0,299.82734,2970.7028,0.0,0.0,0.0,0.0,0.110193046758723,0.0,-0.2853865110854557,-0.25420767066834377,-0.36342530112978466,0.2028139638661798,0.9149631887023362,-0.08733272120856851
11057,5.0,299.0142,2839.6919,0.0,0.0,0.0,0.0,0.11020301356830682,0.0,-0.27969585534383173,-0.2233623617866488,-0.36013722349527666,0.2324772658437198,0.9186594845371321,-0.09672067286283721
11058,5.0,299.00383,2636.9181,0.0,0.0,0.0,0.0,0.11021298037789065,0.0,-0.2249207100429458,-0.22329641947014078,-0.35334013917445667,0.24469105347662676,0.9305963813152122,-0.09575506679578931
11059,5.0,300.38215,2544.3465,0.0,0.0,0.0,0.0,0.11022294718747445,0.0,-0.2010020092423538,-0.23015423800195475,-0.3422615564235857,0.2132883050524168,0.9292231031896802,-0.07693495031913843
11060,5.0,300.21547000000004,2874.4957,0.0,0.0,0.0,0.0,0.11023291399705828,0.0,-0.2209517891362438,-0.24779577337303876,-0.4050273642655886,0.2030871462256408,0.9173334947937671,-0.08341710232337701
11061,5.0,300.66561,3264.7973,0.0,0.0,0.0,0.0,0.11024288080664212,0.0,-0.2850728088544957,-0.2574869330269817,-0.44985711532994055,0.21146138472461382,0.9481832822409041,-0.045567214752133954
11062,5.0,299.90581000000003,3199.6648,0.0,0.0,0.0,0.0,0.11025284761622592,0.0,-0.3110655110197757,-0.2661571925426698,-0.3953954898749966,0.2145281178747768,0.9404499750926861,-0.07290728826438912
11063,5.0,300.27103999999997,3007.9476,0.0,0.0,0.0,0.0,0.11026281442580975,0.0,-0.2857173777731097,-0.2306897204148028,-0.39793386376051465,0.21663948790315282,0.9207913323500292,-0.07468791319512313
11064,5.0,300.60832999999997,3087.7193,0.0,0.0,0.0,0.0,0.11027278123539357,0.0,-0.3027000776641717,-0.25440957088326976,-0.38147991830163663,0.1994298605196948,0.9468264491644951,-0.0993095846235929
11065,5.0,300.64647,3258.087,0.0,0.0,0.0,0.0,0.1102827480449774,0.0,-0.3056764390379157,-0.24337682756692278,-0.4413238370952716,0.2213381110018708,0.9526303254722931,-0.07295968748006053
11066,5.0,300.01417999999995,3004.0469,0.0,0.0,0.0,0.0,0.11029271485456121,0.0,-0.26099340658804376,-0.22957579378486678,-0.42258603604349465,0.2083962018471038,0.971410227065725,-0.08933436334386523
11067,5.0,298.96966000000003,2618.5798,0.0,0.0,0.0,0.0,0.11030268166414503,0.0,-0.2218675544441228,-0.2228885356423858,-0.3512267831758846,0.20494360279385881,0.959528461225586,-0.07488672806349463
11068,5.0,299.36942,2443.0951,0.0,0.0,0.0,0.0,0.11031264847372886,0.0,-0.2096144223098328,-0.2180698018768138,-0.31495566186370366,0.22258400332483078,0.9034585140194131,-0.10116840003804371
11069,5.0,300.15181,2821.9462,0.0,0.0,0.0,0.0,0.11032261528331266,0.0,-0.26753775593642076,-0.2285450549881408,-0.36171836987882366,0.2109512335642658,0.9052028645965672,-0.1016076763803969
11070,5.0,299.32737000000003,3197.9998,0.0,0.0,0.0,0.0,0.1103325820928965,0.0,-0.29317164597628875,-0.3046677688283677,-0.3742726703403366,0.24200717687674878,0.9006688541090953,-0.11827824457815388
11071,5.0,298.94728,3085.1116,0.0,0.0,0.0,0.0,0.11034254890248033,0.0,-0.25508640168506774,-0.2574087506492657,-0.4253017286965126,0.22827556085904377,0.9105767682244301,-0.08325106102949002
11072,5.0,299.27584,2888.6765,0.0,0.0,0.0,0.0,0.11035251571206413,0.0,-0.19886803360424682,-0.27862308693295773,-0.40059440521058964,0.2049475848667518,0.9633985497175341,-0.09591998439531542
11073,5.0,299.58432999999997,2992.8324,0.0,0.0,0.0,0.0,0.11036248252164796,0.0,-0.2661165510811587,-0.24495142835482375,-0.39867832900648764,0.18950443744263182,0.9831155151359472,-0.06601791611121104
11074,5.0,300.60006,3274.2435,0.0,0.0,0.0,0.0,0.11037244933123178,0.0,-0.32339876083947267,-0.2547968958664958,-0.41709261956633664,0.19978921980016082,0.9627428553128221,-0.07119552988995173
11075,5.0,300.67672999999996,3058.5025,0.0,0.0,0.0,0.0,0.1103824161408156,0.0,-0.2831803008477197,-0.24513002381744975,-0.4013980645274046,0.1913987287695838,0.947826729663215,-0.07010090263467043
11076,5.0,300.48006000000004,2614.9344,0.0,0.0,0.0,0.0,0.11039238295039942,0.0,-0.2436869935550338,-0.19313280499072383,-0.35805495400977266,0.22548574896121076,0.909828128388045,-0.10468050929616189
11077,5.0,300.12286,2758.2934,0.0,0.0,0.0,0.0,0.11040234975998324,0.0,-0.21749016202460777,-0.22641752362066977,-0.39454462323602263,0.19775801811969682,0.9401884349768741,-0.07532652015014872
11078,5.0,299.35712,3064.9363,0.0,0.0,0.0,0.0,0.11041231656956707,0.0,-0.28286286985639175,-0.23825514215395177,-0.4105460815977436,0.20567338604588278,0.9198852739781082,-0.11089218837170689
11079,5.0,299.36607000000004,3192.4615,0.0,0.0,0.0,0.0,0.11042228337915087,0.0,-0.3076266921678907,-0.23596033332747177,-0.42684156487348257,0.1964461429502248,0.9430874955004892,-0.030757348640513972
11080,5.0,300.00117,2947.5458,0.0,0.0,0.0,0.0,0.1104322501887347,0.0,-0.27872329736784773,-0.25373759354945075,-0.36351944219657567,0.2240701271139998,0.9623530073368471,-0.08741597591628511
11081,5.0,299.00235,2691.079,0.0,0.0,0.0,0.0,0.11044221699831853,0.0,-0.24104834843961978,-0.20809846843771979,-0.36887399274752863,0.23016884906839677,0.96459505623062,-0.056304402133561846
11082,5.0,298.66454,2849.368,0.0,0.0,0.0,0.0,0.11045218380790234,0.0,-0.24394153211265476,-0.24084540457709078,-0.38134979672379465,0.22576906382167178,0.9226494101184071,-0.08883505497283732
11083,5.0,299.97848999999997,3274.5908,0.0,0.0,0.0,0.0,0.11046215061748617,0.0,-0.27551052448077173,-0.27385844045772373,-0.4460248615967266,0.21361691219234782,0.9223066073445751,-0.05854618048955815
11084,5.0,299.43465,3053.9504,0.0,0.0,0.0,0.0,0.11047211742706999,0.0,-0.24848631344868977,-0.24693988101356878,-0.43289844973125063,0.2175669461171858,0.9175677278193841,-0.0869016400330241
11085,5.0,299.55019,2637.3602,0.0,0.0,0.0,0.0,0.11048208423665382,0.0,-0.22553816438888377,-0.22873880867226276,-0.34741467285465866,0.20992584472806777,0.96474633447055,-0.07717201132578452
11086,5.0,299.461,2665.6887,0.0,0.0,0.0,0.0,0.11049205104623763,0.0,-0.2553807001766128,-0.21574396733227177,-0.3391781350442757,0.2052077874924318,0.9408114824633641,-0.12020048134286389
11087,5.0,298.9552,3001.3734,0.0,0.0,0.0,0.0,0.11050201785582145,0.0,-0.2985432495264247,-0.2307619752794338,-0.3830373445003426,0.1949990799524108,0.9638342168630311,-0.0987678737623802
11088,5.0,300.48694,3096.8105,0.0,0.0,0.0,0.0,0.11051198466540528,0.0,-0.2830049883154177,-0.26983337536298074,-0.3885147110959166,0.2035500292688238,0.943831555446422,-0.11903553757039288
11089,5.0,300.99866000000003,2751.9778,0.0,0.0,0.0,0.0,0.11052195147498908,0.0,-0.20946312380490079,-0.22474709977081178,-0.4023222904736186,0.2048230057669568,0.940899858137086,-0.10796154484247489
11090,5.0,300.68611,2535.0507,0.0,0.0,0.0,0.0,0.11053191828457291,0.0,-0.2171728931532958,-0.2342940030080178,-0.3191252265552077,0.2066607273408258,0.9059269331180271,-0.097341965400154
11091,5.0,300.79663,2811.4561,0.0,0.0,0.0,0.0,0.11054188509415674,0.0,-0.24629604163502677,-0.23223376157968778,-0.37608262886146565,0.2074989486185518,0.941855950798945,-0.05790039364432395
11092,5.0,300.35006,3257.3693,0.0,0.0,0.0,0.0,0.11055185190374055,0.0,-0.33472345190713265,-0.2704628164576018,-0.38497267245634464,0.22497140294544876,0.9415325821620311,-0.054547226849892154
11093,5.0,298.79553,3376.1955,0.0,0.0,0.0,0.0,0.11056181871332438,0.0,-0.3280127167598347,-0.29739023170763074,-0.40087619006339964,0.2101509889002878,0.9577994816524492,-0.06597440613866694
11094,5.0,299.557,2999.3251,0.0,0.0,0.0,0.0,0.1105717855229082,0.0,-0.2732428200944667,-0.2304109347822888,-0.40806618237549663,0.24355211983422279,0.9214248771075552,-0.06302525154335804
11095,5.0,300.30467000000004,2907.3155,0.0,0.0,0.0,0.0,0.11058175233249203,0.0,-0.23836193871449177,-0.24943587064740377,-0.39595349683756764,0.19057395332068483,0.937079783670074,-0.08611045483819023
11096,5.0,300.29967999999997,3177.2533,0.0,0.0,0.0,0.0,0.11059171914207584,0.0,-0.28388313164708373,-0.2542670167267007,-0.42765551881131364,0.2362595663470038,0.9233335059234221,-0.06944598741928534
11097,5.0,299.91163,3203.0809999999997,0.0,0.0,0.0,0.0,0.11060168595165966,0.0,-0.3284412404921267,-0.23727078994680378,-0.40794463289350064,0.2020893279246638,0.9518114572714772,-0.08458122131026662
11098,5.0,300.1635,2852.7416,0.0,0.0,0.0,0.0,0.11061165276124349,0.0,-0.2794784422698747,-0.24233770919186975,-0.34534606198050266,0.2197010534778058,0.9523676910463731,-0.08800459316437712
11099,5.0,300.7814,2607.4431,0.0,0.0,0.0,0.0,0.11062161957082729,0.0,-0.26689195085268475,-0.1924096787918568,-0.3332959446362487,0.19371634585581482,0.964512415552464,-0.08887926003495
11100,5.0,301.23287,2957.4098,0.0,0.0,0.0,0.0,0.11063158638041111,0.0,-0.2281982600089148,-0.26772076916948273,-0.40305969336639463,0.2100042398883048,0.9346423193620151,-0.08996792026039242
11101,5.0,300.35332999999997,3231.554,0.0,0.0,0.0,0.0,0.11064155318999495,0.0,-0.24483808619863778,-0.29947746611862475,-0.43799617177935657,0.2109245040266278,0.9095035337185101,-0.08834089796531783
11102,5.0,299.48562000000004,3164.3566,0.0,0.0,0.0,0.0,0.11065151999957876,0.0,-0.2619588312833237,-0.2954733854334527,-0.4044531858314216,0.23730057949974379,0.8837647114982862,-0.09175899686590791
11103,5.0,299.80922999999996,2808.6535,0.0,0.0,0.0,0.0,0.11066148680916259,0.0,-0.23689422567963977,-0.26792567873720574,-0.3489406376377597,0.2437341299496858,0.9193034860356902,-0.07500657021907213
11104,5.0,299.74854,2543.0233,0.0,0.0,0.0,0.0,0.1106714536187464,0.0,-0.23416993053327276,-0.21674007324057978,-0.3221055801343457,0.24434657884012975,0.9451275023243222,-0.08367739107531552
11105,5.0,298.73805,2840.2469,0.0,0.0,0.0,0.0,0.11068142042833023,0.0,-0.2600414175890898,-0.23713100196300776,-0.3661917272153096,0.2103387137463148,0.988350714957621,-0.08085014161278772
11106,5.0,299.0722,3201.4876,0.0,0.0,0.0,0.0,0.11069138723791405,0.0,-0.27439648639332476,-0.27184773682678276,-0.4269280761670206,0.19013066653443583,0.966620928215558,-0.11592488002839489
11107,5.0,300.50912999999997,2983.316,0.0,0.0,0.0,0.0,0.11070135404749787,0.0,-0.2565802667050008,-0.22647169197101577,-0.4238016119234626,0.1987671848217938,0.9524404728010561,-0.09267934611723931
11108,5.0,300.27341,2738.3671,0.0,0.0,0.0,0.0,0.1107113208570817,0.0,-0.24834182398442975,-0.24011428383493477,-0.3439391236866487,0.20750935469707882,0.9139351451508761,-0.08620994181250882
11109,5.0,300.30366000000004,3069.0892,0.0,0.0,0.0,0.0,0.1107212876666655,0.0,-0.29343586107236475,-0.2535161173425928,-0.3859744930952166,0.22635908948740277,0.9083985135569532,-0.07299137789018813
11110,5.0,300.44068,3380.3904,0.0,0.0,0.0,0.0,0.11073125447624933,0.0,-0.36251759116020066,-0.25957590009564674,-0.4054607718633626,0.2075911341126498,0.9249686281397961,-0.05460966940055474
11111,5.0,300.27287,3162.1259,0.0,0.0,0.0,0.0,0.11074122128583316,0.0,-0.29388980724966574,-0.26833329911993475,-0.39898422921167764,0.20709276705096483,0.951242922640367,-0.09051387866602432
11112,5.0,300.59805,2801.8381,0.0,0.0,0.0,0.0,0.11075118809541697,0.0,-0.2290091944614478,-0.2148240375664818,-0.4078555986072136,0.2029147214561238,0.9662973467961231,-0.05710721741304354
11113,5.0,300.45932999999997,2721.4899,0.0,0.0,0.0,0.0,0.1107611549050008,0.0,-0.1932890278911418,-0.2472993922815498,-0.38667656395700567,0.2007109126211248,0.966346975786021,-0.08636486471304851
11114,5.0,300.05896,2932.9025,0.0,0.0,0.0,0.0,0.11077112171458461,0.0,-0.25971824146969474,-0.2504182571493578,-0.3813926369380226,0.2223172753685068,0.9331702088217292,-0.06296699371560843
11115,5.0,301.01595,3197.704,0.0,0.0,0.0,0.0,0.11078108852416844,0.0,-0.2882099527541077,-0.2613033192636297,-0.4225088871808806,0.2284808858593078,0.9379090174194131,-0.07990295440605763
11116,5.0,299.9274,2808.9494,0.0,0.0,0.0,0.0,0.11079105533375226,0.0,-0.2871349855905167,-0.2190036942289818,-0.3477118084464837,0.2280449451362838,0.9288753152253562,-0.06875736035982313
11117,5.0,299.88347999999996,2563.4063,0.0,0.0,0.0,0.0,0.11080102214333608,0.0,-0.2100092757413018,-0.19671686311194284,-0.37248535795894266,0.2210640065848188,0.9297972917563481,-0.09572001340857982
11118,5.0,300.31032999999996,3014.0803,0.0,0.0,0.0,0.0,0.11081098895291991,0.0,-0.25562858168107677,-0.25110003261164376,-0.40947653532218764,0.19368410423763283,0.9560732175895801,-0.1056089908927959
11119,5.0,300.20777999999996,3212.242,0.0,0.0,0.0,0.0,0.11082095576250371,0.0,-0.28078233302855876,-0.26223273305035577,-0.43342628210584355,0.2139641327366158,0.9474740375684071,-0.08673079998666351
11120,5.0,299.45151,2915.5433,0.0,0.0,0.0,0.0,0.11083092257208754,0.0,-0.27161931985673976,-0.2321488410888068,-0.38248420113825166,0.2073807124643828,0.947199700103832,-0.06904992518044703
11121,5.0,300.16042999999996,2597.9929,0.0,0.0,0.0,0.0,0.11084088938167137,0.0,-0.23666303240432277,-0.2216908537591838,-0.33137109368628065,0.2166083811250828,0.9274343013306392,-0.08118461952379813
11122,5.0,299.71607,2755.1637,0.0,0.0,0.0,0.0,0.11085085619125518,0.0,-0.26562838744798073,-0.2067287974825438,-0.36514378343188564,0.21385567444591178,0.9187002475886551,-0.057827189364349246
11123,5.0,301.26653999999996,3137.7709,0.0,0.0,0.0,0.0,0.110860823000839,0.0,-0.25962232721522877,-0.27067919601645674,-0.4235024700964396,0.19358210035006582,0.942933207907762,-0.08742526741970211
11124,5.0,300.0893,3162.0602,0.0,0.0,0.0,0.0,0.11087078981042282,0.0,-0.2684637348053077,-0.26982658658731073,-0.4228970227641866,0.18105775156150883,0.958790521310257,-0.09937767300381271
11125,5.0,299.94507000000004,2968.6511,0.0,0.0,0.0,0.0,0.11088075662000665,0.0,-0.24846515678660175,-0.25188579793169275,-0.4020448625962386,0.19328219858546783,0.9368292069203441,-0.1039945896409669
11126,5.0,300.33932999999996,2678.2205,0.0,0.0,0.0,0.0,0.11089072342959047,0.0,-0.24334798033657576,-0.21198475879876677,-0.35877941769877164,0.2047188436566768,0.973770360126152,-0.09402584302937822
11127,5.0,300.72504,2823.2509999999997,0.0,0.0,0.0,0.0,0.11090069023917429,0.0,-0.25967060858249374,-0.23098510308395478,-0.3675421160210826,0.24782115528804377,0.9413303475745721,-0.0999530764573506
11128,5.0,299.46268,3191.1694,0.0,0.0,0.0,0.0,0.11091065704875812,0.0,-0.3149981069103927,-0.24834811626755074,-0.4066895706571356,0.23378202799748976,0.9377855630272292,-0.05471242815944624
11129,5.0,299.46612999999996,3145.5089,0.0,0.0,0.0,0.0,0.11092062385834192,0.0,-0.2733104545386417,-0.26578967659889874,-0.4170560311052256,0.2020002024458678,0.9022789085179952,-0.11008113232916189
11130,5.0,298.78823,2824.7666,0.0,0.0,0.0,0.0,0.11093059066792575,0.0,-0.27111289745675976,-0.2277461478142948,-0.3597994667069427,0.20793940843702183,0.9276969864190641,-0.08941857151992592
11131,5.0,299.46412999999995,2911.0049,0.0,0.0,0.0,0.0,0.11094055747750958,0.0,-0.25449750072694777,-0.25019038733436877,-0.3801849036138286,0.20261834580187382,0.9479105355789861,-0.09209086160491041
11132,5.0,300.10995,3250.2639,0.0,0.0,0.0,0.0,0.11095052428709339,0.0,-0.3090717286655047,-0.26705528676880474,-0.41187205107610664,0.21868812761783782,0.9724935940726451,-0.05324093671497135
11133,5.0,300.10467,3113.282,0.0,0.0,0.0,0.0,0.11096049109667722,0.0,-0.2950958484461927,-0.2289255304006908,-0.42233862063407657,0.20002987683141182,0.9382991389729152,-0.06983952463887443
11134,5.0,300.55565,2828.9893,0.0,0.0,0.0,0.0,0.11097045790626103,0.0,-0.24028948490972576,-0.21608604056603178,-0.40356658186142064,0.22385191357246378,0.9718323065273811,-0.06081068908504774
11135,5.0,301.16492,2699.2975,0.0,0.0,0.0,0.0,0.11098042471584486,0.0,-0.2052186697985058,-0.2250597583541688,-0.39024062052125064,0.25304535121363175,0.9489099649476221,-0.09373763518418432
11136,5.0,300.41011000000003,2909.6842,0.0,0.0,0.0,0.0,0.11099039152542868,0.0,-0.24798164397138278,-0.2465679979618668,-0.3899216899197746,0.2176524542931248,0.976689331014232,-0.11327982103984789
11137,5.0,300.622,3174.8303,0.0,0.0,0.0,0.0,0.1110003583350125,0.0,-0.31146191472389767,-0.27350290113013476,-0.38010430970087467,0.19722963859004983,0.9211085100288321,-0.1250074512747749
11138,5.0,300.32426,3054.3948,0.0,0.0,0.0,0.0,0.11101032514459633,0.0,-0.30876304202253974,-0.23373674585052076,-0.3859599732212836,0.19641467140211882,0.9468184444887051,-0.08412706437694482
11139,5.0,299.82526,2615.5313,0.0,0.0,0.0,0.0,0.11102029195418013,0.0,-0.23942365256677475,-0.2366462833801698,-0.3189862593039927,0.23486246671162078,0.956327705484696,-0.07748911301083003
11140,5.0,299.18902,2698.117,0.0,0.0,0.0,0.0,0.11103025876376396,0.0,-0.22641623679304276,-0.2158800468207018,-0.37786392253726564,0.2251781464958528,0.965421878444721,-0.06220651303855485
11141,5.0,298.97934,3188.3763,0.0,0.0,0.0,0.0,0.11104022557334779,0.0,-0.27146849757935476,-0.2633974437753038,-0.4343208603541316,0.2059897429921048,0.9114516995532793,-0.08355707167894091
11142,5.0,299.31215,3277.7065,0.0,0.0,0.0,0.0,0.11105019238293161,0.0,-0.31296852643008866,-0.25903759071501975,-0.4243348043910846,0.1962771834960498,0.9209771320208661,-0.09019590659914292
11143,5.0,300.21592999999996,3004.8358,0.0,0.0,0.0,0.0,0.11106015919251543,0.0,-0.27706571139675673,-0.2541343417586068,-0.38219500942721063,0.23931933846897974,0.9273577908155881,-0.1099382741975629
11144,5.0,299.1308,2748.9045,0.0,0.0,0.0,0.0,0.11107012600209924,0.0,-0.26159390925980874,-0.22476822603539676,-0.34923619255942867,0.2307960306152948,0.974595054515043,-0.06071210289006804
11145,5.0,299.79635,2922.2472,0.0,0.0,0.0,0.0,0.11108009281168307,0.0,-0.24607186005040177,-0.23442631320607576,-0.4077920171634386,0.2268875399445568,0.9376409925029612,-0.07918511939921283
11146,5.0,301.14697,3236.2025,0.0,0.0,0.0,0.0,0.11109005962126688,0.0,-0.2672272961057808,-0.26677394774603874,-0.4497235081717546,0.18909291604701783,0.9604547845995072,-0.05692352226266424
11147,5.0,300.80183999999997,3036.1469,0.0,0.0,0.0,0.0,0.1111000264308507,0.0,-0.23184368055618979,-0.26224254131132374,-0.42882662314439257,0.21271417728075478,0.948495474729215,-0.09187547807090372
11148,5.0,299.79681,2783.3884,0.0,0.0,0.0,0.0,0.11110999324043454,0.0,-0.24049698839770478,-0.2272673466120408,-0.3783162373819056,0.21559393538996482,0.929819755511065,-0.09135328443311723
11149,5.0,300.09869,2882.1727,0.0,0.0,0.0,0.0,0.11111996005001834,0.0,-0.26433426442026076,-0.2585242174193537,-0.3532500511080657,0.21872616502659178,0.895415902145669,-0.12653742852827188
11150,5.0,299.72001,3176.2639,0.0,0.0,0.0,0.0,0.11112992685960217,0.0,-0.3309380103285387,-0.2510021931819878,-0.38356472091239063,0.2178429351794238,0.9324983936079261,-0.08086601113585393
11151,5.0,299.61048999999997,3257.7633,0.0,0.0,0.0,0.0,0.11113989366918599,0.0,-0.3069319471043247,-0.26423906957336574,-0.4191076801727076,0.25481483039326575,0.9537782567755851,-0.036946275185063465
11152,5.0,299.35748,2799.0423,0.0,0.0,0.0,0.0,0.11114986047876982,0.0,-0.20214079089724282,-0.23109929637022478,-0.4175988798463006,0.2254865392962888,0.964685124032009,-0.044709937279777255
11153,5.0,299.4791,2804.1576,0.0,0.0,0.0,0.0,0.11115982728835362,0.0,-0.2164425222162138,-0.2431222180817948,-0.3928291502867186,0.2202836621528048,0.9199870245531501,-0.06087678338907074
11154,5.0,300.12615,3152.6277,0.0,0.0,0.0,0.0,0.11116979409793745,0.0,-0.3028935273732637,-0.23761243761552178,-0.41781414483004564,0.18939358788169183,0.9324750381931212,-0.1039407353981519
11155,5.0,300.3569,3112.616,0.0,0.0,0.0,0.0,0.11117976090752126,0.0,-0.30200535286560776,-0.27098544072668074,-0.3731667382536897,0.21844717674405778,0.9390925543312191,-0.1029579841261619
11156,5.0,300.52525,2875.1326,0.0,0.0,0.0,0.0,0.11118972771710509,0.0,-0.28102445927245473,-0.2391948708266958,-0.3537491679748247,0.20289083915126682,0.9478479673853111,-0.1114425554285239
11157,5.0,301.29413,2896.5485,0.0,0.0,0.0,0.0,0.1111996945266889,0.0,-0.25306818987088575,-0.26009474494185275,-0.36731548237121564,0.1962164695500578,0.9168052571191342,-0.08109432576763682
11158,5.0,301.41354,2935.1482,0.0,0.0,0.0,0.0,0.11120966133627273,0.0,-0.22495645750647378,-0.26541631420205075,-0.4018389904409206,0.1987085480385068,0.966995628102538,-0.07993982353744633
11159,5.0,301.01605,2947.0672,0.0,0.0,0.0,0.0,0.11121962814585655,0.0,-0.24397652977110879,-0.22916606584192975,-0.4226922347864756,0.22163677660134679,0.9750707045094862,-0.07773459007280673
11160,5.0,300.60677000000004,2969.7121,0.0,0.0,0.0,0.0,0.11122959495544037,0.0,-0.2592389741723948,-0.26203172449551776,-0.38144761588844867,0.2202250760320228,0.9377292364541702,-0.0915853460637699
11161,5.0,300.1243,2781.304,0.0,0.0,0.0,0.0,0.1112395617650242,0.0,-0.2587126920704548,-0.2359951080709038,-0.3507391666977607,0.22925648828085377,0.9017395453572642,-0.1146459253546719
11162,5.0,300.57899,2924.1063,0.0,0.0,0.0,0.0,0.111249528574608,0.0,-0.27689503954991274,-0.23363259387274177,-0.3783276668430336,0.21839058672597278,0.9331121597235,-0.08229594919372783
11163,5.0,299.85303,3172.6945,0.0,0.0,0.0,0.0,0.11125949538419183,0.0,-0.2873114430954317,-0.26326905485513274,-0.4138394281327716,0.22851279310495679,0.963037548971906,-0.08933912663258532
11164,5.0,299.44888,3219.5818,0.0,0.0,0.0,0.0,0.11126946219377565,0.0,-0.26664516365832874,-0.26635983243016875,-0.4456674781539556,0.19281247610410981,0.9651917288170071,-0.05273371992691295
11165,5.0,299.50289,2862.1645,0.0,0.0,0.0,0.0,0.11127942900335946,0.0,-0.2234904872617938,-0.2443565897511178,-0.4021794728720236,0.18060910468223082,0.9540373042961511,-0.101123414773354
11166,5.0,300.26082,2857.4122,0.0,0.0,0.0,0.0,0.1112893958129433,0.0,-0.24052235004770775,-0.24504167854123074,-0.38301792049592565,0.2023869296115348,0.9728482620051481,-0.0894384332483861
11167,5.0,300.45149,3084.6262,0.0,0.0,0.0,0.0,0.11129936262252711,0.0,-0.2876917057254607,-0.24395332634381875,-0.4060043197470066,0.24637602759792077,0.974879200240586,-0.07929444807175273
11168,5.0,300.83203,2938.0690000000004,0.0,0.0,0.0,0.0,0.11130932943211094,0.0,-0.27944825754939573,-0.25003025328856476,-0.3636211117116096,0.26716087756172574,0.9216341537832091,-0.08975977031884962
11169,5.0,301.07145,2850.2307,0.0,0.0,0.0,0.0,0.11131929624169475,0.0,-0.2420957045379858,-0.24773546472708677,-0.37656779327434764,0.24670003458239775,0.9038005872531731,-0.05930913653660604
11170,5.0,301.6881,2897.36,0.0,0.0,0.0,0.0,0.11132926305127858,0.0,-0.2405276493457308,-0.23715108457998976,-0.40304637926008063,0.2096236428857428,0.9425104090385351,-0.08132388365729241
11171,5.0,301.82176,2881.1125,0.0,0.0,0.0,0.0,0.11133922986086241,0.0,-0.27921471353384675,-0.2202739450843458,-0.37629758987018064,0.2109324985699168,0.9653086477460461,-0.06855357549971114
11172,5.0,301.74527,3027.4120000000003,0.0,0.0,0.0,0.0,0.11134919667044621,0.0,-0.2869934953465527,-0.24421104650675377,-0.38905312180155366,0.18527751266296683,0.9574998635978791,-0.11231611886973789
11173,5.0,300.55397999999997,3205.5453,0.0,0.0,0.0,0.0,0.11135916348003004,0.0,-0.3109261992635267,-0.2800030930391537,-0.3834764364311776,0.2160446290344448,0.9289833378185172,-0.09178895765811482
11174,5.0,300.20748,2924.9327,0.0,0.0,0.0,0.0,0.11136913028961386,0.0,-0.26376712807428876,-0.24182203581847675,-0.3835173413377146,0.23434777619082478,0.952689934975676,-0.13221685745878786
11175,5.0,300.09718,2754.5063,0.0,0.0,0.0,0.0,0.11137909709919767,0.0,-0.2108148804983088,-0.23428152989928677,-0.39220472478009266,0.22356201258635278,0.9706540689135981,-0.08508875423235623
11176,5.0,300.20139,2960.5526,0.0,0.0,0.0,0.0,0.1113890639087815,0.0,-0.23341626497639179,-0.2670025369685987,-0.3995152837215886,0.22634189463320578,0.9322263663535791,-0.10534659964689991
11177,5.0,300.28092000000004,2894.9990000000003,0.0,0.0,0.0,0.0,0.11139903071836532,0.0,-0.26644897817396673,-0.2257788518176378,-0.3877795981483666,0.19938615904288182,0.9321660779726292,-0.06761087699092402
11178,5.0,299.19571,2662.2552,0.0,0.0,0.0,0.0,0.11140899752794915,0.0,-0.23192527758674278,-0.2281688757560148,-0.3491649610773987,0.1900262815091338,0.9576418199368891,-0.092614839576123
11179,5.0,300.71699,2869.7032,0.0,0.0,0.0,0.0,0.11141896433753296,0.0,-0.27023722645533776,-0.22690065140085075,-0.37518024858740767,0.19732400257186283,0.961725582609925,-0.054056421673703454
11180,5.0,299.89653,3206.5446,0.0,0.0,0.0,0.0,0.11142893114711679,0.0,-0.3064022706145497,-0.25026705996943577,-0.4180401502648506,0.2004877037565958,0.9133548568186061,-0.07154775690296383
11181,5.0,299.5631,3354.5308,0.0,0.0,0.0,0.0,0.11143889795670062,0.0,-0.26957533096001374,-0.2974367804172247,-0.45268149932118557,0.21562599462312879,0.9228669447823761,-0.08958317298542082
11182,5.0,300.53792000000004,3221.3509999999997,0.0,0.0,0.0,0.0,0.11144886476628442,0.0,-0.2999540989656647,-0.2565852316304908,-0.4226709362693736,0.24851450206647174,0.9153460148551181,-0.08321792167171943
11183,5.0,300.39287,2942.3769,0.0,0.0,0.0,0.0,0.11145883157586825,0.0,-0.2729705699250977,-0.22832722648164278,-0.3931112999095646,0.23407112851602177,0.974780225970818,-0.07734946485554783
11184,5.0,300.5904,2725.4147,0.0,0.0,0.0,0.0,0.11146879838545207,0.0,-0.25870851748004275,-0.2153052604364748,-0.35444422714592166,0.2176822945085698,0.951917828266975,-0.08049530649401822
11185,5.0,302.12921,3010.5712,0.0,0.0,0.0,0.0,0.1114787651950359,0.0,-0.2928774792072567,-0.23178067666497176,-0.3904803149649066,0.1972584655553948,0.972565453769737,-0.07859204993018143
11186,5.0,300.7222,3062.542,0.0,0.0,0.0,0.0,0.11148873200461971,0.0,-0.25945289153350676,-0.23412500302383876,-0.4373584017689136,0.20803471474142782,0.9440517954881581,-0.08704876496079422
11187,5.0,300.03885,2893.4701,0.0,0.0,0.0,0.0,0.11149869881420353,0.0,-0.2084109851660628,-0.24675083894241176,-0.42438083634312757,0.18497808712591582,0.958059775470638,-0.07549927929219873
11188,5.0,299.85961000000003,2842.1983,0.0,0.0,0.0,0.0,0.11150866562378736,0.0,-0.22971181247829078,-0.24707073213148276,-0.38717475876617363,0.17535576768376684,0.9184513224365881,-0.08706848483424041
11189,5.0,299.53836,3134.2642,0.0,0.0,0.0,0.0,0.11151863243337116,0.0,-0.2981459845597177,-0.27711887662950374,-0.37747320316620464,0.17428254331034781,0.9253439359768361,-0.08312332058938302
11190,5.0,300.20326,3325.9728,0.0,0.0,0.0,0.0,0.111528599242955,0.0,-0.3119456707191407,-0.3056979300725367,-0.39336907073500466,0.2218762785274838,0.9461914453268251,-0.1026019280410219
11191,5.0,299.30091,2969.4398,0.0,0.0,0.0,0.0,0.11153856605253883,0.0,-0.28417848391873274,-0.25218275113849975,-0.3662743070984596,0.2344024410337198,0.9789344399233071,-0.08322426867034582
11192,5.0,299.02903,2763.9307,0.0,0.0,0.0,0.0,0.11154853286212263,0.0,-0.18811403539040983,-0.25175619311140174,-0.4002956889486086,0.22651865611315075,0.9382689542524362,-0.1071980912896279
11193,5.0,299.7768,2793.1906,0.0,0.0,0.0,0.0,0.11155849967170646,0.0,-0.21724358761277282,-0.23594719147367477,-0.3958694274767706,0.2243449104086188,0.9247165720449201,-0.08512004542194442
11194,5.0,301.08928,2927.482,0.0,0.0,0.0,0.0,0.11156846648129028,0.0,-0.25577378042040677,-0.24886933211899076,-0.3852383162350616,0.24894149579111277,0.9104061166425882,-0.09827757723774172
11195,5.0,301.43725,2982.877,0.0,0.0,0.0,0.0,0.11157843329087411,0.0,-0.3059792994928057,-0.22585047846720677,-0.3748903374687957,0.22797760453463778,0.9470930757958091,-0.08993250919589761
11196,5.0,301.01705,2893.2263,0.0,0.0,0.0,0.0,0.11158840010045792,0.0,-0.29626351786143273,-0.22465241154896676,-0.3585526117963877,0.2092102976399488,0.928296465708228,-0.07316326766365233
11197,5.0,300.74905,3035.9451,0.0,0.0,0.0,0.0,0.11159836691004174,0.0,-0.3028508492790517,-0.24343544408520776,-0.3765652094865926,0.1904459798330548,0.9631379215268121,-0.08748022711837622
11198,5.0,299.61162,3417.5369,0.0,0.0,0.0,0.0,0.11160833371962557,0.0,-0.27362859480503976,-0.2992180538280227,-0.46599923307054353,0.2173525119985228,0.9809230344370661,-0.05472781030921435
11199,5.0,300.8832,3466.3038,0.0,0.0,0.0,0.0,0.11161830052920937,0.0,-0.3035457463301327,-0.2933500286563937,-0.45677403674008754,0.22554962424751476,1.001302513433364,-0.07242984076426873
11200,5.0,300.6919,3028.9216,0.0,0.0,0.0,0.0,0.1116282673387932,0.0,-0.27202885528215776,-0.23825932687686474,-0.4104283622011256,0.2220118108608598,0.9247758978382752,-0.053311352530670854
11201,5.0,299.20898,2701.664,0.0,0.0,0.0,0.0,0.11163823414837704,0.0,-0.2574028028711788,-0.2265684877530688,-0.3372670946931707,0.19144514575666483,0.8992804582920713,-0.0975559425430219
11202,5.0,299.83974,2892.6991,0.0,0.0,0.0,0.0,0.11164820095796084,0.0,-0.27398161113987973,-0.23557795300473375,-0.36974874169135963,0.2336300506149908,0.8936008773740401,-0.060201464356421944
11203,5.0,299.86376,3068.3019,0.0,0.0,0.0,0.0,0.11165816776754467,0.0,-0.2881607087992477,-0.23780142902417375,-0.4067250344106356,0.22494395400023978,0.953845870954758,-0.09168125829173572
11204,5.0,299.30312000000004,2943.844,0.0,0.0,0.0,0.0,0.11166813457712849,0.0,-0.22411371713330178,-0.24387361395845178,-0.42686772699106457,0.2263161580806658,0.9479949899748211,-0.07973163103939933
11205,5.0,300.99915,2902.0633,0.0,0.0,0.0,0.0,0.11167810138671232,0.0,-0.2458693620179168,-0.23582199429131875,-0.4004634021051606,0.19530294352489982,0.970096933346113,-0.09004480466473032
11206,5.0,301.02347000000003,2970.3564,0.0,0.0,0.0,0.0,0.11168806819629613,0.0,-0.25042052682958177,-0.2502661683093478,-0.4022274806617616,0.23777499332906477,0.9609088928968241,-0.11548714585269389
11207,5.0,300.35116,3062.0657,0.0,0.0,0.0,0.0,0.11169803500587995,0.0,-0.3064853773877517,-0.2527537479673527,-0.37155239779686666,0.2201442389390448,0.993108714512199,-0.10327751254519689
11208,5.0,301.05317,3232.9168,0.0,0.0,0.0,0.0,0.11170800181546378,0.0,-0.3213892933736537,-0.27956420375833874,-0.3817724841355106,0.22903695751418776,0.939074214504409,-0.1126903019991669
11209,5.0,300.23652000000004,3041.1509,0.0,0.0,0.0,0.0,0.11171796862504758,0.0,-0.28020859029193473,-0.26421525819601577,-0.38001006730907366,0.18885258325579882,0.9423786257305291,-0.08338851448505563
11210,5.0,299.51036,2795.3747,0.0,0.0,0.0,0.0,0.11172793543463141,0.0,-0.18825720762953982,-0.26321121853942475,-0.39825569225727664,0.1910952502321328,0.9530942724280811,-0.1068458247598619
11211,5.0,299.87077,2902.0147,0.0,0.0,0.0,0.0,0.11173790224421525,0.0,-0.22912641736551678,-0.2273030332805628,-0.4257105548468606,0.2106208431041588,0.9614827369584581,-0.04507141323970216
11212,5.0,300.04876,3120.059,0.0,0.0,0.0,0.0,0.11174786905379905,0.0,-0.26389783733718875,-0.2577595479663867,-0.42676265295569454,0.21371391062442083,0.9340337410869531,-0.08291187961151543
11213,5.0,300.42122,3165.4616,0.0,0.0,0.0,0.0,0.11175783586338288,0.0,-0.32894243452159067,-0.23102072895747078,-0.4022581213447856,0.2076831777517338,0.9277574774500342,-0.07872819527986792
11214,5.0,299.84975,3103.8704,0.0,0.0,0.0,0.0,0.1117678026729667,0.0,-0.3192130145438717,-0.22945534874547976,-0.39483072453425866,0.25668742803557676,0.9362352194467222,-0.0871302951168406
11215,5.0,298.91885,3115.1372,0.0,0.0,0.0,0.0,0.11177776948255053,0.0,-0.2887246635399057,-0.23753690995306775,-0.42066236046364264,0.24308729135084778,0.9702355459597931,-0.07675677839505422
11216,5.0,298.79794,3044.7931,0.0,0.0,0.0,0.0,0.11178773629213434,0.0,-0.24959208341532074,-0.23628647826965976,-0.4396625324963136,0.2541475342749087,0.947199862223848,-0.08505857052512733
11217,5.0,298.74481000000003,2954.5668,0.0,0.0,0.0,0.0,0.11179770310171816,0.0,-0.24121199846327077,-0.24288471225835478,-0.4140178209453776,0.22438703121527578,0.946251470262749,-0.0878156828157331
11218,5.0,299.16094,2853.0531,0.0,0.0,0.0,0.0,0.11180766991130199,0.0,-0.25230809017586975,-0.2360314432194898,-0.3789173682687327,0.2073664155054718,0.9555980134251811,-0.09093139343597982
11219,5.0,298.7937,2849.237,0.0,0.0,0.0,0.0,0.1118176367208858,0.0,-0.28346169053299075,-0.24601767143505376,-0.3366175507165657,0.1948145671092008,0.9657104014106961,-0.1041025818366249
11220,5.0,299.32592,2858.9133,0.0,0.0,0.0,0.0,0.11182760353046962,0.0,-0.2880997719382338,-0.24823767200665078,-0.3327008121900137,0.1867571516514958,0.9303818965340441,-0.1035172981813619
11221,5.0,299.70166,3245.9757,0.0,0.0,0.0,0.0,0.11183757034005345,0.0,-0.2995135175571827,-0.2844115517067347,-0.40277050165535366,0.18885192464323383,0.9493906406625611,-0.09420567769687652
11222,5.0,300.753,3127.4446,0.0,0.0,0.0,0.0,0.11184753714963726,0.0,-0.24791831584013277,-0.26367204468490474,-0.4390747157158006,0.19856403830924482,0.9755688587886502,-0.09835810934243959
11223,5.0,299.96536000000003,2726.9907,0.0,0.0,0.0,0.0,0.11185750395922109,0.0,-0.2182180403664438,-0.2265449398207448,-0.38417409965503163,0.22442283947380978,0.993701709000723,-0.07022268313768923
11224,5.0,299.64849,2981.4374,0.0,0.0,0.0,0.0,0.1118674707688049,0.0,-0.2432822913325928,-0.25420775172835175,-0.4087924699146756,0.19504575025201681,0.947269523168223,-0.08721165200711992
11225,5.0,300.03391,3314.3512,0.0,0.0,0.0,0.0,0.11187743757838874,0.0,-0.34582838929310467,-0.2580644653189797,-0.4035871508384506,0.22550219401033378,0.9286875599818261,-0.07118427065484052
11226,5.0,298.95501,3101.2729,0.0,0.0,0.0,0.0,0.11188740438797255,0.0,-0.28677349848484074,-0.2686728696259477,-0.38726315470489764,0.23727660600237777,0.945701478108469,-0.12984679454738088
11227,5.0,299.20991000000004,2938.0938,0.0,0.0,0.0,0.0,0.11189737119755637,0.0,-0.27245356919407376,-0.24766436496756977,-0.37298921683616965,0.2535984236482158,0.9352476856342602,-0.09365092124062631
11228,5.0,299.99372,2971.7626,0.0,0.0,0.0,0.0,0.1119073380071402,0.0,-0.23126829635440377,-0.2672492228379447,-0.4048240961630276,0.2290313643736358,0.9149553968090672,-0.1080500522387099
11229,5.0,300.56951000000004,2988.2286,0.0,0.0,0.0,0.0,0.111917304816724,0.0,-0.25914948392356274,-0.26006018298094175,-0.38913721142735264,0.20710858388502582,0.927411037108343,-0.06856757557634284
11230,5.0,299.84174,3103.4131,0.0,0.0,0.0,0.0,0.11192727162630783,0.0,-0.27122017024484674,-0.26415977262053975,-0.40798012704450365,0.1991428776938718,0.9782540019511531,-0.06554915824394823
11231,5.0,300.13101,2997.0533,0.0,0.0,0.0,0.0,0.11193723843589166,0.0,-0.3227350820239727,-0.2151747335585928,-0.3731195511965326,0.1965010509731438,0.982070023417765,-0.061563195483814344
11232,5.0,300.6445,2787.5002,0.0,0.0,0.0,0.0,0.11194720524547547,0.0,-0.26812475198435276,-0.22441714500824778,-0.35478855992740466,0.17583440676600484,0.97254369929009,-0.06509393131852084
11233,5.0,300.90637000000004,2919.8106,0.0,0.0,0.0,0.0,0.1119571720550593,0.0,-0.2721776713243447,-0.2379725467010618,-0.3773992865714096,0.17538313556896784,0.9369864228058602,-0.09599652328136922
11234,5.0,299.92736,3249.5774,0.0,0.0,0.0,0.0,0.11196713886464311,0.0,-0.28124817476203373,-0.2705392256476427,-0.43600298724264464,0.23638012284390175,0.9560736228896202,-0.07930933474222193
11235,5.0,299.53443,3069.0741,0.0,0.0,0.0,0.0,0.11197710567422695,0.0,-0.24825340778070376,-0.25629046704389974,-0.42837802692761956,0.23848839232697178,0.9475664662425292,-0.09206171445253382
11236,5.0,299.89187999999996,2770.2685,0.0,0.0,0.0,0.0,0.11198707248381076,0.0,-0.22857589832118477,-0.24146326422306877,-0.37205329798380166,0.24181812467309077,0.9402457646675322,-0.06670173225919844
11237,5.0,299.39004,2952.6867,0.0,0.0,0.0,0.0,0.11199703929339458,0.0,-0.2978467616726867,-0.24687001741917375,-0.35282623898873866,0.23656688510233378,0.93958155896198,-0.06798880914572303
11238,5.0,300.99699,3153.5585,0.0,0.0,0.0,0.0,0.11200700610297841,0.0,-0.3089903444174727,-0.24689387945902877,-0.40271880563525164,0.2345661721173788,0.993918169619586,-0.08479334116570121
11239,5.0,299.18071000000003,2881.2532,0.0,0.0,0.0,0.0,0.11201697291256221,0.0,-0.24725363390703375,-0.25950891413153576,-0.36906649000152664,0.21321273685995878,0.965189033571741,-0.10074095136410781
11240,5.0,299.18027,2742.7946,0.0,0.0,0.0,0.0,0.11202693972214604,0.0,-0.20436492552924782,-0.24071992368470677,-0.3886562114723816,0.19194627899112282,0.930977089775285,-0.10579098074325691
11241,5.0,300.03978,2933.8678,0.0,0.0,0.0,0.0,0.11203690653172987,0.0,-0.24645580077829377,-0.26274359348577375,-0.38262316838946664,0.18078213740180785,0.8987664263838401,-0.09213352754012122
11242,5.0,299.73562999999996,3025.3569,0.0,0.0,0.0,0.0,0.11204687334131368,0.0,-0.2603062406352257,-0.2845838447537387,-0.37474286904924164,0.2097124542570078,0.952870455613492,-0.08425511689808263
11243,5.0,300.3421,3086.188,0.0,0.0,0.0,0.0,0.11205684015089751,0.0,-0.3228134366542057,-0.2394135099332738,-0.3758971432981596,0.2183440785463828,0.9491018339865581,-0.054732135873891245
11244,5.0,300.89378,3145.4765,0.0,0.0,0.0,0.0,0.11206680696048132,0.0,-0.27267723402114774,-0.2834247778318477,-0.4000442914662976,0.21131719923538378,0.9513592842818511,-0.08484834950038012
11245,5.0,301.35378,2888.8383,0.0,0.0,0.0,0.0,0.11207677377006516,0.0,-0.26089021719785976,-0.21971644474682478,-0.3975280469629636,0.23160953872308176,0.944802198379717,-0.08694080518913942
11246,5.0,300.41377,3135.6574,0.0,0.0,0.0,0.0,0.11208674057964897,0.0,-0.2647200999258397,-0.26558732042142774,-0.4228541420199546,0.2294342224808948,0.9690503878478272,-0.1182474620401159
11247,5.0,299.50347999999997,3357.8466,0.0,0.0,0.0,0.0,0.11209670738923279,0.0,-0.3102493988592317,-0.26705228754850874,-0.4433998345626566,0.2341968931184338,0.9345298688659172,-0.0960844399527959
11248,5.0,299.54267999999996,2857.3556,0.0,0.0,0.0,0.0,0.11210667419881662,0.0,-0.2739173001560328,-0.2215448140222708,-0.37310265018486466,0.2322319681270108,0.9179052718251971,-0.08008508003203202
11249,5.0,300.94211,2780.4606,0.0,0.0,0.0,0.0,0.11211664100840042,0.0,-0.27167392390462874,-0.24329526093387274,-0.33022140946031564,0.22762740503507578,0.9180921860711441,-0.08205549075949642
11250,5.0,300.07724,2999.3299,0.0,0.0,0.0,0.0,0.11212660781798425,0.0,-0.27421989716589673,-0.22781633564872175,-0.4096851635177776,0.2076175596752578,0.9712173346441881,-0.07646349416685932
11251,5.0,300.04526,3165.9035,0.0,0.0,0.0,0.0,0.11213657462756808,0.0,-0.27702534351277275,-0.25411538384923577,-0.4312148840275956,0.19798099393670282,0.9510780769815982,-0.07880682146112773
11252,5.0,299.80661000000003,3086.53,0.0,0.0,0.0,0.0,0.11214654143715189,0.0,-0.2348342476963358,-0.25676005780274475,-0.4466337235818166,0.1878488881042418,0.9404173991019712,-0.094176470762744
11253,5.0,299.26301,3161.1071,0.0,0.0,0.0,0.0,0.11215650824673572,0.0,-0.27397166102389775,-0.27183161601769174,-0.4150943383816216,0.2147646307131188,0.9281431609680981,-0.11723973415316088
11254,5.0,299.49669,3014.2358,0.0,0.0,0.0,0.0,0.11216647505631953,0.0,-0.29584609935023676,-0.24360800057723778,-0.37679830767209765,0.23108377337869276,0.9550032964114872,-0.08007399507593801
11255,5.0,299.25517,2911.2154,0.0,0.0,0.0,0.0,0.11217644186590336,0.0,-0.2956546153463387,-0.23647023117529478,-0.3528119318973267,0.2201936855439248,0.9651668636595532,-0.0941280181562121
11256,5.0,299.7688,3024.4158,0.0,0.0,0.0,0.0,0.11218640867548717,0.0,-0.2942373115039617,-0.2179538151378668,-0.40715574676314364,0.18215428068722783,0.9630679768724091,-0.08822821442169682
11257,5.0,299.99516,2861.7477,0.0,0.0,0.0,0.0,0.112196375485071,0.0,-0.24323806296572775,-0.2419023561539038,-0.38475942384029865,0.20201417516474682,0.9528565031596151,-0.11992009477519189
11258,5.0,300.85402,2564.999,0.0,0.0,0.0,0.0,0.11220634229465482,0.0,-0.18059581084091883,-0.21643636165560579,-0.38266348561094565,0.2114671399851818,0.992420160406744,-0.12094984058681989
11259,5.0,300.32631000000003,2862.2328,0.0,0.0,0.0,0.0,0.11221630910423863,0.0,-0.24658999562153777,-0.24515135273205477,-0.37830595289339064,0.2318957818763318,0.9581354145906031,-0.1121287891912499
11260,5.0,298.83533,3290.8945,0.0,0.0,0.0,0.0,0.11222627591382246,0.0,-0.3271527815324657,-0.2644411623058107,-0.4087558206585586,0.24151277162295479,0.9338590061072082,-0.06619352045954184
11261,5.0,300.15042,3180.6079999999997,0.0,0.0,0.0,0.0,0.11223624272340628,0.0,-0.3078618067210947,-0.25824838034463077,-0.4007152251525136,0.22172898236044677,0.9099173247943482,-0.06974432675222914
11262,5.0,300.06792,3086.6621,0.0,0.0,0.0,0.0,0.1122462095329901,0.0,-0.23855653339619678,-0.2753833717257227,-0.4243282993254425,0.21991820310673676,0.9532104922145511,-0.07245821683331924
11263,5.0,300.19857,3010.4427,0.0,0.0,0.0,0.0,0.11225617634257391,0.0,-0.2595289258210107,-0.2212505357957278,-0.43431992816403964,0.1997879937675398,0.9589684581603181,-0.08002399928950382
11264,5.0,300.48924,3130.6379,0.0,0.0,0.0,0.0,0.11226614315215774,0.0,-0.23988823787012578,-0.2500394637319738,-0.46170803783703557,0.16254276420672184,0.974455317193752,-0.09371382887308481
11265,5.0,300.97618,3149.4225,0.0,0.0,0.0,0.0,0.11227610996174155,0.0,-0.3105073419371887,-0.25196477064448675,-0.3948736762059976,0.17791078926842782,0.9482190094394302,-0.13344293060979187
11266,5.0,300.13503,3193.0429,0.0,0.0,0.0,0.0,0.11228607677132538,0.0,-0.33206286992705364,-0.25895383546175377,-0.3795886160624796,0.21932598882078977,0.979272987046719,-0.07441239529418163
11267,5.0,301.46976,2933.3833,0.0,0.0,0.0,0.0,0.1122960435809092,0.0,-0.2923816554033227,-0.23942323713423377,-0.3598703942139426,0.2336642984683708,0.9582446834813871,-0.0913194043895235
11268,5.0,300.31241,2676.9969,0.0,0.0,0.0,0.0,0.11230601039049302,0.0,-0.19947310603396282,-0.2145253719670058,-0.3997417248539366,0.2266030294489778,0.9359665055202021,-0.06618096021130224
11269,5.0,299.31939,3112.1325,0.0,0.0,0.0,0.0,0.11231597720007683,0.0,-0.2423482469929098,-0.27213096049473473,-0.43153136256382957,0.23265718866397678,0.9435246521236331,-0.1098342539422969
11270,5.0,299.85693,3480.8496,0.0,0.0,0.0,0.0,0.11232594400966066,0.0,-0.2601062959929928,-0.3158060928051347,-0.4821789525223576,0.2396121069528738,0.967144282024709,-0.08178306631111022
11271,5.0,300.15281,2991.522,0.0,0.0,0.0,0.0,0.11233591081924449,0.0,-0.29115854094261073,-0.26050716813005576,-0.35768227049049167,0.24512849380979876,0.9701595522022931,-0.11314186703873289
11272,5.0,300.44513,2781.4235,0.0,0.0,0.0,0.0,0.11234587762882829,0.0,-0.2793612598958097,-0.2300936152484718,-0.33602841671092265,0.2066878621785038,0.9597157199765671,-0.07333118347022433
11273,5.0,300.59334,3017.928,0.0,0.0,0.0,0.0,0.11235584443841212,0.0,-0.2959726846852297,-0.26206444234124676,-0.35933763744386366,0.18144455978718382,0.9422412492819712,-0.07538462801688352
11274,5.0,299.81389,2903.8444,0.0,0.0,0.0,0.0,0.11236581124799594,0.0,-0.25549105324500376,-0.22918741502153678,-0.3980177203387906,0.18406854317365082,0.9802571264713461,-0.0972934013361111
11275,5.0,299.13178999999997,2922.3297,0.0,0.0,0.0,0.0,0.11237577805757976,0.0,-0.21414989187744882,-0.27401271791794973,-0.4001526686969936,0.2084244512598918,0.9745085229565031,-0.0943267772958281
11276,5.0,300.17328,3072.9590000000003,0.0,0.0,0.0,0.0,0.11238574486716359,0.0,-0.2414992346016188,-0.24469890616490178,-0.4479046634472486,0.2304701896481368,0.9730408605841561,-0.10596251385268592
11277,5.0,298.92532,2976.5642,0.0,0.0,0.0,0.0,0.1123957116767474,0.0,-0.2772566887756047,-0.24531233790794277,-0.3822321754408786,0.24274073955164577,0.9374247446666192,-0.09134337687363941
11278,5.0,298.09085,3122.6753,0.0,0.0,0.0,0.0,0.11240567848633123,0.0,-0.3121478647765957,-0.25268163495773577,-0.3843858283959276,0.2361076497595108,0.951386216469509,-0.09210710096426311
11279,5.0,299.04613,3257.6501,0.0,0.0,0.0,0.0,0.11241564529591504,0.0,-0.33065903217850573,-0.2236984061823138,-0.4358868586486836,0.23673608773653276,0.9214214725872191,-0.037397804760875966
11280,5.0,299.38561,2911.4597,0.0,0.0,0.0,0.0,0.11242561210549887,0.0,-0.24293230461555174,-0.2336719485066258,-0.4084067863966116,0.2060850391640098,0.9287027182033221,-0.056187814537305536
11281,5.0,300.61367,2730.199,0.0,0.0,0.0,0.0,0.1124355789150827,0.0,-0.21551744513991578,-0.21231240335110277,-0.4020824643074496,0.2134141304498348,0.9432629600203061,-0.07835986569626663
11282,5.0,300.52423,3395.3939,0.0,0.0,0.0,0.0,0.1124455457246665,0.0,-0.2913923382706847,-0.2988871871403687,-0.4418354473357636,0.20244221253699082,0.9589492064084181,-0.1008573403633445
11283,5.0,299.98375,3510.9965,0.0,0.0,0.0,0.0,0.11245551253425033,0.0,-0.37758664664740066,-0.2880274562785967,-0.4016411533588956,0.24464135355922176,0.9594907176593611,-0.08491703975115933
11284,5.0,299.76696,2953.4145,0.0,0.0,0.0,0.0,0.11246547934383415,0.0,-0.2936037464814337,-0.2491219657664238,-0.35503855912457766,0.19455357414844282,0.947665643162317,-0.1114381376580879
11285,5.0,300.89336000000003,2882.2151,0.0,0.0,0.0,0.0,0.11247544615341797,0.0,-0.25618123868311976,-0.2602957636291917,-0.35964441917664064,0.2204442724261558,0.9583089742002322,-0.08864165491300022
11286,5.0,299.99453,2850.6472,0.0,0.0,0.0,0.0,0.1124854129630018,0.0,-0.22650178549898578,-0.2105697752991188,-0.42945401747381157,0.1984251217205348,0.954361594990656,-0.09542065575928552
11287,5.0,299.22721,2936.5357,0.0,0.0,0.0,0.0,0.11249537977258561,0.0,-0.19127560874993282,-0.2676903007389757,-0.4336676180146616,0.18430455951944383,0.9641634724830261,-0.09547998763214109
11288,5.0,299.25329,2942.5658,0.0,0.0,0.0,0.0,0.11250534658216944,0.0,-0.2232484319454048,-0.24716047569283978,-0.4240576196937286,0.19714458637665583,0.9479624342491082,-0.11414014130225489
11289,5.0,299.62802,2953.2724,0.0,0.0,0.0,0.0,0.11251531339175325,0.0,-0.28511969193662273,-0.23134843430481278,-0.3812529502792366,0.2245840475647198,0.9486138122083941,-0.09444857401084851
11290,5.0,298.88156000000004,2853.4026,0.0,0.0,0.0,0.0,0.11252528020133708,0.0,-0.2513562531644308,-0.26231077357305776,-0.3536961040670876,0.25420155063773975,0.9625282692066441,-0.10299929433273891
11291,5.0,298.56313,3072.6429,0.0,0.0,0.0,0.0,0.11253524701092091,0.0,-0.2965465084818617,-0.24606510167223478,-0.39139510755268964,0.2397269791167108,0.9379872403271332,-0.06263201120604824
11292,5.0,299.14727,3457.6549,0.0,0.0,0.0,0.0,0.11254521382050471,0.0,-0.3062765465421417,-0.2951769287191947,-0.4495872766958096,0.24529992559421776,0.9284041843263592,-0.05590322703471895
11293,5.0,299.37467999999996,3223.3482,0.0,0.0,0.0,0.0,0.11255518063008854,0.0,-0.26787932254513075,-0.29352363892852773,-0.41841441445428756,0.2232012550207488,0.9384249339728301,-0.09897520803759251
11294,5.0,299.84626000000003,2905.1312,0.0,0.0,0.0,0.0,0.11256514743967236,0.0,-0.27263567050204573,-0.23598726551512977,-0.37446438739175764,0.2187826131896628,0.9429537059572851,-0.0877559719873401
11295,5.0,300.22616,3031.5,0.0,0.0,0.0,0.0,0.11257511424925618,0.0,-0.3311534374322997,-0.24201262816228677,-0.3483342378504127,0.2038633059347418,0.9647786368837381,-0.10395859899741491
11296,5.0,300.31133,3016.5,0.0,0.0,0.0,0.0,0.11258508105884,0.0,-0.29470570662768875,-0.2204276956545198,-0.40180728584529163,0.17954311491452585,0.9558770219727172,-0.07594042001473593
11297,5.0,300.2634,2744.3968,0.0,0.0,0.0,0.0,0.11259504786842382,0.0,-0.25435769247814977,-0.19886827678427083,-0.3810021202169816,0.2018237652059548,0.998492477063535,-0.0966407649202009
11298,5.0,300.36966,2894.5309,0.0,0.0,0.0,0.0,0.11260501467800765,0.0,-0.2090409227532328,-0.2317104381680398,-0.4391137562421536,0.2077135347247298,0.9640117990755571,-0.06383771701679214
11299,5.0,299.97628,3169.5908,0.0,0.0,0.0,0.0,0.11261498148759146,0.0,-0.25995310271037375,-0.26157812282325077,-0.44194524311659955,0.22563092743553878,0.975637678735442,-0.06884222714844883
11300,5.0,300.38163,3347.5952,0.0,0.0,0.0,0.0,0.11262494829717529,0.0,-0.2950197837611857,-0.3110544665936857,-0.4115110908604826,0.23774111024572075,0.9244874863298111,-0.09129218342558701
11301,5.0,300.37962000000005,3406.4855,0.0,0.0,0.0,0.0,0.11263491510675912,0.0,-0.3324916571043717,-0.30648642103535473,-0.39650846404983864,0.2263235548063958,0.931374314211988,-0.09732822370229781
11302,5.0,300.30877000000004,3312.6154,0.0,0.0,0.0,0.0,0.11264488191634292,0.0,-0.30255079552693875,-0.2969067087599107,-0.4074948815716136,0.2260748728343528,0.9322533694687442,-0.08343796311643582
11303,5.0,299.4771,2854.5712,0.0,0.0,0.0,0.0,0.11265484872592675,0.0,-0.2598058572058417,-0.25263778149340776,-0.3552747375903867,0.2016202843208728,0.9498962929924651,-0.1022172172430539
11304,5.0,299.52017,2775.2490000000003,0.0,0.0,0.0,0.0,0.11266481553551057,0.0,-0.2064869549486758,-0.24857711079015077,-0.38854232216114165,0.2140480399773968,0.9506538595622311,-0.1036478554567469
11305,5.0,300.08463,3031.6462,0.0,0.0,0.0,0.0,0.11267478234509438,0.0,-0.2719278646446907,-0.27386444903081675,-0.37575243091887767,0.1958906589804028,0.96145124514535,-0.1231024093642619
11306,5.0,300.17485,2789.0598,0.0,0.0,0.0,0.0,0.11268474915467822,0.0,-0.24683111874783475,-0.22774460767414278,-0.3732288200873166,0.2380840954045708,0.9765617222966381,-0.09193388889941842
11307,5.0,299.38976,2633.9198,0.0,0.0,0.0,0.0,0.11269471596426203,0.0,-0.23301318395411075,-0.22136627935465078,-0.34626639704633266,0.2113593403070428,1.005678365712727,-0.11369163627799089
11308,5.0,298.90897,3129.9638,0.0,0.0,0.0,0.0,0.11270468277384586,0.0,-0.26247937838969776,-0.26092730215151977,-0.42802415946269556,0.24226484637717877,0.9745542610660171,-0.05849589390034524
11309,5.0,299.16345,3382.3257,0.0,0.0,0.0,0.0,0.11271464958342967,0.0,-0.30149188837743274,-0.27223922626791974,-0.45441144148191753,0.2208759980287638,0.9916810552538001,-0.08392018403777732
11310,5.0,299.64029,3319.6083,0.0,0.0,0.0,0.0,0.1127246163930135,0.0,-0.28541962409872373,-0.27896721706442074,-0.44469118128510254,0.17669783770621883,0.9486846383903842,-0.05435114370379025
11311,5.0,299.96927999999997,3327.9543,0.0,0.0,0.0,0.0,0.11273458320259733,0.0,-0.32556416749568173,-0.28124107187883274,-0.4048097586741126,0.21210947975357577,0.9461574102559661,-0.05423733747905845
11312,5.0,300.83288,3083.5719,0.0,0.0,0.0,0.0,0.11274455001218113,0.0,-0.3079484700021477,-0.25219373476958373,-0.3771866661704257,0.2138832753786358,0.9132401974372901,-0.06299874796049233
11313,5.0,299.73457,2832.7966,0.0,0.0,0.0,0.0,0.11275451682176496,0.0,-0.2534920222552147,-0.26013159684798975,-0.34747582249819364,0.23416269592755878,0.954927089871466,-0.1044350899894409
11314,5.0,299.50158,2944.8893,0.0,0.0,0.0,0.0,0.11276448363134878,0.0,-0.26348829177926975,-0.2206283394393218,-0.4110561922280876,0.2399256977263228,0.9402931138447052,-0.06625428608128894
11315,5.0,300.32878,2961.0255,0.0,0.0,0.0,0.0,0.1127744504409326,0.0,-0.23818697068722378,-0.24001718407785175,-0.42187366042818863,0.21923217199403078,0.986371817247319,-0.08483121949418951
11316,5.0,300.29683,2699.8166,0.0,0.0,0.0,0.0,0.11278441725051642,0.0,-0.1979757756986878,-0.2301205170386268,-0.3925805392421826,0.21272733939955377,0.976171083985585,-0.1097360700076069
11317,5.0,299.06994,2889.2021,0.0,0.0,0.0,0.0,0.11279438406010024,0.0,-0.25652830723987274,-0.25045665932814776,-0.37126034872054364,0.18386160710572783,0.9604439428234371,-0.11733557748011988
11318,5.0,299.84,3330.6062,0.0,0.0,0.0,0.0,0.11280435086968407,0.0,-0.3266785602206637,-0.2794730011168377,-0.4062695683581846,0.2343365797772198,0.959133506469107,-0.1032862670260609
11319,5.0,299.21483,3250.1568,0.0,0.0,0.0,0.0,0.11281431767926788,0.0,-0.2789856683487418,-0.27461445675483676,-0.43436637554862356,0.18324998908036583,0.9685591439343452,-0.07095424768338904
11320,5.0,299.25351,3150.6258,0.0,0.0,0.0,0.0,0.1128242844888517,0.0,-0.2658891676262177,-0.28938311398488975,-0.40243930059516664,0.2298418732611268,0.9527449341911042,-0.08742435346811192
11321,5.0,300.2447,3194.2858,0.0,0.0,0.0,0.0,0.11283425129843554,0.0,-0.24756488407275176,-0.2728660126472787,-0.45055221503104154,0.18963569386058582,0.9502817130655031,-0.05943422124820095
11322,5.0,299.30206,2884.5091,0.0,0.0,0.0,0.0,0.11284421810801934,0.0,-0.2563248567522938,-0.22938264805080477,-0.39111124553717463,0.22682656255353878,0.971159518593482,-0.08748903732799572
11323,5.0,299.1662,2903.073,0.0,0.0,0.0,0.0,0.11285418491760317,0.0,-0.2663650101381797,-0.22831291939023077,-0.3877837727387786,0.22823431144747278,0.9784076815938202,-0.06009306787397404
11324,5.0,300.43821,3085.0358,0.0,0.0,0.0,0.0,0.11286415172718699,0.0,-0.32118853813134074,-0.21954496229990078,-0.39704034942483163,0.22506068041175978,0.9463727968297232,-0.09809425597664931
11325,5.0,300.78175,2897.5979,0.0,0.0,0.0,0.0,0.11287411853677082,0.0,-0.24561739711554975,-0.2516529530587127,-0.3835270381411717,0.23611213845745374,0.951245719210643,-0.1093634675483339
11326,5.0,300.50427,2803.5125,0.0,0.0,0.0,0.0,0.11288408534635463,0.0,-0.24610050463072877,-0.2145563774200658,-0.39154091424207965,0.21126129822736678,0.9242564855720131,-0.1048897657068139
11327,5.0,300.36883,3273.3012,0.0,0.0,0.0,0.0,0.11289405215593845,0.0,-0.2725008778412427,-0.2553705575431118,-0.46713039508468057,0.22085213598890877,0.951152520466445,-0.07988897864742833
11328,5.0,300.52561000000003,3445.4272,0.0,0.0,0.0,0.0,0.11290401896552228,0.0,-0.32297496898514766,-0.28788814452234773,-0.43646071284281857,0.2043118616215108,0.9404980639424321,-0.0907348512875826
11329,5.0,300.08307,3175.6351,0.0,0.0,0.0,0.0,0.11291398577510608,0.0,-0.3032033691213427,-0.27027292325636076,-0.39183748241384864,0.22187579216743578,0.9828610576383341,-0.0916465625818115
11330,5.0,299.22811,3117.7034,0.0,0.0,0.0,0.0,0.11292395258468992,0.0,-0.3173327263333017,-0.25670484580479574,-0.37366641240800363,0.21773073799585077,0.9782791812161381,-0.07937276926473243
11331,5.0,299.14985,3128.4316,0.0,0.0,0.0,0.0,0.11293391939427375,0.0,-0.29447979238539274,-0.24683560744577776,-0.4096496997642776,0.21944435669747178,0.991231050619388,-0.058748259036501736
11332,5.0,298.41434,2876.2042,0.0,0.0,0.0,0.0,0.11294388620385755,0.0,-0.23623280641186276,-0.2344764690860258,-0.40358497235073565,0.2141717375496048,0.976188299104784,-0.06916446803800153
11333,5.0,298.81637,3020.4736,0.0,0.0,0.0,0.0,0.11295385301344138,0.0,-0.2255671230767418,-0.26540746852867775,-0.4271739514362866,0.1926405275621398,0.972613046126934,-0.0975298472999465
11334,5.0,300.34976,2972.9568,0.0,0.0,0.0,0.0,0.1129638198230252,0.0,-0.26564296811691973,-0.2259090848529908,-0.4121525997637946,0.22558851278635278,0.957920919676934,-0.08697926816293541
11335,5.0,299.88761,2681.02,0.0,0.0,0.0,0.0,0.11297378663260903,0.0,-0.2608784432316978,-0.21550773820395777,-0.33857695349494366,0.22489055571996983,0.9519298150156581,-0.1054770961272789
11336,5.0,300.81436,3068.0972,0.0,0.0,0.0,0.0,0.11298375344219284,0.0,-0.28954733142859673,-0.26691725170768177,-0.37616033501163465,0.2214308639160248,0.955028617531486,-0.12532928990403788
11337,5.0,300.75992,3414.1945,0.0,0.0,0.0,0.0,0.11299372025177666,0.0,-0.3050250813436317,-0.2802343572419777,-0.4525704369777246,0.22528898592429178,0.9311112035585211,-0.10508400575098391
11338,5.0,300.4713,3172.6637,0.0,0.0,0.0,0.0,0.11300368706136049,0.0,-0.23834061993238778,-0.2876283269317057,-0.43844158639081565,0.2215745022502008,0.9266479381930312,-0.08123197174072141
11339,5.0,300.16382999999996,2999.3804,0.0,0.0,0.0,0.0,0.1130136538709443,0.0,-0.24714101115841874,-0.24420201844836276,-0.42039371746462956,0.21608581765100981,0.975293801916504,-0.06982901824858752
11340,5.0,300.578,3213.8437,0.0,0.0,0.0,0.0,0.11302362068052813,0.0,-0.3092910365171487,-0.23897232057473175,-0.42866487803092956,0.22399507567909277,0.981802221416335,-0.06422094745636403
11341,5.0,300.04327,3127.9174,0.0,0.0,0.0,0.0,0.11303358749011196,0.0,-0.31636769680556065,-0.26635464458965674,-0.3680864339748027,0.21255248282979677,1.0055845286209661,-0.07992522766975584
11342,5.0,300.46774,3015.9801,0.0,0.0,0.0,0.0,0.11304355429969576,0.0,-0.28726100350545375,-0.24423800909191476,-0.38528361864703264,0.1979377585549358,0.9641969806638332,-0.07656947708756903
11343,5.0,299.02731,3058.1615,0.0,0.0,0.0,0.0,0.11305352110927959,0.0,-0.2913130514503597,-0.24991965704014976,-0.3883720353493356,0.2284635694150988,0.958259973425396,-0.07781406130464993
11344,5.0,299.17267000000004,3047.1214,0.0,0.0,0.0,0.0,0.1130634879188634,0.0,-0.2588039555069617,-0.24807971644856178,-0.41936515715561856,0.22495837254916276,0.9562641645709251,-0.07747053608349662
11345,5.0,298.87707,2934.46,0.0,0.0,0.0,0.0,0.11307345472844724,0.0,-0.24487255696703975,-0.2422934402950008,-0.40483656927175865,0.23767359739155777,0.9529849022122872,-0.11250871744874591
11346,5.0,299.01142999999996,3118.6724,0.0,0.0,0.0,0.0,0.11308342153803105,0.0,-0.2955497236959867,-0.2726575769692077,-0.37979122555247563,0.24017105623803778,0.950016474586826,-0.0923766812196186
11347,5.0,298.99521,3271.2474,0.0,0.0,0.0,0.0,0.11309338834761487,0.0,-0.3185250987859797,-0.25699219340065477,-0.41886022423328556,0.2220439815515348,0.9704703362729651,-0.09331168612039642
11348,5.0,299.78794,3117.4394,0.0,0.0,0.0,0.0,0.1131033551571987,0.0,-0.28686750782911874,-0.25887664606913574,-0.4018795812399266,0.2243938807859518,0.980559703216208,-0.09719638061253591
11349,5.0,299.44594,2965.3432,0.0,0.0,0.0,0.0,0.1131133219667825,0.0,-0.23799950928622277,-0.2668740264584158,-0.39651673217065464,0.19710160430741383,0.9730106555986751,-0.08862018313013112
11350,5.0,300.01398,3030.4368,0.0,0.0,0.0,0.0,0.11312328877636632,0.0,-0.24540922488250477,-0.24748669156253475,-0.4282812210130656,0.2093093428372238,0.9586760949764641,-0.05167986686890575
11351,5.0,300.09701,3012.9778,0.0,0.0,0.0,0.0,0.11313325558595017,0.0,-0.23698033167313776,-0.26763291025331176,-0.4112567752178836,0.2109190932710938,0.9584844792500531,-0.055784442712245856
11352,5.0,300.28557,3160.3709999999996,0.0,0.0,0.0,0.0,0.11314322239553397,0.0,-0.31313927933694075,-0.2675401877366607,-0.37999439233002663,0.2296584445955238,0.9645577483619381,-0.08320420631836582
11353,5.0,300.62057999999996,3255.1709,0.0,0.0,0.0,0.0,0.1131531892051178,0.0,-0.3017292320808567,-0.27852024204780773,-0.4092411978539616,0.22348496504874876,0.9518688477571411,-0.1010207107299679
11354,5.0,300.61892,2940.1117,0.0,0.0,0.0,0.0,0.11316315601470162,0.0,-0.25710005387379975,-0.2700515483745128,-0.3665689298300367,0.20108982762852082,0.955480415618575,-0.11732830234440189
11355,5.0,300.85501,2847.9343,0.0,0.0,0.0,0.0,0.11317312282428545,0.0,-0.2329966781099818,-0.21596638586172281,-0.41673785030882365,0.21885852588715476,0.9701213729385251,-0.08451860042758642
11356,5.0,300.64419,3256.836,0.0,0.0,0.0,0.0,0.11318308963386926,0.0,-0.2876335350372197,-0.26162342523522175,-0.4407398706651386,0.21092364276404282,0.9869934157861661,-0.10438420456941891
11357,5.0,300.07443,3121.5446,0.0,0.0,0.0,0.0,0.11319305644345308,0.0,-0.27301550756703274,-0.24675694884051477,-0.4290991468912886,0.2175088564889528,0.987214061127942,-0.06380943416675083
11358,5.0,299.97328,2764.3769,0.0,0.0,0.0,0.0,0.11320302325303691,0.0,-0.2862031704010537,-0.19784649511842883,-0.3562518855893237,0.18976070865792383,0.969581391695233,-0.09422520302630351
11359,5.0,299.12399,3026.4712,0.0,0.0,0.0,0.0,0.11321299006262071,0.0,-0.26403224496295374,-0.2510662103233057,-0.4048732083953746,0.2189040309491458,0.95439375554883,-0.06738068176695552
11360,5.0,299.65898,3192.6836,0.0,0.0,0.0,0.0,0.11322295687220454,0.0,-0.2952179754807457,-0.26647539360407374,-0.40880273413818863,0.2296517774098658,0.9673882422512861,-0.0930265342375041
11361,5.0,299.11216,3148.3906,0.0,0.0,0.0,0.0,0.11323292368178836,0.0,-0.2474703073084178,-0.27782136292383375,-0.4317404669869666,0.23735861846547177,0.9428749865570161,-0.07448857650295013
11362,5.0,299.9965,3061.3337,0.0,0.0,0.0,0.0,0.11324289049137218,0.0,-0.24167663442912676,-0.26956707297169874,-0.4193253161616866,0.2078133398595798,0.957738149623896,-0.0994391245958775
11363,5.0,300.53897,2828.4463,0.0,0.0,0.0,0.0,0.11325285730095601,0.0,-0.25533422239452574,-0.22142448044039478,-0.38301835619346863,0.23405453147938377,0.9593306950710682,-0.05284742583988485
11364,5.0,300.71065,2833.2343,0.0,0.0,0.0,0.0,0.11326282411053983,0.0,-0.25730139680117076,-0.24647765658295076,-0.3574534076904047,0.2083314652982148,0.9853370051851911,-0.1070166384617199
11365,5.0,300.85564,3268.4112,0.0,0.0,0.0,0.0,0.11327279092012366,0.0,-0.30828885110824067,-0.27409595641366474,-0.4111305951829306,0.2184814549949408,0.963254688468336,-0.10547783579985191
11366,5.0,300.6126,3181.985,0.0,0.0,0.0,0.0,0.11328275772970746,0.0,-0.3009923560781327,-0.24658810084385077,-0.4196635289125656,0.2017397667726648,0.9631555318135502,-0.1077919977032419
11367,5.0,300.02265,2831.2573,0.0,0.0,0.0,0.0,0.11329272453929129,0.0,-0.2132293034990938,-0.24015855273180378,-0.4072436664743206,0.22854477127811276,0.9656918386688641,-0.10595005087645591
11368,5.0,300.68914,2990.9571,0.0,0.0,0.0,0.0,0.1133026913488751,0.0,-0.24942548483387877,-0.24533738545041475,-0.4144134039169186,0.22490320108121778,0.9732382923661411,-0.10935558446255589
11369,5.0,299.97225,3238.2404,0.0,0.0,0.0,0.0,0.11331265815845892,0.0,-0.3177479359592797,-0.26067773865188976,-0.40591852786103966,0.24370370204918276,0.9318681824432291,-0.07314366938021814
11370,5.0,298.68444,2974.7416,0.0,0.0,0.0,0.0,0.11332262496804274,0.0,-0.30203402784343775,-0.2132157056827518,-0.38899742344355664,0.2090893966380168,0.9400297802762161,-0.08110725686541301
11371,5.0,300.03148999999996,2878.9473,0.0,0.0,0.0,0.0,0.11333259177762657,0.0,-0.2601986030771028,-0.23013626294518075,-0.38479323599613563,0.23728414458312175,0.953994605936937,-0.08095853404223521
11372,5.0,299.74987999999996,3061.0316,0.0,0.0,0.0,0.0,0.11334255858721039,0.0,-0.2781109700674157,-0.24916860566852675,-0.4031975865725036,0.2224091062250698,0.978912340938626,-0.07009196374228824
11373,5.0,299.59476,3058.178,0.0,0.0,0.0,0.0,0.1133525253967942,0.0,-0.24732123795370578,-0.24920565009218276,-0.43308285111694955,0.22442272801629878,0.9562231887368812,-0.09484012424699151
11374,5.0,299.09131,3002.8601,0.0,0.0,0.0,0.0,0.11336249220637803,0.0,-0.27245481549169676,-0.2275021065277098,-0.4128375669638956,0.21039765450463183,0.974221864370712,-0.07682986108501692
11375,5.0,300.06421,3182.9265,0.0,0.0,0.0,0.0,0.11337245901596184,0.0,-0.3143815746220457,-0.2510858167127408,-0.4020627869905076,0.2201134361360048,0.9624893198728001,-0.096949412046412
11376,5.0,300.93,3244.2085,0.0,0.0,0.0,0.0,0.11338242582554567,0.0,-0.3131121748967657,-0.25121804585079077,-0.42182815536619767,0.2244562969921118,0.974449085705637,-0.09361897346497332
11377,5.0,300.85823999999997,3059.1684,0.0,0.0,0.0,0.0,0.11339239263512949,0.0,-0.2853942725812217,-0.25100013628428475,-0.39351639729954463,0.22965441186012578,0.9319391504802331,-0.1149162098188469
11378,5.0,300.11329,3197.7397,0.0,0.0,0.0,0.0,0.11340235944471332,0.0,-0.29530211576904974,-0.24434932474790078,-0.43238158072273963,0.2112964782708388,0.9413681620683041,-0.07811983789332771
11379,5.0,300.25964,3308.8205,0.0,0.0,0.0,0.0,0.11341232625429712,0.0,-0.27361767196896175,-0.26291648435033677,-0.46926464430031456,0.2338209975963358,0.9353814751774641,-0.08165109149883533
11380,5.0,299.56412,3095.4185,0.0,0.0,0.0,0.0,0.11342229306388095,0.0,-0.27828574557716473,-0.26124934343080275,-0.4013948322595856,0.20598463621160082,0.9917173296073801,-0.07031941305848573
11381,5.0,299.56007,3022.6009999999997,0.0,0.0,0.0,0.0,0.11343225987346478,0.0,-0.2924166429292757,-0.24996186903931575,-0.3764166974194357,0.21926665289493377,0.9507338455251251,-0.09122467259792422
11382,5.0,298.97601000000003,3148.6377,0.0,0.0,0.0,0.0,0.11344222668304858,0.0,-0.3062342332179657,-0.24807664630075874,-0.4027963597979056,0.19374241678088783,0.967765789371047,-0.07278076676415243
11383,5.0,298.70634,2886.1146,0.0,0.0,0.0,0.0,0.11345219349263241,0.0,-0.26234411963384874,-0.2506326811355198,-0.36432997134906864,0.2174986429279448,0.984974018469367,-0.10711579511650589
11384,5.0,300.0533,3004.6277,0.0,0.0,0.0,0.0,0.11346216030221623,0.0,-0.2520562063335107,-0.26863883455508875,-0.39263676449023166,0.2114328009392928,0.989521332930652,-0.11200672295170289
11385,5.0,300.38871,3180.0058,0.0,0.0,0.0,0.0,0.11347212711180005,0.0,-0.2735395706512537,-0.2660424723663477,-0.42706029517256966,0.22999738688647478,0.953212670702266,-0.1129053947303949
11386,5.0,299.5167,3015.1642,0.0,0.0,0.0,0.0,0.11348209392138388,0.0,-0.28746907441348873,-0.22994386701619277,-0.3991216867202436,0.20274694750456582,0.9478000203905792,-0.07868601671795522
11387,5.0,300.19185,2978.5059,0.0,0.0,0.0,0.0,0.1134920607309677,0.0,-0.27190982879291076,-0.24588685071464278,-0.38759476106512464,0.24974893453080077,0.9518079919561352,-0.11099302702165889
11388,5.0,300.43948,3410.2628,0.0,0.0,0.0,0.0,0.11350202754055153,0.0,-0.3242166664526937,-0.2675062235933087,-0.4449118570243815,0.2023768579055408,0.9707622536267752,-0.06731228637195544
11389,5.0,301.02268,3466.532,0.0,0.0,0.0,0.0,0.11351199435013533,0.0,-0.3184444339455187,-0.2860974985481247,-0.44919723620231555,0.2266768143212598,0.9511989982485322,-0.08381479386837612
11390,5.0,300.60095,2984.7318,0.0,0.0,0.0,0.0,0.11352196115971916,0.0,-0.24766295654993079,-0.23632956166391178,-0.42329141010060956,0.1905290359437518,0.9450930315559201,-0.05808020196731965
11391,5.0,301.02277000000004,3048.4271,0.0,0.0,0.0,0.0,0.11353192796930299,0.0,-0.25067177232437776,-0.2529851540251908,-0.42298878269324264,0.2203840245752098,0.9642304989771411,-0.07216536222316673
11392,5.0,300.91278,3178.6856,0.0,0.0,0.0,0.0,0.11354189477888679,0.0,-0.3101644581033487,-0.23495547293829977,-0.4211211094464176,0.2398191747433098,0.9621157244284292,-0.058531727490131746
11393,5.0,301.42574,3064.2051,0.0,0.0,0.0,0.0,0.11355186158847062,0.0,-0.25772754952822874,-0.2891461147864997,-0.38456817288392364,0.23486847528471377,0.972456134216448,-0.0948809947030251
11394,5.0,301.15985,3088.156,0.0,0.0,0.0,0.0,0.11356182839805444,0.0,-0.3029956427183417,-0.22005720075545482,-0.41566947940338356,0.2110666224856538,0.9784885997468061,-0.0974887255578881
11395,5.0,300.61339,3207.0543,0.0,0.0,0.0,0.0,0.11357179520763826,0.0,-0.30146363896464473,-0.26983176429532174,-0.4035690035291596,0.2199587027132338,0.987749898178325,-0.1074880530707449
11396,5.0,299.02162999999996,3061.2394,0.0,0.0,0.0,0.0,0.11358176201722209,0.0,-0.25666487308835073,-0.26462509759646374,-0.4092503778998676,0.20096670760886984,0.986546298914539,-0.11654119953422089
11397,5.0,299.03787,3191.6025,0.0,0.0,0.0,0.0,0.1135917288268059,0.0,-0.2865131236066437,-0.2643877944230437,-0.4192665375233856,0.2042578655236818,0.9521895819437951,-0.1024248423210449
11398,5.0,299.66496,3292.6091,0.0,0.0,0.0,0.0,0.11360169563638974,0.0,-0.3233074771379637,-0.25368926151968074,-0.4238742214256286,0.20216281895441682,0.9374427906509001,-0.06881397874891095
11399,5.0,300.43501000000003,3059.6452,0.0,0.0,0.0,0.0,0.11361166244597354,0.0,-0.26012251812709375,-0.2668873101672267,-0.4030459131650346,0.2243890273179728,0.9679357722078231,-0.07842956007789492
11400,5.0,299.75437,2895.348,0.0,0.0,0.0,0.0,0.11362162925555738,0.0,-0.25665167043954773,-0.2370462942546478,-0.38641553046624366,0.2309817289611218,0.9701093253948362,-0.08061818738664563
11401,5.0,301.06847999999997,3215.3959,0.0,0.0,0.0,0.0,0.1136315960651412,0.0,-0.26672136006584873,-0.2863908952470807,-0.4242878098514466,0.2131568865144468,0.963908295577842,-0.08395120975583932
11402,5.0,300.54318,3253.1672,0.0,0.0,0.0,0.0,0.113641562874725,0.0,-0.2710303885011167,-0.28141008199551276,-0.4364411267183856,0.2136367921593098,0.96735930382843,-0.0939896385900551
11403,5.0,301.47286,2919.5906,0.0,0.0,0.0,0.0,0.11365152968430883,0.0,-0.23831219826708275,-0.26709108489483774,-0.38207934692829565,0.21522688554123978,0.9839924223024911,-0.13400852681561187
11404,5.0,300.18088,3022.4886,0.0,0.0,0.0,0.0,0.11366149649389265,0.0,-0.27829745874832074,-0.2551962075984047,-0.3852673965129316,0.22518729614425578,0.9928679460234371,-0.12300427609207687
11405,5.0,300.01518,3007.8501,0.0,0.0,0.0,0.0,0.11367146330347647,0.0,-0.2650449580404008,-0.25301791240092375,-0.3962484438091766,0.2166242891516528,0.96279197767767,-0.12337102196577188
11406,5.0,298.5782,2917.3392,0.0,0.0,0.0,0.0,0.1136814301130603,0.0,-0.2907341512707267,-0.24180982615477176,-0.3542542934146767,0.2143656533537428,0.963615912128986,-0.08832245782674791
11407,5.0,299.99547,3326.1627,0.0,0.0,0.0,0.0,0.11369139692264411,0.0,-0.30300322182908973,-0.26407611869228376,-0.4439910761285076,0.19872962364058683,0.9756331596399961,-0.08515956926859511
11408,5.0,299.65262,3440.1547,0.0,0.0,0.0,0.0,0.11370136373222794,0.0,-0.3135124998787747,-0.26642182307128676,-0.4657868153195795,0.23358048242009877,0.951260522794604,-0.04902281403892505
11409,5.0,299.83659,3108.8748,0.0,0.0,0.0,0.0,0.11371133054181175,0.0,-0.27323758159144973,-0.2562473127221408,-0.4155354264151536,0.20969122666741283,0.9569711699607011,-0.08491397770935712
11410,5.0,300.36983,3384.5848,0.0,0.0,0.0,0.0,0.11372129735139558,0.0,-0.3037505545728457,-0.27070994815699173,-0.45436877352020655,0.23105534158088675,0.939870152855462,-0.04595832321123336
11411,5.0,300.86908999999997,3558.5663,0.0,0.0,0.0,0.0,0.11373126416097941,0.0,-0.3465075911001367,-0.2948357167480197,-0.44037200008383265,0.23174188945114377,0.971833593355008,-0.05423166125199825
11412,5.0,299.42942999999997,3023.2625,0.0,0.0,0.0,0.0,0.11374123097056321,0.0,-0.2914683522931867,-0.24704826837676575,-0.38047969859792263,0.22301053095442577,0.957909652335822,-0.09043019636676551
11413,5.0,300.24932,2770.8527,0.0,0.0,0.0,0.0,0.11375119778014704,0.0,-0.22832297083122277,-0.23362503502699578,-0.3803220267498616,0.2196911236268258,0.9559119791011671,-0.1041157642204259
11414,5.0,300.15788,3076.5076,0.0,0.0,0.0,0.0,0.11376116458973086,0.0,-0.23704197780922176,-0.2863206364851467,-0.4118188757108586,0.22435667424227979,0.9612332342538341,-0.1138482746109499
11415,5.0,299.69845,3035.9917,0.0,0.0,0.0,0.0,0.11377113139931468,0.0,-0.26860000681125673,-0.25623873049379375,-0.39802694091470064,0.23167812562235077,1.004863530247309,-0.10269532943523989
11416,5.0,298.42327,2966.0121,0.0,0.0,0.0,0.0,0.1137810982088985,0.0,-0.24670025749741978,-0.26604947392453876,-0.3888438856559036,0.22174637986466378,0.9666478300057132,-0.12280970167537388
11417,5.0,299.26827000000003,3175.5847,0.0,0.0,0.0,0.0,0.11379106501848232,0.0,-0.32337475694460366,-0.26175067931528073,-0.3801729979251537,0.21044419308172482,0.9797194959682861,-0.08527536652977342
11418,5.0,299.13496000000004,3109.8668,0.0,0.0,0.0,0.0,0.11380103182806615,0.0,-0.3163797646142517,-0.24474415791436777,-0.38419793129738367,0.2053022933292588,0.9593270575032091,-0.07931007137504463
11419,5.0,300.48631,3145.7702,0.0,0.0,0.0,0.0,0.11381099863764996,0.0,-0.2759396764281258,-0.27938493955064675,-0.40091096480683164,0.2064180235443728,0.98235955963384,-0.10105345694669972
11420,5.0,299.4171,3462.9201,0.0,0.0,0.0,0.0,0.11382096544723379,0.0,-0.29712520601147474,-0.29265939738823377,-0.46285664801789456,0.23905414052030674,0.948832684362495,-0.08245750888242251
11421,5.0,299.77459,3362.4703,0.0,0.0,0.0,0.0,0.11383093225681762,0.0,-0.2987307007949247,-0.2802580368968147,-0.4431182928898706,0.23777641187920479,0.9459105825316061,-0.09169075751142322
11422,5.0,299.47414,2890.9796,0.0,0.0,0.0,0.0,0.11384089906640142,0.0,-0.2067708068316898,-0.2767382086994347,-0.39527660524076363,0.2253887910591418,0.946629645597572,-0.1182992796502299
11423,5.0,300.58959,2924.7831,0.0,0.0,0.0,0.0,0.11385086587598525,0.0,-0.2755635985210097,-0.23164850832192777,-0.3818489237230546,0.2066197717717838,0.97939397924116,-0.09153576267012642
11424,5.0,300.19186,3254.5496,0.0,0.0,0.0,0.0,0.11386083268556907,0.0,-0.31583225492271666,-0.26334479530010774,-0.41012474180866065,0.2245483710286988,0.9731927569066471,-0.0974235107549519
11425,5.0,299.72166,3161.1747,0.0,0.0,0.0,0.0,0.11387079949515289,0.0,-0.2784575218666177,-0.2643400804758348,-0.4181205719252876,0.2198929427817438,0.9843035103481931,-0.08207659067957883
11426,5.0,299.9828,3123.7872,0.0,0.0,0.0,0.0,0.11388076630473672,0.0,-0.2869435623816247,-0.2554985614282448,-0.4071111738912446,0.24204141459762776,0.9598464495044691,-0.07686678087891063
11427,5.0,300.37478,3269.5603,0.0,0.0,0.0,0.0,0.11389073311432053,0.0,-0.2809145722991097,-0.25809887529237574,-0.4548512224228206,0.2289640237719898,0.9805821365734221,-0.04261947769371496
11428,5.0,299.79221,3015.2403,0.0,0.0,0.0,0.0,0.11390069992390436,0.0,-0.27155561682295276,-0.24565786632454378,-0.39934428763471264,0.22586893988402879,0.9541733432545771,-0.09879891974544422
11429,5.0,298.38532999999995,3098.6232,0.0,0.0,0.0,0.0,0.11391066673348817,0.0,-0.29909959475883174,-0.2522928914243697,-0.3905115838629926,0.2038657579999838,0.9666985735707211,-0.04070510172328076
11430,5.0,299.21625,3290.9444,0.0,0.0,0.0,0.0,0.113920633543072,0.0,-0.3215517578946877,-0.2776370932606477,-0.4011760614304946,0.2036571399368948,0.950357038077937,-0.10731661115382489
11431,5.0,299.10808,2938.6497,0.0,0.0,0.0,0.0,0.11393060035265583,0.0,-0.25782575372792077,-0.24885597748267277,-0.38659437924139467,0.20448951476154378,0.988426810040131,-0.08616882412345082
11432,5.0,299.50886,2657.6431,0.0,0.0,0.0,0.0,0.11394056716223963,0.0,-0.2165284052946898,-0.26318577582941377,-0.32814298019269067,0.22283724492232376,0.9429194581039052,-0.14902402190252587
11433,5.0,299.22111,3099.4856,0.0,0.0,0.0,0.0,0.11395053397182346,0.0,-0.25848360635534573,-0.27470607482887877,-0.4089765470603426,0.22813979547814478,0.9623601811475552,-0.08640034569180023
11434,5.0,299.75916,3059.2834,0.0,0.0,0.0,0.0,0.11396050078140728,0.0,-0.24947138506340877,-0.27164416474919173,-0.4088302134809006,0.2329234505252548,0.9594857628663721,-0.11277373301240089
11435,5.0,298.89662999999996,2765.7946,0.0,0.0,0.0,0.0,0.1139704675909911,0.0,-0.2553503736011198,-0.2317914677785368,-0.35359066526168165,0.2253433569246578,0.977789062010267,-0.06142956096787564
11436,5.0,299.4466,3081.322,0.0,0.0,0.0,0.0,0.11398043440057493,0.0,-0.26734463046736073,-0.2834162867960097,-0.38588403012628864,0.22442008343353778,0.967844589831324,-0.09001967606225032
11437,5.0,300.50841,3275.3296,0.0,0.0,0.0,0.0,0.11399040121015874,0.0,-0.3154987639173037,-0.26729632883509374,-0.4128233307999906,0.21693546838986377,0.979797850598519,-0.05763493833012554
11438,5.0,299.27396,3206.5619,0.0,0.0,0.0,0.0,0.11400036801974257,0.0,-0.30358888038688975,-0.2603651205985368,-0.4107607487639296,0.23405008331144478,0.954166868586438,-0.08839579180273542
11439,5.0,299.72078999999997,3347.0469,0.0,0.0,0.0,0.0,0.11401033482932638,0.0,-0.2875927415881937,-0.26435001032681477,-0.4654759299238975,0.1920548487393378,0.958758624197109,-0.07222313166436814
11440,5.0,299.82927,3226.5699,0.0,0.0,0.0,0.0,0.11402030163891021,0.0,-0.28030527461647675,-0.27829680013575575,-0.4221945972648626,0.2117129544594418,0.929373692419542,-0.08821084731498283
11441,5.0,299.40018,2893.9509999999996,0.0,0.0,0.0,0.0,0.11403026844849404,0.0,-0.26545328769819976,-0.2114890363198428,-0.4027465281579876,0.17999212656383984,0.9657487427944801,-0.07552021607901503
11442,5.0,299.54672,3160.1117,0.0,0.0,0.0,0.0,0.11404023525807784,0.0,-0.29198177625135774,-0.27301836493231474,-0.39559489749467663,0.21728887989224277,0.975545898541384,-0.1003230110291103
11443,5.0,299.78688999999997,3266.7552,0.0,0.0,0.0,0.0,0.11405020206766167,0.0,-0.33492056958158667,-0.24299359611410076,-0.41509782396196565,0.23888710624132178,1.007148915847859,-0.08371809637158283
11444,5.0,299.31577999999996,2961.6259,0.0,0.0,0.0,0.0,0.11406016887724549,0.0,-0.2636794819406388,-0.26936747283449974,-0.36721336702613766,0.25520418187669175,0.974960665548626,-0.07737391762021113
11445,5.0,299.84938999999997,2931.4795,0.0,0.0,0.0,0.0,0.1140701356868293,0.0,-0.21445797057035382,-0.27144341963937973,-0.4051951787471506,0.23421279101250278,0.9508004059241941,-0.09025684953965751
11446,5.0,300.28411,3300.5963,0.0,0.0,0.0,0.0,0.11408010249641314,0.0,-0.28153859250569574,-0.26671132888985877,-0.4550489379148336,0.22928539630620678,0.9364036722758472,-0.06345065649184223
11447,5.0,299.98357999999996,3340.0908,0.0,0.0,0.0,0.0,0.11409006930599695,0.0,-0.2981617709962757,-0.28547462331415174,-0.43166781695479656,0.20680979669553778,0.9699832466848931,-0.07541272138915613
11448,5.0,300.17933999999997,3120.2294,0.0,0.0,0.0,0.0,0.11410003611558078,0.0,-0.27372772106232274,-0.27109105178460374,-0.40365306275745566,0.21148588511203179,0.9624045311044321,-0.11920300754692088
11449,5.0,300.77761,3085.0542,0.0,0.0,0.0,0.0,0.11411000292516459,0.0,-0.32024921475863666,-0.2406005526904258,-0.37692969581256464,0.2023207339825018,0.9841554238460781,-0.1018719421389779
11450,5.0,301.33262,3013.0325,0.0,0.0,0.0,0.0,0.11411996973474842,0.0,-0.27134360437202876,-0.23799522323829977,-0.4065478068356446,0.21143905269240978,0.9754186241963231,-0.1284368469007299
11451,5.0,300.24111,3038.4496,0.0,0.0,0.0,0.0,0.11412993654433225,0.0,-0.23579889218903877,-0.26131040188182875,-0.4265035041101186,0.2046328491206898,0.9629952255152292,-0.1036682015187549
11452,5.0,300.40413,3251.97,0.0,0.0,0.0,0.0,0.11413990335391605,0.0,-0.2680318166851807,-0.28104436963691976,-0.4394414818544976,0.22654854699110077,0.9524243823894681,-0.1117811025519359
11453,5.0,300.1475,3222.9225,0.0,0.0,0.0,0.0,0.11414987016349988,0.0,-0.27361328459602874,-0.26646987139102873,-0.4396048177706176,0.2203770534145218,0.9550395910300691,-0.05386692769300186
11454,5.0,300.00719,3054.3801,0.0,0.0,0.0,0.0,0.1141598369730837,0.0,-0.27580143871698276,-0.25506263083772174,-0.39759120284169663,0.22186156613603178,0.971043004964483,-0.1043968904606709
11455,5.0,299.56235,3321.5834,0.0,0.0,0.0,0.0,0.11416980378266751,0.0,-0.3499302891429307,-0.25814958845988073,-0.40159853605968965,0.20939365537804483,0.985809939669366,-0.059941176617733544
11456,5.0,299.0816,3576.0762,0.0,0.0,0.0,0.0,0.11417977059225135,0.0,-0.3304712971999777,-0.28583530995224876,-0.4707312427600565,0.2189878875274218,0.973745606426209,-0.096537211773231
11457,5.0,299.70202,3379.2658,0.0,0.0,0.0,0.0,0.11418973740183516,0.0,-0.2738361692205257,-0.27201795271108176,-0.4813582908688645,0.2198429692868118,0.9770479100921211,-0.08437768064342872
11458,5.0,299.35884,3136.151,0.0,0.0,0.0,0.0,0.11419970421141899,0.0,-0.27219741956879373,-0.2548164414609248,-0.4262977332798106,0.21571967972737482,0.964643499717901,-0.08067845246284333
11459,5.0,300.98648,3199.2424,0.0,0.0,0.0,0.0,0.1142096710210028,0.0,-0.28785087718366975,-0.23599312210070778,-0.4486457951003926,0.2127565311349348,0.96041560221814,-0.07701887883817153
11460,5.0,300.90572000000003,3018.8444,0.0,0.0,0.0,0.0,0.11421963783058663,0.0,-0.2967730104092157,-0.23930935795549477,-0.3815709284256186,0.2130464219885448,0.9576271987379461,-0.10188096006486791
11461,5.0,300.5439,2985.3889,0.0,0.0,0.0,0.0,0.11422960464017046,0.0,-0.28286490648909274,-0.25809319095931477,-0.36652560325576067,0.2037594579319928,0.986689248238647,-0.13618759208316888
11462,5.0,300.26505,3057.3185,0.0,0.0,0.0,0.0,0.11423957144975426,0.0,-0.26391827459170575,-0.25171558204739375,-0.4137146261179546,0.2110900488279658,0.974907895483418,-0.11332584285938987
11463,5.0,301.03232,2881.6103,0.0,0.0,0.0,0.0,0.11424953825933809,0.0,-0.2134754624783878,-0.25348702693222175,-0.4089750981126996,0.2154296875487548,0.9713613377484,-0.12395156361056689
11464,5.0,300.58268,2881.8592,0.0,0.0,0.0,0.0,0.11425950506892191,0.0,-0.25474207903608576,-0.23963603992023577,-0.38163512795195464,0.21627296494447978,0.9754731167867011,-0.09888418879435959
11465,5.0,300.45797000000005,3350.8293,0.0,0.0,0.0,0.0,0.11426947187850574,0.0,-0.27063748050983977,-0.2970174569958407,-0.4509134792216956,0.24036426276710576,0.9520146341815291,-0.08334483935274523
11466,5.0,300.47433,3282.3607,0.0,0.0,0.0,0.0,0.11427943868808955,0.0,-0.3345526179402727,-0.2525132733211198,-0.4106898009919276,0.25526264640746177,0.9785106480689821,-0.07009338330567834
11467,5.0,299.48515,2918.1562,0.0,0.0,0.0,0.0,0.11428940549767337,0.0,-0.25144456804314674,-0.23339935383222277,-0.4022027066968166,0.24662383817487776,0.955599898070367,-0.08801807547020772
11468,5.0,300.05751000000004,3025.7836,0.0,0.0,0.0,0.0,0.1142993723072572,0.0,-0.27516515818418674,-0.2530184392909758,-0.3915790631083446,0.2188723263535168,0.9780525070362671,-0.1128813503055219
11469,5.0,300.61506,3237.0159999999996,0.0,0.0,0.0,0.0,0.114309339116841,0.0,-0.2983166260090587,-0.24401167941707777,-0.44164373028434256,0.2300465092513228,0.9611795725285381,-0.07885211171409752
11470,5.0,300.04422999999997,3046.1309,0.0,0.0,0.0,0.0,0.11431930592642484,0.0,-0.2869655904387987,-0.23289819020026176,-0.4060839409398646,0.1947422919795678,0.9938698071923131,-0.0896875711829741
11471,5.0,299.54511,2866.5275,0.0,0.0,0.0,0.0,0.11432927273600865,0.0,-0.26770186192261675,-0.21460890430524981,-0.3890420267129586,0.2051496472016938,0.9605856661149241,-0.08205272762647373
11472,5.0,299.18399,3075.6126,0.0,0.0,0.0,0.0,0.11433923954559247,0.0,-0.3112620714066747,-0.23576841362603077,-0.3878789270556696,0.1958601601523928,0.9547693470958982,-0.07252417536182884
11473,5.0,298.6594,3228.7432,0.0,0.0,0.0,0.0,0.11434920635517629,0.0,-0.3024753995869977,-0.27367584265720274,-0.4053060587055936,0.23885975862112274,0.9563336937927871,-0.08917769765315352
11474,5.0,298.55758,3419.3996,0.0,0.0,0.0,0.0,0.11435917316476012,0.0,-0.2787790463883497,-0.28709397935896974,-0.4735390499796655,0.2297784336723658,0.9637444631691731,-0.07940619131928092
11475,5.0,299.27404,3393.9297,0.0,0.0,0.0,0.0,0.11436913997434395,0.0,-0.3169389368144377,-0.26628999923327673,-0.44844093619517456,0.25238419539088075,0.963595880174509,-0.07421744597494162
11476,5.0,299.30892,3100.8883,0.0,0.0,0.0,0.0,0.11437910678392775,0.0,-0.25199234117970776,-0.2773268259475267,-0.41327344689191364,0.2236157553716568,0.9463866378260891,-0.06797248163361164
11477,5.0,300.09427,2865.1369,0.0,0.0,0.0,0.0,0.11438907359351158,0.0,-0.2546301959600437,-0.2387748786602458,-0.37752499037881565,0.23186954883124278,0.9710753276426731,-0.09139400391488592
11478,5.0,298.80795,3083.5481,0.0,0.0,0.0,0.0,0.11439904040309538,0.0,-0.29457117741191174,-0.24328639499549776,-0.39946404366403165,0.22432208188386576,0.974921442637255,-0.06263440551603454
11479,5.0,300.31407,3287.1864,0.0,0.0,0.0,0.0,0.11440900721267921,0.0,-0.2869343316732137,-0.29547299026591367,-0.41681527274896457,0.2220443361890698,0.9657982197968631,-0.1148450695293259
11480,5.0,300.74861,3012.0838,0.0,0.0,0.0,0.0,0.11441897402226303,0.0,-0.24753788095758675,-0.24872412324715976,-0.41933625926276663,0.1907012377982468,0.9527558772921841,-0.12832047512674488
11481,5.0,300.31844,2924.7028,0.0,0.0,0.0,0.0,0.11442894083184686,0.0,-0.2592207255380938,-0.2637372169313367,-0.3660786789016527,0.2032418391184078,0.9465092816181931,-0.14461620158250788
11482,5.0,299.82821,3065.2584,0.0,0.0,0.0,0.0,0.11443890764143066,0.0,-0.2842417816524797,-0.24462314545492475,-0.4028970971228476,0.1990613009283208,0.98344870216633,-0.09114199442951451
11483,5.0,299.23204,3088.183,0.0,0.0,0.0,0.0,0.1144488744510145,0.0,-0.29084220426139074,-0.26036550563357475,-0.38752281017552365,0.21911454378992182,0.977306521915144,-0.1043905576475459
11484,5.0,298.71292,3162.9739,0.0,0.0,0.0,0.0,0.11445884126059833,0.0,-0.28398862111499473,-0.2769544768007788,-0.40052197809344164,0.2222062332900478,0.9677979904592251,-0.06932747870083943
11485,5.0,299.61572,3266.5898,0.0,0.0,0.0,0.0,0.11446880807018213,0.0,-0.26250586474731175,-0.2860962117204977,-0.4443596661173846,0.23576196935539476,0.9544174352036671,-0.06954163417572494
11486,5.0,299.53626,3130.2143,0.0,0.0,0.0,0.0,0.11447877487976596,0.0,-0.26644784333385474,-0.27300475698347176,-0.4120544056966036,0.21864264282084878,0.977779081496782,-0.06767258088226373
11487,5.0,299.65022,3315.0124,0.0,0.0,0.0,0.0,0.11448874168934978,0.0,-0.3179707699212717,-0.27583552445034676,-0.4138747095012536,0.2275144276489258,0.970289369805105,-0.08025477814552992
11488,5.0,299.77329,3591.1694,0.0,0.0,0.0,0.0,0.1144987084989336,0.0,-0.34788494249107066,-0.28112335248221476,-0.4626175311267956,0.19298527577616384,0.9663316858420121,-0.07733223757734763
11489,5.0,301.1101,3151.5017,0.0,0.0,0.0,0.0,0.11450867530851741,0.0,-0.3157754723871127,-0.24915794627747476,-0.3930443950054616,0.2271609452190398,0.9641592978926141,-0.11548785512776388
11490,5.0,300.44588999999996,2835.9202,0.0,0.0,0.0,0.0,0.11451864211810124,0.0,-0.2688624993821627,-0.19908184964034883,-0.39410455858509164,0.20389529424039882,0.9878896354996161,-0.08081321877914373
11491,5.0,299.56481,3068.2825,0.0,0.0,0.0,0.0,0.11452860892768507,0.0,-0.24839578968475579,-0.24437191009262976,-0.43991354494358653,0.22758667238105576,0.976601340375548,-0.1125384867366839
11492,5.0,299.22365,3209.3444,0.0,0.0,0.0,0.0,0.11453857573726887,0.0,-0.2860979241131667,-0.2727157679224507,-0.4167468783672146,0.1963886308745488,0.9635124896912791,-0.1058770158092479
11493,5.0,300.17165,2874.1797,0.0,0.0,0.0,0.0,0.1145485425468527,0.0,-0.24873343501557874,-0.24309837630694175,-0.38184704921036966,0.20439115857433682,0.970930513938381,-0.1136562637169999
11494,5.0,298.50552000000005,2722.2098,0.0,0.0,0.0,0.0,0.11455850935643652,0.0,-0.25378239946887277,-0.23095183808317177,-0.34274957820174967,0.21950084539054682,1.006676579181243,-0.09582209936940492
11495,5.0,298.75747,3098.4534,0.0,0.0,0.0,0.0,0.11456847616602034,0.0,-0.28429178554491474,-0.2663025736670177,-0.3912581161391696,0.2378816986970958,0.996783955009917,-0.09181822032100281
11496,5.0,299.59673,3340.2349,0.0,0.0,0.0,0.0,0.11457844297560417,0.0,-0.29656148431833973,-0.2945207378219337,-0.4242657817942726,0.2314092901058188,0.9799916144151422,-0.08443222794931211
11497,5.0,300.10072,3417.362,0.0,0.0,0.0,0.0,0.11458840978518799,0.0,-0.2631497446558577,-0.3230555122355967,-0.45258746971190555,0.23412773879910875,0.955705164623256,-0.09201557104297982
11498,5.0,300.48631,3222.6807,0.0,0.0,0.0,0.0,0.1145983765947718,0.0,-0.2987333960401907,-0.2585675034636257,-0.42231355282660255,0.24306036929569078,0.9726482363029071,-0.07156091192901214
11499,5.0,300.3062,2835.4166,0.0,0.0,0.0,0.0,0.11460834340435562,0.0,-0.24882070624669175,-0.24966499689251676,-0.36341014290828866,0.23277674204327578,0.977565924073245,-0.11392126914815388
11500,5.0,300.53715,2991.6433,0.0,0.0,0.0,0.0,0.11461831021393945,0.0,-0.2947655289135927,-0.24003479436458974,-0.3745845385886157,0.1925367403543968,0.9724578162116141,-0.10515063707755991
11501,5.0,300.0339,3305.1869,0.0,0.0,0.0,0.0,0.11462827702352328,0.0,-0.3263576537814927,-0.25679257299845376,-0.4215440805681616,0.22741001222612076,0.9733734396644791,-0.10932190402923189
11502,5.0,299.42876,3014.7594,0.0,0.0,0.0,0.0,0.11463824383310708,0.0,-0.26728083624106475,-0.25987460622512676,-0.3892561467240906,0.21810212455500377,0.9828961059592931,-0.1159910351274239
11503,5.0,298.67411,2792.7594,0.0,0.0,0.0,0.0,0.11464821064269091,0.0,-0.24166065547504978,-0.22392847475001978,-0.38333999217271164,0.2382256261785388,0.9631446191099731,-0.10762860099211591
11504,5.0,299.49675,3155.6365,0.0,0.0,0.0,0.0,0.11465817745227473,0.0,-0.30033981288123174,-0.24897147786157178,-0.4099234090137906,0.2027290535077998,0.947192739075645,-0.07187056217282223
11505,5.0,299.68244,3223.3505,0.0,0.0,0.0,0.0,0.11466814426185855,0.0,-0.30664841946134275,-0.2838479921336157,-0.38932166347555663,0.23989291908558774,0.976977631065185,-0.1038998000941119
11506,5.0,299.28077,3216.8072,0.0,0.0,0.0,0.0,0.11467811107144238,0.0,-0.2953273152990367,-0.24813052080857576,-0.4343712290166025,0.24048624794664475,1.0068902229648282,-0.05420893506550535
11507,5.0,299.77957999999995,3370.8617,0.0,0.0,0.0,0.0,0.1146880778810262,0.0,-0.3154014412451987,-0.29548542284464074,-0.4137709324260116,0.24504388742644875,1.0012825118763902,-0.06610426933773345
11508,5.0,298.92652000000004,3247.3224,0.0,0.0,0.0,0.0,0.11469804469061003,0.0,-0.2873401484707647,-0.2572434996904568,-0.4425212859309505,0.2150683524305938,0.9701920268679981,-0.07412312657613301
11509,5.0,300.12267,3025.1724,0.0,0.0,0.0,0.0,0.11470801150019383,0.0,-0.2661253460920267,-0.23927543434214676,-0.4141760906109976,0.21583349811110777,0.9610626637320001,-0.1008499547833656
11510,5.0,300.01372000000003,3244.7725,0.0,0.0,0.0,0.0,0.11471797830977766,0.0,-0.2884897009742167,-0.27959721544659677,-0.4182429016098606,0.21649146219604382,0.9648253882433522,-0.0917948750386988
11511,5.0,300.40075,3174.4233,0.0,0.0,0.0,0.0,0.11472794511936149,0.0,-0.28952141249103874,-0.26912344168041574,-0.4063005535462426,0.2246007864563718,0.9706938187150211,-0.11773285257932789
11512,5.0,299.97144,2845.0607,0.0,0.0,0.0,0.0,0.1147379119289453,0.0,-0.26410637434026973,-0.23973296742480177,-0.36098809013425065,0.2085480779045928,0.959906504837896,-0.1101652523524639
11513,5.0,300.72634,3114.0405,0.0,0.0,0.0,0.0,0.11474787873852912,0.0,-0.28612928420376177,-0.2740435612509938,-0.3864176988214576,0.21297156307115678,0.953172191360771,-0.10652946781363991
11514,5.0,299.99501000000004,3364.6109,0.0,0.0,0.0,0.0,0.11475784554811294,0.0,-0.29631715932172675,-0.2617776216354397,-0.4646629183086596,0.20888332183267877,0.9558429666368561,-0.07705004539799742
11515,5.0,300.46915,3169.2048,0.0,0.0,0.0,0.0,0.11476781235769676,0.0,-0.27271765256763675,-0.2760912991730898,-0.4145501825479176,0.22252194175620582,0.97090091690296,-0.094533438772974
11516,5.0,300.81451,3090.8608,0.0,0.0,0.0,0.0,0.11477777916728059,0.0,-0.2767282180534487,-0.23829850925823176,-0.4245177669616416,0.21368199324627082,0.946977757801928,-0.05628022091992535
11517,5.0,299.77339,3157.2433,0.0,0.0,0.0,0.0,0.1147877459768644,0.0,-0.26792556727969474,-0.2615571384136797,-0.4302404414064256,0.22654278159803176,0.9996529726680671,-0.07934093395984051
11518,5.0,298.89946000000003,3067.2808,0.0,0.0,0.0,0.0,0.11479771278644824,0.0,-0.28158264862004373,-0.2561904389940277,-0.39460367545185066,0.21957564351292877,0.988211068828839,-0.05906512868727435
11519,5.0,299.53819,3368.7201,0.0,0.0,0.0,0.0,0.11480767959603204,0.0,-0.3120185740638357,-0.27221945775846873,-0.4397687413717956,0.23393488690757577,1.004133980042808,-0.10064871318100459
11520,5.0,299.98326000000003,3542.8606,0.0,0.0,0.0,0.0,0.11481764640561587,0.0,-0.3386633229334677,-0.2850353084682947,-0.45324251563655354,0.2068080741703678,0.9648331902691221,-0.08205990346368192
11521,5.0,299.56672000000003,3159.1284,0.0,0.0,0.0,0.0,0.1148276132151997,0.0,-0.3057898926516127,-0.25512683036405776,-0.3993794170156796,0.2163125222283838,0.957116520687546,-0.10069122104919981
11522,5.0,299.70462000000003,3069.8048,0.0,0.0,0.0,0.0,0.1148375800247835,0.0,-0.26195027945247973,-0.24688105171276276,-0.4243126648763996,0.20790265785589482,0.954352779714786,-0.08401476282861152
11523,5.0,299.26105,3349.1335,0.0,0.0,0.0,0.0,0.11484754683436733,0.0,-0.2832882525133737,-0.29201208256184874,-0.44275264132628356,0.2101402484492278,0.9809336938281181,-0.07767451751412803
11524,5.0,300.49365,3382.2765,0.0,0.0,0.0,0.0,0.11485751364395115,0.0,-0.3144954436682837,-0.26931614158443373,-0.44431601530307663,0.2369015514778628,0.9398073617467652,-0.07411581496341142
11525,5.0,301.82469,3067.4164,0.0,0.0,0.0,0.0,0.11486748045353497,0.0,-0.25906763358048474,-0.26045696158760073,-0.4128933970444056,0.20385404482882782,0.963810932375733,-0.06706289208509214
11526,5.0,301.14288,2925.3553,0.0,0.0,0.0,0.0,0.1148774472631188,0.0,-0.25000259156083476,-0.2598537535380688,-0.37937860984675364,0.23714544077693275,0.957646237707325,-0.07717613626694163
11527,5.0,300.04136,3187.9028,0.0,0.0,0.0,0.0,0.11488741407270261,0.0,-0.2953080635471367,-0.24614613128273177,-0.42758865443721455,0.2025932171993938,0.9942596551682881,-0.07280662389345433
11528,5.0,299.21766,3496.3446,0.0,0.0,0.0,0.0,0.11489738088228645,0.0,-0.3087942298606177,-0.31656047776958673,-0.43744674704513253,0.2298586425502818,0.990182296235884,-0.13400503110276688
11529,5.0,299.24676,3486.3313,0.0,0.0,0.0,0.0,0.11490734769187025,0.0,-0.3151692144547797,-0.3133689730021097,-0.43121945378554655,0.22209878824944376,0.993937532828997,-0.11900341754222288
11530,5.0,299.46067999999997,3095.7514,0.0,0.0,0.0,0.0,0.11491731450145408,0.0,-0.26556641707186474,-0.28280307796799076,-0.39266161951518463,0.23512117985965378,0.9728808075983602,-0.1166566289856129
11531,5.0,299.86186000000004,2820.1189,0.0,0.0,0.0,0.0,0.11492728131103791,0.0,-0.23767307050150577,-0.2479474569130088,-0.3716251896840506,0.19662918658078982,0.987851020538305,-0.1063638014222899
11532,5.0,299.73639,3060.4681,0.0,0.0,0.0,0.0,0.11493724812062171,0.0,-0.30117725395638073,-0.24266188842886374,-0.3864667299937966,0.21432489030221982,0.9530845148296181,-0.1002221136106525
11533,5.0,300.46434,3413.0075,0.0,0.0,0.0,0.0,0.11494721493020554,0.0,-0.34440438786756666,-0.27166289974354074,-0.4214017594591156,0.2174637060644968,0.9840250084257071,-0.08815842276805891
11534,5.0,299.75435,3014.7690000000002,0.0,0.0,0.0,0.0,0.11495718173978936,0.0,-0.2725246588210898,-0.23859302053229778,-0.40529680773218063,0.2278101750881138,0.9549030454465931,-0.08410001769202552
11535,5.0,299.9254,2983.5251,0.0,0.0,0.0,0.0,0.11496714854937318,0.0,-0.24710670251003275,-0.24507898640991277,-0.4147314428583066,0.21507077409833278,0.9900252120728812,-0.08165145120262082
11536,5.0,301.27772000000004,3537.1224,0.0,0.0,0.0,0.0,0.11497711535895701,0.0,-0.3282147385647727,-0.2765702928928628,-0.47041186632853654,0.23658685626180476,0.963703923032672,-0.06420766273430294
11537,5.0,300.69263,3779.3198,0.0,0.0,0.0,0.0,0.11498708216854082,0.0,-0.36494072811184564,-0.2941637292816997,-0.4897143719260455,0.22061683905068677,0.988827449129671,-0.07909123164494683
11538,5.0,300.12236,3363.6325,0.0,0.0,0.0,0.0,0.11499704897812466,0.0,-0.3324769649779217,-0.2650527398011687,-0.4249305650523816,0.24042623314322178,0.959519108927163,-0.05961905934469305
11539,5.0,299.62517,3011.3528,0.0,0.0,0.0,0.0,0.11500701578770846,0.0,-0.2603868041506768,-0.25325859982967774,-0.40173064360772764,0.21395109220782882,1.001166687257459,-0.0966333631282204
11540,5.0,299.01442000000003,3011.1339,0.0,0.0,0.0,0.0,0.11501698259729229,0.0,-0.25734584808305777,-0.25230430062049575,-0.4056593790154636,0.23822727777620176,0.9708869036540771,-0.11549268833074089
11541,5.0,300.20971000000003,3252.1822,0.0,0.0,0.0,0.0,0.11502694940687612,0.0,-0.3059343213208667,-0.26914460847500477,-0.41350325201459365,0.2060369604467648,0.995435491379334,-0.11647580437276688
11542,5.0,299.20268,3092.8229,0.0,0.0,0.0,0.0,0.11503691621645992,0.0,-0.2696860285334387,-0.25861472091828575,-0.4118401944929626,0.2322552019518038,0.9679919873233711,-0.10578005790717891
11543,5.0,299.23346000000004,2619.8856,0.0,0.0,0.0,0.0,0.11504688302604375,0.0,-0.22533595006642676,-0.2026168259267238,-0.36842702786341663,0.2250225923405008,0.9922092523984292,-0.08450914173790292
11544,5.0,300.02615,2762.2989,0.0,0.0,0.0,0.0,0.11505684983562757,0.0,-0.23577159523134478,-0.2313411591690948,-0.37255715686102864,0.22633379876490678,0.9642343594600221,-0.09287529247457772
11545,5.0,300.44221,3309.2569,0.0,0.0,0.0,0.0,0.11506681664521139,0.0,-0.30840120027932866,-0.2749701683349427,-0.4225600968409346,0.2073910070853988,0.979579424274462,-0.1067115792541129
11546,5.0,301.00023,3628.3559,0.0,0.0,0.0,0.0,0.11507678345479522,0.0,-0.34593077821570967,-0.3180101448201577,-0.4389886603848076,0.21480391441949578,0.962480545126934,-0.1020625851452929
11547,5.0,301.18349,3243.7527,0.0,0.0,0.0,0.0,0.11508675026437903,0.0,-0.28832867526832473,-0.27430165631646575,-0.4233895028427906,0.2090993568864998,0.9943636956885561,-0.1121852069568179
11548,5.0,299.17484,2967.1820000000002,0.0,0.0,0.0,0.0,0.11509671707396286,0.0,-0.24989479188269578,-0.2533884984924978,-0.3986659572227666,0.22710800290131478,0.9776697416784911,-0.1035033963899899
11549,5.0,300.71806000000004,3226.0488,0.0,0.0,0.0,0.0,0.11510668388354667,0.0,-0.2995530545760847,-0.2536576481165608,-0.4274275780688176,0.21553051606620582,0.990829134834722,-0.08743683062984332
11550,5.0,299.85262,3243.7941,0.0,0.0,0.0,0.0,0.1151166506931305,0.0,-0.3178319141275677,-0.24955180672384575,-0.41864867787740756,0.21419151619155677,0.964148597971558,-0.04731578956895486
11551,5.0,299.05994,3025.0640000000003,0.0,0.0,0.0,0.0,0.11512661750271433,0.0,-0.2769405648769057,-0.24294826330462677,-0.3996550919703866,0.21913728112216582,0.9822033367334221,-0.09326538059082641
11552,5.0,299.69737000000003,2994.6068,0.0,0.0,0.0,0.0,0.11513658431229813,0.0,-0.29998663442637574,-0.22993805096061878,-0.38036100648120863,0.23793509697736578,0.968649120543225,-0.08504232204652373
11553,5.0,299.21151000000003,3118.6734,0.0,0.0,0.0,0.0,0.11514655112188196,0.0,-0.2791352949910087,-0.24843889334400976,-0.42042463172518063,0.20954565302554579,0.978367952057399,-0.0982759448918306
11554,5.0,299.32995,3201.4501,0.0,0.0,0.0,0.0,0.11515651793146578,0.0,-0.2879398608074517,-0.2764202204205517,-0.4088007988304976,0.22437719255680477,0.967233569623521,-0.08869134165815391
11555,5.0,300.04278,3202.2081,0.0,0.0,0.0,0.0,0.1151664847410496,0.0,-0.2775939794688927,-0.24207392979333678,-0.4537234041340135,0.2149256361540088,0.9805941739846101,-0.07531255553727052
11556,5.0,300.05991,3092.4455,0.0,0.0,0.0,0.0,0.11517645155063343,0.0,-0.28527287508674076,-0.25472369867927175,-0.4000296297373506,0.22026121866308976,0.9568374108150001,-0.0984211922671654
11557,5.0,300.8189,3084.2213,0.0,0.0,0.0,0.0,0.11518641836021724,0.0,-0.25364125372994273,-0.28282799378794976,-0.4010570146762456,0.2011544932499028,0.979926766408742,-0.09457795388961732
11558,5.0,300.98978,3113.4221,0.0,0.0,0.0,0.0,0.11519638516980107,0.0,-0.2829199259695227,-0.27330692842829374,-0.3901757319848466,0.22643860935525076,0.9679522375219481,-0.13419044573856587
11559,5.0,300.99408,3286.5175,0.0,0.0,0.0,0.0,0.11520635197938488,0.0,-0.2739714989038817,-0.30089362498838873,-0.4241541216332526,0.2180430723391758,0.9931796014891949,-0.09566288535469171
11560,5.0,300.37512999999996,3181.0239,0.0,0.0,0.0,0.0,0.11521631878896871,0.0,-0.2615810004535348,-0.27860278140095374,-0.4267680434462266,0.21593124634825478,0.9779151103227071,-0.11727729533436788
11561,5.0,299.31392,2876.4486,0.0,0.0,0.0,0.0,0.11522628559855254,0.0,-0.22811781808347578,-0.2602566521753317,-0.3859940893521506,0.21138054763163577,0.9746260903656061,-0.08337129733935641
11562,5.0,299.73458,2926.4184,0.0,0.0,0.0,0.0,0.11523625240813634,0.0,-0.24211326416221876,-0.26638515355016773,-0.38105969308766363,0.22166385064401878,0.963943911318857,-0.0993366941300184
11563,5.0,298.8551,3190.5745,0.0,0.0,0.0,0.0,0.11524621921772017,0.0,-0.27654861947322373,-0.27252764790888473,-0.4207787119726256,0.2121895771739808,0.9792627937507131,-0.07149152760191443
11564,5.0,298.68555,3269.1069,0.0,0.0,0.0,0.0,0.11525618602730399,0.0,-0.32142836429750965,-0.27540427507528575,-0.39689421849540957,0.22373228926565777,0.9624990673387621,-0.12170183428103587
11565,5.0,300.72219,3286.3188,0.0,0.0,0.0,0.0,0.1152661528368878,0.0,-0.3035499513180477,-0.26202152106701077,-0.4333873935670056,0.22753275734323478,0.9623426924508292,-0.08285874578952152
11566,5.0,300.23581,2920.9169,0.0,0.0,0.0,0.0,0.11527611964647164,0.0,-0.25480897380768774,-0.22674687043317376,-0.4063299580641446,0.2230437554252048,0.969651062772109,-0.08942646372495482
11567,5.0,299.77352,2990.6751,0.0,0.0,0.0,0.0,0.11528608645605545,0.0,-0.25997740044777173,-0.23160609367274176,-0.4175070591222386,0.2221180501338448,0.9812544280147721,-0.06171694808048853
11568,5.0,300.6228,3526.8024,0.0,0.0,0.0,0.0,0.11529605326563928,0.0,-0.3437947051498957,-0.2747695448151427,-0.45349561537903255,0.2080878698416738,0.98507547520188,-0.06574278425855765
11569,5.0,300.39827,3571.2888,0.0,0.0,0.0,0.0,0.11530602007522309,0.0,-0.35432088421124863,-0.2809981147698547,-0.4502636312700605,0.21194252653459877,0.971154442210481,-0.07313288029315333
11570,5.0,300.10400000000004,3160.0882,0.0,0.0,0.0,0.0,0.11531598688480692,0.0,-0.3152153578643337,-0.2642477632592237,-0.38112477414158663,0.2300991678590198,0.977458529695146,-0.09368412443315322
11571,5.0,299.51495,3017.4505,0.0,0.0,0.0,0.0,0.11532595369439075,0.0,-0.2653143305794858,-0.2593268938835717,-0.39258838179795663,0.2415338674900368,1.00233355620512,-0.08012298977127343
11572,5.0,298.4592,3198.3506,0.0,0.0,0.0,0.0,0.11533592050397455,0.0,-0.30642825034711374,-0.27255819739939974,-0.3932322718390036,0.2177025392455678,0.9716391303958162,-0.1019239117366069
11573,5.0,299.19858,3268.7904,0.0,0.0,0.0,0.0,0.11534588731355838,0.0,-0.28198522301727474,-0.27962261762660373,-0.43202280912733154,0.2133920010676508,0.9413999882539451,-0.09471265434466122
11574,5.0,299.93666,3044.2701,0.0,0.0,0.0,0.0,0.1153558541231422,0.0,-0.24868099932290375,-0.26574909593239376,-0.4109519997203046,0.21870938560493577,0.9479646026043221,-0.098408725237935
11575,5.0,300.60936,2886.4911,0.0,0.0,0.0,0.0,0.11536582093272602,0.0,-0.2324402214200638,-0.24652858253297677,-0.3984524147641916,0.2301296058920238,0.9854937549756609,-0.09591388766946371
11576,5.0,300.64631,3142.8718,0.0,0.0,0.0,0.0,0.11537578774230985,0.0,-0.26363984359672676,-0.2732372269539148,-0.4184774690080106,0.2153382011972258,1.0088827894189791,-0.1117639380952419
11577,5.0,300.08791,3425.5736,0.0,0.0,0.0,0.0,0.11538575455189366,0.0,-0.3069201427406597,-0.2850073630305367,-0.44936133205601053,0.2030222779542388,0.9938690573872391,-0.12316767280320289
11578,5.0,299.14768,3481.1935,0.0,0.0,0.0,0.0,0.1153957213614775,0.0,-0.29912556435889476,-0.2964237836297497,-0.4626465404771586,0.20805666173859377,0.9750999469073721,-0.10622094329069089
11579,5.0,299.38777999999996,3102.2639,0.0,0.0,0.0,0.0,0.1154056881710613,0.0,-0.2580229727273847,-0.27618865224269773,-0.4087991371003336,0.2268929405675898,0.97792405732109,-0.10755522141987389
11580,5.0,299.61605,3043.9534,0.0,0.0,0.0,0.0,0.11541565498064513,0.0,-0.2645193446835267,-0.26137146033285474,-0.39939503119972064,0.2283734610837058,0.9776428196233341,-0.10083928222006232
11581,5.0,300.65698,3431.9143,0.0,0.0,0.0,0.0,0.11542562179022894,0.0,-0.3501819196727647,-0.2778164486608487,-0.41521787383381364,0.23785525286948578,0.958638189290223,-0.08866525958732982
11582,5.0,300.63301,3389.5884,0.0,0.0,0.0,0.0,0.11543558859981276,0.0,-0.3243025191336667,-0.27605544025205075,-0.4299922761919336,0.23714164108905778,0.973623692174177,-0.09259305976522351
11583,5.0,302.01456,3046.4662,0.0,0.0,0.0,0.0,0.11544555540939658,0.0,-0.26549264233208375,-0.25362889207872275,-0.4069281302606796,0.25597530573279575,0.9715126869158371,-0.1004897301873142
11584,5.0,302.02258,3129.1068,0.0,0.0,0.0,0.0,0.11545552221898041,0.0,-0.28191696035803776,-0.24679140947641576,-0.4224619534362486,0.2219871787509288,0.978712842126437,-0.09158607864359222
11585,5.0,301.76029,3302.5549,0.0,0.0,0.0,0.0,0.11546548902856421,0.0,-0.3024560363775867,-0.24793885441965977,-0.4534993340068995,0.18764314767143683,0.9571697467152992,-0.08794968108845773
11586,5.0,301.43526,3564.9945,0.0,0.0,0.0,0.0,0.11547545583814804,0.0,-0.3303143244944857,-0.2818415441530947,-0.47151343130725254,0.19935812241261483,0.9833843810499819,-0.05474551685471185
11587,5.0,300.32489,3594.3727,0.0,0.0,0.0,0.0,0.11548542264773187,0.0,-0.3472451662454296,-0.27038845403276274,-0.4749659290354875,0.23731573772123976,1.01269859810307,-0.07699674033673663
11588,5.0,299.92987999999997,3397.9342,0.0,0.0,0.0,0.0,0.11549538945731568,0.0,-0.3167315143864667,-0.2662340779602577,-0.44992155803630063,0.23308591504628878,1.014604815383699,-0.07368469123136284
11589,5.0,300.97046,3060.6013,0.0,0.0,0.0,0.0,0.1155053562668995,0.0,-0.27066431137248775,-0.25073533350315075,-0.4089467473749016,0.2085955486717778,0.977288840700899,-0.1105279249607569
11590,5.0,300.04975,3118.9774,0.0,0.0,0.0,0.0,0.11551532307648332,0.0,-0.2671161830998147,-0.25961428200943476,-0.42136077349257056,0.19947959083460282,0.981860381972075,-0.1017716101140759
11591,5.0,300.04477,3216.9214,0.0,0.0,0.0,0.0,0.11552528988606715,0.0,-0.24905255813457375,-0.2939542398235247,-0.4348569912470435,0.23887402518253076,0.9650468847152122,-0.11774978398849888
11592,5.0,299.80041,2882.7965,0.0,0.0,0.0,0.0,0.11553525669565096,0.0,-0.25832214495191075,-0.25352364579083575,-0.3644523820936496,0.2119768757129888,0.986162348054146,-0.14128352067859787
11593,5.0,298.46452999999997,2795.0657,0.0,0.0,0.0,0.0,0.11554522350523479,0.0,-0.24085473661051177,-0.24441867158474476,-0.36435675154921165,0.22500094931836478,0.9688337752414491,-0.12104366754607988
11594,5.0,298.81761,2998.2373,0.0,0.0,0.0,0.0,0.1155551903148186,0.0,-0.2806430719348147,-0.24972684567862075,-0.3810193657336836,0.2002104582642338,0.998413473953238,-0.12832282586697688
11595,5.0,300.25153,3235.0746,0.0,0.0,0.0,0.0,0.11556515712440242,0.0,-0.24812696430072478,-0.27338007495301275,-0.46187486946600054,0.21183388585887683,0.993930156368269,-0.1026964946728549
11596,5.0,300.19359,3282.6856,0.0,0.0,0.0,0.0,0.11557512393398625,0.0,-0.26962171754959174,-0.2572487584584758,-0.47098397773249956,0.18944394641166182,0.9864074633858371,-0.1026982577280289
11597,5.0,300.96346,3428.2104,0.0,0.0,0.0,0.0,0.11558509074357007,0.0,-0.2718766549846367,-0.27862733245087673,-0.4915863818832985,0.2117713277977028,0.9606281212941141,-0.059819424485717546
11598,5.0,300.8237,3405.8994,0.0,0.0,0.0,0.0,0.11559505755315388,0.0,-0.3456984703652827,-0.23580755547739377,-0.4538023464493046,0.2054709488084038,0.9801357391093661,-0.050615964396406754
11599,5.0,299.99587,3512.3388,0.0,0.0,0.0,0.0,0.1156050243627377,0.0,-0.32275746471868166,-0.28606952271286373,-0.4588363148011185,0.2397680360107628,0.98887901342726,-0.054808377877665744
11600,5.0,300.35772000000003,3756.3872,0.0,0.0,0.0,0.0,0.11561499117232153,0.0,-0.3996371270461136,-0.28894460973911273,-0.45326616489388755,0.21703649955733478,0.989262974420154,-0.07395640539142893
11601,5.0,300.01833,3462.0521,0.0,0.0,0.0,0.0,0.11562495798190536,0.0,-0.3406650491685227,-0.27300928621141873,-0.43870305557912054,0.2290996169003718,0.9616629840187471,-0.07107563301886884
11602,5.0,300.25676,2798.79,0.0,0.0,0.0,0.0,0.11563492479148917,0.0,-0.2689637433321547,-0.2139284663330958,-0.3678700746809496,0.1959888023850888,0.9799300898690702,-0.08444625437044642
11603,5.0,299.96393,2816.1341,0.0,0.0,0.0,0.0,0.115644891601073,0.0,-0.23818633233966077,-0.22039979074676577,-0.3974483244450956,0.22674065921006079,0.982028581488675,-0.08036165779257813
11604,5.0,300.65007,3099.7962,0.0,0.0,0.0,0.0,0.11565485841065681,0.0,-0.2990317171346327,-0.23248977948245478,-0.41073912600679563,0.21513092062426878,0.989175034443975,-0.08674497839531282
11605,5.0,299.84651,3122.9952,0.0,0.0,0.0,0.0,0.11566482522024063,0.0,-0.27966221544051173,-0.24520201523705476,-0.4244483289322886,0.23170134931464278,0.9573563772512181,-0.08936871353550531
11606,5.0,299.90936,3038.1732,0.0,0.0,0.0,0.0,0.11567479202982446,0.0,-0.27409298759087175,-0.23978428854236677,-0.4096515033494556,0.2125457041866278,0.9711936043268461,-0.1024796996814589
11607,5.0,298.80978999999996,2976.4075,0.0,0.0,0.0,0.0,0.11568475883940828,0.0,-0.25758354642401676,-0.2372668990664198,-0.4099031237467886,0.2156852494889768,0.9748050404657671,-0.099185087597056
11608,5.0,299.86368999999996,3194.743,0.0,0.0,0.0,0.0,0.1156947256489921,0.0,-0.2539716948525548,-0.27556652681379873,-0.4415838674684346,0.20469109073643782,0.9988507825638971,-0.1054526362698649
11609,5.0,299.42827,3270.9551,0.0,0.0,0.0,0.0,0.11570469245857591,0.0,-0.2765310294514877,-0.28592386801098874,-0.43183377718867555,0.2194464237276758,0.9836107309898211,-0.10746577170104589
11610,5.0,299.71283999999997,3131.1857,0.0,0.0,0.0,0.0,0.11571465926815974,0.0,-0.3079671644664927,-0.2639517321100077,-0.3798833705165697,0.22368195100068977,1.001204055921147,-0.09793630751131101
11611,5.0,300.04889,2674.2228,0.0,0.0,0.0,0.0,0.11572462607774357,0.0,-0.24190507166417174,-0.2268716927129928,-0.34412019147951867,0.23582031229615277,0.97679671525983,-0.11678947620622389
11612,5.0,300.52256,2739.4628,0.0,0.0,0.0,0.0,0.11573459288732738,0.0,-0.24524627400142276,-0.2546541897224118,-0.3328278332225497,0.2100121736365878,0.9972738918307701,-0.1097850099874369
11613,5.0,300.68889,3288.1441,0.0,0.0,0.0,0.0,0.1157445596969112,0.0,-0.28481121807617876,-0.2824049821362017,-0.4322975012294416,0.2262419881733458,0.978696690919843,-0.13269253785073387
11614,5.0,299.85172,3566.9109,0.0,0.0,0.0,0.0,0.11575452650649502,0.0,-0.31183622957583973,-0.2894718949586517,-0.48294373343283553,0.2094480770409158,0.9757541822319401,-0.08218339129311922
11615,5.0,299.59786,3300.0581,0.0,0.0,0.0,0.0,0.11576449331607884,0.0,-0.28070066507049873,-0.26945426783806575,-0.4529803371731786,0.22688584781688978,0.9613373355691082,-0.08015741595667102
11616,5.0,299.96455,3235.605,0.0,0.0,0.0,0.0,0.11577446012566267,0.0,-0.29008377642903976,-0.2550925622456757,-0.43836678826843356,0.21754708641522577,0.9668340653740931,-0.047405647627573155
11617,5.0,300.54795,3489.1555,0.0,0.0,0.0,0.0,0.11578442693524649,0.0,-0.32273288327125565,-0.2954635771724847,-0.4424196974759246,0.22110415155378077,0.9613925678320591,-0.07012577792462543
11618,5.0,300.86518,3618.8607,0.0,0.0,0.0,0.0,0.1157943937448303,0.0,-0.3791277595194967,-0.28343232654509276,-0.43748319365122956,0.22920431603320476,0.96963445560297,-0.07494228152672733
11619,5.0,300.63703,3351.0496,0.0,0.0,0.0,0.0,0.11580436055441412,0.0,-0.3189139132468527,-0.27964685456899574,-0.4200746450081396,0.2335466398667588,0.993249150976059,-0.1026417791674549
11620,5.0,300.72112999999996,2876.7623,0.0,0.0,0.0,0.0,0.11581432736399795,0.0,-0.26241887722622675,-0.24176164611251674,-0.3702833831066246,0.2197213286123068,1.0302633797790792,-0.09669558681686141
11621,5.0,302.01698999999996,2897.4006,0.0,0.0,0.0,0.0,0.11582429417358178,0.0,-0.24657941729049376,-0.24910344355459577,-0.3850545835944286,0.2253419991695238,1.021831720396939,-0.12372635864334089
11622,5.0,300.76091,3285.1608,0.0,0.0,0.0,0.0,0.11583426098316559,0.0,-0.3027256622291967,-0.28514460775658174,-0.4107365726165436,0.23576406678310177,1.001937294356012,-0.1262139383013459
11623,5.0,300.47217,3285.0777,0.0,0.0,0.0,0.0,0.11584422779274942,0.0,-0.28713476267549476,-0.28607458896336374,-0.42537224077097163,0.23646929898520277,0.9703132825074651,-0.12402990810829888
11624,5.0,300.39867999999996,3044.3729,0.0,0.0,0.0,0.0,0.11585419460233323,0.0,-0.2665250529914748,-0.2743341917771768,-0.3845541191050367,0.24330685251501674,0.9492898425426131,-0.12736168721961988
11625,5.0,300.25567,2957.1961,0.0,0.0,0.0,0.0,0.11586416141191705,0.0,-0.21172547823067778,-0.26829748072889975,-0.41889081425380464,0.23253867893228075,0.9687404245097361,-0.13119074921501886
11626,5.0,300.01349,3288.845,0.0,0.0,0.0,0.0,0.11587412822150088,0.0,-0.26669816677105973,-0.2872482061566907,-0.4457803947450996,0.2005968814548708,0.9699156426382212,-0.10785801094725689
11627,5.0,300.34916,3470.9887,0.0,0.0,0.0,0.0,0.1158840950310847,0.0,-0.29678693246558974,-0.2901656267721177,-0.4681413248419516,0.2219098171057938,0.9697071866951481,-0.06471598193847014
11628,5.0,299.79209,3329.1715,0.0,0.0,0.0,0.0,0.11589406184066851,0.0,-0.3278576692295327,-0.26610794858780973,-0.4180193887703016,0.2251478503178628,0.992379670932748,-0.05996039999863074
11629,5.0,300.54746,3286.1212,0.0,0.0,0.0,0.0,0.11590402865025233,0.0,-0.29261173410352975,-0.28243137730130674,-0.4238556890812996,0.24665648509309976,1.015326756079949,-0.06746355853238484
11630,5.0,299.83546,3311.9449,0.0,0.0,0.0,0.0,0.11591399545983616,0.0,-0.3303420368847207,-0.28179558312855874,-0.3946109404550676,0.23403840053779176,0.9866137307086942,-0.09332197668841201
11631,5.0,300.16177000000005,3589.9982,0.0,0.0,0.0,0.0,0.11592396226941999,0.0,-0.3181625477676987,-0.3038984181599387,-0.4692088547498085,0.2163524949448288,0.981855619696605,-0.1034580737130169
11632,5.0,300.89372000000003,3557.1733,0.0,0.0,0.0,0.0,0.1159339290790038,0.0,-0.36474817006284166,-0.28479026406411073,-0.43175341632324454,0.23714438699682874,0.9655313094555211,-0.1051277376252999
11633,5.0,300.17762999999997,3017.2775,0.0,0.0,0.0,0.0,0.11594389588858763,0.0,-0.2515138743499868,-0.24818701963415177,-0.4174761245966856,0.22893944232456379,0.987844961302707,-0.09436603668420271
11634,5.0,300.657,2792.0793,0.0,0.0,0.0,0.0,0.11595386269817144,0.0,-0.2591982313858737,-0.2256099632909698,-0.3639141943030347,0.2097296997737098,0.9716057742025241,-0.09012101323125152
11635,5.0,301.28825,3212.8134,0.0,0.0,0.0,0.0,0.11596382950775526,0.0,-0.27024524126362875,-0.24876093462329274,-0.4576088737624795,0.20136314171049483,0.96124697392519,-0.06507198128160453
11636,5.0,300.17897,3438.0959999999995,0.0,0.0,0.0,0.0,0.11597379631733909,0.0,-0.33025210080584466,-0.25569060271969773,-0.4591526514823386,0.21526247088475178,0.9492243055261452,-0.06569101629769854
11637,5.0,300.47175,3193.6829,0.0,0.0,0.0,0.0,0.1159837631269229,0.0,-0.24873457998819176,-0.2821196610405427,-0.4399456041767506,0.2230973968854988,0.96796603798831,-0.09206954788905691
11638,5.0,299.87551,2841.9615,0.0,0.0,0.0,0.0,0.11599372993650672,0.0,-0.25567583966574076,-0.2253761456978938,-0.3828333468577096,0.24819473046741278,0.9714695325940781,-0.093551994593613
11639,5.0,299.91834,3121.0267,0.0,0.0,0.0,0.0,0.11600369674609054,0.0,-0.26697933354130876,-0.2763598813770967,-0.4053749597123936,0.23256273348965475,0.987490485887723,-0.097850819600374
11640,5.0,300.27086,3516.033,0.0,0.0,0.0,0.0,0.11601366355567437,0.0,-0.34263672240561166,-0.3042352427581807,-0.4219142816246976,0.24749794877114575,0.9779514353387921,-0.0945186807852675
11641,5.0,300.28539,3337.1903,0.0,0.0,0.0,0.0,0.1160236303652582,0.0,-0.2872576192501197,-0.2966562637326937,-0.43050863857539456,0.23021846792579378,1.0182011439636292,-0.13355707323355687
11642,5.0,300.12298,2853.7952,0.0,0.0,0.0,0.0,0.116033597174842,0.0,-0.23252095718803176,-0.2595172025173538,-0.37544433196097066,0.21951016729146677,0.9716489994517901,-0.1047417703972079
11643,5.0,300.61546,2723.3216,0.0,0.0,0.0,0.0,0.11604356398442583,0.0,-0.21389287085708278,-0.24516029973043776,-0.36876857420712467,0.1982738738781078,0.9802495777581011,-0.12107057946873588
11644,5.0,299.97639,3085.785,0.0,0.0,0.0,0.0,0.11605353079400965,0.0,-0.29616659035686677,-0.24813401652142075,-0.39370099120276264,0.18973712019559583,0.9608257759911211,-0.08618215241526622
11645,5.0,301.05231000000003,3420.2494,0.0,0.0,0.0,0.0,0.11606349760359347,0.0,-0.3282181836151127,-0.26480202119642476,-0.44665020916094356,0.2290836480787958,0.9955959901951741,-0.1015734690570209
11646,5.0,300.66475,3257.6643,0.0,0.0,0.0,0.0,0.1160734644131773,0.0,-0.3165299080140697,-0.24331816038613277,-0.4304005349222256,0.22451345443025275,0.9860106543816751,-0.07073105807061193
11647,5.0,300.67912,2995.3452,0.0,0.0,0.0,0.0,0.11608343122276112,0.0,-0.2539479544027118,-0.24091109358107377,-0.4156510990465696,0.2211822022089838,0.994186751823593,-0.06634955996169173
11648,5.0,299.94888,3445.2685,0.0,0.0,0.0,0.0,0.11609339803234495,0.0,-0.3147252589234647,-0.26341289583932875,-0.46913745101526155,0.2283908889854258,0.962301706484284,-0.06513982850830054
11649,5.0,299.42984,3828.3891,0.0,0.0,0.0,0.0,0.11610336484192875,0.0,-0.33496671299114067,-0.3178508416394357,-0.5109171267610945,0.2166809095672408,1.002406885114857,-0.1024053169916179
11650,5.0,299.22511000000003,3397.7135,0.0,0.0,0.0,0.0,0.11611333165151258,0.0,-0.3195000176346967,-0.28618242917150677,-0.42713760615519963,0.24080899850099777,0.9867388265660401,-0.0958313766873205
11651,5.0,300.12071000000003,2856.8076,0.0,0.0,0.0,0.0,0.11612329846109641,0.0,-0.23491498346430378,-0.25639770943448376,-0.37708548301543965,0.1956715740437808,1.001877755780136,-0.12223174381833388
11652,5.0,300.21646,2880.8066,0.0,0.0,0.0,0.0,0.11613326527068021,0.0,-0.27652657115104773,-0.24172235227363875,-0.3574443289695086,0.2126780245171868,0.9925453677216011,-0.08548905286986261
11653,5.0,299.76162,3095.8513,0.0,0.0,0.0,0.0,0.11614323208026404,0.0,-0.27798920780289876,-0.25164535368296276,-0.41142693030717664,0.2078945417225938,0.999031090419192,-0.11821829056973689
11654,5.0,300.34594,3332.2237,0.0,0.0,0.0,0.0,0.11615319888984786,0.0,-0.2961565997108807,-0.2774492873546127,-0.43930691210871653,0.22910983046137978,0.994769188246075,-0.08186152935910392
11655,5.0,300.95808,3130.1027,0.0,0.0,0.0,0.0,0.11616316569943168,0.0,-0.26262146645122075,-0.24287554234494976,-0.44597604320690853,0.2109141384781048,0.987350464856404,-0.1166094621934579
11656,5.0,300.85438,3108.2183,0.0,0.0,0.0,0.0,0.11617313250901551,0.0,-0.2800064874269887,-0.25610871024096177,-0.4087055634535986,0.23632647125110678,0.9606010877814462,-0.07835050529184283
11657,5.0,300.5528,3371.9684,0.0,0.0,0.0,0.0,0.11618309931859933,0.0,-0.3029333075721897,-0.2857348360723327,-0.4363260417720276,0.22200777812546182,1.003989895878588,-0.1356978275148329
11658,5.0,299.76999,3553.658,0.0,0.0,0.0,0.0,0.11619306612818316,0.0,-0.36047271060338665,-0.28250719880628977,-0.4372433978825636,0.24973521512444677,0.980511158403917,-0.06287869910189443
11659,5.0,299.95112,3374.8668,0.0,0.0,0.0,0.0,0.11620303293776696,0.0,-0.3077185838194597,-0.2781732140210587,-0.4399834389354846,0.21405371417795682,0.985567397992929,-0.11436097916154989
11660,5.0,299.80899,2996.6059,0.0,0.0,0.0,0.0,0.11621299974735079,0.0,-0.2501294606058557,-0.24161038813758876,-0.41915351960723163,0.21957696073805877,0.971903375889395,-0.09234654310864422
11661,5.0,300.32333,2916.9627,0.0,0.0,0.0,0.0,0.11622296655693462,0.0,-0.21677146372867778,-0.26125864506672075,-0.4086537154459816,0.2111204260659638,1.005454903535673,-0.1157607841746999
11662,5.0,299.43773999999996,3201.6937,0.0,0.0,0.0,0.0,0.11623293336651842,0.0,-0.2870132537235027,-0.27105277119582577,-0.4151689338539836,0.23667318517032476,0.982041226849923,-0.08256595096112491
11663,5.0,299.94293,3355.0034,0.0,0.0,0.0,0.0,0.11624290017610225,0.0,-0.30858330158730074,-0.26891236141958375,-0.4423415961582166,0.22214448582895377,0.992853162704478,-0.08231047818691173
11664,5.0,300.43582999999995,3238.4722,0.0,0.0,0.0,0.0,0.11625286698568607,0.0,-0.3363224112274377,-0.24722481707418975,-0.4008674355825356,0.24130394077734477,0.975849012308799,-0.06391790258995585
11665,5.0,300.66547,3053.4686,0.0,0.0,0.0,0.0,0.11626283379526989,0.0,-0.26596017619322576,-0.2292688701970758,-0.4329491831637576,0.2155147904246538,0.989299279171237,-0.09112282069787223
11666,5.0,300.14269,3161.8509999999997,0.0,0.0,0.0,0.0,0.11627280060485372,0.0,-0.26901645260235674,-0.26462743820419476,-0.42747986177397757,0.24227600226077978,0.975377547037269,-0.07379573634957214
11667,5.0,300.38811,3577.5690000000004,0.0,0.0,0.0,0.0,0.11628276741443754,0.0,-0.30225673008291676,-0.29050040460515775,-0.4947345195464955,0.2065656439514418,0.9689307331435181,-0.0988314288616526
11668,5.0,300.08423,3570.1642,0.0,0.0,0.0,0.0,0.11629273422402137,0.0,-0.3424907637287067,-0.2933071479121617,-0.4494428480265556,0.2317535823572978,0.9542052910302301,-0.08937954923207472
11669,5.0,299.01203,3114.5557,0.0,0.0,0.0,0.0,0.11630270103360517,0.0,-0.2868309598980117,-0.27733801222863075,-0.38257819021752765,0.22546826026448477,0.9901575020059371,-0.11541076706015589
11670,5.0,299.13687999999996,2866.2996,0.0,0.0,0.0,0.0,0.116312667843189,0.0,-0.2769280613706717,-0.23357965155501675,-0.36077578384079767,0.23536715645392978,0.9738971886411691,-0.1151763921795249
11671,5.0,298.98727,3210.7075,0.0,0.0,0.0,0.0,0.11632263465277283,0.0,-0.27951782730126173,-0.27958206735760177,-0.41687502410736166,0.2255119313437948,0.9869129130657212,-0.1137129955900989
11672,5.0,299.25407,3355.2497,0.0,0.0,0.0,0.0,0.11633260146235663,0.0,-0.2924215673247617,-0.3043090478954647,-0.42318150286226264,0.21936677213731479,0.9786329068260481,-0.12569430312006188
11673,5.0,301.08,2937.0787,0.0,0.0,0.0,0.0,0.11634256827194046,0.0,-0.22654695618844378,-0.26939919769513077,-0.3968524219287846,0.22399425494651176,0.998035399943425,-0.11458372193103289
11674,5.0,300.88194,2691.4674,0.0,0.0,0.0,0.0,0.11635253508152428,0.0,-0.2311459261398268,-0.23723266134554075,-0.3497602961736537,0.2151525028513988,0.996843027490747,-0.10385626073731491
11675,5.0,300.1027,3048.6291,0.0,0.0,0.0,0.0,0.1163625018911081,0.0,-0.2889038872175937,-0.23850907276151279,-0.39929415201976465,0.1987597880960638,0.979850985433763,-0.08422503755561402
11676,5.0,300.35435,3568.0217,0.0,0.0,0.0,0.0,0.11637246870069193,0.0,-0.3719145739126107,-0.2783294267889757,-0.43434552286156564,0.21083352430014882,0.977359241317847,-0.08464117835843392
11677,5.0,300.38585,3639.2013,0.0,0.0,0.0,0.0,0.11638243551027574,0.0,-0.3271461650093127,-0.3036398164694167,-0.4754403529973095,0.1924715073129588,0.9737008106392882,-0.10507576802767091
11678,5.0,299.84636,3206.1128,0.0,0.0,0.0,0.0,0.11639240231985958,0.0,-0.28378547460244574,-0.24860706246310676,-0.44218568736532954,0.22223197997508876,0.968504894523991,-0.08275807533908613
11679,5.0,300.62458,3175.7745,0.0,0.0,0.0,0.0,0.11640236912944338,0.0,-0.27125107437289675,-0.2646222908936868,-0.4294827937766516,0.23422236622594775,0.9736819337899251,-0.09170482750231182
11680,5.0,299.20325,3486.869,0.0,0.0,0.0,0.0,0.11641233593902721,0.0,-0.3435897449196677,-0.26811627108101577,-0.4482150928803856,0.26803255635775375,0.997914853579028,-0.07195119864228043
11681,5.0,298.93936,3418.1859,0.0,0.0,0.0,0.0,0.11642230274861104,0.0,-0.3345507636925897,-0.25471980779888775,-0.4497726102716006,0.24438335981875978,0.9944434790014299,-0.07418341394383293
11682,5.0,299.02731,2959.475,0.0,0.0,0.0,0.0,0.11643226955819484,0.0,-0.26734216826961776,-0.25688803129037474,-0.3753763023492566,0.2287086442167858,0.992948702056407,-0.06824033328429653
11683,5.0,299.11371,2825.3144,0.0,0.0,0.0,0.0,0.11644223636777867,0.0,-0.2255074933083568,-0.2339190396760118,-0.3993984965150626,0.19354171220107982,0.9756627060129122,-0.08654739361256272
11684,5.0,299.33216,3253.7457,0.0,0.0,0.0,0.0,0.11645220317736249,0.0,-0.26294100500275674,-0.29186437096227075,-0.43425208093734363,0.2092157691904888,0.991394214282991,-0.1123075366413909
11685,5.0,300.21407,3503.2463,0.0,0.0,0.0,0.0,0.1164621699869463,0.0,-0.29107203978157375,-0.29566858806521773,-0.4781587611605955,0.2121059840407308,0.9896644545072771,-0.11187422023612589
11686,5.0,300.15608,3394.0685,0.0,0.0,0.0,0.0,0.11647213679653012,0.0,-0.31636605534039874,-0.29037021209980873,-0.42497578640434464,0.2057862215770188,0.9982253742046742,-0.1100101237621539
11687,5.0,299.83402,3147.9473,0.0,0.0,0.0,0.0,0.11648210360611395,0.0,-0.28343424158778174,-0.27589832569154477,-0.39756479754409063,0.2121162786617468,0.964245657198637,-0.09578947068968471
11688,5.0,300.22519,3107.3299,0.0,0.0,0.0,0.0,0.11649207041569776,0.0,-0.28454809729021074,-0.2542174485318087,-0.4057851436178756,0.2215259067754048,1.000007285963035,-0.1023956911156679
11689,5.0,300.10571,3273.2486,0.0,0.0,0.0,0.0,0.11650203722528159,0.0,-0.25725764466185275,-0.27308149041354474,-0.46464669617455856,0.2228417234877658,0.9935190504051962,-0.094656487865118
11690,5.0,300.54319,3286.0159,0.0,0.0,0.0,0.0,0.11651200403486542,0.0,-0.27854663721291273,-0.2829257116275937,-0.43739444307497055,0.23822334636581377,0.980804474042865,-0.1108498243850259
11691,5.0,299.55297,2994.0719,0.0,0.0,0.0,0.0,0.11652197084444924,0.0,-0.25309346032837976,-0.25138991333275273,-0.4056397118310226,0.21144157568515878,0.9653411832067572,-0.07421332812653524
11692,5.0,298.87031,2694.7123,0.0,0.0,0.0,0.0,0.11653193765403305,0.0,-0.24858515599594477,-0.22572814878263375,-0.3448119575877907,0.23890113975520677,1.014284020402039,-0.10617871102652289
11693,5.0,298.84517,3045.3068,0.0,0.0,0.0,0.0,0.11654190446361687,0.0,-0.3163142478627857,-0.2259087910104618,-0.3834741971484566,0.22389978963968876,0.992533391105419,-0.08307409588627493
11694,5.0,299.7496,3509.5402,0.0,0.0,0.0,0.0,0.1165518712732007,0.0,-0.3306535707604667,-0.29297687904206676,-0.44318213777867155,0.2135224975480298,0.9805275933205391,-0.08864485982306651
11695,5.0,299.65632999999997,3527.4423,0.0,0.0,0.0,0.0,0.1165618380827845,0.0,-0.3112574003237137,-0.3075137857092477,-0.4534832030653076,0.2029434673614608,0.9506652180958521,-0.07929193115850432
11696,5.0,298.45544,3298.4096,0.0,0.0,0.0,0.0,0.11657180489236833,0.0,-0.2796240665742467,-0.2639688459041967,-0.45904125476634455,0.2339793685869658,1.000324473774339,-0.1136738740037379
11697,5.0,298.6746,3314.7741,0.0,0.0,0.0,0.0,0.11658177170195215,0.0,-0.30540449284357674,-0.2638373057762148,-0.4383667578709306,0.2570310211444867,1.016822414552559,-0.07972751217774282
11698,5.0,300.033,3432.4383,0.0,0.0,0.0,0.0,0.11659173851153597,0.0,-0.33781466517971165,-0.2870588702430047,-0.41850198966043056,0.23263813956209678,1.015583614980299,-0.09911335658272671
11699,5.0,300.17887,3269.1979,0.0,0.0,0.0,0.0,0.1166017053211198,0.0,-0.33907844136693666,-0.24212492667086977,-0.4125511718231306,0.2313344109234288,0.986275082260272,-0.07733786212865272
11700,5.0,299.45384,2998.1857,0.0,0.0,0.0,0.0,0.11661167213070363,0.0,-0.28010657627186675,-0.24674684673701774,-0.38452017522668663,0.2219837742305928,1.008006176094964,-0.1032610168335689
11701,5.0,299.5661,2838.2161,0.0,0.0,0.0,0.0,0.11662163894028744,0.0,-0.2165655206458528,-0.23632247904571277,-0.40985883458491756,0.2555757913508667,0.98736420452776,-0.09346957581722891
11702,5.0,299.88973,2927.4257,0.0,0.0,0.0,0.0,0.11663160574987125,0.0,-0.2304003260537418,-0.24514481726890977,-0.4143191817901196,0.2146452191888338,0.966341889270519,-0.12739556017046288
11703,5.0,300.51561,3366.4118,0.0,0.0,0.0,0.0,0.11664157255945508,0.0,-0.2950464322388157,-0.30372291311011773,-0.4245357724159186,0.23472835292838476,0.9413513927791491,-0.10461726222491989
11704,5.0,299.78356,3279.4165,0.0,0.0,0.0,0.0,0.11665153936903888,0.0,-0.3092450957576147,-0.2706219777833097,-0.41699364529656857,0.22293654343212377,0.999251593905954,-0.13590045726983085
11705,5.0,298.75109,3029.5844,0.0,0.0,0.0,0.0,0.11666150617862271,0.0,-0.26536293618678275,-0.2806735606303237,-0.37488151206042464,0.22790522807999478,0.978382502328835,-0.1090448206568859
11706,5.0,299.81528,3181.2111,0.0,0.0,0.0,0.0,0.11667147298820654,0.0,-0.26972788589506974,-0.2795894235533277,-0.4176914402429356,0.19620271974620082,0.989313039107595,-0.12657588136956688
11707,5.0,300.01673999999997,3369.1492,0.0,0.0,0.0,0.0,0.11668143979779036,0.0,-0.2824528886009297,-0.2630358654771187,-0.47864846493392554,0.1926678447848358,0.9519608508662211,-0.06429085360726323
11708,5.0,299.35546,3153.2267,0.0,0.0,0.0,0.0,0.11669140660737418,0.0,-0.27595090323923377,-0.25991143786626175,-0.4226398294913036,0.2198078703033478,1.0290896308632391,-0.1056117874630719
11709,5.0,298.50757999999996,3037.9295,0.0,0.0,0.0,0.0,0.11670137341695799,0.0,-0.27783834499550975,-0.2301652722955438,-0.4154511138743326,0.2307057297663828,1.015625766184459,-0.07179828299018882
11710,5.0,299.42838,3085.3975,0.0,0.0,0.0,0.0,0.11671134022654182,0.0,-0.3167701698777817,-0.25174838095313073,-0.3693652366610106,0.22237659102936078,0.9857308251015581,-0.11335115384688788
11711,5.0,300.26734,3252.1676,0.0,0.0,0.0,0.0,0.11672130703612565,0.0,-0.3484389268507447,-0.2406554708458458,-0.39948333594593566,0.22312738908845878,0.9559941942142811,-0.07069192635174992
11712,5.0,300.28445,3367.6455,0.0,0.0,0.0,0.0,0.11673127384570946,0.0,-0.30645518253477166,-0.2774627331834397,-0.4397622261736526,0.23499223365192776,0.9884897835338461,-0.0905960035998794
11713,5.0,300.02365,3254.3318,0.0,0.0,0.0,0.0,0.11674124065529329,0.0,-0.2644507983142617,-0.27754367160142773,-0.4472411366192636,0.25746808657512177,0.972333095256805,-0.05998403709696354
11714,5.0,300.59685,3111.0675,0.0,0.0,0.0,0.0,0.11675120746487709,0.0,-0.26117300516826875,-0.25693956519046074,-0.4275742662857946,0.18701982660741984,0.980181122581345,-0.0927146497772235
11715,5.0,300.74547,3381.5779,0.0,0.0,0.0,0.0,0.11676117427446092,0.0,-0.3045233401591137,-0.2653879837292547,-0.45800392984396854,0.21272396527672077,0.9538305810107491,-0.05882442605976885
11716,5.0,300.58269,3688.0195,0.0,0.0,0.0,0.0,0.11677114108404475,0.0,-0.35342353979018765,-0.33584353909767667,-0.4317987592652196,0.1966221343600938,1.0327011581946688,-0.1128515708850829
11717,5.0,300.05401,3385.5831,0.0,0.0,0.0,0.0,0.11678110789362857,0.0,-0.3084699695636157,-0.26967535900988576,-0.45098740594899156,0.2241877755831108,1.020484807039009,-0.06672086242108644
11718,5.0,299.10152999999997,2838.6165,0.0,0.0,0.0,0.0,0.11679107470321239,0.0,-0.2140237523724998,-0.2729195933125667,-0.3759252001934287,0.1946414026671108,1.013604028259929,-0.13219966260459087
11719,5.0,298.28652,2818.1615,0.0,0.0,0.0,0.0,0.1168010415127962,0.0,-0.22567764839764978,-0.22463549027229676,-0.4063375979698986,0.21291761763583278,0.9643444997458921,-0.08518337253994432
11720,5.0,299.25293999999997,3082.5676,0.0,0.0,0.0,0.0,0.11681100832238003,0.0,-0.26130361310615874,-0.23655111893077777,-0.4391688365175896,0.23774236667584478,1.005539641641536,-0.1251784878916549
11721,5.0,298.92111,3130.4143,0.0,0.0,0.0,0.0,0.11682097513196386,0.0,-0.2573426563452428,-0.29451206440107774,-0.39971307014110863,0.24575734721936177,0.9881330587036401,-0.1262845314358129
11722,5.0,300.26419,3002.1659,0.0,0.0,0.0,0.0,0.11683094194154767,0.0,-0.28121296432105874,-0.24782767048618676,-0.3835428549752326,0.22162569164525275,0.9891812861970921,-0.12908478994217687
11723,5.0,299.90468,3116.1208,0.0,0.0,0.0,0.0,0.1168409087511315,0.0,-0.2928820793627107,-0.26882424919088777,-0.3855165749775236,0.2030891220633358,0.9587385719776301,-0.1030157393818619
11724,5.0,300.00736,3544.9904,0.0,0.0,0.0,0.0,0.1168508755607153,0.0,-0.3144953930057787,-0.3143527577892017,-0.4487404225272316,0.2067989853169708,1.009628328710058,-0.09648545799787331
11725,5.0,300.39432,3646.9422,0.0,0.0,0.0,0.0,0.11686084237029913,0.0,-0.3423200614843596,-0.27263669388464673,-0.4936226194167595,0.2431643388884518,0.992997905481263,-0.05542586464760695
11726,5.0,300.12063,3497.0338,0.0,0.0,0.0,0.0,0.11687080917988296,0.0,-0.3091206686453347,-0.3030047113067367,-0.45088558444644256,0.2102570559207558,0.984217698197224,-0.04475098606782846
11727,5.0,299.99053,3290.1574,0.0,0.0,0.0,0.0,0.11688077598946678,0.0,-0.3150200133775547,-0.23171304222079675,-0.45339264890387054,0.2198079513633558,0.9665838229968962,-0.04981165659952775
11728,5.0,300.18526,3346.5872,0.0,0.0,0.0,0.0,0.1168907427990506,0.0,-0.33195318560372866,-0.25494084830820274,-0.4303849106056836,0.23067692306603976,0.9985876009829231,-0.05993624411624674
11729,5.0,299.92877999999996,3385.2778,0.0,0.0,0.0,0.0,0.11690070960863441,0.0,-0.31079080878516474,-0.28309423538422573,-0.4351548665114416,0.25012631953054576,1.01051170041224,-0.11751056577238989
11730,5.0,300.03315,3230.8505,0.0,0.0,0.0,0.0,0.11691067641821824,0.0,-0.2873903955432237,-0.24884778028936377,-0.44585970183042656,0.2128748584816128,0.9706996043730921,-0.1076510444818309
11731,5.0,300.61466,2933.3199,0.0,0.0,0.0,0.0,0.11692064322780207,0.0,-0.25121022356001876,-0.2546909403035388,-0.3857548306060376,0.22644433421831578,0.966084594672626,-0.13406417451110386
11732,5.0,299.4181,2942.4864,0.0,0.0,0.0,0.0,0.11693061003738588,0.0,-0.28661358735405873,-0.2276366458759878,-0.38019215848454463,0.2095451058704918,1.020793240369449,-0.1092883046559159
11733,5.0,299.35292000000004,3251.3244,0.0,0.0,0.0,0.0,0.11694057684696971,0.0,-0.2938639085771097,-0.2870060191177887,-0.4074515043348326,0.25003905843193375,1.014910006313819,-0.12185912109405889
11734,5.0,300.00705,3385.836,0.0,0.0,0.0,0.0,0.11695054365655352,0.0,-0.3075490164152247,-0.3167464496929407,-0.40491412343441263,0.2234909432243388,0.9915088432668041,-0.11575183717631687
11735,5.0,298.66987,3249.0316,0.0,0.0,0.0,0.0,0.11696051046613734,0.0,-0.25813082306802876,-0.2889405162087087,-0.44055313880420954,0.2170611316672658,0.963895832601612,-0.09875402263351321
11736,5.0,298.73154,3141.4698,0.0,0.0,0.0,0.0,0.11697047727572117,0.0,-0.26339668383772874,-0.2618223971573588,-0.42970928557150456,0.2272193185573008,0.9993961137677171,-0.1037559793749179
11737,5.0,299.55361,3115.0268,0.0,0.0,0.0,0.0,0.11698044408530499,0.0,-0.2599292913330238,-0.2521462032073928,-0.4348148704403866,0.2349261697454078,0.987762148372034,-0.09166277255691133
11738,5.0,299.89453,3247.1343,0.0,0.0,0.0,0.0,0.1169904108948888,0.0,-0.2953695272982027,-0.25351368554235276,-0.4381645334159726,0.2237716337670408,0.97758289601242,-0.07543261047536903
11739,5.0,300.80438,3339.7033,0.0,0.0,0.0,0.0,0.11700037770447262,0.0,-0.31003298890287373,-0.27787676743930173,-0.4272766443339216,0.20780462590871984,0.9596147901341061,-0.08500655735774401
11740,5.0,300.34713,3113.3013,0.0,0.0,0.0,0.0,0.11701034451405645,0.0,-0.2983331318531877,-0.23978165409210678,-0.4082510802537446,0.20502065033146283,1.0239825463842092,-0.09851696770636771
11741,5.0,300.1116,3052.1828,0.0,0.0,0.0,0.0,0.11702031132364028,0.0,-0.2538082474789238,-0.27549055332130074,-0.39848857766026063,0.2013229967415328,1.024967020181369,-0.13997583023203886
11742,5.0,299.57694,3343.5989,0.0,0.0,0.0,0.0,0.11703027813322409,0.0,-0.30419937370464073,-0.27931051633080173,-0.43286068590002363,0.2097228299380318,1.0147832487263089,-0.10157509025718091
11743,5.0,299.90086,3614.2612,0.0,0.0,0.0,0.0,0.11704024494280792,0.0,-0.34759149512960963,-0.27922399490476274,-0.47182966666346254,0.2353084082131318,0.988957621370018,-0.09443811017706581
11744,5.0,300.61986,3494.4011,0.0,0.0,0.0,0.0,0.11705021175239173,0.0,-0.3397862472242917,-0.2691401603070657,-0.4532842818056756,0.24773030728407777,0.9993308097987721,-0.06200942778810404
11745,5.0,301.02786000000003,3154.3589,0.0,0.0,0.0,0.0,0.11706017856197555,0.0,-0.29723886227519175,-0.2423863350641688,-0.4192211540514066,0.2277179389315108,0.977525718309277,-0.08621043019905701
11746,5.0,300.02693,3294.7984,0.0,0.0,0.0,0.0,0.11707014537155938,0.0,-0.29164568119318773,-0.2639497968023167,-0.4459409543559456,0.23596932085585878,0.9439358999417201,-0.05545963829994015
11747,5.0,301.53096,3593.7417,0.0,0.0,0.0,0.0,0.1170801121811432,0.0,-0.2870923378938077,-0.3144234015861737,-0.49089202185477054,0.21285096604425477,0.968827564018336,-0.09530144080551992
11748,5.0,300.53217,3480.159,0.0,0.0,0.0,0.0,0.11709007899072701,0.0,-0.3023274752048987,-0.2620647767137797,-0.4934891845110905,0.2255796975104828,1.0017582834608452,-0.04877303775677405
11749,5.0,300.50022,3136.6337,0.0,0.0,0.0,0.0,0.11710004580031083,0.0,-0.2731598653087797,-0.2865931399670407,-0.3937053076481887,0.19668866436165983,1.031392647015529,-0.1177777192937559
11750,5.0,300.16055,3083.6332,0.0,0.0,0.0,0.0,0.11711001260989466,0.0,-0.2960682443021607,-0.23412646210398277,-0.4071527779403506,0.21125816728455782,0.997250212175933,-0.07463435583458743
11751,5.0,299.61618,3267.5307,0.0,0.0,0.0,0.0,0.11711997941947849,0.0,-0.31641874434559875,-0.2805357788817257,-0.39629322946359663,0.22787219612673476,0.998474370284248,-0.12721992339812888
11752,5.0,299.47592000000003,3418.3074,0.0,0.0,0.0,0.0,0.1171299462290623,0.0,-0.3049822107319007,-0.29923697120738973,-0.4348609226574316,0.24456190461888078,1.0036277704253491,-0.1038845810776099
11753,5.0,300.06006,3134.0611,0.0,0.0,0.0,0.0,0.11713991303864613,0.0,-0.23055173601618478,-0.29364542145804673,-0.4284791492875996,0.23328403583834176,1.005113732094502,-0.15664732048738686
11754,5.0,299.63705,3006.4582,0.0,0.0,0.0,0.0,0.11714987984822994,0.0,-0.24542632854419277,-0.26451630493322675,-0.40394557792882463,0.22974588807915378,0.994310408865797,-0.08742393499582062
11755,5.0,299.68494,3336.6848,0.0,0.0,0.0,0.0,0.11715984665781376,0.0,-0.29073258073307173,-0.2850440122866537,-0.4384922792933186,0.22612771382706778,1.0089327325164081,-0.1089931449017859
11756,5.0,299.89238,3597.1643,0.0,0.0,0.0,0.0,0.11716981346739759,0.0,-0.3383590641934397,-0.2926212485219687,-0.4624678132920196,0.24744982952389677,0.9869627143081361,-0.05729026813635925
11757,5.0,300.74966,3177.3962,0.0,0.0,0.0,0.0,0.11717978027698141,0.0,-0.2959900619244447,-0.27654635992550075,-0.39331269349944065,0.22500879187413877,0.987957837363847,-0.1033528983526369
11758,5.0,299.96096,2911.7496,0.0,0.0,0.0,0.0,0.11718974708656522,0.0,-0.24230517373115876,-0.2409328885907248,-0.4018610894256016,0.2008253389549178,0.94977900929339,-0.06255783420597753
11759,5.0,299.06661,2980.1263,0.0,0.0,0.0,0.0,0.11719971389614904,0.0,-0.24137900234475276,-0.25620555668551975,-0.40829942241601563,0.19865838202605582,0.994258520328176,-0.1093943108813779
11760,5.0,299.11586,3468.3099,0.0,0.0,0.0,0.0,0.11720968070573287,0.0,-0.3345543404654427,-0.27782217352391375,-0.44190310204494054,0.2166906874307058,1.021355796824969,-0.06846028151000373
11761,5.0,299.12647999999996,3584.8476,0.0,0.0,0.0,0.0,0.1172196475153167,0.0,-0.35214864824936565,-0.28017600416871874,-0.4573795144698436,0.2217584578058558,1.029679342421439,-0.11005008634609789
11762,5.0,298.97553,3121.7688,0.0,0.0,0.0,0.0,0.1172296143249005,0.0,-0.3139806011599727,-0.2531832646847427,-0.3817759089208486,0.2218967157820008,0.994327684780002,-0.06812476704414104
11763,5.0,299.60388,2886.5089,0.0,0.0,0.0,0.0,0.11723958113448434,0.0,-0.28599742996824873,-0.22871206900212376,-0.3627171406348947,0.21005902632121182,0.9845512094676392,-0.1013370372786869
11764,5.0,299.71435,3343.7796,0.0,0.0,0.0,0.0,0.11724954794406815,0.0,-0.2751157419768097,-0.28013848351751575,-0.4611712685965606,0.24863560571842377,0.9631543057809292,-0.07741093975236492
11765,5.0,300.08428,3668.0819,0.0,0.0,0.0,0.0,0.11725951475365197,0.0,-0.3040044142528997,-0.3259181464181167,-0.48508272465893754,0.23288124865858978,0.9744440498526401,-0.11958425302954688
11766,5.0,301.01202,3351.1048,0.0,0.0,0.0,0.0,0.1172694815632358,0.0,-0.28895371885751175,-0.26352938920332575,-0.46616907405230557,0.24685406886259978,0.9624016636066491,-0.06721682200053385
11767,5.0,300.84227999999996,2783.6728,0.0,0.0,0.0,0.0,0.11727944837281962,0.0,-0.24244814332026876,-0.23581097013023075,-0.36790792970468567,0.2058739589031778,0.9991810818314951,-0.1055070680652369
11768,5.0,300.14184,2782.7325,0.0,0.0,0.0,0.0,0.11728941518240343,0.0,-0.27954905566934374,-0.22077290996358978,-0.3455592396690417,0.21513391984456479,1.002360620115291,-0.07630864016732643
11769,5.0,299.60975,3221.5290000000005,0.0,0.0,0.0,0.0,0.11729938199198725,0.0,-0.3028898695404027,-0.2741087537624277,-0.40226573085303663,0.1960783230314238,1.0134256962423291,-0.13545527570589488
11770,5.0,299.63696,3304.5219,0.0,0.0,0.0,0.0,0.11730934880157108,0.0,-0.26825491409219876,-0.30070495781976875,-0.43553228190868964,0.21104567860608683,0.9708976745026401,-0.10737552151463889
11771,5.0,299.8839,3194.0936,0.0,0.0,0.0,0.0,0.11731931561115491,0.0,-0.26151452111447376,-0.2695001072725897,-0.4399100694957436,0.2155143749921128,1.0101384900029071,-0.12096120925294189
11772,5.0,299.71693999999997,3170.5837,0.0,0.0,0.0,0.0,0.11732928242073871,0.0,-0.26524666573780775,-0.25799476384460074,-0.4405368356101006,0.24806421372203175,1.0049588568167171,-0.09890014849668471
11773,5.0,300.80273,3252.0563,0.0,0.0,0.0,0.0,0.11733924923032255,0.0,-0.30033979261622973,-0.25010361259580477,-0.43810049600965256,0.2330122011015138,1.019732468839759,-0.11162866920689189
11774,5.0,300.97217,3588.6657,0.0,0.0,0.0,0.0,0.11734921603990636,0.0,-0.3724504818905006,-0.2651510959883757,-0.4532631859385936,0.23986044441988277,0.966656888461607,-0.048965741713792456
11775,5.0,300.91183,3498.2598,0.0,0.0,0.0,0.0,0.11735918284949018,0.0,-0.33058095112579966,-0.2700916021509657,-0.46271108450852855,0.2057525816736988,0.996198184994606,-0.07693298562719453
11776,5.0,301.08522999999997,3091.1564,0.0,0.0,0.0,0.0,0.11736914965907401,0.0,-0.24557225682359476,-0.25853253620267475,-0.4355295663984216,0.2539284392057857,0.9824967739623821,-0.07756154620747863
11777,5.0,300.62947,3076.277,0.0,0.0,0.0,0.0,0.11737911646865783,0.0,-0.23569114317340475,-0.2653874163091987,-0.43403282374820457,0.2155239502055578,0.9761017979437471,-0.1003378166395715
11778,5.0,300.41112999999996,3336.0939,0.0,0.0,0.0,0.0,0.11738908327824164,0.0,-0.2984990920870667,-0.26849085951048474,-0.4470992917377646,0.21736031402429276,0.9616088561984051,-0.08686908633381132
11779,5.0,300.75743,3358.8939,0.0,0.0,0.0,0.0,0.11739905008782546,0.0,-0.3357250293659807,-0.25785246300055675,-0.42744240191778066,0.2130173822406788,0.9909609384077301,-0.09029550604422261
11780,5.0,299.01216,3105.5899,0.0,0.0,0.0,0.0,0.11740901689740929,0.0,-0.3145079471745177,-0.25048024779047573,-0.37903358805520265,0.23651190615190776,1.041472965635379,-0.11252411885026588
11781,5.0,299.98877000000005,3225.1283,0.0,0.0,0.0,0.0,0.11741898370699312,0.0,-0.28384287522061075,-0.2838597964972807,-0.4126558000284566,0.2179132446038628,1.035108640432269,-0.14012593310185287
11782,5.0,301.1687,3434.5931,0.0,0.0,0.0,0.0,0.11742895051657692,0.0,-0.3066930835257507,-0.28359999917164075,-0.45373744778039954,0.2315977748894208,0.9911868931800301,-0.1142719043452589
11783,5.0,301.42704,3480.5881,0.0,0.0,0.0,0.0,0.11743891732616075,0.0,-0.3050599371470717,-0.2961581702485357,-0.45679377485203554,0.2160615300461128,1.001673190717447,-0.11806348621945888
11784,5.0,300.53855,3318.5793,0.0,0.0,0.0,0.0,0.11744888413574457,0.0,-0.2789363230688717,-0.2750280350481537,-0.4548008740253516,0.2515819647567068,0.977121431519377,-0.08609727448088941
11785,5.0,300.44007999999997,2980.1942,0.0,0.0,0.0,0.0,0.11745885094532839,0.0,-0.26716581208971274,-0.23783991226297177,-0.4008988868656396,0.2287538858337508,0.9906979797417781,-0.0928068008208181
11786,5.0,300.42093,3015.7683,0.0,0.0,0.0,0.0,0.11746881775491222,0.0,-0.25221371606155574,-0.27497453544287376,-0.38953001809361965,0.2131946807431768,0.963030719666232,-0.08649207015710272
11787,5.0,300.95603,3402.4081,0.0,0.0,0.0,0.0,0.11747878456449604,0.0,-0.28911647722107475,-0.2858517246038687,-0.45927892270980053,0.2039118608795338,0.9770278477401411,-0.11071866929208189
11788,5.0,300.02767,3681.4099,0.0,0.0,0.0,0.0,0.11748875137407987,0.0,-0.32028229737440167,-0.3294792240270677,-0.46929515326082555,0.23706904171939278,1.00419702446403,-0.1073980764618649
11789,5.0,299.6136,3318.9251,0.0,0.0,0.0,0.0,0.11749871818366367,0.0,-0.29239011604165777,-0.29139321979827176,-0.4250870311328236,0.23218245059462378,1.0087792149937571,-0.13345575835605789
11790,5.0,300.29854,2939.8552,0.0,0.0,0.0,0.0,0.1175086849932475,0.0,-0.2341868923399468,-0.25568361129400774,-0.4037720689817006,0.23697420151003276,0.9648642159871842,-0.09790665272063431
11791,5.0,300.29644,3267.468,0.0,0.0,0.0,0.0,0.11751865180283133,0.0,-0.3158351528180027,-0.2719273073571358,-0.40546622314890063,0.21663986280568978,0.9951936792429689,-0.07304949588942393
11792,5.0,299.97955,3641.1534,0.0,0.0,0.0,0.0,0.11752861861241513,0.0,-0.3668259305854007,-0.2651852019867417,-0.4748086016924606,0.23866740322213878,1.023720114608309,-0.061344028473934234
11793,5.0,299.75749,3490.0017,0.0,0.0,0.0,0.0,0.11753858542199896,0.0,-0.3364294003054967,-0.2808100251537917,-0.4436339459982616,0.2101488306775748,1.043179278803779,-0.07304662129889024
11794,5.0,299.08907,2966.3059,0.0,0.0,0.0,0.0,0.11754855223158278,0.0,-0.2615378359992747,-0.23450749480408778,-0.4056375840058126,0.2278989965918798,0.994408481342976,-0.0909832748808501
11795,5.0,298.88855,2987.4692,0.0,0.0,0.0,0.0,0.1175585190411666,0.0,-0.25228844325643074,-0.2261308852998808,-0.4296967111377636,0.20494521386151782,0.9975808559485649,-0.08273741719604732
11796,5.0,299.78211,3504.1395,0.0,0.0,0.0,0.0,0.11756848585075041,0.0,-0.2797780197944407,-0.3034832287989627,-0.4819096509107795,0.2399002752813138,1.019457067462579,-0.1044304087739789
11797,5.0,300.14279,3487.5744,0.0,0.0,0.0,0.0,0.11757845266033425,0.0,-0.33526982675855566,-0.27023066059468975,-0.4546350455139856,0.2321038730493688,0.985615344987661,-0.07667712883119343
11798,5.0,300.58639,3035.5351,0.0,0.0,0.0,0.0,0.11758841946991805,0.0,-0.25027834757554973,-0.25885426337442674,-0.4135942621385756,0.22909260520967978,0.9522371135059862,-0.09744793514861241
11799,5.0,300.78782,2877.022,0.0,0.0,0.0,0.0,0.11759838627950188,0.0,-0.25342847120894274,-0.25167267090565876,-0.36944170664605763,0.18882550921312682,0.9719904951329931,-0.1013419008791669
11800,5.0,300.50118,3235.3621,0.0,0.0,0.0,0.0,0.1176083530890857,0.0,-0.2912506960392057,-0.2657699790169547,-0.42644861635220155,0.2388250142751938,1.021265516241059,-0.11706343876826189
11801,5.0,300.70346,3650.0118,0.0,0.0,0.0,0.0,0.11761831989866951,0.0,-0.3384425053391747,-0.3046046332146367,-0.46646529771904055,0.2067374101083938,1.0186891252117891,-0.0997787488041458
11802,5.0,299.81458,3414.7538,0.0,0.0,0.0,0.0,0.11762828670825334,0.0,-0.30203320711085674,-0.2960592871712767,-0.43990738438297855,0.2265389413801528,0.9894047585066471,-0.1021269974541499
11803,5.0,299.1121,2978.192,0.0,0.0,0.0,0.0,0.11763825351783716,0.0,-0.27579139740849173,-0.2270824487337928,-0.4024221665359756,0.19903608113333182,0.997081303384263,-0.05135888240947705
11804,5.0,299.39814,3194.1193,0.0,0.0,0.0,0.0,0.11764822032742099,0.0,-0.26964649151453673,-0.26750937480111975,-0.43377663359292057,0.21692334991866777,1.023615547197989,-0.10290231616566789
11805,5.0,299.75129,3644.9885,0.0,0.0,0.0,0.0,0.1176581871370048,0.0,-0.3466081460400607,-0.2793178522615257,-0.4820595106005695,0.2067053204777268,0.97972956767428,-0.06881083564710072
11806,5.0,300.12293999999997,3526.6087,0.0,0.0,0.0,0.0,0.11766815394658862,0.0,-0.3192923418942007,-0.2893990524089627,-0.4633095910775965,0.2123500455923178,0.9738266461692071,-0.13636370508304987
11807,5.0,300.97303999999997,3153.9915,0.0,0.0,0.0,0.0,0.11767812075617244,0.0,-0.25566680147484877,-0.26934685319496476,-0.4337210264274326,0.2389844491784288,0.985941510194851,-0.08583137536314722
11808,5.0,300.0069,2932.9918,0.0,0.0,0.0,0.0,0.11768808756575626,0.0,-0.2527490262218868,-0.23172282008426176,-0.4070844139561036,0.24657828245038177,1.0263782749206491,-0.12852934650235887
11809,5.0,300.76215,3369.4257,0.0,0.0,0.0,0.0,0.11769805437534007,0.0,-0.31544776703977073,-0.27548242705549875,-0.4332910942775016,0.22495142165347676,0.98931238049503,-0.045070546910866656
11810,5.0,300.65307,3500.897,0.0,0.0,0.0,0.0,0.1177080211849239,0.0,-0.31630887763725574,-0.30466308761290567,-0.4432133154842486,0.2271115695416668,0.9579130163261541,-0.07280156676220523
11811,5.0,299.17937,3271.0886,0.0,0.0,0.0,0.0,0.11771798799450772,0.0,-0.3280365889321907,-0.25010598360103875,-0.41618667265192655,0.24639992003527877,0.9872404765580491,-0.03744399275343436
11812,5.0,298.93192,3051.6023,0.0,0.0,0.0,0.0,0.11772795480409154,0.0,-0.27090303309604774,-0.2531224291487388,-0.4035854384457816,0.2508574098751987,1.027474003578789,-0.1208451819839909
11813,5.0,299.35806,3210.9153,0.0,0.0,0.0,0.0,0.11773792161367537,0.0,-0.2970843720324447,-0.25342640417873874,-0.4255273186987766,0.2182891097284578,1.015423926764539,-0.0997520577700116
11814,5.0,300.35233999999997,3476.0751,0.0,0.0,0.0,0.0,0.11774788842325917,0.0,-0.32080133473812666,-0.2772864985935467,-0.4585521994730785,0.19661117099401182,0.9951879037173991,-0.12980224194048387
11815,5.0,301.11456,3446.8805,0.0,0.0,0.0,0.0,0.117757855232843,0.0,-0.32385880678237566,-0.2670713163853867,-0.4568354903586526,0.23513390628090977,1.0091509865879482,-0.09980915745289691
11816,5.0,300.02691,2969.9178,0.0,0.0,0.0,0.0,0.11776782204242683,0.0,-0.2353915859138408,-0.2649424475277838,-0.4024468189109086,0.2018584588893788,1.020261284066949,-0.12210920135123988
11817,5.0,300.26641,2977.4567,0.0,0.0,0.0,0.0,0.11777778885201065,0.0,-0.26402156530689974,-0.2363023457662258,-0.4047485685005736,0.22819357879345278,0.9717019620345172,-0.08731717389903411
11818,5.0,301.25695,3377.5745,0.0,0.0,0.0,0.0,0.11778775566159447,0.0,-0.2745542393013937,-0.2979219245651047,-0.4542221460982355,0.20244093584186482,0.9529648905228122,-0.12459847313691189
11819,5.0,299.03956,3490.1502,0.0,0.0,0.0,0.0,0.11779772247117828,0.0,-0.3188270979782847,-0.2882433393449027,-0.4538480845588186,0.2555461740504438,1.000356158104966,-0.07623174056423702
11820,5.0,298.6532,3341.4015,0.0,0.0,0.0,0.0,0.11780768928076212,0.0,-0.3122896488630887,-0.27007958500477974,-0.4333333974691766,0.25019559543988273,1.0510223412028292,-0.10815548091161489
11821,5.0,299.25052999999997,3036.5033,0.0,0.0,0.0,0.0,0.11781765609034593,0.0,-0.2998065494861027,-0.22829532936849475,-0.3949193231230026,0.2213197509100588,0.9969167211705201,-0.07354460433878733
11822,5.0,299.58455,3056.9187,0.0,0.0,0.0,0.0,0.11782762289992975,0.0,-0.2815563142499447,-0.25276261390572774,-0.3949080152518866,0.18536152122875782,0.9823140951018531,-0.09912848339346961
11823,5.0,300.62247,3417.6774,0.0,0.0,0.0,0.0,0.11783758970951358,0.0,-0.3345875548037207,-0.25987827419048876,-0.4444227713336125,0.23306925721464478,0.9932885258749451,-0.06696663231234203
11824,5.0,300.04119,3435.0954,0.0,0.0,0.0,0.0,0.11784755651909738,0.0,-0.26869256720789175,-0.3077761060276367,-0.46771456416483354,0.23982414980130076,1.047755014930369,-0.13971862682665487
11825,5.0,299.47625,3131.2505,0.0,0.0,0.0,0.0,0.11785752332868121,0.0,-0.29644256928660373,-0.22866609784508676,-0.4267132975433236,0.23013523956257975,0.982901182342294,-0.1078116952851859
11826,5.0,300.23807,3089.6341,0.0,0.0,0.0,0.0,0.11786749013826504,0.0,-0.2601211806369617,-0.25333435040715374,-0.4257160871924066,0.19748408595516181,0.998087217553539,-0.13403954240117286
11827,5.0,300.73081,3314.6522,0.0,0.0,0.0,0.0,0.11787745694784886,0.0,-0.2947759045946167,-0.26349200027463576,-0.44930360719781354,0.2194008882681818,0.9921592890359979,-0.09424686327369121
11828,5.0,300.07575,3416.3081,0.0,0.0,0.0,0.0,0.11788742375743268,0.0,-0.3005709554940437,-0.26528613182920274,-0.4726152698634955,0.24633659190402876,1.028612694041169,-0.08926158158918222
11829,5.0,299.89963,3335.7189,0.0,0.0,0.0,0.0,0.1178973905670165,0.0,-0.3290817260128377,-0.26665810286210573,-0.41823544408912466,0.2329088191938108,0.9762012585735631,-0.06301412301750973
11830,5.0,299.30451,3114.3603,0.0,0.0,0.0,0.0,0.11790735737660032,0.0,-0.25787882776815874,-0.2654781224581507,-0.4233308255294996,0.2127991281691388,0.9638264756322671,-0.07897563703378853
11831,5.0,299.70752000000005,3329.0972,0.0,0.0,0.0,0.0,0.11791732418618416,0.0,-0.30498208914188873,-0.2895261848990097,-0.41745414720201657,0.26337143364523674,1.000240120703514,-0.06722792823487994
11832,5.0,299.64076,3663.3912,0.0,0.0,0.0,0.0,0.11792729099576796,0.0,-0.30315541199410967,-0.34957713095307663,-0.46084690697454855,0.23408536467992674,1.038949770236359,-0.10128939324573481
11833,5.0,299.0702,3569.2337,0.0,0.0,0.0,0.0,0.11793725780535179,0.0,-0.3434128314522077,-0.29309263273349073,-0.4484524669813126,0.22540124390287078,0.9887976899742341,-0.10458427080166391
11834,5.0,299.91836,3195.02,0.0,0.0,0.0,0.0,0.11794722461493559,0.0,-0.2984077374580507,-0.27929434485920573,-0.39350423829834463,0.18012187323914483,0.9759105571198731,-0.11805511677363288
11835,5.0,299.56102000000004,2884.9086,0.0,0.0,0.0,0.0,0.11795719142451942,0.0,-0.25570062376318675,-0.23504187277432675,-0.3861976816947436,0.2235423555344128,0.994472528881797,-0.10025107229851049
11836,5.0,300.1813,3081.0819,0.0,0.0,0.0,0.0,0.11796715823410325,0.0,-0.23355282069236877,-0.25753036092626774,-0.4454887611013176,0.2277147775911988,1.0506057940867188,-0.1268957644261369
11837,5.0,301.08485,3442.8263,0.0,0.0,0.0,0.0,0.11797712504368707,0.0,-0.3086190389183277,-0.2678005524823568,-0.4701136262941025,0.2215855466762908,0.9795728482813131,-0.07081536250543213
11838,5.0,300.6034,3316.1859,0.0,0.0,0.0,0.0,0.11798709185327089,0.0,-0.3032694735578667,-0.25605061048022776,-0.4487176345324826,0.18224308192599184,0.9815045386694561,-0.1135527500867839
11839,5.0,300.31717000000003,3086.1908,0.0,0.0,0.0,0.0,0.1179970586628547,0.0,-0.30254202078107273,-0.2444476910676088,-0.39113523929954264,0.2201030300574778,0.987509129689563,-0.059128386904267444
11840,5.0,301.00871,3294.1647,0.0,0.0,0.0,0.0,0.11800702547243853,0.0,-0.3110592693991597,-0.2979235761627677,-0.3923609578130116,0.24030855427660777,1.0678383411874388,-0.1022118064875199
11841,5.0,300.24206000000004,3605.6422,0.0,0.0,0.0,0.0,0.11801699228202236,0.0,-0.3421866873736967,-0.2991783952191087,-0.45466013358646157,0.24377308941603074,0.9812088317602721,-0.04772609810419916
11842,5.0,299.51426000000004,3584.8872,0.0,0.0,0.0,0.0,0.11802695909160617,0.0,-0.31218043063480966,-0.3249790256954327,-0.45255671757137056,0.22216941178141378,0.9768925991167932,-0.1119418040177959
11843,5.0,299.91291,3196.2158,0.0,0.0,0.0,0.0,0.11803692590119,0.0,-0.27086966677025476,-0.2753070841256937,-0.4253930427955246,0.2296130307260418,0.991551957058559,-0.08126672925890172
11844,5.0,299.96265,2836.5064,0.0,0.0,0.0,0.0,0.1180468927107738,0.0,-0.2114220402232308,-0.24423817121193075,-0.4065669066000296,0.2222584156701978,1.037452389238579,-0.1184997613150159
11845,5.0,299.91456,3256.0926,0.0,0.0,0.0,0.0,0.11805685952035763,0.0,-0.3047050969620517,-0.28448516432649973,-0.4005805946117266,0.2089923070134348,0.9807064218306881,-0.09675863123808341
11846,5.0,300.62881,3484.6220000000003,0.0,0.0,0.0,0.0,0.11806682632994146,0.0,-0.35926749013944065,-0.2503878393813558,-0.4495827576003636,0.18348207401577082,0.9654708690870561,-0.09269895757292482
11847,5.0,300.27983,3175.4449,0.0,0.0,0.0,0.0,0.11807679313952528,0.0,-0.27826427480754573,-0.2568518278643017,-0.4301398560689986,0.2333138760537868,1.011667464138805,-0.09069656765905432
11848,5.0,299.45399,2909.1322,0.0,0.0,0.0,0.0,0.1180867599491091,0.0,-0.2177801643357288,-0.25621032909349073,-0.41031305433974563,0.2332919391891218,1.017512741845689,-0.10187303644908591
11849,5.0,300.48169,3331.2154,0.0,0.0,0.0,0.0,0.11809672675869291,0.0,-0.28240002734321273,-0.27977245705139175,-0.45043382688935757,0.2397827990647198,0.9795869020602,-0.09147626766400473
11850,5.0,300.57846,3646.7767,0.0,0.0,0.0,0.0,0.11810669356827674,0.0,-0.3005929126237107,-0.33104492847909067,-0.4768912156829985,0.2051101000502908,0.9616553643779951,-0.097134765887205
11851,5.0,299.85901,3505.6485,0.0,0.0,0.0,0.0,0.11811666037786057,0.0,-0.36896215563872964,-0.27551456734867075,-0.42115288496955355,0.2653738590228607,1.001720377774604,-0.07637335341146312
11852,5.0,299.24219,3092.8746,0.0,0.0,0.0,0.0,0.11812662718744438,0.0,-0.28255627050863275,-0.26530114819568473,-0.3922992306169196,0.23556399041835577,1.031998469250319,-0.0953319872562846
11853,5.0,299.21974,3020.1189,0.0,0.0,0.0,0.0,0.11813659399702821,0.0,-0.2717056690302617,-0.2610198422831528,-0.3853152219176516,0.21479019501314178,0.9997555541081911,-0.09783731601629131
11854,5.0,299.52697,3498.1622,0.0,0.0,0.0,0.0,0.11814656080661201,0.0,-0.3057991638900277,-0.27184784828429376,-0.48570695764804456,0.18673032078884783,0.972903777978127,-0.09929652180330371
11855,5.0,299.70429,3785.6044,0.0,0.0,0.0,0.0,0.11815652761619584,0.0,-0.3590468144001617,-0.3069782121038907,-0.4847042048190805,0.21775805521854677,0.988863044605684,-0.0933270895484166
11856,5.0,299.37841000000003,3299.0843,0.0,0.0,0.0,0.0,0.11816649442577967,0.0,-0.27418217386467375,-0.25987667325533076,-0.4687804019450236,0.2396946159085168,1.0031834298589961,-0.1073497950945999
11857,5.0,300.74386,2885.4678,0.0,0.0,0.0,0.0,0.11817646123536349,0.0,-0.2894016969917237,-0.2215348841712908,-0.36617360017102063,0.23865319745573677,0.9671708190448282,-0.0998637675802865
11858,5.0,300.77734,3368.0261,0.0,0.0,0.0,0.0,0.1181864280449473,0.0,-0.3173962469820707,-0.27775046581433677,-0.4286491219918746,0.21504688166097477,0.9844637558515081,-0.07418536445027543
11859,5.0,300.12809,3699.2039,0.0,0.0,0.0,0.0,0.11819639485453112,0.0,-0.3594288400853647,-0.2927360598907997,-0.4723007165024516,0.25206294444667576,0.9959954133845942,-0.09550371085673241
11860,5.0,300.27687000000003,3439.0152,0.0,0.0,0.0,0.0,0.11820636166411495,0.0,-0.3005958510490007,-0.28504640355688976,-0.4597325041170656,0.23244150824769078,1.015971487118579,-0.08501346772342602
11861,5.0,300.04884,2918.0804,0.0,0.0,0.0,0.0,0.11821632847369878,0.0,-0.2336572563801758,-0.27212813352695575,-0.38123819735778064,0.2238903461487568,0.9811946969213771,-0.14515804720598388
11862,5.0,299.71747,2895.7446,0.0,0.0,0.0,0.0,0.11822629528328259,0.0,-0.23880208442543077,-0.2356559225999288,-0.4057760446319776,0.1896874304106918,0.9802020664609121,-0.09450369278978832
11863,5.0,299.93836,3356.2092,0.0,0.0,0.0,0.0,0.11823626209286642,0.0,-0.3409719423588107,-0.27385271559465874,-0.4053791545678076,0.21969316025952676,1.0394691622376189,-0.13696993261787985
11864,5.0,300.09668,3514.2457,0.0,0.0,0.0,0.0,0.11824622890245022,0.0,-0.3130084788815317,-0.27830964814702375,-0.47692479479131256,0.24292358053219074,1.030902132642119,-0.08181785524004362
11865,5.0,299.93032999999997,3195.4714,0.0,0.0,0.0,0.0,0.11825619571203405,0.0,-0.27466663913498673,-0.27704892184259977,-0.4196279537015546,0.2356061720200188,1.005232079706182,-0.14144826501235686
11866,5.0,299.96081000000004,2928.9303,0.0,0.0,0.0,0.0,0.11826616252161788,0.0,-0.22284032520262778,-0.23441493440745279,-0.43306640606782654,0.2198854143335008,0.9707027049183982,-0.0947897160677666
11867,5.0,299.91226,3414.4864,0.0,0.0,0.0,0.0,0.1182761293312017,0.0,-0.3008882648953597,-0.2927523732174097,-0.4442779576293206,0.2081979493325378,1.018593373077339,-0.11790255170607589
11868,5.0,299.88175,3872.0218,0.0,0.0,0.0,0.0,0.11828609614078552,0.0,-0.35877591185342567,-0.3140862628804007,-0.5041357478168245,0.2117340807240268,0.9986056267022021,-0.07548058077485333
11869,5.0,299.57462999999996,3470.9652,0.0,0.0,0.0,0.0,0.11829606295036933,0.0,-0.35732314425754863,-0.27130446252066576,-0.4264591440207406,0.2097384339895718,0.997900799800141,-0.08503649180544832
11870,5.0,300.74782000000005,3043.2296,0.0,0.0,0.0,0.0,0.11830602975995316,0.0,-0.24649305798447074,-0.2537506543432398,-0.4248220966291766,0.2040139052971048,1.017515072320919,-0.08232854950244523
11871,5.0,300.07963,3007.1607,0.0,0.0,0.0,0.0,0.118315996569537,0.0,-0.2838501604888297,-0.22645103180147677,-0.4038005615745126,0.2239612229932518,1.029240199828099,-0.08264058291049052
11872,5.0,300.8287,3535.1769,0.0,0.0,0.0,0.0,0.1183259633791208,0.0,-0.3205729481655867,-0.2771935531618737,-0.4768389927728445,0.24197395240596978,1.011231452488274,-0.08949527657899611
11873,5.0,300.97722999999996,3593.5638,0.0,0.0,0.0,0.0,0.11833593018870463,0.0,-0.32825006046325866,-0.2976113431444527,-0.4664922501717006,0.2304002551262348,0.993407521966689,-0.100301344702222
11874,5.0,300.12583,3183.8708,0.0,0.0,0.0,0.0,0.11834589699828844,0.0,-0.28988774293219277,-0.25403389827619377,-0.4238955807377366,0.25377259120790474,0.9738074653448141,-0.11219160056494888
11875,5.0,299.52767,2986.5144,0.0,0.0,0.0,0.0,0.11835586380787226,0.0,-0.2801225957559477,-0.24373310656708477,-0.3839700918798976,0.2188086030547278,1.009412861076293,-0.09777613597525331
11876,5.0,299.89092999999997,3304.4652,0.0,0.0,0.0,0.0,0.11836583061745609,0.0,-0.28605874173179974,-0.2535211835930927,-0.4648949931115635,0.19585526615440982,1.007747989836983,-0.09335221511114632
11877,5.0,299.87927,3673.8942,0.0,0.0,0.0,0.0,0.11837579742703991,0.0,-0.3420681776420007,-0.2986891980708287,-0.4760147340814965,0.20289083915126682,0.9936799747860782,-0.1021394300328769
11878,5.0,300.57673,3317.2265,0.0,0.0,0.0,0.0,0.11838576423662373,0.0,-0.28998374837916774,-0.26475949508972774,-0.45361079151789957,0.2122827252556738,1.0033935981947382,-0.10966481826057488
11879,5.0,300.44158999999996,2807.6129,0.0,0.0,0.0,0.0,0.11839573104620754,0.0,-0.2259149617035708,-0.25497466046403977,-0.3725545832057746,0.2269996054056168,1.025239584458269,-0.12911522797518088
11880,5.0,300.72321,2900.1374,0.0,0.0,0.0,0.0,0.11840569785579137,0.0,-0.28028223330920277,-0.2341225306935948,-0.36716457903382266,0.2246920802903818,1.00428497457271,-0.08928912172690022
11881,5.0,299.3476,3419.343,0.0,0.0,0.0,0.0,0.1184156646653752,0.0,-0.3289513105924667,-0.28060945229649675,-0.42983411798382454,0.2183858852455088,1.003828008910111,-0.08877860782301641
11882,5.0,298.88041,3525.711,0.0,0.0,0.0,0.0,0.118425631474959,0.0,-0.3074049727810087,-0.2805552130186437,-0.48376792119667655,0.2544814508453638,0.9961175404191471,-0.07099597028275673
11883,5.0,299.11095,3294.2366,0.0,0.0,0.0,0.0,0.11843559828454284,0.0,-0.2797058865198217,-0.26521792996497173,-0.4564418426948026,0.2260872142205708,1.028169903747469,-0.09859261087933309
11884,5.0,299.04767000000004,3166.3175,0.0,0.0,0.0,0.0,0.11844556509412665,0.0,-0.26315179142105977,-0.25630876634070576,-0.44302089929025856,0.2135034991086548,0.9832944652361081,-0.06546618420650935
11885,5.0,299.49279,3497.5155,0.0,0.0,0.0,0.0,0.11845553190371047,0.0,-0.33765573690152667,-0.2888660220613567,-0.4366356200750806,0.17437101017657883,0.9964342621354051,-0.11998035275863889
11886,5.0,300.00313,3858.0068,0.0,0.0,0.0,0.0,0.1184654987132943,0.0,-0.3982932939684876,-0.3116276013802497,-0.46281683742146557,0.2199399271888808,0.9700431297658032,-0.07923691471782462
11887,5.0,298.99085,3299.441,0.0,0.0,0.0,0.0,0.11847546552287812,0.0,-0.2934607768923237,-0.29216352292179476,-0.4173233670116096,0.25607583027521674,1.017254565720209,-0.1094940552212219
11888,5.0,300.52269,2810.7168,0.0,0.0,0.0,0.0,0.11848543233246193,0.0,-0.2178512640952458,-0.2335095954431028,-0.40302685393065363,0.23910599866042478,1.0023171010234961,-0.07438238687922002
11889,5.0,300.79524,2921.7309999999998,0.0,0.0,0.0,0.0,0.11849539914204575,0.0,-0.23945308748217975,-0.2334185245241148,-0.4152616665031356,0.23238326663194278,1.030030636231109,-0.09569695791580442
11890,5.0,298.95027000000005,3429.0125,0.0,0.0,0.0,0.0,0.11850536595162958,0.0,-0.2736164256713387,-0.3041434828291247,-0.46457426905741056,0.2313459721070698,1.0203730455529791,-0.0988303021275414
11891,5.0,298.9826,3558.6255,0.0,0.0,0.0,0.0,0.11851533276121341,0.0,-0.3383993206199127,-0.29516449614046775,-0.44816948649338456,0.23979193858062176,1.039419715632739,-0.13243229469504988
11892,5.0,299.81854,3237.9285,0.0,0.0,0.0,0.0,0.11852529957079722,0.0,-0.2968792699472027,-0.26404003685622274,-0.4233301162544296,0.2206695179233858,0.982138823099555,-0.0995317771982716
11893,5.0,300.32839,3058.7175,0.0,0.0,0.0,0.0,0.11853526638038105,0.0,-0.2665232392737958,-0.2731959370123398,-0.39005456753788864,0.18983891130064182,0.9899675986721951,-0.1077078168849339
11894,5.0,300.71353,3542.0058,0.0,0.0,0.0,0.0,0.11854523318996486,0.0,-0.3047681819132777,-0.27504611142993773,-0.4968670259719576,0.2112937830255728,0.9751097045058351,-0.04600201759529566
11895,5.0,299.53443,3760.9366,0.0,0.0,0.0,0.0,0.11855519999954868,0.0,-0.3435163856124277,-0.3176190809440627,-0.48209533912410557,0.2513080629896748,0.984694270249258,-0.0979068604369048
11896,5.0,298.40744,3395.6854,0.0,0.0,0.0,0.0,0.11856516680913251,0.0,-0.27989492859097875,-0.2970410454581687,-0.45526760741891453,0.25571586304469074,0.981267397616052,-0.06359794252637824
11897,5.0,299.82307000000003,2923.2142,0.0,0.0,0.0,0.0,0.11857513361871633,0.0,-0.3064203064663297,-0.23389183391082677,-0.34827199389676966,0.22587941689006277,0.9753660871786382,-0.1177858050295539
11898,5.0,298.37256,3071.5362,0.0,0.0,0.0,0.0,0.11858510042830014,0.0,-0.2859062374592487,-0.27103784602185277,-0.37672623519248466,0.25309582120111274,0.991511822222098,-0.09257332975927632
11899,5.0,298.54784,3540.7869,0.0,0.0,0.0,0.0,0.11859506723788396,0.0,-0.33066664168675663,-0.2912467950263207,-0.4543973573055276,0.20904263514590182,1.018540582747129,-0.14132805302049287
11900,5.0,299.44816000000003,3514.5284,0.0,0.0,0.0,0.0,0.11860503404746779,0.0,-0.31310805096885874,-0.27631911832557376,-0.47890172679642057,0.25505003613897875,0.9883498638275371,-0.07022925609108793
11901,5.0,300.63889,3117.8222,0.0,0.0,0.0,0.0,0.1186150008570516,0.0,-0.2561406478841137,-0.25996677145422276,-0.43163267744132855,0.18956410774102084,1.0234957810361691,-0.12195532919105388
11902,5.0,301.41241,3176.9379,0.0,0.0,0.0,0.0,0.11862496766663543,0.0,-0.2693457183548527,-0.25175892888667173,-0.4446051563516126,0.2157353648389228,1.011090205424334,-0.08454540494573182
11903,5.0,301.62282999999996,3487.3474,0.0,0.0,0.0,0.0,0.11863493447621926,0.0,-0.34027377250990665,-0.3028222654937307,-0.4169705026642846,0.2181892032685978,1.045176090775849,-0.10237317669844591
11904,5.0,299.98064,3695.9546,0.0,0.0,0.0,0.0,0.11864490128580307,0.0,-0.3256491082515647,-0.3259163833629427,-0.4719124187991295,0.22338079280596776,0.9966257157418,-0.07998433865408962
11905,5.0,300.08726,3368.7813,0.0,0.0,0.0,0.0,0.11865486809538689,0.0,-0.30426092864821574,-0.26892543234587374,-0.45083901547184657,0.23276689325230376,1.005377947190578,-0.08188173559259812
11906,5.0,299.94368,2885.3409,0.0,0.0,0.0,0.0,0.1186648349049707,0.0,-0.2277401493737028,-0.24987259157300473,-0.39945884569101864,0.23218990811535978,0.975371599259182,-0.07742238238574423
11907,5.0,299.72153,2933.1745,0.0,0.0,0.0,0.0,0.11867480171455454,0.0,-0.25289075964587476,-0.21745783934641777,-0.42126321777294257,0.22970221699984375,1.001123755850722,-0.09728400344143359
11908,5.0,299.70052000000004,3388.0411,0.0,0.0,0.0,0.0,0.11868476852413834,0.0,-0.3114084759136237,-0.2747671332799047,-0.4437042858202036,0.22686165140450182,0.9616774430976741,-0.12019752265257189
11909,5.0,299.91075,3542.3002,0.0,0.0,0.0,0.0,0.11869473533372217,0.0,-0.38133120358445965,-0.2730956759149447,-0.42234393006460064,0.21859628662877378,0.9899654100519791,-0.1089043031330179
11910,5.0,300.63043999999996,3290.9926,0.0,0.0,0.0,0.0,0.11870470214330599,0.0,-0.30484208837557175,-0.25688131344221177,-0.4386561724969936,0.24914755033144875,1.010759267809173,-0.13875653572420388
11911,5.0,301.02213,3127.4581,0.0,0.0,0.0,0.0,0.1187146689528898,0.0,-0.26942187423236874,-0.2669190654253607,-0.4143282199810116,0.22528209582361178,1.043044313890459,-0.1048953588473659
11912,5.0,301.23501,3330.9663,0.0,0.0,0.0,0.0,0.11872463576247362,0.0,-0.2942898890516507,-0.2526850090805688,-0.46555568283926857,0.2345694550477028,1.032438219793719,-0.08815648543386771
11913,5.0,301.77483,3715.0192,0.0,0.0,0.0,0.0,0.11873460257205745,0.0,-0.32382663609170065,-0.29239368268200966,-0.5130527539968645,0.2004351971364138,1.018487285791869,-0.06669895392742424
11914,5.0,300.85136,3404.558,0.0,0.0,0.0,0.0,0.11874456938164128,0.0,-0.31305775323389473,-0.3016113100342187,-0.4202315467861246,0.21239270342152777,1.0283833955435389,-0.09962178015165421
11915,5.0,300.22206,2873.8132,0.0,0.0,0.0,0.0,0.11875453619122509,0.0,-0.26149637380518276,-0.2196824502059698,-0.3923886195407416,0.20101601235873578,1.001970964656835,-0.07152431029564983
11916,5.0,299.63256,2981.9748,0.0,0.0,0.0,0.0,0.11876450300080892,0.0,-0.24790999705681177,-0.2541572108133638,-0.4043786815515686,0.19607811024890281,0.988685128020625,-0.12492861028449388
11917,5.0,298.96205,3355.3058,0.0,0.0,0.0,0.0,0.11877446981039273,0.0,-0.2898307070840637,-0.2652661302722288,-0.46483235399038153,0.18803222557733582,0.9954342248167091,-0.1024526256387869
11918,5.0,299.24154,3484.2027,0.0,0.0,0.0,0.0,0.11878443661997655,0.0,-0.3055107726465657,-0.2712792325931757,-0.4823206150188385,0.21564840771534077,0.9827842026182492,-0.10496731986946789
11919,5.0,299.94501,3211.8943,0.0,0.0,0.0,0.0,0.11879440342956037,0.0,-0.27387648644200474,-0.2790220642923337,-0.4234370951999876,0.24729438682605576,1.008691670185117,-0.12207354508022088
11920,5.0,299.8185,2788.6682,0.0,0.0,0.0,0.0,0.1188043702391442,0.0,-0.25937769824358575,-0.21838310894023477,-0.3699246925712246,0.24096729856412077,0.991713621112014,-0.10341757410651989
11921,5.0,301.4949,3286.0807,0.0,0.0,0.0,0.0,0.11881433704872801,0.0,-0.3136508389149277,-0.2906451879119467,-0.39459045253804564,0.24465966298852876,1.0286087423657793,-0.11226143376184089
11922,5.0,301.27974,3850.1713,0.0,0.0,0.0,0.0,0.11882430385831183,0.0,-0.34659925983668366,-0.3102120301955437,-0.5135446565229115,0.2073587755997178,1.028332226413489,-0.07290364968328003
11923,5.0,299.69253,3497.2922,0.0,0.0,0.0,0.0,0.11883427066789566,0.0,-0.3349755890620167,-0.25240701378313274,-0.47570688843611453,0.2089220887815048,1.030916014168489,-0.08670512220262931
11924,5.0,299.81502,2952.3132,0.0,0.0,0.0,0.0,0.11884423747747946,0.0,-0.23448596323946277,-0.23777142668871276,-0.4251720833462176,0.17939117806203084,1.018993708191849,-0.06481376158637023
11925,5.0,298.88475,2885.5701,0.0,0.0,0.0,0.0,0.1188542042870633,0.0,-0.2653427927747947,-0.21048386182313977,-0.40131459298416666,0.1927356818790308,1.0087177309776891,-0.08160353257889162
11926,5.0,299.12787000000003,3379.3523,0.0,0.0,0.0,0.0,0.11886417109664713,0.0,-0.3171661378843607,-0.27876235815920275,-0.4313102308620056,0.2046844742132848,1.002805913136738,-0.0916674568121236
11927,5.0,299.99899,3576.6252,0.0,0.0,0.0,0.0,0.11887413790623094,0.0,-0.3371928133283397,-0.2881669301548617,-0.4618450191180546,0.22083717028493177,1.002396904601372,-0.11087704028271189
11928,5.0,300.23866,3183.7955,0.0,0.0,0.0,0.0,0.11888410471581476,0.0,-0.2403824100763968,-0.27273338834168975,-0.4546785240757765,0.23819939313344976,1.009289842381652,-0.11891099900060188
11929,5.0,300.387,2888.5871,0.0,0.0,0.0,0.0,0.11889407152539858,0.0,-0.2261294566172398,-0.2517623536720098,-0.4001665198258606,0.23688069879080478,1.010149899199033,-0.1128722918496279
11930,5.0,300.36338,3339.8799,0.0,0.0,0.0,0.0,0.1189040383349824,0.0,-0.26818623600042074,-0.27779735902896474,-0.46925649776951056,0.24634623804498074,1.0105478633083091,-0.11534578733124289
11931,5.0,300.05355,3723.7817,0.0,0.0,0.0,0.0,0.11891400514456622,0.0,-0.39363451186370163,-0.28083028002329075,-0.45747185195145657,0.23947907734724475,0.9931186443631792,-0.07434782897130943
11932,5.0,299.8785,3548.3248,0.0,0.0,0.0,0.0,0.11892397195415004,0.0,-0.3415334045042227,-0.3089773342861887,-0.4280913886068306,0.24563911106519276,0.991295726373271,-0.07462913455682213
11933,5.0,300.04576000000003,3128.6121,0.0,0.0,0.0,0.0,0.11893393876373387,0.0,-0.28352363051160373,-0.2537552139686898,-0.4137411124755686,0.24332104814891775,1.0005539647894879,-0.07506115805495953
11934,5.0,300.07527999999996,3204.2495,0.0,0.0,0.0,0.0,0.11894390557331767,0.0,-0.24322110115905377,-0.27029158732320274,-0.4604991595402286,0.21437901812256177,1.012465773495092,-0.1008038245460629
11935,5.0,299.9563,3727.2383,0.0,0.0,0.0,0.0,0.1189538723829015,0.0,-0.3421263584627427,-0.28590400830902873,-0.5049569971553755,0.22616859846860277,1.0159436227408292,-0.07519160285958343
11936,5.0,299.76825,3721.0279,0.0,0.0,0.0,0.0,0.11896383919248534,0.0,-0.3099546748026447,-0.3033640604547017,-0.5177808322759895,0.2096710832554248,1.018574222650449,-0.11238000428854289
11937,5.0,299.63289,3023.3637,0.0,0.0,0.0,0.0,0.11897380600206915,0.0,-0.2941869124439877,-0.24938754875013477,-0.3754526203467886,0.2303907812377998,1.023771587713389,-0.1225156666288549
11938,5.0,299.49832000000004,2825.1292,0.0,0.0,0.0,0.0,0.11898377281165297,0.0,-0.26163203786107175,-0.22749559132956682,-0.36964111426573765,0.2302996596563068,0.997073835731026,-0.13439043091080288
11939,5.0,299.5482,3266.6281,0.0,0.0,0.0,0.0,0.11899373962123679,0.0,-0.29965971941411174,-0.28445107859313573,-0.4088625868215956,0.22700311125096279,0.987413610602636,-0.12660936928537186
11940,5.0,299.31015,3380.1951,0.0,0.0,0.0,0.0,0.11900370643082062,0.0,-0.28143402509537574,-0.28454406455481274,-0.4615168274106646,0.2300482621739958,0.9848549007876112,-0.11343180855484788
11941,5.0,299.05363,3524.7778,0.0,0.0,0.0,0.0,0.11901367324040443,0.0,-0.2844543919209627,-0.29933946145500473,-0.4876506043873675,0.25919585024813874,0.997614070286843,-0.08150914630557642
11942,5.0,300.19935,3226.8709999999996,0.0,0.0,0.0,0.0,0.11902364004998825,0.0,-0.2711801671308987,-0.27921734798410675,-0.4304907141811256,0.23580086802673378,1.0100512694342991,-0.1077889579529419
11943,5.0,300.49315,3108.4368,0.0,0.0,0.0,0.0,0.11903360685957208,0.0,-0.3169832665063127,-0.2251715401052008,-0.4027323730540906,0.25560085915834074,0.9967874101927581,-0.05344608844946824
11944,5.0,301.18862,3683.5863,0.0,0.0,0.0,0.0,0.11904357366915588,0.0,-0.37798870428708065,-0.31592189715906366,-0.4258076546039436,0.21916693895259282,1.023375710899319,-0.08922063108639072
11945,5.0,300.32731,3786.5274,0.0,0.0,0.0,0.0,0.11905354047873971,0.0,-0.35835064065395467,-0.30348530596166773,-0.48917383339519854,0.23103106410849078,1.0104551306591572,-0.08212664422126872
11946,5.0,299.61838,3121.8374,0.0,0.0,0.0,0.0,0.11906350728832354,0.0,-0.2539407603270018,-0.25854422910882874,-0.43647563801679157,0.20116581125351982,1.003364973879413,-0.1306220625963939
11947,5.0,299.3916,2901.3694,0.0,0.0,0.0,0.0,0.11907347409790736,0.0,-0.22750371759536878,-0.25962222589021877,-0.3948179170529946,0.20301444553096581,0.9968668186030951,-0.10102602522674241
11948,5.0,299.3397,3150.4138,0.0,0.0,0.0,0.0,0.11908344090749118,0.0,-0.2841690201627987,-0.24020066340595977,-0.43327744579865457,0.18906656141191683,1.007088201901867,-0.12578814021182289
11949,5.0,298.87584,3312.3682,0.0,0.0,0.0,0.0,0.119093407717075,0.0,-0.3454169590899997,-0.25747714503101576,-0.4039830985800276,0.24028161195644876,1.015042134126859,-0.09583389461381901
11950,5.0,298.30444,3272.2595,0.0,0.0,0.0,0.0,0.11910337452665883,0.0,-0.30999474884409967,-0.27442491819113074,-0.4102655126450536,0.23764677666141076,1.019594160201109,-0.13481188215739687
11951,5.0,298.31957,3264.0737,0.0,0.0,0.0,0.0,0.11911334133624264,0.0,-0.3015178275799927,-0.26117912519887276,-0.42949993796834357,0.26051621645344875,0.965869268893875,-0.07468382777071993
11952,5.0,299.46647,3162.1944,0.0,0.0,0.0,0.0,0.11912330814582646,0.0,-0.2320564428121878,-0.2776996513218217,-0.45147203333932057,0.25018314259615376,0.9926425181411891,-0.0982620329679576
11953,5.0,300.52543,3403.8693,0.0,0.0,0.0,0.0,0.11913327495541029,0.0,-0.2629644820075737,-0.29625001123759975,-0.47547676920590354,0.25961893282739373,1.0212081662853991,-0.05682883302756915
11954,5.0,300.4581,3679.2887,0.0,0.0,0.0,0.0,0.11914324176499409,0.0,-0.3175037122876767,-0.3077211270772107,-0.4931870434637715,0.22405128066213978,1.020444378360019,-0.1018149468208529
11955,5.0,300.39739,3418.87,0.0,0.0,0.0,0.0,0.11915320857457792,0.0,-0.36630540374402865,-0.2681170816810957,-0.40482863552347564,0.21397145853483882,1.006093159906164,-0.09607808687466891
11956,5.0,299.31025,2954.9687,0.0,0.0,0.0,0.0,0.11916317538416175,0.0,-0.27940068545720076,-0.2220573159228508,-0.3967787079840096,0.18224929314910482,1.027637339494909,-0.13299788076836888
11957,5.0,299.64464,3012.2945,0.0,0.0,0.0,0.0,0.11917314219374557,0.0,-0.2672061597086947,-0.24087044198706178,-0.4075856991780766,0.2056633852673958,1.029544276183109,-0.12255635875287088
11958,5.0,300.46117999999996,3315.067,0.0,0.0,0.0,0.0,0.11918310900332939,0.0,-0.2544365638659338,-0.2808663821243537,-0.47239463465422055,0.2015471985911598,1.0082177224508422,-0.1036393644209089
11959,5.0,299.50217000000004,3441.6649,0.0,0.0,0.0,0.0,0.1191930758129132,0.0,-0.2901934506198637,-0.2572913250951767,-0.49869541551240554,0.21866040509510182,0.978259564694202,-0.08718871607785632
11960,5.0,299.1112,3178.7263,0.0,0.0,0.0,0.0,0.11920304262249704,0.0,-0.27782947905713473,-0.27159814292964973,-0.41682579028500255,0.2180301534004008,0.9932913933727281,-0.08046572769709902
11961,5.0,300.0502,3133.7159,0.0,0.0,0.0,0.0,0.11921300943208085,0.0,-0.3273080519777897,-0.24793207577649076,-0.37733124682719466,0.24357109800859575,1.009728832987477,-0.08827536196209992
11962,5.0,301.01923,3444.2287,0.0,0.0,0.0,0.0,0.11922297624166467,0.0,-0.31807191254625367,-0.3029192943233067,-0.4259683256723006,0.22940477743298876,1.029574977661139,-0.09402945627923481
11963,5.0,301.35393999999997,3607.2467,0.0,0.0,0.0,0.0,0.1192329430512485,0.0,-0.3546293986016967,-0.3036319840461437,-0.43825153106955855,0.2542625584262608,1.014731775621229,-0.1036037486798939
11964,5.0,300.04705,3363.5499,0.0,0.0,0.0,0.0,0.1192429098608323,0.0,-0.25047283079974375,-0.2892433057360917,-0.48271906548816257,0.23809218114036879,1.026407760498559,-0.1032432444268149
11965,5.0,299.88592,3008.4821,0.0,0.0,0.0,0.0,0.11925287667041613,0.0,-0.23310672720334277,-0.2635725840550887,-0.41782413547603153,0.25038399916347676,1.028112655116819,-0.09017559397438822
11966,5.0,301.02217,3127.7197,0.0,0.0,0.0,0.0,0.11926284347999996,0.0,-0.24166942008841477,-0.27510759544600577,-0.4339716842371706,0.20188061866906581,1.021110792950789,-0.11311740718131891
11967,5.0,300.66247000000004,3422.4542,0.0,0.0,0.0,0.0,0.11927281028958378,0.0,-0.3475957710450317,-0.26716572089720375,-0.4255791160438886,0.1986142245866978,1.01010873084747,-0.09082606304833452
11968,5.0,299.55145,3376.8427,0.0,0.0,0.0,0.0,0.1192827770991676,0.0,-0.3205101063943847,-0.27794862713639373,-0.4280171376395026,0.18565582985280382,1.045305077513579,-0.13450520174962988
11969,5.0,299.28586,3315.3755,0.0,0.0,0.0,0.0,0.11929274390875141,0.0,-0.3314589627349527,-0.26377329876739775,-0.4125591157039146,0.21437119583178982,1.022713349308949,-0.1043620245247299
11970,5.0,299.82367999999997,3381.2744,0.0,0.0,0.0,0.0,0.11930271071833524,0.0,-0.27115578833349274,-0.3024830090952487,-0.4541841897494896,0.18692121710768783,0.999692043591923,-0.1143682036347629
11971,5.0,300.90493,3511.5388,0.0,0.0,0.0,0.0,0.11931267752791908,0.0,-0.30271722185586375,-0.28636680015970273,-0.4783361001930975,0.22026368086083276,0.964132811535,-0.05846338985038735
11972,5.0,300.62613999999996,3527.1827,0.0,0.0,0.0,0.0,0.11932264433750288,0.0,-0.3146862589271157,-0.2839130630550377,-0.4735761349333255,0.23746373303084578,0.9891260336691391,-0.07130003447876553
11973,5.0,299.52497999999997,3323.9559,0.0,0.0,0.0,0.0,0.11933261114708671,0.0,-0.3186205064153957,-0.2644822597298667,-0.42729683840841465,0.26034765216681277,1.010540588172591,-0.06553590189288994
11974,5.0,300.26477,3207.2838,0.0,0.0,0.0,0.0,0.11934257795667051,0.0,-0.2965811920327847,-0.24922297666889273,-0.4291300104893346,0.24802276166044077,1.003525685477774,-0.09621485435991681
11975,5.0,300.08957999999996,3325.8554,0.0,0.0,0.0,0.0,0.11935254476625434,0.0,-0.3177884558307787,-0.26640192283932274,-0.42678660618805864,0.2322078325096288,1.007900646097049,-0.1055003806145769
11976,5.0,299.41764,3336.0064,0.0,0.0,0.0,0.0,0.11936251157583817,0.0,-0.2738325823151717,-0.28634786251533373,-0.45388219055718454,0.22419939756175777,1.035710308341649,-0.13283063370686288
11977,5.0,300.09402,3281.7671,0.0,0.0,0.0,0.0,0.11937247838542199,0.0,-0.2927849188106217,-0.24888851294338377,-0.4559018310540076,0.2231088871416328,1.034699996666939,-0.09655303063379221
11978,5.0,299.45139,3183.2996,0.0,0.0,0.0,0.0,0.1193824451950058,0.0,-0.28042431123822475,-0.25835931096557874,-0.4288599793376846,0.1997357201948808,1.000734900859845,-0.11592315750322489
11979,5.0,299.74277,3385.6223,0.0,0.0,0.0,0.0,0.11939241200458962,0.0,-0.3249227599173797,-0.2732200827622227,-0.43100180766406654,0.19261224775184882,0.985598555433504,-0.07421765673096244
11980,5.0,299.40148999999997,3414.6758,0.0,0.0,0.0,0.0,0.11940237881417345,0.0,-0.3220483315036957,-0.26954700048721775,-0.4463808366218586,0.21231499727135883,1.019587067450409,-0.1135783245193079
11981,5.0,299.22756,3419.3472,0.0,0.0,0.0,0.0,0.11941234562375729,0.0,-0.3230820999182207,-0.28993188010654874,-0.4263821775431446,0.25371038778426575,1.0306219689894691,-0.09349587067057401
11982,5.0,299.75084,3285.5785,0.0,0.0,0.0,0.0,0.11942231243334109,0.0,-0.2645138326029827,-0.28107754344519376,-0.4531424470566776,0.2401506493810238,1.0255073864596989,-0.14280115654587686
11983,5.0,300.29472000000004,3064.1982,0.0,0.0,0.0,0.0,0.11943227924292492,0.0,-0.2677374067361248,-0.25657465329944673,-0.4071276696028726,0.2528242195118078,1.0022261212970172,-0.07690309170949422
11984,5.0,300.15169,3036.2032,0.0,0.0,0.0,0.0,0.11944224605250872,0.0,-0.23971412097294176,-0.26806193047815274,-0.41515391748750163,0.25937443557826373,1.00802467804179,-0.12319970163886389
11985,5.0,301.15685,3372.9621,0.0,0.0,0.0,0.0,0.11945221286209255,0.0,-0.3042903635636207,-0.27102062077015276,-0.4499852712025886,0.2452628001105538,1.016298969550899,-0.08677361486963901
11986,5.0,299.59021,3363.2255,0.0,0.0,0.0,0.0,0.11946217967167638,0.0,-0.2919363725143767,-0.2994574341641477,-0.43094276558073963,0.23055730889173476,0.989575602606008,-0.13708339636407788
11987,5.0,298.90077,3328.5202,0.0,0.0,0.0,0.0,0.1194721464812602,0.0,-0.3213026706226047,-0.26299359268294675,-0.42749075421255256,0.2032624080954378,0.9849172967287692,-0.11625346690332389
11988,5.0,298.90392,3333.9217,0.0,0.0,0.0,0.0,0.11948211329084402,0.0,-0.2878207937882007,-0.28551206290534675,-0.44009609208160255,0.1967175622545118,1.009201426177926,-0.13333161495380588
11989,5.0,299.80707,3290.9333,0.0,0.0,0.0,0.0,0.11949208010042783,0.0,-0.3246261106856027,-0.25119829760634177,-0.4245371403035536,0.20465825130069681,1.0208327571233489,-0.08847465913751901
11990,5.0,299.54485,3478.5532,0.0,0.0,0.0,0.0,0.11950204691001166,0.0,-0.3119205218516587,-0.27141817957938874,-0.47405461189554754,0.21848737237552476,1.017910442509939,-0.07374369987743652
11991,5.0,299.35347,3397.1239,0.0,0.0,0.0,0.0,0.1195120137195955,0.0,-0.3252922213013427,-0.2588376663377887,-0.44851095177708455,0.1929415439018478,1.010772085422938,-0.08848159382120342
11992,5.0,299.56987999999996,3256.3716,0.0,0.0,0.0,0.0,0.1195219805291793,0.0,-0.27392918557970575,-0.26852509723136375,-0.4474013719900776,0.26385960741091574,0.9888808879399451,-0.07645755753452343
11993,5.0,299.64312,3344.7403,0.0,0.0,0.0,0.0,0.11953194733876313,0.0,-0.26862152824338076,-0.2877717119533567,-0.4603242827054696,0.2428911159989868,1.019348548376869,-0.1109862990409949
11994,5.0,299.92292000000003,3495.3628,0.0,0.0,0.0,0.0,0.11954191414834693,0.0,-0.29018344984137673,-0.3074315503311317,-0.4648880118183745,0.25872960321462374,0.9926241175193731,-0.11166504488548189
11995,5.0,300.09542000000005,3607.9126,0.0,0.0,0.0,0.0,0.11955188095793076,0.0,-0.3464839519753037,-0.30908487051930167,-0.44114651832777163,0.22842324206111878,0.9955401094521591,-0.1066922059122009
11996,5.0,299.80029,3278.2878,0.0,0.0,0.0,0.0,0.11956184776751459,0.0,-0.27832274947081675,-0.28103235249073377,-0.43716255065708454,0.2352716880295078,1.015311456003439,-0.08895778590444992
11997,5.0,300.68501000000003,3109.4005,0.0,0.0,0.0,0.0,0.11957181457709841,0.0,-0.27086458025475274,-0.27781342917555074,-0.3965020805742086,0.22019963332201178,1.0180207854458292,-0.1021992219212779
11998,5.0,301.61748,3272.2755,0.0,0.0,0.0,0.0,0.11958178138668223,0.0,-0.26979030210122973,-0.26053299587510476,-0.46436674530442956,0.21573221363111178,1.009717231273832,-0.09484360273458481
11999,5.0,299.77782,3492.2186,0.0,0.0,0.0,0.0,0.11959174819626604,0.0,-0.3184749631710317,-0.28660399187561175,-0.45646829865491356,0.1910694224870838,1.040634906477669,-0.0966181441117184
12000,5.0,299.36528,3599.5690000000004,0.0,0.0,0.0,0.0,0.11960171500584987,0.0,-0.32560889235509566,-0.3088421565903477,-0.4597280458166255,0.23120690353084478,1.025187199428099,-0.1072143944837369
12001,5.0,300.06831,3422.758,0.0,0.0,0.0,0.0,0.1196116818154337,0.0,-0.3326135206938987,-0.27220939618497575,-0.43561005898636557,0.22792656712710077,1.046486527130179,-0.08613599684671101
12002,5.0,299.84144,3499.9543,0.0,0.0,0.0,0.0,0.11962164862501751,0.0,-0.3091631744870297,-0.3023631720059217,-0.45237236684817655,0.2324859797945798,1.028908765720389,-0.08785596153370832
12003,5.0,299.95006,3636.3851,0.0,0.0,0.0,0.0,0.11963161543460134,0.0,-0.3484194217863197,-0.28547911201209475,-0.4714717461981386,0.2063470352423668,0.99833273818527,-0.07205898818791842
12004,5.0,298.93698,3543.5311,0.0,0.0,0.0,0.0,0.11964158224418514,0.0,-0.3060710594218617,-0.3055532278257557,-0.4655206851808146,0.2304432169304748,1.004783220044383,-0.08469672067591551
12005,5.0,299.85661,3238.4106,0.0,0.0,0.0,0.0,0.11965154905376897,0.0,-0.2629144375851348,-0.28266153706152175,-0.4388199846406606,0.2300306518872578,1.0151333266358589,-0.10755333677468791
12006,5.0,300.27067999999997,3304.4949,0.0,0.0,0.0,0.0,0.1196615158633528,0.0,-0.2936473263682347,-0.26790193828736275,-0.44293466157424755,0.24376347367258178,0.9944986302043731,-0.10793529153238389
12007,5.0,300.33912999999995,3345.4428,0.0,0.0,0.0,0.0,0.11967148267293662,0.0,-0.31094597790547873,-0.2735015231099987,-0.4324835744778056,0.21245528174770378,1.0048810290765362,-0.11527990580974089
12008,5.0,300.35777,3297.9441,0.0,0.0,0.0,0.0,0.11968144948252044,0.0,-0.29758800799464974,-0.25358503861439474,-0.4513196202592785,0.2222215637640608,1.002881673846715,-0.08100208961103382
12009,5.0,300.32003,3348.7042,0.0,0.0,0.0,0.0,0.11969141629210425,0.0,-0.3076202276322527,-0.2691723208652398,-0.4411299314236346,0.19340554152014083,1.0188949163070988,-0.1015734994545239
12010,5.0,300.58525,3221.5417,0.0,0.0,0.0,0.0,0.11970138310168808,0.0,-0.2882312816687127,-0.24466662401671577,-0.4463703393508226,0.22892751637088676,1.002626973169078,-0.06947457627085683
12011,5.0,301.12416,3250.7087,0.0,0.0,0.0,0.0,0.11971134991127189,0.0,-0.27667160777036176,-0.27091285148951677,-0.4405498153438816,0.18823713514505883,1.018354955328809,-0.1079014388465429
12012,5.0,299.65427,3385.7434,0.0,0.0,0.0,0.0,0.11972131672085572,0.0,-0.3113992756027157,-0.2650623454121167,-0.45271982043996756,0.21801218847612777,1.016406779361539,-0.08532723277589221
12013,5.0,299.32555,3467.1045,0.0,0.0,0.0,0.0,0.11973128353043953,0.0,-0.3138177921339047,-0.3034309957563077,-0.4366644166429226,0.20605430728847682,1.031262647027699,-0.12410855658106087
12014,5.0,300.2684,3183.9461,0.0,0.0,0.0,0.0,0.11974125034002336,0.0,-0.28113645380600777,-0.25288479160278576,-0.4338188557245876,0.2273026178480218,1.016492398994989,-0.09763618181844091
12015,5.0,300.20445,3119.4345,0.0,0.0,0.0,0.0,0.11975121714960718,0.0,-0.27792351879891575,-0.26607528140458575,-0.4042313853845316,0.23343680355591875,1.0144998426733391,-0.098978992526716
12016,5.0,300.71346,3255.9979,0.0,0.0,0.0,0.0,0.119761183959191,0.0,-0.2666213725459808,-0.2735528239625617,-0.44956785269139254,0.2506140677311828,1.007000312588193,-0.09388757188098192
12017,5.0,300.41343,3278.9978,0.0,0.0,0.0,0.0,0.11977115076877483,0.0,-0.27852150861043273,-0.2610404112601828,-0.4571715246218166,0.2214956815249218,1.0116742934444791,-0.1043731094808239
12018,5.0,299.72202999999996,3430.3101,0.0,0.0,0.0,0.0,0.11978111757835863,0.0,-0.2925148673939697,-0.28950554499447273,-0.4607081930358586,0.25934684477804076,0.9852246864116061,-0.11591281221970388
12019,5.0,299.7631,3434.5287,0.0,0.0,0.0,0.0,0.11979108438794246,0.0,-0.3340387380195567,-0.26094874252363576,-0.4490234840751676,0.2142024086301318,1.014586779531919,-0.0983347974973889
12020,5.0,300.49235,3285.1383,0.0,0.0,0.0,0.0,0.11980105119752628,0.0,-0.31574008969362066,-0.26816422820824876,-0.4146957156597806,0.23714540024692876,1.012731771911344,-0.09306243875479761
12021,5.0,300.63657,3269.7812,0.0,0.0,0.0,0.0,0.1198110180071101,0.0,-0.3282906107322607,-0.24653522945363276,-0.4191059880450406,0.20048500851132978,1.024662538526319,-0.08201425249367651
12022,5.0,300.22472999999997,3395.6384,0.0,0.0,0.0,0.0,0.11982098481669391,0.0,-0.2985486501494577,-0.27737919071269473,-0.4562614335144976,0.1991640444884608,1.034170066864639,-0.0989431143539251
12023,5.0,299.05047,3336.6189,0.0,0.0,0.0,0.0,0.11983095162627774,0.0,-0.2873262568118937,-0.28510270986494674,-0.44181985341672453,0.2149700975683968,1.0236081504722592,-0.11559659712849589
12024,5.0,300.76081,3365.2602,0.0,0.0,0.0,0.0,0.11984091843586155,0.0,-0.3051378966097657,-0.27386366882823976,-0.44395351494730056,0.22616765614600978,1.027403278721809,-0.08804379885049642
12025,5.0,301.75568,3471.0316,0.0,0.0,0.0,0.0,0.11985088524544538,0.0,-0.3156894575861237,-0.3014999842457317,-0.4379174929090916,0.2133973307631768,1.038022342419829,-0.12607579178271186
12026,5.0,300.15801,3355.1146,0.0,0.0,0.0,0.0,0.11986085205502921,0.0,-0.3143550477344277,-0.26366013899622975,-0.44185586432527857,0.23298712316153875,1.00440099170916,-0.09611441898350459
12027,5.0,299.88574,3345.9518,0.0,0.0,0.0,0.0,0.11987081886461301,0.0,-0.3137027882475547,-0.26150128806816775,-0.44188172246783053,0.21871663034315078,1.031494681300599,-0.10628354188186889
12028,5.0,299.49844,3392.6691,0.0,0.0,0.0,0.0,0.11988078567419684,0.0,-0.3129427290825427,-0.2702660635531838,-0.44807790894934657,0.2349060060684178,1.001213691929598,-0.09361832599815942
12029,5.0,299.4244,3336.0782,0.0,0.0,0.0,0.0,0.11989075248378066,0.0,-0.28534500836135973,-0.2765133279722407,-0.45222612446124355,0.2327735604379618,0.997162900414816,-0.13205956051326387
12030,5.0,300.22864,3324.0107,0.0,0.0,0.0,0.0,0.11990071929336449,0.0,-0.3052548256713057,-0.26841529131802677,-0.4367461453959886,0.2206510058440588,1.00658859867506,-0.08015963497439002
12031,5.0,298.95292,3294.7588,0.0,0.0,0.0,0.0,0.1199106861029483,0.0,-0.26972079314436975,-0.3138158365612117,-0.41798775510217956,0.23223976002027977,1.0153785331600589,-0.13008581011346987
12032,5.0,299.39089,3190.2909999999997,0.0,0.0,0.0,0.0,0.11992065291253212,0.0,-0.3192845803984347,-0.24051197436668378,-0.4099722476686106,0.24609971429565075,1.022744658737039,-0.07852943614025193
12033,5.0,300.58017,3261.9427,0.0,0.0,0.0,0.0,0.11993061972211595,0.0,-0.3140731311591047,-0.2716279527475917,-0.4058480563165846,0.22741910107951777,1.045767018234169,-0.11410131355842289
12034,5.0,300.89864,3422.728,0.0,0.0,0.0,0.0,0.11994058653169976,0.0,-0.2970954164585347,-0.30698585200964473,-0.4363425780136596,0.21234889048720382,1.044939192902469,-0.08818465277339761
12035,5.0,300.30406,3462.5519,0.0,0.0,0.0,0.0,0.11995055334128359,0.0,-0.3094352828013847,-0.28893788175844876,-0.4541561328542205,0.2196515562104208,1.033426138641219,-0.09728466104074851
12036,5.0,300.34536,3491.278,0.0,0.0,0.0,0.0,0.11996052015086742,0.0,-0.30323323973429067,-0.3028443543459107,-0.45518373057563655,0.23338593840089877,1.037647946507879,-0.07674571674371253
12037,5.0,299.50151,3401.6705,0.0,0.0,0.0,0.0,0.11997048696045122,0.0,-0.2992934092379597,-0.26313980467237674,-0.47158968850977856,0.22911625446701378,0.9947527533294531,-0.07721496299752352
12038,5.0,299.24447999999995,3426.3001,0.0,0.0,0.0,0.0,0.11998045377003505,0.0,-0.3183441120531177,-0.2873521960144537,-0.43581336761893064,0.23310524785819678,0.984208811993847,-0.08551639339731092
12039,5.0,298.99843,3252.002,0.0,0.0,0.0,0.0,0.11999042057961887,0.0,-0.30216635830649774,-0.2646455855134857,-0.42171546169007557,0.22747187114472578,0.9812577920051041,-0.07790237111711543
12040,5.0,298.96947,3341.1822,0.0,0.0,0.0,0.0,0.1200003873892027,0.0,-0.31949508310670965,-0.26831333809296476,-0.4278275180157886,0.2354327947954078,1.004522166288619,-0.09104489568568161
12041,5.0,299.56068999999997,3473.908,0.0,0.0,0.0,0.0,0.12001035419878651,0.0,-0.3593288829629997,-0.27870279931832476,-0.4179496265009166,0.2453275366594428,1.00088288603695,-0.0989682632214071
12042,5.0,299.25872000000004,3369.7763,0.0,0.0,0.0,0.0,0.12002032100837033,0.0,-0.2980342230736877,-0.2779869077251717,-0.44830671095442753,0.2170772119463528,1.007369236949603,-0.0967472899297141
12043,5.0,299.6674,3469.5597,0.0,0.0,0.0,0.0,0.12003028781795416,0.0,-0.27325566810573476,-0.31133269493864474,-0.4700711609824116,0.19786379129763582,1.011301437672681,-0.0988715890293661
12044,5.0,300.42764,3521.8226,0.0,0.0,0.0,0.0,0.12004025462753797,0.0,-0.3287954423295837,-0.29622533859766476,-0.44552532929742655,0.22847554603128079,1.0298624367145088,-0.10557510780945191
12045,5.0,299.99069,3311.7126,0.0,0.0,0.0,0.0,0.1200502214371218,0.0,-0.28042353103564777,-0.28683250003816374,-0.4394219058625656,0.21105962092746278,1.011790837470981,-0.10806831100551191
12046,5.0,299.9118,3087.1112,0.0,0.0,0.0,0.0,0.12006018824670563,0.0,-0.26314823491320877,-0.2759475899114067,-0.39930889480871967,0.23308853936404775,1.0076809126803632,-0.11663976850394889
12047,5.0,300.69841,3179.5617,0.0,0.0,0.0,0.0,0.12007015505628943,0.0,-0.2866387260890398,-0.25742455735082576,-0.42244407970448467,0.22440297977184978,1.006438779515274,-0.1031802202705949
12048,5.0,300.28677000000005,3284.0562,0.0,0.0,0.0,0.0,0.12008012186587326,0.0,-0.27659170286747575,-0.27903188268580276,-0.44264750649590756,0.21735648393891482,1.0453415545171791,-0.1024951517454839
12049,5.0,299.42839,3309.7561,0.0,0.0,0.0,0.0,0.12009008867545708,0.0,-0.2726327422092567,-0.2866213589823257,-0.44682909846609864,0.24359805046125577,1.018090801027739,-0.08950020806723283
12050,5.0,298.76251,3396.3231,0.0,0.0,0.0,0.0,0.12010005548504091,0.0,-0.31611096962772367,-0.2849400325613917,-0.4313464140230766,0.2223482200265608,1.014630551936239,-0.11118494672309989
12051,5.0,298.1675,3515.9126,0.0,0.0,0.0,0.0,0.12011002229462472,0.0,-0.2981787024054467,-0.3041932334090347,-0.46637770224789554,0.2294075030757578,1.003433763428702,-0.10017255858801181
12052,5.0,299.40505,3692.6777,0.0,0.0,0.0,0.0,0.12011998910420854,0.0,-0.35232826709459264,-0.3315397491654257,-0.4386137882453106,0.2354749358670668,0.98535503090447,-0.11941634735547589
12053,5.0,300.57187999999996,3562.9376,0.0,0.0,0.0,0.0,0.12012995591379237,0.0,-0.33250942951112566,-0.3009546631744127,-0.4495799812950896,0.22377145138202278,0.988847177109118,-0.08895156454883592
12054,5.0,299.69081,3254.5131,0.0,0.0,0.0,0.0,0.12013992272337617,0.0,-0.2943370761088077,-0.2713976916623667,-0.4235559595692186,0.2201424454863678,1.002319218716205,-0.12187399560552688
12055,5.0,299.42561,3170.1252,0.0,0.0,0.0,0.0,0.12014988953296,0.0,-0.25461454124599875,-0.2307142106697198,-0.47831013059303457,0.23681782662209977,1.012551636308566,-0.05767859117093375
12056,5.0,300.33375,3335.0987,0.0,0.0,0.0,0.0,0.12015985634254384,0.0,-0.2991114903150057,-0.24744361830078376,-0.4672316086371696,0.21418414986332981,1.054528490523859,-0.10964692426380891
12057,5.0,300.12756,3408.337,0.0,0.0,0.0,0.0,0.12016982315212765,0.0,-0.27512052451728175,-0.2800130228901337,-0.48091579441769355,0.23217916766429977,1.0177302866421591,-0.07443873169078083
12058,5.0,299.82371,3300.9564,0.0,0.0,0.0,0.0,0.12017978996171147,0.0,-0.3420333421035627,-0.22999197613094077,-0.43138300248418765,0.1905383781096738,1.024699015529919,-0.0913942035251556
12059,5.0,299.67864,3459.0019,0.0,0.0,0.0,0.0,0.12018975677129529,0.0,-0.3045302606572967,-0.29929654018076873,-0.4476233852194886,0.23438892427738578,1.006669405370535,-0.07959983962539252
12060,5.0,299.18408,3572.2078,0.0,0.0,0.0,0.0,0.12019972358087912,0.0,-0.33243883637665866,-0.28442701390326075,-0.46899611275881253,0.2180311565179998,1.014972523844989,-0.1056707079563869
12061,5.0,299.60496,3547.4657,0.0,0.0,0.0,0.0,0.12020969039046293,0.0,-0.3202234478085937,-0.28573354924470573,-0.47238400566067157,0.2327220974653828,0.9993214372353469,-0.0935266613146128
12062,5.0,299.7996,3299.2199,0.0,0.0,0.0,0.0,0.12021965720004675,0.0,-0.3136732114771357,-0.27422673660407176,-0.4149805098653876,0.21140279860383182,1.006415272112954,-0.11708053229744889
12063,5.0,300.38377,3176.886,0.0,0.0,0.0,0.0,0.12022962400963058,0.0,-0.26790090477226075,-0.24726164871532474,-0.4505314636689936,0.24405457029381078,0.9972430687627281,-0.1102675703475619
12064,5.0,299.41612000000003,3262.8268,0.0,0.0,0.0,0.0,0.12023959081921438,0.0,-0.33438304040353667,-0.2634269496182158,-0.3940078945255516,0.2314240430272748,1.010283080792177,-0.1107650457491589
12065,5.0,299.54182000000003,3442.8592,0.0,0.0,0.0,0.0,0.12024955762879821,0.0,-0.3046867166052377,-0.26863823673752973,-0.4732182651305065,0.24812449197048075,1.020973193587209,-0.12353952545740188
12066,5.0,300.03915,3171.0332,0.0,0.0,0.0,0.0,0.12025952443838205,0.0,-0.27605129605914175,-0.2576100834441357,-0.43025353259771765,0.21429640784190881,1.032859225210269,-0.12183630270180687
12067,5.0,299.70052000000004,2940.948,0.0,0.0,0.0,0.0,0.12026949124796586,0.0,-0.24658485844353076,-0.22307765877355082,-0.4243122393113576,0.22760708937057078,1.034931119014749,-0.1026969709004019
12068,5.0,299.10109,3276.6307,0.0,0.0,0.0,0.0,0.12027945805754968,0.0,-0.2710952365075167,-0.2532578601571048,-0.47166081866679854,0.19291840126956383,1.059457040335269,-0.10384654366885591
12069,5.0,300.28577,3504.323,0.0,0.0,0.0,0.0,0.1202894248671335,0.0,-0.3140679838485967,-0.2874004875142197,-0.46375821769187253,0.2180668938490268,1.018721853190019,-0.08884911787097523
12070,5.0,299.90283999999997,3401.8336,0.0,0.0,0.0,0.0,0.12029939167671733,0.0,-0.3520462390617587,-0.2635109784490088,-0.4185152531042396,0.2117698180550538,1.027667331697869,-0.08743015432493442
12071,5.0,300.51195,3415.4023,0.0,0.0,0.0,0.0,0.12030935848630114,0.0,-0.3233149853212047,-0.25828090567284073,-0.4566011256105226,0.2185049927947638,1.024461915006519,-0.0994749642651646
12072,5.0,300.82695,3304.5994,0.0,0.0,0.0,0.0,0.12031932529588496,0.0,-0.3155767031149957,-0.26555102580284573,-0.4233879728351396,0.25301365675050375,0.994212944338678,-0.12923217730172287
12073,5.0,299.96552,3403.6009,0.0,0.0,0.0,0.0,0.12032929210546879,0.0,-0.29510350861694873,-0.2805603603291517,-0.4589458167394256,0.2509407496959238,0.9680576763273542,-0.098687500737948
12074,5.0,300.0793,3613.3501,0.0,0.0,0.0,0.0,0.1203392589150526,0.0,-0.3028470394586757,-0.29107178646904874,-0.5044493791202775,0.25130934981730174,1.007165604077006,-0.1069438769720389
12075,5.0,300.78632999999996,3342.4468,0.0,0.0,0.0,0.0,0.12034922572463642,0.0,-0.29519180323066274,-0.26506730020510577,-0.4557612730001356,0.25949777851293676,0.9949064836346251,-0.09186707113482401
12076,5.0,299.30752,3054.5051,0.0,0.0,0.0,0.0,0.12035919253422026,0.0,-0.3032945211003387,-0.21122280485606781,-0.4139759635837466,0.22865261148625576,1.0468387328649391,-0.09512522445412872
12077,5.0,299.7854,3353.2817,0.0,0.0,0.0,0.0,0.12036915934380407,0.0,-0.2840630848648437,-0.27138792393140276,-0.4638628965597036,0.22664502866562278,1.030075117910499,-0.1050483190824619
12078,5.0,299.38274,3487.8917,0.0,0.0,0.0,0.0,0.12037912615338789,0.0,-0.3241582323194267,-0.28127576556225675,-0.45479797613006556,0.22013023582266278,1.043949855504829,-0.09038714843626701
12079,5.0,298.76967,3430.3393,0.0,0.0,0.0,0.0,0.1203890929629717,0.0,-0.28964421840315874,-0.2827208121923717,-0.47037244076714557,0.2010345852330688,1.044403082274559,-0.10389907055403991
12080,5.0,299.33903,3500.676,0.0,0.0,0.0,0.0,0.12039905977255554,0.0,-0.3158408776810677,-0.2892804109547537,-0.4589968034844576,0.19093840924915384,1.005141515412244,-0.1006195903466304
12081,5.0,300.8006,3329.8787,0.0,0.0,0.0,0.0,0.12040902658213935,0.0,-0.3049797181366547,-0.27936868701904277,-0.42785158270566354,0.22143665970659682,0.9926858143179621,-0.1071731957346709
12082,5.0,300.53261000000003,3039.0455,0.0,0.0,0.0,0.0,0.12041899339172317,0.0,-0.2878494079710247,-0.24413507301425577,-0.39180946604858363,0.2094129476599488,1.018557605348809,-0.0934569578137336
12083,5.0,301.13062,3176.0475,0.0,0.0,0.0,0.0,0.120428960201307,0.0,-0.2849102936709567,-0.25326449694525976,-0.42726434347770764,0.2508780700447378,1.014607348508949,-0.12207138685750789
12084,5.0,299.86586,3264.0987,0.0,0.0,0.0,0.0,0.1204389270108908,0.0,-0.32893625369598073,-0.25704471015333774,-0.4062235364061416,0.2151891926375198,1.028726583352409,-0.1062153400176379
12085,5.0,299.57162999999997,2958.651,0.0,0.0,0.0,0.0,0.12044889382047463,0.0,-0.23657234652037276,-0.25272428265444474,-0.4100593973097116,0.24904927520424977,1.002072208606827,-0.12864536363880888
12086,5.0,300.49197000000004,3127.2835,0.0,0.0,0.0,0.0,0.12045886063005846,0.0,-0.24366899823325777,-0.2731200952423547,-0.4338269921228906,0.23372645122950478,1.012105482024534,-0.11508192687270188
12087,5.0,300.06819,3496.6212,0.0,0.0,0.0,0.0,0.12046882743964228,0.0,-0.29959248013747575,-0.2846963864423457,-0.4785966574563125,0.24885455893253275,1.024600020995149,-0.09356500776464731
12088,5.0,298.56717000000003,3518.2432,0.0,0.0,0.0,0.0,0.1204787942492261,0.0,-0.3372238593114037,-0.27239890435117875,-0.45983531860471255,0.2184906046433438,1.0200908554001291,-0.09499193748297431
12089,5.0,299.45816,3411.6999,0.0,0.0,0.0,0.0,0.12048876105880992,0.0,-0.2883389800218417,-0.28807787560357273,-0.4606547136955806,0.2004962049249348,1.009737192300802,-0.08713731795328374
12090,5.0,300.17672000000005,3322.2533,0.0,0.0,0.0,0.0,0.12049872786839375,0.0,-0.3352142398580697,-0.2508385228933348,-0.42382929391619456,0.1958094165873848,1.0130597204387102,-0.06982630881782013
12091,5.0,300.64383,3387.0413,0.0,0.0,0.0,0.0,0.12050869467797756,0.0,-0.26182478842759477,-0.29220743718112874,-0.47554375517001457,0.2163242556645418,1.015933388914819,-0.1082268542486589
12092,5.0,300.87537000000003,3520.3973,0.0,0.0,0.0,0.0,0.12051866148756138,0.0,-0.33310424784982967,-0.2827281683880977,-0.45428046877399153,0.1996109384450658,1.010932553841275,-0.08659757279726502
12093,5.0,300.6978,3473.942,0.0,0.0,0.0,0.0,0.12052862829714521,0.0,-0.3028452561384997,-0.29551801910035774,-0.4576283281643995,0.23413036311686777,1.0019538305976439,-0.10769999459416188
12094,5.0,300.71522000000004,3167.2024,0.0,0.0,0.0,0.0,0.12053859510672901,0.0,-0.2816016470594187,-0.25566306258197974,-0.4254857247821716,0.2343874246672378,1.0184562803388089,-0.07417978650847493
12095,5.0,301.20552999999995,3178.4051,0.0,0.0,0.0,0.0,0.12054856191631284,0.0,-0.2450725421392768,-0.2832382688859407,-0.4378449644669336,0.2541898070690808,1.027544323135729,-0.1122506426482759
12096,5.0,298.98309,3553.883,0.0,0.0,0.0,0.0,0.12055852872589667,0.0,-0.3499446468968477,-0.2898686836978117,-0.44047835081432857,0.24595472833884177,1.00812235535143,-0.08742080000001122
12097,5.0,298.57319,3653.1288,0.0,0.0,0.0,0.0,0.12056849553548049,0.0,-0.3242352697245297,-0.3074739751128187,-0.4787506917365145,0.2068131201558658,0.995773805455223,-0.13715441506358686
12098,5.0,299.83272,3295.7327,0.0,0.0,0.0,0.0,0.12057846234506431,0.0,-0.3098239250097407,-0.2646236486488207,-0.4273728726959186,0.22838630909497382,1.000392493253552,-0.08088963404868532
12099,5.0,299.65799,3305.6474,0.0,0.0,0.0,0.0,0.12058842915464812,0.0,-0.3086717684535317,-0.27655748541159875,-0.41960502385179155,0.22184476644937376,1.0221189768002892,-0.09613760518554292
12100,5.0,300.1769,3509.3565,0.0,0.0,0.0,0.0,0.12059839596423194,0.0,-0.30779179113918476,-0.29591894189992574,-0.4630460143290836,0.2209814368341698,1.007572089619623,-0.06372358047252774
12101,5.0,300.026,3387.0759,0.0,0.0,0.0,0.0,0.12060836277381577,0.0,-0.3076408067417837,-0.3009459796210557,-0.4209997220844376,0.22043243766498777,0.9969493174262369,-0.08939765601136172
12102,5.0,300.0981,3282.0929,0.0,0.0,0.0,0.0,0.12061832958339959,0.0,-0.2908919649738017,-0.2896508247938107,-0.41713149797267357,0.22794729822414678,1.037121968380969,-0.1089290568329609
12103,5.0,299.94603,3286.0709,0.0,0.0,0.0,0.0,0.12062829639298342,0.0,-0.25770633207113475,-0.30028598903591974,-0.44089116917007054,0.23824727933317577,1.035275016098689,-0.13746569562680788
12104,5.0,300.75011,3264.5302,0.0,0.0,0.0,0.0,0.12063826320256722,0.0,-0.29652349757209073,-0.2842857465743187,-0.4115264112019946,0.24760573831678373,1.0309109479179892,-0.12384429082247989
12105,5.0,300.21216,3393.5523,0.0,0.0,0.0,0.0,0.12064823001215105,0.0,-0.3100890621634077,-0.28412706147615774,-0.4373390486920036,0.2115088757568008,1.008595077053084,-0.12482157054392988
12106,5.0,300.94633,3471.3047,0.0,0.0,0.0,0.0,0.12065819682173488,0.0,-0.3150449899925197,-0.28619513532776075,-0.4539498148688586,0.2624028577421457,1.0115772342174,-0.09715806253350422
12107,5.0,300.31401,3177.8225,0.0,0.0,0.0,0.0,0.1206681636313187,0.0,-0.2786273932458827,-0.24446098490892076,-0.4428903014848696,0.21220666057066678,1.028333138338579,-0.08632639262000161
12108,5.0,300.5819,3334.3485,0.0,0.0,0.0,0.0,0.12067813044090252,0.0,-0.2943497113375547,-0.27628787982499076,-0.4429211042879096,0.2233902768269038,1.037430908336459,-0.08371639107166452
12109,5.0,299.93346,3752.4572,0.0,0.0,0.0,0.0,0.12068809725048633,0.0,-0.34334764907327464,-0.3166409703575307,-0.48066468064541057,0.20130579175483482,1.016826163577929,-0.1074948519789159
12110,5.0,299.64894,3668.1078,0.0,0.0,0.0,0.0,0.12069806406007016,0.0,-0.37763112832679063,-0.28179030409553774,-0.4555917359934036,0.24123999456353376,1.019284916270589,-0.07235175160556193
12111,5.0,299.30338,3292.7994,0.0,0.0,0.0,0.0,0.120708030869654,0.0,-0.28334356583633274,-0.28165936178511475,-0.4359258789100346,0.23619592410822277,1.017014222796489,-0.13195428382787386
12112,5.0,299.27058,3275.8242,0.0,0.0,0.0,0.0,0.1207179976792378,0.0,-0.2902468083701297,-0.2782059521317897,-0.4273159888353046,0.23625711428176177,1.003027906101147,-0.0900563790206226
12113,5.0,300.57572000000005,3472.9299,0.0,0.0,0.0,0.0,0.12072796448882163,0.0,-0.3267500551477197,-0.29100579349003575,-0.43792812190264063,0.2185678345659658,0.999722664009945,-0.12615916200093988
12114,5.0,301.02222,3576.1154,0.0,0.0,0.0,0.0,0.12073793129840543,0.0,-0.3177451799190077,-0.3233737740920067,-0.4459308421199476,0.2278048960550928,1.022563286969139,-0.08839648993205432
12115,5.0,300.83387,3352.1407,0.0,0.0,0.0,0.0,0.12074789810798926,0.0,-0.28611543307489473,-0.2816166127633957,-0.4512350037434276,0.2277889272335168,1.048422442771239,-0.1182865430964729
12116,5.0,300.56107000000003,3251.2184,0.0,0.0,0.0,0.0,0.12075786491757308,0.0,-0.3047141554179457,-0.25771625178961377,-0.4258588136014926,0.22406225416072276,1.027236193780319,-0.05980493906228794
12117,5.0,300.45099999999996,3343.2221,0.0,0.0,0.0,0.0,0.12076783172715691,0.0,-0.2737672276837217,-0.2699525031772378,-0.4725363174157035,0.2003897731344308,1.025755430084179,-0.11009689850071788
12118,5.0,300.01204,3567.4895,0.0,0.0,0.0,0.0,0.12077779853674073,0.0,-0.36416773987555767,-0.26876002939954974,-0.4514999686445776,0.24184257439800377,1.017068836976879,-0.07707080283954602
12119,5.0,300.09173,3563.8051,0.0,0.0,0.0,0.0,0.12078776534632454,0.0,-0.3221947056131417,-0.28794725753318173,-0.47316580917282947,0.2530186520734968,1.0213594445253291,-0.09948296590120431
12120,5.0,299.73847,3268.4283,0.0,0.0,0.0,0.0,0.12079773215590837,0.0,-0.2918376920871377,-0.27184807119931576,-0.4298348272588946,0.23761277198805478,1.0018436700467719,-0.11321642198109089
12121,5.0,299.93065,3285.2827,0.0,0.0,0.0,0.0,0.12080769896549218,0.0,-0.2924263903952377,-0.2794863557531557,-0.4267311814075886,0.2005755424077648,0.9947409489657881,-0.13012420215975887
12122,5.0,300.29334,3518.5594,0.0,0.0,0.0,0.0,0.12081766577507601,0.0,-0.3520728976718897,-0.29285835917786973,-0.4246229524545226,0.2190324097368158,1.025579124566779,-0.12399701801005289
12123,5.0,300.14745,3321.0913,0.0,0.0,0.0,0.0,0.12082763258465982,0.0,-0.26846114088505174,-0.26766479723395875,-0.47340289956372855,0.21574385587476078,1.059294818994259,-0.08948131601911832
12124,5.0,299.73913999999996,3125.4519,0.0,0.0,0.0,0.0,0.12083759939424364,0.0,-0.26827373014655576,-0.26147262322283876,-0.42031297156416064,0.2252989867027788,1.0387279697894691,-0.09218873041881931
12125,5.0,301.06837,3382.426,0.0,0.0,0.0,0.0,0.12084756620382746,0.0,-0.2763020450613887,-0.28300712627312874,-0.46886388362076253,0.21178536131158782,1.020825259072609,-0.06304922301422385
12126,5.0,300.29755,3405.4236,0.0,0.0,0.0,0.0,0.12085753301341129,0.0,-0.29506746731089173,-0.26853359839970276,-0.4715626549971106,0.23504989771511878,0.994959638734871,-0.06779916621725673
12127,5.0,299.87375,3471.7715,0.0,0.0,0.0,0.0,0.12086749982299509,0.0,-0.2971173431906987,-0.3031477112933497,-0.45506679138159556,0.24304630538430277,1.025889077772369,-0.07496196492316994
12128,5.0,299.94655,3662.0218,0.0,0.0,0.0,0.0,0.12087746663257892,0.0,-0.32906298088598773,-0.2804228318930787,-0.5036773737365865,0.23750117262204076,1.0037142107913801,-0.07788555825820613
12129,5.0,300.00492,3709.7223,0.0,0.0,0.0,0.0,0.12088743344216275,0.0,-0.32463197740368166,-0.3045519948719417,-0.49847897515854456,0.1989050172328968,1.019436194510519,-0.08217592465313232
12130,5.0,300.07595,3373.7309999999998,0.0,0.0,0.0,0.0,0.12089740025174657,0.0,-0.3265154168220627,-0.26898822345457074,-0.43002636192529764,0.2177190653546988,1.041175475406019,-0.11960475107906988
12131,5.0,299.79636,3212.0892,0.0,0.0,0.0,0.0,0.12090736706133039,0.0,-0.2811723836545537,-0.2441787238285638,-0.45104379331705663,0.2059292316961328,1.0552704935720891,-0.1117859864174179
12132,5.0,298.71681,3205.0807,0.0,0.0,0.0,0.0,0.1209173338709142,0.0,-0.3086271955816327,-0.27847732077357173,-0.38715999571221665,0.2548660400533198,1.035899482135319,-0.13473529058233788
12133,5.0,299.83665,3293.0582,0.0,0.0,0.0,0.0,0.12092730068049803,0.0,-0.31392503452448867,-0.2616371345090747,-0.42544528597068065,0.18601658741840782,1.005236912909159,-0.12046769565923589
12134,5.0,299.9138,3242.6774,0.0,0.0,0.0,0.0,0.12093726749008184,0.0,-0.29694803923148977,-0.2758125743355817,-0.4129323362457486,0.25650498222257073,0.9928937332384821,-0.11089512679699688
12135,5.0,299.4182,3253.055,0.0,0.0,0.0,0.0,0.12094723429966567,0.0,-0.27069892399590373,-0.2853042351773357,-0.43284433204340955,0.2070831715725178,1.009803408194837,-0.08539095911443152
12136,5.0,300.1788,3454.6344,0.0,0.0,0.0,0.0,0.1209572011092495,0.0,-0.29802497210027473,-0.27949372208138273,-0.47260389106487255,0.25860817532263974,1.018695204712389,-0.06547702699582944
12137,5.0,300.33699,3720.3786,0.0,0.0,0.0,0.0,0.1209671679188333,0.0,-0.3103276622969557,-0.3276404689380967,-0.4929340754438056,0.2136466510827828,1.006406730414611,-0.11134369261626689
12138,5.0,300.62292,3776.3198,0.0,0.0,0.0,0.0,0.12097713472841713,0.0,-0.36592258772374764,-0.30131903804287374,-0.48066529872797153,0.2290495015504258,1.016304339776429,-0.08203097821307721
12139,5.0,300.57212999999996,3463.0202,0.0,0.0,0.0,0.0,0.12098710153800095,0.0,-0.3193933325316677,-0.26079514394097675,-0.47248318258045946,0.2048012816848128,1.024644198699509,-0.1074169634437289
12140,5.0,300.14245,3213.9113,0.0,0.0,0.0,0.0,0.12099706834758478,0.0,-0.29140413250184877,-0.27024107680571774,-0.4153035745272716,0.21986519999400578,1.0234093508026392,-0.11676316210112687
12141,5.0,300.70261,3306.2251,0.0,0.0,0.0,0.0,0.1210070351571686,0.0,-0.3001146585765107,-0.23443864445979276,-0.4704565810554496,0.21755244650825478,1.0440163247113892,-0.1070322526457609
12142,5.0,301.02201,3306.4828,0.0,0.0,0.0,0.0,0.12101700196675241,0.0,-0.3064316143374457,-0.25803677319374674,-0.4406198309257916,0.23020991609494976,1.040428710082319,-0.1021171182656749
12143,5.0,299.78447,3138.5736,0.0,0.0,0.0,0.0,0.12102696877633624,0.0,-0.23967941715701677,-0.2851884004259037,-0.42918017650178564,0.24095563605546977,1.044689832052859,-0.11814512378001589
12144,5.0,298.66619,3295.5083,0.0,0.0,0.0,0.0,0.12103693558592005,0.0,-0.3233301638077027,-0.2659720312193958,-0.4124500291981486,0.24747086459597276,1.015484113820479,-0.09282110487247981
12145,5.0,298.66315,3677.1258,0.0,0.0,0.0,0.0,0.12104690239550388,0.0,-0.3419646234817807,-0.33184290346284473,-0.44394689842414753,0.24732360895893973,0.991256999954449,-0.09818999088584761
12146,5.0,299.34173,3718.6347,0.0,0.0,0.0,0.0,0.12105686920508771,0.0,-0.35290645799915565,-0.3167159508649307,-0.4607496754949525,0.25047492822745077,0.9922026054777732,-0.09307709845724442
12147,5.0,299.52384,3489.8736,0.0,0.0,0.0,0.0,0.12106683601467151,0.0,-0.2873578803475147,-0.28941408904044674,-0.4840624527357445,0.2278145725935478,1.003811867836018,-0.058966803910820445
12148,5.0,299.85321,3404.506,0.0,0.0,0.0,0.0,0.12107680282425534,0.0,-0.29733576951475577,-0.3000290085455577,-0.4375200354248656,0.23322737489274978,1.041324220520699,-0.08737667295815622
12149,5.0,300.8203,3290.9964,0.0,0.0,0.0,0.0,0.12108676963383916,0.0,-0.2754376312685778,-0.26326385688211973,-0.4616792514016946,0.2072244287689588,1.0494238378450689,-0.0946459764085806
12150,5.0,299.64826,3179.1338,0.0,0.0,0.0,0.0,0.121096736443423,0.0,-0.3120689832563107,-0.2737135659584257,-0.38059473288177564,0.2515493685009898,1.057445130936709,-0.13663730287505188
12151,5.0,300.36519,3328.7626,0.0,0.0,0.0,0.0,0.1211067032530068,0.0,-0.3022600636757457,-0.2606488306265367,-0.4489518168955946,0.21896621410778278,1.047208569151439,-0.12560072947332687
12152,5.0,300.94228,3293.4795,0.0,0.0,0.0,0.0,0.12111667006259062,0.0,-0.28456497803687675,-0.28365346837941774,-0.4329170631355876,0.2260430770462148,1.022194666582759,-0.13374197111180486
12153,5.0,300.37606,3261.4191,0.0,0.0,0.0,0.0,0.12112663687217445,0.0,-0.28509179716136973,-0.2937317402340657,-0.4125664415021376,0.22833911190531575,1.0019450761167799,-0.11399715144814289
12154,5.0,298.88604,3514.7135,0.0,0.0,0.0,0.0,0.12113660368175826,0.0,-0.3223612130020747,-0.2817800601370267,-0.4642438481998005,0.21278720221546182,1.002101815774749,-0.08674975992253472
12155,5.0,299.96962,3489.5761,0.0,0.0,0.0,0.0,0.12114657049134209,0.0,-0.3028945811533677,-0.3020803333730077,-0.45576909529090753,0.24259285569955077,1.032642693663899,-0.08033264033621433
12156,5.0,299.03111,3257.4391,0.0,0.0,0.0,0.0,0.12115653730092592,0.0,-0.3037704852023127,-0.2615355460540488,-0.42487410675680953,0.21864473011605481,1.0373448834029688,-0.09031338281573692
12157,5.0,299.1671,3441.2129,0.0,0.0,0.0,0.0,0.12116650411050972,0.0,-0.32164201821359567,-0.24578956857254175,-0.4786112178602495,0.2513494745212618,1.031389911240259,-0.07201365233869414
12158,5.0,298.6806,3421.1769,0.0,0.0,0.0,0.0,0.12117647092009355,0.0,-0.3270358322059237,-0.27996902757079173,-0.43294748090358964,0.23644794980559578,1.015726280594379,-0.1039615576877069
12159,5.0,299.16348999999997,3278.6892,0.0,0.0,0.0,0.0,0.12118643772967737,0.0,-0.3075638503966887,-0.23960149822432675,-0.4494742790446576,0.25320079391147277,1.010095285018643,-0.06407451457841223
12160,5.0,299.56559,3480.009,0.0,0.0,0.0,0.0,0.1211964045392612,0.0,-0.33626362245663566,-0.27535097812002574,-0.4462212395986076,0.23783487640997478,0.994135339513519,-0.09882191646971382
12161,5.0,301.3928,3729.6209999999996,0.0,0.0,0.0,0.0,0.12120637134884502,0.0,-0.3318357397846377,-0.31657520029353975,-0.4853007254179525,0.2286390238024148,0.98977016689021,-0.08710766214935692
12162,5.0,299.81247,3389.3356,0.0,0.0,0.0,0.0,0.12121633815842883,0.0,-0.3388930165986367,-0.2607706739510618,-0.4306096900078676,0.2320045542745668,1.032656271215239,-0.12987701979786387
12163,5.0,299.40927999999997,3311.5078,0.0,0.0,0.0,0.0,0.12122630496801266,0.0,-0.26557088550480573,-0.29327600060408776,-0.4477688068738406,0.19591712507301481,1.038229146765239,-0.1157098379596719
12164,5.0,299.72317999999996,3320.5956,0.0,0.0,0.0,0.0,0.12123627177759647,0.0,-0.28840864096621677,-0.27402628533678874,-0.4469432208248616,0.2021922437373208,1.0514058563656792,-0.11784886971577789
12165,5.0,300.53969,3326.2235,0.0,0.0,0.0,0.0,0.1212462385871803,0.0,-0.2701275117345097,-0.25831343100105075,-0.4826479555961445,0.2042402957669478,1.005730912862913,-0.08345354487647362
12166,5.0,299.92233,3250.2967,0.0,0.0,0.0,0.0,0.12125620539676413,0.0,-0.26982617115476976,-0.27968578363783775,-0.4384970719662916,0.22887902222110076,1.0212168802362591,-0.09456191312728422
12167,5.0,300.3738,3230.0163,0.0,0.0,0.0,0.0,0.12126617220634793,0.0,-0.26739773490510177,-0.24710595270495875,-0.46734060395042654,0.23336625095145577,1.00659690732588,-0.06553510243856103
12168,5.0,300.63448,3318.7513,0.0,0.0,0.0,0.0,0.12127613901593176,0.0,-0.30991153061338667,-0.25875940290006477,-0.44014658233408555,0.2373774851823338,1.009417522026753,-0.1071990944072269
12169,5.0,301.21263,3596.0561,0.0,0.0,0.0,0.0,0.12128610582551558,0.0,-0.3103316342373477,-0.2999584762060967,-0.4828211605682386,0.23727708222992475,1.002305073744809,-0.1155249704789269
12170,5.0,301.10852,3727.6497,0.0,0.0,0.0,0.0,0.12129607263509941,0.0,-0.37401960099536063,-0.2881349722467077,-0.4709578561449215,0.2287972934680348,1.023354027347179,-0.11619999769554688
12171,5.0,299.78227999999996,3412.8722,0.0,0.0,0.0,0.0,0.12130603944468323,0.0,-0.3102161946534547,-0.28206880601802375,-0.44514290844468457,0.24431268562428476,1.0188504346277092,-0.1061245528086779
12172,5.0,300.26378,3172.8333,0.0,0.0,0.0,0.0,0.12131600625426704,0.0,-0.3110561080588477,-0.24132100390902878,-0.41208499571712265,0.2046885778761898,1.014526997776019,-0.1005748350897134
12173,5.0,300.48263,3424.9789,0.0,0.0,0.0,0.0,0.12132597306385087,0.0,-0.3158100748780277,-0.26925694751359175,-0.4560410516177476,0.23904560895446478,1.006793923675324,-0.08748723374281774
12174,5.0,300.02431,3410.8379999999997,0.0,0.0,0.0,0.0,0.12133593987343468,0.0,-0.3458689294296057,-0.2657714887596037,-0.42516916518592957,0.22469456275312677,1.030263683754109,-0.11832977847823987
12175,5.0,299.94242,3135.1731,0.0,0.0,0.0,0.0,0.1213459066830185,0.0,-0.24685607509779775,-0.24099203199906177,-0.46516621989833157,0.20983563507166478,1.018107823629419,-0.092698240191854
12176,5.0,300.49717999999996,3339.1378,0.0,0.0,0.0,0.0,0.12135587349260234,0.0,-0.2939991369354557,-0.2746153686799267,-0.44640001744625163,0.1933003965572638,1.036983963717349,-0.09429181206137732
12177,5.0,299.43551,3689.8693,0.0,0.0,0.0,0.0,0.12136584030218614,0.0,-0.3058133797889307,-0.2928947044589567,-0.5229200367831895,0.1986316727534198,1.013177824870366,-0.08332315681385533
12178,5.0,300.06934,3619.8409,0.0,0.0,0.0,0.0,0.12137580711176997,0.0,-0.3298515529088137,-0.3038964017922397,-0.46659329147167256,0.24754666583595378,1.054121873258729,-0.092647658746862
12179,5.0,301.15213,3399.7517,0.0,0.0,0.0,0.0,0.12138577392135379,0.0,-0.3022722328094467,-0.2831684559540507,-0.44799892610405156,0.24840933683859276,1.032547650804519,-0.10108867448042541
12180,5.0,301.46487,3299.8569,0.0,0.0,0.0,0.0,0.12139574073093762,0.0,-0.3009461214760697,-0.24502041042163175,-0.45710758854050654,0.23787218427865675,1.035790051124519,-0.09562848044754622
12181,5.0,301.08229,3267.9284,0.0,0.0,0.0,0.0,0.12140570754052143,0.0,-0.26659983084885475,-0.2909366391707107,-0.43583217354078657,0.2245555245744048,1.018986210141109,-0.14485203554328285
12182,5.0,299.72132,3357.7762,0.0,0.0,0.0,0.0,0.12141567435010525,0.0,-0.3034972623128477,-0.27230946476485174,-0.44487337378558356,0.23798626610741574,1.078782050217499,-0.12390287694326188
12183,5.0,298.05708,3353.4309,0.0,0.0,0.0,0.0,0.12142564115968908,0.0,-0.29722678433399974,-0.27146271192128374,-0.45066976217514254,0.2528556707949118,1.041840268796629,-0.12887772215174087
12184,5.0,299.82172,3264.0971,0.0,0.0,0.0,0.0,0.12143560796927289,0.0,-0.2992965300482677,-0.2706700970305587,-0.42223738681658557,0.22163243989091877,1.014377746036289,-0.10760563061234889
12185,5.0,300.27026,3275.1488,0.0,0.0,0.0,0.0,0.12144557477885672,0.0,-0.30757811695809667,-0.2502349906037708,-0.4377503471725956,0.23022506418394476,1.009096149492536,-0.10883713478388889
12186,5.0,300.29132999999996,3679.9276,0.0,0.0,0.0,0.0,0.12145554158844055,0.0,-0.33477432719465366,-0.32588380737222766,-0.4579479781734465,0.2112268375914658,1.031347861361109,-0.10435674549170891
12187,5.0,301.75534,3596.3625,0.0,0.0,0.0,0.0,0.12146550839802435,0.0,-0.3031995998309707,-0.3038039731181177,-0.4862008360117866,0.24276421655646277,1.043411009101649,-0.09146285729893122
12188,5.0,301.77186,3406.7832,0.0,0.0,0.0,0.0,0.12147547520760818,0.0,-0.3046442715585487,-0.2604308703975257,-0.47050187333491955,0.2144994631619488,1.044572295041259,-0.07489883944193992
12189,5.0,301.01822000000004,3591.0244,0.0,0.0,0.0,0.0,0.121485442017192,0.0,-0.31980179391197966,-0.30042276766691867,-0.47135719827433353,0.24168746607269578,1.025235024832819,-0.07611258640547743
12190,5.0,300.69405,3613.728,0.0,0.0,0.0,0.0,0.12149540882677583,0.0,-0.37440402808330064,-0.26154424987240776,-0.4625347891236296,0.24357052045603877,1.048143495018709,-0.08900661442676892
12191,5.0,299.08611,3357.7664,0.0,0.0,0.0,0.0,0.12150537563635964,0.0,-0.3163586484821677,-0.2841599819719067,-0.42015853198391856,0.24390332245138374,1.009023114425328,-0.1174467715460939
12192,5.0,299.34627,3443.8437,0.0,0.0,0.0,0.0,0.12151534244594346,0.0,-0.3136206339294467,-0.2842784005110937,-0.44894345758226956,0.21878497406239578,1.002841974707797,-0.13393532962838786
12193,5.0,299.43346,3540.6335,0.0,0.0,0.0,0.0,0.12152530925552729,0.0,-0.30916821034002673,-0.2797887602455007,-0.4873071936634755,0.2219041935677388,0.9847940652516071,-0.12702346433623987
12194,5.0,300.00966,3282.1263,0.0,0.0,0.0,0.0,0.1215352760651111,0.0,-0.29058199150320974,-0.2845353202064497,-0.42256713892912956,0.21087439880918277,1.046541647935619,-0.13837995119203786
12195,5.0,300.959,3191.4666,0.0,0.0,0.0,0.0,0.12154524287469493,0.0,-0.26414879912195677,-0.26470679595202673,-0.44127055027251255,0.22192554274734577,1.022581930770979,-0.099079496804135
12196,5.0,300.48918,3258.4322,0.0,0.0,0.0,0.0,0.12155520968427876,0.0,-0.3318468247407317,-0.2390634320237238,-0.4195717588510086,0.2190718454307078,1.012932780466182,-0.043908955982976554
12197,5.0,299.81864,3305.5695,0.0,0.0,0.0,0.0,0.12156517649386257,0.0,-0.2915137155001637,-0.2858167168129137,-0.4274801556165066,0.23871648505698279,1.020212040112089,-0.1034354883682879
12198,5.0,299.07773,3609.3728,0.0,0.0,0.0,0.0,0.12157514330344639,0.0,-0.32189439854850366,-0.2856422858081987,-0.4896225208044805,0.2269823598889148,1.046200790601979,-0.08882622145846551
12199,5.0,298.99422999999996,3794.6276,0.0,0.0,0.0,0.0,0.1215851101130302,0.0,-0.3119085958979817,-0.3565405402778116,-0.4850229023730335,0.24079582624969775,1.036461227990759,-0.13446994064614987
12200,5.0,299.25973,3614.6374,0.0,0.0,0.0,0.0,0.12159507692261404,0.0,-0.3112285429608657,-0.30383573850875273,-0.4836952306345026,0.2062658435118538,1.00476738294532,-0.09043978779221211
12201,5.0,298.53013,3480.4614,0.0,0.0,0.0,0.0,0.12160504373219785,0.0,-0.28703020539767576,-0.28687188506955075,-0.48407126801161454,0.2230823703865158,1.0061946673011821,-0.1043506254611049
12202,5.0,298.8681,3550.0196,0.0,0.0,0.0,0.0,0.12161501054178167,0.0,-0.36106394203673664,-0.29203239822635374,-0.42602098427999757,0.22691487743225477,1.035597128305479,-0.0950941723915641
12203,5.0,300.74022,3322.7159,0.0,0.0,0.0,0.0,0.1216249773513655,0.0,-0.27704288287200374,-0.25087835375476575,-0.4821014186247055,0.23334722211457778,1.012065874078125,-0.09051910906304052
12204,5.0,300.22442,3051.4365,0.0,0.0,0.0,0.0,0.1216349441609493,0.0,-0.25830904362811774,-0.2503330732134508,-0.4189184050540276,0.2013989094390248,1.006738934592397,-0.11401553180495688
12205,5.0,299.65288,3450.0339,0.0,0.0,0.0,0.0,0.12164491097053313,0.0,-0.2858563247593227,-0.30468021153959574,-0.4581876118220966,0.2365306208812548,1.020861432101179,-0.10090743950128891
12206,5.0,299.59525,3713.8314,0.0,0.0,0.0,0.0,0.12165487778011697,0.0,-0.35327917191593966,-0.28658815477654875,-0.4890446744049516,0.25048125090807477,1.040539863618289,-0.07845718634187142
12207,5.0,299.66791,3411.3842,0.0,0.0,0.0,0.0,0.12166484458970078,0.0,-0.3084543655120757,-0.2865367120689717,-0.44198452682297656,0.2236655971440758,1.0110774486055751,-0.07323149283263562
12208,5.0,299.97343,3448.1035,0.0,0.0,0.0,0.0,0.1216748113992846,0.0,-0.3507865868024407,-0.27594980892912574,-0.42140095899153657,0.22675534120400978,0.994143901476864,-0.05497337856370004
12209,5.0,300.32703,3704.8509,0.0,0.0,0.0,0.0,0.12168477820886842,0.0,-0.33363831171253766,-0.3041757041823047,-0.48836814757818353,0.2206707236910048,0.9968421662281621,-0.08576249360809911
12210,5.0,300.17688,3629.2984,0.0,0.0,0.0,0.0,0.12169474501845225,0.0,-0.3291604859431107,-0.3270986942421277,-0.44695689970121155,0.2470679254287058,1.036719505441249,-0.1196421602727619
12211,5.0,300.70993,3481.9856,0.0,0.0,0.0,0.0,0.12170471182803606,0.0,-0.3028610932375627,-0.2915406780853247,-0.4640348957641786,0.21009755009001382,1.017111292156069,-0.13829480778613487
12212,5.0,300.40084,3301.4084,0.0,0.0,0.0,0.0,0.12171467863761988,0.0,-0.29881307802805473,-0.2840093724770427,-0.42072325679465256,0.22311983024271279,1.005858866085541,-0.08312621645816883
12213,5.0,301.27973,3049.9929,0.0,0.0,0.0,0.0,0.12172464544720371,0.0,-0.27786819534345575,-0.23961356603301778,-0.4096399219008126,0.22806707451846775,1.043614875021769,-0.1163893842717379
12214,5.0,299.99691,3149.8062,0.0,0.0,0.0,0.0,0.12173461225678751,0.0,-0.3028415375106327,-0.22163922866658878,-0.4329816780944646,0.26555402502314174,1.062017523337969,-0.06268853333637653
12215,5.0,299.44372999999996,3479.8501,0.0,0.0,0.0,0.0,0.12174457906637134,0.0,-0.2955148476275447,-0.2917434598278377,-0.4705292412201205,0.2196591454536698,1.0542312029445189,-0.11061665527201389
12216,5.0,298.92901,3486.2124,0.0,0.0,0.0,0.0,0.12175454587595518,0.0,-0.2959525412732417,-0.2821330866043677,-0.48163590113126253,0.23569796234657778,1.021152538854909,-0.08825775978136272
12217,5.0,299.94399,3374.5032,0.0,0.0,0.0,0.0,0.12176451268553899,0.0,-0.2819955885657977,-0.3041825030904757,-0.4395866197988216,0.21953554920647178,1.057174289184979,-0.14294745972781586
12218,5.0,300.01447,3579.8087,0.0,0.0,0.0,0.0,0.12177447949512281,0.0,-0.33202021209784366,-0.3211541180254437,-0.4349981167209716,0.25327194433349476,1.043338967019539,-0.10562283188916188
12219,5.0,301.06962999999996,3571.8777,0.0,0.0,0.0,0.0,0.12178444630470663,0.0,-0.3522776552520977,-0.27711841053445774,-0.45636556522727456,0.2110135991079208,1.0194574727626189,-0.08785978756608592
12220,5.0,299.33285,3044.7477,0.0,0.0,0.0,0.0,0.12179441311429046,0.0,-0.26482036102323475,-0.25396097466649675,-0.4067459377601986,0.2128576028324098,0.997266870007577,-0.07468722317180503
12221,5.0,298.71758,3024.0751,0.0,0.0,0.0,0.0,0.12180437992387427,0.0,-0.24279513081701376,-0.25896202252256173,-0.41748617603767757,0.22993811175562479,1.044126363672249,-0.09520764728351322
12222,5.0,301.08422,3344.5413,0.0,0.0,0.0,0.0,0.12181434673345809,0.0,-0.3068710406408137,-0.22606729372360476,-0.4837187076393195,0.24759786536350675,1.055293190374329,-0.1038923729708789
12223,5.0,301.09389,3331.7265,0.0,0.0,0.0,0.0,0.12182431354304192,0.0,-0.3218262878767817,-0.2805308342212377,-0.4104045508237756,0.2140516167502498,1.0302651023042488,-0.1223432114618349
12224,5.0,300.08269,3462.2528,0.0,0.0,0.0,0.0,0.12183428035262572,0.0,-0.3490928885977857,-0.2605205328988747,-0.44282498738342363,0.2258603576556818,0.998669724903528,-0.10394042129062091
12225,5.0,300.44516,3592.7455,0.0,0.0,0.0,0.0,0.12184424716220955,0.0,-0.3751156437610316,-0.2850344978682147,-0.4319547693831166,0.25552997218134477,1.0446052256695089,-0.1037796792947569
12226,5.0,300.53361,3490.7387,0.0,0.0,0.0,0.0,0.12185421397179337,0.0,-0.29048056516819976,-0.31008577923308367,-0.46053105665337657,0.24675468929279176,1.042296636641669,-0.08934544120720851
12227,5.0,299.73885,3537.5647,0.0,0.0,0.0,0.0,0.1218641807813772,0.0,-0.3005178003937977,-0.2786053955862117,-0.4962081600944325,0.2194203629351038,1.034489139321129,-0.09737719813263121
12228,5.0,301.05435,3741.438,0.0,0.0,0.0,0.0,0.121874147590961,0.0,-0.3194659420338337,-0.3185928041576617,-0.4992449719691426,0.18324579422495182,1.0148001700029792,-0.07480402355058233
12229,5.0,299.57034,3322.8735,0.0,0.0,0.0,0.0,0.12188411440054484,0.0,-0.2953714018108877,-0.28709704950677273,-0.42760213066354463,0.23507041602964376,1.079051169444059,-0.13759102453167688
12230,5.0,298.96271,3086.7682,0.0,0.0,0.0,0.0,0.12189408121012867,0.0,-0.3071893024972237,-0.2487288551251268,-0.38238229857569467,0.22521576847206579,1.055498880144629,-0.1152070632600519
12231,5.0,299.33912999999995,3383.8118,0.0,0.0,0.0,0.0,0.12190404801971247,0.0,-0.33585545491885266,-0.27131878987707975,-0.4214200486234206,0.2014658042106268,1.016091962555469,-0.1263116865384929
12232,5.0,299.09822,3432.2449,0.0,0.0,0.0,0.0,0.1219140148292963,0.0,-0.28746736202081974,-0.27471307638706977,-0.4811362877719545,0.2032219895489488,0.9706109956518472,-0.06904957560916253
12233,5.0,300.33624,3330.942,0.0,0.0,0.0,0.0,0.12192398163888012,0.0,-0.2370286839679098,-0.3012819632217147,-0.47421255732113554,0.21852120479636378,1.044731273981949,-0.1144008708179869
12234,5.0,301.12044,3565.5078,0.0,0.0,0.0,0.0,0.12193394844846393,0.0,-0.28060023172058673,-0.32091680471952266,-0.4823082938976226,0.24434123901210278,1.0457236511298889,-0.11519313107117689
12235,5.0,299.69487999999996,3579.0839,0.0,0.0,0.0,0.0,0.12194391525804775,0.0,-0.34869553243856966,-0.2903484778851637,-0.44890810528628056,0.1953719053267058,1.034704961592429,-0.1172073000174599
12236,5.0,299.85637,3404.4311,0.0,0.0,0.0,0.0,0.12195388206763158,0.0,-0.3425189928764927,-0.2831935744240297,-0.4091494885874106,0.22867573385353776,1.020414791457099,-0.1132352886979529
12237,5.0,299.67469,3560.0887,0.0,0.0,0.0,0.0,0.12196384887721538,0.0,-0.3433485407333627,-0.29769694251290074,-0.4411325760063956,0.22931454751158376,1.0632302823826592,-0.09021910901318282
12238,5.0,300.629,3528.1141,0.0,0.0,0.0,0.0,0.12197381568679921,0.0,-0.28822965033605175,-0.2810328185857797,-0.5031961204690905,0.2619495701774098,1.047801624434969,-0.08053747289692972
12239,5.0,301.40934,3222.2599,0.0,0.0,0.0,0.0,0.12198378249638303,0.0,-0.27510860869610576,-0.2530271633743368,-0.45135077769985354,0.2119849715812878,1.008949207963034,-0.06878903050494872
12240,5.0,300.21455,3177.4449,0.0,0.0,0.0,0.0,0.12199374930596685,0.0,-0.27627091801831677,-0.23445619395152478,-0.4551367765660026,0.2101409374592958,1.007490664841587,-0.093744086547571
12241,5.0,299.34076,3618.915,0.0,0.0,0.0,0.0,0.12200371611555068,0.0,-0.37017988974141064,-0.2840683740303657,-0.4458115217881716,0.21824603646670682,1.0657053484019292,-0.099060782074788
12242,5.0,300.4793,3665.2941,0.0,0.0,0.0,0.0,0.1220136829251345,0.0,-0.37596968187281865,-0.3050059005192387,-0.4331823016142645,0.25180479871869876,1.030430262070549,-0.13114131274263988
12243,5.0,300.58383,3487.3845,0.0,0.0,0.0,0.0,0.12202364973471833,0.0,-0.34145662041164465,-0.2905554139530867,-0.4280657736443026,0.22403284964282077,0.985183730842564,-0.1098864768524509
12244,5.0,299.03164,3534.9431,0.0,0.0,0.0,0.0,0.12203361654430213,0.0,-0.3001858191310337,-0.30270161780432375,-0.4716470080679355,0.23030495895432979,0.973046220677185,-0.09000229071703451
12245,5.0,299.3084,3554.2244,0.0,0.0,0.0,0.0,0.12204358335388596,0.0,-0.28548322580750074,-0.3020108852111537,-0.49290136773057747,0.25158320092182873,1.040474508986839,-0.08083117154441552
12246,5.0,299.05964,3551.7416,0.0,0.0,0.0,0.0,0.12205355016346979,0.0,-0.28606412208983073,-0.31214279852609567,-0.4814338489288215,0.25759877557301974,1.046357033767399,-0.0956133759283055
12247,5.0,299.83529,3603.8129,0.0,0.0,0.0,0.0,0.12206351697305359,0.0,-0.3473166915699887,-0.3037684485696117,-0.44438400438478654,0.22618348311257178,1.048037205083219,-0.0985102214872019
12248,5.0,300.78303999999997,3320.5187,0.0,0.0,0.0,0.0,0.12207348378263742,0.0,-0.32501386123387066,-0.2774490745720917,-0.40689183564209763,0.2293026215579068,1.046037556010869,-0.09270406840642922
12249,5.0,301.61026,3234.22,0.0,0.0,0.0,0.0,0.12208345059222124,0.0,-0.2739600593102527,-0.28918147721498977,-0.4199806052663586,0.2038066145916468,1.0687213886495888,-0.11837773560547288
12250,5.0,299.70511,3639.0785,0.0,0.0,0.0,0.0,0.12209341740180507,0.0,-0.31072708548637573,-0.29465828652300874,-0.5008036140679686,0.24731737747082477,1.031351205086439,-0.1112783582498189
12251,5.0,300.28725,3650.3575,0.0,0.0,0.0,0.0,0.12210338421138889,0.0,-0.3148520367759767,-0.2926624776685377,-0.5021030059962085,0.19283138335097583,0.9787043409580981,-0.1000669738745914
12252,5.0,299.83927,3115.1089,0.0,0.0,0.0,0.0,0.1221133510209727,0.0,-0.2556611982017957,-0.26722280740783777,-0.42403130558863156,0.23061143671207676,0.9979554038480299,-0.11154407295604289
12253,5.0,300.53699,3262.7274,0.0,0.0,0.0,0.0,0.12212331783055654,0.0,-0.32197477967893673,-0.2406468582199958,-0.4291660011328866,0.23031342972516577,1.048294165308579,-0.09203103830575632
12254,5.0,300.13352000000003,3673.0085,0.0,0.0,0.0,0.0,0.12213328464014034,0.0,-0.35223604107049067,-0.29756322389720374,-0.4667036141425605,0.2610698664405897,1.049919215818959,-0.09888651622983931
12255,5.0,299.77643,3531.4278,0.0,0.0,0.0,0.0,0.12214325144972417,0.0,-0.3335505439888757,-0.26486669695030773,-0.47504864064115054,0.22001025687832176,1.022840714846519,-0.06311441552565784
12256,5.0,298.41842,3420.7409,0.0,0.0,0.0,0.0,0.122153218259308,0.0,-0.2852928158487087,-0.26712506930319174,-0.4874019426803265,0.24952442870614375,1.013711635420549,-0.08294201974899001
12257,5.0,299.68262000000004,3539.3674,0.0,0.0,0.0,0.0,0.1221631850688918,0.0,-0.3146285036714157,-0.27456608419506273,-0.4866847135970416,0.27670363660602276,1.040378858177399,-0.051107319767399746
12258,5.0,299.90216000000004,3406.094,0.0,0.0,0.0,0.0,0.12217315187847563,0.0,-0.29589276964984274,-0.26892805666363273,-0.4705466995193436,0.2420857341570018,1.029311633960149,-0.1136089145398269
12259,5.0,300.21195,3569.0214,0.0,0.0,0.0,0.0,0.12218311868805945,0.0,-0.35230052430685466,-0.3024743660718957,-0.43011849675689057,0.22551260008886082,1.009577645940056,-0.09571523492110821
12260,5.0,299.77588,3805.3864,0.0,0.0,0.0,0.0,0.12219308549764328,0.0,-0.35552549672513467,-0.30158408400403175,-0.4996328745049255,0.20882056112148478,1.013578494357409,-0.1182890255592179
12261,5.0,300.27466,3324.1,0.0,0.0,0.0,0.0,0.1222030523072271,0.0,-0.3002881269936307,-0.2560759417327278,-0.45407933862914157,0.2296337719555888,1.080750085886729,-0.10971830773335389
12262,5.0,300.67179,2854.1388,0.0,0.0,0.0,0.0,0.12221301911681091,0.0,-0.2015166794981478,-0.2660592619205047,-0.40001098593551065,0.1980305013365888,1.0422395906610389,-0.12931747269514088
12263,5.0,301.0156,3385.7347,0.0,0.0,0.0,0.0,0.12222298592639474,0.0,-0.3158358215630687,-0.25171764907759775,-0.46162534649637454,0.21061730686130978,0.999865461346538,-0.0919890522613626
12264,5.0,300.92287999999996,3658.2306,0.0,0.0,0.0,0.0,0.12223295273597855,0.0,-0.31790167639695266,-0.3256525634344057,-0.4684565165505586,0.22246513895559977,1.007345030404714,-0.10912226336202889
12265,5.0,300.46006,3292.633,0.0,0.0,0.0,0.0,0.12224291954556238,0.0,-0.3114008866703747,-0.26818805985060074,-0.4212892684330136,0.2638952535494338,1.0541369706852188,-0.10621757930035891
12266,5.0,300.68611,3532.6367,0.0,0.0,0.0,0.0,0.12225288635514621,0.0,-0.30076626958331976,-0.2873337852601367,-0.4857332920181436,0.2199242927398378,1.050504063776679,-0.1069069642708959
12267,5.0,299.82334,3719.5279,0.0,0.0,0.0,0.0,0.12226285316473001,0.0,-0.3322172892422937,-0.3085116040102247,-0.4899147016033165,0.21105823277482577,1.003928908355069,-0.08953781180494401
12268,5.0,298.78737,3488.7916,0.0,0.0,0.0,0.0,0.12227281997431384,0.0,-0.2966719184467387,-0.26013857814117874,-0.5036950346858294,0.21250389748750179,1.034900417536719,-0.1060850867172829
12269,5.0,299.45282000000003,3586.8740000000003,0.0,0.0,0.0,0.0,0.12228278678389766,0.0,-0.33116919347135465,-0.2849062406705567,-0.47424468748180654,0.24532889441457675,1.0684417316219887,-0.10225862877464091
12270,5.0,298.73615,3309.2486,0.0,0.0,0.0,0.0,0.12229275359348149,0.0,-0.3144300586393307,-0.2616723550825507,-0.4298265287405756,0.25343025452911877,1.0405657014958392,-0.11978734887959089
12271,5.0,299.61319,3043.2906,0.0,0.0,0.0,0.0,0.12230272040306531,0.0,-0.3038364072538187,-0.23296941154979078,-0.38827851236510563,0.1918129352779628,0.9992269820610251,-0.10342048213430691
12272,5.0,299.90945,3206.2876,0.0,0.0,0.0,0.0,0.12231268721264912,0.0,-0.26961999502442174,-0.28181798608826975,-0.4231933882859356,0.18944795888205782,1.023270839513969,-0.12704355708572287
12273,5.0,299.52628,3450.0373,0.0,0.0,0.0,0.0,0.12232265402223295,0.0,-0.3111725811578427,-0.26476156211993174,-0.47279105862334453,0.24115986674562578,1.059294920319269,-0.08273140659645412
12274,5.0,299.3497,3244.1077,0.0,0.0,0.0,0.0,0.12233262083181676,0.0,-0.26303605799463775,-0.2710296792260467,-0.4520619982100456,0.2240137701434378,1.0580181238682589,-0.1133358537703779
12275,5.0,300.60823999999997,3187.7059,0.0,0.0,0.0,0.0,0.12234258764140059,0.0,-0.2868374750961547,-0.26269071196305477,-0.4194548095244666,0.2296003347022888,1.010963883534367,-0.08981731887152922
12276,5.0,299.20446,3798.045,0.0,0.0,0.0,0.0,0.12235255445098442,0.0,-0.3692820386952997,-0.3117018016850727,-0.4735270125684775,0.22079894035865877,1.040189684383729,-0.10870388226323789
12277,5.0,301.17636,3997.764,0.0,0.0,0.0,0.0,0.12236252126056822,0.0,-0.3829499111492137,-0.33364746136094064,-0.4986230593227645,0.25893749173764075,1.050744710675429,-0.09164152166256401
12278,5.0,299.74292,3489.1932,0.0,0.0,0.0,0.0,0.12237248807015205,0.0,-0.3040778140901437,-0.29490379702223873,-0.46164598640091153,0.2272498883128178,1.034624104234449,-0.1300329893857569
12279,5.0,300.19745,3331.6290000000004,0.0,0.0,0.0,0.0,0.12238245487973587,0.0,-0.2902333524088017,-0.24355127883663974,-0.47894739397842756,0.21723357670178478,0.993895341094833,-0.08104841945860622
12280,5.0,299.96839,3242.8871,0.0,0.0,0.0,0.0,0.1223924216893197,0.0,-0.26550902658620074,-0.2700632412806667,-0.45018445590724654,0.2175367309992038,1.045975443779739,-0.1003505410343273
12281,5.0,300.237,3162.7693,0.0,0.0,0.0,0.0,0.12240238849890352,0.0,-0.2894587328398527,-0.25715389798411376,-0.41479025189411056,0.22300755199913178,1.082971839380999,-0.1009472825217211
12282,5.0,299.10187,3443.4201,0.0,0.0,0.0,0.0,0.12241235530848733,0.0,-0.33941462761761565,-0.28674941352996375,-0.4205496769200216,0.2086106157007648,1.050394024815819,-0.12556226649953087
12283,5.0,299.975,3530.8326,0.0,0.0,0.0,0.0,0.12242232211807116,0.0,-0.36429386924800566,-0.3017334472012727,-0.4072576290606986,0.2052979059563258,0.9781140417148401,-0.1293899200772909
12284,5.0,299.08575,3180.0193,0.0,0.0,0.0,0.0,0.12243228892765497,0.0,-0.27378214272519374,-0.2672247629805308,-0.4256395665448546,0.22282691990380482,1.040850019473899,-0.13330002181568787
12285,5.0,300.42064,3499.8883,0.0,0.0,0.0,0.0,0.1224422557372388,0.0,-0.28033061600147774,-0.31340487245315274,-0.47014315240201654,0.2564777764573858,1.025415180700599,-0.1014248353998519
12286,5.0,299.81717000000003,3738.9541,0.0,0.0,0.0,0.0,0.12245222254682263,0.0,-0.3042462162567637,-0.29520730595719274,-0.5370951625021655,0.2523386801963888,1.016396849510559,-0.07796188233523872
12287,5.0,300.57592,3523.6445,0.0,0.0,0.0,0.0,0.12246218935640643,0.0,-0.34170166481582864,-0.27903838775144474,-0.4503598900295606,0.23283242013627078,1.0094790871028292,-0.05459917516926904
12288,5.0,300.70587,3226.406,0.0,0.0,0.0,0.0,0.12247215616599026,0.0,-0.2910008082995437,-0.2597315049135037,-0.4300145474291316,0.26523148725130974,1.060575364470639,-0.1008347914956191
12289,5.0,300.13072,3532.9942,0.0,0.0,0.0,0.0,0.12248212297557408,0.0,-0.36039487273070464,-0.26839803566882375,-0.44514910953529657,0.25736176624212875,1.050138888440639,-0.07736702549303093
12290,5.0,300.20869,3496.2037,0.0,0.0,0.0,0.0,0.12249208978515791,0.0,-0.3106807596918037,-0.27047239167104675,-0.4816054630982585,0.19100309513553781,1.0123434235455169,-0.10542074928921791
12291,5.0,300.677,3393.4256,0.0,0.0,0.0,0.0,0.12250205659474173,0.0,-0.3046934749834047,-0.2751020631004597,-0.45172111047890257,0.19038511389954782,0.960689716767693,-0.08679814160155962
12292,5.0,300.15457999999995,3531.8218,0.0,0.0,0.0,0.0,0.12251202340432554,0.0,-0.2817680531233417,-0.28531596861349373,-0.5065016057403164,0.20056945277466381,1.0319057568661691,-0.0966337278982564
12293,5.0,300.22166,3273.3608,0.0,0.0,0.0,0.0,0.12252199021390937,0.0,-0.31889332400482073,-0.2618390448565018,-0.4142875886520016,0.2514342024946237,1.057098498077499,-0.09094939889025681
12294,5.0,299.61251,3194.0058,0.0,0.0,0.0,0.0,0.12253195702349318,0.0,-0.27238234784454474,-0.2921206016475587,-0.40639507964807164,0.2118510097855668,1.030361867688799,-0.12363540931436488
12295,5.0,299.87118,3554.2761,0.0,0.0,0.0,0.0,0.12254192383307701,0.0,-0.36617744038889966,-0.2779891267428907,-0.4362446068614905,0.2204032155321038,1.003194383092577,-0.1036625881132009
12296,5.0,300.00514,3598.6734,0.0,0.0,0.0,0.0,0.12255189064266084,0.0,-0.28150598611747774,-0.3155420803590787,-0.49685877811614354,0.22510331797596778,1.034835873505349,-0.11815416197090788
12297,5.0,299.62482,3078.827,0.0,0.0,0.0,0.0,0.12256185745224464,0.0,-0.22925067222527976,-0.27318156912592173,-0.4334542883386076,0.26368845933652474,1.0401631372311089,-0.12689574416113486
12298,5.0,299.72536,3191.5825,0.0,0.0,0.0,0.0,0.12257182426182847,0.0,-0.24307679407981178,-0.25316533015797277,-0.4739192518146885,0.20216483532211582,1.017814183750439,-0.0948467975121501
12299,5.0,299.63355,3680.8271,0.0,0.0,0.0,0.0,0.12258179107141229,0.0,-0.3706397938292996,-0.30438282263524574,-0.4438569015502656,0.2344864495995108,0.9981979860544711,-0.0979229082919886
12300,5.0,300.07412999999997,3587.1324,0.0,0.0,0.0,0.0,0.12259175788099612,0.0,-0.34457712674461466,-0.27922183668204975,-0.46659969521230454,0.20785857134404379,1.062205379906509,-0.0974450666375793
12301,5.0,300.89187999999996,3494.256,0.0,0.0,0.0,0.0,0.12260172469057994,0.0,-0.3429284472419027,-0.2935849202945757,-0.4256532048912006,0.25283154531003077,1.059819378571029,-0.15061396329694085
12302,5.0,300.08675,3533.9196,0.0,0.0,0.0,0.0,0.12261169150016375,0.0,-0.2935861665921987,-0.3012379577698717,-0.4793992123305186,0.19965841934475181,1.001862455703626,-0.08661292961578061
12303,5.0,300.96045,3363.1146,0.0,0.0,0.0,0.0,0.12262165830974758,0.0,-0.2915531207965527,-0.2793813222477898,-0.4513684285165956,0.22337942491833276,0.9781573986866191,-0.12313681933765787
12304,5.0,300.83086000000003,3583.0899,0.0,0.0,0.0,0.0,0.12263162511933139,0.0,-0.3127645186549547,-0.3007204402812967,-0.4756849110414455,0.2204127907455488,1.017208462840659,-0.07769796412144203
12305,5.0,300.06575,3713.6997,0.0,0.0,0.0,0.0,0.12264159192891522,0.0,-0.3901253329248726,-0.28561960927096075,-0.45312703552265654,0.2756506265720987,1.046963565277259,-0.07805324304375533
12306,5.0,298.93376,3336.8463,0.0,0.0,0.0,0.0,0.12265155873849905,0.0,-0.3083641963856767,-0.26559651059983475,-0.44035725729487757,0.2303842863046588,1.047460969751349,-0.08390106198189012
12307,5.0,299.36163,3122.9557,0.0,0.0,0.0,0.0,0.12266152554808285,0.0,-0.2954210510657877,-0.2548218116864548,-0.39905768984392764,0.23401894613587176,1.032539950103759,-0.1116060737296619
12308,5.0,299.51262,3752.2111,0.0,0.0,0.0,0.0,0.12267149235766668,0.0,-0.3120652950259467,-0.2974435894578967,-0.5310696073374894,0.21505121837140279,1.0722119339190792,-0.1032123504312659
12309,5.0,300.13367,3814.1115,0.0,0.0,0.0,0.0,0.1226814591672505,0.0,-0.3430271074041397,-0.3122791211945497,-0.5040884189046535,0.24168803349275178,1.050542364630459,-0.11045535598859489
12310,5.0,299.52689,3203.6997,0.0,0.0,0.0,0.0,0.12269142597683433,0.0,-0.26544365168974876,-0.26852887665423675,-0.4398721942070056,0.2007634091088058,1.027554354311719,-0.11932623902408289
12311,5.0,300.32628,3176.1461,0.0,0.0,0.0,0.0,0.12270139278641815,0.0,-0.3294465365788417,-0.24326877457625876,-0.3927537746117796,0.25109278787342876,1.0062146992556589,-0.09270734424400251
12312,5.0,300.29371000000003,3469.8617,0.0,0.0,0.0,0.0,0.12271135959600196,0.0,-0.3109452078354027,-0.29061596577906273,-0.4531901204738825,0.24955934530458976,1.065441700725909,-0.1198618430269429
12313,5.0,300.24355,3435.7066,0.0,0.0,0.0,0.0,0.12272132640558579,0.0,-0.3256962953087217,-0.28436689777482776,-0.4343058135901466,0.2305998755284358,1.0705442255794888,-0.12429161034412689
12314,5.0,299.70671,3416.2661,0.0,0.0,0.0,0.0,0.1227312932151696,0.0,-0.23694677282982576,-0.32714125074632766,-0.47437157679182956,0.1943474486805998,1.030470792074549,-0.12851585001102686
12315,5.0,299.55188,3364.0977,0.0,0.0,0.0,0.0,0.12274126002475343,0.0,-0.2796549605697957,-0.3051119776722077,-0.4378347610384266,0.20687637735960882,1.023310964217929,-0.1017502406694669
12316,5.0,300.19667999999996,3287.559,0.0,0.0,0.0,0.0,0.12275122683433726,0.0,-0.26697095396298176,-0.2649998278809468,-0.46736507394034155,0.24981926422024175,1.058250056816149,-0.1093602048830119
12317,5.0,300.12138999999996,3641.7693,0.0,0.0,0.0,0.0,0.12276119364392106,0.0,-0.36224585774838264,-0.2993499992560447,-0.4454110650836495,0.2593477871006338,1.0385418357460992,-0.08893547819024833
12318,5.0,299.36298,3695.5249,0.0,0.0,0.0,0.0,0.12277116045350489,0.0,-0.3448951454210007,-0.26562443577259076,-0.5128277010171535,0.23829405095779177,1.0047769682912662,-0.08225423470036093
12319,5.0,299.80472000000003,3413.2474,0.0,0.0,0.0,0.0,0.12278112726308871,0.0,-0.3134008903802597,-0.2805871911917997,-0.44355389924036154,0.2252044808659518,1.015608946232799,-0.08817153321110281
12320,5.0,300.63662,3222.7264,0.0,0.0,0.0,0.0,0.12279109407267254,0.0,-0.26096848063558375,-0.24377357577607878,-0.47488630784262953,0.24263814797902075,1.057238326591299,-0.11317851629484989
12321,5.0,298.82871,3582.8888,0.0,0.0,0.0,0.0,0.12280106088225635,0.0,-0.34442307219941065,-0.2562773859851088,-0.4884082722821435,0.21333267527429578,1.054812301876869,-0.08474248614318221
12322,5.0,299.1266,3728.1321,0.0,0.0,0.0,0.0,0.12281102769184017,0.0,-0.36164003551359264,-0.2865672007644807,-0.4850518205308876,0.21311880857568882,1.025182842452669,-0.09601710239090021
12323,5.0,299.69742,3407.0328,0.0,0.0,0.0,0.0,0.122820994501424,0.0,-0.3456891991268677,-0.2620341866932608,-0.4279294915058526,0.1911004684701478,1.022890364101419,-0.093649428723229
12324,5.0,300.02686,3403.0457,0.0,0.0,0.0,0.0,0.1228309613110078,0.0,-0.3153793726580207,-0.2646482402287478,-0.4544132957296006,0.23913962843124378,1.055896378158859,-0.08749659414724151
12325,5.0,300.95216,3466.6853,0.0,0.0,0.0,0.0,0.12284092812059164,0.0,-0.3157100062981517,-0.26670592826682576,-0.4713698335030806,0.2301454328585858,1.043366426097249,-0.09706282209035472
12326,5.0,300.01409,3293.9048,0.0,0.0,0.0,0.0,0.12285089493017547,0.0,-0.24506125453316277,-0.2724735606185467,-0.4837299952454335,0.2026068555457398,1.008224308576492,-0.09526418359934291
12327,5.0,299.85295,3403.9947,0.0,0.0,0.0,0.0,0.12286086173975927,0.0,-0.30444230041611575,-0.27637479641856877,-0.45391230435015656,0.21706805216544878,1.027462756502679,-0.0980254978381134
12328,5.0,300.76707000000005,3543.4513,0.0,0.0,0.0,0.0,0.1228708285493431,0.0,-0.3162258924540657,-0.28469651816485875,-0.47619829446961254,0.27783429199510973,1.059987375437609,-0.08699954329743642
12329,5.0,299.41025,3188.9598,0.0,0.0,0.0,0.0,0.12288079535892692,0.0,-0.3220802488818457,-0.26843703566517274,-0.3788468764592756,0.25557782798356776,1.0479419595738189,-0.1120583987068029
12330,5.0,299.09367000000003,3356.02,0.0,0.0,0.0,0.0,0.12289076216851075,0.0,-0.2811689588692157,-0.2999862291263357,-0.4389910820525466,0.21351934634021882,0.996846665058606,-0.11579644044571888
12331,5.0,300.03143,3823.901,0.0,0.0,0.0,0.0,0.12290072897809455,0.0,-0.3696307284522127,-0.3104892351579017,-0.48225045758191454,0.19289462028971682,1.006430987622005,-0.13253425805261287
12332,5.0,299.39031,3538.6795,0.0,0.0,0.0,0.0,0.12291069578767838,0.0,-0.26963781809368076,-0.3045719052364067,-0.5014604737102956,0.2019466521780828,1.028948079824269,-0.12560036470329086
12333,5.0,299.71202999999997,3211.1487,0.0,0.0,0.0,0.0,0.12292066259726221,0.0,-0.3058541631054557,-0.26607462279202077,-0.40418023651948365,0.2061233602827918,1.0705455428046189,-0.13142528621566588
12334,5.0,300.5561,3277.5693,0.0,0.0,0.0,0.0,0.12293062940684601,0.0,-0.28789560204308373,-0.23425629997179678,-0.4741473242796975,0.2197348352361398,1.002629252981803,-0.07309576392874022
12335,5.0,299.50352000000004,3337.0997,0.0,0.0,0.0,0.0,0.12294059621642985,0.0,-0.34146641854011167,-0.28183439060738874,-0.39109415200798764,0.24708331669772476,1.032603278235009,-0.12017092483744689
12336,5.0,300.64075,3708.5166,0.0,0.0,0.0,0.0,0.12295056302601366,0.0,-0.3309031342600967,-0.30445877586274167,-0.4919345447501595,0.2347798969609718,1.040474711636859,-0.058979220277545846
12337,5.0,299.40389,3714.4941,0.0,0.0,0.0,0.0,0.12296052983559748,0.0,-0.34418057105297767,-0.2963423081892087,-0.4885905863726366,0.23149078581136176,1.041983441035759,-0.0981830247914101
12338,5.0,299.47212,3496.9375,0.0,0.0,0.0,0.0,0.1229704966451813,0.0,-0.26463346704228974,-0.29372325933072874,-0.5046249550976055,0.2036572108644018,1.0043540782295302,-0.06944102756004585
12339,5.0,301.01829,3485.7397,0.0,0.0,0.0,0.0,0.12298046345476513,0.0,-0.3481099752057797,-0.26204722722204776,-0.4494206274518626,0.2073815129319618,1.075307919599629,-0.09825856866586571
12340,5.0,300.21039,3862.988,0.0,0.0,0.0,0.0,0.12299043026434893,0.0,-0.34872308270878866,-0.3242023796262837,-0.5013264308545665,0.2501596453263348,1.065933937624489,-0.07605924588046313
12341,5.0,299.69281,3730.1076,0.0,0.0,0.0,0.0,0.12300039707393276,0.0,-0.3912615510570086,-0.2886217882572527,-0.4539762404314666,0.2254726172399148,1.0646632206740791,-0.1161967046327219
12342,5.0,299.7736,3202.2221,0.0,0.0,0.0,0.0,0.12301036388351659,0.0,-0.25641017241071373,-0.2731657117618567,-0.44381966460909056,0.2266086529870328,0.988211818633913,-0.1073336236230039
12343,5.0,298.38721,2982.7071,0.0,0.0,0.0,0.0,0.12302033069310041,0.0,-0.2614216871403117,-0.25338830597497874,-0.39185847695592063,0.2296319379729078,1.011131556160915,-0.15438461142407486
12344,5.0,298.96463,3429.1383,0.0,0.0,0.0,0.0,0.12303029750268422,0.0,-0.26305916009691777,-0.2717549028526207,-0.5075583546671094,0.24929608266360775,1.044465295830699,-0.0968504468958949
12345,5.0,299.58241,3428.3178,0.0,0.0,0.0,0.0,0.12304026431226804,0.0,-0.3385930439065317,-0.29533227009202573,-0.4081976921059756,0.22760731228559278,1.0586250606781589,-0.13198081071549186
12346,5.0,299.27229,3311.282,0.0,0.0,0.0,0.0,0.12305023112185187,0.0,-0.2740815479972427,-0.27954942043937975,-0.45291608698433755,0.2137280454633158,1.0130761046928272,-0.09761094479820022
12347,5.0,299.54356,3453.2336,0.0,0.0,0.0,0.0,0.12306019793143567,0.0,-0.33399081128982666,-0.28940928623497275,-0.42629669976470863,0.22301191910706278,1.0695796114842888,-0.1023361322747899
12348,5.0,299.6763,3478.8052,0.0,0.0,0.0,0.0,0.1230701647410195,0.0,-0.2701440175786387,-0.3110514065783837,-0.4762744706121305,0.24346861789348176,1.056784593196519,-0.10916158759840991
12349,5.0,299.8731,3641.006,0.0,0.0,0.0,0.0,0.12308013155060332,0.0,-0.3025085429977687,-0.3141877196129137,-0.49007864546949653,0.21732992665379378,1.080821925318819,-0.1283112444183339
12350,5.0,300.24451,3644.1763,0.0,0.0,0.0,0.0,0.12309009836018714,0.0,-0.3078382790537727,-0.2989245152740527,-0.5009758159224635,0.22927636824781575,0.997202305711205,-0.08047803564606373
12351,5.0,300.29825,3308.0599,0.0,0.0,0.0,0.0,0.12310006516977097,0.0,-0.3140143018582987,-0.2861531665086187,-0.4054001491098796,0.24607434251314675,1.037767206044649,-0.09481494295550631
12352,5.0,300.17881,3169.6832,0.0,0.0,0.0,0.0,0.12311003197935479,0.0,-0.2964005396724557,-0.23014073137812177,-0.4369632848924186,0.2806290080234268,1.027584751814719,-0.07978888980255033
12353,5.0,299.47431,3608.4458,0.0,0.0,0.0,0.0,0.12311999878893862,0.0,-0.36849561476268566,-0.3009295345719327,-0.4274522608412536,0.24813145299866773,1.035834836778939,-0.08804247453261572
12354,5.0,299.46265,3643.7176,0.0,0.0,0.0,0.0,0.12312996559852242,0.0,-0.3276175998833397,-0.2869257291798647,-0.49305584784082357,0.2287625896521098,0.984407611663467,-0.09531255311936661
12355,5.0,300.19766,3444.0151,0.0,0.0,0.0,0.0,0.12313993240810625,0.0,-0.2970931163808077,-0.2771609670386577,-0.4726405099234865,0.18914698307235384,1.038877930804269,-0.11054424841986789
12356,5.0,299.60877,3509.7036,0.0,0.0,0.0,0.0,0.12314989921769008,0.0,-0.28724642283651475,-0.3114504244677637,-0.4681653996643275,0.26401046008580376,1.0497286234751488,-0.1072377296335399
12357,5.0,299.35047000000003,3501.3112,0.0,0.0,0.0,0.0,0.12315986602727388,0.0,-0.33707932931713974,-0.27124323181712273,-0.4559886361900745,0.22318235790638377,1.0712815676772591,-0.09535737930379061
12358,5.0,298.79823,3448.2888,0.0,0.0,0.0,0.0,0.12316983283685771,0.0,-0.30413832538611574,-0.3138547858950557,-0.43020057001499057,0.24367244328359777,1.0081180895685091,-0.09970967959782921
12359,5.0,298.99231000000003,3491.6871,0.0,0.0,0.0,0.0,0.12317979964644153,0.0,-0.3433728080732577,-0.2672977372527327,-0.45071515577962257,0.20841785500174081,1.048272481756439,-0.1021583170147409
12360,5.0,299.37752,3427.6551,0.0,0.0,0.0,0.0,0.12318976645602535,0.0,-0.26429777728415976,-0.2895802316593437,-0.48804357317365055,0.24595936902429974,1.0518952561639792,-0.1050534157304649
12361,5.0,299.49893,3091.2391,0.0,0.0,0.0,0.0,0.12319973326560918,0.0,-0.24044442098251675,-0.28566657341309576,-0.4135485138965606,0.2179247145949948,1.0445996527939592,-0.14125050899033986
12362,5.0,300.3719,3418.2253,0.0,0.0,0.0,0.0,0.123209700075193,0.0,-0.2941996388652437,-0.2761539281617707,-0.4687015812197446,0.20357562396634982,0.9929275960568241,-0.1014124028211249
12363,5.0,300.2372,3788.4816,0.0,0.0,0.0,0.0,0.12321966688477683,0.0,-0.36701515504157567,-0.3330951589964327,-0.45149347371143655,0.2250566578088628,1.0323382120088491,-0.09879256464081701
12364,5.0,300.83867999999995,3536.1775,0.0,0.0,0.0,0.0,0.12322963369436063,0.0,-0.32550913788275065,-0.2987091084352937,-0.4506914153297796,0.24074200240438576,1.049172349170249,-0.09377855123647241
12365,5.0,300.07065,3377.7437,0.0,0.0,0.0,0.0,0.12323960050394446,0.0,-0.3060622948084967,-0.27822628806129673,-0.44246115967001654,0.24270603573572075,1.0741818947634991,-0.10820975058697091
12366,5.0,300.25692000000004,3563.1067,0.0,0.0,0.0,0.0,0.12324956731352829,0.0,-0.28063800568431474,-0.3125400128302977,-0.4899174475110875,0.22294718255817378,1.0040408015636122,-0.11660849960586288
12367,5.0,299.30388999999997,3512.8597,0.0,0.0,0.0,0.0,0.12325953412311212,0.0,-0.3251080428306657,-0.2757038627323527,-0.4670097271302716,0.20877324234181482,1.044420206201249,-0.11078518916114691
12368,5.0,299.69797,3480.8584,0.0,0.0,0.0,0.0,0.12326950093269591,0.0,-0.3003745876246637,-0.26257467456160277,-0.49514476424698356,0.23302729852800377,1.0109017307732329,-0.09241822143396831
12369,5.0,299.41226,3530.1354,0.0,0.0,0.0,0.0,0.12327946774227974,0.0,-0.35283713142731365,-0.27731916577677074,-0.4429167169149766,0.23442718460116177,1.027529529684269,-0.1075719299140229
12370,5.0,299.36933,3308.7225,0.0,0.0,0.0,0.0,0.12328943455186356,0.0,-0.3049294710641957,-0.23299919097022975,-0.4678403692972496,0.2290243932129478,0.9994994450129151,-0.07299258973730773
12371,5.0,299.75715,3317.4228,0.0,0.0,0.0,0.0,0.12329940136144739,0.0,-0.31657155259317965,-0.2549104305402008,-0.4369317120193026,0.2255172610393208,1.064333914391579,-0.11870822739058988
12372,5.0,298.31594,3683.6222,0.0,0.0,0.0,0.0,0.12330936817103122,0.0,-0.28378163438456677,-0.3015146763721817,-0.5344328478644155,0.21773213628098878,1.078831294172359,-0.09001497458178631
12373,5.0,298.97881,3671.5646,0.0,0.0,0.0,0.0,0.12331933498061501,0.0,-0.34403662874377167,-0.2830020904201317,-0.4890252402680335,0.2054823681370308,1.095157387733619,-0.12416018167365589
12374,5.0,300.12142,3340.0401,0.0,0.0,0.0,0.0,0.12332930179019884,0.0,-0.28543736610797477,-0.2790236550949907,-0.45082776839573657,0.21555295955592077,1.029471018200879,-0.11262792632301089
12375,5.0,300.82292,3298.6752,0.0,0.0,0.0,0.0,0.12333926859978267,0.0,-0.3457803207083607,-0.24292976135780076,-0.41400482094659463,0.22664843318595876,1.0610678040192392,-0.11824629680250089
12376,5.0,300.28357,3539.027,0.0,0.0,0.0,0.0,0.1233492354093665,0.0,-0.3280353223695657,-0.2797650400606597,-0.46797546593308254,0.2096067925365798,1.026841634191379,-0.08042888389696283
12377,5.0,300.31363,3486.285,0.0,0.0,0.0,0.0,0.12335920221895033,0.0,-0.3083764263143837,-0.28688151094550074,-0.4644856704686665,0.2182761705246808,1.021751774964049,-0.12096792710110489
12378,5.0,300.22821,3520.868,0.0,0.0,0.0,0.0,0.12336916902853412,0.0,-0.26909362172997275,-0.27438074048677075,-0.5267815937092956,0.1947537721032008,1.0062399291831492,-0.10931127503568289
12379,5.0,300.36205,3551.4689,0.0,0.0,0.0,0.0,0.12337913583811795,0.0,-0.3191025905479737,-0.29146030708739273,-0.46899496778619953,0.25338279389443474,1.0532531126229892,-0.1017021011572159
12380,5.0,299.45396,3458.0404,0.0,0.0,0.0,0.0,0.12338910264770177,0.0,-0.2967295115824227,-0.2827359501488657,-0.47169247259992253,0.24617847422592376,1.038427237159789,-0.1117868679450049
12381,5.0,298.46272999999997,3532.9113,0.0,0.0,0.0,0.0,0.1233990694572856,0.0,-0.34730002360584367,-0.2969087453926117,-0.4297080392738816,0.2620061703279957,1.051246370799939,-0.1025785726262169
12382,5.0,299.23851,3716.9314,0.0,0.0,0.0,0.0,0.12340903626686943,0.0,-0.36301725518201367,-0.3085889352578567,-0.45824814338307057,0.25683309286995276,1.021174121082039,-0.10906643328151891
12383,5.0,299.45672,3455.9456,0.0,0.0,0.0,0.0,0.12341900307645322,0.0,-0.2935666108652687,-0.2698761547822027,-0.48707841192339657,0.25842248710931376,1.033207377944629,-0.09303295419013773
12384,5.0,300.00786,3307.4245,0.0,0.0,0.0,0.0,0.12342896988603705,0.0,-0.2598305805082817,-0.2827621021339467,-0.4627817688355046,0.23854297610985878,1.054459589517059,-0.12740225775362388
12385,5.0,299.57738,3608.9056,0.0,0.0,0.0,0.0,0.12343893669562088,0.0,-0.3150382518793547,-0.28609696152557174,-0.49588197462224054,0.19844809210030182,1.0471474701704089,-0.10718278108061689
12386,5.0,299.60527,3705.2474,0.0,0.0,0.0,0.0,0.12344890350520471,0.0,-0.3449442779183497,-0.2775899062034907,-0.5037685257155825,0.2044086472710628,1.043377571848349,-0.11066374100416089
12387,5.0,301.55536,3555.1623,0.0,0.0,0.0,0.0,0.12345887031478854,0.0,-0.3607087978766867,-0.26848654306505876,-0.4514852461206246,0.2240192720914808,1.0526389817373791,-0.08830871308914141
12388,5.0,301.12326,3421.2971,0.0,0.0,0.0,0.0,0.12346883712437233,0.0,-0.3417769189007557,-0.24503181961775775,-0.4531801399603975,0.24582550855358878,1.048221413951399,-0.1015542375701229
12389,5.0,300.3847,3440.0043,0.0,0.0,0.0,0.0,0.12347880393395616,0.0,-0.2973623065348747,-0.2712126721941067,-0.47710042143114556,0.22877523501335775,1.0273824057697492,-0.08476806057570622
12390,5.0,299.54704,3471.5366,0.0,0.0,0.0,0.0,0.12348877074353999,0.0,-0.28991762367764173,-0.2831050872927967,-0.4822377412931595,0.2092929079206018,1.0188392888766091,-0.12848050784753887
12391,5.0,299.47308,3785.8854,0.0,0.0,0.0,0.0,0.12349873755312381,0.0,-0.32368786135800465,-0.3152567795284217,-0.5118699972876355,0.2543043347278838,1.040777470766739,-0.09268713699725822
12392,5.0,298.89418,3587.0295,0.0,0.0,0.0,0.0,0.12350870436270764,0.0,-0.33397722360598564,-0.2874338031775077,-0.4689563629573896,0.24394760148075378,1.031758126326599,-0.13974689650444488
12393,5.0,299.48946,3369.1526,0.0,0.0,0.0,0.0,0.12351867117229143,0.0,-0.3294168382184107,-0.27098317104645675,-0.4237382432622086,0.25322719920907877,1.026514455734089,-0.09935264066009221
12394,5.0,298.85491,3286.7293,0.0,0.0,0.0,0.0,0.12352863798187526,0.0,-0.29484880793931173,-0.27190621149005373,-0.43232860800751155,0.2058506845483808,1.020579647248369,-0.14354346356913686
12395,5.0,299.24093999999997,3568.615,0.0,0.0,0.0,0.0,0.12353860479145909,0.0,-0.3110893527946287,-0.28710934023048573,-0.48657117892333657,0.2361083995645848,1.0419634800087891,-0.07375567345386823
12396,5.0,300.56614,3624.7637,0.0,0.0,0.0,0.0,0.12354857160104292,0.0,-0.28403045821162376,-0.2999842735536427,-0.5178229328176446,0.21364124032724882,1.048373705441429,-0.11894116345607889
12397,5.0,299.83218999999997,3364.7853,0.0,0.0,0.0,0.0,0.12355853841062675,0.0,-0.27807821169168273,-0.27471139439190373,-0.4700211064274715,0.22833607215501578,1.038338983076079,-0.087368058305806
12398,5.0,300.28941000000003,3489.68,0.0,0.0,0.0,0.0,0.12356850522021054,0.0,-0.29930035000114474,-0.2906358862760287,-0.47083933628072455,0.2008259874349818,1.063237172483339,-0.1202811968458299
12399,5.0,300.48421,3780.6694,0.0,0.0,0.0,0.0,0.12357847202979437,0.0,-0.3935341291762946,-0.27280247173350775,-0.48289249337527856,0.2064281256478698,1.0590124261913891,-0.06850962172362324
12400,5.0,300.61067,3787.0759,0.0,0.0,0.0,0.0,0.1235884388393782,0.0,-0.3212967025795157,-0.3261926156052047,-0.5036871819975546,0.23992360029861579,1.052972138370259,-0.11453437665116288
12401,5.0,300.38329,3593.7884,0.0,0.0,0.0,0.0,0.12359840564896202,0.0,-0.33294614030422565,-0.27218881707544473,-0.4872869793239806,0.23794609074095077,1.013455283145249,-0.08592956639058792
12402,5.0,300.32765,3305.4398,0.0,0.0,0.0,0.0,0.12360837245854585,0.0,-0.25145562260173776,-0.28440952520653473,-0.4689059942949185,0.24886096267316477,1.013481019697789,-0.12084676265414689
12403,5.0,300.07249,3300.9016,0.0,0.0,0.0,0.0,0.12361833926812964,0.0,-0.2922517871380057,-0.27215879447498176,-0.43898107114155854,0.25770763916376377,1.0206420634545292,-0.11820434824836089
12404,5.0,299.42561,3598.2544,0.0,0.0,0.0,0.0,0.12362830607771347,0.0,-0.3379177329798837,-0.28753728641022075,-0.46832447993002757,0.24499484612160874,1.053819620753899,-0.1063558575415059
12405,5.0,299.4365,3480.9342,0.0,0.0,0.0,0.0,0.1236382728872973,0.0,-0.36224051792035566,-0.26617503587693075,-0.4297015139432376,0.27240177184896175,1.042215070008619,-0.07626467929848783
12406,5.0,299.44055,3169.9058,0.0,0.0,0.0,0.0,0.12364823969688113,0.0,-0.2677682602016697,-0.2602686794540187,-0.4355352709964846,0.1999139711524728,1.020380036978669,-0.1120524002662109
12407,5.0,299.9875,3382.6589,0.0,0.0,0.0,0.0,0.12365820650646496,0.0,-0.2950566660648257,-0.26209120227638777,-0.47109596213355154,0.2345180832676328,1.031454049971589,-0.06829484917942684
12408,5.0,299.50554,3800.1586,0.0,0.0,0.0,0.0,0.12366817331604875,0.0,-0.3306266993678147,-0.3021499436548777,-0.5223766915495656,0.17500033981368882,1.0418727941248391,-0.10383571202528691
12409,5.0,300.43093999999996,3853.1457,0.0,0.0,0.0,0.0,0.12367814012563258,0.0,-0.3545652598703667,-0.30915298119102375,-0.5075418589554815,0.22659126561531678,1.052428631016619,-0.09774138656307381
12410,5.0,300.05574,3490.4861,0.0,0.0,0.0,0.0,0.12368810693521641,0.0,-0.34737852009109066,-0.28437393986302273,-0.4292681570079686,0.19747166350893583,1.059493213363839,-0.1289205724984699
12411,5.0,300.41067000000004,3305.42,0.0,0.0,0.0,0.0,0.12369807374480023,0.0,-0.32254661750537267,-0.2714895529164328,-0.4107289833732946,0.25382276735285675,1.061782854614809,-0.1032301025730179
12412,5.0,300.21144,3238.3125,0.0,0.0,0.0,0.0,0.12370804055438406,0.0,-0.2670101363443488,-0.28146434153836775,-0.4358916513216565,0.22646612922796677,1.054408015086969,-0.13320083476339886
12413,5.0,300.33849,3453.4645,0.0,0.0,0.0,0.0,0.12371800736396785,0.0,-0.2958654321621447,-0.3019342024435857,-0.4519673606507056,0.25427836512782076,1.0265149623591392,-0.1001943363724111
12414,5.0,299.71667,3644.0401,0.0,0.0,0.0,0.0,0.12372797417355168,0.0,-0.29046720039938073,-0.3202521835814297,-0.49697782487039255,0.23108289185110578,1.030423067994839,-0.11050701147869291
12415,5.0,300.42744,3350.9754,0.0,0.0,0.0,0.0,0.12373794098313551,0.0,-0.2992990226435137,-0.27781250711795974,-0.4415013281152886,0.24828987465180277,1.0138475122589592,-0.0970618351847573
12416,5.0,300.36536,3451.6859999999997,0.0,0.0,0.0,0.0,0.12374790779271934,0.0,-0.3137312301778617,-0.33328785890045065,-0.4022072764547676,0.22540174039541977,1.064014740610079,-0.11922867317195389
12417,5.0,300.29295,3891.272,0.0,0.0,0.0,0.0,0.12375787460230317,0.0,-0.3911433453003426,-0.28192781226660873,-0.5097783653712075,0.22100231991873076,1.036075483677689,-0.08301769433270852
12418,5.0,300.38342,3832.5098,0.0,0.0,0.0,0.0,0.12376784141188696,0.0,-0.34462220624156364,-0.3181503482364947,-0.5022147472172365,0.2257462758269228,1.0273026629868791,-0.11986229898948787
12419,5.0,300.46058999999997,3396.7721,0.0,0.0,0.0,0.0,0.12377780822147079,0.0,-0.2879170221501977,-0.27438319255201277,-0.47023366603344957,0.24231513397964174,1.0287664040813391,-0.08655937428174511
12420,5.0,299.47466000000003,3315.2126,0.0,0.0,0.0,0.0,0.12378777503105462,0.0,-0.2753058074305677,-0.26493603365465074,-0.4674999983236575,0.2552655341702468,1.053570259904289,-0.12659313701876987
12421,5.0,298.97705,3555.6859,0.0,0.0,0.0,0.0,0.12379774184063844,0.0,-0.34245019319470266,-0.2871240424894367,-0.45126550257143755,0.24606600346482374,1.0673371876879791,-0.09658840420803332
12422,5.0,300.02806,3535.7512,0.0,0.0,0.0,0.0,0.12380770865022227,0.0,-0.35623818644797167,-0.2692938602147347,-0.4492480304298286,0.20794688622275978,1.058447032635589,-0.12766101143166086
12423,5.0,300.64918,3512.9519,0.0,0.0,0.0,0.0,0.12381767545980606,0.0,-0.3163934130930987,-0.2909544926374727,-0.46050174332798355,0.23939818959176176,1.0529129645644189,-0.08691677596301792
12424,5.0,299.92342,3404.2787,0.0,0.0,0.0,0.0,0.12382764226938989,0.0,-0.28106349979880774,-0.2975466572580687,-0.45620556290398356,0.2181728899419878,1.0605690823200191,-0.12338019187917688
12425,5.0,301.00964,3479.7536,0.0,0.0,0.0,0.0,0.12383760907897372,0.0,-0.2798291686594887,-0.28061964559250274,-0.4973093805681145,0.2260162765810698,1.027192218725979,-0.07339272422829793
12426,5.0,300.81829,3805.893,0.0,0.0,0.0,0.0,0.12384757588855755,0.0,-0.3191912094017197,-0.3241398316976107,-0.5135653977524585,0.2045388397764118,1.014144901163309,-0.12132375013872189
12427,5.0,300.82878,4085.5040000000004,0.0,0.0,0.0,0.0,0.12385754269814138,0.0,-0.4082439368405396,-0.3351190956736797,-0.49852817858340054,0.2121733347748778,1.022909311878289,-0.07015180730644434
12428,5.0,300.46886,3468.8398,0.0,0.0,0.0,0.0,0.12386750950772517,0.0,-0.3289827720080717,-0.2899428333401297,-0.4355150667894906,0.24906293381559777,1.039187782684849,-0.12753014004874486
12429,5.0,300.71347000000003,3050.7408,0.0,0.0,0.0,0.0,0.123877476317309,0.0,-0.2706071843318497,-0.26899562018030077,-0.3877462115575716,0.2142523111975568,1.051644071464189,-0.11057930687332788
12430,5.0,299.94514,3356.6775,0.0,0.0,0.0,0.0,0.12388744312689283,0.0,-0.27968439548520074,-0.24615338615344776,-0.4945083519916745,0.22647678861901877,1.067894272592959,-0.1141164312499149
12431,5.0,301.08721,3740.7815,0.0,0.0,0.0,0.0,0.12389740993647665,0.0,-0.3099194947591727,-0.3166265112786037,-0.5105581626481674,0.19193835537534082,1.052230641947079,-0.11083831386388988
12432,5.0,300.41042999999996,3513.9064,0.0,0.0,0.0,0.0,0.12390737674606046,0.0,-0.3027914728231917,-0.2971289347718427,-0.46821940589465755,0.22012212982186277,1.076449649812309,-0.12246231901108988
12433,5.0,300.29347,3346.8829,0.0,0.0,0.0,0.0,0.12391734355564428,0.0,-0.3227529354907347,-0.2564536712375068,-0.43816222320574455,0.22519439902745678,1.041189154282369,-0.11074644247732289
12434,5.0,299.87368,3507.3639,0.0,0.0,0.0,0.0,0.1239273103652281,0.0,-0.3247678947720957,-0.3088000864461957,-0.4325830857701266,0.25737913334884277,1.012703238788528,-0.1095849842851959
12435,5.0,300.25993,3620.3314,0.0,0.0,0.0,0.0,0.12393727717481193,0.0,-0.3207506924981287,-0.28032842738126174,-0.49941121591304954,0.2241891029407418,1.019836428300019,-0.1066124428643289
12436,5.0,299.90103999999997,3822.8869,0.0,0.0,0.0,0.0,0.12394724398439576,0.0,-0.32190934398747867,-0.3053374359519587,-0.5348153903071694,0.24421956794009478,1.041099684298539,-0.05532101048750865
12437,5.0,299.41572,3533.0701,0.0,0.0,0.0,0.0,0.12395721079397956,0.0,-0.2939480184679107,-0.2723863299174378,-0.5076307513867545,0.24033300400152074,1.055423393012179,-0.1004655813976809
12438,5.0,299.71446000000003,3136.8903,0.0,0.0,0.0,0.0,0.12396717760356338,0.0,-0.2938260839508767,-0.2183942344263328,-0.44131601480449956,0.24366827882568676,1.0661721527229988,-0.06565927927806635
12439,5.0,300.12102000000004,3510.9768,0.0,0.0,0.0,0.0,0.12397714441314721,0.0,-0.37255286068060467,-0.28395457591163475,-0.4107418313845626,0.2394706876364168,1.058880805003399,-0.12007347044282887
12440,5.0,299.9847,4028.5086,0.0,0.0,0.0,0.0,0.12398711122273104,0.0,-0.42017175489772357,-0.2848843544683967,-0.5195099233066375,0.2110990667538558,1.037844922327319,-0.07763262570199363
12441,5.0,300.24462,3652.1853,0.0,0.0,0.0,0.0,0.12399707803231484,0.0,-0.3380503775504747,-0.29961177241937975,-0.4725109760307026,0.21082868096467078,1.029557043134369,-0.1255056764814459
12442,5.0,300.52562,3347.5763,0.0,0.0,0.0,0.0,0.12400704484189867,0.0,-0.24633825363419276,-0.2861294969862827,-0.4851118454668115,0.21835766623022376,1.0442340721578791,-0.09462001288801822
12443,5.0,300.01088,3456.0184,0.0,0.0,0.0,0.0,0.12401701165148249,0.0,-0.2995848098342187,-0.2686688571555517,-0.48228963996328156,0.23897649516514377,1.060414865654799,-0.13517971220869887
12444,5.0,299.90547000000004,3561.3469,0.0,0.0,0.0,0.0,0.1240269784610663,0.0,-0.34120697585200666,-0.28792440874342673,-0.4534291563049736,0.2299050899348658,1.0602734159408391,-0.0933496292968911
12445,5.0,300.6302,3444.6539,0.0,0.0,0.0,0.0,0.12403694527065014,0.0,-0.35001624314891366,-0.2938149381997767,-0.4032575912434256,0.2185003419768048,1.0524225515160188,-0.12477374513920989
12446,5.0,299.2219,3412.6863,0.0,0.0,0.0,0.0,0.12404691208023395,0.0,-0.30869797110111774,-0.27034356705333273,-0.4583298924011386,0.24048096891362378,1.030483964325849,-0.07719822106612122
12447,5.0,300.0798,3292.2683,0.0,0.0,0.0,0.0,0.12405687888981777,0.0,-0.27341367432632874,-0.29228536624631973,-0.4350683248204006,0.24169914884634877,1.026970418279089,-0.1277961587299989
12448,5.0,300.22165,3439.8887,0.0,0.0,0.0,0.0,0.12406684569940159,0.0,-0.26439879831912977,-0.2740379579779407,-0.5072035144820894,0.24381048847722178,1.008966534539744,-0.08335705914895122
12449,5.0,300.48179,4008.1394,0.0,0.0,0.0,0.0,0.12407681250898542,0.0,-0.36188282037005365,-0.33985929242400065,-0.5166322018301285,0.22562163593212178,1.042414984253349,-0.14139018551662486
12450,5.0,300.16812000000004,3948.3611,0.0,0.0,0.0,0.0,0.12408677931856925,0.0,-0.3996717801995336,-0.3140809737148787,-0.4864504400414205,0.23892735253529376,1.0614929637611992,-0.11083665213372589
12451,5.0,300.68246,3321.8502,0.0,0.0,0.0,0.0,0.12409674612815305,0.0,-0.3290829824429617,-0.26510889412171074,-0.41556763763583265,0.2229076455392718,1.080460093708109,-0.12875286947441889
12452,5.0,301.10609,3322.778,0.0,0.0,0.0,0.0,0.12410671293773688,0.0,-0.3056706229823417,-0.26746825711206174,-0.43690266213893564,0.22739598884473677,1.063191677553849,-0.1019616755678339
12453,5.0,301.29641000000004,3657.2993,0.0,0.0,0.0,0.0,0.1241166797473207,0.0,-0.3268142952040597,-0.28187710923160475,-0.5030362498683125,0.2102739974624278,1.059322987347039,-0.07944561890717212
12454,5.0,299.88285,3588.6978,0.0,0.0,0.0,0.0,0.1241266465569045,0.0,-0.28045168925592673,-0.2821061645492107,-0.5283166777432965,0.24267956964310877,1.040851336699029,-0.07546448631026494
12455,5.0,299.31383,3531.1495,0.0,0.0,0.0,0.0,0.12413661336648833,0.0,-0.3015311518188077,-0.29418297090109874,-0.4776671423445765,0.23198959870309077,1.045400120372959,-0.08525946052970361
12456,5.0,298.84844,3510.4333,0.0,0.0,0.0,0.0,0.12414658017607216,0.0,-0.36398005555953467,-0.25183255163893775,-0.4512714503495246,0.25331179545992777,1.0236143312978692,-0.09549862434123041
12457,5.0,298.98762,3662.9991,0.0,0.0,0.0,0.0,0.12415654698565598,0.0,-0.34368252823132467,-0.32463933359940766,-0.44513838934923855,0.2186898501430078,1.040893893203229,-0.11165548993703889
12458,5.0,299.35447999999997,3846.7307,0.0,0.0,0.0,0.0,0.1241665137952398,0.0,-0.35144851269526767,-0.32612325863585967,-0.49173830860329254,0.23347470924215977,1.0556883579133292,-0.12691609022314287
12459,5.0,299.31857,3861.7347,0.0,0.0,0.0,0.0,0.12417648060482361,0.0,-0.3067608192949357,-0.3446694642262277,-0.5224406276308755,0.2192261127584328,1.049792154256419,-0.1123557166836459
12460,5.0,298.99208,3383.6423,0.0,0.0,0.0,0.0,0.12418644741440743,0.0,-0.26041932947888674,-0.3046162551932837,-0.46350718497959753,0.2291023020131368,1.037983129640959,-0.11069683375242689
12461,5.0,300.15437000000003,3112.2342,0.0,0.0,0.0,0.0,0.12419641422399126,0.0,-0.27231130888003374,-0.25290394202967575,-0.4208262435348166,0.2193581493789638,1.054964390716879,-0.11674043490138389
12462,5.0,299.95883,3326.429,0.0,0.0,0.0,0.0,0.12420638103357509,0.0,-0.33117720827964564,-0.28677215086220775,-0.3932019959260156,0.22677718687616577,1.050246394276249,-0.12283821453318788
12463,5.0,300.62181,3534.1339,0.0,0.0,0.0,0.0,0.12421634784315888,0.0,-0.33239545913987767,-0.2854093598752107,-0.45648363926142754,0.2065146065439048,1.068215371549649,-0.1168059415203489
12464,5.0,299.53632000000005,3457.3675,0.0,0.0,0.0,0.0,0.12422631465274271,0.0,-0.3250244192999127,-0.2774288703650977,-0.44850011000101453,0.2167439539884628,1.041550783243059,-0.09903211418970871
12465,5.0,298.94304,3439.5153,0.0,0.0,0.0,0.0,0.12423628146232654,0.0,-0.26837181275623573,-0.2970891039104117,-0.4800658599688115,0.2164844201078488,1.053845458631449,-0.1047683175498279
12466,5.0,299.62118,3558.9596,0.0,0.0,0.0,0.0,0.12424624827191037,0.0,-0.2858025211790127,-0.28512673402481775,-0.5109055858424555,0.25149278861540575,1.0273552506670691,-0.07597960340935302
12467,5.0,300.3272,3716.3786,0.0,0.0,0.0,0.0,0.12425621508149419,0.0,-0.3160903905181927,-0.3179344753026897,-0.49566142047297357,0.23659136522474977,1.046318327613579,-0.08805559612141073
12468,5.0,299.60075,3758.2719,0.0,0.0,0.0,0.0,0.12426618189107799,0.0,-0.3878326823211056,-0.2804627032845137,-0.4741254076800345,0.25285194203454375,1.015105766233139,-0.08758689499615352
12469,5.0,298.9348,3663.6882,0.0,0.0,0.0,0.0,0.12427614870066182,0.0,-0.36025440586934165,-0.28343320807267974,-0.46998210643112254,0.24489639874189276,1.029470106275789,-0.1040508554190199
12470,5.0,298.2045,3283.8703,0.0,0.0,0.0,0.0,0.12428611551024564,0.0,-0.3095652422592107,-0.26131478925476176,-0.42733456170963763,0.24381976984813775,1.047793619759179,-0.09237869758731761
12471,5.0,299.23402000000004,3418.9616,0.0,0.0,0.0,0.0,0.12429608231982947,0.0,-0.27688542380646375,-0.28269496418232076,-0.4796985770725636,0.2157657420769208,1.0524559887693188,-0.09976002495554791
12472,5.0,298.93462,3820.835,0.0,0.0,0.0,0.0,0.1243060491294133,0.0,-0.3207501757405777,-0.3067624911576007,-0.5339257871168724,0.22818562478016777,1.0348507682818189,-0.07928913357497823
12473,5.0,299.67881,3634.3305,0.0,0.0,0.0,0.0,0.12431601593899709,0.0,-0.36430060736117065,-0.27987314371382876,-0.4605719818249156,0.2081960950848548,1.050865996712399,-0.09776488889914331
12474,5.0,299.33677,3305.6067,0.0,0.0,0.0,0.0,0.12432598274858092,0.0,-0.28660888587359473,-0.2948232740367917,-0.4233897257578126,0.2228725465558078,1.045086924767049,-0.12091756857113488
12475,5.0,299.82682,3423.0755,0.0,0.0,0.0,0.0,0.12433594955816475,0.0,-0.3250748588898907,-0.2814532768472757,-0.4340013522000986,0.19980565471678283,1.053022496900229,-0.12257091915680789
12476,5.0,300.73966,3713.8471,0.0,0.0,0.0,0.0,0.12434591636774858,0.0,-0.2986908598009927,-0.3242921941151477,-0.5059337297217715,0.20888778013311882,1.045707135153259,-0.11871228039098988
12477,5.0,300.94345,3635.7562,0.0,0.0,0.0,0.0,0.1243558831773324,0.0,-0.29516057486258074,-0.3201054953644527,-0.48991302974065154,0.2283998866463138,1.059589168148309,-0.13300819565438687
12478,5.0,299.8007,3417.5906,0.0,0.0,0.0,0.0,0.1243658499869162,0.0,-0.27092014689023675,-0.3082812112024867,-0.45966084706999355,0.27140768230835277,1.036527595872309,-0.1163783499781489
12479,5.0,299.44119,3140.1656,0.0,0.0,0.0,0.0,0.12437581679650003,0.0,-0.3063569884675807,-0.24398891168733075,-0.4041860424425566,0.26661763365311175,1.036415429086239,-0.1107494214326169
12480,5.0,298.3431,3283.0314,0.0,0.0,0.0,0.0,0.12438578360608385,0.0,-0.2833045962374867,-0.31450757227198073,-0.4001473896639726,0.25293344787258776,1.015462328943329,-0.1140240025757929
12481,5.0,299.15247999999997,3785.5717,0.0,0.0,0.0,0.0,0.12439575041566768,0.0,-0.38124376010082967,-0.29476862945889876,-0.47470686124991957,0.2188634401501398,1.0537824344752291,-0.1123060370312429
12482,5.0,299.49735,3992.1929,0.0,0.0,0.0,0.0,0.12440571722525151,0.0,-0.36640251363361265,-0.3216587875027507,-0.5254656554069225,0.23738436515051278,1.0523231516812088,-0.1034717931193709
12483,5.0,299.61858,3484.8104,0.0,0.0,0.0,0.0,0.1244156840348353,0.0,-0.31207716018461773,-0.28161237737797773,-0.46560581845421656,0.2270556887986518,1.049289886181849,-0.1101304776090319
12484,5.0,300.18316,3344.3896,0.0,0.0,0.0,0.0,0.12442565084441913,0.0,-0.3096815937681937,-0.23928721844080977,-0.4676421167826835,0.2251947536649918,1.041861648373739,-0.07839250349523773
12485,5.0,299.57122000000004,3825.7264,0.0,0.0,0.0,0.0,0.12443561765400296,0.0,-0.38934967984082164,-0.2769519538080297,-0.4966236635629395,0.2319173539709608,1.045626379120289,-0.056111913998814746
12486,5.0,300.74725,3945.3652,0.0,0.0,0.0,0.0,0.12444558446358679,0.0,-0.3648501638179077,-0.2972898591527247,-0.5371524921928235,0.23189283331854077,1.060895855477269,-0.08646942097761742
12487,5.0,300.33387999999997,3676.0204,0.0,0.0,0.0,0.0,0.12445555127317062,0.0,-0.3388202449764547,-0.28082579132534774,-0.4977723953338105,0.24313147918770878,1.058207702961969,-0.05680201939017285
12488,5.0,299.94101,3503.0533,0.0,0.0,0.0,0.0,0.12446551808275441,0.0,-0.2928187512314607,-0.28554238948083976,-0.4864795811142965,0.2364902327322688,1.043189715279809,-0.11904696703152089
12489,5.0,300.26522,3637.1417,0.0,0.0,0.0,0.0,0.12447548489233824,0.0,-0.3218525614518747,-0.30096410666534473,-0.4827835892545305,0.2160575479732198,1.068464124449199,-0.10895776220829391
12490,5.0,300.71464,3692.7242,0.0,0.0,0.0,0.0,0.12448545170192206,0.0,-0.34761063542399867,-0.3126671757178477,-0.46221812820237757,0.22587898119251978,1.063134732898229,-0.15352903317213587
12491,5.0,299.84505,3598.8273,0.0,0.0,0.0,0.0,0.12449541851150589,0.0,-0.3371614329727427,-0.28548051029723276,-0.47131169321234256,0.25407543139779276,1.049019449730159,-0.1006316895660745
12492,5.0,300.77395,3278.1819,0.0,0.0,0.0,0.0,0.12450538532108972,0.0,-0.28863793946384675,-0.2834479609941357,-0.4243995510724746,0.22461605613537877,1.039979941613029,-0.14021365016300988
12493,5.0,300.5509,3174.5064,0.0,0.0,0.0,0.0,0.12451535213067351,0.0,-0.25312331067632576,-0.29526516253790275,-0.41658221509346366,0.23132772347276875,1.035707775216399,-0.09889013049294601
12494,5.0,301.34842000000003,3569.4864,0.0,0.0,0.0,0.0,0.12452531894025734,0.0,-0.2930761066243597,-0.32626582292492967,-0.46569280597530155,0.21467511006678378,1.060809121268709,-0.13777652022748385
12495,5.0,300.74232,3831.1854,0.0,0.0,0.0,0.0,0.12453528574984117,0.0,-0.34506320308258664,-0.3108740371483787,-0.5086474668020966,0.23537138170684677,1.069230141524799,-0.09019893216394151
12496,5.0,299.69606,3414.8934,0.0,0.0,0.0,0.0,0.124545252559425,0.0,-0.30957052129223167,-0.2956743635907877,-0.4327974286962806,0.22071310794268778,1.051527649027699,-0.13828201043737187
12497,5.0,299.04431,3313.178,0.0,0.0,0.0,0.0,0.12455521936900883,0.0,-0.2991605113548437,-0.26435755904005975,-0.4436053014179345,0.2335324037028538,1.051540112003929,-0.1026633208645809
12498,5.0,299.28101000000004,3758.2605,0.0,0.0,0.0,0.0,0.12456518617859262,0.0,-0.35848786511499764,-0.3052892964397077,-0.4786401968131095,0.2310894171817498,1.062565590317059,-0.1005129863036094
12499,5.0,299.39891,3767.0188,0.0,0.0,0.0,0.0,0.12457515298817645,0.0,-0.3469675661155327,-0.31507574213305467,-0.4830363546244765,0.2049170961712428,1.0311616259927292,-0.06321671325575384
12500,5.0,299.78598,3456.6047,0.0,0.0,0.0,0.0,0.12458511979776027,0.0,-0.30233311900795573,-0.28995348259868076,-0.4584349157740036,0.23220053710890876,1.0395677514723491,-0.10597426755384591
12501,5.0,300.22402,3470.8307,0.0,0.0,0.0,0.0,0.1245950866073441,0.0,-0.33315312703465366,-0.2787923604946637,-0.4431003684956016,0.25154927730848076,1.0430815001691291,-0.07411200412978533
12502,5.0,300.86126,3371.2394,0.0,0.0,0.0,0.0,0.12460505341692793,0.0,-0.32665475897581464,-0.25613620984867574,-0.4419816289276906,0.24744171339059576,1.0745929703290689,-0.1157895098150349
12503,5.0,301.48235,3686.3551,0.0,0.0,0.0,0.0,0.12461502022651172,0.0,-0.36333758406862765,-0.28784228482282176,-0.4693800433542035,0.2291347665463408,1.042956363781779,-0.05146787873598415
12504,5.0,300.58217,4076.2609,0.0,0.0,0.0,0.0,0.12462498703609555,0.0,-0.38940569230634964,-0.31719563359477165,-0.5324802135967055,0.1982190975777018,1.048206519174929,-0.1011444376864288
12505,5.0,299.86524,3785.2177,0.0,0.0,0.0,0.0,0.12463495384567938,0.0,-0.3215475123767687,-0.3290494539971527,-0.5000146874076076,0.2188621330575108,1.045702170227769,-0.07928428010699923
12506,5.0,299.56552,3284.3126,0.0,0.0,0.0,0.0,0.12464492065526321,0.0,-0.23349553153171476,-0.3052488170982127,-0.4596046623519486,0.2202843815603758,1.044317361316099,-0.15168550567519384
12507,5.0,299.72494,3465.0935,0.0,0.0,0.0,0.0,0.12465488746484704,0.0,-0.3092017995808417,-0.28256409279940475,-0.4615360183675586,0.21430664166791882,1.0239449548054989,-0.0991379603216549
12508,5.0,299.4554,3546.9398,0.0,0.0,0.0,0.0,0.12466485427443083,0.0,-0.28630619767122173,-0.3234837015953557,-0.4683912328466156,0.20950024928856478,1.021280714992559,-0.15930110355929483
12509,5.0,299.75777999999997,3283.1548,0.0,0.0,0.0,0.0,0.12467482108401466,0.0,-0.30042902955253675,-0.26874499276806574,-0.42882306663654157,0.23881358481406575,1.053560735353349,-0.12069397467156788
12510,5.0,299.85753,3324.8527,0.0,0.0,0.0,0.0,0.12468478789359848,0.0,-0.25216899120214176,-0.3216690314612617,-0.4368341765646766,0.23064401270279178,1.072054677503559,-0.14538636285101686
12511,5.0,301.47767999999996,3424.9072,0.0,0.0,0.0,0.0,0.12469475470318231,0.0,-0.3063884397506847,-0.2689888516696327,-0.46570896731439654,0.2523615188536428,1.0326541433900291,-0.08310664046623682
12512,5.0,300.68557999999996,3599.3959999999997,0.0,0.0,0.0,0.0,0.12470472151276614,0.0,-0.2868645795363297,-0.3225836619290287,-0.48467827574902156,0.22973675869575277,1.037644906757579,-0.1066599946915219
12513,5.0,300.62177,3897.7121,0.0,0.0,0.0,0.0,0.12471468832234993,0.0,-0.36845894524156664,-0.3015833544639597,-0.5147648528233355,0.24117139753176375,1.0355972296304892,-0.08761678790060373
12514,5.0,299.71483,3966.8177,0.0,0.0,0.0,0.0,0.12472465513193376,0.0,-0.36452261045808065,-0.30780094078758774,-0.5334899781163615,0.23196769223592878,1.063472043856519,-0.0931169191861744
12515,5.0,300.14182999999997,3589.8125,0.0,0.0,0.0,0.0,0.12473462194151759,0.0,-0.37266425739659864,-0.26204516019184376,-0.4565039549259326,0.2066814483053708,1.033400098113649,-0.08440112725074272
12516,5.0,299.79863,3505.0972,0.0,0.0,0.0,0.0,0.12474458875110142,0.0,-0.34374087117208263,-0.24436208156665978,-0.4773590636516715,0.2078899922296448,1.069085550735529,-0.08137032090937542
12517,5.0,299.81048,3757.7494,0.0,0.0,0.0,0.0,0.12475455556068525,0.0,-0.37222628004087366,-0.26866463190263473,-0.5013710746539725,0.23788867999028476,1.065620134068519,-0.07369198460558263
12518,5.0,299.26072999999997,3613.8356,0.0,0.0,0.0,0.0,0.12476452237026904,0.0,-0.3219126066528007,-0.2712441437422128,-0.5053590345300535,0.24612394110554178,1.0640951926680189,-0.09153685292723401
12519,5.0,300.75316000000004,3467.2386,0.0,0.0,0.0,0.0,0.12477448917985287,0.0,-0.2985201474241447,-0.2650558403464747,-0.4903779696815375,0.2526508017571928,1.020285399419329,-0.07603631907045043
12520,5.0,300.53037,3767.2371,0.0,0.0,0.0,0.0,0.12478445598943669,0.0,-0.3278892218376467,-0.32172393948418065,-0.4955328593002855,0.24126011771051978,1.051909745640409,-0.1070771294926899
12521,5.0,300.66184,3961.6886,0.0,0.0,0.0,0.0,0.12479442279902052,0.0,-0.3757687543779886,-0.3238998434114257,-0.5045858031137416,0.2455525592416508,1.0381468708571189,-0.0962590097727746
12522,5.0,300.60875,3896.1237,0.0,0.0,0.0,0.0,0.12480438960860435,0.0,-0.37006406512247964,-0.3318415457077107,-0.4824186976285185,0.2157558020934398,1.057609682752949,-0.13413284247038088
12523,5.0,300.00577999999996,3742.3990000000003,0.0,0.0,0.0,0.0,0.12481435641818814,0.0,-0.3166889680147677,-0.3296241491888707,-0.49128273109333054,0.21300220375418077,1.0115285272850931,-0.10259622344295889
12524,5.0,300.0413,3432.4209,0.0,0.0,0.0,0.0,0.12482432322777197,0.0,-0.28523139262764674,-0.28088617089880674,-0.4772526622586706,0.2298178389687548,1.051171086317509,-0.12587211838011086
12525,5.0,300.12252,3258.3694,0.0,0.0,0.0,0.0,0.1248342900373558,0.0,-0.25398632618399875,-0.2719720828790547,-0.46450453718552853,0.23437758600876676,1.0629160735266492,-0.1163033897357509
12526,5.0,299.82219,3450.296,0.0,0.0,0.0,0.0,0.12484425684693963,0.0,-0.2942255983328057,-0.28858224110584973,-0.4659959805377225,0.23903501035841876,1.084368908618879,-0.16309097304082584
12527,5.0,300.11355,3446.6326,0.0,0.0,0.0,0.0,0.12485422365652346,0.0,-0.32799523819560966,-0.27513132576334776,-0.4445636840250196,0.22073295751214678,1.052485980972279,-0.11676417535122688
12528,5.0,299.52582,3388.6251,0.0,0.0,0.0,0.0,0.12486419046610725,0.0,-0.2986256875545607,-0.2991150366903557,-0.4323166921863356,0.22600379333983778,1.0887330781245887,-0.15565619976957085
12529,5.0,299.13173,3675.7540000000004,0.0,0.0,0.0,0.0,0.12487415727569108,0.0,-0.33223154567120067,-0.3070928106902007,-0.4780130659287165,0.24570291542398975,1.073688948589849,-0.12409058152428687
12530,5.0,300.0585,3811.9372,0.0,0.0,0.0,0.0,0.12488412408527491,0.0,-0.3425880458708077,-0.3220766721089927,-0.49406901688081556,0.21876579323800277,1.056128615081779,-0.11981529431734887
12531,5.0,300.37225,3634.8107,0.0,0.0,0.0,0.0,0.12489409089485873,0.0,-0.30734165478225967,-0.3112184205923667,-0.4863316162021935,0.2100586615511758,0.994108123615833,-0.07091264464753314
12532,5.0,300.41266,3550.2979,0.0,0.0,0.0,0.0,0.12490405770444256,0.0,-0.3304010891005487,-0.26747891650311373,-0.4813218949252725,0.22777318132696278,1.040183402233109,-0.07581350739996064
12533,5.0,300.94876,3754.667,0.0,0.0,0.0,0.0,0.12491402451402635,0.0,-0.36597275373619864,-0.2952511999515247,-0.4801010602772856,0.24815422072841475,1.0748182158262989,-0.07492975167599072
12534,5.0,300.64923,3440.6511,0.0,0.0,0.0,0.0,0.12492399132361018,0.0,-0.35230405041720264,-0.24424006598961778,-0.4493279049352116,0.25486847185355976,1.076429384810309,-0.08331862758590831
12535,5.0,300.01069,3485.0538,0.0,0.0,0.0,0.0,0.12493395813319401,0.0,-0.32444914655563767,-0.27621970835826276,-0.45870046836021156,0.21939955077804976,1.042596153371229,-0.1029911478019349
12536,5.0,299.4195,3699.3891,0.0,0.0,0.0,0.0,0.12494392494277784,0.0,-0.3265575477612207,-0.29223085339093974,-0.5057335115020115,0.22460150586394279,1.034778726199709,-0.09744021012985
12537,5.0,300.1465,3600.6792,0.0,0.0,0.0,0.0,0.12495389175236167,0.0,-0.3076469673023917,-0.29023466963393174,-0.49663493090405153,0.2412316453827098,1.030441103846619,-0.1287770354893039
12538,5.0,299.11433999999997,3534.7674,0.0,0.0,0.0,0.0,0.12496385856194546,0.0,-0.2989146158205757,-0.30255030916689074,-0.4730161116030555,0.2123793893152138,1.052763003549619,-0.12000268479084289
12539,5.0,300.37985,3531.6184,0.0,0.0,0.0,0.0,0.12497382537152929,0.0,-0.3432352391071807,-0.28729843296414775,-0.44299014714972357,0.20485803382291382,1.016053053751629,-0.12072292322692489
12540,5.0,299.71066,3396.3214,0.0,0.0,0.0,0.0,0.12498379218111312,0.0,-0.3049844804121247,-0.2940779576607347,-0.4333344512492806,0.2047617041359068,1.064846314967149,-0.10034891476791681
12541,5.0,300.34302,3304.5398,0.0,0.0,0.0,0.0,0.12499375899069694,0.0,-0.29116759939850473,-0.28143290038776475,-0.4318970749224226,0.2192411696549188,1.084985673954749,-0.12446762201899787
12542,5.0,300.35184,3476.508,0.0,0.0,0.0,0.0,0.12500372580028074,0.0,-0.26049430998628675,-0.2861100020543587,-0.5101673014220925,0.25078415189296877,1.076301613972699,-0.10634303992774091
12543,5.0,300.57389,3602.1776,0.0,0.0,0.0,0.0,0.12501369260986456,0.0,-0.30530887243163973,-0.3078095939434417,-0.4818535675177446,0.20792867811846283,1.035928055788139,-0.09500622633588451
12544,5.0,300.35352,3692.445,0.0,0.0,0.0,0.0,0.1250236594194484,0.0,-0.30430542046010667,-0.3091143459647107,-0.5089913334885335,0.22779968794957878,1.033876933610709,-0.07215957149884523
12545,5.0,301.31186,3817.3454,0.0,0.0,0.0,0.0,0.12503362622903222,0.0,-0.3715348787026377,-0.3144838824846427,-0.4743589314305816,0.2328022556807938,1.028688890448689,-0.12135291147659989
12546,5.0,301.3645,3777.6875,0.0,0.0,0.0,0.0,0.12504359303861604,0.0,-0.36062085790050763,-0.29793865332425573,-0.4897631801833625,0.22321475151208078,1.050209309322589,-0.096545084726508
12547,5.0,300.86186000000004,3445.4613,0.0,0.0,0.0,0.0,0.12505355984819985,0.0,-0.32290602744834374,-0.25825143022743174,-0.4661767544880636,0.22036847118617478,1.028788695583539,-0.12365530954632889
12548,5.0,300.62142,3676.1069,0.0,0.0,0.0,0.0,0.12506352665778367,0.0,-0.3244862416417987,-0.28166976786364173,-0.5112886855727645,0.2092861090124308,1.0643853874966591,-0.10581868300099088
12549,5.0,299.91746,3832.5708,0.0,0.0,0.0,0.0,0.12507349346736749,0.0,-0.35693336720908064,-0.2845440848198147,-0.5235283820107285,0.24372774647405576,1.084447334176619,-0.0977814281805256
12550,5.0,300.00436,3551.4764,0.0,0.0,0.0,0.0,0.1250834602769513,0.0,-0.35502693714593064,-0.2501223374576528,-0.4744108706307076,0.25450800813048474,1.073303609576819,-0.06290420362016154
12551,5.0,300.07555,3416.592,0.0,0.0,0.0,0.0,0.12509342708653515,0.0,-0.34235447145775566,-0.27412316217884974,-0.42208103219365456,0.23707237531222178,1.0574969080168188,-0.09672396085941172
12552,5.0,299.4146,3611.6014,0.0,0.0,0.0,0.0,0.12510339389611896,0.0,-0.3396888941546837,-0.28070882173380374,-0.47743893815705457,0.2191973263230918,1.052995544447569,-0.06924559390725803
12553,5.0,300.16208,3850.3664,0.0,0.0,0.0,0.0,0.12511336070570278,0.0,-0.3309786112600457,-0.34964478566225365,-0.48979184502869155,0.2203594735252868,1.063715325205529,-0.12141360515758988
12554,5.0,300.20055,3811.6006,0.0,0.0,0.0,0.0,0.1251233275152866,0.0,-0.3060157157013997,-0.3283789864059827,-0.5242366944931335,0.18852315538328682,1.054727594168509,-0.11203580322957289
12555,5.0,299.78188,3534.6567,0.0,0.0,0.0,0.0,0.12513329432487041,0.0,-0.3142340758049887,-0.2965488288245907,-0.46366448192512155,0.22029391624381678,1.033932763691219,-0.12816057412846388
12556,5.0,299.70342,3345.3617,0.0,0.0,0.0,0.0,0.12514326113445423,0.0,-0.2947706356940967,-0.2929193872313927,-0.42921641032536156,0.23438230775423277,1.040078328197739,-0.12163567918200689
12557,5.0,299.1462,3362.1396,0.0,0.0,0.0,0.0,0.12515322794403808,0.0,-0.3064039424772147,-0.28043689580446673,-0.43516565762500653,0.25625582402298075,1.064841654016689,-0.14496343225927685
12558,5.0,299.5495,3677.192,0.0,0.0,0.0,0.0,0.12516319475362186,0.0,-0.3169693951124437,-0.32175210783696073,-0.4790530354338536,0.24937272490117177,1.046435965950189,-0.14087735937601287
12559,5.0,300.04051,3546.4649,0.0,0.0,0.0,0.0,0.1251731615632057,0.0,-0.28749157869820974,-0.2985047156251217,-0.4920404699156135,0.24795932207167973,1.048909005469259,-0.1352369101768439
12560,5.0,300.69355,3384.8964,0.0,0.0,0.0,0.0,0.12518312837278953,0.0,-0.26509001727234777,-0.2843987138279677,-0.47943523337157357,0.2572099712446478,1.0818493609202189,-0.12924312040280286
12561,5.0,299.96123,3689.0806,0.0,0.0,0.0,0.0,0.12519309518237334,0.0,-0.3401143984016777,-0.32809358425031565,-0.45318041353792454,0.22997539935930478,1.0896576688408388,-0.11772444260349789
12562,5.0,300.82077000000004,3989.4449,0.0,0.0,0.0,0.0,0.12520306199195716,0.0,-0.3942856669079656,-0.3041665545339017,-0.5142394117189785,0.22023284766028978,1.053742715071309,-0.07137142504106123
12563,5.0,299.5928,3905.9089,0.0,0.0,0.0,0.0,0.12521302880154098,0.0,-0.36458607031184365,-0.3431749811237337,-0.47953771348668756,0.19543958030088482,1.044108023845439,-0.08695358125965033
12564,5.0,300.96192,3795.5690000000004,0.0,0.0,0.0,0.0,0.1252229956111248,0.0,-0.3401620515538807,-0.3224677765150917,-0.4911283624405955,0.22779837072444878,1.052419714415739,-0.08327606702870792
12565,5.0,299.42342,3682.1890000000003,0.0,0.0,0.0,0.0,0.1252329624207086,0.0,-0.3080813070902577,-0.28473437318859474,-0.5264778314618165,0.2547890837082248,1.055110501381299,-0.08139870001817621
12566,5.0,299.27872,3587.3387,0.0,0.0,0.0,0.0,0.12524292923029245,0.0,-0.3180447777085757,-0.2892317344199497,-0.4831848666916336,0.25426447346894976,1.0399369798087892,-0.09801478575805621
12567,5.0,299.50297,3650.1761,0.0,0.0,0.0,0.0,0.12525289603987627,0.0,-0.35724917700024866,-0.2740450608611417,-0.4782681516413915,0.23495651658590275,1.052147656763889,-0.10898178636816488
12568,5.0,299.0937,3526.9646,0.0,0.0,0.0,0.0,0.1252628628494601,0.0,-0.35560713428569163,-0.2538910300120938,-0.46261099566365055,0.26484663459832775,1.0571122782788591,-0.0968810622476664
12569,5.0,299.00984,3480.7438,0.0,0.0,0.0,0.0,0.1252728296590439,0.0,-0.3409884786004427,-0.3019866887987657,-0.4150840336281046,0.23306146532137578,1.0806650742033388,-0.13774646722951786
12570,5.0,299.46887999999996,3513.7925,0.0,0.0,0.0,0.0,0.12528279646862772,0.0,-0.32073866521944167,-0.27301226516671273,-0.4743542400826186,0.24369616346843875,1.034590160356099,-0.10887926572304689
12571,5.0,299.08905,3770.4688,0.0,0.0,0.0,0.0,0.12529276327821157,0.0,-0.3187576802139337,-0.3345837348508437,-0.49278694139678453,0.2179614449111198,1.027238321605529,-0.12937676809099288
12572,5.0,300.00747,3859.6392,0.0,0.0,0.0,0.0,0.12530273008779538,0.0,-0.3232236002946857,-0.3293981133565627,-0.5206122178254254,0.24454685785489574,1.045434874851389,-0.0929283584088149
12573,5.0,300.67725,3551.1976,0.0,0.0,0.0,0.0,0.12531269689737917,0.0,-0.31279672987563373,-0.3058655723015817,-0.4608131049512125,0.2348091697563608,1.062494054859999,-0.12956401670947287
12574,5.0,299.91456,3420.3824,0.0,0.0,0.0,0.0,0.12532266370696302,0.0,-0.2913148145055337,-0.31805654154223667,-0.43033949673620164,0.24663644300612178,1.044839387767619,-0.1139930072552339
12575,5.0,300.87402000000003,3452.9973,0.0,0.0,0.0,0.0,0.12533263051654683,0.0,-0.3297724586060077,-0.25107053690123277,-0.4687819522176766,0.20660671097799482,1.0463657477182589,-0.1203083519485099
12576,5.0,299.9994,3426.2523,0.0,0.0,0.0,0.0,0.12534259732613065,0.0,-0.27419674440111175,-0.2963360767010937,-0.4709623245778625,0.2233959104974598,1.059193190009229,-0.1124176971922629
12577,5.0,299.42426,3391.4799,0.0,0.0,0.0,0.0,0.1253525641357145,0.0,-0.28893864169602373,-0.2782733940584457,-0.4637131584599255,0.19505604487303282,1.060136221877299,-0.12601029529624788
12578,5.0,300.42604,3565.813,0.0,0.0,0.0,0.0,0.12536253094529828,0.0,-0.3165723327957567,-0.2722791179243567,-0.49506665279677453,0.21929339256507283,1.053374196009939,-0.0912461271555416
12579,5.0,299.0816,3477.828,0.0,0.0,0.0,0.0,0.1253724977548821,0.0,-0.3348724402018367,-0.3056793774632057,-0.41662105296979657,0.2081467295399828,1.0516084050606689,-0.13894174770998285
12580,5.0,299.38711,3684.5158,0.0,0.0,0.0,0.0,0.12538246456446595,0.0,-0.3636261070346027,-0.2781010300839348,-0.4782736535894346,0.2642706019164778,1.071155215389789,-0.08454571500026242
12581,5.0,298.83634,4010.99,0.0,0.0,0.0,0.0,0.12539243137404976,0.0,-0.4024630005150056,-0.3294390182630997,-0.4873387766690926,0.26783478007073475,1.100466615607599,-0.10142633500999991
12582,5.0,299.9552,3878.0703,0.0,0.0,0.0,0.0,0.12540239818363358,0.0,-0.34633168075027565,-0.3050379496199017,-0.5274668952819295,0.2467419426065338,1.042272115989249,-0.07545328179065913
12583,5.0,300.8226,3599.4868,0.0,0.0,0.0,0.0,0.1254123649932174,0.0,-0.31410306256705867,-0.2728602675192118,-0.5071907677958315,0.2358615110452188,1.018004168144189,-0.07776748321080303
12584,5.0,300.85667,3614.0004,0.0,0.0,0.0,0.0,0.1254223318028012,0.0,-0.32653058517605965,-0.26765630619812075,-0.5043789987683315,0.21417335874976481,1.023656381177019,-0.06532242630882153
12585,5.0,299.77317999999997,3564.6911,0.0,0.0,0.0,0.0,0.12543229861238503,0.0,-0.34581386941917164,-0.2858943013730707,-0.4518689234034906,0.21871155396014977,1.059001483090309,-0.10898140133312689
12586,5.0,300.3426,3445.5806,0.0,0.0,0.0,0.0,0.12544226542196887,0.0,-0.3345922157541807,-0.2744718114057587,-0.4383064390924776,0.20632347717754182,1.0522579996997792,-0.1059566370021059
12587,5.0,299.96226,3476.4666,0.0,0.0,0.0,0.0,0.1254522322315527,0.0,-0.3148277187735767,-0.2966349145530867,-0.4452964057023336,0.2252978012001618,1.098150629854029,-0.14379259137122385
12588,5.0,299.64146,3443.7756,0.0,0.0,0.0,0.0,0.12546219904113648,0.0,-0.27104895124294875,-0.2904171154469377,-0.48535574489838257,0.23621862091046278,1.074594895504259,-0.1086282634082749
12589,5.0,300.47258,3557.4972,0.0,0.0,0.0,0.0,0.12547216585072032,0.0,-0.2925698058143917,-0.3096585524609197,-0.4791619496871025,0.24512456239941077,1.0872317454514189,-0.1298072169984749
12590,5.0,299.23367,3773.3175,0.0,0.0,0.0,0.0,0.12548213266030414,0.0,-0.3317527343364457,-0.3288898873714047,-0.48635166842167254,0.23807013281819278,1.0357891391994292,-0.08772204432099172
12591,5.0,299.08111,3708.6196,0.0,0.0,0.0,0.0,0.12549209946988799,0.0,-0.35709441317997465,-0.2956927946101067,-0.4745405463785055,0.24024478031531377,1.043977821207589,-0.10161758596637491
12592,5.0,299.60738,3691.3305,0.0,0.0,0.0,0.0,0.1255020662794718,0.0,-0.34844446932879164,-0.3330628363182427,-0.4405649836978786,0.2535940666727858,1.071260492075179,-0.11469221061923988
12593,5.0,299.69718,3679.403,0.0,0.0,0.0,0.0,0.1255120330890556,0.0,-0.34563314613133567,-0.2843587816415267,-0.48845471966672754,0.2246132190350988,1.073365215182899,-0.0980336940181723
12594,5.0,300.11987,3733.3794,0.0,0.0,0.0,0.0,0.12552199989863944,0.0,-0.33789688029282566,-0.3069246821011077,-0.49003254258994655,0.2247535440414478,1.037926894260409,-0.12307206252376689
12595,5.0,299.75766,3644.5855,0.0,0.0,0.0,0.0,0.12553196670822325,0.0,-0.3165420467502677,-0.30202331778988073,-0.48929762215991557,0.1917993779916248,1.060148178228479,-0.093012935407912
12596,5.0,299.46202,3483.3663,0.0,0.0,0.0,0.0,0.12554193351780707,0.0,-0.3108165858677087,-0.2638212254971277,-0.4842185439136495,0.24388043313162475,1.054417539637909,-0.09796966066485271
12597,5.0,299.63671,3744.5125,0.0,0.0,0.0,0.0,0.12555190032739091,0.0,-0.35929868811001964,-0.33149116382313065,-0.4474484577222246,0.25507757627669675,1.078807280144989,-0.09087641144580351
12598,5.0,301.01685,3744.1567,0.0,0.0,0.0,0.0,0.1255618671369747,0.0,-0.37057093335250363,-0.2887331343107417,-0.47882606741145356,0.2411776087548768,1.0595588719703188,-0.1168866164933109
12599,5.0,300.45112,3765.0352,0.0,0.0,0.0,0.0,0.12557183394655852,0.0,-0.3244994544231027,-0.3187002188007627,-0.5012770146471895,0.23143379049323676,1.0651459330217188,-0.1091932111340309
12600,5.0,300.94898,3761.0351,0.0,0.0,0.0,0.0,0.12558180075614236,0.0,-0.3205244033532957,-0.2976339082241797,-0.5251024457760765,0.2206276301642518,1.071741785872679,-0.10617729247638291
12601,5.0,300.34684,3620.2929,0.0,0.0,0.0,0.0,0.12559176756572618,0.0,-0.3111579396938977,-0.27911436124394273,-0.5102063318159445,0.2191441509578438,1.053961779742929,-0.09772718991592272
12602,5.0,301.00412,3479.2285,0.0,0.0,0.0,0.0,0.12560173437531,0.0,-0.3151707343299297,-0.2959748631729447,-0.4464529901614796,0.22042760446201082,1.011123146185085,-0.09126703151835472
12603,5.0,300.26576,3691.6986,0.0,0.0,0.0,0.0,0.12561170118489381,0.0,-0.36505139528776764,-0.27994632063605074,-0.4771864666296376,0.22670611751415176,1.037949996362689,-0.08929327503906011
12604,5.0,299.14358,3759.2327,0.0,0.0,0.0,0.0,0.12562166799447763,0.0,-0.36806019079721264,-0.3129109332944047,-0.46174176893286456,0.2568620515578108,1.050036752830559,-0.09557814927532891
12605,5.0,299.5042,3505.6543,0.0,0.0,0.0,0.0,0.12563163480406145,0.0,-0.32318010146789267,-0.28526364437832974,-0.4571876251659056,0.24050480055597578,1.0577025977871188,-0.12387041241005788
12606,5.0,299.28565,3679.0943,0.0,0.0,0.0,0.0,0.1256416016136453,0.0,-0.3292433191387857,-0.30119333423546774,-0.48791615697357554,0.2503129196689618,1.042207875932909,-0.11638924241672388
12607,5.0,299.52074,3735.5048,0.0,0.0,0.0,0.0,0.1256515684232291,0.0,-0.3290541554776167,-0.3054621974367717,-0.5009838205982535,0.2074925752754228,1.043287088614419,-0.12407595019284288
12608,5.0,299.99012,3488.0303,0.0,0.0,0.0,0.0,0.1256615352328129,0.0,-0.2990114014701277,-0.28655351175562976,-0.4747091917251496,0.2186232694789368,1.060534834466639,-0.1082408067025359
12609,5.0,300.48211000000003,3606.9861,0.0,0.0,0.0,0.0,0.12567150204239674,0.0,-0.3130930751323807,-0.2916130444074667,-0.4917275884172345,0.2155740655555038,1.0641301497964688,-0.08744299524345173
12610,5.0,299.9284,3562.7813,0.0,0.0,0.0,0.0,0.12568146885198056,0.0,-0.3081920350611857,-0.3100261190671957,-0.46477840855505753,0.22642360312126977,1.045397384597689,-0.1154660094556079
12611,5.0,300.9102,3389.685,0.0,0.0,0.0,0.0,0.1256914356615644,0.0,-0.2896022495840167,-0.27132156618235376,-0.46945578379917857,0.23469140982973877,1.055395224659399,-0.10966836463592489
12612,5.0,300.57036,3544.6217,0.0,0.0,0.0,0.0,0.12570140247114822,0.0,-0.3105279818417257,-0.29911071011242873,-0.4678377855094945,0.23410204277657276,1.083893086371919,-0.12889250547069986
12613,5.0,300.85483999999997,3775.1231,0.0,0.0,0.0,0.0,0.125711369280732,0.0,-0.3405645854211077,-0.32020131842640964,-0.48677727399367654,0.25478922556323874,1.071774513850909,-0.1059931140057059
12614,5.0,300.99574,3607.7633,0.0,0.0,0.0,0.0,0.12572133609031585,0.0,-0.3399875698866607,-0.2962154695416907,-0.4604669280545476,0.23349110362877779,1.0413209781203792,-0.1049148132492859
12615,5.0,301.05231000000003,3443.7987,0.0,0.0,0.0,0.0,0.12573130289989967,0.0,-0.3357213512681177,-0.2916966274082157,-0.4194108446026276,0.24592179771059178,1.044117649721389,-0.08837926569360442
12616,5.0,299.57201000000003,3653.1545,0.0,0.0,0.0,0.0,0.1257412697094835,0.0,-0.3440022896978827,-0.2885019106379217,-0.47796356866133155,0.23342864689261375,1.0523638843352292,-0.11151986641115388
12617,5.0,299.95082,3838.9263,0.0,0.0,0.0,0.0,0.12575123651906733,0.0,-0.34922147003547566,-0.30229042064874173,-0.5154258363935695,0.22614714796398577,1.043723394107479,-0.1096298003371189
12618,5.0,300.17196,3758.5123,0.0,0.0,0.0,0.0,0.12576120332865112,0.0,-0.3400231450976717,-0.3196192569064647,-0.48285149727623256,0.21098984852557678,1.052244827448479,-0.1255961191853719
12619,5.0,299.45156000000003,3679.7388,0.0,0.0,0.0,0.0,0.12577117013823494,0.0,-0.3272625063857947,-0.27366486915861976,-0.5176213365777486,0.2333034193127548,1.0581138760027091,-0.10166025392808589
12620,5.0,299.53111,3656.5183,0.0,0.0,0.0,0.0,0.12578113694781878,0.0,-0.3484552604423567,-0.3036659583219967,-0.45936903104119353,0.2635527446181307,1.100734417609029,-0.09696155686211061
12621,5.0,299.92746,3664.7451,0.0,0.0,0.0,0.0,0.1257911037574026,0.0,-0.34697264249853366,-0.31126297319926366,-0.45575539614955557,0.24977426578330078,1.0635355746377888,-0.088892979441304
12622,5.0,300.19961,3934.0136,0.0,0.0,0.0,0.0,0.12580107056698644,0.0,-0.35567379600977067,-0.35437029028612466,-0.4857978056520106,0.25085930465288575,1.032215811396769,-0.098866602825624
12623,5.0,300.33653,3978.9797,0.0,0.0,0.0,0.0,0.12581103737657023,0.0,-0.35020996643553265,-0.3472977843231227,-0.5120027330507355,0.23071093787189678,1.0211674336313792,-0.0957295815292741
12624,5.0,299.5963,3525.4842,0.0,0.0,0.0,0.0,0.12582100418615405,0.0,-0.2873679925835127,-0.28464471068724573,-0.49964644192376456,0.21393806181154282,1.0637305239570292,-0.12842158735422388
12625,5.0,300.01905,3455.1907,0.0,0.0,0.0,0.0,0.12583097099573787,0.0,-0.28495443084531275,-0.2924104519711647,-0.4729268240042435,0.22325436959099076,1.0632717243117489,-0.12593447379126488
12626,5.0,300.50038,3681.2836,0.0,0.0,0.0,0.0,0.1258409378053217,0.0,-0.34259724618171566,-0.3076070857784557,-0.46881396078833554,0.18443993986530482,1.072190554341969,-0.14958880750826586
12627,5.0,299.56068999999997,3662.6355,0.0,0.0,0.0,0.0,0.12585090461490553,0.0,-0.36405321221675463,-0.2837716234735787,-0.46552490030123056,0.22642075588848878,1.067808045009449,-0.1030729981450129
12628,5.0,299.6732,3530.3592,0.0,0.0,0.0,0.0,0.12586087142448932,0.0,-0.3082930459636547,-0.3026188454036547,-0.4622291422309645,0.2403824506064008,1.0803614031483688,-0.13699598327795087
12629,5.0,299.38176,3603.9647,0.0,0.0,0.0,0.0,0.12587083823407316,0.0,-0.3214243315621117,-0.2907503430073247,-0.48334059309950256,0.27246237433744275,1.0600384432426488,-0.09158400249413731
12630,5.0,299.95985,3736.343,0.0,0.0,0.0,0.0,0.12588080504365698,0.0,-0.2991697724607577,-0.3336685268305197,-0.5029166863565125,0.2228704187305978,1.049537929806329,-0.12051671669907389
12631,5.0,300.3111,3871.9662,0.0,0.0,0.0,0.0,0.12589077185324082,0.0,-0.3449053387170067,-0.3350574596700967,-0.4970182434168815,0.22116512894479878,1.034185670916179,-0.07241536851309043
12632,5.0,300.11249,3906.1281,0.0,0.0,0.0,0.0,0.12590073866282464,0.0,-0.36650491268871865,-0.3251041418177807,-0.4957563316098405,0.23054244451276779,1.093825571802179,-0.0905483930041806
12633,5.0,299.61457,3559.8505,0.0,0.0,0.0,0.0,0.12591070547240843,0.0,-0.33558102626176867,-0.27782407843410173,-0.46870056796964454,0.2317492152493668,1.061087562396189,-0.06798608654270434
12634,5.0,300.34033,3473.7763,0.0,0.0,0.0,0.0,0.12592067228199227,0.0,-0.3204780876912247,-0.30123523212710274,-0.43422794531996156,0.22202863081251978,1.051986549997989,-0.11987850085858688
12635,5.0,299.73902999999996,3667.164,0.0,0.0,0.0,0.0,0.1259306390915761,0.0,-0.3210673838168837,-0.29243193287328473,-0.5012269702247505,0.21736060786682182,1.018915789259159,-0.096566433906115
12636,5.0,300.43785,3641.6143,0.0,0.0,0.0,0.0,0.1259406059011599,0.0,-0.3074642985743637,-0.3048390688902737,-0.49465643849378954,0.23967319580140278,1.076242136191829,-0.14190688227261886
12637,5.0,299.48605,3474.2714,0.0,0.0,0.0,0.0,0.12595057271074375,0.0,-0.2998193468348657,-0.27923951789629475,-0.4770328883119805,0.23886516937665678,1.068279712930999,-0.1307947001484319
12638,5.0,300.67804,3581.04,0.0,0.0,0.0,0.0,0.12596053952032754,0.0,-0.3481696556366697,-0.2829122657987667,-0.4574648098632616,0.1988299860629918,1.085461293551689,-0.14062270936088087
12639,5.0,301.06096,3585.5897,0.0,0.0,0.0,0.0,0.12597050632991136,0.0,-0.34566147660413166,-0.29366301147978274,-0.45060524854127554,0.20741482859524982,1.042805693491909,-0.10701051843111589
12640,5.0,300.0913,3610.632,0.0,0.0,0.0,0.0,0.1259804731394952,0.0,-0.3290563238328307,-0.2935354432921927,-0.4749502236589375,0.19205298435915383,1.0717307414465889,-0.1033791516627279
12641,5.0,300.42261,3776.6319,0.0,0.0,0.0,0.0,0.12599043994907902,0.0,-0.31894091636201766,-0.3207493955380007,-0.5083114730689364,0.23247959631894977,1.045348039317819,-0.08096364386248953
12642,5.0,300.02169,3732.4217,0.0,0.0,0.0,0.0,0.12600040675866286,0.0,-0.29476152657569776,-0.32573035064458267,-0.5140711311423706,0.21703908334508978,1.0089889273669541,-0.101074961153572
12643,5.0,299.94827999999995,3748.1440000000002,0.0,0.0,0.0,0.0,0.12601037356824665,0.0,-0.3307522815852087,-0.3039433456693727,-0.5046465474572365,0.24533375801505677,1.00709127204967,-0.086717754391626
12644,5.0,299.30542,3815.3179,0.0,0.0,0.0,0.0,0.12602034037783047,0.0,-0.3426871518630887,-0.31468594481958473,-0.5023882966943645,0.25298786953545876,1.065808902562149,-0.11033720089443391
12645,5.0,299.51026,3735.013,0.0,0.0,0.0,0.0,0.1260303071874143,0.0,-0.37879161379882165,-0.2813437647764677,-0.47521531015009955,0.26450985053008974,1.054339215405179,-0.1019918906858159
12646,5.0,299.57026,3624.1440000000002,0.0,0.0,0.0,0.0,0.12604027399699813,0.0,-0.3516299959206787,-0.2769125789091437,-0.4731066961619955,0.21157741199356478,1.0771566957320888,-0.15152009259636887
12647,5.0,300.59906,3608.7354,0.0,0.0,0.0,0.0,0.12605024080658195,0.0,-0.33188899620989365,-0.2865926840044957,-0.47848376113017055,0.1995344076650128,1.042735272609959,-0.1267108361503859
12648,5.0,299.4351,3443.56,0.0,0.0,0.0,0.0,0.12606020761616574,0.0,-0.2863872272817187,-0.26737746990310174,-0.49299155712197856,0.19184592670121883,1.1034790081548989,-0.12488218316491187
12649,5.0,300.38972,3492.9041,0.0,0.0,0.0,0.0,0.12607017442574958,0.0,-0.32191233307527367,-0.2522773988303407,-0.48756589667900757,0.20187907852891382,1.0874911374770189,-0.09246181449302061
12650,5.0,300.01887,3606.4706,0.0,0.0,0.0,0.0,0.1260801412353334,0.0,-0.3281458679554757,-0.2991830156395647,-0.46894812523407653,0.22171977191703776,1.062784958963709,-0.11414353569008989
12651,5.0,300.81529,3642.3531,0.0,0.0,0.0,0.0,0.12609010804491724,0.0,-0.35604554733895966,-0.2828277810054287,-0.4683110746312045,0.23479001932947077,1.037579957426169,-0.06275539264422503
12652,5.0,300.27092999999996,3768.4158,0.0,0.0,0.0,0.0,0.12610007485450103,0.0,-0.3378917431148187,-0.3150788629433627,-0.4925336997992915,0.25932549559843376,1.056327110776369,-0.08394819229704152
12653,5.0,300.26717,3914.0308,0.0,0.0,0.0,0.0,0.12611004166408485,0.0,-0.3374401172802467,-0.3422994418448247,-0.5100280605933505,0.2584484871068798,1.018614853979459,-0.1108212709972079
12654,5.0,299.85012,3888.1785,0.0,0.0,0.0,0.0,0.1261200084736687,0.0,-0.3327162237240347,-0.3199161797157687,-0.5292767626105496,0.24404695065305876,1.013976600321699,-0.12090081954698188
12655,5.0,300.47895,3814.6859999999997,0.0,0.0,0.0,0.0,0.1261299752832525,0.0,-0.34342436223834566,-0.3154395191839567,-0.5007053997357754,0.23238888003749678,1.041598912622809,-0.10369183051108691
12656,5.0,300.17612,3504.3197,0.0,0.0,0.0,0.0,0.12613994209283633,0.0,-0.3255213475464557,-0.2695929716442547,-0.47011136674637954,0.2167026539143868,1.079543203692619,-0.12160031675351687
12657,5.0,300.18577,3429.4842,0.0,0.0,0.0,0.0,0.12614990890242014,0.0,-0.33081530574142864,-0.26987436132952575,-0.44178788537606956,0.22774931928710776,1.109045601554279,-0.1098078283796889
12658,5.0,299.44169,3616.8617,0.0,0.0,0.0,0.0,0.12615987571200396,0.0,-0.3331115331180487,-0.2761796849793128,-0.49014443579848954,0.18463764522481682,1.0908500615585188,-0.1258917349020469
12659,5.0,299.32686,3749.2184,0.0,0.0,0.0,0.0,0.12616984252158778,0.0,-0.32852127711752566,-0.29863653946313173,-0.5125109691683946,0.21543728692450478,1.092664893812629,-0.12311087000259689
12660,5.0,299.94496000000004,3817.84,0.0,0.0,0.0,0.0,0.12617980933117162,0.0,-0.3271778392074387,-0.3101810146099827,-0.5231691747177775,0.2155807428736628,1.095497941092229,-0.1002772354293426
12661,5.0,301.04438,3907.8039,0.0,0.0,0.0,0.0,0.12618977614075544,0.0,-0.35067107629104066,-0.3244505245757737,-0.5127531967373005,0.25825692204297374,1.059572246871639,-0.07733340484146284
12662,5.0,300.54831,3799.6878,0.0,0.0,0.0,0.0,0.12619974295033926,0.0,-0.3375722450932867,-0.3265327231337707,-0.4909052549010765,0.23874401506219975,1.023255134137419,-0.09125063713173673
12663,5.0,300.41792999999996,3790.5596,0.0,0.0,0.0,0.0,0.12620970975992307,0.0,-0.35373117265304865,-0.3219783868492927,-0.4765258883594436,0.24029870548563576,1.024434658578829,-0.08078825533643001
12664,5.0,300.64489,3705.1179,0.0,0.0,0.0,0.0,0.1262196765695069,0.0,-0.3085972641736787,-0.3162864138825387,-0.5013796467498185,0.24416921954262577,1.0655055354822092,-0.11465415294548388
12665,5.0,300.66707,3502.1986,0.0,0.0,0.0,0.0,0.1262296433790907,0.0,-0.3013558595515077,-0.28912452242686876,-0.47410054252258055,0.23629547593054775,1.059987476762619,-0.13799609152415387
12666,5.0,300.00313,3483.3904,0.0,0.0,0.0,0.0,0.12623961018867452,0.0,-0.2807130469867207,-0.3020327714133137,-0.47611788294167656,0.2059587679365478,1.066935332698319,-0.15448072832856086
12667,5.0,299.32433,3505.2452,0.0,0.0,0.0,0.0,0.12624957699825837,0.0,-0.3288073986807637,-0.28637517973802973,-0.45032444654106263,0.23562515019439176,1.051694126019129,-0.1120777213862099
12668,5.0,298.66156,3602.3785,0.0,0.0,0.0,0.0,0.12625954380784216,0.0,-0.3336259500613177,-0.2730814194860377,-0.48832573292899756,0.24637807436312278,1.075847272627859,-0.0910176179797395
12669,5.0,299.63308,3670.1173,0.0,0.0,0.0,0.0,0.126269510617426,0.0,-0.3518384619962527,-0.2962962154421597,-0.4674893288001046,0.23549940585698176,1.059006144040769,-0.12042303159482788
12670,5.0,299.30298999999997,3730.8379999999997,0.0,0.0,0.0,0.0,0.12627947742700982,0.0,-0.32255212958591667,-0.3004433974389547,-0.5110860659502675,0.20961851584023683,1.029572748510919,-0.10191453917318191
12671,5.0,300.26287,3788.5397,0.0,0.0,0.0,0.0,0.12628944423659363,0.0,-0.3428053981497587,-0.31996881805846367,-0.48884725275546753,0.2131758241588158,1.0645076867837289,-0.11965813922683889
12672,5.0,300.39808,3845.4236,0.0,0.0,0.0,0.0,0.12629941104617745,0.0,-0.3300946518728057,-0.32248267129156166,-0.5163354208758385,0.2216359254712628,1.075389182257649,-0.1064915722598999
12673,5.0,300.70862,3806.8979999999997,0.0,0.0,0.0,0.0,0.12630937785576127,0.0,-0.3559824623877337,-0.3266066194635637,-0.4746128519056415,0.23215947008235577,1.068948255346979,-0.1100292336590399
12674,5.0,300.63511,3716.3751,0.0,0.0,0.0,0.0,0.12631934466534508,0.0,-0.3335130233376727,-0.3202602186547227,-0.4759120006538575,0.23285962590145576,1.034555709852699,-0.0909382663114081
12675,5.0,301.0515,3435.1059,0.0,0.0,0.0,0.0,0.1263293114749289,0.0,-0.3014868727894377,-0.2907459860318947,-0.4519535601843436,0.23895407194043075,1.0683887386417592,-0.1104202772701329
12676,5.0,299.53517,3270.2722,0.0,0.0,0.0,0.0,0.12633927828451275,0.0,-0.26250519600224576,-0.2514480840209938,-0.4801278202124265,0.25016328289419376,1.0743312478282387,-0.1046614500617809
12677,5.0,299.9998,3704.8898,0.0,0.0,0.0,0.0,0.12634924509409656,0.0,-0.3273086396628477,-0.30595328936273875,-0.49293204894360554,0.24570834644452577,1.070872619936899,-0.14377900368738286
12678,5.0,299.37237000000005,3910.3105,0.0,0.0,0.0,0.0,0.12635921190368035,0.0,-0.35519513666253066,-0.3151498816428717,-0.5182917231089105,0.24005996349707376,1.044923082225879,-0.1309009799514209
12679,5.0,299.48197999999996,3762.8022,0.0,0.0,0.0,0.0,0.1263691787132642,0.0,-0.37396048798452663,-0.29319478860857273,-0.47664264516846655,0.2109308064422498,1.055147687659969,-0.11614130011725389
12680,5.0,300.17496,3806.5313,0.0,0.0,0.0,0.0,0.126379145522848,0.0,-0.36526292137864363,-0.3000169913993717,-0.49181055333542256,0.22627349011895478,1.066078427088749,-0.07127700938349314
12681,5.0,300.88782000000003,3934.9770000000003,0.0,0.0,0.0,0.0,0.12638911233243186,0.0,-0.3646546876086157,-0.3229248536352017,-0.5085551901154896,0.1976489214814298,1.063470625306379,-0.08568347428580052
12682,5.0,300.13943,3863.4390000000003,0.0,0.0,0.0,0.0,0.12639907914201567,0.0,-0.32450871552901667,-0.3485446291011767,-0.5013356412979755,0.23075506491375178,1.0316990538457689,-0.09885365044959571
12683,5.0,300.56703,3700.8318,0.0,0.0,0.0,0.0,0.12640904595159946,0.0,-0.3242874622371807,-0.3055216346876377,-0.4951513503726335,0.2245234045462348,1.078804645694729,-0.1062163026052329
12684,5.0,300.23441,3438.0666,0.0,0.0,0.0,0.0,0.1264190127611833,0.0,-0.2952011757940877,-0.3024967588991057,-0.4473884733163046,0.24960923773951377,1.099386896301039,-0.13087109920597187
12685,5.0,299.9773,3201.2747,0.0,0.0,0.0,0.0,0.12642897957076712,0.0,-0.30094966785141974,-0.27442364149600473,-0.3977342636233156,0.25401501129432974,1.063849783493799,-0.13077339149882888
12686,5.0,299.01318,3379.7588,0.0,0.0,0.0,0.0,0.12643894638035094,0.0,-0.3268378330038827,-0.2590324738020148,-0.4414919859493666,0.2359796661393798,1.037220456290689,-0.13440818305255486
12687,5.0,299.47935,3641.8509,0.0,0.0,0.0,0.0,0.1264489131899348,0.0,-0.3351542959821537,-0.2852835040802898,-0.48659394665308353,0.2226979129010728,1.069993220175109,-0.09488166952759172
12688,5.0,299.1282,3499.7335,0.0,0.0,0.0,0.0,0.12645887999951858,0.0,-0.2993253164836087,-0.2756584589953718,-0.4888478100430226,0.24773860580239676,1.048561865984999,-0.11268272288841888
12689,5.0,299.52986,3680.2073,0.0,0.0,0.0,0.0,0.1264688468091024,0.0,-0.3245344216840537,-0.2899695831427697,-0.5041871297293955,0.2149752246139028,1.086669492970929,-0.1050786456579549
12690,5.0,299.87105,4078.7884,0.0,0.0,0.0,0.0,0.12647881361868624,0.0,-0.37172421461632366,-0.35691156206692864,-0.5112140495703985,0.2209701390955548,1.060347281873129,-0.1151103282730049
12691,5.0,301.4215,4099.159000000001,0.0,0.0,0.0,0.0,0.12648878042827005,0.0,-0.3967928529554056,-0.34887916375419264,-0.5003699632901705,0.25611765723934476,1.093979383167359,-0.08647614997153151
12692,5.0,300.72979,3853.349,0.0,0.0,0.0,0.0,0.12649874723785387,0.0,-0.35421402685570264,-0.3220430828681777,-0.49506476815158856,0.24064980677778675,1.092522734823599,-0.07518814868999253
12693,5.0,300.46157,3792.9103,0.0,0.0,0.0,0.0,0.1265087140474377,0.0,-0.3215324048177777,-0.3519329475680777,-0.47948466984395255,0.22451074905248578,1.051436760493729,-0.10560333695723789
12694,5.0,299.29674,3607.0805,0.0,0.0,0.0,0.0,0.1265186808570215,0.0,-0.30344399575509073,-0.31044737779627074,-0.4825710397810536,0.20687631656460279,0.985875051120792,-0.11429317246485789
12695,5.0,300.18027,3524.1353,0.0,0.0,0.0,0.0,0.12652864766660532,0.0,-0.29467629197728573,-0.2969895520880867,-0.4795832793436845,0.22909012274693477,1.039319707847869,-0.12837717660234088
12696,5.0,300.29838,3565.0147,0.0,0.0,0.0,0.0,0.12653861447618917,0.0,-0.32411271712493467,-0.2868953620743677,-0.47266738131613856,0.25737922454135176,1.061546969991529,-0.12631396635121786
12697,5.0,301.36134,3594.2601,0.0,0.0,0.0,0.0,0.12654858128577298,0.0,-0.33297415666949065,-0.27294583649015675,-0.48664531843315356,0.24378861240756278,1.1031729052996888,-0.12352718407118389
12698,5.0,300.4611,3633.7007,0.0,0.0,0.0,0.0,0.12655854809535677,0.0,-0.3390691194660167,-0.2859933668353477,-0.47949178285965455,0.21388385293119277,1.052629659836459,-0.12370966028169289
12699,5.0,299.98842,3817.8488,0.0,0.0,0.0,0.0,0.12656851490494062,0.0,-0.35978162337268166,-0.29892452540655373,-0.5018245547362276,0.23896191449620477,1.066136486319479,-0.0952879412744376
12700,5.0,299.35341,3998.2486,0.0,0.0,0.0,0.0,0.12657848171452443,0.0,-0.3556052800380087,-0.3125121687175497,-0.5472502893768985,0.24197330392590577,1.069078863284869,-0.08667879087228061
12701,5.0,299.22566,3919.835,0.0,0.0,0.0,0.0,0.12658844852410828,0.0,-0.3475340945114447,-0.3480091162908257,-0.4959887407852775,0.23625639487419078,1.060250313838559,-0.1044933518701909
12702,5.0,298.12127000000004,3715.4495,0.0,0.0,0.0,0.0,0.1265984153336921,0.0,-0.3373389138602587,-0.3066587647448637,-0.4854061946208615,0.1981124023421718,1.031007713302539,-0.10015867604839171
12703,5.0,299.46956,3617.9641,0.0,0.0,0.0,0.0,0.12660838214327588,0.0,-0.35212661005969065,-0.2999651940542597,-0.4476789315899705,0.2098505197156338,1.0596200722763591,-0.0977728165679257
12704,5.0,299.8952,3473.7922,0.0,0.0,0.0,0.0,0.12661834895285973,0.0,-0.30408565664591775,-0.2759398993431477,-0.47592052208719854,0.23130207811273779,1.074361442681219,-0.09498832929936822
12705,5.0,300.60564,3380.2427,0.0,0.0,0.0,0.0,0.12662831576244354,0.0,-0.30675965405732075,-0.26588063606037576,-0.4548690758895826,0.23200626666723576,1.0762747628450489,-0.11071643000936088
12706,5.0,299.91582,3516.2277,0.0,0.0,0.0,0.0,0.12663828257202736,0.0,-0.28725259352962373,-0.28773232692196976,-0.4938604900102356,0.24137493921185177,1.040776660166659,-0.12074921706701988
12707,5.0,299.93032,3629.9609,0.0,0.0,0.0,0.0,0.1266482493816112,0.0,-0.3285733379076637,-0.27333545141860877,-0.5015086841500536,0.2338393171581438,1.067804599959109,-0.11819334435227488
12708,5.0,299.87965,3911.7516,0.0,0.0,0.0,0.0,0.126658216191195,0.0,-0.3411425027481437,-0.3138834912703887,-0.5340488159440144,0.27721441598143276,1.0905953304833789,-0.09528317089296681
12709,5.0,299.58596,4073.5029999999997,0.0,0.0,0.0,0.0,0.1266681830007788,0.0,-0.3861866474011546,-0.3269870644786107,-0.5250694847503236,0.22658121417432478,1.092070419978959,-0.11894582440653889
12710,5.0,299.92667,3898.0292,0.0,0.0,0.0,0.0,0.12667814981036266,0.0,-0.36700455644552965,-0.3115613044262067,-0.5063376720066376,0.2059273875809508,1.0348346576052292,-0.08579248479780902
12711,5.0,299.32651,3635.1122,0.0,0.0,0.0,0.0,0.12668811661994647,0.0,-0.3570577639238577,-0.2796600065552937,-0.4682655797017146,0.18480856025168482,1.056175832536439,-0.10105580768693172
12712,5.0,298.85187,3603.2498,0.0,0.0,0.0,0.0,0.1266980834295303,0.0,-0.2993078784493877,-0.31413282172249574,-0.4818572760131105,0.2230815293889328,1.0726552308378292,-0.0905540722709911
12713,5.0,298.70757000000003,3528.0170000000003,0.0,0.0,0.0,0.0,0.1267080502391141,0.0,-0.29673677658563974,-0.3054986643078707,-0.47019364265449953,0.2234156182119048,1.0772230636136388,-0.12702689925407887
12714,5.0,299.93082000000004,3561.3675,0.0,0.0,0.0,0.0,0.12671801704869792,0.0,-0.3168715050202827,-0.3079273538700637,-0.45776793376317754,0.24441107220899477,1.034296925777159,-0.10961319316797989
12715,5.0,300.12037999999995,3548.1767,0.0,0.0,0.0,0.0,0.12672798385828174,0.0,-0.3108132320098777,-0.3034306107212697,-0.4643132659641516,0.2208812162667788,1.078120904527249,-0.1293719855505209
12716,5.0,299.98826,3451.1981,0.0,0.0,0.0,0.0,0.12673795066786558,0.0,-0.3134018732328567,-0.26994254292875475,-0.46573365008683254,0.24653032532314875,1.089348019610279,-0.098637152340479
12717,5.0,299.68113,3729.262,0.0,0.0,0.0,0.0,0.1267479174774494,0.0,-0.35072968267682464,-0.29549027631261976,-0.48738256933841456,0.21930913847162678,1.073732619669159,-0.11123838553337388
12718,5.0,300.43104,4085.2689,0.0,0.0,0.0,0.0,0.1267578842870332,0.0,-0.3861322257382836,-0.3358152795523877,-0.5198722412773955,0.2199427946866638,1.0513308758582791,-0.1065815488687799
12719,5.0,300.23016,3986.6025,0.0,0.0,0.0,0.0,0.12676785109661703,0.0,-0.3933989312154516,-0.3157004310847067,-0.5027282522354155,0.2302315185870818,1.057971919663699,-0.08924780341432241
12720,5.0,300.66695,3757.4079,0.0,0.0,0.0,0.0,0.12677781790620085,0.0,-0.35374713134212366,-0.31204247663369467,-0.47636857114891756,0.2611753660410017,1.0883455099613388,-0.092766239406065
12721,5.0,300.54382999999996,3726.8864,0.0,0.0,0.0,0.0,0.1267877847157847,0.0,-0.31467383648088976,-0.3301113806319567,-0.4880951780012435,0.25200196705565775,1.070786291028379,-0.1043554282665789
12722,5.0,299.64952,3757.3657,0.0,0.0,0.0,0.0,0.1267977515253685,0.0,-0.3372432427858167,-0.3200496652839427,-0.4848524534412115,0.26015350331515175,1.0496043990128892,-0.11223350858908489
12723,5.0,299.56542,3650.3338,0.0,0.0,0.0,0.0,0.1268077183349523,0.0,-0.3305874967214457,-0.3034837962190187,-0.4755390334245485,0.2380045046092158,1.0818693219471889,-0.0972570094455195
12724,5.0,299.25015,3358.9225,0.0,0.0,0.0,0.0,0.12681768514453615,0.0,-0.2728506416432617,-0.2946561080352937,-0.45352180789411756,0.22337027526992978,1.1153214700236591,-0.13767590449255387
12725,5.0,298.6819,3328.577,0.0,0.0,0.0,0.0,0.12682765195411996,0.0,-0.2820566875468277,-0.2749252104280057,-0.4548223853249746,0.2066222238370258,1.086385377642889,-0.12490894310005289
12726,5.0,299.5286,3666.2332,0.0,0.0,0.0,0.0,0.12683761876370378,0.0,-0.33477008167673467,-0.2938108041393687,-0.48586245100839054,0.1983381139344478,1.0292490151039688,-0.13569568955712186
12727,5.0,300.12164,3883.2966,0.0,0.0,0.0,0.0,0.12684758557328762,0.0,-0.3506031986668417,-0.32105490057565167,-0.5087670911089025,0.23043222316688977,1.061812644167749,-0.1089654629090539
12728,5.0,300.31608,3765.2793,0.0,0.0,0.0,0.0,0.1268575523828714,0.0,-0.34167669833336467,-0.2970421600332787,-0.5058320298092345,0.2459681336376648,1.040653043654459,-0.1127384617764199
12729,5.0,300.21176,3718.3827,0.0,0.0,0.0,0.0,0.12686751919245523,0.0,-0.34041005464835666,-0.3072428426325077,-0.4826425853706145,0.24164872952137276,1.0558784436320892,-0.10347764970494891
12730,5.0,300.27932999999996,3814.7831,0.0,0.0,0.0,0.0,0.12687748600203907,0.0,-0.34612107671699066,-0.31237813599432174,-0.5010996046871805,0.2311791202131028,1.0525284361514688,-0.1257335665614369
12731,5.0,300.08765,4020.0785,0.0,0.0,0.0,0.0,0.1268874528116229,0.0,-0.37795085939584566,-0.3355832250144857,-0.5084693880970215,0.2876173534331227,1.0904974505237188,-0.1155073500596879
12732,5.0,300.39579,3787.4361,0.0,0.0,0.0,0.0,0.1268974196212067,0.0,-0.3380557781735077,-0.3041806285777907,-0.5090496156342855,0.24287334359223278,1.089691308744159,-0.10574147334337089
12733,5.0,299.83092,3278.4925,0.0,0.0,0.0,0.0,0.12690738643079053,0.0,-0.25192164672023076,-0.2792886706586457,-0.4653695183983956,0.22817610022922777,1.053991974595909,-0.11268205414335289
12734,5.0,299.42976,3298.5959999999995,0.0,0.0,0.0,0.0,0.12691735324037434,0.0,-0.28116269698359775,-0.27149959422492376,-0.45002851671685656,0.20080864059326983,1.030074307310419,-0.1050763962427329
12735,5.0,299.17548,3758.3374,0.0,0.0,0.0,0.0,0.12692732004995816,0.0,-0.3494622587892397,-0.2786386808519967,-0.5143397944063856,0.21118873938770577,1.068906205467829,-0.09346611050188691
12736,5.0,299.76662000000005,3947.3135,0.0,0.0,0.0,0.0,0.126937286859542,0.0,-0.37312971409503565,-0.32306637427666873,-0.5036886613427005,0.22928793956395777,1.0796296339261489,-0.1035611415131889
12737,5.0,299.50892999999996,3761.0996,0.0,0.0,0.0,0.0,0.12694725366912582,0.0,-0.3439737565750667,-0.3038643628240777,-0.4954422443438425,0.2240767537696538,1.0620322154644188,-0.12004003318952888
12738,5.0,299.89243,3817.9714,0.0,0.0,0.0,0.0,0.1269572204787096,0.0,-0.36520336253776564,-0.2905296267380417,-0.5048349714458326,0.22613648857293378,1.0799424242320188,-0.09550057991392341
12739,5.0,300.45035,4051.9075,0.0,0.0,0.0,0.0,0.12696718728829345,0.0,-0.3685967573876676,-0.32704655239198166,-0.5360353839575736,0.2628736846661128,1.048332466162359,-0.1019190481361269
12740,5.0,301.00216,3923.0823,0.0,0.0,0.0,0.0,0.12697715409787727,0.0,-0.3694484548917236,-0.3010531105541287,-0.5220174842566145,0.25569480770761277,1.050274663954039,-0.11704438966638189
12741,5.0,300.70857,3615.0611,0.0,0.0,0.0,0.0,0.12698712090746112,0.0,-0.3153402814691627,-0.3038704524571787,-0.4796775825304916,0.23979007420043777,1.035685686364219,-0.09788984898097591
12742,5.0,300.17765,3334.8641,0.0,0.0,0.0,0.0,0.12699708771704493,0.0,-0.3051670782126457,-0.28197761350902373,-0.4265707332542536,0.2291059699784988,1.0419533475077891,-0.12331000404474987
12743,5.0,299.4123,3399.7157,0.0,0.0,0.0,0.0,0.12700705452662872,0.0,-0.3077704419595777,-0.28284813719993773,-0.44281010273945454,0.2396464156012598,1.1040377142600388,-0.10922288922945991
12744,5.0,299.67356,3744.3435,0.0,0.0,0.0,0.0,0.12701702133621257,0.0,-0.3260834480394307,-0.3253434714914007,-0.4867600183444735,0.22727424684522177,1.0836067418936592,-0.13020445156767887
12745,5.0,300.17742000000004,3756.784,0.0,0.0,0.0,0.0,0.12702698814579638,0.0,-0.3129195155227517,-0.3369790276897407,-0.49206997575852557,0.24387956173653874,1.052597033183239,-0.1092938572664639
12746,5.0,298.67086,3475.0414,0.0,0.0,0.0,0.0,0.1270369549553802,0.0,-0.29530108225394774,-0.2977787117959707,-0.46324600963382156,0.2081477123925798,1.0539975474714591,-0.1153891443030219
12747,5.0,300.00722,3659.3076,0.0,0.0,0.0,0.0,0.12704692176496404,0.0,-0.33508768492057966,-0.3005638222133397,-0.4766866404878085,0.22050681022232782,1.093559897625959,-0.1119117307548279
12748,5.0,301.5919,4014.9195,0.0,0.0,0.0,0.0,0.12705688857454783,0.0,-0.38923103838661266,-0.3233413298238047,-0.5078628971171655,0.2082894356840668,1.085590381614429,-0.10163999905858691
12749,5.0,300.2505,3802.9343,0.0,0.0,0.0,0.0,0.12706685538413165,0.0,-0.35545890592856266,-0.31487429788067367,-0.4856638641212916,0.2075663094851998,1.068906712092879,-0.12167301744819188
12750,5.0,301.92371,3627.7790000000005,0.0,0.0,0.0,0.0,0.1270768221937155,0.0,-0.3455063480138217,-0.2983194327118357,-0.45892844963271157,0.23828154745155777,1.0491177349898588,-0.11632599534548188
12751,5.0,301.44825,3538.3368,0.0,0.0,0.0,0.0,0.1270867890032993,0.0,-0.3139618965631267,-0.2801845661320637,-0.4814195722349125,0.25435435888532076,1.057040134871739,-0.09880583720387691
12752,5.0,300.50576,3530.4937,0.0,0.0,0.0,0.0,0.12709675581288313,0.0,-0.32451433906707167,-0.2992268691038927,-0.4494407202013456,0.2836228986239007,1.068320141609989,-0.1063791420288039
12753,5.0,300.32604,3679.0997,0.0,0.0,0.0,0.0,0.12710672262246694,0.0,-0.3061251264471977,-0.3010176974631337,-0.5112116177701586,0.27028756472030574,1.048854897913919,-0.10542038451918191
12754,5.0,300.63299,3780.9141,0.0,0.0,0.0,0.0,0.12711668943205076,0.0,-0.3599754175868077,-0.3121634282981317,-0.4771646412224836,0.27098097229373974,1.077284770544729,-0.1003500678465306
12755,5.0,299.34592999999995,3763.9917,0.0,0.0,0.0,0.0,0.12712665624163458,0.0,-0.34772781779806367,-0.3080384871410317,-0.48839319512065554,0.2204718429613768,1.090577497281619,-0.1003106169538871
12756,5.0,301.4569,3804.2799,0.0,0.0,0.0,0.0,0.12713662305121842,0.0,-0.36781662573817464,-0.28674432701446173,-0.5018451541107606,0.19213682067242782,1.084929337249189,-0.12327506718130189
12757,5.0,299.54335,3787.5947,0.0,0.0,0.0,0.0,0.12714658986080224,0.0,-0.3373851585948227,-0.30718318246661974,-0.5067658613663965,0.17296396042521384,1.066633992118579,-0.1036409450910649
12758,5.0,299.57999,3848.3611,0.0,0.0,0.0,0.0,0.12715655667038603,0.0,-0.36899493427946467,-0.28319294620896773,-0.5176178003348995,0.17335552079385783,1.079804520893409,-0.11278579068859088
12759,5.0,299.67244,3827.4032,0.0,0.0,0.0,0.0,0.12716652347996987,0.0,-0.3448296894645407,-0.3123089411449927,-0.5062963618000604,0.2315952012341668,1.0917486117471988,-0.1184608423786749
12760,5.0,300.25757000000004,3639.2621,0.0,0.0,0.0,0.0,0.1271764902895537,0.0,-0.34806491597383266,-0.2997575993737717,-0.4584222906777576,0.2221285474048808,1.081788261939189,-0.12214885996015389
12761,5.0,301.20709,3595.9114,0.0,0.0,0.0,0.0,0.12718645709913753,0.0,-0.3015274433234417,-0.3016100130740907,-0.48992979902980655,0.27537866011275774,1.056539690647349,-0.12258795189098888
12762,5.0,301.11111,3549.7357,0.0,0.0,0.0,0.0,0.12719642390872132,0.0,-0.29192683783093576,-0.31209987725185967,-0.47500431094927553,0.26693693915712474,1.0250265992872492,-0.13548058669339288
12763,5.0,300.83224,3662.8748,0.0,0.0,0.0,0.0,0.12720639071830514,0.0,-0.3022877861984817,-0.3078533359502587,-0.5032813449350015,0.2917228908508077,1.066930874397879,-0.1168025775300169
12764,5.0,301.74512999999996,3835.1441,0.0,0.0,0.0,0.0,0.12721635752788898,0.0,-0.3481595535331727,-0.3117682202291277,-0.5058602792220225,0.24604652879790176,1.043441811904689,-0.1253522602838049
12765,5.0,301.15803999999997,3703.6440000000002,0.0,0.0,0.0,0.0,0.1272263243374728,0.0,-0.30537258559792774,-0.3053861023542617,-0.5150566181896306,0.2195395718093688,1.0536247727596688,-0.12571647303224986
12766,5.0,300.3983,3754.7288,0.0,0.0,0.0,0.0,0.12723629114705662,0.0,-0.3584491488286766,-0.2890393182259597,-0.4938553224347255,0.1983655831446588,1.073566142677729,-0.1034393083211649
12767,5.0,300.23692,4113.7759,0.0,0.0,0.0,0.0,0.12724625795664044,0.0,-0.37087826224033466,-0.3382899808016217,-0.5413168994413186,0.2145313400100948,1.0942929840733089,-0.1091095876032779
12768,5.0,299.59259,3934.0297,0.0,0.0,0.0,0.0,0.12725622476622425,0.0,-0.39651823178080264,-0.2900909907697517,-0.5092375633953344,0.2047181850441118,1.080580771795019,-0.1034269162724419
12769,5.0,300.07634,3679.8428,0.0,0.0,0.0,0.0,0.12726619157580807,0.0,-0.3229815855083007,-0.3008495182115357,-0.49474922180544656,0.21615153705249582,1.071036969103119,-0.10727953633266589
12770,5.0,299.92746,3730.8184,0.0,0.0,0.0,0.0,0.12727615838539189,0.0,-0.33380497108898566,-0.3035828515487947,-0.4966878124267705,0.23354973027956377,1.0815637257170292,-0.08350214136451972
12771,5.0,299.56946,3856.2517,0.0,0.0,0.0,0.0,0.12728612519497573,0.0,-0.3412895658676577,-0.3055401872969687,-0.5253744831629245,0.26618418552533374,1.080241839636569,-0.11798941763714889
12772,5.0,300.33021,3743.4276,0.0,0.0,0.0,0.0,0.12729609200455955,0.0,-0.34490898641736667,-0.3017470348851137,-0.49125249571034657,0.23664824908536378,1.068417210969569,-0.09934787838462221
12773,5.0,300.26317,3437.2983,0.0,0.0,0.0,0.0,0.12730605881414336,0.0,-0.29103825802323974,-0.2799069254721627,-0.47390767036604553,0.24225779415648274,1.052403198439109,-0.12979651707741888
12774,5.0,300.09692,3415.2702,0.0,0.0,0.0,0.0,0.12731602562372718,0.0,-0.2841656967024707,-0.27718034038056977,-0.47681081428756356,0.2335028573299378,1.025853917993899,-0.10795419877924989
12775,5.0,299.37542,3661.7737,0.0,0.0,0.0,0.0,0.127325992433311,0.0,-0.3074939057422857,-0.3169070498337907,-0.4886868147346335,0.24587636357610776,1.061483540535269,-0.1343694971637369
12776,5.0,298.55345,3851.1565,0.0,0.0,0.0,0.0,0.12733595924289481,0.0,-0.3460606160835237,-0.3155738558822147,-0.5090209406564555,0.22886315472453478,1.054593642505289,-0.10595389109433491
12777,5.0,299.35594,3658.942,0.0,0.0,0.0,0.0,0.12734592605247866,0.0,-0.3221116495024447,-0.29936349574737675,-0.4907518589684375,0.23503089927574378,1.059379425377609,-0.13804832456680888
12778,5.0,299.40608,3606.6908,0.0,0.0,0.0,0.0,0.12735589286206245,0.0,-0.32507732108763365,-0.29877084576388674,-0.47249578741170356,0.2044362482037868,1.0849823302294188,-0.1025715609355249
12779,5.0,299.88059,3864.5157,0.0,0.0,0.0,0.0,0.12736585967164626,0.0,-0.3244107038468437,-0.3108791033988787,-0.5394264787297485,0.2129976846587348,1.091817816729029,-0.12822744863506388
12780,5.0,299.95714,4053.4902,0.0,0.0,0.0,0.0,0.1273758264812301,0.0,-0.3827325284727596,-0.3108427175877877,-0.5385845590891575,0.2171436608879108,1.0713274679067888,-0.10594534939599191
12781,5.0,299.54235,3766.0771,0.0,0.0,0.0,0.0,0.12738579329081393,0.0,-0.3154412721066297,-0.29638176414810274,-0.5329703632000795,0.18759088423127881,1.078493881889059,-0.1237105418092799
12782,5.0,299.80441,3576.4809999999998,0.0,0.0,0.0,0.0,0.12739576010039774,0.0,-0.3158516789271337,-0.28483985252400473,-0.4864693878182905,0.23731731839139578,1.067612589065159,-0.08288110112647783
12783,5.0,300.61053,3659.1006,0.0,0.0,0.0,0.0,0.12740572690998156,0.0,-0.3225829121239547,-0.3210953799171467,-0.46859692261691555,0.24102978569778777,1.082179984427849,-0.1087347661262859
12784,5.0,300.15187000000003,3838.3167,0.0,0.0,0.0,0.0,0.12741569371956538,0.0,-0.39161850893473765,-0.28970607732176373,-0.4854278579079996,0.27767598179948577,1.063653922249469,-0.07878845934281552
12785,5.0,300.22427000000005,3957.5065,0.0,0.0,0.0,0.0,0.1274256605291492,0.0,-0.3456288195534087,-0.33927106021094666,-0.5180832772983385,0.26087031696589574,1.026935258500619,-0.11295388888018089
12786,5.0,299.41024,3714.6987,0.0,0.0,0.0,0.0,0.12743562733873304,0.0,-0.3476023065081767,-0.2936304658865707,-0.48794287637871253,0.25353762864221574,1.0549226448127589,-0.08415791682923972
12787,5.0,299.48502,3813.6265,0.0,0.0,0.0,0.0,0.12744559414831685,0.0,-0.3194456871643347,-0.3249258604626857,-0.5148756618542715,0.22980787872027178,1.0706741242423092,-0.11517358547674789
12788,5.0,300.06597999999997,3996.1043,0.0,0.0,0.0,0.0,0.12745556095790064,0.0,-0.4113015912698066,-0.30796035542582073,-0.49545396764749955,0.2131221928310228,1.073651255686129,-0.10394572058864389
12789,5.0,298.3504,3991.3027,0.0,0.0,0.0,0.0,0.1274655277674845,0.0,-0.40167175351191564,-0.3192006731576537,-0.4923839211695095,0.19759896825149983,1.0938917370337091,-0.1078838589573079
12790,5.0,299.29505,3638.9842,0.0,0.0,0.0,0.0,0.1274754945770683,0.0,-0.34910061969604866,-0.2877935069630077,-0.4692662047054686,0.20284796853953582,1.0946285725064289,-0.11922881502696787
12791,5.0,299.31811,3401.0785,0.0,0.0,0.0,0.0,0.12748546138665215,0.0,-0.2738184373437757,-0.3034366699568677,-0.4565878216367095,0.21944041515458276,1.088387053215439,-0.12632028903184186
12792,5.0,299.43419,3542.7953,0.0,0.0,0.0,0.0,0.12749542819623597,0.0,-0.2897063508992907,-0.3162618425676137,-0.47095309386945156,0.2283685164232178,1.0719160648898791,-0.13195476005542087
12793,5.0,300.34221,3661.5954,0.0,0.0,0.0,0.0,0.12750539500581975,0.0,-0.2875120767477327,-0.3307581888332917,-0.49476328571683453,0.24332943785974576,1.048758943129449,-0.14629371818306586
12794,5.0,300.40902,3606.0614,0.0,0.0,0.0,0.0,0.1275153618154036,0.0,-0.34248717682335267,-0.31394282719624467,-0.43972260809474256,0.25126093672752375,1.0514067682907688,-0.11636147936398389
12795,5.0,300.37315,3650.6781,0.0,0.0,0.0,0.0,0.12752532862498742,0.0,-0.3245561558986987,-0.31447277726354667,-0.4706860416730955,0.24091715281667175,1.070003757976149,-0.11432657932065489
12796,5.0,300.54211000000004,3837.216,0.0,0.0,0.0,0.0,0.12753529543457123,0.0,-0.35753359630331866,-0.3189970200200547,-0.48988724252560656,0.24542995597955078,1.073742245545109,-0.0960537952167715
12797,5.0,300.0525,3906.0253,0.0,0.0,0.0,0.0,0.12754526224415508,0.0,-0.3397013469984127,-0.3115777900053337,-0.5360550410095135,0.2162055432828258,1.063800742188959,-0.1109391930438459
12798,5.0,299.49841000000004,4089.3978,0.0,0.0,0.0,0.0,0.12755522905373887,0.0,-0.3776970807757996,-0.3060890344786357,-0.5592887239474995,0.22191290751859877,1.0685068836034188,-0.07199950534079792
12799,5.0,299.81813,4023.5321,0.0,0.0,0.0,0.0,0.12756519586332268,0.0,-0.34037651607004665,-0.3346814729554897,-0.5479953017779254,0.23049883422846376,1.078485471913229,-0.12215338918810087
12800,5.0,299.23141,3666.0013,0.0,0.0,0.0,0.0,0.12757516267290653,0.0,-0.37318781385576966,-0.27167065110680577,-0.4695143800524615,0.2165961106663718,1.081514380437159,-0.07938379038607013
12801,5.0,299.81557999999995,3621.4355,0.0,0.0,0.0,0.0,0.12758512948249034,0.0,-0.34975205845034063,-0.2885187508545837,-0.46255514531813857,0.2140628840913618,1.0898121894810888,-0.12347414042844888
12802,5.0,299.65492,3591.1702,0.0,0.0,0.0,0.0,0.12759509629207416,0.0,-0.3482007421497377,-0.2699200893065387,-0.4735052175588266,0.21389797763758678,1.065782558059549,-0.07737869002818212
12803,5.0,300.3138,3515.437,0.0,0.0,0.0,0.0,0.12760506310165798,0.0,-0.3067123859401557,-0.28373477156744176,-0.47815791003051156,0.2270637947994518,1.085218721477749,-0.12615227190025988
12804,5.0,301.20791,3727.0028,0.0,0.0,0.0,0.0,0.1276150299112418,0.0,-0.3011525407864417,-0.3228756299453437,-0.5088875969432956,0.1997906383503008,1.031451516846339,-0.1019500738541889
12805,5.0,300.91494,3740.2709999999997,0.0,0.0,0.0,0.0,0.1276249967208256,0.0,-0.3321491481730687,-0.3130519878408257,-0.4917478432867335,0.23187437190171875,1.045071523365529,-0.12063825604856888
12806,5.0,300.24416,3783.0628,0.0,0.0,0.0,0.0,0.12763496353040946,0.0,-0.3516393076890977,-0.30924478165008373,-0.4890725387827015,0.23449142465750178,1.062891451549219,-0.09249777575231972
12807,5.0,299.51436,3953.8333,0.0,0.0,0.0,0.0,0.12764493033999327,0.0,-0.3529208461505757,-0.3395880149747277,-0.5093577348571945,0.2697960269642948,1.0775908733999389,-0.12912424590107088
12808,5.0,300.04591,3869.2018,0.0,0.0,0.0,0.0,0.12765489714957706,0.0,-0.3351158938033637,-0.32947090524374667,-0.5115539341839425,0.24834731579997174,1.073546586950799,-0.12101443528069489
12809,5.0,299.51773,3557.4749,0.0,0.0,0.0,0.0,0.1276648639591609,0.0,-0.29076459943623173,-0.2939677059173537,-0.4966512239656595,0.21164182430242182,1.060399261603259,-0.13652397085136686
12810,5.0,300.05708,3500.7967,0.0,0.0,0.0,0.0,0.12767483076874472,0.0,-0.2900265277983898,-0.2939175804349067,-0.48021067367310355,0.20525909847749582,1.068685722246069,-0.12962647344563688
12811,5.0,299.76268,3539.4364,0.0,0.0,0.0,0.0,0.12768479757832857,0.0,-0.32562117294630766,-0.28073296748368676,-0.4695461353105955,0.20094428438415682,1.0664038830208689,-0.12848360839284487
12812,5.0,299.55431,3695.4151,0.0,0.0,0.0,0.0,0.12769476438791239,0.0,-0.36911709171152063,-0.31808042384709373,-0.4361164003263375,0.2180551908103718,1.066212885377019,-0.11483989182131489
12813,5.0,299.28619,3684.2386,0.0,0.0,0.0,0.0,0.12770473119749617,0.0,-0.35529288489967764,-0.2880443167602607,-0.4765793373022185,0.2234828980185448,1.051195404319909,-0.0981450623631635
12814,5.0,300.4462,3804.3404,0.0,0.0,0.0,0.0,0.12771469800708002,0.0,-0.37111286003598765,-0.2900443913976527,-0.49526723578657056,0.23850986309659075,1.056307251074409,-0.06660928939957503
12815,5.0,300.65742,4017.9481,0.0,0.0,0.0,0.0,0.12772466481666384,0.0,-0.3161349127275867,-0.34089006161822966,-0.5643309300226265,0.25702833603172176,1.058883743428689,-0.09230446789824172
12816,5.0,300.1624,4122.6149,0.0,0.0,0.0,0.0,0.12773463162624765,0.0,-0.36518833603878265,-0.34154152063752363,-0.5464421312296395,0.2534965312181598,1.048488000052709,-0.08068964077044752
12817,5.0,300.2868,4105.184,0.0,0.0,0.0,0.0,0.1277445984358315,0.0,-0.3934742359628836,-0.32317342414973366,-0.5312257694429016,0.24701060587054877,1.055236347043719,-0.1112947526364369
12818,5.0,299.82201000000003,3759.3327,0.0,0.0,0.0,0.0,0.12775456524541529,0.0,-0.39239029140340664,-0.2843561167937637,-0.46599685193280854,0.24780445692639577,1.071260796050209,-0.095350847893646
12819,5.0,300.02723,3437.1529,0.0,0.0,0.0,0.0,0.1277645320549991,0.0,-0.32332433761962764,-0.24976375837976375,-0.4717205700251955,0.2268478205406368,1.092347442556299,-0.13151051068157688
12820,5.0,300.64444,3645.7151,0.0,0.0,0.0,0.0,0.12777449886458295,0.0,-0.3410306196721017,-0.29391037622669575,-0.47326538126015655,0.23017378359638377,1.064763228458949,-0.14485891551146185
12821,5.0,300.44712000000004,3731.3055,0.0,0.0,0.0,0.0,0.12778446567416676,0.0,-0.28618488123674873,-0.32030363642150766,-0.5277351836434075,0.2080235183278228,1.0608644447241689,-0.1261743303549369
12822,5.0,300.72700000000003,3550.7931,0.0,0.0,0.0,0.0,0.12779443248375058,0.0,-0.3150656805595617,-0.30050249018478675,-0.4637842480869416,0.24587266521324277,1.064030749961659,-0.12860359746968686
12823,5.0,301.60376,3744.8877,0.0,0.0,0.0,0.0,0.1278043992933344,0.0,-0.3170760498179697,-0.3283490347330267,-0.49292727653563456,0.24137077475394078,1.060612246774279,-0.09095987488304072
12824,5.0,301.09162000000003,3864.4089,0.0,0.0,0.0,0.0,0.12781436610291821,0.0,-0.37564705290847766,-0.3323460226674987,-0.46669073573378955,0.25082455017445576,1.077676999658439,-0.12769617121013085
12825,5.0,299.923,3982.9868,0.0,0.0,0.0,0.0,0.12782433291250203,0.0,-0.33162812483914766,-0.35448130196708066,-0.5246191052133745,0.2243063562423138,1.051413455741429,-0.07668727450444472
12826,5.0,299.79167,4032.5794,0.0,0.0,0.0,0.0,0.12783429972208588,0.0,-0.36884608783977463,-0.3323049353759437,-0.5246524208766625,0.22267288562360277,1.093157333361229,-0.10945915888777791
12827,5.0,299.63582,3859.4371,0.0,0.0,0.0,0.0,0.1278442665316697,0.0,-0.3193330644157197,-0.3046704134111287,-0.5491690202962625,0.21458048263994478,1.0765970777018592,-0.08998100739868402
12828,5.0,300.59907999999996,3668.3021,0.0,0.0,0.0,0.0,0.12785423334125348,0.0,-0.3568106119594657,-0.2789761134002987,-0.47928552566929855,0.25617213969722175,1.0839324004757989,-0.14403814240045787
12829,5.0,300.04494,3675.4652,0.0,0.0,0.0,0.0,0.12786420015083733,0.0,-0.3334563218620767,-0.2963495225299207,-0.4874437899094566,0.24495498486267475,1.090953818368759,-0.11790718225903288
12830,5.0,299.91167,3682.7778,0.0,0.0,0.0,0.0,0.12787416696042114,0.0,-0.36789516275342565,-0.2895275426541437,-0.4620497766982625,0.25452955996011173,1.092113179133179,-0.13790059270222887
12831,5.0,300.38068,3675.5677,0.0,0.0,0.0,0.0,0.127884133770005,0.0,-0.3088518027312997,-0.2908426095614307,-0.5175863895817996,0.23579432243108778,1.090333000032489,-0.11401054661446489
12832,5.0,300.01361,3721.5929,0.0,0.0,0.0,0.0,0.1278941005795888,0.0,-0.31795292658701074,-0.3067090726123287,-0.5066093142259465,0.18984884115162182,1.072611053133469,-0.11449279286705888
12833,5.0,300.30323,3978.6084,0.0,0.0,0.0,0.0,0.1279040673891726,0.0,-0.3306112067737857,-0.3346523014851107,-0.5441341096218555,0.2141108817485988,1.044521531211249,-0.0960370603781199
12834,5.0,301.67569,3989.4426,0.0,0.0,0.0,0.0,0.12791403419875644,0.0,-0.38277783088473066,-0.3287999816900317,-0.5011131113110134,0.2030760207395428,1.064844997742019,-0.08317827319530642
12835,5.0,301.09929,3808.712,0.0,0.0,0.0,0.0,0.12792400100834025,0.0,-0.3564974062210547,-0.3145815800592847,-0.48667433791601755,0.2191662702075268,1.083109945369629,-0.089610887402156
12836,5.0,299.60867,3712.3148,0.0,0.0,0.0,0.0,0.12793396781792407,0.0,-0.35743570621115767,-0.2945527970550977,-0.4764624893006865,0.22862641897117078,1.074463274316269,-0.1007078586158418
12837,5.0,299.17537000000004,3819.3031,0.0,0.0,0.0,0.0,0.12794393462750792,0.0,-0.3253107232481687,-0.3187659382022487,-0.5168961230836755,0.22958422402569878,1.061508162512699,-0.1089925470842269
12838,5.0,299.54528999999997,3792.9755,0.0,0.0,0.0,0.0,0.1279539014370917,0.0,-0.3232909206313297,-0.31011653137361866,-0.5195623893968155,0.23494532017229777,1.085732337953439,-0.1120053246665649
12839,5.0,300.01203,3618.1973,0.0,0.0,0.0,0.0,0.12796386824667552,0.0,-0.3139828607076957,-0.28924030651579574,-0.4966184757224275,0.24534982816164275,1.064662714049029,-0.14263109264909288
12840,5.0,300.01097000000004,3464.2619,0.0,0.0,0.0,0.0,0.12797383505625937,0.0,-0.3375239130635167,-0.27821486873266976,-0.4373103331841696,0.23445870681177275,1.0872288070261291,-0.14732991839783088
12841,5.0,299.3848,3435.6983,0.0,0.0,0.0,0.0,0.12798380186584318,0.0,-0.3191033910155527,-0.2813864428706797,-0.44387664979471453,0.24256852756464978,1.084077092590079,-0.13963707032610587
12842,5.0,300.01538999999997,3749.1251,0.0,0.0,0.0,0.0,0.127993768675427,0.0,-0.3356771127687517,-0.3388931179236467,-0.46507020431885554,0.21590155812032477,1.087635221641239,-0.12761749233986588
12843,5.0,300.79463,3935.4392,0.0,0.0,0.0,0.0,0.12800373548501082,0.0,-0.3263243887807097,-0.3383472192997707,-0.5316036509351955,0.22128194654882777,1.076571341149319,-0.1080779166164599
12844,5.0,300.65598,3865.5155,0.0,0.0,0.0,0.0,0.12801370229459463,0.0,-0.29363892652490575,-0.34579449607725965,-0.5355867674757985,0.19489930521506382,1.059954343484349,-0.08449992825474363
12845,5.0,300.38038,3743.6992,0.0,0.0,0.0,0.0,0.12802366910417845,0.0,-0.3095270022004367,-0.3259660427503437,-0.5024980114151926,0.23211553555801978,1.045955584077779,-0.096603579654781
12846,5.0,300.4244,3888.0554,0.0,0.0,0.0,0.0,0.1280336359137623,0.0,-0.38098130805992764,-0.3003656912887857,-0.5005247676404485,0.23697578218018878,1.064987055406039,-0.07268973738841852
12847,5.0,299.65267,3885.3689,0.0,0.0,0.0,0.0,0.1280436027233461,0.0,-0.37172310004121367,-0.30370988271383176,-0.5056221553160215,0.23761249841052776,1.0831840139519389,-0.11087007925452491
12848,5.0,299.11649,3812.3632,0.0,0.0,0.0,0.0,0.1280535695329299,0.0,-0.36960241824441864,-0.2975357344219907,-0.4917250755569865,0.23620436448155577,1.060623595175399,-0.1081004614311849
12849,5.0,299.47457,3720.8674,0.0,0.0,0.0,0.0,0.12806353634251375,0.0,-0.3144098240348337,-0.2953764376638847,-0.5212645077098015,0.21786184242628978,1.058345099675529,-0.12656042930554187
12850,5.0,299.71772999999996,3683.5242,0.0,0.0,0.0,0.0,0.12807350315209756,0.0,-0.3238421185532287,-0.28226172883706374,-0.5135955318104325,0.2295018163950658,1.075241247743049,-0.1097924979056759
12851,5.0,299.48253,3705.9695,0.0,0.0,0.0,0.0,0.1280834699616814,0.0,-0.33175118406379267,-0.2993468885782377,-0.4954241172995535,0.21516132825976983,1.0539316862149588,-0.1258742867353249
12852,5.0,299.06765,3903.4508,0.0,0.0,0.0,0.0,0.12809343677126522,0.0,-0.39796357225344664,-0.3123396122255197,-0.4762483895545566,0.2148465418512028,1.071475098446359,-0.09059816587559281
12853,5.0,299.79671,3993.2579,0.0,0.0,0.0,0.0,0.128103403580849,0.0,-0.36585301797188163,-0.3288527314902377,-0.5191449404881165,0.1978090859247368,1.071178520142089,-0.11687136707930589
12854,5.0,301.46817999999996,3805.8626,0.0,0.0,0.0,0.0,0.12811337039043286,0.0,-0.3477111903639227,-0.3104890831703867,-0.49868693460906854,0.2535599809394218,1.0745448409493188,-0.10799634998340991
12855,5.0,300.72654,3663.1799,0.0,0.0,0.0,0.0,0.12812333720001667,0.0,-0.25652721292976477,-0.3167817614589257,-0.5402062354767045,0.2177188829696808,1.0717231420708389,-0.10565234786457489
12856,5.0,299.75372000000004,3701.2413,0.0,0.0,0.0,0.0,0.1281333040096005,0.0,-0.3115298936731067,-0.3161671239482657,-0.4973879074508646,0.25932238492062676,1.051588342708689,-0.11484191832151489
12857,5.0,300.86121,3640.2012,0.0,0.0,0.0,0.0,0.12814327081918434,0.0,-0.3095578354009797,-0.2819395659677687,-0.5150328574747856,0.2312065488933098,1.052540696477679,-0.1025942374727629
12858,5.0,301.14305,3463.138,0.0,0.0,0.0,0.0,0.12815323762876812,0.0,-0.3497170810568887,-0.2897021560438767,-0.41328823021087263,0.25711178730995776,1.084053382537739,-0.14312188060002987
12859,5.0,300.65667,3484.4414,0.0,0.0,0.0,0.0,0.12816320443835194,0.0,-0.2943314221732497,-0.2814678372512127,-0.48338392980627953,0.24722020678623477,1.0990811987458688,-0.12542071546056088
12860,5.0,299.89729,3829.5226,0.0,0.0,0.0,0.0,0.12817317124793579,0.0,-0.3660775339290397,-0.32182553807170766,-0.4761761752199295,0.2379977158335458,1.0957236932145091,-0.15199345264558586
12861,5.0,299.43431,4028.6372,0.0,0.0,0.0,0.0,0.1281831380575196,0.0,-0.3117241134522747,-0.34619868154214967,-0.5666823086021895,0.22936224119379078,1.085788877309019,-0.1140881007771189
12862,5.0,300.16561,3816.6383,0.0,0.0,0.0,0.0,0.12819310486710342,0.0,-0.36140854839574665,-0.30004205920684573,-0.4987121442715565,0.24684220370392876,1.0560713664511292,-0.10529794337709791
12863,5.0,300.60371000000004,3745.9590000000003,0.0,0.0,0.0,0.0,0.12820307167668724,0.0,-0.3349218766742157,-0.3116240144748957,-0.49213210825465753,0.23406514020793076,1.059827281921809,-0.06536776215804584
12864,5.0,299.4624,3761.1236,0.0,0.0,0.0,0.0,0.12821303848627105,0.0,-0.3812969253335766,-0.2875072638097577,-0.47448347000037255,0.2265714363108598,1.048678997696559,-0.08862546418965232
12865,5.0,298.65949,4005.5262,0.0,0.0,0.0,0.0,0.12822300529585487,0.0,-0.3506497777739387,-0.3334528464142337,-0.5334773124901114,0.2245629516976378,1.068172207095389,-0.09039564453835551
12866,5.0,299.22737,4081.8782,0.0,0.0,0.0,0.0,0.12823297210543871,0.0,-0.3692829708853917,-0.3302004250507447,-0.5413056523652086,0.24208338341676977,1.097984659487649,-0.1067147507269259
12867,5.0,299.54837000000003,3624.5623,0.0,0.0,0.0,0.0,0.12824293891502253,0.0,-0.2756105120006398,-0.3016851354365047,-0.5244807864422235,0.2293284391704548,1.090864247059919,-0.11700112388711188
12868,5.0,300.45222,3265.072,0.0,0.0,0.0,0.0,0.12825290572460632,0.0,-0.2989609010851437,-0.26226150935319575,-0.43127793858131863,0.22713304031128578,1.049976667099629,-0.13956993237447984
12869,5.0,300.84752000000003,3603.1435,0.0,0.0,0.0,0.0,0.12826287253419016,0.0,-0.34057822376745367,-0.28603354220181276,-0.4686538875375376,0.23284450820996377,1.0524604470697592,-0.13226730718126686
12870,5.0,300.99928,3910.5690000000004,0.0,0.0,0.0,0.0,0.12827283934377398,0.0,-0.4031097479213346,-0.3053252870832597,-0.4802802839549736,0.2389257718651378,1.069991902949979,-0.12940993176676588
12871,5.0,301.03126000000003,3840.6499,0.0,0.0,0.0,0.0,0.1282828061533578,0.0,-0.34697835722909764,-0.32166957861631573,-0.49881374285908353,0.25176642693741175,1.087508362728719,-0.13487633499625787
12872,5.0,301.12374,3690.172,0.0,0.0,0.0,0.0,0.12829277296294161,0.0,-0.32368271404749666,-0.3058258731626637,-0.4922115571949985,0.22311231192697079,1.0732845604749388,-0.14011942803621089
12873,5.0,300.02687000000003,3628.2785,0.0,0.0,0.0,0.0,0.12830273977252543,0.0,-0.27231454114785275,-0.29935712240424767,-0.5312343922012525,0.24865518171035578,1.081862735821539,-0.1019274378469549
12874,5.0,299.58611,3643.9655,0.0,0.0,0.0,0.0,0.12831270658210928,0.0,-0.33049258558457867,-0.2956318881465957,-0.48155005858279054,0.23892835565289278,1.079400436753529,-0.0956841220635376
12875,5.0,299.34354,3668.2697,0.0,0.0,0.0,0.0,0.1283226733916931,0.0,-0.3520976209743297,-0.2867921321541797,-0.4761726389770805,0.24145275681953177,1.097757387490219,-0.0912909128099616
12876,5.0,300.24942999999996,3620.5545,0.0,0.0,0.0,0.0,0.1283326402012769,0.0,-0.33367860866901466,-0.3103383115555067,-0.4565412526621136,0.21308896836024377,1.078701091534509,-0.0983385840130126
12877,5.0,300.67024,3435.7322,0.0,0.0,0.0,0.0,0.12834260701086073,0.0,-0.2864332187037577,-0.2841712189155157,-0.47377236094769154,0.2271499919854588,1.095030731471119,-0.13823652564038286
12878,5.0,300.41377,3541.353,0.0,0.0,0.0,0.0,0.12835257382044454,0.0,-0.29039169300192874,-0.28690927399824073,-0.4991819275479205,0.2251731917028638,1.115016988368609,-0.13112334781836688
12879,5.0,300.25264,3747.3798,0.0,0.0,0.0,0.0,0.12836254063002836,0.0,-0.3278632319725817,-0.28662164269235374,-0.5246250225939585,0.24112279192446676,1.092704005266489,-0.15333451955043884
12880,5.0,301.44176,3912.2523,0.0,0.0,0.0,0.0,0.12837250743961218,0.0,-0.38927509450096065,-0.2865272483130377,-0.5134246775785706,0.2331736422399468,1.0638143197402992,-0.11622019177003988
12881,5.0,301.22211,3875.5548,0.0,0.0,0.0,0.0,0.128382474249196,0.0,-0.37982878673368264,-0.30002247308241276,-0.4982206166480465,0.24469821715483378,1.049144586117509,-0.1064218809180219
12882,5.0,301.27943,3962.8657,0.0,0.0,0.0,0.0,0.12839244105877984,0.0,-0.3941686871839206,-0.3109989708857087,-0.4994445721063416,0.25086366162831575,1.042674781578989,-0.06803204959374053
12883,5.0,301.16477000000003,3928.9996,0.0,0.0,0.0,0.0,0.12840240786836365,0.0,-0.34156027589687465,-0.3126486839035227,-0.5401088114795894,0.24532352418904677,1.065704132501809,-0.08843784776138601
12884,5.0,300.53437,3911.5223,0.0,0.0,0.0,0.0,0.12841237467794747,0.0,-0.3227178973022767,-0.33529632324867065,-0.5309908676722185,0.2059327780714828,1.072357132658409,-0.10635134857856089
12885,5.0,300.3503,3816.5048,0.0,0.0,0.0,0.0,0.1284223414875313,0.0,-0.31066649313039574,-0.3279209163007747,-0.5215347617764735,0.2034281048842908,1.0715275848015389,-0.11212826230119789
12886,5.0,300.05191,3616.4173,0.0,0.0,0.0,0.0,0.1284323082971151,0.0,-0.3375414929527517,-0.3047944960183747,-0.45696456828889154,0.2125343253880048,1.0955585334482092,-0.11295706035299391
12887,5.0,298.85356,3495.7113,0.0,0.0,0.0,0.0,0.12844227510669895,0.0,-0.2985289221700107,-0.29684777813409474,-0.46723224698473254,0.2354417417937908,1.096207216162229,-0.11769049872514788
12888,5.0,299.63566000000003,3693.2241,0.0,0.0,0.0,0.0,0.12845224191628274,0.0,-0.3504787715545617,-0.31613911771550174,-0.4560300375891606,0.24244885259533877,1.083058674914569,-0.14542156315949087
12889,5.0,300.36671,3841.6501,0.0,0.0,0.0,0.0,0.12846220872586656,0.0,-0.3197782459796557,-0.3196215569841917,-0.5283659014331544,0.22625680188980776,1.077971247487479,-0.14612340097375687
12890,5.0,300.45474,3741.9213,0.0,0.0,0.0,0.0,0.1284721755354504,0.0,-0.3160439836636127,-0.3114022140280057,-0.5100044417335196,0.24001751845038477,1.079298706443489,-0.14949502107900986
12891,5.0,300.3489,3829.79,0.0,0.0,0.0,0.0,0.12848214234503422,0.0,-0.3149635145519787,-0.3349105586705987,-0.5142864670536225,0.2246176469380358,1.068988278725929,-0.1258711456600149
12892,5.0,299.42028999999997,3876.0264,0.0,0.0,0.0,0.0,0.12849210915461803,0.0,-0.37770276510886064,-0.2954573456843697,-0.5050551405600615,0.25034382379701176,1.084548456536599,-0.0979535884917665
12893,5.0,300.54277,3956.9288,0.0,0.0,0.0,0.0,0.12850207596420185,0.0,-0.38204785511518763,-0.31643556429725866,-0.5043241414079175,0.24623422324642577,1.072774186399569,-0.07555823626251734
12894,5.0,301.0369,3955.2070000000003,0.0,0.0,0.0,0.0,0.12851204277378567,0.0,-0.3841624675438836,-0.3190224019350597,-0.4990992970022655,0.25051117218352775,1.076069275724769,-0.06795973393410353
12895,5.0,301.37572,3827.3939,0.0,0.0,0.0,0.0,0.12852200958336948,0.0,-0.29646553966637074,-0.2999620428464487,-0.5670045829289955,0.23567372540418577,1.072892635336259,-0.07421088822029442
12896,5.0,300.18097,3636.991,0.0,0.0,0.0,0.0,0.12853197639295333,0.0,-0.2979530921381807,-0.3059590851533107,-0.5016422710432376,0.22999580621631877,1.068712978673759,-0.11836646826436088
12897,5.0,300.11644,3749.2012,0.0,0.0,0.0,0.0,0.12854194320253715,0.0,-0.3132799792458267,-0.2966336682554637,-0.5297498794797425,0.2200446060567118,1.0818004209403889,-0.12520873340713987
12898,5.0,300.2182,3883.1549,0.0,0.0,0.0,0.0,0.12855191001212093,0.0,-0.4035053612903786,-0.2765765851759837,-0.5003001807557835,0.20584431120525182,1.095465719739049,-0.11580917699947589
12899,5.0,300.98977,3796.2859999999996,0.0,0.0,0.0,0.0,0.12856187682170478,0.0,-0.3601694347159557,-0.3103696007185947,-0.48343710517152755,0.2264625423226128,1.106628290790709,-0.1164934349245069
12900,5.0,300.15025,3565.7856,0.0,0.0,0.0,0.0,0.12857184363128862,0.0,-0.35899541222258863,-0.27790708388229374,-0.44700729876118556,0.22082914534413978,1.084867832968119,-0.13378660477870988
12901,5.0,298.88267,3712.3918,0.0,0.0,0.0,0.0,0.12858181044087244,0.0,-0.3102700184987667,-0.3227111693216127,-0.4954932310888745,0.24507429506194978,1.0651914279512091,-0.12537668974371588
12902,5.0,300.06727,3847.8559,0.0,0.0,0.0,0.0,0.12859177725045626,0.0,-0.3432983747209117,-0.3120604922204727,-0.5142932558292925,0.21666567028573677,1.060274935815989,-0.11964811818334989
12903,5.0,299.61148,3883.3193,0.0,0.0,0.0,0.0,0.12860174406004005,0.0,-0.3347052134053327,-0.3200940456383227,-0.5256328214084205,0.23938960736341477,1.048864929089909,-0.1136203541334559
12904,5.0,299.38529,3868.9032,0.0,0.0,0.0,0.0,0.12861171086962386,0.0,-0.35950867406074366,-0.3389509542393547,-0.4775903481194976,0.2581459002295168,1.0580333226197591,-0.1156298823942809
12905,5.0,299.7349,3746.5187,0.0,0.0,0.0,0.0,0.1286216776792077,0.0,-0.3443042584926847,-0.3186645523972427,-0.47587932333813254,0.26185257174533677,1.071414303440359,-0.0985776755728591
12906,5.0,301.17762,3665.6036,0.0,0.0,0.0,0.0,0.12863164448879152,0.0,-0.33846827228921766,-0.29509260604587273,-0.4806910960755176,0.25805607560815175,1.0916074660082689,-0.1012140611405501
12907,5.0,300.45639,3698.4233,0.0,0.0,0.0,0.0,0.12864161129837537,0.0,-0.2946521259624007,-0.33081385679378567,-0.49876236094651255,0.2166273390344538,1.075367194730479,-0.13290767111196589
12908,5.0,301.12567,3668.0702,0.0,0.0,0.0,0.0,0.12865157810795916,0.0,-0.3000457474372097,-0.2975845629443097,-0.5173714285730845,0.2143448817266928,1.065832409964469,-0.09532294703889241
12909,5.0,300.24884,3626.9163,0.0,0.0,0.0,0.0,0.12866154491754297,0.0,-0.31218851637060774,-0.3089233888508647,-0.4813800656135135,0.2244907170980088,1.077706890536389,-0.13750893100857486
12910,5.0,299.92761,3791.1431,0.0,0.0,0.0,0.0,0.12867151172712682,0.0,-0.39600348046500067,-0.2891833314626727,-0.4672260357616196,0.22395065479470877,1.100184020154709,-0.08480713555256261
12911,5.0,299.52431,3924.5370000000003,0.0,0.0,0.0,0.0,0.12868147853671064,0.0,-0.4084578339366496,-0.28312126889689376,-0.5013821697425676,0.24574752882589276,1.0948819863564387,-0.0990715438041001
12912,5.0,299.77555,3910.7638,0.0,0.0,0.0,0.0,0.12869144534629445,0.0,-0.38683947430808363,-0.3160041831996847,-0.48593088592014455,0.21423686926603283,1.081252151311279,-0.08642864678034333
12913,5.0,299.33051,3815.1047,0.0,0.0,0.0,0.0,0.12870141215587827,0.0,-0.3407543468998357,-0.29599712427764174,-0.5229450944581625,0.24057931496832977,1.070833305833019,-0.1058226954713869
12914,5.0,300.22694,3941.2255,0.0,0.0,0.0,0.0,0.1287113789654621,0.0,-0.33238283404363167,-0.3136112613660217,-0.5520400340571094,0.2341238580512258,1.0633459955440792,-0.08352809981883162
12915,5.0,299.63937999999996,3711.9571,0.0,0.0,0.0,0.0,0.1287213457750459,0.0,-0.3301632894345797,-0.30765057447274774,-0.49052840692388455,0.23318381527095078,1.071053789054779,-0.11689771158190587
12916,5.0,300.24295,3661.3324,0.0,0.0,0.0,0.0,0.12873131258462975,0.0,-0.3246015191056757,-0.2942658952892827,-0.4940862117350125,0.2204914290858098,1.061726821884279,-0.1004209730620284
12917,5.0,299.22126000000003,3678.2656,0.0,0.0,0.0,0.0,0.12874127939421356,0.0,-0.3383071756558187,-0.32056680786998065,-0.4592269125821676,0.24509494509898777,1.085735073728709,-0.14876761896472085
12918,5.0,300.3968,3807.9841,0.0,0.0,0.0,0.0,0.12875124620379735,0.0,-0.3253596632279987,-0.31927252272224466,-0.5128999052192795,0.24370594133190376,1.118269521189609,-0.1097793256543759
12919,5.0,301.15936,3892.3582,0.0,0.0,0.0,0.0,0.1287612130133812,0.0,-0.3220105170099637,-0.34879208504059867,-0.5123770985651824,0.2201736029269428,1.082885206497449,-0.15833634760908086
12920,5.0,300.97583,3864.9451,0.0,0.0,0.0,0.0,0.12877117982296502,0.0,-0.3046483042939467,-0.3338821503491027,-0.5363163582103034,0.22278205318937677,1.0845479499115491,-0.1008046118413906
12921,5.0,300.59831,3942.79,0.0,0.0,0.0,0.0,0.12878114663254886,0.0,-0.34974428682207365,-0.3324529104205477,-0.5163125315560795,0.21006442694424482,1.0732144435680189,-0.12051457874136287
12922,5.0,300.58905,3981.1413,0.0,0.0,0.0,0.0,0.12879111344213268,0.0,-0.3741580818865276,-0.3150153321620927,-0.5209941320531175,0.24547376891387473,1.102561408864339,-0.06951175140377573
12923,5.0,300.09685,3854.1129,0.0,0.0,0.0,0.0,0.12880108025171647,0.0,-0.37320470473493667,-0.31469050444503466,-0.4836588853534155,0.22542640290285382,1.102165228075239,-0.12523544267977588
12924,5.0,300.41612000000003,3885.9832,0.0,0.0,0.0,0.0,0.12881104706130028,0.0,-0.3483522635696917,-0.3152416517044287,-0.5176479445253745,0.2271270520031948,1.103448002701839,-0.10141985020935991
12925,5.0,300.50281,3729.2056,0.0,0.0,0.0,0.0,0.12882101387088413,0.0,-0.3078918698515617,-0.3186230091431427,-0.5070704950089615,0.23134121996410079,1.0896702331420791,-0.14937242794941086
12926,5.0,299.46763,3779.776,0.0,0.0,0.0,0.0,0.12883098068046794,0.0,-0.3287661796666957,-0.3118791812475787,-0.5083121620790045,0.23017038920854876,1.087939905946309,-0.1064869619719449
12927,5.0,299.31971,3921.6363,0.0,0.0,0.0,0.0,0.1288409474900518,0.0,-0.3643947990904666,-0.3039010424776977,-0.5237836703734235,0.24517947042232974,1.072594131856799,-0.1028159872571479
12928,5.0,299.83047999999997,3816.3261,0.0,0.0,0.0,0.0,0.12885091429963558,0.0,-0.34984784098229366,-0.3185419997976477,-0.49167798982483957,0.24822311160271376,1.043878725347809,-0.1018860567128709
12929,5.0,300.81548,3825.3045,0.0,0.0,0.0,0.0,0.1288608811092194,0.0,-0.3476824849885897,-0.3145361459248007,-0.5005784293657445,0.24860396191780076,1.0638075309646289,-0.0890648307112644
12930,5.0,300.94276,4012.7911,0.0,0.0,0.0,0.0,0.12887084791880324,0.0,-0.36320714838325463,-0.3192984619248047,-0.5372826846981724,0.2510679632459788,1.091111986709369,-0.0963731321315376
12931,5.0,299.85206,4053.2957,0.0,0.0,0.0,0.0,0.12888081472838706,0.0,-0.37403097979398364,-0.34457209089161767,-0.5134976113207685,0.2340881612502028,1.0882402332759489,-0.1087709087573529
12932,5.0,300.22239,3854.0668,0.0,0.0,0.0,0.0,0.12889078153797087,0.0,-0.3638826315624197,-0.3006720069265167,-0.5069854427955676,0.21417802983272577,1.081571325092779,-0.13307242557822588
12933,5.0,301.25289,3920.9215,0.0,0.0,0.0,0.0,0.1289007483475547,0.0,-0.3473565832264257,-0.34235126958743967,-0.5021543676437775,0.2060592012864598,1.075508036494379,-0.11325502680990089
12934,5.0,300.69127000000003,3870.297,0.0,0.0,0.0,0.0,0.1289107151571385,0.0,-0.33923601188998764,-0.3228461038374297,-0.5143915309564915,0.2453116387653738,1.0999198658536389,-0.1282736021771189
12935,5.0,299.83835,3821.1147,0.0,0.0,0.0,0.0,0.12892068196672232,0.0,-0.3217214671539367,-0.3347631713110527,-0.5050388272334515,0.23038871420759577,1.071492222373049,-0.12257170949188588
12936,5.0,299.96538,3740.4049,0.0,0.0,0.0,0.0,0.12893064877630617,0.0,-0.3128776784261227,-0.31236412274543873,-0.5117479006505855,0.2210242669158968,1.072511551973649,-0.14941506551361886
12937,5.0,299.9435,3594.0141,0.0,0.0,0.0,0.0,0.12894061558588998,0.0,-0.29081527207373276,-0.32152295119434465,-0.4801523205998445,0.23299942401775275,1.073226197269179,-0.13450370213948187
12938,5.0,300.4111,3553.8195,0.0,0.0,0.0,0.0,0.12895058239547377,0.0,-0.3118035117301107,-0.29064350591678073,-0.47782538161269356,0.2508091994354408,1.084474995904349,-0.12860793418011487
12939,5.0,300.09001,3825.35,0.0,0.0,0.0,0.0,0.12896054920505762,0.0,-0.3471496775560057,-0.30759489637975274,-0.5080663273397426,0.25327454838625174,1.0955821421755387,-0.096721998193968
12940,5.0,298.86709,3879.1479,0.0,0.0,0.0,0.0,0.12897051601464143,0.0,-0.3742880413443536,-0.3103492546565867,-0.49452679314349457,0.23144926282226377,1.074154030385749,-0.09625433970306371
12941,5.0,299.25901,3893.6375,0.0,0.0,0.0,0.0,0.12898048282422528,0.0,-0.3363031797405397,-0.3192380418213417,-0.5280273441772415,0.24710496985236174,1.085982509403129,-0.08697260199052752
12942,5.0,300.23597,3959.2875,0.0,0.0,0.0,0.0,0.1289904496338091,0.0,-0.35767526893230067,-0.3350681089286477,-0.5107811587301755,0.2295823191155108,1.079046305843579,-0.09263212866257932
12943,5.0,299.61506,4018.4127,0.0,0.0,0.0,0.0,0.12900041644339288,0.0,-0.4102100473345796,-0.2830815697579757,-0.5282054938098235,0.2339363561202208,1.078173390882429,-0.1044917509350329
12944,5.0,300.17879,4001.9026,0.0,0.0,0.0,0.0,0.12901038325297673,0.0,-0.3940734822045246,-0.3090753054383577,-0.5133296651166935,0.18941407579871383,1.0683397986619292,-0.11973119455904889
12945,5.0,301.26401,3642.4432,0.0,0.0,0.0,0.0,0.12902035006256055,0.0,-0.3537012615100967,-0.2804161647074207,-0.47309433451077554,0.23895614910313576,1.0778340534239388,-0.11588455267441489
12946,5.0,301.32223,3605.0448,0.0,0.0,0.0,0.0,0.12903031687214436,0.0,-0.29494906903670676,-0.2731925426245047,-0.5277019895701315,0.25486129804285174,1.0949259614107791,-0.07688342351180313
12947,5.0,299.81714,3637.4739,0.0,0.0,0.0,0.0,0.1290402836817282,0.0,-0.3130327867514307,-0.29914412710072674,-0.49352434428956055,0.28121173828843776,1.0847244580789688,-0.1090811152754679
12948,5.0,300.34938999999997,3629.8399,0.0,0.0,0.0,0.0,0.129050250491312,0.0,-0.2928213248867147,-0.29031020742888675,-0.5202491703145955,0.23141971644934778,1.065326494189539,-0.09661955658235781
12949,5.0,299.44747,3786.3692,0.0,0.0,0.0,0.0,0.1290602173008958,0.0,-0.3520754814596447,-0.3300493697258367,-0.46883682984309255,0.23493699125647574,1.058228474589019,-0.13142117242025989
12950,5.0,299.72369,3921.9724,0.0,0.0,0.0,0.0,0.12907018411047966,0.0,-0.3243080109492087,-0.35665139997125267,-0.5112222467637075,0.2340355431725098,1.092262126897879,-0.1126282100330389
12951,5.0,299.30807000000004,3867.2694,0.0,0.0,0.0,0.0,0.12908015092006347,0.0,-0.37652504425262867,-0.32137442899468666,-0.4776538586357656,0.2259089632629788,1.096131425054749,-0.12012811502072189
12952,5.0,299.93402000000003,4059.2957,0.0,0.0,0.0,0.0,0.1290901177296473,0.0,-0.3577337233305697,-0.3537595639208506,-0.5224312348024485,0.2088314738250618,1.086761597405019,-0.10487889353324091
12953,5.0,300.10851,3866.0379,0.0,0.0,0.0,0.0,0.1291000845392311,0.0,-0.36038201458693564,-0.2992003827462787,-0.5155965791679205,0.23256342249972276,1.1019195149259888,-0.1134985006764299
12954,5.0,301.31212,3611.1868,0.0,0.0,0.0,0.0,0.12911005134881492,0.0,-0.29126861030097373,-0.3007114020904047,-0.5057306034742245,0.2340184293783208,1.106430605696199,-0.11358118188458988
12955,5.0,301.17581,3679.4856,0.0,0.0,0.0,0.0,0.12912001815839874,0.0,-0.3500722758794437,-0.2942147869542387,-0.47418469294338556,0.26086989140085376,1.0763806474804989,-0.14444189216780487
12956,5.0,300.72096,3843.2511,0.0,0.0,0.0,0.0,0.1291299849679826,0.0,-0.34535373228375965,-0.3241963102581847,-0.4987023258780875,0.23387324077149177,1.057388692906139,-0.13879760275075687
12957,5.0,300.13037,3629.2298,0.0,0.0,0.0,0.0,0.1291399517775664,0.0,-0.3458957096297487,-0.3012440778004757,-0.45605543976916757,0.24357544485152477,1.0924542391168388,-0.13111375233991987
12958,5.0,300.13871,3605.8533,0.0,0.0,0.0,0.0,0.1291499185871502,0.0,-0.28636440888946674,-0.30405465119285774,-0.5056703049607735,0.22429003278320278,1.1039799590043389,-0.08191612530099211
12959,5.0,299.84677,3789.8584,0.0,0.0,0.0,0.0,0.12915988539673404,0.0,-0.35816169990780766,-0.2975273548436637,-0.4963332559517785,0.2245253601189278,1.100568548567659,-0.08886549097934111
12960,5.0,300.07327000000004,4020.6265,0.0,0.0,0.0,0.0,0.12916985220631785,0.0,-0.35798672174803864,-0.32680586496322767,-0.5373774742450275,0.2170194465581518,1.070599346384929,-0.07508381128744523
12961,5.0,300.51944,4024.0895,0.0,0.0,0.0,0.0,0.1291798190159017,0.0,-0.4094275446798526,-0.3071302502813957,-0.5066649213914345,0.23044142347779775,1.0887508100013388,-0.1057234881540959
12962,5.0,300.35193,4087.2796,0.0,0.0,0.0,0.0,0.12918978582548551,0.0,-0.38056398074124065,-0.3338496047558907,-0.5280173433987545,0.24590864572429377,1.089859001635709,-0.11304002527118188
12963,5.0,299.07241,3915.3316,0.0,0.0,0.0,0.0,0.1291997526350693,0.0,-0.38202525963795764,-0.3249327606958667,-0.4832050101036215,0.23533763034601576,1.087552033808029,-0.10708321912579088
12964,5.0,298.87973999999997,3617.71,0.0,0.0,0.0,0.0,0.12920971944465315,0.0,-0.32229651698318973,-0.27825199421633373,-0.4991449945817755,0.24483907918373576,1.093800949824749,-0.14285480813867185
12965,5.0,298.52898999999996,3671.1954,0.0,0.0,0.0,0.0,0.12921968625423697,0.0,-0.3210409177242717,-0.28885319431509077,-0.5060576299439995,0.22534569753238876,1.0932167098170888,-0.10906567334394389
12966,5.0,300.2464,3568.2737,0.0,0.0,0.0,0.0,0.12922965306382078,0.0,-0.3148503345158087,-0.2834479407291337,-0.48636783989326854,0.22987027466142979,1.096374807728769,-0.12481193453547888
12967,5.0,300.62827000000004,3518.3261,0.0,0.0,0.0,0.0,0.12923961987340463,0.0,-0.2947412514411967,-0.3135855957409887,-0.46115644474759754,0.2226528030066208,1.072911583113129,-0.1088114387613529
12968,5.0,300.94358,3700.1241,0.0,0.0,0.0,0.0,0.12924958668298842,0.0,-0.3268590909909807,-0.3247226126251267,-0.4731636408176155,0.23195093307927475,1.075124521331529,-0.15626000563666184
12969,5.0,300.41975,3950.4661,0.0,0.0,0.0,0.0,0.12925955349257223,0.0,-0.3407745511068297,-0.3517050777530887,-0.5083634224015635,0.25096558445587475,1.0919553147675989,-0.09959563323282371
12970,5.0,300.21008,3909.9141,0.0,0.0,0.0,0.0,0.12926952030215608,0.0,-0.3286672256619297,-0.3376760626985327,-0.5221729573519585,0.23843800339949878,1.0821137178713092,-0.1204041851429679
12971,5.0,300.62282000000005,3999.2929,0.0,0.0,0.0,0.0,0.1292794871117399,0.0,-0.3571779353857177,-0.3418430638672837,-0.5166641698707836,0.2341633342751218,1.089066842707529,-0.08016372141204332
12972,5.0,299.83284,3907.6366,0.0,0.0,0.0,0.0,0.1292894539213237,0.0,-0.35668715756728164,-0.3068103773573267,-0.5243264177894885,0.23978341714728074,1.073916321912289,-0.12028496613620189
12973,5.0,299.01396,3664.7296,0.0,0.0,0.0,0.0,0.12929942073090753,0.0,-0.3491182198502857,-0.2663187856686178,-0.4985492845829835,0.25403282423108775,1.093291994299519,-0.1069409284142479
12974,5.0,298.63685,3678.1496,0.0,0.0,0.0,0.0,0.12930938754049134,0.0,-0.32895172602500766,-0.28000264720910967,-0.5091112516378685,0.23418301159206378,1.0949871617168188,-0.13659360139823887
12975,5.0,299.77015,3840.7763,0.0,0.0,0.0,0.0,0.12931935435007516,0.0,-0.36664601789764467,-0.28877432292730676,-0.5120797603233376,0.2195348601964038,1.1122219379677591,-0.10018180652167451
12976,5.0,300.95932,3693.3778,0.0,0.0,0.0,0.0,0.129329321159659,0.0,-0.33532838248183466,-0.27966085768537774,-0.5077053772566196,0.2155590086590178,1.086892813292969,-0.13875300961385587
12977,5.0,301.13614,3638.8559999999998,0.0,0.0,0.0,0.0,0.12933928796924282,0.0,-0.34994240761412665,-0.28014067213773175,-0.47603828201382054,0.2406282042856548,1.0808319564948092,-0.09809668879013941
12978,5.0,299.60311,3715.6764,0.0,0.0,0.0,0.0,0.1293492547788266,0.0,-0.3401163539743707,-0.2948172958612017,-0.4945392054572195,0.24774269933280077,1.070539260653999,-0.11793084164886788
12979,5.0,300.0972,3993.237,0.0,0.0,0.0,0.0,0.12935922158841046,0.0,-0.3671584184732147,-0.3377473651080697,-0.5089385431583235,0.2559235793151908,1.0838663365692789,-0.08031507260598052
12980,5.0,300.31182,4084.5032,0.0,0.0,0.0,0.0,0.12936918839799427,0.0,-0.3510538011188127,-0.36256659193503665,-0.5279665897012455,0.24245237870568676,1.077461177387139,-0.13521568258724886
12981,5.0,299.93653,4051.5243,0.0,0.0,0.0,0.0,0.1293791552075781,0.0,-0.37157051470865465,-0.33257562514015865,-0.5274161010544165,0.25324485002582076,1.083378963271179,-0.0994408724523
12982,5.0,299.81832,3745.0733,0.0,0.0,0.0,0.0,0.1293891220171619,0.0,-0.32400167504647565,-0.29893719103280375,-0.5154699026404185,0.2331153702266958,1.060518419815019,-0.1036089466529069
12983,5.0,298.37798,3631.1528,0.0,0.0,0.0,0.0,0.12939908882674572,0.0,-0.3381728896200657,-0.28157887932967174,-0.48402802249734656,0.2327527381484068,1.0819029618505092,-0.1122708367227689
12984,5.0,299.14828,4000.8169,0.0,0.0,0.0,0.0,0.12940905563632957,0.0,-0.35315773389145466,-0.32710742845798974,-0.5358832849850624,0.22083052336427578,1.0916725166646888,-0.12770212912071888
12985,5.0,300.13608999999997,3883.3013,0.0,0.0,0.0,0.0,0.12941902244591336,0.0,-0.36421910152312664,-0.3077217552922727,-0.5084857622186375,0.2235884685464638,1.0965225395933489,-0.15734998916673487
12986,5.0,300.0213,3446.0095,0.0,0.0,0.0,0.0,0.1294289892554972,0.0,-0.27878747662918174,-0.28993886139973774,-0.47877451324636555,0.2153112690095678,1.080744614336189,-0.13507884316124386
12987,5.0,300.17447000000004,3560.5331,0.0,0.0,0.0,0.0,0.12943895606508102,0.0,-0.3151081864012567,-0.3011212820208567,-0.4660836975988795,0.23942627688453377,1.103136630946109,-0.15420521549386987
12988,5.0,300.17602999999997,3994.6215,0.0,0.0,0.0,0.0,0.12944892287466483,0.0,-0.3157276165848897,-0.34922681999600363,-0.5493107334552485,0.2508176904712788,1.114823153624479,-0.10205956565999491
12989,5.0,300.10881,3978.363,0.0,0.0,0.0,0.0,0.12945888968424865,0.0,-0.39789104381128865,-0.3289651313238307,-0.4824668472732706,0.23572076047382776,1.094789679272329,-0.1286445834362319
12990,5.0,300.48859,3968.9479,0.0,0.0,0.0,0.0,0.12946885649383247,0.0,-0.34341035912196366,-0.33487971533755473,-0.5281709825114175,0.25156416195244974,1.045562240388959,-0.07103369257072963
12991,5.0,299.97652,3853.5809,0.0,0.0,0.0,0.0,0.12947882330341628,0.0,-0.34789754732231465,-0.3196541735049107,-0.5038406488577005,0.24895924793286478,1.073499166846119,-0.11196674010275688
12992,5.0,300.01137,3956.4621,0.0,0.0,0.0,0.0,0.12948879011300013,0.0,-0.3268578142958547,-0.3138656682011297,-0.5619422030443775,0.25566008362668574,1.086710934900019,-0.08010031627378572
12993,5.0,300.16065,4122.2388,0.0,0.0,0.0,0.0,0.12949875692258395,0.0,-0.38935700563904463,-0.3139157835510757,-0.5497848737070425,0.2240932089512778,1.079646859177849,-0.1055413665811219
12994,5.0,299.2615,3902.4572,0.0,0.0,0.0,0.0,0.12950872373216774,0.0,-0.3546320431844577,-0.28197681304144473,-0.5496406983503135,0.23046472823009775,1.0615148499633589,-0.07354243294382302
12995,5.0,298.99057,3498.616,0.0,0.0,0.0,0.0,0.12951869054175158,0.0,-0.36498727682143967,-0.24945480829177274,-0.44904982857776754,0.25282233486662176,1.0875060322534889,-0.0989643014135161
12996,5.0,299.05264,3632.4437,0.0,0.0,0.0,0.0,0.1295286573513354,0.0,-0.32845302459078973,-0.3037986231575897,-0.4719205349324305,0.25144852985103777,1.1114823667197689,-0.15104126099661186
12997,5.0,298.71211,4135.3562,0.0,0.0,0.0,0.0,0.12953862416091924,0.0,-0.4035635623761226,-0.3417173904573807,-0.5117640822546825,0.2034428274082438,1.0968968341802887,-0.13868563861470687
12998,5.0,299.52425,4137.7033,0.0,0.0,0.0,0.0,0.12954859097050303,0.0,-0.35590523246511163,-0.34943874125441865,-0.5524145211615684,0.20490712579025883,1.078435721333319,-0.12614616200215686
12999,5.0,299.76284,3609.6303,0.0,0.0,0.0,0.0,0.12955855778008685,0.0,-0.3133242278776937,-0.3141019479919487,-0.46981132312676754,0.2050389496282688,1.1153932081307387,-0.11910143935689688
13000,5.0,300.24345,3613.038,0.0,0.0,0.0,0.0,0.1295685245896707,0.0,-0.27953265115022474,-0.30753109202095574,-0.5112096014024595,0.25607032832717375,1.105057955785729,-0.1052633003561789
13001,5.0,299.92016,3880.8659,0.0,0.0,0.0,0.0,0.1295784913992545,0.0,-0.36151851642909966,-0.3302190080575787,-0.4879488038917975,0.23979735946865677,1.0787414188884887,-0.11269144697177991
13002,5.0,299.55701,3905.3779,0.0,0.0,0.0,0.0,0.12958845820883833,0.0,-0.3303231397703557,-0.3260631425074267,-0.5307510719035525,0.25170720246906675,1.0544308132142188,-0.1010889500844526
13003,5.0,299.95743,3771.6267,0.0,0.0,0.0,0.0,0.12959842501842214,0.0,-0.3449385327902827,-0.3258744246763017,-0.4756673818147155,0.24542804093686177,1.083414325699669,-0.13929004229935688
13004,5.0,299.91657000000004,3488.5999,0.0,0.0,0.0,0.0,0.12960839182800596,0.0,-0.28338634525555473,-0.28141957614894975,-0.49564132772349057,0.26251621003083275,1.124889286742929,-0.13285881219214388
13005,5.0,300.74823,3502.0509,0.0,0.0,0.0,0.0,0.12961835863758978,0.0,-0.2927995298770637,-0.2943866240386977,-0.4773498836057656,0.2166823078523788,1.1033946044215688,-0.15025477626899186
13006,5.0,300.39941,3913.2162,0.0,0.0,0.0,0.0,0.12962832544717362,0.0,-0.37369125730045566,-0.30429536901911475,-0.5115333854719145,0.21356785062250577,1.0895553305807388,-0.11317944848494191
13007,5.0,300.62346,4200.5494,0.0,0.0,0.0,0.0,0.12963829225675744,0.0,-0.42890006351164056,-0.32859841584763866,-0.5193636403897005,0.21640852767535879,1.109756497824439,-0.09507059000873672
13008,5.0,301.65013,3988.5890000000004,0.0,0.0,0.0,0.0,0.12964825906634123,0.0,-0.38832937752012564,-0.3117095327833357,-0.5123925708942094,0.24204658217313776,1.1005210271379688,-0.1256862173842639
13009,5.0,301.03039,3799.1788,0.0,0.0,0.0,0.0,0.12965822587592507,0.0,-0.3503963132614237,-0.3214258109072577,-0.4830333655366815,0.23370608490249475,1.1016935601536888,-0.11348759810535389
13010,5.0,299.2894,3899.9207,0.0,0.0,0.0,0.0,0.1296681926855089,0.0,-0.35990995149784666,-0.3106675367779987,-0.5149010336367755,0.24186608180032376,1.082520537786459,-0.08563690936420491
13011,5.0,299.05644,4074.7418,0.0,0.0,0.0,0.0,0.1296781594950927,0.0,-0.37490713715545365,-0.3131351655415347,-0.5505774480677634,0.24472171442465276,1.100216950782959,-0.07317945534724993
13012,5.0,298.94546,3723.5527,0.0,0.0,0.0,0.0,0.12968812630467655,0.0,-0.3192967292671337,-0.29077291821955276,-0.5217973860698926,0.25210730453605373,1.0995819469452888,-0.08312916906896022
13013,5.0,299.45514,3307.3528,0.0,0.0,0.0,0.0,0.12969809311426034,0.0,-0.28739779226895373,-0.26246511182828974,-0.45548975237083855,0.24300074965980678,1.071432339292139,-0.0952725084621645
13014,5.0,299.53788,3573.8309,0.0,0.0,0.0,0.0,0.12970805992384415,0.0,-0.3003874052384287,-0.2957774313909597,-0.49019050828053656,0.23368861647077077,1.053254531173129,-0.13076725120322288
13015,5.0,300.42278,4010.2662,0.0,0.0,0.0,0.0,0.129718026733428,0.0,-0.38344453931802963,-0.33343068663454667,-0.5021455625004085,0.2259635875758698,1.094293794673389,-0.15122288607703685
13016,5.0,301.08679,4076.7644,0.0,0.0,0.0,0.0,0.12972799354301182,0.0,-0.3422223132472127,-0.33515643393986466,-0.5618558234733524,0.21797952129290377,1.115565764622769,-0.14891048722882086
13017,5.0,301.16182000000003,3699.5701,0.0,0.0,0.0,0.0,0.12973796035259566,0.0,-0.33769933705332966,-0.3084222353514047,-0.4784553597298675,0.22074827785365878,1.100965641281849,-0.15779485662313983
13018,5.0,300.2893,3466.0658,0.0,0.0,0.0,0.0,0.12974792716217945,0.0,-0.27078644853954176,-0.2924496951475377,-0.4903613219823945,0.22394216375887077,1.092144184586239,-0.12777986566839086
13019,5.0,300.46351,3886.8442,0.0,0.0,0.0,0.0,0.12975789397176327,0.0,-0.3438324487161207,-0.3388026144247147,-0.4988685191594896,0.23699776970735878,1.076208293638489,-0.10805646611184289
13020,5.0,299.95583,4202.2458,0.0,0.0,0.0,0.0,0.1297678607813471,0.0,-0.3650327616184287,-0.35400345321992066,-0.5583415884165245,0.22708246899879478,1.083455564978739,-0.10692179825235991
13021,5.0,299.35289,3782.3443,0.0,0.0,0.0,0.0,0.12977782759093093,0.0,-0.3652749385248296,-0.32268149122618367,-0.46178179231181454,0.2299244734092788,1.080405276877699,-0.11411485057975888
13022,5.0,299.18387,3462.3557,0.0,0.0,0.0,0.0,0.12978779440051474,0.0,-0.26087483606134176,-0.3019297542756467,-0.4896650773086805,0.22897102533018077,1.068975106474629,-0.11478329167072888
13023,5.0,299.73516,3805.5435,0.0,0.0,0.0,0.0,0.12979776121009856,0.0,-0.34206404358159265,-0.30158911985702874,-0.5131370361401825,0.24311116352320378,1.1018584159449591,-0.09631378911293091
13024,5.0,299.62043,4229.8804,0.0,0.0,0.0,0.0,0.12980772801968238,0.0,-0.36451986455030966,-0.33739997231128466,-0.5838581947573174,0.23851971188756277,1.114949505911949,-0.08247372696352312
13025,5.0,300.86637,4260.5468,0.0,0.0,0.0,0.0,0.1298176948292662,0.0,-0.41017624531124364,-0.33539067709798265,-0.5495329392021785,0.22930480004562176,1.080893359450869,-0.0929124878724986
13026,5.0,300.84392,3887.0812,0.0,0.0,0.0,0.0,0.12982766163885004,0.0,-0.3243859197493977,-0.3148820796414417,-0.5423076249915955,0.23460541529375178,1.074866953156109,-0.08493815790974352
13027,5.0,300.59508999999997,3649.6977,0.0,0.0,0.0,0.0,0.12983762844843386,0.0,-0.36682272871508464,-0.2784929957526187,-0.4641012433807265,0.2671440677425667,1.080614816998379,-0.1150973890692279
13028,5.0,300.31678,4019.8063,0.0,0.0,0.0,0.0,0.12984759525801765,0.0,-0.33942460813110065,-0.3493090047116147,-0.5331871277939725,0.25480034091683573,1.1006071533964688,-0.1280526528603129
13029,5.0,299.83845,4061.3586,0.0,0.0,0.0,0.0,0.1298575620676015,0.0,-0.4319360242562666,-0.29661888493650473,-0.5059966930829856,0.23432998351906878,1.0972987904949592,-0.11324181402859688
13030,5.0,299.12186,3685.5868,0.0,0.0,0.0,0.0,0.1298675288771853,0.0,-0.32002532701654074,-0.3085499656590107,-0.4917510755545525,0.20989052282958182,1.0774805304640491,-0.1148265270524959
13031,5.0,299.89062,3323.205,0.0,0.0,0.0,0.0,0.12987749568676915,0.0,-0.30568212337097667,-0.2910066648851217,-0.4134825513150506,0.2157183523697438,1.096099102376559,-0.13177244596492788
13032,5.0,300.18639,3606.3299,0.0,0.0,0.0,0.0,0.12988746249635297,0.0,-0.28528717204565174,-0.2999620428464487,-0.5109850145177944,0.2389038755304768,1.102392804047699,-0.11566523469026989
13033,5.0,299.51062,4133.6485,0.0,0.0,0.0,0.0,0.12989742930593676,0.0,-0.37889285774881365,-0.36414205398552263,-0.5134909947976155,0.23331915508680778,1.066090586089949,-0.1248357560453299
13034,5.0,299.15823,4000.2718,0.0,0.0,0.0,0.0,0.12990739611552057,0.0,-0.3320892245621547,-0.34137675603876266,-0.5425167598122355,0.22695815334402578,1.0738021286260189,-0.14032425654392586
13035,5.0,299.80678,3452.8548,0.0,0.0,0.0,0.0,0.12991736292510442,0.0,-0.30307944863411274,-0.2974494257784727,-0.44905275687055657,0.25056624232646274,1.071730032171519,-0.12150712814181988
13036,5.0,300.75428,3533.1763,0.0,0.0,0.0,0.0,0.12992732973468823,0.0,-0.28065595034358576,-0.31168874089128373,-0.48165268055291854,0.26171689755694677,1.110568009829529,-0.13495172080369786
13037,5.0,300.44308,4103.1425,0.0,0.0,0.0,0.0,0.12993729654427208,0.0,-0.3896891591543256,-0.3204231290058007,-0.5371405865041484,0.23999991829614775,1.102518244410079,-0.1014407231614199
13038,5.0,299.93174,4112.9823,0.0,0.0,0.0,0.0,0.12994726335385587,0.0,-0.3947504751263386,-0.33495120013210966,-0.5205422427735195,0.22507772327844178,1.103845804691099,-0.1289496223788369
13039,5.0,300.6932,3823.3438,0.0,0.0,0.0,0.0,0.12995723016343969,0.0,-0.3657948979461456,-0.29897334379637175,-0.4974327944302945,0.2298033292273228,1.1027190705798988,-0.08846558953587391
13040,5.0,300.32451000000003,3517.7883,0.0,0.0,0.0,0.0,0.12996719697302353,0.0,-0.3156993671721017,-0.28355062349426774,-0.47006980322727754,0.24626378988434378,1.110453005943179,-0.16294471038889086
13041,5.0,299.86456,3758.3279,0.0,0.0,0.0,0.0,0.12997716378260735,0.0,-0.36141206437359363,-0.2842245969307837,-0.4968011647154575,0.24596955218780475,1.0774229778583688,-0.0975460947653
13042,5.0,300.53958,4143.7601,0.0,0.0,0.0,0.0,0.12998713059219116,0.0,-0.37416663371737163,-0.3358775640360347,-0.5495553826918935,0.22788721249321678,1.100825914093059,-0.14280726644397984
13043,5.0,300.08297999999996,4083.8088,0.0,0.0,0.0,0.0,0.12999709740177498,0.0,-0.38992968446306364,-0.32859852730514966,-0.5228476805935486,0.24158264534985074,1.101371245296879,-0.07403230896967002
13044,5.0,298.65123,3566.1352,0.0,0.0,0.0,0.0,0.1300070642113588,0.0,-0.30214790702217675,-0.29264394532420873,-0.48922420205766953,0.22947827859524278,1.110716957594229,-0.1241135620365549
13045,5.0,299.65302,3604.0661,0.0,0.0,0.0,0.0,0.13001703102094261,0.0,-0.32684599979968865,-0.2799600197774027,-0.48874009142489155,0.24560463016428977,1.0797325801363091,-0.06096127730165964
13046,5.0,299.53777,4061.7376,0.0,0.0,0.0,0.0,0.13002699783052646,0.0,-0.35119690243043566,-0.35561131900860465,-0.5278585873730864,0.24812588012311776,1.0686784268453489,-0.14521527557163186
13047,5.0,299.27341,4216.2046,0.0,0.0,0.0,0.0,0.13003696464011028,0.0,-0.39038191824769564,-0.3416369991944467,-0.5496019921964935,0.25982775354050275,1.083963000628819,-0.11237617420316488
13048,5.0,300.24023,3815.6278,0.0,0.0,0.0,0.0,0.13004693144969406,0.0,-0.30438740252569774,-0.3366394673162287,-0.5188286949994055,0.2279180456937598,1.085761316906299,-0.17709864904827585
13049,5.0,300.46509,3504.0879,0.0,0.0,0.0,0.0,0.1300568982592779,0.0,-0.3304699293123427,-0.27995516630942374,-0.45473010863836755,0.22546335613400076,1.0814229852781387,-0.11369536503835889
13050,5.0,300.53099,3481.7699,0.0,0.0,0.0,0.0,0.13006686506886173,0.0,-0.3210944781245577,-0.2679041775700838,-0.4693724541109546,0.2033413098807248,1.0937416746938988,-0.14304713314015285
13051,5.0,300.96197,3767.843,0.0,0.0,0.0,0.0,0.13007683187844557,0.0,-0.35842673573646466,-0.3004361729657417,-0.4864672903905835,0.2166815580473048,1.105420395346499,-0.10160970288059691
13052,5.0,300.37582000000003,3835.4841,0.0,0.0,0.0,0.0,0.1300867986880294,0.0,-0.3122025296194907,-0.3272872195557337,-0.5264016553192985,0.21789361794942577,1.105394962768989,-0.15527901741984584
13053,5.0,299.46762,3841.1702,0.0,0.0,0.0,0.0,0.13009676549761318,0.0,-0.3472292176888557,-0.32450895870904073,-0.4958816605147095,0.2337486211416928,1.060877211675429,-0.1049375505815299
13054,5.0,299.73854,3922.0989,0.0,0.0,0.0,0.0,0.130106732307197,0.0,-0.3173493436349417,-0.3355886560350217,-0.5392821311205025,0.24503926700599274,1.0622201733579688,-0.13788322559551489
13055,5.0,299.12133,4239.9259,0.0,0.0,0.0,0.0,0.13011669911678084,0.0,-0.4131052169778106,-0.3412858776372937,-0.5344404979026705,0.26421005009050175,1.0741980054400888,-0.06737660343530302
13056,5.0,300.1734,4291.6652,0.0,0.0,0.0,0.0,0.13012666592636465,0.0,-0.36840077455332565,-0.3515370302240037,-0.5846212632751264,0.24180601633439577,1.099654495652449,-0.08551972293713953
13057,5.0,301.19357,4001.4132,0.0,0.0,0.0,0.0,0.1301366327359485,0.0,-0.38727094659816663,-0.3022600636757457,-0.5267986771059815,0.21437765023492678,1.0834778564809389,-0.06444786380300893
13058,5.0,301.32899,3769.5928,0.0,0.0,0.0,0.0,0.1301465995455323,0.0,-0.3216288054322917,-0.28788190290173177,-0.5363513660012584,0.1940490870561538,1.091998681871879,-0.11334432454121389
13059,5.0,301.62506,3889.5071,0.0,0.0,0.0,0.0,0.1301565663551161,0.0,-0.36204275176583767,-0.3090845868092737,-0.5111857089651015,0.23885330421798578,1.094320747126049,-0.11981039018686489
13060,5.0,299.70632,3992.8177,0.0,0.0,0.0,0.0,0.13016653316469995,0.0,-0.3189874245416077,-0.33904632133876667,-0.5556831342616555,0.2151766688662838,1.104527620683389,-0.13703504406930586
13061,5.0,299.45182,3866.8059999999996,0.0,0.0,0.0,0.0,0.13017649997428377,0.0,-0.39490873465945764,-0.30019745124218167,-0.4803062738200385,0.22445579036706179,1.0777773114183389,-0.12661592501351887
13062,5.0,299.72087,3672.9899,0.0,0.0,0.0,0.0,0.13018646678386758,0.0,-0.3065133329580107,-0.3080920475413177,-0.5018918244103665,0.2101132554665638,1.078250904515079,-0.12752807301854088
13063,5.0,299.68998,3485.2794,0.0,0.0,0.0,0.0,0.1301964335934514,0.0,-0.3240732003710347,-0.26765765382075374,-0.46770705598159257,0.26382801427279773,1.123384610344429,-0.12516899373821788
13064,5.0,299.34627,3824.5625,0.0,0.0,0.0,0.0,0.13020640040303522,0.0,-0.2888756783348097,-0.36358090594764164,-0.5101149265244235,0.24725252946442478,1.114479763165589,-0.1257543483209879
13065,5.0,300.43505,4099.1578,0.0,0.0,0.0,0.0,0.13021636721261903,0.0,-0.36000333262706263,-0.3435068813264897,-0.5425314012761805,0.2245239213037858,1.070463165571489,-0.13239251449612388
13066,5.0,299.80192999999997,3984.7541,0.0,0.0,0.0,0.0,0.13022633402220288,0.0,-0.3376231609108117,-0.35480482259150964,-0.5188377635878005,0.2006558120806868,1.049315318759359,-0.13275908811730186
13067,5.0,299.60081,3705.7832,0.0,0.0,0.0,0.0,0.1302363008317867,0.0,-0.34802543974993666,-0.3054770719482397,-0.47296304769531855,0.23031715848553375,1.067235862677979,-0.12222103376477687
13068,5.0,299.79021,3599.9383,0.0,0.0,0.0,0.0,0.13024626764137048,0.0,-0.3202041757916917,-0.2820238582435877,-0.4920633187053685,0.2404459408576668,1.092814246877369,-0.11692417767451789
13069,5.0,300.7441,3889.1519,0.0,0.0,0.0,0.0,0.13025623445095433,0.0,-0.35734487847219365,-0.3115937993569137,-0.5132663876479485,0.24478579236097675,1.099390442676389,-0.1131394251059919
13070,5.0,299.91494,4102.4752,0.0,0.0,0.0,0.0,0.13026620126053814,0.0,-0.37799189602489563,-0.29852404843702973,-0.5705340876648305,0.24986798128504978,1.102909156298659,-0.11627553549050187
13071,5.0,299.52594,3979.7466,0.0,0.0,0.0,0.0,0.130276168070122,0.0,-0.36446898926278865,-0.3243169680800927,-0.5209576449170165,0.2504664675891157,1.121566637015009,-0.13350868040878086
13072,5.0,300.02043,3569.4614,0.0,0.0,0.0,0.0,0.1302861348797058,0.0,-0.3248061652283727,-0.2815943212611957,-0.4786266699242745,0.25699947866887374,1.083425066150729,-0.12357595179849688
13073,5.0,300.98463,3764.0561,0.0,0.0,0.0,0.0,0.1302961016892896,0.0,-0.3687192390597557,-0.28500723130802375,-0.4904526158164046,0.21737608019584878,1.0555013119448688,-0.10622428701602091
13074,5.0,300.49836,4073.39,0.0,0.0,0.0,0.0,0.1303060684988734,0.0,-0.37922677431926866,-0.3258130217202417,-0.5331690514121885,0.2115856902468818,1.0731926586908689,-0.1120685413403039
13075,5.0,300.26312,3968.4143,0.0,0.0,0.0,0.0,0.13031603530845726,0.0,-0.36559513568893065,-0.3218367243528117,-0.5188669755881835,0.2209882154773388,1.1087761783526888,-0.0945316716647996
13076,5.0,299.01031,3651.429,0.0,0.0,0.0,0.0,0.13032600211804107,0.0,-0.30817959234995773,-0.27973957708564673,-0.5220240906472665,0.24102706005501878,1.116761602390789,-0.100481500570002
13077,5.0,299.3444,3726.0629,0.0,0.0,0.0,0.0,0.13033596892762492,0.0,-0.3352469475712977,-0.32889399103430966,-0.46848912293877654,0.24529359278109278,1.0936600067358389,-0.11831856179963288
13078,5.0,299.76724,3892.6599,0.0,0.0,0.0,0.0,0.1303459357372087,0.0,-0.3666913709721207,-0.2961889629190747,-0.5203910759911005,0.27874879074036374,1.072847444381799,-0.11766641377027089
13079,5.0,300.24265,3961.578,0.0,0.0,0.0,0.0,0.13035590254679252,0.0,-0.3753521869968766,-0.3262864121669617,-0.5025821922335005,0.2846638205841317,1.106183170021779,-0.1131878989907759
13080,5.0,300.08836,3699.8448,0.0,0.0,0.0,0.0,0.13036586935637637,0.0,-0.3136878529410807,-0.3046747906515607,-0.5062977904827015,0.25986549710672774,1.096223428163829,-0.13235927989284388
13081,5.0,301.04458,3588.5784,0.0,0.0,0.0,0.0,0.13037583616596018,0.0,-0.32728429126294467,-0.27078551634944975,-0.4927684394499585,0.21117373315372479,1.075244692793389,-0.12394720663513688
13082,5.0,300.86585,3897.7171,0.0,0.0,0.0,0.0,0.130385802975544,0.0,-0.3439280589955567,-0.33859613431933666,-0.5022844790891186,0.2052708116486518,1.123842700714639,-0.15586764480043885
13083,5.0,300.44125,4102.4954,0.0,0.0,0.0,0.0,0.13039576978512782,0.0,-0.3971418162898456,-0.3214820057578037,-0.5284323402422115,0.2096776896460768,1.1513783801321988,-0.13883484982443287
13084,5.0,299.91532,3938.7726,0.0,0.0,0.0,0.0,0.13040573659471164,0.0,-0.3362502576878167,-0.33986611159717367,-0.5211721499631865,0.2160378199937728,1.086757544404619,-0.11858417518084689
13085,5.0,299.50662,3673.4812,0.0,0.0,0.0,0.0,0.13041570340429545,0.0,-0.3188061642312187,-0.3235274942646777,-0.47431290961103956,0.2022525422507718,1.0682750519805388,-0.1047630587818089
13086,5.0,298.79717999999997,3744.0175,0.0,0.0,0.0,0.0,0.13042567021387927,0.0,-0.29123510212016673,-0.3114600098137097,-0.5353927300816484,0.25782378802272676,1.079143679178189,-0.08361614517302102
13087,5.0,299.92568,4040.2667,0.0,0.0,0.0,0.0,0.1304356370234631,0.0,-0.34665173605936267,-0.35926449091914464,-0.5222239440969905,0.28086067752629074,1.112803239550129,-0.1029183660472519
13088,5.0,299.90156,4010.1309,0.0,0.0,0.0,0.0,0.1304456038330469,0.0,-0.3438759779404167,-0.3249839196934157,-0.5501197629975935,0.25960778707629373,1.086154052645059,-0.11344734167888088
13089,5.0,299.83655,3842.3216,0.0,0.0,0.0,0.0,0.13045557064263075,0.0,-0.37159316084838967,-0.3045561086673477,-0.4918205642464105,0.22827272375876378,1.065576462989209,-0.14416348143782787
13090,5.0,299.79976,3737.1498,0.0,0.0,0.0,0.0,0.13046553745221456,0.0,-0.34270239114459267,-0.2990116750476547,-0.4942861665097465,0.23472256727031376,1.076518550819109,-0.12885902768739588
13091,5.0,299.29091,3831.0326,0.0,0.0,0.0,0.0,0.13047550426179838,0.0,-0.3648084584437916,-0.29535420695669073,-0.5043755841154945,0.23526558826390578,1.103704760277179,-0.12879714850378887
13092,5.0,299.94988,4052.42,0.0,0.0,0.0,0.0,0.1304854710713822,0.0,-0.35748356201338066,-0.3155358083409597,-0.5588151308507595,0.23384061411827178,1.073158613487509,-0.08094447823684801
13093,5.0,300.82684,4092.1947,0.0,0.0,0.0,0.0,0.13049543788096601,0.0,-0.38406487129425165,-0.3421856943885987,-0.5176744308829885,0.21111663651058976,1.0824638971058689,-0.10559706493911891
13094,5.0,299.6805,3877.8312,0.0,0.0,0.0,0.0,0.13050540469054986,0.0,-0.33298257677782167,-0.3101448618464147,-0.5356363964656965,0.22847181727091279,1.092041643676119,-0.06986352549399313
13095,5.0,299.61912,3799.0865,0.0,0.0,0.0,0.0,0.13051537150013365,0.0,-0.3553251569153627,-0.3228119471765587,-0.47669031858567157,0.2533460027833037,1.1258588657636188,-0.13751555766422888
13096,5.0,300.22717,4012.8619,0.0,0.0,0.0,0.0,0.1305253383097175,0.0,-0.3372955467559787,-0.34992247698465967,-0.5325917926977175,0.23391143016776078,1.0862518312797091,-0.08453752793945442
13097,5.0,299.46648999999996,3950.8237,0.0,0.0,0.0,0.0,0.1305353051193013,0.0,-0.35504636115034766,-0.3285615335439987,-0.5173438580378635,0.21174761774536283,1.071144069638689,-0.11791139737944889
13098,5.0,299.53358,3804.4924,0.0,0.0,0.0,0.0,0.13054527192888513,0.0,-0.3060992176421407,-0.3278279202065967,-0.5225435535760335,0.2301896713579518,1.0652391520309188,-0.0990063847299194
13099,5.0,299.72352,3583.4573,0.0,0.0,0.0,0.0,0.13055523873846894,0.0,-0.3384690423592937,-0.2731473415375437,-0.4776651766393825,0.24383802861493978,1.108597947660099,-0.15784444508303386
13100,5.0,299.28176,3673.1865,0.0,0.0,0.0,0.0,0.13056520554805276,0.0,-0.31886332166935966,-0.3106638485476347,-0.4870298063160995,0.24040990968411075,1.091597130857249,-0.14924957137478584
13101,5.0,300.46507,3996.2464,0.0,0.0,0.0,0.0,0.13057517235763658,0.0,-0.40220204808425164,-0.3289545935227907,-0.48360248785284954,0.22409269219372677,1.094212126715329,-0.16403310311630684
13102,5.0,300.00447,4128.9627,0.0,0.0,0.0,0.0,0.13058513916722042,0.0,-0.36177347041926167,-0.34562509079304066,-0.5477029892565765,0.2429916000114038,1.096439655735169,-0.12443913955868688
13103,5.0,298.34628,3757.7956,0.0,0.0,0.0,0.0,0.13059510597680424,0.0,-0.34225435221537465,-0.3127710338530977,-0.48725065430789555,0.2381525708463288,1.120791095388469,-0.10831022446688689
13104,5.0,299.76628999999997,3782.1392,0.0,0.0,0.0,0.0,0.13060507278638803,0.0,-0.2946537572950617,-0.30147270755303973,-0.5535494119360734,0.24811731815977275,1.0672044519248791,-0.05937754409060735
13105,5.0,299.7452,4073.3548,0.0,0.0,0.0,0.0,0.13061503959597187,0.0,-0.38544822112577765,-0.3140744483842347,-0.5386754678881295,0.22028313526275276,1.060232176661769,-0.07848915235602621
13106,5.0,298.68928999999997,4304.3092,0.0,0.0,0.0,0.0,0.1306250064055557,0.0,-0.39747216621994863,-0.34453677912563263,-0.5663935627211925,0.23177100012651677,1.0687155117990093,-0.09095325329363722
13107,5.0,299.52324,4084.4145,0.0,0.0,0.0,0.0,0.13063497321513953,0.0,-0.41880183063002263,-0.3153173212218967,-0.5074408581855135,0.2315511856498228,1.1226961069014791,-0.1092439546990389
13108,5.0,301.12167,3663.1215,0.0,0.0,0.0,0.0,0.13064494002472332,0.0,-0.3104637012553817,-0.30321904410038975,-0.4998147326328735,0.23042206026838677,1.1095789764069188,-0.13065077810422787
13109,5.0,300.77265,3691.1494,0.0,0.0,0.0,0.0,0.13065490683430714,0.0,-0.31996561618814773,-0.30916915266261974,-0.4928824706162125,0.24065195486799876,1.114889521506029,-0.12130870337473688
13110,5.0,301.676,4067.1908,0.0,0.0,0.0,0.0,0.13066487364389098,0.0,-0.34683336113978763,-0.32538738575073467,-0.5641036884226995,0.27766753129365174,1.082407459075299,-0.098429871767522
13111,5.0,300.04537,4130.359,0.0,0.0,0.0,0.0,0.1306748404534748,0.0,-0.37489787604953967,-0.35022249020676866,-0.5304056346794606,0.2577268503856598,1.093659094810749,-0.14429274175308487
13112,5.0,300.26802000000004,3698.0929,0.0,0.0,0.0,0.0,0.13068480726305862,0.0,-0.3494636570743777,-0.30292702542156974,-0.4717372075918375,0.26216103547327974,1.041082053746799,-0.14555823033297888
13113,5.0,299.86748,3653.0776,0.0,0.0,0.0,0.0,0.13069477407264243,0.0,-0.34659008992327867,-0.29435022809510575,-0.46950405503394255,0.22770746192547678,1.064333914391579,-0.14812908901670285
13114,5.0,299.60867,3913.285,0.0,0.0,0.0,0.0,0.13070474088222625,0.0,-0.3537275756151937,-0.31935600439798373,-0.5164573452603715,0.22655665299190075,1.107626240814199,-0.13997005470646887
13115,5.0,299.70267,4155.0548,0.0,0.0,0.0,0.0,0.13071470769181007,0.0,-0.36471983959004567,-0.3153125792114287,-0.5830004886801684,0.2156607187040558,1.145628692439749,-0.10636520983992889
13116,5.0,300.33417000000003,3919.2046,0.0,0.0,0.0,0.0,0.1307246745013939,0.0,-0.3210238748575897,-0.33006569318494766,-0.5402507576860985,0.2224899331855468,1.0956165926789387,-0.08959224056056572
13117,5.0,299.90316,3538.792,0.0,0.0,0.0,0.0,0.13073464131097773,0.0,-0.2962292193455477,-0.2901617865542387,-0.48931341872897455,0.22462387842615078,1.071686563742229,-0.07842542500423683
13118,5.0,300.72402,3776.2403,0.0,0.0,0.0,0.0,0.13074460812056152,0.0,-0.3417285970034867,-0.3248991917200537,-0.4812549596236665,0.2711891141292817,1.0764014191075488,-0.11671672484904388
13119,5.0,300.19299,4215.380999999999,0.0,0.0,0.0,0.0,0.13075457493014536,0.0,-0.41732621424439054,-0.3451220729133967,-0.5189222787786415,0.24771253487732375,1.099554690517599,-0.1235068785391799
13120,5.0,299.98175,4260.7781,0.0,0.0,0.0,0.0,0.13076454173972918,0.0,-0.39723169157371563,-0.36356269784334466,-0.5343757816187834,0.23365022442448175,1.098093279898369,-0.14891869455463086
13121,5.0,300.28072000000003,3754.2279,0.0,0.0,0.0,0.0,0.130774508549313,0.0,-0.3328226352495367,-0.3049452980307577,-0.5034235951165404,0.2098989024079088,1.1080643701574389,-0.11941227409007388
13122,5.0,299.20077000000003,3546.8479,0.0,0.0,0.0,0.0,0.13078447535889684,0.0,-0.2925046842304647,-0.27867476268805774,-0.5069737600219145,0.2402140687047828,1.128777431351659,-0.13290840065203788
13123,5.0,299.93017000000003,3977.9862,0.0,0.0,0.0,0.0,0.13079444216848063,0.0,-0.38277541934949266,-0.3081915689661397,-0.5182414963014536,0.25018975911930674,1.112720760991989,-0.09519433216394911
13124,5.0,301.27182,4226.0955,0.0,0.0,0.0,0.0,0.13080440897806445,0.0,-0.4044871905047776,-0.3481333711505887,-0.5320069447399974,0.2362618664247308,1.0648654653940388,-0.13821841886109587
13125,5.0,301.51432,3813.6486,0.0,0.0,0.0,0.0,0.1308143757876483,0.0,-0.36854836456289164,-0.3041498460397527,-0.4865557167268105,0.23163564004565776,1.0830131799850788,-0.0988129704845809
13126,5.0,300.07384,3501.2472,0.0,0.0,0.0,0.0,0.1308243425972321,0.0,-0.2731776478480347,-0.3010344464872867,-0.4900796283220935,0.23411140520749676,1.118381384000649,-0.12887168318114486
13127,5.0,299.69692000000003,3958.046,0.0,0.0,0.0,0.0,0.13083430940681595,0.0,-0.3328803499752327,-0.33813770957659367,-0.5321290920395525,0.25393524824645775,1.1498715759084888,-0.11513908431084288
13128,5.0,300.50302,4292.0786,0.0,0.0,0.0,0.0,0.13084427621639974,0.0,-0.3445708445939947,-0.3643419884952547,-0.5957718982406085,0.2117090635790578,1.0984276524313688,-0.11070852665858089
13129,5.0,299.52881,4089.1945,0.0,0.0,0.0,0.0,0.13085424302598356,0.0,-0.35814081682324667,-0.35368837296882466,-0.5311838411537635,0.21939765600036282,1.0736374754847688,-0.1109841002882779
13130,5.0,300.20937000000004,3666.5244,0.0,0.0,0.0,0.0,0.1308642098355674,0.0,-0.31645287060896665,-0.3202588406345867,-0.47782017350717954,0.2208207961633158,1.0756900162123388,-0.1151577078476809
13131,5.0,299.83092999999997,3594.0739,0.0,0.0,0.0,0.0,0.13087417664515122,0.0,-0.3472401303924327,-0.3144601521673007,-0.4308084390149826,0.22942400891988676,1.099574246244529,-0.13579068175399686
13132,5.0,300.06759,4014.2889,0.0,0.0,0.0,0.0,0.13088414345473504,0.0,-0.35836345826771965,-0.3336173475679687,-0.5282627728379765,0.22723413227376277,1.0741571714610592,-0.12542332964581887
13133,5.0,300.40376000000003,4224.6278,0.0,0.0,0.0,0.0,0.13089411026431885,0.0,-0.4075636711209026,-0.3185831073542047,-0.5580346040337275,0.23465773952891578,1.088460007222639,-0.1077255690266859
13134,5.0,301.16778999999997,3785.4064,0.0,0.0,0.0,0.0,0.13090407707390267,0.0,-0.3107312499442867,-0.3111382218469517,-0.5287995522109525,0.23762646099690576,1.143054631885709,-0.10906898667177091
13135,5.0,300.49683,3480.5837,0.0,0.0,0.0,0.0,0.1309140438834865,0.0,-0.3134488779049957,-0.26443468763767175,-0.48012696908234254,0.27779464351869676,1.124079193287979,-0.1010420497770739
13136,5.0,301.10844,4024.6083,0.0,0.0,0.0,0.0,0.13092401069307033,0.0,-0.35143007154344763,-0.3333151457256437,-0.5386352215941574,0.2189871579873498,1.0797108965841689,-0.11185715710444188
13137,5.0,300.05734,4201.5152,0.0,0.0,0.0,0.0,0.13093397750265415,0.0,-0.4110644096863986,-0.33807925517832466,-0.5280120441007314,0.21161945174021382,1.044160510200619,-0.09479666898995281
13138,5.0,299.36787000000004,4037.8485,0.0,0.0,0.0,0.0,0.13094394431223794,0.0,-0.34643341106031567,-0.33048777264660373,-0.5504839149510324,0.2011915478060598,1.0969995777404289,-0.12217063470480288
13139,5.0,299.3853,3676.2077,0.0,0.0,0.0,0.0,0.13095391112182178,0.0,-0.3246360709340857,-0.30874089237535374,-0.48409837245178955,0.22128397304902778,1.139142473249609,-0.12086895283133689
13140,5.0,300.39967,3524.4041,0.0,0.0,0.0,0.0,0.1309638779314056,0.0,-0.28689415630674875,-0.28597211898075076,-0.49846456674212253,0.22759376513175578,1.090290443528289,-0.13054192464598488
13141,5.0,300.31459,3798.675,0.0,0.0,0.0,0.0,0.13097384474098941,0.0,-0.3547052809016857,-0.3024314549301607,-0.49756562138590354,0.24277227189475778,1.074516064646479,-0.12091790294366789
13142,5.0,299.52167000000003,4062.6578,0.0,0.0,0.0,0.0,0.13098381155057326,0.0,-0.3849698353560646,-0.3238873297726907,-0.5260893716384785,0.24264621344981674,1.081017482588119,-0.11694627665919889
13143,5.0,299.90283999999997,3903.125,0.0,0.0,0.0,0.0,0.13099377836015705,0.0,-0.3771789857346677,-0.3143393524903787,-0.49493422100870454,0.25440931757074475,1.086084239713169,-0.12012199499011789
13144,5.0,300.90987,3710.8747,0.0,0.0,0.0,0.0,0.13100374516974087,0.0,-0.3045671024309327,-0.3261791089813717,-0.4972670267139345,0.2246016781164598,1.0794975061131091,-0.13789518194669487
13145,5.0,300.76467,4104.4295,0.0,0.0,0.0,0.0,0.1310137119793247,0.0,-0.36417381937615767,-0.34630852798549067,-0.5371617330337355,0.22150926920876277,1.070656392365559,-0.1123617961842459
13146,5.0,301.27157,4346.6912,0.0,0.0,0.0,0.0,0.13102367878890853,0.0,-0.3722921007673696,-0.3533300877334647,-0.5956634095524015,0.2070258621468618,1.111893239635319,-0.11159133094070689
13147,5.0,300.36666,3898.9672,0.0,0.0,0.0,0.0,0.13103364559849237,0.0,-0.3521814370226017,-0.32246325741964565,-0.5105439771467676,0.21941438475951378,1.1267567066772288,-0.1010194188360904
13148,5.0,300.96198,3542.3337,0.0,0.0,0.0,0.0,0.13104361240807616,0.0,-0.32481747309948866,-0.27302662292062974,-0.47893689670739154,0.23302148247242976,1.0899670140963689,-0.09758824394295981
13149,5.0,300.46062,3767.3262,0.0,0.0,0.0,0.0,0.13105357921765998,0.0,-0.3497636297664827,-0.3096239905000087,-0.48578546426579255,0.23745183747467177,1.069137935765699,-0.09970342277846171
13150,5.0,300.15724,4038.6617,0.0,0.0,0.0,0.0,0.13106354602724382,0.0,-0.36051792182284864,-0.3364024681178387,-0.5307319012116606,0.26337611486069873,1.103537270035649,-0.12944177821740888
13151,5.0,299.49194,4213.6179,0.0,0.0,0.0,0.0,0.13107351283682764,0.0,-0.3949222108857876,-0.32722321254691666,-0.5586892041283315,0.25889913008885473,1.112323769602809,-0.10149506376428291
13152,5.0,299.83662000000004,4016.3419,0.0,0.0,0.0,0.0,0.13108347964641145,0.0,-0.35997432327669965,-0.34273568654287867,-0.5181576295906765,0.23876136190391178,1.084406398872579,-0.13875912964445988
13153,5.0,299.04691,3630.4889,0.0,0.0,0.0,0.0,0.13109344645599527,0.0,-0.34422577213993866,-0.26952607687265273,-0.4898261131470736,0.2322609876098748,1.066259292231599,-0.0947226085136436
13154,5.0,300.75712999999996,4078.5446,0.0,0.0,0.0,0.0,0.1311034132655791,0.0,-0.39103686284733363,-0.3324957911647797,-0.5162430428642215,0.23191394945062477,1.117474727811169,-0.12457921125251088
13155,5.0,300.01932,4419.2072,0.0,0.0,0.0,0.0,0.1311133800751629,0.0,-0.4125466527276846,-0.3659923297281306,-0.5647896486078985,0.24204995629597076,1.107298961031899,-0.09495850529592481
13156,5.0,300.22466000000003,3915.8855,0.0,0.0,0.0,0.0,0.13112334688474675,0.0,-0.33781780625502167,-0.3060288474226957,-0.5464847586613465,0.22577072555183578,1.0976370133783389,-0.1205864789684589
13157,5.0,300.45808999999997,3640.1055,0.0,0.0,0.0,0.0,0.13113331369433057,0.0,-0.29368880882732873,-0.3197806271173907,-0.4930317527534456,0.2338961199587498,1.0926876919398791,-0.12360032046340189
13158,5.0,299.99595,3609.8990000000003,0.0,0.0,0.0,0.0,0.13114328050391436,0.0,-0.2982513017751117,-0.29661779062639676,-0.5024500745529615,0.2697407035088347,1.109534089427489,-0.15226716189509887
13159,5.0,300.50456,3921.7751,0.0,0.0,0.0,0.0,0.1311532473134982,0.0,-0.36237212897584464,-0.32939454671621066,-0.5003550279836966,0.23761478835575378,1.118795499316519,-0.13132890586615387
13160,5.0,301.35328,4019.9872,0.0,0.0,0.0,0.0,0.13116321412308202,0.0,-0.36616606159027665,-0.3439291026431597,-0.5118805553536775,0.21402651854527283,1.091580412230599,-0.13996099625057484
13161,5.0,299.11216,3873.8518,0.0,0.0,0.0,0.0,0.13117318093266583,0.0,-0.3371655265031467,-0.3238655550280417,-0.5165231254568635,0.19220140523380183,1.077256602191949,-0.13676361463251788
13162,5.0,299.1819,3795.5687,0.0,0.0,0.0,0.0,0.13118314774224968,0.0,-0.3085300552945457,-0.3401669860818677,-0.5050610680731465,0.2209244719135478,1.121372903595889,-0.14045358778668984
13163,5.0,299.22781000000003,3902.6956,0.0,0.0,0.0,0.0,0.13119311455183347,0.0,-0.3394872877822867,-0.3255565985174347,-0.5212781257911455,0.25207612683047675,1.091216756769709,-0.13146868371744885
13164,5.0,299.73921,4152.812,0.0,0.0,0.0,0.0,0.13120308136141728,0.0,-0.37780830523927666,-0.3290314992053807,-0.5555113478397015,0.2308150797171748,1.0785342092430388,-0.09012182180483132
13165,5.0,299.68647000000004,4031.1856,0.0,0.0,0.0,0.0,0.13121304817100113,0.0,-0.38759430510257964,-0.3172296180031257,-0.5205558304573605,0.25644537271918777,1.087657715793459,-0.07616272404692563
13166,5.0,299.09031,3642.9465,0.0,0.0,0.0,0.0,0.13122301498058495,0.0,-0.3327931091416227,-0.27542999136282376,-0.4991416913864496,0.26844699591365573,1.124367665591449,-0.08229659564729162
13167,5.0,299.8688,3734.6561,0.0,0.0,0.0,0.0,0.1312329817901688,0.0,-0.3274520753470037,-0.3023486926619927,-0.5054414320281855,0.2602239343296028,1.1316652954616688,-0.11383455520459589
13168,5.0,301.02782,4055.6041,0.0,0.0,0.0,0.0,0.13124294859975258,0.0,-0.3619794438995897,-0.3400644654367497,-0.5307584686292824,0.22663109647674776,1.080753936237109,-0.1099046444267439
13169,5.0,299.9475,3923.8171,0.0,0.0,0.0,0.0,0.1312529154093364,0.0,-0.3608963403376957,-0.2929415064810757,-0.5389045840007415,0.2246937014905418,1.0636753018265792,-0.13414857824443388
13170,5.0,300.87602999999996,3973.6135,0.0,0.0,0.0,0.0,0.13126288221892024,0.0,-0.3558058326303017,-0.34248165461030766,-0.5095917854977936,0.18513280028368484,1.090788557277449,-0.13159050677697187
13171,5.0,299.595,3821.3737,0.0,0.0,0.0,0.0,0.13127284902850406,0.0,-0.38315636085708865,-0.2988999540916287,-0.47954586001749155,0.2355723902616848,1.095495914592029,-0.12390530874350189
13172,5.0,299.28253,3883.8844,0.0,0.0,0.0,0.0,0.13128281583808787,0.0,-0.35941284086628567,-0.30728543966671173,-0.5139055964735335,0.19684630581221782,1.1116401297603389,-0.08259955033444093
13173,5.0,300.05758,4062.0714,0.0,0.0,0.0,0.0,0.1312927826476717,0.0,-0.3568461973029776,-0.3299920805651827,-0.5479299775439784,0.24198164297422878,1.1115467081011188,-0.12610675670576788
13174,5.0,299.33667,3990.7009,0.0,0.0,0.0,0.0,0.1313027494572555,0.0,-0.3193656809364387,-0.3348922897712957,-0.5588154652232925,0.25055294848515075,1.1264521236971687,-0.10001143561011021
13175,5.0,298.01576,3681.485,0.0,0.0,0.0,0.0,0.13131271626683932,0.0,-0.2995650818547717,-0.3347236342921507,-0.4847907870401255,0.25685932591504174,1.112719443766859,-0.14256072242964787
13176,5.0,299.96214,3610.1809999999996,0.0,0.0,0.0,0.0,0.13132268307642317,0.0,-0.3020012492027027,-0.2870367712583237,-0.5083668573194026,0.26466974139586974,1.062675629277919,-0.11101291712112189
13177,5.0,299.17584,3827.8673,0.0,0.0,0.0,0.0,0.13133264988600699,0.0,-0.3613180448968147,-0.3179394503606807,-0.4843185820960225,0.2223844639826378,1.066724880652549,-0.13180883177601888
13178,5.0,299.74612,4013.9929,0.0,0.0,0.0,0.0,0.13134261669559077,0.0,-0.3619926161508897,-0.3106373824550227,-0.5475236338563755,0.20971116742938078,1.0948012303234689,-0.1129071679180699
13179,5.0,300.87997,3957.9637,0.0,0.0,0.0,0.0,0.13135258350517462,0.0,-0.34450735434272867,-0.3330579321877587,-0.5255568377834215,0.1954826130326318,1.118924587379259,-0.12899480320079587
13180,5.0,301.2869,3884.7016,0.0,0.0,0.0,0.0,0.13136255031475844,0.0,-0.3306455356871737,-0.3173004137876127,-0.5329063561912625,0.2123368125460118,1.106968236199259,-0.10436114299714291
13181,5.0,299.7544,4046.8231,0.0,0.0,0.0,0.0,0.13137251712434228,0.0,-0.35934578397466765,-0.32853975879934966,-0.5422476507181765,0.24244175984463878,1.0866336239173888,-0.1131755981345619
13182,5.0,300.69392999999997,4248.2217,0.0,0.0,0.0,0.0,0.1313824839339261,0.0,-0.4057389191483136,-0.3499739196922367,-0.5356404798635994,0.2600237566398467,1.089897099839469,-0.09400431045150309
13183,5.0,299.54721,4077.0234,0.0,0.0,0.0,0.0,0.1313924507435099,0.0,-0.4003005930790926,-0.30352552185813675,-0.5354872055209725,0.24370096627391274,1.091111986709369,-0.08833057902629941
13184,5.0,300.17582000000004,3874.6672,0.0,0.0,0.0,0.0,0.1314024175530937,0.0,-0.36964674793629365,-0.3020854604185137,-0.5060698902702095,0.24724320756350476,1.082454777854969,-0.0912777334659109
13185,5.0,300.07551,3727.0219,0.0,0.0,0.0,0.0,0.13141238436267755,0.0,-0.34049061816380766,-0.28305394856024974,-0.5093770372715996,0.2191677596851738,1.1144074171084488,-0.1020110715102089
13186,5.0,301.70316,3933.6371,0.0,0.0,0.0,0.0,0.13142235117226136,0.0,-0.34423232786808566,-0.3212285108477857,-0.5302666066332395,0.2346551253436578,1.117709396534329,-0.12275261516473987
13187,5.0,300.63289,4042.2555,0.0,0.0,0.0,0.0,0.13143231798184518,0.0,-0.34724834785074365,-0.3363871680413287,-0.5451092209880914,0.2046869668085308,1.1170893887981388,-0.1378675708814699
13188,5.0,301.2517,3817.5936,0.0,0.0,0.0,0.0,0.131442284791429,0.0,-0.35830608804705766,-0.3113739544827167,-0.4907730865580325,0.2176012446330708,1.0800692831445389,-0.10906849017922189
13189,5.0,299.45679,3631.2322,0.0,0.0,0.0,0.0,0.13145225160101282,0.0,-0.32770255077172367,-0.3174726764371137,-0.45862869985562854,0.2119116933340558,1.079587381396979,-0.11994276117992889
13190,5.0,300.41776,3705.8871,0.0,0.0,0.0,0.0,0.13146221841059666,0.0,-0.3299061974867067,-0.3055144203469257,-0.4910765245654795,0.24906120115792676,1.102215991905249,-0.12859768008910288
13191,5.0,299.38164,3848.1269,0.0,0.0,0.0,0.0,0.13147218522018048,0.0,-0.3509843428244577,-0.2988379431855087,-0.5199122139938406,0.21693312778213278,1.116802942994869,-0.11138145644749389
13192,5.0,300.08952,3870.8594,0.0,0.0,0.0,0.0,0.1314821520297643,0.0,-0.3414574816742297,-0.31416745461091367,-0.5210196659556375,0.24375162877891274,1.1170283911421188,-0.14344273637669586
13193,5.0,299.85514,3803.0044,0.0,0.0,0.0,0.0,0.1314921188393481,0.0,-0.3246584637612957,-0.3074339010713637,-0.5239260218799725,0.2141590921883568,1.108494089524849,-0.12821217895605688
13194,5.0,299.63899,3805.195,0.0,0.0,0.0,0.0,0.13150208564893193,0.0,-0.36405441798437366,-0.2975178910877297,-0.4951119552087455,0.25673505079027675,1.0983234903210888,-0.12144872440605589
13195,5.0,299.90792000000005,4029.6503,0.0,0.0,0.0,0.0,0.13151205245851574,0.0,-0.36187091468137866,-0.34452272534674566,-0.5185194206713825,0.21748403186150278,1.079144996403319,-0.11172958891685188
13196,5.0,300.08078,3961.1896,0.0,0.0,0.0,0.0,0.13152201926809956,0.0,-0.3664961075453496,-0.3085346757150017,-0.5290719442353354,0.24073161659086076,1.0673040544097092,-0.09229754233380821
13197,5.0,300.12905,3892.683,0.0,0.0,0.0,0.0,0.1315319860776834,0.0,-0.3522637129307217,-0.31593435000279274,-0.5150803789044756,0.25099361095364076,1.1132270820669592,-0.09878836674565272
13198,5.0,300.34578999999997,3854.4014,0.0,0.0,0.0,0.0,0.1315419528872672,0.0,-0.3321686329724917,-0.3306780711478847,-0.5087950669441635,0.26511520666983374,1.139611810695929,-0.12288569543287388
13199,5.0,300.49237,3798.1565,0.0,0.0,0.0,0.0,0.13155191969685104,0.0,-0.3354647456802927,-0.2952056442270287,-0.5238743359923714,0.26398860428114673,1.139412605726269,-0.12785725771102888
13200,5.0,300.70248,4063.008,0.0,0.0,0.0,0.0,0.13156188650643486,0.0,-0.39397646350744964,-0.32702967164531566,-0.5140468536699746,0.21819239500641277,1.088126039989679,-0.1026419311549699
13201,5.0,299.90708,3998.5011,0.0,0.0,0.0,0.0,0.13157185331601867,0.0,-0.3842126335563346,-0.31299173998987967,-0.5182401182813176,0.2286137634774218,1.1072304653251388,-0.11896439728087188
13202,5.0,299.33896,3732.6306,0.0,0.0,0.0,0.0,0.1315818201256025,0.0,-0.32730658276514474,-0.3040691508017887,-0.5032507549144826,0.22575050107983977,1.0998549165222289,-0.1017975594491369
13203,5.0,300.22446,3799.5748,0.0,0.0,0.0,0.0,0.1315917869351863,0.0,-0.3424268479123987,-0.3193481111797047,-0.49320090472513956,0.24010650207416678,1.118676847729809,-0.13840632609214085
13204,5.0,299.04922,3950.9722,0.0,0.0,0.0,0.0,0.13160175374477012,0.0,-0.3285936434396677,-0.3379714352351837,-0.5344318244818145,0.2205159193407268,1.088802181781409,-0.13002064799953889
13205,5.0,300.60542000000004,4091.5391,0.0,0.0,0.0,0.0,0.13161172055435394,0.0,-0.37393365712187865,-0.35848384251210064,-0.5113082109021915,0.22235779524000576,1.112757440645609,-0.16581791276995383
13206,5.0,300.66008999999997,3962.7306,0.0,0.0,0.0,0.0,0.13162168736393778,0.0,-0.34955635932602663,-0.3390025084044427,-0.5160122954189486,0.22880808458159976,1.102445695702919,-0.12747300287560587
13207,5.0,299.857,3742.6822,0.0,0.0,0.0,0.0,0.1316316541735216,0.0,-0.3409607054152017,-0.2981473017848477,-0.4985739369579165,0.24885453866753077,1.095871019779049,-0.11580593459915589
13208,5.0,300.26011,3827.2702,0.0,0.0,0.0,0.0,0.13164162098310542,0.0,-0.32862711109047066,-0.3317585503920197,-0.5030089225131156,0.22718377374379278,1.087773935579929,-0.1078935253632619
13209,5.0,300.42489,3991.7241,0.0,0.0,0.0,0.0,0.13165158779268923,0.0,-0.35216527568350664,-0.3273010706846007,-0.5339180965486134,0.2402157304349468,1.084159165848179,-0.1105035258983489
13210,5.0,299.69435,4122.5582,0.0,0.0,0.0,0.0,0.13166155460227305,0.0,-0.36233174082685865,-0.3340764714532807,-0.5567465402416055,0.2272033902657288,1.096675337708429,-0.12498062041212689
13211,5.0,300.31262999999996,4075.055,0.0,0.0,0.0,0.0,0.13167152141185687,0.0,-0.37499038578366967,-0.3474047835336827,-0.5163197965592965,0.2244949524834268,1.1025551267137188,-0.12550286977866887
13212,5.0,298.43894,3760.2191,0.0,0.0,0.0,0.0,0.1316814882214407,0.0,-0.3380750299254077,-0.3016690652899187,-0.5032686286462466,0.2316899401185168,1.0974306143329688,-0.1158633960123269
13213,5.0,299.04931,3954.9763,0.0,0.0,0.0,0.0,0.13169145503102453,0.0,-0.36097960923091366,-0.3158764022295737,-0.5253580381138014,0.24773666036220476,1.113702499013879,-0.1026408773748659
13214,5.0,298.66542999999996,4058.7978,0.0,0.0,0.0,0.0,0.13170142184060832,0.0,-0.36845312918599266,-0.3202269739189417,-0.5450930799139985,0.25350336052383377,1.119391695675359,-0.08521420472723722
13215,5.0,299.40704,3803.0336,0.0,0.0,0.0,0.0,0.13171138865019216,0.0,-0.34449616806162464,-0.29340873636718773,-0.5181223684871965,0.23718341739068077,1.1002798736141688,-0.10880064764778791
13216,5.0,300.78184,3869.2669,0.0,0.0,0.0,0.0,0.13172135545977598,0.0,-0.33285994311821865,-0.3082549882898987,-0.5350455905973885,0.24249270605966677,1.0763761891800592,-0.11505429554247489
13217,5.0,300.94437999999997,3949.0663,0.0,0.0,0.0,0.0,0.13173132226935982,0.0,-0.3599212492364617,-0.31975695759505474,-0.5207393503154725,0.2323019735764198,1.087690241121669,-0.11353929412545588
13218,5.0,299.66811,4037.6001,0.0,0.0,0.0,0.0,0.1317412890789436,0.0,-0.34073810450073266,-0.34374565371255467,-0.5428458330472125,0.24908386756266376,1.104332266064109,-0.1063938240227529
13219,5.0,300.67326,4077.9963,0.0,0.0,0.0,0.0,0.13175125588852743,0.0,-0.37356293930779166,-0.3241164560178037,-0.5419296523067925,0.2202529910722778,1.1038603954925388,-0.0988474706372358
13220,5.0,299.15587999999997,3804.1420000000003,0.0,0.0,0.0,0.0,0.13176122269811127,0.0,-0.34852989644472265,-0.3169150646420817,-0.49091922761995554,0.25401804091212876,1.104146334670759,-0.1044073168041999
13221,5.0,299.28612999999996,3702.3745,0.0,0.0,0.0,0.0,0.1317711895076951,0.0,-0.3143560204545237,-0.3143362519450727,-0.49673711717663654,0.2245417849030488,1.115936208859329,-0.11755493599426887
13222,5.0,300.51232999999996,4049.0038,0.0,0.0,0.0,0.0,0.1317811563172789,0.0,-0.3662733343783637,-0.3369169053261097,-0.5276058017381385,0.24556432307531176,1.117614151024929,-0.14694183347702985
13223,5.0,300.55818999999997,4337.8771,0.0,0.0,0.0,0.0,0.13179112312686272,0.0,-0.4088339118437656,-0.3589248292206227,-0.5508475704119224,0.2061753197479198,1.106477113875789,-0.12295948030515588
13224,5.0,300.34913,3942.1651,0.0,0.0,0.0,0.0,0.13180108993644654,0.0,-0.36090382825593464,-0.3076716500748277,-0.5297442762066895,0.22805968792523879,1.103887043970169,-0.15660425735813685
13225,5.0,301.43436,3562.9329,0.0,0.0,0.0,0.0,0.13181105674603036,0.0,-0.31152309476493567,-0.3020877807612427,-0.46943174950680655,0.22851859902802976,1.1255160832547888,-0.14026517393059487
13226,5.0,300.76707999999996,3826.0734,0.0,0.0,0.0,0.0,0.1318210235556142,0.0,-0.34947213797771465,-0.3095358580063107,-0.5040227906956765,0.23283534842905979,1.1239705728772589,-0.12137975247174888
13227,5.0,301.36721,4223.1431,0.0,0.0,0.0,0.0,0.13183099036519802,0.0,-0.3738723757558306,-0.3459722606748037,-0.5638854242186584,0.2299502302268208,1.095762399368329,-0.12670127106944187
13228,5.0,300.58707999999996,4141.1387,0.0,0.0,0.0,0.0,0.1318409571747818,0.0,-0.39126507716735665,-0.35332612592557366,-0.5142115676062304,0.23288987141694079,1.0896038652605289,-0.12481856119113288
13229,5.0,300.8269,3952.2145,0.0,0.0,0.0,0.0,0.13185092398436565,0.0,-0.36354227072132866,-0.3101839429027717,-0.5276483075798335,0.24188875833756174,1.085849874965039,-0.11339722632893488
13230,5.0,300.22177999999997,3842.5029999999997,0.0,0.0,0.0,0.0,0.13186089079394947,0.0,-0.3311204966715487,-0.3295379520028637,-0.5073665160256765,0.2628142271502448,1.088189165470909,-0.10877777859303091
13231,5.0,300.80234,3903.651,0.0,0.0,0.0,0.0,0.1318708576035333,0.0,-0.3742874536592956,-0.29535466291923573,-0.5169703132559975,0.2518852102466348,1.100207020931979,-0.1000706489327041
13232,5.0,299.63941,4318.3084,0.0,0.0,0.0,0.0,0.13188082441311713,0.0,-0.4056051802676146,-0.3212881000861667,-0.5857646450854694,0.24310247996984677,1.1134757336414989,-0.08343228486287542
13233,5.0,299.1931,4196.3554,0.0,0.0,0.0,0.0,0.13189079122270092,0.0,-0.3838030677334136,-0.34739400255261865,-0.5443901883196285,0.24665974775842178,1.1173541510492688,-0.12368027602879289
13234,5.0,299.81012000000004,3695.0088,0.0,0.0,0.0,0.0,0.13190075803228474,0.0,-0.34134100857523464,-0.2770694806871287,-0.5047799215678995,0.23165505391757377,1.114256949468599,-0.1141469908729309
13235,5.0,300.22263,3837.6808,0.0,0.0,0.0,0.0,0.13191072484186858,0.0,-0.34712438683350966,-0.3221121459949937,-0.49732261361442054,0.2407134490165678,1.0791881608575788,-0.15180418765940687
13236,5.0,300.1071,4018.3454,0.0,0.0,0.0,0.0,0.1319206916514524,0.0,-0.36846737548239866,-0.3410455144485717,-0.5119637735843905,0.22495443100627377,1.0886049019869388,-0.11713431561275688
13237,5.0,299.98969,3801.5086,0.0,0.0,0.0,0.0,0.13193065846103624,0.0,-0.35905869982383465,-0.31685106776576566,-0.4796539231406566,0.24700506339250175,1.130626308809129,-0.11983568090936088
13238,5.0,300.78646000000003,3646.4857,0.0,0.0,0.0,0.0,0.13194062527062003,0.0,-0.2891873540655697,-0.3334320849196847,-0.48582117119931656,0.22723336220368678,1.125229637451519,-0.13515647838390588
13239,5.0,300.58117999999996,3788.6552,0.0,0.0,0.0,0.0,0.13195059208020385,0.0,-0.3305896042816537,-0.3225655247522387,-0.4985014591782635,0.23279595326517175,1.126537743330619,-0.12416501487663288
13240,5.0,301.21161,3915.0339,0.0,0.0,0.0,0.0,0.1319605588897877,0.0,-0.3421063771707707,-0.31283806034721273,-0.5351280995530315,0.21704535536320882,1.095352843677909,-0.11499803989692288
13241,5.0,300.17922999999996,4001.1131,0.0,0.0,0.0,0.0,0.1319705256993715,0.0,-0.3704817369462007,-0.3426192235763847,-0.5031375140833065,0.23855353417590075,1.084830849339469,-0.13067512650413088
13242,5.0,300.75416,3975.7518,0.0,0.0,0.0,0.0,0.13198049250895533,0.0,-0.35872775207617263,-0.3088158931477557,-0.5409856274536246,0.1957155592306218,1.075383001432039,-0.1145742379100969
13243,5.0,300.21412000000004,3760.2576,0.0,0.0,0.0,0.0,0.13199045931853914,0.0,-0.36227407676366763,-0.2858441758906237,-0.4949061539809345,0.24486499812129375,1.1065931310122388,-0.1103822803913829
13244,5.0,299.82953,3899.6364,0.0,0.0,0.0,0.0,0.13200042612812296,0.0,-0.32761320237790564,-0.3146767546411777,-0.5431021447925085,0.23838844533710776,1.120870128896269,-0.12333757457997088
13245,5.0,299.95077000000003,4198.5037,0.0,0.0,0.0,0.0,0.13201039293770678,0.0,-0.41174245638831664,-0.3077922673667317,-0.5567055745400624,0.26780198116499776,1.140790220562229,-0.09846659499089631
13246,5.0,300.27655,4249.3061,0.0,0.0,0.0,0.0,0.13202035974729062,0.0,-0.38351459542994365,-0.37018253432417164,-0.5379858093400655,0.24198540213209976,1.117986216461649,-0.1254208978455789
13247,5.0,300.00036,3701.4599,0.0,0.0,0.0,0.0,0.13203032655687444,0.0,-0.33274967110983567,-0.3047458296160717,-0.48765587328788756,0.2193526372984198,1.087220802350339,-0.13027817564495486
13248,5.0,300.3988,3768.8498,0.0,0.0,0.0,0.0,0.13204029336645823,0.0,-0.3365647603863557,-0.3124394984203777,-0.49663198234626055,0.2129879473252738,1.0747645135709991,-0.1071430211466929
13249,5.0,300.5185,3983.7424,0.0,0.0,0.0,0.0,0.13205026017604207,0.0,-0.35656170707240065,-0.3211248148325517,-0.5332716936473185,0.23662719374828575,1.088217029848659,-0.08632375614324142
13250,5.0,299.40061000000003,3826.5126,0.0,0.0,0.0,0.0,0.1320602269856259,0.0,-0.3131261982781497,-0.31097261625060774,-0.5390654779841204,0.24369638638346078,1.1365007275888888,-0.08298587726631843
13251,5.0,300.44268,3743.9416,0.0,0.0,0.0,0.0,0.1320701937952097,0.0,-0.3182524838465747,-0.3111227495179247,-0.5086895268137475,0.21074206834612277,1.1163525533254188,-0.1180598486515999
13252,5.0,300.66237,3819.1141,0.0,0.0,0.0,0.0,0.13208016060479355,0.0,-0.3619842365725627,-0.2946049693027467,-0.5043261071131115,0.21000582055846082,1.1083556795611889,-0.1098712071734439
13253,5.0,300.47773,3872.5969,0.0,0.0,0.0,0.0,0.13209012741437734,0.0,-0.35448692550513566,-0.2985686821039347,-0.5241171512463355,0.22887813056101275,1.102028236661719,-0.1262735072747249
13254,5.0,300.6595,3967.4028,0.0,0.0,0.0,0.0,0.13210009422396116,0.0,-0.3713087314128186,-0.32779151413050367,-0.5068911193437585,0.25734955657842373,1.1075212681038387,-0.12554980352330086
13255,5.0,300.06801,4122.4642,0.0,0.0,0.0,0.0,0.132110061033545,0.0,-0.34686166121508066,-0.3422287372528467,-0.5640357905334985,0.23087668532325478,1.0904030156143991,-0.11999056631964689
13256,5.0,299.36066,3946.9693,0.0,0.0,0.0,0.0,0.13212002784312882,0.0,-0.3518849803083437,-0.3251438916192037,-0.5227512191840286,0.2263717652461538,1.098389452902599,-0.1128826573981509
13257,5.0,299.30316,3860.5601,0.0,0.0,0.0,0.0,0.13212999465271266,0.0,-0.3469719230909627,-0.3262627527771267,-0.5002791963462125,0.2295098312033568,1.115691002335129,-0.12796027484869588
13258,5.0,299.91354,4000.3014,0.0,0.0,0.0,0.0,0.13213996146229645,0.0,-0.36992726622647865,-0.3232656603063367,-0.5227988216737265,0.2318982136765718,1.1188590300977888,-0.12731272697478788
13259,5.0,299.02918999999997,3977.4465,0.0,0.0,0.0,0.0,0.13214992827188027,0.0,-0.3568105005019546,-0.3459883814838947,-0.5062455371750445,0.2227697422006618,1.0967701779177887,-0.11641648871191289
13260,5.0,300.02198,3807.0159999999996,0.0,0.0,0.0,0.0,0.1321598950814641,0.0,-0.3369230152242127,-0.3151549276283697,-0.5051598700903974,0.2309903415869718,1.102489873407279,-0.11739584559606789
13261,5.0,300.50807000000003,3875.9093,0.0,0.0,0.0,0.0,0.13216986189104793,0.0,-0.3186154908274007,-0.3092627364418557,-0.5503014083430204,0.2568150975481768,1.1007929834648091,-0.07751963210384202
13262,5.0,300.21729,4002.6873,0.0,0.0,0.0,0.0,0.13217982870063175,0.0,-0.35564068299650264,-0.3354548158293127,-0.5256215034048035,0.26864906838109875,1.114743816141649,-0.11277684369020789
13263,5.0,299.42127999999997,3954.7116,0.0,0.0,0.0,0.0,0.13218979551021556,0.0,-0.3736102580874616,-0.3066293399619597,-0.5218939893344264,0.2347359117741308,1.109570465106079,-0.1116248897840189
13264,5.0,300.62919,4117.0685,0.0,0.0,0.0,0.0,0.13219976231979938,0.0,-0.3782705701998986,-0.3425069453328037,-0.5307084951343505,0.22012628414727278,1.129173206840719,-0.15442873846592983
13265,5.0,300.689,3963.4018,0.0,0.0,0.0,0.0,0.1322097291293832,0.0,-0.3786955678218426,-0.30926566473464473,-0.5168139383680644,0.2140803626555868,1.116358734151029,-0.1099296210417089
13266,5.0,300.7605,3771.5729,0.0,0.0,0.0,0.0,0.13221969593896704,0.0,-0.3280074883893187,-0.3034650510921687,-0.5149914459431986,0.23278944819952976,1.1407604310092887,-0.13169743506002488
13267,5.0,300.53112999999996,3910.6421,0.0,0.0,0.0,0.0,0.13222966274855086,0.0,-0.3167066694940147,-0.3321145152846507,-0.5399163547555954,0.24949547001828573,1.102860520293859,-0.1236332814891549
13268,5.0,298.90398,4020.2641,0.0,0.0,0.0,0.0,0.13223962955813465,0.0,-0.3692145258411366,-0.3189658625794797,-0.5338795221173065,0.2507373802683528,1.094805485973889,-0.08900626080248401
13269,5.0,299.6552,4046.7766,0.0,0.0,0.0,0.0,0.1322495963677185,0.0,-0.38251335234362865,-0.3419904512268297,-0.5056152246853375,0.24894052307101677,1.098135431102529,-0.11018784782969389
13270,5.0,299.31184,3796.7129,0.0,0.0,0.0,0.0,0.1322595631773023,0.0,-0.3433237870334197,-0.31758740674593666,-0.4931947340320305,0.24285771927569078,1.108717511171899,-0.13742328097762185
13271,5.0,299.5635,3874.6727,0.0,0.0,0.0,0.0,0.13226952998688613,0.0,-0.35602227298416267,-0.3363678960244267,-0.4854135710815896,0.25638634076836175,1.106993668776769,-0.13548115411344888
13272,5.0,300.21752000000004,4064.1716,0.0,0.0,0.0,0.0,0.13227949679646997,0.0,-0.3377789582461877,-0.3464668584461167,-0.5511608673428425,0.2364004385084068,1.113557300274549,-0.1164136921416369
13273,5.0,300.1349,3911.5688,0.0,0.0,0.0,0.0,0.13228946360605376,0.0,-0.31577831961989367,-0.34575321626818567,-0.5274877074389835,0.25476560670340775,1.116848843224399,-0.13895110000840585
13274,5.0,300.21541,3812.4917,0.0,0.0,0.0,0.0,0.13229943041563758,0.0,-0.34638309306034964,-0.3031158648427067,-0.5094033209791935,0.2192416256174638,1.118867136098589,-0.12282922700480088
13275,5.0,301.03155,3813.487,0.0,0.0,0.0,0.0,0.13230939722522142,0.0,-0.35504808367551766,-0.31772328358434665,-0.48643347823474653,0.2703539832643607,1.112884400883139,-0.14244613397583888
13276,5.0,300.24034,3758.5001,0.0,0.0,0.0,0.0,0.13231936403480524,0.0,-0.33980398923354266,-0.3155927529965797,-0.4870934485548805,0.23124449510955478,1.1236114770418189,-0.14377093821658685
13277,5.0,299.78094,3903.7386,0.0,0.0,0.0,0.0,0.13232933084438908,0.0,-0.37170599637952567,-0.3043969270766377,-0.5105361345909936,0.25246044246090577,1.1458353954601488,-0.13132555200832288
13278,5.0,299.74567,4191.1806,0.0,0.0,0.0,0.0,0.13233929765397287,0.0,-0.36852151343524164,-0.34490732468720264,-0.5605854206304735,0.22090837136945882,1.124205444250439,-0.1026580924940649
13279,5.0,299.64895,3936.6467,0.0,0.0,0.0,0.0,0.1323492644635567,0.0,-0.3411811886369617,-0.3190227363075927,-0.5364383737873455,0.23906321924120277,1.1127278537426888,-0.10608953488522191
13280,5.0,299.87961,3930.6874,0.0,0.0,0.0,0.0,0.13235923127314053,0.0,-0.3617985179617337,-0.3072293360086747,-0.5258029562327116,0.24849234228678477,1.0898089470807688,-0.05879694773030695
13281,5.0,300.28553,4150.587,0.0,0.0,0.0,0.0,0.13236919808272435,0.0,-0.3930842157343916,-0.3278970339959177,-0.5406935581122995,0.25517894181670076,1.0691206091889889,-0.09107578360173
13282,5.0,299.52733,4159.9092,0.0,0.0,0.0,0.0,0.13237916489230817,0.0,-0.3965539589793286,-0.3412408792003527,-0.5267136856875935,0.22772364352957375,1.096690131159889,-0.0901666256977531
13283,5.0,299.7896,3931.1512,0.0,0.0,0.0,0.0,0.13238913170189198,0.0,-0.3742358083016986,-0.31313433467645274,-0.5076016508438824,0.23614704492339877,1.094115766630819,-0.13980441871262186
13284,5.0,300.12336,4045.5289,0.0,0.0,0.0,0.0,0.1323990985114758,0.0,-0.35864746213824866,-0.3277408718905057,-0.5433514448471125,0.25320536366942376,1.130925217588629,-0.1027885383119389
13285,5.0,301.09047999999996,3863.9562,0.0,0.0,0.0,0.0,0.13240906532105962,0.0,-0.3493497373656347,-0.3028587931598357,-0.5223376712882145,0.26688062271656676,1.125573939835499,-0.12494136710325288
13286,5.0,300.56855,3713.7729999999997,0.0,0.0,0.0,0.0,0.13241903213064346,0.0,-0.33796001590655667,-0.3016317270237337,-0.4893025060253975,0.25923613707211474,1.099763926663249,-0.1177354161020809
13287,5.0,300.8855,3798.4214,0.0,0.0,0.0,0.0,0.13242899894022728,0.0,-0.32425856434432865,-0.3298512185362807,-0.5005154862695326,0.20142315651391782,1.0850392748850388,-0.13813348823771388
13288,5.0,299.85546,3812.4348,0.0,0.0,0.0,0.0,0.13243896574981107,0.0,-0.3437297152884817,-0.32294236259692966,-0.4922129048176316,0.2207704376333458,1.1004150411775089,-0.13133743743199586
13289,5.0,299.42384,3909.5439,0.0,0.0,0.0,0.0,0.1324489325593949,0.0,-0.33927687626652064,-0.3499773850075787,-0.4991494630147165,0.2261475329990238,1.1142709323199789,-0.11940366146422388
13290,5.0,299.79458,3978.5184,0.0,0.0,0.0,0.0,0.13245889936897873,0.0,-0.3439076825360457,-0.3393638536551047,-0.5260987036718995,0.2171198191130578,1.131480478643429,-0.13354313091218087
13291,5.0,299.11432,4000.6164,0.0,0.0,0.0,0.0,0.13246886617856254,0.0,-0.3477684896570777,-0.3336939087455247,-0.5346251019383895,0.2258826288928798,1.0861470612193689,-0.08329478986405572
13292,5.0,298.63512000000003,3933.3643,0.0,0.0,0.0,0.0,0.1324788329881464,0.0,-0.3470995318085567,-0.3283420433073367,-0.5202029458450335,0.24081760099434674,1.091340677256939,-0.12995254746031787
13293,5.0,299.42508,4054.7546,0.0,0.0,0.0,0.0,0.13248879979773018,0.0,-0.36738938883350963,-0.3383348779135527,-0.5268199046955765,0.23531872309914978,1.0841957441767889,-0.08124313066407272
13294,5.0,299.32819,4095.5125,0.0,0.0,0.0,0.0,0.132498766607314,0.0,-0.3821356329713506,-0.3307554023955167,-0.5320424895535054,0.2616463348199828,1.085149921795959,-0.12691831937336287
13295,5.0,300.01451000000003,3916.8407,0.0,0.0,0.0,0.0,0.13250873341689784,0.0,-0.3577845580880867,-0.3037047860658287,-0.5291324048688025,0.2273338259511018,1.087943047021619,-0.1094753506243759
13296,5.0,299.33646,3756.1259,0.0,0.0,0.0,0.0,0.13251870022648166,0.0,-0.3357539171263317,-0.28225900319429476,-0.5237555526831486,0.25194937937546774,1.125062856485059,-0.13525429754855986
13297,5.0,299.86163,3943.7309999999998,0.0,0.0,0.0,0.0,0.13252866703606547,0.0,-0.38182935786362365,-0.29895197435176274,-0.5180144370865445,0.22347052623482377,1.112663107061299,-0.07487337646692692
13298,5.0,300.2845,3962.9688,0.0,0.0,0.0,0.0,0.1325386338456493,0.0,-0.3761282555134686,-0.29868750594316174,-0.5298277984124325,0.2431055197201468,1.122445428826739,-0.09761561284141092
13299,5.0,299.49039,3941.8566,0.0,0.0,0.0,0.0,0.1325486006552331,0.0,-0.34405476592056167,-0.3093372103242057,-0.5448340121284305,0.2155781388209058,1.112379397033299,-0.1000746360718476
13300,5.0,299.02669,4136.4429,0.0,0.0,0.0,0.0,0.13255856746481692,0.0,-0.36922379707955166,-0.34901282157488367,-0.5391387258338495,0.23761614611088777,1.116862015475699,-0.0871662958928936
13301,5.0,300.3617,4178.5897,0.0,0.0,0.0,0.0,0.13256853427440074,0.0,-0.34948158146864666,-0.35323856085193167,-0.5674667769621105,0.23237407645353578,1.1223167460640389,-0.1155749237088569
13302,5.0,300.26507000000004,3922.4440000000004,0.0,0.0,0.0,0.0,0.13257850108398458,0.0,-0.35102275513574865,-0.31103904492716367,-0.5302632325104064,0.2205353940076488,1.1334024114331092,-0.12180252094347288
13303,5.0,299.59845,3940.5544,0.0,0.0,0.0,0.0,0.1325884678935684,0.0,-0.3618502849093426,-0.3136958677493717,-0.5222839994304175,0.2336098058779928,1.1247794504320887,-0.13514637628040888
13304,5.0,299.21882,3729.2813,0.0,0.0,0.0,0.0,0.13259843470315222,0.0,-0.3505645127780237,-0.27640702790424976,-0.5066368442311635,0.2202422708862198,1.130459527842669,-0.13233116220256888
13305,5.0,299.23978999999997,3498.163,0.0,0.0,0.0,0.0,0.13260840151273603,0.0,-0.29938399379689973,-0.2928378003333407,-0.47113240873964857,0.21760064681551178,1.120507486685479,-0.15812015043524386
13306,5.0,301.04348999999996,3827.5142,0.0,0.0,0.0,0.0,0.13261836832231985,0.0,-0.33325125017433765,-0.3126468904508457,-0.5175705930127404,0.21470049198178878,1.097847972049159,-0.15554639385623384
13307,5.0,301.05397999999997,4084.9369,0.0,0.0,0.0,0.0,0.1326283351319037,0.0,-0.3481347390382237,-0.33809076569946067,-0.5554933018554205,0.24920920660003376,1.102041206262999,-0.14575416250481588
13308,5.0,300.15365,3971.1909,0.0,0.0,0.0,0.0,0.13263830194148749,0.0,-0.3383944874169357,-0.3580316897874766,-0.5107166957588135,0.24595925756678874,1.114401945557909,-0.13394193601903986
13309,5.0,300.45572000000004,3975.255,0.0,0.0,0.0,0.0,0.13264826875107133,0.0,-0.37805158658828664,-0.3263234768556197,-0.5040031944387425,0.2638770251801347,1.094072500851549,-0.1271724323659419
13310,5.0,300.39387999999997,4132.8658,0.0,0.0,0.0,0.0,0.13265823556065515,0.0,-0.3675938931011926,-0.34048754801600467,-0.5482065542912744,0.21412178431967482,1.101223513432299,-0.1191063130898779
13311,5.0,300.52037,3853.5184,0.0,0.0,0.0,0.0,0.13266820237023896,0.0,-0.34983677629120163,-0.3125997540561937,-0.5089368307656544,0.24688440557059377,1.117383636627179,-0.1126799972456499
13312,5.0,300.12793,3954.3445,0.0,0.0,0.0,0.0,0.13267816917982278,0.0,-0.3402251669026097,-0.2965178031065287,-0.5652790382736975,0.22681803098769676,1.115645203430609,-0.07948259645632152
13313,5.0,299.39962,4155.079000000001,0.0,0.0,0.0,0.0,0.1326881359894066,0.0,-0.38604680875485364,-0.3132888249191997,-0.5637046300033155,0.2531988687362827,1.119651999626049,-0.1034823613179139
13314,5.0,299.94392999999997,3991.8598,0.0,0.0,0.0,0.0,0.1326981027989904,0.0,-0.37187171343338066,-0.2866197580471677,-0.5549342309802445,0.23590530371454077,1.110050543003459,-0.09370269224123572
13315,5.0,299.92097,3780.4787,0.0,0.0,0.0,0.0,0.13270806960857423,0.0,-0.3528805593265997,-0.26479762369099075,-0.5314929432292694,0.26367024109972675,1.137050314443129,-0.12427770855275488
13316,5.0,299.65648,4256.2807,0.0,0.0,0.0,0.0,0.13271803641815808,0.0,-0.3957051897680616,-0.3476945933272847,-0.5504032602430725,0.2459830081491328,1.128345989459079,-0.10398584529260389
13317,5.0,300.53657000000004,4418.3883,0.0,0.0,0.0,0.0,0.1327280032277419,0.0,-0.4033323994983086,-0.35780901794550063,-0.5819382884678375,0.25146919002057677,1.106120145865559,-0.13723019603856587
13318,5.0,300.34299,4087.0208,0.0,0.0,0.0,0.0,0.1327379700373257,0.0,-0.3466819309123427,-0.3712345817705006,-0.5244357474752785,0.2230752979008178,1.1067659914792989,-0.1276294588235469
13319,5.0,300.1181,3852.1057,0.0,0.0,0.0,0.0,0.13274793684690953,0.0,-0.3242284201538537,-0.3375142770550657,-0.5092012485117505,0.2235548894381498,1.1075412291308089,-0.16922369966857884
13320,5.0,300.44812,3838.0984,0.0,0.0,0.0,0.0,0.13275790365649334,0.0,-0.35806819718857963,-0.3170336453012847,-0.4915842439255875,0.24489353124410979,1.112834245003189,-0.09770344946607971
13321,5.0,300.72774,3723.7941,0.0,0.0,0.0,0.0,0.13276787046607716,0.0,-0.3275412109583007,-0.34570564417599065,-0.4586935478620286,0.21418328860074481,1.104160216197129,-0.15427687254094186
13322,5.0,300.3012,3784.3094,0.0,0.0,0.0,0.0,0.132777837275661,0.0,-0.3224392839222797,-0.3195119334558727,-0.5083843460161285,0.25040008957506477,1.110207292793929,-0.13145223866832587
13323,5.0,299.27064,4026.8655,0.0,0.0,0.0,0.0,0.13278780408524482,0.0,-0.3435708680703047,-0.3381244157352817,-0.5423712874953786,0.2024475827625208,1.127260697276969,-0.14073343733180887
13324,5.0,299.347,4003.5098,0.0,0.0,0.0,0.0,0.1327977708948286,0.0,-0.3381569917259967,-0.31205134257206973,-0.5667586569972245,0.25265805662790874,1.1307084833922387,-0.14705228787043087
13325,5.0,300.42247000000003,4151.5145,0.0,0.0,0.0,0.0,0.13280773770441245,0.0,-0.37381431652510066,-0.3242816157841037,-0.5638608022412285,0.2242491278766658,1.121262054034949,-0.1277820948186109
13326,5.0,301.57561,4220.7122,0.0,0.0,0.0,0.0,0.13281770451399627,0.0,-0.3944393060206286,-0.3471974421657197,-0.5413543795625175,0.24869862987464375,1.096826007998299,-0.13183889490648587
13327,5.0,301.13194,3999.9037,0.0,0.0,0.0,0.0,0.13282767132358012,0.0,-0.3579833476252056,-0.32914041345862965,-0.5287470861207745,0.23023798312271979,1.113567432775549,-0.1073262370297749
13328,5.0,300.94028,3866.2659999999996,0.0,0.0,0.0,0.0,0.1328376381331639,0.0,-0.35785587063012464,-0.32463899922687467,-0.49275346361348055,0.22517159076770576,1.095623077479579,-0.12179625905785488
13329,5.0,300.37855,4111.063,0.0,0.0,0.0,0.0,0.13284760494274772,0.0,-0.36413224572455466,-0.35044657046638367,-0.5350816825659505,0.24535738700738874,1.097523630692149,-0.08273386170144642
13330,5.0,301.02813,4157.0648,0.0,0.0,0.0,0.0,0.13285757175233157,0.0,-0.37179398701820965,-0.34386774021710365,-0.5479821599241285,0.26625242791956877,1.0916107084085889,-0.11860257580266288
13331,5.0,299.94645,3938.0834,0.0,0.0,0.0,0.0,0.13286753856191538,0.0,-0.33238094939844565,-0.3420621690689077,-0.5226358910576465,0.25578487550900175,1.1235828020639889,-0.09306262417956591
13332,5.0,299.57023,4026.4447,0.0,0.0,0.0,0.0,0.1328775053714992,0.0,-0.3905183625061616,-0.3034117642694097,-0.5300085217002685,0.26943579628874276,1.086474138351649,-0.07802857850982113
13333,5.0,299.55537000000004,4225.5316,0.0,0.0,0.0,0.0,0.132887472181083,0.0,-0.37684388366159566,-0.33699491545130866,-0.5706172957630424,0.23709468707942377,1.1030801929155387,-0.09358943722455831
13334,5.0,299.39725,4141.0104,0.0,0.0,0.0,0.0,0.13289743899066683,0.0,-0.3942988594242676,-0.3445535686797897,-0.5199113223337525,0.24217092822540978,1.112874977657209,-0.12536680042273987
13335,5.0,300.38122999999996,3941.0427,0.0,0.0,0.0,0.0,0.13290740580025065,0.0,-0.3281403660074327,-0.33120295496468666,-0.5386352722566625,0.2161935666666438,1.1359803223375289,-0.15990742228663385
13336,5.0,300.67749,3800.5953,0.0,0.0,0.0,0.0,0.1329173726098345,0.0,-0.3344443521670877,-0.3233277826699677,-0.49751394563080353,0.2224742075439948,1.1457628467529888,-0.12813935667136986
13337,5.0,300.42111,3665.8529,0.0,0.0,0.0,0.0,0.1329273394194183,0.0,-0.3058060033282027,-0.3143164226406157,-0.4942053395492695,0.22767209949698677,1.125169450395579,-0.15740735938739686
13338,5.0,299.1785,3788.0339,0.0,0.0,0.0,0.0,0.1329373062290021,0.0,-0.34033477016592667,-0.3058534740953877,-0.5052794741322015,0.2336999648718908,1.115915133257249,-0.11687602802976589
13339,5.0,299.38587,4035.7451,0.0,0.0,0.0,0.0,0.13294727303858594,0.0,-0.3317976010508737,-0.3607618009894177,-0.5342063459370614,0.24640223024550675,1.118779996589989,-0.13295660095929487
13340,5.0,299.10958,3919.4116,0.0,0.0,0.0,0.0,0.13295723984816976,0.0,-0.35121787670750565,-0.3236760164643357,-0.5165093857855075,0.25202775427070273,1.078315245896429,-0.08235560024036492
13341,5.0,299.04576000000003,3961.6534,0.0,0.0,0.0,0.0,0.13296720665775358,0.0,-0.3387708794315827,-0.35104866394080564,-0.5144241576097115,0.23277754251085478,1.097362017301199,-0.12987199407736785
13342,5.0,298.64602,4279.367,0.0,0.0,0.0,0.0,0.13297717346733742,0.0,-0.4095660964985266,-0.34058689718830965,-0.5506677083866715,0.2228438209154728,1.0828717302711188,-0.1072703461542589
13343,5.0,299.82746000000003,4220.859,0.0,0.0,0.0,0.0,0.1329871402769212,0.0,-0.4097732858789746,-0.3447519022543637,-0.5285105327524285,0.2597752367878198,1.117016130815909,-0.13021749209646588
13344,5.0,300.24687,3774.6628,0.0,0.0,0.0,0.0,0.13299710708650503,0.0,-0.33464621185200966,-0.3003511916798547,-0.5124058343380186,0.2141060080156178,1.113960067189299,-0.12480783087257388
13345,5.0,301.25043999999997,3822.4156,0.0,0.0,0.0,0.0,0.13300707389608887,0.0,-0.35948520718842764,-0.27838481103944174,-0.5240488683220965,0.23934356527887077,1.148098590883509,-0.1114090472477169
13346,5.0,300.17567,4069.9148,0.0,0.0,0.0,0.0,0.1330170407056727,0.0,-0.3710438374391757,-0.3284439762673967,-0.5376646495883695,0.20707369768408282,1.105058665060799,-0.11657084723214689
13347,5.0,299.55357999999995,3876.5429,0.0,0.0,0.0,0.0,0.13302700751525653,0.0,-0.35676191515965966,-0.3124607564074757,-0.5091495828891516,0.2486577351006078,1.124105335140559,-0.11883984857857988
13348,5.0,299.95412000000005,3889.0054,0.0,0.0,0.0,0.0,0.13303697432484032,0.0,-0.3366539871901617,-0.30926095312167967,-0.5362455826908185,0.24658837442137777,1.114376411655389,-0.0996146093806965
13349,5.0,299.7435,4011.1657,0.0,0.0,0.0,0.0,0.13304694113442414,0.0,-0.37253322389366667,-0.3275447877311537,-0.5192162023676495,0.23696493027161775,1.135927633332329,-0.1060596744047749
13350,5.0,300.49779,4013.6609,0.0,0.0,0.0,0.0,0.13305690794400798,0.0,-0.3410153905230987,-0.3245267007182917,-0.5545106215109374,0.2178914901242158,1.114868547228959,-0.10395508301956789
13351,5.0,300.43498999999997,3971.0218,0.0,0.0,0.0,0.0,0.1330668747535918,0.0,-0.34921447860978566,-0.3337522922162867,-0.5241246898270795,0.19276963588988183,1.110503972423209,-0.12086127239557888
13352,5.0,299.82624,3930.5875,0.0,0.0,0.0,0.0,0.13307684156317562,0.0,-0.3476538302757617,-0.3238167163732217,-0.5233299167136415,0.2314925995290408,1.110151158738389,-0.0985981898343837
13353,5.0,299.67702,3813.386,0.0,0.0,0.0,0.0,0.13308680837275944,0.0,-0.34469440031118864,-0.3187498072606567,-0.49572989591473154,0.2337823117075178,1.125356293714019,-0.14083208736154487
13354,5.0,301.15345,3812.1358,0.0,0.0,0.0,0.0,0.13309677518234325,0.0,-0.3654428847289046,-0.3034228492255037,-0.48992836021466457,0.2582743499446937,1.124834875212559,-0.13468577304995089
13355,5.0,299.6512,3894.2670000000003,0.0,0.0,0.0,0.0,0.13310674199192707,0.0,-0.3512467442028547,-0.3211643315864517,-0.5113488523637024,0.24390440662899077,1.1264193957189388,-0.16309290834851684
13356,5.0,300.33287,3840.2951,0.0,0.0,0.0,0.0,0.1331167088015109,0.0,-0.34021170080878066,-0.2965647672486637,-0.5305773603064086,0.2514270793464208,1.1360331126677388,-0.1257942399774249
13357,5.0,299.02687000000003,3767.8583,0.0,0.0,0.0,0.0,0.13312667561109473,0.0,-0.3150550616985137,-0.29847091360178574,-0.5318088847429505,0.23460051116326777,1.136859924749339,-0.13881589191506188
13358,5.0,299.29486,3917.9748,0.0,0.0,0.0,0.0,0.13313664242067852,0.0,-0.36441405084236667,-0.2940886981117947,-0.5324637381500795,0.2252997466403538,1.099884098125109,-0.1029999225478009
13359,5.0,299.82559,4094.8179999999998,0.0,0.0,0.0,0.0,0.13314660923026236,0.0,-0.37765931694457266,-0.3227806478809697,-0.5442824494364955,0.21824546904665082,1.111753309796509,-0.11062709174804389
13360,5.0,300.17436000000004,3998.3503,0.0,0.0,0.0,0.0,0.13315657603984618,0.0,-0.38246055188091765,-0.32226229952731267,-0.5106757908522765,0.24042896891849178,1.095187379936579,-0.1093239001319289
13361,5.0,299.04033,4121.3494,0.0,0.0,0.0,0.0,0.13316654284943,0.0,-0.3701265623886476,-0.33133048262227266,-0.5513302827595624,0.24446610182192574,1.113006902820229,-0.09573930974348421
13362,5.0,299.63204,4356.8240000000005,0.0,0.0,0.0,0.0,0.13317650965901384,0.0,-0.42413245834611457,-0.3500980225644847,-0.5501352049291175,0.24291395465624077,1.110994081496579,-0.11579521441309788
13363,5.0,300.78702999999996,3939.0608,0.0,0.0,0.0,0.0,0.13318647646859763,0.0,-0.3519578532555357,-0.29145869601973373,-0.5539595654440526,0.23261077167689578,1.104091315190329,-0.09610901430747121
13364,5.0,300.43221,3851.9357,0.0,0.0,0.0,0.0,0.13319644327818145,0.0,-0.35021376612340765,-0.3094348065738377,-0.5112437074008255,0.24087056357707376,1.108327004583359,-0.11512751299470089
13365,5.0,300.30372,4021.6459999999997,0.0,0.0,0.0,0.0,0.1332064100877653,0.0,-0.37430407096093565,-0.3022048820752997,-0.5459709901981414,0.2592381737048158,1.115979778613629,-0.10624987158104589
13366,5.0,300.06757000000005,4013.9995,0.0,0.0,0.0,0.0,0.1332163768973491,0.0,-0.36801267950002364,-0.3208564251460637,-0.5312864935213946,0.2798202419261077,1.119339513295209,-0.15206863580300586
13367,5.0,300.096,3949.2643,0.0,0.0,0.0,0.0,0.13322634370693295,0.0,-0.3162669594806187,-0.3394635270674417,-0.5447472373898665,0.24025764859158374,1.126335194635629,-0.14713500960859485
13368,5.0,300.52731,3934.365,0.0,0.0,0.0,0.0,0.13323631051651674,0.0,-0.3560344725153667,-0.3179135111581207,-0.5220007352324615,0.24341527027571677,1.120879045497149,-0.14044706245604585
13369,5.0,299.77633,3924.8663,0.0,0.0,0.0,0.0,0.13324627732610056,0.0,-0.3180460645362027,-0.3382874983388767,-0.5367277985459095,0.23738562158063678,1.140984055306359,-0.11468233143076488
13370,5.0,299.68685,3897.6929,0.0,0.0,0.0,0.0,0.1332562441356844,0.0,-0.36195638232731364,-0.33266150821863466,-0.4901834256623375,0.23835857472415978,1.1595413255878189,-0.12281292381069188
13371,5.0,299.78274,4108.1147,0.0,0.0,0.0,0.0,0.13326621094526822,0.0,-0.36969279002083766,-0.34763791211669065,-0.5314335870384115,0.2511043186595668,1.1389161131772687,-0.12209904858523787
13372,5.0,300.61829,4005.4268,0.0,0.0,0.0,0.0,0.13327617775485204,0.0,-0.3652396064938427,-0.33742669171642165,-0.5148834436150395,0.24048554880407577,1.121645569197799,-0.13298786985738087
13373,5.0,300.08921000000004,3891.7925,0.0,0.0,0.0,0.0,0.13328614456443585,0.0,-0.3002897380612897,-0.3548947688028867,-0.5278232350770975,0.23693068241823778,1.130313417178249,-0.15244980022562385
13374,5.0,300.54622,4203.7909,0.0,0.0,0.0,0.0,0.13329611137401967,0.0,-0.3652152580939397,-0.36338303846811365,-0.5492491582466714,0.2172085899543188,1.1022790160614688,-0.13241622454846386
13375,5.0,300.61787000000004,4290.6609,0.0,0.0,0.0,0.0,0.1333060781836035,0.0,-0.3945123106903336,-0.34286470367811167,-0.5668767816938824,0.23050455909152878,1.1016243551718592,-0.11760886116459089
13376,5.0,300.55577,3849.5781,0.0,0.0,0.0,0.0,0.13331604499318733,0.0,-0.37920864727497966,-0.2987865106104327,-0.49218047068193055,0.22747657262518975,1.0997589617377592,-0.09790441951741391
13377,5.0,300.83187000000004,3744.1316,0.0,0.0,0.0,0.0,0.13332601180277115,0.0,-0.3715034274195336,-0.2887651631464027,-0.47785392486801054,0.2728008100033438,1.109572491606279,-0.1112659358035929
13378,5.0,301.17245,4050.7691,0.0,0.0,0.0,0.0,0.13333597861235494,0.0,-0.37982249445056165,-0.3211515849001937,-0.5303585996098185,0.2533494680986457,1.124879255566939,-0.12676204581043987
13379,5.0,299.55838,4152.7314,0.0,0.0,0.0,0.0,0.13334594542193878,0.0,-0.36820021182853163,-0.3475553524985427,-0.5465710875698665,0.25168578236195277,1.121033566137399,-0.12016605110446589
13380,5.0,300.61135,4197.4515,0.0,0.0,0.0,0.0,0.1333559122315226,0.0,-0.37660727963074464,-0.3503383857532067,-0.5489747701195915,0.23196362910302779,1.111025897549719,-0.12990851161097186
13381,5.0,299.7648,4014.3499,0.0,0.0,0.0,0.0,0.13336587904110642,0.0,-0.35934677695976563,-0.3348387597685127,-0.5260765945547176,0.24641452096921976,1.1200237610877388,-0.100582531737473
13382,5.0,299.48443,3798.4897,0.0,0.0,0.0,0.0,0.13337584585069026,0.0,-0.34974960638509867,-0.3215875864182237,-0.4833088378413686,0.22493094386895576,1.1084328892188091,-0.11456740860442288
13383,5.0,300.60827,4089.0393,0.0,0.0,0.0,0.0,0.13338581266027405,0.0,-0.37624560000754964,-0.3279519116213337,-0.5387683322597945,0.22903205338370375,1.099848026421549,-0.08998583958841092
13384,5.0,299.48417,4276.5103,0.0,0.0,0.0,0.0,0.13339577946985787,0.0,-0.3817286306711826,-0.3555265403727377,-0.5626971756938874,0.2221595123279368,1.094406366759499,-0.1285218281866169
13385,5.0,298.69145,3978.2648,0.0,0.0,0.0,0.0,0.1334057462794417,0.0,-0.3290427766789937,-0.33636745019438263,-0.5438829249220656,0.24254324697465474,1.1274858414491888,-0.12183918033209089
13386,5.0,300.46623999999997,3665.4401,0.0,0.0,0.0,0.0,0.13341571308902553,0.0,-0.3107353333421897,-0.3108435585853707,-0.49262338256564253,0.2428547605853988,1.126738265525409,-0.14965424319972387
13387,5.0,300.29477,3679.3253,0.0,0.0,0.0,0.0,0.13342567989860937,0.0,-0.3374216761284267,-0.29073225649303974,-0.49026909595829254,0.24410887036666976,1.108994939049279,-0.13196923939934987
13388,5.0,300.79506000000003,3959.8754,0.0,0.0,0.0,0.0,0.13343564670819316,0.0,-0.40295939173899564,-0.29555817420182073,-0.5051856978354465,0.24840294323046178,1.103040878811659,-0.10546948661902791
13389,5.0,301.34182999999996,4222.3946,0.0,0.0,0.0,0.0,0.13344561351777698,0.0,-0.3897533890781646,-0.3568706470278907,-0.5368784789682804,0.27331876318946174,1.121598453068149,-0.1127397283390449
13390,5.0,300.56647000000004,4253.538,0.0,0.0,0.0,0.0,0.13345558032736082,0.0,-0.38177583799334164,-0.3502729297967467,-0.5609205733660504,0.2533804532867038,1.140173860526399,-0.12157563398108087
13391,5.0,301.75395,4206.5926,0.0,0.0,0.0,0.0,0.13346554713694464,0.0,-0.3422329017107577,-0.36319781634983367,-0.5732683835896845,0.2190723013932528,1.096196779686199,-0.12625126643502987
13392,5.0,300.40885,4120.7445,0.0,0.0,0.0,0.0,0.13347551394652846,0.0,-0.38651766607632365,-0.34001697440456263,-0.5260687925289474,0.2000472946006308,1.1089386023437189,-0.0961347235022585
13393,5.0,299.93213,4109.7713,0.0,0.0,0.0,0.0,0.13348548075611227,0.0,-0.37529277001101263,-0.3308077063656787,-0.5431673879664475,0.23068692384452677,1.1276099645864388,-0.1211510821891809
13394,5.0,299.46019,4036.8843,0.0,0.0,0.0,0.0,0.1334954475656961,0.0,-0.4102356217671036,-0.3058116268662577,-0.5110647674331655,0.24988378798660976,1.1367035802589092,-0.08292137883120293
13395,5.0,299.81155,3690.535,0.0,0.0,0.0,0.0,0.1335054143752799,0.0,-0.3287311921407427,-0.2711443487398637,-0.5219549464604425,0.23980485751939676,1.101146709074719,-0.13276153005004288
13396,5.0,299.46961,3842.1358,0.0,0.0,0.0,0.0,0.13351538118486375,0.0,-0.3297446854207667,-0.2985068738478347,-0.5396617756679705,0.2285826263018488,1.100053513541829,-0.1287427775034229
13397,5.0,299.34844,4136.4511,0.0,0.0,0.0,0.0,0.13352534799444757,0.0,-0.3556286253203127,-0.3172258892427577,-0.5845233225204604,0.24816118175660173,1.1243166991114188,-0.14539605965447386
13398,5.0,298.82793,4183.1,0.0,0.0,0.0,0.0,0.13353531480403136,0.0,-0.38638390693062263,-0.3319422931651537,-0.5532317478972225,0.23687107291485476,1.1353278905981388,-0.14264087051255786
13399,5.0,300.68355,4070.8662,0.0,0.0,0.0,0.0,0.1335452816136152,0.0,-0.3768776755524307,-0.34250180815479664,-0.5180621915637574,0.2336498799194478,1.132082551852849,-0.13108255436934088
13400,5.0,301.02629,4068.9978,0.0,0.0,0.0,0.0,0.13355524842319902,0.0,-0.41554635938373263,-0.3033746083882427,-0.5179527504204565,0.24160220107678076,1.126680408944699,-0.11681196022594288
13401,5.0,300.50558,4141.6392,0.0,0.0,0.0,0.0,0.13356521523278284,0.0,-0.3766536155578177,-0.35047441457913164,-0.5318268597997244,0.26488442882705776,1.125783479956179,-0.1090460872195109
13402,5.0,300.66805,4049.8879,0.0,0.0,0.0,0.0,0.13357518204236665,0.0,-0.3230379830088667,-0.3447120916579347,-0.5633147212323345,0.2583700716816407,1.113966450664929,-0.14251844963547589
13403,5.0,300.2608,4017.6397,0.0,0.0,0.0,0.0,0.13358514885195047,0.0,-0.3425506772071197,-0.3361313527885817,-0.5425801183409885,0.22227026056386678,1.0855027354807791,-0.13335874979148388
13404,5.0,300.34123999999997,3812.942,0.0,0.0,0.0,0.0,0.13359511566153429,0.0,-0.35527043127746166,-0.2870504906646777,-0.5167182368961195,0.2217426105742918,1.0978952908288289,-0.1147524990001899
13405,5.0,300.28947,3634.5345,0.0,0.0,0.0,0.0,0.13360508247111813,0.0,-0.3410478246587997,-0.27396670623090874,-0.48979321291632655,0.2376771640319098,1.132555030374479,-0.13295572956420887
13406,5.0,299.5665,3884.0186,0.0,0.0,0.0,0.0,0.13361504928070195,0.0,-0.3812274670392216,-0.2876245880388367,-0.5117926255099995,0.25640814591051375,1.1396742269020887,-0.11504852001690488
13407,5.0,300.05939,4285.7077,0.0,0.0,0.0,0.0,0.13362501609028576,0.0,-0.3889891147927366,-0.33266733440670965,-0.5810916572142815,0.24962412238348278,1.100853575820789,-0.12461616448365788
13408,5.0,299.93137,4147.4689,0.0,0.0,0.0,0.0,0.13363498289986958,0.0,-0.35423071508484966,-0.3427554955823337,-0.5637407827668834,0.2339222314138268,1.132021250221799,-0.1180879258118709
13409,5.0,300.77239,3884.2107,0.0,0.0,0.0,0.0,0.1336449497094534,0.0,-0.32125690211558766,-0.3232377756635847,-0.5362083660146455,0.26168758423155375,1.135745957589399,-0.14859220510740886
13410,5.0,299.86764,4077.5723,0.0,0.0,0.0,0.0,0.13365491651903724,0.0,-0.37074242593192863,-0.33455392503290166,-0.5341838112548375,0.22560331637031378,1.144029581131929,-0.11709714959908887
13411,5.0,300.3094,4002.7457,0.0,0.0,0.0,0.0,0.13366488332862103,0.0,-0.3799176892974566,-0.3219336113273737,-0.5148834233500376,0.2400621014547848,1.109979919471489,-0.12358875927976089
13412,5.0,299.08937000000003,3794.4943,0.0,0.0,0.0,0.0,0.13367485013820488,0.0,-0.39761101188115167,-0.26833925703052275,-0.4874812700306555,0.2310366065865378,1.1210430906883389,-0.08545142684064923
13413,5.0,299.15569,3837.7959,0.0,0.0,0.0,0.0,0.1336848169477887,0.0,-0.3423549780828057,-0.2890639199383877,-0.5351752359476835,0.2603008197471907,1.163636983817029,-0.11598639444196589
13414,5.0,300.62491,3946.5251,0.0,0.0,0.0,0.0,0.1336947837573725,0.0,-0.3511559569938947,-0.2935845453920387,-0.5549045731498174,0.2062119791365378,1.1187645951884688,-0.11230088972073489
13415,5.0,300.94517,3997.6204,0.0,0.0,0.0,0.0,0.13370475056695633,0.0,-0.3084836788374687,-0.3384508443874977,-0.5682422375286424,0.2152396119624958,1.083536928961769,-0.14069535939305086
13416,5.0,300.05981,4109.9539,0.0,0.0,0.0,0.0,0.13371471737654014,0.0,-0.36138836445375466,-0.33790916088403766,-0.5500258245808225,0.18570771839042483,1.098739733462169,-0.13157045455749286
13417,5.0,299.99719,4218.0267,0.0,0.0,0.0,0.0,0.133724684186124,0.0,-0.39269328358080957,-0.33936725817544067,-0.5501142509170495,0.24849622303466778,1.129054555254009,-0.11278788811629789
13418,5.0,300.79,4048.3148,0.0,0.0,0.0,0.0,0.13373465099570778,0.0,-0.3960680143638696,-0.32411101486476673,-0.5104075632858045,0.2528088485077908,1.148559619679009,-0.1135207719136279
13419,5.0,300.23126,4069.5405,0.0,0.0,0.0,0.0,0.13374461780529162,0.0,-0.35635005939151265,-0.3470329714094877,-0.5336556749052145,0.25118172083470575,1.112020807822909,-0.10708112169808388
13420,5.0,300.17731000000003,4171.0255,0.0,0.0,0.0,0.0,0.1337545846148754,0.0,-0.36797342619114964,-0.3253387294809327,-0.5745754356886804,0.24786331662470476,1.1098601533096688,-0.12097154440396188
13421,5.0,298.95931,3858.3956,0.0,0.0,0.0,0.0,0.13376455142445925,0.0,-0.3260651082126207,-0.3149503119031757,-0.5318405082785715,0.21353620682188276,1.123983238503509,-0.13011641026648987
13422,5.0,299.85707,3722.0277,0.0,0.0,0.0,0.0,0.13377451823404307,0.0,-0.3272072538578417,-0.2824845729315567,-0.5217116448464305,0.2145033337773308,1.122395982221859,-0.11695581134263988
13423,5.0,300.65727999999996,3915.8093,0.0,0.0,0.0,0.0,0.1337844850436269,0.0,-0.3718331795320777,-0.2959456613050627,-0.5225293984721365,0.21022111593970877,1.0856117611915388,-0.09651803297533822
13424,5.0,299.61237,3968.0179,0.0,0.0,0.0,0.0,0.1337944518532107,0.0,-0.3895513166107216,-0.3078700951069127,-0.5087569586079025,0.2359170675482018,1.130510291672679,-0.08395145597561363
13425,5.0,300.32923999999997,3909.86,0.0,0.0,0.0,0.0,0.13380441866279452,0.0,-0.3489647428576387,-0.30592809996525266,-0.5336069781054085,0.24694551468412476,1.134336932000339,-0.13989888401944486
13426,5.0,299.72632999999996,4163.4966,0.0,0.0,0.0,0.0,0.13381438547237837,0.0,-0.3827405331485496,-0.36533629081838465,-0.5175221799229625,0.23524945732231378,1.1224164498738791,-0.14512344471506888
13427,5.0,299.92307,4044.4742,0.0,0.0,0.0,0.0,0.13382435228196218,0.0,-0.3475328380813206,-0.3427795400072067,-0.5391067679256955,0.22584209888887977,1.0828836866222988,-0.15580373911663184
13428,5.0,300.42696,3945.3346,0.0,0.0,0.0,0.0,0.133834319091546,0.0,-0.37849728490977363,-0.3337845439669697,-0.4870013846507945,0.23974675775866278,1.097875127151839,-0.13281101718492688
13429,5.0,300.7268,4022.631,0.0,0.0,0.0,0.0,0.13384428590112982,0.0,-0.4003081113948346,-0.3124497829088927,-0.5100214947327025,0.27525585420063775,1.1397481941593888,-0.09541165708514741
13430,5.0,299.33992,3947.5076,0.0,0.0,0.0,0.0,0.13385425271071363,0.0,-0.3985997717262346,-0.30028849176366673,-0.5010554675128246,0.27431198133498474,1.1205545014901188,-0.05522431704371574
13431,5.0,300.20243,3841.7135,0.0,0.0,0.0,0.0,0.13386421952029745,0.0,-0.31688295474641265,-0.3154746384324227,-0.5354273832350686,0.2610098617696678,1.1026312217962289,-0.1087136601267029
13432,5.0,299.65959,4003.9856,0.0,0.0,0.0,0.0,0.1338741863298813,0.0,-0.34026372106891467,-0.3342073833662007,-0.5426405384444515,0.2505625439635978,1.1027342693313988,-0.13598396934307286
13433,5.0,299.26464,4274.6757,0.0,0.0,0.0,0.0,0.13388415313946508,0.0,-0.36038406135213763,-0.38616948294446063,-0.5528411197186706,0.22598989154846577,1.128473760296689,-0.15781957992557985
13434,5.0,300.1666,4067.4224,0.0,0.0,0.0,0.0,0.1338941199490489,0.0,-0.36578901096306465,-0.3440439241444917,-0.5265619109551145,0.2186311019022098,1.1460430104056387,-0.16653685424590783
13435,5.0,300.07193,3858.1725,0.0,0.0,0.0,0.0,0.13390408675863275,0.0,-0.3658149906956286,-0.3173931363042637,-0.4895799744327815,0.2187616490450938,1.128161881915909,-0.1106033715632029
13436,5.0,300.14882,4009.8679,0.0,0.0,0.0,0.0,0.13391405356821656,0.0,-0.3519248213022757,-0.3292458218665327,-0.5377290922947295,0.2385175333998478,1.1396530499749988,-0.1268239452590489
13437,5.0,300.74911000000003,4061.0389,0.0,0.0,0.0,0.0,0.1339240203778004,0.0,-0.32622078395798465,-0.35116544101483066,-0.5570681863533494,0.24954523073069676,1.1362821695423189,-0.1111674782913759
13438,5.0,299.94376,3985.1621,0.0,0.0,0.0,0.0,0.1339339871873842,0.0,-0.3591748081527936,-0.32065727083890866,-0.5315576797781585,0.2537515561358287,1.1210476503137887,-0.12768328266885887
13439,5.0,298.58432,4233.8861,0.0,0.0,0.0,0.0,0.133943953996968,0.0,-0.3804468388971796,-0.3425321347302897,-0.5640167009016145,0.2286293675289618,1.0897098512209888,-0.10720728146803489
13440,5.0,299.16222,4166.4941,0.0,0.0,0.0,0.0,0.13395392080655183,0.0,-0.4295333448241406,-0.3186890223871577,-0.5182877916985225,0.24795138832339678,1.100232757484519,-0.1126626402714369
13441,5.0,299.08329,4007.7068,0.0,0.0,0.0,0.0,0.13396388761613567,0.0,-0.38755040097574667,-0.3193164065840757,-0.5113759872013806,0.2766817402713617,1.126557805682599,-0.09503716390118781
13442,5.0,299.44718,4261.1876,0.0,0.0,0.0,0.0,0.1339738544257195,0.0,-0.4022527308542536,-0.33706987569370667,-0.5559720118651654,0.24978467186182776,1.1443776325412789,-0.09957948506598001
13443,5.0,300.25376,4061.2951,0.0,0.0,0.0,0.0,0.13398382123530328,0.0,-0.35485582960154366,-0.31726822283193573,-0.5624082575603735,0.26095769965451976,1.1125632006014388,-0.11087574332258389
13444,5.0,299.85714,3756.9544,0.0,0.0,0.0,0.0,0.13399378804488712,0.0,-0.31556138277348367,-0.3347282243151037,-0.49173072949254454,0.23653301215149078,1.1112766769494689,-0.14814365955314088
13445,5.0,301.12332999999995,3919.6789,0.0,0.0,0.0,0.0,0.13400375485447094,0.0,-0.3271998672646127,-0.33680065514213664,-0.5274839888111166,0.2354706700841458,1.135611701951149,-0.18279111850757884
13446,5.0,300.54746,4016.645,0.0,0.0,0.0,0.0,0.13401372166405479,0.0,-0.4054707726418496,-0.3376505895910187,-0.4778384221414806,0.23366576768101577,1.114271033644989,-0.12021601446689688
13447,5.0,300.90075,3798.657,0.0,0.0,0.0,0.0,0.1340236884736386,0.0,-0.3549526253835967,-0.3092701129025837,-0.4904741372485285,0.2232357663191548,1.1260433786068291,-0.1256993693705619
13448,5.0,301.21518,3844.3348,0.0,0.0,0.0,0.0,0.1340336552832224,0.0,-0.3089544247014277,-0.3183271299814417,-0.5413002416096745,0.23196667898582876,1.1325689119008489,-0.08768863746519472
13449,5.0,300.2193,3954.2278,0.0,0.0,0.0,0.0,0.13404362209280624,0.0,-0.3076775877204137,-0.3366898663762027,-0.5576190600352164,0.25746471245228875,1.151016751171509,-0.12055730749807989
13450,5.0,299.91526,4026.6582,0.0,0.0,0.0,0.0,0.13405358890239005,0.0,-0.34702520991372166,-0.3262678595576307,-0.5507104878058935,0.24414803248303477,1.138100852146809,-0.1223378817663089
13451,5.0,300.77682000000004,4265.3863,0.0,0.0,0.0,0.0,0.13406355571197387,0.0,-0.3851103630124336,-0.3708447844570307,-0.5406157911671244,0.24908664386793775,1.0983567249243689,-0.13533791094681186
13452,5.0,299.62322,4288.1953,0.0,0.0,0.0,0.0,0.13407352252155771,0.0,-0.4561277250313015,-0.3317123259224577,-0.5156642440095985,0.2571675059329568,1.081663024226829,-0.12454733440436488
13453,5.0,300.06725,4137.8869,0.0,0.0,0.0,0.0,0.1340834893311415,0.0,-0.38347793604132563,-0.3372704485510017,-0.5370659201042796,0.26297884989399173,1.1157277833137589,-0.12195133698565988
13454,5.0,299.93138,3978.3533,0.0,0.0,0.0,0.0,0.13409345614072532,0.0,-0.33194765325818265,-0.3293107306679387,-0.5480616595269745,0.24792948185623478,1.099389733401319,-0.12087723108465388
13455,5.0,299.23798999999997,4049.3266,0.0,0.0,0.0,0.0,0.13410342295030916,0.0,-0.3630426573620206,-0.28828126529614573,-0.5795702520566304,0.2163618371107508,1.101684238252769,-0.09408635939160072
13456,5.0,299.96741000000003,4058.2162,0.0,0.0,0.0,0.0,0.13411338975989298,0.0,-0.3528810558191487,-0.32323187854800267,-0.5574834669068345,0.2115013270435558,1.1088743622873791,-0.13025359419752888
13457,5.0,301.1738,3844.9799,0.0,0.0,0.0,0.0,0.13412335656947683,0.0,-0.36086377447948165,-0.30743385040885873,-0.5004802454310545,0.2191945702828198,1.157236282935329,-0.13719232074982787
13458,5.0,301.31537000000003,3887.7859,0.0,0.0,0.0,0.0,0.13413332337906061,0.0,-0.3930690676453966,-0.2967915630185467,-0.49192920492213255,0.23449940906828975,1.135775240517289,-0.11619330011238588
13459,5.0,300.95385,4045.7178,0.0,0.0,0.0,0.0,0.13414329018864443,0.0,-0.3771494697592546,-0.32252203605794666,-0.5301256939418325,0.2034096941299738,1.1430311244833888,-0.0976155946029091
13460,5.0,300.38644,4041.5805,0.0,0.0,0.0,0.0,0.13415325699822828,0.0,-0.34878771793266766,-0.3190378539990847,-0.5607139919356625,0.2369905047041418,1.124560284435459,-0.1055422886387129
13461,5.0,300.98049,4112.4678,0.0,0.0,0.0,0.0,0.1341632238078121,0.0,-0.34510543534675464,-0.32806073468207364,-0.5769213629827055,0.23005310550947378,1.1550267897672688,-0.1098720988335319
13462,5.0,300.03612000000004,4087.3014,0.0,0.0,0.0,0.0,0.1341731906173959,0.0,-0.34578671431649166,-0.34980513249057865,-0.5468457188769705,0.24808960576953773,1.1264682343737589,-0.12243140475053889
13463,5.0,299.94301,3848.2690000000002,0.0,0.0,0.0,0.0,0.1341831574269797,0.0,-0.36327593793254365,-0.2969285139020627,-0.5095732430209635,0.2138937929146738,1.114485032066109,-0.13352364611275785
13464,5.0,300.23931,3937.3632,0.0,0.0,0.0,0.0,0.13419312423656354,0.0,-0.41622133593784766,-0.3029798461492827,-0.4776589147537646,0.25260713067788276,1.115075250249359,-0.13698927556228888
13465,5.0,300.17764,4151.043,0.0,0.0,0.0,0.0,0.13420309104614736,0.0,-0.3562311342272757,-0.3524617222652637,-0.5531205639637494,0.23854858951541275,1.135900376904639,-0.16222019603738685
13466,5.0,300.05703,3927.2449,0.0,0.0,0.0,0.0,0.1342130578557312,0.0,-0.34265139426705965,-0.31942225068952174,-0.5317107413382645,0.2718352231880477,1.104966560626709,-0.1089609134161049
13467,5.0,300.74262999999996,3851.1671,0.0,0.0,0.0,0.0,0.13422302466531502,0.0,-0.2898781778512487,-0.3417979337078297,-0.5389825130659325,0.21467398535917281,1.123247618930909,-0.12760465446109887
13468,5.0,300.71132,4142.6789,0.0,0.0,0.0,0.0,0.1342329914748988,0.0,-0.3726857889612237,-0.3139218833166777,-0.5726632706299645,0.2300950439311128,1.1075757809592188,-0.11011910894290991
13469,5.0,300.1341,4320.9675,0.0,0.0,0.0,0.0,0.13424295828448266,0.0,-0.38819300418916663,-0.3555713361596587,-0.5697019053577004,0.2201555062801568,1.162749174079409,-0.12404247240953888
13470,5.0,300.92843999999997,4313.0031,0.0,0.0,0.0,0.0,0.13425292509406647,0.0,-0.4172268042770796,-0.3723527032558506,-0.5214657493121625,0.21155150318850782,1.141060251713879,-0.10724486291424391
13471,5.0,300.40097000000003,4192.8747,0.0,0.0,0.0,0.0,0.1342628919036503,0.0,-0.34540943064175667,-0.33235905306378466,-0.5967607290131984,0.19508323037321582,1.1425902593648791,-0.09754867450005461
13472,5.0,300.17554,3953.1865,0.0,0.0,0.0,0.0,0.13427285871323413,0.0,-0.3588270100559687,-0.3100891229584137,-0.5327538519187115,0.25843269053782075,1.1057283220518888,-0.08659053273557023
13473,5.0,299.75127000000003,3775.1759,0.0,0.0,0.0,0.0,0.13428282552281792,0.0,-0.30262960611971673,-0.3008891160254437,-0.5440404853126155,0.25735385275884776,1.1260557402580489,-0.11968755387724189
13474,5.0,300.18814,4017.8372,0.0,0.0,0.0,0.0,0.13429279233240174,0.0,-0.37959933624853764,-0.31220640023487267,-0.5295164570542056,0.26335311408342876,1.0913584091336888,-0.13405877388807086
13475,5.0,299.57549,4014.5449,0.0,0.0,0.0,0.0,0.13430275914198558,0.0,-0.40095493986117164,-0.3131643978069197,-0.5062020484807526,0.2211786760986358,1.099102578322979,-0.13884078747001888
13476,5.0,299.52524,3991.6716,0.0,0.0,0.0,0.0,0.1343127259515694,0.0,-0.4056758341970876,-0.2935231525684797,-0.5141695075945795,0.23099019973195778,1.1219959510823792,-0.14421033412245188
13477,5.0,298.92546,4207.5496,0.0,0.0,0.0,0.0,0.13432269276115325,0.0,-0.34987335461981167,-0.3480730017096307,-0.5810436696895455,0.23769451087362178,1.1482045768439688,-0.14767271103916185
13478,5.0,299.87023999999997,4273.9566,0.0,0.0,0.0,0.0,0.13433265957073703,0.0,-0.3966118560900426,-0.3573257685753077,-0.5452384610383465,0.2576521029257828,1.107521166778829,-0.10236692494532891
13479,5.0,300.50984,4088.0915,0.0,0.0,0.0,0.0,0.13434262638032085,0.0,-0.30685603440683273,-0.35923727502145864,-0.5765844167944515,0.2248649610224438,1.088641480315549,-0.11287984056287288
13480,5.0,300.92828,4091.0047,0.0,0.0,0.0,0.0,0.1343525931899047,0.0,-0.37368894709022765,-0.36153065516529764,-0.5083436842896155,0.26251284604050074,1.086107341815449,-0.09195244049549932
13481,5.0,300.55845,4081.2106,0.0,0.0,0.0,0.0,0.1343625599994885,0.0,-0.37831685546446664,-0.3236187273036817,-0.5386505419356694,0.26142291317293276,1.146557842781449,-0.11086356405638191
13482,5.0,299.83692,3927.3195,0.0,0.0,0.0,0.0,0.13437252680907233,0.0,-0.34618560048335867,-0.3146437632179217,-0.5329776991308035,0.2303970431234178,1.147374623687059,-0.11863837392869589
13483,5.0,299.99608,3982.7232,0.0,0.0,0.0,0.0,0.13438249361865612,0.0,-0.3182923451055087,-0.3393942106281007,-0.5529618383355844,0.22797866844724277,1.1679578875434689,-0.14978080826971488
13484,5.0,300.00842,4123.4185,0.0,0.0,0.0,0.0,0.13439246042823996,0.0,-0.3826225604394066,-0.29820873513841073,-0.5725849767947374,0.19687965187300882,1.119319349618219,-0.11008093981164288
13485,5.0,299.49703,4095.4914,0.0,0.0,0.0,0.0,0.13440242723782378,0.0,-0.34829368758141066,-0.33930191367649165,-0.5573315097893374,0.24158073030716176,1.117438858757629,-0.15063619400413486
13486,5.0,299.00812,4020.5279,0.0,0.0,0.0,0.0,0.13441239404740762,0.0,-0.4021994642964966,-0.3137870703908727,-0.5061535644634676,0.22502768898850375,1.074521738847039,-0.11936908937081189
13487,5.0,300.15479,4203.8782,0.0,0.0,0.0,0.0,0.13442236085699144,0.0,-0.4043856425797556,-0.32670762023353167,-0.5467807391480575,0.25861532886834576,1.1022863114621888,-0.12718510812469289
13488,5.0,301.22405,4304.5997,0.0,0.0,0.0,0.0,0.13443232766657523,0.0,-0.38124314201826864,-0.36656343801449465,-0.5606842327802255,0.23867397921528777,1.1208000119893489,-0.13526112685423386
13489,5.0,300.85027,4038.2916,0.0,0.0,0.0,0.0,0.13444229447615907,0.0,-0.37133991925089666,-0.3109313567065357,-0.5452685343013145,0.2607277222793227,1.1613402498153589,-0.11718891966064589
13490,5.0,300.50886,4017.3070000000002,0.0,0.0,0.0,0.0,0.1344522612857429,0.0,-0.38126552471297764,-0.31671168508200964,-0.5231838060492215,0.2622444563540127,1.112218999542469,-0.08176105142618752
13491,5.0,300.8264,4028.6026,0.0,0.0,0.0,0.0,0.1344622280953267,0.0,-0.3383542411229637,-0.34877556906396867,-0.5374647657411425,0.2512865820875548,1.099122134049909,-0.1101797418288939
13492,5.0,300.01624,3878.0498,0.0,0.0,0.0,0.0,0.13447219490491055,0.0,-0.36252205959314165,-0.3098772928925077,-0.5064309518108435,0.24985001636077675,1.086174418972069,-0.08797723845142741
13493,5.0,300.37314,4172.1174,0.0,0.0,0.0,0.0,0.13448216171449434,0.0,-0.36098905272184567,-0.35206832791393866,-0.5551621413252374,0.22115155139345877,1.1328781558313687,-0.13089933848625887
13494,5.0,300.15488999999997,4172.1416,0.0,0.0,0.0,0.0,0.13449212852407816,0.0,-0.3641227718361197,-0.3333143351255637,-0.5707897711950645,0.20313332003269782,1.148813337504049,-0.12362428382826689
13495,5.0,299.66405,3757.8768,0.0,0.0,0.0,0.0,0.134502095333662,0.0,-0.3132692083972637,-0.28656130364889876,-0.5424702111026415,0.2126449317689208,1.1382455442610888,-0.14763361985030388
13496,5.0,300.65086,3855.3557,0.0,0.0,0.0,0.0,0.13451206214324582,0.0,-0.36660272172087166,-0.3141818528948347,-0.49114728995246354,0.21207117889979582,1.1453551149127488,-0.14594135032828986
13497,5.0,300.45448999999996,4025.3,0.0,0.0,0.0,0.0,0.13452202895282966,0.0,-0.35898095314366163,-0.31680761960147774,-0.5478021053813585,0.25601996979720376,1.1141016182282688,-0.13704473074026188
13498,5.0,299.41184,3783.3132,0.0,0.0,0.0,0.0,0.13453199576241345,0.0,-0.4054636596261476,-0.2948213488616017,-0.44974772484914455,0.2891274101896537,1.090922002315619,-0.11695304516986688
13499,5.0,299.42193,3874.5608,0.0,0.0,0.0,0.0,0.13454196257199727,0.0,-0.3111197401651277,-0.3362758625178437,-0.5303741529988535,0.28274017540178276,1.122720424903879,-0.13733729657413588
13500,5.0,298.97333,4065.1613,0.0,0.0,0.0,0.0,0.13455192938158111,0.0,-0.3378246051631927,-0.3348312110552677,-0.5630517220363784,0.2610674650378528,1.125939925771619,-0.1115470519113369
13501,5.0,299.4874,3998.4883,0.0,0.0,0.0,0.0,0.13456189619116493,0.0,-0.33224188082222067,-0.3286903378967107,-0.5545083822282165,0.2324755534510508,1.147535426477929,-0.11193303940443089
13502,5.0,300.27766,4050.1689,0.0,0.0,0.0,0.0,0.13457186300074875,0.0,-0.37267333611749465,-0.3374358312323237,-0.5210410354002465,0.1938682320458048,1.1399153804258888,-0.1206641952511289
13503,5.0,299.42938,4095.2185,0.0,0.0,0.0,0.0,0.13458182981033256,0.0,-0.3709206870220217,-0.3257092243799977,-0.5482142752570365,0.2189632858149938,1.092392126885709,-0.10991233499500289
13504,5.0,300.22321,4075.075,0.0,0.0,0.0,0.0,0.13459179661991638,0.0,-0.40899070216423966,-0.33256047705116365,-0.4971698762943465,0.22840159903898277,1.1296363634614288,-0.11944139489794788
13505,5.0,299.67852999999997,4013.5819,0.0,0.0,0.0,0.0,0.1346017634295002,0.0,-0.3185813240340287,-0.3282701228152387,-0.5731772316106885,0.23828427309432676,1.1326490599837589,-0.12784549387736788
13506,5.0,298.91374,3991.8054,0.0,0.0,0.0,0.0,0.13461173023908404,0.0,-0.36186720618601265,-0.28823583116166174,-0.5633061288714865,0.23304457444220875,1.127774009777629,-0.1185571923306839
13507,5.0,300.42521,4058.9952,0.0,0.0,0.0,0.0,0.13462169704866786,0.0,-0.3663581636767357,-0.3122781282094517,-0.5551969059361684,0.24194979652358578,1.141403236872729,-0.1104936872398779
13508,5.0,299.84155,3902.9406,0.0,0.0,0.0,0.0,0.13463166385825165,0.0,-0.36907364354723265,-0.2984020632574907,-0.5189207791684936,0.2520352421889418,1.131851328180029,-0.1275705585952339
13509,5.0,300.69187999999997,4015.3042,0.0,0.0,0.0,0.0,0.1346416306678355,0.0,-0.3834562119591816,-0.3313031147370717,-0.5057928778253705,0.25786056900135673,1.1352645624668887,-0.14137703353032685
13510,5.0,300.87377000000004,4238.5347,0.0,0.0,0.0,0.0,0.1346515974774193,0.0,-0.4328517996966466,-0.3232819837654477,-0.5322749291264455,0.25356340572475977,1.124361586090849,-0.09687151033897372
13511,5.0,299.84285,4065.1962,0.0,0.0,0.0,0.0,0.13466156428700313,0.0,-0.3134185614620037,-0.3548691842378617,-0.5674304114160215,0.25618159332065477,1.113669264410599,-0.14677070566764086
13512,5.0,299.03992,4023.6824,0.0,0.0,0.0,0.0,0.13467153109658694,0.0,-0.33679273152635464,-0.33868519900312666,-0.5476210477209895,0.22600167564712878,1.1305564958772387,-0.11467468139250989
13513,5.0,301.0298,4029.7339,0.0,0.0,0.0,0.0,0.13468149790617076,0.0,-0.3375672599027947,-0.33821205173643065,-0.5491591613727895,0.22803803477060178,1.1361222786765388,-0.13684656941820486
13514,5.0,299.86197000000004,3749.5454,0.0,0.0,0.0,0.0,0.13469146471575458,0.0,-0.33537595457402963,-0.30129236930024167,-0.5030998515770895,0.20412543373561182,1.1416566507227388,-0.12502236631624689
13515,5.0,299.8446,3774.0704,0.0,0.0,0.0,0.0,0.13470143152533842,0.0,-0.3814862612472626,-0.2808818848508837,-0.4848550068314635,0.23351693137382679,1.118311267093729,-0.13103638056228387
13516,5.0,298.83738999999997,4037.5619,0.0,0.0,0.0,0.0,0.13471139833492224,0.0,-0.38796458721912364,-0.3102891587931557,-0.5290642536670764,0.24173223146211378,1.1380016549620189,-0.1066397904845279
13517,5.0,299.93403,3984.2301,0.0,0.0,0.0,0.0,0.13472136514450606,0.0,-0.33598158429130065,-0.3175686312215837,-0.5575562689265193,0.25144815494850076,1.112193465639949,-0.14127055107731787
13518,5.0,299.65403,4055.1794,0.0,0.0,0.0,0.0,0.13473133195408987,0.0,-0.3575980592746807,-0.3102982780440557,-0.5647769525841455,0.22807808854705477,1.103095391667039,-0.11055379323580991
13519,5.0,299.88423,4268.6217,0.0,0.0,0.0,0.0,0.1347412987636737,0.0,-0.36827978235888464,-0.35029605216402865,-0.5789785646607354,0.25937273331809574,1.078018566267149,-0.1072787561300889
13520,5.0,299.09655,4260.2914,0.0,0.0,0.0,0.0,0.13475126557325753,0.0,-0.3870191336833146,-0.3456603012340157,-0.5623427610739095,0.22297173360809677,1.1257052570484591,-0.12867544703427788
13521,5.0,298.77307,4188.8747,0.0,0.0,0.0,0.0,0.13476123238284132,0.0,-0.4123394329497336,-0.3436257456957207,-0.5173481238207844,0.27851960370024476,1.1227080632526591,-0.1200632163518169
13522,5.0,299.89777999999995,4299.0821,0.0,0.0,0.0,0.0,0.13477119919242517,0.0,-0.3926446475760096,-0.36035116112139065,-0.5538177914900604,0.23024320136073478,1.1348473060757092,-0.13405467022516587
13523,5.0,301.41531000000003,3972.6627,0.0,0.0,0.0,0.0,0.13478116600200898,0.0,-0.3132140065318157,-0.34085118321189267,-0.5535250635361705,0.2571403812277797,1.106781798180859,-0.12397465558034587
13524,5.0,300.65642,3537.4544,0.0,0.0,0.0,0.0,0.1347911328115928,0.0,-0.2977140360420877,-0.2813296400700737,-0.4962541312514695,0.2175012267156998,1.1293792005860488,-0.1202548523432299
13525,5.0,301.04008,3817.5856,0.0,0.0,0.0,0.0,0.13480109962117662,0.0,-0.29461614545134973,-0.3319471567656337,-0.5338873950705835,0.2320265823317408,1.136478030786649,-0.12518182148448387
13526,5.0,300.43827999999996,4038.5468,0.0,0.0,0.0,0.0,0.13481106643076043,0.0,-0.39902233754793864,-0.29008442490910374,-0.5385106323618615,0.19699557781694982,1.127899551465019,-0.09211028864907772
13527,5.0,300.27475,4029.8903,0.0,0.0,0.0,0.0,0.13482103324034425,0.0,-0.4077810639298576,-0.3078378129587267,-0.5093671378181225,0.24352915958695678,1.1186975180318488,-0.1076061372373989
13528,5.0,300.60685,4232.5249,0.0,0.0,0.0,0.0,0.13483100004992807,0.0,-0.38514108475546566,-0.34074003980842366,-0.5607007690218575,0.24553294271971476,1.1531914898611388,-0.13899013040225786
13529,5.0,299.59307,4379.7257,0.0,0.0,0.0,0.0,0.1348409668595119,0.0,-0.36666802568981666,-0.36430175233378365,-0.6003574730256693,0.2538639661019228,1.1405337669619189,-0.13650576274706988
13530,5.0,298.60409,4154.7127,0.0,0.0,0.0,0.0,0.1348509336690957,0.0,-0.37273305707838866,-0.34220259540026665,-0.5479932550127234,0.2332659898540608,1.1282138616460389,-0.12972895356075087
13531,5.0,300.58254,4155.9747,0.0,0.0,0.0,0.0,0.13486090047867955,0.0,-0.35297730444614767,-0.35932479956509666,-0.5510104199679945,0.24371362176766176,1.089078900383719,-0.1289938710107039
13532,5.0,300.73832999999996,4032.9141,0.0,0.0,0.0,0.0,0.13487086728826336,0.0,-0.40984233887328964,-0.3198429521310417,-0.4962198935305906,0.26569156359171575,1.129222754770609,-0.12043037765805288
13533,5.0,299.98996,3728.8521,0.0,0.0,0.0,0.0,0.13488083409784718,0.0,-0.3433455009830627,-0.3136943884042257,-0.4764380294432725,0.2705242194136617,1.1189611657078689,-0.1046756862256859
13534,5.0,299.86082999999996,3791.1874,0.0,0.0,0.0,0.0,0.134890800907431,0.0,-0.3296540096693177,-0.30397947816793874,-0.5187928056808635,0.2240610787906068,1.1517405157179388,-0.13864093402029487
13535,5.0,298.98109,4046.7896,0.0,0.0,0.0,0.0,0.1349007677170148,0.0,-0.34331498189005066,-0.32339974369206975,-0.5634082746140674,0.23151263148351778,1.111576092354019,-0.10085273818139032
13536,5.0,300.21012,4285.3866,0.0,0.0,0.0,0.0,0.13491073452659866,0.0,-0.37185686931941564,-0.34272108560893766,-0.5880725653682435,0.2273989070050248,1.1566547787029389,-0.14350775663561288
13537,5.0,299.99971,4296.5126,0.0,0.0,0.0,0.0,0.13492070133618247,0.0,-0.36048647053974464,-0.3683029249911686,-0.5772431509494634,0.2284028352041048,1.1273309155088989,-0.12711764593303487
13538,5.0,299.93081,4302.0349,0.0,0.0,0.0,0.0,0.1349306681457663,0.0,-0.4279602335138866,-0.3544175584032897,-0.5253333958713695,0.21804621341448582,1.1335244067451489,-0.13150432985596688
13539,5.0,300.45698,4380.2536,0.0,0.0,0.0,0.0,0.1349406349553501,0.0,-0.4128149005591586,-0.36497551298777864,-0.5536972957881684,0.24039094164223876,1.108884089488339,-0.09589083622968872
13540,5.0,301.14096,4394.1333,0.0,0.0,0.0,0.0,0.13495060176493393,0.0,-0.38826661680893165,-0.37694726556929864,-0.5704928990482655,0.27164717410198874,1.160988854680679,-0.14569692400666687
13541,5.0,300.41431,4287.0303,0.0,0.0,0.0,0.0,0.13496056857451774,0.0,-0.3718283665941026,-0.37364235785062966,-0.5576794294761745,0.27356682707894375,1.129931523215559,-0.1153664778982849
13542,5.0,299.49503,3942.5609999999997,0.0,0.0,0.0,0.0,0.1349705353841016,0.0,-0.3152063399384437,-0.32798121481422565,-0.5552525333666585,0.24177821275165176,1.122349980667319,-0.13249419414365887
13543,5.0,299.02024,3732.2826,0.0,0.0,0.0,0.0,0.13498050219368538,0.0,-0.33825404082057464,-0.30705968754443175,-0.48920699707097154,0.2035036426792458,1.081529477863649,-0.12768918991694186
13544,5.0,299.31942999999995,3794.9177,0.0,0.0,0.0,0.0,0.1349904690032692,0.0,-0.37099383354674065,-0.3108403871125577,-0.47172599091323053,0.2568296883496167,1.115043332871209,-0.11167807528176789
13545,5.0,299.74995,4035.6612,0.0,0.0,0.0,0.0,0.13500043581285304,0.0,-0.37151578907075367,-0.3325049914756877,-0.5227194537933935,0.2563145216012737,1.124714906400719,-0.12158275712928389
13546,5.0,299.46783,4034.2834,0.0,0.0,0.0,0.0,0.13501040262243685,0.0,-0.3436835820114287,-0.3465116035705327,-0.5361262420940405,0.26725538339855276,1.1353088414962589,-0.11796480579221988
13547,5.0,299.51355,4036.6182,0.0,0.0,0.0,0.0,0.1350203694320207,0.0,-0.36192635972685067,-0.31156050395862767,-0.5535442747580664,0.2305154211326008,1.1201477828999788,-0.1299513923552039
13548,5.0,299.66302,4333.5942,0.0,0.0,0.0,0.0,0.1350303362416045,0.0,-0.3572964147199107,-0.37614381903500466,-0.5838642134629114,0.2262581393799398,1.163928293220779,-0.13341527901456288
13549,5.0,300.35955,4373.1996,0.0,0.0,0.0,0.0,0.1350403030511883,0.0,-0.4291850401022656,-0.3410412182681477,-0.5591172212355734,0.22850403862409277,1.141898412196599,-0.11947624056888688
13550,5.0,300.14457999999996,4076.6026,0.0,0.0,0.0,0.0,0.13505026986077212,0.0,-0.4048113089467656,-0.32281163306902766,-0.5115624556172835,0.2151641450950478,1.1359791064374092,-0.11132750087966889
13551,5.0,300.10221,3906.8351,0.0,0.0,0.0,0.0,0.13506023667035597,0.0,-0.35351812668702265,-0.3146672199577367,-0.5193949802152935,0.22438489325756478,1.108910130015909,-0.11905633959494588
13552,5.0,300.8135,3947.4097,0.0,0.0,0.0,0.0,0.13507020347993978,0.0,-0.33791063009668265,-0.2999990974026057,-0.5620042646130025,0.23307614731532475,1.131913440411159,-0.1162307701010839
13553,5.0,299.8647,3948.5052,0.0,0.0,0.0,0.0,0.13508017028952357,0.0,-0.3092079297439467,-0.3421352244011177,-0.5489038324800904,0.25728621831467274,1.1434650995012188,-0.13456576370810688
13554,5.0,300.36669,4072.8167,0.0,0.0,0.0,0.0,0.13509013709910742,0.0,-0.31736591027407673,-0.35611626206343866,-0.5645523859644824,0.2230325286140968,1.123715031202039,-0.15041426183473186
13555,5.0,300.77691,4051.7898,0.0,0.0,0.0,0.0,0.13510010390869123,0.0,-0.37773777289981564,-0.33114799627926267,-0.5227571466971135,0.23370731093511576,1.113531158421969,-0.1144815761884519
13556,5.0,299.79677999999996,3964.1804,0.0,0.0,0.0,0.0,0.13511007071827508,0.0,-0.3623045046641707,-0.3515038969457337,-0.4912034645380075,0.2003438019773938,1.1369717875603789,-0.14824395104803886
13557,5.0,299.65071,4277.0794,0.0,0.0,0.0,0.0,0.1351200375278589,0.0,-0.36725859851060166,-0.33700761147506164,-0.5958591289417174,0.2444843403237258,1.1342554666922988,-0.11141753828355488
13558,5.0,300.26513,4525.187,0.0,0.0,0.0,0.0,0.13513000433744268,0.0,-0.4031160098069526,-0.3756949391082037,-0.5967328849004505,0.24218317841911877,1.1199659045070292,-0.10698528850362589
13559,5.0,298.97325,4106.0555,0.0,0.0,0.0,0.0,0.13513997114702653,0.0,-0.33412810667837667,-0.3251041924802857,-0.5889060547680024,0.2244762985490858,1.113103769529789,-0.1119372241273439
13560,5.0,298.71743,3940.555,0.0,0.0,0.0,0.0,0.13514993795661034,0.0,-0.3421332688284247,-0.30428683745327273,-0.5514102079274504,0.2162221099219608,1.142522776908219,-0.1264833311054329
13561,5.0,299.0231,4203.2194,0.0,0.0,0.0,0.0,0.13515990476619416,0.0,-0.4079452307110596,-0.3315400328754537,-0.5381884694925665,0.2421711106104278,1.164280397630529,-0.1080693445206139
13562,5.0,298.90092000000004,4266.1049,0.0,0.0,0.0,0.0,0.135169871575778,0.0,-0.4384198724411726,-0.34114474203086464,-0.5172247606211094,0.24898021207743376,1.1283800346624389,-0.1071724459295969
13563,5.0,299.72022000000004,4133.3922,0.0,0.0,0.0,0.0,0.1351798383853618,0.0,-0.37488455181072466,-0.3330964660890617,-0.5484670203619805,0.25776800860472177,1.1162732158425888,-0.11340152250935889
13564,5.0,300.52357,3946.7394,0.0,0.0,0.0,0.0,0.1351898051949456,0.0,-0.3514828821386597,-0.33379660164315966,-0.5144307538678625,0.2559254234303728,1.112489132019129,-0.11584481300549287
13565,5.0,299.95243,4007.5234,0.0,0.0,0.0,0.0,0.13519977200452946,0.0,-0.3088559773217117,-0.3157301801076427,-0.5936008984438474,0.24019803908820075,1.117792077742489,-0.13176239452393587
13566,5.0,300.5249,4351.9916,0.0,0.0,0.0,0.0,0.13520973881411327,0.0,-0.4049876955241736,-0.37119640250673264,-0.5467126791388405,0.20484828635695182,1.102233115831939,-0.15835683552610286
13567,5.0,301.15426,4475.5466,0.0,0.0,0.0,0.0,0.13521970562369712,0.0,-0.4629597766130726,-0.3463656347611267,-0.5511290107596984,0.2093686990280818,1.108841229009109,-0.12004887886290187
13568,5.0,300.48487,4127.416,0.0,0.0,0.0,0.0,0.1352296724332809,0.0,-0.4043380096925546,-0.33487384861947567,-0.5154195441104485,0.2200029716101028,1.1432165492516888,-0.13190369225038087
13569,5.0,299.3105,3797.7548,0.0,0.0,0.0,0.0,0.13523963924286472,0.0,-0.30994103645629867,-0.32733006990246266,-0.5171515330363825,0.2447983870597198,1.182271362431099,-0.11904330919865988
13570,5.0,299.15288,3963.1311,0.0,0.0,0.0,0.0,0.13524960605244854,0.0,-0.32853103471598866,-0.3070469509906747,-0.5691149194422694,0.27159285376412773,1.1429450995498989,-0.11791720330252188
13571,5.0,299.77295,4236.2831,0.0,0.0,0.0,0.0,0.13525957286203238,0.0,-0.3441383793188137,-0.3495922689095707,-0.5939936341826074,0.2420149485050158,1.1378868537256888,-0.10407919602431691
13572,5.0,300.54064,3946.6907,0.0,0.0,0.0,0.0,0.1352695396716162,0.0,-0.3550741849980937,-0.3339453467578397,-0.5106759023097875,0.26294104553276076,1.1277673223269689,-0.14586884215113385
13573,5.0,298.99089,3914.969,0.0,0.0,0.0,0.0,0.1352795064812,0.0,-0.3862806567454326,-0.3160674100059247,-0.48770474234021055,0.21181353979686882,1.126226067599859,-0.12040155069270789
13574,5.0,299.86292000000003,4331.2746,0.0,0.0,0.0,0.0,0.13528947329078383,0.0,-0.41773715808744766,-0.3756706109733027,-0.5231915472799855,0.2264057496545078,1.113910924559449,-0.16254005882895486
13575,5.0,300.20142999999996,4292.4074,0.0,0.0,0.0,0.0,0.13529944010036765,0.0,-0.39072294783385264,-0.34259138959613766,-0.5714703408897315,0.2022700410799988,1.103125383869999,-0.10928879101596388
13576,5.0,300.14877,3969.7065,0.0,0.0,0.0,0.0,0.1353094069099515,0.0,-0.2946942163715547,-0.3377233510806997,-0.5742740748439384,0.26466738052313676,1.1140822651513589,-0.12245479056284687
13577,5.0,300.70182,4104.5959,0.0,0.0,0.0,0.0,0.1353193737195353,0.0,-0.30929186738223075,-0.34896885665304467,-0.5894339479376014,0.2084236811898158,1.156760055388329,-0.1117989256211949
13578,5.0,301.09512,4102.9402,0.0,0.0,0.0,0.0,0.1353293405291191,0.0,-0.38350336861883566,-0.34261921344388363,-0.5210687883204855,0.2672679375672918,1.1168179390963489,-0.1034065499454319
13579,5.0,299.5169,4098.095,0.0,0.0,0.0,0.0,0.13533930733870295,0.0,-0.4178864908871856,-0.3264864074716997,-0.5013456522089634,0.22327037894257076,1.1530293698451388,-0.12082863560985788
13580,5.0,299.54107999999997,4302.9074,0.0,0.0,0.0,0.0,0.13534927414828676,0.0,-0.43720076031835564,-0.3468727360386737,-0.5239029096451915,0.24464465675454777,1.144604296588649,-0.0969701522627089
13581,5.0,298.83679,3993.1323,0.0,0.0,0.0,0.0,0.13535924095787058,0.0,-0.37142470801926464,-0.31392341332432866,-0.5284643994753755,0.23861244453671476,1.1537189878631988,-0.12172710473852989
13582,5.0,298.4726,3861.5768,0.0,0.0,0.0,0.0,0.13536920776745442,0.0,-0.2996603273641717,-0.3367859934131897,-0.5373766028499415,0.22351633527184478,1.115394424030859,-0.11934909794633888
13583,5.0,298.5982,4143.1124,0.0,0.0,0.0,0.0,0.1353791745770382,0.0,-0.3407809751124637,-0.3481855433982377,-0.5704361975726694,0.2126172700411908,1.122214711778969,-0.14140508029309487
13584,5.0,298.85945,4133.7783,0.0,0.0,0.0,0.0,0.13538914138662203,0.0,-0.4080642977303106,-0.33946021373961466,-0.5090408712859226,0.23138930881384678,1.0959068888325887,-0.11601472491476189
13585,5.0,299.98637,3850.8215,0.0,0.0,0.0,0.0,0.13539910819620588,0.0,-0.37486408415870465,-0.3077033648029577,-0.4879861320254816,0.23064579602296778,1.152466408089579,-0.15170872936748583
13586,5.0,301.15629,3924.1937,0.0,0.0,0.0,0.0,0.1354090750057897,0.0,-0.36616352846502664,-0.3255468611839737,-0.5011465181668106,0.2643230578741548,1.1101128578846091,-0.12319061278546689
13587,5.0,301.74805,4093.7363,0.0,0.0,0.0,0.0,0.13541904181537354,0.0,-0.3466156136932977,-0.33423274501620365,-0.5635452558950865,0.25688910533548076,1.132315903350879,-0.1190613653154419
13588,5.0,300.95599,4214.622,0.0,0.0,0.0,0.0,0.13542900862495733,0.0,-0.3155142159813287,-0.3530668960199897,-0.6125587470198414,0.2578244365027908,1.105620512241249,-0.1011974478919105
13589,5.0,299.06597,4101.8279,0.0,0.0,0.0,0.0,0.13543897543454114,0.0,-0.3333561215596877,-0.3497713608647457,-0.5637257967979045,0.22865580322407078,1.130213206743359,-0.1060203906983979
13590,5.0,299.77191,4266.9449,0.0,0.0,0.0,0.0,0.135448942244125,0.0,-0.4061997452937936,-0.3687804191007937,-0.5220645497237595,0.2220962247266908,1.107877425513989,-0.1130664710987919
13591,5.0,299.70217,4229.7389,0.0,0.0,0.0,0.0,0.1354589090537088,0.0,-0.4141323384716796,-0.3632342122934257,-0.5083684582545606,0.2228978271458028,1.131558296251109,-0.14264140753511087
13592,5.0,299.05996,3944.3635,0.0,0.0,0.0,0.0,0.13546887586329262,0.0,-0.38438301156064963,-0.3300094578043977,-0.4845955540108575,0.24234325166991677,1.133608506503449,-0.13731142829908288
13593,5.0,299.56217000000004,3943.6483,0.0,0.0,0.0,0.0,0.1354788426728764,0.0,-0.36010905514249664,-0.2903513453829467,-0.5483101895115025,0.25342175336077977,1.158109501871509,-0.13437168578395287
13594,5.0,299.62895,3894.0316,0.0,0.0,0.0,0.0,0.13548880948246025,0.0,-0.28843337440115774,-0.32663068415343866,-0.5686243037438495,0.24298506454825874,1.107903060741519,-0.12423979273401288
13595,5.0,299.87074,3772.0455,0.0,0.0,0.0,0.0,0.13549877629204407,0.0,-0.3021430231566947,-0.3175320326279717,-0.5269325781066966,0.2470523213771658,1.1494275697146688,-0.1253488354984669
13596,5.0,299.95713,4145.9497,0.0,0.0,0.0,0.0,0.13550874310162792,0.0,-0.3838058237736856,-0.3428211440563127,-0.5336382064734906,0.23607509403379778,1.1073189220588688,-0.12309240858577489
13597,5.0,299.98065,4230.4673,0.0,0.0,0.0,0.0,0.13551870991121173,0.0,-0.4100769873314476,-0.34277870914212466,-0.5331007178254444,0.25577295968782576,1.1560870546719089,-0.1327383164902519
13598,5.0,300.28382999999997,4052.5338,0.0,0.0,0.0,0.0,0.13552867672079552,0.0,-0.37551092275754266,-0.3121400728833267,-0.5442180877901435,0.2194237573229388,1.116464821436499,-0.1072180725815999
13599,5.0,300.85014,4262.3636,0.0,0.0,0.0,0.0,0.13553864353037937,0.0,-0.35775710914287767,-0.35728335392612165,-0.5806116401119075,0.24736640864316378,1.137998311236689,-0.1118606933472909
13600,5.0,299.81191,4320.267,0.0,0.0,0.0,0.0,0.13554861033996315,0.0,-0.35354197859437664,-0.36113590305883864,-0.5985754092797935,0.24590954751688274,1.1079475424209089,-0.12140495200173589
13601,5.0,299.64582,4223.367,0.0,0.0,0.0,0.0,0.135558577149547,0.0,-0.3904948348388396,-0.3379223230028367,-0.5553809729493345,0.27422394003379574,1.1481034544839888,-0.1111629997259339
13602,5.0,299.78357,4088.0624,0.0,0.0,0.0,0.0,0.13556854395913084,0.0,-0.4021851977350886,-0.3381140907167627,-0.5023696123625205,0.26229907053440277,1.124306667935429,-0.14440872849203185
13603,5.0,299.04785,3963.3752,0.0,0.0,0.0,0.0,0.13557851076871463,0.0,-0.3939952592968046,-0.30132892736384975,-0.5094428985280995,0.2334237326296288,1.1521952623628189,-0.12533075911668287
13604,5.0,299.11071,3805.8045,0.0,0.0,0.0,0.0,0.13558847757829845,0.0,-0.34656214448552064,-0.2950132482980407,-0.5152941240130705,0.2273203193272688,1.135075084698189,-0.12939707362299688
13605,5.0,299.09846,4015.9240000000004,0.0,0.0,0.0,0.0,0.1355984443878823,0.0,-0.3114995468326117,-0.3403529478727207,-0.5688881338048875,0.20662517239481681,1.147033867678429,-0.1185488431498599
13606,5.0,298.00015,4267.441,0.0,0.0,0.0,0.0,0.1356084111974661,0.0,-0.35640315369675263,-0.35233415407767366,-0.5884582184888044,0.2317177740987638,1.122642201996159,-0.13468758676762987
13607,5.0,298.50043,4320.9518,0.0,0.0,0.0,0.0,0.13561837800704996,0.0,-0.3965899800203836,-0.36101876121477766,-0.5558527117983915,0.21944127641716782,1.107824027233719,-0.10113521609726871
13608,5.0,299.11669,4173.6902,0.0,0.0,0.0,0.0,0.13562834481663374,0.0,-0.39127652689348663,-0.37095283744769464,-0.5064682495470245,0.25405105260038674,1.105233248053029,-0.14417172929364186
13609,5.0,299.04765,4140.571,0.0,0.0,0.0,0.0,0.13563831162621756,0.0,-0.38101370166562465,-0.3328735510670617,-0.5447429412094424,0.23198458311509576,1.144314507060049,-0.1164457412422999
13610,5.0,300.23548999999997,4069.5009999999997,0.0,0.0,0.0,0.0,0.1356482784358014,0.0,-0.35219158978860365,-0.3391676783032437,-0.5456674204681814,0.26502085282052174,1.1363829879272689,-0.11331765579858188
13611,5.0,300.19768,3914.6417,0.0,0.0,0.0,0.0,0.13565824524538522,0.0,-0.2829215471696827,-0.3209943284846737,-0.5860374424098924,0.21476666734581984,1.156331146620999,-0.1183493342051699
13612,5.0,298.89499,3942.2123,0.0,0.0,0.0,0.0,0.13566821205496904,0.0,-0.3482582744904157,-0.3098446155767827,-0.5402312120916695,0.23396709812825478,1.160323352014999,-0.13094754892601687
13613,5.0,299.67839,3937.2258,0.0,0.0,0.0,0.0,0.13567817886455283,0.0,-0.38630933172326265,-0.3132816713734937,-0.49722732757501653,0.21414716623467978,1.1448306566609887,-0.14471033251679785
13614,5.0,299.6688,3989.417,0.0,0.0,0.0,0.0,0.13568814567413667,0.0,-0.39793477568560465,-0.3100322694953027,-0.5047161172091025,0.2322041746767678,1.1289190837156389,-0.14157180046454887
13615,5.0,298.8818,4083.8823,0.0,0.0,0.0,0.0,0.1356981124837205,0.0,-0.39152301011281265,-0.3274959288113317,-0.5223793158673246,0.22576624698639378,1.1060939026879688,-0.14342459919990588
13616,5.0,299.6785,4193.0661,0.0,0.0,0.0,0.0,0.13570807929330433,0.0,-0.3873285194688486,-0.3001841371358677,-0.5870747166697634,0.2564764997622598,1.1138880251071888,-0.10163641215323291
13617,5.0,301.2748,4167.6638,0.0,0.0,0.0,0.0,0.13571804610288812,0.0,-0.3107433481504807,-0.3524734354364197,-0.6036489450480125,0.2589751137138538,1.142349308491099,-0.12191163784674187
13618,5.0,300.87255,4066.46,0.0,0.0,0.0,0.0,0.13572801291247194,0.0,-0.3688727768474086,-0.3277014564616157,-0.5395280570522735,0.26928732475158973,1.1401849049524888,-0.09709994250776822
13619,5.0,300.46647,4142.492,0.0,0.0,0.0,0.0,0.13573797972205578,0.0,-0.3973717126050346,-0.3312929011760637,-0.5305495161936605,0.2410305152378598,1.1365040713142187,-0.13000862072085187
13620,5.0,300.25192999999996,4144.1273,0.0,0.0,0.0,0.0,0.1357479465316396,0.0,-0.42162383348353255,-0.3256930934384057,-0.5123942934193795,0.20901528752570278,1.143241069904109,-0.1188142741460559
13621,5.0,298.90801,3982.8387,0.0,0.0,0.0,0.0,0.13575791334122342,0.0,-0.36865930531634067,-0.3253842750729277,-0.5166399329283915,0.21576761658960578,1.149277102074819,-0.14468019845882385
13622,5.0,299.14234,4027.5347,0.0,0.0,0.0,0.0,0.13576788015080724,0.0,-0.30386296453893974,-0.32829756162794665,-0.5921094753566555,0.2073334747447208,1.1430559491108387,-0.10922225088189688
13623,5.0,300.1888,4079.5066,0.0,0.0,0.0,0.0,0.13577784696039105,0.0,-0.3105914416954887,-0.3471737017158767,-0.5823029977088314,0.23392183624628776,1.1224518123023688,-0.13932425975523388
13624,5.0,299.66559,4149.1354,0.0,0.0,0.0,0.0,0.13578781376997487,0.0,-0.3799829730013996,-0.3326941652693577,-0.5485564194183035,0.23305929696616176,1.122915475548129,-0.11965701451922789
13625,5.0,300.45896,4195.2457,0.0,0.0,0.0,0.0,0.1357977805795587,0.0,-0.44284344880024556,-0.32013110019447966,-0.5122753885201445,0.2710152606771237,1.133703346712809,-0.16198999574716783
13626,5.0,301.75278,4164.0141,0.0,0.0,0.0,0.0,0.13580774738914253,0.0,-0.4163618737267176,-0.33151473202045667,-0.5178796849557455,0.23348524704319978,1.128111827360969,-0.12828207294795488
13627,5.0,299.59835,3989.2121,0.0,0.0,0.0,0.0,0.13581771419872635,0.0,-0.37365450671932865,-0.3141471794764127,-0.5248191917106215,0.23895703063072277,1.122551516112209,-0.1340196421692089
13628,5.0,299.64049,4155.9539,0.0,0.0,0.0,0.0,0.13582768100831016,0.0,-0.3149620250743317,-0.33311882851876873,-0.6152253578380154,0.20656984893935681,1.1212748209862091,-0.11560487538181288
13629,5.0,299.36984,4107.9477,0.0,0.0,0.0,0.0,0.13583764781789398,0.0,-0.3331719430890107,-0.3431344207222307,-0.5724071615346884,0.2517443380852318,1.131387968909299,-0.13006337675625587
13630,5.0,298.49764,3839.0596,0.0,0.0,0.0,0.0,0.13584761462747783,0.0,-0.3551597235715357,-0.3003492563721637,-0.5114692670055865,0.23032479839128778,1.140113065520399,-0.1168740623245719
13631,5.0,299.28779,3989.6562,0.0,0.0,0.0,0.0,0.13585758143706161,0.0,-0.39159426185984464,-0.3488048418593577,-0.4723567593654826,0.2639736588421718,1.1370050221636592,-0.16573712633948084
13632,5.0,299.30499,4178.688,0.0,0.0,0.0,0.0,0.13586754824664546,0.0,-0.4128518841878086,-0.3201849645697957,-0.5371799512705334,0.24543144545719775,1.1552208271614188,-0.11186244626996389
13633,5.0,300.51157,4271.924,0.0,0.0,0.0,0.0,0.13587751505622928,0.0,-0.37813414620643465,-0.33433753534154564,-0.5860865343772375,0.25507482023642475,1.1609467034765188,-0.12453308810795889
13634,5.0,301.32128,4245.0367,0.0,0.0,0.0,0.0,0.1358874818658131,0.0,-0.32533318700288566,-0.3269510231725537,-0.6381009379256594,0.23196161273532878,1.1610254330092886,-0.09181725064065711
13635,5.0,301.3361,4096.8772,0.0,0.0,0.0,0.0,0.1358974486753969,0.0,-0.35723366414121765,-0.3112030090583457,-0.5769116763117494,0.23520696161311977,1.1221779308003388,-0.09175839803509882
13636,5.0,300.51284,4108.6704,0.0,0.0,0.0,0.0,0.13590741548498073,0.0,-0.3981538606222266,-0.3121563760774357,-0.5386229612679475,0.23257288625565678,1.137975817084469,-0.0983612301527476
13637,5.0,300.12124,4295.6649,0.0,0.0,0.0,0.0,0.13591738229456454,0.0,-0.4438899639010286,-0.3296296714019157,-0.5322552214120005,0.24797582791580874,1.128209403345599,-0.15429414845514686
13638,5.0,299.54597,4313.9042,0.0,0.0,0.0,0.0,0.13592734910414836,0.0,-0.43619093500369355,-0.3319950227003577,-0.5431332110405744,0.2479849572992098,1.140269916635879,-0.12459413642648388
13639,5.0,299.9169,4148.0461,0.0,0.0,0.0,0.0,0.1359373159137322,0.0,-0.34166963598016764,-0.36650768899399266,-0.5527251127147215,0.23808171426683575,1.1136005660538189,-0.14409783296384887
13640,5.0,300.10046,4018.6402,0.0,0.0,0.0,0.0,0.135947282723316,0.0,-0.29756680067005675,-0.33245924323367265,-0.5915402415829765,0.25069427660909877,1.151368754256249,-0.11943636917745189
13641,5.0,301.02357,4216.7543,0.0,0.0,0.0,0.0,0.13595724953289984,0.0,-0.3407896687983217,-0.3542505139918037,-0.5867478320550024,0.25963000765098676,1.118006988088699,-0.10860978172645089
13642,5.0,301.11417,4218.6624,0.0,0.0,0.0,0.0,0.13596721634248365,0.0,-0.4129626830862436,-0.35369054132403865,-0.5157148051895885,0.24852886995288975,1.1378311249701887,-0.1165658519091539
13643,5.0,301.01299,3982.9277,0.0,0.0,0.0,0.0,0.13597718315206747,0.0,-0.37124511957154066,-0.33211308660200967,-0.5073523609217795,0.21845796785762278,1.1044473712754688,-0.12921592477011887
13644,5.0,301.11463,4046.2547,0.0,0.0,0.0,0.0,0.1359871499616513,0.0,-0.3972900243819726,-0.34139845985590467,-0.4912718994497615,0.2175761869580978,1.1637371942519188,-0.15108332100826286
13645,5.0,300.46338,4240.2618,0.0,0.0,0.0,0.0,0.1359971167712351,0.0,-0.3372672365481847,-0.33234582001747864,-0.6193206715621914,0.2188829756120678,1.136899340178229,-0.12615002248503787
13646,5.0,300.12535,4332.9161,0.0,0.0,0.0,0.0,0.13600708358081895,0.0,-0.3617054408075477,-0.3368905000285037,-0.6185023606489304,0.2244600561499828,1.1684252998145988,-0.13753059429571288
13647,5.0,299.44345,4181.3009,0.0,0.0,0.0,0.0,0.13601705039040277,0.0,-0.35518764874429165,-0.3278950074957177,-0.5879284102765164,0.22748202391072778,1.1092399429234592,-0.07751206515209522
13648,5.0,299.59994,4027.7065,0.0,0.0,0.0,0.0,0.13602701719998656,0.0,-0.3942514494520886,-0.30985302555261274,-0.5202177291639926,0.24888992136102275,1.130214827943519,-0.1080162502153739
13649,5.0,300.3087,4077.8333,0.0,0.0,0.0,0.0,0.1360369840095704,0.0,-0.3933127340294446,-0.3303636596418547,-0.5158831060311985,0.29950119643596673,1.137224796110349,-0.11947397088866288
13650,5.0,300.23449,4304.2179,0.0,0.0,0.0,0.0,0.13604695081915424,0.0,-0.4132762333296886,-0.36125029899512867,-0.5338482228217175,0.26570833288087076,1.1555291591668488,-0.12889811887625385
13651,5.0,300.11102999999997,4381.3322,0.0,0.0,0.0,0.0,0.13605691762873803,0.0,-0.3724950344973976,-0.3705198148849586,-0.5888007274201075,0.25272541749455674,1.1055464436589388,-0.1106457051523809
13652,5.0,300.59277000000003,4101.6812,0.0,0.0,0.0,0.0,0.13606688443832188,0.0,-0.32849537844496973,-0.3494732626853257,-0.5688400348226405,0.2005864855088448,1.129915919164019,-0.12185872592651989
13653,5.0,301.08181,3844.7614,0.0,0.0,0.0,0.0,0.13607685124790567,0.0,-0.35320931845404563,-0.3210713861547787,-0.4944307572990166,0.2496355619771118,1.124180112997939,-0.11380233385141589
13654,5.0,300.4442,4007.6015,0.0,0.0,0.0,0.0,0.13608681805748948,0.0,-0.38676660136089164,-0.3247584816786667,-0.5066857234159875,0.22798653126801877,1.152813750223859,-0.11600460254626288
13655,5.0,300.22823999999997,4314.7306,0.0,0.0,0.0,0.0,0.13609678486707333,0.0,-0.42165061368367557,-0.3792278179668716,-0.5106919319263695,0.23999695960585576,1.139896229998999,-0.14910155580017787
13656,5.0,300.38567,4069.5154,0.0,0.0,0.0,0.0,0.13610675167665715,0.0,-0.3534414033894507,-0.3358390402672327,-0.5477506120112765,0.2135971031528928,1.1630853704625888,-0.1415367724085919
13657,5.0,300.78607,3784.5475,0.0,0.0,0.0,0.0,0.13611671848624096,0.0,-0.2923027333530337,-0.3246813632135557,-0.5334238534148354,0.21609454173437082,1.1683660246837488,-0.16752577621100684
13658,5.0,299.60157999999996,3749.4495,0.0,0.0,0.0,0.0,0.13612668529582478,0.0,-0.32850050549047566,-0.28744553661366573,-0.5237929618768405,0.2238755932273008,1.156513835614029,-0.12035946028355388
13659,5.0,299.67331,4015.8895,0.0,0.0,0.0,0.0,0.1361366521054086,0.0,-0.38359147071503064,-0.3144517117939677,-0.5226869487301855,0.24944274048308177,1.097319562122009,-0.13223455893803487
13660,5.0,299.76832,4401.3835,0.0,0.0,0.0,0.0,0.1361466189149924,0.0,-0.4108094759612386,-0.37687866853752866,-0.5502225470877374,0.25965981746892874,1.138927157603359,-0.1015519273598949
13661,5.0,300.24962999999997,4364.3041,0.0,0.0,0.0,0.0,0.13615658572457626,0.0,-0.42610751583853756,-0.3548829644392217,-0.5456489793163615,0.28260013410546175,1.124624828466829,-0.1211482552214019
13662,5.0,299.0289,4151.7348,0.0,0.0,0.0,0.0,0.13616655253416007,0.0,-0.3407632635007157,-0.35480703147672765,-0.5664534154045995,0.24923027206961276,1.1502867044744591,-0.12478938972075387
13663,5.0,299.5826,4198.5714,0.0,0.0,0.0,0.0,0.13617651934374386,0.0,-0.3480192285268237,-0.34684580385101565,-0.5813958247618004,0.23312166250981675,1.140012348460459,-0.1288842677473869
13664,5.0,300.29742999999996,4313.0024,0.0,0.0,0.0,0.0,0.1361864861533277,0.0,-0.3922721363092456,-0.33272064149447067,-0.5860522662588554,0.23050384981645877,1.141006042833529,-0.10755203981455991
13665,5.0,301.26457,4091.3669,0.0,0.0,0.0,0.0,0.13619645296291152,0.0,-0.4170664067862496,-0.32546460554085566,-0.5011423638414004,0.25184240042990974,1.1652590959021187,-0.1070556181930669
13666,5.0,301.16615,3897.5199,0.0,0.0,0.0,0.0,0.13620641977249537,0.0,-0.3814137530701066,-0.28757674236911474,-0.5157582432213755,0.2068264241296788,1.148034958777229,-0.1061423252154319
13667,5.0,299.91896,4034.0072,0.0,0.0,0.0,0.0,0.13621638658207919,0.0,-0.40463524660938965,-0.3143148014404557,-0.5072874217228704,0.23584575500616375,1.1271772054687288,-0.11885140976222089
13668,5.0,298.59456,4443.4514,0.0,0.0,0.0,0.0,0.13622635339166297,0.0,-0.36256711882508863,-0.36355140010472964,-0.6245797435562214,0.22405824169032681,1.1721336938555889,-0.13285783947204788
13669,5.0,300.26642999999996,4555.5482,0.0,0.0,0.0,0.0,0.13623632020124682,0.0,-0.3880551109830576,-0.36126105971119066,-0.6354567300671964,0.25909105992279674,1.1649814653747188,-0.12057732932005588
13670,5.0,299.80613999999997,4260.83,0.0,0.0,0.0,0.0,0.13624628701083064,0.0,-0.40705278028798164,-0.3292757127444827,-0.5588574441749354,0.2348728119951418,1.143592059738749,-0.12662479095189388
13671,5.0,300.64945,3837.1864,0.0,0.0,0.0,0.0,0.13625625382041445,0.0,-0.37185675786190464,-0.3090206608604647,-0.4855314323332215,0.24792841794362974,1.113888937032279,-0.13335448400856287
13672,5.0,300.15941000000004,3771.9802,0.0,0.0,0.0,0.0,0.1362662206299983,0.0,-0.3571483079527937,-0.3200712677760747,-0.46936823899053853,0.28177793231181675,1.145182153120679,-0.14501399343926685
13673,5.0,299.35147,4101.0801,0.0,0.0,0.0,0.0,0.13627618743958209,0.0,-0.3412899509026957,-0.35000970768576867,-0.5553262979739385,0.24874203750892776,1.1248278837868688,-0.15101392350891385
13674,5.0,299.05071,4094.383,0.0,0.0,0.0,0.0,0.1362861542491659,0.0,-0.3298777859539027,-0.3338230677357717,-0.5808893516993154,0.23117397290259478,1.1384932839105388,-0.14985290101432985
13675,5.0,299.91049,3731.3305,0.0,0.0,0.0,0.0,0.13629612105874975,0.0,-0.2815254810494017,-0.3131902255519687,-0.5395155940760435,0.18308424162900783,1.111881688584179,-0.14699299247457887
13676,5.0,300.05713,3783.4813,0.0,0.0,0.0,0.0,0.13630608786833356,0.0,-0.34954563913996867,-0.31157213606977574,-0.48896606646219354,0.22105833238425882,1.160130935821009,-0.11773967175250089
13677,5.0,300.2819,4457.4091,0.0,0.0,0.0,0.0,0.13631605467791738,0.0,-0.43193049191072064,-0.3409177740084647,-0.5820927888430855,0.22871439947735378,1.1293802138361488,-0.10882799526798691
13678,5.0,299.81516,4750.967000000001,0.0,0.0,0.0,0.0,0.1363260214875012,0.0,-0.5002117746845585,-0.35412095983401765,-0.5898426221004344,0.26564013101663975,1.1308665504078388,-0.0985484453339743
13679,5.0,300.3791,4354.7094,0.0,0.0,0.0,0.0,0.13633598829708501,0.0,-0.3851025508541626,-0.33078949826138165,-0.6078308713907364,0.26416972273652173,1.1143804646557889,-0.0966943617974905
13680,5.0,301.0422,3908.8688,0.0,0.0,0.0,0.0,0.13634595510666883,0.0,-0.2986246743044607,-0.3103699553561297,-0.5792038810854725,0.2771273372678387,1.1457242419241789,-0.1179905423447599
13681,5.0,300.06331,3961.659,0.0,0.0,0.0,0.0,0.13635592191625268,0.0,-0.3321093173116377,-0.29916247706003773,-0.5729736190030935,0.27103474547654677,1.159739821282409,-0.10978943789037389
13682,5.0,298.76576,4272.2837,0.0,0.0,0.0,0.0,0.1363658887258365,0.0,-0.4076707615239716,-0.32667490238780267,-0.5643219120967365,0.23917515297974976,1.119532638764269,-0.1260697122821119
13683,5.0,298.02361,4433.3742,0.0,0.0,0.0,0.0,0.13637585553542028,0.0,-0.45849942940787053,-0.35536145153394466,-0.5337741643719085,0.2127584056476198,1.1198748133230387,-0.11366609224296989
13684,5.0,299.36325,4021.8386,0.0,0.0,0.0,0.0,0.13638582234500413,0.0,-0.37748117744449167,-0.3278911064828327,-0.5171662251628325,0.22311775308000778,1.142809830661549,-0.13409068113371989
13685,5.0,300.07877,3885.2881,0.0,0.0,0.0,0.0,0.13639578915458794,0.0,-0.3016776779157687,-0.3267831174984827,-0.5525697612093895,0.22642804115670778,1.1539681460627889,-0.1002415173500675
13686,5.0,300.14546,4415.6489,0.0,0.0,0.0,0.0,0.1364057559641718,0.0,-0.3414211667906457,-0.37840808850347063,-0.6224177616853505,0.2404427288548498,1.1071166773389092,-0.1287466177213019
13687,5.0,300.13247,4491.9534,0.0,0.0,0.0,0.0,0.1364157227737556,0.0,-0.41855555006071665,-0.3352535944919537,-0.6116325148384295,0.21980713063077478,1.130914071837529,-0.1027141556220979
13688,5.0,300.72997999999995,4029.9877,0.0,0.0,0.0,0.0,0.1364256895833394,0.0,-0.36831292576965563,-0.3329878760758447,-0.5237148504266315,0.24857225732217178,1.1722229611893988,-0.14272135296800087
13689,5.0,301.54931,3761.8982,0.0,0.0,0.0,0.0,0.13643565639292324,0.0,-0.3872068787943436,-0.28140820748282774,-0.4749080217922725,0.24472979002794978,1.1691352841596687,-0.13900931122665086
13690,5.0,300.20041000000003,3964.0126,0.0,0.0,0.0,0.0,0.13644562320250705,0.0,-0.3920931558115816,-0.3218738194389727,-0.49099386362232156,0.24198667882722577,1.1120062170214688,-0.15053497031914487
13691,5.0,298.93433999999996,4276.8835,0.0,0.0,0.0,0.0,0.13645559001209087,0.0,-0.37185103299883965,-0.3600775835943907,-0.5681371837582745,0.2175324449512808,1.110993270896499,-0.16186080635941785
13692,5.0,299.38427,4222.6698,0.0,0.0,0.0,0.0,0.13646555682167472,0.0,-0.3238018418617537,-0.36373931746827565,-0.5960450299375645,0.24081232196132576,1.147980243271829,-0.14824136726028386
13693,5.0,299.90296,4083.8678,0.0,0.0,0.0,0.0,0.1364755236312585,0.0,-0.3159008823519897,-0.3507700606933096,-0.5747228939757335,0.22553586431115677,1.1757635610138288,-0.14436557417027285
13694,5.0,300.41405,4164.9476,0.0,0.0,0.0,0.0,0.13648549044084232,0.0,-0.3578795908149657,-0.34801604692150967,-0.5601444440544525,0.23320454636799678,1.134729769064109,-0.0969675228786994
13695,5.0,299.69226000000003,4411.7713,0.0,0.0,0.0,0.0,0.13649545725042617,0.0,-0.43893573833208455,-0.3479746657874257,-0.5541578990186264,0.24081761112684777,1.1548218092720388,-0.09502554293579091
13696,5.0,298.63691,4590.7146,0.0,0.0,0.0,0.0,0.13650542406000998,0.0,-0.45452656695827953,-0.3569048948812707,-0.5840311565493874,0.27414804760130573,1.161644427495379,-0.08474083657201942
13697,5.0,299.69736,4416.7972,0.0,0.0,0.0,0.0,0.13651539086959383,0.0,-0.3934330068163146,-0.3422657006164947,-0.6068973438086044,0.25911635064529276,1.1632781919566189,-0.10273988204213691
13698,5.0,300.1043,4077.0816,0.0,0.0,0.0,0.0,0.13652535767917762,0.0,-0.3404433703116447,-0.32605565458918767,-0.5728319970366165,0.2161859267608898,1.107947137120869,-0.12459311304388289
13699,5.0,299.68985,4142.9542,0.0,0.0,0.0,0.0,0.13653532448876143,0.0,-0.37125786625779866,-0.3152915644043547,-0.5728052067039724,0.20835846841337977,1.117583449546899,-0.13460826954980187
13700,5.0,300.77081,4370.1242,0.0,0.0,0.0,0.0,0.13654529129834525,0.0,-0.41611081061693966,-0.34714987007352466,-0.5651479642407615,0.24670445235283375,1.146592597259879,-0.14362431079461588
13701,5.0,300.01524,4121.4296,0.0,0.0,0.0,0.0,0.1365552581079291,0.0,-0.42965173296582465,-0.32211028161480965,-0.5010496717222526,0.2510872149978787,1.1805092191821889,-0.1198570908839739
13702,5.0,301.24425,4053.2814,0.0,0.0,0.0,0.0,0.1365652249175129,0.0,-0.37817524363049065,-0.34412258274975466,-0.5097985189156965,0.2592552672340027,1.1397677498863188,-0.16465769074294886
13703,5.0,300.70161,3974.8024,0.0,0.0,0.0,0.0,0.1365751917270967,0.0,-0.3349032227398747,-0.3359176482099907,-0.5374197977017046,0.2522857074811608,1.1611997120264888,-0.14527670892519487
13704,5.0,299.74065,4006.3038,0.0,0.0,0.0,0.0,0.13658515853668055,0.0,-0.3016851050390017,-0.36632043024301164,-0.5498107723795984,0.2718540797724087,1.159512853260009,-0.16070391792524186
13705,5.0,299.53965,4255.7005,0.0,0.0,0.0,0.0,0.13659512534626436,0.0,-0.34225437248037666,-0.35148574963644263,-0.5998865447766923,0.24544052417809378,1.142261966332479,-0.11762735297891588
13706,5.0,300.01779,4264.1902,0.0,0.0,0.0,0.0,0.1366050921558482,0.0,-0.3865183044238866,-0.3509476125083326,-0.5587414371709865,0.22414843108172777,1.104725609752929,-0.1095850248151999
13707,5.0,299.88825,3955.3792,0.0,0.0,0.0,0.0,0.13661505896543202,0.0,-0.3849895025405056,-0.3044277805421827,-0.5129192278986865,0.2006129819989598,1.1178528727484887,-0.08882645450598851
13708,5.0,300.06692000000004,4119.4107,0.0,0.0,0.0,0.0,0.1366250257750158,0.0,-0.3978722885519376,-0.3354434268981887,-0.5188822756646935,0.25283642917551274,1.1461780766439689,-0.1267197831487689
13709,5.0,300.62,4472.0979,0.0,0.0,0.0,0.0,0.13663499258459966,0.0,-0.4105983957004066,-0.3566983539808866,-0.5921093335016414,0.23348626029329977,1.1664174434164387,-0.14812765020156085
13710,5.0,300.21932000000004,4498.0739,0.0,0.0,0.0,0.0,0.13664495939418347,0.0,-0.4079797926719706,-0.37862505574738364,-0.5806973002753614,0.2465240330400278,1.116254774690769,-0.15505555524279185
13711,5.0,300.69937999999996,4287.3808,0.0,0.0,0.0,0.0,0.1366549262037673,0.0,-0.3690410979540206,-0.36314725516984364,-0.5710683541775584,0.23010824657991577,1.1566485978773289,-0.16519680059115485
13712,5.0,300.68699,3911.7419,0.0,0.0,0.0,0.0,0.13666489301335114,0.0,-0.3637703634513397,-0.3097027402977807,-0.5155987677881365,0.29091891742646175,1.1649004053667187,-0.13600625071277186
13713,5.0,300.50662,3923.8042,0.0,0.0,0.0,0.0,0.13667485982293492,0.0,-0.36670484719845065,-0.28641031925149774,-0.5396233329591765,0.25880426961449277,1.152208941239169,-0.1024657978900869
13714,5.0,300.90882,4132.274,0.0,0.0,0.0,0.0,0.13668482663251874,0.0,-0.36812460310606965,-0.3258368837600967,-0.5621466262520525,0.25599503371224275,1.114445211337179,-0.11622357602537388
13715,5.0,300.52213,4346.9635,0.0,0.0,0.0,0.0,0.13669479344210259,0.0,-0.36394933381650263,-0.3402803890330596,-0.6171386476043424,0.20436809700206082,1.117561664669749,-0.09593434721548291
13716,5.0,300.82963,4254.1532,0.0,0.0,0.0,0.0,0.1367047602516864,0.0,-0.3388000914319657,-0.3697003995290886,-0.5846558556335404,0.24736480770800576,1.115086699975489,-0.15342880247224386
13717,5.0,300.39961,4228.7106,0.0,0.0,0.0,0.0,0.13671472706127025,0.0,-0.36367585761451265,-0.35543211559591864,-0.5663144684183865,0.20281563572884478,1.120440612178879,-0.11491349430857889
13718,5.0,299.99977,4342.4514,0.0,0.0,0.0,0.0,0.13672469387085404,0.0,-0.42353688006983553,-0.35222379087678163,-0.5442361337744245,0.23137572113000576,1.1119344789143888,-0.13801179690070386
13719,5.0,299.20671,4286.8903,0.0,0.0,0.0,0.0,0.13673466068043785,0.0,-0.42349861974605957,-0.35155041525782466,-0.5280585522803215,0.2093548276342128,1.1500262991987589,-0.1032668430216439
13720,5.0,300.10292999999996,3919.2747,0.0,0.0,0.0,0.0,0.13674462749002167,0.0,-0.33761955374045566,-0.3311118536481957,-0.5226302168570865,0.27213334163246977,1.169027170373999,-0.16826303724876884
13721,5.0,298.96981,3791.2397,0.0,0.0,0.0,0.0,0.13675459429960551,0.0,-0.2957978078504707,-0.3221708334407857,-0.5344735602534335,0.23466602791473376,1.171163912184879,-0.14098580753421586
13722,5.0,300.07122000000004,4090.8748,0.0,0.0,0.0,0.0,0.13676456110918933,0.0,-0.3360734252803647,-0.3345095649435237,-0.5729407998323545,0.24090726349569574,1.127808764256059,-0.17077627239930582
13723,5.0,299.21332,4194.2215,0.0,0.0,0.0,0.0,0.13677452791877312,0.0,-0.37806775805988263,-0.3132959683324047,-0.5835748697643555,0.21416635719157381,1.117732194661579,-0.1166244177649339
13724,5.0,299.62795,4166.1366,0.0,0.0,0.0,0.0,0.13678449472835696,0.0,-0.4081815307668806,-0.31373659027089074,-0.5444833667988245,0.2255422984492918,1.1205709161417388,-0.1126161219593459
13725,5.0,300.25344,4157.323,0.0,0.0,0.0,0.0,0.13679446153794078,0.0,-0.39749204618691064,-0.3029437237832177,-0.5632866339395625,0.22789386954637378,1.112554790625609,-0.06356216973159773
13726,5.0,299.03581,4213.1429,0.0,0.0,0.0,0.0,0.13680442834752463,0.0,-0.3881569628831096,-0.3225937032375197,-0.5699395631686555,0.24233841846693976,1.115489872190279,-0.08259715298470433
13727,5.0,298.52885,4354.5569,0.0,0.0,0.0,0.0,0.13681439515710841,0.0,-0.3568040866288217,-0.36933431226795865,-0.5975381654174254,0.27284803759050474,1.168410709013159,-0.12022819373309888
13728,5.0,299.47,4416.5308,0.0,0.0,0.0,0.0,0.13682436196669223,0.0,-0.36948902542572765,-0.3669193522446207,-0.6061067047555744,0.25970055012294874,1.167441433967499,-0.12744404418774788
13729,5.0,299.85188,4237.0238,0.0,0.0,0.0,0.0,0.13683432877627608,0.0,-0.37943459191477863,-0.34417230293216167,-0.5643425418687724,0.2290273316382378,1.1631066487146888,-0.14978836711546087
13730,5.0,300.20817,3878.6103,0.0,0.0,0.0,0.0,0.1368442955858599,0.0,-0.3985702456183206,-0.2987609159129067,-0.48166952076958053,0.2057270579036798,1.129515482724499,-0.1141993961681029
13731,5.0,300.09569,3696.4092,0.0,0.0,0.0,0.0,0.1368542623954437,0.0,-0.36082382202803864,-0.26039757499923977,-0.5023947105674975,0.2215168584520118,1.146055574706879,-0.13015996988828887
13732,5.0,299.32504,3906.1837,0.0,0.0,0.0,0.0,0.13686422920502753,0.0,-0.3394122768773837,-0.30699090812764374,-0.5409791325204835,0.2189165141903778,1.1721605449832389,-0.14370880572045486
13733,5.0,300.2635,4119.1795,0.0,0.0,0.0,0.0,0.13687419601461134,0.0,-0.3194207409468727,-0.34385664512850866,-0.5888503260125024,0.25789350976210773,1.149703579041909,-0.15193556566737285
13734,5.0,300.1045,4171.9842,0.0,0.0,0.0,0.0,0.13688416282419516,0.0,-0.33873698621573767,-0.35682455428084164,-0.5726175021229474,0.24152699765435875,1.145624436789329,-0.15807905301118785
13735,5.0,299.72862000000003,4166.5476,0.0,0.0,0.0,0.0,0.136894129633779,0.0,-0.38098865412315264,-0.3574444809570237,-0.5280932763612485,0.27053574006729875,1.145067453209359,-0.15286478693657984
13736,5.0,299.65719,4240.3753,0.0,0.0,0.0,0.0,0.13690409644336282,0.0,-0.41122397631214663,-0.3394688972929717,-0.5382753354236396,0.26251617963332974,1.1545674834969388,-0.1195957736831839
13737,5.0,300.41729,4263.8123,0.0,0.0,0.0,0.0,0.13691406325294664,0.0,-0.40034332183580956,-0.35694787695051267,-0.5388012831530464,0.24410737075652178,1.135083393349009,-0.13135043743077887
13738,5.0,301.23255,4319.5354,0.0,0.0,0.0,0.0,0.13692403006253046,0.0,-0.39413519926811563,-0.3519500208322626,-0.5669456827006825,0.20139022588566782,1.130447368841469,-0.11409785837558188
13739,5.0,300.98884,4046.7317,0.0,0.0,0.0,0.0,0.13693399687211427,0.0,-0.3311815753875767,-0.32817879858372573,-0.5707450159381474,0.23005792857994978,1.1507221993674388,-0.15875888303328184
13740,5.0,300.60998,3881.5178,0.0,0.0,0.0,0.0,0.1369439636816981,0.0,-0.31101853674513974,-0.3287985935373947,-0.5400673594179984,0.2313241770974188,1.170207201440459,-0.16221945636481383
13741,5.0,300.51947,4019.2043,0.0,0.0,0.0,0.0,0.1369539304912819,0.0,-0.37005538156912265,-0.3155335285282347,-0.5361488375712704,0.2417656991129168,1.160453149352809,-0.15492009383692285
13742,5.0,300.79361,4383.2641,0.0,0.0,0.0,0.0,0.13696389730086575,0.0,-0.4550683315217475,-0.3386552878601747,-0.5386792270460005,0.24415645259136576,1.149354413057449,-0.10117018437146981
13743,5.0,300.14855,4300.1171,0.0,0.0,0.0,0.0,0.13697386411044954,0.0,-0.4142137632497156,-0.3420096928462287,-0.5509047683800675,0.26732495315041876,1.1556766883814091,-0.12065105339733187
13744,5.0,300.48143,4211.9016,0.0,0.0,0.0,0.0,0.13698383092003338,0.0,-0.36986825454065464,-0.3074730226577247,-0.6029716582836694,0.2570536166217167,1.173418798957419,-0.07272816287196084
13745,5.0,299.81514,4400.6258,0.0,0.0,0.0,0.0,0.1369937977296172,0.0,-0.33814638299744965,-0.3813303423218746,-0.6182036443869494,0.24090107253758475,1.138005302662379,-0.11849085484663689
13746,5.0,299.64027000000004,4577.7425,0.0,0.0,0.0,0.0,0.13700376453920102,0.0,-0.39548179851851467,-0.3632688046518397,-0.6327688004669184,0.23521445966385976,1.135764094766189,-0.1058267383392859
13747,5.0,300.07857,4445.9241,0.0,0.0,0.0,0.0,0.13701373134878483,0.0,-0.4254725120008676,-0.35181671764910666,-0.5741606820252475,0.22670399982144276,1.1196638546522188,-0.13135002199823786
13748,5.0,300.68796000000003,4009.9429999999998,0.0,0.0,0.0,0.0,0.13702369815836865,0.0,-0.3839916741070276,-0.3294517142868527,-0.5054791553294085,0.27706852823203476,1.133323580575329,-0.13998678346561988
13749,5.0,299.20859,3690.7803,0.0,0.0,0.0,0.0,0.13703366496795247,0.0,-0.3181492944563907,-0.29585926146903574,-0.5078964964904815,0.24300653531787778,1.120918562251049,-0.13722195831525288
13750,5.0,300.01126,3921.5081,0.0,0.0,0.0,0.0,0.13704363177753628,0.0,-0.3351411338633547,-0.31961300515334773,-0.5372864134585404,0.25949687672034777,1.142623595293169,-0.14258891104742985
13751,5.0,299.08277999999996,4151.3376,0.0,0.0,0.0,0.0,0.13705359858712013,0.0,-0.31150679157082667,-0.36482973669589164,-0.5855664432334085,0.25967570523049677,1.120329357317899,-0.15967720173141284
13752,5.0,299.74096000000003,3925.9491,0.0,0.0,0.0,0.0,0.13706356539670395,0.0,-0.3428834994674667,-0.3098939304591497,-0.5406130655243555,0.24654806733239976,1.193499490764229,-0.16870008241440185
13753,5.0,300.61475,3955.9902,0.0,0.0,0.0,0.0,0.13707353220628776,0.0,-0.33909277885585165,-0.33940555902922065,-0.5240238815746305,0.23428235063186778,1.141278809760449,-0.13999767590419487
13754,5.0,301.80019,4515.0774,0.0,0.0,0.0,0.0,0.13708349901587158,0.0,-0.46688126728259355,-0.33735403155175064,-0.5682354892829765,0.2038226644732308,1.146619043087489,-0.1176093981871439
13755,5.0,300.19077000000004,4700.9429,0.0,0.0,0.0,0.0,0.1370934658254554,0.0,-0.4461876604902936,-0.3628653284620197,-0.6199162802359733,0.21953538708645579,1.1181247277503188,-0.100382313517713
13756,5.0,300.67433,4388.2225,0.0,0.0,0.0,0.0,0.13710343263503924,0.0,-0.41300317256023966,-0.3322622471492307,-0.5886446463747035,0.22770553675028676,1.125826441760419,-0.094620304704047
13757,5.0,300.31557000000004,4155.6123,0.0,0.0,0.0,0.0,0.13711339944462306,0.0,-0.3276183902184177,-0.3181375508877317,-0.6174464324547184,0.26517042880028374,1.1083785790134488,-0.11414696047542788
13758,5.0,299.38391,4201.1686,0.0,0.0,0.0,0.0,0.13712336625420685,0.0,-0.38861051389287166,-0.33780372207863163,-0.5506361253810544,0.2382111164371068,1.1263927472413091,-0.1256354434217529
13759,5.0,299.20245,4247.4482,0.0,0.0,0.0,0.0,0.1371333330637907,0.0,-0.3988454848754846,-0.33920124727905665,-0.5530714719964045,0.27868978918704074,1.1117953596756591,-0.13900281629350988
13760,5.0,299.27745,4233.2224,0.0,0.0,0.0,0.0,0.1371432998733745,0.0,-0.4278698820024696,-0.31907651962290073,-0.5398475044113005,0.2253691238747008,1.163259548154779,-0.1041697299207519
13761,5.0,299.32268,4103.9374,0.0,0.0,0.0,0.0,0.13715326668295832,0.0,-0.3652070102381257,-0.3241331645119527,-0.5581543296655435,0.26406818494400075,1.1364272669566389,-0.12904877903362288
13762,5.0,300.20911,4143.9054,0.0,0.0,0.0,0.0,0.13716323349254217,0.0,-0.35761692599154266,-0.33297936477500467,-0.5690474775156135,0.2190136646099658,1.1483976009880188,-0.11565240694400389
13763,5.0,300.20216,4454.2137,0.0,0.0,0.0,0.0,0.13717320030212596,0.0,-0.35471498783764366,-0.38707340335867063,-0.6121813620200964,0.24294538567434276,1.140517048335269,-0.15141059065806187
13764,5.0,300.4572,4626.2458,0.0,0.0,0.0,0.0,0.13718316711170978,0.0,-0.42060610481809063,-0.3868986785114266,-0.5987584123803544,0.2138333322812068,1.1584490419800189,-0.11688485343813688
13765,5.0,300.7957,4243.2647,0.0,0.0,0.0,0.0,0.13719313392129362,0.0,-0.3883497337146346,-0.35606170867805464,-0.5454350720877504,0.24508520776552678,1.152930881935419,-0.1266375376381519
13766,5.0,300.49519,3891.1282,0.0,0.0,0.0,0.0,0.13720310073087744,0.0,-0.3545669621305347,-0.31465677334920567,-0.5135820859816055,0.2051756370667588,1.165591137959889,-0.0986668669129116
13767,5.0,300.15952999999996,4020.8651,0.0,0.0,0.0,0.0,0.13721306754046125,0.0,-0.35371751404170065,-0.3416980069829677,-0.5268270683737835,0.2749311683385937,1.156487085811389,-0.14411783452082286
13768,5.0,299.86301000000003,4132.7874,0.0,0.0,0.0,0.0,0.13722303435004507,0.0,-0.3534701391622867,-0.3405783757549687,-0.5622156691138664,0.2247551145791028,1.1717037718381589,-0.11758633661486788
13769,5.0,299.5814,3941.1901,0.0,0.0,0.0,0.0,0.1372330011596289,0.0,-0.3285700347123377,-0.3387316767852137,-0.5307216572531495,0.28877531591240474,1.125053027959089,-0.17762522499274483
13770,5.0,299.62547,4120.3722,0.0,0.0,0.0,0.0,0.1372429679692127,0.0,-0.36585226816680766,-0.3469685084381257,-0.5396695067662335,0.22158027777577077,1.119089645820549,-0.14596566833068986
13771,5.0,299.5039,4185.1525,0.0,0.0,0.0,0.0,0.13725293477879655,0.0,-0.3976333844433596,-0.3515537792481567,-0.5229946829180565,0.25358038779643577,1.102837924816629,-0.16319826609391483
13772,5.0,298.46479,4094.4974,0.0,0.0,0.0,0.0,0.13726290158838036,0.0,-0.39749215764442164,-0.3122388951655797,-0.5348939273224206,0.2122995654723358,1.147437546518269,-0.08214454733728563
13773,5.0,299.28693,4374.4883,0.0,0.0,0.0,0.0,0.13727286839796415,0.0,-0.4047502707607416,-0.3418611807790717,-0.5831237606873345,0.25371290064451374,1.165398012490829,-0.09688695733674821
13774,5.0,299.97201,4459.041,0.0,0.0,0.0,0.0,0.137282835207548,0.0,-0.4079641683554286,-0.3471603673445607,-0.6003125961787404,0.23842692857590578,1.182684565821879,-0.06349728524819415
13775,5.0,300.39088,4315.4687,0.0,0.0,0.0,0.0,0.13729280201713182,0.0,-0.38337234524840463,-0.36874179400698165,-0.5596805984236745,0.25929618227304074,1.1544233993327189,-0.12425248875776587
13776,5.0,300.15168,4302.4356,0.0,0.0,0.0,0.0,0.13730276882671566,0.0,-0.4045853643069666,-0.3404103180933827,-0.5628373081827175,0.22764271524408677,1.166292712329129,-0.12656837318632588
13777,5.0,300.21618,4399.9764,0.0,0.0,0.0,0.0,0.13731273563629948,0.0,-0.42363528691954766,-0.34870849190734865,-0.5651391894948955,0.2092815392544798,1.117124548576609,-0.12306561825313089
13778,5.0,300.24287000000004,4145.4553,0.0,0.0,0.0,0.0,0.13732270244588327,0.0,-0.3956562599207326,-0.3058103400386307,-0.5586482992217945,0.19907005540918482,1.1594488158536889,-0.13137467437317088
13779,5.0,300.81197000000003,3892.8,0.0,0.0,0.0,0.0,0.1373326692554671,0.0,-0.3238717763836557,-0.32656884549983567,-0.5328733850330085,0.2213530564408458,1.126157571893099,-0.12873377984253487
13780,5.0,299.67213,3950.2575,0.0,0.0,0.0,0.0,0.13734263606505093,0.0,-0.3278772654864667,-0.33404028829220966,-0.5388620882915475,0.2590608853348188,1.1585399305139887,-0.15529614134653585
13781,5.0,299.06257999999997,3995.0558,0.0,0.0,0.0,0.0,0.13735260287463474,0.0,-0.3448128087178747,-0.3337450272130697,-0.5358393707257285,0.25036333899393776,1.142317087137919,-0.12969393563729487
13782,5.0,298.83644,4062.6158,0.0,0.0,0.0,0.0,0.1373625696842186,0.0,-0.3736759876214486,-0.3552272465581997,-0.5060305356363255,0.29483772298321775,1.1492615993482889,-0.17670131315406182
13783,5.0,298.64952,4207.1242,0.0,0.0,0.0,0.0,0.13737253649380238,0.0,-0.38004457860747964,-0.36249084135756066,-0.5363252849436845,0.23191791125851577,1.139181990003509,-0.1213073861496069
13784,5.0,298.76275,3985.8699,0.0,0.0,0.0,0.0,0.1373825033033862,0.0,-0.3607931509475117,-0.3211361632336717,-0.5296755981149115,0.25240255548269275,1.170439944988429,-0.12303993236309589
13785,5.0,298.9531,3963.7747,0.0,0.0,0.0,0.0,0.13739247011297004,0.0,-0.3181017730267007,-0.3048368397400537,-0.5819499205789855,0.2146135247257058,1.1489008823126887,-0.07258175025901102
13786,5.0,300.60269,4349.3775,0.0,0.0,0.0,0.0,0.13740243692255386,0.0,-0.3861094377435346,-0.34500201290904764,-0.5909907155237425,0.2223185925936368,1.1668488853090189,-0.1308043969518889
13787,5.0,299.73854,4433.4644,0.0,0.0,0.0,0.0,0.13741240373213767,0.0,-0.38753670183439465,-0.35889580973775864,-0.6012299624217775,0.22485328838129176,1.134456495512139,-0.13975827530306786
13788,5.0,300.16792000000004,4123.5419,0.0,0.0,0.0,0.0,0.1374223705417215,0.0,-0.39033314038788164,-0.3430357504274927,-0.5200848718108805,0.24146143024038774,1.1472842417781388,-0.17537146292781583
13789,5.0,300.24327,3969.8238,0.0,0.0,0.0,0.0,0.1374323373513053,0.0,-0.37125921388043165,-0.3185074581017387,-0.5169606367175424,0.24294893204969278,1.153035044045699,-0.14362719855740086
13790,5.0,300.88267,4105.8207,0.0,0.0,0.0,0.0,0.13744230416088912,0.0,-0.4059500906016546,-0.3069286945715037,-0.5351881954164626,0.25216913305715577,1.139101537945569,-0.1192141532980209
13791,5.0,300.08865,4225.8523,0.0,0.0,0.0,0.0,0.13745227097047297,0.0,-0.35852752372391167,-0.34752632288317764,-0.5784997431934795,0.2583228947569848,1.1374662536091789,-0.09750301137104801
13792,5.0,299.8175,4208.9233,0.0,0.0,0.0,0.0,0.13746223778005678,0.0,-0.37159996988906163,-0.35370147429261767,-0.5541061422035184,0.2504642283063948,1.1447719894801989,-0.09539584329083671
13793,5.0,299.19524,4364.1874,0.0,0.0,0.0,0.0,0.13747220458964057,0.0,-0.36662569210063867,-0.3548687384078177,-0.6051095754646654,0.2664878464478027,1.147749120924019,-0.09913774855238401
13794,5.0,299.26059,4614.9837,0.0,0.0,0.0,0.0,0.13748217139922442,0.0,-0.4536925911984726,-0.37206120133458165,-0.5770860161239554,0.2223558092698098,1.1449476870475388,-0.12458151133023787
13795,5.0,298.89121,4543.1648,0.0,0.0,0.0,0.0,0.13749213820880823,0.0,-0.42802705735798163,-0.3800615302816526,-0.5729200687353084,0.2462241110104278,1.151884802532179,-0.13996630568109886
13796,5.0,299.07148,4293.577,0.0,0.0,0.0,0.0,0.13750210501839208,0.0,-0.36574731572144964,-0.36986460684029465,-0.5695282646880635,0.22359873276997677,1.147737569872879,-0.14582636670694185
13797,5.0,299.27142000000003,3866.1627,0.0,0.0,0.0,0.0,0.1375120718279759,0.0,-0.3124140759753687,-0.3189118867466527,-0.5438909498628575,0.25937642154845975,1.1611840066499388,-0.12156657552518689
13798,5.0,300.33592999999996,3801.5798,0.0,0.0,0.0,0.0,0.13752203863755968,0.0,-0.2978601872365117,-0.3248956960072087,-0.5328294606411735,0.23979489727091374,1.151921279535779,-0.15167185719634685
13799,5.0,300.88296,4066.8938,0.0,0.0,0.0,0.0,0.13753200544714353,0.0,-0.3484804903698467,-0.3599249374668257,-0.5278287572901424,0.2522532834779608,1.145909869342499,-0.15541711327597485
13800,5.0,299.99675,4136.915,0.0,0.0,0.0,0.0,0.13754197225672735,0.0,-0.3880563268831776,-0.34852371561911266,-0.5209388187301586,0.24957133205327275,1.133903058307519,-0.16065685245809685
13801,5.0,300.88676,4165.8064,0.0,0.0,0.0,0.0,0.13755193906631116,0.0,-0.39262227501380165,-0.3492108917044317,-0.5244679485634565,0.22764676824448676,1.1671824472419388,-0.13995675073265587
13802,5.0,300.66611,4328.142,0.0,0.0,0.0,0.0,0.137561905875895,0.0,-0.37421728608987065,-0.35734980286767964,-0.5840800154692094,0.23272308031797975,1.144022184406199,-0.13524866387800388
13803,5.0,299.82054,4655.4187,0.0,0.0,0.0,0.0,0.1375718726854788,0.0,-0.4511771775602206,-0.35654886919363366,-0.6074050023737064,0.2516257776910307,1.1448418024120888,-0.07968019137157263
13804,5.0,299.89867000000004,4615.3253,0.0,0.0,0.0,0.0,0.1375818394950626,0.0,-0.3933028953709736,-0.38934614359797265,-0.6202946176908124,0.2592965673080787,1.133297742697779,-0.1075160187735049
13805,5.0,299.74714,4140.9237,0.0,0.0,0.0,0.0,0.13759180630464646,0.0,-0.38289599611139263,-0.3018701143747607,-0.5739712954490565,0.2721512761592398,1.141321467589659,-0.09081959040669572
13806,5.0,300.29682,3995.8713,0.0,0.0,0.0,0.0,0.13760177311423027,0.0,-0.37820970426639167,-0.3134244281800827,-0.5230109658471636,0.2836708152211297,1.1457991211065688,-0.12852544548947387
13807,5.0,300.21873,4062.3104,0.0,0.0,0.0,0.0,0.1376117399238141,0.0,-0.36420107580384764,-0.3313173610334777,-0.5393224787394846,0.24512140105909877,1.148284623601869,-0.13468398972977486
13808,5.0,298.95712000000003,3968.2559,0.0,0.0,0.0,0.0,0.1376217067333979,0.0,-0.3412544567516927,-0.32993909771745367,-0.5350571517810295,0.24280100766759377,1.127846963784829,-0.16415957699378883
13809,5.0,299.44417999999996,4161.3484,0.0,0.0,0.0,0.0,0.13763167354298173,0.0,-0.37329573512392067,-0.3252535050150217,-0.5663967645915085,0.19260863044899182,1.178185532727859,-0.11115197556484589
13810,5.0,300.28382,4322.3421,0.0,0.0,0.0,0.0,0.13764164035256554,0.0,-0.3844628556685296,-0.35233607925286364,-0.5770851447288694,0.2130016667316278,1.147296806079379,-0.13112501968103188
13811,5.0,299.75637,4205.0073,0.0,0.0,0.0,0.0,0.1376516071621494,0.0,-0.39275083618648965,-0.3366089684882187,-0.5488574256255104,0.20512180308894581,1.180812687587139,-0.12592401705023287
13812,5.0,300.92044,4295.2011,0.0,0.0,0.0,0.0,0.1376615739717332,0.0,-0.4014639460489066,-0.34749372662746064,-0.5566761902871624,0.22857728647382178,1.1442672896053887,-0.13706941351269789
13813,5.0,300.12773,4341.287,0.0,0.0,0.0,0.0,0.137671540781317,0.0,-0.36613154015936966,-0.3436968657202397,-0.6098144401839993,0.2561837110133638,1.161928238848389,-0.1129529364250869
13814,5.0,300.87286,4159.2128,0.0,0.0,0.0,0.0,0.13768150759090084,0.0,-0.35726663529947167,-0.34816990894919464,-0.5588602812752155,0.2680497309469487,1.146467055572489,-0.14048280991957388
13815,5.0,301.24547,4021.9894,0.0,0.0,0.0,0.0,0.13769147440048465,0.0,-0.3327728846696267,-0.3104509039066187,-0.5793605599484355,0.26128845488466274,1.1464937040501189,-0.10752549266193989
13816,5.0,300.5437,4037.2444,0.0,0.0,0.0,0.0,0.1377014412100685,0.0,-0.35352524983522565,-0.3358069506365657,-0.5378892972680405,0.26346499715947075,1.1160930599748091,-0.13677109241825586
13817,5.0,299.43276000000003,4131.3411,0.0,0.0,0.0,0.0,0.13771140801965231,0.0,-0.3760086312066626,-0.3268875227887867,-0.5529283706847814,0.2232373165918078,1.1564628691339989,-0.12249853256966388
13818,5.0,300.57427,4247.8527,0.0,0.0,0.0,0.0,0.1377213748292361,0.0,-0.3936852250312066,-0.32894060053890967,-0.5686153263479635,0.23876293244156677,1.1508585828308988,-0.17699795225333784
13819,5.0,300.10604,4393.4974,0.0,0.0,0.0,0.0,0.13773134163881995,0.0,-0.38738366053929063,-0.36280712737627563,-0.5853227160543544,0.18450086659381784,1.176872765898299,-0.16133511194253586
13820,5.0,300.44847999999996,4253.3448,0.0,0.0,0.0,0.0,0.13774130844840377,0.0,-0.3959796285576466,-0.3240125168225457,-0.5729184779326514,0.21723616048953975,1.1378226136693488,-0.13693894742982185
13821,5.0,300.05688,4128.8111,0.0,0.0,0.0,0.0,0.13775127525798758,0.0,-0.36611432504017066,-0.3145741428035507,-0.5743670000106095,0.22508659934931777,1.1664705377216789,-0.09400903928971982
13822,5.0,299.37489,4190.9639,0.0,0.0,0.0,0.0,0.13776124206757143,0.0,-0.4199332054266806,-0.29845368835008573,-0.5555614834546495,0.2590858720822848,1.150551872025629,-0.09098731470899882
13823,5.0,300.2497,4284.1957,0.0,0.0,0.0,0.0,0.13777120887715522,0.0,-0.42659599357924655,-0.3055936058422407,-0.5700989170118824,0.2653025059508188,1.1632880204825886,-0.07835931550146233
13824,5.0,300.0509,4150.1655,0.0,0.0,0.0,0.0,0.13778117568673903,0.0,-0.3622388561901917,-0.3402899135839997,-0.5590179328582745,0.25569842501046974,1.131935326613319,-0.13494603647063685
13825,5.0,300.7396,4327.1237,0.0,0.0,0.0,0.0,0.13779114249632288,0.0,-0.3465852871178047,-0.35652916147918867,-0.6122230977917154,0.24449595216987177,1.162695674474129,-0.1185108665361119
13826,5.0,300.00048,4536.1295,0.0,0.0,0.0,0.0,0.1378011093059067,0.0,-0.38771675637716463,-0.3799118124468766,-0.6112415421548435,0.2510113732278938,1.121746691557779,-0.15987856492378585
13827,5.0,299.65648999999996,4395.6326,0.0,0.0,0.0,0.0,0.13781107611549054,0.0,-0.40011853230112465,-0.3659168223306786,-0.5701271866896724,0.22062902844938978,1.1595096108596887,-0.13393047616040887
13828,5.0,300.29311,4078.4788,0.0,0.0,0.0,0.0,0.13782104292507433,0.0,-0.3992137404918286,-0.32036263797483067,-0.5201793269852025,0.2391483727796068,1.112209474991529,-0.13605924369300187
13829,5.0,300.80023,4041.2557,0.0,0.0,0.0,0.0,0.13783100973465814,0.0,-0.4035605631558266,-0.32290644288088466,-0.5019738267409595,0.23978425814486376,1.178164862425819,-0.1254391262148779
13830,5.0,300.11315,4056.1278,0.0,0.0,0.0,0.0,0.13784097654424196,0.0,-0.34147774667622965,-0.3383762489151357,-0.5531075639649664,0.24398738167967976,1.143582737837829,-0.16584887769300985
13831,5.0,300.3735,4330.9968,0.0,0.0,0.0,0.0,0.1378509433538258,0.0,-0.38767968155600563,-0.3362761462278717,-0.5925590746910274,0.2502069337085017,1.1533914041058688,-0.12959811257533788
13832,5.0,299.83232000000004,4389.3628,0.0,0.0,0.0,0.0,0.13786091016340962,0.0,-0.3763906366268637,-0.36413129326946064,-0.5937347386495565,0.2356350293828668,1.1359850846129989,-0.12037677672776288
13833,5.0,298.7463,4100.4684,0.0,0.0,0.0,0.0,0.1378708769729934,0.0,-0.35588767284087863,-0.3052774008835337,-0.5852749413121394,0.2512980723436887,1.1612463215310886,-0.0897367239453251
13834,5.0,299.53005,4325.3024,0.0,0.0,0.0,0.0,0.13788084378257726,0.0,-0.39821178813044367,-0.35333171906612565,-0.5632404398675035,0.24147949648967076,1.1252569952042188,-0.09714430563689651
13835,5.0,298.82703,4585.8967,0.0,0.0,0.0,0.0,0.13789081059216107,0.0,-0.43762685225040754,-0.3771297316473066,-0.5792415030616854,0.2370233542723838,1.1541034149511389,-0.14547253977202185
13836,5.0,299.61307,4280.0247,0.0,0.0,0.0,0.0,0.13790077740174492,0.0,-0.37165307432680267,-0.34371165917169966,-0.5856558929522364,0.24892989407746774,1.1315359034238988,-0.13001423412640586
13837,5.0,300.46055,3937.1601,0.0,0.0,0.0,0.0,0.1379107442113287,0.0,-0.3045963245638167,-0.3352603224726177,-0.5569417124758674,0.2577672182696437,1.1891459603845689,-0.15735376858960787
13838,5.0,300.48495,3911.3161,0.0,0.0,0.0,0.0,0.13792071102091252,0.0,-0.33532619386161866,-0.2962266963527987,-0.5573895386225645,0.25651148728821277,1.151895137683199,-0.1021398454654179
13839,5.0,300.62209,4176.8296,0.0,0.0,0.0,0.0,0.13793067783049637,0.0,-0.37419848016801466,-0.3365144829163937,-0.5589389196154765,0.25215294132055777,1.1545910922242688,-0.1177741526534039
13840,5.0,302.01014,4236.5271,0.0,0.0,0.0,0.0,0.13794064464008018,0.0,-0.44375724840293057,-0.3032917447950647,-0.5407494793853185,0.23187053168383978,1.121303597289049,-0.1028297370610049
13841,5.0,300.70487,4286.1125,0.0,0.0,0.0,0.0,0.137950611449664,0.0,-0.41952069104596856,-0.3199676224233457,-0.5633828623015594,0.23992119889587876,1.139163751501709,-0.1166819298406099
13842,5.0,300.20644,4458.8895,0.0,0.0,0.0,0.0,0.13796057825924782,0.0,-0.3873246387209656,-0.37933669169011663,-0.5887297391181014,0.23768851243302977,1.135447960734989,-0.14440806987946686
13843,5.0,299.77842999999996,4418.1628,0.0,0.0,0.0,0.0,0.13797054506883163,0.0,-0.38827765110252066,-0.35331658110963166,-0.6014169374627305,0.2251073203138628,1.1836730926194388,-0.13987720046730487
13844,5.0,299.71564,4388.9769,0.0,0.0,0.0,0.0,0.13798051187841545,0.0,-0.3618841375951837,-0.36041059837225664,-0.6118446387468643,0.24582722094625775,1.1871539106879687,-0.13165655041848986
13845,5.0,299.60548,4120.9951,0.0,0.0,0.0,0.0,0.1379904786879993,0.0,-0.34983115275314663,-0.3395667265901267,-0.5632817500740804,0.2249576328765898,1.1757287052103889,-0.11739140756062989
13846,5.0,299.57809,3726.9345,0.0,0.0,0.0,0.0,0.1380004454975831,0.0,-0.3423249048198377,-0.2753676055541668,-0.5152025059390285,0.2634588568638648,1.143284538333399,-0.1157859229096809
13847,5.0,299.12209,3906.9577,0.0,0.0,0.0,0.0,0.13801041230716693,0.0,-0.3456225576677907,-0.3396033961112457,-0.5023916404196945,0.24755580535185576,1.132658381884679,-0.15800710212158683
13848,5.0,299.76669,4204.5845,0.0,0.0,0.0,0.0,0.13802037911675075,0.0,-0.3518213482020637,-0.3534743745477047,-0.5727929869077665,0.2682505875142718,1.126691757345819,-0.14350351111769385
13849,5.0,300.58862999999997,4208.1518,0.0,0.0,0.0,0.0,0.13803034592633456,0.0,-0.3601878758677756,-0.3295700315010297,-0.5894151724132484,0.25632652861495875,1.1466583571913689,-0.13915664792369187
13850,5.0,300.50987000000003,4376.2914,0.0,0.0,0.0,0.0,0.13804031273591838,0.0,-0.36012088990366464,-0.3882766581174226,-0.5818857615826535,0.24217873025117975,1.155997382038059,-0.13640985862510488
13851,5.0,299.11839,4391.6981,0.0,0.0,0.0,0.0,0.1380502795455022,0.0,-0.43368328286120755,-0.3375773518737907,-0.5637059168309424,0.2524553052828988,1.1558060804191788,-0.12553985340731888
13852,5.0,299.28333,4363.0884,0.0,0.0,0.0,0.0,0.13806024635508604,0.0,-0.47267954031733855,-0.3273837721577627,-0.5262066148075495,0.23225282081406878,1.159500694258809,-0.09713056191254009
13853,5.0,299.27957000000004,4271.7329,0.0,0.0,0.0,0.0,0.13807021316466983,0.0,-0.3924469422164976,-0.35733649889386665,-0.5487167054516224,0.24732486538906376,1.1619399925495488,-0.15097840909290886
13854,5.0,301.0724,4148.5469,0.0,0.0,0.0,0.0,0.13808017997425368,0.0,-0.3876844944939806,-0.3274340901577287,-0.5459360837321965,0.2427619772737418,1.1454760969746889,-0.12658057271752987
13855,5.0,300.83769,4058.742,0.0,0.0,0.0,0.0,0.1380901467838375,0.0,-0.3333099578851317,-0.3557652418312957,-0.5446810316283325,0.24914587846878378,1.166094621934579,-0.16911836218818282
13856,5.0,300.60782,3897.4507,0.0,0.0,0.0,0.0,0.1381001135934213,0.0,-0.31186146963583067,-0.3214528950824307,-0.5514133490027605,0.25321030832991176,1.160394279521999,-0.13014291688910587
13857,5.0,299.49505,3919.0457,0.0,0.0,0.0,0.0,0.13811008040300513,0.0,-0.3384127563162387,-0.3186115999470167,-0.5342676678331134,0.2396135153705128,1.124565452010969,-0.1110680176615599
13858,5.0,300.42509,4140.1725,0.0,0.0,0.0,0.0,0.13812004721258894,0.0,-0.3620627533228116,-0.3553878872290537,-0.5410584294733095,0.23759424977622676,1.1337780232451788,-0.1053059277878859
13859,5.0,298.77178,4223.4102,0.0,0.0,0.0,0.0,0.13813001402217276,0.0,-0.35643444285984066,-0.3486072175598537,-0.5787695919601115,0.25689447556101075,1.141165629724279,-0.1114261914394089
13860,5.0,299.62754,4471.8611,0.0,0.0,0.0,0.0,0.13813998083175658,0.0,-0.3883054546852646,-0.37631934434982767,-0.5947093028607384,0.2618977120372918,1.1886399432846289,-0.13388542706096287
13861,5.0,299.67219,4522.0534,0.0,0.0,0.0,0.0,0.13814994764134042,0.0,-0.3971284920510306,-0.3738639353824976,-0.6035988702280705,0.2249508643659218,1.1545153011167888,-0.12881117188517288
13862,5.0,299.53288,4150.2279,0.0,0.0,0.0,0.0,0.13815991445092424,0.0,-0.36925469107510067,-0.32944528014871766,-0.5628656893180185,0.23515524532801577,1.1548409596989289,-0.14040188163408687
13863,5.0,299.35665,4078.6186,0.0,0.0,0.0,0.0,0.13816988126050803,0.0,-0.39957181294466765,-0.3538998483971956,-0.48632656008419456,0.21686974898837777,1.1800583228876886,-0.15193097564441985
13864,5.0,300.97643999999997,4049.0075,0.0,0.0,0.0,0.0,0.13817984807009187,0.0,-0.4021403006231576,-0.2959023752607907,-0.5327545206637775,0.2390761179149758,1.1568185199190988,-0.13058305246754387
13865,5.0,300.22902999999997,3835.4554,0.0,0.0,0.0,0.0,0.1381898148796757,0.0,-0.3420510131853067,-0.3233740375370327,-0.5004576094238204,0.2487639135785868,1.125853596863099,-0.16102050791898684
13866,5.0,300.26025,3954.6174,0.0,0.0,0.0,0.0,0.13819978168925953,0.0,-0.3495654583119247,-0.3393206081408367,-0.5132188763507595,0.24775267984628577,1.1344636895878488,-0.14781260034796787
13867,5.0,300.58463,4217.6573,0.0,0.0,0.0,0.0,0.13820974849884335,0.0,-0.34388621176642664,-0.34129891816608066,-0.5968773844972114,0.3051723673781677,1.140137383522799,-0.15468998473921286
13868,5.0,300.04494,4380.932,0.0,0.0,0.0,0.0,0.13821971530842714,0.0,-0.38826883582665067,-0.3660906960478386,-0.5773344143859704,0.24988154870388876,1.160279579610679,-0.08493469360765163
13869,5.0,300.04593,4328.1982,0.0,0.0,0.0,0.0,0.13822968211801098,0.0,-0.3908479119686856,-0.3428134737530557,-0.5820028021017044,0.2662886009481388,1.1251804948216688,-0.09434467939859491
13870,5.0,300.38679,4297.6449,0.0,0.0,0.0,0.0,0.1382396489275948,0.0,-0.3931553256264096,-0.3382956651346827,-0.5749257365132525,0.21485069617661282,1.156826220619859,-0.04691911330055596
13871,5.0,299.53207000000003,4445.2313,0.0,0.0,0.0,0.0,0.13824961573717862,0.0,-0.3974935761945616,-0.3738766719362547,-0.5798690696436214,0.2549479207939008,1.1703346683030387,-0.11929898259639289
13872,5.0,299.12707,4486.1807,0.0,0.0,0.0,0.0,0.13825958254676246,0.0,-0.43081771025339755,-0.34687370875876966,-0.5859954938557524,0.23867598545048577,1.1847653762272388,-0.10065325456795281
13873,5.0,300.4441,4199.7656,0.0,0.0,0.0,0.0,0.13826954935634625,0.0,-0.3790293628022856,-0.35453462931984364,-0.5430598922633384,0.2277279903725028,1.1365162303154188,-0.17740974722647881
13874,5.0,300.49632,3957.0518,0.0,0.0,0.0,0.0,0.13827951616593007,0.0,-0.3773396568030246,-0.30192512372268976,-0.5235801388258365,0.22284426674551677,1.149781599299609,-0.12278278975271788
13875,5.0,301.11507,4049.0535,0.0,0.0,0.0,0.0,0.1382894829755139,0.0,-0.38874157779330665,-0.32077467612799565,-0.5212949052128015,0.25816569913647075,1.134542317795609,-0.15225300679120185
13876,5.0,300.31011,4190.0771,0.0,0.0,0.0,0.0,0.13829944978509773,0.0,-0.3588501121582487,-0.3541620167280697,-0.5606666934209945,0.23812655058376078,1.1896626166105588,-0.11831403257168588
13877,5.0,300.76547,4234.0571,0.0,0.0,0.0,0.0,0.13830941659468154,0.0,-0.3804583291533136,-0.3362498523877767,-0.5703394625856224,0.25853992279590376,1.1254061456189388,-0.12340554339667888
13878,5.0,299.96217,4390.7337,0.0,0.0,0.0,0.0,0.13831938340426536,0.0,-0.3600501447816826,-0.37956675012532165,-0.5950565031400045,0.24397806991126075,1.1786786815515289,-0.14143126267567888
13879,5.0,300.52299,4450.3999,0.0,0.0,0.0,0.0,0.13832935021384918,0.0,-0.36558316920524964,-0.4080454816759536,-0.5791818124982945,0.26207356159214673,1.1615308421591688,-0.14029751687378686
13880,5.0,299.91996,4480.1961,0.0,0.0,0.0,0.0,0.138339317023433,0.0,-0.4176708813984066,-0.36400633926712866,-0.5801905333703475,0.24657090598965378,1.1366884828324189,-0.12312727452171587
13881,5.0,299.30568999999997,4381.3039,0.0,0.0,0.0,0.0,0.13834928383301684,0.0,-0.4026185850678606,-0.3720619511396556,-0.5571264381015985,0.2203229458591818,1.124180923598019,-0.09931742211311641
13882,5.0,297.60382999999996,4133.9738,0.0,0.0,0.0,0.0,0.13835925064260066,0.0,-0.37755837696961064,-0.3331360233729657,-0.5459304095316365,0.22306584427738477,1.1449938912520987,-0.1140657788774159
13883,5.0,299.08947,4143.2355,0.0,0.0,0.0,0.0,0.13836921745218445,0.0,-0.3930247683510246,-0.3303754336080167,-0.5360399233180215,0.25836739670137676,1.1931628890810089,-0.12289952629673888
13884,5.0,299.83859,4177.7872,0.0,0.0,0.0,0.0,0.1383791842617683,0.0,-0.37829713761752065,-0.3459350439986307,-0.5457107977049624,0.2311377998740248,1.2023891391915689,-0.13879365107536687
13885,5.0,300.28047000000004,4074.4682,0.0,0.0,0.0,0.0,0.1383891510713521,0.0,-0.3542176644235617,-0.31796369743557373,-0.5663552314699094,0.24502558812964279,1.143028287383109,-0.17769224135435882
13886,5.0,300.41797,4280.7004,0.0,0.0,0.0,0.0,0.13839911788093595,0.0,-0.3949418274077236,-0.34222327583480766,-0.5640609090034774,0.23021610705306075,1.1624050743454488,-0.12327205782850488
13887,5.0,299.78118,4485.1207,0.0,0.0,0.0,0.0,0.13840908469051977,0.0,-0.3944326894974756,-0.3678843108448546,-0.6010476888612883,0.25037917609300075,1.141686541600689,-0.13366109348882288
13888,5.0,299.52031,4367.3107,0.0,0.0,0.0,0.0,0.13841905150010356,0.0,-0.4021147869856396,-0.3403478613572187,-0.5850907425764604,0.25569504075513577,1.145397164791899,-0.07915727933946523
13889,5.0,300.60258,4252.7518,0.0,0.0,0.0,0.0,0.1384290183096874,0.0,-0.36947229666657666,-0.37100232458257865,-0.5522557246058966,0.2265316763769358,1.1435520363597989,-0.13007683271758386
13890,5.0,300.23937,4388.7842,0.0,0.0,0.0,0.0,0.13843898511927122,0.0,-0.3988859338194766,-0.3309997476571317,-0.6041951375144173,0.26811507544589774,1.164219602624529,-0.07771891509375972
13891,5.0,299.68462,4541.4013,0.0,0.0,0.0,0.0,0.13844895192885504,0.0,-0.38223204371836567,-0.40137007855964263,-0.5968704741315295,0.25146145892231375,1.1701477236595887,-0.15271833176712585
13892,5.0,299.151,4049.1257,0.0,0.0,0.0,0.0,0.13845891873843888,0.0,-0.3946612685875346,-0.2997946843274317,-0.5363771430838025,0.24488654995092074,1.171649968257849,-0.1186633809411639
13893,5.0,298.63398,3940.4897,0.0,0.0,0.0,0.0,0.13846888554802267,0.0,-0.34423739411858567,-0.3286946746071387,-0.5248784060464655,0.2133287235989058,1.1255493178580689,-0.13652134653360787
13894,5.0,299.06754,4273.0426,0.0,0.0,0.0,0.0,0.13847885235760649,0.0,-0.4052829667358146,-0.34468087342235365,-0.5489344123681085,0.22264990511133478,1.160023227335379,-0.15499899562220984
13895,5.0,299.95686,4411.6505,0.0,0.0,0.0,0.0,0.13848881916719033,0.0,-0.3981246384893426,-0.35464308761054764,-0.5882638771196244,0.24295770679555875,1.1547412558890888,-0.16093106833265985
13896,5.0,300.15328,4391.4223,0.0,0.0,0.0,0.0,0.13849878597677415,0.0,-0.38495145499925065,-0.36641136943948666,-0.5835198908139294,0.21247650933729878,1.1537180759381092,-0.17866243845760982
13897,5.0,300.6805,4174.0998,0.0,0.0,0.0,0.0,0.13850875278635796,0.0,-0.3454500214407627,-0.33664252733153066,-0.5867295834207015,0.2153544435963288,1.148350079558329,-0.1439296537122509
13898,5.0,301.25276,4015.0805,0.0,0.0,0.0,0.0,0.13851871959594178,0.0,-0.34647886545980167,-0.30639554263388574,-0.5676098073462265,0.22233665884291978,1.1567597514132988,-0.11711032185038889
13899,5.0,300.12501000000003,4232.4644,0.0,0.0,0.0,0.0,0.1385286864055256,0.0,-0.3720986713232796,-0.34593088967322067,-0.5685339420999315,0.25164380341030973,1.1590252773118888,-0.08976944888380482
13900,5.0,299.05482,4455.4264,0.0,0.0,0.0,0.0,0.13853865321510944,0.0,-0.43356001085404156,-0.3372428881482817,-0.5835354847329685,0.24066565400935078,1.135400135330269,-0.07535822981202822
13901,5.0,298.94154,4198.3948,0.0,0.0,0.0,0.0,0.13854862002469326,0.0,-0.3787537993050896,-0.3508719733883677,-0.5465814125883854,0.28370379651188476,1.139833003192759,-0.11347834713194088
13902,5.0,299.5649,4185.7297,0.0,0.0,0.0,0.0,0.13855858683427708,0.0,-0.37972379375832066,-0.3354402250278727,-0.5571932822106954,0.24893786835575477,1.1533878577305188,-0.11113853986851988
13903,5.0,300.23535,4490.6615,0.0,0.0,0.0,0.0,0.13856855364386086,0.0,-0.42303649664045156,-0.3637624499680586,-0.5782500277063345,0.27996497457039177,1.156381403825959,-0.15973454155457184
13904,5.0,300.38776,4430.2775,0.0,0.0,0.0,0.0,0.1385785204534447,0.0,-0.42994937518269966,-0.34790757849830467,-0.5688367924223204,0.23916493941874178,1.139915076450859,-0.13110968920701888
13905,5.0,300.50399,4155.3501,0.0,0.0,0.0,0.0,0.13858848726302853,0.0,-0.3936255344678156,-0.3203757190336217,-0.5491214279390655,0.23572741752698478,1.141129355370699,-0.15776816761550586
13906,5.0,301.3398,4265.3064,0.0,0.0,0.0,0.0,0.13859845407261237,0.0,-0.4176689866207196,-0.3249795829829877,-0.5538980814279845,0.24043877717945977,1.1549386370085688,-0.091663701707253
13907,5.0,301.08715,4248.2929,0.0,0.0,0.0,0.0,0.1386084208821962,0.0,-0.37388468674454567,-0.34764356605224866,-0.5698467190619925,0.23943632832552578,1.1659227747176188,-0.15525543909001885
13908,5.0,300.09937,4240.9337,0.0,0.0,0.0,0.0,0.13861838769177998,0.0,-0.3541720377715587,-0.34353973089473167,-0.5914261800192194,0.23627669027369377,1.160855409642509,-0.11124618755914388
13909,5.0,300.85222000000005,4340.3752,0.0,0.0,0.0,0.0,0.13862835450136382,0.0,-0.35460583040437066,-0.3633589231157337,-0.6014009179786494,0.2183674238286868,1.1747957045183088,-0.12455055653968287
13910,5.0,300.46157,4157.2665,0.0,0.0,0.0,0.0,0.13863832131094764,0.0,-0.34165578485130066,-0.3335020903690937,-0.5885473439676004,0.22280853954699076,1.190624190955459,-0.1115065928348439
13911,5.0,299.61672999999996,4168.4893,0.0,0.0,0.0,0.0,0.13864828812053145,0.0,-0.35839108959794663,-0.3420609329037857,-0.5666646476529466,0.2188938984481458,1.1742356811880388,-0.0970550089188336
13912,5.0,299.16207,4458.5082,0.0,0.0,0.0,0.0,0.1386582549301153,0.0,-0.4354950652325166,-0.37421439832708564,-0.5455656901581415,0.2225794335668798,1.136701249783679,-0.13642451022155086
13913,5.0,299.60502,4549.8821,0.0,0.0,0.0,0.0,0.1386682217396991,0.0,-0.41773006533674756,-0.3868440440660347,-0.5784764384411795,0.2552960735282608,1.133032676471619,-0.13938827689655187
13914,5.0,300.10654,4256.9154,0.0,0.0,0.0,0.0,0.1386781885492829,0.0,-0.36925942295306763,-0.3722508817533016,-0.5524857019810935,0.26469650133101075,1.161038807910609,-0.17283051538704383
13915,5.0,300.35412,3998.2304,0.0,0.0,0.0,0.0,0.13868815535886675,0.0,-0.35258497400742767,-0.33006109302949366,-0.5327161488824905,0.25861761881357176,1.1595986755434788,-0.15081239819652484
13916,5.0,299.17235,4083.5820000000003,0.0,0.0,0.0,0.0,0.13869812216845057,0.0,-0.36095157260064664,-0.3278369786624907,-0.5525184096943215,0.24801405784208178,1.126223838449639,-0.14353577300087786
13917,5.0,299.81077,4012.4808,0.0,0.0,0.0,0.0,0.13870808897803438,0.0,-0.37854263798424964,-0.3091839461140797,-0.5319673874560935,0.23476533655703477,1.157728013208859,-0.10554658481913691
13918,5.0,300.92474,4184.8293,0.0,0.0,0.0,0.0,0.1387180557876182,0.0,-0.4040319980298536,-0.3252818253553167,-0.5427697784947064,0.24491001682323676,1.151417998211109,-0.09683145554927061
13919,5.0,300.90533999999997,4456.3052,0.0,0.0,0.0,0.0,0.13872802259720202,0.0,-0.41192667538899763,-0.34540265199858766,-0.5972761794715693,0.2324686734828718,1.1536003362764888,-0.0988385591026063
13920,5.0,300.02907000000005,4461.555,0.0,0.0,0.0,0.0,0.13873798940678583,0.0,-0.4312837749018946,-0.3551600275465656,-0.5697575125231885,0.2345352375918258,1.138964343882029,-0.11083487894605089
13921,5.0,299.25327000000004,4416.0657,0.0,0.0,0.0,0.0,0.13874795621636968,0.0,-0.37075678368584564,-0.37461089322371666,-0.5970060368624084,0.2397799011694338,1.1664806702226789,-0.11144654763391791
13922,5.0,300.55627999999996,4484.6381,0.0,0.0,0.0,0.0,0.1387579230259535,0.0,-0.4108253738553076,-0.37826684143953065,-0.5741257755593024,0.2505235237022468,1.1854182132666689,-0.12356328617224688
13923,5.0,300.2361,4243.4604,0.0,0.0,0.0,0.0,0.13876788983553728,0.0,-0.39021806557402466,-0.34803664629604264,-0.5516512803912426,0.2334378877335258,1.174028572867599,-0.12721728894786888
13924,5.0,299.77288,3794.6351,0.0,0.0,0.0,0.0,0.13877785664512113,0.0,-0.37755264197404464,-0.2928786444448717,-0.48304302181013453,0.27576033116042575,1.128938639442569,-0.14311949946229485
13925,5.0,299.90467,3924.2187,0.0,0.0,0.0,0.0,0.13878782345470494,0.0,-0.33464208792410266,-0.35637325268630166,-0.5018491564486556,0.23169058859858077,1.1442216933508889,-0.17810015557961684
13926,5.0,300.60085,4121.1006,0.0,0.0,0.0,0.0,0.1387977902642888,0.0,-0.38211976547478466,-0.34029331810433566,-0.5302986050713975,0.2781459879908717,1.116439388858989,-0.17478005924194884
13927,5.0,299.51025,4251.0623,0.0,0.0,0.0,0.0,0.1388077570738726,0.0,-0.3542897470356757,-0.3555162254867197,-0.5824108176519724,0.2074598979596978,1.124985444177419,-0.15465399409566086
13928,5.0,299.54524,4302.1733,0.0,0.0,0.0,0.0,0.1388177238834564,0.0,-0.38012423019784064,-0.36363731358070867,-0.5639917040216474,0.24043569689915575,1.1243189282616388,-0.14045775224460086
13929,5.0,299.05793,4263.0911,0.0,0.0,0.0,0.0,0.13882769069304024,0.0,-0.3899497265500416,-0.32868816954149666,-0.5772353286586914,0.24303317366300675,1.1690566559519089,-0.0877228893715751
13930,5.0,299.34455,4340.794,0.0,0.0,0.0,0.0,0.13883765750262406,0.0,-0.3891489651285126,-0.35519938218044966,-0.5751446390648565,0.25135736773954076,1.1819643476507988,-0.1205609450659389
13931,5.0,299.13658,4438.8566,0.0,0.0,0.0,0.0,0.13884762431220787,0.0,-0.4060360344751366,-0.3393699128907027,-0.6038956410498594,0.25311699812820276,1.1723888302307688,-0.1037256426669239
13932,5.0,299.03536,4196.5398,0.0,0.0,0.0,0.0,0.13885759112179172,0.0,-0.38336709661288665,-0.3336577559819567,-0.5586184691388505,0.25096973878128476,1.1582887458141988,-0.13145076945568088
13933,5.0,299.78668,3869.6055,0.0,0.0,0.0,0.0,0.1388675579313755,0.0,-0.32686385326645073,-0.30948489152628067,-0.5399147132904334,0.2369653761016618,1.1943270121208989,-0.13637146657881585
13934,5.0,300.39432999999997,3925.1366,0.0,0.0,0.0,0.0,0.13887752474095932,0.0,-0.3267761260727927,-0.32832135274029467,-0.5380460470585104,0.24296219549350176,1.1593127363652591,-0.15406158729219485
13935,5.0,299.68311,4104.3201,0.0,0.0,0.0,0.0,0.13888749155054317,0.0,-0.4091675345716916,-0.3000417349668137,-0.5384015559885965,0.2201649497710888,1.1878064437523688,-0.1160842946666279
13936,5.0,300.04551000000004,4394.9104,0.0,0.0,0.0,0.0,0.13889745836012699,0.0,-0.4212192731161056,-0.3238808652370527,-0.5908428924666534,0.24622394889041177,1.140545520663079,-0.10633824725476788
13937,5.0,299.88558,4378.1249,0.0,0.0,0.0,0.0,0.1389074251697108,0.0,-0.4142880344820456,-0.3326402299665347,-0.5839123732401644,0.24673401899075179,1.1671383708625886,-0.1309666993529069
13938,5.0,300.19944,4355.196,0.0,0.0,0.0,0.0,0.13891739197929462,0.0,-0.38092580221944966,-0.3559777507747687,-0.5869672817616605,0.2582730833820688,1.1446929559723988,-0.12310953251246488
13939,5.0,300.57732999999996,4654.6298,0.0,0.0,0.0,0.0,0.13892735878887844,0.0,-0.41014776285093263,-0.36969473546102966,-0.6350487550469324,0.25774770307271777,1.1393114833662887,-0.12805072768512288
13940,5.0,299.79688,4557.9091,0.0,0.0,0.0,0.0,0.13893732559846225,0.0,-0.4280483356100816,-0.37066729343701366,-0.5867749364951774,0.24797339611556876,1.1197334649340889,-0.0951868381662095
13941,5.0,300.17284,4075.5754,0.0,0.0,0.0,0.0,0.1389472924080461,0.0,-0.3855510254809236,-0.3341081557839077,-0.5192139529524276,0.24128482074795776,1.1834724690996388,-0.1108997573499539
13942,5.0,299.72701,3776.9362,0.0,0.0,0.0,0.0,0.1389572592176299,0.0,-0.32748526942027967,-0.3007234698990957,-0.5198855452512084,0.2602131837460418,1.169104076056589,-0.11516302741070589
13943,5.0,299.35258999999996,3882.1627,0.0,0.0,0.0,0.0,0.1389672260272137,0.0,-0.3287743059324977,-0.33403832258701566,-0.5172678946778665,0.2362822935467468,1.195435203755269,-0.16830222976263684
13944,5.0,299.45517,4226.2174,0.0,0.0,0.0,0.0,0.13897719283679755,0.0,-0.36687607633284963,-0.3507156491629397,-0.5670728354557314,0.25381866368995176,1.132761834719889,-0.18039089114069484
13945,5.0,300.29856,4449.9019,0.0,0.0,0.0,0.0,0.13898715964638136,0.0,-0.36672438266037866,-0.37758958507269064,-0.6083451059489874,0.22306000795680878,1.1430802671132387,-0.20334962866404582
13946,5.0,299.46862000000004,4233.6497,0.0,0.0,0.0,0.0,0.1389971264559652,0.0,-0.37557220412359066,-0.3578497809970237,-0.5535017993138744,0.23464954233560678,1.143404304495219,-0.15910519165245987
13947,5.0,299.3174,4131.3709,0.0,0.0,0.0,0.0,0.139007093265549,0.0,-0.3663987848732447,-0.3203553223091087,-0.5690795063512745,0.23556777997372977,1.157470546358449,-0.12243923717381189
13948,5.0,299.30871,4439.5318,0.0,0.0,0.0,0.0,0.13901706007513281,0.0,-0.41534167273103156,-0.33664909319217867,-0.5975160461677425,0.23500332874052277,1.1563341863712988,-0.09156337272210131
13949,5.0,300.91402999999997,4427.2766,0.0,0.0,0.0,0.0,0.13902702688471666,0.0,-0.40583045616234764,-0.33607617118813565,-0.6038748998203124,0.23607307766609878,1.1796636619737388,-0.1122444111601609
13950,5.0,300.22465,4250.3517,0.0,0.0,0.0,0.0,0.13903699369430048,0.0,-0.3596385524585617,-0.34626687327387967,-0.5860953597856084,0.25191887041495675,1.1508574682557888,-0.12578786663429586
13951,5.0,300.24478999999997,4180.7516,0.0,0.0,0.0,0.0,0.1390469605038843,0.0,-0.37212770093864467,-0.3402208403246827,-0.5584955416367186,0.24733097528716677,1.151142799483949,-0.1293278787736679
13952,5.0,299.78333,4244.1542,0.0,0.0,0.0,0.0,0.1390569273134681,0.0,-0.43361648941461556,-0.3080630584559567,-0.5484373625315534,0.27608606067007274,1.127427782218459,-0.12423535469857488
13953,5.0,300.16026,4270.1731,0.0,0.0,0.0,0.0,0.13906689412305193,0.0,-0.4047821780063906,-0.34579514455732363,-0.5474486736139774,0.27827897706649674,1.158971169756549,-0.14520833480844686
13954,5.0,300.19968,4188.5473,0.0,0.0,0.0,0.0,0.13907686093263574,0.0,-0.3977172916841406,-0.3213815825403927,-0.5541148966843824,0.2564937959414667,1.183945859546359,-0.13287657446639686
13955,5.0,299.07653,4155.2571,0.0,0.0,0.0,0.0,0.13908682774221956,0.0,-0.3510303849090017,-0.3248648222766617,-0.5871992045770494,0.23130790430081277,1.1751274426010487,-0.12699587353601688
13956,5.0,299.59707000000003,4316.4846,0.0,0.0,0.0,0.0,0.1390967945518034,0.0,-0.36437296355081167,-0.35657115056333266,-0.5911594419303944,0.2069275363571578,1.150500500245559,-0.14899961270761686
13957,5.0,300.71308,4471.3633,0.0,0.0,0.0,0.0,0.13910676136138722,0.0,-0.3947788157316356,-0.34290027888912267,-0.6215036885051384,0.2200319100329588,1.1439268375717888,-0.12393147086108389
13958,5.0,299.48013,4331.2414,0.0,0.0,0.0,0.0,0.13911672817097104,0.0,-0.3974453860198056,-0.3284583137563117,-0.5906855245936224,0.24144023304829576,1.1570211699390989,-0.10409824512619689
13959,5.0,299.43784,4231.9434,0.0,0.0,0.0,0.0,0.13912669498055485,0.0,-0.36110790695857564,-0.3295548530145317,-0.5957423620001935,0.22193639465591677,1.164994029675959,-0.1110633161810959
13960,5.0,299.08842999999996,4261.7998,0.0,0.0,0.0,0.0,0.13913666179013867,0.0,-0.3877916963545606,-0.3263001923683217,-0.5813888130711085,0.24864567742441776,1.1540011780160488,-0.1114832880825439
13961,5.0,299.1726,4371.1242,0.0,0.0,0.0,0.0,0.1391466285997225,0.0,-0.37439921514532565,-0.3728734530122446,-0.5814399416711544,0.24059762439763677,1.180859499741759,-0.14411643623568487
13962,5.0,300.23311,4198.0317,0.0,0.0,0.0,0.0,0.13915659540930633,0.0,-0.3271436825465677,-0.36522003050191065,-0.5837330887674704,0.2632088779316938,1.1806439814454888,-0.16003242695147085
13963,5.0,299.86061,3939.2801,0.0,0.0,0.0,0.0,0.13916656221889012,0.0,-0.3384079332457627,-0.3343722999524767,-0.5246625533776625,0.2354008571522558,1.151972043365789,-0.17863529348743082
13964,5.0,300.28403,4135.2189,0.0,0.0,0.0,0.0,0.13917652902847394,0.0,-0.38233702656122664,-0.33293515667314166,-0.5417310958171965,0.24326376912076478,1.1305097850476291,-0.16029124142451384
13965,5.0,300.6691,4277.3536,0.0,0.0,0.0,0.0,0.13918649583805778,0.0,-0.41724583311395763,-0.3183472835259307,-0.5646155621082174,0.23268343184156678,1.144437110322149,-0.14635538458415184
13966,5.0,300.13892999999996,4172.6707,0.0,0.0,0.0,0.0,0.1391964626476416,0.0,-0.39266689854820563,-0.30503844611245073,-0.5706823565519634,0.2517676428375318,1.1559007179785188,-0.11001221105735991
13967,5.0,300.12357000000003,4411.9794,0.0,0.0,0.0,0.0,0.13920642945722542,0.0,-0.3934299164035096,-0.3263080855866007,-0.6213935684842704,0.2331029984429748,1.138795232440339,-0.09916307271213332
13968,5.0,300.25841,4726.0679,0.0,0.0,0.0,0.0,0.13921639626680923,0.0,-0.4172168541610976,-0.3684821081388526,-0.6509076693845853,0.2288870066318888,1.153117725253859,-0.1029871961265449
13969,5.0,299.66917,4379.0293,0.0,0.0,0.0,0.0,0.13922636307639305,0.0,-0.4038658554109566,-0.34272122746395167,-0.5845284799634695,0.24045008505057577,1.1613532194166387,-0.1132090860503669
13970,5.0,299.54427999999996,4154.7498,0.0,0.0,0.0,0.0,0.13923632988597687,0.0,-0.38687609316669763,-0.3145969409308007,-0.5614671609999945,0.2617927798569358,1.1700416363741188,-0.11680081447484289
13971,5.0,299.69255,4244.2065,0.0,0.0,0.0,0.0,0.1392462966955607,0.0,-0.4109609365861866,-0.3359970262228247,-0.5431748252221815,0.25706640383797874,1.1616101796419989,-0.14055046462875087
13972,5.0,299.78782,4025.3759999999997,0.0,0.0,0.0,0.0,0.13925626350514453,0.0,-0.3673600552431146,-0.3287051516131727,-0.5275485632399894,0.22567730389261575,1.154180523283749,-0.15403690451975885
13973,5.0,300.40526,4152.5968,0.0,0.0,0.0,0.0,0.13926623031472832,0.0,-0.3664480186956036,-0.3491129610822667,-0.5467247469475315,0.25698369223231576,1.1638677008647988,-0.16015847526391086
13974,5.0,300.18442000000005,4345.6267,0.0,0.0,0.0,0.0,0.13927619712431216,0.0,-0.38940144678843064,-0.3502696164689197,-0.5812909533764504,0.23900677107813179,1.189975710891459,-0.14374595146912086
13975,5.0,299.77345,4165.5341,0.0,0.0,0.0,0.0,0.13928616393389598,0.0,-0.37408468204928363,-0.35123980343966965,-0.5408938675245685,0.26969667779198975,1.149279635200069,-0.14591936280111986
13976,5.0,300.50559,4290.0872,0.0,0.0,0.0,0.0,0.13929613074347982,0.0,-0.37792488979578265,-0.35184886807477966,-0.5743056071870505,0.2217781047252948,1.1361979684590091,-0.13352362584775587
13977,5.0,301.35857000000004,4579.5791,0.0,0.0,0.0,0.0,0.13930609755306364,0.0,-0.4274272436962846,-0.3821517233829386,-0.5824987272306484,0.25323660217000676,1.146027406354099,-0.13137268840297486
13978,5.0,300.21961,4429.9281,0.0,0.0,0.0,0.0,0.13931606436264743,0.0,-0.3848633225055526,-0.35012867338000964,-0.6115955210772784,0.24615300111840976,1.150297748900549,-0.1026492265556899
13979,5.0,299.61832000000004,4301.4735,0.0,0.0,0.0,0.0,0.13932603117223125,0.0,-0.34821359016100567,-0.36521019184343967,-0.5941167542022585,0.22183868694877376,1.137735575485759,-0.14548991701123687
13980,5.0,300.5924,4324.8976,0.0,0.0,0.0,0.0,0.1393359979818151,0.0,-0.36576787456597865,-0.34832491594949266,-0.6005680973239564,0.1936812063423468,1.161061099412809,-0.13378382847343587
13981,5.0,299.98786,4079.5105,0.0,0.0,0.0,0.0,0.1393459647913989,0.0,-0.3618468195940006,-0.3222486003859607,-0.5559739066428524,0.21618013097031782,1.181408681295959,-0.15309225145152885
13982,5.0,300.51821,4023.2027,0.0,0.0,0.0,0.0,0.13935593160098275,0.0,-0.35980460388494967,-0.3177199398590167,-0.5454286075521124,0.2229469191131478,1.2193399014394788,-0.15131846595896986
13983,5.0,300.46072999999996,4302.4209,0.0,0.0,0.0,0.0,0.13936589841056654,0.0,-0.4258028720634716,-0.33115705473515666,-0.5508685953514975,0.2675279476754528,1.160724599054599,-0.14198528756535686
13984,5.0,300.07356,4435.5267,0.0,0.0,0.0,0.0,0.13937586522015036,0.0,-0.4151626922333676,-0.36424887081106466,-0.5688777885213665,0.26054840740912577,1.1480367826274092,-0.14085063997087588
13985,5.0,299.31041,4172.6635,0.0,0.0,0.0,0.0,0.1393858320297342,0.0,-0.3759767340935147,-0.3209954329272827,-0.5714133557041075,0.2691086887589597,1.137187913806709,-0.11723689705288089
13986,5.0,299.85134,4236.2112,0.0,0.0,0.0,0.0,0.13939579883931802,0.0,-0.39731907426233964,-0.32861932932970267,-0.5617640230142924,0.24151054247273473,1.1567523546875689,-0.12357547557094989
13987,5.0,300.46252000000004,4391.5227,0.0,0.0,0.0,0.0,0.13940576564890184,0.0,-0.41940241436179565,-0.33917728391419166,-0.5763335563346934,0.23305915511114775,1.125720354474949,-0.1002984255286839
13988,5.0,300.55978999999996,4304.8293,0.0,0.0,0.0,0.0,0.13941573245848565,0.0,-0.39988122912770463,-0.3233844638805617,-0.5852949327366124,0.2222682847261718,1.147604124834709,-0.12479076774088987
13989,5.0,299.50653,4277.0049,0.0,0.0,0.0,0.0,0.13942569926806947,0.0,-0.39499485078545665,-0.34405729904581167,-0.5610505328238765,0.24327387122426175,1.1485340857764887,-0.0963052109375843
13990,5.0,300.44149,4283.9368,0.0,0.0,0.0,0.0,0.1394356660776533,0.0,-0.36277009308512065,-0.3585276858439277,-0.5809120383690545,0.23295625956349275,1.1731898044348188,-0.13442848858455886
13991,5.0,300.36604,4262.9075,0.0,0.0,0.0,0.0,0.13944563288723713,0.0,-0.36383448191766765,-0.35011438655359967,-0.5818685768609575,0.24070697434842878,1.123259068657039,-0.12816430288883188
13992,5.0,301.3888,4295.9128,0.0,0.0,0.0,0.0,0.13945559969682095,0.0,-0.38121483181047466,-0.36277066050517665,-0.5618647299417315,0.2537741921430628,1.1807283851788188,-0.16111999894630585
13993,5.0,300.40952000000004,4370.0583,0.0,0.0,0.0,0.0,0.13946556650640474,0.0,-0.39184917532000263,-0.36489457456979063,-0.5716448529544544,0.25262672693481675,1.1855586497305288,-0.14533748366619287
13994,5.0,299.72762,4089.6566,0.0,0.0,0.0,0.0,0.13947553331598858,0.0,-0.3639648061455296,-0.33072077963959967,-0.5484679120220685,0.24362220634363976,1.2081235268075088,-0.1275140901671609
13995,5.0,300.29532,4035.3717,0.0,0.0,0.0,0.0,0.1394855001255724,0.0,-0.3587581495791727,-0.3328904520787297,-0.5350036217782465,0.22430709591488676,1.1452139691738188,-0.12376761818741287
13996,5.0,301.11298999999997,4362.6994,0.0,0.0,0.0,0.0,0.13949546693515624,0.0,-0.3964131678779336,-0.3375816277892127,-0.5921568853288345,0.24178450503477278,1.140054094364579,-0.11962475263604389
13997,5.0,299.94667999999996,4404.2384,0.0,0.0,0.0,0.0,0.13950543374474006,0.0,-0.3880190595444996,-0.37549640288360964,-0.5752630272065404,0.23876567834933776,1.1195056863116088,-0.1270903591078419
13998,5.0,299.25265,4135.9316,0.0,0.0,0.0,0.0,0.13951540055432385,0.0,-0.3561240944867117,-0.34836528383347665,-0.5527305640002594,0.23086570169217077,1.1488081699285388,-0.12574967723802688
13999,5.0,298.75035,4408.3535,0.0,0.0,0.0,0.0,0.1395253673639077,0.0,-0.4006291394240176,-0.3772740083290456,-0.5621262396600405,0.24189078483776175,1.127917182016759,-0.14007091362142288
14000,5.0,299.97177999999997,4614.3854,0.0,0.0,0.0,0.0,0.1395353341734915,0.0,-0.44630043522642354,-0.3865526941322806,-0.5698048211703575,0.25180593355881076,1.193282351267799,-0.12753912757713187
14001,5.0,299.9982,4291.9958,0.0,0.0,0.0,0.0,0.13954530098307533,0.0,-0.3971848996840976,-0.3411514902765307,-0.5663231519717434,0.2896401958002617,1.196896310399469,-0.1081731925233629
14002,5.0,300.30498,4118.9338,0.0,0.0,0.0,0.0,0.13955526779265917,0.0,-0.34293045347710066,-0.35773005536520763,-0.5513925267132055,0.22772214391942577,1.201080121387379,-0.12579757357025387
14003,5.0,300.54511,4123.8223,0.0,0.0,0.0,0.0,0.13956523460224296,0.0,-0.38790080312532865,-0.3351175454010267,-0.5305206689633135,0.25170031236838675,1.131811304801079,-0.10872748085806691
14004,5.0,301.21567999999996,4256.8581,0.0,0.0,0.0,0.0,0.13957520141182678,0.0,-0.4015487550822766,-0.3494095495190377,-0.5430202539194264,0.2203857774978828,1.163464224674979,-0.15067295471776285
14005,5.0,301.04429,4296.399,0.0,0.0,0.0,0.0,0.13958516822141062,0.0,-0.40477244067292956,-0.36807136694581566,-0.5331542072982235,0.2521029272956217,1.176740739410269,-0.14061699463031688
14006,5.0,300.99906,4308.0166,0.0,0.0,0.0,0.0,0.13959513503099444,0.0,-0.39951783711184063,-0.35258280565221367,-0.5574288223289414,0.22644678628355777,1.172865463077809,-0.12779509481739387
14007,5.0,300.54112000000003,4242.534000000001,0.0,0.0,0.0,0.0,0.13960510184057826,0.0,-0.3716278241343106,-0.36742514642953866,-0.5505714192296685,0.23152452703969179,1.1432631587562887,-0.10924997340463288
14008,5.0,300.52768,4249.7597,0.0,0.0,0.0,0.0,0.13961506865016207,0.0,-0.36298998862182263,-0.3634377235760106,-0.5653931302349574,0.2173313756014368,1.170666913010829,-0.13291509823519887
14009,5.0,299.55336,4499.5032,0.0,0.0,0.0,0.0,0.1396250354597459,0.0,-0.40544230031403966,-0.36676760790964463,-0.5955267018489094,0.24993394386655976,1.1577667193626788,-0.12422685353023588
14010,5.0,299.38606,4369.0824,0.0,0.0,0.0,0.0,0.1396350022693297,0.0,-0.35934649324973766,-0.37677120323192265,-0.5919742469983095,0.2340466078636018,1.1530722303243688,-0.13569476749953086
14011,5.0,299.41927999999996,4060.4166,0.0,0.0,0.0,0.0,0.13964496907891355,0.0,-0.36405396202182866,-0.3522002733419607,-0.5180110224337074,0.23934367673638177,1.1317811099480988,-0.14906032665360885
14012,5.0,299.60264,4235.2986,0.0,0.0,0.0,0.0,0.13965493588849737,0.0,-0.4171733350693026,-0.3364434540843837,-0.5338082095752684,0.2511309266071928,1.1741216905517886,-0.12946471819967287
14013,5.0,299.60438,4402.2156,0.0,0.0,0.0,0.0,0.13966490269808116,0.0,-0.41916640814850364,-0.3479945052243837,-0.5710027057035795,0.26101158429483773,1.1794597960536188,-0.1200351493240469
14014,5.0,299.86888,4270.9715,0.0,0.0,0.0,0.0,0.139674869507665,0.0,-0.38085347642731165,-0.35562841253779165,-0.5617868008765404,0.24376534818526677,1.1948730525997888,-0.1058634179929059
14015,5.0,300.70609,4235.9855,0.0,0.0,0.0,0.0,0.13968483631724882,0.0,-0.3665726889879077,-0.35226320630567165,-0.5687979140159835,0.24847127681720577,1.1701406309088889,-0.13482901621658785
14016,5.0,300.47508,4515.7181,0.0,0.0,0.0,0.0,0.13969480312683266,0.0,-0.4122905132349056,-0.38428997493646766,-0.5760850466151675,0.24655030661512076,1.171125712656109,-0.12591735999707587
14017,5.0,300.4431,4454.0499,0.0,0.0,0.0,0.0,0.13970476993641648,0.0,-0.43254966878182854,-0.35245339334944165,-0.5689168999752265,0.24061743343709174,1.1680840371809187,-0.12766239958429787
14018,5.0,301.23646,4271.6356,0.0,0.0,0.0,0.0,0.13971473674600027,0.0,-0.3987470476282696,-0.33357725326151166,-0.5661462689017865,0.22456681218051877,1.1348592624268887,-0.1284416395737029
14019,5.0,299.59411,4313.7577,0.0,0.0,0.0,0.0,0.1397247035555841,0.0,-0.36886829828196666,-0.33596342684950864,-0.6064429214037563,0.22164645313980177,1.134141678706069,-0.09487170421285822
14020,5.0,299.26485,4241.2034,0.0,0.0,0.0,0.0,0.13973467036516793,0.0,-0.36122882822550967,-0.34104038740306564,-0.5869507049900244,0.25166785796768376,1.1550299308425789,-0.11930460613444789
14021,5.0,299.96178,4100.5316,0.0,0.0,0.0,0.0,0.13974463717475175,0.0,-0.36247495359599263,-0.3300360860170257,-0.5539481765129285,0.24842302584744377,1.150300079375779,-0.13389541770694888
14022,5.0,299.82635,4278.9637,0.0,0.0,0.0,0.0,0.1397546039843356,0.0,-0.39152319249783063,-0.35018252762282465,-0.5589923989557545,0.24340283769698978,1.1510297207727889,-0.13891897998023586
14023,5.0,300.44872999999995,4353.4923,0.0,0.0,0.0,0.0,0.13976457079391938,0.0,-0.4092052072104096,-0.37083955608651464,-0.5433081892003434,0.24744842110625775,1.1458664009132091,-0.13340945282648786
14024,5.0,301.20076,4153.130999999999,0.0,0.0,0.0,0.0,0.1397745376035032,0.0,-0.37428383635643864,-0.3608754167231306,-0.5272888571068586,0.27297533220056774,1.1807518925811389,-0.16078491713823584
14025,5.0,299.8405,4311.0094,0.0,0.0,0.0,0.0,0.13978450441308704,0.0,-0.38036230344133665,-0.34990222211516064,-0.5801746962712844,0.23241165789974477,1.1809819003538387,-0.1095402999557859
14026,5.0,300.10168999999996,4295.0131,0.0,0.0,0.0,0.0,0.13979447122267086,0.0,-0.3847957083263796,-0.3456197307000117,-0.5751612867639995,0.23844986855816977,1.1576584029269887,-0.1285263168845599
14027,5.0,299.94264,4230.2179,0.0,0.0,0.0,0.0,0.13980443803225467,0.0,-0.3464686822962967,-0.33886312572068666,-0.6005488151745534,0.1920470365810668,1.1368006496184888,-0.12371404765462589
14028,5.0,299.02991000000003,4318.3935,0.0,0.0,0.0,0.0,0.1398144048418385,0.0,-0.35669448336550463,-0.36913731618351664,-0.5868519840327814,0.23182815756465777,1.1480255355512987,-0.16653499999822485
14029,5.0,299.97927999999996,4450.3335,0.0,0.0,0.0,0.0,0.1398243716514223,0.0,-0.42241213192883165,-0.3376823853791567,-0.5926957418645155,0.24946350197763079,1.1506601884613188,-0.12717379012107588
14030,5.0,300.91095,4161.1827,0.0,0.0,0.0,0.0,0.13983433846100612,0.0,-0.36224497622079566,-0.34766564477192763,-0.5549850150752564,0.25736447161989573,1.145843298810929,-0.14075704605913886
14031,5.0,301.05458,3926.9569,0.0,0.0,0.0,0.0,0.13984430527058997,0.0,-0.34570648517357366,-0.2874245826015977,-0.5605657737110344,0.25846836707384174,1.167977747245429,-0.09543180758988609
14032,5.0,301.14185,4406.6774,0.0,0.0,0.0,0.0,0.13985427208017379,0.0,-0.38636051098581364,-0.33900976327515864,-0.6141496206043484,0.24156573420568178,1.166602564209709,-0.10782648873664591
14033,5.0,300.66263,4510.2207,0.0,0.0,0.0,0.0,0.13986423888975758,0.0,-0.4201562724361956,-0.3471584219043687,-0.6036797883810564,0.26567728689780673,1.1882624062973688,-0.0966274629728881
14034,5.0,300.58178,4365.6226,0.0,0.0,0.0,0.0,0.13987420569934142,0.0,-0.4232322261622686,-0.3558102301357357,-0.5479978247706745,0.23532292808706476,1.164265097554019,-0.14221303579033387
14035,5.0,299.89152,4615.7484,0.0,0.0,0.0,0.0,0.13988417250892524,0.0,-0.46081338866124055,-0.36482905781832464,-0.5774298118828854,0.22348045608580377,1.1548119807460688,-0.1227914631735739
14036,5.0,299.10321,4489.5847,0.0,0.0,0.0,0.0,0.13989413931850908,0.0,-0.42490927666778067,-0.36547981769504967,-0.5743325495072094,0.2310155208519568,1.138863424172069,-0.15437955530607586
14037,5.0,299.27148,4168.646,0.0,0.0,0.0,0.0,0.1399041061280929,0.0,-0.37367796345914367,-0.32968531909740767,-0.5638010103528275,0.2339728027263178,1.1703169364262889,-0.12476395714324388
14038,5.0,300.34212,4058.3746,0.0,0.0,0.0,0.0,0.1399140729376767,0.0,-0.37241063076406766,-0.29680080385945873,-0.5644331061627105,0.25519762614854474,1.144915870994399,-0.11920038322916188
14039,5.0,300.44652,4063.8141,0.0,0.0,0.0,0.0,0.13992403974726053,0.0,-0.3443129217810397,-0.3136669495915177,-0.5773181415893645,0.23756158259300275,1.1482390273473688,-0.1178590630117839
14040,5.0,299.90077,3998.0167,0.0,0.0,0.0,0.0,0.13993400655684435,0.0,-0.34296007077752366,-0.32980950302966366,-0.5425276623833114,0.25277092255654776,1.1714603891641389,-0.14582094581890687
14041,5.0,299.70079,4407.4224,0.0,0.0,0.0,0.0,0.13994397336642816,0.0,-0.3959237174171286,-0.3669871589413127,-0.5768354900367304,0.24767665569128275,1.1857923052035888,-0.13815013593685688
14042,5.0,300.05046,4773.2141,0.0,0.0,0.0,0.0,0.139953940176012,0.0,-0.44948534373574955,-0.40761701873866757,-0.5938355469020055,0.26069503483109674,1.1627779503822488,-0.15476468153658485
14043,5.0,300.52455,4424.497,0.0,0.0,0.0,0.0,0.1399639069855958,0.0,-0.4063655738051596,-0.3409724692488627,-0.5975985753883875,0.23533172309793277,1.161672798498179,-0.12948770884444186
14044,5.0,301.04939,4196.6059,0.0,0.0,0.0,0.0,0.13997387379517962,0.0,-0.36952309089408963,-0.34473355229505265,-0.5614067510290325,0.24177693605652575,1.175031183841549,-0.13408292977045486
14045,5.0,300.03997999999996,4268.3769,0.0,0.0,0.0,0.0,0.13998384060476346,0.0,-0.38634308308409365,-0.3181377231402487,-0.5929991798719624,0.22877799105362975,1.2052700118758888,-0.1094051323924459
14046,5.0,300.57966,4079.5025,0.0,0.0,0.0,0.0,0.13999380741434728,0.0,-0.3669353919937036,-0.3186922343899747,-0.5544392785713964,0.2340006873690698,1.1918949079058687,-0.14638163789424286
14047,5.0,300.32621,3976.9929,0.0,0.0,0.0,0.0,0.1400037742239311,0.0,-0.35887110670032063,-0.29619579222474873,-0.5538396472947175,0.24395584933656778,1.181005103781129,-0.13842642897412485
14048,5.0,299.77452,4202.4993,0.0,0.0,0.0,0.0,0.1400137410335149,0.0,-0.36758649637546265,-0.3229652417841877,-0.5869031126328275,0.24975086983849176,1.1630063369547887,-0.14488169337370987
14049,5.0,299.767,4229.7512,0.0,0.0,0.0,0.0,0.14002370784309873,0.0,-0.39340812139385867,-0.3161499797565737,-0.5761806568946034,0.24062817388815178,1.192941392609149,-0.1118606832147899
14050,5.0,299.64452,4403.1189,0.0,0.0,0.0,0.0,0.14003367465268254,0.0,-0.40444779534088965,-0.36532113259688864,-0.5686692616507865,0.2497897381123278,1.132774702996159,-0.13647097787113688
14051,5.0,299.27482000000003,4692.0356,0.0,0.0,0.0,0.0,0.1400436414622664,0.0,-0.45853256268614057,-0.3611303707132926,-0.6065987288716335,0.2227083493771028,1.145239401751329,-0.1063136962048449
14052,5.0,299.61669,4568.1006,0.0,0.0,0.0,0.0,0.1400536082718502,0.0,-0.43484943240129753,-0.39412085164669963,-0.5596182328800194,0.26850578468445774,1.172294192671429,-0.15014001556266585
14053,5.0,300.54197999999997,4206.6591,0.0,0.0,0.0,0.0,0.140063575081434,0.0,-0.3679749967288047,-0.3415247513483686,-0.5692195780450985,0.23188086683485976,1.2074981488457888,-0.14546937843170987
14054,5.0,300.76317,4092.3277,0.0,0.0,0.0,0.0,0.14007354189101784,0.0,-0.3576601208433056,-0.3258512617790157,-0.5604540527550085,0.26500446856640475,1.1807939424602887,-0.14362705670238687
14055,5.0,299.93716,4063.5714,0.0,0.0,0.0,0.0,0.14008350870060166,0.0,-0.35997872078213367,-0.3252436460915487,-0.5500018510834565,0.2474069589121658,1.1546539137304688,-0.10891019011609888
14056,5.0,299.74065,3753.6599,0.0,0.0,0.0,0.0,0.14009347551018547,0.0,-0.35789667421165167,-0.2487597187231728,-0.5343624877774714,0.2678058923103837,1.1655404754548888,-0.11913055003226987
14057,5.0,299.34949,4112.398,0.0,0.0,0.0,0.0,0.1401034423197693,0.0,-0.36301692080948067,-0.3355058836343527,-0.5515435212431075,0.2312582145159088,1.1931701844817288,-0.12648423289802188
14058,5.0,298.5643,4587.9628,0.0,0.0,0.0,0.0,0.1401134091293531,0.0,-0.44045587692711063,-0.36555762517022866,-0.5886126276715434,0.2252910124244918,1.166460405220679,-0.14428745258756287
14059,5.0,298.43108,4566.0075,0.0,0.0,0.0,0.0,0.14012337593893695,0.0,-0.3786502654098716,-0.3832539672392216,-0.6260480442761314,0.2193665492222928,1.162750187329509,-0.16329688572614784
14060,5.0,299.33117000000004,4493.269,0.0,0.0,0.0,0.0,0.14013334274852077,0.0,-0.38925441406641964,-0.3896798879159106,-0.5869072770907384,0.23664059904710877,1.158633858798259,-0.16151815557310084
14061,5.0,300.4558,4568.8488,0.0,0.0,0.0,0.0,0.14014330955810458,0.0,-0.4218945536452506,-0.35159123910435364,-0.6153301481633574,0.26656698128061274,1.1579821363339386,-0.09658723289091771
14062,5.0,300.71684,4199.5565,0.0,0.0,0.0,0.0,0.1401532763676884,0.0,-0.40510558717330863,-0.33597780486842765,-0.5354769311649584,0.2575279088610258,1.132323806701659,-0.12643555636321788
14063,5.0,299.65263999999996,3951.6814,0.0,0.0,0.0,0.0,0.14016324317727222,0.0,-0.3770992834818016,-0.3174859500134237,-0.5066272487527166,0.26265199567673375,1.172738806815309,-0.1077792206194809
14064,5.0,300.14928,4323.467000000001,0.0,0.0,0.0,0.0,0.14017320998685603,0.0,-0.4098998610814666,-0.33887954037230666,-0.5654466298402374,0.26781862886414076,1.1793232099401387,-0.13599336217149988
14065,5.0,299.94091000000003,4313.1377,0.0,0.0,0.0,0.0,0.14018317679643985,0.0,-0.3757910256151866,-0.3500562057328577,-0.5852389202710845,0.2627823401695978,1.206182848890979,-0.14782834625452185
14066,5.0,300.15469,4108.2559,0.0,0.0,0.0,0.0,0.14019314360602367,0.0,-0.33531871607588065,-0.3277531220842147,-0.5857353621575795,0.23592022888851377,1.1793641452441788,-0.16694815272649985
14067,5.0,300.76104,4297.4654,0.0,0.0,0.0,0.0,0.1402031104156075,0.0,-0.3831953101909326,-0.3280628929047867,-0.5950639809257424,0.2276408609964038,1.1566167818241888,-0.12400013882036089
14068,5.0,299.03798,4488.499,0.0,0.0,0.0,0.0,0.14021307722519133,0.0,-0.43636469726334265,-0.35266587189541165,-0.5753610388887135,0.23946359488571678,1.1443661828151488,-0.12076324044840389
14069,5.0,299.17028999999997,4518.7478,0.0,0.0,0.0,0.0,0.14022304403477515,0.0,-0.43680453899925153,-0.34212194069230667,-0.5946600082433735,0.24489082586634278,1.153296969196549,-0.1039725109212879
14070,5.0,300.09475,4650.0335,0.0,0.0,0.0,0.0,0.14023301084435896,0.0,-0.42296970319385957,-0.3956697564120646,-0.5948546029250784,0.24004216069281678,1.1623634297663388,-0.13705674788644787
14071,5.0,299.40654,4434.7372,0.0,0.0,0.0,0.0,0.14024297765394278,0.0,-0.36213722720516167,-0.3764767223553596,-0.6094354137190925,0.2251743366754768,1.1850702631823289,-0.11929083606558888
14072,5.0,298.95314,4135.4386,0.0,0.0,0.0,0.0,0.14025294446352662,0.0,-0.33328858844052267,-0.34085794159005967,-0.5829235424675744,0.26192635661761876,1.179224114080359,-0.11188074556676988
14073,5.0,299.73104,4259.9422,0.0,0.0,0.0,0.0,0.1402629112731104,0.0,-0.37572369514604165,-0.36481301806924166,-0.5543793346954805,0.2761858860699247,1.164132260465909,-0.1220897368168189
14074,5.0,299.23225,4376.5623,0.0,0.0,0.0,0.0,0.14027287808269423,0.0,-0.4160338948018486,-0.3425037738599907,-0.5718279979100295,0.26754434206207073,1.141242839381899,-0.11213597313445889
14075,5.0,299.38009,4205.6151,0.0,0.0,0.0,0.0,0.14028284489227807,0.0,-0.36238053895167466,-0.38050359103528064,-0.5355178563364975,0.27347340541972376,1.148268715575299,-0.15709553166912185
14076,5.0,300.81301,4170.5701,0.0,0.0,0.0,0.0,0.1402928117018619,0.0,-0.36382269781900467,-0.36211362861033264,-0.5418128651002665,0.23242571167863177,1.1740454941442688,-0.14908970077400785
14077,5.0,300.30831,4453.0413,0.0,0.0,0.0,0.0,0.1403027785114457,0.0,-0.3941632561633846,-0.34750211633828865,-0.6119479902570645,0.23553978387346677,1.1704084329103188,-0.16510805001489584
14078,5.0,299.58741000000003,4584.6072,0.0,0.0,0.0,0.0,0.14031274532102953,0.0,-0.41538973118327466,-0.37213508753187363,-0.6060813127080684,0.22535304359561378,1.1605915593164688,-0.13372118935225388
14079,5.0,300.17375,4233.3399,0.0,0.0,0.0,0.0,0.14032271213061334,0.0,-0.36048141442174564,-0.3413627022598757,-0.5849854861560724,0.23256599615497678,1.1714105372592187,-0.12118151008968388
14080,5.0,300.18824,4154.0345,0.0,0.0,0.0,0.0,0.14033267894019716,0.0,-0.3599043684897957,-0.3362005780354137,-0.5666178253658254,0.25388762549175775,1.164056165383399,-0.09222595520099311
14081,5.0,299.95187000000004,4288.3954,0.0,0.0,0.0,0.0,0.140342645749781,0.0,-0.39973526031829865,-0.3390853821301217,-0.5647444779184405,0.25578339616385576,1.158225012382909,-0.12213412730369987
14082,5.0,298.99442,4392.6095,0.0,0.0,0.0,0.0,0.14035261255936482,0.0,-0.42798708464153656,-0.3315442682608717,-0.5757122617708764,0.24610010946318975,1.1475470788540791,-0.1169595603680099
14083,5.0,299.58969,4402.1751,0.0,0.0,0.0,0.0,0.1403625793689486,0.0,-0.3960989387569216,-0.3677162835807717,-0.5743360756175574,0.24315904972292973,1.1504852001690489,-0.15534384516124383
14084,5.0,299.00512000000003,4230.7047,0.0,0.0,0.0,0.0,0.14037254617853245,0.0,-0.3966963104858776,-0.31748311291314374,-0.5718491647046184,0.2508167785461888,1.1680946763069688,-0.12657490864947088
14085,5.0,299.83727999999996,4010.6445,0.0,0.0,0.0,0.0,0.14038251298811627,0.0,-0.3630146713942587,-0.3079925159839947,-0.5481285948285806,0.25457366673696474,1.163252252754059,-0.13164213186956686
14086,5.0,299.26552000000004,4159.5333,0.0,0.0,0.0,0.0,0.1403924797977001,0.0,-0.3815714350506686,-0.3332915167333117,-0.5495313078695174,0.26235777824519674,1.160763203883409,-0.12778224680612588
14087,5.0,300.04400000000004,4513.724,0.0,0.0,0.0,0.0,0.14040244660728393,0.0,-0.4232760188315906,-0.3574661645091637,-0.5913172049709644,0.2763013560513207,1.1654779579237189,-0.12996795899433888
14088,5.0,299.71612999999996,4422.0386,0.0,0.0,0.0,0.0,0.14041241341686772,0.0,-0.41792121496811263,-0.35280467702661067,-0.5734634342339344,0.24840207183537577,1.204689824868629,-0.1355016015004669
14089,5.0,299.56235,4171.6952,0.0,0.0,0.0,0.0,0.14042238022645154,0.0,-0.34663622320033166,-0.35539712806996565,-0.5660578121680564,0.21934262638743177,1.178314215490559,-0.16322127700368586
14090,5.0,299.86264,4343.7313,0.0,0.0,0.0,0.0,0.14043234703603538,0.0,-0.4094408993161706,-0.3346436381967557,-0.5763013248490125,0.2067773017648308,1.1615252692836189,-0.12250317325512187
14091,5.0,299.79392,4476.0657,0.0,0.0,0.0,0.0,0.1404423138456192,0.0,-0.37572506303367664,-0.38137909991668667,-0.6035080323566054,0.23099236808717177,1.189312437375999,-0.14302741529320687
14092,5.0,299.76283,4252.3386,0.0,0.0,0.0,0.0,0.14045228065520304,0.0,-0.3700337385469866,-0.3345162321291817,-0.5880547726964874,0.24547387023888476,1.204108523286259,-0.1157407420877219
14093,5.0,300.21597,4228.8858,0.0,0.0,0.0,0.0,0.14046224746478683,0.0,-0.39068160722977263,-0.3491820748715877,-0.5456119956877115,0.24953646611733177,1.1778727424219888,-0.14201862349364688
14094,5.0,299.81612,4188.9232,0.0,0.0,0.0,0.0,0.14047221427437065,0.0,-0.37656319311889364,-0.3557907656013147,-0.5409740966674865,0.2219006167948858,1.168128012235259,-0.14551457951867086
14095,5.0,299.46894,4064.1736,0.0,0.0,0.0,0.0,0.1404821810839545,0.0,-0.33975806873901065,-0.35295924832936565,-0.5426899749168305,0.2644045941097018,1.155167023581109,-0.18733906118392582
14096,5.0,300.37837,4417.7063,0.0,0.0,0.0,0.0,0.1404921478935383,0.0,-0.41823190784627556,-0.34761373596930467,-0.5770267713906085,0.24796551302979075,1.174902501078849,-0.14156149571103185
14097,5.0,299.09632999999997,4534.0157,0.0,0.0,0.0,0.0,0.14050211470312213,0.0,-0.41095481655558264,-0.35034863984421866,-0.6169240918956673,0.25879472479855076,1.159178784702039,-0.14627657399137386
14098,5.0,299.45547999999997,4319.4292,0.0,0.0,0.0,0.0,0.14051208151270594,0.0,-0.4228169557412846,-0.30708847397977274,-0.5830931909318174,0.24146756040349276,1.153186322285629,-0.1007099641495496
14099,5.0,299.56608,4368.1002,0.0,0.0,0.0,0.0,0.14052204832228976,0.0,-0.4038848741153336,-0.3479865714761007,-0.5759219437465705,0.24301754934646475,1.168979648944309,-0.12933647113451588
14100,5.0,299.35646,4569.6498,0.0,0.0,0.0,0.0,0.14053201513187358,0.0,-0.40569705165418163,-0.3456412116021317,-0.6377211717881794,0.24382959837410778,1.1726529845318387,-0.1121187580152599
14101,5.0,299.04668,4543.8643,0.0,0.0,0.0,0.0,0.14054198194145742,0.0,-0.38553800521713866,-0.37700534506503064,-0.6186779264937574,0.24754254190804678,1.1591339990476188,-0.15090213162538085
14102,5.0,299.65427,4354.4275,0.0,0.0,0.0,0.0,0.14055194875104124,0.0,-0.40070206303371464,-0.34267216589410965,-0.5802630010174995,0.23066500724486375,1.1817150881261989,-0.11508009289002089
14103,5.0,300.21403,4178.3799,0.0,0.0,0.0,0.0,0.14056191556062503,0.0,-0.3563264911941867,-0.35341195834154465,-0.5603847059181645,0.25510010082641976,1.1788597493443989,-0.14723358871082387
14104,5.0,300.38504,4034.9087,0.0,0.0,0.0,0.0,0.14057188237020887,0.0,-0.37062800973063664,-0.3099010637398537,-0.5459824196592694,0.25053081910296676,1.202682373770509,-0.08536797150941282
14105,5.0,300.30359,4125.0466,0.0,0.0,0.0,0.0,0.1405818491797927,0.0,-0.36939631304157766,-0.3375352715971377,-0.5469795894801824,0.2352475017496208,1.165956718595969,-0.14230982143988585
14106,5.0,299.85659,4455.6873,0.0,0.0,0.0,0.0,0.14059181598937653,0.0,-0.39078594159256963,-0.3515735274926057,-0.6120582217354434,0.2389269573677548,1.1390546244659387,-0.12260693006536189
14107,5.0,301.38236,4250.027,0.0,0.0,0.0,0.0,0.14060178279896035,0.0,-0.3835436757078136,-0.3550671935724037,-0.5532912054130905,0.25106881437606277,1.1337520840426187,-0.17963954592654283
14108,5.0,299.95006,4027.6832,0.0,0.0,0.0,0.0,0.14061174960854414,0.0,-0.35134949789549563,-0.3178285298722337,-0.5551371039152665,0.2525440457266568,1.1582030248557387,-0.13952050603460187
14109,5.0,299.70182,4447.998,0.0,0.0,0.0,0.0,0.14062171641812796,0.0,-0.4034731804672026,-0.35904761486774067,-0.5895595301549954,0.24357344874882775,1.133900626507279,-0.14527530050755585
14110,5.0,299.14287,4784.726,0.0,0.0,0.0,0.0,0.1406316832277118,0.0,-0.46626679189194953,-0.36726065540830466,-0.6209097719590234,0.2224466876712788,1.1747043093592886,-0.08483226516829272
14111,5.0,299.53785,4419.1839,0.0,0.0,0.0,0.0,0.14064165003729562,0.0,-0.3937676529268416,-0.3376141429849217,-0.6119397525337514,0.2380855342197128,1.1980051099838989,-0.13364604672483787
14112,5.0,299.35767999999996,4265.8788,0.0,0.0,0.0,0.0,0.14065161684687946,0.0,-0.3600011338743457,-0.3346495454448387,-0.6020699670196795,0.22235756219248282,1.2008815243677788,-0.100815011840417
14113,5.0,299.45051,4315.7178,0.0,0.0,0.0,0.0,0.14066158365646325,0.0,-0.38420650339322965,-0.33143702587028767,-0.5962269184630155,0.24639224973202178,1.152930679285399,-0.13721684140224785
14114,5.0,298.63948999999997,4403.7897,0.0,0.0,0.0,0.0,0.14067155046604707,0.0,-0.38001519435457964,-0.3391267024691997,-0.6195001992149094,0.2220339402430438,1.140769144960149,-0.12415194395034289
14115,5.0,300.51855,4469.865,0.0,0.0,0.0,0.0,0.1406815172756309,0.0,-0.39645531908209364,-0.3865987666143276,-0.5756732516420264,0.27976296289795477,1.1619403978495888,-0.14303775044422687
14116,5.0,299.84022000000004,4232.9646,0.0,0.0,0.0,0.0,0.14069148408521473,0.0,-0.41358621693278164,-0.31094276590266173,-0.5621865584384935,0.26833923676552074,1.171479336941009,-0.08348509039183692
14117,5.0,299.3757,4023.7962,0.0,0.0,0.0,0.0,0.14070145089479855,0.0,-0.35377056781693667,-0.3237800164545997,-0.5455829762048475,0.2616677751920987,1.1753931167772689,-0.12842445485200688
14118,5.0,300.06482,4443.3682,0.0,0.0,0.0,0.0,0.14071141770438236,0.0,-0.39258884789300263,-0.36369406571880963,-0.5943900581517314,0.22803434654023777,1.1685945125812989,-0.12195796364131388
14119,5.0,300.69454,4883.1843,0.0,0.0,0.0,0.0,0.14072138451396618,0.0,-0.46124541823887855,-0.3852204121057946,-0.6379002738758555,0.24638383975619177,1.1689659700679589,-0.14099582857770487
14120,5.0,300.14288,4586.8231,0.0,0.0,0.0,0.0,0.14073135132355,0.0,-0.4035359817084006,-0.37331532124835365,-0.6174283864704374,0.22586405601854678,1.1837147371985488,-0.14239396172818986
14121,5.0,300.65532,4128.8786,0.0,0.0,0.0,0.0,0.14074131813313384,0.0,-0.3627604976066736,-0.34448724132824365,-0.5478282674989405,0.2548400603207558,1.143533088582929,-0.15815124708081285
14122,5.0,299.25449,4093.5668,0.0,0.0,0.0,0.0,0.14075128494271766,0.0,-0.40005770689762166,-0.3217519254519427,-0.5225324483549375,0.2244652946529998,1.166040413054229,-0.1182708579849249
14123,5.0,300.06182,4367.1974,0.0,0.0,0.0,0.0,0.14076125175230145,0.0,-0.37991011018670867,-0.37859050391897364,-0.5690183567077395,0.24970914419937373,1.180490068755299,-0.16384882332061987
14124,5.0,299.86789,4246.7102,0.0,0.0,0.0,0.0,0.1407712185618853,0.0,-0.3877404968270076,-0.35242128345377266,-0.5507320902980255,0.2584055354351407,1.1916771604593788,-0.12826897162416187
14125,5.0,298.29932,4038.2327,0.0,0.0,0.0,0.0,0.1407811853714691,0.0,-0.33821664175938365,-0.3581921480733126,-0.5311131264292845,0.25431390994132874,1.188201205991329,-0.16236881956205484
14126,5.0,300.47991,4299.5158,0.0,0.0,0.0,0.0,0.14079115218105295,0.0,-0.37120982807055763,-0.36394226133080465,-0.5717933548891104,0.24670266903265778,1.154807826420659,-0.15287842528292586
14127,5.0,300.59767,4483.6985,0.0,0.0,0.0,0.0,0.14080111899063677,0.0,-0.4217698225579406,-0.3717360899074957,-0.5694264634505165,0.2357010932893868,1.1769127892772488,-0.1426055283490699
14128,5.0,300.05498,4618.0942,0.0,0.0,0.0,0.0,0.14081108580022056,0.0,-0.4408513788386436,-0.38008163316363663,-0.5828523109855445,0.22725492416581475,1.166837131607859,-0.11972851957878489
14129,5.0,300.49262000000004,4546.4259999999995,0.0,0.0,0.0,0.0,0.14082105260980438,0.0,-0.4130372380286016,-0.3324303757383237,-0.6365323862408554,0.23777906659446676,1.169345026930369,-0.1188467589442619
14130,5.0,301.28177999999997,4155.1172,0.0,0.0,0.0,0.0,0.14083101941938822,0.0,-0.37538130780475065,-0.3157432510339327,-0.5719273268173325,0.23042944686161576,1.168101363757629,-0.11945034189633089
14131,5.0,300.52076,4209.2113,0.0,0.0,0.0,0.0,0.14084098622897204,0.0,-0.35404008221103567,-0.3564948730958047,-0.5689601657544965,0.23262550433334978,1.1864539575188888,-0.14576530825591585
14132,5.0,299.45364,4620.9375,0.0,0.0,0.0,0.0,0.14085095303855588,0.0,-0.41423629793193967,-0.3635141834285567,-0.6268991338301274,0.26685915194694776,1.1761797028298988,-0.13059105714333388
14133,5.0,298.66165,4532.6553,0.0,0.0,0.0,0.0,0.14086091984813967,0.0,-0.41709662190423163,-0.39029685590180063,-0.5704205428586244,0.27255416466400173,1.1865851734068389,-0.11622058693757889
14134,5.0,299.32169,4168.8257,0.0,0.0,0.0,0.0,0.1408708866577235,0.0,-0.3755135572078026,-0.35474755369585764,-0.5369578063186095,0.29519327244330773,1.1784657977055188,-0.12913703311733288
14135,5.0,300.76436,4239.2173,0.0,0.0,0.0,0.0,0.14088085346730733,0.0,-0.38009945623289565,-0.36033752277504466,-0.5481792269360775,0.2280798009397238,1.1790869200168188,-0.1250004497165839
14136,5.0,301.01551,4364.6239,0.0,0.0,0.0,0.0,0.14089082027689115,0.0,-0.4075015183597686,-0.36520098140003066,-0.5540341811814165,0.25234059523907776,1.1615502965610887,-0.14433922966767285
14137,5.0,300.61367,4444.9308,0.0,0.0,0.0,0.0,0.14090078708647497,0.0,-0.36558285509771865,-0.37329393153874263,-0.6122711663764594,0.19915252383482382,1.1717195785397188,-0.1388523993161649
14138,5.0,300.41127,4459.5524,0.0,0.0,0.0,0.0,0.14091075389605878,0.0,-0.3977847944058026,-0.37589824774076863,-0.5819095222974984,0.23614332629553175,1.1840840668599988,-0.16910621331948383
14139,5.0,299.83235,4252.4268,0.0,0.0,0.0,0.0,0.1409207207056426,0.0,-0.4012068135710296,-0.3272779989798237,-0.5641467515519495,0.22064573694353878,1.1822338721773988,-0.14565884606790885
14140,5.0,299.3807,4020.8009,0.0,0.0,0.0,0.0,0.14093068751522642,0.0,-0.33515342458706765,-0.33549847677612166,-0.5515711829708375,0.24500123972973978,1.164952587746869,-0.13798246331030886
14141,5.0,298.99917,4140.2469,0.0,0.0,0.0,0.0,0.14094065432481026,0.0,-0.3760350466367697,-0.32634133032238166,-0.5561552885432535,0.23796557554037379,1.1693898125847888,-0.13637107141127688
14142,5.0,299.00797,4545.4144,0.0,0.0,0.0,0.0,0.14095062113439408,0.0,-0.40777959471721265,-0.34732172742298567,-0.6265911463297315,0.26834234744332774,1.165352720211359,-0.11245463015840788
14143,5.0,299.75396,4488.9729,0.0,0.0,0.0,0.0,0.14096058794397787,0.0,-0.3820952448223646,-0.36363220680020464,-0.6188082000591144,0.23295165940803877,1.1727234054137887,-0.15324655930925785
14144,5.0,300.1643,4308.9563,0.0,0.0,0.0,0.0,0.1409705547535617,0.0,-0.37056214847413665,-0.35407536357951763,-0.5851776085075334,0.2419288931740228,1.1564008582278789,-0.1261647450089909
14145,5.0,300.00756,4409.3646,0.0,0.0,0.0,0.0,0.14098052156314553,0.0,-0.4098582772973626,-0.33819670099741567,-0.5922817684036594,0.23836124970442377,1.1798901233710888,-0.11852479872498689
14146,5.0,300.94799,4603.8688,0.0,0.0,0.0,0.0,0.14099048837272937,0.0,-0.3969935980652176,-0.39678028865416565,-0.6056872698766795,0.25125262807670373,1.164077950260549,-0.10828515665941289
14147,5.0,299.65612999999996,4328.7159,0.0,0.0,0.0,0.0,0.1410004551823132,0.0,-0.4202592794413616,-0.3146426993053167,-0.5809195668172975,0.23370752371763678,1.163757864553959,-0.10228619930986191
14148,5.0,299.67049,4226.6552,0.0,0.0,0.0,0.0,0.14101042199189698,0.0,-0.36105206674556467,-0.3625775553011186,-0.5611680191729714,0.2114360534721138,1.1232695051330688,-0.1105203559825099
14149,5.0,300.80165,4358.1307,0.0,0.0,0.0,0.0,0.14102038880148082,0.0,-0.37469923849993564,-0.3489704069256977,-0.6010932547182855,0.24305555635771578,1.1743317372975188,-0.13301976697052886
14150,5.0,301.3365,4524.7968,0.0,0.0,0.0,0.0,0.14103035561106464,0.0,-0.39951928605948367,-0.36431359722745266,-0.6115923698694674,0.2546381398408278,1.1703144033010389,-0.16233184606590584
14151,5.0,300.91517000000005,4601.2922,0.0,0.0,0.0,0.0,0.14104032242064846,0.0,-0.43822049521899553,-0.35610181311701267,-0.6043556363302575,0.26464854420377776,1.1895961474039989,-0.14091816295753987
14152,5.0,300.92752,4171.0839,0.0,0.0,0.0,0.0,0.1410502892302323,0.0,-0.37290807576816165,-0.3143986884162347,-0.5805985793181184,0.2373110666382788,1.161812829661999,-0.13347517222797387
14153,5.0,300.03213999999997,3802.7061,0.0,0.0,0.0,0.0,0.1410602560398161,0.0,-0.35210018449708264,-0.2984776415824497,-0.5053498747491495,0.23722398792468477,1.1833279796353788,-0.1008318307788269
14154,5.0,299.85537,4293.2419,0.0,0.0,0.0,0.0,0.1410702228493999,0.0,-0.35986002866541966,-0.3705941063822906,-0.5745841901695444,0.24782646471856776,1.170143771984199,-0.16119065287577886
14155,5.0,299.77612,4746.5651,0.0,0.0,0.0,0.0,0.14108018965898375,0.0,-0.4233408668379906,-0.38233223388825366,-0.6371641679432074,0.24323118299754876,1.1733569907013188,-0.13909977419557887
14156,5.0,299.71801,4214.0549,0.0,0.0,0.0,0.0,0.14109015646856757,0.0,-0.3757061456543096,-0.36703678793121064,-0.5382245310636256,0.24731267599036075,1.1550576938953188,-0.17212846479025684
14157,5.0,300.54645,3960.361,0.0,0.0,0.0,0.0,0.14110012327815138,0.0,-0.3386659675162287,-0.3111844564490147,-0.5540004095555835,0.25208919775676675,1.1839659218983387,-0.1230990251089279
14158,5.0,300.03882999999996,4377.1278,0.0,0.0,0.0,0.0,0.1411100900877352,0.0,-0.4024580355895156,-0.3623352973347096,-0.5657442011296056,0.26261328952291374,1.185271089352149,-0.15080407941320387
14159,5.0,299.21227999999996,4644.0361,0.0,0.0,0.0,0.0,0.14112005689731902,0.0,-0.45222358120349254,-0.3484432027661667,-0.6110042187164214,0.23794729650856977,1.1691066091818387,-0.09138124000337622
14160,5.0,299.49203,4424.2135,0.0,0.0,0.0,0.0,0.14113002370690284,0.0,-0.4127863370388396,-0.3367767120422737,-0.5952873823077904,0.22576068424334478,1.149203236142529,-0.14821043273473086
14161,5.0,300.30966,4297.6957,0.0,0.0,0.0,0.0,0.14113999051648668,0.0,-0.35288322417436263,-0.35234525929876964,-0.6011636958652374,0.2230743049157198,1.1759676295839687,-0.13311273266720386
14162,5.0,301.2419,4276.2338,0.0,0.0,0.0,0.0,0.1411499573260705,0.0,-0.38006952482494166,-0.3648958309999147,-0.5549029316846555,0.2696426816941607,1.1922134737373091,-0.1811639503044898
14163,5.0,301.37464,4438.0165,0.0,0.0,0.0,0.0,0.14115992413565429,0.0,-0.38761650541227066,-0.34324597955824065,-0.6181837238899834,0.23404013319546277,1.204021890402709,-0.12463049184007188
14164,5.0,300.19697,4464.8716,0.0,0.0,0.0,0.0,0.14116989094523813,0.0,-0.4198166816651806,-0.36334389661675065,-0.5740489002742154,0.24410445259623376,1.1721922597113688,-0.12920843685187988
14165,5.0,300.3837,4373.78,0.0,0.0,0.0,0.0,0.14117985775482195,0.0,-0.41624271551495756,-0.3062714904241427,-0.6070057007742984,0.2503233257474888,1.2032990377813688,-0.06540310432153383
14166,5.0,301.09918999999996,4198.0735,0.0,0.0,0.0,0.0,0.14118982456440576,0.0,-0.35275428809913767,-0.3586438043053876,-0.5647114155676775,0.2508232329493258,1.1814613703011592,-0.15838877316925484
14167,5.0,299.64616,4356.0901,0.0,0.0,0.0,0.0,0.14119979137398958,0.0,-0.4102074027518186,-0.32604934204106467,-0.5878858841698195,0.23550620476515277,1.1535856441500387,-0.13105018102864588
14168,5.0,299.30997,4541.7499,0.0,0.0,0.0,0.0,0.1412097581835734,0.0,-0.4246097092757156,-0.3502411542736107,-0.6057276884231684,0.2258002212622468,1.1461181935630589,-0.16041269971400085
14169,5.0,300.21983,4236.9508,0.0,0.0,0.0,0.0,0.14121972499315724,0.0,-0.35271113377737867,-0.35137936850844365,-0.5838367341201995,0.23163153638275275,1.1947712209647388,-0.13501048930949788
14170,5.0,299.70896,3988.238,0.0,0.0,0.0,0.0,0.14122969180274106,0.0,-0.36109850399764765,-0.3066656447130427,-0.5445606271189495,0.26282416713372575,1.2012522725793688,-0.14619315311064088
14171,5.0,299.27528,4290.77,0.0,0.0,0.0,0.0,0.14123965861232488,0.0,-0.4000207232689716,-0.3350606311429096,-0.5692055749287164,0.22958922948119276,1.1922701144178989,-0.1071933087491559
14172,5.0,300.38205,4417.2067,0.0,0.0,0.0,0.0,0.1412496254219087,0.0,-0.37935669324709065,-0.3582285642819067,-0.6051353018847044,0.2492028332569048,1.1743248471968388,-0.15768036949434083
14173,5.0,300.00068,4374.8163,0.0,0.0,0.0,0.0,0.1412595922314925,0.0,-0.4061150071879306,-0.33941592457774367,-0.5843039842713135,0.2289715420877318,1.167625338860649,-0.13658232392462588
14174,5.0,299.98163,4478.4526,0.0,0.0,0.0,0.0,0.14126955904107633,0.0,-0.38448987904869664,-0.39763736651625264,-0.5792105280061285,0.24361931858085478,1.176654005201709,-0.18840788805191083
14175,5.0,299.31448,4234.6989,0.0,0.0,0.0,0.0,0.14127952585066014,0.0,-0.36247418352591665,-0.3274602928053147,-0.5973082589697355,0.21881874568822882,1.1518391049526688,-0.14392597561438786
14176,5.0,299.34538,4175.2559,0.0,0.0,0.0,0.0,0.14128949266024396,0.0,-0.38301596492323264,-0.31266527080765966,-0.5734923017292834,0.2222277344571698,1.180814410112309,-0.11398676563461789
14177,5.0,300.34817999999996,4617.9927,0.0,0.0,0.0,0.0,0.1412994594698278,0.0,-0.41597182310072256,-0.37212087163297064,-0.6156617747885864,0.2469208319116888,1.1857476208741788,-0.10985313079165991
14178,5.0,300.01863,4566.6971,0.0,0.0,0.0,0.0,0.14130942627941162,0.0,-0.4061652238628866,-0.3469421031405197,-0.6350545609700055,0.2560994390025467,1.168996367570959,-0.11348552094264888
14179,5.0,300.53533999999996,4415.3922,0.0,0.0,0.0,0.0,0.1413193930889954,0.0,-0.42393296966642663,-0.34883246305708365,-0.5694035538657555,0.2572228091234148,1.1607886364609188,-0.14377976362495787
14180,5.0,300.43911,4572.0572,0.0,0.0,0.0,0.0,0.14132935989857925,0.0,-0.3987870608747186,-0.37311226592831365,-0.6178918875961814,0.23704858419987376,1.153861957452309,-0.13057685137693187
14181,5.0,301.19813,4664.5858,0.0,0.0,0.0,0.0,0.14133932670816307,0.0,-0.4341211791569246,-0.35420040877435865,-0.6295960205612894,0.2711858311989577,1.1979207062505688,-0.11119678148426788
14182,5.0,300.85828,4751.6621,0.0,0.0,0.0,0.0,0.14134929351774692,0.0,-0.4264600255483276,-0.4039095974177736,-0.6140170165637614,0.24638208683351878,1.183511884528529,-0.11650791426843587
14183,5.0,300.18559,4673.7971,0.0,0.0,0.0,0.0,0.1413592603273307,0.0,-0.4491611543662546,-0.3471278014863467,-0.6244286679663114,0.2383438116702028,1.154268068092389,-0.1104429639398719
14184,5.0,299.07962000000003,4248.9082,0.0,0.0,0.0,0.0,0.14136922713691452,0.0,-0.37769545957563966,-0.3237537428795067,-0.5901127951070985,0.21573341939873078,1.145232815625679,-0.1261899040089739
14185,5.0,301.02206,3888.7814,0.0,0.0,0.0,0.0,0.14137919394649837,0.0,-0.3456078148788357,-0.3093640107893507,-0.5271206069277535,0.2569093399399778,1.1589651915809591,-0.13489633655323188
14186,5.0,300.41652999999997,4204.02,0.0,0.0,0.0,0.0,0.14138916075608218,0.0,-0.3216545723823347,-0.33609890852037966,-0.6201636348503854,0.2161595214632838,1.164380202765379,-0.17222402440718784
14187,5.0,298.68936,4493.5501,0.0,0.0,0.0,0.0,0.141399127565666,0.0,-0.4035196075867846,-0.3603443622132197,-0.6020630667864985,0.23670756474621776,1.1686032265321589,-0.1278222904500779
14188,5.0,299.91291,4188.9261,0.0,0.0,0.0,0.0,0.14140909437524982,0.0,-0.37205008598098466,-0.2955715795006437,-0.6057072714336534,0.24468155932318977,1.1954164586284188,-0.13505155633605087
14189,5.0,300.11926,4151.598,0.0,0.0,0.0,0.0,0.14141906118483363,0.0,-0.3506434348283127,-0.33979789960044166,-0.5715407820366835,0.24723646945033978,1.2113904477799289,-0.12747381347568587
14190,5.0,299.9693,4525.5002,0.0,0.0,0.0,0.0,0.14142902799441745,0.0,-0.4131283089475896,-0.39426286878071565,-0.5682478610666974,0.2428801830304078,1.1826781823462489,-0.16891928894103583
14191,5.0,300.11869,4728.3854,0.0,0.0,0.0,0.0,0.1414389948040013,0.0,-0.4582098222642885,-0.37159132686570867,-0.6075099446865634,0.2299156783984108,1.131429309513379,-0.15103621501111386
14192,5.0,300.98499,4407.6366,0.0,0.0,0.0,0.0,0.1414489616135851,0.0,-0.37176529177537765,-0.38141777567300367,-0.5866283901332144,0.22202960353261578,1.158383991323599,-0.16940354142882785
14193,5.0,300.48006000000004,4068.8688,0.0,0.0,0.0,0.0,0.1414589284231689,0.0,-0.36604001327783664,-0.3274715398814247,-0.5433229623868014,0.26380638138316276,1.1679383318165388,-0.1035933426013669
14194,5.0,301.10496,4073.3652,0.0,0.0,0.0,0.0,0.14146889523275274,0.0,-0.34450144709464564,-0.3156380148785467,-0.5780618468977625,0.26282552488885974,1.1788891335972989,-0.10900019712248189
14195,5.0,300.79082,4382.4748,0.0,0.0,0.0,0.0,0.14147886204233656,0.0,-0.38883956921047763,-0.36319090598415166,-0.5801324336096134,0.26101036839471775,1.1603879973713789,-0.11730270764687589
14196,5.0,300.39332,4571.6941,0.0,0.0,0.0,0.0,0.14148882885192038,0.0,-0.45627878035620956,-0.3266485477527017,-0.6067535129569094,0.2305917897926378,1.1884200680129289,-0.1100575742643369
14197,5.0,299.31322,4483.7516,0.0,0.0,0.0,0.0,0.14149879566150422,0.0,-0.40862276065542663,-0.3582549290495086,-0.5960708374176115,0.25796530866419376,1.1743289001972388,-0.12706927337326088
14198,5.0,299.70908,4393.1722,0.0,0.0,0.0,0.0,0.141508762471088,0.0,-0.38677050237377664,-0.35819884565647364,-0.5904453133924155,0.2153939096877238,1.1736368503789387,-0.15541685996344987
14199,5.0,299.30397,4668.0885,0.0,0.0,0.0,0.0,0.14151872928067183,0.0,-0.4500925845206796,-0.3597599600855437,-0.6091298174889324,0.23058661208462677,1.124873784016399,-0.11796094530933889
14200,5.0,300.64741000000004,4797.9521,0.0,0.0,0.0,0.0,0.14152869609025567,0.0,-0.4449837876489806,-0.36942955777735864,-0.6440443083747244,0.24235821737389376,1.1790129527595188,-0.12277333612928489
14201,5.0,300.61047,4206.1284,0.0,0.0,0.0,0.0,0.1415386628998395,0.0,-0.39628405955019164,-0.32099578756481767,-0.5612781594588415,0.25916167332226575,1.188248322120979,-0.12150668231177589
14202,5.0,299.88187999999997,3751.1362,0.0,0.0,0.0,0.0,0.14154862970942333,0.0,-0.34313958829774066,-0.2902396750894257,-0.5068724755419185,0.24169656505859374,1.2100251945951888,-0.14538905809628286
14203,5.0,299.79001,4146.8695,0.0,0.0,0.0,0.0,0.14155859651900712,0.0,-0.3628964251075886,-0.3534449700298027,-0.5442033956636935,0.24688431437808478,1.147462979095779,-0.17443198756759684
14204,5.0,301.5059,4539.0356,0.0,0.0,0.0,0.0,0.14156856332859094,0.0,-0.4114383496358036,-0.35295450631889763,-0.6153606165938644,0.24021478811235378,1.1883181350528689,-0.13424226334867986
14205,5.0,300.40616,4336.0188,0.0,0.0,0.0,0.0,0.14157853013817479,0.0,-0.3639500126940697,-0.3782414088620206,-0.5758500232544724,0.24889156282618477,1.160590748716389,-0.14543210096053086
14206,5.0,300.91139,4322.965999999999,0.0,0.0,0.0,0.0,0.1415884969477586,0.0,-0.34483813997037466,-0.3617529825022397,-0.6074826173313664,0.23431432880502376,1.1727847070448387,-0.1153729829639269
14207,5.0,300.63776,4320.0154,0.0,0.0,0.0,0.0,0.14159846375734242,0.0,-0.41736757511347267,-0.33355831561714266,-0.5622509099523444,0.2195768999430528,1.1583028299905889,-0.13822820685706189
14208,5.0,300.7004,4591.590999999999,0.0,0.0,0.0,0.0,0.14160843056692624,0.0,-0.4206426628816986,-0.37431259239427667,-0.6007737465642524,0.22270952474721878,1.2327031503833288,-0.12468722371317088
14209,5.0,299.70672,4873.3825,0.0,0.0,0.0,0.0,0.14161839737651005,0.0,-0.45274001451446055,-0.39871503905761063,-0.6299315380669024,0.26063858666802575,1.2132189589103888,-0.16541996892567984
14210,5.0,299.77972,4490.4917,0.0,0.0,0.0,0.0,0.14162836418609387,0.0,-0.3991443531249806,-0.35483631440461766,-0.6110166918251524,0.24951822761553175,1.1888702550323589,-0.13522274494044587
14211,5.0,298.67914,3975.1354,0.0,0.0,0.0,0.0,0.1416383309956777,0.0,-0.36504809209244166,-0.3373884111276437,-0.5059053891164745,0.2512032321343287,1.126099816637399,-0.17761297479903584
14212,5.0,300.03274,4286.152,0.0,0.0,0.0,0.0,0.14164829780526153,0.0,-0.37015296768625366,-0.3228701381298017,-0.6098600567035014,0.25593959879927175,1.164454170022679,-0.1036413807886079
14213,5.0,300.18931000000003,4476.3163,0.0,0.0,0.0,0.0,0.14165826461484532,0.0,-0.4508600809414256,-0.3460302084480227,-0.5637980820600385,0.2507829055953458,1.183310551733659,-0.12424125181415688
14214,5.0,299.76991,4398.9352,0.0,0.0,0.0,0.0,0.14166823142442916,0.0,-0.36920919614561065,-0.35836037798741566,-0.6095968852550284,0.2242055783873678,1.214711172332659,-0.13190956910096088
14215,5.0,300.69997,4316.7435,0.0,0.0,0.0,0.0,0.14167819823401298,0.0,-0.3984542588793736,-0.3481144233737187,-0.5656135627942125,0.2084811932654918,1.1894901614435387,-0.17834632469141184
14216,5.0,300.26543,4458.4162,0.0,0.0,0.0,0.0,0.1416881650435968,0.0,-0.40206397249312464,-0.3492712307478867,-0.6039119949064734,0.24192866012649977,1.2208694024654287,-0.12685417050953188
14217,5.0,299.57416,4561.4062,0.0,0.0,0.0,0.0,0.14169813185318064,0.0,-0.4199062631065216,-0.37439416915982765,-0.5922531643533364,0.27297809837334075,1.1671565080393789,-0.16037558436283783
14218,5.0,299.54095,4626.5045,0.0,0.0,0.0,0.0,0.14170809866276443,0.0,-0.3945570051522446,-0.4002351776526366,-0.6115496613777525,0.26056847989360676,1.1486535479632791,-0.08994509072238932
14219,5.0,299.18504,4418.7217,0.0,0.0,0.0,0.0,0.14171806547234825,0.0,-0.4197055990567176,-0.35898492508405366,-0.5644905473108796,0.25910309733398473,1.1067685246045489,-0.1181452048400239
14220,5.0,298.53104,4245.6093,0.0,0.0,0.0,0.0,0.1417280322819321,0.0,-0.3504241472416707,-0.35264553596590464,-0.5874895412607034,0.24381089377726178,1.166780997552319,-0.1040405607980039
14221,5.0,299.69647000000003,4208.452,0.0,0.0,0.0,0.0,0.1417379990915159,0.0,-0.38000798001386765,-0.3534863916938907,-0.5457699715108024,0.25466663243363974,1.208109543956129,-0.1835091379259418
14222,5.0,299.98867,4620.347,0.0,0.0,0.0,0.0,0.14174796590109975,0.0,-0.4433286841406346,-0.3511014846685187,-0.6100399389937544,0.2226228918636688,1.197515203560549,-0.14624577118833387
14223,5.0,300.15996,4598.2599,0.0,0.0,0.0,0.0,0.14175793271068354,0.0,-0.4294290205938446,-0.38147834776398165,-0.5868488328249704,0.2370687276118618,1.1656504130907388,-0.18281565942500083
14224,5.0,300.25185,4019.094,0.0,0.0,0.0,0.0,0.14176789952026736,0.0,-0.3760055407938576,-0.3040185389592937,-0.5416801394696675,0.22717274958270478,1.179695376701869,-0.1208016122296909
14225,5.0,300.58235,4087.1661,0.0,0.0,0.0,0.0,0.1417778663298512,0.0,-0.3479739463798546,-0.34376355784182167,-0.5506589336408055,0.28646436601183173,1.171309617549259,-0.12488064302475989
14226,5.0,300.56816000000003,4485.5949,0.0,0.0,0.0,0.0,0.14178783313943502,0.0,-0.3969811148239856,-0.36346536503873866,-0.6030623543001205,0.23652584847328376,1.185552266254899,-0.1185789366778299
14227,5.0,299.55902000000003,4679.7429,0.0,0.0,0.0,0.0,0.14179779994901884,0.0,-0.44082135623818064,-0.39045870234027363,-0.5912449399738324,0.26594890885211375,1.191284323395609,-0.1270600021348459
14228,5.0,299.88478,4731.022,0.0,0.0,0.0,0.0,0.14180776675860265,0.0,-0.4512060653205716,-0.3656796914097757,-0.6212267875178105,0.23290036868797678,1.2245259181012988,-0.13344453154494987
14229,5.0,299.14968,4390.5549,0.0,0.0,0.0,0.0,0.14181773356818647,0.0,-0.3945898243229836,-0.36065155937853766,-0.5793776838751254,0.25053801317867674,1.1793969745474189,-0.13551791482707687
14230,5.0,298.38063999999997,4066.9711,0.0,0.0,0.0,0.0,0.1418277003777703,0.0,-0.35397339008945367,-0.3167113608419777,-0.5655729010676995,0.22467857366654878,1.1530680759989589,-0.12625309028520987
14231,5.0,298.29368999999997,4410.2411,0.0,0.0,0.0,0.0,0.14183766718735413,0.0,-0.38625848683324465,-0.3466499527391867,-0.6076947108422984,0.2340401027979598,1.117816294419879,-0.1010464776800109
14232,5.0,298.13425,4647.3094,0.0,0.0,0.0,0.0,0.14184763399693795,0.0,-0.4062499214387456,-0.36747707549716363,-0.6389390376133735,0.24586836903281875,1.153453516336999,-0.11669193061909688
14233,5.0,299.38111000000004,4142.8708,0.0,0.0,0.0,0.0,0.14185760080652174,0.0,-0.37428372489892764,-0.3372612178425907,-0.5477843127096025,0.2284910690228128,1.1858285795571688,-0.14369120556621784
14234,5.0,300.18421,4028.2421,0.0,0.0,0.0,0.0,0.14186756761610558,0.0,-0.36305083429032764,-0.3391473829037407,-0.5222868061331944,0.24493864113856179,1.190894222107109,-0.17748530528643583
14235,5.0,300.54187,4634.4858,0.0,0.0,0.0,0.0,0.1418775344256894,0.0,-0.43549997949550157,-0.38270868669790664,-0.5905592938961645,0.2617205047273028,1.1917690622434487,-0.14726258792868585
14236,5.0,299.56233,4821.2035,0.0,0.0,0.0,0.0,0.14188750123527324,0.0,-0.4583652446971276,-0.3847478423916556,-0.6224123813273194,0.23364387134635475,1.2030023581520888,-0.11144452113371789
14237,5.0,300.96531,4526.6103,0.0,0.0,0.0,0.0,0.14189746804485706,0.0,-0.3729005371874176,-0.38118527530505764,-0.6218906791158314,0.24442336293270775,1.1669447387684788,-0.11347087947870389
14238,5.0,300.19327999999996,4258.2187,0.0,0.0,0.0,0.0,0.14190743485444085,0.0,-0.3389373361580107,-0.35753392054335065,-0.5979208902451975,0.2136563782837428,1.139019262037449,-0.0976683748006181
14239,5.0,299.99816,4355.1444,0.0,0.0,0.0,0.0,0.14191740166402467,0.0,-0.4076658979234916,-0.35539342970710064,-0.5607958220137385,0.2253875852915228,1.167240810447699,-0.13641341513295585
14240,5.0,299.86525,4680.4901,0.0,0.0,0.0,0.0,0.1419273684736085,0.0,-0.4343935914463095,-0.37595222357359565,-0.6124062934097954,0.2508396577334468,1.1962245255831687,-0.11182115632838889
14241,5.0,300.29737,4744.7838,0.0,0.0,0.0,0.0,0.14193733528319233,0.0,-0.44949615511431656,-0.37257441251023166,-0.6202252201914634,0.22975678051772877,1.219242832079899,-0.16373996986237682
14242,5.0,300.25624,4332.2405,0.0,0.0,0.0,0.0,0.14194730209277617,0.0,-0.37664571220703763,-0.3457067587511007,-0.5945404649965754,0.24710310547217776,1.1755640520691388,-0.11702097345657088
14243,5.0,300.55542,4093.0533,0.0,0.0,0.0,0.0,0.14195726890235996,0.0,-0.34201793056954166,-0.3489836399720037,-0.5531844291175525,0.2331522525303358,1.161907163246309,-0.13901583655729485
14244,5.0,300.87863,4433.9541,0.0,0.0,0.0,0.0,0.14196723571194378,0.0,-0.39397006989931865,-0.35330854603633866,-0.6005327044979635,0.2698076084129377,1.173561059271459,-0.1130663292437779
14245,5.0,300.72336,4838.4715,0.0,0.0,0.0,0.0,0.14197720252152762,0.0,-0.5056463719934114,-0.39203778169361664,-0.5730903555471145,0.2349412266418938,1.1468714436873988,-0.14183111143014088
14246,5.0,300.4536,4478.7788,0.0,0.0,0.0,0.0,0.14198716933111144,0.0,-0.4063481763009426,-0.37677085872688865,-0.5783178749330304,0.24873213805545075,1.1688546138819689,-0.16437100175965486
14247,5.0,299.38679,4008.3739,0.0,0.0,0.0,0.0,0.14199713614069526,0.0,-0.3996168215141096,-0.32210549907433766,-0.4967232559152685,0.21824934979453378,1.1965326549385789,-0.17141870336020884
14248,5.0,299.69959,4440.8859,0.0,0.0,0.0,0.0,0.14200710295027907,0.0,-0.3708972505472086,-0.36899137777161367,-0.6100297862277524,0.2804714678978787,1.2205411094330287,-0.12588328439621288
14249,5.0,300.05442999999997,4556.6496,0.0,0.0,0.0,0.0,0.1420170697598629,0.0,-0.3947609622648736,-0.35907615812305765,-0.6312705784715554,0.21949333720730577,1.2204031047694088,-0.11766932179805789
14250,5.0,299.8662,4536.0345,0.0,0.0,0.0,0.0,0.1420270365694467,0.0,-0.3815517070712216,-0.38720979695463165,-0.6100797090601794,0.2642251475169918,1.1727360710400387,-0.12317786609920889
14251,5.0,299.81385,4340.0683,0.0,0.0,0.0,0.0,0.14203700337903055,0.0,-0.42588758990433256,-0.3343900824917317,-0.5589947395634854,0.25071124854827376,1.169242688670269,-0.11726985807863388
14252,5.0,300.5684,4247.831,0.0,0.0,0.0,0.0,0.14204697018861437,0.0,-0.3582874138477146,-0.36435342808888366,-0.5685937137233305,0.26495635945165674,1.1743484559241688,-0.15471623804930384
14253,5.0,300.88675,4386.5063,0.0,0.0,0.0,0.0,0.14205693699819816,0.0,-0.4127463744548956,-0.3407559174374907,-0.5798860922453014,0.24416942219264576,1.204852451509679,-0.17373332122614382
14254,5.0,301.56038,4723.0419,0.0,0.0,0.0,0.0,0.142066903807782,0.0,-0.3995733328198176,-0.38448050648527166,-0.6516329538061654,0.2020010637084528,1.145557663607739,-0.14118234765611287
14255,5.0,300.79163,4488.1088,0.0,0.0,0.0,0.0,0.14207687061736582,0.0,-0.38611565909914863,-0.36606494936279765,-0.6120923986613164,0.20997397410781782,1.1951400440011388,-0.15025924470193286
14256,5.0,299.72319,4087.7506,0.0,0.0,0.0,0.0,0.14208683742694966,0.0,-0.39543592868648764,-0.30494454822568373,-0.5421936242228445,0.25482679687694676,1.1733003500207289,-0.1062684140578759
14257,5.0,300.14563,4490.6225,0.0,0.0,0.0,0.0,0.14209680423653348,0.0,-0.41920855935266366,-0.37862048598943265,-0.5672080739465785,0.2896323735094897,1.199783667884429,-0.14675217332331186
14258,5.0,300.5673,4808.066,0.0,0.0,0.0,0.0,0.14210677104611727,0.0,-0.4369274665013836,-0.3914742018554956,-0.6331303382350995,0.26259606427121374,1.1447821219811989,-0.12052135738453187
14259,5.0,300.30575,4611.2381,0.0,0.0,0.0,0.0,0.1421167378557011,0.0,-0.40703048878578163,-0.37823732546411765,-0.6164334356672434,0.25791983399970575,1.1985260218603089,-0.12649321029390787
14260,5.0,300.14517,4341.1491,0.0,0.0,0.0,0.0,0.14212670466528493,0.0,-0.34737405165814966,-0.35938391257593066,-0.6128429839378934,0.2369169934093868,1.2064291699902887,-0.1274011431785139
14261,5.0,300.09991,4374.4627,0.0,0.0,0.0,0.0,0.14213667147486875,0.0,-0.3873806511864936,-0.33592522732073865,-0.6064215418266464,0.2201002334872018,1.2223769159642088,-0.1285442615438309
14262,5.0,299.99716,4373.4611,0.0,0.0,0.0,0.0,0.1421466382844526,0.0,-0.4272387285151796,-0.3371625475478527,-0.5650216828807985,0.19888501567592282,1.150491988944719,-0.13826479531817287
14263,5.0,299.41452999999996,4539.5233,0.0,0.0,0.0,0.0,0.14215660509403638,0.0,-0.4250321737724096,-0.3775365211649536,-0.5773330262333335,0.2205868671127288,1.158176376378109,-0.13239800631166587
14264,5.0,300.06776,4512.8842,0.0,0.0,0.0,0.0,0.1421665719036202,0.0,-0.4110153075865526,-0.35699862051552067,-0.6037901921119525,0.2418517341789078,1.1572616141878291,-0.17704137002012285
14265,5.0,300.49071000000004,4168.1362,0.0,0.0,0.0,0.0,0.14217653871320404,0.0,-0.36266250618950263,-0.33621883680221565,-0.5681279834473665,0.27839765905070973,1.185421556991999,-0.14214021350564685
14266,5.0,300.84502000000003,4252.8848,0.0,0.0,0.0,0.0,0.14218650552278786,0.0,-0.3237884466954317,-0.37210615924151863,-0.5968761787295924,0.2598639873640788,1.1512785749973489,-0.17992641729485484
14267,5.0,300.56376,4709.0697,0.0,0.0,0.0,0.0,0.14219647233237168,0.0,-0.46316845547116753,-0.35265993424982567,-0.6156111933435944,0.2520577262086608,1.2137811100658689,-0.07516011307297563
14268,5.0,300.46755,4768.4531,0.0,0.0,0.0,0.0,0.1422064391419555,0.0,-0.4597665087904215,-0.3871302061592766,-0.6025939490438924,0.24916992289365675,1.1789231788006589,-0.11580888315694689
14269,5.0,299.60254,4521.8582,0.0,0.0,0.0,0.0,0.1422164059515393,0.0,-0.43029636267944454,-0.3749357614707787,-0.5692998679830225,0.21043460773577882,1.2019777596509689,-0.1152139330957299
14270,5.0,299.89239,4412.0258,0.0,0.0,0.0,0.0,0.14222637276112313,0.0,-0.3813799105167666,-0.3743211138276177,-0.5854446404388874,0.2082702041971688,1.126882147039609,-0.13889613119048086
14271,5.0,299.332,4725.1152,0.0,0.0,0.0,0.0,0.14223633957070694,0.0,-0.4135090275401636,-0.3958727610695996,-0.6269352561961924,0.2113353769421778,1.161306812562059,-0.12102453738419189
14272,5.0,299.12067,4506.9622,0.0,0.0,0.0,0.0,0.1422463063802908,0.0,-0.36173432856789867,-0.3637414655584877,-0.6445281859599794,0.24002728618134878,1.1822422821532288,-0.12885570422706788
14273,5.0,300.04641000000004,4287.6137,0.0,0.0,0.0,0.0,0.14225627318987458,0.0,-0.40909661719719265,-0.35520156066816466,-0.5390293252205525,0.2216661101917418,1.2169034402490189,-0.14731384825124486
14274,5.0,300.07212000000004,4099.1354,0.0,0.0,0.0,0.0,0.14226623999945842,0.0,-0.37099749137960164,-0.3174651885188747,-0.5575721465555864,0.27122051474988074,1.1721314647053689,-0.12342535243613388
14275,5.0,298.66233,4186.3527,0.0,0.0,0.0,0.0,0.14227620680904224,0.0,-0.3850125438477796,-0.3443487705695777,-0.5431853832882235,0.23605638943695179,1.194034486817029,-0.14617623183397085
14276,5.0,299.52528,4761.3944,0.0,0.0,0.0,0.0,0.14228617361862606,0.0,-0.40522947726303565,-0.41522060960908364,-0.6268949085772104,0.2795540813898398,1.177093350445069,-0.13802292238680186
14277,5.0,299.45016,4827.3304,0.0,0.0,0.0,0.0,0.14229614042820987,0.0,-0.43535549003124163,-0.3919432758567896,-0.6400891271393784,0.22604884243928378,1.161638651969809,-0.14586176966543585
14278,5.0,298.5241,4283.2051,0.0,0.0,0.0,0.0,0.1423061072377937,0.0,-0.33370087990621267,-0.37458996960915164,-0.5936965492532874,0.2335038807125388,1.145875925464149,-0.14493714855168285
14279,5.0,299.3114,4167.4677,0.0,0.0,0.0,0.0,0.14231607404737753,0.0,-0.4164964941350036,-0.3089479297682867,-0.5413616952282395,0.22120130197336876,1.203322139883649,-0.10840576381881589
14280,5.0,300.60691,4605.7755,0.0,0.0,0.0,0.0,0.14232604085696132,0.0,-0.4163236438004446,-0.3897294257132996,-0.5939876965370214,0.25364603627041477,1.2004986171549887,-0.13196506480893788
14281,5.0,300.29418,4491.7876,0.0,0.0,0.0,0.0,0.14233600766654517,0.0,-0.4362465624341835,-0.36322453575497066,-0.5659201925394745,0.2258048619477048,1.206960214367699,-0.13799061997361387
14282,5.0,300.1932,4339.9482,0.0,0.0,0.0,0.0,0.14234597447612898,0.0,-0.3346632952486957,-0.37894403701136464,-0.6056285621658855,0.2300422232033998,1.162536898183459,-0.15103312459830884
14283,5.0,299.58448,4250.5765,0.0,0.0,0.0,0.0,0.1423559412857128,0.0,-0.3495155861420027,-0.3376805817939787,-0.6048729613013134,0.24778626908710075,1.1759124074535188,-0.15057157904525784
14284,5.0,299.92278,4427.5735,0.0,0.0,0.0,0.0,0.14236590809529662,0.0,-0.3548403775375187,-0.36778775824282567,-0.6232436415768584,0.2709657634097387,1.177442921729569,-0.14016312951302387
14285,5.0,300.83165,4603.105,0.0,0.0,0.0,0.0,0.14237587490488043,0.0,-0.4729618115301965,-0.36676336239172563,-0.5595037964137254,0.23447070369295678,1.1970631926909387,-0.13680827869692588
14286,5.0,299.89212000000003,4691.182,0.0,0.0,0.0,0.0,0.14238584171446425,0.0,-0.4430384183844876,-0.39419962170947365,-0.5887641389589965,0.24030915209416678,1.172259032892959,-0.13281079426990489
14287,5.0,299.61942,4530.534000000001,0.0,0.0,0.0,0.0,0.1423958085240481,0.0,-0.4644488084300286,-0.3321446189451217,-0.5805757609258664,0.2413977069415988,1.204543106254149,-0.12457808654489988
14288,5.0,300.44723,4362.2901,0.0,0.0,0.0,0.0,0.1424057753336319,0.0,-0.3488979899410507,-0.3685211284002036,-0.6086081558074484,0.2703973706336428,1.199149677296859,-0.13197275537719688
14289,5.0,299.87351,4535.3695,0.0,0.0,0.0,0.0,0.1424157421432157,0.0,-0.3768606732157526,-0.3982246260092106,-0.6035537704661194,0.2533731072234788,1.155623492751159,-0.13698019684139287
14290,5.0,299.51661,4691.0064,0.0,0.0,0.0,0.0,0.14242570895279955,0.0,-0.4128131375039846,-0.36816705828525964,-0.6449686153809463,0.24396185790966077,1.152447358987699,-0.1120359653495889
14291,5.0,299.55705,4373.9705,0.0,0.0,0.0,0.0,0.14243567576238336,0.0,-0.4321485635972426,-0.34931248015945765,-0.5481167803324145,0.2524737970972238,1.184661315441969,-0.13038897454338988
14292,5.0,299.13043,4121.967000000001,0.0,0.0,0.0,0.0,0.1424456425719672,0.0,-0.37549733507370164,-0.33023956690210765,-0.5472381607732015,0.23687088039733578,1.202852295812279,-0.15862408023997787
14293,5.0,299.03735,4398.2989,0.0,0.0,0.0,0.0,0.142455609381551,0.0,-0.4293350315145686,-0.33640925689350865,-0.5712287516683884,0.22557625246014276,1.2267929638750388,-0.15250984542654986
14294,5.0,299.81407,4557.1304,0.0,0.0,0.0,0.0,0.1424655761911348,0.0,-0.36822536069601364,-0.38111341560796563,-0.6359150838824325,0.22372965481539778,1.1727277623892187,-0.16276271040592885
14295,5.0,299.51543,4382.7236,0.0,0.0,0.0,0.0,0.14247554300071866,0.0,-0.38936033923187363,-0.3379778592408177,-0.6049003291865144,0.2588356297050878,1.2032901211804887,-0.11442725585059088
14296,5.0,300.30553,4489.7991,0.0,0.0,0.0,0.0,0.14248550981030247,0.0,-0.38007544220552564,-0.38366346213463565,-0.6010479016438094,0.2755425127864287,1.179793256661529,-0.12483863367561389
14297,5.0,301.14378,4520.262,0.0,0.0,0.0,0.0,0.1424954766198863,0.0,-0.4451269396231086,-0.3644104132745077,-0.5645094444252445,0.2995168410175107,1.152077624026209,-0.1068190445597189
14298,5.0,300.20452,4547.2316,0.0,0.0,0.0,0.0,0.1425054434294701,0.0,-0.40264963105092466,-0.38965960264890864,-0.5899356181946124,0.22447181998364377,1.147302378954929,-0.16166905891049385
14299,5.0,299.42435,4745.3704,0.0,0.0,0.0,0.0,0.14251541023905392,0.0,-0.4597128571976266,-0.39412649544975664,-0.5886347671862284,0.2374881523582558,1.1751415267774388,-0.13131898614767487
14300,5.0,299.70608,4531.5031,0.0,0.0,0.0,0.0,0.14252537704863774,0.0,-0.3595177831791426,-0.3732935667687066,-0.6446524408197424,0.21190305031070278,1.195566419643219,-0.16993001604828684
14301,5.0,299.88773,4085.4348,0.0,0.0,0.0,0.0,0.14253534385822159,0.0,-0.36223419523973166,-0.3289317346005347,-0.5507042360527764,0.1999772688862198,1.1968640890462887,-0.13463993361542687
14302,5.0,299.52579,4174.5632,0.0,0.0,0.0,0.0,0.1425453106678054,0.0,-0.36707223141970863,-0.3090331643666987,-0.5928575781704873,0.2277192561566408,1.177793506264169,-0.14278133737392087
14303,5.0,299.63903,4625.0304,0.0,0.0,0.0,0.0,0.1425552774773892,0.0,-0.46611212939668556,-0.3363094922886627,-0.6034721531705644,0.2512876460001598,1.1819743788267887,-0.1035772420572779
14304,5.0,298.757,4486.5196,0.0,0.0,0.0,0.0,0.14256524428697304,0.0,-0.4079807349945636,-0.35241756482590564,-0.6033916301851174,0.25780565084593676,1.206237260421349,-0.14384251420365085
14305,5.0,299.04348999999996,4438.8537,0.0,0.0,0.0,0.0,0.14257521109655685,0.0,-0.4071788893954276,-0.34406510107158167,-0.5980566860235994,0.25561391995212973,1.1694307478888288,-0.13848673762007688
14306,5.0,299.24872,4665.0699,0.0,0.0,0.0,0.0,0.14258517790614067,0.0,-0.37782329120825564,-0.37217116936793465,-0.6680702920959044,0.23866471810937376,1.199501781706609,-0.14743542813074387
14307,5.0,299.18767,4823.0106,0.0,0.0,0.0,0.0,0.14259514471572451,0.0,-0.4473144857940026,-0.39539865121530865,-0.6233616548160054,0.23741656623869076,1.178395680798599,-0.11016316505725789
14308,5.0,299.25265,4737.0727,0.0,0.0,0.0,0.0,0.1426051115253083,0.0,-0.4446347027245286,-0.38133129477696864,-0.6139857983281805,0.24221683858744075,1.1972894514382688,-0.1104649818645449
14309,5.0,300.21004,4564.1623,0.0,0.0,0.0,0.0,0.14261507833489212,0.0,-0.44388085478262956,-0.36306037910626965,-0.5804501381784684,0.2376777314519658,1.157842915770199,-0.11716513868079888
14310,5.0,300.00922,4143.6118,0.0,0.0,0.0,0.0,0.14262504514447596,0.0,-0.35783066096763666,-0.33491632406366767,-0.5668075463145494,0.22102958647892176,1.162715230201059,-0.12045554679053688
14311,5.0,299.77024,4125.0345,0.0,0.0,0.0,0.0,0.14263501195405978,0.0,-0.35911368890676165,-0.3386079386830017,-0.5561858582987704,0.23694450314960178,1.1604782779552887,-0.16703619402768885
14312,5.0,299.7225,4658.5311,0.0,0.0,0.0,0.0,0.14264497876364363,0.0,-0.36442276479322666,-0.3859934003420826,-0.6656609657431223,0.24567316640105374,1.2171040637688189,-0.16356794026039884
14313,5.0,299.9482,4557.2672,0.0,0.0,0.0,0.0,0.14265494557322742,0.0,-0.41926372068810763,-0.36586955421351364,-0.6001621690688944,0.2345751292482628,1.1803952285459387,-0.15435177198833386
14314,5.0,300.21333,4175.8155,0.0,0.0,0.0,0.0,0.14266491238281123,0.0,-0.35888024621622266,-0.3397106081043267,-0.5707527976989154,0.23504665531479876,1.1934828734625886,-0.13325753623899486
14315,5.0,301.06252,4355.5784,0.0,0.0,0.0,0.0,0.14267487919239508,0.0,-0.4309370913801796,-0.3258324659896607,-0.5672175377025125,0.22783715793827677,1.1671944035931188,-0.13372469519759989
14316,5.0,300.52117999999996,4917.8995,0.0,0.0,0.0,0.0,0.1426848460019789,0.0,-0.4430950185350736,-0.40170708554290263,-0.6501165439715074,0.22798409946777878,1.1794720563798289,-0.12989866281999987
14317,5.0,300.60764,4899.5641,0.0,0.0,0.0,0.0,0.1426948128115627,0.0,-0.45556448969821456,-0.4169175299490566,-0.6168631246371504,0.2240915877511178,1.150328653028599,-0.15466460282420785
14318,5.0,299.7605,4739.2804,0.0,0.0,0.0,0.0,0.14270477962114653,0.0,-0.39951647935670664,-0.3896653883069796,-0.6514410239722234,0.23121834312447379,1.1912681113940091,-0.12762924604102588
14319,5.0,299.60900000000004,4476.073,0.0,0.0,0.0,0.0,0.14271474643073034,0.0,-0.44623379376734656,-0.35387479072222267,-0.5605058501001204,0.26351628787953274,1.183654043517559,-0.1199152007772089
14320,5.0,299.14904,4304.8918,0.0,0.0,0.0,0.0,0.14272471324031416,0.0,-0.38882545463658463,-0.3326542330829167,-0.5870999161997504,0.27095897463406876,1.232090134072829,-0.1148588497306859
14321,5.0,300.05147999999997,4644.9564,0.0,0.0,0.0,0.0,0.142734680049898,0.0,-0.4587186156695026,-0.3717969153109987,-0.5814352199256885,0.26403583186830776,1.1694152451622988,-0.12479907639170988
14322,5.0,299.74143,4786.673,0.0,0.0,0.0,0.0,0.14274464685948182,0.0,-0.4083601160970056,-0.38193645839919366,-0.6647325044114903,0.22875338934120176,1.170548261424119,-0.12162838378128689
14323,5.0,300.32282000000004,4393.1415,0.0,0.0,0.0,0.0,0.1427546136690656,0.0,-0.3909892096951306,-0.3476077983237187,-0.5968083011053934,0.23904220443412874,1.1411302672957888,-0.14452630603363587
14324,5.0,300.84458,4388.734,0.0,0.0,0.0,0.0,0.14276458047864946,0.0,-0.3494653188045417,-0.36133256477074766,-0.6232676657367294,0.21885142300395377,1.195991376735159,-0.15699391281659286
14325,5.0,301.14131000000003,4733.2443,0.0,0.0,0.0,0.0,0.14277454728823327,0.0,-0.4863507260990795,-0.3745259828653366,-0.5779113488604095,0.2595220357203308,1.2002858346339889,-0.14680837830635887
14326,5.0,301.0501,4688.992,0.0,0.0,0.0,0.0,0.1427845140978171,0.0,-0.44029592526632455,-0.35502455600819566,-0.6300160228602404,0.23850934633903978,1.2147686236133288,-0.12778042295594585
14327,5.0,301.30773999999997,4423.1845,0.0,0.0,0.0,0.0,0.14279448090740093,0.0,-0.44820772655215857,-0.3503496125643147,-0.5459803120990615,0.2574963359879098,1.214671554253749,-0.12044030750903288
14328,5.0,300.96435,4316.9887,0.0,0.0,0.0,0.0,0.14280444771698472,0.0,-0.3408148480633067,-0.3451985935609487,-0.6262433381004054,0.2538929855847868,1.201158445620109,-0.12476426111827386
14329,5.0,300.53211,4349.7513,0.0,0.0,0.0,0.0,0.14281441452656854,0.0,-0.36607375450616664,-0.3750262244397066,-0.5811157928316635,0.2617090955311767,1.1502693778977489,-0.16345259186901484
14330,5.0,299.66639,4431.6581,0.0,0.0,0.0,0.0,0.14282438133615238,0.0,-0.33307940295737765,-0.3933716241252566,-0.6206623768146073,0.2128426675259358,1.157516649237999,-0.16607915904323683
14331,5.0,299.4149,4674.8546,0.0,0.0,0.0,0.0,0.1428343481457362,0.0,-0.4564456727801806,-0.38875099088673565,-0.5758424137462215,0.26833440356254373,1.1675026342735388,-0.15065566867105687
14332,5.0,299.75587,4536.4639,0.0,0.0,0.0,0.0,0.14284431495532005,0.0,-0.39817282866409864,-0.36822255399323667,-0.6125763674390804,0.2201317151678088,1.2010384768082687,-0.15509688571437086
14333,5.0,300.15983,4148.0072,0.0,0.0,0.0,0.0,0.14285428176490383,0.0,-0.4013329429434776,-0.3401731770399787,-0.5193844930767585,0.25519433308571976,1.1854745499722288,-0.12845371751489487
14334,5.0,300.72465,4292.39,0.0,0.0,0.0,0.0,0.14286424857448765,0.0,-0.3565903415202267,-0.3403358543435337,-0.6078531932904394,0.21468531349529082,1.1868795225608888,-0.15407343218586383
14335,5.0,299.84386,4767.8438,0.0,0.0,0.0,0.0,0.1428742153840715,0.0,-0.43132068760303754,-0.3831506562590256,-0.6348341081457484,0.24774145303517778,1.166213172196279,-0.11740506617197788
14336,5.0,299.49876,4585.0225,0.0,0.0,0.0,0.0,0.1428841821936553,0.0,-0.4094991713294216,-0.3851179421231816,-0.5991152284030694,0.23481441839187878,1.175502142488029,-0.16107498024436284
14337,5.0,299.99899,4285.3989,0.0,0.0,0.0,0.0,0.14289414900323913,0.0,-0.42577670994588956,-0.3443015733799197,-0.5325759859961574,0.26858292341457074,1.1674482227431688,-0.12872380946155088
14338,5.0,299.88374,4347.4142,0.0,0.0,0.0,0.0,0.14290411581282295,0.0,-0.4204396176941596,-0.33711038543270466,-0.5639553486080594,0.24311364598594878,1.1911876593360688,-0.13025531672269888
14339,5.0,298.9615,4576.8186,0.0,0.0,0.0,0.0,0.14291408262240676,0.0,-0.4633776510868136,-0.33043805246419666,-0.5974228778210474,0.2613669412374087,1.197953130253769,-0.07909635767720272
14340,5.0,299.25486,4827.1276,0.0,0.0,0.0,0.0,0.14292404943199058,0.0,-0.4031723566450136,-0.38680533791221466,-0.6773485725990993,0.22476453780503278,1.1873771296849989,-0.13200689177306588
14341,5.0,299.20722,4723.1126,0.0,0.0,0.0,0.0,0.14293401624157442,0.0,-0.4099133981028026,-0.38439611288444264,-0.6413987934236324,0.2383368202445128,1.162121060342419,-0.1151752978694169
14342,5.0,299.84617000000003,4230.309,0.0,0.0,0.0,0.0,0.14294398305115824,0.0,-0.3323394365418487,-0.35836687292055663,-0.5952020058543644,0.24370560695937077,1.1815187202568187,-0.15116626566144886
14343,5.0,300.39061,4298.5165,0.0,0.0,0.0,0.0,0.14295394986074203,0.0,-0.38385561488359965,-0.3908012619340816,-0.5319847950928115,0.2685279140666418,1.178801791438679,-0.15112193596957385
14344,5.0,300.12845,4827.9822,0.0,0.0,0.0,0.0,0.14296391667032587,0.0,-0.4442896201379716,-0.4151125363534176,-0.6081838877255764,0.25116252987781174,1.2040861304590489,-0.15161224769296386
14345,5.0,300.37278,4757.5948,0.0,0.0,0.0,0.0,0.1429738834799097,0.0,-0.47487488851400256,-0.3884796931724606,-0.5828354403713796,0.2365138819896028,1.1909244169600888,-0.13923499242142387
14346,5.0,299.82216,4127.5171,0.0,0.0,0.0,0.0,0.1429838502894935,0.0,-0.3178966810739597,-0.3465245833043137,-0.5902408496547364,0.21699622286585982,1.191774128493949,-0.14647718737867285
14347,5.0,300.94847999999996,4234.3058,0.0,0.0,0.0,0.0,0.14299381709907735,0.0,-0.3497342860435867,-0.35001588851137866,-0.5873730782942094,0.2145142667459098,1.178469242755859,-0.14984233281578685
14348,5.0,299.71715,4682.9912,0.0,0.0,0.0,0.0,0.14300378390866114,0.0,-0.4053560119355236,-0.37146998003373266,-0.6466864086729794,0.24179024003033875,1.1800135372332687,-0.14210265232443986
14349,5.0,298.70637999999997,4819.2305,0.0,0.0,0.0,0.0,0.14301375071824496,0.0,-0.4678631775570006,-0.3968794149114486,-0.6001831332134635,0.23872790438560978,1.172649742131519,-0.15137929136247286
14350,5.0,299.187,4571.5367,0.0,0.0,0.0,0.0,0.14302371752782878,0.0,-0.43846378670050656,-0.35876162502701564,-0.5924075735360754,0.25353198483915873,1.199453348351829,-0.12326694091549988
14351,5.0,300.15033999999997,4172.519,0.0,0.0,0.0,0.0,0.14303368433741262,0.0,-0.4005620622673976,-0.3214687625789967,-0.5463107734866754,0.2682426537659887,1.181976911952039,-0.11951588904529989
14352,5.0,299.36323,4127.7570000000005,0.0,0.0,0.0,0.0,0.14304365114699646,0.0,-0.3031854953895787,-0.35766006004829964,-0.5938895024698305,0.25979715338748277,1.1950378070660488,-0.12817891395527387
14353,5.0,300.38725,4601.3275,0.0,0.0,0.0,0.0,0.14305361795658025,0.0,-0.4468884546569566,-0.3419536195856947,-0.6098465703446704,0.2176808252959248,1.186946093092459,-0.11882742613235389
14354,5.0,300.08858,4918.2966,0.0,0.0,0.0,0.0,0.14306358476616407,0.0,-0.4544240159156585,-0.3880296378755436,-0.6525857128751953,0.23646728261750377,1.165130818439459,-0.12357240542314687
14355,5.0,300.6283,4320.1675,0.0,0.0,0.0,0.0,0.14307355157574791,0.0,-0.45958569431007656,-0.3135004320700837,-0.5401369089048624,0.23285892675888678,1.1776045351205189,-0.12577613319813788
14356,5.0,300.39761,4204.9551,0.0,0.0,0.0,0.0,0.14308351838533173,0.0,-0.35858923065500165,-0.35479614917065366,-0.5648159728454965,0.25448027547524776,1.180510435082309,-0.1342371464356749
14357,5.0,299.56752,4747.3059,0.0,0.0,0.0,0.0,0.14309348519491555,0.0,-0.45672691047793657,-0.3728406439740067,-0.6134949090522334,0.2528975686865468,1.196314198217019,-0.1103529873309919
14358,5.0,300.51984,5093.5608,0.0,0.0,0.0,0.0,0.14310345200449937,0.0,-0.44694628084016363,-0.39836461664302664,-0.7030044096361333,0.2372433612665968,1.2216240711399091,-0.11983177989647589
14359,5.0,300.7889,4525.6408,0.0,0.0,0.0,0.0,0.14311341881408318,0.0,-0.4220798669560396,-0.37617855324843263,-0.5774233878772514,0.2560616751713198,1.2292029792378887,-0.13306146221214388
14360,5.0,300.34867,4010.5798,0.0,0.0,0.0,0.0,0.143123385623667,0.0,-0.3207527291308297,-0.3433208891381337,-0.5550424866209285,0.2704742661837317,1.2137792862156889,-0.15494642820702184
14361,5.0,300.97315,4294.8266,0.0,0.0,0.0,0.0,0.14313335243325084,0.0,-0.3881366066886006,-0.3689650839315186,-0.5484183640921785,0.27066277123233573,1.1860829053322688,-0.15149743632413284
14362,5.0,300.14412999999996,4624.9213,0.0,0.0,0.0,0.0,0.14314331924283466,0.0,-0.40476320996451864,-0.3985559182619066,-0.6025414728212134,0.23920570247026476,1.139028887913399,-0.16351068149724785
14363,5.0,299.54057,4727.9378,0.0,0.0,0.0,0.0,0.14315328605241845,0.0,-0.4287510346869326,-0.38648848447344364,-0.6219355053002554,0.23229189173792478,1.1598863372468688,-0.13840086467410187
14364,5.0,299.23058,4285.9676,0.0,0.0,0.0,0.0,0.1431632528620023,0.0,-0.37122398317445465,-0.3369296925423717,-0.5946734338071984,0.21093192101735977,1.1753951432774687,-0.14503945641427984
14365,5.0,300.07749,4123.9222,0.0,0.0,0.0,0.0,0.1431732196715861,0.0,-0.36566906241622665,-0.33516054773527065,-0.5527397541786664,0.23947271413661678,1.2178954120969188,-0.14765772507018285
14366,5.0,299.56272,4569.7503,0.0,0.0,0.0,0.0,0.14318318648116993,0.0,-0.43490417830420064,-0.34603679457367265,-0.6081490015246334,0.2296124835709878,1.2142328169604488,-0.14342989849792886
14367,5.0,300.09002000000004,5070.3645,0.0,0.0,0.0,0.0,0.14319315329075377,0.0,-0.4984288192785945,-0.4041130175078496,-0.6387223642119895,0.2713361164537898,1.2249020365384187,-0.1139374608847519
14368,5.0,299.70726,4605.1439,0.0,0.0,0.0,0.0,0.14320312010033756,0.0,-0.4289907797930936,-0.3572520647630336,-0.6136059207331894,0.25148081199922373,1.1767611057372789,-0.11626039753400788
14369,5.0,301.08869,4171.3385,0.0,0.0,0.0,0.0,0.14321308690992138,0.0,-0.3589935579749057,-0.3323776056731157,-0.5766115820296325,0.24002113575324177,1.1720563828729589,-0.13022224423943488
14370,5.0,301.67706,4498.9904,0.0,0.0,0.0,0.0,0.14322305371950522,0.0,-0.4124892419770186,-0.35869556112049567,-0.5963959387121964,0.23499399670710178,1.1598240223657188,-0.13079958401391387
14371,5.0,301.28409,4888.8791,0.0,0.0,0.0,0.0,0.14323302052908904,0.0,-0.4944937003952285,-0.34432907298763366,-0.6472744078385104,0.23237573818369978,1.2046661148162887,-0.12298995886816387
14372,5.0,300.79094,4878.7842,0.0,0.0,0.0,0.0,0.14324298733867286,0.0,-0.4625986340124305,-0.40142336538240164,-0.6190065640311915,0.24097705616258377,1.1924625306118888,-0.15858043955817086
14373,5.0,300.06005,4439.2029999999995,0.0,0.0,0.0,0.0,0.14325295414825667,0.0,-0.4006231409834256,-0.3504225564390137,-0.5983611575461484,0.2381756526836068,1.202932139920159,-0.13251023389274189
14374,5.0,299.79496,4418.9171,0.0,0.0,0.0,0.0,0.1432629209578405,0.0,-0.3433713692581157,-0.37406668672750765,-0.6258024020543884,0.2628723978384857,1.1708608490799688,-0.14651794029769488
14375,5.0,299.3245,4640.9792,0.0,0.0,0.0,0.0,0.14327288776742433,0.0,-0.3879476760749546,-0.38880320366438864,-0.6339909118100314,0.2516918719950538,1.192583006048779,-0.13316149026201587
14376,5.0,299.13041,4755.4155,0.0,0.0,0.0,0.0,0.14328285457700815,0.0,-0.4280521656954595,-0.3649524210179997,-0.6525229825615043,0.2562938715642358,1.1946121406990386,-0.13607590152464588
14377,5.0,299.32357,4488.3611,0.0,0.0,0.0,0.0,0.14329282138659197,0.0,-0.40625285986403564,-0.3882091553957607,-0.5698876847635355,0.2232858816691008,1.2222815691297988,-0.14805743196963086
14378,5.0,300.36005,4114.5051,0.0,0.0,0.0,0.0,0.14330278819617578,0.0,-0.35839908414123567,-0.3238332728798557,-0.5684744541865605,0.23021073682753077,1.200292826059679,-0.16169380247793586
14379,5.0,300.58957000000004,4464.4857,0.0,0.0,0.0,0.0,0.1433127550057596,0.0,-0.3939870823684976,-0.37199176330522865,-0.5911133289183435,0.2066848325607048,1.2136484756277788,-0.14086695329748586
14380,5.0,300.5502,4920.8707,0.0,0.0,0.0,0.0,0.14332272181534342,0.0,-0.4120916527702796,-0.4164523366956456,-0.6672778393251954,0.25501467371048875,1.149185909565819,-0.15625200096087186
14381,5.0,300.74223,4696.6318,0.0,0.0,0.0,0.0,0.14333268862492723,0.0,-0.4092217738495446,-0.3897031116082026,-0.6287338967137044,0.1989096781833568,1.173493880789829,-0.14751104698570686
14382,5.0,300.47571,4132.6493,0.0,0.0,0.0,0.0,0.14334265543451108,0.0,-0.37633844411421263,-0.3479224023472677,-0.5319613687504995,0.25604692224986375,1.1681501010874387,-0.14917403357983086
14383,5.0,300.96596,4350.1663,0.0,0.0,0.0,0.0,0.14335262224409487,0.0,-0.4503857481721126,-0.3475887492218387,-0.5243674544185385,0.24034467664267276,1.1942108936594389,-0.16183948757731384
14384,5.0,301.3864,4729.9369,0.0,0.0,0.0,0.0,0.1433625890536787,0.0,-0.4510910411692196,-0.3882147688013146,-0.5984769011050715,0.2858246708261987,1.1906758667105588,-0.1327487630987829
14385,5.0,301.50889,4711.823,0.0,0.0,0.0,0.0,0.14337255586326253,0.0,-0.45082462732042655,-0.38208625729397766,-0.5993656329002824,0.2212194898126638,1.198823106789629,-0.14708311093847284
14386,5.0,299.36072,4579.3689,0.0,0.0,0.0,0.0,0.14338252267284635,0.0,-0.3637527126345977,-0.36878269891351867,-0.6594783872104494,0.25809291738178775,1.164231457650699,-0.08665064481100282
14387,5.0,300.02443999999997,4317.7572,0.0,0.0,0.0,0.0,0.14339248948243016,0.0,-0.3924239617042296,-0.3273505679519857,-0.5927158447464994,0.1961455116455548,1.1801817367498688,-0.1116651158129889
14388,5.0,300.64212000000003,4515.8683,0.0,0.0,0.0,0.0,0.14340245629201398,0.0,-0.3971155528472536,-0.37130304707975764,-0.6042926121740374,0.27873694584669473,1.160569571789299,-0.11315516088004489
14389,5.0,300.7248,4938.1914,0.0,0.0,0.0,0.0,0.1434124231015978,0.0,-0.5036392957978285,-0.37445696026852465,-0.6229906228943874,0.23438899520489279,1.2001047668411187,-0.1334315011486639
14390,5.0,299.53916,4765.5595,0.0,0.0,0.0,0.0,0.1434223899111816,0.0,-0.4511686155968756,-0.3991104396441336,-0.5983320367382745,0.24535011187167077,1.2139548824580189,-0.15134657351674385
14391,5.0,299.09524,4177.0541,0.0,0.0,0.0,0.0,0.14343235672076546,0.0,-0.37681234118598267,-0.3301735637905937,-0.5627342302500444,0.2226055450219568,1.2222444841761388,-0.15606488406490487
14392,5.0,300.68209,4351.5307,0.0,0.0,0.0,0.0,0.14344232353034927,0.0,-0.3289248039698507,-0.3837510677382816,-0.6100808135027884,0.24023927836727077,1.1880986650812089,-0.15628899472202284
14393,5.0,301.44706,4607.9433,0.0,0.0,0.0,0.0,0.1434522903399331,0.0,-0.3939682156516356,-0.39313340902674665,-0.6135980680449145,0.25622992535042477,1.1879179012633687,-0.14805299393419286
14394,5.0,301.11827,4466.3795,0.0,0.0,0.0,0.0,0.1434622571495169,0.0,-0.39438452972022264,-0.3657858698877547,-0.5974974428959064,0.24116067734570576,1.1442500643536888,-0.14311963118480786
14395,5.0,300.00092,4334.4453,0.0,0.0,0.0,0.0,0.14347222395910073,0.0,-0.4147147343641576,-0.3685910527896047,-0.5342573428145945,0.24137149416151174,1.1842154853979687,-0.14089861736311085
14396,5.0,300.09611,4361.5948,0.0,0.0,0.0,0.0,0.14348219076868454,0.0,-0.42033494895882956,-0.3493441543575837,-0.5561368068614295,0.25268469497303775,1.1850027807256687,-0.14870097750564384
14397,5.0,300.55195,4616.0474,0.0,0.0,0.0,0.0,0.1434921575782684,0.0,-0.4124790790785156,-0.37859635037205064,-0.6120877174458544,0.25556868846766573,1.2212749051554488,-0.16046677687183786
14398,5.0,300.6619,4718.0486,0.0,0.0,0.0,0.0,0.1435021243878522,0.0,-0.3892387188223706,-0.3868258764917416,-0.6581043896773464,0.23585513770208977,1.1926569733060788,-0.13308332814930188
14399,5.0,300.34387000000004,4605.8011,0.0,0.0,0.0,0.0,0.143512091197436,0.0,-0.40407139319374163,-0.35530423330079763,-0.6406729111844934,0.2304558825567248,1.206649754537059,-0.11690996177561488
14400,5.0,299.82723,4289.6553,0.0,0.0,0.0,0.0,0.14352205800701984,0.0,-0.37123630429567067,-0.34079583949143066,-0.5919159648525574,0.23034160821044677,1.176438182930409,-0.1270182967607299
14401,5.0,300.2732,4435.8604,0.0,0.0,0.0,0.0,0.14353202481660365,0.0,-0.4134290415772696,-0.36527353010719066,-0.5696882366138514,0.25266158273825673,1.181432593998319,-0.14248565072973887
14402,5.0,299.611,4907.0009,0.0,0.0,0.0,0.0,0.1435419916261875,0.0,-0.4880141686557485,-0.37550914956986764,-0.6280824376944104,0.24619004554206578,1.1533997127566888,-0.14148991972396788
14403,5.0,300.79011,4689.6585,0.0,0.0,0.0,0.0,0.1435519584357713,0.0,-0.4377259987726926,-0.37078893411151864,-0.6170241604755434,0.2478492831108198,1.1916323748049589,-0.16057054381457886
14404,5.0,300.74644,4041.688,0.0,0.0,0.0,0.0,0.1435619252453551,0.0,-0.3321210912777997,-0.31985289211452267,-0.5765982476583165,0.23803276415450478,1.1888111825515288,-0.14519198095183286
14405,5.0,300.29105,4167.5148,0.0,0.0,0.0,0.0,0.14357189205493895,0.0,-0.34772387625517465,-0.3403567070305917,-0.5787398429371754,0.27692525466789475,1.199800893136129,-0.12402592603540588
14406,5.0,299.90643,4568.3074,0.0,0.0,0.0,0.0,0.14358185886452277,0.0,-0.42783955542697655,-0.35159886887760666,-0.6092129445271365,0.25637243897698975,1.1826329913917888,-0.11928085555210388
14407,5.0,299.87077999999997,4738.2952,0.0,0.0,0.0,0.0,0.14359182567410658,0.0,-0.46615760406117357,-0.3639573486247937,-0.6102084830153883,0.23490088915541277,1.2088295594771887,-0.12374041242222789
14408,5.0,300.46734,4605.8637,0.0,0.0,0.0,0.0,0.1436017924836904,0.0,-0.42008540572420155,-0.3927907582404296,-0.5871913924187785,0.24208314023674576,1.191947191611029,-0.16106111898299486
14409,5.0,300.73463,4491.9152,0.0,0.0,0.0,0.0,0.14361175929327422,0.0,-0.3879547890906566,-0.38785693952849964,-0.5896183290582984,0.24221061723182674,1.1947919925917887,-0.16664107715119383
14410,5.0,300.07403,4505.4406,0.0,0.0,0.0,0.0,0.14362172610285803,0.0,-0.34957673578553766,-0.3970899277522246,-0.6228747881429555,0.2325299953789238,1.170389282483429,-0.17498143256682283
14411,5.0,300.47378,4677.1399,0.0,0.0,0.0,0.0,0.14363169291244188,0.0,-0.4195001929964456,-0.37478837411123267,-0.6274451743090174,0.2177406171843258,1.1820974887139386,-0.1368421516477689
14412,5.0,301.66006,4529.6068,0.0,0.0,0.0,0.0,0.1436416597220257,0.0,-0.3858431049547496,-0.3642202262307377,-0.6268240317327154,0.24720521068475476,1.200625273417489,-0.13731098246903886
14413,5.0,301.12002,4052.6796,0.0,0.0,0.0,0.0,0.14365162653160948,0.0,-0.3808848669154096,-0.3466469231213877,-0.5043816332185915,0.23971444521297378,1.207890681934529,-0.13690016021599388
14414,5.0,300.55777,4199.8052,0.0,0.0,0.0,0.0,0.14366159334119333,0.0,-0.3759598330818466,-0.34922665787598767,-0.5514494207063204,0.27723700132616175,1.1890540586004987,-0.15314562946679686
14415,5.0,299.38819,4920.6722,0.0,0.0,0.0,0.0,0.14367156015077714,0.0,-0.48773499798819653,-0.38590805428615965,-0.6221184172083074,0.2344908876349488,1.1994970194311387,-0.14891901879466285
14416,5.0,299.35526,4913.4208,0.0,0.0,0.0,0.0,0.14368152696036096,0.0,-0.4287589785677166,-0.39593477197571963,-0.6688634845391864,0.26378145543070275,1.2047649067010389,-0.11953509013469488
14417,5.0,299.89203,4539.8088,0.0,0.0,0.0,0.0,0.1436914937699448,0.0,-0.4145843189437866,-0.3653867405408637,-0.6000174566896124,0.2123987930546288,1.2099878056664988,-0.11853249942574688
14418,5.0,299.73892,4666.8859999999995,0.0,0.0,0.0,0.0,0.1437014605795286,0.0,-0.4141374047221796,-0.36965522883963065,-0.6348241681622674,0.2310685644946918,1.1754922126370488,-0.0900314783994151
14419,5.0,300.37847999999997,4828.919,0.0,0.0,0.0,0.0,0.1437114273891124,0.0,-0.4764264581271305,-0.36529911467221565,-0.6261452352257234,0.24092241158469074,1.199733005379429,-0.1168789968525589
14420,5.0,300.60235,4871.6618,0.0,0.0,0.0,0.0,0.14372139419869626,0.0,-0.4457520136097986,-0.3910268316713436,-0.6440846965237104,0.2419257723637148,1.2101734330848188,-0.12405592837086689
14421,5.0,300.44819,4427.6252,0.0,0.0,0.0,0.0,0.14373136100828007,0.0,-0.39587234563705864,-0.36815447371901766,-0.5818606937751795,0.2377502598941238,1.202654610717769,-0.1926235252254618
14422,5.0,298.85627999999997,3949.6777,0.0,0.0,0.0,0.0,0.14374132781786392,0.0,-0.31310424114848273,-0.3438578103661237,-0.5436413660982256,0.2342905376926758,1.1793169277895188,-0.15400754053186083
14423,5.0,299.17006000000003,4104.8388,0.0,0.0,0.0,0.0,0.1437512946274477,0.0,-0.35241072538773066,-0.34825853793544165,-0.5470992239194895,0.25252652663242775,1.1881723283634789,-0.16500397909712486
14424,5.0,299.32291000000004,4667.3491,0.0,0.0,0.0,0.0,0.14376126143703152,0.0,-0.43008218187330666,-0.36684257828454364,-0.6218328326676225,0.25042113477964173,1.187830153804709,-0.11983754528954489
14425,5.0,298.78127,4708.7885,0.0,0.0,0.0,0.0,0.14377122824661537,0.0,-0.4401306641750146,-0.3767931806265917,-0.6144302807495474,0.2429848315007358,1.180898408545599,-0.13192532514001587
14426,5.0,298.33873,4347.5709,0.0,0.0,0.0,0.0,0.14378119505619918,0.0,-0.37359449191590566,-0.3496989236150967,-0.5982595792236234,0.2135101764268138,1.1619428296498289,-0.1313226338480349
14427,5.0,298.60351,4443.0905,0.0,0.0,0.0,0.0,0.143791161865783,0.0,-0.3905539275846716,-0.36700039198761863,-0.5930342383254225,0.25120054702156375,1.1743861488278888,-0.15418190060906886
14428,5.0,299.37557999999996,4939.0469,0.0,0.0,0.0,0.0,0.14380112867536682,0.0,-0.4501709492834136,-0.3729931381140566,-0.6781828422014354,0.24692564484966376,1.2081277824579288,-0.13926333302672086
14429,5.0,300.41188999999997,4837.3373,0.0,0.0,0.0,0.0,0.14381109548495064,0.0,-0.4408436680053826,-0.3971740477755266,-0.6324120351067084,0.27835544705154375,1.2001214854677689,-0.14230564684947386
14430,5.0,299.73235,4324.9708,0.0,0.0,0.0,0.0,0.14382106229453445,0.0,-0.3734921941858096,-0.3581063055248407,-0.5830846492334745,0.2040383246245148,1.2103944229316288,-0.14642285690831086
14431,5.0,299.38367999999997,4078.8051,0.0,0.0,0.0,0.0,0.1438310291041183,0.0,-0.37494336084652863,-0.31511532981446166,-0.5497962119756615,0.25598840705658876,1.1977525067339687,-0.11412825587858189
14432,5.0,300.30411000000004,4282.9857,0.0,0.0,0.0,0.0,0.1438409959137021,0.0,-0.3769894167734586,-0.34928195093394465,-0.5756493389396664,0.2243812455572048,1.1874602161931989,-0.13984475619910286
14433,5.0,300.11318,4604.0067,0.0,0.0,0.0,0.0,0.1438509627232859,0.0,-0.41646922757481264,-0.37223602750683565,-0.6107978095385503,0.23588529202506578,1.1640391427817187,-0.14795133455165987
14434,5.0,299.61752,4757.8536,0.0,0.0,0.0,0.0,0.14386092953286975,0.0,-0.42805387808812856,-0.3924480669241086,-0.6257667559158704,0.22710457811597676,1.1272872444295887,-0.14228853305528485
14435,5.0,298.92681,4516.1804,0.0,0.0,0.0,0.0,0.14387089634245356,0.0,-0.4185793513055656,-0.37275676713072864,-0.5814699541391164,0.27135724271837475,1.169586079129159,-0.11553085746200789
14436,5.0,299.8465,4565.7855,0.0,0.0,0.0,0.0,0.14388086315203738,0.0,-0.4259849227089386,-0.35795944505534666,-0.6039404267042795,0.2661175744637597,1.214948982131129,-0.10902346134477789
14437,5.0,299.80236,4831.4617,0.0,0.0,0.0,0.0,0.14389082996162122,0.0,-0.4583305611462046,-0.3738837950844576,-0.6364293488381864,0.2877674867004398,1.203256379952159,-0.09655147630813882
14438,5.0,299.00833,4849.7741,0.0,0.0,0.0,0.0,0.14390079677120501,0.0,-0.4169459516143616,-0.3946353800474796,-0.6626289161438823,0.23579797013144776,1.2210645544346888,-0.1188853232430679
14439,5.0,298.02398999999997,4517.8673,0.0,0.0,0.0,0.0,0.14391076358078883,0.0,-0.39337602163069063,-0.3647703501075306,-0.6151724763152964,0.22700660696380778,1.2157016243054088,-0.16413820754917982
14440,5.0,299.12792,4196.0478,0.0,0.0,0.0,0.0,0.14392073039037268,0.0,-0.35017957906503366,-0.3626391710396996,-0.5626750057816995,0.24414083840732478,1.2180917799662987,-0.17971164880365884
14441,5.0,299.56684,4359.3343,0.0,0.0,0.0,0.0,0.1439306971999565,0.0,-0.4014743825249366,-0.3538334906481467,-0.5698208913169435,0.2271614011815848,1.1976195683208488,-0.15570877731725985
14442,5.0,300.54197999999997,4379.9303,0.0,0.0,0.0,0.0,0.14394066400954034,0.0,-0.38041502284403966,-0.34875788784972367,-0.6022165336466444,0.23310829774099778,1.1954892099855987,-0.16734457669562383
14443,5.0,299.16938,4396.9398,0.0,0.0,0.0,0.0,0.14395063081912413,0.0,-0.38983889725410364,-0.37945387406418163,-0.5672671464274084,0.2322047420968238,1.1771685336024889,-0.12725020944361787
14444,5.0,299.62864,4434.8711,0.0,0.0,0.0,0.0,0.14396059762870794,0.0,-0.3723780345083506,-0.3470428202004597,-0.6286692108273204,0.2426242259226468,1.2045233478771988,-0.13908526445414687
14445,5.0,299.29167,4601.7908,0.0,0.0,0.0,0.0,0.1439705644382918,0.0,-0.41643112937105264,-0.37299735323447264,-0.6094010138781975,0.26379604623214276,1.1722241770895188,-0.13138266891645986
14446,5.0,299.92366,4956.803,0.0,0.0,0.0,0.0,0.1439805312478756,0.0,-0.44529097468179757,-0.4244097443684806,-0.6370436114463094,0.2576484248279197,1.196589092969149,-0.15990693592658584
14447,5.0,300.47544,5002.3059,0.0,0.0,0.0,0.0,0.14399049805745942,0.0,-0.49742097993412854,-0.39537698792817066,-0.6277781181593765,0.2783435312303677,1.1930644011712888,-0.1164544653256609
14448,5.0,301.66497999999996,4706.0101,0.0,0.0,0.0,0.0,0.14400046486704324,0.0,-0.4416380864812856,-0.3996855198708897,-0.5891859448431255,0.2398236431762508,1.2222433696010289,-0.14740683421292186
14449,5.0,300.59494,4363.8957,0.0,0.0,0.0,0.0,0.14401043167662705,0.0,-0.4143366603543446,-0.3433672453302087,-0.5688114206398165,0.2109366123653228,1.1811975199751188,-0.13639185317082786
14450,5.0,299.95228,4374.7877,0.0,0.0,0.0,0.0,0.14402039848621087,0.0,-0.3623288125340697,-0.3606001166709607,-0.6068973032786004,0.1995056820246778,1.1846132873872288,-0.13569927646247587
14451,5.0,299.80435,4450.9525,0.0,0.0,0.0,0.0,0.14403036529579472,0.0,-0.38131050288491664,-0.3690965328669917,-0.6025713738316645,0.23129533999957277,1.1999728416780988,-0.16205444858602885
14452,5.0,299.46046,4455.1918,0.0,0.0,0.0,0.0,0.14404033210537853,0.0,-0.40345423269033265,-0.3403420149041417,-0.6104708134662784,0.24017714587113875,1.2160968931694187,-0.14070892681188985
14453,5.0,298.95737,4292.0704,0.0,0.0,0.0,0.0,0.14405029891496232,0.0,-0.4122477844781886,-0.3516880855489117,-0.5407463585750105,0.27047602923890574,1.1943568016738386,-0.14203142084240986
14454,5.0,299.63955,4396.4345,0.0,0.0,0.0,0.0,0.14406026572454617,0.0,-0.4148670967816946,-0.34954597351250166,-0.5719932286038365,0.24834505625224879,1.2090437605483288,-0.1029222873251389
14455,5.0,300.16561,4623.0973,0.0,0.0,0.0,0.0,0.14407023253412998,0.0,-0.4254013413138436,-0.35676936254789465,-0.6231354264661785,0.27197375474171975,1.210056301373259,-0.12134949682376288
14456,5.0,300.95447,4924.2148,0.0,0.0,0.0,0.0,0.1440801993437138,0.0,-0.4220279682859176,-0.4289129317879106,-0.6458974414826143,0.24778741405971375,1.2067008223420987,-0.12627077149945487
14457,5.0,300.36413,4769.3049,0.0,0.0,0.0,0.0,0.14409016615329764,0.0,-0.43851637438069657,-0.37960678363677264,-0.6316264420391764,0.2338094668101978,1.1692910207000389,-0.13521871220504786
14458,5.0,300.00971,4368.0948,0.0,0.0,0.0,0.0,0.14410013296288143,0.0,-0.3806567336553946,-0.37198442737450466,-0.5751505969754445,0.2328800023609668,1.171445393062659,-0.15757074596602186
14459,5.0,298.98283,4319.2014,0.0,0.0,0.0,0.0,0.14411009977246525,0.0,-0.39320204658852065,-0.35990307152966766,-0.5598242671553535,0.2614288305535168,1.185494105699159,-0.16462991755770784
14460,5.0,299.44822999999997,4397.5131,0.0,0.0,0.0,0.0,0.1441200665820491,0.0,-0.40799825408879264,-0.34811671331894467,-0.5806191888251524,0.25463873765838674,1.191123216629709,-0.14225127584910788
14461,5.0,298.9666,4367.1825,0.0,0.0,0.0,0.0,0.1441300333916329,0.0,-0.3925125298954706,-0.3616967167241867,-0.5733051949658174,0.24483374948820977,1.179838650266009,-0.14129182932941786
14462,5.0,299.6134,4173.3956,0.0,0.0,0.0,0.0,0.14414000020121676,0.0,-0.3345975150522037,-0.32768862871534965,-0.6063219089443135,0.1993318387050208,1.198064891739799,-0.13888291840917685
14463,5.0,298.7263,4326.0028,0.0,0.0,0.0,0.0,0.14414996701080054,0.0,-0.3820378543367006,-0.32532409814948865,-0.6076348784238934,0.24391826789035875,1.2236462143644788,-0.1119299793891289
14464,5.0,299.27797999999996,4869.6819,0.0,0.0,0.0,0.0,0.14415993382038436,0.0,-0.4150114950534456,-0.42450556743043766,-0.6407446290265714,0.24080968751106577,1.2294251849848188,-0.15065609423609885
14465,5.0,299.17073999999997,4900.3654,0.0,0.0,0.0,0.0,0.1441699006299682,0.0,-0.5033516948894445,-0.36957396618161065,-0.6166630685374065,0.24308533577815478,1.188926794387939,-0.12014042600943689
14466,5.0,300.34626000000003,4787.4298,0.0,0.0,0.0,0.0,0.14417986743955202,0.0,-0.46241947112974857,-0.39175586511829363,-0.6010838010948525,0.23266509201475677,1.167545900052809,-0.15186380729529086
14467,5.0,300.41405,4549.298,0.0,0.0,0.0,0.0,0.14418983424913584,0.0,-0.43037578122228254,-0.3576292572452596,-0.5948679575613964,0.2193991556105108,1.191311073198249,-0.13461668965813287
14468,5.0,300.20799,4382.4297,0.0,0.0,0.0,0.0,0.14419980105871966,0.0,-0.34855420431462164,-0.37418216684140465,-0.6094128283743634,0.26393297685065675,1.1979446189529288,-0.16485583180000382
14469,5.0,299.74816,4547.2978,0.0,0.0,0.0,0.0,0.14420976786830347,0.0,-0.40782662978685463,-0.37990491221369566,-0.5945334229083804,0.2290551453534828,1.201919903070259,-0.12939014299231286
14470,5.0,300.22715,4400.2707,0.0,0.0,0.0,0.0,0.1442197346778873,0.0,-0.3821613289938866,-0.33449505520209166,-0.6209160338446414,0.24481420389378075,1.206433222990689,-0.15961102636738184
14471,5.0,300.98827,4144.9213,0.0,0.0,0.0,0.0,0.14422970148747113,0.0,-0.3790350268703447,-0.34563335891385666,-0.5352841907309365,0.2375724648990768,1.2159501745549388,-0.13430640208000988
14472,5.0,300.16589,4456.9146,0.0,0.0,0.0,0.0,0.14423966829705495,0.0,-0.38522017905827166,-0.3721864897094466,-0.5973840703422174,0.25464419907642577,1.2051946260684487,-0.15961323525259985
14473,5.0,299.61812000000003,5035.6498,0.0,0.0,0.0,0.0,0.14424963510663874,0.0,-0.44837307883597755,-0.41767883541169165,-0.6646598746443224,0.23438255093425675,1.1773126177667088,-0.13551844171712887
14474,5.0,299.03576,4853.0005,0.0,0.0,0.0,0.0,0.14425960191622259,0.0,-0.4142217375280026,-0.4203103573789026,-0.6406588878031093,0.2368249396378018,1.1694374353394887,-0.15336564659351087
14475,5.0,299.96835,4703.6906,0.0,0.0,0.0,0.0,0.1442695687258064,0.0,-0.41704425713906357,-0.37366277484014465,-0.6390974693990094,0.2384641148545758,1.216662084075199,-0.11917528502418488
14476,5.0,299.04012,4575.1293,0.0,0.0,0.0,0.0,0.14427953553539022,0.0,-0.4098579530573306,-0.37361653010558066,-0.6072505830584665,0.24134607171650274,1.2080757014027887,-0.1271202094557879
14477,5.0,300.4763,4554.3237,0.0,0.0,0.0,0.0,0.14428950234497406,0.0,-0.42956931520269065,-0.37216622470744665,-0.5826651636920744,0.2530853543275797,1.1987497474823887,-0.12230341099790688
14478,5.0,300.24275,4661.7966,0.0,0.0,0.0,0.0,0.14429946915455785,0.0,-0.43611508310120756,-0.3367674509363597,-0.6441872070363274,0.24991516834220676,1.1788449558929388,-0.13301775060282986
14479,5.0,300.91041,4639.1318,0.0,0.0,0.0,0.0,0.14430943596414167,0.0,-0.4128377594814146,-0.36444680921809963,-0.6328956695119394,0.24973410054933676,1.2127503307391387,-0.11459064242921588
14480,5.0,299.91075,4190.1056,0.0,0.0,0.0,0.0,0.1443194027737255,0.0,-0.3701786029137836,-0.3389350158152817,-0.5645738466016005,0.22413122609502975,1.1838634823132288,-0.16390300180346684
14481,5.0,300.68113999999997,4223.0109999999995,0.0,0.0,0.0,0.0,0.14432936958330933,0.0,-0.36954003243576167,-0.34487177987369466,-0.5692780729733714,0.22915343061318277,1.1826640981698588,-0.14279310120758187
14482,5.0,299.9249,4733.8278,0.0,0.0,0.0,0.0,0.14433933639289315,0.0,-0.43759465116222956,-0.4110459989320816,-0.5903247872930204,0.2448641064612058,1.190032452897059,-0.16650228215249585
14483,5.0,300.50108,4923.0534,0.0,0.0,0.0,0.0,0.14434930320247696,0.0,-0.4620063791964796,-0.3899827990333056,-0.6444961267268153,0.26300847732691573,1.2123127080209488,-0.11915235517442188
14484,5.0,298.62725,4554.184,0.0,0.0,0.0,0.0,0.14435927001206078,0.0,-0.4031566310034616,-0.3849453957636526,-0.5962561912584045,0.25274816495930175,1.1953866690754789,-0.16023621181158285
14485,5.0,299.6359,4520.5768,0.0,0.0,0.0,0.0,0.14436923682164463,0.0,-0.3949821547617036,-0.3731339190829506,-0.6060263945526484,0.22286560579262277,1.1724978559415289,-0.13772685070758187
14486,5.0,300.46902,4600.4831,0.0,0.0,0.0,0.0,0.14437920363122841,0.0,-0.4182688104149176,-0.37175084282895166,-0.6084123350931224,0.2519829686162827,1.182571385785709,-0.15503102445787084
14487,5.0,300.46269,4467.0341,0.0,0.0,0.0,0.0,0.14438917044081226,0.0,-0.4189058711502906,-0.35647612796895467,-0.5824848355717774,0.23985570240941476,1.207413745112459,-0.14641163009720284
14488,5.0,299.64325,4413.0287,0.0,0.0,0.0,0.0,0.14439913725039608,0.0,-0.40592526597420464,-0.3395926049976807,-0.5959326706339755,0.24031992294272975,1.1858415491584489,-0.13622697711455586
14489,5.0,299.17116,4268.7964,0.0,0.0,0.0,0.0,0.1444091040599799,0.0,-0.4005493257136406,-0.3241105791672237,-0.5729475987405255,0.2096909125598818,1.1956758506540188,-0.13665575415937287
14490,5.0,299.07998,4150.0261,0.0,0.0,0.0,0.0,0.1444190708695637,0.0,-0.3198264564194137,-0.34479235119835566,-0.5968854904980114,0.2255617325862098,1.1979001372735387,-0.15671385048895284
14491,5.0,299.12517,4597.4015,0.0,0.0,0.0,0.0,0.14442903767914753,0.0,-0.4012351947063306,-0.35135653998369065,-0.6449035241945223,0.24576115703973778,1.2149475635809888,-0.14823340311449787
14492,5.0,298.99033,5153.5449,0.0,0.0,0.0,0.0,0.14443900448873137,0.0,-0.4477646626809316,-0.43136569617247955,-0.6874185965979333,0.2628020681490448,1.192602561775709,-0.13273486130741086
14493,5.0,298.81642,4932.7346,0.0,0.0,0.0,0.0,0.14444897129831516,0.0,-0.46683154710018654,-0.40935273642496967,-0.6232438543593795,0.23092623325314476,1.2003744940177388,-0.14325258986292985
14494,5.0,299.70311,4491.8071,0.0,0.0,0.0,0.0,0.144458938107899,0.0,-0.39742111867991065,-0.3708244687925256,-0.5971516206367764,0.2752431480443837,1.1969780796825387,-0.12154547965810489
14495,5.0,300.67599,4537.8972,0.0,0.0,0.0,0.0,0.1444689049174828,0.0,-0.43170571250853657,-0.3554953424021587,-0.5922063927287204,0.26215588816277174,1.2298467983514287,-0.12264857464447189
14496,5.0,300.11778,4582.8876,0.0,0.0,0.0,0.0,0.14447887172706664,0.0,-0.4136508724216626,-0.34191165076655267,-0.6375208826409124,0.2688606653994817,1.180119320543709,-0.1140725676530859
14497,5.0,299.08267,4416.2125,0.0,0.0,0.0,0.0,0.14448883853665045,0.0,-0.41968465517715065,-0.32887377669481466,-0.5938598851694075,0.2207473557960678,1.1716856346613687,-0.1326886672353519
14498,5.0,300.2003,4481.6492,0.0,0.0,0.0,0.0,0.14449880534623427,0.0,-0.3925947956710897,-0.37125647810516166,-0.5984581863757245,0.25989052438419774,1.171897505257279,-0.14589651401136486
14499,5.0,300.10603,4496.6622,0.0,0.0,0.0,0.0,0.1445087721558181,0.0,-0.42693536143523964,-0.3372880487052387,-0.6026496271368874,0.2268474355055988,1.1927622499914687,-0.16204184375478484
14500,5.0,298.7811,4688.0523,0.0,0.0,0.0,0.0,0.1445187389654019,0.0,-0.4189780449549136,-0.3929604371021756,-0.6131123666094794,0.2570511037614688,1.179342765667069,-0.15051498902717286
14501,5.0,298.56025,4967.8992,0.0,0.0,0.0,0.0,0.14452870577498575,0.0,-0.4634939316682896,-0.3880167695992736,-0.6586066172219124,0.2343112687897218,1.197082343117829,-0.13443024150723187
14502,5.0,299.29503,4556.3356,0.0,0.0,0.0,0.0,0.14453867258456957,0.0,-0.35286306049737265,-0.38007604002308465,-0.6520731501796093,0.2651002308333557,1.2155083975113388,-0.13445337400701488
14503,5.0,299.52052000000003,3945.4372,0.0,0.0,0.0,0.0,0.14454863939415338,0.0,-0.3148180726326247,-0.3247231901776837,-0.5597731385553075,0.2286068125817358,1.2351620044009988,-0.13876813743784888
14504,5.0,300.44686,4348.4669,0.0,0.0,0.0,0.0,0.1445586062037372,0.0,-0.3879857945437166,-0.3418615050191037,-0.5919780669511865,0.23702907913544877,1.1990593967129488,-0.14453881967237087
14505,5.0,300.26277999999996,4779.2072,0.0,0.0,0.0,0.0,0.14456857301332102,0.0,-0.47995233542760757,-0.37859200352912165,-0.5942153029069844,0.22735461784315378,1.2145138925381889,-0.15104149404413486
14506,5.0,300.51135,4582.9261,0.0,0.0,0.0,0.0,0.14457853982290483,0.0,-0.45314733092215953,-0.35678107571905066,-0.5831666920940715,0.2504334255033548,1.1982341045064988,-0.15383982737530885
14507,5.0,300.64693,4371.0411,0.0,0.0,0.0,0.0,0.14458850663248868,0.0,-0.4008712859329156,-0.35049106227827465,-0.5773250215575434,0.23959132519332277,1.2037012980710688,-0.15479210008429087
14508,5.0,300.17465,4557.8586,0.0,0.0,0.0,0.0,0.1445984734420725,0.0,-0.4020255095193286,-0.36832258204310864,-0.6151271029758184,0.23055015534602877,1.158847350594329,-0.15065006539800385
14509,5.0,300.59876,4951.9886,0.0,0.0,0.0,0.0,0.14460844025165628,0.0,-0.4569294186429226,-0.36953062947483367,-0.6788208249943993,0.24507566294958477,1.1798991412969788,-0.13351883317478286
14510,5.0,300.36984,4983.7838,0.0,0.0,0.0,0.0,0.14461840706124013,0.0,-0.4358892397864185,-0.4083800771239756,-0.6706765233406193,0.26661291190764574,1.1934485242841988,-0.1378940268415809
14511,5.0,299.95152,4525.2438,0.0,0.0,0.0,0.0,0.14462837387082395,0.0,-0.4112441602541386,-0.37047177669771764,-0.5938451829104564,0.25923188142169473,1.2050316954523688,-0.12197764095825588
14512,5.0,299.47909,4124.2395,0.0,0.0,0.0,0.0,0.1446383406804078,0.0,-0.3936141455366916,-0.2935114495298247,-0.5665402205406664,0.24278257664827477,1.187869670558609,-0.12164883116830488
14513,5.0,298.55905,4508.8747,0.0,0.0,0.0,0.0,0.14464830748999158,0.0,-0.41967209087591056,-0.36428727298985464,-0.5866259380679725,0.23092508828053177,1.2135362075166989,-0.11206828802777889
14514,5.0,298.05974,4981.7962,0.0,0.0,0.0,0.0,0.1446582742995754,0.0,-0.4440277456496266,-0.39269508716598767,-0.6776188165332704,0.2747540522211137,1.2146864490302187,-0.12182745702843388
14515,5.0,299.16466,4786.4963,0.0,0.0,0.0,0.0,0.14466824110915924,0.0,-0.4284006021398476,-0.37902990995733965,-0.6475448544227014,0.23155021292972677,1.214921928353459,-0.10873810985161589
14516,5.0,300.08606000000003,4254.9293,0.0,0.0,0.0,0.0,0.14467820791874306,0.0,-0.3597227028793667,-0.3744343141287897,-0.5592352547397225,0.23134199003417677,1.198529568235659,-0.14436595920531087
14517,5.0,299.69447,4292.2588,0.0,0.0,0.0,0.0,0.14468817472832687,0.0,-0.4127993269051216,-0.3243368784445577,-0.5676032820155824,0.20819372407962083,1.1970496151395988,-0.13968111630795288
14518,5.0,300.59746,4769.9914,0.0,0.0,0.0,0.0,0.14469814153791066,0.0,-0.4564906408196186,-0.3931545150263296,-0.6003131230687924,0.2464691047521068,1.2145109541128989,-0.17742371994535786
14519,5.0,300.10104,4629.0299,0.0,0.0,0.0,0.0,0.1447081083474945,0.0,-0.39676603222525864,-0.3886212138139276,-0.6217222566842093,0.22700293899844579,1.1999105267969488,-0.15932504665915784
14520,5.0,299.96564,4180.5116,0.0,0.0,0.0,0.0,0.14471807515707832,0.0,-0.3336642813126007,-0.3444977284667787,-0.5926091191134665,0.2230790469261878,1.177836265418389,-0.17673937082781782
14521,5.0,300.35339,4212.6473,0.0,0.0,0.0,0.0,0.14472804196666217,0.0,-0.3688849966436146,-0.3484841887327117,-0.5631704040205915,0.23031193011501777,1.1800882137656388,-0.15246134114426285
14522,5.0,300.2181,4588.1555,0.0,0.0,0.0,0.0,0.14473800877624599,0.0,-0.40295182276074865,-0.3849563287322316,-0.6067765542641834,0.2706983464433467,1.193098547699659,-0.15426188657196285
14523,5.0,298.90979,5042.6431,0.0,0.0,0.0,0.0,0.14474797558582977,0.0,-0.5105766544624926,-0.40159186887403164,-0.6206690743977684,0.25479955058175774,1.1863141290050887,-0.1319449517944529
14524,5.0,298.82707999999997,4835.583,0.0,0.0,0.0,0.0,0.14475794239541362,0.0,-0.4473580960783066,-0.39341289380182964,-0.6291255077448533,0.24783645536455376,1.1796258677450089,-0.12892062316097488
14525,5.0,298.90249,4230.9133,0.0,0.0,0.0,0.0,0.14476790920499744,0.0,-0.3738318964143356,-0.3090720630380377,-0.6031880581075264,0.2122210487220868,1.197856263544209,-0.12149264879789089
14526,5.0,298.57009,4366.8569,0.0,0.0,0.0,0.0,0.14477787601458125,0.0,-0.37411972023774165,-0.3638216035088967,-0.5894741233040663,0.24290462262281978,1.2251795657408089,-0.12934892397824488
14527,5.0,299.17864,4888.8215,0.0,0.0,0.0,0.0,0.1447878428241651,0.0,-0.4682661268567686,-0.3554075442809937,-0.6624060011218823,0.24032970080619476,1.219541335559359,-0.10558133929756688
14528,5.0,299.71109,4781.9047,0.0,0.0,0.0,0.0,0.1447978096337489,0.0,-0.4479941131660765,-0.36450483805132666,-0.6410806632897355,0.2215391499542118,1.197148913649399,-0.12138966205772689
14529,5.0,300.23098999999996,4344.1966,0.0,0.0,0.0,0.0,0.1448077764433327,0.0,-0.45170054150187255,-0.33113233143271664,-0.5376944087438065,0.24292823135014976,1.201094712188819,-0.14819583180078985
14530,5.0,300.60837000000004,4324.9118,0.0,0.0,0.0,0.0,0.14481774325291655,0.0,-0.39099296885300167,-0.3275072670799507,-0.5961649683519015,0.24207801319123975,1.2109867689400886,-0.16263315624814284
14531,5.0,300.56375,4746.8759,0.0,0.0,0.0,0.0,0.14482771006250036,0.0,-0.42586146831675464,-0.39417274018432064,-0.6228975356077003,0.26086218056759275,1.191052897072769,-0.15485386781038685
14532,5.0,298.93619,4912.1107,0.0,0.0,0.0,0.0,0.1448376768720842,0.0,-0.43020593010801955,-0.3969535544212656,-0.6659995027340334,0.24484051799887777,1.1793599909187689,-0.16207112668267484
14533,5.0,299.64265,4685.3976,0.0,0.0,0.0,0.0,0.144847643681668,0.0,-0.4270179413183896,-0.3752650880182807,-0.6219608365527554,0.26667765858903575,1.2164878050579988,-0.14183936941845587
14534,5.0,299.03547000000003,4150.459,0.0,0.0,0.0,0.0,0.14485761049125181,0.0,-0.34329605437818267,-0.3742307724487016,-0.5441090620793835,0.25469928948436277,1.2315935401988187,-0.14921671167404285
14535,5.0,299.77725,4184.1162,0.0,0.0,0.0,0.0,0.14486757730083566,0.0,-0.3850494058864176,-0.35015865545046865,-0.5366587962140995,0.26443804149550276,1.2059322721412489,-0.14395176282943287
14536,5.0,300.25539,4746.6216,0.0,0.0,0.0,0.0,0.14487754411041948,0.0,-0.3905149073233206,-0.4131350470607546,-0.6392044787420703,0.2199463207970118,1.182073576011579,-0.15660480451319084
14537,5.0,300.51237000000003,4827.0481,0.0,0.0,0.0,0.0,0.1448875109200033,0.0,-0.41891136296583265,-0.39131636788741864,-0.6570743702881914,0.23749410013634278,1.172540615095749,-0.15137159066171285
14538,5.0,301.41867,4411.769,0.0,0.0,0.0,0.0,0.14489747772958708,0.0,-0.35826042086505067,-0.36937622029209466,-0.6134309729709234,0.22549265932689277,1.2190257939084788,-0.14649313593524685
14539,5.0,301.09054,4409.2382,0.0,0.0,0.0,0.0,0.14490744453917093,0.0,-0.3907916259256306,-0.34814776943450965,-0.6013589187620044,0.2189564869068228,1.209227158816429,-0.15194849473864885
14540,5.0,300.44355,5032.9456,0.0,0.0,0.0,0.0,0.14491741134875474,0.0,-0.48694914147563856,-0.39018546931830766,-0.6527551890869214,0.23562777451215078,1.2011933014235487,-0.12151301512490088
14541,5.0,300.28281,5110.6752,0.0,0.0,0.0,0.0,0.1449273781583386,0.0,-0.5092310076671874,-0.3957214726971686,-0.6485651668758984,0.2520738976802568,1.2079802532433688,-0.14190376146231087
14542,5.0,299.41212,4585.8395,0.0,0.0,0.0,0.0,0.1449373449679224,0.0,-0.3968465248132026,-0.3795351265897006,-0.6175990380522794,0.26124036603491674,1.2197397299289388,-0.1150233204869179
14543,5.0,299.74672000000004,4392.4415,0.0,0.0,0.0,0.0,0.1449473117775062,0.0,-0.4049986284927526,-0.33205329471360867,-0.5981406033968814,0.26791650882380075,1.184525134628529,-0.10236514162515291
14544,5.0,300.14572000000004,4593.9949,0.0,0.0,0.0,0.0,0.14495727858709004,0.0,-0.41044940740570257,-0.38168656052703065,-0.6043237696146124,0.2369669770368198,1.181014020382009,-0.1014486974397069
14545,5.0,300.20842000000005,4748.1886,0.0,0.0,0.0,0.0,0.14496724539667386,0.0,-0.44214430623124557,-0.3871051079542996,-0.6140813680776124,0.27341344127880574,1.183827511934679,-0.12232342268738189
14546,5.0,300.45384,4813.915,0.0,0.0,0.0,0.0,0.14497721220625767,0.0,-0.4539730081636476,-0.3854370348446736,-0.6238999337991294,0.25484423491116776,1.2168685844455789,-0.1188481572293999
14547,5.0,299.94667000000004,4531.3941,0.0,0.0,0.0,0.0,0.14498717901584152,0.0,-0.4195234876162446,-0.3858035071408416,-0.5721036627322355,0.2533605327897378,1.201418952220819,-0.13744063795183487
14548,5.0,299.20488,4332.6227,0.0,0.0,0.0,0.0,0.1449971458254253,0.0,-0.35569076794894566,-0.36713206383811364,-0.5941862834241204,0.2202327362027788,1.1676488462629688,-0.17463386751752083
14549,5.0,298.96995,4737.927,0.0,0.0,0.0,0.0,0.14500711263500912,0.0,-0.4121823589192316,-0.4085824636989496,-0.6194466692121264,0.2261013693244678,1.169109344957109,-0.16701213947031485
14550,5.0,298.49156,4682.4783,0.0,0.0,0.0,0.0,0.14501707944459297,0.0,-0.39576419132138463,-0.37300508433273566,-0.6545872060627274,0.23606584306038478,1.205284906652359,-0.16800257117806283
14551,5.0,299.65465,4217.4201,0.0,0.0,0.0,0.0,0.14502704625417678,0.0,-0.38796847809950763,-0.34002322615767966,-0.5539986971629145,0.22148550849391777,1.201863667689709,-0.15407978526399085
14552,5.0,299.9967,4068.9261,0.0,0.0,0.0,0.0,0.14503701306376063,0.0,-0.36211804638076867,-0.3438923115320287,-0.5308415855349855,0.2228536595739438,1.227592823503979,-0.14421038478495685
14553,5.0,299.68439,4524.577,0.0,0.0,0.0,0.0,0.14504697987334442,0.0,-0.4161867739769366,-0.37144206499347765,-0.5877295802093935,0.24622560048807476,1.1788859925219888,-0.15197067478333787
14554,5.0,300.67446,4998.2141,0.0,0.0,0.0,0.0,0.14505694668292823,0.0,-0.4353642242471036,-0.4405568270345736,-0.6434112195797433,0.2643557655873828,1.2097203076400989,-0.14802878738930386
14555,5.0,300.1045,4859.1476,0.0,0.0,0.0,0.0,0.14506691349251208,0.0,-0.4387149612677956,-0.4057065559401196,-0.6326380304090125,0.25036690563428976,1.1700667649765988,-0.14177397425700186
14556,5.0,299.50476000000003,4588.1729,0.0,0.0,0.0,0.0,0.1450768803020959,0.0,-0.4076210109440616,-0.3716845560074096,-0.6153844381037155,0.24757786380653277,1.1741288846274989,-0.13065119353676888
14557,5.0,300.12079,4523.138,0.0,0.0,0.0,0.0,0.1450868471116797,0.0,-0.42734198883287056,-0.36397266896630565,-0.5836063615774635,0.2351585586558428,1.1755626335189988,-0.14274393831272986
14558,5.0,299.39283,4683.1559,0.0,0.0,0.0,0.0,0.14509681392126353,0.0,-0.4372484945305666,-0.36183069878490964,-0.6244832517491984,0.23090160114321376,1.2168835805470588,-0.10494244457951289
14559,5.0,299.58383,4835.685,0.0,0.0,0.0,0.0,0.14510678073084735,0.0,-0.45456417880199157,-0.36342892856514264,-0.6519343855784144,0.24381948613810978,1.2297587469177387,-0.12570600615871688
14560,5.0,300.68916,4607.1674,0.0,0.0,0.0,0.0,0.14511674754043116,0.0,-0.4026713652655696,-0.34302103803604067,-0.6547714453284104,0.2096811954914228,1.2285395030724091,-0.1027301345761749
14561,5.0,300.32806,4252.6455,0.0,0.0,0.0,0.0,0.145126714350015,0.0,-0.37011410954491863,-0.32827201759292574,-0.5943119061715184,0.25981304114905074,1.2047302535476188,-0.13608007611505787
14562,5.0,299.94853,4689.1388,0.0,0.0,0.0,0.0,0.14513668115959882,0.0,-0.4144229183353576,-0.37308929554854664,-0.6378688833877574,0.24621477897700675,1.1958630992724988,-0.1280296318180409
14563,5.0,301.16024,5051.8861,0.0,0.0,0.0,0.0,0.1451466479691826,0.0,-0.4922477302235685,-0.40515231826792064,-0.6382471701800915,0.2727250290283647,1.1998890458948288,-0.13877888802140986
14564,5.0,300.84924,4551.9726,0.0,0.0,0.0,0.0,0.14515661477876646,0.0,-0.42201559650219655,-0.3681741611684607,-0.5934962398410184,0.2400194537580758,1.190863621954089,-0.13931188797151287
14565,5.0,299.73115,4269.615,0.0,0.0,0.0,0.0,0.14516658158835027,0.0,-0.3634036479751476,-0.3782259162679916,-0.5562267733378085,0.25460494576755177,1.2122781561925386,-0.15331046499306483
14566,5.0,299.6614,4300.6871,0.0,0.0,0.0,0.0,0.1451765483979341,0.0,-0.3564273703741426,-0.33960726672662767,-0.6112668632748425,0.2400455652131528,1.2366929239770887,-0.15076422828677086
14567,5.0,299.53886,4424.093,0.0,0.0,0.0,0.0,0.14518651520751794,0.0,-0.37841957875960464,-0.3606544876713267,-0.6057397460993584,0.2098849499540318,1.199087767715749,-0.17518066793398585
14568,5.0,299.62227,4548.6324,0.0,0.0,0.0,0.0,0.14519648201710172,0.0,-0.4134863003404206,-0.34914539521796767,-0.6200389848230834,0.2073770039690168,1.203000027676859,-0.14966110290290086
14569,5.0,299.88876,4600.6015,0.0,0.0,0.0,0.0,0.14520644882668554,0.0,-0.44201981832395953,-0.37274896510495864,-0.5836992056841265,0.2287598944068438,1.1757185727093886,-0.16394404856501785
14570,5.0,298.73777,4463.5243,0.0,0.0,0.0,0.0,0.14521641563626939,0.0,-0.4120126192624796,-0.37722332555904364,-0.5675639983092055,0.2489588628978268,1.2181915851011489,-0.14649367295779986
14571,5.0,299.23725,4671.1234,0.0,0.0,0.0,0.0,0.1452263824458532,0.0,-0.43084367985346056,-0.37084532147958366,-0.6182158844481574,0.24344738017138579,1.2096620457593488,-0.14839538127548385
14572,5.0,299.70878999999996,4932.3404,0.0,0.0,0.0,0.0,0.14523634925543705,0.0,-0.45029731170338455,-0.39930250120058863,-0.6497085182887383,0.24601532069482177,1.2068279852296488,-0.1250834045022709
14573,5.0,300.50023,4475.0445,0.0,0.0,0.0,0.0,0.14524631606502084,0.0,-0.3832842431522096,-0.36754161952853365,-0.6094759335905914,0.24990387060359176,1.209428187636269,-0.14832373436091287
14574,5.0,301.22472999999997,4316.4879,0.0,0.0,0.0,0.0,0.14525628287460465,0.0,-0.3760694971401697,-0.3429988275938487,-0.5930362040306164,0.24564630514090274,1.2300562371470987,-0.1132591406053069
14575,5.0,301.31455,4562.2207,0.0,0.0,0.0,0.0,0.1452662496841885,0.0,-0.4445605733472126,-0.3539857213431707,-0.5882548895912375,0.2550854390974728,1.2214202052197887,-0.12624912847731887
14576,5.0,300.672,4848.6225,0.0,0.0,0.0,0.0,0.14527621649377231,0.0,-0.4596249476189505,-0.3649612362938697,-0.6492739859833534,0.24075077715025178,1.1953204025189388,-0.0988022654972744
14577,5.0,300.66118,4931.793,0.0,0.0,0.0,0.0,0.14528618330335613,0.0,-0.4508115766591385,-0.4010251783581036,-0.6473051802440474,0.26344273605477375,1.190235204242069,-0.14710989113861586
14578,5.0,300.48758,4869.0962,0.0,0.0,0.0,0.0,0.14529615011293995,0.0,-0.43174207805462556,-0.39400630372289464,-0.6543352918228654,0.2630162489551828,1.1965639643666688,-0.12959720065024788
14579,5.0,299.19218,4625.7656,0.0,0.0,0.0,0.0,0.14530611692252376,0.0,-0.41418558476443457,-0.3676626522529787,-0.6242690101480545,0.25582411868537475,1.1979979159081888,-0.15534533463889086
14580,5.0,299.19219,4529.0414,0.0,0.0,0.0,0.0,0.14531608373210758,0.0,-0.4444069544995516,-0.3645065808414986,-0.5678019600951905,0.24382292105594877,1.1998370661646989,-0.14519822257244885
14581,5.0,299.35937,4632.9519,0.0,0.0,0.0,0.0,0.14532605054169143,0.0,-0.4416937139117756,-0.38620038707251064,-0.5804075918067694,0.22610279800710878,1.1909795377655288,-0.14798749744772885
14582,5.0,299.72974,4514.8305,0.0,0.0,0.0,0.0,0.14533601735127524,0.0,-0.4272161938329556,-0.36523208817810066,-0.5799474648038585,0.24494749694443577,1.2082554519705289,-0.1258895564143319
14583,5.0,300.39996,4189.9017,0.0,0.0,0.0,0.0,0.14534598416085903,0.0,-0.34717679212868163,-0.35203601536824963,-0.5744126874576185,0.2175202454200768,1.209597501727979,-0.14310185877805387
14584,5.0,300.55321000000004,4367.2524,0.0,0.0,0.0,0.0,0.14535595097044288,0.0,-0.37731575423316566,-0.35112528591336767,-0.5990946492935384,0.2320088808524938,1.2112115078122687,-0.13017796521006486
14585,5.0,299.9633,4900.2295,0.0,0.0,0.0,0.0,0.1453659177800267,0.0,-0.4320547062404796,-0.4067785036184126,-0.6507141892779904,0.22830528961697777,1.1973408232183387,-0.15823268199134985
14586,5.0,300.65575,4911.8707,0.0,0.0,0.0,0.0,0.1453758845896105,0.0,-0.4770311252568065,-0.3884577563077956,-0.6275971516915164,0.2563634311836007,1.1984513453279388,-0.15045550111380188
14587,5.0,299.73892,4629.2285,0.0,0.0,0.0,0.0,0.14538585139919433,0.0,-0.42877383281418263,-0.37572887285405265,-0.6026671766286193,0.2567316665349427,1.198689965726489,-0.14033755038523785
14588,5.0,299.47854,4560.2312,0.0,0.0,0.0,0.0,0.14539581820877814,0.0,-0.4245671933015196,-0.35173306372085067,-0.6098961689370654,0.25585318883074376,1.1686465936364387,-0.13459889698637686
14589,5.0,299.15069,4549.0132,0.0,0.0,0.0,0.0,0.14540578501836196,0.0,-0.39900752383147664,-0.34755272818078364,-0.6362261617956334,0.24517630908201773,1.1833977925672687,-0.13307447234342787
14590,5.0,299.3111,4611.4392,0.0,0.0,0.0,0.0,0.1454157518279458,0.0,-0.4118953659609076,-0.34393500989124265,-0.6459320034435254,0.22168284908339378,1.193225710587209,-0.14055529783172788
14591,5.0,299.1101,4620.3364,0.0,0.0,0.0,0.0,0.14542571863752962,0.0,-0.4295415622824516,-0.3542420330884667,-0.6206833105616735,0.2207793643667268,1.2221571420175188,-0.13388613633603288
14592,5.0,300.04627999999997,4648.3794,0.0,0.0,0.0,0.0,0.14543568544711344,0.0,-0.4462164874556386,-0.3599197293613116,-0.6068550406169294,0.2056241826210268,1.2283071648244788,-0.11495792532546388
14593,5.0,299.11217999999997,4679.0854,0.0,0.0,0.0,0.0,0.14544565225669726,0.0,-0.42607851662067564,-0.40230143778656063,-0.5939451805628254,0.24618357087392675,1.2311304849031188,-0.13626475107828387
14594,5.0,299.21342000000004,4897.2021,0.0,0.0,0.0,0.0,0.14545561906628107,0.0,-0.4376851445286606,-0.4051234001100666,-0.6458186207573353,0.27067481877602473,1.2166526608492687,-0.1259594301412279
14595,5.0,299.64988999999997,4907.5659,0.0,0.0,0.0,0.0,0.14546558587586492,0.0,-0.42307572968432355,-0.4092571160130326,-0.6594446358496184,0.27483598362419975,1.213069301870619,-0.13167932828073786
14596,5.0,300.03042,4593.109,0.0,0.0,0.0,0.0,0.1454755526854487,0.0,-0.39739514907984763,-0.38969315135971966,-0.6091021253636995,0.2754812111553787,1.1892726166470688,-0.16317382650150283
14597,5.0,300.10125,4441.5858,0.0,0.0,0.0,0.0,0.14548551949503255,0.0,-0.3949312085466756,-0.37592797649870263,-0.5792719816246934,0.23579689608634177,1.202541228031579,-0.16103473395039083
14598,5.0,300.61024,4647.5772,0.0,0.0,0.0,0.0,0.14549548630461637,0.0,-0.4514560138552396,-0.3742089571740486,-0.5870824376355255,0.2290994750453578,1.2036660369675887,-0.15285209091282687
14599,5.0,300.82349,4612.4979,0.0,0.0,0.0,0.0,0.14550545311420018,0.0,-0.42516983393099556,-0.37415278258850465,-0.6027615507429334,0.2027059311405178,1.202574462634859,-0.13904463312513687
14600,5.0,300.3317,4498.7996,0.0,0.0,0.0,0.0,0.145515419923784,0.0,-0.4190175211788095,-0.3472456931354817,-0.6012595189271944,0.2197167993843598,1.182422944646059,-0.13247286522905388
14601,5.0,300.0071,4736.5578,0.0,0.0,0.0,0.0,0.14552538673336782,0.0,-0.4014461533771506,-0.3969874881671146,-0.6413616476749664,0.24680753028550675,1.180426031348979,-0.14750094488220986
14602,5.0,300.15657999999996,4828.1346,0.0,0.0,0.0,0.0,0.14553535354295166,0.0,-0.4263147964114946,-0.4098855539900546,-0.6314319993449864,0.26872976361906276,1.171444886437609,-0.14722412495488987
14603,5.0,299.33513999999997,4855.5131,0.0,0.0,0.0,0.0,0.14554532035253545,0.0,-0.4552300462377076,-0.4020560792748456,-0.6186686248578395,0.2678715103868597,1.215662006226499,-0.16245142984270786
14604,5.0,298.93885,4870.5499,0.0,0.0,0.0,0.0,0.1455552871621193,0.0,-0.4632717664513636,-0.4135898139706366,-0.6036639614144944,0.2573667413001198,1.217333463591459,-0.12798634577376888
14605,5.0,299.45882,4608.7785,0.0,0.0,0.0,0.0,0.14556525397170308,0.0,-0.4322954240667366,-0.3613546536229277,-0.6073035051111895,0.23643162634648476,1.2348993699750788,-0.14075387458632585
14606,5.0,300.20588,4493.4561,0.0,0.0,0.0,0.0,0.14557522078128693,0.0,-0.4172260646045066,-0.3621336808298117,-0.5865387276318654,0.25065801238801977,1.2140393875163589,-0.12580438261092589
14607,5.0,299.59074,4686.7697,0.0,0.0,0.0,0.0,0.14558518759087075,0.0,-0.42326738594073865,-0.3623689068405267,-0.6390246673793244,0.25069033506620975,1.204208835046159,-0.12224129876677688
14608,5.0,300.19114,4913.7271,0.0,0.0,0.0,0.0,0.14559515440045456,0.0,-0.45163650409555256,-0.38132002743585663,-0.6606938009704014,0.2560279440754908,1.194491969237179,-0.13132858162612188
14609,5.0,299.91859,4779.5676,0.0,0.0,0.0,0.0,0.14560512121003838,0.0,-0.4397734833822635,-0.3874254064434106,-0.6256703249038534,0.24070676156590776,1.1865120167496188,-0.14368230923033984
14610,5.0,300.12772,4715.7637,0.0,0.0,0.0,0.0,0.1456150880196222,0.0,-0.43935638911109953,-0.3862602498884186,-0.6078577529158894,0.25268175654774777,1.209869863354859,-0.14813911006019184
14611,5.0,299.69382,4663.6304,0.0,0.0,0.0,0.0,0.14562505482920604,0.0,-0.41436271101441563,-0.37259918647517665,-0.6306653033918194,0.2191988056682378,1.2201448273189188,-0.13307389479087087
14612,5.0,300.59264,4596.1998,0.0,0.0,0.0,0.0,0.14563502163878986,0.0,-0.4031122303840796,-0.3852311221593516,-0.6087866195475614,0.2521526170805258,1.2069974006463686,-0.14806103913998686
14613,5.0,300.03722999999997,4664.7649,0.0,0.0,0.0,0.0,0.14564498844837367,0.0,-0.3903370515332676,-0.37896229577816665,-0.6486727031090114,0.2248063039741548,1.2185462226361488,-0.15849705920744186
14614,5.0,300.20083,4515.4554,0.0,0.0,0.0,0.0,0.1456549552579575,0.0,-0.4020962850388136,-0.35879955097825866,-0.6116898546615884,0.25336279233746073,1.2174107745740887,-0.16380593244388683
14615,5.0,299.77907000000005,4440.015,0.0,0.0,0.0,0.0,0.1456649220675413,0.0,-0.3936585461560736,-0.36445061903847564,-0.5915445377634004,0.23258205616906177,1.2044356004185388,-0.14975790881745485
14616,5.0,299.31497,4704.5736,0.0,0.0,0.0,0.0,0.14567488887712512,0.0,-0.45286821091711255,-0.36613985894269063,-0.6110648414699044,0.2306796689738108,1.203252732251799,-0.13708115708135687
14617,5.0,299.53381,4886.0589,0.0,0.0,0.0,0.0,0.14568485568670897,0.0,-0.4685418524739806,-0.3710418818664826,-0.6456561663688024,0.25322776662913477,1.2141942121316387,-0.12677212764893486
14618,5.0,300.12647999999996,4659.8068,0.0,0.0,0.0,0.0,0.14569482249629276,0.0,-0.43791902291674256,-0.3698989864161877,-0.6086469126237735,0.25077620801218475,1.2021350160664888,-0.12093271666012988
14619,5.0,300.07634,4556.4156,0.0,0.0,0.0,0.0,0.14570478930587658,0.0,-0.4094100053206216,-0.33442052052473564,-0.6412060428571094,0.23729312197900776,1.212772520916329,-0.14765618493003085
14620,5.0,298.77359,4700.991,0.0,0.0,0.0,0.0,0.14571475611546042,0.0,-0.43229507956170254,-0.3652003531849687,-0.6314884475080574,0.2246068963544748,1.1729165308828489,-0.14762601034205286
14621,5.0,300.13491,4837.5532,0.0,0.0,0.0,0.0,0.14572472292504424,0.0,-0.45376614302323154,-0.39906675843232264,-0.6176624776410403,0.23254886209578576,1.1865962178329288,-0.15857876769550586
14622,5.0,300.72443,4658.5366,0.0,0.0,0.0,0.0,0.14573468973462808,0.0,-0.4274868126696636,-0.36619636790076765,-0.6223956120381644,0.2246728386709828,1.1986862167011187,-0.15149085019848288
14623,5.0,301.48222999999996,4437.1191,0.0,0.0,0.0,0.0,0.14574465654421187,0.0,-0.3915827513387086,-0.3561491521616847,-0.6010415181681794,0.2334793701926198,1.2099959116672987,-0.1256704106827039
14624,5.0,300.33067,4462.4264,0.0,0.0,0.0,0.0,0.1457546233537957,0.0,-0.38383605915666963,-0.35708423001646966,-0.6155459096396514,0.24010372576889275,1.220792395457829,-0.13513049865134186
14625,5.0,299.85093,4615.4429,0.0,0.0,0.0,0.0,0.1457645901633795,0.0,-0.3955381757540786,-0.37242990278096966,-0.6350113053232364,0.25183658437433576,1.2326145923245888,-0.13759021393159687
14626,5.0,299.79749,4781.1068,0.0,0.0,0.0,0.0,0.14577455697296335,0.0,-0.43344645591533454,-0.4029763332806676,-0.6169142937672004,0.27586714798596773,1.2360216457858386,-0.16554743578825984
14627,5.0,299.37654,4703.786,0.0,0.0,0.0,0.0,0.14578452378254717,0.0,-0.4303759332097976,-0.37779596385305864,-0.6216615934007224,0.2420979640857088,1.2016825998968388,-0.15194480650828487
14628,5.0,300.03185,4455.4402,0.0,0.0,0.0,0.0,0.14579449059213095,0.0,-0.4203697135697606,-0.36546791200637463,-0.5685049631470714,0.2260957660514148,1.1821055947147387,-0.16957261234051385
14629,5.0,299.24431,4622.2153,0.0,0.0,0.0,0.0,0.1458044574017148,0.0,-0.4364303052073175,-0.36814250723533665,-0.6004652220413035,0.20835844814837778,1.165668854242559,-0.13635542682973287
14630,5.0,299.56043,4858.8688,0.0,0.0,0.0,0.0,0.14581442421129862,0.0,-0.4654278309416506,-0.36852645809572965,-0.6430205103411835,0.2390920867365518,1.1901117903798888,-0.1314429978274139
14631,5.0,298.5899,4660.9033,0.0,0.0,0.0,0.0,0.14582439102088246,0.0,-0.4172209882215056,-0.3710621772659856,-0.6285150448246054,0.2359689864833258,1.198087689867049,-0.12452372567703489
14632,5.0,299.29299,4569.6344,0.0,0.0,0.0,0.0,0.14583435783046628,0.0,-0.3995164185617006,-0.3774879358226586,-0.6120503791796694,0.2620089061032657,1.2263202827033888,-0.1396968622145069
14633,5.0,300.00621,4675.5684,0.0,0.0,0.0,0.0,0.14584432464005007,0.0,-0.4138092130147896,-0.3646118372618867,-0.6428350045128753,0.2509582079951468,1.230772604967799,-0.13667835976910386
14634,5.0,300.00112,4753.6983,0.0,0.0,0.0,0.0,0.1458542914496339,0.0,-0.42204424108252364,-0.4008928073650396,-0.6220685450383854,0.25116676526322973,1.244480156295629,-0.1277868672265819
14635,5.0,300.62858,4704.1373,0.0,0.0,0.0,0.0,0.14586425825921773,0.0,-0.42164442272556457,-0.37142171893146964,-0.6368741352345835,0.2344412282475478,1.213475209860679,-0.1282002530023799
14636,5.0,300.59847,4774.1912,0.0,0.0,0.0,0.0,0.14587422506880154,0.0,-0.4412870257191385,-0.3937434058519486,-0.6162044816746474,0.2289132903394828,1.2206050455143387,-0.12992352797745388
14637,5.0,299.76784,4672.5724,0.0,0.0,0.0,0.0,0.1458841918783854,0.0,-0.4431236327178975,-0.37321536412598866,-0.6040063487557854,0.2114941836303508,1.219884523368229,-0.15187183223608286
14638,5.0,300.87147000000004,4676.4094,0.0,0.0,0.0,0.0,0.14589415868796918,0.0,-0.4407758207786866,-0.37274771880733565,-0.6079881379387574,0.2371517837225588,1.2268143434521488,-0.16604521516488685
14639,5.0,301.61234,4758.3661,0.0,0.0,0.0,0.0,0.145904125497553,0.0,-0.44141552609682055,-0.3895886244794036,-0.6154203274222574,0.22561420880888877,1.1888665060069887,-0.15124300922402284
14640,5.0,300.15692,4623.8287,0.0,0.0,0.0,0.0,0.14591409230713684,0.0,-0.4335076866188776,-0.3746949220545096,-0.5973258591239724,0.24178924704524077,1.1911468253570388,-0.17198556612865382
14641,5.0,299.8569,4510.2246,0.0,0.0,0.0,0.0,0.14592405911672066,0.0,-0.40526002675355066,-0.36455739533401366,-0.6011782360041724,0.24936384883029575,1.1836153373637388,-0.13201407571627488
14642,5.0,299.83704,4563.0612,0.0,0.0,0.0,0.0,0.1459340259263045,0.0,-0.4089056398183446,-0.37832745406051266,-0.5998235712829775,0.26941841904952774,1.2163628713206687,-0.15524267213875886
14643,5.0,299.8956,4553.7701,0.0,0.0,0.0,0.0,0.1459439927358883,0.0,-0.3807520602248027,-0.37690687742031265,-0.6265734448504844,0.25794785036497075,1.1937398336879488,-0.1142396019320709
14644,5.0,300.73794,4544.3557,0.0,0.0,0.0,0.0,0.1459539595454721,0.0,-0.36550894863542466,-0.3967800961366466,-0.6190816053335975,0.2553258022861947,1.2222876486303988,-0.16217902768582385
14645,5.0,300.1724,4728.9555,0.0,0.0,0.0,0.0,0.14596392635505595,0.0,-0.3997807451152876,-0.4082505330986906,-0.6294531016346844,0.22994671424897375,1.2361235787458988,-0.13199937345732388
14646,5.0,299.76886,4871.1644,0.0,0.0,0.0,0.0,0.14597389316463977,0.0,-0.4434917059492236,-0.39583822950619163,-0.6413824091695154,0.2511065072797828,1.2332610458883888,-0.1220921179545539
14647,5.0,299.71143,4741.3079,0.0,0.0,0.0,0.0,0.14598385997422358,0.0,-0.44662264875822355,-0.3817162284899586,-0.6129003136285515,0.2195252241879528,1.190753279018199,-0.11920532788964988
14648,5.0,299.88768999999996,4632.1863,0.0,0.0,0.0,0.0,0.14599382678380737,0.0,-0.43129594403559557,-0.3754577676572966,-0.6013152578151953,0.24881329938846078,1.187471767244339,-0.12924936202341886
14649,5.0,300.29091,4834.9873,0.0,0.0,0.0,0.0,0.14600379359339122,0.0,-0.4582452961502896,-0.38383621114418465,-0.6276339022726434,0.27031304796032074,1.1977739876360887,-0.13304344662536585
14650,5.0,300.70984,4830.4873,0.0,0.0,0.0,0.0,0.14601376040297506,0.0,-0.43610046190226454,-0.38245603278547163,-0.6497910475093834,0.24689974617710775,1.205959224593909,-0.13676502305015686
14651,5.0,300.30947000000003,4670.4035,0.0,0.0,0.0,0.0,0.14602372721255888,0.0,-0.4083816071316266,-0.3840274722330606,-0.6272769849249183,0.25103250962497975,1.177172687927899,-0.15578885447266286
14652,5.0,300.34186,4762.6427,0.0,0.0,0.0,0.0,0.1460336940221427,0.0,-0.4334765697083066,-0.38633862478365366,-0.6279092732523204,0.2192764510234008,1.177830287242799,-0.12165383662379887
14653,5.0,300.9385,4703.767,0.0,0.0,0.0,0.0,0.14604366083172649,0.0,-0.44008433838044253,-0.37238513739155166,-0.6173582391660144,0.26607008343157273,1.2077190373675886,-0.13760516950307286
14654,5.0,300.9783,4637.3041,0.0,0.0,0.0,0.0,0.14605362764131033,0.0,-0.4392894842069966,-0.37283426049837665,-0.5975009082112485,0.23584914939399876,1.2288542185534688,-0.12951698163983086
14655,5.0,300.64136,4724.212,0.0,0.0,0.0,0.0,0.14606359445089415,0.0,-0.41505135631237966,-0.40383551870296264,-0.6171556094110164,0.24344538406868876,1.1986530834228488,-0.13179380527703588
14656,5.0,300.06169,4708.2655,0.0,0.0,0.0,0.0,0.14607356126047796,0.0,-0.4154789073245756,-0.38472088993899567,-0.6309953493468924,0.23075852009659276,1.2101419210067088,-0.14438248531444187
14657,5.0,299.81248,4617.0109,0.0,0.0,0.0,0.0,0.1460835280700618,0.0,-0.3935098517038986,-0.3884352925530786,-0.6215108927133494,0.2767289374610198,1.2393619260654987,-0.14785451850460485
14658,5.0,300.24754,4632.7634,0.0,0.0,0.0,0.0,0.1460934948796456,0.0,-0.4461449216010756,-0.36584836715392266,-0.5962511148754034,0.25907905290911176,1.2213689347647287,-0.15142556649453984
14659,5.0,300.05196,4577.2803,0.0,0.0,0.0,0.0,0.1461034616892294,0.0,-0.43117071645573657,-0.3636134819383567,-0.5965947282493155,0.24573173225683376,1.1672029148939589,-0.14438364041955587
14660,5.0,300.05762000000004,4437.8131,0.0,0.0,0.0,0.0,0.14611342849881326,0.0,-0.3994155393817446,-0.35735730091841966,-0.5922115400392284,0.2256130942337788,1.1856000916596188,-0.16751889624282784
14661,5.0,299.73216,4564.5549,0.0,0.0,0.0,0.0,0.14612339530839707,0.0,-0.4032957705071936,-0.39016901413668365,-0.5940459280202685,0.23764816481404774,1.205850604183189,-0.17211273914870484
14662,5.0,300.10587000000004,4790.9117,0.0,0.0,0.0,0.0,0.14613336211798092,0.0,-0.4156884271802537,-0.38460625082268163,-0.6560228598644153,0.24976769992265277,1.2272036341405688,-0.15467266829500384
14663,5.0,299.76162999999997,4589.7308,0.0,0.0,0.0,0.0,0.1461433289275647,0.0,-0.4150789775101056,-0.3652693251192756,-0.6148152651250424,0.22932190370730982,1.191047729497259,-0.14203429847269386
14664,5.0,300.90244,4592.3361,0.0,0.0,0.0,0.0,0.14615329573714853,0.0,-0.4145291272108396,-0.36846066776673664,-0.6129657087900054,0.2622892217434308,1.206250939297699,-0.13403260163798789
14665,5.0,300.71207999999996,4784.3897,0.0,0.0,0.0,0.0,0.14616326254673237,0.0,-0.44444648138595255,-0.38007544220552564,-0.6298130992627133,0.2659764996523368,1.2167562150094886,-0.13143298691642585
14666,5.0,300.60765,4796.156,0.0,0.0,0.0,0.0,0.1461732293563162,0.0,-0.4493237810073045,-0.36743059771507663,-0.6411572953947984,0.28832481478544375,1.2277383262183388,-0.11066438948422488
14667,5.0,300.64493,4775.6728,0.0,0.0,0.0,0.0,0.1461831961659,0.0,-0.4101245898211456,-0.3972341740364606,-0.6443265289250775,0.24955492753415376,1.1896000990793887,-0.14227864373430887
14668,5.0,300.3129,4800.9795,0.0,0.0,0.0,0.0,0.1461931629754838,0.0,-0.42810283833296053,-0.38915128547124167,-0.6421237738701824,0.2199612662359868,1.2098434175272488,-0.10948134906496788
14669,5.0,299.74007,4888.0257,0.0,0.0,0.0,0.0,0.14620312978506764,0.0,-0.44125073110055657,-0.3908963351909646,-0.6536906823742473,0.2256630981262138,1.229937788210409,-0.14739284122904087
14670,5.0,299.53092999999996,4876.222,0.0,0.0,0.0,0.0,0.14621309659465145,0.0,-0.4857379934986076,-0.36706346680634366,-0.6294482684317074,0.2123851648407838,1.2353081150654188,-0.14051407881765987
14671,5.0,298.48056,4698.4032,0.0,0.0,0.0,0.0,0.1462230634042353,0.0,-0.4685516506024476,-0.35090786270690966,-0.6087377302302364,0.2103855259009348,1.194982686260609,-0.15039091655242787
14672,5.0,299.27394,4625.2132,0.0,0.0,0.0,0.0,0.14623303021381912,0.0,-0.4389175910227936,-0.36309609617229466,-0.6039356340313063,0.2290522778556998,1.1991342758953387,-0.15061215971176287
14673,5.0,300.84653,4429.885,0.0,0.0,0.0,0.0,0.1462429970234029,0.0,-0.3698224455036337,-0.37452723929546067,-0.6022247409724544,0.26065364356451176,1.208430034962759,-0.16234566679726986
14674,5.0,299.96022999999997,4488.2975,0.0,0.0,0.0,0.0,0.14625296383298675,0.0,-0.38356918934533163,-0.36932306519184865,-0.6114381025417424,0.2777021439170677,1.210372131429429,-0.13613928031840086
14675,5.0,299.64387,4853.501,0.0,0.0,0.0,0.0,0.14626293064257057,0.0,-0.4318329057935896,-0.3966814157094076,-0.6468288007095324,0.25031595941926177,1.1841014947617188,-0.13540946666887388
14676,5.0,299.43349,4717.1096,0.0,0.0,0.0,0.0,0.14627289745215438,0.0,-0.4202116060241566,-0.39151666716718664,-0.6221552691144444,0.25371754132997176,1.2273877416837389,-0.14637847655393085
14677,5.0,299.82031,4652.4214,0.0,0.0,0.0,0.0,0.14628286426173823,0.0,-0.4215819153268956,-0.39179859387501065,-0.6008394153032335,0.23724065588882975,1.239926306371199,-0.14593943528560085
14678,5.0,299.45292,4930.8229,0.0,0.0,0.0,0.0,0.14629283107132202,0.0,-0.4471282909556266,-0.3974835146210686,-0.6542352435079914,0.2382166791801558,1.223235848073979,-0.15126969823165687
14679,5.0,299.23307,4920.848,0.0,0.0,0.0,0.0,0.14630279788090583,0.0,-0.4479739596215876,-0.3946562631320406,-0.6531847058043114,0.23327215041466876,1.1842856023048889,-0.12283985599834989
14680,5.0,298.7737,4723.9704,0.0,0.0,0.0,0.0,0.14631276469048968,0.0,-0.4302337134257616,-0.36498573668128764,-0.6407496040845624,0.21824769819687082,1.1938274798215989,-0.14868689332925386
14681,5.0,300.31461,4552.7692,0.0,0.0,0.0,0.0,0.1463227315000735,0.0,-0.4162123180119576,-0.3301691460201577,-0.6375466901209593,0.25771877478236277,1.215692809029539,-0.1276042491610589
14682,5.0,300.70892000000003,4314.5787,0.0,0.0,0.0,0.0,0.14633269830965734,0.0,-0.40291356243697257,-0.3294358771877897,-0.5791747602775984,0.2199523699001088,1.220880041591479,-0.1352091876541079
14683,5.0,300.08923,4492.8105,0.0,0.0,0.0,0.0,0.14634266511924113,0.0,-0.42224466195230365,-0.3421563202681997,-0.6013012344338114,0.22197760353748378,1.2119757010376886,-0.14775682092996287
14684,5.0,300.29924,4998.5616,0.0,0.0,0.0,0.0,0.14635263192882494,0.0,-0.47690462098182157,-0.39576202296617063,-0.6467712582363534,0.23187556753683677,1.216410392750359,-0.14523113293569687
14685,5.0,300.42338,5031.1835,0.0,0.0,0.0,0.0,0.1463625987384088,0.0,-0.4384183424335216,-0.4374372022291906,-0.6534986208177924,0.26263430432998774,1.238347257415359,-0.13843920605788587
14686,5.0,300.92233,4567.6605,0.0,0.0,0.0,0.0,0.1463725655479926,0.0,-0.3967643603625936,-0.37415921672663965,-0.6175311401630784,0.25209058590940375,1.224174624291629,-0.12392071014502187
14687,5.0,300.50391,4566.5023,0.0,0.0,0.0,0.0,0.14638253235757642,0.0,-0.4030638882218086,-0.37840615319577964,-0.6066326322199794,0.2377869800777478,1.1845728587082387,-0.11271485304908987
14688,5.0,299.60549,4876.4461,0.0,0.0,0.0,0.0,0.1463924991671602,0.0,-0.45567775079439254,-0.3903577117028066,-0.6362823971761834,0.24908574207534878,1.193571938146379,-0.11025633340395288
14689,5.0,299.49388999999996,4666.584,0.0,0.0,0.0,0.0,0.14640246597674406,0.0,-0.43253274750515863,-0.36766305755301865,-0.6183292063393414,0.24921875141597577,1.2207251156511887,-0.15087055875226485
14690,5.0,299.25543999999996,4439.4299,0.0,0.0,0.0,0.0,0.14641243278632787,0.0,-0.40069790870830463,-0.34593487174611365,-0.6028430565809774,0.2361570558343868,1.2250045774485387,-0.15358622100777983
14691,5.0,299.63327999999996,4589.0201,0.0,0.0,0.0,0.0,0.14642239959591172,0.0,-0.3977781373526456,-0.38327586357388266,-0.6138935115090725,0.18982519189428781,1.1710848786770789,-0.15769089716287982
14692,5.0,299.99187,4499.8546,0.0,0.0,0.0,0.0,0.14643236640549553,0.0,-0.39238874113075367,-0.35387649298239066,-0.6215782130499934,0.2215235661676738,1.175155003003769,-0.17838425064265484
14693,5.0,300.88372999999996,4608.907,0.0,0.0,0.0,0.0,0.14644233321507932,0.0,-0.3996412813715236,-0.4030624798041696,-0.5982888824165155,0.2520412710270368,1.2371099777182488,-0.16912454301379284
14694,5.0,300.42582000000004,4824.2306,0.0,0.0,0.0,0.0,0.14645230002466317,0.0,-0.44287815261617064,-0.40301333717431964,-0.6205541515714265,0.26759052600162875,1.2326658627796487,-0.16367552715601683
14695,5.0,300.17973,4685.5843,0.0,0.0,0.0,0.0,0.14646226683424698,0.0,-0.4247794489324676,-0.38615252113778664,-0.6133686682222744,0.25371316408953976,1.2018804876413687,-0.14418673552762287
14696,5.0,299.80233,4574.9281,0.0,0.0,0.0,0.0,0.1464722336438308,0.0,-0.4229546868273776,-0.3817507701858676,-0.5859584494320965,0.2271713411650658,1.2100642047240386,-0.17032430205969984
14697,5.0,300.63625,4789.8637,0.0,0.0,0.0,0.0,0.14648220045341462,0.0,-0.4459947984662596,-0.37232280224539965,-0.6376813611917505,0.2903690367296927,1.2352710301117589,-0.11301477507868989
14698,5.0,298.80568999999997,4717.7311,0.0,0.0,0.0,0.0,0.14649216726299844,0.0,-0.44099686128800153,-0.36409324572820567,-0.6289823557707255,0.2659740982495998,1.2302118723624589,-0.13048472667783986
14699,5.0,298.90013999999996,4469.6779,0.0,0.0,0.0,0.0,0.14650213407258225,0.0,-0.38782121232997363,-0.34231476218633666,-0.6285345093590263,0.26252715313191277,1.1776507393250788,-0.11080386336048989
14700,5.0,299.32122000000004,4802.5439,0.0,0.0,0.0,0.0,0.1465121008821661,0.0,-0.4432766030854946,-0.3807851225755656,-0.6357916902852544,0.24475355074279478,1.1673735462107988,-0.13192315678480188
14701,5.0,299.97902,5077.0251,0.0,0.0,0.0,0.0,0.1465220676917499,0.0,-0.4654440125457476,-0.3931961798704416,-0.6846486747995634,0.23731664964632976,1.2096038852036088,-0.14148811613878987
14702,5.0,300.13657,4729.9915,0.0,0.0,0.0,0.0,0.14653203450133373,0.0,-0.43825408445981057,-0.37653201541331666,-0.6230132082391163,0.25695385201687077,1.2223776252392788,-0.14070214816872087
14703,5.0,300.48793,4725.0014,0.0,0.0,0.0,0.0,0.14654200131091755,0.0,-0.4138683868206296,-0.3925714706537876,-0.6298425848406234,0.2201944961440048,1.187261923148629,-0.15537465809678486
14704,5.0,299.87541,4758.3027,0.0,0.0,0.0,0.0,0.14655196812050136,0.0,-0.4543989481081846,-0.37389708892576967,-0.6181091588151244,0.2558557422209958,1.192400621030779,-0.14662019749778687
14705,5.0,300.61177999999995,4587.4228,0.0,0.0,0.0,0.0,0.1465619349300852,0.0,-0.4149902066688446,-0.37640218767800365,-0.6030695990383355,0.24930289170427974,1.2213031748332388,-0.14412633568916186
14706,5.0,299.80858,4526.0123,0.0,0.0,0.0,0.0,0.146571901739669,0.0,-0.4173674636559616,-0.3728614966610646,-0.5855657744883425,0.2615546964809387,1.2445626348537688,-0.13487956726407688
14707,5.0,300.58396,4861.931,0.0,0.0,0.0,0.0,0.14658186854925284,0.0,-0.42919234563548664,-0.40522279994487664,-0.6434904861350664,0.23214062363049576,1.2011803318222687,-0.14558756392337385
14708,5.0,300.12073,4852.5663,0.0,0.0,0.0,0.0,0.14659183535883666,0.0,-0.4392642542795066,-0.4068714794475886,-0.6289232427598914,0.2229320952641848,1.2123341889230688,-0.15641783960473885
14709,5.0,299.83617000000004,4787.6616,0.0,0.0,0.0,0.0,0.14660180216842048,0.0,-0.42446520967895457,-0.3989499408282936,-0.6319144279825984,0.23089652476021277,1.2445797587804588,-0.15955583463443485
14710,5.0,301.19067,4884.3405,0.0,0.0,0.0,0.0,0.1466117689780043,0.0,-0.45227483139355057,-0.37861188349608366,-0.6538308553930814,0.26510263223609276,1.213834710996159,-0.14962104912644786
14711,5.0,300.53762,4795.1628,0.0,0.0,0.0,0.0,0.1466217357875881,0.0,-0.4222184491722166,-0.39994105141360864,-0.6354502351340554,0.24872687928743176,1.1765565305420889,-0.13865642661432387
14712,5.0,300.36897999999997,4749.6304,0.0,0.0,0.0,0.0,0.14663170259717193,0.0,-0.41798669118957466,-0.3898015285904156,-0.6359808235489204,0.2253366390764948,1.1703435849039188,-0.15957749792157286
14713,5.0,301.52993,4798.0348,0.0,0.0,0.0,0.0,0.14664166940675574,0.0,-0.4153300203548816,-0.37790541512886067,-0.6652473367873003,0.2345689990851578,1.206228242495459,-0.11708308568770089
14714,5.0,300.09969,4481.6894,0.0,0.0,0.0,0.0,0.1466516362163396,0.0,-0.3998684824414466,-0.3527876341599287,-0.6096655532143054,0.22197698545492278,1.2346375461492387,-0.12556015893932287
14715,5.0,299.38737000000003,4266.708,0.0,0.0,0.0,0.0,0.14666160302592338,0.0,-0.3907054692696276,-0.3274597760477637,-0.5788074368513464,0.24405089219594775,1.211818343297159,-0.11695164688472888
14716,5.0,300.10077,4706.2565,0.0,0.0,0.0,0.0,0.14667156983550722,0.0,-0.4534210604366745,-0.4053209129520596,-0.5718424772539585,0.2500278620183288,1.2092922094728489,-0.15645399236830684
14717,5.0,299.45992,4987.8049,0.0,0.0,0.0,0.0,0.14668153664509104,0.0,-0.49315595695070347,-0.39963174668808266,-0.6233804404728595,0.26406179133586977,1.2228393633098489,-0.12364744672555288
14718,5.0,299.80974,4780.1131,0.0,0.0,0.0,0.0,0.14669150345467485,0.0,-0.4402691248011795,-0.3930628057597786,-0.6197031025474343,0.26310838378677576,1.2192109147017487,-0.1245797888050679
14719,5.0,299.48276,4667.6267,0.0,0.0,0.0,0.0,0.14670147026425867,0.0,-0.39307369819835364,-0.41514526433164756,-0.6106230036312984,0.22702528116315077,1.2122183744366388,-0.14485417350099386
14720,5.0,299.41848999999996,4776.6965,0.0,0.0,0.0,0.0,0.1467114370738425,0.0,-0.4389881436272566,-0.37177368148620565,-0.6412346165099294,0.22569538027439978,1.214878054624129,-0.14047685200898585
14721,5.0,300.37995,4667.7093,0.0,0.0,0.0,0.0,0.14672140388342633,0.0,-0.4293406043901186,-0.3673250677171616,-0.6222014023914975,0.22822917426946582,1.2370973120919988,-0.15863543877359884
14722,5.0,300.0624,4368.6884,0.0,0.0,0.0,0.0,0.14673137069301015,0.0,-0.4094802742150566,-0.3452874657272197,-0.5732044576408755,0.21705283314894677,1.2089879304678188,-0.14516397471906886
14723,5.0,300.81354,4393.5961,0.0,0.0,0.0,0.0,0.14674133750259397,0.0,-0.39859202036296965,-0.3309179885065627,-0.6060334873033484,0.2245105464024658,1.184374970963709,-0.14095534923620986
14724,5.0,300.76781,4529.5078,0.0,0.0,0.0,0.0,0.14675130431217778,0.0,-0.38817625516501364,-0.4037583090453426,-0.5849227153123774,0.21564130483213978,1.192165040382529,-0.16357990674407982
14725,5.0,300.46738,4677.4187,0.0,0.0,0.0,0.0,0.1467612711217616,0.0,-0.38860119199195164,-0.38504750097622964,-0.6481698068193794,0.2605599077977608,1.2289612177640288,-0.14120919878376287
14726,5.0,300.57336000000004,4954.0659,0.0,0.0,0.0,0.0,0.14677123793134542,0.0,-0.4471751639052526,-0.41938988045805864,-0.6393472862111644,0.24266832256699877,1.2154747576080187,-0.13857441415122984
14727,5.0,299.98935,4846.3012,0.0,0.0,0.0,0.0,0.14678120474092926,0.0,-0.44806788790585755,-0.4153435675087186,-0.6097430769794564,0.26447179285633376,1.2129340329822687,-0.14153498908841586
14728,5.0,299.36364,4686.0871,0.0,0.0,0.0,0.0,0.14679117155051305,0.0,-0.45517904936017456,-0.37187839075153967,-0.5973960165608965,0.26039166775115674,1.2189061290716687,-0.15242084153776583
14729,5.0,299.58159,4859.5236,0.0,0.0,0.0,0.0,0.14680113836009687,0.0,-0.4380192840141376,-0.4032744922550936,-0.6358800659589764,0.26452722776930476,1.2364690970299987,-0.14056805465048688
14730,5.0,299.46002999999996,4648.8983,0.0,0.0,0.0,0.0,0.1468111051696807,0.0,-0.40277366299566564,-0.35364041584159167,-0.6567349416371924,0.24493309866051477,1.2246522703887688,-0.13061042035274487
14731,5.0,300.08771,4372.2895,0.0,0.0,0.0,0.0,0.14682107197926453,0.0,-0.35467869321906165,-0.33286337803605764,-0.6415247708085654,0.2269087979316548,1.2253642812340386,-0.12791208467393989
14732,5.0,299.624,4498.7891,0.0,0.0,0.0,0.0,0.14683103878884834,0.0,-0.3756950201682116,-0.3747067770806796,-0.6171177543872804,0.22134921622296677,1.240386625891629,-0.15860321742041883
14733,5.0,299.99933,4696.7277,0.0,0.0,0.0,0.0,0.14684100559843216,0.0,-0.4447062381815886,-0.3450658172678447,-0.6379158880598964,0.23330900232080576,1.2289254500354987,-0.14213475208760787
14734,5.0,298.95734,4750.0149,0.0,0.0,0.0,0.0,0.14685097240801598,0.0,-0.44773648419565054,-0.3952229739129706,-0.6009264737518254,0.23384270141347777,1.2149002448013189,-0.14999570848342386
14735,5.0,299.84115,4893.9414,0.0,0.0,0.0,0.0,0.1468609392175998,0.0,-0.4435759374300366,-0.40741110605334563,-0.6366489302673575,0.24134695324408978,1.1901052042542388,-0.15560080538660384
14736,5.0,300.57878999999997,4974.8796,0.0,0.0,0.0,0.0,0.14687090602718364,0.0,-0.4453084025835176,-0.3775810636393496,-0.6893496993010183,0.2565811077025838,1.199067604038759,-0.13098536341974887
14737,5.0,300.59193999999997,4797.8075,0.0,0.0,0.0,0.0,0.14688087283676746,0.0,-0.41186790688319763,-0.4150687740815986,-0.6314769977819273,0.25662576163449075,1.2273397136289987,-0.14510601681334886
14738,5.0,299.31022,4471.7726,0.0,0.0,0.0,0.0,0.14689083964635125,0.0,-0.3975992176499876,-0.34483951799051066,-0.6168684543326765,0.2681182367862097,1.200033636684099,-0.1103632008919999
14739,5.0,299.91311,4643.5112,0.0,0.0,0.0,0.0,0.1469008064559351,0.0,-0.4525334634815755,-0.35352365903256866,-0.6054543540761924,0.2464016121629458,1.2076653351122888,-0.12638762963348787
14740,5.0,299.84044,4703.1614,0.0,0.0,0.0,0.0,0.1469107732655189,0.0,-0.4472900158040876,-0.3924228065991156,-0.5899307951241365,0.26230203935719576,1.2056828099666288,-0.15004230785552286
14741,5.0,299.73073999999997,4569.1523,0.0,0.0,0.0,0.0,0.14692074007510275,0.0,-0.40516158950633563,-0.3441580059732507,-0.6395886018549803,0.26297254747836973,1.227089035554259,-0.17046298560088685
14742,5.0,299.16688999999997,4676.2359,0.0,0.0,0.0,0.0,0.14693070688468657,0.0,-0.38296213094541964,-0.4101831860744286,-0.6283136309697274,0.2315849674081568,1.2094595983893688,-0.15937078476867184
14743,5.0,298.76715,4653.0081,0.0,0.0,0.0,0.0,0.14694067369427036,0.0,-0.39426031539046363,-0.38423895779393263,-0.6358989934708444,0.21531497750493378,1.1864655085700289,-0.16011700293731784
14744,5.0,300.44836000000004,4747.0307,0.0,0.0,0.0,0.0,0.1469506405038542,0.0,-0.4222584522861646,-0.38684663798629065,-0.6338736990384635,0.2044698577096038,1.206995374146169,-0.15099824852986685
14745,5.0,300.26434,4925.4424,0.0,0.0,0.0,0.0,0.14696060731343802,0.0,-0.4902111076550696,-0.4134996245792356,-0.5935007690689654,0.2283082381747688,1.2265574845517988,-0.14710473369560687
14746,5.0,300.22515,4870.3536,0.0,0.0,0.0,0.0,0.14697057412302184,0.0,-0.4746920981959626,-0.36880620631583866,-0.6369675771588055,0.26494912484594274,1.2152198238828589,-0.11961830836540789
14747,5.0,300.27149,4668.0229,0.0,0.0,0.0,0.0,0.14698054093260568,0.0,-0.42496263441804655,-0.37860748599064964,-0.6153922806594895,0.23592506209149078,1.2212980072577289,-0.12987605721026887
14748,5.0,300.70403,4767.8648,0.0,0.0,0.0,0.0,0.14699050774218947,0.0,-0.3853291845040296,-0.3939332787881876,-0.6700493721912244,0.2994164481976027,1.2282388717677388,-0.12834692095435488
14749,5.0,301.0862,4867.9991,0.0,0.0,0.0,0.0,0.14700047455177329,0.0,-0.4434038470330526,-0.3414827825292267,-0.6948635429001924,0.2693412701869138,1.2296526596322688,-0.09785437914797532
14750,5.0,300.44507000000004,4619.1524,0.0,0.0,0.0,0.0,0.14701044136135713,0.0,-0.4078217661863746,-0.39091748172055163,-0.6053677515901454,0.2658135994337597,1.2151690600528489,-0.12801760453935387
14751,5.0,298.82345,4522.167,0.0,0.0,0.0,0.0,0.14702040817094095,0.0,-0.4440653980233426,-0.34085622919739067,-0.5897042121367744,0.22649852283366378,1.184177387194209,-0.13771844073175185
14752,5.0,299.99311,4977.9851,0.0,0.0,0.0,0.0,0.1470303749805248,0.0,-0.47694811980861457,-0.3965111694276056,-0.6397238808758314,0.23548029596009576,1.1911884699361488,-0.14314888371519488
14753,5.0,300.23762999999997,4929.0632,0.0,0.0,0.0,0.0,0.14704034179010858,0.0,-0.43242160410168956,-0.4229194662539016,-0.6429710536038024,0.24094975920488979,1.2166471892987287,-0.17052248364675884
14754,5.0,299.967,4525.4274,0.0,0.0,0.0,0.0,0.1470503085996924,0.0,-0.38251669606895866,-0.35394960910960666,-0.6391506244992553,0.2015862289850118,1.1823709649159289,-0.14460622106902285
14755,5.0,299.91548,4467.2838,0.0,0.0,0.0,0.0,0.14706027540927621,0.0,-0.38249223621154466,-0.36973293498979964,-0.6057175559221685,0.21537670470102582,1.2135440095424688,-0.16234904092010283
14756,5.0,300.21732000000003,4532.1373,0.0,0.0,0.0,0.0,0.14707024221886006,0.0,-0.4177924916754086,-0.3554961631347397,-0.6043679270539705,0.23888518106613174,1.227256728445809,-0.12368241398650388
14757,5.0,300.0583,4579.2247,0.0,0.0,0.0,0.0,0.14708020902844388,0.0,-0.4403256540242586,-0.3707700471296546,-0.5808742542728254,0.28143459251543174,1.2779608780249188,-0.15224828504573584
14758,5.0,300.10772000000003,4850.9572,0.0,0.0,0.0,0.0,0.14709017583802766,0.0,-0.46032065527011157,-0.4129498756049796,-0.6012993193911224,0.24989395088511276,1.2206724266459887,-0.13457137711366088
14759,5.0,299.45968999999997,4847.48,0.0,0.0,0.0,0.0,0.1471001426476115,0.0,-0.4253314169244426,-0.39717445307556665,-0.6510070084243894,0.25923286427429176,1.202166325494579,-0.16178172218911285
14760,5.0,299.63473999999997,4658.4366,0.0,0.0,0.0,0.0,0.14711010945719533,0.0,-0.38636741121899465,-0.4076386921583066,-0.6220423119932964,0.23027381164625577,1.2237708441267787,-0.16595697121367783
14761,5.0,300.48572,4824.9479,0.0,0.0,0.0,0.0,0.14712007626677917,0.0,-0.4269376513804656,-0.4107527947506446,-0.6289732365198254,0.25781975528732876,1.2175689429146987,-0.17947507517031083
14762,5.0,299.73081,5061.9968,0.0,0.0,0.0,0.0,0.147130043076363,0.0,-0.48977923006494656,-0.37419236013741064,-0.6747490288050444,0.20877562347954978,1.184838431559449,-0.12513477628234088
14763,5.0,301.24863999999997,4617.5942,0.0,0.0,0.0,0.0,0.14714000988594678,0.0,-0.43240870542791654,-0.38884025822054563,-0.5823843515593604,0.2054574725820738,1.207671211962869,-0.14905418635800288
14764,5.0,301.57284,4372.084,0.0,0.0,0.0,0.0,0.14714997669553062,0.0,-0.3858277339507326,-0.3364083348359177,-0.6067682962758685,0.24905032898435375,1.2233398075342388,-0.13360024782031787
14765,5.0,300.00901,4701.9457,0.0,0.0,0.0,0.0,0.14715994350511444,0.0,-0.3992598737688816,-0.3728244725024107,-0.6571897288120764,0.2641356268706568,1.2470787375020886,-0.12945181952589987
14766,5.0,299.32185,4864.8820000000005,0.0,0.0,0.0,0.0,0.14716991031469825,0.0,-0.4150989486695766,-0.3952284353310096,-0.6684752780283734,0.26383977810645876,1.1933255157220588,-0.1398555473126679
14767,5.0,298.84463,4790.5641,0.0,0.0,0.0,0.0,0.1471798771242821,0.0,-0.4284454283242716,-0.38175913963169367,-0.6460073081909574,0.24463919533650877,1.194585492221409,-0.12711296471757288
14768,5.0,298.57716,4841.5573,0.0,0.0,0.0,0.0,0.1471898439338659,0.0,-0.46353536346487856,-0.4097911190807346,-0.5983860531011054,0.25757942249610977,1.2425413022292788,-0.13803134249513288
14769,5.0,299.97197,4821.7345,0.0,0.0,0.0,0.0,0.1471998107434497,0.0,-0.4802369269831945,-0.3995583063208346,-0.5858916458530035,0.27402925415958174,1.2571018074912887,-0.12535675911424887
14770,5.0,299.24335,4606.4723,0.0,0.0,0.0,0.0,0.14720977755303355,0.0,-0.4204170019519276,-0.36947540734438367,-0.6103601564228573,0.23211375223784378,1.2113652178524388,-0.14090324791606787
14771,5.0,299.85416000000004,4721.5793,0.0,0.0,0.0,0.0,0.14721974436261737,0.0,-0.4101049429017066,-0.3951857572367976,-0.6299515092263733,0.2263642874604158,1.198361571369079,-0.15953112146449583
14772,5.0,301.0389,4662.2032,0.0,0.0,0.0,0.0,0.1472297111722012,0.0,-0.3880651421590476,-0.35428398164260666,-0.6748442236519394,0.2559894608366928,1.2041138935117888,-0.15137770055981586
14773,5.0,300.63082,4402.3081,0.0,0.0,0.0,0.0,0.147239677981785,0.0,-0.3864557463627126,-0.35950832955570966,-0.5922276709808204,0.23074041331730577,1.2329889882365388,-0.17324302976775582
14774,5.0,300.43405,4732.7601,0.0,0.0,0.0,0.0,0.14724964479136882,0.0,-0.4474706175019116,-0.37416470854218165,-0.6170055673362084,0.2555779901035838,1.1751997886581889,-0.14265676840662686
14775,5.0,299.17762,5013.2908,0.0,0.0,0.0,0.0,0.14725961160095263,0.0,-0.49791683413556553,-0.3804080415508506,-0.6455903456423064,0.22874477671535176,1.1953118912180989,-0.15005201479148086
14776,5.0,299.23501,4755.5197,0.0,0.0,0.0,0.0,0.14726957841053648,0.0,-0.3945818804421996,-0.42060984371095955,-0.6303675193199304,0.2404187857549868,1.2237274770224988,-0.14280084243834584
14777,5.0,298.62031,4647.0583,0.0,0.0,0.0,0.0,0.1472795452201203,0.0,-0.36917880877511167,-0.3958248647373726,-0.6475860025092623,0.2308480204779258,1.2382430953050787,-0.15459878209771186
14778,5.0,298.06891,4765.3508,0.0,0.0,0.0,0.0,0.14728951202970408,0.0,-0.38845453417247766,-0.4246125058459916,-0.6354806326370555,0.2258555244527048,1.2027817736053188,-0.13176452234914587
14779,5.0,298.76142000000004,4605.6847,0.0,0.0,0.0,0.0,0.14729947883928793,0.0,-0.42619667171483655,-0.37063627785145264,-0.6031802054192514,0.24909195329846176,1.230399728930999,-0.16504639374631086
14780,5.0,299.98879,4646.4293,0.0,0.0,0.0,0.0,0.14730944564887175,0.0,-0.45299754215987653,-0.35530187242806466,-0.6040990712724364,0.26231364107084076,1.2434468438436488,-0.13876342582488385
14781,5.0,300.65917,4722.9541,0.0,0.0,0.0,0.0,0.1473194124584556,0.0,-0.46721654160818255,-0.37676132404344764,-0.5916822384519904,0.25249839880965175,1.2368224173398688,-0.16576234613446986
14782,5.0,301.18163,4628.9529999999995,0.0,0.0,0.0,0.0,0.1473293792680394,0.0,-0.4166632953664656,-0.35694556674028466,-0.6334772548043374,0.2214187961073338,1.166135658563629,-0.13770700113812287
14783,5.0,300.53233,4508.5131,0.0,0.0,0.0,0.0,0.1473393460776232,0.0,-0.36427799161893865,-0.3514447434048957,-0.6547526698040574,0.23281631959218177,1.1951507844521987,-0.16102359833179186
14784,5.0,299.4244,4817.7829,0.0,0.0,0.0,0.0,0.14734931288720704,0.0,-0.39939489947720763,-0.37741269187023263,-0.6876781000810444,0.2532460861909428,1.1981813141762887,-0.12845471049999288
14785,5.0,300.38728,4894.6383,0.0,0.0,0.0,0.0,0.14735927969679086,0.0,-0.44854598996554257,-0.39262133269120864,-0.6466805115573974,0.25576583653962276,1.2331146312489387,-0.14677074619764485
14786,5.0,299.05688,4534.0853,0.0,0.0,0.0,0.0,0.14736924650637467,0.0,-0.43882557778121256,-0.38223312789597264,-0.5571899891478704,0.24479263179915176,1.2009115165707387,-0.14843218251911586
14787,5.0,300.11307,4621.2212,0.0,0.0,0.0,0.0,0.14737921331595852,0.0,-0.4554465372540736,-0.3796350533145626,-0.5696542724704995,0.2694588882585217,1.2305303368688887,-0.14561613757619388
14788,5.0,299.58232999999996,4896.8465,0.0,0.0,0.0,0.0,0.1473891801255423,0.0,-0.43799799562953656,-0.3990807514162036,-0.6514403248296544,0.24923582468016076,1.2424456514198388,-0.12050074787749789
14789,5.0,299.5623,4646.9628,0.0,0.0,0.0,0.0,0.14739914693512612,0.0,-0.37645118845283965,-0.3949889840673776,-0.6411204738861644,0.24586129654712077,1.2253737044599688,-0.14503243459108686
14790,5.0,299.64133,4694.6833,0.0,0.0,0.0,0.0,0.14740911374470997,0.0,-0.3853650636900706,-0.38571232476434264,-0.6559891186360853,0.21431363309360882,1.192321891498009,-0.14937308656197584
14791,5.0,300.74787000000003,4726.1771,0.0,0.0,0.0,0.0,0.14741908055429379,0.0,-0.42964139781480454,-0.37484304908662863,-0.6321553687238775,0.23448276136914675,1.220370680766209,-0.15538460821276684
14792,5.0,300.61477,4570.2491,0.0,0.0,0.0,0.0,0.14742904736387763,0.0,-0.43469175042073555,-0.3604844643045466,-0.5940653925546895,0.2648390250900768,1.2197081165258188,-0.16378941646725684
14793,5.0,300.24944,4754.2487,0.0,0.0,0.0,0.0,0.14743901417346142,0.0,-0.4628705194117636,-0.36284402994491766,-0.6194583215882764,0.2194446606725018,1.206246683647279,-0.16218842051425084
14794,5.0,299.83771,4824.1283,0.0,0.0,0.0,0.0,0.14744898098304524,0.0,-0.4043064165544366,-0.4167550451630206,-0.6453530728663894,0.2014811448171408,1.151869401130659,-0.16564635939552286
14795,5.0,299.77306,4468.1885,0.0,0.0,0.0,0.0,0.14745894779262908,0.0,-0.3508144815776937,-0.36766109184782464,-0.6397421497751344,0.2512705423384718,1.2298299783997688,-0.1409139073071199
14796,5.0,300.10341,4483.9589,0.0,0.0,0.0,0.0,0.1474689146022129,0.0,-0.36346520291872264,-0.3566563547642417,-0.6428899935958023,0.25056538106387777,1.2650639267770887,-0.14332284862486386
14797,5.0,299.2632,4931.2001,0.0,0.0,0.0,0.0,0.14747888141179671,0.0,-0.46553445524967363,-0.4195260004764926,-0.6139012527398364,0.2634703369874978,1.2561483391471888,-0.1297159130319639
14798,5.0,299.19649,5039.3382,0.0,0.0,0.0,0.0,0.1474888482213805,0.0,-0.5192255242685695,-0.37566575750532366,-0.6369417088837523,0.21426621298892878,1.2013166139607188,-0.14078979430237087
14799,5.0,299.69343,4814.3221,0.0,0.0,0.0,0.0,0.14749881503096435,0.0,-0.46473160653293855,-0.4007318019241496,-0.5979702861875724,0.2151324810294228,1.238586891064009,-0.14338020871302487
14800,5.0,299.96247999999997,4542.7917,0.0,0.0,0.0,0.0,0.14750878184054816,0.0,-0.38263925880105465,-0.35121170601439666,-0.6470442784757984,0.2626977337862478,1.2212860509065488,-0.15408590529459484
14801,5.0,299.93192,4717.8857,0.0,0.0,0.0,0.0,0.147518748650132,0.0,-0.4016602024607756,-0.35727283639008367,-0.6751864184757114,0.23064660662304776,1.211632006603769,-0.13116709995768486
14802,5.0,300.96947,4758.4764,0.0,0.0,0.0,0.0,0.1475287154597158,0.0,-0.38255993145072564,-0.39439276744353563,-0.6695052974175284,0.26613027048751275,1.1769017448511592,-0.16360897688944884
14803,5.0,300.88074,4813.4529999999995,0.0,0.0,0.0,0.0,0.14753868226929961,0.0,-0.43899632055556365,-0.3738402759926626,-0.6503329133978614,0.25504842507131975,1.218638023095209,-0.12771690230717686
14804,5.0,300.41092000000003,4720.3216,0.0,0.0,0.0,0.0,0.14754864907888346,0.0,-0.44819972187636864,-0.3717997828087817,-0.6148603851519954,0.2842914005098767,1.2392962674590189,-0.14458271366670286
14805,5.0,300.10891000000004,4561.5023,0.0,0.0,0.0,0.0,0.14755861588846728,0.0,-0.4410450615952585,-0.37152914370707163,-0.5740085830527364,0.22401792446884777,1.1927705586422888,-0.13518341057156388
14806,5.0,299.40592000000004,4823.1249,0.0,0.0,0.0,0.0,0.1475685826980511,0.0,-0.4140890220299046,-0.39937116915986565,-0.6526493348489744,0.20920918306483882,1.2004259671228188,-0.16135241825424385
14807,5.0,299.6245,4939.3664,0.0,0.0,0.0,0.0,0.1475785495076349,0.0,-0.4374077267837816,-0.40294399033747563,-0.6610923426322344,0.2086599103181298,1.2135146252895688,-0.13978497444320287
14808,5.0,300.43195,4782.0994,0.0,0.0,0.0,0.0,0.14758851631721873,0.0,-0.4110381969063116,-0.40318861930911865,-0.6394120024950514,0.25234013927653276,1.2520882459964888,-0.15924633739138983
14809,5.0,299.66266,4804.7068,0.0,0.0,0.0,0.0,0.14759848312680254,0.0,-0.4727499510667875,-0.3779310098263866,-0.6098299327780284,0.24060109984547975,1.2409102735433089,-0.14921992367685988
14810,5.0,299.43482,5021.3667,0.0,0.0,0.0,0.0,0.1476084499363864,0.0,-0.49459134730736554,-0.4165610584313756,-0.6152176875347585,0.26280233159407074,1.182569865910559,-0.15831704519467585
14811,5.0,300.06577000000004,4792.0651,0.0,0.0,0.0,0.0,0.1476184167459702,0.0,-0.4372882848619936,-0.38502674961418165,-0.6343530980582763,0.25504372359085575,1.211538686269559,-0.15796472800240485
14812,5.0,299.85933,4528.8181,0.0,0.0,0.0,0.0,0.14762838355555402,0.0,-0.35706363064193664,-0.3667243218653726,-0.6528596653047324,0.24132248325417477,1.2177544690080089,-0.15769226505051484
14813,5.0,299.66296,4594.8106,0.0,0.0,0.0,0.0,0.14763835036513784,0.0,-0.3957980338747246,-0.3559749947344967,-0.6449346816350974,0.24537158264128975,1.193768204690749,-0.15456332847671286
14814,5.0,299.76564,4688.7847,0.0,0.0,0.0,0.0,0.14764831717472165,0.0,-0.4095342804453866,-0.35969506141663865,-0.6560441279840143,0.19237010124295081,1.1866734274905488,-0.14431807300558488
14815,5.0,300.19784,4681.2756,0.0,0.0,0.0,0.0,0.1476582839843055,0.0,-0.4461922809107496,-0.3947112724799697,-0.5820873375575474,0.24625833859880575,1.209565381699809,-0.15023235304427884
14816,5.0,299.36037000000005,4849.8529,0.0,0.0,0.0,0.0,0.1476682507938893,0.0,-0.4687110247106765,-0.38624434186184864,-0.6192788142005604,0.25468585378803676,1.2187521150564686,-0.11654183788178389
14817,5.0,299.62212999999997,4839.5899,0.0,0.0,0.0,0.0,0.14767821760347313,0.0,-0.44894481533740355,-0.38256075218330665,-0.6396089276519864,0.25352869177633375,1.218235053530439,-0.13032644687971887
14818,5.0,300.46645,4627.076,0.0,0.0,0.0,0.0,0.14768818441305692,0.0,-0.38253067892033865,-0.3813543158192407,-0.6426305711726994,0.2584853086155137,1.203032451680059,-0.13199366885926087
14819,5.0,300.91899,4780.3803,0.0,0.0,0.0,0.0,0.14769815122264077,0.0,-0.4090089811960436,-0.3921617427108506,-0.6519455211970133,0.24966435854495375,1.2202689504561688,-0.15841212858405984
14820,5.0,299.58835,4991.6815,0.0,0.0,0.0,0.0,0.14770811803222458,0.0,-0.42950758800659855,-0.4018543310474346,-0.6859846247914113,0.2765927566475797,1.2322224645358888,-0.13812079221396087
14821,5.0,299.32158,4719.394,0.0,0.0,0.0,0.0,0.1477180848418084,0.0,-0.4746445767662726,-0.3738203048331916,-0.5861130409998534,0.24251050886392378,1.2181048508925887,-0.17694465529807785
14822,5.0,300.32211,4595.5958,0.0,0.0,0.0,0.0,0.14772805165139222,0.0,-0.4064750453459636,-0.37699775582178163,-0.6134735598726264,0.20661816070412478,1.218878872643979,-0.15456527391690483
14823,5.0,300.14396,4644.8459,0.0,0.0,0.0,0.0,0.14773801846097603,0.0,-0.41610206626857654,-0.35925537166824467,-0.6365597338610544,0.22361803518438178,1.2061814303408387,-0.16057846743036086
14824,5.0,299.30402999999995,4641.9297,0.0,0.0,0.0,0.0,0.14774798527055988,0.0,-0.36129020078406665,-0.36493491205627165,-0.6848056069750513,0.20303281575527882,1.2168125517150488,-0.14722635410510987
14825,5.0,298.6993,4675.1674,0.0,0.0,0.0,0.0,0.14775795208014367,0.0,-0.4137429261932476,-0.3742390405695176,-0.6331521737747543,0.24705542192247174,1.2079798479433288,-0.13943556527871886
14826,5.0,300.0714,4967.7551,0.0,0.0,0.0,0.0,0.1477679188897275,0.0,-0.4512081931457816,-0.4123586847016336,-0.6465066277077364,0.2564309237727617,1.187816474928359,-0.15323527170314385
14827,5.0,300.65311,4817.5158,0.0,0.0,0.0,0.0,0.14777788569931133,0.0,-0.4843579671274095,-0.39473764738007266,-0.5853088851904894,0.27915851868330077,1.233682760580009,-0.13645840343739588
14828,5.0,300.93496,4681.1919,0.0,0.0,0.0,0.0,0.14778785250889515,0.0,-0.40839216519766863,-0.39036813804633563,-0.6242051551267523,0.2731615878339497,1.2439296575162988,-0.16037161242244585
14829,5.0,300.89245,4883.0736,0.0,0.0,0.0,0.0,0.14779781931847896,0.0,-0.4296503245481855,-0.3927531666617196,-0.6619289528423014,0.24573734566238778,1.2263808750593688,-0.12193351391640089
14830,5.0,300.85615,4889.7802,0.0,0.0,0.0,0.0,0.14780778612806278,0.0,-0.4142218692505156,-0.38632566531487467,-0.6858235585555154,0.2077712393179248,1.2227184825729187,-0.14971327515054986
14831,5.0,300.3388,4625.2314,0.0,0.0,0.0,0.0,0.14781775293764662,0.0,-0.4036606418682036,-0.36882766695295666,-0.6334665447507803,0.2175745049629318,1.220873151490799,-0.14001899468629886
14832,5.0,299.74388,4551.7403,0.0,0.0,0.0,0.0,0.14782771974723044,0.0,-0.42394895875300465,-0.3509767738462107,-0.6086896717779934,0.24089348329433574,1.232545893967809,-0.14448445880450586
14833,5.0,299.24268,4834.7136,0.0,0.0,0.0,0.0,0.14783768655681423,0.0,-0.4954027377224435,-0.37408735702954765,-0.6001421067169144,0.23947578428441976,1.200221391927629,-0.13212711389743087
14834,5.0,299.49683,4593.0681,0.0,0.0,0.0,0.0,0.14784765336639807,0.0,-0.4236696563629396,-0.3722307991363197,-0.6002775478577814,0.2517593139217098,1.2130228950160389,-0.17045634881273183
14835,5.0,300.63367,4378.3411,0.0,0.0,0.0,0.0,0.1478576201759819,0.0,-0.37903853271569066,-0.33152861354682667,-0.6203392209602144,0.2269340683891488,1.2248386070821589,-0.14672260668539386
14836,5.0,299.69297,4671.4521,0.0,0.0,0.0,0.0,0.1478675869855657,0.0,-0.39120296493622664,-0.37596561873991763,-0.6528362085649173,0.27565096094463176,1.2397446306282687,-0.13976513500624485
14837,5.0,299.8536,4918.9725,0.0,0.0,0.0,0.0,0.14787755379514955,0.0,-0.4479859869002746,-0.4163080904114096,-0.6309507460774904,0.24989966561567678,1.215434835554079,-0.13505521416891186
14838,5.0,301.4876,4915.3983,0.0,0.0,0.0,0.0,0.14788752060473334,0.0,-0.4866736083759456,-0.4184021237305746,-0.5890826338629295,0.28926534392576675,1.2231112183116788,-0.14072851293632285
14839,5.0,300.07794,4902.2525,0.0,0.0,0.0,0.0,0.14789748741431716,0.0,-0.4682111884363465,-0.41882576359738466,-0.6031253987213424,0.27803202775212477,1.206250533997659,-0.13435686193498989
14840,5.0,300.0762,4585.7091,0.0,0.0,0.0,0.0,0.147907454223901,0.0,-0.3974415660669286,-0.37597014796786465,-0.6205293370764774,0.2396110531727698,1.2357252701315888,-0.15370952341244884
14841,5.0,300.30611,4392.3092,0.0,0.0,0.0,0.0,0.14791742103348482,0.0,-0.34534123891002666,-0.3531318352188987,-0.6366792467103494,0.2247571512118038,1.213196870058209,-0.15507676256738484
14842,5.0,301.17969,4759.7539,0.0,0.0,0.0,0.0,0.14792738784306864,0.0,-0.4041873799326886,-0.3931977504080966,-0.6494611940718295,0.16646889556170086,1.2277647720459488,-0.15623931506961988
14843,5.0,300.5942,4790.6092,0.0,0.0,0.0,0.0,0.14793735465265245,0.0,-0.4401024958222346,-0.36970227404177364,-0.6464208256892684,0.2237202214569668,1.239470749126239,-0.13726095831160187
14844,5.0,300.57788999999997,4538.6059,0.0,0.0,0.0,0.0,0.14794732146223627,0.0,-0.4367327907596706,-0.37268677181382065,-0.5702032919046834,0.24127095948658978,1.2462871865239686,-0.14714343984942688
14845,5.0,299.93518,4645.1927,0.0,0.0,0.0,0.0,0.1479572882718201,0.0,-0.4390097866493926,-0.3700701142255766,-0.6029426995958114,0.26579522920944676,1.2068133944282091,-0.14300425239592088
14846,5.0,300.88068,5056.7925,0.0,0.0,0.0,0.0,0.14796725508140393,0.0,-0.4420985377242285,-0.41635733436626965,-0.6786827798007753,0.24414749546048178,1.186632289536489,-0.15003137488694387
14847,5.0,299.91794,4988.2221,0.0,0.0,0.0,0.0,0.14797722189098775,0.0,-0.4177109858373646,-0.41844789223759166,-0.6801360844192054,0.25410709546341775,1.2287095264391887,-0.14903665713127287
14848,5.0,298.73552,4795.5447,0.0,0.0,0.0,0.0,0.14798718870057154,0.0,-0.4121383332023866,-0.38208346072370164,-0.6635040501227514,0.24403759835463576,1.250021418442509,-0.14391666384596885
14849,5.0,299.79771,4779.9834,0.0,0.0,0.0,0.0,0.14799715551015538,0.0,-0.47180606806863357,-0.39304607700062766,-0.5881434523452395,0.26205212122003074,1.2202246714267988,-0.12735853601180888
14850,5.0,299.91656,4528.0734,0.0,0.0,0.0,0.0,0.1480071223197392,0.0,-0.4499545899895606,-0.3335705252808477,-0.5928961323367924,0.2445857565262348,1.239089361788599,-0.12963333314881387
14851,5.0,299.77684,4513.9035,0.0,0.0,0.0,0.0,0.14801708912932304,0.0,-0.4341429336365715,-0.3349418579661877,-0.6030291399618424,0.24763623714479377,1.2188470565908387,-0.13521221727190688
14852,5.0,299.94512000000003,4734.3283,0.0,0.0,0.0,0.0,0.14802705593890686,0.0,-0.3983685176559116,-0.3851993162387126,-0.6555497531277233,0.22426930168615677,1.2208440712129287,-0.13604178539377887
14853,5.0,300.30896,4703.3295,0.0,0.0,0.0,0.0,0.14803702274849065,0.0,-0.3905920359209326,-0.36198946494307865,-0.6771132351308734,0.22168278828838778,1.189266334496449,-0.15152950568979787
14854,5.0,299.94327999999996,4611.8006,0.0,0.0,0.0,0.0,0.1480469895580745,0.0,-0.3752045868548096,-0.39065676233732066,-0.6360108765468864,0.23234465167063179,1.190418501185159,-0.15694983643724286
14855,5.0,299.85479,4891.0462,0.0,0.0,0.0,0.0,0.1480569563676583,0.0,-0.4971797048203165,-0.38395458915336766,-0.6056216315352014,0.27270535171142274,1.2350514588150887,-0.14209002722819386
14856,5.0,299.25234,4879.8679999999995,0.0,0.0,0.0,0.0,0.14806692317724213,0.0,-0.4775854034590095,-0.38200357608581764,-0.6237690624162134,0.26963744319114374,1.2296477960317886,-0.13613008000749285
14857,5.0,299.32202,4619.0465,0.0,0.0,0.0,0.0,0.14807688998682597,0.0,-0.4125033768159136,-0.3926054651946426,-0.5989659563983375,0.2767506007481577,1.215125794273579,-0.17112908608412586
14858,5.0,300.59407000000004,4630.1071,0.0,0.0,0.0,0.0,0.14808685679640976,0.0,-0.3788066099003016,-0.3777411976851537,-0.6508891269077554,0.21906135829217277,1.2181427464463288,-0.15476236119385586
14859,5.0,298.74769,4532.2711,0.0,0.0,0.0,0.0,0.14809682360599358,0.0,-0.38655219763973164,-0.36482725423314666,-0.6263177815852524,0.2430444511366198,1.2264907113702088,-0.17192387946256582
14860,5.0,298.49181,4529.8525,0.0,0.0,0.0,0.0,0.14810679041557742,0.0,-0.39199041225144166,-0.38101127999788564,-0.6039603472012455,0.21425364868768879,1.2677238096145986,-0.16403117794111682
14861,5.0,299.81631,4817.1095,0.0,0.0,0.0,0.0,0.14811675722516124,0.0,-0.5120828608686435,-0.36110577913336567,-0.5910923647737744,0.24636521621935376,1.2355430877636089,-0.14356251267101686
14862,5.0,299.81162,4993.4875,0.0,0.0,0.0,0.0,0.14812672403474506,0.0,-0.48461539344781557,-0.4136186308034806,-0.6196614681008253,0.23997674526636079,1.202890799316079,-0.14393429439770886
14863,5.0,299.40473,4697.6437,0.0,0.0,0.0,0.0,0.14813669084432887,0.0,-0.40864721038033963,-0.37800615245380265,-0.6413130420676694,0.23040595972429778,1.2112856777195888,-0.13338744503431585
14864,5.0,299.90182999999996,4748.1853,0.0,0.0,0.0,0.0,0.1481466576539127,0.0,-0.37800844239902864,-0.3915939578848146,-0.6737273788617153,0.23809011411016479,1.1905414084222887,-0.13655053826898886
14865,5.0,299.88728,5029.7417,0.0,0.0,0.0,0.0,0.1481566244634965,0.0,-0.41111871989175863,-0.41988266451169254,-0.6979144896137973,0.2236971497521898,1.184614807262379,-0.13185914977598487
14866,5.0,300.8221,4868.7695,0.0,0.0,0.0,0.0,0.14816659127308035,0.0,-0.47374632042012155,-0.37103357321566266,-0.6352044713223004,0.23631418052739378,1.2086389671333788,-0.14196412077076787
14867,5.0,300.41143999999997,4529.0475,0.0,0.0,0.0,0.0,0.14817655808266417,0.0,-0.45335561461271556,-0.36717210748206563,-0.5561896275891425,0.26892404419323673,1.231520890166649,-0.13834497379858587
14868,5.0,299.07391,4531.1608,0.0,0.0,0.0,0.0,0.14818652489224796,0.0,-0.4471672808194746,-0.35553690592126064,-0.5746555533740875,0.25830240683996275,1.2714914787864386,-0.13725411887342687
14869,5.0,299.71454,4829.8545,0.0,0.0,0.0,0.0,0.1481964917018318,0.0,-0.4130630657736506,-0.38301651207828663,-0.6720755785486954,0.27688138093856474,1.2214002441928187,-0.13289623151833688
14870,5.0,298.40087,4922.8768,0.0,0.0,0.0,0.0,0.14820645851141562,0.0,-0.42425136324534957,-0.4184223583350716,-0.6537578912533804,0.25210067788039975,1.1990947591414387,-0.14372364983441988
14871,5.0,298.95097999999996,5118.5744,0.0,0.0,0.0,0.0,0.14821642532099946,0.0,-0.4294484243332596,-0.4025757448536326,-0.7238946376103383,0.2554107633070798,1.2231952167449687,-0.14195411999228086
14872,5.0,298.49793999999997,4859.133,0.0,0.0,0.0,0.0,0.14822639213058328,0.0,-0.47904142358770757,-0.36721841301163566,-0.6307952527171444,0.24295912534569877,1.2381340695943186,-0.12978015308830387
14873,5.0,298.87801,4710.2517,0.0,0.0,0.0,0.0,0.14823635894016707,0.0,-0.46127385003668453,-0.3683912803998886,-0.6021337612459754,0.22659494371317976,1.2402268363508588,-0.13430154861203086
14874,5.0,299.9665,4992.1173,0.0,0.0,0.0,0.0,0.1482463257497509,0.0,-0.4695032646988645,-0.37820323973075365,-0.6697725016013995,0.20998877769177882,1.2043411655092187,-0.12516776770559687
14875,5.0,300.90979,4770.3552,0.0,0.0,0.0,0.0,0.14825629255933473,0.0,-0.40011448943322564,-0.40184875817188465,-0.6481056072930433,0.2100469078500158,1.2275378040235487,-0.1377809582629219
14876,5.0,299.74846,4308.285,0.0,0.0,0.0,0.0,0.14826625936891855,0.0,-0.3119673745362827,-0.3408824926399827,-0.6567612050797844,0.2224620181452918,1.249618043577699,-0.14016700012840586
14877,5.0,300.10033,4591.6537,0.0,0.0,0.0,0.0,0.1482762261785024,0.0,-0.38447243088197464,-0.37965010007854766,-0.6316255503790884,0.24047265013030275,1.220783073556909,-0.17270780066743285
14878,5.0,299.19448,4935.6471,0.0,0.0,0.0,0.0,0.14828619298808618,0.0,-0.4935438594864865,-0.4026679100827286,-0.6041017158551975,0.2465056729482158,1.202050511008149,-0.17361541944450784
14879,5.0,299.46614,4962.5439,0.0,0.0,0.0,0.0,0.14829615979767,0.0,-0.5133920711903525,-0.38218070233579865,-0.6129166472201635,0.26148576507663573,1.2287554266687188,-0.15950022746894685
14880,5.0,300.94475,4801.5452,0.0,0.0,0.0,0.0,0.14830612660725384,0.0,-0.4406232962411336,-0.38813739702367867,-0.6307891630840434,0.26339219513978573,1.2396252697664887,-0.16712939277188682
14881,5.0,300.26977999999997,4731.7694,0.0,0.0,0.0,0.0,0.14831609341683766,0.0,-0.4298701592898816,-0.36619599299823063,-0.6422736031624693,0.24289074109644976,1.2098107908740288,-0.12218942036165689
14882,5.0,299.9372,4843.5529,0.0,0.0,0.0,0.0,0.14832606022642147,0.0,-0.3918786507654116,-0.3881920314690706,-0.6922484659821043,0.2346690676650338,1.1869807462458788,-0.13464113938304587
14883,5.0,300.32729,4889.3774,0.0,0.0,0.0,0.0,0.1483360270360053,0.0,-0.4537999754440706,-0.3992288784483226,-0.6332197980864284,0.2278650527135298,1.220187789123159,-0.12460787609783987
14884,5.0,300.55233,4816.6973,0.0,0.0,0.0,0.0,0.1483459938455891,0.0,-0.46915156558915455,-0.35718614271152765,-0.6378179979677354,0.25318208931462677,1.250704855634959,-0.11955639878429787
14885,5.0,301.54597,4635.8186,0.0,0.0,0.0,0.0,0.14835596065517292,0.0,-0.47408466489351353,-0.35723975377431866,-0.5778486894742254,0.24789027920986578,1.225724694294609,-0.13687022880803987
14886,5.0,300.27317999999997,4716.5428,0.0,0.0,0.0,0.0,0.14836592746475677,0.0,-0.3964752193140576,-0.4051885926215006,-0.6320474373232254,0.2353204861543238,1.216089192468659,-0.16241160911377783
14887,5.0,299.45038,5059.0293,0.0,0.0,0.0,0.0,0.1483758942743406,0.0,-0.45076966863500256,-0.38584575967001167,-0.7012031448008623,0.24116787142141577,1.2180443598616189,-0.15563877186785086
14888,5.0,299.23266,4987.2888,0.0,0.0,0.0,0.0,0.14838586108392438,0.0,-0.39537404950288063,-0.41609971552834457,-0.7045375076999384,0.25463501903051977,1.2467894545985387,-0.14582244542905487
14889,5.0,299.44878,4469.4666,0.0,0.0,0.0,0.0,0.14839582789350822,0.0,-0.4028320768639306,-0.35201356174603365,-0.6037606153415335,0.25373930594211974,1.2382012480759488,-0.19368168256989382
14890,5.0,299.32136,4535.9762,0.0,0.0,0.0,0.0,0.14840579470309204,0.0,-0.4391365847669066,-0.35676187462965564,-0.5829250522102234,0.25389036126702774,1.2089937059933888,-0.14291627188973785
14891,5.0,300.50061,4931.3815,0.0,0.0,0.0,0.0,0.14841576151267588,0.0,-0.4783047502350035,-0.4096706335113436,-0.6110414455250954,0.2496732143508278,1.2380578731867988,-0.17585058837010184
14892,5.0,299.18351,4794.4767,0.0,0.0,0.0,0.0,0.1484257283222597,0.0,-0.41838292264117954,-0.37271740236434364,-0.6663008534462743,0.24760404618911677,1.242550928105229,-0.1193264923366079
14893,5.0,300.12698,4612.9208,0.0,0.0,0.0,0.0,0.1484356951318435,0.0,-0.38392265151021565,-0.39589449528424464,-0.6223956019056633,0.23691857407954275,1.2165922711433088,-0.15327212360928086
14894,5.0,301.30793,4716.9251,0.0,0.0,0.0,0.0,0.14844566194142733,0.0,-0.3921099554982396,-0.3912620475495576,-0.6504554355999533,0.2211754438308168,1.1879505279165887,-0.13350360402577988
14895,5.0,300.95632,4800.3131,0.0,0.0,0.0,0.0,0.14845562875101115,0.0,-0.43834353417863864,-0.37893772446324164,-0.6418940700725124,0.2231942433300568,1.2175020684080988,-0.16337746950660084
14896,5.0,300.79753999999997,5006.186,0.0,0.0,0.0,0.0,0.14846559556059497,0.0,-0.47978685142127553,-0.4246848721681336,-0.6172838058136684,0.23817360591840475,1.2495823771741787,-0.15312271988203585
14897,5.0,299.46423,5059.4953,0.0,0.0,0.0,0.0,0.1484755623701788,0.0,-0.4814494529803615,-0.37544257903829764,-0.6810682035836984,0.23464348310000877,1.2289070088836789,-0.15713857453336988
14898,5.0,299.06948,4684.7131,0.0,0.0,0.0,0.0,0.1484855291797626,0.0,-0.4138862808173956,-0.37708739805812863,-0.6330621059733653,0.24713573212539777,1.218899644271029,-0.15180976053495684
14899,5.0,300.07069,4493.2126,0.0,0.0,0.0,0.0,0.14849549598934642,0.0,-0.37276578505661867,-0.3626613409518876,-0.6303973190053713,0.26229799648929675,1.2439543808187388,-0.14351347136617687
14900,5.0,300.17497000000003,4845.6656,0.0,0.0,0.0,0.0,0.14850546279893026,0.0,-0.42969993327308165,-0.36323245937075266,-0.6800289433536313,0.2727774039260337,1.2377743658088187,-0.12036603627670288
14901,5.0,299.25181000000003,4926.6137,0.0,0.0,0.0,0.0,0.14851542960851408,0.0,-0.4755518814358165,-0.39034967662951364,-0.6316659891905795,0.2675778198453747,1.2237700335266988,-0.09660891137680722
14902,5.0,299.75372999999996,4729.9242,0.0,0.0,0.0,0.0,0.14852539641809792,0.0,-0.45914543714162653,-0.3661381060200177,-0.6124953276960824,0.2566234210267597,1.2126652177307387,-0.15089719709739385
14903,5.0,299.8228,4734.2279,0.0,0.0,0.0,0.0,0.1485353632276817,0.0,-0.4295974024954626,-0.3681797644415137,-0.6413099009923594,0.22767547361981977,1.2300539066718688,-0.1039685288483949
14904,5.0,300.32802999999996,4811.7299,0.0,0.0,0.0,0.0,0.14854533003726553,0.0,-0.4006637723124356,-0.4062918091978796,-0.6556901693265813,0.2149612620275248,1.2420693303326988,-0.16428888797155083
14905,5.0,298.22656,4761.6089,0.0,0.0,0.0,0.0,0.14855529684684934,0.0,-0.3923371970981666,-0.37539154163076066,-0.6796814796293393,0.2147705176961998,1.217156347473979,-0.13559964358014287
14906,5.0,298.2695,4661.0844,0.0,0.0,0.0,0.0,0.1485652636564332,0.0,-0.4082602096371456,-0.3900701209269236,-0.6185229498909625,0.21550812323899582,1.207660066211769,-0.20219817125040582
14907,5.0,299.70878,4566.8846,0.0,0.0,0.0,0.0,0.148575230466017,0.0,-0.42583571149921257,-0.3793630564577187,-0.5830201254671064,0.2558501693454458,1.205357961984569,-0.15177494526152085
14908,5.0,300.82725,4398.4084,0.0,0.0,0.0,0.0,0.1485851972756008,0.0,-0.4007315080816206,-0.3478928255768487,-0.5883820119487834,0.27213912729054074,1.225427305390259,-0.16042998576070686
14909,5.0,299.96852,4654.7541,0.0,0.0,0.0,0.0,0.14859516408518464,0.0,-0.3955928608619756,-0.4195348056198616,-0.5998013405757835,0.24591530277745077,1.2211825980713387,-0.16724725402351884
14910,5.0,299.90847,5021.7169,0.0,0.0,0.0,0.0,0.14860513089476846,0.0,-0.47040409470026956,-0.39535534490603463,-0.6607170854576994,0.2512390606578648,1.1918649157029089,-0.1312849916068199
14911,5.0,300.14598,4826.4801,0.0,0.0,0.0,0.0,0.1486150977043523,0.0,-0.41395577964175456,-0.39221475595608263,-0.6609588975940643,0.24528119059986875,1.227729308292449,-0.15063983157199384
14912,5.0,299.74447000000004,4517.8868,0.0,0.0,0.0,0.0,0.1486250645139361,0.0,-0.3994964676672316,-0.3738169408428596,-0.6000113670565115,0.25527638607881775,1.2429796342225388,-0.14489875650539386
14913,5.0,299.84694,4979.4903,0.0,0.0,0.0,0.0,0.1486350313235199,0.0,-0.47560622203867947,-0.38113790586288265,-0.6568965955581464,0.24275709340825977,1.2216979370721988,-0.13021020682824685
14914,5.0,299.61312000000004,5211.9466,0.0,0.0,0.0,0.0,0.14864499813310375,0.0,-0.49467525454814654,-0.43652661462932263,-0.6530997650484284,0.24059540537991775,1.2140564101180387,-0.14627194343841685
14915,5.0,299.97823999999997,4708.8024,0.0,0.0,0.0,0.0,0.14865496494268757,0.0,-0.4059310414997746,-0.3825927708864666,-0.6428345282853284,0.2223920937558908,1.2295307656452388,-0.14214077079320186
14916,5.0,301.18403,4388.9381,0.0,0.0,0.0,0.0,0.14866493175227138,0.0,-0.38489895851156963,-0.3296759870639867,-0.6195526450400854,0.2753287879428358,1.2345067355613288,-0.14554869564953787
14917,5.0,301.28594,4584.6325,0.0,0.0,0.0,0.0,0.1486748985618552,0.0,-0.40742283948950364,-0.3734632051004486,-0.6127277672690223,0.23258545055689678,1.2200613355106789,-0.15603953254740285
14918,5.0,300.51014,4900.3262,0.0,0.0,0.0,0.0,0.14868486537143902,0.0,-0.48103424335438355,-0.38063159492041365,-0.6279109552474864,0.2750655759643587,1.2204171889457989,-0.14022963924958787
14919,5.0,301.05848,5045.7922,0.0,0.0,0.0,0.0,0.14869483218102283,0.0,-0.5044047251883705,-0.40839307712275863,-0.6209970431901365,0.25312727248421674,1.2313860265783387,-0.12992687170278386
14920,5.0,300.48248,4886.4138,0.0,0.0,0.0,0.0,0.14870479899060668,0.0,-0.4534141196734896,-0.38325956037977366,-0.6486741013941494,0.27865510563611773,1.2327933296422289,-0.1154577919972969
14921,5.0,300.43286,4569.1079,0.0,0.0,0.0,0.0,0.1487147658001905,0.0,-0.38584079474452165,-0.3573222221999577,-0.6457317041637574,0.2409613609185348,1.1945118289391388,-0.12524187681791088
14922,5.0,299.97485,4885.9984,0.0,0.0,0.0,0.0,0.1487247326097743,0.0,-0.39948341700594364,-0.4256698728553456,-0.6600682406236633,0.24330348852468475,1.194969716659329,-0.14484885393796887
14923,5.0,299.39221000000003,5236.7431,0.0,0.0,0.0,0.0,0.14873469941935813,0.0,-0.47241752397397957,-0.4058516736194416,-0.7135699534638713,0.2322634498076178,1.237173711149539,-0.16325280934679784
14924,5.0,300.0129,4755.746,0.0,0.0,0.0,0.0,0.14874466622894195,0.0,-0.4398064444080166,-0.38051232525114265,-0.6253092633632193,0.2503721745348098,1.2685320792193688,-0.15510768696043684
14925,5.0,300.02097000000003,4267.0528,0.0,0.0,0.0,0.0,0.14875463303852576,0.0,-0.3932454542228046,-0.3557613813484147,-0.5480706673203635,0.23863328709127177,1.2476015745536886,-0.19879376237191682
14926,5.0,300.79952000000003,4721.6949,0.0,0.0,0.0,0.0,0.14876459984810958,0.0,-0.42898291697231755,-0.3629216651675796,-0.6433727566059474,0.21005400060071583,1.2398897280425887,-0.14700941725869984
14927,5.0,300.80829,4893.404,0.0,0.0,0.0,0.0,0.14877456665769342,0.0,-0.42301303990063654,-0.4074344716006516,-0.6570251263333314,0.2304567032893058,1.236882300420779,-0.17498215197439382
14928,5.0,300.56392999999997,4628.1978,0.0,0.0,0.0,0.0,0.1487845334672772,0.0,-0.3962884874531286,-0.36669605218758267,-0.6438720254602214,0.2370925997842178,1.2248300957813187,-0.13246412088069087
14929,5.0,299.93502,4636.1236,0.0,0.0,0.0,0.0,0.14879450027686106,0.0,-0.42394414581502954,-0.34419647907954765,-0.6411251753666284,0.25229902158747475,1.2008120154109188,-0.13589212835400888
14930,5.0,299.5245,4879.9376,0.0,0.0,0.0,0.0,0.14880446708644487,0.0,-0.4697673176749246,-0.4044782333738936,-0.6091336374418094,0.2925752064374247,1.210548740921859,-0.13069131824072885
14931,5.0,299.06768999999997,4938.1061,0.0,0.0,0.0,0.0,0.1488144338960287,0.0,-0.48733769249148556,-0.36640549258890664,-0.6473177648102895,0.2833378409732677,1.2315116695907387,-0.13422672009214587
14932,5.0,299.48152999999996,5127.1951,0.0,0.0,0.0,0.0,0.1488244007056125,0.0,-0.48041946398870955,-0.4163672844822516,-0.6617525358673904,0.27422691898908974,1.2530716052185387,-0.1234032838489559
14933,5.0,298.78767999999997,4924.1731,0.0,0.0,0.0,0.0,0.14883436751519633,0.0,-0.4176939227056806,-0.3877075661987576,-0.6914241870257544,0.24213155332652375,1.2067152104935188,-0.13184207651179988
14934,5.0,299.77156,4520.002,0.0,0.0,0.0,0.0,0.14884433432478014,0.0,-0.3879097703887136,-0.34808805860611663,-0.6379699145552283,0.24925836949488578,1.2040754913329987,-0.15989545580295284
14935,5.0,300.56138,4622.291,0.0,0.0,0.0,0.0,0.14885430113436396,0.0,-0.40556347489349864,-0.3889929043481106,-0.6105046762846204,0.22852063566073078,1.243930468116379,-0.15675426903544185
14936,5.0,300.38912,4831.7795,0.0,0.0,0.0,0.0,0.1488642679439478,0.0,-0.5000071184293605,-0.3525930698757267,-0.6161401200282954,0.25267382279946476,1.2513892047524988,-0.14704829566503685
14937,5.0,300.3266,4685.4933,0.0,0.0,0.0,0.0,0.14887423475353162,0.0,-0.4376999379801206,-0.38366953150273464,-0.6029035172144444,0.2270892577744648,1.2474861653672988,-0.14071157139465085
14938,5.0,299.62635,4477.3744,0.0,0.0,0.0,0.0,0.14888420156311544,0.0,-0.4077775378195096,-0.3662842369494397,-0.5869482427922814,0.2250896897621228,1.244723842944679,-0.1763748541043428
14939,5.0,299.46997000000005,4785.3835,0.0,0.0,0.0,0.0,0.14889416837269925,0.0,-0.3886196331437716,-0.37763266846694266,-0.6883848014957903,0.26061688285088375,1.2253593163085488,-0.1281422849641589
14940,5.0,300.21795,4969.163,0.0,0.0,0.0,0.0,0.14890413518228307,0.0,-0.4144087429664586,-0.4338490809750706,-0.6622436581908604,0.23254361346026778,1.2404718402250388,-0.15944159068565986
14941,5.0,299.38836000000003,4965.4368,0.0,0.0,0.0,0.0,0.14891410199186692,0.0,-0.42622286422992156,-0.4055495325721226,-0.6775964135735594,0.25226089298621174,1.2071278059342387,-0.12017718672306488
14942,5.0,299.60167,4946.0365,0.0,0.0,0.0,0.0,0.14892406880145073,0.0,-0.4911617085013866,-0.39068241782985264,-0.6216274570048533,0.23640331613869076,1.2111532459315189,-0.15204509800318283
14943,5.0,299.38675,4737.5119,0.0,0.0,0.0,0.0,0.14893403561103452,0.0,-0.41705393367751864,-0.3965445357533986,-0.6264868524969385,0.24802331894799576,1.2328637505241788,-0.14081456826731586
14944,5.0,298.81587,4414.1743,0.0,0.0,0.0,0.0,0.14894400242061837,0.0,-0.3950419669151066,-0.3272908672560937,-0.6194659310965274,0.2324991723108818,1.2428231884070988,-0.16406234551419285
14945,5.0,299.1996,4704.4686,0.0,0.0,0.0,0.0,0.14895396923020218,0.0,-0.38331694073293665,-0.3843199671394276,-0.6624040759466924,0.22096689669523475,1.214480657934909,-0.15189616037098386
14946,5.0,299.61986,4989.3304,0.0,0.0,0.0,0.0,0.148963936039786,0.0,-0.44935495871288156,-0.3927714152960206,-0.6745054941435094,0.24709089580847277,1.2221611950179188,-0.15645783258618584
14947,5.0,299.68473,4615.5248,0.0,0.0,0.0,0.0,0.14897390284936984,0.0,-0.4150205231118366,-0.36473459251150164,-0.6232491739224044,0.26141189914434576,1.2195796364131386,-0.12889637608608187
14948,5.0,300.49001,4564.6798,0.0,0.0,0.0,0.0,0.14898386965895363,0.0,-0.45279999892038053,-0.37261437509417566,-0.5621343051308365,0.27072475174095273,1.2491215510286988,-0.1343502251468349
14949,5.0,300.21307,4927.5056,0.0,0.0,0.0,0.0,0.14899383646853745,0.0,-0.4759760380601775,-0.35807248323650265,-0.6637901412884863,0.24715029252933476,1.225101038858059,-0.0964142295555936
14950,5.0,299.83455,4966.608,0.0,0.0,0.0,0.0,0.1490038032781213,0.0,-0.4620035623612016,-0.3938701330419556,-0.6538511102625804,0.22793802698573176,1.2337565251872888,-0.12509616132102988
14951,5.0,300.1104,4789.9716,0.0,0.0,0.0,0.0,0.1490137700877051,0.0,-0.40321087028131464,-0.3868890526354766,-0.6659318480248564,0.2201459108017098,1.2322049353091589,-0.14149489478195887
14952,5.0,299.55334,4743.4721,0.0,0.0,0.0,0.0,0.14902373689728893,0.0,-0.4282968047996036,-0.35691303127957363,-0.6566872479549853,0.23133527218601377,1.2332626670885487,-0.13414541690412188
14953,5.0,299.44223999999997,4609.2176,0.0,0.0,0.0,0.0,0.14903370370687274,0.0,-0.4164885806517226,-0.37237340395539364,-0.6122250736294104,0.2498482127755988,1.2178209382145688,-0.17304514202322582
14954,5.0,299.05003999999997,4737.5943,0.0,0.0,0.0,0.0,0.14904367051645656,0.0,-0.4668503428895416,-0.35660958313962565,-0.6166504434411604,0.25538034553907774,1.2243467754836188,-0.13955268685777789
14955,5.0,298.37458,5019.7319,0.0,0.0,0.0,0.0,0.14905363732604038,0.0,-0.46955722026668956,-0.40811313638513064,-0.6482028185076374,0.28104397446938073,1.2463819254083188,-0.15100167331520487
14956,5.0,299.02212000000003,4927.5076,0.0,0.0,0.0,0.0,0.14906360413562422,0.0,-0.4369985054658946,-0.4080883826851876,-0.6527523722516434,0.25415692710333576,1.2273568375556887,-0.13577203795215687
14957,5.0,299.262,4632.9503,0.0,0.0,0.0,0.0,0.14907357094520804,0.0,-0.37964529727307367,-0.36220196375405067,-0.6664539454038834,0.24106683012144378,1.1959965443106688,-0.17173874853679483
14958,5.0,299.98265,4843.9554,0.0,0.0,0.0,0.0,0.14908353775479183,0.0,-0.4253891316501386,-0.4162914832422706,-0.6307608630087504,0.2251210802502208,1.228932340136179,-0.15231278854710184
14959,5.0,299.65913,4931.8258,0.0,0.0,0.0,0.0,0.14909350456437567,0.0,-0.4543815506039676,-0.39777937351776765,-0.6469909916530394,0.24969775526824975,1.2434701485959487,-0.13724998481301887
14960,5.0,300.25991,4682.0086,0.0,0.0,0.0,0.0,0.1491034713739595,0.0,-0.45062364916309156,-0.36578112787728667,-0.6068089174723774,0.23357817220987076,1.262739632372699,-0.13057846244459087
14961,5.0,300.96738999999997,4589.2679,0.0,0.0,0.0,0.0,0.14911343818354333,0.0,-0.4111354993134146,-0.38978872110915164,-0.5940986170254685,0.2170837474094978,1.2129740563612188,-0.15620386144862086
14962,5.0,300.47168999999997,4706.1186,0.0,0.0,0.0,0.0,0.14912340499312715,0.0,-0.43037605479980956,-0.3532719778402296,-0.6468945201110183,0.26082097168602575,1.232293290717879,-0.14323742150893287
14963,5.0,299.70937000000004,4758.3537,0.0,0.0,0.0,0.0,0.14913337180271094,0.0,-0.39621336509071464,-0.4007231285032936,-0.6494842252466023,0.22873441116682877,1.248380966530609,-0.16797406845274984
14964,5.0,299.95485,4939.7409,0.0,0.0,0.0,0.0,0.14914333861229478,0.0,-0.4466555287239685,-0.4015322289731456,-0.6533701305726114,0.2548212240013968,1.249993756714779,-0.16427513816769385
14965,5.0,299.6804,5002.0764,0.0,0.0,0.0,0.0,0.1491533054218786,0.0,-0.4579000413112156,-0.37759308078553566,-0.6850132016555394,0.23462974342865278,1.200699139349779,-0.14045301023413287
14966,5.0,299.77586,4832.3533,0.0,0.0,0.0,0.0,0.14916327223146242,0.0,-0.4431147363820196,-0.4122070619566696,-0.6135929511319094,0.2643880173380657,1.2474521201639386,-0.15296252504122584
14967,5.0,299.11801,4709.7869,0.0,0.0,0.0,0.0,0.14917323904104626,0.0,-0.4284339482006386,-0.35117366860564264,-0.6520500075473254,0.27225392852687075,1.242754388725309,-0.12418967738406689
14968,5.0,299.12633,4907.0814,0.0,0.0,0.0,0.0,0.14918320585063005,0.0,-0.46262427937246153,-0.3874580026991276,-0.6415479337058514,0.24462762402036678,1.214410439702979,-0.11609799380797989
14969,5.0,299.85151,4874.0109,0.0,0.0,0.0,0.0,0.14919317266021387,0.0,-0.4200685452425376,-0.4022179662433226,-0.6592910777969634,0.20529168460071182,1.202027408905869,-0.14572824356725786
14970,5.0,300.5967,4731.5783,0.0,0.0,0.0,0.0,0.1492031394697977,0.0,-0.39915741391876963,-0.39136947232515956,-0.6477547593134174,0.23824101744755777,1.213891959626809,-0.15138388138542586
14971,5.0,300.11519,4968.4666,0.0,0.0,0.0,0.0,0.14921310627938153,0.0,-0.44603691927291655,-0.43278709354526057,-0.6314657507058173,0.26954374795439673,1.2713176050692787,-0.14823381854703885
14972,5.0,299.25352999999996,4986.597,0.0,0.0,0.0,0.0,0.14922307308896535,0.0,-0.49024867896877755,-0.3715836565624516,-0.6539686270091785,0.22650368027667278,1.2510153154655987,-0.13860389972913986
14973,5.0,299.68233,4797.7244,0.0,0.0,0.0,0.0,0.14923303989854916,0.0,-0.4258505454806766,-0.4065992900732256,-0.6259386031328303,0.2312040562980638,1.2203901351681288,-0.16288958958345084
14974,5.0,301.3438,4731.8829,0.0,0.0,0.0,0.0,0.14924300670813298,0.0,-0.43412211134701656,-0.3931603108169016,-0.6110918141875664,0.22589916513451178,1.2283592458796189,-0.15798626969953083
14975,5.0,300.06519,4672.9154,0.0,0.0,0.0,0.0,0.1492529735177168,0.0,-0.3888916705306196,-0.37152129101879666,-0.6600366373530444,0.26210954210319776,1.255348276868229,-0.17230949205312285
14976,5.0,299.51756,4452.6893,0.0,0.0,0.0,0.0,0.14926294032730064,0.0,-0.38961166578667766,-0.3481366034184077,-0.6157580842105914,0.25573850918442576,1.2388596579909288,-0.15418515314188982
14977,5.0,299.48541,4691.5047,0.0,0.0,0.0,0.0,0.14927290713688446,0.0,-0.4101060676093176,-0.36472563538061764,-0.6512685688052035,0.23155696117539276,1.199202872927109,-0.13447402404405287
14978,5.0,298.65382999999997,4956.5957,0.0,0.0,0.0,0.0,0.14928287394646825,0.0,-0.47080533160736854,-0.3737939096680866,-0.6620820954624154,0.24882006789912875,1.227683306737909,-0.1080461309608229
14979,5.0,299.45297999999997,4833.9283,0.0,0.0,0.0,0.0,0.1492928407560521,0.0,-0.4354436833199456,-0.39956998909448765,-0.6343798377284153,0.2614995250129937,1.2411853709454588,-0.1126469450273879
14980,5.0,299.82259,4871.6777,0.0,0.0,0.0,0.0,0.1493028075656359,0.0,-0.4835293413281306,-0.37664502319696963,-0.6206940003502284,0.24434081344706077,1.2253000411776989,-0.11542330096389289
14981,5.0,298.84694,5041.7519,0.0,0.0,0.0,0.0,0.14931277437521975,0.0,-0.4671649671780925,-0.4098846420649646,-0.6555170758119984,0.21486979594099778,1.184021751978849,-0.15462123571992786
14982,5.0,300.03617,4910.9683,0.0,0.0,0.0,0.0,0.14932274118480357,0.0,-0.46204841894312854,-0.3962935334386266,-0.6344697839397924,0.2263929725707468,1.216583050567399,-0.14282770369849687
14983,5.0,300.55185,4604.8866,0.0,0.0,0.0,0.0,0.14933270799438736,0.0,-0.4124776402633736,-0.36062377606079565,-0.6266691260574274,0.25899808409362074,1.2580595314858087,-0.13939863231257385
14984,5.0,300.17796,4632.1612,0.0,0.0,0.0,0.0,0.1493426748039712,0.0,-0.4298244515778705,-0.3569636431220687,-0.6212732551673964,0.24068936406169078,1.241458340522399,-0.13433057822739589
14985,5.0,300.08822000000004,4583.0278,0.0,0.0,0.0,0.0,0.14935264161355502,0.0,-0.4308484826589346,-0.3390658973306987,-0.6232116431387004,0.24946583245286075,1.2125391694182988,-0.1309986167310569
14986,5.0,299.58712,4543.0394,0.0,0.0,0.0,0.0,0.14936260842313884,0.0,-0.4099297823569196,-0.36386924652859864,-0.6071715191531634,0.23037609924385077,1.2272531820704589,-0.15599331821034185
14987,5.0,300.46466000000004,4917.1002,0.0,0.0,0.0,0.0,0.14937257523272268,0.0,-0.4100393653552346,-0.4351031806238406,-0.6495331550939314,0.2631896971073008,1.2489587217376288,-0.16528352466721383
14988,5.0,300.67915,5020.9174,0.0,0.0,0.0,0.0,0.14938254204230647,0.0,-0.45656095024405763,-0.3962686480161706,-0.6734039190322924,0.26206775566907375,1.2125095825153789,-0.14120346378819687
14989,5.0,300.05532999999997,4791.9863,0.0,0.0,0.0,0.0,0.1493925088518903,0.0,-0.38852416471934964,-0.4372476231354806,-0.6308723914472574,0.2101905056541878,1.2386648099966988,-0.17957155684483284
14990,5.0,300.86352999999997,4869.5024,0.0,0.0,0.0,0.0,0.14940247566147413,0.0,-0.44044099228314154,-0.4028234237080766,-0.6369427322663535,0.22989041807341778,1.239674108421309,-0.14335322586286187
14991,5.0,300.63749,4916.2717,0.0,0.0,0.0,0.0,0.14941244247105795,0.0,-0.4623847065188176,-0.3980244787169576,-0.6340146522598744,0.24388608706718276,1.2587309110020688,-0.14177630473223185
14992,5.0,299.9379,4803.2297,0.0,0.0,0.0,0.0,0.14942240928064177,0.0,-0.44375448223015757,-0.3930953108229866,-0.6232120889687444,0.24179849801865377,1.2397889096576387,-0.14749007270863687
14993,5.0,299.59884,4722.6433,0.0,0.0,0.0,0.0,0.14943237609022558,0.0,-0.4044569956517976,-0.38208832432418166,-0.6490202985558163,0.24870601646787277,1.1801665379983688,-0.18018067214244782
14994,5.0,299.43577,4852.5381,0.0,0.0,0.0,0.0,0.1494423428998094,0.0,-0.4291227150886146,-0.39375974957606164,-0.6521679599914664,0.27378284186776275,1.2285061671441189,-0.12807426548494588
14995,5.0,299.46269,4763.3454,0.0,0.0,0.0,0.0,0.14945230970939322,0.0,-0.3958775436100716,-0.37926221780776664,-0.6727982791825203,0.24339601852381676,1.2554819245564188,-0.15635136026567786
14996,5.0,299.9419,4791.7938,0.0,0.0,0.0,0.0,0.14946227651897706,0.0,-0.45562379522656754,-0.3700872178872647,-0.6308746611274814,0.25892957825435975,1.2342893934148789,-0.08436120013055222
14997,5.0,299.93438,4969.0825,0.0,0.0,0.0,0.0,0.14947224332856088,0.0,-0.48466329991254353,-0.38171811313514464,-0.6440955889622855,0.2020589101566618,1.2356310378722888,-0.14725511014294784
14998,5.0,300.45687999999996,4815.0885,0.0,0.0,0.0,0.0,0.14948221013814467,0.0,-0.4619457665754975,-0.36461060109676463,-0.6371103137003924,0.25886532806551876,1.2607734205536487,-0.10993739266997589
14999,5.0,300.81957,4733.3240000000005,0.0,0.0,0.0,0.0,0.1494921769477285,0.0,-0.4200883441494916,-0.39267839893684064,-0.6260455415483844,0.24915718633989975,1.276544759685159,-0.17418381222060383
15000,5.0,300.87068999999997,5063.0097,0.0,0.0,0.0,0.0,0.14950214375731233,0.0,-0.4702652895690706,-0.3982480928815266,-0.6705151328646913,0.25257271057198577,1.233584475320309,-0.13962687703009988
15001,5.0,300.26327000000003,4932.5561,0.0,0.0,0.0,0.0,0.14951211056689617,0.0,-0.4144088746889716,-0.4183137683218546,-0.6666512454633554,0.24041317234943277,1.176840341895099,-0.16659024239367684
15002,5.0,300.06868,4426.7951,0.0,0.0,0.0,0.0,0.14952207737648,0.0,-0.40200991560028965,-0.3722373042019616,-0.5713879433915995,0.2513597184797728,1.2153253032182687,-0.14153623538603888
15003,5.0,299.79107,4662.6684,0.0,0.0,0.0,0.0,0.14953204418606378,0.0,-0.42349606635580755,-0.3772208734938016,-0.6166178370529424,0.2646025325167367,1.238693484974529,-0.1280991306423999
15004,5.0,299.12073,4908.8583,0.0,0.0,0.0,0.0,0.14954201099564762,0.0,-0.4599603435345516,-0.38971014356389666,-0.6424998517772984,0.24700248973724775,1.2259693941937588,-0.13927363778023785
15005,5.0,298.83657999999997,4775.5996,0.0,0.0,0.0,0.0,0.14955197780523144,0.0,-0.4206797073053546,-0.4136304149021436,-0.6173529196029894,0.2353731042320168,1.2311872269087187,-0.18022589349441082
15006,5.0,299.60927000000004,4796.9228,0.0,0.0,0.0,0.0,0.14956194461481526,0.0,-0.42654127807384656,-0.3802917508368736,-0.6513117129944614,0.25026942084216874,1.2409116920934486,-0.17352822927340283
15007,5.0,300.11997,4751.4273,0.0,0.0,0.0,0.0,0.1495719114243991,0.0,-0.39539207522215963,-0.3979418177737996,-0.6509813529318574,0.26165212047805375,1.2473799767568188,-0.15081490092427186
15008,5.0,300.39446,4675.7768,0.0,0.0,0.0,0.0,0.1495818782339829,0.0,-0.45020506541428057,-0.3656005869744686,-0.6055137305320524,0.24472772299774578,1.2231999790204389,-0.14667583506077786
15009,5.0,299.38489,4792.5903,0.0,0.0,0.0,0.0,0.1495918450435667,0.0,-0.4225797336278726,-0.3782980799401136,-0.6559499565197203,0.2310820103235188,1.211646496080199,-0.15556391295046285
15010,5.0,299.82644,5064.1699,0.0,0.0,0.0,0.0,0.14960181185315055,0.0,-0.4946674119923725,-0.3953520721082116,-0.6493617334420134,0.23138390819081378,1.2442128609192487,-0.14022104688873988
15011,5.0,300.40345,4921.1758,0.0,0.0,0.0,0.0,0.14961177866273437,0.0,-0.43050667287020056,-0.3863896317936876,-0.6790182669088853,0.24285304819272974,1.2568180974632888,-0.15057594615318887
15012,5.0,300.4215,4748.0411,0.0,0.0,0.0,0.0,0.14962174547231818,0.0,-0.41667364064998663,-0.38386215034674465,-0.6427501346844994,0.21550546852373378,1.236041100187759,-0.13742817497560486
15013,5.0,300.86352,5049.5084,0.0,0.0,0.0,0.0,0.149631712281902,0.0,-0.43357397344041965,-0.4063615613347636,-0.6949889326000673,0.23292721981562678,1.208804937499759,-0.15830890879637285
15014,5.0,300.8753,4951.8693,0.0,0.0,0.0,0.0,0.14964167909148582,0.0,-0.5058657710375646,-0.3645916431873936,-0.6347872149311204,0.2631303510489438,1.233803539991929,-0.09909606040351972
15015,5.0,299.84802,4608.8742,0.0,0.0,0.0,0.0,0.14965164590106964,0.0,-0.43020811872823556,-0.37901670730853665,-0.5917578573069534,0.25243493895588875,1.253273647288479,-0.15511450613360986
15016,5.0,300.29617,4780.2573,0.0,0.0,0.0,0.0,0.14966161271065348,0.0,-0.48939871412239255,-0.3500546351952027,-0.6136255271226244,0.2743902549052097,1.211005514066939,-0.12368722692447887
15017,5.0,300.24881,5046.1871,0.0,0.0,0.0,0.0,0.1496715795202373,0.0,-0.45724637340670354,-0.4185917636192906,-0.6580767279496164,0.24314467170401077,1.2066153040336591,-0.17313407498450284
15018,5.0,299.51521,4880.8436,0.0,0.0,0.0,0.0,0.14968154632982109,0.0,-0.4177340372771396,-0.4132725957618296,-0.6526479466963373,0.25398219212359074,1.2438948017128588,-0.16534082396036884
15019,5.0,299.75782000000004,4889.9648,0.0,0.0,0.0,0.0,0.14969151313940493,0.0,-0.44123955495195355,-0.3826830514703766,-0.6625045903566124,0.26884199120013874,1.2238193788065688,-0.14481523429965085
15020,5.0,299.68683,4880.6961,0.0,0.0,0.0,0.0,0.14970147994898875,0.0,-0.4610745741395175,-0.4051887648740176,-0.6173463942723454,0.23941674220109277,1.2265597137020188,-0.12235691060318689
15021,5.0,299.35997000000003,4511.3934,0.0,0.0,0.0,0.0,0.1497114467585726,0.0,-0.38475299983466466,-0.38910151462632964,-0.5974964296458065,0.22745824293088077,1.1959783058088687,-0.15587504152616885
15022,5.0,299.48663,4668.8867,0.0,0.0,0.0,0.0,0.14972141356815638,0.0,-0.41981837379284764,-0.39806616382607163,-0.6013404370801805,0.2406480943851178,1.2400345214818789,-0.15467162464740086
15023,5.0,299.01898,4981.4931,0.0,0.0,0.0,0.0,0.1497313803777402,0.0,-0.4391844608341316,-0.4023755063688706,-0.6726895574467904,0.23927851462245078,1.2840010645210387,-0.14516814930948088
15024,5.0,299.06286,4735.5433,0.0,0.0,0.0,0.0,0.14974134718732404,0.0,-0.4072495331923996,-0.38164519965794863,-0.6505921939659504,0.2277236840595778,1.2593861798417387,-0.16766479412472685
15025,5.0,300.20226,4501.273,0.0,0.0,0.0,0.0,0.14975131399690786,0.0,-0.4015796896078296,-0.36167359435690466,-0.6050213112484545,0.2194708025250818,1.2356922381783289,-0.17867792091913784
15026,5.0,300.54472000000004,4966.2857,0.0,0.0,0.0,0.0,0.14976128080649168,0.0,-0.4964601351293005,-0.3814927561804036,-0.6316739634688664,0.2448051049078828,1.2289866503415388,-0.13624068638840886
15027,5.0,300.43857,5072.2303,0.0,0.0,0.0,0.0,0.1497712476160755,0.0,-0.4763719959342555,-0.3868627385303796,-0.6785966130122714,0.2904728543349387,1.2333373436209187,-0.15270941516624587
15028,5.0,300.29927999999995,4854.6058,0.0,0.0,0.0,0.0,0.1497812144256593,0.0,-0.4599169359002675,-0.39051391433822263,-0.6252480833221814,0.26253173302236477,1.2097918430971588,-0.1305366050829599
15029,5.0,299.92013,4849.1203,0.0,0.0,0.0,0.0,0.14979118123524313,0.0,-0.4089981191549716,-0.3834139391650096,-0.6815994404786273,0.24075732274589778,1.196163122627109,-0.17218253181559282
15030,5.0,300.19298,4916.7006,0.0,0.0,0.0,0.0,0.14980114804482697,0.0,-0.4442417947332516,-0.37845414072051564,-0.6718582769322494,0.2323476610234288,1.236302924013599,-0.10968562028512789
15031,5.0,298.89784,4742.7607,0.0,0.0,0.0,0.0,0.1498111148544108,0.0,-0.43081423480555464,-0.37364647164603565,-0.6372201297462303,0.22786281343080877,1.2596709031198388,-0.14179657986673286
15032,5.0,299.07691,4941.4431,0.0,0.0,0.0,0.0,0.1498210816639946,0.0,-0.49022706634414454,-0.3664134972646967,-0.6454347610894514,0.23308798207649278,1.2417630248274687,-0.09948721040587322
15033,5.0,299.59747000000004,4905.1721,0.0,0.0,0.0,0.0,0.14983104847357842,0.0,-0.4549185427594646,-0.4013518197928406,-0.6347794534353544,0.20991511440950877,1.2218889347160489,-0.15798098053400886
15034,5.0,300.74611,4547.9668,0.0,0.0,0.0,0.0,0.14984101528316224,0.0,-0.4424523443941466,-0.3385250446923207,-0.6014909655150364,0.2586667006484158,1.2324035323287588,-0.14762684120713487
15035,5.0,300.83265,4773.2071,0.0,0.0,0.0,0.0,0.14985098209274605,0.0,-0.3905525799620386,-0.3866798874173336,-0.6737033141718404,0.25694537111353377,1.2623280501820788,-0.16994061464433283
15036,5.0,301.70727999999997,5010.4727,0.0,0.0,0.0,0.0,0.14986094890232987,0.0,-0.46129882665164956,-0.39509966137580066,-0.6666600911367283,0.24545361536938576,1.2484190647343687,-0.17577911370804783
15037,5.0,300.84335,4702.6424,0.0,0.0,0.0,0.0,0.14987091571191372,0.0,-0.4053929043716646,-0.37658815960135766,-0.6475048107787493,0.24249615111000677,1.233690562605779,-0.15932007160116685
15038,5.0,301.27394,4608.0864,0.0,0.0,0.0,0.0,0.1498808825214975,0.0,-0.4088685345996826,-0.3833966328533016,-0.6084780342296063,0.2242229049640778,1.2523229147196488,-0.15978054310911186
15039,5.0,300.01812,4864.1476,0.0,0.0,0.0,0.0,0.14989084933108135,0.0,-0.4311079456120416,-0.38945577725879266,-0.6580156897635924,0.26927699973307073,1.238586891064009,-0.1221646970592169
15040,5.0,299.27172,4833.4684,0.0,0.0,0.0,0.0,0.14990081614066517,0.0,-0.44157028991709457,-0.4070382705465496,-0.6206451312979054,0.23597276590619878,1.213981834910679,-0.14356170207093685
15041,5.0,299.70486,4780.8789,0.0,0.0,0.0,0.0,0.14991078295024898,0.0,-0.3870925639180616,-0.3989939361476356,-0.6671812968556673,0.22980970257045177,1.2191744376981488,-0.16268829731858486
15042,5.0,300.27894,5057.5248,0.0,0.0,0.0,0.0,0.1499207497598328,0.0,-0.46470518097033053,-0.39799972501701464,-0.6746563366858964,0.2598788821405488,1.2175750224152988,-0.13469713158357186
15043,5.0,300.28261000000003,4810.1895,0.0,0.0,0.0,0.0,0.14993071656941662,0.0,-0.43593822029625257,-0.36209877436386667,-0.6641405029080644,0.26316474075733776,1.2787276043755886,-0.13365454789317688
15044,5.0,300.05492000000004,4561.2995,0.0,0.0,0.0,0.0,0.14994068337900043,0.0,-0.4219126604245376,-0.36128733328628365,-0.6033211485081614,0.23981402743280178,1.210882606829809,-0.14855926434665787
15045,5.0,300.64947,4934.8996,0.0,0.0,0.0,0.0,0.14995065018858425,0.0,-0.4702457135771385,-0.3612543317305267,-0.6685862086493214,0.23814387716047075,1.197550262014009,-0.14295169511323386
15046,5.0,301.05309,5057.0639,0.0,0.0,0.0,0.0,0.1499606169981681,0.0,-0.4969027126404795,-0.3794648880927686,-0.6608535601136684,0.2400709369956568,1.2351402195238488,-0.14192187837409886
15047,5.0,300.13748,4683.7273,0.0,0.0,0.0,0.0,0.1499705838077519,0.0,-0.37669334509423863,-0.38424135919666963,-0.6628014422384093,0.24573620068977475,1.2460369137492688,-0.14467745255105285
15048,5.0,300.63187,4802.8313,0.0,0.0,0.0,0.0,0.1499805506173357,0.0,-0.46645279421280655,-0.3642918326153046,-0.6291961718068274,0.23361307867581577,1.2427164931715688,-0.14269423839532486
15049,5.0,299.64373,5220.4466,0.0,0.0,0.0,0.0,0.14999051742691955,0.0,-0.4547325708361106,-0.4355964611700236,-0.6965563798422624,0.23380208021696877,1.2148196914183689,-0.13951709138176488
15050,5.0,299.20374,4700.1384,0.0,0.0,0.0,0.0,0.15000048423650336,0.0,-0.4549001826676526,-0.3680340692096346,-0.6057904693993644,0.26324872905812674,1.2494456897356887,-0.15785648249422185
15051,5.0,299.38,4714.6228,0.0,0.0,0.0,0.0,0.1500104510460872,0.0,-0.4095770395996066,-0.4077944692286806,-0.6157561083728964,0.2837869032850867,1.2502330863883988,-0.1331235947082759
15052,5.0,300.0143,5007.3331,0.0,0.0,0.0,0.0,0.15002041785567102,0.0,-0.4699713963775655,-0.41132804722991756,-0.6408048059500104,0.2592356709770688,1.2027111500733487,-0.17251945773884483
15053,5.0,298.95695,4729.7261,0.0,0.0,0.0,0.0,0.1500303846652548,0.0,-0.38804671113972866,-0.39219960786708763,-0.6574723242649664,0.23164520512660175,1.183416132394079,-0.17758321564359883
15054,5.0,300.05663,4526.3459,0.0,0.0,0.0,0.0,0.15004035147483863,0.0,-0.42291950678390555,-0.3688191759171186,-0.5841574480418514,0.2221598770979728,1.2372351141055988,-0.19249717293799182
15055,5.0,299.40668,4763.1691,0.0,0.0,0.0,0.0,0.15005031828442247,0.0,-0.4316392838319805,-0.36588830947286466,-0.6503568666302254,0.26309750148070177,1.2610094065019388,-0.14224229845322187
15056,5.0,300.86762999999996,4681.7013,0.0,0.0,0.0,0.0,0.1500602850940063,0.0,-0.43478920481535355,-0.37158439623502465,-0.6167466718031575,0.21580255345305382,1.249504356916479,-0.16461616775385085
15057,5.0,300.92031000000003,4537.0285,0.0,0.0,0.0,0.0,0.15007025190359014,0.0,-0.39069816373640665,-0.36146145018346765,-0.6269837503459784,0.24938160097204776,1.228272005046009,-0.16667623692966385
15058,5.0,300.40823,4988.2435,0.0,0.0,0.0,0.0,0.15008021871317392,0.0,-0.4197614392697286,-0.39591940097170264,-0.7006206273183724,0.24080728610832877,1.2397484809786488,-0.14687127074006584
15059,5.0,299.48679,4945.8706,0.0,0.0,0.0,0.0,0.15009018552275774,0.0,-0.4315161435473276,-0.3894414701673806,-0.6824635604289093,0.2740055542397427,1.2623531787845588,-0.1140078716342009
15060,5.0,298.82644,4635.0431,0.0,0.0,0.0,0.0,0.15010015233234159,0.0,-0.4098864760476456,-0.38753192942642367,-0.6115189700322233,0.2593908502298838,1.2300134779928789,-0.14527292950232185
15061,5.0,300.29672999999997,4882.7129,0.0,0.0,0.0,0.0,0.1501101191419254,0.0,-0.4528548765457966,-0.37581274969733064,-0.6555551638832573,0.23931495109604675,1.218881101794199,-0.14180868820542786
15062,5.0,300.44014,5088.3595,0.0,0.0,0.0,0.0,0.15012008595150922,0.0,-0.4904361302372775,-0.38561416109465463,-0.6706839504638523,0.2517918797799238,1.2467188310665687,-0.1250175128482679
15063,5.0,299.35988,4813.0785,0.0,0.0,0.0,0.0,0.15013005276109304,0.0,-0.4262053350031916,-0.36908572148842467,-0.6677646148057363,0.25926395078735975,1.2528790876995388,-0.1242411403566459
15064,5.0,299.76722,4928.6793,0.0,0.0,0.0,0.0,0.15014001957067685,0.0,-0.43144391908019963,-0.3931147854899086,-0.6736367436402704,0.2269189810951598,1.2511536241042487,-0.15685156131004385
15065,5.0,299.9056,5166.2726,0.0,0.0,0.0,0.0,0.15014998638026067,0.0,-0.4757909172669076,-0.39849318794821564,-0.6961337532255524,0.22945455841040177,1.208209855716029,-0.13590199740998288
15066,5.0,299.26791000000003,4862.1774,0.0,0.0,0.0,0.0,0.15015995318984451,0.0,-0.46895287737704555,-0.36569120193091165,-0.6433364214573614,0.2342971238183258,1.2544557048551388,-0.14779352084858485
15067,5.0,300.39376,4878.5855,0.0,0.0,0.0,0.0,0.15016991999942833,0.0,-0.4477244771819656,-0.3997258877548736,-0.6355177885182224,0.24986037177679876,1.2584406148484186,-0.15036028600190485
15068,5.0,299.62441,4895.2951,0.0,0.0,0.0,0.0,0.15017988680901212,0.0,-0.4772106326445225,-0.37152919436957665,-0.6393076377347514,0.25098547455533776,1.2427313879480386,-0.15559234474826886
15069,5.0,299.39529,4775.3734,0.0,0.0,0.0,0.0,0.15018985361859596,0.0,-0.39382553990505464,-0.40663118718637364,-0.6511375353022714,0.2422406803622938,1.2202873916079888,-0.16604850822771183
15070,5.0,300.09458,4593.7496,0.0,0.0,0.0,0.0,0.15019982042817978,0.0,-0.3608354845366897,-0.38312261962875865,-0.6524270784395394,0.24593772600216374,1.2745348767867988,-0.17059090842601185
15071,5.0,299.52145,4885.4163,0.0,0.0,0.0,0.0,0.15020978723776363,0.0,-0.42837123815194955,-0.3790096550878406,-0.6776636731151974,0.26924716965012674,1.2556509346730989,-0.12420054955763987
15072,5.0,300.73637,5007.2515,0.0,0.0,0.0,0.0,0.15021975404734744,0.0,-0.4432992796227326,-0.42295138363205165,-0.6558287616752594,0.23217240928613278,1.2388953243944487,-0.15656772969203184
15073,5.0,300.52567999999997,4593.806,0.0,0.0,0.0,0.0,0.15022972085693123,0.0,-0.4261355828663076,-0.37947087640085964,-0.5907958573970115,0.2154677046925068,1.2054917109977688,-0.16292835653227683
15074,5.0,299.87292,4935.1496,0.0,0.0,0.0,0.0,0.15023968766651508,0.0,-0.46414705241774756,-0.4124267244458486,-0.6235884607183894,0.2541608585137238,1.2589082297695688,-0.16288219285772085
15075,5.0,300.70296,5183.6191,0.0,0.0,0.0,0.0,0.1502496544760989,0.0,-0.4762708026467686,-0.4108213411199096,-0.6885986377968943,0.2548973292164078,1.2607849716047888,-0.14929115515888985
15076,5.0,300.62507,4803.7403,0.0,0.0,0.0,0.0,0.1502596212856827,0.0,-0.43324899373584663,-0.38558457419173464,-0.6413835237446254,0.24083790652635076,1.2582817372327388,-0.17315791675935585
15077,5.0,300.13855,4849.8921,0.0,0.0,0.0,0.0,0.15026958809526655,0.0,-0.4252252789764676,-0.39378556718860963,-0.6552352504291844,0.21699027508777283,1.1984589447036886,-0.14879455115237886
15078,5.0,300.302,5014.1043,0.0,0.0,0.0,0.0,0.15027955490485034,0.0,-0.48296985502041356,-0.37333736957052965,-0.6678552702921834,0.24791357382966475,1.2259457854664289,-0.12590450185330687
15079,5.0,299.13768999999996,4846.7394,0.0,0.0,0.0,0.0,0.15028952171443416,0.0,-0.45521502987122553,-0.36999343145800867,-0.6480792830554454,0.26576064698353374,1.213675428080439,-0.12336730333790488
15080,5.0,298.95651000000004,4942.5586,0.0,0.0,0.0,0.0,0.150299488524018,0.0,-0.46828526715115754,-0.37437705536563864,-0.6597520863274613,0.26638888231053576,1.2349217628022888,-0.11938767237764589
15081,5.0,299.81952,5190.8294,0.0,0.0,0.0,0.0,0.15030945533360182,0.0,-0.4351082367418396,-0.4275855336269066,-0.7151887522211343,0.25594523246982775,1.2169637286299688,-0.1226331529779499
15082,5.0,299.64498,4785.7745,0.0,0.0,0.0,0.0,0.15031942214318564,0.0,-0.41893554924571963,-0.3939530878276426,-0.6418673101373713,0.2368918242769028,1.2747847442614588,-0.12821826858915789
15083,5.0,300.50199,4728.6589,0.0,0.0,0.0,0.0,0.15032938895276945,0.0,-0.42055303077785255,-0.39278201389206663,-0.6240591964498474,0.22824670349619577,1.2598320098857387,-0.13887866275875688
15084,5.0,300.33672,4947.0247,0.0,0.0,0.0,0.0,0.15033935576235327,0.0,-0.4756598331014706,-0.3881935513442206,-0.6399185971475484,0.2071343001725638,1.237314046288389,-0.14793838521538186
15085,5.0,300.88748,4731.6663,0.0,0.0,0.0,0.0,0.1503493225719371,0.0,-0.4552707282292226,-0.4027560324439256,-0.5802816346868385,0.2136606744641668,1.206724735044459,-0.17683181976694182
15086,5.0,300.58866,4551.8027,0.0,0.0,0.0,0.0,0.15035928938152093,0.0,-0.4125672318372156,-0.3571181637623187,-0.6139489768195464,0.2300433783085138,1.2574347614741488,-0.17390424638551286
15087,5.0,300.47272000000004,4802.8515,0.0,0.0,0.0,0.0,0.15036925619110475,0.0,-0.4133628864782406,-0.38494070441568967,-0.6616433277716124,0.26550023157533276,1.2527389552107089,-0.17676142928249483
15088,5.0,299.45734,4800.7188,0.0,0.0,0.0,0.0,0.15037922300068854,0.0,-0.4266980075993146,-0.38254638429688864,-0.6500542290903574,0.25566220131939477,1.2544165934012788,-0.15063646758166185
15089,5.0,299.4109,4663.5971,0.0,0.0,0.0,0.0,0.15038918981027238,0.0,-0.3979829253303566,-0.37837201679991067,-0.6412621262501444,0.23657172843781177,1.234193438630409,-0.15881834054914984
15090,5.0,299.16528999999997,4991.5448,0.0,0.0,0.0,0.0,0.1503991566198562,0.0,-0.4505614558719535,-0.4163209485551786,-0.6504225860317113,0.2432314261775728,1.2541947929543886,-0.13362935849569085
15091,5.0,300.04864,5178.7056,0.0,0.0,0.0,0.0,0.15040912342944004,0.0,-0.5048090322432726,-0.3965422863381766,-0.6728458715397174,0.24014922069838276,1.2350723317671488,-0.0996436481153124
15092,5.0,300.28341,4876.1173,0.0,0.0,0.0,0.0,0.15041909023902386,0.0,-0.4386931459931426,-0.4121223035858046,-0.6314024732370724,0.24491573155380075,1.2362973511380488,-0.14530774477575786
15093,5.0,299.89273,4835.4493,0.0,0.0,0.0,0.0,0.15042905704860765,0.0,-0.43029294802660756,-0.41895881346801556,-0.6206040946688554,0.23666084378410676,1.214561616617899,-0.14208663284035888
15094,5.0,299.60462,5176.2579,0.0,0.0,0.0,0.0,0.1504390238581915,0.0,-0.49582051087117457,-0.39198232651564363,-0.6856503029209163,0.2528404923084137,1.2539193915772089,-0.1422351854375199
15095,5.0,300.01052999999996,4962.7092,0.0,0.0,0.0,0.0,0.15044899066777528,0.0,-0.4492623881837456,-0.3988718395105856,-0.6604054502569434,0.2376284773646048,1.2278307346274588,-0.14858679435187486
15096,5.0,300.50172000000003,4624.5417,0.0,0.0,0.0,0.0,0.15045895747735913,0.0,-0.45786059548482255,-0.3335385065776877,-0.6143460897987384,0.24987649258588976,1.2369947711818787,-0.14462123743550487
15097,5.0,301.07376,4811.4628,0.0,0.0,0.0,0.0,0.15046892428694295,0.0,-0.4555395232157506,-0.3567284576413577,-0.6502965579842733,0.26187205654475976,1.228196619238569,-0.12512490722636688
15098,5.0,300.10831,4830.0418,0.0,0.0,0.0,0.0,0.15047889109652676,0.0,-0.4291376807925916,-0.3863298196402846,-0.6527445904908754,0.2522362000812748,1.2666881666873888,-0.14560421162251685
15099,5.0,299.67287999999996,5098.3573,0.0,0.0,0.0,0.0,0.15048885790611058,0.0,-0.43764279067448053,-0.42314725500888256,-0.6889832675348543,0.26129805036310977,1.2702812528669989,-0.14143588309613486
15100,5.0,299.54011,5382.7785,0.0,0.0,0.0,0.0,0.15049882471569442,0.0,-0.49971669055319756,-0.45381347193540256,-0.6827001036647543,0.23591227487522876,1.267722391064459,-0.16107185943405486
15101,5.0,299.81322,4807.986,0.0,0.0,0.0,0.0,0.1505087915252782,0.0,-0.4005384332750656,-0.43881033849970863,-0.6221589269473053,0.24639735651252576,1.2178044222379387,-0.16704284094834485
15102,5.0,299.68739,4482.9131,0.0,0.0,0.0,0.0,0.15051875833486206,0.0,-0.4050978763400476,-0.3812346003199256,-0.5763611572674174,0.23573336530507177,1.254810241065129,-0.17540307633093583
15103,5.0,299.35035,4793.3721,0.0,0.0,0.0,0.0,0.15052872514444585,0.0,-0.4288717837013496,-0.3916304551534166,-0.6365631789113945,0.2348478455126778,1.2197681009317387,-0.15754998447147286
15104,5.0,299.70756,4658.6386,0.0,0.0,0.0,0.0,0.1505386919540297,0.0,-0.42722024683335563,-0.36396283030783466,-0.6249267411854674,0.2411540304250498,1.2156897692792388,-0.15456840485971385
15105,5.0,301.63457999999997,4322.7872,0.0,0.0,0.0,0.0,0.1505486587636135,0.0,-0.35032203189659267,-0.34839924797682864,-0.6152980686651914,0.2262449164661348,1.2330399547165687,-0.16785796012379084
15106,5.0,301.29627,4644.0368,0.0,0.0,0.0,0.0,0.15055862557319735,0.0,-0.41054183607982464,-0.3556738061422716,-0.6454555732465054,0.24716827771860975,1.2655250568975989,-0.17699601694564682
15107,5.0,300.86233,5229.7601,0.0,0.0,0.0,0.0,0.15056859238278117,0.0,-0.4777237222301605,-0.40471124036688966,-0.7072815308257524,0.2243165495383198,1.2543519480448988,-0.14156744348911887
15108,5.0,300.50591000000003,5254.2942,0.0,0.0,0.0,0.0,0.15057855919236496,0.0,-0.5245941285984095,-0.4186006396901666,-0.6539794890502504,0.23315996336359676,1.2451861889653089,-0.15402108768569786
15109,5.0,300.11918,5175.8106,0.0,0.0,0.0,0.0,0.15058852600194877,0.0,-0.46793346671643754,-0.41054806756793966,-0.6948356683899414,0.24001745765537874,1.2341654729276488,-0.1268286771370159
15110,5.0,300.16488,4989.1672,0.0,0.0,0.0,0.0,0.15059849281153262,0.0,-0.43532270125800554,-0.39772966346786165,-0.6835298947016484,0.28394787832847374,1.2660986577792088,-0.1255626110045649
15111,5.0,299.65171000000004,4672.6855,0.0,0.0,0.0,0.0,0.15060845962111644,0.0,-0.3889267289840796,-0.36674595475500765,-0.6647070110389743,0.26560527521319977,1.2606706769935088,-0.12266881938146988
15112,5.0,298.996,4698.11,0.0,0.0,0.0,0.0,0.15061842643070028,0.0,-0.42626040514612656,-0.36473289025133365,-0.6371148530608404,0.2525884463460388,1.2408311387104987,-0.14415274098676786
15113,5.0,299.48699,4883.4984,0.0,0.0,0.0,0.0,0.15062839324028407,0.0,-0.4606497994325956,-0.37784694046558964,-0.6459648226142644,0.22773640034833276,1.246149283185359,-0.14867894944846988
15114,5.0,300.39587,4546.6181,0.0,0.0,0.0,0.0,0.15063836004986791,0.0,-0.43662699731672955,-0.34316578081282567,-0.6022655850839854,0.24410380411616978,1.2348567121458687,-0.14443639021976187
15115,5.0,300.39707000000004,4565.8462,0.0,0.0,0.0,0.0,0.1506483268594517,0.0,-0.38373540289173563,-0.3713373354631416,-0.6328304972655074,0.2394907094583928,1.2365806558660088,-0.18001425594602383
15116,5.0,299.89072999999996,5301.8012,0.0,0.0,0.0,0.0,0.15065829366903555,0.0,-0.4818797904303325,-0.43748260596617156,-0.6922527925600314,0.23668038937853578,1.2030424828560489,-0.1295662863896969
15117,5.0,299.94235,5388.7966,0.0,0.0,0.0,0.0,0.15066826047861936,0.0,-0.47143153030166957,-0.4553858131755806,-0.7112422748041473,0.2547244586168467,1.221663182593769,-0.17028071204039785
15118,5.0,301.19532999999996,4944.346,0.0,0.0,0.0,0.0,0.15067822728820318,0.0,-0.4260039110158126,-0.4190248976395376,-0.6579289251575294,0.24893915518338178,1.2588539195642088,-0.14997635540651386
15119,5.0,301.49791,4934.2541,0.0,0.0,0.0,0.0,0.150688194097787,0.0,-0.44082543963608356,-0.4114307401275526,-0.6476338684439864,0.24326791331367378,1.2616022591354488,-0.17689986964365784
15120,5.0,301.05641,4924.4936,0.0,0.0,0.0,0.0,0.15069816090737084,0.0,-0.47118015308436056,-0.40906995858706163,-0.6166729983883864,0.24920750433986577,1.2413841706150788,-0.13716215629435086
15121,5.0,299.42382000000003,4704.6601,0.0,0.0,0.0,0.0,0.15070812771695463,0.0,-0.39141303194695864,-0.39831168445780263,-0.6403744786325404,0.23344817222204078,1.2331802898554187,-0.16183192873156785
15122,5.0,299.90997000000004,4799.3542,0.0,0.0,0.0,0.0,0.15071809452653848,0.0,-0.4146893321841506,-0.38850134632709765,-0.6556931685468773,0.24634283352464478,1.2374760649793788,-0.1296781998632419
15123,5.0,299.99215,4726.7474,0.0,0.0,0.0,0.0,0.15072806133612227,0.0,-0.39175117377033064,-0.3907303445595826,-0.6543316846525093,0.25418115391322676,1.2443356668313688,-0.14716087788364787
15124,5.0,300.23033,4547.0093,0.0,0.0,0.0,0.0,0.1507380281457061,0.0,-0.4088153288369316,-0.37630207856812364,-0.5970598809727224,0.24801761434993277,1.239694474748319,-0.16486073593048783
15125,5.0,299.74802,4868.5611,0.0,0.0,0.0,0.0,0.15074799495528993,0.0,-0.46893159912494553,-0.3847500310118716,-0.6262393864250153,0.25163158361410376,1.2584289624722687,-0.17054180632616583
15126,5.0,300.03567000000004,5184.0176,0.0,0.0,0.0,0.0,0.15075796176487377,0.0,-0.5176920107722235,-0.3966797641117446,-0.6614401305965584,0.23755290917214678,1.2526068273976687,-0.15008703271493687
15127,5.0,300.24301,4957.2273,0.0,0.0,0.0,0.0,0.1507679285744576,0.0,-0.4436891174662066,-0.3904879447381596,-0.6726962550299513,0.2558413034070708,1.262508408699879,-0.14282600143832888
15128,5.0,300.34199,4833.8438,0.0,0.0,0.0,0.0,0.15077789538404138,0.0,-0.43418839816855853,-0.3832926531280396,-0.6518867729562154,0.25279294048122075,1.2176125126689987,-0.13609857806188386
15129,5.0,299.13548,5007.9377,0.0,0.0,0.0,0.0,0.1507878621936252,0.0,-0.4401488317493076,-0.4010740068804226,-0.6810651840984003,0.28932790198694075,1.2281103916550589,-0.1252269313789359
15130,5.0,300.18179,4946.5221,0.0,0.0,0.0,0.0,0.15079782900320904,0.0,-0.4500183639508546,-0.38916606879020066,-0.6644347608696054,0.2576013086982698,1.2280772583767887,-0.11993899188955688
15131,5.0,300.29059,4791.4375,0.0,0.0,0.0,0.0,0.15080779581279286,0.0,-0.44292242151303957,-0.3896878925917006,-0.6238670335683825,0.25878543329513376,1.2655944645294488,-0.15364623581120285
15132,5.0,300.57824,4900.6561,0.0,0.0,0.0,0.0,0.1508177626223767,0.0,-0.4535680728936836,-0.40171168569835664,-0.6343973162926404,0.23096107892408377,1.2284625973898189,-0.13141304615445787
15133,5.0,300.45928,4651.8943,0.0,0.0,0.0,0.0,0.1508277294319605,0.0,-0.3920107481809486,-0.4015536997427646,-0.6204952513431133,0.23749117184355376,1.2320842572222488,-0.17883834880747082
15134,5.0,301.37281,4608.3621,0.0,0.0,0.0,0.0,0.15083769624154433,0.0,-0.3994576297908986,-0.39145736163883366,-0.6099120161686294,0.24302549322724878,1.2407870623311488,-0.15807500001078784
15135,5.0,300.77247,4986.154,0.0,0.0,0.0,0.0,0.15084766305112812,0.0,-0.4254348798921536,-0.4051419425868966,-0.6850894993880693,0.23677651641552275,1.245907319061479,-0.18431073021255281
15136,5.0,300.2456,4982.1996,0.0,0.0,0.0,0.0,0.15085762986071197,0.0,-0.47888537293980654,-0.4023638843902236,-0.6332150155459564,0.22392154411933576,1.2337925968908487,-0.16193214929895886
15137,5.0,299.54106,4649.7312,0.0,0.0,0.0,0.0,0.15086759667029578,0.0,-0.4055686728665116,-0.3895661303271836,-0.6182673879507404,0.23136967202690878,1.2577573803059887,-0.18034671343633482
15138,5.0,299.67762999999997,4947.0753,0.0,0.0,0.0,0.0,0.1508775634798796,0.0,-0.46981240730437457,-0.3972841171338896,-0.6366908281589924,0.2566886540681978,1.2599152990439588,-0.15579016156529185
15139,5.0,299.37481,5325.1825,0.0,0.0,0.0,0.0,0.15088753028946342,0.0,-0.4724358536682886,-0.4038154664834836,-0.7424711799087003,0.26942969652314075,1.2589796639016189,-0.10305665442089991
15140,5.0,300.46384,5053.2905,0.0,0.0,0.0,0.0,0.15089749709904726,0.0,-0.46340883892489154,-0.3979363462232596,-0.6747289461880623,0.26570340848538476,1.2230752479331288,-0.13803372363286787
15141,5.0,299.93495,4849.8763,0.0,0.0,0.0,0.0,0.15090746390863105,0.0,-0.4000193655138376,-0.40245929201963965,-0.6717626261228093,0.25773285895875275,1.2103904712562388,-0.1268687917084749
15142,5.0,300.35894,4915.3507,0.0,0.0,0.0,0.0,0.1509174307182149,0.0,-0.4815921388594436,-0.37671485639386165,-0.6358368711072134,0.2552222683909767,1.2285950291778887,-0.14634572831069886
15143,5.0,301.08441,4975.8918,0.0,0.0,0.0,0.0,0.15092739752779868,0.0,-0.44815739841969154,-0.40684925887289564,-0.6575402120216663,0.24279276994428078,1.2417636327775288,-0.12173587948439588
15144,5.0,300.46238,4983.7541,0.0,0.0,0.0,0.0,0.15093736433738253,0.0,-0.4674348463422275,-0.3936020068004936,-0.6538999590499014,0.22146393639928877,1.234369440172779,-0.16386823719253585
15145,5.0,300.81094,5066.1336,0.0,0.0,0.0,0.0,0.15094733114696635,0.0,-0.4417272018275806,-0.3959844516281226,-0.7022664595883034,0.21133445488458683,1.2613517837107289,-0.12395241474065088
15146,5.0,301.4031,4678.3228,0.0,0.0,0.0,0.0,0.1509572979565502,0.0,-0.4134655388458716,-0.3622939162006257,-0.6463338685656864,0.24233509500661177,1.2569891340801689,-0.14538109395049686
15147,5.0,300.23321,4638.6759,0.0,0.0,0.0,0.0,0.150967264766134,0.0,-0.41061195298674463,-0.3553828311110547,-0.6440468718974774,0.2438019467788788,1.259984808000819,-0.16499294480353582
15148,5.0,300.9133,5298.4652,0.0,0.0,0.0,0.0,0.1509772315757178,0.0,-0.5388336058312365,-0.4090391456515206,-0.6627283666411974,0.25846421274843173,1.2310061591158488,-0.16122095918626986
15149,5.0,300.87925,5131.3237,0.0,0.0,0.0,0.0,0.1509871983853016,0.0,-0.4450016005857386,-0.4218570836565526,-0.6929355914049183,0.2272251650103778,1.221705637772959,-0.16525476862937585
15150,5.0,299.90713,4615.1298,0.0,0.0,0.0,0.0,0.15099716519488546,0.0,-0.40812849725664657,-0.37965763865929164,-0.6150980834929545,0.2333349009933618,1.2600545196076989,-0.17165953264397685
15151,5.0,299.56998,4943.1889,0.0,0.0,0.0,0.0,0.15100713200446927,0.0,-0.4158345074471706,-0.40247377136356866,-0.6842977153624263,0.23869159963452674,1.253944722829709,-0.13433630309046088
15152,5.0,299.53201,5098.6415,0.0,0.0,0.0,0.0,0.15101709881405312,0.0,-0.47639452048397857,-0.40719360178687963,-0.6662715907833864,0.26586693691902374,1.2325217786154288,-0.1267793115921439
15153,5.0,299.43951,4697.7506,0.0,0.0,0.0,0.0,0.1510270656236369,0.0,-0.3850029281043307,-0.3984819915346106,-0.6445139599285754,0.24082360956743978,1.2554103890993589,-0.16434177962677085
15154,5.0,300.70895,4655.102,0.0,0.0,0.0,0.0,0.15103703243322075,0.0,-0.4126920845145376,-0.3952910947171936,-0.6070515807388265,0.2550903938904618,1.2534636316822287,-0.15750301019683685
15155,5.0,299.00621,4815.5307,0.0,0.0,0.0,0.0,0.15104699924280454,0.0,-0.42594531476252956,-0.37860491233539567,-0.6592508619004944,0.26568395408346474,1.2557760710604489,-0.15268062873090485
15156,5.0,298.66377,4856.9218,0.0,0.0,0.0,0.0,0.1510569660523884,0.0,-0.4576156017431436,-0.3818714280077756,-0.6368959302442344,0.2529882444379957,1.2496652610323589,-0.16664962898203783
15157,5.0,299.74176,4919.6813,0.0,0.0,0.0,0.0,0.1510669328619722,0.0,-0.45633353639161356,-0.3685103474191397,-0.6706163970796853,0.2294767789850948,1.2376198451685687,-0.15728961972577685
15158,5.0,300.02027000000004,4893.9615,0.0,0.0,0.0,0.0,0.15107689967155602,0.0,-0.43990846856058563,-0.3629401164519006,-0.6847935087688574,0.2167222603038218,1.2557811373109486,-0.13461587905805286
15159,5.0,301.32007999999996,4755.2383,0.0,0.0,0.0,0.0,0.15108686648113984,0.0,-0.4323405136961866,-0.37440792909618564,-0.6387252621072754,0.24481236991109978,1.2638846049856987,-0.14461408388979888
15160,5.0,300.55182,4889.7632,0.0,0.0,0.0,0.0,0.15109683329072368,0.0,-0.44375550561275856,-0.3972226027203186,-0.6453878070798174,0.26041809331376475,1.249664450432279,-0.15910588066252784
15161,5.0,300.15769,5165.596,0.0,0.0,0.0,0.0,0.1511068001003075,0.0,-0.47309517550835856,-0.4253285899566636,-0.6717884234703554,0.27122215621504275,1.2358914431479888,-0.14255040754362985
15162,5.0,300.37856,5018.9814,0.0,0.0,0.0,0.0,0.15111676690989131,0.0,-0.4444202078108595,-0.42873091153994664,-0.6524939022836345,0.25048877935631775,1.2420954721852788,-0.13321623616491887
15163,5.0,298.84006,4654.6544,0.0,0.0,0.0,0.0,0.1511267337194751,0.0,-0.41281684599935065,-0.38295671005738463,-0.6191251548228954,0.26157869024330677,1.2499731877377487,-0.13965340391771786
15164,5.0,298.26081,4872.9658,0.0,0.0,0.0,0.0,0.15113670052905895,0.0,-0.47019130204676857,-0.37977621931849465,-0.6312924241437113,0.25106027267771974,1.221025139005799,-0.13810514763241688
15165,5.0,298.99887,4987.5582,0.0,0.0,0.0,0.0,0.15114666733864277,0.0,-0.47661908710364154,-0.3891263696512826,-0.6503476865843194,0.25156211518724775,1.203485273149749,-0.14858315678401585
15166,5.0,300.06037000000003,4628.2156,0.0,0.0,0.0,0.0,0.1511566341482266,0.0,-0.41624370850005565,-0.37922448437404266,-0.6113937728498674,0.23429030464515277,1.2375553011371987,-0.18249647551099982
15167,5.0,300.82974,4892.5848,0.0,0.0,0.0,0.0,0.15116660095781043,0.0,-0.4294632684472246,-0.38557511043580067,-0.6721852324745173,0.24471261543875478,1.265527083397799,-0.17637637397949282
15168,5.0,301.12187,5165.8405,0.0,0.0,0.0,0.0,0.15117656776739422,0.0,-0.4929605010064136,-0.3928564776419156,-0.6844695423143844,0.23193109364231676,1.2579980272047386,-0.16073667630097485
15169,5.0,300.88396,4797.6137,0.0,0.0,0.0,0.0,0.15118653457697803,0.0,-0.41735829374255656,-0.38318437722235366,-0.6578121075535004,0.2520972024325568,1.2525218157142788,-0.16082164745436084
15170,5.0,301.31149,4879.2166,0.0,0.0,0.0,0.0,0.15119650138656188,0.0,-0.4415298004430986,-0.40280419222117864,-0.6388260196972194,0.24651525829416177,1.2661470911339887,-0.14921915360678387
15171,5.0,300.72781000000003,5197.702,0.0,0.0,0.0,0.0,0.1512064681961457,0.0,-0.4436513435024786,-0.43753867922670564,-0.6987816087843753,0.26531962987750873,1.251689734732159,-0.11232539010815289
15172,5.0,300.51473,5032.5616,0.0,0.0,0.0,0.0,0.15121643500572954,0.0,-0.4574255362893856,-0.4255716990531566,-0.6467758381268054,0.23918417090563976,1.238658325196059,-0.16891727257333683
15173,5.0,300.18021,4868.5972,0.0,0.0,0.0,0.0,0.15122640181531333,0.0,-0.4271860597749816,-0.39194699448465664,-0.6607989459332784,0.23577192960387777,1.201913316944609,-0.14703709925143185
15174,5.0,299.64819,4885.6649,0.0,0.0,0.0,0.0,0.15123636862489717,0.0,-0.44250953222979056,-0.39214474037417263,-0.6504658720759834,0.25988409024606274,1.2395963921386388,-0.14312034045987787
15175,5.0,299.88352000000003,4810.4187,0.0,0.0,0.0,0.0,0.15124633543448096,0.0,-0.41485661977566063,-0.39146002648659667,-0.6559305325153033,0.2528828157650908,1.252662657478179,-0.1112297830400249
15176,5.0,300.04773,4857.4029,0.0,0.0,0.0,0.0,0.1512563022440648,0.0,-0.4696193831603246,-0.37968643522713363,-0.6272233738621275,0.2268627659796118,1.2616154313867487,-0.15936264837036884
15177,5.0,299.64527999999996,5236.9414,0.0,0.0,0.0,0.0,0.15126626905364862,0.0,-0.4876610408633975,-0.4118444906733866,-0.6923938673714543,0.23229799150352676,1.2244000724388788,-0.12262617168476089
15178,5.0,299.66058,5069.0666,0.0,0.0,0.0,0.0,0.15127623586323244,0.0,-0.47380031651795057,-0.4146274935305476,-0.6524418516259973,0.27216008130260877,1.255516983009879,-0.18515549708592483
15179,5.0,299.59449,4768.9126,0.0,0.0,0.0,0.0,0.15128620267281626,0.0,-0.3972742683429176,-0.3868580471824166,-0.6654980249945414,0.24343571766273475,1.2530911609454687,-0.14862946231358587
15180,5.0,300.08628999999996,5029.7795,0.0,0.0,0.0,0.0,0.1512961694824001,0.0,-0.4589937434691556,-0.4099688532807756,-0.6599647675234513,0.23875657936343977,1.243541684053009,-0.17273042654216583
15181,5.0,300.09259,5161.4476,0.0,0.0,0.0,0.0,0.15130613629198392,0.0,-0.47442719408981854,-0.40796941699094663,-0.6865545678401603,0.21087434814667783,1.203182108719829,-0.1135023307618079
15182,5.0,299.55752,4623.6322,0.0,0.0,0.0,0.0,0.1513161031015677,0.0,-0.4043777797589796,-0.3999037435449266,-0.6011872134000584,0.2538032318909288,1.2570469906608788,-0.15318035354772386
15183,5.0,299.26336000000003,4605.090999999999,0.0,0.0,0.0,0.0,0.15132606991115152,0.0,-0.38633479469827564,-0.37842500978014065,-0.6350728805318134,0.26319856304567574,1.2408340771357889,-0.12033650003628787
15184,5.0,299.78143,5047.5418,0.0,0.0,0.0,0.0,0.15133603672073537,0.0,-0.46508771328058357,-0.4191508952894726,-0.6500880716436974,0.25896050264741177,1.2400876157871188,-0.17029096613140984
15185,5.0,299.13532000000004,4942.9048,0.0,0.0,0.0,0.0,0.15134600353031918,0.0,-0.44168136239305655,-0.4197976325633006,-0.6410406297782844,0.22375873509326777,1.2522340526858788,-0.16671066716806185
15186,5.0,299.57059,4872.8316,0.0,0.0,0.0,0.0,0.15135597033990303,0.0,-0.43350090797570856,-0.4071534770829196,-0.6405647264713163,0.27406626818573476,1.274224416956159,-0.16664171549875684
15187,5.0,300.16014,4966.8413,0.0,0.0,0.0,0.0,0.15136593714948685,0.0,-0.4499446601385806,-0.38590888515124167,-0.6739421878829153,0.24715799323009477,1.2766661470471388,-0.13025006808718087
15188,5.0,300.82102000000003,4836.313,0.0,0.0,0.0,0.0,0.15137590395907063,0.0,-0.4458150276335176,-0.3833267489939046,-0.6409766227694673,0.2268641743972508,1.2483625253787887,-0.16006369584955685
15189,5.0,300.57007999999996,4932.4314,0.0,0.0,0.0,0.0,0.15138587076865445,0.0,-0.4686987035894606,-0.3814905878251897,-0.6491466812407894,0.2120687167020528,1.204532973753149,-0.17781592879406583
15190,5.0,299.82062,5181.7534,0.0,0.0,0.0,0.0,0.1513958375782383,0.0,-0.5008020030003095,-0.41257797228827564,-0.6617436800615164,0.23160596195022878,1.238976992352509,-0.11850742148577188
15191,5.0,299.66175,4827.6487,0.0,0.0,0.0,0.0,0.1514058043878221,0.0,-0.41758754157768163,-0.38257816995252564,-0.6673189367492514,0.2707750089459127,1.2428512554348687,-0.15093131322826087
15192,5.0,299.89412999999996,4531.8273,0.0,0.0,0.0,0.0,0.15141577119740593,0.0,-0.4121629855773196,-0.3397794685811227,-0.6256198954463764,0.2693699755622468,1.233280094990269,-0.12055128879248588
15193,5.0,299.62022,5014.5545,0.0,0.0,0.0,0.0,0.15142573800698975,0.0,-0.4483022627864886,-0.4229623976606386,-0.6530346941270064,0.2559727219450408,1.2247831823016888,-0.13905879836153487
15194,5.0,299.17932,5152.2969,0.0,0.0,0.0,0.0,0.1514357048165736,0.0,-0.49189944576669553,-0.40369365355646164,-0.6705765054232483,0.25252607066988275,1.2661215572314688,-0.12703577532495489
15195,5.0,299.01032000000004,4741.9486,0.0,0.0,0.0,0.0,0.15144567162615738,0.0,-0.4313320967991636,-0.37450987218874665,-0.6355920090880474,0.2402419736125368,1.2716420477512986,-0.15979453609299285
15196,5.0,299.62784,4935.198,0.0,0.0,0.0,0.0,0.1514556384357412,0.0,-0.44041710997828454,-0.4217555559965326,-0.6380043042636224,0.21423377885322778,1.2651599828865687,-0.17633718146562483
15197,5.0,300.20946000000004,5074.1523,0.0,0.0,0.0,0.0,0.15146560524532504,0.0,-0.45212234738600154,-0.4007657154049966,-0.6895275449585704,0.23660104176320476,1.2283648187551688,-0.19270492973849582
15198,5.0,299.90285,4730.7917,0.0,0.0,0.0,0.0,0.15147557205490886,0.0,-0.42125614528724464,-0.36312268385491864,-0.6536637197890863,0.22572020490184977,1.2832172142436788,-0.17365288943320584
15199,5.0,299.22281,4584.9173,0.0,0.0,0.0,0.0,0.15148553886449267,0.0,-0.39801694013621364,-0.35459364100566765,-0.6410897926731364,0.22941846644183975,1.2716483299019188,-0.14280382139363987
15200,5.0,300.48575,4902.8086,0.0,0.0,0.0,0.0,0.15149550567407652,0.0,-0.46153009085447355,-0.36773792660290766,-0.6610633535468734,0.23820737754423776,1.2233066742559688,-0.12388914740440689
15201,5.0,300.50197000000003,4828.8406,0.0,0.0,0.0,0.0,0.15150547248366034,0.0,-0.4438606404431346,-0.4059601116451436,-0.6180262242944394,0.26774043635392375,1.2271050449058387,-0.14412624449665284
15202,5.0,300.85273,4865.81,0.0,0.0,0.0,0.0,0.15151543929324413,0.0,-0.4655008761413595,-0.3691579155580496,-0.6444259591573903,0.26603142794025775,1.2691759996579188,-0.13616911040134486
15203,5.0,300.12381,5135.9602,0.0,0.0,0.0,0.0,0.15152540610282794,0.0,-0.44883226351629557,-0.4189693614015566,-0.6934020410884534,0.2805601272816287,1.2657352049683386,-0.12775177837561888
15204,5.0,300.22631,5046.3163,0.0,0.0,0.0,0.0,0.15153537291241176,0.0,-0.4587242088100546,-0.4103801618938686,-0.6648497577130624,0.2299311912574418,1.2343343817193186,-0.13773383200077086
15205,5.0,299.86636,5007.9203,0.0,0.0,0.0,0.0,0.1515453397219956,0.0,-0.43318484487201564,-0.4155038738070397,-0.6735939946185514,0.23792943290930677,1.2325936180475188,-0.15152628355447983
15206,5.0,299.07228,5097.4742,0.0,0.0,0.0,0.0,0.15155530653157942,0.0,-0.47579840518514654,-0.4071478535448646,-0.6665586141392134,0.24151403818557976,1.2519540916832488,-0.14519155538679088
15207,5.0,299.5703,4913.9789,0.0,0.0,0.0,0.0,0.15156527334116326,0.0,-0.4490287833731905,-0.37227971885114763,-0.6724183813225274,0.24929887923388375,1.2760417823355188,-0.15365489909955785
15208,5.0,299.66528,4680.7203,0.0,0.0,0.0,0.0,0.15157524015074705,0.0,-0.4218418849050526,-0.3639769651467296,-0.6370032435623254,0.23201745294833975,1.275009381808629,-0.15862558998262685
15209,5.0,299.5616,4955.8719,0.0,0.0,0.0,0.0,0.15158520696033087,0.0,-0.4533537097025276,-0.39382257108226165,-0.6592850388263674,0.23942310541172074,1.267756030967779,-0.17588788610628284
15210,5.0,300.15431,4913.2984,0.0,0.0,0.0,0.0,0.1515951737699147,0.0,-0.4568399891890966,-0.36893019773057567,-0.6677498416192783,0.25708895878520477,1.2909388892807487,-0.15924042001080585
15211,5.0,300.39602,4535.0611,0.0,0.0,0.0,0.0,0.15160514057949853,0.0,-0.3959221266144716,-0.3640459472135376,-0.6185772702288235,0.2364801204962708,1.2476553781339987,-0.14018045608973387
15212,5.0,299.50261,4865.2375,0.0,0.0,0.0,0.0,0.15161510738908235,0.0,-0.45433182028905955,-0.4167318518682316,-0.6078470327298314,0.25259231696142076,1.2116001905506288,-0.15685480371036384
15213,5.0,301.35613,5289.4229,0.0,0.0,0.0,0.0,0.15162507419866617,0.0,-0.5106710083118046,-0.4285692170889886,-0.6686122694418933,0.23792030352590576,1.2041984998951387,-0.14886317858165185
15214,5.0,300.44158,4902.6354,0.0,0.0,0.0,0.0,0.15163504100824995,0.0,-0.40805964691235164,-0.4519749296289526,-0.6302441662527564,0.2848409873641167,1.2567419010557688,-0.18500690395875982
15215,5.0,299.91949,4690.9187,0.0,0.0,0.0,0.0,0.1516450078178338,0.0,-0.38960799782131567,-0.3901796228652306,-0.6461345217410124,0.27099501594012576,1.2636421342367687,-0.15110078943998687
15216,5.0,299.97837999999996,4974.3122,0.0,0.0,0.0,0.0,0.15165497462741762,0.0,-0.43704573305305555,-0.4086497739030926,-0.6663711932682164,0.2421189687602818,1.2737550795098387,-0.14452436059344387
15217,5.0,298.98461000000003,4914.3976,0.0,0.0,0.0,0.0,0.15166494143700146,0.0,-0.4336465829425856,-0.39387458120989466,-0.6663329734744443,0.2175402469770508,1.244081138406249,-0.14319647607239186
15218,5.0,298.78359,4661.6848,0.0,0.0,0.0,0.0,0.15167490824658525,0.0,-0.4467861569268606,-0.3374599668497057,-0.6327896632864773,0.23992771409402178,1.2698577143251988,-0.14703944999166388
15219,5.0,299.22398,4699.1761,0.0,0.0,0.0,0.0,0.1516848750561691,0.0,-0.42875279774210656,-0.37059968939034166,-0.6290796987078324,0.2288379754595498,1.2588263591614888,-0.12680097487928188
15220,5.0,299.80518,4661.0797,0.0,0.0,0.0,0.0,0.1516948418657529,0.0,-0.41152711034456363,-0.36045562720670066,-0.6448691142211264,0.2270039927785498,1.229365808528959,-0.15456743213961785
15221,5.0,300.70562,4999.2204,0.0,0.0,0.0,0.0,0.15170480867533676,0.0,-0.4477037055549156,-0.40410056466412064,-0.6678338907150734,0.22798678458054378,1.2445201796745788,-0.17416121674337381
15222,5.0,300.50241,5385.1559,0.0,0.0,0.0,0.0,0.15171477548492054,0.0,-0.48340327275068856,-0.44411925226615756,-0.7094304113728302,0.24602570650834676,1.2539427976545188,-0.14291967641007386
15223,5.0,300.64051,5022.8704,0.0,0.0,0.0,0.0,0.15172474229450436,0.0,-0.45015976300230953,-0.4090358931186996,-0.6676315142726004,0.27635522042663674,1.251712026234359,-0.1202687338695999
15224,5.0,300.80784,4760.9753,0.0,0.0,0.0,0.0,0.15173470910408818,0.0,-0.42657997409516557,-0.3825316009779296,-0.6381060447061634,0.2606005289942698,1.2339582632821988,-0.1058209425487139
15225,5.0,299.87989,5180.753,0.0,0.0,0.0,0.0,0.15174467591367202,0.0,-0.47830365592489554,-0.4220574234663246,-0.6744584590738674,0.26442655123936876,1.225285957001309,-0.14950512318250686
15226,5.0,300.35847,5423.2486,0.0,0.0,0.0,0.0,0.15175464272325584,0.0,-0.4806425512632265,-0.4387586931421116,-0.7291309114771183,0.23646421246970079,1.2195244142826887,-0.1179046693987849
15227,5.0,299.43737000000004,4780.8245,0.0,0.0,0.0,0.0,0.15176460953283968,0.0,-0.4222717055974726,-0.38342655412875465,-0.6475530110860064,0.23358534602057876,1.2315506797195888,-0.16800828590862682
15228,5.0,298.69077999999996,4680.3359,0.0,0.0,0.0,0.0,0.15177457634242345,0.0,-0.4077220015815286,-0.3787174033614977,-0.6362658609345514,0.23076098229433575,1.226018739473629,-0.15416317574722085
15229,5.0,298.65137000000004,4973.2358,0.0,0.0,0.0,0.0,0.1517845431520073,0.0,-0.4897791490049386,-0.36267653970338765,-0.6592838330587484,0.23336236007107178,1.2439289482412288,-0.14538038467542685
15230,5.0,298.8008,5005.1725,0.0,0.0,0.0,0.0,0.1517945099615911,0.0,-0.49886472960411554,-0.37242632600811665,-0.6501564052304414,0.24048160726118678,1.2544414180287287,-0.15062722674074985
15231,5.0,298.89722,4875.3658,0.0,0.0,0.0,0.0,0.15180447677117495,0.0,-0.4481832666947446,-0.37614051583967867,-0.6576656827815494,0.22676866544282476,1.2515038033388088,-0.14225791263726287
15232,5.0,301.0777,4892.0515,0.0,0.0,0.0,0.0,0.15181444358075877,0.0,-0.4303253517648056,-0.3904307670350166,-0.6663053725417204,0.26149649539519476,1.249003304742029,-0.14975511224717886
15233,5.0,300.21811,4857.6483,0.0,0.0,0.0,0.0,0.15182441039034258,0.0,-0.4114814836925606,-0.3987399346125676,-0.6663823592843183,0.2632158490923817,1.2638611989083888,-0.15427823029607585
15234,5.0,300.039,5011.6573,0.0,0.0,0.0,0.0,0.15183437719992637,0.0,-0.42667541212208454,-0.4137412239330796,-0.6830020319295523,0.24121837180639977,1.2674121338838387,-0.14191274899069786
15235,5.0,299.91818,5195.8224,0.0,0.0,0.0,0.0,0.15184434400951022,0.0,-0.5096566537691956,-0.4266481354293926,-0.6430954604510805,0.24080323310792875,1.2491466796311788,-0.11038042614369989
15236,5.0,300.1244,4953.7601,0.0,0.0,0.0,0.0,0.15185431081909403,0.0,-0.47120201902151854,-0.38369059697231367,-0.6509267691489704,0.2393171093187598,1.2340549273417387,-0.12673297566507088
15237,5.0,299.39004,4660.7724,0.0,0.0,0.0,0.0,0.15186427762867788,0.0,-0.4287246597868296,-0.3950526769686636,-0.5929810933576773,0.2531747635164038,1.2394812869272789,-0.17859540183099384
15238,5.0,299.29783,4928.3778,0.0,0.0,0.0,0.0,0.15187424443826167,0.0,-0.41650303973064956,-0.40312134963497964,-0.6784793901082024,0.24569548830075674,1.232289744342529,-0.15768269996957085
15239,5.0,299.00023,5028.1568,0.0,0.0,0.0,0.0,0.1518842112478455,0.0,-0.44797768838195556,-0.3885750298743696,-0.6918813857358763,0.25432036434446575,1.259128712991329,-0.16873416814776582
15240,5.0,300.12531,4861.7161,0.0,0.0,0.0,0.0,0.15189417805742933,0.0,-0.43061869780125656,-0.39065267893941763,-0.6565689104758065,0.2298078584552698,1.2650689930275887,-0.16714844187376685
15241,5.0,301.42905,4938.5287,0.0,0.0,0.0,0.0,0.15190414486701317,0.0,-0.4809825270692795,-0.39218240288038964,-0.6280244899211914,0.24914038665324176,1.2864811967908087,-0.15862660323272684
15242,5.0,301.25485,5007.7211,0.0,0.0,0.0,0.0,0.15191411167659696,0.0,-0.47653983068081956,-0.4035882451485586,-0.6420940957747534,0.2349997924976738,1.2617705599770588,-0.13731093180653386
15243,5.0,301.06015,4870.5137,0.0,0.0,0.0,0.0,0.15192407848618078,0.0,-0.42507458842159557,-0.3962762777894236,-0.6591636717293894,0.24614959659807378,1.2720637624429187,-0.14685166435063088
15244,5.0,300.18149,5036.7398,0.0,0.0,0.0,0.0,0.1519340452957646,0.0,-0.4324126064408016,-0.38988335866849166,-0.7087471768304003,0.22357282396491981,1.2501367263038887,-0.14432789139905386
15245,5.0,300.16193,5167.9059,0.0,0.0,0.0,0.0,0.15194401210534844,0.0,-0.4271174931407146,-0.42621049244620063,-0.7175863451377583,0.24950252223898178,1.2464500158150387,-0.15757962203689785
15246,5.0,299.85122,4689.7461,0.0,0.0,0.0,0.0,0.15195397891493226,0.0,-0.4119196231683016,-0.3812093298624316,-0.6324367584091484,0.25375385621355573,1.241040678831179,-0.15556934397099884
15247,5.0,300.38167000000004,4629.9813,0.0,0.0,0.0,0.0,0.1519639457245161,0.0,-0.44705162845306057,-0.3697917642906056,-0.5905553219557724,0.25515227307406874,1.2699985560890987,-0.13553017515328689
15248,5.0,299.70056,5019.4378,0.0,0.0,0.0,0.0,0.15197391253409986,0.0,-0.5089035657648715,-0.3882525528975436,-0.6286276473082184,0.25872460789163076,1.2489743257891688,-0.13517456489819085
15249,5.0,299.7188,5108.3653,0.0,0.0,0.0,0.0,0.1519838793436837,0.0,-0.4839323716879065,-0.4168730381371656,-0.6520100854933853,0.24583105103163574,1.258367559516209,-0.17271599786074185
15250,5.0,299.99332000000004,4867.0847,0.0,0.0,0.0,0.0,0.15199384615326753,0.0,-0.4153547943198266,-0.4185124362689616,-0.6456049769737504,0.25855724937261376,1.258584901662659,-0.18000445781755683
15251,5.0,301.63409,5024.9689,0.0,0.0,0.0,0.0,0.15200381296285137,0.0,-0.42394896888550554,-0.41524667040165564,-0.6882694531044063,0.26373068146819173,1.2707294133862288,-0.16979065362953283
15252,5.0,301.95513,5165.0395,0.0,0.0,0.0,0.0,0.1520137797724352,0.0,-0.47924411413771156,-0.4054911997638656,-0.6853077230621063,0.23607236839102877,1.231232721838209,-0.14226395160785887
15253,5.0,300.65812,4932.7042,0.0,0.0,0.0,0.0,0.152023746582019,0.0,-0.4807460040984366,-0.39189883470740366,-0.6267740785027853,0.22179251314171677,1.2369954804569487,-0.15423529888933885
15254,5.0,299.7423,4863.2391,0.0,0.0,0.0,0.0,0.1520337133916028,0.0,-0.45880687988571356,-0.36368846244575664,-0.6558078988557003,0.2255631511363498,1.2452538740719887,-0.12348739373975688
15255,5.0,299.87716,4889.1994,0.0,0.0,0.0,0.0,0.15204368020118664,0.0,-0.4061973641560586,-0.3918821464782566,-0.6881150337891663,0.25499703302624777,1.2812784615023387,-0.1392407172844889
15256,5.0,299.68937,4837.3241,0.0,0.0,0.0,0.0,0.15205364701077045,0.0,-0.37136743912361264,-0.3981236252392426,-0.7009346537893643,0.2549523993593428,1.2611232958131788,-0.13466509261540988
15257,5.0,299.77457000000004,5092.7135,0.0,0.0,0.0,0.0,0.1520636138203543,0.0,-0.4257449952177596,-0.3999478908517836,-0.7223648630068613,0.25097911134470974,1.2517271236608487,-0.16784903339040985
15258,5.0,299.68687,5239.3901,0.0,0.0,0.0,0.0,0.1520735806299381,0.0,-0.4975060726775265,-0.41749150573320354,-0.6776461742859704,0.24075816374348077,1.2385175847571688,-0.13793693798331585
15259,5.0,299.93584,4869.3579,0.0,0.0,0.0,0.0,0.15208354743952193,0.0,-0.4837847512808376,-0.3799514001282836,-0.6164270623241145,0.24939472256084277,1.2539329691285488,-0.15241640350232785
15260,5.0,300.61237,4921.6609,0.0,0.0,0.0,0.0,0.15209351424910575,0.0,-0.47410831415084753,-0.38490345734201364,-0.6370502482344644,0.2466149925015048,1.2337189336085788,-0.12491550896070087
15261,5.0,300.71549,5156.3128,0.0,0.0,0.0,0.0,0.1521034810586896,0.0,-0.48296521433495554,-0.41619541700028967,-0.6682296966016363,0.2306629098171568,1.2200845389379686,-0.17217606727995483
15262,5.0,299.642,4958.992,0.0,0.0,0.0,0.0,0.15211344786827338,0.0,-0.4131171125339846,-0.3956010783202866,-0.6986915511154873,0.24484217972904176,1.2461911304144886,-0.15441011492909185
15263,5.0,300.40891,4795.0121,0.0,0.0,0.0,0.0,0.1521234146778572,0.0,-0.39139525954020465,-0.42090855997294063,-0.6452601375672175,0.2501933865546648,1.2618598273108688,-0.18135438052828384
15264,5.0,301.26447,4951.8677,0.0,0.0,0.0,0.0,0.15213338148744102,0.0,-0.4579292330465966,-0.38900753567955465,-0.6583073538048774,0.27939836511447175,1.227691311413699,-0.11422765571339188
15265,5.0,301.1431,4881.7954,0.0,0.0,0.0,0.0,0.15214334829702486,0.0,-0.4923692695730636,-0.37732467083404564,-0.6142499728942524,0.25563566429927576,1.211914500731649,-0.14333161323822885
15266,5.0,300.81211,4850.2468,0.0,0.0,0.0,0.0,0.15215331510660868,0.0,-0.4339985252323196,-0.3872218748958236,-0.6531335265417604,0.2528339771102707,1.2384675302022288,-0.1108423871292919
15267,5.0,300.64755,5054.9149,0.0,0.0,0.0,0.0,0.15216328191619252,0.0,-0.4410076827990696,-0.39831910144853466,-0.6972411038623394,0.2300212387938288,1.2812957880790488,-0.15654498222728683
15268,5.0,300.27153,5173.1,0.0,0.0,0.0,0.0,0.15217324872577628,0.0,-0.39520623502131863,-0.4340322157981446,-0.7432547870060363,0.22830075025652977,1.2697500058395688,-0.14576604792848885
15269,5.0,300.45272,4990.4015,0.0,0.0,0.0,0.0,0.15218321553536013,0.0,-0.4303734000845476,-0.41833550253649954,-0.6682485430534963,0.23731883826654576,1.2641017444821288,-0.1918013943593238
15270,5.0,299.59494,5048.3378,0.0,0.0,0.0,0.0,0.15219318234494394,0.0,-0.47970481869317955,-0.39467483600637365,-0.6601889693730784,0.23972469930398577,1.2572950342853588,-0.13732732619315188
15271,5.0,298.88522,4866.8618,0.0,0.0,0.0,0.0,0.1522031491545278,0.0,-0.4913964886820575,-0.37278769152378066,-0.6152202713225134,0.2613089630666868,1.2632021810433487,-0.14639852877340986
15272,5.0,300.11347,4657.6199,0.0,0.0,0.0,0.0,0.1522131159641116,0.0,-0.44329144719945957,-0.36050695845676667,-0.6120017330423684,0.23989418564821277,1.216934952327129,-0.13474194763549488
15273,5.0,300.6812,4863.2659,0.0,0.0,0.0,0.0,0.15222308277369542,0.0,-0.4230761653818666,-0.3878267142780166,-0.6674085384555944,0.26233372368782276,1.227133010608599,-0.17494611066833682
15274,5.0,300.45279,5167.7112,0.0,0.0,0.0,0.0,0.1522330495832792,0.0,-0.4436011673575266,-0.4360097253558096,-0.6912442540729963,0.26347855444580875,1.2349454728546287,-0.16950261702360583
15275,5.0,301.14886,4922.1232,0.0,0.0,0.0,0.0,0.15224301639286306,0.0,-0.4392745894305266,-0.3992150881144616,-0.6577128597062054,0.26002106139458075,1.265489795794119,-0.16423473988620685
15276,5.0,300.86764,4827.1244,0.0,0.0,0.0,0.0,0.15225298320244687,0.0,-0.4539873557850636,-0.3913351535442726,-0.6220027749743945,0.2402948146052518,1.2294558864628489,-0.13642832004192687
15277,5.0,300.17841,5202.8618,0.0,0.0,0.0,0.0,0.15226295001203072,0.0,-0.5015519397968226,-0.42600184398560864,-0.6539862879584214,0.25242841362524476,1.2210877578619788,-0.12319349041575088
15278,5.0,299.72609,5149.255,0.0,0.0,0.0,0.0,0.1522729168216145,0.0,-0.4804464063088686,-0.4030366013966156,-0.6817619353971643,0.23916469623871775,1.2575749952879887,-0.13555832324106487
15279,5.0,299.98101,4811.5693,0.0,0.0,0.0,0.0,0.15228288363119835,0.0,-0.39604750618184564,-0.39838457766999663,-0.6681648485952363,0.25457826689241875,1.2874315240595986,-0.15657917941816185
15280,5.0,299.75432,4803.3759,0.0,0.0,0.0,0.0,0.15229285044078217,0.0,-0.4141240095558576,-0.38685065045668665,-0.6591316732912313,0.2055352800572528,1.2367399387817288,-0.17680982210727084
15281,5.0,301.25967,4922.2381,0.0,0.0,0.0,0.0,0.152302817250366,0.0,-0.44323794759417956,-0.39813182243255163,-0.6548676939554094,0.22509944736058576,1.2610779022086989,-0.16683670534800082
15282,5.0,301.71167,4881.213,0.0,0.0,0.0,0.0,0.1523127840599498,0.0,-0.4625697259870776,-0.3851472959785786,-0.6360498562782334,0.24192252996339478,1.2647072627418887,-0.17554323921726883
15283,5.0,301.57881000000003,5098.718,0.0,0.0,0.0,0.0,0.15232275086953362,0.0,-0.46840993744346154,-0.4046049909614036,-0.6768680286066734,0.2616885569516497,1.261531432953459,-0.1155740219162679
15284,5.0,300.30053,4996.7461,0.0,0.0,0.0,0.0,0.15233271767911744,0.0,-0.4543758358734036,-0.3982038239846576,-0.6663063959243214,0.25114097804818475,1.223062784956899,-0.13479906454363189
15285,5.0,300.90109,5041.9377,0.0,0.0,0.0,0.0,0.15234268448870128,0.0,-0.41657708804795757,-0.44584706660167955,-0.6701990190984933,0.24820917941383874,1.233341295296309,-0.14473952425217887
15286,5.0,299.99998,5262.0762,0.0,0.0,0.0,0.0,0.1523526512982851,0.0,-0.4578475042935306,-0.4397328520532536,-0.7019594144105004,0.2632703619477617,1.2489923616409488,-0.18296113174185782
15287,5.0,300.27923,5302.7946,0.0,0.0,0.0,0.0,0.1523626181078689,0.0,-0.48469707153837654,-0.40271694125506763,-0.7245031449578933,0.27769485864884874,1.2655138098214886,-0.13279991196383087
15288,5.0,299.42257,4873.1744,0.0,0.0,0.0,0.0,0.1523725849174527,0.0,-0.43295340841667457,-0.3944131844330506,-0.6539567314530044,0.26211570266380574,1.259956842298059,-0.15547541568672885
15289,5.0,299.29041,4630.8851,0.0,0.0,0.0,0.0,0.15238255172703655,0.0,-0.4443439911383376,-0.3428328673599697,-0.6204965685682434,0.2091173218107728,1.247589719527519,-0.13070708441228487
15290,5.0,299.40116,4894.5007,0.0,0.0,0.0,0.0,0.15239251853662036,0.0,-0.4387250127087876,-0.3916255712879346,-0.6574554232532983,0.24817143584761375,1.2825976118075288,-0.15391642908286887
15291,5.0,300.78244,4859.6805,0.0,0.0,0.0,0.0,0.1524024853462042,0.0,-0.41748330853989457,-0.37304719500689165,-0.6866910120986263,0.2150632963125948,1.2518687760248288,-0.13974011786127588
15292,5.0,301.03541,4723.9752,0.0,0.0,0.0,0.0,0.15241245215578803,0.0,-0.3903657771736026,-0.38973031737338765,-0.6558744085922643,0.22629781825385578,1.2650557194512788,-0.1867898492322228
15293,5.0,301.22142,4988.8233,0.0,0.0,0.0,0.0,0.15242241896537184,0.0,-0.46748972396764354,-0.4017077340229666,-0.6472802644240884,0.21360074072075183,1.2643152362781989,-0.17031278140606282
15294,5.0,300.33353,4863.4436,0.0,0.0,0.0,0.0,0.15243238577495563,0.0,-0.44812862211685156,-0.37077153660730167,-0.6594652656216544,0.25937469902328975,1.2658753374571687,-0.14979423383353987
15295,5.0,300.15013,4835.7761,0.0,0.0,0.0,0.0,0.15244235258453948,0.0,-0.4506686070700286,-0.3845709897192016,-0.6347155882815514,0.24371478700527677,1.2687940043702186,-0.12907777825148486
15296,5.0,300.68192,5081.7044,0.0,0.0,0.0,0.0,0.1524523193941233,0.0,-0.4565719136101396,-0.38886955128093664,-0.6992697724175533,0.25926954392791174,1.2412427209011188,-0.12734602237307388
15297,5.0,299.26383,5074.5502,0.0,0.0,0.0,0.0,0.1524622862037071,0.0,-0.4594656140407256,-0.3967599121946546,-0.6863110230461243,0.25131075823494076,1.238238029054579,-0.15050425870861386
15298,5.0,299.40227999999996,4891.6923,0.0,0.0,0.0,0.0,0.15247225301329093,0.0,-0.4207608483733626,-0.4085382353320846,-0.6576532198053193,0.2645435512284158,1.268155555482209,-0.18758011338271582
15299,5.0,299.99655,4981.9868,0.0,0.0,0.0,0.0,0.15248221982287477,0.0,-0.49045582781922153,-0.36998050238673263,-0.6539632770486504,0.24981047934187475,1.2542746370622686,-0.16215454756340783
15300,5.0,299.59458,4919.2911,0.0,0.0,0.0,0.0,0.1524921866324586,0.0,-0.4274967729181466,-0.40133588136876763,-0.6665090155468183,0.24123009511005677,1.2420371089795188,-0.14781344134555086
15301,5.0,300.14923,4671.8215,0.0,0.0,0.0,0.0,0.15250215344204238,0.0,-0.43560180099805057,-0.36381489579323467,-0.6207003635608563,0.24727759727189874,1.2548744811214687,-0.14826288869240786
15302,5.0,300.69772,4764.3914,0.0,0.0,0.0,0.0,0.15251212025162622,0.0,-0.39729850528530963,-0.38475643475250365,-0.6662010685764264,0.23980921449482678,1.2853580090549588,-0.1325020468319339
15303,5.0,300.67503,4976.1926,0.0,0.0,0.0,0.0,0.15252208706121004,0.0,-0.45591819504312253,-0.4020509623618406,-0.6546691273333124,0.22625873719749875,1.2510930317482687,-0.12227563781266587
15304,5.0,300.21522000000004,5196.2614,0.0,0.0,0.0,0.0,0.15253205387079385,0.0,-0.4344771035195516,-0.4467204375253746,-0.6983361739079144,0.2241254607019608,1.2269741329929187,-0.15790888778939385
15305,5.0,300.30728,5171.3344,0.0,0.0,0.0,0.0,0.15254202068037767,0.0,-0.49402775733674353,-0.41970438315659764,-0.6582243888866893,0.25875718388234575,1.233640710700859,-0.15595591914915086
15306,5.0,299.68441,5111.0182,0.0,0.0,0.0,0.0,0.15255198748996152,0.0,-0.4471304694433416,-0.41787617600116755,-0.6886152652310353,0.25836244190838775,1.2735353055631489,-0.16103166380258785
15307,5.0,300.30564,4901.6336,0.0,0.0,0.0,0.0,0.15256195429954533,0.0,-0.45388754051771263,-0.3429582773248467,-0.6931283926339463,0.24627755995320275,1.251775354365609,-0.10692646933532089
15308,5.0,300.41697,4961.8373,0.0,0.0,0.0,0.0,0.15257192110912912,0.0,-0.42915207907651265,-0.3970289604937076,-0.6820936025523974,0.2235961895122258,1.2418912009651186,-0.16037777298305383
15309,5.0,298.82815,5117.6687,0.0,0.0,0.0,0.0,0.15258188791871297,0.0,-0.46835363113540457,-0.3929259865987756,-0.6943638687458784,0.26678922755754675,1.257559999186509,-0.14025584189717386
15310,5.0,298.54299,4873.5464,0.0,0.0,0.0,0.0,0.15259185472829678,0.0,-0.47038643375102657,-0.3594977005621607,-0.6515522990982053,0.24495125610230678,1.2875819916994486,-0.17319094871261584
15311,5.0,299.28851000000003,4679.8764,0.0,0.0,0.0,0.0,0.1526018215378806,0.0,-0.4372760448007856,-0.37546831559083765,-0.6098212188271684,0.2547046090473878,1.2505251050672188,-0.14504453279728086
15312,5.0,299.56907,4863.8554,0.0,0.0,0.0,0.0,0.15261178834746444,0.0,-0.45148523598812357,-0.38396095236399563,-0.6430444027785414,0.20304326236380982,1.2222698154286389,-0.15177910971943184
15313,5.0,299.51011,5217.2474,0.0,0.0,0.0,0.0,0.15262175515704826,0.0,-0.46546723623803954,-0.4384506043167056,-0.6819950943776754,0.24692129800673476,1.2438214424056189,-0.13121276713969188
15314,5.0,299.86017999999996,4967.9346,0.0,0.0,0.0,0.0,0.15263172196663205,0.0,-0.42718526943990354,-0.4090350419886156,-0.6739077677770183,0.23730359898504175,1.2698131313207988,-0.14295798739635487
15315,5.0,300.37302,4757.7611,0.0,0.0,0.0,0.0,0.15264168877621587,0.0,-0.4234643110976736,-0.35959060546382965,-0.6631856565438283,0.2417417762780558,1.2627341608221587,-0.1159178784702039
15316,5.0,301.00563,4757.9455,0.0,0.0,0.0,0.0,0.1526516555857997,0.0,-0.39561902297955764,-0.4061666930755316,-0.6445109201782754,0.22866493260747175,1.2645322744496188,-0.16505143973180886
15317,5.0,300.52582,4973.1961,0.0,0.0,0.0,0.0,0.15266162239538353,0.0,-0.44245249638166156,-0.3964437578984526,-0.6728311794132673,0.24437521328795575,1.2713746510499089,-0.17316344910490183
15318,5.0,300.23312999999996,5076.2141,0.0,0.0,0.0,0.0,0.15267158920496735,0.0,-0.44532226384488555,-0.4229982565816776,-0.6747218230398594,0.27673854307196777,1.2843407059545588,-0.19534763798681082
15319,5.0,299.67652999999996,4913.0497,0.0,0.0,0.0,0.0,0.15268155601455116,0.0,-0.46310941338784056,-0.3584435252906216,-0.6718914912705274,0.24572404168857478,1.227331404978179,-0.13844212421817387
15320,5.0,299.1865,4619.0396,0.0,0.0,0.0,0.0,0.152691522824135,0.0,-0.3934290855384276,-0.37484801401211865,-0.6357956115631413,0.26170850784611877,1.2394452152237188,-0.1883357649097928
15321,5.0,299.61222000000004,4856.7688,0.0,0.0,0.0,0.0,0.1527014896337188,0.0,-0.44899196186455664,-0.4007252563285036,-0.6266192133575015,0.23941363152328576,1.251483031711759,-0.15953163822204686
15322,5.0,298.53629,5296.8534,0.0,0.0,0.0,0.0,0.15271145644330264,0.0,-0.4945100035893375,-0.42287433609444763,-0.6927268416193163,0.2685727807810697,1.269336599798769,-0.1873077517558358
15323,5.0,297.70952,5187.958,0.0,0.0,0.0,0.0,0.15272142325288643,0.0,-0.5044173908146204,-0.40775981607526063,-0.6648324817988573,0.2173151433348348,1.197889700797509,-0.10824678487812589
15324,5.0,298.59177,4819.4293,0.0,0.0,0.0,0.0,0.15273139006247027,0.0,-0.4161827007115346,-0.40570493473995956,-0.6430985305988833,0.2501350740114098,1.2285189340953788,-0.14575446647984586
15325,5.0,299.06065,4995.1479,0.0,0.0,0.0,0.0,0.1527413568720541,0.0,-0.4533232311395196,-0.38279976774939567,-0.6822772237355194,0.24973865004228576,1.2410245681545886,-0.06863423223417134
15326,5.0,300.12442000000004,5260.8613,0.0,0.0,0.0,0.0,0.15275132368163793,0.0,-0.4700881633190896,-0.42017060992511057,-0.7089116982491374,0.26638527514017973,1.2919445400049987,-0.11977157257553389
15327,5.0,300.1796,5110.4496,0.0,0.0,0.0,0.0,0.15276129049122175,0.0,-0.48567675266256355,-0.3990142112821366,-0.6687580963962854,0.2196198921447958,1.260792672305549,-0.1122505514557669
15328,5.0,300.85972999999996,4821.7005,0.0,0.0,0.0,0.0,0.15277125730080554,0.0,-0.43540739883386453,-0.38584700596763466,-0.6444221290720124,0.24074855813253276,1.2671629756842486,-0.17118317337446384
15329,5.0,300.339,4816.1307,0.0,0.0,0.0,0.0,0.15278122411038936,0.0,-0.4515612196131225,-0.40283154997387866,-0.6095907145619194,0.25523929099265674,1.2792133564735289,-0.18994584971619582
15330,5.0,300.68902,4893.2961,0.0,0.0,0.0,0.0,0.1527911909199732,0.0,-0.43712742127611753,-0.3845659234687016,-0.6657464739190614,0.25680344517202675,1.2786009481130887,-0.17674983770135083
15331,5.0,300.89724,5079.2755,0.0,0.0,0.0,0.0,0.15280115772955702,0.0,-0.48752985537295057,-0.39911564774964764,-0.6573274193681654,0.24216763516258477,1.221898864567029,-0.17186734010698584
15332,5.0,300.77529,4901.6789,0.0,0.0,0.0,0.0,0.15281112453914086,0.0,-0.4204223316474536,-0.38159677643566964,-0.6879688825947423,0.24328357816021975,1.220256588804949,-0.14400266851445687
15333,5.0,299.41707,4587.2671,0.0,0.0,0.0,0.0,0.15282109134872465,0.0,-0.4107218703575926,-0.37361693540562063,-0.6100758384447974,0.25826993217425775,1.253411753277109,-0.16396009844660184
15334,5.0,300.25302999999997,4874.7259,0.0,0.0,0.0,0.0,0.15283105815830847,0.0,-0.4108813559233326,-0.41613896883721857,-0.6547746269337245,0.24528095755234575,1.262695353343329,-0.15776400315759484
15335,5.0,299.68912,5268.8507,0.0,0.0,0.0,0.0,0.15284102496789229,0.0,-0.49392055547616354,-0.4152789626823426,-0.6923995517045154,0.2252793296508388,1.225933930440259,-0.12970492940087988
15336,5.0,299.61197999999996,5172.5207,0.0,0.0,0.0,0.0,0.15285099177747613,0.0,-0.4302853081208536,-0.45301877988197253,-0.6890130570877943,0.23863866744930276,1.227967726040979,-0.13983914279354887
15337,5.0,299.52387000000004,4686.6164,0.0,0.0,0.0,0.0,0.15286095858705995,0.0,-0.40420053191898664,-0.3994607506012066,-0.6209530884007983,0.26528457142404877,1.2523688149491787,-0.14836045454453686
15338,5.0,299.40226,4808.2641,0.0,0.0,0.0,0.0,0.15287092539664376,0.0,-0.42314086140075163,-0.3732201162689576,-0.6652312463757123,0.2412087965929548,1.2990304006043187,-0.15993234823909386
15339,5.0,299.1516,5057.9209,0.0,0.0,0.0,0.0,0.15288089220622758,0.0,-0.4907634809470845,-0.3943694424262336,-0.6523487339418074,0.22635615106211276,1.2728962487250788,-0.16170620465915986
15340,5.0,299.37094,5029.74,0.0,0.0,0.0,0.0,0.15289085901581143,0.0,-0.47152195274059355,-0.38517771374658066,-0.6722157110375253,0.2108498477592598,1.2784998257531088,-0.19143933983359182
15341,5.0,299.88277999999997,5054.228,0.0,0.0,0.0,0.0,0.15290082582539521,0.0,-0.4851059584837305,-0.3868853542726116,-0.6643677951704964,0.24902510918936474,1.291627494048709,-0.17116375950254784
15342,5.0,301.02955,5068.9112,0.0,0.0,0.0,0.0,0.15291079263497906,0.0,-0.44890682859115455,-0.3952928476398666,-0.6966227578563133,0.26368912808159073,1.2732941520393488,-0.13961619737404588
15343,5.0,300.80092,4882.9331,0.0,0.0,0.0,0.0,0.15292075944456285,0.0,-0.4529204946222725,-0.36434289028784367,-0.6670263405178743,0.24281103884358377,1.2332027840076387,-0.1074431356938119
15344,5.0,300.52897,5249.079000000001,0.0,0.0,0.0,0.0,0.1529307262541467,0.0,-0.4646761513549656,-0.42644151346900055,-0.7044712918059033,0.24430682903870676,1.2182551158824189,-0.0919547689442291
15345,5.0,300.09779,5455.0466,0.0,0.0,0.0,0.0,0.1529406930637305,0.0,-0.5013679335786625,-0.4461325295523526,-0.7106974806228803,0.27454009432999776,1.2473774436315688,-0.13242366180419787
15346,5.0,300.42037,4968.3165,0.0,0.0,0.0,0.0,0.15295065987331435,0.0,-0.4330298885342226,-0.4084142337848466,-0.6688000449504253,0.2587876523128528,1.2886154054764387,-0.13319467420279088
15347,5.0,299.53191,4692.2899,0.0,0.0,0.0,0.0,0.15296062668289817,0.0,-0.4224929386243066,-0.4147727935948876,-0.5890732410345025,0.24326574495845976,1.2704950486380988,-0.17400094084255582
15348,5.0,299.08418,4998.8316,0.0,0.0,0.0,0.0,0.15297059349248196,0.0,-0.45342024983659457,-0.3925886655079846,-0.6735110803628683,0.2502176032320548,1.2540563829907287,-0.15240844948904284
15349,5.0,298.67835,4996.3994,0.0,0.0,0.0,0.0,0.15298056030206578,0.0,-0.4511052266706196,-0.4039490229791646,-0.6637264078571964,0.24992376070305475,1.2708126012194387,-0.17952262699750382
15350,5.0,299.28168,4637.3741,0.0,0.0,0.0,0.0,0.15299052711164962,0.0,-0.42161406575256866,-0.36590459240197165,-0.6221272730141815,0.2714729052172898,1.2806540967907187,-0.18317330631279782
15351,5.0,299.6378,4748.9834,0.0,0.0,0.0,0.0,0.15300049392123344,0.0,-0.4464597485396466,-0.3564752464413677,-0.6406373663709855,0.22819914153650178,1.2400440460328188,-0.17830971596529882
15352,5.0,299.47722999999996,4948.03,0.0,0.0,0.0,0.0,0.15301046073081728,0.0,-0.46019497172770757,-0.4009664098523036,-0.6429161861108874,0.2375370416755808,1.2453862045350488,-0.2018892616924188
15353,5.0,299.41477000000003,5159.1253,0.0,0.0,0.0,0.0,0.15302042754040107,0.0,-0.4836228947098635,-0.42165675397928165,-0.6629656090196113,0.23042636658131177,1.2604446208961988,-0.17176829490971082
15354,5.0,299.86421,5223.4244,0.0,0.0,0.0,0.0,0.15303039434998492,0.0,-0.4602334752315076,-0.41943926626793265,-0.7081178674582923,0.2698912927386968,1.261180848418859,-0.16084947130210686
15355,5.0,300.50491,4934.7703,0.0,0.0,0.0,0.0,0.1530403611595687,0.0,-0.4381190688839856,-0.4084215291855666,-0.6535063519160553,0.25230599274816273,1.2416012087864987,-0.1098741557312349
15356,5.0,300.38222,4677.6127,0.0,0.0,0.0,0.0,0.15305032796915255,0.0,-0.37030722488147766,-0.37723620396781465,-0.6743340420940884,0.23992806873155675,1.2376371717452788,-0.13866130034730487
15357,5.0,299.91778,5112.4511,0.0,0.0,0.0,0.0,0.15306029477873637,0.0,-0.4613509178392906,-0.41584993924619357,-0.6768566295430484,0.23931327923338178,1.2652839033737988,-0.12680774338994988
15358,5.0,299.28807,5529.2366,0.0,0.0,0.0,0.0,0.15307026158832018,0.0,-0.49608546563982353,-0.4449297814186506,-0.7397346143036223,0.22837148524601078,1.2698231624967886,-0.15497034090938186
15359,5.0,300.47166,5162.6158,0.0,0.0,0.0,0.0,0.153080228397904,0.0,-0.48809155056588555,-0.3970645458372196,-0.6841501962803673,0.2339857014000908,1.2692286886631188,-0.15567481317390783
15360,5.0,299.04736,4781.0740000000005,0.0,0.0,0.0,0.0,0.15309019520748784,0.0,-0.44296659921739956,-0.3675784005071636,-0.6427821027251545,0.24630547499345778,1.2576975985500887,-0.16981278301171684
15361,5.0,298.52484,4948.5159,0.0,0.0,0.0,0.0,0.15310016201707163,0.0,-0.4737956353024885,-0.35826695632819566,-0.6721626775272913,0.25514795662864276,1.2700688756460388,-0.15711254413830084
15362,5.0,299.09256,5020.1588,0.0,0.0,0.0,0.0,0.15311012882665548,0.0,-0.45151580574364053,-0.38322164456103164,-0.6912654613975894,0.28452249246018374,1.2420013412509887,-0.1263669491989469
15363,5.0,298.04672,5030.5559,0.0,0.0,0.0,0.0,0.15312009563623927,0.0,-0.4519809078045426,-0.41619966251820856,-0.6609828204289254,0.2523538282853838,1.251532680966659,-0.15650362135820486
15364,5.0,298.35281000000003,5092.4274,0.0,0.0,0.0,0.0,0.1531300624458231,0.0,-0.4721023930603786,-0.40560739928533357,-0.6702609793421084,0.24024440541277678,1.258109586040749,-0.13224679899924285
15365,5.0,299.09065,4783.1254,0.0,0.0,0.0,0.0,0.15314002925540693,0.0,-0.4183114885091296,-0.41199794740103163,-0.6236412611811004,0.22483385424437377,1.2675513544475787,-0.17966647811420083
15366,5.0,299.48492999999996,4800.7075,0.0,0.0,0.0,0.0,0.15314999606499077,0.0,-0.4171351558055346,-0.39793186765781763,-0.6442281626053693,0.23313239282837575,1.2663403179280588,-0.14750786538039284
15367,5.0,300.01322999999996,5292.419,0.0,0.0,0.0,0.0,0.1531599628745746,0.0,-0.4810144343149286,-0.4192386427481326,-0.7085101573670083,0.22813956243062178,1.2516403894522887,-0.16124828654146683
15368,5.0,300.78217,5099.6899,0.0,0.0,0.0,0.0,0.15316992968415838,0.0,-0.4468792138160446,-0.4086404013396676,-0.6946587954524853,0.26095272459652874,1.2255928704565988,-0.13887987865887685
15369,5.0,299.90982,4530.7083,0.0,0.0,0.0,0.0,0.1531798964937422,0.0,-0.3934847940289256,-0.3619876816229027,-0.6217497157619193,0.25429501282696376,1.2515407869674589,-0.17021477985639086
15370,5.0,299.57632,4831.2101,0.0,0.0,0.0,0.0,0.15318986330332604,0.0,-0.4154719868263926,-0.39389301222921363,-0.6592022258956943,0.2541871422213178,1.2510389241929287,-0.14231697498559184
15371,5.0,299.44853,5238.7285,0.0,0.0,0.0,0.0,0.15319983011290986,0.0,-0.5073206968561546,-0.4332815190640566,-0.6518404471616434,0.25257632787484274,1.2455657524527688,-0.17359595491008684
15372,5.0,300.01452,5096.9233,0.0,0.0,0.0,0.0,0.1532097969224937,0.0,-0.45698149969806257,-0.4128166028193266,-0.6795393003753074,0.2256292961028778,1.2525853464955488,-0.15743495018761985
15373,5.0,299.47938,4794.8279,0.0,0.0,0.0,0.0,0.1532197637320775,0.0,-0.4684425944941845,-0.38822330036715663,-0.6008420700184954,0.24164946919394578,1.2858204564005988,-0.17354047946711182
15374,5.0,298.69516,4925.1276,0.0,0.0,0.0,0.0,0.15322973054166134,0.0,-0.43285191115415755,-0.38987097675226967,-0.6743929423224013,0.21118491943482878,1.2618154469564888,-0.14313295542362287
15375,5.0,298.81434,5227.1091,0.0,0.0,0.0,0.0,0.15323969735124512,0.0,-0.4952809653254255,-0.4070630445114946,-0.6865666356488513,0.24707621381452377,1.2652679953472288,-0.14314499283481086
15376,5.0,299.6087,5444.9895,0.0,0.0,0.0,0.0,0.15324966416082897,0.0,-0.4676114760996595,-0.4587956733396075,-0.7287337073054173,0.23766288733800076,1.2402790187310089,-0.16333255212966782
15377,5.0,300.36531,5120.7836,0.0,0.0,0.0,0.0,0.15325963097041279,0.0,-0.47047513366478055,-0.4107610426064586,-0.6753541822947683,0.2870868055482617,1.2551463361232988,-0.12924972679345487
15378,5.0,300.3945,4621.5494,0.0,0.0,0.0,0.0,0.1532695977799966,0.0,-0.3723751872755697,-0.37916444930561766,-0.6532959910627943,0.24339972701918275,1.2581775751224589,-0.13791040096319687
15379,5.0,300.30462,4899.4372,0.0,0.0,0.0,0.0,0.15327956458958042,0.0,-0.4241988870226706,-0.4075168387012806,-0.6575908542616644,0.2552338498396198,1.2751071604432789,-0.14092137496035687
15380,5.0,300.47565,5538.6844,0.0,0.0,0.0,0.0,0.15328953139916426,0.0,-0.4992497747746165,-0.4481471443286795,-0.7362248476797353,0.24371106837740977,1.2606967175210788,-0.14184345281635885
15381,5.0,300.40837999999997,5165.1335,0.0,0.0,0.0,0.0,0.15329949820874805,0.0,-0.5022943582775935,-0.3973232792502546,-0.6704539528236533,0.2335809383826438,1.2853270036018989,-0.14783733378290886
15382,5.0,300.60283,4579.9537,0.0,0.0,0.0,0.0,0.1533094650183319,0.0,-0.4143639370470366,-0.36132902852789867,-0.6164985876486734,0.22407088705157477,1.263028003351159,-0.15512736427737886
15383,5.0,299.70793,4772.6558,0.0,0.0,0.0,0.0,0.1533194318279157,0.0,-0.46294807357441753,-0.3502357333855757,-0.6375843830246795,0.2154908270597888,1.2534914960599788,-0.17886672994277183
15384,5.0,299.03533999999996,5235.1846,0.0,0.0,0.0,0.0,0.15332939863749953,0.0,-0.47530588457653855,-0.4256282384087366,-0.6904312627227603,0.24230073569572075,1.251187162682559,-0.16120125147182485
15385,5.0,300.52247,5269.1982,0.0,0.0,0.0,0.0,0.15333936544708335,0.0,-0.4697414899298756,-0.4180449733353266,-0.7139182176557424,0.26423825897328573,1.2692424688644788,-0.16501657379586784
15386,5.0,300.24121,4771.7841,0.0,0.0,0.0,0.0,0.1533493322566672,0.0,-0.4161395666547776,-0.3759430029976856,-0.6584206554310593,0.2664335565074447,1.2874431764357488,-0.14116445365934688
15387,5.0,299.54517999999996,4591.0228,0.0,0.0,0.0,0.0,0.153359299066251,0.0,-0.39709413274013966,-0.3828347654078496,-0.6156273952126934,0.2504223101497578,1.2581034052151387,-0.15205687196934486
15388,5.0,299.87912,4697.1734,0.0,0.0,0.0,0.0,0.1533692658758348,0.0,-0.4226015489025256,-0.3812540648543466,-0.6239678114233285,0.24605275015351577,1.233983087909649,-0.14618842123267387
15389,5.0,300.09328999999997,5289.3636,0.0,0.0,0.0,0.0,0.15337923268541861,0.0,-0.48074659178349455,-0.43914913893564556,-0.6879387282717664,0.25191683378225577,1.2474478645135187,-0.13533881273940088
15390,5.0,300.26595,5297.5502,0.0,0.0,0.0,0.0,0.15338919949500246,0.0,-0.4817349361960365,-0.42201801816993556,-0.7065700266055323,0.2281205133287418,1.2376871249752088,-0.1378042630152219
15391,5.0,300.70002999999997,4707.7889,0.0,0.0,0.0,0.0,0.15339916630458628,0.0,-0.40797470615646864,-0.37470417302792264,-0.6483713929267744,0.2336036554498858,1.2537579808362789,-0.1374763347528579
15392,5.0,300.78901,4825.4393,0.0,0.0,0.0,0.0,0.15340913311417012,0.0,-0.4215182021606076,-0.38808498159600563,-0.6572098722240644,0.2199500900873838,1.2631776603909288,-0.18367335536964882
15393,5.0,301.51136,5483.6125,0.0,0.0,0.0,0.0,0.1534190999237539,0.0,-0.5197972202399915,-0.4085433015825846,-0.7385407523732973,0.2399515052063698,1.2744239259008487,-0.14607724743170186
15394,5.0,300.99415,5403.5381,0.0,0.0,0.0,0.0,0.15342906673333775,0.0,-0.5354621073159954,-0.4076734466367366,-0.6994051122334103,0.23749928797685477,1.2617495856999887,-0.17090866365737184
15395,5.0,301.28162000000003,4916.802,0.0,0.0,0.0,0.0,0.15343903354292154,0.0,-0.45853162036354755,-0.38605678926833864,-0.6499966258221724,0.2635317602085598,1.251438955332409,-0.14742848736755887
15396,5.0,300.25209,4751.3601,0.0,0.0,0.0,0.0,0.1534490003525054,0.0,-0.4100151182803416,-0.3928412383604116,-0.6414384722975484,0.27570394379236074,1.242482432398469,-0.16329508214096985
15397,5.0,300.39911,5092.9063,0.0,0.0,0.0,0.0,0.1534589671620892,0.0,-0.44110185426336357,-0.44126987139494556,-0.6657446196713783,0.26865793431947377,1.2626503650388887,-0.1408234544706929
15398,5.0,300.46592999999996,5435.0627,0.0,0.0,0.0,0.0,0.15346893397167302,0.0,-0.49019619261359754,-0.4324584154778226,-0.7294687290604583,0.25648225502282773,1.2704257423312588,-0.14594200894085485
15399,5.0,300.20407,5182.5852,0.0,0.0,0.0,0.0,0.15347890078125684,0.0,-0.47702037467324554,-0.4287841983627056,-0.6695719287441043,0.23181443815830377,1.2572197498029287,-0.15686377097374885
15400,5.0,299.7889,4688.4466,0.0,0.0,0.0,0.0,0.15348886759084068,0.0,-0.4210015459346176,-0.37083609077117263,-0.6333330591826064,0.2408328098783478,1.2588062968095088,-0.16351253574493083
15401,5.0,300.35783,4697.1517,0.0,0.0,0.0,0.0,0.15349883440042447,0.0,-0.4245906905713386,-0.37165250690674667,-0.6315736415764654,0.2225601615499778,1.2711736222300687,-0.17623122590266785
15402,5.0,299.8037,5156.3185,0.0,0.0,0.0,0.0,0.1535088012100083,0.0,-0.45034354630544754,-0.4100462655884156,-0.7070022689656913,0.26103639878978674,1.2666857348871488,-0.14541651717399287
15403,5.0,300.15896000000004,5392.4837,0.0,0.0,0.0,0.0,0.1535187680195921,0.0,-0.5021580558741415,-0.4075937747813736,-0.7294285638264943,0.26626157756797175,1.2490322836948888,-0.14302362573783287
15404,5.0,300.33579,4841.53,0.0,0.0,0.0,0.0,0.15352873482917595,0.0,-0.4192510347968556,-0.39147419172299464,-0.6609790004760484,0.27091695515242176,1.2617681281768187,-0.15409255221525087
15405,5.0,299.91152999999997,4582.4775,0.0,0.0,0.0,0.0,0.15353870163875977,0.0,-0.41542686679943963,-0.3672447271167326,-0.6102871618856535,0.2526305874176978,1.2879978295404886,-0.16930855936445385
15406,5.0,299.5995,5116.2841,0.0,0.0,0.0,0.0,0.15354866844834358,0.0,-0.47199333695211554,-0.40452593718860164,-0.6787033183803024,0.23135792845824976,1.2787190930747487,-0.14638470804204587
15407,5.0,299.42565,5437.9563,0.0,0.0,0.0,0.0,0.15355863525792743,0.0,-0.5170658627404275,-0.4420451597089606,-0.6938918968492983,0.23342260792201777,1.2624512613942387,-0.17135986392690183
15408,5.0,299.34815,5019.5019,0.0,0.0,0.0,0.0,0.15356860206751122,0.0,-0.42660605515273964,-0.41868161863815856,-0.6805155465816554,0.25029299917199577,1.2269446474150087,-0.18369920337969983
15409,5.0,300.1101,4631.045999999999,0.0,0.0,0.0,0.0,0.15357856887709503,0.0,-0.40630234699891965,-0.37955045706371365,-0.6218695325862444,0.23983073592695076,1.2476310601315987,-0.15487711176768085
15410,5.0,300.19344,4787.5368,0.0,0.0,0.0,0.0,0.15358853568667885,0.0,-0.4060663813156316,-0.4010779180258086,-0.6481473329321613,0.24776160657966675,1.2572079961017688,-0.15561627771563086
15411,5.0,300.6735,5186.5656,0.0,0.0,0.0,0.0,0.1535985024962627,0.0,-0.5042854656516005,-0.3915351589815116,-0.6807658092238544,0.2515401479250797,1.2580039040553188,-0.1288250736765449
15412,5.0,300.27116,5356.274,0.0,0.0,0.0,0.0,0.1536084693058465,0.0,-0.5074884404102095,-0.4249470202340056,-0.6957380790615023,0.24259645273740577,1.253047489866159,-0.15544105637583785
15413,5.0,300.28798,4981.9849,0.0,0.0,0.0,0.0,0.15361843611543033,0.0,-0.4652818621322446,-0.37998596208919466,-0.6691311953481074,0.26779911366721476,1.2709043003534886,-0.14631999175815888
15414,5.0,299.50561,4710.2438,0.0,0.0,0.0,0.0,0.15362840292501417,0.0,-0.3972144561895146,-0.37683578779329663,-0.6577462665620024,0.24502521322710574,1.274740667882109,-0.14859068523225885
15415,5.0,299.80705,5201.8265,0.0,0.0,0.0,0.0,0.15363836973459796,0.0,-0.47661416270815554,-0.4291284703491826,-0.6754827333349553,0.24402051495794977,1.2649710117429187,-0.14011623629839587
15416,5.0,299.34378,5503.4317,0.0,0.0,0.0,0.0,0.15364833654418178,0.0,-0.5114272677889414,-0.4289230845539126,-0.7325554739000962,0.24302063975926977,1.2368489644924887,-0.15929263278845884
15417,5.0,299.15995,4979.5275,0.0,0.0,0.0,0.0,0.15365830335376562,0.0,-0.46062326241247653,-0.4195414525405176,-0.6334873062453295,0.25101326800558077,1.2479929930673188,-0.16734918698357884
15418,5.0,299.77543,4516.846,0.0,0.0,0.0,0.0,0.15366827016334944,0.0,-0.4043598654972116,-0.3730463641418096,-0.5956021687163574,0.2481695613349288,1.2854951017934886,-0.1748420397505658
15419,5.0,301.35306,4930.3945,0.0,0.0,0.0,0.0,0.15367823697293326,0.0,-0.44419689762132053,-0.4021696950085586,-0.6523502335519554,0.25556875939517276,1.2778610728900688,-0.16030910502377685
15420,5.0,300.86544,5270.9614,0.0,0.0,0.0,0.0,0.15368820378251705,0.0,-0.48703831761693955,-0.43782216633968357,-0.6773801454722154,0.25191384469446076,1.2553536470937587,-0.15954483073834885
15421,5.0,301.46558,5255.6736,0.0,0.0,0.0,0.0,0.1536981705921009,0.0,-0.4746703335838146,-0.4062684537830746,-0.7166547629958183,0.24820866265628777,1.2555326883864288,-0.10524812186968091
15422,5.0,300.49271,4951.6581,0.0,0.0,0.0,0.0,0.1537081374016847,0.0,-0.42155781010701654,-0.3973613369240106,-0.6862612623337133,0.24869659324194276,1.2462740142726687,-0.13070060974414588
15423,5.0,299.21918,5021.8027,0.0,0.0,0.0,0.0,0.15371810421126852,0.0,-0.4648165067588176,-0.39927599457797264,-0.6624101250497894,0.22471913406805177,1.2395142175555287,-0.1251470872710559
15424,5.0,299.81126,5469.5378,0.0,0.0,0.0,0.0,0.15372807102085234,0.0,-0.5076372767173984,-0.43339107166486857,-0.7215745684588653,0.2079463492002068,1.251732797861409,-0.16231360756410584
15425,5.0,299.65272000000004,5557.7268,0.0,0.0,0.0,0.0,0.15373803783043619,0.0,-0.5236830850359965,-0.45973155166197155,-0.7059955441963354,0.23879016860425475,1.2526316520251186,-0.14903014193312986
15426,5.0,298.78722999999997,4934.2922,0.0,0.0,0.0,0.0,0.15374800464002,0.0,-0.4238551621912476,-0.4123044048937766,-0.6637420625712414,0.25296765519596376,1.2884669643367885,-0.17875817032705782
15427,5.0,300.29292999999996,4483.0207,0.0,0.0,0.0,0.0,0.15375797144960385,0.0,-0.4021666349932566,-0.35484785532325663,-0.6057118513241054,0.25119928045893875,1.2865239559450288,-0.14271946832281487
15428,5.0,299.71985,4710.714,0.0,0.0,0.0,0.0,0.1537679382591876,0.0,-0.3957653362939976,-0.3991559852361286,-0.6370180978087914,0.25669494635131873,1.2400342175068488,-0.17566758526954082
15429,5.0,300.30503,5131.2059,0.0,0.0,0.0,0.0,0.15377790506877145,0.0,-0.5005454075449856,-0.37593352910925065,-0.6832795408669403,0.25109056885570974,1.254791799913309,-0.12304526205862189
15430,5.0,300.71137999999996,5301.5617,0.0,0.0,0.0,0.0,0.15378787187835527,0.0,-0.45500923877591554,-0.45339149379875654,-0.7031416442296774,0.2544644485086857,1.257153077946349,-0.16230209704296986
15431,5.0,299.04674,5055.9032,0.0,0.0,0.0,0.0,0.15379783868793911,0.0,-0.44963244738526753,-0.4096700964887906,-0.6775657931555373,0.24789353174268677,1.260882952889459,-0.15173663427523984
15432,5.0,298.25426,4986.0971,0.0,0.0,0.0,0.0,0.15380780549752293,0.0,-0.4405269057591205,-0.3909929891180036,-0.6841291206782874,0.21712306151337776,1.2788942840170388,-0.15044101163737186
15433,5.0,299.83256,5225.8084,0.0,0.0,0.0,0.0,0.15381777230710675,0.0,-0.49267606143834153,-0.4111342834132946,-0.6847049101801134,0.2213613448266638,1.2528585187225088,-0.13380054710008585
15434,5.0,299.34013999999996,5212.5957,0.0,0.0,0.0,0.0,0.15382773911669054,0.0,-0.4639420719225176,-0.4044472785833386,-0.7161095736470123,0.24704832917177177,1.2867470736170488,-0.14229918231383584
15435,5.0,300.0836,4944.1631,0.0,0.0,0.0,0.0,0.15383770592627438,0.0,-0.45458821309436354,-0.39699861365321265,-0.6513152897673143,0.23721503079380077,1.2814837459725987,-0.18185041711473882
15436,5.0,300.11793,4616.606,0.0,0.0,0.0,0.0,0.1538476727358582,0.0,-0.3859747464077416,-0.3955042014782256,-0.6218539994622114,0.25509874307128577,1.2669499905132289,-0.2005935377295408
15437,5.0,299.89951,4721.3678,0.0,0.0,0.0,0.0,0.15385763954544204,0.0,-0.44424656714122257,-0.3525060418246377,-0.6384253299451744,0.24749680379853278,1.2677159062638188,-0.18401943094130382
15438,5.0,300.54677000000004,5197.8318,0.0,0.0,0.0,0.0,0.15386760635502583,0.0,-0.4592289390823675,-0.4258665041697516,-0.6949156239553324,0.2840676951527987,1.2938710324201288,-0.15841388150673283
15439,5.0,299.92267999999996,4979.0599,0.0,0.0,0.0,0.0,0.15387757316460968,0.0,-0.4637789690539206,-0.37987678439091965,-0.6698541188969543,0.2772294830104197,1.2550113712099789,-0.13686715866023685
15440,5.0,299.31546000000003,4823.7145,0.0,0.0,0.0,0.0,0.1538875399741935,0.0,-0.4233197101759026,-0.3841025641979716,-0.6588664753425584,0.26081581424301675,1.2625703182809886,-0.1307676159732589
15441,5.0,300.18149,5150.5967,0.0,0.0,0.0,0.0,0.15389750678377734,0.0,-0.4944710238579905,-0.39157086591503565,-0.6796108966273734,0.2393364016006638,1.2321308667268487,-0.12701768881066988
15442,5.0,300.28477000000004,5412.512,0.0,0.0,0.0,0.0,0.15390747359336113,0.0,-0.4937965640614266,-0.41564659008362465,-0.7358253434303074,0.23341278952854877,1.2460295170235387,-0.16312474466665883
15443,5.0,300.08049,5289.1413,0.0,0.0,0.0,0.0,0.15391744040294494,0.0,-0.5046427477693616,-0.4061828645471276,-0.6969412730252483,0.23767042591874477,1.269226560837909,-0.16053291170586484
15444,5.0,299.38247,5031.1908,0.0,0.0,0.0,0.0,0.15392740721252876,0.0,-0.4306640002132276,-0.4050451569373446,-0.6936472070826494,0.22880687881398076,1.2698553838499687,-0.20131932877617081
15445,5.0,299.68805,4775.8333,0.0,0.0,0.0,0.0,0.1539373740221126,0.0,-0.4324291224174316,-0.36364244062621465,-0.6556625075988514,0.2521343177837198,1.2882021007606488,-0.15291160922370087
15446,5.0,300.51575,4831.0147,0.0,0.0,0.0,0.0,0.15394734083169642,0.0,-0.4142444343302426,-0.3832708479858876,-0.6709925560468093,0.2371289349328038,1.2716243158745488,-0.18378385029305383
15447,5.0,300.37953999999996,5106.8224,0.0,0.0,0.0,0.0,0.15395730764128027,0.0,-0.47078878523323553,-0.4154370600954456,-0.6661206570484904,0.2747382353870527,1.2695398577688288,-0.15418616639198984
15448,5.0,299.75284,5089.5796,0.0,0.0,0.0,0.0,0.15396727445086403,0.0,-0.4485330710267676,-0.41706929454903463,-0.6815027358890834,0.2418197762707538,1.2419732742232188,-0.19202352917874682
15449,5.0,300.74177000000003,4861.9766,0.0,0.0,0.0,0.0,0.15397724126044787,0.0,-0.45290974403871154,-0.38441137243094864,-0.6405983765071375,0.26907788595591975,1.265552009350259,-0.14446496387258187
15450,5.0,301.19215,5058.7106,0.0,0.0,0.0,0.0,0.1539872080700317,0.0,-0.46335155989673854,-0.38988707729635863,-0.6844830692032192,0.24365727492960074,1.2824989212477886,-0.14385116735950484
15451,5.0,301.50147000000004,5562.6304,0.0,0.0,0.0,0.0,0.15399717487961553,0.0,-0.5334797746878545,-0.42489533434640464,-0.7325256336846513,0.26556680210690276,1.2860850160017088,-0.10781551523806289
15452,5.0,300.87565,5438.9468,0.0,0.0,0.0,0.0,0.15400714168919935,0.0,-0.5124485124322306,-0.4157542681717516,-0.7251012563594222,0.2227022394789998,1.2545352449879887,-0.12003051877108988
15453,5.0,299.37304,5161.5801,0.0,0.0,0.0,0.0,0.15401710849878317,0.0,-0.4645059253381656,-0.4276058999539166,-0.6768796303203184,0.23268715046943378,1.2586934207483687,-0.13481877225807687
15454,5.0,300.43142,5074.5708,0.0,0.0,0.0,0.0,0.15402707530836696,0.0,-0.4559124296500536,-0.40028652916770463,-0.6863438320843623,0.24344777533892475,1.2650263351983788,-0.16519452077842983
15455,5.0,300.11091,4911.2377,0.0,0.0,0.0,0.0,0.1540370421179508,0.0,-0.42891982188859057,-0.38514935287628166,-0.6788244625622584,0.23986789180811777,1.2643900141355788,-0.17741474254947184
15456,5.0,300.84726,4806.6513,0.0,0.0,0.0,0.0,0.15404700892753462,0.0,-0.3968139893524916,-0.4117873028377426,-0.6525006707943024,0.24730855206245375,1.3003534012598887,-0.19885763765822081
15457,5.0,300.05405,4882.0198,0.0,0.0,0.0,0.0,0.15405697573711846,0.0,-0.46873780491081957,-0.3627738218454886,-0.6525004782767834,0.25487513903921777,1.3011776802162387,-0.14123499613130888
15458,5.0,299.0792,4897.3513,0.0,0.0,0.0,0.0,0.15406694254670225,0.0,-0.4383270182020086,-0.40047455798876164,-0.6498709422797684,0.25980983927873474,1.295323729088499,-0.16956345255960983
15459,5.0,299.53477999999996,4964.9052,0.0,0.0,0.0,0.0,0.1540769093562861,0.0,-0.4666315619279496,-0.3955145163642436,-0.6470611186924604,0.24937392053628976,1.261049125905859,-0.11514421135634889
15460,5.0,300.78403,5429.6001,0.0,0.0,0.0,0.0,0.1540868761658699,0.0,-0.48053673755528353,-0.45116035760856055,-0.7187657581216573,0.24634001668936678,1.221308950358809,-0.16502912796460686
15461,5.0,300.16995,5588.8862,0.0,0.0,0.0,0.0,0.15409684297545376,0.0,-0.5308669471849885,-0.4586237349301386,-0.7093911681964573,0.23431934439301877,1.2563296095900789,-0.1127241344200059
15462,5.0,300.33072000000004,5263.2882,0.0,0.0,0.0,0.0,0.15410680978503755,0.0,-0.45279341279473057,-0.43253326426270955,-0.7145815013037033,0.24608700813939677,1.255267014210209,-0.15841036552888585
15463,5.0,300.22707,4954.433,0.0,0.0,0.0,0.0,0.15411677659462136,0.0,-0.4865637416676025,-0.39318339265417956,-0.6262767753537054,0.2412804637725278,1.2591490793183386,-0.12665738720761088
15464,5.0,300.36807999999996,4756.4103,0.0,0.0,0.0,0.0,0.15412674340420518,0.0,-0.42603884787926055,-0.3915911207845346,-0.6281999949710124,0.23702409394495677,1.237711645627629,-0.18565791714800983
15465,5.0,300.75048,4909.1591,0.0,0.0,0.0,0.0,0.15413671021378902,0.0,-0.46084367470672954,-0.38017403144025563,-0.6512440886827874,0.2517322905415428,1.244501434547729,-0.15476100343872184
15466,5.0,300.19627,4974.3081,0.0,0.0,0.0,0.0,0.15414667702337284,0.0,-0.4151226283244136,-0.4269227566039956,-0.6700200689983324,0.25717397046859475,1.2827185938694687,-0.18674889366318081
15467,5.0,299.84979,4897.8092,0.0,0.0,0.0,0.0,0.15415664383295669,0.0,-0.43821671579612254,-0.3844765142798776,-0.6661184886932764,0.25744058696740774,1.2696740120820689,-0.15693513417829183
15468,5.0,300.19781,5118.6744,0.0,0.0,0.0,0.0,0.15416661064254045,0.0,-0.44468292329678755,-0.4145737710102456,-0.6966925201256984,0.25434675950957075,1.2664012142590688,-0.14570601286006385
15469,5.0,300.4467,5440.5644,0.0,0.0,0.0,0.0,0.1541765774521243,0.0,-0.5458115654274074,-0.41914608235149764,-0.6888380991930274,0.24558652338500278,1.2741687895256686,-0.13140003602317388
15470,5.0,299.78811,5502.779,0.0,0.0,0.0,0.0,0.1541865442617081,0.0,-0.5106321805679725,-0.43871240787754356,-0.7233628332953533,0.2551863588074328,1.2776134345656287,-0.1199463784827859
15471,5.0,299.4363,5275.8325,0.0,0.0,0.0,0.0,0.15419651107129195,0.0,-0.5081452291250295,-0.4242322432159626,-0.6713438599889804,0.2559554966933408,1.2539007477753688,-0.13593134113287889
15472,5.0,299.87367,5060.8808,0.0,0.0,0.0,0.0,0.15420647788087577,0.0,-0.4234307421218606,-0.4280172997595186,-0.6869333511250433,0.24551267771771476,1.2528854711751687,-0.13551435831922587
15473,5.0,299.30419,4949.763,0.0,0.0,0.0,0.0,0.1542164446904596,0.0,-0.44102766409104155,-0.39178340525601163,-0.6717932769383343,0.25701167820007775,1.2642696400236988,-0.16498720980796985
15474,5.0,299.96901,5047.0359,0.0,0.0,0.0,0.0,0.15422641150004338,0.0,-0.4109571774283156,-0.4205781593803326,-0.7026375421724264,0.2617540939681177,1.2661430381335887,-0.15646732673962285
15475,5.0,300.83285,4941.6018,0.0,0.0,0.0,0.0,0.15423637830962722,0.0,-0.4717426183473715,-0.3858872725266086,-0.6444936645290724,0.28024201741273375,1.2844933014196187,-0.17143600967191686
15476,5.0,301.17792000000003,4867.814,0.0,0.0,0.0,0.0,0.15424634511921104,0.0,-0.4148035862654266,-0.4167627559962816,-0.6481275644227104,0.2550232559388358,1.2542680509366189,-0.18354286902177083
15477,5.0,301.24931000000004,4898.2248,0.0,0.0,0.0,0.0,0.15425631192879488,0.0,-0.46982043224516656,-0.39445373470205264,-0.6246638737120245,0.2528718726640108,1.2776004649643486,-0.15395252105143084
15478,5.0,300.45668,5199.0574,0.0,0.0,0.0,0.0,0.15426627873837867,0.0,-0.4291723846085166,-0.4249552579573186,-0.7262559764383842,0.22099841890584582,1.2706219075506189,-0.16544898840854383
15479,5.0,299.23841,5300.4717,0.0,0.0,0.0,0.0,0.15427624554796251,0.0,-0.49309724923990955,-0.42570375593868964,-0.6924100388430503,0.22725517747833976,1.2680866544754088,-0.13020148274488585
15480,5.0,300.6738,5283.3978,0.0,0.0,0.0,0.0,0.15428621235754633,0.0,-0.4729261653916786,-0.4320232042948706,-0.7010716350703834,0.2359236739388538,1.2567524388568088,-0.14082558229590286
15481,5.0,300.34737,5232.616,0.0,0.0,0.0,0.0,0.15429617916713018,0.0,-0.5162031410752835,-0.40731131105099666,-0.6670701737172003,0.24549458107092878,1.2685459607457386,-0.11396010702448689
15482,5.0,299.35645,5024.3447,0.0,0.0,0.0,0.0,0.15430614597671397,0.0,-0.4501828955020926,-0.4052091615985306,-0.6718832940772184,0.26268708452769673,1.2589966865032989,-0.15482244692478583
15483,5.0,299.71878,5119.2046,0.0,0.0,0.0,0.0,0.15431611278629778,0.0,-0.49656941415258554,-0.38998510924353363,-0.6695558585975184,0.2523092959434888,1.2616757197676989,-0.13995681152766187
15484,5.0,299.30183,5200.4586,0.0,0.0,0.0,0.0,0.1543260795958816,0.0,-0.43770033314765955,-0.41770794608706463,-0.7254012898465333,0.23770891929004376,1.2484285892853089,-0.18085261907876385
15485,5.0,299.39723,4883.3369,0.0,0.0,0.0,0.0,0.15433604640546544,0.0,-0.45111028278861853,-0.37415355265858063,-0.6591486350979054,0.26557067272228474,1.2635542854530988,-0.16993477832375684
15486,5.0,301.17032,4774.612,0.0,0.0,0.0,0.0,0.15434601321504926,0.0,-0.41321902522904264,-0.3804265333651756,-0.6577172774766414,0.23284334297234877,1.2805206517525487,-0.16603638975651583
15487,5.0,300.51566,4898.4872,0.0,0.0,0.0,0.0,0.1543559800246331,0.0,-0.4853373544090675,-0.3804528981327776,-0.6232275309002684,0.2557606993616158,1.2732732790872887,-0.16531096347992183
15488,5.0,300.27057,5198.5004,0.0,0.0,0.0,0.0,0.15436594683421687,0.0,-0.4853654518343406,-0.43127503055353156,-0.6635738326571383,0.24420396388855478,1.263796756202029,-0.16919094129284584
15489,5.0,300.70198999999997,5258.8518,0.0,0.0,0.0,0.0,0.1543759136438007,0.0,-0.49919489714920057,-0.41439462839256563,-0.6849701283937883,0.26717976454358977,1.2805365597791187,-0.14631574624023985
15490,5.0,300.46109,4947.8518,0.0,0.0,0.0,0.0,0.15438588045338453,0.0,-0.3999648425259566,-0.41681703580413854,-0.6872415210104573,0.23620885317949877,1.2820599813044689,-0.14499852111023986
15491,5.0,300.861,5003.8608,0.0,0.0,0.0,0.0,0.15439584726296837,0.0,-0.42181103143950754,-0.41699754630945357,-0.6822401489143604,0.24674088882642978,1.2763358275145387,-0.14389037000587385
15492,5.0,300.92759,5215.3812,0.0,0.0,0.0,0.0,0.1544058140725522,0.0,-0.47950520842347955,-0.3932935633375526,-0.7125468748379014,0.22696423284462577,1.2622288529972887,-0.15215942301196586
15493,5.0,299.12435,5236.195,0.0,0.0,0.0,0.0,0.154415780882136,0.0,-0.5136464982904625,-0.40909497573203063,-0.6689310683208564,0.25042744732776473,1.267853606952409,-0.18294524398028983
15494,5.0,300.05856,5024.643,0.0,0.0,0.0,0.0,0.1544257476917198,0.0,-0.4682608984862525,-0.3794007189639356,-0.6797043790815993,0.2557338381014647,1.2719872620603687,-0.16614293300453084
15495,5.0,300.27788,4759.9381,0.0,0.0,0.0,0.0,0.15443571450130364,0.0,-0.4366528554592816,-0.36096073238155063,-0.6492887591698114,0.23208878575537978,1.2676204581043988,-0.18284267267266682
15496,5.0,299.52076,4917.9523,0.0,0.0,0.0,0.0,0.15444568131088746,0.0,-0.4069617802965006,-0.39696494335238963,-0.6910079945471794,0.25961487982699377,1.2465360407485289,-0.16340371268419085
15497,5.0,299.38606,5200.3896,0.0,0.0,0.0,0.0,0.1544556481204713,0.0,-0.47891994503321855,-0.38944322309005364,-0.7124254064159133,0.23835564643137078,1.2740733413662488,-0.13526852357996388
15498,5.0,299.85107999999997,5186.5664,0.0,0.0,0.0,0.0,0.1544656149300551,0.0,-0.4681127106591276,-0.4228001560546266,-0.6856738103232364,0.27413902967541576,1.2923199491670487,-0.13809202604362186
15499,5.0,298.86495,5038.7068,0.0,0.0,0.0,0.0,0.15447558173963893,0.0,-0.4983734856906335,-0.37087599256011067,-0.6623915927054603,0.23861165420163677,1.2888439946989987,-0.13491581122015386
15500,5.0,299.77734,5241.7508,0.0,0.0,0.0,0.0,0.15448554854922275,0.0,-0.4841171581086436,-0.4166346406536376,-0.6926095579202414,0.2280678648535458,1.270634167876829,-0.13572561083257487
15501,5.0,300.46283,5337.5814,0.0,0.0,0.0,0.0,0.1544955153588066,0.0,-0.4931721689523036,-0.42346125108237154,-0.7058580360252643,0.23739365665392978,1.2873708303786089,-0.15387008302329486
15502,5.0,300.23385,5186.3678,0.0,0.0,0.0,0.0,0.15450548216839038,0.0,-0.4202530074232426,-0.41064742687274564,-0.7456258834325453,0.2314618169910028,1.2802521404760487,-0.13868479761712385
15503,5.0,300.17544,4942.0513,0.0,0.0,0.0,0.0,0.1545154489779742,0.0,-0.43637210412157357,-0.3970360532444076,-0.6688520246805554,0.24333027885732877,1.273164050726509,-0.18492419235309682
15504,5.0,299.65837,4748.3039,0.0,0.0,0.0,0.0,0.15452541578755802,0.0,-0.39886312555972564,-0.3823746080074356,-0.6621280868844543,0.22361798452187678,1.2534210751780288,-0.16363612185962784
15505,5.0,299.14828,4545.4414,0.0,0.0,0.0,0.0,0.15453538259714186,0.0,-0.4340976210920996,-0.3506094808174617,-0.5969935738861785,0.26747034440726775,1.2864098639837689,-0.21398980849414978
15506,5.0,300.34677999999997,4833.6407,0.0,0.0,0.0,0.0,0.15454534940672568,0.0,-0.4414811239082946,-0.3908121949026606,-0.6370127478482633,0.25127554779396577,1.2974942121277089,-0.17207889659536482
15507,5.0,299.85456,4955.0362,0.0,0.0,0.0,0.0,0.15455531621630947,0.0,-0.45114992113253055,-0.3988014186286356,-0.6562559479174193,0.2407434006895238,1.289316675870649,-0.18658073467658481
15508,5.0,298.82925,4925.2733,0.0,0.0,0.0,0.0,0.15456528302589329,0.0,-0.3943361470279476,-0.3979856915031296,-0.7048382707271214,0.22750343388534078,1.2549396331028988,-0.12655479563498587
15509,5.0,299.68775,5195.5534,0.0,0.0,0.0,0.0,0.15457524983547713,0.0,-0.4646673867416006,-0.4447390066898225,-0.6699120970676764,0.23684761617503977,1.2684253839838386,-0.16198294352647186
15510,5.0,299.3433,5379.8794,0.0,0.0,0.0,0.0,0.15458521664506095,0.0,-0.48400059381713956,-0.41519560259661564,-0.7361528055976253,0.26556575845929975,1.2774766458021287,-0.09150602681944171
15511,5.0,300.07312,5474.8354,0.0,0.0,0.0,0.0,0.15459518345464476,0.0,-0.5361936840206964,-0.4561018263587456,-0.6719177547131193,0.24774441172546977,1.2486049961277188,-0.16284176417873084
15512,5.0,300.94775,5355.6369,0.0,0.0,0.0,0.0,0.1546051502642286,0.0,-0.49213187520713453,-0.4157238605362506,-0.7201241414707192,0.2321395698503918,1.2548354709926186,-0.1100956724680969
15513,5.0,299.60647,4877.5239,0.0,0.0,0.0,0.0,0.15461511707381242,0.0,-0.45217518837871656,-0.3870287696917656,-0.6434415360227355,0.22421778805107279,1.2639889697459987,-0.16301813049113686
15514,5.0,299.67597,4819.1191,0.0,0.0,0.0,0.0,0.1546250838833962,0.0,-0.38863711170799664,-0.3815035371614676,-0.6947512139941063,0.2559085528162078,1.2775431150086887,-0.13816769556108985
15515,5.0,300.76352,4952.6192,0.0,0.0,0.0,0.0,0.15463505069298006,0.0,-0.48942334623232353,-0.35752834766780067,-0.6585208759984503,0.22165396132304277,1.264614753007759,-0.17007931845052185
15516,5.0,299.78217,4980.4502,0.0,0.0,0.0,0.0,0.15464501750256388,0.0,-0.44176482380379356,-0.41474250754939856,-0.6574251676053123,0.2283511999790088,1.2384242644229588,-0.14132508419769987
15517,5.0,301.77412000000004,5009.8617,0.0,0.0,0.0,0.0,0.1546549843121477,0.0,-0.49926320033844146,-0.3964354289826306,-0.6271742312322773,0.25621164631862076,1.257900349895099,-0.15773520658975285
15518,5.0,301.6509,5239.0333,0.0,0.0,0.0,0.0,0.1546649511217315,0.0,-0.4869237494281325,-0.4079265362467146,-0.6976850391286524,0.24007964081401578,1.2706789535312488,-0.13426147457057588
15519,5.0,299.42212,5366.0018,0.0,0.0,0.0,0.0,0.15467491793131535,0.0,-0.4857568095529646,-0.45199587350851955,-0.6933778750735683,0.25987402867256976,1.2539303346782888,-0.17344795960048084
15520,5.0,300.11732,5391.7929,0.0,0.0,0.0,0.0,0.15468488474089917,0.0,-0.47287663772679056,-0.4154603243177416,-0.7506334363542523,0.23962360734150878,1.2473296182268487,-0.1146659269116459
15521,5.0,300.12165,5121.2752,0.0,0.0,0.0,0.0,0.15469485155048296,0.0,-0.44526623111435554,-0.4371302381113956,-0.6743433234650044,0.27111872364483475,1.2869884297908687,-0.16227705963299885
15522,5.0,299.09468,4810.0756,0.0,0.0,0.0,0.0,0.1547048183600668,0.0,-0.4122627197846626,-0.38507702708414365,-0.6648031279434603,0.24573425524958276,1.2715195458142088,-0.14645610164409187
15523,5.0,299.46535,4831.5041,0.0,0.0,0.0,0.0,0.15471478516965062,0.0,-0.4381186027889396,-0.4032482896075076,-0.6272897113461744,0.2345941276876378,1.2548877546977788,-0.18989539999371682
15524,5.0,298.50715,4885.666,0.0,0.0,0.0,0.0,0.15472475197923444,0.0,-0.4284383761035756,-0.40553192228538465,-0.6511501705310183,0.2223798942246868,1.262264012775759,-0.17909101285240683
15525,5.0,300.08024,4948.1855,0.0,0.0,0.0,0.0,0.15473471878881825,0.0,-0.43113047016176453,-0.3908042510218766,-0.6821901348894244,0.23881294646650275,1.2861324361063886,-0.2011477754017398
15526,5.0,300.87256,5026.9964,0.0,0.0,0.0,0.0,0.1547446855984021,0.0,-0.43398432959841865,-0.4145044444384036,-0.6795925973305674,0.25464889042438876,1.2931917495530887,-0.15130740126787787
15527,5.0,299.78014,5164.0687,0.0,0.0,0.0,0.0,0.15475465240798592,0.0,-0.47839953978185856,-0.41284733469485957,-0.6785010432628394,0.26611567968607275,1.254494917634009,-0.17459097664078782
15528,5.0,299.27511,5350.0683,0.0,0.0,0.0,0.0,0.1547646192175697,0.0,-0.5096826537667615,-0.39895354799864957,-0.7176509702291364,0.28570543155443073,1.2536198748476488,-0.12407851371559589
15529,5.0,300.84667,5464.8967,0.0,0.0,0.0,0.0,0.15477458602715352,0.0,-0.5339184410536475,-0.43396763123677057,-0.6933060559064804,0.27687177532761675,1.298169239344329,-0.1156380593225879
15530,5.0,299.71894,5280.9868,0.0,0.0,0.0,0.0,0.15478455283673737,0.0,-0.4732016579613676,-0.39384607848458164,-0.7382403743811523,0.2661003390795587,1.2729999042103088,-0.11473866813632488
15531,5.0,300.13014,5081.0007,0.0,0.0,0.0,0.0,0.15479451964632118,0.0,-0.4465679636503265,-0.4147874046613296,-0.6831419820333644,0.25175256567604376,1.2623902637382187,-0.14630964647463787
15532,5.0,299.6764,5114.6961,0.0,0.0,0.0,0.0,0.15480448645590503,0.0,-0.4510045298756815,-0.40665078344330763,-0.6970845769868913,0.23444461250288176,1.2677028353375288,-0.15142130071161886
15533,5.0,299.46716000000004,5112.5624,0.0,0.0,0.0,0.0,0.1548144532654888,0.0,-0.47215373444294556,-0.39444361233355363,-0.6874939621403713,0.25481358409564275,1.2798647749628187,-0.16076931308669584
15534,5.0,298.92147,4883.8326,0.0,0.0,0.0,0.0,0.15482442007507263,0.0,-0.4344622999355906,-0.4059479526439436,-0.6441529085204424,0.24701260197324576,1.2691205748774488,-0.17909469095026984
15535,5.0,299.63684,4656.0785,0.0,0.0,0.0,0.0,0.15483438688465645,0.0,-0.4349435734680886,-0.3632696253844207,-0.6171184129998454,0.24228202096637377,1.256973834003659,-0.17413952305873284
15536,5.0,297.50349,4864.3119,0.0,0.0,0.0,0.0,0.1548443536942403,0.0,-0.4119819076519486,-0.3942606396304956,-0.6723868185819124,0.27159669398200675,1.2578003421102288,-0.17324130724258582
15537,5.0,298.58858,5140.8284,0.0,0.0,0.0,0.0,0.1548543205038241,0.0,-0.4508281230332715,-0.43917318336051864,-0.6726821607210604,0.2638684024217837,1.2946653191735187,-0.18601486489323782
15538,5.0,299.28362000000004,5130.736,0.0,0.0,0.0,0.0,0.15486428731340793,0.0,-0.46040019540296157,-0.3893583431291766,-0.7098571112549423,0.25638221684045476,1.2800434109554488,-0.13688599497959586
15539,5.0,299.58435,5138.8787,0.0,0.0,0.0,0.0,0.15487425412299174,0.0,-0.4866911477351766,-0.4384749628491096,-0.6369246862820724,0.2258467902368428,1.2591099678644788,-0.15881911061922585
15540,5.0,299.56307000000004,5124.8092,0.0,0.0,0.0,0.0,0.1548842209325756,0.0,-0.48474487667809457,-0.3961618311906286,-0.6769073123130503,0.25541478590997674,1.2561057826429887,-0.13756852024695587
15541,5.0,300.42627999999996,5084.3757,0.0,0.0,0.0,0.0,0.15489418774215938,0.0,-0.47287580686170855,-0.4067971575527536,-0.6658502813918064,0.24083890964394977,1.2951388109452486,-0.15757767659670585
15542,5.0,299.77632,5002.8297,0.0,0.0,0.0,0.0,0.15490415455174322,0.0,-0.41427178195044156,-0.4297964960076116,-0.6766670301843363,0.2502651347942457,1.275530091035019,-0.16289925598940483
15543,5.0,300.59403,4932.9254,0.0,0.0,0.0,0.0,0.154914121361327,0.0,-0.42895035111410357,-0.3791730821964696,-0.6913627131421873,0.22727994131078377,1.2613212848827187,-0.17610232022494582
15544,5.0,299.41323,4922.0365,0.0,0.0,0.0,0.0,0.15492408817091086,0.0,-0.4082234083935136,-0.4240013843131786,-0.6639514000419013,0.22834520153841678,1.2712325933858888,-0.18064561208333382
15545,5.0,300.07263,4877.2641,0.0,0.0,0.0,0.0,0.15493405498049467,0.0,-0.4638161553325906,-0.38014752481763964,-0.6386028412301934,0.24943065240938878,1.2998283350580686,-0.15466473454672086
15546,5.0,299.33957000000004,4986.1234,0.0,0.0,0.0,0.0,0.15494402179007852,0.0,-0.4916717988667285,-0.3704572872212876,-0.6535279442756864,0.2516483731682608,1.2796309168397386,-0.11988317194154789
15547,5.0,301.35445,5195.8071,0.0,0.0,0.0,0.0,0.15495398859966233,0.0,-0.46856557265882154,-0.4113449583740866,-0.6994850981963043,0.22564545744197276,1.2888992168294486,-0.1280040371205149
15548,5.0,301.59992,5332.9808,0.0,0.0,0.0,0.0,0.15496395540924612,0.0,-0.45462297770529453,-0.4073682759716186,-0.7591017551250103,0.24381362955253177,1.2754287660250188,-0.11663204753818689
15549,5.0,301.69139,5454.5429,0.0,0.0,0.0,0.0,0.15497392221882994,0.0,-0.4884148381427915,-0.4324318581927016,-0.7371981453282923,0.24689718265435476,1.3076501192050187,-0.13955947563344787
15550,5.0,299.42014,5330.635,0.0,0.0,0.0,0.0,0.15498388902841378,0.0,-0.48096257617481053,-0.4406539065266546,-0.6987634614750843,0.24884466961155674,1.2788451413871886,-0.14447232006830785
15551,5.0,300.64279,5112.1796,0.0,0.0,0.0,0.0,0.1549938558379976,0.0,-0.5071628223580735,-0.3750331145403866,-0.6717790205094274,0.22881270500205575,1.2608955171906988,-0.14850127604343485
15552,5.0,299.70207,5012.9547,0.0,0.0,0.0,0.0,0.15500382264758145,0.0,-0.4768442110108595,-0.4127416628419306,-0.6342271916008504,0.24963146844670775,1.2730537077906188,-0.1794522365130568
15553,5.0,299.74361,4811.0478,0.0,0.0,0.0,0.0,0.1550137894571652,0.0,-0.42008950938710654,-0.3927089889573596,-0.6496398908594654,0.24381591949775774,1.2973110165096287,-0.16681224549058685
15554,5.0,299.75392,4701.9223,0.0,0.0,0.0,0.0,0.15502375626674905,0.0,-0.38255439910517963,-0.38609602231221063,-0.6606165406502763,0.24646650069934975,1.2785823043112488,-0.18087276249075182
15555,5.0,300.222,4878.4317,0.0,0.0,0.0,0.0,0.15503372307633287,0.0,-0.3992952969923776,-0.4249102595203776,-0.6587158658476944,0.24277629449765475,1.2709569893586887,-0.16627719877528183
15556,5.0,300.47555,4984.8425,0.0,0.0,0.0,0.0,0.1550436898859167,0.0,-0.43989682631693655,-0.4169271862225096,-0.6584436258108264,0.23868078825595979,1.2662727341463886,-0.17836131066039082
15557,5.0,301.53824,5114.5683,0.0,0.0,0.0,0.0,0.15505365669550053,0.0,-0.48122464318067454,-0.4147734623399536,-0.6587029266439174,0.25371870656758677,1.2769484385249987,-0.12594461642476587
15558,5.0,299.69349,5217.5416,0.0,0.0,0.0,0.0,0.15506362350508435,0.0,-0.4941184026906896,-0.4137746409213776,-0.6781093106416783,0.21868189612972277,1.2520853075711988,-0.14581634566345286
15559,5.0,299.17478,5352.3063,0.0,0.0,0.0,0.0,0.15507359031466816,0.0,-0.47533889626479653,-0.41799264910016265,-0.7336359328792293,0.25020060089537677,1.2647237787185186,-0.12556424233722588
15560,5.0,300.25083,5383.2046,0.0,0.0,0.0,0.0,0.155083557124252,0.0,-0.46087093113441957,-0.45308046654806056,-0.7224083719661554,0.2326127069845868,1.2828094824034386,-0.17562861567069485
15561,5.0,299.06403,5288.4224,0.0,0.0,0.0,0.0,0.1550935239338358,0.0,-0.4737441925949116,-0.4123730323230496,-0.7214311327747093,0.27072548128102475,1.3083486538239588,-0.15737358776156385
15562,5.0,299.17894,5062.5761,0.0,0.0,0.0,0.0,0.15510349074341964,0.0,-0.4618898756999816,-0.4071317631332766,-0.6698750830415233,0.23938958709841276,1.255067403940509,-0.17631201233314084
15563,5.0,299.94757999999996,4797.395,0.0,0.0,0.0,0.0,0.15511345755300343,0.0,-0.4802792909698756,-0.3497624138663627,-0.6282465639456084,0.2750626274065678,1.2800153439276787,-0.14630123649880786
15564,5.0,299.5834,4829.6961,0.0,0.0,0.0,0.0,0.15512342436258728,0.0,-0.4621042794211416,-0.34335878469187364,-0.6626439527753664,0.27258632522217574,1.2465988622547288,-0.15366584220063784
15565,5.0,300.29735,5135.2196,0.0,0.0,0.0,0.0,0.1551333911721711,0.0,-0.4376169730619326,-0.4052629145163356,-0.7180986545208192,0.27711695145431375,1.2595604588589386,-0.13767980550543885
15566,5.0,300.77712,5172.8273,0.0,0.0,0.0,0.0,0.15514335798175494,0.0,-0.4472072839334226,-0.4012345563587676,-0.7239685136751294,0.2425665719919568,1.2629933501977388,-0.13962110150452986
15567,5.0,299.34057,5286.9957,0.0,0.0,0.0,0.0,0.15515332479133875,0.0,-0.4589346709883255,-0.41653242398354956,-0.7316475815454944,0.22974222011379178,1.2701631079053388,-0.13233635004308086
15568,5.0,299.52621,5458.9286,0.0,0.0,0.0,0.0,0.15516329160092254,0.0,-0.5088695306940125,-0.4718808864560176,-0.6786275678028263,0.23980757302966477,1.2738766695218386,-0.16459020828628884
15569,5.0,300.07797999999997,5324.2482,0.0,0.0,0.0,0.0,0.15517325841050636,0.0,-0.5285756746013575,-0.41361087944021563,-0.6762519421483704,0.24122767344231777,1.3001979686945488,-0.12851640729858188
15570,5.0,300.73337999999995,5034.22,0.0,0.0,0.0,0.0,0.1551832252200902,0.0,-0.45153097409763754,-0.4167897895089496,-0.6619564220525124,0.25731732509274274,1.2876968942607887,-0.15825064691562285
15571,5.0,300.75906000000003,4943.9174,0.0,0.0,0.0,0.0,0.15519319202967402,0.0,-0.41681493837643163,-0.40804026343793864,-0.6779722483006514,0.2427445696370238,1.271092967522109,-0.16407771651820985
15572,5.0,300.54582,4901.5938,0.0,0.0,0.0,0.0,0.15520315883925787,0.0,-0.4098799811145046,-0.3847917870484926,-0.6952903542398153,0.25688826433789774,1.2737621722605386,-0.18881403922199483
15573,5.0,299.36037999999996,4712.8304,0.0,0.0,0.0,0.0,0.15521312564884163,0.0,-0.3959706207642576,-0.38114926439650365,-0.6554628669316483,0.24586295827728477,1.2741364668474788,-0.19543931685585883
15574,5.0,299.30107999999996,4826.981,0.0,0.0,0.0,0.0,0.15522309245842547,0.0,-0.44624407825586154,-0.38849404079387667,-0.6325435853671914,0.25961771692727376,1.265479561968109,-0.18022545779686783
15575,5.0,298.7634,5041.3406,0.0,0.0,0.0,0.0,0.1552330592680093,0.0,-0.5022294089461835,-0.37506312700834865,-0.6551491241706844,0.22788022106752678,1.2604595156726688,-0.15422639242095984
15576,5.0,299.03148,5245.4932,0.0,0.0,0.0,0.0,0.15524302607759313,0.0,-0.46030911435147254,-0.45839752684531354,-0.6757923217705093,0.24574031448518074,1.2629663977450787,-0.17660968494751883
15577,5.0,298.78705,5519.619000000001,0.0,0.0,0.0,0.0,0.15525299288717695,0.0,-0.48621083679027355,-0.45487241961491254,-0.7367430947083823,0.23814157708274375,1.285315351225749,-0.14037330798126688
15578,5.0,300.66007,5592.1703,0.0,0.0,0.0,0.0,0.15526295969676077,0.0,-0.5075621239574816,-0.4618681617503386,-0.7304498591322883,0.2329010779630468,1.269127971603179,-0.14377372465436186
15579,5.0,299.97306000000003,5312.3717,0.0,0.0,0.0,0.0,0.15527292650634458,0.0,-0.4893617811562475,-0.4298536331807506,-0.6956129426741523,0.2399706860307628,1.2721694444283487,-0.13340660559370687
15580,5.0,300.88916,5292.111999999999,0.0,0.0,0.0,0.0,0.15528289331592843,0.0,-0.5153193032780555,-0.4097724854113956,-0.6835781152739073,0.23415870372216477,1.2740150794854987,-0.14950788935527984
15581,5.0,300.08457000000004,5239.5541,0.0,0.0,0.0,0.0,0.15529286012551222,0.0,-0.5147119510356145,-0.38907487628120063,-0.6889067874173064,0.23938730728568777,1.2777376590278886,-0.13234446617638188
15582,5.0,300.34994,5090.3449,0.0,0.0,0.0,0.0,0.15530282693509606,0.0,-0.44968139749759856,-0.3831436445683336,-0.7145127218869153,0.25248383840571476,1.2606858757450088,-0.13387209268964687
15583,5.0,299.33327,4999.4266,0.0,0.0,0.0,0.0,0.15531279374467985,0.0,-0.4322490172121566,-0.38501192576521864,-0.7024398976079202,0.25725795876938373,1.2872465045913386,-0.16450250135763286
15584,5.0,300.13981,5060.2316,0.0,0.0,0.0,0.0,0.1553227605542637,0.0,-0.4250534013620046,-0.4274232616233916,-0.6857073894315503,0.27196537516339275,1.277749007429009,-0.19473305113865583
15585,5.0,299.86938,5067.029,0.0,0.0,0.0,0.0,0.1553327273638475,0.0,-0.4588976569621726,-0.4034436847567916,-0.6779089404344034,0.2689465079479537,1.2869015942572988,-0.1897445574513298
15586,5.0,301.2267,5133.6986,0.0,0.0,0.0,0.0,0.15534269417343136,0.0,-0.5108816934050975,-0.4166914535867446,-0.6329430490866155,0.2229097024369748,1.2708733962254388,-0.17369985357534085
15587,5.0,299.56371,5119.1685,0.0,0.0,0.0,0.0,0.15535266098301517,0.0,-0.46305688650265653,-0.4221253314880266,-0.6709171803718704,0.2254564153708158,1.275185687326029,-0.16118043931477086
15588,5.0,300.08934,5182.642,0.0,0.0,0.0,0.0,0.15536262779259896,0.0,-0.4463340244672386,-0.4337356982888806,-0.6953240448056403,0.2197221493448878,1.2862277829407989,-0.13854882958620487
15589,5.0,299.77052000000003,5128.8054,0.0,0.0,0.0,0.0,0.15537259460218278,0.0,-0.44014783876420954,-0.4054575598605456,-0.7134233868369063,0.2296244196571658,1.2918225446929588,-0.13152487856799489
15590,5.0,299.16662,5130.7036,0.0,0.0,0.0,0.0,0.15538256141176662,0.0,-0.4471715871323996,-0.41458594014394656,-0.6978482433222593,0.2291903230493238,1.269069507072409,-0.15394773851095886
15591,5.0,298.45906,5085.3958,0.0,0.0,0.0,0.0,0.15539252822135044,0.0,-0.47027141973217557,-0.38823101120041764,-0.6873309200667803,0.24258200379097977,1.2898152962448588,-0.15599122078263486
15592,5.0,300.39931,5059.8386,0.0,0.0,0.0,0.0,0.15540249503093428,0.0,-0.4917197863914645,-0.3962586269726816,-0.6500861869985114,0.2613305554263178,1.2729199587774187,-0.1905462206654478
15593,5.0,300.00473,5012.0641,0.0,0.0,0.0,0.0,0.15541246184051805,0.0,-0.43846833619345554,-0.4015946350468046,-0.6834793740516624,0.24558077825693578,1.2752539803827687,-0.16877927804221785
15594,5.0,301.14454,5078.8853,0.0,0.0,0.0,0.0,0.1554224286501019,0.0,-0.4592300536574776,-0.4040749294365906,-0.6805493182074883,0.23739841892939978,1.2404162127945488,-0.17146568776734583
15595,5.0,300.51005,5238.9645,0.0,0.0,0.0,0.0,0.1554323954596857,0.0,-0.47201914443216253,-0.4057371763581416,-0.7147580601336283,0.24524012357331576,1.2571919867501886,-0.14606640565563186
15596,5.0,299.96967,5096.4452,0.0,0.0,0.0,0.0,0.15544236226926955,0.0,-0.4505010762984946,-0.41499378344169763,-0.6836972430881644,0.2517267784609988,1.2690420479946987,-0.16508791673540885
15597,5.0,299.45916,5223.5237,0.0,0.0,0.0,0.0,0.15545232907885337,0.0,-0.5081394434669585,-0.4088366780165386,-0.6708446519297124,0.25181349240455675,1.2770278773328387,-0.12067996142268488
15598,5.0,300.22694,5510.8892,0.0,0.0,0.0,0.0,0.15546229588843719,0.0,-0.5372773550026465,-0.4072706290594816,-0.7306247359670474,0.2146178715686348,1.2613832957888387,-0.1150612059081569
15599,5.0,299.12374,5343.8457,0.0,0.0,0.0,0.0,0.155472262698021,0.0,-0.46591178958691354,-0.43539947521808253,-0.7230843820353723,0.2322839275921388,1.2927773302621888,-0.12011697940212288
15600,5.0,299.42565,4993.6466,0.0,0.0,0.0,0.0,0.1554822295076048,0.0,-0.4387823423994456,-0.37389103982267263,-0.7052704928222783,0.2538405194946088,1.2981651863439287,-0.1307018965717729
15601,5.0,300.06093,4996.42,0.0,0.0,0.0,0.0,0.15549219631718864,0.0,-0.43753949995928665,-0.3941437409664586,-0.6871036683343523,0.2764326631317797,1.2726020008960388,-0.14276271383708286
15602,5.0,301.4273,4975.8936,0.0,0.0,0.0,0.0,0.15550216312677248,0.0,-0.4677926756150425,-0.4048901195395436,-0.6398646213147214,0.26774138880901777,1.2336194324487588,-0.17453470073023383
15603,5.0,301.12093,5000.3295,0.0,0.0,0.0,0.0,0.15551212993635627,0.0,-0.4703562388980465,-0.4101345905996326,-0.6394844701422034,0.26193505030347675,1.236042214762869,-0.2066826135429858
15604,5.0,301.40738999999996,5147.4001,0.0,0.0,0.0,0.0,0.1555220967459401,0.0,-0.4691286256068905,-0.44190308177993864,-0.6536493721676704,0.24534613993127877,1.2710339963662887,-0.2021293715686158
15605,5.0,300.36111,5148.0052,0.0,0.0,0.0,0.0,0.15553206355552393,0.0,-0.4333409461824216,-0.43213575611597854,-0.6993883226792533,0.24688475007562777,1.259955322422909,-0.18620868950486683
15606,5.0,300.20554,5029.3286,0.0,0.0,0.0,0.0,0.15554203036510778,0.0,-0.4440072678651055,-0.40333712124377463,-0.6814459229559764,0.2285551976216418,1.277378360542429,-0.14746781160393985
15607,5.0,299.48831,4981.6267,0.0,0.0,0.0,0.0,0.1555519971746916,0.0,-0.4294119878596636,-0.38646441978356866,-0.6984137382030693,0.2570824435870618,1.2850977051042687,-0.15384705184852185
15608,5.0,300.043,5201.8997,0.0,0.0,0.0,0.0,0.15556196398427538,0.0,-0.4846950551706775,-0.4135154312807956,-0.6830371309130163,0.26554075144683176,1.2984812190501187,-0.13853679217501688
15609,5.0,300.24862,5113.754,0.0,0.0,0.0,0.0,0.1555719307938592,0.0,-0.47392239288999854,-0.3993616952714306,-0.6811694475336904,0.2228483704084218,1.2833179313036187,-0.15808357210663385
15610,5.0,300.07811,5161.7668,0.0,0.0,0.0,0.0,0.15558189760344304,0.0,-0.4781358110458305,-0.4102187916829426,-0.6806936252867304,0.22695566074877976,1.254379913747659,-0.14446435592252185
15611,5.0,300.1513,5309.6304,0.0,0.0,0.0,0.0,0.15559186441302686,0.0,-0.46560304214894255,-0.42311031191023657,-0.7252816959372304,0.2168739337112908,1.2643313469547888,-0.16922044713575785
15612,5.0,300.38583,5089.3908,0.0,0.0,0.0,0.0,0.15560183122261068,0.0,-0.46191368707733155,-0.3972888388793556,-0.6878452052875363,0.24449006518679076,1.2805900593843988,-0.14860855896402286
15613,5.0,298.90461,4913.0835,0.0,0.0,0.0,0.0,0.1556117980321945,0.0,-0.44175735615055656,-0.37948672363242364,-0.6722106245220234,0.24470199657770678,1.258269983531579,-0.16611678101944982
15614,5.0,298.63191,5170.0018,0.0,0.0,0.0,0.0,0.1556217648417783,0.0,-0.5085780287727435,-0.39399229047401163,-0.6689811330082974,0.24856529629398474,1.250484169763179,-0.15048532106424486
15615,5.0,298.13009,5223.8899,0.0,0.0,0.0,0.0,0.15563173165136213,0.0,-0.47942158489272657,-0.41717509812447656,-0.6913354161844933,0.27619915964623476,1.2624945271735089,-0.17351654649974982
15616,5.0,299.46175,5141.9735,0.0,0.0,0.0,0.0,0.15564169846094597,0.0,-0.46391367052221455,-0.4070349065562176,-0.6920829718432713,0.27940028015716073,1.2832338315453187,-0.15879936237477685
15617,5.0,300.70536,5254.3649,0.0,0.0,0.0,0.0,0.1556516652705298,0.0,-0.4605316646034366,-0.4258441214750426,-0.7108199420299663,0.25712348021611175,1.289749840288399,-0.1342543108923689
15618,5.0,300.41758,5057.4649,0.0,0.0,0.0,0.0,0.1556616320801136,0.0,-0.4734150079024236,-0.3757681464279286,-0.6881598903710934,0.25889149018310076,1.278272553755679,-0.13061646945584188
15619,5.0,299.7585,5087.4404,0.0,0.0,0.0,0.0,0.15567159888969742,0.0,-0.4349233489960926,-0.41552821207444157,-0.6960032770101754,0.24507875336238977,1.2691578624811288,-0.15324840342443985
15620,5.0,300.90195,5321.1863,0.0,0.0,0.0,0.0,0.15568156569928127,0.0,-0.49604602994593155,-0.4316126049568476,-0.6898491404078093,0.2383136066847218,1.2910719290188788,-0.16674850192679583
15621,5.0,300.6136,5262.2098,0.0,0.0,0.0,0.0,0.15569153250886505,0.0,-0.45086805521971257,-0.4386636502827315,-0.7100486661863473,0.21456787780870082,1.275300995187409,-0.19394713383109183
15622,5.0,301.00065,4995.3425,0.0,0.0,0.0,0.0,0.15570149931844887,0.0,-0.44063852539013665,-0.41558327208487567,-0.6622375888227614,0.2076226461907598,1.2910185307386088,-0.17829125454847683
15623,5.0,299.46106000000003,4991.4293,0.0,0.0,0.0,0.0,0.1557114661280327,0.0,-0.4251803717320356,-0.4066588894441076,-0.6854306201667354,0.24933601485004875,1.2995935650098986,-0.18253268906957382
15624,5.0,299.27557,5147.9151,0.0,0.0,0.0,0.0,0.15572143293761653,0.0,-0.47206519664920754,-0.4009849624616346,-0.6917874878491094,0.25750373271363974,1.3031356847094788,-0.15878619012347686
15625,5.0,299.58018,5036.93,0.0,0.0,0.0,0.0,0.15573139974720035,0.0,-0.4631724578090625,-0.39618536899045165,-0.6717431311908854,0.28349943409921574,1.2654038721856387,-0.15860159622025885
15626,5.0,299.45293,5144.4344,0.0,0.0,0.0,0.0,0.15574136655678417,0.0,-0.5131479995062646,-0.3943901735232796,-0.6562414381759873,0.25682023472618376,1.2553999526233288,-0.13468898505276788
15627,5.0,298.6576,5206.3542,0.0,0.0,0.0,0.0,0.155751333366368,0.0,-0.46417834158083554,-0.43034439073418457,-0.6880789519531053,0.2790097837011217,1.2593785804659887,-0.18502292344284083
15628,5.0,300.17975,5296.1219,0.0,0.0,0.0,0.0,0.1557613001759518,0.0,-0.4909174341672785,-0.4222730228226026,-0.6966983665787753,0.23931080690313777,1.251577669271099,-0.15277247985246986
15629,5.0,299.79119,5324.054,0.0,0.0,0.0,0.0,0.15577126698553562,0.0,-0.47590207080287755,-0.4137494211263886,-0.7287279824423524,0.23190813339505076,1.268641104930129,-0.15576307739011885
15630,5.0,299.77067999999997,5182.5096,0.0,0.0,0.0,0.0,0.15578123379511943,0.0,-0.5008531923953615,-0.38620944552840464,-0.6882908630790192,0.19663895431175382,1.2690424532947386,-0.12920957169199188
15631,5.0,300.22213,5048.3543,0.0,0.0,0.0,0.0,0.15579120060470328,0.0,-0.4423236008364406,-0.40095376449105563,-0.6912962945981324,0.23588113769965577,1.2982160514989487,-0.15086001081872386
15632,5.0,300.36602999999997,5072.9006,0.0,0.0,0.0,0.0,0.1558011674142871,0.0,-0.47110425051936955,-0.3967463751733186,-0.6741844762468273,0.22476019096210378,1.3006815929672788,-0.15847604440036786
15633,5.0,299.38684,5360.0678,0.0,0.0,0.0,0.0,0.1558111342238709,0.0,-0.4623703690299026,-0.44859798996067457,-0.7183584011839543,0.24728412260254276,1.2819858113971487,-0.17988611020587683
15634,5.0,300.88776,5222.8065,0.0,0.0,0.0,0.0,0.1558211010334547,0.0,-0.4788044041243155,-0.39629886313415263,-0.7124994749982233,0.25839959778955474,1.2701376753278288,-0.15094738337484687
15635,5.0,300.50067,4754.853,0.0,0.0,0.0,0.0,0.15583106784303855,0.0,-0.38830390441261164,-0.3902263539598426,-0.6668263148156334,0.2663318464624067,1.2749074488485688,-0.17197319434493286
15636,5.0,299.53785,4795.3629,0.0,0.0,0.0,0.0,0.15584103465262236,0.0,-0.4382650072958886,-0.36356649753121967,-0.6558390866937784,0.26997343692430376,1.2762930683603186,-0.15194613386591585
15637,5.0,299.74234,5200.6502,0.0,0.0,0.0,0.0,0.1558510014622062,0.0,-0.4892949471796515,-0.39446421170808665,-0.6971086518092674,0.25658799780326375,1.2657450334943088,-0.13820583429485386
15638,5.0,299.57818,5458.5918,0.0,0.0,0.0,0.0,0.15586096827179002,0.0,-0.5343974449059214,-0.4237750343733396,-0.7011031370159924,0.26089455390828775,1.2830951176066288,-0.14053718091993986
15639,5.0,298.94335,5424.9205,0.0,0.0,0.0,0.0,0.15587093508137384,0.0,-0.46845772231817756,-0.4526398648745766,-0.7279427744098583,0.24378954459765476,1.2950511648115988,-0.19439669263545983
15640,5.0,300.05348,5120.5844,0.0,0.0,0.0,0.0,0.15588090189095763,0.0,-0.4497776359920966,-0.41556167972524466,-0.6911904910226904,0.23012394182396476,1.2981430974917487,-0.15748345446990686
15641,5.0,300.12135,4905.537,0.0,0.0,0.0,0.0,0.15589086870054147,0.0,-0.3995311309531526,-0.4006661635826716,-0.6909634622052844,0.22569647458450778,1.2795342527801987,-0.16238056313071386
15642,5.0,300.32469,5280.7206,0.0,0.0,0.0,0.0,0.1559008355101253,0.0,-0.4930860629588056,-0.4184374962915656,-0.6936836435562453,0.2275077705957688,1.2633487983328187,-0.12809923196740988
15643,5.0,299.97643999999997,5334.2197,0.0,0.0,0.0,0.0,0.1559108023197091,0.0,-0.47870858106235853,-0.4259390123469076,-0.7168219999248233,0.24694463315653778,1.2692339575636387,-0.16020797253129584
15644,5.0,300.04685,5012.7565,0.0,0.0,0.0,0.0,0.15592076912929292,0.0,-0.4635810914418915,-0.40868216750878966,-0.6514895383870114,0.23622373782346776,1.2609883308998588,-0.14805225426161986
15645,5.0,300.14826,4805.0684,0.0,0.0,0.0,0.0,0.15593073593887677,0.0,-0.4150646400211906,-0.38112164319877767,-0.6644345075570803,0.23850339856095276,1.2792958350316688,-0.19453830446943582
15646,5.0,299.3845,5157.8186,0.0,0.0,0.0,0.0,0.15594070274846059,0.0,-0.4831437794000785,-0.3942670839011316,-0.6904371902358454,0.24499735898185676,1.2797489604763888,-0.14518152421080086
15647,5.0,299.97101000000004,5412.0467,0.0,0.0,0.0,0.0,0.15595066955804443,0.0,-0.47770609167842054,-0.42973688650422853,-0.7376840696787493,0.23916267987101877,1.2877217188882386,-0.17427696030229683
15648,5.0,298.76403999999997,5324.9663,0.0,0.0,0.0,0.0,0.1559606363676282,0.0,-0.49910017852985256,-0.42937624039613553,-0.6901803718654994,0.2601822593529898,1.2745318370364989,-0.13296047157467686
15649,5.0,298.58575,5202.5934,0.0,0.0,0.0,0.0,0.15597060317721204,0.0,-0.47490631953210455,-0.44233340909740854,-0.6642187460807863,0.26341022085906474,1.2565042939073188,-0.16492263537909685
15650,5.0,299.04621000000003,5312.7583,0.0,0.0,0.0,0.0,0.15598056998679588,0.0,-0.5137792948485684,-0.41302596055498864,-0.6881406082216903,0.27657952360127375,1.2657794839977088,-0.12260638291030788
15651,5.0,299.96592000000004,5263.7722,0.0,0.0,0.0,0.0,0.1559905367963797,0.0,-0.4554162410760836,-0.45559891993661256,-0.6890401513954684,0.2552958404807378,1.2693617284012488,-0.1917062501749338
15652,5.0,299.67812000000004,5173.5169,0.0,0.0,0.0,0.0,0.15600050360596351,0.0,-0.44562557012981957,-0.41582988702671464,-0.7111644977264714,0.23998431424460775,1.274226646106379,-0.14292249324535186
15653,5.0,301.29801000000003,5132.2486,0.0,0.0,0.0,0.0,0.15601047041554733,0.0,-0.4217015295012006,-0.40899697418235864,-0.7293769387338993,0.23407154394856278,1.2886706276068887,-0.14639454670051685
15654,5.0,300.24778,5019.8618,0.0,0.0,0.0,0.0,0.15602043722513112,0.0,-0.5009862625309945,-0.36538185667538164,-0.6595445220444763,0.24957036946567773,1.2778211508361288,-0.1026612437018759
15655,5.0,300.81186,5243.1524,0.0,0.0,0.0,0.0,0.15603040403471496,0.0,-0.5000589461719755,-0.4060478996338076,-0.6876805724112883,0.24802184973535077,1.2995641807569989,-0.15672884659043285
15656,5.0,300.68417999999997,5417.6879,0.0,0.0,0.0,0.0,0.15604037084429878,0.0,-0.5371762123776644,-0.4254148074076726,-0.6842508221477984,0.25389898402537875,1.2694839263633089,-0.14177973965007087
15657,5.0,299.58239,5151.7896,0.0,0.0,0.0,0.0,0.15605033765388263,0.0,-0.43609604413182856,-0.44081991742303855,-0.6890994366588193,0.26429155592854575,1.3021020682824687,-0.1917096850927728
15658,5.0,300.40672,5132.4538,0.0,0.0,0.0,0.0,0.15606030446346641,0.0,-0.4664514668551756,-0.42440889323839665,-0.6692774377350403,0.23996279281248376,1.292385607773529,-0.18527757345797283
15659,5.0,299.45087,5251.2507,0.0,0.0,0.0,0.0,0.15607027127305026,0.0,-0.4458503697970056,-0.4301412239566336,-0.7202574750513783,0.25678972576567277,1.2967991225591087,-0.17256372663571384
15660,5.0,299.41306000000003,5173.5488,0.0,0.0,0.0,0.0,0.15608023808263405,0.0,-0.5046045685055935,-0.4027039209912826,-0.6653211723220874,0.23752083980648178,1.2734681270815187,-0.15727108738144785
15661,5.0,299.74485,5052.7094,0.0,0.0,0.0,0.0,0.1560902048922179,0.0,-0.43896758478272757,-0.4179726779406916,-0.6789572388553623,0.24908059476484076,1.277828547561859,-0.15290251023780285
15662,5.0,298.97396000000003,5138.9121,0.0,0.0,0.0,0.0,0.1561001717018017,0.0,-0.5038284898565005,-0.40124130460443364,-0.6570311653039274,0.2369897751640698,1.2548366868927388,-0.13785475326770488
15663,5.0,299.76093,5281.3703,0.0,0.0,0.0,0.0,0.15611013851138553,0.0,-0.4535381414857296,-0.44445968403475555,-0.7074068597306213,0.23142227997210077,1.2631356105117788,-0.18473784552720585
15664,5.0,300.54611,5200.8917,0.0,0.0,0.0,0.0,0.15612010532096934,0.0,-0.4661328300962286,-0.4181857036417156,-0.6966226666638043,0.23583655469525577,1.2844737456926887,-0.17057654053959384
15665,5.0,300.69521000000003,5193.9969,0.0,0.0,0.0,0.0,0.1561300721305532,0.0,-0.43584583215213457,-0.4299797828182006,-0.7130197485270703,0.2504942306418557,1.2897337296118088,-0.14212851046699188
15666,5.0,300.84917,5295.9302,0.0,0.0,0.0,0.0,0.156140038940137,0.0,-0.5369424555795945,-0.4079328487948376,-0.6649552269159714,0.24039632200026978,1.2802928731300687,-0.12991100420621787
15667,5.0,300.57207,5244.4469,0.0,0.0,0.0,0.0,0.15615000574972085,0.0,-0.4824283336369696,-0.4174903303630876,-0.6942622498933494,0.23964099471322478,1.2831775961647687,-0.15324685315178685
15668,5.0,299.94052999999997,5142.2749,0.0,0.0,0.0,0.0,0.1561599725593046,0.0,-0.5017343248148225,-0.4115592101077316,-0.6498296320731913,0.2524423255491177,1.2741030295941786,-0.15791350820984984
15669,5.0,300.18932,5309.3618,0.0,0.0,0.0,0.0,0.15616993936888846,0.0,-0.4304360696032326,-0.43391929920700056,-0.7495580537581203,0.2663812525372828,1.3005212968014588,-0.17399945136490882
15670,5.0,299.56747,5178.5412,0.0,0.0,0.0,0.0,0.15617990617847227,0.0,-0.4659899618321286,-0.4185044923881776,-0.6896527624059283,0.24348524532762275,1.2890001365394088,-0.17261709451848084
15671,5.0,299.30657,5077.3243,0.0,0.0,0.0,0.0,0.15618987298805612,0.0,-0.4395262300928615,-0.4156806555519866,-0.6881729207673793,0.25358850392973675,1.283250854146999,-0.18416389000806083
15672,5.0,299.47528,5137.6537,0.0,0.0,0.0,0.0,0.15619983979763993,0.0,-0.5056988583485915,-0.38558226398150663,-0.6704373152570114,0.26828568649773576,1.2681682211084588,-0.13598001766768286
15673,5.0,297.79885,4942.1804,0.0,0.0,0.0,0.0,0.15620980660722375,0.0,-0.4281863402737016,-0.4128033191105156,-0.6613097759711933,0.2511439063409738,1.2894459665834088,-0.14924765633209686
15674,5.0,298.92212,4972.7265,0.0,0.0,0.0,0.0,0.15621977341680754,0.0,-0.45274031848949053,-0.41535696267504063,-0.6434873957222614,0.24943771476258578,1.2697792887674588,-0.12991500654411287
15675,5.0,299.28869,5392.7979,0.0,0.0,0.0,0.0,0.15622974022639138,0.0,-0.4733399260700136,-0.4424367707401095,-0.7234991964938113,0.2034511563240658,1.2731120709963788,-0.16033021102335984
15676,5.0,299.1835,5513.7485,0.0,0.0,0.0,0.0,0.1562397070359752,0.0,-0.5031969108041685,-0.46780792502904756,-0.7050370399992383,0.2336927910611828,1.2977522869281788,-0.15634806720285285
15677,5.0,299.39938,5279.9768,0.0,0.0,0.0,0.0,0.15624967384555905,0.0,-0.48654553356330554,-0.4144919206671676,-0.7039436519488294,0.2272253473953958,1.3043770174069886,-0.17339731736048283
15678,5.0,299.86978999999997,5417.9003,0.0,0.0,0.0,0.0,0.15625964065514283,0.0,-0.5301556354822875,-0.43576249233140957,-0.6809882885483113,0.2778751057091377,1.2759288049493687,-0.12834933248959288
15679,5.0,299.81206000000003,5214.7573,0.0,0.0,0.0,0.0,0.15626960746472668,0.0,-0.48506452668714156,-0.41682034913196564,-0.6832711511561123,0.25728902501744977,1.2588155173854187,-0.17557956423335383
15680,5.0,300.08887999999996,4882.6743,0.0,0.0,0.0,0.0,0.15627957427431047,0.0,-0.4424078627147566,-0.3860736294850007,-0.6557295847554714,0.27693981507183174,1.2628712535606887,-0.16392813040594686
15681,5.0,299.60244,4950.0415,0.0,0.0,0.0,0.0,0.1562895410838943,0.0,-0.3875701492201956,-0.4217266277061776,-0.6953922466698713,0.25196891483739575,1.2880854756741387,-0.18624695996114382
15682,5.0,299.19935,5149.0172,0.0,0.0,0.0,0.0,0.15629950789347813,0.0,-0.4770008392113176,-0.4078173990784436,-0.6803544195507534,0.2423865883766938,1.2653546282307788,-0.16146979314582785
15683,5.0,299.8785,5174.3912,0.0,0.0,0.0,0.0,0.15630947470306195,0.0,-0.4683839779758996,-0.4051259636328196,-0.6993757685105143,0.21061892806146978,1.2884526775103788,-0.17621913782897483
15684,5.0,299.9477,5220.4529999999995,0.0,0.0,0.0,0.0,0.15631944151264576,0.0,-0.5178288299332264,-0.4144039604259866,-0.6546545669293754,0.2230748014082688,1.3078908674287788,-0.16093002468505685
15685,5.0,299.92409,5332.732,0.0,0.0,0.0,0.0,0.1563294083222296,0.0,-0.4834750919177765,-0.4031585460461506,-0.7343837317180313,0.24841747323689578,1.299927228267829,-0.13194835631478888
15686,5.0,299.89482000000004,5218.7019,0.0,0.0,0.0,0.0,0.15633937513181342,0.0,-0.4677330255816556,-0.4333177528876325,-0.6853042982767684,0.2319756462492138,1.269867441526159,-0.14118685661905786
15687,5.0,300.49662,5237.7214,0.0,0.0,0.0,0.0,0.15634934194139727,0.0,-0.42084781562944557,-0.42757205740057663,-0.7437166466666183,0.25718592681977476,1.2706053915739888,-0.16067491870737982
15688,5.0,300.75023999999996,5365.0678,0.0,0.0,0.0,0.0,0.15635930875098103,0.0,-0.5126894329085075,-0.4153147709408766,-0.7028424517401494,0.27051030748978877,1.270238291062759,-0.15733255113251385
15689,5.0,300.50627000000003,5128.4724,0.0,0.0,0.0,0.0,0.15636927556056487,0.0,-0.4657081567143166,-0.4073784287376206,-0.6858409763247344,0.2715529013126848,1.291431430154359,-0.16341737129553885
15690,5.0,299.75455,4988.1798,0.0,0.0,0.0,0.0,0.1563792423701487,0.0,-0.5029234346021785,-0.38423638413867867,-0.6291222856095354,0.2747013936134167,1.256922867523629,-0.15789705302822585
15691,5.0,299.81994,5256.2959,0.0,0.0,0.0,0.0,0.15638920917973254,0.0,-0.47213083499068553,-0.4097654129256976,-0.7158864661074933,0.2565907031810307,1.2634700843697888,-0.14471459829971886
15692,5.0,299.48849,5340.6856,0.0,0.0,0.0,0.0,0.15639917598931635,0.0,-0.4882202333285855,-0.4363495491743476,-0.6988652728451323,0.25599403059464376,1.2867171827390989,-0.16289657087663983
15693,5.0,298.71277000000003,5151.9374,0.0,0.0,0.0,0.0,0.15640914279890017,0.0,-0.42826507993897256,-0.41788054310909856,-0.7199147128075504,0.24490110022235678,1.2782146971749688,-0.16160543693671484
15694,5.0,299.56369,5303.2083,0.0,0.0,0.0,0.0,0.15641910960848396,0.0,-0.5139847211738425,-0.4181731900029806,-0.6798849909119243,0.2195859280014438,1.2577811916833388,-0.17341658937738483
15695,5.0,300.71659,5355.4856,0.0,0.0,0.0,0.0,0.1564290764180678,0.0,-0.48405396169990655,-0.44017641241702954,-0.7037035218076303,0.23683951017423976,1.2758843232699788,-0.16603197198607983
15696,5.0,300.65016,4905.2592,0.0,0.0,0.0,0.0,0.15643904322765162,0.0,-0.5024682522597554,-0.37624828512031466,-0.6123597750977043,0.22930887331102381,1.3058736891296987,-0.18217575145684684
15697,5.0,300.2556,4897.8047,0.0,0.0,0.0,0.0,0.15644901003723546,0.0,-0.41478005859810463,-0.3872618172147656,-0.6867684548037692,0.24670598236048474,1.3041395115835488,-0.14246047146475388
15698,5.0,299.74461,5092.5034,0.0,0.0,0.0,0.0,0.15645897684681925,0.0,-0.48349816362255355,-0.39259517057362664,-0.6719005395939204,0.23016778515579178,1.2827652033740686,-0.15922037792382784
15699,5.0,298.56917000000004,5196.8591,0.0,0.0,0.0,0.0,0.1564689436564031,0.0,-0.41539511154130565,-0.43269869760653656,-0.7316215916804294,0.26160494355339775,1.2842667386972588,-0.15897243562435784
15700,5.0,298.37971,5255.7211,0.0,0.0,0.0,0.0,0.1564789104659869,0.0,-0.5093919827105745,-0.4250529960619646,-0.6631630002715924,0.28494985095486075,1.2959617726764687,-0.1945542226285068
15701,5.0,298.52827,5403.4967,0.0,0.0,0.0,0.0,0.15648887727557073,0.0,-0.48782147888423155,-0.4329703904883506,-0.7217362122473183,0.27435533830676373,1.2865391546965288,-0.15548007663718885
15702,5.0,298.15654,5049.5565,0.0,0.0,0.0,0.0,0.15649884408515455,0.0,-0.5027999599449926,-0.39831310300794265,-0.6338260256212584,0.25816875915177273,1.2715049550127688,-0.17159311409992184
15703,5.0,298.72900000000004,5127.4438,0.0,0.0,0.0,0.0,0.15650881089473836,0.0,-0.4535970518465436,-0.4092777761825716,-0.6957400548991973,0.24760891992209777,1.2569124310475988,-0.13924918805532488
15704,5.0,299.18071000000003,5467.0113,0.0,0.0,0.0,0.0,0.15651877770432218,0.0,-0.49289110350706455,-0.44927094001458956,-0.7196728905386842,0.25699486838091873,1.3046151311804888,-0.16066789688418684
15705,5.0,299.97502000000003,5226.8346,0.0,0.0,0.0,0.0,0.15652874451390603,0.0,-0.44837122458829454,-0.3996922579840546,-0.7407637319001883,0.24887937342748176,1.2973043290589688,-0.14638218504929684
15706,5.0,300.09129,5102.228,0.0,0.0,0.0,0.0,0.15653871132348984,0.0,-0.48132587699816554,-0.4056245941395306,-0.6639994483616434,0.2343990567783858,1.291555249316579,-0.16897799665182983
15707,5.0,300.31802000000005,5302.1751,0.0,0.0,0.0,0.0,0.1565486781330737,0.0,-0.4923380006749775,-0.4331702236730726,-0.6862206208722024,0.2229485301808068,1.2770034580054288,-0.16429748033239885
15708,5.0,300.27182999999997,5379.4479,0.0,0.0,0.0,0.0,0.15655864494265745,0.0,-0.5562503415351344,-0.4165285432356666,-0.6624389520151344,0.26172751641799474,1.3015716318551187,-0.17388379899849485
15709,5.0,300.50837,5261.3471,0.0,0.0,0.0,0.0,0.1565686117522413,0.0,-0.4490136758141996,-0.41898352663795463,-0.7313209603757593,0.25186948460508274,1.3081189500262886,-0.14919306241670888
15710,5.0,300.64507000000003,5047.141,0.0,0.0,0.0,0.0,0.1565785785618251,0.0,-0.4656004380961855,-0.3835816827190646,-0.6850227262064794,0.24468421403845178,1.2938040565885187,-0.14957089324649786
15711,5.0,300.50425,5029.3051,0.0,0.0,0.0,0.0,0.15658854537140895,0.0,-0.43148647558439956,-0.39095112162387163,-0.7063455613108794,0.2533976785384038,1.2684599358122488,-0.17505489319907283
15712,5.0,299.83199,5046.3342,0.0,0.0,0.0,0.0,0.15659851218099277,0.0,-0.4905897186874355,-0.3903468901917386,-0.6530229910883514,0.2553151631601448,1.3099734003593089,-0.16858014400006482
15713,5.0,299.18658999999997,5124.0351,0.0,0.0,0.0,0.0,0.1566084789905766,0.0,-0.46199688504304254,-0.39180614258825563,-0.7037757057447542,0.24734521145107174,1.277517986406209,-0.1792341546940338
15714,5.0,299.32856,5205.1845,0.0,0.0,0.0,0.0,0.15661844580016038,0.0,-0.5152270367239495,-0.3893713329954586,-0.6776477448236254,0.2624985896115937,1.2766570277962388,-0.13250277637200586
15715,5.0,300.09355,5090.7311,0.0,0.0,0.0,0.0,0.15662841260974422,0.0,-0.42052769952535257,-0.41997595444839964,-0.7069514646056773,0.2292013978729168,1.2524919248363289,-0.16347578516380384
15716,5.0,299.6053,5189.8972,0.0,0.0,0.0,0.0,0.15663837941932804,0.0,-0.4518396810056045,-0.4137693010933506,-0.7119901749679592,0.25911296638995873,1.2966686159462286,-0.15531557548345384
15717,5.0,300.42488,5360.1025,0.0,0.0,0.0,0.0,0.15664834622891188,0.0,-0.4631690026262215,-0.42117637210687164,-0.7449919435074802,0.24748032835190678,1.2769073005709386,-0.15212241911831387
15718,5.0,300.20788999999996,5376.3341,0.0,0.0,0.0,0.0,0.15665831303849567,0.0,-0.5148262659118965,-0.4184761112528766,-0.7009689320402474,0.23793505644736176,1.2836905033653887,-0.14539438779180885
15719,5.0,300.61002,5300.3342,0.0,0.0,0.0,0.0,0.15666827984807952,0.0,-0.4936066911251875,-0.43181774757209357,-0.6857447986252424,0.23240411931900076,1.2719115722778989,-0.17111521469025684
15720,5.0,300.91025,5222.8217,0.0,0.0,0.0,0.0,0.15667824665766333,0.0,-0.49602177273853754,-0.40415536122952866,-0.6874302489740833,0.25846554010606276,1.3153267046126387,-0.16384943127067983
15721,5.0,301.44604,5131.4844,0.0,0.0,0.0,0.0,0.15668821346724718,0.0,-0.4399926088488896,-0.3815243290535197,-0.7383261966646223,0.25602713347541073,1.2962781093576885,-0.12476650040099488
15722,5.0,300.49664,5319.3049,0.0,0.0,0.0,0.0,0.15669818027683097,0.0,-0.4821976976492075,-0.4094216272992686,-0.7253165314756683,0.2591945735530128,1.2907883203158887,-0.14915036405749485
15723,5.0,300.63571,5505.0357,0.0,0.0,0.0,0.0,0.15670814708641478,0.0,-0.4897390850959845,-0.4149543578803066,-0.7686999288172763,0.2630705388955407,1.2720317437397588,-0.13616991086892385
15724,5.0,300.3567,5310.8747,0.0,0.0,0.0,0.0,0.1567181138959986,0.0,-0.4911851247111976,-0.43425101702473856,-0.6889371545228034,0.2412343304954748,1.302469878068769,-0.18778867065079882
15725,5.0,299.36581,5067.1987,0.0,0.0,0.0,0.0,0.15672808070558245,0.0,-0.44553878525875457,-0.40086641219993463,-0.6938966895222713,0.24228868815203175,1.2791075731630888,-0.17080864574000085
15726,5.0,299.81262999999996,5138.644,0.0,0.0,0.0,0.0,0.15673804751516626,0.0,-0.5012320466077516,-0.3894198474102466,-0.6713675599088194,0.19942088312380882,1.2570779961139387,-0.16834315493417584
15727,5.0,300.22499,5279.1551,0.0,0.0,0.0,0.0,0.15674801432475005,0.0,-0.4430643170570435,-0.4439198142489746,-0.7177472087236344,0.2204447283887008,1.255345743742979,-0.16766059926931284
15728,5.0,300.58997,5136.0393,0.0,0.0,0.0,0.0,0.15675798113433387,0.0,-0.48945226439017747,-0.39110848949690263,-0.6806669464115974,0.24035736253392476,1.2980959813620987,-0.17067617342192684
15729,5.0,299.3597,5050.0669,0.0,0.0,0.0,0.0,0.1567679479439177,0.0,-0.44460702073179653,-0.40722952150292463,-0.6832577053272854,0.25456967453157076,1.2841776740134687,-0.17368920431678983
15730,5.0,299.25723999999997,5191.1876,0.0,0.0,0.0,0.0,0.15677791475350153,0.0,-0.5137567601663445,-0.3899634966189006,-0.6742711597928823,0.23673812436923378,1.285852981728809,-0.16612943651319884
15731,5.0,299.55487,5462.428000000001,0.0,0.0,0.0,0.0,0.15678788156308535,0.0,-0.4932783372977815,-0.4350077121994186,-0.7321556656756383,0.27049882736615577,1.2676335290306888,-0.16675368976730784
15732,5.0,300.06905,5402.2086,0.0,0.0,0.0,0.0,0.1567978483726692,0.0,-0.49701662221672155,-0.4322986056720506,-0.7128213034949853,0.2848612928961207,1.3124238444011487,-0.16396234786182384
15733,5.0,300.71448,5281.6609,0.0,0.0,0.0,0.0,0.156807815182253,0.0,-0.4357922717518486,-0.42357705543630064,-0.7461237134716773,0.27316913654719477,1.283838843180029,-0.13584975423482687
15734,5.0,300.47809,5109.6635,0.0,0.0,0.0,0.0,0.1568177819918368,0.0,-0.4845587831647285,-0.3901221411870576,-0.6785291812181163,0.25412284136997176,1.2558922908469188,-0.14024333839093986
15735,5.0,300.5265,5171.4785,0.0,0.0,0.0,0.0,0.1568277488014206,0.0,-0.4569979042171816,-0.42649991720476454,-0.6885025006274064,0.23710468785791078,1.2541052216455488,-0.17006675414928185
15736,5.0,301.45333,5350.5974,0.0,0.0,0.0,0.0,0.15683771561100446,0.0,-0.5095165618103695,-0.4194971025836406,-0.6974343407889103,0.2335867544382178,1.3012304705464488,-0.18233027209709685
15737,5.0,300.49158,5126.7934,0.0,0.0,0.0,0.0,0.15684768242058827,0.0,-0.4519546544944516,-0.4074677771314386,-0.6989947560754113,0.2253939586346518,1.2758128891379288,-0.15354505265621685
15738,5.0,299.26718999999997,5032.443,0.0,0.0,0.0,0.0,0.1568576492301721,0.0,-0.4666959539718046,-0.4037795265024366,-0.6592615314240474,0.20658723631107279,1.2780093113796986,-0.16554046462757185
15739,5.0,299.63202,5332.1029,0.0,0.0,0.0,0.0,0.15686761603975594,0.0,-0.47053722563090855,-0.4227768411698256,-0.7275120620573503,0.2442465609227588,1.2795528965820389,-0.1254054052515499
15740,5.0,299.33202,5350.2076,0.0,0.0,0.0,0.0,0.15687758284933975,0.0,-0.5194547923686965,-0.42407170387011867,-0.6828030194774114,0.28085286536801973,1.3139751303042486,-0.16429980067512784
15741,5.0,299.69588999999996,5240.2145,0.0,0.0,0.0,0.0,0.15688754965892354,0.0,-0.4612827767700655,-0.41305761448811257,-0.7185539483207533,0.2580406235441267,1.3007887948278587,-0.15484741340724983
15742,5.0,299.46325,5213.4917,0.0,0.0,0.0,0.0,0.1568975164685074,0.0,-0.48285846843692054,-0.4231183165860266,-0.6787945108893023,0.24734139149819476,1.2554095784992787,-0.17394203048174184
15743,5.0,300.12098,5249.5269,0.0,0.0,0.0,0.0,0.1569074832780912,0.0,-0.45098719316647057,-0.43356349643438563,-0.7111743971799482,0.2711870774965808,1.271198852157559,-0.19398832244765682
15744,5.0,300.53668999999996,5277.3034,0.0,0.0,0.0,0.0,0.15691745008767502,0.0,-0.46701392198568553,-0.41544943187916655,-0.7217050852042463,0.2765789055187127,1.3048074460494687,-0.15837226732512585
15745,5.0,300.95225,5194.9639,0.0,0.0,0.0,0.0,0.15692741689725884,0.0,-0.45629922774322756,-0.44179958841472455,-0.6810405013259643,0.2684950239683957,1.2675038330178887,-0.1754075852938808
15746,5.0,300.2085,5170.978,0.0,0.0,0.0,0.0,0.15693738370684268,0.0,-0.5057075419019486,-0.38674335740359767,-0.6793972832412913,0.25981490552923475,1.241573648383779,-0.12975381871820488
15747,5.0,300.52522999999997,5252.5919,0.0,0.0,0.0,0.0,0.15694735051642647,0.0,-0.48713766678924453,-0.4537863168327225,-0.6557327967582884,0.22800690772752974,1.262140396263559,-0.19690486153549683
15748,5.0,299.45867000000004,5252.7774,0.0,0.0,0.0,0.0,0.1569573173260103,0.0,-0.5045297197207066,-0.4065242690358216,-0.6856591789917923,0.24479021013141275,1.3306523150251588,-0.14098104525874589
15749,5.0,298.93265,5139.8132,0.0,0.0,0.0,0.0,0.1569672841355941,0.0,-0.46318128321743357,-0.39752703371286363,-0.7016665749990993,0.19893329704318782,1.3194043269900686,-0.16224859743768985
15750,5.0,298.35744,5128.6578,0.0,0.0,0.0,0.0,0.15697725094517795,0.0,-0.46154033481298457,-0.4034760479649856,-0.6939675258367624,0.2257893693536758,1.3122655747355287,-0.1340789274325599
15751,5.0,299.3118,5208.0957,0.0,0.0,0.0,0.0,0.15698721775476177,0.0,-0.4721104078686696,-0.39363213072596664,-0.7173884979232323,0.24333439265273474,1.2983472673868988,-0.17035402068513283
15752,5.0,299.25265,5330.0531,0.0,0.0,0.0,0.0,0.1569971845643456,0.0,-0.5272901236694835,-0.39374040663165266,-0.6991725308054563,0.2996948183975757,1.3083341643475288,-0.14871836487735987
15753,5.0,299.82238,5168.9839,0.0,0.0,0.0,0.0,0.15700715137392937,0.0,-0.46183670033473356,-0.4042460369809776,-0.7051592886238033,0.2893648552180877,1.2539415817543988,-0.15506791689401186
15754,5.0,300.85171,5114.4018,0.0,0.0,0.0,0.0,0.15701711818351322,0.0,-0.45761700002828154,-0.41503072654034356,-0.6820027140184274,0.26211332152607075,1.2301504694063987,-0.15732183094645585
15755,5.0,301.21055,5219.7572,0.0,0.0,0.0,0.0,0.15702708499309703,0.0,-0.4343835501378186,-0.43174554336996757,-0.7205467579549283,0.24783231117164475,1.2574838027789887,-0.16330283350423486
15756,5.0,300.1204,5343.4238,0.0,0.0,0.0,0.0,0.15703705180268088,0.0,-0.47191167912655657,-0.4349977316859336,-0.7173579990952222,0.2223682013185328,1.3031467291355687,-0.17235575705268885
15757,5.0,300.60238,5257.9835,0.0,0.0,0.0,0.0,0.1570470186122647,0.0,-0.48002859263013353,-0.4070840491860676,-0.7111830402033014,0.20348316489472482,1.290814360843459,-0.15050729845891386
15758,5.0,299.6302,5187.3884,0.0,0.0,0.0,0.0,0.1570569854218485,0.0,-0.5056599090147476,-0.4052042473355456,-0.6659723982938583,0.19918924401844781,1.262235033822899,-0.16751929141036684
15759,5.0,299.53985,5326.2281,0.0,0.0,0.0,0.0,0.15706695223143233,0.0,-0.47620167872494656,-0.44498050471865663,-0.6978581427757363,0.2273936482370058,1.306613665677729,-0.1909994170376748
15760,5.0,300.2562,5382.9302,0.0,0.0,0.0,0.0,0.15707691904101617,0.0,-0.48755723339065254,-0.4410057677563806,-0.7077133780183723,0.23991353872512275,1.3099393551559486,-0.15235450405371886
15761,5.0,300.01875,5231.8929,0.0,0.0,0.0,0.0,0.15708688585059996,0.0,-0.4276681236425576,-0.42445314187026356,-0.7382435559864663,0.23748311650525877,1.3043983969840987,-0.16100179318963984
15762,5.0,299.28393,5163.5211,0.0,0.0,0.0,0.0,0.1570968526601838,0.0,-0.4640313797863316,-0.39593235030798063,-0.7096177511838193,0.24132622214704377,1.2493378799250487,-0.13594302390653187
15763,5.0,300.79073999999997,5254.4433,0.0,0.0,0.0,0.0,0.1571068194697676,0.0,-0.46128525923281055,-0.42895827472988557,-0.7069760257881014,0.27691825310970375,1.292547018514459,-0.14247537637372487
15764,5.0,300.60469,5284.249,0.0,0.0,0.0,0.0,0.15711678627935144,0.0,-0.5397086790150996,-0.3860544081306036,-0.6805166611567653,0.2739977420814717,1.2931333863473289,-0.13470274498912588
15765,5.0,300.14572000000004,5499.6343,0.0,0.0,0.0,0.0,0.15712675308893526,0.0,-0.4899129182831405,-0.44560277200256965,-0.7362358009133163,0.25299498255116076,1.257830942263249,-0.14320011364025087
15766,5.0,300.6428,5461.7868,0.0,0.0,0.0,0.0,0.1571367198985191,0.0,-0.5319184981387686,-0.4235848675945716,-0.7047434305177613,0.23838100808137377,1.2345586139664488,-0.13527086418769488
15767,5.0,300.2536,5415.4318,0.0,0.0,0.0,0.0,0.1571466867081029,0.0,-0.4446701867430306,-0.43084586847367656,-0.7706399683862433,0.23337181369450477,1.2701227805513589,-0.14868506947907387
15768,5.0,299.25678999999997,5260.1522,0.0,0.0,0.0,0.0,0.1571566535176867,0.0,-0.4832758666831145,-0.4158721496883856,-0.6998069064280643,0.26498344362682974,1.297016667355579,-0.15429583045031287
15769,5.0,299.93904,5082.4698,0.0,0.0,0.0,0.0,0.15716662032727052,0.0,-0.4654491902537586,-0.37510434602241666,-0.7043903635204163,0.23019155600313776,1.2996381480142989,-0.13465805052721488
15770,5.0,298.97533,5022.1242,0.0,0.0,0.0,0.0,0.15717658713685437,0.0,-0.48720568626845756,-0.3881600330309126,-0.6512346249268534,0.22498687527447578,1.2800569885067885,-0.1737531606631018
15771,5.0,298.64698,5035.9664,0.0,0.0,0.0,0.0,0.15718655394643818,0.0,-0.44685804702145554,-0.39863227678944263,-0.6853177035755913,0.2136005279382308,1.3115038133103487,-0.17760881034112483
15772,5.0,299.47803999999996,5052.0435,0.0,0.0,0.0,0.0,0.15719652075602203,0.0,-0.4405232985887646,-0.3965790977143096,-0.6985926883032303,0.2240940904788648,1.3079121456808787,-0.18290187687600984
15773,5.0,298.98244,5073.458,0.0,0.0,0.0,0.0,0.1572064875656058,0.0,-0.4178650707800716,-0.4069644552767646,-0.7173750318294033,0.22002755305752877,1.274720909505159,-0.16486006718542184
15774,5.0,300.06109,5280.3838,0.0,0.0,0.0,0.0,0.15721645437518963,0.0,-0.46832628351520555,-0.41145008307196157,-0.7253284574293453,0.23452467952578376,1.2474987296685387,-0.15803696260203387
15775,5.0,300.18543999999997,5448.0028,0.0,0.0,0.0,0.0,0.15722642118477345,0.0,-0.5089020357572205,-0.43111749042798353,-0.7160372681198763,0.24834711314995175,1.2975889510120588,-0.14651239781964787
15776,5.0,299.49504,5344.7707,0.0,0.0,0.0,0.0,0.1572363879943573,0.0,-0.49500380089307155,-0.42720563576691356,-0.7024673972156343,0.27300072424807376,1.2932548750343187,-0.15914527582641583
15777,5.0,300.57253,5218.4548,0.0,0.0,0.0,0.0,0.1572463548039411,0.0,-0.46541857996823754,-0.4062000695338256,-0.7146613251465813,0.26826982913367076,1.3122502746590188,-0.1654432736779798
15778,5.0,300.19489,5210.0969,0.0,0.0,0.0,0.0,0.15725632161352493,0.0,-0.47620634980790755,-0.4140058443291956,-0.6935271673433023,0.2682780060619777,1.2739301691271188,-0.15010231252644488
15779,5.0,301.19431000000003,5240.5579,0.0,0.0,0.0,0.0,0.15726628842310875,0.0,-0.46122737225459753,-0.4215515380888976,-0.7102198446582413,0.26669111455036376,1.3032982100255188,-0.18638039486681282
15780,5.0,300.52329,5101.1713,0.0,0.0,0.0,0.0,0.1572762552326926,0.0,-0.49790739064463346,-0.3792273822693286,-0.6734939260386753,0.2556600228316797,1.2765053442562688,-0.11733493913255688
15781,5.0,299.06009,4962.3791,0.0,0.0,0.0,0.0,0.15728622204227638,0.0,-0.4563537709961106,-0.3931538665462656,-0.6589317083839964,0.2227313805518758,1.2769871446788188,-0.16505081151674686
15782,5.0,298.86652000000004,5247.6822,0.0,0.0,0.0,0.0,0.15729618885186022,0.0,-0.49900468984042856,-0.4097879982704266,-0.6863716559321084,0.23032737204654177,1.2682673169682386,-0.11844686965979588
15783,5.0,299.43342,5412.6982,0.0,0.0,0.0,0.0,0.157306155661444,0.0,-0.49311088758625554,-0.4312496486385266,-0.7209645716336633,0.23476083772659076,1.3231461582843589,-0.20193204111164081
15784,5.0,299.67643,5360.5059,0.0,0.0,0.0,0.0,0.15731612247102786,0.0,-0.49904728687463257,-0.42955679143145453,-0.7008558533290874,0.2653554077385397,1.3207109129940187,-0.14196174976553386
15785,5.0,300.14395,5227.401,0.0,0.0,0.0,0.0,0.15732608928061168,0.0,-0.46843819698875055,-0.39033984810354366,-0.7302213205722333,0.24626890679734875,1.3187260573731288,-0.18874215925990082
15786,5.0,298.82171,5160.1475,0.0,0.0,0.0,0.0,0.15733605609019552,0.0,-0.4841574854626235,-0.4087871604841516,-0.6756113553026494,0.2891278864172007,1.2861158188047488,-0.12410777637848389
15787,5.0,299.81985,5204.0993,0.0,0.0,0.0,0.0,0.1573460228997793,0.0,-0.44590757789765156,-0.42787062167504253,-0.7081380514002844,0.26847065530349074,1.2897409236875188,-0.1950217463571478
15788,5.0,300.94766,5287.9686,0.0,0.0,0.0,0.0,0.15735598970936313,0.0,-0.47588372084356656,-0.4084275985536656,-0.7230991045593254,0.2665871449576027,1.2553327741416989,-0.14663866904710987
15789,5.0,300.59521,5105.148,0.0,0.0,0.0,0.0,0.15736595651894694,0.0,-0.43922877026100454,-0.43108784273005757,-0.6815209034633763,0.2244810101620508,1.2640895854809289,-0.18966140001562282
15790,5.0,300.85455,5186.8142,0.0,0.0,0.0,0.0,0.1573759233285308,0.0,-0.45577088874358457,-0.42689455785371255,-0.6939965655846284,0.22774115249130178,1.2549747928813686,-0.17765186333787383
15791,5.0,300.92902000000004,5300.3633,0.0,0.0,0.0,0.0,0.1573858901381146,0.0,-0.46746616590281853,-0.4424062617795986,-0.7013056755784813,0.24386582206518279,1.3016272592856089,-0.2059746050356108
15792,5.0,300.48082,5330.4163,0.0,0.0,0.0,0.0,0.15739585694769845,0.0,-0.4968932387520445,-0.4424039211718676,-0.6810162745160734,0.24697236581177473,1.293298343463609,-0.17256418259825884
15793,5.0,300.56832,5284.5699,0.0,0.0,0.0,0.0,0.1574058237572822,0.0,-0.4552546986126406,-0.4184553294933256,-0.7326672657836293,0.23388090094224778,1.296246597279579,-0.16047546042519487
15794,5.0,300.4062,5330.3868,0.0,0.0,0.0,0.0,0.15741579056686605,0.0,-0.48409906146185755,-0.4373906433870956,-0.6988147927251503,0.2457422497928718,1.275246786307059,-0.14654528791789384
15795,5.0,299.83347000000003,5361.3167,0.0,0.0,0.0,0.0,0.15742575737644987,0.0,-0.4772159826050506,-0.43348733042436854,-0.7190031119575824,0.24708136112503176,1.2949036355970387,-0.14889090110438785
15796,5.0,299.74321000000003,5376.2801,0.0,0.0,0.0,0.0,0.15743572418603372,0.0,-0.5119982747502955,-0.4147881544664036,-0.7074684653367013,0.26243553505787076,1.2952800580091888,-0.14564269486131487
15797,5.0,300.50931,5263.3512,0.0,0.0,0.0,0.0,0.15744569099561753,0.0,-0.4844861635300615,-0.41651456038428664,-0.6989266048736853,0.24275942388348978,1.3143635090675787,-0.16928048220418285
15798,5.0,299.78812999999997,5191.5295,0.0,0.0,0.0,0.0,0.15745565780520135,0.0,-0.5171728619509874,-0.38580796544128165,-0.6751145182486153,0.25125642776457874,1.276272195408259,-0.1399679775437639
15799,5.0,299.59361,5278.2615,0.0,0.0,0.0,0.0,0.15746562461478517,0.0,-0.4604131751367425,-0.43060828159022857,-0.7134382512158733,0.2396998341465318,1.2702043471844089,-0.18714604717237682
15800,5.0,299.79291,5110.4188,0.0,0.0,0.0,0.0,0.157475591424369,0.0,-0.48513327570642656,-0.4059557040072086,-0.6623507181964264,0.27384123547102573,1.2781238086409987,-0.15099812693985484
15801,5.0,299.93068,5073.2481,0.0,0.0,0.0,0.0,0.1574855582339528,0.0,-0.4404758278215795,-0.39262203183377764,-0.7090428938720853,0.23485597177847978,1.2795203712538288,-0.15297925380037686
15802,5.0,300.42188,5232.5098,0.0,0.0,0.0,0.0,0.15749552504353664,0.0,-0.49555839320280554,-0.45148019000262557,-0.6435137503573624,0.24174795710366576,1.2909468939565387,-0.15523953106344887
15803,5.0,300.94706,5389.3583,0.0,0.0,0.0,0.0,0.15750549185312043,0.0,-0.5075836352571045,-0.4245554801303636,-0.7060912355357793,0.21790086268764078,1.3237013180141488,-0.17380491747820984
15804,5.0,300.76547,5456.6463,0.0,0.0,0.0,0.0,0.15751545866270428,0.0,-0.5192704011154985,-0.4318695550497066,-0.7075442564441813,0.25073406694052575,1.3057678044942487,-0.14433264354202285
15805,5.0,301.10042000000004,5546.7425,0.0,0.0,0.0,0.0,0.1575254254722881,0.0,-0.46361732526546756,-0.46980193029834055,-0.7526519825409673,0.22884164342491178,1.2956729963979687,-0.15923950808571585
15806,5.0,300.13022,5334.597,0.0,0.0,0.0,0.0,0.15753539228187194,0.0,-0.4592589414178286,-0.4211688031286246,-0.7411565284339543,0.2356662881484518,1.2591677231201788,-0.13752114067227986
15807,5.0,300.2724,5284.2569,0.0,0.0,0.0,0.0,0.15754535909145576,0.0,-0.41969855696852254,-0.4506815665388076,-0.7359020160653743,0.26618283790270075,1.2870866137255588,-0.14600292553686686
15808,5.0,300.08268,5338.9454,0.0,0.0,0.0,0.0,0.15755532590103954,0.0,-0.4833593686238555,-0.4431529561757916,-0.6963937734662143,0.27099374937750076,1.2943378367411988,-0.15963719861746484
15809,5.0,299.57252,5026.379,0.0,0.0,0.0,0.0,0.15756529271062336,0.0,-0.4756080965513645,-0.3852011198238906,-0.6670845010736144,0.2815795379422367,1.3002995976795788,-0.15076158370400985
15810,5.0,299.90092999999996,5126.1756,0.0,0.0,0.0,0.0,0.1575752595202072,0.0,-0.45210672306945954,-0.46317364331167954,-0.6429489951491254,0.24262398274262276,1.2970428092081587,-0.2017339811145938
15811,5.0,300.18587,5351.2381,0.0,0.0,0.0,0.0,0.15758522632979102,0.0,-0.4927095696191485,-0.4357788259230216,-0.6981543563099702,0.23149162680894478,1.2817104100199688,-0.16306897538115486
15812,5.0,300.0579,5427.4455,0.0,0.0,0.0,0.0,0.15759519313937487,0.0,-0.5103870855012834,-0.4411058160712546,-0.6983150172458263,0.24494936132461975,1.2789547750480088,-0.15339278143118884
15813,5.0,300.34799,5353.0317,0.0,0.0,0.0,0.0,0.15760515994895863,0.0,-0.47996480853633855,-0.43978275462067856,-0.7074404084414323,0.2337457536439098,1.277223130627109,-0.14263104198658785
15814,5.0,300.51087,5236.826,0.0,0.0,0.0,0.0,0.15761512675854247,0.0,-0.4981524553138196,-0.3858907378419506,-0.7078211675640104,0.25535364639894276,1.2645947919807887,-0.12682497877415086
15815,5.0,300.30185,5355.0579,0.0,0.0,0.0,0.0,0.1576250935681263,0.0,-0.5071661660834035,-0.43956464240415255,-0.6810730773166794,0.2440548742688408,1.3060090593430589,-0.16865187197464385
15816,5.0,300.42356,5320.8266,0.0,0.0,0.0,0.0,0.15763506037771013,0.0,-0.5109231555991895,-0.3935452647948936,-0.7129300049657133,0.26612600470459175,1.3199981928736788,-0.14636040017214685
15817,5.0,300.88693,5081.7962,0.0,0.0,0.0,0.0,0.15764502718729395,0.0,-0.4762956070092165,-0.38277156899911263,-0.6856719763405553,0.25607607345524075,1.2891609393302788,-0.1777447378420398
15818,5.0,300.15879,5005.9289,0.0,0.0,0.0,0.0,0.15765499399687777,0.0,-0.4452902248767236,-0.4035995327546726,-0.6727876299239693,0.24323854932577577,1.2904437139568787,-0.18282303588572882
15819,5.0,298.47014,5036.2921,0.0,0.0,0.0,0.0,0.15766496080646158,0.0,-0.4327889579254446,-0.3951870136669216,-0.7029310705938954,0.27107736277575273,1.2655518067002387,-0.19806060499705982
15820,5.0,299.46726,5245.4661,0.0,0.0,0.0,0.0,0.15767492761604543,0.0,-0.49266910041015455,-0.4283124797786506,-0.6735091247901753,0.25697771405672576,1.2944787798301087,-0.17207745778022285
15821,5.0,299.5479,5382.3684,0.0,0.0,0.0,0.0,0.15768489442562922,0.0,-0.5005568370061135,-0.4358668570917095,-0.6996819118957284,0.23666755149976879,1.2824178612397887,-0.1984601092464878
15822,5.0,298.88977,5214.9573,0.0,0.0,0.0,0.0,0.15769486123521306,0.0,-0.4695864423995736,-0.4254044925216546,-0.6902258769274904,0.2396764787317268,1.2848293964777886,-0.18014285764871582
15823,5.0,300.25091000000003,5149.3318,0.0,0.0,0.0,0.0,0.15770482804479685,0.0,-0.43151792686750357,-0.4471620625814596,-0.6865882989359894,0.23645227638352279,1.3271374517532686,-0.19143057522022683
15824,5.0,300.66045,5382.8645,0.0,0.0,0.0,0.0,0.1577147948543807,0.0,-0.4668643358734226,-0.4048531865733986,-0.7645388754266123,0.2522406583817148,1.3178264939343487,-0.14882880913825985
15825,5.0,300.10115,5250.1382,0.0,0.0,0.0,0.0,0.1577247616639645,0.0,-0.45596931351066755,-0.39096688779542765,-0.7489747256755502,0.24509319217631476,1.2945295436601187,-0.14252073958070188
15826,5.0,300.32616,5142.55,0.0,0.0,0.0,0.0,0.15773472847354836,0.0,-0.46969226624001753,-0.4007444776829006,-0.6927700466035803,0.23621793190039475,1.2949973612312886,-0.15163937239814085
15827,5.0,299.63293999999996,5211.1874,0.0,0.0,0.0,0.0,0.15774469528313217,0.0,-0.4792044960588015,-0.38907449124616267,-0.7157918386806543,0.25511168227506276,1.2575315268586988,-0.14861489177714785
15828,5.0,299.41665,5542.731,0.0,0.0,0.0,0.0,0.15775466209271596,0.0,-0.5232248832082754,-0.4490055394158966,-0.7126213892502553,0.25602893706058877,1.3023665265585687,-0.17869756783857682
15829,5.0,299.15677999999997,5585.9285,0.0,0.0,0.0,0.0,0.15776462890229978,0.0,-0.5365701469628505,-0.4214980688811206,-0.7399145675213823,0.24472816882778978,1.2648380733297988,-0.14912104059960085
15830,5.0,299.04151,5268.6251,0.0,0.0,0.0,0.0,0.15777459571188363,0.0,-0.4887971171405195,-0.4077693710237036,-0.7049639745345273,0.24840065328523575,1.2706247446508987,-0.1963928358624638
15831,5.0,299.04051,5088.0881,0.0,0.0,0.0,0.0,0.15778456252146744,0.0,-0.46967614543092656,-0.4108865741613476,-0.6660890031153663,0.24724283266096775,1.269225547587809,-0.14649234560016886
15832,5.0,299.0426,4924.9297,0.0,0.0,0.0,0.0,0.15779452933105126,0.0,-0.4641476603678076,-0.36237328408095865,-0.6705347088566234,0.28059517560258773,1.3020636661036789,-0.15205515957667584
15833,5.0,298.23823,5148.2452,0.0,0.0,0.0,0.0,0.15780449614063505,0.0,-0.46707511215922454,-0.4128846932260466,-0.6849781735995824,0.2578959922248527,1.2779401063978688,-0.14336643864416587
15834,5.0,300.06068999999997,5430.5468,0.0,0.0,0.0,0.0,0.1578144629502189,0.0,-0.5023376037918615,-0.4207399754213026,-0.7276730371007373,0.2272177682846478,1.2972649136300787,-0.15363672139276385
15835,5.0,299.42392,5233.5458,0.0,0.0,0.0,0.0,0.1578244297598027,0.0,-0.4501021293366215,-0.4050474367500696,-0.7357176653421803,0.22161059421876278,1.2873919059806886,-0.14414028814303886
15836,5.0,300.1003,5330.0342,0.0,0.0,0.0,0.0,0.15783439656938653,0.0,-0.4691499342564936,-0.4482445885907966,-0.7028027931312353,0.22807148215640277,1.3536822738980385,-0.18955391444501482
15837,5.0,299.61669,5553.119000000001,0.0,0.0,0.0,0.0,0.15784436337897037,0.0,-0.5245109407651996,-0.39928379660374264,-0.7642147671171252,0.24630882885128877,1.2917111885069688,-0.13242232431406586
15838,5.0,299.70439,5448.2132,0.0,0.0,0.0,0.0,0.1578543301885542,0.0,-0.5184521003347385,-0.44295922275667154,-0.6947094376924834,0.24301277693849377,1.2947821469100487,-0.19182580355423282
15839,5.0,300.07372999999995,5263.1215,0.0,0.0,0.0,0.0,0.157864296998138,0.0,-0.4702945015694535,-0.4348122359901266,-0.6947507884290643,0.24000379904403077,1.2713565138731189,-0.15697813651253584
15840,5.0,301.40659,5077.31,0.0,0.0,0.0,0.0,0.15787426380772185,0.0,-0.47300846156480053,-0.4019865804504866,-0.6683804175540113,0.2468726316044318,1.2846024284553887,-0.17661493358303682
15841,5.0,299.70552000000004,5022.8188,0.0,0.0,0.0,0.0,0.15788423061730564,0.0,-0.4153926797410656,-0.43156644128229155,-0.6798523845237064,0.2545365615183028,1.2615839193086387,-0.16278854828347886
15842,5.0,299.59336,5290.4483,0.0,0.0,0.0,0.0,0.15789419742688945,0.0,-0.4678871915843706,-0.4113454751316376,-0.7289315038574383,0.24094207876913176,1.2817065596695887,-0.18791176027294682
15843,5.0,299.21781,5560.1206,0.0,0.0,0.0,0.0,0.15790416423647327,0.0,-0.5096960590655846,-0.4364648671682286,-0.7439768999548033,0.24847255351233177,1.2788222419349289,-0.13341074978661585
15844,5.0,298.1248,5496.6972,0.0,0.0,0.0,0.0,0.15791413104605712,0.0,-0.4969317523883455,-0.45283991084181957,-0.7210870431732503,0.23877950921320276,1.3163617395897886,-0.16470261825238283
15845,5.0,299.28833,5318.331999999999,0.0,0.0,0.0,0.0,0.15792409785564093,0.0,-0.48373023842545754,-0.3910876266773436,-0.7418222641471572,0.24835708353093577,1.2616605210161989,-0.1092388073885309
15846,5.0,299.2022,5158.0153,0.0,0.0,0.0,0.0,0.15793406466522475,0.0,-0.44179178638895455,-0.4384694102385616,-0.6876466487979404,0.22771020783324777,1.2780979707634488,-0.19074420973498782
15847,5.0,300.72847,5327.8653,0.0,0.0,0.0,0.0,0.1579440314748086,0.0,-0.48662211500586355,-0.39567799413537763,-0.7372378951297153,0.23266048172680176,1.2806440656147289,-0.12635264210753488
15848,5.0,300.84152,5288.7391,0.0,0.0,0.0,0.0,0.15795399828439238,0.0,-0.5037316940744475,-0.40317575103284864,-0.7007371713448743,0.2244024427492968,1.3380848084836885,-0.1899575122248468
15849,5.0,299.50278,5097.3762,0.0,0.0,0.0,0.0,0.1579639650939762,0.0,-0.5045980026449455,-0.4131573284304536,-0.6317197623733865,0.2279033231698068,1.3012684674251989,-0.18612496464910383
15850,5.0,299.27632,5286.3918,0.0,0.0,0.0,0.0,0.15797393190356002,0.0,-0.5127417976736754,-0.38927621920857164,-0.7049130891145053,0.2346269468583768,1.2948842825201288,-0.19067286679544682
15851,5.0,300.82261,5464.5466,0.0,0.0,0.0,0.0,0.15798389871314386,0.0,-0.5225137437580915,-0.4364813020848506,-0.7020906910934563,0.2611078835843418,1.2688889459045887,-0.16006170987936083
15852,5.0,299.87804,5292.4241,0.0,0.0,0.0,0.0,0.15799386552272768,0.0,-0.4492066188982416,-0.4343665680661426,-0.7251915977383383,0.25961449479195575,1.2895743453710788,-0.16891092962771084
15853,5.0,300.74882,5375.0863,0.0,0.0,0.0,0.0,0.15800383233231147,0.0,-0.4673930396431015,-0.4133373728407226,-0.7531616169437643,0.2759112142328167,1.2499565704361089,-0.13258168828979386
15854,5.0,299.86987,5369.1722,0.0,0.0,0.0,0.0,0.15801379914189528,0.0,-0.45069439428507363,-0.46339121850565257,-0.7180086779119393,0.26620508887489674,1.2853234572265488,-0.15787515669356486
15855,5.0,298.82905,5222.8587,0.0,0.0,0.0,0.0,0.15802376595147913,0.0,-0.47138750458482453,-0.4089804683382296,-0.7072506469627043,0.2964873144110198,1.2831010957822186,-0.13746230123897288
15856,5.0,300.46103,5430.8478,0.0,0.0,0.0,0.0,0.15803373276106294,0.0,-0.4982717249830906,-0.43259741312654054,-0.7199729848208013,0.25970539345842675,1.2983700655141488,-0.15708093073518084
15857,5.0,299.81872000000004,5257.5966,0.0,0.0,0.0,0.0,0.1580436995706468,0.0,-0.4846245633612205,-0.4326057420423625,-0.6809477889418143,0.23100855982376978,1.2748895143217989,-0.15710483330503985
15858,5.0,298.48478,4954.9487,0.0,0.0,0.0,0.0,0.15805366638023058,0.0,-0.42426633908182754,-0.37601171148696666,-0.7059026494271673,0.2092106725424858,1.2784696309001289,-0.17617316667193783
15859,5.0,300.25075,5322.4775,0.0,0.0,0.0,0.0,0.15806363318981442,0.0,-0.4783202630940346,-0.4455508328024435,-0.6940291821053474,0.2298310213525558,1.2890294194672987,-0.1969435575568158
15860,5.0,299.67283,5482.7568,0.0,0.0,0.0,0.0,0.1580735999993982,0.0,-0.5195100144991466,-0.4276245133582536,-0.7194866450378032,0.26605224009731177,1.3202727836507788,-0.19037731187377782
15861,5.0,300.18637,5352.9986,0.0,0.0,0.0,0.0,0.15808356680898206,0.0,-0.5369612209714465,-0.4087692766198866,-0.6814474124336234,0.25038790017636176,1.307567134021829,-0.1869442989449658
15862,5.0,300.6259,5100.8939,0.0,0.0,0.0,0.0,0.15809353361856587,0.0,-0.4821241559569495,-0.4324918324661206,-0.6359283878562454,0.24246787129971575,1.3139057226723987,-0.1926854246740708
15863,5.0,300.92177000000004,4996.1763,0.0,0.0,0.0,0.0,0.1581035004281497,0.0,-0.48059636732366856,-0.3512631791194767,-0.6868532841021414,0.2592199554680178,1.2790514391075487,-0.12746863576767486
15864,5.0,300.44548,5352.1374,0.0,0.0,0.0,0.0,0.1581134672377335,0.0,-0.4357581860184846,-0.4392117577918256,-0.7519461829188102,0.27242566428631976,1.2981518114426087,-0.14007169382399987
15865,5.0,299.96557,5496.5147,0.0,0.0,0.0,0.0,0.15812343404731735,0.0,-0.4883937828057135,-0.43213816765121654,-0.7502712602385083,0.2583422984963997,1.233575052094379,-0.11491968526668987
15866,5.0,299.36949,5342.3856,0.0,0.0,0.0,0.0,0.15813340085690117,0.0,-0.46457862603284056,-0.42195900648411155,-0.7374141803821133,0.24975450740635075,1.2617766394776588,-0.14323606375379885
15867,5.0,300.08113,5243.2439,0.0,0.0,0.0,0.0,0.158143367666485,0.0,-0.48908722077665057,-0.43616487421112154,-0.6685631065470414,0.24705597921002675,1.2943189902893386,-0.15895307241494686
15868,5.0,300.22002000000003,5175.2167,0.0,0.0,0.0,0.0,0.15815333447606877,0.0,-0.5039158117501186,-0.3849898166480366,-0.6842310232408444,0.2531546808994218,1.3360116987790887,-0.1982027639860898
15869,5.0,300.35652000000005,5316.9938,0.0,0.0,0.0,0.0,0.15816330128565262,0.0,-0.5261889741233085,-0.4216819433767676,-0.6683624323647364,0.2280018718745328,1.3349790956021788,-0.18091503528492384
15870,5.0,300.99675,5415.389,0.0,0.0,0.0,0.0,0.15817326809523644,0.0,-0.4593228774991385,-0.44009095490359557,-0.7467292114664353,0.1987163703292788,1.3374818233491788,-0.19411741051039683
15871,5.0,299.46615,5032.5937,0.0,0.0,0.0,0.0,0.15818323490482028,0.0,-0.4439293489324156,-0.38426060081606866,-0.7015928610543243,0.24815281231077577,1.3359781602007788,-0.15826042477908783
15872,5.0,300.01627,5069.7423,0.0,0.0,0.0,0.0,0.1581932017144041,0.0,-0.4366563106421226,-0.4073213118294836,-0.6970974351306604,0.24796159175190377,1.3257496030912987,-0.15689506013683685
15873,5.0,299.3976,5438.5533,0.0,0.0,0.0,0.0,0.15820316852398789,0.0,-0.5117526831910575,-0.4142983291030616,-0.7271333902299784,0.2858962772107657,1.2644507078165688,-0.14654478129284387
15874,5.0,299.17933,5316.243,0.0,0.0,0.0,0.0,0.1582131353335717,0.0,-0.48874198620257847,-0.4130292434853126,-0.7142338855918963,0.26471967436079774,1.2497338580641288,-0.14164175525145287
15875,5.0,298.75935,5251.8973,0.0,0.0,0.0,0.0,0.15822310214315555,0.0,-0.4701750089851605,-0.42910497307936357,-0.6971656572598933,0.2534414002802188,1.2768553208408089,-0.15253263342129886
15876,5.0,299.8112,5468.5688,0.0,0.0,0.0,0.0,0.15823306895273936,0.0,-0.47862330593394253,-0.42400025960556764,-0.7596847994975523,0.2695156099991198,1.2716780181298488,-0.1167566063729799
15877,5.0,299.16257,5454.3286,0.0,0.0,0.0,0.0,0.1582430357623232,0.0,-0.5021723730980545,-0.4521695851056635,-0.7036377314786373,0.23156247325593676,1.276837791614079,-0.16718968115283683
15878,5.0,299.55958,5310.9122,0.0,0.0,0.0,0.0,0.158253002571907,0.0,-0.4578226594010786,-0.43069471182375857,-0.7258673342300284,0.24362100057602076,1.2852292249672488,-0.15155265845458285
15879,5.0,300.21004,5230.9858,0.0,0.0,0.0,0.0,0.15826296938149084,0.0,-0.5076021777339346,-0.3971431740449796,-0.6853437238381593,0.2238096610432938,1.3102897370405286,-0.17334018018734385
15880,5.0,299.1148,5040.7232,0.0,0.0,0.0,0.0,0.15827293619107463,0.0,-0.4641192792325065,-0.39739000176933964,-0.6707447049398484,0.21584790652752978,1.3282857680915987,-0.18529793978498282
15881,5.0,298.77374,4931.6544,0.0,0.0,0.0,0.0,0.15828290300065848,0.0,-0.48074152553299454,-0.37265578662576265,-0.6457024820308734,0.21052135207683978,1.2831652345135487,-0.1965508826130618
15882,5.0,299.51523,5053.9914,0.0,0.0,0.0,0.0,0.1582928698102423,0.0,-0.42149600185091657,-0.40648034464398664,-0.7083108409398373,0.24699901428940477,1.3039122395861187,-0.1873217650047188
15883,5.0,299.83855,4964.2426,0.0,0.0,0.0,0.0,0.1583028366198261,0.0,-0.44949592206679356,-0.38117952004448963,-0.6783303511509934,0.25442572208986375,1.3062974303215187,-0.15882901007270284
15884,5.0,300.36782999999997,5228.3878,0.0,0.0,0.0,0.0,0.15831280342940993,0.0,-0.43115266033895455,-0.4427551237890286,-0.7153915542286493,0.27648481511442674,1.3096890823812488,-0.17187075475982283
15885,5.0,299.86362,5552.8229,0.0,0.0,0.0,0.0,0.15832277023899377,0.0,-0.5290488117355525,-0.46871784388384957,-0.6901528621252844,0.24433733799921778,1.2923365664686886,-0.14206787758100786
15886,5.0,299.00838999999996,5471.5575,0.0,0.0,0.0,0.0,0.1583327370485776,0.0,-0.47739448687516756,-0.4664404122965845,-0.7193819459049703,0.2680676350762157,1.2814209244663988,-0.15329346265638685
15887,5.0,299.65835,5241.4489,0.0,0.0,0.0,0.0,0.15834270385816143,0.0,-0.4782431851589275,-0.4374880471192086,-0.6775383644753303,0.24530421164214078,1.3113044056906686,-0.16545963766709484
15888,5.0,300.78204,5255.0627,0.0,0.0,0.0,0.0,0.1583526706677452,0.0,-0.4658275986361045,-0.4313191575953866,-0.7002610957853894,0.2538963394426178,1.307371576752529,-0.16700700229230783
15889,5.0,299.74054,5253.8279,0.0,0.0,0.0,0.0,0.15836263747732904,0.0,-0.5060391583946765,-0.4036786574549816,-0.6873146878001783,0.24527418904167778,1.2892399728380788,-0.16806943555216186
15890,5.0,300.01313999999996,5033.5792,0.0,0.0,0.0,0.0,0.15837260428691285,0.0,-0.4589849889882916,-0.39257793518942563,-0.6785194742821584,0.25291737772600176,1.2995760357831687,-0.16997052578728483
15891,5.0,297.98928,4944.247,0.0,0.0,0.0,0.0,0.1583825710964967,0.0,-0.4602067152963666,-0.3763807675708897,-0.6663401574176534,0.25145511597668774,1.306761397542309,-0.17127839861886182
15892,5.0,298.20137,5346.6684,0.0,0.0,0.0,0.0,0.15839253790608052,0.0,-0.47656546590834953,-0.4214565458920226,-0.7272316754896783,0.24944675295347776,1.2849766217173189,-0.14574864029177087
15893,5.0,298.9447,5484.0482,0.0,0.0,0.0,0.0,0.15840250471566433,0.0,-0.5106290090951595,-0.44533306509095155,-0.7110516317978324,0.2251541932634888,1.3046890984377886,-0.1886138817972408
15894,5.0,299.1372,5263.6136,0.0,0.0,0.0,0.0,0.15841247152524812,0.0,-0.4856384923387876,-0.41324780153188256,-0.7011208080977364,0.25421901906946376,1.285261243670409,-0.14712763314786687
15895,5.0,299.63117,5359.1578,0.0,0.0,0.0,0.0,0.15842243833483197,0.0,-0.4914713374669445,-0.43926659488723757,-0.6983122206755503,0.24324125470354277,1.3391282534366686,-0.16429096513425584
15896,5.0,300.85252,5429.1356,0.0,0.0,0.0,0.0,0.15843240514441578,0.0,-0.49872502268032753,-0.4360661329888766,-0.7155304910823613,0.2809052909281937,1.3221422300852788,-0.1150005730221729
15897,5.0,299.38071,5350.1703,0.0,0.0,0.0,0.0,0.15844237195399963,0.0,-0.5101286661957795,-0.4317502752479346,-0.6844392360038933,0.26145067622567275,1.2869097002580987,-0.14334911206745585
15898,5.0,299.95426000000003,5357.5499,0.0,0.0,0.0,0.0,0.15845233876358342,0.0,-0.48134815836786454,-0.4389512917211196,-0.7082619516225123,0.25528220213439173,1.2667969897481288,-0.14584646958892586
15899,5.0,300.27855,5123.6313,0.0,0.0,0.0,0.0,0.15846230557316726,0.0,-0.4813106275841606,-0.4094635961184106,-0.6666817544238663,0.2539881196366758,1.2704431702329788,-0.15437220924285086
15900,5.0,299.76799,4944.2111,0.0,0.0,0.0,0.0,0.15847227238275105,0.0,-0.4364333145601145,-0.3948370472148826,-0.6716463658063354,0.25083373022036176,1.2672098891638788,-0.20261880176441882
15901,5.0,299.84342999999996,5204.242,0.0,0.0,0.0,0.0,0.1584822391923349,0.0,-0.47644306529626956,-0.4105037176110626,-0.6950128351699263,0.23200117001923276,1.2942381329313588,-0.16432774611288586
15902,5.0,300.23568,5339.5223,0.0,0.0,0.0,0.0,0.1584922060019187,0.0,-0.5001264995561425,-0.40903204276831967,-0.7139229090037054,0.23023087010701776,1.3067680849929686,-0.17210930423086584
15903,5.0,299.13275,5164.6114,0.0,0.0,0.0,0.0,0.15850217281150253,0.0,-0.48055304074939253,-0.39744647019741264,-0.6919133841740344,0.2192756910858258,1.3348281213372788,-0.14538951405882786
15904,5.0,299.31743,5319.1125,0.0,0.0,0.0,0.0,0.15851213962108635,0.0,-0.46783051037377654,-0.43755469871078656,-0.7114921726763103,0.22653782680504278,1.2988245081839986,-0.15982809493630484
15905,5.0,298.82066000000003,5608.8337,0.0,0.0,0.0,0.0,0.1585221064306702,0.0,-0.5263874698178985,-0.4469413361796756,-0.7316165760924342,0.24651714293934776,1.3028897689102088,-0.12929403622032787
15906,5.0,299.44917999999996,5505.2467,0.0,0.0,0.0,0.0,0.158532073240254,0.0,-0.4822282167422195,-0.46221240333931257,-0.7290169208408683,0.27808488900984174,1.277262647381009,-0.14842696428110086
15907,5.0,299.6419,5335.9655,0.0,0.0,0.0,0.0,0.15854204004983785,0.0,-0.4770467698383506,-0.4257811378488266,-0.7191723449892843,0.28175245920430275,1.3051969393879088,-0.15231507849232787
15908,5.0,299.59275,5194.904,0.0,0.0,0.0,0.0,0.1585520068594216,0.0,-0.4549134967739666,-0.4164090303863716,-0.7077985720867803,0.2590958424632688,1.2580260942325088,-0.13284458616073985
15909,5.0,299.25695,5078.4544,0.0,0.0,0.0,0.0,0.15856197366900546,0.0,-0.45457447342300755,-0.4056132254734086,-0.6835356296972143,0.26240737683759174,1.2813344942328688,-0.17203108132314582
15910,5.0,300.80814,5214.3041,0.0,0.0,0.0,0.0,0.15857194047858927,0.0,-0.4657719205431095,-0.40214131387325763,-0.7171050209427553,0.22906905727735577,1.2640815808051387,-0.13327956429616888
15911,5.0,300.02088,5304.7816,0.0,0.0,0.0,0.0,0.15858190728817312,0.0,-0.5089969671590896,-0.41264109776950564,-0.6908831013398533,0.2238891201161358,1.3036459574598387,-0.17590314565278883
15912,5.0,299.56207,5244.4869,0.0,0.0,0.0,0.0,0.15859187409775694,0.0,-0.4772297121439055,-0.3972237172954286,-0.7197396333227714,0.2287513729735028,1.2761289218441187,-0.15257237309022084
15913,5.0,299.78522999999996,5488.5661,0.0,0.0,0.0,0.0,0.15860184090734075,0.0,-0.5287698437180205,-0.4334381776620176,-0.7061790235244434,0.2226689136832108,1.3041895661384886,-0.1802707095463338
15914,5.0,300.04023,5805.6673,0.0,0.0,0.0,0.0,0.15861180771692454,0.0,-0.5301975941689285,-0.4680052757510246,-0.7665750116350633,0.24754999942878275,1.3036257937828488,-0.14292448934804888
15915,5.0,300.04127,5625.8797,0.0,0.0,0.0,0.0,0.15862177452650839,0.0,-0.5375806916850835,-0.4367087058047936,-0.7358375429615113,0.22714618216508278,1.327628776726759,-0.14627563166878085
15916,5.0,300.1473,5218.4786,0.0,0.0,0.0,0.0,0.1586317413360922,0.0,-0.4539607073074336,-0.4262684402194196,-0.7060580414625033,0.22993284285510476,1.3027342350198587,-0.12766001844656288
15917,5.0,300.29852999999997,5188.2849,0.0,0.0,0.0,0.0,0.15864170814567605,0.0,-0.4804987609415355,-0.43240934377547957,-0.6642009432765293,0.2230247367208278,1.2791673549189888,-0.14884073509193685
15918,5.0,299.96876000000003,5150.9041,0.0,0.0,0.0,0.0,0.15865167495525984,0.0,-0.4292756955887126,-0.40959206609858967,-0.7268784666373193,0.25247888361272575,1.3019395429664287,-0.15955057586641583
15919,5.0,300.18521,5016.1883,0.0,0.0,0.0,0.0,0.15866164176484368,0.0,-0.4514132344360176,-0.4016397550737576,-0.6717429994683723,0.22937375171492677,1.2946656231485487,-0.1809028762837238
15920,5.0,298.88734,5123.8546,0.0,0.0,0.0,0.0,0.15867160857442747,0.0,-0.4313496564233966,-0.4271740831587996,-0.6990001263009413,0.2389082325059068,1.2785953752375387,-0.17085655220472884
15921,5.0,298.88246000000004,5238.413,0.0,0.0,0.0,0.0,0.15868157538401131,0.0,-0.5057989370609685,-0.39092428062872264,-0.6956235412701983,0.20025766558639282,1.2954396448999386,-0.1998114099773508
15922,5.0,299.32062,5254.4259,0.0,0.0,0.0,0.0,0.15869154219359513,0.0,-0.46422381624532355,-0.44290534824885464,-0.6900851162235984,0.24796045691179178,1.3267287066629287,-0.17673663505254783
15923,5.0,300.36193,5363.6647,0.0,0.0,0.0,0.0,0.15870150900317895,0.0,-0.5126386184159925,-0.40708583250624364,-0.7106956973027043,0.23208294943480376,1.3343808727431385,-0.16775148780328283
15924,5.0,299.86981000000003,5737.0056,0.0,0.0,0.0,0.0,0.15871147581276276,0.0,-0.5062781030332585,-0.47272796353961755,-0.7649003827972902,0.25038766712883875,1.2761910340752487,-0.16088449935806384
15925,5.0,300.01061,5662.678000000001,0.0,0.0,0.0,0.0,0.1587214426223466,0.0,-0.5386818716287615,-0.4574627630980595,-0.7251680700710164,0.24712135410647876,1.278602670638259,-0.15281908935706986
15926,5.0,300.55316,5475.5641,0.0,0.0,0.0,0.0,0.15873140943193043,0.0,-0.4782018141573445,-0.4461612247951846,-0.7400717124793913,0.2394641521732718,1.2850812904526487,-0.13409760163190287
15927,5.0,300.28965,5308.819,0.0,0.0,0.0,0.0,0.15874137624151427,0.0,-0.4805520984267996,-0.4307324351249816,-0.7024638913702883,0.2729460188751747,1.2841832468890189,-0.13584692726704786
15928,5.0,300.37479,5259.8254,0.0,0.0,0.0,0.0,0.15875134305109803,0.0,-0.4974610134455795,-0.38712643686890463,-0.7142681334452763,0.24014869380833076,1.2811230289369988,-0.1110707433043289
15929,5.0,299.14128999999997,5278.5633,0.0,0.0,0.0,0.0,0.15876130986068188,0.0,-0.48101889261536857,-0.4202836683712686,-0.7032488866202613,0.24532398015159176,1.3121332442724687,-0.17830991861531884
15930,5.0,299.4302,5290.9196,0.0,0.0,0.0,0.0,0.1587712766702657,0.0,-0.4646645395088196,-0.42611968497223857,-0.7175232095240273,0.2767900567070517,1.3309423072037787,-0.16299052955841284
15931,5.0,299.1258,5360.2851,0.0,0.0,0.0,0.0,0.15878124347984954,0.0,-0.5006738775251645,-0.42307266966902163,-0.7056462667543643,0.24949800314353576,1.3340922991146589,-0.17396580132908782
15932,5.0,300.31199,5252.6386,0.0,0.0,0.0,0.0,0.15879121028943335,0.0,-0.4620133098271636,-0.41641027668399466,-0.7182473996354993,0.23436821344534178,1.2850026622448887,-0.2028332966780878
15933,5.0,300.96436,5304.0032,0.0,0.0,0.0,0.0,0.15880117709901717,0.0,-0.5021644798797755,-0.4103467753030736,-0.6997732766572453,0.22628305519989877,1.288489154513979,-0.16352665031882385
15934,5.0,301.56257999999997,5422.5202,0.0,0.0,0.0,0.0,0.15881114390860096,0.0,-0.5087566039703675,-0.4189864853282466,-0.7205676410394893,0.23236382236252376,1.3239911075427486,-0.16316110008024684
15935,5.0,301.15827,5389.5651,0.0,0.0,0.0,0.0,0.1588211107181848,0.0,-0.48190798918061556,-0.4257137567171766,-0.7306714771941604,0.24362942068435176,1.3195120354756986,-0.14628044460675588
15936,5.0,301.68303,5440.0748,0.0,0.0,0.0,0.0,0.15883107752776862,0.0,-0.4733179892053485,-0.4483379494550106,-0.7319909821368853,0.24735157466169977,1.2996337910388687,-0.16942142529309281
15937,5.0,301.94272,5483.9186,0.0,0.0,0.0,0.0,0.15884104433735244,0.0,-0.5097835937417236,-0.43601515637634564,-0.7211755607019863,0.2897124101348887,1.2850239404969885,-0.13454380657843987
15938,5.0,301.12447000000003,5223.0427,0.0,0.0,0.0,0.0,0.15885101114693626,0.0,-0.4588589710733546,-0.4291778156290526,-0.6996377848538733,0.27015335974456073,1.2792445645766088,-0.18669616412797682
15939,5.0,299.97193,5030.3395,0.0,0.0,0.0,0.0,0.1588609779565201,0.0,-0.46655619638551155,-0.3923839079277766,-0.6701574961093953,0.27038423891234675,1.2798370119100788,-0.14649946874837186
15940,5.0,299.67663999999996,5343.5965,0.0,0.0,0.0,0.0,0.1588709447661039,0.0,-0.45546652867854653,-0.45008337407727056,-0.7187700036395763,0.22319236881737178,1.244399602912679,-0.1902804147667148
15941,5.0,300.23216,5392.5306,0.0,0.0,0.0,0.0,0.1588809115756877,0.0,-0.47445863524042153,-0.43101669230803563,-0.7337193334949603,0.25946239581944475,1.3048743205560687,-0.18930493863044281
15942,5.0,301.09052,5220.5068,0.0,0.0,0.0,0.0,0.15889087838527155,0.0,-0.4479525597794756,-0.43777965036548755,-0.7011715010002394,0.21840650488504376,1.3459821810880988,-0.19248636155942483
15943,5.0,299.63539,5339.2931,0.0,0.0,0.0,0.0,0.15890084519485537,0.0,-0.5028825195631405,-0.4118882630777066,-0.7082409874779433,0.2463390135717678,1.3288539987476788,-0.14391488052579288
15944,5.0,298.48272000000003,5457.4116,0.0,0.0,0.0,0.0,0.15891081200443918,0.0,-0.5035411726581446,-0.42208102206115355,-0.7332946499805473,0.21212822488042582,1.3036563939358687,-0.14596974159609188
15945,5.0,299.02991000000003,5343.389,0.0,0.0,0.0,0.0,0.15892077881402303,0.0,-0.5211619465346795,-0.4142706065803256,-0.6888242784616634,0.23874732839002677,1.2793944242663988,-0.12469620110905688
15946,5.0,300.14592999999996,5327.1156,0.0,0.0,0.0,0.0,0.15893074562360684,0.0,-0.48519728271524354,-0.41588382232953763,-0.7182290091461843,0.2717318514128457,1.2973498239884589,-0.14428871915018787
15947,5.0,300.21646,5430.4773,0.0,0.0,0.0,0.0,0.15894071243319063,0.0,-0.4940201072984885,-0.4317462729100396,-0.7249631301057903,0.2516081167417878,1.2981434014667788,-0.14027826512188685
15948,5.0,299.80142,5293.5525,0.0,0.0,0.0,0.0,0.15895067924277445,0.0,-0.48996023706281056,-0.4104594385816926,-0.7086880942170692,0.2626621484427357,1.2903238464700486,-0.17209911093485986
15949,5.0,301.26414,5351.4044,0.0,0.0,0.0,0.0,0.1589606460523583,0.0,-0.49865277794819757,-0.44206825167873953,-0.6859722935376944,0.24245517527596278,1.2867961149218887,-0.17500022835617784
15950,5.0,301.48907,5085.0049,0.0,0.0,0.0,0.0,0.1589706128619421,0.0,-0.47465369601717255,-0.39627548745434565,-0.6747853234236263,0.2773160247014607,1.3085986226236288,-0.17873635505240484
15951,5.0,300.92602,4853.8792,0.0,0.0,0.0,0.0,0.15898057967152593,0.0,-0.44934164460656756,-0.37945561685435364,-0.6466608038429523,0.24131687998112178,1.2738735284465288,-0.15590692850681584
15952,5.0,299.57171,5231.5394,0.0,0.0,0.0,0.0,0.15899054648110977,0.0,-0.4259861082115556,-0.4465530891388586,-0.7177181385782654,0.23368427976034276,1.2696981274344488,-0.1912006079775308
15953,5.0,300.6505,5760.838000000001,0.0,0.0,0.0,0.0,0.1590005132906936,0.0,-0.5178274519130905,-0.46320629022990156,-0.7701171718646472,0.24917498914415676,1.279304346332509,-0.15519294182385085
15954,5.0,300.09569,5603.6312,0.0,0.0,0.0,0.0,0.15901048010027738,0.0,-0.5030337471405655,-0.4506246016181855,-0.7497056032376822,0.24928723699023475,1.3196247088868187,-0.17791360610370582
15955,5.0,300.82232,5152.5385,0.0,0.0,0.0,0.0,0.1590204469098612,0.0,-0.47993936582632757,-0.39201380819625065,-0.6942898609585744,0.23014130893067877,1.3154176944716187,-0.13267768360426788
15956,5.0,299.96747999999997,5141.8856,0.0,0.0,0.0,0.0,0.15903041371944504,0.0,-0.46819411517216153,-0.39826612873330663,-0.6965445856110983,0.1985008216355058,1.3029203690632287,-0.14271601313997387
15957,5.0,300.43312000000003,5401.8798,0.0,0.0,0.0,0.0,0.15904038052902886,0.0,-0.5205457587513665,-0.41144158190362257,-0.7100492538714053,0.23486227419410174,1.3088533536987688,-0.13489463429306386
15958,5.0,300.07891,5455.5529,0.0,0.0,0.0,0.0,0.15905034733861267,0.0,-0.4599033887464306,-0.4534057502276636,-0.7450427174699913,0.23518618998606977,1.3058942581067288,-0.18000764955537182
15959,5.0,299.38616,5251.0328,0.0,0.0,0.0,0.0,0.15906031414819646,0.0,-0.4831989913980276,-0.4102799311939766,-0.7027039303189784,0.26063904263057075,1.2948664493183688,-0.16539758623097084
15960,5.0,298.9395,5065.4271,0.0,0.0,0.0,0.0,0.1590702809577803,0.0,-0.4256278635061996,-0.4195857417023886,-0.6945497494767233,0.25258182982288574,1.3117915763387487,-0.20003830707224382
15961,5.0,299.25629,5158.9541,0.0,0.0,0.0,0.0,0.15908024776736412,0.0,-0.46788695853684753,-0.4097125618004816,-0.6905936968462913,0.2673599812063758,1.2906449454267386,-0.16168562554962884
15962,5.0,298.64846,5496.9890000000005,0.0,0.0,0.0,0.0,0.15909021457694797,0.0,-0.5198473963849435,-0.4168833124931796,-0.7342167075715473,0.2521805017232778,1.312559113289499,-0.14244464449819186
15963,5.0,299.73143999999996,5559.7004,0.0,0.0,0.0,0.0,0.15910018138653179,0.0,-0.5166307224849825,-0.4289207946086866,-0.7444585787873412,0.2546263050796597,1.2572512618810388,-0.11512696583964689
15964,5.0,300.11307,5045.2707,0.0,0.0,0.0,0.0,0.1591101481961156,0.0,-0.42776874950998856,-0.40278994592477263,-0.7030776169558584,0.24226377233207277,1.283532335024779,-0.15295558427804087
15965,5.0,299.68841000000003,5143.5789,0.0,0.0,0.0,0.0,0.15912011500569942,0.0,-0.4613681836209946,-0.4223502223477216,-0.6798011545986503,0.23766174236538776,1.2774854610779987,-0.16190034337831985
15966,5.0,299.73216,5489.9235,0.0,0.0,0.0,0.0,0.15913008181528326,0.0,-0.4950978608998545,-0.4430800224335936,-0.7306217570117534,0.24692514835711477,1.3319925409324287,-0.17145928402671384
15967,5.0,299.2279,5292.3321,0.0,0.0,0.0,0.0,0.15914004862486705,0.0,-0.5028486668772995,-0.41747988375455664,-0.6884082683681063,0.22264202202555677,1.3083791526519688,-0.16694957127663984
15968,5.0,300.08977999999996,4948.4102,0.0,0.0,0.0,0.0,0.15915001543445087,0.0,-0.4463605412223556,-0.3999872454856676,-0.6578453522892814,0.2179960271370328,1.3259836638643987,-0.2001720155554398
15969,5.0,301.47033999999996,5176.096,0.0,0.0,0.0,0.0,0.1591599822440347,0.0,-0.46321904704866057,-0.4165014286629906,-0.6936834713037283,0.25032455178010976,1.3310553859149385,-0.1841416289033638
15970,5.0,300.51095,5409.0893,0.0,0.0,0.0,0.0,0.15916994905361853,0.0,-0.44887594472810655,-0.4490491193026976,-0.7463030080768722,0.23781248358276477,1.3324736320799089,-0.2110468539762028
15971,5.0,300.71441,5426.1297,0.0,0.0,0.0,0.0,0.15917991586320235,0.0,-0.5269568049165875,-0.42544241847289754,-0.6970087048194034,0.2733578037158147,1.261937239618509,-0.16543844047500283
15972,5.0,299.87992,5395.5898,0.0,0.0,0.0,0.0,0.1591898826727862,0.0,-0.4639843143191866,-0.44511610797953965,-0.7310241692889683,0.23531801382407977,1.2653031551256988,-0.1882450790258428
15973,5.0,300.39807,5205.8018,0.0,0.0,0.0,0.0,0.15919984948236995,0.0,-0.5049671499213776,-0.40075060784600564,-0.6767159904291684,0.2873162357684047,1.2935419287876486,-0.11322201512164289
15974,5.0,300.69595,5256.2396,0.0,0.0,0.0,0.0,0.1592098162919538,0.0,-0.47178605637915855,-0.4049803595934496,-0.7209991639920773,0.24216652058747476,1.2957639862569488,-0.15495853654571684
15975,5.0,299.37246,5564.8291,0.0,0.0,0.0,0.0,0.15921978310153762,0.0,-0.5235184622922495,-0.4102942585503906,-0.7577563819072323,0.24852211157472276,1.262051736879809,-0.1056399558158519
15976,5.0,299.25619,5707.6115,0.0,0.0,0.0,0.0,0.15922974991112146,0.0,-0.5130200969461415,-0.4481423415232056,-0.7738089486039973,0.2264615392050138,1.2889395441834288,-0.16540920820961785
15977,5.0,300.58448,5366.7611,0.0,0.0,0.0,0.0,0.15923971672070528,0.0,-0.4917207895090635,-0.4148561131506106,-0.7247844535831564,0.2791930401142077,1.3081089188502988,-0.15142797802977784
15978,5.0,299.77702999999997,5139.774,0.0,0.0,0.0,0.0,0.1592496835302891,0.0,-0.44945626345787953,-0.4113121696008506,-0.7015945126519874,0.24117628139724578,1.332165604049509,-0.1994067280199118
15979,5.0,300.18074,5443.3967,0.0,0.0,0.0,0.0,0.1592596503398729,0.0,-0.5258934495991425,-0.4144476011077936,-0.7143156143449623,0.22899018588957176,1.2900182502398887,-0.16028108865851184
15980,5.0,301.04147,5426.0665,0.0,0.0,0.0,0.0,0.15926961714945673,0.0,-0.49550678837521256,-0.4039231648366126,-0.7499587739076683,0.2223325045175098,1.3120564399148886,-0.1931669616515948
15981,5.0,299.88698,5238.8657,0.0,0.0,0.0,0.0,0.15927958395904054,0.0,-0.4704135787212056,-0.3999688043338476,-0.7221019955334184,0.2314390188637528,1.3209353478911687,-0.1857985967918938
15982,5.0,299.64967,5092.3974,0.0,0.0,0.0,0.0,0.1592895507686244,0.0,-0.4396061451282485,-0.3871367517549226,-0.7212187454212483,0.24936401095031174,1.3248864153311088,-0.16309317179354285
15983,5.0,299.9085,5160.772,0.0,0.0,0.0,0.0,0.15929951757820818,0.0,-0.4605533886855806,-0.41357332839150956,-0.6946191064460683,0.23631905426037478,1.2643164521783188,-0.15501925049170887
15984,5.0,299.49343999999996,5595.3297,0.0,0.0,0.0,0.0,0.15930948438779202,0.0,-0.4817886992463425,-0.47692064046590255,-0.7421311737051444,0.26220238620986075,1.2779937073281589,-0.16086804417643985
15985,5.0,299.2906,5765.0405,0.0,0.0,0.0,0.0,0.15931945119737584,0.0,-0.5473947687086574,-0.47429415435168853,-0.7307394460108684,0.27913343061082474,1.2874099418324687,-0.16049506681462986
15986,5.0,298.71712,5526.7685,0.0,0.0,0.0,0.0,0.15932941800695968,0.0,-0.4836761916651235,-0.45085018148794853,-0.7454732373049803,0.2548593222051567,1.2837031689916387,-0.15311608309388083
15987,5.0,299.25352999999996,5298.1722,0.0,0.0,0.0,0.0,0.15933938481654347,0.0,-0.49645151237094953,-0.41004744095853163,-0.7040131001106833,0.2285508609112138,1.274321688965759,-0.16752590793351985
15988,5.0,298.94442999999995,5525.4888,0.0,0.0,0.0,0.0,0.1593493516261273,0.0,-0.5005733631152446,-0.42203304466891856,-0.7570042159604993,0.2195149396994378,1.3139233532241386,-0.17191285530147785
15989,5.0,300.22606,5641.27,0.0,0.0,0.0,0.0,0.1593593184357111,0.0,-0.5345859398220245,-0.4130402473813986,-0.7671790505496773,0.24698550766557179,1.3372056113719186,-0.16000182679845085
15990,5.0,300.21148999999997,5278.6103,0.0,0.0,0.0,0.0,0.15936928524529495,0.0,-0.4813053485511396,-0.38336080432976566,-0.7398995714199024,0.23663357722391576,1.3255071323423686,-0.17113066675428185
15991,5.0,300.92555,4890.7966,0.0,0.0,0.0,0.0,0.15937925205487877,0.0,-0.45160815335775456,-0.3482760975596747,-0.6867957821589664,0.24592354050076376,1.2916939632552689,-0.13930722702105286
15992,5.0,300.38821,5117.6777,0.0,0.0,0.0,0.0,0.1593892188644626,0.0,-0.4487254162932506,-0.39443364195256964,-0.7124871640095083,0.26242448049927974,1.290659536228179,-0.16455961826576987
15993,5.0,300.91789,5526.5788,0.0,0.0,0.0,0.0,0.15939918567404637,0.0,-0.5296110540835415,-0.4234636423526076,-0.7268672702237143,0.2497637178497598,1.3182209521982788,-0.14720269471527486
15994,5.0,299.37399,5576.9387,0.0,0.0,0.0,0.0,0.15940915248363022,0.0,-0.5330843031738245,-0.4230574101225156,-0.7391083852118182,0.25040731404827776,1.3082489500141188,-0.15584955828615385
15995,5.0,300.44133999999997,5536.1897,0.0,0.0,0.0,0.0,0.15941911929321403,0.0,-0.5298387009835085,-0.44106416135964355,-0.7119605576675363,0.19468214545363183,1.2970359191074787,-0.14436522966523885
15996,5.0,300.49411000000003,5324.3266,0.0,0.0,0.0,0.0,0.15942908610279788,0.0,-0.4878577228403085,-0.41977304098337365,-0.7108315538761123,0.2424407972570438,1.3261536872311788,-0.15188742615512185
15997,5.0,299.63951000000003,5531.1157,0.0,0.0,0.0,0.0,0.1594390529123817,0.0,-0.5039645490799285,-0.4515643910859356,-0.7257921004101033,0.25373198014389675,1.3022659108236387,-0.17183210940100882
15998,5.0,299.59952999999996,5672.1972,0.0,0.0,0.0,0.0,0.1594490197219655,0.0,-0.4957957267737286,-0.44818000402942254,-0.7802305832327632,0.27356470938623473,1.2945575093628787,-0.15510504237767583
15999,5.0,299.17986,5168.4137,0.0,0.0,0.0,0.0,0.15945898653154933,0.0,-0.4781225476020215,-0.39162581446795863,-0.7013203575724303,0.26089676279350577,1.2772192802767288,-0.18149141247180783
16000,5.0,299.88934,4822.2484,0.0,0.0,0.0,0.0,0.15946895334113317,0.0,-0.3999597864079576,-0.39910966957405763,-0.6667736359429344,0.2779834525423307,1.2804516494207387,-0.1961461094631138
16001,5.0,300.29032,4928.8794,0.0,0.0,0.0,0.0,0.15947892015071696,0.0,-0.43606724756398657,-0.40380753273520065,-0.6583814933146944,0.2709262973183438,1.3328753857445588,-0.1959309559368798
16002,5.0,300.63984,5231.6833,0.0,0.0,0.0,0.0,0.1594888869603008,0.0,-0.4675012750187835,-0.41703303032795563,-0.7057667928537593,0.23478997879946678,1.3203583019592187,-0.18101665413745283
16003,5.0,301.33648999999997,5461.119000000001,0.0,0.0,0.0,0.0,0.1594988537698846,0.0,-0.5068332830280505,-0.44215134831944053,-0.7110591805110773,0.2084424972441728,1.3162728775560186,-0.15460430431075686
16004,5.0,300.96885,5437.3019,0.0,0.0,0.0,0.0,0.15950882057946844,0.0,-0.4806260960816025,-0.43990755663549563,-0.7322703655869582,0.1935594238128278,1.3176542414173489,-0.16672686903716086
16005,5.0,300.59375,5546.3738,0.0,0.0,0.0,0.0,0.15951878738905226,0.0,-0.5280627572682365,-0.4417115369810346,-0.7161848378644403,0.24596133472949377,1.3295910368704187,-0.13729504404496587
16006,5.0,301.19157,5789.9157,0.0,0.0,0.0,0.0,0.1595287541986361,0.0,-0.5290224469679505,-0.47380901020380856,-0.7571583313007093,0.25764653005023275,1.3013588493341188,-0.15555538138462086
16007,5.0,300.90219,5816.4534,0.0,0.0,0.0,0.0,0.1595387210082199,0.0,-0.5583345969908344,-0.4543240689257945,-0.7553979308419713,0.27082383746823174,1.2945893254160186,-0.12240404699783887
16008,5.0,299.66786,5469.101,0.0,0.0,0.0,0.0,0.1595486878178037,0.0,-0.49657242350538255,-0.4257595353566946,-0.7401381918184523,0.27670881431403377,1.2837023583915588,-0.16988022493837282
16009,5.0,300.0791,5127.6082,0.0,0.0,0.0,0.0,0.15955865462738753,0.0,-0.4614863083176526,-0.40911471384397863,-0.6880638342616133,0.26354821539018375,1.3026730347138187,-0.15595955671700987
16010,5.0,299.02307,5052.0797,0.0,0.0,0.0,0.0,0.15956862143697137,0.0,-0.4585844816212646,-0.3694173582461546,-0.7077042486349713,0.24735288175432874,1.2762047129515988,-0.16066918371181385
16011,5.0,300.09427999999997,5330.2887,0.0,0.0,0.0,0.0,0.1595785882465552,0.0,-0.5128285217497345,-0.4045044664189826,-0.7029416894549433,0.2231949222076238,1.2826523273129287,-0.15321250397339686
16012,5.0,300.34499,5552.2842,0.0,0.0,0.0,0.0,0.15958855505613903,0.0,-0.49948560873539155,-0.45988447136706356,-0.7283856862935704,0.2277716817168148,1.3089339070817185,-0.17746674254460382
16013,5.0,300.63426,5518.97,0.0,0.0,0.0,0.0,0.1595985218657228,0.0,-0.49949225565604755,-0.4509067816385346,-0.7272300340245162,0.23847204860285875,1.3277371944874587,-0.16551703828525985
16014,5.0,301.21747,5410.6184,0.0,0.0,0.0,0.0,0.15960848867530664,0.0,-0.46003866776728153,-0.4613590846350965,-0.7232951279236712,0.26383470172345774,1.3042371888931887,-0.14424118758799687
16015,5.0,299.9973,5521.2959,0.0,0.0,0.0,0.0,0.15961845548489045,0.0,-0.4845433209682026,-0.4635764811539365,-0.7302162745867353,0.2475504959213318,1.3145534934613288,-0.14840819888924886
16016,5.0,301.35216,5624.1973,0.0,0.0,0.0,0.0,0.1596284222944743,0.0,-0.5011202749892205,-0.4850552047862215,-0.7234400733504763,0.26373907117901974,1.295817789837259,-0.15772009903076184
16017,5.0,301.25631,5281.5618,0.0,0.0,0.0,0.0,0.15963838910405811,0.0,-0.49327654384510455,-0.4251339243474516,-0.6870524282767954,0.25736673116761877,1.3020181711741887,-0.16953964118225984
16018,5.0,300.55948,4888.3855,0.0,0.0,0.0,0.0,0.15964835591364193,0.0,-0.43525962643928057,-0.39556840100456164,-0.6551191218352234,0.23772889044951478,1.2922653349866589,-0.17453198521996582
16019,5.0,299.53487,5024.866,0.0,0.0,0.0,0.0,0.15965832272322575,0.0,-0.4568052144456646,-0.4192564252873876,-0.6513721634954274,0.2151094802521528,1.2990607981073188,-0.16982127404755484
16020,5.0,299.24358,5548.5425,0.0,0.0,0.0,0.0,0.1596682895328096,0.0,-0.49629920061591754,-0.44993214649984553,-0.7403870359105112,0.24332629678443576,1.2992158253726187,-0.1982702363102488
16021,5.0,299.79132000000004,5692.4867,0.0,0.0,0.0,0.0,0.15967825634239338,0.0,-0.5240707139942525,-0.4655277576665126,-0.7407753538788353,0.23376169206798278,1.3147423632799686,-0.17064937295678184
16022,5.0,301.38743,5344.9682,0.0,0.0,0.0,0.0,0.15968822315197723,0.0,-0.4868736644756896,-0.4404829205722796,-0.6973802940285763,0.27526752684178973,1.2973357398120688,-0.18094066037995282
16023,5.0,299.8594,5295.3904,0.0,0.0,0.0,0.0,0.15969818996156102,0.0,-0.49702018885707355,-0.4219835372690326,-0.6906627194431034,0.26544440149482273,1.2999577270958387,-0.13010469709533387
16024,5.0,299.71078,5672.2409,0.0,0.0,0.0,0.0,0.15970815677114486,0.0,-0.5004160661697206,-0.4831549150186775,-0.7406485962913253,0.2956256465259797,1.2963295824627687,-0.17465698988480283
16025,5.0,300.28161,5675.8324,0.0,0.0,0.0,0.0,0.15971812358072868,0.0,-0.5362054478543575,-0.4455236270372586,-0.7435822593058553,0.24110121982983776,1.3084841253623287,-0.14202597968937286
16026,5.0,300.87214,5339.1178,0.0,0.0,0.0,0.0,0.15972809039031252,0.0,-0.46621291738413256,-0.4248640553158176,-0.7318815207285823,0.23777125443619576,1.2895451637681987,-0.14893893929162885
16027,5.0,300.40555,5073.2872,0.0,0.0,0.0,0.0,0.1597380571998963,0.0,-0.4594673466983966,-0.4169142672837346,-0.6657710148364834,0.2022351042165508,1.3220009830213386,-0.15136927031898387
16028,5.0,299.83767,5116.6718,0.0,0.0,0.0,0.0,0.15974802400948013,0.0,-0.4624270907705006,-0.4081412135454016,-0.6847721697217514,0.2296690634565718,1.3219681537180987,-0.17648331239504683
16029,5.0,300.08396,5333.3311,0.0,0.0,0.0,0.0,0.15975799081906394,0.0,-0.48823327385737253,-0.4340418518065956,-0.6989243655909643,0.25061807006907777,1.3317124786047887,-0.18519926949024482
16030,5.0,301.01081,5489.914000000001,0.0,0.0,0.0,0.0,0.1597679576286478,0.0,-0.5036028694567335,-0.43814477503902255,-0.7270491384841633,0.24682797767252476,1.2974828637265887,-0.16417435018024684
16031,5.0,299.41489,5207.6646,0.0,0.0,0.0,0.0,0.1597779244382316,0.0,-0.47775573080081957,-0.40580850916518163,-0.6994357529164343,0.27274463541779975,1.2978035573832387,-0.17141658566749984
16032,5.0,299.63712000000004,5225.895,0.0,0.0,0.0,0.0,0.15978789124781545,0.0,-0.4448373730095305,-0.4433408431418346,-0.7003633732504833,0.27919533005943376,1.2873415474507188,-0.18684213293738283
16033,5.0,299.44798,5674.053000000001,0.0,0.0,0.0,0.0,0.1597978580573992,0.0,-0.5023575952163345,-0.46692331716174357,-0.7554895387835123,0.2599655454216017,1.3197040463696488,-0.16802162027994286
16034,5.0,300.1909,5688.2112,0.0,0.0,0.0,0.0,0.15980782486698306,0.0,-0.5397824132248764,-0.44564628096186354,-0.7436454861120954,0.24840639841330278,1.2905759430949288,-0.14584025836581288
16035,5.0,298.94869,5350.6108,0.0,0.0,0.0,0.0,0.15981779167656687,0.0,-0.49160021274716353,-0.44106529619975554,-0.6937865796339043,0.21706422208007078,1.3065848893748888,-0.15817466329062385
16036,5.0,299.83527999999995,5161.1212,0.0,0.0,0.0,0.0,0.15982775848615072,0.0,-0.4864255850164676,-0.41032272074569964,-0.6721036759739684,0.2161073998781398,1.3082330419875488,-0.16098056560004484
16037,5.0,300.16391,5179.2927,0.0,0.0,0.0,0.0,0.15983772529573453,0.0,-0.4572253991296335,-0.42250166270766765,-0.6946485818914773,0.22984655447658878,1.3089194176052885,-0.15973432877205085
16038,5.0,301.30166,5305.8457,0.0,0.0,0.0,0.0,0.15984769210531835,0.0,-0.45386450934293954,-0.4375927563845426,-0.7213873502378882,0.23745339787982575,1.3193783877875087,-0.18125248809822783
16039,5.0,300.85011000000003,5317.5907,0.0,0.0,0.0,0.0,0.15985765891490217,0.0,-0.4772439584403116,-0.4156774536816706,-0.7234933905707384,0.2398126088826618,1.3193814275378088,-0.16367588179355183
16040,5.0,300.11266,5310.4122,0.0,0.0,0.0,0.0,0.159867625724486,0.0,-0.47811783598905655,-0.41589499847814054,-0.7202198632076663,0.24849528071207477,1.3313691894709088,-0.18455749714190683
16041,5.0,299.30914,5309.5738,0.0,0.0,0.0,0.0,0.1598775925340698,0.0,-0.5023417074547666,-0.3967790322240416,-0.7148571357284063,0.2427316101682448,1.3315399221127588,-0.16389606104028184
16042,5.0,300.20793,5563.8539,0.0,0.0,0.0,0.0,0.15988755934365362,0.0,-0.5374433658990305,-0.4143634101569846,-0.7394658699795993,0.23339344658413974,1.2949344384000787,-0.14844639841801885
16043,5.0,300.28978,5708.1245,0.0,0.0,0.0,0.0,0.15989752615323743,0.0,-0.5380973783085764,-0.4412329384288006,-0.7557970095263573,0.24475992408592376,1.275160356073529,-0.15762183403606383
16044,5.0,299.36388,5441.2779,0.0,0.0,0.0,0.0,0.15990749296282128,0.0,-0.47932899409858853,-0.4409571621490836,-0.7337264465106623,0.22390692292039277,1.2687214556630588,-0.16095425149494785
16045,5.0,299.95178,5207.1701,0.0,0.0,0.0,0.0,0.1599174597724051,0.0,-0.47814469724920755,-0.4037605280630616,-0.7009444721828334,0.26632012315874976,1.2889261692821088,-0.16469831193945783
16046,5.0,300.10008,5394.0632,0.0,0.0,0.0,0.0,0.15992742658198894,0.0,-0.5024134252968445,-0.4291343775972656,-0.7081127302802853,0.24548831918531078,1.3015579529787689,-0.12817113219450588
16047,5.0,299.52785,5408.1703,0.0,0.0,0.0,0.0,0.15993739339157273,0.0,-0.4992918854487725,-0.4219471311929396,-0.7227097024133943,0.25678156910236777,1.3320046999336288,-0.17024389053176384
16048,5.0,300.88529,5405.0966,0.0,0.0,0.0,0.0,0.15994736020115655,0.0,-0.5019594183245375,-0.4286528608847436,-0.7124021219286153,0.24034858778805876,1.3410987209061387,-0.15167205984636686
16049,5.0,300.44061,5421.4795,0.0,0.0,0.0,0.0,0.15995732701074036,0.0,-0.46725454861943355,-0.45561482796318253,-0.7251250170742674,0.22668511283957876,1.3145934155152688,-0.20622497913532079
16050,5.0,300.08342999999996,5476.224,0.0,0.0,0.0,0.0,0.15996729382032418,0.0,-0.47778706049391156,-0.4529392498816236,-0.7339090341786824,0.2091748642839518,1.2939921158070788,-0.16389335566251484
16051,5.0,300.71769,5569.2102,0.0,0.0,0.0,0.0,0.15997726062990802,0.0,-0.4957764243593235,-0.46279423181173457,-0.7343301814502463,0.21531584890001979,1.2779953285283188,-0.20626190196896482
16052,5.0,300.31252,5462.9775,0.0,0.0,0.0,0.0,0.15998722743949184,0.0,-0.49455704879148055,-0.43712438152581756,-0.7289273292670263,0.23047715067632377,1.2926699257515888,-0.14898098917077887
16053,5.0,299.12859,5270.4379,0.0,0.0,0.0,0.0,0.15999719424907563,0.0,-0.47885183436149653,-0.4158686337105386,-0.7073610405610993,0.22749226786923876,1.297973986050059,-0.15967654311884785
16054,5.0,299.33146,5239.5111,0.0,0.0,0.0,0.0,0.16000716105865948,0.0,-0.48784854279440254,-0.38172181149800966,-0.7231101793829183,0.23951427765571875,1.3201763222412588,-0.12979356851962787
16055,5.0,299.70718,5406.7941,0.0,0.0,0.0,0.0,0.1600171278682433,0.0,-0.4856571361406275,-0.4326615011953656,-0.7252117614153283,0.26304010086253676,1.3125793782914987,-0.16709339199583384
16056,5.0,300.30633,5574.0721,0.0,0.0,0.0,0.0,0.1600270946778271,0.0,-0.5000561496016995,-0.43604861389464755,-0.7582739804558153,0.2645953283085258,1.3120654578407789,-0.16978972143944082
16057,5.0,300.84002000000004,5512.7642,0.0,0.0,0.0,0.0,0.16003706148741095,0.0,-0.5090206569464275,-0.4396263392027416,-0.7270956567962543,0.2516471167381368,1.2789544710729788,-0.1789063277566798
16058,5.0,299.493,5486.6931,0.0,0.0,0.0,0.0,0.16004702829699477,0.0,-0.5200475031471925,-0.4275559264589846,-0.7202142801996153,0.2147188824711038,1.2696850565081588,-0.17060092946950084
16059,5.0,300.52313,5591.6722,0.0,0.0,0.0,0.0,0.1600569951065786,0.0,-0.5255322867334985,-0.4294786293187406,-0.7447178086929253,0.2314569027280178,1.2956567843963687,-0.16577122220534585
16060,5.0,299.40333,5397.5022,0.0,0.0,0.0,0.0,0.16006696191616238,0.0,-0.5009739312772775,-0.42843970346120663,-0.7112922482990793,0.23179757767663975,1.3186243270630886,-0.16273253581795086
16061,5.0,299.19407,5192.2012,0.0,0.0,0.0,0.0,0.16007692872574622,0.0,-0.4592909803859906,-0.41059293428236765,-0.7084156110001772,0.2539051547184878,1.3112306410833887,-0.16334097223799884
16062,5.0,298.85932,5347.1042,0.0,0.0,0.0,0.0,0.16008689553533004,0.0,-0.4939081532949396,-0.4141175754177226,-0.7173604410279634,0.2699964073040707,1.303920244261909,-0.14088398603166685
16063,5.0,298.36787000000004,5202.3277,0.0,0.0,0.0,0.0,0.16009686234491385,0.0,-0.4697205257853066,-0.4094469382867666,-0.7022102647377574,0.27937889044754977,1.3141009759666686,-0.14330852126844987
16064,5.0,298.34394,5263.8458,0.0,0.0,0.0,0.0,0.16010682915449767,0.0,-0.47040713445056953,-0.40856365777709364,-0.7211068927427093,0.2685834503046228,1.3160876554377388,-0.13505970286685487
16065,5.0,299.10537999999997,5599.633000000001,0.0,0.0,0.0,0.0,0.16011679596408152,0.0,-0.4935805391401065,-0.4496481628943185,-0.7589199172620643,0.24525706511498774,1.2701393978529987,-0.15680041244499587
16066,5.0,299.20191,5541.2531,0.0,0.0,0.0,0.0,0.1601267627736653,0.0,-0.5255565439408925,-0.4154919985158676,-0.7433540348533313,0.23932223636426575,1.3043767134319588,-0.1381516558120069
16067,5.0,300.39467,5685.7393,0.0,0.0,0.0,0.0,0.16013672958324915,0.0,-0.5006517481429805,-0.48301806546017156,-0.7446529708190263,0.23200429082954077,1.3058341723757987,-0.18691573542464682
16068,5.0,299.97629,5567.3822,0.0,0.0,0.0,0.0,0.16014669639283297,0.0,-0.5149051676971835,-0.45983001930668954,-0.7176099842625914,0.24538130984224976,1.3149612253015688,-0.18501288213434983
16069,5.0,299.62571,5383.5182,0.0,0.0,0.0,0.0,0.16015666320241678,0.0,-0.4758978151524575,-0.4322003812073566,-0.7283568998582294,0.25051769751417174,1.2822696227501589,-0.18539522192708383
16070,5.0,300.79907000000003,5192.8135,0.0,0.0,0.0,0.0,0.1601666300120006,0.0,-0.46387728471112355,-0.4050664250569436,-0.7095419296788363,0.2567770094769178,1.2930594190900289,-0.16337605095646085
16071,5.0,300.40851000000004,5069.3067,0.0,0.0,0.0,0.0,0.16017659682158444,0.0,-0.4491682471169546,-0.4037847447404516,-0.6879896542217924,0.2696061945580597,1.3130756681904787,-0.16368407898686083
16072,5.0,300.37913,5279.4955,0.0,0.0,0.0,0.0,0.16018656363116826,0.0,-0.48219392835883557,-0.39891672649001564,-0.7237241380160113,0.22396950124656878,1.307326791098109,-0.14321941605465585
16073,5.0,298.95662999999996,5510.0589,0.0,0.0,0.0,0.0,0.16019653044075205,0.0,-0.4935985344618825,-0.4442573785197896,-0.7370644064475933,0.22897362938293778,1.2908182111938387,-0.15039038966237586
16074,5.0,298.4397,5678.8691,0.0,0.0,0.0,0.0,0.16020649725033587,0.0,-0.5223093914779235,-0.4468146900496766,-0.7571103336434724,0.22589959069955376,1.3118166036162187,-0.16198610486678386
16075,5.0,299.67003,5797.1144,0.0,0.0,0.0,0.0,0.1602164640599197,0.0,-0.5223313486075906,-0.45585783573466554,-0.7839888291786733,0.2606510395117547,1.2970449370333688,-0.16356955132805787
16076,5.0,299.35731,5573.9614,0.0,0.0,0.0,0.0,0.16022643086950353,0.0,-0.5029785858051216,-0.4543740018907225,-0.7369924859554954,0.22860048990111176,1.298153331317759,-0.17341448181717684
16077,5.0,299.87845,5303.8187,0.0,0.0,0.0,0.0,0.16023639767908737,0.0,-0.48540613382585557,-0.4197294104340676,-0.7070929041871363,0.24906347083815075,1.2866294352804388,-0.16571354800965385
16078,5.0,300.09197,5261.785,0.0,0.0,0.0,0.0,0.16024636448867116,0.0,-0.4737736781728215,-0.4168105003409936,-0.7088670645822323,0.24080627285822878,1.319654498439759,-0.15728310452763386
16079,5.0,300.40738999999996,5204.0657,0.0,0.0,0.0,0.0,0.160256331298255,0.0,-0.4729619635177116,-0.43428213393530957,-0.6746619298264483,0.27401921285109077,1.3284417072819885,-0.1859374019230928
16080,5.0,300.06536,5082.0117,0.0,0.0,0.0,0.0,0.1602662981078388,0.0,-0.46374234006280557,-0.39855334460665265,-0.6825089844308924,0.2500282267883647,1.3194289489674988,-0.18436269981018183
16081,5.0,301.17584,5218.369000000001,0.0,0.0,0.0,0.0,0.16027626491742264,0.0,-0.46203388893669456,-0.4366263488366655,-0.6875936254202074,0.24393336531684878,1.2924403232789288,-0.2009134005211088
16082,5.0,300.92099,5495.9536,0.0,0.0,0.0,0.0,0.16028623172700646,0.0,-0.5143727655646395,-0.43394876451990855,-0.7223111303540583,0.23095039926802977,1.2901634489792186,-0.16133116026714583
16083,5.0,300.49543,5626.3545,0.0,0.0,0.0,0.0,0.16029619853659027,0.0,-0.5110722654839055,-0.45320248212510256,-0.7459965303191253,0.26444670478385773,1.2838537379564987,-0.17679150254546283
16084,5.0,299.39437999999996,5558.6116,0.0,0.0,0.0,0.0,0.1603061653461741,0.0,-0.5066899182714015,-0.4550220158596766,-0.7279671836047673,0.24466693812424678,1.2946106036681189,-0.14870890112142585
16085,5.0,299.30335,5416.8377,0.0,0.0,0.0,0.0,0.16031613215575793,0.0,-0.5006781534405865,-0.4210980884041456,-0.7248071503853963,0.2591791620189917,1.3018641571589886,-0.15916922905877984
16086,5.0,300.07482000000005,5342.3338,0.0,0.0,0.0,0.0,0.16032609896534175,0.0,-0.47508688069992455,-0.42593469590148153,-0.7229145005236063,0.25115467718953677,1.3268942717292687,-0.15391696610542185
16087,5.0,300.0345,5360.6435,0.0,0.0,0.0,0.0,0.1603360657749256,0.0,-0.46753705287981456,-0.43548482127400556,-0.7264798945779832,0.28076263544661473,1.3466433267783486,-0.16920589686432183
16088,5.0,300.84758999999997,5400.1246,0.0,0.0,0.0,0.0,0.16034603258450936,0.0,-0.49919046924626354,-0.4103907503574136,-0.7319218278175602,0.2384520875758888,1.3219038123367486,-0.15842811767063783
16089,5.0,299.87405,5200.3284,0.0,0.0,0.0,0.0,0.1603559993940932,0.0,-0.46089580642437455,-0.4254985119984336,-0.6943756731095433,0.2077520280960288,1.2889286010823489,-0.17131691225516282
16090,5.0,299.72012,5179.0015,0.0,0.0,0.0,0.0,0.16036596620367702,0.0,-0.4671120451253696,-0.4041375482927706,-0.7030375429144033,0.2030145975184808,1.2986631987680788,-0.16748682687716285
16091,5.0,299.54263,5467.3795,0.0,0.0,0.0,0.0,0.16037593301326086,0.0,-0.4886842613443815,-0.4510344410186336,-0.7222281451708683,0.24175411766427377,1.297916737419409,-0.18023125358743983
16092,5.0,300.23613,5635.3494,0.0,0.0,0.0,0.0,0.16038589982284468,0.0,-0.5196471680326825,-0.4644492238625696,-0.7289091110302283,0.2625783729244678,1.3023884127607288,-0.1953057907576808
16093,5.0,300.66854,5345.6057,0.0,0.0,0.0,0.0,0.16039586663242847,0.0,-0.5031223457293095,-0.41304343911921365,-0.7087648783096473,0.26997931377488377,1.3057879681712388,-0.16239927786006086
16094,5.0,301.65123,5159.5964,0.0,0.0,0.0,0.0,0.16040583344201229,0.0,-0.47466770926605556,-0.4127451180247716,-0.6809756533195643,0.2851008556172637,1.296544796784009,-0.16845383224259883
16095,5.0,301.60721,5165.3063,0.0,0.0,0.0,0.0,0.16041580025159613,0.0,-0.4619433449077585,-0.3998200186891636,-0.7083607840372663,0.27072184371316577,1.3153814201180385,-0.13371118857376688
16096,5.0,301.05023,5297.882,0.0,0.0,0.0,0.0,0.16042576706117995,0.0,-0.48627680950428454,-0.4050751998028096,-0.7190718407118654,0.24587322250079777,1.3064973445662487,-0.14068708113973388
16097,5.0,299.91625,5585.4881,0.0,0.0,0.0,0.0,0.1604357338707638,0.0,-0.5186014837969815,-0.4272202670983576,-0.7520271517343012,0.22734918682261782,1.3039316939880385,-0.15210420088151586
16098,5.0,299.83455,5528.8392,0.0,0.0,0.0,0.0,0.16044570068034758,0.0,-0.5402595628294674,-0.4087007505156236,-0.7316687584725843,0.23371228599310678,1.314463111552409,-0.15954407080077385
16099,5.0,300.19858999999997,5365.3401,0.0,0.0,0.0,0.0,0.16045566748993143,0.0,-0.47507151982840856,-0.43064809218665756,-0.7252097855776333,0.2211393315972528,1.3173718486144788,-0.18360551827545382
16100,5.0,300.09153,5515.8609,0.0,0.0,0.0,0.0,0.16046563429951521,0.0,-0.4977534475569405,-0.4428844550317926,-0.7360460900970933,0.2172223093606728,1.290765724838659,-0.18416943248610781
16101,5.0,300.24958,5553.0104,0.0,0.0,0.0,0.0,0.16047560110909906,0.0,-0.5058982153057665,-0.4238910717747916,-0.7581872057172513,0.24782951460136876,1.297609114689049,-0.16277301515944584
16102,5.0,299.188,5173.7923,0.0,0.0,0.0,0.0,0.16048556791868288,0.0,-0.4628207283018496,-0.4169094036832546,-0.6929735578861653,0.25786879659216877,1.2999500263950787,-0.17394929548495883
16103,5.0,299.04618999999997,4970.4335,0.0,0.0,0.0,0.0,0.1604955347282667,0.0,-0.43015708132069863,-0.4050354398688856,-0.6756951409534184,0.2746499813033427,1.2926586786754788,-0.17473887062538382
16104,5.0,299.56014,5319.965,0.0,0.0,0.0,0.0,0.1605055015378505,0.0,-0.5125117493709715,-0.42376895487273963,-0.6808558263627383,0.25841111844319176,1.2920432305647387,-0.17004393575702983
16105,5.0,299.99604,5622.0725,0.0,0.0,0.0,0.0,0.16051546834743435,0.0,-0.5081878058942315,-0.4457050899976676,-0.7550767508252733,0.23794026455287579,1.3012699873003488,-0.16678711688810685
16106,5.0,301.18242999999995,5573.4648,0.0,0.0,0.0,0.0,0.16052543515701817,0.0,-0.5208823908320895,-0.4210727064891406,-0.7522390425952132,0.23959093002578377,1.3146414435700087,-0.15313674326341986
16107,5.0,301.23025,5555.7028,0.0,0.0,0.0,0.0,0.16053540196660201,0.0,-0.4591606358931266,-0.46999116488701653,-0.7596431245209393,0.22257575546901678,1.3269181844316287,-0.14991951207590387
16108,5.0,300.28451,5467.4046,0.0,0.0,0.0,0.0,0.16054536877618578,0.0,-0.47950680935863754,-0.43872396906118455,-0.7437237090198153,0.22898959820451378,1.3025258094742886,-0.17808429821555183
16109,5.0,300.15558,5546.2758,0.0,0.0,0.0,0.0,0.16055533558576962,0.0,-0.48719383124228755,-0.44301163818434464,-0.7557238933991413,0.2524683052816818,1.3107938289652787,-0.15834663209759586
16110,5.0,300.62706000000003,5548.9496,0.0,0.0,0.0,0.0,0.16056530239535344,0.0,-0.5202998834821005,-0.4435812975230656,-0.7228609299908193,0.2554691974403468,1.3196083955602087,-0.18927507814999583
16111,5.0,299.4672,5181.2029999999995,0.0,0.0,0.0,0.0,0.16057526920493728,0.0,-0.4533004431447706,-0.4005274597764826,-0.7211284243073344,0.2665338783998457,1.2984964178016187,-0.16262109857195287
16112,5.0,299.88672,4999.2471,0.0,0.0,0.0,0.0,0.1605852360145211,0.0,-0.4287137876132566,-0.40760492053247366,-0.6833275891866823,0.24590862545929176,1.3135356837358787,-0.19076167816671183
16113,5.0,298.57003,5268.1497,0.0,0.0,0.0,0.0,0.1605952028241049,0.0,-0.46231998010242953,-0.39650065189156763,-0.7425653311079923,0.24879992448714078,1.3209024172629187,-0.15371540026302885
16114,5.0,298.92591,5622.9987,0.0,0.0,0.0,0.0,0.1606051696336887,0.0,-0.5390117757288204,-0.4109578056433776,-0.7592815968852593,0.22780437929754177,1.3057668925691588,-0.13774856465722488
16115,5.0,300.00007,5526.5396,0.0,0.0,0.0,0.0,0.16061513644327255,0.0,-0.5205292225097345,-0.4242488706501036,-0.7351519576788493,0.22796978224386577,1.3151860654987588,-0.14546453509623186
16116,5.0,299.56866,5461.6659,0.0,0.0,0.0,0.0,0.16062510325285637,0.0,-0.5052184156811754,-0.43168766652425555,-0.7233039735970443,0.24273245116582778,1.2948772910944386,-0.15969329214300085
16117,5.0,298.72884,5631.3178,0.0,0.0,0.0,0.0,0.1606350700624402,0.0,-0.5170684566606836,-0.4458134165658586,-0.7488981037029883,0.2403531372810078,1.3096955671818886,-0.17914289125752683
16118,5.0,299.61139,5744.4409,0.0,0.0,0.0,0.0,0.160645036872024,0.0,-0.5269314533990854,-0.4591361557707106,-0.7600989958734303,0.25172774104859374,1.3021204081092788,-0.16856190549826483
16119,5.0,299.58081,5348.6934,0.0,0.0,0.0,0.0,0.16065500368160784,0.0,-0.4521279709240566,-0.43267316370401665,-0.7410680919652264,0.2344145493724148,1.3198960572635987,-0.1978250750113148
16120,5.0,300.49703,5079.0335,0.0,0.0,0.0,0.0,0.16066497049119163,0.0,-0.4502225642435076,-0.41110493969039863,-0.6825718565995973,0.23154627138683775,1.3160389181079286,-0.18330424862322084
16121,5.0,300.1084,5104.4252,0.0,0.0,0.0,0.0,0.16067493730077548,0.0,-0.4487539088860626,-0.39140166328083664,-0.7114622412683563,0.2196118368065008,1.326716851636759,-0.17471568746309585
16122,5.0,299.58508,5204.8157,0.0,0.0,0.0,0.0,0.1606849041103593,0.0,-0.48855731123935253,-0.4031916185294146,-0.6903850787832023,0.25405832773610476,1.2987392938505886,-0.16181732779762684
16123,5.0,299.87449,5582.3694,0.0,0.0,0.0,0.0,0.1606948709199431,0.0,-0.5010818120154245,-0.45809805064575754,-0.7377210330423973,0.24103886441868375,1.3054525823881387,-0.17308956290760982
16124,5.0,300.63757000000004,5620.2795,0.0,0.0,0.0,0.0,0.16070483772952693,0.0,-0.5171432851805685,-0.4555574070800155,-0.7357239373602993,0.25144960389614374,1.2991633390174386,-0.1748481901786728
16125,5.0,299.27149,5503.7638,0.0,0.0,0.0,0.0,0.16071480453911077,0.0,-0.46715781363238656,-0.4772465928905716,-0.7286023596949543,0.2532654696653558,1.3115557930404789,-0.16818542229110883
16126,5.0,299.2204,5465.1055,0.0,0.0,0.0,0.0,0.1607247713486946,0.0,-0.5071784264096135,-0.42959840561306156,-0.7244787762929883,0.2720514102293837,1.3334082539721488,-0.15717332901179987
16127,5.0,299.27705,5533.6969,0.0,0.0,0.0,0.0,0.16073473815827843,0.0,-0.4974327842977936,-0.4286414922186215,-0.7560313945394893,0.24928669996768177,1.3379374819191487,-0.13918697449918488
16128,5.0,298.86762000000004,5485.28,0.0,0.0,0.0,0.0,0.1607447049678622,0.0,-0.5193125725846605,-0.4304229480144376,-0.7176526420918012,0.24354165296068978,1.315136922868909,-0.17585193599273483
16129,5.0,299.26844,5296.1112,0.0,0.0,0.0,0.0,0.16075467177744604,0.0,-0.4821639969508816,-0.3952620752343296,-0.7324594785856222,0.2287326278466528,1.302718023018259,-0.17117612115376785
16130,5.0,299.66256,5174.6411,0.0,0.0,0.0,0.0,0.16076463858702986,0.0,-0.4516870754080436,-0.4253626756900276,-0.6959119426461614,0.25516955912077477,1.3001414293389686,-0.19146757911387882
16131,5.0,300.07552999999996,5201.279,0.0,0.0,0.0,0.0,0.1607746053966137,0.0,-0.4603287308734086,-0.4036789411650096,-0.7170512680249503,0.24575121705625677,1.2956193954676787,-0.16348552249726483
16132,5.0,300.39465,5531.5054,0.0,0.0,0.0,0.0,0.16078457220619752,0.0,-0.5229818754367925,-0.43789329649670355,-0.7205643378441633,0.25524032450775874,1.2988637209628688,-0.14781709917841188
16133,5.0,299.71384,5505.7707,0.0,0.0,0.0,0.0,0.1607945390157813,0.0,-0.49764252706849355,-0.4476043057201055,-0.7283699809170203,0.2365544525236068,1.3199688086207788,-0.15788006082404885
16134,5.0,300.17986,5385.3164,0.0,0.0,0.0,0.0,0.16080450582536512,0.0,-0.5195148882321275,-0.4027727206730726,-0.7147141154767913,0.2554661678225478,1.3264306084835087,-0.14118181063355986
16135,5.0,300.569,5614.7379,0.0,0.0,0.0,0.0,0.16081447263494897,0.0,-0.4889411709072365,-0.4686880036684046,-0.7491109571514952,0.25365999885679275,1.3297435310104686,-0.17591905367935884
16136,5.0,300.23773,5752.1128,0.0,0.0,0.0,0.0,0.16082443944453279,0.0,-0.5177673256521564,-0.4762660201062966,-0.7544653253174303,0.25067361643955977,1.3019366045411387,-0.17272455982408683
16137,5.0,299.91988,5684.2606,0.0,0.0,0.0,0.0,0.16083440625411663,0.0,-0.48492982521884753,-0.4596690645283046,-0.7832743865331632,0.22829792328875081,1.3203901180123587,-0.17484958846381085
16138,5.0,299.52277999999995,5361.2325,0.0,0.0,0.0,0.0,0.16084437306370042,0.0,-0.4902647795128665,-0.42986122242399954,-0.7095548080876073,0.23651575650228776,1.3197722381013788,-0.16678845437823886
16139,5.0,298.73636,5129.8485,0.0,0.0,0.0,0.0,0.16085433987328426,0.0,-0.43504258826786063,-0.4106556645960586,-0.7136476089515353,0.2417434886707248,1.3283442326223687,-0.15892224934690485
16140,5.0,299.09539,5187.1945,0.0,0.0,0.0,0.0,0.16086430668286805,0.0,-0.4833765432130505,-0.4198213527481416,-0.6735796976596403,0.2520548181808738,1.3014586544689686,-0.16562736095614786
16141,5.0,298.99477,5361.5511,0.0,0.0,0.0,0.0,0.1608742734924519,0.0,-0.47536932416529953,-0.46437715138295654,-0.6900311707882744,0.23954835325658175,1.3138674218186186,-0.18146866500706282
16142,5.0,299.55505,5367.9545,0.0,0.0,0.0,0.0,0.1608842403020357,0.0,-0.48143487231142257,-0.4455983744971356,-0.7046908833675753,0.23686306823906478,1.3098551540726386,-0.17314771333084883
16143,5.0,300.65899,5458.4368,0.0,0.0,0.0,0.0,0.16089420711161953,0.0,-0.4912039103680515,-0.46008725310957654,-0.7079373366879753,0.24936970541587375,1.2994957863752488,-0.16607538975286484
16144,5.0,300.96282,5549.2765,0.0,0.0,0.0,0.0,0.16090417392120335,0.0,-0.5399610998800115,-0.4472688692745006,-0.6996115315437824,0.25221043313123176,1.2999748510225289,-0.15399822876344185
16145,5.0,300.56746,5746.5025,0.0,0.0,0.0,0.0,0.1609141407307872,0.0,-0.5368955927624695,-0.44654486154804657,-0.7633528053895563,0.25061416905619277,1.3029709302432189,-0.13422515968699186
16146,5.0,299.84922,5818.3537,0.0,0.0,0.0,0.0,0.160924107540371,0.0,-0.5576630857520615,-0.4602399498996466,-0.7507311947239003,0.2515060419267138,1.3169962368024088,-0.14445910728700387
16147,5.0,300.04697999999996,5451.4947,0.0,0.0,0.0,0.0,0.16093407434995485,0.0,-0.48621094824778455,-0.4077898488082246,-0.7631174780538313,0.24866592216141575,1.3230133211962487,-0.13518365375158786
16148,5.0,299.60071,5256.964,0.0,0.0,0.0,0.0,0.16094404115953861,0.0,-0.45484225515943555,-0.4286746356293926,-0.7144689089525914,0.2630863962596057,1.315208357000959,-0.17589824152230482
16149,5.0,300.02067999999997,5281.3742,0.0,0.0,0.0,0.0,0.16095400796912246,0.0,-0.4688374580581545,-0.4014428197843216,-0.7351255929112472,0.25819245907161176,1.3168687699398287,-0.14771911789374187
16150,5.0,299.30159,5402.8459,0.0,0.0,0.0,0.0,0.16096397477870628,0.0,-0.5129659995233025,-0.4278522717157316,-0.7015119732988414,0.25028263362347275,1.3138487780167787,-0.15797395871081585
16151,5.0,299.36674,5406.7082,0.0,0.0,0.0,0.0,0.16097394158829012,0.0,-0.4870341024965235,-0.4559318333894686,-0.7005383615427534,0.2281451353061718,1.2734657966062888,-0.16327685377167084
16152,5.0,299.3179,5428.3589,0.0,0.0,0.0,0.0,0.16098390839787394,0.0,-0.5335559305653704,-0.4356418345095016,-0.6808877741383914,0.23078973833217378,1.2716979791568186,-0.17364515833494285
16153,5.0,300.14351,5630.1749,0.0,0.0,0.0,0.0,0.16099387520745773,0.0,-0.4856044268704255,-0.4742816609779556,-0.7515465064168653,0.2282736154188518,1.2886508692299385,-0.17520064922595785
16154,5.0,299.67376,5510.5978,0.0,0.0,0.0,0.0,0.16100384201704154,0.0,-0.5137015684333975,-0.4597055313994036,-0.7016770216076303,0.22881755847003477,1.3193014821049187,-0.1862399989329568
16155,5.0,299.56599,5497.8781,0.0,0.0,0.0,0.0,0.1610138088266254,0.0,-0.46364664872336153,-0.45629143584995857,-0.7512795758105213,0.23310762899593176,1.3280222217405886,-0.16640182853758184
16156,5.0,299.17637,5399.0883,0.0,0.0,0.0,0.0,0.1610237756362092,0.0,-0.49145552063288356,-0.4399835807904986,-0.7097489265417654,0.23851822240991577,1.3228384342289887,-0.17482221044610882
16157,5.0,299.89083,5298.1048,0.0,0.0,0.0,0.0,0.16103374244579302,0.0,-0.4725018162497986,-0.4176167839755676,-0.7203729754302773,0.24872308973205778,1.3135170399340386,-0.16758830387467782
16158,5.0,300.01777000000004,5056.6117,0.0,0.0,0.0,0.0,0.16104370925537684,0.0,-0.46738409264471853,-0.3868552911421446,-0.6828442891539844,0.2527140386959338,1.3167402898271487,-0.18017656847954283
16159,5.0,300.54726,5159.7827,0.0,0.0,0.0,0.0,0.16105367606496068,0.0,-0.4141931537426816,-0.4307065668499286,-0.7235453905658703,0.23799338925561878,1.3212300010202487,-0.18092248267315883
16160,5.0,300.13996000000003,5499.0844,0.0,0.0,0.0,0.0,0.16106364287454447,0.0,-0.4911067700809645,-0.4536770884719426,-0.7268004767771223,0.2448406193238878,1.3170408198068089,-0.18340535071819883
16161,5.0,299.88959,5655.7882,0.0,0.0,0.0,0.0,0.1610736096841283,0.0,-0.5006555275658535,-0.4530398554840526,-0.7655230047187382,0.24132412471933679,1.3366393058910289,-0.16509117940073084
16162,5.0,299.40549,5547.4294,0.0,0.0,0.0,0.0,0.16108357649371213,0.0,-0.5397805893746964,-0.43693406275953456,-0.7095653762861504,0.24819828697526378,1.3151264863928789,-0.16290553814002484
16163,5.0,300.20587,5585.8749,0.0,0.0,0.0,0.0,0.16109354330329595,0.0,-0.5297704180592695,-0.43036034942325957,-0.7378357126887153,0.24426708936978478,1.2960600579361687,-0.13991312018334987
16164,5.0,299.33596,5522.0911,0.0,0.0,0.0,0.0,0.16110351011287977,0.0,-0.5166276523371794,-0.4538022957867996,-0.7081478495287513,0.23385499213719077,1.2947778912596288,-0.16238809157895684
16165,5.0,299.83366,5543.7317,0.0,0.0,0.0,0.0,0.16111347692246358,0.0,-0.48689920851071056,-0.43670935428485763,-0.7615474470238813,0.24819295727973778,1.3002743677520887,-0.16612449185271083
16166,5.0,299.48952,5488.0024,0.0,0.0,0.0,0.0,0.16112344373204743,0.0,-0.5235066680610855,-0.4112342405356596,-0.7334747653183233,0.2411076539679728,1.3369857361002186,-0.17271562295820483
16167,5.0,300.31091000000004,5145.0111,0.0,0.0,0.0,0.0,0.16113341054163122,0.0,-0.4338426468369355,-0.4004240778687796,-0.7296881787671163,0.23694650938479977,1.3270983402994088,-0.17039745871691983
16168,5.0,300.16717,5068.0588,0.0,0.0,0.0,0.0,0.16114337735121503,0.0,-0.4630560657700756,-0.38697683049163967,-0.6905304193775463,0.23467801466341678,1.3353218781110088,-0.18063900569268182
16169,5.0,300.76174,5546.4891,0.0,0.0,0.0,0.0,0.16115334416079888,0.0,-0.5069374248733286,-0.4384182107110086,-0.7406385752478363,0.24575111573124675,1.3258666334778488,-0.15130091646723787
16170,5.0,299.77752999999996,5614.2882,0.0,0.0,0.0,0.0,0.1611633109703827,0.0,-0.5218721031322665,-0.45478751938903356,-0.7299438015023443,0.26970882666068874,1.3034826215437187,-0.17860079232152581
16171,5.0,298.69978,5377.9492,0.0,0.0,0.0,0.0,0.1611732777799665,0.0,-0.4459382084481746,-0.46514034149077754,-0.7236837093370213,0.27444914500102174,1.2929511026543388,-0.18227678262431785
16172,5.0,298.84445,5375.8177,0.0,0.0,0.0,0.0,0.16118324458955036,0.0,-0.46990157331317456,-0.4644018240228916,-0.6998109492959633,0.24833592686884776,1.3199109520400687,-0.19468790071419984
16173,5.0,299.60287999999997,5625.4184,0.0,0.0,0.0,0.0,0.16119321139913417,0.0,-0.48847880462160453,-0.4793571117888636,-0.7421508003595813,0.22487518471595278,1.3103793083493687,-0.18751981486926483
16174,5.0,299.90675,5546.3198,0.0,0.0,0.0,0.0,0.16120317820871796,0.0,-0.5430377831461565,-0.4113609271956626,-0.7315440172527733,0.2262740372740088,1.3201979044683887,-0.15831420809439584
16175,5.0,299.17761,5326.2926,0.0,0.0,0.0,0.0,0.16121314501830178,0.0,-0.49903688079610553,-0.40270422496631264,-0.7173188471113583,0.22816753826588276,1.282103449733759,-0.16553482082451484
16176,5.0,299.38507000000004,5137.0922,0.0,0.0,0.0,0.0,0.16122311182788562,0.0,-0.4675137683925165,-0.3900103391710236,-0.7040236379117234,0.2340599827649218,1.291033932140129,-0.16456795731409285
16177,5.0,299.24839,5158.6723,0.0,0.0,0.0,0.0,0.16123307863746944,0.0,-0.4285824400027936,-0.39737542110040064,-0.7421497060494733,0.2632659036473217,1.3087114986847685,-0.17284788249375785
16178,5.0,300.54871,5589.7121,0.0,0.0,0.0,0.0,0.16124304544705326,0.0,-0.5066132253713326,-0.4471161623519296,-0.7454035155655994,0.2617334641960818,1.3299244974783289,-0.17578124153325783
16179,5.0,299.90873999999997,5681.2311,0.0,0.0,0.0,0.0,0.16125301225663705,0.0,-0.5201611391459074,-0.43647077441631155,-0.7703204703647113,0.2925145735514407,1.2984397771210288,-0.16899033803804783
16180,5.0,299.88741,5414.2977,0.0,0.0,0.0,0.0,0.1612629790662209,0.0,-0.5204838289052545,-0.4333764707309276,-0.6919510264152493,0.26661714729306374,1.3328101324381187,-0.15843944580675584
16181,5.0,299.52232999999995,5245.0883,0.0,0.0,0.0,0.0,0.1612729458758047,0.0,-0.4860211563715535,-0.3958368717510576,-0.7125178452225364,0.26442895264210575,1.3273563137748687,-0.15369304796582287
16182,5.0,299.39269,5668.9446,0.0,0.0,0.0,0.0,0.16128291268538855,0.0,-0.5412342891606655,-0.4397858652984856,-0.7421974605266863,0.2337106546604458,1.3131599705987986,-0.15090856576351586
16183,5.0,300.48359,5921.297,0.0,0.0,0.0,0.0,0.16129287949497234,0.0,-0.5466967711122704,-0.45532032682161755,-0.7979093454125212,0.24339722429143576,1.2690944330248688,-0.16562172728559182
16184,5.0,299.8892,5515.121,0.0,0.0,0.0,0.0,0.16130284630455619,0.0,-0.5044602918238545,-0.44446627016040563,-0.7275324993118674,0.22368760493624779,1.300165139391309,-0.18770779302781682
16185,5.0,300.35447,5080.1506,0.0,0.0,0.0,0.0,0.16131281311414,0.0,-0.4251891363454006,-0.4166994278650316,-0.7023503769615853,0.23568196312749876,1.3157690896062986,-0.18785339706718682
16186,5.0,300.6639,5173.3876,0.0,0.0,0.0,0.0,0.16132277992372385,0.0,-0.5013504854119405,-0.37600131554094063,-0.6952288499587453,0.2231002643832818,1.3301847001040088,-0.16489828697919384
16187,5.0,301.25065,5396.6439,0.0,0.0,0.0,0.0,0.16133274673330764,0.0,-0.4666322509380176,-0.42590105599816164,-0.7479116743331353,0.23256313878969478,1.3075859804736887,-0.17756184619898982
16188,5.0,299.97549,5459.1756,0.0,0.0,0.0,0.0,0.16134271354289145,0.0,-0.49685325590309853,-0.43642831923712155,-0.7261714815125453,0.25568433070157875,1.3365646293586588,-0.17608397026563483
16189,5.0,299.94045,5377.3439,0.0,0.0,0.0,0.0,0.16135268035247527,0.0,-0.4600414035425515,-0.43607730913747955,-0.7384595707752852,0.27135468932812273,1.3156834699728488,-0.17738751651928483
16190,5.0,298.33329,5329.7963,0.0,0.0,0.0,0.0,0.16136264716205911,0.0,-0.46021682753236454,-0.45294336367702953,-0.7069647989769934,0.26281968856828375,1.3123303214169186,-0.18210704296756583
16191,5.0,299.56455,5749.2232,0.0,0.0,0.0,0.0,0.16137261397164293,0.0,-0.5084987520849196,-0.4755558128462046,-0.7635657196330693,0.24055729704365675,1.2714439573567486,-0.18185724642041284
16192,5.0,299.85922999999997,5902.1279,0.0,0.0,0.0,0.0,0.16138258078122678,0.0,-0.5951470876989444,-0.44633160279949957,-0.7526208251003923,0.2593643334747668,1.3107956528154587,-0.15314524443175884
16193,5.0,300.3368,5306.8878,0.0,0.0,0.0,0.0,0.16139254759081054,0.0,-0.46046925852977755,-0.39968186203802863,-0.7530102677763273,0.24723161598236076,1.3050811249014789,-0.14922460489232184
16194,5.0,300.09843,4912.6396,0.0,0.0,0.0,0.0,0.16140251440039438,0.0,-0.46798722976674356,-0.34929012786225166,-0.6760424121601913,0.23080942578161678,1.330471449882309,-0.15222714864864986
16195,5.0,300.33011,5282.5141,0.0,0.0,0.0,0.0,0.1614124812099782,0.0,-0.45845470454845655,-0.4066438933426276,-0.7406537841318372,0.2222733915066758,1.2976909852971288,-0.16476465955600583
16196,5.0,300.4748,5729.3249,0.0,0.0,0.0,0.0,0.16142244801956204,0.0,-0.5254500006928775,-0.4451658788244516,-0.7709558187074153,0.2598252812102588,1.3368951515412788,-0.17526663207246984
16197,5.0,299.34024,5553.3742,0.0,0.0,0.0,0.0,0.16143241482914586,0.0,-0.4954957338166215,-0.4336478191077076,-0.7589435158568933,0.24542634880919476,1.323665448960609,-0.17155652563881085
16198,5.0,298.17734,5305.7937,0.0,0.0,0.0,0.0,0.16144238163872968,0.0,-0.5075754988588015,-0.4213504687390536,-0.6839028112684523,0.24274062809413477,1.3168525579382289,-0.15637276010778986
16199,5.0,299.0199,5357.5157,0.0,0.0,0.0,0.0,0.16145234844831347,0.0,-0.4686131954135216,-0.4089029141755756,-0.7510348759113713,0.24497125765928077,1.3012295586213587,-0.15296214000618785
16200,5.0,299.11885,5628.8312,0.0,0.0,0.0,0.0,0.1614623152578973,0.0,-0.5299404110285465,-0.43879500802569554,-0.7422887239631933,0.24208367725929877,1.3529302396738188,-0.15291417274645386
16201,5.0,299.39586,5648.8203,0.0,0.0,0.0,0.0,0.16147228206748113,0.0,-0.49562613910449155,-0.4437758516747666,-0.7776983395103503,0.27259104696764175,1.3180596427823588,-0.17511239514224783
16202,5.0,300.11611,5316.0213,0.0,0.0,0.0,0.0,0.16148224887706497,0.0,-0.4829752860409496,-0.4129098522260296,-0.7200526161461603,0.25177458360071675,1.286902404857379,-0.16802594685786984
16203,5.0,300.18658,5118.2086,0.0,0.0,0.0,0.0,0.16149221568664876,0.0,-0.44941085972089856,-0.42713715019265464,-0.6792596129502043,0.24438064430849177,1.2817338160972789,-0.2106845258729438
16204,5.0,299.22562999999997,5262.0869,0.0,0.0,0.0,0.0,0.1615021824962326,0.0,-0.5040118678595985,-0.4131008802673826,-0.6824302650306233,0.24785112722600175,1.3173587776881888,-0.1970969129594508
16205,5.0,299.77439,5742.8469,0.0,0.0,0.0,0.0,0.16151214930581642,0.0,-0.5239550920253415,-0.4561224257332786,-0.7656045612192872,0.2273703637497078,1.3167956132826089,-0.1812719526326488
16206,5.0,299.88052999999996,5554.8862,0.0,0.0,0.0,0.0,0.16152211611540027,0.0,-0.5290078865640134,-0.43750073301046055,-0.7220380797171103,0.20980647373378683,1.3127805084363489,-0.16982727248814683
16207,5.0,299.76869,5196.5732,0.0,0.0,0.0,0.0,0.16153208292498406,0.0,-0.4255091511244836,-0.4240453188375146,-0.7300740244051963,0.22326594090713278,1.3084956764134688,-0.17977344692725783
16208,5.0,300.07689,5368.7545,0.0,0.0,0.0,0.0,0.16154204973456787,0.0,-0.4690507269392025,-0.4259211892776486,-0.7369954041157833,0.25134166236299077,1.3449794687891385,-0.17021719139162883
16209,5.0,301.45277999999996,5818.2967,0.0,0.0,0.0,0.0,0.1615520165441517,0.0,-0.5192076201393026,-0.4564405761321776,-0.7929687176599192,0.27769968171932474,1.3210316066506687,-0.15557319432137884
16210,5.0,300.74672000000004,5803.6491,0.0,0.0,0.0,0.0,0.16156198335373553,0.0,-0.5518327636166535,-0.44960279968734157,-0.7627288358454752,0.24666236194367977,1.3034572902912187,-0.13555445262568286
16211,5.0,300.51996,5409.7783,0.0,0.0,0.0,0.0,0.16157195016331935,0.0,-0.4973732457219175,-0.4269136170880936,-0.7201506379608343,0.27043758653011174,1.2899284762810288,-0.13854453340578085
16212,5.0,299.94807000000003,5307.1007,0.0,0.0,0.0,0.0,0.1615819169729032,0.0,-0.5022654603847415,-0.39383829672381365,-0.7171223373869643,0.2554400057049658,1.3483769976994486,-0.13535629130362586
16213,5.0,299.18067,5523.1953,0.0,0.0,0.0,0.0,0.16159188378248696,0.0,-0.4887625146496046,-0.44421028265514156,-0.7459406495761103,0.2571588933071068,1.3467624849901088,-0.1875072910980288
16214,5.0,299.2215,5755.4288,0.0,0.0,0.0,0.0,0.1616018505920708,0.0,-0.5575026882612315,-0.43416905522414956,-0.7578348885249803,0.23700459901303278,1.2921800193282387,-0.17292836494920083
16215,5.0,300.40629,5511.204000000001,0.0,0.0,0.0,0.0,0.16161181740165462,0.0,-0.4949487510151385,-0.42089007829111663,-0.7594295820623643,0.2238465433469338,1.2788841515160387,-0.21618963525625579
16216,5.0,300.13006,4983.5508,0.0,0.0,0.0,0.0,0.16162178421123846,0.0,-0.4514968782317726,-0.39130915354670665,-0.6720689620255423,0.2539284392057857,1.3071528160559387,-0.17230279446996183
16217,5.0,299.35865,5010.4672,0.0,0.0,0.0,0.0,0.16163175102082228,0.0,-0.4496391348359276,-0.38646883755400463,-0.6869489349115814,0.26370132761279474,1.3326258222449288,-0.1926529398758648
16218,5.0,299.78436,5661.7528,0.0,0.0,0.0,0.0,0.1616417178304061,0.0,-0.5455666324807346,-0.4312184202704446,-0.7442464143489023,0.24283813315125774,1.3258469764259089,-0.12062201364946588
16219,5.0,299.46832,5613.427,0.0,0.0,0.0,0.0,0.16165168463998988,0.0,-0.48277125800081355,-0.48340099293796357,-0.7401693999215323,0.23976394248035876,1.3332566717571885,-0.21036011358842682
16220,5.0,298.99568999999997,5232.1552,0.0,0.0,0.0,0.0,0.16166165144957373,0.0,-0.4663602034186686,-0.4142144927897876,-0.7098698478086993,0.2571821980594068,1.3701839637016286,-0.18198613183313284
16221,5.0,298.36586,5195.2528,0.0,0.0,0.0,0.0,0.16167161825915755,0.0,-0.4286758717945146,-0.45408132459933753,-0.6964699293437303,0.24686778826895375,1.3614264430873286,-0.2142838840706728
16222,5.0,299.65505,5556.8564,0.0,0.0,0.0,0.0,0.1616815850687414,0.0,-0.5327721106855136,-0.43830796910012854,-0.7180655111100483,0.2322585963396388,1.3027407198204988,-0.16483784661072884
16223,5.0,299.19311,5781.7898,0.0,0.0,0.0,0.0,0.16169155187832518,0.0,-0.5541549808583385,-0.45908385180054856,-0.7442808851173043,0.2280250854343238,1.2932272133065887,-0.18069351854806182
16224,5.0,300.34572000000003,5581.6232,0.0,0.0,0.0,0.0,0.16170151868790902,0.0,-0.5212730392756435,-0.43852229176128055,-0.7368787486317703,0.27648138019658774,1.3010718969057988,-0.15402545479362886
16225,5.0,301.19479,5257.4404,0.0,0.0,0.0,0.0,0.16171148549749284,0.0,-0.4362672124712216,-0.4133377274782576,-0.7485256633637313,0.25628238130810177,1.3127010696285089,-0.1922646016425388
16226,5.0,300.47234,5367.8645,0.0,0.0,0.0,0.0,0.16172145230707669,0.0,-0.4853220036700525,-0.4110236263698736,-0.7353511322510063,0.26034047835610474,1.298205513697909,-0.16810243710791883
16227,5.0,299.37969,5781.4521,0.0,0.0,0.0,0.0,0.16173141911666047,0.0,-0.5131783260817575,-0.46858880648361456,-0.7756499429756893,0.23917004619924576,1.288312139721509,-0.1820182113312988
16228,5.0,299.66507,5836.4129,0.0,0.0,0.0,0.0,0.1617413859262443,0.0,-0.5462698179176335,-0.45815563364894063,-0.7696983145383093,0.27571941612138773,1.3321981293777185,-0.13816093718292288
16229,5.0,299.47923,5368.1402,0.0,0.0,0.0,0.0,0.1617513527358281,0.0,-0.49463061074874054,-0.43008256690834457,-0.7070673905496183,0.25160484394396476,1.3499368962283986,-0.14025871952745786
16230,5.0,299.72042000000005,5345.2478,0.0,0.0,0.0,0.0,0.16176131954541195,0.0,-0.4909889088293325,-0.4225765621550595,-0.7112563792455393,0.24395968955444677,1.3123321452670986,-0.11460638833576989
16231,5.0,298.95657,5766.6304,0.0,0.0,0.0,0.0,0.16177128635499577,0.0,-0.5237517327302715,-0.4660549111635386,-0.7631050150776012,0.22441402419793977,1.3180792998342987,-0.15353597393532084
16232,5.0,298.75526,5772.8725,0.0,0.0,0.0,0.0,0.1617812531645796,0.0,-0.5191488820310055,-0.4746103390453935,-0.7610498601647733,0.27466111692194173,1.3495191332121685,-0.16098387892787183
16233,5.0,299.52261,5358.6267,0.0,0.0,0.0,0.0,0.16179121997416337,0.0,-0.46414735639277754,-0.4341902422837406,-0.7305511132147813,0.23753242125512475,1.3350566092348288,-0.2013041604221738
16234,5.0,299.64694,5285.6922,0.0,0.0,0.0,0.0,0.16180118678374722,0.0,-0.5096039647639955,-0.4191828531976266,-0.6779316169716414,0.24430659599118376,1.3000002836000386,-0.17112423261614684
16235,5.0,300.70275,5377.2126,0.0,0.0,0.0,0.0,0.16181115359333104,0.0,-0.5058783150738025,-0.42880752338000755,-0.6998525229475663,0.23890245698033677,1.2871470034315189,-0.19566730826085982
16236,5.0,299.9178,5495.8462,0.0,0.0,0.0,0.0,0.16182112040291488,0.0,-0.5019235188734945,-0.4442803185020536,-0.7243961761448363,0.24808302977638877,1.2970135262802687,-0.16935763106679683
16237,5.0,299.78877,5493.4096,0.0,0.0,0.0,0.0,0.1618310872124987,0.0,-0.47381642719454053,-0.45758662279028356,-0.7384562878449612,0.2325480109657018,1.3123218101160787,-0.18411297419053582
16238,5.0,300.31955,5392.7207,0.0,0.0,0.0,0.0,0.16184105402208251,0.0,-0.4748824676247505,-0.4384464094612916,-0.7259235493455763,0.20927884400921382,1.3156705003715687,-0.17889405729796884
16239,5.0,300.48918,5466.939,0.0,0.0,0.0,0.0,0.1618510208316663,0.0,-0.4655226306210066,-0.4774375905344216,-0.7188527253777403,0.21218091388562582,1.3455278397432588,-0.2005320841109758
16240,5.0,300.6363,5726.9195,0.0,0.0,0.0,0.0,0.16186098764125015,0.0,-0.5357970979315565,-0.4699653168769656,-0.7350781120115614,0.24501723894881874,1.3391723298160185,-0.14230928441733287
16241,5.0,300.28184,5744.5144,0.0,0.0,0.0,0.0,0.16187095445083396,0.0,-0.5027556099881155,-0.47891156545489155,-0.7645217514999223,0.2516287566463248,1.3367693058788588,-0.15092394690003386
16242,5.0,300.57276,5422.3069,0.0,0.0,0.0,0.0,0.1618809212604178,0.0,-0.4914029126876915,-0.4341261643474165,-0.7227168255615973,0.2560102628612458,1.2907937918664287,-0.12351521758750288
16243,5.0,299.85642,5469.2463,0.0,0.0,0.0,0.0,0.1618908880700016,0.0,-0.49461308152201056,-0.4418168440639275,-0.7260843724014483,0.2529268212169338,1.3005734791816088,-0.16963040812621782
16244,5.0,299.90642,5637.4822,0.0,0.0,0.0,0.0,0.16190085487958544,0.0,-0.5275773598078315,-0.45215413304163854,-0.7339223381524953,0.26815408557474774,1.3213508817571789,-0.15954883307624385
16245,5.0,299.6236,5534.1043,0.0,0.0,0.0,0.0,0.16191082168916926,0.0,-0.5017878446851045,-0.43005597922572064,-0.7503857068373033,0.24653444925105575,1.3286124399238386,-0.18048697764767785
16246,5.0,299.50726000000003,5574.8618,0.0,0.0,0.0,0.0,0.1619207884987531,0.0,-0.5535979263508615,-0.3981877639705726,-0.7428330925794183,0.22122226611793777,1.2966975948990886,-0.13115986535197088
16247,5.0,300.25912999999997,5670.8441,0.0,0.0,0.0,0.0,0.1619307553083369,0.0,-0.5345579538542625,-0.42785103555060955,-0.7613860160179493,0.23811387482500979,1.3003066904302787,-0.15160955244769786
16248,5.0,301.53292999999996,5534.3373,0.0,0.0,0.0,0.0,0.1619407221179207,0.0,-0.5373594890557525,-0.39621697226107067,-0.7487238753482932,0.25280764274017176,1.3031715537630186,-0.12020762475606889
16249,5.0,301.27054,5500.2967,0.0,0.0,0.0,0.0,0.16195068892750453,0.0,-0.4976615153753675,-0.43302711222894863,-0.7412642267870834,0.2538997338304528,1.316429526021479,-0.17535160322585586
16250,5.0,301.06057000000004,5774.4552,0.0,0.0,0.0,0.0,0.16196065573708837,0.0,-0.5275247315976375,-0.47718831074481954,-0.7505771503111973,0.23657179936531877,1.297353066388779,-0.16868817672572683
16251,5.0,300.39712000000003,5652.9859,0.0,0.0,0.0,0.0,0.1619706225466722,0.0,-0.5097526693486715,-0.47379793538021553,-0.7348159538131883,0.24560724434954775,1.3443563199776387,-0.1833590046586248
16252,5.0,300.37287000000003,5382.293000000001,0.0,0.0,0.0,0.0,0.16198058935625603,0.0,-0.48646362242522156,-0.4526511018181855,-0.6969679519003813,0.24534931140409177,1.3388700773111886,-0.17310775074690482
16253,5.0,299.22699,5277.6292,0.0,0.0,0.0,0.0,0.1619905561658398,0.0,-0.43276483244056363,-0.4253908643078096,-0.7461118179155033,0.23563240506510777,1.3283496028478987,-0.17272506644913685
16254,5.0,299.24917999999997,5413.5568,0.0,0.0,0.0,0.0,0.16200052297542364,0.0,-0.4891215699550405,-0.43257180829651354,-0.7238927225676494,0.21809106999641276,1.2936416325974887,-0.17031704718898383
16255,5.0,300.03917,5510.0353,0.0,0.0,0.0,0.0,0.16201048978500746,0.0,-0.5047929316991835,-0.4258928385398506,-0.7442273753795233,0.2086180833540018,1.3007514058991687,-0.20035876768137081
16256,5.0,300.42559,5522.4972,0.0,0.0,0.0,0.0,0.1620204565945913,0.0,-0.5014087371601895,-0.43131895494536654,-0.7459735700718593,0.23553306602530377,1.3170011004028885,-0.2148507063091138
16257,5.0,299.93609,5414.5773,0.0,0.0,0.0,0.0,0.16203042340417512,0.0,-0.5013289538473156,-0.4299606830538156,-0.7146066501711853,0.25078267254782277,1.3295007562865089,-0.2101044199256918
16258,5.0,300.74686,5477.6212,0.0,0.0,0.0,0.0,0.16204039021375893,0.0,-0.5161524279077785,-0.4270725149687756,-0.7218351358545814,0.2854536895670857,1.3158203600613587,-0.18313077007359982
16259,5.0,299.88822999999996,5808.1842,0.0,0.0,0.0,0.0,0.16205035702334275,0.0,-0.5293708428823345,-0.4607507900700626,-0.7754213436206282,0.24049994708799677,1.3407797497746587,-0.16568099228394084
16260,5.0,299.74322,5671.4389,0.0,0.0,0.0,0.0,0.16206032383292657,0.0,-0.5263917761308236,-0.44898072492094754,-0.7486033188513953,0.2864902140218827,1.3322462587574686,-0.12222687008535288
16261,5.0,300.75678,5412.2942,0.0,0.0,0.0,0.0,0.16207029064251038,0.0,-0.47157263551059553,-0.4196806224417526,-0.7539490439939772,0.2200029817426038,1.3360304439059387,-0.14225561255953587
16262,5.0,300.38311,5465.4367,0.0,0.0,0.0,0.0,0.1620802574520942,0.0,-0.48892897137603253,-0.4433158766593706,-0.7291114266776952,0.21848283301507682,1.3211669768640288,-0.15729770546157484
16263,5.0,299.96539,5827.6348,0.0,0.0,0.0,0.0,0.16209022426167802,0.0,-0.5546439246940934,-0.4495004816922436,-0.7673110567727053,0.2198036754479338,1.3278138975200289,-0.14687581010051387
16264,5.0,300.84556000000003,5788.9564,0.0,0.0,0.0,0.0,0.16210019107126186,0.0,-0.5664510747968684,-0.4310236938662266,-0.7622234165630943,0.23869868225272575,1.3266088391760988,-0.15475598785072683
16265,5.0,301.07197,5167.5168,0.0,0.0,0.0,0.0,0.16211015788084568,0.0,-0.45658169147360456,-0.3929705493381736,-0.7212438436262253,0.23690384142308876,1.2949535888269688,-0.16084287504395586
16266,5.0,299.83387,5126.9879,0.0,0.0,0.0,0.0,0.16212012469042947,0.0,-0.48252640611414854,-0.3777001711886046,-0.6982497234093823,0.25935390713123774,1.2933968313733288,-0.16933895686745384
16267,5.0,300.08914,5724.3116,0.0,0.0,0.0,0.0,0.1621300915000133,0.0,-0.5017944004132515,-0.45215332244155854,-0.7861000674845362,0.2537630159944598,1.3106759879786487,-0.18073369391452684
16268,5.0,299.57406000000003,5919.6614,0.0,0.0,0.0,0.0,0.16214005830959713,0.0,-0.5595397566597745,-0.48840845466716154,-0.7514810200629023,0.2682797083221457,1.3115427221141887,-0.2079729976778368
16269,5.0,299.85365,5647.755999999999,0.0,0.0,0.0,0.0,0.16215002511918095,0.0,-0.5147834256976684,-0.4617024244314815,-0.7402909494035282,0.24838607261629675,1.3106978741808089,-0.18286906783777182
16270,5.0,299.69619,5274.9691,0.0,0.0,0.0,0.0,0.1621599919287648,0.0,-0.4614323831473306,-0.4389579791717796,-0.7030685382349623,0.25148487513212475,1.3271486988293788,-0.18072641877880885
16271,5.0,300.47536,5369.7411,0.0,0.0,0.0,0.0,0.1621699587383486,0.0,-0.4696890238396975,-0.42191126213939956,-0.7406669259856343,0.2291721858725338,1.3313925955482186,-0.16137988746445486
16272,5.0,299.70272,5770.392,0.0,0.0,0.0,0.0,0.16217992554793242,0.0,-0.5359447588686295,-0.4637548537015405,-0.7543554586090873,0.2281672545558548,1.329502174836649,-0.1254648222374139
16273,5.0,301.04502,5581.3503,0.0,0.0,0.0,0.0,0.1621898923575162,0.0,-0.48876429796978055,-0.4572613391106806,-0.7505654979350472,0.2194934182673138,1.296971375076109,-0.14943829933841188
16274,5.0,301.1338,5147.17,0.0,0.0,0.0,0.0,0.16219985916710006,0.0,-0.48046597216829956,-0.4193430784359396,-0.6648021045608593,0.22636713469319678,1.3155055432552887,-0.15445378600840187
16275,5.0,301.01468,5153.6099,0.0,0.0,0.0,0.0,0.16220982597668387,0.0,-0.4910950366448065,-0.4084190568553226,-0.6670546304606664,0.24848135865570076,1.3194377642433688,-0.17335171097348182
16276,5.0,299.33434,5615.668000000001,0.0,0.0,0.0,0.0,0.1622197927862677,0.0,-0.5473352909277874,-0.4233901817203576,-0.7362973761218933,0.2673005135580067,1.3149475464252187,-0.16496160497794285
16277,5.0,299.78938,5794.7095,0.0,0.0,0.0,0.0,0.16222975959585154,0.0,-0.5405128956194694,-0.43116163773484056,-0.7897724708819742,0.2535220955181827,1.3252312243401387,-0.17223506883327783
16278,5.0,299.38025,5547.3236,0.0,0.0,0.0,0.0,0.16223972640543535,0.0,-0.5095461791107926,-0.41780294841644067,-0.7588987504674752,0.25738658073707776,1.318476595198509,-0.16258498633838883
16279,5.0,298.86176,5487.6901,0.0,0.0,0.0,0.0,0.16224969321501917,0.0,-0.4971305925879696,-0.4245406056188956,-0.7464495544388353,0.27017862006955373,1.3158860186678387,-0.15988781589719886
16280,5.0,299.61207,5558.5998,0.0,0.0,0.0,0.0,0.16225966002460296,0.0,-0.5541144913843424,-0.41730195703699663,-0.7182590824091523,0.25477720841705276,1.3415403966247288,-0.13968983025881287
16281,5.0,299.54328,5591.3292,0.0,0.0,0.0,0.0,0.1622696268341868,0.0,-0.5176501736755945,-0.4580417342051996,-0.7239325635615813,0.27698619152890874,1.3157297755024189,-0.16104417744132285
16282,5.0,299.84245,5536.9126,0.0,0.0,0.0,0.0,0.16227959364377062,0.0,-0.5106544011426655,-0.43939957383036155,-0.7330292088518503,0.23426415266007178,1.3200457143033686,-0.14528190689820786
16283,5.0,300.63554,5309.9006,0.0,0.0,0.0,0.0,0.16228956045335444,0.0,-0.4616366644999916,-0.4303380376560576,-0.7221024818934663,0.23148542571833275,1.3050660274749888,-0.14074912244335688
16284,5.0,300.03835,5109.1481,0.0,0.0,0.0,0.0,0.16229952726293825,0.0,-0.4219139573846656,-0.4199565811064876,-0.7111829186132894,0.21366799012988877,1.3106075935968988,-0.18550504810542284
16285,5.0,300.21345,5392.8968,0.0,0.0,0.0,0.0,0.1623094940725221,0.0,-0.46817844019311455,-0.45034695082578363,-0.7207805958130062,0.2098763373281818,1.310667679327829,-0.16740792509187583
16286,5.0,300.98902000000004,5719.9327,0.0,0.0,0.0,0.0,0.1623194608821059,0.0,-0.5143506260499545,-0.4857878960660325,-0.7385781919644924,0.22663768260239778,1.3249630170386688,-0.2056613283696928
16287,5.0,299.85682,5608.3009999999995,0.0,0.0,0.0,0.0,0.16232942769168973,0.0,-0.5112127627427716,-0.45720255033987856,-0.7363681415088773,0.24944217306302577,1.3370458218311487,-0.2019011876460958
16288,5.0,300.60478,5466.5897,0.0,0.0,0.0,0.0,0.16233939450127352,0.0,-0.47833756940574257,-0.44431653206062754,-0.7390526665888193,0.23681779622459675,1.3355268586062388,-0.2002970100877758
16289,5.0,299.5537,5411.9815,0.0,0.0,0.0,0.0,0.16234936131085737,0.0,-0.48048109999229255,-0.41654662974995166,-0.7480795090796993,0.25630371022270676,1.3094734627599687,-0.14862955350609486
16290,5.0,299.72617,5519.6791,0.0,0.0,0.0,0.0,0.16235932812044118,0.0,-0.48147020434240956,-0.4367040752518365,-0.7596703404186254,0.24400352275377277,1.3134066969981488,-0.16663804753339484
16291,5.0,300.1018,5610.2767,0.0,0.0,0.0,0.0,0.16236929493002503,0.0,-0.5081701652099905,-0.4467070322265516,-0.7505068408867583,0.27036854366829777,1.3160840077373788,-0.14759343435133787
16292,5.0,299.77345,5552.7343,0.0,0.0,0.0,0.0,0.16237926173960884,0.0,-0.5321195573561115,-0.4483525199914486,-0.7074204980769673,0.25857687602705076,1.2880895286745389,-0.14811636259544686
16293,5.0,299.86807999999996,5366.8059,0.0,0.0,0.0,0.0,0.16238922854919263,0.0,-0.48852984202914157,-0.4281723472898206,-0.7146727951377133,0.24929720737121877,1.3010013746988385,-0.15338089600751587
16294,5.0,299.845,5330.7258,0.0,0.0,0.0,0.0,0.16239919535877645,0.0,-0.5013186592262995,-0.42274280609896664,-0.6963460797840074,0.24850760183329076,1.3059713664393386,-0.13943714594887488
16295,5.0,298.99483,5604.7377,0.0,0.0,0.0,0.0,0.1624091621683603,0.0,-0.5015452827436655,-0.44122166095518756,-0.7609333566682752,0.24709436112381475,1.3312758691366988,-0.15014230550789184
16296,5.0,300.38678,5694.0602,0.0,0.0,0.0,0.0,0.1624191289779441,0.0,-0.5223281771347774,-0.43643645563542455,-0.7720874772141013,0.2319297865496878,1.3319968979078587,-0.17367544438043184
16297,5.0,300.87017000000003,5443.6737,0.0,0.0,0.0,0.0,0.16242909578752796,0.0,-0.49795875229220254,-0.4264545945277916,-0.7303275395802163,0.22283321218692578,1.327555214769499,-0.2013686031285338
16298,5.0,299.9105,5282.1357,0.0,0.0,0.0,0.0,0.16243906259711174,0.0,-0.5099753209256455,-0.38150682009179165,-0.7141552269866334,0.24639850148513875,1.3446676917333686,-0.2030115071056758
16299,5.0,300.97347,5478.2501,0.0,0.0,0.0,0.0,0.1624490294066956,0.0,-0.5075722361934795,-0.4101968649507786,-0.7474821272182424,0.26351788881469074,1.3318346765668487,-0.1808981140082538
16300,5.0,300.25186,5380.3601,0.0,0.0,0.0,0.0,0.16245899621627938,0.0,-0.48441008871255353,-0.4176651464028406,-0.7334198775604063,0.26300640016421073,1.3128219503654388,-0.18279133129009983
16301,5.0,300.59382,5322.1456,0.0,0.0,0.0,0.0,0.16246896302586322,0.0,-0.4616907112603255,-0.4067066236563186,-0.7494020436402232,0.26115992410947775,1.277795515608599,-0.14838293856425586
16302,5.0,300.14722,5404.0456,0.0,0.0,0.0,0.0,0.16247892983544704,0.0,-0.4646673056815926,-0.43751904243976764,-0.7405085853925073,0.26405421222512176,1.3151090584911589,-0.17118335575948185
16303,5.0,299.19059,5463.1855,0.0,0.0,0.0,0.0,0.16248889664503086,0.0,-0.4936167932286845,-0.4357333208610306,-0.7313218723008493,0.25346442132249075,1.3090666428448188,-0.16223647896649385
16304,5.0,300.03145,5835.5851,0.0,0.0,0.0,0.0,0.16249886345461467,0.0,-0.5345806303915005,-0.4979409089579416,-0.7413506063581083,0.25036620649172076,1.3289355653807287,-0.1994527802369568
16305,5.0,299.80155,5838.1926,0.0,0.0,0.0,0.0,0.16250883026419852,0.0,-0.5365569645790494,-0.4586225696925236,-0.7794852263267023,0.1988111294786308,1.3193328928580188,-0.16928742296736782
16306,5.0,299.73864,5287.908,0.0,0.0,0.0,0.0,0.1625187970737823,0.0,-0.4929091190938425,-0.39175787135349166,-0.7227249822249023,0.22539044265680477,1.3516041992679486,-0.17436130324062085
16307,5.0,300.86897999999997,5252.7085,0.0,0.0,0.0,0.0,0.16252876388336615,0.0,-0.46044083686447257,-0.39566995906208463,-0.7405814178096953,0.2123982256345728,1.3251000084521887,-0.16470795808040986
16308,5.0,300.86955,5588.8063,0.0,0.0,0.0,0.0,0.16253873069294994,0.0,-0.5078409501199995,-0.4247154824536546,-0.7663011301330332,0.2350913193792068,1.3169208509949686,-0.18786374235070782
16309,5.0,299.93627999999995,5566.5711,0.0,0.0,0.0,0.0,0.16254869750253378,0.0,-0.5295939808193565,-0.4228711747541356,-0.7396334615461393,0.2532532701341518,1.2935330121867687,-0.1778893083663078
16310,5.0,300.71695,5555.8796,0.0,0.0,0.0,0.0,0.1625586643121176,0.0,-0.5245091270475205,-0.4248790919473016,-0.7394604592240653,0.2716940571841157,1.3267904135940187,-0.17785336838526083
16311,5.0,300.03476,5526.0858,0.0,0.0,0.0,0.0,0.16256863112170145,0.0,-0.5302230470114405,-0.4076949478038586,-0.7418741121547743,0.2861201244228577,1.3090104074642688,-0.16274553581673384
16312,5.0,299.10943,5483.1423,0.0,0.0,0.0,0.0,0.16257859793128526,0.0,-0.5010391440537135,-0.4277764299457466,-0.7379227711373073,0.2713933650844398,1.3181104066123686,-0.15190124688648585
16313,5.0,299.71148999999997,5693.6565,0.0,0.0,0.0,0.0,0.16258856474086905,0.0,-0.49586750541081254,-0.4482182643531986,-0.7866436356331823,0.2330859859737958,1.327595339473459,-0.15426243372701687
16314,5.0,299.2588,5686.5578,0.0,0.0,0.0,0.0,0.16259853155045287,0.0,-0.5118772420258505,-0.43467189071877554,-0.7820224552396072,0.21626494000368782,1.3412225400683588,-0.14661264878454186
16315,5.0,300.27786000000003,5641.5743,0.0,0.0,0.0,0.0,0.1626084983600367,0.0,-0.5150568208396505,-0.4620550152012795,-0.7377858911812983,0.24692375007197678,1.3425091650453387,-0.16945397088630484
16316,5.0,300.75717000000003,5378.5046,0.0,0.0,0.0,0.0,0.16261846516962053,0.0,-0.48351116362133656,-0.42981401510184064,-0.7216059082844583,0.21578720271403878,1.3454608639116488,-0.17848073231717682
16317,5.0,299.97298,5434.7264,0.0,0.0,0.0,0.0,0.16262843197920437,0.0,-0.5035666153681555,-0.42431300938143357,-0.7241414957322013,0.25272065521908676,1.3138650913433887,-0.17391787459935784
16318,5.0,299.61252,5710.6651,0.0,0.0,0.0,0.0,0.16263839878878816,0.0,-0.5027212101472205,-0.4437941003090676,-0.7893842745036622,0.2115119053745998,1.3415448549251687,-0.16985196539308384
16319,5.0,300.97092000000004,5663.7237,0.0,0.0,0.0,0.0,0.162648365598372,0.0,-0.5103227339874326,-0.4213439535409106,-0.7899638738258643,0.24494534885422375,1.3368889707156686,-0.18094899942827583
16320,5.0,300.96715,5545.7676,0.0,0.0,0.0,0.0,0.1626583324079558,0.0,-0.5143705566794216,-0.43573105118080663,-0.7356732545902973,0.23220962596230577,1.3155936960139887,-0.19281800844965583
16321,5.0,299.99757,5508.0731,0.0,0.0,0.0,0.0,0.16266829921753964,0.0,-0.5153824591567885,-0.4133877212381916,-0.7455465256847134,0.2754047715678347,1.3041710236616588,-0.18119827921787784
16322,5.0,299.60932,5590.2314,0.0,0.0,0.0,0.0,0.16267826602712346,0.0,-0.5084907879391336,-0.44866959634524156,-0.7421303529725634,0.2627997579388167,1.3207974445525588,-0.18402275440163182
16323,5.0,299.72907000000004,5737.2049,0.0,0.0,0.0,0.0,0.16268823283670727,0.0,-0.5115469123607495,-0.45999523986799556,-0.7724248793649002,0.26148320155388277,1.295103144541729,-0.15334931300189886
16324,5.0,300.28951,5678.5448,0.0,0.0,0.0,0.0,0.1626981996462911,0.0,-0.5042335771139795,-0.4374721086951356,-0.7844301401272272,0.2187709304160098,1.2990235105036387,-0.15631470087705987
16325,5.0,299.84651,5292.4358,0.0,0.0,0.0,0.0,0.16270816645587494,0.0,-0.45539458792144655,-0.42799613296492955,-0.7253776101916963,0.21019108320674482,1.2866845560858788,-0.16376152169200384
16326,5.0,300.4131,5377.1462,0.0,0.0,0.0,0.0,0.16271813326545873,0.0,-0.5138502223555684,-0.3930970536131586,-0.7275708913581563,0.21053854693103682,1.3414961175953588,-0.16181812826520586
16327,5.0,299.92503999999997,5982.5511,0.0,0.0,0.0,0.0,0.16272810007504257,0.0,-0.5873615373755704,-0.45410592631176555,-0.7770786864116953,0.21506462367022577,1.3473516899232587,-0.16421436342669585
16328,5.0,299.75822999999997,5865.694,0.0,0.0,0.0,0.0,0.16273806688462636,0.0,-0.5546638755885626,-0.4718177407097856,-0.7565429034549712,0.2303874780424738,1.3375052294264886,-0.16735672556432282
16329,5.0,299.99835,5162.2269,0.0,0.0,0.0,0.0,0.1627480336942102,0.0,-0.44984381135612755,-0.4051195294946846,-0.7142247258109923,0.24415575344879675,1.3194324953428487,-0.17990303148254683
16330,5.0,300.42879,5212.6069,0.0,0.0,0.0,0.0,0.16275800050379402,0.0,-0.44247851664422955,-0.4115309404299416,-0.7304928817315344,0.2943267510902887,1.3182367588998385,-0.17709216424763582
16331,5.0,301.55654,5712.7846,0.0,0.0,0.0,0.0,0.16276796731337786,0.0,-0.5111958009360975,-0.4667767707997806,-0.7585712883001573,0.2749860459640097,1.3111854501289288,-0.17461079581274383
16332,5.0,301.44262000000003,5701.8876,0.0,0.0,0.0,0.0,0.16277793412296168,0.0,-0.5542707142847605,-0.45158383535535457,-0.7273768944940103,0.26775442933780474,1.2971891225225989,-0.16036015256381483
16333,5.0,301.2946,5522.5384,0.0,0.0,0.0,0.0,0.16278790093254547,0.0,-0.5247405837678635,-0.44555004246736557,-0.7084231597134224,0.2298447914214148,1.2875809784493488,-0.17993651939835184
16334,5.0,299.89435,5406.4242,0.0,0.0,0.0,0.0,0.1627978677421293,0.0,-0.4877842824730605,-0.4285811937051706,-0.7270524822094934,0.26416956061650576,1.3388984483139887,-0.16195452186116685
16335,5.0,300.52905,5577.4475,0.0,0.0,0.0,0.0,0.16280783455171313,0.0,-0.48193272261555653,-0.43703266212676556,-0.7764394066586032,0.24692373993947575,1.3350073652799688,-0.17512802959129084
16336,5.0,299.40561,5861.6239,0.0,0.0,0.0,0.0,0.16281780136129695,0.0,-0.5149578870998865,-0.47436583166376256,-0.7924635922200672,0.23227963141171476,1.3211153011089287,-0.17012574557010382
16337,5.0,299.89589,5548.8369,0.0,0.0,0.0,0.0,0.1628277681708808,0.0,-0.5092833015048486,-0.4283200892869016,-0.7491044520858533,0.2043367571764678,1.3099079444028487,-0.16254895516483286
16338,5.0,299.22787999999997,4972.8009999999995,0.0,0.0,0.0,0.0,0.16283773498046458,0.0,-0.4641988497628596,-0.39581964649935764,-0.6515888470293124,0.25470866204778775,1.3445979801264887,-0.17793852192366483
16339,5.0,299.45481,5117.3693,0.0,0.0,0.0,0.0,0.16284770179004843,0.0,-0.47436957055663154,-0.4054245279072856,-0.6757583880246604,0.24264763199995676,1.3470358598670886,-0.19021729941798582
16340,5.0,299.98508,5757.4491,0.0,0.0,0.0,0.0,0.16285766859963222,0.0,-0.5434400535683575,-0.4446898741924736,-0.7619908554001422,0.26388487786840975,1.3294133128028789,-0.19041739604773383
16341,5.0,300.43536,5711.8123,0.0,0.0,0.0,0.0,0.16286763540921606,0.0,-0.5201372568410505,-0.4528923769319976,-0.7632186814738192,0.23294123306450978,1.2965911023135788,-0.17551025792651384
16342,5.0,299.86197000000004,5232.6311,0.0,0.0,0.0,0.0,0.16287760221879988,0.0,-0.43837133776138254,-0.41795389228383756,-0.7342639554237104,0.2507815478402118,1.3134429713517288,-0.17333916693724385
16343,5.0,300.71159,5456.5223,0.0,0.0,0.0,0.0,0.1628875690283837,0.0,-0.5064582791660405,-0.4625788452379776,-0.6896094054341494,0.2848428112142967,1.3012632998496887,-0.16584151136478284
16344,5.0,299.81994,5732.2911,0.0,0.0,0.0,0.0,0.1628975358379675,0.0,-0.5548431600612564,-0.4478038855923026,-0.7398263033051713,0.2745650304149587,1.2910365665903887,-0.17548147149117282
16345,5.0,300.00613,5776.1955,0.0,0.0,0.0,0.0,0.16290750264755136,0.0,-0.5374186425965904,-0.48318133044878453,-0.7352192273529883,0.25910220567389675,1.3112217244825088,-0.16787328046530284
16346,5.0,301.00175,5513.6591,0.0,0.0,0.0,0.0,0.16291746945713514,0.0,-0.4804824070849215,-0.45357928957229054,-0.7419530038075602,0.2404061707912418,1.3463657975759589,-0.15876234834862385
16347,5.0,299.99942000000004,5124.9269,0.0,0.0,0.0,0.0,0.162927436266719,0.0,-0.4354599257190486,-0.3858662070570296,-0.7365236652667263,0.24424430137503578,1.3771406349131987,-0.16779306145488582
16348,5.0,299.07824,5411.0125,0.0,0.0,0.0,0.0,0.16293740307630278,0.0,-0.44295858440910857,-0.4381373377832886,-0.7637167648254762,0.2209662482151708,1.3353508570638686,-0.1729851474848048
16349,5.0,298.91377,5917.1546,0.0,0.0,0.0,0.0,0.16294736988588662,0.0,-0.5753880724013815,-0.4591783069748706,-0.7641008676733843,0.2272963356974018,1.3152328776533788,-0.17089754830377485
16350,5.0,299.39616,5938.5356,0.0,0.0,0.0,0.0,0.16295733669547044,0.0,-0.5806406291972684,-0.4611204946340495,-0.7634054032022473,0.20266728578170382,1.2979762152002787,-0.15287403790999285
16351,5.0,300.40551,5483.3808,0.0,0.0,0.0,0.0,0.16296730350505428,0.0,-0.5121128632041045,-0.4364272350595146,-0.7182707347853023,0.2508525057447148,1.3287907719414385,-0.18230010764161983
16352,5.0,299.9114,5359.6244,0.0,0.0,0.0,0.0,0.1629772703146381,0.0,-0.49391355391797254,-0.4142443330052326,-0.7210341008555253,0.24149011535071876,1.2978244303352988,-0.15255854222635587
16353,5.0,299.17966,5756.0227,0.0,0.0,0.0,0.0,0.1629872371242219,0.0,-0.4953755218247575,-0.45477683973297955,-0.7995348113554422,0.2720976448314467,1.3088518338236186,-0.16979554762751584
16354,5.0,299.39142000000004,5767.5762,0.0,0.0,0.0,0.0,0.1629972039338057,0.0,-0.49820412093641847,-0.45888985493640255,-0.7961051928144652,0.26238991853836874,1.3039052481604287,-0.13858029100180988
16355,5.0,299.15187000000003,5433.1466,0.0,0.0,0.0,0.0,0.16300717074338955,0.0,-0.5066408567015596,-0.4385921452231746,-0.7063078785396603,0.26402648970238574,1.3282225412853588,-0.16652287139452784
16356,5.0,299.40859,5364.9015,0.0,0.0,0.0,0.0,0.16301713755297337,0.0,-0.5042485225529545,-0.4311493976736326,-0.6953981843154573,0.23719175643900378,1.2923670652966988,-0.16499795025902983
16357,5.0,299.67189,5541.7932,0.0,0.0,0.0,0.0,0.1630271043625572,0.0,-0.5227360204325285,-0.43773199721328454,-0.7240987467104824,0.2166398425406878,1.3195277408522488,-0.19271952053993582
16358,5.0,300.13268,5897.0093,0.0,0.0,0.0,0.0,0.163037071172141,0.0,-0.5047843596033376,-0.4690686513334716,-0.8186905679409682,0.1990603282082248,1.3316833983269187,-0.17972316945729583
16359,5.0,300.47696,5802.8568,0.0,0.0,0.0,0.0,0.16304703798172485,0.0,-0.4815200461148285,-0.48834175241307853,-0.7940617713377952,0.1932362882234368,1.3508802320714988,-0.19410367083904081
16360,5.0,300.86235,5164.0602,0.0,0.0,0.0,0.0,0.16305700479130864,0.0,-0.44912044197723655,-0.40692695489056363,-0.7136979472165034,0.21066289298330879,1.316934124571279,-0.17131257554473484
16361,5.0,300.14184,5029.7876,0.0,0.0,0.0,0.0,0.16306697160089248,0.0,-0.4838453942993226,-0.39115545363903764,-0.6539290089302684,0.2392101303732018,1.3200642567801988,-0.16428934393409583
16362,5.0,299.8333,5600.9061,0.0,0.0,0.0,0.0,0.1630769384104763,0.0,-0.5209655786652995,-0.44525871279861357,-0.7363113184432692,0.26940032240274175,1.3187946544048987,-0.17418476467569782
16363,5.0,300.23079,5767.0386,0.0,0.0,0.0,0.0,0.1630869052200601,0.0,-0.5567751138944255,-0.4187323824681686,-0.7775282452160632,0.27610287048923177,1.3215463377014687,-0.13792134406427686
16364,5.0,300.72801,5664.3788,0.0,0.0,0.0,0.0,0.16309687202964393,0.0,-0.47162271033053754,-0.47081030666535956,-0.7793966885329643,0.24812190818272575,1.3087775625912887,-0.17178155835351985
16365,5.0,300.00698,5450.7666,0.0,0.0,0.0,0.0,0.16310683883922777,0.0,-0.4700454446948735,-0.39646258408531065,-0.7903889018453113,0.20987419937047078,1.3128084741391088,-0.17394234458927285
16366,5.0,299.83427,5663.7122,0.0,0.0,0.0,0.0,0.1631168056488116,0.0,-0.5133932161629655,-0.4518968789737496,-0.7563370009021503,0.25387001520501973,1.3116132443211488,-0.16204640338023485
16367,5.0,300.37236,5920.0463,0.0,0.0,0.0,0.0,0.16312677245839538,0.0,-0.5651036649463895,-0.4613190409911445,-0.7731235558388543,0.22651912220819678,1.3424741065918788,-0.16949405506026086
16368,5.0,298.9677,5684.2368,0.0,0.0,0.0,0.0,0.1631367392679792,0.0,-0.5395802900949285,-0.43855846478985056,-0.7497273070548243,0.23986575385040676,1.3104661438829388,-0.16213326931130784
16369,5.0,299.82687999999996,5148.9843,0.0,0.0,0.0,0.0,0.16314670607756304,0.0,-0.49012038124111557,-0.4087478869102756,-0.6662944091756384,0.23123676401129176,1.3360051126534387,-0.16426903840209184
16370,5.0,300.71295,5147.3521,0.0,0.0,0.0,0.0,0.16315667288714686,0.0,-0.4261312968183846,-0.4015279023952186,-0.7370073098044583,0.2519881361917927,1.3330324395100588,-0.16770124073082385
16371,5.0,299.88282999999996,5686.0321,0.0,0.0,0.0,0.0,0.1631666396967307,0.0,-0.4876219496745396,-0.46660961493078357,-0.7741802135731383,0.23844668695285579,1.3402157747689987,-0.19007026669597482
16372,5.0,299.22693,5894.2847,0.0,0.0,0.0,0.0,0.16317660650631452,0.0,-0.5502485673503055,-0.46023686961934257,-0.7812299416738923,0.25782670618301473,1.3115376558636886,-0.15497957161779286
16373,5.0,300.36616000000004,5616.6159,0.0,0.0,0.0,0.0,0.1631865733158983,0.0,-0.5273419818096016,-0.4398191100342666,-0.7401498847246063,0.22022815631232678,1.3306306314730187,-0.16922563497626986
16374,5.0,300.71151000000003,5310.746,0.0,0.0,0.0,0.0,0.16319654012548213,0.0,-0.4985904630670476,-0.4097958306936996,-0.7059478809116313,0.2537499450681698,1.3309402807035788,-0.17215054350993583
16375,5.0,300.71465,5616.5638,0.0,0.0,0.0,0.0,0.16320650693506597,0.0,-0.5193188851327836,-0.45179868490655856,-0.7361775896950713,0.2635403930994118,1.3301951365800386,-0.18369472481425783
16376,5.0,301.17816,5823.066,0.0,0.0,0.0,0.0,0.1632164737446498,0.0,-0.47999880307719356,-0.48663933012506255,-0.8034285288397223,0.25834962429462277,1.3035900260543187,-0.2053915403980668
16377,5.0,300.40854,5359.2466,0.0,0.0,0.0,0.0,0.1632264405542336,0.0,-0.4551601218483066,-0.43358092433610557,-0.7403360896954833,0.26563382860101775,1.3325137567838685,-0.18838715695486483
16378,5.0,298.60343,4977.3374,0.0,0.0,0.0,0.0,0.16323640736381742,0.0,-0.42993343675862655,-0.40761754562871966,-0.6754352929652734,0.26958120781059375,1.3249626117386288,-0.1926442867200108
16379,5.0,299.21641,5215.204000000001,0.0,0.0,0.0,0.0,0.16324637417340127,0.0,-0.4793063580913546,-0.4019287947972836,-0.7040566394674803,0.25818189087306875,1.3386012620596588,-0.15704372419150886
16380,5.0,299.9691,5603.2972,0.0,0.0,0.0,0.0,0.16325634098298505,0.0,-0.5548130462682844,-0.43464364130598754,-0.7138057266296404,0.2329760280729438,1.3082490513391287,-0.18553809019118384
16381,5.0,299.91997000000003,5790.2374,0.0,0.0,0.0,0.0,0.16326630779256887,0.0,-0.5550317968323735,-0.43894561752055955,-0.7661101628866863,0.2251293281060348,1.3177102741478788,-0.13489061169016686
16382,5.0,300.11761,5634.7923,0.0,0.0,0.0,0.0,0.16327627460215272,0.0,-0.4950568141383035,-0.4587152010166655,-0.7590641331487973,0.20893370062765082,1.3150460343349386,-0.19664697925254582
16383,5.0,300.12562,5524.2053,0.0,0.0,0.0,0.0,0.16328624141173653,0.0,-0.5074328940397275,-0.4326025807020506,-0.7391850071843803,0.25511917019330177,1.3299779970836088,-0.16507868602699785
16384,5.0,300.04232,5795.312,0.0,0.0,0.0,0.0,0.16329620822132035,0.0,-0.5311483267377585,-0.45707419181721054,-0.7734076306368902,0.23923333380049178,1.3001580466406089,-0.18339195555187682
16385,5.0,301.59474,6040.9887,0.0,0.0,0.0,0.0,0.16330617503090417,0.0,-0.5672241542256655,-0.4582744372231656,-0.8108111399958293,0.2784859131344197,1.3302017227056886,-0.1361352577155039
16386,5.0,300.71681,5591.5417,0.0,0.0,0.0,0.0,0.163316141840488,0.0,-0.5215632746342874,-0.41307417099474664,-0.7650516103747153,0.2276609942758908,1.3209697983945687,-0.15217949549644685
16387,5.0,299.73867,5181.5157,0.0,0.0,0.0,0.0,0.1633261086500718,0.0,-0.4315607265517276,-0.3990404037972216,-0.7444502498715192,0.26086322421519575,1.3063374537004686,-0.16400266508330286
16388,5.0,299.22091,5421.8927,0.0,0.0,0.0,0.0,0.16333607545965562,0.0,-0.45325991314077063,-0.44447955386921656,-0.7503805291292923,0.20970159221593582,1.2832602773729287,-0.19593935578020882
16389,5.0,300.5196,5803.173000000001,0.0,0.0,0.0,0.0,0.16334604226923943,0.0,-0.5113661181454064,-0.46316321696815055,-0.7894903516566313,0.24394311278281078,1.3021089583831489,-0.17850329739690382
16390,5.0,300.74487999999997,5783.8439,0.0,0.0,0.0,0.0,0.16335600907882328,0.0,-0.5119510268981325,-0.4928992703028705,-0.7532938258168123,0.22257169233611582,1.3299441545302688,-0.1943536903012158
16391,5.0,301.36105,5614.946999999999,0.0,0.0,0.0,0.0,0.1633659758884071,0.0,-0.5210416636153085,-0.4463622434825236,-0.7393997858080773,0.21567477248294278,1.3533666464918885,-0.16282265428184486
16392,5.0,299.91846,5342.1867,0.0,0.0,0.0,0.0,0.16337594269799094,0.0,-0.5105196591443676,-0.43015654429814554,-0.6832151488230854,0.2203251547443998,1.3188652779368688,-0.15932229061888584
16393,5.0,300.22684,5652.519,0.0,0.0,0.0,0.0,0.16338590950757473,0.0,-0.49030494474683056,-0.47242348188456756,-0.7554962059691702,0.2478578653391668,1.3340390021593989,-0.16101163184811085
16394,5.0,299.57448999999997,6001.2814,0.0,0.0,0.0,0.0,0.16339587631715854,0.0,-0.5418488152138146,-0.47733554611685053,-0.8050553424052762,0.2818574319146627,1.3283076542937589,-0.17325906951683884
16395,5.0,299.42278,5569.026999999999,0.0,0.0,0.0,0.0,0.16340584312674236,0.0,-0.49370599976748847,-0.44600397851216556,-0.7531351711161542,0.2557577508038248,1.288092973724879,-0.16828766935869982
16396,5.0,299.31417999999996,5060.0599,0.0,0.0,0.0,0.0,0.1634158099363262,0.0,-0.4408160164101536,-0.41832279638024555,-0.6789930471138963,0.23839680465043275,1.2858358578021187,-0.18084322625033683
16397,5.0,299.88231,5340.2751,0.0,0.0,0.0,0.0,0.16342577674591002,0.0,-0.5213618506469084,-0.3893131319097146,-0.7126353113066294,0.2332915946840878,1.301273837650729,-0.14591772133595787
16398,5.0,298.99709,5804.9734,0.0,0.0,0.0,0.0,0.16343574355549384,0.0,-0.5406449018424975,-0.4593691424987046,-0.7645528988079963,0.25255477604521576,1.335607108014159,-0.16419847566512785
16399,5.0,301.13855,5624.8925,0.0,0.0,0.0,0.0,0.16344571036507763,0.0,-0.5059022784386675,-0.4457349200806116,-0.7581896679149943,0.2134996994207798,1.3264235157328088,-0.18438050261443883
16400,5.0,300.96101,5195.7951,0.0,0.0,0.0,0.0,0.16345567717466147,0.0,-0.44667997844888163,-0.4389996034858876,-0.6937123894615823,0.20710342644201682,1.3104184198032287,-0.1908373375516788
16401,5.0,300.73321,5348.6715,0.0,0.0,0.0,0.0,0.1634656439842453,0.0,-0.4801569207552986,-0.4553842223729236,-0.6903214466769223,0.23839034011479476,1.3167239765005385,-0.1917451995087778
16402,5.0,300.3585,5775.6198,0.0,0.0,0.0,0.0,0.16347561079382913,0.0,-0.5221569885303825,-0.46729846287876753,-0.7661887505644422,0.25339580402571876,1.3433935297326185,-0.16573263764153784
16403,5.0,299.92925,5936.085999999999,0.0,0.0,0.0,0.0,0.16348557760341292,0.0,-0.5804272488587094,-0.46240760597107755,-0.7615870651027913,0.2467728771320868,1.3225691123524088,-0.13588275579058387
16404,5.0,299.27232000000004,5689.7229,0.0,0.0,0.0,0.0,0.16349554441299677,0.0,-0.5370066348409285,-0.42110702527002764,-0.7714200493732313,0.22251547722056778,1.3026788102393887,-0.11655110912019889
16405,5.0,300.44426,5284.7897,0.0,0.0,0.0,0.0,0.16350551122258059,0.0,-0.44220374348211156,-0.4101109109447956,-0.7541294531742823,0.22741532165664477,1.3199304064419886,-0.15610237431860485
16406,5.0,299.94378,5312.1991,0.0,0.0,0.0,0.0,0.16351547803216443,0.0,-0.4517309592698746,-0.42702322035141055,-0.7360217112996873,0.2589508767714618,1.3496004971951987,-0.20082095158198482
16407,5.0,299.68964,5910.8675,0.0,0.0,0.0,0.0,0.16352544484174822,0.0,-0.5191659248976875,-0.46195821941922655,-0.8156319711891082,0.23917446396968176,1.3184514665960287,-0.18593958041080783
16408,5.0,299.25007,5725.3878,0.0,0.0,0.0,0.0,0.16353541165133204,0.0,-0.5473414717533974,-0.47292647949920946,-0.7201069871465263,0.24868959168375177,1.3066930031605588,-0.2043680159420528
16409,5.0,299.26943,5070.9159,0.0,0.0,0.0,0.0,0.16354537846091585,0.0,-0.47129552174074657,-0.4087923077946596,-0.6613439934270703,0.2515067410692828,1.3043814757074288,-0.15658281698602086
16410,5.0,299.26203,5151.798,0.0,0.0,0.0,0.0,0.1635553452704997,0.0,-0.4614747977965166,-0.4101308314417616,-0.6944123122331594,0.26162580637295674,1.3616792489872789,-0.17700283611881984
16411,5.0,299.06674,5700.4788,0.0,0.0,0.0,0.0,0.1635653120800835,0.0,-0.4934256841273235,-0.47308677566502955,-0.7662907645845103,0.24997958065106377,1.3362822365557887,-0.16832624379000685
16412,5.0,299.0474,5920.0358,0.0,0.0,0.0,0.0,0.16357527888966736,0.0,-0.5417029578619194,-0.4588543709179006,-0.7989857108612503,0.2399891170500818,1.3381013244603186,-0.16326230350023485
16413,5.0,300.56041,5765.2199,0.0,0.0,0.0,0.0,0.16358524569925112,0.0,-0.5213334796441085,-0.47552719866338056,-0.7556222340166082,0.22650549399435177,1.3263488392004388,-0.17394040928158183
16414,5.0,300.11229,5378.5897,0.0,0.0,0.0,0.0,0.16359521250883496,0.0,-0.5265564495370755,-0.3942268882696646,-0.7141736174759483,0.24942978101430277,1.3295236557387689,-0.16468237351538487
16415,5.0,300.20149,5271.0496,0.0,0.0,0.0,0.0,0.16360517931841878,0.0,-0.5055488770687895,-0.3984188356558776,-0.6982997374343183,0.27269110541501673,1.3157778035571588,-0.15889178091639783
16416,5.0,300.8212,5804.0696,0.0,0.0,0.0,0.0,0.16361514612800263,0.0,-0.5556100485319425,-0.4426528361914336,-0.7660293663237122,0.24128060562754175,1.2986440483411887,-0.17307926828659384
16417,5.0,300.10441000000003,5859.3219,0.0,0.0,0.0,0.0,0.16362511293758644,0.0,-0.5380694328708185,-0.4567971185773656,-0.7862210090164722,0.27327733139287275,1.3046566744345887,-0.19883755504123882
16418,5.0,299.52255,5249.031999999999,0.0,0.0,0.0,0.0,0.16363507974717026,0.0,-0.4382495045693586,-0.4495718752942896,-0.7077532899398113,0.24316255556827576,1.3443654392285387,-0.2144773236472638
16419,5.0,299.3972,5272.6787,0.0,0.0,0.0,0.0,0.16364504655675405,0.0,-0.4413149204943916,-0.45354612589651755,-0.7079016297544514,0.27856894898011475,1.3279316371816487,-0.2217804959955308
16420,5.0,298.75154,5972.0726,0.0,0.0,0.0,0.0,0.1636550133663379,0.0,-0.5997074021590125,-0.48172833993788555,-0.7339251955177772,0.24419523980519378,1.3149583882012887,-0.16171956942797885
16421,5.0,299.01267,6007.9619,0.0,0.0,0.0,0.0,0.1636649801759217,0.0,-0.5818613118577404,-0.49112565706282857,-0.7532834298707863,0.27268261437917873,1.3132732519599788,-0.16751335376478085
16422,5.0,299.83636,5342.6245,0.0,0.0,0.0,0.0,0.16367494698550555,0.0,-0.47995802989316955,-0.4206691391068116,-0.7233972736662523,0.2065975511970908,1.3385740056319688,-0.14359441991666586
16423,5.0,300.10211,5115.9369,0.0,0.0,0.0,0.0,0.16368491379508934,0.0,-0.4230086018651986,-0.40878705915914165,-0.7233214014987643,0.2238385690686468,1.3489133109773788,-0.15974384319048984
16424,5.0,299.7196,5674.4403,0.0,0.0,0.0,0.0,0.1636948806046732,0.0,-0.4828522369488056,-0.4572677631163146,-0.7847681603605873,0.2109880956029038,1.3504008634491886,-0.16080901222561386
16425,5.0,301.21697,5908.3679,0.0,0.0,0.0,0.0,0.163704847414257,0.0,-0.5249515323061825,-0.46580784025915456,-0.8052369472206992,0.25653754808078477,1.3397025635933486,-0.17945492162582183
16426,5.0,301.35839,5779.156999999999,0.0,0.0,0.0,0.0,0.16371481422384085,0.0,-0.5624832279352724,-0.46381889110786056,-0.7304173135390762,0.2551748482862968,1.3483429524960886,-0.17909764964056182
16427,5.0,299.24478999999997,5441.8289,0.0,0.0,0.0,0.0,0.16372478103342464,0.0,-0.5118168117898865,-0.42376939057028257,-0.7185939109046973,0.25775316449075675,1.2930863715426886,-0.16763555172684083
16428,5.0,299.9385,5365.4478,0.0,0.0,0.0,0.0,0.16373474784300845,0.0,-0.4878524032772835,-0.42338721289756465,-0.7197225499260853,0.24259013005678176,1.3046306339070186,-0.18292083478538082
16429,5.0,300.155,5951.7476,0.0,0.0,0.0,0.0,0.16374471465259227,0.0,-0.5494874138751855,-0.49008807882792754,-0.7696071726918142,0.2681774815195567,1.297962840298959,-0.18031835256603582
16430,5.0,300.47019,6063.2403,0.0,0.0,0.0,0.0,0.16375468146217612,0.0,-0.5506750747148984,-0.47852326775156956,-0.8138753096232393,0.24808293858387975,1.3219381615151387,-0.17685844797956984
16431,5.0,299.0258,5272.2408,0.0,0.0,0.0,0.0,0.16376464827175993,0.0,-0.4799012473575655,-0.4188762031873626,-0.7038520946697934,0.24202265933827674,1.336057700333629,-0.14468582199687885
16432,5.0,299.46744,5134.5262,0.0,0.0,0.0,0.0,0.16377461508134378,0.0,-0.4975489331567565,-0.3853629459973616,-0.6778558663941653,0.20692544906195182,1.3465837476724687,-0.13689125374761488
16433,5.0,298.50307999999995,5640.2354,0.0,0.0,0.0,0.0,0.16378458189092754,0.0,-0.5335650396837694,-0.41751106146013356,-0.7634146136456563,0.21791669978670378,1.3298920734751287,-0.12979199798197288
16434,5.0,299.72181,5860.286,0.0,0.0,0.0,0.0,0.16379454870051138,0.0,-0.5316050086903296,-0.47538746134208953,-0.7743881527586602,0.2111158563080128,1.3463641763757987,-0.15456819207719286
16435,5.0,299.97258,5677.2953,0.0,0.0,0.0,0.0,0.1638045155100952,0.0,-0.47757502777798555,-0.4566198504723706,-0.7915611410185023,0.21167109709781082,1.3117750603621188,-0.17282723245671983
16436,5.0,300.53066,5538.5958,0.0,0.0,0.0,0.0,0.16381448231967904,0.0,-0.4866617736147775,-0.4528556060858686,-0.7440774447622264,0.20962826330619883,1.3087799943915288,-0.18875599012376582
16437,5.0,299.91995,5518.6241,0.0,0.0,0.0,0.0,0.16382444912926286,0.0,-0.4739547054356876,-0.47012466058769153,-0.7334445502003413,0.23779526846356577,1.3075370404938589,-0.19273574267403681
16438,5.0,300.74922999999995,5747.1136,0.0,0.0,0.0,0.0,0.16383441593884668,0.0,-0.5567626407856945,-0.4594411947133156,-0.7307751833418953,0.27392380522167475,1.3059212105593887,-0.17205808443831086
16439,5.0,300.63703,5752.6928,0.0,0.0,0.0,0.0,0.16384438274843047,0.0,-0.5164434029389955,-0.47721086569204557,-0.7550207079622423,0.26166899109221875,1.3044370018129088,-0.18050915769236683
16440,5.0,300.27286000000004,5327.6448,0.0,0.0,0.0,0.0,0.1638543495580143,0.0,-0.4919560560497825,-0.4110740254298476,-0.7164408962972113,0.28306840763917673,1.3034381398643289,-0.13498074028656187
16441,5.0,300.19999,5175.0821,0.0,0.0,0.0,0.0,0.16386431636759813,0.0,-0.42834617034447564,-0.4308939978534266,-0.7138555785345604,0.25517475709378773,1.3063994646065886,-0.1863397331402998
16442,5.0,299.82164,5859.1636,0.0,0.0,0.0,0.0,0.16387428317718197,0.0,-0.5250881994796704,-0.4810057304965696,-0.7749455213736682,0.2703145982329737,1.3344474432747089,-0.16940130214610682
16443,5.0,300.02125,6282.7787,0.0,0.0,0.0,0.0,0.16388424998676576,0.0,-0.6152588558863215,-0.4781635842310716,-0.8163853935659652,0.22344785983008678,1.3083482485239188,-0.15467578910531185
16444,5.0,299.72441000000003,5786.5302,0.0,0.0,0.0,0.0,0.1638942167963496,0.0,-0.5483471224776475,-0.4620052139588645,-0.7486083445718913,0.21469415916866377,1.3415128362220088,-0.16546743969286484
16445,5.0,300.59199,5408.3282,0.0,0.0,0.0,0.0,0.16390418360593342,0.0,-0.4724881576384505,-0.42942621389106755,-0.7420823654478272,0.20030408257347382,1.3635762558244988,-0.16068539571341384
16446,5.0,301.66357999999997,5679.6713,0.0,0.0,0.0,0.0,0.16391415041551727,0.0,-0.5258119944236035,-0.45190461007201255,-0.7487616493120213,0.23841977503019976,1.3451559769565589,-0.15542431748418584
16447,5.0,301.16132000000005,5831.304,0.0,0.0,0.0,0.0,0.16392411722510106,0.0,-0.5141624756388855,-0.4870389154344985,-0.7713694071332333,0.24792432441322576,1.3269537495101387,-0.16504795415146484
16448,5.0,301.05102,5712.1016,0.0,0.0,0.0,0.0,0.16393408403468487,0.0,-0.5412487178420895,-0.4399081949830586,-0.7551793221328963,0.26405662376035977,1.3082794488421288,-0.17621314952088385
16449,5.0,300.28358,5252.726,0.0,0.0,0.0,0.0,0.1639440508442687,0.0,-0.4864920542230276,-0.4271458337460116,-0.6830596554627394,0.2879872201171257,1.3276268515515686,-0.16112295763659784
16450,5.0,300.28649,5107.4934,0.0,0.0,0.0,0.0,0.16395401765385254,0.0,-0.4608937799241745,-0.4088508229879346,-0.6828058464451904,0.26204004327883873,1.3350369521828886,-0.17045215395731783
16451,5.0,300.61492000000004,5571.3848,0.0,0.0,0.0,0.0,0.16396398446343635,0.0,-0.5064237678676345,-0.42548751823484865,-0.7616505654865583,0.2305355645445888,1.3484441761810788,-0.17034449613419284
16452,5.0,300.35562999999996,6083.071999999999,0.0,0.0,0.0,0.0,0.1639739512730202,0.0,-0.5709259520085044,-0.4701278421930055,-0.8080481994906482,0.23267465709570076,1.3306518084001089,-0.15557350842890985
16453,5.0,299.20315,5899.0518,0.0,0.0,0.0,0.0,0.16398391808260396,0.0,-0.5154514918861015,-0.4675486140634555,-0.8101643520594962,0.22089177433282078,1.3477531396128788,-0.1890254133253558
16454,5.0,300.50267,5468.3347,0.0,0.0,0.0,0.0,0.1639938848921878,0.0,-0.4920097279075795,-0.44626977427839754,-0.7239577124290633,0.2344772898186068,1.315788847983249,-0.17637752908460685
16455,5.0,300.75065,5664.3752,0.0,0.0,0.0,0.0,0.16400385170177162,0.0,-0.5240378137635054,-0.4734308348689856,-0.7243599625862623,0.2315479533820038,1.2994211098428787,-0.1952510245897758
16456,5.0,300.83531,5936.689,0.0,0.0,0.0,0.0,0.16401381851135546,0.0,-0.5814983555394193,-0.4436661369539386,-0.7794407142498092,0.2547799239273208,1.3198404298331088,-0.14611860830078388
16457,5.0,299.9448,5569.7390000000005,0.0,0.0,0.0,0.0,0.16402378532093928,0.0,-0.4992299961326645,-0.4475627725985066,-0.7462688007534962,0.25168945032731477,1.3667096304337387,-0.19240391339878782
16458,5.0,299.22481,5151.4094,0.0,0.0,0.0,0.0,0.1640337521305231,0.0,-0.4519891049978516,-0.38322120886348865,-0.7306895130459403,0.2339741908789548,1.3536153993914386,-0.15580262454152186
16459,5.0,298.77515,5268.2631,0.0,0.0,0.0,0.0,0.1640437189401069,0.0,-0.4267532398622656,-0.4130177430966776,-0.7616494610439494,0.2240596095779618,1.3430312928218686,-0.17444561578144183
16460,5.0,299.44864,5626.0957,0.0,0.0,0.0,0.0,0.16405368574969073,0.0,-0.5229890593800015,-0.45424192474018754,-0.7329616453351823,0.24944857680365776,1.3155957225141888,-0.16429995266264286
16461,5.0,299.45445,5886.6443,0.0,0.0,0.0,0.0,0.16406365255927455,0.0,-0.5420371480099015,-0.45223399741452064,-0.7951217423999063,0.27480213093835876,1.3305727748923089,-0.16807211053242585
16462,5.0,300.06605,5788.2837,0.0,0.0,0.0,0.0,0.1640736193688584,0.0,-0.5436478103688615,-0.46466405314877157,-0.7511818377058753,0.24061135393649175,1.3054620056140687,-0.17309777023341985
16463,5.0,299.91733,5446.0729,0.0,0.0,0.0,0.0,0.16408358617844218,0.0,-0.47655261789708153,-0.44396653521108553,-0.7349510200515182,0.24077726350786577,1.3194549894950687,-0.16821093592862682
16464,5.0,300.06658,5622.6076,0.0,0.0,0.0,0.0,0.16409355298802603,0.0,-0.5139035395758305,-0.44363107850047856,-0.7515977059444182,0.2194790199833928,1.3290926191462287,-0.16853768882087486
16465,5.0,301.41781000000003,5984.5766,0.0,0.0,0.0,0.0,0.16410351979760984,0.0,-0.5481423851624415,-0.48514711670279254,-0.7858723395245613,0.25303693110530073,1.3577911043785487,-0.1931627769286818
16466,5.0,301.17897,5562.4132,0.0,0.0,0.0,0.0,0.1641134866071937,0.0,-0.5379841476099015,-0.4302871826335386,-0.7225633890989542,0.23990968837474275,1.3444163043835589,-0.17127996915651683
16467,5.0,300.1734,4945.3509,0.0,0.0,0.0,0.0,0.16412345341677748,0.0,-0.4337109040589336,-0.4129869301611366,-0.6565653438354544,0.21520688398426577,1.3315238114361687,-0.18721032775872082
16468,5.0,300.65402,5308.8041,0.0,0.0,0.0,0.0,0.1641334202263613,0.0,-0.49881096655380947,-0.4129055965756096,-0.7020273122997013,0.24520521710737075,1.3173345610107987,-0.16600402654832186
16469,5.0,300.50577000000004,5786.0573,0.0,0.0,0.0,0.0,0.1641433870359451,0.0,-0.5126605046181525,-0.46713116515475656,-0.7790252715763083,0.2362923449877388,1.3296555809017885,-0.17304030882024882
16470,5.0,299.83485,5689.5178,0.0,0.0,0.0,0.0,0.16415335384552895,0.0,-0.49410559520942554,-0.4697815741038316,-0.7655841847597763,0.25521592544535077,1.3297555886866588,-0.17781560455403383
16471,5.0,299.98533,5604.5238,0.0,0.0,0.0,0.0,0.16416332065511277,0.0,-0.4917986780442506,-0.44216634442092057,-0.7696702677755413,0.23500264986295577,1.3225229081478487,-0.18132318255770483
16472,5.0,299.86971,5684.4875,0.0,0.0,0.0,0.0,0.1641732874646966,0.0,-0.5624880712707505,-0.4486342136517496,-0.7168199936896253,0.2901667312147267,1.3309101871756088,-0.13959375388433087
16473,5.0,298.97398,5666.2379,0.0,0.0,0.0,0.0,0.16418325427428038,0.0,-0.5164734964669655,-0.4579820841718126,-0.7479392550008572,0.2664379438803777,1.3294859628350486,-0.18858839855722584
16474,5.0,300.16683,5856.3272,0.0,0.0,0.0,0.0,0.16419322108386422,0.0,-0.5623949941165645,-0.4246857232982176,-0.7930965188950323,0.28120884039315175,1.3106530885263887,-0.13031934399651787
16475,5.0,299.93133,5803.0769,0.0,0.0,0.0,0.0,0.16420318789344804,0.0,-0.49790996429988754,-0.47355241474848453,-0.7925281058539343,0.2137459698575848,1.3106275546238686,-0.15740385354205083
16476,5.0,300.61438,5547.9283,0.0,0.0,0.0,0.0,0.16421315470303188,0.0,-0.49909544665188554,-0.43124715604328057,-0.7560890484701793,0.23634005893494778,1.3097777417649987,-0.15478630429371887
16477,5.0,300.2246,5597.0521,0.0,0.0,0.0,0.0,0.1642231215126157,0.0,-0.5149158372207365,-0.4329445627433016,-0.7535037003100252,0.1987069775008518,1.3465770602218088,-0.17278911398795785
16478,5.0,301.06627000000003,5951.8117,0.0,0.0,0.0,0.0,0.16423308832219952,0.0,-0.6035825366364584,-0.4566320094735706,-0.7489875736868182,0.25171660542999474,1.3133938287218787,-0.17063592712795483
16479,5.0,299.90932000000004,5792.5268,0.0,0.0,0.0,0.0,0.1642430551317833,0.0,-0.5203399879210585,-0.4399439525790876,-0.8004995571731552,0.2339897240029878,1.3068148971475886,-0.17026092326594483
16480,5.0,300.1408,5511.6286,0.0,0.0,0.0,0.0,0.16425302194136715,0.0,-0.4651110484303866,-0.4752594270594535,-0.7350269935440163,0.27740997325073274,1.3154747404522489,-0.17751715173707885
16481,5.0,299.25081,5577.0596,0.0,0.0,0.0,0.0,0.16426298875095097,0.0,-0.4598662227327626,-0.4549754570175816,-0.7804451794714422,0.27092705725591876,1.3264447939849089,-0.17912244387050882
16482,5.0,300.08172,5702.6518,0.0,0.0,0.0,0.0,0.16427295556053478,0.0,-0.5055694561783205,-0.4379112208909726,-0.7899830647827583,0.26596700549889973,1.322217007942659,-0.18277648717613482
16483,5.0,299.17467,5422.2793,0.0,0.0,0.0,0.0,0.1642829223701186,0.0,-0.5083289415006605,-0.4282332537533316,-0.7116753277643862,0.2176088642738228,1.3520235834843386,-0.18411089702783084
16484,5.0,299.23208,5493.9772,0.0,0.0,0.0,0.0,0.16429288917970244,0.0,-0.5448712186721024,-0.40761589403105664,-0.7175447816186563,0.22080140255640177,1.3484744723590687,-0.15421586475242086
16485,5.0,299.29462,5664.2545,0.0,0.0,0.0,0.0,0.16430285598928626,0.0,-0.5359898282330775,-0.44731514440656756,-0.7384869487929873,0.2205927540958098,1.3566553523414588,-0.17127881405140283
16486,5.0,300.086,5584.8038,0.0,0.0,0.0,0.0,0.16431282279887005,0.0,-0.49758442730775954,-0.45179916113410556,-0.7482573243397483,0.24717414443668878,1.3062924653960288,-0.15208570906719085
16487,5.0,300.77887000000004,5811.9291,0.0,0.0,0.0,0.0,0.1643227896084539,0.0,-0.49327479092243154,-0.4620396847272666,-0.8113668570131742,0.24909669530892978,1.2936087019692386,-0.15711453010849685
16488,5.0,300.7776,6114.0019999999995,0.0,0.0,0.0,0.0,0.1643327564180377,0.0,-0.5427329468535715,-0.5196670986621496,-0.7961038958543373,0.2670236531006827,1.296672871596649,-0.16255994892841782
16489,5.0,300.3514,5759.0499,0.0,0.0,0.0,0.0,0.16434272322762153,0.0,-0.5434742710242345,-0.45403863637262454,-0.7530944789921382,0.25633720827101275,1.3269974205894488,-0.17251329717823682
16490,5.0,300.24936,5555.4890000000005,0.0,0.0,0.0,0.0,0.16435269003720535,0.0,-0.5312500266502955,-0.4388376658549056,-0.7186422429344673,0.2516037293688547,1.3402506305724387,-0.17416475298622283
16491,5.0,300.18363,5584.6204,0.0,0.0,0.0,0.0,0.1643626568467892,0.0,-0.5201125335386105,-0.4310877414050476,-0.7463848786849523,0.2502138744716868,1.3652897630686087,-0.18219273352852283
16492,5.0,299.94511,5411.8102,0.0,0.0,0.0,0.0,0.164372623656373,0.0,-0.49270098739080154,-0.4034396925513976,-0.7489144879571054,0.26589342327663773,1.3508440590429287,-0.16657661417983183
16493,5.0,299.58016000000003,5349.8783,0.0,0.0,0.0,0.0,0.1643825904659568,0.0,-0.4213649582154836,-0.4515930457987636,-0.7532714127246003,0.24969142245512474,1.3546981584482987,-0.19810157069860282
16494,5.0,298.96112999999997,5457.6137,0.0,0.0,0.0,0.0,0.16439255727554064,0.0,-0.49600326065921047,-0.41598306004433167,-0.7469919573498663,0.25620247640521576,1.3101115063479387,-0.18431931244089983
16495,5.0,300.16895,5668.8715,0.0,0.0,0.0,0.0,0.16440252408512446,0.0,-0.5466172613769235,-0.4477187827164036,-0.7288593401853163,0.24012509521350175,1.3100322701901186,-0.1899951544660618
16496,5.0,300.43388,5711.9245,0.0,0.0,0.0,0.0,0.16441249089470827,0.0,-0.5554319292968635,-0.4852521198106555,-0.6955983620052133,0.2241090561828418,1.3299794156337488,-0.2071744654065278
16497,5.0,299.74496,5844.3424,0.0,0.0,0.0,0.0,0.16442245770429212,0.0,-0.5402333399168795,-0.4811475247155636,-0.7551532714728252,0.21401255595889482,1.3383923298890386,-0.2026694034744128
16498,5.0,300.47614,5855.1432,0.0,0.0,0.0,0.0,0.16443242451387594,0.0,-0.5209083502996514,-0.48384996405727354,-0.7750590256498703,0.2271848477888988,1.3433970761079685,-0.1948918983568328
16499,5.0,302.27616,5452.1331,0.0,0.0,0.0,0.0,0.16444239132345972,0.0,-0.44088556589701755,-0.4371476356156126,-0.7792791008588592,0.2315836501830268,1.3441701859342687,-0.17529585420535382
16500,5.0,300.89612,5272.0897,0.0,0.0,0.0,0.0,0.16445235813304354,0.0,-0.4751518097663326,-0.4018110652681646,-0.7256207294206902,0.2299855419928058,1.3324290490755089,-0.16983469961137984
