,case,Temp,Pressure,e11,e22,e33,e12,e23,e13,s11,s22,s33,s12,s23,s13
0,11.0,300.0,41.012954,0.0,0.0,0.0,0.0,0.0,0.0,-0.017653522119766982,0.021599066333411878,-0.016412457933533485,-0.00999669883812236,0.004177331456170516,-0.005640731389321845
1,11.0,300.49066,-77.78235699999999,0.0,0.0,1.0004420374132295e-05,0.0,0.0,0.0,-0.003241516867237807,0.020045928209129083,0.006839483467279463,-0.007279588445564442,0.0022775260221743177,-0.0027747966459261073
2,11.0,299.85697000000005,-14.268502999999999,0.0,0.0,2.000884074826459e-05,0.0,0.0,0.0,-0.017234428706155682,0.016321507591307384,0.005250189944978404,0.0025357028569293876,0.01059701942884439,0.012477340063417589
3,11.0,299.44106,114.44421000000001,0.0,0.0,3.0013261122396884e-05,0.0,0.0,0.0,0.0028545796548250773,0.003117871072109917,-0.04076063289501126,-0.001008279368586926,0.005261242578394215,0.0100986291637321
4,11.0,298.94099,194.98638,0.0,0.0,3.998477221900387e-05,0.0,0.0,0.0,-0.011321119361057489,-0.03349499133044827,-0.014454880018585588,0.019844979436046982,-0.007778024002956203,-0.003121714937689277
5,11.0,299.00757000000004,327.91112999999996,0.0,0.0,4.998919259335821e-05,0.0,0.0,0.0,-0.04080934185381846,-0.02888848786457177,-0.02997896687394367,0.012748307458159988,-0.002024814658458648,0.002234340998937288
6,11.0,299.73242,554.85581,0.0,0.0,5.9993612967490506e-05,0.0,0.0,0.0,-0.062288909523436735,-0.06823833414184924,-0.03813506782513817,0.013892998387632185,-0.0025482691846695875,-0.014916097278604186
7,11.0,299.98562999999996,478.00586,0.0,0.0,6.99980333416228e-05,0.0,0.0,0.0,-0.06597793224901494,-0.05113554384893525,-0.028188368522475374,0.005620302139480634,0.01949188913394968,0.011365259575163789
8,11.0,299.98,268.12461,0.0,0.0,8.00024537157551e-05,0.0,0.0,0.0,-0.03722814920388227,-0.016930766770436582,-0.02734426938091927,-0.0053207371792158755,0.007038354165731474,0.007843753131643162
9,11.0,300.12473,253.30521000000002,0.0,0.0,9.000687408966535e-05,0.0,0.0,0.0,0.01064662308748989,-0.031064255003053272,-0.05658082689334285,-0.002887233969772807,0.01109146723914259,0.011444496746233887
10,11.0,299.32021000000003,111.83693000000001,0.0,0.0,0.00010001129446401968,0.0,0.0,0.0,-0.008215825661113863,-0.00011827951114077887,-0.025661528462845678,-0.004003683693782817,0.005499418869425385,0.0023587303169885577
11,11.0,299.36364,114.80216000000001,0.0,0.0,0.00011001571483815198,0.0,0.0,0.0,-0.0016267653348492385,-0.015754154409813984,-0.017516069677451482,0.004453843659435146,-0.00027764931305685375,0.005717252847473925
12,11.0,299.35132999999996,317.42522,0.0,0.0,0.00011998722593475897,0.0,0.0,0.0,-0.045203808550768554,-0.03903894264309367,-0.012246590591644388,-0.0012662146749156588,-0.018272965475651284,-0.01203372093113579
13,11.0,299.18462,386.51021000000003,0.0,0.0,0.00012999164630889126,0.0,0.0,0.0,-0.060122435914872444,-0.03138865107556867,-0.025978364676364978,-0.014630089199377383,-0.015537418186923784,-0.006648982417303473
14,11.0,299.61588,349.95892000000003,0.0,0.0,0.0001399960666832456,0.0,0.0,0.0,-0.04038219107541196,-0.056178751015161045,-0.009817831621819541,0.004162568402213516,-0.0049330575584548755,-0.001087913257468679
15,11.0,300.34821,450.85937,0.0,0.0,0.0001500004870573779,0.0,0.0,0.0,-0.02105685796640008,-0.06102007316521235,-0.05497306040316865,-0.006265736171030014,0.02007071129332498,-0.005429997254724005
16,11.0,300.1767,410.2877,0.0,0.0,0.0001600049074315102,0.0,0.0,0.0,-0.04921822843996095,-0.037586791103277464,-0.037912197386142564,0.0038293666797040663,0.023602246582360376,0.009856952701555491
17,11.0,300.4685,293.13277,0.0,0.0,0.00017000932780542044,0.0,0.0,0.0,-0.02111377830401768,-0.038170197206105164,-0.02982106603136007,0.0014358321337055986,-0.003865973784616906,0.009054047749439941
18,11.0,299.82499,214.74462000000003,0.0,0.0,0.00018001374817977478,0.0,0.0,0.0,-0.030809340529645173,-0.02208017571939368,-0.012387486057799688,0.0012548495551690086,0.0014266784323021986,0.0029466847981901474
19,11.0,299.58979,179.46098,0.0,0.0,0.00019001816855412912,0.0,0.0,0.0,-0.037766474796510865,-1.4499434651982786e-05,-0.016770683387137587,-0.0003867977486689656,-0.003901788831926576,0.027264924805338576
20,11.0,299.47152,234.85204,0.0,0.0,0.00019998967965051406,0.0,0.0,0.0,-0.014668113435880087,-0.024272399052749277,-0.03244864341593177,-0.0047025181334274056,-0.003336917606553127,0.005451776964298495
21,11.0,299.36031,343.48292999999995,0.0,0.0,0.00020999410002464636,0.0,0.0,0.0,-0.029487793887968676,-0.022918164962846776,-0.05200427611367245,-0.01133402411433109,-0.002233896688768438,0.019882129237713382
22,11.0,299.17978,438.30489000000006,0.0,0.0,0.00021999852039877865,0.0,0.0,0.0,-0.05701430541862385,-0.043829603301395056,-0.03238983438012777,-0.004953704859717605,-0.007590727356421463,-0.01106276895656029
23,11.0,299.70803,462.72388,0.0,0.0,0.000230002940773133,0.0,0.0,0.0,-0.062288764628672444,-0.04451705904374166,-0.03385068061905207,0.009427477932719633,0.015481527311407787,0.008161431355995561
24,11.0,301.33391,368.76235,0.0,0.0,0.00024000736114704324,0.0,0.0,0.0,-0.06097317792408414,-0.03759130817222326,-0.013530061321063089,-0.009495952867852582,0.007737018987309322,-0.015955612847696386
25,11.0,301.0074,272.24676,0.0,0.0,0.0002500117815213976,0.0,0.0,0.0,-0.04634747812413995,-0.03172194348396207,-0.0046867937077755255,-0.00012086775719621887,-0.0015470029962523085,0.007970117476789352
26,11.0,300.10155,137.81003,0.0,0.0,0.0002600162018955299,0.0,0.0,0.0,-0.008699889177762212,-0.012085973225542689,-0.02110494478964588,-0.013743475096875388,-0.004297699387224906,0.0013851330503769886
27,11.0,299.73233,30.805187,0.0,0.0,0.00026998771299213686,0.0,0.0,0.0,0.007704140642764482,-0.004691402374530365,-0.012376745606739688,0.013160753951115286,0.007640659814724413,0.006555199027797774
28,11.0,299.72107,161.29891999999998,0.0,0.0,0.00027999213336626916,0.0,0.0,0.0,-0.016969590461268183,-0.02302843798447988,-0.009032815498894481,-0.002271814736660658,0.002964313019454917,0.007625136417892373
29,11.0,299.95984,381.25284,0.0,0.0,0.00028999655374040145,0.0,0.0,0.0,-0.03284453441550317,-0.03447181306285307,-0.04857499701147895,-0.006794372458252353,-0.006480200484545994,-0.003890688271781036
30,11.0,299.52965,355.04175,0.0,0.0,0.00030000097411453375,0.0,0.0,0.0,-0.05101974760100705,-0.03164953865831627,-0.025254539334928976,-0.008010052804305662,-0.01080385214525719,-0.0006030987705087144
31,11.0,299.96312,242.77056000000002,0.0,0.0,0.00031000539448866604,0.0,0.0,0.0,-0.02248266297711608,-0.017481303040020282,-0.03383222325523047,-0.008235572183037691,-0.006257653474982313,0.0017518979731738684
32,11.0,300.28717,308.98398,0.0,0.0,0.0003200098148630204,0.0,0.0,0.0,-0.018247031339341784,-0.03882059231279417,-0.03685579195113347,-0.006582303366647764,0.002320469790562538,0.005831735720622505
33,11.0,300.20262,281.59289,0.0,0.0,0.0003300142352371527,0.0,0.0,0.0,-0.022338353871373878,-0.03125578865620617,-0.03200306567120667,-0.006383697531771894,-0.002789862357687977,-0.01158687966353599
34,11.0,299.5274,278.02464,0.0,0.0,0.00034001865561128497,0.0,0.0,0.0,-0.039386703249664964,-0.021311102681492083,-0.023814741340331978,-7.190958344742333e-05,0.003654767272822447,0.0029672943052241473
35,11.0,299.57763,252.62127,0.0,0.0,0.0003499901667076699,0.0,0.0,0.0,-0.030678313106213766,-0.025350467774896374,-0.02076177724577788,0.016945255233616483,0.017510349880636985,-0.005108531096197765
36,11.0,299.12901,94.706816,0.0,0.0,0.00035999458708202425,0.0,0.0,0.0,-0.03018193201472477,0.002872698187813237,-0.0014792736105429386,0.005245404871381155,0.007236240897011374,0.014646126921960186
37,11.0,299.70902,98.05169000000001,0.0,0.0,0.00036999900745615655,0.0,0.0,0.0,0.005843476553506234,-0.015365228491429985,-0.02028351407932698,-0.007227026704577004,-0.006184879319675064,0.01218264640433359
38,11.0,299.7292,246.96937000000003,0.0,0.0,0.00038000342783028884,0.0,0.0,0.0,-0.006972738521055713,-0.019181663364082783,-0.048918118959092455,-0.01811571007338138,-0.006996979820423144,0.013265426739445687
39,11.0,299.29491,305.75243,0.0,0.0,0.0003900078482046432,0.0,0.0,0.0,-0.036212754053420566,-0.011416365883707591,-0.045311985157944754,0.011962181421075387,0.007974451552767091,0.027240936109221073
40,11.0,299.90213,216.38227999999998,0.0,0.0,0.00040001226857855343,0.0,0.0,0.0,-0.026946889916950975,-0.023010690908978376,-0.015817229228538985,0.0020984952673053577,0.014418657340760685,-0.002156011497306768
41,11.0,299.83926,194.22941,0.0,0.0,0.00041001668895290777,0.0,0.0,0.0,-0.023457220095547376,-0.01130693993915809,-0.024276730696926773,0.01062625574722979,-0.0014002906639229286,0.0029790087936052774
42,11.0,299.52992,265.1775,0.0,0.0,0.00042002110932704007,0.0,0.0,0.0,-0.05695314564258785,-0.0016405702595116783,-0.02201362342632548,-0.006997417544466343,-0.008134915208828622,-0.012337005937817688
43,11.0,299.85247000000004,259.54016,0.0,0.0,0.000429992620423425,0.0,0.0,0.0,-0.006621974945163044,-0.024259631088239177,-0.048012121382177454,0.004167165619242226,-0.007046429667703463,-0.008767474175332331
44,11.0,300.84587,217.90028999999998,0.0,0.0,0.00043999704079777935,0.0,0.0,0.0,-0.012422476623502989,-0.012913253428688888,-0.040900518150816856,0.0051261468544863045,0.0001104201050176159,0.001174407832380029
45,11.0,300.22412,134.28384,0.0,0.0,0.00045000146117191164,0.0,0.0,0.0,-0.0073879601033848925,-0.013358307323112287,-0.02007266686601798,-0.008350079576838691,-0.00986264868699264,-0.004529288944656016
46,11.0,300.13414,133.86141,0.0,0.0,0.000460005881546266,0.0,0.0,0.0,-0.018047807117929884,-0.025258485944068473,0.002615767042731107,-0.008231849299520273,-0.0010828571394696789,-0.005516193832780944
47,11.0,300.20699,223.8478,0.0,0.0,0.0004700103019203983,0.0,0.0,0.0,-0.03121324228450717,-0.022706292340436578,-0.014124606082240088,-0.016430082405772883,0.0007779816239733084,-0.014160096180242686
48,11.0,300.17803,301.38779,0.0,0.0,0.0004800147222943085,0.0,0.0,0.0,-0.05955614157973353,-0.01958949855583298,-0.01246872237131709,0.0048103765800722054,0.013481428356013386,0.014065518402658588
49,11.0,299.84132,204.18867,0.0,0.0,0.0004900191426684408,0.0,0.0,0.0,0.008491741971994681,-0.035296028184446764,-0.035263970977782964,-0.006551910423273214,-0.006905158387086073,-0.010936448079843389
50,11.0,299.88471,78.208179,0.0,0.0,0.0004999906537650478,0.0,0.0,0.0,-0.005244246625191845,-0.002381621359272728,-0.016147465674630785,-0.0028778139862431274,0.005663196359938965,0.017599067019642683
51,11.0,299.78403,263.76729,0.0,0.0,0.0005099950741394021,0.0,0.0,0.0,-0.03316564958419477,-0.01888255801406338,-0.028130464319010676,0.016247453194498787,-0.0063618971518953635,-0.0007029593706691883
52,11.0,299.81922000000003,344.71612000000005,0.0,0.0,0.0005199994945135344,0.0,0.0,0.0,-0.06537157603142224,-0.002265181393555998,-0.03714833549350526,0.005258316008130385,-0.01153219962188949,0.00978397032335269
53,11.0,299.48149,171.63917,0.0,0.0,0.0005300039148876667,0.0,0.0,0.0,-0.03593982703298476,-0.018167943116036384,0.0019337492110211882,0.01022109857549389,-0.01223928201867309,-0.017796626471140282
54,11.0,299.82601,84.43132299999999,0.0,0.0,0.0005400083352620211,0.0,0.0,0.0,-0.032100946644116765,-0.0024816101963658576,0.008917542695967942,-0.002339448066260548,-0.007333390708649313,-0.003274899607682427
55,11.0,300.42341,223.15382999999997,0.0,0.0,0.0005500127556359313,0.0,0.0,0.0,-0.004708276433745706,-0.031123090383359867,-0.03200182646633437,-0.0001308338521322959,0.015205562567172185,-0.004597136070027006
56,11.0,300.50875,143.59778,0.0,0.0,0.0005600171760100636,0.0,0.0,0.0,-0.02395102550528218,-0.018494997956814183,-0.0012041158186869788,-0.007216858841148513,0.0069378149311840245,0.005847949850047714
57,11.0,299.86875,92.52682800000001,0.0,0.0,0.0005700215963841959,0.0,0.0,0.0,-0.02055758404587558,-0.008803712558533782,0.001235451388629559,0.006863723550746773,0.0011978885862223988,0.011860340666774489
58,11.0,299.78542000000004,106.99837,0.0,0.0,0.000579993107481025,0.0,0.0,0.0,-0.02080098698489758,-0.01975831210199358,0.008034467876065243,0.0024583357402438474,0.003806207632768447,-0.0004708844157776736
59,11.0,300.12646,47.604929999999996,0.0,0.0,0.0005899975278551572,0.0,0.0,0.0,-0.026741736155953873,-0.004961278498915066,0.017232303920695986,0.006163700264759854,0.002252187372948588,-0.007885952465182913
60,11.0,299.67952,285.09864,0.0,0.0,0.0006000019482292895,0.0,0.0,0.0,-0.03133414125993897,-0.01963697337601838,-0.03569175301100177,-0.016296417492331187,-0.00038638394746062663,-0.0006077223421725254
61,11.0,299.14681,458.34317000000004,0.0,0.0,0.0006100063686034218,0.0,0.0,0.0,-0.036101303635171264,-0.04516649358933586,-0.05805708263978794,-0.017559092276697483,-0.011646807327450388,-0.016045140586782088
62,11.0,298.96732000000003,299.15007,0.0,0.0,0.0006200107889775541,0.0,0.0,0.0,-0.03350330808726907,-0.026572270076728872,-0.03085857333875407,-0.016552620819866484,-0.004288503027992296,0.007788035015269212
63,11.0,299.42669,92.331572,0.0,0.0,0.0006300152093516864,0.0,0.0,0.0,-0.009250261908779771,-0.017042714694484984,-0.001773515258757328,0.006341857699367624,-0.004928855914265205,-0.009093821260915283
64,11.0,300.21075,232.29355,0.0,0.0,0.0006400196297258187,0.0,0.0,0.0,-0.03678908463079996,-0.02188057862194498,-0.011941774564061388,0.0077995566821563115,-0.00846787375131407,0.017275809840239683
65,11.0,300.00883,269.11087000000003,0.0,0.0,0.000650024050099951,0.0,0.0,0.0,-0.05078608807494665,-0.015905449874995686,-0.015111446831633686,0.007116327509951843,-0.01136023993416839,-0.007817250258052534
66,11.0,299.17609,78.804781,0.0,0.0,0.000659995561196558,0.0,0.0,0.0,-0.00835223263197618,-0.01022915796678929,-0.005373295069852934,0.0012282994641237188,0.0007739592237263282,0.009213770010403303
67,11.0,300.33315,75.311132,0.0,0.0,0.0006699999815709123,0.0,0.0,0.0,-9.458856059166411e-05,-0.01093248323220209,-0.011865631858796688,0.0007830389173424243,0.016144458348333987,-0.003986336548095786
68,11.0,299.90252999999996,123.68966,0.0,0.0,0.0006800044019450446,0.0,0.0,0.0,-0.026725572790358677,0.0015607751929365185,-0.012433769295867488,-0.01929117644814088,0.016956831616008982,0.03742689314474676
69,11.0,299.84537,275.56212999999997,0.0,0.0,0.0006900088223191769,0.0,0.0,0.0,-0.02761386990127677,-0.03544073853722857,-0.02070940032160868,-0.016150349384415383,-0.0004294010244935816,6.460277251804723e-06
70,11.0,300.32327999999995,429.89504000000005,0.0,0.0,0.0007000132426933092,0.0,0.0,0.0,-0.05671714348229625,-0.03490616804947057,-0.03905404716233436,-0.004584944442173786,-0.004393068817112136,0.013615511741746387
71,11.0,299.78683,255.88262000000003,0.0,0.0,0.0007100176630672195,0.0,0.0,0.0,-0.024366697173305776,-0.03539545132400907,-0.018019777580413582,0.0077537413629846915,0.0005682494417368535,0.001206218413969489
72,11.0,299.33941,82.291816,0.0,0.0,0.0007200220834415738,0.0,0.0,0.0,0.014207814180452088,-0.011681522289126488,-0.027540949331330077,0.02114328819993008,0.002144295185075458,-0.0016233290997851083
73,11.0,300.2224,246.71977,0.0,0.0,0.0007300265038157061,0.0,0.0,0.0,-0.024754355515814678,-0.009037392248271173,-0.041204901520607164,-0.0033877948192493172,-0.0025801542401413975,0.003966330228846317
74,11.0,299.39669,307.68869,0.0,0.0,0.0007399980149123131,0.0,0.0,0.0,-0.04236300078865266,-0.022021800354632477,-0.029144876616875374,0.0036300831831613165,0.005470856463681495,0.013800972987049989
75,11.0,299.96472,51.840740999999994,0.0,0.0,0.0007500024352864454,0.0,0.0,0.0,-0.018490457583116085,-0.0032944664803635274,0.006026633161457385,-0.005254435057597364,0.007936069638979092,0.014586349219060588
76,11.0,300.35376,-5.037619599999999,0.0,0.0,0.0007600068556607997,0.0,0.0,0.0,-0.016650870615812986,0.0007132103510033813,0.01746897077305318,-0.0015401923343801485,0.0037638094995590763,0.02105485173120208
77,11.0,299.47647,257.49032,0.0,0.0,0.000770011276034932,0.0,0.0,0.0,-0.03368238585694267,-0.03941104050381686,-0.005177202297875085,-0.013972877959265686,-0.014207236627895088,0.0035104059847000965
78,11.0,300.31846,456.5349,0.0,0.0,0.0007800156964090643,0.0,0.0,0.0,-0.03873266956186686,-0.04329592548697516,-0.05674661588795494,-0.013768157869311386,-0.010929989623705989,-0.0026882205043817077
79,11.0,300.8871,293.96072000000004,0.0,0.0,0.0007900201167829746,0.0,0.0,0.0,-0.026434185366350976,-0.02875241445564237,-0.03417011784557807,-0.0067047615313334434,0.001125476870475919,0.009281049107768231
80,11.0,300.39707999999996,142.6021,0.0,0.0,0.0008000245371573289,0.0,0.0,0.0,-0.012702600759399088,-0.017606002716577186,-0.01303887516283679,0.004659157412623035,0.0046393500956932055,-0.0008610420207182311
81,11.0,300.30708,152.62788,0.0,0.0,0.0008099960482539359,0.0,0.0,0.0,-0.017412073740187883,-0.01325090787876279,-0.015732081769635586,0.0041446781544728865,0.002195360254340188,0.006972381147745443
82,11.0,299.85735,155.71643,0.0,0.0,0.0008200004686280682,0.0,0.0,0.0,-0.03245015822483127,-0.018332913404567684,0.003449165655281147,0.014624846643359987,0.0017662183381621781,-0.006922185447066514
83,11.0,299.84652,270.56622999999996,0.0,0.0,0.0008300048890022005,0.0,0.0,0.0,-0.015948262731470986,-0.02269533404060508,-0.04360178009591066,0.001142516596082609,0.007465074616820502,-0.0008751166725572911
84,11.0,299.98992000000004,80.776748,0.0,0.0,0.0008400093093763328,0.0,0.0,0.0,0.002174633007644568,-0.014785840938498886,-0.011942906364423089,-0.0076134567853146816,-0.008313470546750662,-0.004245328238581276
85,11.0,299.87426,-66.970642,0.0,0.0,0.0008500137297506871,0.0,0.0,0.0,0.012863902069318289,-0.010956312848053889,0.01844981409510488,-0.007713586058871674,-0.00952897823498693,0.0008939324026742591
86,11.0,299.94479,100.70933000000001,0.0,0.0,0.0008600181501245974,0.0,0.0,0.0,-0.025327516646881272,-0.005178838291486545,-0.0001067657678694609,-0.008700592272006601,0.003504744247116327,0.002864515382655657
87,11.0,300.01817,314.03712,0.0,0.0,0.0008700225704989517,0.0,0.0,0.0,-0.05671957325603604,-0.034623500655823466,-0.004116368757278966,0.0014613578288997888,-0.002892557687123217,0.017696375506246285
88,11.0,299.59157000000005,292.74003,0.0,0.0,0.000880026990873084,0.0,0.0,0.0,-0.04606990332549546,-0.02945017799125627,-0.013465578084699089,0.012945783823149388,-0.006729250874325354,0.017175052250295683
89,11.0,299.80102999999997,236.79007000000001,0.0,0.0,0.000889998501969691,0.0,0.0,0.0,-0.017773408858348883,-0.02903005815529367,-0.025174802631559575,0.009970112878023532,-0.00989191793600629,0.001929426584769578
90,11.0,300.1257,230.2046,0.0,0.0,0.0009000029223438233,0.0,0.0,0.0,-0.012867723035445386,-0.03506403241505057,-0.02204469474064198,0.02135505139132948,-0.0037622651037566564,-0.002937643668872857
91,11.0,299.94367,123.91637,0.0,0.0,0.0009100073427179556,0.0,0.0,0.0,-0.014210957282262286,0.003026016302844557,-0.026482541714123377,0.0013667220934099687,0.00924293398273156,0.017211561677898883
92,11.0,300.37152000000003,90.647138,0.0,0.0,0.0009200117630920879,0.0,0.0,0.0,-0.00927095298244682,-0.008092807574422923,-0.01019070613874439,0.001187559514702999,-0.0031055000989889973,0.014859378577756488
93,11.0,300.96297000000004,-15.922269,0.0,0.0,0.0009300161834662202,0.0,0.0,0.0,-0.014788169387228685,0.0067073047890844435,0.012920836592437288,-0.0013332354948300989,-0.013099627612332588,0.011651057911619888
94,11.0,300.49437,-193.28849,0.0,0.0,0.0009400206038405745,0.0,0.0,0.0,0.014144231723426987,0.025452312582197677,0.019158331254030082,0.0033999754026764473,-0.005781583488372865,-0.005199220222548085
95,11.0,300.06989,-18.898948999999998,0.0,0.0,0.0009500250242147068,0.0,0.0,0.0,0.01147078248032809,-0.019348784782576383,0.013622811195466789,0.007388701194508033,0.002195636972942498,-0.00976376398853348
96,11.0,299.45812,313.19197,0.0,0.0,0.0009600294445888391,0.0,0.0,0.0,-0.03708095132210497,-0.043466956024354554,-0.014654630116799386,-0.011802483072814387,-0.0016990457333827583,-0.01144255333254209
97,11.0,299.41979,380.69903999999997,0.0,0.0,0.000970000955685224,0.0,0.0,0.0,-0.05479445886104204,-0.04368331227845726,-0.01724523197872188,-0.013375105996520186,-0.00025181649162485273,-0.002265605236072828
98,11.0,299.77642000000003,229.18083,0.0,0.0,0.0009800053760595784,0.0,0.0,0.0,-0.03412589251846337,-0.04157332330996756,0.006033965951106074,-0.007035230315673174,0.006815411482003743,-0.006196950573416404
99,11.0,300.22746,72.135715,0.0,0.0,0.0009900097964337107,0.0,0.0,0.0,-0.029390154068582374,0.003698699973308266,0.003763998065402686,0.0009521276520976832,0.014807806174166686,0.003960304835801657
100,11.0,299.48762,85.862936,0.0,0.0,0.001000014216807843,0.0,0.0,0.0,-0.003000205580397237,-0.016671944191392785,-0.0064280386733730245,0.005265103263925235,-0.006791539714947784,0.005652021832536124
101,11.0,299.92065,108.51411,0.0,0.0,0.0010100186371821973,0.0,0.0,0.0,-0.00034374956485794066,-0.012738578230699788,-0.019903252462548083,-0.00986319766589682,-0.009176717784721532,-0.0009398715410080991
102,11.0,299.76333999999997,-18.065695,0.0,0.0,0.0010200230575561076,0.0,0.0,0.0,0.015532521149190485,-0.0026355346402570172,-0.0074054659240375825,0.0017646438488317885,-0.004720180703870566,-0.004142363080644406
103,11.0,300.24848,-41.829751,0.0,0.0,0.001030027477930462,0.0,0.0,0.0,-0.007735613508095612,0.008577898931972711,0.011872914087265388,0.004847033942190005,0.013591960769672088,0.00995740915356977
104,11.0,299.52156,135.56093,0.0,0.0,0.0010399989890268468,0.0,0.0,0.0,-0.03220028061767027,-0.00967609718458144,0.0006692406060939054,0.006012157667878764,0.016285773300030684,0.01009261106608816
105,11.0,300.0336,296.10053,0.0,0.0,0.0010500034094009791,0.0,0.0,0.0,-0.04871056176885816,-0.02863077276788727,-0.012665831939770288,0.002146373361030558,0.010625694406674388,-0.00011792875435366188
106,11.0,300.53726,417.91037,0.0,0.0,0.0010600078297753335,0.0,0.0,0.0,-0.05299292146149415,-0.04741434030018105,-0.026627055496385773,0.0027244235251546673,0.0007834355844915723,0.006489239384713064
107,11.0,300.71982,315.2344,0.0,0.0,0.0010700122501494658,0.0,0.0,0.0,-0.031385053024463566,-0.029659822476696573,-0.03477851170912186,0.0001265644620409399,0.004221740992153396,0.015860699684329183
108,11.0,300.0155,106.3665,0.0,0.0,0.0010800166705238201,0.0,0.0,0.0,-0.012147643679629089,-0.013170747636851589,-0.007014369117314333,-0.004978917460630896,-0.017164448587999183,0.006289717875721823
109,11.0,300.25437999999997,96.36048000000001,0.0,0.0,0.0010900210908979524,0.0,0.0,0.0,-0.020571412883240377,-0.01276876092467859,0.004048993097179506,-0.02045240868549558,-0.0077931265970217125,0.02000057209490278
110,11.0,299.54976,126.18203000000001,0.0,0.0,0.0011000255112718627,0.0,0.0,0.0,-0.03411972486510467,-0.009861224361327069,0.005624761351845725,-0.011886965839652189,-0.005105453754319055,0.010801992831323689
111,11.0,299.80118999999996,19.409825,0.0,0.0,0.001110029931645995,0.0,0.0,0.0,-0.007314328839818054,-0.00983302125406864,0.011247247349266888,0.0025681845140600773,0.011139121404595689,0.002995563881689137
112,11.0,299.64677,-81.30461899999999,0.0,0.0,0.001120001442742602,0.0,0.0,0.0,0.019321603335393782,0.0023671231688918676,0.003025847698027917,0.005592535033740235,-0.00846657050903545,-0.0044302717130837764
113,11.0,300.3003,119.08164,0.0,0.0,0.0011300058631169563,0.0,0.0,0.0,0.01278971696324679,-0.027385413414479875,-0.02160214965346618,0.008768808321739003,-0.005063697211073005,-0.01038257720418059
114,11.0,300.00891,234.10596,0.0,0.0,0.0011400102834910886,0.0,0.0,0.0,-0.017697385716595983,-0.03175130341885967,-0.02171367505222288,0.014586607597836088,-0.00032462939361592674,-0.016086069811321484
115,11.0,300.43163,267.91161,0.0,0.0,0.0011500147038652209,0.0,0.0,0.0,-0.03637631997731326,-0.03137136198911237,-0.013690757720672589,-0.0071944215322591225,0.013101383574755888,0.0033949252628530362
116,11.0,300.56359,208.01313000000002,0.0,0.0,0.0011600191242395752,0.0,0.0,0.0,-0.04373668624072487,-0.016633737569872086,-0.002860372608296797,-0.013613472069295087,-0.002410447412692638,0.01020372944227969
117,11.0,301.11919,139.98433,0.0,0.0,0.0011700235446134855,0.0,0.0,0.0,-0.026352056379495472,-0.016377514990584884,0.00017782912131036785,-0.027306018176394175,-0.006949927728179463,0.02240978395042348
118,11.0,300.90581000000003,134.86441000000002,0.0,0.0,0.0011800279649876178,0.0,0.0,0.0,-0.00990731548717591,-0.02294153456315318,-0.008146563126678183,-0.009103042039475302,-0.003878820782634806,-0.0006032957665931565
119,11.0,300.79201,246.64692000000002,0.0,0.0,0.00119003238536175,0.0,0.0,0.0,-0.03128707984579437,-0.006926896452081453,-0.03676052921648176,0.004918525930820715,0.008248266990890572,0.023820624270412576
120,11.0,299.48703,104.92568,0.0,0.0,0.001200003896458579,0.0,0.0,0.0,-0.01050879574263739,-0.01031915686717149,-0.011066833102711388,0.005716387025263474,-0.008244914956909752,0.0029104591819399577
121,11.0,300.39589,-2.8183407000000003,0.0,0.0,0.0012100083168327114,0.0,0.0,0.0,-0.01031835133334199,3.4627386469956974e-05,0.01114042849722469,0.014650614606653088,-0.002091001168240748,0.012945341032855688
122,11.0,300.60296,132.02722,0.0,0.0,0.0012200127372068437,0.0,0.0,0.0,-0.02972629370975677,-0.01047987049203269,7.318633835517923e-05,0.015447146722264686,0.001811314655062838,0.004022480496387916
123,11.0,300.19903999999997,299.96121,0.0,0.0,0.001230017157580976,0.0,0.0,0.0,-0.039376698418177564,-0.028387728519400673,-0.02341629188425808,0.01932220013970268,0.01172836281474929,0.016890927803004784
124,11.0,300.13484,263.15697,0.0,0.0,0.0012400215779551083,0.0,0.0,0.0,-0.016251718977419786,-0.026140579937874376,-0.03760084893516486,-0.004366518118116785,-0.004641614507016685,0.006592291276858494
125,11.0,299.89342,119.89393000000001,0.0,0.0,0.0012500259983292406,0.0,0.0,0.0,-0.007953793916353341,-0.015670083022516785,-0.012820884536322788,-0.013970316463012885,0.003096271417078197,0.006387698653766774
126,11.0,299.36232,85.40791899999999,0.0,0.0,0.0012600304187033728,0.0,0.0,0.0,-0.006612512810429203,-0.029249611213461868,0.00990024908097851,-0.005016239616139305,-0.006922239554621853,-0.007258877512195433
127,11.0,299.31593,131.94799,0.0,0.0,0.0012700019297999798,0.0,0.0,0.0,-0.03096525540203277,-0.008424908805998763,-0.0007187290582030353,-0.0074967536785469835,-0.0036560173194708167,0.00969232742468324
128,11.0,299.33153,66.89399999999999,0.0,0.0,0.0012800063501741121,0.0,0.0,0.0,-0.03262827543341007,0.004075341956754936,0.008218827515860122,-0.004051036316006156,-0.021974371130701578,0.015239014005973588
129,11.0,299.67821000000004,36.20705,0.0,0.0,0.0012900107705484665,0.0,0.0,0.0,-0.00987498227118487,-0.0031009622584161475,0.001969905520964538,-0.0033867162145178667,-0.017338702273946682,0.005724361506200495
130,11.0,299.92316,40.891484000000005,0.0,0.0,0.0013000151909225988,0.0,0.0,0.0,0.02451193948239008,-0.015366661227071384,-0.02157526812831318,0.012191231672430887,0.01203806777406479,0.01041835911821199
131,11.0,300.13666,80.921737,0.0,0.0,0.001310019611296731,0.0,0.0,0.0,-0.003143149736929727,-0.017679057035537085,-0.003775981065060317,0.009523589264330081,0.018697028881003084,-0.006687305562585674
132,11.0,300.25174,206.46729,0.0,0.0,0.0013200240316708634,0.0,0.0,0.0,-0.017267058399125984,-0.02242637186781058,-0.02306746939158198,-0.002770624487314347,0.013769215702415787,0.0010000730560270259
133,11.0,300.36742000000004,231.9582,0.0,0.0,0.0013300284520447736,0.0,0.0,0.0,-0.04446172241603036,-0.02863495749080027,0.0025871783938096276,-0.005963735256199844,0.004919961706212415,-0.008521482584954852
134,11.0,300.44652,78.65807,0.0,0.0,0.001340032872419128,0.0,0.0,0.0,-0.02188330426471398,-0.016387052713776183,0.014360267790498088,0.003175423475139897,0.0004503731433408686,-0.002335769867072538
135,11.0,300.34668999999997,-44.546299,0.0,0.0,0.001350004383515735,0.0,0.0,0.0,-0.006681888018276003,0.009396380881850592,0.010826469913989388,0.012938136824644687,-0.005521119444167064,0.014814695261596587
136,11.0,299.70841,-14.578054999999999,0.0,0.0,0.0013600088038898672,0.0,0.0,0.0,0.0035438229729980964,-0.0041468835946405465,0.005034425226284086,-0.008397050609074372,-0.014711512964163285,0.0032838007058358975
137,11.0,300.12096,66.037939,0.0,0.0,0.0013700132242639995,0.0,0.0,0.0,-0.02428287403228308,0.006080595518058054,-0.0018716065823881883,-0.003525601493799777,0.006006263997347105,0.006431571471171683
138,11.0,299.55348,151.18112,0.0,0.0,0.0013800176446383539,0.0,0.0,0.0,-0.03209894952816967,-0.011165822571230888,-0.0026905120708078673,-0.0100862381282592,0.015495231519010284,-0.008531280916071872
139,11.0,299.72494,49.245627,0.0,0.0,0.0013900220650124862,0.0,0.0,0.0,-0.03176017442348517,-0.01023448867556539,0.027025221242431677,-0.0022549553695717676,0.013133978817222789,0.006240984598912223
140,11.0,299.57391,-48.226983000000004,0.0,0.0,0.0014000264853863964,0.0,0.0,0.0,-0.015889693835940685,0.01163402517743889,0.018915467364061283,-0.014270864681174686,-0.017890364264391483,0.007385985988215062
141,11.0,300.10564,88.607908,0.0,0.0,0.0014100309057605287,0.0,0.0,0.0,-0.013183675694877488,-0.004795134157492896,-0.008955782045466872,-0.0011780261484871288,-0.01735750312955218,0.007133092138156384
142,11.0,300.7984,175.19988,0.0,0.0,0.001420035326134883,0.0,0.0,0.0,-0.003881650688839096,-0.022173452483849377,-0.027201284593057776,0.016456067204587383,-0.007716956939304353,-0.006014643980974144
143,11.0,300.65055,26.250195,0.0,0.0,0.00143000683723149,0.0,0.0,0.0,0.012426760644925788,-0.006413519610040104,-0.013992645455466588,0.01915207240816238,0.01028697300424519,-0.001048863003914719
144,11.0,300.29122,-83.605064,0.0,0.0,0.0014400112576056223,0.0,0.0,0.0,0.014779170713090586,-0.0028905807348531074,0.013525261555339386,0.01018717698864609,0.004742253951999026,-0.00031931004337344763
145,11.0,299.99913,-42.149864,0.0,0.0,0.0014500156779797546,0.0,0.0,0.0,-0.01831688682773598,-0.0005525779178726945,0.031681970767517074,-0.00964952855105932,0.0009535218741027822,-0.0026444783962396978
146,11.0,299.63721,30.532085,0.0,0.0,0.001460020098353887,0.0,0.0,0.0,-0.02170734831859848,0.0066678830780438235,0.005758473178767055,-0.01189598781854259,0.006990246672183634,0.007407489485812294
147,11.0,300.04047,95.181914,0.0,0.0,0.0014700245187282412,0.0,0.0,0.0,-0.010223113929942792,-0.009536869629415752,-0.009172942009548893,-0.012088516483293687,-0.0030243326864783974,0.007053025621879433
148,11.0,299.97434,-24.940829,0.0,0.0,0.0014800289391021515,0.0,0.0,0.0,0.011994404800755589,0.012233538917106289,-0.016646553157136885,-0.011403059883394387,-0.015182902241935785,0.0002236597709560008
149,11.0,299.6937,-6.802404400000001,0.0,0.0,0.0014900333594765058,0.0,0.0,0.0,0.00967047871277694,-0.005477178840330464,-0.002125538811149348,-0.01140393026523029,-0.008024970885527961,-0.001942331945993238
150,11.0,299.65958,118.32305,0.0,0.0,0.0015000377798506381,0.0,0.0,0.0,-0.036195260290444065,0.002082638004565368,-0.0018546305902127885,0.008189012429017602,0.0057497720961833245,-0.01001621535227349
151,11.0,299.16485,220.28724,0.0,0.0,0.0015100092909472451,0.0,0.0,0.0,-0.05528624486332755,-0.004847873217247836,-0.006827700685841593,0.008244921137735362,0.0036260186317101763,0.02027852686233478
152,11.0,300.1394,83.249114,0.0,0.0,0.0015200137113213774,0.0,0.0,0.0,-0.02180750201148288,-0.004535047751599366,0.001036897634808829,-0.0036563466257533168,-0.003470683743679817,0.004802147672035076
153,11.0,299.81466,-106.41353000000001,0.0,0.0,0.0015300181316955097,0.0,0.0,0.0,0.01017932936662159,0.020549773914104782,0.0016179522881294584,0.014179919405199089,-0.002043505475103288,0.02118516683981318
154,11.0,299.592,-48.773540000000004,0.0,0.0,0.001540022552069642,0.0,0.0,0.0,0.024788052161140276,-0.000946666092203669,-0.009015447480255392,0.01241977732523659,0.010916481986622888,0.0005278826419304604
155,11.0,299.76519,88.931774,0.0,0.0,0.0015500269724437743,0.0,0.0,0.0,-0.008764309187319972,-0.011773701703723887,-0.006495027373259295,0.019491280170639582,0.010247531230852591,0.016183111813148784
156,11.0,300.14955,-12.686222,0.0,0.0,0.0015600313928181286,0.0,0.0,0.0,-0.01106891229191659,0.001967872434638888,0.012957334874289387,-0.004884216978459685,-0.0031451780609799067,-0.0017152891457358583
157,11.0,299.99315,-96.417111,0.0,0.0,0.001570035813192261,0.0,0.0,0.0,-0.017869027243785682,0.005146452589140325,0.042030968863383665,-0.009693456185294642,-0.002027839412657168,-0.004885886814624485
158,11.0,299.80951,-46.069573999999996,0.0,0.0,0.0015800073242886459,0.0,0.0,0.0,0.006545248709165754,-0.009649754708481641,0.017108506036728085,-0.017887025605311985,0.011665730786317989,-0.009009964479989262
159,11.0,299.41857000000005,12.26506,0.0,0.0,0.0015900117446627782,0.0,0.0,0.0,-0.008544372411338902,0.006689714767348444,-0.001873614540111358,-0.016078487660823187,-0.010747997746744791,-0.0060434306189651645
160,11.0,300.72666,182.17771000000002,0.0,0.0,0.0016000161650371325,0.0,0.0,0.0,0.007695958749531992,-0.035900514955604965,-0.027172917643258177,-0.0035129954466556566,-0.008561693719148382,-0.005291164664447295
161,11.0,300.37502,65.666432,0.0,0.0,0.0016100205854112648,0.0,0.0,0.0,-0.007244257630477563,-0.0018843277347436681,-0.01083237006932169,0.0024267341921500175,-0.007206206137547174,-0.007028053971839925
162,11.0,300.131,-102.59303,0.0,0.0,0.001620025005785397,0.0,0.0,0.0,-0.00952645980186338,0.007096775532047213,0.03361540495908217,0.007002157629759154,0.0028830217877820973,0.009152397451846301
163,11.0,299.88403,5.0126573,0.0,0.0,0.0016300294261597514,0.0,0.0,0.0,-0.027838900589485575,-0.00024286783151168873,0.026558045058574977,0.006017469327552984,-0.007728190741838043,0.006873237158585693
164,11.0,299.68214,153.77793,0.0,0.0,0.0016400338465336617,0.0,0.0,0.0,-0.02323831045119268,-0.01140812816039459,-0.01209821328675069,-0.006771393161884473,-0.0026439159411091877,0.02006207536272268
165,11.0,299.24817,149.20751,0.0,0.0,0.001650038266908016,0.0,0.0,0.0,-0.009007251604171523,-0.03324343375462147,-0.0031046728816073567,0.02252979633201778,0.002156560374885938,0.00971134298798493
166,11.0,299.59467,114.26636,0.0,0.0,0.001660009778004401,0.0,0.0,0.0,-0.0008315648933140652,-0.014229612229853385,-0.019672943754568382,0.009622858085902151,0.0097712125926686,0.016503966576564687
167,11.0,299.25264,87.410997,0.0,0.0,0.0016700141983785333,0.0,0.0,0.0,-0.02840767536086927,-0.01045875030694829,0.01229566533373769,0.011741119633508289,0.005203522786447715,0.004882238202339395
168,11.0,300.01685,82.45003,0.0,0.0,0.0016800186187528876,0.0,0.0,0.0,-0.03081424567337927,-0.003696857276676406,0.00944835270862981,-0.014541233245107985,-0.001960976963733358,0.01186711019069259
169,11.0,300.13673,89.512253,0.0,0.0,0.001690023039127242,0.0,0.0,0.0,-0.04126855895813966,-0.003908201894459497,0.017967270960231582,-0.002841396865724037,0.013629446970371687,0.008615360308044863
170,11.0,300.11012,-31.995433000000002,0.0,0.0,0.0017000274595013742,0.0,0.0,0.0,0.013801003384552986,-0.0049793648105500455,0.0009041743245525582,-0.02308499253881138,0.01076859205502729,0.001096272976093719
171,11.0,300.03382,-91.31658399999999,0.0,0.0,0.0017100318798752845,0.0,0.0,0.0,0.0005708356815570954,0.02075428730103868,0.006432838641746744,-0.006577846180782874,-0.00982650990627602,0.01027058469712779
172,11.0,300.251,17.733918,0.0,0.0,0.0017200363002494168,0.0,0.0,0.0,0.01039324166148309,-0.0076746049089745335,-0.008109305312551123,-0.003341812719111237,-0.009247526032184763,0.0032930624196999573
173,11.0,300.10972999999996,84.575998,0.0,0.0,0.001730040720623549,0.0,0.0,0.0,-0.02656242533875727,-0.01159772650585649,0.012451160720583887,0.02500814730811198,-0.011648064770824489,0.004099061736295897
174,11.0,299.48156,157.74878999999999,0.0,0.0,0.001740012231720156,0.0,0.0,0.0,-0.03044049824149327,-0.02097076717165358,0.003459572848383257,0.02062049775783468,0.0045056992664278955,0.006379173978025453
175,11.0,299.30287999999996,124.82348,0.0,0.0,0.0017500166520945104,0.0,0.0,0.0,-0.03737213609609266,-0.016804589775233882,0.016233505806872287,0.00896231609006173,-0.01802231171891368,0.02096156483424538
176,11.0,299.4175,35.664193,0.0,0.0,0.0017600210724686427,0.0,0.0,0.0,0.003001494839824477,-0.017023203550559383,0.003180684573634127,-0.0018621849776583482,-0.01051396230489729,0.00013651727326820587
177,11.0,299.62194,15.072761999999999,0.0,0.0,0.001770025492842775,0.0,0.0,0.0,0.0033017388803062565,-0.013820983663274887,0.005937501197860744,0.0025296625691082577,-0.002239205410017368,0.013911952244002788
178,11.0,300.01621,48.022327000000004,0.0,0.0,0.0017800299132171293,0.0,0.0,0.0,0.009040778023480321,-0.026087790620914476,0.0024494245095893776,0.0027600161640673874,0.013477827265157989,0.004449828554588886
179,11.0,300.16705,-2.0500936999999997,0.0,0.0,0.0017900343335910396,0.0,0.0,0.0,-0.022994966280676477,-0.0024800835324401875,0.02609822709694448,-0.013083486538239588,-0.008687848828148922,0.011181260449754489
180,11.0,300.1371,-54.050233,0.0,0.0,0.0018000387539651719,0.0,0.0,0.0,-0.025226485479410275,0.0038616820624933464,0.03779472522254897,-0.023401379882536377,-0.012968862620677087,-0.01057135785681179
181,11.0,299.97622,53.1974,0.0,0.0,0.0018100102650617789,0.0,0.0,0.0,-0.014672162383279685,-0.010490425518324391,0.008991906235382052,-0.006806722254446182,-0.0017204704001222081,-0.007614417954359543
182,11.0,300.28517,83.809903,0.0,0.0,0.0018200146854361332,0.0,0.0,0.0,-0.003847985352941587,-0.01059663743355669,-0.01103149499222379,-0.008868108148764133,0.015936002405260986,0.002135121522645088
183,11.0,300.12945,126.20318999999999,0.0,0.0,0.0018300191058102655,0.0,0.0,0.0,-0.0034253447533802066,-0.024724626757880678,-0.01021264604315969,0.0012703435677481488,-0.004577356516149916,0.01015493841021439
184,11.0,300.63386,137.00978999999998,0.0,0.0,0.0018400235261843978,0.0,0.0,0.0,-0.015965270134399485,0.001010693224167655,-0.02669297653464168,0.007002473966440373,-0.009162343210852871,0.018375696876790085
185,11.0,300.02906,94.922798,0.0,0.0,0.00185002794655853,0.0,0.0,0.0,-0.03266707480623927,-0.016192742755349286,0.020005657597154683,0.017721019775178485,0.00926264260910165,0.01085157521171709
186,11.0,299.58919,-80.102666,0.0,0.0,0.0018600323669326624,0.0,0.0,0.0,0.002252672111796428,-0.004686720753768326,0.026783259145051877,0.021778444025115078,0.009447476044643292,0.005810208411647925
187,11.0,299.66817000000003,56.428819,0.0,0.0,0.0018700367873067947,0.0,0.0,0.0,-0.01983488847830108,-0.005946243418398534,0.008628180150960082,-0.00913438743794385,-0.011510785594276091,0.014122409356023286
188,11.0,299.67499,98.71635699999999,0.0,0.0,0.001880041207680927,0.0,0.0,0.0,-0.02142218832970538,-0.01952796793026038,0.01094284878072509,-0.006356618321524384,-0.014004362679622986,-0.0011022657424851591
189,11.0,298.99897000000004,-85.460008,0.0,0.0,0.001890012718777534,0.0,0.0,0.0,-0.005100003178056125,0.01081681364053639,0.02026089833709498,-0.0016455452161776686,-0.007256406093876524,0.005761034877669874
190,11.0,299.86987,-95.911956,0.0,0.0,0.0019000171391516663,0.0,0.0,0.0,0.008440977838009652,-0.006774368368153104,0.027488229928627074,0.011283420377836889,0.020289265286894582,-0.007355451291151523
191,11.0,299.80933999999996,-10.210995,0.0,0.0,0.0019100215595260206,0.0,0.0,0.0,-0.02071973445937858,-0.008772765367354532,0.03259638743951297,-0.017724429361764982,-0.002036623885724128,0.007790612723523612
192,11.0,300.07892000000004,51.331868,0.0,0.0,0.0019200259799001529,0.0,0.0,0.0,-0.014396135830787986,-0.0063860669158057335,0.005178596530012685,-0.012370050050078888,-0.0018741781098169784,-0.012188968071707489
193,11.0,299.80953999999997,30.907040000000002,0.0,0.0,0.0019300304002742852,0.0,0.0,0.0,-0.011036583534225989,-0.009131692192677851,0.01077330670774259,-0.016915045181884983,0.003978636353960836,-0.0039013669145849367
194,11.0,299.42521,-20.250027,0.0,0.0,0.0019400348206484175,0.0,0.0,0.0,0.014568180631517486,-0.007947706107102522,-0.0004649716252166265,0.003727969627621957,0.007377276698305523,0.005992779462366285
195,11.0,300.09188,-37.832227,0.0,0.0,0.0019500392410223277,0.0,0.0,0.0,0.013268392522488386,-0.0012286816620614388,-0.0005396588473751815,0.004638093665569206,-0.0005588299952297265,0.008952029169746491
196,11.0,300.58872,33.544317,0.0,0.0,0.001960043661396682,0.0,0.0,0.0,-0.003033558531288917,-0.02106157667211578,0.013898501348925287,0.01004799594165999,-0.0043496407151761155,0.009762213817205491
197,11.0,300.45411,136.10764,0.0,0.0,0.001970015172493289,0.0,0.0,0.0,-0.04830240841657655,-0.004507585228839026,0.011436669389211389,0.027616156806752473,0.00013595790855050086,0.006560346642280804
198,11.0,300.41994,57.257342,0.0,0.0,0.0019800195928674214,0.0,0.0,0.0,-0.008278616871135873,-0.03164539547865737,0.02251920989497298,-0.003348450419191327,0.003131149208045367,0.0035824799841882465
199,11.0,300.10374,-131.05817,0.0,0.0,0.0019900240132415536,0.0,0.0,0.0,0.0023613686175989377,-0.004938127051355196,0.042415168983301256,-0.0017382123080481983,-0.018402284559414082,-0.0014450263651129987
200,11.0,299.73192,4.1547167,0.0,0.0,0.002000028433615908,0.0,0.0,0.0,0.0012420748018832388,0.008106056326105471,-0.01061106104873019,-0.02483090656086968,-0.015606012178943486,0.014363478780064986
201,11.0,299.56038,111.17788,0.0,0.0,0.0020100328539900403,0.0,0.0,0.0,-0.022387531964977378,-0.016517766029676584,0.0051100003088427656,-0.009150769057610591,0.005828813912634145,0.0025775592053102875
202,11.0,299.96041,-85.741349,0.0,0.0,0.0020200372743639505,0.0,0.0,0.0,-0.00910055228132958,0.02521325547285458,0.00995052594299045,-0.0029847334540202574,0.005208525404841435,0.013182411158752686
203,11.0,300.39421,-91.885326,0.0,0.0,0.002030041694738083,0.0,0.0,0.0,-0.017284777103624683,0.013352061649495886,0.03186356038418857,-0.00972763888669321,0.000857128088894456,0.007597907347955072
204,11.0,300.23161,70.995766,0.0,0.0,0.002040013205834912,0.0,0.0,0.0,-0.015442967065602184,-0.020692171016908283,0.014554198793387587,0.004393716486576056,-0.00989455319686637,-0.0060494870174628845
205,11.0,300.17846000000003,34.248490999999994,0.0,0.0,0.002050017626209044,0.0,0.0,0.0,-0.013688747432474188,0.0013736055066393086,0.0019044561506301881,0.011920313926943387,-0.0007020262990496013,0.015949209107064384
206,11.0,300.78567999999996,14.657509,0.0,0.0,0.0020600220465831764,0.0,0.0,0.0,0.020296418832600582,-0.030863038731944768,0.006111103363993943,0.01869154618471198,0.017106313363511684,0.006948819131245054
207,11.0,300.00997,-15.103879000000001,0.0,0.0,0.0020700264669573087,0.0,0.0,0.0,0.003096402835616167,-0.012720527180168289,0.014215326416693487,0.012217997687072489,0.002974177617128477,0.02115561641389678
208,11.0,299.83248,-22.724871,0.0,0.0,0.002080030887331441,0.0,0.0,0.0,-0.011343393638005789,-0.0051179045715478546,0.023369090641599678,-0.0012643305363547088,-0.0034856313104800266,0.0003464039862774117
209,11.0,299.54200000000003,-13.887529999999998,0.0,0.0,0.0020900353077057954,0.0,0.0,0.0,-0.030204761552727867,-0.01162511566930959,0.046051340583663454,-0.0017781543230151685,0.005122417182193215,-0.00012382410688048788
210,11.0,299.11217,-79.087887,0.0,0.0,0.0021000397280797056,0.0,0.0,0.0,0.008358885125507733,-0.003957980440072256,0.019639837834051082,-0.007329206796336393,-0.008725582768497971,-0.00964041396110978
211,11.0,299.83227,-130.38101,0.0,0.0,0.00211004414845406,0.0,0.0,0.0,0.013660208230157588,0.002815103734904107,0.02315725854919348,-0.013963381779328488,-0.016333375789728682,-0.0011861272856866487
212,11.0,299.30827,-50.461729,0.0,0.0,0.002120015659550667,0.0,0.0,0.0,0.021637305378935778,-0.0005412050771602825,-0.005756994137596084,-0.01212399948854559,-0.013297460641357187,-0.001983040484660858
213,11.0,299.18116000000003,61.958102000000004,0.0,0.0,0.0021300200799247992,0.0,0.0,0.0,-0.02431694456689558,0.004820073282204195,0.0006631551577158184,-0.0030748349966375874,0.006788645366037134,0.02080388488018358
214,11.0,300.21044,4.9965281,0.0,0.0,0.0021400245002989315,0.0,0.0,0.0,-0.031040588520467573,-0.003379737758429147,0.03290150642887587,0.013371607243924888,0.024075658307332475,0.011382891140153888
215,11.0,300.73708,108.05734,0.0,0.0,0.002150028920673064,0.0,0.0,0.0,-0.04176233701012176,-0.005019099311896535,0.013934701735247986,0.005738693523564954,0.012506677706812987,0.011654229384432889
216,11.0,300.28238,179.85971999999998,0.0,0.0,0.002160033341047196,0.0,0.0,0.0,-0.025961798037229977,-0.028135586298266176,-0.0005754793865003935,-0.0004755180084849736,0.00947013920697997,0.004381159582061786
217,11.0,299.92928,160.99971000000002,0.0,0.0,0.0021700377614213284,0.0,0.0,0.0,-0.00947665835679836,-0.035800365315720964,-0.0036628680047219265,-0.010592540863402389,-0.0045442369167562665,0.018075706959433384
218,11.0,299.58912999999995,42.401684,0.0,0.0,0.0021800421817956828,0.0,0.0,0.0,0.006426758837171713,-0.007444214938336813,-0.011871596862135389,0.005591694542782285,-0.002773247589173227,0.014404543780117785
219,11.0,299.83622,-77.352409,0.0,0.0,0.002190046602169815,0.0,0.0,0.0,0.01019828930249279,-0.0033229265478473173,0.016637838193026784,-0.0010182814946965591,-0.014758992850599185,0.02064700235395048
220,11.0,300.25189,-155.31994,0.0,0.0,0.0022000181132662,0.0,0.0,0.0,-0.015728640772295986,0.011094358041677887,0.05184766513846615,0.007376084102937823,-0.015478939470652382,-0.006647725885854463
221,11.0,300.41577,-14.401826999999999,0.0,0.0,0.0022100225336403323,0.0,0.0,0.0,-0.027791601061567472,0.005454692186161204,0.026714704669786076,-0.009345427067446841,-0.002916236835335167,0.0024013401181438177
222,11.0,300.21962,-15.591660999999998,0.0,0.0,0.0022200269540146866,0.0,0.0,0.0,-0.01023582413919719,-0.008064017592706571,0.023039317250803576,0.0017408179820053583,0.0018620981421247783,-0.019005789491225382
223,11.0,300.69506,-47.673828,0.0,0.0,0.002230031374388819,0.0,0.0,0.0,0.002709143308346627,0.01782268321071188,-0.006040173425193703,-0.004408989306658366,0.013648338005236087,0.006594230840199914
224,11.0,300.70462000000003,-68.275013,0.0,0.0,0.0022400357947631733,0.0,0.0,0.0,0.025292306205906275,-0.0002459809309864278,-0.0042924256231044264,-0.0033839626060461064,-0.0003201878624650817,-0.0052102118583078755
225,11.0,300.02491000000003,14.910279000000001,0.0,0.0,0.0022500402151373056,0.0,0.0,0.0,-0.016258134877052983,-0.01071457366569609,0.022440356745690778,0.002258052773802458,0.007789761492114603,0.02082450147996828
226,11.0,300.11348,143.98656,0.0,0.0,0.002260044635511216,0.0,0.0,0.0,-0.04533842186630386,-0.007330161379255603,0.008900264045987672,0.008060392285173783,0.00996466605078597,0.01199781438734209
227,11.0,300.55456000000004,-2.474827,0.0,0.0,0.002270016146607823,0.0,0.0,0.0,-0.03353036085168897,-0.005032187260788214,0.03931483443332206,0.0011348537908763491,0.005003221682829535,0.006874703534130414
228,11.0,300.03606,-101.92345,0.0,0.0,0.002280020566981955,0.0,0.0,0.0,0.01149615831583249,-0.0035531908754726366,0.023039214912543477,0.0007208687080417023,-0.006655324147029354,-0.002037712318981548
229,11.0,300.11365,-108.53545,0.0,0.0,0.0022900249873560874,0.0,0.0,0.0,0.022138768932926378,-0.001219079090863739,0.012072377435700887,-0.012820189446754187,-0.004786070635348396,0.009518864580438791
230,11.0,299.38691,-116.80937,0.0,0.0,0.0023000294077304417,0.0,0.0,0.0,0.03627157930122617,9.213994546625461e-05,-0.0008565857771759342,0.0003483397600634577,-0.006007856927829314,0.012899294895311289
231,11.0,299.6486,-29.451371999999996,0.0,0.0,0.002310033828104796,0.0,0.0,0.0,-0.019507856942275584,0.023281232738678777,0.005179105688187935,-0.007548449698648983,-0.008402795433166342,0.012177837519358988
232,11.0,300.03724,-26.185282,0.0,0.0,0.0023200382484789284,0.0,0.0,0.0,-0.013826701433589187,-0.01075208519764819,0.03253845891804587,0.01116190838609459,-0.012680832094250688,0.012600359771308687
233,11.0,299.84988,-73.36891700000001,0.0,0.0,0.0023300426688528386,0.0,0.0,0.0,-0.016101131774057986,0.007073644045514313,0.031329805562761076,-0.0025093782140313474,-0.0037109119674884963,-0.003048149231403907
234,11.0,300.02492,80.323521,0.0,0.0,0.002340047089226971,0.0,0.0,0.0,-0.008988089626230381,-0.014210682691485186,-0.001217571881339989,-0.005968988451343295,0.01105167589446549,0.0064572566519316135
235,11.0,300.343,156.52966,0.0,0.0,0.002350018600323578,0.0,0.0,0.0,-0.01016670021737519,-0.02136988435954338,-0.016044522504221087,0.0012515506154934287,0.010693988476664489,-0.00044474809554321957
236,11.0,300.38353,9.373762699999999,0.0,0.0,0.00236002302069771,0.0,0.0,0.0,0.006746140030967183,0.004515374791632796,-0.014110904914387887,0.003670279321253366,-0.001122802802137009,0.025325475961179875
237,11.0,300.57347999999996,-232.29761000000002,0.0,0.0,0.0023700274410720645,0.0,0.0,0.0,-0.0016406862766481286,0.028289736088979577,0.04396362183912166,0.010557633384207291,-1.4581192789301685e-05,0.019232284325828682
238,11.0,300.04308,-228.87377999999998,0.0,0.0,0.002380031861446197,0.0,0.0,0.0,0.0045441188731196154,0.015056222674683484,0.04997157178331016,0.014935139287733485,-0.0027667630925082573,0.014153650896356588
239,11.0,299.87613,-104.63414,0.0,0.0,0.002390036281820329,0.0,0.0,0.0,-0.02175334987313848,0.014377727102971187,0.03918178760244136,0.0038062459336222266,-0.003887453572161796,0.008309940282077252
240,11.0,299.98682,-44.193534,0.0,0.0,0.0024000407021946835,0.0,0.0,0.0,0.002660189041690217,-0.010671148806160389,0.021444690587926182,0.002936347215369907,-0.025512927229679877,-0.01061600165621779
241,11.0,299.62587,-120.51086000000001,0.0,0.0,0.0024100451225685937,0.0,0.0,0.0,0.016409330030474786,0.005447471563298585,0.014775490588727383,-0.0007521603738574492,-0.0050674524172686156,-0.006919145190141464
242,11.0,300.12596,-229.73611,0.0,0.0,0.002420049542942726,0.0,0.0,0.0,0.02648840640570218,0.014423590855497586,0.028922041641633273,-0.005192480792157955,0.0011946317977509788,-0.0027266136652458173
243,11.0,300.2177,-169.53659,0.0,0.0,0.002430021054039333,0.0,0.0,0.0,-0.01137556838168119,0.01992643562483608,0.04298402278819276,-0.0036884677684984267,-0.00029842658390991073,0.004085302205237936
244,11.0,299.88273,36.221727,0.0,0.0,0.0024400254744136873,0.0,0.0,0.0,-0.04208915475037616,-0.00029746523248003274,0.031376119198331866,-0.004934070808554875,0.005741849088351385,0.0010383872137808392
245,11.0,300.28064,-25.75659,0.0,0.0,0.0024500298947878196,0.0,0.0,0.0,-0.019388173866963784,0.005553038443517224,0.02166449594536928,-0.0017705612294157884,0.015116608327643086,-0.004129712349170876
246,11.0,300.21517,-131.88408,0.0,0.0,0.002460034315161952,0.0,0.0,0.0,0.020956762028771378,-0.013902561442075988,0.033035265574576866,0.010319516570956989,0.02238239580022048,-0.017653937552307982
247,11.0,300.43217999999996,-92.04657399999999,0.0,0.0,0.0024700387355360842,0.0,0.0,0.0,0.025446864336409976,0.0018336596568681183,0.0006993358363240734,-0.008769982982579931,0.011612980986111989,-0.014868098608117088
248,11.0,300.2009,24.362869,0.0,0.0,0.0024800431559102165,0.0,0.0,0.0,-0.01387529082888459,-0.013484841995600289,0.01995442969859888,-0.0013396191731101187,-0.016397459805553283,0.009317501388065792
249,11.0,300.09732,20.394206,0.0,0.0,0.002490047576284349,0.0,0.0,0.0,-0.03494918558246606,0.010600157464404089,0.018149698534735782,0.00020951081748710778,-0.006832663584831394,0.026781665302644576
250,11.0,300.35367,-169.87072,0.0,0.0,0.002500051996658481,0.0,0.0,0.0,-0.003128198117129117,0.003894046790562496,0.05087060731878804,-0.00811944358907669,-0.0003692972577118017,0.013255248642191186
251,11.0,300.37296000000003,-218.89781000000002,0.0,0.0,0.002510023507755088,0.0,0.0,0.0,0.014581674083099187,0.005251738191131205,0.046706055175528755,0.003981778341195926,0.0019110834142342483,0.006933689483401874
252,11.0,299.93275,47.201374,0.0,0.0,0.0025200279281292204,0.0,0.0,0.0,-0.004731603781522936,0.0005393994249520785,-0.01015583513655289,-0.01254094177219459,0.0013652791239425587,0.006766824923808623
253,11.0,299.87261,201.94068000000001,0.0,0.0,0.0025300323485035747,0.0,0.0,0.0,-0.026001585328906677,-0.013054245153603686,-0.02232909479196008,0.006627083448192214,0.013894029876233987,0.0034032866026782365
254,11.0,299.80367,59.043773,0.0,0.0,0.002540036768877707,0.0,0.0,0.0,-0.024621404943693477,0.004339659289766026,0.002333913390239318,0.008583502812975773,0.007762348314634133,0.009675506662423162
255,11.0,299.80379,-106.89227,0.0,0.0,0.0025500411892518393,0.0,0.0,0.0,-0.017897144934060683,0.017008575258865684,0.03338115166846317,0.011071676438189388,-0.0070254404958569935,0.016650454170021884
256,11.0,299.50453,-119.53658999999999,0.0,0.0,0.0025600456096259716,0.0,0.0,0.0,-0.014051846619059288,0.012758426786908687,0.03762955836349826,-0.0009196417393165733,-0.011286804633170888,0.012056594038893188
257,11.0,299.33916,86.18848100000001,0.0,0.0,0.002570050029999882,0.0,0.0,0.0,-0.023993134152937978,-0.01176302812717049,0.009557016790429121,-0.001993691668387048,-0.002179087255084168,0.006951847634468942
258,11.0,300.12536,32.098753,0.0,0.0,0.002580021541096711,0.0,0.0,0.0,0.012874754991139386,-0.02038556558964868,-0.002246409111603318,0.0027513234914594872,0.005757754581796135,-0.004115160456534716
259,11.0,300.76156000000003,-224.76384,0.0,0.0,0.002590025961470843,0.0,0.0,0.0,0.03510326849867287,-0.0029692081320130273,0.03618853332303017,-0.016117915248714386,-0.001937055952722538,-0.014045328381165987
260,11.0,300.01245,-408.11505,0.0,0.0,0.0026000303818449755,0.0,0.0,0.0,0.03433819881191637,0.03510786764087676,0.05461071710115815,-0.0028149836647672574,-0.0006360269061634684,0.016942629902607382
261,11.0,300.03371,-181.2881,0.0,0.0,0.0026100348022191078,0.0,0.0,0.0,-0.009330607575459272,0.006388551202400915,0.05804911241450135,-0.0027084458883027975,0.0030116884398055073,0.014477629509830788
262,11.0,299.86562000000004,88.553209,0.0,0.0,0.002620039222593462,0.0,0.0,0.0,-0.02241724349765968,-0.011510904144537789,0.0070101832798262235,0.00930275829513576,0.008844630434672061,0.013744975720273488
263,11.0,300.40066,44.943232,0.0,0.0,0.0026300436429675944,0.0,0.0,0.0,0.0034262079411403975,-0.02064087219084548,0.0035530444608331863,0.0007197543153167202,-0.01116376972652829,-0.010975605129957888
264,11.0,299.4221,-108.03737,0.0,0.0,0.0026400480633415047,0.0,0.0,0.0,0.03822073406809276,-0.005613918157225584,0.00023384738262893973,-0.008809626190092412,-0.0016011215960183983,-0.0013413291339788788
265,11.0,299.26702,-175.75842,0.0,0.0,0.002650052483715637,0.0,0.0,0.0,0.0020218476595158276,0.027001585157348972,0.024402739492612877,-0.008858143847280732,-0.0008015247028293293,-0.008333769188653983
266,11.0,299.55159,-7.5498647,0.0,0.0,0.002660023994812466,0.0,0.0,0.0,-0.02326212689479318,0.004496935058362936,0.02106016217497618,0.001932315766104718,0.0049617733702639055,0.024810578737363476
267,11.0,299.86679,-10.993286999999999,0.0,0.0,0.0026700284151865983,0.0,0.0,0.0,-0.04026004884210747,0.0015433883278455685,0.04205834485458546,-0.0008261572889878764,-0.001053683034640419,0.013987145533923788
268,11.0,299.2497,-147.09028999999998,0.0,0.0,0.0026800328355607306,0.0,0.0,0.0,-0.006387470672494274,0.026175673855087872,0.02492357233551508,-0.003152423812445007,-0.0010012750847531572,0.04419827029727966
269,11.0,299.92408,-221.14826000000002,0.0,0.0,0.002690037255934863,0.0,0.0,0.0,0.026247354206912175,-0.009995165081445991,0.05097136085573165,0.0051945004022572756,0.008330751425881152,-0.007881415941835192
270,11.0,300.0952,-93.05983,0.0,0.0,0.002700041676308995,0.0,0.0,0.0,0.01958701102683748,0.009971413587176901,-0.0012705602006195288,0.015208394601201686,0.012324923943625289,0.013865739933441987
271,11.0,299.99183999999997,71.013228,0.0,0.0,0.0027100460966833495,0.0,0.0,0.0,-0.0013911034239412188,-0.01874731749671618,-0.0014478267857393787,0.0029799366267218466,0.0014617780237162587,-0.017527619715341385
272,11.0,300.22795,-9.3911836,0.0,0.0,0.0027200505170572598,0.0,0.0,0.0,-0.014017781150697286,-0.004647146953887696,0.02151961334007048,-0.007347957293411923,-0.0008256801191182831,0.013690402069887487
273,11.0,299.8448,-295.28972000000005,0.0,0.0,0.002730054937431614,0.0,0.0,0.0,-0.005358248407192945,0.04252848378173456,0.05259046460127475,-0.010747841706229389,-0.014636015699212288,0.009202609769826871
274,11.0,299.86496,-200.57099,0.0,0.0,0.002740026448527999,0.0,0.0,0.0,0.002235631980889698,0.016148724131254982,0.04258421861673516,0.003272279849548877,-0.016513692764274585,0.016225485932330787
275,11.0,300.28713,-5.501596299999999,0.0,0.0,0.0027500308689023534,0.0,0.0,0.0,0.014500727559110386,-0.010201587431568291,-0.0026267923183942174,0.012485102572433687,-0.018078529874211983,-0.002387380774166138
276,11.0,300.15155,-67.307153,0.0,0.0,0.0027600352892764857,0.0,0.0,0.0,0.022197142271187378,-0.009377653486877342,0.007640205473379572,0.01127833690208519,-0.008120846028540102,0.01139979924457259
277,11.0,299.75518999999997,-142.23726000000002,0.0,0.0,0.002770039709650618,0.0,0.0,0.0,0.011759369281059388,-0.014818380452210287,0.04629558756001876,0.02408042666230308,0.005252025751509586,-0.005588464098813465
278,11.0,299.77001,-161.61815,0.0,0.0,0.0027800441300247503,0.0,0.0,0.0,-0.016022479248295585,0.01944035118086328,0.04571000904897666,0.011435907425136189,0.013975611708035487,0.012879071436565387
279,11.0,299.5405,-127.76406000000001,0.0,0.0,0.0027900485503991046,0.0,0.0,0.0,-0.025154073561013773,-0.0071175942752268635,0.07110875211163743,0.02345142734472568,0.00922818491162594,-0.0037013156784414165
280,11.0,299.35643999999996,-15.739248000000002,0.0,0.0,0.002800052970773237,0.0,0.0,0.0,-0.009158126874536751,-0.007753224706758703,0.02169568986294788,-0.016642249883962183,-0.008068605589159372,0.008588607060354522
281,11.0,300.28425,-112.89466999999999,0.0,0.0,0.002810024481869844,0.0,0.0,0.0,0.017241288409332683,0.002230315457614998,0.014845556833142386,-0.014867985124105886,-0.0033485333030495073,-0.007354850332517212
282,11.0,300.47859,-224.10395,0.0,0.0,0.002820028902243754,0.0,0.0,0.0,0.034473942914563266,0.006816458777307104,0.026831603333823076,-0.03209021429905757,-0.0026696943408783176,-0.004651224576265126
283,11.0,300.06855,-177.31472,0.0,0.0,0.0028300333226178864,0.0,0.0,0.0,0.013269620581609588,0.01988698270569238,0.02074264303088948,-0.008690199568380923,0.008612404150878111,-0.0002423852508865618
284,11.0,300.03204,-44.841793,0.0,0.0,0.0028400377429922408,0.0,0.0,0.0,-0.02976164397924557,0.01008360084089892,0.03330882891607547,-0.01016313053727289,0.0056234058258619445,0.031014756722418175
285,11.0,300.29218,-24.590375,0.0,0.0,0.002850042163366373,0.0,0.0,0.0,-0.028777267454095173,0.0037528861568560264,0.032499241072925365,0.012371851608756687,-0.01140789207312129,0.022278986534764778
286,11.0,299.83956,-102.34526,0.0,0.0,0.0028600465837407274,0.0,0.0,0.0,-0.015812550039577183,0.027740877761561478,0.019182075756873484,0.015306707218654386,0.00040059234831288663,0.03061814327552547
287,11.0,299.97641,-97.679529,0.0,0.0,0.0028700510041148597,0.0,0.0,0.0,0.014761425664089287,-0.014043578498243288,0.028974289883039774,0.01995003827266548,-0.001387670836577449,-0.007730785979319173
288,11.0,299.81498999999997,-75.713223,0.0,0.0,0.00288005542448877,0.0,0.0,0.0,0.01063612176345349,0.00042481032266301455,0.01195399638676759,0.009877547415138032,0.0016028519232141685,0.008804893096225293
289,11.0,299.3447,-35.245089,0.0,0.0,0.002890026935585377,0.0,0.0,0.0,0.008229146758853553,-0.014210272325194687,0.016694752451143786,-0.007674202446034812,0.0019194366480586483,-0.009767523754354543
290,11.0,300.65032,-12.957075,0.0,0.0,0.0029000313559595092,0.0,0.0,0.0,-0.019098181688343784,-0.009671459640198752,0.03270826848905477,-0.014261401938490785,0.012858384922523789,0.005430841190732296
291,11.0,300.86089,-263.02935,0.0,0.0,0.0029100357763336415,0.0,0.0,0.0,0.0022082067457330377,0.024468802385882775,0.053277346844064745,-0.01000484840867666,0.001194734237336089,0.012902843297161487
292,11.0,300.40004,-322.29952000000003,0.0,0.0,0.002920040196707996,0.0,0.0,0.0,0.04198459443280686,0.00986987346418067,0.04611653714809786,-0.016041622582434883,0.0006950710261231693,0.004354228103678855
293,11.0,300.56536,-77.37129,0.0,0.0,0.00293004461708235,0.0,0.0,0.0,0.016962770274845086,-0.007175993755340443,0.013732164186009088,-0.004596436623482976,-0.002970013969817557,0.0096978441661777
294,11.0,299.91141,-48.146741,0.0,0.0,0.0029400490374564825,0.0,0.0,0.0,0.02019975781281088,-0.0027044196377054375,-0.002859931033903217,0.00044928096105807864,0.004200587673790726,-0.008037699434609172
295,11.0,299.66434,-165.04547,0.0,0.0,0.0029500534578303927,0.0,0.0,0.0,0.01009371621797223,-0.0096969423735887,0.04977292815420555,0.011506330333586388,0.008201818086431422,-0.006632660579392634
296,11.0,300.26021000000003,-126.81578,0.0,0.0,0.002960057878204525,0.0,0.0,0.0,-0.00953527842145871,0.012863331609511988,0.03522077713927007,-0.0026786786268649973,0.0016659583553422887,0.004816636743165036
297,11.0,299.77083999999996,-53.193687,0.0,0.0,0.002970029389301132,0.0,0.0,0.0,-0.01987063594182908,-0.013385618466307687,0.049425806908447355,-0.003452981453832737,-0.009008953053739442,0.01051678927267629
298,11.0,299.88625,-41.344173,0.0,0.0,0.0029800338096752643,0.0,0.0,0.0,-0.004180865267219277,-0.008311071677138912,0.025059533273683373,0.0029925679037934574,-0.006339464605281443,0.004505083413017115
299,11.0,299.69671,-111.74153000000001,0.0,0.0,0.0029900382300496187,0.0,0.0,0.0,0.01073384770909829,0.013574222813421487,0.00965856339822599,-0.003004306304876947,7.723847951909443e-05,0.009654634419638231
300,11.0,299.59771,-229.87694,0.0,0.0,0.003000042650423751,0.0,0.0,0.0,0.024860287774019375,0.005276349428110145,0.03974021101080346,0.003254101838779847,-0.00044535747428586054,0.00996662527117933
301,11.0,300.4772,-260.78213,0.0,0.0,0.0030100470707978833,0.0,0.0,0.0,0.02655638130191077,0.016308296836503585,0.036406578665049566,-0.010623992146506389,0.004575562556847866,0.005926718088971535
302,11.0,300.38227,-94.122477,0.0,0.0,0.0030200514911720155,0.0,0.0,0.0,-0.02116757377832688,-0.0013555923516615485,0.05113404829178765,-0.006449841586374804,0.020105183074977082,0.017062191387907183
303,11.0,299.66809,-110.14708999999999,0.0,0.0,0.003030055911546148,0.0,0.0,0.0,-0.01171059750074599,0.005107825975453175,0.04008473529655537,-0.0014224042394053685,0.004487220725679206,2.5973500062634872e-05
304,11.0,300.13856,-243.86872000000002,0.0,0.0,0.003040027422642755,0.0,0.0,0.0,0.018307936789602682,0.012366550284233488,0.04345551339097526,-0.0015244477450512787,0.004091703818044725,0.008798600914429302
305,11.0,299.9193,-254.16882,0.0,0.0,0.003050031843016887,0.0,0.0,0.0,0.048052607816423155,-0.014422597870399588,0.043630963725290864,-0.0019239323374273382,-0.009835953194558001,-0.01060766260789479
306,11.0,299.68209,-84.735249,0.0,0.0,0.0030600362633912415,0.0,0.0,0.0,0.01069752877251389,-0.016169603162815585,0.03122947353785907,0.012299604850126487,-0.0054177784717681044,-0.007101061681295222
307,11.0,300.7606,-74.208054,0.0,0.0,0.0030700406837653738,0.0,0.0,0.0,-0.014490712595121987,-0.004053724265871436,0.04110183169393496,0.008333135806016473,-0.013847977659188987,0.0006415354909946235
308,11.0,300.23224,-308.87441,0.0,0.0,0.003080045104139506,0.0,0.0,0.0,0.008123579270684852,0.013643618286270287,0.07212291008372702,0.000977337365248188,-0.02120458881772998,0.009945756878744782
309,11.0,300.08257000000003,-302.3468,0.0,0.0,0.0030900495245136383,0.0,0.0,0.0,0.015500622009542286,0.02270727620628368,0.05369797837132785,0.017724035207476084,0.0031469821527829573,0.024760149279886477
310,11.0,300.76896,-97.986346,0.0,0.0,0.0031000539448877706,0.0,0.0,0.0,0.015587879055153884,-0.005146379331158095,0.01934390294359458,-0.00013906658012230287,0.015932310121896585,0.003170154371969877
311,11.0,300.33905,-22.179139000000003,0.0,0.0,0.003110058365261903,0.0,0.0,0.0,-0.003665441963950957,0.013265302109683387,-0.0028579561081333075,0.01175119133950229,0.013583162719053788,0.027304290584973676
312,11.0,299.69441,-66.676281,0.0,0.0,0.00312002987635851,0.0,0.0,0.0,0.006417122322095664,-0.002710372482042937,0.016561174677210685,-0.018984002587575183,-0.003241985596734067,-0.011629691506761188
313,11.0,300.025,-144.96355,0.0,0.0,0.0031300342967326422,0.0,0.0,0.0,-0.0010915075595484092,0.0063222425959817636,0.038834565031673166,-0.0025369815785555878,0.0015273605351137484,0.025287543930436276
314,11.0,299.98172,-199.72805,0.0,0.0,0.0031400387171067745,0.0,0.0,0.0,0.0037567893988912464,0.004565574950612166,0.052389974830487955,-0.011056056174647791,-0.004555005941469086,-0.0076274429804200124
315,11.0,299.88122000000004,-73.88709,0.0,0.0,0.003150043137481129,0.0,0.0,0.0,-0.005770657105919515,-0.004294942435027816,0.03252542953500997,-0.002791192957719297,-0.0029571573459237074,0.02114376544072718
316,11.0,300.02718,-179.11956999999998,0.0,0.0,0.003160047557855261,0.0,0.0,0.0,0.007729477569465043,0.017419661970186785,0.02929873763131027,-0.0008278652537539392,-0.00945537858482321,0.010722642176242388
317,11.0,299.41324,-316.76482999999996,0.0,0.0,0.0031700519782293934,0.0,0.0,0.0,0.028493126794802676,0.022680882054428777,0.04511459086621346,0.007310074506623183,0.007747934325336582,0.031831120168986975
318,11.0,299.82836000000003,-222.03578,0.0,0.0,0.0031800563986035257,0.0,0.0,0.0,0.017501072562721383,-0.004003706897210107,0.05399596914623725,0.003649933056595346,0.0096022582047441,-0.003027815328397107
319,11.0,300.04218,-39.164761,0.0,0.0,0.003190060818977436,0.0,0.0,0.0,-0.027062270732338176,0.009630955879376341,0.029336424455529676,-0.002857249974138617,-0.007587073981860903,0.014757690824220685
320,11.0,299.86998,-42.593807,0.0,0.0,0.003200032330074265,0.0,0.0,0.0,-0.02420530061787718,0.007984147849599043,0.02916860693421737,-0.007029452763602974,-0.013287272411601686,0.015784217540280983
321,11.0,300.17229,-145.81971000000001,0.0,0.0,0.0032100367504483973,0.0,0.0,0.0,0.014581490684831088,0.01084162813548539,0.01890243088827468,0.016193869489460486,0.0025300781029742674,0.022339234385710775
322,11.0,300.39243,-251.40685,0.0,0.0,0.0032200411708225296,0.0,0.0,0.0,0.03123979855637807,0.012040594819814189,0.033141012408013266,0.011221944467769689,0.015246916343503485,-0.003260969242657607
323,11.0,300.04669,-193.99264,0.0,0.0,0.003230045591196662,0.0,0.0,0.0,0.021458751459563878,0.008399267701618182,0.029110900314522174,-0.0014482812284092286,0.00901398221928578,0.0037909944931170266
324,11.0,300.31293999999997,-176.66663,0.0,0.0,0.0032400500115710162,0.0,0.0,0.0,0.007599917433503453,0.004722481794847666,0.04137984624312286,-0.007184773770106964,-0.0008575120296223482,-0.007326038768573733
325,11.0,299.66921,-308.98009,0.0,0.0,0.0032500544319451485,0.0,0.0,0.0,0.017668824222777182,0.015978340047439383,0.06027506684368594,-0.008765646677451971,0.00992647432404174,0.01095666241933839
326,11.0,299.52755,-307.69146,0.0,0.0,0.003260058852319059,0.0,0.0,0.0,0.026253635344282072,-0.0032666123364395367,0.07054349737110115,0.0015000770536460783,-0.005401649860651335,-0.012888132932209686
327,11.0,300.16154,-187.76158999999998,0.0,0.0,0.003270030363415888,0.0,0.0,0.0,0.015176096241014085,0.011792127656792389,0.030106611055291173,-0.005612734579783775,-0.010958080969478388,0.018961394951343982
328,11.0,299.37023,-56.99541800000001,0.0,0.0,0.00328003478379002,0.0,0.0,0.0,-0.006673670965265045,-0.012757236218041187,0.03675609118104376,0.002162942533290808,-0.008881181709504391,0.0014097194627284786
329,11.0,299.85692,17.551391,0.0,0.0,0.0032900392041641524,0.0,0.0,0.0,-0.015309473391427384,0.009313378777383922,0.0006609102615892644,0.009019461065226502,0.012377942255107788,0.035939994219251266
330,11.0,299.78931,-100.88958000000001,0.0,0.0,0.0033000436245382847,0.0,0.0,0.0,-0.010644097054990592,-0.007144114678044223,0.048456124536247154,0.009002870716039162,0.014304044568949285,-0.011345344144448289
331,11.0,299.93872999999996,-282.38443,0.0,0.0,0.003310048044912417,0.0,0.0,0.0,-0.0027023654757777076,0.025684912248653477,0.06285526870658203,-0.00938590012679122,0.0014977651208929086,0.007527309349887592
332,11.0,299.44015,-202.8632,0.0,0.0,0.0033200524652865493,0.0,0.0,0.0,0.001211837291074029,0.017765006988519683,0.042688502317027165,-0.001048189293923229,-0.008216557632986102,-6.649131669043204e-05
333,11.0,300.09995,-176.92067,0.0,0.0,0.0033300568856606816,0.0,0.0,0.0,0.014526491469403088,0.013376327976140788,0.025876645512076076,-0.016091137075071586,0.0001030440394571549,0.013725023812554384
334,11.0,299.85676,-353.8576,0.0,0.0,0.003340061306035036,0.0,0.0,0.0,0.03491189797878606,0.024458924210657877,0.048193051373033854,0.004853579639161015,-0.008689348843596961,-0.005150670242681576
335,11.0,299.86323,-334.09932000000003,0.0,0.0,0.003350032817131643,0.0,0.0,0.0,0.04853877433365405,0.00037293172502549565,0.052646143707519855,-0.019461070118908082,-0.008754938042445112,-0.0005494130413178454
336,11.0,299.7483,-270.74298999999996,0.0,0.0,0.003360037237505553,0.0,0.0,0.0,0.0010291012832393891,0.015822384645047788,0.06544762247792743,-0.009033269941564332,-0.010653010616120291,0.008200368632163372
337,11.0,300.34589,-95.734942,0.0,0.0,0.0033700416578799075,0.0,0.0,0.0,-0.01035540994249939,-0.007036314999905223,0.04649275691022786,0.001275474868904569,0.0036290287951072564,0.0038141616460534464
338,11.0,300.22033999999996,-49.755047,0.0,0.0,0.00338004607825404,0.0,0.0,0.0,-0.00941658488619457,-0.004779986879097975,0.02932086397374397,0.0035194397172916563,0.0056256538225338045,0.012093792476564388
339,11.0,299.66213999999997,-231.64576,0.0,0.0,0.003390050498628172,0.0,0.0,0.0,0.029387904653360372,0.014659539313533884,0.026367080851978274,0.015237950093368587,-0.003650682355044296,0.01160325175865179
340,11.0,299.70234,-298.47339,0.0,0.0,0.0034000549190023044,0.0,0.0,0.0,0.026854598031592472,0.025214303173457974,0.038659557487651264,0.011767564447868188,-0.007357214852950572,0.021329653264322877
341,11.0,299.07872000000003,-261.11622,0.0,0.0,0.0034100593393766587,0.0,0.0,0.0,0.016851747448137982,0.024595225600859773,0.03792583674573866,0.02044857049411678,0.024601069014186478,0.023068710622954475
342,11.0,299.70072000000005,-121.0027,0.0,0.0,0.003420063759750791,0.0,0.0,0.0,-0.024681210004345776,0.012252677184995089,0.04921033218193166,0.008117867073246101,0.006121460603866124,-0.005906968831272434
343,11.0,299.5944,-120.41089,0.0,0.0,0.003430035270847398,0.0,0.0,0.0,-0.006653235838573255,0.009029445023761842,0.03422569461356307,-0.01183799951531959,-0.006741891777272914,-0.0016851598500373282
344,11.0,299.35266,-319.6016,0.0,0.0,0.0034400396912213083,0.0,0.0,0.0,0.03229429502819877,0.018797076182626982,0.046059532710721954,-0.016720171856402486,-0.016779627345770286,-0.011613968904959488
345,11.0,299.53784,-269.74359,0.0,0.0,0.0034500441115954406,0.0,0.0,0.0,0.02976864351093637,0.01751543031663838,0.03471124304823297,-0.006252200162944114,0.002225744281113858,0.016135544787204286
346,11.0,300.26784,-118.55611,0.0,0.0,0.003460048531969795,0.0,0.0,0.0,0.010369422178132292,0.008013251736196372,0.017655421963704485,0.000988154225498229,0.011340567683476887,0.0018346443333152982
347,11.0,299.74839,-181.35259,0.0,0.0,0.003470052952343927,0.0,0.0,0.0,0.007622146823472323,0.004938448859586956,0.04256606421469346,-0.002150565379344278,0.0012135176650398688,0.016202484141810684
348,11.0,299.73958999999996,-255.75375,0.0,0.0,0.0034800573727182815,0.0,0.0,0.0,-0.0009110892701250102,0.01876109364507578,0.05989275035570424,-0.01031953278295859,-0.006116850518561145,0.004432039023908195
349,11.0,299.63272,-289.31304,0.0,0.0,0.0034900617930921918,0.0,0.0,0.0,0.0077989557235220025,0.014174680902182088,0.06597030450226214,-0.004234772705664526,0.012693021492953687,0.0066626878408060945
350,11.0,300.04762,-260.21213,0.0,0.0,0.003500033304189021,0.0,0.0,0.0,0.020331021323515584,0.006933560800639175,0.05183340668305895,0.00884018996743382,-0.006139595146205864,0.0008159140701494492
351,11.0,300.55965,-133.32646,0.0,0.0,0.003510037724562931,0.0,0.0,0.0,0.005622330058230774,0.016631148715866583,0.018274437728046582,0.005948255429122104,0.002066418403589618,-0.003416223678630027
352,11.0,300.57415,-176.20433,0.0,0.0,0.0035200421449370634,0.0,0.0,0.0,0.0007445490214912673,0.024849156208420774,0.027968012970227975,0.004876072068855845,-0.011939354922822588,0.015778110681928283
353,11.0,299.80866000000003,-341.02551,0.0,0.0,0.0035300465653111956,0.0,0.0,0.0,0.02036878920774298,0.02490385043556868,0.05839060100295365,0.005095469897108725,0.017802379705208086,-0.01032518570526649
354,11.0,299.78484,-196.67328,0.0,0.0,0.00354005098568555,0.0,0.0,0.0,-0.013502075353301087,0.023893368534841877,0.04939247401990766,-0.013439931711417986,0.016498135322239184,0.006626145786549674
355,11.0,299.43714,-20.319578,0.0,0.0,0.0035500554060599043,0.0,0.0,0.0,-0.012640931318562788,-0.014085259554356884,0.03290283479975697,-0.012019438157726188,0.005786377073270954,-0.024892472650195775
356,11.0,299.55078,-235.06479,0.0,0.0,0.0035600598264340366,0.0,0.0,0.0,0.018608511352267085,0.007861108383330992,0.04498420685659555,-0.01981707452829298,0.002930860263428387,0.011663929227640188
357,11.0,299.91472000000005,-474.19757000000004,0.0,0.0,0.003570064246807947,0.0,0.0,0.0,0.061995479387227444,0.026197219605214275,0.055951523600735444,0.006852012912716024,0.010428198789933089,0.008381722262886582
358,11.0,300.00286,-424.09750999999994,0.0,0.0,0.003580035757904554,0.0,0.0,0.0,0.044558872835618366,0.02003868955041468,0.06431749195239224,0.03232978917920177,-0.002111047713519188,0.029715568457448268
359,11.0,299.71759,-357.36466,0.0,0.0,0.003590040178278686,0.0,0.0,0.0,0.01684516132248798,0.036520344359777364,0.055264427562174354,0.006318230328235784,-0.006759476124808353,0.02138522901905778
360,11.0,300.20294,-196.31047,0.0,0.0,0.0036000445986528185,0.0,0.0,0.0,-0.014992087996353884,0.018607180954885782,0.056058387035782045,0.015281063885123587,-0.007029414057449153,0.025679761898395177
361,11.0,300.80848,-158.37333999999998,0.0,0.0,0.003610049019027173,0.0,0.0,0.0,0.002799116472176287,0.007574816492751182,0.03776760659687256,-0.002981322550208627,0.0018071705634788485,-0.012118334407236489
362,11.0,300.32038,-249.62501,0.0,0.0,0.003620053439401305,0.0,0.0,0.0,0.02342093155646598,0.02018868501571808,0.03227015333131617,0.006358282483488624,0.004285101547406595,-0.004203293254207746
363,11.0,299.7773,-238.14082000000002,0.0,0.0,0.0036300578597754374,0.0,0.0,0.0,0.02055525255739548,0.01170331223252699,0.04013029811380206,0.0017538620571677082,-0.0093528426396287,-0.016925137152880982
364,11.0,299.4308,-124.86503,0.0,0.0,0.0036400622801495697,0.0,0.0,0.0,-0.009272448336944402,0.025046726805669474,0.022181573683400877,-0.006544378327329854,0.0015469598317980483,0.02079627739843278
365,11.0,299.34865,-217.30841,0.0,0.0,0.003650066700523702,0.0,0.0,0.0,0.005157111878867315,0.014407625073671885,0.04649159369911305,-0.01257622314067659,0.004770313177743256,0.004865216715234506
366,11.0,299.46513,-406.09191,0.0,0.0,0.003660038211620309,0.0,0.0,0.0,0.021266567299846776,0.02179012173251758,0.08038510946614263,-0.01065906275896759,-0.007858515780300123,0.016244014223659384
367,11.0,299.78087999999997,-382.40488999999997,0.0,0.0,0.0036700426319944413,0.0,0.0,0.0,0.03201417798505337,0.025785333439564274,0.05844202749852904,-0.025213557421384376,-0.015462398162769885,-0.0012376655427480789
368,11.0,299.87312000000003,-137.2583,0.0,0.0,0.0036800470523687956,0.0,0.0,0.0,0.0014865377018348485,-0.003436703996276277,0.04367326185071536,0.002394246455518728,-0.00954551488191897,0.03187388742920776
369,11.0,299.72207000000003,-92.597259,0.0,0.0,0.003690051472742928,0.0,0.0,0.0,-0.0016537681460392084,0.0012845794276781187,0.028516443706103872,0.006152482268927724,0.009204293487518042,0.004526547799160486
370,11.0,299.94476000000003,-236.47322999999997,0.0,0.0,0.00370005589311706,0.0,0.0,0.0,0.01064256400758929,0.015717117078908684,0.04552227508369876,0.01921655361802618,0.018787650930196784,0.023393998355557877
371,11.0,299.6615,-289.43562000000003,0.0,0.0,0.0037100603134911925,0.0,0.0,0.0,0.013864719590591289,0.012935816481915687,0.061180664186811444,0.0035008773807596967,-0.008110618180705692,-0.0037915964650014366
372,11.0,299.77585,-198.89833000000002,0.0,0.0,0.0037200647338653248,0.0,0.0,0.0,-0.002719381795307088,0.027634285877541676,0.03554522184779026,0.01042613277297919,-0.000903517920872776,0.017367106713999984
373,11.0,300.52245,-139.69106000000002,0.0,0.0,0.003730069154239457,0.0,0.0,0.0,0.00900437326461245,-0.0005585384831759565,0.034016759403192764,0.017179414291976183,0.006417702813077954,-0.01005162074256773
374,11.0,301.02212000000003,-215.22316,0.0,0.0,0.003740040665336064,0.0,0.0,0.0,0.013777666208249788,0.02147535356245238,0.030169445733742473,0.007461457820588553,0.00966802158128444,-0.0009666785416162439
375,11.0,300.46389,-428.65802,0.0,0.0,0.0037500450857101963,0.0,0.0,0.0,0.03741103071443126,0.034941031958911364,0.05794927282914795,-0.0034041810998665166,-0.01211364407252359,0.007214745404089932
376,11.0,300.75441,-331.87522,0.0,0.0,0.0037600495060843286,0.0,0.0,0.0,0.015869493681947084,0.02665922618706077,0.058353061099998736,-0.0068533692492998835,-0.000993500082363324,0.017050227943976485
377,11.0,300.63377,-71.191815,0.0,0.0,0.003770053926458683,0.0,0.0,0.0,-0.015792480594846482,-0.0023320332033537577,0.03976504779725466,-0.0003533698983298936,0.01007238780999228,0.033612665130811764
378,11.0,300.25209,-122.87052,0.0,0.0,0.0037800583468328153,0.0,0.0,0.0,-0.0016922699273140384,-0.000965397398322305,0.040007237875906966,-0.012675602710484589,0.013552819931559188,0.015700208974489982
379,11.0,300.10266,-252.91474,0.0,0.0,0.0037900627672069476,0.0,0.0,0.0,0.030851648787570674,-0.0010031616044518421,0.04703127704687566,-0.016670574277257585,-0.0034649776257416665,0.012141440562516887
380,11.0,300.64981,-291.73592,0.0,0.0,0.003800067187580858,0.0,0.0,0.0,0.016952758350606983,0.026399681160695677,0.045327996536024956,-0.016917925851919282,0.002379803993893368,0.020913084869960782
381,11.0,300.02531,-184.50229,0.0,0.0,0.003810038698677909,0.0,0.0,0.0,0.012924772055825687,0.0028937981078956372,0.04026552039264746,0.01848577434115388,0.02071386774129958,0.005911281831648094
382,11.0,299.99554,-96.03595,0.0,0.0,0.003820043119051819,0.0,0.0,0.0,-0.02185134027705938,0.017006351174896184,0.03403751988449167,0.006086680996833645,0.006626861951720353,0.012939428718522187
383,11.0,299.54635,-192.72794,0.0,0.0,0.0038300475394259514,0.0,0.0,0.0,-0.0014418410107736286,0.00910855199219409,0.050917772084442856,0.0025288351490765975,-0.01922700731930788,-0.012443219879550188
384,11.0,299.89649,-335.2347,0.0,0.0,0.0038400519598000837,0.0,0.0,0.0,0.008271308906114633,0.020009448165778782,0.07362222233619764,-0.01915450724815268,-0.015825590568364186,0.008220587936583862
385,11.0,299.90331000000003,-377.81164,0.0,0.0,0.003850056380174216,0.0,0.0,0.0,0.04141151740149856,0.03632228638923057,0.03711150283912017,0.0016744337871287484,0.0030860371857681567,-0.007899164638536852
386,11.0,300.37355,-249.89153,0.0,0.0,0.0038600608005485704,0.0,0.0,0.0,0.035096824228036866,-0.0026566919102950777,0.04352065321340406,0.011759542546826488,0.0077409791740001635,0.015439830043292586
387,11.0,300.15853,-250.83365,0.0,0.0,0.0038700652209227027,0.0,0.0,0.0,0.027053610483733476,0.008494819313873391,0.04069873445965236,0.0021748995937458777,-0.014439605273328087,-0.0060527424887091745
388,11.0,300.61303,-345.16855,0.0,0.0,0.003880069641296613,0.0,0.0,0.0,0.008970973298916132,0.02393476790742768,0.07201687954026263,0.0012622589465252588,-0.007049904710246424,0.02202976551366858
389,11.0,300.71584,-425.1943,0.0,0.0,0.003890041152393442,0.0,0.0,0.0,0.015344335274367986,0.014602173145872288,0.09930194269133871,0.01754051636261418,0.012902141114842188,0.0035329053044956065
390,11.0,300.38896,-326.01962000000003,0.0,0.0,0.0039000455727675742,0.0,0.0,0.0,0.020484938066705982,0.02026082639633788,0.05835606032029474,0.009818315347417282,0.009317802323345491,0.01216476456656879
391,11.0,299.65287,-98.886414,0.0,0.0,0.0039100499931417065,0.0,0.0,0.0,0.009463794538828802,-0.01021217082886279,0.030807377864201468,0.012911051636221589,-0.007555281233473202,-0.0017608059614280182
392,11.0,299.94282000000004,-79.45592099999999,0.0,0.0,0.003920054413515839,0.0,0.0,0.0,0.012788710805897488,0.00996651776534372,0.0013973878037114387,-0.01061394374526469,-4.878701858165386e-06,0.013067634240425088
393,11.0,299.75243,-310.44847999999996,0.0,0.0,0.003930058833889971,0.0,0.0,0.0,0.016013500839159485,0.03784040557680726,0.04051467960548756,0.005737135448886183,9.530722747684101e-05,0.006318064459194414
394,11.0,299.72873,-410.92708,0.0,0.0,0.003940063254264103,0.0,0.0,0.0,0.005242462494415765,0.04011297660334256,0.07955613308232902,0.007652592253202054,-0.003378082107765747,0.008371271398705162
395,11.0,299.26597000000004,-268.43661000000003,0.0,0.0,0.003950067674638236,0.0,0.0,0.0,-0.013737255767761589,0.024942873736669976,0.07039240759568974,0.0034213992588158167,-0.01161077007439379,-0.004553613533181665
396,11.0,299.81057999999996,-109.87778999999999,0.0,0.0,0.00396007209501259,0.0,0.0,0.0,-0.009564698442087242,-0.001193766583490589,0.044158570145111556,-0.0006158894520860564,-0.012074956157205387,0.013161711472459788
397,11.0,300.17136,-226.4213,0.0,0.0,0.003970043606109197,0.0,0.0,0.0,0.02019297005039098,0.015067453538791884,0.03356599584445587,-0.0024458503711866377,0.0099862516216413,0.002830764731099727
398,11.0,300.27448,-372.26937999999996,0.0,0.0,0.003980048026483107,0.0,0.0,0.0,0.04795025739732195,0.028441382138695872,0.03676895540431336,-0.004775641252069095,0.016314443211610186,0.027589620799883575
399,11.0,300.17457,-349.57178999999996,0.0,0.0,0.003990052446857462,0.0,0.0,0.0,0.04273559514192486,0.009148656228502071,0.05437684377932665,-0.005647202004460444,-0.004572826477602836,0.0009797887921426248
400,11.0,300.0519,-139.3535,0.0,0.0,0.004000056867231594,0.0,0.0,0.0,-0.013229497904149786,0.008035430463660242,0.047554052290219556,-0.0018095220129859184,0.0017318091753662586,0.03456880237567517
401,11.0,299.84503,-145.53855,0.0,0.0,0.004010061287605726,0.0,0.0,0.0,-0.028391425869015576,0.012857715164207688,0.05977379580721435,-0.002729692324349657,-0.009448238110043502,-0.003924962064363596
402,11.0,299.70694,-305.77913,0.0,0.0,0.0040200657079798585,0.0,0.0,0.0,0.01103543146886229,0.010516087090356991,0.07139770266915464,-0.0008963009355780151,0.0013996100638307587,-0.006205430159528275
403,11.0,299.32867000000005,-457.89169000000004,0.0,0.0,0.004030070128354213,0.0,0.0,0.0,0.045923162419513254,0.03349500652919977,0.05976947226903764,-0.009383529020232212,-0.01932721876744798,-0.014076736094515686
404,11.0,299.5332,-365.37137,0.0,0.0,0.00404004163945082,0.0,0.0,0.0,0.054936321981042854,0.013489872782346788,0.042637578393501366,0.01133310306999019,-0.005646233134714824,-0.004366234712063816
405,11.0,299.58522,-324.07358999999997,0.0,0.0,0.00405004605982473,0.0,0.0,0.0,0.017760020784777585,0.027612020719844275,0.05313823875108585,0.00979067864696475,0.017086882266343983,0.0012365213807351589
406,11.0,300.3146,-429.33398,0.0,0.0,0.004060050480198862,0.0,0.0,0.0,0.0018406515891831684,0.049473631299917255,0.07919252625744383,0.003827733624517897,0.011988162166889488,0.007782753854423004
407,11.0,300.409,-447.62335,0.0,0.0,0.004070054900572995,0.0,0.0,0.0,0.012301116619275689,0.014981041543763686,0.10878416206866089,-0.005284959318184875,-0.012784960767277387,0.010814556119313591
408,11.0,300.88672,-321.07231,0.0,0.0,0.004080059320947349,0.0,0.0,0.0,0.017049462940150983,0.021684314104075182,0.058864187006942945,-0.008815190149041531,0.006106850753324245,0.006665763865459675
409,11.0,300.02338,-62.181453000000005,0.0,0.0,0.004090063741321481,0.0,0.0,0.0,0.008772673566895471,-0.008447962069623942,0.01857689693589698,0.008766033536340152,0.007370118390324054,0.02611434385303508
410,11.0,300.2695,-37.305609999999994,0.0,0.0,0.004100068161695836,0.0,0.0,0.0,0.007122683729154153,0.0017125854904940284,0.0025047046992701075,-0.013231702736367387,0.014858769614446384,0.015343606747546085
411,11.0,299.30077,-329.24027,0.0,0.0,0.004110072582069746,0.0,0.0,0.0,0.02723320298445787,0.03226845005789807,0.04057916689485196,-0.01159359041894829,0.005559964210600745,0.034643074621255265
412,11.0,300.07725,-465.39120999999994,0.0,0.0,0.004120044093166575,0.0,0.0,0.0,0.02178466842047938,0.026215694194287577,0.09346694541996932,-0.01035221415168399,0.001129061850654729,0.011520967744530989
413,11.0,299.76891,-223.75442,0.0,0.0,0.004130048513540485,0.0,0.0,0.0,-0.020853303114060782,0.02400642900750008,0.06486263063869324,0.003926917637056596,0.01982677437150028,0.026595848406555874
414,11.0,299.22697999999997,-156.96049,0.0,0.0,0.0041400529339146175,0.0,0.0,0.0,-0.016997742602046582,0.014274386738522287,0.050435426533339045,-0.004261779468529886,-0.006201761484891204,-0.014117330946522087
415,11.0,299.51827000000003,-387.17368,0.0,0.0,0.00415005735428875,0.0,0.0,0.0,0.040840274352871256,0.02042131811942718,0.056429540547412047,-0.006976817663308294,-0.02143943181990718,-0.003038844049110557
416,11.0,300.6554,-500.92042000000004,0.0,0.0,0.004160061774663104,0.0,0.0,0.0,0.06563166314659084,0.040816624082287166,0.04581901145498436,-0.013253976000065589,-0.004527888531692805,-0.00996515078963381
417,11.0,300.46009,-295.63365,0.0,0.0,0.0041700661950374585,0.0,0.0,0.0,0.017820633405759585,0.011048334195635688,0.060996282052864344,0.021046708240148378,0.007676302508192073,0.015944270526076984
418,11.0,300.79646,4.6756112000000005,0.0,0.0,0.004180070615411591,0.0,0.0,0.0,-0.040544504622181066,-0.009954234134381422,0.04907746976256915,-0.0030178760541911772,0.004819057802953976,0.005118072264439405
419,11.0,300.1273,-84.955772,0.0,0.0,0.004190075035785501,0.0,0.0,0.0,-0.03159230522641777,0.009540949784918429,0.047875788581222455,-0.002071523968193498,-0.012042896924041388,0.02148927156582598
420,11.0,300.07923999999997,-402.99683999999996,0.0,0.0,0.004200046546882108,0.0,0.0,0.0,0.03363021867554417,0.0026786604896882078,0.08619209645174761,-0.004260039616783176,-0.006346232305349364,-0.0032359080213092573
421,11.0,300.42082,-494.71072000000004,0.0,0.0,0.00421005096725624,0.0,0.0,0.0,0.06997564263080823,0.03040260876725387,0.05000145455525935,0.02240777771522548,0.023746295282826877,0.009307547827033451
422,11.0,300.09575,-342.28749,0.0,0.0,0.004220055387630373,0.0,0.0,0.0,0.049617407436106854,0.018468743633473082,0.03596069998504477,0.009987636633202991,-0.0020358336519711384,-0.0020099416668657977
423,11.0,299.41917,-222.09229,0.0,0.0,0.004230059808004727,0.0,0.0,0.0,0.013447967797961088,0.01171150537283559,0.04235103734472196,0.0028580313926157373,-0.012107694267936387,0.025098780503056774
424,11.0,299.75816000000003,-462.71717,0.0,0.0,0.004240064228378859,0.0,0.0,0.0,0.013445061796674287,0.05772555429981864,0.06948384852252193,-0.022118591070434977,-0.004398700055867896,0.014584681409395988
425,11.0,299.15373999999997,-545.2533,0.0,0.0,0.0042500686487529915,0.0,0.0,0.0,0.030974855946730266,0.03675308892099746,0.09801544437062122,0.008210722730960242,0.01042780868864459,0.01764160528534088
426,11.0,299.61487999999997,-237.93472000000003,0.0,0.0,0.004260073069127124,0.0,0.0,0.0,-0.005287743729459675,0.022486070537202377,0.055127888058198946,-0.006668676250222104,0.000970370703390632,0.0021938150479376877
427,11.0,300.38257999999996,1.4405513,0.0,0.0,0.004270044580223731,0.0,0.0,0.0,-0.010498010708572989,0.0017948194500598885,0.008265299218446522,0.006623342528823013,-0.014876675770213586,0.008917987715411862
428,11.0,300.29194,-132.07862,0.0,0.0,0.004280049000597863,0.0,0.0,0.0,0.024155658455727876,-0.004827794146641185,0.02082073928234698,0.02077079922466828,-0.010925428985005889,0.00995703202188255
429,11.0,300.41292000000004,-322.33645,0.0,0.0,0.004290053420971995,0.0,0.0,0.0,-2.8436296636443975e-05,0.04191090885903466,0.05609975905061514,0.015215162098619587,0.005812268653076254,0.030193333104849972
430,11.0,299.63437999999996,-363.92186,0.0,0.0,0.00430005784134635,0.0,0.0,0.0,0.027681378702439374,0.0068778400498149634,0.07606393925492633,0.0033355051359137268,-0.0026654461885090575,0.013911943124751885
431,11.0,299.95596,-283.5737,0.0,0.0,0.004310062261720482,0.0,0.0,0.0,-0.017374904686769586,0.030433505802553173,0.07314072386217743,-0.014564283671632884,-0.0034576637838698468,0.02024026957830908
432,11.0,300.30118,-187.34141,0.0,0.0,0.004320066682094614,0.0,0.0,0.0,0.009483417342915421,0.007300338085087273,0.04016335539831456,-0.011700640292013289,0.022376486525637274,0.009158098807508981
433,11.0,299.67817,-464.7288,0.0,0.0,0.004330071102468747,0.0,0.0,0.0,0.040749737416685965,0.028255081922309473,0.07226113056961833,-0.02068799946624658,0.028412209655066772,-0.01034015343574369
434,11.0,299.6074,-571.22634,0.0,0.0,0.004340075522842879,0.0,0.0,0.0,0.07763149694138223,0.03430895033452977,0.06169809554912794,-0.01785390245954298,-0.0002784321804816168,-0.007660123741195353
435,11.0,300.47722999999996,-346.64851,0.0,0.0,0.004350047033939486,0.0,0.0,0.0,-0.002706151586101367,0.026528034617113175,0.08155060849966843,-0.018210863377022282,-0.02570774887940727,0.006948019879566173
436,11.0,300.05146,-272.85321,0.0,0.0,0.004360051454313618,0.0,0.0,0.0,-0.003151064638760867,0.026961305426123676,0.059130320185458246,0.016464162059636283,-0.029052083172717375,0.007876275825402903
437,11.0,300.52464,-350.58788,0.0,0.0,0.0043700558746877505,0.0,0.0,0.0,-0.003493279423559837,0.031302202603536874,0.07876103876860933,0.01882811912594068,0.007420064223528323,0.008766284011764871
438,11.0,299.74851,-416.55942999999996,0.0,0.0,0.004380060295061883,0.0,0.0,0.0,0.045931523759338455,0.0027639100842016874,0.07792823128616763,0.02117950277175418,0.001031566014107639,-0.01043882980998229
439,11.0,299.414,-316.08342999999996,0.0,0.0,0.004390064715436237,0.0,0.0,0.0,0.021994061619894877,0.017524705608053782,0.05656270491530435,0.008400937335132962,0.0010531049754583688,-0.0033060946398361366
440,11.0,300.20922,-172.21848,0.0,0.0,0.004400069135810369,0.0,0.0,0.0,0.002841387543823117,0.008072755861568972,0.04143597523241236,0.017630326798477782,0.01016995781644669,0.0030048832494838874
441,11.0,299.76732999999996,-250.88253999999998,0.0,0.0,0.004410073556184502,0.0,0.0,0.0,-0.002283743324787918,0.009990420335202721,0.06855535071388634,0.0034373830764932965,0.015170963116007486,0.027159675477701272
442,11.0,299.52493,-419.87336,0.0,0.0,0.004420077976558412,0.0,0.0,0.0,0.012864416800369089,0.038134561200088166,0.07663204021499352,-0.01006094152891262,-0.0033354162738799572,0.016133221404724986
443,11.0,300.3945,-463.90175,0.0,0.0,0.004430049487655463,0.0,0.0,0.0,0.02010559952076818,0.03459808327706497,0.08631086557546923,-0.024186077236979974,0.003106404627353267,0.02128484531840068
444,11.0,300.67146,-408.15747999999996,0.0,0.0,0.004440053908029373,0.0,0.0,0.0,0.023951031584782775,0.04342319983203616,0.05669544878440515,0.004863490441039136,0.0077876301205292535,-0.004693454003332846
445,11.0,300.48933999999997,-175.01736,0.0,0.0,0.004450058328403506,0.0,0.0,0.0,0.00976083093346901,0.015652900327320984,0.027787177211630872,0.006688049490809094,0.027671865297250475,0.006587650287425463
446,11.0,300.59577,-284.65217,0.0,0.0,0.004460062748777638,0.0,0.0,0.0,0.016020015024052384,0.012208505560135688,0.05829863133112695,-0.0012327157146845688,-0.002040560970312688,-0.004628203230018095
447,11.0,300.10826000000003,-530.7647900000001,0.0,0.0,0.00447006716915177,0.0,0.0,0.0,0.02299404017008508,0.053161498920381446,0.08518370285947692,-0.01971923408538688,-0.02307300781662858,0.006551264577659473
448,11.0,300.53553999999997,-387.20707000000004,0.0,0.0,0.0044800715895261245,0.0,0.0,0.0,0.014880794631870085,0.026439489730624478,0.07638099534371734,0.002376664337133508,-0.015192848304917383,0.010255389998628189
449,11.0,300.01697,-266.26551,0.0,0.0,0.004490076009900257,0.0,0.0,0.0,0.0024155852999747074,0.037771409324497865,0.04075107186706767,0.013933792849908287,0.005233293695585875,0.026444308748100075
450,11.0,299.70027000000005,-355.96407999999997,0.0,0.0,0.004500080430274167,0.0,0.0,0.0,0.045569671883626456,0.016205449924853385,0.04642907110169255,0.002170092532621458,-0.014566226072074587,0.001974334437151638
451,11.0,299.56642999999997,-460.91614000000004,0.0,0.0,0.004510051941370996,0.0,0.0,0.0,0.05694274159056104,0.02272973894775058,0.06043451593242235,-0.006926845080301384,-0.01013648611264329,0.010939819162926091
452,11.0,299.86762999999996,-467.71425,0.0,0.0,0.004520056361745128,0.0,0.0,0.0,0.033389430935030266,0.03717650485953536,0.07160751839386183,-0.008708302598642553,0.0016019069661709086,-0.0024641303149157277
453,11.0,299.70705,-381.31492000000003,0.0,0.0,0.004530060782119261,0.0,0.0,0.0,0.008429686077570242,0.03061277102349527,0.07686775866525712,0.01795652848267138,0.027223577108507875,0.022184007510141077
454,11.0,299.84215,-347.63412999999997,0.0,0.0,0.004540065202493393,0.0,0.0,0.0,0.007536104360755592,0.02300626908554198,0.07512972063622612,-0.005317534092999755,-0.008261439546165601,0.0022466274669998678
455,11.0,299.93077999999997,-389.43413,0.0,0.0,0.004550069622867525,0.0,0.0,0.0,0.026652526577399575,0.02739108153553927,0.06433464323683494,-0.015159758596401686,-0.0036572655422690064,0.011514013809094689
456,11.0,300.18931000000003,-461.54197999999997,0.0,0.0,0.0045600740432416575,0.0,0.0,0.0,0.05813548590602574,0.02914175681981747,0.05301999651741625,-0.016662614184471986,0.001912046204479268,-0.006468130041404734
457,11.0,300.0136,-287.21204,0.0,0.0,0.00457007846361579,0.0,0.0,0.0,0.017958215544087882,0.026571676312170275,0.04277539763235306,0.0045643646233677155,0.02174453358401838,0.014750742968284986
458,11.0,300.09081000000003,-159.07735,0.0,0.0,0.004580049974712619,0.0,0.0,0.0,0.005239134575787325,0.014220976299251087,0.02889543166750707,-0.0062367789017221545,-0.019637686704088782,0.004099363482175676
459,11.0,300.04179,-286.77201,0.0,0.0,0.004590054395086751,0.0,0.0,0.0,-0.0017360126434061082,0.02102984573198418,0.06787769613975704,-0.005924357317563545,-0.007676885228324582,0.01791919325623668
460,11.0,300.44277999999997,-410.48537000000005,0.0,0.0,0.004600058815460661,0.0,0.0,0.0,0.02637279355604208,0.035257094049354266,0.06314741505491464,0.009544501125193922,-0.006269513364752795,0.031333230348099074
461,11.0,299.7142,-459.65486,0.0,0.0,0.004610063235835016,0.0,0.0,0.0,0.018796123727532983,0.04192599412652346,0.07900148099083913,0.02262890435079898,0.013810202682210886,0.017283022154451485
462,11.0,299.64777999999995,-417.30697000000004,0.0,0.0,0.004620067656209148,0.0,0.0,0.0,0.04998639563227315,0.027036545325549274,0.04982795675388645,0.018280710759415682,-0.0007010002617333393,0.011680972094322188
463,11.0,299.77647,-346.49156,0.0,0.0,0.00463007207658328,0.0,0.0,0.0,0.027041818279069676,0.00846395551317737,0.06981901037734985,-0.0012573276609385787,-0.004975937897386836,0.0008223480056344292
464,11.0,300.25312,-390.38462999999996,0.0,0.0,0.004640076496957413,0.0,0.0,0.0,0.024553430047484875,0.02030558570625528,0.07380816386204864,0.0010669195259967591,0.011891989533647989,0.00871810204433468
465,11.0,299.57421,-502.06695,0.0,0.0,0.004650080917331767,0.0,0.0,0.0,0.002564806540876698,0.04198352140095096,0.1080674902729309,-0.02389934873693208,0.024259527736728976,0.0037986928634017965
466,11.0,300.37147000000004,-380.72062999999997,0.0,0.0,0.004660052428428374,0.0,0.0,0.0,0.012801128185872987,0.028204284655046173,0.07472415411144984,-0.01144294343383059,-0.007925542781040172,0.005237464739622525
467,11.0,299.85842,-287.36803,0.0,0.0,0.004670056848802284,0.0,0.0,0.0,0.016624581841968484,0.013016190519597988,0.05771193419197444,-0.025058739898855077,-0.0015418859819222985,-0.004060153945705996
468,11.0,299.67247000000003,-310.40738,0.0,0.0,0.0046800612691764165,0.0,0.0,0.0,0.04753938549502205,0.005657793001130694,0.04115891313831846,0.011881359526848887,0.012047722021017589,0.008749211862154983
469,11.0,299.58686,-432.10537999999997,0.0,0.0,0.004690065689550549,0.0,0.0,0.0,0.02081030179306688,0.033157067355847766,0.07738187669974662,0.005576097280017954,0.015876965388184488,0.0028766406426273274
470,11.0,299.51516000000004,-475.25160999999997,0.0,0.0,0.004700070109924903,0.0,0.0,0.0,0.02525809178977958,0.033343149723462674,0.08586337988080582,0.014032300011380188,-0.004314281022461386,0.01191087448901179
471,11.0,299.94764,-478.16468,0.0,0.0,0.0047100745302990354,0.0,0.0,0.0,0.0036844085872728164,0.03177583116403036,0.10988988137278691,0.005012690505014035,-0.019568410794751783,0.010479578676003892
472,11.0,300.54919,-357.29859,0.0,0.0,0.00472007895067339,0.0,0.0,0.0,0.025062860787011774,0.02038050845839958,0.06316647935554615,0.027479330552998775,-0.002471858272103418,0.028651030677136573
473,11.0,300.37296000000003,-259.89668,0.0,0.0,0.0047300833710473,0.0,0.0,0.0,0.012605548625070788,0.00875733518953169,0.05763921931179804,0.00927346270161951,0.004902933936956905,0.0027342178032712873
474,11.0,300.05225,-295.66737,0.0,0.0,0.004740054882144129,0.0,0.0,0.0,0.03614622405185457,0.01893646393263348,0.03479280866803287,0.007484083999296582,-0.02174045423911578,0.012293806019804187
475,11.0,301.35685,-318.49143,0.0,0.0,0.004750059302518039,0.0,0.0,0.0,0.01118649895277149,0.014282813939603985,0.07134413010986744,-0.011314944614948091,-0.004557272480617776,-0.0015010762195696887
476,11.0,300.91179,-301.12486,0.0,0.0,0.004760063722892172,0.0,0.0,0.0,0.016266321937860984,0.01946084821713618,0.055807269210498646,-0.003979599448180887,0.019563287802246178,0.011864089692144489
477,11.0,300.15774,-387.74994,0.0,0.0,0.004770068143266304,0.0,0.0,0.0,-0.001004238932488166,0.03395578302542487,0.08491475487218382,-0.008734109065439451,0.01895604195106568,0.016675865469279783
478,11.0,299.62843,-442.92024000000004,0.0,0.0,0.004780072563640658,0.0,0.0,0.0,0.024220503422377578,0.039565057558767165,0.07085113327371244,-0.02168114465776238,-0.004264432765241746,0.016408408986133886
479,11.0,299.82169,-502.53512,0.0,0.0,0.004790076984015013,0.0,0.0,0.0,0.04806484483788086,0.034199393680717366,0.07049388864620514,-0.003604049444366986,-0.009512269436862902,0.016917446584621982
480,11.0,299.83811000000003,-487.53081,0.0,0.0,0.004800081404388923,0.0,0.0,0.0,0.05007752734626715,0.028567253132368374,0.06955241211703864,0.01169121402633299,0.008986880717536071,0.014567121785162986
481,11.0,299.61509,-240.07976000000002,0.0,0.0,0.00481005291548553,0.0,0.0,0.0,0.013583066460294287,0.005200152108665055,0.05419503226088325,0.015138233111277285,0.007437825180556193,0.018215165636946883
482,11.0,299.92719,-174.15847,0.0,0.0,0.004820057335859662,0.0,0.0,0.0,-0.01201656154069229,0.00018267376388099682,0.06477371591591803,-0.0007465849347846963,-0.02011951853739188,0.015816966796763088
483,11.0,300.57343,-368.89361,0.0,0.0,0.004830061756233794,0.0,0.0,0.0,0.010842127667784689,0.017976167296109586,0.08331614917616373,-0.012823748994355488,-0.012485219096195188,0.016440203761021784
484,11.0,300.12644,-516.19323,0.0,0.0,0.004840066176607927,0.0,0.0,0.0,0.03465896744907376,0.04209598000304976,0.08015490309642301,0.00940178555788399,0.01017350013879629,0.016966844553497184
485,11.0,299.78475,-437.30803,0.0,0.0,0.004850070596982281,0.0,0.0,0.0,0.04545586971189505,0.025537566432361575,0.06193728539423414,0.016654980358218583,0.012184361836752887,0.008515838781897852
486,11.0,299.8914,-284.9995,0.0,0.0,0.004860075017356413,0.0,0.0,0.0,0.015391280164751086,0.02017493622511118,0.05106651415937254,-0.003950931360451567,-0.00035024075910607166,0.0057245946550485045
487,11.0,299.72013,-433.18372999999997,0.0,0.0,0.004870079437730546,0.0,0.0,0.0,0.013746639476937687,0.04873567111958625,0.06919472773898794,-0.008351708984324503,-0.013148866500942089,0.005180902585915276
488,11.0,299.72533,-567.21972,0.0,0.0,0.004880083858104678,0.0,0.0,0.0,0.038402224386254465,0.04972458295218425,0.08429382305190261,-0.021974313375445878,0.01043102271796179,0.004852976350051475
489,11.0,299.44585,-472.96700999999996,0.0,0.0,0.004890055369201285,0.0,0.0,0.0,0.027023013370463773,0.03923040131573916,0.07751674434105703,-0.010171188915318189,0.007041069574674463,0.015309121793642685
490,11.0,299.28337999999997,-299.78575,0.0,0.0,0.004900059789575417,0.0,0.0,0.0,0.021001498033936482,0.021657512625680077,0.048468372703455956,-0.017681612452289282,-0.002847366023388148,0.01004486185777568
491,11.0,299.3087,-289.58027000000004,0.0,0.0,0.0049100642099495495,0.0,0.0,0.0,0.02069239291868018,0.013698497938186486,0.053634279390541245,-0.004984415051698465,0.0015739237341841784,0.005767796092937155
492,11.0,300.23466,-470.12917999999996,0.0,0.0,0.004920068630323904,0.0,0.0,0.0,0.03620693394484617,0.03270922094414876,0.07399137670538034,0.00018543765684127185,0.02449325109754568,0.006208055287887353
493,11.0,300.55348,-583.26957,0.0,0.0,0.004930073050698036,0.0,0.0,0.0,0.04720888560390425,0.025744130637497874,0.1043463698106849,0.020404454598012878,0.014155399766029187,-0.005092310785946946
494,11.0,300.36509,-456.29049000000003,0.0,0.0,0.0049400774710721684,0.0,0.0,0.0,0.02033566200897358,0.03167018261585367,0.08669507076163732,-0.0008161130522040873,-0.009001601113663861,0.012014464112985289
495,11.0,300.26945,-323.28346,0.0,0.0,0.004950081891446301,0.0,0.0,0.0,-0.007108464385200812,0.029047848800549475,0.07633071584725512,-0.00038353550891200765,-0.01737124786715868,0.012784467314478687
496,11.0,299.7973,-359.84676,0.0,0.0,0.004960086311820433,0.0,0.0,0.0,0.022642929758683178,0.031982012360628864,0.05475948552059044,0.009458999028755521,0.013606646816621487,0.029648572360836272
497,11.0,299.45088,-476.24135,0.0,0.0,0.00497005782291704,0.0,0.0,0.0,0.03911178519278267,0.02655902081842127,0.07909467365553652,0.005243794614322235,0.0037213118651898865,-0.004929619499540566
498,11.0,299.90238,-352.83361,0.0,0.0,0.004980062243291172,0.0,0.0,0.0,0.026832981353959076,0.02010699780590618,0.06031262903814304,-0.0029120485660468175,-0.0017063896687825482,0.010756629624346689
499,11.0,300.01971000000003,-254.52037,0.0,0.0,0.004990066663665305,0.0,0.0,0.0,-0.0026373228240334974,0.014563762861081485,0.06544139808256313,-0.019128878100123283,-0.009842025197107262,-0.021824291565639878
500,11.0,299.56371,-407.50985,0.0,0.0,0.005000071084039437,0.0,0.0,0.0,0.013612591554958187,0.043116764630793364,0.06714346269329384,-0.013071777420083986,0.020916515734799378,0.03204719777931217
501,11.0,300.233,-581.2528599999999,0.0,0.0,0.005010075504413791,0.0,0.0,0.0,0.03211856605010567,0.033050878745367766,0.1115169077208619,-0.008844624253846451,-0.003359848773541257,0.005155555324063695
502,11.0,300.48396,-556.5587400000001,0.0,0.0,0.0050200799247879235,0.0,0.0,0.0,0.06193360020362044,0.03916466772875176,0.06808169276913993,-0.000994580683197471,-0.007656917615228932,0.039327646980836566
503,11.0,300.36805,-414.16652999999997,0.0,0.0,0.005030084345162056,0.0,0.0,0.0,0.029694839386902473,0.024581385617743878,0.07162005939034952,0.016308165113990584,-0.024134553469394977,0.0037241190745919365
504,11.0,300.46027999999995,-238.25661000000002,0.0,0.0,0.005040055856258663,0.0,0.0,0.0,0.020396504637728283,0.0017037528880473184,0.050323801836072546,0.028764215779557074,0.01964829239288548,0.021658306000508377
505,11.0,300.46356000000003,-318.27128999999996,0.0,0.0,0.005050060276632795,0.0,0.0,0.0,0.015259463419491788,0.013480297568901787,0.06800676495074513,0.007490243951954524,0.0017044479776159186,-0.01058324226723469
506,11.0,299.97702000000004,-422.37566,0.0,0.0,0.005060064697006927,0.0,0.0,0.0,0.018730457015052184,0.020209632948285483,0.08945156294318192,-0.014203671000793186,-0.003016396810370187,0.006152062276761274
507,11.0,300.10012,-479.09065999999996,0.0,0.0,0.00507006911738106,0.0,0.0,0.0,0.016124892488902986,0.04363387783257846,0.0858728264114881,-0.02408140546189968,0.00017916838463004285,0.01040766932965699
508,11.0,299.85388,-454.71983,0.0,0.0,0.005080073537755192,0.0,0.0,0.0,0.031551597903650266,0.045377733943683655,0.061294141105260734,-0.011603178804644591,0.03352121120328597,0.027032165045366974
509,11.0,299.96361,-484.39355,0.0,0.0,0.005090077958129324,0.0,0.0,0.0,0.03943246973018176,0.037334781617906064,0.07047629254496852,-0.01059171709107109,-0.0026983351721799474,0.01160182104951059
510,11.0,300.22461,-539.98632,0.0,0.0,0.005100082378503679,0.0,0.0,0.0,0.050852945356294955,0.03984676033831906,0.07344265212697543,-0.014788564554767684,0.0012222130734230387,0.00953906341720726
511,11.0,299.64745,-505.57984000000005,0.0,0.0,0.005110086798877589,0.0,0.0,0.0,0.03886520470144706,0.02128500946491688,0.09353343185178101,0.0032534267102382166,-0.02328801442159808,-0.003005770349946437
512,11.0,299.91266,-322.02589,0.0,0.0,0.005120058309974418,0.0,0.0,0.0,-0.013268835312782088,0.02342019391039318,0.08773647198916561,0.02034333737848108,-0.0005665107146977544,0.016765272631603587
513,11.0,300.49261,-239.97598,0.0,0.0,0.00513006273034855,0.0,0.0,0.0,2.396523532468458e-05,0.004967354351814705,0.06795538709117453,0.01801745521118438,-0.02167281168893998,0.00956020792029406
514,11.0,300.35202999999996,-391.21115,0.0,0.0,0.0051400671507226825,0.0,0.0,0.0,0.03587891448997317,0.017770999349611082,0.06526850620475003,0.007940255172492174,-0.012266653956874488,0.019238239196666382
515,11.0,300.72526,-478.01275999999996,0.0,0.0,0.005150071571096815,0.0,0.0,0.0,0.05140140142342335,0.024331362102568477,0.06957118054864093,0.014921903201677186,0.00017021738390914787,0.022945814531575577
516,11.0,300.24062999999995,-411.17022000000003,0.0,0.0,0.005160075991470947,0.0,0.0,0.0,0.03544224929312767,0.025774430868488272,0.06376879979799054,0.006941680378990513,0.03049140696626757,0.019104303745447984
517,11.0,299.64214,-436.27633,0.0,0.0,0.005170080411845079,0.0,0.0,0.0,0.020206095692186378,0.030601056839089175,0.08180995695551413,-0.004801712177142095,0.002114974665606748,0.004050999940327566
518,11.0,300.21925,-527.60511,0.0,0.0,0.005180084832219212,0.0,0.0,0.0,0.015927072632129686,0.04960042536443086,0.0948512811438426,-0.03090034254762637,-0.007558011739842683,0.01100736950734279
519,11.0,299.86696,-549.5798599999999,0.0,0.0,0.005190089252593344,0.0,0.0,0.0,0.035899170372722264,0.03194865211433647,0.0992107309305868,-0.005072618979528515,-0.00951674587447969,0.01018747083117509
520,11.0,299.06997,-549.41121,0.0,0.0,0.005200060763690173,0.0,0.0,0.0,0.04488025752883656,0.04333660747849016,0.07879042504800952,0.003530591649217267,0.013563296937593186,0.004882818693321685
521,11.0,299.87952,-311.12941,0.0,0.0,0.005210065184064305,0.0,0.0,0.0,0.017438971477342483,0.017453760875802082,0.059682840398737745,0.01989890561961908,-0.004092036670702576,0.014508514386128884
522,11.0,300.21585,-285.97956,0.0,0.0,0.0052200696044382155,0.0,0.0,0.0,0.026293134872930377,0.002899591567992407,0.05773792000403904,-0.0026474053718035678,0.00020614798226022176,-0.005000909750076365
523,11.0,299.87318999999997,-462.1764,0.0,0.0,0.00523007402481257,0.0,0.0,0.0,0.01865225842533458,0.026822380731412875,0.0950154469117945,-0.002422639648495918,-0.003769135547384716,0.006157489852246933
524,11.0,300.27948,-560.37123,0.0,0.0,0.005240078445186702,0.0,0.0,0.0,0.03299667290476807,0.03647526283632817,0.1008669246960404,0.009650505020180689,0.02052968319112198,0.01048597228413489
525,11.0,300.29103,-518.6357,0.0,0.0,0.0052500828655608345,0.0,0.0,0.0,0.029182523924340873,0.04661647474743786,0.08185330379479212,0.0007982802253466242,-0.014032440853144089,0.025852927353735275
526,11.0,300.24001,-458.04458,0.0,0.0,0.005260087285934967,0.0,0.0,0.0,0.041316334713604755,0.04126959753949216,0.05664818370699045,0.007915686188042403,-0.015232472463327984,0.019835825734643583
527,11.0,300.50587,-482.95164000000005,0.0,0.0,0.005270058797031796,0.0,0.0,0.0,0.03945826403797746,0.043982994167783555,0.06336398206503814,0.0003870781048391346,-0.010584958712904088,0.027052295285103677
528,11.0,299.59238,-553.49815,0.0,0.0,0.005280063217405928,0.0,0.0,0.0,0.059047225571257446,0.046198086555896155,0.06300430462404075,0.012038215708579388,0.008869846683285712,0.012317944676936489
529,11.0,299.46032,-453.64898,0.0,0.0,0.005290067637779838,0.0,0.0,0.0,0.009403631598241181,0.040022289706142467,0.0884720398860105,0.0021104574953359377,0.004442056217046816,0.0007171940856265453
530,11.0,299.73906,-254.99906000000001,0.0,0.0,0.005300072058153971,0.0,0.0,0.0,-0.008650610164448751,0.02339770887742408,0.06276624657929623,-0.006893390297774653,0.004964336791691896,0.0026456891287841874
531,11.0,299.68066,-329.47388,0.0,0.0,0.005310076478528103,0.0,0.0,0.0,-0.0025059357981416074,0.023292862823326578,0.07936490644395643,0.003728642121713327,0.003797730985081866,0.004133352450155127
532,11.0,299.67028,-576.99107,0.0,0.0,0.005320080898902457,0.0,0.0,0.0,0.04147697741095896,0.03417371589668317,0.09974018450533981,6.120403986661844e-06,0.012995207123277088,0.013021336816855885
533,11.0,299.91888,-713.6933,0.0,0.0,0.00533008531927659,0.0,0.0,0.0,0.07242974754525953,0.052032069563915456,0.09248312415587372,0.007459404266610883,-0.007357955234798643,0.002716774702799787
534,11.0,299.88917999999995,-531.65328,0.0,0.0,0.005340089739650944,0.0,0.0,0.0,0.05723827726047815,0.02853869974455037,0.07583234270606952,1.072382261260889e-05,-0.020020103503830378,0.014411425774796987
535,11.0,299.5062,-403.6125,0.0,0.0,0.005350061250747329,0.0,0.0,0.0,0.022870193650112378,0.024018018562143875,0.07579990755711843,0.0025972413858527674,-0.01837229640945448,0.013151986297999988
536,11.0,299.73814,-487.76655,0.0,0.0,0.005360065671121461,0.0,0.0,0.0,0.029554907521592268,0.03723646089445257,0.08147748223995142,0.0004726116728256405,-0.0014002760731214885,0.02141742808073558
537,11.0,300.72702000000004,-499.49075999999997,0.0,0.0,0.0053700700914955934,0.0,0.0,0.0,0.03153336142835047,0.04105064027238276,0.07924871705498943,4.526658142096376e-05,-0.001994176609884908,0.01917739251491128
538,11.0,300.69739,-421.21867000000003,0.0,0.0,0.005380074511869726,0.0,0.0,0.0,0.021887248847353276,0.03616295382425567,0.06998975619145113,0.005659508332224984,-0.008617229045204292,0.016450547018042584
539,11.0,299.63766,-389.12051,0.0,0.0,0.005390078932243858,0.0,0.0,0.0,0.030340088196333572,0.027367086759921177,0.060575743744610444,0.004533034322325655,-0.007621496418233133,0.002945364128009807
540,11.0,300.15971,-317.12086,0.0,0.0,0.005400083352618212,0.0,0.0,0.0,0.02089856094302738,0.01925540973286098,0.056242852256237354,0.003611486396125957,0.008247356889650753,0.00983930269541357
541,11.0,300.10823,-508.07847000000004,0.0,0.0,0.005410087772992567,0.0,0.0,0.0,0.016766445975219382,0.041418157229403854,0.09625856596923081,-0.02209033355164618,-0.0031732428595996867,0.009656191481066901
542,11.0,300.3279,-666.4370200000001,0.0,0.0,0.005420092193366477,0.0,0.0,0.0,0.03751655260634546,0.05222524569548045,0.11283841889878489,-0.015658491441372786,-0.008256158587969412,0.009979051162455671
543,11.0,300.03196,-565.64365,0.0,0.0,0.005430063704463084,0.0,0.0,0.0,0.007490099361165253,0.05613323176766865,0.10831821901017588,-0.007834144683594883,0.013562362721000986,0.019795294717393483
544,11.0,299.86773999999997,-411.29016,0.0,0.0,0.005440068124837216,0.0,0.0,0.0,0.025555098698841875,0.032234370404034665,0.06723246860857802,0.006808927390638813,0.02381061437267468,0.02055883946274948
545,11.0,299.70612,-456.80297,0.0,0.0,0.0054500725452113485,0.0,0.0,0.0,0.04106005133931156,0.03313944997635907,0.06465719620741844,-0.0025023565934883677,0.020212184312037283,0.006274845593404044
546,11.0,300.45,-500.6831,0.0,0.0,0.005460076965585703,0.0,0.0,0.0,0.04647668473714166,0.031061264902008175,0.07465721070384303,-0.008891657398313262,-0.016186883130020986,0.01098053459169439
547,11.0,300.00715,-455.17877000000004,0.0,0.0,0.005470081385959835,0.0,0.0,0.0,0.026755714954333477,0.032977310708607176,0.07862995561642243,0.009158567942305282,-0.010929578244165388,0.011435129249059388
548,11.0,300.06345,-459.85490999999996,0.0,0.0,0.0054800858063339675,0.0,0.0,0.0,0.04798042185279895,0.014182591345712788,0.07762139686438542,0.004747087661601076,0.0028056981395258467,0.003923639063708026
549,11.0,299.65641,-519.57956,0.0,0.0,0.0054900902267081,0.0,0.0,0.0,0.03284716075976237,0.03069296976891027,0.0943990807964639,0.006049363198300664,-0.0008484435222873562,0.008888427764944522
550,11.0,300.04552,-533.33068,0.0,0.0,0.005500094647082232,0.0,0.0,0.0,0.03693578500677817,0.028935241250685972,0.096248182182206,-0.01007424134840021,-0.004945970012429236,-0.006595218151097354
551,11.0,300.0557,-642.7371400000001,0.0,0.0,0.005510066158178839,0.0,0.0,0.0,0.05354101883808715,0.03893327484316506,0.1029017487456119,-0.009643484007587771,0.013444980736666287,0.004875993237998065
552,11.0,300.17382000000003,-708.08862,0.0,0.0,0.005520070578552971,0.0,0.0,0.0,0.049071734767003154,0.05133877952749304,0.11483074217291188,0.016535285123905584,0.018370627586539783,-0.01060969012134489
553,11.0,299.70802000000003,-496.04680999999994,0.0,0.0,0.005530074998927104,0.0,0.0,0.0,0.023737692789477877,0.035141128588659365,0.09190702358626701,-0.009161588339528372,0.015229408395025585,0.004383285583421606
554,11.0,299.76055,-455.78839000000005,0.0,0.0,0.005540079419301458,0.0,0.0,0.0,0.02252496616879108,0.035141166078913065,0.08088215930269763,-0.009682968134834552,-0.012330227294648688,-0.005388679246121235
555,11.0,299.56427,-597.20619,0.0,0.0,0.00555008383967559,0.0,0.0,0.0,0.03523234744216197,0.04520115484875666,0.1011022672305169,-0.00820835273897634,0.004848124300622616,0.018564065136630583
556,11.0,299.30518,-564.5416,0.0,0.0,0.0055600882600497226,0.0,0.0,0.0,0.04549372777538136,0.04848561720690786,0.07762720582720872,0.008957973300133131,0.019918885898340982,0.014597586162669589
557,11.0,299.28586,-381.57783,0.0,0.0,0.005570092680423855,0.0,0.0,0.0,0.034150037255096265,0.01907437639049438,0.06276571968924424,0.015058536937911884,-0.0028918736419807074,0.022532025482237778
558,11.0,299.34459,-280.84834,0.0,0.0,0.005580064191520462,0.0,0.0,0.0,-0.0010482480624290288,0.01857265344447818,0.06784647790417603,-0.007584889819945343,-0.02767808057336387,0.01954332576202608
559,11.0,299.95405,-361.31743,0.0,0.0,0.005590068611894594,0.0,0.0,0.0,0.013465809105721887,0.03285814540409647,0.06350752211395444,0.0025204018684942976,-0.008322765495218003,0.02998804458158957
560,11.0,300.49265,-518.40057,0.0,0.0,0.0056000730322687264,0.0,0.0,0.0,0.025487326452653274,0.03571599907264467,0.096377503292469,0.004670652431032506,-0.007473525629279554,0.016145687420705285
561,11.0,299.90417,-566.77215,0.0,0.0,0.005610077452642859,0.0,0.0,0.0,0.039083807331021465,0.04632057329423466,0.08688020168740833,0.0074690321690610816,0.009028979030040851,0.016434709918979586
562,11.0,299.78567999999996,-437.50122000000005,0.0,0.0,0.005620081873016991,0.0,0.0,0.0,0.02164211629041058,0.03190100504163407,0.07944632615574193,-0.008085608331137412,-0.013115801110428787,-0.0034251639895623667
563,11.0,300.45966,-445.19187999999997,0.0,0.0,0.005630086293391345,0.0,0.0,0.0,0.02281380121579688,0.031828689381997066,0.08068472448096232,0.002579321348559198,0.0036203028878960763,0.005926570863732004
564,11.0,299.95377,-690.98491,0.0,0.0,0.005640090713765478,0.0,0.0,0.0,0.04007473350481826,0.046032630920566954,0.12393479432141188,-0.004986885254117256,-0.00016834846436469984,0.005514897987228055
565,11.0,299.23958999999996,-750.62721,0.0,0.0,0.00565009513413961,0.0,0.0,0.0,0.07425553607270083,0.03672924613289436,0.11718714647297089,0.004556013821343556,-0.01984189307624238,-0.0039584308297417065
566,11.0,299.72213999999997,-444.72364000000005,0.0,0.0,0.005660066645236217,0.0,0.0,0.0,0.025307110803117375,0.025222562175023076,0.08465520984581872,-0.0051641371471106545,-0.03321765059257687,0.0038696051716502963
567,11.0,299.92618999999996,-336.33677,0.0,0.0,0.005670071065610349,0.0,0.0,0.0,0.027235740162708272,0.023708864810882774,0.05129337376401186,0.005546629433984704,-0.0016354921539855085,0.02554337235543458
568,11.0,300.13584,-476.49217000000004,0.0,0.0,0.0056800754859844815,0.0,0.0,0.0,0.04529221462199355,0.023872721537554178,0.07567678652421733,0.016798073563840787,0.01131380876158599,0.007868141960225153
569,11.0,300.2328,-554.52345,0.0,0.0,0.005690079906358614,0.0,0.0,0.0,0.048436493828809754,0.03361294782758967,0.08651184069305391,-0.004916605720556206,0.011659655338718388,0.010907852135521189
570,11.0,300.21522000000004,-484.63064,0.0,0.0,0.005700084326732746,0.0,0.0,0.0,0.02942415975518847,0.035645424176679465,0.08224602737455092,0.0034481376117296873,-0.007806494506916024,0.014324815182749187
571,11.0,300.33726,-408.8963,0.0,0.0,0.005710088747106878,0.0,0.0,0.0,0.019967446922633584,0.03105770130140647,0.07326911582209873,0.0019752441330914182,0.0015637839377834583,0.017293471802732784
572,11.0,300.45568,-397.15007,0.0,0.0,0.005720093167481233,0.0,0.0,0.0,0.013169335166212185,0.03839479422327116,0.06915957505326864,0.015843636552645184,0.00995146968413359,0.036490484892580465
573,11.0,300.24557999999996,-617.3636700000001,0.0,0.0,0.005730097587855143,0.0,0.0,0.0,0.04012262173104446,0.043698980164753556,0.1038415382133619,-0.0006705460065952384,-0.004063000773186957,0.018308449494153285
574,11.0,300.33067,-693.42673,0.0,0.0,0.005740069098951972,0.0,0.0,0.0,0.04948607705089555,0.05630139987351555,0.1049969371698909,-0.0010861090643406188,-0.024454621950733273,0.030162384393795576
575,11.0,300.40353999999996,-447.09551,0.0,0.0,0.005750073519326104,0.0,0.0,0.0,0.00039143714729933865,0.04228965566691406,0.09322477864606932,0.00824539088048172,-0.0031112668092831267,0.010626013580455888
576,11.0,300.24832000000004,-248.18672999999998,0.0,0.0,0.005760077939700237,0.0,0.0,0.0,-0.005883555559886724,0.014318318223107987,0.06700780775665573,0.006863527081552384,0.0006417605541068354,0.02939537737284787
577,11.0,299.89601,-439.58072999999996,0.0,0.0,0.005770082360074369,0.0,0.0,0.0,0.02773748033397618,0.033239389873472365,0.07264469538172323,-0.008626587524452903,0.013515677222643487,0.0057406256901806445
578,11.0,299.13147999999995,-641.5006599999999,0.0,0.0,0.005780086780448501,0.0,0.0,0.0,0.06343703942374834,0.03689493684224676,0.09466820508927441,-0.007760346233761543,0.006776266185590404,0.015742167661130985
579,11.0,299.38853,-646.69467,0.0,0.0,0.0057900912008226335,0.0,0.0,0.0,0.050251573315944154,0.05321590437125085,0.093111555040145,-0.01063864272970229,0.02390987539222098,0.005407427311396525
580,11.0,299.96379,-515.57513,0.0,0.0,0.005800095621196766,0.0,0.0,0.0,0.03976237484349086,0.03998403951486746,0.07697555226389552,0.01140556869064199,0.02175339749589318,0.018262252382343983
581,11.0,299.86424,-542.22634,0.0,0.0,0.005810067132293595,0.0,0.0,0.0,0.028368604437013268,0.018984740233647983,0.11746992431087888,-0.013425530387746689,-0.006107721337810164,-0.0073771626063442635
582,11.0,299.73446,-709.5769700000001,0.0,0.0,0.005820071552667727,0.0,0.0,0.0,0.06349469740743874,0.04177038221591576,0.11042860618595489,-0.0048373475752090354,-0.020643416461846583,-0.006054687320951114
583,11.0,300.26802999999995,-679.66652,0.0,0.0,0.005830075973041637,0.0,0.0,0.0,0.05385677188724954,0.03893672192000526,0.1138081600394909,-0.004449873036268276,-0.006346734168123895,0.0036845847914652066
584,11.0,300.63367,-506.64440999999994,0.0,0.0,0.00584008039341577,0.0,0.0,0.0,0.044861860960020955,0.025917976996905175,0.08322741278540612,0.027872541506055677,0.007826254505066181,0.012930057168347288
585,11.0,300.15323,-402.1394,0.0,0.0,0.005850084813790124,0.0,0.0,0.0,0.033964115994247264,0.01833086157311518,0.06994535861181944,0.013994820903431288,-0.003800375567842867,0.007853720878176903
586,11.0,300.10792000000004,-466.50437,0.0,0.0,0.005860089234164256,0.0,0.0,0.0,0.03557162005264557,0.026420160971716875,0.07981390086801872,0.001176761409712309,-0.015200200447642984,0.01905989805981548
587,11.0,300.01581,-655.92473,0.0,0.0,0.005870093654538389,0.0,0.0,0.0,0.03269170488967007,0.05458557329992665,0.11210746027664491,-0.003854331642292916,-0.001960704095481428,0.0008811683999720502
588,11.0,300.20034,-538.8426400000001,0.0,0.0,0.005880098074912521,0.0,0.0,0.0,0.017535120805831684,0.052988608055818454,0.09327097677112872,-0.0010151966547671091,0.021395991761619982,0.015999838174811085
589,11.0,299.92752,-349.3491,0.0,0.0,0.00589006958600935,0.0,0.0,0.0,0.006723552457087964,0.02829916640766027,0.07117068398424964,-0.001888840244064018,0.013602697167731687,0.015128322512049184
590,11.0,299.97700000000003,-523.4731,0.0,0.0,0.005900074006383482,0.0,0.0,0.0,0.03595553544928507,0.051333475163219545,0.07183374066418823,-0.02347421533947468,-0.002118632599792758,0.03159420203060497
591,11.0,299.32416,-661.72365,0.0,0.0,0.0059100784267573925,0.0,0.0,0.0,0.06406747552996753,0.04433977067374466,0.09274022116999722,-0.003994545292455926,0.01006606391346816,0.017913281955153283
592,11.0,299.19446,-538.13629,0.0,0.0,0.005920082847131525,0.0,0.0,0.0,0.018892749283569182,0.05256506039476755,0.09212218420525171,-0.006874417594952193,0.004539695631133076,0.036982900123178064
593,11.0,299.84092000000004,-412.09274,0.0,0.0,0.005930087267505657,0.0,0.0,0.0,0.01585555642682159,0.024229125167478476,0.08518122039673191,0.01154312245796749,-0.012529079653273888,-0.001234112986572469
594,11.0,299.66205,-506.80307999999997,0.0,0.0,0.005940091687880011,0.0,0.0,0.0,0.017458825099801883,0.029604328795219768,0.1069923305918209,0.008869637548465072,-0.01881979324986898,0.0037220229641100667
595,11.0,299.28129,-697.70397,0.0,0.0,0.005950096108254144,0.0,0.0,0.0,0.06413716281884514,0.04653393235454155,0.1014134869987319,0.013341729538226186,-0.006152563531585744,0.006448478461015274
596,11.0,299.66766,-697.37747,0.0,0.0,0.005960100528628498,0.0,0.0,0.0,0.06220932987383285,0.04573249205544555,0.1040435194882959,0.008529895499210141,0.017484256664061785,0.01032970682721269
597,11.0,300.27429,-652.95699,0.0,0.0,0.005970072039724883,0.0,0.0,0.0,0.06638589105727735,0.041460171644800356,0.09063655792188181,-0.004790213207057235,0.00014078078650898188,-0.004620146777147985
598,11.0,300.03654,-679.1478900000001,0.0,0.0,0.005980076460099015,0.0,0.0,0.0,0.05182760481298635,0.052739596777492945,0.10187679560695691,-0.009296960782038592,-0.012433585897599388,0.005461328974316204
599,11.0,300.70261,-654.1958,0.0,0.0,0.005990080880473148,0.0,0.0,0.0,0.057345114351022144,0.027491836085732975,0.11402223952061888,0.011215584296891989,-0.0037900690918006965,-0.003024236630368917
600,11.0,300.43826,-621.96852,0.0,0.0,0.00600008530084728,0.0,0.0,0.0,0.04650809549024165,0.048453634980751455,0.09410116804181222,0.0074883391430915335,0.011609892599807188,-0.005549102372178765
601,11.0,300.07385,-548.1168,0.0,0.0,0.006010089721221634,0.0,0.0,0.0,0.04111953519968216,0.028957214592354574,0.096537069918217,0.0019022006559075882,-0.014805841482222788,0.006609049420262394
602,11.0,300.13003,-517.2927,0.0,0.0,0.0060200941415957665,0.0,0.0,0.0,0.04360341649482216,0.040243281579452665,0.07339736694025613,-0.008374843814582731,-0.004848130278798206,0.01858776606971968
603,11.0,299.57063999999997,-602.37303,0.0,0.0,0.006030098561970121,0.0,0.0,0.0,0.03817341934142317,0.04991011411174475,0.09502282539902272,0.002308807281911538,0.012938879536967988,0.03858345936539097
604,11.0,299.33472,-628.16523,0.0,0.0,0.006040070073066506,0.0,0.0,0.0,0.018910252165796584,0.06205503721485535,0.10998125626680488,0.005203605062355835,0.025597035093980678,0.02995813242538747
605,11.0,299.13981,-502.23504,0.0,0.0,0.006050074493440638,0.0,0.0,0.0,-9.69958320732433e-06,0.05654065355337804,0.09613595865413041,-0.006344384947767044,-0.0037300233842496467,0.026522690736085774
606,11.0,299.34906,-446.71961,0.0,0.0,0.00606007891381477,0.0,0.0,0.0,0.015712366962439883,0.03585808510766746,0.08422115579448092,-0.006106695219433894,-0.016218156081107382,0.023645028028082576
607,11.0,300.05917999999997,-510.11959,0.0,0.0,0.006070083334188903,0.0,0.0,0.0,0.03128619730495726,0.037406565321240565,0.08637085504763972,0.014366185171082086,-0.013355641462099188,0.011937834034422489
608,11.0,300.41387000000003,-493.43534000000005,0.0,0.0,0.006080087754563257,0.0,0.0,0.0,0.04341811230328406,0.04788860214198705,0.058685308847539044,0.013826858487354685,0.00997766382041875,0.02684723980936627
609,11.0,300.47659,-601.92147,0.0,0.0,0.006090092174937389,0.0,0.0,0.0,0.039645011097657966,0.03062738208993727,0.1126967057397989,-0.004419098908206106,-0.016317728168434385,-0.012878951873053587
610,11.0,300.70412999999996,-713.67785,0.0,0.0,0.006100096595311522,0.0,0.0,0.0,0.05139095380164225,0.05146518754371855,0.11408409843922389,-0.00034138669602224364,0.0006694409965661824,0.012744319305766387
611,11.0,300.0151,-606.79891,0.0,0.0,0.006110101015685654,0.0,0.0,0.0,0.04655385183825746,0.028538167788247873,0.1093596982579619,-0.006144558247845684,0.006362469435551844,-0.002054688615131978
612,11.0,299.79646,-603.0953400000001,0.0,0.0,0.006120072526782261,0.0,0.0,0.0,0.04932501588125005,0.03089577785592587,0.1031051283056839,-0.0017384663298482682,0.016762047456535284,0.00942829370037514
613,11.0,300.18905,-778.5007099999999,0.0,0.0,0.006130076947156393,0.0,0.0,0.0,0.07868190798879973,0.04391080111140866,0.11405206960356289,-0.03065686766784727,-0.01040581710847419,-0.011331225517554888
614,11.0,299.92804,-713.0911,0.0,0.0,0.0061400813675305255,0.0,0.0,0.0,0.07870835482965984,0.04122482809707376,0.09682870558849921,-0.007891871568292082,-0.005476474327535934,0.006114978640326404
615,11.0,300.01442000000003,-550.01555,0.0,0.0,0.006150085787904658,0.0,0.0,0.0,0.035861774351281565,0.02635667882645168,0.1049725381074829,0.0028537880025219474,0.004024037557816587,0.006530591337194183
616,11.0,299.60848,-480.7289,0.0,0.0,0.006160090208279012,0.0,0.0,0.0,0.019282029839488183,0.040368205184281664,0.08647934576234692,0.02203683191986598,0.016863963191343583,0.01019320987974149
617,11.0,299.5077,-524.3620599999999,0.0,0.0,0.006170094628653144,0.0,0.0,0.0,0.030718858308965268,0.02085491620821998,0.10781920346842688,0.0099616519357135,-0.01765246732641288,0.0004120867182422926
618,11.0,299.65502999999995,-537.12735,0.0,0.0,0.006180099049027277,0.0,0.0,0.0,0.03305255060803277,0.046952556633356554,0.08326819407543092,0.005075113702599725,-0.00014231355020025385,0.023690980946617774
619,11.0,299.22357,-556.04335,0.0,0.0,0.006190103469401409,0.0,0.0,0.0,0.05680560224252645,0.03874778522685867,0.07346990551491514,0.006409121395331034,-0.004640654655196956,0.012255638915037387
620,11.0,299.09217,-488.17095,0.0,0.0,0.006200074980498016,0.0,0.0,0.0,0.03215935544613127,0.03167662688648967,0.08455579683875743,0.0037914432615863167,0.02121929512968138,0.028967717942891172
621,11.0,299.32096,-526.67789,0.0,0.0,0.006210079400872148,0.0,0.0,0.0,0.020210334117354678,0.04720143922891936,0.09268515305356241,-0.012580183935317488,-0.010614938756862891,0.022377536252740877
622,11.0,299.64763999999997,-636.22445,0.0,0.0,0.0062200838212462806,0.0,0.0,0.0,0.03764542383356406,0.033595379084105766,0.12215554741081389,-0.008432828064805331,-0.009685270543036782,0.031320293170822265
623,11.0,300.09705,-709.3553400000001,0.0,0.0,0.006230088241620413,0.0,0.0,0.0,0.043595352037276255,0.06252441215142904,0.1095065485949549,-0.0013060731980743887,-0.0018590070200447083,0.018019118967848587
624,11.0,300.39612999999997,-365.61167,0.0,0.0,0.006240092661994545,0.0,0.0,0.0,0.01085027318533859,0.024925258383681478,0.07536128780083003,-0.004478860095129076,0.012245161909003387,0.03076822182733707
625,11.0,299.67741,-356.90525,0.0,0.0,0.0062500970823688995,0.0,0.0,0.0,0.043920777571893256,0.01141374561894899,0.053155760885065156,0.0010204846043889893,-0.01999849189244748,-0.0005045285038205865
626,11.0,300.23349,-662.8701900000001,0.0,0.0,0.006260101502743032,0.0,0.0,0.0,0.05377193245637654,0.06248111293490574,0.08524293948682311,-0.015396146804981385,-0.002877941250455687,0.02002172977024088
627,11.0,300.13455,-724.72454,0.0,0.0,0.006270073013839417,0.0,0.0,0.0,0.05961850712338854,0.04980344218096705,0.11087620941762989,0.01041631437951019,-9.094948602976541e-05,0.00918804571818951
628,11.0,299.32877,-722.58167,0.0,0.0,0.006280077434213771,0.0,0.0,0.0,0.05451273986948854,0.057143857549909645,0.10799018942280189,0.0003905372190905226,0.0056498301725698245,0.004997292852519405
629,11.0,299.66966,-625.79251,0.0,0.0,0.006290081854587903,0.0,0.0,0.0,0.044892552305549956,0.027972227077393875,0.11736051356508088,0.0007963924593503162,-0.006133862379790083,-0.007209746230746553
630,11.0,299.85395,-702.4546,0.0,0.0,0.006300086274962036,0.0,0.0,0.0,0.06843977130147953,0.039903328064901857,0.1051855638085069,-0.008941253558908022,-0.004133635349583047,-0.006037216558751885
631,11.0,299.58671,-774.79299,0.0,0.0,0.006310090695336168,0.0,0.0,0.0,0.088330828285824,0.03842551292655286,0.1087613842064129,0.0023734421004904978,0.019826002274924082,0.0062981151859255735
632,11.0,299.45305,-821.07152,0.0,0.0,0.0063200951157103,0.0,0.0,0.0,0.07611642358360614,0.055745901718192145,0.1177229125958469,-0.00989890085039545,0.01802017173470248,0.004684810068054756
633,11.0,299.74431,-550.44232,0.0,0.0,0.0063300995360844325,0.0,0.0,0.0,0.03963999044341246,0.02973914273427487,0.0979415875575821,0.003491360327870437,-0.01579430545827659,0.012281112022551386
634,11.0,299.8899,-440.03235,0.0,0.0,0.006340103956458787,0.0,0.0,0.0,0.015758720114764587,0.02868056995730187,0.08931955672015392,0.005558110469542795,-0.013427809187221588,0.0015076103654895587
635,11.0,300.10707,-587.5968,0.0,0.0,0.006350075467555394,0.0,0.0,0.0,0.017356956987748286,0.05485134474815625,0.1064064491189989,0.025278974874340575,-0.014745363623504088,0.02609046864092877
636,11.0,300.11133,-614.95143,0.0,0.0,0.006360079887929526,0.0,0.0,0.0,0.05061424085798666,0.04543222045456106,0.0908834170569949,0.01044028686362609,-0.005332740342550495,0.008807177975200791
637,11.0,300.43608,-492.21761,0.0,0.0,0.0063700843083036585,0.0,0.0,0.0,0.03258742422912837,0.05352968867546896,0.06350474884843074,-0.016150479080428184,-0.00915999591567121,0.026470680608452774
638,11.0,300.49122,-518.79128,0.0,0.0,0.006380088728677791,0.0,0.0,0.0,0.028386476142277073,0.049564872444922047,0.07974824631453913,-0.011674600777693387,0.011840736303839689,0.017724492183271184
639,11.0,299.98152999999996,-590.20422,0.0,0.0,0.006390093149051923,0.0,0.0,0.0,0.02439186529253968,0.06567245963536714,0.08934302156596972,-0.00985075687984401,0.023060466820140877,0.03224330119041607
640,11.0,299.89839,-635.2878900000001,0.0,0.0,0.006400097569426055,0.0,0.0,0.0,0.03882826970880186,0.048753719130367454,0.10552966354246689,-0.0031636471785026665,0.015703749270339382,0.015812510522823287
641,11.0,299.51827000000003,-640.23646,0.0,0.0,0.006410101989800188,0.0,0.0,0.0,0.03055337126288297,0.03983841115749506,0.12422411775496588,-0.014401035908271586,-0.02220108077432608,0.014735652634545683
642,11.0,299.62027,-579.8193200000001,0.0,0.0,0.00642010641017432,0.0,0.0,0.0,0.04748524247592855,0.03605813310141067,0.09270721961424022,0.006449125015904084,-0.006308812573856324,-0.005337071986727995
643,11.0,300.19163,-566.0631,0.0,0.0,0.006430077921271149,0.0,0.0,0.0,0.042410731961113356,0.03691658898363367,0.09274172584639573,0.014159586515442385,0.0031443658396997473,0.004918174434361025
644,11.0,299.25879,-782.0849099999999,0.0,0.0,0.006440082341645281,0.0,0.0,0.0,0.06401160795920384,0.05716053665980575,0.11656214341378789,-0.0019020655896692582,0.0006670347099637004,-0.0006140540407224154
645,11.0,299.27083999999996,-873.0417199999999,0.0,0.0,0.0064500867620191915,0.0,0.0,0.0,0.08296867126637032,0.05213427103525196,0.13027993870012888,-0.008667577341348282,-0.016965720859136287,-0.003052299909113547
646,11.0,299.64419,-722.5828700000001,0.0,0.0,0.006460091182393324,0.0,0.0,0.0,0.04670273779470136,0.048727027082983154,0.12421738977430188,-0.0010352154369928088,-0.0034554444621758165,-0.0057047603856660144
647,11.0,299.91685,-579.55259,0.0,0.0,0.006470095602767678,0.0,0.0,0.0,0.02775526489973137,0.04606367183738046,0.1023505812212159,0.006729309541506144,0.015925083622183384,0.007201517525359443
648,11.0,299.83895,-703.6916200000001,0.0,0.0,0.0064801000231418104,0.0,0.0,0.0,0.048061005633251955,0.05514809834469355,0.11069557732230288,0.014821156757484286,0.002092363989625248,0.0036805695852939364
649,11.0,300.29835,-722.56835,0.0,0.0,0.006490104443515943,0.0,0.0,0.0,0.05961240938428674,0.05813101645983465,0.1018993100241789,-0.011047160852019887,-0.013087227457608788,0.009418337707542562
650,11.0,299.95243999999997,-586.19898,0.0,0.0,0.00650007595461255,0.0,0.0,0.0,0.04943446513055186,0.03624599676270137,0.092509390638216,-0.002429125665036038,0.01032761243925599,0.008447951227847871
651,11.0,300.01693,-556.15771,0.0,0.0,0.006510080374986904,0.0,0.0,0.0,0.03194401041562837,0.05063116314790675,0.08648288200519591,0.01287082560725159,0.018597533800683682,0.027100119676573574
652,11.0,300.3541,-516.0011,0.0,0.0,0.006520084795361036,0.0,0.0,0.0,0.017230580382275883,0.037367202581355764,0.10225366384915091,0.014379141600110786,0.008645900071358901,0.018007638844215582
653,11.0,300.38391,-717.53336,0.0,0.0,0.006530089215734947,0.0,0.0,0.0,0.03913433710025836,0.07024591696248224,0.1087319695560099,-0.007387490056663503,-0.02006707271221588,0.025867937640716675
654,11.0,300.22317000000004,-801.24486,0.0,0.0,0.006540093636109079,0.0,0.0,0.0,0.06560224748293773,0.05682494214718515,0.12113124275222288,-0.00029300413546975675,-0.008420644340302891,0.008718669565715691
655,11.0,299.849,-674.6252599999999,0.0,0.0,0.006550098056483211,0.0,0.0,0.0,0.040101975747006864,0.06692822912030194,0.09803902776669872,-0.00990511187085843,0.01080369103849129,0.026535954179894773
656,11.0,299.70436,-509.66967,0.0,0.0,0.0065601024768575655,0.0,0.0,0.0,0.02681095734978547,0.04331150826026306,0.08480438761829143,-0.002215293923557488,-0.001959451313057788,0.015578753724753284
657,11.0,299.8123,-537.14235,0.0,0.0,0.006570106897231698,0.0,0.0,0.0,0.025438853581119376,0.04918526437445765,0.08865374298669322,-0.005479076151142715,-0.02113271290863638,0.022802396072671278
658,11.0,299.92728,-687.5425799999999,0.0,0.0,0.006580078408328305,0.0,0.0,0.0,0.043543304419389556,0.047095890992502554,0.11835657894338489,0.009045498958346242,-0.008892660617237272,0.008314165534994252
659,11.0,299.30651,-735.4751,0.0,0.0,0.006590082828702437,0.0,0.0,0.0,0.06441131587190194,0.049470325064840955,0.1096844246500099,0.019168651206298584,0.007332303085991973,0.010418483747974291
660,11.0,299.63582,-652.96495,0.0,0.0,0.006600087249076569,0.0,0.0,0.0,0.06060561942380894,0.039752760113291964,0.09812665971484731,0.014452723822372787,-0.004220856019516056,0.0006921553685629164
661,11.0,300.36512,-638.0432900000001,0.0,0.0,0.006610091669450702,0.0,0.0,0.0,0.06163601371550095,0.028980656133418076,0.1033325624231299,0.0014368388990049585,-0.0003592809562332696,0.006627788467611794
662,11.0,300.66122,-863.35265,0.0,0.0,0.006620096089824834,0.0,0.0,0.0,0.09640949058487591,0.04347881307702475,0.12254934706217889,-0.008271046271688712,0.003912073016466546,-0.0032189631359119267
663,11.0,300.70195,-869.81614,0.0,0.0,0.006630100510199188,0.0,0.0,0.0,0.08785675997478712,0.04332080381668046,0.1332248183932659,-0.009143527663120921,0.016326825127832185,0.013988287466786486
664,11.0,300.19512000000003,-693.54243,0.0,0.0,0.006640104930573321,0.0,0.0,0.0,0.04580179633578536,0.04931715812672455,0.11570062751626288,-0.02217736261598528,-0.003264897309320277,0.014733460974579386
665,11.0,299.58533,-468.83814,0.0,0.0,0.006650109350947675,0.0,0.0,0.0,0.022644815417119275,0.02731654685818327,0.0925537253963415,-0.015141998348648884,-0.01942220893782278,0.018059688488602482
666,11.0,300.04555,-481.90805,0.0,0.0,0.00666008086204406,0.0,0.0,0.0,0.026730931870137576,0.02647307694493927,0.0932840051409145,0.004417362197534706,-0.02022697067074658,0.009352938797063191
667,11.0,300.05773,-631.23546,0.0,0.0,0.006670085282418192,0.0,0.0,0.0,0.03193554471104287,0.05757004574072115,0.1023742304785499,0.006976350149712154,0.006511855430920093,0.023032248818105977
668,11.0,299.60103,-654.75008,0.0,0.0,0.0066800897027923245,0.0,0.0,0.0,0.05089816873475815,0.03817197444678057,0.1099575360819639,0.01111024985624629,-0.008350121728042852,0.012244976484235089
669,11.0,299.94336,-573.2932099999999,0.0,0.0,0.006690094123166457,0.0,0.0,0.0,0.013159205704962488,0.05454714882963444,0.10656046313419891,0.0071016487584031635,6.912823218792533e-05,0.029045143422782475
670,11.0,300.12937999999997,-523.9028,0.0,0.0,0.006700098543540811,0.0,0.0,0.0,0.02048402006211538,0.034192863283822865,0.1045764890408959,0.014441279162493286,0.0015116575903639886,0.019439945880823283
671,11.0,300.45752999999996,-759.5333400000001,0.0,0.0,0.006710102963914943,0.0,0.0,0.0,0.06137905652989124,0.05458755927012265,0.11491255198598589,0.016963274873394885,0.013814791691913788,0.02054939090556698
672,11.0,300.18643,-796.73819,0.0,0.0,0.006720107384289076,0.0,0.0,0.0,0.06543538646971984,0.05937131969524304,0.11738181208218289,-0.01091984699020499,0.0074927605612278925,0.02860962623830027
673,11.0,300.04708999999997,-526.51337,0.0,0.0,0.006730111804663208,0.0,0.0,0.0,0.037357209908869565,0.033987847324839365,0.088701860207442,-0.02130686222982358,-0.004667943506890156,0.02959624812567227
674,11.0,299.97295,-423.96662000000003,0.0,0.0,0.006740083315759815,0.0,0.0,0.0,0.02600812991130258,0.016485317708474185,0.08638181740047161,-0.018289631413296085,-0.0010897873648536389,0.019586747581811483
675,11.0,299.50405,-566.789,0.0,0.0,0.006750087736133947,0.0,0.0,0.0,0.04381836838428626,0.02181565462178748,0.1066556782460959,-0.011837848541054689,0.022230917950020777,0.016516681852069587
676,11.0,299.84046,-739.94786,0.0,0.0,0.00676009215650808,0.0,0.0,0.0,0.04054720290719736,0.05164204325592286,0.13273642171256486,-0.00012167406109579489,-0.016537085669333287,0.016700773183237986
677,11.0,299.57182,-788.38346,0.0,0.0,0.006770096576882212,0.0,0.0,0.0,0.06706477369052784,0.04849703653553486,0.12408707567894088,-0.002427093794610508,-0.014248414098708986,-0.005922149445595644
678,11.0,299.24691,-711.3597,0.0,0.0,0.006780100997256566,0.0,0.0,0.0,0.055160916971708655,0.03652971793645246,0.12454495326662988,0.018206374679079283,-0.016113475186776183,0.0015213622971717684
679,11.0,299.721,-661.48283,0.0,0.0,0.0067901054176306985,0.0,0.0,0.0,0.06012609678748374,0.041510504843517856,0.09943766247598322,0.02190026607138798,0.0024066308035409676,-0.009262033037841491
680,11.0,299.92897,-720.29967,0.0,0.0,0.006800109838004831,0.0,0.0,0.0,0.05984229860672504,0.04060327008823076,0.1185075430757839,0.012932704790858588,-0.0038375121972579656,0.004655263188513706
681,11.0,299.96457000000004,-816.30877,0.0,0.0,0.006810081349101216,0.0,0.0,0.0,0.053215185976929945,0.06395832518944523,0.13096397371013788,-0.000866671992911366,-0.006015286989487605,0.008515952569884081
682,11.0,299.93034,-681.8470900000001,0.0,0.0,0.00682008576947557,0.0,0.0,0.0,0.038330448788920765,0.05625071913001375,0.11268332070597789,0.015913369437777283,-0.003355136856601227,0.02573435480053308
683,11.0,299.91155,-550.99373,0.0,0.0,0.006830090189849702,0.0,0.0,0.0,0.03708228374598647,0.04495009781847926,0.08545595302884591,0.004683983559948186,0.01980363883196698,0.04044579886368956
684,11.0,299.88203,-600.19843,0.0,0.0,0.006840094610223835,0.0,0.0,0.0,0.04519200013410316,0.050921814952341854,0.08633152067875773,-0.002112530503715528,-0.007156632369779624,0.03922024449673676
685,11.0,300.34677,-708.6645900000001,0.0,0.0,0.006850099030597967,0.0,0.0,0.0,0.038109033377068766,0.07827074528372113,0.09903656033114751,-0.030195104266024772,-0.0037920972132008566,0.03187647729646337
686,11.0,300.09516,-603.18301,0.0,0.0,0.006860103450972099,0.0,0.0,0.0,0.018404863280918584,0.06063769385572444,0.10431001439709692,-0.015359208772585883,0.0034697793166405567,0.017682710815397684
687,11.0,300.39364,-544.66259,0.0,0.0,0.006870107871346454,0.0,0.0,0.0,0.003562104943227387,0.049862568364052354,0.1121391547397729,-0.014113526192396586,0.0038953212565382765,0.021103724836525478
688,11.0,300.20505,-629.48038,0.0,0.0,0.006880112291720586,0.0,0.0,0.0,0.03175360957608726,0.052090547266936744,0.1075021575121369,0.0086777495617522,-0.008777626130734252,0.006404810826755614
689,11.0,299.93242000000004,-699.30177,0.0,0.0,0.006890083802816971,0.0,0.0,0.0,0.04527804837234546,0.05872521874247785,0.1085670124397299,-0.005889696564767795,-0.011960929043951789,0.014252450887107387
690,11.0,299.73347,-851.9395699999999,0.0,0.0,0.006900088223191325,0.0,0.0,0.0,0.06574519376729544,0.07445309653744853,0.11877006604419289,0.02853585149851927,0.003993833686910696,0.0018591237464562283
691,11.0,299.50943,-822.32007,0.0,0.0,0.0069100926435654575,0.0,0.0,0.0,0.08761866140003861,0.04952573363330936,0.11282037291450389,0.013608192023023987,0.016276047112320783,0.006143886564354394
692,11.0,300.08055,-668.11695,0.0,0.0,0.00692009706393959,0.0,0.0,0.0,0.049716800178166154,0.04894333875408145,0.1044307330140109,0.016802606844788185,-0.0017407294239466184,0.014627887406910088
693,11.0,299.69785,-721.45931,0.0,0.0,0.006930101484313722,0.0,0.0,0.0,0.04935790699274615,0.03967863782872666,0.13026906652655587,-0.023523415724580377,-0.006980357655182665,0.004306733727766526
694,11.0,299.9244,-932.52538,0.0,0.0,0.006940105904687854,0.0,0.0,0.0,0.07247475408820134,0.07063938528106453,0.14035028693899487,-0.007407591216122332,-0.0015574972275380085,0.009499830677310292
695,11.0,299.88398,-751.6562700000001,0.0,0.0,0.006950110325061987,0.0,0.0,0.0,0.06888573712099293,0.039207884872016964,0.12039111421667788,-0.008210325840896072,-0.0025067140755434176,-0.0012909921862360087
696,11.0,300.33346,-651.6030900000001,0.0,0.0,0.006960114745436341,0.0,0.0,0.0,0.056766350960152645,0.03120495896493967,0.11009975586599989,-0.013868173760182187,-8.206421484285742e-05,0.013000121386262088
697,11.0,300.18646,-700.98002,0.0,0.0,0.006970086256532948,0.0,0.0,0.0,0.06386749339748085,0.047184138996711956,0.1020287932544579,-0.012925730590420287,-0.0009866382513611142,-0.002204035397721358
698,11.0,300.38433,-701.39709,0.0,0.0,0.00698009067690708,0.0,0.0,0.0,0.037238822780435665,0.05633434468726695,0.1196340340069599,0.001106549865232969,-0.0012244900490477589,0.01060206946734279
699,11.0,299.51351,-712.96223,0.0,0.0,0.006990095097281213,0.0,0.0,0.0,0.03338358042895287,0.05567065472601585,0.1276684790848979,0.012047275177723488,0.007950407026569083,0.00997629228508339
700,11.0,299.96646,-566.88565,0.0,0.0,0.007000099517655345,0.0,0.0,0.0,0.034330608555417266,0.050998308242141153,0.0869901676942611,0.022844398329066578,-0.009005270598901011,0.02014998190164838
701,11.0,300.28963,-466.43182,0.0,0.0,0.007010103938029477,0.0,0.0,0.0,0.022806448059821183,0.038239584572953164,0.08073759384468013,0.02126969520290548,-0.0015576757622056286,0.027569785415925974
702,11.0,300.15522000000004,-544.7720400000001,0.0,0.0,0.0070201083584036095,0.0,0.0,0.0,0.031221734333595267,0.04908459493727236,0.08529076691804333,0.011739323141080988,0.0005270063021839725,0.03394134725125017
703,11.0,300.54954,-793.27677,0.0,0.0,0.007030112778777742,0.0,0.0,0.0,0.05287339645319795,0.07233898060130153,0.11592395797080389,0.009007242890220663,0.0033199002737736467,0.031177852498264474
704,11.0,300.73751,-744.42093,0.0,0.0,0.007040084289874571,0.0,0.0,0.0,0.03723314148712496,0.05988547218023594,0.12916676187526688,-0.014479052112971187,-0.0015856314337896386,0.028072047410995372
705,11.0,300.0114,-574.30426,0.0,0.0,0.007050088710248703,0.0,0.0,0.0,0.024912951447966878,0.04091392446288996,0.10874727976502088,-0.025582080535754774,-0.023651662789737377,0.014353407074070988
706,11.0,299.83321,-586.37865,0.0,0.0,0.007060093130622613,0.0,0.0,0.0,0.034505962630973365,0.03450921415054427,0.10922929297009189,-0.01029005531104939,-0.00891148092724469,0.012104004011072188
707,11.0,299.78727000000003,-889.3943800000001,0.0,0.0,0.007070097550996746,0.0,0.0,0.0,0.08427849663089002,0.05809687195796484,0.12797831070047588,-0.004696045086488566,0.005787323955489405,-0.01105373380541859
708,11.0,299.16757,-900.4114099999999,0.0,0.0,0.007080101971370878,0.0,0.0,0.0,0.08539665763299392,0.05352257768626715,0.1347833490345809,0.014429679475348487,0.007761322804207923,0.00987937714216861
709,11.0,299.85611,-722.03013,0.0,0.0,0.007090106391745232,0.0,0.0,0.0,0.07651509899445233,0.02071132043054818,0.12225270796290287,0.004806176962382735,0.004970870025686675,-0.02020556778888428
710,11.0,299.84698,-722.62896,0.0,0.0,0.007100110812119365,0.0,0.0,0.0,0.03843008673750426,0.05952701671885914,0.12170405329875489,0.006170550038085874,0.011870744718801288,0.014275309809363385
711,11.0,299.73975,-831.0477099999999,0.0,0.0,0.007110115232493497,0.0,0.0,0.0,0.07048435294951402,0.04369374166173655,0.13843966202043087,0.012988472049862388,-0.0011288989200386487,-0.02006846897085368
712,11.0,300.08038,-965.38952,0.0,0.0,0.007120086743590104,0.0,0.0,0.0,0.07992572314905472,0.06710048670355243,0.14642809541132787,0.006909257794340653,0.002817524085417977,0.00997686467006488
713,11.0,300.03226,-818.8478,0.0,0.0,0.007130091163964458,0.0,0.0,0.0,0.07556816003399673,0.04879491483968316,0.1245462096967539,0.006760140107598883,-0.007244814614057534,-0.008877399652181131
714,11.0,299.89155,-472.23514000000006,0.0,0.0,0.0071400955843383684,0.0,0.0,0.0,0.025857140447651077,0.025777718865062773,0.09191283254909031,-0.018029057938079483,-0.005644396213608535,0.020193701616963183
715,11.0,299.87451,-502.14437000000004,0.0,0.0,0.007150100004712501,0.0,0.0,0.0,0.02051870057328808,0.03528935593253826,0.0968312934292546,-0.015171374495548087,0.002134835380816848,0.023345829459053977
716,11.0,300.77692,-775.5838,0.0,0.0,0.007160104425086633,0.0,0.0,0.0,0.03780710713877096,0.06310256353923814,0.13484844022100487,-0.005756836374555515,-0.0015662960887563885,0.03591952150098076
717,11.0,300.91337000000004,-786.2567,0.0,0.0,0.007170108845460765,0.0,0.0,0.0,0.06070442549406034,0.05281777104920816,0.12548020337393187,-0.005958286909087134,-0.01922409422527038,0.024354740822125773
718,11.0,300.5923,-542.7199,0.0,0.0,0.00718011326583512,0.0,0.0,0.0,0.030320055228606473,0.05163883429285615,0.08301440734938412,0.004197633137824136,0.0006440934611370753,0.024608810244950475
719,11.0,300.12349,-456.8566,0.0,0.0,0.007190117686209252,0.0,0.0,0.0,0.012449530401172988,0.03985283882566896,0.08657062743735573,0.009212357134463861,-0.0012322362447372487,0.025490184831185373
720,11.0,299.7503,-661.1663,0.0,0.0,0.007200089197305859,0.0,0.0,0.0,0.03731073516653287,0.05499142758773135,0.10867588616297488,0.011414426523016188,0.02104327940180998,0.01020912601231229
721,11.0,299.17456,-899.19394,0.0,0.0,0.007210093617679991,0.0,0.0,0.0,0.05202886060084875,0.07573931824088873,0.14556431996607985,0.0006202496395188734,0.008329945081451571,0.026384004155148476
722,11.0,299.73632000000003,-841.35505,0.0,0.0,0.0072200980380541235,0.0,0.0,0.0,0.049760147017444155,0.060884362499818746,0.14510642211338887,-0.0032127531286990467,0.013544387664226986,0.013695690222159385
723,11.0,299.91558,-606.1441599999999,0.0,0.0,0.007230102458428256,0.0,0.0,0.0,0.04167616819511756,0.04556087585950836,0.09701564617894881,-0.0007555207266215903,-0.0006251453296295404,0.011352458173400389
724,11.0,299.8709,-599.93829,0.0,0.0,0.007240106878802388,0.0,0.0,0.0,0.05951950650911794,0.03094359110164467,0.091903163103386,-0.0012139122246288088,-0.0035300528028140866,0.007660795424686643
725,11.0,299.72868,-873.74278,0.0,0.0,0.0072501112991767425,0.0,0.0,0.0,0.09924543373326172,0.04502646749176636,0.1213240845112549,0.02085199500818168,-0.01973203042089978,-0.0034292255012632073
726,11.0,300.22271,-942.76304,0.0,0.0,0.007260115719550875,0.0,0.0,0.0,0.08211789379340512,0.06170718237602474,0.14275134517096086,0.0061977313839434636,0.00047871533944052555,0.0015688287073813384
727,11.0,300.64024,-714.31335,0.0,0.0,0.007270087230647482,0.0,0.0,0.0,0.056879439803813645,0.026128402698172574,0.1341255774671639,0.003351580348750227,0.0003928852843422586,-0.0015947642622409785
728,11.0,300.69665,-642.33667,0.0,0.0,0.007280091651021614,0.0,0.0,0.0,0.023835359966616874,0.05025382577091645,0.12116512583556689,-0.022656097956982778,0.003110102787568247,0.01132646020233459
729,11.0,300.60379,-804.20637,0.0,0.0,0.007290096071395746,0.0,0.0,0.0,0.08910452782368222,0.04994681605686695,0.10540731359289189,-0.01004074481996936,-0.01013004842813294,-0.007754732929532554
730,11.0,300.02238,-928.99405,0.0,0.0,0.007300100491769879,0.0,0.0,0.0,0.08720052449452173,0.06265307667562724,0.1325373889954219,-0.0088185193848951,0.01176073615544429,0.009384532340481231
731,11.0,299.81433,-746.55287,0.0,0.0,0.007310104912144011,0.0,0.0,0.0,0.06770319826053543,0.060458775166316536,0.098771458641234,0.010501717177438792,0.008262303747175893,0.02040955935201668
732,11.0,300.08005,-518.2658799999999,0.0,0.0,0.007320109332518365,0.0,0.0,0.0,-0.0009858630947696123,0.058339575754417845,0.10018617565610571,0.005026260355653275,0.012150592237420089,0.027474270381999375
733,11.0,300.20994,-528.0998900000001,0.0,0.0,0.0073301137528924976,0.0,0.0,0.0,0.0006056172644272704,0.05136093525417965,0.10856262506679688,0.0016977695448818083,-0.011667360092478788,0.03858255554630176
734,11.0,299.69582,-664.15105,0.0,0.0,0.00734011817326663,0.0,0.0,0.0,0.023383539588025682,0.06060954779444664,0.1178922469525589,-0.007974916533237982,-0.004680321066136726,0.03848852289727146
735,11.0,300.01424,-702.40045,0.0,0.0,0.007350089684363237,0.0,0.0,0.0,0.06638915878884984,0.05828070693685794,0.08884233213505552,-0.001075995308467469,-0.012838517114562988,0.026967643305499174
736,11.0,300.61717999999996,-549.18421,0.0,0.0,0.007360094104737369,0.0,0.0,0.0,0.040113208637615465,0.038246126115598765,0.08857895297031201,-0.011829779017258289,-0.01067602051264119,0.012804048372661187
737,11.0,300.5701,-555.27885,0.0,0.0,0.007370098525111501,0.0,0.0,0.0,0.03747394037338996,0.049101348014425755,0.08221561771254972,0.002204207447588338,-0.011607329077054189,0.02345313264464398
738,11.0,300.49169,-877.3715599999999,0.0,0.0,0.007380102945485634,0.0,0.0,0.0,0.04795574110686316,0.07547440400224373,0.14326890318953986,-0.017973945238640283,0.009266365999244122,0.008531024259821543
739,11.0,299.9214,-1116.2757,0.0,0.0,0.007390107365859766,0.0,0.0,0.0,0.07523867744597933,0.09022771150653182,0.17385355348300985,0.0011338214916744689,0.016482261746172584,0.014292583697068185
740,11.0,299.75448,-938.04253,0.0,0.0,0.00740011178623412,0.0,0.0,0.0,0.07657051262917122,0.07017902523063053,0.13839196833822387,-0.02094491510860218,0.007872744952779431,0.0022967367374452674
741,11.0,299.62824,-704.77206,0.0,0.0,0.007410116206608253,0.0,0.0,0.0,0.06957730564549543,0.04921527481591945,0.09544052762024671,0.009614596145911761,-0.004800924577839366,0.0015935599131721185
742,11.0,299.68248,-765.4112200000001,0.0,0.0,0.007420120626982385,0.0,0.0,0.0,0.08187597526577962,0.03693822288651876,0.11385169939628789,0.004260557387584276,0.002955904867475097,-0.009995363475815571
743,11.0,299.74817,-926.0758599999999,0.0,0.0,0.00743009213807877,0.0,0.0,0.0,0.07767714284513713,0.06101439288515174,0.14281240362198686,0.018852241571071383,0.008419428642832913,-0.0055607244521507755
744,11.0,299.81841000000003,-850.7203800000001,0.0,0.0,0.007440096558453124,0.0,0.0,0.0,0.06352457916613784,0.04320394162964706,0.15186922818332585,0.004970345668759925,0.0025381454989454573,0.001021517916840969
745,11.0,299.80778,-647.8453400000001,0.0,0.0,0.0074501009788272565,0.0,0.0,0.0,0.026620329542221974,0.03752941784286517,0.1327790592767729,0.006495206718526994,-0.0031803094684471067,0.014779574999880484
746,11.0,299.77463,-668.28338,0.0,0.0,0.007460105399201389,0.0,0.0,0.0,0.03912605175419066,0.048904108749959756,0.11511130099310088,-0.007390831552843283,-0.008408653842594522,0.01134524281943829
747,11.0,300.07815,-855.06685,0.0,0.0,0.007470109819575521,0.0,0.0,0.0,0.07920131924181162,0.05538160993623935,0.12533603814970387,-0.007397607561562023,0.002456459505033678,0.011354878827889289
748,11.0,300.13183,-969.4313699999999,0.0,0.0,0.007480114239949653,0.0,0.0,0.0,0.08963618319090251,0.07439252140672022,0.13065422315456787,-0.013914183420722988,0.0030977233031464872,0.006510912196402004
749,11.0,300.06042,-781.4986200000001,0.0,0.0,0.007490118660324008,0.0,0.0,0.0,0.05742260163916954,0.059994796799775436,0.1201386629542629,-0.008471311911553392,-0.004192423309784966,0.013518269116399287
750,11.0,300.04497000000003,-624.31854,0.0,0.0,0.00750012308069814,0.0,0.0,0.0,0.0031929869497232775,0.06936200013174644,0.1172222657214369,-0.0012040246261779788,0.006146253719238015,0.01662209633947318
751,11.0,300.10536,-641.98213,0.0,0.0,0.007510094591794525,0.0,0.0,0.0,0.00965431139550635,0.06606070160993364,0.11943152584197389,-0.006042729348570954,0.009117328865885302,0.03888967671786226
752,11.0,300.33154,-821.23001,0.0,0.0,0.007520099012168879,0.0,0.0,0.0,0.060530574068402544,0.054838262676115156,0.13426458524838286,-0.014463641592200288,-0.003305340173811677,0.007415598729012613
753,11.0,300.40071,-788.62572,0.0,0.0,0.007530103432543012,0.0,0.0,0.0,0.06381222972377674,0.07099813458497034,0.1049121585340239,-0.01088248643251779,-0.004363960370889356,0.036618577943722266
754,11.0,299.74024,-626.29988,0.0,0.0,0.007540107852917144,0.0,0.0,0.0,0.054932719876937354,0.03495600678213927,0.10049079916616971,0.01997042689117768,-0.005830558729306344,0.005319316602575676
755,11.0,299.51775,-618.96233,0.0,0.0,0.007550112273291276,0.0,0.0,0.0,0.04483352947397486,0.03826089524905636,0.1050546721605889,0.03525760067440426,0.002904003157602797,0.021773260237603478
756,11.0,299.53607,-913.7778599999999,0.0,0.0,0.0075601166936654085,0.0,0.0,0.0,0.05630647321676625,0.06672221814972024,0.15473695901384885,0.021728268893413182,-0.009368349216509081,0.0043953279595350956
757,11.0,299.10417,-1069.7008,0.0,0.0,0.007570121114039541,0.0,0.0,0.0,0.08762343279475951,0.07319573928960703,0.16434315764690685,0.01301343549257609,-0.02029450480316168,0.01706208195689638
758,11.0,299.52533,-940.6550699999999,0.0,0.0,0.00758009262513637,0.0,0.0,0.0,0.07905058815693564,0.06692716216794664,0.13995790583776987,-0.00012650390008246289,-0.013283565942735888,0.0009306374990042701
759,11.0,299.70937000000004,-768.06857,0.0,0.0,0.007590097045510502,0.0,0.0,0.0,0.06921475564046453,0.05992335152197435,0.1043355584321179,-0.01058549573545709,0.004921303654644855,0.004706868725381776
760,11.0,300.26714,-758.4766400000001,0.0,0.0,0.007600101465884634,0.0,0.0,0.0,0.07170650482263102,0.03614529996776337,0.12270615764765488,-0.01121386683797249,0.0003852830309619746,-0.015347621244442286
761,11.0,300.49361,-853.94251,0.0,0.0,0.007610105886258545,0.0,0.0,0.0,0.07640261810085133,0.05607332335550615,0.1271012616789179,-0.014111259551922887,0.004415593164185116,-0.003234872682357077
762,11.0,300.14117000000005,-832.16386,0.0,0.0,0.007620110306632899,0.0,0.0,0.0,0.03666987373003477,0.06207435178826153,0.15421280473711885,0.011678344736812889,-0.0006592820902685764,0.010105625858322621
763,11.0,299.80672000000004,-618.6795,0.0,0.0,0.007630114727007031,0.0,0.0,0.0,0.02827080047111077,0.03942025702672646,0.1203720651147979,0.016008767947942384,0.009555899175568821,0.023609844944860275
764,11.0,300.37836,-561.62556,0.0,0.0,0.007640119147381164,0.0,0.0,0.0,0.032737115719401765,0.03576282135976567,0.1022202063308489,0.014619571663339386,-0.010338523116332791,0.03618519770370096
765,11.0,299.57435,-769.68807,0.0,0.0,0.007650123567755296,0.0,0.0,0.0,0.06906279244346694,0.05944424330494004,0.10545891842048491,-0.0032052734177858565,-0.010857769209578389,0.03992363764990626
766,11.0,299.89819,-852.6229900000001,0.0,0.0,0.007660095078852125,0.0,0.0,0.0,0.06532910970648113,0.07500095478701793,0.11884602940418987,-0.004021637370979707,-0.0003323118356091247,0.033007618032348265
767,11.0,299.75403,-732.96042,0.0,0.0,0.007670099499226257,0.0,0.0,0.0,0.03955256925128466,0.05993323678994995,0.12331586063032787,-0.002340594457423688,0.016361707275774785,0.030261060768034174
768,11.0,299.84497000000005,-671.45714,0.0,0.0,0.0076801039196003895,0.0,0.0,0.0,0.015497810240514786,0.060855067412927545,0.12775332864827188,-0.01178716982405309,-0.006654789556276594,0.01982060773139168
769,11.0,299.64026,-721.1721200000001,0.0,0.0,0.0076901083399743,0.0,0.0,0.0,0.03326384466463587,0.06457667626172174,0.1213777968990559,-0.024387132401322578,-0.01158562424666209,0.02736146727486657
770,11.0,299.81714,-819.35523,0.0,0.0,0.007700112760348432,0.0,0.0,0.0,0.06407243640245715,0.05979823235987604,0.12519286591057388,-0.012024668554742388,-0.013094946396870588,0.016491991986882882
771,11.0,299.61902000000003,-879.33416,0.0,0.0,0.007710117180722786,0.0,0.0,0.0,0.07379514663801393,0.06935712437226524,0.12414336172199587,0.012014729584511488,0.02122888250212758,0.01039308663421779
772,11.0,299.65471,-758.95177,0.0,0.0,0.007720121601096919,0.0,0.0,0.0,0.06429881572654902,0.04841603124304025,0.1179875431244639,0.013062917561209588,0.009995998074353201,0.002044923315968218
773,11.0,299.72471,-723.89265,0.0,0.0,0.007730126021471051,0.0,0.0,0.0,0.05013195407538865,0.04232486104163856,0.12758847285700187,0.00942701072309852,0.01053330930230669,0.00942044222800026
774,11.0,299.89714,-926.34777,0.0,0.0,0.007740097532567658,0.0,0.0,0.0,0.05746060966367065,0.07112933527416883,0.15299665130459386,0.004964718685654585,0.0006191835180286554,0.014162580669487886
775,11.0,299.82661,-962.5039999999999,0.0,0.0,0.007750101952942012,0.0,0.0,0.0,0.07259065774064014,0.06285136668044694,0.15713515988053287,0.016421751463450682,0.01087691659671809,0.015632335403291384
776,11.0,300.36219,-803.93474,0.0,0.0,0.007760106373315923,0.0,0.0,0.0,0.06747846749435624,0.045269819768283356,0.13162779438065186,-0.0002283874034050818,-0.014739150373890886,0.014138198832331587
777,11.0,300.35431,-761.7484599999999,0.0,0.0,0.007770110793690055,0.0,0.0,0.0,0.07250842844202474,0.044975351050721556,0.1140687274352069,-0.009032958063183553,-0.013130872192416189,0.008263612562330061
778,11.0,300.06761,-831.51214,0.0,0.0,0.007780115214064187,0.0,0.0,0.0,0.07347914736907724,0.04290284929618155,0.13637692799685489,-0.002109971945888018,-0.014152675136510286,0.0018031034789024582
779,11.0,299.9731,-831.00765,0.0,0.0,0.0077901196344383195,0.0,0.0,0.0,0.05147587935877375,0.06528038453567234,0.13584930840478288,0.003070163407051537,0.02120693753146178,-0.0012247827770016488
780,11.0,299.95565,-829.6379,0.0,0.0,0.007800124054812674,0.0,0.0,0.0,0.04566059588134996,0.06286126714717404,0.14366734352636285,0.008582757972827263,0.0024392754926127478,0.006616685171690983
781,11.0,299.57819,-837.3857,0.0,0.0,0.007810095565909281,0.0,0.0,0.0,0.06535962373324264,0.06560152098261604,0.12358319653671188,-0.016675305141974486,-0.0069388534112115145,0.02098098377241188
782,11.0,299.45825,-867.81296,0.0,0.0,0.007820099986283413,0.0,0.0,0.0,0.06061262604825045,0.08347646763348593,0.1197043738289019,-0.018054506727591083,0.001047468771777119,0.03214278374074577
783,11.0,299.19646,-857.3979699999999,0.0,0.0,0.007830104406657545,0.0,0.0,0.0,0.06474932293301064,0.07051930197196322,0.12535894773446488,-0.009736788129796172,0.024360176908912276,0.03250465790795997
784,11.0,300.24997,-789.8443900000001,0.0,0.0,0.007840108827031678,0.0,0.0,0.0,0.033956856057280764,0.06657650062633903,0.13955961748846185,-0.0027000859670277375,0.005013384581332535,0.025427121158211476
785,11.0,299.72995,-749.6553200000001,0.0,0.0,0.00785011324740581,0.0,0.0,0.0,0.03631206674872197,0.05567823282351374,0.13588620084092387,-0.01133902349032449,-0.006911395346751613,0.028758039006947473
786,11.0,299.75542,-728.3604799999999,0.0,0.0,0.007860117667779942,0.0,0.0,0.0,0.03438261361679976,0.05034712887987475,0.13667365828863987,0.005591700216982844,-0.007636511974115053,0.02294723612146588
787,11.0,300.47981,-804.2478,0.0,0.0,0.007870122088154297,0.0,0.0,0.0,0.05966395139037354,0.07523188360405883,0.10957541920425189,0.0015612799941363384,-0.0037558546756739962,0.029698034164467767
788,11.0,301.06768,-872.84676,0.0,0.0,0.007880126508528429,0.0,0.0,0.0,0.06618994064693853,0.061318181477133346,0.13781549995883088,0.004012859990663446,-0.014922251759711586,0.014513903863410787
789,11.0,300.31907,-955.3153699999999,0.0,0.0,0.007890098019625036,0.0,0.0,0.0,0.1015598205781739,0.06458406589470103,0.12424813178233589,-0.017223760195852787,-0.014716474849902985,0.004741795760303805
790,11.0,300.31877000000003,-895.69006,0.0,0.0,0.007900102439999168,0.0,0.0,0.0,0.06405632065961664,0.06257353755602735,0.14563755768330786,0.005384258942559984,0.0018262186521087484,0.004147718614047956
791,11.0,299.53577,-810.04625,0.0,0.0,0.0079101068603733,0.0,0.0,0.0,0.05519825422464355,0.048449176680311457,0.14258639818718186,0.007119331897823353,0.023231798292799977,-0.01985598738513338
792,11.0,299.16809,-847.3467699999999,0.0,0.0,0.00792011128074721,0.0,0.0,0.0,0.05840869866298975,0.05545289309402445,0.14371067010063887,0.022379546540939276,0.002795995560543278,0.004763494916495345
793,11.0,299.44661,-905.04696,0.0,0.0,0.007930115701121565,0.0,0.0,0.0,0.07734776259537983,0.05518590777217505,0.14257800847635385,-0.0015086727582194084,-0.009235103484633751,0.008118396901723394
794,11.0,299.68877000000003,-830.65832,0.0,0.0,0.00794012012149592,0.0,0.0,0.0,0.07903814747220783,0.057746970353932246,0.11571426586260888,0.0024650110319026476,-0.01199287479310459,0.03212353300209587
795,11.0,299.656,-692.9187,0.0,0.0,0.007950124541870052,0.0,0.0,0.0,0.06498770116478673,0.041127356477204065,0.1045149239648199,-0.002164407591610398,0.006189452320026384,0.018409712695897182
796,11.0,300.36939,-623.6633,0.0,0.0,0.007960128962244184,0.0,0.0,0.0,0.027870356938840074,0.03987678496528226,0.12183092234377589,0.01023861057697219,-0.006791858990054294,0.028707143454424475
797,11.0,300.34574,-807.76752,0.0,0.0,0.007970100473340791,0.0,0.0,0.0,0.04323453266341616,0.05956864407271744,0.14273798040214186,-0.006552837141814674,-0.0012792133564735288,0.013546442535429788
798,11.0,299.72452000000004,-909.95214,0.0,0.0,0.007980104893714923,0.0,0.0,0.0,0.06820680281198735,0.06881172832043884,0.13958419893588786,0.00038363188926151956,0.0005218571982232954,0.02071480905064248
799,11.0,299.88722,-823.5043599999999,0.0,0.0,0.007990109314089056,0.0,0.0,0.0,0.06297975053436744,0.06321633126046614,0.12412867972804688,-0.021749671775275477,0.013763072367059486,0.014127653938540886
800,11.0,299.22447,-774.0271700000001,0.0,0.0,0.008000113734463188,0.0,0.0,0.0,0.05522882600666074,0.06859262109231463,0.11146348917558989,-0.005787318281288844,-0.00882526752923609,0.025754765710547477
801,11.0,298.97636,-876.6753,0.0,0.0,0.00801011815483732,0.0,0.0,0.0,0.06551412410849064,0.06742168597200233,0.13355159155051588,-0.008572986188862862,0.0005302502831741285,0.006355251548464494
802,11.0,299.37228999999996,-928.6054300000001,0.0,0.0,0.008020122575211674,0.0,0.0,0.0,0.05518124479521485,0.07413533117358752,0.15295628342060988,0.004842437130461335,0.004646397655438746,0.030755830791864173
803,11.0,299.62432,-862.3531199999999,0.0,0.0,0.008030126995585807,0.0,0.0,0.0,0.05398072074548235,0.05955151609302704,0.14860157767083385,0.02177134215516418,0.01168181917140579,0.002310765995679848
804,11.0,299.4182,-677.15597,0.0,0.0,0.008040098506682192,0.0,0.0,0.0,0.04461861102176406,0.039475864192214466,0.12174402601519989,0.008325233671136592,0.004038720261040656,0.026378692698124272
805,11.0,299.59445,-783.2037,0.0,0.0,0.008050102927056324,0.0,0.0,0.0,0.05257650505464704,0.06368324906554734,0.12181460901716588,0.002034289965443788,-0.003089153943075757,0.02118345951339468
806,11.0,299.38746000000003,-1021.7232,0.0,0.0,0.008060107347430678,0.0,0.0,0.0,0.097214843042608,0.07311377039626733,0.14024973199907087,-0.014795300641432486,-0.002134179504027118,0.03723947126049967
807,11.0,300.41713,-1026.2428,0.0,0.0,0.00807011176780481,0.0,0.0,0.0,0.0998221979816839,0.05754412680316315,0.15458585302643588,-0.02011635415732958,0.007704225147822822,-0.005143087078933175
808,11.0,300.14928,-896.28932,0.0,0.0,0.008080116188178943,0.0,0.0,0.0,0.057802600824172545,0.07131021460252022,0.14333676054873687,-0.012574963670802288,-0.01024581985143369,0.006752516515171494
809,11.0,299.82276,-785.6976400000001,0.0,0.0,0.008090120608553075,0.0,0.0,0.0,0.05745713522907774,0.03199755967016327,0.14937776777743786,0.003572145035818267,0.001220450322224069,-0.017024828803719784
810,11.0,300.46412999999995,-900.5885300000001,0.0,0.0,0.008100125028927208,0.0,0.0,0.0,0.07240093679191613,0.06280223114334765,0.13855325748914185,0.004878328678153555,0.004507538923309456,0.00015565189345664586
811,11.0,300.97778999999997,-986.9512599999999,0.0,0.0,0.008110129449301562,0.0,0.0,0.0,0.09626861335722241,0.05089640466633405,0.15284351881698086,0.012789129278188788,0.01072505573798059,-0.002182489039644898
812,11.0,300.78665,-860.30484,0.0,0.0,0.008120100960397947,0.0,0.0,0.0,0.07627508233726452,0.054546442594314744,0.13068966664306586,0.003641594920197436,0.012564490717768688,0.023064325276521677
813,11.0,300.66047000000003,-736.01732,0.0,0.0,0.008130105380772301,0.0,0.0,0.0,0.041580285351404664,0.05756364807958974,0.1245869524832749,0.0020581193786455678,0.0014744224730391686,0.026228180475269876
814,11.0,300.02081,-773.89957,0.0,0.0,0.008140109801146433,0.0,0.0,0.0,0.029772556682822575,0.06432944729032215,0.14114413799484188,0.011762825477150489,-0.003329129057009457,0.021888972385773378
815,11.0,300.17998,-865.3562900000001,0.0,0.0,0.008150114221520566,0.0,0.0,0.0,0.060438184911034434,0.056869652821097745,0.14573886242830586,0.0017317223398326885,-0.007628016783951644,0.024156949336355277
816,11.0,300.55169,-831.55407,0.0,0.0,0.008160118641894698,0.0,0.0,0.0,0.056123138783422545,0.06688202187599164,0.12976651474195788,-0.015530821928772786,-0.018675722257900283,0.02544069566980118
817,11.0,300.12624,-758.7028,0.0,0.0,0.00817012306226883,0.0,0.0,0.0,0.05706393744827215,0.06220015996042784,0.1113626099956339,-0.016511059327264686,-0.01118240846211779,0.03030437822305927
818,11.0,299.59155,-726.20744,0.0,0.0,0.008180127482642963,0.0,0.0,0.0,0.042472802648989255,0.07909306866737813,0.09918305805710571,-0.014214386120600685,0.006160276897971994,0.04098492897689756
819,11.0,299.79201,-840.5567199999999,0.0,0.0,0.008190131903017095,0.0,0.0,0.0,0.06065549058048085,0.06477567554161144,0.13007708603010887,-0.0026647554559158875,0.0024504329974139078,0.012949490292015187
820,11.0,300.11359,-933.1711300000001,0.0,0.0,0.008200103414113924,0.0,0.0,0.0,0.04988802525956475,0.07561936665430043,0.15815333437601883,-0.004839498299871296,0.0031637002728079067,0.007364455740815192
821,11.0,300.01362,-906.5061900000001,0.0,0.0,0.008210107834488056,0.0,0.0,0.0,0.061299521463291734,0.07423685680710733,0.14001886296378588,0.0038074641642174565,-0.018654094434515784,0.009883813657731461
822,11.0,300.01276,-899.58515,0.0,0.0,0.008220112254862189,0.0,0.0,0.0,0.06084908214458685,0.05876462606536704,0.15383770968259985,0.013536808553478987,-0.005035565031321575,0.012756259444944788
823,11.0,299.65542,-978.8200800000001,0.0,0.0,0.008230116675236099,0.0,0.0,0.0,0.08599147191869752,0.07255225049559963,0.13899313975505487,0.007213103533627894,-0.003504300038272487,0.01601110652917318
824,11.0,299.89982000000003,-983.36136,0.0,0.0,0.008240121095610453,0.0,0.0,0.0,0.07827934169756953,0.06741477763282053,0.15322317349694986,-0.0060146290861976745,-0.001887189457001098,0.022814718207137378
825,11.0,299.95452,-938.24556,0.0,0.0,0.008250125515984585,0.0,0.0,0.0,0.06914176819601123,0.06504679695036904,0.15101465304898584,-0.024363977610037373,-0.004485931162276936,0.01854606576185418
826,11.0,300.37872999999996,-802.7036,0.0,0.0,0.008260129936358718,0.0,0.0,0.0,0.04474358022284755,0.06579468090217944,0.13346359077933087,-0.007178265158089614,0.024862091359197373,0.006520217581345373
827,11.0,300.72798,-710.6423900000001,0.0,0.0,0.008270101447455325,0.0,0.0,0.0,0.05405030569609986,0.03162904972804417,0.13033819044837788,0.006641571911372114,-0.0022089013286765878,-0.006072222120556664
828,11.0,300.70594,-802.8277,0.0,0.0,0.008280105867829679,0.0,0.0,0.0,0.06618549450549974,0.05760478299389944,0.12024929973268188,0.004526622678342875,-0.0013997594168954988,0.005620986083298135
829,11.0,299.92138,-1016.4571,0.0,0.0,0.008290110288203811,0.0,0.0,0.0,0.08089571456253543,0.08453675077662771,0.14354511516679988,0.0014101363138196187,-0.01785905382305138,0.023167852078988978
830,11.0,300.32131,-1069.8593,0.0,0.0,0.008300114708577944,0.0,0.0,0.0,0.08680240839773072,0.08536756823587302,0.15304053516642485,-0.005504118728689224,0.015627920672605683,0.027533144265809772
831,11.0,300.09153,-926.77586,0.0,0.0,0.008310119128951854,0.0,0.0,0.0,0.05980643056643514,0.07545084897716903,0.14645944536942185,0.002028890558310908,0.008604876513235191,0.027798983601796078
832,11.0,299.92048,-809.9374799999999,0.0,0.0,0.008320123549325986,0.0,0.0,0.0,0.06337487754336345,0.046632013950971454,0.13619387423378887,-0.017440981765540882,-0.005851484573021564,0.01192758298316079
833,11.0,299.36637,-848.15397,0.0,0.0,0.00833012796970034,0.0,0.0,0.0,0.047366041707664355,0.07536705420714913,0.13508452749430486,-0.006044331702279094,-0.015941104119514483,0.025819435384929874
834,11.0,299.82513,-767.88927,0.0,0.0,0.008340132390074473,0.0,0.0,0.0,0.044253663666996554,0.07226808247855443,0.11689741773937688,-0.007819574755106942,0.018072787785895283,0.04002405681431686
835,11.0,300.16715,-718.5904099999999,0.0,0.0,0.00835010390117108,0.0,0.0,0.0,0.044601382730313756,0.04216162645052856,0.13167053326986988,0.009028162755760292,0.011819414481985388,0.022503153933888378
836,11.0,300.42589,-799.52332,0.0,0.0,0.008360108321545212,0.0,0.0,0.0,0.05365335078392344,0.06610876918142752,0.12327300015109788,-0.012296276323547989,0.004445194151281506,0.033331755726088166
837,11.0,299.97117000000003,-845.69789,0.0,0.0,0.008370112741919566,0.0,0.0,0.0,0.061700218308087446,0.047643030847751046,0.14772779131459787,-0.006101189927665564,0.0074861450513249925,0.01199040955561129
838,11.0,300.2478,-974.8326300000001,0.0,0.0,0.008380117162293477,0.0,0.0,0.0,0.07535347766905923,0.06471602550822445,0.15625527375869486,-0.01042365638973479,0.02096293373513048,0.0030225626398787072
839,11.0,300.2677,-1075.6945,0.0,0.0,0.008390121582667609,0.0,0.0,0.0,0.1006508683639673,0.07247386344136343,0.15385952495725286,0.0034029960025495566,0.0040892437481269365,-0.007963709987131981
840,11.0,301.10925,-966.06011,0.0,0.0,0.008400126003041741,0.0,0.0,0.0,0.09149256275211291,0.051511118170751546,0.15065447303593887,-0.011838008634570489,-0.0073501421646025526,0.005844660536248084
841,11.0,300.88865,-971.22555,0.0,0.0,0.008410130423415874,0.0,0.0,0.0,0.08873258499022432,0.07276020994612363,0.13373551670866787,-0.0003305519417754367,-0.025173672857698077,0.008279300105678303
842,11.0,300.8834,-962.63582,0.0,0.0,0.008420134843790228,0.0,0.0,0.0,0.06320447724754624,0.07457756215323233,0.15483521387604585,0.0002676890037788477,0.018204312715125782,0.02089772906469528
843,11.0,300.63268999999997,-846.21209,0.0,0.0,0.008430106354886835,0.0,0.0,0.0,0.06441261891153054,0.04178053599516786,0.15103418851091385,0.016673106389257484,0.0022620552130224675,0.010500406031809389
844,11.0,300.63424,-753.61253,0.0,0.0,0.008440110775260967,0.0,0.0,0.0,0.04715232598332225,0.04970061350781865,0.13222645293723487,-0.005856479794689555,-0.0014603226925976288,0.01780370402308878
845,11.0,299.88145,-841.21478,0.0,0.0,0.0084501151956351,0.0,0.0,0.0,0.07300420360995394,0.05009555306554615,0.13260852928494288,0.010711130641856291,-0.018748829265865383,0.015352567931430484
846,11.0,300.46291,-874.7298900000001,0.0,0.0,0.008460119616009232,0.0,0.0,0.0,0.06543862988328994,0.07464681171806672,0.12581060396653987,0.00979567863090821,-0.0010914970217473687,0.02061706283999568
847,11.0,299.7365,-998.2597,0.0,0.0,0.008470124036383364,0.0,0.0,0.0,0.08635125777745561,0.08598550286235843,0.13110926364197686,0.0058840061522061945,-0.00959851850127502,0.025636601497135578
848,11.0,299.85447,-1049.9809,0.0,0.0,0.008480128456757496,0.0,0.0,0.0,0.06356772842164635,0.08490119657259572,0.17069905260918483,-0.02135415466499098,-0.009226373220447141,0.016901214318019987
849,11.0,299.73152999999996,-926.93154,0.0,0.0,0.00849013287713185,0.0,0.0,0.0,0.05914433343434124,0.08642410539339511,0.13619560689145987,-0.020144112143819084,-0.007962775770539781,0.024505701914774476
850,11.0,299.80801,-818.2244,0.0,0.0,0.008500137297505983,0.0,0.0,0.0,0.04265828517254496,0.06484744607269463,0.14121405225174186,-0.015847203192997185,0.025358402536429476,0.012887431763140488
851,11.0,299.85397,-832.9392799999999,0.0,0.0,0.00851010880860259,0.0,0.0,0.0,0.06197302677826153,0.05774144814088725,0.13347826264077886,0.008212267633387713,0.01023050457617219,0.015290952192849486
852,11.0,300.48569,-839.6981800000001,0.0,0.0,0.008520113228976722,0.0,0.0,0.0,0.05590933490632174,0.07279094182165663,0.1265470037417169,-0.003412328745245627,-0.012062018979928589,0.016991768479456982
853,11.0,300.07387,-843.42021,0.0,0.0,0.008530117649350855,0.0,0.0,0.0,0.07848932460854323,0.044623680312014365,0.1332656827697989,-0.0006286342334338685,-0.02067759541421978,0.02839424067779337
854,11.0,300.21189,-914.89665,0.0,0.0,0.008540122069724765,0.0,0.0,0.0,0.051601933750714354,0.07627742699799593,0.15022637486868884,0.014068747630727288,-0.005274031415856375,0.02156500593130038
855,11.0,300.41773,-907.95973,0.0,0.0,0.00855012649009912,0.0,0.0,0.0,0.06546847415173535,0.049965938112754155,0.16056267086130185,0.012430751837069688,-0.011351495585805388,0.007071500717577783
856,11.0,299.81854,-994.84058,0.0,0.0,0.008560130910473474,0.0,0.0,0.0,0.06798559916940623,0.06326443530896364,0.17115665661934684,0.0014780830416754385,-0.017252661128455082,-0.0015273700596646885
857,11.0,299.78029,-1065.9481,0.0,0.0,0.008570135330847606,0.0,0.0,0.0,0.09397411154552272,0.08034395428683092,0.14970352768458786,-0.014464512987286288,-0.02353503871647748,-0.004055101272757337
858,11.0,300.16634,-1055.2803,0.0,0.0,0.00858010684194399,0.0,0.0,0.0,0.1085572447087659,0.06548911912252284,0.14673249600636987,-0.009630270922308741,0.016538963221768586,0.004805719479962585
859,11.0,299.91545,-998.18758,0.0,0.0,0.008590111262318345,0.0,0.0,0.0,0.08830555782833002,0.07609294759203923,0.13902559415575788,0.00043512117594561654,0.018216251841054083,0.0007274911789727892
860,11.0,299.72308,-926.1135300000001,0.0,0.0,0.008600115682692477,0.0,0.0,0.0,0.053645472764395956,0.07359811914281883,0.15427179615794087,-0.004058077086976026,0.00917146955450357,0.013084630497602489
861,11.0,300.24931000000004,-861.3852800000001,0.0,0.0,0.00861012010306661,0.0,0.0,0.0,0.047690006135637154,0.058051674924004246,0.15609793628316687,-0.009108426653156722,-0.001009916233593472,0.0014548999807124487
862,11.0,299.80024,-795.25647,0.0,0.0,0.008620124523440742,0.0,0.0,0.0,0.047599883618742754,0.058373864137801844,0.13576435751639887,-0.0008581858814688523,0.008838727340914471,0.017421515204619684
863,11.0,300.24,-732.07523,0.0,0.0,0.008630128943814874,0.0,0.0,0.0,0.04078225463889516,0.053595748528988546,0.12815458582037287,0.008394461755068873,0.003392420812580867,0.026855353916167078
864,11.0,300.5145,-807.17876,0.0,0.0,0.008640133364189229,0.0,0.0,0.0,0.058641903239755246,0.07163463296653783,0.1150856556330699,0.004880760883693595,-0.017323653483461484,0.031101449387724068
865,11.0,299.86469,-903.7689300000001,0.0,0.0,0.008650137784563361,0.0,0.0,0.0,0.058345225636975445,0.07475600056209283,0.14162195634449887,-0.0009488999337716321,-0.013817892237219787,0.048078506488979156
866,11.0,300.40071,-939.36805,0.0,0.0,0.008660109295659746,0.0,0.0,0.0,0.05888992963898354,0.06682450676056534,0.15982998971399184,-0.008661705050393731,0.007263224456449443,0.015005914807218485
867,11.0,300.29524,-931.8721099999999,0.0,0.0,0.008670113716033878,0.0,0.0,0.0,0.055997215100744846,0.08029671656716893,0.14697192700499986,0.002843430559999747,0.015685537113041985,0.018787773533458882
868,11.0,299.50397000000004,-956.35097,0.0,0.0,0.008680118136408232,0.0,0.0,0.0,0.05703669925908395,0.07553762168923282,0.15813249182146183,-0.002008729414446158,-0.003096238891749987,-0.004198303301440277
869,11.0,299.67548,-991.44445,0.0,0.0,0.008690122556782365,0.0,0.0,0.0,0.07800162707041122,0.08416930069411321,0.13920342968080887,0.009934602413693922,-0.0029803569228633274,0.011263408688361889
870,11.0,300.25289,-1032.5537,0.0,0.0,0.008700126977156497,0.0,0.0,0.0,0.1026051299113379,0.08389683166272263,0.12736857732029988,0.0068191692213246035,-0.0020200410345875284,0.015963363197711286
871,11.0,299.78002999999995,-954.51721,0.0,0.0,0.00871013139753063,0.0,0.0,0.0,0.08417012243994432,0.05784552817790915,0.14813374996716286,-0.01107790387330399,0.012826878923914388,0.02386345536538968
872,11.0,300.25494,-750.05332,0.0,0.0,0.008720135817904762,0.0,0.0,0.0,0.03726514904453387,0.059168914881767246,0.13156341246929787,-0.009290836191809142,-0.0014273844649718788,0.024824645688501772
873,11.0,300.12211,-773.31969,0.0,0.0,0.008730140238279116,0.0,0.0,0.0,0.04495759080296875,0.05175658813997755,0.13835569398464387,-0.01282808165178309,0.005236224724150145,0.014226282690024785
874,11.0,300.01984,-988.5852800000001,0.0,0.0,0.008740111749375501,0.0,0.0,0.0,0.06889881108703323,0.06417392961197373,0.16743249640680086,-0.0025563057778377374,0.014063699618729086,0.008757157262814133
875,11.0,300.27762,-1118.78,0.0,0.0,0.008750116169749855,0.0,0.0,0.0,0.10186749397103889,0.09206832185643592,0.14614535810342386,0.003082359695855217,0.0026309373219032973,-3.061734078144627e-05
876,11.0,300.84531,-1126.8663,0.0,0.0,0.008760120590123988,0.0,0.0,0.0,0.10009187956204942,0.0875737419966054,0.15487359578983387,0.004939306778446625,-0.02087506975270898,0.014219034912059487
877,11.0,300.95432,-1052.0928,0.0,0.0,0.00877012501049812,0.0,0.0,0.0,0.07189094065883343,0.08537624570972942,0.16254274394171986,0.02061092355763978,0.0025505338999680977,0.024595541734890976
878,11.0,300.5442,-927.5495400000001,0.0,0.0,0.008780129430872252,0.0,0.0,0.0,0.062394525647610236,0.06759136787349863,0.15196600370037686,0.009190393925296261,0.005105243302273285,0.017789119301149382
879,11.0,300.08146,-956.94697,0.0,0.0,0.008790133851246384,0.0,0.0,0.0,0.06539701266193264,0.06178046670275735,0.16371050454946884,-4.183338408063356e-06,0.0025857022910639477,0.006904422666188463
880,11.0,299.61217,-850.16709,0.0,0.0,0.008800138271620517,0.0,0.0,0.0,0.04535681640861926,0.06786271118402815,0.14521003706861485,-0.025198117516360575,-0.02274120387263208,0.009178091143907071
881,11.0,299.7981,-712.9744400000001,0.0,0.0,0.008810109782717124,0.0,0.0,0.0,0.05436899413080195,0.054668731748883745,0.10768869685554688,-0.00989794474760109,-0.006016116030719425,0.02047674695289758
882,11.0,299.97312999999997,-771.24883,0.0,0.0,0.008820114203091478,0.0,0.0,0.0,0.05942703629174184,0.059921655341306945,0.1150916946036659,0.00926797169667759,-0.0033644026234656865,0.02242153967808368
883,11.0,300.31942000000004,-875.26981,0.0,0.0,0.00883011862346561,0.0,0.0,0.0,0.06904587116679693,0.06941098874758124,0.12760330683846588,0.0099587439079265,0.014767328859171886,0.042601611054701664
884,11.0,299.93491,-957.2175699999999,0.0,0.0,0.008840123043839743,0.0,0.0,0.0,0.05946447081668635,0.06721685138478674,0.16428891836905385,0.01069536852330069,-0.01916780108946468,0.025548899634730074
885,11.0,299.7357,-960.82664,0.0,0.0,0.008850127464213653,0.0,0.0,0.0,0.049483935040184154,0.07099792382894952,0.17158544379666485,-0.005854112133180885,0.007039111671506233,0.03913478293030236
886,11.0,299.99052,-968.9464199999999,0.0,0.0,0.008860131884588007,0.0,0.0,0.0,0.06683573863792383,0.059725531665201045,0.16797425083776785,-0.00018077552087865481,0.002376519948994258,0.011040437937606389
887,11.0,300.23773,-905.6442199999999,0.0,0.0,0.00887013630496214,0.0,0.0,0.0,0.09378286362889801,0.04096907161283256,0.14054129471534585,-0.012110607361973887,0.004701760526327636,-0.0038585623667604565
888,11.0,299.76729,-982.1471,0.0,0.0,0.008880140725336272,0.0,0.0,0.0,0.09163980319039441,0.06353493458215985,0.14337346046735885,-0.014401856640852587,-0.015506108758833785,-0.004554759113744725
889,11.0,300.04242999999997,-969.2873,0.0,0.0,0.008890112236432879,0.0,0.0,0.0,0.07518606342128673,0.05037315420869325,0.16907991947938886,-0.013470097180145088,0.01047452863750549,-0.0003532095413690677
890,11.0,300.04196,-963.33824,0.0,0.0,0.008900116656807233,0.0,0.0,0.0,0.07003790076995263,0.06437661712222745,0.15841625251196684,0.00996914471755298,0.008647791403995561,-0.0018398837482573884
891,11.0,300.52745,-1026.0331,0.0,0.0,0.008910121077181365,0.0,0.0,0.0,0.07413630693343383,0.06594215134823364,0.17181000028382684,0.0018555155628501281,0.012355117783355189,0.01014596506732879
892,11.0,300.89171,-1125.7035,0.0,0.0,0.008920125497555276,0.0,0.0,0.0,0.1018409974809239,0.07076479220619124,0.16957996853623983,0.0045120510273297665,-0.013828748198791187,0.005863104525168365
893,11.0,300.50282999999996,-1018.8504,0.0,0.0,0.008930129917929408,0.0,0.0,0.0,0.08602186131569672,0.07620400486924972,0.14747921066756486,0.0029174255803524874,0.006381729698752683,0.015197208320097685
894,11.0,299.60524,-911.8282199999999,0.0,0.0,0.00894013433830354,0.0,0.0,0.0,0.06438690161074244,0.06483540258200603,0.14795070633659785,0.005156677295899425,0.006350618563707253,0.01102507909259059
895,11.0,299.5761,-820.43576,0.0,0.0,0.008950138758677895,0.0,0.0,0.0,0.05387511475380985,0.04318098746188166,0.15233588051688085,0.004597479055185855,0.011079261628437989,0.030229895221458372
896,11.0,299.91424,-825.2157900000001,0.0,0.0,0.008960143179052027,0.0,0.0,0.0,0.04067118824243376,0.059316542381586936,0.15085726491095286,0.0035099415108542564,-0.012959551865508187,0.02078459867778018
897,11.0,299.70907,-855.90267,0.0,0.0,0.008970114690148634,0.0,0.0,0.0,0.04145841770887725,0.06615549115678863,0.15255912991141385,-0.002228889206774238,0.00044456259984741254,0.03071123258871267
898,11.0,299.94101,-909.4534800000001,0.0,0.0,0.008980119110522766,0.0,0.0,0.0,0.06132124858518603,0.07630991382270214,0.13881998544546587,0.004337155954068965,-0.0032882400584990272,0.014399845339404086
899,11.0,300.00129,-952.7724699999999,0.0,0.0,0.00899012353089712,0.0,0.0,0.0,0.08551302028772802,0.07884882169102284,0.12525719715942288,-0.006570898831472224,0.005780177806509135,0.02169882283225708
900,11.0,300.31852000000003,-912.38724,0.0,0.0,0.00900012795127103,0.0,0.0,0.0,0.07320404895367713,0.062215899787481245,0.14192299294920888,0.0018158551300859484,-0.005215845528863875,0.02062497531002658
901,11.0,300.36565,-929.1597,0.0,0.0,0.009010132371645163,0.0,0.0,0.0,0.06107765616839534,0.08157421317399802,0.13978948340614789,-0.01147553158354679,0.015107236777468187,0.020802894934835878
902,11.0,300.09687,-1025.5768,0.0,0.0,0.009020136792019295,0.0,0.0,0.0,0.06068345526999074,0.07947922435998872,0.17158705486432382,0.0034351487586977867,0.0010868987914685589,0.024070394473062976
903,11.0,299.48824,-1033.3585,0.0,0.0,0.009030141212393428,0.0,0.0,0.0,0.07532528702477702,0.06843559468456734,0.17035429426265986,-0.016670918782291586,-0.005761661572856724,0.018044961911649084
904,11.0,299.43309,-883.1007300000001,0.0,0.0,0.009040112723490257,0.0,0.0,0.0,0.09002057076208861,0.058490300759793244,0.11992970038613988,-0.00957986669475923,-0.02351787324653338,0.027418653084010376
905,11.0,299.32759,-871.1864800000001,0.0,0.0,0.009050117143864389,0.0,0.0,0.0,0.08777252849397411,0.03884998163194467,0.13819642120142486,0.005378491016365734,-0.001177800396364849,-0.004972733392620575
906,11.0,299.08282,-894.34535,0.0,0.0,0.009060121564238521,0.0,0.0,0.0,0.07337825096386953,0.058306989631201844,0.14017341400153888,0.011678370068065387,-0.0037728014862465167,0.005312048964908414
907,11.0,299.56647999999996,-1022.2703,0.0,0.0,0.009070125984612654,0.0,0.0,0.0,0.06416142205273935,0.06935487901004364,0.17722834506107585,0.012374664391034289,0.005740725596640505,0.005157018862508135
908,11.0,298.95171,-1174.1225,0.0,0.0,0.009080130404986786,0.0,0.0,0.0,0.07614067572474963,0.08377856511105061,0.1969846752458738,-0.007406740896638413,-0.002847597247060967,0.009438003878733461
909,11.0,299.78637000000003,-1087.3733,0.0,0.0,0.009090134825360918,0.0,0.0,0.0,0.07179330793219783,0.09557381864440151,0.16316718971334784,0.005040172988801345,0.016300844382018086,0.018109973051315183
910,11.0,299.95097000000004,-979.9453,0.0,0.0,0.00910013924573505,0.0,0.0,0.0,0.09679296420447181,0.08004198549202893,0.12104395125610788,0.00017827966296733282,7.632823541101032e-05,0.01004993064140093
911,11.0,299.92439,-1086.7809,0.0,0.0,0.009110143666109405,0.0,0.0,0.0,0.09150435698327691,0.09095163918622791,0.14789827064392286,-0.005214503073806385,-0.0020845851672825384,0.01883613494748178
912,11.0,299.7996,-1085.4816,0.0,0.0,0.009120115177206012,0.0,0.0,0.0,0.08800878498004082,0.09299329558122373,0.14895722845593384,-0.01015962367867679,-0.004653421505131946,0.017169928244539983
913,11.0,300.13788,-878.1822,0.0,0.0,0.009130119597580144,0.0,0.0,0.0,0.027434328063057373,0.06394094491047994,0.17557019166992882,0.005289514586659445,0.011181829896310688,0.01796181258194288
914,11.0,299.83897,-813.83003,0.0,0.0,0.009140124017954276,0.0,0.0,0.0,0.017427570387217286,0.07839894168637314,0.15155749165755986,0.00998740966518059,0.01130836558204879,0.022264518336586877
915,11.0,300.75465,-971.9952800000001,0.0,0.0,0.009150128438328409,0.0,0.0,0.0,0.06517063131134053,0.07106784315210003,0.15922382297416784,0.003718647220076906,-0.009234304739579922,0.02360733512436258
916,11.0,300.30265,-1134.1067,0.0,0.0,0.009160132858702319,0.0,0.0,0.0,0.13051545855337288,0.07743452314844243,0.13679012125513387,0.0012967108684753988,-0.018669100668496783,0.018143702120643982
917,11.0,300.02906,-1036.9769,0.0,0.0,0.009170137279076673,0.0,0.0,0.0,0.08789481967504331,0.07871695732300883,0.14860331032850485,0.006326362268238344,-0.014063010608661088,0.022017441352702276
918,11.0,299.63289,-945.25285,0.0,0.0,0.009180141699451028,0.0,0.0,0.0,0.07454007595253273,0.06371440346637203,0.14907878807043087,0.007276463480931034,-0.008405063390865173,0.015686938437930283
919,11.0,300.0586,-980.1111,0.0,0.0,0.00919014611982516,0.0,0.0,0.0,0.036383490748270964,0.08831183896569993,0.17323397131186186,0.0013764608454211085,-0.005489213313093175,0.016063265604570883
920,11.0,299.74109,-1034.245,0.0,0.0,0.009200117630921545,0.0,0.0,0.0,0.05359510511517505,0.08668429282032361,0.17410524480784983,-0.008295391834491432,-0.004776529365781746,0.028461897413470574
921,11.0,299.09281,-1051.8584,0.0,0.0,0.0092101220512959,0.0,0.0,0.0,0.09518781088630551,0.05946572826006044,0.16508516069513685,-0.00990139263504137,0.02160005931850988,0.0036502871875052963
922,11.0,299.15128,-967.19834,0.0,0.0,0.009220126471670032,0.0,0.0,0.0,0.10979605441352688,0.06796216877409385,0.1162459181900789,-0.003965086768323596,0.007356043941135012,0.02141619292886368
923,11.0,300.15699,-807.98755,0.0,0.0,0.009230130892044164,0.0,0.0,0.0,0.07605287760358463,0.04676836803017855,0.12278679209061288,-0.0038057581550240867,-0.0039967529617738065,0.013599372694153587
924,11.0,299.77912000000003,-988.35323,0.0,0.0,0.009240135312418296,0.0,0.0,0.0,0.07608397830215402,0.06389283579573195,0.16045789066846083,-0.007874602645512773,-0.002376081414350978,0.01830368823193338
925,11.0,300.25982999999997,-1261.1281,0.0,0.0,0.009250139732792428,0.0,0.0,0.0,0.08191084018847053,0.09685553138489672,0.2045850743784748,0.01086354980139889,0.00970776935620724,0.007058485418718273
926,11.0,299.99956000000003,-1178.4598,0.0,0.0,0.009260144153166783,0.0,0.0,0.0,0.06489632728401884,0.08433522343773851,0.2089907972707858,0.0035715153008811164,0.014768568064044184,0.009801462363804022
927,11.0,299.84735,-952.9752,0.0,0.0,0.009270115664263168,0.0,0.0,0.0,0.07855822764184342,0.07422320528851002,0.13689922802590188,-0.015058110359619787,-0.013611279396078686,0.028083766661651976
928,11.0,300.06248,-948.56785,0.0,0.0,0.0092801200846373,0.0,0.0,0.0,0.09805617195839071,0.06960014328949933,0.12068462237314488,0.011437636029806788,-0.00911755877233299,0.03346575399881277
929,11.0,300.1512,-933.05253,0.0,0.0,0.009290124505011432,0.0,0.0,0.0,0.08690492600309842,0.057913330821600745,0.13880641802662688,0.0018240667115463683,-0.00948329909662875,0.03080182930665387
930,11.0,299.78386,-970.2601400000001,0.0,0.0,0.009300128925385787,0.0,0.0,0.0,0.061055771992735534,0.07784133799734193,0.15603774922722685,0.023208228068973775,0.012725712994180089,0.023283931023695078
931,11.0,300.36723,-925.28585,0.0,0.0,0.009310133345759919,0.0,0.0,0.0,0.029812481776512873,0.06037362365441274,0.1910776906078998,-0.003197032046772497,-0.011734732104877889,0.022174554899958183
932,11.0,300.09432999999996,-883.71731,0.0,0.0,0.009320137766134051,0.0,0.0,0.0,0.03961855716404716,0.08004474761180153,0.14896468597666987,-0.002286979949582348,0.009311056914779771,0.02605757448968237
933,11.0,300.37735,-914.00649,0.0,0.0,0.009330142186508183,0.0,0.0,0.0,0.06244810935264854,0.06577454458294214,0.14961249729560386,-0.01025988477607179,0.004684276591877105,0.008317564178479673
934,11.0,300.96469,-1049.9794,0.0,0.0,0.009340146606882316,0.0,0.0,0.0,0.1124433830822979,0.06149153944999244,0.14523259201584088,-0.016297201747908586,0.01865296364740418,0.022778433721056375
935,11.0,300.84597,-1208.2532,0.0,0.0,0.009350118117978923,0.0,0.0,0.0,0.1069592581085569,0.09197833612830501,0.16834119936148284,-0.020332961697457082,-0.010589854737387291,0.018569132400380682
936,11.0,300.36506,-1005.3049,0.0,0.0,0.009360122538353055,0.0,0.0,0.0,0.07545468210229733,0.07007134714250353,0.16006156802434685,-0.007853459459651102,-0.0017456170384539883,0.02910897209958187
937,11.0,299.84815,-898.04994,0.0,0.0,0.00937012695872741,0.0,0.0,0.0,0.027271018491439973,0.06842556350857734,0.17728817747948084,0.016251236670372184,0.00917671859532161,0.005775371758634814
938,11.0,299.97487,-1039.6816,0.0,0.0,0.009380131379101542,0.0,0.0,0.0,0.07586893927318134,0.06718007445915714,0.17298823789760984,-0.001960925186653248,0.0002868557034654537,0.02398689354557208
939,11.0,299.91495,-1073.1706,0.0,0.0,0.009390135799475674,0.0,0.0,0.0,0.10872104671993188,0.051177868318862355,0.16631815434432384,-0.013341969678499885,-0.015231807771262384,-0.007003548518171424
940,11.0,299.62397999999996,-960.53977,0.0,0.0,0.009400140219849806,0.0,0.0,0.0,0.09302090461994851,0.07166762236329363,0.12729158044520086,-0.022102306114827774,-0.006398596867867343,0.01940296225217328
941,11.0,299.32516,-971.15425,0.0,0.0,0.009410144640223939,0.0,0.0,0.0,0.07528379645968222,0.06127825840994324,0.15864458842200185,0.02319946750860918,-0.0034614165582652163,-0.0003665788900785196
942,11.0,299.99097,-994.18754,0.0,0.0,0.009420149060598071,0.0,0.0,0.0,0.07247629726810363,0.06191518438305294,0.16781671071221987,0.005709784484961854,-0.004431266826006986,0.014018052701724086
943,11.0,300.48631,-1093.7167,0.0,0.0,0.009430120571694678,0.0,0.0,0.0,0.04021837994499506,0.1001309525124056,0.19211322207759882,0.016675883707781582,-0.030244196233369765,0.018904257778204984
944,11.0,300.80827999999997,-1095.5041,0.0,0.0,0.009440124992069032,0.0,0.0,0.0,0.08484934552522841,0.08170453537535982,0.16645201481503485,-0.013280573815190587,-0.0007475922776366133,0.02212804064086758
945,11.0,300.30185,-915.85275,0.0,0.0,0.009450129412443165,0.0,0.0,0.0,0.06405727514121085,0.07165724465576943,0.14268184634660186,-0.0008961485731604782,0.003998959415191566,0.016187390768321087
946,11.0,299.97048,-829.3229200000001,0.0,0.0,0.009460133832817297,0.0,0.0,0.0,0.07647723485146543,0.05936937324180095,0.1162468503801709,-0.013272417151885587,0.02636343821786877,0.00949597161297943
947,11.0,300.27759,-1061.3025,0.0,0.0,0.009470138253191207,0.0,0.0,0.0,0.07951114680438923,0.062440038815602034,0.18065826757708284,-0.004749599711248995,-0.002237347008008958,0.012467304834427187
948,11.0,300.43125,-1239.9344,0.0,0.0,0.009480142673565561,0.0,0.0,0.0,0.09039107579365462,0.0992411537648393,0.18727687802528883,-0.0025660366264980976,0.005065831318433625,0.024831679670695977
949,11.0,299.82384,-1073.6754,0.0,0.0,0.009490147093939694,0.0,0.0,0.0,0.042543265074193364,0.08246891098579782,0.2013583389050208,0.016966915481004183,-0.01059968326335729,0.024454497320970978
950,11.0,300.00177,-911.58968,0.0,0.0,0.0095001186050363,0.0,0.0,0.0,0.06542947415538634,0.07585627060718103,0.13581475657637287,0.009294456027791392,-0.002103668314365898,0.032065370419855674
951,11.0,299.9554,-988.94659,0.0,0.0,0.009510123025410433,0.0,0.0,0.0,0.07835200692849102,0.08324082821673012,0.13902224029792687,0.006904694115890253,-0.02221609207455758,0.013163114823848288
952,11.0,299.91932,-1030.8549,0.0,0.0,0.009520127445784787,0.0,0.0,0.0,0.08423944090578551,0.07250852571403434,0.15660618253332684,-0.013260135547423486,0.003495930389796466,0.016291855840380984
953,11.0,299.97344,-1008.2595,0.0,0.0,0.00953013186615892,0.0,0.0,0.0,0.06953535202510493,0.08248363756275122,0.15446673534467983,0.011751526725285389,0.0014996616211050784,0.013586026163836386
954,11.0,300.09984,-1010.3809,0.0,0.0,0.00954013628653283,0.0,0.0,0.0,0.05568722237840095,0.06865159427463484,0.18279174672264084,-0.008702996106543842,0.0027192960743486275,0.01937206521687398
955,11.0,299.94774,-1046.1883,0.0,0.0,0.009550140706906962,0.0,0.0,0.0,0.07123496254409344,0.07294123112948903,0.17383891201906485,-0.008743127903254542,-0.014479889057553787,0.015498345236567585
956,11.0,300.09666,-1170.8364,0.0,0.0,0.009560145127281094,0.0,0.0,0.0,0.0990122838720016,0.09548388864502609,0.16140885628481383,-0.012790894359862987,-0.004316247639580476,0.021453925349337582
957,11.0,300.46152,-1292.9038,0.0,0.0,0.009570149547655449,0.0,0.0,0.0,0.13726912510740788,0.08355627627761242,0.17218508520584483,-0.016932835827140783,0.009070160047230102,0.004603272413957616
958,11.0,300.96337,-1192.7166,0.0,0.0,0.009580121058752056,0.0,0.0,0.0,0.1045148733023149,0.0960600155591354,0.16198118047129784,-0.011547289955628788,0.008611426972481672,0.003176940209214587
959,11.0,301.062,-895.3988699999999,0.0,0.0,0.009590125479126188,0.0,0.0,0.0,0.055615849041356955,0.07275778523863433,0.14380526712997485,0.007254253241389053,-0.016735352369400682,0.007584185307150813
960,11.0,300.67575,-921.9538,0.0,0.0,0.00960012989950032,0.0,0.0,0.0,0.04487791793435566,0.07113076800981023,0.16424224806944784,0.022356290424644078,0.017135040017096783,0.02265543022516688
961,11.0,300.38202,-1058.4563,0.0,0.0,0.009610134319874675,0.0,0.0,0.0,0.051024175503944044,0.0924134419332466,0.17830666608249784,0.026544508037238977,-0.0063999548256513635,0.03606684097277007
962,11.0,299.77671000000004,-1009.3135,0.0,0.0,0.009620138740248585,0.0,0.0,0.0,0.08617751071655812,0.06982740110142793,0.15080118151791785,0.012925053739353487,0.0002998166110595957,0.02821105012596387
963,11.0,299.99811,-963.94171,0.0,0.0,0.009630143160622717,0.0,0.0,0.0,0.06708664570718643,0.07663757965329022,0.14928997978877387,-0.011167591705905488,-0.02063280570679938,0.03037448499747827
964,11.0,300.18606,-1044.2851,0.0,0.0,0.00964014758099685,0.0,0.0,0.0,0.08603272234351861,0.07436858742610813,0.15703527368567485,0.0034751479209703968,0.017215972355584183,0.002792224648971117
965,11.0,300.01367,-1092.2769,0.0,0.0,0.009650152001370982,0.0,0.0,0.0,0.06454856161119704,0.07193054961849252,0.19554577904386583,-0.0014389512214884287,0.009014459865382922,0.017029450237425883
966,11.0,300.37297,-1150.9187,0.0,0.0,0.009660123512467811,0.0,0.0,0.0,0.057828854134263544,0.1038811157622679,0.18814059267553082,-0.0006294845427852875,0.013039683736416589,0.015606510697992685
967,11.0,300.21848,-1163.385,0.0,0.0,0.009670127932841943,0.0,0.0,0.0,0.08121998803178873,0.09408641005410572,0.17833357800515384,-0.011826437318428489,-0.01913876336809888,0.02737933290062977
968,11.0,300.12289,-1042.2494,0.0,0.0,0.009680132353216075,0.0,0.0,0.0,0.09906129579258871,0.06645188200979014,0.15130461483010285,-2.278862093756178e-05,-0.006110744876108564,0.016888789845293784
969,11.0,300.42717000000005,-854.58656,0.0,0.0,0.009690136773590208,0.0,0.0,0.0,0.07108665008720613,0.06666849056316773,0.12201783658972287,0.005820056898644894,-0.0006640526338593923,0.027844783519566173
970,11.0,300.61571000000004,-872.16813,0.0,0.0,0.00970014119396434,0.0,0.0,0.0,0.08118122513596313,0.03306088864310567,0.15087521970272486,-0.007365250230218603,-0.007978841154850312,0.005786400074048225
971,11.0,300.64468999999997,-968.6641900000001,0.0,0.0,0.009710145614338472,0.0,0.0,0.0,0.05487391590738385,0.06104867721553535,0.17852712903925583,-0.01137830010395079,-0.0011810070289563189,0.023141772034665078
972,11.0,300.8426,-1021.4933,0.0,0.0,0.009720150034712605,0.0,0.0,0.0,0.05839225868011725,0.07952040892355332,0.17259578586887783,-0.0004331430888353946,0.013448897961552887,0.027100457088856875
973,11.0,299.9883,-1100.524,0.0,0.0,0.009730154455086959,0.0,0.0,0.0,0.08500891620397683,0.06566777740665504,0.18385511217258682,0.01049960455098029,0.02145891155307968,0.029076528844629967
974,11.0,300.03045,-1146.9767,0.0,0.0,0.009740125966183566,0.0,0.0,0.0,0.10646608901988489,0.09207726885481891,0.15010891891709688,-0.0017167141806764983,-0.008234464498028372,0.02612613808419908
975,11.0,300.21914,-1119.5843,0.0,0.0,0.009750130386557698,0.0,0.0,0.0,0.09145443212434973,0.07384160314184883,0.17502963287407983,-0.016136824522080585,-0.018371228443849082,0.006371434976411674
976,11.0,299.90727999999996,-1168.9829,0.0,0.0,0.00976013480693183,0.0,0.0,0.0,0.1036446637189319,0.07780477892048383,0.17389216844432084,-0.004775321774312565,-0.0029803846859160674,0.003233926509413697
977,11.0,299.88007000000005,-1028.6007,0.0,0.0,0.009770139227305963,0.0,0.0,0.0,0.05176462118677035,0.06929618548475103,0.19160811690274882,0.004953920884638925,0.01876959481341478,-0.00047076518663840655
978,11.0,300.1332,-891.14886,0.0,0.0,0.009780143647680095,0.0,0.0,0.0,0.04414020093404866,0.06278271189342123,0.16396409065199583,0.007371799068264924,0.016024200760215483,0.00944434793893457
979,11.0,299.65136,-934.59922,0.0,0.0,0.009790148068054227,0.0,0.0,0.0,0.05375728085993055,0.0856190680564441,0.14471847904760185,0.0015641313812427486,-0.0032857298327012866,0.03345616459986637
980,11.0,300.52225,-1040.5836,0.0,0.0,0.009800152488428582,0.0,0.0,0.0,0.09421412212320991,0.06984029166920014,0.15225700912909684,-0.012739181114509288,0.0023556752666120473,0.033524090860070174
981,11.0,300.71696000000003,-996.90666,0.0,0.0,0.009810123999524967,0.0,0.0,0.0,0.08918129367775841,0.06834522898764894,0.14550820617554186,0.008627321117525302,0.007916678565190342,0.03261951791279577
982,11.0,299.7591,-886.11654,0.0,0.0,0.009820128419899099,0.0,0.0,0.0,0.06845832391081053,0.05894266424043804,0.14195630861249686,0.008510677893838513,0.0016095564978008583,0.023367166479659775
983,11.0,299.6782,-1034.5206,0.0,0.0,0.009830132840273453,0.0,0.0,0.0,0.047323788165244254,0.07258268042260282,0.19456196385927083,-0.0029470335588745672,-0.003553330805311447,0.01877763596620838
984,11.0,300.2678,-1152.0312,0.0,0.0,0.009840137260647586,0.0,0.0,0.0,0.07531189084520493,0.08613795241940402,0.1887388661970758,-0.006853654681853055,0.0033922877728427363,0.01901778941215968
985,11.0,299.97893999999997,-1146.3633,0.0,0.0,0.009850141681021718,0.0,0.0,0.0,0.09539541569929451,0.07635472176862433,0.17671567090797882,0.0033777886705367867,0.015102801781780487,0.018951138833831784
986,11.0,300.05017000000004,-1161.9988,0.0,0.0,0.00986014610139585,0.0,0.0,0.0,0.1191073364724789,0.06488596072224574,0.16922532086873884,0.0015469411879962085,-0.0009152590172015323,0.001910748433751188
987,11.0,299.39932999999996,-1040.6522,0.0,0.0,0.009870150521769983,0.0,0.0,0.0,0.09668606023942122,0.06927310871372352,0.15037311374817086,-0.01038698585536569,-0.007666499718774613,-0.001076436376235999
988,11.0,299.26777999999996,-879.4159599999999,0.0,0.0,0.009880154942144337,0.0,0.0,0.0,0.06405731263146454,0.049769919814658656,0.15349325531110486,-0.0016631341233385583,-0.015148710117311287,0.0005194356318093055
989,11.0,299.88063,-1014.3099,0.0,0.0,0.009890126453240722,0.0,0.0,0.0,0.05260989873819275,0.07100660028955584,0.1847083802142978,-0.0036125525378811764,0.009808581459006621,0.00821219903635594
990,11.0,300.10471,-1152.4938,0.0,0.0,0.009900130873614854,0.0,0.0,0.0,0.08306535356441212,0.08774608671936451,0.17951788498703583,0.006255769032446333,0.0022463077865933177,0.023736264106836876
991,11.0,300.31131,-1034.5567,0.0,0.0,0.009910135293988986,0.0,0.0,0.0,0.07687470854769303,0.07671150942033653,0.16089319304392186,-0.01034064182229189,0.0003103838571475017,0.03886189036036996
992,11.0,300.06871,-1014.4599,0.0,0.0,0.00992013971436334,0.0,0.0,0.0,0.08220359550011322,0.09002550529007561,0.13614137774610785,0.0018333984409923383,-0.0008493291839347641,0.037060566756593166
993,11.0,299.91898,-1120.9188,0.0,0.0,0.009930144134737473,0.0,0.0,0.0,0.1020166241207569,0.06857939919175973,0.17013530051854683,-0.00906581614272639,0.01032072436507619,0.02491114583628868
994,11.0,301.0418,-1017.0475,0.0,0.0,0.009940148555111605,0.0,0.0,0.0,0.06748776507727385,0.06572105308366294,0.17594821501723684,0.01252334161795759,-0.023113757695900277,0.015530329489224183
995,11.0,300.82043999999996,-959.9917800000001,0.0,0.0,0.009950152975485738,0.0,0.0,0.0,0.038798257240839865,0.08526305858080872,0.16775221734335483,-0.0013683351875691688,-0.01041049021793539,0.028009791298351176
996,11.0,300.03147,-1096.8943,0.0,0.0,0.00996015739585987,0.0,0.0,0.0,0.07359795904930302,0.07983670811451962,0.17999381869150682,0.017846207838283584,-0.008641092402284422,0.01027153613897169
997,11.0,300.29141,-1084.0231,0.0,0.0,0.009970128906956477,0.0,0.0,0.0,0.08165538362625892,0.08977353025520761,0.15808702728947485,0.001047655919070589,0.016556883563037184,0.02467855427583368
998,11.0,299.53897,-1162.0147,0.0,0.0,0.00998013332733061,0.0,0.0,0.0,0.09829581067329121,0.08709022816813632,0.16783741141176284,-0.0025307059127362276,0.003945677050733006,0.01015023085024979
999,11.0,299.78344,-1266.5051,0.0,0.0,0.009990137747704964,0.0,0.0,0.0,0.10023927705409641,0.100113427338676,0.1846332071893788,-0.018124545614253383,0.004230850313202416,0.017968994498651684
1000,11.0,300.07995,-1278.2928,0.0,0.0,0.010000142168079096,0.0,0.0,0.0,0.07986751801031032,0.10924547457418889,0.1994560935647838,0.012813935667136988,0.004648512713697485,0.00926156359907016
1001,11.0,299.27185,-1159.289,0.0,0.0,0.010010146588453228,0.0,0.0,0.0,0.06934476880054584,0.08183636529287043,0.2012137582482518,0.0021349124891494576,0.012408589017632386,0.013723555613159485
1002,11.0,299.59171000000003,-1103.5033,0.0,0.0,0.01002015100882736,0.0,0.0,0.0,0.08854100371431672,0.07284447283768973,0.17405197825009283,0.018709754289008982,-0.015688741009858183,0.010677311393268591
1003,11.0,300.03072000000003,-1086.8834,0.0,0.0,0.010030155429201493,0.0,0.0,0.0,0.08654733889705732,0.07116995140442733,0.17266811166101584,-0.0058908550136071245,-0.01203336933335109,0.03095713521573137
1004,11.0,300.74141000000003,-1023.5571,0.0,0.0,0.010040126940297878,0.0,0.0,0.0,0.09398674170801921,0.06420106444965173,0.15294799503479187,0.01084723140853839,-0.0004349966981708316,0.01046249831906819
1005,11.0,300.74646,-1039.1426,0.0,0.0,0.010050131360672232,0.0,0.0,0.0,0.08445183737849742,0.07378240501800643,0.15763916061277383,-0.004878107181681695,0.020200878467421482,0.01928257192829168
1006,11.0,300.61647999999997,-1134.5895,0.0,0.0,0.010060135781046586,0.0,0.0,0.0,0.08251910030300112,0.06812449042686373,0.1942432764378188,-0.014725210079015087,0.003837054309537777,0.002751056196083107
1007,11.0,300.67537999999996,-1084.4016,0.0,0.0,0.010070140201420719,0.0,0.0,0.0,0.06702605233795635,0.0890995162886876,0.17350545141115484,-0.0055543903218006445,-0.007593896296109212,0.021906995065302082
1008,11.0,300.56137,-1214.5928,0.0,0.0,0.010080144621794851,0.0,0.0,0.0,0.08734917031069192,0.09735767989595491,0.18449903261113684,0.005486981933722955,-0.01011514807878739,0.011348356536995589
1009,11.0,299.82315,-1395.5931,0.0,0.0,0.010090149042168761,0.0,0.0,0.0,0.11983153671645187,0.11184155305290189,0.19255235453843783,0.015808092752387287,0.013127946939377487,0.02414518955569468
1010,11.0,299.77136,-1127.3208,0.0,0.0,0.010100153462543116,0.0,0.0,0.0,0.09380686651051691,0.07905053952093083,0.16981995682242484,0.0033007144844551567,-0.018464179955022683,0.012356759248517188
1011,11.0,299.61719,-884.74046,0.0,0.0,0.010110157882917248,0.0,0.0,0.0,0.03876480985503886,0.07709731858141293,0.15307688044751186,-0.001918274247543928,0.0045952849634193155,0.03087753530112547
1012,11.0,299.94419,-992.22384,0.0,0.0,0.010120129394013855,0.0,0.0,0.0,0.031197988817501767,0.08083714972000552,0.18957613501970783,-0.01008815154974804,0.002871669131011677,0.02140734725549068
1013,11.0,300.22336,-1077.9845,0.0,0.0,0.010130133814387987,0.0,0.0,0.0,0.06470182886107334,0.09084566741126932,0.17213286229569083,0.003727297032205577,0.015945253378673984,0.028971102198225174
1014,11.0,300.19941,-1008.0388,0.0,0.0,0.010140138234762341,0.0,0.0,0.0,0.08468445832320531,0.07055386190637403,0.15118028904283287,0.001016374456683349,-0.01120188110253959,0.032511347385120175
1015,11.0,299.64096,-959.7683300000001,0.0,0.0,0.010150142655136474,0.0,0.0,0.0,0.08320060826726072,0.06787191048168603,0.14067308815585286,-0.005770501166729124,-0.011436522467946889,0.03897836244611486
1016,11.0,299.99785,-1042.3043,0.0,0.0,0.010160147075510384,0.0,0.0,0.0,0.09492973203283511,0.07502108401350452,0.14688366278878887,0.0036435992302202465,-0.005781368882001685,0.012393984030690988
1017,11.0,299.89532,-1242.5082,0.0,0.0,0.010170151495884516,0.0,0.0,0.0,0.09206760346211501,0.08029433441618383,0.2053295396244478,0.0078005343671778025,0.016871049862542984,0.00946826003334451
1018,11.0,300.16811,-1338.5474,0.0,0.0,0.010180155916258649,0.0,0.0,0.0,0.09596952219270441,0.09653698784495891,0.2143784811000088,0.008089309125802652,0.0008318590803480993,-0.005349274051057245
1019,11.0,300.19277,-1170.443,0.0,0.0,0.010190160336633003,0.0,0.0,0.0,0.09067531068520641,0.07383172395337384,0.1912784255852108,-0.007616399567580113,-0.006345683731745224,-0.0027025922411500875
1020,11.0,300.88076,-901.8839199999999,0.0,0.0,0.01020013184772961,0.0,0.0,0.0,0.058843372823388744,0.057784277209364146,0.15752254565876486,-0.0023764975561670477,0.0010853440605151188,0.01068810858633419
1021,11.0,300.55845,-1010.8689999999999,0.0,0.0,0.010210136268103742,0.0,0.0,0.0,0.09076314528337501,0.07057896619085163,0.14593681096784186,-0.007066400016574384,0.0034362375972552465,0.02007205384970748
1022,11.0,300.3644,-1250.9903,0.0,0.0,0.010220140688477874,0.0,0.0,0.0,0.11808382214896589,0.07461963432388452,0.1875663635788588,-0.015480497849306185,-0.004821787498723376,0.026107742528633578
1023,11.0,299.65944,-1109.3468,0.0,0.0,0.010230145108852229,0.0,0.0,0.0,0.08308682534728122,0.07697880884971693,0.17714807538815383,-0.012301266580290487,0.002838617419374727,0.02105997067070728
1024,11.0,299.57299,-855.9033800000001,0.0,0.0,0.010240149529226139,0.0,0.0,0.0,0.028251968204752172,0.06557941085218394,0.16634187452916485,-0.016461284429352283,0.013110248499880787,0.034766112567648166
1025,11.0,299.42343999999997,-1032.0894,0.0,0.0,0.010250153949600271,0.0,0.0,0.0,0.07667975517545263,0.07200501539484173,0.16504463069113684,0.00923171618954945,0.011751701004302591,0.014241607084537186
1026,11.0,299.59612999999996,-1240.4231,0.0,0.0,0.010260158369974404,0.0,0.0,0.0,0.1159238465132929,0.07925372656348383,0.1818800749451658,0.004469310415586596,-0.009803060765836771,0.02263124698503018
1027,11.0,299.54267999999996,-1245.2962,0.0,0.0,0.010270129881071233,0.0,0.0,0.0,0.12267436185951688,0.09283631375648081,0.16302828325713883,0.013137183727289087,-0.017273296979991682,0.027757305585432768
1028,11.0,300.05521,-1050.4573,0.0,0.0,0.010280134301445365,0.0,0.0,0.0,0.08118909302298961,0.06862814462757054,0.16949556480290986,0.014829788635086187,-0.0008370499403453972,0.022760511353287577
1029,11.0,300.14465,-921.75675,0.0,0.0,0.010290138721819497,0.0,0.0,0.0,0.03705875506541437,0.07629286285001934,0.16683942085826883,-0.002300098093327008,0.01333440779300359,0.032274220517217574
1030,11.0,300.45427,-1022.0975,0.0,0.0,0.01030014314219363,0.0,0.0,0.0,0.04575611496827696,0.08920537457963501,0.17573062969076284,-0.012483478332523387,0.004176037738442836,0.024599765974557875
1031,11.0,299.91183,-1168.2731,0.0,0.0,0.010310147562567762,0.0,0.0,0.0,0.09001193989773681,0.07509064363286952,0.19002326202383582,-0.016948133877150585,-0.004911600467712225,0.033528238092729465
1032,11.0,300.3788,-1153.7833,0.0,0.0,0.010320151982941894,0.0,0.0,0.0,0.1028311049486399,0.08764017168641151,0.16025003254294684,-0.0031646348947001472,0.008571234583414992,0.015723798450068088
1033,11.0,300.32302999999996,-960.17387,0.0,0.0,0.010330156403316026,0.0,0.0,0.0,0.07996865050279132,0.05669679742028824,0.15520342896238584,0.006928979694287054,0.007963082278695032,0.027864976580809078
1034,11.0,300.20075,-1199.7207,0.0,0.0,0.010340160823690159,0.0,0.0,0.0,0.08287334976321283,0.09442659560292942,0.1873851843284778,0.008661681542991413,-0.0016283108452267681,0.00955338053979525
1035,11.0,299.77249,-1473.122,0.0,0.0,0.010350132334786766,0.0,0.0,0.0,0.10811070538969589,0.1063640749998169,0.23331752375414677,-0.006226580134165614,-0.012478331022015388,0.009223069822471121
1036,11.0,299.81122999999997,-1353.5209,0.0,0.0,0.01036013675516112,0.0,0.0,0.0,0.0917305002200955,0.1019983450889529,0.21770772708607977,0.0021048221022547677,0.00907388830097305,0.003228667640069687
1037,11.0,299.81472,-999.13215,0.0,0.0,0.010370141175535252,0.0,0.0,0.0,0.07291407400030883,0.07577822704472872,0.15501892625167685,0.003225350664542327,0.006967702972033743,0.014770636107498286
1038,11.0,300.20752000000005,-1002.2061,0.0,0.0,0.010380145595909385,0.0,0.0,0.0,0.08633401023425341,0.06293796815324385,0.15537364484668484,-0.012764301610988488,0.006660675120807453,0.017763845803905085
1039,11.0,300.3203,-1168.1893,0.0,0.0,0.010390150016283517,0.0,0.0,0.0,0.1024241634434779,0.09009435563437061,0.16258186552808085,-0.01928563397009388,-0.012629346830169487,0.024559223811556678
1040,11.0,300.55364,-1201.788,0.0,0.0,0.01040015443665765,0.0,0.0,0.0,0.07271805367571313,0.09757936989858401,0.1950161329515938,-0.001891959230521838,-0.0008011006171324752,0.03516617815763157
1041,11.0,300.18762999999996,-1124.1956,0.0,0.0,0.010410158857031782,0.0,0.0,0.0,0.05790267345704894,0.08686651267855731,0.19695821928576282,0.007955548966851553,0.006663736048034544,0.01905061364914918
1042,11.0,300.73067000000003,-981.3371300000001,0.0,0.0,0.010420163277406136,0.0,0.0,0.0,0.044344198576681655,0.08479307569417502,0.16916470824775684,-0.0023709663251961577,-0.0025642389181706774,0.032674218219444266
1043,11.0,299.69697,-1073.1229,0.0,0.0,0.01043013478850252,0.0,0.0,0.0,0.07402494973419373,0.0924762117636915,0.15970141840880286,-0.006850143162306493,-0.009877874897570351,0.016112200518150384
1044,11.0,299.62429,-1264.0812,0.0,0.0,0.010440139208876653,0.0,0.0,0.0,0.11968888123487288,0.09122191655765222,0.17333832593966084,-0.0017327764239117186,0.011462512333011888,0.019342044642911182
1045,11.0,299.55982,-1284.5445,0.0,0.0,0.010450143629251007,0.0,0.0,0.0,0.1121943870027239,0.1036392023008929,0.17463587375271883,0.01716282434808888,0.01053215318394259,0.008970428271687342
1046,11.0,299.90725,-958.3665199999999,0.0,0.0,0.01046014804962514,0.0,0.0,0.0,0.04948644992693236,0.07938020753371652,0.16245283826034684,0.004264399530638466,0.006827666437988213,0.03295716628336907
1047,11.0,299.36946,-986.6552300000001,0.0,0.0,0.010470152469999272,0.0,0.0,0.0,0.03942539420473346,0.08156253647984563,0.17893062549407782,0.0012643315496048088,-0.009428180317688951,0.03332320997474477
1048,11.0,299.97758999999996,-1189.3416,0.0,0.0,0.010480156890373404,0.0,0.0,0.0,0.07771651267777263,0.09299043618944151,0.19082319258028282,0.0017641883929118381,0.0005075429127355855,0.02160257015225768
1049,11.0,299.79545,-1282.0232,0.0,0.0,0.010490161310747537,0.0,0.0,0.0,0.11450106098787488,0.0922981827078714,0.18290379191869882,0.012209893712772688,0.013730527787097586,0.019107286753742382
1050,11.0,300.91817000000003,-1210.2844,0.0,0.0,0.010500165731121891,0.0,0.0,0.0,0.11641824163458588,0.08740568838801982,0.16407228549767383,0.005471798279649444,-0.002792532879651537,0.015276550869178186
1051,11.0,300.05714,-1168.1597,0.0,0.0,0.010510137242218276,0.0,0.0,0.0,0.1014186241767389,0.08114040939543492,0.17253236654511883,0.004750552976943076,-0.019968614186748782,0.007550151249541914
1052,11.0,300.03436,-1154.5208,0.0,0.0,0.010520141662592408,0.0,0.0,0.0,0.06693499357796953,0.09121583300405181,0.1927946732998528,0.001995978776512768,0.003173389882189197,0.01000101102789794
1053,11.0,300.05321000000004,-1323.7021,0.0,0.0,0.01053014608296654,0.0,0.0,0.0,0.08271209607604832,0.1025090231393529,0.21715127039616178,0.009594572297435561,0.0068584130056476645,-0.0034488780949027665
1054,11.0,299.84087,-1407.8524,0.0,0.0,0.010540150503340895,0.0,0.0,0.0,0.1121801609713199,0.0915475518350399,0.22422427285171279,-0.00959514346651693,0.0033603048374112672,-0.005303530672642724
1055,11.0,299.59452000000005,-1181.5471,0.0,0.0,0.010550154923715027,0.0,0.0,0.0,0.1022522250340089,0.0987459713482186,0.15816262587943586,-0.02047720899494318,-0.007854662694144853,0.007726251583796663
1056,11.0,299.89189,-931.6333,0.0,0.0,0.01056015934408916,0.0,0.0,0.0,0.08654702073652591,0.056283380233737156,0.14036286137273588,-0.014873795100179287,0.006076352330614284,0.017038008147770484
1057,11.0,298.88563,-1237.2762,0.0,0.0,0.010570163764463292,0.0,0.0,0.0,0.1107477495699519,0.08280749661271362,0.18254584105587182,0.0016949055934741585,0.017245408284239285,0.022237631745183378
1058,11.0,299.83901000000003,-1357.384,0.0,0.0,0.010580135275559899,0.0,0.0,0.0,0.0921322133547415,0.1080609750747879,0.2124176597714908,0.002064855262660348,-0.0033729178759810768,0.03311756073444877
1059,11.0,299.67375,-1085.8756,0.0,0.0,0.010590139695934031,0.0,0.0,0.0,0.058564469653863145,0.08104610215562752,0.19046850438277782,0.011955302466146489,-0.03353519709441627,0.030299213687299573
1060,11.0,299.4586,-958.72101,0.0,0.0,0.010600144116308163,0.0,0.0,0.0,0.050818774509922546,0.07882427874710063,0.16178419451935686,0.007352844198644223,-0.01111347807106489,0.02257743732521958
1061,11.0,300.0385,-1080.8329,0.0,0.0,0.010610148536682518,0.0,0.0,0.0,0.0925916067645801,0.07390334249694203,0.16205125684821384,0.011715815738760987,0.004681647005217586,0.017919336124500782
1062,11.0,299.72416,-1284.8244,0.0,0.0,0.01062015295705665,0.0,0.0,0.0,0.1054626978433579,0.11105724681299689,0.17403459087837683,-0.0014931813800905286,0.007519799140146393,0.022354559793473276
1063,11.0,299.80219,-1317.6171,0.0,0.0,0.010630157377430782,0.0,0.0,0.0,0.11139670586149888,0.1104035181134789,0.17872247352603482,-0.0023859565498255777,0.0018840376412400384,0.02493981068161768
1064,11.0,300.53565,-1149.012,0.0,0.0,0.010640161797804915,0.0,0.0,0.0,0.058434505129786644,0.08790333502888373,0.20293313221044082,0.0018966327452830782,0.02025729521973938,0.019812304146822182
1065,11.0,300.21646,-957.80713,0.0,0.0,0.010650166218179047,0.0,0.0,0.0,0.053496532092446654,0.05541681632421394,0.18223610063280282,0.005959989371905155,0.018963579518559585,0.013327681838839789
1066,11.0,300.03271,-1143.8258,0.0,0.0,0.010660137729275432,0.0,0.0,0.0,0.08688644736102473,0.07253972976411392,0.1882683128506358,-0.0017843997939815481,-0.005277097814634006,0.014793686534023185
1067,11.0,300.10762,-1399.1526,0.0,0.0,0.010670142149649786,0.0,0.0,0.0,0.14606865507085384,0.08150930943884252,0.1977294849968808,-0.012503321822481789,-0.030444977820185373,-0.0006775981766287333
1068,11.0,300.45741,-1167.3922,0.0,0.0,0.01068014657002414,0.0,0.0,0.0,0.10254681736808291,0.07940225788239272,0.17290900173978985,0.004834153506918805,-0.006047897532031015,0.02002748503080888
1069,11.0,301.13124,-882.8435099999999,0.0,0.0,0.010690150990398273,0.0,0.0,0.0,0.07094489943796643,0.05142835184958316,0.14598913520300585,-0.004132382871134437,0.0061694524855775545,0.02142368490010308
1070,11.0,300.81142,-1157.4226,0.0,0.0,0.010700155410772405,0.0,0.0,0.0,0.060691787225563044,0.08013766163272143,0.2109981267788938,0.0004969437391370285,0.006523432218612634,0.01992846415153628
1071,11.0,300.04675,-1372.5647,0.0,0.0,0.010710159831146315,0.0,0.0,0.0,0.09813609206002821,0.10623905006997791,0.2128502669016858,-0.0078030898852550126,-0.019825436881368282,0.02018695843754768
1072,11.0,299.85733,-1217.8249,0.0,0.0,0.01072016425152067,0.0,0.0,0.0,0.08577068168215723,0.07884186268933603,0.2055758100612528,0.009272010106276152,-0.001052805256078789,0.007413523288832783
1073,11.0,300.16336,-1120.1093,0.0,0.0,0.010730168671894802,0.0,0.0,0.0,0.1047902848119959,0.07587288284257053,0.15982208636321185,-0.00039168907167170164,0.001930675820817868,0.019476696461950282
1074,11.0,300.08426000000003,-1148.2622,0.0,0.0,0.010740140182991409,0.0,0.0,0.0,0.0976991208616525,0.08564392206814701,0.16569999072331584,0.0003221254297038047,-0.006580450436189894,0.023927662997726477
1075,11.0,299.99179,-1135.1866,0.0,0.0,0.010750144603365541,0.0,0.0,0.0,0.09039435669747842,0.07377891943766243,0.18089509452295582,-0.013988120280519989,-0.014319952595519287,0.025952004975013477
1076,11.0,299.83636,-1207.3244,0.0,0.0,0.010760149023739896,0.0,0.0,0.0,0.05868641227689794,0.10484691536008489,0.2034631329402478,-0.004332157186025626,0.015295411506539588,0.028336129771308272
1077,11.0,299.90494,-1085.6147,0.0,0.0,0.010770153444114028,0.0,0.0,0.0,0.06308484280823924,0.07113701469667673,0.19577789437677381,-0.0076891868951386635,0.01921518573039118,0.015748259320732184
1078,11.0,300.80747,-896.71918,0.0,0.0,0.010780157864487938,0.0,0.0,0.0,0.05309208723553105,0.06400616477966664,0.15548199167987786,-0.014316461948924787,0.005354573450405255,0.026586577168140876
1079,11.0,301.12607,-1010.7231,0.0,0.0,0.01079016228486207,0.0,0.0,0.0,0.09359073519793641,0.06865229544370403,0.14499153981705085,-0.018948188249540584,-0.01778336606708158,0.03161135027529737
1080,11.0,300.35548,-1335.6513,0.0,0.0,0.010800166705236203,0.0,0.0,0.0,0.1130884079634569,0.09676223739518931,0.19615399254889182,0.007506472266881132,-0.0075126056723864515,0.03375826815693167
1081,11.0,299.94192999999996,-1292.078,0.0,0.0,0.010810138216333032,0.0,0.0,0.0,0.0860727710537211,0.11249906117529289,0.19418760847732483,0.017253944916331785,0.015502497535477385,0.023708531451599877
1082,11.0,299.38555,-1146.3559,0.0,0.0,0.010820142636707164,0.0,0.0,0.0,0.06078535073979703,0.08212412325501992,0.2055541062441108,0.016184346965020684,0.0006644676509678513,0.026438949668321176
1083,11.0,299.73111,-1182.6137,0.0,0.0,0.010830147057081296,0.0,0.0,0.0,0.08966516011726232,0.07741102689187353,0.19240885805927582,-0.0026889341364271374,-0.005181425321641865,0.009525855803478771
1084,11.0,300.32427,-1235.3235,0.0,0.0,0.010840151477455429,0.0,0.0,0.0,0.10531483425626491,0.08176254191708462,0.18843013902410682,0.002674523896154958,0.015152752985210285,0.008437982265414012
1085,11.0,299.83886,-1376.4878,0.0,0.0,0.010850155897829561,0.0,0.0,0.0,0.13423654861811588,0.095452335023662,0.18872903767110583,0.0021968838785155578,0.016373438685432586,-0.0013675042211621588
1086,11.0,299.9505,-1330.3804,0.0,0.0,0.010860160318203693,0.0,0.0,0.0,0.12006334807432989,0.08866426254923142,0.1956748164441008,-0.011269751633987888,0.0005245129571328985,0.01053841709606079
1087,11.0,300.3873,-1177.3921,0.0,0.0,0.010870164738577826,0.0,0.0,0.0,0.0855641397685231,0.07501050669571063,0.1973231615742798,-0.02269006412683498,-0.006189412499297453,0.016335766046714585
1088,11.0,300.77821,-1095.0642,0.0,0.0,0.010880169158951958,0.0,0.0,0.0,0.05805850321642815,0.07964209114131243,0.19517157564943483,-0.009779712545107481,0.006887346970203222,0.023333435383830776
1089,11.0,300.9097,-1295.6427,0.0,0.0,0.010890140670048787,0.0,0.0,0.0,0.07553042964002302,0.12053301989318288,0.1977795699493238,0.008003178611652232,0.01987863453811848,0.027191155131808076
1090,11.0,299.50748,-1338.4186,0.0,0.0,0.010900145090422919,0.0,0.0,0.0,0.1045786675286109,0.1005498736734999,0.2017172928854468,-0.005651099977595145,-0.004583290818010586,0.024893241707021677
1091,11.0,298.74688,-1129.8612,0.0,0.0,0.010910149510797051,0.0,0.0,0.0,0.09782589972741461,0.08969756486871042,0.15592612959621086,0.0014098824946695687,-0.019277430697284284,0.03046163666507947
1092,11.0,299.91200000000003,-1013.3028,0.0,0.0,0.010920153931171184,0.0,0.0,0.0,0.07000984286143354,0.09606161142804291,0.14194731095160887,0.008224476790467663,-0.009461523541379671,0.038402950886576165
1093,11.0,299.9209,-1223.0926,0.0,0.0,0.010930158351545316,0.0,0.0,0.0,0.07679947067476763,0.09217064998403492,0.2028194860792248,0.027874216408470976,-0.0005328856757567215,0.01933112991283398
1094,11.0,299.54542000000004,-1334.2351,0.0,0.0,0.010940162771919448,0.0,0.0,0.0,0.07347183879610593,0.10941965226637888,0.2226826736195688,0.01002442429928365,-0.006635868123909192,0.029054801722735675
1095,11.0,299.98478,-1270.1167,0.0,0.0,0.01095016719229358,0.0,0.0,0.0,0.09025924384964382,0.1016891923509419,0.1941353349046658,-0.0010352823114994092,-0.0012774249700470287,0.024044449191002376
1096,11.0,299.67431,-1202.9667,0.0,0.0,0.010960171612667713,0.0,0.0,0.0,0.10760538743232491,0.08015247433593332,0.17791398100624284,-0.006354203037261015,0.01966489652227418,0.009609752911758772
1097,11.0,300.14803,-1084.7819,0.0,0.0,0.01097014312376432,0.0,0.0,0.0,0.093661172291888,0.09015257394536633,0.14593287955745388,-0.0060500152247400145,0.02090426452784028,0.013249687925642387
1098,11.0,300.42199,-1228.7730000000001,0.0,0.0,0.010980147544138674,0.0,0.0,0.0,0.09654080577133571,0.08438740885763882,0.19258809186946482,-0.003493133515545437,0.0005905257451853536,0.014759685913667588
1099,11.0,300.04867,-1435.6863,0.0,0.0,0.010990151964512807,0.0,0.0,0.0,0.10957753689696088,0.11770141142872488,0.2091338479199038,-0.0034578204323353063,-0.024908444511522077,0.016097674564716783
1100,11.0,299.61755,-1176.5239,0.0,0.0,0.011000156384886939,0.0,0.0,0.0,0.06156423305191674,0.07827667381005622,0.21779298194949379,0.015695214664747086,-0.012948296683397387,0.006116658305017174
1101,11.0,299.82031,-1004.9999,0.0,0.0,0.011010160805260849,0.0,0.0,0.0,0.06465880423532715,0.05829879142464275,0.18253728922502782,0.01278353917738709,-0.0023084502125762974,0.016870455084734285
1102,11.0,299.57939,-1244.0982,0.0,0.0,0.011020165225635203,0.0,0.0,0.0,0.0979769033765675,0.0879942884108601,0.19220359385401783,0.01084679064474489,-0.007108194759349202,0.002268981182756008
1103,11.0,299.47348,-1525.2624,0.0,0.0,0.011030169646009336,0.0,0.0,0.0,0.16279812349692382,0.0991126523739072,0.2017309008342898,-0.0033376898044543374,0.004019254612044546,0.005558807990911635
1104,11.0,299.43383,-1328.8042,0.0,0.0,0.011040141157105943,0.0,0.0,0.0,0.11548705466018488,0.08817869891581001,0.20025755412888183,0.007152708862742403,0.011634688856254388,0.011436419116436688
1105,11.0,300.0518,-1030.8122,0.0,0.0,0.011050145577480075,0.0,0.0,0.0,0.06519185586118523,0.08382514320489752,0.16432417947253386,0.003568184747802416,0.014453670197966185,0.02855422881558297
1106,11.0,299.77937000000003,-1156.9826,0.0,0.0,0.011060149997854207,0.0,0.0,0.0,0.049665890440141754,0.09171895930145652,0.2103089647233788,0.0037002703083132463,-0.013512885718617985,0.014943632350071685
1107,11.0,299.87902,-1335.236,0.0,0.0,0.011070154418228562,0.0,0.0,0.0,0.11068854536660891,0.1033372841685959,0.19185256348937382,-0.01059017796416919,-0.019878948645649482,0.03095440754646217
1108,11.0,300.20652,-1394.7312,0.0,0.0,0.011080158838602694,0.0,0.0,0.0,0.11280888265836989,0.11111042217824489,0.2000441433928198,0.008280481251319872,-0.009597498867699391,0.023332311689469875
1109,11.0,299.94227,-1089.1448,0.0,0.0,0.011090163258976826,0.0,0.0,0.0,0.0933159437973166,0.07413192969300184,0.16362494571102484,-0.005309312683013365,0.005940375079119375,0.028676636520413672
1110,11.0,299.58127,-937.6537300000001,0.0,0.0,0.011100167679350958,0.0,0.0,0.0,0.04578644964977075,0.08626607485479873,0.15297079316204185,0.0014263807394228186,-0.006701753090461534,0.035979211051121666
1111,11.0,300.03033999999997,-1189.3414,0.0,0.0,0.01111017209972509,0.0,0.0,0.0,0.06328654949239614,0.09215556471654611,0.2060879573242978,-0.004751688830305176,-0.01156218777184909,0.03727415886442307
1112,11.0,299.7963,-1410.9792,0.0,0.0,0.011120143610821698,0.0,0.0,0.0,0.0951313971737379,0.1027550402636329,0.23101600721200477,0.015513229880536588,0.003962341772477686,0.017519609973300883
1113,11.0,300.01442000000003,-1269.5553,0.0,0.0,0.01113014803119583,0.0,0.0,0.0,0.09460331655287041,0.08518479919608511,0.2061249916154528,0.010604139537297089,0.017080319445446284,0.007920781214845242
1114,11.0,299.98814,-1090.0622,0.0,0.0,0.011140152451569962,0.0,0.0,0.0,0.09024070035956372,0.07768249179241503,0.16342849678163685,0.0009488048605147491,-0.003932388376996516,0.004432841517987396
1115,11.0,299.54159,-1212.6647,0.0,0.0,0.011150156871944095,0.0,0.0,0.0,0.1158569517416909,0.07984428925176783,0.17291853642323085,-0.012777835592574187,-0.006184930691455134,0.014460448841135185
1116,11.0,299.11667,-1505.2863,0.0,0.0,0.011160161292318449,0.0,0.0,0.0,0.13844630894108687,0.10045447921633521,0.2186686529509158,0.004843407418757095,0.0058663212902608335,0.01106821720234799
1117,11.0,299.18598,-1519.6564,0.0,0.0,0.011170165712692581,0.0,0.0,0.0,0.11193742677736389,0.1053448771217299,0.24465529588059776,0.020031486355453782,0.013119417400035686,0.011645467810818188
1118,11.0,299.40384,-1208.6605,0.0,0.0,0.011180170133066714,0.0,0.0,0.0,0.08026779739606484,0.08770354946691641,0.19943126893733382,0.0004847073965568955,-0.014205300306953987,0.018453435450962282
1119,11.0,299.63636,-1063.9255,0.0,0.0,0.011190174553440846,0.0,0.0,0.0,0.07307278138997203,0.06344222017150965,0.18689178219228283,-0.002131809309393198,-0.01989904240838258,0.01050395139390929
1120,11.0,299.56198,-1152.8584,0.0,0.0,0.011200146064537453,0.0,0.0,0.0,0.10606594642289388,0.07494008682701073,0.16943413144934685,-0.003587821940040457,0.00014128400703864588,0.00976588907796821
1121,11.0,299.50052,-1360.8993,0.0,0.0,0.011210150484911585,0.0,0.0,0.0,0.12759777449291987,0.09646170640227922,0.18961993782153083,0.0004380524679549126,0.03101895563083257,-0.0004051755622252146
1122,11.0,300.01179,-1329.9968,0.0,0.0,0.011220154905285717,0.0,0.0,0.0,0.09200334010102272,0.1001368587472385,0.2121456223846428,-0.010223022737433791,0.01109293138553709,0.02271143053169368
1123,11.0,299.89777000000004,-1157.0452,0.0,0.0,0.011230159325660072,0.0,0.0,0.0,0.05439813115067755,0.09973832519140631,0.19757638290677082,-0.007594577402826432,-0.0011937473317386888,0.02906728901696807
1124,11.0,300.13161,-1198.3648,0.0,0.0,0.011240163746034204,0.0,0.0,0.0,0.06803690306171953,0.0906391376566364,0.2055969261933368,0.003463294212025527,-0.0016827413233736384,0.04347601144049826
1125,11.0,299.96079,-1397.5262,0.0,0.0,0.011250168166408336,0.0,0.0,0.0,0.11695198125726189,0.09319592634947181,0.21466514981830082,0.01871144641667598,-0.006084061441350114,0.012016599030945988
1126,11.0,299.83482000000004,-1387.0279,0.0,0.0,0.011260172586782469,0.0,0.0,0.0,0.12348439451946087,0.12269269155382588,0.17544475130754883,0.00982280799703567,-0.02170974364183488,0.04919976195688845
1127,11.0,299.92748,-1092.4375,0.0,0.0,0.011270144097878854,0.0,0.0,0.0,0.08066535721855092,0.08138257008983432,0.17002579858023983,0.004984765636233066,-0.013009668228704288,0.025480234715203377
1128,11.0,299.80323,-991.1251,0.0,0.0,0.011280148518252986,0.0,0.0,0.0,0.049823817627227956,0.08057209159984632,0.17088137683217886,-0.003033967580354287,0.0037884900428448564,0.03765784324003976
1129,11.0,298.96931,-1164.4637,0.0,0.0,0.01129015293862734,0.0,0.0,0.0,0.06191760706404204,0.08384799199465252,0.2082022759104648,0.011942243698857689,0.03134480470399137,0.013164922462026689
1130,11.0,299.33813,-1254.8014,0.0,0.0,0.011300157359001695,0.0,0.0,0.0,0.08581385626891823,0.09916124278245271,0.19645318503841983,-0.005506917122815405,0.004436062336080265,0.024965656665168475
1131,11.0,299.69905,-1329.7324,0.0,0.0,0.011310161779375827,0.0,0.0,0.0,0.11715659698245588,0.09351656934361681,0.1935322687101478,-2.5327902695169376e-05,-0.003146918419351667,0.014983363912992886
1132,11.0,300.11152999999996,-1278.8549,0.0,0.0,0.011320166199749737,0.0,0.0,0.0,0.12191801118987089,0.08402225176010063,0.18279968047092382,-0.02024082787911418,-0.0034261035763800966,0.010267416264065089
1133,11.0,299.59283,-1244.2165,0.0,0.0,0.01133017062012387,0.0,0.0,0.0,0.1053597516331979,0.08975417717829762,0.1830968160627488,-0.00024281470680894576,0.005621371320986155,0.017834171440345683
1134,11.0,300.05661000000003,-1420.5411,0.0,0.0,0.011340175040498224,0.0,0.0,0.0,0.10436773925529388,0.1083765619509339,0.2190647425475068,-0.006604513504864733,-0.0019667490442530178,0.012969005488941187
1135,11.0,300.22241,-1442.471,0.0,0.0,0.01135014655159483,0.0,0.0,0.0,0.1028561220936089,0.10924372165151588,0.2263753217540048,0.006812787670869794,0.0015117775591758284,0.02272660901819168
1136,11.0,300.41929,-1189.611,0.0,0.0,0.011360150971968963,0.0,0.0,0.0,0.07808830352371553,0.0940662889336199,0.18945745303549483,0.003116043371579537,0.008666427910434841,0.008696536130531292
1137,11.0,300.41062999999997,-1038.0062,0.0,0.0,0.011370155392343095,0.0,0.0,0.0,0.09067734833115751,0.05972750547639585,0.16512311704388286,0.005860442109205604,-0.0025633919424120875,0.010074211356197252
1138,11.0,299.80319,-1225.0158,0.0,0.0,0.01138015981271745,0.0,0.0,0.0,0.1028630223267899,0.09429108961405601,0.17522010362787785,0.006515456521775494,-0.01092257161972389,0.014416575111805186
1139,11.0,300.05818,-1337.9599,0.0,0.0,0.011390164233091582,0.0,0.0,0.0,0.10003030840647281,0.10897012385951389,0.1977059573295588,0.006989469813331962,-0.025767538741308077,0.024583886318990677
1140,11.0,300.30247,-1271.236,0.0,0.0,0.011400168653465492,0.0,0.0,0.0,0.07363877276333103,0.1023073357069479,0.2104779039125518,0.0009919152376169122,-0.003087400007152657,0.025377866057600375
1141,11.0,299.79829,-1300.6017,0.0,0.0,0.011410173073839625,0.0,0.0,0.0,0.07411838659216523,0.1090530685126999,0.2121789988429368,-0.007590831214556713,0.01078714871735869,0.027076871666279177
1142,11.0,299.71099,-1303.2185,0.0,0.0,0.011420177494213757,0.0,0.0,0.0,0.08012557457227852,0.10920122594232189,0.2068190679339528,-0.016893738558782182,0.006014583591268183,0.028040225278354772
1143,11.0,299.80064,-1268.6338,0.0,0.0,0.011430149005310586,0.0,0.0,0.0,0.1063514195060679,0.09802744125180521,0.18125413969589083,-0.007776461672627013,-0.0039852175146853465,0.026283844382763474
1144,11.0,299.85267999999996,-1407.9074,0.0,0.0,0.011440153425684718,0.0,0.0,0.0,0.12090723342011489,0.11861519076640788,0.18844624970069682,0.001940065812144588,-0.0016176039327450782,0.031175226154005267
1145,11.0,300.02112,-1242.7722,0.0,0.0,0.01145015784605885,0.0,0.0,0.0,0.09715577461477841,0.07721109846164213,0.2034048507944958,0.01835467599021548,0.008132740976764042,0.01137059940319079
1146,11.0,299.89596,-1107.3901,0.0,0.0,0.011460162266432983,0.0,0.0,0.0,0.05855635352056214,0.09519246474401481,0.18287012161787583,0.007510245812903553,0.0027794558738609377,0.024265181672286976
1147,11.0,300.2383,-1259.7285,0.0,0.0,0.011470166686807115,0.0,0.0,0.0,0.08005687216249813,0.07973807531003534,0.22313105705382077,0.01927280115757738,0.00023341744034650774,0.014500863334623786
1148,11.0,300.83422,-1420.3789,0.0,0.0,0.011480171107181247,0.0,0.0,0.0,0.11362645389905789,0.0991200399803863,0.2190132187799218,0.0043035120990735755,0.01034293987351869,0.00951672429225256
1149,11.0,299.39571,-1417.5946,0.0,0.0,0.01149017552755538,0.0,0.0,0.0,0.1262018198301499,0.1090992119222539,0.19561233944293482,0.010937230308920591,0.011817649400311188,0.01084340233641049
1150,11.0,299.91279,-1338.1543,0.0,0.0,0.011500179947929512,0.0,0.0,0.0,0.12109570807121588,0.08599927191796733,0.1996705175509458,-0.015784579270566684,-0.008368354150342252,0.014148247233573287
1151,11.0,299.51865,-1411.1625,0.0,0.0,0.011510151459026341,0.0,0.0,0.0,0.10846677160733689,0.1137020828865219,0.2067893087785158,-0.0007812701069078563,-0.016746891261539484,0.020939160861284282
1152,11.0,299.3628,-1326.3948,0.0,0.0,0.011520155879400473,0.0,0.0,0.0,0.091097386093862,0.0943927125195854,0.2177007964553958,0.009747648853643041,0.0015246118915674786,0.01339498393698199
1153,11.0,300.48602,-1164.9347,0.0,0.0,0.011530160299774606,0.0,0.0,0.0,0.06685127885470754,0.06870376246928343,0.21855600993729876,0.015364967072904186,0.002340359890025538,0.004892092768836965
1154,11.0,300.68316,-1164.0635,0.0,0.0,0.011540164720148738,0.0,0.0,0.0,0.0870527612191886,0.08938266396288211,0.17741082127158483,-0.0034052972961766763,0.008196259396382822,0.03268298789905977
1155,11.0,300.23652000000004,-1206.577,0.0,0.0,0.01155016914052287,0.0,0.0,0.0,0.09676667441737721,0.06769118922035024,0.20231140194908082,0.004933996942622585,0.006502179500415153,0.014442359287099886
1156,11.0,301.17023,-1128.555,0.0,0.0,0.011560173560897002,0.0,0.0,0.0,0.1013885813112739,0.06976224202724723,0.17190170955037784,0.004201753620680796,0.01989575542505818,0.04417703257518366
1157,11.0,300.24437,-1328.5979,0.0,0.0,0.011570177981271135,0.0,0.0,0.0,0.09674352773209281,0.1061571085343909,0.20095994923070282,0.008373209746146462,0.004779746029549206,0.008518205227506402
1158,11.0,300.14835,-1288.7138,0.0,0.0,0.011580149492367742,0.0,0.0,0.0,0.08553904662979661,0.09931111767099421,0.20688665171562282,-0.0012606336933648587,-0.019330710427292584,0.03036660799120087
1159,11.0,299.86751,-1306.1046,0.0,0.0,0.011590153912741874,0.0,0.0,0.0,0.07434368579165053,0.11214892247073688,0.21053058278525077,0.0014957952613734984,-0.015395364575904184,0.008415710926891001
1160,11.0,299.37048,-1432.4014,0.0,0.0,0.011600158333116228,0.0,0.0,0.0,0.10930508407757189,0.1113511400045019,0.21475803445496777,0.0017671836615324483,-0.006230606688738004,0.02664611574401687
1161,11.0,299.79001,-1337.7724,0.0,0.0,0.01161016275349036,0.0,0.0,0.0,0.11441174299155989,0.08435861836929742,0.20787904912856478,0.00971468580138984,0.0014108969606696886,-0.007479246338019142
1162,11.0,300.06891,-1240.8304,0.0,0.0,0.011620167173864493,0.0,0.0,0.0,0.0948527503564876,0.1069534927154879,0.17537523221818782,-0.016417384355519683,-0.0006502030957950494,0.040607675699665564
1163,11.0,299.92226,-1374.0451,0.0,0.0,0.011630171594238403,0.0,0.0,0.0,0.11321099096055488,0.08300169410037943,0.22146272049916882,0.002033456871211568,0.004982973602106206,0.01779750394572688
1164,11.0,300.49857000000003,-1457.4192,0.0,0.0,0.011640176014612758,0.0,0.0,0.0,0.1074595604779329,0.1091050685078319,0.2264544059243098,0.007340661588716893,0.02060599612240348,0.026025616581528375
1165,11.0,299.94232999999997,-1308.5172,0.0,0.0,0.01165018043498689,0.0,0.0,0.0,0.0976698693445156,0.08522744891929432,0.2148592480074568,0.0013817364333917686,0.002191443130778598,0.018465885254940983
1166,11.0,300.03482,-1187.8332,0.0,0.0,0.011660151946083497,0.0,0.0,0.0,0.08768976926555642,0.07447862942671843,0.19890324404522183,-0.007098642850656502,-0.01019778166419269,0.026248095905985376
1167,11.0,300.46255,-1323.5372,0.0,0.0,0.011670156366457629,0.0,0.0,0.0,0.10220981038482291,0.1117663091004759,0.1883461405908168,-0.013065309844695687,-0.001002231369932535,0.024393305120931776
1168,11.0,300.74685,-1368.454,0.0,0.0,0.011680160786831761,0.0,0.0,0.0,0.12224899946753688,0.0919969201483891,0.2017299382466948,0.012486959859866987,0.022565544808795877,0.015070174115310383
1169,11.0,300.67232,-1370.8417,0.0,0.0,0.011690165207206116,0.0,0.0,0.0,0.09909011262543271,0.10556446868340191,0.2120470635474158,0.006144552674970135,0.007018440356216134,0.030493245001948974
1170,11.0,300.33257000000003,-1275.3631,0.0,0.0,0.011700169627580248,0.0,0.0,0.0,0.08430546732205182,0.1051505762825539,0.1982225020980378,-0.0005230903438599975,-0.010587731978427791,0.02682899117506527
1171,11.0,299.84311,-1228.073,0.0,0.0,0.01171017404795438,0.0,0.0,0.0,0.08091665945535252,0.08775036972753723,0.2046364968210498,0.005466786136704785,-0.02406950483947518,0.01983073415289108
1172,11.0,299.89059,-1252.3567,0.0,0.0,0.011720178468328513,0.0,0.0,0.0,0.09489374848203382,0.09886272309099109,0.1869286847609248,0.0014460868326676586,-0.007304466673944732,0.025479626765143374
1173,11.0,300.29213,-1287.3186,0.0,0.0,0.011730182888702645,0.0,0.0,0.0,0.11766359693499288,0.08033264641571493,0.1933164768363508,-0.002224002402866948,-0.005597645867244635,0.025749254643253575
1174,11.0,299.48639,-1287.1189,0.0,0.0,0.011740154399799252,0.0,0.0,0.0,0.0995575036183106,0.0934930649810471,0.1982014467609598,-0.02305388170774098,-0.0024619370337492677,0.04013638369390266
1175,11.0,299.45112,-1119.1688,0.0,0.0,0.011750158820173384,0.0,0.0,0.0,0.06056672176572003,0.0934729924965661,0.1861596482000268,-0.009787819153857541,0.013007637675503886,0.04764208751190796
1176,11.0,299.668,-1291.2910000000002,0.0,0.0,0.011760163240547516,0.0,0.0,0.0,0.07988251005878992,0.1003458020636096,0.2122919053015798,-0.001767169780006078,0.023454478240776778,0.03673400435536397
1177,11.0,299.90155,-1523.1275,0.0,0.0,0.011770167660921649,0.0,0.0,0.0,0.12747559679586187,0.1008221633596228,0.23469495620508876,0.004353145648597026,0.01184453903146499,0.01186682344091429
1178,11.0,300.15898,-1496.3505,0.0,0.0,0.011780172081296003,0.0,0.0,0.0,0.12075651246773987,0.12397650982802887,0.2101201556997448,-0.0036090283527083662,-0.01304018529521609,0.016012451112055882
1179,11.0,300.52808,-1248.3336,0.0,0.0,0.011790176501670135,0.0,0.0,0.0,0.08841674581480342,0.1022343715672469,0.18881113119420784,0.004228999611894766,-0.006291452357243005,0.00990471822319458
1180,11.0,300.25971,-1349.7388,0.0,0.0,0.011800180922044268,0.0,0.0,0.0,0.1009785412873061,0.10428230200686191,0.20502606108699678,0.008945924743194032,0.015363431999002685,0.0046741833036559755
1181,11.0,300.02971,-1454.3143,0.0,0.0,0.011810152433140653,0.0,0.0,0.0,0.09853217355061841,0.1097987496587929,0.23374431482876779,-0.0014505462476827684,-0.00016652927513515983,0.015620029480826886
1182,11.0,299.85399,-1331.9125,0.0,0.0,0.011820156853515007,0.0,0.0,0.0,0.0959704493165459,0.1002528758836885,0.2086448230241408,-0.012833215790039789,-0.003253098518530827,0.01858277277322688
1183,11.0,299.66152,-1295.7685,0.0,0.0,0.01183016127388914,0.0,0.0,0.0,0.07887975925632612,0.1020626054102949,0.2129389060204338,-0.01193526645866909,0.0010973485410748689,0.027051147272740373
1184,11.0,300.55776000000003,-1229.6363,0.0,0.0,0.011840165694263272,0.0,0.0,0.0,0.10890017920511089,0.07837683560894142,0.18650170116878484,0.009593463396526121,0.0022777714313485377,0.02100719655249888
1185,11.0,300.24683999999996,-1273.8834,0.0,0.0,0.011850170114637626,0.0,0.0,0.0,0.1040900378003869,0.094665434863501,0.1884732629483628,0.00921359086778562,-0.005519995344506125,0.03127454695530747
1186,11.0,299.84511000000003,-1449.2692,0.0,0.0,0.011860174535011758,0.0,0.0,0.0,0.12894694739857288,0.1056825731150579,0.2059121179019438,0.01049756893152939,0.0031748226178305965,0.03174767598350167
1187,11.0,299.84873,-1393.6735,0.0,0.0,0.01187017895538589,0.0,0.0,0.0,0.08506455883321831,0.10626566815010491,0.23231172104238176,0.0003196995265793867,0.008127105786332892,0.027647921184137374
1188,11.0,299.42152999999996,-1265.7954,0.0,0.0,0.011880183375760023,0.0,0.0,0.0,0.08560961949926162,0.09953483924007381,0.1996257217640248,0.0006398776314460054,0.01036211563166119,0.03228133150641937
1189,11.0,299.39041000000003,-1368.3239,0.0,0.0,0.011890154886856408,0.0,0.0,0.0,0.09134524935982423,0.0968077931196853,0.22778326316545777,-0.0069035708268293935,0.0033286784646899864,0.006472756136061295
1190,11.0,300.48753,-1399.4158,0.0,0.0,0.011900159307230762,0.0,0.0,0.0,0.1160056461938659,0.10942149638156089,0.19996031721204682,-0.003594629764812337,-0.017393723780876884,0.025086951821389373
1191,11.0,300.89054,-1294.4188,0.0,0.0,0.011910163727604894,0.0,0.0,0.0,0.08610524571942611,0.1058030485519479,0.2015627114501908,-0.007109902795042774,-0.02098706124651168,0.002557678934373258
1192,11.0,300.43407,-1269.0887,0.0,0.0,0.011920168147979249,0.0,0.0,0.0,0.09633084008561371,0.09214462870821681,0.1972958038215798,0.004235688075804866,-0.014325611597327786,0.029196163283936975
1193,11.0,300.49579,-1309.6913,0.0,0.0,0.011930172568353381,0.0,0.0,0.0,0.08266038891019523,0.09207097251869752,0.2233820796335948,0.00989449726546085,-0.008605246146871673,0.005173369578046825
1194,11.0,300.25352000000004,-1236.0521,0.0,0.0,0.011940176988727291,0.0,0.0,0.0,0.0963111647951719,0.08157988534805782,0.1978379230225828,0.004222585333461726,0.005919735377232394,0.049456601605486546
1195,11.0,300.07726,-1233.4067,0.0,0.0,0.011950181409101424,0.0,0.0,0.0,0.07348832842823334,0.0932633895543799,0.20817311457258678,-0.00831793188694096,0.00946358641725826,0.03389040204947227
1196,11.0,300.17426,-1284.2228,0.0,0.0,0.011960185829475778,0.0,0.0,0.0,0.12900933320722988,0.08012229366845472,0.18124004538699984,-0.01124805997584709,0.014416650092312586,0.03809594117252667
1197,11.0,299.97744,-1402.5434,0.0,0.0,0.011970157340572385,0.0,0.0,0.0,0.1148813337504049,0.09866857322608001,0.2127882661280668,-0.016008626092928385,0.007732786844291643,0.02289566574437628
1198,11.0,299.49998999999997,-1402.3120000000001,0.0,0.0,0.011980161760946517,0.0,0.0,0.0,0.1295703596550989,0.0936673591969986,0.2030301002450108,0.005907728870172444,-0.0036671245670670165,0.027546928520170176
1199,11.0,299.95461,-1391.7815,0.0,0.0,0.01199016618132065,0.0,0.0,0.0,0.08626999613268573,0.1024962359230909,0.23430057900116677,0.005057260539812755,-0.0011151605659077788,0.017317182868322883
1200,11.0,300.35434,-1384.3564,0.0,0.0,0.012000170601695004,0.0,0.0,0.0,0.0990975671064184,0.096848765913979,0.2248634614122958,0.006653341824533713,0.002003194231799878,-0.002151196431506558
1201,11.0,299.08387,-1388.2822,0.0,0.0,0.012010175022069136,0.0,0.0,0.0,0.08716672145793561,0.1019715243588059,0.23286489480197578,-0.0013288825724004987,-0.008716021841879381,0.017062429501680684
1202,11.0,299.07378,-1369.3003,0.0,0.0,0.012020179442443046,0.0,0.0,0.0,0.11819574575501188,0.09436945133703972,0.20366791078545782,0.0004192689186611206,-0.015791450119494784,-0.0035046164762787164
1203,11.0,299.38867999999997,-1302.6442,0.0,0.0,0.012030183862817179,0.0,0.0,0.0,0.0959860989643404,0.1027200122076759,0.19726520366855982,0.0028118453252325274,-0.01201109505640279,0.03335908510778537
1204,11.0,299.84922,-1242.5919999999999,0.0,0.0,0.012040155373914008,0.0,0.0,0.0,0.0965795798129124,0.08978622425246041,0.19135114654488783,0.015732031107130586,-0.012678274650998288,0.02801301242041907
1205,11.0,300.31518,-1356.8212,0.0,0.0,0.01205015979428814,0.0,0.0,0.0,0.08951051890025041,0.1010419778363168,0.2218872621585678,-0.0011349391065347688,-0.004910658246444236,0.037331441945576464
1206,11.0,300.11725,-1394.826,0.0,0.0,0.012060164214662272,0.0,0.0,0.0,0.1045410759499009,0.10517741727770288,0.2142737718346748,0.0009320369696448871,-0.00044526787257951754,0.029733563779224273
1207,11.0,299.92374,-1275.1446,0.0,0.0,0.012070168635036405,0.0,0.0,0.0,0.08686223878963552,0.0904279175672906,0.21032196472216177,0.0015171407932801386,0.012036627945672689,0.03919745244898736
1208,11.0,299.70998,-1264.0399,0.0,0.0,0.012080173055410537,0.0,0.0,0.0,0.1101136373923699,0.08831391106215442,0.18580902313542283,0.0030573528860372372,0.01942623964672058,0.02087948650989488
1209,11.0,300.48579,-1399.3553,0.0,0.0,0.01209017747578467,0.0,0.0,0.0,0.12031179699884989,0.0954250522514694,0.2096322251140898,-0.004490118114340155,0.007653815347397763,0.02555351498893558
1210,11.0,300.15834,-1576.9461,0.0,0.0,0.012100181896158801,0.0,0.0,0.0,0.13827449212162984,0.11916192025536587,0.22191581554638581,-0.004275766474235295,-0.01018233365316809,0.0099334775034329
1211,11.0,299.97753,-1366.8144,0.0,0.0,0.012110186316532934,0.0,0.0,0.0,0.09678280839871951,0.1031928554993419,0.2155017904258708,0.014097391197804185,-0.00934714442504133,0.01880307563646908
1212,11.0,299.82049,-1272.6554,0.0,0.0,0.01212015782762954,0.0,0.0,0.0,0.07365491687717433,0.10106635866022301,0.2121341827910138,0.004525627464094655,-0.01106312866034579,-0.0005419977731110155
1213,11.0,299.11568,-1301.4377,0.0,0.0,0.012130162248003895,0.0,0.0,0.0,0.08416402571409262,0.0963228536483255,0.2151176774454618,-0.005526094400833056,-0.006498335026885733,0.02839469258733797
1214,11.0,298.97937,-1438.8644,0.0,0.0,0.012140166668378027,0.0,0.0,0.0,0.12711805123307487,0.10818623305214989,0.2020745648707068,-0.025330158189891976,0.0005396268692020254,0.026673247541944577
1215,11.0,299.33939,-1415.71,0.0,0.0,0.01215017108875216,0.0,0.0,0.0,0.12093701284055389,0.10817556352859689,0.2012279336171508,0.004938789818245606,0.008254059235087223,0.05239616376209875
1216,11.0,299.52886,-1282.1915,0.0,0.0,0.012160175509126292,0.0,0.0,0.0,0.11291768545410791,0.08928267948276442,0.18755384994012383,0.009070573047970862,0.005570421762232824,0.03352572421923137
1217,11.0,299.79114,-1182.559,0.0,0.0,0.012170179929500424,0.0,0.0,0.0,0.07555299573300013,0.08441654182451401,0.19949887298400582,0.008790154765570731,-0.0037449371084965163,0.03792546082995157
1218,11.0,299.94049,-1432.2722,0.0,0.0,0.012180184349874557,0.0,0.0,0.0,0.1076392401181659,0.1023710691382379,0.2253646655742608,0.008058919424828424,-0.006874824110892313,0.009007620021907883
1219,11.0,300.36057,-1573.9554,0.0,0.0,0.012190188770248689,0.0,0.0,0.0,0.1013397021264499,0.12914293023291487,0.24796051770679775,-0.004891662036219456,0.0004095715477840646,0.01052538366002449
1220,11.0,300.42897,-1374.504,0.0,0.0,0.012200160281345296,0.0,0.0,0.0,0.11911970825619987,0.0957779733408,0.20291721405136984,-0.0022328595259660778,0.003666037957659777,-0.0029447317586223975
1221,11.0,300.44829,-1368.1238,0.0,0.0,0.012210164701719428,0.0,0.0,0.0,0.09274141275211482,0.10538261055545389,0.21775144882789477,-0.00869241372249944,0.0018811771348827282,0.01147525597951959
1222,11.0,299.8966,-1392.5036,0.0,0.0,0.012220169122093782,0.0,0.0,0.0,0.1268829569448729,0.10563868925322689,0.19076467738700784,-0.0003542637875681137,0.0040823586123724265,0.02240120273532658
1223,11.0,300.33571,-1357.505,0.0,0.0,0.012230173542467915,0.0,0.0,0.0,0.07489960951201592,0.1077066111173149,0.23004139233831777,-0.00962176154664393,-0.0033340928679243464,0.02276127129086258
1224,11.0,299.35334,-1360.5046,0.0,0.0,0.012240177962842047,0.0,0.0,0.0,0.0981485884735115,0.1015775625874249,0.2138332917512028,0.014167258845199588,-0.0014884536564489387,0.024322823443975777
1225,11.0,300.05915,-1294.6657,0.0,0.0,0.012250182383215957,0.0,0.0,0.0,0.07781402786739663,0.10048126650922891,0.2152507475810948,0.00035893034130116667,-0.007471005676280853,0.01999875939047388
1226,11.0,299.89434,-1294.6942,0.0,0.0,0.012260186803590312,0.0,0.0,0.0,0.1079202143708959,0.1018125960806209,0.18382187756930682,0.003783699902997106,0.01073707389741669,0.03744373133490857
1227,11.0,300.2125,-1464.3632,0.0,0.0,0.012270158314686919,0.0,0.0,0.0,0.1091662789463729,0.12261958555911089,0.21334397301291078,0.002018696553029838,0.015776369918256483,0.03418543920034017
1228,11.0,299.80787999999995,-1595.5982,0.0,0.0,0.012280162735061051,0.0,0.0,0.0,0.15201057657227585,0.1120174228727589,0.22099401126791077,-0.0015359359746850785,0.0029752192382312775,0.030606694562645573
1229,11.0,300.22771,-1452.9281,0.0,0.0,0.012290167155435183,0.0,0.0,0.0,0.09818194973305401,0.1082623686646639,0.2352095454008748,-0.002744200343256487,-0.008161760358303032,0.012606591259423688
1230,11.0,300.09625,-1236.4834,0.0,0.0,0.012300171575809316,0.0,0.0,0.0,0.08527082716932542,0.09703320580318181,0.1935560294249928,-0.013007864643526289,-0.01092745751170609,0.02533521633439118
1231,11.0,300.21544,-1255.2245,0.0,0.0,0.01231017599618367,0.0,0.0,0.0,0.07214309199921883,0.09918756803330081,0.2102262328527138,-0.0075137117361956125,0.01029741555977579,0.0064453969648111545
1232,11.0,299.69982000000005,-1390.3193,0.0,0.0,0.01232018041655758,0.0,0.0,0.0,0.1026491252306799,0.1034547806501919,0.2165184450462068,-0.00882763478544472,0.002345489164681758,0.013859344298810788
1233,11.0,300.45077000000003,-1401.8156,0.0,0.0,0.012330184836931934,0.0,0.0,0.0,0.0983750275793593,0.10720823392312889,0.22053367148247877,-0.003528664042227027,0.006231290835205525,0.019066100163677584
1234,11.0,299.81129,-1427.6346,0.0,0.0,0.012340189257306067,0.0,0.0,0.0,0.12196105405411889,0.10596139927757589,0.2060428170323428,0.012141400032512887,-0.0026395372821270474,0.029212623531811473
1235,11.0,300.46743,-1445.9207,0.0,0.0,0.012350160768402674,0.0,0.0,0.0,0.0932837356163879,0.12742402236577188,0.2188160301779608,0.012144233079792488,0.0005034548032196206,0.03131002286780867
1236,11.0,299.70512,-1404.3501,0.0,0.0,0.012360165188776806,0.0,0.0,0.0,0.1098353482524049,0.1045846659692029,0.21246734955639482,0.017414816608208587,-0.010891389861146489,0.016299074234093384
1237,11.0,298.95662999999996,-1554.9068,0.0,0.0,0.012370169609150938,0.0,0.0,0.0,0.11901159447052989,0.11269492241962288,0.2409463242870508,0.0034882430639377867,-0.02030948469264008,0.023991734854549876
1238,11.0,299.12327999999997,-1547.848,0.0,0.0,0.01238017402952507,0.0,0.0,0.0,0.13423567722302987,0.1081193686780509,0.2281520963343588,0.008357554930776452,-0.003175893927161327,0.006631581468036134
1239,11.0,300.02236,-1261.1264,0.0,0.0,0.012390178449899203,0.0,0.0,0.0,0.09389365239483201,0.08171151970829912,0.20774575607790982,-0.0020710027523420577,0.015448960439943685,0.025515277969911872
1240,11.0,299.55903,-1231.022,0.0,0.0,0.012400182870273557,0.0,0.0,0.0,0.0971302508447594,0.08576628620322342,0.1913034224651778,-0.0004946538344410325,0.012978623258890386,0.00848629453680706
1241,11.0,300.28854,-1450.7701,0.0,0.0,0.01241018729064769,0.0,0.0,0.0,0.1030939724220829,0.1101867231220829,0.2277171891264368,-0.0005086390061637615,0.0023081151307682277,0.038380193289330164
1242,11.0,300.2658,-1560.7089,0.0,0.0,0.012420191711021822,0.0,0.0,0.0,0.11607396964810889,0.12545800306424088,0.23288455185391577,-0.007802849542331293,-0.013599651337931087,0.015692922693020882
1243,11.0,300.33808999999997,-1426.9631,0.0,0.0,0.012430163222118207,0.0,0.0,0.0,0.08312775558507071,0.12536366947993088,0.22526971390738978,0.006778320448843144,0.004551915022039036,0.04500330358123026
1244,11.0,300.06496,-1395.6116,0.0,0.0,0.012440167642492561,0.0,0.0,0.0,0.09550484974984481,0.1157529517514269,0.2129732754638258,-0.008047193892021201,-0.0027433860954761274,0.012120542279204387
1245,11.0,300.33853,-1409.2629,0.0,0.0,0.012450172062866693,0.0,0.0,0.0,0.1056935364811399,0.1033687557167019,0.21931842997504378,0.006886603041979805,0.004698665452572175,0.02086127840559788
1246,11.0,300.21513999999996,-1504.3586,0.0,0.0,0.012460176483240826,0.0,0.0,0.0,0.13105643278176288,0.10695325966796489,0.2192777581160298,-0.0085600605626372,-0.003385768825674367,0.00939334244877572
1247,11.0,299.16367,-1363.3832,0.0,0.0,0.01247018090361518,0.0,0.0,0.0,0.1086551145359249,0.09058004288430423,0.2151993048735178,0.009147016891165281,0.019773631430255484,0.035334971438790164
1248,11.0,299.45842000000005,-1289.7565,0.0,0.0,0.012480185323989312,0.0,0.0,0.0,0.0987773344785639,0.09481519018853071,0.19846125421910082,0.0004945211594729386,-0.002124249653047118,0.023292042090745577
1249,11.0,299.39195,-1270.7001,0.0,0.0,0.012490189744363445,0.0,0.0,0.0,0.08690668297877183,0.08307918645477733,0.2162752244922028,0.0025934743246309876,-0.005317671895013355,0.03913423881499866
1250,11.0,299.51908,-1473.6905,0.0,0.0,0.01250016125545983,0.0,0.0,0.0,0.1207349302406099,0.1039990884714109,0.22323110536869475,0.011261212975395188,-0.014375621569263386,0.02308034374735258
1251,11.0,299.18914,-1575.6029999999998,0.0,0.0,0.012510165675833962,0.0,0.0,0.0,0.12058411809572588,0.12538460322699688,0.23297523773786577,-0.004985251489656016,0.0067586129370481645,0.03189208742750397
1252,11.0,299.86343,-1300.5964,0.0,0.0,0.012520170096208316,0.0,0.0,0.0,0.10028858180396241,0.09440496068679423,0.2006552851906348,0.0013820541886231288,-0.0025780636012100676,0.012117264415130887
1253,11.0,300.0626,-1231.4373,0.0,0.0,0.012530174516582449,0.0,0.0,0.0,0.07784699091964982,0.10485317724570291,0.19162602103201581,-0.0025677649271936675,-0.01174260404490479,0.03309433805540687
1254,11.0,299.89149,-1498.3352,0.0,0.0,0.012540178936956803,0.0,0.0,0.0,0.13115614672410386,0.1048866854265099,0.21941365521944178,0.013992673826469385,0.0005048395108062804,0.01234235995134609
1255,11.0,300.07822999999996,-1545.2075,0.0,0.0,0.012550183357330935,0.0,0.0,0.0,0.11360748585718589,0.11834062025430989,0.2377563900572288,0.014697470331027387,0.005239128597611734,0.02091917652956198
1256,11.0,300.02189,-1337.5463,0.0,0.0,0.012560187777704845,0.0,0.0,0.0,0.1142732215703889,0.08877149176756412,0.2035359552249348,0.011357468695144887,-0.002123874446535088,0.013919313505979287
1257,11.0,300.05419,-1313.5814,0.0,0.0,0.012570192198078978,0.0,0.0,0.0,0.08902756337258641,0.08889967702446501,0.22136870102238979,0.006871102443275013,-0.00037102877041018863,-7.200484111582453e-05
1258,11.0,301.17973,-1332.5341,0.0,0.0,0.012580163709175585,0.0,0.0,0.0,0.10912909266770289,0.08248047115618871,0.2134475373056318,0.008359781750521222,-0.0023612271678849777,0.025103189154241878
1259,11.0,300.85654,-1547.48,0.0,0.0,0.012590168129549939,0.0,0.0,0.0,0.1069824716683479,0.12056200897854388,0.24285078864500678,0.007700497502029932,0.011685417222510888,0.023392016438362275
1260,11.0,300.28585,-1621.4061,0.0,0.0,0.012600172549924071,0.0,0.0,0.0,0.13681599966268787,0.12001742757979789,0.23603354064719678,-0.021148597630454083,-0.0015953667407504384,0.041561941471594255
1261,11.0,300.37837,-1411.6592,0.0,0.0,0.012610176970298204,0.0,0.0,0.0,0.08816426415488542,0.12397206166008988,0.2169728370535518,-0.012022004720229488,-0.0022014964969457877,0.023217793149917777
1262,11.0,300.01324,-1241.4815,0.0,0.0,0.012620181390672558,0.0,0.0,0.0,0.099335281659379,0.1023470145808639,0.17569707084745084,-0.006030671267080914,0.004620387626696756,0.04775042522585005
1263,11.0,299.69798,-1429.9212,0.0,0.0,0.012630185811046468,0.0,0.0,0.0,0.0961629617692954,0.11441965647484088,0.22407772648974977,0.002849615742585177,0.010747691745214592,0.010229068800780491
1264,11.0,300.45837,-1542.0582,0.0,0.0,0.0126401902314206,0.0,0.0,0.0,0.10986164209249989,0.1261124207738269,0.2327731247404188,0.000995927576290399,-0.002043717953649258,0.016194532155025882
1265,11.0,300.04517999999996,-1456.5473,0.0,0.0,0.012650194651794733,0.0,0.0,0.0,0.07223271599706403,0.12021750394454389,0.25030379028556077,0.0013468246985462488,-0.016599732896516086,0.0026761670838421274
1266,11.0,300.12254,-1315.0916,0.0,0.0,0.012660166162891562,0.0,0.0,0.0,0.1022272788165469,0.0952297401886936,0.2022979966502578,0.014371292964836186,-0.0036513178655070166,0.029102830790725773
1267,11.0,300.02451,-1467.7641,0.0,0.0,0.012670170583265694,0.0,0.0,0.0,0.1138965559782149,0.1041958920383339,0.2280711883138738,0.012461861654889987,-0.007080200077636343,0.014427920473174885
1268,11.0,300.80512999999996,-1490.9349,0.0,0.0,0.012680175003639826,0.0,0.0,0.0,0.15008978875520884,0.08522961423475801,0.21788755871382778,0.006822487818052123,-0.012873039558720089,0.026373229253585078
1269,11.0,300.41958999999997,-1566.9031,0.0,0.0,0.012690179424013959,0.0,0.0,0.0,0.11559001100284588,0.11796214094445688,0.24274726488228976,-0.00954804344754352,-0.013454607625866385,0.016577568050578587
1270,11.0,300.69827000000004,-1531.1748,0.0,0.0,0.012700183844388091,0.0,0.0,0.0,0.1128662123490279,0.11484399548421989,0.2377286877994948,-0.008628003237492621,0.0013540443081587687,0.01910384676965288
1271,11.0,300.18387,-1399.6742,0.0,0.0,0.012710188264762223,0.0,0.0,0.0,0.08695175335646992,0.1093904605309979,0.22912379304775776,0.007568615604789203,0.027169196988890972,0.027759662405165374
1272,11.0,299.77091,-1376.3384,0.0,0.0,0.012720192685136356,0.0,0.0,0.0,0.09098942530895711,0.12083316483780489,0.2065499081773888,-0.017420096654479682,0.012940735811151188,0.03610834471011617
1273,11.0,300.18532000000005,-1530.4718,0.0,0.0,0.012730197105510488,0.0,0.0,0.0,0.1157184404530209,0.11654968043755788,0.2329570904285748,-0.0026083040504445675,0.01923997793383798,0.018334160715440785
1274,11.0,299.96191,-1567.0637,0.0,0.0,0.012740168616607095,0.0,0.0,0.0,0.13955362918037087,0.11719036860828888,0.21960422729824977,-0.00839963632200456,0.004544527516884946,0.031245116092902873
1275,11.0,299.18259,-1265.8868,0.0,0.0,0.01275017303698145,0.0,0.0,0.0,0.08253798728486512,0.09107258983741481,0.2111874018975738,0.02101057270183208,0.004851378454643776,0.015609530183290685
1276,11.0,299.22907000000004,-1271.1827,0.0,0.0,0.012760177457355582,0.0,0.0,0.0,0.06954583511063953,0.09517502670979382,0.22168694261379782,0.008350295703085023,-0.013061553726574988,0.018073024886418685
1277,11.0,299.77949,-1554.1582,0.0,0.0,0.012770181877729714,0.0,0.0,0.0,0.09370234976270192,0.1244610358933479,0.25426188968119473,-0.0039038945682843967,-0.016161514387267286,0.016322551238910382
1278,11.0,300.29251,-1602.1689,0.0,0.0,0.012780186298103846,0.0,0.0,0.0,0.1187463661243539,0.1272223248008659,0.24105062825234477,0.0024210017297092677,-0.0063979528461037835,0.029602062154746072
1279,11.0,300.02442,-1476.4361,0.0,0.0,0.012790190718477756,0.0,0.0,0.0,0.12848915087089186,0.1101884659122549,0.2101220808749348,-0.0017552008645248382,0.02252774044756488,0.04110362818636226
1280,11.0,299.47031,-1383.6925,0.0,0.0,0.01280019513885211,0.0,0.0,0.0,0.12993002291059488,0.09698817088923721,0.19368977843819282,0.008205360814081061,0.017190046325275484,0.021359715381539777
1281,11.0,299.91083,-1211.618,0.0,0.0,0.012810166649948718,0.0,0.0,0.0,0.08283847673452113,0.08746096624722532,0.19800218099629383,-0.01100520621837929,0.0020537888490431777,0.03931926233625906
1282,11.0,300.36562000000004,-1479.101,0.0,0.0,0.01282017107032285,0.0,0.0,0.0,0.10096670247313771,0.11080976047607188,0.2378333160048208,-0.01103208571703209,0.010131113353988041,0.012890625527455688
1283,11.0,300.10283,-1642.1629,0.0,0.0,0.012830175490696982,0.0,0.0,0.0,0.1114980410039999,0.12273129638263588,0.26494716927324974,0.00947076732071696,0.00956963884692482,0.02354342538755518
1284,11.0,300.30608,-1371.7598,0.0,0.0,0.012840179911071337,0.0,0.0,0.0,0.09415393101426951,0.10206418608045091,0.2207625950775718,-0.01002867620067828,0.011354368149838888,0.003764360707613476
1285,11.0,299.43352999999996,-1259.8614,0.0,0.0,0.012850184331445469,0.0,0.0,0.0,0.09522357253533491,0.08589425969085342,0.2018485797009038,0.002020388680696838,-0.013569934738998288,0.02943755086851007
1286,11.0,299.78844,-1586.0632,0.0,0.0,0.012860188751819601,0.0,0.0,0.0,0.13841434090043186,0.11685628991781788,0.2268529678511448,-0.011591969218788288,-0.017414876389964484,0.006597926872589683
1287,11.0,299.77564,-1786.7467,0.0,0.0,0.012870193172193511,0.0,0.0,0.0,0.13451669200576385,0.14101516138961287,0.26759452833952374,0.008208195381235812,0.0077659656174911326,0.031272196215075466
1288,11.0,299.86597,-1602.7505,0.0,0.0,0.012880197592567866,0.0,0.0,0.0,0.1273258485635829,0.1122635717195519,0.24760672116938076,0.014450732785926285,-0.010958001935970591,0.019705082021240182
1289,11.0,300.0565,-1305.7378,0.0,0.0,0.012890169103664473,0.0,0.0,0.0,0.07747146422058823,0.1007140526137031,0.2187261852915938,0.009261928571756181,-0.013591554456381988,0.032728792883080365
1290,11.0,299.96291,-1315.7304,0.0,0.0,0.012900173524038605,0.0,0.0,0.0,0.09461778677754851,0.09945970775840891,0.2058716892229538,0.005921973545378285,-0.011421020754666989,0.02848397005364897
1291,11.0,300.5042,-1544.3547,0.0,0.0,0.012910177944412737,0.0,0.0,0.0,0.1288319739097259,0.10905381831777389,0.23155947403564078,0.004180157613349436,0.013275645366704187,0.02936048103940387
1292,11.0,301.11102,-1593.5338,0.0,0.0,0.01292018236478687,0.0,0.0,0.0,0.1410982478978129,0.1103043614586929,0.2329918753045078,-0.005138412246946805,0.01978472854535068,0.034651798704616266
1293,11.0,301.04273,-1357.3099,0.0,0.0,0.012930186785161224,0.0,0.0,0.0,0.08853103535983291,0.09663820443719821,0.22741908081451578,-0.01911699875595088,-0.014370074024965885,0.018171688088405982
1294,11.0,301.03038,-1136.6807,0.0,0.0,0.012940191205535134,0.0,0.0,0.0,0.05550841413325394,0.09320810662892391,0.1968060291207428,-0.01165551317230959,0.00011871470205872889,0.03845154028187157
1295,11.0,300.40055,-1387.5472,0.0,0.0,0.012950195625909489,0.0,0.0,0.0,0.08019635515801402,0.1105663778020519,0.2310169697995998,-0.015562402907889586,0.006807162410289623,0.014344156100657986
1296,11.0,300.10314,-1770.0201,0.0,0.0,0.012960200046283621,0.0,0.0,0.0,0.15469917491761986,0.1277914673820359,0.25555126056594574,0.01388348295594309,0.01138454172456679,0.01853080114909768
1297,11.0,300.12429,-1624.0429,0.0,0.0,0.012970171557380228,0.0,0.0,0.0,0.13799574701911987,0.12655866625036788,0.22911407597929878,-0.006444063730329574,-0.006558945925342564,0.01045416231049549
1298,11.0,300.11585,-1204.5898,0.0,0.0,0.01298017597775436,0.0,0.0,0.0,0.09440251064805241,0.07940065897373492,0.1923620661696578,0.013660039017390886,-0.008050283696876142,0.03763853879913456
1299,11.0,299.30766,-1388.489,0.0,0.0,0.012990180398128492,0.0,0.0,0.0,0.08270292717589342,0.1089292189529769,0.2304338342345488,0.02199516808900408,-0.01098014854340629,0.025751707721745676
1300,11.0,299.46571,-1630.6885,0.0,0.0,0.013000184818502625,0.0,0.0,0.0,0.13686152498968088,0.12197946480843587,0.23684758577753678,0.002047033206651448,-0.009514929623675441,0.034991597191901765
1301,11.0,300.24277,-1601.4391,0.0,0.0,0.013010189238876757,0.0,0.0,0.0,0.11455878584607189,0.1163239181827769,0.25591479443682374,0.014707230969240686,-0.027338343894334472,0.032025944858464675
1302,11.0,300.56368,-1458.6087,0.0,0.0,0.013020193659251111,0.0,0.0,0.0,0.1254667676776059,0.10428841190496489,0.21362545389069082,-0.008588100739279552,-0.002898209900156047,0.025952743634336375
1303,11.0,300.57237000000003,-1201.0608,0.0,0.0,0.013030198079625244,0.0,0.0,0.0,0.07986664256222392,0.07705921733790262,0.2081666297719468,0.007059794436522463,0.022258511789994082,0.023965466345707377
1304,11.0,300.4256,-1332.4873,0.0,0.0,0.01304016959072185,0.0,0.0,0.0,0.10396455690800291,0.08481274085211582,0.21626557835125082,-0.013659958970632987,0.007598389553677663,0.016808927498911982
1305,11.0,300.38358,-1805.6119,0.0,0.0,0.013050174011095761,0.0,0.0,0.0,0.11846439888652588,0.15458685614403483,0.27580967644029575,-0.010108596302315781,0.0006572550935760274,0.02120833075034928
1306,11.0,299.98237,-1667.0469,0.0,0.0,0.013060178431470115,0.0,0.0,0.0,0.12839656007675387,0.12517190176600487,0.25317216959614774,0.0036900285789524664,0.007054067546957264,0.010195343784452091
1307,11.0,300.16136,-1321.3142,0.0,0.0,0.013070182851844248,0.0,0.0,0.0,0.07439107853857783,0.11574101566524887,0.2115144384998498,0.016330542742449085,0.006248957357324073,0.03409795822645647
1308,11.0,299.66556,-1392.201,0.0,0.0,0.01308018727221838,0.0,0.0,0.0,0.10783684415266791,0.1033274049801209,0.21203009160824077,0.0016221269798664683,0.0016943992723991881,0.019472357725022083
1309,11.0,300.34282,-1636.3932,0.0,0.0,0.013090191692592734,0.0,0.0,0.0,0.13921812180725887,0.11751356499268589,0.24069097512934975,-0.005048388420612145,-0.024364692964607977,0.016188262163407085
1310,11.0,300.1098,-1671.5624,0.0,0.0,0.013100196112966644,0.0,0.0,0.0,0.1289643145052869,0.13197659559507585,0.24717231045400775,0.0009217936900114541,0.0049177558607447144,0.04522112803472786
1311,11.0,299.83786000000003,-1392.1704,0.0,0.0,0.013110200533340999,0.0,0.0,0.0,0.09741003148887159,0.0959382380958669,0.22983677661312377,0.0029036564234185777,0.014328716195634186,0.03262325173941427
1312,11.0,299.84295,-1264.9797,0.0,0.0,0.013120172044437384,0.0,0.0,0.0,0.07974245255046733,0.09026002202572062,0.2145197788264538,-0.004726172457011906,0.02064190671919758,0.029803315916108273
1313,11.0,300.76811000000004,-1346.0502,0.0,0.0,0.013130176464811516,0.0,0.0,0.0,0.0949213068582536,0.07994719594517392,0.2342971440833278,-0.008256734316676232,0.00921338720451552,0.016972423508547784
1314,11.0,300.62528,-1700.274,0.0,0.0,0.01314018088518587,0.0,0.0,0.0,0.14196970377881887,0.12151171816477288,0.2533594384796297,0.005367661297971925,0.01067615730140469,0.01882755981188548
1315,11.0,300.21682000000004,-1725.3205,0.0,0.0,0.013150185305560003,0.0,0.0,0.0,0.14096817698247585,0.12473946688832688,0.25874672714131375,0.007934923146490943,0.013069272665836787,0.005505609320911334
1316,11.0,300.34123999999997,-1430.2901,0.0,0.0,0.013160189725934357,0.0,0.0,0.0,0.09403258215579331,0.1169391636434969,0.2238007343099128,-0.006047171031709314,-0.017525253776357885,0.014944082233116086
1317,11.0,300.46952000000005,-1349.4874,0.0,0.0,0.01317019414630849,0.0,0.0,0.0,0.09422976873125409,0.09698802498122282,0.21899268020039478,-0.010487706968306091,-0.024895375611732277,0.02945048804578687
1318,11.0,299.97598,-1697.3537,0.0,0.0,0.0131801985666824,0.0,0.0,0.0,0.13091697917049988,0.14271426021730085,0.24232192275531175,-0.00046193308068424556,0.006300653478751084,0.017378587850883084
1319,11.0,299.87864,-1698.3807,0.0,0.0,0.013190202987056532,0.0,0.0,0.0,0.15711395255593985,0.1275072101989819,0.23164416147899877,0.001138070758618839,0.024313711285826475,0.045773084880951755
1320,11.0,299.90866,-1361.329,0.0,0.0,0.013200174498153139,0.0,0.0,0.0,0.11431812881482088,0.0983092200251146,0.2011826717351838,-0.004332472306806725,0.009642359502626792,0.02123201344493658
1321,11.0,300.13003,-1239.2592,0.0,0.0,0.013210178918527493,0.0,0.0,0.0,0.09043591312382972,0.09065600320455092,0.1956119240103938,-0.018915852399099282,-0.00907421537810533,0.04312173259603366
1322,11.0,300.14095,-1456.3206,0.0,0.0,0.013220183338901625,0.0,0.0,0.0,0.09112025920161942,0.10204235054079591,0.24952247313345077,0.018352169209468083,0.006410552408447264,0.02241415308485468
1323,11.0,299.80613,-1681.1011,0.0,0.0,0.013230187759275758,0.0,0.0,0.0,0.11790669589898489,0.13951029247359387,0.25359574866795176,-0.008304634397928602,0.007241614567591713,0.042108479456283356
1324,11.0,299.23031000000003,-1655.4078,0.0,0.0,0.013240192179650112,0.0,0.0,0.0,0.12400964310629888,0.11566281302253088,0.26353017953840374,0.004640517866433456,-0.00925966811210809,0.007828806882068082
1325,11.0,300.13147000000004,-1399.6548,0.0,0.0,0.013250196600024022,0.0,0.0,0.0,0.1017693100363489,0.1068601926462799,0.2168306071370148,-0.013629489526875887,-0.01009048283557812,0.02073847553322818
1326,11.0,300.12759,-1294.2584,0.0,0.0,0.013260201020398155,0.0,0.0,0.0,0.08350002569831091,0.10837642009591988,0.2015457901735208,0.01011724114951896,0.006785776449703993,0.030510743831175968
1327,11.0,300.33869,-1636.8794,0.0,0.0,0.013270172531494762,0.0,0.0,0.0,0.12244818417219487,0.13307176696566086,0.24205050345102477,0.006130200899228724,0.017296336260765485,0.02065009276675548
1328,11.0,300.23883,-1777.5770000000002,0.0,0.0,0.013280176951869116,0.0,0.0,0.0,0.12468209666766487,0.14133649339382587,0.2743204419733198,-0.013408858370601287,-0.010277013769012291,0.03483539151673547
1329,11.0,300.51252,-1419.8919,0.0,0.0,0.013290181372243248,0.0,0.0,0.0,0.1048392247918259,0.1010001458059383,0.22577229608949076,-0.012961172052418089,-0.013538588833904686,0.005589264059767415
1330,11.0,300.2756,-1314.6483,0.0,0.0,0.01330018579261738,0.0,0.0,0.0,0.09107742405364191,0.0992636094135555,0.2092792290442518,0.012723694599980887,0.016543047632921682,0.036562508736188666
1331,11.0,300.35797,-1538.8983,0.0,0.0,0.013310190212991513,0.0,0.0,0.0,0.13745596842584787,0.08888662636317701,0.24144405300117275,0.007387970843835953,0.018494522742517283,0.0008394056049728833
1332,11.0,300.18399,-1687.9927,0.0,0.0,0.013320194633365645,0.0,0.0,0.0,0.14304381981232586,0.1156927444304849,0.25437105724696873,-0.003512098315017117,-0.00912304298849924,0.027394532665379872
1333,11.0,299.77211,-1579.7423,0.0,0.0,0.013330199053739777,0.0,0.0,0.0,0.1291980003758499,0.1015727293844479,0.24943149340697177,-0.020694351531123478,-0.01142595832240429,0.01827949688579588
1334,11.0,299.8598,-1376.3821,0.0,0.0,0.01334020347411391,0.0,0.0,0.0,0.08378798732373052,0.10657777957840789,0.2280200293163248,0.015254984854049785,-0.0008821873648026143,0.04169830061705186
1335,11.0,299.50147000000004,-1258.3308,0.0,0.0,0.013350174985210517,0.0,0.0,0.0,0.08558092222992941,0.09704031780563371,0.19987989555160982,0.0027634272705290373,0.00989265487280402,0.029588566676664176
1336,11.0,299.32622000000003,-1426.2149,0.0,0.0,0.013360179405584649,0.0,0.0,0.0,0.10377551483684591,0.10667664239066489,0.2230815699189368,-0.0091003883374634,-0.014569727864420188,0.025104340206355477
1337,11.0,298.96045,-1727.8597,0.0,0.0,0.013370183825959003,0.0,0.0,0.0,0.14301363509184686,0.13244443343124787,0.24976812548769475,-0.013375901397848687,-0.007692597089675223,0.018732847272038083
1338,11.0,299.01032999999995,-1598.56,0.0,0.0,0.013380188246333136,0.0,0.0,0.0,0.12964865349032587,0.12919327863038388,0.22708039183608977,0.006502066827004035,0.022421078649288183,0.024685621695281178
1339,11.0,298.93598,-1373.0093,0.0,0.0,0.013390192666707268,0.0,0.0,0.0,0.06851874604077372,0.12383888006694589,0.2250029251560598,0.00787272975402793,0.026834213466080677,0.04474820469630396
1340,11.0,299.79639,-1560.5738,0.0,0.0,0.0134001970870814,0.0,0.0,0.0,0.11133209090262189,0.11583542017706588,0.24720794646002478,-0.008658603897137672,-0.004927859585441875,0.031079538867561672
1341,11.0,300.26306,-1901.8817,0.0,0.0,0.01341020150745531,0.0,0.0,0.0,0.15030835693427985,0.15354395834610884,0.2742722112685597,-0.011186737066544989,-0.006839061752587843,0.02878133160024627
1342,11.0,300.07174,-1628.475,0.0,0.0,0.013420205927829665,0.0,0.0,0.0,0.13492180966074585,0.10524222475409892,0.25485169243190375,0.008313686672996992,-0.009546660665132052,0.026387963936539274
1343,11.0,300.03805,-1290.5343,0.0,0.0,0.013430177438926272,0.0,0.0,0.0,0.08998120599570361,0.097448670768185,0.20486033390064082,0.015844132031944087,0.012145322323649987,0.023239522298312276
1344,11.0,300.21847,-1295.877,0.0,0.0,0.013440181859300404,0.0,0.0,0.0,0.08404903094699351,0.09378710408056651,0.21607810681774878,-0.008481552121039022,-0.001093469617042049,0.01900572869621938
1345,11.0,300.32108,-1563.6367,0.0,0.0,0.013450186279674536,0.0,0.0,0.0,0.1160563188313669,0.1132435264212659,0.24600666753896777,-0.007875148078041603,-0.0002135019994985068,0.02286699380629658
1346,11.0,300.10521,-1728.4446,0.0,0.0,0.01346019070004889,0.0,0.0,0.0,0.12253755283101488,0.15276114158385085,0.25010530472347176,-0.001078976695561709,0.017647793203701585,0.03440769763627537
1347,11.0,300.03949,-1614.3991,0.0,0.0,0.013470195120423023,0.0,0.0,0.0,0.14508757566152886,0.1088385634665299,0.23681089599141578,0.008837562508599512,0.015925196092944485,0.01156491544111829
1348,11.0,299.60479,-1512.9093,0.0,0.0,0.013480199540797155,0.0,0.0,0.0,0.10767838196952889,0.12475002495436888,0.2274582530633818,0.013376934912950687,-0.014942872412496686,0.019117720190022083
1349,11.0,299.51277000000005,-1587.2622,0.0,0.0,0.013490203961171066,0.0,0.0,0.0,0.15143571926054186,0.10228262253700891,0.22876972293281378,-0.002850867005133667,-0.01891332636659998,0.009230999619078731
1350,11.0,299.40816,-1919.6645,0.0,0.0,0.01350020838154542,0.0,0.0,0.0,0.14809442573078185,0.14352048305686885,0.29191515505728277,0.012536232185729789,-0.007531508866252053,0.014914475065194086
1351,11.0,299.6962,-1720.7094,0.0,0.0,0.013510179892642027,0.0,0.0,0.0,0.13496605829261285,0.1328221021410209,0.25526455131764975,0.0050454058176177844,0.0037651008868115265,0.02240541278949208
1352,11.0,300.53024,-1258.9166,0.0,0.0,0.01352018431301616,0.0,0.0,0.0,0.06900297421056334,0.08751848946865241,0.2261577465600318,0.005866280557606814,0.0017914779538801082,0.025767239832528578
1353,11.0,300.48216,-1289.2767,0.0,0.0,0.013530188733390291,0.0,0.0,0.0,0.1025124479246909,0.09320010093988382,0.19619536355047482,-0.004906101356769506,-0.009026406388036952,0.04242412611418526
1354,11.0,300.08068,-1597.8466,0.0,0.0,0.013540193153764424,0.0,0.0,0.0,0.1222790524655029,0.12132859347419989,0.24209781209819375,-0.0014968618084287586,0.003879464095123296,0.04066103041018126
1355,11.0,299.85107999999997,-1652.0401,0.0,0.0,0.013550197574138778,0.0,0.0,0.0,0.13936401968915788,0.12184634401029788,0.24096856512674575,-0.005467926752342355,0.007173146927859483,0.03874976309105386
1356,11.0,300.07837,-1517.9107,0.0,0.0,0.013560201994512688,0.0,0.0,0.0,0.088106889881223,0.13149527140007286,0.2418047801692738,-0.003140720267164957,-0.012411400786659888,0.029843572342581268
1357,11.0,300.61584,-1454.8672,0.0,0.0,0.013570206414887043,0.0,0.0,0.0,0.0990763263445721,0.1109338329508169,0.23223313336462575,-0.0101057796696878,0.0023564250716860474,0.03077118051762907
1358,11.0,300.23007,-1583.4155,0.0,0.0,0.01358017792598365,0.0,0.0,0.0,0.10208983144048189,0.1318246384775789,0.24740429406440279,0.008112040378546053,0.008896784849119302,0.029553820304234972
1359,11.0,299.85862000000003,-1753.7743,0.0,0.0,0.013590182346357782,0.0,0.0,0.0,0.13886204545711686,0.14521549848665388,0.24902606164445878,0.005298201686391795,0.006123123448605234,0.02431131494933998
1360,11.0,300.54046,-1662.4942,0.0,0.0,0.013600186766731914,0.0,0.0,0.0,0.13324477942023588,0.11657648090270288,0.25553545386438575,0.004173637348955935,-0.01099413950078709,0.012612532958010089
1361,11.0,300.71671000000003,-1348.7878,0.0,0.0,0.013610191187106047,0.0,0.0,0.0,0.11851306528882889,0.09307608115414401,0.19840866653891082,-0.01112169755587609,-0.01018403591333609,0.015074082220946085
1362,11.0,300.58252000000005,-1291.2594,0.0,0.0,0.013620195607480179,0.0,0.0,0.0,0.07802878825259182,0.0957184540166759,0.21876337157026382,0.01164481426450369,0.01063833064867149,0.03041078974856127
1363,11.0,301.07284,-1562.8699,0.0,0.0,0.013630200027854311,0.0,0.0,0.0,0.12853724985313889,0.10794582933342389,0.23859034555203376,-0.007072820171858004,0.012010908618384388,0.02113652779526288
1364,11.0,300.21749,-1647.6698,0.0,0.0,0.013640204448228666,0.0,0.0,0.0,0.11906165915797089,0.12922408143342387,0.25256474642619975,-0.002957141640547157,-0.006476265527782644,0.038018012107335665
1365,11.0,299.95222,-1473.9966,0.0,0.0,0.013650208868602798,0.0,0.0,0.0,0.1101282484588119,0.10712869379027891,0.2308012285883078,-0.02497265011735868,-0.00976464014589495,0.020301894436140982
1366,11.0,300.17355,-1457.3611,0.0,0.0,0.013660180379699183,0.0,0.0,0.0,0.1035690853939729,0.1146828279233139,0.2247494707760458,0.0014282123916285886,0.0037611550882721057,0.04844043537169875
1367,11.0,300.16115,-1613.9178,0.0,0.0,0.013670184800073315,0.0,0.0,0.0,0.13789060205624287,0.10814134607271988,0.24455877367607176,0.006025288679899694,0.002444027939556778,0.01174460318735209
1368,11.0,300.13428,-1689.4695,0.0,0.0,0.01368018922044767,0.0,0.0,0.0,0.13066857077598387,0.12432754019267288,0.25856043097792775,0.002099290162008808,-0.006442572428832395,0.029313881667304868
1369,11.0,299.96661,-1708.3164,0.0,0.0,0.013690193640821802,0.0,0.0,0.0,0.14077317700073086,0.12635940048570188,0.2521529615855598,0.011793218927150089,0.0012613929216647888,0.0013153463616645787
1370,11.0,299.81888,-1555.7741,0.0,0.0,0.013700198061195934,0.0,0.0,0.0,0.1157625978923789,0.11209750002816189,0.24505637066768074,0.004582394800947156,0.01032334969608529,0.013721734802729786
1371,11.0,300.14675,-1409.2752,0.0,0.0,0.013710202481570288,0.0,0.0,0.0,0.09095543076810211,0.11645091895031089,0.2209781235063428,0.01379343541955609,0.01919655003455198,0.023765155920188276
1372,11.0,300.5794,-1521.3234,0.0,0.0,0.013720206901944199,0.0,0.0,0.0,0.1116398757529979,0.12707508942883486,0.2237293711053698,-0.021861175895780082,-0.0029632095900960173,0.03306686276569527
1373,11.0,300.55512000000004,-1744.7978,0.0,0.0,0.013730211322318553,0.0,0.0,0.0,0.14333176522574387,0.13507608712097185,0.25196709098721576,-0.01188899537960249,0.002251710436126518,0.04022812335795666
1374,11.0,300.86037999999996,-1518.3613,0.0,0.0,0.013740182833414938,0.0,0.0,0.0,0.0945822632422926,0.1293599684043349,0.23760170729696278,-0.01901659073729138,0.0067012422097611135,0.05674659562295294
1375,11.0,300.37302,-1301.2557,0.0,0.0,0.01375018725378907,0.0,0.0,0.0,0.08842814183867811,0.09980548442128441,0.20731561114545782,0.0006353350285976853,0.0073640919840292935,0.04682671603718705
1376,11.0,300.68525,-1442.1366,0.0,0.0,0.013760191674163424,0.0,0.0,0.0,0.08349208688377742,0.11643020811826689,0.23845121618080278,-0.007477621895458823,-0.012878427009501788,0.030586122545865266
1377,11.0,300.38293999999996,-1647.0792,0.0,0.0,0.013770196094537557,0.0,0.0,0.0,0.12332062290579789,0.11788452598679688,0.25946580033978073,0.0023669269023474976,-0.009272305671330321,0.02230842043691968
1378,11.0,299.84879,-1666.3396,0.0,0.0,0.013780200514911911,0.0,0.0,0.0,0.1161800265360759,0.11531192451290088,0.2750336889837117,0.0013281910292072486,0.0050942693983902455,0.016206126775920184
1379,11.0,299.49227,-1611.6757,0.0,0.0,0.013790204935286043,0.0,0.0,0.0,0.13171017161378187,0.11862938640030889,0.23956960111117878,-0.0015199550954328887,-0.00017002775415293284,0.016743244574429585
1380,11.0,300.18062000000003,-1504.0942,0.0,0.0,0.013800209355659954,0.0,0.0,0.0,0.09947802022746621,0.1040663581455499,0.25366269410205877,-0.0006940288882628184,-0.005875617353303285,0.008342205103686544
1381,11.0,299.54304,-1607.2933,0.0,0.0,0.01381018086675656,0.0,0.0,0.0,0.14808658317500786,0.10746970311143389,0.23302075293235777,-0.005967893837260265,0.0054701802205647555,-2.7036563564051074e-05
1382,11.0,299.56745,-1845.6367,0.0,0.0,0.013820185287130693,0.0,0.0,0.0,0.13160313187321787,0.15088362967855484,0.2785407299648297,0.00944132733906146,0.013885940087435588,0.029455475262779075
1383,11.0,300.33357,-1753.7277,0.0,0.0,0.013830189707505047,0.0,0.0,0.0,0.14452808935381187,0.12821992018682088,0.26034140041369574,0.009923954472368051,0.007746967482091163,0.016403271808126882
1384,11.0,299.30235,-1486.1904,0.0,0.0,0.01384019412787918,0.0,0.0,0.0,0.08278642303713382,0.13023680464337187,0.23874156299695776,-0.008432505040673452,-0.008107602849733102,0.04941914985529036
1385,11.0,299.36146,-1429.7101,0.0,0.0,0.013850198548253312,0.0,0.0,0.0,0.11728870453049389,0.0989618736662765,0.21834559842153278,0.0038735246256871164,-0.009612807455510231,0.031040725309231073
1386,11.0,299.50885,-1645.3699,0.0,0.0,0.013860202968627666,0.0,0.0,0.0,0.12919791931584187,0.11426415298199388,0.25668928228325977,0.002089055120098688,0.014401525308069886,0.03947725741110197
1387,11.0,299.1902,-1591.7384,0.0,0.0,0.013870207389001576,0.0,0.0,0.0,0.14223330079233387,0.1069188192970659,0.23469659767025075,0.012058982269378887,0.001008774037285746,0.02986264981546407
1388,11.0,299.95615,-1336.1817,0.0,0.0,0.013880211809375709,0.0,0.0,0.0,0.06648098964541284,0.09467123977332391,0.24501364191096375,0.0091135119527586,-0.013101070480474989,0.021169165594233978
1389,11.0,300.5003,-1398.2075,0.0,0.0,0.013890183320472316,0.0,0.0,0.0,0.10009412897727141,0.1035190409715339,0.2214069917436688,-0.0022896133865922476,-0.001249437786384909,0.02401466571756298
1390,11.0,300.00102000000004,-1668.0214,0.0,0.0,0.01390018774084667,0.0,0.0,0.0,0.11818103336355988,0.12498647699770489,0.26386934474437673,0.0042140678517961164,0.01179765696258809,0.007580676624704533
1391,11.0,300.51838,-1798.6175,0.0,0.0,0.013910192161220802,0.0,0.0,0.0,0.13888244218162984,0.15262950013085885,0.25522286620853574,-0.014284783697798386,-0.002267192289704458,0.030855460634446868
1392,11.0,300.2073,-1752.5346,0.0,0.0,0.013920196581594935,0.0,0.0,0.0,0.12452083791424988,0.15261838477726186,0.25558752478702473,-0.007166682594871503,-0.0007153848566454884,0.024295553844034475
1393,11.0,299.41164,-1615.2756,0.0,0.0,0.013930201001969067,0.0,0.0,0.0,0.1330688285403709,0.12718293976947886,0.23075169079091876,-9.54959311224646e-05,-0.017269175078584883,0.037945621467191264
1394,11.0,299.58243,-1550.8696,0.0,0.0,0.0139402054223432,0.0,0.0,0.0,0.1120898499899069,0.11485446235775289,0.24448132083842775,0.014067785043132287,0.010824461652291189,0.03230207374921647
1395,11.0,299.58441,-1619.6786,0.0,0.0,0.013950209842717332,0.0,0.0,0.0,0.13368471234865387,0.1086336133688029,0.2500235151753998,-0.0006403793321005193,-0.007147842222512103,0.03091872797069087
1396,11.0,299.82121,-1587.0465,0.0,0.0,0.013960214263091464,0.0,0.0,0.0,0.1057711311737979,0.1077857358176239,0.26886564045747274,-0.006988568527368013,-0.014560220538731884,0.02091368978027048
1397,11.0,299.9345,-1363.3262,0.0,0.0,0.01397018577418807,0.0,0.0,0.0,0.10015196833272971,0.08858502132516093,0.22568015112539677,0.0017964373064945582,-0.014626107126484385,0.025997847449287775
1398,11.0,299.81214,-1446.5072,0.0,0.0,0.013980190194562203,0.0,0.0,0.0,0.1178697730653409,0.09154427802396682,0.23028801741265778,0.010513997768650791,0.006999334411005523,0.02065608411459678
1399,11.0,300.91614,-1747.0418,0.0,0.0,0.013990194614936557,0.0,0.0,0.0,0.16865318919977385,0.11612070074272088,0.24628320375625978,0.014071343577483485,-0.007269843918027733,0.010887485808511189
1400,11.0,300.77938,-1791.1851,0.0,0.0,0.01400019903531069,0.0,0.0,0.0,0.13217724951237889,0.14196044267290486,0.2703378725877707,0.006328897926613594,-0.012220139697783888,0.024949501405574077
1401,11.0,300.67975,-1747.6254,0.0,0.0,0.014010203455684822,0.0,0.0,0.0,0.1360684541364109,0.13326070771180787,0.26190532154554275,0.019142012861169583,0.0029507591781672573,0.009161326414377523
1402,11.0,300.41842,-1696.8064,0.0,0.0,0.014020207876058954,0.0,0.0,0.0,0.1057834928250179,0.13745035502029385,0.27255293863138075,0.009952518094012059,0.017071598401835586,0.024960699845679276
1403,11.0,300.01847999999995,-1556.9532,0.0,0.0,0.014030212296432865,0.0,0.0,0.0,0.11879434351658888,0.10526498235134489,0.24921557994316276,0.013115004695850188,0.005020779483212355,0.005499972103979985
1404,11.0,299.84046,-1477.7445,0.0,0.0,0.014040183807529916,0.0,0.0,0.0,0.0995132033106885,0.11250999414387189,0.2371742272122738,-0.03143520687791337,-0.002097149975147588,0.04096633989056296
1405,11.0,300.16065,-1534.5118,0.0,0.0,0.014050188227903826,0.0,0.0,0.0,0.1201978570251049,0.10553930968341889,0.24071611386433078,0.0005006285953781955,0.009510360980299552,0.023771197930534577
1406,11.0,299.94795,-1491.9029,0.0,0.0,0.014060192648277958,0.0,0.0,0.0,0.1094938221736989,0.1049850010837129,0.2390224055271748,-0.0063426166236925235,0.010638480609686292,0.058140422460512944
1407,11.0,299.6389,-1433.1886,0.0,0.0,0.01407019706865209,0.0,0.0,0.0,0.1100277644463949,0.0991638083317059,0.2264619749025568,0.00020447975716308083,0.0019722841255742883,0.03748757669323576
1408,11.0,299.86661000000004,-1616.0593,0.0,0.0,0.014080201489026445,0.0,0.0,0.0,0.11066991169726988,0.1264771300148209,0.2540946426196887,-0.018156910848947584,-0.014673803848441684,0.04525050418162705
1409,11.0,299.97836,-1805.4115,0.0,0.0,0.014090205909400577,0.0,0.0,0.0,0.13609608546663787,0.14830257769882485,0.26440136184188273,0.01026721462729519,-0.0007302971724747193,0.02046400837264038
1410,11.0,300.38616,-1724.0857,0.0,0.0,0.01410021032977471,0.0,0.0,0.0,0.1378233729121079,0.13939013114423487,0.24686549832372778,0.0008862112747922432,0.008163883725212592,0.02978175902023077
1411,11.0,300.35894,-1724.2952,0.0,0.0,0.01411021475014862,0.0,0.0,0.0,0.13294877866852287,0.13139316618749589,0.25980074029283673,0.02329994341502538,-0.01053406214713099,0.009191183145799153
1412,11.0,300.5648,-1652.5267,0.0,0.0,0.014120186261245449,0.0,0.0,0.0,0.1349209078681569,0.1177766249836479,0.2496293203564958,-0.008571323344123753,-0.017345266108094483,0.014589321081603886
1413,11.0,300.52409,-1600.3158,0.0,0.0,0.014130190681619581,0.0,0.0,0.0,0.1108295289855229,0.12163093717153889,0.2539955670249108,0.004160925214526346,-0.009180664393861032,0.00933233932120518
1414,11.0,300.22609,-1611.4108,0.0,0.0,0.014140195101993713,0.0,0.0,0.0,0.1096249468691399,0.11757889935913388,0.26262481017655076,-0.005665931020633855,0.017720347990362185,0.029600562544598072
1415,11.0,299.71315,-1604.7306,0.0,0.0,0.014150199522367846,0.0,0.0,0.0,0.13024576177425587,0.11043529363661489,0.24711698699854778,-0.009136881147764961,0.006596573271781094,0.02162875658784208
1416,11.0,299.92657,-1445.9483,0.0,0.0,0.014160203942741978,0.0,0.0,0.0,0.1056592177002529,0.09316690787985792,0.2407060421583368,-0.0073197873194317635,0.016412480225035685,0.031102129278541175
1417,11.0,300.0657,-1508.9414,0.0,0.0,0.014170208363116332,0.0,0.0,0.0,0.1082261956360939,0.1197615413995439,0.23069276016510276,-0.006160746438068334,0.016392695503583084,0.03430651954753987
1418,11.0,300.00914,-1713.8978,0.0,0.0,0.014180212783490243,0.0,0.0,0.0,0.13417506460204787,0.14099239365986585,0.24581468704252077,0.018699456628242683,0.017966576883913083,0.04192129365930956
1419,11.0,299.93147999999997,-1791.47,0.0,0.0,0.014190217203864597,0.0,0.0,0.0,0.15625053174822684,0.13327721355593686,0.25503441182243675,0.003536484205173817,-0.0073242146144187024,0.02947391134834857
1420,11.0,299.73408,-1653.1768,0.0,0.0,0.014200188714961204,0.0,0.0,0.0,0.12273345460534889,0.13589654612444488,0.2438944767780108,0.015466801747704486,-0.01283061477703309,0.03323568847085707
1421,11.0,300.09516,-1562.8155,0.0,0.0,0.014210193135335336,0.0,0.0,0.0,0.12078797388334488,0.1115748656265819,0.24269404898703775,0.007030457299752113,-0.009922920551966011,0.013695737844914088
1422,11.0,300.17798999999997,-1740.8994,0.0,0.0,0.014220197555709468,0.0,0.0,0.0,0.11639350819964489,0.1308896720803049,0.2819067670620317,0.000966096378771289,0.004812479681979766,0.016022395148537285
1423,11.0,299.19205,-1738.3029999999999,0.0,0.0,0.0142302019760836,0.0,0.0,0.0,0.11826567014441289,0.13897751543851286,0.27115753112366475,-0.019695158249760782,-0.0030933716979420173,0.012143758878745688
1424,11.0,299.69631,-1579.0129,0.0,0.0,0.014240206396457733,0.0,0.0,0.0,0.12198031593851986,0.10872361024268488,0.24927656746668178,-0.016820965923350088,0.003843799718103496,0.01938860449825628
1425,11.0,299.44301,-1478.2041,0.0,0.0,0.014250210816831865,0.0,0.0,0.0,0.1150235737994429,0.1037268484345429,0.23058672354213777,-0.014672284986541786,0.013550491482829385,0.03194586972956187
1426,11.0,299.59372,-1461.5626,0.0,0.0,0.01426021523720622,0.0,0.0,0.0,0.09727419315396542,0.1196244081310099,0.2273799389631528,0.002783531875038208,0.011193517736214189,0.04030011376431156
1427,11.0,300.21631,-1631.6017,0.0,0.0,0.014270186748302827,0.0,0.0,0.0,0.12684626715875189,0.12122010478599289,0.24789979362830478,-0.009191429061598422,-0.01011462676161094,0.044189585730672554
1428,11.0,300.0939,-1769.7139,0.0,0.0,0.014280191168676737,0.0,0.0,0.0,0.14010655975994085,0.12170510707885888,0.27613716900511676,-0.005425378455468166,-0.02066751661547508,0.022037689129450578
1429,11.0,299.78482,-1651.4861,0.0,0.0,0.01429019558905087,0.0,0.0,0.0,0.1313657476397899,0.12638790321101487,0.24425687580877678,0.012721874802801288,0.000900483763713328,0.027172611641727972
1430,11.0,300.1229,-1565.5403,0.0,0.0,0.014300200009425224,0.0,0.0,0.0,0.12217076642731589,0.1173663600181579,0.23634804334573578,0.020236994753985882,0.014906219103379286,0.015702790735744786
1431,11.0,299.75639,-1835.1517,0.0,0.0,0.014310204429799356,0.0,0.0,0.0,0.14476627405481887,0.15494557707693785,0.25812843179779277,0.011645069603528888,-0.00997061808452339,0.025821295712113477
1432,11.0,299.8023,-1910.8666,0.0,0.0,0.014320208850173488,0.0,0.0,0.0,0.14437904026410187,0.15007877472662184,0.28639790693777273,-0.0066479887229304035,0.0008187813146199242,0.015034855256574685
1433,11.0,299.85327,-1685.5989,0.0,0.0,0.014330213270547842,0.0,0.0,0.0,0.12662748619715988,0.1275709537627729,0.25818153623553375,-0.00987408909122172,0.012312063773356089,0.02123620931360068
1434,11.0,300.13642000000004,-1520.4514,0.0,0.0,0.014340217690921753,0.0,0.0,0.0,0.08477626587501602,0.12266782639637187,0.25473517880290475,0.002699380339658097,0.013938865179908886,0.025222674645784177
1435,11.0,300.15531,-1462.6919,0.0,0.0,0.014350189202018582,0.0,0.0,0.0,0.09558145247065492,0.1071186018192829,0.24192174976081776,-0.012437397744475588,0.0023880599557081677,0.03169675509972617
1436,11.0,299.27328,-1534.7399,0.0,0.0,0.014360193622392492,0.0,0.0,0.0,0.10891384794895989,0.11429048735209289,0.24331827184364377,-0.0019545215473462585,-0.011323608916553188,0.04791016207761486
1437,11.0,298.87344,-1587.1835,0.0,0.0,0.014370198042766624,0.0,0.0,0.0,0.1175108190849149,0.11757321502607287,0.24738011791701678,0.006194232935323193,0.008522426022122961,0.03362879911215407
1438,11.0,299.60353,-1510.9270000000001,0.0,0.0,0.014380202463140979,0.0,0.0,0.0,0.11940162483152288,0.11512873902732189,0.2247537264264658,0.0057561537479631445,0.012581337013931288,0.04224125676263746
1439,11.0,300.257,-1487.6931,0.0,0.0,0.014390206883515111,0.0,0.0,0.0,0.11739718308619988,0.1123896301644929,0.22243473132009878,0.004857489365996876,-0.006044968833941974,0.02858745328636197
1440,11.0,300.4695,-1727.3127,0.0,0.0,0.014400211303889465,0.0,0.0,0.0,0.12840913451049488,0.1294584461815539,0.26719235924233276,-0.006338071082418914,-0.007668416078688743,0.027333038516810872
1441,11.0,299.82108999999997,-1984.6624,0.0,0.0,0.014410215724263375,0.0,0.0,0.0,0.17141384989222982,0.14701144375889988,0.28486250879624075,0.007083046803792293,0.016624444039954882,0.003494289431259517
1442,11.0,299.93164,-1838.815,0.0,0.0,0.014420220144637508,0.0,0.0,0.0,0.15265089997297085,0.13639400126103987,0.26990893342293776,0.0072423813952673935,0.002322203765458668,0.013560578387574886
1443,11.0,300.00057999999996,-1612.4714,0.0,0.0,0.014430191655734115,0.0,0.0,0.0,0.12301954577108389,0.11293767687858089,0.2541938094069758,0.003911245191134846,-1.5917527816187685e-05,0.009013604580973512
1444,11.0,300.77257000000003,-1595.9319,0.0,0.0,0.014440196076108247,0.0,0.0,0.0,0.13029086153620686,0.1057005785693349,0.24913201720741573,-0.0017898741816218284,-0.007626746674951294,0.015693196270547882
1445,11.0,299.5368,-1736.8799,0.0,0.0,0.014450200496482601,0.0,0.0,0.0,0.13281654953047287,0.12090780084017089,0.2742437592057518,-0.002718889153108467,0.004714876846222116,0.012964216868968589
1446,11.0,299.48107000000005,-1594.3065,0.0,0.0,0.014460204916856734,0.0,0.0,0.0,0.1032097666435109,0.11343733076789288,0.2679822586227898,-0.0068509741287135035,0.005016959732985375,0.02887156253490137
1447,11.0,299.36273,-1521.4984,0.0,0.0,0.014470209337230866,0.0,0.0,0.0,0.1056151818509069,0.1170854161629309,0.23979691363861277,-0.01227842083028579,-0.014533428179587684,0.029846508741371073
1448,11.0,300.05181,-1520.6856,0.0,0.0,0.01448021375760522,0.0,0.0,0.0,0.1089702353170249,0.1262416608240819,0.2270385547394608,-0.0012833139796282287,-0.006569806953164462,0.048255385505935756
1449,11.0,299.88777000000005,-1695.0206,0.0,0.0,0.01449021817797913,0.0,0.0,0.0,0.13103062530171586,0.14415668252965685,0.24005664003674576,0.0026958386252585575,-0.0009631078482638441,0.039726412570941665
1450,11.0,299.82581,-1927.5782,0.0,0.0,0.014500189689075738,0.0,0.0,0.0,0.18016221072562583,0.14331855244443986,0.26245487800227973,0.01689374565153288,0.0089736489884552,0.023475777771128876
1451,11.0,299.2763,-1814.654,0.0,0.0,0.01451019410944987,0.0,0.0,0.0,0.13296665240028688,0.14286361328204086,0.27577923840729174,0.0006135243844976424,-0.011225335815854389,0.016120321717701884
1452,11.0,300.04168,-1583.4616,0.0,0.0,0.014520198529824224,0.0,0.0,0.0,0.1017607987355089,0.13116960268543187,0.2484023960754078,0.016481771333124184,-0.00960458574154881,0.02391223727820408
1453,11.0,300.30546,-1686.6837,0.0,0.0,0.014530202950198357,0.0,0.0,0.0,0.1207833331978869,0.1182902211943359,0.27363619418078977,0.005662881036507844,0.005674735049427744,0.019395796547466083
1454,11.0,299.99075,-1855.8609,0.0,0.0,0.014540207370572489,0.0,0.0,0.0,0.14193884018077285,0.14562401052947088,0.27657251191058174,0.011361219747015091,-0.00864758500495019,0.02299855825228098
1455,11.0,300.22213999999997,-1700.4796,0.0,0.0,0.014550211790946621,0.0,0.0,0.0,0.13653574481752886,0.12423852617138788,0.25612907656797174,-0.010832757130859887,-0.007024621080501123,0.024734263779581774
1456,11.0,299.73287,-1539.4409,0.0,0.0,0.014560216211320753,0.0,0.0,0.0,0.11154915947154491,0.11964464273550689,0.23675779155367477,-0.00011404182564505188,-0.006274752273069834,0.026052099899392077
1457,11.0,300.2398,-1544.9835,0.0,0.0,0.014570220631694886,0.0,0.0,0.0,0.1091665727889019,0.12651717365877288,0.2339526694468308,-0.001039698967360299,0.015108872163129587,0.02883956308349327
1458,11.0,300.05037999999996,-1649.5562,0.0,0.0,0.014580192142791493,0.0,0.0,0.0,0.1166306593855499,0.1275242935956679,0.25726893226796677,0.005351946498195995,0.004995086500426655,0.028054207116484674
1459,11.0,299.56172000000004,-1844.2564,0.0,0.0,0.014590196563165625,0.0,0.0,0.0,0.15854889708255784,0.13610162794468486,0.26595737962294974,-0.004964035349787146,-0.003069166774253177,0.02184489296667308
1460,11.0,299.88633,-1830.4791,0.0,0.0,0.014600200983539757,0.0,0.0,0.0,0.14314644178245386,0.14164910131467787,0.27162438610723977,0.008220302808005722,-0.02148072277473228,0.03045303417173047
1461,11.0,300.0213,-1570.485,0.0,0.0,0.014610205403914112,0.0,0.0,0.0,0.13337817379590086,0.1165740389699619,0.2274360223561878,0.01072270094474819,0.014711400493402185,0.02557318318662668
1462,11.0,299.95108999999997,-1608.9389,0.0,0.0,0.014620209824288244,0.0,0.0,0.0,0.12192014914758188,0.11940765366961789,0.24774943744596575,0.01808547975664788,0.004082685182879656,0.017175520371841883
1463,11.0,300.6053,-1937.2989,0.0,0.0,0.014630214244662376,0.0,0.0,0.0,0.14983062977713185,0.14668593716427486,0.2923739040400577,-0.0016391024654168183,-0.007410934232177263,0.011801300609947689
1464,11.0,300.3405,-1889.1644,0.0,0.0,0.014640218665036508,0.0,0.0,0.0,0.13629720547898685,0.14361953838664487,0.2943420612992997,-0.009406039283128801,-0.011923953521302589,0.027765892880030275
1465,11.0,299.98192,-1482.576,0.0,0.0,0.014650223085410419,0.0,0.0,0.0,0.08642294522203062,0.12530160791130587,0.23894151777169176,-0.004129976098171906,-0.0014968368824762985,0.03102292250497407
1466,11.0,300.36241,-1442.2296,0.0,0.0,0.014660194596507248,0.0,0.0,0.0,0.08283415319634442,0.11940063184642488,0.23616699581786776,0.00983454497956902,0.007034130230039602,0.03010678026805787
1467,11.0,300.26063999999997,-1743.7081,0.0,0.0,0.01467019901688138,0.0,0.0,0.0,0.14580627395745885,0.13091745539804686,0.2533199825207358,-0.018269618710570982,0.0018459455169806385,0.02283847588223208
1468,11.0,300.16188,-1868.4788,0.0,0.0,0.014680203437255512,0.0,0.0,0.0,0.15964595309832885,0.14055199463640186,0.2677729515496327,-0.00970700080600639,0.0012998399874342187,0.026227978838499977
1469,11.0,300.38956,-1644.7212,0.0,0.0,0.014690207857629645,0.0,0.0,0.0,0.12002856319839689,0.1257234137954349,0.2542021889853027,-0.005376899301783645,0.027221241567027373,0.033685853198784865
1470,11.0,300.12748999999997,-1462.6642,0.0,0.0,0.014700212278003999,0.0,0.0,0.0,0.0944967885036069,0.1077901029255549,0.24232650264576377,0.0026717693757581074,0.007147004062029383,0.027791942526851174
1471,11.0,300.21275,-1626.3333,0.0,0.0,0.014710216698378131,0.0,0.0,0.0,0.1157337709270339,0.12473299222018788,0.25389796064277775,-0.0017039796534196986,-0.017527500151829585,0.025888649486010773
1472,11.0,300.23517999999996,-1987.0483,0.0,0.0,0.014720221118752042,0.0,0.0,0.0,0.16613671164891683,0.14682237129023984,0.29105399379729274,-0.007158093679073843,-0.016966711817734084,0.02232370430142808
1473,11.0,300.16562999999996,-1932.3305,0.0,0.0,0.014730225539126174,0.0,0.0,0.0,0.16734468815313483,0.14777069232383186,0.27226486149544976,0.027652443319333673,0.02053004289490748,0.010132098537060272
1474,11.0,299.33824,-1491.9868,0.0,0.0,0.014740197050223003,0.0,0.0,0.0,0.10078540872549539,0.1128489566998249,0.23989236179803278,0.013538072076353685,0.01124864664765499,0.018557349314967782
1475,11.0,299.70454,-1482.3507,0.0,0.0,0.014750201470597135,0.0,0.0,0.0,0.0892263346712036,0.11300989121320788,0.2483613695788588,0.0022367965092296277,0.006500140233263894,0.020781796028003584
1476,11.0,299.8167,-1864.8647,0.0,0.0,0.014760205890971267,0.0,0.0,0.0,0.14094455812264486,0.14528704407621487,0.2806407009295807,-0.01972510688296648,-0.011511409756337689,0.030236189531079573
1477,11.0,299.9182,-1877.5024,0.0,0.0,0.0147702103113454,0.0,0.0,0.0,0.13748019523573887,0.14286539660221687,0.2903682666596167,-0.00879478876357807,0.019796098224722784,0.025123603104006575
1478,11.0,300.22172,-1601.2628,0.0,0.0,0.014780214731719532,0.0,0.0,0.0,0.11657435307749288,0.12244175003405988,0.24772780455633076,-0.015428934564967285,0.006857404315173113,0.04350246740060926
1479,11.0,300.34283999999997,-1527.4644,0.0,0.0,0.014790219152093886,0.0,0.0,0.0,0.11211369176475991,0.10779732739876789,0.24440001765040376,-0.023588359989739877,-0.010956338179306389,0.02063637943990208
1480,11.0,300.60207,-1709.8048,0.0,0.0,0.014800223572467797,0.0,0.0,0.0,0.14443105039173487,0.12976383976169387,0.24554306508821375,-0.012056461303130088,-0.002862402756197157,0.03656781310046217
1481,11.0,300.39916,-1881.8056,0.0,0.0,0.014810195083564626,0.0,0.0,0.0,0.15179937472143185,0.13930787550111687,0.28091466349161875,0.0026899328970507075,0.01207028203449409,0.02939770379507747
1482,11.0,300.43097,-1829.5107,0.0,0.0,0.014820199503938758,0.0,0.0,0.0,0.14803272893219285,0.13979734622692386,0.2682954744937017,-0.00021465669931246682,0.005119252396830875,0.025701465715537178
1483,11.0,300.3286,-1582.2818,0.0,0.0,0.01483020392431289,0.0,0.0,0.0,0.09768357557861831,0.12244260116414388,0.26084798493369177,0.003826167038538286,-0.02135414351923988,0.02463081905037258
1484,11.0,300.06601,-1503.1485,0.0,0.0,0.014840208344687023,0.0,0.0,0.0,0.11240550779355989,0.10923830076348089,0.23527580182491376,0.01172129539530179,-0.013076029017503588,0.024773059099410577
1485,11.0,299.85749,-1799.5255,0.0,0.0,0.014850212765061155,0.0,0.0,0.0,0.14115545599845886,0.13810811645520987,0.2677472555270967,0.014024169692577786,0.002173437575176588,0.02858249140062227
1486,11.0,300.19843,-1822.0148,0.0,0.0,0.014860217185435287,0.0,0.0,0.0,0.14069971636848086,0.13513032639882486,0.27801695059063675,-0.002605981883865388,0.006196669092538624,0.018481644333746283
1487,11.0,299.73748,-1544.4383,0.0,0.0,0.01487022160580942,0.0,0.0,0.0,0.1034897985736479,0.12327473280876888,0.24270615732573278,-0.01852190582646978,-0.009352257082395912,0.030130846984433073
1488,11.0,299.64935,-1475.9389,0.0,0.0,0.014880226026183774,0.0,0.0,0.0,0.0997846286944761,0.1144531139931429,0.2344108408770488,-0.026909025773964076,-0.007816785885531701,0.028104228234171375
1489,11.0,299.96456,-1799.1092,0.0,0.0,0.01489019753728038,0.0,0.0,0.0,0.14333853373641187,0.13443017057972487,0.26911556872713877,0.0035444562543105965,0.011055963968888688,0.03947860199398466
1490,11.0,300.17322,-1984.8791,0.0,0.0,0.014900201957654291,0.0,0.0,0.0,0.18035145544680284,0.1328231964511289,0.29017902193843975,-0.001191821041973579,0.00806773743647369,0.016542099230828083
1491,11.0,300.3687,-1810.0194,0.0,0.0,0.014910206378028423,0.0,0.0,0.0,0.14790812956739588,0.13717553119567086,0.2651170305200138,0.01020000574816219,-0.01882389893927418,0.028686423503129572
1492,11.0,300.38228,-1628.2314,0.0,0.0,0.014920210798402778,0.0,0.0,0.0,0.1129761803823809,0.11953041905173388,0.26243508922782677,0.01011252315307833,-0.017083570965017184,0.021624393532911478
1493,11.0,300.00802000000004,-1661.3587,0.0,0.0,0.01493021521877691,0.0,0.0,0.0,0.1128581367457309,0.12612671773273787,0.26602671632729274,0.025170230847108375,0.0054611143679450256,0.020505132141198982
1494,11.0,300.18634,-1840.6004,0.0,0.0,0.014940219639151042,0.0,0.0,0.0,0.12633896323118488,0.15361772295338885,0.27953986549093673,0.011676485422879388,-0.0028824337987490675,0.025088810122072775
1495,11.0,300.40235,-1866.872,0.0,0.0,0.014950224059525397,0.0,0.0,0.0,0.14122485349780786,0.14882363143024885,0.27743397714560175,-0.011088805431129887,-0.01946938383597858,0.03127239075909467
1496,11.0,300.15713,-1654.7423,0.0,0.0,0.014960228479899307,0.0,0.0,0.0,0.13688883207987587,0.12708406682472087,0.23902743124767079,-0.009320836298119922,-0.0025680510690219076,0.024509682974417378
1497,11.0,299.69627,-1379.44,0.0,0.0,0.014970199990995914,0.0,0.0,0.0,0.098212701873589,0.1035162950637629,0.2175863295915988,0.00931033730455875,0.005250783709537005,0.03935938805346917
1498,11.0,299.79741,-1672.34,0.0,0.0,0.014980204411370046,0.0,0.0,0.0,0.11781861406779189,0.12559652448541186,0.26493444285199375,0.007207618304211544,0.011826989539732989,0.019255751198144683
1499,11.0,299.93465,-1938.3354,0.0,0.0,0.014990208831744178,0.0,0.0,0.0,0.14465932550676386,0.15208376362699885,0.29246247223129873,-0.017129059815006585,-0.019597987565170782,0.03563121435727707
1500,11.0,300.41256,-1828.5445,0.0,0.0,0.015000213252118533,0.0,0.0,0.0,0.12992165346476886,0.14122073970240187,0.28468947607666373,-0.014676056303413985,0.007577624310103293,0.028577782827407576
1501,11.0,300.4502,-1647.3413,0.0,0.0,0.015010217672492665,0.0,0.0,0.0,0.12309285441581887,0.12327250365854889,0.2543852630133708,-0.0019228141146169784,0.015755802967726686,0.042384102735235255
1502,11.0,300.39275,-1662.5857,0.0,0.0,0.01502022209286702,0.0,0.0,0.0,0.15040003580332784,0.1101939982578009,0.2447905242389438,0.015248590232668686,0.018380177468732283,0.013660541589440488
1503,11.0,300.50326,-1869.3099,0.0,0.0,0.01503022651324093,0.0,0.0,0.0,0.14441329824998286,0.13526916192752686,0.2885410727542867,0.0024314909960694775,-0.02281803862771508,0.018048918653289583
1504,11.0,300.54884,-1923.8843,0.0,0.0,0.015040198024337537,0.0,0.0,0.0,0.15082594535036187,0.14512960527567687,0.2888572371829898,0.004703003480225306,-0.015914111136850484,0.014859647089032986
1505,11.0,300.92058,-1746.4092,0.0,0.0,0.015050202444711669,0.0,0.0,0.0,0.11545242177176689,0.13077905556688788,0.2846332913586187,0.012518611766490788,0.0032367987694721665,0.018552230375462584
1506,11.0,300.11179,-1564.1449,0.0,0.0,0.015060206865085801,0.0,0.0,0.0,0.1034041485426949,0.12181413278961889,0.25024271156953276,-0.0019155695790519982,0.010685896661365888,0.023573835049556374
1507,11.0,300.2477,-1627.6469,0.0,0.0,0.015070211285460156,0.0,0.0,0.0,0.11340152250935889,0.13301793298784786,0.24834456989220077,-0.005903806275060314,-0.006796485084710854,0.03131197134775097
1508,11.0,300.20642000000004,-1911.401,0.0,0.0,0.015080215705834288,0.0,0.0,0.0,0.17226374381110782,0.14394718293898087,0.26480725969944174,-0.014124778334757088,-0.004630806674825036,0.034693928630524166
1509,11.0,300.18085,-1796.4414,0.0,0.0,0.01509022012620842,0.0,0.0,0.0,0.14365470829761587,0.13664566218837687,0.26577295797224876,0.016282759894233285,0.016752967722389184,0.025702770781665975
1510,11.0,299.84504,-1477.1148,0.0,0.0,0.015100224546582774,0.0,0.0,0.0,0.10172493981446991,0.10899359073182989,0.23828748509714376,-0.007867080580745403,0.008730341396267612,0.027844915242079177
1511,11.0,299.93017000000003,-1595.5391,0.0,0.0,0.015110228966956685,0.0,0.0,0.0,0.0908044514369516,0.12002735743077789,0.2741722338811927,0.0036019273946825566,-0.0090051499208141,0.024400075658099978
1512,11.0,299.49074,-2021.9464,0.0,0.0,0.015120200478053292,0.0,0.0,0.0,0.15122715185995786,0.15684036489643885,0.3065537109744957,-0.011460276090041188,-0.012562973882368988,0.027676870752744474
1513,11.0,299.72007,-2067.1593,0.0,0.0,0.015130204898427424,0.0,0.0,0.0,0.16961102465180483,0.16024900916034585,0.29850477642012774,0.0067098729727879045,0.01802804367472938,0.025452931678008776
1514,11.0,300.41736000000003,-1733.2798,0.0,0.0,0.015140209318801778,0.0,0.0,0.0,0.15073700225658385,0.11971242916719689,0.25642435791211377,0.0005883199098501544,0.0073297319638632235,0.018315052845054983
1515,11.0,300.46522999999996,-1581.8446,0.0,0.0,0.01515021373917591,0.0,0.0,0.0,0.1103727761054449,0.12075975486805988,0.24970873889933376,0.0040240127331891366,-0.01060295403468009,0.02811273446876087
1516,11.0,300.52979,-1683.7868,0.0,0.0,0.015160218159550043,0.0,0.0,0.0,0.12607118149475688,0.12962038381253588,0.25613757773631074,-0.007435037020256023,0.0020886041224791783,0.03460153744665587
1517,11.0,299.97532,-1894.6299,0.0,0.0,0.015170222579924175,0.0,0.0,0.0,0.12900198714400488,0.14848086918642087,0.2984373243609707,0.012909666523334886,0.004554704904864376,0.033197260960814566
1518,11.0,300.46836,-1751.7835,0.0,0.0,0.015180227000298308,0.0,0.0,0.0,0.13447461172911088,0.12990911956103188,0.2681147106758618,-0.008714106596540361,0.012125570026200589,0.03219937578533097
1519,11.0,300.33284,-1481.0828,0.0,0.0,0.01519023142067244,0.0,0.0,0.0,0.08898368153725561,0.12195144844317088,0.23927706567480775,-0.007467314304841544,-0.01010844917840126,0.029458820001359173
1520,11.0,299.89432999999997,-1594.8056,0.0,0.0,0.015200202931769047,0.0,0.0,0.0,0.13322813172109288,0.1292822014591599,0.2222707367914138,0.006883325583206343,-3.5674394010288567e-06,0.033066939772702864
1521,11.0,299.52013999999997,-2056.3216,0.0,0.0,0.015210207352143179,0.0,0.0,0.0,0.16529930097127082,0.15957206690103684,0.3001990420448387,0.005457083051097165,0.01978368793749798,0.01611668111009259
1522,11.0,299.70485,-2080.3276,0.0,0.0,0.015220211772517311,0.0,0.0,0.0,0.17952572754280982,0.15006611923287286,0.3027758079766457,-0.006091082757918064,0.02050146924208748,0.015617938132620484
1523,11.0,299.31526,-1734.5394,0.0,0.0,0.015230216192891666,0.0,0.0,0.0,0.1103954931726869,0.13545881194874387,0.28140236102975075,-0.019613558179457483,-0.01097918595581129,0.02879090276069087
1524,11.0,300.24884,-1591.6553,0.0,0.0,0.015240220613265798,0.0,0.0,0.0,0.11971871131781689,0.10711262364369291,0.2569921224731478,-0.013321258846455885,-0.01053315528829149,0.027214593633121273
1525,11.0,299.90076,-1800.5402,0.0,0.0,0.01525022503363993,0.0,0.0,0.0,0.14545431140272286,0.1263180497491209,0.2755468900268607,0.004587103982111916,0.0035861234288978266,0.027272641718100177
1526,11.0,299.77763999999996,-1837.4746,0.0,0.0,0.015260229454014063,0.0,0.0,0.0,0.16355381555400483,0.12600350652057787,0.26898906445215376,0.005602840293882284,-0.005500421176424306,0.016057463734498286
1527,11.0,299.61531,-1622.9475,0.0,0.0,0.01527020096511067,0.0,0.0,0.0,0.11920425384454389,0.12082027629653289,0.25331097472734676,0.002221293580049608,-0.008194952506403841,0.029299418535377472
1528,11.0,300.04577,-1512.2966,0.0,0.0,0.015280205385484802,0.0,0.0,0.0,0.08512741580317182,0.1209434875086929,0.25362948989628176,0.01801443572588638,0.0016538440384716985,0.03253368651007487
1529,11.0,299.56203999999997,-1651.6563,0.0,0.0,0.015290209805858934,0.0,0.0,0.0,0.09601009272670841,0.13433427659026087,0.27171790909146976,0.0026163397316876277,0.018891072354653683,0.044165481524043655
1530,11.0,300.03309,-1949.6424,0.0,0.0,0.015300214226233066,0.0,0.0,0.0,0.15384697078851386,0.15154373172120186,0.28725191465205674,0.0034108681452264763,0.012313668761514488,0.024600449918375376
1531,11.0,299.49442,-2046.0974,0.0,0.0,0.015310218646607199,0.0,0.0,0.0,0.16683285499762082,0.15795748326418985,0.2971721701536097,-0.026696715427510676,-0.0025706507648034773,0.028574517122335275
1532,11.0,300.39649,-1683.6272,0.0,0.0,0.015320223066981553,0.0,0.0,0.0,0.15007980824172384,0.12192703924826188,0.23977380140383178,-0.005456616652076135,0.0015735487303221688,0.015846803972457784
1533,11.0,300.56649,-1526.1663,0.0,0.0,0.015330227487355685,0.0,0.0,0.0,0.1062338622294659,0.11717836159460389,0.24050421287091778,-0.006740985627708484,0.014517604252775988,0.03229378131039807
1534,11.0,301.01344,-1880.0012,0.0,0.0,0.015340231907729596,0.0,0.0,0.0,0.15689777564710483,0.12481268434055288,0.2897629713148787,0.008898355792074342,0.004019251470969236,0.01106859311813509
1535,11.0,300.63749,-1939.3452,0.0,0.0,0.015350203418826425,0.0,0.0,0.0,0.13396462268877887,0.14714975239754988,0.30839813013152567,-0.007003522274993833,-0.011252106896746489,0.03836523062510346
1536,11.0,300.69975,-1665.5235,0.0,0.0,0.015360207839200557,0.0,0.0,0.0,0.1152838878826339,0.12474543493141588,0.2662482127991528,0.0014458517586444584,0.0002701869793828788,0.02955143916649997
1537,11.0,300.03657000000004,-1539.1536,0.0,0.0,0.01537021225957469,0.0,0.0,0.0,0.1149563243903059,0.1134093954626359,0.23949855201416678,0.014386469424833985,0.016577563997578183,0.04354729054528296
1538,11.0,300.14389,-1723.2908,0.0,0.0,0.015380216679948822,0.0,0.0,0.0,0.15137398193194884,0.12333508198472488,0.24912830871204975,0.012905236593897687,0.012916099648219787,0.016941543698500185
1539,11.0,299.35655,-1977.6791,0.0,0.0,0.015390221100322954,0.0,0.0,0.0,0.16091968953403685,0.15076881830972386,0.2894765559091117,0.008153675737080143,0.003107343302245907,0.024521534960837078
1540,11.0,299.59215,-1999.5863,0.0,0.0,0.015400225520697086,0.0,0.0,0.0,0.14423603014498787,0.15484483975199584,0.3087434457656057,-0.008925792578282141,-0.012102479069671688,0.017547518934055283
1541,11.0,300.08904,-1774.918,0.0,0.0,0.01541022994107144,0.0,0.0,0.0,0.1126478569524779,0.14753561830063186,0.2793472770444297,0.0005195649427870675,0.01012574343243307,0.03364544478479687
1542,11.0,299.94827000000004,-1630.559,0.0,0.0,0.01542023436144535,0.0,0.0,0.0,0.12054834023469488,0.11469186611420588,0.26040902472536975,-0.016794173564205882,-0.012520578484934888,0.025741734301011374
1543,11.0,300.132,-1812.5347,0.0,0.0,0.01543020587254218,0.0,0.0,0.0,0.15311492798876686,0.13046797765368687,0.2673823639010847,0.0028900408751998275,-0.010550531514256391,0.023801121232487777
1544,11.0,300.43852999999996,-2004.9363,0.0,0.0,0.01544021029291609,0.0,0.0,0.0,0.18636156867995482,0.14060151216878886,0.28248750122434574,0.005171476928185034,-0.003103886396879737,0.024720540320227375
1545,11.0,300.09052,-1706.3351,0.0,0.0,0.015450214713290444,0.0,0.0,0.0,0.13143149743877888,0.11963471288452689,0.2676170630217477,0.030764127283682968,0.016597873582582585,0.029525923502481767
1546,11.0,300.52046,-1488.6241,0.0,0.0,0.015460219133664577,0.0,0.0,0.0,0.09863391905940991,0.11439587549499389,0.23947476090181877,0.013568054146812688,0.001207825225978069,0.04277169521648766
1547,11.0,300.91162,-1759.1635,0.0,0.0,0.015470223554038709,0.0,0.0,0.0,0.10978126096206689,0.13259700863130586,0.2923634979615307,-0.006451750549563203,-0.0008740620919857122,0.04315522051183866
1548,11.0,300.48596000000003,-1966.8569,0.0,0.0,0.015480227974412841,0.0,0.0,0.0,0.15507884986259085,0.15727013492635383,0.28552641052676275,0.0009166674449730332,-0.008919031768314902,0.04194654081205126
1549,11.0,300.20447,-1921.5778,0.0,0.0,0.015490232394786974,0.0,0.0,0.0,0.14703460665618587,0.15403677279724584,0.28304028994890174,0.002929481635342327,0.011551293306773888,0.023282528685556678
1550,11.0,300.32279,-1665.2267,0.0,0.0,0.015500203905883803,0.0,0.0,0.0,0.14788565568017786,0.11084849702739488,0.24745317324922678,0.008648476665038192,0.008790314048486451,0.01901559876544348
1551,11.0,299.95358,-1612.5308,0.0,0.0,0.015510208326257935,0.0,0.0,0.0,0.1078033258393599,0.1250099742675239,0.25735580833154076,-4.734606446869276e-05,-0.009347998392225611,0.010959578553126188
1552,11.0,299.99587,-1877.9456,0.0,0.0,0.015520212746631845,0.0,0.0,0.0,0.1367476255459399,0.15143321653279487,0.28266772801963275,0.008065215659624812,-0.012972391770775386,0.02320922510707218
1553,11.0,300.19839,-2141.1459,0.0,0.0,0.015530217167005977,0.0,0.0,0.0,0.16164862165597685,0.15789412473543685,0.3313121326629617,0.015406003701954185,0.005259182944915944,0.024704505637394875
1554,11.0,299.66828,-1901.2283,0.0,0.0,0.015540221587380332,0.0,0.0,0.0,0.16044475894716484,0.1404285402442179,0.27705262020546473,0.00019357374103674084,-0.004669055650199916,0.02909856095480437
1555,11.0,299.50696,-1529.7910000000002,0.0,0.0,0.015550226007754464,0.0,0.0,0.0,0.1163354793664179,0.10028597977770559,0.24839680293485575,-0.02041018858032878,-0.0043019346713178966,0.03132981164226167
1556,11.0,300.15013999999996,-1664.9741,0.0,0.0,0.015560230428128596,0.0,0.0,0.0,0.14402061317372788,0.11799787827548387,0.24409205041500978,-0.01195758329212159,0.008144572191556692,0.03001060155531577
1557,11.0,300.2594,-2052.9006,0.0,0.0,0.01557023484850295,0.0,0.0,0.0,0.15011833201052585,0.15952596402148683,0.3143862254400047,0.0018600596855735982,0.014295258677332185,0.01951190284992488
1558,11.0,300.55214,-1973.5204,0.0,0.0,0.015580206359599558,0.0,0.0,0.0,0.14510662476340885,0.14137041700717387,0.31342389115752967,0.004200241547556566,-0.008398676672834853,0.028498201151303474
1559,11.0,300.77452999999997,-1698.3986,0.0,0.0,0.015590210779973468,0.0,0.0,0.0,0.08626898085608552,0.15349089443837186,0.2765108860394997,-0.004757490801702785,-0.015823305689388684,0.027811837692564675
1560,11.0,300.91256,-1631.8774,0.0,0.0,0.0156002152003476,0.0,0.0,0.0,0.12501759390827588,0.12627622278499287,0.24475616492805277,0.009576089197061422,-0.0019244181908502883,0.026050181816952775
1561,11.0,300.10319,-1887.4505,0.0,0.0,0.015610219620721733,0.0,0.0,0.0,0.15259516108496987,0.13490590163417587,0.2862367495093677,0.016994560996732584,0.017205562224056784,0.008431631315112223
1562,11.0,300.21954,-2034.7172,0.0,0.0,0.015620224041096087,0.0,0.0,0.0,0.18511076209400984,0.15383381880221586,0.27955862075028776,0.010042428537660531,0.007507343459317113,0.02099795672483698
1563,11.0,299.22753,-1880.3696,0.0,0.0,0.01563022846147022,0.0,0.0,0.0,0.13935302592557286,0.13866031749470786,0.29357207228330773,-0.012026977751720288,-0.003975822761083156,0.012725214475130888
1564,11.0,299.30379,-1654.5698,0.0,0.0,0.015640232881844573,0.0,0.0,0.0,0.1058583517424059,0.14082092134544286,0.25626861123924277,-0.018095411634128086,0.003133276830605347,0.046703853383061454
1565,11.0,299.75909,-1804.2576,0.0,0.0,0.015650237302218484,0.0,0.0,0.0,0.12682992343463886,0.14287095934526586,0.2787483753078227,-0.016052208006229588,0.017538714803936383,0.041701573414874855
1566,11.0,300.23885,-2146.2999,0.0,0.0,0.01566020881331509,0.0,0.0,0.0,0.18436027814244282,0.16573027676880484,0.3023310215802487,-0.01000659048957359,-0.0027384255269615573,0.04180335742717016
1567,11.0,300.00741,-1953.5065,0.0,0.0,0.015670213233689223,0.0,0.0,0.0,0.16366897142786985,0.15783045209915283,0.27231777341567176,-0.015781256823488788,0.0004619459894905195,0.028809559734782178
1568,11.0,300.02181,-1472.9342,0.0,0.0,0.015680217654063355,0.0,0.0,0.0,0.1016496857295429,0.11064298964211289,0.23544255239387077,0.0026210403002265375,-0.0006356774260714773,0.03131589059913777
1569,11.0,299.32903,-1553.8164,0.0,0.0,0.01569022207443771,0.0,0.0,0.0,0.09354882109429981,0.12044027711152988,0.2583322977179127,0.012319062291796789,0.011666816990425188,0.02992764980937907
1570,11.0,300.1867,-1933.9574,0.0,0.0,0.015700226494811842,0.0,0.0,0.0,0.14093917776461384,0.14443270198939787,0.30250288906221073,0.003507851682523007,-0.01010546434625668,0.02343367520297368
1571,11.0,299.82991,-1997.2383,0.0,0.0,0.015710230915185974,0.0,0.0,0.0,0.15423578524938686,0.14324858752503486,0.30962620951772774,0.002909875043257307,-0.016888967164061283,0.026449194640082274
1572,11.0,300.07327999999995,-1833.8514,0.0,0.0,0.015720235335560107,0.0,0.0,0.0,0.14286798038997187,0.15091718852186686,0.2636598552862017,-0.01117878609301029,-0.001083940303826579,0.03361201158449727
1573,11.0,300.91747000000004,-1695.8874,0.0,0.0,0.01573023975593424,0.0,0.0,0.0,0.14665692781391187,0.11705337719476888,0.25179710815043976,-0.008764784502941882,0.024641020452379377,0.02833697684839187
1574,11.0,300.90064,-1887.2085,0.0,0.0,0.015740211267030846,0.0,0.0,0.0,0.16694282303097385,0.13700216410356086,0.26971927326921974,-0.01092535197799829,0.002780803293843917,0.023797211100351875
1575,11.0,300.37145,-2133.1887,0.0,0.0,0.015750215687404978,0.0,0.0,0.0,0.15796535621746685,0.17774447439701382,0.3127262684636797,-0.006043004648623124,-0.0040922779255513865,0.02101485368350458
1576,11.0,300.33701,-1923.1567,0.0,0.0,0.015760220107779332,0.0,0.0,0.0,0.14616544072040585,0.13873095115917886,0.29969521356511475,0.0015422029265535785,0.008957188233955651,0.028367277079382268
1577,11.0,299.44676,-1595.1919,0.0,0.0,0.015770224528153465,0.0,0.0,0.0,0.1012977941023139,0.12236480382146589,0.26123589760197574,0.01005897318926836,0.01083922875924859,0.022788018053752277
1578,11.0,299.51232000000005,-1467.2913,0.0,0.0,0.015780228948527597,0.0,0.0,0.0,0.1008840587552314,0.10080817442874221,0.24432767159326377,0.0008063140016794962,-0.008474808536323482,0.03411266453840787
1579,11.0,300.15247999999997,-1837.5539999999999,0.0,0.0,0.01579023336890173,0.0,0.0,0.0,0.15201227883244386,0.12192891376094689,0.28462934981572974,0.0002759640450930308,-0.026881189767216877,0.010420608533433991
1580,11.0,300.09552,-2105.2791,0.0,0.0,0.01580023778927586,0.0,0.0,0.0,0.17753113458845884,0.15669619967221085,0.3057249331877017,0.012336128463231089,-0.007078555876699072,0.028062364793039772
1581,11.0,299.75152,-1815.3166,0.0,0.0,0.01581020930037247,0.0,0.0,0.0,0.12481552144083288,0.13902428706312886,0.2879711094405357,0.006591156842046534,0.013687279233079287,0.014292312146041385
1582,11.0,300.21067,-1663.7735,0.0,0.0,0.0158202137207466,0.0,0.0,0.0,0.11983237771403488,0.12984508215471188,0.2560681295744568,-0.01013417286266499,0.002139623899464438,0.03141541607696017
1583,11.0,299.51625,-1940.5099,0.0,0.0,0.015830218141120733,0.0,0.0,0.0,0.14806907421327986,0.14857303441551686,0.2932244565715007,-0.01844180941931488,-0.006124660852981963,0.026617471163689874
1584,11.0,299.57838,-2011.941,0.0,0.0,0.015840222561494866,0.0,0.0,0.0,0.17457999300970384,0.15126611132630285,0.2857337214972227,-0.0007405847919325284,0.007567687569022613,0.03995333601033726
1585,11.0,299.29877999999997,-1846.2037,0.0,0.0,0.01585022698186922,0.0,0.0,0.0,0.14490084380059987,0.14166573888131986,0.2746332322791898,0.0026907719694585176,0.014365152669230186,0.029809492688717867
1586,11.0,299.72017999999997,-1625.6207,0.0,0.0,0.015860231402243352,0.0,0.0,0.0,0.12930156466857087,0.1052126277186779,0.25963390866387176,-0.005702098577653314,-0.006255938447863055,0.026917082125509178
1587,11.0,299.92023,-1567.401,0.0,0.0,0.015870235822617484,0.0,0.0,0.0,0.08837251846118852,0.11896888597881489,0.26910936763652676,-0.009240974661013191,-0.013572310810482787,0.027097752724339976
1588,11.0,299.87605,-1763.9984,0.0,0.0,0.015880240242991617,0.0,0.0,0.0,0.13748412664612686,0.13141996665264088,0.26730735299618175,0.0015671284737135385,0.007274645710251633,0.034759787860523965
1589,11.0,300.08231,-2031.2387,0.0,0.0,0.015890211754088224,0.0,0.0,0.0,0.14543039870036287,0.14805971178235586,0.3239557342869417,-0.0034813530645827965,0.013789748202442187,0.024905987380029578
1590,11.0,300.07054,-1940.6799,0.0,0.0,0.015900216174462356,0.0,0.0,0.0,0.16774486114762882,0.15573254816460586,0.2664408113781607,-0.005843642827847645,-0.0012710490937927789,0.03193003567024917
1591,11.0,299.70162999999997,-1830.7013,0.0,0.0,0.01591022059483649,0.0,0.0,0.0,0.14279736699050288,0.13274175140809086,0.2809483540574437,-0.003352343832700577,-0.031368278669058065,0.015566592697053086
1592,11.0,299.60865,-1960.5671,0.0,0.0,0.01592022501521062,0.0,0.0,0.0,0.15940365460191586,0.15392402845861886,0.2826357701114787,0.02190412047476838,-0.006043923869113844,0.021780329683551182
1593,11.0,299.86194,-2152.5229999999997,0.0,0.0,0.015930229435584753,0.0,0.0,0.0,0.16051030609613384,0.16290191070466684,0.3309010266998887,0.02943031828929627,0.005382031109565115,0.01082143102124209
1594,11.0,299.27961,-2013.3612,0.0,0.0,0.015940233855959107,0.0,0.0,0.0,0.16282311024438983,0.14585630824739687,0.3033321025465477,0.009048665668883772,-0.0027852086013036874,0.023093193785120775
1595,11.0,300.17899,-1688.9920000000002,0.0,0.0,0.01595023827633324,0.0,0.0,0.0,0.1177546779864819,0.13316047701191588,0.26249623887136175,-0.0017713738559959882,-0.007820701286568123,0.015927584323430184
1596,11.0,300.11158,-1653.0996,0.0,0.0,0.01596024269670715,0.0,0.0,0.0,0.13297847702895388,0.12591568813441087,0.2436068353396228,0.004002399297956056,0.013472480344380287,0.03271336412380767
1597,11.0,300.17427999999995,-1859.3091,0.0,0.0,0.01597021420780398,0.0,0.0,0.0,0.14513034494824986,0.14435358742158985,0.27569959694943175,0.006912467162707394,0.017232624107727586,0.02265317270394408
1598,11.0,300.71303,-2006.5209,0.0,0.0,0.01598021862817811,0.0,0.0,0.0,0.15370179231418585,0.16450168062505185,0.29172878796638974,-0.015282695217784586,-0.004166135853165596,0.037634822197767766
1599,11.0,300.61535,-1886.2928,0.0,0.0,0.015990223048552243,0.0,0.0,0.0,0.13463985255541885,0.13499410505538087,0.3037519427254827,-0.003605099982070666,-0.017045984452557686,0.035515924734398865
1600,11.0,300.04402000000005,-1633.019,0.0,0.0,0.016000227468926376,0.0,0.0,0.0,0.11153481185012888,0.13391873259174986,0.25094345507369076,0.006656425347238034,0.01111491384645659,0.04337441791922176
1601,11.0,299.95054,-1716.1668,0.0,0.0,0.016010231889300508,0.0,0.0,0.0,0.10690250597045589,0.14118933908180287,0.27358000946274474,0.007415108011989182,0.017556026181894883,0.041965457178168165
1602,11.0,299.38775,-2095.5209,0.0,0.0,0.01602023630967464,0.0,0.0,0.0,0.18182243114697683,0.15908236312770685,0.29608124430094374,-0.0037651045345118866,0.000986504411155405,0.016483957926839984
1603,11.0,299.50765,-2000.7263,0.0,0.0,0.016030240730048773,0.0,0.0,0.0,0.16435758632833086,0.15645442806584986,0.28735883280260877,-0.008896659307431913,-0.020624262995206283,0.021945009169303777
1604,11.0,299.70344,-1640.3396,0.0,0.0,0.0160402122411456,0.0,0.0,0.0,0.10839937021068491,0.12550114725349887,0.26472175152350275,0.012822945487026187,0.0031702567102299766,0.0034368995535455768
1605,11.0,300.10216,-1630.4224,0.0,0.0,0.016050216661519734,0.0,0.0,0.0,0.10973871459036791,0.12441108266341787,0.26145790069888575,0.020866432808856583,0.005194064299414235,0.03175146756537587
1606,11.0,300.42942,-1965.0823,0.0,0.0,0.016060221081893644,0.0,0.0,0.0,0.15065971153895585,0.15607825896622485,0.29059797045728675,-0.003018120348790287,-0.016373973681485382,0.024273647376872477
1607,11.0,299.50768,-2137.9246,0.0,0.0,0.016070225502268,0.0,0.0,0.0,0.18135006408285784,0.16494967902426586,0.3035759310506117,-0.013833140637974686,-0.01075842611677399,0.042899789280879556
1608,11.0,299.68692999999996,-1923.1338,0.0,0.0,0.01608022992264213,0.0,0.0,0.0,0.16658234917539785,0.14352792031260286,0.27447438506101274,-0.007243686461396193,0.02982755995125097,0.031259856855357676
1609,11.0,300.23967000000005,-1630.9526,0.0,0.0,0.016090234343016263,0.0,0.0,0.0,0.1276348594465799,0.11927981190450089,0.24885420429499777,-0.005246419742681315,0.03267435804795807,0.037404535781290264
1610,11.0,299.69121,-1806.3803,0.0,0.0,0.016100238763390395,0.0,0.0,0.0,0.1265326865178039,0.13508955321480087,0.2874722560188027,-0.024183599840485476,-0.004116887845305196,0.01215817134816809
1611,11.0,300.12691,-2069.1768,0.0,0.0,0.016110243183764528,0.0,0.0,0.0,0.16434638991472586,0.15212743470630888,0.31250426536676973,0.0028244834924048175,-0.02463996971202568,0.02183499756619648
1612,11.0,299.93057000000005,-2062.0062,0.0,0.0,0.016120214694861357,0.0,0.0,0.0,0.15849848789008283,0.14847729241356786,0.3198226263340357,0.00892013124599841,-0.002143849861656508,0.01723473166793558
1613,11.0,299.75962999999996,-1690.2237,0.0,0.0,0.01613021911523549,0.0,0.0,0.0,0.1131117532457609,0.13944876792752187,0.26122526860842676,0.024310142618974274,0.007007015657363603,0.040557749827488256
1614,11.0,300.21756,-1637.0959,0.0,0.0,0.0161402235356094,0.0,0.0,0.0,0.12440320971014089,0.12448702575841289,0.24874604997932379,-0.004809612386846785,-0.01092931885213979,0.025666114432798273
1615,11.0,299.37109,-1990.9339,0.0,0.0,0.01615022795598353,0.0,0.0,0.0,0.15280387034056786,0.15415573849148684,0.2982345831484617,-0.0037684671062937465,-0.015895504825264185,0.03151615238865207
1616,11.0,299.40261,-2032.6383,0.0,0.0,0.016160232376357886,0.0,0.0,0.0,0.15699288943399187,0.15883839276862885,0.30203999588652675,0.0011790123448094589,0.02379789200441908,0.01981494467658278
1617,11.0,299.70173,-1740.7566,0.0,0.0,0.016170236796732018,0.0,0.0,0.0,0.1045904414947729,0.13574555159454288,0.28881055675088274,0.009616712825370662,0.009673734487998261,0.03339205322628907
1618,11.0,300.21729,-1687.3429,0.0,0.0,0.01618024121710615,0.0,0.0,0.0,0.11833598970135288,0.13270301485676786,0.26187109395716474,-0.007210402816811353,-0.010765980909519591,0.037169360433080265
1619,11.0,300.15109,-1880.3084,0.0,0.0,0.016190245637480283,0.0,0.0,0.0,0.14079385743527187,0.15180874728485685,0.27896418744662177,-0.021521784735034778,-0.018413641066534883,0.04718105567665766
1620,11.0,300.67255,-2100.4918,0.0,0.0,0.016200217148577112,0.0,0.0,0.0,0.18854163706511082,0.14406831698843586,0.3058871038662067,-0.004912295455955815,0.015149934123432086,0.02509190864087858
1621,11.0,300.17046,-2082.6489,0.0,0.0,0.016210221568951022,0.0,0.0,0.0,0.16161612672526984,0.16353606341225285,0.3079210514544417,-0.0038205373196576763,0.014600038227911586,0.029817199468978473
1622,11.0,300.52988999999997,-1644.5737,0.0,0.0,0.016220225989325154,0.0,0.0,0.0,0.12171451003978687,0.1112837386078499,0.26691109114707373,-0.01978837219271028,-0.003130783120784237,0.005750509843581135
1623,11.0,300.25507000000005,-1603.1251,0.0,0.0,0.016230230409699287,0.0,0.0,0.0,0.1019441260761019,0.1136369005075889,0.2717289839150627,-0.007371928764277723,-0.0060656660884346346,0.01154991933963829
1624,11.0,299.35303,-2031.3962,0.0,0.0,0.01624023483007364,0.0,0.0,0.0,0.17089977745399484,0.14510444627569388,0.30148949710719675,0.011920475033709289,0.01070449790670169,0.019169507402633082
1625,11.0,299.80568999999997,-2179.2395,0.0,0.0,0.016250239250447995,0.0,0.0,0.0,0.18123132130363884,0.16950487657132884,0.3116981843822157,0.016936280877480784,0.01052657220239179,0.03900630383087246
1626,11.0,299.85055,-1925.558,0.0,0.0,0.016260243670822128,0.0,0.0,0.0,0.15767461423377285,0.14787139925127085,0.27977553733169575,-0.0032245516155134666,-0.016744386507292285,0.03680623287549236
1627,11.0,299.80527,-1711.2506,0.0,0.0,0.016270215181918513,0.0,0.0,0.0,0.12537643643119087,0.13803798941578888,0.2567630266255378,-0.009277564034049283,-0.009644159237454411,0.04351511276185725
1628,11.0,300.28702000000004,-1761.8082,0.0,0.0,0.016280219602292645,0.0,0.0,0.0,0.14043133681449385,0.11886507850606988,0.27624929526118275,-0.008132833081198132,0.014935861735054786,0.021510986528719078
1629,11.0,300.83345,-1921.0559,0.0,0.0,0.016290224022666777,0.0,0.0,0.0,0.13782151866442488,0.13934527456230786,0.30678622147494267,0.015764928298127284,0.010358575335811792,0.03415396359923377
1630,11.0,300.55279,-1861.2507,0.0,0.0,0.01630022844304091,0.0,0.0,0.0,0.12530523534666388,0.14131613719931688,0.2991523850890417,0.008660961831445383,-0.0006780426489175994,0.02044869107087868
1631,11.0,300.08414,-1710.0738,0.0,0.0,0.016310232863415264,0.0,0.0,0.0,0.1189715812240809,0.13254084417826287,0.2683072991223687,-0.004326917973733556,-0.0025745310060614275,0.036446689183508164
1632,11.0,300.05613,-1737.1808,0.0,0.0,0.016320237283789396,0.0,0.0,0.0,0.12512610286148487,0.1282214400619709,0.2747120530044687,-0.007272948009709083,0.00963818977581527,0.02374340042729118
1633,11.0,299.82517,-1939.1996,0.0,0.0,0.01633024170416353,0.0,0.0,0.0,0.14534115163155487,0.15523937907593385,0.2888877360109997,-0.008142439908046252,0.0016166934262052185,0.03401967756348076
1634,11.0,299.88659,-2097.7722,0.0,0.0,0.01634024612453766,0.0,0.0,0.0,0.16103842218075484,0.15157879017466186,0.32505314494024773,-0.005105737261697035,-0.0015776201718739884,0.0038123480296994566
1635,11.0,299.60032,-1955.328,0.0,0.0,0.016350217635634268,0.0,0.0,0.0,0.14113857525179288,0.15403564808963485,0.2991966539859107,0.009981463913593792,0.003078706625269687,0.03300820470415617
1636,11.0,300.31607,-1801.3643,0.0,0.0,0.0163602220560084,0.0,0.0,0.0,0.12034669333229388,0.14409440817851088,0.28312867575512474,0.007827810553244751,0.010693295413596092,0.016929812288842383
1637,11.0,299.8474,-1869.9479999999999,0.0,0.0,0.016370226476382532,0.0,0.0,0.0,0.15161128510536886,0.14593055921472486,0.27087565507834577,0.020744504371323177,-0.006069297779443055,0.04828211909657416
1638,11.0,300.7892,-1945.0789,0.0,0.0,0.016380230896756887,0.0,0.0,0.0,0.15839221821959484,0.14203176534744386,0.2908314536778297,0.007662137778419122,-0.023480717365366378,0.02212845506015848
1639,11.0,300.67593999999997,-1886.0784,0.0,0.0,0.01639023531713102,0.0,0.0,0.0,0.14629729495591884,0.14072585822106087,0.2862975749128707,0.01010846518775284,-0.0021481846469093182,0.02945672966640287
1640,11.0,300.63992,-1738.9218,0.0,0.0,0.01640023973750515,0.0,0.0,0.0,0.12723536532965288,0.12940272755855486,0.2719507134344457,-0.004187668329715686,0.006782204945751514,0.008258644495764753
1641,11.0,300.02592000000004,-1676.8605,0.0,0.0,0.016410244157879283,0.0,0.0,0.0,0.11685035227223188,0.1157918808202689,0.27708148770081376,-0.007975556704651164,0.00036637513561591065,0.017768263574341085
1642,11.0,299.8913,-1968.7137,0.0,0.0,0.016420248578253416,0.0,0.0,0.0,0.14874724250520985,0.14393292651007386,0.3057596268711257,-0.009475744202558142,-0.00803749688591418,0.016331270256020883
1643,11.0,299.93859,-2169.0973,0.0,0.0,0.016430220089350023,0.0,0.0,0.0,0.17805624132028283,0.17043626619574984,0.3108589093243857,-0.0006018582585437854,-0.003152857382162797,0.03181587379473227
1644,11.0,299.91727000000003,-2013.6652,0.0,0.0,0.016440224509724155,0.0,0.0,0.0,0.15992507310337586,0.15312485783974686,0.29905399850433173,0.005182873256034766,-0.0006132469363552605,0.03434252640309347
1645,11.0,299.86077,-1803.648,0.0,0.0,0.016450228930098287,0.0,0.0,0.0,0.13332805844595486,0.13839528166605086,0.2765406147974337,-0.013416123373818289,-0.008465778755407312,0.03754171565932886
1646,11.0,299.84458,-1826.1573,0.0,0.0,0.01646023335047242,0.0,0.0,0.0,0.12523796567252488,0.13598947129111585,0.29387878308857773,-0.0019021187852995083,-0.007259809398312403,0.030174046902446572
1647,11.0,299.57992,-2001.8829999999998,0.0,0.0,0.016470237770846774,0.0,0.0,0.0,0.14689258952216988,0.15751853318836886,0.3041113425359527,0.017503953232755682,0.008917284317192442,0.028206331420248174
1648,11.0,300.3215,-1996.9562,0.0,0.0,0.016480242191220906,0.0,0.0,0.0,0.15059493446006286,0.16444678273463384,0.2919830934764877,0.013702996768630486,0.034428267626555466,0.03571877740441887
1649,11.0,300.43158999999997,-1727.4758,0.0,0.0,0.01649024661159504,0.0,0.0,0.0,0.12642734903740788,0.14108800393930188,0.25759416528506474,-0.005340347115026225,0.010817953546898889,0.04973102519632005
1650,11.0,300.31972,-1700.5714,0.0,0.0,0.01650025103196895,0.0,0.0,0.0,0.1108081798059159,0.13456916822844286,0.27155389429778276,-0.014189754010669686,-0.01145383080615509,0.03074517545381257
1651,11.0,300.09809,-1964.1263,0.0,0.0,0.016510222543065778,0.0,0.0,0.0,0.14520285312540587,0.16143639642253185,0.2904060912858497,-0.008937751462587393,0.0013580114862752986,0.027867628256320776
1652,11.0,300.84972999999997,-2170.8993,0.0,0.0,0.01652022696343991,0.0,0.0,0.0,0.15648604146896986,0.17418251526047585,0.32923064338003466,0.0016282885537245687,-0.009209183027200602,0.016990518128833586
1653,11.0,299.70212000000004,-2117.5826,0.0,0.0,0.016530231383814042,0.0,0.0,0.0,0.16037107539989284,0.15978464677201684,0.32353651219056767,0.0013616760065869584,-0.011555929939231489,0.023123451459606977
1654,11.0,300.23188,-1855.9139,0.0,0.0,0.016540235804188175,0.0,0.0,0.0,0.14811239065505485,0.13704985778576786,0.27898925525409574,-0.0055188996158479844,-0.016648250351054383,0.025127538567394976
1655,11.0,299.49478,-1870.122,0.0,0.0,0.016550240224562307,0.0,0.0,0.0,0.14624536588829387,0.13305397429390486,0.2891710610039617,0.007142441700804114,0.0069812761663983125,0.03632030649853517
1656,11.0,299.52018,-2041.0948,0.0,0.0,0.01656024464493666,0.0,0.0,0.0,0.16829021261645083,0.15058948317452486,0.30156213700686574,0.014838653560211086,0.02068956291115088,0.032913535734063075
1657,11.0,299.88518,-1944.4877,0.0,0.0,0.016570249065310794,0.0,0.0,0.0,0.16562336875075384,0.1323748535468809,0.29307747451199473,-0.01004903107796215,0.007435154759917643,0.022055674318725578
1658,11.0,300.11585,-1718.1677,0.0,0.0,0.0165802205764074,0.0,0.0,0.0,0.11928443232495688,0.12031207057637688,0.2826835853836977,-0.003981622807305576,-0.016340828244214185,0.02021080122565078
1659,11.0,299.98437,-1719.4619,0.0,0.0,0.016590224996781533,0.0,0.0,0.0,0.1313672269849359,0.13086876873074188,0.26043748692067875,-0.00953271672255589,-0.0017134797850322883,0.023394343873841976
1660,11.0,300.18202,-1928.1992,0.0,0.0,0.016600229417155665,0.0,0.0,0.0,0.15116652910647485,0.13720477359355687,0.2977531170984447,0.02093601167997348,-0.003819153523996106,0.022053785620539182
1661,11.0,299.84628,-2127.848,0.0,0.0,0.016610233837529798,0.0,0.0,0.0,0.17317717864375684,0.17189013823423585,0.30174533262494574,-0.0003343894745416717,-0.010567939150974391,0.03527434057930636
1662,11.0,300.27662000000004,-1967.2193,0.0,0.0,0.01662023825790393,0.0,0.0,0.0,0.14120035311038986,0.15507494884970585,0.3017102437739827,0.0014905052852514187,-0.015859376379698586,0.04134188786787666
1663,11.0,299.99051000000003,-1822.9301,0.0,0.0,0.016630242678278062,0.0,0.0,0.0,0.14224685807867185,0.13531800058234686,0.27656037317438376,-0.004681824830610136,0.007191273668173453,0.023409424075080273
1664,11.0,299.4749,-1844.8795,0.0,0.0,0.016640247098652194,0.0,0.0,0.0,0.12490153624182188,0.14024840464143987,0.2956473706081237,0.0026547452542029573,0.011984086874987289,0.03843475174096467
1665,11.0,299.16216000000003,-1925.1972,0.0,0.0,0.016650251519026327,0.0,0.0,0.0,0.14685107666557284,0.14354157892395086,0.2948192109038907,-0.006686171026448703,0.010248484699196689,0.028180304064929475
1666,11.0,299.79315,-1890.4566,0.0,0.0,0.016660223030123156,0.0,0.0,0.0,0.14276419318222885,0.13826488651068186,0.2936225118732857,-0.007279894852394683,-0.01103323372939539,0.036307551706276364
1667,11.0,299.05616000000003,-1847.6770000000001,0.0,0.0,0.016670227450497288,0.0,0.0,0.0,0.13297208342082287,0.14324244722942886,0.2854331408550577,-0.004176040676868126,0.01044734313732249,0.03767096584208486
1668,11.0,299.50641,-1786.1121,0.0,0.0,0.0166802318708712,0.0,0.0,0.0,0.12734246586522288,0.13732020304494885,0.2782708102706907,-0.009131010579335581,0.006370021492522175,0.03883506051097207
1669,11.0,299.73229,-1946.3043,0.0,0.0,0.016690236291245553,0.0,0.0,0.0,0.13796831833891288,0.15663835322400185,0.2970212364187137,-0.0037197932059400063,-0.00997022970576006,0.020640158862775083
1670,11.0,299.81471,-2192.0845,0.0,0.0,0.016700240711619685,0.0,0.0,0.0,0.16462438521216186,0.16984158971205984,0.33187296659331167,0.004984257997932965,-0.021520123004870776,0.018183935242364682
1671,11.0,299.71965,-2035.8619,0.0,0.0,0.016710245131993817,0.0,0.0,0.0,0.16092424915948683,0.14308525160891486,0.3148416813599547,0.015515241181985086,0.003687771868329746,0.005831829142281724
1672,11.0,299.86772,-1838.1115,0.0,0.0,0.01672024955236795,0.0,0.0,0.0,0.13961635949406187,0.14345726638312986,0.2756663724786527,0.014878777250920985,0.007473944101570852,0.025161249398221976
1673,11.0,299.64699,-1895.9499,0.0,0.0,0.016730253972742082,0.0,0.0,0.0,0.14785825739747385,0.14222699837671188,0.28623616182430967,0.0024286257274366975,-0.0013103727222237187,0.029329087511555572
1674,11.0,299.98112000000003,-1994.6282,0.0,0.0,0.01674022548383891,0.0,0.0,0.0,0.16319477038106986,0.14238688924249185,0.3007355174427847,-0.024517121243401475,-0.0031325516475087774,0.03704068577638107
1675,11.0,300.16669,-2026.8558,0.0,0.0,0.01675022990421282,0.0,0.0,0.0,0.16445236574268485,0.14045652621197985,0.3112046505235077,-0.01901476891361158,0.002678495228596898,0.03172114402963317
1676,11.0,300.3246,-1873.5076,0.0,0.0,0.016760234324586953,0.0,0.0,0.0,0.14269447144284786,0.13184304923189585,0.29496200824048374,-0.023875965964374378,0.008309038185513222,0.03754876484027457
1677,11.0,300.19946,-1723.1728,0.0,0.0,0.016770238744961086,0.0,0.0,0.0,0.13173450988118388,0.1306019293169069,0.2614650542445917,-0.014609055140551486,0.0044586612583606055,0.02342185057430668
1678,11.0,300.02885,-1853.6007,0.0,0.0,0.01678024316533544,0.0,0.0,0.0,0.1318006649802129,0.14378234741271287,0.28786531599759474,-0.001107329257209889,-0.006218730992265964,0.042909258103064056
1679,11.0,299.75807000000003,-2068.4882,0.0,0.0,0.016790247585709572,0.0,0.0,0.0,0.15761075921247086,0.16075735673551586,0.31040063656915773,0.014431787035556488,0.006286275054532045,0.030075649171985474
1680,11.0,299.59087999999997,-2069.0776,0.0,0.0,0.016800252006083705,0.0,0.0,0.0,0.16367320681328784,0.17318603444963082,0.2920886741369077,0.017689742771091685,0.01005800533277284,0.04371909621898886
1681,11.0,299.81212999999997,-1857.079,0.0,0.0,0.01681022351718031,0.0,0.0,0.0,0.12203887166179889,0.14808927842027386,0.2943774743902947,0.0029032460571280774,0.01124145257194499,0.02643971568539677
1682,11.0,300.06584,-1828.4356,0.0,0.0,0.016820227937554666,0.0,0.0,0.0,0.12951646488227989,0.14438403558709487,0.2818982658936927,-0.006108212054833593,-0.006941393021262154,0.030259330136863372
1683,11.0,299.66477000000003,-2063.5168,0.0,0.0,0.016830232357928576,0.0,0.0,0.0,0.15312690460494885,0.15957709262153283,0.3145535636940197,-0.009034439232179732,0.001028920316771529,0.022052773383689276
1684,11.0,300.36455,-2057.4695,0.0,0.0,0.01684023677830271,0.0,0.0,0.0,0.15367550860659185,0.15266340347920485,0.3190804307682867,0.0019758496513511783,0.0022010075024475276,0.03901132549836807
1685,11.0,300.52472,-1984.1146,0.0,0.0,0.01685024119867684,0.0,0.0,0.0,0.15029714025567284,0.15511940013159287,0.29770475467117175,-0.009441598991413272,-0.005339559313073475,0.026538681849163977
1686,11.0,300.94597999999996,-1914.3717,0.0,0.0,0.016860245619051195,0.0,0.0,0.0,0.13932434081524186,0.15348903005818784,0.2891078038002187,-0.0037352202426875363,-0.01759518931150998,0.032312504145745866
1687,11.0,300.42107999999996,-1983.8635,0.0,0.0,0.01687025003942555,0.0,0.0,0.0,0.16282551164712686,0.14295549480110886,0.29726396048016873,0.001150701022440349,-0.002364947923577188,0.019104068671424782
1688,11.0,300.12833,-2126.2761,0.0,0.0,0.016880254459799682,0.0,0.0,0.0,0.17066472369579683,0.16901128191761486,0.3066588356723707,0.011588691354714789,0.022618457742267978,0.02254700233196588
1689,11.0,300.21968,-2102.6675,0.0,0.0,0.016890225970896067,0.0,0.0,0.0,0.18191131344574885,0.14958087375998286,0.3076662190542917,-0.0015152894840224284,0.018305395558351884,0.013741864029216386
1690,11.0,300.25209,-1953.4298,0.0,0.0,0.0169002303912702,0.0,0.0,0.0,0.13786498709371486,0.14355734509550686,0.3123715498686717,-0.001931148501989518,0.003585659866977077,0.02414686040510958
1691,11.0,299.5628,-1992.652,0.0,0.0,0.01691023481164433,0.0,0.0,0.0,0.15156937708123286,0.15442156465522186,0.2997254996106037,-0.02135116861694628,-0.013446298975046386,0.017141397148224182
1692,11.0,299.76592999999997,-2077.415,0.0,0.0,0.016920239232018464,0.0,0.0,0.0,0.15173927885800084,0.15740457294962185,0.3223384452723277,-0.0038172040308037066,-0.01222420992343559,0.03802491842001726
1693,11.0,299.69341000000003,-2123.5987,0.0,0.0,0.016930243652392818,0.0,0.0,0.0,0.17089683902870484,0.15538385840769284,0.31924029123656367,-0.0008745124107276552,-0.014888516610882186,0.03155174887791517
1694,11.0,300.18281,-1892.9087,0.0,0.0,0.01694024807276695,0.0,0.0,0.0,0.15026739123273686,0.14339796085477685,0.2817316267822468,-0.004994693562037875,-0.016126381966549985,0.034274760236405466
1695,11.0,300.06122,-1714.9551,0.0,0.0,0.016950252493141083,0.0,0.0,0.0,0.12640793516549187,0.1270753224763579,0.2678202804618038,0.0034102610057665564,-0.0047155023255088455,0.031928367860584575
1696,11.0,299.93096,-1882.5773,0.0,0.0,0.016960256913515215,0.0,0.0,0.0,0.13057009299876488,0.15303284459816585,0.2886535536478877,0.010315270039787891,0.013702702926101488,0.03260412563052667
1697,11.0,299.99216,-2106.8279,0.0,0.0,0.016970228424611822,0.0,0.0,0.0,0.15624290197497384,0.16014469506255086,0.32403547706981173,0.007004524683317763,0.02009962843792888,0.03588685837075717
1698,11.0,300.73335,-2051.9729,0.0,0.0,0.016980232844985954,0.0,0.0,0.0,0.14730805246067286,0.17068895050568783,0.3057515208703257,-0.011947955389671387,-0.007663194598273424,0.035282621872373666
1699,11.0,300.26557,-1907.6441,0.0,0.0,0.016990237265360086,0.0,0.0,0.0,0.13878699402220987,0.14867633526321186,0.2924128635064027,-0.00923990243975737,0.0011447132209743988,0.05096892196274095
1700,11.0,299.98826,-1896.77,0.0,0.0,0.01700024168573444,0.0,0.0,0.0,0.14678448586900086,0.14087946693622086,0.2889067547153767,-0.008761448376987632,0.006645705059855024,0.026158998798192175
1701,11.0,299.72182000000004,-2038.9489999999998,0.0,0.0,0.017010246106108573,0.0,0.0,0.0,0.16046499355166183,0.15782652068876485,0.3014980590705417,0.016909758042863182,0.004688480566542005,0.03935360036889796
1702,11.0,300.12861000000004,-2070.8853,0.0,0.0,0.017020250526482705,0.0,0.0,0.0,0.15399068005019687,0.15412434800338884,0.32138239314047273,7.389645239626204e-05,-0.02225507788540518,0.017701511671003183
1703,11.0,300.06966,-1910.5626,0.0,0.0,0.017030254946856838,0.0,0.0,0.0,0.13449506924862986,0.14270118929101086,0.3035670651122367,0.011502604612968688,-0.01929484441350288,0.03355850083346617
1704,11.0,300.54278999999997,-1892.0373,0.0,0.0,0.017040226457953445,0.0,0.0,0.0,0.12382025653010788,0.15290695840574187,0.2984048699602677,0.0046977876740105454,-0.0034061299851088564,0.019816908355276584
1705,11.0,300.29261,-2000.2886,0.0,0.0,0.017050230878327577,0.0,0.0,0.0,0.16632080905958582,0.14502721635307186,0.2966897719135007,0.004817171029942766,0.015521798936632285,0.02647197148908018
1706,11.0,299.92096000000004,-2124.7342,0.0,0.0,0.01706023529870171,0.0,0.0,0.0,0.19280105677548282,0.14539628256949585,0.3076687927095457,-0.007720722075350942,0.0017522842241119883,0.00960813454869905
1707,11.0,299.53333,-2068.7083,0.0,0.0,0.01707023971907584,0.0,0.0,0.0,0.17708889144981282,0.14767879053976188,0.3040679855641737,-0.004113652537735896,0.002658926329415597,0.01782735429367288
1708,11.0,299.70078,-1974.7985,0.0,0.0,0.017080244139449974,0.0,0.0,0.0,0.15423093178140784,0.14810721294704388,0.29795129868550374,-0.008375670626664332,0.0042200256610591055,0.02312783477953958
1709,11.0,299.20758,-1991.0118,0.0,0.0,0.017090248559824328,0.0,0.0,0.0,0.15812178176790487,0.14660524192631086,0.3004908378086367,0.006754053210273154,-0.006930833435345003,0.026708396174663473
1710,11.0,299.35818,-2060.4471,0.0,0.0,0.01710025298019846,0.0,0.0,0.0,0.14966672644095586,0.15472215542988785,0.32193560743007066,-0.002314023493426338,-0.01039932420183339,0.029966348870448373
1711,11.0,299.37379,-1985.2857,0.0,0.0,0.017110257400572593,0.0,0.0,0.0,0.14513211813592486,0.15600993551198186,0.3023352164356627,0.003877593230138656,-0.01120933051727479,0.038563951261215666
1712,11.0,299.7134,-1816.1566,0.0,0.0,0.0171202289116692,0.0,0.0,0.0,0.13788419831561086,0.13689263176775088,0.27728942688633573,0.002754657590913537,0.012604553613472588,0.03332299921872397
1713,11.0,300.24756,-1844.5357,0.0,0.0,0.017130233332043332,0.0,0.0,0.0,0.1271678018129849,0.15177179405370986,0.2817531887443747,-0.007085231067032864,-0.003787670019538927,0.03798517064509446
1714,11.0,300.71002000000004,-1945.5462,0.0,0.0,0.017140237752417464,0.0,0.0,0.0,0.14119648249500788,0.15318047513773586,0.29702050687864173,-0.008105347253685492,-0.0007608851968910222,0.03948154751202536
1715,11.0,299.60983,-2035.6918,0.0,0.0,0.017150242172791597,0.0,0.0,0.0,0.15476963632957386,0.15410964574443786,0.3099201939017417,-0.007371628639598102,0.0020375764421431382,0.035805906780517864
1716,11.0,299.4724,-1947.4604,0.0,0.0,0.01716024659316573,0.0,0.0,0.0,0.13030159185476586,0.15952825396671286,0.30214947755983174,0.007745976928793403,0.008177062967938282,0.043969422695944164
1717,11.0,299.80687,-1902.7069,0.0,0.0,0.01717025101353986,0.0,0.0,0.0,0.15083701004145386,0.14366619855374987,0.2838721682810017,-0.006429541120621304,-0.009515965165277642,0.034891065556730064
1718,11.0,300.28075,-1967.0023,0.0,0.0,0.017180255433914216,0.0,0.0,0.0,0.15647602042548084,0.14520010721763488,0.29624346564195375,0.00999684444216173,-0.005500651589497045,0.026465029712645072
1719,11.0,300.24122,-2077.0159,0.0,0.0,0.017190259854288348,0.0,0.0,0.0,0.16685246138705584,0.15945977852495485,0.3050487407334667,0.023727618043733578,0.003910269127313517,0.029935875373690874
1720,11.0,300.22959,-2077.5021,0.0,0.0,0.017200231365384955,0.0,0.0,0.0,0.16233756079646985,0.15499885376719585,0.3141723486088967,0.009011055243721911,0.023680862631119178,0.03397806844812427
1721,11.0,300.38577999999995,-2025.4737,0.0,0.0,0.017210235785759087,0.0,0.0,0.0,0.15208016658914383,0.15423794347209985,0.3093753186604667,-0.002992488363660607,-0.004178500848110926,0.026971159283346174
1722,11.0,300.2325,-1899.4795,0.0,0.0,0.01722024020613322,0.0,0.0,0.0,0.12849654759662188,0.13541749160966587,0.3134802987905967,-0.012976868309717187,0.0004388342815995716,0.03162161753856067
1723,11.0,300.23124,-1884.5274,0.0,0.0,0.01723024462650735,0.0,0.0,0.0,0.14690111095551084,0.12670345968965788,0.29924470230565275,-0.009692408484691242,0.0014870456441099787,0.014203752060801185
1724,11.0,299.75906000000003,-1921.1024,0.0,0.0,0.017240249046881484,0.0,0.0,0.0,0.14632947577909486,0.14326982524713086,0.2943678586468457,0.0029440615950062574,-0.00098540285630919,0.03686512094480417
1725,11.0,300.04941,-2031.7946,0.0,0.0,0.017250253467255616,0.0,0.0,0.0,0.16661385112100685,0.14244927505114888,0.3085516983166817,-0.004917648050934076,-0.02163458480241728,0.02065002386574868
1726,11.0,299.83498,-2022.0638,0.0,0.0,0.01726025788762975,0.0,0.0,0.0,0.15459184133452686,0.15751810762332685,0.30254696544156073,-0.010699423550200888,-0.01227521085396899,0.03162344240199077
1727,11.0,300.06768,-1984.3022,0.0,0.0,0.017270229398726578,0.0,0.0,0.0,0.14660261760855187,0.15149253219364886,0.3050831811043657,0.007094097005407864,-0.0017801234732595082,0.027377571871955976
1728,11.0,299.8305,-2121.1323,0.0,0.0,0.01728023381910071,0.0,0.0,0.0,0.15008880590261184,0.16385617951634585,0.3308262691075107,-0.001075130904807159,0.02099132804268278,0.021613752380361277
1729,11.0,300.23284,-2163.1002,0.0,0.0,0.017290238239474842,0.0,0.0,0.0,0.17118367999951384,0.17765079942526885,0.3086939687632227,-0.004519750005564595,-0.0015609658866053385,0.03328869259683817
1730,11.0,300.51841,-2000.1146,0.0,0.0,0.017300242659848752,0.0,0.0,0.0,0.14455120158859286,0.15574380537321686,0.30768989870912866,-0.01217020267985549,0.003237489096765297,0.01926664059696938
1731,11.0,299.88096,-1909.254,0.0,0.0,0.017310247080223107,0.0,0.0,0.0,0.15194174649298284,0.13627114468641485,0.2921526608807227,0.0057517067959242645,0.0075822417921340025,0.038186908740004466
1732,11.0,299.40443999999997,-1900.3044,0.0,0.0,0.01732025150059724,0.0,0.0,0.0,0.13349765624769286,0.15415880863928985,0.2899886221121487,0.0019416900520548884,0.0022743562718864877,0.034158829226213966
1733,11.0,299.57554,-1851.5687,0.0,0.0,0.01733025592097137,0.0,0.0,0.0,0.12636013002577387,0.14151353858379886,0.29495700278498976,-0.005809345831837795,-0.014689632841503887,0.052129437832274944
1734,11.0,299.68087,-2017.8101,0.0,0.0,0.017340260341345504,0.0,0.0,0.0,0.14762000176895987,0.15194711671851285,0.3137967773268307,-0.015201254227746985,-0.004013126475439746,0.03469462979959337
1735,11.0,299.81903,-2050.2543,0.0,0.0,0.017350231852442333,0.0,0.0,0.0,0.17014108617661786,0.15054205293734385,0.30254295297116474,0.006300746393785254,0.005799605762601525,0.03239517218165457
1736,11.0,299.96811,-2057.1844,0.0,0.0,0.017360236272816465,0.0,0.0,0.0,0.14936558851123585,0.15764377090072884,0.3183233404260677,-0.0074187334208469825,0.01080314894968779,0.01859619124430118
1737,11.0,299.98958,-2166.6908,0.0,0.0,0.017370240693190375,0.0,0.0,0.0,0.18699650159011783,0.16673315118778084,0.3048902380203237,0.014491301293430087,-0.005025202421223865,0.022204109378874976
1738,11.0,300.15959,-2251.8014,0.0,0.0,0.017380245113564508,0.0,0.0,0.0,0.17711054460444983,0.16933459989202382,0.3380462536225677,-0.004782138920985365,-0.007778919918694623,0.012920313755385687
1739,11.0,300.45141,-2088.9872,0.0,0.0,0.01739024953393864,0.0,0.0,0.0,0.16993771674904684,0.15579414363818486,0.3092680965348847,0.012104448827866088,-0.0035037567335688665,0.018144709291243382
1740,11.0,300.08206,-1992.2994,0.0,0.0,0.017400253954312994,0.0,0.0,0.0,0.14859777798295887,0.14660031753082486,0.3104111743701977,-0.007329636110403764,-0.005438281283566574,0.02912945495035337
1741,11.0,300.22024,-2018.7863,0.0,0.0,0.017410258374687126,0.0,0.0,0.0,0.16457168607446082,0.14671125828427387,0.3023776918798547,-0.005297466877419275,-0.008286439364557892,0.022307520670830878
1742,11.0,299.62543999999997,-2073.7924,0.0,0.0,0.01742026279506148,0.0,0.0,0.0,0.14308527187391684,0.17125794109934284,0.3160378838980107,-8.298658451488823e-05,0.0032810759749919865,0.031846397953994764
1743,11.0,299.79544,-2006.0329,0.0,0.0,0.017430234306157866,0.0,0.0,0.0,0.17225702596294484,0.1422988175437999,0.29522807758424274,0.001172130248805249,0.00930577474068346,0.03621869777850717
1744,11.0,299.90342999999996,-2001.7913,0.0,0.0,0.01744023872653222,0.0,0.0,0.0,0.13136395418711286,0.16140085160902384,0.31572978494010373,-0.0017272157073629185,0.009025255031948322,0.03684816521763076
1745,11.0,299.50911,-2013.0089,0.0,0.0,0.01745024314690613,0.0,0.0,0.0,0.15300173782009585,0.15695923939817086,0.30194345341699874,-0.016501742492595183,-0.01033386013937259,0.04681615087839436
1746,11.0,299.41186,-2054.0337,0.0,0.0,0.017460247567280263,0.0,0.0,0.0,0.14021123862777188,0.16970409167348982,0.31445962527724874,-0.0019306603180913383,0.007378493307700593,0.03565956002882457
1747,11.0,300.13988,-2116.984,0.0,0.0,0.017470251987654395,0.0,0.0,0.0,0.16904878230381584,0.16688190643496184,0.3075795861707417,0.0005463089901664995,-0.004675032711214806,0.03545703767833717
1748,11.0,300.09585,-2061.8884,0.0,0.0,0.01748025640802875,0.0,0.0,0.0,0.15690862755567586,0.15880839043316786,0.3110455601253067,0.0048607315636668555,0.0005407332977812215,0.029602614376050572
1749,11.0,300.45383,-1892.8898,0.0,0.0,0.017490260828403104,0.0,0.0,0.0,0.15180947682492885,0.14173359624051687,0.28184816067624774,-0.0032746690932846764,-0.0009306865099116071,0.027334575617212573
1750,11.0,300.52848,-1894.4636,0.0,0.0,0.01750023233949949,0.0,0.0,0.0,0.13322957053623485,0.13643941513052188,0.3062006439771507,0.00903796534252773,0.008978063820465912,0.03430508275889807
1751,11.0,300.18237999999997,-2047.8615,0.0,0.0,0.01751023675987362,0.0,0.0,0.0,0.15531570720596685,0.15336478533092585,0.3138182683614517,0.002759613802452677,0.01058675115233099,0.025155404971645177
1752,11.0,300.01445,-2004.281,0.0,0.0,0.017520241180247753,0.0,0.0,0.0,0.14907748097780185,0.15194090549539985,0.3082330108952297,-0.006915171425899283,0.003811975761612716,0.04866868616872536
1753,11.0,300.387,-2077.0339,0.0,0.0,0.017530245600621885,0.0,0.0,0.0,0.16386583578979885,0.15387260601604386,0.3136280103901747,-0.005238114131611615,-0.007321067155633072,0.02121605070286118
1754,11.0,300.10072,-2117.1998,0.0,0.0,0.017540250020996018,0.0,0.0,0.0,0.17297869308166783,0.15755474674694286,0.3130424328923827,-0.00874316356965806,0.0005165358113481155,0.04002804800646076
1755,11.0,299.21772999999996,-2050.1756,0.0,0.0,0.017550254441370372,0.0,0.0,0.0,0.16505089257675484,0.14148066875055487,0.31667062818795766,0.0016079667083939585,-0.0034587043917225467,-0.001203460752497329
1756,11.0,299.51122999999995,-2050.9049,0.0,0.0,0.017560258861744504,0.0,0.0,0.0,0.14483273312887787,0.15306055698840085,0.32553059851986865,0.009667962407478602,-0.011622940221344887,0.03516109062887947
1757,11.0,299.73765,-2120.0585,0.0,0.0,0.017570263282118637,0.0,0.0,0.0,0.16470346938246683,0.14716901428195084,0.3325723726073377,-0.005164858277206825,0.004707344041003686,0.0030515154508861273
1758,11.0,299.55146,-2027.4345,0.0,0.0,0.017580234793215244,0.0,0.0,0.0,0.15933756029789284,0.14524179232674886,0.3117101306008947,0.002217386791639038,0.010034329021661171,0.03919852852059356
1759,11.0,300.01905,-2017.9337,0.0,0.0,0.017590239213589376,0.0,0.0,0.0,0.15680046310750084,0.15115061094740384,0.3054503728081047,-0.002042687680947578,0.006925623911280864,0.02171288066414448
1760,11.0,300.49818999999997,-2109.2323,0.0,0.0,0.017600243633963508,0.0,0.0,0.0,0.17195389193052782,0.16320998939757184,0.3059900602088677,0.010767758150194989,-0.001118162420654039,0.05279277518249125
1761,11.0,300.3167,-1999.4217,0.0,0.0,0.01761024805433764,0.0,0.0,0.0,0.15065731013621886,0.14903218869833187,0.3080847622730987,0.003471894476224306,-0.01385329823546409,0.020652304691723782
1762,11.0,300.4721,-1841.9325,0.0,0.0,0.017620252474711995,0.0,0.0,0.0,0.1164757233127589,0.15184806138873685,0.2915776921114777,-0.0017732393507550986,-0.008377325669377673,0.054067680908814655
1763,11.0,300.13332,-2004.0035,0.0,0.0,0.017630256895086127,0.0,0.0,0.0,0.13235752697017086,0.16005189148589183,0.3167576055765417,-0.013781897540667387,-0.0015994485174532784,0.03285138601267937
1764,11.0,300.36614,-2026.1174,0.0,0.0,0.01764026131546026,0.0,0.0,0.0,0.15037988225883886,0.15456446331682483,0.3109447518728577,-0.01180596763990829,-0.0012948973534464188,0.04714067056742196
1765,11.0,300.08182999999997,-1961.0026,0.0,0.0,0.01765026573583439,0.0,0.0,0.0,0.14119398989976187,0.14379317905628186,0.3111086552090337,-0.00891328339784758,0.01212172676857129,0.033893280693006365
1766,11.0,299.95033,-2072.4359,0.0,0.0,0.017660237246931,0.0,0.0,0.0,0.17892662315618285,0.14459948295585787,0.3064426587635357,0.00025898141612947575,0.0038177583799334164,0.03441186209418636
1767,11.0,299.97791,-2130.001,0.0,0.0,0.01767024166730513,0.0,0.0,0.0,0.17068327630512783,0.15731860881113785,0.3194652124937617,0.01633133105102688,0.008105041353480303,0.01929019460879398
1768,11.0,300.04515,-2024.6568,0.0,0.0,0.017680246087679263,0.0,0.0,0.0,0.14176467262108386,0.15247203093281786,0.3212084079658017,0.007518996443417174,-0.012196322240933288,0.028940175778672972
1769,11.0,299.84614,-2077.9631,0.0,0.0,0.017690250508053396,0.0,0.0,0.0,0.15245822033395487,0.15783184025178984,0.32135884520814867,0.02012617559054888,0.0008610185538459152,0.023934552085156376
1770,11.0,299.70807,-2188.4239,0.0,0.0,0.017700254928427528,0.0,0.0,0.0,0.17133598162204483,0.17080856467999284,0.32308168448567964,-0.002471778630645558,0.008210029363916812,0.029025507649094576
1771,11.0,299.80003999999997,-2047.6999,0.0,0.0,0.017710259348801882,0.0,0.0,0.0,0.17356921523994784,0.14605711415221487,0.3028232990088327,-0.008434178220563582,0.02054232044636918,0.02069409315234798
1772,11.0,299.33811000000003,-2020.9703,0.0,0.0,0.017720263769176015,0.0,0.0,0.0,0.15959666861346486,0.15263725149412385,0.3020905773315187,-0.016515236957426984,-0.00021618200548300276,0.036774271927588066
1773,11.0,299.47392,-2074.2243,0.0,0.0,0.017730268189550147,0.0,0.0,0.0,0.17783104648555784,0.14096422530708586,0.3117171422915867,0.005393692807616035,0.005445080698362624,0.020670897831058778
1774,11.0,299.70418,-2048.6225,0.0,0.0,0.017740239700646754,0.0,0.0,0.0,0.14096640379480085,0.15158165767244486,0.3301820142964277,0.006664953569354703,-0.003230334943109237,0.020487405330699482
1775,11.0,300.05562000000003,-2022.8319,0.0,0.0,0.017750244121020886,0.0,0.0,0.0,0.15285779551088985,0.15043674585445085,0.3115958359896147,0.010204534976109191,0.0018934617790951282,0.02277380012834908
1776,11.0,300.23408,-2091.1203,0.0,0.0,0.01776024854139502,0.0,0.0,0.0,0.13354743722510587,0.17213227461063285,0.3299686339578687,-0.0020979969509061776,-0.009622739636965461,0.04478326416301406
1777,11.0,300.164,-2047.3173,0.0,0.0,0.01777025296176915,0.0,0.0,0.0,0.15969643321831087,0.15132269121188685,0.3113142335218227,-0.007039831180402244,0.01107915827692779,0.03183247184462037
1778,11.0,300.09587,-1993.2818,0.0,0.0,0.017780257382143283,0.0,0.0,0.0,0.15022747931129785,0.16018740355426586,0.2954930222203907,-0.011811728979976888,0.009649863126242341,0.04593715236364396
1779,11.0,300.41197999999997,-2091.9233,0.0,0.0,0.017790261802517415,0.0,0.0,0.0,0.16661389165101084,0.17185318500308883,0.2974253712210987,-0.01792195638925938,0.015559718808374685,0.04153901871458196
1780,11.0,300.24708,-2057.8573,0.0,0.0,0.01780026622289177,0.0,0.0,0.0,0.15087322360002786,0.16651926422417185,0.3081447568115197,-0.013105514595413589,0.0006603350395074943,0.03350473676991007
1781,11.0,299.45252,-1958.4222,0.0,0.0,0.017810237733988377,0.0,0.0,0.0,0.14497944161085688,0.16218272604868883,0.28814926920561873,-0.0005230892596823904,-0.005806098466592305,0.04644823368758375
1782,11.0,299.95521,-2042.7053,0.0,0.0,0.01782024215436251,0.0,0.0,0.0,0.14102822218340189,0.16337058953842185,0.3165326032593357,0.024467799268283776,0.003981159853334887,0.031643033592674265
1783,11.0,300.01389,-2098.2789,0.0,0.0,0.01783024657473664,0.0,0.0,0.0,0.17335724331902785,0.15614466737777885,0.3083224707465587,0.0008619709380124082,0.0034628914451107773,0.03244069649539747
1784,11.0,299.97194,-2031.293,0.0,0.0,0.017840250995110774,0.0,0.0,0.0,0.15268287814612685,0.15476533001664886,0.3100141525835147,0.014692735413310086,-0.004964173759750805,0.026432233846658375
1785,11.0,299.80372,-2041.0338,0.0,0.0,0.017850255415484906,0.0,0.0,0.0,0.15211508318758984,0.14848210535154285,0.3198261119143797,-0.006824243881800433,-0.007438590184381692,0.025697417781387677
1786,11.0,300.11863999999997,-2135.6877,0.0,0.0,0.017860259835859038,0.0,0.0,0.0,0.16386778122999085,0.15094619787222985,0.3343817434434087,-0.001085598892915269,0.01064030952611679,0.012581448471442288
1787,11.0,300.21252000000004,-2165.6451,0.0,0.0,0.01787026425623317,0.0,0.0,0.0,0.16175182117866185,0.15916192352555886,0.33738827940513066,-0.009631539106133902,-0.003232194257042737,0.019117975529047284
1788,11.0,300.29033,-2125.0775,0.0,0.0,0.017880268676607303,0.0,0.0,0.0,0.16533917236270584,0.16772074579524882,0.31291057865686966,-0.006681435095481305,-0.0006776311275219853,0.04491965775897505
1789,11.0,299.66241,-2162.5599,0.0,0.0,0.01789024018770413,0.0,0.0,0.0,0.17867809317165484,0.16514168991821584,0.3135444273894257,-0.008203923113514172,0.005133182052580626,0.01834762579601968
1790,11.0,299.25296000000003,-2111.5857,0.0,0.0,0.017900244608078264,0.0,0.0,0.0,0.17688576520226582,0.15723510687039685,0.30774844429990666,0.017235770249288084,0.0023643278145159875,0.027634201777783373
1791,11.0,299.69509,-2078.0015,0.0,0.0,0.017910249028452396,0.0,0.0,0.0,0.14769868063922484,0.16868159060007684,0.31528031732824474,0.012862564579186287,0.0031345541336814066,0.02299979543065308
1792,11.0,299.57623,-2176.8969,0.0,0.0,0.017920253448826307,0.0,0.0,0.0,0.16998476195118983,0.16978772533674386,0.32194982332897365,0.0077354376078782525,-0.003914116336618207,0.03197169240836037
1793,11.0,300.02557,-2114.1859,0.0,0.0,0.01793025786920066,0.0,0.0,0.0,0.13610717042273188,0.16028760385665486,0.3462649480986897,0.007725606244807972,-0.012045800898827988,0.0070536588018669235
1794,11.0,300.4598,-2016.8945,0.0,0.0,0.017940262289574793,0.0,0.0,0.0,0.1361153473510389,0.17366644671954384,0.3033037518087497,0.005320301177697845,-0.009001175447296852,0.04027057347089616
1795,11.0,300.86046,-2099.0106,0.0,0.0,0.017950266709948925,0.0,0.0,0.0,0.15870489706795385,0.15319623117679085,0.3261456818605727,-0.00017432983169251483,-0.0003210428935619667,0.02232844023239548
1796,11.0,300.8639,-2186.6684,0.0,0.0,0.017960271130323058,0.0,0.0,0.0,0.17009621946218983,0.16615739208345784,0.3284389910769047,8.987386531985991e-05,0.000953251386988587,0.03628795342284217
1797,11.0,300.5094,-2074.9369,0.0,0.0,0.017970242641419887,0.0,0.0,0.0,0.15075440989330186,0.16811128278129184,0.31186333401601474,-0.017682451423372086,5.868467353972635e-06,0.04528859022638586
1798,11.0,300.09517,-2038.5343,0.0,0.0,0.01798024706179402,0.0,0.0,0.0,0.16399551153759684,0.14428907378772288,0.31137893967320873,-0.003493263718183286,0.004029266029657596,0.02289181336749608
1799,11.0,300.08097000000004,-2133.7265,0.0,0.0,0.01799025148216793,0.0,0.0,0.0,0.16849092732875984,0.15932110511626885,0.3207875342717647,-0.004573495121343826,-0.0016554832744834784,0.03274352959253477
1800,11.0,299.97921,-2056.4215,0.0,0.0,0.01800025590254206,0.0,0.0,0.0,0.16560461349140285,0.15209516269062387,0.3074010109731177,0.003376418148451527,0.005281011594470265,0.03172656998391867
1801,11.0,299.83673,-1983.6907,0.0,0.0,0.018010260322916194,0.0,0.0,0.0,0.15185934899485087,0.14212655489429887,0.3090065361540707,0.002557693829149728,-0.006283911344698764,0.029783844288936573
1802,11.0,300.47251,-2103.4569,0.0,0.0,0.01802026474329055,0.0,0.0,0.0,0.15085343482557484,0.16518734696772186,0.32335757222290773,0.005043861117840336,-0.0024855229629520176,0.018493745579690583
1803,11.0,300.1107,-2185.7282,0.0,0.0,0.01803026916366468,0.0,0.0,0.0,0.17237568768215583,0.15645683960108786,0.3355742780161027,0.011939970978883387,-0.0038092405942927766,0.015437287798791683
1804,11.0,300.59992,-2107.3457,0.0,0.0,0.018040240674761288,0.0,0.0,0.0,0.16338529179737285,0.16425774066347684,0.3129374399170207,-0.008751599586015632,-0.004620784010135876,0.024994145204980077
1805,11.0,299.87745,-2236.4466,0.0,0.0,0.01805024509513542,0.0,0.0,0.0,0.17777152817468383,0.16855604891268686,0.33349634524102667,0.00916997906360647,-0.002050148545408908,0.024405986959183376
1806,11.0,299.7265,-2190.5199,0.0,0.0,0.018060249515509552,0.0,0.0,0.0,0.16847648851483485,0.15359341508348984,0.3437934284547697,-0.007395740445602752,0.00015967329058602685,0.025937190245301372
1807,11.0,299.3899,-2047.3018,0.0,0.0,0.018070253935883684,0.0,0.0,0.0,0.15908057980753085,0.16639523227943084,0.2968527937220897,0.01825042370067658,0.007235504872138733,0.04236822206641796
1808,11.0,299.27623,-2080.3853,0.0,0.0,0.018080258356257817,0.0,0.0,0.0,0.15745062516666686,0.14910820272083386,0.3258263662240587,-0.0013979161123135785,0.01148392940037559,0.04085891916796136
1809,11.0,299.59085,-2074.4877,0.0,0.0,0.01809026277663195,0.0,0.0,0.0,0.17089807519382685,0.15086417527663487,0.3088302205041697,-0.00036674795085770464,0.005527284463075505,0.03073892471394567
1810,11.0,300.56608,-1897.2601,0.0,0.0,0.018100267197006303,0.0,0.0,0.0,0.13030921149551788,0.15321733717637387,0.2931931471434107,-0.005749521215458564,0.009422105782014441,0.04649991450893426
1811,11.0,300.52848,-1973.382,0.0,0.0,0.018110271617380658,0.0,0.0,0.0,0.15684215834911583,0.13664256164307087,0.30637415292427467,-0.01106209311874359,0.006095766709155334,0.030677948336177766
1812,11.0,299.71389,-2189.59,0.0,0.0,0.018120243128477043,0.0,0.0,0.0,0.16603912553178585,0.17860797626473485,0.3209335942736797,-0.0010229495379072589,0.013492800061885687,0.030482170178355972
1813,11.0,300.12209,-2017.3297,0.0,0.0,0.018130247548851175,0.0,0.0,0.0,0.14105151680320085,0.15195397642168984,0.3202123729850007,0.0035560633381811267,-0.014035818015727387,0.03922398338960576
1814,11.0,299.7913,-2096.5694,0.0,0.0,0.018140251969225307,0.0,0.0,0.0,0.13275721360461687,0.17089132694816084,0.3336562057093037,0.01046823838088469,-0.0024704048661599778,0.025664525656641478
1815,11.0,300.12942000000004,-2208.7069,0.0,0.0,0.01815025638959944,0.0,0.0,0.0,0.17172464409540283,0.17889769486582782,0.3207693970949747,0.006186185905679015,-0.009801907180597922,0.028482450178498972
1816,11.0,299.69043999999997,-2180.6725,0.0,0.0,0.018160260809973572,0.0,0.0,0.0,0.1835675517942068,0.16436773909433283,0.3149346875866337,-0.004895930453590715,0.005361298087343926,0.025641832907401876
1817,11.0,299.12216,-2135.7547,0.0,0.0,0.018170265230347926,0.0,0.0,0.0,0.17631516354095184,0.15923263825003783,0.3136682870816497,-0.01913364645509388,0.004009580302739766,0.03834190054155096
1818,11.0,299.9039,-2133.5953,0.0,0.0,0.01818026965072206,0.0,0.0,0.0,0.18503003645854282,0.15155459376227384,0.3119750651045417,0.005101670177120645,0.0026987089601418377,0.026478145221939472
1819,11.0,300.02949,-2089.9901,0.0,0.0,0.01819027407109619,0.0,0.0,0.0,0.14743875159107186,0.16265877121067085,0.32520729067796067,-0.0010795942714976591,0.0009304015333209822,0.04836202501271025
1820,11.0,299.46552,-2005.9326,0.0,0.0,0.018200245582192798,0.0,0.0,0.0,0.15234176749996187,0.15585984277466883,0.30155182212084775,0.0034369462643751873,0.004645860835535766,0.033013930580471265
1821,11.0,299.07599999999996,-2187.8546,0.0,0.0,0.01821025000256693,0.0,0.0,0.0,0.16830620170302882,0.15959917134121185,0.33714780475889766,-0.0011360329100177189,-0.00908390113713624,0.02921037209008927
1822,11.0,299.80401,-2205.8147,0.0,0.0,0.018220254422941062,0.0,0.0,0.0,0.18080122703369184,0.16056928738445486,0.3291420650562927,-0.00029240469671059673,0.0034139307949787364,0.022406154488565276
1823,11.0,300.19881000000004,-2096.5763,0.0,0.0,0.018230258843315195,0.0,0.0,0.0,0.15281398257656587,0.16982719142813885,0.3146656595525827,0.004226964499068916,0.0005300823268375525,0.03521500262695017
1824,11.0,299.92569,-2204.6734,0.0,0.0,0.01824026326368955,0.0,0.0,0.0,0.17195957626358882,0.17222847257512683,0.3259776140664857,0.014555880788553585,0.008495453709761002,0.03482955215640917
1825,11.0,299.40585,-2219.9315,0.0,0.0,0.01825026768406368,0.0,0.0,0.0,0.15991813234019084,0.17192755756042882,0.3429580544098247,-0.002383658599923788,-0.009870238943491741,0.03438576482461076
1826,11.0,299.85242999999997,-2054.7308,0.0,0.0,0.018260272104437814,0.0,0.0,0.0,0.14106627985715786,0.16222452261531387,0.3212960540994517,0.006034178125677014,-0.005968636650908574,0.03642509277087676
1827,11.0,300.19306,-2051.6933,0.0,0.0,0.0182702436155342,0.0,0.0,0.0,0.15373578685504086,0.15527504547945387,0.3146527102163047,-0.0026629460952123174,-0.008393536961702601,0.02213219800602788
1828,11.0,300.40311,-2173.6144,0.0,0.0,0.018280248035908553,0.0,0.0,0.0,0.16903764668521684,0.1744733585691798,0.3172134769290327,0.009681603894899912,0.005227799752218665,0.03643510266861467
1829,11.0,300.23919,-2002.5129,0.0,0.0,0.018290252456282685,0.0,0.0,0.0,0.17085959195502884,0.13869316706294987,0.2991611497024067,-0.01992264201646168,-0.003933759811006866,0.02550800080769368
1830,11.0,299.49093999999997,-2031.4589,0.0,0.0,0.018300256876656817,0.0,0.0,0.0,0.15887690640492985,0.14976850741350087,0.30886738651783774,-0.006604870776849994,0.005260776382023205,0.04326373047829776
1831,11.0,299.53962,-2296.8162,0.0,0.0,0.01831026129703095,0.0,0.0,0.0,0.17843391003005582,0.17653206998985882,0.34320879327957066,-0.014072576702855185,0.0028331402959591774,0.03981315488550246
1832,11.0,299.22582,-2300.0763,0.0,0.0,0.018320265717405082,0.0,0.0,0.0,0.17463213485984982,0.17157378128801384,0.35295983601442366,-0.012246448736630387,-0.005269981657856695,0.04163891098894056
1833,11.0,299.54542000000004,-2086.561,0.0,0.0,0.018330270137779436,0.0,0.0,0.0,0.15868356815334886,0.16027127026504284,0.3153076041534377,-0.004408636290323526,-0.018254466568575583,0.01980133064823918
1834,11.0,299.63653,-2111.6413,0.0,0.0,0.01834027455815357,0.0,0.0,0.0,0.16393380460650683,0.15073588768147386,0.32721653522875765,-0.009459615084816322,-0.006329215276544915,0.0002995150475648337
1835,11.0,299.8534,-2170.8443,0.0,0.0,0.018350246069249954,0.0,0.0,0.0,0.16385478123120784,0.16709974507396083,0.32892794504516065,0.0027888071590338377,0.006370568140951124,0.02065244553348768
1836,11.0,299.87879,-2193.6999,0.0,0.0,0.018360250489624308,0.0,0.0,0.0,0.17009643224471083,0.15701502894867686,0.3397185418526097,0.008391429806794642,-0.0028952082480598073,0.016846281977098584
1837,11.0,299.63521000000003,-2360.9489,0.0,0.0,0.01837025490999844,0.0,0.0,0.0,0.17488813249761484,0.18192994711508784,0.3608514432257647,0.007307500750044174,4.640572075313806e-05,0.04034178874092456
1838,11.0,299.74348,-2197.8728,0.0,0.0,0.018380259330372573,0.0,0.0,0.0,0.1809636510247218,0.15400224123383785,0.3331325580576237,-0.0013614835903929688,0.0028291881139441274,0.015647843196071883
1839,11.0,299.88867999999997,-2042.7473,0.0,0.0,0.018390263750746705,0.0,0.0,0.0,0.15371340416033186,0.16396761676234384,0.3032631508772427,0.009042586877558842,0.006278452561110024,0.045318148758303055
1840,11.0,299.86899,-2177.9306,0.0,0.0,0.018400268171120837,0.0,0.0,0.0,0.17137245862564482,0.16219053820695986,0.3284735226403127,-0.004189784401224526,0.007268383014033553,0.02477568949667018
1841,11.0,299.63074,-2147.1458,0.0,0.0,0.01841027259149497,0.0,0.0,0.0,0.17405085354248184,0.15835913560382983,0.3202687198230617,0.009013317425895171,-0.00869382963818918,0.03390479628039286
1842,11.0,300.61031,-1943.7398,0.0,0.0,0.018420277011869324,0.0,0.0,0.0,0.12498817925787288,0.15044638186290185,0.31541378263141673,-0.013306633594512486,-0.006145726423885974,0.032681380884401166
1843,11.0,300.18093,-1964.3523,0.0,0.0,0.01843024852296593,0.0,0.0,0.0,0.13295236557387688,0.15450206737566685,0.30965962650602574,0.007702041999157363,0.007197306559268853,0.04900399393156765
1844,11.0,300.66056000000003,-2159.5752,0.0,0.0,0.018440252943340063,0.0,0.0,0.0,0.16489959407182284,0.16862961086994682,0.3229277211329847,-0.008647490975340913,0.0007816135480292513,0.036571317932558065
1845,11.0,300.07632,-2128.2332,0.0,0.0,0.018450257363714195,0.0,0.0,0.0,0.16608585662639783,0.15348219062001284,0.3273617035705847,0.012625069901497388,-0.003081145923560427,0.023795796603212276
1846,11.0,300.22542999999996,-2167.4984,0.0,0.0,0.018460261784088328,0.0,0.0,0.0,0.16039437001969184,0.16471730024633185,0.3337537107664267,-0.0035341922334476165,-0.008819155199332851,0.02199461586769958
1847,11.0,300.27647,-2204.6171,0.0,0.0,0.01847026620446246,0.0,0.0,0.0,0.17718656875945285,0.15931667721333184,0.33364530313822766,0.01034838507955609,0.01150417616387379,0.02452514314444318
1848,11.0,300.65164,-2244.1609,0.0,0.0,0.018480270624836592,0.0,0.0,0.0,0.16728995238273284,0.16834055088141886,0.34653838377067564,-0.017534858374055783,-0.004821127974233286,0.036012847914691365
1849,11.0,299.96361,-2225.6421,0.0,0.0,0.018490275045210725,0.0,0.0,0.0,0.17510542398155982,0.16909883685875585,0.33233538354144865,0.008123928740644342,-0.006611427518247093,0.05247848526647325
1850,11.0,300.0433,-2198.4024,0.0,0.0,0.018500246556307554,0.0,0.0,0.0,0.18441512537035581,0.16408767676669284,0.31975661309002074,-0.007316882939345123,-0.011602191899047189,0.023455893751166478
1851,11.0,299.84559,-1979.9004,0.0,0.0,0.018510250976681686,0.0,0.0,0.0,0.14834848806085588,0.16246550388659683,0.2910263016720597,0.00893333673190169,-0.006619773355345764,0.04647612440983636
1852,11.0,300.16168999999996,-2015.0158,0.0,0.0,0.018520255397055818,0.0,0.0,0.0,0.15871073338852984,0.13371581912672387,0.3200879357402197,-0.002056647430225298,-0.018231683640077084,0.008895885488330542
1853,11.0,300.07496000000003,-2261.737,0.0,0.0,0.01853025981742973,0.0,0.0,0.0,0.16849102865376986,0.17776374641391582,0.3412567872269227,9.84878154877406e-05,-0.02097274300934858,0.024663622009109973
1854,11.0,299.95187000000004,-2297.8514,0.0,0.0,0.01854026423780386,0.0,0.0,0.0,0.16356893324549684,0.16998676818638783,0.36493374681865665,0.005935328384346305,-0.008225637772432242,0.005548448015264184
1855,11.0,299.54781,-2237.3452,0.0,0.0,0.018550268658178215,0.0,0.0,0.0,0.16579910684809784,0.16946437696483183,0.3448335803449247,0.001256567419388549,0.01149182464515479,0.048133798533686045
1856,11.0,300.26887,-2309.5607,0.0,0.0,0.018560273078552347,0.0,0.0,0.0,0.1936287909146738,0.17672269273117183,0.33169731968847666,0.00042506243955289666,0.01150435652239159,0.029137685580915673
1857,11.0,300.1988,-2331.4772,0.0,0.0,0.01857027749892648,0.0,0.0,0.0,0.19135902963066584,0.17392032666459983,0.34343148538654866,-0.017722475815572184,-0.0035718337653875467,0.04592378962132516
1858,11.0,300.12125,-2079.5874,0.0,0.0,0.018580249010023087,0.0,0.0,0.0,0.16903083764454485,0.14416044168752787,0.31895137310304966,0.008014048657400023,0.0038467830303729263,0.01788910479451718
1859,11.0,299.84901,-1963.4421,0.0,0.0,0.01859025343039744,0.0,0.0,0.0,0.14082864231120487,0.15217978933897586,0.3038289497330827,0.0067752508076651926,0.005068429798315076,0.03590889250743176
1860,11.0,300.02431,-2042.7267,0.0,0.0,0.018600257850771573,0.0,0.0,0.0,0.14055301801900286,0.15706184110329685,0.3233230507920007,0.023619770742839875,0.005872985030868494,0.04004483958711796
1861,11.0,299.90668999999997,-1995.5984,0.0,0.0,0.018610262271145483,0.0,0.0,0.0,0.16405387474335686,0.14729489034187387,0.29526331842272074,-0.005070401988309715,-0.008249638424900924,0.04349948945856536
1862,11.0,300.42541,-2094.042,0.0,0.0,0.018620266691519616,0.0,0.0,0.0,0.15347487495429085,0.17109983355373884,0.3119617712632297,0.009457339325091721,-0.003992841512412776,0.06136168435692674
1863,11.0,300.14148,-2279.7449,0.0,0.0,0.018630271111893748,0.0,0.0,0.0,0.18573633257324884,0.17753000988084783,0.32971917178324867,-0.0035661275461243863,0.004170075065579366,0.026826043630524373
1864,11.0,300.31694,-2220.0029999999997,0.0,0.0,0.018640275532268102,0.0,0.0,0.0,0.17748440349384684,0.16225030983035885,0.33509075506838265,-0.0025459104397617975,-0.0007287666784636714,0.037924715077877966
1865,11.0,300.69354,-2194.2241,0.0,0.0,0.018650279952642235,0.0,0.0,0.0,0.16420955048872085,0.16345521618677386,0.33932455981622667,-0.01118253309188009,-0.006214410088539525,0.018155806406338584
1866,11.0,301.02884,-2236.939,0.0,0.0,0.01866025146373884,0.0,0.0,0.0,0.15665009679266084,0.16328668229764084,0.3600368205428676,-0.004771242530734975,-0.005613735670882574,0.02952046208444277
1867,11.0,300.24599,-2181.2913,0.0,0.0,0.018670255884112974,0.0,0.0,0.0,0.17557951357084883,0.17052094350660682,0.3169576312787827,0.005450267221649495,-0.009258523038170081,0.027533279028073072
1868,11.0,300.45631000000003,-2026.6201,0.0,0.0,0.018680260304487106,0.0,0.0,0.0,0.15097832803290084,0.14778559723280285,0.3172779905628997,0.004314588442541726,-0.012604455328212888,0.04700692054097186
1869,11.0,299.59708,-2091.6172,0.0,0.0,0.01869026472486124,0.0,0.0,0.0,0.17433608344563184,0.15959136931544185,0.3018719686224437,-0.0014879450048987384,-0.006286590276638155,0.04022696014684186
1870,11.0,299.85221,-2146.6896,0.0,0.0,0.01870026914523537,0.0,0.0,0.0,0.18316123850410682,0.15052599292325886,0.3188528142658227,-0.004660655198920855,0.009122859590231142,0.022590672398025778
1871,11.0,299.93672000000004,-2166.7272,0.0,0.0,0.018710273565609503,0.0,0.0,0.0,0.1376602700435109,0.17799916494214982,0.34297155090115666,-0.0005429221611772454,0.02894954834209797,0.04055391163610946
1872,11.0,299.73109,-2284.5051,0.0,0.0,0.018720277985983858,0.0,0.0,0.0,0.17264890043911985,0.17320109134611683,0.3485825145224157,-0.01163981792826059,0.016455218101003585,0.026422808594228176
1873,11.0,300.04828,-2324.5947,0.0,0.0,0.018730282406358212,0.0,0.0,0.0,0.18345486825058582,0.16951740034256482,0.35364646494468865,-0.008753816779884451,-0.0036092945335096365,0.03303808443635507
1874,11.0,299.82174,-2156.6121,0.0,0.0,0.018740253917454597,0.0,0.0,0.0,0.15723828847571084,0.17099484057837683,0.32732308860927367,-0.018572279555191282,-0.005340348938876405,0.029137174902865274
1875,11.0,299.54897,-2075.4226,0.0,0.0,0.01875025833782873,0.0,0.0,0.0,0.15251551962710985,0.15627237742038286,0.32208873991768366,0.002405729416252008,0.009136879323914781,0.03846037278299326
1876,11.0,299.4703,-2248.9289,0.0,0.0,0.01876026275820286,0.0,0.0,0.0,0.1847024729662148,0.15828986982699383,0.3406258769196567,0.0009161077458827952,-0.012400789018362588,0.016389182565486386
1877,11.0,299.29823,-2220.3392,0.0,0.0,0.018770267178576994,0.0,0.0,0.0,0.15927484011670284,0.17615376293252286,0.33949907188094963,0.03308775294300697,-0.0027974323491850774,0.03328596695406917
1878,11.0,298.8977,-2096.6069,0.0,0.0,0.018780271598951126,0.0,0.0,0.0,0.14694352560469687,0.15925310590205785,0.3311195036864507,0.003945498921365426,-0.008195268843085062,0.026925096933800175
1879,11.0,299.66732,-2104.75,0.0,0.0,0.01879027601932548,0.0,0.0,0.0,0.14902897669551485,0.16440788406329485,0.3263545735011887,0.023143497599585377,0.0011705133042956687,0.03518427581766767
1880,11.0,299.95105,-2265.5558,0.0,0.0,0.018800280439699613,0.0,0.0,0.0,0.16325343756185987,0.18122822075833284,0.34419073395148064,-0.03026813224048207,-0.007493816063857063,0.04858826248178815
1881,11.0,299.84641,-2189.9324,0.0,0.0,0.01881025195079622,0.0,0.0,0.0,0.18187383332454982,0.15585702593939085,0.3279539178565317,-0.0005311003189480204,-0.006712694063716324,0.04288942474560666
1882,11.0,300.10918,-2102.0547,0.0,0.0,0.018820256371170352,0.0,0.0,0.0,0.15304715168957783,0.16281309933340185,0.3231118996036617,-0.026673782537997372,0.001999329290618438,0.03099800567176497
1883,11.0,300.2423,-2034.4164,0.0,0.0,0.018830260791544484,0.0,0.0,0.0,0.14542059043939487,0.15370149847165684,0.3192896871789387,0.0015670735555581184,0.01969159464915908,0.03182798213342727
1884,11.0,300.35096,-2079.4094,0.0,0.0,0.018840265211918616,0.0,0.0,0.0,0.15321511815865488,0.15406385697241884,0.3248095596162077,-0.015469452409966087,-0.005428567457507896,0.02031702428663418
1885,11.0,299.60281000000003,-2264.5107,0.0,0.0,0.01885026963229275,0.0,0.0,0.0,0.17625342621235882,0.16545142020878384,0.34664985141417665,-0.002633282286609728,-0.011782714563363389,0.026053570125287178
1886,11.0,299.7861,-2340.8706,0.0,0.0,0.018860274052667103,0.0,0.0,0.0,0.17885647585175984,0.16685696021749985,0.3658527646593567,0.007304769129099582,-0.007126345513690544,0.015148891489079185
1887,11.0,299.64445,-2177.2423,0.0,0.0,0.018870278473041235,0.0,0.0,0.0,0.17051124670314985,0.16909897871376986,0.3222170680428487,0.002132000003062018,0.007867436332855512,0.029257389934479575
1888,11.0,299.86151,-2202.6773,0.0,0.0,0.018880282893415368,0.0,0.0,0.0,0.16874067321340783,0.16924370122555285,0.33157452390885767,0.011572290888596189,0.006812151248481984,0.03104278423343427
1889,11.0,299.27031,-2432.5231,0.0,0.0,0.018890254404511753,0.0,0.0,0.0,0.2115147931373848,0.1806676705380108,0.34724382875529763,-0.015143640827060986,-0.006028008040518074,0.03203624758548147
1890,11.0,298.95085,-2249.7536,0.0,0.0,0.018900258824886107,0.0,0.0,0.0,0.18160141090266382,0.17528373573415784,0.32698378154828667,0.013411286117840886,-0.0022962386236961077,0.03327349080558786
1891,11.0,298.47974,-2032.0567,0.0,0.0,0.01891026324526024,0.0,0.0,0.0,0.14839309133025785,0.16437223792477684,0.30492916708916573,0.004283671243565436,-0.003180989055289177,0.042233846864656165
1892,11.0,299.39768,-2071.099,0.0,0.0,0.01892026766563437,0.0,0.0,0.0,0.13533090938862088,0.16956153751692082,0.3246699236199267,0.014546994585176588,-0.0010206843159836988,0.046873300210534555
1893,11.0,300.17205,-2177.7451,0.0,0.0,0.018930272086008504,0.0,0.0,0.0,0.17461537570319582,0.16536696581294885,0.3219977905887077,-0.015610446161381087,-0.005762918813580805,0.02162284832650898
1894,11.0,299.70614,-2266.0217,0.0,0.0,0.018940276506382636,0.0,0.0,0.0,0.16047477141512684,0.18012712187466284,0.34821210068335867,0.0041823301228888455,0.005400990538811264,0.04442928828032936
1895,11.0,299.66909,-2322.427,0.0,0.0,0.01895028092675699,0.0,0.0,0.0,0.1945278477284038,0.17495818860952883,0.33647379079237766,-0.004822525854071245,0.007267648002411013,0.00974102898676471
1896,11.0,299.70074,-2239.5929,0.0,0.0,0.018960285347131123,0.0,0.0,0.0,0.16342865890165284,0.17846190613031881,0.33888974380081366,-0.002842383163371377,0.0032347763222725667,0.040037378013381565
1897,11.0,300.15684,-2219.8516,0.0,0.0,0.018970256858227508,0.0,0.0,0.0,0.1756134473166978,0.15606234080715387,0.3431036888466977,-0.024119496572908978,-0.0005142623922312465,0.018038522707263582
1898,11.0,300.52038999999996,-2348.5311,0.0,0.0,0.018980261278601862,0.0,0.0,0.0,0.1903171349503388,0.17548527117904783,0.3480923953165447,-0.002014512843366938,-0.008372928062618662,0.04166894777490496
1899,11.0,300.48919,-2313.7149,0.0,0.0,0.018990265698975994,0.0,0.0,0.0,0.1948230581450388,0.15653755510405387,0.35195095302235463,0.012930205102861888,-0.007174826693875263,0.005848176108795045
1900,11.0,299.85084,-2065.8091,0.0,0.0,0.019000270119350127,0.0,0.0,0.0,0.14528114696063285,0.16095069498709685,0.3217225513315437,0.021979040187162378,-0.013038992699848385,0.04321300819154186
1901,11.0,299.81445,-2128.6975,0.0,0.0,0.01901027453972426,0.0,0.0,0.0,0.17282921842691584,0.15558658948770085,0.3186550683763067,0.008192048430292231,-0.0046015440119370355,0.021807024770685777
1902,11.0,300.03022999999996,-2326.2896,0.0,0.0,0.01902027896009839,0.0,0.0,0.0,0.19855108897296683,0.1747904551879748,0.3337924169202467,0.0024041227055684377,0.008804500867111582,0.045284025534685364
1903,11.0,299.81309,-2340.5368,0.0,0.0,0.019030283380472524,0.0,0.0,0.0,0.17612681047986284,0.18823227154457883,0.34710568223666366,-0.018569760615442684,0.0058423476915698234,0.04209157945786546
1904,11.0,300.16751,-2177.2364,0.0,0.0,0.01904025489156913,0.0,0.0,0.0,0.16213879152435284,0.17346394868705883,0.32622273953067765,-0.005673768712807375,-0.010901986430692292,0.04004347169948296
1905,11.0,299.84873999999996,-2265.3692,0.0,0.0,0.019050259311943485,0.0,0.0,0.0,0.16729378246811083,0.17571421503914283,0.34560766289132067,-0.006070159751303124,-0.015729994474429587,0.024964195558524273
1906,11.0,299.73092,-2256.0656,0.0,0.0,0.019060263732317617,0.0,0.0,0.0,0.15839657519502484,0.17975611021804683,0.3476349027638937,0.006241229602786404,-0.0012486197895791788,0.015848109038586584
1907,11.0,300.04511,-2141.9354,0.0,0.0,0.01907026815269175,0.0,0.0,0.0,0.15897211138432585,0.16734270218293884,0.32478004364079466,0.006335506850390844,0.016285729730276383,0.025954875512546775
1908,11.0,300.07173,-2200.7444,0.0,0.0,0.019080272573065882,0.0,0.0,0.0,0.15438551321666386,0.1791237408306368,0.33546211123003267,0.0027866791311738173,0.008180523115704772,0.045386259430025055
1909,11.0,299.98364,-2174.8847,0.0,0.0,0.019090276993440014,0.0,0.0,0.0,0.16827199437965285,0.16963155309883085,0.3232071045830577,0.018851518110499982,0.013369711452987787,0.04198490144758716
1910,11.0,299.89886,-2078.5891,0.0,0.0,0.019100281413814146,0.0,0.0,0.0,0.15261631774705786,0.16459987469224285,0.3146229814583707,0.01062346829620469,0.008416675034361153,0.05930921151711345
1911,11.0,299.85067999999995,-2265.0724,0.0,0.0,0.01911028583418828,0.0,0.0,0.0,0.17866935895579283,0.16677532265694286,0.34308077926193664,0.016099294751626685,0.001100866950722109,0.03753619040653357
1912,11.0,300.28614,-2338.0543,0.0,0.0,0.019120257345285108,0.0,0.0,0.0,0.16495930490021585,0.18461718770529784,0.36113364351111565,-0.015248395688649484,-0.02960421429795847,0.049527116719695854
1913,11.0,301.12105,-2114.9107,0.0,0.0,0.01913026176565924,0.0,0.0,0.0,0.17629563821152483,0.14479253749741086,0.3217918779033857,0.005799463198312454,-0.006720716775358104,0.012334093857030288
1914,11.0,300.01331,-2183.4570000000003,0.0,0.0,0.019140266186033372,0.0,0.0,0.0,0.15444693643772586,0.16370549909397486,0.34556398167950964,-0.012956701592976887,-0.005595391588422155,0.033670808461300064
1915,11.0,300.14968999999996,-2268.0612,0.0,0.0,0.019150270606407283,0.0,0.0,0.0,0.18463617601217183,0.16136444553293086,0.3434333497667327,-0.0015618528857428786,0.02027241088473118,1.3344279888727888e-05
1916,11.0,300.04353,-2314.1097,0.0,0.0,0.019160275026781415,0.0,0.0,0.0,0.16908593818498283,0.17717992183879683,0.3571657054570107,-0.023894235876927475,-0.003927163958155906,0.03172410575967547
1917,11.0,299.8252,-2434.3712,0.0,0.0,0.01917027944715577,0.0,0.0,0.0,0.2009954332492048,0.17716387195721284,0.36182876347721865,6.411062174572574e-06,0.008681363824858903,0.012725094911619089
1918,11.0,299.84487,-2368.9354,0.0,0.0,0.0191802838675299,0.0,0.0,0.0,0.18166828540926383,0.17053083282758283,0.3678980809137137,0.00967505090252818,0.0013246667427094286,0.025630957694078575
1919,11.0,299.59211,-2176.8748,0.0,0.0,0.019190288287904034,0.0,0.0,0.0,0.18273808499734484,0.16187394821321485,0.3171035494256837,0.020871511218357782,0.001110811696478579,0.022998374854012876
1920,11.0,299.51114,-2173.8356,0.0,0.0,0.01920025979900064,0.0,0.0,0.0,0.15067653149061586,0.16512893309945684,0.34498627713499463,-0.008324381021177442,-0.006272659911613333,0.04886738755308565
1921,11.0,300.28744,-2342.2832,0.0,0.0,0.019210264219374995,0.0,0.0,0.0,0.1921609562898098,0.18200364079486084,0.3378310190363257,-0.013675844705700787,-0.0020052151591243277,0.04172317996000725
1922,11.0,299.98545,-2201.0908,0.0,0.0,0.019220268639749127,0.0,0.0,0.0,0.15271257650655787,0.16740354785144382,0.3489605074722207,0.0013083830030023488,-0.0025020036784785377,0.04424439952133226
1923,11.0,299.8711,-1991.5485,0.0,0.0,0.019230273060123038,0.0,0.0,0.0,0.13343073107858788,0.15152872548722085,0.3204215483356447,-0.0005165084434629146,-0.0020491154356069483,0.046860615332532655
1924,11.0,300.98465,-2063.0303,0.0,0.0,0.01924027748049717,0.0,0.0,0.0,0.12783334500866889,0.17463643104027382,0.3246399212844657,0.008292879379543473,-0.0065057026723378646,0.04768369966701475
1925,11.0,300.21985,-2316.5018,0.0,0.0,0.019250281900871302,0.0,0.0,0.0,0.18641888823811184,0.17637813703466682,0.3413616890097757,-0.003689455484695906,-0.006741770795210973,0.027025989286007475
1926,11.0,300.38167999999996,-2290.8586,0.0,0.0,0.019260286321245657,0.0,0.0,0.0,0.16941612599506983,0.18683001446618683,0.34011766106699964,0.007920903311482293,0.008351488298452722,0.046758047064659955
1927,11.0,299.92717999999996,-2314.8483,0.0,0.0,0.019270257832342264,0.0,0.0,0.0,0.18250107566645385,0.18009340091133483,0.3410615845951577,-0.008086333716884003,0.01165182190219529,0.028055043047817176
1928,11.0,299.77085,-2212.3223,0.0,0.0,0.019280262252716396,0.0,0.0,0.0,0.15873768584118983,0.17272811633193783,0.3410249252065397,-0.0026754649015228275,0.009462932769618751,0.055763326580161844
1929,11.0,299.99003999999996,-2142.0294,0.0,0.0,0.019290266673090528,0.0,0.0,0.0,0.16111811430111986,0.15908147146761883,0.3309238653571427,-0.017279858787639282,0.007255011253788864,0.02923713911798097
1930,11.0,299.44358,-2352.6072,0.0,0.0,0.01930027109346466,0.0,0.0,0.0,0.19171368743066783,0.17689718453089284,0.3465229621041537,0.0022288385442692377,-0.006181601151626534,0.04969571241708495
1931,11.0,299.09418,-2412.9767,0.0,0.0,0.019310275513838793,0.0,0.0,0.0,0.2084944972393048,0.17193477190114084,0.3530553854988537,-0.0018979454107876284,-0.01144199199198669,0.01002575905364038
1932,11.0,300.18299,-2162.1194,0.0,0.0,0.019320279934212925,0.0,0.0,0.0,0.16642313718718485,0.17162081635765583,0.3191863559337407,0.02067689019215018,-0.007564827569290353,0.048244125257574454
1933,11.0,299.3571,-2271.0697,0.0,0.0,0.019330284354587057,0.0,0.0,0.0,0.18984990506422683,0.16078323514306986,0.33971535011479465,-0.013261565243314588,0.0007795394554720542,0.01013830894957319
1934,11.0,299.73773,-2522.6043,0.0,0.0,0.01934028877496141,0.0,0.0,0.0,0.19406585634530882,0.19472549229290984,0.3780173488674076,0.003136091842033167,0.011848715648377188,0.03223587508043317
1935,11.0,299.79863,-2481.197,0.0,0.0,0.01935026028605802,0.0,0.0,0.0,0.1961852817119798,0.1780627463859248,0.37997389428050365,-0.01842483646688978,0.006913943265453072,0.008473424436686881
1936,11.0,299.65677999999997,-2341.3269,0.0,0.0,0.01936026470643215,0.0,0.0,0.0,0.18325363678072581,0.17370472730832184,0.35474655057825866,0.007593492414619352,0.003717324422071356,0.028223216219914575
1937,11.0,299.77326,-2273.2802,0.0,0.0,0.019370269126806283,0.0,0.0,0.0,0.1841232688115518,0.16438873363640485,0.34250841454544867,-0.005348249857856166,-0.004985591029764526,0.024155648323226874
1938,11.0,299.93662,-2289.513,0.0,0.0,0.019380273547180416,0.0,0.0,0.0,0.18382597109971083,0.16845010348223083,0.3436786981459467,-0.004384207337037576,-0.0017519885577328082,0.030751658227952366
1939,11.0,299.01406000000003,-2337.0384,0.0,0.0,0.019390277967554548,0.0,0.0,0.0,0.17860847275728384,0.18793790212552683,0.3438549428683407,-0.01022477363360659,-0.011699757751176189,0.05394546065525245
1940,11.0,300.35177999999996,-2215.5718,0.0,0.0,0.01940028238792868,0.0,0.0,0.0,0.14014166887590587,0.17914148283988784,0.3541953425238587,0.003220538131867367,0.008993206539235382,0.05678971448095845
1941,11.0,299.8363,-2070.5061,0.0,0.0,0.019410286808303034,0.0,0.0,0.0,0.14637962152654385,0.15486227778621683,0.3281402545499217,0.013272565086400186,0.024164093762810375,0.05531592701175695
1942,11.0,299.77617999999995,-1982.4563,0.0,0.0,0.019420291228677167,0.0,0.0,0.0,0.13555577998331386,0.15539679761146988,0.3116646356714047,0.0018372975287021484,0.013795709152780488,0.053106486532702155
1943,11.0,300.21283,-2217.7617,0.0,0.0,0.019430262739773774,0.0,0.0,0.0,0.17419481611668983,0.17258142811496086,0.3273679249261987,0.003221307593993307,0.004441409256857965,0.036531578263636066
1944,11.0,300.51847999999995,-2376.0661,0.0,0.0,0.019440267160147906,0.0,0.0,0.0,0.18835913045709882,0.17774098881666983,0.35616465488821464,-0.01826928839103838,-0.017461711849336786,0.020582790668613283
1945,11.0,300.70294,-2245.8072,0.0,0.0,0.01945027158052204,0.0,0.0,0.0,0.17167584597058685,0.17516669521510683,0.3358267596760207,0.012884922955892887,-0.006901392947064454,0.025420184448026874
1946,11.0,300.8902,-2280.8507,0.0,0.0,0.01946027600089617,0.0,0.0,0.0,0.15736852151106384,0.16592332117785683,0.3700298172690996,-0.008600343536262822,-0.0002126937501587388,0.019819367513269282
1947,11.0,300.56192999999996,-2394.0774,0.0,0.0,0.019470280421270303,0.0,0.0,0.0,0.20137489541165482,0.17754993037781383,0.34881492369785266,0.014797259253875785,0.012572804434839187,0.017411907567171484
1948,11.0,300.36846,-2311.0203,0.0,0.0,0.019480284841644657,0.0,0.0,0.0,0.17233858246349384,0.16136919767589983,0.3687846747512136,0.006076533601057175,0.009656362720333801,0.029450435356781678
1949,11.0,300.09722,-2243.2776,0.0,0.0,0.01949028926201879,0.0,0.0,0.0,0.19894424014426781,0.15264497245988584,0.3303111530216727,0.022084979538117777,0.016068525385839985,0.03091430918700477
1950,11.0,299.73647,-2252.1451,0.0,0.0,0.019500293682392922,0.0,0.0,0.0,0.18218014896228082,0.16120460532965586,0.34121114030991767,0.00936103466536219,-0.006527072724896925,0.03194394759412217
1951,11.0,299.44745,-2123.5453,0.0,0.0,0.019510265193489307,0.0,0.0,0.0,0.17737922813346685,0.14452343853585287,0.3236020897370397,0.004150155885838496,-0.01962242513108258,0.04344991214442246
1952,11.0,299.92347,-2245.6314,0.0,0.0,0.01952026961386366,0.0,0.0,0.0,0.13779803152710687,0.19348925624340282,0.35132856414842967,-0.011136434265330489,-0.017204298701182084,0.042749120004259664
1953,11.0,300.90199,-2371.697,0.0,0.0,0.019530274034237793,0.0,0.0,0.0,0.17658244878483081,0.18007957004746983,0.3642746276286067,0.005169091838774645,-0.004587478985973926,0.034496028726992964
1954,11.0,300.44545,-2326.058,0.0,0.0,0.019540278454611926,0.0,0.0,0.0,0.16329387637335085,0.18410479726222884,0.35966486656365865,0.004679943427824455,0.012865016644428288,0.016526380682026783
1955,11.0,299.20397,-2161.5252,0.0,0.0,0.019550282874986058,0.0,0.0,0.0,0.16001969039771385,0.18566886024908982,0.3113611267364507,0.01045475404855389,0.013985666188777788,0.04259362664391366
1956,11.0,299.69638,-2204.3276,0.0,0.0,0.01956028729536019,0.0,0.0,0.0,0.16905533803196285,0.16952557727087184,0.3314796127719907,-0.001110784946675939,0.011593644121203589,0.029880721130997573
1957,11.0,300.00206000000003,-2346.24,0.0,0.0,0.019570291715734545,0.0,0.0,0.0,0.17680310425910784,0.18764295515391782,0.34875231497417364,-0.0008869577868034184,0.002993275658988307,0.04953405646963075
1958,11.0,299.6521,-2297.3363,0.0,0.0,0.01958026322683093,0.0,0.0,0.0,0.15652787856559885,0.19152626655967084,0.35027871545481765,0.0013802751240975487,0.0003435168314424717,0.050054059460701045
1959,11.0,300.07751,-2182.0649,0.0,0.0,0.019590267647205062,0.0,0.0,0.0,0.15230316267115185,0.17108297307207485,0.3399071076962197,-0.004519732780312896,-0.0038161170160964262,0.059868218557533145
1960,11.0,299.86475,-2232.3975,0.0,0.0,0.019600272067579416,0.0,0.0,0.0,0.16677859545476584,0.17511031797954285,0.33670418360011567,0.007156515440718082,0.0025173705281701275,0.039453174482725166
1961,11.0,299.529,-2255.9012,0.0,0.0,0.01961027648795355,0.0,0.0,0.0,0.16770608406630186,0.18913641487381083,0.32889515627192467,-0.004324905152409905,0.0028977073281064476,0.05222146424610725
1962,11.0,299.15512,-2347.7070000000003,0.0,0.0,0.01962028090832768,0.0,0.0,0.0,0.1968261218702258,0.16018301618133285,0.35663516770465065,0.008344394939802663,0.0071382871727440934,0.012596126412390888
1963,11.0,299.3085,-2434.5435,0.0,0.0,0.019630285328701813,0.0,0.0,0.0,0.19003949429043782,0.1911792689304248,0.35882167022794165,0.007809098154372983,-0.018159966811249182,0.02843551136761647
1964,11.0,299.87288,-2249.7728,0.0,0.0,0.019640289749075945,0.0,0.0,0.0,0.16481422775089785,0.15819014575215187,0.36087036060513167,0.01114093816202499,-0.0036637478097837567,0.0036824210972016664
1965,11.0,299.95082,-2268.1257,0.0,0.0,0.019650294169450078,0.0,0.0,0.0,0.16932560223113582,0.16668415041294485,0.3534438149246886,-0.005300849511553115,-7.060252222917643e-05,0.02127091008977538
1966,11.0,299.90765,-2644.6886,0.0,0.0,0.019660265680546685,0.0,0.0,0.0,0.22229309922112078,0.18745547348791483,0.3941707339491226,0.007641393711771842,0.018239462361094784,-0.0028062160116519574
1967,11.0,299.9954,-2600.2631,0.0,0.0,0.01967027010092104,0.0,0.0,0.0,0.2244177732233098,0.18938827845116782,0.37660900215591464,-0.02320375862278268,0.01887273556759398,0.024793581466935978
1968,11.0,300.8253,-2235.2069,0.0,0.0,0.01968027452129517,0.0,0.0,0.0,0.17859533090348684,0.17529470923274085,0.3255570342149777,0.0008780192895887571,0.012284342263870188,0.04721326892383686
1969,11.0,300.13759,-2138.5424,0.0,0.0,0.019690278941669304,0.0,0.0,0.0,0.16001399593215185,0.15494204083408883,0.3351074534300307,-0.008143286478504803,0.01028587160138649,0.05450810729003135
1970,11.0,299.80458,-2221.7136,0.0,0.0,0.019700283362043436,0.0,0.0,0.0,0.15022607089365886,0.17402199617963385,0.35109738100561366,-0.00047379696266011955,0.008418469601613262,0.047418673970858756
1971,11.0,299.16212,-2114.1646,0.0,0.0,0.019710287782417568,0.0,0.0,0.0,0.16320867217244187,0.16322591768914382,0.3162186477158507,0.013012209459955088,-0.015544495738872285,0.05326759025885185
1972,11.0,300.28795,-2142.9424,0.0,0.0,0.0197202922027917,0.0,0.0,0.0,0.15149760857664984,0.15756675376062784,0.34233662812349464,0.00916660007717299,-0.006869203004637553,0.04451125818691916
1973,11.0,299.69777999999997,-2168.0812,0.0,0.0,0.019730296623165833,0.0,0.0,0.0,0.16403288020128484,0.18517454618780482,0.3098351416883477,0.007245561886006282,-0.005971382153379535,0.04233888948927306
1974,11.0,299.86039,-2255.0862,0.0,0.0,0.019740268134262662,0.0,0.0,0.0,0.15849466793720585,0.18021252872559182,0.34678267836978566,0.0006003267512826374,0.00043826116707800964,0.029249264681927675
1975,11.0,299.73058,-2574.6028,0.0,0.0,0.019750272554636794,0.0,0.0,0.0,0.19718628161827081,0.20970146049342278,0.37572724152139164,-0.012403678807647789,-0.001132136558083179,0.05083302587257905
1976,11.0,300.87473,-2527.9043,0.0,0.0,0.019760276975010926,0.0,0.0,0.0,0.19827431970815182,0.1914214661018278,0.37872398948714764,0.0029058082626559475,-0.001125172591470889,0.016588988392455685
1977,11.0,300.30127000000005,-2183.0076,0.0,0.0,0.019770281395384837,0.0,0.0,0.0,0.15939361329342486,0.17275738912732683,0.3314288084119767,-0.004383366542104595,0.008779933503861971,0.050398854284229654
1978,11.0,299.96923,-2016.1998,0.0,0.0,0.01978028581575897,0.0,0.0,0.0,0.14445616886171386,0.13901969704017586,0.3293985389216047,-0.009349446630593542,0.01900075870447888,0.012730827880684886
1979,11.0,299.64685,-2278.8082,0.0,0.0,0.019790290236133323,0.0,0.0,0.0,0.19940821749755883,0.16335299951668583,0.32993957394500073,-0.008977563984191582,0.014620893954719886,0.041728864293068255
1980,11.0,300.29474,-2350.3551,0.0,0.0,0.019800294656507456,0.0,0.0,0.0,0.2057812769165308,0.14997925330179987,0.3586887419473227,-0.017694234508784983,0.015233055082135485,0.013367904828059487
1981,11.0,299.69594,-2212.9405,0.0,0.0,0.019810266167604063,0.0,0.0,0.0,0.17079820926397082,0.16551941942299486,0.3363610160562477,0.0024744272664069577,0.016907126632353484,0.06780710503179023
1982,11.0,299.13846,-2289.6558,0.0,0.0,0.019820270587978195,0.0,0.0,0.0,0.19015717315705183,0.15788336401937486,0.34795766345074763,0.00018897624029800284,-0.0004537074555774396,0.0073991697905662025
1983,11.0,299.30926,-2380.9970000000003,0.0,0.0,0.01983027500835255,0.0,0.0,0.0,0.1958966168909908,0.16688911064317283,0.36097790697074567,0.01243040327903529,-0.014318769119402485,0.03496002533203587
1984,11.0,299.75797,-2435.7901,0.0,0.0,0.01984027942872646,0.0,0.0,0.0,0.19073981222955383,0.18419068034070482,0.36548887615094366,0.005636049971209824,-0.02885392286391047,0.01176814301367529
1985,11.0,300.19749,-2472.3851,0.0,0.0,0.019850283849100592,0.0,0.0,0.0,0.19550587725492782,0.1899866127677188,0.36605084492140566,0.023623009090159477,-0.006849444526362544,0.015622292068300184
1986,11.0,300.46587999999997,-2300.9874,0.0,0.0,0.019860288269474724,0.0,0.0,0.0,0.15116961951927985,0.19241874738025183,0.35585434704508967,-0.007957882279181833,0.003266807387083787,0.025077628907219277
1987,11.0,300.5946,-2007.4709,0.0,0.0,0.019870292689848856,0.0,0.0,0.0,0.12951586706472087,0.16414334472718684,0.31656180512721765,-0.0018926575624907585,0.011488875074113688,0.053913059956804746
1988,11.0,300.67323,-2196.5162,0.0,0.0,0.01988029711022321,0.0,0.0,0.0,0.15287962091804386,0.17748098884100985,0.33732545789893065,-0.02215594149562118,0.015165516896719985,0.05152370172374345
1989,11.0,300.51383,-2280.3389,0.0,0.0,0.019890268621319818,0.0,0.0,0.0,0.16468144132529283,0.18808668777021081,0.3403979564421627,0.0008505384371341081,0.007997076414249992,0.06354410854856524
1990,11.0,299.73451,-2083.9987,0.0,0.0,0.01990027304169395,0.0,0.0,0.0,0.14605861376236287,0.15784596495818387,0.3295789886319137,0.007577101675701712,-0.0012064604794183788,0.05318211552016615
1991,11.0,299.69259,-2069.3331,0.0,0.0,0.019910277462068082,0.0,0.0,0.0,0.16028097720100085,0.15563761676273685,0.3131070073212557,0.004471948209571926,-0.016716243485764785,0.050963443319450255
1992,11.0,299.57671,-2378.7685,0.0,0.0,0.019920281882442215,0.0,0.0,0.0,0.18291773424007482,0.18061306649012182,0.3595554254203577,0.004150987662845587,-0.01016291775475189,0.03545955053858517
1993,11.0,299.86016,-2464.2886,0.0,0.0,0.019930286302816347,0.0,0.0,0.0,0.1958170159631348,0.18271979583303982,0.37054538931748265,-0.0024185692201941977,0.006881943206094914,0.03239464934460297
1994,11.0,299.91352,-2457.8022,0.0,0.0,0.01994029072319048,0.0,0.0,0.0,0.18875082254825581,0.18810442977946182,0.3702552654163497,0.017976062931349283,0.01862064806196488,0.017994831362951585
1995,11.0,300.6952,-2466.0224,0.0,0.0,0.01995029514356461,0.0,0.0,0.0,0.1869317346437258,0.18325498440335883,0.3794225139735867,-0.00917858905500621,0.0005101592562162985,0.030571555049177572
1996,11.0,300.44652,-2298.8148,0.0,0.0,0.019960299563938966,0.0,0.0,0.0,0.1918895572505248,0.14904566492466187,0.35784707561925666,0.014695177346051087,-0.013950304773537887,-0.0008471086058106101
1997,11.0,299.33817999999997,-2318.1802,0.0,0.0,0.019970271075035573,0.0,0.0,0.0,0.17757479553526784,0.17864219372061185,0.3484518863195237,0.005383807438315426,-0.018792073766883282,0.03237703601811467
1998,11.0,299.48588,-2376.9101,0.0,0.0,0.019980275495409705,0.0,0.0,0.0,0.18638366766463582,0.15740400552956585,0.37873364576060065,0.016765243247350684,-0.0062724774252703236,0.01131062209002149
1999,11.0,300.215,-2235.6601,0.0,0.0,0.019990279915783837,0.0,0.0,0.0,0.17176462694434882,0.16747203342570285,0.34034817546474966,-0.0010992179875093688,-0.021182875881337083,0.029178157829659972
2000,11.0,299.63473,-2164.2457,0.0,0.0,0.02000028433615797,0.0,0.0,0.0,0.15485627934562485,0.15991307622219184,0.3431072858845527,0.006728601279686244,-0.001836440015142518,0.03285205779749567
2001,11.0,299.90642,-2376.7181,0.0,0.0,0.020010288756532102,0.0,0.0,0.0,0.1927936296522498,0.16815816586341883,0.36151116023337365,-0.009147041411817701,0.009510547722292982,0.027936664025384073
2002,11.0,300.18625,-2546.1624,0.0,0.0,0.020020293176906234,0.0,0.0,0.0,0.2034804392519558,0.2073157428679708,0.3631736098049446,0.013261034300262186,0.013843272125724589,0.041262618272803364
2003,11.0,300.21103,-2424.3286,0.0,0.0,0.02003029759728059,0.0,0.0,0.0,0.19423716653971582,0.18021393714323083,0.3624842349669087,-0.01909062486909798,-0.0051469512095145345,0.02488107763957118
2004,11.0,300.76732000000004,-2261.8593,0.0,0.0,0.020040269108376974,0.0,0.0,0.0,0.16247267769730483,0.17703082208658183,0.3480452386568907,-0.01199573722463709,0.0006355482873462324,0.06170779336583504
2005,11.0,300.40372,-2258.3747,0.0,0.0,0.020050273528751328,0.0,0.0,0.0,0.17041635583128484,0.17407146304951585,0.3420016983029397,-0.01142454179876449,0.003146114405397317,0.024901947551880875
2006,11.0,299.56315,-2288.5515,0.0,0.0,0.02006027794912546,0.0,0.0,0.0,0.14810473048429887,0.1779050846703648,0.36965269571438064,-0.01142509199356879,0.012110131134426888,0.05215675302847075
2007,11.0,299.80317,-2328.7689,0.0,0.0,0.020070282369499592,0.0,0.0,0.0,0.16818460155852782,0.1960201928731868,0.3436827916763507,0.008134283244741252,-0.0034936730712236868,0.027829518906809677
2008,11.0,300.24487,-2357.2788,0.0,0.0,0.020080286789873725,0.0,0.0,0.0,0.17107386395367585,0.1919097006625128,0.35357033946467564,0.024236201706176876,-0.005491095526478934,0.045072946287103455
2009,11.0,299.75563,-2206.2324,0.0,0.0,0.020090291210247857,0.0,0.0,0.0,0.16546274834490185,0.15998927262971185,0.3451875288698567,0.026418022000755773,-0.004918651472508105,0.023712257172217577
2010,11.0,299.97832999999997,-2191.9134,0.0,0.0,0.02010029563062221,0.0,0.0,0.0,0.15204600992827286,0.19018676005997182,0.3240541816666577,0.003408459447088757,-0.0070144521024975235,0.054496211733857346
2011,11.0,300.13376,-2477.0981,0.0,0.0,0.020110300050996344,0.0,0.0,0.0,0.19071930404752982,0.17507674900372983,0.38717991620918263,-0.012855835585272188,-0.01038945007960889,0.025357405498331077
2012,11.0,299.58775,-2434.5368,0.0,0.0,0.02012027156209273,0.0,0.0,0.0,0.20175769116693382,0.18221580523329983,0.35606489028336863,-0.014892840149058884,0.008061994233581882,0.035610963540778466
2013,11.0,299.79581,-2245.6015,0.0,0.0,0.02013027598246686,0.0,0.0,0.0,0.18470558364402181,0.16072488206981084,0.3371763074842107,-0.003933207691027376,0.026384430733440576,0.035754889637982866
2014,11.0,300.5504,-2331.274,0.0,0.0,0.020140280402841215,0.0,0.0,0.0,0.2025361509537618,0.14923279195312986,0.35688014118132766,-0.010535449286517892,0.0018009447495644084,0.022132989354355977
2015,11.0,300.86151,-2498.4339,0.0,0.0,0.020150284823215348,0.0,0.0,0.0,0.1994171138334368,0.18993007341213883,0.37011433245994063,-0.005497324481468685,-0.012721127024227487,0.030815081604711768
2016,11.0,300.57415,-2467.4192,0.0,0.0,0.02016028924358948,0.0,0.0,0.0,0.2087942976788928,0.17158084364121085,0.36965868402247165,-0.0009131108155320211,-0.015354613683382385,0.02352345017508378
2017,11.0,299.68018,-2437.3262,0.0,0.0,0.020170293663963612,0.0,0.0,0.0,0.18159048806658581,0.17359659325764984,0.38569922344054963,0.01904127452297748,0.004054240516797386,0.018373858841108683
2018,11.0,300.03466000000003,-2254.2283,0.0,0.0,0.020180298084337744,0.0,0.0,0.0,0.15072491418289086,0.19393425542232082,0.34056994551413666,0.0034666378360305172,0.004912531847204146,0.03340452633502007
2019,11.0,300.25809,-2193.7305,0.0,0.0,0.0201903025047121,0.0,0.0,0.0,0.15724372962874786,0.15640329946580386,0.35319226545486265,-0.0033146474839302366,0.0010714081226147491,0.019760055905415682
2020,11.0,299.84958,-2372.1704,0.0,0.0,0.020200274015808484,0.0,0.0,0.0,0.1848087629017048,0.2040515070083158,0.3322203087275917,-0.015927550886176884,-0.0006868192186337793,0.059047238743508736
2021,11.0,299.71392000000003,-2458.4072,0.0,0.0,0.020210278436182616,0.0,0.0,0.0,0.2036400666727098,0.18674858968815083,0.35690573587885366,-0.0022922430745767777,0.016620767968592083,0.037564337481061465
2022,11.0,299.68089,-2228.3885,0.0,0.0,0.02022028285655697,0.0,0.0,0.0,0.15890269361997483,0.17227105947682983,0.34620069790984864,-0.01917423117459928,-0.015582870559909586,0.07517165297836452
2023,11.0,300.20221000000004,-2179.1283,0.0,0.0,0.020230287276931103,0.0,0.0,0.0,0.13761277901132388,0.19177656973187382,0.33301125175565166,-0.0007994624450333002,-0.00975738801095422,0.052599845270700545
2024,11.0,300.25789,-2447.3041,0.0,0.0,0.020240291697305235,0.0,0.0,0.0,0.16743817060736085,0.1938761657940878,0.38260501094767463,-0.004061649502853595,-0.011206225918968388,0.04790051998966326
2025,11.0,299.61222000000004,-2506.6566,0.0,0.0,0.020250296117679367,0.0,0.0,0.0,0.21290334094192379,0.18175686373300584,0.36730082064226866,0.016503083022477483,0.014118186129606485,0.01899108520577418
2026,11.0,299.40261,-2260.9204,0.0,0.0,0.0202603005380535,0.0,0.0,0.0,0.16002333809807384,0.18888359884135983,0.33835640947817763,0.01025428251626889,0.005582104029260775,0.043215796655817054
2027,11.0,299.83974,-2153.4313,0.0,0.0,0.020270272049150106,0.0,0.0,0.0,0.16303002604731084,0.14426665056300988,0.3472926674101177,-0.008304630851553252,0.0002065960211894398,0.008164662103939412
2028,11.0,299.72904,-2350.6196,0.0,0.0,0.02028027646952424,0.0,0.0,0.0,0.1760801503127578,0.1839612703855638,0.3544882427302657,0.0005285296325168136,-0.00879946004918909,0.032843110799112674
2029,11.0,299.79169,-2500.0906,0.0,0.0,0.020290280889898593,0.0,0.0,0.0,0.1990693562666158,0.17241925743645584,0.3884765014346456,-0.01054750493620769,0.003703722654053966,0.015491613202903185
2030,11.0,299.93462999999997,-2459.549,0.0,0.0,0.020300285310272725,0.0,0.0,0.0,0.19631578832485982,0.17619611678670283,0.37512958608240765,0.0025345529193908974,-0.003665618573443387,0.025090020955942274
2031,11.0,300.40173,-2328.8142,0.0,0.0,0.020310289730646858,0.0,0.0,0.0,0.18504259062728182,0.17748564979146986,0.34537314615567566,-0.008901142635149382,-0.012586987909738988,0.022551887210697976
2032,11.0,300.46687000000003,-2253.6838,0.0,0.0,0.02032029415102099,0.0,0.0,0.0,0.17805000983216782,0.15733935004068486,0.34967424084266063,0.012601846209205387,0.0013885394958881787,0.03168678370549207
2033,11.0,300.58256,-2493.1362,0.0,0.0,0.020330298571395122,0.0,0.0,0.0,0.1985648489093248,0.19897477950228182,0.36031153290997964,0.001830724980603488,0.01085376079218279,0.032577004978350074
2034,11.0,300.59882999999996,-2603.1036,0.0,0.0,0.020340302991769255,0.0,0.0,0.0,0.21543971872474477,0.1902406447002898,0.38559813147807265,0.00995057984789577,0.003972581171363236,0.025440637914545476
2035,11.0,300.01309,-2377.3323,0.0,0.0,0.02035027450286586,0.0,0.0,0.0,0.16353224345937584,0.18184155117636383,0.37727587270922963,-0.00942074549375519,0.004517915313608526,0.026847059450848476
2036,11.0,299.49281,-2119.1559,0.0,0.0,0.020360278923240216,0.0,0.0,0.0,0.13325113249836287,0.18292955886874182,0.3279897767775707,0.001907643632794768,-0.007317544895635452,0.05289436971701785
2037,11.0,299.74141000000003,-2281.5653,0.0,0.0,0.020370283343614348,0.0,0.0,0.0,0.17420296264749383,0.15733863063311385,0.36199727710134966,-0.004908633063469365,0.0076390713425426434,0.03566238294360317
2038,11.0,299.92219,-2444.8878,0.0,0.0,0.02038028776398848,0.0,0.0,0.0,0.1811323267688688,0.20797859081838882,0.35407391463187465,-0.002718482637168347,-0.006631783307456054,0.06172561947484434
2039,11.0,299.82574,-2377.9694,0.0,0.0,0.02039029218436239,0.0,0.0,0.0,0.16879167009094084,0.2059349464266968,0.34811669305394266,-0.003162162767106167,0.0016904575268601686,0.04928152516045786
2040,11.0,300.19884,-2282.9103,0.0,0.0,0.020400296604736523,0.0,0.0,0.0,0.17132299175576282,0.17311408356002983,0.34951063134901367,0.006564523563168034,-0.0009325628160492842,0.06107912436779024
2041,11.0,300.00028,-2303.9763,0.0,0.0,0.020410301025110877,0.0,0.0,0.0,0.16229550078481886,0.19108837026395384,0.3469674039955167,0.018201160494064682,0.008416424153636392,0.02878966760881897
2042,11.0,300.30257,-2361.7433,0.0,0.0,0.02042030544548501,0.0,0.0,0.0,0.18163675306615182,0.17968437211096683,0.35658986529267966,0.00026517857533108776,-0.0027173782958843573,0.04481079720798136
2043,11.0,299.93695,-2493.78,0.0,0.0,0.020430276956581617,0.0,0.0,0.0,0.2041453339675758,0.16699589707121185,0.38690562940711265,-0.004480733087938926,-0.008396151349610623,0.009050380898653052
2044,11.0,299.47212,-2543.6054,0.0,0.0,0.02044028137695575,0.0,0.0,0.0,0.2044734142174548,0.1971245037596738,0.37159461992853365,-0.0011112240892692789,-3.8989562912720264e-05,0.03479276813802887
2045,11.0,299.37004,-2335.9523,0.0,0.0,0.020450285797330103,0.0,0.0,0.0,0.18193902583598384,0.15491934403184884,0.37321279047073463,-0.005134022036913525,0.016266463792874983,0.016121935825111185
2046,11.0,299.37171,-2392.0752,0.0,0.0,0.020460290217704014,0.0,0.0,0.0,0.19085744043366282,0.17805178301984284,0.35822190722874964,0.0033566377839743563,-0.0012757028501770688,0.037868133165793766
2047,11.0,299.6304,-2581.9305,0.0,0.0,0.020470294638078146,0.0,0.0,0.0,0.2028554057952698,0.18639824833357482,0.39558874706656966,0.0005201221492820594,-0.0030836081213034268,0.01191467113713649
2048,11.0,300.04793,-2432.5723,0.0,0.0,0.020480299058452278,0.0,0.0,0.0,0.1967636955315648,0.17169821853279485,0.3709793136728076,0.011918815330045488,-0.01014335898807159,0.025061284169856177
2049,11.0,299.92588,-2350.2402,0.0,0.0,0.02049030347882641,0.0,0.0,0.0,0.17618858833845982,0.18753789125104883,0.3506878658451977,0.02639195208893287,-0.007301491771651133,0.027893144933589072
2050,11.0,300.94401,-2321.6636,0.0,0.0,0.02050027498992324,0.0,0.0,0.0,0.17597220877960482,0.16811803102695783,0.36163752265334465,-0.0014226745745320485,-0.017798195995545184,0.02946018586249397
2051,11.0,300.39637999999997,-2340.8913,0.0,0.0,0.020510279410297372,0.0,0.0,0.0,0.16956282434454784,0.18785423806476984,0.3541554508674217,0.0006960089106807314,-0.0038963297443628062,0.03917894036966036
2052,11.0,299.86512,-2386.2222,0.0,0.0,0.020520283830671504,0.0,0.0,0.0,0.1843761355065078,0.18584646272661784,0.35512935646603866,-0.01823557046746068,0.006779131454223182,0.046112221715921956
2053,11.0,299.58783,-2490.076,0.0,0.0,0.020530288251045636,0.0,0.0,0.0,0.19164073342346782,0.17720005511828385,0.3880801483930286,-0.009265477784206461,0.024471626313911476,0.027843719606961175
2054,11.0,299.39789,-2372.2654,0.0,0.0,0.02054029267141977,0.0,0.0,0.0,0.18230876079747382,0.18689551095265083,0.35190517438283664,-0.00854221591115107,0.0038367274350555166,0.03688612663262726
2055,11.0,299.00792,-2282.326,0.0,0.0,0.0205502970917939,0.0,0.0,0.0,0.16413308050367384,0.17081522173314984,0.35882182221545667,-0.0037240895890140267,0.01044278655162279,0.03582491433914376
2056,11.0,299.64766000000003,-2501.0825,0.0,0.0,0.020560301512168033,0.0,0.0,0.0,0.18354655725213484,0.20076253771371982,0.37595753300411966,0.0056613353234802955,0.007320042962431993,0.04960053074244125
2057,11.0,299.63738,-2646.139,0.0,0.0,0.020570305932542166,0.0,0.0,0.0,0.2088043491198848,0.2221934055437818,0.3733624373780037,0.009503252422897991,0.007469288217361352,0.042272230804944355
2058,11.0,300.19929,-2305.4887,0.0,0.0,0.020580277443638995,0.0,0.0,0.0,0.17546897811743983,0.17454760953650783,0.3507944090932127,0.0034711492307757568,0.0017984326999164882,0.05304149971103845
2059,11.0,300.30586,-2090.1759,0.0,0.0,0.020590281864013127,0.0,0.0,0.0,0.14448183448674687,0.17332021916037382,0.3175592383931567,-0.004080881496376646,-0.00960980397956381,0.030726341160953765
2060,11.0,300.3389,-2309.3428,0.0,0.0,0.02060028628438726,0.0,0.0,0.0,0.17810666064525885,0.17388645371375683,0.3499894426837687,-0.0052221149125326145,-0.005834706367265683,0.027161957316926475
2061,11.0,300.12232,-2455.2762,0.0,0.0,0.02061029070476139,0.0,0.0,0.0,0.2003415120321678,0.17887986166406783,0.36712127272454864,-0.012352002039297687,-0.013895332915862589,0.030667071096354265
2062,11.0,300.1009,-2499.0170000000003,0.0,0.0,0.0206202951251353,0.0,0.0,0.0,0.18671423037725984,0.2049348077829908,0.36798971925275764,-0.0008311943173549922,-0.015836883240728683,0.032106322949147365
2063,11.0,299.70649,-2520.1002,0.0,0.0,0.020630299545509656,0.0,0.0,0.0,0.2147241919016278,0.16851836614146784,0.38280497585490963,-0.0008524078025086002,-0.001132221367116549,0.024826097675895078
2064,11.0,299.34947,-2421.1738,0.0,0.0,0.02064030396588401,0.0,0.0,0.0,0.18183454961817283,0.18497425704053783,0.3691675515665006,0.0024123770461830776,0.019139324708654284,0.007292126706276872
2065,11.0,299.97266,-2458.4174,0.0,0.0,0.020650308386258143,0.0,0.0,0.0,0.2046375100711498,0.18246822609821184,0.36019175661565866,-0.003336008923863447,0.01910129945890148,0.019852278889767382
2066,11.0,300.3719,-2773.5583,0.0,0.0,0.020660279897354528,0.0,0.0,0.0,0.24615432847604077,0.19294420874961082,0.4039939200910956,-0.003544950011084327,0.018272951290149882,0.001123979286828119
2067,11.0,300.19219,-2518.3726,0.0,0.0,0.020670284317728882,0.0,0.0,0.0,0.19317875588275882,0.2008304356029208,0.37151321541549964,-0.014846831501768184,0.004507237886704746,0.04816559837482445
2068,11.0,300.62696,-2091.0997,0.0,0.0,0.020680288738103014,0.0,0.0,0.0,0.14992895556683586,0.14769636029649585,0.3380167680446577,-0.006852763731040123,-0.005503859741963665,0.024910619959486773
2069,11.0,300.14036,-2259.3334,0.0,0.0,0.020690293158477147,0.0,0.0,0.0,0.15358251251241387,0.18377988848516283,0.34941854717992565,-0.016666695555874786,-0.01001748931162422,0.06638790033222564
2070,11.0,300.67654,-2397.8891,0.0,0.0,0.02070029757885128,0.0,0.0,0.0,0.17754415485224384,0.1895156034587338,0.3618386629306956,-0.006180908696508194,-0.008337211401893701,0.04582677396400046
2071,11.0,300.41306000000003,-2241.2309,0.0,0.0,0.02071030199922541,0.0,0.0,0.0,0.15682348414977285,0.17990747965048584,0.3445472763966687,-0.007182331229415903,-0.001822441965011018,0.06283100339318723
2072,11.0,299.6512,-2176.9948,0.0,0.0,0.020720306419599765,0.0,0.0,0.0,0.15202229987593285,0.17668998501794383,0.3330397646134657,0.01040393550303849,0.004350884580998876,0.03876193729100536
2073,11.0,299.98633,-2347.0479,0.0,0.0,0.020730310839973898,0.0,0.0,0.0,0.16246919211696084,0.18370524235029584,0.3672695213466796,0.014128585115382786,0.0003005894067783647,0.03903970866016926
2074,11.0,300.26375,-2565.1876,0.0,0.0,0.020740282351070283,0.0,0.0,0.0,0.1943270722210888,0.20950045193858477,0.37592544337345263,0.01945292257485398,0.01032471555722009,0.02850583599080697
2075,11.0,299.70261,-2694.7385,0.0,0.0,0.020750286771444415,0.0,0.0,0.0,0.20493022789253879,0.2189332125520258,0.3952697658025886,0.012960413128093188,0.006843903365540674,0.04399374677784476
2076,11.0,300.11658,-2630.3786,0.0,0.0,0.02076029119181877,0.0,0.0,0.0,0.2129478530188168,0.17895203546869082,0.4076695152263486,-0.006000561020484264,0.01861886575503898,0.015569356843325884
2077,11.0,299.37782999999996,-2330.5795,0.0,0.0,0.0207702956121929,0.0,0.0,0.0,0.18428502405751582,0.18591108781799584,0.3382418514218717,-0.013984144287127588,0.010396525605057189,0.03242796602114107
2078,11.0,299.40131,-2284.0171,0.0,0.0,0.020780300032567034,0.0,0.0,0.0,0.18252238431605683,0.16029317673220483,0.35146859531224967,-0.023929652007672775,0.004056782963948307,0.03051484040133027
2079,11.0,300.02996,-2469.9548,0.0,0.0,0.020790304452941166,0.0,0.0,0.0,0.1973909176084668,0.1802189425987248,0.3731947343539527,-0.004779243457499605,-0.006741952065653863,0.04070626493439556
2080,11.0,300.27592999999996,-2399.0669,0.0,0.0,0.0208003088733153,0.0,0.0,0.0,0.18690632233121782,0.17348924954205583,0.36886086102623267,-0.0024970311536127877,-0.015993995774734485,0.024566866757060976
2081,11.0,300.72681,-2227.1039,0.0,0.0,0.020810280384411906,0.0,0.0,0.0,0.16565153710353384,0.15083859071160985,0.36049385713297366,0.011053364982382189,-0.013748988190669486,0.03909203289533326
2082,11.0,300.5863,-2379.7599,0.0,0.0,0.020820284804786038,0.0,0.0,0.0,0.17833446966524183,0.17623158054020283,0.36882152665735063,0.0048482813543881155,-0.007355003941232373,0.018379088224874784
2083,11.0,299.85306,-2593.3151,0.0,0.0,0.02083028922516017,0.0,0.0,0.0,0.19642149057529182,0.2015749819089018,0.3903065729702596,0.01119695265405319,-0.019030172341631783,0.02963927072491827
2084,11.0,299.81175,-2555.417,0.0,0.0,0.020840293645534524,0.0,0.0,0.0,0.2139393587716708,0.17266827378103183,0.39017531655230564,-0.01058650695905689,-0.004959998764038766,-0.0057553187285557346
2085,11.0,300.03108,-2554.5466,0.0,0.0,0.020850298065908657,0.0,0.0,0.0,0.1970172512365888,0.1989881949336058,0.38051293320120266,0.002158092814337178,-0.01061042472766739,0.04868515350935055
2086,11.0,299.64582,-2527.9582,0.0,0.0,0.02086030248628279,0.0,0.0,0.0,0.2130405552704658,0.17880412121909284,0.3765915033266876,-0.0014210145668932185,0.0032605410431653468,0.015815779267645883
2087,11.0,299.44191,-2271.4937,0.0,0.0,0.02087030690665692,0.0,0.0,0.0,0.15903116360015385,0.1849982204054028,0.34644797146425266,-0.0006280430526630235,-0.006486023936845724,0.07020726349766743
2088,11.0,299.94563,-2320.0206,0.0,0.0,0.020880311327031054,0.0,0.0,0.0,0.16229879384764384,0.18779648280906983,0.3551330649614047,0.011995020856816387,0.013196488242391988,0.044233158524722864
2089,11.0,300.26048,-2444.5283,0.0,0.0,0.02089028283812766,0.0,0.0,0.0,0.19152674278721782,0.17502022991315183,0.37652859062797867,-0.006578527490150113,0.0024933077634703175,0.05874563674524295
2090,11.0,300.56874,-2265.4851,0.0,0.0,0.020900287258501793,0.0,0.0,0.0,0.17197819980042683,0.18035214445687084,0.33632057724475667,-0.008939377121047832,0.0029593035109605173,0.03981471022440596
2091,11.0,300.48377,-2150.163,0.0,0.0,0.020910291678876147,0.0,0.0,0.0,0.13219662285429087,0.1844824862370038,0.33691674320609366,-0.006047164445583665,-0.010811868980048388,0.058805164175367845
2092,11.0,300.15949,-2447.0095,0.0,0.0,0.02092029609925028,0.0,0.0,0.0,0.19015704143453882,0.17809899034200183,0.37557375439624363,-0.006402527974280313,-0.004668928082012326,0.016804777226502383
2093,11.0,300.12288,-2688.7709,0.0,0.0,0.02093030051962419,0.0,0.0,0.0,0.20457011880699882,0.2183956732414748,0.3943534229421526,0.004887490384232745,-0.00953323824238236,0.04367357089199586
2094,11.0,300.30343,-2645.7719,0.0,0.0,0.020940304939998544,0.0,0.0,0.0,0.2138649051543228,0.19007702507414181,0.4003066523146906,0.007825020974394442,0.0003805235824597536,0.035248889763294565
2095,11.0,300.26251,-2447.0609,0.0,0.0,0.020950309360372676,0.0,0.0,0.0,0.19597750464647382,0.17791654452899583,0.36995136131385664,0.01880123152128708,-0.0023719209081153676,0.026253758960794273
2096,11.0,300.02537,-2322.5831,0.0,0.0,0.02096031378074681,0.0,0.0,0.0,0.19359581975641982,0.16600543496596085,0.3464060026451107,0.015019565312565685,0.00968151847791648,0.016324011332304482
2097,11.0,299.76239,-2375.5883,0.0,0.0,0.020970285291843416,0.0,0.0,0.0,0.20380369643135882,0.16105123979451988,0.3572645784017687,0.018155899625347784,0.003609184595873786,0.03286434852120867
2098,11.0,299.77817000000005,-2590.3252,0.0,0.0,0.02098028971221777,0.0,0.0,0.0,0.2275387760488288,0.19003600871009382,0.36981940575333366,0.003132132769917437,0.007333546749164712,0.014767972272985385
2099,11.0,299.99971,-2415.8962,0.0,0.0,0.020990294132591902,0.0,0.0,0.0,0.17368789722416084,0.1871474049275108,0.37353682785271464,-0.017189156691687683,-0.0032978079765433065,0.04266874191357696
2100,11.0,300.52029,-2151.6739,0.0,0.0,0.021000298552966035,0.0,0.0,0.0,0.14046574678788987,0.16767634517586685,0.3459130362064587,-0.018295585270883683,0.005403973243130635,0.02043340923287048
2101,11.0,299.67418,-2366.0559,0.0,0.0,0.021010302973339945,0.0,0.0,0.0,0.15966283384499483,0.2061344857688898,0.35342459357029166,-0.029222610124797075,-0.009084718424666903,0.05991817178746314
2102,11.0,299.88232999999997,-2789.677,0.0,0.0,0.021020307393714077,0.0,0.0,0.0,0.22326818018985378,0.2056198965731038,0.41910408313485265,-0.016451142809101385,0.004157820514894936,0.015646549275694185
2103,11.0,299.69727,-2549.4568,0.0,0.0,0.02103031181408843,0.0,0.0,0.0,0.18987557068925984,0.2018441315329648,0.3832515253064806,-0.003083453803313197,-0.004779642475388986,0.05062784475382925
2104,11.0,300.45221000000004,-2237.5719,0.0,0.0,0.02104028332518504,0.0,0.0,0.0,0.16207127867018983,0.17897999103894982,0.3391147258530177,0.01997413234679338,0.015623062138376184,0.02025818080032678
2105,11.0,300.66979,-2430.4507,0.0,0.0,0.02105028774555917,0.0,0.0,0.0,0.17721751341750683,0.18997459562153282,0.37160422553948164,0.01165429423243929,0.004677169149050656,0.04342207411117505
2106,11.0,300.59681,-2646.421,0.0,0.0,0.021060292165933303,0.0,0.0,0.0,0.2174345041966148,0.21116867703572578,0.3758427317677897,0.011430839148135988,0.004009616273118316,0.027011577829835178
2107,11.0,299.97499,-2584.528,0.0,0.0,0.021070296586307657,0.0,0.0,0.0,0.2045416363466878,0.20503078283246282,0.37605954702418765,-0.008754000178152551,-0.007426722593910452,0.053310490254835745
2108,11.0,299.86099,-2374.2422,0.0,0.0,0.021080301006681568,0.0,0.0,0.0,0.17531599761734185,0.17953909231162885,0.3668552540432946,-0.008512228065166503,-0.005418207177885415,0.026425114751455772
2109,11.0,299.89849,-2207.2811,0.0,0.0,0.0210903054270557,0.0,0.0,0.0,0.16256033396345584,0.17734056250965083,0.33105743198532467,-0.004364094930502636,-0.013565364981047287,0.04772046139389286
2110,11.0,299.263,-2356.4854,0.0,0.0,0.021100309847429832,0.0,0.0,0.0,0.16964009479717385,0.16967520391313884,0.37699742144924864,-0.006809892714009084,0.0026499426513789774,0.03634876768059407
2111,11.0,299.72612999999996,-2632.6020000000003,0.0,0.0,0.021110314267803965,0.0,0.0,0.0,0.1957356215826018,0.20833817301387683,0.39617147733158065,0.004471115216664716,0.007460524009296394,0.04064855324844986
2112,11.0,299.22942,-2584.962,0.0,0.0,0.021120285778900794,0.0,0.0,0.0,0.2042402957669478,0.19008150363958382,0.39144209195982665,0.007751617286800062,0.014257955874900686,0.027509438266470176
2113,11.0,299.96496,-2303.7691,0.0,0.0,0.021130290199274926,0.0,0.0,0.0,0.16080684387039984,0.17216341178620584,0.36731801549646564,0.005751358237889865,0.013961123244855588,0.02702448764935927
2114,11.0,300.28882000000004,-2450.7707,0.0,0.0,0.021140294619649058,0.0,0.0,0.0,0.19708678045845082,0.18434798741872982,0.36353832917843965,0.005010378572260865,0.005576385448346395,0.024083732897379376
2115,11.0,300.3495,-2763.3689,0.0,0.0,0.02115029904002319,0.0,0.0,0.0,0.24730715377731577,0.18352511688001882,0.4091628736212316,0.0010625202980375891,-0.005106248649022505,0.009031461898085891
2116,11.0,300.19484,-2656.8899,0.0,0.0,0.021160303460397323,0.0,0.0,0.0,0.21770589310339877,0.1980242394509708,0.3918980443723256,0.005012799328074776,1.5046785263252086e-05,0.017373060571587585
2117,11.0,300.38027,-2420.2597,0.0,0.0,0.021170307880771455,0.0,0.0,0.0,0.17873062005683882,0.19118854016883982,0.36577934455711064,-0.0014317656570792686,-0.013498917052739387,0.049636304550471855
2118,11.0,299.80374,-2445.2234,0.0,0.0,0.021180312301145587,0.0,0.0,0.0,0.2114675858152258,0.16698986823311684,0.36482939219085764,-0.006312081014703894,-0.007047531171887174,0.025338284455693975
2119,11.0,299.8981,-2447.0702,0.0,0.0,0.02119031672151994,0.0,0.0,0.0,0.17367303284519384,0.20226693040219182,0.36790825394471766,-0.005323629704276345,0.0042246392927394365,0.06466225536516775
2120,11.0,299.99472000000003,-2445.157,0.0,0.0,0.02120028823261655,0.0,0.0,0.0,0.17822085393152884,0.19103426270861382,0.3740115557895667,-0.0013159827840523886,0.007306834943403463,0.03829104957203236
2121,11.0,300.05385,-2440.9901,0.0,0.0,0.02121029265299068,0.0,0.0,0.0,0.16398310935637286,0.1970034710352288,0.38101344835309964,0.002106742109869258,0.003148618450369447,0.04143129604345056
2122,11.0,300.01562,-2299.8152,0.0,0.0,0.021220297073364813,0.0,0.0,0.0,0.15919053770838285,0.1913267778799828,0.3485690889585907,0.0015545169550188786,0.0013175743973094687,0.04274566786116896
2123,11.0,299.54033,-2298.1627,0.0,0.0,0.021230301493738946,0.0,0.0,0.0,0.15546918419861386,0.17028073230539983,0.37283415917336665,0.0016419807036508784,0.001937064261373358,0.043194695722484557
2124,11.0,299.67835,-2550.1407,0.0,0.0,0.021240305914112856,0.0,0.0,0.0,0.19606619442772683,0.2044300977756798,0.3746827934508126,-0.0012925985929445488,-0.002521928431094957,0.037125489743500564
2125,11.0,299.8755,-2668.8525,0.0,0.0,0.02125031033448721,0.0,0.0,0.0,0.1927773365906418,0.21785233814035176,0.4006348541545816,-0.007083072439019823,-0.012110248671438489,0.03768964206792806
2126,11.0,300.58092,-2423.9817,0.0,0.0,0.021260314754861565,0.0,0.0,0.0,0.2023955422373848,0.17182051781986482,0.36261384991970064,-0.00018106100409432985,-0.0017813171832023185,0.04064694623379126
2127,11.0,300.78328999999997,-2433.8001,0.0,0.0,0.02127028626595795,0.0,0.0,0.0,0.2024892982691378,0.18575898884548483,0.3515661814293807,0.007961284266392582,0.0045608201731929055,0.03565735823635727
2128,11.0,300.64718,-2557.5652,0.0,0.0,0.021280290686332082,0.0,0.0,0.0,0.2106334276704008,0.18363399060326382,0.38316852999078965,0.02454898390604608,0.012048997702893489,0.03991157592071586
2129,11.0,300.09596,-2474.5339,0.0,0.0,0.021290295106706436,0.0,0.0,0.0,0.18407850342213383,0.1906639501945668,0.37745404260681364,0.015580450918670784,-0.003980147616484986,0.043761443993668256
2130,11.0,300.17863,-2465.6671,0.0,0.0,0.02130029952708057,0.0,0.0,0.0,0.1883432730930338,0.19357338639920582,0.36758458133277366,0.013602857261247488,0.00017786170743358382,0.041544726352395256
2131,11.0,299.88457,-2407.1147,0.0,0.0,0.0213103039474547,0.0,0.0,0.0,0.18104584587283384,0.15878376845573783,0.3918731285523666,0.0009513645633148722,0.003952241290180846,0.018548578622102182
2132,11.0,300.40334,-2284.623,0.0,0.0,0.021320308367828833,0.0,0.0,0.0,0.17460275060694982,0.17836653903090682,0.3414990451933317,-0.007074605619859213,0.006636535349100044,0.020184449630300083
2133,11.0,299.37335,-2502.258,0.0,0.0,0.021330312788202965,0.0,0.0,0.0,0.1918460989537358,0.18667302149569284,0.38210483016831065,-0.02062371786665248,0.002365578671764438,0.021356315927454277
2134,11.0,300.00231,-2791.2064,0.0,0.0,0.02134031720857732,0.0,0.0,0.0,0.2296063432753818,0.2061221747801748,0.41272854125313563,-0.014970753002248286,0.005403597124693515,0.02006440077170218
2135,11.0,299.95432999999997,-2574.5132,0.0,0.0,0.021350288719673705,0.0,0.0,0.0,0.20363314617452682,0.1928623381415308,0.3860922226243356,0.0034790858161590364,0.02289800432560708,0.03973544569558316
2136,11.0,300.45748,-2300.4829,0.0,0.0,0.021360293140047837,0.0,0.0,0.0,0.16362061913309783,0.17375923003120083,0.36190949924518667,0.00988374181829937,0.002148206127811438,0.04761618275985136
2137,11.0,300.10775,-2460.8366,0.0,0.0,0.02137029756042197,0.0,0.0,0.0,0.17027691235252285,0.2029517456147778,0.3748042213427967,0.016916621799040583,-0.011666999375443188,0.05956594781420134
2138,11.0,300.10895,-2584.3796,0.0,0.0,0.021380301980796323,0.0,0.0,0.0,0.2062250804603308,0.2050804422198638,0.3742813640261946,0.01175639640526599,-0.017707681350862085,0.049136612157656044
2139,11.0,299.87089,-2361.9746,0.0,0.0,0.021390306401170456,0.0,0.0,0.0,0.17603580035588082,0.18046483813299283,0.3614806715378647,0.015136401155096485,0.005038235857260165,0.05701126262857354
2140,11.0,300.37208,-2205.8884,0.0,0.0,0.021400310821544588,0.0,0.0,0.0,0.15543302130254485,0.17918571120675283,0.33591624992485264,-0.0009135948349722901,-0.001878119855355998,0.05504599718511695
2141,11.0,299.5724,-2388.5567,0.0,0.0,0.02141031524191872,0.0,0.0,0.0,0.15980727264674985,0.18699735272020182,0.3792569793047496,-0.017006532546664083,-4.751146336201636e-05,0.03681543622615067
2142,11.0,299.71215,-2500.8804,0.0,0.0,0.021420319662292853,0.0,0.0,0.0,0.15585627613431685,0.2152323874892828,0.3891165107278096,-0.01054747453870469,-0.008774698749870342,0.045075998196404655
2143,11.0,299.83934,-2752.8855,0.0,0.0,0.02143029117338946,0.0,0.0,0.0,0.20826897816454779,0.21680549879953678,0.4117339653524786,-0.0069409713065705335,0.004784663433609516,0.02254290069556108
2144,11.0,299.47348,-2734.989,0.0,0.0,0.021440295593763592,0.0,0.0,0.0,0.23016204002772478,0.19286516510930982,0.4083411480551336,0.011405393398374689,0.0016165562321416784,0.012197674929816788
2145,11.0,299.57497,-2391.4482,0.0,0.0,0.021450300014137724,0.0,0.0,0.0,0.17578046133068082,0.19691111328861383,0.35424896371915066,0.010098371291581651,-0.00017131491615246584,0.02007519391176738
2146,11.0,300.31278,-2510.5162,0.0,0.0,0.02146030443451208,0.0,0.0,0.0,0.2065268972676178,0.18227313492395783,0.3743341948864086,0.008003344987318653,0.001142061140162659,0.033352804983665565
2147,11.0,300.34685,-2788.5677,0.0,0.0,0.02147030885488621,0.0,0.0,0.0,0.23906866039423977,0.19225061879115882,0.4163356609466306,0.006516996763252504,0.016535117937639086,0.01251050373919059
2148,11.0,300.66205,-2571.8512,0.0,0.0,0.021480313275260343,0.0,0.0,0.0,0.2069391583358048,0.1988993835623408,0.3759399936448886,-0.001786105296549868,0.0015629494250010984,0.04156029392693166
2149,11.0,299.76049,-2239.979,0.0,0.0,0.021490317695634475,0.0,0.0,0.0,0.16219624280502284,0.14801826985326588,0.3706831710660806,-0.008467927250919351,-0.01136657882679399,0.03378822489613817
2150,11.0,299.8105,-2361.8271,0.0,0.0,0.02150028920673086,0.0,0.0,0.0,0.18682860604854784,0.18587235126667284,0.34523550626209165,-0.0007615497369691072,-0.01762406693935998,0.05200728749296965
2151,11.0,299.98976,-2563.4701,0.0,0.0,0.021510293627105215,0.0,0.0,0.0,0.1954857541079418,0.1856463356993668,0.3980988107442936,0.001141611966393329,0.002417707349659138,0.027054033009025175
2152,11.0,300.51785,-2520.3396,0.0,0.0,0.021520298047479347,0.0,0.0,0.0,0.2085820927104498,0.18471263586471784,0.37282558707752067,0.009223811724194342,0.005623912450911944,0.04207150798663456
2153,11.0,299.7857,-2507.311,0.0,0.0,0.0215303024678537,0.0,0.0,0.0,0.16431986302710785,0.21993843771123378,0.37790163570598767,0.0027098205647134673,0.017471186751021883,0.03282615912493967
2154,11.0,299.46886,-2459.5452,0.0,0.0,0.021540306888227834,0.0,0.0,0.0,0.16659425486407284,0.20096477230117882,0.38008129879110364,-0.009191327736588421,0.009324217007078571,0.038405804198857765
2155,11.0,299.42139,-2574.6544,0.0,0.0,0.021550311308601744,0.0,0.0,0.0,0.17788669418104983,0.22179391142685478,0.38295005300422763,-0.013306165472966288,-0.0018707186713255582,0.03170374855191637
2156,11.0,300.07719,-2760.7716,0.0,0.0,0.0215603157289761,0.0,0.0,0.0,0.2304796432715698,0.2203334026002138,0.3883925739288626,-0.013676365516252188,-0.018741951324186584,0.03672621651509537
2157,11.0,299.29796,-2648.327,0.0,0.0,0.02157032014935023,0.0,0.0,0.0,0.2051958311412518,0.19471151957403082,0.4051179285595266,0.0008374485428022363,-0.01960188756480568,0.026600098990725372
2158,11.0,299.45817999999997,-2318.2331,0.0,0.0,0.021580291660446838,0.0,0.0,0.0,0.17492258300101482,0.19651951238996582,0.3332428807285117,0.017745574878101883,-0.01313850601866959,0.06102309265051034
2159,11.0,299.88793,-2377.5379,0.0,0.0,0.02159029608082097,0.0,0.0,0.0,0.17274903994650284,0.1775717557849678,0.37239135874716567,0.015117890089019587,0.007305416595913483,0.04389255146385755
2160,11.0,299.88677,-2613.4635,0.0,0.0,0.021600300501195324,0.0,0.0,0.0,0.20462886704779681,0.19590180473150282,0.3938969639046036,0.010481996290742491,-0.0008352821228959272,0.051414210931187546
2161,11.0,299.9103,-2495.429,0.0,0.0,0.021610304921569456,0.0,0.0,0.0,0.19099119957936384,0.1924433896226838,0.37511350580332065,0.009742834294467881,0.006988339228870383,0.041127945175512166
2162,11.0,300.43471,-2355.3691,0.0,0.0,0.02162030934194359,0.0,0.0,0.0,0.17796918287169083,0.16740196718128783,0.3706022326480926,-0.005167376507680355,0.001916602688853958,0.03609663457871047
2163,11.0,300.5423,-2483.2919,0.0,0.0,0.0216303137623175,0.0,0.0,0.0,0.1868357798592558,0.19516186871347682,0.3728610710960226,0.0041190020929638554,0.0029489841666420773,0.026616023229296976
2164,11.0,300.17076000000003,-2624.0018,0.0,0.0,0.02164031818269163,0.0,0.0,0.0,0.21479042806066478,0.18882981552605183,0.39401078228833664,-0.015115194843753586,-0.001005166208317181,0.026818741137053678
2165,11.0,299.96783999999997,-2685.9388,0.0,0.0,0.021650322603065986,0.0,0.0,0.0,0.2118768172656138,0.18505853918385584,0.41952298099119456,-0.018400206383458982,0.004801968529417396,0.016650845284560484
2166,11.0,299.94223,-2700.423,0.0,0.0,0.021660294114162593,0.0,0.0,0.0,0.2041964119051168,0.21877209565362482,0.3978926650114486,-0.02042792045707878,0.0007447175959104043,0.032800356711143175
2167,11.0,299.3242,-2488.7083,0.0,0.0,0.021670298534536725,0.0,0.0,0.0,0.2018536662164058,0.17306490040017583,0.3815866338021686,-0.0005426086514638045,0.01303103058056259,0.004133138553059017
2168,11.0,299.62462,-2398.2306,0.0,0.0,0.021680302954910857,0.0,0.0,0.0,0.1820128816357728,0.19249117449739983,0.35449816244874466,0.009183725523738142,-0.008532478273715042,0.035722793927815265
2169,11.0,298.80394,-2643.6058,0.0,0.0,0.02169030737528521,0.0,0.0,0.0,0.2168832454797098,0.20757606708366283,0.37913082966729966,0.012102719209945387,-0.015652164707748384,0.041113524600088956
2170,11.0,299.92165,-2591.7473,0.0,0.0,0.021700311795659122,0.0,0.0,0.0,0.20965644179147977,0.18130978739138284,0.3968602239545546,0.013140633843879588,-0.014756402983343587,0.05111582093573875
2171,11.0,299.46668,-2393.8133,0.0,0.0,0.021710316216033254,0.0,0.0,0.0,0.14529104641410986,0.21759781984773277,0.3647705932875547,0.008072164326160593,0.003067408582679657,0.07200577229266643
2172,11.0,300.01037,-2390.0427,0.0,0.0,0.021720320636407386,0.0,0.0,0.0,0.16335403303178783,0.18008729101323184,0.3830719672562596,-0.013253254565994388,0.013765707830569589,0.04964500431583045
2173,11.0,299.5916,-2552.8507,0.0,0.0,0.02173032505678152,0.0,0.0,0.0,0.19300161950027683,0.19241728830010782,0.39058397045013665,-0.017142488418581882,0.005447591937410464,0.030669551532599072
2174,11.0,300.56272,-2504.0433,0.0,0.0,0.021740296567878348,0.0,0.0,0.0,0.17960139706027783,0.20236409095428082,0.3792011492242397,-0.012659777770422789,0.01111885842909589,0.03874278889061556
2175,11.0,300.30302,-2538.6188,0.0,0.0,0.02175030098825248,0.0,0.0,0.0,0.1982045675712678,0.16675621276005684,0.4067159556897396,0.0070295318984357836,0.0035923618071135067,0.02003285424308878
2176,11.0,300.52695,-2582.9179999999997,0.0,0.0,0.021760305408626612,0.0,0.0,0.0,0.19156621901111381,0.20991922820491482,0.38365711918900963,0.015234998495827285,-0.013186251376631687,0.024956387453253678
2177,11.0,299.66315,-2501.9755,0.0,0.0,0.021770309829000745,0.0,0.0,0.0,0.17405494707288585,0.2013744698466128,0.3851086506197647,0.004556893423755365,-0.013772604010750186,0.035824142242567567
2178,11.0,299.89637999999997,-2563.2506,0.0,0.0,0.021780314249374877,0.0,0.0,0.0,0.2089859539353078,0.18585188361465282,0.38432634048255665,0.002165486702966898,-0.004503352883171326,0.026573134379064174
2179,11.0,300.34038,-2691.0824,0.0,0.0,0.02179031866974901,0.0,0.0,0.0,0.22916639008196177,0.2091559773020878,0.3796995061534236,0.004838654465188015,0.01781706473890738,0.03582017030217557
2180,11.0,299.92271,-2599.7451,0.0,0.0,0.02180032309012314,0.0,0.0,0.0,0.2091903062154758,0.1864596310246328,0.3946076676572446,-0.002871901367934597,0.01253102205371559,0.03297228600136126
2181,11.0,299.38531,-2459.4141,0.0,0.0,0.02181029460121975,0.0,0.0,0.0,0.1893924327765778,0.1942385141623488,0.3639695278909957,-0.004289012186167546,-0.0030225462252270875,0.04649479151642866
2182,11.0,299.62512000000004,-2597.1594,0.0,0.0,0.021820299021594103,0.0,0.0,0.0,0.2007399219714878,0.19440010728829682,0.3943315772699966,0.003129297594812627,0.0006060236891748815,0.04156559626470496
2183,11.0,299.83723,-2652.4009,0.0,0.0,0.021830303441968235,0.0,0.0,0.0,0.2017299990417008,0.18742252259466283,0.41711113164566355,0.0048994281929359155,-0.0013939527845474285,0.02819876041550097
2184,11.0,300.02533,-2422.9516,0.0,0.0,0.021840307862342367,0.0,0.0,0.0,0.1826107295922758,0.19516129116091982,0.35874477467785265,0.0065456830894836246,-0.006029729856413004,0.041355734943743255
2185,11.0,300.33675,-2406.518,0.0,0.0,0.0218503122827165,0.0,0.0,0.0,0.1815386603239708,0.17823860607328082,0.3717441249807886,-0.017778472069098585,-0.0008783396792703773,0.02265519920414408
2186,11.0,300.03947999999997,-2470.6962,0.0,0.0,0.02186031670309041,0.0,0.0,0.0,0.1897744989917848,0.17860890845482683,0.38264656433427563,0.008230188785256392,0.007966457110803103,0.02869871625334277
2187,11.0,300.31743,-2511.0803,0.0,0.0,0.021870321123464764,0.0,0.0,0.0,0.19477200047249982,0.2057138957848808,0.36281981326752766,-0.012551817998767988,0.010399061770057491,0.04329850927473016
2188,11.0,300.04519,-2676.2919,0.0,0.0,0.02188032554383912,0.0,0.0,0.0,0.1978329276995898,0.20293875574849582,0.4127542271431706,-0.0058247200782551144,-0.0026815081277692474,0.04675990333884316
2189,11.0,299.77806,-2658.1285,0.0,0.0,0.021890297054935504,0.0,0.0,0.0,0.19500124830762483,0.23227930717168277,0.38072412491954566,0.006540179114940424,-0.02019306022964988,0.06430675454108253
2190,11.0,299.54627,-2405.3968,0.0,0.0,0.021900301475309636,0.0,0.0,0.0,0.17377714429296884,0.19722371107696482,0.3601797192044706,0.01329688916830079,-0.00912063793806188,0.06324564458585914
2191,11.0,299.4391,-2472.136,0.0,0.0,0.02191030589568399,0.0,0.0,0.0,0.18364503502935384,0.18269522451811482,0.3851273552166106,0.02256571402156258,-0.005311392176193594,0.04051381428990217
2192,11.0,299.87584,-2573.8644,0.0,0.0,0.021920310316058123,0.0,0.0,0.0,0.1937174199009208,0.20561267209989081,0.38306041620511966,0.00027201842893862877,-0.009132165684449581,0.04000161535110206
2193,11.0,300.57767,-2430.4906,0.0,0.0,0.021930314736432033,0.0,0.0,0.0,0.18476146438703683,0.16731285183499284,0.38673415709268966,0.0065392578679495045,-0.0024257184089247676,0.021564944123044275
2194,11.0,300.23985,-2387.9926,0.0,0.0,0.021940319156806387,0.0,0.0,0.0,0.17461936790858984,0.18075845774697083,0.37051230670171764,0.005467781452278015,0.007611290152625853,0.03594918743740857
2195,11.0,300.25475,-2591.2171,0.0,0.0,0.02195032357718052,0.0,0.0,0.0,0.2152452355005508,0.18438031009691982,0.38803976024404263,-0.003337037372714947,0.00932452594703406,0.026906959757010174
2196,11.0,300.42755,-2726.8547,0.0,0.0,0.021960327997554874,0.0,0.0,0.0,0.22451113408752377,0.19249602796537882,0.4118885569202356,-0.018375235847994584,-0.005501294395360484,0.022689919232070678
2197,11.0,300.47008999999997,-2752.5357,0.0,0.0,0.02197029950865126,0.0,0.0,0.0,0.2062564608159278,0.23550665059519676,0.3949390105724456,-0.01867603737868138,-7.786146215757803e-05,0.04056224156518157
2198,11.0,299.98303,-2801.2322,0.0,0.0,0.02198030392902539,0.0,0.0,0.0,0.2337636577731768,0.2040772334283548,0.4136637305654316,-0.0024858955350137877,0.013793233782786185,0.016601801953220287
2199,11.0,300.04497000000003,-2653.8655,0.0,0.0,0.021990308349399523,0.0,0.0,0.0,0.21357773994348178,0.1975264094118388,0.3956046753581416,0.008861988523460172,0.01045073752515749,0.03062222971317877
2200,11.0,299.69307000000003,-2431.1594,0.0,0.0,0.022000312769773878,0.0,0.0,0.0,0.17807146033678484,0.18783513830038484,0.37310513264760964,0.008396023274797982,-0.003968667999477036,0.04194315250371686
2201,11.0,300.12377000000004,-2468.7927,0.0,0.0,0.02201031719014801,0.0,0.0,0.0,0.1953621882582468,0.16956452660471585,0.38552463031581863,0.008871729605946543,-0.012406045759881388,0.04698038352085286
2202,11.0,300.59828,-2454.7162,0.0,0.0,0.022020321610522142,0.0,0.0,0.0,0.17285203681916783,0.2047770143449178,0.3685433591073976,0.018631638785799584,-0.001062826198242779,0.04382122270981796
2203,11.0,300.05829,-2294.901,0.0,0.0,0.022030326030896275,0.0,0.0,0.0,0.16116449075819686,0.17279133300567684,0.3636367664256547,0.006377307166041213,0.004440671610785166,0.06279879115925814
2204,11.0,299.95097000000004,-2442.0394,0.0,0.0,0.02204029754199288,0.0,0.0,0.0,0.19158328214279782,0.17099911649379881,0.37973659110708363,-0.0024797799627102276,-0.005982901793766433,0.02739205526888537
2205,11.0,300.28103,-2673.2371,0.0,0.0,0.022050301962367014,0.0,0.0,0.0,0.2043465755699368,0.2246291270616688,0.3836216351705076,-0.015630886455648384,0.0075036136856990125,0.04453190518420686
2206,11.0,300.50043999999997,-2698.6898,0.0,0.0,0.022060306382741146,0.0,0.0,0.0,0.1972127477108828,0.21459674530404982,0.40852480976825956,-0.017638259533510683,0.012940238305352089,0.03521963317990717
2207,11.0,300.25825,-2769.0311,0.0,0.0,0.02207031080311528,0.0,0.0,0.0,0.21431699708394078,0.2325274217236698,0.39487188275332064,0.003986827366444226,0.0030776244741628875,0.042886310014799256
2208,11.0,299.94678,-2804.4809999999998,0.0,0.0,0.022080315223489633,0.0,0.0,0.0,0.21186161851411378,0.22497776615607679,0.4156528114392386,-0.01096495992440729,-0.007828471192309951,0.03765462313122197
2209,11.0,299.48761,-2540.3751,0.0,0.0,0.022090319643863765,0.0,0.0,0.0,0.18528381507858882,0.19582026849595582,0.3911065136592076,0.005769806381135555,-0.0037124837210436162,0.04276485071206216
2210,11.0,299.37411000000003,-2362.4127,0.0,0.0,0.022100324064237897,0.0,0.0,0.0,0.15812082931281085,0.1989518091225148,0.36104183291955466,0.007688952429065523,0.007792547017964513,0.05111803286070705
2211,11.0,300.08397,-2460.7118,0.0,0.0,0.02211032848461203,0.0,0.0,0.0,0.19051459712982682,0.16332625984654686,0.3941540862499796,0.01004856174051583,0.02312983696173718,0.03114375561914937
2212,11.0,299.79745,-2437.061,0.0,0.0,0.022120299995708415,0.0,0.0,0.0,0.19345620402514083,0.17015606201309585,0.3771934144160916,0.005387689402098545,0.006444479568170613,0.030772668982025974
2213,11.0,300.45175,-2396.6795,0.0,0.0,0.02213030441608277,0.0,0.0,0.0,0.18326248245409885,0.18205851842027684,0.36320971190600765,-0.0009159978386444483,1.7173068306599885e-05,0.03837695291551036
2214,11.0,300.39165,-2785.9320000000002,0.0,0.0,0.022140308836457123,0.0,0.0,0.0,0.2041012474557248,0.2059388879695858,0.4368136379851496,0.004711444056208326,-0.0004408296344914976,0.039360752901353865
2215,11.0,300.42102,-2944.4008,0.0,0.0,0.022150313256831256,0.0,0.0,0.0,0.23302020577730376,0.24047903360593276,0.4215250719962856,-0.0018062017950582383,-0.011241905494739688,0.03749931722214447
2216,11.0,300.43017000000003,-2724.4218,0.0,0.0,0.022160317677205388,0.0,0.0,0.0,0.22830868400481277,0.19994091347263182,0.39990660091020863,0.001695416778149608,-0.007839825470280533,0.016461390820612785
2217,11.0,300.35553,-2643.5662,0.0,0.0,0.022170322097579298,0.0,0.0,0.0,0.2184803708173338,0.1942890044148318,0.39080874985232067,-0.007155819641874414,-0.006757747621462763,0.03172490116100397
2218,11.0,300.13147000000004,-2518.0545,0.0,0.0,0.022180326517953652,0.0,0.0,0.0,0.20564427537050983,0.19595912428965984,0.36382230265146565,-0.00979687386072617,0.013227724716474789,0.02102977581772728
2219,11.0,300.05413,-2373.1737,0.0,0.0,0.022190330938327785,0.0,0.0,0.0,0.17231753725891683,0.17243132524514684,0.37663668414864665,-0.010020090831255971,0.01811628863918848,0.044681537905974456
2220,11.0,299.55644,-2499.9644,0.0,0.0,0.02220030244942439,0.0,0.0,0.0,0.18513259763366482,0.19001149819017482,0.38478264753259067,-0.007728084654552572,0.005241210117292165,0.03998577014603826
2221,11.0,299.76341,-2482.1909,0.0,0.0,0.022210306869798524,0.0,0.0,0.0,0.19079331183483383,0.1833180794870858,0.38041267210380764,0.0009070359860149822,0.0014548809316105688,0.06257525197519655
2222,11.0,300.49802999999997,-2278.0148,0.0,0.0,0.02222031129017288,0.0,0.0,0.0,0.16056332947386684,0.17448538584786685,0.35741092211371167,0.004128090642385826,-0.016592576311059783,0.05829764949178004
2223,11.0,300.01234,-2497.1315,0.0,0.0,0.02223031571054701,0.0,0.0,0.0,0.17291138287752483,0.22219188566863177,0.36396234394778665,0.01113824089025879,-0.006839594620815433,0.058413612925974745
2224,11.0,300.29329,-2867.0351,0.0,0.0,0.02224032013092092,0.0,0.0,0.0,0.2421770786535168,0.2135106323893588,0.41581936949067655,-0.0004456667891438876,-0.0006483022994024554,0.030733243420634968
2225,11.0,300.7192,-2782.8416,0.0,0.0,0.022250324551295053,0.0,0.0,0.0,0.21399385136204882,0.21982859126789278,0.4120919060828046,0.012272943200245186,0.0038820409927776164,0.03006576390400987
2226,11.0,300.26507000000004,-2540.6969,0.0,0.0,0.022260328971669185,0.0,0.0,0.0,0.17435257915725985,0.2179528626827728,0.38000296442587267,-0.008925020988330992,0.0055699430015605745,0.04469475271377866
2227,11.0,300.34123999999997,-2544.8011,0.0,0.0,0.022270300482766014,0.0,0.0,0.0,0.1920246944163618,0.18247100240348582,0.39906030402918563,0.0039015839527563557,-0.01083852961667959,0.017813041122760283
2228,11.0,299.66173,-2657.4573,0.0,0.0,0.022280304903140147,0.0,0.0,0.0,0.21119948997126678,0.1963321725789768,0.40026901007347565,-0.0062983005093688645,-0.00885108007553359,0.036664852062539166
2229,11.0,299.58772999999997,-2625.8608,0.0,0.0,0.02229030932351428,0.0,0.0,0.0,0.2163996820019858,0.1829356181043398,0.39886080521699663,-0.017616778631390682,-0.013884269238020688,0.026502019420795678
2230,11.0,300.22798,-2504.2219,0.0,0.0,0.02230031374388841,0.0,0.0,0.0,0.2071359619027278,0.17574804745998182,0.37833692794894763,-0.0006424680357241584,-0.005245602455150655,0.030056607162856172
2231,11.0,300.22406,-2480.8636,0.0,0.0,0.022310318164262766,0.0,0.0,0.0,0.18608516418517582,0.1932539694376818,0.37478144348054865,-0.008727194342782022,0.007941006801416352,0.04789668686453496
2232,11.0,299.64657,-2631.8938,0.0,0.0,0.022320322584636676,0.0,0.0,0.0,0.1970420252015338,0.2016514924239528,0.4013364893188276,-0.009685435398828051,0.02022447402250018,0.03849045009896166
2233,11.0,300.14992,-2817.0215,0.0,0.0,0.022330327005010808,0.0,0.0,0.0,0.2230280804461578,0.21964906361517478,0.41362704077931056,0.007294671483903024,0.019549158029601683,0.05109284042347075
2234,11.0,299.69177,-2853.6865,0.0,0.0,0.02234033142538494,0.0,0.0,0.0,0.2321092432748988,0.2245400319803758,0.4108001641928196,0.007744379945310793,0.0036490840543365564,0.03387847710904537
2235,11.0,300.18805,-2506.077,0.0,0.0,0.02235030293648177,0.0,0.0,0.0,0.1918391277930478,0.17934224821470182,0.3906034653820606,0.03258144605353837,-0.0069171637795709135,0.026657865392176475
2236,11.0,301.14497,-2420.4514,0.0,0.0,0.022360307356855902,0.0,0.0,0.0,0.19258470761413082,0.19333848462852282,0.3498336048183887,0.011770504899658387,-0.010146258909857792,0.015990436227133184
2237,11.0,300.16624,-2731.9388,0.0,0.0,0.022370311777230034,0.0,0.0,0.0,0.21638837413086978,0.19709522083178382,0.4169575735930086,0.008005662188972341,0.007001783132522192,0.022818280794488978
2238,11.0,299.95222,-2679.6625,0.0,0.0,0.022380316197604166,0.0,0.0,0.0,0.21090766380996578,0.1997241691437408,0.4039186457411666,-0.015032285654321086,0.002290950370099198,0.04432223840726436
2239,11.0,299.87113,-2454.6973,0.0,0.0,0.0223903206179783,0.0,0.0,0.0,0.17362755818070583,0.2006370264238328,0.37190210080387964,-0.012149395589051988,0.01111022047199339,0.06088995462712065
2240,11.0,299.78355,-2489.7078,0.0,0.0,0.02240032503835243,0.0,0.0,0.0,0.17949978834024985,0.18453109184430083,0.39277812301168263,-0.02004159048545098,0.005534708749208224,0.05158463757150735
2241,11.0,300.12227,-2595.7959,0.0,0.0,0.022410329458726563,0.0,0.0,0.0,0.1908514622580728,0.21989389523683778,0.3783117790814656,-0.0025162905048885377,-3.413353343746747e-05,0.04727663657184075
2242,11.0,300.26085,-2651.1492,0.0,0.0,0.022420333879100696,0.0,0.0,0.0,0.19503227402568682,0.21247409780206078,0.3983767857767276,0.01163968012624699,-0.005532342810224725,0.046488818407089155
2243,11.0,298.99491,-2790.4617,0.0,0.0,0.022430305390197303,0.0,0.0,0.0,0.2128128577079938,0.2098268096632938,0.4255910116000626,0.012898898714522187,-0.0037340216691442467,0.025925848936932075
2244,11.0,299.97584,-2599.6839,0.0,0.0,0.022440309810571657,0.0,0.0,0.0,0.1865411875251818,0.20903821737546582,0.3946595663273666,0.016649933359470483,0.006690804720481013,0.04104849116892066
2245,11.0,300.70462000000003,-2463.4877,0.0,0.0,0.02245031423094579,0.0,0.0,0.0,0.18030242427446383,0.18670386482873683,0.3818324685414306,-0.004350669366677636,0.004631941616262045,0.03111993917554887
2246,11.0,300.41187,-2706.7286,0.0,0.0,0.02246031865131992,0.0,0.0,0.0,0.21452273751674578,0.1994808675297288,0.40877430234038264,-0.00016243945322652587,0.00989139641617982,0.03135879262162187
2247,11.0,300.38018,-2766.1701,0.0,0.0,0.022470323071694054,0.0,0.0,0.0,0.23588327565736678,0.1977993080612718,0.4071640452814626,-0.006293355950205874,-0.008181421868543473,0.012781270510413187
2248,11.0,300.24345,-2542.6521,0.0,0.0,0.022480327492067964,0.0,0.0,0.0,0.1962469886430698,0.18017962849484484,0.3964761312391476,0.010978551661248689,-0.016281126535072084,0.02203219224765808
2249,11.0,299.88634,-2515.5987,0.0,0.0,0.02249033191244232,0.0,0.0,0.0,0.18429953379894784,0.2008221978796078,0.37955744848940365,0.012724437312304188,-0.01114047206697899,0.03177905025959807
2250,11.0,300.24242000000004,-2666.5796,0.0,0.0,0.022500336332816673,0.0,0.0,0.0,0.2023276342156828,0.2005999617351748,0.4076460280890306,-0.004565730991127566,-0.016329508214096983,0.041006636847039965
2251,11.0,299.37655,-2756.4397,0.0,0.0,0.022510307843913058,0.0,0.0,0.0,0.2103215188921178,0.2086725151493738,0.4188948064591986,-0.015677858703784187,0.00862264770408907,0.04437261517573616
2252,11.0,299.18667999999997,-2720.0466,0.0,0.0,0.02252031226428719,0.0,0.0,0.0,0.1958168538431188,0.22934887642497176,0.4016605064358056,-0.01073547093575849,0.007009188673528062,0.06357204689357253
2253,11.0,299.58407,-2627.474,0.0,0.0,0.022530316684661544,0.0,0.0,0.0,0.2147486112290378,0.18859784204815783,0.3953400448295246,0.008675328299313242,0.016306421310568486,0.03133453845397818
2254,11.0,299.91719,-2434.5099,0.0,0.0,0.022540321105035677,0.0,0.0,0.0,0.17278951928799782,0.1950389716088478,0.3722017188584496,0.00991348800413509,-0.0066098146267379145,0.04120134197300586
2255,11.0,299.97785,-2428.1118,0.0,0.0,0.022550325525409587,0.0,0.0,0.0,0.17196455132157984,0.17958013907317982,0.3865406567210926,0.015170990473760186,-0.013358316442363188,0.02442962912376668
2256,11.0,300.40387000000004,-2636.1208,0.0,0.0,0.02256032994578394,0.0,0.0,0.0,0.2049268436372048,0.1882614328824568,0.4081266024789596,0.012809694202218386,-0.012052022254441987,0.027991202212016574
2257,11.0,300.36612,-2700.597,0.0,0.0,0.022570334366158074,0.0,0.0,0.0,0.19524669801184882,0.2247473024208318,0.4009200637927296,0.007081133787603494,-0.0012609447611455589,0.04689688158011186
2258,11.0,300.71142000000003,-2516.9482,0.0,0.0,0.02258030587725468,0.0,0.0,0.0,0.18116657462224883,0.1976723174262388,0.38625052268745863,-0.006389641358183504,-0.004387745809036796,0.05857665601281584
2259,11.0,299.68415,-2711.631,0.0,0.0,0.022590310297628813,0.0,0.0,0.0,0.2110557199145778,0.21557255581285478,0.3976398287139956,-0.017745046974799786,0.0016948534110940085,0.04824138745580425
2260,11.0,299.91435,-2799.2067,0.0,0.0,0.022600314718002945,0.0,0.0,0.0,0.2179279975253188,0.21666445438561682,0.4162964886977646,-0.017406518089889585,0.003282924852449457,0.047205596594079656
2261,11.0,299.80609,-2614.7127,0.0,0.0,0.022610319138377077,0.0,0.0,0.0,0.19743054581987782,0.19573143685968883,0.40164537861181265,-0.014209171935586086,-0.002221214850516838,0.03830510335091936
2262,11.0,299.52257000000003,-2531.8887,0.0,0.0,0.022620323558751432,0.0,0.0,0.0,0.1973799035798798,0.19557721006196782,0.3766738096323106,-0.00903632043231539,-0.013747152181488288,0.03728912760815036
2263,11.0,298.97323,-2544.1771,0.0,0.0,0.022630327979125564,0.0,0.0,0.0,0.1966337563387408,0.17324750833319782,0.4034850557583746,-0.005581873109562985,0.007564278286411143,0.017019654135459084
2264,11.0,299.368,-2564.3211,0.0,0.0,0.022640332399499696,0.0,0.0,0.0,0.2017098049672078,0.1950918632640678,0.38268790493835564,-0.0032980637208685467,0.015103711680370285,0.03789925210286496
2265,11.0,299.84595,-2839.525,0.0,0.0,0.02265033681987383,0.0,0.0,0.0,0.2348334776262598,0.21562653164568182,0.41268469792130863,0.016413845072920385,0.02211485927031668,0.003032849357543927
2266,11.0,300.65754,-2938.2479,0.0,0.0,0.022660308330970436,0.0,0.0,0.0,0.23850480697859175,0.2182815610152128,0.43636762555613157,0.011575916297453989,0.01023065960343749,0.03362073161485787
2267,11.0,300.51621,-2571.7618,0.0,0.0,0.022670312751344568,0.0,0.0,0.0,0.1989372689835798,0.1884875599072738,0.39432654141699963,0.014832811160134487,-0.0004367472093085936,0.021040937780828876
2268,11.0,299.9713,-2537.8736,0.0,0.0,0.0226803171717187,0.0,0.0,0.0,0.19034809987339482,0.1953154267661318,0.3857866567916786,0.001146733236373759,-0.01313576416389899,0.056497527602621854
2269,11.0,300.1967,-2794.3083,0.0,0.0,0.022690321592093055,0.0,0.0,0.0,0.2201468531243028,0.2100272102680718,0.4192258960618746,-0.005186337456801655,-0.01077832938848829,0.048528484778888555
2270,11.0,299.85749,-2601.2874,0.0,0.0,0.022700326012467187,0.0,0.0,0.0,0.1973884858082268,0.20871635848120082,0.38462157116419365,-0.0033905278587440467,-0.02371057517705158,0.06895251435558335
2271,11.0,299.52678,-2317.6201,0.0,0.0,0.02271033043284132,0.0,0.0,0.0,0.17188972280169484,0.17703703330969484,0.3555718731822117,-0.02140487999149718,-0.00021355440479367882,0.05247397630352825
2272,11.0,300.16147,-2431.8552,0.0,0.0,0.02272033485321545,0.0,0.0,0.0,0.17769437931206983,0.18660740341921683,0.37492148477686965,-0.008304535403393832,0.01018153521208929,0.04855004572776646
2273,11.0,300.6953,-2658.9922,0.0,0.0,0.022730339273589584,0.0,0.0,0.0,0.20821163834138878,0.2082204941472628,0.3918350810111116,-0.0069011568597911535,0.026793012690514473,0.03248873062963807
2274,11.0,300.01673,-2724.2798,0.0,0.0,0.02274031078468597,0.0,0.0,0.0,0.19611195280224283,0.2199273122251358,0.4120737486410126,0.01116467861186799,0.014907849422790186,0.03655657919660346
2275,11.0,299.95414,-2865.8504,0.0,0.0,0.022750315205060323,0.0,0.0,0.0,0.21775265459551377,0.2384716331703178,0.4149226735496796,0.005825520140534074,-0.0023178751610314677,0.04339310731731626
2276,11.0,299.71221,-2822.487,0.0,0.0,0.022760319625434677,0.0,0.0,0.0,0.2221050704000638,0.21481272969536577,0.4210477602716786,0.005346312624989975,-0.011545489410201091,0.029961722370491765
2277,11.0,299.2501,-2690.7314,0.0,0.0,0.02277032404580881,0.0,0.0,0.0,0.21430977261072778,0.2092042586693528,0.3944011267568606,-0.014107875296588886,0.002922105985214407,0.04675131300449536
2278,11.0,299.59513,-2774.2446,0.0,0.0,0.022780328466182942,0.0,0.0,0.0,0.2132549083291208,0.21048404420815778,0.4195621228425576,-0.006623934672181453,-0.01255233272981879,0.03439676466769637
2279,11.0,299.63351,-2748.0252,0.0,0.0,0.022790332886556852,0.0,0.0,0.0,0.22921420535418077,0.18849312265032284,0.41762371460625164,-0.015713251529777185,-0.007165567006511404,0.02947188890114897
2280,11.0,299.81144,-2510.1543,0.0,0.0,0.022800337306931207,0.0,0.0,0.0,0.17149834481806883,0.19607066286066782,0.3954552209683916,-0.00026215078138226776,-0.017590585103055584,0.037060053038792465
2281,11.0,300.07819,-2501.4018,0.0,0.0,0.02281030881802759,0.0,0.0,0.0,0.19416964355305183,0.17552612542307983,0.3906679283534226,0.0028855364718802777,-0.004612693309412386,0.03541938226487087
2282,11.0,300.38484,-2762.4754,0.0,0.0,0.022820313238401946,0.0,0.0,0.0,0.22437392989148278,0.2058871311544778,0.4094624815433006,0.014235557981440187,-0.004689338586726686,0.028447868965836075
2283,11.0,300.17872,-2775.6454,0.0,0.0,0.022830317658776078,0.0,0.0,0.0,0.22705334819092077,0.21616539831386378,0.4005081573620776,0.009299914507405102,0.007991168254241903,0.03190577744960507
2284,11.0,299.92229,-2683.7827,0.0,0.0,0.022840322079150432,0.0,0.0,0.0,0.2012940583186768,0.2035385187476878,0.4109703598121166,0.009012564682395882,0.017139110242748484,0.03154013905826936
2285,11.0,300.07886,-2839.7054,0.0,0.0,0.022850326499524565,0.0,0.0,0.0,0.23332237722212576,0.21610904134330178,0.4137681054582326,0.003366535717576207,0.025136856415314577,0.025751858696010575
2286,11.0,299.79753999999997,-2852.8562,0.0,0.0,0.022860330919898475,0.0,0.0,0.0,0.22193267602804978,0.2102918103991858,0.43497255242094857,0.01001359326366471,0.016400670795120184,0.03967828217794156
2287,11.0,299.943,-2612.8923,0.0,0.0,0.022870335340272607,0.0,0.0,0.0,0.1977805426694198,0.2034584618572868,0.3930150107525616,-0.004988775877478846,-0.007463380665303322,0.04808603392397205
2288,11.0,299.85405,-2596.9984,0.0,0.0,0.02288033976064674,0.0,0.0,0.0,0.1930008291651988,0.19443673627941183,0.40198509097283963,0.003191157526667727,-0.022215407117489983,0.043710185697609455
2289,11.0,299.69054,-2545.5254,0.0,0.0,0.02289031127174357,0.0,0.0,0.0,0.18931347019628483,0.19141941933662582,0.3930432804303516,-0.0010521519124143091,-0.01173870505851999,0.04377157750791836
2290,11.0,299.77356000000003,-2386.1006,0.0,0.0,0.0229003156921177,0.0,0.0,0.0,0.17297633220893482,0.18219711076895484,0.3701415483576267,0.01936674261409868,-0.015232971995627285,0.050052983389094856
2291,11.0,300.10316,-2624.9818,0.0,0.0,0.022910320112491833,0.0,0.0,0.0,0.1925125946045138,0.21024446122201282,0.39517187571042767,0.010792009278088389,-0.004345834339850457,0.05334471986971395
2292,11.0,300.04516,-2863.73,0.0,0.0,0.022920324532865965,0.0,0.0,0.0,0.21518879746998076,0.2276798305952498,0.4276337947291696,-0.0037406076934692364,-0.014929963606222686,0.03798090992842396
2293,11.0,300.05046,-2770.3928,0.0,0.0,0.02293032895324032,0.0,0.0,0.0,0.2065813290629898,0.2206805826144778,0.41486832281431557,0.00955853899605435,-0.005762213490186194,0.05110495180191605
2294,11.0,300.1012,-2683.0213,0.0,0.0,0.02294033337361423,0.0,0.0,0.0,0.2207220954710748,0.19621981327538782,0.39862957141167565,-0.00929112213098736,-0.01100738673259449,0.026316236975210378
2295,11.0,300.31466,-2744.1888,0.0,0.0,0.022950337793988362,0.0,0.0,0.0,0.22092626536622478,0.19642328402796883,0.4168153132789686,0.005685603777950405,0.007803289698174732,0.02267420676276998
2296,11.0,300.5697,-2710.0440000000003,0.0,0.0,0.022960342214362495,0.0,0.0,0.0,0.21303120297204278,0.19878068131312582,0.4119738117836496,0.0006506803973871554,0.0028796688418761874,0.017069081488587184
2297,11.0,300.31737000000004,-2611.1422,0.0,0.0,0.022970313725459324,0.0,0.0,0.0,0.19800648730921883,0.18301166252434484,0.41270387874570164,-0.005205645849382245,0.02067401154861608,0.027383564233047372
2298,11.0,300.11249,-2708.0607,0.0,0.0,0.022980318145833456,0.0,0.0,0.0,0.21863081819218178,0.2010805563901058,0.4034714478095316,-0.003733895519506796,0.003783348710512447,0.025135928278222978
2299,11.0,300.2617,-2737.2790000000005,0.0,0.0,0.02299032256620759,0.0,0.0,0.0,0.2258612695807718,0.1983257218857248,0.40787746454437157,0.004180467769205045,-0.007877363042760203,0.03291656535186207
2300,11.0,299.50678,-2683.1740000000004,0.0,0.0,0.02300032698658172,0.0,0.0,0.0,0.2039167143475128,0.21757387674786982,0.39412730604983665,0.002181740957096068,-0.01092386756660179,0.04978774693691805
2301,11.0,299.80262,-2830.0439,0.0,0.0,0.023010331406955853,0.0,0.0,0.0,0.2210601562344388,0.22338186685107378,0.41582064618580256,0.01181344846539659,-0.020618400330127677,0.042034977280779255
2302,11.0,299.80967000000004,-2840.2861,0.0,0.0,0.023020335827329985,0.0,0.0,0.0,0.2192531564036018,0.2135638482846108,0.43055903763536857,0.012057100663943188,-0.015230578698891085,0.05053832816049465
2303,11.0,299.83544,-2622.638,0.0,0.0,0.023030340247704117,0.0,0.0,0.0,0.19197267415622782,0.21940964274904579,0.3858341478238656,0.01010033385570034,-0.003921698183141476,0.04487578706939536
2304,11.0,299.64205,-2598.6168,0.0,0.0,0.023040311758800724,0.0,0.0,0.0,0.17576671152682383,0.2118320518761958,0.4023158664679846,0.014694682880002285,0.012606171773882287,0.04779696785594346
2305,11.0,300.03502000000003,-2746.2729,0.0,0.0,0.023050316179174857,0.0,0.0,0.0,0.2150564163444158,0.2175517980281908,0.4021901525280776,0.003145109261298117,0.013695088351599986,0.043388096795571755
2306,11.0,300.36936000000003,-2680.0934,0.0,0.0,0.02306032059954921,0.0,0.0,0.0,0.20152320482879182,0.21401704465683777,0.3991412120496706,-0.009720447648083492,0.004112757939222606,0.043545895299895256
2307,11.0,300.35916000000003,-2585.5523,0.0,0.0,0.023070325019923343,0.0,0.0,0.0,0.1931471627446408,0.1996929914381638,0.39310319390876464,-0.015853116520580784,0.007186389701366443,0.04583404302021786
2308,11.0,299.75614,-2722.5155,0.0,0.0,0.023080329440297476,0.0,0.0,0.0,0.2018564931841848,0.21444676402424778,0.4112734735795316,0.0018431972787344081,-0.003155536516752207,0.03969925341526126
2309,11.0,300.14758,-2745.8183,0.0,0.0,0.023090333860671608,0.0,0.0,0.0,0.21432435327966678,0.2183578587477428,0.40197800835464065,-0.010471736120229889,0.006256627761906084,0.06407058823427474
2310,11.0,300.37166,-2753.6924,0.0,0.0,0.023100338281045518,0.0,0.0,0.0,0.21934282903745178,0.2022688555773818,0.41544203515343664,-0.01250826648296979,-0.00933322024084212,0.04305129550208205
2311,11.0,300.80507,-2798.6371,0.0,0.0,0.023110342701419873,0.0,0.0,0.0,0.24244141533960478,0.2048269473098458,0.40344744391466264,0.0008173884301049571,-0.01022172780380599,0.052381372337138944
2312,11.0,300.88,-2656.3621,0.0,0.0,0.02312031421251648,0.0,0.0,0.0,0.2010786514799178,0.1957108374851558,0.4106782499407876,0.0068350280039397434,-0.0008802866393375271,0.020353203394704783
2313,11.0,300.38267,-2570.7227,0.0,0.0,0.023130318632890612,0.0,0.0,0.0,0.18992889804202281,0.1984991396403398,0.3930074721718176,0.012367555428332688,-0.008014859358805032,0.029383842533709473
2314,11.0,299.70391,-2734.5845,0.0,0.0,0.023140323053264744,0.0,0.0,0.0,0.20969658676044178,0.2005961113847948,0.4209527072797976,-0.0037354209675323465,-0.006369127603283954,0.004060113111726966
2315,11.0,300.13812,-2767.1272,0.0,0.0,0.0231503274736391,0.0,0.0,0.0,0.22997551081681578,0.18442915888424083,0.42673288366775664,-0.012393141006607789,0.006805559448631424,0.015096455796404186
2316,11.0,299.57571,-2740.5290000000005,0.0,0.0,0.02316033189401323,0.0,0.0,0.0,0.2147611856627788,0.2139165809094228,0.4043746184186676,0.004123005950734006,0.02145454444514868,0.02662288090597377
2317,11.0,299.78654,-2699.5951,0.0,0.0,0.02317033631438714,0.0,0.0,0.0,0.21934899973056077,0.19905580911277881,0.40220469266701264,-0.004570388597862235,0.019338888368849682,0.03328392525511767
2318,11.0,299.88968,-2805.9805,0.0,0.0,0.023180340734761495,0.0,0.0,0.0,0.21539438591527077,0.2144462776641998,0.4231073329549426,-0.0025683583877772376,0.008753155228894163,0.04796326651535586
2319,11.0,300.50198,-2703.7164,0.0,0.0,0.023190345155135628,0.0,0.0,0.0,0.2036404010452428,0.2132139730250808,0.4050078997311676,0.007596067691073513,-0.009605535562192551,0.054037362439322445
2320,11.0,300.08032000000003,-2613.3678,0.0,0.0,0.023200316666232235,0.0,0.0,0.0,0.17819392174387083,0.20865857282799777,0.4075460507016636,0.015385772137207486,-0.006904352853256574,0.06327171044468165
2321,11.0,300.03961,-2644.2459999999996,0.0,0.0,0.023210321086606367,0.0,0.0,0.0,0.18752183123696384,0.2168761831265128,0.39938675294640363,0.015436199568184287,-0.026166396537172277,0.04583442805525586
2322,11.0,300.13383999999996,-2608.4875,0.0,0.0,0.0232203255069805,0.0,0.0,0.0,0.18762871899001282,0.2167730646638358,0.38851328241327565,0.004261228361800496,-0.014577808533967685,0.052346594553956655
2323,11.0,300.26313999999996,-2573.6578,0.0,0.0,0.02323032992735463,0.0,0.0,0.0,0.21174425375503078,0.18537970906805282,0.38520372387664764,-0.01125791889932009,0.007550996097475293,0.03360545180334987
2324,11.0,299.18955,-2732.59,0.0,0.0,0.023240334347728764,0.0,0.0,0.0,0.20367830673148382,0.21819469508413977,0.40876612541207563,-0.004761390902662695,0.010978558753999388,0.039473538783234965
2325,11.0,299.32633,-2762.5903,0.0,0.0,0.023250338768103118,0.0,0.0,0.0,0.1963369753844508,0.2179628127987548,0.42545866087200057,-0.005883192309725874,0.013153916539440489,0.029244095079917473
2326,11.0,299.32929,-2812.6017,0.0,0.0,0.02326034318847725,0.0,0.0,0.0,0.21012366154509082,0.22310493546624277,0.42173207899171555,-0.0012506041385750189,-0.003421735151223967,0.033951829323534674
2327,11.0,299.77122,-2941.5816,0.0,0.0,0.023270314699573635,0.0,0.0,0.0,0.23828707979710376,0.2243366118902998,0.4315436634200436,0.018004559577161683,-0.013015756848555188,0.02642163322411218
2328,11.0,299.89168,-2819.8482,0.0,0.0,0.02328031911994799,0.0,0.0,0.0,0.24731761051834777,0.1985233157877258,0.4113225351493736,0.0008755600404035482,-0.0004943558882491275,0.03537436964242847
2329,11.0,300.02203,-2652.8520000000003,0.0,0.0,0.023290323540322122,0.0,0.0,0.0,0.2119167899820588,0.1998213094308278,0.39466267700517366,0.0007305109885108212,-0.013874291764285986,0.037586079801707264
2330,11.0,299.66648,-2717.8922,0.0,0.0,0.023300327960696254,0.0,0.0,0.0,0.2099600723164458,0.2035485093936738,0.41266278132164563,-0.015844243489455085,-0.00017516034213697982,0.04234893789051476
2331,11.0,300.20218,-2746.4041,0.0,0.0,0.02331033238107061,0.0,0.0,0.0,0.2127926535009998,0.19205881054722881,0.4299868046413936,-0.014729827459720787,0.005628291515194125,0.024884795254188078
2332,11.0,300.01371,-2693.2468,0.0,0.0,0.02332033680144474,0.0,0.0,0.0,0.1995589891124388,0.1981038707763298,0.42101690680613363,-0.01024190971929779,0.002599825781557827,0.037717205510398366
2333,11.0,300.22476,-2660.4458,0.0,0.0,0.023330341221818873,0.0,0.0,0.0,0.2008773085525468,0.1895206595767328,0.41831112373909357,0.016514205468825184,-0.00988548136607105,0.01784660705882298
2334,11.0,300.22825,-2683.5325,0.0,0.0,0.023340345642193006,0.0,0.0,0.0,0.2045155654216148,0.2116382069995648,0.3995730997722946,0.013320604286891288,-0.013999084659852088,0.03599544635747397
2335,11.0,300.59168999999997,-2737.8737,0.0,0.0,0.02335031715328939,0.0,0.0,0.0,0.2166010755918618,0.2050890041832088,0.4105551704511406,0.030788023774041367,-0.006090270131337864,0.026290664569186575
2336,11.0,300.08347000000003,-2828.1453,0.0,0.0,0.023360321573663523,0.0,0.0,0.0,0.2150130391076348,0.22051852339348377,0.42415397977823865,0.001059549955369439,0.013878822005483087,0.05619164360943345
2337,11.0,300.40652,-2827.6374,0.0,0.0,0.023370325994037877,0.0,0.0,0.0,0.2044918452367738,0.24112315669450277,0.4139161615628446,0.008544045131556603,0.017077298946898183,0.04208850323056186
2338,11.0,300.50506,-2624.3057,0.0,0.0,0.02338033041441223,0.0,0.0,0.0,0.17618859847096083,0.22386161037592078,0.3976731849072876,-0.010969243945830091,0.012502489944149688,0.06666962945628013
2339,11.0,300.01209,-2625.6365,0.0,0.0,0.023390334834786364,0.0,0.0,0.0,0.18721951793712782,0.2169045135993088,0.3940039225851596,0.005323603359773745,0.003202988741460377,0.04270435866784206
2340,11.0,299.42264,-2687.3142,0.0,0.0,0.023400339255160496,0.0,0.0,0.0,0.2242530491545528,0.20058881598407483,0.3920345392932966,-0.015114849325469486,-0.014329506530712187,0.05562418504992965
2341,11.0,299.44087,-2726.6757,0.0,0.0,0.023410343675534406,0.0,0.0,0.0,0.20994363739982377,0.2074520452714228,0.41144563490402264,0.0012600417526564388,-0.008066887319639792,0.03720979620482096
2342,11.0,300.09586,-2655.2632,0.0,0.0,0.02342034809590876,0.0,0.0,0.0,0.1904606719595048,0.2096801417113188,0.4069928972070716,-0.00961348177345178,-0.01075311060674939,0.04015826888281256
2343,11.0,300.70479,-2769.5245,0.0,0.0,0.023430319607005146,0.0,0.0,0.0,0.2080907981344628,0.21089829124654083,0.4228771934597296,-0.0026013408944323573,0.001977875036976068,0.03861234611249186
2344,11.0,300.59651,-2894.5551,0.0,0.0,0.0234403240273795,0.0,0.0,0.0,0.23234320272298875,0.21458612644300182,0.4329431543256626,-0.0017093893957035985,0.0011417268689546689,0.027955924896534975
2345,11.0,300.38714,-2850.3041,0.0,0.0,0.023450328447753632,0.0,0.0,0.0,0.22735972462365778,0.2110450706560268,0.42801647902693757,0.005260871019582545,-0.0031864464203277773,0.025567249594041077
2346,11.0,300.69577000000004,-2848.7019,0.0,0.0,0.023460332868127987,0.0,0.0,0.0,0.24115379737752676,0.20995420559836678,0.4148262526701636,0.005289014547735095,0.006443953691368714,0.01923905587624698
2347,11.0,299.97885,-2846.1440000000002,0.0,0.0,0.02347033728850212,0.0,0.0,0.0,0.22672916895392678,0.21870346822435177,0.41972407060604056,0.0056119321870295846,-0.005040000330984304,0.03130356745142157
2348,11.0,299.72246,-2776.4840000000004,0.0,0.0,0.02348034170887603,0.0,0.0,0.0,0.2105730278319398,0.2103684931667538,0.42304028619582557,-0.007853692405849091,7.124533822511743e-05,0.03251714317569217
2349,11.0,299.57661,-2702.3393,0.0,0.0,0.02349034612925016,0.0,0.0,0.0,0.2029912117061728,0.2018865056521468,0.4165659422968576,-0.01027570464988309,0.009107246723415272,0.05262899343632725
2350,11.0,299.52804,-2720.6175,0.0,0.0,0.02350031764034677,0.0,0.0,0.0,0.2058644850147428,0.2116734883680468,0.4094617925332326,0.002920565642412387,0.0015083774971402684,0.04354450613400816
2351,11.0,299.43694,-2633.9127,0.0,0.0,0.023510322060721123,0.0,0.0,0.0,0.20956701233765382,0.1964636316469508,0.39461305814777664,0.0005227486049987704,-0.008818143975733052,0.045846816050978456
2352,11.0,299.93241,-2643.125,0.0,0.0,0.023520326481095255,0.0,0.0,0.0,0.2136986713429168,0.1996159439005598,0.39012939605777364,0.014244140209787187,-0.008432984713270792,0.034177995865105566
2353,11.0,300.23544,-2665.9339,0.0,0.0,0.023530330901469387,0.0,0.0,0.0,0.19380621100718382,0.2148166813707558,0.4017544448525766,0.013795208607231086,-0.0055310308539952445,0.04493001317499705
2354,11.0,300.25147999999996,-2752.7125,0.0,0.0,0.02354033532184352,0.0,0.0,0.0,0.2013335649400758,0.2136279566184378,0.42179433307785963,0.009729849697086401,-0.0021813184318043677,0.036206458730549264
2355,11.0,300.66906,-2862.2433,0.0,0.0,0.023550339742217652,0.0,0.0,0.0,0.2038675514526608,0.24195623066172076,0.4242267108704166,-0.00013574044481403884,0.0011857072935201989,0.06699780393841843
2356,11.0,300.28382,-2860.2625,0.0,0.0,0.023560344162591784,0.0,0.0,0.0,0.2207767400489678,0.23294539752242077,0.4157262518064866,-0.0017252752320964084,0.004473260773751465,0.04797755030201555
2357,11.0,299.56469,-2701.0622,0.0,0.0,0.023570348582965917,0.0,0.0,0.0,0.2017565563268218,0.2217708093245748,0.39752808749296764,0.009982039540975601,0.008604438789191992,0.05531601617776574
2358,11.0,299.95132,-2602.85,0.0,0.0,0.023580320094062523,0.0,0.0,0.0,0.1960353510946828,0.19693376956084982,0.39823228617996664,-0.005521476310852285,0.005513030668618765,0.036156470036865763
2359,11.0,299.73547,-2716.7155,0.0,0.0,0.023590324514436878,0.0,0.0,0.0,0.2068466080716708,0.20152433966890382,0.4174427278733896,-0.0021147048371051177,0.0004918292579322686,0.04121098507420756
2360,11.0,299.80523999999997,-2732.8269,0.0,0.0,0.02360032893481101,0.0,0.0,0.0,0.2045350198235348,0.20393858028467082,0.4222375286715996,-0.01130402076561999,-0.005398098216400814,0.027351098686593273
2361,11.0,300.36177000000004,-2647.0240000000003,0.0,0.0,0.023610333355185142,0.0,0.0,0.0,0.20199414321026982,0.1981864405269788,0.40444860594096965,-0.001909544388657358,0.003969698880128776,0.04677345961193105
2362,11.0,300.83845,-2693.5775,0.0,0.0,0.023620337775559275,0.0,0.0,0.0,0.21944103323714378,0.1863498352437968,0.41298944302138463,0.0012309483025351388,-0.008461285295188841,0.029395920474901475
2363,11.0,300.53317000000004,-2880.0946,0.0,0.0,0.023630342195933407,0.0,0.0,0.0,0.25405564262333974,0.20456825442681478,0.4168529555201836,0.002445845710236178,0.0007545921740974492,0.026917491478549577
2364,11.0,299.9207,-2986.6197,0.0,0.0,0.02364034661630754,0.0,0.0,0.0,0.25025889317362976,0.2160827677682088,0.44151614183175064,-0.0029058072494058474,-0.005351637862215535,0.025688201258478077
2365,11.0,300.25236,-2849.1477,0.0,0.0,0.02365035103668167,0.0,0.0,0.0,0.2141215006096468,0.2229698793604138,0.42897836747936857,0.008139780025208742,0.001021078672922619,0.01913891332911368
2366,11.0,300.50695,-2724.5177,0.0,0.0,0.02366032254777828,0.0,0.0,0.0,0.2039732435705918,0.2044076137559608,0.41980448213397664,-0.0018584792180676181,-0.007113278437750924,0.03058547102605097
2367,11.0,299.66255,-2795.7418,0.0,0.0,0.02367032696815241,0.0,0.0,0.0,0.20930114564391483,0.2131880236900198,0.4273465180608176,0.00937080188970114,0.00997853845790507,0.03922367333507516
2368,11.0,299.76102000000003,-2702.6814,0.0,0.0,0.023680331388526765,0.0,0.0,0.0,0.2013021541869758,0.2203480947266638,0.39989742086430263,-0.0012877657952675887,-0.0005312639183091665,0.05759318026700434
2369,11.0,299.71931,-2637.8989,0.0,0.0,0.023690335808900898,0.0,0.0,0.0,0.18953559488320681,0.2138153470919318,0.3985044654218286,-0.012737501145843488,0.008079295681689403,0.05094632141926045
2370,11.0,300.08444,-2578.4009,0.0,0.0,0.02370034022927503,0.0,0.0,0.0,0.18708912278175882,0.1894905255187588,0.4071898324965076,-0.01120234922408579,0.0033870366041994864,0.03434973162455457
2371,11.0,300.12968,-2637.7467,0.0,0.0,0.02371034464964894,0.0,0.0,0.0,0.18347887214545483,0.2059253712132518,0.41240486864119164,-0.0028012232217842076,0.01046034313610549,0.05301200805362786
2372,11.0,299.95815,-2866.8557,0.0,0.0,0.023720349070023072,0.0,0.0,0.0,0.22112105256544878,0.22533001242084078,0.4250014722943796,-0.014407555159414985,0.006978498847874213,0.053239882934867346
2373,11.0,299.75749,-2916.6217,0.0,0.0,0.023730353490397427,0.0,0.0,0.0,0.2150523329465128,0.23825888104682078,0.4332689344978146,-0.0024442599738296778,-0.00016138674716763184,0.06471580765945294
2374,11.0,300.8217,-2736.1808,0.0,0.0,0.023740325001494034,0.0,0.0,0.0,0.2215560408333788,0.2269929280874578,0.38318168197708763,0.002177401713542818,-0.0022347992919575176,0.04511651604140346
2375,11.0,300.82493999999997,-2752.3076,0.0,0.0,0.023750329421868166,0.0,0.0,0.0,0.2150854966222858,0.20516926372362979,0.41637801480081066,0.013300768902933687,0.005403515051435415,0.04242702806247166
2376,11.0,300.76302999999996,-2877.0279,0.0,0.0,0.0237603338422423,0.0,0.0,0.0,0.22280316932146077,0.22373090111302077,0.42801058191135555,0.0011798291257150689,0.0036893703716875067,0.02824809961587037
2377,11.0,300.25363,-2796.4397,0.0,0.0,0.023770338262616653,0.0,0.0,0.0,0.19636792004250483,0.2165693608637318,0.4371105506619526,0.002759851206951107,-0.004503958097456056,0.03552410267595597
2378,11.0,300.84761000000003,-2660.492,0.0,0.0,0.023780342682990785,0.0,0.0,0.0,0.18512065141498582,0.1981757507384238,0.4254267434938506,-0.008834687512765772,-0.005118957642376785,0.03187486926855467
2379,11.0,300.01968,-2747.3991,0.0,0.0,0.023790347103364695,0.0,0.0,0.0,0.2076060896841258,0.2104384276886558,0.4170962166041916,0.0036674005763942565,0.0007488017334859774,0.03965681039507246
2380,11.0,300.10264,-2928.9067,0.0,0.0,0.02380035152373905,0.0,0.0,0.0,0.25546471887490474,0.21390866742614179,0.42094110556615266,-0.006975828933860713,-0.011367780541412591,0.04251496702540055
2381,11.0,300.18204,-2926.0911,0.0,0.0,0.023810323034835656,0.0,0.0,0.0,0.24312274497184674,0.22656317832254477,0.4197726964783396,-0.027424091197297076,-2.2848632701234478e-05,0.03862087666508376
2382,11.0,300.30947000000003,-2879.8140000000003,0.0,0.0,0.02382032745520979,0.0,0.0,0.0,0.22713297951627975,0.22627391568399677,0.4219846619766436,-0.004583338947390336,0.005166725393166095,0.03948462779232936
2383,11.0,299.49737000000005,-2841.7898,0.0,0.0,0.02383033187558392,0.0,0.0,0.0,0.22253702905019476,0.20126310352812182,0.4400330273953786,-0.0007998848689999902,0.015137914950745884,0.02283872311525648
2384,11.0,299.40831000000003,-2819.8559,0.0,0.0,0.023840336295958053,0.0,0.0,0.0,0.20347053979847882,0.2232515730207148,0.43044366897898256,0.01233717717708459,0.0038501661711318165,0.04868014501410625
2385,11.0,299.45283,-2798.9443,0.0,0.0,0.023850340716332186,0.0,0.0,0.0,0.2067117343508598,0.21666733201590077,0.42743011119406754,-0.0008196652841396652,-0.02082944310070598,0.03737135690676576
2386,11.0,300.86697999999996,-2748.2990000000004,0.0,0.0,0.02386034513670654,0.0,0.0,0.0,0.2060609339441308,0.2174836468264648,0.4118697003358746,0.008931142538810142,-0.01003522514004961,0.04197131579024636
2387,11.0,300.45538,-2750.923,0.0,0.0,0.023870349557080672,0.0,0.0,0.0,0.21085553209232083,0.2132843128470228,0.4120720666458466,0.0008471338256055993,0.006948684368981753,0.03568627842071147
2388,11.0,300.04587999999995,-2727.2369,0.0,0.0,0.023880353977454805,0.0,0.0,0.0,0.2060704888925738,0.21112148997856883,0.41181992949096263,0.013833602680020287,0.0016363156223417783,0.05243968589364405
2389,11.0,299.93764,-2750.0734,0.0,0.0,0.02389032548855119,0.0,0.0,0.0,0.20133024147974782,0.2140972434022528,0.42052614925269965,-0.011498224332786388,-0.01053734507745499,0.039109042324761964
2390,11.0,300.44762000000003,-2781.3775,0.0,0.0,0.023900329908925544,0.0,0.0,0.0,0.17937376029281182,0.24250140987802576,0.4235941489654875,-0.01130409878587769,-0.003289916278139457,0.057477523847589945
2391,11.0,300.09051,-2880.8166,0.0,0.0,0.023910334329299676,0.0,0.0,0.0,0.22774740424441875,0.2267377917122778,0.42121112658530163,-0.0015798305769671387,0.0030862398357881567,0.031173401290575175
2392,11.0,300.04587999999995,-2913.8071,0.0,0.0,0.02392033874967381,0.0,0.0,0.0,0.24871141709090577,0.2242623913204748,0.4127508023578326,0.008340679554335982,0.0035593904462094864,0.04826537209892136
2393,11.0,299.69173,-2808.0943,0.0,0.0,0.023930343170048163,0.0,0.0,0.0,0.23071403841720278,0.21152437848333078,0.4113521423172956,-0.001235275083112159,-0.01100384846324529,0.037029118513239465
2394,11.0,299.85738,-2643.7875,0.0,0.0,0.023940347590422295,0.0,0.0,0.0,0.2041711211826208,0.18814322712579082,0.41133105658271457,-0.002181873591534158,-0.004765121588205886,0.04457570595952966
2395,11.0,300.05734,-2775.7617,0.0,0.0,0.023950352010796427,0.0,0.0,0.0,0.2151856665271718,0.2026950488344438,0.4258815205362336,0.0041014360852552265,0.019126858692673984,0.027391777638357973
2396,11.0,299.8416,-2860.9556,0.0,0.0,0.02396035643117056,0.0,0.0,0.0,0.2277104206157688,0.2032774447269218,0.43867117873097455,0.003978696135716737,0.0068625282196038044,0.043643869491814556
2397,11.0,300.37395,-2745.9351,0.0,0.0,0.023970327942266945,0.0,0.0,0.0,0.2192219483005218,0.2057941350602998,0.4096796210397306,-0.0010937545429701688,-0.012997927699795587,0.029027549348046078
2398,11.0,300.03532,-2721.1228,0.0,0.0,0.023980332362641077,0.0,0.0,0.0,0.2105102772532468,0.21806079408342482,0.3985823134270116,0.003962209340689617,-0.00990339643843913,0.048000342349764955
2399,11.0,300.45336000000003,-2880.9231,0.0,0.0,0.02399033678301543,0.0,0.0,0.0,0.2259618853157018,0.22941164726866678,0.4203551632983246,0.0005064844818136265,0.0018568274177545982,0.02962215794397937
2400,11.0,299.65913,-2971.8265,0.0,0.0,0.024000341203389786,0.0,0.0,0.0,0.23120072270523476,0.24099390651174676,0.43116641014281165,0.006565739969913083,-0.012248783264860789,0.05550489308915645
2401,11.0,300.25862,-2814.272,0.0,0.0,0.024010345623763918,0.0,0.0,0.0,0.2109782062819278,0.2171246219185318,0.4273656076927016,-0.0057077094500820645,-0.01307652044380209,0.03415188947627907
2402,11.0,300.15297999999996,-2623.5196,0.0,0.0,0.024020350044137828,0.0,0.0,0.0,0.17966187795874683,0.20988991487952183,0.4079326765423206,0.01062207406406709,-0.004914410818189586,0.05014474331815086
2403,11.0,300.39259,-2602.2496,0.0,0.0,0.02403035446451196,0.0,0.0,0.0,0.19795895574702782,0.1889757640704558,0.4040841804100036,0.010643114202393592,0.018564098573883882,0.024736010622754177
2404,11.0,299.43375,-2825.9866,0.0,0.0,0.024040325975608567,0.0,0.0,0.0,0.2209712334056628,0.2125243347420188,0.4255337832344146,-0.01105145905894409,0.02060292597460048,0.05470651179211235
2405,11.0,300.70391,-2873.9241,0.0,0.0,0.0240503303959827,0.0,0.0,0.0,0.23048160897676376,0.2108055484648878,0.4323140172060716,-0.01004437610567774,0.005169940131758365,0.04656306126841636
2406,11.0,301.1254,-2703.8067,0.0,0.0,0.024060334816357054,0.0,0.0,0.0,0.18854685530312582,0.21504952624373577,0.41829335133233964,0.0001680455937773088,-0.0005177632118567505,0.04887952324953335
2407,11.0,300.4323,-2845.8576,0.0,0.0,0.024070339236731186,0.0,0.0,0.0,0.20226767007476482,0.2334135798636268,0.4293884095298366,0.007937705024640493,0.012631160547848488,0.04690424790833886
2408,11.0,300.27426,-3109.8949,0.0,0.0,0.02408034365710554,0.0,0.0,0.0,0.2366587362238988,0.26298324739942575,0.4456884119010216,0.004739518480704055,-0.013124810930317988,0.03844209476443936
2409,11.0,300.56116000000003,-3038.6432,0.0,0.0,0.024090348077479673,0.0,0.0,0.0,0.2570900328303108,0.2298878038881598,0.43669384142582657,-0.013117219660568788,-0.017369049114441683,0.03786768226949926
2410,11.0,299.61787999999996,-2861.5643,0.0,0.0,0.024100352497853583,0.0,0.0,0.0,0.2199840542307358,0.2257429219690918,0.42411712787210165,0.0003622995802686846,-0.012336642181031789,0.028209462363057176
2411,11.0,300.29389,-2695.9016,0.0,0.0,0.024110356918227716,0.0,0.0,0.0,0.2029622935483188,0.2029158360312338,0.4136086502899956,0.004209753635520336,0.015838139670852684,0.031763840362346966
2412,11.0,300.15726,-2743.3132,0.0,0.0,0.024120328429324323,0.0,0.0,0.0,0.2056371319573048,0.19877661818022482,0.42948494186686353,-0.004557804943545326,0.015713426822044487,0.03839013732581156
2413,11.0,300.02656,-2904.8805,0.0,0.0,0.024130332849698677,0.0,0.0,0.0,0.23371969285133778,0.2136650821021018,0.43562636218047457,-0.011829913779521589,-0.008446746980104022,0.03960548826425736
2414,11.0,300.48138,-2776.1728,0.0,0.0,0.02414033727007281,0.0,0.0,0.0,0.2252616889665978,0.19058734848700684,0.4280381727115786,0.002366996107329328,0.0007571119548436323,0.03982254568742926
2415,11.0,300.26344,-2704.2564,0.0,0.0,0.02415034169044694,0.0,0.0,0.0,0.2110727019862538,0.2073492611812788,0.4036044774151606,0.0014717603610514387,0.01149976143318809,0.038753204088393466
2416,11.0,299.65052000000003,-2840.4811,0.0,0.0,0.024160346110821074,0.0,0.0,0.0,0.2096949554277808,0.2254172633869518,0.4283230986396986,0.013521720246239885,-0.00037088605413360365,0.04867660269175665
2417,11.0,300.36695,-2994.7339,0.0,0.0,0.024170350531195206,0.0,0.0,0.0,0.23372087835395478,0.24091093146105774,0.43569250714700264,-0.01185498361349579,-0.004622418889172226,0.04763918759012175
2418,11.0,299.74192999999997,-2951.0289,0.0,0.0,0.02418035495156934,0.0,0.0,0.0,0.2092082914047508,0.2378630852927588,0.4499677217108565,0.0011017564829848988,0.0013221407102101286,0.04008597956767816
2419,11.0,299.22757,-2669.316,0.0,0.0,0.02419035937194347,0.0,0.0,0.0,0.19434948531330082,0.1997163569854698,0.41733956888070856,-0.0026123235122662574,0.006475323509164674,0.03394066432068277
2420,11.0,299.93725,-2689.0711,0.0,0.0,0.024200330883040078,0.0,0.0,0.0,0.1905850281442778,0.2117491072230098,0.4150763430598456,0.004196849591521805,0.007212875349705373,0.03136412434364807
2421,11.0,300.19442999999995,-2893.842,0.0,0.0,0.024210335303414432,0.0,0.0,0.0,0.2370033020529048,0.2164920397486008,0.4261603669637536,-0.0008717757741950701,-0.006460065887833864,0.03387705146615467
2422,11.0,300.50239,-2863.7065,0.0,0.0,0.024220339723788564,0.0,0.0,0.0,0.21559858620792377,0.20833012780808283,0.4465665653651886,-0.005454161445758825,0.006087742781613434,0.033331632109575966
2423,11.0,300.19142999999997,-2799.3965,0.0,0.0,0.024230344144162697,0.0,0.0,0.0,0.2070418816309428,0.2242645292781858,0.41964023429276665,0.004889975076127965,0.009063977093794893,0.04915199329417405
2424,11.0,300.53737,-2836.2540000000004,0.0,0.0,0.02424034856453683,0.0,0.0,0.0,0.2093995220961238,0.21299023727049982,0.4397606353709955,0.0003371669551857877,0.008546628615336572,0.04313924459751196
2425,11.0,299.81279,-2911.994,0.0,0.0,0.02425035298491096,0.0,0.0,0.0,0.23333947075131278,0.22968160749280978,0.42215240553069866,-0.004229927039711296,-0.0017218424420826182,0.05589977185187795
2426,11.0,299.7697,-2903.5662,0.0,0.0,0.024260357405285093,0.0,0.0,0.0,0.23300885737618376,0.23091369934940775,0.4186890761588946,-0.0008785552178316491,0.002443781314482438,0.04580308924291295
2427,11.0,299.25248999999997,-2821.598,0.0,0.0,0.0242703289163817,0.0,0.0,0.0,0.22193502676828178,0.2043696067447098,0.4313906930524466,-0.011867049395686589,0.007625868592414633,0.03603555586268247
2428,11.0,299.32482999999996,-2720.7152,0.0,0.0,0.024280333336755833,0.0,0.0,0.0,0.2046287353252838,0.21470035012677477,0.4077003990893966,-0.0006884530236250234,-0.0032706445652124867,0.04156177225882756
2429,11.0,299.15033,-2746.8761,0.0,0.0,0.024290337757129965,0.0,0.0,0.0,0.1880266527017858,0.2155764973557438,0.43137859484625257,-0.002437795336866668,-0.013911180147426589,0.037541681208825464
2430,11.0,299.98924,-2788.6803,0.0,0.0,0.02430034217750432,0.0,0.0,0.0,0.2080568745211148,0.2129510042266278,0.42668128897266455,-0.0023987145844846978,0.00959214809657131,0.03400381918616567
2431,11.0,300.32757000000004,-2840.2437,0.0,0.0,0.02431034659787845,0.0,0.0,0.0,0.21151644473504783,0.2265123131675248,0.4253344161447386,0.013667987964425386,-0.004156044388794646,0.03418829757887226
2432,11.0,300.63146,-2840.6528,0.0,0.0,0.024320351018252584,0.0,0.0,0.0,0.24149443179614477,0.1977080547572658,0.42428505381117465,0.009951268553988741,0.0038750704400396766,0.03679832851146226
2433,11.0,300.51926000000003,-2835.256,0.0,0.0,0.024330355438626494,0.0,0.0,0.0,0.2279371758556478,0.2207364430924908,0.4131733985770396,0.007404145456507263,0.0006620761679493304,0.05844841300065924
2434,11.0,300.1737,-2806.784,0.0,0.0,0.024340359859000626,0.0,0.0,0.0,0.2334205510243148,0.20157708946910982,0.4181945999775936,-0.004089588759785986,-0.0021975321559295382,0.04573091746479016
2435,11.0,300.04991,-2817.8576,0.0,0.0,0.024350331370097456,0.0,0.0,0.0,0.2137402652595218,0.2088864730404898,0.43393162032821664,-0.00940708181615669,0.003584043834392587,0.05252790654010075
2436,11.0,300.31417999999996,-2872.8741,0.0,0.0,0.024360335790471588,0.0,0.0,0.0,0.22818206827231677,0.2153922884875638,0.42970764410634255,-0.018574490466909482,-0.0001877671188211718,0.04519379156027996
2437,11.0,300.04113,-2862.7563,0.0,0.0,0.02437034021084572,0.0,0.0,0.0,0.2246114458474238,0.21122637149641982,0.4343686046988436,0.002449651173636748,-0.0037957522089615767,0.03858782444682176
2438,11.0,299.5932,-2792.3048,0.0,0.0,0.024380344631219852,0.0,0.0,0.0,0.2214398514444118,0.21354445467769678,0.4138066292270346,-0.003959685537340536,0.008219032293705332,0.03127610634721137
2439,11.0,299.82948,-2806.7812,0.0,0.0,0.024390349051594207,0.0,0.0,0.0,0.20299235667878582,0.2286241087609428,0.42157494416620755,0.013895346088113884,-0.0004354941026449215,0.04001406920808116
2440,11.0,299.91986,-2976.24,0.0,0.0,0.02440035347196834,0.0,0.0,0.0,0.23537232402943978,0.22578516436576082,0.4435451548919985,-0.00016265292475759385,-0.006100874806884464,0.02299856534503168
2441,11.0,300.16479,-3058.2095,0.0,0.0,0.02441035789234247,0.0,0.0,0.0,0.22859359980043178,0.2513539632192048,0.44967177162164856,0.008009307558857112,-0.016524754415616287,0.040943716042330165
2442,11.0,300.49474,-2841.6188,0.0,0.0,0.024420362312716604,0.0,0.0,0.0,0.20951578241259777,0.21876103096253277,0.4355043466034326,0.003310008622322417,-0.01218698311476159,0.02255727162172938
2443,11.0,299.63886,-2797.9498,0.0,0.0,0.02443033382381321,0.0,0.0,0.0,0.2087326110128048,0.2165085861227338,0.4252656671254536,-0.00037905619366493366,-0.013549610968492488,0.046482305235446365
2444,11.0,299.41256,-2866.7528,0.0,0.0,0.024440338244187343,0.0,0.0,0.0,0.2283529123716778,0.2223430220535478,0.42072534408985857,-0.003893314008090176,0.008800957936811921,0.04357228539874976
2445,11.0,299.77135,-2920.3674,0.0,0.0,0.024450342664561475,0.0,0.0,0.0,0.24344315491846877,0.20740563841684279,0.4368699746907096,-0.001122061204388819,0.014822603678627087,0.05570632923553665
2446,11.0,300.32219,-2919.0293,0.0,0.0,0.024460347084935607,0.0,0.0,0.0,0.22802557179437177,0.23493977769425076,0.4243466695497556,-0.003403036025928507,0.019324038175384084,0.037553214021463666
2447,11.0,300.48114,-2718.2213,0.0,0.0,0.02447035150530974,0.0,0.0,0.0,0.19296239658890582,0.2062891077341498,0.42701987662608065,0.009041103378087431,0.002977894421145297,0.05607659817982935
2448,11.0,300.49483,-2788.8739,0.0,0.0,0.024480355925684094,0.0,0.0,0.0,0.1970514078974598,0.2180736116971898,0.43262301795656755,-0.003501393023735587,-0.004274591408094326,0.03873054578965726
2449,11.0,299.98521,-2958.4742,0.0,0.0,0.024490360346058226,0.0,0.0,0.0,0.2318035862497328,0.23501025937120676,0.43248842794578457,0.014362639808982187,-0.009752760700397541,0.04050042925608116
2450,11.0,300.31852000000003,-2960.4043,0.0,0.0,0.024500331857154833,0.0,0.0,0.0,0.23643078534890175,0.2199572841630938,0.4435009062601316,-0.011118260611536888,0.0009594362250689831,0.01932465727119518
2451,11.0,300.0383,-2834.0626,0.0,0.0,0.024510336277528744,0.0,0.0,0.0,0.21418127223304578,0.23520688055311179,0.4120961009382186,-0.006495028285184384,-0.0013996784582125089,0.04247089672555116
2452,11.0,299.93073,-2787.7336,0.0,0.0,0.024520340697903098,0.0,0.0,0.0,0.2018966178881448,0.2196726723425048,0.4258321144613576,-0.016663612235820486,0.009289221679099801,0.033446428279655466
2453,11.0,299.68456000000003,-2879.9941,0.0,0.0,0.02453034511827723,0.0,0.0,0.0,0.22621637321081778,0.2173785727910948,0.4318513368129086,-0.008344564963169442,0.0067368297824233325,0.04990886376112136
2454,11.0,299.7085,-2950.8804,0.0,0.0,0.024540349538651363,0.0,0.0,0.0,0.23487530459038775,0.2176945750997818,0.4444240784262416,0.010316723040431292,0.007374475771054093,0.036480271331572466
2455,11.0,300.49126,-2805.5187,0.0,0.0,0.024550353959025717,0.0,0.0,0.0,0.22439500549356278,0.20768124244404282,0.4207313627954526,0.0053126409056168345,-0.006185804011716324,0.047102803384684755
2456,11.0,300.42596000000003,-2756.2297,0.0,0.0,0.02456035837939985,0.0,0.0,0.0,0.2178179686969598,0.2012464152989748,0.4187606217484556,0.011575813959193888,-0.004196659201828016,0.033724088191308364
2457,11.0,300.04245,-2855.1335,0.0,0.0,0.02457036279977398,0.0,0.0,0.0,0.2250897100271248,0.2114175312602858,0.4313820500290935,-0.0017698930922998484,-0.01139979823132249,0.05326361021245904
2458,11.0,300.10778,-2921.3747,0.0,0.0,0.024580334310870366,0.0,0.0,0.0,0.2289159855847488,0.2231091100566548,0.4359998765648376,-0.007291246799890034,0.008009047254906422,0.035809599063882265
2459,11.0,300.13864,-2924.135,0.0,0.0,0.0245903387312445,0.0,0.0,0.0,0.2084431355917358,0.23731532228869878,0.4431055664686146,0.00010253663420457793,-0.013681334494742587,0.04747033452720725
2460,11.0,300.46409,-2828.467,0.0,0.0,0.02460034315161863,0.0,0.0,0.0,0.2096731502856288,0.23241522454009678,0.4176949663532836,-0.006819011559609044,0.0012326255354256689,0.03650816306707517
2461,11.0,300.00899,-2802.05,0.0,0.0,0.024610347571992985,0.0,0.0,0.0,0.2139327523810188,0.2194079404888778,0.41841253994160255,0.014518616489625885,-0.009697596629178271,0.03227673540396577
2462,11.0,299.90803999999997,-2888.143,0.0,0.0,0.02462035199236734,0.0,0.0,0.0,0.22928129264330177,0.2316472721568058,0.4169947902691816,0.011919131464076688,-0.01103249810982279,0.02654117241790977
2463,11.0,299.66546,-2896.5624,0.0,0.0,0.024630356412741472,0.0,0.0,0.0,0.2192120893770488,0.2173749352232358,0.4438956178365866,0.01221328708735759,-0.008116072404668983,0.03329276586224017
2464,11.0,300.04668,-2849.8931,0.0,0.0,0.024640360833115382,0.0,0.0,0.0,0.2067433274889778,0.2242251239817968,0.43532789923101856,0.006938577807184313,0.0027063925369751477,0.05463121515068115
2465,11.0,299.63537,-2850.7397,0.0,0.0,0.024650365253489515,0.0,0.0,0.0,0.21583057995081983,0.2179500559799958,0.43277304989887455,0.003579948378813397,0.01155751364913779,0.04736746937705525
2466,11.0,300.10303999999996,-2836.2442,0.0,0.0,0.02466033676458612,0.0,0.0,0.0,0.2284971079934088,0.2047548950952348,0.4288954228261826,-0.0015816049805422586,0.005017000161664365,0.06307316915383715
2467,11.0,299.73277,-2811.7916,0.0,0.0,0.024670341184960254,0.0,0.0,0.0,0.21471908512112378,0.2212938927675068,0.41870143781011454,-0.008809281482408393,-0.018339493450717084,0.04004765946214626
2468,11.0,300.53396000000004,-2790.1933,0.0,0.0,0.024680345605334608,0.0,0.0,0.0,0.21361871577752578,0.21858787665294382,0.4159424895103276,-0.0058266983477503545,-0.0013348947931938586,0.05389623392564415
2469,11.0,300.79447999999996,-2844.4337,0.0,0.0,0.02469035002570874,0.0,0.0,0.0,0.2150739759686488,0.22006811345903182,0.42949473999533055,-0.009014309803043111,-0.005117791796811724,0.027878211653615273
2470,11.0,300.65254,-2750.0552,0.0,0.0,0.024700354446083095,0.0,0.0,0.0,0.1990309540878258,0.21448855045837179,0.4224286175079586,-0.002310325231886348,0.008013791393199632,0.04257932765850246
2471,11.0,300.2253,-2801.3378,0.0,0.0,0.024710358866457227,0.0,0.0,0.0,0.19595329810158482,0.2191005102760368,0.43648293341751154,-0.018512735913064782,0.00041561737808324165,0.024070567738830078
2472,11.0,300.12321000000003,-2896.2709999999997,0.0,0.0,0.024720363286831137,0.0,0.0,0.0,0.2263520068692038,0.2184453832913808,0.4355966536875425,-0.005243039540347715,0.002951408671481357,0.043337653152593365
2473,11.0,300.41392,-2971.3433,0.0,0.0,0.02473036770720527,0.0,0.0,0.0,0.25254649779189875,0.2236330515508638,0.4270346194150356,-0.007047402590449483,0.002316481942143968,0.03477912168568207
2474,11.0,300.10917,-2955.9836,0.0,0.0,0.024740339218301877,0.0,0.0,0.0,0.2558549721509198,0.21190241196313978,0.43078780924294663,-0.003458201313047897,-0.012469737647917289,0.037922206270630365
2475,11.0,300.05987000000005,-2957.133,0.0,0.0,0.02475034363867623,0.0,0.0,0.0,0.23068069235641178,0.22889626773780278,0.43931763229477455,0.008355091821108362,-0.02050649394933338,0.03936359202813406
2476,11.0,300.18775,-2841.1454,0.0,0.0,0.024760348059050363,0.0,0.0,0.0,0.1995351270725838,0.21722069829301377,0.4468814328337636,-0.005202474883194295,0.0005778245741218454,0.04386448950233805
2477,11.0,299.77435,-2833.2166,0.0,0.0,0.024770352479424496,0.0,0.0,0.0,0.21118204180454478,0.2112134221601418,0.43883162688430954,0.017757909171569185,0.014130095871281884,0.03882990509446326
2478,11.0,300.06035,-2856.3307,0.0,0.0,0.024780356899798628,0.0,0.0,0.0,0.2276289147777248,0.2053342512374128,0.43529004420728257,-0.006363273044206154,0.010889292433439491,0.04192996100066496
2479,11.0,300.53957,-2841.4872,0.0,0.0,0.02479036132017276,0.0,0.0,0.0,0.2349520886829658,0.2035638196026848,0.4252252485789646,0.00936220760367795,0.009084077037353602,0.037359343813580165
2480,11.0,299.64025,-2782.0725,0.0,0.0,0.024800365740546892,0.0,0.0,0.0,0.20398160288391678,0.2265582133970548,0.41514074523620165,0.0006811893578981555,-0.0029970854793643074,0.05392893859912185
2481,11.0,300.45295,-2813.5933,0.0,0.0,0.02481033725164372,0.0,0.0,0.0,0.2094151768101688,0.22519364922238277,0.4206532817427466,-0.005133142839801755,0.004037565763876716,0.025281562715095976
2482,11.0,300.41853,-2969.1878,0.0,0.0,0.024820341672017632,0.0,0.0,0.0,0.2094328985544178,0.24589586864053278,0.44723017325318154,-0.0014132491194518285,-0.0027204530033128073,0.04211925030484636
2483,11.0,300.0872,-2852.5759999999996,0.0,0.0,0.024830346092391986,0.0,0.0,0.0,0.20036281054926983,0.23535139028237378,0.43139768447813653,-0.003874355490769116,-0.006722087601418394,0.03633808802454006
2484,11.0,300.15128,-2740.7478,0.0,0.0,0.02484035051276612,0.0,0.0,0.0,0.1993859563928618,0.2149397304628998,0.41879319773917056,0.007278534057510383,0.010587174690872789,0.05885372215991015
2485,11.0,300.98492999999996,-2847.3956,0.0,0.0,0.02485035493314025,0.0,0.0,0.0,0.2241021762146628,0.2176721012125638,0.4237628855046406,-0.0004049047610034886,0.007211517493246364,0.05260032352474775
2486,11.0,300.32212000000004,-2968.4892,0.0,0.0,0.024860359353514383,0.0,0.0,0.0,0.2512394456929028,0.21915111198603077,0.4319560460782426,0.0013765238695773285,0.006495122517443683,0.05334226577797175
2487,11.0,300.01897,-2801.8921,0.0,0.0,0.024870363773888515,0.0,0.0,0.0,0.2293000783001558,0.1977116517951208,0.4246935050589856,-0.0026042134584658575,-0.002423364020992408,0.04258095595141316
2488,11.0,299.61181,-2811.4952,0.0,0.0,0.024880368194262648,0.0,0.0,0.0,0.2085454535868338,0.2171407123301198,0.42893818198040257,0.017883583594722283,-0.0003652843516182586,0.04134038319147817
2489,11.0,299.52144,-2927.2604,0.0,0.0,0.024890339705359477,0.0,0.0,0.0,0.2143001264697758,0.22282925037903478,0.45268469105900055,0.005867787767130564,0.003381052551758906,0.030050981598300972
2490,11.0,299.90511000000004,-3030.5471,0.0,0.0,0.024900344125733387,0.0,0.0,0.0,0.24266976138214078,0.2258322399654068,0.4527086341588636,0.000981357303297425,-0.006051680805254394,0.01833688230520938
2491,11.0,300.0455,-3102.7418,0.0,0.0,0.02491034854610752,0.0,0.0,0.0,0.25551685059254975,0.2376756948192648,0.44996348632543853,-0.01112460761016329,-0.007319311801159833,0.041784534280062464
2492,11.0,300.10081,-2955.5785,0.0,0.0,0.024920352966481873,0.0,0.0,0.0,0.24544340180837773,0.2152718333156758,0.4377068280808006,-0.002012821222324988,-0.0030485032609888466,0.03354636108401807
2493,11.0,299.96608,-2735.5529,0.0,0.0,0.024930357386856006,0.0,0.0,0.0,0.20190061009353882,0.2084579797057008,0.42118120530984865,0.002046297384428828,0.0016865360463231482,0.042458713406348755
2494,11.0,300.67447000000004,-2812.6227,0.0,0.0,0.024940361807230138,0.0,0.0,0.0,0.1990183695215838,0.21529773198823177,0.4406509579688636,-0.0008506844160760153,-0.003706018374805536,0.03912336360167536
2495,11.0,300.45056,-3010.6367,0.0,0.0,0.02495036622760405,0.0,0.0,0.0,0.2274379677963798,0.2185844721326078,0.46913594127261254,0.0016258209857560385,-0.0064797808976795835,0.032481078564882866
2496,11.0,299.85323999999997,-2845.7195,0.0,0.0,0.024960370647978403,0.0,0.0,0.0,0.22078134020442178,0.2180510770149658,0.4261952531646966,0.01944540628561218,-0.006924138283984244,0.06121259372396264
2497,11.0,299.5539,-2725.8622,0.0,0.0,0.02497034215907501,0.0,0.0,0.0,0.20803014498347677,0.2041768055156818,0.4163871036542076,0.013733172369858588,0.0030881054318722774,0.04816159705017955
2498,11.0,300.1416,-2865.4489,0.0,0.0,0.024980346579449142,0.0,0.0,0.0,0.23327996257293976,0.2208950673956458,0.41684988537238055,0.016669578252409285,0.001153506813292259,0.06364886847640425
2499,11.0,300.08598,-2984.6107,0.0,0.0,0.024990350999823274,0.0,0.0,0.0,0.2470717757790858,0.22296016229195476,0.43721517886727856,-0.009343736864955031,0.001107438485570669,0.038066776794898366
2500,11.0,300.15043,-2850.1479999999997,0.0,0.0,0.025000355420197407,0.0,0.0,0.0,0.2042051562534798,0.23218527756240276,0.4299834001210576,0.008012644799386473,0.005197959232798635,0.06956840525661703
2501,11.0,300.14547999999996,-2758.2015,0.0,0.0,0.02501035984057176,0.0,0.0,0.0,0.19023973277519982,0.22067984294190482,0.42750481812394064,-0.004218392504547926,-0.0009961663689414659,0.03474943244450197
2502,11.0,300.39223,-2814.6084,0.0,0.0,0.025020364260945893,0.0,0.0,0.0,0.2109339677825618,0.21706779885292377,0.4275688960602646,0.0016591607643964186,-0.014713402675599787,0.04383441421286986
2503,11.0,299.62336,-2900.5053,0.0,0.0,0.025030368681320025,0.0,0.0,0.0,0.22052303235642878,0.2215881405965468,0.4395700328946846,-0.011636429619926189,-0.011916732087839887,0.023842265266048376
2504,11.0,299.8766,-2963.8824,0.0,0.0,0.025040340192416632,0.0,0.0,0.0,0.25000275368085073,0.21315724115198179,0.43778624662363863,-0.012973431365377989,0.0025515754197458877,0.04769452827083345
2505,11.0,299.69656000000003,-2948.6274,0.0,0.0,0.025050344612790765,0.0,0.0,0.0,0.22638584942254378,0.20995341526328878,0.45996983768798855,-0.005483281341707735,0.008797278927023831,0.02787360643191077
2506,11.0,300.30721,-2814.7414,0.0,0.0,0.025060349033164897,0.0,0.0,0.0,0.21320190521638982,0.20980681823882077,0.43260238818453156,0.003532179513448977,0.0012330630568188488,0.03988678574376926
2507,11.0,300.22168999999997,-2998.8727,0.0,0.0,0.02507035345353903,0.0,0.0,0.0,0.23661412282199576,0.22175093949011376,0.4532173566365706,0.01016037247050069,-0.0015124539036175785,0.03808358965380766
2508,11.0,300.59823,-3122.4685,0.0,0.0,0.02508035787391316,0.0,0.0,0.0,0.2648290141790887,0.22772544711475176,0.4565979845352126,0.010322953515296189,-0.0037364917702380263,0.04100523045590117
2509,11.0,300.33527999999995,-2982.2456,0.0,0.0,0.025090362294287294,0.0,0.0,0.0,0.22424108267087178,0.22946732536166178,0.4528197978273346,0.004076828597301656,0.000981594059315791,0.029347485093621267
2510,11.0,300.41868999999997,-2801.9838,0.0,0.0,0.025100366714661648,0.0,0.0,0.0,0.23015424813445579,0.2117471313853148,0.4098317200122416,0.005925922079692974,-0.007920906857857643,0.04572176477663686
2511,11.0,300.21623999999997,-2894.7278,0.0,0.0,0.02511037113503578,0.0,0.0,0.0,0.21537406011826482,0.2269559545913088,0.4375949754022616,-0.003017827114211347,0.007341379172437713,0.02894018489792387
2512,11.0,299.43374,-2941.2355,0.0,0.0,0.025120342646132388,0.0,0.0,0.0,0.2325357303744898,0.2228178006529048,0.4387085980571676,0.00014182855803988886,0.016155433873417186,0.05373818210879565
2513,11.0,299.39808,-2933.7775,0.0,0.0,0.025130347066506298,0.0,0.0,0.0,0.20885304591969078,0.22490233981863278,0.4580397178375006,-0.017236257622586185,0.01099568369393949,0.035824374276840466
2514,11.0,299.9334,-2862.2083,0.0,0.0,0.025140351486880652,0.0,0.0,0.0,0.21748416358401582,0.2243188800135498,0.4282368203936836,-0.008816448403015712,-0.00989630885531464,0.052738707143905154
2515,11.0,299.84313,-2848.0294,0.0,0.0,0.025150355907254784,0.0,0.0,0.0,0.20886377623824978,0.21931723433992578,0.4375488218602066,-0.017615578943272283,-0.01154708730560879,0.042926971741312256
2516,11.0,299.86017999999996,-2909.6957,0.0,0.0,0.025160360327628917,0.0,0.0,0.0,0.2320264202117248,0.2224184281259898,0.43002998936065556,0.006822897373742544,0.006331630560808284,0.057741222186114945
2517,11.0,299.96352,-2943.7479,0.0,0.0,0.02517036474800327,0.0,0.0,0.0,0.2139229035900468,0.2258997122895658,0.4550032302028226,-0.0018608751492540782,0.011372603611888589,0.06191504252803894
2518,11.0,300.29239,-2932.9517,0.0,0.0,0.025180369168377403,0.0,0.0,0.0,0.22544451981464178,0.22758666224855478,0.43851290906535456,0.006150782947185014,0.0003446754322693167,0.043268853470803365
2519,11.0,300.39938,-2807.8165,0.0,0.0,0.025190373588751536,0.0,0.0,0.0,0.2030465756916368,0.21692020884335778,0.4335393304195006,0.00019649655214269983,0.008274314915186303,0.04829674738826786
2520,11.0,300.11116,-2854.1066,0.0,0.0,0.02520034509984792,0.0,0.0,0.0,0.22151401121923078,0.2240285331973948,0.42203458480907063,0.018241773584572882,0.0015771325959258685,0.04199157268624556
2521,11.0,299.95582,-2861.4771,0.0,0.0,0.025210349520222053,0.0,0.0,0.0,0.2269926342449288,0.20448751865884682,0.43833743441303663,0.004516384596682456,-0.0013912295735786688,0.03238384505878667
2522,11.0,300.05099,-2888.4904,0.0,0.0,0.025220353940596185,0.0,0.0,0.0,0.2269758244257698,0.2184734705841528,0.43257968124979057,-0.013706965669272188,-0.011851909412692388,0.026788783384597073
2523,11.0,299.2676,-2937.5759,0.0,0.0,0.02523035836097054,0.0,0.0,0.0,0.2140483844824308,0.22564240755917178,0.45325893028817354,-0.01741341123031988,-0.013329104441980188,0.04202022030632286
2524,11.0,299.52917,-2981.0385,0.0,0.0,0.025240362781344894,0.0,0.0,0.0,0.22760043231741378,0.2257302158128378,0.4528306396034046,0.000987658158514271,0.015805798754160882,0.033277167890200764
2525,11.0,299.84257,-3045.0012,0.0,0.0,0.025250367201719026,0.0,0.0,0.0,0.24081424713651578,0.22933410323851378,0.4554559706125046,6.481838302007634e-05,0.0053758522091303055,0.05159664458519235
2526,11.0,299.98374,-3111.2194,0.0,0.0,0.025260371622092936,0.0,0.0,0.0,0.25701624795802874,0.2222587196452278,0.46645805298082554,-0.004016009881249316,-0.0073212547082265825,0.032431049341195374
2527,11.0,299.88156000000004,-2963.0934,0.0,0.0,0.025270343133189765,0.0,0.0,0.0,0.23281620813467077,0.22793015403245478,0.4399600429906756,-0.012200810938876289,-0.0042752326940826155,0.03924922750259717
2528,11.0,299.91056000000003,-2789.9937,0.0,0.0,0.025280347553563676,0.0,0.0,0.0,0.20113964913593782,0.21407279367733978,0.4328759657115316,0.011854376676685888,2.4409799819309676e-05,0.037370505776681766
2529,11.0,300.39997999999997,-2808.9113,0.0,0.0,0.025290351973937808,0.0,0.0,0.0,0.2042226449502058,0.20854449099923877,0.4410717506028926,0.00951882090935948,-0.0010699169224425789,0.04658977864705315
2530,11.0,300.73792000000003,-2938.6858,0.0,0.0,0.025300356394312162,0.0,0.0,0.0,0.2294001874100358,0.2238904373412658,0.43999646933177056,0.011860871609826889,-0.013186507728906989,0.023451615809244274
2531,11.0,300.33599,-2848.7291,0.0,0.0,0.025310360814686295,0.0,0.0,0.0,0.21616940065175883,0.20716132355273081,0.44261178942988255,0.0021563177014869875,-0.005461259971984395,0.04403415113883236
2532,11.0,300.26788999999997,-2789.9192,0.0,0.0,0.02532036523506065,0.0,0.0,0.0,0.21103729902775978,0.2246409415578348,0.41238753193198063,0.0014124303120460185,0.004516877745506126,0.04880520439444865
2533,11.0,300.50952,-2913.9939,0.0,0.0,0.02533036965543456,0.0,0.0,0.0,0.2162684559815348,0.23258791275463978,0.43692502456864263,0.00950577622624707,0.004736830834813805,0.05352170122493065
2534,11.0,300.85272000000003,-3100.14,0.0,0.0,0.02534037407580869,0.0,0.0,0.0,0.2344119351871568,0.23729184528388175,0.4706613690331605,-0.0020927026178086685,-0.006817321154467214,0.03964288529894816
2535,11.0,300.58131000000003,-3128.9390000000003,0.0,0.0,0.0253503455869053,0.0,0.0,0.0,0.2167482603013878,0.2615098196340097,0.4728612464577716,0.001144033431482309,0.014843289179418587,0.05022363193118655
2536,11.0,299.71216,-2941.9671,0.0,0.0,0.025360350007279653,0.0,0.0,0.0,0.2249596391117878,0.22522059154254176,0.4441042966946816,-0.008328675783051302,0.01142794226610009,0.04138936775431256
2537,11.0,300.21013,-2839.8216,0.0,0.0,0.025370354427653785,0.0,0.0,0.0,0.2091078884523418,0.22265437354427578,0.43147258392552856,-0.014179973107454386,0.006295077056825734,0.04870633550269105
2538,11.0,299.66017,-2928.5511,0.0,0.0,0.025380358848027917,0.0,0.0,0.0,0.25616420594893874,0.2134948966153058,0.42054729578228656,-0.014923139366799187,-0.0018068469313969084,0.043671196847011554
2539,11.0,299.74226,-3097.3824,0.0,0.0,0.02539036326840205,0.0,0.0,0.0,0.25408572601880874,0.23674321088473577,0.4506979609254255,0.0008837851183553001,-0.004984057273088155,0.027617637165148576
2540,11.0,299.71903,-3037.6299,0.0,0.0,0.025400367688776182,0.0,0.0,0.0,0.2337222969040948,0.23822239391071978,0.4514189592990826,0.021451476323845878,0.016562168675558785,0.040916617681655755
2541,11.0,299.95859,-2939.5368,0.0,0.0,0.025410372109150314,0.0,0.0,0.0,0.2037201944906178,0.23001856381356478,0.4598070185294196,0.00880648116310702,-0.012597013006228387,0.026042268333671775
2542,11.0,300.01501,-2980.3989,0.0,0.0,0.025420376529524447,0.0,0.0,0.0,0.24416623045483077,0.2130664235455188,0.44873420117161755,0.01108472304647699,-0.026905319305098273,0.03276732982413367
2543,11.0,300.37572,-3118.7417,0.0,0.0,0.025430348040621276,0.0,0.0,0.0,0.23869232917459876,0.24182284641855678,0.46750443635909555,0.013827783584695988,-0.015290342216289285,0.03498046967930357
2544,11.0,299.82616,-3063.8522,0.0,0.0,0.025440352460995186,0.0,0.0,0.0,0.26465900094480976,0.23203255037482975,0.43464301309092557,0.0034370308707585367,0.017938677042409583,0.04412604380365146
2545,11.0,300.16988,-2846.2214,0.0,0.0,0.02545035688136954,0.0,0.0,0.0,0.19855772576112182,0.22644829602620678,0.44017422379681365,-0.02188495282262668,0.004609008422773716,0.061908188904362546
2546,11.0,300.33807,-2832.1031,0.0,0.0,0.025460361301743673,0.0,0.0,0.0,0.2107462834665388,0.21370647336868678,0.43643586795036654,-0.025519186075547574,-0.011829490240979788,0.04764850138504095
2547,11.0,300.02997,-2961.3791,0.0,0.0,0.025470365722117805,0.0,0.0,0.0,0.2141600446434508,0.22515508492357678,0.4608701711968446,-0.009953025124362101,-0.0024178893293770975,0.040252108001073754
2548,11.0,299.85323999999997,-2918.397,0.0,0.0,0.025480370142491937,0.0,0.0,0.0,0.2262792048495188,0.23255927830681378,0.4282813223380756,0.003769250652596077,0.011054925387536189,0.045776207717759955
2549,11.0,299.90263999999996,-2875.9034,0.0,0.0,0.02549037456286607,0.0,0.0,0.0,0.20955703182416882,0.2270109436742358,0.43763483666119557,-0.00020341224752022582,0.012948018039619886,0.05528231649268985
2550,11.0,299.80679,-2931.8369,0.0,0.0,0.0255003789832402,0.0,0.0,0.0,0.24364999979388277,0.23498108790082778,0.4125741320703966,-0.0043459979797416054,-0.01015943420090809,0.04021951681160726
2551,11.0,299.80661000000003,-2963.4882,0.0,0.0,0.02551035049433681,0.0,0.0,0.0,0.2195294291758678,0.24328697254805476,0.43801001277572255,0.025731734535774476,0.0003139872886106327,0.05124163924040605
2552,11.0,299.86832999999996,-3097.6497,0.0,0.0,0.02552035491471094,0.0,0.0,0.0,0.23523555553094178,0.23889713741731178,0.4674754675387366,0.025017863363320875,0.01941083925845068,0.041204089907277065
2553,11.0,300.15443,-3032.6907,0.0,0.0,0.025530359335085073,0.0,0.0,0.0,0.22761660378900977,0.2288708351602928,0.46537481769641853,-0.003292206122040447,-0.008660425315517431,0.03965103486950246
2554,11.0,299.65136,-2874.1963,0.0,0.0,0.025540363755459428,0.0,0.0,0.0,0.2169794231792018,0.2095897598023988,0.44711473366928856,-0.015309023508382986,-0.008620920315318591,0.02413107396855158
2555,11.0,299.96625,-2918.6796,0.0,0.0,0.02555036817583356,0.0,0.0,0.0,0.23443725630715578,0.21348452093428177,0.43928393159644863,-0.028027346869583768,-0.0064684739384886746,0.034742692304836766
2556,11.0,299.72258,-3063.9949,0.0,0.0,0.025560372596207692,0.0,0.0,0.0,0.25342657643125577,0.22593036310509082,0.45202102237600156,-0.000977527005136904,0.016769485725519385,0.026572414971493177
2557,11.0,300.17483,-2913.3009,0.0,0.0,0.025570377016581602,0.0,0.0,0.0,0.21411767052426878,0.22273960814268778,0.44871343967706856,-0.026427659022456876,0.009530907665827352,0.04846192235331936
2558,11.0,300.85835,-2793.9914,0.0,0.0,0.02558034852767843,0.0,0.0,0.0,0.20213034428871182,0.21159264114256782,0.43558062407096054,-0.0025934582139543975,0.008994272984965631,0.03516733934224617
2559,11.0,300.40325,-2861.6852,0.0,0.0,0.025590352948052564,0.0,0.0,0.0,0.23476156726666275,0.20493648977815682,0.4301827874757356,0.014871874991239785,0.003826865066532176,0.04592537434448155
2560,11.0,300.40522000000004,-2957.239,0.0,0.0,0.025600357368426696,0.0,0.0,0.0,0.23158771331592776,0.2286091430569658,0.43872995736927556,0.023544557187916874,0.006356668173429304,0.03025672608410637
2561,11.0,300.6547,-2978.2971,0.0,0.0,0.02561036178880083,0.0,0.0,0.0,0.24165306623180077,0.22936124820869278,0.43431363588091865,0.012714630064586289,-0.024373066463434376,0.05964454663770844
2562,11.0,300.39281,-3039.1256,0.0,0.0,0.02562036620917496,0.0,0.0,0.0,0.22852062552822977,0.2331445214320728,0.46215315860596556,-0.011697301632933789,-0.019126230477611982,0.02869316668254507
2563,11.0,299.9414,-2962.7264,0.0,0.0,0.025630370629549315,0.0,0.0,0.0,0.21349321462013982,0.23516832638680676,0.45193330531484455,-0.007327453063063312,-0.00944785844523103,0.06162921987358044
2564,11.0,299.99508,-2883.9957,0.0,0.0,0.025640375049923225,0.0,0.0,0.0,0.21162196460046181,0.2210302754889898,0.4440104393379186,-0.004817352908335715,0.012594632881743489,0.03303688069523627
2565,11.0,299.94042,-2926.9153,0.0,0.0,0.02565037947029758,0.0,0.0,0.0,0.2237545301053528,0.21741677231986478,0.44853787383224153,-0.014400179711937088,0.013915840084636488,0.04903913344503565
2566,11.0,300.07425,-2941.6304,0.0,0.0,0.025660350981394187,0.0,0.0,0.0,0.21995766919813178,0.2317440172763538,0.4424805127469265,-0.006330673039463785,0.0038824813512710766,0.03773936123708497
2567,11.0,300.23759,-2817.1143,0.0,0.0,0.02567035540176832,0.0,0.0,0.0,0.2173854020967688,0.22327891050841278,0.4156681013832476,-0.0022992251783658575,0.0005515609288798254,0.05171274176840025
2568,11.0,300.37609,-2939.9501,0.0,0.0,0.02568035982214245,0.0,0.0,0.0,0.2253812727433998,0.2278715983091758,0.4404185690584285,-0.0025509302834072177,0.0026710164296087973,0.04687676045962605
2569,11.0,300.20817,-3081.7469,0.0,0.0,0.025690364242516583,0.0,0.0,0.0,0.22711057655656877,0.24515288273970579,0.46451064708363154,0.004685195407067785,-0.02413034442847958,0.052089717415104854
2570,11.0,300.15005,-2962.3914,0.0,0.0,0.025700368662890716,0.0,0.0,0.0,0.22832378143130277,0.2186558961321568,0.4535133573882836,-0.0024912109437133776,0.006956429956721183,0.03399436454948257
2571,11.0,300.02357,-2982.2783,0.0,0.0,0.025710373083264848,0.0,0.0,0.0,0.2247122946298768,0.23411758603310678,0.4477082449153636,0.015041057360436786,0.0069598894965376135,0.03861386294789156
2572,11.0,299.96541,-3136.3906,0.0,0.0,0.025720377503639202,0.0,0.0,0.0,0.25935618694396273,0.23257458851582477,0.4614536613994306,0.0020492006499403578,0.018645615557678984,0.024617855528593177
2573,11.0,299.87112,-3023.4993,0.0,0.0,0.025730381924013335,0.0,0.0,0.0,0.23734642906676875,0.23379454163622476,0.4479273298519855,0.0038387197887271465,-0.007567435269747712,0.024487375260215775
2574,11.0,299.73169,-2995.8516,0.0,0.0,0.02574035343510994,0.0,0.0,0.0,0.22645769898713478,0.23538469581316077,0.4488217054502536,-0.0017438757681571386,-0.01989896438812488,0.03395201474830297
2575,11.0,299.51971000000003,-3151.0538,0.0,0.0,0.025750357855483852,0.0,0.0,0.0,0.23597446816636677,0.24601703308749076,0.47585017213275554,0.006180634105731094,-4.496003780196026e-05,0.039120619720404565
2576,11.0,300.12085,-2999.7841,0.0,0.0,0.025760362275858206,0.0,0.0,0.0,0.24091799381425474,0.22208979058855577,0.44885169765321353,-0.015048055878877488,0.005280470721566885,0.040588467517519856
2577,11.0,299.68608,-2873.9381,0.0,0.0,0.02577036669623234,0.0,0.0,0.0,0.21048543236079478,0.2223548872122188,0.4407651005926286,-0.002312894732814938,-0.01117002958564609,0.05245513593116886
2578,11.0,299.97707,-2971.4177,0.0,0.0,0.02578037111660647,0.0,0.0,0.0,0.23461079565178278,0.22651954777323877,0.44210646134001064,-0.03161810257396377,0.016461622854885685,0.04106199475300336
2579,11.0,300.41649,-2976.7484,0.0,0.0,0.025790375536980825,0.0,0.0,0.0,0.22916531603685575,0.2405299798209608,0.4351618883346346,0.005621205654594805,0.013398118932791388,0.042575671852141665
2580,11.0,300.39252999999997,-2948.4096,0.0,0.0,0.025800379957354735,0.0,0.0,0.0,0.2185117613054318,0.23742287878681376,0.44030825652004163,0.0013051756611358089,0.0039295801543443665,0.059288342618053845
2581,11.0,300.56179,-2965.6311,0.0,0.0,0.025810351468451564,0.0,0.0,0.0,0.2231648084146518,0.23434814096086076,0.4439648430834186,0.0033668949147366567,-0.01872736254924678,0.05399091201498815
2582,11.0,300.6761,-2867.8732,0.0,0.0,0.025820355888825475,0.0,0.0,0.0,0.2093147434602568,0.22763359599318678,0.4348134822877496,0.01038523597244299,-0.012397618558799688,0.05512900465980915
2583,11.0,299.41803,-2920.3843,0.0,0.0,0.025830360309199607,0.0,0.0,0.0,0.2110126973153318,0.2323070499594208,0.44440414779677456,0.013648129275715487,0.009179460855392252,0.050278591629860654
2584,11.0,299.76212999999996,-3041.8540000000003,0.0,0.0,0.02584036472957374,0.0,0.0,0.0,0.23766281641049375,0.2295919956539658,0.45739283870865854,0.002834643756457557,0.013985409836502486,0.04636218950234186
2585,11.0,299.75387,-3075.4358,0.0,0.0,0.025850369149948094,0.0,0.0,0.0,0.25354282661522876,0.22920240099051575,0.45211046196232857,-0.023033661288745375,-0.014700452326071685,0.04330521496389196
2586,11.0,299.00174,-2996.6645,0.0,0.0,0.025860373570322448,0.0,0.0,0.0,0.2207114360800228,0.22968579221572277,0.4605139529916885,-0.025277672847962077,0.001995346711100388,0.03366549801752596
2587,11.0,299.46179,-2960.0411,0.0,0.0,0.02587037799069658,0.0,0.0,0.0,0.2231773524508898,0.2325934147026828,0.4440078048876586,-0.0064033697824633935,0.006067762908191574,0.04209433448488736
2588,11.0,299.89567999999997,-3089.6497,0.0,0.0,0.02588038241107049,0.0,0.0,0.0,0.24257391805518178,0.23192534851424979,0.46467709367755855,-0.0024775902279191176,0.011230012978315988,0.02856116856551787
2589,11.0,299.52945,-3056.1916,0.0,0.0,0.025890353922167098,0.0,0.0,0.0,0.24926890729592577,0.22963645706835378,0.4501005689314676,0.0017570954395618183,-0.0031977176117901564,0.04452978141199725
2590,11.0,300.17435,-2970.909,0.0,0.0,0.02590035834254123,0.0,0.0,0.0,0.22803434654023777,0.23766283667549576,0.4373849590540346,0.013811070024296488,0.00029679950689933077,0.024056576781449276
2591,11.0,299.72709,-3014.1897,0.0,0.0,0.025910362762915584,0.0,0.0,0.0,0.24453304725603278,0.2228715839682128,0.44883378339144553,0.013340800387884488,0.0024240610357361978,0.03478259916002526
2592,11.0,299.92728,-3008.9814,0.0,0.0,0.025920367183289716,0.0,0.0,0.0,0.22459172800047777,0.2248012073261518,0.46526225574280955,0.031591855343373366,-0.0023855841804138276,0.025857059387643076
2593,11.0,299.75852000000003,-2982.6685,0.0,0.0,0.02593037160366385,0.0,0.0,0.0,0.23805634248433177,0.2196039233232198,0.44899649109250356,0.0014629670727086086,-0.02055398396827028,0.05178179273621505
2594,11.0,300.33481,-3164.3548,0.0,0.0,0.025940376024038203,0.0,0.0,0.0,0.23249905072086977,0.24657398626995777,0.4828118184023166,-0.0013062113040630187,0.0021319226920793882,0.03792878327702946
2595,11.0,300.38583,-3068.2301,0.0,0.0,0.025950380444412113,0.0,0.0,0.0,0.23522654773755275,0.2411317085253468,0.4563070804315026,-0.01260267403453709,-0.0022816383990301777,0.05108304432150395
2596,11.0,300.22336,-2905.7707,0.0,0.0,0.025960384864786246,0.0,0.0,0.0,0.2216597571136148,0.23044664171581275,0.43117534700869353,-0.010762180208394489,0.01250036110568959,0.04274770348061986
2597,11.0,299.97607,-2914.1621,0.0,0.0,0.025970356375882853,0.0,0.0,0.0,0.2244445635559538,0.23543994834111376,0.4259480100077956,-0.023610593736684178,-0.0016224426072726185,0.05899770601237024
2598,11.0,300.09135,-2866.4236,0.0,0.0,0.025980360796257207,0.0,0.0,0.0,0.2088163662660708,0.22790673782264378,0.4345981058464936,-0.002750971893674787,0.0035352413526011563,0.03680154254077946
2599,11.0,299.75466,-2770.2495,0.0,0.0,0.02599036521663134,0.0,0.0,0.0,0.19958122995213382,0.2106397706160268,0.4318656844343246,-0.006083818970601184,0.0021142367155589183,0.06105350433901174
2600,11.0,299.52849,-2972.1198,0.0,0.0,0.02600036963700547,0.0,0.0,0.0,0.21633356743296078,0.23151073670583075,0.45560590122980155,0.013495806374932388,-0.011433052086354388,0.049605833080214545
2601,11.0,299.8473,-3161.611,0.0,0.0,0.026010374057379604,0.0,0.0,0.0,0.25536132683470075,0.23768459115514276,0.4680048805834856,0.0031957014467411766,-0.021727231325310778,0.05221041070076635
2602,11.0,299.75389,-3128.9120000000003,0.0,0.0,0.026020378477753736,0.0,0.0,0.0,0.2533527814264728,0.24180153776895374,0.45595678973943154,-0.002953989318161047,-0.009480995472526402,0.036823470286193566
2603,11.0,300.95957000000004,-2990.1787,0.0,0.0,0.02603038289812787,0.0,0.0,0.0,0.2331253000776758,0.23341798750156176,0.44239638259112357,0.005479486314783195,0.013889331435520288,0.04558402153154266
2604,11.0,301.08962,-3109.7411,0.0,0.0,0.026040354409224475,0.0,0.0,0.0,0.2505530092801568,0.22653467559723178,0.46819597955234554,-0.0034812284348204967,0.009999355275909531,0.02888063011004627
2605,11.0,300.27814,-3101.9271,0.0,0.0,0.026050358829598608,0.0,0.0,0.0,0.25227884777798376,0.22581021190823278,0.46481931346159455,0.003407617436255656,0.010925498899262791,0.027704493976970675
2606,11.0,300.03467,-2966.1657,0.0,0.0,0.02606036324997274,0.0,0.0,0.0,0.22003710800597182,0.22522661024813578,0.45637659952086357,0.0001168755720672209,-0.0014590307987201287,0.03508217060509067
2607,11.0,300.07594,-2975.992,0.0,0.0,0.026070367670347094,0.0,0.0,0.0,0.23467004038512976,0.21425818804813682,0.45569902904649257,0.01880461577662108,-0.004880539184571714,0.020190797642176583
2608,11.0,300.30541,-2991.4785,0.0,0.0,0.026080372090721227,0.0,0.0,0.0,0.24973913640233378,0.22009546107923078,0.4395001693002896,-0.013416582376113588,-0.010771457526310091,0.03751240537368617
2609,11.0,300.21614,-2985.7205,0.0,0.0,0.02609037651109536,0.0,0.0,0.0,0.23639903009076776,0.2196490737476758,0.4515363848531716,-0.008448735280775253,-0.006734772276770273,0.039579771976719365
2610,11.0,299.7554,-3083.6815,0.0,0.0,0.02610038093146949,0.0,0.0,0.0,0.25209209565205276,0.22687847135616176,0.45839161959723057,-0.007385424445009643,0.00859362204039946,0.04811271178585496
2611,11.0,299.83605,-3045.7775,0.0,0.0,0.0261103853518434,0.0,0.0,0.0,0.22216132604561578,0.2375950806413088,0.46608389011639856,0.005255539094906325,0.028145960966040075,0.04602639132645116
2612,11.0,299.9865,-2891.2459,0.0,0.0,0.026120356862940453,0.0,0.0,0.0,0.2020613824869058,0.23236040770968677,0.44444478925828557,-0.003169741371229117,0.00966978980403395,0.06832463569261653
2613,11.0,300.05212,-3000.1769,0.0,0.0,0.026130361283314363,0.0,0.0,0.0,0.23561682127856978,0.24017324485825378,0.43618879704598257,-0.006147050539116655,-0.0014819012720272684,0.052391725726660746
2614,11.0,300.42356,-3040.3604,0.0,0.0,0.026140365703688495,0.0,0.0,0.0,0.24944672255597475,0.23314410599953178,0.44160280511280353,0.004314172706025696,-0.018042622317168182,0.052881979694795044
2615,11.0,300.51357,-2911.8201,0.0,0.0,0.026150370124062627,0.0,0.0,0.0,0.21284593019125778,0.22931489201661776,0.4429597901767276,0.024684002521621375,-0.014791118958269785,0.03575326134507217
2616,11.0,300.43072,-2855.1254,0.0,0.0,0.026160374544436982,0.0,0.0,0.0,0.2121235943274688,0.22753713458366678,0.4282261002076256,0.0023509163348673775,-0.0024380931310710578,0.053483646590924944
2617,11.0,300.93241,-3153.5457,0.0,0.0,0.026170378964811114,0.0,0.0,0.0,0.23036700025795281,0.24247775048819079,0.48575438788522557,-0.013179793933744386,0.007213558482922794,0.03272025017148727
2618,11.0,300.22729,-3178.3476,0.0,0.0,0.026180383385185024,0.0,0.0,0.0,0.24361959215838178,0.24254075437940878,0.47997797065513753,-0.005048720766644946,0.009642793984269671,0.048617558581929454
2619,11.0,300.57881000000003,-3020.2739,0.0,0.0,0.026190387805559157,0.0,0.0,0.0,0.2335362236557308,0.23656633794727977,0.4479852877577056,-0.015046159074690287,0.024711482877583478,0.026916225929174673
2620,11.0,299.81178,-3020.5098,0.0,0.0,0.026200359316655986,0.0,0.0,0.0,0.24001088166222978,0.22742331619993378,0.45072534907562856,-0.006951484181658073,0.0032288885285914866,0.04857252873423536
2621,11.0,299.48777,-3050.5994,0.0,0.0,0.026210363737030118,0.0,0.0,0.0,0.24250556420343578,0.2260912064259648,0.45870929376858255,-0.016444795810474987,-0.003204507502035267,0.028868900726888677
2622,11.0,299.91627,-3012.9558,0.0,0.0,0.02622036815740425,0.0,0.0,0.0,0.23572205743395575,0.2263177083533188,0.4538235639063986,0.01035125967008979,-0.001787714743008708,0.044746859100171156
2623,11.0,300.73175,-3103.1079,0.0,0.0,0.026230372577778382,0.0,0.0,0.0,0.2377750439915698,0.22358508429112978,0.48190718871303656,0.011676384097869388,0.005238808207930115,0.02865609895413677
2624,11.0,300.25012999999996,-3104.2328,0.0,0.0,0.026240376998152515,0.0,0.0,0.0,0.2412954902715108,0.24061354255670775,0.46170021554626356,0.022298339611674777,-0.00041601001249699164,0.03592572968434347
2625,11.0,300.16001,-2946.2227,0.0,0.0,0.02625038141852687,0.0,0.0,0.0,0.23575629515483476,0.21859778623892176,0.4412240522254236,-0.004414099836187736,-0.015655275385555386,0.028254794159281074
2626,11.0,299.79023,-3032.0964,0.0,0.0,0.02626038583890078,0.0,0.0,0.0,0.23474318690984877,0.23648664582691475,0.4504517614161276,0.009387937468767291,-0.004860662460010035,0.04605919732493886
2627,11.0,300.0449,-3206.7184,0.0,0.0,0.02627035734999761,0.0,0.0,0.0,0.26697606074348573,0.24404389063775678,0.46374237046030853,-0.007133519729698582,-0.0008719765294373831,0.03194780301075267
2628,11.0,300.42717999999996,-3096.4944,0.0,0.0,0.02628036177037174,0.0,0.0,0.0,0.24079699148731276,0.23395789781734677,0.4665020786976706,0.006324327155412494,0.0003386480633869617,0.049263818614960354
2629,11.0,300.67307999999997,-2949.5644,0.0,0.0,0.026290366190745873,0.0,0.0,0.0,0.2138815021909608,0.24008789880233075,0.4426245158511386,-0.004156222416837216,0.01166655557189939,0.05459960782706175
2630,11.0,300.45153,-2994.6532,0.0,0.0,0.026300370611120005,0.0,0.0,0.0,0.22479037568258278,0.23411760629810877,0.45139182446140463,-0.0002977329331564527,0.017090899802990483,0.05621700019318594
2631,11.0,300.26912999999996,-3014.3253,0.0,0.0,0.026310375031494138,0.0,0.0,0.0,0.2238546493477338,0.24363579402748076,0.44878919025454456,-0.012968995356440187,0.015801632269749687,0.05414047279599865
2632,11.0,300.31324,-2917.8529,0.0,0.0,0.02632037945186827,0.0,0.0,0.0,0.21010823987856883,0.2309353525040448,0.4459108405629736,-0.007699307237137461,0.004124650962271356,0.051913625693475955
2633,11.0,299.39255,-2914.1315,0.0,0.0,0.026330383872242402,0.0,0.0,0.0,0.23283418319144478,0.20998483614888983,0.4430042110611116,-0.009626740151010282,-0.01004654658871695,0.044773445769545055
2634,11.0,299.26455,-2941.7808,0.0,0.0,0.026340388292616757,0.0,0.0,0.0,0.22360435630803177,0.2309458092450768,0.43967774138031457,0.008733841770063071,-0.00913112588719696,0.03743664770345947
2635,11.0,300.0302,-2921.6357,0.0,0.0,0.026350359803713364,0.0,0.0,0.0,0.21475794326245878,0.23247489483848577,0.4408714614556256,0.009064284615200242,0.008348578446815543,0.04833670693246155
2636,11.0,299.73421,-3191.6891,0.0,0.0,0.026360364224087274,0.0,0.0,0.0,0.2526550371426108,0.24811237349928475,0.46942636914877556,0.014995628292203285,-0.003767978517095527,0.025153740201730876
2637,11.0,299.81237999999996,-3262.2253,0.0,0.0,0.026370368644461406,0.0,0.0,0.0,0.2633184913275118,0.2560354117287278,0.4722811303780186,-0.0019302177304476584,0.003880798849480027,0.048587519769464856
2638,11.0,300.14396,-3050.3957,0.0,0.0,0.02638037306483576,0.0,0.0,0.0,0.23620643151175977,0.23409160630054276,0.45694608660706754,0.0024464801061237877,0.007455467384672343,0.032553843094314174
2639,11.0,300.03009,-3048.3647,0.0,0.0,0.026390377485209893,0.0,0.0,0.0,0.24983489866928477,0.2217644765114498,0.45502737595270554,0.010719367351919189,0.008088616164059263,0.04890567726111455
2640,11.0,300.03281,-3197.5773,0.0,0.0,0.026400381905584025,0.0,0.0,0.0,0.24076960333710978,0.2528166404010598,0.47839742208914954,0.007499885127981033,-0.0032949809074392968,0.03536755654875607
2641,11.0,299.80127000000005,-3077.5091,0.0,0.0,0.02641038632595838,0.0,0.0,0.0,0.24616472442206677,0.22044584296381078,0.46887536374439553,0.004095838182427756,-0.011131820937625188,0.04882702473535215
2642,11.0,299.17861,-2992.8735,0.0,0.0,0.02642039074633229,0.0,0.0,0.0,0.22391059088575477,0.23148039999783676,0.4543678109326116,-0.007676455812932202,-0.009816718363934671,0.04454475116897466
2643,11.0,300.05343,-2910.8871,0.0,0.0,0.02643036225742912,0.0,0.0,0.0,0.2199613168984918,0.2113995359385098,0.4534761508446115,0.0012273466037296787,0.012627489542736186,0.036396258712781064
2644,11.0,299.90592000000004,-2892.8456,0.0,0.0,0.02644036667780303,0.0,0.0,0.0,0.2070134498331368,0.2205663285332018,0.45177303954652753,-0.017545464062852484,0.006830405759633563,0.04433286638756326
2645,11.0,299.89909,-3051.6452,0.0,0.0,0.02645037109817716,0.0,0.0,0.0,0.2427057317606908,0.23593003714948177,0.4489881621766816,-0.005045376129389855,0.0056046649546623644,0.03494906905870457
2646,11.0,300.53436,-3186.2091,0.0,0.0,0.026460375518551293,0.0,0.0,0.0,0.25453672363831875,0.23776416168549575,0.4762271214349575,0.007966933946300162,0.0014206936705865485,0.051819951734981044
2647,11.0,300.70996,-3063.7852,0.0,0.0,0.026470379938925648,0.0,0.0,0.0,0.2380339395246208,0.24651404239404176,0.4467662161648926,0.026324598315035575,0.008114765008064953,0.03731972472142006
2648,11.0,300.59089,-2935.0119,0.0,0.0,0.026480384359300002,0.0,0.0,0.0,0.2270994916004748,0.2251938620049038,0.4398769767474776,0.015449463011993287,-0.008470870337159812,0.06136086261109564
2649,11.0,300.54692,-3134.2006,0.0,0.0,0.026490388779674134,0.0,0.0,0.0,0.24153727201037276,0.23726508534874077,0.47391636405190357,-0.005113444041957635,-0.012585690949610989,0.034232596873244266
2650,11.0,299.53437,-3120.0132,0.0,0.0,0.02650036029077052,0.0,0.0,0.0,0.24855897361336077,0.23033438373723378,0.46951275885230154,-0.013614948374690787,-0.00012095003310433888,0.05317997958895535
2651,11.0,299.43757999999997,-2916.2549,0.0,0.0,0.02651036471114465,0.0,0.0,0.0,0.22296364787229878,0.1980831700767868,0.4654218325010585,-0.012497363911893789,0.02040184041275488,0.03164886282049957
2652,11.0,299.7706,-2889.5384,0.0,0.0,0.026520369131518784,0.0,0.0,0.0,0.21049950640468382,0.22458641856995376,0.44326159685151356,0.0074447582430404325,0.008738739314421424,0.050486832763912456
2653,11.0,299.35864,-3035.7837,0.0,0.0,0.02653037355189314,0.0,0.0,0.0,0.24297343243711078,0.2224618256277728,0.45736716295112456,0.004771965687331345,-0.007719785325633492,0.04257675906949896
2654,11.0,299.6551,-3149.3852,0.0,0.0,0.02654037797226727,0.0,0.0,0.0,0.25638667514089475,0.2357952444886788,0.46515254102198156,0.016423264245849986,-0.0065579478739940635,0.04475553556077746
2655,11.0,300.37678999999997,-3246.4734,0.0,0.0,0.026550382392641403,0.0,0.0,0.0,0.24885339369491774,0.26405506335520573,0.47393839210907757,0.004170762454447206,-0.0031964305815131372,0.041629483710010164
2656,11.0,299.91561,-3164.0276,0.0,0.0,0.026560386813015757,0.0,0.0,0.0,0.2555356261169028,0.22685801383664278,0.47939172441227956,0.0045108220562834755,0.0067242641639582035,0.017516744502018084
2657,11.0,299.6855,-3066.4364,0.0,0.0,0.026570391233389667,0.0,0.0,0.0,0.2290755826079998,0.23903757388117178,0.4640069300614185,-0.007545966526628913,0.000913470336932503,0.027727351885976578
2658,11.0,299.55746,-3185.3856,0.0,0.0,0.026580362744486274,0.0,0.0,0.0,0.24526725841099378,0.24796619190735775,0.4750442330032156,0.010458041031878291,-0.0015761003980489985,0.03662942275954256
2659,11.0,298.94979,-3167.4073,0.0,0.0,0.026590367164860407,0.0,0.0,0.0,0.2631831616441557,0.2232950921125098,0.4763344651505515,0.007456215973846222,0.00921530386840468,0.03820682315746986
2660,11.0,299.03841,-2925.8616,0.0,0.0,0.02660037158523476,0.0,0.0,0.0,0.22394571013422077,0.2377554983971408,0.4276876591044856,0.016051848302444084,-0.008756632804562372,0.059751556994019545
2661,11.0,299.3865,-2842.8422,0.0,0.0,0.026610376005608893,0.0,0.0,0.0,0.19771406333035882,0.2197996933750408,0.4466392863248656,-0.008174384745273962,-0.015087588844779088,0.058235779427423945
2662,11.0,299.55144,-3026.9943,0.0,0.0,0.026620380425983026,0.0,0.0,0.0,0.2343132750249198,0.22874790765816078,0.4570694802042456,-0.01243214809570749,-0.002952956411009107,0.049297924613326355
2663,11.0,299.8883,-3042.64,0.0,0.0,0.026630384846357158,0.0,0.0,0.0,0.21835157659712282,0.24288487437837078,0.4636501444362066,-0.004137983813712206,0.012336536803021388,0.05009034394678205
2664,11.0,299.89329,-3007.1406,0.0,0.0,0.02664038926673129,0.0,0.0,0.0,0.2232785862683808,0.23176988555140676,0.4590471721469286,-0.003716594881999356,0.01919926959782038,0.036151104877586264
2665,11.0,300.21437000000003,-3149.4579,0.0,0.0,0.026650393687105423,0.0,0.0,0.0,0.24797451069067877,0.2533286964715957,0.45605335247396156,-0.015715339838233287,-0.00010536549676126489,0.04518338345525275
2666,11.0,300.14857,-3178.9597,0.0,0.0,0.02666036519820203,0.0,0.0,0.0,0.24622061529758277,0.2501768807105358,0.4699268640356706,0.007083176702455113,0.0034256530853856372,0.03116206504845637
2667,11.0,299.63819,-3135.1713,0.0,0.0,0.026670369618576162,0.0,0.0,0.0,0.2519082008914038,0.2515785906338738,0.4495269984473606,-0.0018011912733137383,0.013696564656995687,0.049681496518181954
2668,11.0,300.2597,-3267.3984,0.0,0.0,0.026680374038950294,0.0,0.0,0.0,0.25278673939060875,0.25394068939949477,0.48648008773934653,0.003924017107320337,-0.0023588780488531377,0.03228310368084426
2669,11.0,300.0663,-3162.8783,0.0,0.0,0.02669037845932465,0.0,0.0,0.0,0.25309804021883175,0.22111453736730577,0.4872234282777086,-0.0029490332079469173,-0.012466644195361988,0.04554023088872086
2670,11.0,300.22598,-2885.7021,0.0,0.0,0.02670038287969878,0.0,0.0,0.0,0.21177117581018778,0.2151571941993618,0.4502530124090126,-0.001113101540379569,0.010085783077639292,0.02751000163352577
2671,11.0,299.78224,-2950.0577,0.0,0.0,0.026710387300072913,0.0,0.0,0.0,0.23253802031971577,0.2219757188922978,0.44223012851471555,0.013011270177112387,0.01153672682333629,0.054874540069445456
2672,11.0,300.11994,-3218.1271,0.0,0.0,0.026720391720447045,0.0,0.0,0.0,0.25339724284086074,0.23258871322221877,0.4922443257032325,-0.005011190692216016,0.004017574136753696,0.03078140218463787
2673,11.0,299.807,-3106.0414,0.0,0.0,0.026730396140820956,0.0,0.0,0.0,0.24667483505241078,0.24889673040169477,0.4485874622921356,-0.002347433388973638,-0.020547000648581084,0.04790738374584066
2674,11.0,299.60911,-3084.2554,0.0,0.0,0.026740367651918007,0.0,0.0,0.0,0.24011739451274175,0.24011395959490275,0.45730527363501655,0.0007144523524459573,-0.02249594769917718,0.04296970455102966
2675,11.0,299.93383,-3125.1276,0.0,0.0,0.026750372072291917,0.0,0.0,0.0,0.2343914067401308,0.24052236018020878,0.4750469789109865,0.013131435559471789,-0.0008791129309516912,0.03645733337580867
2676,11.0,299.65542999999997,-3130.836,0.0,0.0,0.02676037649266605,0.0,0.0,0.0,0.23642399657323176,0.24961544896262677,0.4656565113567196,0.0041134316492140955,0.005042311554462405,0.03480835597756726
2677,11.0,299.73758,-3262.857,0.0,0.0,0.02677038091304018,0.0,0.0,0.0,0.24522338468166377,0.25581749202972076,0.49078617774932454,-0.00035187815100266965,0.0011943956091526689,0.03524386302954847
2678,11.0,300.35311,-3274.3677,0.0,0.0,0.026780385333414536,0.0,0.0,0.0,0.25139055168031577,0.2607592748874368,0.48317618313827654,-0.010542657547729291,0.01979072191969218,0.04309534553692946
2679,11.0,300.48345,-3092.0243,0.0,0.0,0.026790389753788668,0.0,0.0,0.0,0.24090032273251077,0.2404287662684718,0.4585690903522455,-0.007501059687496953,0.011203803237979289,0.04867239466409136
2680,11.0,299.81721,-2943.4429,0.0,0.0,0.0268003941741628,0.0,0.0,0.0,0.2093755384662568,0.23437739349124778,0.4509802118732816,-0.009244995034759972,8.837931331635912e-05,0.06253542719326614
2681,11.0,300.66812000000004,-3061.9403,0.0,0.0,0.026810365685259407,0.0,0.0,0.0,0.22848112903933177,0.24308415027553779,0.4591881152358385,-0.01131206090516349,-0.02173817239989058,0.051371279524450544
2682,11.0,299.60616,-3187.2628,0.0,0.0,0.02682037010563354,0.0,0.0,0.0,0.25908980349267274,0.23553027958752878,0.47422821203518056,-0.008270151470525402,-0.0031776711678367267,0.04228965870666436
2683,11.0,299.57294,-3000.7749,0.0,0.0,0.026830374526007672,0.0,0.0,0.0,0.22271100409236477,0.23146901106671278,0.4579806149591676,0.009295953915414221,0.0025959197024223277,0.05283020666768545
2684,11.0,299.70172,-2973.724,0.0,0.0,0.026840378946381804,0.0,0.0,0.0,0.2298010088845938,0.2320144638605448,0.44212236936658056,0.008696983581775451,-0.0014432659443892586,0.05978171840974625
2685,11.0,299.54237,-3248.6324,0.0,0.0,0.026850383366755937,0.0,0.0,0.0,0.2545639800660087,0.24942938584676375,0.4835097552036976,0.003098532586001357,-0.013742622953541287,0.03255181963386447
2686,11.0,299.30913,-3294.1585,0.0,0.0,0.02686038778713007,0.0,0.0,0.0,0.2596938626722888,0.26558565869126377,0.4760624074987016,0.0067333615286560445,-0.002027099132134108,0.04993812338425905
2687,11.0,299.21551,-3243.1396,0.0,0.0,0.026870392207504423,0.0,0.0,0.0,0.25565658791384077,0.24697995505502374,0.4831969142353225,0.014854745998299286,0.007999422594856542,0.03088091449020897
2688,11.0,298.88115,-3153.8959999999997,0.0,0.0,0.026880396627878334,0.0,0.0,0.0,0.2541995342700408,0.23407864683176377,0.4704274399825736,0.00010831797583015189,0.006396356774546264,0.038033528006116965
2689,11.0,299.75686,-2912.6946,0.0,0.0,0.026890368138975163,0.0,0.0,0.0,0.1911386274689138,0.24121293065336277,0.4530348905585626,-0.001155720258135709,-0.006698352116500884,0.027981653343074172
2690,11.0,299.76534,-3028.6516,0.0,0.0,0.026900372559349295,0.0,0.0,0.0,0.23659763724286878,0.22404184730370877,0.4599949764229696,-0.008908514738901951,0.015056865075246884,0.04365988897589555
2691,11.0,300.01504,-3275.0076,0.0,0.0,0.026910376979723427,0.0,0.0,0.0,0.26469482946834577,0.2374491827594098,0.4933765313649725,-0.007122622630173124,0.017436151602314185,0.04608938711166836
2692,11.0,299.9503,-3012.21,0.0,0.0,0.02692038140009756,0.0,0.0,0.0,0.23294318863720279,0.23596611898554276,0.44672732762605455,-0.0098054097835436,0.007750812867545673,0.06262503092610935
2693,11.0,299.78969,-2888.7914,0.0,0.0,0.02693038582047169,0.0,0.0,0.0,0.21283364960004583,0.23236550435768977,0.4329212985210056,-0.008241537591676432,-0.015833965080440684,0.06046260930469494
2694,11.0,300.2827,-3223.1457,0.0,0.0,0.026940390240845824,0.0,0.0,0.0,0.26349611407004175,0.2415986952314348,0.4746609914178926,0.012407588939783687,-0.0023712630048254375,0.04900591404050716
2695,11.0,300.45209,-3431.7687,0.0,0.0,0.026950394661219956,0.0,0.0,0.0,0.2867665577216557,0.25660894168283077,0.4997964839985725,0.02151819580318058,-0.0015813371785408283,0.046366952791061955
2696,11.0,299.84635,-3196.7014,0.0,0.0,0.02696039908159431,0.0,0.0,0.0,0.24087450511996275,0.24686621773129874,0.48397668111477954,0.007153545300699952,0.00042129643211122054,0.041502529551980756
2697,11.0,299.62368,-2944.5196,0.0,0.0,0.026970370592690918,0.0,0.0,0.0,0.20468501123583782,0.23220890655473478,0.4581665260875155,-0.010647481310324591,-0.02290095389664818,0.040014868662410066
2698,11.0,299.75452,-3032.3601,0.0,0.0,0.026980375013064828,0.0,0.0,0.0,0.2138036541857778,0.2271367285416498,0.48082135950837357,-0.008260534004551233,-0.0036656380278453065,0.03051994211558377
2699,11.0,299.3022,-3175.9390000000003,0.0,0.0,0.02699037943343896,0.0,0.0,0.0,0.2511080068899308,0.23923564401071978,0.4750624917700175,-0.0028779448981560473,0.015012038890822884,0.04588760342050386
2700,11.0,299.00727,-3248.917,0.0,0.0,0.027000383853813315,0.0,0.0,0.0,0.25461958723149675,0.2469820220852278,0.48598801296078253,8.282227486542212e-05,-0.0048984149428359155,0.04320347452135096
2701,11.0,299.14787,-3080.7329,0.0,0.0,0.027010388274187447,0.0,0.0,0.0,0.2318596696427678,0.22853841819998577,0.4760677777242316,-0.007871411616972841,-0.022503782148950376,0.048289325331285354
2702,11.0,299.72617,-2884.2017,0.0,0.0,0.02702039269456158,0.0,0.0,0.0,0.20244265836703482,0.23451685723501178,0.4397657826815036,-0.005246633031827365,0.0008395097265531592,0.05620976052122145
2703,11.0,299.83386,-3126.6702,0.0,0.0,0.027030397114935933,0.0,0.0,0.0,0.24115308810245675,0.23409701705607677,0.4751795525540706,0.009438103481218292,0.018503076599861484,0.05938076622592535
2704,11.0,299.94536,-3500.6278,0.0,0.0,0.02704036862603254,0.0,0.0,0.0,0.2828418043868127,0.26829413700356974,0.5129674991334504,0.004983128021421445,0.023283279503880774,0.04489378644417176
2705,11.0,299.87232,-3230.9133,0.0,0.0,0.027050373046406673,0.0,0.0,0.0,0.26430373519474776,0.24594638929051876,0.47186683267713053,-0.005025291789882685,0.005918134340749385,0.03088100568271797
2706,11.0,300.10988,-2899.2646,0.0,0.0,0.027060377466780583,0.0,0.0,0.0,0.2108127425405978,0.2124320479229108,0.45805925329942854,0.006007409881885194,-0.01205642077312609,0.02877514266863547
2707,11.0,300.09991,-3195.3602,0.0,0.0,0.027070381887154715,0.0,0.0,0.0,0.25965556181850874,0.23662120544019477,0.47503293526460055,0.012976607904441488,-0.016738624153973584,0.021680226653171777
2708,11.0,299.76421,-3482.0686,0.0,0.0,0.02708038630752907,0.0,0.0,0.0,0.27985211877425376,0.26543593072398675,0.5131738475163155,0.0016531999153831286,-0.013808138691757187,0.022959078988634682
2709,11.0,299.69962000000004,-3274.8779999999997,0.0,0.0,0.027090390727903202,0.0,0.0,0.0,0.24216861801518177,0.25830147464987074,0.49501104563128656,0.0005478872183897585,-0.02156275448957818,0.03653527156025057
2710,11.0,300.16375,-3075.8540000000003,0.0,0.0,0.027100395148277556,0.0,0.0,0.0,0.2228695372030108,0.24260904743614878,0.4695042374189605,-0.012234242112675688,0.016713043641948984,0.05364936364477996
2711,11.0,300.01821,-3083.2774,0.0,0.0,0.027110399568651466,0.0,0.0,0.0,0.23466422432955575,0.2505273031251198,0.4520478228411466,-0.001949591275009678,0.03136241499072937,0.06134275481855854
2712,11.0,299.6902,-3045.8674,0.0,0.0,0.027120371079748073,0.0,0.0,0.0,0.23114412255464878,0.24592500971340878,0.44879850202296356,0.003250295666104207,0.006113564548486845,0.06988802588141113
2713,11.0,298.98408,-3165.013,0.0,0.0,0.027130375500122206,0.0,0.0,0.0,0.24644038924427275,0.24762337900102477,0.4680211432475906,0.0021684725483615778,-0.01074458512040799,0.060205178931288544
2714,11.0,299.36048999999997,-3193.4093,0.0,0.0,0.027140379920496338,0.0,0.0,0.0,0.24927016372604976,0.24776454500495676,0.4736819891712726,-0.0045467729804315555,-0.022889908457308077,0.04876298530253195
2715,11.0,300.07001,-2981.8804,0.0,0.0,0.027150384340870692,0.0,0.0,0.0,0.2054275918366248,0.24512532233698578,0.45586426987280054,0.006298282473517084,0.0002990758543089887,0.05017520262940695
2716,11.0,300.47693,-3113.1052,0.0,0.0,0.027160388761244825,0.0,0.0,0.0,0.2355847519129048,0.24908239835001877,0.46163910643273254,-0.005712213346776564,0.007406407030730463,0.03755649087228706
2717,11.0,300.15075,-3462.92,0.0,0.0,0.027170393181618957,0.0,0.0,0.0,0.2721936198809187,0.2678362087533757,0.5126113721208035,0.008975786743516182,0.01093096031730179,0.026172688820293274
2718,11.0,300.38494,-3427.1299,0.0,0.0,0.02718039760199331,0.0,0.0,0.0,0.2730697468448858,0.27537580274747575,0.49331634430903254,0.006285416933022354,0.0010091667122295,0.038127144209356166
2719,11.0,300.45364,-3165.2302,0.0,0.0,0.02719040202236722,0.0,0.0,0.0,0.26071771136833477,0.23659046343216078,0.46484274993640756,0.01165024427178959,-0.002807390267192847,0.028550580101972874
2720,11.0,299.98067000000003,-3087.3802,0.0,0.0,0.02720037353346383,0.0,0.0,0.0,0.24836374058409275,0.23374822597415376,0.4563745122256576,0.011642146376990388,-0.014448708312226485,0.048603002230992856
2721,11.0,299.65015,-3199.0992,0.0,0.0,0.02721037795383796,0.0,0.0,0.0,0.24290958754830977,0.24224442938766377,0.4872922482245005,0.006319188254880324,-0.0005124991040097236,0.037099995357734464
2722,11.0,299.32245,-3215.2353,0.0,0.0,0.027220382374212315,0.0,0.0,0.0,0.24709633696150976,0.24006355040242777,0.4901913492781195,0.007044595279722423,0.0002513559086593968,0.054552825056694655
2723,11.0,299.48649,-3251.4212,0.0,0.0,0.027230386794586448,0.0,0.0,0.0,0.24903593070043276,0.2530962771636578,0.48621864894854455,-0.007577808417646462,0.013740122252294488,0.04093627068059536
2724,11.0,299.50996000000004,-3095.3637,0.0,0.0,0.02724039121496058,0.0,0.0,0.0,0.24510403395238475,0.22379200009405079,0.4720172496544756,-0.014630311101149285,0.002175046008385328,0.050526111404038954
2725,11.0,300.01885,-3016.7046,0.0,0.0,0.027250395635334712,0.0,0.0,0.0,0.24020853635923675,0.2261701994037608,0.4506241456556405,-0.015917039429639485,0.0018716959510470083,0.040967138331641756
2726,11.0,300.14509,-3289.9815,0.0,0.0,0.027260400055708844,0.0,0.0,0.0,0.25940193518597776,0.26916164120918573,0.4715086690317825,-0.0071561372957807635,0.004524012039460225,0.04600633606722186
2727,11.0,300.16458,-3443.8821,0.0,0.0,0.02727037156680545,0.0,0.0,0.0,0.2632661670923478,0.26758515577609876,0.5160028316630144,0.0072830057328517024,0.010642416073074689,0.042019045949456955
2728,11.0,300.20907,-3169.4546,0.0,0.0,0.027280375987179584,0.0,0.0,0.0,0.22926990371217776,0.2618974587247668,0.4722676946816925,0.004633701125060696,0.008292332933764543,0.04802782067922686
2729,11.0,300.46315,-2909.0555,0.0,0.0,0.027290380407553716,0.0,0.0,0.0,0.2042155116695018,0.22616898350364076,0.45389575797602355,0.0033700772293257268,0.014550018123474985,0.05473739768166055
2730,11.0,300.12887,-3049.2285,0.0,0.0,0.027300384827927848,0.0,0.0,0.0,0.2323499611011558,0.23430078165118678,0.4602385921445125,0.006825208597220644,0.00021736154005691378,0.04128304032856886
2731,11.0,299.94737000000003,-3208.3454,0.0,0.0,0.027310389248302203,0.0,0.0,0.0,0.25450238459242974,0.24133170383008476,0.47942280079284655,0.0024176534447538176,-0.0014799443821091388,0.05587075338226404
2732,11.0,300.41556,-3169.167,0.0,0.0,0.027320393668676335,0.0,0.0,0.0,0.24591636669005576,0.24182958453172176,0.47560170294323356,-0.0007084508721036573,-0.017178404081626485,0.05306425730828445
2733,11.0,299.88669,-3049.4138,0.0,0.0,0.027330398089050467,0.0,0.0,0.0,0.22661099359476378,0.24154939048156876,0.4587852672610806,-0.0077100566047983415,-0.02087448510740128,0.06088329149446304
2734,11.0,299.81926,-2960.0671,0.0,0.0,0.0273404025094246,0.0,0.0,0.0,0.2235270554579028,0.2278127082133638,0.4484467218532456,-0.014448754921731088,-0.013019451158419789,0.04916216632517805
2735,11.0,300.30554,-3146.1013,0.0,0.0,0.027350374020521206,0.0,0.0,0.0,0.24171233123014976,0.2445581454610098,0.47006574009437657,-0.008625358350756592,0.004946832186939325,0.046821421805414556
2736,11.0,299.85755,-3411.6012,0.0,0.0,0.02736037844089556,0.0,0.0,0.0,0.2860817526415707,0.25375009705568474,0.49720972742077946,-0.0014447475186854788,0.014571387568083986,0.03174778338801227
2737,11.0,300.0361,-3231.0027,0.0,0.0,0.02737038286126947,0.0,0.0,0.0,0.2688586895617867,0.2366454119850838,0.4766400411157095,0.004382587656752725,0.024349281430586976,0.01960515428312808
2738,11.0,300.6484,-2916.7437,0.0,0.0,0.027380387281643603,0.0,0.0,0.0,0.2131927150379828,0.2153228909882148,0.4581016476836125,0.01229342909076699,0.004100389701876956,0.033308073031500865
2739,11.0,300.12769,-3184.676,0.0,0.0,0.027390391702017736,0.0,0.0,0.0,0.25469282494872475,0.24395754146423476,0.4694116060948185,0.002205091609625598,0.008189270301168053,0.038297744115443066
2740,11.0,299.82079,-3429.8108,0.0,0.0,0.02740039612239209,0.0,0.0,0.0,0.2700440401912717,0.25253827020108677,0.5199945202994635,0.006369446270440404,-0.0029068357995823573,0.04432850029288236
2741,11.0,300.21139,-3282.2825,0.0,0.0,0.027410400542766222,0.0,0.0,0.0,0.25321208151758673,0.2504868845786308,0.49403296544225755,-0.01201118624891179,-0.001176378198524489,0.053920283416767655
2742,11.0,300.09398999999996,-3078.9754,0.0,0.0,0.027420404963140133,0.0,0.0,0.0,0.2294914001840378,0.23319529539458378,0.4732449541381405,-0.015476908917451987,0.006132219293427925,0.047629905205955655
2743,11.0,299.77366,-3059.4677,0.0,0.0,0.02743037647423696,0.0,0.0,0.0,0.23543784078090577,0.22346366653164676,0.4711002684464766,-0.006441114868563544,0.012575624309867488,0.04998376624826365
2744,11.0,299.34148,-3232.9767,0.0,0.0,0.027440380894611094,0.0,0.0,0.0,0.24209311061772973,0.26302884365392576,0.47762224523264557,-0.01064261872309469,-0.002813375535533547,0.053928755200853745
2745,11.0,299.50367,-3301.1531,0.0,0.0,0.027450385314985226,0.0,0.0,0.0,0.2680944659388637,0.25362189052053175,0.4817517561476965,0.0027883479540885174,0.00017643593282037082,0.055504035879571846
2746,11.0,299.80844,-3159.7343,0.0,0.0,0.02746038973535936,0.0,0.0,0.0,0.2403773539583978,0.2505266141150518,0.46957635042857754,0.009221999526390492,-0.02006208042897318,0.04147621139388336
2747,11.0,299.44051,-2922.1345,0.0,0.0,0.02747039415573349,0.0,0.0,0.0,0.2154208824053858,0.2256077746707538,0.4472272652253946,0.007451279520684033,-0.004175238993389006,0.04947041625734996
2748,11.0,299.63252,-3028.0654,0.0,0.0,0.027480398576107623,0.0,0.0,0.0,0.23771001360015176,0.2211894874772028,0.4615567899946086,-9.77315458781026e-05,-0.007330652704229093,0.03698349490098676
2749,11.0,300.05512000000004,-3346.1718,0.0,0.0,0.027490402996481977,0.0,0.0,0.0,0.2600781580377158,0.26159071752199375,0.49548381799544555,0.004471439963321766,0.00981435526205145,0.03974282924906186
2750,11.0,299.97603,-3341.1928,0.0,0.0,0.027500374507578584,0.0,0.0,0.0,0.2624044586773037,0.2387862169288648,0.5144485161421155,0.006884085824756374,0.009748057700058392,0.03648103734864806
2751,11.0,300.02445,-3136.7956,0.0,0.0,0.027510378927952717,0.0,0.0,0.0,0.2381411413852008,0.24803254965640675,0.46733384557225954,-0.00997795867619785,0.015935294143441085,0.05275470230998375
2752,11.0,299.65679,-3041.0062,0.0,0.0,0.02752038334832685,0.0,0.0,0.0,0.2199268967925948,0.22844655694591978,0.47601650726917155,-0.01183893677166209,-0.006033037307389425,0.05240024513350154
2753,11.0,299.92877999999996,-3199.1040000000003,0.0,0.0,0.02753038776870098,0.0,0.0,0.0,0.2567390429956708,0.23431805756539179,0.4813906439445575,-0.00998062088951059,0.004442698009660156,0.05026711353272786
2754,11.0,299.80089,-3304.9514,0.0,0.0,0.027540392189075114,0.0,0.0,0.0,0.26283242512204075,0.2460984781305288,0.49569178757847054,-0.0033685522879252265,0.0028568426475984172,0.03302003135932337
2755,11.0,300.18422999999996,-3166.3579999999997,0.0,0.0,0.027550396609449246,0.0,0.0,0.0,0.24545348364687278,0.23443603027453477,0.4826042642518325,0.0023069817092063677,0.006895569798739754,0.03669312478007947
2756,11.0,299.84189,-3054.1220000000003,0.0,0.0,0.027560401029823378,0.0,0.0,0.0,0.23861062068653477,0.2294906503789638,0.4602755352431585,0.0003758522157887256,-0.008318022268849883,0.033513535833778474
2757,11.0,299.36147,-3076.5564,0.0,0.0,0.02757040545019751,0.0,0.0,0.0,0.23927684275978575,0.24895985588292477,0.4469596050789786,0.006489162783005505,-0.0028885315378508673,0.049055946303944956
2758,11.0,299.44809,-3338.0448,0.0,0.0,0.02758037696129434,0.0,0.0,0.0,0.2513192999332837,0.27624931552618476,0.4871136527618745,0.013909077653469088,-0.017512464533595683,0.043523968567731254
2759,11.0,299.56282000000004,-3448.534,0.0,0.0,0.027590381381668472,0.0,0.0,0.0,0.2788895413117547,0.27154361994176873,0.4978350547199945,0.014538673775355384,-0.0008359957954713613,0.05985763414698853
2760,11.0,299.14367999999996,-3156.7291,0.0,0.0,0.027600385802042382,0.0,0.0,0.0,0.2300571179798698,0.25383880710193973,0.47567088766006155,0.0005208215248985825,-0.014838134776159886,0.052296565330269155
2761,11.0,299.47989,-2942.0045,0.0,0.0,0.027610390222416514,0.0,0.0,0.0,0.2061176354197268,0.23067609220095778,0.4575021886594506,0.006918835034285854,0.01061390929476129,0.06167637045373384
2762,11.0,299.69039,-3159.9556,0.0,0.0,0.02762039464279087,0.0,0.0,0.0,0.23290863680879278,0.2407039244656278,0.4869350370342465,-0.0006270369966387334,0.016338606186744882,0.03255024402995897
2763,11.0,299.98308,-3312.1769,0.0,0.0,0.027630399063165,0.0,0.0,0.0,0.26358552325886575,0.24494172141886575,0.4982918076000725,-0.010731050125572189,0.02002647076745878,0.04408114061221986
2764,11.0,299.88541000000004,-3321.1428,0.0,0.0,0.027640403483539133,0.0,0.0,0.0,0.25022532419781673,0.2676348962235078,0.4916842821079605,-0.017555129455556383,-0.0012327010225581187,0.037617441918802466
2765,11.0,300.04964,-3172.4496,0.0,0.0,0.027650407903913488,0.0,0.0,0.0,0.2523169155842408,0.23757703465702779,0.47445151209221853,-0.02145076502227568,-0.007410406328875164,0.031481318876714265
2766,11.0,299.67554,-3158.5316,0.0,0.0,0.027660379415010095,0.0,0.0,0.0,0.23188667275793276,0.24543885231542875,0.4827892229250866,0.004295045279912966,-0.014289656417529287,0.03263473490279757
2767,11.0,299.92652000000004,-3342.3735,0.0,0.0,0.027670383835384005,0.0,0.0,0.0,0.25346716723026175,0.2728430321350107,0.4896878957009326,0.0002669373140596617,-0.0007705421694865914,0.043691672605032365
2768,11.0,300.00306,-3442.3937,0.0,0.0,0.027680388255758137,0.0,0.0,0.0,0.28459985410531874,0.25563216858643073,0.5061697156700615,0.018139889260517683,-0.007438090348107363,0.03479328084257947
2769,11.0,300.43212,-3224.6936,0.0,0.0,0.02769039267613227,0.0,0.0,0.0,0.25158863194236475,0.25243838400622876,0.47619932798471454,0.009644246680938042,-9.574823546361511e-05,0.05119393339919785
2770,11.0,300.09639,-2942.4542,0.0,0.0,0.027700397096506624,0.0,0.0,0.0,0.2130787953292398,0.2191100044294738,0.4622438039599116,0.010812478956608591,0.011274893878245387,0.04465582567143686
2771,11.0,300.73947999999996,-3100.4926,0.0,0.0,0.027710401516880756,0.0,0.0,0.0,0.23334757675211276,0.23127030258960177,0.4778544314930605,0.004577809033644576,-0.01898597031926938,0.04819224887895465
2772,11.0,301.00335,-3429.8493,0.0,0.0,0.02772040593725511,0.0,0.0,0.0,0.26092930838671774,0.25649835556691675,0.5251608697768425,-0.007129655801767244,-0.027531699371167173,0.04200618172618736
2773,11.0,300.43528,-3322.5918,0.0,0.0,0.027730410357629243,0.0,0.0,0.0,0.2529527806844957,0.25110776370990673,0.5059244078208516,-0.008828558768210912,-0.01930390590914718,0.04322725347469776
2774,11.0,300.23263,-3016.522,0.0,0.0,0.027740381868725628,0.0,0.0,0.0,0.22232902906966678,0.2391700158017428,0.45544831044174855,0.0055271873937159256,0.005903003679656104,0.03736123352501666
2775,11.0,299.72828,-3116.722,0.0,0.0,0.02775038628909976,0.0,0.0,0.0,0.23156322306101076,0.2482173766071478,0.4676250637835005,0.005968763003196044,0.016652538425477585,0.04210078787477426
2776,11.0,299.81392999999997,-3372.9795,0.0,0.0,0.027760390709473892,0.0,0.0,0.0,0.2690995289780558,0.2702404688556577,0.48596154686817056,-0.012692210892873687,0.012229096828667888,0.04549872107187416
2777,11.0,300.0564,-3336.6641,0.0,0.0,0.027770395129848247,0.0,0.0,0.0,0.2690469514303668,0.26422206723668773,0.4809935512303675,-0.006902308114554774,0.011828278393860189,0.04831161987323566
2778,11.0,299.879,-3125.9008,0.0,0.0,0.02778039955022238,0.0,0.0,0.0,0.2305952753729818,0.2363558757690088,0.48324463831503256,0.006286879762191724,0.017679121883543484,0.04788367268025055
2779,11.0,299.79731,-2941.222,0.0,0.0,0.02779040397059651,0.0,0.0,0.0,0.20970433812370678,0.2334637458760778,0.45088996168687456,0.017314062058014883,0.004430471323353475,0.05645112277454204
2780,11.0,300.10200000000003,-3060.5245,0.0,0.0,0.027800408390970865,0.0,0.0,0.0,0.2238028722676238,0.2361451197482088,0.4703750448199026,-0.0011061011980886889,-0.0007247124216335473,0.06494886531495395
2781,11.0,299.80482,-3456.1162,0.0,0.0,0.02781037990206725,0.0,0.0,0.0,0.28740413521457975,0.25366693961997777,0.5095019406114265,-0.0029551660055021772,-0.01095183630911209,0.04897870118257146
2782,11.0,299.87817,-3429.8066,0.0,0.0,0.027820384322441383,0.0,0.0,0.0,0.26990118205967273,0.26109370821544275,0.5115806738540815,-0.004285313316677496,0.014166226343347686,0.04959469036886485
2783,11.0,299.53061,-3029.9833,0.0,0.0,0.027830388742815515,0.0,0.0,0.0,0.2108595749602198,0.22907217808766378,0.4811075317341165,0.011470603135060388,-0.0008090236148319142,0.04037133308734036
2784,11.0,298.91986,-3069.4622,0.0,0.0,0.02784039316318987,0.0,0.0,0.0,0.21279634173136378,0.2359075936597668,0.4843359289377346,-0.0005909422619039603,-0.018762710792235383,0.03746743632099806
2785,11.0,299.68273,-3346.6894,0.0,0.0,0.027850397583564,0.0,0.0,0.0,0.26453636728520674,0.25059175596398076,0.5021818976489946,-0.0070557579520990924,-0.014135775138092384,0.024262388141761276
2786,11.0,299.79689,-3406.3564,0.0,0.0,0.027860402003938134,0.0,0.0,0.0,0.2813663298561947,0.26047443001932474,0.49360653913767255,-0.0025064834598206576,0.010640401731875889,0.019229514100055283
2787,11.0,300.07952,-3257.51,0.0,0.0,0.027870406424312266,0.0,0.0,0.0,0.2566375254681518,0.26719817529790674,0.4663659992092406,0.002932419756657297,0.016678170613257284,0.048219938977687456
2788,11.0,300.38535,-3111.1042,0.0,0.0,0.0278804108446864,0.0,0.0,0.0,0.24675702990052276,0.22696587430978776,0.4719751085828165,-0.027407496187159274,0.013294612395326089,0.042567980270632556
2789,11.0,299.92323999999996,-3272.2828,0.0,0.0,0.027890382355783006,0.0,0.0,0.0,0.2501315479010618,0.24534830828649276,0.4992124061109285,-0.01911012182752218,-0.003338751589234127,0.053560118602472145
2790,11.0,299.69284,-3416.4678,0.0,0.0,0.027900386776157138,0.0,0.0,0.0,0.26078392726236976,0.25450664024284975,0.5232303243613124,0.003473307656138777,0.01036497806319369,0.04395813508983016
2791,11.0,299.90477999999996,-3313.8542,0.0,0.0,0.02791039119653127,0.0,0.0,0.0,0.25624698848210875,0.24545614849463576,0.5056258030163816,0.01827040296614838,0.003421788954804277,0.056362141177260246
2792,11.0,299.73214,-3080.0772,0.0,0.0,0.027920395616905402,0.0,0.0,0.0,0.22724077919441876,0.2358380036428988,0.4731877663024966,0.024002639452126075,-0.012416120505625688,0.052145388415349145
2793,11.0,299.89932999999996,-2981.2539,0.0,0.0,0.027930400037279757,0.0,0.0,0.0,0.22802078925389976,0.22599000300597677,0.45221594129773857,0.006797416160227743,-0.02208520346638988,0.05878777984340215
2794,11.0,300.0481,-3257.2095,0.0,0.0,0.02794040445765389,0.0,0.0,0.0,0.25355826854675273,0.24607660206086976,0.49047548487116155,-0.0045743092677991756,0.0094210941531146,0.03662475775608217
2795,11.0,299.67399,-3429.9462,0.0,0.0,0.02795040887802802,0.0,0.0,0.0,0.2634589784538768,0.28108097836303275,0.49807804222647556,-0.009625069706895422,-0.009190037159936052,0.04429727699105086
2796,11.0,300.75757999999996,-3151.7638,0.0,0.0,0.027960413298402154,0.0,0.0,0.0,0.22779018366364076,0.2426200310672328,0.4876472809270396,-0.016432763465537487,-0.004086154348572036,0.039616719128365764
2797,11.0,300.90637000000004,-3078.3419,0.0,0.0,0.02797038480949876,0.0,0.0,0.0,0.23743244386775778,0.24279095622660174,0.4555156611758956,-0.0017718317437161782,-0.026833151579975872,0.044083379894940856
2798,11.0,300.19723999999997,-3351.5267,0.0,0.0,0.027980389229872893,0.0,0.0,0.0,0.26217017498918177,0.25727953086401273,0.4993307233251055,0.014384076128097785,0.0031393239072021475,0.05104042803554805
2799,11.0,299.96937,-3341.0765,0.0,0.0,0.027990393650247025,0.0,0.0,0.0,0.2743576282519897,0.24833782164653476,0.4929083895537705,0.016110601609492587,0.0003335375237250907,0.054258075668855155
2800,11.0,299.44631,-3259.5872,0.0,0.0,0.028000398070621157,0.0,0.0,0.0,0.23987446780126676,0.25758133753879875,0.49337730143504854,-0.01049936846370699,-0.0003609603169490097,0.06366974750796484
2801,11.0,299.44462999999996,-3079.8116,0.0,0.0,0.02801040249099529,0.0,0.0,0.0,0.23193122536482974,0.21486345299537182,0.48939115527664656,-0.01049793471481549,-0.002079997576129778,0.04428810910414605
2802,11.0,299.93448,-2972.1835,0.0,0.0,0.028020406911369644,0.0,0.0,0.0,0.2086876733708698,0.2161628145261088,0.47861908068102554,-0.013814500889135089,0.03263532968060627,0.03463844508154836
2803,11.0,299.80202,-3226.9954,0.0,0.0,0.028030411331743776,0.0,0.0,0.0,0.2448689801941868,0.25411717730191274,0.48193987616126255,0.0033814038455685772,0.017985539859534584,0.04361146372711636
2804,11.0,299.73873,-3555.5047,0.0,0.0,0.028040382842840383,0.0,0.0,0.0,0.28826260122930375,0.27109933003792075,0.5214227064479146,-0.004774669849198225,-0.007074229298772073,0.034493229116966666
2805,11.0,300.37431000000004,-3461.2837,0.0,0.0,0.028050387263214516,0.0,0.0,0.0,0.2839209664058177,0.2855154370281797,0.4827074131120125,-0.004323575970928726,-0.026313456616935977,0.04476384623809766
2806,11.0,300.28924,-3157.8473,0.0,0.0,0.028060391683588648,0.0,0.0,0.0,0.24861203752109778,0.24432128811763376,0.4669734122466876,0.018719091388680484,-0.010274074330472189,0.03679962445834017
2807,11.0,299.66602,-3297.5416,0.0,0.0,0.02807039610396278,0.0,0.0,0.0,0.2541913978717378,0.26416944915899476,0.48400944962301357,0.02177372531939938,-0.013804500110648087,0.043126238519228366
2808,11.0,299.72287,-3381.4912,0.0,0.0,0.028080400524336913,0.0,0.0,0.0,0.25289145878844377,0.27478261574143276,0.5002148245673596,0.008352839366136061,-0.006422818307532814,0.030124034904010766
2809,11.0,299.91019,-3244.7541,0.0,0.0,0.028090404944711045,0.0,0.0,0.0,0.24041158154677578,0.24807771021336378,0.4978349229974815,0.003423033327252087,-0.006108890223125525,0.03800817344886467
2810,11.0,300.09484,-3151.6698,0.0,0.0,0.028100409365085177,0.0,0.0,0.0,0.23444623370304177,0.23976822852828175,0.4838144496412686,0.0026515865483412175,0.026455748341729077,0.05683475648765375
2811,11.0,300.06129,-3082.5478,0.0,0.0,0.02811041378545953,0.0,0.0,0.0,0.23255954175183977,0.22838333013967976,0.47607468808991354,-0.008836702563239643,0.01956301017171878,0.04950449287146305
2812,11.0,299.89496,-3144.1739,0.0,0.0,0.02812038529655614,0.0,0.0,0.0,0.2313994919773518,0.24459086330673874,0.47976001042612654,-0.025333329662704976,0.001015701151991899,0.07392517702334693
2813,11.0,299.68867,-3386.1472,0.0,0.0,0.02813038971693027,0.0,0.0,0.0,0.2659779891299837,0.27100149060826473,0.4923247068336656,-0.017518393059930783,-0.0008441814275967201,0.043153853637453755
2814,11.0,300.53014,-3376.1903,0.0,0.0,0.02814039413730418,0.0,0.0,0.0,0.26156027948898974,0.27335031579757574,0.4913669524416426,-0.0013415767723033187,0.017263743044798784,0.052545719476858745
2815,11.0,300.36593,-3146.8311,0.0,0.0,0.028150398557678535,0.0,0.0,0.0,0.24527516176177377,0.24717711325948175,0.46410579287367554,0.028984181230515972,0.012808379003588588,0.024989269445498875
2816,11.0,299.82529,-3141.7026,0.0,0.0,0.028160402978052668,0.0,0.0,0.0,0.2270677566073428,0.26427360113677373,0.4636577944744616,-0.002298049605599838,-0.009786207782223512,0.056739842311036445
2817,11.0,300.0463,-3407.3844,0.0,0.0,0.0281704073984268,0.0,0.0,0.0,0.27182167603421076,0.26655148868658374,0.4973866104907365,0.014103304525387788,-0.03111973855202907,0.02065675893916338
2818,11.0,300.28677999999996,-3416.4813,0.0,0.0,0.028180411818800932,0.0,0.0,0.0,0.2736448777341467,0.26787597881980074,0.4970041389754895,-0.00024646521387172276,-0.008089529305049383,0.04527608874665205
2819,11.0,300.38111000000004,-3167.3365,0.0,0.0,0.028190416239175065,0.0,0.0,0.0,0.23587440971899176,0.23882994880318076,0.4880868389529205,0.004511475805247996,-0.01069246657501429,0.04007719874231156
2820,11.0,300.25354,-3100.8734,0.0,0.0,0.028200387750271894,0.0,0.0,0.0,0.2208800915591678,0.2385629776668328,0.4831450256977015,-0.021857124921880276,-0.005729554818263035,0.053525915332096545
2821,11.0,299.27262,-3301.6056,0.0,0.0,0.028210392170646026,0.0,0.0,0.0,0.2463872138790248,0.24195142785624676,0.5152670094403945,-0.008733014147381393,-0.009670950785998531,0.03976127648038246
2822,11.0,299.62725,-3370.5869,0.0,0.0,0.028220396591019936,0.0,0.0,0.0,0.27192783424718775,0.24470237148024374,0.5079440584501755,-0.0025565841176402077,0.024957557757119178,0.04695413629026245
2823,11.0,299.39632,-3356.3758,0.0,0.0,0.02823040101139407,0.0,0.0,0.0,0.2738779252571467,0.25657609211458876,0.48980041712453753,0.008873224656469092,0.018170020278741383,0.052926431989932146
2824,11.0,299.83682000000005,-3229.7311,0.0,0.0,0.028240405431768423,0.0,0.0,0.0,0.26695977781437874,0.2461557470261808,0.4686420933063735,0.015284135046176685,-0.006257524082944545,0.044569612273428254
2825,11.0,300.06355,-3266.3418,0.0,0.0,0.028250409852142555,0.0,0.0,0.0,0.25146397178256175,0.26475708355448974,0.47666529130820157,0.01057825403699239,-0.01249426134008759,0.040839586356053365
2826,11.0,300.22867,-3491.6658,0.0,0.0,0.028260414272516687,0.0,0.0,0.0,0.26714154474981777,0.2861672912150127,0.5080703904726436,0.012744283842012887,0.007970322558609593,0.043155256988842254
2827,11.0,299.95005,-3476.9192,0.0,0.0,0.028270385783613294,0.0,0.0,0.0,0.26937823355056173,0.26312652096356576,0.5243918737459485,0.011373000805927791,0.008672804799939192,0.02293567696432508
2828,11.0,300.35123,-3019.7375,0.0,0.0,0.02828039020398765,0.0,0.0,0.0,0.2058222932805788,0.2386601179539198,0.47344239605262656,-0.013475061092384985,-0.0047150055289848156,0.06047901483706404
2829,11.0,299.93562000000003,-2921.5375,0.0,0.0,0.02829039462436156,0.0,0.0,0.0,0.20703212403247978,0.21906582672511377,0.46197648831852955,0.0021907410497843077,-0.01793268164156788,0.04065490531332676
2830,11.0,299.78069,-3292.7524,0.0,0.0,0.02830039904473569,0.0,0.0,0.0,0.25380912900651076,0.24482581573992673,0.5022795546936325,-0.0005533522537316155,-0.01108279584478679,0.05850711057895224
2831,11.0,299.5828,-3415.5399,0.0,0.0,0.028310403465109824,0.0,0.0,0.0,0.27835695679419276,0.24149594153879375,0.5183859553682105,0.0064701126678754035,0.001018535415171619,0.03966076004396226
2832,11.0,299.71726,-3193.7201,0.0,0.0,0.028320407885484178,0.0,0.0,0.0,0.2312370983838248,0.24644108838684178,0.49313298657093657,-0.0005334545447603645,-0.012229502128707888,0.07253819874321284
2833,11.0,299.66267999999997,-3172.6958,0.0,0.0,0.02833041230585831,0.0,0.0,0.0,0.24823278814116875,0.23626654764019278,0.4799209652045116,0.006294176480136853,-0.004881015614768736,0.036210671824465065
2834,11.0,299.52614,-3300.6577,0.0,0.0,0.028340416726232665,0.0,0.0,0.0,0.2533813652117938,0.2603404378261007,0.48959573047183647,0.004708607665203396,0.02987304981449047,0.05563567125306324
2835,11.0,300.34952999999996,-3455.1873,0.0,0.0,0.02835038823732905,0.0,0.0,0.0,0.2900183812675857,0.2605438376511747,0.4997284239893555,0.002329693811522878,0.02178868798362608,0.03924158962334336
2836,11.0,300.44723,-3441.0349,0.0,0.0,0.028360392657703182,0.0,0.0,0.0,0.27980329025193473,0.2707100089519977,0.4954753877546135,-0.02084146733964268,-0.006908703343885933,0.04600732195956916
2837,11.0,300.44396,-3171.9258,0.0,0.0,0.028370397078077314,0.0,0.0,0.0,0.24238313319385277,0.2400666813452368,0.4817364358061845,-0.017614161406382382,-0.017160419905601583,0.03427434987011497
2838,11.0,300.18664,-3037.2359,0.0,0.0,0.028380401498451446,0.0,0.0,0.0,0.21966111115886378,0.23327893919033876,0.4703038234703736,0.00023006378516552778,-0.004604973356900486,0.04143643727445796
2839,11.0,299.81296000000003,-3202.4165,0.0,0.0,0.0283904059188258,0.0,0.0,0.0,0.24564348830562477,0.22837884144173676,0.49943234217763455,0.004225770890451116,-0.0014217863594943889,0.03929338798170546
2840,11.0,299.95255,-3385.9313,0.0,0.0,0.028400410339199933,0.0,0.0,0.0,0.2617457245222918,0.25237203638968075,0.5151208177159665,-0.0021931644400484777,-0.0012426162827366787,0.04781656208637725
2841,11.0,300.60915,-3183.7473,0.0,0.0,0.028410414759574065,0.0,0.0,0.0,0.23616340891251378,0.24481856086921078,0.48679770111569254,0.00046131479547322553,-0.00039607869401992363,0.051384640240269154
2842,11.0,300.29379,-3122.2008,0.0,0.0,0.02842041917994842,0.0,0.0,0.0,0.23669688509016376,0.24144733593149675,0.47092687095686353,0.01311643945799179,0.018356876769432682,0.07156123718229422
2843,11.0,299.94715,-3384.6829,0.0,0.0,0.028430390691044805,0.0,0.0,0.0,0.27069240879776074,0.25732078027558375,0.5008458969946415,0.014466668170248987,0.014627641187135788,0.05723600859350424
2844,11.0,300.0862,-3438.0975,0.0,0.0,0.028440395111418937,0.0,0.0,0.0,0.27897061145225577,0.2792155545314297,0.4869096247217385,-0.016567595643094384,-0.02233019214181838,0.06346377909388734
2845,11.0,299.91364,-3320.8962,0.0,0.0,0.02845039953179307,0.0,0.0,0.0,0.2567766953693868,0.25972029836739774,0.4929725282851006,-0.016425826755352882,-0.011386117328472289,0.03562035839570567
2846,11.0,299.43491,-3185.3397,0.0,0.0,0.028460403952167423,0.0,0.0,0.0,0.24074970310514576,0.24378077998428976,0.48373324777825455,-1.2546287679722188e-05,0.007582126180297592,0.03837399827821876
2847,11.0,299.64295,-3114.3140000000003,0.0,0.0,0.028470408372541556,0.0,0.0,0.0,0.23575999351769977,0.2294303316005108,0.48148337659370954,0.006287054446508964,0.0060890128906137845,0.034780504772068566
2848,11.0,299.7647,-3132.6604,0.0,0.0,0.028480412792915688,0.0,0.0,0.0,0.22833153279456778,0.2452320479700188,0.47868696843772557,-0.009276422911786661,-0.013712704717838588,0.062414451210826734
2849,11.0,300.13716,-3282.5913,0.0,0.0,0.02849041721328982,0.0,0.0,0.0,0.24907222531901477,0.24693068070266075,0.5018228828735626,-0.005389714585073415,-0.0011513504144294389,0.03845018252673756
2850,11.0,300.54096,-3298.4284,0.0,0.0,0.028500421633663953,0.0,0.0,0.0,0.25982097489733375,0.25168368493424575,0.4911352018787705,0.02781782296090537,0.017776730292176683,0.06389308505525654
2851,11.0,300.46837,-3247.9952,0.0,0.0,0.02851039314476056,0.0,0.0,0.0,0.24563022486181577,0.25850053776451676,0.4831786757335225,0.017262744993450284,0.015889380741659784,0.056586661187418646
2852,11.0,300.54974,-3345.5032,0.0,0.0,0.028520397565134692,0.0,0.0,0.0,0.25809937178492476,0.2521973216749378,0.5066527421252325,-0.0030072436155918376,-0.007479728645066743,0.04942841400095465
2853,11.0,300.41102,-3539.3893,0.0,0.0,0.028530401985508824,0.0,0.0,0.0,0.26905266616093076,0.2744215339357967,0.5324117685524505,-0.03062544880874647,0.0004754700108277365,0.025396315315421178
2854,11.0,299.97174,-3426.9252,0.0,0.0,0.028540406405882957,0.0,0.0,0.0,0.2734079190657608,0.25529311483796874,0.5129986667065265,-0.013202157376701489,0.02293464344922308,0.03329033102224987
2855,11.0,299.99863,-3287.8484,0.0,0.0,0.02855041082625731,0.0,0.0,0.0,0.2596299265909788,0.24504514385657275,0.49474874557789955,-0.0009418273062186182,0.01208488803468559,0.03583337801722907
2856,11.0,300.29985,-3194.563,0.0,0.0,0.028560415246631443,0.0,0.0,0.0,0.2508654652134938,0.25308174715722376,0.4671201815236725,-0.002957663464348657,-0.013451805989339885,0.04205872988962346
2857,11.0,300.17273,-3135.0798,0.0,0.0,0.028570419667005575,0.0,0.0,0.0,0.23159374215402279,0.24649383818704776,0.4748984060488236,0.009437937308201892,-0.02087711449141078,0.04182932398748286
2858,11.0,300.22291,-3265.2929,0.0,0.0,0.028580391178102182,0.0,0.0,0.0,0.24489775649702675,0.2639076962606618,0.48376206461109855,0.014995659702956384,-0.015410343452132484,0.04267469070491406
2859,11.0,300.04433,-3375.2884,0.0,0.0,0.028590395598476315,0.0,0.0,0.0,0.25582009608247774,0.2570993142012267,0.5130839924974475,0.01862988282337628,-0.00016035036456784883,0.05608450862336004
2860,11.0,300.0555,-3219.4047,0.0,0.0,0.028600400018850447,0.0,0.0,0.0,0.23007105016874477,0.26218199961784877,0.4863656006105475,0.003749038643576307,-0.01203728250523729,0.06910625884625674
2861,11.0,299.30082000000004,-3193.9598,0.0,0.0,0.02861040443922458,0.0,0.0,0.0,0.24156419406552976,0.2421698541803038,0.4871499879104605,-0.01114909077232959,0.01061548489866679,0.06223778193664085
2862,11.0,299.3062,-3436.3839,0.0,0.0,0.02862040885959871,0.0,0.0,0.0,0.2773978649120377,0.25115154624672775,0.5160254879352505,-0.0027080924666679175,0.03265367153391647,0.05059419167825795
2863,11.0,299.34247,-3481.8920000000003,0.0,0.0,0.028630413279972844,0.0,0.0,0.0,0.29140660483209274,0.26489198767280375,0.5021096326518626,0.0023744510949400776,0.026524617937775975,0.04026810215390226
2864,11.0,300.00891,-3231.2294,0.0,0.0,0.028640417700347198,0.0,0.0,0.0,0.23598535047244076,0.25073761331587574,0.49549007988106347,-0.003278846723446977,-0.003852926568379246,0.03821666586894126
2865,11.0,300.19056,-3231.4114,0.0,0.0,0.02865042212072133,0.0,0.0,0.0,0.2382749917234108,0.24310731317282377,0.5008860723611065,-0.007000129103058953,-0.022063782346025778,0.033945649511174764
2866,11.0,300.20346,-3410.9074,0.0,0.0,0.028660393631817938,0.0,0.0,0.0,0.25800761185586873,0.26445652317732676,0.5143665340765246,0.01031814767007189,-0.001095985517040349,0.029208334444138173
2867,11.0,300.22553,-3425.72,0.0,0.0,0.02867039805219207,0.0,0.0,0.0,0.27647372002583176,0.26504189802509875,0.4998177318531695,-0.007410375323422103,-0.013044584827150289,0.05064929019219575
2868,11.0,300.22956,-3442.4446,0.0,0.0,0.028680402472566202,0.0,0.0,0.0,0.27249716934587676,0.2676992578698597,0.5062207834751015,0.0042403572335906765,-0.02337538292472068,0.04272659646778676
2869,11.0,299.79127,-3338.5474,0.0,0.0,0.028690406892940334,0.0,0.0,0.0,0.2606132756805277,0.26184502303209173,0.49237672709379954,-0.010889446447454688,-0.01291833893094079,0.054601483352996846
2870,11.0,299.44354,-3183.6246,0.0,0.0,0.028700411313314467,0.0,0.0,0.0,0.23422162655337478,0.2397253477840498,0.4937954190888135,0.01198941150426279,0.005100570294137095,0.03874802942013276
2871,11.0,299.70922,-3382.9623,0.0,0.0,0.0287104157336886,0.0,0.0,0.0,0.25104273331848875,0.26118751490970077,0.5161058082706775,-0.0038793775635647563,0.008929891377586662,0.06217489963543485
2872,11.0,299.39112,-3541.2468,0.0,0.0,0.02872042015406273,0.0,0.0,0.0,0.2822306727214987,0.26693420338185475,0.5272857261640495,0.009027823013001762,0.0003990666875048156,0.038180864703157964
2873,11.0,299.97494,-3220.4824,0.0,0.0,0.028730424574436864,0.0,0.0,0.0,0.24876377172357278,0.23959282480347077,0.4905896274949265,0.0010034799169707572,0.007507087005716804,0.05262284300822025
2874,11.0,300.62304,-3145.2401,0.0,0.0,0.028740396085533693,0.0,0.0,0.0,0.2397534553418238,0.24070979118370678,0.47561120722917155,0.008666745766991212,0.02843055454812727,0.03818449517826626
2875,11.0,300.90272000000004,-3396.5324,0.0,0.0,0.028750400505907825,0.0,0.0,0.0,0.27684009099698975,0.25954018302962173,0.4960807438943575,-0.01061009440813479,0.005543249940926175,0.040652834230122364
2876,11.0,300.1936,-3427.9758,0.0,0.0,0.028760404926281735,0.0,0.0,0.0,0.26961521248394976,0.2641489308444698,0.5082549033158535,-0.0028773955139518273,-0.015319818674948386,0.039635537209222964
2877,11.0,299.89557,-3273.9725,0.0,0.0,0.02877040934665609,0.0,0.0,0.0,0.2367486520377728,0.26319816787813677,0.4952590892557665,-0.017456369994809585,-0.008932272616646671,0.048354546213722156
2878,11.0,299.93186000000003,-3270.3431,0.0,0.0,0.028780413767030222,0.0,0.0,0.0,0.25711414818269074,0.2524163255515518,0.4845721580660486,0.013493039188909288,0.006743938339824894,0.050354343220586746
2879,11.0,300.16844,-3264.1188,0.0,0.0,0.028790418187404354,0.0,0.0,0.0,0.25239775267721876,0.25824961650975276,0.4815632308340905,-0.0016628462589851484,-0.0017399217622919082,0.05286195280656855
2880,11.0,299.74126,-3225.0251,0.0,0.0,0.028800422607778486,0.0,0.0,0.0,0.26081750637068374,0.2405834895587418,0.47892610559382653,0.008425282796610672,-0.003197761586844497,0.06420788362282473
2881,11.0,299.71566,-3343.1296,0.0,0.0,0.028810394118875315,0.0,0.0,0.0,0.25624030103144874,0.2630715825431438,0.4969160267467935,0.015211690703776986,0.010155370054756991,0.04268278252021266
2882,11.0,299.06602999999996,-3310.73,0.0,0.0,0.028820398539249448,0.0,0.0,0.0,0.2558626424541768,0.24652801511292077,0.5039886036373026,0.013686202148222987,0.028553635051024373,0.040370317810740165
2883,11.0,300.04267999999996,-3123.7894,0.0,0.0,0.02883040295962358,0.0,0.0,0.0,0.21324232376287877,0.2410105643433908,0.49530106820740954,-0.016115651647990985,0.013743252181853386,0.03971088755290946
2884,11.0,300.39543,-3327.9891,0.0,0.0,0.02884040737999749,0.0,0.0,0.0,0.27072192477317375,0.2473506019416038,0.49355304966489355,-0.013861093168483387,-0.01030512436653659,0.04793026495959886
2885,11.0,300.53319,-3574.8129,0.0,0.0,0.028850411800371623,0.0,0.0,0.0,0.27587510199925275,0.27842692171359773,0.5323518348090355,-0.013214884811207587,0.0013601277604341586,0.04073524490050566
2886,11.0,300.23584,-3356.9911,0.0,0.0,0.028860416220745977,0.0,0.0,0.0,0.2792150681713817,0.2542327486083188,0.48699365355253155,-0.0034011795490952864,0.0013004644534708489,0.03776056146892726
2887,11.0,300.48526,-3297.9017,0.0,0.0,0.02887042064112011,0.0,0.0,0.0,0.25274545958153477,0.25864379106365476,0.49109052768186157,-0.006000449258998234,-0.009999476764596522,0.049689824420753856
2888,11.0,300.41745,-3368.6908,0.0,0.0,0.02888042506149424,0.0,0.0,0.0,0.2732595792511207,0.24691288803090475,0.5038254298411985,0.0008697003542802421,-0.01874621406735728,0.03362449685222947
2889,11.0,300.26669,-3250.3669,0.0,0.0,0.02889039657259085,0.0,0.0,0.0,0.23564860693420678,0.2613651376522308,0.4910166313520685,0.008619166176745472,-0.0007838306507055621,0.048977358626188953
2890,11.0,300.05122,-3276.0712,0.0,0.0,0.028900400992965203,0.0,0.0,0.0,0.24037749581341175,0.2522335554985138,0.5032327899902095,0.018536659761175883,0.012978322323610689,0.039255836932999465
2891,11.0,300.02794,-3446.1803,0.0,0.0,0.028910405413339113,0.0,0.0,0.0,0.26446190353535776,0.26796796166387876,0.5151229050111725,0.004676844706368636,0.010207585872160292,0.06295430681110635
2892,11.0,300.26322999999996,-3336.6995,0.0,0.0,0.028920409833713245,0.0,0.0,0.0,0.2697989045945787,0.24396360069983275,0.5005108354515735,0.004216089893695676,-0.012978394264367789,0.04689229966315966
2893,11.0,299.88761,-3211.4029,0.0,0.0,0.028930414254087378,0.0,0.0,0.0,0.2416428425382918,0.24854035007652278,0.48600310025477156,0.0015441171586424985,0.001154162892732009,0.05636060103710824
2894,11.0,299.69612,-3380.1799,0.0,0.0,0.028940418674461732,0.0,0.0,0.0,0.25238622189108073,0.26195139402758977,0.5131526807217265,-0.002392635995809788,0.016323206811725083,0.036304316398707064
2895,11.0,299.92228,-3425.953,0.0,0.0,0.028950423094835864,0.0,0.0,0.0,0.26461740702820474,0.26079157730062474,0.5159951613597575,-0.016653371317059785,0.005009150310489646,0.043501975974310755
2896,11.0,299.76883,-3217.2876,0.0,0.0,0.02896042751521022,0.0,0.0,0.0,0.2331348448936178,0.2524992600722368,0.4923409897627725,-0.018763456544308985,0.002731898169817357,0.05049903229511645
2897,11.0,300.14238,-3163.498,0.0,0.0,0.028970399026306604,0.0,0.0,0.0,0.2306454717829358,0.25854377314628374,0.47243513426071754,0.0036264883744565363,0.004518378368904226,0.05590561627845474
2898,11.0,300.35424,-3320.7456,0.0,0.0,0.028980403446680736,0.0,0.0,0.0,0.26511842880515174,0.25081362733837775,0.4934916973713385,0.01995125315953538,0.014995243257165287,0.036488014588836666
2899,11.0,300.30466,-3395.2263,0.0,0.0,0.028990407867054868,0.0,0.0,0.0,0.2765672430100617,0.2660523819523257,0.48944437117189854,0.00948518840276521,-0.006923214402543062,0.06219835840175004
2900,11.0,299.78258999999997,-3449.4647,0.0,0.0,0.029000412287429,0.0,0.0,0.0,0.2867179622468597,0.26289833704104576,0.4989348262460335,-0.0037899777979666866,-0.023594530682848874,0.03765466568772617
2901,11.0,299.91472999999996,-3411.7369,0.0,0.0,0.029010416707803355,0.0,0.0,0.0,0.2815522916470477,0.2459431671552008,0.5095873575948565,-0.004833169235771665,-0.013466217445512187,0.04977631038303936
2902,11.0,299.59942,-3329.3324,0.0,0.0,0.029020421128177487,0.0,0.0,0.0,0.24142873265966078,0.24621347188437778,0.5243916913609306,0.00870732623084619,0.006473359526495844,0.028222510997844973
2903,11.0,300.10943,-3342.9637,0.0,0.0,0.02903042554855162,0.0,0.0,0.0,0.24754925975620978,0.26044222893114677,0.5081859921765526,-0.005294025880079675,-0.0012237511870748388,0.06295965373188403
2904,11.0,300.56654,-3493.9771,0.0,0.0,0.029040397059648226,0.0,0.0,0.0,0.28299712549464173,0.25550235098361873,0.5235823071810505,0.003152512471828757,-0.01152083196901759,0.027034079074805872
2905,11.0,300.07249,-3247.7369,0.0,0.0,0.02905040148002236,0.0,0.0,0.0,0.25401633865196077,0.24377765917398178,0.48943692378366355,-0.004498033421471336,-0.0016348590753230286,0.06001725042199144
2906,11.0,300.46975,-3038.2899,0.0,0.0,0.02906040590039649,0.0,0.0,0.0,0.2264384877652388,0.23344988461470978,0.4636759012537485,0.00942406267193257,0.02350519546128218,0.026618001093492178
2907,11.0,300.31919,-3305.5216,0.0,0.0,0.029070410320770623,0.0,0.0,0.0,0.24377702082641878,0.2730370391316578,0.4879819675675705,-0.0071249231132001645,-0.0018661804254526684,0.06152097132564714
2908,11.0,299.97478,-3532.585,0.0,0.0,0.029080414741144978,0.0,0.0,0.0,0.2615618297616427,0.27819978143868074,0.5340560100197245,-0.01078016134466909,-0.013904494723266788,0.05139559347385015
2909,11.0,299.22472,-3371.3340000000003,0.0,0.0,0.02909041916151911,0.0,0.0,0.0,0.24627826922827276,0.2706336098944577,0.5078894847997896,-0.005212396729498505,-0.0037680666698542264,0.06849139943382483
2910,11.0,299.31062000000003,-3293.4325,0.0,0.0,0.029100423581893242,0.0,0.0,0.0,0.25311004723251673,0.25488785532797276,0.49312333029748356,0.016127480329658384,0.007801649043612812,0.05215706612275165
2911,11.0,299.72525,-3331.6172,0.0,0.0,0.029110428002267374,0.0,0.0,0.0,0.2593895937997598,0.25235835751333074,0.5009804971379255,0.006101049795176734,-0.009117638819090891,0.04991071699555425
2912,11.0,299.90544,-3416.1389,0.0,0.0,0.02912039951336398,0.0,0.0,0.0,0.27538957281633475,0.26679427354304475,0.49623708838478753,-0.014087542406832186,-0.01704976184893048,0.05867676917569624
2913,11.0,299.59024,-3449.679,0.0,0.0,0.029130403933738114,0.0,0.0,0.0,0.27126940406720573,0.2528204198239328,0.5245264637567315,0.013582383529726886,0.005797243775293415,0.03966832192945856
2914,11.0,299.86635,-3296.882,0.0,0.0,0.029140408354112246,0.0,0.0,0.0,0.24076266257392476,0.25125786657972077,0.5101492757028135,0.014238519711482486,0.03745847615036376,0.03531381376345207
2915,11.0,300.08693,-3189.3358,0.0,0.0,0.02915041277448638,0.0,0.0,0.0,0.22596752911875878,0.2557846525939797,0.4877262739048355,0.011596837885518789,0.009372891616707383,0.04106932967047726
2916,11.0,300.23913,-3414.8321,0.0,0.0,0.02916041719486051,0.0,0.0,0.0,0.2735983391570537,0.25551607038997276,0.5089092804954355,-0.01992801325524178,-0.024402016032041476,0.044040130327672455
2917,11.0,300.12991,-3583.5231,0.0,0.0,0.029170421615234865,0.0,0.0,0.0,0.2992417740128637,0.27230523951193475,0.5177545283033935,0.0002152446579479938,-0.013856910472070586,0.03437552390585007
2918,11.0,299.49708,-3359.198,0.0,0.0,0.029180426035608997,0.0,0.0,0.0,0.2797455248637337,0.24396291168976478,0.49740388640494154,-0.0046303887091587856,0.008262552196100413,0.03064724280514737
2919,11.0,299.97208,-3275.8475,0.0,0.0,0.02919043045598313,0.0,0.0,0.0,0.2395162737584158,0.25427945943792873,0.5019801190240805,-0.009786093690262251,-0.014818121060184685,0.053474257815498354
2920,11.0,299.9323,-3448.6079,0.0,0.0,0.029200401967079737,0.0,0.0,0.0,0.2603928025912688,0.25896548783790374,0.5289323892990625,-0.023396067412262078,-0.01119022973963969,0.04652813757721966
2921,11.0,299.60444,-3437.2359,0.0,0.0,0.02921040638745387,0.0,0.0,0.0,0.25740695719658874,0.25334026778773777,0.5340866608352495,0.002883839379287787,0.0011053043782100489,0.03876138202995057
2922,11.0,299.43903,-3305.935,0.0,0.0,0.029220410807828,0.0,0.0,0.0,0.25217724919045675,0.25083013318250674,0.5019143185625865,0.015900125245720185,0.025022166636495577,0.03363412678117987
2923,11.0,299.74612,-3327.993,0.0,0.0,0.029230415228202133,0.0,0.0,0.0,0.2606029506620087,0.25041808489684075,0.5006057263234385,0.006014498478259784,-0.0036849361865998864,0.03301111678494357
2924,11.0,300.09839,-3386.0665,0.0,0.0,0.029240419648576266,0.0,0.0,0.0,0.2786954836526027,0.26225884450543274,0.4883253478939595,-0.01214866908873029,-0.016642345129471586,0.050906954626375255
2925,11.0,300.21814,-3390.4908,0.0,0.0,0.029250424068950398,0.0,0.0,0.0,0.24969455339793376,0.28006544845030773,0.5008645407964815,0.009780816987716481,0.0002767198688726247,0.06467105037603574
2926,11.0,299.83299,-3490.2005,0.0,0.0,0.029260428489324752,0.0,0.0,0.0,0.27044108224295677,0.28278364383107274,0.5077090857519855,0.004655139673326516,0.024012932046641875,0.061599142557612035
2927,11.0,299.73205,-3473.5441,0.0,0.0,0.02927040000042136,0.0,0.0,0.0,0.2613057713288718,0.28093527299865273,0.5136296175437965,0.006281453402606183,-0.01078454263810149,0.05393797071051325
2928,11.0,300.20113,-3254.2946,0.0,0.0,0.02928040442079549,0.0,0.0,0.0,0.23887820990544378,0.26837264362131774,0.4819734451370755,-0.017338598922436485,-0.01263742851296709,0.06372825155548874
2929,11.0,300.27775,-3193.0276,0.0,0.0,0.029290408841169624,0.0,0.0,0.0,0.2519353357290817,0.23518250175570576,0.48348282301603956,0.004021375445828856,0.0038614541825458563,0.04011982009451796
2930,11.0,300.7473,-3328.1899,0.0,0.0,0.029300413261543756,0.0,0.0,0.0,0.25450734951791976,0.2519608392340988,0.5052184562111794,0.0013230777639026087,0.02918543803162847,0.040123377615619064
2931,11.0,300.11723,-3275.0216,0.0,0.0,0.02931041768191789,0.0,0.0,0.0,0.2389732932948278,0.2452225031540768,0.5113290129267445,0.0027874078606457374,0.013362271157503486,0.05117458336203815
2932,11.0,299.96061000000003,-3307.4026,0.0,0.0,0.02932042210229202,0.0,0.0,0.0,0.24495151954733274,0.25579018493952577,0.5046260899377175,-0.0016681470768832984,0.009939627222264831,0.05609681251932436
2933,11.0,299.89473,-3450.9381,0.0,0.0,0.029330426522666153,0.0,0.0,0.0,0.2738705893264227,0.2588736569813408,0.5162547864328805,0.010760003747179689,0.005369291820032845,0.04990766913925345
2934,11.0,300.51559,-3402.4449,0.0,0.0,0.029340430943040285,0.0,0.0,0.0,0.27692579169044773,0.25217445262018073,0.5051580361077166,0.007230484724518284,0.019827608276332582,0.03336602384447017
2935,11.0,300.68382,-3336.4155,0.0,0.0,0.029350402454137114,0.0,0.0,0.0,0.2682292484671658,0.2603698322115018,0.4855879311587975,-0.008301683712312392,-0.02235099619287158,0.04470453665674426
2936,11.0,299.82137,-3485.5758,0.0,0.0,0.029360406874511247,0.0,0.0,0.0,0.28331911611141974,0.26796090944318274,0.5082479726851695,-0.008801194733360291,-0.017173176724360584,0.03924721518789856
2937,11.0,300.03978,-3392.0759,0.0,0.0,0.02937041129488538,0.0,0.0,0.0,0.2538151274471028,0.2667636835225257,0.5105275523626465,-0.000979904262124021,-0.009608615741171542,0.05654535300734185
2938,11.0,299.99936,-3209.803,0.0,0.0,0.02938041571525929,0.0,0.0,0.0,0.2430643817660868,0.25241312368123575,0.48022246790426754,0.00010847861650100591,0.016899870748387384,0.04510790848180396
2939,11.0,300.28377,-3323.8238,0.0,0.0,0.029390420135633644,0.0,0.0,0.0,0.25370408536864375,0.24442718288558477,0.5122281811979855,-0.006364393597491744,-0.006222524600640364,0.04809530820213736
2940,11.0,299.67082,-3482.2507,0.0,0.0,0.029400424556007776,0.0,0.0,0.0,0.27594389154854176,0.26194558810451674,0.5206277712144605,-0.004697651087897065,-0.0047008715006898955,0.045834812077043756
2941,11.0,299.4622,-3339.1349,0.0,0.0,0.029410428976381908,0.0,0.0,0.0,0.25401441347677073,0.24724625744630577,0.5137529604784695,0.013669113685286487,0.0060701427287014435,0.04364825889124775
2942,11.0,299.25401,-3352.9579,0.0,0.0,0.02942043339675604,0.0,0.0,0.0,0.24280122045011476,0.26207932698521574,0.5143349409384065,-0.002868073410381807,0.02156188613424248,0.04159481941083906
2943,11.0,300.07136,-3398.1603,0.0,0.0,0.02943040490785287,0.0,0.0,0.0,0.24679624267939276,0.2606052710047378,0.5255543654531775,-0.0009532165413176482,-0.0035204417203155464,0.04926337379816645
2944,11.0,300.01165,-3405.1131,0.0,0.0,0.029440409328227002,0.0,0.0,0.0,0.26490943583952575,0.26735216904810477,0.5028077417057606,-0.01970953525542968,-0.0013074121067565287,0.062324293230178844
2945,11.0,300.19684,-3432.9437,0.0,0.0,0.029450413748600912,0.0,0.0,0.0,0.2853966435864557,0.26536691825967573,0.4927656023496785,0.015780496885913785,0.012301955590358488,0.053419877695881454
2946,11.0,300.42721,-3386.5135,0.0,0.0,0.029460418168975044,0.0,0.0,0.0,0.27921631446900474,0.25509912810632374,0.4951001001825755,-0.0008623437127241981,0.016374662691553382,0.04595250411590905
2947,11.0,301.00408,-3109.8764,0.0,0.0,0.029470422589349177,0.0,0.0,0.0,0.23551840429635676,0.23940757228768775,0.47039880553474755,-0.0007300302925308802,-0.0026329631128282275,0.048021602363363156
2948,11.0,300.38671,-3151.7443,0.0,0.0,0.02948042700972353,0.0,0.0,0.0,0.2217944585819088,0.24223517841425077,0.49402193114866855,-0.013656769259318186,-0.017449511304882682,0.04519601159124905
2949,11.0,300.20453,-3415.3478,0.0,0.0,0.029490431430097663,0.0,0.0,0.0,0.24593315624421277,0.2558902129893978,0.5363570908643235,0.0074133965312452735,-0.0032263250058384868,0.044989084642576956
2950,11.0,299.54399,-3356.5290000000005,0.0,0.0,0.02950040294119427,0.0,0.0,0.0,0.26133462869171975,0.24871571327132974,0.5102506513753186,0.01138055863842369,0.005160491371925845,0.04690026786194605
2951,11.0,300.17054,-3271.2156,0.0,0.0,0.029510407361568403,0.0,0.0,0.0,0.2361339841296098,0.25209838793517375,0.5061354779491826,0.005195979747403275,-0.013626070821038486,0.048787746095225654
2952,11.0,299.89797000000004,-3470.7243,0.0,0.0,0.029520411781942757,0.0,0.0,0.0,0.29310701075240975,0.26068321020242974,0.5012233225243905,-0.006616954898867603,-0.016446484898391685,0.049716703919406656
2953,11.0,300.03031,-3556.6954,0.0,0.0,0.029530416202316667,0.0,0.0,0.0,0.28019609691820174,0.27368077718518974,0.5272697066799685,0.003271568851953707,-0.00028335307012227075,0.04554729121541766
2954,11.0,300.05831,-3337.1696,0.0,0.0,0.0295404206226908,0.0,0.0,0.0,0.25132900686924176,0.25286734343606376,0.5102198789697815,0.006051669355528264,0.025458646408572774,0.04341354355858316
2955,11.0,300.56962999999996,-3313.7459,0.0,0.0,0.029550425043064932,0.0,0.0,0.0,0.23766946333114974,0.25854434056633974,0.5110821953348855,0.01033409014714529,0.02341572547745218,0.042846150860335865
2956,11.0,300.94903,-3361.5563,0.0,0.0,0.029560429463439286,0.0,0.0,0.0,0.2766413014598707,0.2590317949244478,0.48615609088737055,-0.005778300760698884,-0.005888724857921895,0.058924371023132645
2957,11.0,301.22796,-3334.6392,0.0,0.0,0.02957043388381342,0.0,0.0,0.0,0.2654975261975658,0.25123878708033776,0.4969107274487705,0.011624047703704187,-0.0027950642823763674,0.05332932150794425
2958,11.0,300.66221,-3442.9963,0.0,0.0,0.029580405394910025,0.0,0.0,0.0,0.2847445360870977,0.26758269357835573,0.49425766378443353,-0.006729392324039313,-0.014997805766668185,0.04393175714997686
2959,11.0,300.95554,-3425.8914,0.0,0.0,0.029590409815284158,0.0,0.0,0.0,0.24740379757185374,0.26392057466943275,0.5300610688504546,-0.003515660497068677,-0.02755972586893318,0.04048394165045396
2960,11.0,300.60432000000003,-3323.1497,0.0,0.0,0.02960041423565829,0.0,0.0,0.0,0.22387640382738078,0.2711202840499887,0.5151578418746204,-0.02307697570402018,-0.024239680193770177,0.05514825235870875
2961,11.0,300.22472999999997,-3414.2013,0.0,0.0,0.029610418656032422,0.0,0.0,0.0,0.24386021879212974,0.25864640524891275,0.5353253185524955,-0.001141293704536919,0.009075763826908152,0.03797980041956447
2962,11.0,300.47778,-3564.8632,0.0,0.0,0.029620423076406555,0.0,0.0,0.0,0.29353696316734273,0.2692705453299337,0.5208218896686185,0.007059871240880043,0.024717991996225874,0.04066398200772257
2963,11.0,300.11575,-3468.821,0.0,0.0,0.02963042749678091,0.0,0.0,0.0,0.27405151526427873,0.26083420473233176,0.5195492374105175,0.009758735430937202,0.018888544295654182,0.049771664631330856
2964,11.0,299.45217,-3280.9712,0.0,0.0,0.02964043191715504,0.0,0.0,0.0,0.28107874921281273,0.2425258596029388,0.47372872026588453,0.015760212632161884,0.0004691222927937655,0.04921428487057175
2965,11.0,299.71882,-3254.4399,0.0,0.0,0.029650436337529174,0.0,0.0,0.0,0.2400464771382428,0.24704845076178375,0.5021735383356695,0.005977401568248604,0.006944756707619123,0.051123652345761654
2966,11.0,299.76923999999997,-3314.712,0.0,0.0,0.02966040784862578,0.0,0.0,0.0,0.25491653030580275,0.24669824112972075,0.5059749183383365,0.013544532558991287,0.014155004598490185,0.04767420146057735
2967,11.0,300.03808,-3426.8866,0.0,0.0,0.029670412268999913,0.0,0.0,0.0,0.25134849166866474,0.2555708669553808,0.5347686085500525,-0.012735149392361388,0.0026587359397218075,0.049744073831107856
2968,11.0,300.48037,-3570.0458,0.0,0.0,0.029680416689374045,0.0,0.0,0.0,0.2845546530183577,0.28841813511965375,0.5122319910183615,-0.00022924690293490779,-0.014486370818443485,0.050043783078186854
2969,11.0,300.16512,-3494.6818,0.0,0.0,0.029690421109748177,0.0,0.0,0.0,0.28317699765239374,0.2740885799529368,0.5050304273901226,-0.005239361138509685,0.0029165481057658875,0.04789739917935525
2970,11.0,299.85161,-3315.9957,0.0,0.0,0.02970042553012253,0.0,0.0,0.0,0.2697201547968067,0.25532275240339375,0.4829369750546686,0.01243969275595209,-0.0049794137505298755,0.04100922874079576
2971,11.0,300.2518,-3430.0001,0.0,0.0,0.029710429950496664,0.0,0.0,0.0,0.24643553577629373,0.27358621055335675,0.5226126369678515,-0.004534987665868436,-0.0022689514945280777,0.04572076469878816
2972,11.0,300.11582000000004,-3511.5563,0.0,0.0,0.029720434370870796,0.0,0.0,0.0,0.26158174012610774,0.25938686815699075,0.5464568334885904,0.0003850372874152217,-0.013432867331720787,0.04354414946997296
2973,11.0,300.24836,-3269.3513,0.0,0.0,0.02973043879124493,0.0,0.0,0.0,0.24225358916856776,0.25018912077174377,0.5013584394252255,0.012758690231934688,0.014521827479192785,0.039488881416249164
2974,11.0,299.80121,-3239.1602,0.0,0.0,0.029740410302341536,0.0,0.0,0.0,0.24791748497505076,0.24061768674961675,0.4960886675101395,0.008298004195899251,0.007402905947659933,0.04578956640707836
2975,11.0,299.76071,-3421.6318,0.0,0.0,0.029750414722715668,0.0,0.0,0.0,0.27870015473556375,0.25803677319374674,0.5033537011246425,-0.004559679557555336,-0.00040794437958097563,0.049559997698690954
2976,11.0,299.80129,-3498.1057,0.0,0.0,0.0297604191430898,0.0,0.0,0.0,0.2804624297069867,0.28159060263332875,0.5012837527603545,-0.011369446324576989,-0.022143884832681277,0.06035525039034944
2977,11.0,300.04215,-3504.2544,0.0,0.0,0.029770423563463932,0.0,0.0,0.0,0.25590071026043376,0.26613235778271876,0.5431727784569795,-0.006430466217962604,-0.004510881534064345,0.05371543261755045
2978,11.0,300.66941,-3436.2652,0.0,0.0,0.029780427983838065,0.0,0.0,0.0,0.25513816863267674,0.26141831301747875,0.5279823356077995,0.00906833366392485,-0.0005918680786528315,0.04562865519844766
2979,11.0,300.27234,-3263.6525,0.0,0.0,0.02979043240421242,0.0,0.0,0.0,0.23225207100899478,0.25271763573378875,0.5070991598542905,-0.011646131489633688,0.009840983879979491,0.038757334095801066
2980,11.0,299.94683,-3365.5818,0.0,0.0,0.02980043682458655,0.0,0.0,0.0,0.25745130715346576,0.2636401070417527,0.5019614346922365,-0.009530325654969913,-0.006453724462083014,0.046628176772842755
2981,11.0,300.37971,-3560.6713,0.0,0.0,0.029810408335682936,0.0,0.0,0.0,0.2852008937996367,0.27777450010670873,0.5193797611987916,-0.007924401760102562,0.01100464994407439,0.037197651389122365
2982,11.0,300.34207000000004,-3537.3459,0.0,0.0,0.02982041275605729,0.0,0.0,0.0,0.30443323182772075,0.2615634408293017,0.5092681331508515,0.005160438885570665,0.016003859764457985,0.03632711655245726
2983,11.0,299.99671,-3350.8070000000002,0.0,0.0,0.029830417176431423,0.0,0.0,0.0,0.23705128957764077,0.2636414850618888,0.5178688634446775,0.0014877288786524087,0.006643223610360124,0.04813660320996286
2984,11.0,300.45745,-3358.1251,0.0,0.0,0.029840421596805555,0.0,0.0,0.0,0.26217716641487177,0.25416448594908175,0.5044445256522986,-0.008282793285398053,-0.016748045353403383,0.05325909314351324
2985,11.0,300.27502999999996,-3571.2569,0.0,0.0,0.029850426017179688,0.0,0.0,0.0,0.2714057470006618,0.26252398165909974,0.5516431946554444,0.0019792132363831384,0.005091626436829404,0.04563067257939676
2986,11.0,299.96861,-3467.9482,0.0,0.0,0.02986043043755382,0.0,0.0,0.0,0.2849711190744597,0.25995635524319477,0.5092422040807926,0.02246765066363448,-0.006169580357740175,0.05842481643233045
2987,11.0,300.283,-3201.511,0.0,0.0,0.029870434857927952,0.0,0.0,0.0,0.24247817605323277,0.24422029748016677,0.48648093886943056,0.01705320081976988,0.00988981675927392,0.057305714120883644
2988,11.0,299.6482,-3180.9634,0.0,0.0,0.029880439278302307,0.0,0.0,0.0,0.23805914918710877,0.23989184504048178,0.48898246084881153,-0.01108285360004249,-0.008320652260809441,0.06341470029879365
2989,11.0,300.10807,-3334.1167,0.0,0.0,0.029890410789398913,0.0,0.0,0.0,0.23134954887992276,0.26868726790986874,0.5134513969837075,-0.014401232478790986,0.017278955981800185,0.05082514278680105
2990,11.0,299.78857,-3608.9249,0.0,0.0,0.029900415209773046,0.0,0.0,0.0,0.29336686887305574,0.2835182096235688,0.5201379863811225,-0.008013699998040613,0.008078913686401701,0.04288407579832876
2991,11.0,299.84438,-3701.8929,0.0,0.0,0.029910419630147178,0.0,0.0,0.0,0.2825049088610637,0.28897456141206873,0.5538035451936545,-0.0020835741463327583,0.010421289437501188,0.037972699562863664
2992,11.0,300.12748,-3372.3022,0.0,0.0,0.02992042405052131,0.0,0.0,0.0,0.2674413755869087,0.2627257197540097,0.49492857720564754,0.0035817373731899566,-0.00911868439186908,0.04478271194170955
2993,11.0,300.63145,-3261.1916,0.0,0.0,0.029930428470895443,0.0,0.0,0.0,0.24305096633476275,0.25049246758668176,0.4977773703918015,-0.004890972620851415,0.006226861716368405,0.047918981406485255
2994,11.0,300.23525,-3589.2638,0.0,0.0,0.029940432891269575,0.0,0.0,0.0,0.29027187617760375,0.2701279879620567,0.5306466868782505,0.006666529882535275,-0.0001122132739845879,0.03738066056918397
2995,11.0,300.40166,-3644.2166,0.0,0.0,0.029950437311643707,0.0,0.0,0.0,0.2776201517189757,0.27377815051979976,0.5563525278077195,-0.0064538111962915735,0.0038295501792971758,0.05295159605616565
2996,11.0,300.33903,-3329.8824,0.0,0.0,0.02996044173201784,0.0,0.0,0.0,0.2562648419488707,0.25680645452482376,0.4991298059627765,0.003958511281799647,-0.002841848471293607,0.05999023616107534
2997,11.0,300.15076,-3270.8631,0.0,0.0,0.02997041324311467,0.0,0.0,0.0,0.2308222940578868,0.24785921296179975,0.5155792120612066,-0.01039258203566799,0.0036822619156109565,0.05019311790442505
2998,11.0,300.30003999999997,-3445.8316,0.0,0.0,0.0299804176634888,0.0,0.0,0.0,0.28605620860654973,0.25241940583185574,0.5089711596790425,0.007274276583240203,-0.013548054616338887,0.042707742923176056
2999,11.0,300.26488,-3526.5957,0.0,0.0,0.029990422083862933,0.0,0.0,0.0,0.2789513394353538,0.26513000012129373,0.5279156738837204,-0.009765421159072031,-0.01832813998334658,0.03312078996251747
3000,11.0,299.49592,-3456.2271,0.0,0.0,0.030000426504236843,0.0,0.0,0.0,0.26234550778648574,0.26435972739527375,0.5239015113600535,0.0026459230882322775,-0.01760584059656118,0.04397418598466426
3001,11.0,300.1292,-3338.3108,0.0,0.0,0.030010430924611198,0.0,0.0,0.0,0.23778675716272576,0.25564484434518175,0.5213315139389145,0.004313660812075176,0.017699243004029284,0.027554855175702473
3002,11.0,299.91922,-3343.4348,0.0,0.0,0.03002043534498533,0.0,0.0,0.0,0.26194207212666976,0.24770949512702378,0.5066691263793496,-0.01003333573258814,0.013356489552432887,0.04815006119779105
3003,11.0,300.24135,-3604.5293,0.0,0.0,0.030030439765359462,0.0,0.0,0.0,0.28623319300151673,0.27904956390004776,0.5304041553343145,-0.007448816411015942,0.01008311245435072,0.047002556472791154
3004,11.0,300.13011,-3687.1954,0.0,0.0,0.03004041127645607,0.0,0.0,0.0,0.3077697225520067,0.2741206999811068,0.5389249097977475,0.007490262899731393,-0.002148944381834298,0.05134574055568005
3005,11.0,300.58857,-3440.425,0.0,0.0,0.030050415696830424,0.0,0.0,0.0,0.26050161551950773,0.2748976601577867,0.5104040169104546,0.006381449636425045,0.01193339194598409,0.05454237743491354
3006,11.0,299.36239,-3375.6513,0.0,0.0,0.030060420117204556,0.0,0.0,0.0,0.23996943973313975,0.2679654386711297,0.5181788166502674,0.01192497791715369,-0.005563644334963944,0.056926755543733346
3007,11.0,299.50411,-3476.3476,0.0,0.0,0.030070424537578466,0.0,0.0,0.0,0.25991267403138374,0.2571335012596007,0.5396767008419435,-0.008463404507772991,-0.01207885413034009,0.04631309854824696
3008,11.0,299.09418999999997,-3499.6806,0.0,0.0,0.0300804289579526,0.0,0.0,0.0,0.27249448423311173,0.26804772471175076,0.5232733165630554,0.015221394599984684,-0.016473188091527084,0.05581925291943135
3009,11.0,299.87037999999995,-3325.962,0.0,0.0,0.03009043337832673,0.0,0.0,0.0,0.23647832704359376,0.25897136468848375,0.5155597069967816,0.008943715655326012,-0.0026130168793096873,0.057189824653946245
3010,11.0,299.89649,-3311.4956,0.0,0.0,0.030100437798701085,0.0,0.0,0.0,0.2634552902235127,0.25162880730882975,0.49152788695502553,0.02129526862217938,-0.0055630094324512856,0.03954042544883617
3011,11.0,300.01507999999995,-3401.9138,0.0,0.0,0.030110442219075217,0.0,0.0,0.0,0.2520761673604808,0.2722858763025237,0.5097347956169076,-0.008785342942170841,-0.01916691246912698,0.054198024388428544
3012,11.0,300.03538,-3541.8720000000003,0.0,0.0,0.030120413730171824,0.0,0.0,0.0,0.26355444687829876,0.28642753437069673,0.5266586662071635,-0.003558714912367817,0.0018287430634078884,0.041014757033341356
3013,11.0,300.64372000000003,-3671.9696,0.0,0.0,0.030130418150545957,0.0,0.0,0.0,0.28935289886690774,0.2802633159298357,0.5465708545223436,-0.011542969457202389,0.02384567282613468,0.04814549042658995
3014,11.0,300.50545,-3639.8444,0.0,0.0,0.03014042257092031,0.0,0.0,0.0,0.3000320280308557,0.2765366631220437,0.5298531195324315,-0.003342307691785087,0.025159878470836675,0.03745767973578516
3015,11.0,300.66735,-3430.6859,0.0,0.0,0.03015042699129422,0.0,0.0,0.0,0.2655451185547627,0.26116197087467974,0.5161357802086355,-0.006521273691924604,0.004686821166853236,0.05686472335936125
3016,11.0,300.68716,-3490.9395,0.0,0.0,0.030160431411668354,0.0,0.0,0.0,0.29592428172795276,0.26382922004041676,0.5014049273398135,-0.002896973228408997,-0.016197296301298684,0.04599544160214666
3017,11.0,301.21165,-3592.4801,0.0,0.0,0.030170435832042486,0.0,0.0,0.0,0.27328925734654974,0.27954702916914376,0.5391879697887095,0.009649797366310851,-0.005047073120657336,0.05600263700202995
3018,11.0,300.78431,-3350.748,0.0,0.0,0.03018044025241684,0.0,0.0,0.0,0.2441687939775838,0.2659673196064307,0.5084076102384245,0.0044967007949398155,-0.0005503924488645054,0.04026749724359256
3019,11.0,300.56982999999997,-3230.8790000000004,0.0,0.0,0.030190444672790973,0.0,0.0,0.0,0.2275368610061398,0.2561136650339508,0.49845600477877755,0.01146365426587459,0.0005845393825345454,0.05083476359650055
3020,11.0,300.00045,-3391.1314,0.0,0.0,0.03020041618388758,0.0,0.0,0.0,0.24824769305013977,0.26834968337405174,0.5142218926247496,-0.005773125889788165,0.006742219057055213,0.05247389423027015
3021,11.0,300.33799999999997,-3390.7335,0.0,0.0,0.030210420604261712,0.0,0.0,0.0,0.24775319660383674,0.26750297106048776,0.5154421598526805,0.0008474997102167093,0.005905318348184545,0.059501011655042645
3022,11.0,299.4841,-3486.1883,0.0,0.0,0.030220425024635844,0.0,0.0,0.0,0.27211320835298275,0.27246110777481775,0.5151398870828485,0.0012284781001163489,0.007271314549222873,0.056942000904737944
3023,11.0,300.11328,-3551.3286,0.0,0.0,0.030230429445009976,0.0,0.0,0.0,0.2611868562971358,0.2825785721433337,0.5357497892843874,0.003794838257371376,0.0029721988410081873,0.06202701173033944
3024,11.0,300.33331,-3441.8763,0.0,0.0,0.03024043386538411,0.0,0.0,0.0,0.26965866064823774,0.26035568724010577,0.5162300935279435,0.0026655245127417872,-0.007640589900467513,0.05324371909974595
3025,11.0,300.13443,-3352.0631,0.0,0.0,0.030250438285758463,0.0,0.0,0.0,0.2555266892510208,0.25248100130543477,0.5109357806954355,0.0014163117692040886,0.0028095073519517873,0.05277045733578866
3026,11.0,299.6152,-3490.151,0.0,0.0,0.030260442706132595,0.0,0.0,0.0,0.2815900960082788,0.24985005689078077,0.5294786222954715,0.0007802113010833601,0.01901417717555318,0.036980503786691564
3027,11.0,300.17624,-3511.1209,0.0,0.0,0.030270414217229202,0.0,0.0,0.0,0.2746897918997717,0.26072968798451673,0.5318736111593385,-0.000833554511210425,0.00935583263934879,0.050990764595146655
3028,11.0,300.06368,-3386.4353,0.0,0.0,0.030280418637603335,0.0,0.0,0.0,0.26091931774073174,0.26645202805676776,0.5020204362455595,-0.008782014212942321,0.004554116611856316,0.04275841860042736
3029,11.0,300.0382,-3467.7176,0.0,0.0,0.030290423057977467,0.0,0.0,0.0,0.24664342429931074,0.2689678773925627,0.5384882597996535,0.003735836298748337,-0.008066169938568991,0.04602747854380846
3030,11.0,299.76308,-3581.8354,0.0,0.0,0.0303004274783516,0.0,0.0,0.0,0.28759397775331574,0.26116222418720475,0.5400323110970395,0.0011698218624274289,-0.0018265464385160985,0.021254766989182182
3031,11.0,299.24612,-3455.7699,0.0,0.0,0.03031043189872573,0.0,0.0,0.0,0.24847712327028276,0.27253743590485074,0.5294531795854605,0.006659772314968353,-0.013157364629530788,0.04051996269150896
3032,11.0,299.32772,-3374.2362,0.0,0.0,0.030320436319100086,0.0,0.0,0.0,0.25527027618071474,0.25053014022539977,0.5198831235834694,0.006274811953500724,0.0038741157557954566,0.04282619084661596
3033,11.0,300.14811000000003,-3425.4937,0.0,0.0,0.030330440739474218,0.0,0.0,0.0,0.26042936065487676,0.26141964037510973,0.5194155390598225,0.002080732993052358,0.00010578845775050789,0.05486199704645754
3034,11.0,300.19593,-3394.4856,0.0,0.0,0.03034044515984835,0.0,0.0,0.0,0.2690587355290297,0.24167603661156778,0.5211040899539695,-0.002212180307325198,0.007734471372582893,0.05678305641455135
3035,11.0,299.95026,-3450.9687,0.0,0.0,0.030350416670944735,0.0,0.0,0.0,0.2648713680332688,0.26871768567787074,0.5154192705329215,-0.010419244698799391,-0.005838282126868584,0.06680538774442844
3036,11.0,300.35794,-3506.8386,0.0,0.0,0.03036042109131909,0.0,0.0,0.0,0.2897374475448597,0.2611340355694228,0.5151198855258745,-0.0038483494137025163,0.013111781547282087,0.05809959152123324
3037,11.0,300.0598,-3430.8885,0.0,0.0,0.030370425511693222,0.0,0.0,0.0,0.25793914654661176,0.2602318579453848,0.5247334403546585,0.002879356355545347,-0.0028028473603694975,0.04849740434532116
3038,11.0,299.784,-3400.0104,0.0,0.0,0.030380429932067354,0.0,0.0,0.0,0.26782051350932673,0.26187742677028975,0.5038203230606945,0.0006671592181359884,0.008643920991263581,0.04593159570009556
3039,11.0,300.60267999999996,-3577.9129,0.0,0.0,0.030390434352441487,0.0,0.0,0.0,0.2693379365940847,0.2858802881241877,0.5323779462641125,0.0023672421244536074,-0.011322425440436388,0.05308545551362655
3040,11.0,300.05992000000003,-3626.1222,0.0,0.0,0.03040043877281562,0.0,0.0,0.0,0.2731233072451717,0.2913003959566107,0.5378269013268825,0.00953297297350618,-0.0020881616361605082,0.044288166859401755
3041,11.0,299.66111,-3335.1662,0.0,0.0,0.030410443193189973,0.0,0.0,0.0,0.23780932224245277,0.26640801247242374,0.5095899008526075,0.013143863071948288,-0.012876611265322588,0.05336150739737074
3042,11.0,299.50692000000004,-3289.8459,0.0,0.0,0.030420447613564106,0.0,0.0,0.0,0.25507841727427977,0.24082455189003277,0.5041280471160645,0.0015986032642198583,0.004539223152611445,0.035540771653351066
3043,11.0,299.40735,-3378.0823,0.0,0.0,0.03043041912466049,0.0,0.0,0.0,0.25580475547596376,0.24746510933540478,0.5235828138061005,0.004952745818497955,0.0004134591351052396,0.050146976521371255
3044,11.0,299.39128,-3429.5017,0.0,0.0,0.030440423545034845,0.0,0.0,0.0,0.26767085646955674,0.2652679642549097,0.5095440715505846,-0.005388708123749085,0.018674772842556583,0.055275074794225144
3045,11.0,299.88371,-3474.3711,0.0,0.0,0.030450427965408977,0.0,0.0,0.0,0.27231407505280675,0.26053027023233577,0.5232777140684896,0.0002125218218817708,-0.0013139886065305789,0.06252985938396664
3046,11.0,299.45923,-3614.1647,0.0,0.0,0.03046043238578311,0.0,0.0,0.0,0.28601574953005676,0.27707531700770477,0.5355247565696785,-0.006836045307040144,0.01033649864263299,0.04637240306334986
3047,11.0,299.85622,-3578.6209,0.0,0.0,0.03047043680615724,0.0,0.0,0.0,0.2864257611830217,0.27507818079560276,0.5263074534575015,-0.008312999385454163,-0.007042875692977714,0.06062349315557295
3048,11.0,300.15421000000003,-3564.5581,0.0,0.0,0.030480441226531374,0.0,0.0,0.0,0.2887299729704297,0.27121850851468277,0.5235881840316304,-0.018339310052448984,0.01007905641420042,0.036688064609080064
3049,11.0,299.79363,-3539.6639,0.0,0.0,0.030490445646905506,0.0,0.0,0.0,0.2727538762587117,0.27414195796820473,0.5290736160980005,0.004900924965983635,-0.006247985853128193,0.04100033037841756
3050,11.0,299.63388,-3401.3435,0.0,0.0,0.030500417158002113,0.0,0.0,0.0,0.26020425701266076,0.2505919282164978,0.5231273274886475,0.007194084423950853,0.0007899145994735014,0.02103726373596628
3051,11.0,300.06687,-3336.783,0.0,0.0,0.030510421578376468,0.0,0.0,0.0,0.2350608205511968,0.26424670947911977,0.5149911926306735,0.017637353687921284,-0.009915704286078821,0.05591948665907365
3052,11.0,300.46405,-3428.7684,0.0,0.0,0.0305204259987506,0.0,0.0,0.0,0.24246601705203277,0.26959995293744377,0.5301940072635745,0.0033131732050347366,0.0046117581808950954,0.04461401491931046
3053,11.0,300.45799999999997,-3426.837,0.0,0.0,0.030530430419124732,0.0,0.0,0.0,0.25249808470212076,0.25008898126436074,0.5390858139136274,0.01045125529595859,-0.004212023417069346,0.061282262774338445
3054,11.0,299.56924,-3389.5212,0.0,0.0,0.030540434839498865,0.0,0.0,0.0,0.26388099712052676,0.25250606911290874,0.5139427523547004,-0.006049385591127874,0.01993671099410018,0.04880328327225905
3055,11.0,299.67274,-3453.7818,0.0,0.0,0.030550439259872997,0.0,0.0,0.0,0.26933923355421274,0.2614334003114677,0.5190907721377706,0.0026278881483773678,0.015906157123565485,0.06004434472966544
3056,11.0,299.26776,-3535.5734,0.0,0.0,0.03056044368024713,0.0,0.0,0.0,0.27187616862458874,0.27205179526442175,0.5307980765756914,-0.024371744172053875,0.008991088643876361,0.048232994705225955
3057,11.0,299.34285,-3581.5706,0.0,0.0,0.03057044810062126,0.0,0.0,0.0,0.2683941853184437,0.2915462205633717,0.5287676348328025,-0.007835315392760424,-0.016510114978171484,0.04852817675085816
3058,11.0,299.65043,-3629.375,0.0,0.0,0.03058041961171809,0.0,0.0,0.0,0.27099716403033774,0.27890427396820877,0.5533379263752015,-0.01168652977112069,-0.016585002266562284,0.04520109000075026
3059,11.0,300.22702999999996,-3582.5616,0.0,0.0,0.030590424032092223,0.0,0.0,0.0,0.2850569818879337,0.2737363640856757,0.5302159137307365,0.014758363622287088,-0.01255309064089359,0.038193318560137066
3060,11.0,300.40885,-3401.5466,0.0,0.0,0.030600428452466355,0.0,0.0,0.0,0.26907471448310677,0.2582332423881368,0.5066772729101535,-0.0014565968706549187,0.006502128635260134,0.04112233075670806
3061,11.0,300.10013,-3369.5089,0.0,0.0,0.030610432872840487,0.0,0.0,0.0,0.26331776178743976,0.2479517632259338,0.5129770338168915,0.009257932313361781,0.0019100192989792285,0.03357647386373997
3062,11.0,299.86533,-3498.9809999999998,0.0,0.0,0.030620437293214398,0.0,0.0,0.0,0.2825942065923767,0.25379400118251777,0.5272146365370335,0.0013231687537615887,0.01039646075705079,0.040864818310043564
3063,11.0,299.86154,-3506.2495,0.0,0.0,0.030630441713588752,0.0,0.0,0.0,0.26897377450814475,0.26541457141187874,0.5314239611624615,0.015628883260200684,0.006197618811857353,0.050001265077490656
3064,11.0,299.9834,-3464.5853,0.0,0.0,0.030640446133962884,0.0,0.0,0.0,0.25622417008985676,0.26426574844849876,0.5326575120992035,0.006533180089874674,0.006716472372014214,0.05684866841152675
3065,11.0,299.67900000000003,-3535.6245,0.0,0.0,0.030650450554337016,0.0,0.0,0.0,0.27709569346721574,0.2692660667644917,0.5283798032245265,-0.0017068302299260282,-0.009253661565515292,0.05163722525169735
3066,11.0,299.56925,-3543.5376,0.0,0.0,0.030660422065433623,0.0,0.0,0.0,0.29026358779178574,0.2617869232713578,0.5250964473354844,-0.012967877741579887,0.000992112547808885,0.04199724283380516
3067,11.0,299.42023,-3544.3612,0.0,0.0,0.030670426485807978,0.0,0.0,0.0,0.27946228093077974,0.27340838516080673,0.5245266258767475,-0.009001380731767112,-0.011170631456205489,0.06369798881475204
3068,11.0,299.64125,-3486.4989,0.0,0.0,0.03068043090618211,0.0,0.0,0.0,0.2803424710276477,0.26613027048751275,0.5133358763398065,-0.0044120901559393955,0.0014645635495661687,0.04757870162540225
3069,11.0,300.04264,-3371.7962,0.0,0.0,0.03069043532655602,0.0,0.0,0.0,0.24399807146823477,0.2654946789647848,0.5154490803508636,0.00020865388148003482,-0.015528703222813686,0.05198790199205645
3070,11.0,299.80777,-3303.5087,0.0,0.0,0.030700439746930153,0.0,0.0,0.0,0.24366108474997675,0.2600057410530688,0.5005173303847145,0.006381707204600464,-0.01714443689852418,0.054049977403067447
3071,11.0,300.5889,-3483.6229,0.0,0.0,0.030710444167304285,0.0,0.0,0.0,0.2668637723674038,0.27469315589010374,0.5173774472786785,0.002181725049069498,-0.006862942841544723,0.06173494238901444
3072,11.0,300.6077,-3604.9227,0.0,0.0,0.03072044858767864,0.0,0.0,0.0,0.2913266391342007,0.28682353277477873,0.5176563139712005,0.00978571696387507,0.008842634939925122,0.05225586003400185
3073,11.0,300.70398,-3502.6453,0.0,0.0,0.03073045300805277,0.0,0.0,0.0,0.26377425122249176,0.2816904077681787,0.5192520410236865,0.016295687952259184,0.014383125699503986,0.05615074579564715
3074,11.0,300.02834,-3505.6479,0.0,0.0,0.03074042451914938,0.0,0.0,0.0,0.27117518194040674,0.2647438099781797,0.5297104336533495,-0.00033360238186399166,0.017823969025088784,0.05951579193425134
3075,11.0,299.86512999999997,-3683.6273,0.0,0.0,0.03075042893952351,0.0,0.0,0.0,0.2749984582777347,0.28831093325907375,0.5564213173570085,-0.008455737446916311,-0.007269266568120753,0.045491654665676756
3076,11.0,299.7442,-3641.4392,0.0,0.0,0.030760433359897643,0.0,0.0,0.0,0.28772104944835675,0.2715301943779438,0.5476553563693755,-0.008642011622775142,-0.004844521588567055,0.04886014281487066
3077,11.0,299.84692,-3519.0409,0.0,0.0,0.030770437780271775,0.0,0.0,0.0,0.28339122912103676,0.2555358490319248,0.5307735052607665,-0.0017589955874743484,-0.0015763557370741985,0.027302554887552375
3078,11.0,299.877,-3550.8782,0.0,0.0,0.030780442200645908,0.0,0.0,0.0,0.2810114795386737,0.26538452854641376,0.5329822992862575,0.004054457554968806,-0.0028523911359340875,0.033881169314561074
3079,11.0,300.48873,-3504.387,0.0,0.0,0.03079044662102004,0.0,0.0,0.0,0.27918343450325966,0.2618135514839858,0.5242491372043615,-0.014110419567589984,0.012195993947900888,0.03837459406927756
3080,11.0,300.20406,-3520.3917,0.0,0.0,0.030800451041394394,0.0,0.0,0.0,0.25921054237458874,0.2840946172079557,0.5268060231692064,-0.0053266587141252856,0.003973493197778246,0.049344861397708654
3081,11.0,299.99029,-3626.613,0.0,0.0,0.030810422552491,0.0,0.0,0.0,0.2780372257251377,0.2781697892357207,0.5461927805125305,-0.007014669241993953,0.014850968601926485,0.04508846725213526
3082,11.0,300.50307000000004,-3488.6126,0.0,0.0,0.030820426972865134,0.0,0.0,0.0,0.25829552687178375,0.27072682890365773,0.5314287842329375,0.008645620414331302,0.0013933166661346487,0.043696246415983755
3083,11.0,300.50102000000004,-3327.2184,0.0,0.0,0.030830431393239266,0.0,0.0,0.0,0.24544131451317175,0.25505322787679374,0.5108967705665854,0.01222260898827759,0.0033806688339460367,0.06716151779682573
3084,11.0,300.00411,-3498.3453,0.0,0.0,0.030840435813613398,0.0,0.0,0.0,0.2742810670744337,0.2590932789405157,0.5300352715029085,0.012108318429997988,-0.008584031526877952,0.045173361398513655
3085,11.0,300.79607000000004,-3596.5179,0.0,0.0,0.03085044023398753,0.0,0.0,0.0,0.28246959709507874,0.27392949968723673,0.5368525498982214,0.003987657116951116,-0.007040081047876904,0.06504468128416023
3086,11.0,299.50337,-3536.1953,0.0,0.0,0.030860444654361663,0.0,0.0,0.0,0.2719600353353657,0.26971003242830777,0.5332450147721856,-0.008470147889838511,-0.01272298735141109,0.050133729289563854
3087,11.0,299.30485,-3445.4944,0.0,0.0,0.030870449074736017,0.0,0.0,0.0,0.25700922613483573,0.2642217024666517,0.5261133248708425,-0.006002207957196805,0.007346695290412372,0.06309434000142654
3088,11.0,299.8013,-3499.8612,0.0,0.0,0.03088045349511015,0.0,0.0,0.0,0.26608022606507375,0.27035922176737776,0.5274309654333834,-0.012088232773265688,-0.0036856206370424363,0.039283041684934364
3089,11.0,299.71551,-3537.7001,0.0,0.0,0.030890425006206756,0.0,0.0,0.0,0.27271417711979373,0.26755311680793675,0.5351052102332725,-0.013305713563421688,0.004091119071412016,0.046704078324583655
3090,11.0,299.62122,-3560.7781,0.0,0.0,0.03090042942658089,0.0,0.0,0.0,0.27058717264237475,0.2857243185362947,0.5260761487246736,-0.004378308600255416,-0.0020605110541816077,0.046821937549715455
3091,11.0,300.75302,-3526.1251,0.0,0.0,0.03091043384695502,0.0,0.0,0.0,0.2704464929984907,0.27838230831169475,0.5230251918785674,-0.0006176001931573933,0.007647544747828903,0.06106090207799184
3092,11.0,300.44897000000003,-3514.5472,0.0,0.0,0.030920438267329153,0.0,0.0,0.0,0.26860168880642277,0.27012726855448577,0.5296056230630054,-0.016681104985546882,-0.0013933780690907084,0.05638808949907115
3093,11.0,300.40797000000003,-3450.7915,0.0,0.0,0.030930442687703286,0.0,0.0,0.0,0.26115687422667677,0.2704654509078617,0.5173321347342065,-0.01021787137392539,0.01065125465369699,0.05291396192095145
3094,11.0,300.52905,-3580.3761,0.0,0.0,0.03094044710807764,0.0,0.0,0.0,0.2774191938266427,0.26386676095662176,0.5470589674930165,0.001035231041044349,0.0007441024720396964,0.043191126042382254
3095,11.0,300.15505,-3566.7264,0.0,0.0,0.030950451528451772,0.0,0.0,0.0,0.27785193267935077,0.2644028209220267,0.5419410108404135,0.01848063209689638,0.015334898876186685,0.046260929340348256
3096,11.0,300.13972,-3416.6917,0.0,0.0,0.030960455948825905,0.0,0.0,0.0,0.2585189687838358,0.25986655088683175,0.5202034322050815,0.02020160091474278,-0.006604129787051864,0.05441610012795095
3097,11.0,299.51497,-3553.5583,0.0,0.0,0.03097042745992229,0.0,0.0,0.0,0.27518501788614674,0.2649582744943457,0.5400497086012565,0.01130685381289959,-0.009530008912988651,0.03029119786575847
3098,11.0,299.53155,-3742.81,0.0,0.0,0.030980431880296644,0.0,0.0,0.0,0.3032061555591177,0.2908064669303637,0.5437081696773185,-0.005911618939956364,-0.012640355792505989,0.03259593350346817
3099,11.0,300.01647,-3683.9590000000003,0.0,0.0,0.030990436300670776,0.0,0.0,0.0,0.2841290778438567,0.28675489521300473,0.5489475744869076,-0.010875171780045888,0.01239848894063559,0.041865995535102056
3100,11.0,299.7677,-3635.8477,0.0,0.0,0.03100044072104491,0.0,0.0,0.0,0.28558043702209474,0.27411625181316773,0.5455102147151665,-0.012386366416439186,-0.0013069900880898788,0.037410616295140364
3101,11.0,300.56799,-3521.6303,0.0,0.0,0.03101044514141904,0.0,0.0,0.0,0.26472794248161374,0.27232911168429075,0.5334306219255035,-0.023630729042671376,0.016612551523531183,0.04651142097706986
3102,11.0,300.11041,-3460.6595,0.0,0.0,0.031020449561793173,0.0,0.0,0.0,0.25588212725359977,0.26687892045639877,0.5291930174897845,0.00027271795654266675,-0.014131140532134987,0.04960210431984655
3103,11.0,299.61683,-3548.8589,0.0,0.0,0.031030453982167527,0.0,0.0,0.0,0.26520369380106673,0.2859420457177827,0.5276187612069174,0.001076142939007039,-0.0023917592304982574,0.06719926237630083
3104,11.0,299.93608,-3477.3877,0.0,0.0,0.031040425493263912,0.0,0.0,0.0,0.27442599223623676,0.27146533623904273,0.5111476918213496,0.01237232175680309,-0.013721676034223989,0.06837626179846164
3105,11.0,300.45463,-3359.0373,0.0,0.0,0.031050429913638045,0.0,0.0,0.0,0.24949965474119878,0.2600996085423327,0.5114642007550866,0.013229817077931288,-0.0038411506770420563,0.05567097795279774
3106,11.0,299.88935,-3421.7536,0.0,0.0,0.0310604343340124,0.0,0.0,0.0,0.2625933892909497,0.27094493098768274,0.5065893430664755,0.004921007886940665,-0.0031978283600260873,0.05877750954038854
3107,11.0,300.31229,-3676.468,0.0,0.0,0.03107043875438653,0.0,0.0,0.0,0.27690158514555874,0.2904214318923637,0.5502314636886174,-0.0060782131644229334,0.011124358350638689,0.04424147528154366
3108,11.0,299.8389,-3786.2165,0.0,0.0,0.031080443174760664,0.0,0.0,0.0,0.2822824498016087,0.30450035964684574,0.5641324647255395,-0.0017859531063848483,-0.006625176410179004,0.04995788176120904
3109,11.0,300.35082,-3634.7898,0.0,0.0,0.031090447595134796,0.0,0.0,0.0,0.2748310490962127,0.2926239640322367,0.5374303355027445,-0.017493684956242286,0.004975556003424145,0.034380263889817866
3110,11.0,299.79431,-3559.3401,0.0,0.0,0.031100452015508928,0.0,0.0,0.0,0.2763176592454297,0.27643753686476075,0.5291953074350105,-0.0002390597133958568,-0.007522272179665463,0.04460686947960526
3111,11.0,300.17779,-3541.6069,0.0,0.0,0.03111045643588306,0.0,0.0,0.0,0.27596019474265077,0.27532942629039875,0.5252704426426565,-0.008882791155963231,0.0032240100333350173,0.04115690183686996
3112,11.0,299.80262,-3482.9502,0.0,0.0,0.031120427946979667,0.0,0.0,0.0,0.27666379561209076,0.25862910906970576,0.5234369969842094,0.0065077273486876825,0.007072013523453393,0.055220256950565046
3113,11.0,300.11032,-3515.1861,0.0,0.0,0.031130432367354022,0.0,0.0,0.0,0.2739573539324857,0.2603024308148498,0.5342689951907444,0.008183668142690163,0.02087021324497968,0.03955241321076926
3114,11.0,300.22865,-3481.1820000000002,0.0,0.0,0.031140436787728154,0.0,0.0,0.0,0.26126793657013775,0.27251390823752875,0.5244105783427945,0.01152104981778909,0.008711655443223451,0.05303302488720204
3115,11.0,300.36485,-3402.5239,0.0,0.0,0.031150441208102286,0.0,0.0,0.0,0.25486534091075075,0.25979950412771474,0.5196174696722515,0.005823109213246134,0.007112887829837374,0.053782680000187245
3116,11.0,299.73315,-3681.3311,0.0,0.0,0.03116044562847642,0.0,0.0,0.0,0.2852442102414117,0.2848580910258047,0.5489304201627144,0.013548401147873087,-0.008965323517683543,0.05658776259027735
3117,11.0,300.126,-3743.9825,0.0,0.0,0.03117045004885055,0.0,0.0,0.0,0.3071496033583057,0.2841834995067277,0.5467441000244415,-0.008561293181383852,-0.006827968690493044,0.04433795087656506
3118,11.0,300.51819,-3570.6601,0.0,0.0,0.031180454469224683,0.0,0.0,0.0,0.27948626456064674,0.26565759944836376,0.5402476571407925,0.008772656544293793,-0.015228323204168486,0.03164237801985957
3119,11.0,300.22677999999996,-3509.2283,0.0,0.0,0.031190458889598816,0.0,0.0,0.0,0.2521829436560188,0.2754384216036557,0.5390964023771725,0.005651099876270134,0.0060761074280651145,0.05797522216420894
3120,11.0,300.21755,-3601.9464,0.0,0.0,0.031200430400695645,0.0,0.0,0.0,0.2709472918604157,0.2789584727160577,0.5449959902894165,0.01197628991546779,-0.0007314075223318023,0.04017012998848316
3121,11.0,300.15067999999997,-3597.8974,0.0,0.0,0.031210434821069777,0.0,0.0,0.0,0.26771291648120776,0.28276609433934075,0.5431919694138735,-0.002201264057372848,-0.0009137268918578233,0.059571439629743345
3122,11.0,299.62753,-3523.114,0.0,0.0,0.03122043924144391,0.0,0.0,0.0,0.27097387954303975,0.26923537541896275,0.5307294187489154,0.0065941079329627835,-0.006191041906783264,0.04849568283340125
3123,11.0,299.32259,-3468.2993,0.0,0.0,0.03123044366181804,0.0,0.0,0.0,0.2618030035504447,0.2702141750155628,0.5222592153329715,0.008337685501615493,0.007817608948587932,0.06212097953136335
3124,11.0,299.76878,-3469.4724,0.0,0.0,0.03124044808219195,0.0,0.0,0.0,0.2755268884698867,0.26429614595149875,0.5148099627177876,-9.55647946390109e-06,0.0027049323422560375,0.05750264839706954
3125,11.0,299.45876,-3620.2513,0.0,0.0,0.031250452502566306,0.0,0.0,0.0,0.27778909090814874,0.27693103019346477,0.5457458662909235,-0.007179926888253613,0.006418825798163785,0.06093281307985044
3126,11.0,299.86028999999996,-3699.4613,0.0,0.0,0.03126045692294044,0.0,0.0,0.0,0.2834628557706057,0.2781820191644277,0.5628989745838034,-0.002019351720544498,-0.0016113255311504485,0.05585656281461354
3127,11.0,299.80438,-3625.3718,0.0,0.0,0.031270428434037045,0.0,0.0,0.0,0.2767247426056057,0.27028915552296273,0.5550085934050835,-0.0014883910375927587,0.011677777316756888,0.04882042847720116
3128,11.0,300.53578999999996,-3546.3581,0.0,0.0,0.03128043285441118,0.0,0.0,0.0,0.26409919039706076,0.27830221089128976,0.5356029085498915,0.008072563141399952,1.3785366909009786e-05,0.05166871909130555
3129,11.0,300.39258,-3492.7414,0.0,0.0,0.03129043727478553,0.0,0.0,0.0,0.28069348112728976,0.25698126043207575,0.5240314302878755,0.0019410614316928481,0.004676588354093336,0.02946056177828107
3130,11.0,300.6915,-3510.0674,0.0,0.0,0.031300441695159664,0.0,0.0,0.0,0.27959579689645675,0.25636209369346874,0.5310149424945945,0.014585690606495588,-0.0039892893615372065,0.036724444340670466
3131,11.0,300.72733999999997,-3463.7875,0.0,0.0,0.031310446115533574,0.0,0.0,0.0,0.26376185917376876,0.25876623220573874,0.5303768381116185,0.005038934087904076,0.008308386260398882,0.045194275893827754
3132,11.0,301.17602999999997,-3455.0417,0.0,0.0,0.03132045053590771,0.0,0.0,0.0,0.2540059224409328,0.27083680706951174,0.5254036647658045,0.0053361301707600456,-0.000986712208485913,0.061518213258874944
3133,11.0,300.03576,-3544.8116,0.0,0.0,0.03133045495628184,0.0,0.0,0.0,0.26748850184905976,0.27050408613417476,0.5395416244711124,-0.006351015251121405,-0.003974770399529297,0.05346582960116655
3134,11.0,300.58918,-3576.4635,0.0,0.0,0.03134045937665619,0.0,0.0,0.0,0.28415081205850173,0.2742506189089287,0.5287541687389735,-0.01168026687225259,-0.002174524184583828,0.055824455958694855
3135,11.0,300.38492,-3567.1837,0.0,0.0,0.0313504308877528,0.0,0.0,0.0,0.2798937126908587,0.27346689022158077,0.5309741693105705,-0.0021344813512319083,0.004953884610285344,0.05590330809472695
3136,11.0,299.68039,-3608.1694,0.0,0.0,0.03136043530812693,0.0,0.0,0.0,0.2890324281252797,0.2720324320550107,0.5357285515622915,-0.0008246528355043984,0.0019334047059871883,0.05247957957658125
3137,11.0,300.05149,-3530.4934,0.0,0.0,0.031370439728501065,0.0,0.0,0.0,0.26527696191579775,0.27321888712710474,0.5346859982693994,0.0067152532294938935,-0.008425875446594162,0.06191421875570765
3138,11.0,299.77606000000003,-3472.4738,0.0,0.0,0.0313804441488752,0.0,0.0,0.0,0.26104333955297176,0.26494084659262573,0.5295611312511145,0.003942727884991946,-0.0024654836117492876,0.057904666519995644
3139,11.0,299.2656,-3574.7942,0.0,0.0,0.03139044856924933,0.0,0.0,0.0,0.25504046092553373,0.2848296490954977,0.5467780641677935,0.006758833217619904,-0.007480110640354442,0.05420081285270375
3140,11.0,299.85652000000005,-3503.8259,0.0,0.0,0.03140045298962346,0.0,0.0,0.0,0.26957950555042576,0.26325049211330076,0.5322455752710485,-0.013810476259737886,-0.004931199055121456,0.04309531513942646
3141,11.0,299.85767000000004,-3529.0174,0.0,0.0,0.031410457409997594,0.0,0.0,0.0,0.26311431129986074,0.27749984853460274,0.5321190102010576,-0.007922410622331053,-0.004218565466339995,0.03399793929583537
3142,11.0,299.80637,-3589.809,0.0,0.0,0.03142046183037195,0.0,0.0,0.0,0.2900268723034237,0.26256237370538876,0.5386230625929574,-0.006195029957851854,0.0030684159559290773,0.04299862372213376
3143,11.0,300.52581000000004,-3613.1912,0.0,0.0,0.031430433341468555,0.0,0.0,0.0,0.2789247112227257,0.28371878248086374,0.5356764299771475,-0.01101741790858449,-0.002265779413765018,0.05548824336351324
3144,11.0,300.55872999999997,-3547.5632,0.0,0.0,0.03144043776184269,0.0,0.0,0.0,0.2697452530017837,0.2767174370723847,0.5319079502052275,-0.008445320729263262,0.01077822603697809,0.06773546520996993
3145,11.0,300.13588,-3542.8662,0.0,0.0,0.03145044218221682,0.0,0.0,0.0,0.27213706026033674,0.26809086890100875,0.5367149100046376,-0.0027417946848690674,0.0014308376213126785,0.05532356590426086
3146,11.0,300.14752000000004,-3512.4995,0.0,0.0,0.03146044660259095,0.0,0.0,0.0,0.28023006106155374,0.25535487243156374,0.5321272073943665,0.005739522970096814,0.02005598167662128,0.040818789397750854
3147,11.0,300.2228,-3495.7993,0.0,0.0,0.031470451022965085,0.0,0.0,0.0,0.2747463616528547,0.2564743111420438,0.5314150040315775,-0.001160061224214129,0.010060855706629152,0.03962332551901776
3148,11.0,299.80458,-3648.6968,0.0,0.0,0.03148045544333922,0.0,0.0,0.0,0.2790602638211037,0.27394630950639576,0.5561061357809024,-9.917652462046092e-06,0.003322255269656067,0.036227981175923366
3149,11.0,299.71502999999996,-3713.9757,0.0,0.0,0.03149045986371357,0.0,0.0,0.0,0.2866715351272777,0.27916567222900673,0.5631186674704854,-0.0004908301325386626,-0.011949784306101888,0.04704331749781396
3150,11.0,299.36458999999996,-3682.7447,0.0,0.0,0.031500464284087704,0.0,0.0,0.0,0.2764247091184947,0.2941157214919617,0.5489220000543835,0.004587399851141116,0.0039827781150695955,0.045873733039884956
3151,11.0,299.44972,-3572.873,0.0,0.0,0.03151043579518431,0.0,0.0,0.0,0.26688630704962774,0.2867150440865717,0.5324628262249895,0.013451188920028988,-0.005960516363282165,0.07031925803122042
3152,11.0,299.30604,-3603.3661,0.0,0.0,0.03152044021555844,0.0,0.0,0.0,0.28007181166093575,0.28352696410443273,0.5317345527156144,0.004102550052415166,0.001057316448174009,0.044390817200532555
3153,11.0,299.56712000000005,-3623.631,0.0,0.0,0.031530444635932575,0.0,0.0,0.0,0.2759003825892477,0.28904618806163773,0.5365467611505425,0.005828029454406724,-0.007828499158012711,0.05787544236061144
3154,11.0,299.76965,-3521.3586,0.0,0.0,0.03154044905630671,0.0,0.0,0.0,0.26197569176498775,0.26600813332045875,0.5424212508578095,0.015371620073060787,0.009965518498095101,0.04746802634347946
3155,11.0,300.33089,-3504.4934,0.0,0.0,0.03155045347668084,0.0,0.0,0.0,0.26093549934482874,0.2800744663761977,0.5242685105462735,0.002422508432607968,0.006031075351220794,0.06203073542445694
3156,11.0,300.2168,-3596.685,0.0,0.0,0.031560457897055194,0.0,0.0,0.0,0.2775187152514647,0.26899935907316974,0.5467843463184135,-0.013109194719776788,-0.0025910099990627774,0.04423257489266526
3157,11.0,300.08722,-3641.3179,0.0,0.0,0.031570462317429326,0.0,0.0,0.0,0.2870548983026127,0.2875278023892847,0.5322870172001385,-0.023133964942644577,-0.015078454395127585,0.060958353061871036
3158,11.0,299.81641,-3712.4806,0.0,0.0,0.03158043382852571,0.0,0.0,0.0,0.3086741293262647,0.27328966264658977,0.5465376097865624,-0.01150611147156479,0.012054691155205388,0.03377100471068867
3159,11.0,299.83412000000004,-3738.8582,0.0,0.0,0.031590438248899844,0.0,0.0,0.0,0.2970074967473577,0.28807099563539373,0.5514410512604945,0.008645365683256162,0.006675092251180312,0.05532457814111075
3160,11.0,300.17647,-3595.1474,0.0,0.0,0.0316004426692742,0.0,0.0,0.0,0.2716556246078227,0.28066209063919173,0.5405173133899055,0.003144826767170237,0.013225138902219588,0.04057364670830716
3161,11.0,299.58786000000003,-3539.4678,0.0,0.0,0.03161044708964833,0.0,0.0,0.0,0.2685036771242498,0.2707040510414097,0.5367020923908725,0.012525138110384887,-0.016974971832549285,0.04799713237344815
3162,11.0,299.63763,-3630.3117,0.0,0.0,0.03162045151002246,0.0,0.0,0.0,0.27523036082812175,0.28201887305309575,0.5462748740356325,0.006010044332145194,0.0037355110454662366,0.04515660528160996
3163,11.0,300.39167000000003,-3521.6125,0.0,0.0,0.031630455930396595,0.0,0.0,0.0,0.27198762613558874,0.2621161484938498,0.5363784907064355,0.017748799039920084,-0.0001292712178280759,0.057624755166620543
3164,11.0,300.14805,-3560.9807,0.0,0.0,0.03164046035077073,0.0,0.0,0.0,0.2844192321424927,0.26803538332553273,0.5299945895113934,-0.0027217418574400076,0.00045514176175649463,0.04542622809346966
3165,11.0,300.2084,-3607.6777,0.0,0.0,0.03165046477114508,0.0,0.0,0.0,0.28650184613303076,0.26181874945699873,0.5483233516303015,-0.003754123537878147,0.001014119772560829,0.046175441429411254
3166,11.0,300.46693,-3619.9809999999998,0.0,0.0,0.031660436282241466,0.0,0.0,0.0,0.2758408136158687,0.2723470766085638,0.5521959327174955,-0.02023317885410928,0.004876668467864705,0.04649316727651836
3167,11.0,300.32454,-3629.5726,0.0,0.0,0.0316704407026156,0.0,0.0,0.0,0.2752862821011407,0.28126504537619873,0.5467481226273385,0.014318774185652987,0.0014957459160936286,0.05894509705392815
3168,11.0,299.99124,-3665.9241,0.0,0.0,0.03168044512298995,0.0,0.0,0.0,0.2745686781153187,0.2785480760280547,0.5612326543968504,-0.003869963659535676,0.0047455450896488355,0.055093528747307954
3169,11.0,300.05386,-3594.2065,0.0,0.0,0.031690449543364085,0.0,0.0,0.0,0.26401905244665175,0.2992623835198977,0.5292675825646435,0.025561293709953272,-0.013023504158819789,0.06420895868118083
3170,11.0,299.34238999999997,-3511.1037,0.0,0.0,0.03170045396373822,0.0,0.0,0.0,0.27629736384592674,0.2716257742598768,0.5193647144348065,0.007655830296546623,0.005773953613794854,0.055841875754414044
3171,11.0,299.61797,-3647.8368,0.0,0.0,0.03171045838411235,0.0,0.0,0.0,0.2707242856459068,0.29494214853852374,0.5431848665306724,0.016509063224567685,-0.0023913295111308475,0.05519817215138545
3172,11.0,299.84279,-3591.4536,0.0,0.0,0.03172046280448648,0.0,0.0,0.0,0.2812435746065797,0.27238330029963875,0.5380853408973885,0.004989008418376795,0.001029657050919239,0.04382226635742096
3173,11.0,299.64332,-3566.493,0.0,0.0,0.031730467224860615,0.0,0.0,0.0,0.26710028520574575,0.27785488123714175,0.5391696603594025,-9.393750991216041e-05,-0.008153995012186653,0.04862490971140495
3174,11.0,299.44201,-3664.6355,0.0,0.0,0.03174043873595722,0.0,0.0,0.0,0.2834293577222997,0.2767580785338957,0.5537702599278694,0.0031695530080355274,0.007582313631566092,0.053918699706861355
3175,11.0,299.86454,-3785.4518,0.0,0.0,0.031750443156331576,0.0,0.0,0.0,0.2950462903838017,0.29470821948793674,0.5609283247293154,-0.0030083187752729472,-0.011978470429682989,0.05411176539416545
3176,11.0,300.28947999999997,-3604.7799,0.0,0.0,0.03176044757670571,0.0,0.0,0.0,0.29363088131911175,0.26847204345612774,0.5336601534706565,-0.00888145913738177,0.007188255297450563,0.05816239478893145
3177,11.0,300.39909,-3441.1017,0.0,0.0,0.03177045199707984,0.0,0.0,0.0,0.25349043145255773,0.26142205191034773,0.5310965091276445,-0.004330460296083156,-0.006545291164344943,0.060005146136296844
3178,11.0,300.21591,-3505.2794,0.0,0.0,0.03178045641745397,0.0,0.0,0.0,0.26487043584317677,0.2635550852258618,0.5370918897043425,0.001916506430094458,0.013643113687720488,0.05087327723280155
3179,11.0,300.07002,-3581.6257,0.0,0.0,0.031790460837828105,0.0,0.0,0.0,0.26328192313140275,0.2757404917234677,0.5497023546188985,-0.0036407418649382467,-0.003759521019835837,0.05001097505319895
3180,11.0,300.02167000000003,-3652.0125,0.0,0.0,0.03180046525820224,0.0,0.0,0.0,0.27743657106585773,0.28799193173009074,0.5446921064519256,0.0009626662738702642,0.004774917892822706,0.045465838066378855
3181,11.0,299.96585,-3732.6013,0.0,0.0,0.031810436769298844,0.0,0.0,0.0,0.3072550826937157,0.27528340447085675,0.5520790948484644,-0.0036015112528664864,-0.00039137883475608365,0.04895275286076055
3182,11.0,299.95355,-3687.8855,0.0,0.0,0.0318204411896732,0.0,0.0,0.0,0.28377972947437874,0.2894581147572918,0.5477872511348925,0.013417535844457687,0.01231929331281959,0.05247701301407794
3183,11.0,299.94183,-3634.7836,0.0,0.0,0.03183044561004733,0.0,0.0,0.0,0.27046298871011876,0.28417952756633574,0.5502409375770524,0.011522491672681387,-0.006167415447576514,0.055221068563895144
3184,11.0,299.83687000000003,-3766.3893,0.0,0.0,0.03184045003042146,0.0,0.0,0.0,0.2968258108719267,0.28609208779259077,0.5619704017946604,0.01141442044351559,0.012249799554711088,0.04058320368325036
3185,11.0,300.38531,-3666.6252,0.0,0.0,0.031850454450795374,0.0,0.0,0.0,0.2852918228636107,0.27606838958832874,0.5532022927168154,-0.004825177732232965,-0.009700251749740312,0.047793877443138455
3186,11.0,300.73994,-3429.1914,0.0,0.0,0.031860458871169506,0.0,0.0,0.0,0.26043600757553276,0.2567994023041278,0.5251531386785795,-0.0016454635482196084,0.008791360938489772,0.05360897448254385
3187,11.0,300.67900000000003,-3531.8286,0.0,0.0,0.03187046329154386,0.0,0.0,0.0,0.26913010886607375,0.2843360139117797,0.5201215717295026,-0.007318248901804933,-0.0020156185018760583,0.061741988530209846
3188,11.0,300.42241,-3713.4488,0.0,0.0,0.03188046771191799,0.0,0.0,0.0,0.28962644599640475,0.27620478318428976,0.5629644913352694,-0.01109702795569139,0.0027108759660176276,0.05065900422090445
3189,11.0,300.07479,-3666.1641,0.0,0.0,0.0318904392230146,0.0,0.0,0.0,0.27035942441739774,0.2880895482447247,0.5559733594877985,0.0003656840382527047,-0.0016251996607947186,0.06325388129592203
3190,11.0,299.92787999999996,-3563.9423,0.0,0.0,0.03190044364338873,0.0,0.0,0.0,0.2726676689402037,0.2725913104126677,0.5380904780753955,-0.003963988911840246,0.01194774463365059,0.04127628195040186
3191,11.0,299.71265,-3558.9426,0.0,0.0,0.031910448063763086,0.0,0.0,0.0,0.25642424645460277,0.27726466305389175,0.5481407943597845,0.007764283622325133,2.5493136428726675e-05,0.05555192613229824
3192,11.0,299.95215,-3553.2836,0.0,0.0,0.03192045248413722,0.0,0.0,0.0,0.2827817794508887,0.27481906234752973,0.5225086673750905,-0.00011557661583652389,0.006612393753542453,0.03826040888900836
3193,11.0,300.02308,-3655.9223,0.0,0.0,0.03193045690451113,0.0,0.0,0.0,0.30013319092083973,0.2777758477293418,0.5334000623024875,-0.005044942154372026,-7.888158614625643e-05,0.07107669997122414
3194,11.0,300.15511000000004,-3667.8405,0.0,0.0,0.03194046132488526,0.0,0.0,0.0,0.28865379682791176,0.2751359360513027,0.5511422134085014,-0.012869245950345687,-0.0032069263326739866,0.05371612466736875
3195,11.0,299.8238,-3465.7458,0.0,0.0,0.03195046574525939,0.0,0.0,0.0,0.2529477549639998,0.27864919838803476,0.5219032301753386,0.0028660472141568377,-0.005435078703975505,0.07324342689231343
3196,11.0,299.46005,-3480.4498,0.0,0.0,0.03196047016563375,0.0,0.0,0.0,0.26258642826276274,0.25735948642940376,0.5380239176763265,-0.004678090294716566,-0.007008251113210534,0.04566141357418066
3197,11.0,299.59621,-3753.9082,0.0,0.0,0.031970441676730355,0.0,0.0,0.0,0.2970456962761277,0.27596730775835276,0.5680813435452634,0.004232738504763766,-0.009794091273301551,0.042239244447938855
3198,11.0,300.00079,-3873.3201,0.0,0.0,0.03198044609710449,0.0,0.0,0.0,0.3056354733363727,0.3036703963574347,0.5680867340357955,-0.008363618016724833,0.007996710934938924,0.03563715909561376
3199,11.0,299.2822,-3679.1984,0.0,0.0,0.03199045051747862,0.0,0.0,0.0,0.2906052557255057,0.27851728335751574,0.5492619049329296,0.0035407685305716466,0.007113424852390373,0.04583039228010755
3200,11.0,299.21324,-3633.9682,0.0,0.0,0.03200045493785275,0.0,0.0,0.0,0.25563886616959175,0.3063344943153607,0.5426622321290925,0.005959690564450665,0.017166856070236786,0.06224771786712144
3201,11.0,299.49039,-3638.1316,0.0,0.0,0.032010459358226884,0.0,0.0,0.0,0.27725962720089475,0.2796506035943657,0.5489909111936845,0.007091435805345223,0.004957676800109605,0.04207911445513526
3202,11.0,300.21747999999997,-3713.3774,0.0,0.0,0.032020463778601016,0.0,0.0,0.0,0.28811173842191473,0.2915553803442757,0.5491068878001305,-0.0005719418365587645,-0.007631995715769333,0.06320954552454644
3203,11.0,300.33198,-3789.4815,0.0,0.0,0.03203046819897515,0.0,0.0,0.0,0.29587502764059176,0.29745805866932473,0.5585746562045264,-0.0009948974859737372,-0.004743063336178905,0.039119518317545864
3204,11.0,299.89153999999996,-3599.2829,0.0,0.0,0.03204043971007198,0.0,0.0,0.0,0.2962249029001217,0.26690731172420074,0.5309599128816636,-0.010181769272862391,-0.007825385643105432,0.05388920095670005
3205,11.0,299.35436,-3530.1151,0.0,0.0,0.03205044413044611,0.0,0.0,0.0,0.26773034438292775,0.2746885354696478,0.5306479737058776,-0.002351488517198848,0.005988325012276665,0.054264754000264245
3206,11.0,300.38857,-3682.1025,0.0,0.0,0.03206044855082024,0.0,0.0,0.0,0.2848836755908297,0.2779278048468387,0.5564557273304045,0.001957630907928128,0.0028953916463279068,0.05770881135516624
3207,11.0,300.02207000000004,-3794.7929,0.0,0.0,0.032070452971194374,0.0,0.0,0.0,0.28908615064558174,0.28458888060673576,0.5798472341039664,0.005598476833651645,-0.00037213245308161363,0.054809934229819356
3208,11.0,300.07881000000003,-3594.4744,0.0,0.0,0.032080457391568507,0.0,0.0,0.0,0.26893970903978276,0.2721895972780217,0.5515011673889274,0.006165632938000594,-0.01109320901606449,0.04753839960267475
3209,11.0,299.95453,-3471.1914,0.0,0.0,0.03209046181194264,0.0,0.0,0.0,0.25585548890847076,0.26838653528018874,0.5309134958945825,0.005346764939834615,-0.007526904252497613,0.05657869096213204
3210,11.0,299.97619,-3597.8893,0.0,0.0,0.03210046623231677,0.0,0.0,0.0,0.29179571313549474,0.2759587153975048,0.5259140895036795,0.00944276990322883,-0.004156148348254906,0.034373715254421566
3211,11.0,300.65142000000003,-3735.5686,0.0,0.0,0.032110470652691125,0.0,0.0,0.0,0.29269731320697573,0.3036688967472867,0.5391533672977945,-0.015431035032424587,0.008386613423769304,0.057633202632704245
3212,11.0,300.52155,-3671.1623,0.0,0.0,0.03212044216378751,0.0,0.0,0.0,0.28116590898641475,0.28952799861668876,0.5452477829392665,-0.0013030512809761485,0.0060105563274207244,0.05044370073365565
3213,11.0,299.73651,-3576.4089,0.0,0.0,0.032130446584161865,0.0,0.0,0.0,0.25901601862039075,0.29101489247593376,0.5371081017059425,-0.014705598623329586,0.004810777219161746,0.04913319750481905
3214,11.0,299.47728,-3549.1057,0.0,0.0,0.032140451004536,0.0,0.0,0.0,0.27146651160915874,0.26157488042293076,0.5457981195985805,0.013771238149615388,0.00037520348241220063,0.05391233446973315
3215,11.0,299.5768,-3695.7032,0.0,0.0,0.03215045542491013,0.0,0.0,0.0,0.2960611312864587,0.2704530284616357,0.5568873414755015,-0.0008987285206975993,-0.015541554273831984,0.03854960769280007
3216,11.0,299.7208,-3800.71,0.0,0.0,0.03216045984528426,0.0,0.0,0.0,0.3068434903705947,0.29083522296820175,0.5576422229325024,0.017611250338845086,-0.01174770778565849,0.06324339922363753
3217,11.0,300.09651,-3758.0509,0.0,0.0,0.032170464265658394,0.0,0.0,0.0,0.3024323263252467,0.2725425426853547,0.5673787559259235,0.0014613589434748985,-0.008112595943575883,0.03505605611026336
3218,11.0,299.70611,-3633.3901,0.0,0.0,0.03218046868603275,0.0,0.0,0.0,0.2596600403839508,0.28790688964919775,0.5568929244835524,0.01980153431150928,-0.007715889784299033,0.06590814667487764
3219,11.0,300.15698,-3601.8259,0.0,0.0,0.03219047310640688,0.0,0.0,0.0,0.2724013868139238,0.2708119216470557,0.5516518174137955,-0.005069094591705685,-0.002773193177642857,0.03367935826564387
3220,11.0,300.12549,-3648.2631,0.0,0.0,0.032200444617503265,0.0,0.0,0.0,0.26362842426809974,0.28342997580486073,0.5619224851974315,0.0037261072739381562,-0.01371844984590559,0.04269677854384396
3221,11.0,300.24551,-3577.9403,0.0,0.0,0.0322104490378774,0.0,0.0,0.0,0.28837244767264475,0.2735868387684187,0.5256452235896445,0.0024393452042196276,-0.003707342084736176,0.04407882634899146
3222,11.0,300.02221000000003,-3577.5721,0.0,0.0,0.03222045345825175,0.0,0.0,0.0,0.27271428857730473,0.2805743634455337,0.5342039344018235,0.01083323031865659,-0.0005721260656919464,0.05199772038552545
3223,11.0,300.13127000000003,-3603.5181,0.0,0.0,0.032230457878625884,0.0,0.0,0.0,0.2861427401650897,0.28538902394570376,0.5238477584422485,0.019129823462466583,0.016576796967252484,0.05778282927497124
3224,11.0,300.1186,-3694.1893,0.0,0.0,0.03224046229900002,0.0,0.0,0.0,0.2784467712830567,0.2925237333323447,0.5519708088102775,-0.0006084249804543705,-0.0013961736261166085,0.06040368779812985
3225,11.0,299.84666,-3663.9362,0.0,0.0,0.03225046671937415,0.0,0.0,0.0,0.28377302175871677,0.27205246400948774,0.5579196204123795,-0.004171297247849986,0.01109079849407659,0.05943706746773185
3226,11.0,299.07386,-3614.9503,0.0,0.0,0.03226047113974828,0.0,0.0,0.0,0.27405978338509474,0.27188985763343976,0.5529049747399725,-0.016342613590890384,-0.008095064994320712,0.04876804243378105
3227,11.0,299.01375,-3517.7735,0.0,0.0,0.03227044265084489,0.0,0.0,0.0,0.2849858415984127,0.25326929975073376,0.5310601638465575,-0.01804204476461118,-0.0015399305105543086,0.06049686729057594
3228,11.0,299.27951,-3491.9518,0.0,0.0,0.03228044707121902,0.0,0.0,0.0,0.26681881446046674,0.2614447689775897,0.5332025697254964,-0.009662423171831922,-0.026361866666963676,0.044922253705731253
3229,11.0,300.35045,-3706.5661,0.0,0.0,0.03229045149159315,0.0,0.0,0.0,0.28961758005802973,0.2914187334357897,0.5456672076856605,-0.0028333622990560875,-0.006120704820616534,0.05804755302259745
3230,11.0,299.50527,-3841.4381,0.0,0.0,0.03230045591196751,0.0,0.0,0.0,0.28781587952521576,0.30329149148253975,0.5765938704178845,0.013665663568695986,-0.006449273761018764,0.040708697747885665
3231,11.0,300.15617000000003,-3723.2504,0.0,0.0,0.03231046033234164,0.0,0.0,0.0,0.27840860215178975,0.29508275725490074,0.5582837723658185,0.005097773926511115,0.007030181189099863,0.04779379030362985
3232,11.0,300.23469,-3710.5853,0.0,0.0,0.03232046475271577,0.0,0.0,0.0,0.28141575619607273,0.2863620378842327,0.5601474838047524,0.016366398623737784,-0.004380119784809166,0.03970836456016046
3233,11.0,300.62942999999996,-3768.4885,0.0,0.0,0.032330469173089904,0.0,0.0,0.0,0.3135456230245437,0.27785908622505673,0.5541216854600525,0.006892166696953894,0.003095139819366517,0.03455581453589337
3234,11.0,299.65676,-3732.4288,0.0,0.0,0.032340473593464036,0.0,0.0,0.0,0.2934982063510177,0.3107704931206597,0.5302964468486845,0.0014933208033042888,-0.00047386738354206957,0.06860118710866002
3235,11.0,299.26691,-3597.0209999999997,0.0,0.0,0.03235044510456064,0.0,0.0,0.0,0.29081546459125174,0.2669909656524567,0.5355981260094194,-0.01453993729823009,0.015575302594912686,0.051244815779469544
3236,11.0,299.08714,-3540.6757,0.0,0.0,0.032360449524934776,0.0,0.0,0.0,0.25611135482372277,0.27843765203215676,0.5417279952718904,-0.015090079413524884,-0.01123613300891999,0.08016826887849213
3237,11.0,300.06327999999996,-3502.0833,0.0,0.0,0.03237045394530913,0.0,0.0,0.0,0.2680912944660508,0.25865814881757176,0.5377964126313735,-0.006562988387941524,-0.003316609845398907,0.05155709844703945
3238,11.0,299.83651000000003,-3657.15,0.0,0.0,0.03238045836568326,0.0,0.0,0.0,0.27539229845910373,0.2712769629129517,0.5650130094599425,0.005374743713520905,-0.0076932216570368625,0.06054377469070534
3239,11.0,299.92701,-3768.8341,0.0,0.0,0.032390462786057395,0.0,0.0,0.0,0.3013941097427827,0.2787824813061887,0.5654548776960514,0.011997878222098387,0.011038746823189489,0.03186009912184697
3240,11.0,300.06642,-3679.5359,0.0,0.0,0.03240046720643153,0.0,0.0,0.0,0.28642273156522274,0.27681930923743875,0.5552449947859145,0.006461159893966834,-0.0015327180950174984,0.04716188802451595
3241,11.0,299.79353,-3666.2406,0.0,0.0,0.03241047162680566,0.0,0.0,0.0,0.27381759634619274,0.2922455049873857,0.5483824950386386,0.007358755499727624,0.008174545548064833,0.04257009695009146
3242,11.0,300.23755,-3761.3451,0.0,0.0,0.03242047604717979,0.0,0.0,0.0,0.2838744886237307,0.30815285267981873,0.5513276584418035,0.005873913269285104,0.001108756622625759,0.06154093235261714
3243,11.0,300.58994,-3734.5351,0.0,0.0,0.0324304475582764,0.0,0.0,0.0,0.2943398321490797,0.27845198952107175,0.5624135872558995,-0.013987222540931385,0.01049746861976949,0.051123846889780854
3244,11.0,300.21771,-3449.6163,0.0,0.0,0.03244045197865075,0.0,0.0,0.0,0.26211984685671474,0.2656604973436497,0.5208168842131246,-0.00859443882130507,-0.013120200642362988,0.04988851871236345
3245,11.0,300.37627000000003,-3419.1254,0.0,0.0,0.032450456399024885,0.0,0.0,0.0,0.25257579085228976,0.25977836773062873,0.5269745975883434,-0.019460624288864085,-0.0006589482142281253,0.05181251549249715
3246,11.0,299.90263,-3508.6782,0.0,0.0,0.03246046081939902,0.0,0.0,0.0,0.2711976456951237,0.2658531263201607,0.5294997992225615,0.012095052959688789,-0.0026425239381218076,0.06724528419584284
3247,11.0,299.34505,-3680.0103,0.0,0.0,0.03247046523977293,0.0,0.0,0.0,0.27782192021138874,0.2882302582861117,0.5525790628453076,0.004237633515996866,0.010035416644318512,0.06872373160225423
3248,11.0,299.66356,-3771.2873,0.0,0.0,0.03248046966014706,0.0,0.0,0.0,0.28964431972816873,0.2757352329554487,0.5809975972074984,0.011090439803541189,-0.005480200554778684,0.06724624577018773
3249,11.0,300.01841,-3822.7106,0.0,0.0,0.032490474080521414,0.0,0.0,0.0,0.3061884545784477,0.2956267408360877,0.5601933637692805,-0.008660098238385153,-0.015594174378025183,0.046701155098045156
3250,11.0,299.77373,-3814.136,0.0,0.0,0.03250044559161802,0.0,0.0,0.0,0.2882727235978027,0.2980436159021147,0.5730857553916605,0.0037278708357372063,-0.004258016358983496,0.050578469076456245
3251,11.0,299.59868,-3844.9934,0.0,0.0,0.032510450011992154,0.0,0.0,0.0,0.31214216017853275,0.3050440189880007,0.5515958150807685,0.005037856800397755,0.0013185459015053488,0.02980736891650827
3252,11.0,300.09091,-3827.1214,0.0,0.0,0.032520454432366286,0.0,0.0,0.0,0.2846563934608987,0.3083919087759117,0.5703010502743315,-0.002453821609723338,-0.002437630379750388,0.04691869280176445
3253,11.0,299.91868,-3671.6869,0.0,0.0,0.03253045885274064,0.0,0.0,0.0,0.2847241292300837,0.2841257746485307,0.5472512215669905,0.002779151290880877,-0.006178679546288193,0.036160315320995264
3254,11.0,300.28873,-3545.7245,0.0,0.0,0.03254046327311477,0.0,0.0,0.0,0.25054713242957677,0.2784779793861367,0.5487865893110194,0.018571419305856384,0.009614064594909301,0.059842675535762245
3255,11.0,300.38585,-3593.2541,0.0,0.0,0.03255046769348868,0.0,0.0,0.0,0.2902124085292347,0.26544178730956475,0.5366053168738215,0.020271025771844482,0.015082296639506786,0.05177210099900855
3256,11.0,300.20622000000003,-3720.4251,0.0,0.0,0.032560472113862815,0.0,0.0,0.0,0.2905048527730967,0.27232082329847274,0.5680906553136824,-0.00035347018982479167,-0.006767894814589213,0.053072533535101246
3257,11.0,300.32234,-3642.5003,0.0,0.0,0.03257047653423695,0.0,0.0,0.0,0.2961541780431417,0.2720357960453427,0.5390391638790235,-0.023901919352435776,-0.005779127471455475,0.06592236054728044
3258,11.0,300.7488,-3613.4655,0.0,0.0,0.032580448045333776,0.0,0.0,0.0,0.2651767109509037,0.28382383625123175,0.5494027365643285,-0.016985195526058285,0.008337801214776912,0.05777507081895555
3259,11.0,300.15289,-3658.9231,0.0,0.0,0.03259045246570791,0.0,0.0,0.0,0.2761086358823008,0.28882560351486775,0.5472870095605225,-0.004185147566116905,0.013074666196119088,0.061996048833783644
3260,11.0,300.05305,-3672.8459999999995,0.0,0.0,0.03260045688608204,0.0,0.0,0.0,0.28309584645188474,0.2807979269475977,0.5525596895033955,-0.008436322359100192,-0.003443671914563957,0.034513170892184766
3261,11.0,299.64993,-3742.8731,0.0,0.0,0.03261046130645617,0.0,0.0,0.0,0.29731312337502075,0.2863103114666277,0.5541165178845425,0.006040306768906864,-0.02079117365767908,0.05160717326698145
3262,11.0,299.59459,-3618.7765,0.0,0.0,0.032620465726830306,0.0,0.0,0.0,0.2727163252100057,0.2857463668584707,0.5415549929498165,0.008294474032550852,-0.006753870115980083,0.03206010151933567
3263,11.0,299.80442999999997,-3534.9736,0.0,0.0,0.03263047014720444,0.0,0.0,0.0,0.2618973573997567,0.2867151454115817,0.5259312134303695,0.01041551796493159,0.012298066736474688,0.05161054232356395
3264,11.0,299.57444,-3693.2414,0.0,0.0,0.03264047456757857,0.0,0.0,0.0,0.27086423574971874,0.28603201219416174,0.5657569072858594,-0.0026907007379764875,0.002078877833444268,0.03838824254812456
3265,11.0,299.44399,-3782.9991,0.0,0.0,0.0326504789879527,0.0,0.0,0.0,0.2889513478522777,0.2914675112956037,0.5695184057645905,-0.00935466061295812,-0.0006613916161817703,0.05112502529964715
3266,11.0,299.72359,-3694.349,0.0,0.0,0.03266045049904953,0.0,0.0,0.0,0.27860327789350275,0.27205524031476175,0.5723313400297054,-0.01150513773821869,0.005654533578209015,0.06006207255341504
3267,11.0,300.45377,-3606.8069,0.0,0.0,0.032670454919423664,0.0,0.0,0.0,0.2788111765490207,0.2725997305209988,0.5449683184291855,-0.014661742119251286,0.00033527694990675863,0.05716558264530375
3268,11.0,300.51513,-3609.1674,0.0,0.0,0.032680459339797796,0.0,0.0,0.0,0.2776881509331867,0.27514335304203474,0.5442652647147994,-0.016271621235883986,-0.011437707970563888,0.06577157879989944
3269,11.0,300.56304,-3633.5598,0.0,0.0,0.03269046376017193,0.0,0.0,0.0,0.2936373458547497,0.26413380302047673,0.5467403104690675,0.005483371216991605,-0.007437691735518023,0.037261554033179066
3270,11.0,299.73418,-3685.1902,0.0,0.0,0.03270046818054606,0.0,0.0,0.0,0.28697149768688174,0.2880858904118637,0.5451484236344605,0.013051292542812287,0.024480880327074774,0.06017030691584694
3271,11.0,300.35123,-3688.2345,0.0,0.0,0.03271047260092019,0.0,0.0,0.0,0.28360183315432175,0.28214733290077376,0.5553820368619395,0.020176222039488084,0.015060009190307186,0.028254164930968974
3272,11.0,300.55868,-3708.9753,0.0,0.0,0.032720477021294325,0.0,0.0,0.0,0.28780454125659677,0.28500012842482275,0.5546312084053385,0.0024662863084785078,0.0008129720174240912,0.05242567365801115
3273,11.0,300.60677999999996,-3786.7545,0.0,0.0,0.03273048144166868,0.0,0.0,0.0,0.2875405592080437,0.2937672850475737,0.5697709684845165,0.004905812681816016,-0.017081625524825183,0.03345047114755447
3274,11.0,299.88571,-3870.0899,0.0,0.0,0.032740452952765065,0.0,0.0,0.0,0.29746795812280175,0.3096733560448807,0.5692693894200145,0.004796810883758375,-0.008532863207428033,0.05306652293550804
3275,11.0,300.2037,-3726.7773,0.0,0.0,0.03275045737313942,0.0,0.0,0.0,0.2748786211884077,0.28636259517178775,0.5716060353431235,0.004305752293719666,0.002490595292952618,0.03867020471970207
3276,11.0,299.9779,-3577.6667,0.0,0.0,0.03276046179351355,0.0,0.0,0.0,0.25698455349490074,0.2813229830169167,0.5492138059506825,-0.017013088274811086,-0.005349792835108445,0.05789447626373995
3277,11.0,300.02955,-3647.5164,0.0,0.0,0.03277046621388768,0.0,0.0,0.0,0.27822906436657074,0.2651280445486007,0.5653968083328205,-0.005579591270337785,-0.006209059520061464,0.053450419080395654
3278,11.0,299.96192,-3689.275,0.0,0.0,0.032780470634261816,0.0,0.0,0.0,0.2859158126726937,0.27179070097865377,0.5637409550194005,-0.006301694289253805,0.018104011087726784,0.05823625768147114
3279,11.0,299.59596,-3755.4051,0.0,0.0,0.03279047505463595,0.0,0.0,0.0,0.29010311937344874,0.2944467908296357,0.5569994575990664,0.016358754664983384,0.014578457014031685,0.06537623900838244
3280,11.0,299.19369,-3676.0570000000002,0.0,0.0,0.0328004794750103,0.0,0.0,0.0,0.28360742629487373,0.28306152767099774,0.5507605930233385,-0.009951864649022571,0.0006165911379128074,0.061220800036522534
3281,11.0,299.84538,-3680.6893,0.0,0.0,0.03281045098610669,0.0,0.0,0.0,0.2834844683952387,0.3052110026044807,0.5301421592559575,-0.009920708221697671,-0.015458972364181787,0.056317446715349245
3282,11.0,300.03299,-3787.4371,0.0,0.0,0.03282045540648082,0.0,0.0,0.0,0.2869039747002177,0.30217987506283167,0.5622024664650634,0.001906799494136458,0.006174859086786145,0.038521532559029265
3283,11.0,299.9871,-3827.8259999999996,0.0,0.0,0.03283045982685495,0.0,0.0,0.0,0.3007483451890507,0.3032941765953047,0.5595210115329244,0.007151020078800733,-0.001070321715857529,0.04050080517186826
3284,11.0,300.46434,-3705.3052,0.0,0.0,0.032840464247229306,0.0,0.0,0.0,0.27066772602532474,0.2927149741562187,0.5629375591476115,-0.0028742678135431476,-0.017285751850220882,0.04606875733963236
3285,11.0,299.51935,-3650.2088,0.0,0.0,0.03285046866760344,0.0,0.0,0.0,0.2799893128377937,0.26912690699575775,0.5604561096527115,0.0014633378209201987,-0.03306424047443647,0.04806005013840766
3286,11.0,299.55739,-3624.3635,0.0,0.0,0.03286047308797757,0.0,0.0,0.0,0.27268415451933076,0.2766905859447347,0.5523412733118395,0.02281646403705968,0.007794260018583572,0.06871980120511634
3287,11.0,300.07301,-3688.7505,0.0,0.0,0.0328704775083517,0.0,0.0,0.0,0.2901586353464277,0.26518716769193573,0.5659422307291495,0.03680915812853107,-0.0033312896101976865,0.052005071515000945
3288,11.0,299.77054,-3752.4989,0.0,0.0,0.032880481928725835,0.0,0.0,0.0,0.2893088022225557,0.28394710825839775,0.5674100450890115,0.012426175999618089,-0.012451468748614289,0.06317601910523764
3289,11.0,299.09111,-3627.5984,0.0,0.0,0.03289045343982244,0.0,0.0,0.0,0.2952614033800317,0.27364315520897675,0.5337947840114435,-0.0028160733139247973,-0.023334794152214875,0.05227294545718804
3290,11.0,299.63038,-3633.2234,0.0,0.0,0.032900457860196575,0.0,0.0,0.0,0.26480910381462375,0.2852484152293267,0.5543516628352494,-0.01069084233510399,0.011307636041976791,0.04934323411804805
3291,11.0,299.69469,-3798.2309,0.0,0.0,0.03291046228057071,0.0,0.0,0.0,0.30285426393188875,0.2978123618317917,0.5539007361432465,-0.01028068274762439,0.02691705983400697,0.04722955691919436
3292,11.0,300.58263,-3813.942,0.0,0.0,0.03292046670094506,0.0,0.0,0.0,0.28014192856785575,0.3115167416868087,0.5676844636135944,-0.012314461123092688,0.016108764587061286,0.04803456284539225
3293,11.0,300.95252,-3647.245,0.0,0.0,0.032930471121319194,0.0,0.0,0.0,0.2689293941537647,0.29411505274689576,0.5456269613916884,-0.008350105414716242,-0.0015056727273233283,0.05918422509077824
3294,11.0,299.94383,-3591.2057,0.0,0.0,0.032940475541693326,0.0,0.0,0.0,0.2629979800558797,0.28355933744512773,0.5450795530251635,0.018296990648772382,0.012569543796017388,0.052289229399545153
3295,11.0,299.74167,-3712.1907,0.0,0.0,0.03295047996206746,0.0,0.0,0.0,0.2902558364285207,0.27137129649726177,0.5667861566049385,0.022439239130830478,0.005535776106863564,0.06195453293743635
3296,11.0,299.60863,-3758.1164,0.0,0.0,0.03296048438244159,0.0,0.0,0.0,0.2821403313425827,0.2813913875311677,0.5788418468247425,-0.009685288274913531,-0.020921384401529877,0.049403525538748355
3297,11.0,300.17863,-3607.8395,0.0,0.0,0.0329704558935382,0.0,0.0,0.0,0.27337766341777475,0.2751322478209387,0.5481832191414715,-0.004503670435752665,-0.024758976949520773,0.06458245685354223
3298,11.0,300.20945,-3564.5868,0.0,0.0,0.03298046031391233,0.0,0.0,0.0,0.26733877388178273,0.26072142999620174,0.5554851755896185,-0.0067425743025402735,0.00914022710224518,0.052382318712732356
3299,11.0,300.02126,-3678.6715,0.0,0.0,0.032990464734286684,0.0,0.0,0.0,0.28813954200465874,0.2897865800422087,0.5402981372607745,0.007425835797422932,0.012785830135863187,0.06034082778842604
3300,11.0,299.83092,-3878.8211,0.0,0.0,0.033000469154660816,0.0,0.0,0.0,0.3174327138531697,0.2933548314618677,0.5682772149220945,-0.015019177237777384,-0.003416692914751337,0.043747597931051756
3301,11.0,300.9384,-3856.2581,0.0,0.0,0.03301047357503495,0.0,0.0,0.0,0.3109689584177467,0.3002569087580497,0.5609803145919464,-0.0101249057785754,-0.015134557039914485,0.03935140972218176
3302,11.0,300.28941000000003,-3634.1329,0.0,0.0,0.03302047799540908,0.0,0.0,0.0,0.26137295994300275,0.2925597442408987,0.5507529531175844,0.008925549803558181,0.010805296026649688,0.05163471137819925
3303,11.0,300.76568,-3589.7018,0.0,0.0,0.03303048241578321,0.0,0.0,0.0,0.27181064174062175,0.27772951180226874,0.5416395385381605,0.014495115166806488,0.011716226105051488,0.03195025912899507
3304,11.0,300.29229,-3782.9152,0.0,0.0,0.03304045392687982,0.0,0.0,0.0,0.2836876250402887,0.2919595962066687,0.5742645502929985,-0.020753250746186377,-0.0023399479025348778,0.06065514202244644
3305,11.0,300.35751,-3799.9565,0.0,0.0,0.03305045834725395,0.0,0.0,0.0,0.3028676084357057,0.28310010210230474,0.5691241805481835,-0.0017911666834493883,-0.002567333991926138,0.04038169154311266
3306,11.0,300.32866,-3562.1822,0.0,0.0,0.03306046276762831,0.0,0.0,0.0,0.26047781427465877,0.26745934051118175,0.5548772761921235,-0.007857542553579072,0.017228222549293182,0.06564589323099523
3307,11.0,300.39069,-3551.9686,0.0,0.0,0.03307046718800244,0.0,0.0,0.0,0.2771223723423487,0.2642288458798568,0.5383585637868535,0.010980161715657591,0.005896604397324545,0.047636745657380755
3308,11.0,299.75602000000003,-3676.6671,0.0,0.0,0.03308047160837657,0.0,0.0,0.0,0.27827727480632874,0.27099324275245074,0.5683444744637325,-0.01858195001414568,-0.016430614362075383,0.06601363918253894
3309,11.0,300.20493999999997,-3789.7287,0.0,0.0,0.03309047602875048,0.0,0.0,0.0,0.30345351017352973,0.2937568384390427,0.5547725567942885,-0.0023485918378129676,-0.008258071502833203,0.04336648721068906
3310,11.0,299.65219,-3905.5283,0.0,0.0,0.033100480449124614,0.0,0.0,0.0,0.29445397477284474,0.3094659842794147,0.5832631129735875,0.017369362208722587,0.010544254429886891,0.061330948428393345
3311,11.0,300.07616,-3844.3362,0.0,0.0,0.03311048486949897,0.0,0.0,0.0,0.3073511793331997,0.29877830328462274,0.5624527493722644,0.02207452077058558,0.015348516957530686,0.04387623205774696
3312,11.0,299.67435,-3717.5073,0.0,0.0,0.033120456380595575,0.0,0.0,0.0,0.2819143259077777,0.28583238165945973,0.5622826956079815,-0.015597652865618485,-0.011868598655089489,0.046073645258114755
3313,11.0,300.51721000000003,-3808.7283,0.0,0.0,0.03313046080096971,0.0,0.0,0.0,0.29837208118703173,0.28423459770927073,0.5751516000930434,-0.017272264478139784,-0.00959626908605302,0.03496061808334437
3314,11.0,300.28334,-3840.8384,0.0,0.0,0.03314046522134384,0.0,0.0,0.0,0.28797939782635373,0.2918931067351067,0.5876464531711895,0.0014041661429054087,0.006689519514054174,0.04081826149444876
3315,11.0,300.94306,-3645.2522,0.0,0.0,0.033150469641718194,0.0,0.0,0.0,0.26212033321676276,0.2947208749816857,0.5512244285216155,-0.003401858933287337,0.007934986677272212,0.05228929931380205
3316,11.0,300.27312,-3519.2899,0.0,0.0,0.033160474062092105,0.0,0.0,0.0,0.26411479444860075,0.25724058153016877,0.5484208668199254,-0.014630839004451385,-0.02021084276890488,0.055136076132257045
3317,11.0,300.55002,-3711.8363,0.0,0.0,0.03317047848246624,0.0,0.0,0.0,0.29527155614603373,0.2831954894667187,0.5498385151673365,0.0019165189943956982,-0.0014627802293901689,0.05382648482851045
3318,11.0,299.68647999999996,-3863.7542,0.0,0.0,0.03318048290284037,0.0,0.0,0.0,0.3018003521053757,0.2982677670892367,0.5744166897955135,0.03642699768106476,0.026247538618430377,0.06248143920143795
3319,11.0,299.97701,-3849.9644,0.0,0.0,0.0331904873232145,0.0,0.0,0.0,0.3127024874838327,0.29312631316681476,0.5644642534707844,0.026990836600288177,0.016134494046850585,0.06161230163666073
3320,11.0,299.3371,-3790.2369,0.0,0.0,0.03320045883431133,0.0,0.0,0.0,0.2928437582439287,0.3029610503599277,0.5563325769132504,0.0005743538581568123,-0.028618938006719274,0.06050088482722245
3321,11.0,299.81628,-3712.2422,0.0,0.0,0.03321046325468546,0.0,0.0,0.0,0.29170862428939975,0.28353668117289177,0.5531836387824746,-0.00990013742081749,-0.022947119597704378,0.04198575359092126
3322,11.0,300.24442,-3763.3743,0.0,0.0,0.033220467675059595,0.0,0.0,0.0,0.27010336598462675,0.2968018069770577,0.5770666630470455,0.005988122362256665,0.00045921759068124756,0.05532603519475454
3323,11.0,300.53721,-3839.7940000000003,0.0,0.0,0.03323047209543373,0.0,0.0,0.0,0.3061174358789387,0.2994676578576567,0.5616164127397244,0.001137710142908249,0.013112255748328885,0.04157778465015786
3324,11.0,300.74041,-3684.7642,0.0,0.0,0.03324047651580786,0.0,0.0,0.0,0.27806559672793774,0.27430338897413675,0.5677073225358504,-0.01168598160281659,-0.0047069768391674455,0.04507186312274655
3325,11.0,300.67258,-3487.3205,0.0,0.0,0.03325048093618199,0.0,0.0,0.0,0.2702032724444867,0.25776203042913176,0.5320930406009945,-0.007602783918036353,0.0038660917269285463,0.05136852348417855
3326,11.0,300.16977,-3725.1648,0.0,0.0,0.033260485356556124,0.0,0.0,0.0,0.27158316709317176,0.29399210497976175,0.5667818097620094,0.014334544410209385,0.013204577017940287,0.06701926558878653
3327,11.0,299.58664,-3870.8751,0.0,0.0,0.03327045686765273,0.0,0.0,0.0,0.3010671440680137,0.2951018367542837,0.5804804140914565,0.017613580814075085,0.012188145312626289,0.06108684330705203
3328,11.0,299.60162,-3780.6024,0.0,0.0,0.033280461288027086,0.0,0.0,0.0,0.2851087387030417,0.3010307785219247,0.5630692107331045,0.011533228070740989,-0.02925268338776507,0.05844971705353794
3329,11.0,299.66913999999997,-3720.2046,0.0,0.0,0.03329046570840122,0.0,0.0,0.0,0.29977098440759276,0.2734759182799717,0.5576023920710715,-0.002077829423565798,-0.011608445678664387,0.048993643581796156
3330,11.0,299.85469,-3671.1963,0.0,0.0,0.03330047012877535,0.0,0.0,0.0,0.28441987049005574,0.28056834473993975,0.5509638003308934,0.004964415521224665,-0.001943403457973988,0.044958476383556156
3331,11.0,299.95249,-3709.9,0.0,0.0,0.03331047454914948,0.0,0.0,0.0,0.2869745577021838,0.2876009894440077,0.5531414166508074,-0.013444648390633489,0.015097279568735486,0.05907282432178385
3332,11.0,300.20052999999996,-3892.4836,0.0,0.0,0.03332047896952339,0.0,0.0,0.0,0.3036438188073117,0.29639668932207575,0.5831773210876204,-0.02165466437964898,-0.014850281618358685,0.038067918727761066
3333,11.0,300.46598,-3893.8657,0.0,0.0,0.03333048338989775,0.0,0.0,0.0,0.3046622364828217,0.3040085381808067,0.5749671784423425,-0.017585048704509183,0.0005333644465614725,0.05848748797751565
3334,11.0,299.96943999999996,-3616.3724,0.0,0.0,0.03334048781027188,0.0,0.0,0.0,0.26051229517556174,0.27248510153718575,0.5662895222009244,0.018625149932159184,0.01214681281454709,0.04161499929983066
3335,11.0,299.52263999999997,-3598.8029,0.0,0.0,0.033350459321368486,0.0,0.0,0.0,0.2628632481900827,0.2853021073521257,0.5457808639493774,0.030338427479419672,0.023821236273472976,0.05473049643522945
3336,11.0,299.4581,-3859.5033,0.0,0.0,0.03336046374174262,0.0,0.0,0.0,0.28582092180082874,0.3035762958206477,0.5837954340461234,0.003582004161941286,-0.023699522644960776,0.05950823815475585
3337,11.0,299.19414,-3844.4529,0.0,0.0,0.03337046816211697,0.0,0.0,0.0,0.3149162160373107,0.2850654526587697,0.5686360270475064,-0.004349009460363816,-0.004320776563552445,0.05491304559974565
3338,11.0,299.09647,-3590.7602,0.0,0.0,0.033380472582491105,0.0,0.0,0.0,0.25854918390181775,0.2947160519112097,0.5382362239697795,-0.01074755698295129,-0.0031022006526883667,0.08257386140465561
3339,11.0,299.6448,-3517.2249,0.0,0.0,0.03339047700286524,0.0,0.0,0.0,0.26412923326252574,0.27398517778023174,0.5310341435839895,-0.004931752897626115,0.005580485767526064,0.05725488645611734
3340,11.0,299.10925,-3711.7342,0.0,0.0,0.03340048142323937,0.0,0.0,0.0,0.2817934857008517,0.2842360365244127,0.5622449925717604,-0.008875002505094553,-0.0064750520594628845,0.05801591530147504
3341,11.0,300.08285,-3786.8578,0.0,0.0,0.0334104858436135,0.0,0.0,0.0,0.2986124545082547,0.2853664588659767,0.5671312999865015,-0.0011716885730866588,0.006277511454417145,0.033545506914183766
3342,11.0,300.07563999999996,-3809.3676,0.0,0.0,0.033420490263987856,0.0,0.0,0.0,0.30145090241088773,0.2803454499829417,0.5761562780971974,0.009053928084603133,0.012799596151721788,0.048518839651186654
3343,11.0,300.27374,-3804.0032,0.0,0.0,0.03343046177508424,0.0,0.0,0.0,0.3003676468614787,0.29194687991791374,0.5640074701932034,0.005190351548397815,0.011851892187440689,0.032463670928164864
3344,11.0,300.02845,-3699.8953,0.0,0.0,0.033440466195458374,0.0,0.0,0.0,0.26826337473053374,0.2915782291340307,0.5648341809497934,-0.007420056928127603,-0.004168593592608156,0.059722025819855036
3345,11.0,300.04408,-3863.3675,0.0,0.0,0.033450470615832506,0.0,0.0,0.0,0.2973089386521077,0.2947095367130667,0.5823487763483495,-0.024472551411252774,-0.0030458702292789873,0.056686529143774846
3346,11.0,299.26875,-3981.0457,0.0,0.0,0.03346047503620686,0.0,0.0,0.0,0.3168467411878387,0.3086259290190077,0.5846658260145244,-0.0028389235222299374,0.008527369466710842,0.05167575915300035
3347,11.0,299.86657,-3636.039,0.0,0.0,0.03347047945658099,0.0,0.0,0.0,0.27089153270741273,0.2754106382859137,0.5589628931128425,-0.003915831262412457,-0.0066196479149833835,0.057721487113917246
3348,11.0,299.84847,-3477.1191,0.0,0.0,0.033480483876955125,0.0,0.0,0.0,0.25822565314488777,0.27153702368361776,0.5271947059075665,0.003239004614939867,-0.03123055062271537,0.05130262980367536
3349,11.0,299.58423,-3767.5668,0.0,0.0,0.03349048829732926,0.0,0.0,0.0,0.3046427010208937,0.2850672967739517,0.5555362231296564,-0.002383715544579408,-0.016630249963027886,0.058444008402474545
3350,11.0,299.89856000000003,-3910.4989,0.0,0.0,0.033500459808425864,0.0,0.0,0.0,0.30682457299122773,0.29016078343663976,0.5917086741470995,0.022759612600448877,-0.0016184663099051886,0.05348479561653835
3351,11.0,300.06293999999997,-3829.4158,0.0,0.0,0.0335104642288,0.0,0.0,0.0,0.29532171202598373,0.3049051327967937,0.5638199479971965,0.00958869159650518,0.011237422876297289,0.06555600072187354
3352,11.0,300.33287,-3752.1623,0.0,0.0,0.03352046864917413,0.0,0.0,0.0,0.28109575154949074,0.28194881694118173,0.5775190893491965,0.006058842558286204,-0.0020244782594254483,0.04745793234598325
3353,11.0,300.14259,-3703.0774,0.0,0.0,0.03353047306954826,0.0,0.0,0.0,0.28021662536522773,0.27529254398675873,0.5701338842728335,-0.006318600569822324,0.0072651072777852625,0.04490149322443236
3354,11.0,300.10472999999996,-3758.8053,0.0,0.0,0.033540477489922615,0.0,0.0,0.0,0.27490193607320873,0.30008980355155773,0.5675912243393925,-0.007659615292295173,0.014157257053462486,0.05790241913127385
3355,11.0,299.96505,-3811.8051,0.0,0.0,0.03355048191029675,0.0,0.0,0.0,0.28346305842062575,0.2988469509788977,0.5763835703596295,-0.023596500441043274,-0.002022114752242188,0.05474268076768195
3356,11.0,299.83543,-3677.0547,0.0,0.0,0.03356048633067088,0.0,0.0,0.0,0.26925887268878174,0.29274074110626175,0.5557332090815975,-0.014729440398182587,-0.008400150039805264,0.06359321875441203
3357,11.0,299.99756,-3570.4479,0.0,0.0,0.03357049075104501,0.0,0.0,0.0,0.2725744499310037,0.27784027017069973,0.5349122975467334,-0.010887892121801291,0.0016224772604260384,0.06612669965519714
3358,11.0,299.9204,-3689.3247,0.0,0.0,0.0335804622621414,0.0,0.0,0.0,0.2974261919536797,0.26685848320188177,0.5571779010741775,0.018241628689808585,0.007548371070441223,0.05823124918622685
3359,11.0,299.72146000000004,-3793.4165,0.0,0.0,0.03359046668251575,0.0,0.0,0.0,0.30659971252903573,0.28079209062702176,0.5657121013664375,0.0029117369916410673,-0.007815300562210113,0.04524073239766266
3360,11.0,300.07189,-3776.8309999999997,0.0,0.0,0.033600471102889884,0.0,0.0,0.0,0.29533206744200574,0.27663197955895075,0.5760982695289724,0.016757173723554286,-0.02308561366112268,0.04620834267340836
3361,11.0,300.54361,-3746.7013,0.0,0.0,0.03361047552326424,0.0,0.0,0.0,0.2838681558106057,0.2851787846824547,0.5698566793104755,0.0058533802626336544,-0.013101715920788687,0.054768289650709345
3362,11.0,300.24773,-3773.6465,0.0,0.0,0.03362047994363837,0.0,0.0,0.0,0.2873587517426007,0.2883078023162647,0.5714277539880285,0.009488629501429821,0.001021984417187009,0.05217464195898625
3363,11.0,300.34671000000003,-3809.5374,0.0,0.0,0.03363048436401228,0.0,0.0,0.0,0.29700226837684174,0.28512295460194476,0.5758790224723345,-0.004048021491658616,0.0004666549680052596,0.05515639584976245
3364,11.0,300.50485,-3798.1146,0.0,0.0,0.033640488784386635,0.0,0.0,0.0,0.29215095862055473,0.2962843705484907,0.5660966601768904,-0.013933556762634986,-0.0026893980023229174,0.04580881815897836
3365,11.0,300.58305,-3759.8789,0.0,0.0,0.03365049320476077,0.0,0.0,0.0,0.2930942032711457,0.28126435636613073,0.5685507519190904,-0.005626250728167714,0.016869793432418984,0.04715250228883965
3366,11.0,300.15274,-3663.1342,0.0,0.0,0.033660464715857374,0.0,0.0,0.0,0.27671978781261675,0.27761679786114474,0.5591647629302655,-0.007045236363060693,0.01700760963152038,0.04766727386964365
3367,11.0,299.90491000000003,-3668.4566,0.0,0.0,0.03367046913623151,0.0,0.0,0.0,0.26945253518039475,0.2921861285315257,0.5534805514592775,-0.00947789806829571,0.01123439528499849,0.06778263909487564
3368,11.0,299.78649,-3834.577,0.0,0.0,0.03368047355660586,0.0,0.0,0.0,0.2912990685989797,0.29516372607039176,0.5791528436779354,-0.011283329185327888,-0.01084121067644419,0.051807261790728656
3369,11.0,300.06751,-3830.6699,0.0,0.0,0.03369047797697999,0.0,0.0,0.0,0.2973444328031107,0.29604501047736775,0.5710385544921175,-0.001982941692776108,-0.00048534487272480954,0.05789800338733805
3370,11.0,299.78145,-3672.0394,0.0,0.0,0.033700482397354126,0.0,0.0,0.0,0.28247373115548674,0.28621173236439873,0.5475228232562955,0.01888758474780948,0.0018041048739762884,0.05674944690873435
3371,11.0,299.32723,-3748.815,0.0,0.0,0.033710486817728036,0.0,0.0,0.0,0.29223042782589775,0.28846011407129674,0.5588556000597535,0.017552645979561285,-0.01930882929138308,0.05381366620149535
3372,11.0,299.40527000000003,-3846.0370000000003,0.0,0.0,0.03372049123810217,0.0,0.0,0.0,0.2960203783674367,0.3017594775963417,0.5713193564923305,0.010502921931807688,-0.012675278470452588,0.06289856690985524
3373,11.0,300.08768,-3820.8426,0.0,0.0,0.03373049565847652,0.0,0.0,0.0,0.2930050372623457,0.2988419657884057,0.5695937510420265,0.007639105387746002,-0.007190040238826723,0.07072626438438884
3374,11.0,299.95234,-3853.7881,0.0,0.0,0.03374046716957313,0.0,0.0,0.0,0.2952143784428907,0.29478742524825374,0.5814535597524985,0.011120703557527988,0.011994228495238188,0.05210555451416785
3375,11.0,299.72102,-3719.8023,0.0,0.0,0.03375047158994726,0.0,0.0,0.0,0.29533545169733977,0.2742304552319388,0.5611611189397904,-0.011707759387215888,0.0013412141300925288,0.04235408216127246
3376,11.0,299.94835,-3550.6094,0.0,0.0,0.033760476010321394,0.0,0.0,0.0,0.2680006795096077,0.26357257392258776,0.5477233454510855,-0.0058476438485175145,-0.006143746837165604,0.04443665156880605
3377,11.0,299.96177,-3676.5636,0.0,0.0,0.03377048043069575,0.0,0.0,0.0,0.28665387417803473,0.2761016343241097,0.5548280221047625,-0.012832235977193088,0.003348568057527937,0.045457282182534454
3378,11.0,300.18209,-3885.2234,0.0,0.0,0.03378048485106966,0.0,0.0,0.0,0.3114208375648437,0.2917100023095357,0.5778800596973215,-0.008873730470919012,0.010705744204324689,0.04652201248036516
3379,11.0,300.22647,-3755.3728,0.0,0.0,0.03379048927144379,0.0,0.0,0.0,0.2873225483165277,0.29373442534683075,0.5604825960103255,-0.0013980140935982487,-0.000986681740055406,0.06286185381898193
3380,11.0,299.57712999999995,-3668.1706,0.0,0.0,0.03380049369181792,0.0,0.0,0.0,0.27774666612646176,0.2857350893848577,0.5515505228012985,-0.01043016145537679,-0.007180152235075852,0.04875366441486205
3381,11.0,300.2191,-3784.8981,0.0,0.0,0.03381046520291475,0.0,0.0,0.0,0.29115682854994174,0.28084500254724376,0.5785126925297575,0.015129173642133186,-0.007026505219062072,0.043754756543008255
3382,11.0,300.09038,-3949.2473,0.0,0.0,0.033820469623288885,0.0,0.0,0.0,0.3187419647048827,0.30204275192679875,0.5796878701282385,0.013702625919093886,-0.006154952268696494,0.04744946664139776
3383,11.0,300.5612,-3815.4549,0.0,0.0,0.03383047404366302,0.0,0.0,0.0,0.29585403309851976,0.2901925893572787,0.5737564155003494,0.024692830969742677,-0.023796952721576378,0.06152070078787045
3384,11.0,300.00737999999996,-3702.7851,0.0,0.0,0.03384047846403715,0.0,0.0,0.0,0.28435340128349573,0.27974119828580674,0.5614596021542485,0.008051804483951232,-0.02635603135963777,0.06491565908267674
3385,11.0,299.67692,-3708.0139,0.0,0.0,0.03385048288441128,0.0,0.0,0.0,0.26742007706980675,0.30100254937413873,0.5587210100489705,0.006717264834917425,-0.007364487252893303,0.06696813192249003
3386,11.0,299.87854,-3743.8677,0.0,0.0,0.033860487304785414,0.0,0.0,0.0,0.28343601477545677,0.2877707088357577,0.5668355829448165,-0.0011061750640209789,0.015706721132882684,0.05746720389532144
3387,11.0,300.10934,-3876.0873,0.0,0.0,0.033870491725159546,0.0,0.0,0.0,0.2799650049678947,0.3130893362395117,0.5851794323577134,-0.012197869473835988,0.0061614850973912335,0.049850164156328154
3388,11.0,299.28994,-3779.8678,0.0,0.0,0.03388049614553368,0.0,0.0,0.0,0.28644952189786677,0.2888892660186507,0.5736466501170164,-0.00958378695939613,0.005118868881668025,0.03880948405194786
3389,11.0,299.81902,-3661.8155,0.0,0.0,0.033890467656630285,0.0,0.0,0.0,0.26843098656207576,0.2871050237850597,0.5575644661198285,0.0046040136064057656,0.002732834007609717,0.049828295179419856
3390,11.0,299.64068,-3916.0564,0.0,0.0,0.03390047207700464,0.0,0.0,0.0,0.3148062885339617,0.3071682471601457,0.5684088057125815,0.0008081668510773581,0.012908875175006789,0.05195384260319505
3391,11.0,299.22514,-4152.234,0.0,0.0,0.03391047649737877,0.0,0.0,0.0,0.34206219946641064,0.3136977017320527,0.6064155433860544,0.0026447930103957475,-0.012514089631294488,0.059002610142854246
3392,11.0,300.28643,-3927.3801,0.0,0.0,0.033920480917752904,0.0,0.0,0.0,0.31734260552177673,0.2983026634226807,0.5781802147744444,0.001955093628352718,-0.004352448329878206,0.049682511794782155
3393,11.0,300.65645,-3662.6705,0.0,0.0,0.03393048533812704,0.0,0.0,0.0,0.2786468375153017,0.2698156232212287,0.5648979143810835,0.017696306605239485,0.005260306841926865,0.048419716433653955
3394,11.0,300.1269,-3759.8698,0.0,0.0,0.03394048975850095,0.0,0.0,0.0,0.28506995148921377,0.27362172496936177,0.5842148486600164,0.017413256203054586,0.0033930684820447864,0.03727094990135637
3395,11.0,300.2535,-3759.3971,0.0,0.0,0.0339504941788753,0.0,0.0,0.0,0.27511143566388474,0.2938851868292097,0.5737662338938185,0.013468289541966688,0.003434529865536707,0.057526673570190645
3396,11.0,300.03191,-3741.2487,0.0,0.0,0.033960498599249433,0.0,0.0,0.0,0.27723945339140377,0.2862056325987967,0.5738010998297595,0.0032535661334519767,-0.016765444884120583,0.059069027673659145
3397,11.0,300.05482,-3776.1835,0.0,0.0,0.03397047011034604,0.0,0.0,0.0,0.29133703508022674,0.2899591567992407,0.5665693008185364,0.0009423836818485282,-0.007982364529423044,0.05576413515374165
3398,11.0,300.2307,-3732.1575,0.0,0.0,0.03398047453072017,0.0,0.0,0.0,0.28894888565453475,0.2840994402784317,0.5614343722267585,-0.023426544962019978,0.01050349644461439,0.05086164005540305
3399,11.0,299.90157,-3861.9076,0.0,0.0,0.03399047895109453,0.0,0.0,0.0,0.3059448996519107,0.29634904630237374,0.5716295427454434,-0.01031859653986619,0.008948381570711502,0.05781596356649135
3400,11.0,299.48644,-4049.8278,0.0,0.0,0.03400048337146866,0.0,0.0,0.0,0.3155039821553187,0.3200640129053587,0.5954785218066544,-0.022923949607667683,0.007296874998895493,0.04675337902144925
3401,11.0,299.73779,-3913.4187,0.0,0.0,0.03401048779184279,0.0,0.0,0.0,0.3075348005163217,0.3047471873712057,0.5772995687150314,-0.0035080474424423265,0.007279052030961503,0.05127711008665675
3402,11.0,299.63658,-3675.7958,0.0,0.0,0.034020492212216924,0.0,0.0,0.0,0.28198396658715075,0.27386490499336175,0.5615012568658594,0.0035124408948759268,-0.0037595636776650465,0.05158186329273355
3403,11.0,300.00757999999996,-3702.8626,0.0,0.0,0.034030496632591056,0.0,0.0,0.0,0.28147570007198874,0.28919546006636976,0.5549065996500174,-0.007168105400661924,-0.011809229291980188,0.07040315919250084
3404,11.0,299.77412999999996,-3807.1144,0.0,0.0,0.03404046814368766,0.0,0.0,0.0,0.2943653153890947,0.28328904284845174,0.5796133455833834,0.016795606299847284,-0.010612359022108291,0.050675395567772154
3405,11.0,300.05778,-3745.4509,0.0,0.0,0.034050472564061796,0.0,0.0,0.0,0.27557927350005673,0.2876999941112787,0.5752442922121914,0.023527275194211276,0.01023154214427459,0.06786272131652914
3406,11.0,300.52045,-3770.6033,0.0,0.0,0.03406047698443593,0.0,0.0,0.0,0.26914722266026275,0.2894991716513437,0.5875228467914904,0.015648335635620486,0.00994660760352874,0.053933916696863156
3407,11.0,300.01201000000003,-3818.0099,0.0,0.0,0.03407048140481006,0.0,0.0,0.0,0.28707792947738575,0.29245751743830967,0.5810442067120984,0.0034603699722369264,-0.012709288210059089,0.05959942863725564
3408,11.0,299.74465,-3764.3079,0.0,0.0,0.034080485825184414,0.0,0.0,0.0,0.28388135845940876,0.2987292011847767,0.5616450471875505,-0.017603209186051485,-0.006260810255668864,0.05124401429864045
3409,11.0,299.82441,-3838.7754,0.0,0.0,0.03409049024555855,0.0,0.0,0.0,0.3053252262882537,0.2900003352833047,0.5715663159392035,-0.007779544486056262,-0.001115329879999489,0.05620174672618054
3410,11.0,299.06262000000004,-4001.1499,0.0,0.0,0.03410049466593268,0.0,0.0,0.0,0.33781869791510966,0.2969169425859207,0.5815140102534644,-0.014142468668252986,0.005239116337285525,0.03232469253119877
3411,11.0,298.93741,-3817.5672,0.0,0.0,0.03411049908630681,0.0,0.0,0.0,0.31023992497079667,0.28403053927163174,0.5661746196395845,-0.009074222470856031,0.0004280178570470736,0.05382425669154054
3412,11.0,299.87678,-3709.7591,0.0,0.0,0.03412047059740342,0.0,0.0,0.0,0.27980042275415173,0.27848951017227475,0.5693842109213464,-0.00960063791650919,-0.0007509182204273583,0.03413887022574417
3413,11.0,299.71776,-3860.4615,0.0,0.0,0.03413047501777755,0.0,0.0,0.0,0.2877192154656757,0.3014284690536737,0.5843362056244935,0.010906747692912189,0.014172518626468686,0.04526975289377676
3414,11.0,300.15993,-3926.1223,0.0,0.0,0.03414047943815168,0.0,0.0,0.0,0.3030578866719847,0.3035710877151337,0.5868141594065485,0.007337562563286043,-0.0073495284390169835,0.057814009007048445
3415,11.0,300.1311,-3841.7315,0.0,0.0,0.034150483858525815,0.0,0.0,0.0,0.2935961572381847,0.3017090278738627,0.5724852527198955,0.017107706582399185,-0.013303391194192488,0.07246973748695623
3416,11.0,299.86197999999996,-3752.592,0.0,0.0,0.03416048827890017,0.0,0.0,0.0,0.2869325483530377,0.2964286978927347,0.5573330195319864,0.0036172561461703867,-0.013750795828847888,0.07659481441956963
3417,11.0,300.13772,-3723.4096,0.0,0.0,0.0341704926992743,0.0,0.0,0.0,0.2756882992108168,0.29618723026140376,0.5599480153900664,0.017461631802578884,0.006686111548667834,0.06920871261686813
3418,11.0,300.22348,-3764.7009999999996,0.0,0.0,0.034180497119648434,0.0,0.0,0.0,0.28373608879257173,0.29766846005258973,0.5629705708358694,-0.01892153369240998,0.010915977388073091,0.06328573585256585
3419,11.0,299.34529,-3895.1036,0.0,0.0,0.034190501540022566,0.0,0.0,0.0,0.2985877109408127,0.3109959615329117,0.5744305611893824,-0.01956254610317298,-0.0008856658523959142,0.05462074118439745
3420,11.0,299.35191000000003,-3879.296,0.0,0.0,0.03420047305111895,0.0,0.0,0.0,0.31201643610612473,0.2924922921817417,0.5747003896910124,-0.030605078428736072,-0.006736692487034784,0.034564027941203966
3421,11.0,299.8882,-3765.562,0.0,0.0,0.034210477471493306,0.0,0.0,0.0,0.2878985506008747,0.29135141309914575,0.5653868784818405,-0.013503938720234988,0.014200898748519587,0.047572446832534955
3422,11.0,299.74806,-3934.8579,0.0,0.0,0.03422048189186744,0.0,0.0,0.0,0.3223290423113997,0.29671186076568073,0.5770576451211554,-0.002182047870551358,-0.006674101697882554,0.045615893313438155
3423,11.0,299.25796,-4212.7933,0.0,0.0,0.03423048631224179,0.0,0.0,0.0,0.3332885377780177,0.3184621556897677,0.6288332864160133,0.004693912499003095,-0.01004420081341044,0.05482322908438144
3424,11.0,299.08567,-4039.2182,0.0,0.0,0.034240490732615925,0.0,0.0,0.0,0.3164916679552957,0.30705047710102273,0.6042793284652265,0.007642405340671682,-0.014264322125278985,0.05663580989676924
3425,11.0,300.32631000000003,-3767.1596,0.0,0.0,0.034250495152989835,0.0,0.0,0.0,0.2586595673677118,0.30427388811699474,0.5821890172050825,0.025360717812907975,0.003437835188687917,0.05751842976737704
3426,11.0,299.88566000000003,-3816.2279,0.0,0.0,0.03426049957336419,0.0,0.0,0.0,0.29417909015321575,0.28478635291872473,0.5810725473173954,0.016033454773378787,-0.006448194852312284,0.045598745068745755
3427,11.0,299.85674,-3804.3157,0.0,0.0,0.034270471084460574,0.0,0.0,0.0,0.30093507704997974,0.29263240440556976,0.5628495178464225,0.01963152107723028,-0.0021699576690331476,0.05021336365467315
3428,11.0,299.65608,-3762.4704,0.0,0.0,0.03428047550483493,0.0,0.0,0.0,0.3055020181657017,0.27910904168091777,0.5590860131324934,0.004377759216051196,-0.0026266980861349176,0.04928994020253835
3429,11.0,300.26871,-3833.7526,0.0,0.0,0.03429047992520906,0.0,0.0,0.0,0.2907458239118787,0.3028387612053587,0.5717804663478385,0.006468862519902024,0.011322276492671689,0.05514523692641115
3430,11.0,300.20129,-3885.7812,0.0,0.0,0.034300484345583415,0.0,0.0,0.0,0.2990549306944237,0.3000271542978747,0.5820983718511364,0.0018374846759956181,0.0016799445504476183,0.04264682734041416
3431,11.0,300.25054,-3966.3735,0.0,0.0,0.03431048876595755,0.0,0.0,0.0,0.29609963479025875,0.3182801253093027,0.5912987435541425,-0.015098915967646986,0.000880101001786706,0.05722388606930785
3432,11.0,299.63492,-4125.7903,0.0,0.0,0.03432049318633168,0.0,0.0,0.0,0.3298724258608737,0.3193600573983837,0.6049047570894515,-0.0012102133551387588,-0.0026098363885707974,0.04145109697690476
3433,11.0,299.9077,-3929.3525,0.0,0.0,0.03433049760670559,0.0,0.0,0.0,0.30378295831104374,0.30174809879771874,0.5888939970918124,-0.005330916897670535,0.02076355144670298,0.05106256552373285
3434,11.0,299.84083,-3700.0796,0.0,0.0,0.03434050202707972,0.0,0.0,0.0,0.27165303068756674,0.2924393599965177,0.5606394268608035,0.008860172171330912,0.005849425851468385,0.05747602423744194
3435,11.0,299.33894,-3705.9969,0.0,0.0,0.03435047353817655,0.0,0.0,0.0,0.26562598604524373,0.29821668915169575,0.5626878335279655,-0.0006079815112831035,-0.0034236751198654268,0.06983637039131313
3436,11.0,299.23103,-3752.3543,0.0,0.0,0.034360477958550684,0.0,0.0,0.0,0.2801602481296637,0.28517508631958977,0.5752866865963755,0.02046267290900858,-0.015012366170605185,0.04969289254205665
3437,11.0,299.51295,-3773.1419,0.0,0.0,0.034370482378924816,0.0,0.0,0.0,0.27499732343762273,0.3031013247037717,0.5688422842378624,0.012151300499239988,-0.01050290571980609,0.06314915683183654
3438,11.0,300.31723999999997,-3762.4632,0.0,0.0,0.03438048679929895,0.0,0.0,0.0,0.2851029125149667,0.2991592143947157,0.5594327574492145,0.012298434546260988,-0.006958497594875244,0.04823866890578595
3439,11.0,300.20272,-3904.7192,0.0,0.0,0.0343904912196733,0.0,0.0,0.0,0.3160968347888287,0.2996831761539267,0.5711571148863185,-0.015419152648501884,-0.0077517347224866535,0.046553701877242656
3440,11.0,300.10183,-4040.3495,0.0,0.0,0.03440049564004721,0.0,0.0,0.0,0.3212364547285697,0.3183790083865617,0.5885498872253515,0.003717782917741606,-0.004872290214182605,0.04049196760449606
3441,11.0,300.23751,-4037.1145,0.0,0.0,0.034410500060421345,0.0,0.0,0.0,0.3122218016363927,0.3235128933307367,0.5914473062838045,-0.014405528659214987,0.01067726985001449,0.05144814062403615
3442,11.0,300.16617,-3980.7814,0.0,0.0,0.03442050448079548,0.0,0.0,0.0,0.3016132656069117,0.3116877580386867,0.5967571319753434,-0.00895176410352033,0.005543632240188905,0.04357788664530255
3443,11.0,300.23697000000004,-3850.1769,0.0,0.0,0.034430475991892306,0.0,0.0,0.0,0.29244321034689774,0.29530036284637673,0.5826140553570304,-0.015648380218624885,0.006622692022258812,0.05465744110301945
3444,11.0,300.42649,-3709.4359999999997,0.0,0.0,0.03444048041226644,0.0,0.0,0.0,0.2922854270413257,0.2772757277449837,0.5580147645967695,-0.005231647569473415,0.007005540466543014,0.05563873126836525
3445,11.0,300.01482999999996,-3718.9978,0.0,0.0,0.03445048483264057,0.0,0.0,0.0,0.2935974136683087,0.27099981874559975,0.5658852354110244,0.015323795681590884,0.00975008997578396,0.06061177593141654
3446,11.0,299.63625,-3827.4377,0.0,0.0,0.0344604892530147,0.0,0.0,0.0,0.27844773387065175,0.3008460934261977,0.5841516725162814,0.012341051845466989,0.0008092340162151792,0.05360959864460545
3447,11.0,299.37811,-3799.4465,0.0,0.0,0.034470493673388836,0.0,0.0,0.0,0.2729823438912597,0.2976882792245457,0.5842662407050885,0.010082478666413172,-0.0028460696712102078,0.06886500197094653
3448,11.0,299.94397999999995,-3942.6667,0.0,0.0,0.03448049809376297,0.0,0.0,0.0,0.3013720107581017,0.3175941549916027,0.5795060626627955,0.017147281091554886,-0.028877466743234076,0.058646515554210445
3449,11.0,299.46283,-4003.5835,0.0,0.0,0.0344905025141371,0.0,0.0,0.0,0.31257405803365773,0.30763999614170373,0.5967753704771435,0.00930827868433058,-0.0028017025904065176,0.05020930153502225
3450,11.0,299.36716,-3920.4252,0.0,0.0,0.03450050693451123,0.0,0.0,0.0,0.3092879967668487,0.3176112181232867,0.5648121427601185,-0.0014386784545615088,-0.0037420706239636166,0.05109899085157775
3451,11.0,299.97812999999996,-3905.9387,0.0,0.0,0.03451047844560784,0.0,0.0,0.0,0.3003888643185727,0.30430901749796174,0.5826099516941254,-0.012800719846082687,0.010728708504591091,0.052170264718554245
3452,11.0,300.25665,-3911.885,0.0,0.0,0.034520482865982194,0.0,0.0,0.0,0.3014613186219157,0.30255191010204874,0.5851021315075844,-0.023427490324363275,0.01990549377176928,0.05578160763846605
3453,11.0,300.23773,-3770.3022,0.0,0.0,0.034530487286356326,0.0,0.0,0.0,0.27560499992009574,0.2949353091003487,0.5755374153336205,-0.005324908425902546,0.01998358090397588,0.05929205516642024
3454,11.0,300.4988,-3633.7539,0.0,0.0,0.03454049170673046,0.0,0.0,0.0,0.2646641786528207,0.27298520125654174,0.5669210607232525,-0.008026466544000571,0.002489158504310818,0.07085963140230113
3455,11.0,299.74546000000004,-3762.9359999999997,0.0,0.0,0.03455049612710459,0.0,0.0,0.0,0.27354204298149776,0.28991934620281173,0.5803772044362704,-0.014043071873193287,-0.002059082270215598,0.05431417730039195
3456,11.0,299.8687,-3793.3383,0.0,0.0,0.0345605005474785,0.0,0.0,0.0,0.3006088307827817,0.28010076021629277,0.5723705224110724,-0.012938197619650687,-0.008586533038724831,0.06623329457896723
3457,11.0,299.9957,-3841.4071,0.0,0.0,0.034570504967852855,0.0,0.0,0.0,0.29701994959108674,0.2977967071177467,0.5728751918883795,0.0015637010539252785,-0.0011544332278586888,0.05170795517492786
3458,11.0,299.91454,-3931.3396,0.0,0.0,0.03458047647894946,0.0,0.0,0.0,0.2911612767178807,0.3097449725619487,0.5941228337028585,0.01983505667781768,-0.008434254112996071,0.056151452030966845
3459,11.0,300.14055,-4022.3292,0.0,0.0,0.034590480899323595,0.0,0.0,0.0,0.3072443726401587,0.3095520294779067,0.6058912472543104,0.010886008489865389,-0.012533350502445388,0.038395349484325964
3460,11.0,300.33653,-3921.9091,0.0,0.0,0.03460048531969773,0.0,0.0,0.0,0.2987493243317627,0.3031224408358557,0.5902906812946545,0.009266807674962711,-0.016443865646883184,0.04939103419151555
3461,11.0,299.75342,-3860.2039,0.0,0.0,0.03461048974007208,0.0,0.0,0.0,0.2985352245856327,0.28688276737562474,0.5879876043473584,0.006014691502403834,-0.0035878300460412565,0.028751511649803267
3462,11.0,299.7299,-3818.4549,0.0,0.0,0.034620494160446214,0.0,0.0,0.0,0.3128847002493157,0.2828140312015717,0.5650162113302585,-0.0017972235885721584,0.0023957034078375176,0.04456357836908276
3463,11.0,299.56132,-3824.9105,0.0,0.0,0.034630498580820124,0.0,0.0,0.0,0.2962270611228347,0.28033764795717175,0.5861125749048075,-0.01012989927771822,0.007071878862515103,0.051626596258148354
3464,11.0,299.56532999999996,-3839.27,0.0,0.0,0.03464050300119448,0.0,0.0,0.0,0.2958785030884347,0.2907556220403457,0.5804080882993184,-0.018606286255047483,0.018288526970687086,0.08131741000240351
3465,11.0,299.79805,-3819.4034,0.0,0.0,0.03465050742156861,0.0,0.0,0.0,0.28843625203144174,0.28559563577359476,0.5869713854245655,-0.022188376644572277,0.018673172920648684,0.06054966167378635
3466,11.0,299.48089,-3819.5162,0.0,0.0,0.03466047893266522,0.0,0.0,0.0,0.2856078150397967,0.3049617329473797,0.5704680034933084,-0.0016515075850661084,0.009182420660259361,0.07527522639033643
3467,11.0,300.18197000000004,-3918.1273,0.0,0.0,0.03467048335303935,0.0,0.0,0.0,0.29256163901858573,0.3032522381736657,0.5951989863690664,-0.012203749364166289,-0.00935796238973398,0.059641884829695735
3468,11.0,300.77024,-4036.357,0.0,0.0,0.03468048777341348,0.0,0.0,0.0,0.3279065990768617,0.3156845737206417,0.5833605673682054,0.023586325383539077,-0.004914020514251065,0.05782206231884324
3469,11.0,300.45096,-4016.9298,0.0,0.0,0.034690492193787614,0.0,0.0,0.0,0.2971518038265997,0.3311086923078837,0.5927858704609104,0.013312398987581487,-0.005728549167538785,0.05508668626938265
3470,11.0,299.82167000000004,-3830.4119,0.0,0.0,0.03470049661416197,0.0,0.0,0.0,0.2916856741746347,0.3047962084110437,0.5678676794966765,0.029116138817539175,-0.001260137403465879,0.05641560835853704
3471,11.0,300.04939,-3856.6225,0.0,0.0,0.0347105010345361,0.0,0.0,0.0,0.2953311960469197,0.3031576816743337,0.5738280725474214,0.0047087954204469255,-0.015028936862740585,0.04639922379349686
3472,11.0,299.53206,-3922.4918,0.0,0.0,0.03472050545491023,0.0,0.0,0.0,0.3110864751643447,0.29569052492988274,0.5855625726180265,-0.0023876072355634875,-0.0006309766751475494,0.05320085051451515
3473,11.0,299.80805,-3832.7744,0.0,0.0,0.034730509875284366,0.0,0.0,0.0,0.2934600676172537,0.28889238682895874,0.5827152587770185,-0.005541967267624584,0.004383213642664506,0.052006387726880855
3474,11.0,299.71934,-3884.1473,0.0,0.0,0.03474048138638097,0.0,0.0,0.0,0.29507689053682173,0.2943603605961057,0.5912465611739924,-0.00842419649117846,0.01136197664483979,0.05468475832571545
3475,11.0,299.60803,-3964.3118,0.0,0.0,0.034750485806755105,0.0,0.0,0.0,0.3038181282220147,0.3015470497128767,0.5996866305319624,-0.009431785360219741,-0.003033459739404167,0.06084122742981165
3476,11.0,300.47402999999997,-3945.3142,0.0,0.0,0.03476049022712924,0.0,0.0,0.0,0.30321336989982967,0.30632150444907874,0.5897421178230154,-0.008792627906414812,0.002324435550128928,0.07145172815123653
3477,11.0,300.17638,-3967.2224,0.0,0.0,0.03477049464750337,0.0,0.0,0.0,0.3184697246680147,0.3006154574384357,0.5868513558177194,0.002010535431424398,0.0066275775089409735,0.05307330664492754
3478,11.0,299.43352999999996,-3854.7705,0.0,0.0,0.034780499067877724,0.0,0.0,0.0,0.30120734748435074,0.2952978094561247,0.5752488214401384,0.0018948591523080384,0.003536441952644647,0.04942324743869475
3479,11.0,299.69061,-3657.4406,0.0,0.0,0.034790503488251856,0.0,0.0,0.0,0.2928609632306267,0.26818818144061274,0.5507214815694785,0.01007000697623231,-0.010819858457086889,0.030216285246115172
3480,11.0,300.49403,-3851.2090000000003,0.0,0.0,0.03480050790862599,0.0,0.0,0.0,0.30088468812250674,0.30451733158602073,0.5652693617352424,0.014922160567202587,-0.00965819173808931,0.048788361138036355
3481,11.0,300.74331,-4025.5348,0.0,0.0,0.03481047941972237,0.0,0.0,0.0,0.3151077912337177,0.3024247370819977,0.6061295434128284,0.013897774848603587,-0.019110009356761083,0.047327308196091655
3482,11.0,301.05683,-3904.6545,0.0,0.0,0.034820483840096506,0.0,0.0,0.0,0.2940629716917557,0.3116771898401437,0.5811773173777355,0.0020761634377513783,-0.011810856571640788,0.07149221661198243
3483,11.0,300.15518,-3868.9487,0.0,0.0,0.03483048826047086,0.0,0.0,0.0,0.2907225596895827,0.2877236129711097,0.5976176244902673,-0.009437835172591811,-0.014281287984953385,0.05574045245915435
3484,11.0,300.2325,-3957.6182,0.0,0.0,0.03484049268084499,0.0,0.0,0.0,0.3012248564460787,0.3055057671910717,0.5962864975688955,-0.010818254482178592,0.019887004997194584,0.07439652273136513
3485,11.0,300.23353,-3928.3283,0.0,0.0,0.034850497101219347,0.0,0.0,0.0,0.2867662841441287,0.3070788683688247,0.6002685603293945,-0.008134429558055692,0.016761028126934682,0.05411185456017425
3486,11.0,300.42623,-3797.5281,0.0,0.0,0.03486050152159348,0.0,0.0,0.0,0.27370200477478474,0.2966906838385907,0.5839610295099664,0.0004038194384238757,0.02835128292655377,0.06580157606910993
3487,11.0,299.43859,-3843.4373,0.0,0.0,0.03487050594196739,0.0,0.0,0.0,0.27956352488077174,0.2940895796393817,0.5946558741829654,-0.0014060692292432288,0.004375646893567725,0.04483662393978025
3488,11.0,299.27038,-3844.8397,0.0,0.0,0.03488051036234174,0.0,0.0,0.0,0.29813050209818975,0.30105620096693375,0.5695485600875665,0.002465255225176748,-0.005947230729295974,0.05939887807146285
3489,11.0,299.43945,-3874.8863,0.0,0.0,0.03489048187343813,0.0,0.0,0.0,0.29072185041451276,0.3081141161284957,0.5790327228785805,0.008411982470498033,-0.019095382078317482,0.04282846964609086
3490,11.0,300.24759,-3961.0159999999996,0.0,0.0,0.03490048629381248,0.0,0.0,0.0,0.3250988830497617,0.2989010889317407,0.5800499854489765,-0.007206377883439124,-0.009191449630575452,0.05878628327300444
3491,11.0,300.2393,-4069.1065,0.0,0.0,0.034910490714186615,0.0,0.0,0.0,0.3291139574985187,0.2975267164961007,0.6102660964160744,0.012392805620824688,-0.007165585852963264,0.02709375747919568
3492,11.0,300.11253,-3938.9048,0.0,0.0,0.03492049513456097,0.0,0.0,0.0,0.31765581126018766,0.30414659350693174,0.5755262999800235,-0.013327399142061885,0.008675605727190621,0.06306553836733404
3493,11.0,299.55615,-3878.7535,0.0,0.0,0.0349304995549351,0.0,0.0,0.0,0.28306028137337474,0.30268196075238374,0.5933019693993454,0.0020402059274776483,0.005078494715533405,0.053235356746670646
3494,11.0,300.11489,-3903.5398,0.0,0.0,0.03494050397530901,0.0,0.0,0.0,0.3047716269636177,0.30382128956232674,0.5779857011527475,-0.0029989540138737167,-0.006471271825989805,0.06794767929766383
3495,11.0,299.59691000000004,-3832.3899,0.0,0.0,0.034950508395683144,0.0,0.0,0.0,0.28601228421471475,0.2847479406074337,0.5941906201345484,0.008718390313988132,-0.016671408182089884,0.045211383608516155
3496,11.0,300.00749,-3738.638,0.0,0.0,0.034960512816057276,0.0,0.0,0.0,0.3008723467362887,0.2705416675803837,0.5650385838924664,-0.003690965227344906,-0.00845025839832557,0.06925672749935684
3497,11.0,299.09662000000003,-3893.5055,0.0,0.0,0.034970484327154105,0.0,0.0,0.0,0.2968339574027307,0.2981760172926817,0.5885184764722514,-0.005965068389356415,-0.011444397447724089,0.03258732391736847
3498,11.0,299.53438,-3804.4795,0.0,0.0,0.03498048874752824,0.0,0.0,0.0,0.28657141588489676,0.2973072769219437,0.5725880672075424,-0.006928161697481323,0.014323899204658787,0.06534903830944794
3499,11.0,300.05012999999997,-3874.6517,0.0,0.0,0.03499049316790237,0.0,0.0,0.0,0.28192299932863374,0.31184345404905267,0.5840309032368625,-0.005381181499356265,0.01085632938118629,0.04733887039298275
3500,11.0,300.31529,-4059.6164,0.0,0.0,0.0350004975882765,0.0,0.0,0.0,0.3256093179201377,0.3295818459971957,0.5788308631936584,-0.005775049747753035,0.017232919976756782,0.06527864073225025
3501,11.0,299.89465,-3997.5109,0.0,0.0,0.03501050200865086,0.0,0.0,0.0,0.3114513465253547,0.3176617387732727,0.5860304104541985,-0.006866192030640394,-0.011677777316756888,0.05462355700642535
3502,11.0,300.19387,-3844.8172,0.0,0.0,0.03502050642902477,0.0,0.0,0.0,0.30004356894949474,0.3005100895605367,0.5681747449394814,0.008043341413815993,-0.0005765723793832634,0.07147223329351024
3503,11.0,299.73557,-3966.1364,0.0,0.0,0.0350305108493989,0.0,0.0,0.0,0.29967614419823274,0.3168881628519267,0.5890421139914305,0.008961251974806711,-0.0007517685804412823,0.05854722920341165
3504,11.0,300.06067,-4053.0609999999997,0.0,0.0,0.03504048236049573,0.0,0.0,0.0,0.3153650959641117,0.3036455818624857,0.6130186409752294,0.00934408846273973,0.014016908742361186,0.06873693627755743
3505,11.0,300.05495,-3982.437,0.0,0.0,0.03505048678086986,0.0,0.0,0.0,0.2962370315038187,0.3040874298335927,0.6102369350781964,-0.01222574195758679,0.002314110024984878,0.06337514200163953
3506,11.0,299.80717000000004,-3884.0159,0.0,0.0,0.03506049120124399,0.0,0.0,0.0,0.2975692324702967,0.2979914436544657,0.5850831634657124,-0.008778862802481302,0.004236267958837096,0.046256731445183955
3507,11.0,299.45195,-3865.1189,0.0,0.0,0.035070495621618125,0.0,0.0,0.0,0.2863470012527487,0.2968123853081017,0.5917402470202154,-0.012457285817438388,-0.0012534723456330888,0.05501097014241004
3508,11.0,299.27475,-3953.7616,0.0,0.0,0.03508050004199226,0.0,0.0,0.0,0.3135157828090987,0.3041795646651857,0.5841494433660614,0.003140614585179527,-0.005343988837210635,0.041005673246194856
3509,11.0,299.31684,-4020.7329999999997,0.0,0.0,0.03509050446236639,0.0,0.0,0.0,0.3207337813539597,0.3060804826477917,0.5953881804277384,-0.0015453160361608186,-0.013053721303301987,0.06140094678505165
3510,11.0,299.8396,-4015.1248,0.0,0.0,0.03510050888274052,0.0,0.0,0.0,0.31945287110754367,0.3151248037028967,0.5859200168558034,0.003751965517815166,0.014475521949622787,0.03812372347701857
3511,11.0,299.85615,-3869.8889,0.0,0.0,0.035110513303114654,0.0,0.0,0.0,0.2946409802113007,0.29667741026228067,0.5850311938680834,0.002066094974157698,0.011362410315882589,0.06426441689890414
3512,11.0,299.75525,-3951.2394,0.0,0.0,0.03512048481421126,0.0,0.0,0.0,0.3051565809416097,0.30519248039265273,0.5907290639504194,-0.001163498979153409,0.0098310075208199,0.05303274320367425
3513,11.0,299.15092000000004,-4047.6542,0.0,0.0,0.035130489234585394,0.0,0.0,0.0,0.3178879265930957,0.29808086297579073,0.6144170071732374,-0.002377614259102258,-0.013733042673845787,0.056786453842136646
3514,11.0,299.91042999999996,-3970.7639,0.0,0.0,0.03514049365495975,0.0,0.0,0.0,0.3058285886729317,0.2917708277130387,0.6094136491069444,-0.0015034511764790784,-0.007419315533029432,0.04257033810361526
3515,11.0,300.17352999999997,-3815.9738,0.0,0.0,0.03515049807533388,0.0,0.0,0.0,0.2811374974536107,0.2995895721096887,0.5792337010359154,0.013465647998955988,-0.015625217321338886,0.054257202247268946
3516,11.0,300.57819,-3842.6164,0.0,0.0,0.03516050249570801,0.0,0.0,0.0,0.2822491645358237,0.2975108186020317,0.5882994624631364,0.0026010080417745076,-0.00028756054050001575,0.054835628225855144
3517,11.0,300.1169,-3969.5853,0.0,0.0,0.035170506916082145,0.0,0.0,0.0,0.3143478333937157,0.3141413330233357,0.5781656543705075,0.009007337730430023,-8.237320546085243e-05,0.05914653826655885
3518,11.0,300.18921,-3970.6108,0.0,0.0,0.035180511336456055,0.0,0.0,0.0,0.3038189084245917,0.3111015421933317,0.5920460762978984,-0.01108196497970479,0.02009247286572268,0.061468240777193046
3519,11.0,300.19432,-3965.6185,0.0,0.0,0.03519051575683041,0.0,0.0,0.0,0.29987631175548773,0.3081637957808987,0.5974089051021685,-0.004341001035548446,0.018068463234468483,0.05731725402627254
3520,11.0,300.13767,-3979.5490000000004,0.0,0.0,0.035200487267927016,0.0,0.0,0.0,0.2962364336862597,0.3168415128173227,0.5966055902903875,-0.012586830855973489,0.005656742767402045,0.05222273384848254
3521,11.0,299.28508999999997,-3915.8703,0.0,0.0,0.03521049168830115,0.0,0.0,0.0,0.2979337086637677,0.3008574519598187,0.5915356312950214,0.008217740095852803,-0.0038316289632023366,0.06342956771751093
3522,11.0,299.18122,-4005.35,0.0,0.0,0.03522049610867528,0.0,0.0,0.0,0.3206360229843117,0.3014925368574967,0.5953978367011914,0.004332844980193506,-0.010916107084085889,0.04717285037734786
3523,11.0,298.99664,-4034.8613,0.0,0.0,0.035230500529049635,0.0,0.0,0.0,0.3111125055594137,0.3188061237012147,0.5965784655852104,0.0018343292125341981,-0.005529921750435786,0.06008082983926624
3524,11.0,300.10186,-3877.993,0.0,0.0,0.03524050494942377,0.0,0.0,0.0,0.29400632087866474,0.29749961205592573,0.5873071055801985,-0.015053174818382685,-0.00977753000439208,0.04959939691557935
3525,11.0,300.05973,-3859.5392,0.0,0.0,0.03525050936979768,0.0,0.0,0.0,0.27693456643631376,0.3036117393091457,0.5926572282282144,-0.0069086249183281925,0.011901199977056989,0.06398666883449253
3526,11.0,300.12349,-3910.7299,0.0,0.0,0.03526051379017203,0.0,0.0,0.0,0.3005815439575887,0.2878135186524827,0.6003691760643244,-0.002062792386781758,0.023706247585874477,0.039116089479207465
3527,11.0,300.00214,-3911.0042,0.0,0.0,0.03527048530126864,0.0,0.0,0.0,0.2848446249319757,0.3021713130994867,0.6018316708611615,0.01919648012029508,0.02144324366678338,0.05901260382859054
3528,11.0,300.37257999999997,-3952.1585,0.0,0.0,0.03528048972164277,0.0,0.0,0.0,0.3012844051544557,0.3273134829983257,0.5727596205819735,-0.0004032062599933596,0.0017733739103683783,0.05834041877850104
3529,11.0,300.13412999999997,-4070.0711,0.0,0.0,0.035290494142016904,0.0,0.0,0.0,0.32360410610473866,0.3211923783492197,0.5924035002706735,0.0040167030456427265,-0.017381351997155882,0.06323033133709785
3530,11.0,299.88768999999996,-4072.6592,0.0,0.0,0.035300498562391036,0.0,0.0,0.0,0.33673011267017466,0.2993362595846887,0.6019203403774124,-0.01020329678448699,-0.016332729336164885,0.04448376364545566
3531,11.0,299.62379,-4065.3062,0.0,0.0,0.03531050298276517,0.0,0.0,0.0,0.3157104217306927,0.32365633914739367,0.5963848030935974,6.127306347668053e-05,-0.0017293423166727985,0.05434749397693004
3532,11.0,299.69039,-4055.4611,0.0,0.0,0.03532050740313952,0.0,0.0,0.0,0.3067404934979297,0.3056727102775477,0.6203457057608545,-0.005544454897945095,-0.005470048396726744,0.040827136552074664
3533,11.0,299.50491,-3976.1856,0.0,0.0,0.035330511823513655,0.0,0.0,0.0,0.28481780420182873,0.32562750575943267,0.5982158270843054,0.002602170340964218,0.0055317204720133056,0.06024184439940714
3534,11.0,299.54073999999997,-3918.1492,0.0,0.0,0.03534051624388779,0.0,0.0,0.0,0.3027327347148947,0.2981781045878877,0.5901086813116924,0.015727634614946685,0.009985388839181151,0.04411076095239316
3535,11.0,300.42244,-3902.0159,0.0,0.0,0.035350487754984394,0.0,0.0,0.0,0.3008828338748237,0.3019988072699617,0.5832337489856895,0.0029937128764064573,-0.006416810646364904,0.05101052195884655
3536,11.0,300.45921,-3990.7516,0.0,0.0,0.03536049217535853,0.0,0.0,0.0,0.3117114984885297,0.3160481886515277,0.5853291501924894,0.0015869417688189583,-0.004156724380936757,0.05399070632521785
3537,11.0,300.28022999999996,-3986.6714,0.0,0.0,0.03537049659573266,0.0,0.0,0.0,0.3007948128386367,0.3163261636839617,0.5947275818925424,-0.02082711465197618,0.002166209555588238,0.06922339258431694
3538,11.0,300.19347999999997,-3969.7736,0.0,0.0,0.03538050101610679,0.0,0.0,0.0,0.2974452410555597,0.3142569752572487,0.5950098227078974,0.014191857517877288,0.019222740523136782,0.06327400849590845
3539,11.0,299.68068999999997,-3936.1133,0.0,0.0,0.035390505436480924,0.0,0.0,0.0,0.29361306838235374,0.3107555578141857,0.5921115322543585,-0.006802088256438843,0.007226430102918123,0.06868556855048784
3540,11.0,299.97328,-3910.7084,0.0,0.0,0.03540050985685528,0.0,0.0,0.0,0.3008644535180097,0.3006327941476467,0.5872604555455945,0.01035416263162629,-0.011639628450491888,0.04316213797027136
3541,11.0,300.12948,-3957.2649,0.0,0.0,0.03541051427722941,0.0,0.0,0.0,0.3118977946519157,0.3264551588386157,0.5645567632049144,-0.017518873340478185,-0.016562989408139783,0.07817201014097672
3542,11.0,299.96293,-4001.6027,0.0,0.0,0.03542051869760354,0.0,0.0,0.0,0.3229854763886847,0.2995646056272247,0.5938372288971714,0.006614697985594864,-0.002691250122180708,0.041873373009080166
3543,11.0,299.45219,-3931.7601,0.0,0.0,0.03543049020869993,0.0,0.0,0.0,0.3026099592002777,0.3079168160690237,0.5846301292135014,-0.0016354207198534582,0.012147478519862788,0.06824553733681013
3544,11.0,299.19326,-3931.026,0.0,0.0,0.03544049462907406,0.0,0.0,0.0,0.27025261772435677,0.3158771115046437,0.6088040170517783,0.008749410661824601,0.008089397481211373,0.04802998700794065
3545,11.0,299.71283,-4002.9559,0.0,0.0,0.035450499049448414,0.0,0.0,0.0,0.29773181858134273,0.30263225070247773,0.6164345502423534,-0.011860273792267888,0.006987916196953634,0.05915394816454015
3546,11.0,300.69652,-4007.9559999999997,0.0,0.0,0.035460503469822546,0.0,0.0,0.0,0.3065556158846837,0.30252353909924873,0.6092394004872475,-0.003928211557434297,-0.007839040606753072,0.03323383624967426
3547,11.0,300.36251,-3895.6747,0.0,0.0,0.0354705078901969,0.0,0.0,0.0,0.3110962935578137,0.2879639558948297,0.5851275742175954,-0.01175833272620709,-0.002971819378845737,0.054310412063020355
3548,11.0,300.07874,-3965.8108,0.0,0.0,0.03548051231057103,0.0,0.0,0.0,0.3168975556803537,0.29205135613572475,0.5965585450882444,0.0013856376489267887,-0.012719755083592089,0.04200256037032996
3549,11.0,299.98819,-4100.7244,0.0,0.0,0.03549051673094494,0.0,0.0,0.0,0.3222337157419917,0.3187675087399037,0.6055165980298354,-0.0002570105636249677,-0.001025228337382159,0.07164244208505853
3550,11.0,299.80962999999997,-4097.7471,0.0,0.0,0.03550048824204155,0.0,0.0,0.0,0.30563314286114274,0.3118701531891877,0.6281095117370824,0.005039428249977845,0.02296728124819418,0.04813048824560936
3551,11.0,300.2561,-3954.815,0.0,0.0,0.03551049266241568,0.0,0.0,0.0,0.2970588279974237,0.3088083039045067,0.5962978865000194,-0.00029111845676865473,0.030039907787958075,0.057329495100730654
3552,11.0,299.96017,-3950.4471,0.0,0.0,0.03552049708279004,0.0,0.0,0.0,0.3136124266036367,0.2993389244324517,0.5878859145673224,0.004948399279543985,0.01309474577335079,0.03911501644735157
3553,11.0,299.25189,-3977.2193,0.0,0.0,0.03553050150316417,0.0,0.0,0.0,0.30656194869780873,0.3008098900001247,0.6016035173361444,-0.013648559907007985,-0.004039648398132256,0.06182230987888694
3554,11.0,299.4032,-3932.0542,0.0,0.0,0.03554050592353852,0.0,0.0,0.0,0.3060714140593967,0.3005874613381727,0.5885874180090555,-0.01084031800310609,-0.01886335692466838,0.055464346873154845
3555,11.0,299.89461,-3895.3124,0.0,0.0,0.035550510343912656,0.0,0.0,0.0,0.27886948909227577,0.3039285420854117,0.6012796826041844,-0.006327737957899114,-0.009469131833730552,0.07552760976499472
3556,11.0,300.06583,-3802.2966,0.0,0.0,0.035560514764286566,0.0,0.0,0.0,0.27092396684311376,0.2959607080690477,0.5889185582742364,0.011157866531445688,-0.011905092883941188,0.07312750804112313
3557,11.0,300.13322999999997,-3795.055,0.0,0.0,0.0355705191846607,0.0,0.0,0.0,0.2788676652420958,0.3026637830455897,0.5720705193214645,0.011917539648169589,-0.005739897771308805,0.08057094865373353
3558,11.0,300.34369,-3994.542,0.0,0.0,0.035580490695757305,0.0,0.0,0.0,0.31252267612108675,0.3079439914367057,0.5937743668609674,0.013013956303127487,-0.003963795887696196,0.05141259581052815
3559,11.0,300.64991000000003,-3991.2162,0.0,0.0,0.03559049511613166,0.0,0.0,0.0,0.31879341754496066,0.3137690548040947,0.5806675715174274,0.014538655536853587,0.012814499034192588,0.06387642317061215
3560,11.0,300.3287,-3918.7856,0.0,0.0,0.03560049953650579,0.0,0.0,0.0,0.3128584469392247,0.2932077480773517,0.5851467753069904,-0.004354307947786736,-0.0008708308982118181,0.05573366469673445
3561,11.0,300.16956,-3975.8379,0.0,0.0,0.035610503956879924,0.0,0.0,0.0,0.2994102369744897,0.3069765503737267,0.6021686575794193,-0.0020212219775790777,0.000960227107302037,0.06490994131236244
3562,11.0,300.07386,-4069.6709,0.0,0.0,0.035620508377254056,0.0,0.0,0.0,0.3085295385369947,0.31184152887386274,0.6167072766392694,-0.02794104329231627,0.003083454107288227,0.047825331765992754
3563,11.0,299.50473999999997,-4061.3614,0.0,0.0,0.03563051279762841,0.0,0.0,0.0,0.3264484916529577,0.3028962023535277,0.6052077695318564,-0.013660756398461687,0.02210714641055548,0.047229161751655355
3564,11.0,299.58735,-3951.6625,0.0,0.0,0.03564051721800232,0.0,0.0,0.0,0.3185207924730547,0.2932518953842087,0.5894340492626114,-0.013491956024552386,0.0037045548363610964,0.04167789173353766
3565,11.0,299.9723,-3866.4653,0.0,0.0,0.03565052163837645,0.0,0.0,0.0,0.2972828474620327,0.29433115872822374,0.5836948791061994,-0.0005679922991264753,-0.0037321619499107064,0.058320331095268546
3566,11.0,299.87592,-3961.2297,0.0,0.0,0.03566049314947306,0.0,0.0,0.0,0.3007476359139807,0.2963595537059107,0.6070077374069994,0.02181925875239318,-0.01928355072788828,0.05523056981008285
3567,11.0,300.11157000000003,-4071.1603,0.0,0.0,0.035670497569847415,0.0,0.0,0.0,0.29505679778733873,0.3250876967686577,0.6173865797713114,0.01843893584203128,-0.012431737729416989,0.07144279939135534
3568,11.0,300.27755,-4082.6722,0.0,0.0,0.03568050199022155,0.0,0.0,0.0,0.3132006822930007,0.3127950073504637,0.6150347249642014,0.02160817545181088,-0.0028135339065241773,0.061760415496528435
3569,11.0,299.35528,-3984.1438,0.0,0.0,0.03569050641059568,0.0,0.0,0.0,0.3105335243197727,0.31391401036340066,0.5866327065786404,-0.016780222123578985,-0.01158012229861909,0.06006582968478584
3570,11.0,299.44477,-3904.0568,0.0,0.0,0.03570051083096981,0.0,0.0,0.0,0.30858642239760875,0.3018945033046677,0.5762548470669255,-0.00990920246283714,0.005843323350091114,0.04606365866512916
3571,11.0,299.63204,-4053.2589,0.0,0.0,0.035710515251343944,0.0,0.0,0.0,0.3214200961766937,0.30773479582105967,0.6029346037275124,-0.02542360315386427,0.009755836218426071,0.057012328567678745
3572,11.0,299.18797,-4081.8769,0.0,0.0,0.035720519671718076,0.0,0.0,0.0,0.3133172465845047,0.31655162196371267,0.6109197845855884,0.006639133322356444,0.014204095552585087,0.06157028823451435
3573,11.0,300.0862,-3827.1096,0.0,0.0,0.03573052409209221,0.0,0.0,0.0,0.26987048058164276,0.3043617166356627,0.5891135683884824,-0.019914239133382382,-0.0015460990758380986,0.07313011918663083
3574,11.0,299.91327,-3806.4577,0.0,0.0,0.035740495603188815,0.0,0.0,0.0,0.27760118367710374,0.2904558418657597,0.5890110578758654,0.006668768759956234,-0.006767010145926903,0.06530802194539993
3575,11.0,300.13013,-3937.5379,0.0,0.0,0.03575050002356295,0.0,0.0,0.0,0.3050090415945487,0.3095486350900717,0.5823555245940154,-0.003693478796867976,0.004555045762198015,0.06726195925273853
3576,11.0,300.07481,-4074.616,0.0,0.0,0.0357605044439373,0.0,0.0,0.0,0.3211913549666187,0.30830953154278173,0.6090806444615795,0.011864188990654289,0.015332249227175186,0.061284430116302344
3577,11.0,299.78926,-4039.4826,0.0,0.0,0.035770508864311434,0.0,0.0,0.0,0.3187144549646677,0.3066794958419097,0.6025078937128994,-0.01053878287934689,0.003389762145643476,0.06449772786693014
3578,11.0,299.93381,-3905.6022,0.0,0.0,0.03578051328468557,0.0,0.0,0.0,0.2869477065745337,0.30445295980716774,0.5958048592663614,-0.0026790061092973176,-0.006633113198212305,0.05787234789480603
3579,11.0,300.50559,-3887.3509999999997,0.0,0.0,0.0357905177050597,0.0,0.0,0.0,0.2876006652039757,0.29054530171708876,0.6035116699244645,0.005720778349871865,-0.014753108907268487,0.049643628322194655
3580,11.0,300.26037,-4059.3573,0.0,0.0,0.03580052212543361,0.0,0.0,0.0,0.3133319083134517,0.31477870786623974,0.6058326307360254,0.03189068306286537,-0.006066018496819414,0.05286293565916555
3581,11.0,300.45898,-4072.6155,0.0,0.0,0.03581049363653044,0.0,0.0,0.0,0.3359358360492857,0.3008136086279917,0.6012239538486844,0.01010817995784969,-0.01927923326921218,0.03428861643152297
3582,11.0,300.6399,-3897.2983,0.0,0.0,0.03582049805690457,0.0,0.0,0.0,0.3101431899837497,0.2978595995514537,0.5766785679937434,-0.00025412570886775476,-0.0016691810986103487,0.05266333957496695
3583,11.0,300.5245,-3930.0735,0.0,0.0,0.0358305024772787,0.0,0.0,0.0,0.3177299001074997,0.3003410794438567,0.5765732102483455,-0.011870340432011387,0.013766848750182187,0.047968546561626954
3584,11.0,301.01422,-4091.1381,0.0,0.0,0.035840506897652835,0.0,0.0,0.0,0.3152778551305017,0.3163120389775677,0.6120139427060735,-0.005132071327821006,0.024738534628753275,0.06395086766870924
3585,11.0,299.97053,-4136.252,0.0,0.0,0.03585051131802719,0.0,0.0,0.0,0.3011017769564317,0.3288532989102937,0.6273622600533344,-0.012142763867147488,0.016190417346369786,0.05700785912148765
3586,11.0,299.80803,-4064.4465,0.0,0.0,0.03586051573840132,0.0,0.0,0.0,0.3056378646066087,0.3135864570035737,0.6162659150282104,-0.020084125711398882,-0.0006825416516141163,0.05604747534545515
3587,11.0,299.52497,-3978.3717,0.0,0.0,0.03587052015877523,0.0,0.0,0.0,0.3043835825728207,0.3009533662142847,0.6039886979390434,-0.006954381975619063,-0.015595560504161986,0.049726210231844856
3588,11.0,300.18346,-3840.0519,0.0,0.0,0.035880524579149586,0.0,0.0,0.0,0.29780277648584574,0.3054918046046937,0.5639853104135165,0.0023828413123931276,-0.003211721133472197,0.06387814062953164
3589,11.0,299.96207999999996,-3884.6888,0.0,0.0,0.03589049609024619,0.0,0.0,0.0,0.2962288748405137,0.2953674602679987,0.5892520594121504,0.02088206725789958,-0.01039288803719819,0.05684067285498765
3590,11.0,299.81304,-4069.8738,0.0,0.0,0.035900500510620326,0.0,0.0,0.0,0.30135083383101174,0.33004251002265966,0.6057466665975415,0.017448845599566984,-0.007986379634269304,0.06053791405212695
3591,11.0,300.31641,-4048.1077,0.0,0.0,0.03591050493099446,0.0,0.0,0.0,0.29594452646495073,0.3178767099144887,0.6167024231712904,0.016727416594617482,-0.0006061523516725794,0.054662444532013243
3592,11.0,300.62641,-3896.4402,0.0,0.0,0.03592050935136859,0.0,0.0,0.0,0.2932262297591757,0.2998395611743607,0.5913547458871694,0.008400311450546191,-0.0027768061235244274,0.06254840794029723
3593,11.0,300.32116,-3933.177,0.0,0.0,0.03593051377174272,0.0,0.0,0.0,0.29469241278637676,0.3123460767611577,0.5885491171552755,0.004705043861951675,-0.003439946295271267,0.05774735944197064
3594,11.0,300.2371,-4062.278,0.0,0.0,0.03594051819211708,0.0,0.0,0.0,0.3188928984397787,0.30744703279265967,0.6084911456859005,-0.01840616632054718,-0.01004216661250968,0.07102227324210264
3595,11.0,299.74066,-4099.76,0.0,0.0,0.03595052261249121,0.0,0.0,0.0,0.3295673261232627,0.3031198874456037,0.6135374655564334,-0.013307030788551685,-0.014108558227156287,0.05876066324422594
3596,11.0,300.00796,-3909.3607,0.0,0.0,0.03596052703286534,0.0,0.0,0.0,0.2870225148294167,0.3092010599082687,0.5921244511931334,-0.014320758129348786,0.003621905545579246,0.07900945222937583
3597,11.0,300.11735,-3837.864,0.0,0.0,0.035970498543961726,0.0,0.0,0.0,0.29104353705626074,0.27735427489273573,0.5982170125869224,0.010524171812904892,0.016206226074429984,0.03764248338177386
3598,11.0,300.40853,-3978.3699,0.0,0.0,0.03598050296433608,0.0,0.0,0.0,0.30110747142199373,0.3112477136527577,0.5969699246288445,0.008685342959326612,0.018702608849303783,0.056902257182815545
3599,11.0,300.11593,-4142.403,0.0,0.0,0.03599050738471021,0.0,0.0,0.0,0.3414941005328437,0.2947894314834517,0.6229035340482925,0.017663040591206384,-0.0008628209433887973,0.01901932448606118
3600,11.0,299.54292999999996,-4103.6656,0.0,0.0,0.036000511805084345,0.0,0.0,0.0,0.32363061272735466,0.3104826388997507,0.6132986323753624,0.01178713030729919,-0.017442438819184683,0.05520094136390875
3601,11.0,300.08563,-4002.4827,0.0,0.0,0.03601051622545848,0.0,0.0,0.0,0.30730973740410966,0.31279124819259274,0.5965538233427784,0.013636557959573485,-0.01013527426552369,0.04005642812851166
3602,11.0,300.09311,-4032.0128,0.0,0.0,0.03602052064583283,0.0,0.0,0.0,0.2915386313201227,0.3280585257968557,0.6060340445909034,0.007454131009115453,0.00884714339624507,0.08194941360652742
3603,11.0,299.36671,-4165.5361,0.0,0.0,0.036030525066206964,0.0,0.0,0.0,0.3209910252893477,0.3342297356634067,0.6109982000108274,-0.0033855040634232364,-0.013132934156369685,0.05307648926349165
3604,11.0,299.687,-4055.7064,0.0,0.0,0.03604049657730357,0.0,0.0,0.0,0.3150943859348947,0.3187884526194707,0.5989506563218274,-0.015964052207779286,-0.0030412773692257075,0.07611863753507463
3605,11.0,299.40236,-3796.5194,0.0,0.0,0.03605050099767748,0.0,0.0,0.0,0.2825215869577097,0.2807372231341067,0.5907882782862635,-0.014199556192137086,-0.011074881348255688,0.05003940887750515
3606,11.0,299.62496,-3723.8326,0.0,0.0,0.036060505418051614,0.0,0.0,0.0,0.2717699496166058,0.29078184495293374,0.5694003317304375,-0.005909296266752135,0.005357956591164145,0.07300680968921112
3607,11.0,300.40136,-3978.2826,0.0,0.0,0.03607050983842597,0.0,0.0,0.0,0.29791920905483676,0.29370836455425875,0.6176710092068823,-0.006084187590987564,0.004260756896528966,0.05438675032555435
3608,11.0,300.20857,-4186.7559,0.0,0.0,0.0360805142588001,0.0,0.0,0.0,0.3134458584196977,0.3343604753238097,0.6248628962966664,0.013009177815655889,0.019255286116348785,0.06915477326104473
3609,11.0,300.41823,-4067.823,0.0,0.0,0.036090518679174455,0.0,0.0,0.0,0.3110275040085247,0.3211828639307807,0.6043062403878824,0.00015144273095123384,0.0069604792080958135,0.05088951659215425
3610,11.0,300.70787,-3955.6022,0.0,0.0,0.03610052309954859,0.0,0.0,0.0,0.3069051871691837,0.3070925269801727,0.5884065731312074,0.0023657625766575876,0.014719014054653588,0.04205273854178216
3611,11.0,300.10438999999997,-4048.1659999999997,0.0,0.0,0.0361105275199225,0.0,0.0,0.0,0.3175811043303147,0.3166833039467087,0.5962769730179555,-0.004630151709960396,-0.0068411021343142125,0.03863505000748257
3612,11.0,299.88653999999997,-4175.8523,0.0,0.0,0.036120499031019104,0.0,0.0,0.0,0.3312028941696807,0.3317902955176527,0.6063616486132354,0.0035248942452299763,-0.008742706391212942,0.05963461577347835
3613,11.0,299.8258,-4175.5752,0.0,0.0,0.03613050345139324,0.0,0.0,0.0,0.32220685448184067,0.3110918757873777,0.6359718562855354,0.004885943050005035,-0.01037074649601299,0.04959720626886316
3614,11.0,299.74537999999995,-3997.0543,0.0,0.0,0.03614050787176759,0.0,0.0,0.0,0.2879412489600887,0.3160107895903367,0.6110526622037024,0.008804390321525673,0.009980607413284262,0.08076271839415972
3615,11.0,299.65367000000003,-3914.3781,0.0,0.0,0.03615051229214172,0.0,0.0,0.0,0.3053782699309887,0.2862236076555707,0.5982713126597814,-0.002224097547051338,0.007876368639112062,0.05361797518318215
3616,11.0,299.23837000000003,-4089.1429,0.0,0.0,0.03616051671251608,0.0,0.0,0.0,0.3211733697773437,0.31046437000044774,0.6113596060564954,-0.01137036432916759,0.013972718878999988,0.07106085780591063
3617,11.0,300.13292,-4221.0721,0.0,0.0,0.03617052113289021,0.0,0.0,0.0,0.34406918446948465,0.32658589849901865,0.6124454251286574,-0.015558665028270684,0.0024004643660823877,0.04045905217499756
3618,11.0,300.46112999999997,-4043.5794,0.0,0.0,0.03618052555326412,0.0,0.0,0.0,0.3138364764657487,0.3083211332564267,0.6069895597002054,-0.003040524929701447,0.015192487587881788,0.055814215039934154
3619,11.0,300.60672999999997,-3969.1489,0.0,0.0,0.03619052997363825,0.0,0.0,0.0,0.29316339812047476,0.3158765542170887,0.5974822238794044,0.0033122453719181665,-2.171422727352738e-05,0.053693986165933856
3620,11.0,299.68667999999997,-4094.473,0.0,0.0,0.03620050148473486,0.0,0.0,0.0,0.2957430315500647,0.3343346273137587,0.6145398840128644,0.004398947390217306,-0.0018394213009117481,0.06354941899233935
3621,11.0,299.75743,-4097.4602,0.0,0.0,0.036210505905109214,0.0,0.0,0.0,0.32916144853070567,0.30431292864334775,0.6120511999122504,0.012135639705694387,-0.018582885243987983,0.04680672967896455
3622,11.0,300.02852,-4106.0785,0.0,0.0,0.036220510325483346,0.0,0.0,0.0,0.3117353909258877,0.3296014929166347,0.6068084513773314,0.008805164748577102,5.933529764093795e-05,0.05680336599955575
3623,11.0,300.91557,-3990.8323,0.0,0.0,0.03623051474585748,0.0,0.0,0.0,0.31884901457794773,0.2986590234828507,0.5956053401891704,0.010848398672653591,0.008974664265055401,0.05211613081871165
3624,11.0,300.375,-3865.8151,0.0,0.0,0.03624051916623161,0.0,0.0,0.0,0.2810112160936477,0.3144466151459647,0.5796534297573395,-0.006083916546585814,0.0024414054456479576,0.07599803341542193
3625,11.0,299.86666,-3966.7155,0.0,0.0,0.03625052358660574,0.0,0.0,0.0,0.2823416742699537,0.3190064635109867,0.6044343354655244,0.0047711947053302554,-0.01091275626600519,0.08568325238402862
3626,11.0,299.59091,-4113.1037,0.0,0.0,0.036260528006979875,0.0,0.0,0.0,0.3048616846325057,0.3157929610838387,0.6296261748842654,-0.010434219522027291,0.00038463682057819865,0.06777674096604354
3627,11.0,299.85007,-3980.7803,0.0,0.0,0.03627049951807648,0.0,0.0,0.0,0.3072641715471127,0.30850099528167774,0.5942926341546164,0.0024710888099774776,0.0002079183834974468,0.06643881918950094
3628,11.0,299.52456,-3845.3469,0.0,0.0,0.036280503938450614,0.0,0.0,0.0,0.2839961698282397,0.2890810033350737,0.5958122661245925,-0.01779324120255618,-0.005586802672624494,0.05475457632385594
3629,11.0,299.44527999999997,-4054.5822,0.0,0.0,0.03629050835882497,0.0,0.0,0.0,0.33179900946851265,0.3063749837893567,0.5943177627570965,-0.004608977923945706,-0.00971409071960611,0.04387346892472426
3630,11.0,299.62767,-4252.902,0.0,0.0,0.0363005127791991,0.0,0.0,0.0,0.33624350944215065,0.32650376444591267,0.6300287391489954,0.01011720365926526,0.0087682226631812,0.03803761140401996
3631,11.0,300.20677,-4243.0617,0.0,0.0,0.03631051719957323,0.0,0.0,0.0,0.3289802794128257,0.3290476301469727,0.6317568878570504,0.02186971354112268,0.01060756330938499,0.04523899568699126
3632,11.0,300.78224,-4119.0304,0.0,0.0,0.036320521619947366,0.0,0.0,0.0,0.3139471943041757,0.3144897390702207,0.6236454560365144,0.009177840161857301,-0.01084014676383919,0.04399016189899096
3633,11.0,300.1285,-4004.223,0.0,0.0,0.0363305260403215,0.0,0.0,0.0,0.3150819634886687,0.2980792924381357,0.6040225404923835,0.004853505165278665,-0.023480050646800577,0.045545937513284056
3634,11.0,300.39432,-3910.9817,0.0,0.0,0.03634053046069563,0.0,0.0,0.0,0.29180478172388974,0.28573745025759073,0.6112985374729685,0.0014134051599672289,-0.002672819812136778,0.046845387196779754
3635,11.0,300.52865,-3994.9842,0.0,0.0,0.03635050197179246,0.0,0.0,0.0,0.3207157556346807,0.3018184487521617,0.5918412376576824,0.0014548037219529488,0.01235487865633159,0.05637678466770544
3636,11.0,299.78301,-4108.2689,0.0,0.0,0.03636050639216637,0.0,0.0,0.0,0.3131601117589967,0.3108499420610007,0.6248010981730674,-0.0059505151794951245,0.009156175152194131,0.06116729232524174
3637,11.0,299.8498,-3980.5334,0.0,0.0,0.0363705108125405,0.0,0.0,0.0,0.2977739292554987,0.3179841448225917,0.5942246856029104,-0.015496656148650884,0.008668320864271661,0.08183420909665762
3638,11.0,299.72047000000003,-3973.4309,0.0,0.0,0.036380515232914856,0.0,0.0,0.0,0.29623367764598774,0.30633881076078673,0.6052512987561525,-0.0034324135913778465,0.0008371334422861384,0.06366881430462273
3639,11.0,299.48489,-4163.5817,0.0,0.0,0.03639051965328899,0.0,0.0,0.0,0.3257785509518397,0.3214687524464957,0.6183775586341134,0.013268490807748088,0.005983849587909974,0.06078257950077354
3640,11.0,299.47003,-4138.0454,0.0,0.0,0.03640052407366312,0.0,0.0,0.0,0.3141468856338837,0.3299709543005977,0.6137446144068773,-0.004121813659341337,-0.01158699720054759,0.05554159706077885
3641,11.0,299.70123,-3958.2253,0.0,0.0,0.03641052849403725,0.0,0.0,0.0,0.3122528982819617,0.30825447153234775,0.5826942642349464,0.00026286639939789377,-0.015906550264604285,0.06071962931181085
3642,11.0,300.0744,-3952.7253,0.0,0.0,0.03642053291441116,0.0,0.0,0.0,0.28221539290999076,0.31097340658568573,0.6083409820210804,0.003356219413008067,-0.002311736283975608,0.05555912932725915
3643,11.0,300.50428,-4002.9997,0.0,0.0,0.03643050442550799,0.0,0.0,0.0,0.29889771480890776,0.3202788928540657,0.5976353361020155,0.017045525450262382,0.01149100188607359,0.07124045739938573
3644,11.0,300.29466,-4022.6721,0.0,0.0,0.036440508845882125,0.0,0.0,0.0,0.3066938029333217,0.3010070482045827,0.6150910312722585,0.02013131783480638,-0.008124909972041182,0.061283471581707744
3645,11.0,300.16348,-4059.9236,0.0,0.0,0.03645051326625626,0.0,0.0,0.0,0.3187125905844837,0.31718178246590467,0.5982210149248174,-0.0020192673168111684,-0.002232046190110808,0.07318781770032522
3646,11.0,300.14609,-4006.5022,0.0,0.0,0.03646051768663039,0.0,0.0,0.0,0.3074052666235377,0.29478970506097874,0.6156816648880494,0.006866757120221165,-0.002436251143714268,0.04230315925099676
3647,11.0,300.06495,-3990.6061,0.0,0.0,0.036470522107004744,0.0,0.0,0.0,0.31843852669743566,0.3098898369287457,0.5847162453395004,-0.005901728504405254,0.010627960033897989,0.05292003534205086
3648,11.0,299.81359,-4178.5425,0.0,0.0,0.036480526527378876,0.0,0.0,0.0,0.3076888955915297,0.3254546351598717,0.6370290611748733,-0.01163561496684579,0.012749335907011487,0.05203736480893805
3649,11.0,299.60067000000004,-4294.7183,0.0,0.0,0.036490530947752786,0.0,0.0,0.0,0.34752626208817167,0.3291131367659377,0.6288477150974374,-0.020502505796939782,0.0033596745958490667,0.06049515996415744
3650,11.0,299.51456,-4055.3802,0.0,0.0,0.03650053536812714,0.0,0.0,0.0,0.30760234376798773,0.3184846498419877,0.6066473344789305,-0.01286680503085479,0.016461552940628784,0.04397414748116046
3651,11.0,299.1414,-3988.9284,0.0,0.0,0.03651050687922375,0.0,0.0,0.0,0.3028990901163127,0.3165539828364457,0.5930815571050924,-0.011646166953387188,0.00885565125203473,0.059641489662156745
3652,11.0,299.66675,-4205.5495,0.0,0.0,0.03652051129959788,0.0,0.0,0.0,0.3229731350024667,0.3256282251670037,0.6297806752595134,0.00842919303007158,-0.017161456460453882,0.04166500724526606
3653,11.0,299.91961000000003,-4233.6764,0.0,0.0,0.03653051571997201,0.0,0.0,0.0,0.3318785090713587,0.3381140907167627,0.6169393210446704,0.017143723570453785,-0.01003569184304567,0.06301654468524874
3654,11.0,299.88396,-4074.7783,0.0,0.0,0.036540520140346144,0.0,0.0,0.0,0.2860789966012987,0.3170360163065187,0.6355158430780304,0.029718773367514575,-0.016342930738171686,0.056500614975676544
3655,11.0,299.50876,-3992.7316,0.0,0.0,0.03655052456072028,0.0,0.0,0.0,0.2978061303436767,0.3164825791018987,0.5994019984463714,0.026111409480745473,0.006208592310440354,0.06755458892136884
3656,11.0,299.56122999999997,-4000.0287,0.0,0.0,0.03656052898109441,0.0,0.0,0.0,0.28889882096709374,0.31089561937550875,0.6161144037407573,0.005025040098557845,-0.004882625567852626,0.06653279003027514
3657,11.0,300.00141,-4023.6792,0.0,0.0,0.03657053340146876,0.0,0.0,0.0,0.3059468146945997,0.3147044163689077,0.6024467542018654,-0.006162410093407525,0.0007143926314850632,0.07155505939643453
3658,11.0,300.44334,-4108.409000000001,0.0,0.0,0.03658050491256537,0.0,0.0,0.0,0.3149256493957417,0.3167355268568627,0.6171925829071654,-0.015126140984583885,0.007525214353980833,0.05148094054302325
3659,11.0,300.01288999999997,-4061.8159,0.0,0.0,0.03659050933293928,0.0,0.0,0.0,0.31119342371239966,0.3175128619360797,0.6059843244084964,-0.01891321389583888,0.01011310384671064,0.050685759089794946
3660,11.0,300.19825,-3917.035,0.0,0.0,0.036600513753313635,0.0,0.0,0.0,0.2792375724561027,0.30237867473245167,0.6090645743149934,-0.014729751465963286,0.0024470343539284875,0.05316465012819245
3661,11.0,300.24368,-4017.4654,0.0,0.0,0.03661051817368777,0.0,0.0,0.0,0.3200358445525787,0.3066604062100257,0.5945129045938554,-0.01006259940872624,0.01114317947124619,0.057955235805986445
3662,11.0,300.20997,-4163.5418,0.0,0.0,0.0366205225940619,0.0,0.0,0.0,0.3242938862428147,0.30051226804825176,0.6408065892701863,0.014556113836076589,0.00983036471495646,0.04828217887833005
3663,11.0,299.96352,-4069.571,0.0,0.0,0.03663052701443603,0.0,0.0,0.0,0.3280801992164947,0.30622619814467267,0.6027415593184604,0.0037357714507419365,0.003831773553991606,0.06397804404964134
3664,11.0,299.26133,-3986.6414,0.0,0.0,0.036640531434810386,0.0,0.0,0.0,0.3092670934172857,0.29081578883128373,0.6117565366506693,0.0007767404939258184,-0.01105903816969209,0.04794007220731675
3665,11.0,299.6424,-4002.4408,0.0,0.0,0.03665053585518452,0.0,0.0,0.0,0.3082351285879387,0.3014034620412057,0.6070034817565795,-0.007167213537923904,-0.02069972479640378,0.059853855737365645
3666,11.0,300.49306,-3987.8089,0.0,0.0,0.036660507366281125,0.0,0.0,0.0,0.2986043282424527,0.30142589539841974,0.6121641063708934,0.005103028134904665,-0.010472554826310689,0.05274685874095965
3667,11.0,300.3456,-4051.4441,0.0,0.0,0.036670511786655036,0.0,0.0,0.0,0.3263359296993487,0.3023369896233377,0.6028649123856344,0.0017344385593757582,0.002918000397134217,0.060796482305395645
3668,11.0,300.37254,-4123.7228,0.0,0.0,0.03668051620702917,0.0,0.0,0.0,0.3089504324960337,0.3236320515424967,0.6209262575381503,-0.018671971206030084,-0.005636680415422045,0.05553840329646365
3669,11.0,300.21445,-4039.4773,0.0,0.0,0.03669052062740352,0.0,0.0,0.0,0.32574456654348566,0.31080984775454373,0.5913458292862894,-0.009177892952187513,0.010927471697207489,0.06737027872817884
3670,11.0,300.13452,-4044.9892,0.0,0.0,0.036700525047777655,0.0,0.0,0.0,0.3083598090127437,0.3069722643258037,0.6142436299486264,-0.0026220746259286174,0.007834304169160622,0.05279654751261354
3671,11.0,299.74945,-4181.5875,0.0,0.0,0.03671052946815201,0.0,0.0,0.0,0.3207304376286297,0.3293972216964747,0.6209705264350194,0.005262046187048525,0.020757269296082983,0.06688849654413064
3672,11.0,299.49269,-4194.0522,0.0,0.0,0.03672053388852592,0.0,0.0,0.0,0.3212745934623337,0.3184134588899617,0.6351990808317685,-0.0004588893280463505,0.005546997547746035,0.04393248162379836
3673,11.0,299.82872000000003,-3956.3746,0.0,0.0,0.03673053830890005,0.0,0.0,0.0,0.31002862179494267,0.3037091937037637,0.5889012722275304,0.008850459966472391,0.0036042129829331267,0.06856571018290873
3674,11.0,299.50985,-3934.5029999999997,0.0,0.0,0.03674050981999666,0.0,0.0,0.0,0.28221729782017874,0.3105041096693697,0.6032692599705405,-0.002335894902134878,-0.0026174666684488476,0.05717480930071434
3675,11.0,299.66938,-4095.6922,0.0,0.0,0.03675051424037079,0.0,0.0,0.0,0.34240770761800965,0.3049669714503967,0.5976134802973584,0.004103712250279866,-0.0028831120683660075,0.06843173014868593
3676,11.0,300.83653,-4026.5114,0.0,0.0,0.036760518660745145,0.0,0.0,0.0,0.29482038627400675,0.3173021059152797,0.6118364314210544,0.013631782511852186,-0.01036751929444449,0.07273748983913134
3677,11.0,299.81157,-3976.3779,0.0,0.0,0.03677052308111928,0.0,0.0,0.0,0.2992379236624837,0.3167140560872437,0.5927676015616073,0.00966275876026504,-0.003302858521666757,0.07241572112412524
3678,11.0,299.88762,-3993.4531,0.0,0.0,0.03678052750149363,0.0,0.0,0.0,0.3033866457994307,0.3019829093758927,0.6085404605682674,0.024068966803672077,0.007260377021018424,0.05938917316200504
3679,11.0,300.29037,-4052.2772,0.0,0.0,0.036790531921867764,0.0,0.0,0.0,0.31771574500360267,0.3109502740859027,0.6031250744813104,-0.0017986449758124383,-0.0022003110956537978,0.06253085743531514
3680,11.0,299.35854,-4179.4141,0.0,0.0,0.036800536342241674,0.0,0.0,0.0,0.3152616127313987,0.3208095116664337,0.6343663817670875,-0.011730562580716388,0.005526438399242005,0.05439045983417045
3681,11.0,299.70711,-4179.2981,0.0,0.0,0.03681050785333828,0.0,0.0,0.0,0.3445762958795327,0.3044629909831577,0.6213629784637514,-0.02180869258035038,0.004052410992416826,0.03738171029628756
3682,11.0,300.10421,-4027.0563,0.0,0.0,0.036820512273712414,0.0,0.0,0.0,0.29630588184811374,0.31645728837940273,0.6113613995091725,-0.015449387018235785,0.007362730885169963,0.04911243094401955
3683,11.0,299.7795,-4020.4642,0.0,0.0,0.03683051669408677,0.0,0.0,0.0,0.31300403071359273,0.3042053518802307,0.6049113432151014,-0.009971985364208331,0.02143878131334298,0.046168538156479956
3684,11.0,300.12125,-4213.8468,0.0,0.0,0.0368405211144609,0.0,0.0,0.0,0.3369133488182587,0.3200338383173807,0.6239570304422644,-0.009697429037611732,-0.000997883959583479,0.050642947246569744
3685,11.0,300.16637000000003,-4199.6141,0.0,0.0,0.03685052553483503,0.0,0.0,0.0,0.3328223616720096,0.3134092496935847,0.6303462005378264,0.008882329113917632,-0.0038982466109019863,0.061388952943617944
3686,11.0,299.87629,-3954.5042,0.0,0.0,0.036860529955209165,0.0,0.0,0.0,0.2861129911421537,0.3001900950464557,0.6157674669065174,0.017404537185944084,-0.014689489973239787,0.06494744068531334
3687,11.0,299.50371,-3870.9449,0.0,0.0,0.0368705343755833,0.0,0.0,0.0,0.29455062869988374,0.2972741132461707,0.5848458602922925,0.008794777820476992,-0.01082585081817829,0.07261963466699993
3688,11.0,299.12144,-4090.395,0.0,0.0,0.03688053879595743,0.0,0.0,0.0,0.29989076070191373,0.3144188216957217,0.6290683604392134,0.007397474015198843,-0.008198312950360493,0.06151489587804754
3689,11.0,299.37181,-4145.4221,0.0,0.0,0.036890510307054036,0.0,0.0,0.0,0.3215748093344627,0.3248829695859527,0.6136470080247445,0.01071972806895479,0.004624261484479076,0.07146537460358333
3690,11.0,299.76268999999996,-4043.2599,0.0,0.0,0.03690051472742817,0.0,0.0,0.0,0.30006684330429173,0.3208236566378297,0.6081595595906755,0.007723211326871612,0.0065923324148125535,0.055780637958120355
3691,11.0,300.12212,-4059.5593,0.0,0.0,0.03691051914780252,0.0,0.0,0.0,0.3039082973484137,0.3052805723563467,0.6248157902995174,-0.012918610481967588,0.004144128567618646,0.06522061392552345
3692,11.0,299.96921000000003,-4146.5301,0.0,0.0,0.036920523568176655,0.0,0.0,0.0,0.31166920542935567,0.3293207821089307,0.6194516240051154,-0.006751075774854304,-0.010983090008446592,0.05529726598466525
3693,11.0,300.22116,-4250.1428,0.0,0.0,0.03693052798855079,0.0,0.0,0.0,0.34075931182532565,0.31813997255547066,0.6330379804884844,-0.015489959578739984,-0.007515479654970093,0.039246278944806166
3694,11.0,300.33678,-4248.509,0.0,0.0,0.03694053240892492,0.0,0.0,0.0,0.3263823973489347,0.32249898461817167,0.6425592586306614,0.00846277446886081,0.010826412158733688,0.050962350022592355
3695,11.0,300.43902,-3996.0228,0.0,0.0,0.03695053682929905,0.0,0.0,0.0,0.31005757035029974,0.3057033509605717,0.5989302494648134,0.005950426418786364,0.013015427542272688,0.04710182357183805
3696,11.0,300.41038,-3854.5562,0.0,0.0,0.036960541249673184,0.0,0.0,0.0,0.2955952794204827,0.28353730938795374,0.5925562578557494,-0.004034041781353926,0.0016971217740928783,0.06810698045188564
3697,11.0,299.89636,-4106.2895,0.0,0.0,0.03697051276076979,0.0,0.0,0.0,0.32022454211870166,0.3184978828882937,0.6094870489441884,0.0023913860504864277,0.0007619894571150043,0.05933807293296185
3698,11.0,299.77361,-4157.418,0.0,0.0,0.036980517181143924,0.0,0.0,0.0,0.3255889211956247,0.3227427320622277,0.6154196080146864,0.009406125409387301,-0.007376268311806003,0.07552855816708834
3699,11.0,300.08607,-4002.4214,0.0,0.0,0.036990521601518056,0.0,0.0,0.0,0.30541461521207575,0.3047755685065067,0.6064459712865574,0.013042601896704588,-0.008070367833733293,0.05525696396193775
3700,11.0,299.47013,-4089.0897,0.0,0.0,0.03700052602189241,0.0,0.0,0.0,0.2923190568121447,0.34133842478747967,0.6093236927630664,-0.005998838393989255,-0.01829022213810438,0.06013635189174584
3701,11.0,299.65296,-4152.8427,0.0,0.0,0.03701053044226654,0.0,0.0,0.0,0.3353189288584017,0.3060872004959547,0.6209543549634234,-0.005961833183112124,-0.002791578499382347,0.03816824872616286
3702,11.0,300.01305,-4224.9839,0.0,0.0,0.037020534862640675,0.0,0.0,0.0,0.3213268467699907,0.3362386661066727,0.6267240948753524,-0.013003509694596488,0.01096615353302509,0.05018435835731055
3703,11.0,299.31064,-4236.3762,0.0,0.0,0.037030539283014585,0.0,0.0,0.0,0.3257973366086937,0.33654211424662067,0.6254131316309705,-0.004502338315846196,0.012122718740419189,0.058100445691067544
3704,11.0,299.54899,-4054.6475,0.0,0.0,0.037040510794111636,0.0,0.0,0.0,0.3196848952479427,0.30336747510753875,0.6094592048314404,-0.016923780410997083,0.004585878962741015,0.05227092604973875
3705,11.0,299.93032999999997,-3978.5013,0.0,0.0,0.037050515214485547,0.0,0.0,0.0,0.2964716799619767,0.32222324886845866,0.5906701231921024,-0.009053163283427652,-0.003263735111455577,0.06525332062550133
3706,11.0,300.54586,-4040.7003,0.0,0.0,0.03706051963485968,0.0,0.0,0.0,0.3094142882593127,0.3080479306319637,0.6108097760222314,0.002103356233335098,0.004526132163969465,0.06729979907772304
3707,11.0,300.60013,-4131.0781,0.0,0.0,0.03707052405523381,0.0,0.0,0.0,0.3212359683685217,0.3218927773483437,0.6126158436629764,0.008072757482769132,-0.01100854994370929,0.05370803994482085
3708,11.0,299.8457,-4004.8069,0.0,0.0,0.03708052847560794,0.0,0.0,0.0,0.2843460248227677,0.32464380203234866,0.6083714707165895,0.0038104820283152963,-0.004025764135986986,0.07949823597161502
3709,11.0,300.11859,-3962.9333,0.0,0.0,0.0370905328959823,0.0,0.0,0.0,0.29938577711707576,0.29271791258150875,0.6125290689244125,-0.0026803274887527272,0.004300083058085156,0.05336683303989635
3710,11.0,300.41086,-4183.6602,0.0,0.0,0.03710053731635643,0.0,0.0,0.0,0.3223627024797217,0.3280945873679147,0.6212709449571684,0.008106591828783321,0.01102471128280429,0.06678256428592592
3711,11.0,299.76375,-4275.7049,0.0,0.0,0.03711054173673034,0.0,0.0,0.0,0.3249295588255507,0.32993092078914665,0.6448470355014474,0.016805535137577186,0.012440396964771588,0.04140380048873696
3712,11.0,299.81712000000005,-4179.8863,0.0,0.0,0.03712051324782717,0.0,0.0,0.0,0.3162458433485347,0.3205305335164007,0.6338046967066534,-0.0038462862338488964,-0.0049437335668085156,0.04438860831531455
3713,11.0,298.81915,-4190.2371,0.0,0.0,0.0371305176682013,0.0,0.0,0.0,0.3380902084119057,0.3140180508836687,0.6216191787515364,-0.008960280166635802,-0.0038661497861592767,0.02409148730039468
3714,11.0,299.54819,-4101.999,0.0,0.0,0.037140522088575434,0.0,0.0,0.0,0.31591742872612266,0.3067113625575547,0.6242764980662934,-0.03245835440489017,0.0027843636520452973,0.044621905097839164
3715,11.0,299.87577999999996,-4030.5964,0.0,0.0,0.037150526508949566,0.0,0.0,0.0,0.3256200786361997,0.3047555568170317,0.5948250362871604,-0.017514465702543183,-0.0024787426985828577,0.05602260005550015
3716,11.0,299.82252,-4200.8279999999995,0.0,0.0,0.0371605309293237,0.0,0.0,0.0,0.32793898255005766,0.33460307779525267,0.6144047468470274,-0.014324814169499087,-0.011107692412993888,0.08084932797295742
3717,11.0,299.61228,-4194.0109,0.0,0.0,0.03717053534969783,0.0,0.0,0.0,0.3377799613637867,0.3102482538866187,0.6268463840299213,0.005815283578748805,-0.007904810873394093,0.07071688168846284
3718,11.0,300.06345,-3915.4459,0.0,0.0,0.03718053977007196,0.0,0.0,0.0,0.28542629128438174,0.3077648285540237,0.5970066752099714,0.01765449889286338,0.013769716247965188,0.07018000301697704
3719,11.0,299.64991000000003,-3915.5595,0.0,0.0,0.03719054419044632,0.0,0.0,0.0,0.2947158999236947,0.29306060389782973,0.6024558126577594,0.018709344935968583,0.002287133760947528,0.05615870588843275
3720,11.0,299.94372999999996,-4096.5707,0.0,0.0,0.037200515701542924,0.0,0.0,0.0,0.28314392516912973,0.3193625702586317,0.6427487060018584,0.01170243881094079,0.012942456309820988,0.05593877184822695
3721,11.0,299.95749,-4138.3822,0.0,0.0,0.037210520121916835,0.0,0.0,0.0,0.3212506604949717,0.32338600402071366,0.6133281990132804,0.0023472242541529974,-0.008118515046685053,0.049659234400234856
3722,11.0,300.4612,-4108.1913,0.0,0.0,0.03722052454229119,0.0,0.0,0.0,0.3026523130544577,0.3137164873889067,0.6324187732198734,0.0013481338176754489,0.008106139209963652,0.06118740432647664
3723,11.0,300.40295,-4165.5644,0.0,0.0,0.03723052896266532,0.0,0.0,0.0,0.3194844541131607,0.33079648968707165,0.6159466095241973,-0.013251471245818386,-0.0097847455610042,0.05977729455980964
3724,11.0,300.33317999999997,-4154.1933,0.0,0.0,0.037240533383039454,0.0,0.0,0.0,0.3252903670536597,0.3247339306287437,0.6127467454433955,-0.01208216948466729,-0.004710395950304885,0.06495838378639333
3725,11.0,300.17836,-4193.5564,0.0,0.0,0.037250537803413586,0.0,0.0,0.0,0.33854438763672967,0.31359269862418976,0.6225993563682723,-0.01968585661384278,-0.008645485246767962,0.048484850176582155
3726,11.0,300.01911,-4214.4537,0.0,0.0,0.03726054222378794,0.0,0.0,0.0,0.3211472279247637,0.3291902653635497,0.6307512067352974,-0.010819453157046889,0.0019514680168448981,0.06873380026849793
3727,11.0,299.67048,-4059.5151,0.0,0.0,0.03727051373488455,0.0,0.0,0.0,0.3293522131270327,0.2990383437902867,0.6056006775231334,-0.008093497293765992,-0.0006222614678574254,0.052837815162686354
3728,11.0,300.02418,-3969.4097,0.0,0.0,0.03728051815525846,0.0,0.0,0.0,0.2779898157529587,0.3198402771507777,0.6087713498685544,0.005448169793942495,-0.0007324125144434873,0.07849564931566742
3729,11.0,299.97346,-4152.6398,0.0,0.0,0.03729052257563259,0.0,0.0,0.0,0.3210115740013757,0.3254916694510267,0.6157955643317904,0.0019691034321853785,-0.0005463078350613855,0.05706607033973264
3730,11.0,299.67638999999997,-4291.4379,0.0,0.0,0.03730052699600672,0.0,0.0,0.0,0.33534030843551166,0.3237561645472457,0.6453934914128784,0.00886006608404544,0.004238401255597636,0.05780580066798836
3731,11.0,299.6144,-4146.3593,0.0,0.0,0.037310531416381076,0.0,0.0,0.0,0.3250691441593267,0.3139683914962677,0.6213521468201824,0.0020849682771453483,-0.004255171558002736,0.03768347137481906
3732,11.0,299.98395,-4075.7277,0.0,0.0,0.03732053583675543,0.0,0.0,0.0,0.3011915711802937,0.31077261081336865,0.6269552678856674,-0.008167044660224552,4.552138950311136e-05,0.05405742985755295
3733,11.0,300.25496,-4165.0956,0.0,0.0,0.03733054025712956,0.0,0.0,0.0,0.3296139457603637,0.3103221704814137,0.6261489437210894,-0.0015639370398735687,-0.00981639118547738,0.03187688968925407
3734,11.0,300.31892999999997,-4261.6364,0.0,0.0,0.03734054467750347,0.0,0.0,0.0,0.3164568830793627,0.33617709089809567,0.6427970785616324,-0.004243284614454586,0.0036665947385897263,0.06600291798323084
3735,11.0,299.98442,-4264.8472,0.0,0.0,0.0373505161886003,0.0,0.0,0.0,0.34502765826907866,0.31876576594973166,0.6326136313466044,0.008623079652606702,-0.005465605396363255,0.05734046657281344
3736,11.0,300.12299,-3954.7281,0.0,0.0,0.03736052060897421,0.0,0.0,0.0,0.30373713914152173,0.3049199161157527,0.5934815477145684,-0.005330160101170845,0.0036477225501771867,0.06836030614913693
3737,11.0,300.62807999999995,-3880.3092,0.0,0.0,0.037370525029348345,0.0,0.0,0.0,0.2872447611063507,0.3006678627336077,0.5916044816393164,0.00019192896254691382,0.0026831449319807874,0.07230773602121793
3738,11.0,300.45534,-4121.7285,0.0,0.0,0.0373805294497227,0.0,0.0,0.0,0.3102078150751277,0.3134516542102697,0.6292430852864574,-0.008134811148043352,-0.0007296991725307014,0.06907727077414584
3739,11.0,299.97964,-4294.0091,0.0,0.0,0.03739053387009683,0.0,0.0,0.0,0.34052606165230564,0.3362770581529617,0.6284684353200054,0.008605100036207252,-0.006780374914745904,0.05991730545862764
3740,11.0,299.84353,-4164.0041,0.0,0.0,0.037400538290471186,0.0,0.0,0.0,0.2933140278803407,0.3323671995945887,0.6400720538751934,0.003390109183802726,0.001965260985156158,0.07121008624088834
3741,11.0,299.8846,-3987.5499,0.0,0.0,0.03741054271084532,0.0,0.0,0.0,0.3091316421439177,0.3100085898404657,0.5929753786271135,0.01831933180022728,-0.007132850984632583,0.052950035651011654
3742,11.0,299.99967000000004,-4108.0569,0.0,0.0,0.03742054713121923,0.0,0.0,0.0,0.3027623824128207,0.3244948846651517,0.6214894523412334,0.007971799674605373,-0.006540809052527593,0.05768626856694145
3743,11.0,299.25886,-4353.315,0.0,0.0,0.037430518642315835,0.0,0.0,0.0,0.3396451116178627,0.3333174154058677,0.6503365307007184,0.007021377261630983,-0.0028251391665445277,0.03502769321346417
3744,11.0,299.63072,-4257.3264,0.0,0.0,0.03744052306268997,0.0,0.0,0.0,0.3268464658947347,0.3298365061448287,0.6374379582527284,-0.0014899330015949385,-0.004236924747551916,0.05798326737000295
3745,11.0,300.23075,-4076.5574,0.0,0.0,0.03745052748306432,0.0,0.0,0.0,0.31974328885120573,0.3058062870382307,0.6136220820722844,-0.014825697131182387,-0.0012444933285469288,0.03970549199612696
3746,11.0,300.24667,-4049.6203,0.0,0.0,0.037460531903438454,0.0,0.0,0.0,0.2948950932038797,0.31578704370325467,0.6203013051414724,-0.018558430452824484,0.0025729471948301172,0.07018672187839013
3747,11.0,299.86028,-4150.0216,0.0,0.0,0.03747053632381259,0.0,0.0,0.0,0.3438746303177837,0.3141138334156217,0.6035144563622394,-0.002349125111340598,0.007833711721827154,0.05690675905300985
3748,11.0,300.15827,-4262.3271,0.0,0.0,0.03748054074418672,0.0,0.0,0.0,0.3288403090440117,0.3190300621058157,0.6477706268099834,0.006548827711168973,0.014781192147040089,0.06639705606012923
3749,11.0,300.14754,-4148.9171,0.0,0.0,0.03749054516456085,0.0,0.0,0.0,0.32746886490116073,0.29834389256924976,0.6353544424696015,0.007084424114653223,0.00043080916855505456,0.04510163241068455
3750,11.0,300.43357000000003,-4014.8455,0.0,0.0,0.037500549584934983,0.0,0.0,0.0,0.30833720340301274,0.3029090908947997,0.6091664768775504,0.005713414656095125,-0.014945172490223684,0.05764409507127924
3751,11.0,299.75739,-4132.0488,0.0,0.0,0.03751052109603159,0.0,0.0,0.0,0.32005594743456267,0.3157093983480917,0.6202743020263074,0.016914537543584882,-0.013901048659676686,0.04979474140235836
3752,11.0,300.11643,-4187.4605,0.0,0.0,0.03752052551640572,0.0,0.0,0.0,0.31072983139414667,0.3348803030226127,0.6272733068270554,0.015411205727967586,-0.005172309515792206,0.056120767778188536
3753,11.0,300.34312,-4117.0515,0.0,0.0,0.03753052993678008,0.0,0.0,0.0,0.32960483664196466,0.3189689327272827,0.6029070838547964,0.0038422974735052365,-0.014901891512202186,0.05130747111265315
3754,11.0,299.81642999999997,-3986.9259,0.0,0.0,0.03754053435715421,0.0,0.0,0.0,0.2835991379090557,0.3154149883990357,0.6129117937521844,-0.011554613727351589,-0.004140328271793586,0.06381550454809994
3755,11.0,300.74701,-3997.9362,0.0,0.0,0.03755053877752834,0.0,0.0,0.0,0.2973854694321607,0.3196837300103277,0.5982035870230974,-0.014159942166227487,0.008535907821328511,0.06386343026457984
3756,11.0,300.07513,-4142.837,0.0,0.0,0.037560543197902474,0.0,0.0,0.0,0.31910197246541266,0.3167324567090597,0.6234845721856364,0.005219072122482315,0.005825395409446765,0.06364344556186903
3757,11.0,300.75563999999997,-4235.0689,0.0,0.0,0.037570547618276606,0.0,0.0,0.0,0.3289551204128427,0.33182635708871167,0.6265736981630093,-0.018230934848253184,0.004780314361530295,0.07460576191676543
3758,11.0,300.40038,-4227.298,0.0,0.0,0.03758051912937321,0.0,0.0,0.0,0.3285100908364217,0.3342719679275747,0.6222109776049425,-0.0032088526224390967,0.0026342254198028076,0.07630159402613103
3759,11.0,299.2648,-4173.4896,0.0,0.0,0.037590523549747346,0.0,0.0,0.0,0.33634330444449967,0.3151234459477627,0.6171698759724245,-0.0003700489069009836,0.011680823146557488,0.059886625258849746
3760,11.0,299.71581000000003,-4155.2397,0.0,0.0,0.03760052797012148,0.0,0.0,0.0,0.3008909905381287,0.3303708131875607,0.6318272986064993,0.006409290912072764,0.009015069639293102,0.060253914234598346
3761,11.0,300.68959,-4191.0152,0.0,0.0,0.03761053239049561,0.0,0.0,0.0,0.33608478381398565,0.3069997943310207,0.6308793930054484,-0.004024105141598257,-0.0055060697417567755,0.03639809978821276
3762,11.0,299.4331,-4252.6543,0.0,0.0,0.037620536810869964,0.0,0.0,0.0,0.32823640185191066,0.3190200207973247,0.6454442957728924,0.003006047575173797,-0.012737864902629386,0.044078263995185954
3763,11.0,299.95108999999997,-4077.7846,0.0,0.0,0.0376305412312441,0.0,0.0,0.0,0.30599812567966367,0.3271747487946337,0.6063718216442394,0.003251527676900797,0.008695736473552372,0.05443293933136285
3764,11.0,299.79393999999996,-4021.2109,0.0,0.0,0.03764054565161823,0.0,0.0,0.0,0.3053702145926937,0.3072691162076007,0.6097083731635313,0.004082845073745437,0.004745161067860935,0.06101674565188394
3765,11.0,300.20923999999997,-4197.524,0.0,0.0,0.03765055007199214,0.0,0.0,0.0,0.33377134131816666,0.32771585474553666,0.6144552978945164,-0.0025153044098912176,-0.0006115743441501885,0.06394284880741785
3766,11.0,301.50401,-4288.911,0.0,0.0,0.03766052158308919,0.0,0.0,0.0,0.3300835263867077,0.32373770313042366,0.6499006203751974,-0.0026199337297923273,-0.017032370424214086,0.06719885403651053
3767,11.0,300.4317,-4235.8658,0.0,0.0,0.0376705260034631,0.0,0.0,0.0,0.34489728337871167,0.3117419365215337,0.6309582137307274,-0.0006022048002104864,0.01033005335874689,0.05820011403715404
3768,11.0,300.22286,-4111.3427,0.0,0.0,0.03768053042383723,0.0,0.0,0.0,0.3116739271748217,0.3142243790015317,0.6238472143964264,-0.004651675067259586,0.009937389864719022,0.05867043028307064
3769,11.0,300.1331,-4065.0933,0.0,0.0,0.037690534844211365,0.0,0.0,0.0,0.31336188025140965,0.3007680123734917,0.6215569753278973,-0.019353918920833085,0.013485705284685486,0.06312052137076044
3770,11.0,299.96952999999996,-4145.2237,0.0,0.0,0.0377005392645855,0.0,0.0,0.0,0.3181425360782237,0.31385307350238667,0.6280488687185974,-0.013706881569513886,0.0013060052089926787,0.05677684113843794
3771,11.0,299.62448,-4187.1154,0.0,0.0,0.03771054368495985,0.0,0.0,0.0,0.3229131404640457,0.3269009686176137,0.6229644101143004,0.0027872296299531474,0.02037292225490088,0.06889326455598584
3772,11.0,299.21351,-4130.8993,0.0,0.0,0.037720548105333984,0.0,0.0,0.0,0.3015053848687647,0.3148541139386817,0.6393307398370314,0.001163063788235459,0.014361235444343588,0.05387516845606516
3773,11.0,299.32271000000003,-4016.114,0.0,0.0,0.037730552525707894,0.0,0.0,0.0,0.3028893325178497,0.3181191097359117,0.5997899212471564,-0.0007361447603918312,-0.008013067426003183,0.06685740192506183
3774,11.0,299.72696,-4052.9547,0.0,0.0,0.03774052403680472,0.0,0.0,0.0,0.28289305457687075,0.31784638333899573,0.6312575987377744,0.0009239081707176373,-0.029912564541890268,0.06182225313688134
3775,11.0,299.90134,-4265.6055,0.0,0.0,0.037750528457178856,0.0,0.0,0.0,0.3249021098803417,0.3428327153724547,0.6289027244453663,0.017734672307025884,-0.014071067973456287,0.07145771949907784
3776,11.0,300.26929,-4310.9839,0.0,0.0,0.03776053287755299,0.0,0.0,0.0,0.3292876184331577,0.3379156558171787,0.6432281962141804,0.019628500578682182,-0.019152469602201582,0.07116260838095263
3777,11.0,300.05572,-4104.4176,0.0,0.0,0.03777053729792712,0.0,0.0,0.0,0.3232210367719327,0.2964369964110537,0.6279824299095403,-0.006054465419179214,-0.009059365083314721,0.05597086147889395
3778,11.0,299.80877999999996,-4012.2079,0.0,0.0,0.03778054171830125,0.0,0.0,0.0,0.3052390797647517,0.2985392471885297,0.6158326999479554,-0.010980978395238188,-0.005854401213434415,0.058360613866244145
3779,11.0,299.74054,-4130.6331,0.0,0.0,0.037790546138675385,0.0,0.0,0.0,0.3302468724353287,0.2989919774657107,0.6263704705904524,-0.007955543495301013,0.019086461424437085,0.03227413743070937
3780,11.0,299.77797999999996,-4279.6844,0.0,0.0,0.03780055055904952,0.0,0.0,0.0,0.3261719149056617,0.31918402545851066,0.6555612433838574,-0.013072241488629788,0.024464878068245474,0.048252768280927456
3781,11.0,300.33437999999995,-4306.2912,0.0,0.0,0.037810522070146346,0.0,0.0,0.0,0.3391665637281337,0.33037581864305465,0.6394625940725444,-0.01910524404154078,0.014361427961862587,0.050518478591035657
3782,11.0,299.96025,-4142.9769,0.0,0.0,0.03782052649052048,0.0,0.0,0.0,0.32312064395202467,0.3115570082457827,0.6246838854014993,-0.01351137192296859,-0.002083660069941238,0.06326013000928875
3783,11.0,299.89783,-4152.1776,0.0,0.0,0.03783053091089439,0.0,0.0,0.0,0.3222852192445747,0.33484890240201365,0.6050241990112394,0.005575991192732485,0.0013515242538350589,0.05971488038014985
3784,11.0,300.06472,-4244.6028,0.0,0.0,0.03784053533126874,0.0,0.0,0.0,0.3240595924221917,0.3266553061308687,0.6395383547825214,0.030133695230464174,-0.011167058736352887,0.06042573713355594
3785,11.0,299.2982,-4250.444,0.0,0.0,0.037850539751642875,0.0,0.0,0.0,0.3369195195113677,0.3266162656045157,0.6284930471649344,0.007809330188645883,-0.011631866954725888,0.06457826503787853
3786,11.0,299.88832,-4010.2542,0.0,0.0,0.03786054417201701,0.0,0.0,0.0,0.2851251634871627,0.3103043778096577,0.6235876095883054,-0.002288970682053818,-0.021709080976269477,0.06863522319276914
3787,11.0,299.64294,-3900.3349,0.0,0.0,0.03787054859239136,0.0,0.0,0.0,0.29323570364761076,0.2992491808710947,0.5931195235863395,0.003816001910885066,0.002872142217483367,0.07160869883022833
3788,11.0,299.33,-4084.5578,0.0,0.0,0.037880553012765494,0.0,0.0,0.0,0.31519101959693174,0.31040235909432773,0.6160102112329744,0.01149430609464969,0.008519709397279852,0.062289877177282245
3789,11.0,300.72105,-4245.4805,0.0,0.0,0.0378905245238621,0.0,0.0,0.0,0.3361507565279967,0.3202468032233987,0.6341225026005184,0.0010414198713301391,0.011845658672825488,0.07145994966254794
3790,11.0,300.48277,-4244.6214,0.0,0.0,0.03790052894423601,0.0,0.0,0.0,0.32573210356725574,0.3154329634558097,0.6490938605130764,-0.007266307675178733,0.005964776472002604,0.05440451766605785
3791,11.0,299.84601000000004,-4130.2161,0.0,0.0,0.037910533364610144,0.0,0.0,0.0,0.3201536855392087,0.3214170766913957,0.6139118108058784,-0.01014040029777959,0.011517812483719591,0.06307835395459885
3792,11.0,300.52822000000003,-4099.8682,0.0,0.0,0.037920537784984276,0.0,0.0,0.0,0.3038304898732347,0.3182532944466547,0.6241737646386544,0.0014556191856334286,0.001175201207208329,0.06376538109215314
3793,11.0,300.24068,-4188.244000000001,0.0,0.0,0.03793054220535863,0.0,0.0,0.0,0.3348182009239837,0.32090290292815066,0.6174004916951844,-0.002668547645740148,-0.012734295222527088,0.05484161450744595
3794,11.0,299.92695,-4255.1332,0.0,0.0,0.037940546625732985,0.0,0.0,0.0,0.3252514379848177,0.3349684152513087,0.6332343990203694,-0.003789790853323236,-0.007361700308493252,0.058428622199706036
3795,11.0,299.75435,-4097.9292,0.0,0.0,0.03795055104610712,0.0,0.0,0.0,0.3210217774298827,0.3053794756986077,0.6192668882468834,-0.006294532029596944,0.006766291751606004,0.05316787125026035
3796,11.0,299.51392000000004,-4037.0321,0.0,0.0,0.03796055546648103,0.0,0.0,0.0,0.3054498965805577,0.3066959510235337,0.6150111263693724,0.008646715433714373,0.0010463000891117792,0.054897605694721845
3797,11.0,299.74942000000004,-4165.4513,0.0,0.0,0.037970526977577856,0.0,0.0,0.0,0.3202018655814637,0.3179219717964557,0.6280693465031184,0.007700764493431283,-0.006843475470023444,0.049668388101638254
3798,11.0,300.0218,-4320.6479,0.0,0.0,0.03798053139795177,0.0,0.0,0.0,0.3209368569390017,0.3316054483019097,0.6608267596485233,0.014572394738683384,-0.008606916894961562,0.052801076740560546
3799,11.0,299.93422999999996,-4411.8037,0.0,0.0,0.0379905358183259,0.0,0.0,0.0,0.35848620338483367,0.34462751567208766,0.6379644531371894,0.02042539037157908,0.0015201720322792986,0.05537885186946715
3800,11.0,299.94081,-4331.4091,0.0,0.0,0.03800054023870025,0.0,0.0,0.0,0.3282345273392257,0.3268792749329727,0.6615264189750744,0.004591430661363926,-0.005340541861695444,0.048317796645845255
3801,11.0,300.16652,-4110.7661,0.0,0.0,0.038010544659074386,0.0,0.0,0.0,0.3275279880444957,0.3071156088174507,0.6149266618410364,0.003925468284113557,-0.0028287216135980875,0.06737784466667553
3802,11.0,300.54949,-4058.1995,0.0,0.0,0.03802054907944874,0.0,0.0,0.0,0.2978858832590477,0.3109864977769777,0.6247189235899574,-0.01333866040367329,0.0006548931265329194,0.05803628365498524
3803,11.0,299.73629,-4215.9664,0.0,0.0,0.03803055349982265,0.0,0.0,0.0,0.3317141295076357,0.3284838375263307,0.6213505560175254,-0.003939512842424647,0.018391274583827482,0.07180587831293843
3804,11.0,300.50166,-4145.804,0.0,0.0,0.03804052501091926,0.0,0.0,0.0,0.30647360342158975,0.33553416344464365,0.6182131385403864,-0.01979045746141608,0.0016019994759050387,0.06297413814206354
3805,11.0,300.48514,-3942.2302,0.0,0.0,0.03805052943129339,0.0,0.0,0.0,0.3011849951871447,0.30747380286030174,0.5896807452644585,-0.00987962650301822,-0.003978649424887126,0.07003454488562143
3806,11.0,300.315,-4076.7092,0.0,0.0,0.03806053385166752,0.0,0.0,0.0,0.2833001075395437,0.3332316336524017,0.6226860601793295,-0.0038400192819803966,-0.005272601213340225,0.06498121028464614
3807,11.0,300.34227999999996,-4255.9628,0.0,0.0,0.038070538272041876,0.0,0.0,0.0,0.3271824292303917,0.3353295274544477,0.6311944529915424,0.019610894344944584,0.0008086128128438712,0.05645025036620594
3808,11.0,300.35656,-4352.7968,0.0,0.0,0.03808054269241601,0.0,0.0,0.0,0.3435017036184787,0.3263983864355127,0.6532414478099114,0.014379730298418885,-0.0038346513869256266,0.04878729519893116
3809,11.0,300.45251,-4296.5021,0.0,0.0,0.03809054711279014,0.0,0.0,0.0,0.3359831649614567,0.32494980356254866,0.6450963659535544,0.004112502194897366,-0.012416277559391188,0.05350105118789265
3810,11.0,300.43858,-4149.8627,0.0,0.0,0.03810055153316427,0.0,0.0,0.0,0.3310630757883817,0.3033865140769177,0.6270050285980784,0.015323915245102683,-0.01129139870912429,0.06054506861108303
3811,11.0,299.67956000000004,-4231.3738,0.0,0.0,0.038110555953538405,0.0,0.0,0.0,0.3419225026751237,0.3217142933432287,0.6225951817778604,0.004886004959586146,-0.004895554233828586,0.055081023214573754
3812,11.0,299.62374,-4377.5105,0.0,0.0,0.03812052746463501,0.0,0.0,0.0,0.34354966074571164,0.3308742768972487,0.6562299377873524,-0.01124617533066109,0.01061509175762799,0.06595808875905654
3813,11.0,300.01039,-4307.0947,0.0,0.0,0.038130531885009145,0.0,0.0,0.0,0.35001957674174267,0.3188780340608117,0.6403516399752863,-0.024455728419842476,-0.004898837468127615,0.054544202298343655
3814,11.0,300.02875,-4041.5375,0.0,0.0,0.03814053630538328,0.0,0.0,0.0,0.2901719393202407,0.3191110714513107,0.6192434517720704,-0.018060760507208284,0.006664733187457954,0.05731742830528975
3815,11.0,300.00865,-3966.8478,0.0,0.0,0.03815054072575763,0.0,0.0,0.0,0.28715743921273273,0.3221111124798917,0.5965541171853075,-0.005456108608475995,-0.004181741829880786,0.06398387327746664
3816,11.0,300.59247999999997,-4207.9869,0.0,0.0,0.038160545146131764,0.0,0.0,0.0,0.3271581618904967,0.3242450982504997,0.6277196840261093,-0.007449374205195993,-0.0025904955719870076,0.05389784904630354
3817,11.0,300.25966,-4388.0817,0.0,0.0,0.038170549566505896,0.0,0.0,0.0,0.33976129087432866,0.3496559212808527,0.6444500745097704,0.009170513755684243,-0.012628509885586886,0.06277581469999054
3818,11.0,300.24875,-4261.0542,0.0,0.0,0.03818055398688003,0.0,0.0,0.0,0.32802907061644865,0.32938972364573466,0.6378352738819404,0.0021887908473168377,-0.008297080111808052,0.06359806208989004
3819,11.0,300.88735,-4061.8831,0.0,0.0,0.03819055840725416,0.0,0.0,0.0,0.30331921400527573,0.3115250199401257,0.6198668032335903,0.01750235229759768,-0.002032909614832558,0.056010510968557047
3820,11.0,300.07563,-4186.5508,0.0,0.0,0.03820052991835077,0.0,0.0,0.0,0.3157206150266987,0.3173427575092917,0.6395435223580315,0.0075291104019403424,0.012766753676230489,0.05655436789348154
3821,11.0,299.55597,-4345.138,0.0,0.0,0.0382105343387249,0.0,0.0,0.0,0.3277113356500907,0.32492845438294166,0.6681736537386054,0.0017119495747312682,0.014080909671677586,0.06199274057220715
3822,11.0,300.21098,-4220.7757,0.0,0.0,0.03822053875909903,0.0,0.0,0.0,0.33797182027022166,0.3264559795711967,0.6185826201893514,-0.023071626756742274,0.012217664327789588,0.07824059501374551
3823,11.0,300.08897,-4049.6548,0.0,0.0,0.038230543179473164,0.0,0.0,0.0,0.31108003089370867,0.3062868208981557,0.6136270875277784,-0.012243022938042289,0.014199149878846988,0.06998503343273503
3824,11.0,300.06699,-3973.6811,0.0,0.0,0.03824054759984752,0.0,0.0,0.0,0.2999134575041537,0.3039595171409687,0.6040268670703104,-0.014739283109653984,0.014595993333512384,0.06984741887040352
3825,11.0,300.52445,-4192.8398,0.0,0.0,0.03825055202022165,0.0,0.0,0.0,0.3204018507537007,0.3290409832263167,0.6250757700101754,-0.007603503021632322,-0.012761381424200288,0.052465109351903155
3826,11.0,299.80391000000003,-4460.5357,0.0,0.0,0.03826055644059578,0.0,0.0,0.0,0.3265858681015157,0.3442168048765537,0.6850887901129994,-0.006879490228927822,-0.011888364124790189,0.04299804211657637
3827,11.0,300.1412,-4334.0798,0.0,0.0,0.03827052795169239,0.0,0.0,0.0,0.32430645054405466,0.3401056945833187,0.6530398921000193,0.007494443063018942,-0.0094641289113618,0.03786454626043976
3828,11.0,299.4087,-4201.434,0.0,0.0,0.038280532372066745,0.0,0.0,0.0,0.3156757179147677,0.31646313483247973,0.6449921531807693,0.008810168988170981,-0.0036636089945200566,0.032181740167340475
3829,11.0,298.84369,-4401.6718,0.0,0.0,0.038290536792440655,0.0,0.0,0.0,0.35755404369033666,0.3365585491632427,0.6438857347340744,0.001133049901723319,-6.574289064981813e-05,0.048922660346040654
3830,11.0,298.95396,-4528.4578,0.0,0.0,0.03830054121281479,0.0,0.0,0.0,0.3674602150154997,0.34696748505552466,0.6621103955377085,-0.011451899551464488,0.010845260637093889,0.055535679680194856
3831,11.0,299.12012000000004,-4319.1651,0.0,0.0,0.03831054563318892,0.0,0.0,0.0,0.34355201148594366,0.3257195190010137,0.6436468002279934,0.005892847063303724,0.003192083130634077,0.07258751058582952
3832,11.0,299.28487,-4030.6682,0.0,0.0,0.03832055005356305,0.0,0.0,0.0,0.2939411384997317,0.3117659708139057,0.6195153675689063,-0.013972415917220088,0.007848466467133332,0.06498480225625064
3833,11.0,299.50394,-3920.2863,0.0,0.0,0.038330554473937406,0.0,0.0,0.0,0.2874389707530177,0.29984567107246374,0.6043845240906085,-0.003311167780436817,-0.00884896086294944,0.08474972986814712
3834,11.0,299.98137,-4168.3292,0.0,0.0,0.038340558894311316,0.0,0.0,0.0,0.3216466386340517,0.32025177828138973,0.6251695767044334,-0.005967390049310545,-0.004015195430818936,0.06599359506906073
3835,11.0,300.74824,-4180.1867,0.0,0.0,0.038350530405408145,0.0,0.0,0.0,0.3207169107397947,0.3215313409051727,0.6284241360256334,0.005215713502375845,-0.003263713934528487,0.07655977521786152
3836,11.0,299.62767,-4103.9237,0.0,0.0,0.03836053482578228,0.0,0.0,0.0,0.3079559072578817,0.3166642548448287,0.6228701879875015,-0.005982231832800314,0.0006516847815487803,0.047392198758995856
3837,11.0,300.0677,-4134.854,0.0,0.0,0.03837053924615641,0.0,0.0,0.0,0.2976051724513437,0.3344971019672937,0.6247900942769814,-0.002128982949564258,0.0008230151092352672,0.06392822862172494
3838,11.0,300.39712000000003,-4325.7623,0.0,0.0,0.03838054366653054,0.0,0.0,0.0,0.3156842393481087,0.3435768969083997,0.6556625785263585,0.004717353736091566,0.004923903249101415,0.048457027342086255
3839,11.0,300.66533,-4526.3905,0.0,0.0,0.038390548086904674,0.0,0.0,0.0,0.35907510434295364,0.3494734045403397,0.6673611791459203,0.011563237498952689,-0.005652750156708005,0.047197700336050356
3840,11.0,300.05149,-4365.5725,0.0,0.0,0.03840055250727881,0.0,0.0,0.0,0.34457852502975267,0.33248610449382365,0.6499603919985963,0.014147468044246386,0.004992543040025636,0.05016058244371405
3841,11.0,299.54617,-4108.1649,0.0,0.0,0.03841055692765294,0.0,0.0,0.0,0.3230988793398767,0.3190071221235517,0.6066735573915184,0.0003181148439529907,-0.01033911890739159,0.06654946914017124
3842,11.0,299.36335,-4116.3526,0.0,0.0,0.03842056134802707,0.0,0.0,0.0,0.31415495110467967,0.30476077505504673,0.6323526890483514,0.008745241036338091,0.0016089748922434584,0.06430372492328353
3843,11.0,300.44275,-4259.0115,0.0,0.0,0.0384305328591239,0.0,0.0,0.0,0.33656918828929266,0.3296202887059897,0.6284436917525634,-0.0012587520879291589,-0.00023677672919804373,0.07434608516788734
3844,11.0,299.59828999999996,-4383.8534,0.0,0.0,0.03844053727949803,0.0,0.0,0.0,0.3455704056851437,0.3336668043053497,0.6533447689226084,0.002804699480227287,0.008289417407926802,0.06020314128533745
3845,11.0,299.95207999999997,-4266.891,0.0,0.0,0.03845054169987194,0.0,0.0,0.0,0.33873465574050765,0.3286663340018417,0.6296273198568784,-0.016263934720625383,-0.002928694137364607,0.05991971699386565
3846,11.0,299.99388999999996,-4134.7362,0.0,0.0,0.0384605461202463,0.0,0.0,0.0,0.3156408823763297,0.3329652603336127,0.6082504177271424,-0.016824296476428784,0.014500496538087588,0.04953684594715605
3847,11.0,300.7974,-4327.1992,0.0,0.0,0.03847055054062043,0.0,0.0,0.0,0.3359442358926147,0.3345289585504377,0.6448873020604213,-0.014998115821198785,0.006715354149203853,0.04267573131276676
3848,11.0,300.8015,-4489.6283,0.0,0.0,0.03848055496099456,0.0,0.0,0.0,0.34669626840125767,0.35134376289992963,0.6666948760126614,-0.006009140209080964,0.008344933482230811,0.04021682359284146
3849,11.0,300.54208,-4261.8618,0.0,0.0,0.038490559381368916,0.0,0.0,0.0,0.3017161307570637,0.3298648062201217,0.6639186315336674,0.006146167896954545,-0.01875755841547688,0.051057551962238046
3850,11.0,299.63011,-4042.3853,0.0,0.0,0.03850053089246552,0.0,0.0,0.0,0.2967895466508477,0.3141620134578767,0.6178326124653314,0.005140935239695805,-0.006266225672153324,0.06739312245168333
3851,11.0,299.94117,-4032.1306,0.0,0.0,0.038510535312839655,0.0,0.0,0.0,0.30320739172423977,0.31014923908684666,0.6123103791553295,0.012661177068810887,-0.015606377962229587,0.07888034390163383
3852,11.0,299.76981,-4263.8054,0.0,0.0,0.038520539733213566,0.0,0.0,0.0,0.3457018039581117,0.3275015523493867,0.6228870079391614,0.0076308352404298035,-0.003272684541638817,0.07069341785589713
3853,11.0,300.04326000000003,-4310.2871,0.0,0.0,0.0385305441535877,0.0,0.0,0.0,0.33961853406773973,0.3304070064811327,0.6401941201147404,-0.0013892125979296085,-0.008061562285064251,0.08086222056722983
3854,11.0,300.09559,-4108.3916,0.0,0.0,0.03854054857396183,0.0,0.0,0.0,0.3070834685242787,0.3181835929722757,0.6235814084976934,-0.0025899140677546175,0.006554027406707144,0.07834671573646883
3855,11.0,300.74622,-4016.2268,0.0,0.0,0.038550552994336185,0.0,0.0,0.0,0.27958979845586474,0.3161507802241527,0.6250921036017874,-0.010168897956842091,-0.0005151899720352915,0.07096204058990813
3856,11.0,300.26833,-4223.2305,0.0,0.0,0.03856055741471054,0.0,0.0,0.0,0.32793223430439167,0.3152247506927607,0.6405996329372614,-0.008414500498321542,0.005496267458964365,0.05645116026479575
3857,11.0,300.12936,-4419.1037,0.0,0.0,0.03857056183508467,0.0,0.0,0.0,0.3544962778035587,0.3436665087472437,0.6451343830973064,0.003966707056558506,0.0013820044380432187,0.044695571419859456
3858,11.0,300.50962000000004,-4294.7925,0.0,0.0,0.038580533346181056,0.0,0.0,0.0,0.3466778272494377,0.3162081504448147,0.6426237013370214,-0.0072072350930237235,0.02162969485743468,0.03633392457987916
3859,11.0,300.36742000000004,-4139.7673,0.0,0.0,0.03859053776655519,0.0,0.0,0.0,0.3081512720096627,0.31628243180964566,0.6339521853912095,-0.0008914509430468581,0.014694407275975088,0.04102181229378766
3860,11.0,300.16086,-4194.0139,0.0,0.0,0.03860054218692932,0.0,0.0,0.0,0.3181335890798407,0.3098194261792967,0.6469224959462795,0.01066145605570379,0.002230861194118858,0.04521963045108006
3861,11.0,300.14182999999997,-4485.6299,0.0,0.0,0.03861054660730345,0.0,0.0,0.0,0.3388373283731407,0.3366101337258337,0.6880720010574193,0.010885231327038688,-0.014191694384611186,0.05274148648892946
3862,11.0,299.69335,-4546.5231,0.0,0.0,0.03862055102767781,0.0,0.0,0.0,0.3681586280444276,0.3544550993194947,0.6594157683542693,0.018247829780420582,-0.0059078445833338645,0.06851295126345185
3863,11.0,300.08665,-4209.3844,0.0,0.0,0.03863055544805194,0.0,0.0,0.0,0.34563621627913865,0.3108753239760057,0.6230362090163865,0.00887387404845818,-0.004455317938330646,0.06571500702031623
3864,11.0,299.97501,-4042.6406,0.0,0.0,0.038640559868426294,0.0,0.0,0.0,0.32802613219115867,0.3049386207125987,0.5958970447604593,-3.370791874621257e-05,-0.00029185406620875373,0.06991696025126673
3865,11.0,299.73106,-4176.8311,0.0,0.0,0.038650564288800204,0.0,0.0,0.0,0.3209771538954787,0.32015477984931673,0.6285204251826364,0.00033424436699485067,-0.000909294864992916,0.07008516990036773
3866,11.0,299.47926,-4338.6328,0.0,0.0,0.03866053579989681,0.0,0.0,0.0,0.31512598920551366,0.34616974311929366,0.6575403032141753,-0.007071394630292313,0.017307314825598982,0.07009085524667884
3867,11.0,299.04736,-4196.9411,0.0,0.0,0.038670540220270944,0.0,0.0,0.0,0.2926407738513957,0.3400480507851297,0.6430764721442064,-0.024243764604923276,0.002885906409491787,0.061755046284248535
3868,11.0,299.98579,-3990.6368,0.0,0.0,0.038680544640645076,0.0,0.0,0.0,0.28478171223326676,0.31453380531706976,0.6137384031837645,-0.025923698820219873,-0.008377752754294822,0.05325657420376466
3869,11.0,300.25413,-4180.2936,0.0,0.0,0.03869054906101943,0.0,0.0,0.0,0.31629727592361073,0.3319492339283387,0.6224583727493584,-0.019537681958969082,-0.01066250780930759,0.06334598066376154
3870,11.0,300.12176,-4526.4397,0.0,0.0,0.03870055348139356,0.0,0.0,0.0,0.37072058025977267,0.35004265857902067,0.6551614148943974,0.006597289740926805,0.013704098171489187,0.060756026268652945
3871,11.0,300.6375,-4473.5897,0.0,0.0,0.038710557901767695,0.0,0.0,0.0,0.3473846705191977,0.3512334402290417,0.6612414727819524,-0.01133192060712349,0.012611102248868888,0.05856917316082735
3872,11.0,300.25841,-4161.2291,0.0,0.0,0.03872056232214183,0.0,0.0,0.0,0.31039053446566073,0.3252350334656987,0.6292841928430144,0.01018307636549139,0.005832724146095055,0.07020664845485673
3873,11.0,299.99506,-4106.0753,0.0,0.0,0.03873056674251596,0.0,0.0,0.0,0.3049469192309177,0.3098509281249057,0.6333465151439344,0.002178343732160788,-0.009198869965032781,0.06295764952318623
3874,11.0,300.20763,-4198.4429,0.0,0.0,0.038740538253612566,0.0,0.0,0.0,0.3378042692336857,0.3121409138809097,0.6262766334986914,0.02215477017850558,0.0007931133084491893,0.06146305496318124
3875,11.0,300.22542999999996,-4297.2346,0.0,0.0,0.0387505426739867,0.0,0.0,0.0,0.3469352637023447,0.32534052293360965,0.6339762298160824,0.0067564802482376835,-0.011949419536065887,0.06175589538783234
3876,11.0,300.1978,-4221.8387,0.0,0.0,0.03876054709436083,0.0,0.0,0.0,0.3495220912076447,0.3126372240448917,0.6211742302351234,-0.012242895268529688,-0.015031390954482787,0.059034689641020245
3877,11.0,299.82771,-4141.2653,0.0,0.0,0.038770551514735185,0.0,0.0,0.0,0.30588795499629073,0.32376426041554474,0.6291890486586245,-0.02282792794869108,-0.0031412591135681375,0.06480840655959175
3878,11.0,299.69453,-4291.4645,0.0,0.0,0.03878055593510932,0.0,0.0,0.0,0.31357426760487067,0.3428036452270857,0.6481201372994774,-0.008188579872549912,0.017746706678463585,0.06446229349768304
3879,11.0,299.81945,-4457.9676,0.0,0.0,0.03879056035548345,0.0,0.0,0.0,0.3310702090690857,0.35107809885621066,0.6729625371562313,-0.007384963821514182,0.02599067769158018,0.044252031321085454
3880,11.0,299.74074,-4480.1079,0.0,0.0,0.03880056477585758,0.0,0.0,0.0,0.35086754548543064,0.35099913627591767,0.6599742616768883,0.0011990516960121889,0.00036571211541297564,0.059602452175554044
3881,11.0,299.25295,-4217.0887,0.0,0.0,0.03881053628695419,0.0,0.0,0.0,0.3326862416535757,0.3113426247896247,0.6378607875194584,-0.0014793510228505785,0.014755778821281986,0.05486149042140755
3882,11.0,299.42082999999997,-4031.3766,0.0,0.0,0.03882054070732832,0.0,0.0,0.0,0.3206503604732267,0.3049229558660527,0.5998644964545163,0.008494367404328792,0.00967564598431191,0.07494057116055854
3883,11.0,299.91281000000004,-4123.4805,0.0,0.0,0.038830545127702454,0.0,0.0,0.0,0.3081426087213077,0.3185004565435477,0.6267920332945573,0.012871615942329589,0.002219967336993718,0.06029782646743214
3884,11.0,300.52816,-4211.505999999999,0.0,0.0,0.038840549548076586,0.0,0.0,0.0,0.3203046902016117,0.31308403694148873,0.6468039254195774,0.00028514062568368875,-0.01101653131474699,0.07834920123896413
3885,11.0,299.83887000000004,-4226.8647,0.0,0.0,0.03885055396845072,0.0,0.0,0.0,0.3068276532715317,0.3351030457920957,0.6429306350573134,-0.012413128378080387,-0.012703174258955688,0.06440595983187333
3886,11.0,300.45259,-4173.7058,0.0,0.0,0.03886055838882507,0.0,0.0,0.0,0.3196763940796037,0.3115779014628447,0.6374480400912235,0.0007551203509770763,-0.011153516648766388,0.06682212055657985
3887,11.0,300.14977000000005,-4243.9247,0.0,0.0,0.038870562809199205,0.0,0.0,0.0,0.31793351271509473,0.33285952768567767,0.6392541178644693,-0.011498984270361388,-0.005907571917731954,0.04963494071583725
3888,11.0,300.21851000000004,-4381.0605,0.0,0.0,0.03888056722957334,0.0,0.0,0.0,0.33492245422677264,0.3490210694306977,0.6477894732618434,0.007055207048019724,-0.012763055313365489,0.05205768756619374
3889,11.0,299.1,-4509.5923,0.0,0.0,0.038890538740669944,0.0,0.0,0.0,0.34213821348891266,0.34492744783418866,0.6837378034896674,-0.009198706629116662,0.0026838657581019273,0.05673340108015074
3890,11.0,299.4005,-4449.8334,0.0,0.0,0.03890054316104408,0.0,0.0,0.0,0.35065708330715967,0.34643130350010765,0.6555498544527334,0.0022231108441039577,0.015498949133627184,0.059696490904084944
3891,11.0,299.53721,-4176.685,0.0,0.0,0.03891054758141821,0.0,0.0,0.0,0.31448070087932867,0.30518522552193666,0.6499420420392854,-0.0065199958822234946,0.017189458640217484,0.04497277739546755
3892,11.0,300.28335,-4126.7526,0.0,0.0,0.03892055200179234,0.0,0.0,0.0,0.33083483107085565,0.3103738665015157,0.6132210376827044,-0.001974273439495618,0.010620560268417688,0.04030541508883476
3893,11.0,300.18748999999997,-4371.4303,0.0,0.0,0.038930556422166473,0.0,0.0,0.0,0.35100128436612965,0.3269639623763307,0.6508404098429473,0.004602768828657916,0.004190618812681876,0.05203971554917004
3894,11.0,300.30492999999996,-4352.9343,0.0,0.0,0.038940560842540606,0.0,0.0,0.0,0.3597685727113937,0.3213957072467867,0.6420190544723474,0.002354500301796088,-0.006742129181771344,0.06969437048254884
3895,11.0,299.74756,-4180.6754,0.0,0.0,0.03895056526291496,0.0,0.0,0.0,0.3113436380397247,0.3279654385101687,0.6315118434528664,0.006818611933769603,-0.009823042057808772,0.07531872724362963
3896,11.0,300.33109,-4152.041,0.0,0.0,0.03896056968328887,0.0,0.0,0.0,0.30429880393695374,0.3257108151826547,0.6321071582841193,-0.0009086554636498122,-0.02065824740356028,0.07722806432131653
3897,11.0,300.04927999999995,-4308.5322,0.0,0.0,0.0389705411943857,0.0,0.0,0.0,0.31416652242082166,0.3421995657824677,0.6533201064151744,0.005782146551453434,0.0002697074081105487,0.06767991478648754
3898,11.0,299.99027,-4402.7632,0.0,0.0,0.03898054561475983,0.0,0.0,0.0,0.3435140956672017,0.3468241709613807,0.6479917990418114,-0.005045711616497965,-0.002455824805171038,0.05781008570266124
3899,11.0,300.32867999999996,-4278.1141,0.0,0.0,0.038990550035133964,0.0,0.0,0.0,0.3322293063884797,0.3261488026708807,0.6420617629640624,-0.003346727995346337,0.006783544158408684,0.04064787133113257
3900,11.0,300.30185,-4092.9961,0.0,0.0,0.039000554455508096,0.0,0.0,0.0,0.3079568901104787,0.3265824027861737,0.6096293295232303,-0.014142093765715985,0.0032798063726166868,0.07151691964942043
3901,11.0,300.46499,-4134.2063,0.0,0.0,0.03901055887588223,0.0,0.0,0.0,0.29076024246080173,0.34387006055983266,0.6220651810480534,0.01193917253780459,0.005917382610500194,0.07380897648862883
3902,11.0,300.57948999999996,-4367.388,0.0,0.0,0.03902056329625636,0.0,0.0,0.0,0.33937675232887765,0.33922949669184466,0.6489706493009164,0.0002007045798079998,0.003064372986705067,0.07748496577817073
3903,11.0,300.24123,-4404.5225,0.0,0.0,0.03903056771663049,0.0,0.0,0.0,0.34425178227000564,0.3396879822295937,0.6549250945735744,0.01207450222116059,0.004825447155434555,0.06600226241041614
3904,11.0,299.85312999999996,-4098.7551,0.0,0.0,0.03904053922772732,0.0,0.0,0.0,0.3278208477208987,0.3091088136191647,0.6089895532775894,0.002538343184039968,-0.004084859718919267,0.05618061134234465
3905,11.0,299.61987999999997,-4065.2757,0.0,0.0,0.039050543648101455,0.0,0.0,0.0,0.2972678310955507,0.3125498616212697,0.6259246304139514,-0.0076605758533899735,-0.00039962353936227266,0.07957449216089092
3906,11.0,299.96563,-4324.9359,0.0,0.0,0.039060548068475365,0.0,0.0,0.0,0.3373132381027247,0.33320065859684467,0.6441586232510064,0.010331207450610792,-0.0064340630531675835,0.06123597244351994
3907,11.0,299.95023,-4445.5891,0.0,0.0,0.0390705524888495,0.0,0.0,0.0,0.3428117917578897,0.3257301479945627,0.6828061504202204,-0.0004317284397082796,-0.0006925395018083272,0.06004518370074824
3908,11.0,300.1326,-4360.5922,0.0,0.0,0.03908055690922385,0.0,0.0,0.0,0.33311190802058566,0.3442924135990157,0.6481068434581654,-0.008762599023801191,-0.012103010012724088,0.05165911550685775
3909,11.0,300.34479,-4161.7094,0.0,0.0,0.039090561329597984,0.0,0.0,0.0,0.3188886630543607,0.3104256030516217,0.6357414736102984,-0.01022661774878859,-0.01048046121684099,0.05505640427689404
3910,11.0,300.39645,-4245.6489,0.0,0.0,0.039100565749972116,0.0,0.0,0.0,0.3412732525410477,0.3228768863754677,0.6264211229629514,-0.0024057258698766577,-0.0027302329946030175,0.031885653289368966
3911,11.0,300.5073,-4420.2357,0.0,0.0,0.03911057017034647,0.0,0.0,0.0,0.3537351344609397,0.3399134810393487,0.6499926640142815,0.011504506483406389,0.008423597255069321,0.039170465545823964
3912,11.0,301.17511,-4472.4393,0.0,0.0,0.03912054168144308,0.0,0.0,0.0,0.35871068894448865,0.32538784171327967,0.6754113397329093,0.01048544134108249,0.00936501420512994,0.05056589970896575
3913,11.0,300.79145,-4336.1935,0.0,0.0,0.03913054610181721,0.0,0.0,0.0,0.31492638906831466,0.35819103349820264,0.6449771266817864,0.0020942766005140083,-0.004951961360270535,0.07671199780688473
3914,11.0,300.51447,-4095.5951,0.0,0.0,0.03914055052219112,0.0,0.0,0.0,0.3038353838712177,0.3111743746105197,0.6299488849086144,0.0019515696458299282,-0.01030984205900219,0.07552893306962533
3915,11.0,300.73065,-4262.2419,0.0,0.0,0.03915055494256525,0.0,0.0,0.0,0.3288151804415317,0.3212289364128277,0.6455709925653964,0.002064313579156888,-0.006756017192941983,0.058086846861475444
3916,11.0,300.06298,-4400.4348,0.0,0.0,0.039160559362939384,0.0,0.0,0.0,0.35687855037867067,0.33394501238530666,0.6467987375790654,0.0031384019509361565,0.0006167121706372524,0.061673941693244146
3917,11.0,299.68582999999995,-4201.3059,0.0,0.0,0.03917056378331374,0.0,0.0,0.0,0.3130187937675497,0.32700913306578866,0.6370641601583374,-0.0008563136181990741,-0.003065072129274067,0.06487773515793394
3918,11.0,299.90741,-4041.5614,0.0,0.0,0.03918056820368809,0.0,0.0,0.0,0.2857122811251067,0.33305557131502567,0.6097658852392074,-0.016316972283859785,-0.0003663683569727416,0.06138243470572464
3919,11.0,300.50476000000003,-4211.5935,0.0,0.0,0.039190572624062225,0.0,0.0,0.0,0.29868201412761974,0.3351788976945817,0.6463583486881024,0.005458698577056604,-0.0032046214926715172,0.062317369692245536
3920,11.0,299.79767000000004,-4453.5713,0.0,0.0,0.03920054413515861,0.0,0.0,0.0,0.3472208583755307,0.34923393301170563,0.6573196882699024,0.001622748406152798,0.008913295556848782,0.05518803357088485
3921,11.0,299.62198,-4476.5659,0.0,0.0,0.03921054855553274,0.0,0.0,0.0,0.3394559378241927,0.36511330486887766,0.6561950110564053,-0.0038288100000991266,-0.006771736653668374,0.07689173216262313
3922,11.0,300.14645,-4317.5201,0.0,0.0,0.039220552975906875,0.0,0.0,0.0,0.3357954806454337,0.3279316060893297,0.6486912151883384,-0.0097920206967222,-0.00045671732513199054,0.05011133443585366
3923,11.0,299.91737,-4176.9312,0.0,0.0,0.03923055739628101,0.0,0.0,0.0,0.3207526582033227,0.3133065162659457,0.6356236123586664,-0.012795563416323787,0.01070731372872959,0.05711579457514004
3924,11.0,300.25877,-4238.9595,0.0,0.0,0.03924056181665536,0.0,0.0,0.0,0.33526582442066066,0.3164446227531527,0.6368273940074703,-0.004586547505156996,0.01010456863316828,0.05768600613516554
3925,11.0,300.49216,-4443.5731,0.0,0.0,0.039250566237029494,0.0,0.0,0.0,0.3454371734294947,0.3329551278326127,0.6723429549850833,0.001038140284731469,-0.0032928818585321374,0.058911764165388444
3926,11.0,300.01214,-4357.1754,0.0,0.0,0.03926057065740385,0.0,0.0,0.0,0.34182610206060965,0.3317604958322117,0.6508859149049384,-0.008506307644832203,-0.012268526443059289,0.06146988933510574
3927,11.0,300.02643,-4112.8296,0.0,0.0,0.03927054216850023,0.0,0.0,0.0,0.3047746160514127,0.3107677978753937,0.6346550972505814,0.008833249406898842,-0.01927987769627578,0.04827746219911455
3928,11.0,300.35388,-4153.0961,0.0,0.0,0.039280546588874365,0.0,0.0,0.0,0.3231070765331857,0.3052727804630777,0.6340576444616174,0.0037416858929006465,-0.003485315176448827,0.05032589723727936
3929,11.0,300.15604,-4428.669,0.0,0.0,0.0392905510092485,0.0,0.0,0.0,0.33392586195841667,0.35394053038871065,0.6583383795229394,0.01062294849890339,-0.002894745800714167,0.04281292233655646
3930,11.0,299.84517,-4474.3492,0.0,0.0,0.03930055542962263,0.0,0.0,0.0,0.34873452230241764,0.34355230532847264,0.6678036148020854,-0.015473308839846683,-0.0057238815296281245,0.05513120239927604
3931,11.0,299.67162,-4354.2011,0.0,0.0,0.039310559849996984,0.0,0.0,0.0,0.3154561871481017,0.34883590810742365,0.6592763046105053,-0.007954085529732122,0.008088322017555232,0.06344249678878694
3932,11.0,299.47516,-4230.7008,0.0,0.0,0.03932056427037112,0.0,0.0,0.0,0.3378655911297377,0.3218996573165227,0.6262621541547624,-0.016489019111089482,0.006324996508428554,0.07482691287034134
3933,11.0,299.1028,-4272.9201,0.0,0.0,0.03933056869074525,0.0,0.0,0.0,0.3210290019030957,0.3248544871256417,0.6529775164238634,-0.0024062908581324177,0.008229340593597681,0.08089042134401302
3934,11.0,299.48231,-4402.7569,0.0,0.0,0.03934057311111938,0.0,0.0,0.0,0.3406036664774647,0.35600033611949766,0.6417241480307424,-0.012884990843649588,-0.0007400173617440271,0.07434943395946783
3935,11.0,300.29476,-4316.7996,0.0,0.0,0.03935054462221599,0.0,0.0,0.0,0.3217774289569597,0.3195166957313427,0.6709051733581853,0.014436889763060085,-0.003936505414802836,0.05974896510026374
3936,11.0,300.15171000000004,-4133.0525,0.0,0.0,0.03936054904259012,0.0,0.0,0.0,0.3033998079182297,0.3303949792024457,0.6225499604258974,-0.0049049075455016855,-0.003103572491998757,0.05827639251793215
3937,11.0,300.66294,-4061.6588,0.0,0.0,0.03937055346296425,0.0,0.0,0.0,0.29170249412629473,0.3198668547009007,0.6230734966200664,0.009527951306010581,-0.017729309174246585,0.07724704553543983
3938,11.0,300.74463,-4397.2762,0.0,0.0,0.039380557883338385,0.0,0.0,0.0,0.3417217676978127,0.3353397815454597,0.6596006155700124,-0.006957406425842554,-0.012468964538090987,0.06173326951309934
3939,11.0,300.33324,-4558.1122,0.0,0.0,0.03939056230371274,0.0,0.0,0.0,0.3517579086133027,0.36309116164430766,0.6707032123482534,0.007799799963505322,-0.01087325572410679,0.056479007417294044
3940,11.0,300.23111,-4336.6364,0.0,0.0,0.03940056672408687,0.0,0.0,0.0,0.3365605452659397,0.3312399993883427,0.6504286553998104,0.007995078487702813,0.0012829618752184786,0.049890308112040045
3941,11.0,300.12066,-4257.5377,0.0,0.0,0.039410571144461004,0.0,0.0,0.0,0.3215700267939907,0.3368285296523877,0.6357866139022534,-0.01101863786170489,0.004637036744389896,0.05232699728377254
3942,11.0,300.08656,-4371.435,0.0,0.0,0.039420575564835136,0.0,0.0,0.0,0.3426127590407467,0.3333618362902517,0.6528324798045494,-0.0082796527167131,0.012684895227151688,0.05139218996676425
3943,11.0,299.62425,-4477.6158,0.0,0.0,0.03943054707593174,0.0,0.0,0.0,0.35078617136989965,0.33798822478934065,0.6723089908417313,-0.006168300217563834,0.01011812287975598,0.05060971365653985
3944,11.0,299.15441,-4373.4206,0.0,0.0,0.0394405514963061,0.0,0.0,0.0,0.34920424478377565,0.32723653678573167,0.6529698765181093,-0.0028887668145240876,0.018103799318455883,0.06618475483292674
3945,11.0,299.97688999999997,-4173.7406,0.0,0.0,0.03945055591668001,0.0,0.0,0.0,0.3187408602622737,0.3063120508256457,0.6436600028767964,-0.003565506829113127,0.0037393870310737662,0.06852034393618144
3946,11.0,300.40659,-4094.9671,0.0,0.0,0.03946056033705414,0.0,0.0,0.0,0.3051665715875957,0.30853864765539374,0.6310625176960214,-0.002171865720296458,-0.0058495166386773444,0.06383213704849144
3947,11.0,300.37945,-4239.1238,0.0,0.0,0.03947056475742827,0.0,0.0,0.0,0.3115087978060247,0.3287552872281207,0.6483236992445673,0.01085760202331189,-0.013723282035632488,0.05646712402012124
3948,11.0,300.38651,-4390.7569,0.0,0.0,0.03948056917780263,0.0,0.0,0.0,0.3350778361296077,0.34098143651224766,0.6586211877583504,0.014204772403651887,-0.00036041363812255666,0.048700708924885754
3949,11.0,299.89178,-4331.3503,0.0,0.0,0.03949057359817676,0.0,0.0,0.0,0.3286718663473877,0.34070422141738865,0.6472462597507324,0.005668689290056074,-0.011494883647206688,0.06285461516026754
3950,11.0,300.30095,-4161.4428,0.0,0.0,0.03950057801855089,0.0,0.0,0.0,0.3086430630781987,0.3385665879464207,0.6177650388161624,-0.002741783640442977,-0.012192661368321988,0.06782375171768314
3951,11.0,300.13568,-4290.4372,0.0,0.0,0.0395105495296475,0.0,0.0,0.0,0.32651740279225866,0.3336969788933277,0.6439713948975284,-0.0006611418297671185,-0.005061867889342465,0.06654106423059174
3952,11.0,299.86928,-4516.6173,0.0,0.0,0.03952055395002163,0.0,0.0,0.0,0.35003425873569166,0.3488579969596037,0.6740466235707223,0.016645017069985283,0.005108881376757335,0.06490541005791524
3953,11.0,300.26056,-4332.9374,0.0,0.0,0.03953055837039576,0.0,0.0,0.0,0.3410614022101397,0.3329428269763987,0.6431005469665824,0.005712459667875875,-0.003104113060927107,0.07237192440180283
3954,11.0,300.5295,-4052.1154,0.0,0.0,0.039540562790769895,0.0,0.0,0.0,0.3188030434209107,0.2962965498146927,0.6166423171753584,0.0025736991277293276,0.003247897708417547,0.06900637569114904
3955,11.0,300.50009,-4015.1147,0.0,0.0,0.03955056721114403,0.0,0.0,0.0,0.2997191667974787,0.3070033508388717,0.6137720836170883,-0.007197572030795054,-0.0005794294001602295,0.07443376676529083
3956,11.0,300.63108,-4284.4404,0.0,0.0,0.03956057163151816,0.0,0.0,0.0,0.3307722932746837,0.3239115667150827,0.6476790391334444,-0.005640140157888494,0.02059638037895448,0.06434546880090335
3957,11.0,299.89295,-4576.6013,0.0,0.0,0.039570576051892514,0.0,0.0,0.0,0.3487018855166967,0.37166298391278063,0.6708076581685614,0.004338809274257136,0.0005176551588660865,0.06845274698226013
3958,11.0,300.101,-4424.3437,0.0,0.0,0.03958054756298912,0.0,0.0,0.0,0.3430278470767127,0.3365360246135197,0.6653261372475774,0.0045409188266537955,-0.007250651238608563,0.05973291927168014
3959,11.0,299.38757000000004,-4224.0655,0.0,0.0,0.039590551983363254,0.0,0.0,0.0,0.3175763825848487,0.3242431426778067,0.6421909320868103,0.005910202011016525,-0.012744070046241788,0.04204314103683496
3960,11.0,299.38344,-4301.8124,0.0,0.0,0.039600556403737386,0.0,0.0,0.0,0.35350701133342566,0.3192948952844527,0.6348416365939914,0.00871222782820494,-0.011059658278753291,0.047876888970831054
3961,11.0,299.48965,-4584.3932,0.0,0.0,0.03961056082411152,0.0,0.0,0.0,0.3661743803735977,0.3491397919449147,0.6782268881832824,0.016810030928270884,-0.015635628466116384,0.05537477353781465
3962,11.0,300.46732000000003,-4473.5042,0.0,0.0,0.03962056524448565,0.0,0.0,0.0,0.36913661704094763,0.33019323097503467,0.6605037253841424,0.006624742637811193,-0.003999936796238026,0.06788956129842803
3963,11.0,300.6055,-4156.5338,0.0,0.0,0.03963056966485978,0.0,0.0,0.0,0.3027732343213917,0.3178033404747477,0.6429059117548734,0.0026826222975792073,0.006047959340287115,0.07083295455366834
3964,11.0,300.48254,-4155.414000000001,0.0,0.0,0.039640574085233915,0.0,0.0,0.0,0.30416955375419774,0.3272292109875087,0.6317433204382115,-0.012943222326896589,0.013825604083730885,0.06843767184727233
3965,11.0,300.02709,-4343.0383,0.0,0.0,0.03965057850560805,0.0,0.0,0.0,0.3287087081210237,0.33571756171274364,0.6557489276998804,-0.001990973321018768,0.003869784314267976,0.07317620281442894
3966,11.0,300.0987,-4463.0037,0.0,0.0,0.039660550016704876,0.0,0.0,0.0,0.35723011776586766,0.35117229058550664,0.6482392853787364,-0.002879915568275537,0.0014118340143621688,0.06398545293437254
3967,11.0,299.66717,-4322.6615,0.0,0.0,0.03967055443707901,0.0,0.0,0.0,0.3279402491126827,0.33425571539597065,0.6517851946336903,0.0003203315514617627,0.007060976494089124,0.06746239633452013
3968,11.0,299.75788,-4296.3731,0.0,0.0,0.03968055885745292,0.0,0.0,0.0,0.3244754606607347,0.3401674217794107,0.6413472797885484,0.00035698831576200365,0.008107853831782872,0.06584545993094094
3969,11.0,299.72087,-4409.6025,0.0,0.0,0.03969056327782705,0.0,0.0,0.0,0.3171533405355977,0.3569538551261026,0.6663018362988714,0.010850749412885592,0.002487430000965228,0.06918892688216544
3970,11.0,299.33686,-4539.5831,0.0,0.0,0.039700567698201406,0.0,0.0,0.0,0.35219606835404565,0.3464918958560877,0.6812319447998583,0.00947960711723938,-0.008029276083877853,0.05688467628033045
3971,11.0,300.10139,-4486.6198,0.0,0.0,0.03971057211857554,0.0,0.0,0.0,0.35176915568941264,0.34133806001744366,0.6707131725967364,0.007821334263905591,-0.005854980691166604,0.036811615260023564
3972,11.0,300.05906,-4290.8387,0.0,0.0,0.03972057653894967,0.0,0.0,0.0,0.3428581479499647,0.3163345331297877,0.6451151414779074,-0.00022709636065766577,-0.007721737250626133,0.048437189931628453
3973,11.0,300.053,-4274.097,0.0,0.0,0.039730580959324024,0.0,0.0,0.0,0.33041246789917167,0.3235449019013957,0.6452614041298423,-0.01071763976049869,-0.00951956331770775,0.06144098738925335
3974,11.0,299.92771,-4397.3517,0.0,0.0,0.03974055247042063,0.0,0.0,0.0,0.35835453153433866,0.32789791552350467,0.6504326678702064,-0.006361652958621264,-0.002371278000926918,0.06646203680229235
3975,11.0,299.99122,-4477.6951,0.0,0.0,0.039750556890794764,0.0,0.0,0.0,0.33271846300675567,0.34925884883166464,0.6791301905149313,-0.007053439939845323,0.004209529200623186,0.06497970256849735
3976,11.0,300.08819,-4350.7884,0.0,0.0,0.039760561311168674,0.0,0.0,0.0,0.3354646646202847,0.3350000185219277,0.6520663512714384,-0.002354488142794888,0.01821762276843938,0.055578720517942645
3977,11.0,299.88842999999997,-4223.1494,0.0,0.0,0.039770565731542806,0.0,0.0,0.0,0.3219222730587547,0.32231108751962767,0.6394986151135994,-0.01053812629328209,0.0099516521704766,0.05793014874676054
3978,11.0,300.06591000000003,-4284.0571,0.0,0.0,0.03978057015191694,0.0,0.0,0.0,0.3451300674566857,0.3234102004331017,0.6337061277369255,-0.004661666017220616,0.004783785047097825,0.03982970024638536
3979,11.0,299.75175,-4509.5597,0.0,0.0,0.03979057457229129,0.0,0.0,0.0,0.35822901011195063,0.3468560174120237,0.6657085175703154,-0.009083388027285602,0.0028839542818491276,0.05706990853111144
3980,11.0,300.26007999999996,-4564.4322,0.0,0.0,0.03980057899266565,0.0,0.0,0.0,0.34787527608511665,0.36465966266660665,0.6749384559112394,-0.005010216553569875,0.004809366065747476,0.06125407618305664
3981,11.0,300.10028,-4405.0411,0.0,0.0,0.03981055050376203,0.0,0.0,0.0,0.32350707727516265,0.36110160454295365,0.6544138187056153,-0.016233585853630186,-0.001916654668584088,0.07641510944808412
3982,11.0,299.72222999999997,-4233.9554,0.0,0.0,0.039820554924136164,0.0,0.0,0.0,0.30935208483567367,0.33347919091683365,0.6441854439811534,-0.003450599404172647,0.00028541090001536274,0.06343135002443684
3983,11.0,299.79992000000004,-4179.5484,0.0,0.0,0.0398305593445103,0.0,0.0,0.0,0.3160004443068157,0.3102865952704027,0.6441913106992324,0.004558577850721605,-0.0013296475762259988,0.05245866913426755
3984,11.0,299.83831000000004,-4388.0381,0.0,0.0,0.03984056376488443,0.0,0.0,0.0,0.34406046038612365,0.3284253831280617,0.6613681695744564,0.018672177909050482,-0.007634009752993102,0.06104160776958764
3985,11.0,300.45091,-4374.9271,0.0,0.0,0.03985056818525856,0.0,0.0,0.0,0.33842670877011566,0.34557905884099765,0.6458628288591983,0.002185943310560808,-0.003961100946405225,0.07739863990940102
3986,11.0,300.73488,-4149.8101,0.0,0.0,0.039860572605632916,0.0,0.0,0.0,0.3182879881300787,0.31970848371027066,0.6234421676689514,0.003059854803184157,-0.011637240220006189,0.09333411441135991
3987,11.0,300.11079,-4286.192,0.0,0.0,0.03987057702600705,0.0,0.0,0.0,0.3171303904208327,0.3424987886694987,0.6432661728279284,0.0025822616990243876,-0.002098077402964118,0.06947149801705303
3988,11.0,300.17387,-4444.5382,0.0,0.0,0.0398805814463814,0.0,0.0,0.0,0.3513803817585437,0.33549937856871065,0.6641488824863914,-0.006329267256275044,0.007789206129734792,0.048578270822552054
3989,11.0,300.89124,-4494.2798,0.0,0.0,0.03989055295747779,0.0,0.0,0.0,0.35331188976166866,0.3514422406771487,0.6613947268595773,-0.015688904143124287,0.009684086357644912,0.04196651197152226
3990,11.0,299.73137,-4415.8219,0.0,0.0,0.03990055737785192,0.0,0.0,0.0,0.3494852291690067,0.3393222496059987,0.6534921157521504,-0.016232529033775884,0.00016301281092811183,0.026516586917483372
3991,11.0,299.71471,-4276.5471,0.0,0.0,0.03991056179822605,0.0,0.0,0.0,0.3308210812669987,0.3302117937168667,0.6389306479025454,-0.013800575793010788,0.005939875242845044,0.06536105038938345
3992,11.0,299.78092999999996,-4426.5081,0.0,0.0,0.039920566218600184,0.0,0.0,0.0,0.3432280247664687,0.3445297775674417,0.6577901200263304,0.014282697415842486,0.010005733887939051,0.061252900812940644
3993,11.0,299.7502,-4534.8914,0.0,0.0,0.03993057063897454,0.0,0.0,0.0,0.34636076102814567,0.35197497718222565,0.6801580010188684,0.013364419247715486,0.005702822646174775,0.08742862229078321
3994,11.0,300.3791,-4305.8638,0.0,0.0,0.03994057505934867,0.0,0.0,0.0,0.32524497344917963,0.3419513904354747,0.6416787037637574,0.016410599632850086,6.359877947096084e-05,0.06247710958376065
3995,11.0,300.49388,-4063.5423,0.0,0.0,0.0399505794797228,0.0,0.0,0.0,0.3045449122537427,0.29318989461058975,0.6374805856844353,0.005698230191421535,-0.005916755206038275,0.07119319941472173
3996,11.0,300.09221,-4206.0216,0.0,0.0,0.039960583900096935,0.0,0.0,0.0,0.3146009432686957,0.3252330576280037,0.6386915512764484,0.002358750683315568,0.00010096824767954021,0.061993779153559636
3997,11.0,300.42158,-4369.1099,0.0,0.0,0.03997055541119354,0.0,0.0,0.0,0.33622702386302367,0.3302704507651557,0.6616028281651154,-0.0022204352558898976,0.002596178587822878,0.06647662557723213
3998,11.0,299.97956,-4466.2931,0.0,0.0,0.039980559831567675,0.0,0.0,0.0,0.33918187393714466,0.35999082912082864,0.6584688861358193,-0.009629566004214172,-0.004268888633881506,0.07628463627245743
3999,11.0,299.89374,-4404.3066,0.0,0.0,0.03999056425194181,0.0,0.0,0.0,0.3311340843553897,0.3582639165778957,0.6494012299309113,-0.0068076289106356646,0.006479612596837973,0.05601527628377735
4000,11.0,299.59828,-4303.8081,0.0,0.0,0.04000056867231594,0.0,0.0,0.0,0.3271239444346197,0.3310731880243797,0.6500530739852434,0.008426799733335382,0.007944811150241813,0.05764119008324254
4001,11.0,299.44652,-4427.4908,0.0,0.0,0.040010573092690294,0.0,0.0,0.0,0.3446796980522377,0.34109426191088266,0.6600726887916023,0.012148557631219288,0.01058450173710899,0.030345260838094072
4002,11.0,299.8199,-4477.1468,0.0,0.0,0.040020577513064426,0.0,0.0,0.0,0.34635628246270367,0.3389302028773067,0.6756543576368934,0.010027314696518911,-0.007588927013643783,0.05374317135228804
4003,11.0,299.90204,-4368.7695,0.0,0.0,0.04003058193343856,0.0,0.0,0.0,0.3411567389120487,0.3195434657989847,0.6672966452470513,0.01082789049062959,-0.004253658066328366,0.04011206873125296
4004,11.0,299.84942,-4186.7445,0.0,0.0,0.04004055344453494,0.0,0.0,0.0,0.30480536819194776,0.3219795622194087,0.6458808545784773,0.007448189006554023,-0.002956344516693487,0.0907644635217551
4005,11.0,300.64159,-4251.1969,0.0,0.0,0.0400505578649093,0.0,0.0,0.0,0.3286369598814427,0.3261324082842627,0.6374883471802014,0.004801239293320426,-0.012606955016209589,0.08100396311046872
4006,11.0,300.39572999999996,-4415.1842,0.0,0.0,0.04006056228528365,0.0,0.0,0.0,0.35004936629468264,0.3286570424984247,0.6633993509899183,-0.0038370067881080866,-0.014104943964049587,0.08165239656496412
4007,11.0,299.98623,-4420.1717,0.0,0.0,0.04007056670565756,0.0,0.0,0.0,0.33857064094682066,0.34315873872463065,0.6618924555736994,-0.0041884045572383455,0.002196924813819598,0.059893551836533346
4008,11.0,300.22217,-4265.8653,0.0,0.0,0.040080571126031694,0.0,0.0,0.0,0.32048974006737474,0.3262181799052277,0.6500086125708554,0.0075869656654252125,0.015504170411392485,0.05216897383792685
4009,11.0,299.80116,-4343.7283,0.0,0.0,0.04009057554640583,0.0,0.0,0.0,0.3387552449825397,0.3371067377323447,0.6445229474569624,-0.0014983933359549086,0.006785709473872384,0.05516845149945225
4010,11.0,299.57,-4487.4819,0.0,0.0,0.04010057996678018,0.0,0.0,0.0,0.34105374203938366,0.35695034928075664,0.6660783639893164,0.0037339334150605363,-0.004965958093176905,0.05719340649304974
4011,11.0,299.97067000000004,-4457.5957,0.0,0.0,0.04011058438715431,0.0,0.0,0.0,0.3476578731436607,0.3400492666852497,0.6672906569389604,-0.007810032472290193,0.0034714595892813872,0.06744404029570854
4012,11.0,300.1282,-4399.4175,0.0,0.0,0.04012055589825092,0.0,0.0,0.0,0.33634633406229864,0.3516298236681617,0.6493369088145634,0.002160040281029378,0.000999235250181841,0.07527353932891992
4013,11.0,299.85716,-4245.8724,0.0,0.0,0.04013056031862505,0.0,0.0,0.0,0.3184568462592437,0.3153833243334107,0.6567990398385184,0.00014521601524420487,-0.012227291216989688,0.05656527958380845
4014,11.0,300.29211000000004,-4169.8421,0.0,0.0,0.040140564738999185,0.0,0.0,0.0,0.3111489926955147,0.3189661361570067,0.6374127384577394,-0.0012682676209432688,-0.008334234979724952,0.07788085880424232
4015,11.0,300.19207,-4406.5548,0.0,0.0,0.04015056915937332,0.0,0.0,0.0,0.33942281467842367,0.33864410157907066,0.6614156910041464,0.005969269324271015,-0.0019349443395141384,0.06148496041709315
4016,11.0,300.18365,-4478.8439,0.0,0.0,0.04016057357974745,0.0,0.0,0.0,0.34594312973442864,0.34033947164639067,0.6751741176194974,0.023469634435772577,0.005542040322956795,0.08429153715967702
4017,11.0,300.35332,-4290.8925,0.0,0.0,0.04017057800012158,0.0,0.0,0.0,0.3407965487665007,0.33508446278526166,0.6284431648625114,0.0038336345904502766,0.010815564303163092,0.06879183112822514
4018,11.0,300.50899,-4329.668,0.0,0.0,0.040180582420495714,0.0,0.0,0.0,0.33891590591839565,0.3253830591728077,0.6518119849663344,0.014702022863726686,-0.0034472704722941063,0.06902210943870184
4019,11.0,299.70712000000003,-4548.6024,0.0,0.0,0.04019058684087007,0.0,0.0,0.0,0.36728551043325763,0.3355482780185367,0.6798277625462763,-0.007942610472349622,0.004192657269233056,0.03378607984567647
4020,11.0,299.59924,-4463.7686,0.0,0.0,0.040200558351966675,0.0,0.0,0.0,0.3335597544322847,0.3574529821253627,0.6658614575404094,-0.008117488219033712,0.016024986029042985,0.045809972250842254
4021,11.0,299.79621000000003,-4255.3433,0.0,0.0,0.04021056277234081,0.0,0.0,0.0,0.33461150803608464,0.30443317103271467,0.6544734180764974,-0.015015167807131684,-0.0077104271503599135,0.05182460863244066
4022,11.0,300.45033,-4317.7677,0.0,0.0,0.04022056719271494,0.0,0.0,0.0,0.3156841076255957,0.34339350877280067,0.6534159497421334,-0.02320765862241758,-0.005459575747668175,0.05829800412931504
4023,11.0,300.01358,-4395.6909,0.0,0.0,0.04023057161308907,0.0,0.0,0.0,0.34291082682266366,0.3368794859999167,0.6563899603756453,-0.010702250517979888,-0.008897513578591221,0.06948972334660172
4024,11.0,300.11287999999996,-4540.5312,0.0,0.0,0.040240576033463205,0.0,0.0,0.0,0.3425871339457177,0.35152251035007065,0.6860984837051484,0.01113699965888629,-0.0075133553761354424,0.06815242066587024
4025,11.0,299.91147,-4533.4541,0.0,0.0,0.04025058045383734,0.0,0.0,0.0,0.35269387812817565,0.35703988005959264,0.6683230979958544,0.019866608272681583,0.0012464822371682188,0.07781112085285972
4026,11.0,299.84213,-4282.3762,0.0,0.0,0.04026058487421147,0.0,0.0,0.0,0.32420638196417867,0.33285136088987166,0.6446777011447354,0.01014133755412209,-0.0048611675651848854,0.05534238803811845
4027,11.0,299.5059,-4180.1448,0.0,0.0,0.0402705563853083,0.0,0.0,0.0,0.3253871729682137,0.32853337532371973,0.6167391028249104,0.006612362950739414,0.0005006846787712305,0.06564447265435504
4028,11.0,299.54082,-4410.4816,0.0,0.0,0.04028056080568243,0.0,0.0,0.0,0.32831919451758174,0.35260977836987567,0.6597473037869894,-0.01342254028670159,0.012466532737850988,0.07418152625889664
4029,11.0,299.71923,-4580.6147,0.0,0.0,0.04029056522605656,0.0,0.0,0.0,0.36136926468936964,0.3456699068449637,0.6853533193166064,-0.016094999584452784,0.012980736898598988,0.05067850016607855
4030,11.0,299.79082,-4444.0642,0.0,0.0,0.04030056964643047,0.0,0.0,0.0,0.32788197709943173,0.36055422657393166,0.6624483549760624,-0.022742274877987776,0.007632356230154914,0.06437300589887103
4031,11.0,299.66426,-4330.0967,0.0,0.0,0.040310574066804605,0.0,0.0,0.0,0.32684039652663566,0.3382559659957647,0.6511449117629994,-0.014352497175481187,0.002167316328672468,0.04371814680364516
4032,11.0,300.20044,-4432.263,0.0,0.0,0.04032057848717896,0.0,0.0,0.0,0.3416839937340847,0.33083797214616567,0.6747753023801373,-0.00897473195016208,0.004352284386012027,0.06017834604214034
4033,11.0,300.34109,-4588.067,0.0,0.0,0.04033058290755309,0.0,0.0,0.0,0.35873511840439964,0.37002321087844764,0.6658994645516604,0.006150513523983425,0.0015058975675205184,0.055534696827597846
4034,11.0,300.51628,-4530.3398,0.0,0.0,0.040340587327927224,0.0,0.0,0.0,0.3399266938206527,0.3461968678244707,0.6909866048375684,0.016740639508422486,-0.0004999718471933795,0.06625612411697035
4035,11.0,300.28157999999996,-4365.1528,0.0,0.0,0.04035055883902383,0.0,0.0,0.0,0.33991934775742766,0.3388465084190467,0.6481315971581084,-0.0004992164489788276,-0.0007086163054474844,0.055963286421146355
4036,11.0,299.35962,-4203.3465,0.0,0.0,0.040360563259398186,0.0,0.0,0.0,0.3041531796325817,0.3337803997740607,0.6397787990312515,0.013289938272614788,-0.007788852910749932,0.07113976465744813
4037,11.0,300.12477,-4255.2657,0.0,0.0,0.040370567679772096,0.0,0.0,0.0,0.3272712102041537,0.3188405539396127,0.6473827445392024,0.004583543522585526,-0.01377570860905659,0.04895239518347525
4038,11.0,300.53174,-4512.1897,0.0,0.0,0.04038057210014623,0.0,0.0,0.0,0.34704148271032764,0.36332187869207766,0.6612296380207844,-0.0017843724362288484,-0.005811519962577364,0.05746801854840185
4039,11.0,299.60434,-4567.9645,0.0,0.0,0.04039057652052036,0.0,0.0,0.0,0.37067334254011064,0.3409064560048477,0.6769673575139764,-0.0015375215084415586,0.0027616362496522776,0.051540684808669544
4040,11.0,299.61187,-4405.0318,0.0,0.0,0.04040058094089449,0.0,0.0,0.0,0.3341435486099007,0.3547596721670536,0.6501164426464974,-0.02202460401765918,0.02021800746036198,0.07091674425743773
4041,11.0,299.28526,-4450.8186,0.0,0.0,0.04041058536126885,0.0,0.0,0.0,0.33954089884507765,0.3523009194743937,0.6610959092725864,-0.0068547700675631335,0.016235652883834183,0.06675103396931414
4042,11.0,299.42177999999996,-4555.7847,0.0,0.0,0.0404205897816432,0.0,0.0,0.0,0.3454439318076617,0.3520195196566217,0.6873813292592553,-0.018092553255595983,0.016793803727919384,0.06586991674860464
4043,11.0,299.56751,-4473.9384,0.0,0.0,0.040430561292739586,0.0,0.0,0.0,0.33908969857554766,0.3522239023342926,0.6686519584483104,-0.005388473252375905,0.0043665638156962965,0.05524644845239995
4044,11.0,299.73199,-4260.9744,0.0,0.0,0.04044056571311372,0.0,0.0,0.0,0.3204312958016067,0.32357483330934966,0.6512237122232764,-0.0036240329654892065,-0.008553197718384892,0.07219418006926084
4045,11.0,299.88068,-4194.84,0.0,0.0,0.04045057013348785,0.0,0.0,0.0,0.31076942920805467,0.3301258194458817,0.6342313560587614,0.004289119489353136,-0.009352648602234552,0.06349131517860494
4046,11.0,300.01459,-4280.0972,0.0,0.0,0.04046057455386198,0.0,0.0,0.0,0.3214246760671457,0.34364643626276264,0.6359715523105054,0.007237561769841734,-0.007486536064538583,0.07496931605264542
4047,11.0,299.73125,-4570.3581,0.0,0.0,0.040470578974236115,0.0,0.0,0.0,0.36576947550113664,0.35283988746758566,0.6706653674570183,0.010188695850545989,-0.01047142201269889,0.06788556200028334
4048,11.0,300.55396,-4572.0123,0.0,0.0,0.04048058339461047,0.0,0.0,0.0,0.3612588406934717,0.3499822992705637,0.6785364360888324,0.008600015547205452,0.008196586169540072,0.06407660288686834
4049,11.0,300.33452,-4364.5687,0.0,0.0,0.0404905878149846,0.0,0.0,0.0,0.3231232378722807,0.3514524339731547,0.6521442195416234,0.009042998662399482,-0.008876528865045192,0.052326249505198756
4050,11.0,300.03412000000003,-4390.1535,0.0,0.0,0.040500592235358956,0.0,0.0,0.0,0.32637791878349265,0.3351175048710227,0.6730016182125883,0.008190439186483413,-0.0012067249376944789,0.04446471251707546
4051,11.0,299.45941,-4589.5489,0.0,0.0,0.04051056374645534,0.0,0.0,0.0,0.3649547008307247,0.36214809937873466,0.6680054440895044,-0.0016600879895629285,-0.0045390088502152955,0.05681592219479495
4052,11.0,299.33776,-4563.9902,0.0,0.0,0.040520568166829474,0.0,0.0,0.0,0.3569416961249027,0.34963374123616364,0.6807636104711373,-0.004784819879424956,0.011699548008405489,0.05413593343555065
4053,11.0,299.47281,-4297.1791,0.0,0.0,0.040530572587203606,0.0,0.0,0.0,0.3259253810238307,0.3285247120353647,0.6517850426461753,-0.023507463115005976,0.00931760929920144,0.08278391321663613
4054,11.0,300.07133999999996,-4173.1877,0.0,0.0,0.04054057700757796,0.0,0.0,0.0,0.3014734066956087,0.3250695798568697,0.6420018596181504,-0.021606032427849378,0.007820773936600292,0.06413811223418885
4055,11.0,300.05253,-4332.1154,0.0,0.0,0.04055058142795209,0.0,0.0,0.0,0.33763961609243565,0.32208941879525066,0.6571258839232753,0.0015537398935171886,0.011466782168933291,0.06756317013646573
4056,11.0,299.92155,-4507.0776,0.0,0.0,0.040560585848326225,0.0,0.0,0.0,0.34836349038079967,0.3502356624580687,0.6714399160984603,0.009133746658580612,0.007083978791234273,0.05568950523087624
4057,11.0,300.31579,-4471.698,0.0,0.0,0.04057059026870036,0.0,0.0,0.0,0.3578380475608657,0.3417126991094177,0.6597337768981544,0.02759355018377137,-0.0014667631128832486,0.07097485820367314
4058,11.0,300.26603,-4476.5701,0.0,0.0,0.040580561779796964,0.0,0.0,0.0,0.3363583816059877,0.34747308672292365,0.6769340519831893,0.008095631705101643,-0.007214299472720924,0.06367757081198694
4059,11.0,299.50181000000003,-4451.1516,0.0,0.0,0.040590566200171097,0.0,0.0,0.0,0.34015722848340463,0.35242920706955466,0.6604524954590864,0.014923178883553087,-0.019064595487279085,0.06751114177033093
4060,11.0,299.84777,-4504.8726,0.0,0.0,0.04060057062054523,0.0,0.0,0.0,0.34510853589206064,0.3368407190510907,0.6874195287880254,-0.004177094355647116,-0.0066034257808823835,0.058193440771995446
4061,11.0,299.96041,-4464.8164,0.0,0.0,0.04061057504091936,0.0,0.0,0.0,0.3401647670641487,0.3462692848091177,0.6707586472612244,-0.005278425982865085,-0.008023525990885362,0.04941534003491436
4062,11.0,300.00219,-4240.9821,0.0,0.0,0.04062057946129349,0.0,0.0,0.0,0.30477971269941573,0.3200619661401567,0.6643109822373894,0.0066685884014384324,0.002163898230785128,0.05472436931187475
4063,11.0,300.63595,-4193.7682,0.0,0.0,0.04063058388166785,0.0,0.0,0.0,0.3229891443540467,0.3289522427825587,0.6228594272714394,-0.00971336958950994,-0.006882914912940813,0.07519710582087652
4064,11.0,300.52687000000003,-4402.7696,0.0,0.0,0.04064058830204198,0.0,0.0,0.0,0.34082552771936064,0.3408959789988137,0.6566105145249124,-0.0019433526941439784,-0.0037774969885349266,0.07754244036359302
4065,11.0,300.20269,-4483.0742,0.0,0.0,0.04065059272241611,0.0,0.0,0.0,0.35757474438987963,0.3452968585556467,0.6598710114916984,-0.00881575685982246,-0.004685831829455595,0.08502841214915093
4066,11.0,300.67241,-4385.0145,0.0,0.0,0.0406605642335125,0.0,0.0,0.0,0.3297633900176127,0.34227459695237267,0.6608969373504494,-0.00988194167817171,0.023970577179211774,0.06713580454903803
4067,11.0,300.0456,-4419.6049,0.0,0.0,0.04067056865388685,0.0,0.0,0.0,0.34814700949693467,0.3404728761545567,0.6548296362816534,0.005234483149878265,0.0025594929560272877,0.06015063263865524
4068,11.0,300.05334,-4404.6831,0.0,0.0,0.040680573074260984,0.0,0.0,0.0,0.3407342642828537,0.32531037874313473,0.6728690243045024,-0.00816508675705632,-0.005367005319857184,0.03476086393213017
4069,11.0,299.75296000000003,-4392.3983,0.0,0.0,0.040690577494635116,0.0,0.0,0.0,0.3375102139221647,0.3345195251920067,0.6631496557677754,-0.000939523307213731,-0.014845385593875486,0.05098793357436725
4070,11.0,299.56812,-4463.4741,0.0,0.0,0.04070058191500925,0.0,0.0,0.0,0.33031605715215673,0.3467849683150117,0.6796836581170543,0.005506413537515705,-0.018459424772303383,0.04518498337716066
4071,11.0,299.9829,-4452.8381,0.0,0.0,0.04071058633538338,0.0,0.0,0.0,0.3340271768359157,0.3365669186090687,0.6829575097201583,0.006100644900436775,-0.003167680319200707,0.06533343729765824
4072,11.0,300.05842,-4403.4842,0.0,0.0,0.040720590755757735,0.0,0.0,0.0,0.33888903452574365,0.3400928161745477,0.6595673809667324,-0.00041588993222764064,-0.008177840232089992,0.06389654631759814
4073,11.0,299.9359,-4451.1958,0.0,0.0,0.04073059517613187,0.0,0.0,0.0,0.34601417883144064,0.33309639516155465,0.6739417927153764,-5.3762104943656654e-05,-0.003000961870271877,0.05619124337564394
4074,11.0,300.57945,-4438.5993,0.0,0.0,0.040740566687228474,0.0,0.0,0.0,0.34095540611717867,0.34584948516018665,0.6624184539656114,-0.005689962982530624,0.005223171428411885,0.054553490762010354
4075,11.0,300.464,-4356.8906,0.0,0.0,0.04075057110760261,0.0,0.0,0.0,0.32895466445029764,0.34785276166789464,0.6475785145910233,-0.006055989549979634,0.005432111705032685,0.060712864854143234
4076,11.0,300.18461,-4431.8794,0.0,0.0,0.04076057552797674,0.0,0.0,0.0,0.3469071460120697,0.33540380881927867,0.6648697288725334,-0.008925573513610521,0.007324212993218544,0.07851161205774282
4077,11.0,300.30707,-4550.1354,0.0,0.0,0.04077057994835087,0.0,0.0,0.0,0.3566350157171357,0.3694750831043516,0.6570174560300743,-0.008111740456516452,0.0052241602591844745,0.06444026544050904
4078,11.0,299.65344,-4492.4767,0.0,0.0,0.040780584368725004,0.0,0.0,0.0,0.3443044510102037,0.35005207167244967,0.6712442169741464,0.0047621840748409755,0.010485494030087689,0.06659446859036235
4079,11.0,299.26583,-4448.0763,0.0,0.0,0.040790588789099136,0.0,0.0,0.0,0.33605803401134565,0.34976379188649864,0.6662823008369434,-0.001139419597151959,-0.0004438079919679386,0.04462556799695066
4080,11.0,299.54416000000003,-4486.4772,0.0,0.0,0.04080059320947327,0.0,0.0,0.0,0.3323645043493227,0.36022844640177965,0.6711840704482104,-0.0036694095473675265,-0.006954046083210914,0.05502878814541855
4081,11.0,299.67277,-4486.8085,0.0,0.0,0.0408105647205701,0.0,0.0,0.0,0.3486635441329127,0.3351602538927417,0.6800539503660993,0.0008229337249872352,-0.012147196836334988,0.047802773779016455
4082,11.0,300.04067000000003,-4433.5178,0.0,0.0,0.04082056914094423,0.0,0.0,0.0,0.33017534711076973,0.35683698685956866,0.6606663824226954,0.0014137894857301587,-0.012461329698587488,0.07641186907426432
4083,11.0,300.07284,-4447.8687,0.0,0.0,0.04083057356131836,0.0,0.0,0.0,0.33987446077799766,0.3532506286606227,0.6589159320799395,0.01035096886731109,-0.0025176019544929673,0.07528008391131583
4084,11.0,300.30612,-4446.2133,0.0,0.0,0.04084057798169227,0.0,0.0,0.0,0.3498817544631407,0.3486225885638707,0.6530334782268864,-0.013442073722129386,-0.008660150522090312,0.07459062497352152
4085,11.0,299.74781,-4396.0036,0.0,0.0,0.040850582402066626,0.0,0.0,0.0,0.3461487283122197,0.3426959975364617,0.6474305902089244,-0.006872574999645343,0.004067173033123726,0.06628595116016404
4086,11.0,299.85791,-4433.7496,0.0,0.0,0.04086058682244076,0.0,0.0,0.0,0.34974809664244966,0.33021535022471765,0.6677857309378205,-0.01191857822952209,0.014083866335469385,0.049409969809384356
4087,11.0,299.93301,-4513.536,0.0,0.0,0.04087059124281489,0.0,0.0,0.0,0.3546197524607447,0.3328633679035567,0.6845191105092764,0.004360524135825225,0.027587239662148575,0.04857264019174636
4088,11.0,299.33569,-4580.1072,0.0,0.0,0.04088059566318902,0.0,0.0,0.0,0.34637887793993366,0.3645448006352706,0.6813145348155093,0.004064137943774186,0.0014174208727635485,0.05408417763369275
4089,11.0,299.37289,-4636.0267,0.0,0.0,0.04089056717428585,0.0,0.0,0.0,0.36146187574850963,0.35797248558413364,0.6898019837481554,-0.01005437475633953,-0.008008941370270972,0.05048179083141485
4090,11.0,299.38491,-4564.7011,0.0,0.0,0.040900571594659985,0.0,0.0,0.0,0.3521674237737187,0.36278995278708065,0.6725977569877304,0.0044291284629959455,-0.011201083674710888,0.04535746792843355
4091,11.0,299.17101,-4457.8934,0.0,0.0,0.04091057601503412,0.0,0.0,0.0,0.3371875444278197,0.35508619201177866,0.6628145334297013,-0.005064671552369165,-0.006808275060224433,0.04404278706943466
4092,11.0,299.4609,-4345.5092,0.0,0.0,0.04092058043540803,0.0,0.0,0.0,0.3204134625998467,0.3368120643382627,0.6637007726296663,0.0027663471533422076,-0.012791634032435988,0.055899723215873144
4093,11.0,300.43241,-4383.8392,0.0,0.0,0.04093058485578216,0.0,0.0,0.0,0.3461486573847127,0.3418676250497077,0.6445613800332554,-0.01187501860772309,-0.008102660114420294,0.06685308142663543
4094,11.0,300.15629,-4323.5414,0.0,0.0,0.040940589276156514,0.0,0.0,0.0,0.32356116456550066,0.32564838884399366,0.6650390834942473,0.0028270812630111974,0.004190833520378066,0.08149699034412672
4095,11.0,299.96663,-4315.3574,0.0,0.0,0.040950593696530646,0.0,0.0,0.0,0.3313334109150617,0.33549653133592966,0.6449309528747295,0.0020276174095602583,0.018000088104470385,0.08036898460405122
4096,11.0,299.81747,-4515.6989,0.0,0.0,0.04096059811690478,0.0,0.0,0.0,0.34765298927817867,0.35908726334415364,0.6659194458436324,0.013070136968172087,-0.002229403836500028,0.08257835415559903
4097,11.0,299.74652000000003,-4552.3157,0.0,0.0,0.040970569628001385,0.0,0.0,0.0,0.35925214953292667,0.3382604242962047,0.6862777175153374,0.004418448401641906,0.004882620704252146,0.04743276827974975
4098,11.0,299.68592,-4393.0394,0.0,0.0,0.04098057404837574,0.0,0.0,0.0,0.3260418946528297,0.34359871218305266,0.6657336867027993,0.006357802304266234,0.00027993805251523476,0.05664453296688016
4099,11.0,299.49735,-4389.0111,0.0,0.0,0.04099057846874965,0.0,0.0,0.0,0.3343050505433397,0.32232028783053573,0.6775244525514573,0.00963228637808265,0.01863941953331748,0.04294042972914046
4100,11.0,300.40413,-4506.6223,0.0,0.0,0.04100058288912378,0.0,0.0,0.0,0.33250747393843266,0.36318801822136665,0.6742051668138693,-0.014386756174612287,-0.004922395431627606,0.06733458192715584
4101,11.0,300.63624,-4501.4696,0.0,0.0,0.041010587309497915,0.0,0.0,0.0,0.34693937749775067,0.3564282822992327,0.6649666969071033,-0.013293074281674288,-0.007564255792258924,0.07581787754764192
4102,11.0,300.57389,-4390.0032,0.0,0.0,0.04102059172987205,0.0,0.0,0.0,0.3446134314956977,0.33239896498522364,0.6574389579391734,-0.015450631289358585,-0.00966723773100708,0.06648909665946293
4103,11.0,300.60886,-4296.5,0.0,0.0,0.0410305961502464,0.0,0.0,0.0,0.3325329774434497,0.33349745981613665,0.6399982690029113,-0.002184601260803358,0.01223954039744859,0.05402959385080575
4104,11.0,300.05863999999997,-4348.6147,0.0,0.0,0.04104056766134301,0.0,0.0,0.0,0.33694634024151465,0.32848995755693466,0.6564339658274884,0.0012498467341252688,-0.001152679291935589,0.05892556564500054
4105,11.0,300.19977,-4428.3521,0.0,0.0,0.04105057208171714,0.0,0.0,0.0,0.34760015841796466,0.3212747049198447,0.6772335788452504,0.002052801132845698,0.0027176514681113177,0.06001573763959214
4106,11.0,300.23532,-4530.4142,0.0,0.0,0.04106057650209127,0.0,0.0,0.0,0.3386475972919157,0.3546051920568077,0.6838800232737033,0.017395865791588284,0.0076260544224829715,0.07155715277114114
4107,11.0,299.60515,-4456.5423,0.0,0.0,0.041070580922465405,0.0,0.0,0.0,0.3384906853814297,0.3396809806714027,0.6765059234184364,0.01008519843233159,0.015656399079916283,0.05915904987879365
4108,11.0,299.54296,-4317.3993,0.0,0.0,0.04108058534283954,0.0,0.0,0.0,0.32658673949660166,0.33963893079225266,0.6461559013181224,0.000932697122350039,-0.0008996195019080323,0.07466120392248714
4109,11.0,300.80547,-4464.0453,0.0,0.0,0.04109058976321389,0.0,0.0,0.0,0.3386430072689627,0.34727362844073867,0.6710416581466554,-0.01052541405752749,-0.008080814847564333,0.048773976026366656
4110,11.0,300.12602000000004,-4540.7385,0.0,0.0,0.041100594183588024,0.0,0.0,0.0,0.35270522652929565,0.33874886150690964,0.6888170337234484,-0.014568347817783987,-0.0035801090802792565,0.04840920092411615
4111,11.0,300.60531000000003,-4333.1461,0.0,0.0,0.041110598603962156,0.0,0.0,0.0,0.3199050339646687,0.34340070284851065,0.6538624687962014,-0.0037983894963218565,0.01092578970204149,0.053171376082356246
4112,11.0,300.08151000000004,-4394.9837,0.0,0.0,0.04112057011505876,0.0,0.0,0.0,0.3230193594720287,0.3537784205052117,0.6591675220797694,-0.0014780683495489886,-0.0027655074729843374,0.08051036541700443
4113,11.0,300.29536,-4531.1312,0.0,0.0,0.041130574535432896,0.0,0.0,0.0,0.35475459578405266,0.34902118088820866,0.6735749556491724,0.008374966113869802,-0.005846450138574704,0.07356453294175413
4114,11.0,300.72272000000004,-4482.4104,0.0,0.0,0.04114057895580703,0.0,0.0,0.0,0.34563231526625365,0.3634694180391387,0.6534390923744173,0.013007580933498289,-0.008660010997551542,0.0862665247378431
4115,11.0,300.10627999999997,-4361.7804,0.0,0.0,0.04115058337618116,0.0,0.0,0.0,0.3463605482456247,0.3123529567293367,0.6671588027034473,0.02092166912480798,0.014336773560429387,0.051318836739024855
4116,11.0,299.74497,-4303.7944,0.0,0.0,0.041160587796555514,0.0,0.0,0.0,0.3219923697006727,0.3319870180245677,0.6542666339960894,0.008749004449859512,-0.004552441405465985,0.06346155095691744
4117,11.0,300.22664,-4337.1356,0.0,0.0,0.04117059221692965,0.0,0.0,0.0,0.3231380819862457,0.3306841709134867,0.6645586813568354,-0.008124435467019351,0.0025514102599795874,0.05493126788954405
4118,11.0,299.2278,-4481.335,0.0,0.0,0.04118059663730378,0.0,0.0,0.0,0.3404646384312437,0.33375000227106066,0.6879993003627444,-0.010389580788871791,0.0027086161143195973,0.059895917775516845
4119,11.0,299.85265,-4561.7288,0.0,0.0,0.04119060105767791,0.0,0.0,0.0,0.35695580056629467,0.35507583659575664,0.6746200116698113,-0.011478248107064888,0.017820817817277783,0.05743789259642865
4120,11.0,300.06613,-4462.6715,0.0,0.0,0.04120057256877452,0.0,0.0,0.0,0.3462546129476697,0.33272241468214564,0.6775636855953294,-0.0013611469887097488,-0.00044855051919348956,0.05813670991214654
4121,11.0,299.63828,-4373.6712,0.0,0.0,0.04121057698914865,0.0,0.0,0.0,0.34723769859219267,0.3312787055421627,0.6509704402282803,-0.000939491947123136,-0.008404634380772831,0.047003795677663454
4122,11.0,300.00883,-4468.7314,0.0,0.0,0.04122058140952278,0.0,0.0,0.0,0.3417872844492787,0.34286544335068464,0.6737300437094784,0.016488499313788183,-0.02032009747418748,0.05358906411807886
4123,11.0,300.67869,-4600.4997,0.0,0.0,0.041230585829896915,0.0,0.0,0.0,0.3562002098342237,0.34571675952958764,0.6965200852236803,0.013472075044340288,0.004112808297752576,0.06428104129329484
4124,11.0,300.59099,-4476.2265,0.0,0.0,0.04124059025027105,0.0,0.0,0.0,0.3297428210405827,0.36009078624319363,0.6708274672080163,0.00969822524954031,-0.01123621102917769,0.07970820875008772
4125,11.0,301.07366,-4303.3194,0.0,0.0,0.0412505946706454,0.0,0.0,0.0,0.3198008211918837,0.3450474571760327,0.6432533856116663,0.0016300807905014487,-0.003717107890524986,0.08183192320443201
4126,11.0,300.14948,-4249.3649,0.0,0.0,0.041260599091019534,0.0,0.0,0.0,0.3146647476274927,0.3210456698672407,0.6559903953312113,-0.007537413175909764,0.007183111026692862,0.07357019397006284
4127,11.0,300.31834,-4269.8292,0.0,0.0,0.04127057060211592,0.0,0.0,0.0,0.32047108613303366,0.3351942281685947,0.6422561549957474,0.0057477579576345455,0.017720172698094883,0.057742027719944446
4128,11.0,300.56157,-4477.2226,0.0,0.0,0.04128057502249005,0.0,0.0,0.0,0.3397746151131437,0.32865192558541967,0.6925373131881114,-0.00010216661553305989,-3.643538333889236e-05,0.04877428506764716
4129,11.0,300.52581000000004,-4592.5232,0.0,0.0,0.041290579442864406,0.0,0.0,0.0,0.36098130135858064,0.3524478306063926,0.6825832556632223,0.013331985112014487,-0.010124124562748301,0.056377394644265645
4130,11.0,299.8766,-4489.5545,0.0,0.0,0.04130058386323854,0.0,0.0,0.0,0.3440604198561197,0.35825466560448266,0.6623973783635313,0.0036318618423868566,-0.006767117347787483,0.06268845632936894
4131,11.0,299.44794,-4503.367,0.0,0.0,0.04131058828361267,0.0,0.0,0.0,0.34981732188928166,0.34262903183735266,0.6764647651993744,-0.0002054901195002958,0.003140730095690927,0.06463588350481503
4132,11.0,300.28102,-4657.5437,0.0,0.0,0.0413205927039868,0.0,0.0,0.0,0.36591309357031065,0.37501007323311264,0.6748538191303863,-0.014558093726771986,-0.0004184224495275806,0.06645141591474414
4133,11.0,300.21316,-4529.7595,0.0,0.0,0.041330597124360935,0.0,0.0,0.0,0.3613642997638796,0.33777728638352267,0.6777921836253803,-0.022719693586259183,-0.00021667694775934977,0.05671747278857875
4134,11.0,299.53969,-4323.5239,0.0,0.0,0.04134060154473529,0.0,0.0,0.0,0.3140891506431857,0.3330636975808277,0.6670904589842024,-0.011271531914413591,-0.002318345815702918,0.05280910370785275
4135,11.0,299.85671,-4319.77,0.0,0.0,0.041350573055831674,0.0,0.0,0.0,0.31878000211363666,0.3426126475832357,0.6517095656462264,0.0030413152647794472,-0.00012231418184646987,0.06072427202376903
4136,11.0,300.07707,-4512.9892,0.0,0.0,0.04136057747620603,0.0,0.0,0.0,0.35599778272924565,0.3240968293633667,0.6917414254995633,0.011846613154419688,-0.0005180718174397076,0.05644559954824695
4137,11.0,299.93129,-4540.6996,0.0,0.0,0.04137058189658016,0.0,0.0,0.0,0.35514761523284066,0.36077107222783267,0.6643406096703134,0.012941412662217988,0.007040914243434134,0.07240065510838833
4138,11.0,299.90743,-4472.5732,0.0,0.0,0.04138058631695429,0.0,0.0,0.0,0.34925512007129667,0.34334288679780467,0.6669525556455923,0.016670724238272382,0.009746141441469272,0.05442347152242845
4139,11.0,299.37207,-4464.1320000000005,0.0,0.0,0.041390590737328425,0.0,0.0,0.0,0.34691730891057265,0.33111115450562667,0.6789562053402604,0.008662615556933592,0.016104135047354386,0.04345557215948105
4140,11.0,299.3916,-4539.6796,0.0,0.0,0.04140059515770256,0.0,0.0,0.0,0.3421042898755647,0.36462177724536765,0.6732231653469534,0.0009385785122904873,-0.004104474923630136,0.05999955096924465
4141,11.0,299.85427999999996,-4607.6194,0.0,0.0,0.04141059957807669,0.0,0.0,0.0,0.37052575253054465,0.35076473099778366,0.6793107719477534,-0.008363559856169092,0.003662094489595587,0.06348957542818325
4142,11.0,299.87135,-4564.0004,0.0,0.0,0.04142060399845082,0.0,0.0,0.0,0.37132192392912067,0.3645327530915816,0.6514874814893085,-0.00863465583234918,-0.006005346499381555,0.07751639476977253
4143,11.0,300.54951,-4348.3294,0.0,0.0,0.04143057550954765,0.0,0.0,0.0,0.3257305127645987,0.35142700139564464,0.6446260557871384,0.00020221844638490682,0.0029798673204150072,0.08782480915938383
4144,11.0,300.32002,-4303.2823,0.0,0.0,0.041440579929921784,0.0,0.0,0.0,0.3121203854338837,0.3188132468494177,0.6771567238251653,-0.018471410507736284,0.0015405678448672084,0.05774966661244835
4145,11.0,299.7422,-4525.3585,0.0,0.0,0.041450584350295916,0.0,0.0,0.0,0.3315188964783677,0.3603959873058146,0.6836811020140713,0.009284689614052521,0.005111250963441195,0.06476800219860414
4146,11.0,300.19775,-4538.0485,0.0,0.0,0.041460588770669826,0.0,0.0,0.0,0.3269220948821987,0.3356694323329937,0.7168618915812603,0.012659466702642088,0.015821726032482785,0.04215001257788236
4147,11.0,300.09715,-4450.6852,0.0,0.0,0.04147059319104418,0.0,0.0,0.0,0.3518291907578377,0.3436817378962467,0.6573862588014724,0.016669902492441286,0.009273253668123881,0.05527619747533594
4148,11.0,300.106,-4532.7737,0.0,0.0,0.04148059761141831,0.0,0.0,0.0,0.35053872556297866,0.3627786955784697,0.6645325800342593,0.02011097075954828,-0.0044982979810724456,0.062341434382120545
4149,11.0,299.59632,-4647.5232,0.0,0.0,0.041490602031792445,0.0,0.0,0.0,0.3853973255732546,0.3492589501566747,0.6780747081507633,-0.0015907266632424985,-0.004036943223015277,0.06141571389200904
4150,11.0,299.3736,-4632.5421,0.0,0.0,0.04150057354288905,0.0,0.0,0.0,0.36347397766458867,0.3686284417182946,0.6760746943083774,-0.004061432971307226,0.006612475016200474,0.05728907452774144
4151,11.0,299.65306,-4572.2956,0.0,0.0,0.041510577963263406,0.0,0.0,0.0,0.3476255707304727,0.3438744276677637,0.6983637039131313,-0.010296276666663391,0.006028665335857944,0.04894758021900005
4152,11.0,299.91879,-4454.1917,0.0,0.0,0.04152058238363754,0.0,0.0,0.0,0.3293292022172617,0.3297776667115217,0.6948561765719654,-0.017621719238878286,0.007190447768016942,0.04925883849071886
4153,11.0,299.52107,-4350.0377,0.0,0.0,0.04153058680401167,0.0,0.0,0.0,0.33681225685578164,0.34438055622521463,0.6411100272776333,-0.004109016715878377,-0.00031653971627503767,0.06413586079246664
4154,11.0,299.89184,-4434.2779,0.0,0.0,0.04154059122438558,0.0,0.0,0.0,0.35396427083855364,0.3161014856067877,0.6778440113679954,-0.003521578992227786,0.008934909194731881,0.06825342447558853
4155,11.0,300.26291000000003,-4454.4378,0.0,0.0,0.041550595644759714,0.0,0.0,0.0,0.3467792738494497,0.3435557301138107,0.6637028599248723,0.009970774834313861,0.006667091729715723,0.07104151688800184
4156,11.0,300.30796000000004,-4396.3584,0.0,0.0,0.04156060006513407,0.0,0.0,0.0,0.32697940430785466,0.3339414052149507,0.6754623670079454,0.006834702953307664,-0.012557384794817387,0.05734494412500535
4157,11.0,299.95832,-4470.0048,0.0,0.0,0.0415706044855082,0.0,0.0,0.0,0.3183129748775447,0.3416741348106117,0.6987827436244873,0.003923070630401926,-0.0006597663224913664,0.05636923798096064
4158,11.0,299.62302,-4601.8592,0.0,0.0,0.04158057599660481,0.0,0.0,0.0,0.3529536855863167,0.35943974265644063,0.6864568398680153,0.0006565691435233294,0.008383857991447361,0.05198148609242325
4159,11.0,300.09378,-4566.3544,0.0,0.0,0.04159058041697894,0.0,0.0,0.0,0.36325654432562965,0.35003434992820065,0.6747668113442994,0.00995701003435538,0.014075177715861887,0.06543238724942385
4160,11.0,299.9241,-4450.102,0.0,0.0,0.041600584837353294,0.0,0.0,0.0,0.3405935441089657,0.35882980662624464,0.6532965382178484,-0.0025057575674490174,-0.002049756822920248,0.07305091950581444
4161,11.0,300.57032000000004,-4418.1918,0.0,0.0,0.041610589257727204,0.0,0.0,0.0,0.3428862960377427,0.3547487594634766,0.6453849497145354,0.0061322903222599335,-0.014498966530436586,0.09232838060060172
4162,11.0,300.16193,-4457.2983,0.0,0.0,0.041620593678101336,0.0,0.0,0.0,0.3368465553716667,0.31898834659919867,0.6990724622255804,-0.004482358341099326,0.005839616982550324,0.054115578254291745
4163,11.0,300.00158999999996,-4402.4354,0.0,0.0,0.04163059809847547,0.0,0.0,0.0,0.3033568055839857,0.35287509790856064,0.6819985292955143,0.0049409934345630855,-0.008441769085012743,0.07586354574289902
4164,11.0,300.18236,-4359.5686,0.0,0.0,0.0416406025188496,0.0,0.0,0.0,0.3259018533565087,0.31560728300301366,0.6836908494800333,-0.005290466433803385,0.008652169759002673,0.04240136243743867
4165,11.0,300.15117999999995,-4359.0145,0.0,0.0,0.041650606939223955,0.0,0.0,0.0,0.3427577956600607,0.32392781924668673,0.6583459485011863,-0.005548874593556285,0.007339313054158804,0.06824488784349603
4166,11.0,299.93964,-4490.5874,0.0,0.0,0.04166057845032056,0.0,0.0,0.0,0.35823263754730866,0.3565278037240546,0.6502659882287564,-0.003617347642654416,0.01919532096218068,0.06715251304318703
4167,11.0,299.80565,-4644.8569,0.0,0.0,0.041670582870694695,0.0,0.0,0.0,0.38588660378154266,0.3442072093981067,0.6818267023435564,-0.006572123850843123,0.010842259390297688,0.06088573748020444
4168,11.0,299.45912999999996,-4791.8769,0.0,0.0,0.04168058729106883,0.0,0.0,0.0,0.36027094211097366,0.3871847291471576,0.7091552734406763,-0.008460732060634241,-0.00955669315834718,0.05800209254361085
4169,11.0,299.75752,-4629.1514,0.0,0.0,0.04169059171144296,0.0,0.0,0.0,0.3426349289529347,0.3628972458401697,0.7016142710289374,0.019432328266571482,-0.016623105536572782,0.05835928245561274
4170,11.0,300.36293,-4407.8207,0.0,0.0,0.04170059613181709,0.0,0.0,0.0,0.3451843979270477,0.3168612407967697,0.6778217806608013,0.007751864013199413,0.005571722066086155,0.043022594179749456
4171,11.0,300.4983,-4409.6717,0.0,0.0,0.041710600552191446,0.0,0.0,0.0,0.3467872177302337,0.34926127049940364,0.6443815990680124,0.017064663718151185,-0.003058190134594867,0.06303218825354265
4172,11.0,300.221,-4440.3067,0.0,0.0,0.04172060497256558,0.0,0.0,0.0,0.3449818492320577,0.3355742881486037,0.6691862148285374,-0.012202520291794989,-0.0034111487141791665,0.06472253867986723
4173,11.0,300.11974,-4389.749,0.0,0.0,0.04173060939293971,0.0,0.0,0.0,0.3465525692720757,0.33777060906536366,0.6500509258950314,1.9219027974770382e-05,0.003039045483230437,0.09254361012059321
4174,11.0,300.24699,-4413.0646,0.0,0.0,0.04174058090403632,0.0,0.0,0.0,0.31872455706816466,0.33898366195258267,0.6837532352886904,-0.000909634678678953,0.005743419322031354,0.07167037739031552
4175,11.0,300.92277,-4398.8989,0.0,0.0,0.04175058532441045,0.0,0.0,0.0,0.3146033548039337,0.3376859013570037,0.6848661588010273,-0.012141638146286387,-0.0013951909761696286,0.07317321777963433
4176,11.0,300.03095,-4516.7609999999995,0.0,0.0,0.04176058974478458,0.0,0.0,0.0,0.33176334306499267,0.36306325673655365,0.6781559606762824,0.0060520543905662645,-0.009180361229431111,0.06001109898063435
4177,11.0,299.50885,-4763.9782,0.0,0.0,0.041770594165158714,0.0,0.0,0.0,0.3803863579987106,0.37755732318950663,0.6901867452086283,0.007676918057627822,-0.01149953041216529,0.06582254122692903
4178,11.0,299.30544,-4772.853,0.0,0.0,0.04178059858553307,0.0,0.0,0.0,0.3967464764983286,0.36521219807863764,0.6888694592836223,0.01759104410535088,0.015604898617083586,0.04055255894722596
4179,11.0,299.87266,-4542.6004,0.0,0.0,0.0417906030059072,0.0,0.0,0.0,0.3619407174807676,0.36108813844912463,0.6578082268056175,0.003431057457444007,-0.015860886122347585,0.05954199154208704
4180,11.0,300.31347,-4485.098,0.0,0.0,0.04180060742628133,0.0,0.0,0.0,0.3310663992487097,0.3357215539181377,0.6965698358035903,-0.0002250035533711218,-0.005981319907710314,0.04821864201755945
4181,11.0,300.66271,-4547.8953,0.0,0.0,0.04181057893737772,0.0,0.0,0.0,0.3341631853968387,0.35581851852155366,0.6924649063359654,-0.0055051471775407245,-0.010324011348400589,0.05915663530380535
4182,11.0,299.7868,-4395.2822,0.0,0.0,0.04182058335775207,0.0,0.0,0.0,0.3429745602539537,0.3203142350175537,0.6727672635969594,0.0038326953076075762,0.005981462877299425,0.05726889261224965
4183,11.0,300.09835,-4307.1206,0.0,0.0,0.041830587778126205,0.0,0.0,0.0,0.3322975386502137,0.3095663264368177,0.6673932586440864,-0.0035574407503670665,0.003695987908090606,0.06682385321425084
4184,11.0,300.29098999999997,-4415.8598,0.0,0.0,0.04184059219850034,0.0,0.0,0.0,0.33654068556397965,0.35218805354575466,0.6535823659385575,-0.013182522616263688,0.006637778910947773,0.08705222419663561
4185,11.0,299.96115,-4628.2518,0.0,0.0,0.04185059661887447,0.0,0.0,0.0,0.35750698835569267,0.3534731890450877,0.6958928023517724,-0.0009205669582478852,0.015892713321238684,0.07184276973582934
4186,11.0,299.4105,-4732.4587,0.0,0.0,0.0418606010392486,0.0,0.0,0.0,0.35578224416797366,0.37952873298156964,0.7032382981567163,-0.004633593315250056,0.007643218372551923,0.06519597877584214
4187,11.0,298.88214,-4625.0626,0.0,0.0,0.041870605459622956,0.0,0.0,0.0,0.35939395388442164,0.35993461400528065,0.6865749746971743,0.008831937653319381,-0.0006228852448839873,0.04153042939348426
4188,11.0,298.82439,-4445.1503,0.0,0.0,0.04188060987999709,0.0,0.0,0.0,0.3375400440051087,0.3341050653711027,0.6795695762882954,-0.002077092790743098,-0.004577209290910386,0.050619566500512254
4189,11.0,299.34664,-4484.6454,0.0,0.0,0.04189058139109347,0.0,0.0,0.0,0.3387683969688377,0.3700161687902526,0.6544356542452704,0.017257228859905882,-0.007211433596138082,0.053211450123811246
4190,11.0,299.84336,-4614.0637,0.0,0.0,0.041900585811467606,0.0,0.0,0.0,0.36680756036108764,0.35342548523037964,0.6823271263029443,0.002979383088192217,0.007346923069034853,0.07050805590910333
4191,11.0,300.48734,-4502.5717,0.0,0.0,0.04191059023184196,0.0,0.0,0.0,0.34174380588748765,0.3423737536071587,0.6845517979575023,-0.003282242732482137,-6.354408220406264e-05,0.059624692001998936
4192,11.0,300.63804,-4289.8563,0.0,0.0,0.04192059465221609,0.0,0.0,0.0,0.30421087409327574,0.34406751260681967,0.6557308006555913,-0.012506296724775387,0.0006845166888415373,0.0931154905035334
4193,11.0,300.10902000000004,-4384.7715,0.0,0.0,0.041930599072590224,0.0,0.0,0.0,0.3234220250617687,0.3252231480420257,0.6842158650193484,-0.006624821873969013,0.002730558551860148,0.06596160575015364
4194,11.0,300.10841,-4591.1545,0.0,0.0,0.04194060349296436,0.0,0.0,0.0,0.35822341697139864,0.3631566378657697,0.6742162517699634,0.00960851330158643,0.008675626600142683,0.06465059083001654
4195,11.0,299.96349,-4639.8805,0.0,0.0,0.04195060791333849,0.0,0.0,0.0,0.37992179296036166,0.35147571846045267,0.6790103128956003,-0.0006623414469580114,-0.004672616008401295,0.05367892724294765
4196,11.0,299.43105,-4574.6763,0.0,0.0,0.04196061233371284,0.0,0.0,0.0,0.37599451663276967,0.3336352922272397,0.6809575465402773,-0.0018682185780288184,-0.01021345765648979,0.051412691056037546
4197,11.0,300.67127999999997,-4498.9396,0.0,0.0,0.04197058384480923,0.0,0.0,0.0,0.34064921206945964,0.35953689307602865,0.6673792149977004,-0.005066947413418775,-0.0029431797634442273,0.048429552052374654
4198,11.0,300.20038,-4577.2443,0.0,0.0,0.04198058826518358,0.0,0.0,0.0,0.34257599832711866,0.3496440966521857,0.6991478986955253,-0.01026082608541469,0.007053807648306614,0.051613360172092046
4199,11.0,300.01647,-4691.3317,0.0,0.0,0.041990592685557715,0.0,0.0,0.0,0.3683624838320466,0.34825519421011164,0.7094300060727903,0.00087159713820244,0.0024708424888781676,0.037757585553383564
4200,11.0,300.55761,-4592.9773,0.0,0.0,0.04200059710593185,0.0,0.0,0.0,0.34964550506982467,0.3715441702060547,0.6749607372809383,-0.01097483404663179,-0.004550265856176276,0.07704096465060122
4201,11.0,301.13898,-4398.0088,0.0,0.0,0.04201060152630598,0.0,0.0,0.0,0.3487088161473807,0.33357209581850267,0.6546039348218784,0.017506658610522682,0.0007762834168057083,0.06126486527012144
4202,11.0,300.69116,-4383.3268,0.0,0.0,0.04202060594668011,0.0,0.0,0.0,0.3357772624086357,0.35322831689342066,0.6434162959627444,0.013298888310748087,-0.003823338854859166,0.0998946575228351
4203,11.0,300.06009,-4595.9474,0.0,0.0,0.042030610367054244,0.0,0.0,0.0,0.35510429879106564,0.3492810998038607,0.6926678299334923,0.006045095794179505,0.006013667309202754,0.06569819314815685
4204,11.0,299.50775,-4464.92,0.0,0.0,0.04204058187815085,0.0,0.0,0.0,0.32969416477078073,0.3333963779861607,0.6941336481906574,-0.010893141770569388,-0.002226009043364988,0.08527150604689242
4205,11.0,299.67555,-4197.3872,0.0,0.0,0.042050586298525205,0.0,0.0,0.0,0.30940406456580366,0.32510663441302673,0.6413902111952854,-0.015252564199560883,-0.0008497428230230872,0.060076446519333644
4206,11.0,299.9424,-4377.3121,0.0,0.0,0.04206059071889934,0.0,0.0,0.0,0.32511663519151374,0.34427568483986465,0.6612012366204814,-0.0020974815105803076,0.009230973274576131,0.07254673942830574
4207,11.0,300.48926,-4722.9521,0.0,0.0,0.04207059513927347,0.0,0.0,0.0,0.3886244359492456,0.35483344690683466,0.6922016335624823,-0.004312784148088656,-0.0029041697359192373,0.03448087354524726
4208,11.0,300.13788999999997,-4829.418,0.0,0.0,0.04208059955964738,0.0,0.0,0.0,0.3925219125913966,0.3835543350988656,0.6919462337422764,-0.0012671486888578389,-0.006852358937625175,0.062038657013738736
4209,11.0,299.76608999999996,-4688.5321,0.0,0.0,0.042090603980021735,0.0,0.0,0.0,0.35929823214747464,0.35110435216630165,0.7147940913071843,-0.009476767281184111,-0.002703252981540297,0.044178652762093554
4210,11.0,301.00077000000005,-4455.4634,0.0,0.0,0.04210060840039587,0.0,0.0,0.0,0.3240941949131067,0.35515610626867866,0.6750993194971153,0.008494537225045553,0.003437370410867047,0.06654906282688114
4211,11.0,300.14423999999997,-4403.8976,0.0,0.0,0.04211061282077,0.0,0.0,0.0,0.3337695073354857,0.3266556709009047,0.6782497268405364,-0.003310293142950497,0.005128398498858526,0.05699131376060474
4212,11.0,300.2356,-4496.7151,0.0,0.0,0.042120584331866606,0.0,0.0,0.0,0.35052537092666064,0.33532196860870167,0.6810417678885894,-0.003279520940063517,-0.00933553268022034,0.07087921144723353
4213,11.0,300.12406,-4474.4936,0.0,0.0,0.04213058875224096,0.0,0.0,0.0,0.3598775072296447,0.34190572325346763,0.6583510958116944,0.008609130339805012,-0.005242679532587185,0.06574227763350764
4214,11.0,300.41505,-4317.4422,0.0,0.0,0.04214059317261509,0.0,0.0,0.0,0.3350555648924097,0.31766890245147966,0.6596701751893773,0.0097089473607735,-0.009448814446700381,0.07128955949923173
4215,11.0,299.89774,-4416.155,0.0,0.0,0.042150597592989225,0.0,0.0,0.0,0.3210387595015587,0.3411227646361957,0.6802393346043953,0.01708491554789988,0.006019675578320724,0.06301945271303575
4216,11.0,300.12837,-4687.8201,0.0,0.0,0.042160602013363135,0.0,0.0,0.0,0.35969375432400963,0.3567639011298557,0.7085225899457352,-0.004994424037511275,-0.005398753282590464,0.06424039172578304
4217,11.0,299.25133999999997,-4870.8321,0.0,0.0,0.04217060643373727,0.0,0.0,0.0,0.3828108425729886,0.3700967221732026,0.7277037791087713,0.006592672056246073,0.01100288283589999,0.04445479178534636
4218,11.0,299.82679,-4600.8886,0.0,0.0,0.04218061085411162,0.0,0.0,0.0,0.36091072848911565,0.37079443605956164,0.6668500755304784,-0.004127887080440736,0.007819090320234132,0.07137389027855452
4219,11.0,299.55282,-4464.0733,0.0,0.0,0.042190615274485754,0.0,0.0,0.0,0.35619933843913765,0.34683543830249264,0.6539320284155664,-0.004454904734939866,0.007360860830785403,0.04617360136722966
4220,11.0,299.91292999999996,-4538.5243,0.0,0.0,0.04220058678558236,0.0,0.0,0.0,0.34608310010324267,0.36068980956981267,0.6728251505751724,-0.0011964292021033687,-0.012620376527034186,0.07652963204063663
4221,11.0,299.66708,-4511.5988,0.0,0.0,0.042210591205956494,0.0,0.0,0.0,0.3278432202831067,0.3504590233101127,0.6931111369847434,-0.0003486652767905837,-0.000977775322338911,0.06615628047861653
4222,11.0,300.39876,-4363.2679,0.0,0.0,0.04222059562633085,0.0,0.0,0.0,0.3185841003393027,0.33476606920633867,0.6729743111223934,0.013171466031172488,-0.006399241396255953,0.09113483987055841
4223,11.0,300.47199,-4310.9615,0.0,0.0,0.04223060004670476,0.0,0.0,0.0,0.3149827055088727,0.3296395607228917,0.6658023951920804,0.010745009672199888,-0.0014665482025370388,0.06984355332127203
4224,11.0,300.28595,-4342.4252,0.0,0.0,0.04224060446707889,0.0,0.0,0.0,0.3386686728939957,0.3288538764628507,0.6524662608209063,0.013858749521002089,-0.006372379224179864,0.08954782676893241
4225,11.0,300.55831,-4591.8599,0.0,0.0,0.04225060888745302,0.0,0.0,0.0,0.38156476786501065,0.34527236830072966,0.6689736146925555,0.0013461390322035787,0.0005951427205910134,0.05358125297305795
4226,11.0,300.69331,-4856.8314,0.0,0.0,0.04226061330782738,0.0,0.0,0.0,0.39227100146913363,0.3862032748352956,0.6978812043480124,0.013177548571522786,-0.008142942176120821,0.07170838237506633
4227,11.0,300.32481,-4783.5656,0.0,0.0,0.042270584818923984,0.0,0.0,0.0,0.37045186633325267,0.36402309842378267,0.7196095320099313,-0.004539861702824465,0.004030341797288767,0.03897420204120426
4228,11.0,299.67678,-4496.1602,0.0,0.0,0.042280589239298116,0.0,0.0,0.0,0.3287440198870087,0.35158257581599867,0.6863938258442963,-0.0015685251376513784,-0.01072220749194949,0.06402322993785084
4229,11.0,299.75797,-4609.7459,0.0,0.0,0.04229059365967225,0.0,0.0,0.0,0.34601383432640664,0.3617241454043937,0.6935096583815744,-0.011301876728408388,0.006365609092311704,0.05230623578922355
4230,11.0,299.64842999999996,-4712.4458,0.0,0.0,0.04230059808004638,0.0,0.0,0.0,0.3827092034554576,0.3475972301251757,0.7021594299802403,-0.009110662693477403,0.00975574198616677,0.05374228982470104
4231,11.0,299.55137,-4459.2217,0.0,0.0,0.04231060250042051,0.0,0.0,0.0,0.34843683955553867,0.3510981004131847,0.6559570999329254,-0.01099553778592509,0.012621061484101788,0.05869678593142175
4232,11.0,299.84345,-4204.8353,0.0,0.0,0.042320606920794646,0.0,0.0,0.0,0.3094350497538617,0.3130405786446997,0.6556892979314953,0.0003297747586837347,0.004578950865182266,0.08168849461302673
4233,11.0,300.30391000000003,-4371.1947,0.0,0.0,0.042330611341169,0.0,0.0,0.0,0.3143793252068237,0.3373212833085187,0.6770334315529973,0.004981596797870325,0.004774501852331646,0.07628532122952501
4234,11.0,300.6051,-4613.651,0.0,0.0,0.04234061576154313,0.0,0.0,0.0,0.3364527759853037,0.3703940198850436,0.6955879153966824,0.026148643382170177,-0.01142864039541899,0.08313303056509133
4235,11.0,300.80843,-4681.3977,0.0,0.0,0.04235058727263974,0.0,0.0,0.0,0.3503446273738227,0.36360525434754465,0.7090781448430643,0.0044859338980522065,-0.009865222950196699,0.06916460584001514
4236,11.0,300.41407000000004,-4562.0407,0.0,0.0,0.04236059169301387,0.0,0.0,0.0,0.36075751494149466,0.3565403274952907,0.6694486162069344,0.006230964467348314,-0.014275137556846385,0.05941161361196975
4237,11.0,300.04139,-4442.6756,0.0,0.0,0.042370596113388004,0.0,0.0,0.0,0.3513679491798167,0.33649638626960765,0.6625981032083413,-0.003296029823942817,-0.0004908541972285375,0.05363838204019616
4238,11.0,299.93936,-4524.4804,0.0,0.0,0.042380600533762136,0.0,0.0,0.0,0.3419248838128587,0.3404060725754637,0.6929981089360884,0.0005699906917687015,0.012464513330401689,0.05220921405239825
4239,11.0,299.52752000000004,-4686.3109,0.0,0.0,0.04239060495413627,0.0,0.0,0.0,0.36132464115496565,0.36642514964084666,0.6967716853560113,0.003755966538485036,0.008361891438554432,0.05462466043578425
4240,11.0,299.87811,-4606.2952,0.0,0.0,0.04240060937451062,0.0,0.0,0.0,0.34318747449746667,0.3480293914253267,0.7089818658185624,0.0016347618033134283,0.0004698547206285506,0.04789682567979866
4241,11.0,300.21191,-4354.1871,0.0,0.0,0.042410613794884755,0.0,0.0,0.0,0.3244466539603917,0.3347217901769687,0.6643957203432524,0.002095425423477388,0.00966319232998283,0.07718596580616172
4242,11.0,300.36657,-4509.115,0.0,0.0,0.04242061821525889,0.0,0.0,0.0,0.36114296541203567,0.3451373121949007,0.6643780897915124,-0.007961822606170713,-0.0016143832159772184,0.06027267759995014
4243,11.0,300.51469,-4741.3464,0.0,0.0,0.04243058972635527,0.0,0.0,0.0,0.38605978848863465,0.3575189447068727,0.6976721911173843,-0.004844199071060226,0.007046796869539703,0.06510854643796324
4244,11.0,301.1067,-4685.4231,0.0,0.0,0.04244059414672963,0.0,0.0,0.0,0.35569415220427963,0.37386908269300567,0.6946883924879063,-0.008735080670960342,-0.008891724678119902,0.07044436098131714
4245,11.0,300.8285,-4471.9525,0.0,0.0,0.04245059856710376,0.0,0.0,0.0,0.3374607369197817,0.3419493132727697,0.6799518451535224,0.0024536692169082976,0.006716061093798624,0.07201867501943983
4246,11.0,300.94842,-4457.7737,0.0,0.0,0.04246060298747789,0.0,0.0,0.0,0.3245265892607807,0.3406908465160687,0.6898344685463613,0.0017676106451245885,-0.006662973779984313,0.06349751728246704
4247,11.0,300.54904,-4569.3816,0.0,0.0,0.042470607407852023,0.0,0.0,0.0,0.3608178945149536,0.34524557796808564,0.6829144161934054,-0.005053480103689655,-0.006029017541592704,0.06308445270695073
4248,11.0,300.16907000000003,-4666.5901,0.0,0.0,0.042480611828226156,0.0,0.0,0.0,0.3782620183690546,0.34671035257764765,0.6935544946984994,-0.014732981707282086,-0.004222891031016896,0.03659973757136286
4249,11.0,300.02519,-4557.9624,0.0,0.0,0.04249061624860051,0.0,0.0,0.0,0.34522099652065963,0.3618944524812016,0.6783912981445084,-0.004408215791532027,0.017128805489231482,0.05992367474875624
4250,11.0,300.05,-4354.8861,0.0,0.0,0.04250062066897464,0.0,0.0,0.0,0.3109930332401227,0.3330442330464067,0.6797393564750513,-0.0017400462907291984,0.015001843568316686,0.05929545867350615
4251,11.0,299.75973999999997,-4430.0095,0.0,0.0,0.04251059218007103,0.0,0.0,0.0,0.3264738735679627,0.3444981438993197,0.6756402633280023,-0.01043493892959829,0.0018065652478691083,0.07340835259784033
4252,11.0,300.29778,-4714.4397,0.0,0.0,0.04252059660044516,0.0,0.0,0.0,0.35317083521524767,0.37577315188342264,0.7041279520095183,-0.0011812988449851189,-0.002165351231428528,0.07670034036448423
4253,11.0,300.12863,-4733.7486,0.0,0.0,0.042530601020819514,0.0,0.0,0.0,0.38441009573582263,0.35654085438534266,0.6979904023112893,-0.0025767789014082775,0.003220930968931137,0.07179327044194414
4254,11.0,299.79706,-4424.9838,0.0,0.0,0.042540605441193646,0.0,0.0,0.0,0.35368136127813266,0.3312794857447397,0.6601237464641414,-0.0024978721511957876,-0.004558802488268776,0.058902956995519236
4255,11.0,299.56187,-4420.4452,0.0,0.0,0.04255060986156778,0.0,0.0,0.0,0.33552203484094667,0.3376374173397187,0.6705454999701884,0.004740982019148496,-0.001248782213570209,0.06482416563839703
4256,11.0,299.57124,-4658.0177,0.0,0.0,0.04256061428194191,0.0,0.0,0.0,0.3611460963548447,0.3461060907480117,0.7086688931276743,-0.0033083715141358464,0.002334885198410228,0.05125894960511446
4257,11.0,299.43841000000003,-4736.4467,0.0,0.0,0.04257061870231604,0.0,0.0,0.0,0.35472793717392165,0.3753193880911396,0.7097141923283373,0.014743056453026385,0.01005212979941797,0.07067301403863344
4258,11.0,299.4779,-4599.0229,0.0,0.0,0.04258059021341265,0.0,0.0,0.0,0.3459687852269607,0.3448306317871337,0.7071886968515904,0.00887437246618237,-0.005363219310858535,0.052701628269745754
4259,11.0,299.94741,-4497.2146,0.0,0.0,0.04259059463378678,0.0,0.0,0.0,0.3644377203647026,0.3305879526839907,0.6720152699027434,0.005868414867617454,-0.003911302237115477,0.050780525331897655
4260,11.0,300.03545,-4521.924,0.0,0.0,0.04260059905416114,0.0,0.0,0.0,0.37768089917170267,0.3426829671401757,0.6541881071133394,-0.0009004124207737871,-0.007745636274109784,0.04957453986412615
4261,11.0,300.8691,-4669.4611,0.0,0.0,0.04261060347453527,0.0,0.0,0.0,0.36042886727155965,0.35760293300766166,0.7013677878096113,0.0038893104542950564,0.004190985507893066,0.06679380730903553
4262,11.0,300.27047999999996,-4722.5517,0.0,0.0,0.0426206078949094,0.0,0.0,0.0,0.36110231381802366,0.3692450246691466,0.7051904359318772,0.0015527495428694486,-0.004121452739655715,0.06056769347256595
4263,11.0,300.05591,-4568.2586,0.0,0.0,0.042630612315283534,0.0,0.0,0.0,0.33108038210008967,0.35604071413598265,0.7015154386141833,-0.00997889552724031,-0.002259884426008228,0.08660683288992892
4264,11.0,300.23413999999997,-4513.7537,0.0,0.0,0.042640616735657666,0.0,0.0,0.0,0.3439171665569817,0.3490160538427027,0.6791351959704254,-0.005157871512467285,-0.0025703053478443876,0.07129054539157903
4265,11.0,300.13242,-4609.0084,0.0,0.0,0.0426506211560318,0.0,0.0,0.0,0.3760347122642366,0.36154411112662566,0.6634446230043863,-0.004480911521281536,6.055645855545715e-05,0.07125295685261933
4266,11.0,299.55804,-4608.9266,0.0,0.0,0.04266059266712863,0.0,0.0,0.0,0.37070570574830464,0.34599832146737564,0.6842945844196173,0.005201406005663805,-0.007655606976224583,0.04693127230175595
4267,11.0,299.64651000000003,-4493.6167,0.0,0.0,0.04267059708750276,0.0,0.0,0.0,0.3379288584659817,0.3595529226926107,0.6684655001649084,0.005401106049322665,-0.009051611693549521,0.06757878736025703
4268,11.0,300.12892,-4538.373,0.0,0.0,0.04268060150787689,0.0,0.0,0.0,0.33681191235074764,0.3540882014582847,0.6886519651496573,0.008593572289819553,-0.0036686464687172163,0.059951071004960034
4269,11.0,300.16143999999997,-4563.4641,0.0,0.0,0.042690605928251024,0.0,0.0,0.0,0.32757949154707866,0.36067037543289465,0.6989292798539494,0.0014072362907084088,0.00984565040331504,0.08647329361949961
4270,11.0,300.45288999999997,-4554.0829,0.0,0.0,0.042700610348624934,0.0,0.0,0.0,0.3408078870351197,0.36129974560000866,0.6822198636473583,0.0019323712922101983,-0.0002207306675669208,0.06392073969023584
4271,11.0,300.06703,-4635.6012,0.0,0.0,0.04271061476899929,0.0,0.0,0.0,0.38288019954233365,0.35005159544490266,0.6761751985857963,-0.005607230098615525,0.0005841480248159214,0.07160557194041972
4272,11.0,300.35849,-4631.1706,0.0,0.0,0.04272061918937342,0.0,0.0,0.0,0.36899607925207767,0.34640494886500667,0.6923592040855333,-0.008025611968866232,-0.004013787621129996,0.03930017675737546
4273,11.0,300.66462,-4409.5756,0.0,0.0,0.04273062360974755,0.0,0.0,0.0,0.3282127931245807,0.3464855630429627,0.6657025191297233,0.012697356176881487,-0.005978411981248323,0.07513324370682382
4274,11.0,300.72943,-4450.9656,0.0,0.0,0.04274059512084416,0.0,0.0,0.0,0.3209307470408987,0.3296590455223147,0.7023925990932524,0.003706958468248316,-0.01754651480320618,0.04311102456897686
4275,11.0,300.23319,-4639.6495,0.0,0.0,0.042750599541218515,0.0,0.0,0.0,0.3347362695208977,0.3588256421683337,0.7167756639977503,0.021397385993757578,-0.011217622956093189,0.07798588116385723
4276,11.0,300.16114,-4635.9826,0.0,0.0,0.04276060396159265,0.0,0.0,0.0,0.3648425644421576,0.35376712276659666,0.6906132829707243,0.013526476442209289,-0.01090721986745879,0.05833777723549035
4277,11.0,300.15792999999996,-4469.9954,0.0,0.0,0.04277060838196656,0.0,0.0,0.0,0.3674797099474237,0.3314745769189937,0.6598126989484434,0.01987232705624598,0.005161680420918195,0.06904230047344453
4278,11.0,299.84742,-4555.1214,0.0,0.0,0.04278061280234069,0.0,0.0,0.0,0.3522086326552857,0.36003461165764966,0.6723999097732043,-0.004991853422007575,-0.003955349738837626,0.06048666892831944
4279,11.0,300.02767,-4649.3801,0.0,0.0,0.04279061722271482,0.0,0.0,0.0,0.36488401650374863,0.35668685359225166,0.6917245751504003,-0.006608006177959433,0.007944925140878061,0.06110608999270154
4280,11.0,299.6701,-4736.6985,0.0,0.0,0.042800621643089176,0.0,0.0,0.0,0.34435682590787264,0.37418835779951565,0.7212928849310654,-0.017119388342802085,0.008746567684694022,0.06410572470799245
4281,11.0,299.71367000000004,-4738.1237,0.0,0.0,0.04281059315418578,0.0,0.0,0.0,0.3439837674860547,0.3904422674236516,0.7058452690740044,0.0048266851444067355,0.003039517556452027,0.08039671219303772
4282,11.0,300.32864,-4531.3236,0.0,0.0,0.042820597574559915,0.0,0.0,0.0,0.35082921423414765,0.3325338589710367,0.6940461337795204,-0.013278324399968589,-0.0015523069552257685,0.05680592141630795
4283,11.0,300.04717,-4471.4455,0.0,0.0,0.04283060199493405,0.0,0.0,0.0,0.35689909909069867,0.35406120847562067,0.6482474825720453,-0.0027713891871648175,-0.012534324235791488,0.07604713146226752
4284,11.0,300.48604,-4562.522,0.0,0.0,0.0428406064153084,0.0,0.0,0.0,0.3527544096891497,0.3436367495918067,0.6905016025447024,-0.0019911662438378084,0.0014686861602480387,0.05842341916044254
4285,11.0,300.12681000000003,-4552.0048,0.0,0.0,0.04285061083568231,0.0,0.0,0.0,0.3594649016564237,0.33099383027654766,0.6932370839721734,0.014413588050510386,-0.0036784863430883367,0.056316525671008345
4286,11.0,300.08322000000004,-4433.3632,0.0,0.0,0.042860615256056445,0.0,0.0,0.0,0.3003070950355027,0.36237986007410766,0.6849447464787833,0.005628585459048135,-0.004317042635608936,0.06952027891661734
4287,11.0,300.17155,-4474.3198,0.0,0.0,0.04287061967643058,0.0,0.0,0.0,0.3246765604080817,0.3346235150497697,0.7007814098442403,0.002252420116496558,-0.0021878238014213978,0.05961489387353194
4288,11.0,300.21987,-4726.0569,0.0,0.0,0.04288062409680493,0.0,0.0,0.0,0.37725239570441266,0.3670569617407017,0.6922939507790933,-0.0013134973828820987,0.006693584977430404,0.06626323307967194
4289,11.0,299.72038,-4774.7349,0.0,0.0,0.04289059560790154,0.0,0.0,0.0,0.39345973635395265,0.36511123783867366,0.6928292001444183,-0.0016778123682621884,0.01200513714581479,0.05485596212886195
4290,11.0,300.12928999999997,-4642.1581,0.0,0.0,0.04290060002827567,0.0,0.0,0.0,0.36746540285601165,0.35171603098666965,0.6919187037370593,-0.02483260780778758,0.010685759872602387,0.05828423203395584
4291,11.0,299.45706,-4635.3226,0.0,0.0,0.0429106044486498,0.0,0.0,0.0,0.35673915756241364,0.3654504537071517,0.6868327151251113,-0.0048368257514075355,-0.0014856683332490485,0.054143057597003746
4292,11.0,299.9829,-4626.1694,0.0,0.0,0.042920608869023935,0.0,0.0,0.0,0.33979211394237063,0.35611758942106964,0.7103302787866403,-0.012985224583291887,0.007594169873636212,0.07071339306836853
4293,11.0,300.21448,-4664.8619,0.0,0.0,0.04293061328939807,0.0,0.0,0.0,0.3531346419216757,0.36056685167017766,0.7043000424065023,0.01111822920078379,-0.0028356832497351474,0.06845163949990084
4294,11.0,300.36927000000003,-4620.7211,0.0,0.0,0.0429406177097722,0.0,0.0,0.0,0.3783155281068356,0.3493530304284596,0.6769152764588364,0.006621071835348914,-0.014819188012539985,0.06850414713333293
4295,11.0,300.60615,-4438.8202,0.0,0.0,0.042950622130146554,0.0,0.0,0.0,0.3354138501277697,0.3289231219746847,0.6849535110921483,-0.0035637253327873066,-0.013177043972972988,0.06322396204696923
4296,11.0,300.70194,-4377.5921,0.0,0.0,0.042960626550520686,0.0,0.0,0.0,0.31670967884681167,0.3416908534372617,0.6722781475086874,-0.008411833421408322,0.003120419902736467,0.06929163700505214
4297,11.0,300.21017,-4577.7355,0.0,0.0,0.04297059806161729,0.0,0.0,0.0,0.34767681078802964,0.35058094769464565,0.6932595173293873,0.0012115930977999287,0.012267682405725988,0.060718086131908544
4298,11.0,300.06208,-4633.0082,0.0,0.0,0.042980602481991426,0.0,0.0,0.0,0.34312766234406367,0.35393991230614963,0.7112512319350314,0.001980756416285438,0.013507546903841088,0.06929037044242713
4299,11.0,299.54263,-4526.3124,0.0,0.0,0.04299060690236556,0.0,0.0,0.0,0.3428095524751687,0.36414035172535464,0.6689360433788474,0.0060841543563842845,-0.00857066027325831,0.07345636342732864
4300,11.0,299.38745,-4543.3963,0.0,0.0,0.04300061132273969,0.0,0.0,0.0,0.3619568889523636,0.3435878400094797,0.6755343077650454,-0.0028403625400219576,0.004549047625581045,0.07243538425556584
4301,11.0,299.31289,-4683.5728,0.0,0.0,0.04301061574311382,0.0,0.0,0.0,0.3754351823125677,0.35827703816669065,0.6899769720404253,-0.008913403670634451,-0.014377288365677886,0.05414213655266285
4302,11.0,299.59337,-4594.6823,0.0,0.0,0.04302062016348818,0.0,0.0,0.0,0.3534353036238487,0.34540162861598667,0.6978317476106313,-0.009771101540457641,-0.004994550693773775,0.05886417687444195
4303,11.0,299.78713999999997,-4516.0724,0.0,0.0,0.04303062458386231,0.0,0.0,0.0,0.34503405187720965,0.3243243242758187,0.7034148772516433,-0.012961970493496885,-0.0035332745328320466,0.04653648777129376
4304,11.0,299.57672,-4600.2942,0.0,0.0,0.043040596094958694,0.0,0.0,0.0,0.33581273629463665,0.36539985199715763,0.6971619791620303,-0.0027700294055306176,0.014563609860316386,0.07554443984915572
4305,11.0,299.7026,-4651.6435,0.0,0.0,0.043050600515332826,0.0,0.0,0.0,0.38230028611260064,0.3400074397211217,0.6916757466280814,-0.011931171915014988,0.01074162440361579,0.05652053648589264
4306,11.0,300.50855,-4724.9073,0.0,0.0,0.04306060493570718,0.0,0.0,0.0,0.37500758063786666,0.37228275860144766,0.6889634990254033,-0.01028557775885749,-0.0016277127236927382,0.07216439558257133
4307,11.0,300.09538,-4705.6048,0.0,0.0,0.04307060935608131,0.0,0.0,0.0,0.37161792468083366,0.3612542101405147,0.6975142355592954,0.00920427291854101,-0.0028730677201247077,0.057517096330245446
4308,11.0,300.92287000000005,-4525.6103,0.0,0.0,0.043080613776455445,0.0,0.0,0.0,0.3340525891484237,0.34600051008759164,0.6956194376072934,0.013994308198880687,0.0008128047399650822,0.051232023496957046
4309,11.0,300.38428,-4494.2921,0.0,0.0,0.04309061819682958,0.0,0.0,0.0,0.3348053123827117,0.34238465617823466,0.6889626174978163,0.012130213751408887,-0.00014595201985184288,0.05785826675816635
4310,11.0,300.14473,-4713.3997,0.0,0.0,0.04310062261720371,0.0,0.0,0.0,0.3546566347643847,0.35926832100452266,0.7188308695730833,-0.0004134489215442316,-0.007889639580971802,0.055045626335580355
4311,11.0,299.51017,-4747.7486,0.0,0.0,0.043110627037578064,0.0,0.0,0.0,0.39004903519234263,0.36681435926925865,0.6863336286558553,0.005506832415107046,-0.008995785767364931,0.07940854813901352
4312,11.0,300.05155,-4567.35,0.0,0.0,0.04312059854867445,0.0,0.0,0.0,0.3452965241831137,0.3662129446724037,0.6768508844149813,0.0010938843403079789,0.014019404377357486,0.08127063027178671
4313,11.0,299.37212999999997,-4550.5851,0.0,0.0,0.04313060296904858,0.0,0.0,0.0,0.34133774590991267,0.35704515909261364,0.6848813575525273,-0.011419906179556988,0.013697349925823188,0.08053038521248022
4314,11.0,299.8658,-4562.889,0.0,0.0,0.043140607389422714,0.0,0.0,0.0,0.3437203427250567,0.3458152474393077,0.6974687304973043,-0.014895533367824685,0.0005510968907315285,0.06508197091434044
4315,11.0,299.78489,-4591.5283,0.0,0.0,0.04315061180979707,0.0,0.0,0.0,0.33451422589398366,0.3619325810824647,0.6992631254968974,-0.026513522849180973,0.008466601311838493,0.07180378696473202
4316,11.0,300.71169,-4593.9966,0.0,0.0,0.0431606162301712,0.0,0.0,0.0,0.34819312250898565,0.35931240751637367,0.6889547242795374,0.0030020248709517867,0.013152980296348087,0.07594549639773693
4317,11.0,300.33352,-4635.1921,0.0,0.0,0.04317062065054533,0.0,0.0,0.0,0.37923722092779966,0.3647910305420716,0.6649544061833904,0.004883339909173126,8.170625688727972e-05,0.05317812128827194
4318,11.0,300.12934,-4563.3905,0.0,0.0,0.043180625070919465,0.0,0.0,0.0,0.3470574312669017,0.3547871312447637,0.6853121914950473,-0.0035048484092266067,-8.873003767947292e-05,0.08552820080072623
4319,11.0,299.79331,-4622.4259,0.0,0.0,0.0431906294912936,0.0,0.0,0.0,0.35538074381584867,0.35616270944802264,0.6935585882289034,0.014024529396363285,-0.009229703773525841,0.05222013080897565
4320,11.0,300.45884,-4683.7882,0.0,0.0,0.043200601002390204,0.0,0.0,0.0,0.34531175333211667,0.36092492412301663,0.7175179811535113,0.01960113775973168,0.008889743267549353,0.05539559278761935
4321,11.0,299.83521,-4570.5423,0.0,0.0,0.04321060542276456,0.0,0.0,0.0,0.3382083229760627,0.3417849843715517,0.7093374051461513,0.013628861311813885,0.00035329459358246165,0.027110964492393873
4322,11.0,299.96128999999996,-4490.266,0.0,0.0,0.04322060984313869,0.0,0.0,0.0,0.3466207711363067,0.3401084303585887,0.6781995405630833,0.004663341324935956,-0.016214519526498484,0.06697264899143585
4323,11.0,299.48112000000003,-4681.1014,0.0,0.0,0.04323061426351282,0.0,0.0,0.0,0.3902486150645397,0.3439515157353717,0.6887377975656284,-0.004288241406816475,-0.001010733409666621,0.05138246783205475
4324,11.0,299.5502,-4698.8662,0.0,0.0,0.043240618683886956,0.0,0.0,0.0,0.35463397849214867,0.3650003882777337,0.7087036374736033,-0.004191056536725076,0.007141338271445213,0.09304419113374672
4325,11.0,299.47031,-4590.962,0.0,0.0,0.04325062310426109,0.0,0.0,0.0,0.34940754328383966,0.36040911902711065,0.6857211493679083,-0.002368486091601378,0.005769910036620785,0.06208077376739535
4326,11.0,299.55762000000004,-4619.5355,0.0,0.0,0.04326062752463522,0.0,0.0,0.0,0.3479955387394857,0.34920479193882964,0.7070231115202483,-0.0035020035069208374,0.0011392514989603689,0.06484738122468824
4327,11.0,299.40356,-4612.9517,0.0,0.0,0.04327059903573183,0.0,0.0,0.0,0.3476851397038517,0.35600409527736865,0.6985329065473304,-0.004974090742454536,0.006705346784591204,0.055943564521199945
4328,11.0,299.36036,-4551.2987,0.0,0.0,0.04328060345610618,0.0,0.0,0.0,0.34880170078404765,0.35639818877126267,0.6782812794486504,0.008185098446531322,0.014544000431131087,0.06472708715956614
4329,11.0,299.7774,-4714.5999,0.0,0.0,0.043290607876480314,0.0,0.0,0.0,0.36800439111420563,0.37316376943089663,0.6919524753628924,0.0056966347278140745,-0.008248344504523221,0.061213878525089443
4330,11.0,300.27783,-4710.9497,0.0,0.0,0.043300612296854446,0.0,0.0,0.0,0.35013200697283864,0.3730267881498776,0.7088523015282753,0.027310231270309973,-0.013239101488597587,0.07885075091921323
4331,11.0,300.00352000000004,-4582.178,0.0,0.0,0.04331061671722858,0.0,0.0,0.0,0.3491912143874897,0.35865974272946066,0.6850167378983884,0.007220575341190303,-0.012308475854751989,0.07291612380526113
4332,11.0,300.01743999999997,-4531.6393,0.0,0.0,0.04332062113760249,0.0,0.0,0.0,0.3300525411986497,0.35000050737486066,0.6974521435931673,0.011028476520175887,-0.006061557460604145,0.07103497939835664
4333,11.0,300.40794,-4648.7394,0.0,0.0,0.04333062555797684,0.0,0.0,0.0,0.35001369989116266,0.36221761846809564,0.7008693903504234,-0.026788741841342976,-0.004670062618149295,0.05351841829460666
4334,11.0,300.38441,-4633.5044,0.0,0.0,0.043340629978350975,0.0,0.0,0.0,0.3729459105268957,0.35059256967329266,0.6849311587949424,-0.004964495567982565,-0.007472479752526332,0.06314534498496034
4335,11.0,300.35183,-4553.3653,0.0,0.0,0.04335060148944758,0.0,0.0,0.0,0.3646148668796857,0.3516893014490317,0.6678051954722414,-0.01107137347640949,0.003973692909372956,0.08253613303718212
4336,11.0,299.84817999999996,-4596.6055,0.0,0.0,0.043360605909821714,0.0,0.0,0.0,0.3383434601418997,0.35971679563128367,0.6991930187224784,-0.00041536543344587664,0.006997961659770045,0.08959239052158051
4337,11.0,299.25041,-4587.6477,0.0,0.0,0.04337061033019607,0.0,0.0,0.0,0.3532127533718847,0.3503433000161917,0.6909743039813544,-0.008475505855042302,0.0019994687138321986,0.06689947004271364
4338,11.0,299.78267,-4598.977,0.0,0.0,0.0433806147505702,0.0,0.0,0.0,0.3272425453588247,0.3646553563536816,0.7060762799643033,0.008824997700734461,-0.001835508736975608,0.06362758819780404
4339,11.0,300.87602000000004,-4681.3004,0.0,0.0,0.04339061917094411,0.0,0.0,0.0,0.3803428490394166,0.3422245727949357,0.7004310076946584,0.01923109882321168,-0.0028778484367465275,0.04157136875052466
4340,11.0,300.12754,-4639.0716,0.0,0.0,0.043400623591318244,0.0,0.0,0.0,0.37688757500590764,0.3451532506189737,0.6881211031572654,0.02101585781435368,-0.008667451090385822,0.043213226040313364
4341,11.0,299.86591,-4498.9501,0.0,0.0,0.043410628011692376,0.0,0.0,0.0,0.34619694888447866,0.3420964979822957,0.6792750346167263,-0.007528231711453623,-0.007764089584930982,0.06451768180114945
4342,11.0,299.57754,-4736.2582,0.0,0.0,0.04342063243206673,0.0,0.0,0.0,0.35853585263973364,0.36246961376796566,0.7186987417600433,0.00864812709375369,-0.0009945858203754781,0.06200503636217065
4343,11.0,300.12712,-4855.0685,0.0,0.0,0.04343060394316334,0.0,0.0,0.0,0.3871614345273586,0.37364565091345464,0.7150125074987403,-0.0022510589163122177,0.011233244232884888,0.06512630871221624
4344,11.0,299.91941,-4629.1961,0.0,0.0,0.04344060836353747,0.0,0.0,0.0,0.33799204474221767,0.35522154196013667,0.7139464366710273,0.003889548061443506,0.012122015544849788,0.059141027199264944
4345,11.0,299.73337999999995,-4526.5563,0.0,0.0,0.0434506127839116,0.0,0.0,0.0,0.3594467442146317,0.3416104216443237,0.6749029110977314,-0.005634000064932515,-0.008010464285171272,0.05453522186270736
4346,11.0,299.52271,-4590.6085,0.0,0.0,0.043460617204285956,0.0,0.0,0.0,0.3642002246737637,0.35090281672141166,0.6803273151105783,-0.01006014177060869,-0.002923639235265727,0.054264813782020145
4347,11.0,299.83853,-4593.4207,0.0,0.0,0.043470621624659866,0.0,0.0,0.0,0.36162780558488566,0.35164146591181067,0.6830159235884234,-0.0006846313178253502,0.005167652415682586,0.08861513309163273
4348,11.0,300.26797,-4629.9286,0.0,0.0,0.043480626045034,0.0,0.0,0.0,0.3507089009172737,0.36900902858835566,0.6876647555772273,-0.007938823956725922,0.00014083101331643886,0.08549499558169911
4349,11.0,300.34384,-4697.8325,0.0,0.0,0.04349063046540813,0.0,0.0,0.0,0.35351276659399367,0.3668501067327866,0.7076609119281942,-0.008264394183457202,0.000970787868589303,0.08208804243220902
4350,11.0,300.16036,-4605.043,0.0,0.0,0.04350060197650496,0.0,0.0,0.0,0.3327740600397427,0.35655260808650263,0.7104914260825443,-0.003734739050215046,-0.008192236388185782,0.06012472180709805
4351,11.0,300.34993,-4510.4171,0.0,0.0,0.04351060639687909,0.0,0.0,0.0,0.3442710441544067,0.34907691977620964,0.6777062296193974,0.008273090909065502,0.0031247617807399768,0.047908464883697356
4352,11.0,299.97798,-4648.6106,0.0,0.0,0.043520610817253225,0.0,0.0,0.0,0.37214968846581464,0.3450619061224587,0.6958499621375444,0.009227436829077111,-0.009132531771710712,0.05423697980177315
4353,11.0,299.30154,-4637.4445,0.0,0.0,0.04353061523762736,0.0,0.0,0.0,0.35565637824055163,0.3492089969267447,0.7048019558435373,0.004703752981324276,-0.014341797254425186,0.06344838883811844
4354,11.0,299.71452999999997,-4521.1834,0.0,0.0,0.04354061965800149,0.0,0.0,0.0,0.32927544929945674,0.36095688203117066,0.6840945384523743,-0.0076638189629850435,-0.0014114205069963586,0.0928720784452605
4355,11.0,299.67688,-4673.4896,0.0,0.0,0.04355062407837562,0.0,0.0,0.0,0.34766507735187163,0.37150957784764066,0.7014494962976754,-0.012579297341479988,0.01026046435512899,0.07895661123666083
4356,11.0,300.33924,-4658.3376,0.0,0.0,0.043560628498749754,0.0,0.0,0.0,0.3585206944182377,0.35381323577864765,0.7036844017782433,-0.015874038108645586,0.014204851437159686,0.06927563170647252
4357,11.0,300.08886,-4488.0375,0.0,0.0,0.04357063291912411,0.0,0.0,0.0,0.36144576507191967,0.33726566601052965,0.6655399127536753,-0.007185928469920924,0.001068263602254409,0.045537737280224755
4358,11.0,299.71112,-4571.5754,0.0,0.0,0.04358060443022049,0.0,0.0,0.0,0.3634153712788047,0.3386709121767167,0.6875584960392404,0.005190735266210685,-0.005936840964095584,0.05900805433564154
4359,11.0,300.28146,-4758.7792,0.0,0.0,0.04359060885059485,0.0,0.0,0.0,0.3653660803713247,0.37326519576590667,0.7079187638136424,-0.004694244946360905,0.004357402312267126,0.06780911025373813
4360,11.0,299.84727000000004,-4808.581,0.0,0.0,0.04360061327096898,0.0,0.0,0.0,0.3731057608626716,0.36560613958501664,0.7229766532847404,0.00966856914163848,-0.0017266126209033983,0.06832760654190972
4361,11.0,299.85127,-4788.4142,0.0,0.0,0.04361061769134311,0.0,0.0,0.0,0.3586192836529677,0.36173668944063164,0.7352023668713242,0.006279612124524464,-0.0032451695325232967,0.06086759017091344
4362,11.0,300.3489,-4702.6763,0.0,0.0,0.043620622111717244,0.0,0.0,0.0,0.3582974551562057,0.3626140221722176,0.7085847021768653,0.0012400121286546687,0.0070568888405357025,0.04412634271243096
4363,11.0,300.62138999999996,-4640.5291,0.0,0.0,0.04363062653209138,0.0,0.0,0.0,0.35647347325369266,0.3553954663398017,0.6987360429273783,0.002417210046510058,0.0003067426922506467,0.03277735086762267
4364,11.0,300.99916,-4659.5324,0.0,0.0,0.04364063095246573,0.0,0.0,0.0,0.35434276028090766,0.36806901620558363,0.6939697245894794,-0.01207171780988579,0.0028284228061435973,0.05908885697811614
4365,11.0,300.56812,-4711.2163,0.0,0.0,0.04365063537283986,0.0,0.0,0.0,0.3585710428157067,0.3688720473073367,0.7046490158734433,-0.010327219298217189,-0.007874085178686702,0.07383580127177623
4366,11.0,299.85937,-4562.8701,0.0,0.0,0.04366060688393625,0.0,0.0,0.0,0.3375594882745277,0.35850916363209967,0.6909299033619724,-0.006707780104706354,-0.005446532381780895,0.08067282689828811
4367,11.0,299.87604,-4416.5888,0.0,0.0,0.04367061130431038,0.0,0.0,0.0,0.3060168404090107,0.36442828700627167,0.6720875956948813,-0.007895456345820872,0.008626737181492672,0.0994690519508311
4368,11.0,299.81252,-4590.4331,0.0,0.0,0.043680615724684735,0.0,0.0,0.0,0.3595192625242886,0.3513842523739257,0.6844735243872773,-0.004381730447168126,0.012036944079703888,0.07140885247325503
4369,11.0,299.38301,-4759.4832,0.0,0.0,0.04369062014505887,0.0,0.0,0.0,0.3943013317545116,0.35231003872529365,0.7001526780246894,-0.003764866927363436,0.004840688058138715,0.05065477694148725
4370,11.0,300.26754,-4692.7867,0.0,0.0,0.043700624565433,0.0,0.0,0.0,0.3673167084038366,0.3656290998322827,0.6935441696799803,0.009405558901256392,-0.0034929728140795763,0.06115522147680045
4371,11.0,300.38273,-4714.1493,0.0,0.0,0.04371062898580713,0.0,0.0,0.0,0.35831303894274363,0.3759775345610936,0.6986931115206413,0.01852388369066498,-0.011692100620170488,0.07322351754109853
4372,11.0,300.58087,-4889.4548,0.0,0.0,0.043720633406181264,0.0,0.0,0.0,0.36482857145827663,0.38996457066400664,0.7314790273913593,0.007358004681403523,-0.010335669804051189,0.07017086046132473
4373,11.0,300.31316,-4839.5551,0.0,0.0,0.04373063782655562,0.0,0.0,0.0,0.36567580052939164,0.37894841425179665,0.7264797020604643,-0.001973392925158718,-0.010427131837577791,0.07016933248017393
4374,11.0,300.31267,-4573.6241,0.0,0.0,0.043740609337652,0.0,0.0,0.0,0.36207601676662066,0.3323460125349977,0.6958455038371043,-0.013460666861464387,-0.0009297303159247381,0.03704299294685876
4375,11.0,300.18566,-4425.4567,0.0,0.0,0.043750613758026136,0.0,0.0,0.0,0.33477568494978766,0.3367676130563757,0.6736850452725374,0.0015097978711304486,0.004680625851766805,0.054474128961177946
4376,11.0,300.2264,-4434.6121,0.0,0.0,0.04376061817840049,0.0,0.0,0.0,0.33136471021065067,0.32959794654128466,0.6870486792514253,-0.0006087515306965985,-0.0017321400015239085,0.04530528554828356
4377,11.0,299.75439,-4633.5839,0.0,0.0,0.04377062259877462,0.0,0.0,0.0,0.36530886213817765,0.35081890948063066,0.6923660536562094,0.008489770795250142,-0.014384483454637985,0.08356317752404352
4378,11.0,300.12073,-4849.5776,0.0,0.0,0.043780627019148755,0.0,0.0,0.0,0.3737293859017186,0.37721568565328967,0.7232054147598173,0.006449794470245154,-0.017037228958443583,0.07716240571483653
4379,11.0,300.23785,-4725.1438,0.0,0.0,0.04379063143952289,0.0,0.0,0.0,0.3628527945582827,0.3681743840834827,0.7052985395850464,0.011314867607940489,-0.007784267244772362,0.08787752146933611
4380,11.0,299.7606,-4635.7396,0.0,0.0,0.04380063585989702,0.0,0.0,0.0,0.3718423494454826,0.36254594189799866,0.6747607723737034,-5.390536736204554e-05,-0.003238928722507377,0.06736594607075123
4381,11.0,299.52308,-4741.7892,0.0,0.0,0.043810607370993626,0.0,0.0,0.0,0.3706793612457046,0.3680524698314507,0.7026536933790204,-0.006236378566607644,0.007415758315903363,0.05050607944956195
4382,11.0,299.67527,-4786.1206,0.0,0.0,0.04382061179136776,0.0,0.0,0.0,0.35970541683266066,0.3718255294938227,0.7233301863771313,-0.016618116293080385,0.006743464746728154,0.045397717262155864
4383,11.0,299.71033,-4597.3088,0.0,0.0,0.04383061621174211,0.0,0.0,0.0,0.34465056711186265,0.36286387951437665,0.6899526540380253,-0.003212375895686817,0.005368146746094835,0.06860721088050453
4384,11.0,300.24633,-4453.2676,0.0,0.0,0.043840620632116245,0.0,0.0,0.0,0.3107343403570917,0.3536559185681217,0.6892918832503123,0.008450959364744753,0.004194930495832406,0.08233002884759122
4385,11.0,300.32122999999996,-4539.7753,0.0,0.0,0.04385062505249038,0.0,0.0,0.0,0.3328829641604907,0.3556812940605107,0.6914140747897564,0.017369098763696585,-0.013789480704415786,0.07962748919412133
4386,11.0,300.10008,-4673.0155,0.0,0.0,0.04386062947286451,0.0,0.0,0.0,0.3677160404007476,0.3474082285840227,0.7053557578181934,0.017649088137329384,-0.013739183982701887,0.07160052291517144
4387,11.0,300.71567000000005,-4635.8546,0.0,0.0,0.04387063389323864,0.0,0.0,0.0,0.35472186780582265,0.3451513051787817,0.7093108883910343,-0.0050432443525044645,-0.007921282773644742,0.06113819279561985
4388,11.0,300.58173,-4666.1634,0.0,0.0,0.043880638313612774,0.0,0.0,0.0,0.3514080536187747,0.36402503373147366,0.7029640721496523,-2.6736822906218973e-05,-0.0049954700155895055,0.06778759388786464
4389,11.0,299.77009,-4727.7431,0.0,0.0,0.04389060982470938,0.0,0.0,0.0,0.3758440489929196,0.3577940927715276,0.7034777088903443,0.006755064839172993,0.0026599289403895473,0.06115288390881974
4390,11.0,299.87666,-4756.8059,0.0,0.0,0.043900614245083736,0.0,0.0,0.0,0.36453530648183363,0.3616099217206207,0.7198049879542213,-0.013328846063204686,0.01104316965987599,0.07432449179500623
4391,11.0,299.86931,-4791.6598,0.0,0.0,0.04391061866545787,0.0,0.0,0.0,0.37777697554618467,0.37166672280564966,0.7071012229704573,-0.012308160733970888,0.0009323812618963661,0.06521513629548284
4392,11.0,299.99921,-4565.8283,0.0,0.0,0.043920623085832,0.0,0.0,0.0,0.37526754008352264,0.33060404309557867,0.6820262112882464,-0.01131572481752509,0.0013573318994332289,0.05326893180198425
4393,11.0,300.25083,-4459.0242,0.0,0.0,0.04393062750620613,0.0,0.0,0.0,0.3307687874293377,0.3487699657909157,0.6758932617454714,0.007501756398265712,0.004034682054092117,0.05622683986490704
4394,11.0,299.80133,-4612.1996,0.0,0.0,0.04394063192658004,0.0,0.0,0.0,0.35550268846538363,0.34624345706406867,0.7002473763790353,0.013273891430781089,0.005342472305785964,0.04396929806618186
4395,11.0,299.63094,-4763.5251,0.0,0.0,0.0439506363469544,0.0,0.0,0.0,0.36939721483416665,0.36227112820587665,0.7163243320057073,0.00013811972830135588,-0.007691189786611332,0.06406441146166514
4396,11.0,300.30827,-4612.4687,0.0,0.0,0.04396064076732853,0.0,0.0,0.0,0.32717512369717067,0.36243872990491766,0.7124614679869723,-0.010894143874918289,-0.011741953538340589,0.08513331595850411
4397,11.0,300.40039,-4595.0177,0.0,0.0,0.043970612278425136,0.0,0.0,0.0,0.34807561589488867,0.3474216034853426,0.7012734339602993,-0.0065777322914716335,-0.012042083284211089,0.07156201535837103
4398,11.0,300.30944,-4764.3726,0.0,0.0,0.04398061669879927,0.0,0.0,0.0,0.3722158435648436,0.36243928719247265,0.7135951631263593,0.0013659911347878287,0.0028799602526049474,0.07056722160894253
4399,11.0,300.6646,-4701.4132,0.0,0.0,0.04399062111917362,0.0,0.0,0.0,0.36449181778754164,0.36017086339859666,0.7044495271937553,-0.013338509429408387,0.003091005860283527,0.06954588374664435
4400,11.0,300.95185,-4595.7631,0.0,0.0,0.044000625539547755,0.0,0.0,0.0,0.35894263202487964,0.3467790002719227,0.6912755736335874,-0.001142140781620519,0.011478387935578687,0.060792393841242146
4401,11.0,299.93654,-4641.0541,0.0,0.0,0.04401062995992189,0.0,0.0,0.0,0.35991188680553765,0.3667191441573616,0.6841335181837214,0.0017797222262199083,0.01970753205998198,0.06702197704605414
4402,11.0,299.74928,-4627.4758,0.0,0.0,0.0440206343802958,0.0,0.0,0.0,0.3441492818898897,0.35629220281080265,0.7061956002960793,0.0064720969155462335,0.02904580608834787,0.08128854250705451
4403,11.0,299.67276,-4635.2281,0.0,0.0,0.04403063880066993,0.0,0.0,0.0,0.36102756635814665,0.3618510752444207,0.6861149692842754,-0.0032340429318501868,0.012002636444567989,0.07526854907217743
4404,11.0,300.39412999999996,-4778.1839,0.0,0.0,0.04404061031176676,0.0,0.0,0.0,0.36227897076165066,0.36714907630729265,0.7230205675440743,-0.004362452046790495,-0.016442227221471484,0.07034490339125143
4405,11.0,300.3711,-4708.7957,0.0,0.0,0.04405061473214089,0.0,0.0,0.0,0.3679715516784647,0.35552017716210965,0.7078645954632964,-0.003989242144082546,-0.016375030501339684,0.05731216244452004
4406,11.0,299.88597000000004,-4650.1753,0.0,0.0,0.044060619152515024,0.0,0.0,0.0,0.3572230452801697,0.36461731894492766,0.6916968120976603,0.007268598937629864,-0.011328008448487388,0.04684916661965275
4407,11.0,299.89746,-4755.0731,0.0,0.0,0.044070623572889156,0.0,0.0,0.0,0.37523085029740166,0.35899337558988764,0.7111992420724004,0.006189080558564694,0.0002217937594393398,0.06443739794272603
4408,11.0,300.43844,-4786.2241,0.0,0.0,0.04408062799326329,0.0,0.0,0.0,0.3671387006262687,0.34924512942531066,0.7385087944651433,-0.002097672204249128,0.0009068708363811832,0.058524874879705445
4409,11.0,299.71544,-4646.444,0.0,0.0,0.04409063241363742,0.0,0.0,0.0,0.36528931654374863,0.35631870943341865,0.6907949384486524,0.003189882148766857,8.193964182256302e-05,0.07584909882297322
4410,11.0,299.99649,-4636.0179,0.0,0.0,0.04410063683401155,0.0,0.0,0.0,0.3466639862530717,0.34295190398171765,0.7196178102632482,0.002078779953484608,0.0040676655739973365,0.05619422435743815
4411,11.0,300.22311,-4689.2933,0.0,0.0,0.044110641254385685,0.0,0.0,0.0,0.3784372194438456,0.3634095146932267,0.6835813576742273,-0.003852699296381816,-0.005780996816564964,0.06964256401818593
4412,11.0,300.15924,-4664.8744,0.0,0.0,0.044120612765482514,0.0,0.0,0.0,0.36335283348263264,0.36051606757516563,0.6941364346284323,-0.005908259711899834,-0.0053752497306208446,0.05001959578504975
4413,11.0,300.81277,-4587.9207,0.0,0.0,0.044130617185856647,0.0,0.0,0.0,0.34424713145204666,0.36016364905788467,0.6902025519101883,-0.006645301077040154,-0.007766207986915053,0.07594922515810493
4414,11.0,300.80019,-4671.6608,0.0,0.0,0.04414062160623078,0.0,0.0,0.0,0.3325511044877387,0.38531924452054866,0.7021978828215353,-0.005669935385029056,0.014282670058089786,0.07266419639314783
4415,11.0,300.01554,-4696.8047,0.0,0.0,0.04415062602660491,0.0,0.0,0.0,0.3537402919039486,0.3677732079713897,0.7061978497113013,0.0001133750665492479,0.01030398952642459,0.08157840194991142
4416,11.0,300.13223999999997,-4665.4623,0.0,0.0,0.04416063044697904,0.0,0.0,0.0,0.3308664647389777,0.37490655960289665,0.7124110283969943,-0.0029496508852078773,0.01204479068847829,0.08318815745003191
4417,11.0,300.0641,-4711.1684,0.0,0.0,0.044170634867353176,0.0,0.0,0.0,0.37475835151076964,0.36170440729244563,0.6956147867893343,0.002016104861924058,-0.016793476448137085,0.06254085821380215
4418,11.0,299.80065,-4642.633,0.0,0.0,0.04418063928772731,0.0,0.0,0.0,0.3597013233022566,0.34326787589290164,0.7082753163913313,0.01007350785665282,-0.007077073897102813,0.05498854793094716
4419,11.0,299.98596000000003,-4562.1988,0.0,0.0,0.04419064370810166,0.0,0.0,0.0,0.3441091267884267,0.35325160138071865,0.6894337889268174,0.013184667666725386,-0.0016302984366229284,0.06691274260577353
4420,11.0,299.80998999999997,-4839.6453,0.0,0.0,0.04420061521919805,0.0,0.0,0.0,0.3794522427315206,0.3660465386084807,0.7256325540493573,0.006194854462934534,0.007605340044063623,0.059244920798268444
4421,11.0,299.66685,-5000.7305,0.0,0.0,0.0442106196395724,0.0,0.0,0.0,0.4035075296455926,0.3793857532599586,0.7372039208538623,0.016995098019285584,-0.0011283886472882889,0.053991590892555154
4422,11.0,300.31388,-4796.8373,0.0,0.0,0.044220624059946534,0.0,0.0,0.0,0.36353434710554666,0.3777784954213346,0.7168059297782373,0.008753246522728172,0.010892926961548189,0.06411397155055634
4423,11.0,300.22157999999996,-4812.2167,0.0,0.0,0.044230628480320666,0.0,0.0,0.0,0.3860350651861946,0.3701678016677176,0.7065908387625863,-0.004130308646854725,0.0018430703184968782,0.047575461251582456
4424,11.0,299.52353,-4828.835999999999,0.0,0.0,0.044240632900694576,0.0,0.0,0.0,0.39098802419251366,0.3610129350267027,0.7158445986133612,-0.013027665576980487,-0.0035476672438774963,0.04931426225793875
4425,11.0,299.53733,-4675.3904,0.0,0.0,0.04425063732106893,0.0,0.0,0.0,0.36315679998578565,0.35197456174968467,0.7060705854987414,-0.016016542615959684,0.00857616343720143,0.05340821620048054
4426,11.0,299.43287999999995,-4615.4258,0.0,0.0,0.044260641741443285,0.0,0.0,0.0,0.3448581921898537,0.3426655595034577,0.7154504240594594,-0.008515040442144062,0.013836312110787686,0.06172143779168165
4427,11.0,299.57721000000004,-4748.8121,0.0,0.0,0.04427061325253967,0.0,0.0,0.0,0.3385354102408437,0.3827014216946896,0.7222834686263283,-0.008296088443935182,0.006049815614470314,0.07165773304231764
4428,11.0,299.8221,-4733.665,0.0,0.0,0.0442806176729138,0.0,0.0,0.0,0.34862139292875266,0.3690957323994126,0.7211988553217853,0.0001863192046932738,-0.003374284547715957,0.07360569724031674
4429,11.0,299.64462000000003,-4724.585999999999,0.0,0.0,0.044290622093287935,0.0,0.0,0.0,0.37218813117460864,0.37020216097860864,0.6937658789343614,0.01049832785585429,-0.01905266244085138,0.06524606676803543
4430,11.0,299.52182,-4689.4752,0.0,0.0,0.04430062651366229,0.0,0.0,0.0,0.36466734310236465,0.36939604959655165,0.6914199820378394,0.01886111156244678,-0.016064323437675283,0.07475280882427783
4431,11.0,300.16032,-4682.9785,0.0,0.0,0.04431063093403642,0.0,0.0,0.0,0.36398998541051464,0.3579924162136007,0.7015261284027383,0.017718169502647183,-0.014673210083883087,0.07628856464309514
4432,11.0,299.85539,-4725.644,0.0,0.0,0.044320635354410554,0.0,0.0,0.0,0.34848088553738565,0.38884898230390663,0.6991479088280264,0.01028561727561139,0.004321249548699126,0.09667594395042281
4433,11.0,300.02069,-4689.5558,0.0,0.0,0.044330639774784686,0.0,0.0,0.0,0.3581949446435887,0.3523079210325847,0.7150050094480004,-0.0037088484836598464,0.01005773509897117,0.07647496415799133
4434,11.0,300.11897999999997,-4610.3596,0.0,0.0,0.04434064419515882,0.0,0.0,0.0,0.34530933166437766,0.3582253320140877,0.6978995340423214,-0.008216059417911932,0.01950512927300638,0.07952777423853022
4435,11.0,300.21661,-4461.7192,0.0,0.0,0.044350615706255425,0.0,0.0,0.0,0.34857132824131165,0.34413591712107067,0.6635439924416934,0.0022545351747552977,0.013481662416786487,0.06342256615931995
4436,11.0,300.34677999999997,-4585.0898,0.0,0.0,0.04436062012662956,0.0,0.0,0.0,0.35153954308425167,0.3410112058001857,0.7012020808882573,-0.004771899826074845,0.004923410201602756,0.06361960986651664
4437,11.0,300.25301,-4811.2334,0.0,0.0,0.04437062454700369,0.0,0.0,0.0,0.38282611225199564,0.3634120174209737,0.7162566874290313,0.0027569022438600674,-0.002222350906528958,0.051164897704332246
4438,11.0,300.06816000000003,-4773.5509,0.0,0.0,0.044380628967378044,0.0,0.0,0.0,0.3710573237980066,0.34980671316073464,0.7301762512077853,0.007624291873934022,-0.011124203323373388,0.05782546582592915
4439,11.0,299.75177,-4776.2559,0.0,0.0,0.044390633387752176,0.0,0.0,0.0,0.3606380831522077,0.36893440271849065,0.7222900648844793,0.013801453267597385,-0.013851801665066386,0.07165766819431124
4440,11.0,299.64775,-4818.1057,0.0,0.0,0.04440063780812631,0.0,0.0,0.0,0.3761919990772596,0.3643278739213616,0.7240639517020483,0.01158716945306459,-0.008203810136128023,0.05531808320796974
4441,11.0,299.76668,-4706.9514,0.0,0.0,0.04441064222850044,0.0,0.0,0.0,0.39541240101916564,0.3433978860132327,0.6919854059911423,0.004001858627702696,0.004757013864880715,0.05534827400794935
4442,11.0,300.06113999999997,-4595.5197,0.0,0.0,0.04442064664887457,0.0,0.0,0.0,0.3573710912522806,0.33702691388946665,0.7025252335313423,0.008935080433998781,0.005574251138335755,0.05912787521296694
4443,11.0,300.12703999999997,-4576.8695,0.0,0.0,0.04443061815997118,0.0,0.0,0.0,0.36118400204108564,0.34722538760347765,0.6828446539240204,0.006939892397864055,-0.0008626604749704602,0.07476637522986672
4444,11.0,300.22227999999996,-4568.1009,0.0,0.0,0.04444062258034531,0.0,0.0,0.0,0.32850719294113573,0.3626261001134096,0.6974553049334794,0.006933450356378274,-0.011465899628096188,0.08232536384413083
4445,11.0,299.58707000000004,-4577.1592,0.0,0.0,0.04445062700071967,0.0,0.0,0.0,0.3288341383509027,0.3686155734420246,0.6938923832093463,-0.02037453028280958,-0.0010170640747014092,0.08870177002818311
4446,11.0,300.00677,-4661.3565,0.0,0.0,0.0444606314210938,0.0,0.0,0.0,0.34395787894599966,0.3635783525573897,0.7093997504248043,-0.017633966392836983,0.005925165384518295,0.062406735311315235
4447,11.0,300.38035,-4730.5941,0.0,0.0,0.04447063584146793,0.0,0.0,0.0,0.37185870330209664,0.36609441467570564,0.7000293553550183,-0.019836351611445483,0.007004844262399304,0.06327540678104644
4448,11.0,300.12751000000003,-4740.5478,0.0,0.0,0.044480640261842064,0.0,0.0,0.0,0.3517363162536717,0.37643557426879865,0.7128362793314633,0.0005838896561729224,0.006777789100490704,0.06562845519677422
4449,11.0,299.77686,-4732.0866,0.0,0.0,0.044490644682216196,0.0,0.0,0.0,0.37460533048066763,0.3558903478211427,0.7079404777632853,0.004072864864235466,-0.002169034800842068,0.06810997460593114
4450,11.0,299.82662,-4828.9832,0.0,0.0,0.04450061619331258,0.0,0.0,0.0,0.3676339570101467,0.37734544246109564,0.7229109237507533,0.023297953391828975,-0.012977098317489886,0.08638864163989511
4451,11.0,299.71705,-4713.367,0.0,0.0,0.044510620613686935,0.0,0.0,0.0,0.3554610134887707,0.35901982141749766,0.7182650403197404,0.013791597383874686,-0.012172322399064687,0.07637528365290364
4452,11.0,299.83709,-4567.2836,0.0,0.0,0.04452062503406129,0.0,0.0,0.0,0.3500714044843577,0.3564621349850737,0.6818066501240774,0.023867665419555182,-0.01024200699130739,0.08318635386485393
4453,11.0,299.56777999999997,-4607.6721,0.0,0.0,0.04453062945443542,0.0,0.0,0.0,0.3680349000747167,0.3410450280885237,0.6915373467969224,-6.678241533816123e-06,0.008480584771168554,0.047701362642757955
4454,11.0,299.37314,-4718.0963,0.0,0.0,0.044540633874809554,0.0,0.0,0.0,0.36879819150754767,0.34748468843656866,0.7179005945237723,-0.008102208204875692,0.01697645219094538,0.05349420364371685
4455,11.0,299.47685,-4819.606,0.0,0.0,0.044550638295183465,0.0,0.0,0.0,0.3597375064633277,0.3796622793447496,0.7256401027626023,-0.02075766952987248,0.015658602898883787,0.05207394820379855
4456,11.0,299.6246,-4907.9244,0.0,0.0,0.0445606427155576,0.0,0.0,0.0,0.3707965942822746,0.38015846791871966,0.7409314146592373,-0.01047954321225039,0.0002928931947163077,0.06257272796919744
4457,11.0,300.07417000000004,-4893.734,0.0,0.0,0.04457064713593195,0.0,0.0,0.0,0.37525975832275466,0.38559697637295864,0.7267162148988062,-0.01034903254636999,0.0001188100387606379,0.060412198085719744
4458,11.0,300.26988,-4691.7449,0.0,0.0,0.04458061864702856,0.0,0.0,0.0,0.37554174582558464,0.36198556393019365,0.6886459869740673,-0.003017295563208887,-0.01003283559233878,0.05929892804184853
4459,11.0,300.03147,-4698.9772,0.0,0.0,0.04459062306740269,0.0,0.0,0.0,0.3693433099288467,0.36217444388133463,0.6968539713966323,-0.0014730120288999687,0.002776043450174157,0.05397561903122885
4460,11.0,300.61147,-4676.1217,0.0,0.0,0.04460062748777682,0.0,0.0,0.0,0.3570257452206977,0.36764264056350365,0.6967558381244474,0.002697263964174227,-0.007582130030647972,0.06915782821009624
4461,11.0,300.14333,-4730.1526,0.0,0.0,0.04461063190815118,0.0,0.0,0.0,0.35468031441922165,0.3694549903548686,0.7137129635829853,0.00987386506162461,0.01968395069040468,0.06748788362753554
4462,11.0,299.49871,-4740.0313,0.0,0.0,0.04462063632852531,0.0,0.0,0.0,0.3516635446314897,0.37269568841470063,0.7164919235722473,0.011255331058564688,0.0029374304810518173,0.08746048596667792
4463,11.0,299.78786,-4719.8048,0.0,0.0,0.04463064074889922,0.0,0.0,0.0,0.3467162192957267,0.37522037329136765,0.7127662130870482,0.006644563937592404,0.004856875944386336,0.08147426415763383
4464,11.0,299.26231,-4709.499,0.0,0.0,0.04464064516927335,0.0,0.0,0.0,0.35271119457238465,0.37682930299265666,0.7020296123774283,0.003127713783581317,-0.005912510600044364,0.08362095811099601
4465,11.0,299.54695,-4734.7933,0.0,0.0,0.044650649589647484,0.0,0.0,0.0,0.36402970481443464,0.36702077857963067,0.7082084520172323,-0.0026199236986163377,0.008945975000398992,0.045582742809916456
4466,11.0,300.12357000000003,-4779.8566,0.0,0.0,0.04466062110074431,0.0,0.0,0.0,0.36252789591371765,0.37626064677153465,0.7141685208279454,-0.004671068370198555,0.01073753593946229,0.05812742854123054
4467,11.0,300.19095,-4770.87,0.0,0.0,0.044670625521118446,0.0,0.0,0.0,0.35809731799645367,0.3720512714836017,0.7200767821610453,-0.014183327978535488,0.015197465685623086,0.04387091756097246
4468,11.0,299.99486,-4712.5678,0.0,0.0,0.04468062994149258,0.0,0.0,0.0,0.33735680785702465,0.37812733716576263,0.7170187832267443,-0.0077112998626710436,0.008171945244333201,0.08708649130176752
4469,11.0,299.83527000000004,-4755.3457,0.0,0.0,0.04469063436186671,0.0,0.0,0.0,0.36693559464372366,0.36067865368621166,0.7178921136204354,-0.007800581989932503,0.004797366752763235,0.06421192649072373
4470,11.0,299.69282000000004,-4814.3877,0.0,0.0,0.04470063878224084,0.0,0.0,0.0,0.39325971065171167,0.3659763609065546,0.7042175841133643,5.594169203501515e-05,-0.004820682752139345,0.07946390604497693
4471,11.0,300.29421,-4785.4721,0.0,0.0,0.044710643202614975,0.0,0.0,0.0,0.3999457123640686,0.34846663924097965,0.7062516735566133,0.01052399753388769,-0.008922547340861862,0.05721933860285905
4472,11.0,299.74665,-4799.8996,0.0,0.0,0.04472064762298911,0.0,0.0,0.0,0.3868051251296936,0.35059659227618967,0.7216478973686024,0.018438324852220984,-0.012920957169199188,0.05724534265342544
4473,11.0,299.62597999999997,-4771.6386,0.0,0.0,0.04473065204336324,0.0,0.0,0.0,0.3651741708023846,0.36153975415119566,0.7237450413655743,0.017254363388623087,0.004850719132803705,0.05392433641716765
4474,11.0,299.23589,-4680.4166,0.0,0.0,0.04474062355446007,0.0,0.0,0.0,0.3375707556156397,0.36144198564904667,0.7237170351328103,0.007679558182088384,-0.003219905762479957,0.051683922909056046
4475,11.0,299.35332,-4758.7719,0.0,0.0,0.0447506279748342,0.0,0.0,0.0,0.3565408949153467,0.3736538683717656,0.7163530576460423,0.0006525294268321403,0.001193637191452819,0.07111986949173463
4476,11.0,299.78859,-4751.6297,0.0,0.0,0.04476063239520833,0.0,0.0,0.0,0.3731792518924246,0.36453624880442664,0.7066612799095384,-0.00959698048894823,-0.0019229990327602284,0.049414626706843955
4477,11.0,300.18701,-4694.111,0.0,0.0,0.044770636815582465,0.0,0.0,0.0,0.36026373790276267,0.3664054824564057,0.7002233218216612,-0.01247290912073029,0.004868895522372576,0.06882647313589403
4478,11.0,300.5034,-4693.9856,0.0,0.0,0.0447806412359566,0.0,0.0,0.0,0.3575995284873256,0.36778958209300566,0.7014653029992354,-0.01070141559989749,-0.0008410198846347003,0.04766446514036646
4479,11.0,300.28276,-4766.8976,0.0,0.0,0.04479064565633073,0.0,0.0,0.0,0.36203499027007163,0.36825489693642866,0.7187279436279252,-0.01172154262832619,0.00966269867453411,0.08053462262439842
4480,11.0,300.08802000000003,-4787.5863,0.0,0.0,0.04480065007670486,0.0,0.0,0.0,0.35162972234315165,0.3799484414379916,0.7237285051239423,0.014292682995577986,-0.0031247509389639066,0.07622455459452783
4481,11.0,299.68365,-4625.7879,0.0,0.0,0.04481062158780147,0.0,0.0,0.0,0.3551767461732157,0.35669132202519266,0.6942559474777273,0.0073838445854537225,-0.00011971114233956988,0.08978703485254041
4482,11.0,299.75097,-4666.5878,0.0,0.0,0.0448206260081756,0.0,0.0,0.0,0.36326065812103564,0.36188101678487566,0.6933844814642203,0.016489828697919384,-0.01191999677966209,0.07502381877552443
4483,11.0,299.99712999999997,-4667.6628,0.0,0.0,0.044830630428549956,0.0,0.0,0.0,0.3688840948510257,0.34715436890396867,0.7028144759048883,0.006766759670502184,-0.015665325813297288,0.06512285048962493
4484,11.0,299.60629,-4643.7599,0.0,0.0,0.04484063484892409,0.0,0.0,0.0,0.3588180529250847,0.35109078474746264,0.7016782273752493,0.012018975102430489,-0.01028677238072539,0.06793557805171953
4485,11.0,298.85348,-4776.5052,0.0,0.0,0.04485063926929822,0.0,0.0,0.0,0.36037822503156164,0.3659291333193937,0.7256309429816983,0.0035200516190270464,-0.0015349329584110885,0.04721180477744236
4486,11.0,299.31712000000005,-4808.4077,0.0,0.0,0.04486064368967213,0.0,0.0,0.0,0.34809157458396367,0.37929960673645663,0.7342447036718103,0.0007929796202309952,-9.045330758829641e-05,0.06710164079541635
4487,11.0,299.58002999999997,-4808.9839,0.0,0.0,0.044870648110046485,0.0,0.0,0.0,0.37017450938337965,0.36717647458999664,0.7244600514311403,-0.007377861242288213,0.0026372749986287775,0.05079525596185146
4488,11.0,299.27366,-4893.3502,0.0,0.0,0.04488065253042084,0.0,0.0,0.0,0.3789802607024397,0.38203720585663664,0.7264387971539272,-0.006228949416874444,-0.0034485426077946564,0.06475313376663673
4489,11.0,299.91236000000004,-4821.4959,0.0,0.0,0.044890624041517224,0.0,0.0,0.0,0.38751980082272663,0.3553814632234197,0.7227130968012294,0.0027947655762468873,-0.003694649708683536,0.047712745494381356
4490,11.0,300.22227000000004,-4704.0893,0.0,0.0,0.044900628461891356,0.0,0.0,0.0,0.3782098055914016,0.3511201487353606,0.7005957418959163,-0.003958738756447097,-0.001071088746183229,0.06286295724834084
4491,11.0,300.43795,-4693.6553,0.0,0.0,0.04491063288226549,0.0,0.0,0.0,0.3579792338297997,0.36269356230506766,0.7060812043597894,0.003508248065962127,0.006726940765422363,0.07826742486314342
4492,11.0,300.5198,-4607.1683,0.0,0.0,0.04492063730263984,0.0,0.0,0.0,0.3547570681142967,0.3468529573967217,0.6988541068290304,0.0006794158561156243,0.003789669060661216,0.08740202954190872
4493,11.0,300.11217,-4643.9448,0.0,0.0,0.044930641723013975,0.0,0.0,0.0,0.3552135271518457,0.35085909497959666,0.7055706276343993,0.011254094893442689,0.01124471321076679,0.07998752836540442
4494,11.0,299.81441,-4751.536,0.0,0.0,0.04494064614338811,0.0,0.0,0.0,0.38100582871234767,0.36436626596765065,0.6989762034660804,0.008594180746504601,0.005819946758359024,0.06984759618917102
4495,11.0,299.95654,-4861.1071,0.0,0.0,0.04495065056376224,0.0,0.0,0.0,0.36722218230200765,0.37503021664510067,0.7354027776086033,0.00928578179633531,-0.007686260932824892,0.06317668481055334
4496,11.0,300.10706,-4823.1966,0.0,0.0,0.04496065498413637,0.0,0.0,0.0,0.37342593776177063,0.37801462322463864,0.7146907701944873,0.0014625877118711688,-0.007147624475065613,0.06904741130694893
4497,11.0,299.34766,-4778.8529,0.0,0.0,0.04497062649523298,0.0,0.0,0.0,0.3377827579340627,0.38369042471979664,0.7311787608567253,-0.003564093851848676,0.006877432419299733,0.05420001339837485
4498,11.0,299.59193,-4801.0222,0.0,0.0,0.04498063091560711,0.0,0.0,0.0,0.35724562049239766,0.3892732807832816,0.7128719761324863,0.0004506521822859075,0.004640533369159985,0.06877517228333103
4499,11.0,300.3172,-4805.5505,0.0,0.0,0.044990635335981244,0.0,0.0,0.0,0.3517506030800817,0.3776092319921296,0.7314075223318023,-0.008089583513929733,0.01132352684329509,0.05947958242867774
4500,11.0,300.668,-4738.7043,0.0,0.0,0.0450006397563556,0.0,0.0,0.0,0.36331070254347464,0.36901326397377365,0.7081238253688803,-0.013381073026359089,-0.005145561435677375,0.06910490007787264
4501,11.0,300.32672,-4683.7606,0.0,0.0,0.04501064417672973,0.0,0.0,0.0,0.3654867077957296,0.35778361576549367,0.7004759554690944,-0.003817445184327507,0.002373833924304168,0.050983975819476654
4502,11.0,300.35014,-4672.4725,0.0,0.0,0.04502064859710386,0.0,0.0,0.0,0.37479531487441764,0.3427734301091037,0.7027462132456513,-0.0005220019916625855,0.018365796410062984,0.07804502457219423
4503,11.0,300.28303999999997,-4806.6487,0.0,0.0,0.045030653017477995,0.0,0.0,0.0,0.3616214525067587,0.37386685354278565,0.7256128665999143,0.01666052080976538,0.0024908693771046675,0.07192596060878963
4504,11.0,300.35346,-4893.6898,0.0,0.0,0.04504062452857438,0.0,0.0,0.0,0.38202814740074265,0.3761024379009206,0.7294289083315283,-0.000969200085417601,-0.002344641378323088,0.09337301713569932
4505,11.0,299.77106000000003,-4955.5181,0.0,0.0,0.045050628948948734,0.0,0.0,0.0,0.38654371673639465,0.3824610686384686,0.7373489878706794,0.008660749048924382,0.00013215879822805788,0.061804681353647146
4506,11.0,299.95419,-4827.9968,0.0,0.0,0.04506063336932287,0.0,0.0,0.0,0.37632747061562966,0.37418390963157666,0.7170791121376984,0.015223409954433584,0.008195862506318652,0.05786597759142735
4507,11.0,300.02479,-4645.8964,0.0,0.0,0.04507063778969722,0.0,0.0,0.0,0.35611547172836067,0.35878553772937566,0.6973354779766533,0.01048878000016199,-0.011049765918026989,0.04622786800283536
4508,11.0,299.84385,-4649.4542,0.0,0.0,0.04508064221007135,0.0,0.0,0.0,0.34896109515727863,0.3617262023020966,0.7026306824692493,-0.008784723846359742,-0.014090285274852885,0.054235504509627545
4509,11.0,299.39258,-4685.0987,0.0,0.0,0.045090646630445486,0.0,0.0,0.0,0.33877473991446366,0.36771588841323266,0.7176624098227653,-0.014748193631033385,-0.00927351154027433,0.06269097425586745
4510,11.0,299.37734,-4719.9747,0.0,0.0,0.04510065105081962,0.0,0.0,0.0,0.37339762755397665,0.3618700736837957,0.6994867599264684,-0.01702677019091138,0.013852940558178787,0.06995490748076184
4511,11.0,299.99206000000004,-4715.4251,0.0,0.0,0.04511065547119375,0.0,0.0,0.0,0.36143818596117167,0.36278609230419967,0.7091472181023813,-0.008712923120423561,0.003696139996930617,0.08820645487579931
4512,11.0,299.97354,-4719.1055,0.0,0.0,0.045120626982290135,0.0,0.0,0.0,0.3719755817011316,0.36670406699587366,0.6958105872386583,-0.015784788000087285,0.015419518431787986,0.07036218335845684
4513,11.0,299.66238,-4778.7814,0.0,0.0,0.04513063140266449,0.0,0.0,0.0,0.37200427694396365,0.36372122082148967,0.7169047115304863,0.0028912613349452772,0.006726956876098953,0.0911503648885906
4514,11.0,299.95055,-4792.1046,0.0,0.0,0.045140635823038844,0.0,0.0,0.0,0.36599628140352064,0.37432907797340365,0.7163547700387113,0.007315367927795604,0.016170414776145687,0.061964640107183847
4515,11.0,300.5868,-4729.5207,0.0,0.0,0.045150640243412976,0.0,0.0,0.0,0.35165242927789264,0.36967803709938163,0.7163257201583443,0.01999295144090068,-0.00022351313340152878,0.07614821430549362
4516,11.0,300.38325,-4812.013,0.0,0.0,0.04516064466378711,0.0,0.0,0.0,0.36436214203974365,0.38437279799964164,0.7139968559960034,0.0029295640125754576,-0.013374949956004788,0.05466552785206755
4517,11.0,300.48245,-4837.1155,0.0,0.0,0.04517064908416102,0.0,0.0,0.0,0.3659905970704596,0.3840295493957656,0.7203421928922393,0.008880560283218061,-0.016147889213172586,0.06930784900665213
4518,11.0,299.75362,-4895.8791,0.0,0.0,0.04518065350453515,0.0,0.0,0.0,0.37549049563552667,0.38098970790325665,0.7317447826275872,-0.00972399848173393,-0.004089959204022546,0.03825114879634447
4519,11.0,299.78362999999996,-4854.4546,0.0,0.0,0.045190657924909505,0.0,0.0,0.0,0.37167807120676966,0.3850587480523397,0.7188961634095273,-0.005193325538766325,-0.0018249066958792683,0.05670882976522574
4520,11.0,300.02873,-4778.2787,0.0,0.0,0.04520062943600611,0.0,0.0,0.0,0.3505062103672697,0.37203185761168567,0.7299393229369023,-0.01051926869567099,0.005657715487498045,0.05100110379916705
4521,11.0,299.73568,-4813.3428,0.0,0.0,0.045210633856380245,0.0,0.0,0.0,0.36130387966041666,0.3812652612679516,0.7205668811019144,-0.006106514455616055,-0.006874448195105214,0.07505906873325333
4522,11.0,299.34112999999996,-4938.1167,0.0,0.0,0.04522063827675438,0.0,0.0,0.0,0.4000616180430076,0.36844122349731767,0.7325613304856743,-0.004808593867846265,0.012861435818574886,0.07239518558434853
4523,11.0,300.00782000000004,-4823.8592,0.0,0.0,0.04523064269712873,0.0,0.0,0.0,0.3763759546329146,0.36663189319125067,0.7233248972116093,-0.005741579867799814,0.005743049789719885,0.0876900094058301
4524,11.0,300.51257000000004,-4691.0807,0.0,0.0,0.045240647117502863,0.0,0.0,0.0,0.3756795579716856,0.35924314173953764,0.6910486968036964,0.007440447471814993,0.0037992646404332265,0.07370776597589013
4525,11.0,301.0871,-4698.4633,0.0,0.0,0.045250651537876774,0.0,0.0,0.0,0.35858547149713066,0.3424123584359687,0.7272177027707993,0.0034765188483556965,-0.011706448241586488,0.06683957581605253
4526,11.0,300.91481,-4764.1408,0.0,0.0,0.045260655958250906,0.0,0.0,0.0,0.35899521970506965,0.3629330439662027,0.7262515789329503,0.008686794642744881,0.0013284338039312087,0.05328549844111925
4527,11.0,300.47787999999997,-4756.7943,0.0,0.0,0.045270627469347735,0.0,0.0,0.0,0.35244044401316366,0.36246166988718165,0.7310445660134813,-0.0016546635551525782,-0.017348198453883884,0.058695651091309746
4528,11.0,299.69006,-4775.6306,0.0,0.0,0.04528063188972187,0.0,0.0,0.0,0.3617212576416086,0.36923355467801466,0.7207176425842933,-0.010865962349886989,-0.003854452219054816,0.05930235282718654
4529,11.0,300.58099999999996,-4730.7412,0.0,0.0,0.045290636310096,0.0,0.0,0.0,0.34852567119180566,0.37707127724903766,0.7124302497513912,0.012022692717047388,-0.015558697452273885,0.07199601570745352
4530,11.0,299.85107999999997,-4701.5984,0.0,0.0,0.04530064073047013,0.0,0.0,0.0,0.3784703831196186,0.35118187593145267,0.6995162556368794,0.0008105085733834682,0.012994041885662087,0.06137795411378244
4531,11.0,300.05152000000004,-4749.9159,0.0,0.0,0.045310645150844264,0.0,0.0,0.0,0.3587840989142337,0.3680376865124917,0.7170340326407493,0.006463187002116894,0.016541461896515185,0.08468962285896502
4532,11.0,299.66846,-4737.7169,0.0,0.0,0.0453206495712184,0.0,0.0,0.0,0.36411155515751265,0.3640017796416786,0.7120343121423154,-0.004295325342240606,0.015387750001402686,0.06775551033669824
4533,11.0,299.77126,-4675.6903,0.0,0.0,0.04533065399159253,0.0,0.0,0.0,0.35279602387075665,0.35498566746935767,0.7135114078730933,0.0022594552132658677,0.006575365541888055,0.07570685269443464
4534,11.0,299.98973,-4707.8306,0.0,0.0,0.04534065841196666,0.0,0.0,0.0,0.3725177616971407,0.35656539530276465,0.7019797807375103,-0.007962149683302992,0.0015652859797316986,0.07650650866010451
4535,11.0,299.92467,-4866.4466,0.0,0.0,0.04535062992306327,0.0,0.0,0.0,0.3835245151484226,0.36757068967390266,0.7281830261410693,-0.001062443696330029,-0.007392582145041054,0.08067498714750132
4536,11.0,299.04789,-4947.753,0.0,0.0,0.04536063434343762,0.0,0.0,0.0,0.3952143004921146,0.3782738632627236,0.7305052129852513,-0.0065273042525447736,-0.00807659445824781,0.06609422093649174
4537,11.0,299.84226,-4793.0687,0.0,0.0,0.045370638763811755,0.0,0.0,0.0,0.3352765446067187,0.38563644246435363,0.7360602249359883,0.014856771485249186,-0.010898525168350688,0.06931496202235414
4538,11.0,299.30811,-4796.5457,0.0,0.0,0.04538064318418589,0.0,0.0,0.0,0.3589101066966697,0.36530760570805365,0.7338124106491464,0.014801741872318185,0.009359227229833811,0.04559580461695555
4539,11.0,299.48585,-4913.1687,0.0,0.0,0.04539064760456002,0.0,0.0,0.0,0.3648527678706646,0.38563563186427363,0.7429922032426213,0.005122607369236985,0.004904420476178615,0.04814495137753676
4540,11.0,300.2959,-4810.2554,0.0,0.0,0.04540065202493415,0.0,0.0,0.0,0.36569369452615763,0.37156131439774664,0.7249425205987563,0.0005931496779093154,0.0019564255456091684,0.05499652930198485
4541,11.0,299.88583,-4800.9957,0.0,0.0,0.045410656445308284,0.0,0.0,0.0,0.37379932042362063,0.36171893729887966,0.7238645339498673,-0.010217690002157491,-0.002084823382381048,0.06986907202504053
4542,11.0,300.00702,-4852.4628,0.0,0.0,0.045420660865682416,0.0,0.0,0.0,0.38631154060848066,0.37791111972692365,0.7108048648684783,0.003636170080487046,0.005686086388973035,0.07029502919482923
4543,11.0,300.6338,-4705.1483,0.0,0.0,0.04543063237677902,0.0,0.0,0.0,0.36459468293769365,0.35171085327865864,0.7139420594305953,-0.014180227433229485,-0.00042960746406895555,0.09380898015022551
4544,11.0,299.84095,-4784.2407,0.0,0.0,0.045440636797153156,0.0,0.0,0.0,0.3787926979764286,0.3701818149166006,0.7053152075491913,-0.01023597713996229,0.005855126497855995,0.07510787293756992
4545,11.0,299.89628999999996,-4745.5927,0.0,0.0,0.04545064121752751,0.0,0.0,0.0,0.36923098102276064,0.3591087138487707,0.7142019783462473,-0.004308436190584546,6.411209602462124e-05,0.08752604324814792
4546,11.0,300.11003,-4734.477,0.0,0.0,0.04546064563790164,0.0,0.0,0.0,0.36598305848971563,0.3516332383209987,0.7215465014310953,0.005576801995462504,0.0022402697279224077,0.06395629767599514
4547,11.0,299.66696,-4762.307,0.0,0.0,0.045470650058275774,0.0,0.0,0.0,0.36145023350486066,0.37268744055888664,0.7134847289979602,0.016445013659246485,-0.007798069737634562,0.08925950543972733
4548,11.0,299.52251,-4798.9606,0.0,0.0,0.04548065447864991,0.0,0.0,0.0,0.3705239793428697,0.3608277027759217,0.7274125203675263,0.005770635523692385,-0.00993960989568812,0.046507827992215256
4549,11.0,299.90137000000004,-4777.8309,0.0,0.0,0.04549065889902404,0.0,0.0,0.0,0.3450143846927687,0.3811737749164226,0.7261531416857353,0.009839180497451512,-0.008632030400015072,0.07028728391106484
4550,11.0,299.90792000000005,-4845.7789,0.0,0.0,0.04550066331939839,0.0,0.0,0.0,0.37178713744753367,0.3805414257940146,0.7206672232593173,0.0002005058713308888,0.0002900661762748027,0.03323144092643787
4551,11.0,300.22477000000003,-4862.6103,0.0,0.0,0.04551063483049478,0.0,0.0,0.0,0.36665918001644365,0.3832740599887046,0.7281788616831583,-0.011221504717226289,0.004535802014973806,0.06832868666651634
4552,11.0,299.66138,-4871.4743,0.0,0.0,0.04552063925086891,0.0,0.0,0.0,0.3895024171608956,0.37322534463947366,0.7180787948188593,-0.02024453840098038,-0.0031392547022203172,0.05627522762343254
4553,11.0,299.52841,-4755.0902,0.0,0.0,0.04553064367124304,0.0,0.0,0.0,0.36424071414775966,0.35921421344918264,0.7219737484682613,-0.0056929548061008944,-0.001306811654747269,0.08714054718135242
4554,11.0,300.26566,-4683.769,0.0,0.0,0.0455406480916174,0.0,0.0,0.0,0.35283842838744167,0.35724368518470667,0.7136666985834192,0.0068539899663111435,0.00960369793181119,0.07606375788315842
4555,11.0,300.48492999999996,-4747.7287,0.0,0.0,0.04555065251199153,0.0,0.0,0.0,0.3639481787113886,0.35676890658534965,0.7224739089826233,0.00971664481913318,0.004206515186875726,0.08942700074750781
4556,11.0,299.96187000000003,-4770.9895,0.0,0.0,0.04556065693236566,0.0,0.0,0.0,0.3771617503504666,0.3510287637088417,0.7220711623328753,0.008415764527821293,-0.006194489996873564,0.07104681517277472
4557,11.0,300.04415,-4720.6379,0.0,0.0,0.045570661352739794,0.0,0.0,0.0,0.3591449679373486,0.37260401967815365,0.7032070596561334,-0.00015455292239818587,0.0007923460754734693,0.06109129147499103
4558,11.0,300.39142000000004,-4781.880999999999,0.0,0.0,0.0455806328638364,0.0,0.0,0.0,0.3609742592703856,0.36929089450117364,0.7233072565273683,0.0013858806263007685,-0.004576348838925465,0.06462196651469153
4559,11.0,300.99544,-4800.6444,0.0,0.0,0.04559063728421053,0.0,0.0,0.0,0.36128565129111767,0.37798757957946966,0.7200027946387433,-0.016802504506528083,-0.01009060665474034,0.057020831762517946
4560,11.0,300.97656,-4886.5526,0.0,0.0,0.045600641704584666,0.0,0.0,0.0,0.36112202153246864,0.3951585109416086,0.7291094305749983,-0.016443301266577483,-0.01980281201988538,0.06813924030856944
4561,11.0,300.24356,-4903.2653,0.0,0.0,0.0456106461249588,0.0,0.0,0.0,0.37527777390953265,0.3816662853925296,0.7335261573633953,-0.01040232038237909,-0.006086191597035344,0.05335112057059565
4562,11.0,299.83889,-4776.3519,0.0,0.0,0.04562065054533315,0.0,0.0,0.0,0.3815657507176076,0.36798848308763565,0.7023374782878123,0.004235420983078506,0.008624892964985663,0.07192188126388703
4563,11.0,299.63241,-4644.733,0.0,0.0,0.045630654965707285,0.0,0.0,0.0,0.34883537108487067,0.3555862815986337,0.7074612003334844,-0.0033981134542926867,0.02153762994009858,0.07564591178042022
4564,11.0,299.7405,-4730.0187,0.0,0.0,0.04564065938608142,0.0,0.0,0.0,0.3912511348459806,0.3422910521339967,0.7042653993855833,-0.002127163962984738,0.004760660045365565,0.08033500728844792
4565,11.0,299.81717000000003,-4892.2958,0.0,0.0,0.04565066380645555,0.0,0.0,0.0,0.36782375901887865,0.37266441951661466,0.7466475840383794,-0.006634931272866734,0.014531565825903887,0.07691095351702013
4566,11.0,300.16148,-4851.5022,0.0,0.0,0.045660635317551934,0.0,0.0,0.0,0.3843835587157036,0.36300995978129363,0.7273420082930674,-0.0022280371647651477,0.0014885795021113584,0.07081140981679203
4567,11.0,299.78211,-4832.5124,0.0,0.0,0.04567063973792629,0.0,0.0,0.0,0.3531213784778667,0.37046123889667765,0.7453804843908263,-0.004527592156038556,-0.002165221028790678,0.06487702790936414
4568,11.0,300.05176,-4861.5088,0.0,0.0,0.04568064415830042,0.0,0.0,0.0,0.4016219826670036,0.36193191233739863,0.7142233781883592,-0.004566971107924956,-0.005031491664594565,0.04847048938291486
4569,11.0,300.06363,-4941.8201,0.0,0.0,0.045690648578674775,0.0,0.0,0.0,0.3751389282483297,0.3849273700443736,0.7421236047268973,-0.01048493978228299,0.010245269656629391,0.05345110606396345
4570,11.0,300.81043,-4849.1582,0.0,0.0,0.04570065299904891,0.0,0.0,0.0,0.38595543386083564,0.37323791907321463,0.7148296462531933,0.012655049945456187,-0.003420537489605767,0.05942099326814545
4571,11.0,300.93737000000004,-4825.9165,0.0,0.0,0.04571065741942304,0.0,0.0,0.0,0.34391468409423664,0.3882742263171826,0.7347692125860753,0.006600861346204294,0.006646713952979594,0.06657263811695784
4572,11.0,300.42176,-4741.5902,0.0,0.0,0.04572066183979717,0.0,0.0,0.0,0.3465669878209987,0.37822366685276965,0.7165343483539344,0.021860743237987378,-0.013916769234978185,0.07322996485148484
4573,11.0,300.60987,-4686.924,0.0,0.0,0.045730666260171304,0.0,0.0,0.0,0.34767086300994265,0.35606483962086366,0.7209721710094132,0.013759195672176885,0.0006244495307858705,0.06213881577287365
4574,11.0,300.06669,-4800.6748,0.0,0.0,0.04574063777126769,0.0,0.0,0.0,0.3825399704237556,0.35644025891541464,0.7203050370110723,0.007907553234789743,0.0028172165640126274,0.07124433004126793
4575,11.0,300.02301,-4783.4998,0.0,0.0,0.045750642191642044,0.0,0.0,0.0,0.36674377626729265,0.35383398714069564,0.7334867216695032,-0.01021597456973819,-0.0001017688034112989,0.06821554614710022
4576,11.0,299.78851000000003,-4684.5969,0.0,0.0,0.0457606466120164,0.0,0.0,0.0,0.38057600801992764,0.3437271112357247,0.6996973639597533,-0.01193078991972729,-0.00027596074189770474,0.08601948017796172
4577,11.0,300.20768,-4782.798,0.0,0.0,0.04577065103239053,0.0,0.0,0.0,0.3640362200125776,0.3544084898148947,0.7354064455739653,-0.013040641257761087,0.025018347696868677,0.06517896731991323
4578,11.0,299.25682,-4896.5473,0.0,0.0,0.04578065545276466,0.0,0.0,0.0,0.36677261336513867,0.3858276123607206,0.7358278866880583,-0.0003639814234471696,0.008899380289250452,0.06449294127345774
4579,11.0,299.89867000000004,-4828.5827,0.0,0.0,0.04579065987313857,0.0,0.0,0.0,0.36165521400009065,0.37099213128657266,0.7351212460683183,-0.003759163747850577,-0.0009002498143977391,0.05986387374110435
4580,11.0,300.09848999999997,-4825.5594,0.0,0.0,0.045800664293512705,0.0,0.0,0.0,0.3640752402739286,0.3832722260060237,0.7195021173668303,0.0009856679225353502,-0.030497367916605872,0.05502480911227585
4581,11.0,300.04181,-4763.3679999999995,0.0,0.0,0.04581063580460931,0.0,0.0,0.0,0.36899867317233365,0.36550794551782567,0.7134383018783783,0.013282276075358587,-0.012320214357160488,0.07266861416358383
4582,11.0,299.71361,-4754.5536,0.0,0.0,0.045820640224983666,0.0,0.0,0.0,0.36889012368912066,0.36977299889875365,0.7066024404762313,0.008013418719812853,-0.008091629367206643,0.06563439182911014
4583,11.0,300.06182,-4818.0837,0.0,0.0,0.0458306446453578,0.0,0.0,0.0,0.36744992039448365,0.38243111696551263,0.7146960897575123,0.007280818328535823,-0.002053276245817588,0.09346019312130291
4584,11.0,299.63171,-4915.6096,0.0,0.0,0.04584064906573193,0.0,0.0,0.0,0.3778231392207406,0.37239498618252365,0.7440044502250223,0.004784970347064805,-0.009980798512253121,0.05632063034716345
4585,11.0,299.7067,-4779.5381,0.0,0.0,0.045850653486106285,0.0,0.0,0.0,0.37922297463139365,0.35621739455591966,0.7174198681463283,0.014222605605411885,0.009657605572906462,0.07460826261801223
4586,11.0,299.77196000000004,-4771.2063,0.0,0.0,0.045860657906480196,0.0,0.0,0.0,0.36037140585838867,0.3529361259620837,0.7370200362257143,0.0028605704960413276,0.0016746149562466286,0.04979989985861745
4587,11.0,299.73787000000004,-4903.4596,0.0,0.0,0.04587066232685433,0.0,0.0,0.0,0.3900362277110786,0.3692557347227036,0.7312372963150022,-0.0049900465944292555,0.006595394456614754,0.07565017249709072
4588,11.0,300.12318999999997,-4930.1965,0.0,0.0,0.04588066674722846,0.0,0.0,0.0,0.37580255640132465,0.38318691034760366,0.7396671521119643,-0.00873379181683314,-0.004453916512117336,0.05919605073269535
4589,11.0,300.6825,-4858.5677,0.0,0.0,0.04589063825832529,0.0,0.0,0.0,0.36130684848320965,0.39007118483952863,0.7255052290417913,0.0027175033309466976,0.007922959094610183,0.07739091083763822
4590,11.0,300.03317999999996,-4860.8033,0.0,0.0,0.04590064267869942,0.0,0.0,0.0,0.36093207766872265,0.4017912460962086,0.7148395051766663,0.0056145602538139544,0.004876564812379475,0.06403581247759264
4591,11.0,299.93497,-4769.7063,0.0,0.0,0.045910647099073554,0.0,0.0,0.0,0.3587868448220046,0.37243813037178164,0.7186466404399013,-0.0036188879854564364,-0.016012276833038682,0.05344428283779004
4592,11.0,299.50363,-4820.3537,0.0,0.0,0.045920651519447686,0.0,0.0,0.0,0.3588121963395067,0.37898249998516065,0.7274724541109413,0.0034694719978852267,-0.024636006890884576,0.06736375643728514
4593,11.0,299.68506,-4818.455,0.0,0.0,0.04593065593982182,0.0,0.0,0.0,0.37236068766663866,0.3679061261195077,0.7244231893925023,0.009764914635347042,-0.01036393441559069,0.056141959904030043
4594,11.0,299.2098,-4839.5905,0.0,0.0,0.04594066036019595,0.0,0.0,0.0,0.37911534720577167,0.3696036341445387,0.7223956860749032,0.01763032071897718,-0.008919051628016861,0.08611940791607382
4595,11.0,299.62959,-4817.1256,0.0,0.0,0.04595066478057008,0.0,0.0,0.0,0.36785050882151865,0.36991234105250564,0.7265230488997423,0.006394016673440314,-0.003221270813014677,0.07585248409155734
4596,11.0,299.23216,-4832.834,0.0,0.0,0.045960669200944215,0.0,0.0,0.0,0.37730092025170164,0.36818673560220166,0.7235732144136163,0.0016024872545031784,0.002824112845518237,0.08965509550401901
4597,11.0,299.19482999999997,-4891.0535,0.0,0.0,0.04597064071204082,0.0,0.0,0.0,0.3826058722102596,0.36390537902716463,0.7402468730241784,0.0061354553102722946,0.025443349371813077,0.05877672021856065
4598,11.0,299.06894,-4812.6405,0.0,0.0,0.04598064513241518,0.0,0.0,0.0,0.3717046588893937,0.36703486275602065,0.7241830187212993,-0.0021061768176384678,0.017595573333297882,0.06998338183507202
4599,11.0,299.93703,-4730.3844,0.0,0.0,0.04599064955278931,0.0,0.0,0.0,0.3539403784011957,0.3597194604790467,0.7242589010212883,-0.016690915273015087,-0.001994273983219518,0.05650950117905354
4600,11.0,299.93339,-4835.9823,0.0,0.0,0.04600065397316344,0.0,0.0,0.0,0.37230768455390767,0.37486123692592366,0.7228489432421363,-0.027785468871962274,-0.007828648511077452,0.07417515190251753
4601,11.0,300.25293,-4983.3774,0.0,0.0,0.046010658393537573,0.0,0.0,0.0,0.3809980266865776,0.38389233506722364,0.7499319430450203,-0.008453805786925672,0.0036890883841846763,0.05998713460251924
4602,11.0,300.10118,-4920.3752,0.0,0.0,0.046020662813911706,0.0,0.0,0.0,0.3930935882978166,0.39066358151049363,0.7119140190904433,0.007247835517905673,0.008165856320507273,0.06950980292383342
4603,11.0,299.67183,-4849.7131,0.0,0.0,0.04603066723428584,0.0,0.0,0.0,0.36472167357272667,0.3828747482567956,0.7265952429693674,0.01068393196942199,-0.007816339751512674,0.060615331426017445
4604,11.0,299.94203,-4750.3667,0.0,0.0,0.046040638745382445,0.0,0.0,0.0,0.3731855543080467,0.3519942188016247,0.7188130870338283,0.015899633819421683,-0.011410081706587388,0.06277964275886834
4605,11.0,300.57595,-4790.3194,0.0,0.0,0.04605064316575658,0.0,0.0,0.0,0.35911358758175166,0.36655047854571565,0.7304734273296143,0.007460832341301823,-0.006400592159964264,0.05807366042467404
4606,11.0,300.04455,-4909.8139,0.0,0.0,0.04606064758613071,0.0,0.0,0.0,0.37161209849275867,0.36859180259467866,0.7522569264594783,0.014173543022319787,0.005653963017077704,0.08333704036672551
4607,11.0,299.68315,-4874.3054,0.0,0.0,0.046070652006505064,0.0,0.0,0.0,0.35932756573786967,0.3811008715717276,0.7412387030170643,-0.004834879905915495,-0.0030044924389203173,0.06976796081081164
4608,11.0,299.76981,-4758.4213,0.0,0.0,0.046080656426879196,0.0,0.0,0.0,0.3667719243550706,0.3678070707897316,0.7118622622753353,-0.02189072834819668,0.009018882702069422,0.09291319512106841
4609,11.0,299.67922999999996,-4825.1908,0.0,0.0,0.04609066084725333,0.0,0.0,0.0,0.37066146724893867,0.36995689365940265,0.7261191674098824,-0.027292820593841676,0.026979783054947273,0.06745936165047063
4610,11.0,299.47237,-4832.5702,0.0,0.0,0.04610066526762746,0.0,0.0,0.0,0.36637196414309764,0.3791946542910986,0.7234140328229063,-0.019823514745928583,0.019069283795491783,0.07483515363340464
4611,11.0,299.97153,-4747.9004,0.0,0.0,0.04611066968800159,0.0,0.0,0.0,0.35088694922484565,0.37111896993409066,0.7212372676330764,-0.0052315188867107145,0.005391797320653965,0.055747447937844745
4612,11.0,299.61287999999996,-4764.0688,0.0,0.0,0.0461206411990982,0.0,0.0,0.0,0.33889144606098165,0.37876006119070765,0.7305064491503733,-0.005273850145413484,0.001308463860360329,0.06267140535668615
4613,11.0,299.93481,-4815.6338,0.0,0.0,0.04613064561947233,0.0,0.0,0.0,0.3636506479520246,0.37758740658497564,0.7225943844195133,0.01851894612292768,0.0014755713973275586,0.05506868993435654
4614,11.0,300.5251,-4897.215,0.0,0.0,0.046140650039846465,0.0,0.0,0.0,0.3829615128628586,0.38250763761306467,0.7231619159330243,0.001110591010606799,0.0010836916522520387,0.06754547473671933
4615,11.0,300.04233999999997,-4929.9609,0.0,0.0,0.0461506544602206,0.0,0.0,0.0,0.39037850359485865,0.38370028364326964,0.7245062353706984,0.0005041619808619135,-0.0072262574451010825,0.07239017506260402
4616,11.0,300.18291,-4857.6065,0.0,0.0,0.04616065888059495,0.0,0.0,0.0,0.38405616747589266,0.3593231175699307,0.7332118167848722,-0.008839632071928762,-0.004190134681784096,0.06057661007344595
4617,11.0,300.4461,-4792.3819,0.0,0.0,0.046170663300969084,0.0,0.0,0.0,0.3624376254623087,0.3586225767157927,0.7357042296458544,-0.002006116445088278,-0.003981598691953196,0.07186540472981323
4618,11.0,299.48281000000003,-4797.5643,0.0,0.0,0.046180667721343216,0.0,0.0,0.0,0.35605054266195263,0.36726509344374264,0.7350241260462334,0.0003896010975881347,0.0007047542621613302,0.06046687002136545
4619,11.0,299.51998,-4753.3552,0.0,0.0,0.04619067214171735,0.0,0.0,0.0,0.3629980946226226,0.3543513931717597,0.7275518118587734,-0.007471617071391193,-0.017483652767002183,0.08090160357211663
4620,11.0,299.48217999999997,-4755.5268,0.0,0.0,0.046200643652813955,0.0,0.0,0.0,0.36959360296854865,0.37006646652521663,0.7059013220695364,-0.001066714646826539,0.002154158465523888,0.057356347241630745
4621,11.0,299.34358,-4683.6935,0.0,0.0,0.04621064807318809,0.0,0.0,0.0,0.35657116069583367,0.37127080546157565,0.6958839262808963,-0.005199950573220165,-0.0043181184032401055,0.08293300992910083
4622,11.0,299.97452999999996,-4730.3889,0.0,0.0,0.04622065249356222,0.0,0.0,0.0,0.36560319102722566,0.36545937030803166,0.7068575565864093,-0.006589624199945274,0.008404986789157612,0.05672158354423445
4623,11.0,299.83962,-4857.577,0.0,0.0,0.04623065691393635,0.0,0.0,0.0,0.35934194375678863,0.38657410410689363,0.7306660765711273,-0.016345838765958683,-0.012479031177834488,0.08427738306903011
4624,11.0,300.06076,-4873.5706,0.0,0.0,0.046240661334310706,0.0,0.0,0.0,0.35547631356528064,0.37588832802228966,0.7500791277545463,-0.006894661116050073,7.422966779764782e-05,0.05929803536851044
4625,11.0,300.49375,-4780.5837,0.0,0.0,0.04625066575468484,0.0,0.0,0.0,0.35724710997004466,0.36943688357558163,0.7264940699468823,0.00924839418487044,-0.0016520807806476784,0.06784903534742844
4626,11.0,300.24658999999997,-4866.1862,0.0,0.0,0.04626067017505897,0.0,0.0,0.0,0.37231565883219464,0.36941475419339764,0.7374686831049924,0.012097978212727489,-0.0026307746952622473,0.06893215208157373
4627,11.0,300.14768,-4826.712,0.0,0.0,0.04627064168615558,0.0,0.0,0.0,0.38275967344293865,0.36244044229758665,0.7219998092608334,0.015248120084622287,-0.01646250640897288,0.07460471016316163
4628,11.0,300.17952,-4807.5462,0.0,0.0,0.04628064610652949,0.0,0.0,0.0,0.37184653416839564,0.36187951717472766,0.7276479692932633,-0.0023001572671328477,0.005749974036928255,0.07540084913773443
4629,11.0,299.71872,-4869.3778,0.0,0.0,0.04629065052690384,0.0,0.0,0.0,0.36463383492155765,0.3806591857206367,0.7348762320616373,0.010414354753816791,0.007802968700543054,0.06469837671798265
4630,11.0,299.82133,-4912.023,0.0,0.0,0.046300654947277975,0.0,0.0,0.0,0.36483023318844066,0.39029330952645064,0.7380087859382963,-0.006459649847342805,0.007240767490508114,0.06310569752179744
4631,11.0,300.2686,-4917.7817,0.0,0.0,0.04631065936765233,0.0,0.0,0.0,0.37399233443516966,0.39258637556275866,0.7283041297930213,-0.019614712271321378,-0.012949204555486987,0.06467486526266224
4632,11.0,299.55758,-4853.9926,0.0,0.0,0.04632066378802646,0.0,0.0,0.0,0.37907578992186763,0.36409144214302763,0.7323252938748793,-0.019027086995077283,-0.009571346072018311,0.053531029205351244
4633,11.0,298.59834,-4855.4817,0.0,0.0,0.04633066820840037,0.0,0.0,0.0,0.37317898844739866,0.3679095610373466,0.7348566459372043,-0.0018996634776571881,-0.004614231929689236,0.06660175791158174
4634,11.0,298.9169,-4843.4704,0.0,0.0,0.046340672628774726,0.0,0.0,0.0,0.3812659097480156,0.36930349933241763,0.7217246611961783,-0.0005516040122740775,0.00969913555343015,0.07069519104357214
4635,11.0,299.80714,-4866.3852,0.0,0.0,0.04635064413987111,0.0,0.0,0.0,0.37133451862786365,0.35891636858228765,0.7490086999514033,0.004758748853026945,-0.006021389490864874,0.07883565450597334
4636,11.0,299.64897,-4888.3077,0.0,0.0,0.04636064856024524,0.0,0.0,0.0,0.38718612743229563,0.3755984979636856,0.7231388442282474,0.00888020220063272,0.015965165769639186,0.06079846016959084
4637,11.0,299.4183,-4776.5164,0.0,0.0,0.0463706529806196,0.0,0.0,0.0,0.36863770282420866,0.35659545843323165,0.7267085547280503,0.006408870514606275,0.004796256737278686,0.06422468128298253
4638,11.0,299.57129,-4777.4848,0.0,0.0,0.04638065740099395,0.0,0.0,0.0,0.36154928883463666,0.37009635740316665,0.7205904391667393,0.01052590143082559,-0.001997249797438208,0.06779812763590423
4639,11.0,300.37928999999997,-4884.4189,0.0,0.0,0.046390661821368084,0.0,0.0,0.0,0.3630442481646776,0.3959330291855476,0.7257641043098403,0.001195511501487799,-0.024157280669137977,0.08260640294486722
4640,11.0,300.33431,-4828.6899,0.0,0.0,0.04640066624174222,0.0,0.0,0.0,0.37207907506634563,0.3682214090206236,0.7275006731262263,-0.006742727809930424,-0.005025564050184555,0.08321537841396842
4641,11.0,300.08726,-4784.8676,0.0,0.0,0.04641067066211613,0.0,0.0,0.0,0.36135709555566864,0.38034119744175365,0.7127819893911053,-0.0026546915519476575,0.006500381082812664,0.07081079781373163
4642,11.0,300.28168999999997,-4720.9125,0.0,0.0,0.04642067508249026,0.0,0.0,0.0,0.36349473915913766,0.36581070464770565,0.7057340952730323,-0.015349721711899585,0.01856381689035608,0.08225557725674343
4643,11.0,300.36908999999997,-4822.1176,0.0,0.0,0.04643064659358709,0.0,0.0,0.0,0.37185043518128064,0.3693241189719526,0.7246287981027942,-0.005725660391503684,0.005035140479529675,0.060193722112407845
4644,11.0,299.9974,-4902.6508,0.0,0.0,0.04644065101396122,0.0,0.0,0.0,0.35732282001751664,0.3897175200246246,0.7432430738348802,-0.0002892750812592277,0.006803969760549534,0.07272453037035234
4645,11.0,299.35917,-4934.6726,0.0,0.0,0.04645065543433535,0.0,0.0,0.0,0.37138996367333565,0.38278890570832363,0.7458383923760182,0.016176507448996985,-0.0038702434178882862,0.05908632993236674
4646,11.0,298.92136,-4949.2715,0.0,0.0,0.046460659854709485,0.0,0.0,0.0,0.37360273977171965,0.3887674258033576,0.7420847668505642,0.006354480262488374,-0.0035324881494294366,0.08190404634655002
4647,11.0,299.09175,-4961.8042,0.0,0.0,0.04647066427508384,0.0,0.0,0.0,0.3950080939642636,0.38378386664401865,0.7294726098083413,0.0072361652072289034,-0.016198534492920885,0.07657167584028601
4648,11.0,299.80024,-5022.1923,0.0,0.0,0.04648066869545775,0.0,0.0,0.0,0.4071546220555326,0.3775947222506977,0.7418717107520373,0.0026528401413649376,0.001164406141967939,0.054939577553614144
4649,11.0,299.63428999999996,-4963.0631,0.0,0.0,0.04649067311583188,0.0,0.0,0.0,0.3969072995542006,0.37008517112206263,0.7416547840381282,-0.00916445654658644,0.011865465685780289,0.06776013278365443
4650,11.0,300.13948,-4868.725,0.0,0.0,0.04650064462692871,0.0,0.0,0.0,0.35571287706612764,0.37625925861889764,0.7479987023842243,-0.009059504405203471,0.003011131253575517,0.04799540883502805
4651,11.0,300.71057,-4817.9381,0.0,0.0,0.04651064904730284,0.0,0.0,0.0,0.35423474782024766,0.36999784922844464,0.7403002814369493,-0.006813086174349253,-0.011788999753733688,0.07846227893687402
4652,11.0,300.33522,-4794.4864,0.0,0.0,0.046520653467676976,0.0,0.0,0.0,0.34537116018547964,0.3824083289707636,0.7296246682508483,0.01969694562293718,-0.0024138023850987476,0.052503011998393856
4653,11.0,299.79947000000004,-4749.6548,0.0,0.0,0.04653065788805111,0.0,0.0,0.0,0.37055720381364865,0.36391290747540767,0.7093063490305863,0.014574144621606087,-0.005904638963992495,0.07540955903559401
4654,11.0,299.17638999999997,-4887.5392,0.0,0.0,0.04654066230842524,0.0,0.0,0.0,0.3850270434567106,0.37707653601705665,0.7235863056049083,0.0001018903022307899,-0.007123631016672643,0.05744306321168895
4655,11.0,299.63344,-4867.2824,0.0,0.0,0.04655066672879937,0.0,0.0,0.0,0.3839032984333056,0.3749432392565166,0.7206857758686482,-0.02083975292047348,-0.015863444578850087,0.09095233630229672
4656,11.0,299.24929,-4815.962,0.0,0.0,0.046560671149173505,0.0,0.0,0.0,0.35695759401897165,0.36361809222631164,0.7433565173160762,-0.008851430457418171,-0.006371383604631604,0.06768517862075703
4657,11.0,299.14157,-4895.5365,0.0,0.0,0.04657067556954764,0.0,0.0,0.0,0.36673954088187466,0.3795193908156477,0.7418619328885723,-0.0009468560056699122,0.006761700208777854,0.07918201176115613
4658,11.0,299.63251,-4987.3518,0.0,0.0,0.046580647080644244,0.0,0.0,0.0,0.3715254453442067,0.38726084449466963,0.7572441333191773,0.004246809306252446,0.0033455683306068866,0.06869001469192663
4659,11.0,300.19441,-4828.3279999999995,0.0,0.0,0.046590651501018376,0.0,0.0,0.0,0.3896646587669076,0.37032489596322166,0.7077015939197093,0.003104393123254747,-0.0002917813249840747,0.07448944587153593
4660,11.0,299.97900000000004,-4696.7094,0.0,0.0,0.04660065592139273,0.0,0.0,0.0,0.3645916431873936,0.36133317272080767,0.7017575648580794,0.0007304149121363393,0.00037769308857040564,0.06646610196169353
4661,11.0,300.26328,-4716.3514,0.0,0.0,0.04661066034176686,0.0,0.0,0.0,0.36355005248209665,0.36497615133534167,0.7051268443556014,0.007294973229782804,-0.0011743596016752689,0.061047407613160035
4662,11.0,300.03418999999997,-4871.0209,0.0,0.0,0.046620664762140995,0.0,0.0,0.0,0.35533424576875966,0.38192619417568063,0.7434083045286873,-0.00920368128180762,0.007967286354684942,0.07764377145309362
4663,11.0,299.90707000000003,-4875.227,0.0,0.0,0.04663066918251513,0.0,0.0,0.0,0.35346416098669664,0.3831939524357987,0.7452891601593133,-0.01887628092969388,0.003146659432626107,0.07491153141269252
4664,11.0,299.89172,-4924.3798,0.0,0.0,0.04664067360288904,0.0,0.0,0.0,0.34954860796276166,0.38948519190919567,0.7578547076969363,-0.014746388019355185,0.0016047301849245385,0.07345955617839373
4665,11.0,299.96623,-4929.7801,0.0,0.0,0.04665067802326339,0.0,0.0,0.0,0.3883486090070236,0.3708371749487796,0.7393442698350983,-0.011946870198814288,0.015157976289475785,0.06344878907190793
4666,11.0,299.79767000000004,-4959.3809,0.0,0.0,0.04666064953436,0.0,0.0,0.0,0.40048034364683266,0.3690912639664716,0.7379563401131203,0.009414558183344551,-0.007540129395452832,0.05641435598141344
4667,11.0,299.72742999999997,-4955.5713,0.0,0.0,0.04667065395473413,0.0,0.0,0.0,0.3991786617733666,0.3773885765178526,0.7298026760284163,0.0028649787419263877,-0.008395721731568223,0.07815155566120802
4668,11.0,299.58779,-4853.7436,0.0,0.0,0.046680658375108264,0.0,0.0,0.0,0.37382140927580065,0.36667718547072065,0.7349182718082863,0.01112919459336599,1.6722379728370384e-05,0.057403436013528035
4669,11.0,299.48595,-4729.3256,0.0,0.0,0.04669066279548262,0.0,0.0,0.0,0.3519945937041617,0.3529867479370797,0.7326155393660243,0.010890836626591889,0.006094757309405714,0.06932685251227763
4670,11.0,300.09951,-4773.0965,0.0,0.0,0.04670066721585675,0.0,0.0,0.0,0.3507860092498837,0.3650077343409586,0.7351084081895514,0.014763259646770287,0.0018403927037826183,0.06444612607908744
4671,11.0,300.79684,-4968.8713,0.0,0.0,0.04671067163623088,0.0,0.0,0.0,0.3929951611831026,0.38368448707421066,0.7337331542263242,-0.008313794280157613,0.005688418890703235,0.07038059613927403
4672,11.0,300.56129,-4931.0491,0.0,0.0,0.046720676056605015,0.0,0.0,0.0,0.3863851532282456,0.38619216961419967,0.7263384853940273,-0.013006142118356288,-0.0034128494544720172,0.07225749300175933
4673,11.0,300.33158,-4873.4125,0.0,0.0,0.04673068047697915,0.0,0.0,0.0,0.38308116756716765,0.38839731593933063,0.7099172375158763,-0.023750584370500177,0.009475764062260101,0.07088969655926833
4674,11.0,299.8825,-4914.6686,0.0,0.0,0.046740651988075754,0.0,0.0,0.0,0.37426522295210163,0.3830477809763726,0.7366235311965823,-0.011645356353307188,0.007908834996166242,0.08435434346712552
4675,11.0,299.87887,-4977.5037,0.0,0.0,0.04675065640844989,0.0,0.0,0.0,0.37384577794070567,0.38625837537573365,0.7529326933486713,0.0012851544471098688,0.01231927811406809,0.06504287972548245
4676,11.0,299.54119,-4857.6072,0.0,0.0,0.04676066082882402,0.0,0.0,0.0,0.35644529476841164,0.3698419404355577,0.7503040591442454,-0.007795697111200404,0.010991818144807989,0.07348763435191484
4677,11.0,299.7934,-4844.9227,0.0,0.0,0.04677066524919815,0.0,0.0,0.0,0.3821784529205766,0.3563812269645887,0.7341758431950143,0.004908325440739005,0.016295008061442084,0.03659014513266617
4678,11.0,300.07724,-4875.9613,0.0,0.0,0.046780669669572505,0.0,0.0,0.0,0.37894393568635465,0.36497429708765866,0.7382522598048253,0.005310167156822696,-0.009869786628647102,0.07465352551322933
4679,11.0,300.29200000000003,-4910.6247,0.0,0.0,0.04679067408994664,0.0,0.0,0.0,0.39425482357492164,0.36703794303632464,0.7314145238899933,0.0023710346182528974,-0.01176896374625629,0.05817997771791675
4680,11.0,300.22686,-4957.5298,0.0,0.0,0.04680067851032077,0.0,0.0,0.0,0.3805062457505426,0.3847467075515436,0.7417123163788063,0.004283892334737256,-0.015709865247942986,0.07782338421882003
4681,11.0,300.4579,-4978.8912,0.0,0.0,0.04681065002141738,0.0,0.0,0.0,0.3780202974251986,0.3829306289998106,0.7525076653292242,-0.004159120920073276,0.0016815634201323886,0.07348134105554373
4682,11.0,300.26102000000003,-4884.8727,0.0,0.0,0.04682065444179151,0.0,0.0,0.0,0.3595727519970677,0.3857393481445096,0.7395672253871023,0.0005274595593512054,0.003437812897185716,0.07540593362673623
4683,11.0,299.76536,-4748.6277,0.0,0.0,0.04683065886216564,0.0,0.0,0.0,0.36495198532045664,0.3688941665570197,0.7096180956888534,-0.013551684078197087,0.011272953504303889,0.07020107456605663
4684,11.0,299.54803,-4802.9867,0.0,0.0,0.046840663282539774,0.0,0.0,0.0,0.3633964741644397,0.3673721331843066,0.7292194290058543,0.0028343324860268374,-0.0020156774730318784,0.06057954748548584
4685,11.0,300.14784,-4939.8889,0.0,0.0,0.046850667702913906,0.0,0.0,0.0,0.38728422017447667,0.37750899115973663,0.7368096855049543,-0.011521552389838688,0.004196583106745506,0.06480034615504623
4686,11.0,300.28585,-4892.4572,0.0,0.0,0.04686067212328826,0.0,0.0,0.0,0.37593259691915865,0.3773383902403996,0.7339138471166573,0.0004946872514293305,-0.007722087227210674,0.08058088458421413
4687,11.0,300.25458,-4871.6179,0.0,0.0,0.04687067654366239,0.0,0.0,0.0,0.3653572448304527,0.37961655136773664,0.7358763808378442,0.001086200054199599,0.001001533838431194,0.08488959181920042
4688,11.0,300.00556,-4958.4,0.0,0.0,0.046880680964036525,0.0,0.0,0.0,0.3782575803336166,0.38492582990422164,0.7440463886466613,0.006743582993014824,-0.006855847456394463,0.06668556180085254
4689,11.0,300.47182000000004,-4945.9012,0.0,0.0,0.04689065247513291,0.0,0.0,0.0,0.38627440499231563,0.38103788794551163,0.7361181727092073,-0.000990597799704391,0.006405017225800984,0.055010163595330445
4690,11.0,300.51817,-4898.5056,0.0,0.0,0.04690065689550704,0.0,0.0,0.0,0.36169480168149765,0.38345316207638064,0.7438754229572883,-5.4062113099515144e-05,-0.013599150792381685,0.06725463852076603
4691,11.0,300.42727,-4865.1313,0.0,0.0,0.0469106613158814,0.0,0.0,0.0,0.39005101103003764,0.3661078402395307,0.7227195613368673,-0.00021511992686068377,-0.0037060897076125767,0.06515658563845433
4692,11.0,299.97541,-4921.106,0.0,0.0,0.04692066573625553,0.0,0.0,0.0,0.3689848321759676,0.38695439713442564,0.7399541045402843,0.013618132006504986,-0.02148529455918348,0.07793198943078852
4693,11.0,299.77457000000004,-4892.8992,0.0,0.0,0.04693067015662988,0.0,0.0,0.0,0.37078276341840966,0.38908234393443764,0.7274540636216263,0.02432714191590198,-0.01123823144987709,0.07277096863568543
4694,11.0,299.82597000000004,-4880.5586,0.0,0.0,0.046940674577004016,0.0,0.0,0.0,0.36557616764705864,0.3833050147792596,0.7346867542929373,0.002473166276657508,-0.004721763907151816,0.07781631679937252
4695,11.0,299.89741000000004,-4891.3257,0.0,0.0,0.046950678997377926,0.0,0.0,0.0,0.3748548534502936,0.3775020605290526,0.7344839522854223,-0.01095663607483579,0.005497399664626105,0.06664492337909184
4696,11.0,299.87242000000003,-4822.6532,0.0,0.0,0.04696068341775228,0.0,0.0,0.0,0.34585197775543264,0.37174901897877166,0.7483651341503882,-0.025273605662060678,0.0017029421866423082,0.05360278555093304
4697,11.0,299.95398,-4804.9431,0.0,0.0,0.046970654928848665,0.0,0.0,0.0,0.36885957419860566,0.36373246789759967,0.7279906808745863,-0.020843568820350083,0.0046542818557918555,0.053527821255534645
4698,11.0,300.48656,-4986.6274,0.0,0.0,0.04698065934922302,0.0,0.0,0.0,0.36882884232307267,0.3914011363907846,0.7555802449324643,0.004639480095681036,-0.0027738052820282678,0.07266843583156622
4699,11.0,300.62697000000003,-5040.6139,0.0,0.0,0.04699066376959715,0.0,0.0,0.0,0.3918323452358416,0.3865232389518736,0.7538651772832002,0.015901642081119882,0.006969359331972212,0.08357059350152542
4700,11.0,300.53184,-4947.7757,0.0,0.0,0.047000668189971506,0.0,0.0,0.0,0.39254559224623364,0.3735507904390926,0.7379038841554433,0.01789446691404638,-0.006305894717543354,0.06797756308286314
4701,11.0,300.68744,-4923.2018,0.0,0.0,0.04701067261034564,0.0,0.0,0.0,0.39108495169707963,0.37208045308648163,0.7333649999349903,0.013322676383345786,-0.004611271314222045,0.055727963138421745
4702,11.0,299.89997999999997,-4914.9026,0.0,0.0,0.04702067703071977,0.0,0.0,0.0,0.3780440581400436,0.37943932379274564,0.7365242833492872,0.01107292678881279,-0.004460303230147656,0.061136804642982844
4703,11.0,299.55079,-4913.1556,0.0,0.0,0.04703068145109368,0.0,0.0,0.0,0.3708221788472996,0.38874022003817266,0.7339142118866933,0.004696082475417256,0.006463348311532813,0.06040036231130165
4704,11.0,299.62926,-4930.0849,0.0,0.0,0.04704065296219029,0.0,0.0,0.0,0.36267870805860164,0.38547782829369964,0.7504661791602453,-0.004850638782070775,-0.02120179123420388,0.07751139539377913
4705,11.0,300.20862,-4844.146,0.0,0.0,0.04705065738256464,0.0,0.0,0.0,0.37199201661775366,0.37444569292741264,0.7260617262617133,-0.0070188617669327226,-0.006181088041775895,0.07133336635405514
4706,11.0,299.73503,-4817.5443,0.0,0.0,0.047060661802938775,0.0,0.0,0.0,0.37105838771061167,0.37095175327008767,0.7224030220056272,-0.0031512557377297266,-0.0017818569415305884,0.09516166700722531
4707,11.0,299.69732999999997,-4962.9558,0.0,0.0,0.04707066622331291,0.0,0.0,0.0,0.37196360508494963,0.3889654756679036,0.7476855574408192,0.008018492164388562,0.016387516782321986,0.06425773958074514
4708,11.0,299.8841,-4920.8277,0.0,0.0,0.04708067064368704,0.0,0.0,0.0,0.38162860262131065,0.3800062068261926,0.7341739484173273,-0.008655825869338501,0.02054701787383278,0.07493229696024192
4709,11.0,300.48569,-4900.3764,0.0,0.0,0.047090675064061394,0.0,0.0,0.0,0.3770421361761616,0.36888959679906863,0.7436603302260603,-0.014349193980155186,0.019068848097948784,0.04828750553410575
4710,11.0,300.0418,-4918.1604,0.0,0.0,0.047100679484435304,0.0,0.0,0.0,0.37299739376447666,0.38377287288043366,0.7382276783573992,0.006604797518867765,0.003491227997407377,0.08225532394421842
4711,11.0,300.37947,-4926.4345,0.0,0.0,0.047110683904809436,0.0,0.0,0.0,0.37380064778125166,0.3886307282323666,0.7350816989169153,-0.004456305958503155,-0.0025671444128324275,0.06996456882046533
4712,11.0,299.99052,-4946.3221,0.0,0.0,0.047120655415906265,0.0,0.0,0.0,0.3880537430954226,0.38322249569111566,0.7322821902156254,0.007098698883387034,-0.010052532971632762,0.07653396368481412
4713,11.0,300.22427000000005,-4949.9271,0.0,0.0,0.0471306598362804,0.0,0.0,0.0,0.3840264285854576,0.37325516458991664,0.7473726455449373,-0.005393183041490724,-0.016496939687121185,0.05610648601802904
4714,11.0,300.48237,-4855.5744,0.0,0.0,0.04714066425665453,0.0,0.0,0.0,0.37398557605700267,0.37924018975059265,0.7227476182321363,-0.00955339431999661,0.01089913717141109,0.07158277482641984
4715,11.0,300.28756,-4887.7183,0.0,0.0,0.04715066867702866,0.0,0.0,0.0,0.3533559965385216,0.38209355269469764,0.7502947676408284,-0.0022968651162329377,0.010642894327121889,0.05912816398924544
4716,11.0,299.52836,-5014.3095,0.0,0.0,0.047160673097402794,0.0,0.0,0.0,0.37836098250632166,0.38434135684903864,0.7615225210714213,0.01175382376326209,0.009462015879603262,0.07180789873363784
4717,11.0,299.8642,-5009.7017,0.0,0.0,0.04717067751777693,0.0,0.0,0.0,0.38995537035309863,0.3765230886799356,0.7563457553830142,-0.001159793219562679,-0.005940603870991954,0.06125867633851065
4718,11.0,299.44579,-4900.4795,0.0,0.0,0.04718068193815106,0.0,0.0,0.0,0.38666966372382466,0.36964962556657766,0.7333041036039804,-0.001944797892761608,-0.012893682503007388,0.07786830463550333
4719,11.0,299.74848,-4878.0815,0.0,0.0,0.04719068635852519,0.0,0.0,0.0,0.3802933720370336,0.3761568392987897,0.7263647589691202,0.006370554867374814,-0.004943411657251745,0.06683376280022883
4720,11.0,299.72683,-4929.2739,0.0,0.0,0.0472006578696218,0.0,0.0,0.0,0.39451332394043365,0.36921260066594663,0.7346502468918343,-0.02161903242663238,0.008225228622041862,0.06586408752077934
4721,11.0,299.98797,-4957.5271,0.0,0.0,0.04721066228999593,0.0,0.0,0.0,0.38033991061412664,0.38303025174964267,0.7435942967170432,-0.0024917704604185977,0.01318975114247709,0.059918662200511535
4722,11.0,299.88988,-4966.7205,0.0,0.0,0.047220666710370285,0.0,0.0,0.0,0.37274384819195366,0.3869228951888166,0.7500922594758423,-0.01974759698218608,0.026062833257701378,0.07247555354253023
4723,11.0,300.23057,-4966.1764,0.0,0.0,0.04723067113074442,0.0,0.0,0.0,0.3764408026393147,0.3948156169752676,0.7383371904282073,0.001141872878294079,0.010497942820816291,0.07434723925975123
4724,11.0,300.82416,-4943.7508,0.0,0.0,0.04724067555111855,0.0,0.0,0.0,0.36990285703156967,0.38551966539032867,0.7473542753206243,0.005807565450087084,-0.009133794990610383,0.07298357383791793
4725,11.0,300.65516,-4889.269,0.0,0.0,0.04725067997149268,0.0,0.0,0.0,0.39414661859674266,0.3667015845331286,0.7253674776906963,0.012874577672371887,-0.015410433631391385,0.07638123447074094
4726,11.0,300.40409,-4931.4523,0.0,0.0,0.04726068439186659,0.0,0.0,0.0,0.3748751589822977,0.3764571159659247,0.7477060757553443,0.009921037730630189,-0.009264541946414101,0.06837851222693374
4727,11.0,299.95837,-4848.3759,0.0,0.0,0.04727065590296364,0.0,0.0,0.0,0.3701434836653177,0.36829410971529863,0.7353476162731593,0.007573506461696893,-0.01188903894935679,0.08148914373535233
4728,11.0,299.67278999999996,-4799.2239,0.0,0.0,0.04728066032333755,0.0,0.0,0.0,0.34420670277305665,0.37565676997693664,0.7389807764942242,-0.004754419437999665,0.011300321389504889,0.06394155488704015
4729,11.0,299.79582999999997,-4963.2857,0.0,0.0,0.047290664743711686,0.0,0.0,0.0,0.38872409922908163,0.3825104240508397,0.7374803861436473,-0.004891045878833646,0.014902564310268587,0.07352873177597083
4730,11.0,299.51707000000005,-5101.2152,0.0,0.0,0.04730066916408582,0.0,0.0,0.0,0.39456210180024764,0.39111254249730265,0.7649673991589043,-0.0053221125649016154,0.017374884421767586,0.06326485378125493
4731,11.0,299.56642999999997,-4903.9755,0.0,0.0,0.04731067358446017,0.0,0.0,0.0,0.3888851148024726,0.3724594694188877,0.7293415256429043,-0.002250427762824928,-0.006582635611355555,0.07019228259493894
4732,11.0,299.96957000000003,-4869.1554,0.0,0.0,0.047320678004834305,0.0,0.0,0.0,0.37386456359755965,0.37703058512502163,0.7292064898020774,-0.009038558701786293,-0.01017106124580559,0.06066121848329614
4733,11.0,300.20652,-5005.2438,0.0,0.0,0.04733068242520844,0.0,0.0,0.0,0.38752038850778464,0.3881621000611166,0.7457866456934112,0.01243466602220599,-0.009836067387844271,0.06446923527411814
4734,11.0,300.04774,-4966.8516,0.0,0.0,0.04734068684558257,0.0,0.0,0.0,0.37926582497812267,0.37727577138421964,0.7532572677532042,0.009463533424278033,0.005414995884343484,0.05364998780684155
4735,11.0,300.22665,-4900.924,0.0,0.0,0.047350658356679176,0.0,0.0,0.0,0.37083593878365767,0.3847178096586916,0.7342047917503712,0.0001193864564775259,-0.0007086381105896363,0.07253622391876793
4736,11.0,300.21806000000004,-4769.0929,0.0,0.0,0.04736066277705331,0.0,0.0,0.0,0.35679150206257965,0.35745220192278565,0.7354414533649204,-0.013073796827533289,0.0027644586578058276,0.06848512336270543
4737,11.0,300.4181,-4726.5711,0.0,0.0,0.04737066719742744,0.0,0.0,0.0,0.36365439697739466,0.36286124506411666,0.7102439397456193,-0.01107805890056929,-0.006347699896794204,0.08187685679336662
4738,11.0,299.75793999999996,-4922.5054,0.0,0.0,0.04738067161780157,0.0,0.0,0.0,0.3721311763864876,0.3762046647035096,0.7479828855501633,0.0036882841675803064,0.009854961766434,0.08464296167860993
4739,11.0,299.62504,-4982.3355,0.0,0.0,0.047390676038175705,0.0,0.0,0.0,0.3867445125087116,0.38011033853896964,0.7476507219023812,0.006284570463888813,-0.005166772002670695,0.08372993619900132
4740,11.0,300.13479,-4853.0187,0.0,0.0,0.04740068045855006,0.0,0.0,0.0,0.37016821710025866,0.3742568231087727,0.7307714545815273,-0.001972697430290078,0.015760354487175884,0.059115234917969446
4741,11.0,300.1011,-4755.583,0.0,0.0,0.04741068487892419,0.0,0.0,0.0,0.35744937495500667,0.36593192988966966,0.7221971903803133,-0.00912924914536174,0.012163940794237488,0.06957718202898323
4742,11.0,299.98557999999997,-4917.2131,0.0,0.0,0.047420689299298324,0.0,0.0,0.0,0.38222512322018265,0.37978955368981065,0.7326953226788984,0.0036376499322580964,0.011735302564684188,0.06062127211135374
4743,11.0,299.99564,-5006.2279,0.0,0.0,0.04743066081039493,0.0,0.0,0.0,0.38870304389200366,0.38858968147081563,0.7444755608590172,-0.004839794067575485,-0.003504514543318657,0.05687951782407135
4744,11.0,300.27194,-4952.3949,0.0,0.0,0.047440665230769063,0.0,0.0,0.0,0.37799249384245465,0.37998204081130765,0.7474298536455832,-0.005004186094274715,-0.011425215610080988,0.07304059955354593
4745,11.0,300.23265,-4927.0344,0.0,0.0,0.047450669651143196,0.0,0.0,0.0,0.37536809502344665,0.38360879729174063,0.7387185271033423,0.0019259378633502682,-0.01756882657040818,0.06697069341874284
4746,11.0,300.20631000000003,-4889.8044,0.0,0.0,0.04746067407151733,0.0,0.0,0.0,0.3898657078517496,0.3565637133075987,0.7399490180247823,0.0012939314221260888,-0.0003211491328349517,0.07659384169947363
4747,11.0,299.73807999999997,-4922.7923,0.0,0.0,0.04747067849189146,0.0,0.0,0.0,0.3723700602300637,0.37842737065287363,0.7456085163258312,0.01834272875828638,0.0019578471354994684,0.06712431327965394
4748,11.0,299.85655,-4946.4537,0.0,0.0,0.047480682912265815,0.0,0.0,0.0,0.37794689758795463,0.37444168045701665,0.7512098439386393,-0.003148563734864047,0.014125648716592987,0.07453720744149962
4749,11.0,299.50601,-5026.9418,0.0,0.0,0.04749068733263995,0.0,0.0,0.0,0.3848216779264426,0.3903118824007836,0.7529312342685273,0.0036095050868804163,0.0025660342960228677,0.06466275084446664
4750,11.0,299.58575,-4956.8751,0.0,0.0,0.047500658843736554,0.0,0.0,0.0,0.3736375753101577,0.38621953749940063,0.7469091444191933,-0.0013681934338801785,-0.0038586375499178767,0.08248887707901832
4751,11.0,299.56441,-4890.9324,0.0,0.0,0.047510663264110464,0.0,0.0,0.0,0.3876898951170136,0.3852138563776476,0.7138175715233094,0.0006895587733266522,-0.0076105406515268835,0.07011269078633384
4752,11.0,299.99632,-4858.4853,0.0,0.0,0.0475206676844846,0.0,0.0,0.0,0.37242194876768464,0.3655670686611607,0.7388691973932122,0.0004475249479722736,-0.00946321617567172,0.05959600587841784
4753,11.0,300.12705,-4926.1245,0.0,0.0,0.04753067210485895,0.0,0.0,0.0,0.37105570259784665,0.38316884409832064,0.7431942858425653,0.0032909577979172468,-0.01155347078123879,0.06419938549423604
4754,11.0,300.00991,-4872.7485,0.0,0.0,0.04754067652523308,0.0,0.0,0.0,0.36068026475387066,0.36831273325213665,0.7522008734639463,-0.018215562830986083,0.012351537970751888,0.06407815315952134
4755,11.0,300.55612,-4850.654,0.0,0.0,0.04755068094560744,0.0,0.0,0.0,0.3590041160409476,0.3690327082431927,0.7464408708854783,0.0036683882925917367,0.001116344447324619,0.07611784719999663
4756,11.0,300.33252999999996,-4940.7749,0.0,0.0,0.04756068536598157,0.0,0.0,0.0,0.36255889123427665,0.37696757110130263,0.7623457259826653,0.005260458424141825,0.005817260125718874,0.07256864386896753
4757,11.0,299.92837000000003,-4987.8174,0.0,0.0,0.04757068978635548,0.0,0.0,0.0,0.40007340214167064,0.37745804494470864,0.7386405169781434,0.02002028082259788,0.006096103310838555,0.07748387045481263
4758,11.0,299.41185,-5025.8693,0.0,0.0,0.04758066129745231,0.0,0.0,0.0,0.39528245169384063,0.3895402924496336,0.7429160372326044,0.005195216466102945,-0.00939159266717803,0.07849993637684052
4759,11.0,299.74105,-4991.5771,0.0,0.0,0.04759066571782622,0.0,0.0,0.0,0.4027360207544506,0.37239902905042266,0.7421797590474394,0.007063454701183703,-0.01943842499242318,0.07572943803916363
4760,11.0,299.82201000000003,-4900.1427,0.0,0.0,0.047600670138200574,0.0,0.0,0.0,0.3819409470971366,0.37583607471463265,0.7317440125575113,-0.006914096367543183,-0.014715192075276384,0.061635442242444535
4761,11.0,299.69079,-4939.5815,0.0,0.0,0.047610674558574706,0.0,0.0,0.0,0.36771336542048366,0.39276423135281163,0.7410318277441472,-0.006239053952171683,0.0003957987330172936,0.06917085354013174
4762,11.0,299.34772999999996,-5026.0891,0.0,0.0,0.04762067897894906,0.0,0.0,0.0,0.38525297796400865,0.38465286032728163,0.7578997466638813,-0.014909182859921785,0.020090751353802783,0.05844508751383104
4763,11.0,299.98618,-4929.0961,0.0,0.0,0.04763068339932319,0.0,0.0,0.0,0.38622335745227765,0.37346270860789965,0.7386360586777033,-0.02134043627188708,0.02325483352057338,0.07384130929931984
4764,11.0,300.15899,-4893.9295,0.0,0.0,0.0476406878196971,0.0,0.0,0.0,0.36852291172037965,0.3697963847110617,0.7493130701489423,-0.005380991818937545,0.009116648975068201,0.06762360847843053
4765,11.0,300.36966,-4999.3925,0.0,0.0,0.047650692240071235,0.0,0.0,0.0,0.3911293421839606,0.3772891361530386,0.7512720169647753,0.008752819843111062,-0.013100917479709887,0.07002056102099134
4766,11.0,300.51957999999996,-5058.3619,0.0,0.0,0.04766066375116784,0.0,0.0,0.0,0.38007271656275665,0.4062384311826116,0.7513045625579873,0.010536760432147291,-0.014914155891412586,0.07865764368865502
4767,11.0,300.31183,-4922.045999999999,0.0,0.0,0.047670668171542196,0.0,0.0,0.0,0.37537180351881266,0.38043062689557966,0.7403766500969863,0.004055731514319536,-0.022809877911409683,0.08654120062795151
4768,11.0,300.48307,-4832.6990000000005,0.0,0.0,0.04768067259191633,0.0,0.0,0.0,0.36175735974267165,0.37668215881313466,0.7305803049501624,0.009668192212601281,-0.01964361928342428,0.07388328521121253
4769,11.0,299.9653,-4803.5258,0.0,0.0,0.04769067701229046,0.0,0.0,0.0,0.3779192966552306,0.36726392820612763,0.7149686844319153,-0.005005152937520135,-0.007689144338634463,0.08886013899231292
4770,11.0,299.70692,-4885.085999999999,0.0,0.0,0.04770068143266459,0.0,0.0,0.0,0.36894105977164765,0.3828445432713146,0.7331585704921173,0.008767456950080632,0.002995058776514287,0.07784263799722023
4771,11.0,299.75282999999996,-4986.7221,0.0,0.0,0.04771068585303895,0.0,0.0,0.0,0.3948228110509776,0.3879184944720746,0.7330976944261093,-0.01000388592240667,0.006101561283827214,0.07484162222204302
4772,11.0,299.75437,-5059.1692,0.0,0.0,0.04772069027341286,0.0,0.0,0.0,0.3930805275040276,0.38433263276567764,0.7604479490753692,-0.01708306636646738,-0.0017686218687243886,0.05940164019123544
4773,11.0,299.63432,-5015.2531,0.0,0.0,0.04773069469378699,0.0,0.0,0.0,0.38587960222335166,0.37931888888585963,0.7593132204208802,-0.016692932653964185,-0.003841613428362726,0.06001857170012185
4774,11.0,299.58632,-4995.6586,0.0,0.0,0.04774066620488382,0.0,0.0,0.0,0.38412193753988366,0.3837165463073747,0.7507169889574983,-0.005419924940779944,0.024470314155031977,0.06218524086595544
4775,11.0,299.8594,-5061.8146,0.0,0.0,0.04775067062525795,0.0,0.0,0.0,0.3831948440958866,0.37977452719082766,0.7756958938677243,-0.008477110336575652,0.030905864760671368,0.05291756909130745
4776,11.0,300.01369,-5017.4871,0.0,0.0,0.047760675045632084,0.0,0.0,0.0,0.3777259178736456,0.39293767950492964,0.7545271842360353,-0.007516094495130772,-0.0024261633270436776,0.07726688699889803
4777,11.0,299.79475,-4903.6185,0.0,0.0,0.047770679466006216,0.0,0.0,0.0,0.3876624157743016,0.36051521644508167,0.7423999484266702,-0.017549780508278486,-0.014543988272129884,0.05991675830357364
4778,11.0,299.97153,-4857.4206,0.0,0.0,0.04778068388638035,0.0,0.0,0.0,0.3704743908829756,0.3772277838594837,0.7288323978651573,0.00977488633355617,-0.016829177302160485,0.08465652605769862
4779,11.0,300.10704,-4825.9137,0.0,0.0,0.04779068830675448,0.0,0.0,0.0,0.36944132161101967,0.3750631878033547,0.7224527624530364,0.026597748250493377,-0.013942143043982388,0.07038058398027283
4780,11.0,299.56715,-4853.7884,0.0,0.0,0.04780069272712861,0.0,0.0,0.0,0.3760215906754416,0.35603506020042464,0.7433738337602852,0.017019341041178183,-0.0035239234503091662,0.07320244193901854
4781,11.0,300.16339,-5037.0675,0.0,0.0,0.04781066423822544,0.0,0.0,0.0,0.38818912344128365,0.38740824198671664,0.7555453992615253,0.002230662394449238,0.008722804740698803,0.05654228285953885
4782,11.0,300.23595,-5080.1222,0.0,0.0,0.04782066865859935,0.0,0.0,0.0,0.3830239594665216,0.39802578580958664,0.7631805427400553,0.0006356344541347364,0.02354469093693008,0.08628944242860492
4783,11.0,299.97834,-5060.6843,0.0,0.0,0.047830673078973485,0.0,0.0,0.0,0.38902942188171463,0.4001619095379056,0.7491303203609062,-0.01050821819008039,0.02104117792110258,0.06922248572547743
4784,11.0,300.19212000000005,-4930.8246,0.0,0.0,0.04784067749934784,0.0,0.0,0.0,0.35245524759712465,0.39962264770218464,0.7467696604104274,-0.007620482762833092,-0.016810867872853484,0.08536965249132873
4785,11.0,300.19653999999997,-4880.6338,0.0,0.0,0.04785068191972197,0.0,0.0,0.0,0.37508375678038464,0.37036288270947065,0.7381441561516563,-0.008832797092054203,-0.01833040155756978,0.061347581942034934
4786,11.0,299.45412999999996,-4907.084,0.0,0.0,0.047860686340096104,0.0,0.0,0.0,0.3707026659980046,0.38365312698361564,0.7372752232633993,-0.012998098939062487,0.003416050514187937,0.07965193283953373
4787,11.0,299.75635,-4884.6202,0.0,0.0,0.047870690760470236,0.0,0.0,0.0,0.3667970022950457,0.37435133907810064,0.7436542203279572,-0.0038564147831735064,0.017294169932051684,0.06842714417873334
4788,11.0,299.56862,-4912.1268,0.0,0.0,0.047880695180844146,0.0,0.0,0.0,0.37311837582641666,0.37697027647906967,0.7430752390883163,-0.0011141506595331088,-0.004024670433829046,0.07689694938738803
4789,11.0,299.19514,-5057.3129,0.0,0.0,0.047890666691940975,0.0,0.0,0.0,0.3925234425990476,0.3921660794212786,0.7526073286090603,-0.002112382873175958,0.008379141818856913,0.06480265433877404
4790,11.0,299.72257,-5101.9299,0.0,0.0,0.04790067111231511,0.0,0.0,0.0,0.3973371709091256,0.3972717757476716,0.7562503376210973,0.015294360766185885,-0.01019135968505889,0.08564596174059833
4791,11.0,300.38433,-5074.8045,0.0,0.0,0.04791067553268924,0.0,0.0,0.0,0.4081331278096036,0.39014977251728467,0.7443309396722443,0.017224577888683482,-0.007666093608134534,0.06030162615530714
4792,11.0,299.86064,-5006.6555,0.0,0.0,0.04792067995306337,0.0,0.0,0.0,0.3913344544017036,0.38560591323884064,0.7449578780391183,0.006269119210463895,-0.02164516313346128,0.06069990639861435
4793,11.0,300.09865,-4964.9181,0.0,0.0,0.047930684373437726,0.0,0.0,0.0,0.3804596869084476,0.3657103523578017,0.7630410891287922,-0.009269192055098031,-0.012989459968709887,0.04529450152746926
4794,11.0,300.2449,-4996.6121,0.0,0.0,0.04794068879381186,0.0,0.0,0.0,0.37847807368787767,0.38454691489682563,0.7558203345436593,-0.02207947556357458,0.0049799794480607056,0.06254972617867735
4795,11.0,300.22587999999996,-4977.6323,0.0,0.0,0.04795069321418577,0.0,0.0,0.0,0.37715653211245165,0.38035452168056866,0.7555648637959462,-0.025055115503247374,0.02263865283001108,0.06343819452886235
4796,11.0,300.04863,-4919.2593,0.0,0.0,0.04796069763456012,0.0,0.0,0.0,0.36845573323874964,0.37992291766797265,0.7469533322560542,-0.005318443687614525,-0.0022112036355538076,0.07928287675561073
4797,11.0,299.52853,-4956.1287,0.0,0.0,0.04797066914565673,0.0,0.0,0.0,0.3835397949599306,0.38874912650655163,0.7342504386673763,0.006626376300947424,0.008657609493489532,0.07151303788828733
4798,11.0,299.43723,-4990.8377,0.0,0.0,0.04798067356603086,0.0,0.0,0.0,0.37949717024095464,0.39110935075948766,0.7464835185821872,0.014843381385177686,-0.001893171584266488,0.08646552807073322
4799,11.0,300.01527000000004,-4983.4628,0.0,0.0,0.047990677986404995,0.0,0.0,0.0,0.37854950781992763,0.3880696916519966,0.7482290546619582,0.006660055011746253,-0.0006365428227168853,0.07529857775214102
4800,11.0,299.74985,-4991.5692,0.0,0.0,0.04800068240677913,0.0,0.0,0.0,0.37376376547761164,0.4037005132596386,0.7398480983148222,-0.010013766326781791,-0.010308515714621292,0.07798398537292013
4801,11.0,300.17959,-4981.2512,0.0,0.0,0.04801068682715326,0.0,0.0,0.0,0.37050576110607164,0.38135817630212165,0.7623120455493413,-0.003501211145342637,-0.010122169496680352,0.07012865454165934
4802,11.0,300.63795,-4970.9553,0.0,0.0,0.048020691247527614,0.0,0.0,0.0,0.3763887722466796,0.39640652095727763,0.7382509831096993,0.011338319281504989,-0.005588225985039965,0.08322983951939562
4803,11.0,300.82972,-4941.7239,0.0,0.0,0.048030695667901746,0.0,0.0,0.0,0.39094285350305563,0.3774558360594906,0.7337619811916692,0.006995233889175833,0.006256889281756895,0.06533711134252083
4804,11.0,300.75626,-4939.5517,0.0,0.0,0.04804066717899835,0.0,0.0,0.0,0.3844021518550387,0.37197833774140365,0.7451198764651062,0.0001411966344825229,-0.00929154019797862,0.07180535446263674
4805,11.0,300.44447,-4917.7179,0.0,0.0,0.048050671599372485,0.0,0.0,0.0,0.37811942368248164,0.3769926591737786,0.7397513734602763,-0.008089507317522213,-0.005094003622889015,0.06109015562162894
4806,11.0,299.75061,-5008.4643,0.0,0.0,0.04806067601974662,0.0,0.0,0.0,0.3777860745320826,0.37777656011364363,0.7668854410682002,-0.0043403481985090165,-0.0057925593174310945,0.06949323527144834
4807,11.0,300.00197000000003,-5049.3006,0.0,0.0,0.04807068044012075,0.0,0.0,0.0,0.38329987760125267,0.39295299984644166,0.7586084239163223,-0.009016341166843592,0.00039416261781582165,0.07831155190499843
4808,11.0,300.16103,-4977.6232,0.0,0.0,0.04808068486049488,0.0,0.0,0.0,0.36838231313650366,0.3856394923471546,0.7590513560650363,-0.023140018098741978,0.006079099758260434,0.06594649211166204
4809,11.0,300.0112,-5013.9177,0.0,0.0,0.048090689280869015,0.0,0.0,0.0,0.39252118305132466,0.3754245127890146,0.7561600874346903,-0.01159291660763179,0.006305089791663915,0.06455758156358724
4810,11.0,300.12834,-5072.9963,0.0,0.0,0.04810069370124337,0.0,0.0,0.0,0.3876041336285496,0.3941828929503226,0.7602771657710142,0.007133251117097072,-0.002625591009075658,0.05824571839765485
4811,11.0,300.48135,-5010.9357,0.0,0.0,0.0481106981216175,0.0,0.0,0.0,0.40901991416462263,0.3597263303147246,0.7544530953887233,0.023474305518733578,-0.002173618035019398,0.048783403305297054
4812,11.0,300.98483,-4873.6138,0.0,0.0,0.04812066963271411,0.0,0.0,0.0,0.36592952848693266,0.36953632394039565,0.7459910486360843,0.011080059056266689,-0.003642534810990197,0.06262814970991715
4813,11.0,300.79568,-4877.0203,0.0,0.0,0.04813067405308802,0.0,0.0,0.0,0.35769339597658967,0.3803516947127897,0.7444473013137283,0.0016995269258552484,-0.00045360056782439056,0.06293100611180674
4814,11.0,299.89734,-5029.0352,0.0,0.0,0.04814067847346215,0.0,0.0,0.0,0.38910132210881065,0.3873467782356506,0.7522530153140923,-0.0035490353341625165,0.006559445660291883,0.08100128914345484
4815,11.0,300.12172999999996,-5076.4728,0.0,0.0,0.048150682893836505,0.0,0.0,0.0,0.39794899158450764,0.4057013782321086,0.7394705917250652,-0.00945545305870556,0.014402084622125088,0.06987002448013453
4816,11.0,300.035,-4966.7438,0.0,0.0,0.04816068731421064,0.0,0.0,0.0,0.3869460986161066,0.38782225597757664,0.7349977308811283,-0.0072515275986200535,0.006493963865954334,0.08332542548082922
4817,11.0,299.74093,-4945.2646,0.0,0.0,0.04817069173458499,0.0,0.0,0.0,0.37460579657571363,0.3834383280949166,0.7451928304723063,-0.010823079579154791,-0.00876958497794065,0.05959781756959664
4818,11.0,299.77619,-5034.141,0.0,0.0,0.048180696154959124,0.0,0.0,0.0,0.3771449101338047,0.4061491131862966,0.7469591381791273,-0.0075160161708980435,-0.016449414204430787,0.08397268457845872
4819,11.0,300.23398,-5101.2938,0.0,0.0,0.048190700575333034,0.0,0.0,0.0,0.37740370434184567,0.39170114961289365,0.7815610920715743,0.0035008922755361666,-0.013707864422110886,0.07341449694644672
4820,11.0,300.49418,-4977.7073,0.0,0.0,0.04820067208642964,0.0,0.0,0.0,0.37165246637674265,0.3899171708243286,0.7515290785151453,0.009639500313494611,0.004386741880837716,0.06815497000312185
4821,11.0,301.05,-4861.4844,0.0,0.0,0.048210676506803773,0.0,0.0,0.0,0.36901438868138464,0.36940099425703965,0.7393544732636053,0.006336618993700604,0.01924171869750978,0.06232171146892404
4822,11.0,300.47766,-4952.0822,0.0,0.0,0.04822068092717813,0.0,0.0,0.0,0.3869762732040846,0.37287601653499763,0.7454570455683823,-0.009159069906404822,0.013300177164875287,0.06641486393063674
4823,11.0,300.51547,-5044.5674,0.0,0.0,0.04823068534755226,0.0,0.0,0.0,0.4046236651607466,0.3880073767708466,0.7407914949529283,-0.004972862379358305,0.003318789346364007,0.07037324298329833
4824,11.0,300.31642999999997,-4987.3369,0.0,0.0,0.048240689767926614,0.0,0.0,0.0,0.38571192959680367,0.3737508465388366,0.7565631177944663,-0.011255371588568689,-0.007848368587173672,0.07065825909067723
4825,11.0,300.41251,-4922.2944,0.0,0.0,0.04825069418830075,0.0,0.0,0.0,0.36481900637733267,0.3902414919163366,0.7411940997476624,0.0036347440322963068,-0.014129617617234686,0.08285710229785932
4826,11.0,300.32529,-4954.4279,0.0,0.0,0.04826069860867466,0.0,0.0,0.0,0.3707507953777547,0.3922197918090796,0.7430518026135033,-0.01250228121462909,-0.014341058595102287,0.08220990095548551
4827,11.0,300.1336,-5071.4731,0.0,0.0,0.048270670119771264,0.0,0.0,0.0,0.40466882571770363,0.37305013343218163,0.7638822285668062,-0.01087471784400109,-0.0018785155295200481,0.06384280454554424
4828,11.0,299.91826000000003,-4981.9618,0.0,0.0,0.048280674540145396,0.0,0.0,0.0,0.38887416156889165,0.38082531820703264,0.7446925179704293,-0.0030719716531799972,0.009105063068124761,0.06484995994619273
4829,11.0,300.21423,-4845.339,0.0,0.0,0.04829067896051975,0.0,0.0,0.0,0.3770404440484946,0.36258955218230265,0.7332320513893693,0.004271206342160246,0.017471469447799783,0.05935361720274594
4830,11.0,299.85947999999996,-4957.9938,0.0,0.0,0.04830068338089388,0.0,0.0,0.0,0.35708838434187967,0.38644704254435364,0.7635708872085792,0.0018015683036759487,0.005954321048195734,0.06936037994483653
4831,11.0,299.89057,-5045.6181,0.0,0.0,0.048310687801268015,0.0,0.0,0.0,0.3882150829088456,0.3862791571352846,0.7592476834044123,0.0013670551487178387,-0.005605754502494895,0.06818041980588353
4832,11.0,300.13639,-5052.7485,0.0,0.0,0.04832069222164215,0.0,0.0,0.0,0.3847225111391556,0.3903178099138686,0.7608690659494303,-0.002576880733043327,0.0014825182400131586,0.06545220642137983
4833,11.0,299.92053,-4921.8706,0.0,0.0,0.0483306966420165,0.0,0.0,0.0,0.3839600100414026,0.3752187115612036,0.7369470416885103,0.008508125212861583,-0.0017105915156222385,0.07079507622518003
4834,11.0,300.21657000000005,-4853.227,0.0,0.0,0.04834070106239041,0.0,0.0,0.0,0.3611970425698726,0.37879794661194666,0.7352648236074882,0.005865427907647665,0.00085964098967246,0.07658497373459842
4835,11.0,300.27156,-4903.5929,0.0,0.0,0.04835067257348702,0.0,0.0,0.0,0.3881739246897836,0.37394936249842864,0.7284465218295744,-0.00029647146717945574,0.0026444725193891174,0.09029235787616192
4836,11.0,300.45876,-4961.417,0.0,0.0,0.04836067699386115,0.0,0.0,0.0,0.3738756080236496,0.38342170066077563,0.7508495828655843,-0.0077407815902306625,-0.0024848474291103476,0.07995287318548423
4837,11.0,300.6615,-4939.0966,0.0,0.0,0.048370681414235506,0.0,0.0,0.0,0.3847521385720796,0.37693120555521364,0.7396786930306033,-0.0032913593489318767,-0.004993393866134605,0.08332690381272512
4838,11.0,300.70211,-4859.1035,0.0,0.0,0.04838068583460964,0.0,0.0,0.0,0.35006814181903567,0.37091815389677163,0.7560598466022973,-0.0098640151560775,0.004940401595179675,0.06374197602809324
4839,11.0,300.55478,-4964.3888,0.0,0.0,0.04839069025498377,0.0,0.0,0.0,0.37324598454401064,0.3799209620952796,0.7558832877723722,-0.0009852714276387192,-0.0032568500770260773,0.06687836404313065
4840,11.0,299.92412,-5108.7861,0.0,0.0,0.0484006946753579,0.0,0.0,0.0,0.3985671754705176,0.37558231635958866,0.7787939060484742,-0.018266612397524282,0.007223911568469563,0.034344921726329865
4841,11.0,300.19122000000004,-5095.896,0.0,0.0,0.048410699095732035,0.0,0.0,0.0,0.40505094259541563,0.3908740436887646,0.7531001531926983,-0.017152618893081683,0.001337326796083879,0.06458817158410624
4842,11.0,300.23287,-5009.3556,0.0,0.0,0.04842070351610617,0.0,0.0,0.0,0.38471507388342163,0.38681766916593163,0.7511862757413134,-0.007700903410019992,-0.0073637969256001735,0.06988870678547833
4843,11.0,300.35467,-4979.6175,0.0,0.0,0.048430675027202996,0.0,0.0,0.0,0.39442800828201363,0.3756158549378987,0.7436355359961133,0.007703646987315763,-0.0033741744074300872,0.08332973078050412
4844,11.0,299.77243,-5045.3764,0.0,0.0,0.048440679447576906,0.0,0.0,0.0,0.38118078660711463,0.3963896402106116,0.7560980258660653,0.016598962826440085,-0.004489873110465975,0.08096274713615101
4845,11.0,299.84274,-5041.2955,0.0,0.0,0.04845068386795104,0.0,0.0,0.0,0.3965072481497186,0.37372999385177863,0.7621907088498663,0.008574563312643512,-0.009774406356983801,0.06604469327160374
4846,11.0,299.08116,-4915.1891,0.0,0.0,0.04846068828832539,0.0,0.0,0.0,0.36407705399160767,0.38106698848838366,0.7489507116481803,-0.0026699901085825077,0.0017675194526155882,0.07511939460445702
4847,11.0,299.70811000000003,-4848.0108,0.0,0.0,0.048470692708699525,0.0,0.0,0.0,0.3600197472786827,0.38357815660871664,0.7300763244829234,-0.004356493528252436,0.006688464011425004,0.07429369101846642
4848,11.0,300.58411,-5010.0192,0.0,0.0,0.04848069712907366,0.0,0.0,0.0,0.37962182026825664,0.38139201885546165,0.7619068974968563,-0.001121625304195799,0.014657122712045386,0.07376312692160383
4849,11.0,300.67843999999997,-5160.245,0.0,0.0,0.04849070154944779,0.0,0.0,0.0,0.4088940178396976,0.40562921455998663,0.7540624064151653,-0.008700693191716562,0.0024970616524407976,0.06927471674163223
4850,11.0,300.19073,-5050.5509999999995,0.0,0.0,0.0485007059698217,0.0,0.0,0.0,0.3798196168202776,0.3860762538027596,0.7693455211184912,-0.004182544425284996,0.005810444093621184,0.08418496756715942
4851,11.0,300.42498,-4840.9335,0.0,0.0,0.04851067748091853,0.0,0.0,0.0,0.37171030269245064,0.36657166560530663,0.7332409375927463,0.0015256841128232985,0.0054552358961648655,0.06307456541247493
4852,11.0,300.31293,-4875.4311,0.0,0.0,0.04852068190129266,0.0,0.0,0.0,0.36855410969095864,0.38079309685385265,0.7326621184731213,-0.0005059686564527186,0.014626285458501986,0.07321267069877802
4853,11.0,300.53201,-5032.7134,0.0,0.0,0.048530686321666794,0.0,0.0,0.0,0.39191495551649463,0.3835850872394006,0.7543191538580043,-0.002220412153787618,-0.010990363117664388,0.06702681632853173
4854,11.0,299.27197,-5085.1753,0.0,0.0,0.048540690742040926,0.0,0.0,0.0,0.3964826869672946,0.3982905075307126,0.7509931198747503,-0.0003570717062452336,-0.009040174531720761,0.09111292935039601
4855,11.0,299.78632000000005,-4993.0951,0.0,0.0,0.04855069516241528,0.0,0.0,0.0,0.37908554752033063,0.39900922609164463,0.7396814592033762,0.010369440416634089,-0.011494316227150688,0.09591899951621821
4856,11.0,299.21689,-4941.4628,0.0,0.0,0.04856069958278941,0.0,0.0,0.0,0.37481875134923065,0.37482406077975466,0.7524384907448973,0.016320794263236984,-0.0037606935528515565,0.07888597959869002
4857,11.0,300.4214,-5006.1297,0.0,0.0,0.04857070400316332,0.0,0.0,0.0,0.37973753342967664,0.3961835451402716,0.7458173370389404,0.013334391581001987,-0.013679921010853087,0.08321690538186913
4858,11.0,299.64723,-5130.4948,0.0,0.0,0.04858067551426015,0.0,0.0,0.0,0.39257520954665664,0.37789477600281063,0.7890723049303733,-0.014019195647836886,-0.0016400041566808083,0.04942492842061065
4859,11.0,299.57695,-5035.6001,0.0,0.0,0.048590679934634284,0.0,0.0,0.0,0.37493673419087464,0.3886811475573426,0.7670788097172843,-0.008637858310615242,-0.0012903256703202287,0.06767772008677093
4860,11.0,299.44087,-4888.6083,0.0,0.0,0.04860068435500842,0.0,0.0,0.0,0.36532161895693666,0.36988525687733265,0.7508079686839773,-0.003428765992342857,0.015197047213331786,0.04968463658024185
4861,11.0,300.74416,-4926.3041,0.0,0.0,0.04861068877538255,0.0,0.0,0.0,0.3858522850006556,0.36282910477094465,0.7487920569475223,-0.008865101025117351,0.01058301631246239,0.06606912779776523
4862,11.0,300.48432,-5123.3126,0.0,0.0,0.04862069319575668,0.0,0.0,0.0,0.39544880709525865,0.3990758675507216,0.7628344367708972,-0.0005613440004503394,0.007493483312524222,0.07172906483610753
4863,11.0,300.5498,-5160.5302,0.0,0.0,0.048630697616130814,0.0,0.0,0.0,0.41758599130502866,0.40157511984987865,0.7495112010734962,-0.004081183647556465,-0.0008256753872403161,0.08074407459231972
4864,11.0,300.40117999999995,-5021.6956,0.0,0.0,0.04864070203650517,0.0,0.0,0.0,0.37748106598698067,0.38990246856537764,0.7590865259760073,0.0021132845644399483,0.007859476645369953,0.06788528842275633
4865,11.0,299.86505,-4878.718,0.0,0.0,0.0486507064568793,0.0,0.0,0.0,0.37271911475701264,0.38829963862969064,0.7219896970248353,4.6255032224766255e-05,-0.02150149744153258,0.07599325290145013
4866,11.0,300.05576,-4908.9175,0.0,0.0,0.04866067796797591,0.0,0.0,0.0,0.3602735056337266,0.36358187866773767,0.7683329498960583,0.005150479042387705,-0.012432609124502988,0.06947082116598623
4867,11.0,299.95314,-5041.2472,0.0,0.0,0.04867068238834982,0.0,0.0,0.0,0.3881276292927146,0.3898194631171856,0.7544661865800152,0.01043735654433689,-0.01093799024649559,0.07714098763422272
4868,11.0,299.81232,-5041.3078,0.0,0.0,0.04868068680872417,0.0,0.0,0.0,0.3714381133180876,0.3805356604009456,0.7804579160251993,0.018227375300651882,-0.00044811211627272254,0.06712064430104184
4869,11.0,299.80515,-4868.4019,0.0,0.0,0.048690691229098304,0.0,0.0,0.0,0.3863019248650316,0.35306830443762866,0.7405023843018953,0.008648664217631701,-0.012369923393816387,0.06682222492134013
4870,11.0,299.66385,-4962.4121,0.0,0.0,0.048700695649472436,0.0,0.0,0.0,0.3667168542121357,0.3932752133782416,0.7484573196444863,-0.0013987037116163087,-0.0024865476627781474,0.06259048416394984
4871,11.0,300.06901,-5154.052,0.0,0.0,0.04871070006984657,0.0,0.0,0.0,0.4102527456937936,0.3957593175884036,0.7606910480393613,0.002757319196276217,-0.005063769354480125,0.06417391745297255
4872,11.0,299.96782,-5192.2176,0.0,0.0,0.04872070449022092,0.0,0.0,0.0,0.40593375701004264,0.4078930888609136,0.7644776548555703,-0.014411236297028288,0.016795248622561983,0.05622230658395965
4873,11.0,300.01501,-5024.572,0.0,0.0,0.048730708910595055,0.0,0.0,0.0,0.38716812197801864,0.3977599089833466,0.7424163934757932,-0.0035582047409424664,0.01887033011185658,0.08469488770648462
4874,11.0,300.21746,-4894.5536,0.0,0.0,0.04874068042169166,0.0,0.0,0.0,0.3669905026666426,0.36642741932107065,0.7544041554088933,-0.011004640824823489,0.017666772391324685,0.07514685266891694
4875,11.0,300.99154,-4889.7695,0.0,0.0,0.04875068484206557,0.0,0.0,0.0,0.3767997059572356,0.38369572401781965,0.7258724207455303,-0.007520319038772702,0.0024748331743970177,0.096229386392851
4876,11.0,301.19887,-4997.6214,0.0,0.0,0.048760689262439705,0.0,0.0,0.0,0.37537808566943265,0.37542799836935864,0.7683460208223483,-0.008001704839381783,0.004526133075894555,0.06816727085933584
4877,11.0,300.68183999999997,-5016.8042,0.0,0.0,0.04877069368281406,0.0,0.0,0.0,0.39294570444572163,0.37157739467683365,0.7604601182090703,-0.005211446706204745,-0.011500134309224887,0.06372214368388594
4878,11.0,300.0773,-4866.5897,0.0,0.0,0.04878069810318819,0.0,0.0,0.0,0.35748218399324466,0.37647954932313865,0.7453600167388063,0.00955068843560456,-0.013860406184915587,0.06558164810840474
4879,11.0,300.09368,-4883.4119,0.0,0.0,0.048790702523562546,0.0,0.0,0.0,0.35899685103773066,0.3751966429740256,0.7502418050581012,0.008395384825909971,-0.025236264356125374,0.06062545886076694
4880,11.0,300.09212,-5153.9742,0.0,0.0,0.04880070694393668,0.0,0.0,0.0,0.3904863944655066,0.40763368670281264,0.7685593606309032,0.02190143637525348,-0.009428848758779921,0.07837594394885343
4881,11.0,300.15544,-5314.2641,0.0,0.0,0.048810678455033285,0.0,0.0,0.0,0.43060611323501463,0.4104808282913036,0.7743166476991032,-9.231970515324551e-05,0.006013516841562904,0.06511655415350354
4882,11.0,299.79174,-5093.3289,0.0,0.0,0.048820682875407195,0.0,0.0,0.0,0.3928873108424586,0.3981800936673156,0.7571774006675913,-0.002315787561850438,0.01121880339245969,0.08892936119939461
4883,11.0,299.57752,-4816.7861,0.0,0.0,0.04883068729578133,0.0,0.0,0.0,0.37384242408287466,0.3789304594600246,0.7114098258406834,-0.019224648473075083,0.007180557028490804,0.07145043017785843
4884,11.0,299.58457999999996,-4925.7372,0.0,0.0,0.04884069171615568,0.0,0.0,0.0,0.37030391155365067,0.37578602015969265,0.7512111915612723,-0.005571470577411334,0.009351983403543901,0.08022649428223852
4885,11.0,299.3507,-5124.5706,0.0,0.0,0.048850696136529814,0.0,0.0,0.0,0.39850031109641865,0.3825208098643646,0.7767203809113332,-0.0038438432878577966,0.004059425722859126,0.058174042098830946
4886,11.0,299.55407,-5051.3267,0.0,0.0,0.04886070055690417,0.0,0.0,0.0,0.37409461190026366,0.39972872485515365,0.7616538585493833,-0.002329101060214378,0.011931899428586789,0.08615454337654141
4887,11.0,299.96589,-4882.3204,0.0,0.0,0.0488707049772783,0.0,0.0,0.0,0.3702494290957737,0.35308428339170567,0.7607697978371333,0.0006167470973681994,-0.0045451330351447055,0.055382664729593446
4888,11.0,299.75516,-4902.9502,0.0,0.0,0.04888070939765221,0.0,0.0,0.0,0.3657235043440996,0.38265139753725264,0.7419995423846533,-0.002220980891068748,-0.010630451615893889,0.07501346538600263
4889,11.0,300.18872000000005,-5158.8952,0.0,0.0,0.04889068090874882,0.0,0.0,0.0,0.4119821103019686,0.39317298657565264,0.7630202263092333,0.0009822385775718999,-0.008639025676055451,0.05141159775917965
4890,11.0,300.48087000000004,-5317.1014,0.0,0.0,0.04890068532912295,0.0,0.0,0.0,0.4095178049987606,0.4095498034369186,0.7971984491423613,0.009725237281306191,-0.00871712324473808,0.07892399471594183
4891,11.0,299.87445,-5162.5966,0.0,0.0,0.048910689749497305,0.0,0.0,0.0,0.4033672451692476,0.41213743140979764,0.7537957797838513,0.001118938468905629,-0.012539954866597189,0.06838074644340424
4892,11.0,300.32935,-4814.9562,0.0,0.0,0.04892069416987144,0.0,0.0,0.0,0.35132750023582465,0.3614695359192656,0.7508294090560933,0.006372540736245804,0.005344036257315314,0.08422928915303361
4893,11.0,300.16379,-4936.0757,0.0,0.0,0.04893069859024557,0.0,0.0,0.0,0.3701703246604666,0.38853357781277864,0.7417398463840232,0.006822242712852933,0.015481484754903588,0.07606241026052543
4894,11.0,299.69978,-5119.6993,0.0,0.0,0.0489407030106197,0.0,0.0,0.0,0.3856103715392806,0.40332781960785663,0.7673225470288393,0.0033436221811398168,0.01910350733086938,0.08913129181182361
4895,11.0,299.93881,-4958.866,0.0,0.0,0.048950707430993834,0.0,0.0,0.0,0.39509807057314367,0.36364002909097665,0.7486333414518583,-0.016919761861100484,0.01052115334085699,0.06774947339260244
4896,11.0,299.94432,-4740.0688,0.0,0.0,0.048960711851367966,0.0,0.0,0.0,0.3422712836245457,0.37774535201056364,0.7208459301794543,-0.017326803678022383,-0.0038033982955411865,0.08865275912084611
4897,11.0,299.35806,-4871.9663,0.0,0.0,0.04897068336246457,0.0,0.0,0.0,0.37824534027240864,0.3564351723999127,0.7462755895291663,-0.013728174007115288,-0.004737010382731525,0.05819123391327764
4898,11.0,299.96278,-5169.1715,0.0,0.0,0.048980687782838706,0.0,0.0,0.0,0.38059518884432064,0.40898367020854565,0.7817202128672782,-0.008492242618869092,-0.009377411624078472,0.08369456059826001
4899,11.0,300.73054,-5278.1454,0.0,0.0,0.04899069220321306,0.0,0.0,0.0,0.4040487774515096,0.41568511385242657,0.7846905251379253,0.005744251403013475,-0.007469680649125082,0.05417513912166994
4900,11.0,300.37063,-5137.0047,0.0,0.0,0.04900069662358719,0.0,0.0,0.0,0.3863675733390106,0.3871082794271126,0.7880453252915183,-0.0016804398270964984,-0.014379153759111987,0.06053307780939965
4901,11.0,300.39731,-4948.8787,0.0,0.0,0.049010701043961324,0.0,0.0,0.0,0.3911419976777096,0.3793966659635356,0.7337969079226163,0.02005914909643388,-0.006502155486387783,0.04431018174432446
4902,11.0,300.39333,-4977.4081,0.0,0.0,0.04902070546433546,0.0,0.0,0.0,0.38280420578483365,0.3827388308883817,0.7474647398465263,0.019153705767323583,-0.006628165599299013,0.08167564862825892
4903,11.0,300.86296,-5155.613,0.0,0.0,0.04903070988470959,0.0,0.0,0.0,0.42789135277208856,0.38839528943913065,0.7508909842646703,0.016809989385016783,0.0028198182862943975,0.06915610872467653
4904,11.0,300.77417,-5156.2299,0.0,0.0,0.049040681395806196,0.0,0.0,0.0,0.38641680716136967,0.4066512900683576,0.7742970514421692,-0.01044211578005659,0.0025178897175213676,0.09008818494126161
4905,11.0,299.96618,-4936.3383,0.0,0.0,0.04905068581618055,0.0,0.0,0.0,0.37635260935061066,0.37252219973257866,0.7516487737494583,-0.016265386708018685,-0.0028695273229502973,0.07870027010711192
4906,11.0,299.63324,-4948.8225,0.0,0.0,0.04906069023655446,0.0,0.0,0.0,0.35559722469971367,0.3938321564282076,0.7548890969067533,-0.010548331748289291,0.004050076464186426,0.08393327016281882
4907,11.0,299.65585,-5116.8248,0.0,0.0,0.04907069465692859,0.0,0.0,0.0,0.4079349158250416,0.38404394767968664,0.7634081085800143,-0.017905761612911086,0.01055666370386159,0.06061116798135654
4908,11.0,300.02349,-5252.1725,0.0,0.0,0.04908069907730295,0.0,0.0,0.0,0.4034439380693166,0.4002808853646476,0.7928044596862083,-0.005075317365869825,0.010886880898201489,0.05534735397685855
4909,11.0,299.52861,-5141.212,0.0,0.0,0.04909070349767708,0.0,0.0,0.0,0.39964183865907865,0.4087125751442906,0.7544456480004883,-0.00943450117446277,0.000934026952311283,0.06960467555719663
4910,11.0,299.88719,-4983.1001,0.0,0.0,0.04910070791805121,0.0,0.0,0.0,0.36329765188218666,0.3947376676450746,0.7567026828632403,0.012407821987306687,-0.004373213674777586,0.07341660146690443
4911,11.0,300.13551,-4987.5735,0.0,0.0,0.049110712338425344,0.0,0.0,0.0,0.36935735357523264,0.3904258021095266,0.7563146384724433,0.01080716142008379,-0.009408880031109162,0.08255704854574633
4912,11.0,300.76255,-5053.8513,0.0,0.0,0.04912068384952217,0.0,0.0,0.0,0.38613175964323765,0.39902853863855064,0.7510843022512493,0.015198540743979186,-0.008870440751819341,0.07190854486607083
4913,11.0,299.98372,-5117.7492,0.0,0.0,0.04913068826989608,0.0,0.0,0.0,0.4040669652908046,0.37593986192237566,0.7756611393892943,0.008889637788213941,-0.0015597183730822184,0.06624970821733714
4914,11.0,300.05897000000004,-4906.3881,0.0,0.0,0.049140692690270216,0.0,0.0,0.0,0.3801054648059886,0.37559558993589864,0.7357184252797553,-0.007092746950974622,0.0006024487503045624,0.07402800772299553
4915,11.0,300.36394,-4787.2262,0.0,0.0,0.04915069711064435,0.0,0.0,0.0,0.36721887910668166,0.36066430606479566,0.7273140527228082,-0.005543205763221815,0.012556134444193987,0.07474804046930723
4916,11.0,300.53893,-5077.4268,0.0,0.0,0.04916070153101848,0.0,0.0,0.0,0.3821131185541286,0.38688062239464466,0.7744172229040293,-0.012368140073640387,0.0004028346505191846,0.06889366073677494
4917,11.0,299.87824,-5334.7465,0.0,0.0,0.049170705951392835,0.0,0.0,0.0,0.4302237126472746,0.4112809716302716,0.7801250532348483,0.0018186520043369783,0.0027971222946544774,0.06612414322519485
4918,11.0,299.99798,-5165.251,0.0,0.0,0.04918071037176697,0.0,0.0,0.0,0.3960531195873996,0.39110520656657866,0.7829489913960492,-0.0008914609640903473,-0.00942935953815533,0.07295883432347633
4919,11.0,300.17726,-4911.9317,0.0,0.0,0.04919071479214088,0.0,0.0,0.0,0.3806977702844446,0.38214762985253464,0.7302591755959693,0.0053268357289177545,-0.008816085051529851,0.05680702991191735
4920,11.0,299.92837000000003,-4955.6014,0.0,0.0,0.049200686303237706,0.0,0.0,0.0,0.3683216599855177,0.38787770102304864,0.7501797130919733,0.0098225691739871,-0.0070299172374488125,0.06917228019627253
4921,11.0,299.70446,-5230.0666,0.0,0.0,0.04921069072361184,0.0,0.0,0.0,0.4158767295788376,0.4023220472935946,0.7716108848970653,-0.0010895566478058688,0.00038101069231282766,0.060108583772755346
4922,11.0,299.39203,-5248.3181,0.0,0.0,0.04922069514398597,0.0,0.0,0.0,0.3891051420616876,0.41532423469681057,0.7909282650060423,0.00911833968418506,0.007481835192024644,0.09310228076197972
4923,11.0,299.74697000000003,-4899.8248,0.0,0.0,0.0492306995643601,0.0,0.0,0.0,0.36776979331855264,0.36893638868868667,0.7527181984350022,-0.007766660605734722,-0.004479344935301926,0.06740511224011664
4924,11.0,300.25092,-4718.0499,0.0,0.0,0.049240703984734235,0.0,0.0,0.0,0.33842109536456166,0.35811934605362766,0.7376289083433053,0.0033778366985915275,0.004047943674050936,0.08520485040231401
4925,11.0,300.47431,-5035.1276,0.0,0.0,0.04925070840510837,0.0,0.0,0.0,0.38563351417156466,0.38904394175564766,0.7558755972041132,0.0021441120907823882,-0.001180824542613309,0.05760090123276635
4926,11.0,300.93211,-5276.6748,0.0,0.0,0.0492607128254825,0.0,0.0,0.0,0.4206864150210166,0.39064879819153464,0.7926421674176912,0.0071660133431804525,0.008147111294982284,0.08088199110318102
4927,11.0,300.69552000000004,-5115.6166,0.0,0.0,0.04927068433657933,0.0,0.0,0.0,0.3980409440310826,0.3989479751230996,0.7580307902993142,-0.004923750248336315,0.003129941515251177,0.07891218832577662
4928,11.0,300.05324,-4883.3414,0.0,0.0,0.04928068875695346,0.0,0.0,0.0,0.34918200394408067,0.39041604451106365,0.7448158102425972,-0.013743653428892987,-0.007586881565666914,0.08546349464934024
4929,11.0,299.95682,-5033.2215,0.0,0.0,0.04929069317732737,0.0,0.0,0.0,0.3876173362773526,0.3913897575921616,0.7509665727221303,0.0006932739257458093,-0.0054988208492163645,0.06971774109610535
4930,11.0,300.10145,-5280.9602,0.0,0.0,0.049300697597701726,0.0,0.0,0.0,0.4138959168258466,0.4122667221225576,0.7791174064079013,-0.006925601721103674,-0.003019076350259637,0.05995451200229964
4931,11.0,300.25318,-5279.2482,0.0,0.0,0.04931070201807586,0.0,0.0,0.0,0.4213846861949306,0.40590562918726664,0.7774693145902473,0.017195865420599785,0.0004948776816531245,0.05587344558777974
4932,11.0,300.74183999999997,-4929.3895,0.0,0.0,0.04932070643844999,0.0,0.0,0.0,0.37410891899167564,0.36962111270876363,0.7546812894437442,0.0037204732994071264,-0.0025968284864370176,0.046829683846729954
4933,11.0,299.82852,-4812.8682,0.0,0.0,0.04933071085882412,0.0,0.0,0.0,0.36670773496123565,0.3642579596644616,0.7320260709878482,0.01055935793587749,0.01130745365695879,0.06484225620568244
4934,11.0,299.64456,-5097.1162,0.0,0.0,0.04934071527919848,0.0,0.0,0.0,0.37726120084778164,0.3941985375318666,0.7779363114288363,0.008195987946681032,0.005353605999209776,0.07734946890854823
4935,11.0,300.18051,-5273.1514,0.0,0.0,0.049350686790295084,0.0,0.0,0.0,0.4201647128095286,0.3966178849281376,0.7861237674043753,-0.004716566643413886,0.005046010626602475,0.06914192727627694
4936,11.0,299.60347,-5108.4325,0.0,0.0,0.049360691210669216,0.0,0.0,0.0,0.38183121211130666,0.39479616257334765,0.7762085376233183,-0.01122464275278599,-0.003819142682220036,0.06893566197992014
4937,11.0,299.35821,-4850.7212,0.0,0.0,0.04937069563104313,0.0,0.0,0.0,0.37043801520438563,0.36535641396537066,0.7387037032543793,-0.009559687008417651,-0.0016123280407993885,0.05899223547508034
4938,11.0,299.72549,-5068.1201,0.0,0.0,0.04938070005141726,0.0,0.0,0.0,0.39160130394803966,0.4056006307746656,0.7433800247183964,-0.009421539375208541,-0.0019388953056290682,0.07704051983380733
4939,11.0,300.04592,-5324.335,0.0,0.0,0.04939070447179161,0.0,0.0,0.0,0.42894748361632057,0.4083338323894116,0.7811835652168152,-0.004620765771634076,-0.007750872142676523,0.07505869079096603
4940,11.0,300.03922,-5143.3031,0.0,0.0,0.049400708892165746,0.0,0.0,0.0,0.38857896128475766,0.4148099494760546,0.7600467932282783,0.0003355970862758537,0.008772722000250251,0.08847817308886581
4941,11.0,300.47700000000003,-4846.5602,0.0,0.0,0.0494107133125401,0.0,0.0,0.0,0.3643514015886836,0.37974922633583064,0.7291326441347893,0.002608457253859688,0.012309731271625888,0.07119972879836614
4942,11.0,300.25663,-4897.3829,0.0,0.0,0.04942071773291401,0.0,0.0,0.0,0.35672656286367066,0.3798474102705206,0.7521081306822933,0.0006709064196558085,0.013307697507117487,0.08393068738831393
4943,11.0,300.41111,-5022.9194,0.0,0.0,0.04943068924401084,0.0,0.0,0.0,0.3928059772569316,0.38367536782331063,0.7503607200898372,0.002330815378058568,0.006236195877614614,0.07612660776036122
4944,11.0,300.35185,-5095.0874,0.0,0.0,0.04944069366438475,0.0,0.0,0.0,0.38372993134119565,0.38981055664880665,0.7752388572776183,0.0006816553617516463,0.0016654516289672783,0.07066264241060984
4945,11.0,299.77295,-5002.8024,0.0,0.0,0.04945069808475888,0.0,0.0,0.0,0.3811599845825616,0.38635465440023564,0.7532123706412733,0.01248105869128459,-0.006452835740420305,0.08677370808864822
4946,11.0,299.55399,-4941.2336,0.0,0.0,0.049460702505133236,0.0,0.0,0.0,0.36704644420466365,0.3887622987578516,0.7462028989669923,-0.008965355637711711,-0.008325771098989632,0.08019163341254802
4947,11.0,300.33339,-5099.8372,0.0,0.0,0.04947070692550737,0.0,0.0,0.0,0.4088611378739526,0.38836254119589864,0.7529994969277642,0.004431987145503076,-0.002103000177249958,0.07974481848945082
4948,11.0,299.63395,-5364.388000000001,0.0,0.0,0.04948071134588172,0.0,0.0,0.0,0.4133106635680866,0.4133181514863256,0.8040111881772263,-0.0041320672437282855,0.012802169806975789,0.05258207083744636
4949,11.0,299.13054,-5262.1699,0.0,0.0,0.049490715766255855,0.0,0.0,0.0,0.4260848899638046,0.3981948263237696,0.7752885267975202,0.006993052969660593,0.01144011342630129,0.054922859940214244
4950,11.0,299.93556,-4960.6891,0.0,0.0,0.04950068727735224,0.0,0.0,0.0,0.37154463630110063,0.37905259662707863,0.7573283850649923,-0.006859526263532534,0.003159838675351797,0.04935610948706875
4951,11.0,300.02261,-4974.0953,0.0,0.0,0.04951069169772637,0.0,0.0,0.0,0.3968253276211106,0.37080662545826465,0.7443688149609823,-0.005269087869943485,-0.007534986137945233,0.06415778752463064
4952,11.0,300.06795,-5111.1217,0.0,0.0,0.049520696118100505,0.0,0.0,0.0,0.3924049429998526,0.3837817590838106,0.7774666801399873,0.00923629800517664,-0.008323931847408112,0.07346221089365573
4953,11.0,300.21167,-5076.1606,0.0,0.0,0.04953070053847486,0.0,0.0,0.0,0.3899094093285626,0.3841092313836296,0.7690074400901252,0.010062711372862292,-0.002176467192975588,0.07209339005531364
4954,11.0,300.45282000000003,-4999.3637,0.0,0.0,0.04954070495884899,0.0,0.0,0.0,0.35355361070552466,0.3952151212246956,0.7709129886256882,0.001785694828934358,-0.006691770347826313,0.09719364889026631
4955,11.0,300.10823,-4898.0469,0.0,0.0,0.04955070937922312,0.0,0.0,0.0,0.37682814788754265,0.36859406214240165,0.7434617433389613,-0.006680613552300224,-0.014529075257158087,0.06504511698170323
4956,11.0,299.84529,-4921.7335,0.0,0.0,0.049560713799597256,0.0,0.0,0.0,0.36062883217879466,0.3784694914595307,0.7569857646761783,0.000967064123809298,0.0095820621037509,0.0968024360664066
4957,11.0,299.35532,-5205.1118,0.0,0.0,0.04957071821997139,0.0,0.0,0.0,0.4054964686643856,0.4032742085450656,0.7734533383489013,0.007482124576253203,0.007285031523776634,0.06458296651834253
4958,11.0,300.04607000000004,-5251.7452,0.0,0.0,0.049580689731067995,0.0,0.0,0.0,0.4019214082040546,0.4093267161624016,0.7851512904883993,-0.008127482208745042,0.01115262802842869,0.08441785195689333
4959,11.0,300.30369,-5067.6789,0.0,0.0,0.04959069415144213,0.0,0.0,0.0,0.38898218416205266,0.39512177049298264,0.7563439011353312,-0.015001477785030587,-0.009233013757627511,0.06955304742485134
4960,11.0,300.16881,-4974.6256,0.0,0.0,0.04960069857181626,0.0,0.0,0.0,0.38118344132237664,0.37826923270976665,0.7527092717016213,-0.006228425870547775,0.004633291164070236,0.07409675471578034
4961,11.0,300.06596,-5067.0984,0.0,0.0,0.049610702992190614,0.0,0.0,0.0,0.39088505771735166,0.3951901547422316,0.7541961858258683,-0.003295988584663747,0.00890879885422999,0.06632043814056764
4962,11.0,299.32702,-5006.8382,0.0,0.0,0.049620707412564746,0.0,0.0,0.0,0.3793868171725637,0.3795011725788497,0.7630657921662303,-0.003932591736291587,0.004865795787666655,0.07350097986898192
4963,11.0,299.43904,-4953.5618,0.0,0.0,0.04963071183293888,0.0,0.0,0.0,0.3845050068726897,0.3673265875923117,0.7539275022968512,0.01271944097606109,-0.020741110996738282,0.07356478524102902
4964,11.0,299.4393,-4980.2592,0.0,0.0,0.04964071625331301,0.0,0.0,0.0,0.3915148939795116,0.36126589291416766,0.7610936629665963,0.01179816561413829,-0.002870829855953847,0.06233832471756364
4965,11.0,299.34696,-5069.8359,0.0,0.0,0.04965072067368714,0.0,0.0,0.0,0.38358004125390266,0.38238869218382565,0.7751347762273463,0.01924658331123988,-0.01013062020516437,0.07719375364643033
4966,11.0,299.50102000000004,-5224.9956,0.0,0.0,0.04966069218478375,0.0,0.0,0.0,0.4000253639544296,0.4066771482109096,0.7815656719620262,0.004731692744881715,-0.004790137517274765,0.07273741485862392
4967,11.0,300.0429,-5319.1567,0.0,0.0,0.049670696605158104,0.0,0.0,0.0,0.4268857324453416,0.4115330479901496,0.7784720572867102,-0.0008361850503250392,-0.013556528426925186,0.07806047258321883
4968,11.0,300.21427,-5133.5807,0.0,0.0,0.049680701025532015,0.0,0.0,0.0,0.40401963637863364,0.3962929660185706,0.7601677651577173,-0.008962701125099731,0.0023936459021844576,0.06849470161590074
4969,11.0,300.03581,-4959.5495,0.0,0.0,0.04969070544590615,0.0,0.0,0.0,0.3855034837862316,0.38593653674647066,0.7361391875162813,-0.00867241763707598,0.011442440861780988,0.06533235210680113
4970,11.0,300.32067,-5025.5677,0.0,0.0,0.0497007098662805,0.0,0.0,0.0,0.37013826542730266,0.3980345808204546,0.7594742562592732,-0.01117118367750999,0.016344025048279684,0.07310314444246863
4971,11.0,300.11492999999996,-5186.5755,0.0,0.0,0.049710714286654634,0.0,0.0,0.0,0.39130723850401766,0.4078585572975056,0.7774236575407413,-0.005220635466061605,-0.002191781049686948,0.06602913886931865
4972,11.0,299.67436000000004,-5030.7083,0.0,0.0,0.049720718707028766,0.0,0.0,0.0,0.3635077391579207,0.39146676459976165,0.7742352127885663,-0.006433130761750574,0.005550178342459955,0.07707412731312413
4973,11.0,299.94588999999996,-4781.8944,0.0,0.0,0.049730723127402676,0.0,0.0,0.0,0.36258491149684463,0.36099810104523866,0.7299934811547473,0.008053808186023982,0.003191624837613847,0.08438949615284483
4974,11.0,299.86647,-4989.6269,0.0,0.0,0.04974069463849973,0.0,0.0,0.0,0.3749156079262897,0.3862117050761276,0.7555946736138883,-0.0018917503996762283,-0.0007949304610460283,0.0968577990386205
4975,11.0,299.61172999999997,-5231.0847,0.0,0.0,0.04975069905887364,0.0,0.0,0.0,0.4258350731516496,0.41025760929427363,0.7540264461691163,0.00911290998087419,-0.018246406164030084,0.08590143654131173
4976,11.0,300.18196,-5229.962,0.0,0.0,0.04976070347924777,0.0,0.0,0.0,0.4079844232249276,0.3971432956349916,0.7846501471214403,0.01108854603910429,-0.011619078725213788,0.07384090298602973
4977,11.0,299.93769,-5090.8688,0.0,0.0,0.0497707078996219,0.0,0.0,0.0,0.3888986214263056,0.3986271598764376,0.7599712149033192,0.007516670021187573,-0.008121676083022023,0.07640334865417343
4978,11.0,300.38837,-4985.2458,0.0,0.0,0.049780712319996034,0.0,0.0,0.0,0.36427960268659765,0.3875338140716096,0.7635768349866663,0.01044112380820869,0.005111667307907285,0.059169376923812855
4979,11.0,300.6705,-5106.1303,0.0,0.0,0.04979071674037039,0.0,0.0,0.0,0.3986624412449196,0.39340374415342666,0.7600699257280613,0.003602670410980887,-0.001130603814656909,0.08027040651507233
4980,11.0,300.29235,-5252.5391,0.0,0.0,0.04980072116074452,0.0,0.0,0.0,0.4141841054192886,0.4023885874276616,0.7800680275192202,-0.013422666942964089,0.016286649761367185,0.043694606977321956
4981,11.0,300.01302999999996,-5033.4679,0.0,0.0,0.04981069267184113,0.0,0.0,0.0,0.3985336267597066,0.3766578104132316,0.7548571389985993,-0.01023539148140449,0.012985635962832488,0.060263615091055746
4982,11.0,299.47947,-4901.9133,0.0,0.0,0.04982069709221526,0.0,0.0,0.0,0.35798111847498565,0.37557674348403863,0.7565013703333723,-0.025641034466323077,0.01898358614178408,0.05975165629252934
4983,11.0,299.60997000000003,-5044.9561,0.0,0.0,0.04983070151258939,0.0,0.0,0.0,0.37317369928187666,0.38982050676478863,0.7705464757995162,-0.015087881674057986,-0.0024658736117127776,0.08993770108941002
4984,11.0,299.57108,-5247.4521,0.0,0.0,0.049840705932963525,0.0,0.0,0.0,0.4041413479806456,0.39143323615395265,0.7995198253864632,-0.0051457038986414344,-0.006932448252029374,0.06943071976677853
4985,11.0,299.46214,-5139.7461,0.0,0.0,0.04985071035333766,0.0,0.0,0.0,0.3982797569471516,0.39303559999459364,0.7710391281306372,0.017966501903405683,-0.0008768468882955501,0.09072310974542382
4986,11.0,299.71558,-4999.7692,0.0,0.0,0.04986071477371179,0.0,0.0,0.0,0.38510441523434663,0.3836778705510576,0.7510227169101713,0.02129150034505748,-0.006095804503384063,0.08005339367490483
4987,11.0,300.10884,-5003.0069,0.0,0.0,0.04987071919408592,0.0,0.0,0.0,0.4013914986667566,0.38654912749192866,0.7328485362265192,0.013951930026698285,-0.015261275110670587,0.07234824069396543
4988,11.0,299.33205,-5132.2098,0.0,0.0,0.049880723614460054,0.0,0.0,0.0,0.39258056963968563,0.39547803936064363,0.7720050290534642,0.021427324494462278,0.0025216149315140175,0.06833737832587414
4989,11.0,299.81479,-5186.138,0.0,0.0,0.04989069512555688,0.0,0.0,0.0,0.38774959581290563,0.3967388467250756,0.7919680014636563,0.017547970843599884,-0.002176316624010728,0.061289720295074436
4990,11.0,300.04188,-5140.0959,0.0,0.0,0.049900699545931015,0.0,0.0,0.0,0.36816204269726466,0.40394585150635165,0.7903529010692583,0.004825970600436215,0.00011294523572432688,0.06944362857305253
4991,11.0,300.30984,-5013.9972,0.0,0.0,0.049910703966304926,0.0,0.0,0.0,0.3588301106012747,0.3886215481864606,0.7766782905021793,-0.01843872812576078,-0.016556199619219683,0.060985806060080444
4992,11.0,300.19982999999996,-5105.8949,0.0,0.0,0.04992070838667928,0.0,0.0,0.0,0.3915038698184236,0.3937855874536116,0.7667750879998092,-0.008129394009033723,0.006457129083744024,0.06897283711283902
4993,11.0,300.24925,-5231.2564,0.0,0.0,0.04993071280705341,0.0,0.0,0.0,0.41846768101204457,0.4022821961671616,0.7694214439484842,-0.015836301635171288,0.013448545350518088,0.06507401284805503
4994,11.0,299.49134,-5167.6849,0.0,0.0,0.049940717227427545,0.0,0.0,0.0,0.3975410874917506,0.4010815555936676,0.7722245294226273,0.006654263274174654,0.014346265687366185,0.08242389127060472
4995,11.0,299.61692,-4996.2241,0.0,0.0,0.04995072164780168,0.0,0.0,0.0,0.37296270008105264,0.3932117839219816,0.7525528866811872,-0.008372650432091263,0.0015693472887825185,0.08700020697625191
4996,11.0,299.89467,-5033.8876,0.0,0.0,0.04996072606817603,0.0,0.0,0.0,0.3822783289829336,0.38374782533796165,0.7641499697732302,0.00970745089170081,0.0042745510807403455,0.07854417994245702
4997,11.0,300.24726,-5221.1723,0.0,0.0,0.04997069757927264,0.0,0.0,0.0,0.39413395297049264,0.39826408196810464,0.7947079918540723,0.014851365795965688,-6.606018687888284e-05,0.07499132789781783
4998,11.0,300.27629,-5198.8927,0.0,0.0,0.04998070199964655,0.0,0.0,0.0,0.4219101880942936,0.39063798681296763,0.7677853794095173,0.015212199355327187,-0.007905414162503633,0.05961029169157774
4999,11.0,300.69763,-5109.1791,0.0,0.0,0.04999070642002068,0.0,0.0,0.0,0.4096146413108176,0.3935750138178296,0.7498732353342263,0.0012760343856097886,-0.009250627793390882,0.07316873718769214
5000,11.0,300.6488,-4937.978,0.0,0.0,0.05000071084039481,0.0,0.0,0.0,0.3788516995297516,0.37073463403865964,0.7514356771209273,-0.008103374557065803,-0.013352845905073287,0.06280836738595323
5001,11.0,300.74275,-4934.9763,0.0,0.0,0.05001071526076917,0.0,0.0,0.0,0.3588973802754137,0.3871980128559686,0.7540141655779042,-0.0053780752798497046,-0.005904525277331274,0.07613045608424103
5002,11.0,300.1481,-5054.4486,0.0,0.0,0.0500207196811433,0.0,0.0,0.0,0.36324746560473364,0.39516414461216465,0.7780145546015582,-0.007443608812126992,-0.008120126316994072,0.08326372766899012
5003,11.0,299.73974,-5044.4983,0.0,0.0,0.050030724101517654,0.0,0.0,0.0,0.36350502364765264,0.3984894389228456,0.7714070696394503,-0.014082117465796786,-0.0008870582201533302,0.07959215412338401
5004,11.0,299.30764,-4939.7957,0.0,0.0,0.05004069561261404,0.0,0.0,0.0,0.37477102726952066,0.38434070836897466,0.7424628003303733,0.002355672834811808,0.006294525038171254,0.07663634146166803
5005,11.0,299.73663,-5027.5974,0.0,0.0,0.05005070003298839,0.0,0.0,0.0,0.40440878521203966,0.37820543848347066,0.7456498467974103,0.0024022230642809575,0.025563006102622274,0.06202619099775844
5006,11.0,299.79782,-5263.8343,0.0,0.0,0.050060704453362304,0.0,0.0,0.0,0.4141370906146486,0.40276416884222865,0.7831729298006502,0.004808520913839065,0.02009067434679518,0.08122277852256413
5007,11.0,299.94777,-5416.3497,0.0,0.0,0.050070708873736436,0.0,0.0,0.0,0.4272734323311046,0.40834569754808264,0.8108159225363012,0.0023974869306635374,0.0016804559377730883,0.06288921663793244
5008,11.0,299.99033,-5253.7274,0.0,0.0,0.05008071329411079,0.0,0.0,0.0,0.3901942035341696,0.4101102827297336,0.7966974476304162,-0.006200255288617554,-0.004683578563883215,0.07409988261883903
5009,11.0,300.02173,-5070.9152,0.0,0.0,0.05009071771448492,0.0,0.0,0.0,0.3809224990241237,0.3852502827187426,0.7752588284370893,0.0015344136677348384,-0.012121022559751789,0.05815532736948394
5010,11.0,299.52333,-5066.3524,0.0,0.0,0.05010072213485928,0.0,0.0,0.0,0.38486533887325164,0.3935806170908826,0.7615986769489372,0.002671663491122657,-0.015812020109774883,0.06010301495020574
5011,11.0,300.02885,-5037.6863,0.0,0.0,0.05011072655523341,0.0,0.0,0.0,0.40002269910666666,0.37576464058258263,0.7555434842188363,0.007748972704039062,-0.013169909679018887,0.06711833510406393
5012,11.0,300.2231,-5200.0126,0.0,0.0,0.050120698066329794,0.0,0.0,0.0,0.39475297785408564,0.41119161310395264,0.7747293849948372,0.011233882580447888,-0.01227819588876359,0.06441755951901815
5013,11.0,300.4059,-5138.0707,0.0,0.0,0.050130702486703926,0.0,0.0,0.0,0.3910409563777376,0.3918046125806046,0.7789996160837762,-0.0041954076353044965,0.013868370330701587,0.07382815731302184
5014,11.0,300.44827999999995,-5082.3784,0.0,0.0,0.05014070690707806,0.0,0.0,0.0,0.3703115311944027,0.3927180372807526,0.7818865682686963,-0.005859772046914474,0.004678935142649945,0.07792979574432203
5015,11.0,300.7659,-5266.009,0.0,0.0,0.05015071132745241,0.0,0.0,0.0,0.39755281079540766,0.4120276356289616,0.7911547871983983,-0.007862358632629383,0.014343951424137788,0.08031247361947402
5016,11.0,300.38153,-5341.7444,0.0,0.0,0.050160715747826545,0.0,0.0,0.0,0.4342150263811866,0.39072170153622965,0.7988201660599122,-0.0016009872390551386,0.005103678438818845,0.050532626602181954
5017,11.0,300.38298,-5181.5384,0.0,0.0,0.05017072016820068,0.0,0.0,0.0,0.40567009920152164,0.4027816474064536,0.7666065338456742,-0.002181065727229428,0.005679284542376745,0.07925540957189993
5018,11.0,299.67897999999997,-5077.5538,0.0,0.0,0.05018072458857481,0.0,0.0,0.0,0.39318423365176264,0.39160584330848763,0.7586594917213623,-0.0010650040780077188,-0.0030659434230350573,0.07699149980721942
5019,11.0,299.86534,-5069.027,0.0,0.0,0.05019072900894894,0.0,0.0,0.0,0.38209923702775866,0.3993976149874756,0.7593607925130753,-0.015348970893575486,-0.01015169904964469,0.0866078380340281
5020,11.0,300.04577,-5125.4537,0.0,0.0,0.05020070052004555,0.0,0.0,0.0,0.3697382545528246,0.40844209816259663,0.7798295895056883,0.008832054683705931,-0.0028951843353574474,0.08254039274060251
5021,11.0,299.67812999999995,-5168.2894,0.0,0.0,0.05021070494041968,0.0,0.0,0.0,0.3920570030480136,0.3963773089568946,0.7825966032762712,-0.0026179224283438274,0.007080314372247623,0.06879563081610013
5022,11.0,300.2947,-5052.0264,0.0,0.0,0.050220709360793814,0.0,0.0,0.0,0.3896572519086766,0.39771188092860665,0.7483207537960084,0.005600838111684684,-0.004536039520797246,0.07203573207162323
5023,11.0,299.82004,-4989.0962,0.0,0.0,0.05023071378116817,0.0,0.0,0.0,0.3792863635576496,0.3827686609713256,0.7545056425389093,-0.01237122238044459,-0.0005335595478682274,0.06159357474831254
5024,11.0,299.58454,-5162.2286,0.0,0.0,0.0502407182015423,0.0,0.0,0.0,0.39775709214806865,0.4037692926764266,0.7676622188598622,0.004674132134525926,-0.00018459423759053283,0.07154759782269814
5025,11.0,300.21666,-5395.8333,0.0,0.0,0.05025072262191643,0.0,0.0,0.0,0.4163732525253406,0.4163311722486876,0.8074941644684692,0.0046784156493236756,-0.00017558431637632282,0.06311462425517844
5026,11.0,300.29488,-5372.5583,0.0,0.0,0.050260727042290565,0.0,0.0,0.0,0.40010585654237363,0.4248866710580496,0.8081310326863232,0.0006380808046461724,0.004683139015989836,0.08542308116910173
5027,11.0,300.46101,-5142.6973,0.0,0.0,0.05027069855338717,0.0,0.0,0.0,0.39398864277365164,0.3956747922650616,0.7735881208772033,0.004433529210830266,0.010622765100635291,0.05980093875089315
5028,11.0,300.80012,-5075.1267,0.0,0.0,0.050280702973761304,0.0,0.0,0.0,0.39928206394607163,0.3767382928686746,0.7666914442040542,0.0029280606534020873,-0.006748945112544024,0.06151807647011145
5029,11.0,300.68973,-5210.0634,0.0,0.0,0.05029070739413544,0.0,0.0,0.0,0.41278757320396164,0.38138386219215664,0.7895577226557802,-0.0057184339931154946,0.004873542084681155,0.04957564430673515
5030,11.0,300.61797,-5167.5021,0.0,0.0,0.05030071181450957,0.0,0.0,0.0,0.3954440144222856,0.4041383690253516,0.7712092426899262,0.008786132263998742,-0.019284587282740583,0.07386983026313464
5031,11.0,300.51937000000004,-5088.8918,0.0,0.0,0.0503107162348837,0.0,0.0,0.0,0.37011433245994063,0.39857111701340664,0.7782105880984053,-0.006836875462847072,0.0024216923609774277,0.08195572716790052
5032,11.0,300.2337,-4967.1364,0.0,0.0,0.050320720655258055,0.0,0.0,0.0,0.35943354156582863,0.38021387243418764,0.7702380222040743,-0.00032501531018151367,-0.007213630525004904,0.09066282643072432
5033,11.0,299.58349,-5018.1825,0.0,0.0,0.05033072507563219,0.0,0.0,0.0,0.38231193848875067,0.39162230862261266,0.7514679288716103,0.004356977760475226,0.003095952648596737,0.06847064199227623
5034,11.0,299.7866,-5173.428,0.0,0.0,0.05034072949600632,0.0,0.0,0.0,0.39466722649812264,0.40315051097285765,0.7747751838993573,0.00960312980248012,-0.0036334461602432165,0.07196360588975494
5035,11.0,299.88223,-5200.0121,0.0,0.0,0.05035070100710293,0.0,0.0,0.0,0.3938857472259966,0.4091106405785766,0.7776774361607873,0.009534413308523332,-0.0017911274706705182,0.06828514224346885
5036,11.0,299.89142999999996,-5022.106,0.0,0.0,0.05036070542747728,0.0,0.0,0.0,0.3811150672056286,0.3802683447595636,0.7652114100479863,-0.003337483000108927,-0.0038020284827309965,0.06554817336485103
5037,11.0,299.31567,-5094.186,0.0,0.0,0.05037070984785119,0.0,0.0,0.0,0.38345762037682063,0.3843151440689516,0.7807325675973052,-0.01181223965802729,0.02165877817505498,0.08117744368658993
5038,11.0,299.96931,-5341.3663,0.0,0.0,0.050380714268225324,0.0,0.0,0.0,0.4136054180221766,0.4102789179438766,0.7997576351849333,-0.013300926969949289,0.014373766308330288,0.07414477567776963
5039,11.0,300.10531000000003,-5264.71,0.0,0.0,0.050390718688599456,0.0,0.0,0.0,0.4318228239550946,0.38356662582257867,0.7849509405461262,-0.006715023221721194,0.027090150308839673,0.06855812600591024
5040,11.0,300.72687,-5024.5927,0.0,0.0,0.05040072310897359,0.0,0.0,0.0,0.3797381616447386,0.3841039523506086,0.7635086128574333,-0.007221433260049973,-0.0015105391649036083,0.06469239651589244
5041,11.0,300.35575,-4991.1714,0.0,0.0,0.05041072752934794,0.0,0.0,0.0,0.38665503239238064,0.3749235822045766,0.7556128513206822,0.0034146464535243664,-0.0041311589663386465,0.05822691551554915
5042,11.0,300.32462999999996,-5124.3176,0.0,0.0,0.050420731949722075,0.0,0.0,0.0,0.3847381050581946,0.39917856044835665,0.7737479205504743,-0.007823081411053022,-0.016071591480642584,0.06634901989938843
5043,11.0,299.55039,-5205.4648,0.0,0.0,0.05043070346081868,0.0,0.0,0.0,0.39196710749914165,0.4138902527577876,0.7764739483545122,0.014117124243501686,-0.016560512011645285,0.07952311430132032
5044,11.0,299.55721,-5176.9361,0.0,0.0,0.050440707881192814,0.0,0.0,0.0,0.3942342849953946,0.39472479936880467,0.7847002320738833,0.0074569263634913325,-0.01248761644593179,0.07291036753144303
5045,11.0,299.74772,-5071.0798,0.0,0.0,0.05045071230156695,0.0,0.0,0.0,0.40152140746207765,0.3896305021060366,0.7503297247692783,-0.0011525824252260287,0.008311938411274452,0.07128912076193843
5046,11.0,299.60438999999997,-5098.3463,0.0,0.0,0.05046071672194108,0.0,0.0,0.0,0.39257348702148664,0.3922883280458436,0.7649081442930563,0.0009200643861982851,0.008056726751612023,0.08365697712555081
5047,11.0,299.81892999999997,-5244.0017,0.0,0.0,0.05047072114231521,0.0,0.0,0.0,0.4175459679260786,0.40021365622051264,0.7762859397984573,-0.009480440616771642,0.011292471740980189,0.07569976197023484
5048,11.0,300.28042,-5338.5434,0.0,0.0,0.050480725562689344,0.0,0.0,0.0,0.4105740878305076,0.4211595926852156,0.7910501995230763,-0.0038932155201804562,-0.0005926986296273004,0.07687318056654223
5049,11.0,300.11382000000003,-5126.2724,0.0,0.0,0.050490729983063476,0.0,0.0,0.0,0.37950623882934964,0.3954729731101436,0.7832795845061762,-0.001909117911690268,-0.003894762043808087,0.07647635231062833
5050,11.0,300.09185,-4940.3753,0.0,0.0,0.050500701494160305,0.0,0.0,0.0,0.36578255655992764,0.38314880201134266,0.7528193613249863,-0.0046048734504406255,0.002963665147340977,0.08063450577950612
5051,11.0,299.53365,-5115.3138,0.0,0.0,0.05051070591453444,0.0,0.0,0.0,0.39303450568448567,0.39436127563042767,0.7675318743669982,-0.012851112826556089,0.00012118912973043589,0.08276542342881132
5052,11.0,299.15617000000003,-5304.2598,0.0,0.0,0.05052071033490857,0.0,0.0,0.0,0.40561331666591766,0.4139448466731756,0.7928043583611982,-0.0012463671319568588,-0.009292737454296781,0.07711691281184672
5053,11.0,299.42997,-5275.128000000001,0.0,0.0,0.05053071475528248,0.0,0.0,0.0,0.41231835734765365,0.41968132158432164,0.7715075131218633,0.0064676989034871835,-0.0017124388732045583,0.07073552650355294
5054,11.0,299.59938,-5186.7802,0.0,0.0,0.050540719175656834,0.0,0.0,0.0,0.3928879390575206,0.3976563041606216,0.7861074135477613,0.005513850286624655,-0.007336645673270554,0.07835317419260622
5055,11.0,300.16767000000004,-5117.2854,0.0,0.0,0.050550723596030966,0.0,0.0,0.0,0.3821956781722766,0.3964500907115776,0.7768812343647082,0.0022505693138638976,-0.004265901977886745,0.06916620576192303
5056,11.0,299.67963,-5177.153,0.0,0.0,0.0505607280164051,0.0,0.0,0.0,0.3952173605074166,0.3969744983008326,0.7815333695488382,-0.009702250081587531,0.004907183102576265,0.07644266883755402
5057,11.0,299.94526,-5301.8873,0.0,0.0,0.05057073243677923,0.0,0.0,0.0,0.4172474543141176,0.38775307126074865,0.8066408254992512,0.0008315255690776841,0.014454700673317887,0.05383233330808765
5058,11.0,300.44218,-5259.2636,0.0,0.0,0.05058070394787606,0.0,0.0,0.0,0.4113698944590476,0.40289719844785765,0.7844177075485003,0.0014848226747155885,0.018012213668417085,0.07387568887521284
5059,11.0,300.40006,-5115.7553,0.0,0.0,0.05059070836825019,0.0,0.0,0.0,0.4039107322578856,0.3870891897952286,0.7640619588695442,-0.005241650171810595,0.006570826485415083,0.05803276159763765
5060,11.0,300.15806000000003,-5208.7064,0.0,0.0,0.0506007127886241,0.0,0.0,0.0,0.4023213684160276,0.4053139721888746,0.7756813638612903,-0.008857147315807381,-0.004173464285838856,0.07766278914422052
5061,11.0,299.88132,-5285.168000000001,0.0,0.0,0.050610717208998235,0.0,0.0,0.0,0.4042354586499336,0.4078057770997966,0.7945178554728073,-0.0006692082631507135,-0.013468580344745386,0.06133375411792023
5062,11.0,298.8214,-5144.4344,0.0,0.0,0.05062072162937237,0.0,0.0,0.0,0.39057400006915266,0.3927630863801986,0.7804424943586773,0.007676113131748383,-0.004606710270221905,0.07531960674471642
5063,11.0,299.38092,-5015.4488,0.0,0.0,0.05063072604974672,0.0,0.0,0.0,0.3538474937645287,0.4023155219629506,0.7684081837159833,-0.002170033662790648,-0.020859282302900878,0.08505806491332742
5064,11.0,299.52272,-5065.6448,0.0,0.0,0.050640730470120854,0.0,0.0,0.0,0.3832268931965497,0.38889044449799864,0.7677121923547943,-0.007728219416815872,0.0027142310397487474,0.08313819712735122
5065,11.0,299.38892999999996,-5178.2166,0.0,0.0,0.05065073489049521,0.0,0.0,0.0,0.3997939680290926,0.4072654918814746,0.7669890661559273,-0.006897884771243224,-0.0027933649606336573,0.07667131378886953
5066,11.0,300.05818999999997,-5126.2826,0.0,0.0,0.05066070640159159,0.0,0.0,0.0,0.38581560534703563,0.40005263051462064,0.7723936712618202,0.016013366076896185,0.001268069429223709,0.08020694058180872
5067,11.0,300.12847,-5100.9674,0.0,0.0,0.05067071082196595,0.0,0.0,0.0,0.38343549099463664,0.3922069437978116,0.7749242735190712,0.02114355063170598,-0.0037353734461026563,0.07812928949026052
5068,11.0,299.84287,-5113.2887,0.0,0.0,0.05068071524233986,0.0,0.0,0.0,0.3881430813567397,0.3880392941489966,0.7781297206079242,0.003039532552553507,-0.007017847908882663,0.06717253182541273
5069,11.0,299.93493,-5162.6325,0.0,0.0,0.05069071966271399,0.0,0.0,0.0,0.3823401980340397,0.4041412466556356,0.7828299345092993,-0.0012158264567177287,0.003694949326738106,0.08428743349677202
5070,11.0,299.94929,-5306.419,0.0,0.0,0.050700724083088344,0.0,0.0,0.0,0.4235412877077706,0.40159373325421566,0.7878838334905802,-0.016877773790206583,0.0006111731883030974,0.07160621028798272
5071,11.0,299.58356000000003,-5244.1189,0.0,0.0,0.05071072850346248,0.0,0.0,0.0,0.4197542451940186,0.3990208683352936,0.7753060864217532,0.007791506410111812,0.0021174021088713178,0.08136955894530022
5072,11.0,300.25825,-4993.6035,0.0,0.0,0.05072073292383683,0.0,0.0,0.0,0.37718209641247463,0.38369975675321766,0.7570489205549114,-0.019770633223209582,0.003827862611255627,0.07778833589786102
5073,11.0,300.41367,-4996.5339,0.0,0.0,0.05073073734421096,0.0,0.0,0.0,0.38094024103337465,0.3762974784126697,0.7615838328349723,-0.003699281781515687,0.009275921758287202,0.07136552589897903
5074,11.0,300.53546,-5193.0593,0.0,0.0,0.05074070885530735,0.0,0.0,0.0,0.38583379318633065,0.4019976654065806,0.7907288979163662,-0.0030272267314140175,0.004473927188342236,0.06863141235914302
5075,11.0,300.64017,-5216.059,0.0,0.0,0.05075071327568148,0.0,0.0,0.0,0.38296018550522765,0.4096138712407416,0.7929776241282982,0.022588068345268778,0.004359988937122405,0.08029437190643753
5076,11.0,300.29329,-5265.8717,0.0,0.0,0.05076071769605561,0.0,0.0,0.0,0.4078439158335606,0.41042493741578756,0.7824246648668023,0.019072499851309183,0.007868795202564623,0.06349076701030085
5077,11.0,299.58702999999997,-5204.1631,0.0,0.0,0.05077072211642997,0.0,0.0,0.0,0.4151052105551946,0.39469051098542063,0.7721398926417743,0.0016156417739264285,-0.0002580966461421558,0.07340855220811003
5078,11.0,299.77549,-5149.5617,0.0,0.0,0.0507807265368041,0.0,0.0,0.0,0.4017296607551306,0.38381930000001563,0.7797892013567023,-0.0012584723295765488,0.0039113247312676964,0.07026122818474334
5079,11.0,299.30232,-5192.5672,0.0,0.0,0.05079073095717823,0.0,0.0,0.0,0.39722024184758564,0.4053431639242556,0.7758473646251732,-0.008609058196397892,-0.016822946827295585,0.08828679344972812
5080,11.0,299.77267,-5215.5794,0.0,0.0,0.050800735377552364,0.0,0.0,0.0,0.38173094088141063,0.4024055998968406,0.8012693536716282,-0.003959719582543896,0.004365005943667545,0.07214556838246323
5081,11.0,300.16741,-5042.6437,0.0,0.0,0.05081070688864897,0.0,0.0,0.0,0.36901337543128465,0.38379014879463863,0.7800342254958842,-0.00952915950542982,-0.008225111692980323,0.08810077896986991
5082,11.0,300.26755,-4893.6811,0.0,0.0,0.0508207113090231,0.0,0.0,0.0,0.36395353880441766,0.37282912332036966,0.7507742071906452,-0.01783516645194388,0.007973765481124382,0.06644873688147973
5083,11.0,300.0572,-4994.3447,0.0,0.0,0.050830715729397236,0.0,0.0,0.0,0.38563153833386965,0.38758154828382063,0.7449429832626483,-0.012521699139545487,-0.007956477813218222,0.08432663614314102
5084,11.0,300.62919,-5146.7557,0.0,0.0,0.05084072014977137,0.0,0.0,0.0,0.39225914644296367,0.39432538631188563,0.7779006956878213,0.008641123205087461,-0.0027104498943505777,0.060052095079680345
5085,11.0,300.27428,-5189.9497,0.0,0.0,0.05085072457014572,0.0,0.0,0.0,0.3902866119432897,0.4098607800251096,0.7774677237875903,0.016730824154703786,0.00038701598247550367,0.08648794825569592
5086,11.0,300.41217,-5241.3128,0.0,0.0,0.050860728990519855,0.0,0.0,0.0,0.3902279548950007,0.40196339728819863,0.8010368634361833,0.009995310280185321,0.002314047608778718,0.06695072428577203
5087,11.0,299.55956000000003,-5233.95,0.0,0.0,0.05087073341089399,0.0,0.0,0.0,0.3963984554864816,0.4113252709246436,0.7832663717248722,0.009501696577369441,-0.009239217077389731,0.08907189103796122
5088,11.0,299.59659,-5155.1195,0.0,0.0,0.05088073783126812,0.0,0.0,0.0,0.4019707129539206,0.39895631417142263,0.7661005876732413,-0.005625107579404895,0.01302964242792559,0.06958440852869643
5089,11.0,299.88515,-5189.7101,0.0,0.0,0.050890709342364726,0.0,0.0,0.0,0.41096124056121663,0.39025655894532363,0.7763244736997602,0.0035071891182826167,0.001953231274668918,0.07345521845471564
5090,11.0,299.81156,-5143.6379,0.0,0.0,0.05090071376273886,0.0,0.0,0.0,0.4143682940224666,0.37704661474160367,0.7721225761975652,-0.0016675184565212587,0.012360085748595488,0.06790353300405694
5091,11.0,299.94597000000005,-4997.9649,0.0,0.0,0.05091071818311299,0.0,0.0,0.0,0.37786405425977865,0.3812347016449356,0.7601577947767333,-0.013616568561600685,0.008990450093663341,0.08555620298048983
5092,11.0,300.24897000000004,-5099.4524,0.0,0.0,0.05092072260348712,0.0,0.0,0.0,0.3740252245334157,0.3898835815835136,0.7861973698916394,-0.011704689239412888,0.006540585833530564,0.07578394988129353
5093,11.0,300.04514,-5308.8554,0.0,0.0,0.050930727023861255,0.0,0.0,0.0,0.3948520737138656,0.42002037533278364,0.7988870304340112,0.002407062346758558,-0.0058192971637199145,0.06812179619484783
5094,11.0,300.26993,-5307.6703,0.0,0.0,0.05094073144423561,0.0,0.0,0.0,0.4218158849074866,0.4112901010136726,0.7802932426189473,0.008024834603389513,-0.0020943280736190877,0.06346665469767114
5095,11.0,300.38185,-5185.5546,0.0,0.0,0.05095073586460974,0.0,0.0,0.0,0.39376337701141967,0.4135232130415636,0.7689925149161523,0.006428015773920764,-0.014017195492139489,0.07332924917578343
5096,11.0,299.9784,-5100.8483,0.0,0.0,0.050960740284983874,0.0,0.0,0.0,0.3962350283778526,0.39822963146470464,0.7560658653078913,-0.010291324913424691,0.004601326771115595,0.06962600244530144
5097,11.0,300.16751,-5085.669,0.0,0.0,0.05097071179608048,0.0,0.0,0.0,0.37985758330152464,0.3909211192884106,0.7751376943876342,-0.0015332611970710985,0.002175044893810218,0.08172211526459482
5098,11.0,299.86939,-5225.8031,0.0,0.0,0.050980716216454836,0.0,0.0,0.0,0.40221400443543165,0.4028330191865236,0.7834666406071373,-0.007080247092440983,0.012035656238826789,0.08719654039512852
5099,11.0,299.43743,-5198.1954,0.0,0.0,0.050990720636828746,0.0,0.0,0.0,0.4098255391866316,0.3879816402183066,0.7823144131234213,-0.0026075558665707276,-0.0006731887452410564,0.08852170433966201
5100,11.0,299.64283,-4975.6009,0.0,0.0,0.05100072505720288,0.0,0.0,0.0,0.39460549930203065,0.37591342622726664,0.7419394971837273,-0.01025682881377019,-0.006421819546909244,0.07000380591733774
5101,11.0,300.09959,-5001.3152,0.0,0.0,0.05101072947757701,0.0,0.0,0.0,0.3738158262677497,0.3895065613538046,0.7569525503379003,-0.01147824506731459,-0.010881771077947189,0.08255913178795192
5102,11.0,299.57374,-5307.3209,0.0,0.0,0.05102073389795114,0.0,0.0,0.0,0.4228187795914646,0.39339615491017765,0.7970780952954832,-0.0013706965669272187,-0.0032856858576469474,0.06535961866699214
5103,11.0,299.34469,-5419.2754,0.0,0.0,0.0510307383183255,0.0,0.0,0.0,0.4067028442334456,0.42796014232137763,0.8126614258709383,-0.003035152373696217,-0.00935746559320995,0.08339996015818522
5104,11.0,300.16873,-5169.4498,0.0,0.0,0.051040709829422104,0.0,0.0,0.0,0.37617901934347864,0.4048506737131506,0.7903539649818632,-0.004646922417665535,0.010791578646795889,0.06442342826359734
5105,11.0,300.23769,-5090.3424,0.0,0.0,0.051050714249796236,0.0,0.0,0.0,0.38020135879545264,0.38827414525717463,0.7788614695651422,-0.00956946426393259,0.00987928007280903,0.07250127590956884
5106,11.0,299.69174,-5225.3156,0.0,0.0,0.05106071867017037,0.0,0.0,0.0,0.40614194950808963,0.40246512834021564,0.7797583985536622,-0.005026191353321465,0.004203961593973706,0.05382026955239705
5107,11.0,300.10462,-5233.2484,0.0,0.0,0.0510707230905445,0.0,0.0,0.0,0.4055145146486666,0.40555966507312263,0.7797026799306632,-0.0034203827663154963,0.0032639684629536063,0.07138226175088073
5108,11.0,300.1704,-5226.1893,0.0,0.0,0.05108072751091863,0.0,0.0,0.0,0.4094058408627106,0.3969902948698916,0.7822349135205753,0.008029859107985393,0.011232581567319488,0.05566249704946075
5109,11.0,300.10097,-5201.6683,0.0,0.0,0.051090731931292765,0.0,0.0,0.0,0.38827127775939163,0.4069616891039916,0.7859443208116652,0.00931818675043343,0.011255550933836388,0.07673985205213373
5110,11.0,299.96551,-5161.3531,0.0,0.0,0.0511007363516669,0.0,0.0,0.0,0.38708091154191165,0.39221098666571064,0.7896305753379702,0.001913879275235178,0.0025190646823373274,0.07868734711533652
5111,11.0,299.82966,-5240.6731,0.0,0.0,0.05111074077204103,0.0,0.0,0.0,0.4135565793673566,0.4027116622220466,0.7767655212032883,0.006158371582483954,-0.01007544620409412,0.0914307342310109
5112,11.0,299.68589,-5326.6238,0.0,0.0,0.05112071228313786,0.0,0.0,0.0,0.4163690070074216,0.4109512499152306,0.7918403623485593,0.008891500040572731,-0.01235041022339059,0.08007921230070292
5113,11.0,300.01308,-5063.2683,0.0,0.0,0.05113071670351199,0.0,0.0,0.0,0.39136871238758464,0.3847685126936956,0.7629699083092673,-0.002027558033104398,0.008427814401985522,0.07217256744462784
5114,11.0,299.5332,-5029.1058,0.0,0.0,0.051140721123886124,0.0,0.0,0.0,0.3757983716784116,0.3944477767914646,0.7584764379582963,-0.0073484098109065825,0.0032842802771082267,0.06028067518298944
5115,11.0,299.53743,-5236.8196,0.0,0.0,0.051150725544260034,0.0,0.0,0.0,0.38604106362678664,0.39971939282173263,0.8061019385660672,-0.012431932273436188,0.004427667559001766,0.06877149317221794
5116,11.0,299.76589,-5291.9472,0.0,0.0,0.05116072996463439,0.0,0.0,0.0,0.39976933591916164,0.4139292324891346,0.7949212303376173,0.008781740128790272,0.004887680165976476,0.05516475921608785
5117,11.0,300.21365,-5173.1869,0.0,0.0,0.05117073438500852,0.0,0.0,0.0,0.3833193927981786,0.4029526333608286,0.7862476169640982,0.009612270736932261,0.0036634631878306664,0.08463153525723223
5118,11.0,299.28878,-5216.9954,0.0,0.0,0.05118073880538265,0.0,0.0,0.0,0.4024036645891496,0.39882240303820665,0.7846102655975042,0.01095595415751849,-0.014748875548350686,0.07047210174255493
5119,11.0,300.03706,-5239.5618,0.0,0.0,0.051190743225756785,0.0,0.0,0.0,0.4174987910014226,0.39898771479202166,0.7762094596809092,-0.0026814968806931376,-0.02038488772533178,0.08397820780475382
5120,11.0,300.43609,-5264.125,0.0,0.0,0.051200714736853614,0.0,0.0,0.0,0.4204430931420026,0.3893684249676716,0.7903510265565733,0.019311730226419382,-0.006358682514628104,0.06571882899969343
5121,11.0,300.38204,-5264.0638,0.0,0.0,0.051210719157227746,0.0,0.0,0.0,0.4113021586898626,0.40363784374095363,0.7852039592285973,0.004541984157808936,-0.002231349074042008,0.08488188706544
5122,11.0,299.95605,-5146.2314,0.0,0.0,0.05122072357760166,0.0,0.0,0.0,0.40404474471611157,0.38596842372711765,0.7743126858912123,-0.0017854797159381284,-0.004686055352427655,0.07217206385932813
5123,11.0,300.02569,-5011.0634,0.0,0.0,0.05123072799797579,0.0,0.0,0.0,0.37149910084160664,0.3868821625347966,0.7648568839704972,-0.028344089864093876,0.0012015700278107289,0.08500463116930392
5124,11.0,300.06455,-5178.3308,0.0,0.0,0.05124073241834992,0.0,0.0,0.0,0.3989149735673426,0.39349048849448764,0.7816777880855912,-0.023197707493185477,-0.0025943199831644473,0.06702341079494563
5125,11.0,300.23152999999996,-5360.5273,0.0,0.0,0.051250736838724276,0.0,0.0,0.0,0.4226297476528086,0.41409776637826756,0.7927389226697403,-0.0031216419836820773,0.016432864790547487,0.051820710659305956
5126,11.0,299.49655,-5246.2472,0.0,0.0,0.05126074125909841,0.0,0.0,0.0,0.3954462841025096,0.4143303984687266,0.7849514674361783,0.005728427577526785,-0.0065339250313481935,0.06738491613912342
5127,11.0,300.32625,-5091.5678,0.0,0.0,0.051270712770195015,0.0,0.0,0.0,0.36656687293233364,0.4028318539489086,0.7783107478707902,0.015365375412694487,-0.008610751641290023,0.06284480385954924
5128,11.0,300.92112000000003,-5207.443,0.0,0.0,0.05128071719056915,0.0,0.0,0.0,0.4056173899313196,0.4044626698523576,0.7728525823646112,0.005110501867642265,-0.015495243678011486,0.08438277931793192
5129,11.0,300.87281,-5283.2175,0.0,0.0,0.05129072161094328,0.0,0.0,0.0,0.3988054716290356,0.4058240726867176,0.8013366334782682,0.013323172875894788,0.00012391263454172488,0.07173524971471794
5130,11.0,299.91452000000004,-5219.2849,0.0,0.0,0.05130072603131741,0.0,0.0,0.0,0.41793275588675155,0.4198296715314626,0.7487698465053303,0.009898941988349511,-0.011683013793273689,0.09715364071006781
5131,11.0,300.42614,-5125.3356,0.0,0.0,0.051310730451691544,0.0,0.0,0.0,0.39968762743109765,0.38691964265599565,0.7713667828154742,-0.012012681806059388,0.013628509714029185,0.06980907444686922
5132,11.0,300.14725,-5016.0757,0.0,0.0,0.0513207348720659,0.0,0.0,0.0,0.38395641300354766,0.37982668930597563,0.7609786692127473,-0.003117697907667827,0.009277287720747011,0.07695540175915684
5133,11.0,299.68326,-5064.395,0.0,0.0,0.05133073929244003,0.0,0.0,0.0,0.36791362417024764,0.3784182716669756,0.7931177059546233,-0.013274016060543386,0.01966787243781788,0.062108730350904445
5134,11.0,299.2938,-5316.1334,0.0,0.0,0.051340743712814385,0.0,0.0,0.0,0.3998358760532286,0.41879874021721764,0.7973371934785543,0.0026115621561411174,0.0024543183049223574,0.07479001942095022
5135,11.0,299.78277,-5400.8983,0.0,0.0,0.05135071522391077,0.0,0.0,0.0,0.4057597110403656,0.42766933954267755,0.8083091519214022,-0.009780725491232451,-0.01027152397997049,0.07340891191189552
5136,11.0,299.82953,-5209.4853,0.0,0.0,0.0513607196442849,0.0,0.0,0.0,0.4012262274429456,0.4051583065760116,0.7771688960680982,0.0040967617598939065,-0.0043063689577305265,0.07164706858501514
5137,11.0,300.42255,-5206.6613,0.0,0.0,0.051370724064659035,0.0,0.0,0.0,0.4096048026523466,0.4033585210858866,0.7697316909966032,-0.0100895838800894,0.016203425451153587,0.06027675086535214
5138,11.0,299.48621,-5359.7554,0.0,0.0,0.05138072848503317,0.0,0.0,0.0,0.42522114491605956,0.4044615147472436,0.7995491589768583,0.002718999090744317,0.0007612175429238223,0.07079999352791533
5139,11.0,299.88153,-5298.0380000000005,0.0,0.0,0.05139073290540752,0.0,0.0,0.0,0.4073065994380316,0.3968063899767416,0.8063582604438642,-0.0010842981837618987,-0.0014808482011983387,0.06329209399694334
5140,11.0,299.86958,-5047.5859,0.0,0.0,0.051400737325781654,0.0,0.0,0.0,0.38602225770493065,0.3759637543597336,0.7723540531829103,0.0043352925871350655,-0.015084385961212985,0.07977571552475013
5141,11.0,299.95502999999997,-5143.36,0.0,0.0,0.051410741746155786,0.0,0.0,0.0,0.3944153730532666,0.38264657446677663,0.7863910627807552,-0.01017397433984309,0.004082005900012616,0.06475302940187644
5142,11.0,299.35427000000004,-5296.388000000001,0.0,0.0,0.05142074616652992,0.0,0.0,0.0,0.41855938014609456,0.4121840814444016,0.7792262497336433,-0.010328387575582491,-0.013459512769600487,0.08451209130894402
5143,11.0,300.26639,-5244.1433,0.0,0.0,0.051430717677626525,0.0,0.0,0.0,0.4119000775738726,0.4017971736092936,0.7803913657586312,0.0005432197425991144,0.00956823417831119,0.07221837141539834
5144,11.0,299.94811,-5222.4473,0.0,0.0,0.05144072209800066,0.0,0.0,0.0,0.39659677892855466,0.4074477147794586,0.7834490911154053,0.011659933982495888,0.005939054915564085,0.08115057128068782
5145,11.0,300.61886,-5100.8861,0.0,0.0,0.05145072651837479,0.0,0.0,0.0,0.37155040169416964,0.38514614087346466,0.7938454728389482,0.008829637068967331,0.01955725896415118,0.06893487063159204
5146,11.0,300.07063,-5153.7995,0.0,0.0,0.05146073093874892,0.0,0.0,0.0,0.36784951583642067,0.41604524320296865,0.7827315985870943,-0.008707353588598891,-0.007852333434814973,0.09159106788708461
5147,11.0,300.01063,-5328.8273,0.0,0.0,0.051470735359123276,0.0,0.0,0.0,0.39900302500103263,0.42038341271111257,0.8004439905376712,-0.00947812219921783,0.004101779475714116,0.07976402261859612
5148,11.0,299.99078,-5303.4293,0.0,0.0,0.05148073977949741,0.0,0.0,0.0,0.4164503000629446,0.4052148357990906,0.7904449447083423,0.007555226821942833,0.0002959629169542657,0.05983829728208015
5149,11.0,299.68841000000003,-5076.3962,0.0,0.0,0.05149074419987154,0.0,0.0,0.0,0.4021816513597386,0.3848419733259456,0.7560740523686993,-0.001934289171999478,0.004220199636101276,0.06179725423041414
5150,11.0,299.54156,-5097.089,0.0,0.0,0.05150074862024567,0.0,0.0,0.0,0.38142092688081464,0.39178916051657964,0.7761777145552762,-0.001992503429994778,-0.009938471711850791,0.06466531132746935
5151,11.0,299.83297999999996,-5284.7755,0.0,0.0,0.05151072013134228,0.0,0.0,0.0,0.39795987389058163,0.40572060971900664,0.8027592974136742,-0.01853808844381688,-0.014089374363012986,0.07455561718256652
5152,11.0,300.06031,-5334.8395,0.0,0.0,0.05152072455171641,0.0,0.0,0.0,0.4073800195402776,0.4137555614219946,0.8005224160954112,0.005727908590825564,-0.013661641979049089,0.07607031665105572
5153,11.0,300.87816000000004,-5214.3717,0.0,0.0,0.051530728972090545,0.0,0.0,0.0,0.40233150091702763,0.3992410779795266,0.7834662353070972,0.004145711365599856,0.0009566220647712471,0.07966248887907552
5154,11.0,300.46837999999997,-5192.7178,0.0,0.0,0.05154073339246468,0.0,0.0,0.0,0.4163088706139866,0.3945312787322056,0.7676163996903402,0.0015361776348339286,-0.015591077885719585,0.07595762601468403
5155,11.0,300.95356,-5224.6083,0.0,0.0,0.05155073781283881,0.0,0.0,0.0,0.4047716402053506,0.4019568820900556,0.7814219525678423,-0.008159912291445642,-0.0025833947152862076,0.06395511014687795
5156,11.0,301.36967000000004,-5209.3643,0.0,0.0,0.051560742233213164,0.0,0.0,0.0,0.3885453517789406,0.4016420348864826,0.7933292624430023,-0.005967204928517275,0.005606107822804765,0.06858583231664464
5157,11.0,301.08976,-5329.8961,0.0,0.0,0.051570746653587296,0.0,0.0,0.0,0.40103312223888765,0.4050006448604516,0.8141215699275433,0.00862730976912418,0.005351891580040575,0.057084830665334145
5158,11.0,300.17315,-5276.6262,0.0,0.0,0.0515807181646839,0.0,0.0,0.0,0.4011167457696406,0.40588312490254563,0.7969627266390973,-0.003524407175906906,-0.007934820301605793,0.07451343862065384
5159,11.0,300.40427,-5108.0889,0.0,0.0,0.051590722585058035,0.0,0.0,0.0,0.38848585373306865,0.3988591738843356,0.7653864591352623,-0.009262589008171361,-0.0007987466952951612,0.07487099836894223
5160,11.0,299.64367999999996,-5261.1414,0.0,0.0,0.05160072700543217,0.0,0.0,0.0,0.42173148117415654,0.41144932313438665,0.7660748004581963,-0.002127875771179988,-0.0011579685587825989,0.07759491557302192
5161,11.0,299.41397,-5353.5248,0.0,0.0,0.0516107314258063,0.0,0.0,0.0,0.41757203885115163,0.4141229760407556,0.7956428467938352,0.0017871167227996882,0.006432856373623494,0.06914562158614153
5162,11.0,299.86486,-5181.6289,0.0,0.0,0.05162073584618043,0.0,0.0,0.0,0.38076116934320164,0.4094582360253816,0.7848664050902833,0.01170143265359149,-0.006241023507716064,0.08304147328605532
5163,11.0,300.12523,-5029.5958,0.0,0.0,0.051630740266554564,0.0,0.0,0.0,0.3603551127967807,0.39232208953917563,0.7761943115919142,0.00096370886769316,-0.0018575983997556884,0.08837201082288842
5164,11.0,300.24542,-5023.8640000000005,0.0,0.0,0.0516407446869287,0.0,0.0,0.0,0.36416939147322064,0.39242688999701864,0.7705329286456792,-0.0032924496060394767,0.002589117855826038,0.08774147541815942
5165,11.0,300.38259,-5106.6786,0.0,0.0,0.05165074910730305,0.0,0.0,0.0,0.38792176726989763,0.39871024638463765,0.7656707771133223,-0.010928588298817689,-0.0025956522043959276,0.08003762041059811
5166,11.0,300.49477,-5265.4661,0.0,0.0,0.05166072061839966,0.0,0.0,0.0,0.42206319899189465,0.3933534869484666,0.7851535399036212,-0.002830116352360737,-0.001216732504957149,0.07204435888297463
5167,11.0,300.02574,-5268.6626,0.0,0.0,0.05167072503877379,0.0,0.0,0.0,0.3982591575726186,0.40444869713347864,0.7988340171887793,0.0010501140638131889,-0.005444483286103665,0.05660778035925294
5168,11.0,300.37191,-5099.3382,0.0,0.0,0.05168072945914792,0.0,0.0,0.0,0.36760176605446965,0.3901167000340206,0.7923530061041533,0.005763053271869074,0.010935760083025488,0.06053844600842944
5169,11.0,299.98292999999995,-5298.0448,0.0,0.0,0.051690733879522055,0.0,0.0,0.0,0.3860609739912516,0.4069861489614056,0.8174262142011862,-0.0026500315134127474,0.011481397288375689,0.05831213086220924
5170,11.0,299.33927,-5555.090999999999,0.0,0.0,0.05170073829989619,0.0,0.0,0.0,0.4417230373696696,0.42317759171687663,0.8237083141586812,-0.00016737480194610685,-0.002306464546355328,0.07159192650132302
5171,11.0,299.52857,-5381.0046,0.0,0.0,0.05171074272027032,0.0,0.0,0.0,0.4345619125529216,0.4106850995114636,0.7904440226507513,-0.0015343526700788185,0.005621583596882105,0.06911423819079424
5172,11.0,299.60283,-4952.2629,0.0,0.0,0.05172074714064445,0.0,0.0,0.0,0.38988321681347765,0.3788793511249806,0.7366016956569272,0.01021142203703889,0.006943729879967784,0.08214014881860153
5173,11.0,300.0654,-5067.3623,0.0,0.0,0.051730751561018584,0.0,0.0,0.0,0.3767651946588296,0.38093815373816864,0.7826482486338683,0.0022306352393465577,-0.0012906290374001689,0.07604104588216692
5174,11.0,299.53955,-5354.9062,0.0,0.0,0.05174072307211541,0.0,0.0,0.0,0.4106673473697116,0.40165882444063966,0.8154315908493321,-0.015474205566185183,-0.0008408152283795021,0.07247348144607572
5175,11.0,300.04265,-5337.4577,0.0,0.0,0.051750727492489546,0.0,0.0,0.0,0.40184232403374964,0.4038444859663476,0.8167670443486312,-0.00029483263646771574,-0.01091790661626349,0.07761011229802173
5176,11.0,299.78525,-5185.3065,0.0,0.0,0.051760731912863456,0.0,0.0,0.0,0.3868316621498126,0.39369712058738066,0.7956749161595003,-0.00980503234788135,-0.004037711975866147,0.06606263387787434
5177,11.0,300.54749,-5124.5031,0.0,0.0,0.05177073633323759,0.0,0.0,0.0,0.40506197688900464,0.3950448242803886,0.7576141722556973,0.005503227169926235,0.0038480858673515064,0.07190530955850152
5178,11.0,300.17406,-5270.5409,0.0,0.0,0.05178074075361194,0.0,0.0,0.0,0.40209263733845363,0.4114780589072226,0.7885421319480492,0.00026806349088330674,-0.01039117665777929,0.07198372397049042
5179,11.0,300.70694,-5327.856,0.0,0.0,0.051790745173986075,0.0,0.0,0.0,0.41590461422158964,0.40669315756248964,0.7969374156515993,0.00854153875610924,-0.016871110657548982,0.08267658875279402
5180,11.0,300.62531,-5152.8795,0.0,0.0,0.05180074959436021,0.0,0.0,0.0,0.37944794655109665,0.4115516411294846,0.7753471027858013,0.02013796678196258,-0.005078320943141255,0.07894482815124793
5181,11.0,300.67112000000003,-4789.1483,0.0,0.0,0.051810721105456814,0.0,0.0,0.0,0.34360533883870664,0.3638914772357926,0.7482846922249493,0.02017953030106458,-0.0025882413944895376,0.08869994009850252
5182,11.0,299.72137999999995,-4936.0567,0.0,0.0,0.05182072552583117,0.0,0.0,0.0,0.3711390120210687,0.38221784808446463,0.7470811334911672,-0.014338650099614587,-0.001024062086517059,0.08755109383037023
5183,11.0,300.19012000000004,-5289.3856,0.0,0.0,0.0518307299462053,0.0,0.0,0.0,0.4288596956276566,0.4010970279226946,0.7778844127587142,-0.013118521686947287,-0.002802859722020717,0.08516578657120873
5184,11.0,300.09205,-5352.1284,0.0,0.0,0.05184073436657921,0.0,0.0,0.0,0.42028568473896766,0.3952314041538026,0.8113963020610803,-0.0075436075790711035,0.010203166075224089,0.07323714879469383
5185,11.0,299.6874,-5124.3919,0.0,0.0,0.05185073878695334,0.0,0.0,0.0,0.3791070993499577,0.3916680568646276,0.7869120253196702,0.016376840166018286,0.007988908706518902,0.07406631364302602
5186,11.0,299.54185,-5128.6162,0.0,0.0,0.051860743207327475,0.0,0.0,0.0,0.37241109685911367,0.3888389815254196,0.7977211950014522,-0.001091957746567839,-0.0021715176688871076,0.05920862921943674
5187,11.0,299.85688999999996,-5357.2412,0.0,0.0,0.05187074762770183,0.0,0.0,0.0,0.4110075460907866,0.4109651517066026,0.8064948465573442,-0.003369824119450747,-0.02127156566259008,0.06254956608516153
5188,11.0,299.98302,-5411.4581,0.0,0.0,0.05188075204807596,0.0,0.0,0.0,0.42372822221871964,0.4129560159005856,0.8082639103044372,-0.0012675354464210089,-0.007960271320267612,0.06742777864485364
5189,11.0,300.7898,-5156.997,0.0,0.0,0.05189072355917257,0.0,0.0,0.0,0.4170766507447606,0.3875287275561076,0.7629929496165413,0.009104228454017392,-0.0008550788209647092,0.07564364919294693
5190,11.0,300.19681,-5001.3565,0.0,0.0,0.0519007279795467,0.0,0.0,0.0,0.3764246311677187,0.3879398335191806,0.7559230477062964,0.006038297189983535,0.0032914834720691273,0.07622162123548834
5191,11.0,300.14742,-5106.925,0.0,0.0,0.051910732399920834,0.0,0.0,0.0,0.38783602604643563,0.39771057383597763,0.7668310802003352,0.009011925321582782,-0.012907477903118887,0.08364999380586163
5192,11.0,300.91187,-5393.9533,0.0,0.0,0.051920736820294966,0.0,0.0,0.0,0.4067507304331716,0.4213983650712806,0.8114780206816452,-0.002170999695435988,-0.007100338423373842,0.06953690027125772
5193,11.0,300.56402,-5474.5952,0.0,0.0,0.0519307412406691,0.0,0.0,0.0,0.4111724120145576,0.42887804558696757,0.8240897926888302,0.006540397672986993,-0.005120799224433535,0.08098189958954122
5194,11.0,299.70887999999997,-5243.5901,0.0,0.0,0.05194074566104345,0.0,0.0,0.0,0.39738999163683864,0.4086101862216856,0.7879202699641763,0.0012402736485054788,0.0005879208007682654,0.07649224311194662
5195,11.0,300.5018,-5049.9907,0.0,0.0,0.051950750081417585,0.0,0.0,0.0,0.38467701620966566,0.3928407216028606,0.7575533367196933,-0.006259738135738054,-0.004018593871654336,0.08450875264986452
5196,11.0,299.91818,-5190.3181,0.0,0.0,0.05196075450179194,0.0,0.0,0.0,0.3944654884032126,0.40161881119419063,0.7816428208246403,-0.007636267983490972,0.013622720002957788,0.08764037433643151
5197,11.0,299.66271,-5301.3694,0.0,0.0,0.051970726012888324,0.0,0.0,0.0,0.3948076528294816,0.40091546363727565,0.8157608059393232,-0.0067555832179241534,0.007728805885973753,0.07343081635255733
5198,11.0,299.65616,-5182.0413,0.0,0.0,0.051980730433262456,0.0,0.0,0.0,0.37665528742048265,0.4098843887524396,0.7886714733233142,-0.007055880555361192,0.004990915051089965,0.09293888709060401
5199,11.0,299.73868,-5088.9872,0.0,0.0,0.05199073485363659,0.0,0.0,0.0,0.37474424706937765,0.3937445812220646,0.7784361983656714,-0.015393364420206786,-0.01176708416732079,0.06897897639519493
5200,11.0,300.01301,-5095.7674,0.0,0.0,0.05200073927401072,0.0,0.0,0.0,0.3974566229634146,0.3892266915436836,0.7623027236484213,-0.006700889700051323,0.0016489145767351985,0.0885885139982556
5201,11.0,299.97134,-5315.6726,0.0,0.0,0.052010743694385075,0.0,0.0,0.0,0.4289406543106466,0.4083619298146846,0.7785291741948472,0.006039270112729555,0.0026711903033259576,0.06456865638718023
5202,11.0,299.57431,-5446.4308,0.0,0.0,0.05202074811475921,0.0,0.0,0.0,0.41839485872735765,0.41793244177922056,0.8192516551838432,0.010678279047114091,0.013581004496340789,0.07918878229832434
5203,11.0,299.76428,-5289.9214,0.0,0.0,0.05203075253513334,0.0,0.0,0.0,0.39617099097153263,0.4093482375945256,0.8024847876965823,0.010346063723576989,-0.006900615682912743,0.05064057117508525
5204,11.0,299.63925,-5091.0457,0.0,0.0,0.05204072404622995,0.0,0.0,0.0,0.3730534163625056,0.3830821098897606,0.7914152330041022,-0.004032385320090447,0.014405407069202986,0.07201139684397152
5205,11.0,300.02251,-5226.7346,0.0,0.0,0.05205072846660408,0.0,0.0,0.0,0.4057558606899856,0.3886116791304866,0.7944292771490653,-0.010953853690061188,-0.0005947154026263404,0.05701857221479495
5206,11.0,300.12179,-5347.5104,0.0,0.0,0.05206073288697821,0.0,0.0,0.0,0.4320992791123786,0.39539557093500466,0.7980147740854262,-0.016482380296434285,0.0022303774685211177,0.07035055226055893
5207,11.0,300.26378,-5291.5747,0.0,0.0,0.052070737307352344,0.0,0.0,0.0,0.4200713012828096,0.40027048941862164,0.7881647773458073,-0.013991052626309387,-0.007356367269241924,0.07398184810143991
5208,11.0,299.96148,-5161.2482,0.0,0.0,0.052080741727726476,0.0,0.0,0.0,0.38904032445279063,0.4038217992966086,0.7760284628155463,-0.0024725470795213976,0.018496798502241882,0.08308202456830742
5209,11.0,300.59035,-5128.8342,0.0,0.0,0.05209074614810083,0.0,0.0,0.0,0.36856449550448367,0.39778714514603464,0.7926858688945042,0.006025721033717364,0.015592461985356184,0.08116060853617842
5210,11.0,299.72603,-5239.0114,0.0,0.0,0.05210075056847496,0.0,0.0,0.0,0.38083557229804466,0.4143477655754406,0.7973453197443563,-0.007832931924550193,0.0018933494096590384,0.08780268990970082
5211,11.0,300.01661,-5314.8676,0.0,0.0,0.052110754988849095,0.0,0.0,0.0,0.40128862338410365,0.42522085107353064,0.7890775535658913,0.003921050513677556,-0.017465296728190586,0.09024994322697591
5212,11.0,299.84783,-5212.9869,0.0,0.0,0.05212072649994548,0.0,0.0,0.0,0.4085229859180796,0.40555324106748863,0.7705416324640383,0.005545727844045725,-0.0019218047148673578,0.08350357410016113
5213,11.0,299.6622,-5075.9516,0.0,0.0,0.052130730920319834,0.0,0.0,0.0,0.3806789238325846,0.4014302960130856,0.7608533200428763,0.006930444144656583,0.0027380594397004273,0.08781194797586452
5214,11.0,298.73204,-5178.847,0.0,0.0,0.05214073534069397,0.0,0.0,0.0,0.3767038524977756,0.4059194499186306,0.7916168799065033,-0.006971031093312203,-0.006658741332991604,0.07759475142650572
5215,11.0,299.6759,-5404.6751,0.0,0.0,0.0521507397610681,0.0,0.0,0.0,0.40421637915055064,0.42235766973595656,0.8163122267762443,-0.013836602913566386,-0.0038358104437150164,0.06279321929695823
5216,11.0,299.64354,-5436.776999999999,0.0,0.0,0.05216074418144223,0.0,0.0,0.0,0.39696778045266967,0.42189557702785163,0.8337810840652863,0.0012898431606226087,0.01960989426709588,0.06994514380279823
5217,11.0,300.27907000000005,-5147.6119,0.0,0.0,0.052170748601816364,0.0,0.0,0.0,0.4059275052569256,0.38721669718781265,0.7716012590211153,0.01048845778663019,0.013293822060248088,0.08204885194484123
5218,11.0,299.72171000000003,-5180.4589,0.0,0.0,0.05218075302219072,0.0,0.0,0.0,0.40156444019382465,0.40155792499568166,0.7716077843517593,0.0032039672370819472,-0.010052301342659902,0.07856553216181432
5219,11.0,300.04932,-5368.7918,0.0,0.0,0.05219075744256485,0.0,0.0,0.0,0.4427417488877086,0.4013000933752356,0.7879368062058082,-0.003933964183552036,-0.012787436137271688,0.07828732509510743
5220,11.0,299.6191,-5423.5929,0.0,0.0,0.05220072895366146,0.0,0.0,0.0,0.4204099193337286,0.4170776842598626,0.8111492210241953,-0.0008003570131490872,0.013164701573504887,0.07281346839787983
5221,11.0,300.45644,-5173.6243,0.0,0.0,0.05221073337403559,0.0,0.0,0.0,0.3918671807742796,0.39317437472828964,0.7876110564311593,-0.003940677573414595,0.007969560898509424,0.07278436278875733
5222,11.0,300.09296,-5115.5072,0.0,0.0,0.05222073779440972,0.0,0.0,0.0,0.36848327337646763,0.39147294542537164,0.7950302256508742,-0.012427914736789688,0.009087029546819992,0.05658982658073104
5223,11.0,300.15136,-5245.7647,0.0,0.0,0.052230742214783854,0.0,0.0,0.0,0.4047825427764266,0.4010154815546466,0.7887834577243663,-0.013832676569428886,-0.001030669287769139,0.07323682151491152
5224,11.0,299.40103999999997,-5577.5872,0.0,0.0,0.052240746635157986,0.0,0.0,0.0,0.44913658305132953,0.42285825581536063,0.8234524077134252,0.011855991797345289,0.010669563069753888,0.06553589682663943
5225,11.0,300.59184,-5486.5044,0.0,0.0,0.05225075105553212,0.0,0.0,0.0,0.42705290857934064,0.4228879541757916,0.8178194869624992,0.02116780378609958,-0.0037568307394953266,0.08328032571887822
5226,11.0,300.06297,-5088.3733,0.0,0.0,0.05226075547590625,0.0,0.0,0.0,0.37420962591911466,0.40018241771992963,0.7723463727471522,0.01918672657483248,-0.018980371099216783,0.07649801357126614
5227,11.0,300.14515,-4975.058,0.0,0.0,0.05227072698700308,0.0,0.0,0.0,0.3501102727581937,0.3840061534509566,0.7781769887250892,0.00023276714656482873,-0.013742152805494885,0.0902539881213751
5228,11.0,300.11191,-5258.1673,0.0,0.0,0.05228073140737721,0.0,0.0,0.0,0.3923814153325306,0.40118780499915363,0.8047823424308332,-0.0035426634095836566,0.0098604545952261,0.07607648329116433
5229,11.0,300.48425,-5323.486999999999,0.0,0.0,0.052290735827751345,0.0,0.0,0.0,0.4144032511509166,0.4138838388846546,0.7899200304940373,-0.006833925587830943,0.004011587753837887,0.09636799292703041
5230,11.0,300.04613,-5045.3939,0.0,0.0,0.05230074024812548,0.0,0.0,0.0,0.37577120644323064,0.3997897123786726,0.7581128432924122,-0.013458747765774985,0.005934655991579944,0.08897551575469972
5231,11.0,300.39075,-5035.5971,0.0,0.0,0.05231074466849961,0.0,0.0,0.0,0.38208906399675463,0.4012785719431116,0.7473281638655472,-0.000993445782290465,0.006087186811283563,0.09007060403877651
5232,11.0,300.18285,-5320.9297,0.0,0.0,0.05232074908887374,0.0,0.0,0.0,0.4057065458076186,0.4050399792293336,0.8066832300159362,0.013732646493056685,0.012149997459611388,0.07647528333177282
5233,11.0,300.42094,-5502.4358,0.0,0.0,0.052330753509247874,0.0,0.0,0.0,0.4281420105818266,0.4227893852060636,0.8216717118551843,0.007014055415083373,-0.000911778746288056,0.06895226306955854
5234,11.0,300.45339,-5403.2819,0.0,0.0,0.052340757929622006,0.0,0.0,0.0,0.4182039016135116,0.4069059704809926,0.8173529156889522,0.00986654260712694,-0.010907820724768091,0.06395021614889494
5235,11.0,299.89702,-5257.7188,0.0,0.0,0.052350729440718835,0.0,0.0,0.0,0.4148631451063046,0.3924146702008126,0.7909374247869463,-0.002060125613843568,-0.003963667812883556,0.04566628832041175
5236,11.0,299.42236,-5162.916,0.0,0.0,0.05236073386109297,0.0,0.0,0.0,0.3987202167656216,0.3928111144349386,0.7778662249194191,0.013805929806539186,0.01170487871718159,0.07105137074522433
5237,11.0,299.55161,-5412.0427,0.0,0.0,0.0523707382814671,0.0,0.0,0.0,0.42856689674625964,0.4115463722289646,0.8050125832510563,-0.006537588031784704,0.0017827852812722083,0.05501842766314605
5238,11.0,299.34801,-5568.9538,0.0,0.0,0.05238074270184101,0.0,0.0,0.0,0.43060781549518257,0.4212137610355616,0.8410013320253692,-0.004884950368882065,-0.01016293295350339,0.06937525445630453
5239,11.0,299.59449,-5274.6506,0.0,0.0,0.05239074712221514,0.0,0.0,0.0,0.3884051078325996,0.4099135804878206,0.8050433961865973,-0.010219895847625188,-0.004655900016201556,0.06023527651225895
5240,11.0,299.8616,-5119.5094,0.0,0.0,0.052400751542589497,0.0,0.0,0.0,0.3801312925510376,0.39901588314480163,0.7770558376219402,0.007786470050489764,0.012685804112491386,0.08766215617383122
5241,11.0,299.75649,-5464.3848,0.0,0.0,0.05241075596296363,0.0,0.0,0.0,0.43022528318492953,0.41902309405435956,0.8117881461397523,-0.0019153391659792582,0.01247164559785559,0.07124835568391523
5242,11.0,300.3642,-5556.0095,0.0,0.0,0.05242076038333776,0.0,0.0,0.0,0.4446224018683146,0.4346633794179356,0.8096023630240322,-0.005910910982111495,0.005265629850002206,0.08618419918046823
5243,11.0,300.408,-5304.4063,0.0,0.0,0.05243073189443437,0.0,0.0,0.0,0.4023547651393236,0.42070338696019155,0.7893489019426713,-0.004276389927021826,0.005588409383308065,0.07215492878688703
5244,11.0,299.8432,-5059.6688,0.0,0.0,0.05244073631480872,0.0,0.0,0.0,0.37342826823700065,0.3860724541148846,0.7785122731831793,0.02111876856076018,0.009167870794123402,0.07093412048340264
5245,11.0,300.91089,-5139.7498,0.0,0.0,0.052450740735182855,0.0,0.0,0.0,0.36722459383724565,0.41536882783371154,0.7797621881090362,-0.0010019626560060153,0.006554113431640634,0.07995880171181932
5246,11.0,300.7851,-5383.6214,0.0,0.0,0.052460745155556765,0.0,0.0,0.0,0.4235199689256666,0.4168719843570616,0.7960945131584112,-0.008577447934353203,-0.029222464216782675,0.06554851888313515
5247,11.0,300.00866,-5578.4941,0.0,0.0,0.0524707495759309,0.0,0.0,0.0,0.44061753084806454,0.45754256667593557,0.7975628138783212,-0.01137291771941959,-0.013832641105675387,0.07875964149672142
5248,11.0,300.12453999999997,-5290.8907,0.0,0.0,0.05248075399630503,0.0,0.0,0.0,0.4003725642336956,0.4173519406644296,0.7905741644935952,0.006336430225206973,0.012823099501041386,0.08047158934892751
5249,11.0,300.15688,-5031.894,0.0,0.0,0.052490758416679384,0.0,0.0,0.0,0.36398533459255566,0.40149313778428763,0.7640916673624762,0.004372332349840606,0.012805434498797988,0.0964203060164433
5250,11.0,299.92802,-5237.4774,0.0,0.0,0.05250072992777599,0.0,0.0,0.0,0.37780596463154564,0.41611113485697154,0.7981452401683022,-0.0031658198906920967,-0.0006114203301349885,0.08709992294509311
5251,11.0,299.74071000000004,-5471.943,0.0,0.0,0.05251073434815012,0.0,0.0,0.0,0.41875715643311356,0.4153825067100616,0.8291943744401132,-0.008831058456207611,-0.016592234845776085,0.06819372276644643
5252,11.0,299.88977,-5270.3489,0.0,0.0,0.052520738768524255,0.0,0.0,0.0,0.4073524186075536,0.4025669903727686,0.7921350560076432,0.0060312810409910945,-0.001048604929114249,0.06355218313861215
5253,11.0,299.6835,-5057.2886,0.0,0.0,0.05253074318889839,0.0,0.0,0.0,0.4006417239902596,0.37716204419299565,0.7594856958529023,0.0012108368079252888,0.0072828219292835625,0.05539768514907586
5254,11.0,299.76726,-5307.9228,0.0,0.0,0.05254074760927252,0.0,0.0,0.0,0.40202675581695163,0.4084975330755676,0.8029516933426623,0.006194025117727683,-0.002427313771207218,0.06088332189196603
5255,11.0,299.46861,-5604.0008,0.0,0.0,0.05255075202964665,0.0,0.0,0.0,0.4443046365044535,0.43436390321837953,0.8248077817096903,-0.011232530904814488,0.023566138401796773,0.06250932789719034
5256,11.0,299.91667,-5726.5452,0.0,0.0,0.05256075645002101,0.0,0.0,0.0,0.43499421570808655,0.4487677093524246,0.8569648137733422,0.005424528034659235,0.01022953489582649,0.07728187195462694
5257,11.0,299.55031,-5445.0979,0.0,0.0,0.05257076087039514,0.0,0.0,0.0,0.43115107966879856,0.4164200038849546,0.8076027240841832,-0.004694487619759855,0.0041541684575595065,0.06700851804497583
5258,11.0,300.27738,-5033.516,0.0,0.0,0.052580732381491746,0.0,0.0,0.0,0.38290970538524566,0.39369712058738066,0.7534563511328523,-0.00938413798354231,-0.017889595207565584,0.06665954255153464
5259,11.0,299.87262000000004,-5087.4631,0.0,0.0,0.05259073680186588,0.0,0.0,0.0,0.38776915153983565,0.39182992356810264,0.7668626632059523,-0.006174761713451535,-0.007615104836602332,0.08051138575985511
5260,11.0,300.14657,-5400.6651,0.0,0.0,0.05260074122224001,0.0,0.0,0.0,0.39901863918507363,0.4175574987122166,0.8250912080276622,0.0001072567787354199,0.010471221389179091,0.07159695323506914
5261,11.0,300.92087000000004,-5306.7021,0.0,0.0,0.05261074564261414,0.0,0.0,0.0,0.38998477487100064,0.41675248164026757,0.8063676836697943,-0.0023972907654441775,0.01286532365920859,0.09066215464590802
5262,11.0,300.04578,-5004.305,0.0,0.0,0.052620750062988275,0.0,0.0,0.0,0.34339356956780664,0.38920480534152363,0.7885853774623172,0.0008903836259215222,-0.019328774106351483,0.08115520791314543
5263,11.0,299.96105,-5146.7726,0.0,0.0,0.05263075448336263,0.0,0.0,0.0,0.37717777996704865,0.4113543208050106,0.7759582648486183,-0.003258762687914837,-0.00867956257015613,0.08174940614278822
5264,11.0,299.65608,-5474.029,0.0,0.0,0.05264075890373676,0.0,0.0,0.0,0.43517227414815957,0.42316502741563655,0.8056308380645733,0.011983566064435888,0.007145178793299243,0.06537725631148283
5265,11.0,299.51937000000004,-5476.6526,0.0,0.0,0.052650763324110894,0.0,0.0,0.0,0.44356864202931656,0.42697532401918353,0.7942216622035753,0.0034941706783477968,0.009222456704835612,0.08028594977160632
5266,11.0,300.01801,-5187.3517,0.0,0.0,0.0526607348352075,0.0,0.0,0.0,0.3917317396334126,0.41273081093335956,0.7723628279287763,-0.005200987938672545,0.004592357481230396,0.08618099933665242
5267,11.0,299.66495,-5076.1182,0.0,0.0,0.05267073925558163,0.0,0.0,0.0,0.3824695495418057,0.3937365258837696,0.7668070965704683,-0.005181407387115094,0.0017120565739418283,0.07422787434497083
5268,11.0,299.8632,-5194.8118,0.0,0.0,0.052680743675955766,0.0,0.0,0.0,0.3717507820339457,0.41209463172557365,0.7952476691223342,0.0074180952759340035,0.016564637966052485,0.09672966241772442
5269,11.0,300.51014,-5417.2492,0.0,0.0,0.0526907480963299,0.0,0.0,0.0,0.4328038932319186,0.4108376443140186,0.8030669606740383,-0.014472103243785386,0.010608801501007188,0.05702374080355504
5270,11.0,300.25057999999996,-5361.085,0.0,0.0,0.05270075251670403,0.0,0.0,0.0,0.4231640952255446,0.4060835255073236,0.8003883631071813,-0.007337089780789383,-0.019121539129648982,0.07885541288292333
5271,11.0,300.04276,-5059.7915,0.0,0.0,0.052710756937078385,0.0,0.0,0.0,0.39128158301148563,0.3683264425259897,0.7784422474687683,-0.007288334516452613,-0.014910134301765686,0.050048987130700454
5272,11.0,300.1519,-5129.6991,0.0,0.0,0.05272076135745252,0.0,0.0,0.0,0.38635676196044366,0.38705358418671465,0.7858901017988142,0.02228608637821548,0.0027006015086786174,0.08561287304533273
5273,11.0,299.54387,-5550.5309,0.0,0.0,0.05273076577782665,0.0,0.0,0.0,0.4294560845040156,0.4170767925997746,0.8406899096071342,0.01113642717257979,0.00944604898320245,0.056835190158696536
5274,11.0,299.64429,-5548.128000000001,0.0,0.0,0.052740737288923034,0.0,0.0,0.0,0.42189134164243364,0.43402684557261456,0.8305741778962893,0.001239169003246459,-0.004599386397174095,0.07902777685743433
5275,11.0,298.88572,-5184.8171,0.0,0.0,0.05275074170929739,0.0,0.0,0.0,0.40722645135512164,0.3900451037819546,0.7787833885124362,-0.0051940509245129145,-0.007131237991798394,0.059800142336314546
5276,11.0,299.14042,-5060.5321,0.0,0.0,0.05276074612967152,0.0,0.0,0.0,0.3866684376912036,0.3944710207487586,0.7571359486060002,0.012909064652775488,0.014918378104579287,0.07091093022836394
5277,11.0,299.84644,-5258.6411,0.0,0.0,0.05277075055004565,0.0,0.0,0.0,0.40144583926961963,0.40639163459773164,0.7906581021318793,0.00035276096541729665,0.028729887879419172,0.07906027989414213
5278,11.0,300.29419,-5423.4925,0.0,0.0,0.052780754970419785,0.0,0.0,0.0,0.4201360074341956,0.4102777628387626,0.8181925352518162,-0.01012607061089036,-0.0027057966445913377,0.07901951278961872
5279,11.0,299.8482,-5374.236,0.0,0.0,0.05279075939079392,0.0,0.0,0.0,0.3992169119646416,0.4117410277056756,0.8226755995242602,-0.01054624951933379,-0.0023893860974390476,0.1016944612514619
5280,11.0,299.66699,-5035.8875,0.0,0.0,0.05280076381116827,0.0,0.0,0.0,0.37790097709342263,0.3762931822322456,0.7765898945634552,0.0097827545245577,0.008058499533986982,0.09156790802954891
5281,11.0,299.86721,-5006.398,0.0,0.0,0.05281073532226466,0.0,0.0,0.0,0.37932761296922063,0.39171850658710666,0.7507738829506132,0.012323955276529687,-0.012510154167906089,0.08962875201466912
5282,11.0,299.92322,-5290.795,0.0,0.0,0.05282073974263901,0.0,0.0,0.0,0.4246017147324266,0.4052249379025876,0.7784429263463353,-0.006967465871510344,-0.016084690777935385,0.07663590373762483
5283,11.0,300.21119,-5546.7231,0.0,0.0,0.052830744163013144,0.0,0.0,0.0,0.44100369059367556,0.4274657066700806,0.8175959335929363,-0.0013309496026044987,-0.014754739226679386,0.06806341576383614
5284,11.0,300.4977,-5313.6046,0.0,0.0,0.052840748583387276,0.0,0.0,0.0,0.3845041760076076,0.4307486065965776,0.7999503350889512,0.004816754888126695,0.010080292376672401,0.07718890321820163
5285,11.0,300.70591,-5121.8388,0.0,0.0,0.05285075300376141,0.0,0.0,0.0,0.36621266096237565,0.4071982120748346,0.7835002399804533,0.006742635502846313,-0.00030831542865836367,0.07742947007019373
5286,11.0,300.21142000000003,-5393.9528,0.0,0.0,0.05286075742413554,0.0,0.0,0.0,0.40443044849917764,0.42004134960985356,0.8151551762220521,-0.014873035162604286,-0.01010444988025656,0.07541338000172113
5287,11.0,300.43419,-5508.4401,0.0,0.0,0.05287076184450967,0.0,0.0,0.0,0.4591915602861786,0.4050948872522526,0.8101417971122702,-0.0064320301694919535,-0.008601493372476303,0.05527579420179615
5288,11.0,299.78992999999997,-5327.4004,0.0,0.0,0.052880766264883805,0.0,0.0,0.0,0.4098285890694326,0.41082686333295465,0.7987412440096233,0.014644769166826187,0.009384129776216502,0.07625308771734383
5289,11.0,299.60174,-5146.2578,0.0,0.0,0.052890737775980634,0.0,0.0,0.0,0.4025794533489986,0.3859966832724066,0.7757577426538282,0.016486778815118383,0.003779426926000397,0.06265349210816823
5290,11.0,299.72127,-5218.6564,0.0,0.0,0.052900742196354766,0.0,0.0,0.0,0.38176837034010463,0.3974032449481466,0.8071696407264412,-0.0004152338730528926,-0.011633149729352489,0.08157288176336663
5291,11.0,299.55645,-5383.2791,0.0,0.0,0.0529107466167289,0.0,0.0,0.0,0.4129200353895346,0.4045342255744196,0.8189281750894182,0.005491817669825204,-0.018388510437554684,0.08189173130483463
5292,11.0,299.90147,-5504.3309,0.0,0.0,0.05292075103710303,0.0,0.0,0.0,0.4220929277498286,0.4293508078186256,0.8217354148889713,-0.003385537905976577,0.008387783423659773,0.08176817457439052
5293,11.0,300.42314,-5219.5722,0.0,0.0,0.05293075545747716,0.0,0.0,0.0,0.4166961753322106,0.3960134812434876,0.7739099797714682,0.007737031146310523,0.0018593242686510182,0.07771654510177584
5294,11.0,300.26589,-5051.5232,0.0,0.0,0.052940759877851296,0.0,0.0,0.0,0.3739655947650306,0.4017248376846546,0.7598464939485102,-0.016562620585103386,-0.008148823890301303,0.07768052000772042
5295,11.0,300.27682000000004,-5276.1451,0.0,0.0,0.05295076429822543,0.0,0.0,0.0,0.39537985542595366,0.4179602048319606,0.7904763047989373,0.002110782647293028,-0.004751019071989076,0.08021201797805982
5296,11.0,299.87833,-5458.847,0.0,0.0,0.05296076871859956,0.0,0.0,0.0,0.4029268765432866,0.42004275802749264,0.8363835358871282,0.002020577955815518,0.015081522516430386,0.06606138656700124
5297,11.0,299.92748,-5312.9138,0.0,0.0,0.05297074022969639,0.0,0.0,0.0,0.39159623769753965,0.42705402315445057,0.7963428607579213,0.007276589529243473,0.004525345273941806,0.0994201302095029
5298,11.0,300.11397,-5067.3249,0.0,0.0,0.05298074465007052,0.0,0.0,0.0,0.37359387383334464,0.3906829548524056,0.7760634098114952,-0.013221234849584287,-0.017858965670292683,0.07654837818073672
5299,11.0,299.82795,-5191.5603,0.0,0.0,0.052990749070444654,0.0,0.0,0.0,0.4132713899942106,0.3998044956976316,0.7650288122474653,-0.007429053170465463,-0.014312873017070587,0.0899355641449491
5300,11.0,299.59873999999996,-5365.7892,0.0,0.0,0.053000753490818564,0.0,0.0,0.0,0.40742188703440957,0.4098122858753236,0.8138317500014403,-0.004466200953679715,0.016206070033914586,0.07667392797412753
5301,11.0,299.39612999999997,-5365.6152,0.0,0.0,0.053010757911192696,0.0,0.0,0.0,0.4141050617789876,0.4184998111727156,0.7984081785692523,0.004215728974010056,0.008684017020245752,0.07934918789515513
5302,11.0,299.19322,-5271.0814,0.0,0.0,0.05302076233156705,0.0,0.0,0.0,0.3725168092420466,0.41104791397477064,0.8187124136131242,-0.0025550200647858476,0.013060858637006385,0.07345965345040334
5303,11.0,299.19786,-5178.7142,0.0,0.0,0.05303076675194118,0.0,0.0,0.0,0.3876709372076426,0.3948233987360356,0.7917054683627462,-0.003220871896450307,-0.01009218104274572,0.07386190360760234
5304,11.0,299.55528,-5272.9321,0.0,0.0,0.05304073826303779,0.0,0.0,0.0,0.40302898175586366,0.41963690069993764,0.7801738209621613,0.0005498713444705765,0.03143995699438217,0.08376079270429662
5305,11.0,298.9519,-5559.826,0.0,0.0,0.05305074268341192,0.0,0.0,0.0,0.4617579606694625,0.4158309712043216,0.8124593534034952,-0.002169229344861268,0.003644287429688166,0.05955420829854274
5306,11.0,299.73537000000005,-5489.4386,0.0,0.0,0.05306074710378628,0.0,0.0,0.0,0.41986585469253357,0.42930957867205666,0.8194768398860671,0.0008019037495592382,-0.005320810437198105,0.07607198750047063
5307,11.0,300.35847,-5132.0984,0.0,0.0,0.05307075152416041,0.0,0.0,0.0,0.38950783804893063,0.38446667562140663,0.7860552514326132,-0.006002421854292915,-0.014533608538105487,0.057142884829813646
5308,11.0,300.05928,-5274.5683,0.0,0.0,0.05308075594453432,0.0,0.0,0.0,0.38037216236480964,0.4071644201839996,0.8158004645482372,0.003394971163082567,0.013599046427621385,0.08397787140572062
5309,11.0,300.08142999999995,-5459.9021,0.0,0.0,0.05309076036490845,0.0,0.0,0.0,0.4224110274862226,0.4146840328861276,0.8225788442722112,0.007560256595439232,0.002071104077352058,0.06300171577003523
5310,11.0,300.09376000000003,-5311.5324,0.0,0.0,0.053100764785282584,0.0,0.0,0.0,0.4185019389979256,0.41373706960766965,0.7823342018978743,-0.016888057265471483,-0.006705608405767023,0.09047428287861652
5311,11.0,299.7032,-5192.6727,0.0,0.0,0.05311076920565694,0.0,0.0,0.0,0.4150805480477606,0.3972539425459116,0.7661083390365063,0.006944044696773854,-0.006981383874883942,0.07912101511838622
5312,11.0,299.89122000000003,-5189.5335,0.0,0.0,0.053120740716753545,0.0,0.0,0.0,0.3931677784701386,0.4011806109234436,0.7831402119549212,0.014716064483612488,0.015594514830058784,0.08647522791394051
5313,11.0,299.09922,-5258.0483,0.0,0.0,0.05313074513712768,0.0,0.0,0.0,0.3938234931398526,0.41552086601121657,0.7889710407153793,0.021476203679286276,0.008790661086645701,0.08432659054688652
5314,11.0,298.94032000000004,-5319.7369,0.0,0.0,0.05314074955750181,0.0,0.0,0.0,0.38059731666953067,0.4171238985969236,0.8193459583706502,-0.011555343267423591,-0.016306725285598487,0.09104016178121441
5315,11.0,299.51948,-5323.4154,0.0,0.0,0.05315075397787594,0.0,0.0,0.0,0.40067141221818964,0.41859455005706564,0.7989193936422052,-0.010070887693219231,-0.003422573514356707,0.08344011728614842
5316,11.0,300.16805,-5113.6372,0.0,0.0,0.053160758398250074,0.0,0.0,0.0,0.39246648781092663,0.3860637604290266,0.7758877730391612,-0.013617159286408985,0.018233947240800484,0.08090348112455192
5317,11.0,300.06714,-5183.2107,0.0,0.0,0.053170762818624207,0.0,0.0,0.0,0.3934435446173546,0.4119074844321036,0.7702155989793613,0.002846965485623617,0.019910015906965582,0.09864723316572391
5318,11.0,300.3747,-5309.115,0.0,0.0,0.05318076723899856,0.0,0.0,0.0,0.4082076118244546,0.40358864031609765,0.8020421291253953,-0.01951392833687478,0.003827234700168656,0.08072438005012601
5319,11.0,299.80706000000004,-5373.1046,0.0,0.0,0.05319077165937269,0.0,0.0,0.0,0.41761773643066163,0.4068751271479486,0.8087967481345243,0.0022016266995836383,-0.013695145093605587,0.06840050482035423
5320,11.0,300.49137,-5212.2707,0.0,0.0,0.0532007431704693,0.0,0.0,0.0,0.37967514762101967,0.3931603006844006,0.8115646839626982,0.0017523432965928182,0.007174801463947774,0.07707425599588684
5321,11.0,299.77057,-5269.2456,0.0,0.0,0.05321074759084343,0.0,0.0,0.0,0.4147903937491246,0.3859276100130897,0.8010010957076532,0.006424807418804124,-0.014044388085073186,0.06401543804458183
5322,11.0,300.17008,-5497.4962,0.0,0.0,0.053220752011217565,0.0,0.0,0.0,0.42803944940670463,0.4291756675388406,0.8138864756393412,-0.01153271739269059,-0.01829181902026198,0.07628020229001983
5323,11.0,299.64272,-5447.5272,0.0,0.0,0.0532307564315917,0.0,0.0,0.0,0.4421923849484906,0.41732355952912864,0.7963962995681952,-0.007955910798462262,-0.006415736094633854,0.07609724782546363
5324,11.0,299.78148,-5285.4669,0.0,0.0,0.05324076085196583,0.0,0.0,0.0,0.4067930640223496,0.4177149172477526,0.7821419782214033,0.012582082766004888,0.013200975927084888,0.07846486880412963
5325,11.0,300.15234,-5191.5562,0.0,0.0,0.053250765272340184,0.0,0.0,0.0,0.40153206685312964,0.39059229936595863,0.7859790955550973,0.017165966436648982,0.004006012041187606,0.07360291688204233
5326,11.0,300.15432000000004,-5183.4582,0.0,0.0,0.053260769692714316,0.0,0.0,0.0,0.36553016609251865,0.40151941135938063,0.8085922742643442,-0.010019929015215001,-0.014598043138464687,0.08443073644516491
5327,11.0,300.03911,-5253.1576,0.0,0.0,0.0532707412038107,0.0,0.0,0.0,0.39554715314996464,0.40189228739618066,0.7993892883760803,0.0004732015870338605,-0.01062079230269059,0.07890443594926151
5328,11.0,300.74447999999995,-5376.340999999999,0.0,0.0,0.053280745624185055,0.0,0.0,0.0,0.4016002889823626,0.4116973667588666,0.8209757508914982,-0.005180287036479525,0.01802468475064788,0.07314896969149123
5329,11.0,300.88832,-5206.3523,0.0,0.0,0.05329075004455919,0.0,0.0,0.0,0.40488317877635865,0.3940066684929306,0.7837112594462793,8.059245590035613e-05,0.023561335596322775,0.09469461950613133
5330,11.0,300.81487999999996,-5164.2273,0.0,0.0,0.05330075446493332,0.0,0.0,0.0,0.39844473432843364,0.39911981220755866,0.7722316120408262,-0.007713230813386612,0.0005558289409510455,0.07280156878870543
5331,11.0,300.44678999999996,-5388.7979,0.0,0.0,0.05331075888530745,0.0,0.0,0.0,0.4095583248702596,0.42238955671660355,0.8061121419945743,-0.0033068839616640366,0.0015462373844767486,0.08553000134615392
5332,11.0,299.46289,-5435.8506,0.0,0.0,0.053320763305681584,0.0,0.0,0.0,0.4138109963349656,0.4137343844949046,0.8248174683806462,0.014300143556064286,-0.011941848531318688,0.06212172629668704
5333,11.0,299.91584,-5288.3974,0.0,0.0,0.05333076772605594,0.0,0.0,0.0,0.39912885039845064,0.4150887959035746,0.7933231018823942,0.01080181044630569,-0.015727257685909483,0.09076905455795822
5334,11.0,299.74741,-5243.7786,0.0,0.0,0.05334077214643007,0.0,0.0,0.0,0.3967147415051966,0.40125391956817863,0.7960090860424802,0.006873936402479703,-0.017899906040583183,0.07480181263886414
5335,11.0,300.00254,-5335.826,0.0,0.0,0.053350743657526456,0.0,0.0,0.0,0.42256107969353157,0.4181447784701766,0.7812520203935713,0.006260107161424474,-0.012381768287485388,0.09268696474474121
5336,11.0,299.95398,-5412.2362,0.0,0.0,0.05336074807790059,0.0,0.0,0.0,0.42893337917492863,0.41079204805951863,0.8054592238951362,0.01886117134420268,0.03183953217131717,0.06144103399875794
5337,11.0,300.15502000000004,-5457.6545,0.0,0.0,0.05337075249827494,0.0,0.0,0.0,0.4208610993382566,0.4266788267749216,0.8114507642539552,-0.01088726289348919,0.009597915414815502,0.07372804718989173
5338,11.0,300.42963,-5356.7157,0.0,0.0,0.053380756918649075,0.0,0.0,0.0,0.4045762450560666,0.41463750444153563,0.8090940762438683,-0.011866362412118789,-0.004653818800496155,0.06500075689232523
5339,11.0,300.41845,-5226.9762,0.0,0.0,0.05339076133902321,0.0,0.0,0.0,0.4049633977867756,0.4006138798775116,0.7832929695399972,-0.031153013685313074,-0.008390121903565561,0.07246898160238163
5340,11.0,299.99872,-5457.9092,0.0,0.0,0.05340076575939734,0.0,0.0,0.0,0.4096858626603466,0.4312756992985976,0.8181065609808312,0.005219962870645224,0.004797084157310345,0.07422467956740553
5341,11.0,299.58149,-5553.8749,0.0,0.0,0.05341077017977147,0.0,0.0,0.0,0.4407635401874746,0.41835790549621066,0.8291178436600601,-0.006560929058438284,0.005372796246828705,0.07142465917481503
5342,11.0,299.28211,-5404.3045,0.0,0.0,0.053420774600145826,0.0,0.0,0.0,0.4110374369687366,0.42136136117762857,0.8103748345027691,0.004326625549754696,-0.007847678867830601,0.08522947845924461
5343,11.0,299.01467,-5243.5085,0.0,0.0,0.05343074611124221,0.0,0.0,0.0,0.39814009055336763,0.39828773122543865,0.7974678318139472,0.008035740518190842,-0.005401718559008115,0.06787803152554014
5344,11.0,299.64819,-5323.0826,0.0,0.0,0.053440750531616565,0.0,0.0,0.0,0.39729116935458564,0.4131160790188826,0.8076769547865092,0.012109855530399687,0.009048328459250491,0.07612015437047433
5345,11.0,300.03603,-5425.5637,0.0,0.0,0.0534507549519907,0.0,0.0,0.0,0.4123862957668586,0.43631895915382857,0.8005306436862233,0.015533338842021186,0.004048966246051856,0.07821845043281002
5346,11.0,300.07216,-5389.6154,0.0,0.0,0.05346075937236483,0.0,0.0,0.0,0.3984859938725056,0.4302716495095056,0.8095508392564472,0.001127142147015269,-0.016474010850608286,0.08602721735572533
5347,11.0,299.87003,-5251.0826,0.0,0.0,0.05347076379273896,0.0,0.0,0.0,0.4035575740680316,0.42171053729458957,0.7709298997698573,0.009986689750984542,0.0008770188165725183,0.08738790483551473
5348,11.0,300.39218,-5191.1789,0.0,0.0,0.053480768213113095,0.0,0.0,0.0,0.3910050366616926,0.4088698518248126,0.7781138733763602,0.012606967175210789,0.008582153873117641,0.06677212274364544
5349,11.0,299.86624,-5299.9839,0.0,0.0,0.05349077263348723,0.0,0.0,0.0,0.3980189666364136,0.4091618806361336,0.8038819075969672,0.003903788379673916,0.014858026902123088,0.07775952109151722
5350,11.0,299.83156,-5473.6847,0.0,0.0,0.053500744144583834,0.0,0.0,0.0,0.4247929150262966,0.41999257175003957,0.8190779841167032,-0.017463214499235085,-0.005092444332310125,0.05964853985635254
5351,11.0,299.50599,-5520.1128,0.0,0.0,0.05351074856495819,0.0,0.0,0.0,0.4273146108151685,0.42560815579175465,0.8250536975089602,-0.019821531815482882,0.0011380327617400887,0.07587451316198143
5352,11.0,299.40442,-5273.1283,0.0,0.0,0.05352075298533232,0.0,0.0,0.0,0.4048359815867006,0.3911166056302036,0.8069467459694433,0.0018272801329135085,0.011215524515136091,0.06479686564095273
5353,11.0,300.25207,-5425.1739,0.0,0.0,0.05353075740570645,0.0,0.0,0.0,0.41631631800222163,0.4284509708023186,0.8043501203356762,0.006772370846905963,0.004418660778862866,0.07141207562182314
5354,11.0,300.89146,-5577.7939,0.0,0.0,0.053540761826080585,0.0,0.0,0.0,0.4387265832464426,0.4061252106164376,0.8506582843559362,0.005831588090082934,-0.009912996172536551,0.058318154634053744
5355,11.0,300.16848,-5431.901,0.0,0.0,0.05355076624645472,0.0,0.0,0.0,0.41802574184842856,0.42313003988968356,0.8100064978264173,0.0028183610300005772,-0.011446210152152988,0.06588337068343243
5356,11.0,300.13617999999997,-5170.446,0.0,0.0,0.05356077066682885,0.0,0.0,0.0,0.3900095893659496,0.3961919449836006,0.7854849537463293,0.005114685374655145,0.008119833487715174,0.07300265435055103
5357,11.0,299.8483,-5238.8022,0.0,0.0,0.05357077508720298,0.0,0.0,0.0,0.4006322095718206,0.40523722862630057,0.7865955974459412,-0.005925477262899074,0.0034621360671612264,0.07292093066373552
5358,11.0,299.89501,-5402.4486,0.0,0.0,0.05358074659829959,0.0,0.0,0.0,0.4079144380405206,0.44312549709808163,0.7911695502523552,-0.0003765165937467946,-0.01115530098219249,0.10479009229447689
5359,11.0,299.78286,-5458.0684,0.0,0.0,0.05359075101867394,0.0,0.0,0.0,0.4300760213126986,0.4192688072036096,0.8097716771157423,-0.004377056223131816,-0.011789949169077388,0.07719340306189572
5360,11.0,299.66745,-5401.7638,0.0,0.0,0.053600755439048076,0.0,0.0,0.0,0.4071692432544756,0.4212200634511836,0.8136119963197522,0.01099624199474459,0.007155835752551003,0.09204805584118582
5361,11.0,300.05217000000005,-5158.6482,0.0,0.0,0.05361075985942221,0.0,0.0,0.0,0.3846294238524686,0.39499951173591663,0.7884712956335582,-0.004859592163929405,0.007582157591050692,0.06822903959868193
5362,11.0,300.45036,-5270.8722,0.0,0.0,0.05362076427979612,0.0,0.0,0.0,0.38628899579375564,0.4053489394498256,0.8105755998775832,-0.0030905624620397674,-0.006188810730063064,0.08428129826741652
5363,11.0,300.23143999999996,-5504.0928,0.0,0.0,0.05363076870017025,0.0,0.0,0.0,0.42371739057515057,0.42417974672828157,0.8252096265668493,-0.01039651851230649,0.0022598742935072283,0.07059546595548002
5364,11.0,300.00243,-5456.6922,0.0,0.0,0.053640773120544605,0.0,0.0,0.0,0.42955480546125857,0.4216145825101196,0.8075288074893883,0.01048953183173619,0.012563548395175688,0.07856979997123552
5365,11.0,299.90257,-5163.7053,0.0,0.0,0.05365077754091874,0.0,0.0,0.0,0.39114297039780566,0.39274098739551766,0.7857535258178352,-0.004268969187264457,0.007178056935194062,0.08051925668663192
5366,11.0,299.52299999999997,-5187.8901,0.0,0.0,0.053660749052015344,0.0,0.0,0.0,0.3908370499276136,0.41245744618888064,0.7736945526677073,0.009422185119497271,-0.007890319471788903,0.07704287361378963
5367,11.0,299.50993,-5505.4559,0.0,0.0,0.053670753472389476,0.0,0.0,0.0,0.4234230616861026,0.42504819325649057,0.8250498775560832,0.0012477634919196689,-0.017288542340996284,0.07518155445834174
5368,11.0,299.50146,-5546.1822,0.0,0.0,0.05368075789276383,0.0,0.0,0.0,0.4362852685880036,0.4277215320553286,0.8218941202521342,0.014757485134450386,0.0035251047986007565,0.06167919640826274
5369,11.0,299.5448,-5314.4839,0.0,0.0,0.05369076231313774,0.0,0.0,0.0,0.4080459579035006,0.4160640085948206,0.7913604465711952,-0.016408300568373186,0.009684073692018662,0.0913852970567766
5370,11.0,299.89817,-5238.4694,0.0,0.0,0.05370076673351187,0.0,0.0,0.0,0.41692513945730764,0.38030393010307567,0.7951348133261963,-0.009167967458182942,-0.004479891077105826,0.06742351590168294
5371,11.0,300.47385,-5404.4621,0.0,0.0,0.053710771153886006,0.0,0.0,0.0,0.42420497665577156,0.41680099605505566,0.8018155562705342,-0.026540214896565276,-0.0015372819761179186,0.07324910109287343
5372,11.0,300.59254,-5481.2075,0.0,0.0,0.05372077557426014,0.0,0.0,0.0,0.43001010939369355,0.4007575688741926,0.8353825359808372,0.004269020356394506,0.01114041228522309,0.06970053509615723
5373,11.0,300.27275,-5500.4435,0.0,0.0,0.05373077999463449,0.0,0.0,0.0,0.42620293360045464,0.41055216109834364,0.8352424034920073,0.006161819267274214,0.0007144164631274153,0.05306620882797705
5374,11.0,300.52596,-5300.0775,0.0,0.0,0.0537407515057311,0.0,0.0,0.0,0.3952586403164906,0.4133922605986396,0.8024403060171922,-0.0049330637392804855,-0.0024908401955017877,0.07875227010224392
5375,11.0,299.47215,-5280.2614,0.0,0.0,0.05375075592610523,0.0,0.0,0.0,0.40374886555441064,0.4045470026581806,0.7967717593927502,-0.003569052799163087,-0.007492677576044702,0.07012361767541224
5376,11.0,299.86928,-5447.5559,0.0,0.0,0.053760760346479364,0.0,0.0,0.0,0.4193537986219976,0.43567634580790754,0.8008908338317713,0.012069751091441688,0.017692329598596984,0.0995402560751084
5377,11.0,300.04467999999997,-5392.7898,0.0,0.0,0.053770764766853496,0.0,0.0,0.0,0.4192135952056606,0.4195447760008456,0.8005150700321862,0.011561068130488591,0.016471127140823685,0.07824881652505693
5378,11.0,300.11291,-5160.7317,0.0,0.0,0.05378076918722763,0.0,0.0,0.0,0.37525444889223064,0.41644994542540964,0.7770291790118092,0.0045390950777988055,-0.004763600801130796,0.1070557296505779
5379,11.0,300.05905,-5081.3791,0.0,0.0,0.05379077360760176,0.0,0.0,0.0,0.36689240992446165,0.39427743931715364,0.7834425151222563,-0.002224339004550168,-0.01955631157530768,0.07781390729063473
5380,11.0,300.71179,-5297.5595,0.0,0.0,0.053800778027976115,0.0,0.0,0.0,0.39212454629967963,0.4092079024556756,0.8089933389189262,0.0012731540195505188,-0.006684433505177224,0.088976258467023
5381,11.0,300.78041,-5451.8898,0.0,0.0,0.05381074953907272,0.0,0.0,0.0,0.4314788559436476,0.4050474570150716,0.8207120626854741,0.0025039998825005473,-0.007072214450948223,0.07630495193696242
5382,11.0,300.56377000000003,-5387.9882,0.0,0.0,0.053820753959446854,0.0,0.0,0.0,0.4256956904678936,0.41816491174966364,0.7939532725170872,-0.006206744142257954,-0.003994959914396846,0.08549995341443842
5383,11.0,300.53905,-5317.3672,0.0,0.0,0.05383075837982099,0.0,0.0,0.0,0.4116366528128746,0.39854728537105466,0.8061629058245842,-0.003569257779658317,-0.0009489846921424972,0.07573668581712893
5384,11.0,300.09309,-5347.7952,0.0,0.0,0.05384076280019512,0.0,0.0,0.0,0.4130122715461376,0.4052700781945426,0.8073138566131742,0.006272393832137074,0.012201531359697388,0.06616598640132443
5385,11.0,300.10312000000005,-5464.0103,0.0,0.0,0.05385076722056925,0.0,0.0,0.0,0.4101915960502586,0.4169054520078646,0.8338256569371852,0.011028716660449592,0.01908447444099098,0.06706938803148323
5386,11.0,300.3428,-5495.608,0.0,0.0,0.05386077164094338,0.0,0.0,0.0,0.42688790080055555,0.41735709810743865,0.8262826178927452,0.012445810760055886,-0.012604577931474988,0.05199728367473236
5387,11.0,300.44376,-5338.0232,0.0,0.0,0.05387077606131774,0.0,0.0,0.0,0.3979495691370646,0.4193714697037416,0.8053047336523893,-0.005617753815479135,-0.012913057871419588,0.07206934968344103
5388,11.0,299.56097,-5172.1647,0.0,0.0,0.05388078048169187,0.0,0.0,0.0,0.40306267232168863,0.39427976979238366,0.7748664878658683,-0.007990115386062993,-0.007290200213861743,0.07382846432780213
5389,11.0,299.5744,-5395.491999999999,0.0,0.0,0.053890751992788255,0.0,0.0,0.0,0.4132532629499216,0.4111992124797026,0.8156423671351343,0.006039158249918514,0.01351411276448909,0.08365789513014142
5390,11.0,299.63577000000004,-5471.4664,0.0,0.0,0.05390075641316261,0.0,0.0,0.0,0.43082623168673856,0.4232369073777306,0.8091260240195212,0.0008797227352593741,0.007973629908261002,0.08638079908412112
5391,11.0,299.63189,-5384.1638,0.0,0.0,0.05391076083353674,0.0,0.0,0.0,0.39799928931947165,0.4190782351248016,0.8195738281856393,0.006266098205290744,-0.0019986960093059383,0.08169375135454551
5392,11.0,300.21381,-5301.6657,0.0,0.0,0.053920765253910874,0.0,0.0,0.0,0.39251104041782364,0.4164929781571566,0.8025699614999882,0.001418548012174789,0.0006236564599326004,0.09552844327842332
5393,11.0,300.23615,-5327.254,0.0,0.0,0.053930769674285006,0.0,0.0,0.0,0.40228607691504464,0.40675699231878965,0.8103091353662852,0.02398960398958958,0.0060119877458369945,0.07123208491380943
5394,11.0,300.49549,-5376.6847,0.0,0.0,0.05394077409465914,0.0,0.0,0.0,0.4113852755955656,0.4247392127709966,0.7982534147489783,0.013010419047028387,0.005087559757553055,0.08612799723717152
5395,11.0,300.12066,-5363.9114,0.0,0.0,0.05395077851503349,0.0,0.0,0.0,0.4020852811427276,0.4187172647766766,0.8096925828129362,0.0002887416658765837,-0.015307084147691587,0.06802892675693234
5396,11.0,300.50221,-5317.7462,0.0,0.0,0.053960782935407625,0.0,0.0,0.0,0.3938197441144826,0.4198095686494786,0.8028327377809222,-0.01247916087384729,-0.004061344717223516,0.08017064089697622
5397,11.0,300.10627,-5163.4237,0.0,0.0,0.05397075444650401,0.0,0.0,0.0,0.37210885448678466,0.4037928710062536,0.7936501486171712,-0.004408865791471176,-0.0026571918478944176,0.07427377457450084
5398,11.0,300.01023,-5242.4682,0.0,0.0,0.05398075886687814,0.0,0.0,0.0,0.38878897763298464,0.4163314458262146,0.7884589947773442,-0.007693704977334562,-0.007011107870542473,0.08144661256240483
5399,11.0,300.0971,-5467.0852,0.0,0.0,0.0539907632872525,0.0,0.0,0.0,0.4278884042142976,0.40938792660094264,0.8245810669998153,-0.00984411654531366,-0.013012179062452087,0.07070051465959752
5400,11.0,299.60755,-5521.9004,0.0,0.0,0.05400076770762663,0.0,0.0,0.0,0.4444413746054486,0.4161627802145686,0.8179157051919952,0.006399344038491083,-0.0013258901408801688,0.07051129932267343
5401,11.0,299.55557000000005,-5354.422,0.0,0.0,0.05401077212800076,0.0,0.0,0.0,0.4078788020345036,0.4037241625169726,0.8160076032661802,0.007588761347252432,0.013568237545080788,0.08575800592340622
5402,11.0,300.06858,-5378.4186,0.0,0.0,0.054020776548374894,0.0,0.0,0.0,0.42170928086446563,0.4032171119019306,0.8099785625211603,0.006088403218028614,0.0003220516346990217,0.060211815719443534
5403,11.0,299.63717,-5526.4142,0.0,0.0,0.054030780968749026,0.0,0.0,0.0,0.42366181380716555,0.42688180103495355,0.8293483073953052,-0.0018799435028859783,-0.007722204460247243,0.07218850080245033
5404,11.0,299.885,-5396.9580000000005,0.0,0.0,0.05404075247984563,0.0,0.0,0.0,0.41862225231479955,0.4111677510640976,0.8107504767123422,-0.0025842629692968975,-0.003777974837282087,0.05831051472829974
5405,11.0,300.70567,-5302.7419,0.0,0.0,0.054050756900219765,0.0,0.0,0.0,0.4128664547242466,0.4102867402346486,0.7887479331758603,0.0019017143971845982,0.012195657548867688,0.07270094596102473
5406,11.0,300.77306,-5222.8682,0.0,0.0,0.05406076132059412,0.0,0.0,0.0,0.4007153366100246,0.4055756845572036,0.7813304864813152,-0.004373142747270586,-0.0028191423471526874,0.07295769239061363
5407,11.0,300.35982,-5136.2509,0.0,0.0,0.05407076574096825,0.0,0.0,0.0,0.3807745543770226,0.39502229973066566,0.7854951774398383,-0.008484414552571522,-0.007094283240776243,0.08341039764746533
5408,11.0,299.61485,-5247.3974,0.0,0.0,0.054080770161342384,0.0,0.0,0.0,0.3845670887063166,0.4129308467681016,0.7975798567450032,0.01020277293418529,0.0036435678194671464,0.0964602868388891
5409,11.0,299.65725,-5424.9282,0.0,0.0,0.054090774581716516,0.0,0.0,0.0,0.4051829690834456,0.42012622957073054,0.8237335136886682,0.004770080738170316,0.014721191529118485,0.08288255007412083
5410,11.0,300.70816,-5299.8382,0.0,0.0,0.05410077900209065,0.0,0.0,0.0,0.3985653212228346,0.4121672614927416,0.8002858931245682,0.0003451503628561887,0.002195564829535378,0.1041691726331969
5411,11.0,299.57646,-5262.3971,0.0,0.0,0.05411078342246478,0.0,0.0,0.0,0.4031763083204036,0.40505841024865263,0.7914026079078563,-0.006355002998214963,-0.013500940513189088,0.07634460547962592
5412,11.0,299.4734,-5364.5615,0.0,0.0,0.05412075493356139,0.0,0.0,0.0,0.4018594276954376,0.42219532680493455,0.8066379782664702,0.0017267020908872286,0.002031591883077508,0.09155692743821521
5413,11.0,299.54401,-5409.1822,0.0,0.0,0.05413075935393574,0.0,0.0,0.0,0.4031326575060956,0.41954148293802057,0.8215821709438472,0.0006099832375181585,-0.004799514842975235,0.07366219707914283
5414,11.0,299.94588999999996,-5360.7029,0.0,0.0,0.054140763774309875,0.0,0.0,0.0,0.3966152910078816,0.4210596152978486,0.8118448982778532,-0.005608986871638905,-0.007039769372146143,0.08511277636572702
5415,11.0,300.32079,-5255.0781,0.0,0.0,0.05415076819468401,0.0,0.0,0.0,0.3907114373127166,0.3941759116571336,0.8125251842624923,-0.0031349449442449767,-0.002102504495301038,0.06484334646279002
5416,11.0,299.66949,-5231.0421,0.0,0.0,0.05416077261505792,0.0,0.0,0.0,0.4093104636307976,0.3944615063303196,0.7863342093176443,0.005288764173635385,0.0044049769375873755,0.07582732103857392
5417,11.0,299.77268,-5368.5807,0.0,0.0,0.05417077703543227,0.0,0.0,0.0,0.4260961775699186,0.40549379368412164,0.8003245182183802,0.0036446536182743066,0.029334200371560176,0.07014886786790424
5418,11.0,300.43677,-5505.9109,0.0,0.0,0.054180781455806404,0.0,0.0,0.0,0.44110065862824555,0.40833080277161266,0.8242279594724662,-0.024207699994113974,-0.0006015918953574974,0.07635277430193213
5419,11.0,300.35632000000004,-5483.1573,0.0,0.0,0.054190785876180536,0.0,0.0,0.0,0.4151289104750336,0.42076186162346263,0.8308521326637212,-0.005068346610481865,-0.012105149996935289,0.07536678772237283
5420,11.0,300.62798,-5288.8054,0.0,0.0,0.05420075738727714,0.0,0.0,0.0,0.4093000271547676,0.3914936359924136,0.8068711271144802,-0.019405879399211182,-0.02331495268875668,0.08048018373627572
5421,11.0,299.8109,-5414.1805,0.0,0.0,0.0542107618076515,0.0,0.0,0.0,0.4099798065143566,0.4185457417997486,0.8172501214663073,0.019937325023660784,-0.012757226085540186,0.07733351123272333
5422,11.0,299.34854,-5424.6542,0.0,0.0,0.05422076622802563,0.0,0.0,0.0,0.4408714614556256,0.3980861045880396,0.8100018470084582,-0.00039925135233554056,-0.020128036930982585,0.06171392859519053
5423,11.0,300.42811,-5221.7929,0.0,0.0,0.05423077064839976,0.0,0.0,0.0,0.4031655678693436,0.38955181310327064,0.7945772724586712,0.011928565835757788,0.004976447764837155,0.07317642978245134
5424,11.0,299.87765,-5202.3882,0.0,0.0,0.05424077506877367,0.0,0.0,0.0,0.3975589206935106,0.4010183794499326,0.7828188090232012,0.002077466376054968,0.007444318492497034,0.08758671261113551
5425,11.0,299.86753,-5273.9354,0.0,0.0,0.054250779489147805,0.0,0.0,0.0,0.3964321359198056,0.40253538710214964,0.8041771484111052,0.004248355221930016,0.024000402195905275,0.09519426022319201
5426,11.0,300.32611,-5288.9757,0.0,0.0,0.05426078390952216,0.0,0.0,0.0,0.3849899585030506,0.42753465833938564,0.7951919302343332,-0.002132510985087448,0.0034254302716886465,0.1026398337272629
5427,11.0,299.78076,-5272.802,0.0,0.0,0.054270755420618766,0.0,0.0,0.0,0.38782798084064163,0.4147107320262626,0.8002614332671543,-0.0037334540464382263,-0.012620566004802887,0.09471872472601031
5428,11.0,300.38243,-5277.9655,0.0,0.0,0.0542807598409929,0.0,0.0,0.0,0.39884939602087066,0.4106612780016126,0.7948590573114812,-0.0053779400109613545,0.004220643439645076,0.09345862764989842
5429,11.0,300.97157000000004,-5199.6467,0.0,0.0,0.05429076426136703,0.0,0.0,0.0,0.39886084574700065,0.39799790116683464,0.7837040045755633,-0.0028869017250650175,-0.0018538438015101386,0.08134145544052662
5430,11.0,300.34152,-5323.7179,0.0,0.0,0.054300768681741385,0.0,0.0,0.0,0.39978251830296263,0.4131935622540296,0.8053012278070432,-0.01076100483827849,-0.008325144302477772,0.08084204574448872
5431,11.0,300.1884,-5403.6532,0.0,0.0,0.054310773102115295,0.0,0.0,0.0,0.4075124614608486,0.4173229009165636,0.8177402812021822,-0.0029353970907511373,-0.016263508142333283,0.060267863648725044
5432,11.0,300.13766,-5423.8330000000005,0.0,0.0,0.05432077752248943,0.0,0.0,0.0,0.40739492444924863,0.4158093180496846,0.8255055665235562,0.008669518525889862,-0.01024915851051319,0.07538674064334203
5433,11.0,300.42427000000004,-5399.24,0.0,0.0,0.05433078194286356,0.0,0.0,0.0,0.41997865982616656,0.40703766259648966,0.8142178286870432,0.018061328940514383,0.01077463609187379,0.07633716214439133
5434,11.0,300.2161,-5396.9429,0.0,0.0,0.05434078636323769,0.0,0.0,0.0,0.4242777786754566,0.4064866875896126,0.8097714238032172,0.01088561737532679,-0.008986192112768111,0.06956599473462913
5435,11.0,299.83525,-5430.8602,0.0,0.0,0.05435075787433452,0.0,0.0,0.0,0.42706443936547855,0.40754056901862257,0.8162408838367032,0.018079556296563284,-0.005509463015016666,0.07504390544550683
5436,11.0,299.97267999999997,-5359.1177,0.0,0.0,0.05436076229470865,0.0,0.0,0.0,0.4175530809417806,0.3973430173622026,0.8141418450620442,0.0024445768171359474,0.003781025429358156,0.06937714720749134
5437,11.0,299.87792,-5350.2303,0.0,0.0,0.054370766715082786,0.0,0.0,0.0,0.40652640699353265,0.4130998163547776,0.8067102128660992,0.0014273828437717188,0.016845699358291083,0.08871507197549593
5438,11.0,299.72078,-5386.7846,0.0,0.0,0.05438077113545692,0.0,0.0,0.0,0.4044714952607286,0.4029676395948096,0.8300088856654992,-0.01220213627000709,0.0026116895216786876,0.05645004163668535
5439,11.0,299.97985,-5339.2778,0.0,0.0,0.05439077555583105,0.0,0.0,0.0,0.40087896636867365,0.4116315156348676,0.8104966575622923,-0.015426956700772087,-0.004016061557004416,0.06971520594435514
5440,11.0,300.20183,-5302.1232,0.0,0.0,0.05440077997620518,0.0,0.0,0.0,0.4107349818138866,0.4017308867877516,0.7992471800495553,-0.006771883473607863,-0.0015437473223559985,0.05156883897594815
5441,11.0,300.14662999999996,-5356.0981,0.0,0.0,0.054410784396579315,0.0,0.0,0.0,0.4060254358790906,0.4119432825581366,0.8101513621932143,-0.007451868016342113,0.01160992299731019,0.08015082577802062
5442,11.0,301.05044,-5331.7363,0.0,0.0,0.05442078881695367,0.0,0.0,0.0,0.4005884878300056,0.4145113852015886,0.8056148287129932,-0.007674194036058983,0.001079779088315899,0.07564353266918543
5443,11.0,300.86092,-5377.5079,0.0,0.0,0.054430760328050276,0.0,0.0,0.0,0.39307737629621664,0.42014599808018166,0.8214047407188363,-0.008481619907470712,-0.01824321239971488,0.09441755639878731
5444,11.0,300.82558,-5376.0771,0.0,0.0,0.05444076474842441,0.0,0.0,0.0,0.39633982883569563,0.4227108279258106,0.8151425511258062,0.01999543998314628,-0.001982850804242138,0.09879595193590131
5445,11.0,300.86962,-5190.1375,0.0,0.0,0.05445076916879854,0.0,0.0,0.0,0.39149908727795163,0.4128376277589016,0.7733354669647682,0.02994237435983227,0.0066490328771584535,0.10623243354682489
5446,11.0,300.62435,-5175.4305,0.0,0.0,0.05446077358917267,0.0,0.0,0.0,0.40047793211159466,0.40059245977039765,0.7721312597509223,0.015689493854682487,0.0019279235295712382,0.09614233706350991
5447,11.0,300.04766,-5320.3535,0.0,0.0,0.054470778009546805,0.0,0.0,0.0,0.4138513236889456,0.4094496436645336,0.7939536474196242,-0.005474953439135835,-0.0055741384649246346,0.08219243252376152
5448,11.0,299.92582999999996,-5438.6873,0.0,0.0,0.05448078242992094,0.0,0.0,0.0,0.4143613937892856,0.4174198385536306,0.8214439028352012,-0.016930735359683483,-0.012878577983766688,0.06784797346132364
5449,11.0,299.80211,-5458.4715,0.0,0.0,0.05449078685029529,0.0,0.0,0.0,0.4023045687293696,0.4237878925171086,0.8331465767201653,-0.008008238377351594,0.00996492929316195,0.06377752793435194
5450,11.0,300.40511000000004,-5497.1764,0.0,0.0,0.054500791270669424,0.0,0.0,0.0,0.4145844000037946,0.41518402114797265,0.8412359399535232,-0.015522372436188883,-0.0050842701397783956,0.05234863118665765
5451,11.0,299.77913,-5610.4911,0.0,0.0,0.05451076278176581,0.0,0.0,0.0,0.43295455338928757,0.4272261439489376,0.8452685030990063,-0.0018826517177532582,0.007687381688760503,0.06460103175437544
5452,11.0,299.55773999999997,-5566.9005,0.0,0.0,0.054520767202140163,0.0,0.0,0.0,0.44703974302938754,0.42059096686159664,0.8245680366035292,-0.00012704437781830386,0.007868880720873063,0.05575088386893385
5453,11.0,299.97317000000004,-5407.5334,0.0,0.0,0.054530771622514296,0.0,0.0,0.0,0.41725715111757455,0.4139238318661016,0.8125741445073242,0.03380417851896267,0.020202860384617084,0.07897534724425993
5454,11.0,299.31086,-5409.196999999999,0.0,0.0,0.05454077604288843,0.0,0.0,0.0,0.42769489371019964,0.39255991960264763,0.8240060273030633,0.011327626453199688,-0.007974781872299691,0.06386501802748654
5455,11.0,299.57497,-5307.7291,0.0,0.0,0.05455078046326256,0.0,0.0,0.0,0.3875031328585816,0.4030897260993586,0.8228242635789322,0.0022181386232132377,-0.015677080527707384,0.09057300079610922
5456,11.0,300.49189,-5257.1425,0.0,0.0,0.05456078488363669,0.0,0.0,0.0,0.3875100229592616,0.39983544035568563,0.8106945757043252,0.0012849230207870289,-0.01704021601973838,0.06600287441347653
5457,11.0,299.60039,-5399.2826,0.0,0.0,0.05457078930401105,0.0,0.0,0.0,0.4105100808216906,0.4230053493323776,0.8077316500269073,0.018437356185125382,-0.0007893360741964053,0.09068640476055131
5458,11.0,300.00257,-5428.1823,0.0,0.0,0.05458076081510743,0.0,0.0,0.0,0.43312832578143756,0.4185566545033256,0.7983468972032042,0.003412448511407447,-0.0017206585606657783,0.06707744235652814
5459,11.0,299.94413,-5451.8141,0.0,0.0,0.054590765235481564,0.0,0.0,0.0,0.4182732687153576,0.4351668329951226,0.8037752528914412,-0.011398348270429388,-0.002233502635804548,0.08805638037698811
5460,11.0,300.13772,-5504.177,0.0,0.0,0.054600769655855697,0.0,0.0,0.0,0.4077244029842656,0.43103653174499357,0.8343714339710492,-0.018506173092167084,0.003203924072627687,0.06832169828057665
5461,11.0,300.21783,-5424.0217,0.0,0.0,0.05461077407623005,0.0,0.0,0.0,0.38350147384114863,0.4417406172589046,0.8235250577455951,-0.01143140352844169,0.009511702726081971,0.08628547555446342
5462,11.0,299.91882999999996,-5335.3417,0.0,0.0,0.05462077849660418,0.0,0.0,0.0,0.3845808182451716,0.4177815688393306,0.8194482662332473,-0.004901703750010495,-0.00957373409985399,0.08244106484654963
5463,11.0,299.06755,-5332.2811,0.0,0.0,0.054630782916978315,0.0,0.0,0.0,0.40080525242389864,0.41917267003412156,0.8009024051479132,0.0013711566837976287,0.006822401691793624,0.09090346927647391
5464,11.0,299.63076,-5303.8873,0.0,0.0,0.05464078733735245,0.0,0.0,0.0,0.4094543451449976,0.4046441125477646,0.7981508434413552,0.005912087568127614,0.006738380460376374,0.08506351619886543
5465,11.0,300.06984,-5323.6733,0.0,0.0,0.05465079175772658,0.0,0.0,0.0,0.4188848867407196,0.4073327615556136,0.7920461230463662,0.015342309787418086,0.026255560519472074,0.08727869471323652
5466,11.0,300.09436,-5378.8047,0.0,0.0,0.05466076326882319,0.0,0.0,0.0,0.42194721225294757,0.38590473082583165,0.8271703769678602,-0.005043989901928045,-0.0027447924866149274,0.06955794243608443
5467,11.0,299.98265,-5365.1477,0.0,0.0,0.05467076768919732,0.0,0.0,0.0,0.4028693340701076,0.4060550734445156,0.8219465356798072,-0.005153687397504345,-0.021369801273035182,0.06651889330515363
5468,11.0,299.82294,-5510.2287,0.0,0.0,0.054680772109571674,0.0,0.0,0.0,0.41578651992243454,0.4163720163602186,0.8428133981067063,0.007981031092291441,-0.01123402544871199,0.054122617302736445
5469,11.0,300.32152,-5653.9121,0.0,0.0,0.054690776529945806,0.0,0.0,0.0,0.4471971311674206,0.4311819331343436,0.8402690359130973,-0.007169527598502283,0.014120506472335488,0.07698247782832902
5470,11.0,300.56752,-5605.4749,0.0,0.0,0.05470078095031994,0.0,0.0,0.0,0.4525771548258876,0.4221934826897526,0.8291537532436042,-4.940055671595535e-05,-0.002960995132002467,0.055659227291388044
5471,11.0,300.83642000000003,-5475.5132,0.0,0.0,0.05471078537069407,0.0,0.0,0.0,0.43176033682142756,0.42173025514153556,0.8109287074049323,-0.023836445157473976,0.0001394763688602459,0.07280009653631013
5472,11.0,299.93277,-5416.0535,0.0,0.0,0.0547207897910682,0.0,0.0,0.0,0.4101761034562296,0.4110567697806446,0.8251121417747281,-0.009138710469495503,-0.0014474924132063787,0.061197968472019235
5473,11.0,300.06824,-5386.0047,0.0,0.0,0.054730794211442335,0.0,0.0,0.0,0.39159298516471863,0.4194701399984796,0.8261478252319422,-0.001049494968002089,0.0055689475846623345,0.09181929031310841
5474,11.0,299.6637,-5325.4274,0.0,0.0,0.05474076572253894,0.0,0.0,0.0,0.38964453561992163,0.4085439905926526,0.8206084173327451,0.01180486623704959,-0.007004181292858873,0.07682340769513002
5475,11.0,299.54429,-5295.5349,0.0,0.0,0.054750770142913296,0.0,0.0,0.0,0.3985614607399536,0.4185511424227816,0.7925977769308102,0.012540690486169789,-0.024231616749474376,0.1044790954412839
5476,11.0,300.15528,-5389.6699,0.0,0.0,0.05476077456328743,0.0,0.0,0.0,0.4176347590323416,0.4214692824457795,0.7992210483294762,0.014007632437695684,-0.001766796802644268,0.09037899886571273
5477,11.0,299.76706,-5511.0758,0.0,0.0,0.05477077898366156,0.0,0.0,0.0,0.42920904399713455,0.4424079235097626,0.8036124641303752,0.003782460698124806,0.02140838482359308,0.08905605089914792
5478,11.0,299.58313,-5479.4128,0.0,0.0,0.05478078340403547,0.0,0.0,0.0,0.4094322968228216,0.4339966912496386,0.8221756923224233,-0.017678680106499884,-0.0028232614114592075,0.08027245733327472
5479,11.0,299.99616000000003,-5462.8053,0.0,0.0,0.054790787824409826,0.0,0.0,0.0,0.4014616459711796,0.43122112564821163,0.8278736333322663,-0.023340452140773276,-0.013173034542327289,0.07690811337698983
5480,11.0,299.92458999999997,-5467.8836,0.0,0.0,0.05480079224478396,0.0,0.0,0.0,0.4052834936258666,0.4382186511038136,0.8185979366168262,-0.0030671162600258072,-0.01092308939052499,0.08010663591465943
5481,11.0,299.97301,-5420.1552,0.0,0.0,0.054810763755880565,0.0,0.0,0.0,0.40412651399918165,0.4281321617908546,0.8153331434696162,0.01138924725803119,0.0044548721082866465,0.07118346917401143
5482,11.0,300.71387000000004,-5428.8749,0.0,0.0,0.0548207681762547,0.0,0.0,0.0,0.41100554998808964,0.42320271018685557,0.8160341605513012,0.0028173702740527974,-0.008455785170996023,0.07638916619252373
5483,11.0,300.42157000000003,-5419.3203,0.0,0.0,0.05483077259662905,0.0,0.0,0.0,0.42048921628655456,0.4019652819333846,0.8248835525521683,-0.012639016275873789,-0.015675055040757484,0.06107292834342874
5484,11.0,300.16893,-5326.6563,0.0,0.0,0.054840777017003184,0.0,0.0,0.0,0.39426962715888264,0.4032928726119076,0.8216080189538982,-0.013861091141983186,0.00958153065407345,0.06531082459517654
5485,11.0,300.04787999999996,-5377.3949,0.0,0.0,0.054850781437377316,0.0,0.0,0.0,0.39906823777746864,0.4069765636154596,0.8285489746564172,0.0008775748274323922,0.02876641250577387,0.06727777507354944
5486,11.0,300.07057000000003,-5549.3578,0.0,0.0,0.054860785857751226,0.0,0.0,0.0,0.4322176064590566,0.4253924652429676,0.8292561421662092,0.004354777690533096,0.015862208413728086,0.07392289923712213
5487,11.0,299.08686,-5599.5417,0.0,0.0,0.05487079027812536,0.0,0.0,0.0,0.44833541632976054,0.4264133755137236,0.8273720745327663,0.006035720292329213,-0.0053695552650588445,0.07309584498874823
5488,11.0,299.38799,-5455.3199,0.0,0.0,0.05488079469849971,0.0,0.0,0.0,0.4318085269961836,0.4185187285520826,0.8079537645813282,0.011723211451240887,-0.015973957740756883,0.08259020614201872
5489,11.0,300.02576,-5402.4352,0.0,0.0,0.05489076620959632,0.0,0.0,0.0,0.4150770320699136,0.4107173107321426,0.8164110693234993,0.017703653681714584,-0.002418132205426068,0.07742938293068513
5490,11.0,299.76772,-5393.7664,0.0,0.0,0.05490077062997045,0.0,0.0,0.0,0.4017509694047336,0.4209570439902256,0.8168623101230332,0.0023261245367206178,-0.012695633651711488,0.07392036307212183
5491,11.0,299.86279,-5374.2136,0.0,0.0,0.054910775050344585,0.0,0.0,0.0,0.39285037787631366,0.4170849897930836,0.8236913827495103,-0.0054662967369064844,-0.012008333949880289,0.07881493455467843
5492,11.0,300.46042,-5310.0419,0.0,0.0,0.05492077947071894,0.0,0.0,0.0,0.39209403733916864,0.4168813366554846,0.8051447819916032,-0.017401362673380782,-0.0023972123398864377,0.08420860162574192
5493,11.0,300.49731,-5273.3509,0.0,0.0,0.05493078389109285,0.0,0.0,0.0,0.3948710316232366,0.4119115576975056,0.7961843985747822,0.002268031564762288,0.023116792379949777,0.07519502561842123
5494,11.0,300.49352000000005,-5307.4263,0.0,0.0,0.05494078831146698,0.0,0.0,0.0,0.3975043875731286,0.4177835244120236,0.7980371365151332,-0.003999842563978726,0.007499108269129363,0.0987991548194674
5495,11.0,300.20002,-5435.0117,0.0,0.0,0.054950792731841114,0.0,0.0,0.0,0.4109989942599426,0.4118232630837916,0.8292855669491132,-0.003029514751464827,-0.0014263238960922086,0.06792292863747114
5496,11.0,299.73242999999997,-5469.7880000000005,0.0,0.0,0.054960797152215246,0.0,0.0,0.0,0.4159321239618046,0.42609374576967857,0.8206531016621552,-0.007707438062564914,-0.014819843585354686,0.09991832400542082
5497,11.0,299.76063999999997,-5409.6315,0.0,0.0,0.054970768663312075,0.0,0.0,0.0,0.4114302233700016,0.4149544896028196,0.8180081743961212,0.002962884336813917,-0.003679067644670707,0.07033986855150452
5498,11.0,300.33159,-5398.1591,0.0,0.0,0.05498077308368621,0.0,0.0,0.0,0.4077114840454906,0.42428958303912157,0.8089045072826592,0.013576485400894789,-0.0001082933639852229,0.1027599747916199
5499,11.0,299.99539,-5620.8455,0.0,0.0,0.05499077750406034,0.0,0.0,0.0,0.4463077204946425,0.4329631457501356,0.8293257929780832,0.018661230754970084,-0.02122284454478168,0.05730234607755125
5500,11.0,299.71966000000003,-5602.5847,0.0,0.0,0.05500078192443447,0.0,0.0,0.0,0.4420487263493126,0.4277908586271706,0.8332062672835562,0.01013597746109309,-0.004070302050757536,0.07653008901643173
5501,11.0,299.31106,-5361.6743,0.0,0.0,0.055010786344808604,0.0,0.0,0.0,0.4133830197577276,0.40196135052299664,0.8144707359120031,-0.0014839938361337886,0.005225872955828505,0.05412820639028804
5502,11.0,300.03786,-5308.946999999999,0.0,0.0,0.05502079076518274,0.0,0.0,0.0,0.39531378138693263,0.40609879518633063,0.8123747368876443,-0.012370509052374188,0.004195007198864975,0.07090955727447844
5503,11.0,299.76295,-5496.6638,0.0,0.0,0.05503079518555687,0.0,0.0,0.0,0.42349048334775663,0.4078478067139446,0.8395102635757121,-0.025914968657358272,0.0017505785188936483,0.05569620788028774
5504,11.0,300.03174,-5526.4113,0.0,0.0,0.055040766696653476,0.0,0.0,0.0,0.4300952325345946,0.43584034033659264,0.8139554678386502,-0.0014709451000209787,0.015403100740417687,0.09239920880909192
5505,11.0,299.95062,-5495.6771,0.0,0.0,0.05505077111702783,0.0,0.0,0.0,0.4354051595511436,0.42256777727669254,0.8125756643824743,0.01201492716828099,0.017308318956448087,0.07002324816025653
5506,11.0,300.14761,-5365.2783,0.0,0.0,0.05506077553740196,0.0,0.0,0.0,0.4098315984222296,0.42577693286091156,0.7953020907852052,0.007358900394491923,0.004171555727950496,0.09545281935720981
5507,11.0,300.66331,-5290.18,0.0,0.0,0.055070779957776095,0.0,0.0,0.0,0.3952695530200676,0.40492620137560464,0.8078868698097262,0.016019750565776286,-0.030764352225205172,0.07616102989275843
5508,11.0,300.26841,-5429.8312,0.0,0.0,0.05508078437815023,0.0,0.0,0.0,0.39716823171995264,0.42367019338549256,0.8296946666769882,0.011392444062096689,-0.0081966229505187,0.09626953136181302
5509,11.0,300.42812999999995,-5400.2442,0.0,0.0,0.05509078879852436,0.0,0.0,0.0,0.3976953548194756,0.41570053551894864,0.8281435124964012,0.008313301941934022,3.0245916732039573e-05,0.07112048149479502
5510,11.0,299.79215,-5250.463000000001,0.0,0.0,0.05510079321889849,0.0,0.0,0.0,0.3864322794903966,0.4166191075296046,0.7929582710513883,-0.0037274942106750365,-0.0022155763163603575,0.10402043765101789
5511,11.0,300.05681,-5222.6867,0.0,0.0,0.055110797639272846,0.0,0.0,0.0,0.39771791989920263,0.4029197837925866,0.7869286527538112,-0.02079076937088918,-0.0019408427723212678,0.06687151143270434
5512,11.0,299.84199,-5424.3358,0.0,0.0,0.05512076915036923,0.0,0.0,0.0,0.4184960317498426,0.4333704114953295,0.7969961841573993,0.0024933759552020476,0.008440571322069533,0.1015991752120579
5513,11.0,299.76866,-5558.2324,0.0,0.0,0.05513077357074336,0.0,0.0,0.0,0.43192967117813963,0.41947130523609455,0.8381628739902353,0.0028370525559202873,0.007745697677065843,0.06403534536929653
5514,11.0,299.5423,-5488.4139,0.0,0.0,0.05514077799111772,0.0,0.0,0.0,0.4085655424222796,0.43315984799204854,0.8266153996230882,-0.012865582037984089,-0.008298012301900052,0.08461427352852863
5515,11.0,300.0419,-5417.8974,0.0,0.0,0.05515078241149185,0.0,0.0,0.0,0.40941523369113764,0.4154802752122106,0.8220100157985721,-0.004186739888649056,-0.015320429664758686,0.06500494161523823
5516,11.0,299.64448,-5458.8585,0.0,0.0,0.05516078683186598,0.0,0.0,0.0,0.42698389611502957,0.4118774820966426,0.8204952879590802,0.005989294489972344,0.017825110957951484,0.07617772420140603
5517,11.0,300.37597999999997,-5484.316999999999,0.0,0.0,0.055170791252240114,0.0,0.0,0.0,0.4449563893662766,0.4132360478307226,0.8089029975400103,0.029070007566986373,0.012995189898025386,0.06947916325405953
5518,11.0,300.22501,-5536.6134,0.0,0.0,0.05518079567261425,0.0,0.0,0.0,0.44396772071370255,0.41027644561363263,0.8287480479035642,0.0055914165069548445,-0.008869684563269711,0.06709187610420263
5519,11.0,299.77729,-5417.1257,0.0,0.0,0.0551908000929886,0.0,0.0,0.0,0.41553312633742656,0.4045056924516036,0.8266321182497383,-0.0033729094660052464,-0.016111998881380485,0.06082454325366504
5520,11.0,300.55392,-5215.1868,0.0,0.0,0.055200771604084986,0.0,0.0,0.0,0.3731399580535466,0.40390990139280364,0.8082366944067512,0.0018823083272943683,0.0058187442331403445,0.07479812542175023
5521,11.0,300.02922,-5457.4747,0.0,0.0,0.05521077602445912,0.0,0.0,0.0,0.40985437628447763,0.4107734042576786,0.8383082652470842,0.013824828947404387,0.0026020301071503775,0.06500094535684384
5522,11.0,299.94021000000004,-5637.031,0.0,0.0,0.05522078044483325,0.0,0.0,0.0,0.44473905735232755,0.43730464885110854,0.8314729509999912,-0.0005411118176210785,-0.010278149622374392,0.07819933952267392
5523,11.0,300.32632,-5398.8804,0.0,0.0,0.055230784865207605,0.0,0.0,0.0,0.42003842131706465,0.42070478524532956,0.8003816351265172,-0.0029984459702735774,0.0018062328005112982,0.0874664915000206
5524,11.0,299.43933,-5259.1437,0.0,0.0,0.05524078928558174,0.0,0.0,0.0,0.3998565362227676,0.41473026748819064,0.7840615704033522,-0.0016617598522279283,0.015045397110615087,0.10518598937354891
5525,11.0,299.53292999999996,-5341.8537,0.0,0.0,0.05525079370595587,0.0,0.0,0.0,0.3919510981475616,0.42228242578353065,0.8095566249145182,0.0075256229977461635,0.01831790514408648,0.08759155392011332
5526,11.0,300.14797999999996,-5376.3923,0.0,0.0,0.05526079812633,0.0,0.0,0.0,0.3815826010667706,0.4224796245179926,0.8302267850995043,-0.017305070476627483,-0.007976724678041431,0.09560734101070992
5527,11.0,299.8368,-5384.0085,0.0,0.0,0.05527076963742661,0.0,0.0,0.0,0.39446811272097165,0.4201519255932666,0.8219840968610141,-0.008352904518117493,-0.013862424579114789,0.08820053445546501
5528,11.0,299.85505,-5326.2519999999995,0.0,0.0,0.05528077405780074,0.0,0.0,0.0,0.4183334760362996,0.4056828154902766,0.7950313199609822,-0.0037526100462037765,-0.0014231841380073385,0.09270252421327681
5529,11.0,299.9689,-5259.6674,0.0,0.0,0.05529077847817487,0.0,0.0,0.0,0.41578876933765657,0.3929717348407906,0.7900470616590742,0.005412909703712595,-0.0020803811926176385,0.07321113359837633
5530,11.0,299.96479,-5354.0734,0.0,0.0,0.05530078289854923,0.0,0.0,0.0,0.4061046112419046,0.4066755067457476,0.8147244942670473,0.0032743142530996566,-0.023840351236609478,0.07695934330204582
5531,11.0,299.63133999999997,-5590.475,0.0,0.0,0.05531078731892336,0.0,0.0,0.0,0.4191053800949806,0.41683740213114856,0.8634220236131191,-0.0018251085352991884,-0.01006547288468483,0.06406819493753854
5532,11.0,300.05942000000005,-5651.9619999999995,0.0,0.0,0.05532079173929749,0.0,0.0,0.0,0.42843210408545657,0.4228577897203146,0.8667654247030873,-0.006889035348844853,0.007939126715855803,0.06547946082256964
5533,11.0,300.14432999999997,-5489.1928,0.0,0.0,0.055330796159671625,0.0,0.0,0.0,0.42462453312467857,0.42206288488436355,0.8218901381792413,0.004289562583621866,0.013797625208719588,0.06868498593168035
5534,11.0,300.67984,-5422.0866,0.0,0.0,0.05534080058004576,0.0,0.0,0.0,0.4391419347274345,0.4018809389950606,0.8071560733076022,-0.00956409444370263,-0.00096519642016497,0.06166700396980944
5535,11.0,300.36072,-5587.5734,0.0,0.0,0.055350772091142364,0.0,0.0,0.0,0.45576726130822653,0.4270267261967566,0.8156887942547162,-0.002387521311955008,-0.003466576939699507,0.07753916047301933
5536,11.0,300.29211000000004,-5530.9624,0.0,0.0,0.055360776511516496,0.0,0.0,0.0,0.4357655219492086,0.4111725538695716,0.8343363755175892,0.0073045301034009935,0.022032285466667276,0.07451563129387022
5537,11.0,299.55662,-5398.8145,0.0,0.0,0.05537078093189085,0.0,0.0,0.0,0.3991490039429397,0.4111852194958216,0.8307705761631723,-0.00045709495331175957,0.013148619267917688,0.08241418940089722
5538,11.0,299.76056,-5294.3296,0.0,0.0,0.05538078535226498,0.0,0.0,0.0,0.37943103540692763,0.4093311744628416,0.8205817992526183,-0.013765778758076589,-0.006074625752443884,0.08195962716753542
5539,11.0,299.6281,-5339.2665,0.0,0.0,0.055390789772639115,0.0,0.0,0.0,0.4114343371654076,0.4040981125988786,0.8074712346187063,-0.005561922519069015,-0.009321156586476531,0.08735138324891031
5540,11.0,299.15351,-5493.1177,0.0,0.0,0.055400794193013025,0.0,0.0,0.0,0.4321700647643646,0.42577897962611355,0.8118215631280502,0.02045361242661438,-0.0022930201360784677,0.08889919269091723
5541,11.0,299.4296,-5528.8469,0.0,0.0,0.05541079861338738,0.0,0.0,0.0,0.43958076321324363,0.4339895579689346,0.8070610912432282,0.012747767395856688,-0.008723558294798171,0.08412551511754192
5542,11.0,299.71182999999996,-5312.1283,0.0,0.0,0.05542080303376151,0.0,0.0,0.0,0.38177080214034465,0.4205405374041196,0.8124430198118833,0.002051286931896258,-0.013992036492156489,0.0957465271239465
5543,11.0,300.31675,-5230.9905,0.0,0.0,0.05543077454485812,0.0,0.0,0.0,0.35936553221911666,0.4255473810507566,0.8051775910298412,-0.0017700012060855182,0.0026905804651896174,0.1064910858998519
5544,11.0,299.95473,-5448.4999,0.0,0.0,0.05544077896523225,0.0,0.0,0.0,0.38682777126942863,0.4339756663100636,0.8354044627130012,0.0003006324395101117,0.02098042344510658,0.0970219151573175
5545,11.0,299.89262,-5466.3284,0.0,0.0,0.055450783385606606,0.0,0.0,0.0,0.43050848658787955,0.4231861435477206,0.8079326991117493,0.0013542950875585185,0.022119196993994776,0.08375018194924942
5546,11.0,299.97161,-5267.9251,0.0,0.0,0.05546078780598074,0.0,0.0,0.0,0.4018510075871066,0.4168791480352686,0.7825875346878762,0.0005021804284363495,-0.00998479396004744,0.07617700378058492
5547,11.0,300.7792,-5236.744000000001,0.0,0.0,0.05547079222635465,0.0,0.0,0.0,0.4154270998469626,0.39446840656350063,0.7819438979593543,-0.00013166188011401589,-0.0005329267022532705,0.0863773540337811
5548,11.0,300.42929,-5571.7489,0.0,0.0,0.05548079664672878,0.0,0.0,0.0,0.4145568598660766,0.4242715978498466,0.8548440813140422,0.017857679855915784,-0.003169405884121007,0.07232224474939983
5549,11.0,300.27772000000004,-5720.4844,0.0,0.0,0.05549080106710291,0.0,0.0,0.0,0.4434453092271446,0.42878418823020453,0.8666549196471811,-0.003937701556545887,-0.0002731236213527027,0.07497303974676292
5550,11.0,299.52877,-5682.1417,0.0,0.0,0.05550077257819974,0.0,0.0,0.0,0.42700297561441264,0.42865952807040164,0.8715666900369352,-0.016122680563934684,-0.016967305582292685,0.05695353473062625
5551,11.0,299.48884,-5544.4062,0.0,0.0,0.055510776998573874,0.0,0.0,0.0,0.44847573120360856,0.4257416109624256,0.8111436785461482,-0.016174480948796987,0.004604741018652556,0.07020603645179634
5552,11.0,299.55312999999995,-5456.5706,0.0,0.0,0.055520781418948006,0.0,0.0,0.0,0.4394423735145856,0.4060913579305966,0.8131274702544332,-0.004307244912441975,0.013756558182166588,0.05764609927997704
5553,11.0,299.94392999999997,-5576.4131,0.0,0.0,0.05553078583932214,0.0,0.0,0.0,0.4496668674911646,0.4305017687397166,0.8149217031340102,0.005492897085156734,-0.0069071886363114435,0.07889334795341722
5554,11.0,299.93851,-5622.4815,0.0,0.0,0.05554079025969649,0.0,0.0,0.0,0.41050565291875357,0.4326732447640246,0.8659150849541652,0.015488107357557184,-0.018661894433785582,0.07143906759123703
5555,11.0,300.38146,-5376.8249,0.0,0.0,0.0555507946800704,0.0,0.0,0.0,0.37647300372749265,0.42895877122243453,0.8289887454648192,0.009616417260316491,0.005420707271182155,0.09019258820506541
5556,11.0,300.264,-5201.068,0.0,0.0,0.055560799100444536,0.0,0.0,0.0,0.35224953756182265,0.4179715431005796,0.8107737206696363,0.017140165036102585,0.009245968869431081,0.09122872053207372
5557,11.0,300.40313,-5345.608,0.0,0.0,0.05557080352081867,0.0,0.0,0.0,0.4290187758933566,0.4059214662863296,0.7899911302535542,-0.004608886731436706,0.007243859727163293,0.08896424638708751
5558,11.0,300.23147,-5543.9523,0.0,0.0,0.0555807750319155,0.0,0.0,0.0,0.43723963872469257,0.42680298030967456,0.8211804578092011,-0.010227249003600891,-0.012357933605383089,0.08319451964740983
5559,11.0,300.19118,-5521.714,0.0,0.0,0.05559077945228963,0.0,0.0,0.0,0.43564099351191854,0.4309380742327766,0.8118841211892242,-0.002049768677946418,0.01265828322652529,0.1071325441406589
5560,11.0,299.14792,-5446.7228,0.0,0.0,0.05560078387266376,0.0,0.0,0.0,0.3947542038867066,0.41956602385544256,0.8413474987895332,-0.008442765616486093,0.008297529690877423,0.08578015557059222
5561,11.0,299.5972,-5328.4245,0.0,0.0,0.055610788293037894,0.0,0.0,0.0,0.3896628551817296,0.4151733516244196,0.8148717904340842,-0.005021220247005855,-0.004563254303908136,0.09594907987193692
5562,11.0,299.29304,-5503.977,0.0,0.0,0.055620792713412026,0.0,0.0,0.0,0.4041427665307856,0.4232477390212996,0.8456810580097222,-0.006384677547268614,-0.02432983412141768,0.06822957054173434
5563,11.0,300.31093,-5606.2667,0.0,0.0,0.05563079713378616,0.0,0.0,0.0,0.46016868802011357,0.4274697292729776,0.8165266608949072,0.00995240157025056,0.018446596012787284,0.07910599368565373
5564,11.0,299.985,-5532.2534,0.0,0.0,0.05564080155416029,0.0,0.0,0.0,0.4317191583373636,0.4293026379088716,0.8206450868538642,0.024604871741811776,0.0031458999003511475,0.05663052275774745
5565,11.0,300.05737,-5385.265,0.0,0.0,0.05565080597453442,0.0,0.0,0.0,0.4119819279169506,0.4127152778093266,0.8122888842066712,0.007588163124393393,-0.000974446218207854,0.07281117541290352
5566,11.0,299.97673,-5509.9592,0.0,0.0,0.05566077748563103,0.0,0.0,0.0,0.40337851251035955,0.42790602463353655,0.8436054557098762,0.011183699342745188,-0.02446416575342518,0.06660533671093494
5567,11.0,300.16704,-5761.7642,0.0,0.0,0.055670781906005384,0.0,0.0,0.0,0.4397023025627386,0.44276398972740355,0.8689661532577821,0.006479340843161154,-0.000998384160627845,0.08029840565508563
5568,11.0,300.16806,-5691.0519,0.0,0.0,0.05568078632637952,0.0,0.0,0.0,0.4491383866365076,0.42532137561595157,0.8554779097815962,0.001294628436869879,0.007720091225838682,0.06757673755530473
5569,11.0,300.16132000000005,-5445.2149,0.0,0.0,0.05569079074675365,0.0,0.0,0.0,0.44850878342187056,0.4159116563097846,0.7907889329847912,-0.022961175403091578,-0.0018511719623214482,0.08004055275638752
5570,11.0,299.67616,-5465.7794,0.0,0.0,0.05570079516712778,0.0,0.0,0.0,0.43617229120185363,0.4098787753468856,0.8154093905396412,-0.027922648750000872,-0.004031564384859426,0.06817138972099233
5571,11.0,300.15537,-5618.1941,0.0,0.0,0.055710799587501914,0.0,0.0,0.0,0.43903816778469357,0.4327293686870636,0.8360231937540652,-0.0025333066217678975,0.02410391177312088,0.08556378614423822
5572,11.0,301.06962000000004,-5617.1774,0.0,0.0,0.05572080400787627,0.0,0.0,0.0,0.39941109121380564,0.43438329682529364,0.8736872806412211,0.01005124776520592,0.008687212608411132,0.0904858957380126
5573,11.0,300.60224,-5501.4432,0.0,0.0,0.0557308084282504,0.0,0.0,0.0,0.39345089068057965,0.4335109492841996,0.8453395116660143,0.0042250878585587065,-0.016481453172592784,0.08052358427780902
5574,11.0,300.1843,-5295.9082,0.0,0.0,0.055740779939346785,0.0,0.0,0.0,0.37750906208724366,0.4285135187309916,0.8038012731540092,-0.0004741271099402025,-0.024174192826557077,0.08636990563229602
5575,11.0,300.25901,-5315.276999999999,0.0,0.0,0.05575078435972092,0.0,0.0,0.0,0.4146002269703566,0.4196485530760876,0.7814627156193652,0.008961461616252402,0.004949051508633355,0.08472554054850982
5576,11.0,299.93634,-5553.7701,0.0,0.0,0.05576078878009527,0.0,0.0,0.0,0.42638075899300465,0.4441140340281426,0.8177126296069532,0.015372821787679385,0.010007113630600221,0.08861219466634272
5577,11.0,299.99442,-5585.2206,0.0,0.0,0.055770793200469404,0.0,0.0,0.0,0.4225694896693616,0.4516688673037466,0.8235292323360073,-0.002717520758848417,-0.0017505976693205382,0.09071044411917381
5578,11.0,300.17188,-5410.2504,0.0,0.0,0.055780797620843536,0.0,0.0,0.0,0.3873421882126976,0.4204092505886626,0.8368295685811482,0.003642256572512737,-0.012702326168621988,0.0886051606841485
5579,11.0,299.68312000000003,-5351.6824,0.0,0.0,0.05579080204121767,0.0,0.0,0.0,0.39384357575683465,0.4226636611336556,0.8102705811999802,0.005177394106119015,0.005906091154035814,0.092226389885286
5580,11.0,299.3021,-5466.6501,0.0,0.0,0.0558008064615918,0.0,0.0,0.0,0.42510194617429564,0.4016713178143726,0.8349518641583331,0.01142333704439559,0.004487353562767316,0.06709267251878125
5581,11.0,300.6078,-5566.1597,0.0,0.0,0.05581077797268841,0.0,0.0,0.0,0.4578243211312426,0.4087438744398796,0.8254053662211672,-0.028192190501852572,-0.0027933048749027274,0.06961741008445343
5582,11.0,300.25392,-5620.4383,0.0,0.0,0.05582078239306254,0.0,0.0,0.0,0.4485889821672856,0.4220073993088876,0.8378765295119751,-0.00928213673042557,-0.004369728601058636,0.05631987142283854
5583,11.0,299.99018,-5590.6957,0.0,0.0,0.05583078681343667,0.0,0.0,0.0,0.43497895616158055,0.41598768046478757,0.8484652565020011,-0.014627586471630384,0.005022634642820445,0.07037378811185213
5584,11.0,300.06552,-5569.0894,0.0,0.0,0.055840791233810805,0.0,0.0,0.0,0.4068844794463716,0.42854936751952954,0.8574302603392783,0.013285146612891886,0.015573628705747484,0.06423752929425054
5585,11.0,300.49246,-5693.7959,0.0,0.0,0.05585079565418516,0.0,0.0,0.0,0.4303913650088206,0.44624557786600955,0.8541348366415452,0.004333535611461666,-0.0026244424900873074,0.07464241319938263
5586,11.0,300.67888,-5676.8464,0.0,0.0,0.05586080007455929,0.0,0.0,0.0,0.4383598373727476,0.4383905489832786,0.8488691683893642,0.007806800711096242,-0.014996334527522985,0.060920598349894946
5587,11.0,301.15893,-5409.2507,0.0,0.0,0.055870804494933424,0.0,0.0,0.0,0.4245217794320376,0.43760515856576654,0.7821502058122153,0.012262139927678987,-0.008294977719175561,0.08072368090755702
5588,11.0,300.14678,-5306.5098,0.0,0.0,0.055880808915307556,0.0,0.0,0.0,0.4026170246627066,0.40593568218523257,0.8044937688023532,0.0007463079122073564,-0.0020360476503922583,0.08109742428644262
5589,11.0,299.43111,-5382.251,0.0,0.0,0.05589078042640416,0.0,0.0,0.0,0.4109212577122706,0.40900335765798856,0.8161452938222692,-5.833854527906615e-05,0.0007300664148969453,0.08717163065467011
5590,11.0,299.97393,-5516.9942,0.0,0.0,0.055900784846778295,0.0,0.0,0.0,0.39371284622893266,0.4496410904086206,0.8336745509497723,-0.008152607670149732,-0.005511473201890055,0.1007651487897459
5591,11.0,300.46867000000003,-5464.4723,0.0,0.0,0.05591078926715243,0.0,0.0,0.0,0.4109145601291096,0.4166858503136916,0.8334627107513651,0.0059166096019989045,0.005456707337960084,0.1034651968612199
5592,11.0,299.54244,-5462.2601,0.0,0.0,0.05592079368752678,0.0,0.0,0.0,0.41232534877334365,0.43733941346203964,0.8107259155299182,-0.016382329955060088,0.013013570254839386,0.08969584133029032
5593,11.0,299.45405,-5469.0547,0.0,0.0,0.055930798107900914,0.0,0.0,0.0,0.42541453383014566,0.4201568601212536,0.8168846826852412,-0.009784447057524742,0.003063037523073267,0.07101903489478302
5594,11.0,299.64513999999997,-5571.2666,0.0,0.0,0.055940802528275047,0.0,0.0,0.0,0.4264196171343396,0.4319149486541866,0.8351913559519692,-0.016230190452545087,-0.00023122524335765477,0.07224830586310263
5595,11.0,300.36664,-5582.7914,0.0,0.0,0.05595080694864918,0.0,0.0,0.0,0.40077547300345956,0.4495999423220596,0.8466537578407202,0.01181268852782159,0.0017081256701788783,0.07870500907782962
5596,11.0,300.44052,-5534.3794,0.0,0.0,0.05596081136902331,0.0,0.0,0.0,0.40430417727171564,0.4248293514998926,0.8531796052422711,0.02003892766418818,0.012955989278156587,0.07850856014844163
5597,11.0,300.46996,-5445.0956,0.0,0.0,0.05597078288011992,0.0,0.0,0.0,0.4141807616939586,0.42090062622465757,0.8200917104442502,0.02165238861992438,0.005576744848156865,0.08582127629940052
5598,11.0,300.14851,-5449.9856,0.0,0.0,0.05598078730049405,0.0,0.0,0.0,0.43536017124670356,0.4101603372846736,0.8111390378606902,-0.001827841169493878,-0.0007046305341916193,0.07165726086777102
5599,11.0,299.8646,-5585.5678,0.0,0.0,0.055990791720868405,0.0,0.0,0.0,0.44995926107252154,0.4186942032044006,0.8292196854276112,-0.002919369601994347,-0.011297747734250888,0.062177552324196646
5600,11.0,300.20686,-5583.4152,0.0,0.0,0.05600079614124254,0.0,0.0,0.0,0.44498263254386655,0.42176025747699664,0.8304759331665933,-0.00963807649445409,0.004149685839117106,0.06919814340507503
5601,11.0,300.02263,-5569.1525,0.0,0.0,0.05601080056161667,0.0,0.0,0.0,0.4213554640620466,0.4212229714789706,0.8503048728535572,-0.0017238827224839786,-0.0040762958303990765,0.06410783429470064
5602,11.0,299.579,-5633.0108,0.0,0.0,0.05602080498199058,0.0,0.0,0.0,0.4258886943469416,0.42847361694205355,0.8579323156313271,-0.017844682896883086,-0.005881390143098015,0.07820068714530692
5603,11.0,299.28071,-5579.9271,0.0,0.0,0.056030809402364934,0.0,0.0,0.0,0.4211067314274986,0.4362659965711016,0.8387857796217113,0.0014684389272236389,0.0015941188219272785,0.0867213767607335
5604,11.0,300.11196,-5482.4647,0.0,0.0,0.05604078091346154,0.0,0.0,0.0,0.4333144395598056,0.4254142805176206,0.8078036414465123,0.0015939469747103185,0.017374449737474682,0.08450007010975762
5605,11.0,300.27547000000004,-5519.2943,0.0,0.0,0.05605078533383567,0.0,0.0,0.0,0.42707814863933163,0.43101955980581863,0.8196299318436762,0.009569417755753,0.003203825382067947,0.06912497864185423
5606,11.0,300.47887000000003,-5399.4137,0.0,0.0,0.056060789754209805,0.0,0.0,0.0,0.4036558491952306,0.4208034352750656,0.8168276772346151,-0.012917294270087688,-0.009093003770734602,0.08713680018248261
5607,11.0,300.56735,-5309.3893,0.0,0.0,0.05607079417458416,0.0,0.0,0.0,0.37338548881777867,0.41669705685979763,0.8238392260716012,0.007292339894097913,-0.02261646366607118,0.07530463800098913
5608,11.0,300.6896,-5387.9232,0.0,0.0,0.05608079859495829,0.0,0.0,0.0,0.38361936549028364,0.43404224697413457,0.8201324937607751,0.012679519935371187,0.01145122371364779,0.1110084486881809
5609,11.0,299.82175,-5487.8997,0.0,0.0,0.0560908030153322,0.0,0.0,0.0,0.4193869420327686,0.4139251997537366,0.8348723240254832,0.008778921064362052,-5.414941371488105e-05,0.08193105047496513
5610,11.0,299.56554,-5495.2696,0.0,0.0,0.056100807435706335,0.0,0.0,0.0,0.4366721984036906,0.4237166306375756,0.8100358922118182,-0.0030155427418608973,0.003303917266696247,0.09949009512890791
5611,11.0,299.66115,-5557.8189,0.0,0.0,0.05611081185608047,0.0,0.0,0.0,0.43349866869298753,0.43179267976461966,0.8241468082719573,-0.01950437642818208,-0.00988657091390358,0.07798240774251443
5612,11.0,299.67118,-5590.642,0.0,0.0,0.056120783367177296,0.0,0.0,0.0,0.4299952956772316,0.42202702596332464,0.8473932378962011,0.0037090048281502768,0.014527312201984086,0.08075862993000622
5613,11.0,299.98927000000003,-5489.8,0.0,0.0,0.05613078778755143,0.0,0.0,0.0,0.40168161243538864,0.42515571935710256,0.8419247777690062,0.009888419284736,-0.017347440542809085,0.07834571261886983
5614,11.0,300.43131,-5491.615,0.0,0.0,0.05614079220792556,0.0,0.0,0.0,0.4130533588376926,0.41587020424819365,0.8403902712875622,0.0038983728618644463,-0.002128188764135878,0.07945769076886351
5615,11.0,300.22041,-5586.4328,0.0,0.0,0.05615079662829969,0.0,0.0,0.0,0.4308388162529806,0.4262815618082146,0.8410156999117872,-0.005040626012921055,-0.018134600094995682,0.07576671652359272
5616,11.0,300.54047,-5495.3325,0.0,0.0,0.05616080104867405,0.0,0.0,0.0,0.44200560242505654,0.4173775150969536,0.8110607440254632,0.004995855354602535,0.021718298512429183,0.06806510687825304
5617,11.0,300.70473,-5477.8531,0.0,0.0,0.05617080546904796,0.0,0.0,0.0,0.42870819447270453,0.4147036899380676,0.8217186658648182,-0.004414870108913756,0.016730842393205585,0.07102322671044672
5618,11.0,300.20502,-5563.9355,0.0,0.0,0.05618080988942209,0.0,0.0,0.0,0.43360819089629665,0.4187959537794426,0.8388933158548242,-0.003744588449137106,0.0012424372414440088,0.058234367970034645
5619,11.0,300.28143,-5579.2334,0.0,0.0,0.05619081430979622,0.0,0.0,0.0,0.4072334934433166,0.4239420179898196,0.8647721388413652,0.0013852992233933888,-0.021473728309291982,0.07583411690699463
5620,11.0,300.41446,-5596.7632,0.0,0.0,0.05620078582089305,0.0,0.0,0.0,0.41958948059525764,0.4262903061565776,0.8553964748710592,0.008501329141790862,0.008008821806759173,0.07228220414519813
5621,11.0,300.48876,-5608.477,0.0,0.0,0.05621079024126718,0.0,0.0,0.0,0.44060158229149055,0.43010118031268163,0.8341342017251362,0.011024879482320888,-0.003718444164756866,0.07873762965154901
5622,11.0,300.44478,-5513.5686,0.0,0.0,0.056220794661641316,0.0,0.0,0.0,0.4422668284333376,0.41730722593751657,0.8164131160887013,-0.012511572718046088,0.003007597239876737,0.08661041472903241
5623,11.0,299.94051,-5367.3721,0.0,0.0,0.05623079908201545,0.0,0.0,0.0,0.41724023997340565,0.40634996975361964,0.8079568752591352,-0.021492836179677777,-0.004471960571223146,0.09476383766021261
5624,11.0,299.67217999999997,-5385.2108,0.0,0.0,0.05624080350238958,0.0,0.0,0.0,0.3881645217288556,0.43488340667715064,0.8139216962128172,-0.013364526652226089,0.02332370007686998,0.10095311478929671
5625,11.0,299.91188,-5342.7887,0.0,0.0,0.05625080792276371,0.0,0.0,0.0,0.38007399325788266,0.41359032059568657,0.8304100415125901,-0.0018229539602865482,0.0075513460740598325,0.08553063766721673
5626,11.0,299.25338,-5394.4593,0.0,0.0,0.056260812343137845,0.0,0.0,0.0,0.39163706154406863,0.4314318411390076,0.8167120147357002,-0.0003167502696458177,0.0006320114061496694,0.1013628447587339
5627,11.0,299.74437,-5438.3379,0.0,0.0,0.05627078385423445,0.0,0.0,0.0,0.42336915678078263,0.42089041266364957,0.8088593669907043,0.01889110680515708,-0.012793352504605589,0.08303630976354573
5628,11.0,299.7778,-5547.5649,0.0,0.0,0.056280788274608584,0.0,0.0,0.0,0.43140582087643964,0.4312864802796616,0.8236289057483442,0.006864631118861343,0.013768201439065686,0.08471627538959542
5629,11.0,299.64192,-5562.7748,0.0,0.0,0.05629079269498294,0.0,0.0,0.0,0.4378896791938465,0.4306855621753556,0.8223694156090422,0.01159067428516049,0.0006771209864941385,0.07255424051879603
5630,11.0,300.15384,-5534.1245,0.0,0.0,0.05630079711535707,0.0,0.0,0.0,0.4138428630506106,0.42526227273761863,0.8431305453880061,-0.016847174650436683,-0.007800147508289623,0.07237412011476953
5631,11.0,300.18832000000003,-5498.643,0.0,0.0,0.0563108015357312,0.0,0.0,0.0,0.4035331547406216,0.4171460482441096,0.8507709780320583,-0.0033353392668723563,-0.016271024431575087,0.07351095430296634
5632,11.0,300.0843,-5402.6531,0.0,0.0,0.056320805956105335,0.0,0.0,0.0,0.4052344320560246,0.41054593974272957,0.8264912764858382,0.0012873243221990188,0.0005087843264931036,0.07473624927789352
5633,11.0,300.49701,-5458.0181,0.0,0.0,0.05633081037647947,0.0,0.0,0.0,0.43030065885986857,0.41220675798163964,0.8165937988465333,0.012436733052409988,0.0005850785835752604,0.06788070853230435
5634,11.0,300.12761,-5655.5125,0.0,0.0,0.05634081479685382,0.0,0.0,0.0,0.4596614347550515,0.4301243229449656,0.8293488342853572,-0.004341948931016996,-0.006240671909931364,0.08247445447709492
5635,11.0,299.70962000000003,-5541.9143,0.0,0.0,0.05635078630795021,0.0,0.0,0.0,0.4336149594069646,0.42014768007534764,0.8308409261176152,-0.008638876221665702,0.011111099973080189,0.07545692847776903
5636,11.0,299.89366,-5341.2461,0.0,0.0,0.05636079072832434,0.0,0.0,0.0,0.3832245728538206,0.4299753143852596,0.8104055663783022,-0.01258695041948529,0.03781694377074176,0.09405444302670081
5637,11.0,299.36607000000004,-5571.8903,0.0,0.0,0.05637079514869847,0.0,0.0,0.0,0.4086212205152746,0.4342280973074766,0.8508662134089572,-0.00995403847578711,0.010653540545922591,0.07694987042686093
5638,11.0,299.49653,-5652.3555,0.0,0.0,0.056380799569072826,0.0,0.0,0.0,0.4478663017984626,0.4326196742312376,0.8376889363884612,-0.02010001752596728,-0.01041278725591209,0.09020947300473182
5639,11.0,299.16954,-5519.723000000001,0.0,0.0,0.05639080398944696,0.0,0.0,0.0,0.42620074498023863,0.4348038158817956,0.8168534036546542,-0.0017551381443436482,-0.02380527251814748,0.07495153959289103
5640,11.0,299.03141,-5411.9543,0.0,0.0,0.05640080840982109,0.0,0.0,0.0,0.4118077096947566,0.4289881960053386,0.8043030650010322,0.016117488670422283,-0.005905382182940845,0.09790334648555801
5641,11.0,299.78077,-5380.1335,0.0,0.0,0.05641081283019522,0.0,0.0,0.0,0.3906722650638506,0.41680781522822863,0.8279461719069252,0.004278571758462156,0.00041765728358206467,0.05821671512679245
5642,11.0,300.35921,-5502.7961,0.0,0.0,0.056420817250569355,0.0,0.0,0.0,0.3985739338486846,0.4413077365511826,0.8328309290490132,0.004603002788106005,-0.007713959340208513,0.10480045784299989
5643,11.0,300.51883,-5612.2346,0.0,0.0,0.05643078876166596,0.0,0.0,0.0,0.4209393931734836,0.4254638183150096,0.8595759795460441,0.0017179860122020184,0.0050758727282496354,0.07054813096380844
5644,11.0,300.25337,-5483.3812,0.0,0.0,0.056440793182040094,0.0,0.0,0.0,0.4209126535033446,0.4365518546893136,0.8093464565787762,0.024213593056695577,0.018017117798901083,0.09805023431280471
5645,11.0,299.67902000000004,-5390.9446,0.0,0.0,0.05645079760241423,0.0,0.0,0.0,0.4147771607028186,0.4145907024194166,0.8093446732586003,0.015285957883106585,-0.0004741124684762576,0.06557705504570144
5646,11.0,299.43836,-5574.2119,0.0,0.0,0.05646080202278836,0.0,0.0,0.0,0.4377614118636876,0.4315747094031076,0.8250851082620603,0.0076684680584188725,-0.013239420662379089,0.08716884523014523
5647,11.0,299.61674,-5732.7323,0.0,0.0,0.05647080644316271,0.0,0.0,0.0,0.43947821217062255,0.44620600031710356,0.8569232705192422,-0.01059242231314069,-0.014555415706757686,0.07033915522343413
5648,11.0,299.74528,-5559.9436,0.0,0.0,0.056480810863536846,0.0,0.0,0.0,0.41958620779743455,0.4229621443481136,0.8475356805952592,-0.0008326594871320933,0.003607113006044337,0.07761697909394942
5649,11.0,299.70529,-5393.473000000001,0.0,0.0,0.05649081528391098,0.0,0.0,0.0,0.38935164554601565,0.4204854875261866,0.8296439940394872,-0.014214816751893187,0.007859376941560112,0.07716023229337203
5650,11.0,299.92981000000003,-5495.4203,0.0,0.0,0.05650078679500736,0.0,0.0,0.0,0.44364462565431556,0.4082093546146266,0.8186165702861653,0.003984004350340616,-0.0092379755420422,0.07279567572612383
5651,11.0,300.1291,-5669.7848,0.0,0.0,0.05651079121538172,0.0,0.0,0.0,0.4565262768256356,0.42083928406360355,0.8461074336518022,-0.006125352902800265,0.0015661406561910485,0.07691576544174503
5652,11.0,300.70876,-5498.6599,0.0,0.0,0.05652079563575585,0.0,0.0,0.0,0.4283540838277566,0.4220685996149276,0.8210326347521122,0.012607339037997487,0.007469374343619853,0.08284391079480742
5653,11.0,300.05384,-5442.3799,0.0,0.0,0.05653080005612998,0.0,0.0,0.0,0.3983744856990006,0.4200550892812096,0.8359180183936852,0.0017350735632134283,-0.0031150831144597674,0.07225490820075423
5654,11.0,299.89576,-5448.6557,0.0,0.0,0.056540804476504336,0.0,0.0,0.0,0.3908560686319906,0.4185228626124906,0.8468763486226881,-0.0003925608416602386,-0.012894356314323886,0.08428204807249051
5655,11.0,299.45578,-5494.6259,0.0,0.0,0.05655080889687847,0.0,0.0,0.0,0.41778022121669756,0.4308674405683056,0.8215814312712741,-0.016586461346706282,0.0008674580824714473,0.08782518406192082
5656,11.0,299.92778,-5563.7593,0.0,0.0,0.0565608133172526,0.0,0.0,0.0,0.42908688656507854,0.4293268748512636,0.8328301285814342,-0.0037730197403180567,0.0029337096240345966,0.0908467840128795
5657,11.0,299.50233,-5481.8817,0.0,0.0,0.05657081773762673,0.0,0.0,0.0,0.4345651650857426,0.4313842487818106,0.8004057504788973,-0.00021674791579635378,0.01114775328219759,0.08749366382795233
5658,11.0,299.56937,-5306.0622,0.0,0.0,0.05658078924872312,0.0,0.0,0.0,0.39856111623491963,0.4176849757072976,0.7966643143521462,0.009382597944715321,-0.013913551152660589,0.09165612664950541
5659,11.0,299.46552,-5345.4666,0.0,0.0,0.05659079366909747,0.0,0.0,0.0,0.4035623667410046,0.4047777197059506,0.8165482633870393,0.0012986903538707588,0.004499057715997425,0.08664569711076452
5660,11.0,299.74568999999997,-5564.8546,0.0,0.0,0.056600798089471605,0.0,0.0,0.0,0.3984276610642486,0.4337862999988746,0.8593628727850122,0.0035358029971315867,-0.008184675009314532,0.08189472444563001
5661,11.0,299.63523,-5546.2514,0.0,0.0,0.05661080250984596,0.0,0.0,0.0,0.4238676656974816,0.4145439409273016,0.8475103189452562,-0.0032883603312858973,0.013648203242972787,0.07390486541184234
5662,11.0,300.43645,-5515.6904,0.0,0.0,0.05662080693022009,0.0,0.0,0.0,0.4243640265239686,0.4256378136221816,0.8266303247970612,-0.0044791024645529955,-0.004230222503440456,0.07856770963627922
5663,11.0,299.79902000000004,-5558.1774,0.0,0.0,0.05663081135059422,0.0,0.0,0.0,0.4516374768156486,0.42194300726503264,0.8159666679621402,0.008385559846315322,0.01242729462772849,0.07850981759181573
5664,11.0,300.1695,-5651.7315,0.0,0.0,0.056640815770968134,0.0,0.0,0.0,0.4449488913155366,0.4294046620614406,0.8436317090199673,0.008902704357528511,0.0009070022447866522,0.05772921922543035
5665,11.0,300.226,-5615.7715,0.0,0.0,0.05665082019134249,0.0,0.0,0.0,0.4135504694692536,0.43755136511795756,0.8559524857309332,0.0005472569261650536,0.009130574577817551,0.07543091530795172
5666,11.0,299.63447,-5600.8675,0.0,0.0,0.056660791702439095,0.0,0.0,0.0,0.4199482927206696,0.41534617156147563,0.8672294020563781,0.0013752132305729788,-0.022932058648217978,0.05495623133225774
5667,11.0,299.63816,-5594.7485,0.0,0.0,0.05667079612281323,0.0,0.0,0.0,0.42973533623157556,0.4233141676978556,0.8476143290680213,-0.003024928882837237,-0.0019431440659483882,0.07995656952184903
5668,11.0,300.43747,-5477.7747,0.0,0.0,0.05668080054318736,0.0,0.0,0.0,0.44421756792336065,0.4130606643709136,0.8078284964714653,0.016359855054591987,7.785544851823452e-05,0.07915894714912983
5669,11.0,299.8932,-5574.3391,0.0,0.0,0.056690804963561714,0.0,0.0,0.0,0.4460145973732136,0.4305772964021706,0.8178680013772872,-0.007908956079553192,0.013205547711536087,0.09596747948050281
5670,11.0,299.84556000000003,-5622.3278,0.0,0.0,0.056700809383935846,0.0,0.0,0.0,0.45121813312926257,0.4339324309282966,0.8238966976172732,-0.006879659948319573,-0.00962789454684921,0.07885829557945782
5671,11.0,299.98438,-5488.0772,0.0,0.0,0.056710813804309756,0.0,0.0,0.0,0.3882363611609456,0.44621632533562255,0.8337857348832451,-0.01109678882866779,-0.005788576332613005,0.09866614446559031
5672,11.0,299.73873,-5400.286,0.0,0.0,0.05672081822468389,0.0,0.0,0.0,0.3857026380933866,0.42302156133397756,0.8328279095637152,0.004424787395592516,-0.007557572090624292,0.07528871072266723
5673,11.0,299.49689,-5520.4906,0.0,0.0,0.05673082264505802,0.0,0.0,0.0,0.4032045374681897,0.4409085464092856,0.8339782017397401,0.0019103365475855384,0.00021791118770615977,0.08054486455640922
5674,11.0,299.76349,-5535.0356,0.0,0.0,0.05674079415615485,0.0,0.0,0.0,0.4269608142777516,0.4292266745488746,0.8263251136019393,0.006268449857447834,-0.012191893324746189,0.0884716710629741
5675,11.0,299.96841,-5506.2357,0.0,0.0,0.05675079857652898,0.0,0.0,0.0,0.4252035346293216,0.4306484772216956,0.8179061401110512,-0.003202569965194047,0.018331799842707785,0.08834349695182432
5676,11.0,300.05352,-5502.9536,0.0,0.0,0.056760802996903115,0.0,0.0,0.0,0.4199337728467366,0.42784113609713265,0.8249855767047372,0.01428116335519109,0.016279826535193786,0.0900623359179605
5677,11.0,300.11003,-5469.7488,0.0,0.0,0.05677080741727725,0.0,0.0,0.0,0.3971517968033306,0.4097538517420566,0.8557614070270751,-0.006473182917003414,0.018767064727915082,0.07894118247738813
5678,11.0,300.19936,-5587.7592,0.0,0.0,0.05678081183765138,0.0,0.0,0.0,0.4172684184586866,0.43119234934537154,0.8500784925162153,-0.017492740607149084,-0.01837796757026418,0.08201619489411822
5679,11.0,300.19582,-5707.8146,0.0,0.0,0.05679081625802551,0.0,0.0,0.0,0.44811021136253454,0.4368014181889436,0.8501214745854572,-0.01140039908863179,-0.013288602808982988,0.06568616485621974
5680,11.0,300.32321,-5669.2448,0.0,0.0,0.056800820678399644,0.0,0.0,0.0,0.45890278400767853,0.43429167875125163,0.8301143953984123,0.007186452016247592,-0.0060050408018263845,0.07767009569069162
5681,11.0,299.98028,-5588.2123,0.0,0.0,0.05681079218949625,0.0,0.0,0.0,0.43213188550059656,0.43711449220484155,0.8294306238334292,0.010613428000963791,0.005471142504184724,0.07336826639738414
5682,11.0,300.291,-5635.4693,0.0,0.0,0.056820796609870605,0.0,0.0,0.0,0.43372952759577155,0.42773958817211066,0.8515728236311942,0.01043336839194329,0.0023226256828003077,0.05707329481294565
5683,11.0,300.01462000000004,-5777.6966,0.0,0.0,0.05683080103024474,0.0,0.0,0.0,0.41955252736411064,0.45638647870933857,0.8803365013749481,-0.005605900207859275,0.018738055377552083,0.06507859375175713
5684,11.0,300.14274,-5582.883000000001,0.0,0.0,0.05684080545061887,0.0,0.0,0.0,0.4330177092680206,0.4075297475075546,0.8565095605034122,-0.0025552318340567475,0.020512504548926582,0.04998170529756025
5685,11.0,300.01406000000003,-5356.306,0.0,0.0,0.056850809870993,0.0,0.0,0.0,0.3988267802786386,0.40123959221176464,0.8281169146812762,-0.010969732332378291,-0.0062849707990033235,0.07020061556376134
5686,11.0,299.62425,-5424.5792,0.0,0.0,0.056860814291367134,0.0,0.0,0.0,0.4250598152351376,0.4042640221702526,0.8196127775194832,-0.014242068113332685,-0.025149211987033973,0.06902572775480893
5687,11.0,299.41308,-5692.871,0.0,0.0,0.05687081871174127,0.0,0.0,0.0,0.4351870979971226,0.4471682636720716,0.8481352612094332,-0.004142769292609496,0.0015451656698459786,0.09192638476917782
5688,11.0,300.17345,-5718.226,0.0,0.0,0.0568808231321154,0.0,0.0,0.0,0.4402105994754036,0.4480337211124856,0.8499535993088893,0.008431783606602253,0.01113538352497679,0.07930026210082652
5689,11.0,299.4323,-5594.2133,0.0,0.0,0.056890794643212006,0.0,0.0,0.0,0.4062726891684926,0.4479686805885666,0.8462597859368381,-0.0004328246344614655,0.007450759723382733,0.10482701512812091
5690,11.0,299.60696,-5405.2355,0.0,0.0,0.05690079906358614,0.0,0.0,0.0,0.4080409828455096,0.42522732574166966,0.8097883045498833,-0.01139546253414459,-0.004924044293515336,0.07748031698671193
5691,11.0,300.36323,-5384.2787,0.0,0.0,0.05691080348396049,0.0,0.0,0.0,0.4054687157441466,0.4297876705992406,0.8014298828849712,0.01038532108545139,-0.0016067720865260585,0.1104095266865719
5692,11.0,299.7252,-5650.8599,0.0,0.0,0.056920807904334625,0.0,0.0,0.0,0.44255528047180553,0.44393569187804155,0.8312293251459473,0.01236923134399809,0.01251692470507429,0.07817618574463883
5693,11.0,300.17251,-5520.7574,0.0,0.0,0.05693081232470876,0.0,0.0,0.0,0.4204625171464196,0.42596248935172454,0.8317473796570751,0.002298255295370138,-0.005186311618924105,0.09689315944061032
5694,11.0,300.73174,-5353.2026,0.0,0.0,0.05694081674508289,0.0,0.0,0.0,0.3854668851926196,0.42868331918274954,0.8130897165557073,0.001964878989868458,-0.016288817103331087,0.07085908120749683
5695,11.0,299.96012,-5457.7508,0.0,0.0,0.05695082116545702,0.0,0.0,0.0,0.39200450656033264,0.4143193844401396,0.8526960822945512,-0.005453778133245994,0.009614887353990501,0.0882898585312806
5696,11.0,299.98197000000005,-5808.6088,0.0,0.0,0.056960825585831376,0.0,0.0,0.0,0.4572759501771226,0.4539613456549966,0.8544347485386442,-0.009241152081105701,0.01872839809084898,0.06477978325751683
5697,11.0,299.58734,-5843.6341,0.0,0.0,0.05697079709692776,0.0,0.0,0.0,0.4680646319418825,0.4403449767036656,0.8679092523434742,-0.008210644204077492,-0.002180827106830878,0.07242368932291163
5698,11.0,299.25333,-5728.8527,0.0,0.0,0.05698080151730189,0.0,0.0,0.0,0.4584116718167095,0.4347213778536596,0.8482951216777102,-0.00984844221131557,-0.003100481775218727,0.051950366142101946
5699,11.0,299.64871,-5518.8926,0.0,0.0,0.056990805937676026,0.0,0.0,0.0,0.41933018989466764,0.4304230898694516,0.8278522638876572,0.03473473221205117,-0.0036017803720930467,0.08964591343161282
5700,11.0,299.88223999999997,-5552.8097,0.0,0.0,0.05700081035805038,0.0,0.0,0.0,0.42966223023686057,0.40644273280027465,0.8518105219721531,0.02219297072052568,0.018014193559112483,0.05564280453376724
5701,11.0,299.82167000000004,-5663.8591,0.0,0.0,0.05701081477842451,0.0,0.0,0.0,0.42889272758091657,0.4396546088805316,0.8531243831118211,0.005111153590106585,-0.01117432779257029,0.08808667047547751
5702,11.0,300.39586,-5580.3083,0.0,0.0,0.057020819198798645,0.0,0.0,0.0,0.4525605172592456,0.40782847390203664,0.8358853816079642,-0.029469843149197074,-0.01318716228847159,0.054044338666260947
5703,11.0,299.75246,-5421.1862,0.0,0.0,0.05703082361917278,0.0,0.0,0.0,0.4129625716287326,0.4155268847168106,0.8194157713025403,-0.015449025287950086,-0.003145325488869457,0.10253020006644291
5704,11.0,300.01997,-5424.8977,0.0,0.0,0.057040795130269384,0.0,0.0,0.0,0.4106539116733856,0.43796794263157063,0.8004115867994732,0.005771630332640563,0.003750390015234676,0.07789970018985183
5705,11.0,299.92011,-5687.7188,0.0,0.0,0.057050799550643516,0.0,0.0,0.0,0.4191584338702166,0.4529515507378376,0.8568145183860092,0.010814922915849791,-0.018948862060857084,0.1041996005336999
5706,11.0,300.12924,-5772.829000000001,0.0,0.0,0.05706080397101765,0.0,0.0,0.0,0.4330971582083616,0.4542667291026356,0.8674319912813722,0.004541057033967436,-0.010555788255775191,0.07602624027170572
5707,11.0,300.086,-5577.8244,0.0,0.0,0.05707080839139178,0.0,0.0,0.0,0.4075760226396216,0.45366460523071056,0.8342787114543981,0.015286204102880886,-0.004041206067510986,0.095457948429216
5708,11.0,299.8904,-5386.3706,0.0,0.0,0.05708081281176591,0.0,0.0,0.0,0.42556073568707464,0.4044915880102116,0.8072698511613312,0.005988814716049994,0.02468012481348868,0.07772467744707842
5709,11.0,299.48517999999996,-5430.9499,0.0,0.0,0.05709081723214027,0.0,0.0,0.0,0.41718756110070665,0.41750750495228256,0.8161781028605072,0.006570348028717863,-0.0018211465247581684,0.07932457301047582
5710,11.0,299.90001,-5625.581,0.0,0.0,0.0571008216525144,0.0,0.0,0.0,0.4404475682762906,0.4254308268917536,0.8441577479418831,-0.003450375779875577,-0.0007970465021573652,0.07916699944767452
5711,11.0,299.62547,-5767.9829,0.0,0.0,0.05711082607288853,0.0,0.0,0.0,0.4297849753539746,0.4423948424509716,0.8811429572620392,-0.003101047979374607,-0.0074810291515700926,0.07664566640233833
5712,11.0,299.76591,-5570.2136,0.0,0.0,0.05712079758398492,0.0,0.0,0.0,0.4049303151710106,0.4501099820248966,0.8381655388379982,0.0047954199953461054,-0.004945572717065026,0.1019625368304189
5713,11.0,299.54165,-5427.7835,0.0,0.0,0.05713080200435927,0.0,0.0,0.0,0.40329855694496863,0.4089450147172306,0.8376670704513032,0.0010077907185937001,-0.01877958849915108,0.06991656508372773
5714,11.0,299.76678,-5557.2313,0.0,0.0,0.057140806424733404,0.0,0.0,0.0,0.44526328255656455,0.4215253455738126,0.8224709128715592,-0.016017347136539087,0.004082620334873256,0.0858327260255305
5715,11.0,300.0455,-5702.8481,0.0,0.0,0.057150810845107536,0.0,0.0,0.0,0.4471666830019156,0.4441506326217546,0.8422060965267703,-0.005939046606913264,0.005822990865634454,0.07421291472049443
5716,11.0,299.88976,-5628.3706,0.0,0.0,0.05716081526548189,0.0,0.0,0.0,0.4489055316310266,0.4324326079977756,0.8295459722248132,-0.0007256932983928523,0.02808757445552777,0.06973967390776993
5717,11.0,300.01899,-5466.1295,0.0,0.0,0.05717081968585602,0.0,0.0,0.0,0.39481943692814464,0.43395298977282554,0.8327944621779142,0.016530270549160682,-0.001094705174213989,0.07326960522189703
5718,11.0,300.62913,-5465.7052,0.0,0.0,0.057180824106230155,0.0,0.0,0.0,0.4067407499196866,0.41170687104480463,0.8429902913091641,0.0037804329820246866,-0.0066006683220602436,0.05290421546823955
5719,11.0,300.74798,-5727.8843,0.0,0.0,0.05719082852660429,0.0,0.0,0.0,0.43652932000708955,0.44054755579615856,0.8640569261257793,-0.008731364778868612,-0.012217960196818789,0.08517984237659591
5720,11.0,299.88506,-5763.7578,0.0,0.0,0.05720080003770067,0.0,0.0,0.0,0.4677668478699935,0.4466783673812226,0.8375932146515142,-0.01230378045378859,0.01183094932112379,0.07240401099271954
5721,11.0,299.38149,-5487.6099,0.0,0.0,0.057210804458075026,0.0,0.0,0.0,0.4150624514009746,0.4241847116537716,0.8288492209260492,-0.013061604389079986,-0.0037367862207170867,0.1069652970791529
5722,11.0,299.25448,-5368.9827,0.0,0.0,0.05722080887844916,0.0,0.0,0.0,0.4073915199289126,0.4193531906719376,0.8052919768336302,-0.001066279658558609,0.008775804509704473,0.07714792333115722
5723,11.0,299.42536,-5487.2467,0.0,0.0,0.05723081329882351,0.0,0.0,0.0,0.38123416462238263,0.4427088081269576,0.8440429872355572,0.007514196576368462,-0.005087366936059026,0.11912765213698388
5724,11.0,299.5121,-5592.2325,0.0,0.0,0.057240817719197645,0.0,0.0,0.0,0.41787630772368056,0.44113902027703156,0.8408837139537613,0.0034766648576951063,0.012906802065302187,0.08070091317781002
5725,11.0,300.04584,-5513.6947,0.0,0.0,0.057250822139571556,0.0,0.0,0.0,0.4062332636071016,0.4379120720210566,0.8318801660826801,-0.0051236725990671155,-0.014869059169211885,0.0915673629009951
5726,11.0,300.19192999999996,-5428.6684,0.0,0.0,0.05726082655994569,0.0,0.0,0.0,0.42012168007778156,0.42193687710192757,0.8081210623053393,-0.011835335680806688,-0.022395919649305183,0.07200741578432863
5727,11.0,300.07421,-5482.064,0.0,0.0,0.057270798071042295,0.0,0.0,0.0,0.4135742301840986,0.4325913336259406,0.8202449949193782,-0.0033541816657319573,-0.005474532028419245,0.09210537438609272
5728,11.0,299.93433999999996,-5834.8994,0.0,0.0,0.05728080249141665,0.0,0.0,0.0,0.45730542562253157,0.4604356996864656,0.8559226049854842,0.0004286334470128276,0.021093496076765982,0.07851094533917703
5729,11.0,299.68692999999996,-5824.6121,0.0,0.0,0.05729080691179078,0.0,0.0,0.0,0.4428557293914576,0.4391030360560956,0.8885778521233062,0.006193024330603914,0.01069328528109509,0.062465423770357346
5730,11.0,299.59308,-5532.8006,0.0,0.0,0.057300811332164914,0.0,0.0,0.0,0.4221402363969976,0.4168680428141726,0.8428249390253453,-0.006735741653140942,0.00970588410307118,0.05932240605991565
5731,11.0,300.22239,-5380.6803,0.0,0.0,0.05731081575253927,0.0,0.0,0.0,0.40881255253165766,0.3953833714038006,0.8313965316774493,-0.002356195570538398,-0.005875717361088154,0.06675549328300423
5732,11.0,300.31534,-5580.9666,0.0,0.0,0.0573208201729134,0.0,0.0,0.0,0.44414504961370355,0.41817335212299656,0.8341560879272962,-0.009082650381212802,0.005381861998123426,0.06728308551732352
5733,11.0,300.11916,-5701.9297,0.0,0.0,0.05733082459328731,0.0,0.0,0.0,0.4448632007545795,0.4341009445524276,0.8542800961758812,-0.016209725840275385,-0.016181785468767883,0.08620254508677883
5734,11.0,299.96367999999995,-5663.635,0.0,0.0,0.05734082901366144,0.0,0.0,0.0,0.4456024984250425,0.4268067496000466,0.8491943608764582,-0.008839312391522212,-0.008659202221321721,0.06995469064524043
5735,11.0,300.02054,-5378.3592,0.0,0.0,0.05735080052475827,0.0,0.0,0.0,0.38616413298393265,0.42067121626951653,0.8280515397848243,0.008017257316491692,0.008541112076492132,0.0918693114307951
5736,11.0,299.75413,-5327.5053,0.0,0.0,0.057360804945132404,0.0,0.0,0.0,0.38502568570157664,0.42151676334546556,0.8128861242131142,0.014087788626606488,0.027396449734569076,0.06631778342530564
5737,11.0,299.62928,-5566.5503,0.0,0.0,0.05737080936550654,0.0,0.0,0.0,0.42054396218945767,0.4181292250811416,0.8534191173009092,0.006171466218826294,-0.0011382762457391189,0.08258161175467052
5738,11.0,299.57902,-5690.2229,0.0,0.0,0.05738081378588067,0.0,0.0,0.0,0.44478088431645557,0.4452820276834146,0.8396227647343152,-0.015569562533096184,-0.009131130953447461,0.07779384392540463
5739,11.0,299.30134,-5522.9324,0.0,0.0,0.0573908182062548,0.0,0.0,0.0,0.4119872170824726,0.4482779447840886,0.8185683598464072,0.0007039854181179514,-0.00948825216709258,0.11557886525174589
5740,11.0,298.68005,-5353.0566,0.0,0.0,0.05740082262662893,0.0,0.0,0.0,0.40289995448812965,0.42255416932784956,0.8017414167607172,0.0038503694291018766,0.002725141514175528,0.0990094295464699
5741,11.0,299.54469,-5503.5827,0.0,0.0,0.057410827047003066,0.0,0.0,0.0,0.3993562642508946,0.4445918625103006,0.8290035895787842,-0.0013974284350404488,-0.0017805287732995084,0.1001746053532138
5742,11.0,299.72117000000003,-5641.894,0.0,0.0,0.0574208314673772,0.0,0.0,0.0,0.43953380920360957,0.4264460021669436,0.8490150764037642,-0.006813320843072414,-0.010924575828421688,0.1001653726183026
5743,11.0,299.38422,-5537.0532,0.0,0.0,0.057430802978473805,0.0,0.0,0.0,0.4039623269529776,0.43784365737430464,0.8413199282543122,0.010471098785916991,-0.004776046349459075,0.07567884038217002
5744,11.0,299.8169,-5350.3972,0.0,0.0,0.05744080739884816,0.0,0.0,0.0,0.40103561483413364,0.4219696962726666,0.8033818281426133,0.0030267138242133975,-0.0007678463871980384,0.10605160893397889
5745,11.0,300.20807,-5539.3795,0.0,0.0,0.05745081181922229,0.0,0.0,0.0,0.41753062731956464,0.41906223590572256,0.8472401864685963,-0.001091404410688229,-0.008228188224258953,0.05099056599812705
5746,11.0,299.67901,-5804.7409,0.0,0.0,0.057460816239596424,0.0,0.0,0.0,0.4686357706257495,0.4500741838988636,0.8457863245626113,-0.0068808014758822336,-0.0017356978266000382,0.08856066583250723
5747,11.0,300.07237000000003,-5886.1777,0.0,0.0,0.057470820659970556,0.0,0.0,0.0,0.4462153323505246,0.4492667350266745,0.8937689856981312,-0.00010015368072539871,-0.0003693404930935686,0.05071453843238525
5748,11.0,299.91868999999997,-5731.0797,0.0,0.0,0.05748082508034469,0.0,0.0,0.0,0.45774767889367857,0.43088031897707657,0.8534771157366331,0.014142228527979289,0.018168000871292084,0.07742622969637392
5749,11.0,299.1088,-5613.6653,0.0,0.0,0.05749082950071882,0.0,0.0,0.0,0.4205640346739386,0.42858700976074454,0.8572630234102733,-0.005815142433009874,0.0021734504434528577,0.04455126940686796
5750,11.0,300.70937000000004,-5648.1312,0.0,0.0,0.05750083392109295,0.0,0.0,0.0,0.4545177111524056,0.4125114929492146,0.8498616468623141,0.01129601406332979,-0.006299856152247394,0.07195010737192273
5751,11.0,300.50227,-5784.4942,0.0,0.0,0.05751080543218956,0.0,0.0,0.0,0.43554617356756054,0.4547168147970556,0.8680788197477093,0.004601136381421805,-0.005405459377052305,0.07438904393237702
5752,11.0,300.75007999999997,-5472.26,0.0,0.0,0.05752080985256369,0.0,0.0,0.0,0.42199964794562256,0.4254473631333856,0.8159833764562893,0.02603464362666927,0.003024315461226697,0.09321029119613951
5753,11.0,300.5473,-5253.7451,0.0,0.0,0.05753081427293805,0.0,0.0,0.0,0.3814806985042137,0.40202839728211365,0.8134982387310252,0.01157033936890359,-0.007985635199420832,0.09753349297380631
5754,11.0,299.84755,-5434.7477,0.0,0.0,0.05754081869331218,0.0,0.0,0.0,0.41932437383909354,0.42629380186942256,0.8064094194414133,0.003608379568669337,-0.0024191952061059776,0.09951009364613159
5755,11.0,299.76332,-5595.646,0.0,0.0,0.05755082311368631,0.0,0.0,0.0,0.4065392651373016,0.4450173464922926,0.8493800389572832,-0.008347227075157173,0.01024447324205079,0.1009589490833725
5756,11.0,300.10885,-5615.8171,0.0,0.0,0.05756082753406022,0.0,0.0,0.0,0.4230444810512396,0.4512922118440736,0.8327314785516983,-0.013602351649447588,0.02029826193453248,0.093187234690114
5757,11.0,300.13896,-5646.359,0.0,0.0,0.057570831954434576,0.0,0.0,0.0,0.4128497968926026,0.4497949727013076,0.8537073869543591,-0.013380422519794885,0.006572299041785415,0.07409692291529693
5758,11.0,300.26302999999996,-5515.3523,0.0,0.0,0.05758080346553118,0.0,0.0,0.0,0.4177284441365876,0.42774241513988964,0.8310585114440892,0.006634074671232193,-0.014545797936808486,0.07570398519665163
5759,11.0,299.46202999999997,-5607.1474,0.0,0.0,0.057590807885905315,0.0,0.0,0.0,0.4259652453919966,0.4403872494978376,0.8380803042395861,0.011103563418836388,-0.0037977867138373664,0.07904626664525913
5760,11.0,299.18192999999997,-5758.9605,0.0,0.0,0.05760081230627945,0.0,0.0,0.0,0.45217591791878853,0.44680018030824453,0.8516040823967792,0.022619752675895777,-0.009135055271084762,0.0928763604401831
5761,11.0,300.26524,-5551.4499,0.0,0.0,0.05761081672665358,0.0,0.0,0.0,0.4300306783707236,0.4152323329127406,0.8422391386125311,-0.005433817106275995,0.005180194020120345,0.07908717357829634
5762,11.0,300.48381,-5382.3853,0.0,0.0,0.057620821147027934,0.0,0.0,0.0,0.4109523644903406,0.4099871728425836,0.8151711957061333,-0.006183479919961954,0.004803013899545566,0.09292581920406431
5763,11.0,300.39791,-5487.643,0.0,0.0,0.057630825567402066,0.0,0.0,0.0,0.4162052961887646,0.4066412183623636,0.845259920870659,-0.01075577444126229,0.006306738653551644,0.07860790324124602
5764,11.0,300.38625,-5724.6307,0.0,0.0,0.0576408299877762,0.0,0.0,0.0,0.43763833237404054,0.4386241335288316,0.8638823127360462,-0.004161800763937756,0.015716869845884284,0.07585339196364692
5765,11.0,299.73245,-5726.1959,0.0,0.0,0.05765083440815033,0.0,0.0,0.0,0.44540310093786356,0.43522857032371565,0.8599888992267962,-0.006799281756311863,-0.006156925877241274,0.06130975123630134
5766,11.0,299.71123,-5636.4497,0.0,0.0,0.05766080591924694,0.0,0.0,0.0,0.4359874135886076,0.42972735182078764,0.8476252215065962,0.0016121953050362886,-0.016629928762746184,0.06675812165376363
5767,11.0,299.67711,-5629.2307,0.0,0.0,0.05767081033962107,0.0,0.0,0.0,0.4392352246641416,0.43821457783841156,0.8336957785393672,0.00952497214806656,0.007773212280881322,0.07376079138012333
5768,11.0,299.85289,-5714.0932,0.0,0.0,0.0576808147599952,0.0,0.0,0.0,0.4354374113018266,0.44515282816316354,0.8563514022953032,0.01406136407724859,0.017235582798019587,0.06339201970855524
5769,11.0,299.51869,-5716.6851,0.0,0.0,0.057690819180369335,0.0,0.0,0.0,0.4353774978234136,0.4379471811370216,0.8644048458126161,0.0053663798405704545,0.013165542571087886,0.08122300751708672
5770,11.0,299.44901,-5607.3649,0.0,0.0,0.05770082360074347,0.0,0.0,0.0,0.4187621213586036,0.44338550720624265,0.8423512851335992,-0.01007142532372229,-0.0013546628973448189,0.08506315649507992
5771,11.0,299.77122,-5394.8579,0.0,0.0,0.05771082802111782,0.0,0.0,0.0,0.38917698149377766,0.41965641589686353,0.8310686844750933,0.0072785539172123435,-0.0001154614802276609,0.10691886995957091
5772,11.0,299.9658,-5391.0083,0.0,0.0,0.057720832441491954,0.0,0.0,0.0,0.3997927926589766,0.4260763280004595,0.8128627789308103,0.0086762894683581,-0.01182228603276879,0.1075991559442099
5773,11.0,299.71329,-5643.4888,0.0,0.0,0.057730836861866086,0.0,0.0,0.0,0.4343209515466406,0.4324747490694346,0.8486839766685872,0.012307402822896088,-0.008681708532542921,0.1015233233095719
5774,11.0,299.43755,-5673.9771,0.0,0.0,0.05774080837296247,0.0,0.0,0.0,0.44949237569144357,0.43319118781764154,0.8420637956827262,-0.003660712315134176,-0.023697977438558275,0.08875745724042901
5775,11.0,299.50743,-5480.3099,0.0,0.0,0.057750812793336825,0.0,0.0,0.0,0.3970810922113526,0.4300111226437936,0.8387851716716511,0.00015161360544809784,-0.0006458647641668894,0.08395031606925112
5776,11.0,299.28174,-5508.3245,0.0,0.0,0.05776081721371096,0.0,0.0,0.0,0.39899740146297763,0.4352504767908776,0.8401452268833782,0.0036807723366389464,0.0017187828320806586,0.08006997956579172
5777,11.0,300.35301,-5680.2815,0.0,0.0,0.05777082163408509,0.0,0.0,0.0,0.4127876947939736,0.44516166370403554,0.8687144011379362,0.0037219127224991863,0.01036001009795339,0.056279199563824545
5778,11.0,300.58346,-5791.0436,0.0,0.0,0.057780826054459444,0.0,0.0,0.0,0.45904388921660455,0.4460531414070176,0.8552356214176842,0.0010457907282865088,-0.007052532067755723,0.07685477183872542
5779,11.0,300.10122,-5779.267,0.0,0.0,0.05779083047483358,0.0,0.0,0.0,0.47174214211982457,0.43834738452901856,0.8466633431866661,-0.019541405653086583,0.005103037456805585,0.06668148042944973
5780,11.0,300.22265,-5511.8775,0.0,0.0,0.05780083489520771,0.0,0.0,0.0,0.44458902541002054,0.4213904819855026,0.8094936311558013,0.0003781556575060576,0.007095780824424043,0.08952164235984822
5781,11.0,300.45974,-5464.3877,0.0,0.0,0.057810806406304094,0.0,0.0,0.0,0.4253335852796566,0.40061128595725565,0.8350925438022171,-0.009743828394140992,0.012483138893739887,0.06192429350145195
5782,11.0,299.92329,-5707.8159,0.0,0.0,0.057820810826678226,0.0,0.0,0.0,0.4346769671017766,0.43710632540903555,0.8632502270586642,-0.011895279556722689,-0.011666256663119889,0.08779803706524161
5783,11.0,299.69639,-5707.1872,0.0,0.0,0.05783081524705258,0.0,0.0,0.0,0.4108259007453596,0.4470104702339986,0.8770060293562563,-0.0065302579779112834,-0.004889884491569026,0.07883004312691952
5784,11.0,299.52786000000003,-5455.2213,0.0,0.0,0.057840819667426935,0.0,0.0,0.0,0.4052284133504306,0.4196824868219366,0.8333401378867682,0.012178528555927187,0.007572133913111433,0.09108569014795773
5785,11.0,299.65825,-5392.6511,0.0,0.0,0.05785082408780107,0.0,0.0,0.0,0.39664687401349863,0.4281880729313726,0.8143963329571602,0.01038494618291439,0.003515088821362257,0.08095941050357172
5786,11.0,300.32948,-5591.0166,0.0,0.0,0.0578608285081752,0.0,0.0,0.0,0.4504058915841006,0.4271918049030486,0.8219317320958462,0.007220683151000942,-0.015331132625564986,0.08637841288013562
5787,11.0,300.59796,-5809.1209,0.0,0.0,0.05787083292854911,0.0,0.0,0.0,0.44410205741196057,0.46841462879142454,0.8533110237802412,-0.003877272131181966,0.008058441170781222,0.07773017027587052
5788,11.0,300.92123,-5661.3429,0.0,0.0,0.05788083734892324,0.0,0.0,0.0,0.4139850321721416,0.4621016044408776,0.8448202412547661,-0.004350485968409535,0.011700229925722788,0.08762781408819192
5789,11.0,300.63451000000003,-5502.2847,0.0,0.0,0.05789080886001985,0.0,0.0,0.0,0.38224219648436764,0.43754274235960655,0.8527721976420631,-0.005446511812803865,0.015416427005732886,0.07673595407899902
5790,11.0,299.82525,-5562.1298,0.0,0.0,0.0579008132803942,0.0,0.0,0.0,0.41324121540623265,0.4449863511717335,0.8325209961084252,-0.008244991153317272,-0.013670453201918686,0.08099649241748143
5791,11.0,299.95029,-5681.6155,0.0,0.0,0.057910817700768336,0.0,0.0,0.0,0.4398511388699276,0.4487370484043986,0.8384810750516393,-0.013175412640311988,0.001807169144928708,0.089809261506734
5792,11.0,299.92856,-5672.2214,0.0,0.0,0.05792082212114247,0.0,0.0,0.0,0.45151941291399655,0.4344703046113806,0.8382239628387642,0.005128591421677565,0.0036287949369841763,0.09232971403773331
5793,11.0,299.949,-5488.9192,0.0,0.0,0.05793082654151682,0.0,0.0,0.0,0.4185434113245186,0.43028238996056556,0.8196685772024902,-7.661631153369123e-05,0.008297299480454701,0.08229664428329642
5794,11.0,300.13052999999996,-5477.394,0.0,0.0,0.057940830961890954,0.0,0.0,0.0,0.3947360565774156,0.42429449730210655,0.8459604617247971,0.002254665377393148,-0.013096580769281886,0.08610132545478923
5795,11.0,300.28423,-5744.5371,0.0,0.0,0.057950835382264865,0.0,0.0,0.0,0.43083902903550153,0.4468698412526195,0.8684869872854922,-0.0021299821154878683,0.004777604525462855,0.07734919938402163
5796,11.0,299.93262000000004,-5865.4603,0.0,0.0,0.057960839802639,0.0,0.0,0.0,0.4446822646842226,0.46004290315269963,0.8782282926868842,0.008694270098007653,0.012819534887189588,0.062447705065858644
5797,11.0,300.27701,-5667.5594,0.0,0.0,0.057970811313735826,0.0,0.0,0.0,0.4545677758398466,0.4166350054236736,0.8515937371132581,-0.010985132720648189,0.010595326287927292,0.054174106619818044
5798,11.0,300.24182,-5608.394,0.0,0.0,0.05798081573410996,0.0,0.0,0.0,0.44273400765694454,0.4284602623057356,0.8336174644391382,-0.015840899764125085,-0.025621124101858076,0.05820267046715635
5799,11.0,300.55183,-5650.156999999999,0.0,0.0,0.05799082015448409,0.0,0.0,0.0,0.45353748287316453,0.4250746188190986,0.8388945317549442,-0.01218360392567809,-0.01035821157902589,0.07298379776619003
5800,11.0,300.18532999999996,-5846.9806,0.0,0.0,0.05800082457485822,0.0,0.0,0.0,0.4336990692977656,0.45505662848309253,0.8885804156460592,0.0034788536805611266,0.012962887484837387,0.07044929246955384
5801,11.0,300.62518,-5785.2929,0.0,0.0,0.058010828995232355,0.0,0.0,0.0,0.43952054575980054,0.45724262438133356,0.8618214228276521,0.005532945795359235,0.015675225266774284,0.09372311632350142
5802,11.0,300.69413,-5620.2955,0.0,0.0,0.05802083341560649,0.0,0.0,0.0,0.4160761777285216,0.43126218254226356,0.8610911430830793,-0.002185544191346418,-0.0023657576117320977,0.07125951359401643
5803,11.0,299.90441,-5425.7455,0.0,0.0,0.05803083783598062,0.0,0.0,0.0,0.4121604119220656,0.4284436956666006,0.8086870334136963,0.003987097600245896,0.007960854344375152,0.10623180533176291
5804,11.0,299.42444,-5434.0187,0.0,0.0,0.05804080934707745,0.0,0.0,0.0,0.4182827122062896,0.42600893673630863,0.8075143382779602,0.007669930684938222,0.008811971661423893,0.08283075475550902
5805,11.0,300.05214,-5644.4006,0.0,0.0,0.05805081376745136,0.0,0.0,0.0,0.4255269944587446,0.44915310916046053,0.8410767380978111,0.003964989394988986,0.002879094329069487,0.10613636730484391
5806,11.0,299.45367999999996,-5652.3614,0.0,0.0,0.05806081818782571,0.0,0.0,0.0,0.41698971388618056,0.44473401136682955,0.8564529907503293,-0.01242052713031059,-0.03263566506638937,0.08151748332739922
5807,11.0,300.22288,-5457.3321,0.0,0.0,0.058070822608199846,0.0,0.0,0.0,0.39141179578183666,0.44432236838120354,0.8231585145219202,0.0011783705521961189,-0.023755209857206677,0.12107861454202888
5808,11.0,300.31131,-5503.999,0.0,0.0,0.05808082702857398,0.0,0.0,0.0,0.4069501887153566,0.4261796997756616,0.8399483625214492,0.006537151827616654,-0.004556596034851016,0.06709701429545974
5809,11.0,300.32988,-5667.0186,0.0,0.0,0.05809083144894811,0.0,0.0,0.0,0.43169527603250657,0.4471511802753856,0.8437856926376641,0.01888137757769688,0.013231372416834789,0.08218956705247872
5810,11.0,299.89142999999996,-5794.5207,0.0,0.0,0.05810083586932224,0.0,0.0,0.0,0.4604467035825515,0.43440449401738557,0.8665384161506832,0.0014398084310730285,-0.013943630495129186,0.060862849173695534
5811,11.0,300.80575,-5660.5517,0.0,0.0,0.058110840289696375,0.0,0.0,0.0,0.43678462863478656,0.4333207926379326,0.85056095155133,-3.847478525241566e-05,-0.0004575620717403605,0.08810521599205783
5812,11.0,300.48056,-5502.844,0.0,0.0,0.05812081180079298,0.0,0.0,0.0,0.41339186543110057,0.4129651250189846,0.8463701896677341,0.0037835707136093565,-0.004500763927840816,0.06835043405341264
5813,11.0,300.42087000000004,-5562.1198,0.0,0.0,0.058130816221167114,0.0,0.0,0.0,0.4214356729399626,0.4150437670691306,0.8542661031920001,-0.0022571462189379878,0.002075357498621838,0.07848607410222243
5814,11.0,300.18716,-5825.9735,0.0,0.0,0.058140820641541247,0.0,0.0,0.0,0.4562365987545466,0.4443364626900946,0.8703774079970622,-0.004038930611761416,-0.015860063363266383,0.06574016602029924
5815,11.0,300.58237,-5754.3054,0.0,0.0,0.0581508250619156,0.0,0.0,0.0,0.47212183732979757,0.4250525907619246,0.8519907285024382,-0.0025212962643575676,-0.01025178688127259,0.06727330968035873
5816,11.0,300.039,-5490.613,0.0,0.0,0.05816082948228973,0.0,0.0,0.0,0.4310130952701806,0.4139318669393946,0.8240642891838132,-0.002999797240606937,0.010885253618540888,0.06444599536982454
5817,11.0,300.20846,-5452.6064,0.0,0.0,0.058170833902663865,0.0,0.0,0.0,0.4091046624029866,0.4233973048685606,0.8249542368791442,-0.00036212963796191267,-0.0006376701343806424,0.08444265226634091
5818,11.0,300.00423,-5731.3072,0.0,0.0,0.058180838323037776,0.0,0.0,0.0,0.4400314061952186,0.4344134106182656,0.8677294612457301,-0.003993348036137766,-0.013928164245602788,0.08271671750975443
5819,11.0,299.91699,-5789.0399,0.0,0.0,0.05819084274341213,0.0,0.0,0.0,0.4457384056609555,0.4553882348433196,0.8585969266369191,-0.01116564221271309,-0.0025061327739610475,0.10305605660334091
5820,11.0,299.59993,-5508.2872,0.0,0.0,0.05820081425450874,0.0,0.0,0.0,0.4131374383309906,0.43163413652147253,0.8296101920161513,0.008809426174522671,0.006639783626270624,0.08163978666746963
5821,11.0,300.02022,-5368.1865,0.0,0.0,0.05821081867488287,0.0,0.0,0.0,0.3934321252887276,0.41612485426332557,0.8222376626985393,0.01069885207714449,0.01057770789518849,0.08600947939947472
5822,11.0,299.81176,-5542.2583,0.0,0.0,0.058220823095257,0.0,0.0,0.0,0.40297402307043967,0.4414187988946436,0.8403153009126633,0.0006251564956456423,0.004808898754801355,0.07114790308225134
5823,11.0,299.98359,-5791.6838,0.0,0.0,0.058230827515631134,0.0,0.0,0.0,0.4272536638216536,0.46691985184640156,0.8663537310549562,-0.004712950759107026,-0.011831649476942888,0.1069518917803299
5824,11.0,300.10741,-5731.1138,0.0,0.0,0.05824083193600549,0.0,0.0,0.0,0.42342740852903155,0.4409399368973836,0.8777481641269992,-0.006900187483420483,0.004391835894390456,0.07682436622972463
5825,11.0,299.8688,-5493.4865,0.0,0.0,0.05825083635637962,0.0,0.0,0.0,0.4086037926135546,0.4452526636955166,0.8160262774655231,0.00010696345296397091,0.001001088737927266,0.10643940001225091
5826,11.0,299.50279,-5406.8433,0.0,0.0,0.05826084077675375,0.0,0.0,0.0,0.4253594839522126,0.4059755738416696,0.8122102965289152,0.006569750920433933,-0.001084565377813269,0.07709813222124322
5827,11.0,300.18639,-5769.81,0.0,0.0,0.05827081228785036,0.0,0.0,0.0,0.4612601306303305,0.45208888986769963,0.8405291372137672,-0.0009601598072303951,-0.0063909206877597645,0.09035259356810672
5828,11.0,300.68228,-5943.2476,0.0,0.0,0.05828081670822449,0.0,0.0,0.0,0.47281384661809356,0.44730594409565955,0.8864790767936731,3.6952627249940364e-05,0.005394578286878425,0.05477633789625365
5829,11.0,300.50305,-5680.8597,0.0,0.0,0.058290821128598624,0.0,0.0,0.0,0.4266194300540596,0.42652083068682856,0.8736992268599003,-0.005511588509751434,0.005536921687426625,0.06328024910327434
5830,11.0,300.34752000000003,-5546.6417,0.0,0.0,0.05830082554897276,0.0,0.0,0.0,0.4010712508401506,0.43250425491234656,0.8524650815367532,-0.002325713258505028,-0.004091369648161747,0.06589964449328853
5831,11.0,300.13505,-5648.8795,0.0,0.0,0.05831082996934689,0.0,0.0,0.0,0.44494043067720157,0.4189182733315146,0.8532596114701672,0.0013247009905628087,-0.010100784954644861,0.07789141991003462
5832,11.0,299.63437999999996,-5798.6637,0.0,0.0,0.05832083438972102,0.0,0.0,0.0,0.46063336451597353,0.43277569448163555,0.8692399233023012,0.008191408562854082,0.0056500821678696946,0.06750934122490324
5833,11.0,299.67182,-5697.1001,0.0,0.0,0.058330838810095376,0.0,0.0,0.0,0.4562581708491755,0.43629929196938755,0.8392187211244392,-0.001313603774142599,0.0025740816296420774,0.07755246849983273
5834,11.0,299.59897,-5588.5871,0.0,0.0,0.05834084323046951,0.0,0.0,0.0,0.41897580567219256,0.42271146627337364,0.8571036695670462,-0.012136713750800388,0.005694670542495224,0.05863503745707765
5835,11.0,299.45905,-5535.1743,0.0,0.0,0.058350814741566115,0.0,0.0,0.0,0.4027105577794376,0.45063481517919357,0.8292093806740942,-0.007838607948960371,-0.00048617729821196366,0.10553162924766091
5836,11.0,299.90072999999995,-5693.335999999999,0.0,0.0,0.058360819161940025,0.0,0.0,0.0,0.40238063341437663,0.4612898999182686,0.8669614379349322,-0.01024628898622999,0.002208168039579218,0.09053974187482683
5837,11.0,300.03547000000003,-5810.2463,0.0,0.0,0.05837082358231438,0.0,0.0,0.0,0.44538755768132954,0.4621461975777786,0.8586360380907793,-0.0036778331007488664,-0.009825779150303901,0.1096834215324109
5838,11.0,299.41136,-5720.4966,0.0,0.0,0.05838082800268851,0.0,0.0,0.0,0.4349547090866876,0.46390763155161857,0.8400257748290891,-0.005187406435657155,-0.01107593918136009,0.093638647742165
5839,11.0,300.00925,-5390.5985,0.0,0.0,0.058390832423062866,0.0,0.0,0.0,0.41361446634556964,0.4178386046874596,0.8071542697224242,0.007123239091533963,-0.01008704092631343,0.1043611024671389
5840,11.0,300.42768,-5471.6435,0.0,0.0,0.058400836843437,0.0,0.0,0.0,0.4040752030141176,0.4191718189040376,0.8399959650111471,0.00032735166226209367,0.007832902540297294,0.06976096533212123
5841,11.0,299.97475,-5690.6497,0.0,0.0,0.05841084126381113,0.0,0.0,0.0,0.4284192459416876,0.43809497379660756,0.8633012036711952,0.007253076452722914,0.0067195094878639535,0.08930889732910192
5842,11.0,300.55838,-5661.2616,0.0,0.0,0.05842084568418526,0.0,0.0,0.0,0.41945225613421466,0.4298225669326846,0.8716073416309472,-0.005004455010851255,0.009354895889631341,0.07323718628494753
5843,11.0,300.48275,-5658.1216,0.0,0.0,0.05843081719528165,0.0,0.0,0.0,0.4324477054242656,0.4497907474483906,0.8376892403634912,0.0007312765293588743,0.00920852350271051,0.10140199674259791
5844,11.0,300.38034,-5725.0771,0.0,0.0,0.05844082161565578,0.0,0.0,0.0,0.4509181807021595,0.4359730963646946,0.8533891858929551,1.2062703936996188e-06,0.0028871061989351973,0.06941638430436373
5845,11.0,300.33659,-5719.4969,0.0,0.0,0.058450826036030135,0.0,0.0,0.0,0.45540261286223854,0.4373407610846726,0.8458408779479952,0.006053339698318115,-0.007780767276276942,0.07394205371701253
5846,11.0,299.31342,-5894.4022,0.0,0.0,0.05846083045640449,0.0,0.0,0.0,0.45256471211465954,0.4559572862319805,0.8832290770979232,-0.016555112401862384,-0.01081602634520869,0.07006431620005964
5847,11.0,299.69221,-5750.4025,0.0,0.0,0.05847083487677862,0.0,0.0,0.0,0.43564381034719657,0.4249620669979906,0.8873728849718852,-0.0007569880444889033,0.0010837171861545589,0.06637143501810064
5848,11.0,300.62905,-5479.5959,0.0,0.0,0.05848083929715253,0.0,0.0,0.0,0.3998538815075056,0.41961741590051455,0.8461890306823552,-0.005842221744582395,0.00994737848420482,0.07849997690684453
5849,11.0,300.06003,-5568.409000000001,0.0,0.0,0.058490843717526664,0.0,0.0,0.0,0.43553182594614454,0.4125755708855386,0.8445498858630841,0.013077652244163789,-0.0033296442946853066,0.07120652871978723
5850,11.0,300.09648,-5845.7848,0.0,0.0,0.05850081522862349,0.0,0.0,0.0,0.46847827103020556,0.4364722942914616,0.872022044631875,0.009146249962164591,-0.01063240313558649,0.08555688692430732
5851,11.0,299.69608999999997,-5812.9915,0.0,0.0,0.0585108196489974,0.0,0.0,0.0,0.4606240122175506,0.4475930890414986,0.8587871542106932,0.017675985874483983,-0.00019380628193469085,0.07633226713315823
5852,11.0,299.84164,-5480.4224,0.0,0.0,0.05852082406937176,0.0,0.0,0.0,0.4026445344029216,0.4213589597748916,0.8419080591423561,0.0003076631387739877,0.009061184373869272,0.1014664901114629
5853,11.0,299.75493,-5494.9862,0.0,0.0,0.05853082848974589,0.0,0.0,0.0,0.39599550618671364,0.43806002680065853,0.8362830620072121,-0.0023293210368110877,0.0006764496779053853,0.08610661158056092
5854,11.0,299.45276,-5726.6473,0.0,0.0,0.05854083291012002,0.0,0.0,0.0,0.42472736787732757,0.4624228452525816,0.8536075514220062,-0.014023989334059987,0.007137099947601924,0.099643512339799
5855,11.0,299.45965,-5779.6522,0.0,0.0,0.058550837330494376,0.0,0.0,0.0,0.4400455612991156,0.46134439250864656,0.8554800173418042,0.0004316710593551166,-0.0034311595930540868,0.08523025562207132
5856,11.0,300.44735,-5541.1565,0.0,0.0,0.05856084175086829,0.0,0.0,0.0,0.42736120005476663,0.4354891174544296,0.8215228958129972,-0.005955357299073005,0.0018158521916606582,0.1007820964109185
5857,11.0,300.33015,-5443.1437,0.0,0.0,0.05857084617124242,0.0,0.0,0.0,0.39614944927440665,0.42226264714157863,0.8361676528208222,-0.002948805327999427,-0.014252113474824087,0.07641392191896693
5858,11.0,300.99719,-5448.0564,0.0,0.0,0.058580817682339026,0.0,0.0,0.0,0.39819393466368164,0.4204765607928056,0.8374026020427022,0.01040192521484009,-9.258704713913011e-05,0.09207985061607372
5859,11.0,300.17747,-5739.8396,0.0,0.0,0.05859082210271338,0.0,0.0,0.0,0.4311295886341776,0.43905424806378057,0.8745840880397292,0.008349715313427743,0.0060940173328576834,0.08413508425148633
5860,11.0,300.08763999999996,-5870.6114,0.0,0.0,0.05860082652308751,0.0,0.0,0.0,0.4597484830711426,0.4456041601552066,0.8791666332069911,0.006643104553473373,0.012844568244160188,0.08299094858306892
5861,11.0,299.88947,-5624.25,0.0,0.0,0.058610830943461645,0.0,0.0,0.0,0.45034451902554357,0.4207297010652886,0.8385573525191673,-0.003927247956589197,0.002361771181863668,0.07519088547851263
5862,11.0,300.02092999999996,-5584.4302,0.0,0.0,0.05862083536383578,0.0,0.0,0.0,0.44454784692595656,0.4161384520796676,0.8368410385722802,0.002291370868890698,-0.0007535646270385384,0.08200562264257483
5863,11.0,299.47253,-5872.6911,0.0,0.0,0.05863083978420991,0.0,0.0,0.0,0.4662705611823216,0.4478770219845206,0.8710038701363892,0.007454808873432353,-0.006457489902104634,0.07249988978343203
5864,11.0,299.93574,-5879.8068,0.0,0.0,0.05864084420458404,0.0,0.0,0.0,0.4521781977315135,0.45453592938920356,0.8806003111709841,0.0029221767100713874,-0.009775792280470581,0.07688168578788163
5865,11.0,299.60167,-5605.0214,0.0,0.0,0.058650848624958174,0.0,0.0,0.0,0.4154173726460026,0.42813787652141855,0.8602313091807201,-0.014621201982750286,-0.0026645201792426672,0.06968130563575944
5866,11.0,299.7446,-5429.7891,0.0,0.0,0.058660820136055,0.0,0.0,0.0,0.3912687046027146,0.4205590190859436,0.8386925707450122,-0.016171036911707085,0.006116798437506004,0.08151969727886772
5867,11.0,299.90956,-5516.840999999999,0.0,0.0,0.05867082455642891,0.0,0.0,0.0,0.43005931281854953,0.41482300013734263,0.8320996056568373,0.011059662331753688,0.003743122782867457,0.06623981180361044
5868,11.0,300.315,-5720.2427,0.0,0.0,0.05868082897680327,0.0,0.0,0.0,0.4466577072116835,0.43027249050708855,0.8618807486210072,-0.004228465325117036,0.010749918868934389,0.08799819955624612
5869,11.0,300.26695,-5736.4905,0.0,0.0,0.0586908333971774,0.0,0.0,0.0,0.44884645915019655,0.43996534228869855,0.8549380805258192,-0.01055235029818589,-0.004474292465003285,0.08196310565512872
5870,11.0,299.95447,-5596.9166,0.0,0.0,0.05870083781755153,0.0,0.0,0.0,0.41356512106569965,0.4306810836099136,0.8570766867168831,-0.0019009110925053184,-0.01170821433651079,0.1013598455384379
5871,11.0,299.71291,-5586.5864,0.0,0.0,0.058710842237925664,0.0,0.0,0.0,0.4186264471702136,0.4415347248385846,0.8380215863962911,0.008605183629340502,-0.007323105206884213,0.1015719795793739
5872,11.0,300.00965,-5780.0535,0.0,0.0,0.0587208466582998,0.0,0.0,0.0,0.4382835700377206,0.46390113661847754,0.8548072395404062,-0.0002572925916578018,-0.001071382994012269,0.10487401980025991
5873,11.0,300.6007,-5828.0446,0.0,0.0,0.05873085107867393,0.0,0.0,0.0,0.46048497403882854,0.45565438524708657,0.8554406728404211,0.0029597731523818673,0.0009494335416717952,0.08315887756189222
5874,11.0,299.85752,-5584.3043,0.0,0.0,0.058740822589770536,0.0,0.0,0.0,0.40047526726383165,0.4463030291466795,0.8507107808436173,-0.0019014005936286282,0.01213680190355909,0.08311824420638202
5875,11.0,299.26389,-5371.0012,0.0,0.0,0.05875082701014467,0.0,0.0,0.0,0.3873047790190056,0.4244892034413226,0.8208562684397062,0.005462327937589795,0.01060156486879299,0.08628712107262583
5876,11.0,299.21616,-5591.6419,0.0,0.0,0.0587608314305188,0.0,0.0,0.0,0.40661774135754664,0.43783866205131156,0.8552631007603961,0.004402007709494336,-0.004034476364321816,0.07251719710839014
5877,11.0,299.9501,-5826.641,0.0,0.0,0.058770835850893155,0.0,0.0,0.0,0.45132700685250754,0.4452223675175266,0.8746040085366951,-0.007551453478570432,-0.011418689266186888,0.08163535471153222
5878,11.0,300.10825,-5849.6976,0.0,0.0,0.05878084027126729,0.0,0.0,0.0,0.45264230680731754,0.45380451480451856,0.8717151818390902,-0.018854852716579083,-0.016263884058120383,0.07499879960405523
5879,11.0,300.16118,-5758.4042,0.0,0.0,0.05879084469164142,0.0,0.0,0.0,0.4564473547753466,0.4295744017181926,0.8643893430860863,-0.009119631375412541,0.005063288769957696,0.07742973351521973
5880,11.0,299.73777,-5718.1442,0.0,0.0,0.05880084911201533,0.0,0.0,0.0,0.4456256106598236,0.42926329340748853,0.8632841506720123,-0.013316484411984688,0.008137087718368033,0.07883044336070902
5881,11.0,299.95272,-5820.6727,0.0,0.0,0.05881082062311216,0.0,0.0,0.0,0.45757769605690257,0.4378028132627736,0.8739586594155041,0.001189115461556559,0.012651785253633988,0.06838062181364193
5882,11.0,300.46017,-5864.2562,0.0,0.0,0.05882082504348629,0.0,0.0,0.0,0.4510023209904636,0.4503238993860086,0.8812612339462123,0.0005079197303152745,-0.002118715078350898,0.0910482596760136
5883,11.0,300.26566,-5665.1372,0.0,0.0,0.05883082946386042,0.0,0.0,0.0,0.4330848674846486,0.4336052626035076,0.8553701303684591,0.006527264330490834,-0.007656077934871062,0.06737184622608354
5884,11.0,299.65824,-5371.5809,0.0,0.0,0.058840833884234556,0.0,0.0,0.0,0.4122520401286086,0.4145386010992746,0.8060358239970422,-0.0003084675884258807,-0.011876321647351688,0.09191145148920402
5885,11.0,300.22328,-5453.0441,0.0,0.0,0.05885083830460869,0.0,0.0,0.0,0.4188006349949046,0.4242125962965236,0.8145760024648923,0.0056958363880602846,-0.007889238941882263,0.06897881427517893
5886,11.0,299.93275,-5730.5824,0.0,0.0,0.05886084272498304,0.0,0.0,0.0,0.4297701515050116,0.45440196759348256,0.8577818479914773,-0.007123870751646304,0.003907386126803986,0.09616846675708872
5887,11.0,299.89642000000003,-5738.6047,0.0,0.0,0.05887084714535695,0.0,0.0,0.0,0.4161109220744506,0.45273576899654155,0.8755458447696471,-0.01220510002654959,0.02126712256090158,0.07405930397883423
5888,11.0,300.1405,-5542.1446,0.0,0.0,0.05888085156573131,0.0,0.0,0.0,0.38588496231638064,0.4513211097369256,0.8474674989960302,-0.01013833934707619,0.0036342045779430665,0.10772070542620589
5889,11.0,299.38151,-5634.5366,0.0,0.0,0.058890823076827914,0.0,0.0,0.0,0.4319771824753286,0.43401183933863363,0.8467694102071341,-0.012525764298946689,-0.0011847425780999888,0.08473657990834932
5890,11.0,298.80575,-5775.8523,0.0,0.0,0.058900827497202046,0.0,0.0,0.0,0.4573548215649066,0.45138486343321754,0.8469751911699431,0.01160870811044029,-0.0068798425359875934,0.1124345576739269
5891,11.0,299.40221,-5795.2119999999995,0.0,0.0,0.05891083191757618,0.0,0.0,0.0,0.46102473236709857,0.4494158753088936,0.8511591237478652,0.009393741466665101,0.0059818717237147745,0.08904204575626572
5892,11.0,298.84369,-5749.3333,0.0,0.0,0.05892083633795031,0.0,0.0,0.0,0.44133996803686354,0.44519947819776756,0.861114336377868,0.0089827773586061,0.005381857945123025,0.08940547120938301
5893,11.0,299.46533,-5599.3586,0.0,0.0,0.05893084075832444,0.0,0.0,0.0,0.4154058925223696,0.43569900208014356,0.8509603139457442,-0.00013722871669341987,0.004758297956732446,0.06636678116039134
5894,11.0,300.37022,-5557.9528,0.0,0.0,0.0589408451786988,0.0,0.0,0.0,0.4009047029212136,0.44526372838660855,0.8433104580757622,-0.009675557020953131,0.005305710173607825,0.08379899932581732
5895,11.0,300.51046,-5913.2449,0.0,0.0,0.05895084959907293,0.0,0.0,0.0,0.45362600040190054,0.4635028381366686,0.8803499674687771,-0.007940537666620054,0.0026261856855593476,0.06308105629261554
5896,11.0,300.13094,-6024.5667,0.0,0.0,0.05896085401944706,0.0,0.0,0.0,0.48921399862916254,0.4663270093453926,0.8757768556599461,-0.004190964938916036,-0.013747358884508688,0.07170274161175963
5897,11.0,300.02531,-5732.205,0.0,0.0,0.05897082553054367,0.0,0.0,0.0,0.44863251139158156,0.43758305958108556,0.8562316158684812,-0.006979128177511323,0.0015858711687632982,0.06274736567693286
5898,11.0,300.00543999999996,-5581.081999999999,0.0,0.0,0.05898082995091758,0.0,0.0,0.0,0.4256934207876696,0.4207866051909046,0.8500295322713832,0.0024182808492157377,0.0042818980558904365,0.07507564854463963
5899,11.0,299.72389,-5799.1919,0.0,0.0,0.058990834371291934,0.0,0.0,0.0,0.4264955095668296,0.44125495635347356,0.8950590759904532,0.0031337737284543874,0.013687152576816788,0.06474135777397454
5900,11.0,299.51616,-5858.1313,0.0,0.0,0.059000838791666066,0.0,0.0,0.0,0.4436712032044386,0.44792421917417863,0.8891302152828202,0.0040143630458617865,0.013470962495730487,0.08232921216801062
5901,11.0,299.76578,-5734.3149,0.0,0.0,0.05901084321204042,0.0,0.0,0.0,0.45189723361128453,0.4341122118935396,0.8570791083846221,-0.013450747142985386,0.006781802786786822,0.07718502449681883
5902,11.0,299.34022000000004,-5586.7138,0.0,0.0,0.05902084763241455,0.0,0.0,0.0,0.43894775547827064,0.44241426645538856,0.8168594730227533,-0.0020278811585612883,-0.007390301217740943,0.0993090070710359
5903,11.0,299.55836,-5520.0942,0.0,0.0,0.05903085205278846,0.0,0.0,0.0,0.42278306252543957,0.44064961034623057,0.8145381271761543,-0.010221022581736391,0.00037397624402358165,0.0963973538751781
5904,11.0,299.65501,-5692.741,0.0,0.0,0.05904082356388529,0.0,0.0,0.0,0.4162989812930106,0.46029332791491456,0.8538588070493031,0.007305964764217583,-0.01287987393064459,0.096757816585003
5905,11.0,299.88257000000004,-5842.8336,0.0,0.0,0.0590508279842592,0.0,0.0,0.0,0.4353611034367956,0.45524215457640255,0.8854722608318081,-0.004913567591456365,-0.005495621309375595,0.08775378438037422
5906,11.0,300.06279,-5643.9693,0.0,0.0,0.059060832404633334,0.0,0.0,0.0,0.4106354502565636,0.4426594628470876,0.8623308343154271,0.0013125581000393988,0.002024874440214548,0.07738995230304363
5907,11.0,300.10184,-5293.3676,0.0,0.0,0.05907083682500769,0.0,0.0,0.0,0.39101290961496965,0.4014863490086176,0.8165523163874393,0.004073104700534136,0.015035793526167286,0.0891341826143589
5908,11.0,300.15509,-5571.1385,0.0,0.0,0.05908084124538204,0.0,0.0,0.0,0.4238443102826766,0.43253009278989657,0.8371125794665794,0.0006682193310531134,0.0030449865738667774,0.07728914506384472
5909,11.0,300.32589,-5965.1117,0.0,0.0,0.059090845665756175,0.0,0.0,0.0,0.4793859083567056,0.44276468886997256,0.8910944107341712,0.002055040516891708,-0.0027766440035084275,0.06901771902601853
5910,11.0,300.14963,-5825.8892,0.0,0.0,0.05910085008613031,0.0,0.0,0.0,0.4442760831166356,0.45081579177955455,0.8758329491854822,-0.01125629263290959,-0.007464049005069283,0.08784255015538472
5911,11.0,300.09852,-5630.6429,0.0,0.0,0.05911085450650422,0.0,0.0,0.0,0.4136883120128576,0.4350615765747346,0.8628249659916942,-0.003344405423467117,0.004339704683370506,0.08349230777229921
5912,11.0,299.57076,-5701.916,0.0,0.0,0.059120826017600825,0.0,0.0,0.0,0.43659520152859155,0.42806624987184966,0.8685786256245361,-0.00045726026506557455,0.002369849115635898,0.06863702677794714
5913,11.0,299.86724,-5776.5604,0.0,0.0,0.05913083043797496,0.0,0.0,0.0,0.4595903957905406,0.4406262042689206,0.8557135309598501,0.008155889384573612,0.0075777879499944415,0.06190514611431224
5914,11.0,300.32746000000003,-5872.1766,0.0,0.0,0.05914083485834931,0.0,0.0,0.0,0.4852759413205065,0.4455657782414185,0.8541533385883712,0.007527669053673093,-0.007113479061270723,0.06534841110763603
5915,11.0,299.54862,-5818.3187,0.0,0.0,0.059150839278723444,0.0,0.0,0.0,0.45577574221156353,0.4498966827463456,0.8629511662916493,0.0008439019934841422,-0.009176969678696393,0.06988628207798903
5916,11.0,299.61222000000004,-5490.3106,0.0,0.0,0.059160843699097576,0.0,0.0,0.0,0.3841074885934576,0.4385960563685606,0.8462137742497972,-0.006496823865686593,-0.022069020849042775,0.08409384801216663
5917,11.0,300.17924,-5514.7435,0.0,0.0,0.05917084811947193,0.0,0.0,0.0,0.38695684919966766,0.4272391844777246,0.8621482973099122,-0.006464204001242264,-0.013860824657206885,0.07720615988065473
5918,11.0,300.15526,-5884.1505,0.0,0.0,0.05918085253984584,0.0,0.0,0.0,0.4371546878363086,0.4673525096391016,0.8841276171541022,-0.01025408087949899,-0.0039538918745937466,0.08778764821196632
5919,11.0,299.99327999999997,-5828.6854,0.0,0.0,0.05919085696021997,0.0,0.0,0.0,0.4523087550068986,0.44366215488104555,0.8758039094376161,-0.023780874468989577,0.00869596394819982,0.08167666694460943
5920,11.0,300.15426,-5535.3988,0.0,0.0,0.05920082847131658,0.0,0.0,0.0,0.41883611901340656,0.43957431894260757,0.8242125783359482,-0.005718296191101895,0.007290410361932483,0.1011852291089546
5921,11.0,300.07624,-5495.1067,0.0,0.0,0.059210832891690934,0.0,0.0,0.0,0.4094867286181936,0.4371717712329946,0.8237167140020102,-0.0012556340133964288,0.007352399989800383,0.09269394907768051
5922,11.0,300.24259,-5729.2704,0.0,0.0,0.05922083731206507,0.0,0.0,0.0,0.43276807484088353,0.44669507587537155,0.8620919910018553,0.025658902118586478,-0.0047281738286094254,0.1055240197394099
5923,11.0,300.24922000000004,-5800.3995,0.0,0.0,0.0592308417324392,0.0,0.0,0.0,0.4335833156063416,0.45299436055456255,0.8765989459960801,0.01772032975186038,-0.009760313061342901,0.08369750105005022
5924,11.0,300.50941,-5634.6638,0.0,0.0,0.05924084615281333,0.0,0.0,0.0,0.4311335099120646,0.43680377906167656,0.8448598086711713,-0.002959175942772927,-0.014190054945949385,0.08385097702944712
5925,11.0,299.47665,-5589.6278,0.0,0.0,0.059250850573187464,0.0,0.0,0.0,0.4258996374480216,0.4296520065433516,0.8435556544674612,0.0023671167854162375,-0.004515131814258815,0.061975743301779636
5926,11.0,299.08146,-5627.0938,0.0,0.0,0.059260854993561596,0.0,0.0,0.0,0.4539899294403175,0.4270291073344916,0.8294769597605022,-0.016019789069280085,0.0052961119593855546,0.07046191655254974
5927,11.0,299.10652000000005,-5848.6807,0.0,0.0,0.0592708265046582,0.0,0.0,0.0,0.4431382944468446,0.4534321757902716,0.8812824210058032,-0.013792376573201587,0.004908534068934595,0.08210034024867273
5928,11.0,299.59403,-5943.4552,0.0,0.0,0.059280830925032335,0.0,0.0,0.0,0.4637888583748966,0.4558827211571216,0.8869903931916361,-0.00977969572515582,-0.01047058101511589,0.08129165217161143
5929,11.0,299.75187,-5783.3197,0.0,0.0,0.05929083534540647,0.0,0.0,0.0,0.42249725506973257,0.4426927075828686,0.8927948166544881,0.004358612132886526,-0.0015111232022612486,0.08284058328147902
5930,11.0,299.68725,-5594.7593,0.0,0.0,0.05930083976578082,0.0,0.0,0.0,0.43461648620330756,0.4284198234942446,0.8376308366277273,0.025267571757715178,-0.007630881849934402,0.08127892271060512
5931,11.0,299.31882,-5764.4388,0.0,0.0,0.059310844186154954,0.0,0.0,0.0,0.4528154712494076,0.4369588164594776,0.8624711694542772,0.015466190757894186,-0.007973482480371451,0.07809190664107113
5932,11.0,300.43399,-5781.5657,0.0,0.0,0.059320848606529086,0.0,0.0,0.0,0.4680096631239576,0.43466860778845157,0.8547733463245613,0.0062193773445047545,0.005688090395020814,0.07444190316359384
5933,11.0,300.55223,-5661.3247,0.0,0.0,0.05933085302690322,0.0,0.0,0.0,0.41848822972407257,0.43929821842285854,0.8631148872428073,-0.012613598897115288,0.011697719091974989,0.07980614443850322
5934,11.0,300.18137,-5614.7613,0.0,0.0,0.05934085744727713,0.0,0.0,0.0,0.4079634692128596,0.4400071489878246,0.8587766366746551,-0.008105254136001303,0.012734378309035288,0.08740176913663301
5935,11.0,299.76117,-5673.8526,0.0,0.0,0.05935082895837418,0.0,0.0,0.0,0.4038599380303726,0.4491904170291426,0.8716591491085602,-0.0058519614085186245,0.0032291420437665073,0.08224728279142482
5936,11.0,299.63542,-5829.7605,0.0,0.0,0.05936083337874809,0.0,0.0,0.0,0.43676868007821257,0.4645443072519535,0.8707886355501473,-0.005576245113207545,-0.018379558372921184,0.086280293793452
5937,11.0,299.38068,-5853.1186,0.0,0.0,0.05937083779912222,0.0,0.0,0.0,0.4551087703332386,0.4613671805033956,0.8627259511919222,-0.006435794494938463,-0.01326412876606759,0.07238500039434334
5938,11.0,299.60479,-5650.6799,0.0,0.0,0.059380842219496355,0.0,0.0,0.0,0.4486828192590466,0.4341679710465426,0.8348148119498071,-0.00994811319185233,0.006784077127961284,0.08285630993628113
5939,11.0,299.05444,-5529.1628,0.0,0.0,0.05939084663987071,0.0,0.0,0.0,0.40329328804444864,0.43531022814927456,0.8421239118111592,-0.008139520633183142,0.007103443528305294,0.09109172607880342
5940,11.0,299.33517,-5652.0382,0.0,0.0,0.05940085106024484,0.0,0.0,0.0,0.41433690353436864,0.4447813200139986,0.8589602679902781,-0.006242862556647563,-0.005069627865233316,0.0915729965715511
5941,11.0,300.02252000000004,-5834.3742,0.0,0.0,0.059410855480618974,0.0,0.0,0.0,0.4287573168375526,0.45452120686525055,0.8902255386409201,0.003505244184715666,-0.0069028950903377035,0.09197933215315332
5942,11.0,299.72988,-5775.6384,0.0,0.0,0.059420859900992884,0.0,0.0,0.0,0.46003549629446855,0.44298239578645865,0.8526319536957222,0.006792825630649693,-0.004172118993681086,0.08581879890290602
5943,11.0,300.10147,-5555.6927,0.0,0.0,0.05943083141208971,0.0,0.0,0.0,0.43535888441907655,0.4287122373406036,0.8247207131285972,0.012276844213130187,-0.01016166031137779,0.09514330184916281
5944,11.0,300.23241,-5602.1409,0.0,0.0,0.059440835832463845,0.0,0.0,0.0,0.4472920321717866,0.4195370753000856,0.8360818508023543,-0.001294767150808569,-0.012957737134579088,0.05101623567616045
5945,11.0,299.95977999999997,-5895.8721,0.0,0.0,0.05945084025283798,0.0,0.0,0.0,0.4461712154411706,0.45870370062803056,0.8873229925369612,-0.00037377664388638267,0.005970573985099775,0.07136248817517923
5946,11.0,299.84901,-5994.4945,0.0,0.0,0.05946084467321211,0.0,0.0,0.0,0.4572414287462156,0.46278503150082656,0.9021501750927902,-0.0008759722102792261,0.028023683970472273,0.05429356070060725
5947,11.0,299.76227,-5836.6566,0.0,0.0,0.05947084909358624,0.0,0.0,0.0,0.4288175140259936,0.46158966996035355,0.8837906709658482,-0.011726475129812989,0.0075024035611045824,0.08307127905099691
5948,11.0,299.47792999999996,-5613.2039,0.0,0.0,0.059480853513960597,0.0,0.0,0.0,0.42473924316849965,0.4320581310258176,0.8494764395717972,-0.006878972052826684,-0.017579492040960785,0.06126010096815124
5949,11.0,300.48439,-5572.1306,0.0,0.0,0.05949085793433473,0.0,0.0,0.0,0.4225473805521796,0.4386147913629096,0.8326264045163283,-0.01030002873178369,-0.014953826659327787,0.09332462836392372
5950,11.0,300.34132,-5791.4219,0.0,0.0,0.059500829445431336,0.0,0.0,0.0,0.45097191335496256,0.45425106425608963,0.8552246783166042,0.0026582352928473975,-0.003489237062285887,0.08259964861970062
5951,11.0,300.05397999999997,-5705.3675,0.0,0.0,0.05951083386580547,0.0,0.0,0.0,0.4270830831673186,0.4534587634728956,0.8537474002008083,0.010824174902512888,0.01151097101904439,0.1056697149712889
5952,11.0,300.19731,-5411.0125,0.0,0.0,0.0595208382861796,0.0,0.0,0.0,0.3881817773780586,0.42710140272912656,0.8295295069106883,-0.006628717719278503,0.019206916596325084,0.09919320271710691
5953,11.0,300.03592000000003,-5444.1916,0.0,0.0,0.05953084270655373,0.0,0.0,0.0,0.3824942931092476,0.4330140717001616,0.8393899401263372,0.004893841841159585,0.012608538726115887,0.1067868232065389
5954,11.0,299.6592,-5792.5727,0.0,0.0,0.059540847126927865,0.0,0.0,0.0,0.4553318373427536,0.4486022354785936,0.8568633773058311,0.0016249679304968486,0.007191145796010832,0.09243269976464723
5955,11.0,299.42638999999997,-5863.8776,0.0,0.0,0.059550851547302,0.0,0.0,0.0,0.45386646491563254,0.4608236528847536,0.8677822515759402,0.009358080534695641,-0.014867092450767784,0.08998447676702641
5956,11.0,299.25752,-5700.3961,0.0,0.0,0.05956085596767635,0.0,0.0,0.0,0.4444227612011116,0.4439984424567346,0.8443568819840362,-0.014427402702373786,-0.03790141843157876,0.06588601931919384
5957,11.0,299.84188,-5570.5526,0.0,0.0,0.059570860388050484,0.0,0.0,0.0,0.4031453940598526,0.42186127851196664,0.8683022211297572,-0.013279524088086987,-0.017931664338467483,0.07707770915222763
5958,11.0,300.09189,-5650.7622,0.0,0.0,0.05958083189914709,0.0,0.0,0.0,0.42001199575445664,0.4354522554157916,0.8622263479651152,-0.008642422698340712,0.022477522759358777,0.06163298105795164
5959,11.0,300.21771,-5794.8839,0.0,0.0,0.059590836319521,0.0,0.0,0.0,0.42057440022246156,0.4604860176864316,0.8804395793076211,-0.012466845832131887,0.02016658096478658,0.08197603675290492
5960,11.0,300.80385,-5753.8708,0.0,0.0,0.05960084073989513,0.0,0.0,0.0,0.46311501666089355,0.4248960233564726,0.8610220090287563,-0.02157541099657728,0.01941312717717648,0.06884064141204234
5961,11.0,300.91471,-5594.1605,0.0,0.0,0.05961084516026949,0.0,0.0,0.0,0.44280763040921056,0.4303173876190196,0.8273600979165842,-0.008247427006557673,0.009366298094331652,0.08999378954869551
5962,11.0,300.46358,-5544.6423,0.0,0.0,0.05962084958064362,0.0,0.0,0.0,0.45347948443744057,0.41368731902775957,0.8182659958840661,0.011109741204696091,0.019979139828787584,0.08249415509878921
5963,11.0,300.09916,-5793.7569,0.0,0.0,0.059630854001017974,0.0,0.0,0.0,0.44282690242611256,0.4446498305485216,0.8736807046480722,0.016772204275537685,-0.016863830455580486,0.09339669881703651
5964,11.0,299.74228,-5857.3682,0.0,0.0,0.05964085842139211,0.0,0.0,0.0,0.4488981450377976,0.4423938595983745,0.8892016595473711,8.392765270426441e-05,-0.029869745605914367,0.07246770186750534
5965,11.0,299.98641000000003,-5668.1307,0.0,0.0,0.05965086284176602,0.0,0.0,0.0,0.4103393583123416,0.4306831506401176,0.8819477007564611,-0.0038067990668518167,-0.013443735452293387,0.09031981087437131
5966,11.0,299.53056000000004,-5611.4225,0.0,0.0,0.059660834352862846,0.0,0.0,0.0,0.4261884441240246,0.43644923271918556,0.8430946358044622,-0.008701189988240592,0.015450810634626284,0.07255614238923372
5967,11.0,299.26185,-5768.2493,0.0,0.0,0.059670838773236756,0.0,0.0,0.0,0.4331334832244466,0.4509863926988915,0.8692838679591381,0.002097460434978228,0.008732995706229572,0.08145184802567153
5968,11.0,300.13852,-5825.4987,0.0,0.0,0.05968084319361089,0.0,0.0,0.0,0.4420215307166286,0.46060030216521053,0.8681842990831191,0.003225404873422677,-0.014985712626724686,0.07327002876043884
5969,11.0,300.09623999999997,-5714.8076,0.0,0.0,0.05969084761398524,0.0,0.0,0.0,0.4113465289117416,0.45200175035909956,0.8738105425158862,0.009147434654181512,-0.0063451833888458434,0.09281521788939881
5970,11.0,300.4746,-5664.4359,0.0,0.0,0.0597008520343596,0.0,0.0,0.0,0.4189129942984936,0.44938042168789455,0.8535536465166862,0.011497290116194188,0.018810622323213882,0.09237685549863582
5971,11.0,299.86261,-5560.1847,0.0,0.0,0.05971085645473373,0.0,0.0,0.0,0.4134173892011196,0.4384752668241397,0.8382646650952813,-0.005266404175728625,0.007023147308230673,0.10166430692848591
5972,11.0,299.72038,-5546.5465,0.0,0.0,0.05972086087510786,0.0,0.0,0.0,0.44877975689611355,0.41818931081207156,0.8190425710257082,-0.013441112147784486,0.0060172707305333846,0.09182732335990122
5973,11.0,300.01923999999997,-5714.9289,0.0,0.0,0.05973086529548177,0.0,0.0,0.0,0.4446424946177976,0.43797200576447154,0.8545811834430962,-0.011666403584384387,-0.0014159800311213488,0.09457400728047781
5974,11.0,300.06272,-5798.3609,0.0,0.0,0.05974083680657838,0.0,0.0,0.0,0.46121950943382156,0.4404130873753876,0.8609243215866151,0.00838621197407968,0.009850618571205361,0.08809431848723233
5975,11.0,299.67535,-5753.4467,0.0,0.0,0.05975084122695251,0.0,0.0,0.0,0.42931559737765057,0.4441856505452106,0.8754028751805372,0.005261082282228395,-0.017569150810440182,0.08745925486780642
5976,11.0,299.60994,-5813.5924,0.0,0.0,0.059760845647326866,0.0,0.0,0.0,0.4457809013701496,0.4394915060119346,0.8819145168156861,0.0049078126348633955,-0.03445904104534257,0.06467088521626943
5977,11.0,299.49203,-5890.099,0.0,0.0,0.059770850067701,0.0,0.0,0.0,0.4442771470292406,0.45645712250631054,0.8897087405599162,0.014756529639606088,-0.015926636934586687,0.07469512652258502
5978,11.0,299.43187,-5856.3928,0.0,0.0,0.05978085448807513,0.0,0.0,0.0,0.46716156265775655,0.45231936373544557,0.8607162506785802,0.015272140191492886,0.01883465762883598,0.05432599584955835
5979,11.0,299.83657999999997,-5673.0263,0.0,0.0,0.059790858908449485,0.0,0.0,0.0,0.4284928990914566,0.43523568333941753,0.8607297573024133,-0.013463172628961687,0.01094244854693559,0.08884119729494351
5980,11.0,300.15464,-5564.7732,0.0,0.0,0.059800863328823395,0.0,0.0,0.0,0.4352916856724446,0.4199017440110756,0.8363586605971731,-0.02012260388394638,-0.00965085965771569,0.07043361242425634
5981,11.0,300.24653,-5598.7145,0.0,0.0,0.05981083483992,0.0,0.0,0.0,0.40255618912670266,0.4391823836714266,0.8601308353008041,-0.001177197411230339,0.0010267073785531291,0.1051928693417279
5982,11.0,300.19525,-5755.1025,0.0,0.0,0.059820839260294134,0.0,0.0,0.0,0.4388499261811156,0.44457540732867656,0.8659821317132821,0.013290967734716387,0.005135887734322654,0.0955007562194408
5983,11.0,299.6041,-5767.4459,0.0,0.0,0.05983084368066849,0.0,0.0,0.0,0.4365165935858336,0.44516372060173853,0.8714792161558021,0.005466679846769296,0.005625490790592714,0.1019112258453549
5984,11.0,300.21193,-5571.3882,0.0,0.0,0.05984084810104262,0.0,0.0,0.0,0.43978548026344755,0.43000437439812755,0.8237730608400712,-0.012648760702085489,-0.0013010989506834687,0.093437517597315
5985,11.0,300.17024,-5585.7716,0.0,0.0,0.05985085252141675,0.0,0.0,0.0,0.4206541126078286,0.43163683176673856,0.8456441554410802,-0.00967345290579547,0.018393058917253582,0.09051768038039952
5986,11.0,299.84875,-5859.6608,0.0,0.0,0.059860856941790885,0.0,0.0,0.0,0.45805567652657553,0.4609275312850056,0.8622073495257402,0.004349658143077836,0.035209036610361365,0.08434224019468102
5987,11.0,299.27815,-5886.3362,0.0,0.0,0.05987086136216502,0.0,0.0,0.0,0.4408992853033716,0.46101841981897557,0.8873814975977352,0.0016284295981384882,0.003367135460310397,0.07096161198511583
5988,11.0,299.8105,-5611.1872,0.0,0.0,0.05988086578253915,0.0,0.0,0.0,0.40779425644615963,0.4375684991771486,0.8602980418323062,-0.0035594544836158063,-0.03148005130083917,0.08026835468361983
5989,11.0,299.83246,-5587.9601,0.0,0.0,0.05989083729363598,0.0,0.0,0.0,0.4084813616039716,0.44463641511719754,0.8454825521826311,0.009372580346276662,-0.022962864491008275,0.07117499029717464
5990,11.0,299.90057,-5749.5539,0.0,0.0,0.05990084171400989,0.0,0.0,0.0,0.44267925162154054,0.44984666872140955,0.8551949090286662,0.022382967273276877,0.0010235593118174391,0.08296581896733882
5991,11.0,299.41494,-5841.0229,0.0,0.0,0.05991084613438402,0.0,0.0,0.0,0.4467057656639266,0.4510326171684536,0.8777867486908071,0.012146352799001689,0.0025385197935323973,0.07837400661466222
5992,11.0,299.53092999999996,-5810.1355,0.0,0.0,0.059920850554758376,0.0,0.0,0.0,0.4610219256643216,0.44129692517261554,0.8638172722121271,-0.008461148303775323,0.00982375001565364,0.07484420499654793
5993,11.0,299.91364,-5715.6387,0.0,0.0,0.05993085497513251,0.0,0.0,0.0,0.42605284086314155,0.4312451802055856,0.8801134242329322,0.003570948488775176,0.016096742374624787,0.07942486855837423
5994,11.0,299.97469,-5707.2444,0.0,0.0,0.05994085939550664,0.0,0.0,0.0,0.4477251965895366,0.4280128819890826,0.8591216888637091,0.006866369146757874,0.023881247023895578,0.08763984440662922
5995,11.0,300.22459,-5874.9398,0.0,0.0,0.05995086381588077,0.0,0.0,0.0,0.4643544849782196,0.43486226014756363,0.8866182770924111,-0.0077643999434366135,-0.0007756271448484393,0.09103208516466732
5996,11.0,300.01498,-5927.0518,0.0,0.0,0.05996086823625468,0.0,0.0,0.0,0.4821070522952616,0.44981659545844155,0.8697521110953501,-0.015834252843469086,-0.016375080150594586,0.06114048071434564
5997,11.0,300.21599,-5714.6317,0.0,0.0,0.059970839747351734,0.0,0.0,0.0,0.4297025271933376,0.4500456609085486,0.857357154344563,-0.016274993332216783,0.0007985178426275752,0.07727568910251673
5998,11.0,300.19597000000005,-5617.8025,0.0,0.0,0.059980844167725644,0.0,0.0,0.0,0.4215738295910976,0.44489505733772355,0.8412027864102513,-0.006841776249605744,0.020178647760227483,0.07291776223067283
5999,11.0,299.4352,-5747.7712,0.0,0.0,0.05999084858809978,0.0,0.0,0.0,0.4124385592070166,0.45171318686312056,0.8830271768829973,-0.0007090738587951414,0.0018624871288381686,0.08636092215690942
6000,11.0,299.87422000000004,-5747.2378,0.0,0.0,0.06000085300847391,0.0,0.0,0.0,0.4346957831561336,0.44852835941380254,0.8637926401021961,0.01111791509325279,-0.0061841760227806545,0.09567289626567972
6001,11.0,299.84865,-5731.344,0.0,0.0,0.06001085742884826,0.0,0.0,0.0,0.4243137287890046,0.45735980675539856,0.8605119389284163,0.013558011825071587,-0.009716555754449392,0.09511081401120651
6002,11.0,299.30066,-5757.5515,0.0,0.0,0.060020861849222396,0.0,0.0,0.0,0.43998303363544455,0.46130729742248555,0.8488615690136143,0.018832647340637585,-0.002299136417657098,0.10431479693756891
6003,11.0,299.57302999999996,-5663.2818,0.0,0.0,0.06003086626959653,0.0,0.0,0.0,0.4198678710602326,0.4485775831036606,0.8530507907570583,-0.007519623239929034,-0.0072426081606397725,0.08200795413105492
6004,11.0,300.23744,-5736.6885,0.0,0.0,0.060040837780693135,0.0,0.0,0.0,0.43877385136360764,0.43981098376846456,0.8652252237560812,-0.004456422076964616,-0.006296281203244574,0.08407937677423842
6005,11.0,299.84623,-5897.1014,0.0,0.0,0.06005084220106727,0.0,0.0,0.0,0.4399185706640826,0.4519125944828006,0.9007403895661551,-0.013821857084861087,0.02271734689902758,0.07464660400179622
6006,11.0,300.47468,-5747.275,0.0,0.0,0.0600608466214414,0.0,0.0,0.0,0.4375312115734685,0.4367588718172446,0.8727380172850361,0.0025662004690392673,0.03587179134177017,0.08745957809458832
6007,11.0,299.25554,-5696.254,0.0,0.0,0.06007085104181553,0.0,0.0,0.0,0.43109694171595553,0.4443328960497426,0.8560891326394191,-0.0031849000993501666,0.005032118157131396,0.08112463410462802
6008,11.0,299.56797,-5844.5449,0.0,0.0,0.060080855462189664,0.0,0.0,0.0,0.4652177943284216,0.45003524469752054,0.8613426824204041,-0.0026379317873435975,-0.019870075614523783,0.06942805187926522
6009,11.0,300.61114,-5909.395,0.0,0.0,0.060090859882563796,0.0,0.0,0.0,0.46337400338645357,0.4579842727920286,0.8749502360958652,0.014526986948701987,-0.019112833284789785,0.061803595149539946
6010,11.0,299.96259,-5862.0003,0.0,0.0,0.06010086430293815,0.0,0.0,0.0,0.4512117293886305,0.45911248624837453,0.8715775014155023,0.015683732514613885,0.008002936850178373,0.06420746109753304
6011,11.0,299.84382,-5732.7103,0.0,0.0,0.06011086872331228,0.0,0.0,0.0,0.4150420445439606,0.45276537616446355,0.8747933849803852,-0.00016880745652749884,-0.005346755313958665,0.08067789213553801
6012,11.0,299.91905,-5668.1513,0.0,0.0,0.06012084023440889,0.0,0.0,0.0,0.4305312137876226,0.4263858455085066,0.8660593920334072,-0.013846159888509587,-0.005362691204906415,0.07972154514790392
6013,11.0,299.70047,-5791.0942,0.0,0.0,0.06013084465478302,0.0,0.0,0.0,0.4430138774670656,0.44939312784414853,0.8679410076016083,-0.0014361007463071084,0.0072924046407793035,0.0942159763708929
6014,11.0,300.51445,-5861.5117,0.0,0.0,0.060140849075157155,0.0,0.0,0.0,0.46530395098442456,0.4574152923308745,0.8590339414050491,0.0038244641704202266,0.008675723973477292,0.0933270338196611
6015,11.0,300.23999,-5793.3516,0.0,0.0,0.06015085349553129,0.0,0.0,0.0,0.4519042655669786,0.4474858365184136,0.8616441344576552,0.007119663737231103,-0.00965405666443121,0.07873639449967712
6016,11.0,299.34367000000003,-5589.4266,0.0,0.0,0.06016085791590542,0.0,0.0,0.0,0.4160615869270816,0.42881053273280456,0.8541739987579102,-0.0045734493224393056,-0.02058826627215368,0.08839794293269772
6017,11.0,299.49743,-5536.2484,0.0,0.0,0.06017086233627955,0.0,0.0,0.0,0.3887549222971236,0.4346931487058736,0.8594331822094512,0.014033950595793087,-0.002190933871278338,0.09476357117543631
6018,11.0,299.28755,-5843.6374,0.0,0.0,0.060180866756653906,0.0,0.0,0.0,0.4300605692486736,0.4657384224948036,0.8805208723631442,-0.002145888014232658,0.01233019081764509,0.0955829409350518
6019,11.0,299.3995,-5949.6265,0.0,0.0,0.06019087117702804,0.0,0.0,0.0,0.44799991908914955,0.48137663069567455,0.8791613339089681,-0.009565656672706811,0.007230953859314582,0.0911535363614036
6020,11.0,300.18357000000003,-5738.2267,0.0,0.0,0.060200842688124645,0.0,0.0,0.0,0.44079401875048263,0.45332106278430556,0.8501625416120102,-0.027595696247483172,-0.013159963616037289,0.08278090487708922
6021,11.0,299.71738,-5712.5947,0.0,0.0,0.060210847108498555,0.0,0.0,0.0,0.4414381317065516,0.4352672156825296,0.8597808080537592,-0.0076035246038594516,0.004339328362283366,0.06814980344086193
6022,11.0,299.88184,-5799.9782,0.0,0.0,0.06022085152887269,0.0,0.0,0.0,0.44382503483462055,0.43731039397917554,0.8819131286630492,0.014981343492293487,0.002861107822569357,0.06356754603662834
6023,11.0,300.64805,-5915.4583,0.0,0.0,0.06023085594924704,0.0,0.0,0.0,0.44449171287041656,0.4485947779578575,0.9050651132454721,0.012233593632611688,0.00030561697138954674,0.07064709003482493
6024,11.0,300.21346,-5964.4593,0.0,0.0,0.060240860369621174,0.0,0.0,0.0,0.4669600170803656,0.4509854807738015,0.8951012069296111,0.007736601224293093,-0.0013004305095924988,0.07483014615141043
6025,11.0,300.08131000000003,-5718.8226,0.0,0.0,0.06025086478999553,0.0,0.0,0.0,0.4388904561851156,0.4326021146070046,0.8668867107400573,0.008838198525687282,-0.0002940350667840017,0.0938595626084676
6026,11.0,299.66665,-5612.3299,0.0,0.0,0.06026086921036966,0.0,0.0,0.0,0.44294818846308254,0.43524447835028557,0.8278154829090272,0.014187893683486089,0.011256177122398188,0.08689471345534051
6027,11.0,299.48042999999996,-5861.5217,0.0,0.0,0.06027084072146627,0.0,0.0,0.0,0.4650421372910855,0.45123801309622463,0.8654760943483402,0.008401001271214271,-0.003985028746191716,0.07906136407174913
6028,11.0,300.14801,-5903.9289,0.0,0.0,0.0602808451418404,0.0,0.0,0.0,0.46125585471490854,0.44526009081874957,0.8881310189617071,0.0006133250579379704,-0.013330396335857687,0.06945025522870653
6029,11.0,300.54312000000004,-5677.7359,0.0,0.0,0.06029084956221431,0.0,0.0,0.0,0.41917165678402163,0.43876901816063063,0.8679492554574222,-0.021808729057353978,-0.010441194735715689,0.08206127337781711
6030,11.0,300.08867000000004,-5616.085,0.0,0.0,0.06030085398258844,0.0,0.0,0.0,0.40111308793677963,0.45116162417118555,0.8548748841170822,-0.0034578497152631966,0.01194738189011479,0.08674937488749673
6031,11.0,300.24452,-5700.7437,0.0,0.0,0.0603108584029628,0.0,0.0,0.0,0.4191046404224076,0.4545209231552225,0.8592581837846802,-0.002640842348255848,0.01170276305097279,0.0961109627874135
6032,11.0,300.32488,-5808.1307,0.0,0.0,0.06032086282333715,0.0,0.0,0.0,0.4584249656580216,0.45059027270479757,0.8565114451485981,0.0018000050614216687,0.012297185208887689,0.08403854178195833
6033,11.0,299.45288999999997,-5764.1311,0.0,0.0,0.060330867243711284,0.0,0.0,0.0,0.44880709438381156,0.4477649362584586,0.8555798832716602,0.004511656265090805,-0.002400910702751438,0.08926576327234492
6034,11.0,299.86111,-5535.6298,0.0,0.0,0.060340871664085194,0.0,0.0,0.0,0.4100333567821416,0.42023756549171865,0.8524223122500322,0.01145552293382209,0.0012137023805330988,0.08645327585052401
6035,11.0,299.55286,-5611.5772,0.0,0.0,0.0603508431751818,0.0,0.0,0.0,0.4077810031348516,0.4288147782507236,0.8691835663317392,0.011632908575828688,-0.0054908477868294845,0.08762334869500123
6036,11.0,299.93886000000003,-5871.3304,0.0,0.0,0.06036084759555593,0.0,0.0,0.0,0.43655242210936956,0.4581349734794016,0.8900504388911391,-0.0017636573485344284,-0.01212693994033579,0.09461062309934151
6037,11.0,300.05908999999997,-6085.9941,0.0,0.0,0.060370852015930065,0.0,0.0,0.0,0.4819635558160995,0.47393816919405557,0.8940885242496671,-0.01016649250110469,-0.0016614902263763186,0.09612167486747071
6038,11.0,300.75821,-5952.1869,0.0,0.0,0.06038085643630442,0.0,0.0,0.0,0.4766167566284115,0.46345722161716657,0.8692422233800281,-0.008085061378733431,0.018175113886994086,0.08441566434992742
6039,11.0,300.34963999999997,-5523.9683,0.0,0.0,0.06039086085667855,0.0,0.0,0.0,0.42053780162884963,0.4182252305281166,0.8403853975545811,0.0023862204001516177,0.011572004138817888,0.07723347609010063
6040,11.0,300.27157,-5587.8201,0.0,0.0,0.060400865277052684,0.0,0.0,0.0,0.4185220925424146,0.4269997230815916,0.8530359770405962,0.0005340753023016285,-0.0020242545338033683,0.06238589377000835
6041,11.0,299.30432,-5938.1369,0.0,0.0,0.06041086969742704,0.0,0.0,0.0,0.4525910667497606,0.4530380721638766,0.899416213540469,-0.0004516748252143346,-0.006330531691074834,0.053206012010524543
6042,11.0,299.39768,-5909.1414,0.0,0.0,0.06042087411780095,0.0,0.0,0.0,0.4518051393096956,0.4628586339880906,0.8815676509089531,0.0035590945771802867,0.0044121091037162665,0.08019859342748492
6043,11.0,299.48606,-5706.5421,0.0,0.0,0.060430845628897556,0.0,0.0,0.0,0.4311916907328066,0.44940785036810155,0.8540467548103522,0.0030501704627033874,0.01057938381085389,0.08059111841022412
6044,11.0,299.54475,-5704.3427,0.0,0.0,0.06044085004927169,0.0,0.0,0.0,0.4393094249689646,0.4439767791695966,0.8506915493567191,-0.012088291541771488,-0.004787691531533365,0.08075572291546933
6045,11.0,300.05446,-5839.976,0.0,0.0,0.06045085446964604,0.0,0.0,0.0,0.44634025595535354,0.4501797949567866,0.8786868390196392,-0.0068109074839842335,0.0033024313354245963,0.08916875166802062
6046,11.0,300.0374,-5927.3901,0.0,0.0,0.060460858890020175,0.0,0.0,0.0,0.46032462721050355,0.4518418594933196,0.8896120866328772,0.0007069406937571145,0.016079151339638685,0.09241894489453972
6047,11.0,300.42652999999996,-5779.3337,0.0,0.0,0.06047086331039431,0.0,0.0,0.0,0.42966753966738463,0.4483482846060306,0.8787573004315932,0.00844539115014521,0.003832979929560666,0.08225167117760793
6048,11.0,300.55574,-5476.8056,0.0,0.0,0.06048086773076844,0.0,0.0,0.0,0.3974344023887216,0.4235321380593676,0.8438455959835762,-0.003514037067758457,-0.015366495054054984,0.0989879040613455
6049,11.0,299.90557,-5610.0185,0.0,0.0,0.06049087215114257,0.0,0.0,0.0,0.4077761496668726,0.4622054220461236,0.8353239701250573,0.009234572642906362,-0.01036223722167319,0.1012545354157946
6050,11.0,300.07984,-5903.6053,0.0,0.0,0.060500876571516704,0.0,0.0,0.0,0.4659621379843825,0.47521047694712254,0.8533759731116511,-0.004437866022583276,-0.003363982732624247,0.09015801003215282
6051,11.0,299.76867999999996,-5900.853,0.0,0.0,0.06051084808261353,0.0,0.0,0.0,0.4515504082345556,0.45984724455838955,0.8823143149076431,-0.01176580341919439,0.004675372352648326,0.07211584367752963
6052,11.0,299.25382,-5684.4885,0.0,0.0,0.06052085250298744,0.0,0.0,0.0,0.4264003856474416,0.4548221218799485,0.8467200547947632,-0.027150791300824473,-0.01163595440562929,0.07573124669059213
6053,11.0,299.30619,-5683.6845,0.0,0.0,0.060530856923361576,0.0,0.0,0.0,0.42081700269390465,0.43686035894726055,0.8700208148893691,-0.0015960710508949485,-0.00023703661771619277,0.07067427958800834
6054,11.0,299.91744,-5975.798000000001,0.0,0.0,0.06054086134373593,0.0,0.0,0.0,0.4651146049382376,0.4697807432387496,0.881598038279452,0.007771273426814972,0.01051960408145409,0.09125768631268241
6055,11.0,299.94587,-6037.5321,0.0,0.0,0.06055086576411006,0.0,0.0,0.0,0.4745263608771056,0.4580286024839036,0.9027040479949531,0.023013847183039875,0.01107395321116409,0.08536853487646842
6056,11.0,300.5599,-5832.3307,0.0,0.0,0.060560870184484195,0.0,0.0,0.0,0.46041637700705856,0.4355646349843826,0.8769018773784771,-0.0013742382813267588,-0.009021055008958811,0.08496971355760782
6057,11.0,300.11382000000003,-5624.5078,0.0,0.0,0.06057087460485833,0.0,0.0,0.0,0.4185629873164506,0.4169930576115106,0.8741538924447723,0.001918473047213548,-0.004301752184974887,0.07083265969788924
6058,11.0,300.0291,-5623.911999999999,0.0,0.0,0.060580846115955156,0.0,0.0,0.0,0.41222135891558065,0.4357309802532996,0.8615764797484783,0.006906016407270754,0.005868483059349184,0.07411098277368453
6059,11.0,300.36486,-5902.4783,0.0,0.0,0.06059085053632929,0.0,0.0,0.0,0.4560396938626136,0.44683466120914755,0.8913316632450862,-0.005805053603089185,0.007145636073069374,0.06398515909184353
6060,11.0,299.34092999999996,-6058.946,0.0,0.0,0.0606008549567032,0.0,0.0,0.0,0.4719292590157916,0.4812720227553505,0.8885670103472362,-0.017928163559371983,-0.014511851018708187,0.08497372400150362
6061,11.0,299.58831000000004,-5793.2781,0.0,0.0,0.06061085937707733,0.0,0.0,0.0,0.4461179590159146,0.4702773675102626,0.8446165374546623,-0.017056938699388787,-0.003458316114284226,0.09081184714943151
6062,11.0,300.03626,-5573.5799,0.0,0.0,0.06062086379745146,0.0,0.0,0.0,0.4108482023800606,0.4438502242321065,0.8395306704327261,0.014761329405329787,0.013687547744355787,0.1037761633169099
6063,11.0,299.65181,-5840.8145,0.0,0.0,0.06063086821782582,0.0,0.0,0.0,0.4298435108122516,0.4618054111716456,0.8838128510105371,0.01089905003190249,0.016015693512375886,0.08835206702117011
6064,11.0,299.61208999999997,-5939.2351,0.0,0.0,0.06064087263819995,0.0,0.0,0.0,0.4540437228881266,0.4565194373874606,0.8948160175564651,0.01014730458396099,-0.0027920840098572372,0.07828695728532112
6065,11.0,300.51667000000003,-5703.1979,0.0,0.0,0.06065087705857386,0.0,0.0,0.0,0.43117070632323556,0.4496765440296196,0.8527825125280811,-0.0022196717719395478,-0.01066734202553469,0.10009077815919072
6066,11.0,300.62314,-5565.9403,0.0,0.0,0.06066084856967069,0.0,0.0,0.0,0.41358072511723964,0.43681699184298056,0.8415091527104872,0.002890158412211427,-0.0016237436204010185,0.09384502956228331
6067,11.0,300.60691,-5650.2808,0.0,0.0,0.06067085299004482,0.0,0.0,0.0,0.42822513762003056,0.4378799418603856,0.8514391962080061,-0.004323258114372355,-0.0037441598443448063,0.1010982588131213
6068,11.0,300.52914,-5920.1192,0.0,0.0,0.060680857410418954,0.0,0.0,0.0,0.4578427622830626,0.4592762983920416,0.8824493406159691,-0.011672282461464591,-0.01045310549064119,0.08793592115209972
6069,11.0,299.76139,-6114.5988,0.0,0.0,0.060690861830793086,0.0,0.0,0.0,0.4709254929367276,0.46733537557991056,0.9204244750188232,-0.013224047631861887,-0.01100742219634799,0.08464018436008583
6070,11.0,300.3266,-5853.8245,0.0,0.0,0.06070086625116722,0.0,0.0,0.0,0.44631382026024463,0.45785449571922054,0.8752481518902672,0.005702570549549895,0.005313153508842426,0.06947401797005173
6071,11.0,299.94397000000004,-5537.3822,0.0,0.0,0.06071087067154135,0.0,0.0,0.0,0.4143895824070676,0.4273505913262196,0.8414857567656782,0.016416382251170782,0.014524514618457985,0.07581859391546264
6072,11.0,299.54636,-5817.738,0.0,0.0,0.060720875091915705,0.0,0.0,0.0,0.4563357756743346,0.44995802490739956,0.8621532926329052,0.0008189733863088801,-0.007848048602792092,0.06757279499916563
6073,11.0,300.0942,-6058.177,0.0,0.0,0.06073087951228984,0.0,0.0,0.0,0.48018034709761054,0.46947434654101056,0.8918798315491862,-0.002786748741455687,-0.0017230769860044582,0.07300617336814834
6074,11.0,299.88957,-5788.6828,0.0,0.0,0.060740851023386444,0.0,0.0,0.0,0.4298165887570946,0.4381865716056476,0.8916118572952391,0.013514015492479487,0.010407609547901089,0.08510570995952961
6075,11.0,299.83332,-5507.2114,0.0,0.0,0.060750855443760576,0.0,0.0,0.0,0.39349658826008965,0.4213751008489846,0.8591830614222661,0.011400147802606989,0.005132890337876835,0.08288127540549502
6076,11.0,300.04829,-5655.0479,0.0,0.0,0.06076085986413471,0.0,0.0,0.0,0.4325464365140096,0.4189637074659986,0.8674832212064283,-0.010211535521050091,-0.013454922746647486,0.07899265760896833
6077,11.0,299.921,-6002.8816,0.0,0.0,0.06077086428450884,0.0,0.0,0.0,0.4903697420907256,0.45286332705163057,0.8814930554365912,-0.0040050068970884055,-0.016390363001852884,0.08779776855396511
6078,11.0,299.44774,-6003.7748,0.0,0.0,0.06078086870488297,0.0,0.0,0.0,0.48200494708268454,0.47114314919070854,0.8718495388023502,0.00024384121022025376,0.0019143298675546481,0.1046257532607579
6079,11.0,299.53516,-5730.3658,0.0,0.0,0.060790873125257106,0.0,0.0,0.0,0.4415807567906275,0.4475006806323786,0.8528066582779642,0.016647026344933584,0.009558115457512551,0.09796901826428932
6080,11.0,299.08678,-5611.451999999999,0.0,0.0,0.06080087754563146,0.0,0.0,0.0,0.4029693114574746,0.44605779222497655,0.8567141964936081,0.014428213302453788,-0.014698541336383085,0.09738563850596421
6081,11.0,299.07049,-5727.9256,0.0,0.0,0.06081084905672807,0.0,0.0,0.0,0.4142185761876906,0.4541009411212736,0.8728268387888023,0.00868183822855572,-0.00011574427833057092,0.08466462496574792
6082,11.0,299.91735,-5957.0731,0.0,0.0,0.0608208534771022,0.0,0.0,0.0,0.4414798472131686,0.48130137661074757,0.8880202504607753,0.0018817695822161986,0.002052625941903408,0.08164795650302592
6083,11.0,299.53553,-5826.1098,0.0,0.0,0.06083085789747611,0.0,0.0,0.0,0.4439409101160566,0.46564910449848856,0.8614018866237472,0.006490009454789064,0.009345693248248112,0.08067076088133422
6084,11.0,299.83971,-5549.4663,0.0,0.0,0.06084086231785024,0.0,0.0,0.0,0.4268822063349936,0.43429004741859056,0.8257269110079013,-0.02090316515148178,-0.006759070419468312,0.08851851260184701
6085,11.0,300.59326,-5641.4229,0.0,0.0,0.060850866738224596,0.0,0.0,0.0,0.4304744616495216,0.41980867698939056,0.8645685566312731,-0.00025662088790150974,-0.006447117970106004,0.1001509125261255
6086,11.0,300.59389,-5954.846,0.0,0.0,0.06086087115859873,0.0,0.0,0.0,0.4571304879927666,0.4508886951242496,0.9021053083783622,-0.004978881794227375,0.009160029352924511,0.09154551418908882
6087,11.0,299.96486,-5939.2531,0.0,0.0,0.06087087557897308,0.0,0.0,0.0,0.45193635519764563,0.44581745943375756,0.9076308043536863,0.009398321559767121,-0.0014751682251127685,0.08467518303178992
6088,11.0,300.31394,-5761.7036,0.0,0.0,0.060880879999347215,0.0,0.0,0.0,0.44703904388681853,0.4239998340405256,0.8803751467337622,-0.0035031173727557673,-0.02032244010841868,0.07182583731340823
6089,11.0,299.82375,-5780.5591,0.0,0.0,0.06089085151044382,0.0,0.0,0.0,0.45865073804530354,0.44610329728696757,0.8523916006395011,-0.005919039173088684,-0.007058721708641593,0.07094853497932524
6090,11.0,299.87667999999996,-5782.2309,0.0,0.0,0.06090085593081773,0.0,0.0,0.0,0.4716989168705586,0.4304045169951186,0.8555503774287483,0.018909232836195982,-0.0013636166845034886,0.06250501753126493
6091,11.0,299.88425,-5947.7292,0.0,0.0,0.060910860351191864,0.0,0.0,0.0,0.4527337526288425,0.4773594182892065,0.8778679910838253,0.015275006676025785,0.0026157004721995376,0.07094288307026743
6092,11.0,299.54789,-5929.4137,0.0,0.0,0.060920864771566,0.0,0.0,0.0,0.44537785074537156,0.45425058802854257,0.9027652786984962,-0.006155467303722324,-0.013456967485349289,0.07134426791188103
6093,11.0,299.88305,-5623.4488,0.0,0.0,0.06093086919194035,0.0,0.0,0.0,0.4137006533990756,0.4281126263289266,0.8675747278229592,-0.0013577259523971186,-0.007977793758221942,0.08177503833056791
6094,11.0,299.92947999999996,-5573.1309,0.0,0.0,0.060940873612314705,0.0,0.0,0.0,0.41039630296796165,0.4452696761646956,0.8384266432562673,-0.003262420115475797,0.01983448419151118,0.0886025262338885
6095,11.0,300.06585,-5820.9133,0.0,0.0,0.06095087803268884,0.0,0.0,0.0,0.4482371209375595,0.45183390548003455,0.8693412685773032,-0.0036309064488675665,0.013913411324146788,0.1010053670837036
6096,11.0,299.90977999999996,-5874.4267,0.0,0.0,0.06096088245306275,0.0,0.0,0.0,0.4686477776394346,0.4550856682309586,0.8619455763624051,-0.00997655806058462,-0.003990073718439616,0.0994469296613978
6097,11.0,300.28996,-5706.8607,0.0,0.0,0.060970853964159355,0.0,0.0,0.0,0.42425266020547764,0.45187340196893255,0.8586170801814083,-0.01141131989820959,0.0029611221935650074,0.11435045149301089
6098,11.0,299.95089,-5705.2763,0.0,0.0,0.06098085838453349,0.0,0.0,0.0,0.41323404159552457,0.45189933103899155,0.8691281618162713,0.011887566696961489,0.01995934294833378,0.1040054314170369
6099,11.0,300.66700000000003,-5700.9398,0.0,0.0,0.06099086280490762,0.0,0.0,0.0,0.41556652306072256,0.44300021885571755,0.8743766250817541,0.0019102589326278783,0.0025556545619984674,0.0951807779173614
6100,11.0,300.52994,-5818.9664,0.0,0.0,0.061000867225281974,0.0,0.0,0.0,0.4383330571726046,0.45721908658151056,0.8732683321223741,-0.0048908786925671455,-0.01927493708878818,0.07842115922131583
6101,11.0,300.60118,-5854.74,0.0,0.0,0.061010871645656106,0.0,0.0,0.0,0.46519440851611354,0.4477668006386426,0.8667335681199432,-0.016912437076127586,-0.015772479037872485,0.08262348228855282
6102,11.0,300.08811000000003,-5751.7532,0.0,0.0,0.06102087606603024,0.0,0.0,0.0,0.4581088113618195,0.44247049170343755,0.8478100484573372,-0.0013201841242670288,0.004089294410631936,0.06793462559662553
6103,11.0,299.69794,-5663.052,0.0,0.0,0.06103088048640459,0.0,0.0,0.0,0.4130680306991406,0.4445194860556576,0.8638388949692611,0.003160197568537217,0.013306700469019087,0.08427278088707592
6104,11.0,299.49563,-5805.1864,0.0,0.0,0.06104085199750098,0.0,0.0,0.0,0.4276597136667276,0.4446607736496016,0.8923112430442631,0.008953258039467771,-0.008788301733787852,0.07196865187525293
6105,11.0,299.80453,-6059.3769,0.0,0.0,0.06105085641787511,0.0,0.0,0.0,0.45976230380250654,0.46566695796525054,0.9164700030585471,-0.009655358184184662,-0.0003594838393007926,0.08107873488834813
6106,11.0,299.93852999999996,-5894.0307,0.0,0.0,0.061060860838249464,0.0,0.0,0.0,0.4583201145376735,0.4381147321735576,0.8952033222746892,0.006952650533848183,0.017552399759786983,0.06947577494572513
6107,11.0,299.93975,-5660.215,0.0,0.0,0.0610708652586236,0.0,0.0,0.0,0.44477623349849654,0.4407947786880576,0.8349930122448942,-0.002976068544465097,0.017182139934745183,0.08998174301825661
6108,11.0,300.05801,-5816.4731,0.0,0.0,0.06108086967899773,0.0,0.0,0.0,0.4669402080409105,0.43864482409587363,0.8624775427974062,-0.0044384470201906156,-0.01109763489250129,0.07343114160583943
6109,11.0,300.15071,-5986.5123,0.0,0.0,0.06109087409937186,0.0,0.0,0.0,0.4623772084680775,0.45966167793507556,0.8977113493197121,-0.007877997539972821,-0.007170511666999404,0.08764556420344373
6110,11.0,300.28522000000004,-5900.3638,0.0,0.0,0.061100878519745994,0.0,0.0,0.0,0.4489299610909375,0.4670761355418256,0.8775571867481511,0.004284254267672975,0.011891106992810888,0.08082663319721763
6111,11.0,301.10532,-5661.2503,0.0,0.0,0.061110882940120126,0.0,0.0,0.0,0.4115592202402326,0.44297980186620256,0.8663397178060732,0.014301930929240685,0.0015997227029303385,0.08862045164140761
6112,11.0,301.04782,-5628.0617,0.0,0.0,0.06112085445121673,0.0,0.0,0.0,0.40790641309972864,0.45079735062773457,0.8520864603718863,0.003245322330638377,-0.00882032013297282,0.07184255188705783
6113,11.0,300.09805,-5716.5832,0.0,0.0,0.06113085887159109,0.0,0.0,0.0,0.4304620797332996,0.4589092282783146,0.8483272417058803,0.001045093105592659,-0.016602919568080587,0.097994366742041
6114,11.0,299.60086,-5848.9144,0.0,0.0,0.061140863291965,0.0,0.0,0.0,0.44970277707470857,0.4614409957731806,0.8667801573595412,0.01037627276205839,0.01141936409075349,0.0948085929171296
6115,11.0,299.66816,-5735.3867,0.0,0.0,0.06115086771233913,0.0,0.0,0.0,0.42045000350768463,0.4491480834399646,0.8738162471139492,-0.0017794748918704983,0.012663584551048488,0.10668035088603091
6116,11.0,299.75196,-5605.3431,0.0,0.0,0.061160872132713484,0.0,0.0,0.0,0.4091665618515956,0.43704514536799755,0.8576726196306971,-0.006655307631052723,-0.004843395867705955,0.10091643108267631
6117,11.0,299.56899,-5718.7486,0.0,0.0,0.061170876553087616,0.0,0.0,0.0,0.41994586092042957,0.4456619559409105,0.8727489705186172,-0.002949959014563287,-0.0024881017857815275,0.0975125592267403
6118,11.0,299.59016,-6027.5548,0.0,0.0,0.06118088097346175,0.0,0.0,0.0,0.48460906063469056,0.45458535572908154,0.8930317449253712,0.005718480602620095,0.015617953331371986,0.08652664731676522
6119,11.0,299.64031,-6026.9657,0.0,0.0,0.06119088539383588,0.0,0.0,0.0,0.4886527897962755,0.45237985476641557,0.8910144349037781,0.01117628133876309,0.010288830291678491,0.07092935516818233
6120,11.0,300.06259,-5698.8621,0.0,0.0,0.06120085690493271,0.0,0.0,0.0,0.44969470147141155,0.42726381658765555,0.8553532698867952,-0.0008082266429657592,-0.0043697197857827655,0.07219292971863743
6121,11.0,299.75584,-5787.7083,0.0,0.0,0.06121086132530662,0.0,0.0,0.0,0.42945812113671655,0.4502747364911566,0.8795859464958741,0.018065795346955182,-0.01255185143602129,0.07108932202771984
6122,11.0,299.66731,-5974.7335,0.0,0.0,0.06122086574568075,0.0,0.0,0.0,0.46071798103182454,0.4569732214447455,0.8984786025604341,0.012850620387007487,0.005972863119725694,0.06685762382683375
6123,11.0,299.70498,-6005.556,0.0,0.0,0.061230870166054885,0.0,0.0,0.0,0.4335191160800056,0.4804417757559115,0.9115781632982601,0.006632218194398974,0.00938352243410656,0.07790054017418473
6124,11.0,300.15459,-5815.6708,0.0,0.0,0.06124087458642902,0.0,0.0,0.0,0.4477076572303056,0.4483972448508626,0.8717138038189542,-0.01960312879617818,-0.0026219710717683975,0.06612159996744384
6125,11.0,300.21668999999997,-5689.5715,0.0,0.0,0.06125087900680337,0.0,0.0,0.0,0.4299206900723686,0.4318953118672486,0.867671665460026,-0.01671350669724468,-0.007182124222420473,0.07715816121016762
6126,11.0,300.47362000000004,-5689.8092,0.0,0.0,0.061260883427177504,0.0,0.0,0.0,0.44196682534372955,0.43887501425359154,0.8487180826669533,0.0068166696346529145,0.013476434046270486,0.095907446438578
6127,11.0,299.70849,-5919.8584,0.0,0.0,0.06127085493827411,0.0,0.0,0.0,0.4432547878108416,0.45300516180062855,0.9032291952567811,0.005377132146656625,-0.001112804962075299,0.0966701552526015
6128,11.0,299.75144,-5979.4091,0.0,0.0,0.06128085935864824,0.0,0.0,0.0,0.4614854977175726,0.4652137514605226,0.8908918012441752,0.007491475861426102,-0.014626808295553588,0.09436739342608659
6129,11.0,299.56968,-5701.6205,0.0,0.0,0.061290863779022375,0.0,0.0,0.0,0.4207822279504726,0.4449090705866066,0.8674589639990342,0.0023433305366687175,-0.02185959319912388,0.1008461500292401
6130,11.0,299.76321,-5596.4238,0.0,0.0,0.06130086819939651,0.0,0.0,0.0,0.4301696861519426,0.4386895996177926,0.8323137965954761,0.018048772745275183,0.012724890235098887,0.10166620170617291
6131,11.0,299.90569,-5854.4789,0.0,0.0,0.06131087261977064,0.0,0.0,0.0,0.44997775288684655,0.4559699822557336,0.8736676641192851,0.008095774674690753,-0.0003107537846265107,0.08282293043823682
6132,11.0,300.33907999999997,-5954.9559,0.0,0.0,0.06132087704014477,0.0,0.0,0.0,0.45596025505477356,0.46235775406615753,0.8918398790977432,-0.007085359547145544,0.0023528925778624177,0.08739675658838832
6133,11.0,300.21206,-5749.9844,0.0,0.0,0.061330881460518905,0.0,0.0,0.0,0.4122697010778516,0.4510848299461066,0.8844971494655722,-0.017380081381530483,-0.004060678099982726,0.08318678956239692
6134,11.0,300.87002,-5738.6183,0.0,0.0,0.06134088588089326,0.0,0.0,0.0,0.43395768112078864,0.44190852293297556,0.8685304557147823,0.0021202887570812077,0.011148369338258388,0.08783680502731772
6135,11.0,300.42998,-5861.798000000001,0.0,0.0,0.061350857391989866,0.0,0.0,0.0,0.4329306913494326,0.46281829650160955,0.8860912350528961,0.004610213278467626,0.016710082925156786,0.08906369688440251
6136,11.0,300.77504,-5876.3240000000005,0.0,0.0,0.061360861812364,0.0,0.0,0.0,0.4739040733281905,0.4464633759750046,0.8658883250190242,0.00025418669639127374,-0.002145187757088548,0.06917813171560003
6137,11.0,300.32137,-5974.0737,0.0,0.0,0.06137086623273791,0.0,0.0,0.0,0.4754232999981266,0.4462632793452566,0.8942826528363261,-0.002655332128660878,-0.010030299123363449,0.07865544290943784
6138,11.0,300.33365,-5850.1554,0.0,0.0,0.06138087065311226,0.0,0.0,0.0,0.47068784525827356,0.4362014424072306,0.8714118654216552,-0.002047404157513058,0.0057602570055681045,0.06872818686294394
6139,11.0,300.0304,-5627.6586,0.0,0.0,0.061390875073486395,0.0,0.0,0.0,0.4145843290762876,0.4330034832366165,0.8630798895843532,0.01038927377409149,0.005196848508039015,0.09808067335905882
6140,11.0,300.20457999999996,-5857.2956,0.0,0.0,0.06140087949386053,0.0,0.0,0.0,0.4447671041150956,0.44754503058925554,0.8881594811570162,-0.0036030778388460964,-0.016049494522461787,0.07563823134466223
6141,11.0,299.59445,-6080.5695,0.0,0.0,0.06141088391423466,0.0,0.0,0.0,0.46223908221444554,0.4828030335239496,0.9032991804411881,-0.004351772796036536,-0.012479317927612789,0.1042867805723039
6142,11.0,299.90129,-5812.9067,0.0,0.0,0.061420888334609014,0.0,0.0,0.0,0.45563802125797154,0.4541048218691565,0.8572356453925711,0.002294318818731638,-0.00011453162061089089,0.07800383798212943
6143,11.0,299.52558,-5569.2509,0.0,0.0,0.06143085984570562,0.0,0.0,0.0,0.4102116077397336,0.44538818589639156,0.8373134056363991,0.000978718060364452,0.002135898077521728,0.09682394331302921
6144,11.0,299.48222999999996,-5740.0974,0.0,0.0,0.06144086426607975,0.0,0.0,0.0,0.4215820166519056,0.4537850705350996,0.8694791921809152,-0.0006680401681704314,-0.00020115678319512884,0.07303338622608403
6145,11.0,299.98812000000004,-5937.1054,0.0,0.0,0.061450868686453664,0.0,0.0,0.0,0.43163956754200855,0.46670313791501356,0.9063890967536391,0.006419193810600104,0.002724527281964907,0.08345743373035742
6146,11.0,300.53086,-5933.6861,0.0,0.0,0.061460873106827796,0.0,0.0,0.0,0.44635391456670154,0.4637827586092946,0.8935557472145861,-6.559955325092183e-05,0.0066404760813889635,0.09352995133768752
6147,11.0,300.59576,-5728.4861,0.0,0.0,0.06147087752720215,0.0,0.0,0.0,0.4355232335852966,0.44889291666728154,0.8569005838495032,0.0015359058811571084,0.001204409559890969,0.08928382344212732
6148,11.0,300.64016000000004,-5620.5287,0.0,0.0,0.06148088194757628,0.0,0.0,0.0,0.44048168440715757,0.43648229506994857,0.8315364007212533,-0.013046301272819687,-0.013492515338607588,0.09648924856649742
6149,11.0,299.85107,-5773.5007,0.0,0.0,0.06149088636795064,0.0,0.0,0.0,0.4409859891144286,0.4473887772913346,0.8666252922142572,-0.002151888683974878,-0.008588451323814151,0.097353952148837
6150,11.0,300.14737,-6085.2962,0.0,0.0,0.06150085787904702,0.0,0.0,0.0,0.47381813958720953,0.4729505543215855,0.90300941117759,0.00042773194826635665,-0.0023243647239469378,0.09771036489801221
6151,11.0,300.32588,-5916.4712,0.0,0.0,0.061510862299421376,0.0,0.0,0.0,0.4333191309077686,0.4604162756820485,0.9047241140568181,0.005648592487572675,0.013145841949393588,0.08447728008850842
6152,11.0,300.08639,-5591.6517,0.0,0.0,0.061520866719795286,0.0,0.0,0.0,0.4088816764534796,0.4395726876099466,0.8512681291936232,-0.01001750917132618,-0.005147313547750295,0.0882514492597399
6153,11.0,299.23966,-5735.0556,0.0,0.0,0.06153087114016942,0.0,0.0,0.0,0.42412114034249754,0.44159335148937057,0.8775991960972971,0.003861866879311587,-0.007725308045303543,0.07687996427596172
6154,11.0,299.65719,-6074.3928,0.0,0.0,0.06154087556054355,0.0,0.0,0.0,0.4989069821332855,0.46789619937775956,0.8796605521007371,0.007016957566019793,0.0016838753528855583,0.06458246799929335
6155,11.0,299.61265,-5999.1037,0.0,0.0,0.061550879980917905,0.0,0.0,0.0,0.45741090495794157,0.4628057322003696,0.9033611102873003,0.011995852735148489,0.004728779549519205,0.07561741817435813
6156,11.0,300.16462,-5709.5319,0.0,0.0,0.06156088440129226,0.0,0.0,0.0,0.43838948507067355,0.4315452238251976,0.8656204216925841,-0.008423868198146061,-0.01188173341613579,0.07629849145432484
6157,11.0,299.54374,-5775.2541,0.0,0.0,0.06157088882166639,0.0,0.0,0.0,0.40213069501220955,0.4607912694115576,0.8926110840138551,-0.015325366219245884,-0.00978328627821018,0.08343929959331772
6158,11.0,299.72648,-5847.8796,0.0,0.0,0.06158086033276278,0.0,0.0,0.0,0.4468925076573566,0.4474714483669936,0.8832454208220362,-0.00019006684191063682,-0.0038403130231843864,0.08128241741020001
6159,11.0,300.10115,-6007.1681,0.0,0.0,0.06159086475313691,0.0,0.0,0.0,0.4600833115666876,0.4779215086496805,0.8880242730636722,-0.0025165047059596776,0.0017670619701954384,0.09059228294551222
6160,11.0,300.4188,-5933.1695,0.0,0.0,0.06160086917351104,0.0,0.0,0.0,0.48415691804256755,0.4491428044069436,0.8702356543080723,-0.004887808342114126,-0.0020975435214864277,0.08977694389479451
6161,11.0,300.14501,-5642.1774,0.0,0.0,0.061610873593885396,0.0,0.0,0.0,0.4091341885109006,0.4451607112489415,0.8607861446704781,-0.014648712736215387,0.001035248671596089,0.0921273284760094
6162,11.0,300.51339,-5689.1707,0.0,0.0,0.06162087801425953,0.0,0.0,0.0,0.4266990005844126,0.46366755207292454,0.8389992916827831,0.002191265001411018,0.006532773168634515,0.10672197520013889
6163,11.0,300.39637,-6004.6207,0.0,0.0,0.06163088243463366,0.0,0.0,0.0,0.4328519314191596,0.4699054033985526,0.9224974124709062,0.01019107293528059,0.008205370743932043,0.07920297489247502
6164,11.0,300.66396000000003,-5842.1633,0.0,0.0,0.06164088685500779,0.0,0.0,0.0,0.44339004656669057,0.46141056787267754,0.8710711398105282,0.002256545969578748,-0.010716464390382688,0.08703695249112842
6165,11.0,299.73321,-5577.932,0.0,0.0,0.06165089127538215,0.0,0.0,0.0,0.4034451134394326,0.4372733799530226,0.8548335333805012,-0.011689461103659989,-0.01145768014328499,0.07102317503469163
6166,11.0,299.89436,-5718.0132,0.0,0.0,0.06166086278647853,0.0,0.0,0.0,0.45233264744425655,0.4426177676054726,0.8431828189606652,0.00018353449957594483,-0.0027595996169512776,0.0851076138564675
6167,11.0,299.51005,-6110.725,0.0,0.0,0.061670867206852664,0.0,0.0,0.0,0.47757406519039053,0.4695659848800546,0.9103677853913051,0.004482321560120696,0.016293357477029185,0.07555485909993402
6168,11.0,299.90409,-6220.8397,0.0,0.0,0.061680871627226797,0.0,0.0,0.0,0.49639700964807054,0.48222531884693354,0.9123575856726832,0.002126312224950678,0.008415028300298631,0.0885570779139031
6169,11.0,299.30924,-5954.1097,0.0,0.0,0.06169087604760115,0.0,0.0,0.0,0.43813893871844656,0.4633153564706656,0.9084463693591761,-0.013363786979653087,-0.001930441152094708,0.08639794023606281
6170,11.0,300.15747999999996,-5724.9661,0.0,0.0,0.06170088046797528,0.0,0.0,0.0,0.4302178256641936,0.45397219756356755,0.8560567187687202,-0.0017106640643293981,0.003121107899554367,0.08489741917622291
6171,11.0,299.89623,-5766.4416,0.0,0.0,0.061710884888349415,0.0,0.0,0.0,0.4531535624102746,0.42997635803286255,0.8697243277776081,-0.00037239208828723764,0.012121743993822988,0.08401653398978633
6172,11.0,300.30507,-5994.8802,0.0,0.0,0.06172088930872355,0.0,0.0,0.0,0.4877673611963906,0.46339153261318355,0.8711349846993293,0.013995217084220387,-0.004678001432682795,0.07749117598803362
6173,11.0,300.10568,-5904.503000000001,0.0,0.0,0.06173089372909768,0.0,0.0,0.0,0.4464937126829986,0.45725055812961657,0.8910772057474732,-0.004317059050260556,-0.01185776802477059,0.09028089396453051
6174,11.0,300.25382,-5656.6502,0.0,0.0,0.06174086524019429,0.0,0.0,0.0,0.4195063332920516,0.4439915827535576,0.8559824981988953,-0.006100501728197644,-0.005602874035110615,0.08641043766279623
6175,11.0,300.21367999999995,-5716.5066,0.0,0.0,0.06175086966056864,0.0,0.0,0.0,0.40538405869829164,0.46932258194103255,0.8629686144583711,-0.003347879250109957,0.021529424640788778,0.1121435623777079
6176,11.0,300.44781,-5950.9045,0.0,0.0,0.06176087408094255,0.0,0.0,0.0,0.4566422635645826,0.45826214649945257,0.8940219638505982,-0.00010294408233478991,0.007450554033612433,0.06897906657445384
6177,11.0,299.9016,-6066.4669,0.0,0.0,0.061770878501316684,0.0,0.0,0.0,0.4636487765485716,0.4780517518175345,0.9023539295553993,0.0023080722702889978,0.0059026236095435945,0.07968419674921792
6178,11.0,299.83181,-5913.7772,0.0,0.0,0.06178088292169104,0.0,0.0,0.0,0.45641960185510755,0.4639382621021416,0.8772827479585662,-0.013102880145153588,-0.0023721914458920677,0.07233878403078213
6179,11.0,299.59661,-5769.2199,0.0,0.0,0.06179088734206517,0.0,0.0,0.0,0.44244640674856056,0.42556806148529763,0.8856843340777382,0.0008681832554355161,0.0015489654590459885,0.08139137725970352
6180,11.0,299.66745,-5870.9888,0.0,0.0,0.0618008917624393,0.0,0.0,0.0,0.4483503921662385,0.4498566391023936,0.8864269754735311,-0.0032039820305334067,-0.019665812500364584,0.06792978935389823
6181,11.0,299.34029,-5943.0274,0.0,0.0,0.06181086327353591,0.0,0.0,0.0,0.44306565454717556,0.46180976814707553,0.9016564993790681,0.012442133675442989,-0.02033517058267508,0.09652534560130992
6182,11.0,299.86609,-5923.6577,0.0,0.0,0.061820867693910264,0.0,0.0,0.0,0.4591932828113486,0.4631947797087655,0.8782559544146141,-0.007082096476523503,-0.0023442716433615977,0.08468466198647542
6183,11.0,299.52738,-5726.9565,0.0,0.0,0.061830872114284174,0.0,0.0,0.0,0.4333980124280536,0.44687918341854155,0.8605745780495981,-0.0018639674872342684,0.023565896235022876,0.09658774154246791
6184,11.0,299.79729,-5607.7184,0.0,0.0,0.06184087653465831,0.0,0.0,0.0,0.4373492622530116,0.4270559077996366,0.8402012089514033,-0.0014487308074785986,0.011195113605121688,0.08090784113973222
6185,11.0,299.84733,-5812.0623,0.0,0.0,0.06185088095503244,0.0,0.0,0.0,0.4311593477896146,0.46410567128366353,0.8714568131960913,0.018486651815740482,0.0017493743724748083,0.08081696273826322
6186,11.0,300.25632,-6074.4589,0.0,0.0,0.06186088537540657,0.0,0.0,0.0,0.46572572647105054,0.4814970048075546,0.8992611052151611,0.01055359456930869,-0.013368976846665288,0.08133164920605883
6187,11.0,299.87552,-5907.9678,0.0,0.0,0.061870889795780926,0.0,0.0,0.0,0.43301404130265864,0.46101333330347355,0.9018473247704011,-0.0020974910351312477,-0.001325129494030099,0.08821426500757011
6188,11.0,300.40553,-5672.9181,0.0,0.0,0.06188089421615506,0.0,0.0,0.0,0.43996089412075956,0.4377302341581106,0.8467343213561712,-0.007576000475493033,-0.017470488621702984,0.08033781095147463
6189,11.0,299.67704,-5848.0924,0.0,0.0,0.061890865727251665,0.0,0.0,0.0,0.4443151945704956,0.4401005909120466,0.8932582671177273,-0.004206996885973266,0.0013245734223752187,0.07523872912173443
6190,11.0,300.12894,-6029.9049,0.0,0.0,0.0619008701476258,0.0,0.0,0.0,0.4846161229878876,0.45953983461055053,0.8887845652762072,0.0006888500251467043,0.0015039738108806587,0.08444529988885222
6191,11.0,299.91235,-5986.9458,0.0,0.0,0.06191087456799993,0.0,0.0,0.0,0.4503018915938366,0.46856065839583655,0.9010194893062001,0.01208882147157379,0.010505744846586292,0.08983775713929631
6192,11.0,299.55077,-5740.0165,0.0,0.0,0.06192087898837406,0.0,0.0,0.0,0.4411583530889396,0.43625084848210655,0.8674124862169471,0.0005216533019056724,-0.008902777514185731,0.09366242770876192
6193,11.0,300.02637000000004,-5577.9138,0.0,0.0,0.061930883408748194,0.0,0.0,0.0,0.3872070409143596,0.4474434725317326,0.8608960012463203,0.0002951278266193487,-0.00013695402459130987,0.1059802558619369
6194,11.0,300.945,-5694.608,0.0,0.0,0.061940887829122326,0.0,0.0,0.0,0.42082683121987463,0.4554566393575705,0.8547351771932942,0.01041007377214429,-0.001044695506253419,0.10067424505702441
6195,11.0,300.44445,-6030.5996,0.0,0.0,0.06195089224949646,0.0,0.0,0.0,0.4607495336399386,0.46782534279826654,0.9045768178897811,0.005030922724663415,0.01914056391352658,0.08541827127087702
6196,11.0,300.36045,-5953.6186,0.0,0.0,0.06196089666987059,0.0,0.0,0.0,0.47773237538601454,0.4570794404527286,0.874939596969815,-0.006214553362103665,0.005017497262163425,0.07552314842480443
6197,11.0,299.97386,-5682.5086,0.0,0.0,0.06197086818096742,0.0,0.0,0.0,0.42419494547978154,0.43625560062507557,0.8668901557903972,-0.013709854445307288,0.002071911941656788,0.07876384445813622
6198,11.0,299.79802,-5823.1309,0.0,0.0,0.06198087260134155,0.0,0.0,0.0,0.43881163545983654,0.44701940709988053,0.8842553575942091,-0.0023553154615015377,-0.0026301435417749575,0.08800170438834201
6199,11.0,300.05973,-6205.7457,0.0,0.0,0.06199087702171546,0.0,0.0,0.0,0.48247224789630355,0.4808207819558165,0.9230986953452481,-0.0028780388264403175,-0.019341030379561083,0.08661857443208772
6200,11.0,299.45882,-6173.7324,0.0,0.0,0.06200088144208982,0.0,0.0,0.0,0.5014645064456935,0.4737372011692215,0.9014587737545542,0.012257857932756386,-0.017096416949784983,0.07550982114623914
6201,11.0,299.71623999999997,-5744.6834,0.0,0.0,0.06201088586246395,0.0,0.0,0.0,0.43193291357845953,0.4398164857165076,0.8744909095605332,-0.004625475662073906,-0.0053324932108511055,0.07908607926818834
6202,11.0,300.21988999999996,-5571.5339,0.0,0.0,0.06202089028283808,0.0,0.0,0.0,0.42512936472200163,0.4211568366449436,0.8473209728990692,0.014730596516546686,0.004257529390985436,0.07961650049678683
6203,11.0,300.30296,-5707.6641,0.0,0.0,0.062030894703212214,0.0,0.0,0.0,0.4098559062921286,0.4445246232336646,0.8806068263691271,-0.0024862379122225775,0.016546108661473786,0.0902318182091871
6204,11.0,300.00096,-5942.6842,0.0,0.0,0.06204086621430904,0.0,0.0,0.0,0.4445664198002896,0.4677174113976145,0.8941437767776201,0.0002925235610798277,0.0063206518946497744,0.0899445060770816
6205,11.0,299.67774,-5943.3496,0.0,0.0,0.062050870634683175,0.0,0.0,0.0,0.44731690746174163,0.4618433776528926,0.8974695878458522,-0.007073359423561223,0.0003972799425434776,0.0984828758935031
6206,11.0,299.62989,-5634.8789,0.0,0.0,0.06206087505505731,0.0,0.0,0.0,0.4237898176922986,0.4452360869238806,0.8438365780576863,-0.004862072397524185,0.003208598904614057,0.09696109178031471
6207,11.0,299.1716,-5655.3374,0.0,0.0,0.06207087947543122,0.0,0.0,0.0,0.4241723905325556,0.45175229831698055,0.8431566568430832,0.007456217696371393,-0.0016318209462231883,0.1002434871082619
6208,11.0,299.14576,-6084.6694,0.0,0.0,0.06208088389580535,0.0,0.0,0.0,0.48408439973291056,0.46702199758898255,0.8984811559506861,-0.002027962725194338,-0.01127338717534669,0.07714957695532043
6209,11.0,300.02633,-6110.2611,0.0,0.0,0.062090888316179704,0.0,0.0,0.0,0.4741615503111016,0.4702795054679736,0.912925765666258,0.005825283647960734,0.012128100111700289,0.08551700438712123
6210,11.0,300.09717,-5741.8821,0.0,0.0,0.06210089273655384,0.0,0.0,0.0,0.4234553843642926,0.4403027545719985,0.88163064466767,-0.001997424684405468,0.0029530079854391974,0.08809710796475761
6211,11.0,300.59304,-5663.4552,0.0,0.0,0.06211089715692819,0.0,0.0,0.0,0.4252210638560516,0.44407215640150954,0.8522557440660932,-0.004743894302585915,0.0028898710544830674,0.1002920319205529
6212,11.0,300.56682,-5949.8718,0.0,0.0,0.062120868668024576,0.0,0.0,0.0,0.45938582059535055,0.46170791624702356,0.8875187423237801,-0.011555670547205889,-0.013138671178435887,0.07921809866346763
6213,11.0,300.11626,-6019.7811,0.0,0.0,0.06213087308839893,0.0,0.0,0.0,0.45889475906688654,0.4753095322768986,0.8956588491221462,0.008475349510551872,-0.005792287563754275,0.08831089157685641
6214,11.0,300.34879,-5813.3621,0.0,0.0,0.06214087750877284,0.0,0.0,0.0,0.4359222920046806,0.44881298136689257,0.8823816555092892,0.008544363596063033,0.0010780662903468589,0.07420468003693173
6215,11.0,299.95058,-5583.5685,0.0,0.0,0.06215088192914697,0.0,0.0,0.0,0.4103885414721956,0.41933208467235455,0.8675447862825042,0.004649660422085756,-0.001133371608630069,0.08032987416344133
6216,11.0,299.33877,-5711.0902,0.0,0.0,0.06216088634952133,0.0,0.0,0.0,0.4223292278056496,0.4468130384520136,0.8668865283550392,-0.0053121011472885655,0.002196485468576238,0.06980905418186724
6217,11.0,299.39712000000003,-6058.7757,0.0,0.0,0.06217089076989546,0.0,0.0,0.0,0.4759235517049975,0.4563320570464676,0.9094609062868031,-0.011057612526801389,0.015873371390079785,0.07771390761176553
6218,11.0,299.84505,-6281.9565,0.0,0.0,0.062180895190269814,0.0,0.0,0.0,0.5044392567517785,0.49229126958036556,0.9128273993465501,-0.004979007234589755,0.016181096458699883,0.08028782225779113
6219,11.0,300.14669,-5889.6634,0.0,0.0,0.062190899610643946,0.0,0.0,0.0,0.4516068563976266,0.46236160441653756,0.8763421478907363,-0.013171800403705488,0.002092776382415948,0.08435887168182242
6220,11.0,300.56802000000005,-5622.7281,0.0,0.0,0.06220087112174033,0.0,0.0,0.0,0.43404289545419855,0.42899171198318553,0.8461343354419572,-0.009099835508208842,-0.01043841640394149,0.08113614563901413
6221,11.0,299.91912,-5870.5221,0.0,0.0,0.06221087554211446,0.0,0.0,0.0,0.4426159032252886,0.4581242431608426,0.8837519749445293,0.008126010158999762,-0.005797807142349015,0.08383492816111321
6222,11.0,300.27562,-5908.4185,0.0,0.0,0.062220879962488596,0.0,0.0,0.0,0.4420606117729856,0.45147484004209754,0.9024762389749702,0.016347845001156682,-0.003396607156694027,0.09518391291317081
6223,11.0,300.41433,-5728.0977,0.0,0.0,0.06223088438286295,0.0,0.0,0.0,0.4150457327743246,0.4510292329131196,0.8751236943804842,0.013840094573410988,-0.00920895372870297,0.0981602469291621
6224,11.0,300.16812999999996,-5611.3923,0.0,0.0,0.06224088880323708,0.0,0.0,0.0,0.41151310722818163,0.4390538022337366,0.8551562231398482,-0.013378212621326787,-0.008635227812030632,0.1093416725386829
6225,11.0,299.90726,-5676.1431,0.0,0.0,0.062250893223611214,0.0,0.0,0.0,0.4226938255891326,0.4458896535033826,0.8568223001467772,0.007785660868959903,0.00970230378384283,0.0892195843990374
6226,11.0,300.17183,-5797.1667,0.0,0.0,0.06226089764398535,0.0,0.0,0.0,0.4416148323914905,0.4660371691542875,0.8545419301342222,0.012320974294735488,0.018654514933307283,0.1061927344079069
6227,11.0,300.08213,-6032.5261,0.0,0.0,0.062270869155081954,0.0,0.0,0.0,0.4641776829682706,0.47066615157363256,0.8988934676813781,-0.003153065503733337,0.006214354663759055,0.07423386873256244
6228,11.0,299.99096000000003,-5955.1954,0.0,0.0,0.062280873575456086,0.0,0.0,0.0,0.46396258010454156,0.4558336190572756,0.8904345214740451,-0.01192234650664399,-0.01127892053414279,0.08780675810885231
6229,11.0,299.64536,-5781.3485,0.0,0.0,0.06229087799583022,0.0,0.0,0.0,0.4443565959695816,0.4367352630899146,0.8762937044034552,-0.013498565454954687,-0.0016635139908010483,0.07765896108534272
6230,11.0,299.5007,-5900.3324,0.0,0.0,0.06230088241620435,0.0,0.0,0.0,0.45413254439189255,0.45674758077997657,0.8826735829956002,0.009039863970565111,0.009021344190537352,0.100852755406642
6231,11.0,299.5407,-6117.8702,0.0,0.0,0.062310886836578705,0.0,0.0,0.0,0.4791083183593095,0.4647721568019405,0.9157993024198542,0.007918983506517822,-0.01124511851080679,0.07736968628779352
6232,11.0,300.24335,-5925.9332,0.0,0.0,0.06232089125695284,0.0,0.0,0.0,0.46351769238313456,0.4628643892486585,0.8749536406162011,0.0031021032793537573,-0.015030891422183484,0.08957498491136272
6233,11.0,300.01605,-5752.4372,0.0,0.0,0.06233089567732697,0.0,0.0,0.0,0.4374949878823936,0.4352263715709986,0.8758758907247203,0.015711415520595982,-0.01050531624179399,0.07337947395674023
6234,11.0,300.27022999999997,-5810.5633,0.0,0.0,0.0623409000977011,0.0,0.0,0.0,0.43429979488455256,0.4595927667957746,0.8723735714890681,0.02618747011275208,0.014742181004939986,0.08987548955977022
6235,11.0,299.67075,-5877.3905,0.0,0.0,0.06235087160879771,0.0,0.0,0.0,0.44437288903118966,0.45393914534530555,0.8882679090502172,0.01032435889318489,0.00044151605063924153,0.07568046158233002
6236,11.0,300.00184,-6004.8554,0.0,0.0,0.06236087602917184,0.0,0.0,0.0,0.45275294358573653,0.4689012421519495,0.9036719044904731,0.0008214805926213223,-0.013323566016933587,0.08861926005929002
6237,11.0,299.64311000000004,-6078.0663,0.0,0.0,0.062370880449546195,0.0,0.0,0.0,0.4743231637020516,0.4780376575086436,0.8952195646737922,-0.011201025919455189,-0.0014421602858801386,0.07761930348967883
6238,11.0,300.29875,-5806.2203,0.0,0.0,0.062380884869920106,0.0,0.0,0.0,0.4436272180175976,0.4433121478990026,0.8780066442275092,-0.007308547032097432,0.022621309028049378,0.08557408076525423
6239,11.0,299.67467999999997,-5737.6658,0.0,0.0,0.06239088929029424,0.0,0.0,0.0,0.42551547380510757,0.45635914122164056,0.8622325085257231,-0.004620057915114216,0.0001008563058349924,0.08507202851295552
6240,11.0,299.34932000000003,-6032.6116,0.0,0.0,0.06240089371066859,0.0,0.0,0.0,0.47369381379993963,0.45862619712788155,0.9014432811605252,-0.012752647208338288,-0.007786816683348972,0.07965068958166102
6241,11.0,299.88722,-6071.4841,0.0,0.0,0.062410898131042725,0.0,0.0,0.0,0.46667555724729154,0.46253958179660254,0.9163644325306282,0.003179385181705887,-0.0006205702014530104,0.08151461278986592
6242,11.0,300.82599999999996,-5680.5271,0.0,0.0,0.06242090255141686,0.0,0.0,0.0,0.4144372152942686,0.44875945136410955,0.8635417391124343,0.01122893184045929,0.01063673376651389,0.11399598621052788
6243,11.0,300.19169,-5586.2573,0.0,0.0,0.062430874062513464,0.0,0.0,0.0,0.4054108388984346,0.4332078456492856,0.8594640660724991,0.011448893238417789,-0.005620299201055345,0.1012434575524513
6244,11.0,300.51353,-5829.0638,0.0,0.0,0.06244087848288782,0.0,0.0,0.0,0.4308097967701166,0.4598070793244256,0.8812729572498691,0.0065919276213976035,-0.028006375632264074,0.09584941963185122
6245,11.0,300.48992000000004,-5955.5735,0.0,0.0,0.06245088290326173,0.0,0.0,0.0,0.46824046123173557,0.4553046315775686,0.8868005405203992,0.01743457701165878,-0.002892410765858717,0.0897277769469421
6246,11.0,300.35111,-5979.2499,0.0,0.0,0.06246088732363586,0.0,0.0,0.0,0.4636744725711076,0.46614562744499155,0.8877225778463972,0.004961711055382755,0.016959535980525884,0.07675323201970422
6247,11.0,299.85039,-5785.6584,0.0,0.0,0.06247089174400999,0.0,0.0,0.0,0.4382352278754496,0.4481992253838196,0.8722612223179802,-0.002744113913022958,0.0045554211713600655,0.07896083243657742
6248,11.0,299.87507,-5819.1583,0.0,0.0,0.062480896164384125,0.0,0.0,0.0,0.4387467367909316,0.4513099031908196,0.8788221991004982,-0.009284930058301251,-0.0005112062678096305,0.07410951862729002
6249,11.0,299.75445,-6064.6443,0.0,0.0,0.06249090058475848,0.0,0.0,0.0,0.47878094738450055,0.4598212850908276,0.9048982106890002,0.006400075807713305,0.003953729146627686,0.07505461752556403
6250,11.0,300.37358,-6148.8192,0.0,0.0,0.06250087209585509,0.0,0.0,0.0,0.4770509849587665,0.4837696943843515,0.9082668011764542,0.006181288766620704,0.02078946227826018,0.08748654169299941
6251,11.0,299.61922000000004,-5859.3439,0.0,0.0,0.06251087651622922,0.0,0.0,0.0,0.4626689130393666,0.44649798859842055,0.8719273361450282,0.003186412071149387,-0.005715974429822754,0.08501157598548932
6252,11.0,299.45203,-5596.2283,0.0,0.0,0.06252088093660335,0.0,0.0,0.0,0.4122844641318086,0.4333636835146656,0.8554655278653742,-0.02011907878684848,-0.01044848101718479,0.091737648699551
6253,11.0,299.43462999999997,-5800.6536,0.0,0.0,0.06253088535697748,0.0,0.0,0.0,0.44805346935693463,0.44033785355546257,0.8748625291672091,0.0023754460052132676,-0.008026871236090513,0.09538056145282851
6254,11.0,299.61092,-5977.8967,0.0,0.0,0.06254088977735162,0.0,0.0,0.0,0.4502637528600726,0.4475681124265336,0.9192994533002922,0.01958489333412848,0.013183841867893885,0.08439559490519671
6255,11.0,300.2878,-5815.0408,0.0,0.0,0.06255089419772575,0.0,0.0,0.0,0.4277278547359526,0.4665612322385086,0.8733381045242602,0.0005535902155176005,0.0012679395305608887,0.08944218734000661
6256,11.0,300.11552,-5719.6676,0.0,0.0,0.06256089861809988,0.0,0.0,0.0,0.4125305217860926,0.44548828487377057,0.8806173337726642,-0.0026232323654928774,-0.013280447158928088,0.07360921220491363
6257,11.0,299.96269,-5892.5109,0.0,0.0,0.06257090303847401,0.0,0.0,0.0,0.4656705347381036,0.4583024231909276,0.8672032196737941,0.004149744911597936,-0.011664375057684188,0.07291552193470173
6258,11.0,300.8175,-6046.2647,0.0,0.0,0.06258087454957084,0.0,0.0,0.0,0.47019985387761254,0.4775872171766885,0.8901264427811402,0.016193204797394882,0.010425067847124091,0.09012431034707692
6259,11.0,300.60797,-6076.9724,0.0,0.0,0.06259087896994497,0.0,0.0,0.0,0.4781862810333115,0.4661074177837205,0.9029541586496371,0.013796152956324288,-0.007867306738167722,0.08197416629322032
6260,11.0,299.88005,-5835.8041,0.0,0.0,0.0626008833903191,0.0,0.0,0.0,0.4310581038396226,0.45786259158751963,0.8850180106794772,-0.012287023323634788,-0.002327685347174658,0.08918369102749502
6261,11.0,299.94835,-5668.6917,0.0,0.0,0.06261088781069302,0.0,0.0,0.0,0.4275467058830746,0.44276437476244157,0.8528296387902322,-0.02849108306935097,0.002193407620072478,0.09101173910265932
6262,11.0,299.55046,-5870.7528,0.0,0.0,0.06262089223106737,0.0,0.0,0.0,0.43841544453823555,0.4579475526084046,0.8881992714884431,-0.001990982845569708,0.022436242950284777,0.1016375165958419
6263,11.0,299.8451,-5957.7754,0.0,0.0,0.0626308966514415,0.0,0.0,0.0,0.4687630956333156,0.45964030849046655,0.8826115416919772,-0.003871294056916976,0.01034761196972979,0.08631438661956672
6264,11.0,300.66634,-5817.7163,0.0,0.0,0.06264090107181564,0.0,0.0,0.0,0.4389492854859216,0.44454232471291155,0.8849488766251541,-0.00972469417925259,-0.0020945854391444876,0.08361191992010401
6265,11.0,300.32435,-5740.0039,0.0,0.0,0.06265090549218977,0.0,0.0,0.0,0.4276487806981486,0.44549253039168957,0.8716765668777792,-0.003993702167047716,-0.002120762755477988,0.08818799548547751
6266,11.0,300.62351,-5884.629,0.0,0.0,0.0626608770032866,0.0,0.0,0.0,0.4434475789073686,0.4584513304256235,0.8868813573483753,0.01060513860189569,0.010653020748621289,0.07831466866230602
6267,11.0,300.27507,-6088.1705,0.0,0.0,0.06267088142366073,0.0,0.0,0.0,0.45447978520116256,0.4810506681385045,0.915121346910445,0.017315225269129684,-0.004656809712141336,0.08736003235176391
6268,11.0,300.02033,-6059.1129,0.0,0.0,0.06268088584403464,0.0,0.0,0.0,0.45693932822890054,0.4729397530755195,0.9119399341139642,-0.004620957782528025,-0.014879524016244686,0.05971616214152635
6269,11.0,300.01447,-5873.2393,0.0,0.0,0.06269089026440877,0.0,0.0,0.0,0.45486025048121154,0.45160392810483757,0.8788539138286282,0.007099738477989634,-0.01951221695745588,0.07242765113080264
6270,11.0,299.94055,-5769.1236,0.0,0.0,0.0627008946847829,0.0,0.0,0.0,0.4474298544503885,0.4331317201692726,0.8731079346315442,-0.009903746718998699,0.008581635899666522,0.07015587043934533
6271,11.0,299.72082,-5802.2039,0.0,0.0,0.06271089910515726,0.0,0.0,0.0,0.44516477438184254,0.44935670150305357,0.8692036388162202,0.0013661764582311188,0.005726360952622824,0.1029899015043119
6272,11.0,299.97324,-5847.7878,0.0,0.0,0.06272090352553139,0.0,0.0,0.0,0.44513496456390056,0.4503746328185156,0.8820718644237152,-0.015863674586622786,0.013330075135575988,0.08654727810205133
6273,11.0,300.03475,-5879.5711,0.0,0.0,0.06273090794590575,0.0,0.0,0.0,0.4348807012993836,0.4636726588534285,0.888689461621821,-0.0005756045330202444,0.017111259037249783,0.09965022208196121
6274,11.0,299.65112999999997,-5794.5634,0.0,0.0,0.06274087945700213,0.0,0.0,0.0,0.43457811442202066,0.45127034590691556,0.8755541230229642,-0.0038594466301227265,0.02033466091787478,0.09792735240692721
6275,11.0,300.6693,-5767.6465,0.0,0.0,0.06275088387737648,0.0,0.0,0.0,0.4406463983434136,0.4418264395423746,0.8707476799811051,0.003696553402971416,-0.0018080670871673283,0.08226184724836222
6276,11.0,300.55843,-5944.486999999999,0.0,0.0,0.0627608882977504,0.0,0.0,0.0,0.44876021130168453,0.4670127364830685,0.8912026663748551,-0.005626922006358964,-0.0062504016440166135,0.07985560218913433
6277,11.0,300.47137000000004,-6013.3406,0.0,0.0,0.06277089271812453,0.0,0.0,0.0,0.46766572551001356,0.4632870766603746,0.8969525769823271,0.006475874109269014,-0.007560871334274902,0.07104741197708363
6278,11.0,300.17355,-6032.5551,0.0,0.0,0.06278089713849888,0.0,0.0,0.0,0.44856618404003556,0.47608526642095755,0.9090946670381581,0.00012723010656163385,0.006149441910677665,0.09022739233275032
6279,11.0,300.40299,-5864.4048,0.0,0.0,0.06279090155887301,0.0,0.0,0.0,0.44594144071599356,0.45247084462539555,0.8842203295382522,0.002488122861383608,-0.01055797890249139,0.08116146979876342
6280,11.0,300.51632,-5797.899,0.0,0.0,0.06280090597924737,0.0,0.0,0.0,0.4197059131642486,0.45461012969402653,0.8881004897361943,-0.004000078043301966,-0.014698617330140587,0.0906475395264656
6281,11.0,300.53569,-5910.0905,0.0,0.0,0.06281087749034375,0.0,0.0,0.0,0.46620867186621356,0.45794265861042155,0.8723686166960792,0.0054559529732606344,0.004288852193976757,0.08460601452696352
6282,11.0,300.13082,-6062.5678,0.0,0.0,0.06282088191071789,0.0,0.0,0.0,0.46625053936034555,0.4640980516429115,0.9125206378787751,0.011393265807927789,0.015822711924830087,0.08980387608245251
6283,11.0,300.05388,-5853.8411,0.0,0.0,0.06283088633109202,0.0,0.0,0.0,0.45744173815848455,0.45298022571566754,0.8689995601135792,0.0037409441938274467,0.010989076290037389,0.09576194271096791
6284,11.0,300.04816,-5662.1084,0.0,0.0,0.06284089075146615,0.0,0.0,0.0,0.4086305120186916,0.4404241115364756,0.8720849471980832,-0.017121240563984882,0.011413222781897388,0.08312153625595692
6285,11.0,299.62602999999996,-5952.4528,0.0,0.0,0.0628508951718405,0.0,0.0,0.0,0.4554547445798836,0.4692246513188676,0.8847176225548312,0.0011152794201445089,0.002840660435551357,0.09202871796302732
6286,11.0,299.56492000000003,-6160.0406,0.0,0.0,0.06286089959221464,0.0,0.0,0.0,0.4856755772924476,0.4773312904664306,0.9094916482948371,0.0063525975424775635,0.004287617954029946,0.07941943348483783
6287,11.0,299.93778,-6016.4278,0.0,0.0,0.06287090401258877,0.0,0.0,0.0,0.4732620881973315,0.4687835126228305,0.8867982201776701,0.0042095037680456755,-0.011793893751716689,0.08704700494537052
6288,11.0,300.02267,-5751.5262,0.0,0.0,0.0628809084329629,0.0,0.0,0.0,0.4280578601610216,0.45176132637537153,0.8685011626543913,-0.0004919612742877975,-0.01933284230550298,0.07347049927947372
6289,11.0,300.56548,-5784.0791,0.0,0.0,0.06289087994405951,0.0,0.0,0.0,0.4369815740567236,0.4501784574666546,0.8710556066864953,0.0016103011352993485,-0.00942803552424966,0.08498935642404641
6290,11.0,300.24624,-6022.0997,0.0,0.0,0.06290088436443364,0.0,0.0,0.0,0.4542353791445416,0.47409398679443354,0.9022385710315142,0.018930132132758584,0.0034820380216503966,0.09729563555258161
6291,11.0,300.61709,-5982.4794,0.0,0.0,0.06291088878480777,0.0,0.0,0.0,0.46353863626270153,0.4617060113368356,0.8932797176223441,0.00962511317532471,-0.018651542057513883,0.09467923735636322
6292,11.0,300.2621,-5790.3317,0.0,0.0,0.0629208932051819,0.0,0.0,0.0,0.4275533528037306,0.45089050884192855,0.8816723905717901,0.0013689556006053986,-0.012995914371846886,0.09674275867526691
6293,11.0,299.75752,-5630.1317,0.0,0.0,0.06293089762555626,0.0,0.0,0.0,0.4167211823446786,0.44316519623699957,0.8515330839622722,-0.008742376578305391,-0.009038678163973081,0.08821879322226701
6294,11.0,299.52307,-5811.1376,0.0,0.0,0.06294090204593039,0.0,0.0,0.0,0.4319516283078066,0.45564148657331355,0.8788476215455072,-0.008934605625001922,0.0006881559488282043,0.1046927088273659
6295,11.0,299.8929,-6082.2434,0.0,0.0,0.06295090646630452,0.0,0.0,0.0,0.4822813009149585,0.4634160228681005,0.903152796199241,-0.009776979809587782,0.013834863163144686,0.07631547352600083
6296,11.0,299.51617999999996,-5940.6312,0.0,0.0,0.06296091088667866,0.0,0.0,0.0,0.4387675388154846,0.4645320063957396,0.902504012160211,-0.01092445322515959,0.003493960935577096,0.0900475384135001
6297,11.0,299.67092,-5706.8877,0.0,0.0,0.06297088239777526,0.0,0.0,0.0,0.42601452987686056,0.4429731853430496,0.8657636445942191,0.002427715930171908,0.007454177010669992,0.06696379521206204
6298,11.0,300.10969,-5915.9306,0.0,0.0,0.0629808868181494,0.0,0.0,0.0,0.4598633451024786,0.4545160291572396,0.8839158073531982,-0.005771560925008714,0.002179309156856068,0.08504369196065892
6299,11.0,300.38861,-6131.4742,0.0,0.0,0.06299089123852353,0.0,0.0,0.0,0.5000875198247955,0.46088623121092953,0.9028413028534992,0.007032395140568363,-0.0007455828101707943,0.07044861561848703
6300,11.0,300.48706,-5947.1148,0.0,0.0,0.06300089565889766,0.0,0.0,0.0,0.46003644874956257,0.4495289641525546,0.8982089767088242,-0.003165093086395367,-0.016803413391867784,0.07023755258290673
6301,11.0,300.25562,-5872.536999999999,0.0,0.0,0.06301090007927179,0.0,0.0,0.0,0.44695070874310056,0.4431604238290286,0.8949934680464782,0.007918756234520392,-0.006143701342236114,0.07555482059643022
6302,11.0,299.86773,-5922.3383,0.0,0.0,0.06302090449964615,0.0,0.0,0.0,0.4405551855694116,0.45690593150560455,0.9027818453376311,-0.004296876628143706,-0.008789194204475931,0.08852047830704102
6303,11.0,299.91716,-5957.6384,0.0,0.0,0.06303090892002028,0.0,0.0,0.0,0.4645358567461196,0.4498805619372545,0.8965569129507782,-0.006098560847631094,-0.01103076747865199,0.08937895648076623
6304,11.0,300.01842,-5918.0334,0.0,0.0,0.06304088043111666,0.0,0.0,0.0,0.44146025095623453,0.46396174923945954,0.8935123598453042,0.00045845613323109753,-0.006055279565634564,0.08920023942812821
6305,11.0,299.53395,-5834.7494,0.0,0.0,0.06305088485149102,0.0,0.0,0.0,0.44771064631810054,0.46139075883322256,0.8645167086236563,-0.0004882629418203005,0.00819801981710656,0.09280618780450761
6306,11.0,299.48419,-5719.2802,0.0,0.0,0.06306088927186537,0.0,0.0,0.0,0.4117978001087786,0.46522494787412755,0.8614956223904982,0.0045301574013167254,0.01840835291426298,0.096870935826167
6307,11.0,299.65946,-5792.4511,0.0,0.0,0.06307089369223928,0.0,0.0,0.0,0.44610065270420657,0.4567830850634806,0.8578767692608452,-0.005995449072404754,0.013754361455949786,0.09384948380972291
6308,11.0,300.19248999999996,-6002.3746,0.0,0.0,0.06308089811261341,0.0,0.0,0.0,0.4408524123537456,0.47124998628125253,0.9124696004712382,5.581664076067355e-05,0.0029131678021072777,0.09165462095985681
6309,11.0,300.55678,-6048.8151,0.0,0.0,0.06309090253298755,0.0,0.0,0.0,0.47874342673329756,0.4695139139574156,0.8904314107962382,-0.0003754838689798726,0.01071576018156319,0.0862022238864971
6310,11.0,299.83831000000004,-6008.1812,0.0,0.0,0.06310090695336168,0.0,0.0,0.0,0.44791016539529155,0.48049773755893455,0.8979291474287072,-0.002301629316878128,-0.0026162216880509775,0.100017371229196
6311,11.0,299.94412,-5941.1498,0.0,0.0,0.06311091137373603,0.0,0.0,0.0,0.4695025756887966,0.4598028034090036,0.8766557994591911,-0.005370020042879714,-0.016742847380390384,0.08269324658443801
6312,11.0,300.82209,-5889.0646,0.0,0.0,0.06312088288483264,0.0,0.0,0.0,0.43214050825894756,0.45867718387291356,0.8993108963250752,0.001038999318166249,-0.026817836304714376,0.08894890780707372
6313,11.0,301.32697,-5879.619000000001,0.0,0.0,0.06313088730520677,0.0,0.0,0.0,0.4475604826532805,0.4526972756252426,0.8869996137675461,0.00958719451948243,0.013792401904454089,0.08644179775339123
6314,11.0,300.82944,-5928.2906,0.0,0.0,0.0631408917255809,0.0,0.0,0.0,0.43283619564510656,0.4677694012602455,0.9014467160783641,0.013705879465164987,0.003122280027270047,0.08409845424712122
6315,11.0,300.67721,-5862.516,0.0,0.0,0.06315089614595504,0.0,0.0,0.0,0.45836594383969653,0.4534379513158416,0.8702545818199402,-0.003372877345977077,0.012817476976236487,0.08691508383535092
6316,11.0,300.35119,-5777.7818,0.0,0.0,0.06316090056632917,0.0,0.0,0.0,0.4351780294087276,0.43889072976264254,0.882232626684581,-0.007988071660611294,-0.005270376217445635,0.07290956605061394
6317,11.0,300.32968,-5975.2983,0.0,0.0,0.0631709049867033,0.0,0.0,0.0,0.47004519138234857,0.46230141736059754,0.8839948813910021,-0.001188591712579869,0.008320981668416952,0.08095335734747433
6318,11.0,299.97769,-6214.4097,0.0,0.0,0.06318090940707743,0.0,0.0,0.0,0.48373276141820654,0.4829714255580685,0.9223211880135141,-0.007175971666488263,0.006012181681906134,0.08268806381017652
6319,11.0,300.02128,-6032.8646,0.0,0.0,0.06319091382745157,0.0,0.0,0.0,0.4703317081131256,0.46999341430223857,0.8935150854880731,-0.011061292651164591,-0.0005085880194187296,0.090098139110244
6320,11.0,299.58537,-5832.92,0.0,0.0,0.0632008853385484,0.0,0.0,0.0,0.4408877241197306,0.45181849394601353,0.8803558240543552,-0.003219221717337447,-0.011409564949036388,0.08347977285531212
6321,11.0,299.92135,-5796.1625,0.0,0.0,0.06321088975892253,0.0,0.0,0.0,0.4374321359786906,0.44411173395041553,0.8803447998932672,-0.008203237852471542,0.01132983939141809,0.08556959814681182
6322,11.0,300.17326,-5855.2123,0.0,0.0,0.06322089417929666,0.0,0.0,0.0,0.42861766057626965,0.46337996129704156,0.8878407126755562,0.017885437842405285,0.003947067939145277,0.1029331493662109
6323,11.0,299.94622000000004,-5915.8278,0.0,0.0,0.06323089859967057,0.0,0.0,0.0,0.4493123110161726,0.4699727845302026,0.8789788273009561,-0.0025128280266468175,-0.0028730713678250673,0.10147356259716091
6324,11.0,300.3521,-5782.328,0.0,0.0,0.06324090302004493,0.0,0.0,0.0,0.4258780552208916,0.45276487967191453,0.8790403822445312,0.011478146782054888,-0.015483681481120386,0.10745329859231491
6325,11.0,300.47792999999996,-5752.7390000000005,0.0,0.0,0.06325090744041906,0.0,0.0,0.0,0.4284843573931135,0.45331728336143257,0.8668873794851232,0.008967990695921772,-0.003677164862307916,0.07501624371777683
6326,11.0,300.05527,-5918.0055,0.0,0.0,0.06326091186079319,0.0,0.0,0.0,0.4390183182152346,0.4671432734934515,0.8927643076939772,0.007248167863938473,-0.003692654112611587,0.0989141303348146
6327,11.0,300.56065,-6116.0148,0.0,0.0,0.0632708833718898,0.0,0.0,0.0,0.48257822372426257,0.4669138635383106,0.9096236747828671,-0.008620510556978152,-0.0002222893299307488,0.06709346285385924
6328,11.0,300.48835,-6012.1323,0.0,0.0,0.06328088779226415,0.0,0.0,0.0,0.46083438320331255,0.45887263981720355,0.9078310732359511,-0.02038595265118688,-0.012186587947222589,0.08584414028790702
6329,11.0,300.62129,-5723.0578,0.0,0.0,0.06329089221263828,0.0,0.0,0.0,0.4395982316449676,0.4297635045843556,0.8703049200849082,-0.01048998576778099,0.02056635473874118,0.07521065500121372
6330,11.0,300.02119,-5739.1334,0.0,0.0,0.0633008966330122,0.0,0.0,0.0,0.4241276555406406,0.4502192914456846,0.8702063004526751,0.007317577116988633,0.006539879395560843,0.1013167155346813
6331,11.0,300.15465,-5986.8898,0.0,0.0,0.06331090105338633,0.0,0.0,0.0,0.47058390606301553,0.4554662854985225,0.8938148150001541,0.008988506274671503,0.006402645308641894,0.08443409739574662
6332,11.0,300.09507,-5941.7501,0.0,0.0,0.06332090547376046,0.0,0.0,0.0,0.45466830038226763,0.4502417045378966,0.9012336599798372,0.004433225742425316,-0.019075656125370682,0.0927440654408766
6333,11.0,300.16331,-5763.6937,0.0,0.0,0.06333090989413481,0.0,0.0,0.0,0.4424168603756446,0.4357189732396146,0.8738831418855513,0.005445694727923224,0.0061229785538409335,0.07816216945600551
6334,11.0,299.19037000000003,-5773.670999999999,0.0,0.0,0.06334091431450894,0.0,0.0,0.0,0.4190114315457086,0.4469073923013256,0.8891329713230922,-0.006680294986468783,-0.0033014067369234765,0.0899813964867224
6335,11.0,299.97099,-5976.3227,0.0,0.0,0.06335088582560555,0.0,0.0,0.0,0.4532735312221146,0.46285892783061955,0.9005204231019461,-0.02019653061124238,-0.00022064209937567978,0.0886203199188946
6336,11.0,299.55294,-6145.6348,0.0,0.0,0.06336089024597968,0.0,0.0,0.0,0.4690711236637156,0.4769896630627145,0.9220587157076101,-0.005503821137134855,-0.008011412180639822,0.08355885803886723
6337,11.0,300.22958,-6023.8149,0.0,0.0,0.06337089466635404,0.0,0.0,0.0,0.4825237311338845,0.4634821374371255,0.8850834362384342,0.006662296726267494,0.017440180284711785,0.06843379717888992
6338,11.0,300.17387,-5724.1846,0.0,0.0,0.06338089908672795,0.0,0.0,0.0,0.42711833413829764,0.45115127888766454,0.8617395826170752,0.02102521416577708,0.02032626208779588,0.08610134977279162
6339,11.0,299.77431,-5752.1889,0.0,0.0,0.06339090350710208,0.0,0.0,0.0,0.4488193243125186,0.44040472806206254,0.8592977410685843,-0.0005386265076432975,0.004307597320826756,0.08914721098414473
6340,11.0,300.16472000000005,-6018.4141,0.0,0.0,0.06340090792747644,0.0,0.0,0.0,0.4519015804542136,0.4726050765674895,0.9049409495782182,-0.0008960334476841161,-0.016497260887402884,0.09425107940735732
6341,11.0,300.70878999999996,-6027.9869,0.0,0.0,0.06341091234785057,0.0,0.0,0.0,0.4674024324715286,0.4577138667378416,0.9072411995577352,-0.008513668501508663,0.0033939710852338664,0.08982351692239092
6342,11.0,300.02693999999997,-5792.4094,0.0,0.0,0.06342091676822492,0.0,0.0,0.0,0.4111062163855246,0.45952587202417255,0.8901157327275833,-0.003497220966448837,-0.0008613359544397401,0.1050479644449269
6343,11.0,300.22992999999997,-5685.9045,0.0,0.0,0.0634308882793213,0.0,0.0,0.0,0.42652319155956153,0.43950223633049357,0.8623475732070792,-0.01903385145274488,0.00034045206399750265,0.09391175512111861
6344,11.0,299.51112,-5856.6994,0.0,0.0,0.06344089269969544,0.0,0.0,0.0,0.43451420873821356,0.45553381861768755,0.8902423383275782,-0.012675050489180089,-0.008065591372761893,0.08139741116404901
6345,11.0,299.62687,-5948.5566,0.0,0.0,0.06345089712006957,0.0,0.0,0.0,0.4687363154331725,0.45705983406329354,0.8824165214452302,0.005854507300719884,0.006145728957011223,0.09358981314034541
6346,11.0,299.8018,-6008.0106,0.0,0.0,0.0634609015404437,0.0,0.0,0.0,0.4460559987722995,0.4662787077131256,0.913950506022392,0.010833788619461689,0.0098477828894755,0.07469148388847553
6347,11.0,299.57547999999997,-5891.2857,0.0,0.0,0.06347090596081806,0.0,0.0,0.0,0.4463118545550506,0.4589008385674866,0.8855910644060332,0.01228630391606379,0.0031897232711511772,0.08639201981572851
6348,11.0,299.57989,-5840.8012,0.0,0.0,0.06348091038119219,0.0,0.0,0.0,0.4276057074363976,0.4606976856323216,0.8871543167928141,0.006331373397932905,-0.0019038510376704681,0.06648256828906864
6349,11.0,300.47438,-6051.3933,0.0,0.0,0.06349091480156632,0.0,0.0,0.0,0.4796122886940476,0.46195652729155956,0.8979036439236902,0.004651946415636365,0.00897773350093331,0.07665707154546392
6350,11.0,299.89389,-6167.0536,0.0,0.0,0.06350091922194046,0.0,0.0,0.0,0.4897024459723685,0.47163488959673955,0.9132929776349992,-0.0014679499327253788,0.001792250253106328,0.07268256053796023
6351,11.0,299.97078,-5865.071999999999,0.0,0.0,0.06351089073303706,0.0,0.0,0.0,0.45928421187532253,0.4425794971491956,0.8809717179951393,-0.023624906907596777,-0.011541044282012388,0.09809801817427061
6352,11.0,299.94082000000003,-5732.9138,0.0,0.0,0.0635208951534112,0.0,0.0,0.0,0.42197396205558757,0.4349438875756196,0.8857447947112052,-0.02103542570028488,-0.010728217078292591,0.08830786702530792
6353,11.0,299.24172000000004,-5871.2052,0.0,0.0,0.06353089957378533,0.0,0.0,0.0,0.4451276185006756,0.4502128978375536,0.8893592503354241,-0.0013547059604740689,-0.0012283751539061889,0.09534531554810001
6354,11.0,299.40701,-5989.6555,0.0,0.0,0.06354090399415946,0.0,0.0,0.0,0.4460353487352616,0.4656914684851695,0.908978882949231,0.024676603769391178,0.012141108216484089,0.0938559787428639
6355,11.0,300.13625,-5955.6709,0.0,0.0,0.06355090841453381,0.0,0.0,0.0,0.46299287949383955,0.47104986938650256,0.876332501749784,0.022440379037192978,-0.012906115081734386,0.08610991781563722
6356,11.0,299.72022000000004,-5846.5372,0.0,0.0,0.06356091283490795,0.0,0.0,0.0,0.43685958887718457,0.46294846874195655,0.8773932631469731,0.013911329095191285,-0.0023367125949655776,0.08578441527401262
6357,11.0,299.65432000000004,-5844.9425,0.0,0.0,0.06357091725528208,0.0,0.0,0.0,0.4420332033577806,0.46457214123220053,0.8701112271957921,0.002370047510005478,0.0045548495969786554,0.08122565615284812
6358,11.0,300.3566,-6000.5723,0.0,0.0,0.06358088876637846,0.0,0.0,0.0,0.4356770449504766,0.47928935575467657,0.9090577239395122,-0.005459712029806625,0.006177155820787814,0.09563595823328422
6359,11.0,300.07855,-6124.1786,0.0,0.0,0.06359089318675282,0.0,0.0,0.0,0.4714737828308395,0.47838078452250754,0.9117428164395102,-0.023165951221801376,0.000982235365569083,0.08007729523151372
6360,11.0,300.17638999999997,-5931.9156,0.0,0.0,0.06360089760712695,0.0,0.0,0.0,0.4373793760459836,0.4648389907785365,0.9009358657754472,-0.022385739525550476,0.0013376565076664189,0.08706199192759961
6361,11.0,299.88074,-5703.7452,0.0,0.0,0.06361090202750108,0.0,0.0,0.0,0.4356240722352486,0.4405909836954446,0.8575810826166632,0.0041267292395514655,-0.0022128434795156476,0.08915514169267741
6362,11.0,299.73722000000004,-5849.4961,0.0,0.0,0.06362090644787521,0.0,0.0,0.0,0.4440739397216856,0.4455780993626346,0.8884487032655601,-0.005153528621213675,-0.0020177347760349184,0.0967522953852081
6363,11.0,299.65238,-6166.9766,0.0,0.0,0.06363091086824935,0.0,0.0,0.0,0.4924013085412255,0.4724089214806306,0.9097966568399392,0.019401467708275784,-0.01934583419828518,0.08614646979974461
6364,11.0,299.9849,-6127.1829,0.0,0.0,0.0636409152886237,0.0,0.0,0.0,0.4654779969541016,0.4774171735449066,0.9196154454764781,-0.002142369604585418,-0.006878027906383504,0.08856253223919142
6365,11.0,300.01087,-5899.6727,0.0,0.0,0.06365091970899783,0.0,0.0,0.0,0.44563111260786653,0.46056927644714857,0.8871527867851632,0.016181677051007183,0.01021903762479049,0.07972182379168143
6366,11.0,299.70899,-5889.1326,0.0,0.0,0.06366089122009422,0.0,0.0,0.0,0.4291808047168476,0.46645951206096953,0.8945089318486582,-0.0003912703359353757,0.0004824967685487236,0.08370138585093363
6367,11.0,300.11768,-6047.9651,0.0,0.0,0.06367089564046857,0.0,0.0,0.0,0.4714379745723055,0.47571240051665853,0.8912799976224871,0.002855269475493157,-0.0024231168892930176,0.07605192616174072
6368,11.0,300.37843,-6129.321,0.0,0.0,0.06368090006084293,0.0,0.0,0.0,0.48303134916898255,0.46507944515976757,0.9150497303933771,0.0068669877359439245,-0.004274826583442535,0.07113947790766983
6369,11.0,300.44281,-6013.3459,0.0,0.0,0.06369090448121684,0.0,0.0,0.0,0.4705950416816146,0.4599446685555046,0.8973672901157561,0.014614938070632086,-0.006014219733157275,0.08092357488728502
6370,11.0,299.86982,-5762.0654,0.0,0.0,0.06370090890159097,0.0,0.0,0.0,0.42176714757767664,0.45138795384602254,0.8783689014032611,-0.0022726183453149677,0.009240549906571272,0.08649382814602623
6371,11.0,299.27792,-5910.1931,0.0,0.0,0.0637109133219651,0.0,0.0,0.0,0.44801455042059357,0.4658916765724286,0.8826449080177701,-0.0067459880434521825,-0.003151190991048337,0.10101701540685322
6372,11.0,299.5114,-6189.2519,0.0,0.0,0.06372091774233923,0.0,0.0,0.0,0.4802976307966855,0.47573655639904255,0.9253438447843272,-0.008599772063206421,0.00995998270749876,0.09126525123792902
6373,11.0,299.66954,-6107.0178,0.0,0.0,0.06373092216271359,0.0,0.0,0.0,0.4831359875068095,0.47882152805100553,0.8944234034077172,0.006610335538614323,0.0043255563682491754,0.10579389890354489
6374,11.0,299.26155,-5816.9876,0.0,0.0,0.0637408936738102,0.0,0.0,0.0,0.4280291345206866,0.4621584579039886,0.8780313776624502,0.0016948780330714383,-0.0009315258356319422,0.09560606938183441
6375,11.0,299.59305,-5752.6599,0.0,0.0,0.06375089809418433,0.0,0.0,0.0,0.4337625798140336,0.4532839170356396,0.8616184688326222,-0.014336899203441786,-0.02991933811880877,0.09930798774143532
6376,11.0,300.36584,-5963.3448,0.0,0.0,0.06376090251455846,0.0,0.0,0.0,0.43850384047695956,0.46069402779946056,0.9135100360714211,-0.009664486351685542,-0.014553100430279185,0.07635529526818093
6377,11.0,300.21765,-6041.3424,0.0,0.0,0.06377090693493259,0.0,0.0,0.0,0.46307191300163963,0.4679320481662975,0.9054132862448342,0.014644999174598885,-0.007272922273156543,0.08814406400089182
6378,11.0,300.56074,-5889.4132,0.0,0.0,0.06378091135530672,0.0,0.0,0.0,0.4191532257647026,0.4643904249592666,0.906690913560926,0.015951974266587284,0.014708246245840885,0.07883471218338033
6379,11.0,300.22764,-5830.2486,0.0,0.0,0.06379091577568086,0.0,0.0,0.0,0.43742582343056763,0.4583798658960706,0.8764442936333171,-0.001198161454474329,-0.006224348450820364,0.08286068008396243
6380,11.0,299.89044,-5970.023,0.0,0.0,0.06380092019605499,0.0,0.0,0.0,0.44723597917625457,0.4562286650062636,0.9112732662106691,-0.01101548462739369,-0.001003446945812503,0.07122954672230894
6381,11.0,299.70681,-6190.8427,0.0,0.0,0.06381089170715182,0.0,0.0,0.0,0.5128487360892295,0.4605835430085566,0.9084293163599932,-0.007831908035324143,0.004221928038121856,0.08884460992128032
6382,11.0,299.52819,-6146.7638,0.0,0.0,0.06382089612752595,0.0,0.0,0.0,0.47044245634905557,0.47246159022082856,0.9255586639380282,-0.0008025595148914573,0.013339598673265887,0.0854961658855646
6383,11.0,299.70682,-5832.9619999999995,0.0,0.0,0.06383090054790008,0.0,0.0,0.0,0.4542192786004525,0.4428051479464656,0.8760503825244411,-0.012427362515485187,-0.018024890440418183,0.09794010314618559
6384,11.0,299.62625,-5819.8223,0.0,0.0,0.06384090496827421,0.0,0.0,0.0,0.4221447453599426,0.44850802348429564,0.8984278995254302,-0.004898737966967795,-0.011515891361529989,0.09520858960610622
6385,11.0,300.14825,-6027.7074,0.0,0.0,0.06385090938864812,0.0,0.0,0.0,0.4840869227256595,0.44989118079830254,0.8982944443547592,0.0025609827376493173,-0.0016222985231083983,0.08001238744335783
6386,11.0,300.28862999999996,-6048.9433,0.0,0.0,0.06386091380902248,0.0,0.0,0.0,0.4467641086046846,0.4691022608392885,0.9228613415093231,0.01968267095552838,0.014306047764396985,0.07290091694776034
6387,11.0,300.03303999999997,-5862.8946,0.0,0.0,0.06387091822939661,0.0,0.0,0.0,0.44522127320741856,0.4543721577755406,0.8825801410713782,0.006339083623243843,-0.008281033168649343,0.08215410431222883
6388,11.0,300.03674,-5862.0232,0.0,0.0,0.06388092264977074,0.0,0.0,0.0,0.42644626561196963,0.4540992388611056,0.901363173607619,5.465625560040245e-05,0.0051916305739990445,0.07107214439877453
6389,11.0,300.62516,-6001.4378,0.0,0.0,0.06389089416086735,0.0,0.0,0.0,0.47160929489921355,0.46651072172102354,0.8861672186778952,0.009550775676438172,-0.007184724627477114,0.08945190846146601
6390,11.0,299.6112,-6063.7753,0.0,0.0,0.0639008985812417,0.0,0.0,0.0,0.4470190625948466,0.4778494057725646,0.9183678204958472,-0.0045876811293688756,0.011363432685233488,0.08820215768212522
6391,11.0,299.75027,-5923.0423,0.0,0.0,0.06391090300161584,0.0,0.0,0.0,0.46232359740528656,0.4639733914831086,0.874159982077873,-0.007860706123041293,-0.019406089141981882,0.1031269435803369
6392,11.0,299.7877,-5761.6972,0.0,0.0,0.06392090742198975,0.0,0.0,0.0,0.42419856278263857,0.44381158900579354,0.8834019375649832,-0.016998517738373086,-0.013204341943917088,0.09689272779606771
6393,11.0,299.4635,-5669.7519,0.0,0.0,0.06393091184236388,0.0,0.0,0.0,0.4409365729070516,0.4301433011193386,0.8523831298686652,-0.0016577295486301686,-0.0015551901583853187,0.1035448889815849
6394,11.0,300.06376,-5787.8071,0.0,0.0,0.06394091626273801,0.0,0.0,0.0,0.4286668133386206,0.4474286588152706,0.8832533444378181,-0.011636095247393188,0.015502862305513385,0.1040301648519779
6395,11.0,300.86341,-5963.2844,0.0,0.0,0.06395092068311237,0.0,0.0,0.0,0.4618320799142776,0.4645936322668216,0.886263862472433,0.006046186861887183,-0.009332308721052162,0.09314713734390671
6396,11.0,300.13069,-5940.3043,0.0,0.0,0.0639609251034865,0.0,0.0,0.0,0.4349332788470726,0.4634927056356685,0.9072781831863852,-0.005063371653815875,-0.001073768995347749,0.09674381144212081
6397,11.0,300.25095,-5915.1132,0.0,0.0,0.0639708966145831,0.0,0.0,0.0,0.4634124055652436,0.45781549572287156,0.8768188212677801,0.01887123089119548,-0.0005696239458950065,0.08417035042121682
6398,11.0,299.91916000000003,-6039.7275,0.0,0.0,0.06398090103495724,0.0,0.0,0.0,0.45665892139622655,0.46823211205091153,0.9110353145571851,-0.011491218721594988,-0.0005547154702836545,0.08277627635063242
6399,11.0,300.28605,-6106.3306,0.0,0.0,0.06399090545533159,0.0,0.0,0.0,0.47101444616300653,0.4809874514647655,0.9041701398296451,-0.007696605304420802,-0.013811935339881886,0.06936789319432803
6400,11.0,299.80984,-6089.6814,0.0,0.0,0.0640009098757055,0.0,0.0,0.0,0.4574260834444396,0.4734537444537466,0.9202312684897551,-0.01035345842280679,-0.015259496856745087,0.07475249775649713
6401,11.0,299.29984,-6106.4745,0.0,0.0,0.06401091429607964,0.0,0.0,0.0,0.46706680350840457,0.47545712228646453,0.9136918435368641,-0.006053269682736204,0.00042695189767687165,0.07232807093747483
6402,11.0,299.71965,-5904.9971,0.0,0.0,0.06402091871645399,0.0,0.0,0.0,0.44041319883289853,0.4599762211636185,0.8945822506258941,0.004324853274004786,0.007003880256254163,0.09935038617861972
6403,11.0,300.40525,-5782.9071,0.0,0.0,0.06403092313682812,0.0,0.0,0.0,0.4413512151129736,0.4416208105670806,0.874887343662158,-0.01147964436570269,0.0009097353349438872,0.09074393406147901
6404,11.0,299.56131,-5946.5653,0.0,0.0,0.06404089464792473,0.0,0.0,0.0,0.45067577074823556,0.4584087333914195,0.8985228410598002,-0.0031267062076818773,0.0070675025340081925,0.1023650403001429
6405,11.0,299.47343,-6040.2365,0.0,0.0,0.06405089906829886,0.0,0.0,0.0,0.4727810679773585,0.4693276177940296,0.8939723956557062,0.004752791449063995,0.011718302254506388,0.08332644582367993
6406,11.0,299.81228,-5837.5444,0.0,0.0,0.064060903488673,0.0,0.0,0.0,0.44132024005741655,0.45149366622895554,0.8816538075649561,0.007373288647236933,0.01122045904312309,0.10897588925258289
6407,11.0,299.64943999999997,-5851.53,0.0,0.0,0.06407090790904713,0.0,0.0,0.0,0.44011040930551554,0.4661654466169476,0.8724431513734352,-0.006517874035189083,-0.007663679033146233,0.09168474184557951
6408,11.0,299.69372000000004,-6051.7437,0.0,0.0,0.06408091232942126,0.0,0.0,0.0,0.4525473348754446,0.4771866895446595,0.9098449483397052,0.004907877178894765,-0.013673264970946186,0.09142978988191772
6409,11.0,299.84617000000003,-6126.3978,0.0,0.0,0.06409091674979561,0.0,0.0,0.0,0.47598955481651156,0.48161858468705354,0.9046638256758681,-0.002028173987840188,-0.006539733791521473,0.07245112205611902
6410,11.0,299.55397999999997,-6010.149,0.0,0.0,0.06410092117016974,0.0,0.0,0.0,0.4451632443741916,0.4731864693423685,0.9085855088629081,0.002387968965849188,0.004206465334970806,0.0927684310660313
6411,11.0,300.54505,-5793.999,0.0,0.0,0.06411092559054388,0.0,0.0,0.0,0.4370675989902135,0.44443355231467657,0.8797298584075771,-0.018984026905577583,0.0023163854807344477,0.06319057849592453
6412,11.0,300.57775,-5784.4191,0.0,0.0,0.06412089710164048,0.0,0.0,0.0,0.4287906325008406,0.4583399134446276,0.8711884235096031,-0.011668063288048189,0.008420710302884403,0.0976003350564031
6413,11.0,300.25063,-5989.9021,0.0,0.0,0.06413090152201462,0.0,0.0,0.0,0.47197552401535753,0.4605961478398005,0.8882089885569022,0.005843695516852844,0.016470489806510787,0.08693739965555332
6414,11.0,300.21322999999995,-6020.9504,0.0,0.0,0.06414090594238875,0.0,0.0,0.0,0.46260410556297055,0.4636030181740556,0.9040114648639852,0.006527343667973665,0.01105407932370269,0.1116323067747509
6415,11.0,300.02139,-5885.2897,0.0,0.0,0.06415091036276288,0.0,0.0,0.0,0.45206776360311457,0.45764200704074953,0.8792713424723251,-0.01083081270391799,-0.002975948271678227,0.0882507156666675
6416,11.0,299.60846000000004,-5844.1866,0.0,0.0,0.06416091478313701,0.0,0.0,0.0,0.43082102358122465,0.4541986589609176,0.8914671043859531,-0.0037454770694748066,-0.002770086147536217,0.0995222779785841
6417,11.0,299.77537,-6078.5408,0.0,0.0,0.06417091920351137,0.0,0.0,0.0,0.47379870545029157,0.4616405047178705,0.9122854118680601,-0.0043574423356460765,0.01147710921395249,0.07068615589243044
6418,11.0,299.39517,-6173.6569,0.0,0.0,0.0641809236238855,0.0,0.0,0.0,0.4662864185463866,0.48670467462401157,0.923646458349308,0.010029614774245911,-0.0004497055736449846,0.0896476845927876
6419,11.0,299.96061000000003,-5916.1615,0.0,0.0,0.06419092804425963,0.0,0.0,0.0,0.4600962913004686,0.4416884956737606,0.8965805824731141,-0.008326141137926152,0.004098541331044535,0.06549354601220975
6420,11.0,300.05782,-5798.4089,0.0,0.0,0.06420089955535602,0.0,0.0,0.0,0.4252821527045806,0.4566291014457836,0.8806602550469002,-0.0013242488783681888,-0.01071566493605379,0.08868056979634083
6421,11.0,299.86931,-5908.7496,0.0,0.0,0.06421090397573037,0.0,0.0,0.0,0.45106116042377054,0.45003607556260256,0.8950150908036122,-0.0025021907244469977,0.013987319812940985,0.07882591717251232
6422,11.0,299.97857999999997,-6037.022,0.0,0.0,0.0642209083961045,0.0,0.0,0.0,0.4528942919746866,0.4709430424284595,0.9112666091575121,-0.0025477466515930174,0.0038153110769668865,0.10003026686321871
6423,11.0,300.0867,-6044.5271,0.0,0.0,0.06423091281647864,0.0,0.0,0.0,0.4764837472877846,0.4634111390026186,0.8974904202679082,0.000862080034650675,0.00022623231163489078,0.08534064415421583
6424,11.0,300.31081,-5892.9926,0.0,0.0,0.06424091723685277,0.0,0.0,0.0,0.4441360114228116,0.4543139364247946,0.8928726443946691,0.0003236795425746837,-0.009111397806424951,0.08945384376915701
6425,11.0,300.50811,-5872.1007,0.0,0.0,0.0642509216572269,0.0,0.0,0.0,0.45803090256163054,0.4492868581736606,0.8776542054452261,0.007884171880782182,0.00973727084214381,0.09067256781718572
6426,11.0,300.62504,-5965.8602,0.0,0.0,0.06426092607760125,0.0,0.0,0.0,0.44661055055202953,0.4641415909997086,0.9027203815865652,0.0018303495714414382,-0.013005128868256288,0.1122156145923189
6427,11.0,300.07527999999996,-5944.8281,0.0,0.0,0.06427089758869764,0.0,0.0,0.0,0.4597521611690056,0.44986912234362564,0.8974580165297102,-0.018151151535379183,-0.013700376503871885,0.08311922908547921
6428,11.0,299.76604,-5850.7851,0.0,0.0,0.064280902009072,0.0,0.0,0.0,0.42256521375393963,0.4654851504998076,0.8904422221748052,-0.00972246796745788,-0.012200321539077987,0.0935036179808386
6429,11.0,300.23881,-5755.1784,0.0,0.0,0.06429090642944613,0.0,0.0,0.0,0.42293235479517355,0.44169096800400454,0.884807214128673,0.0026790073251974377,0.023178638126303476,0.06805039853980144
6430,11.0,300.5103,-5876.8814,0.0,0.0,0.06430091084982026,0.0,0.0,0.0,0.44199620959662955,0.46054467473472055,0.8838842952750883,0.01054623634708249,0.005091340193676156,0.0939890762362496
6431,11.0,299.93048,-6066.0181,0.0,0.0,0.06431091527019439,0.0,0.0,0.0,0.47817865126005854,0.46404639615281357,0.9016929763826682,-0.0026789624382180075,-0.01152862588878679,0.06636297235326544
6432,11.0,300.32547999999997,-6083.1536,0.0,0.0,0.06432091969056852,0.0,0.0,0.0,0.4691503091590306,0.4773026560186045,0.9026738328769712,-0.006686039506585724,-0.015789123697265185,0.1073085051530249
6433,11.0,299.79655,-6107.9557,0.0,0.0,0.06433092411094266,0.0,0.0,0.0,0.47024302846437355,0.4738880639766106,0.9125349145726841,-0.0065002038653701735,0.0028502828664510173,0.08958421258002341
6434,11.0,299.66854,-6041.8163,0.0,0.0,0.06434092853131679,0.0,0.0,0.0,0.4598550060541556,0.47862463329157356,0.8980816415687571,-0.0005036372692976285,-0.006865260043198414,0.1121519824860389
6435,11.0,300.21869,-5926.2648,0.0,0.0,0.06435090004241362,0.0,0.0,0.0,0.4434660909866956,0.4563351879892766,0.9016352515244712,-0.0037306065096821966,-0.0016107807065716784,0.07117774633744664
6436,11.0,300.02325,-5956.9258,0.0,0.0,0.06436090446278775,0.0,0.0,0.0,0.4555454203313326,0.46150693808968857,0.8937043403417512,0.004483007834413425,-0.0018503426171145982,0.08451737844796582
6437,11.0,300.37861000000004,-5909.0607,0.0,0.0,0.06437090888316188,0.0,0.0,0.0,0.4460529184919956,0.44186200462088454,0.9082920007064412,0.012445637494288788,0.016431840394696383,0.07058675504437034
6438,11.0,300.58232000000004,-5794.7572,0.0,0.0,0.06438091330353601,0.0,0.0,0.0,0.4351303863890256,0.4563590196316286,0.8699720876920601,0.0002467896970837468,-0.00043636923662379053,0.0985317429193259
6439,11.0,300.0531,-5870.9059,0.0,0.0,0.06439091772391015,0.0,0.0,0.0,0.4378300088954576,0.4582974076029326,0.8884813805812851,-0.010714393307178289,-0.015571211091008882,0.08094173638207743
6440,11.0,300.30342,-6058.8627,0.0,0.0,0.06440092214428428,0.0,0.0,0.0,0.4639101038818626,0.4773741306806585,0.9004587465683591,-0.0009156919688367611,-0.017465854015745585,0.1039419918282759
6441,11.0,299.97295,-6173.7415,0.0,0.0,0.06441092656465841,0.0,0.0,0.0,0.4685351244933165,0.49001783019849454,0.9181102928504311,-0.003745180389845527,0.007084346195720534,0.08966973190171351
6442,11.0,300.20484,-5943.8397,0.0,0.0,0.06442093098503254,0.0,0.0,0.0,0.4634521756316686,0.46463358471826455,0.8786930806402552,0.002079742946379648,0.008786996465009031,0.10886423922406391
6443,11.0,299.86385,-5799.9311,0.0,0.0,0.06443090249612937,0.0,0.0,0.0,0.4385109636251626,0.44772861124237356,0.8767946552528951,-0.011449667361494189,-0.00890120191028023,0.06952959473803673
6444,11.0,299.28572,-5779.5024,0.0,0.0,0.0644409069165035,0.0,0.0,0.0,0.4418108962858406,0.4411962993051846,0.8738172299665461,0.01073757038996569,0.002853003138994487,0.0944998647309105
6445,11.0,299.5875,-5953.4993,0.0,0.0,0.06445091133687764,0.0,0.0,0.0,0.4410165284724426,0.4489455347449746,0.9197530651050602,-0.003170806905034277,0.003071596750642997,0.07993729851819713
6446,11.0,300.13674,-5996.2087,0.0,0.0,0.06446091575725177,0.0,0.0,0.0,0.4501368939475526,0.4660099025940966,0.9065509127946091,0.0017087735422928183,-0.0066665693992891744,0.1124763441080509
6447,11.0,300.26518,-5865.2839,0.0,0.0,0.06447092017762568,0.0,0.0,0.0,0.43376852759212053,0.44659376099787257,0.9025375710035232,-0.018828569008985083,-0.02064578442733028,0.06405118449485975
6448,11.0,300.92662,-5844.7352,0.0,0.0,0.06448092459800003,0.0,0.0,0.0,0.43996338671600554,0.45580677806212655,0.8808833929839222,-0.0045712130794686055,-0.0006173292399481524,0.07975008131047022
6449,11.0,300.51186,-6199.9498,0.0,0.0,0.06449092901837417,0.0,0.0,0.0,0.47663262412497753,0.48594772613680653,0.9220495660592071,0.0015256554378454685,-0.0028871379136633274,0.06895588341216584
6450,11.0,300.18424,-6338.9077,0.0,0.0,0.06450090052947077,0.0,0.0,0.0,0.4935323388328495,0.5088832804978696,0.92445403894401,-0.004111921906565096,-0.012013347511375089,0.08659172229118761
6451,11.0,299.69998,-6035.2007,0.0,0.0,0.0645109049498449,0.0,0.0,0.0,0.4493980725046366,0.47085428171969956,0.9142979596141831,-0.014276969513027185,-0.013886832760773687,0.09098958337597272
6452,11.0,299.37779,-5812.2004,0.0,0.0,0.06452090937021926,0.0,0.0,0.0,0.4319557522357136,0.4491471309848706,0.8856609178679271,0.004751333686145125,0.0015048345668406083,0.09387760149999791
6453,11.0,299.47567999999995,-5875.9561,0.0,0.0,0.06453091379059339,0.0,0.0,0.0,0.45335332466748957,0.43971352937384656,0.8930770777348451,0.00986986515552985,0.023637517818341374,0.0903710732234305
6454,11.0,299.51583,-5990.5628,0.0,0.0,0.0645409182109673,0.0,0.0,0.0,0.46551057294481657,0.45855435769579156,0.8969165863387751,0.007732691193482202,0.008891319074104872,0.08149698021162573
6455,11.0,299.86622,-5953.3999,0.0,0.0,0.06455092263134143,0.0,0.0,0.0,0.45062427737815364,0.4589321175980735,0.9001285283607691,-0.00022914584136993373,-0.0019686076489114483,0.08126844773107132
6456,11.0,300.59497999999996,-5855.7373,0.0,0.0,0.06456092705171557,0.0,0.0,0.0,0.4342459203767356,0.4504234106783295,0.8953286005170532,-0.004587093444310876,0.005068266665048975,0.07853127417593334
6457,11.0,300.20944,-5917.1414,0.0,0.0,0.06457093147208992,0.0,0.0,0.0,0.42728691868993557,0.4803153829384375,0.8910609430833681,0.0003201877510075707,-0.0015756808111825884,0.11399669548559789
6458,11.0,300.05814,-6113.821,0.0,0.0,0.06458090298318653,0.0,0.0,0.0,0.4597600239897815,0.4823064295174386,0.9163824785149092,0.0018677379935063882,-0.007682458306524602,0.08653703414354032
6459,11.0,299.50472,-6191.9195,0.0,0.0,0.06459090740356066,0.0,0.0,0.0,0.47687992807688456,0.49329503565942956,0.912013941901268,-0.0024469514700703075,-0.019829589180278082,0.09299951085733711
6460,11.0,299.50052,-5956.6945,0.0,0.0,0.06460091182393479,0.0,0.0,0.0,0.46278949993376756,0.46462961277787257,0.8832672867591942,0.017424228688387482,0.001144425457945999,0.06106632296602684
6461,11.0,299.55161,-5782.7562,0.0,0.0,0.06461091624430892,0.0,0.0,0.0,0.4363156255609996,0.4551393907512606,0.8663584629329232,0.006893176299353533,0.008091369265905972,0.0995191804730284
6462,11.0,299.56543,-5987.0614,0.0,0.0,0.06462092066468306,0.0,0.0,0.0,0.45865217686044557,0.4638140173748796,0.8974509744415151,-0.0015844426887723186,0.00012998415073093688,0.07543765342111672
6463,11.0,299.04851,-6132.1629,0.0,0.0,0.06463092508505719,0.0,0.0,0.0,0.4586355088963006,0.4815810235058466,0.9238078589577372,-0.01890025544030998,-0.011990917193911389,0.1021413856055699
6464,11.0,299.08841,-5944.4241,0.0,0.0,0.06464092950543154,0.0,0.0,0.0,0.45439768154555954,0.45451018270416255,0.898048629880499,-0.010023469412389411,0.00973221087379443,0.07962703221832622
6465,11.0,299.24507,-5809.4434,0.0,0.0,0.06465093392580568,0.0,0.0,0.0,0.4312093212845466,0.4550635895112795,0.8796528108699732,-0.004216194055805956,0.006355598383973723,0.1097308821670949
6466,11.0,300.30072,-5907.5871,0.0,0.0,0.06466090543690228,0.0,0.0,0.0,0.4622968273376446,0.44598252800754856,0.8874796004724171,-0.01097833279922709,0.006847395734660344,0.07427368946149243
6467,11.0,299.98726,-6106.8313,0.0,0.0,0.06467090985727642,0.0,0.0,0.0,0.4654853734148296,0.47487524315153756,0.91596361105607,0.0041015281896893165,-0.009557682293094802,0.0862628821037336
6468,11.0,299.81732999999997,-6280.5042,0.0,0.0,0.06468091427765055,0.0,0.0,0.0,0.47828804174085454,0.4945850854217475,0.9362433457125242,-0.002062802215307728,0.006564567842197405,0.07157787272243603
6469,11.0,300.04677999999996,-6173.9769,0.0,0.0,0.06469091869802468,0.0,0.0,0.0,0.4516476701116546,0.4918193078162866,0.9332678253363631,0.013128391756171387,-0.0026283799799759074,0.0905094690015891
6470,11.0,300.2577,-6019.2557,0.0,0.0,0.06470092311839881,0.0,0.0,0.0,0.4600968080580195,0.4687207620441376,0.900885861883012,-0.007505350801670453,0.0013963491210339286,0.09039188538048451
6471,11.0,299.83167000000003,-5990.9616,0.0,0.0,0.06471092753877317,0.0,0.0,0.0,0.45117857584535853,0.4709504999491956,0.8989736664267932,-0.004642202597374725,-0.011119222185881789,0.08361893363729622
6472,11.0,299.67015,-6070.388000000001,0.0,0.0,0.0647209319591473,0.0,0.0,0.0,0.47414733441219853,0.46919770899870855,0.9019013411332322,-0.005063779385656115,0.002292847072961388,0.08208943767759672
6473,11.0,299.37141,-5895.3028,0.0,0.0,0.06473093637952143,0.0,0.0,0.0,0.43938613813403554,0.45880387053291655,0.8938348368221303,-0.0006713864468906835,-0.006264735079931214,0.10013485960479121
6474,11.0,299.39602,-5742.9143,0.0,0.0,0.06474090789061804,0.0,0.0,0.0,0.42082123807932265,0.44424596932366356,0.8806353290944402,-0.006124977088338175,-0.014932277869451087,0.09540281141177441
6475,11.0,300.02976,-5860.2806,0.0,0.0,0.06475091231099217,0.0,0.0,0.0,0.4177032952691056,0.4680048197884796,0.8956708662683321,-0.002381768077887208,-0.020762747939373678,0.10060289603798281
6476,11.0,300.18801,-6093.8505,0.0,0.0,0.0647609167313663,0.0,0.0,0.0,0.4760810107705375,0.4677089811567825,0.9085884067581941,0.008371570510134681,0.013612681734217088,0.08612654423652812
6477,11.0,299.85067000000004,-6237.4608,0.0,0.0,0.06477092115174043,0.0,0.0,0.0,0.4649979697192266,0.4993528223097865,0.9316815417748091,0.01753680989374838,0.017985476024778284,0.09725409331173172
6478,11.0,300.18793,-6028.2932,0.0,0.0,0.06478092557211457,0.0,0.0,0.0,0.48561025305850053,0.45303992641155955,0.8938004369812352,-0.0007627833284358533,0.016138897631785182,0.06786907236815594
6479,11.0,300.36022,-5960.8756,0.0,0.0,0.06479092999248892,0.0,0.0,0.0,0.44998162350222853,0.46137724207688857,0.9005984534921471,-0.014639438458050089,-0.011984430366771189,0.07772843457844922
6480,11.0,300.07304,-5983.6307,0.0,0.0,0.06480093441286305,0.0,0.0,0.0,0.46202346259316557,0.45378389516498363,0.9030669435182681,-0.016188464813427086,-0.0019323993592379684,0.06720525575064235
6481,11.0,300.07676000000004,-5993.6667,0.0,0.0,0.06481090592395944,0.0,0.0,0.0,0.4341938595865976,0.46931360454514653,0.9184175508107552,0.0007563761731510163,-0.003665908464296996,0.10005424644008531
6482,11.0,300.2617,-5983.7695,0.0,0.0,0.06482091034433357,0.0,0.0,0.0,0.4575848394701076,0.45855010204537155,0.902781561627603,-0.008836802874999543,-0.0012188606341421789,0.08151543757544732
6483,11.0,299.44747,-5850.7329,0.0,0.0,0.06483091476470793,0.0,0.0,0.0,0.4413862938314356,0.4463867540024426,0.8907036508331061,-0.0012772552506552788,-0.009429361362005511,0.10008731791009921
6484,11.0,299.7542,-5856.4248,0.0,0.0,0.06484091918508206,0.0,0.0,0.0,0.45850095941552155,0.4510250785877095,0.8706808662695111,-0.006515537480458484,0.013075940864744886,0.09230529369707322
6485,11.0,299.38766,-6118.8943,0.0,0.0,0.06485092360545619,0.0,0.0,0.0,0.46858238247798056,0.4827442548856486,0.908664451178199,0.013336392749949487,0.009607638056150052,0.0951752263200635
6486,11.0,299.59277000000003,-6259.3297,0.0,0.0,0.06486092802583032,0.0,0.0,0.0,0.4867772537286746,0.48941116696612147,0.9264915126425932,0.002683384261654407,0.0064517896610170634,0.08664698596489173
6487,11.0,299.6157,-6055.3281,0.0,0.0,0.06487093244620445,0.0,0.0,0.0,0.45336285935093057,0.4695204798180636,0.917785221953349,0.0047716929204044255,-0.012558315971659288,0.08255431783672683
6488,11.0,300.02484,-5985.6923,0.0,0.0,0.06488093686657881,0.0,0.0,0.0,0.45172648070443255,0.46709166866585855,0.9006828470929761,-0.004919229126390115,0.009468231358366679,0.07763565835954292
6489,11.0,299.97943,-6027.553000000001,0.0,0.0,0.0648909083776752,0.0,0.0,0.0,0.4452683589395656,0.4732667086177876,0.9136905465767361,-0.007341541799078763,0.011129619145157888,0.09159644419211523
6490,11.0,300.0382,-6055.2905,0.0,0.0,0.06490091279804955,0.0,0.0,0.0,0.4661832190237016,0.4724943384640606,0.9019795640409523,-0.003204106356320677,0.010899535378700389,0.07363808881951353
6491,11.0,300.29298,-5939.8003,0.0,0.0,0.06491091721842368,0.0,0.0,0.0,0.44464416648046257,0.46187191077570855,0.8990349173953381,-0.007903342572674181,-0.014727395659480787,0.09391092830903701
6492,11.0,300.4495,-5851.524,0.0,0.0,0.06492092163879781,0.0,0.0,0.0,0.4504476273557196,0.44422995997208364,0.8840395859854141,8.930232842870362e-05,0.01082641013223349,0.07699535319734972
6493,11.0,299.95615,-5842.0653,0.0,0.0,0.06493092605917195,0.0,0.0,0.0,0.4261616335263786,0.4670661752933426,0.8826141761422371,0.006404352128435344,0.002822622455946148,0.11778826722729689
6494,11.0,299.62245,-6115.6372,0.0,0.0,0.06494093047954608,0.0,0.0,0.0,0.4695751547934595,0.4851349171715886,0.9042909192415651,0.003951528468735497,0.016879597640386584,0.08227287951545102
6495,11.0,299.76099,-6277.7246,0.0,0.0,0.06495093489992021,0.0,0.0,0.0,0.4725126174958646,0.4901977124887475,0.9455611936321241,-0.0001423511113814609,-0.0024408115797643474,0.11295869168565488
6496,11.0,299.77634,-6179.3783,0.0,0.0,0.06496093932029434,0.0,0.0,0.0,0.4954565615677555,0.4756375618642726,0.907282570559318,-0.009339792484965751,0.01059207071535599,0.05726333594870125
6497,11.0,300.09052,-5863.1238,0.0,0.0,0.06497091083139117,0.0,0.0,0.0,0.4430297145661286,0.4510917200467866,0.8881217983857971,-0.0041107787578022765,-0.00874919868990368,0.10067321458167271
6498,11.0,300.61813,-5878.9408,0.0,0.0,0.0649809152517653,0.0,0.0,0.0,0.4622457696651055,0.4483858255222356,0.8764196209933821,-0.009018166942198782,-0.0073877579599899434,0.06190879685442254
6499,11.0,300.91342000000003,-6031.9455,0.0,0.0,0.06499091967213944,0.0,0.0,0.0,0.4500365821876526,0.4718903603444526,0.9116338819212592,0.008536283939765632,-0.008775395561964112,0.08715985871500832
6500,11.0,300.19777,-6031.1249,0.0,0.0,0.06500092409251357,0.0,0.0,0.0,0.46213405884158054,0.4559610960523566,0.9152162175173082,0.016199000587966885,0.008875493424768002,0.08014074191302542
6501,11.0,300.43577,-5878.8135,0.0,0.0,0.0650109285128877,0.0,0.0,0.0,0.4242033554556116,0.4646518232200646,0.8981573110862252,0.011625876620134689,0.010091131011667089,0.09675798174476931
6502,11.0,300.51126,-5864.6411,0.0,0.0,0.06502093293326183,0.0,0.0,0.0,0.4500540100893725,0.45598604226981854,0.8766644222175423,-0.0051615278254531355,0.0036894011744905463,0.09176061705281782
6503,11.0,300.1943,-6033.2461,0.0,0.0,0.06503093735363596,0.0,0.0,0.0,0.45933852208068254,0.4656583757369036,0.9089592664272952,-0.007901633219755481,-0.013842292312877886,0.09545898701056851
6504,11.0,299.97886,-6240.0525,0.0,0.0,0.06504090886473257,0.0,0.0,0.0,0.5041537127410975,0.4801882403158895,0.9124782029645871,-0.01036849302779059,0.0048723227395108155,0.08434977776217492
6505,11.0,300.05291,-6046.4773,0.0,0.0,0.06505091328510693,0.0,0.0,0.0,0.45181508942567755,0.46502958312234655,0.9211334359812922,-0.008316359221460751,-0.0016727793523654683,0.08602736529023991
6506,11.0,300.53896000000003,-5780.3553,0.0,0.0,0.06506091770548106,0.0,0.0,0.0,0.41809894916815366,0.45569391213348753,0.8832908042940151,-0.007048360821069054,-0.007939913403233443,0.09164197053235831
6507,11.0,300.3621,-5828.9017,0.0,0.0,0.06507092212585519,0.0,0.0,0.0,0.40786300546544463,0.45787956352669457,0.90609800013241,0.015459539784237785,-0.004859580511553256,0.09360388617098431
6508,11.0,300.05933,-6113.7381,0.0,0.0,0.0650809265462291,0.0,0.0,0.0,0.4867424181902365,0.46626557599182955,0.9054157281775752,0.021989794823723777,0.005217691670546075,0.07617294672718453
6509,11.0,299.52374,-6146.7207,0.0,0.0,0.06509093096660323,0.0,0.0,0.0,0.4626221414147505,0.49540562548522854,0.9104218422841401,0.02096549421813318,-0.007657828121768793,0.09848944884690182
6510,11.0,299.93523,-6004.2855,0.0,0.0,0.06510093538697759,0.0,0.0,0.0,0.48463528354727853,0.45755471554463456,0.8829628456341482,0.005483749868553975,-0.01883340525171238,0.07426116873000672
6511,11.0,299.64362,-6072.7342,0.0,0.0,0.06511093980735172,0.0,0.0,0.0,0.4405417397405846,0.49088641858171755,0.9145314124372231,0.01174004356190209,-0.012843936989347887,0.0951947820469935
6512,11.0,300.04359,-6135.4313,0.0,0.0,0.06512091131844833,0.0,0.0,0.0,0.47642521182950753,0.4685134612061786,0.9200792607097531,0.009883325575158291,0.004783925078261645,0.08058530742090063
6513,11.0,299.49582000000004,-6178.9347,0.0,0.0,0.06513091573882246,0.0,0.0,0.0,0.4424616460300646,0.4878010821597185,0.9479791427432571,0.007675980193335263,0.004078628940079336,0.1110043652902779
6514,11.0,300.15693999999996,-5989.4734,0.0,0.0,0.06514092015919681,0.0,0.0,0.0,0.47503211453201954,0.45544452088637455,0.8901737007658042,-0.025331666919290875,-0.0007665767442927343,0.0868138115143561
6515,11.0,299.69415,-5856.5609,0.0,0.0,0.06515092457957095,0.0,0.0,0.0,0.4276413029124106,0.45673742801397454,0.8958695443479401,-0.028424945195573675,-0.00044031438668314663,0.0878549209258556
6516,11.0,299.96314,-5913.7488,0.0,0.0,0.06516092899994486,0.0,0.0,0.0,0.48791190132315554,0.44317958438841965,0.8665404730483862,-0.01153587366675209,0.015285047984516787,0.07482190640159722
6517,11.0,299.41965,-6113.2513,0.0,0.0,0.06517093342031899,0.0,0.0,0.0,0.45549414987627257,0.47857100196378055,0.9242106056074852,-0.005446643636641875,0.010402683125914889,0.07898267202923283
6518,11.0,299.91668,-6126.258000000001,0.0,0.0,0.06518093784069312,0.0,0.0,0.0,0.4713082785595056,0.4733774771187196,0.9175436935270121,0.017455677944991286,-0.006100240613646874,0.08425228182430283
6519,11.0,300.16067999999996,-6003.9189,0.0,0.0,0.06519094226106747,0.0,0.0,0.0,0.4251912236406066,0.48285011925609655,0.9170000645833601,0.001139669768601649,-0.0017740868331387381,0.09168411971001811
6520,11.0,300.74158,-6034.5137,0.0,0.0,0.06520091377216408,0.0,0.0,0.0,0.4642143220918865,0.47142235025576357,0.89870482077776,0.012441212631102089,0.006724446650301213,0.10432056233063788
6521,11.0,299.7798,-6101.7675,0.0,0.0,0.06521091819253821,0.0,0.0,0.0,0.46114036446851053,0.48407919162739654,0.909565412902117,-0.01027510784557419,-0.004717936962849126,0.0957341411547241
6522,11.0,300.27617000000004,-5954.2347,0.0,0.0,0.06522092261291235,0.0,0.0,0.0,0.4724313143078405,0.4658916664399276,0.8716156908117711,-0.0015357162007383887,-0.02034550066744458,0.09895799190514341
6523,11.0,299.42297,-5803.4542,0.0,0.0,0.06523092703328648,0.0,0.0,0.0,0.4261602048437376,0.44783092923747153,0.8901140203349142,0.0023914872741714176,0.0055145815492218244,0.09588839531019781
6524,11.0,299.64599,-5865.7533,0.0,0.0,0.06524093145366061,0.0,0.0,0.0,0.44217913163718264,0.4512453794244516,0.8896180242784631,0.007958804742072872,0.01812167811647038,0.08579499056530632
6525,11.0,299.54382000000004,-5898.5044,0.0,0.0,0.06525093587403474,0.0,0.0,0.0,0.42187758170607564,0.46145883910744157,0.9096616311316132,-0.00848799801287518,0.006211711499548194,0.1036614532730889
6526,11.0,299.76485,-6045.0104,0.0,0.0,0.0652609402944091,0.0,0.0,0.0,0.46088857181866055,0.4671551589171245,0.9094884970870262,-0.008252028073936761,0.0015520674229021288,0.07703549613981153
6527,11.0,299.06609,-6114.5827,0.0,0.0,0.0652709118055057,0.0,0.0,0.0,0.4566976984775536,0.47754412364993554,0.924438627409989,-0.006507786623818534,0.019233240833923082,0.08935319763672402
6528,11.0,299.89984,-6088.592,0.0,0.0,0.06528091622587984,0.0,0.0,0.0,0.4919437247960655,0.46959607840802453,0.8892401326536682,0.012584758759518987,0.01976901100979948,0.060640193543721146
6529,11.0,299.77747,-6035.5264,0.0,0.0,0.06529092064625397,0.0,0.0,0.0,0.4532440051142006,0.47243733301343455,0.9089679803781551,-0.0017123182964426584,0.008883025419386351,0.0993579906206202
6530,11.0,300.24439,-6030.3351,0.0,0.0,0.0653009250666281,0.0,0.0,0.0,0.46601717772981455,0.46683526572805356,0.9002188596071842,-0.0012384616533516488,-0.025653275540781176,0.07180389132949234
6531,11.0,299.68197999999995,-6019.7496,0.0,0.0,0.06531092948700223,0.0,0.0,0.0,0.4409160647250276,0.47539944809077256,0.9135380524366862,0.0018415037325172682,-0.013350791033870485,0.10533692310844489
6532,11.0,299.78409,-5937.5477,0.0,0.0,0.06532093390737637,0.0,0.0,0.0,0.45135916741068155,0.4534490869344405,0.9000579960213082,0.004840934379238026,0.004534613168631475,0.08159426944647742
6533,11.0,299.83152,-5869.1157,0.0,0.0,0.06533093832775072,0.0,0.0,0.0,0.43652349381901456,0.4571780094224566,0.8903631278719992,-0.0030434652801666373,-0.00948449442777172,0.1016303123876309
6534,11.0,299.9736,-5906.3412,0.0,0.0,0.06534094274812485,0.0,0.0,0.0,0.4623643807218116,0.43972767434524257,0.8932881782606793,-0.01220136113368059,-0.011756028595479688,0.07042288413219754
6535,11.0,299.55415,-5979.1607,0.0,0.0,0.06535091425922124,0.0,0.0,0.0,0.45019539900832656,0.4594497465441596,0.9078703974723321,-0.003999234816568746,0.014657180467301087,0.08317216431045352
6536,11.0,299.85168999999996,-6136.4599,0.0,0.0,0.06536091867959559,0.0,0.0,0.0,0.47706471449762156,0.4787798530743925,0.9094860044917801,-0.0018314134840464382,0.012446627439636489,0.08218902192392492
6537,11.0,300.40587999999997,-6127.9989,0.0,0.0,0.06537092309996972,0.0,0.0,0.0,0.45829965701815456,0.4778002834077166,0.9266587191740953,-0.019157654402963284,0.012941075249934687,0.09660477022364851
6538,11.0,300.67034,-6023.981,0.0,0.0,0.06538092752034386,0.0,0.0,0.0,0.4552927157563926,0.4750596242722345,0.9007874550333,-0.019113254796831382,-0.02170895432000698,0.1078522860841919
6539,11.0,300.55167,-6011.7253,0.0,0.0,0.06539093194071799,0.0,0.0,0.0,0.45308666763867256,0.46180725528682753,0.9125204554937572,-0.001079205892734329,0.004162452385077066,0.0974826105935346
6540,11.0,300.2354,-6077.2083,0.0,0.0,0.06540093636109212,0.0,0.0,0.0,0.48172467197252355,0.4668040272274705,0.8987908761087532,0.016201786012491785,0.0008484173601697741,0.08282904540259033
6541,11.0,299.74415,-5974.9962,0.0,0.0,0.06541094078146648,0.0,0.0,0.0,0.4416140420564126,0.4664166211842366,0.9082189960367361,0.016654970225717585,-0.0014857848570105484,0.09114175834224121
6542,11.0,299.78386,-5793.7537,0.0,0.0,0.06542094520184061,0.0,0.0,0.0,0.45068250886140054,0.4361211018068016,0.8743528339694061,-0.0027152168307710374,-0.02144040251350298,0.08442228796583112
6543,11.0,299.68824,-5894.8909,0.0,0.0,0.06543091671293699,0.0,0.0,0.0,0.41561992134099257,0.4617962615232426,0.9144834654424912,-0.001057322223699579,-0.01028407105595879,0.09432327854323282
6544,11.0,299.75111,-6044.7727,0.0,0.0,0.06544092113331113,0.0,0.0,0.0,0.4668206039991066,0.4673365610825276,0.903302807876546,-0.004119990721086426,-0.003094059289459877,0.08327118721622633
6545,11.0,300.11702,-6151.9878,0.0,0.0,0.06545092555368548,0.0,0.0,0.0,0.4588784356077756,0.47030352962784455,0.9408687209615132,-0.02021622920643648,8.752004176780562e-05,0.08514830091423302
6546,11.0,300.3414,-6106.4542,0.0,0.0,0.06546092997405961,0.0,0.0,0.0,0.48980055897955155,0.46857842067008953,0.8978306189889832,-0.01102348727668349,-0.013619993346938686,0.06930161751853713
6547,11.0,299.95676000000003,-5990.1784,0.0,0.0,0.06547093439443374,0.0,0.0,0.0,0.4446354727946046,0.45892155953203156,0.9173076163862132,-0.005939383309921494,0.012940478445625788,0.08531443340062901
6548,11.0,300.10601,-5929.0223,0.0,0.0,0.06548093881480788,0.0,0.0,0.0,0.47225723794066055,0.4517685103185806,0.8782489629889242,0.000984522706742326,0.016413068923343786,0.09236600966956542
6549,11.0,299.8307,-6084.6469,0.0,0.0,0.06549094323518201,0.0,0.0,0.0,0.44636526296782153,0.4912130296189515,0.9120024313801322,0.002017718260058288,0.012627417601979088,0.10419670263841391
6550,11.0,299.6327,-6079.5433,0.0,0.0,0.06550091474627862,0.0,0.0,0.0,0.48110577881144356,0.46545596889692753,0.9014676194279271,-0.004310381630776546,-0.0071757995152962745,0.10760491120477789
6551,11.0,299.25675,-5953.8426,0.0,0.0,0.06551091916665275,0.0,0.0,0.0,0.43251958538635954,0.4747610903952716,0.9025388071686452,0.008313499931003561,0.006825279626052654,0.07765604089855452
6552,11.0,300.60594,-5912.0791,0.0,0.0,0.0655209235870271,0.0,0.0,0.0,0.45125301933020556,0.45967860934424654,0.8861928032429203,0.014713490828358485,0.003742539860084926,0.08837347598253302
6553,11.0,300.58012,-6081.3141,0.0,0.0,0.06553092800740123,0.0,0.0,0.0,0.4419942945539406,0.46682453540949453,0.9397488262884882,0.0006138876954534984,-0.0047989949443489254,0.06299391881051575
6554,11.0,300.47777,-6136.7059,0.0,0.0,0.06554093242777537,0.0,0.0,0.0,0.47464733280654453,0.4866913706501986,0.9040666565969322,-0.0013702385778820187,-0.02041998265579538,0.0989980689863487
6555,11.0,300.43974,-6096.201999999999,0.0,0.0,0.0655509368481495,0.0,0.0,0.0,0.43001148741382955,0.48278816914498257,0.9402935292772462,-0.013033757236581688,-0.0006643609759973234,0.08318107381858282
6556,11.0,299.96096,-6044.971,0.0,0.0,0.06556094126852363,0.0,0.0,0.0,0.47209623249977056,0.4721703922745895,0.8932536162997681,0.004767074830423655,0.005596463100402905,0.1014921456039949
6557,11.0,299.38313999999997,-6009.2332,0.0,0.0,0.06557094568889776,0.0,0.0,0.0,0.44150427667307957,0.46564528454561155,0.9195072810283031,-0.0049379103171588055,0.008579729874903411,0.08484384965668602
6558,11.0,299.64792,-6077.7423,0.0,0.0,0.06558091719999437,0.0,0.0,0.0,0.48286614887267854,0.46379449204545253,0.9008212671891371,0.0026629040453331676,0.007017274915951113,0.08040651032150473
6559,11.0,299.43145,-6115.8214,0.0,0.0,0.06559092162036873,0.0,0.0,0.0,0.4554533969572505,0.48111607343245955,0.9224875332824312,0.005133981202934495,0.00986930006594908,0.08632991771709951
6560,11.0,299.69985,-6052.9513,0.0,0.0,0.06560092604074286,0.0,0.0,0.0,0.47301011316246355,0.4694405749151775,0.8974953446633942,0.00035529456689484365,0.012720309331396788,0.08265299218446523
6561,11.0,300.44737000000003,-6034.5209,0.0,0.0,0.06561093046111699,0.0,0.0,0.0,0.4358611626261476,0.48553315485839155,0.9129493439960851,-0.015957445817127283,0.0036295687560855467,0.11410705868648988
6562,11.0,300.17367,-6191.0332,0.0,0.0,0.06562093488149112,0.0,0.0,0.0,0.4831910677822455,0.49642184440802156,0.9023065702457251,-0.009803811178860831,-0.00936674564690082,0.08479905792276542
6563,11.0,300.43214,-6179.5089,0.0,0.0,0.06563093930186525,0.0,0.0,0.0,0.4640182784625385,0.48337847852074156,0.9310196564119863,0.0014619472364829585,-0.00023468628278423273,0.08804904241976391
6564,11.0,300.18661000000003,-5998.6054,0.0,0.0,0.06564094372223939,0.0,0.0,0.0,0.4559398279327576,0.4694027908189486,0.8980836275389531,0.016051115722621787,0.004369022365738936,0.07023284400969203
6565,11.0,300.34745,-5932.3293,0.0,0.0,0.06565094814261352,0.0,0.0,0.0,0.43368100304848256,0.4554892457457886,0.914109738275607,0.008647182339360451,1.1147745176196788e-05,0.06922176733115654
6566,11.0,299.78763,-6050.1838,0.0,0.0,0.06566091965371013,0.0,0.0,0.0,0.45530173368228255,0.46540640070203554,0.918396657593693,-0.005619250892501885,-0.006239728878063294,0.08306307375168713
6567,11.0,299.46907999999996,-6207.8349,0.0,0.0,0.06567092407408448,0.0,0.0,0.0,0.45918648390317757,0.5008404457091035,0.9269998602177631,0.007100276919092774,-0.004097742484665696,0.099628273058295
6568,11.0,299.39104,-6271.3559,0.0,0.0,0.06568092849445861,0.0,0.0,0.0,0.49861878340734256,0.4859026973023625,0.9218141171334702,-0.0027568479336547076,0.008895115012954502,0.10328653047108691
6569,11.0,299.51912999999996,-6153.8935,0.0,0.0,0.06569093291483274,0.0,0.0,0.0,0.4818204038419715,0.48010458638763354,0.9087049811821991,-0.001952611773557778,-0.002155817763887648,0.09082726476295311
6570,11.0,299.99622999999997,-6025.4596,0.0,0.0,0.06570093733520666,0.0,0.0,0.0,0.4578127599476015,0.4905409610926235,0.8832355416335612,-0.014229909112132686,3.422442095818737e-05,0.1048061219110589
6571,11.0,300.68459,-5999.6337,0.0,0.0,0.06571094175558079,0.0,0.0,0.0,0.4371670089575245,0.46998899653180254,0.9165828284571822,0.007217011233963554,0.00926605422218835,0.07640309534164842
6572,11.0,300.98182,-6158.7622,0.0,0.0,0.06572094617595514,0.0,0.0,0.0,0.4594863248727696,0.5000657248151446,0.9125578748199501,0.007269254105144524,-0.0010987411520123089,0.1033730113671219
6573,11.0,300.36386,-6027.561,0.0,0.0,0.06573095059632927,0.0,0.0,0.0,0.4527420106171576,0.46161311656766757,0.9178729086170031,0.009151174864275642,-0.005388979877425905,0.08657308355559812
6574,11.0,300.47265,-5860.5474,0.0,0.0,0.06574092210742588,0.0,0.0,0.0,0.44867816844108754,0.4584361722041276,0.8743457209537042,0.002372434017966008,-0.007830304465715882,0.0941870845575415
6575,11.0,299.97074,-5967.3312,0.0,0.0,0.06575092652780001,0.0,0.0,0.0,0.4382826581126306,0.46266252956373655,0.9129744928635671,0.007807277242618272,0.002197341259610698,0.08231375199798482
6576,11.0,300.06106,-6124.5592,0.0,0.0,0.06576093094817437,0.0,0.0,0.0,0.47015040727273255,0.4583881948118926,0.9331744543396482,-0.0005648526727641185,0.016403517014651085,0.08208721967312782
6577,11.0,299.48929,-6248.0741,0.0,0.0,0.0657709353685485,0.0,0.0,0.0,0.4649241747144436,0.48770279690001855,0.9466315403752591,0.003358779389385716,0.002106419389712408,0.07667651885463322
6578,11.0,299.49337,-6212.7343,0.0,0.0,0.06578093978892241,0.0,0.0,0.0,0.48289303039783155,0.48387898354013753,0.921744081286558,-0.02411219306618818,0.0036535417468264966,0.08460280049764632
6579,11.0,299.26762,-6083.1997,0.0,0.0,0.06579094420929654,0.0,0.0,0.0,0.4481623430801796,0.4801066635503386,0.9208717945404701,-0.02030603862904998,-0.006679733949888415,0.0942880458107556
6580,11.0,299.56442000000004,-5996.1072,0.0,0.0,0.06580094862967067,0.0,0.0,0.0,0.4826823554370396,0.47243869076856854,0.8675458096651051,-0.009156721496648052,0.0014721677889166485,0.09403960600548651
6581,11.0,299.23058,-6138.6196,0.0,0.0,0.0658109201407675,0.0,0.0,0.0,0.46946143773473653,0.47237567674484954,0.9241499524564991,0.006777676325754573,-0.005372272396527005,0.07842975563516423
6582,11.0,299.63545,-6021.6335,0.0,0.0,0.06582092456114164,0.0,0.0,0.0,0.47899189592281954,0.4576085900524516,0.8938257479687332,0.020793286284137583,0.0036057752119373065,0.08521693442300661
6583,11.0,299.81912,-5836.0515,0.0,0.0,0.06583092898151577,0.0,0.0,0.0,0.4014730754323076,0.4635039425792776,0.9090369219149591,0.004696207003854545,0.007507017192784913,0.07542583892495072
6584,11.0,300.07751,-5903.1853,0.0,0.0,0.0658409334018899,0.0,0.0,0.0,0.4257506086233136,0.4572897709084865,0.9113805491312571,0.01009183359928643,0.0071378332366992935,0.0922859537924145
6585,11.0,299.24571000000003,-6238.4238,0.0,0.0,0.06585093782226403,0.0,0.0,0.0,0.46865884233052657,0.48541299352903255,0.9422532157656521,-0.001100021089538629,-0.015246866694248587,0.07501653350730543
6586,11.0,300.49027,-6240.2495,0.0,0.0,0.06586094224263817,0.0,0.0,0.0,0.5041958031502515,0.4852984962677325,0.907385749817001,-0.013571416110644486,-0.013456023136256087,0.1115798406845729
6587,11.0,300.01012000000003,-6100.7998,0.0,0.0,0.0658709466630123,0.0,0.0,0.0,0.4659288223210945,0.4782272771323576,0.9103347129080411,-0.003649845815761737,-0.007551151631365644,0.08505520349504501
6588,11.0,300.34721,-6006.959,0.0,0.0,0.06588095108338665,0.0,0.0,0.0,0.45689355972188356,0.4788769224339725,0.8901950499454111,-0.01940496544762098,0.02386409371295268,0.1181922905721709
6589,11.0,300.05338,-5975.2143,0.0,0.0,0.06589092259448326,0.0,0.0,0.0,0.4443779350166876,0.45400368937667557,0.9179343217055642,-0.008154935916229513,0.014002284503667887,0.06702312708491763
6590,11.0,299.9343,-6017.7606,0.0,0.0,0.06590092701485739,0.0,0.0,0.0,0.4507626366793086,0.4730768660790516,0.9054094764244582,-0.0073181533523205035,0.007640842402392433,0.1005752191115013
6591,11.0,299.7222,-5967.4363,0.0,0.0,0.06591093143523152,0.0,0.0,0.0,0.4519551915170046,0.4584142556044646,0.9035821913266192,0.008093937956234483,0.001823226321913428,0.07175004721917833
6592,11.0,300.33304,-5894.7073,0.0,0.0,0.06592093585560566,0.0,0.0,0.0,0.4645967328121276,0.45344657407419253,0.8738005113398962,0.00839875438911752,-0.00902898875724181,0.10020093567031241
6593,11.0,299.59013,-6003.3932,0.0,0.0,0.06593094027597979,0.0,0.0,0.0,0.45214898573113055,0.47171275786692457,0.9010198844737392,0.013574904730738788,-0.008229678917806071,0.08604980371370442
6594,11.0,299.5874,-6221.3568,0.0,0.0,0.06594094469635392,0.0,0.0,0.0,0.48849562457326456,0.47076550074593754,0.9318759946015002,-0.003593420146842957,-0.0016581569375223484,0.08934380480829701
6595,11.0,299.94489,-6312.899,0.0,0.0,0.06595094911672827,0.0,0.0,0.0,0.4646036229128076,0.4933793178027475,0.960980712063912,-0.0038764230275981663,-0.01131735108393559,0.07753539523564773
6596,11.0,300.0387,-6089.8784,0.0,0.0,0.06596095353710241,0.0,0.0,0.0,0.44851798373277857,0.4758577107134996,0.9267952850225731,-0.011685498282518888,0.0059761157538717035,0.08391766408477863
6597,11.0,300.00976,-5978.3656,0.0,0.0,0.06597092504819879,0.0,0.0,0.0,0.4572989205568896,0.44786035402037555,0.9121145981662022,-0.009066500390518921,0.0019572371589392677,0.08653702097128901
6598,11.0,300.37397999999996,-6016.18,0.0,0.0,0.06598092946857315,0.0,0.0,0.0,0.48658924517261953,0.4524356848469256,0.8897435457008511,6.281850191345344e-06,0.017512891111887786,0.09019503621730701
6599,11.0,300.55635,-5982.6282,0.0,0.0,0.06599093388894728,0.0,0.0,0.0,0.4618347751595435,0.45432871974375355,0.9024060916705471,0.0006469277344492964,0.01108897363064649,0.10702529161757389
6600,11.0,300.95499,-5916.4564,0.0,0.0,0.06600093830932141,0.0,0.0,0.0,0.44732399007994056,0.46098729277590356,0.8901437288278462,0.006698119575602934,0.013764476731698087,0.08788900463271941
6601,11.0,301.18827000000005,-5955.3201,0.0,0.0,0.06601094272969554,0.0,0.0,0.0,0.42667328429687457,0.4728827577573945,0.9107125437378302,0.0015191703332304385,0.011575153320128689,0.08580769064205972
6602,11.0,301.15989,-6040.3045,0.0,0.0,0.06602094715006968,0.0,0.0,0.0,0.4518072772674066,0.4666463553794095,0.9176481089498171,-0.0021649771394916077,0.006082276905273994,0.08033377618957642
6603,11.0,300.58288,-6095.7913,0.0,0.0,0.06603095157044403,0.0,0.0,0.0,0.46416955670246857,0.4789284462015576,0.9098703302547102,0.005421542391914574,-0.011634870228022289,0.0874719123880556
6604,11.0,300.05189,-6219.3477,0.0,0.0,0.06604092308154041,0.0,0.0,0.0,0.4745872369431135,0.4954821562652815,0.9204570104795341,-0.0035063049562453564,-0.008702065537652001,0.09120891655886923
6605,11.0,299.47411,-6169.4838,0.0,0.0,0.06605092750191455,0.0,0.0,0.0,0.4630595513504196,0.48312971548869055,0.9291797563504022,0.025330367932662676,-0.016345004861126382,0.08685210122238501
6606,11.0,299.99739,-6066.1375,0.0,0.0,0.06606093192228868,0.0,0.0,0.0,0.45955213546676454,0.47672875116196456,0.9076734520503952,-0.010147385643968991,-0.0034283585644776468,0.1018520115095109
6607,11.0,299.66055,-6107.5521,0.0,0.0,0.06607093634266303,0.0,0.0,0.0,0.4580106679571335,0.4658166960650286,0.9327159789344001,0.0059884258306616145,-0.005319390975133015,0.08528987829770561
6608,11.0,300.06694,-6031.8161,0.0,0.0,0.06608094076303717,0.0,0.0,0.0,0.45725612087266554,0.46521071171022255,0.9110546473690931,-0.012130261374163589,-0.005048131156411755,0.08152352533774553
6609,11.0,299.76302999999996,-5925.9489,0.0,0.0,0.0660909451834113,0.0,0.0,0.0,0.4605225858825406,0.4612431181611516,0.8795747906122732,0.0024877829159750575,0.008719427375465482,0.07935881883735563
6610,11.0,299.82092,-6008.4901,0.0,0.0,0.06610094960378543,0.0,0.0,0.0,0.47359609596029556,0.46114193500616557,0.8916929274357401,0.001072314474829199,0.006095999756678334,0.09168311760566922
6611,11.0,299.6363,-6124.2488,0.0,0.0,0.06611095402415956,0.0,0.0,0.0,0.4690749132190896,0.48756778132419354,0.904976018164179,-0.0006541161663562393,0.001025293489363589,0.09372587540352373
6612,11.0,299.98928,-6117.7633,0.0,0.0,0.06612092553525617,0.0,0.0,0.0,0.45987806762643163,0.4787253807490166,0.9210438444074501,-0.012003651721168188,-0.002426039710531478,0.08959344126193423
6613,11.0,300.25095,-6088.9001,0.0,0.0,0.0661309299556303,0.0,0.0,0.0,0.43268866643054654,0.4886184608828876,0.9295664429860651,0.007163331878115812,-0.007709223105266083,0.09129609457097301
6614,11.0,301.16846,-6149.9215,0.0,0.0,0.06614093437600466,0.0,0.0,0.0,0.46746289310499556,0.4880749940592515,0.9138846852958962,0.00019164835306421983,0.004583110358167776,0.08987596882706751
6615,11.0,299.93995,-6175.1078,0.0,0.0,0.06615093879637879,0.0,0.0,0.0,0.4797338483085446,0.47360834615400454,0.9237363842956832,0.009998711152820961,0.003204703768579637,0.09039841476412892
6616,11.0,300.50498999999996,-5982.945,0.0,0.0,0.06616094321675292,0.0,0.0,0.0,0.4586530077255276,0.47578799910661956,0.8842248891637022,-0.008037330206272732,0.0012469424553636387,0.09336837847674151
6617,11.0,300.46254,-5962.4549,0.0,0.0,0.06617094763712705,0.0,0.0,0.0,0.4396974794922626,0.4744439127164685,0.8982960250249151,0.003629378771691796,-0.008971552877973332,0.09737208121962622
6618,11.0,300.3521,-6003.5087,0.0,0.0,0.06618095205750119,0.0,0.0,0.0,0.45302091783968357,0.4631924391010346,0.9087033903795421,0.005648014935015676,-0.015738158230485286,0.09017102928268772
6619,11.0,299.87857,-6002.6424,0.0,0.0,0.06619095647787532,0.0,0.0,0.0,0.43681834959811455,0.4750628869375565,0.9127721468185972,0.011279979380497289,-0.0069296637394295636,0.09851823730874301
6620,11.0,299.47423,-6018.7043,0.0,0.0,0.06620092798897192,0.0,0.0,0.0,0.47498079341445454,0.4520896498052746,0.9024653870663991,0.002233492604628558,-0.01082824715466479,0.07248067045553523
6621,11.0,299.13951000000003,-6021.5827,0.0,0.0,0.06621093240934628,0.0,0.0,0.0,0.4564012113657926,0.4644693672745575,0.909540182974627,0.005432187901440204,0.0018596547908336385,0.07944737486959542
6622,11.0,300.55441,-6018.6029,0.0,0.0,0.06622093682972041,0.0,0.0,0.0,0.46005522427391554,0.4681415680219756,0.9013082047896941,-0.009680532484244171,0.016127089215119784,0.08451001313298892
6623,11.0,299.97899,-6277.2965,0.0,0.0,0.06623094125009454,0.0,0.0,0.0,0.48828359185733855,0.4902642323578125,0.9295935474262402,0.00017918054363124286,0.015498404005073385,0.08190962732810082
6624,11.0,299.91591,-6220.1521,0.0,0.0,0.06624094567046868,0.0,0.0,0.0,0.4760714760870966,0.4804358279778246,0.93426361713714,-0.013209043424381088,0.006852989584487414,0.09344465797076972
6625,11.0,300.1188,-5939.9191,0.0,0.0,0.06625095009084281,0.0,0.0,0.0,0.43758777119405057,0.4663903881391475,0.9016089374193741,-0.016033623986145485,-0.006856346279418692,0.08185457238391733
6626,11.0,299.95995,-5884.4958,0.0,0.0,0.06626095451121694,0.0,0.0,0.0,0.44970579656000653,0.4494114778034595,0.8896225129764062,-0.0015249766616034788,-0.00954871472573477,0.08255877512391671
6627,11.0,299.9614,-5982.7608,0.0,0.0,0.06627092602231355,0.0,0.0,0.0,0.4601765204433866,0.46107037928410355,0.8973629838028311,-0.004947551189210285,-0.0095684065321532,0.0917988733235934
6628,11.0,299.9509,-5972.3269,0.0,0.0,0.06628093044268768,0.0,0.0,0.0,0.4577549337643946,0.4525862234142825,0.9050971015511292,0.0059585052644836834,-0.002051756877292638,0.09118657034116381
6629,11.0,299.7959,-5921.7304,0.0,0.0,0.06629093486306203,0.0,0.0,0.0,0.4362619841007056,0.4622270245382556,0.9015691774854501,-0.01730757219112438,0.00036076971447269866,0.10899233430170589
6630,11.0,299.80381,-6035.0247,0.0,0.0,0.06630093928343617,0.0,0.0,0.0,0.44044258308579853,0.4771795056014505,0.9168747356784912,-0.002929954519163997,-0.002777753917667967,0.1013806880929949
6631,11.0,299.71823,-6072.5647,0.0,0.0,0.0663109437038103,0.0,0.0,0.0,0.4491708916997156,0.47510198825891553,0.9216351670333092,0.0027121179066651973,-0.006188019989685024,0.1035730978643689
6632,11.0,299.53982,-6086.2261,0.0,0.0,0.06632094812418421,0.0,0.0,0.0,0.46728347690978855,0.4754805688937786,0.9072967256632151,0.01800784757373618,-0.003910398316701267,0.07684122975113893
6633,11.0,299.1886,-6111.3702,0.0,0.0,0.06633095254455834,0.0,0.0,0.0,0.46487568056465756,0.46722734285424855,0.9256009164671981,-0.0014172075836174987,0.0014828884815996986,0.08891396081112472
6634,11.0,299.51659,-6057.8564,0.0,0.0,0.0663409569649327,0.0,0.0,0.0,0.4623879489191376,0.4655944903180986,0.9134546518209552,-0.0052693316579175455,-0.005527948648516055,0.06967182465457374
6635,11.0,299.55844,-6004.4079,0.0,0.0,0.0663509284760293,0.0,0.0,0.0,0.44538883437645554,0.48322725094331653,0.896573996347464,-0.004100899468002266,0.013229564778656387,0.11378552403225689
6636,11.0,300.43711,-6080.351,0.0,0.0,0.06636093289640344,0.0,0.0,0.0,0.4548881756539676,0.4582803140737456,0.935106377775314,0.0015090484713564886,0.007133452956516993,0.07638134187525153
6637,11.0,300.47991,-6070.5817,0.0,0.0,0.06637093731677757,0.0,0.0,0.0,0.47466041386533553,0.4669613951005015,0.9036834352766112,-0.0016334640325853483,0.01020243349540179,0.09513449265279342
6638,11.0,300.45069,-6027.7155,0.0,0.0,0.06638094173715192,0.0,0.0,0.0,0.4701284704080676,0.45562485913917256,0.906521670396723,-0.006569803305464104,-0.006761975610155034,0.07213242855516644
6639,11.0,299.99178,-6073.1132,0.0,0.0,0.06639094615752583,0.0,0.0,0.0,0.4866512459462385,0.4602542265935555,0.899169304756101,0.0013746596920433487,0.002070244030667178,0.09564746470141981
6640,11.0,300.38045,-6107.5748,0.0,0.0,0.06640095057789996,0.0,0.0,0.0,0.4787658904880145,0.4699017354331905,0.9078826071360372,-0.001945276349458828,-0.006233145184213535,0.07683973723374163
6641,11.0,299.77602,-6063.1196,0.0,0.0,0.0664109549982741,0.0,0.0,0.0,0.4599046755740576,0.46461031036346756,0.9185219763660611,0.006617586457654933,0.0013449611289623284,0.09554461677651951
6642,11.0,299.71814,-6076.4075,0.0,0.0,0.06642095941864823,0.0,0.0,0.0,0.4387790898666246,0.47466019095031353,0.9336368814202862,-0.0048918979208427355,-0.015264441517233086,0.0927994081480885
6643,11.0,299.99757999999997,-6096.3557,0.0,0.0,0.06643093092974506,0.0,0.0,0.0,0.46926323588267554,0.47631900295402557,0.907557678093969,-0.002057091740394148,-0.004982774498461555,0.09152970444777851
6644,11.0,299.43267000000003,-6021.31,0.0,0.0,0.06644093535011919,0.0,0.0,0.0,0.4563184187001216,0.45748167034492554,0.9165277988442511,0.01063160570775779,-0.014000527527994487,0.07803743735544542
6645,11.0,299.89886,-5906.4071,0.0,0.0,0.06645093977049332,0.0,0.0,0.0,0.44939348248168354,0.46591193144192755,0.8800948614911002,0.005235462050799875,-0.0026178345795601576,0.09598557511403871
6646,11.0,300.09717,-6047.5734,0.0,0.0,0.06646094419086745,0.0,0.0,0.0,0.4564114553243036,0.46610520889850254,0.9157946313368931,-0.010211649005061291,-0.008002729235232882,0.08864583963591322
6647,11.0,299.99838,-6128.4913,0.0,0.0,0.06647094861124159,0.0,0.0,0.0,0.4523165469001676,0.4868505927709125,0.923741187101157,-0.014098470309160685,0.018966162293064484,0.11342538454921389
6648,11.0,299.6701,-5963.6942,0.0,0.0,0.06648095303161572,0.0,0.0,0.0,0.4322961029443036,0.48214188783369955,0.8983761123128191,-0.01086994644928019,0.00894574043300084,0.1133505661618299
6649,11.0,300.05688,-5896.201,0.0,0.0,0.06649095745198985,0.0,0.0,0.0,0.4413505058379036,0.4478634039031765,0.9030839559874472,0.0065667195801097636,0.009384571654585111,0.0982944164411536
6650,11.0,299.95917000000003,-5953.1303,0.0,0.0,0.0665009618723642,0.0,0.0,0.0,0.45822472717325957,0.46461904457932957,0.8867591897838182,0.006681142468852425,0.0008047731015899212,0.08506019577828772
6651,11.0,300.57604,-6028.0849,0.0,0.0,0.06651093338346081,0.0,0.0,0.0,0.4662653733418095,0.4665816289630216,0.8995402860152142,0.011910237154698888,0.006674853529456753,0.09155564972983911
6652,11.0,300.26331,-6158.2656,0.0,0.0,0.06652093780383495,0.0,0.0,0.0,0.47962865268316257,0.4711991109937316,0.9211311966985711,0.014124778334757088,-0.016550201178627686,0.07351854050646503
6653,11.0,299.91795,-6258.0535,0.0,0.0,0.06653094222420908,0.0,0.0,0.0,0.47751124368419057,0.48575169263995954,0.9390290539474522,-0.0029446322574625773,-0.006072585066742484,0.08469963478320312
6654,11.0,299.28951,-6182.4505,0.0,0.0,0.06654094664458321,0.0,0.0,0.0,0.4752767435036625,0.46161294431515054,0.9424208883922002,0.004850752164756965,-0.020928547066486784,0.07683686365645802
6655,11.0,299.52493,-6170.9658,0.0,0.0,0.06655095106495734,0.0,0.0,0.0,0.47746198959682956,0.47370777638631756,0.9246497482008251,-0.006158373507659145,0.0011958222652934689,0.07582641823273484
6656,11.0,299.73062000000004,-6217.2525,0.0,0.0,0.06656095548533147,0.0,0.0,0.0,0.4836345065560095,0.48005169473241355,0.9262033240491511,-0.006518734791149034,-0.005490236087744115,0.08116679949428943
6657,11.0,299.97562,-6110.6915,0.0,0.0,0.06657095990570583,0.0,0.0,0.0,0.4707330058152306,0.46354074382290955,0.9232239026601051,-0.008453773768222513,0.004347439125358836,0.06784176730446113
6658,11.0,299.96493,-5953.4255,0.0,0.0,0.06658093141680221,0.0,0.0,0.0,0.4385722449912106,0.47707877840900953,0.8940416513000411,0.008902594115917633,0.0018772418741443485,0.1083932400475799
6659,11.0,299.83144,-5995.2734,0.0,0.0,0.06659093583717635,0.0,0.0,0.0,0.4367236411112676,0.46779129759490656,0.9178984729170261,-0.013154350210483287,0.009067676773885022,0.08514770917617462
6660,11.0,299.68987999999996,-6043.1006,0.0,0.0,0.0666009402575507,0.0,0.0,0.0,0.4524625663720786,0.47800879001329455,0.9064803399251441,-0.001073007233922569,-0.0006158562377477784,0.1132028444297509
6661,11.0,300.05692999999997,-6018.8742,0.0,0.0,0.06661094467792483,0.0,0.0,0.0,0.4561132254223706,0.47638103412514754,0.8970932059637061,-0.014612146566606588,0.0007235602650773384,0.0980300341588111
6662,11.0,300.67391000000003,-6102.1515,0.0,0.0,0.06662094909829896,0.0,0.0,0.0,0.4716045224912426,0.47422830322768955,0.9090688494256102,0.018686501212464082,-0.004677109873919806,0.09905789025900259
6663,11.0,300.4357,-6230.8881,0.0,0.0,0.0666309535186731,0.0,0.0,0.0,0.4959329107047676,0.48712523421051757,0.9109762522088563,-0.007872340665989533,0.01192489179089519,0.0930169336928066
6664,11.0,299.79533,-6143.8619,0.0,0.0,0.06664095793904723,0.0,0.0,0.0,0.4625598164010995,0.4895577741230906,0.9154630249766661,-0.002310401529618878,-0.004396927982768006,0.09490716897960831
6665,11.0,299.73228,-6112.6529,0.0,0.0,0.06665096235942158,0.0,0.0,0.0,0.4576371231752675,0.4778337003960145,0.9226230250858032,-0.01064036930787269,-0.00992067458179435,0.08978369011396031
6666,11.0,299.3755,-6239.7468,0.0,0.0,0.06666093387051797,0.0,0.0,0.0,0.4663993452700316,0.4995408916608475,0.9307869939240241,0.004697749170506745,0.004790395186775195,0.08301237274318334
6667,11.0,299.73983,-6139.7867,0.0,0.0,0.0666709382908921,0.0,0.0,0.0,0.46827689770533154,0.47225184745012855,0.92581311130314,-0.0026654165002811276,0.011816261247674188,0.09110402085551682
6668,11.0,299.70718,-6086.8281,0.0,0.0,0.06668094271126623,0.0,0.0,0.0,0.4580387248524026,0.47043403624072455,0.921770983076713,0.006798811000315403,-0.003779799295412147,0.06926161947083964
6669,11.0,299.53098,-6207.923000000001,0.0,0.0,0.06669094713164059,0.0,0.0,0.0,0.4828159727277266,0.47712252041582653,0.927115097151636,-0.006333418339284724,-0.002251063171962638,0.07694791688066813
6670,11.0,299.97963,-6203.6117,0.0,0.0,0.06670095155201472,0.0,0.0,0.0,0.4737941660898436,0.4702029240254155,0.9417459625005902,0.012453835700847887,-0.005743706679759714,0.07569209774647842
6671,11.0,300.22032,-6231.2424,0.0,0.0,0.06671095597238885,0.0,0.0,0.0,0.47906191150472954,0.49106365628920945,0.9240165378158322,-0.0007811136104299112,0.004625207150797405,0.09283543121564372
6672,11.0,299.88067,-6255.8953,0.0,0.0,0.06672096039276298,0.0,0.0,0.0,0.48430839893251754,0.4818186002567935,0.9355089521725451,-0.0007173061308226034,-0.01010910758831624,0.08822941410981523
6673,11.0,300.0991,-6105.3141,0.0,0.0,0.06673096481313712,0.0,0.0,0.0,0.47738171992390754,0.4717779301133565,0.9067033866696571,0.005980382752692824,-0.015918924074825484,0.08305783524867012
6674,11.0,299.65099,-6058.6945,0.0,0.0,0.06674093632423372,0.0,0.0,0.0,0.4481380656077836,0.48650019062133054,0.9070535963017201,-0.001900304966295498,0.006532763036133514,0.09974453945426959
6675,11.0,299.38311,-6110.0362,0.0,0.0,0.06675094074460786,0.0,0.0,0.0,0.4781014517349396,0.4631225451091366,0.9160744403520081,0.0013998134231258286,0.004017353856181956,0.07433964191050144
6676,11.0,299.31427,-6103.9324,0.0,0.0,0.06676094516498221,0.0,0.0,0.0,0.43949356290963765,0.49477296225528955,0.9211765193755441,-0.02102709881096308,-0.008522371914567622,0.09909441488535731
6677,11.0,299.22738,-6041.5306,0.0,0.0,0.06677094958535634,0.0,0.0,0.0,0.45898149327544663,0.4652177132684136,0.9122752388370562,-0.017081393490552283,0.004384106822627656,0.07800414195715943
6678,11.0,299.49424,-6093.710999999999,0.0,0.0,0.06678095400573048,0.0,0.0,0.0,0.4451836005687006,0.48292831176631357,0.9242240615688131,0.00040943298583288965,-0.001334472065252139,0.09411968518738972
6679,11.0,300.00637,-6138.096,0.0,0.0,0.06679095842610461,0.0,0.0,0.0,0.47427801327759556,0.48446762105323155,0.9070822814120512,0.0027791578770065277,0.003933398080721166,0.08972791576220582
6680,11.0,300.45488,-6062.5405,0.0,0.0,0.06680096284647874,0.0,0.0,0.0,0.4542875817896936,0.47626068027826957,0.9123126682957501,-0.007044675225155313,-0.004470959885424387,0.1040502069389559
6681,11.0,300.41938,-5991.5714,0.0,0.0,0.06681093435757512,0.0,0.0,0.0,0.45820314494612957,0.4674127068275425,0.8956722442884681,0.014731016002088088,-0.0027567561331956476,0.09708525646081882
6682,11.0,299.73419,-6051.2792,0.0,0.0,0.06682093877794948,0.0,0.0,0.0,0.44306376990198965,0.4851645952670175,0.9112094213218682,-0.005518600403093455,0.01184341736360429,0.1043085857144559
6683,11.0,300.17296,-6117.2285,0.0,0.0,0.06683094319832383,0.0,0.0,0.0,0.4684919296415535,0.47396064308127356,0.9170321542140271,0.0020804962978289983,-0.007156681816384503,0.09267157448897231
6684,11.0,299.73227,-6163.8997,0.0,0.0,0.06684094761869797,0.0,0.0,0.0,0.47350562285886655,0.4824801613795845,0.9176858119860382,-0.016420080614035784,-0.010157482681215491,0.08979288637186791
6685,11.0,299.32802999999996,-6192.1971,0.0,0.0,0.0668509520390721,0.0,0.0,0.0,0.48119106407236056,0.46942646034128455,0.9316557849572672,0.002716486534471347,0.0035316870739003766,0.07439540815625513
6686,11.0,299.81567,-6046.0852,0.0,0.0,0.06686095645944601,0.0,0.0,0.0,0.4624413066694036,0.4608679825766286,0.9145496408065221,0.018655060061861083,0.010078204473516341,0.08789342442965561
6687,11.0,299.82322999999997,-6097.4133,0.0,0.0,0.06687096087982036,0.0,0.0,0.0,0.45672898764064157,0.4794132255794015,0.9173191573048521,0.018678663722940584,0.014751572820116887,0.07940250004916662
6688,11.0,300.23483,-6168.0067,0.0,0.0,0.0668809653001945,0.0,0.0,0.0,0.47397051213724756,0.45907564447473853,0.9418738447957111,-0.004771658165925995,-0.005995123616472635,0.09102414331038351
6689,11.0,300.61101,-6020.499,0.0,0.0,0.0668909368112911,0.0,0.0,0.0,0.46698391965022457,0.4580883437097995,0.9050091007799442,-0.003721671366325367,-0.006115368234989854,0.07385278334345223
6690,11.0,300.10117,-5881.9596,0.0,0.0,0.06690094123166523,0.0,0.0,0.0,0.4388260134787556,0.45320147900750357,0.8959413533825271,-0.007226188949394322,0.0032652672469317867,0.1062569238017419
6691,11.0,299.88829,-6095.2744,0.0,0.0,0.06691094565203959,0.0,0.0,0.0,0.4680585423087816,0.47285682868733553,0.9118958374696122,0.006598188392440494,-0.003479795800504107,0.08008528572180233
6692,11.0,299.98847,-6229.2284,0.0,0.0,0.06692095007241372,0.0,0.0,0.0,0.47017171592233553,0.5045355763062845,0.9188225874057292,-0.012824455229675189,-0.005046762863476715,0.1106082351636829
6693,11.0,300.12838999999997,-6192.2004,0.0,0.0,0.06693095449278785,0.0,0.0,0.0,0.47711196234978454,0.47254349122641154,0.932618848779814,-0.008424412212124753,-0.00046054653911490457,0.07605309646560623
6694,11.0,299.71854,-6097.2905,0.0,0.0,0.06694095891316176,0.0,0.0,0.0,0.44855033680847156,0.4865932373780136,0.918280478337227,0.005122054539982425,0.01287811796822129,0.10693616613877789
6695,11.0,299.99632,-5930.6214,0.0,0.0,0.0669509633335359,0.0,0.0,0.0,0.44733896591641853,0.4501440170957556,0.9052778349714661,-0.005193174159201386,0.0029006849661753174,0.07688644299710112
6696,11.0,300.36954,-5989.3898,0.0,0.0,0.06696096775391025,0.0,0.0,0.0,0.43837171266391955,0.46500252934467656,0.9172506919955952,0.0025813738892867676,-0.007896520359750882,0.10579140630829889
6697,11.0,299.49971,-6170.5051,0.0,0.0,0.06697093926500686,0.0,0.0,0.0,0.4741203819595386,0.48545451651813054,0.916104574409982,-0.004871940541573095,-0.0045097594609036055,0.08407831691463383
6698,11.0,299.74826,-6117.6311,0.0,0.0,0.06698094368538099,0.0,0.0,0.0,0.4531727634996696,0.48508778077693654,0.9213465427423241,0.008529120160233623,0.019010060340396883,0.0992826747274371
6699,11.0,299.93356,-5965.7409,0.0,0.0,0.06699094810575512,0.0,0.0,0.0,0.44908305304854657,0.4747567131548396,0.8895965028463392,-0.0007075998636096693,-0.001077265113492789,0.1077671122807859
6700,11.0,299.07127,-6098.8671,0.0,0.0,0.06700095252612948,0.0,0.0,0.0,0.4557534405768626,0.4901343336949926,0.9080155252841552,-0.015658895728162685,3.5245586567968566e-05,0.10420841580956988
6701,11.0,300.14088,-6229.6342,0.0,0.0,0.06701095694650339,0.0,0.0,0.0,0.49549010014606554,0.4767199561510965,0.9214431865368621,-0.01842226990438648,-0.014465753205408686,0.08572450888835031
6702,11.0,300.30056,-6111.5999,0.0,0.0,0.06702096136687752,0.0,0.0,0.0,0.4670451199562646,0.47743725616188853,0.9132913868323421,-0.005295931499542745,0.005488685004491035,0.0974807330410993
6703,11.0,299.86735,-6042.6407,0.0,0.0,0.06703096578725165,0.0,0.0,0.0,0.4698324797888555,0.4522849740270516,0.914694444378313,-0.002377666137507378,-0.002191528953062068,0.07998524348642892
6704,11.0,300.95086000000003,-6084.4129,0.0,0.0,0.06704093729834848,0.0,0.0,0.0,0.4531590136958126,0.46442924257059753,0.9319213274109741,-0.00014067503359604485,-0.016185014696836586,0.08491507809896572
6705,11.0,300.44656000000003,-6184.4382,0.0,0.0,0.06705094171872261,0.0,0.0,0.0,0.4809918996327045,0.4644530539479475,0.9344698236649911,-0.0037033556548677466,-0.003988390406048486,0.06879665419870114
6706,11.0,300.34944,-6133.5732,0.0,0.0,0.06706094613909674,0.0,0.0,0.0,0.4484653656550856,0.46696702877105756,0.949020682786049,0.0005978472168304265,0.016024597954254684,0.08632403884001932
6707,11.0,300.4621,-6058.2525,0.0,0.0,0.06707095055947088,0.0,0.0,0.0,0.47316565718531456,0.4704099006233426,0.8979819174939152,0.0055955684005646045,0.005723772098617325,0.08457863853576172
6708,11.0,299.52856,-6093.8378,0.0,0.0,0.06708095497984501,0.0,0.0,0.0,0.4518596724300776,0.4783713410315755,0.9221435044759781,-0.008285597759024831,-0.0024825804846616176,0.1036946574788659
6709,11.0,299.38982999999996,-6138.371,0.0,0.0,0.06709095940021914,0.0,0.0,0.0,0.4833367224841205,0.4826687272231945,0.8999060591688132,0.007552191529943273,-0.009058603828514592,0.08743596531425792
6710,11.0,299.4043,-6222.7529,0.0,0.0,0.06710096382059327,0.0,0.0,0.0,0.45215533880925757,0.5086284480977195,0.9307777226856091,-0.0006874070455467935,0.0037418150822883965,0.10713086214549289
6711,11.0,299.38562,-6112.1655,0.0,0.0,0.0671109682409674,0.0,0.0,0.0,0.46938999347018556,0.4711518124790635,0.9174038650132121,0.002660484201444347,-0.0012116248125280588,0.08609013410743473
6712,11.0,300.40451,-5945.9999,0.0,0.0,0.06712093975206401,0.0,0.0,0.0,0.4313229876807646,0.47668957891309854,0.8994229212561311,-0.011082146351472689,-0.016470041949966586,0.1101451596029809
6713,11.0,300.30383,-6056.3692,0.0,0.0,0.06713094417243837,0.0,0.0,0.0,0.4620369185544936,0.46814501307231554,0.9108030675017641,-0.004459369925480545,-0.01099548914992029,0.09219978193766001
6714,11.0,299.52456,-6187.4346,0.0,0.0,0.0671409485928125,0.0,0.0,0.0,0.46423965334438655,0.4799171959141396,0.9366687688995101,-0.010225530531431291,0.004602536794385015,0.09533228819156431
6715,11.0,299.80312000000004,-6106.0257,0.0,0.0,0.06715095301318663,0.0,0.0,0.0,0.4638304218939986,0.49080537883871955,0.9014435446055512,0.006100125812410545,0.002316606470581258,0.098497100911657
6716,11.0,300.02527000000003,-6090.1412,0.0,0.0,0.06716095743356076,0.0,0.0,0.0,0.4590113841533966,0.46697795160713557,0.9252615283462031,-0.009505287738373861,-0.0015573656063500184,0.09356438461583581
6717,11.0,300.56327000000005,-6137.6845,0.0,0.0,0.0671709618539349,0.0,0.0,0.0,0.4704277236926015,0.47902211104080156,0.9162530054171312,0.015856176535882786,-0.006369782669473603,0.08303933735484452
6718,11.0,300.0919,-6132.8813,0.0,0.0,0.06718096627430903,0.0,0.0,0.0,0.45711484341122255,0.47697687584645254,0.9301510578962621,0.008068511255575062,0.008079117248346793,0.09438034377561472
6719,11.0,300.12057000000004,-6174.6632,0.0,0.0,0.06719097069468338,0.0,0.0,0.0,0.48062723092171455,0.47016213057638956,0.9261540496967882,0.004892311124233516,0.005787781741884585,0.09117562217383332
6720,11.0,300.20776,-6090.815,0.0,0.0,0.06720094220577977,0.0,0.0,0.0,0.4657446539829186,0.4721637453539335,0.9135472831450971,-0.01164490039076219,-0.008279189560092394,0.09549350337522501
6721,11.0,300.71556,-6021.0975,0.0,0.0,0.0672109466261539,0.0,0.0,0.0,0.4789353869647425,0.45220326553898754,0.8991246406916932,0.0033492820948734063,-0.004207278265526036,0.07479538559347983
6722,11.0,300.18662,-6029.5287,0.0,0.0,0.06722095104652825,0.0,0.0,0.0,0.4538664446506306,0.46398394954915056,0.9149757631360771,0.01134418295983369,0.0051832472466466755,0.09155154910668441
6723,11.0,299.84897,-6128.9775,0.0,0.0,0.06723095546690239,0.0,0.0,0.0,0.4634782465567416,0.48017794569487354,0.9193999170477072,-0.0023357988460253978,-0.000985988403409479,0.07325440647039702
6724,11.0,299.3486,-6179.9276,0.0,0.0,0.06724095988727652,0.0,0.0,0.0,0.4535381617507315,0.4707414360560626,0.9542640798010321,-0.02362635686848988,-0.017274025506813583,0.08952113168179782
6725,11.0,300.07763,-6165.3512,0.0,0.0,0.06725096430765065,0.0,0.0,0.0,0.4719191569122946,0.4851182796049466,0.9170753794632932,-0.01074866142556029,-0.005077112845047025,0.08853867830533722
6726,11.0,300.08196,-6217.5494,0.0,0.0,0.06726096872802478,0.0,0.0,0.0,0.4699079162588006,0.4952301812304135,0.9248416780347671,0.00898765575253756,0.019700229566511282,0.1069211599047969
6727,11.0,300.29594,-6192.7161,0.0,0.0,0.06727094023912139,0.0,0.0,0.0,0.5049564094703175,0.4699747401028956,0.9074999228382691,0.01922146889426128,0.008794286799478532,0.08507128782713243
6728,11.0,299.89063,-6067.5156,0.0,0.0,0.06728094465949552,0.0,0.0,0.0,0.43915285756351263,0.49287893437336355,0.9123414344660892,-0.0009198461929217509,-0.002887114304935997,0.1130231749220189
6729,11.0,299.74634,-6005.5908,0.0,0.0,0.06729094907986966,0.0,0.0,0.0,0.45309518907201357,0.4635065871620386,0.9089478673636701,-0.017868722255505582,-0.0098573560764203,0.08562503204653273
6730,11.0,299.28189,-6007.1931,0.0,0.0,0.06730095350024379,0.0,0.0,0.0,0.43171088008404657,0.47801867933427056,0.9163071433699741,0.010932388999942791,-0.0006313343220353464,0.0947829961931034
6731,11.0,299.93168,-5991.7844,0.0,0.0,0.06731095792061814,0.0,0.0,0.0,0.46393641798695956,0.4636852636846726,0.8937311408068962,-0.0015197584235884787,-0.0037557924621178566,0.09744004497008371
6732,11.0,299.56911,-6160.25,0.0,0.0,0.06732096234099227,0.0,0.0,0.0,0.46316336895566557,0.47516859932048955,0.9342302204138441,-0.00016904051418299983,-0.0027063384294198074,0.09076618300717482
6733,11.0,299.5914,-6217.8417,0.0,0.0,0.0673309667613664,0.0,0.0,0.0,0.4954762287521965,0.4873987610750125,0.9071936173330392,-0.007962759761188203,-0.007256005049486943,0.08315193477220702
6734,11.0,299.67377999999997,-6130.8592,0.0,0.0,0.06734097118174054,0.0,0.0,0.0,0.45615490039898354,0.46828564205369455,0.9391875667930961,0.007384108030479723,0.02050637438582158,0.08698145475665123
6735,11.0,300.39207000000005,-6160.1434,0.0,0.0,0.06735094269283715,0.0,0.0,0.0,0.4666878074410005,0.47812725921498656,0.927714728428315,0.01096267200568149,0.008972810118697412,0.08843714355256652
6736,11.0,300.41927000000004,-6178.732,0.0,0.0,0.06736094711321128,0.0,0.0,0.0,0.45474048431939157,0.47366480444957654,0.9497749562929901,-0.0051997025295956855,0.00023853346169141977,0.07224843657236553
6737,11.0,300.39872,-6143.8898,0.0,0.0,0.06737095153358541,0.0,0.0,0.0,0.47733320550911956,0.4730936151032045,0.917162255526867,-0.01668702033963068,0.005405722011478225,0.09612081563138591
6738,11.0,299.50368,-6048.3542,0.0,0.0,0.06738095595395976,0.0,0.0,0.0,0.45850283392820657,0.48395512928515255,0.8960906963147661,-0.004301293891954655,0.008786965763531001,0.09267215305477941
6739,11.0,300.37964,-6009.3102,0.0,0.0,0.0673909603743339,0.0,0.0,0.0,0.4826516438265085,0.46897343622157456,0.8750551682762211,0.0027462883477375574,0.0004027348757818376,0.10730221286990389
6740,11.0,300.02745,-6008.9623,0.0,0.0,0.06740096479470803,0.0,0.0,0.0,0.44262651195383557,0.4660246960455565,0.9179232975444762,0.002176321183636178,-0.02236297787530408,0.08962642457918941
6741,11.0,299.36919,-6006.6988,0.0,0.0,0.06741096921508216,0.0,0.0,0.0,0.46061569343422953,0.4628823237754286,0.9023884408538052,0.007303631553212313,-0.015702351998451484,0.0964584984524626
6742,11.0,298.87705,-6144.5923,0.0,0.0,0.0674209736354563,0.0,0.0,0.0,0.44703819275673456,0.4724700711241655,0.9482943749818682,0.006264687051876473,0.01042152856452479,0.08170179352058922
6743,11.0,299.6623,-6173.6104,0.0,0.0,0.06743094514655268,0.0,0.0,0.0,0.47167726371592156,0.46924533175340855,0.9357008110789802,0.016591484027451985,0.0061993219839504435,0.09592376381818842
6744,11.0,299.97865,-6184.7259,0.0,0.0,0.06744094956692703,0.0,0.0,0.0,0.4674688307505816,0.48176763377676357,0.9307657764669302,-0.005252571791988475,7.897637670636152e-05,0.09610969419828831
6745,11.0,300.05208,-6204.2998,0.0,0.0,0.06745095398730139,0.0,0.0,0.0,0.5030563020877915,0.4619723947881256,0.9209235209580752,-0.012939309155010386,0.0024769968686605575,0.08761938283410982
6746,11.0,299.67576,-6191.099,0.0,0.0,0.06746095840767552,0.0,0.0,0.0,0.4588165158941646,0.48740378679550855,0.9357191813032931,-0.01045598717392559,0.007386810267171412,0.09355550550520951
6747,11.0,299.72551,-5993.305,0.0,0.0,0.06747096282804965,0.0,0.0,0.0,0.46065972928357557,0.4604301876059216,0.9007251401521501,-0.010381883127862089,0.012295398848961388,0.08391624857438892
6748,11.0,299.75187,-5993.8206,0.0,0.0,0.06748096724842356,0.0,0.0,0.0,0.4345341900301856,0.46992841430832355,0.9175092024936081,-0.0026189568553709173,-0.012953571663417988,0.094045092754778
6749,11.0,300.41814,-6107.5511,0.0,0.0,0.06749097166879792,0.0,0.0,0.0,0.47773683368645453,0.47372357295537654,0.9050826120746991,0.0008767223294607573,-0.0025844514338154976,0.08262655851585642
6750,11.0,300.30539,-6147.1909,0.0,0.0,0.06750094317989452,0.0,0.0,0.0,0.47182683969568356,0.47865229501930356,0.9181134136607392,0.002633412185272547,0.003545250946364027,0.1041068070895419
6751,11.0,299.97051,-6126.7107,0.0,0.0,0.06751094760026866,0.0,0.0,0.0,0.47638919078845254,0.4854352039712246,0.9005426639416411,0.007900024178596683,0.004616904275502975,0.1096829149073609
6752,11.0,300.50243,-6177.5084,0.0,0.0,0.06752095202064279,0.0,0.0,0.0,0.4583926429798315,0.4795172559671686,0.939898412400751,-0.008641009721076263,-0.009576874769863951,0.0943934836029115
6753,11.0,299.0966,-6226.3331,0.0,0.0,0.06753095644101714,0.0,0.0,0.0,0.48532084856493857,0.4732984334784186,0.9340305088191342,0.007830393226424643,-0.013135921217664487,0.08333416982919221
6754,11.0,299.31593,-6077.5379,0.0,0.0,0.06754096086139127,0.0,0.0,0.0,0.4486038262812506,0.46327918344209557,0.9355367557552892,0.001122326878565039,-0.002173993038881408,0.08449947127894851
6755,11.0,299.52556,-6067.6649,0.0,0.0,0.06755096528176541,0.0,0.0,0.0,0.4774434673850016,0.4621399255596595,0.904835216930283,-0.007463839971573654,-0.0013074250763578088,0.08433497316496383
6756,11.0,299.66983,-6037.0028,0.0,0.0,0.06756096970213932,0.0,0.0,0.0,0.46345292543674255,0.47015821943100355,0.9014869421073342,-0.006718188209733554,-0.01200890643618679,0.09178928088489673
6757,11.0,299.59996,-6056.6265,0.0,0.0,0.06757097412251345,0.0,0.0,0.0,0.46724917839390356,0.47217481004502554,0.9016392437298651,-0.013490160545375187,0.005145677148838795,0.10580426445206789
6758,11.0,300.33146,-6153.764,0.0,0.0,0.06758094563361028,0.0,0.0,0.0,0.4590170178239526,0.4775221969177716,0.9340513919036951,0.01370379520970929,0.017264169623090884,0.1038109785903459
6759,11.0,300.66778999999997,-6221.7472,0.0,0.0,0.06759095005398441,0.0,0.0,0.0,0.4755196094201316,0.48922162840241556,0.9265145640823681,0.006492923764726683,0.014372398420695286,0.0905348002540891
6760,11.0,300.69322,-6107.8715,0.0,0.0,0.06760095447435854,0.0,0.0,0.0,0.44176082146589857,0.4836563724931675,0.931223238622078,0.003095405290892717,-0.0018645210257638982,0.09177397067588572
6761,11.0,300.08042,-6067.1451,0.0,0.0,0.06761095889473268,0.0,0.0,0.0,0.46849002473136553,0.4687474611842726,0.9070231481362152,-0.002332121254787448,-0.010709139605409791,0.07579793779892403
6762,11.0,299.99518,-6106.9718,0.0,0.0,0.06762096331510703,0.0,0.0,0.0,0.4715721592830486,0.47147042897300856,0.9133243478580951,0.007254954207808233,0.0015978991567253684,0.09088871331526761
6763,11.0,300.12363,-6089.8158,0.0,0.0,0.06763096773548094,0.0,0.0,0.0,0.4698772755757765,0.46367994412164754,0.9175947410670501,-0.012882694818922989,0.00039978722991592763,0.08173921386003233
6764,11.0,299.24268,-6035.4122,0.0,0.0,0.06764097215585507,0.0,0.0,0.0,0.4386097859074156,0.4744564364877045,0.9215483618972421,-0.0036510783331833766,-0.018726453663907083,0.1041281360041469
6765,11.0,299.14575,-6130.4586,0.0,0.0,0.0676509765762292,0.0,0.0,0.0,0.46772872940123156,0.4779519568151856,0.9178256303673371,-0.009974053205012412,0.01091122423185399,0.07918039968024702
6766,11.0,299.66379,-6204.7832,0.0,0.0,0.06766094808732603,0.0,0.0,0.0,0.46085885319322756,0.47554769671290353,0.9496925993248622,0.012370498919873187,0.0024745937433983877,0.10462237913792491
6767,11.0,299.68344,-6190.4377,0.0,0.0,0.06767095250770017,0.0,0.0,0.0,0.49900658461811553,0.4791754259134326,0.903556485171582,0.015774780128849586,0.006800760493507804,0.1012983412573679
6768,11.0,299.72999,-6204.3324,0.0,0.0,0.0676809569280743,0.0,0.0,0.0,0.4703795639153485,0.48711806039980954,0.9284645031048121,0.0028999714354548977,-0.0070656543658257935,0.096096934339779
6769,11.0,299.51793,-6138.7409,0.0,0.0,0.06769096134844843,0.0,0.0,0.0,0.4740550171955875,0.48670625529416756,0.9052626767499702,-0.010981597491049289,0.0003153192869270907,0.096360359100777
6770,11.0,300.38065,-6061.7895,0.0,0.0,0.06770096576882256,0.0,0.0,0.0,0.44047385198388456,0.4669014005620805,0.9352573824377172,-0.01048718109150419,0.007456587836632923,0.08126012489474993
6771,11.0,300.28657999999996,-6111.8082,0.0,0.0,0.0677109701891967,0.0,0.0,0.0,0.45330953199816754,0.47472124940133953,0.9298062894172362,-0.01933969896892968,0.0026982408385956376,0.08522778633157761
6772,11.0,300.31786,-6162.1877,0.0,0.0,0.06772097460957083,0.0,0.0,0.0,0.4424002126765016,0.4971568256330586,0.9335941425310682,0.0027035056861152373,-0.0047913723651716355,0.08216262270581952
6773,11.0,299.93679,-6103.1669999999995,0.0,0.0,0.06773097902994496,0.0,0.0,0.0,0.4722252395025025,0.4810121646347046,0.9019729475177992,-0.014793415996246485,0.004887481264981845,0.09684673333427841
6774,11.0,299.96092999999996,-6161.8533,0.0,0.0,0.06774095054104157,0.0,0.0,0.0,0.47542294536059154,0.4786612521501875,0.9189653543448191,0.018610151804178982,0.01000622896193791,0.08466038654057961
6775,11.0,300.64665,-6211.7493,0.0,0.0,0.06775095496141592,0.0,0.0,0.0,0.4821467615666805,0.49212226959618655,0.9139476689221122,-0.0006033826933192354,-0.003211434788993937,0.1154140297254779
6776,11.0,300.20907,-6138.3758,0.0,0.0,0.06776095938179005,0.0,0.0,0.0,0.4538422482382426,0.4679526070108265,0.9441181228397041,0.008309341248618133,-0.004186600972060346,0.09179272289548641
6777,11.0,300.35982,-6080.6573,0.0,0.0,0.06777096380216419,0.0,0.0,0.0,0.4521739927435986,0.4751134379850456,0.9210805544585732,-0.0021075627411252483,-0.004605341875961856,0.096157263250733
6778,11.0,300.12756,-6145.7656,0.0,0.0,0.06778096822253832,0.0,0.0,0.0,0.4562770679635405,0.4737265215131675,0.9381556830237571,-0.01052920462615159,0.007811072370867822,0.08110235070842883
6779,11.0,300.61689,-6125.4239,0.0,0.0,0.06779097264291245,0.0,0.0,0.0,0.4959131624603185,0.46356640944794253,0.9024963418569542,-0.017583090092065882,0.00022683606683947683,0.08139617094592662
6780,11.0,300.32135,-6095.276999999999,0.0,0.0,0.06780097706328658,0.0,0.0,0.0,0.4527902717194206,0.48768155917792255,0.9123401679034641,-0.015116464446128883,-0.02027887846011948,0.08481348255118902
6781,11.0,300.10217,-6121.6630000000005,0.0,0.0,0.06781094857438319,0.0,0.0,0.0,0.4647524186899926,0.48271900469315654,0.913361260559238,-0.003792225591988527,0.0006520994541522054,0.08458626020301391
6782,11.0,299.77143,-6181.7356,0.0,0.0,0.06782095299475732,0.0,0.0,0.0,0.45069021969466155,0.4777545554307035,0.9506484792042,0.006341661838123294,-0.006826142205862784,0.08309046190189012
6783,11.0,300.42351,-6140.6495,0.0,0.0,0.06783095741513145,0.0,0.0,0.0,0.46069465601452253,0.47342196893061056,0.9324875011693511,0.011381371265003888,0.0034926314501208867,0.09319874217149972
6784,11.0,300.01436,-6092.6458,0.0,0.0,0.06784096183550581,0.0,0.0,0.0,0.4506564379363276,0.4634922496731235,0.937863512357422,0.01057041857396909,-0.005918647045299984,0.08047720883398213
6785,11.0,300.15677,-5998.096,0.0,0.0,0.06785096625587994,0.0,0.0,0.0,0.47162696598095755,0.46036132712912553,0.8912831083002942,0.012400509361334989,0.005691768999508864,0.09146285628568111
6786,11.0,299.99262999999996,-6163.088000000001,0.0,0.0,0.06786097067625407,0.0,0.0,0.0,0.4650997101617676,0.48380587754542254,0.92451929225045,-0.008835698331065532,0.011884184468127688,0.092491142003915
6787,11.0,299.2286,-6281.7164,0.0,0.0,0.0678709750966282,0.0,0.0,0.0,0.5018522975239655,0.4825018347992236,0.9251307988183012,-0.03052754047808367,-0.0005128383401432036,0.08947559824880401
6788,11.0,299.84609,-6118.7144,0.0,0.0,0.06788097951700234,0.0,0.0,0.0,0.44879064933468854,0.49068200550654356,0.9204637485926992,-0.01998960670232058,-0.007595045321722613,0.1092605010731719
6789,11.0,300.19002,-5969.2435,0.0,0.0,0.06789095102809894,0.0,0.0,0.0,0.4359381493687456,0.4686682452914545,0.909894587462104,-0.016265831524812584,-0.007489212666002743,0.09773651283009281
6790,11.0,300.19928,-6068.2889,0.0,0.0,0.06790095544847308,0.0,0.0,0.0,0.4523775749536906,0.48190312558013554,0.9103275897598381,0.02062570383684848,0.0072693640427803725,0.0982597095854783
6791,11.0,300.64806,-6223.2132,0.0,0.0,0.06791095986884721,0.0,0.0,0.0,0.4907666321548955,0.4880955022412755,0.9128393050352251,-0.007411151472998703,0.0012180360512107989,0.08455482310541133
6792,11.0,300.47371,-6104.6622,0.0,0.0,0.06792096428922134,0.0,0.0,0.0,0.45997422506092156,0.4710662029781145,0.924624447345828,0.0006124108327702435,-0.0077282510302189925,0.10256099273698191
6793,11.0,300.28346,-6050.1343,0.0,0.0,0.0679309687095957,0.0,0.0,0.0,0.44657944377395953,0.4882713720611325,0.9042389496439361,-0.004424670871831017,-0.004524797105637706,0.08160664528319883
6794,11.0,300.83986,-6135.1072,0.0,0.0,0.06794097312996983,0.0,0.0,0.0,0.4447101594594756,0.4702272825578196,0.949981943023418,0.0018552387429228083,0.008255191440748962,0.1016667184637239
6795,11.0,300.09483,-6293.9777,0.0,0.0,0.06795097755034396,0.0,0.0,0.0,0.4829568043591255,0.48336960244986554,0.9468856736328402,0.007657006274612682,-0.0025973579096142674,0.07895645620939552
6796,11.0,299.48426,-6233.9893,0.0,0.0,0.06796098197071809,0.0,0.0,0.0,0.4817579369733066,0.4888979659229726,0.9243211815908982,-0.009577231231249131,0.0005302038053920415,0.09047075778151861
6797,11.0,299.71161,-6167.2103,0.0,0.0,0.0679709534818147,0.0,0.0,0.0,0.4865244883587286,0.46765409339886554,0.9204993542012131,-0.007781737767222722,0.01008830272666296,0.07534076442005452
6798,11.0,299.47486000000004,-6140.8245,0.0,0.0,0.06798095790218883,0.0,0.0,0.0,0.46067484697506755,0.4861602654777825,0.919822199159383,0.008628127867254923,0.012688492265006688,0.0993378036388779
6799,11.0,299.71668999999997,-6191.0742,0.0,0.0,0.06799096232256296,0.0,0.0,0.0,0.4800889114085865,0.4745619360881166,0.9272811080480202,-0.009690336996186802,0.003900266727626356,0.08277819544632183
6800,11.0,300.39881,-6246.9937,0.0,0.0,0.06800096674293732,0.0,0.0,0.0,0.46689816829426156,0.48715614847106853,0.9448757806019792,0.005064464140073695,-0.00978094455590407,0.09757077956423621
6801,11.0,300.03612999999996,-6173.1582,0.0,0.0,0.06801097116331145,0.0,0.0,0.0,0.46468019422286455,0.4847816272592215,0.9270241275576582,-0.0034358788053948366,-0.015890385885758983,0.08570272705095061
6802,11.0,299.93591000000004,-6053.0788,0.0,0.0,0.06802097558368558,0.0,0.0,0.0,0.4560566354042856,0.4712393978177076,0.912688766467868,0.015163670755037786,0.0028941249823778974,0.08917838868972172
6803,11.0,299.85098,-6108.1335,0.0,0.0,0.06803098000405972,0.0,0.0,0.0,0.46678735926332554,0.4777295484182355,0.912203146092441,0.0012935482109382689,-0.017115169169385682,0.07422335018327433
6804,11.0,299.75858999999997,-6146.784000000001,0.0,0.0,0.0680409515151561,0.0,0.0,0.0,0.4704458507368905,0.4661254941655046,0.9318975261661252,-0.014602093099114385,-0.0032569594067118667,0.08317118551085692
6805,11.0,299.77828,-6176.1574,0.0,0.0,0.06805095593553045,0.0,0.0,0.0,0.47076029264042357,0.4791042653589095,0.9275330628178861,-0.013965266424514487,-0.009898312760037411,0.08691604439644574
6806,11.0,300.45272,-6169.5159,0.0,0.0,0.06806096035590459,0.0,0.0,0.0,0.44405482982479955,0.4985701271375405,0.9327538136931341,0.01125350822163479,0.015023250503179384,0.10789087064799989
6807,11.0,300.42881,-6152.8099,0.0,0.0,0.06807096477627894,0.0,0.0,0.0,0.4751080576270146,0.47360867039403654,0.9215838661807461,0.00897430263609471,0.006486505635943264,0.10725438746518388
6808,11.0,300.69772,-6153.7638,0.0,0.0,0.06808096919665307,0.0,0.0,0.0,0.4636370127149106,0.49236968500560446,0.9145838278648961,0.004398112877434946,-0.0066277672906847026,0.0975790132345488
6809,11.0,299.70866,-6091.0830000000005,0.0,0.0,0.0680909736170272,0.0,0.0,0.0,0.47891211260994554,0.47745144166328857,0.8951735833842541,-0.008779199201514501,0.0012690094213414788,0.10573194879243089
6810,11.0,299.57667999999995,-6024.4049,0.0,0.0,0.06810097803740112,0.0,0.0,0.0,0.44275523524653965,0.46087940190525556,0.927634043322852,-0.009579146577913162,0.014200250268455589,0.08841009889414742
6811,11.0,299.58437999999995,-6054.8915,0.0,0.0,0.06811098245777547,0.0,0.0,0.0,0.4518860473301806,0.48029996127191554,0.9083498066246461,0.004759222547448695,0.0035875678169153763,0.09705907306498471
6812,11.0,299.90906,-6175.6521,0.0,0.0,0.06812095396887208,0.0,0.0,0.0,0.4430060653087946,0.47774646969490553,0.9564915074958622,0.005261297901849675,-0.005226606852875935,0.0862081564658326
6813,11.0,299.47405,-6238.1501,0.0,0.0,0.06813095838924621,0.0,0.0,0.0,0.48594576043161253,0.48984721914665647,0.9204488943462331,0.025327143770844475,-0.005417693054784675,0.09049106939302322
6814,11.0,300.11092,-6292.3184,0.0,0.0,0.06814096280962034,0.0,0.0,0.0,0.47609956337986853,0.5020032515238636,0.9346048696383191,0.01206027618975659,0.007777100425490053,0.08007479858326733
6815,11.0,299.76358,-6279.3675,0.0,0.0,0.0681509672299947,0.0,0.0,0.0,0.4997682548507865,0.4789461679458066,0.9300565013969302,0.01116399264155029,0.002167990950589048,0.08474221155240512
6816,11.0,300.56564,-6212.621999999999,0.0,0.0,0.06816097165036883,0.0,0.0,0.0,0.46835977143101054,0.4784963558289136,0.9416258214362332,-0.002172758494959568,-0.005067374802310955,0.07195147120655734
6817,11.0,300.40895,-6174.2396,0.0,0.0,0.06817097607074274,0.0,0.0,0.0,0.4710786760868455,0.47528192121167356,0.9304540804711682,0.006524401797633324,-0.002399105293723258,0.08831907863766442
6818,11.0,299.65724,-6181.6664,0.0,0.0,0.06818098049111687,0.0,0.0,0.0,0.46010150953848356,0.47320025967622953,0.9457704500427762,0.009562122355033,0.006608437923827044,0.08213339955968543
6819,11.0,299.53465,-6090.6521,0.0,0.0,0.068190984911491,0.0,0.0,0.0,0.47702202627090856,0.4691389607579106,0.9052451677882422,-0.0030155064675073174,-0.015923999444576384,0.10325961854843091
6820,11.0,300.28925,-6101.5986,0.0,0.0,0.06820095642258783,0.0,0.0,0.0,0.4759857956586405,0.4631724679415635,0.9155753437502512,-0.016821599204662585,-0.006052185403804194,0.08384003798136751
6821,11.0,299.74492999999995,-6085.0367,0.0,0.0,0.06821096084296197,0.0,0.0,0.0,0.47539711761554254,0.47674273401334455,0.8975593719372131,0.00918541076130446,-0.002303818950344228,0.10439452958793789
6822,11.0,299.86816,-6114.8839,0.0,0.0,0.0682209652633361,0.0,0.0,0.0,0.45347952496744454,0.48222791276718957,0.9230645893468821,0.0013967862371270688,0.03357540184513417,0.08322673188133893
6823,11.0,299.65522999999996,-6155.4692,0.0,0.0,0.06823096968371023,0.0,0.0,0.0,0.44375350951006154,0.49168209348774455,0.935673331736268,-0.0002237922838040788,0.013470729448207487,0.100138170906118
6824,11.0,300.22406,-6131.9019,0.0,0.0,0.06824097410408458,0.0,0.0,0.0,0.44364872931722055,0.4882540353519216,0.9320422993404132,-0.014720466042046885,0.008972861186502451,0.09581991986843981
6825,11.0,299.9859,-6145.7367,0.0,0.0,0.0682509785244585,0.0,0.0,0.0,0.4643988248025956,0.4906522666161085,0.9130994164683962,0.005332665767343135,-0.0038380645198874764,0.10566609766843191
6826,11.0,299.63594,-6146.2944,0.0,0.0,0.06826098294483263,0.0,0.0,0.0,0.47667065140123055,0.47948029260352054,0.9121690907565801,0.018040647492723286,-0.0012289273752106888,0.09910822041796981
6827,11.0,298.96671000000003,-6118.4483,0.0,0.0,0.06827095445592946,0.0,0.0,0.0,0.4712644250951775,0.47869769875628454,0.9098933715619841,7.664127497640493e-05,-0.028650873623371074,0.0996276823334867
6828,11.0,299.99082999999996,-6112.1053,0.0,0.0,0.06828095887630359,0.0,0.0,0.0,0.4726602277704326,0.4540075295945546,0.9312596345656702,-0.0033210486914369867,-0.01311249588860259,0.0958534341287474
6829,11.0,299.92632000000003,-6168.1612,0.0,0.0,0.06829096329667772,0.0,0.0,0.0,0.4551306565353985,0.4785339575401245,0.9413023818718121,0.0035911317214921065,-0.0006471283782340984,0.0915866389708975
6830,11.0,300.24164,-6122.4075,0.0,0.0,0.06830096771705185,0.0,0.0,0.0,0.4570396399888006,0.4756108221941336,0.9284085311692882,0.016489332205370383,0.035485548509650966,0.1014182188766989
6831,11.0,300.10786,-6179.772,0.0,0.0,0.06831097213742598,0.0,0.0,0.0,0.46656457596383855,0.4735525160734946,0.9383792870558251,0.0033743657090489665,-0.007249978845842203,0.08403209649807222
6832,11.0,300.28226,-6236.8705,0.0,0.0,0.06832097655780012,0.0,0.0,0.0,0.49679347414719854,0.4816909814066985,0.9173684316572152,-6.082429703389074e-05,0.0019579416717337983,0.09044031772201441
6833,11.0,300.26923999999997,-6258.3173,0.0,0.0,0.06833098097817425,0.0,0.0,0.0,0.4869210947128705,0.4761893474712295,0.9392617367004161,0.003958459099419496,0.0005528583348378695,0.07131193611444013
6834,11.0,300.53679,-6243.1733,0.0,0.0,0.06834098539854838,0.0,0.0,0.0,0.4701463238748296,0.47858890609304755,0.9490335510623191,0.016428128859580084,0.01967795123656258,0.08705145513980972
6835,11.0,300.11052,-6275.4326,0.0,0.0,0.06835095690964499,0.0,0.0,0.0,0.4607964977820736,0.4892126814040325,0.9575656437943711,0.0061590662667525145,-0.006042036994777624,0.07900644996932951
6836,11.0,300.0805,-6242.5169,0.0,0.0,0.06836096133001912,0.0,0.0,0.0,0.4827188527056415,0.47749712911029757,0.9373532902695672,-0.008213895419673363,-0.00969623046406844,0.08885882987318372
6837,11.0,300.02244,-6119.0475,0.0,0.0,0.06837096575039348,0.0,0.0,0.0,0.46926948763579257,0.47826807058138354,0.9125000891667472,0.005588575961624505,-0.0001325974645938509,0.09714497235546231
6838,11.0,299.73114,-6009.8487,0.0,0.0,0.06838097017076761,0.0,0.0,0.0,0.4711442536333175,0.45780857522468854,0.8978911100199531,-0.004591625712008176,0.019502396537486682,0.09171065774338721
6839,11.0,299.61955,-6072.9831,0.0,0.0,0.06839097459114174,0.0,0.0,0.0,0.46890221487204553,0.46802396008286856,0.9091090653220791,0.011777779022126289,-0.004154932042834866,0.09958324726360131
6840,11.0,299.93928,-6137.789000000001,0.0,0.0,0.06840097901151587,0.0,0.0,0.0,0.45904171072888955,0.4871411625020895,0.9195517221776891,-0.014301389853687287,-0.014901884419451486,0.1001077683368675
6841,11.0,299.49183,-6194.8176,0.0,0.0,0.06841098343189,0.0,0.0,0.0,0.4599982998832976,0.4831893553895765,0.9398822206641531,0.006447373714431244,-0.007913233109550303,0.1103436552975709
6842,11.0,299.62754,-6136.5743,0.0,0.0,0.06842098785226414,0.0,0.0,0.0,0.4492120499187776,0.48307989398127354,0.9330734029071751,-0.0012287247251906888,0.014088299304656885,0.0961160999654205
6843,11.0,300.78135,-6084.1567,0.0,0.0,0.06843095936336074,0.0,0.0,0.0,0.44446264272504754,0.4880653073882955,0.9169037754263571,-0.0006245952766802544,-0.0021828976834102278,0.1021271291766629
6844,11.0,300.85154,-6183.5805,0.0,0.0,0.06844096378373488,0.0,0.0,0.0,0.4671780482368836,0.4837030833227775,0.9287729161702502,-0.007451666075597182,0.006053751280508734,0.07907690631503303
6845,11.0,299.83927,-6183.3077,0.0,0.0,0.06845096820410901,0.0,0.0,0.0,0.4703437657893155,0.4846540996016355,0.9245732984807802,0.004417216694820346,-0.0016156423818764884,0.08742808222847992
6846,11.0,300.63161,-6060.3857,0.0,0.0,0.06846097262448336,0.0,0.0,0.0,0.4495877022608516,0.4669908401484075,0.9256273926923111,0.0063294352531416236,0.03212869145835497,0.08653555986464481
6847,11.0,300.18214,-6002.4433,0.0,0.0,0.0684709770448575,0.0,0.0,0.0,0.46027390391049755,0.45743024790235054,0.9068887202454482,-0.01120803355714679,0.0001947615133339648,0.09421576966787251
6848,11.0,300.28193,-6210.9487,0.0,0.0,0.06848098146523163,0.0,0.0,0.0,0.4716250205407656,0.4880485684966435,0.9282997182410491,-0.004750412540479216,0.015235995533925685,0.0908687269570451
6849,11.0,300.3449,-6297.2712,0.0,0.0,0.06849098588560576,0.0,0.0,0.0,0.4943237884859595,0.4793983612004345,0.9404910623842411,0.011964561545560288,0.0015920176451949086,0.1008503388051535
6850,11.0,300.42887,-6235.7379,0.0,0.0,0.06850099030597989,0.0,0.0,0.0,0.48294731020568854,0.4877628623659465,0.9247984325204991,0.012814693578211788,0.012275506722998188,0.08816354778706471
6851,11.0,299.23044,-6190.4925,0.0,0.0,0.0685109618170765,0.0,0.0,0.0,0.4659842167040616,0.48459114637292255,0.9311797701927881,-0.006048701647310375,-0.008616241632981842,0.09055823571565201
6852,11.0,300.03405,-6213.5785,0.0,0.0,0.06852096623745063,0.0,0.0,0.0,0.4549383923289235,0.4791793573238205,0.954654961292109,-0.012353918095236789,-0.01133844087151699,0.07189617510885002
6853,11.0,299.79991,-6240.003000000001,0.0,0.0,0.06853097065782476,0.0,0.0,0.0,0.46851788910911557,0.49709563545951957,0.9311915846889541,0.007526412724874102,0.00024752519506633473,0.091700887985923
6854,11.0,299.72907999999995,-6234.4323,0.0,0.0,0.0685409750781989,0.0,0.0,0.0,0.47507940291418654,0.48117643274091654,0.9388559097703641,0.0019435282903863082,0.024625759892623274,0.06520919662339664
6855,11.0,300.06346,-6134.2675,0.0,0.0,0.06855097949857325,0.0,0.0,0.0,0.4693841672821106,0.48362561022013156,0.9116543698382811,-0.005462883097319584,0.004000739898267286,0.09768768532102391
6856,11.0,300.75357,-6079.4318,0.0,0.0,0.06856098391894738,0.0,0.0,0.0,0.4744159267487066,0.4708323347225335,0.9027472023167121,-0.018788939784323982,-0.0024266826177199276,0.08958043619690072
6857,11.0,300.84758,-6178.9458,0.0,0.0,0.06857098833932151,0.0,0.0,0.0,0.46409742342784954,0.4765597410452846,0.9375880704502382,-0.00961882920085453,-0.0006078299594656465,0.11579661269823588
6858,11.0,301.12106,-6202.7646,0.0,0.0,0.06858095985041812,0.0,0.0,0.0,0.4640238006755835,0.48916982092480255,0.9322919540325522,0.015098719397127588,0.012328825969760386,0.10306999892471691
6859,11.0,300.64676000000003,-6105.1894,0.0,0.0,0.06859096427079225,0.0,0.0,0.0,0.4543343027518046,0.4724182332490495,0.9290726051523271,-0.0018250098447394484,-0.018540718841076484,0.10996104192730989
6860,11.0,300.64557,-6038.1638,0.0,0.0,0.06860096869116639,0.0,0.0,0.0,0.4588072345232485,0.47056698478634557,0.9060768029403181,0.0054594361218043945,-0.0026612373502436777,0.1114479763165589
6861,11.0,299.99387,-6106.2228,0.0,0.0,0.06861097311154052,0.0,0.0,0.0,0.45334834960949855,0.4916830560753396,0.9111078531318441,-0.005689829537492454,-0.0012141486158771387,0.10082482212788521
6862,11.0,299.69316000000003,-6197.4038,0.0,0.0,0.06862097753191487,0.0,0.0,0.0,0.4771197441105525,0.4829947708403725,0.9237414708111851,0.01006437847325182,0.02042301024709418,0.09881995684402041
6863,11.0,300.1926,-6186.4062,0.0,0.0,0.068630981952289,0.0,0.0,0.0,0.4483759463337606,0.48409654860160956,0.948040505169313,-0.0011112930916010889,-0.0061041955314371935,0.07443645491780614
6864,11.0,300.49726,-6025.2348,0.0,0.0,0.06864098637266314,0.0,0.0,0.0,0.43538107459626657,0.4691268017567105,0.9270130527340651,-0.0001156344116222279,-0.00893511883617757,0.08356237806971462
6865,11.0,299.80357000000004,-6008.666,0.0,0.0,0.06865099079303727,0.0,0.0,0.0,0.4488916703696586,0.45991946902551756,0.9176732983473032,-0.0006102951969589464,-0.001173582641498589,0.07883329768624073
6866,11.0,300.14123,-6148.4457,0.0,0.0,0.06866096230413365,0.0,0.0,0.0,0.47706711590035855,0.48839365108320054,0.9035132193923121,0.0004759984004898845,0.004966451849950635,0.1075804817448669
6867,11.0,300.21686,-6253.7433,0.0,0.0,0.06867096672450801,0.0,0.0,0.0,0.4996303312471745,0.4786041149770485,0.9227473610055742,0.014832705782124088,0.0026589323075911875,0.09111281383988461
6868,11.0,299.76765,-6252.1959,0.0,0.0,0.06868097114488214,0.0,0.0,0.0,0.5072380764430006,0.47549266709997257,0.9177806927254022,-0.00016795294218816486,0.003368960627715527,0.10210075427655992
6869,11.0,299.57948999999996,-6216.1939,0.0,0.0,0.0686909755652565,0.0,0.0,0.0,0.46109735200176555,0.4832050911636296,0.945265294205421,0.016802585566536084,0.010787237883367488,0.09512162741627372
6870,11.0,299.42894,-6100.5951,0.0,0.0,0.06870097998563063,0.0,0.0,0.0,0.4515819811076716,0.4546478833927526,0.9481987039074262,0.0007353018781636453,0.004004251113838816,0.08729119315322001
6871,11.0,299.00445,-6170.2836,0.0,0.0,0.06871098440600476,0.0,0.0,0.0,0.4475316354229335,0.47865108925168454,0.9494294076113872,0.014206369285809487,-0.00027533080431053474,0.08204685989514462
6872,11.0,299.56822999999997,-6214.2748,0.0,0.0,0.06872098882637867,0.0,0.0,0.0,0.47238362062563355,0.4807771210090076,0.935823627123601,0.004036325545754316,-0.018477447451832083,0.08919633334899273
6873,11.0,300.64241,-6247.7575,0.0,0.0,0.06873099324675302,0.0,0.0,0.0,0.47930155528588053,0.4916034146174795,0.928257293459362,-0.005184982133467895,-0.008100557823112812,0.08755558658131361
6874,11.0,300.54679,-6141.1338,0.0,0.0,0.06874096475784963,0.0,0.0,0.0,0.48222048564395653,0.4923424488429165,0.8921883966021391,-0.002013698595586578,0.0023509545343961477,0.09701990284261891
6875,11.0,300.76063999999997,-6054.0949,0.0,0.0,0.06875096917822376,0.0,0.0,0.0,0.4438657978861436,0.47282382713157856,0.9236040538326231,-0.00927509859390596,-0.006614091048784964,0.09401156937521951
6876,11.0,300.44531,-6184.3297,0.0,0.0,0.0687609735985979,0.0,0.0,0.0,0.4573073507977216,0.4896528169824705,0.932921628174696,0.0067617939344121036,0.00037111556541375465,0.08994898869552401
6877,11.0,299.57061,-6266.285,0.0,0.0,0.06877097801897225,0.0,0.0,0.0,0.45702477560983357,0.49516251638873554,0.9526068889974801,0.005820127015551814,-0.0010117142154984192,0.1055059636226279
6878,11.0,299.72393,-6151.2527,0.0,0.0,0.06878098243934638,0.0,0.0,0.0,0.46056399741412757,0.4892112425888906,0.9200519941495621,0.00938980458472656,-0.008104007534403272,0.1125690463596999
6879,11.0,299.68887,-6076.68,0.0,0.0,0.0687909868597203,0.0,0.0,0.0,0.47366518948461456,0.4738562276584685,0.8996375681573151,-0.006857372803095004,-0.004436454463868965,0.1093428073787949
6880,11.0,299.91368,-6221.7693,0.0,0.0,0.06880099128009443,0.0,0.0,0.0,0.4817199502270575,0.4828495923660446,0.9266929771599761,0.0037485548166535567,-0.0005451365078132846,0.1009392271834261
6881,11.0,299.94864,-6214.7184,0.0,0.0,0.06881096279119125,0.0,0.0,0.0,0.4720951077921595,0.4736411247947396,0.94338296936215,0.011314633547167389,0.017663358751737784,0.09161364309931261
6882,11.0,299.81504,-6155.3731,0.0,0.0,0.06882096721156539,0.0,0.0,0.0,0.45314831377475656,0.4793968109277815,0.9385346081636541,0.005856146840706694,-0.0009684956334180772,0.07648466501444873
6883,11.0,300.52216,-6114.9351,0.0,0.0,0.06883097163193952,0.0,0.0,0.0,0.4479838590750646,0.46653782616119854,0.9442658952342882,0.0028014112810027677,-0.002220314881778018,0.07573109166332682
6884,11.0,300.92634,-6214.2293,0.0,0.0,0.06884097605231365,0.0,0.0,0.0,0.47462219407156353,0.4857359366009046,0.9286123869569072,0.002141437819793458,-0.015407211496073384,0.07890589604265563
6885,11.0,300.21173999999996,-6390.6433,0.0,0.0,0.06885098047268778,0.0,0.0,0.0,0.5172236663110015,0.49956892829111454,0.9258034144996831,0.009268976739451783,0.007055419526565693,0.0941988119141989
6886,11.0,300.56523,-6292.0629,0.0,0.0,0.06886098489306214,0.0,0.0,0.0,0.4987237459852015,0.48874888643575953,0.9251573865009252,0.006099536202177354,0.007855206708123542,0.09043614414485251
6887,11.0,300.06453999999997,-6080.723000000001,0.0,0.0,0.06887098931343605,0.0,0.0,0.0,0.44376823203401455,0.4822747451868115,0.9223449791258622,-0.008084828027235404,0.013914006101955487,0.0992212768376276
6888,11.0,299.75581,-6086.7442,0.0,0.0,0.06888099373381018,0.0,0.0,0.0,0.4493573499831176,0.4686719639193216,0.9321889368948851,-0.006719500368613055,0.003422785688927647,0.08528028889875923
6889,11.0,299.49655,-6250.0613,0.0,0.0,0.06889096524490679,0.0,0.0,0.0,0.4648749206270826,0.4712769488664136,0.9637107118083421,-0.004658640351097006,0.008622396215414252,0.0965452123960206
6890,11.0,299.62514,-6228.9914,0.0,0.0,0.06890096966528114,0.0,0.0,0.0,0.4769834113095975,0.4820910226786795,0.9343834238289642,0.007771314058143983,-0.0034910618243909762,0.08729400796199782
6891,11.0,299.23532,-6051.5839,0.0,0.0,0.06891097408565527,0.0,0.0,0.0,0.46522683251931357,0.4617187681555946,0.912584807007608,-0.0002957950518101987,-0.013463167562711187,0.0994844584186016
6892,11.0,299.74728999999996,-6084.6029,0.0,0.0,0.0689209785060294,0.0,0.0,0.0,0.4588391924314026,0.4856253302199885,0.9051028365466951,0.014804297289070385,-0.00941568603203086,0.1054390384535229
6893,11.0,299.79972000000004,-6240.7787,0.0,0.0,0.06893098292640354,0.0,0.0,0.0,0.47382864699074656,0.4857622912360055,0.9374499644616082,0.002544110603609168,0.019313887435882283,0.10482067218249488
6894,11.0,300.30666,-6256.3035,0.0,0.0,0.06894098734677767,0.0,0.0,0.0,0.4789681149429726,0.4874250346501055,0.935366904641026,0.0006543974243189973,0.0023355581991266476,0.0917813917196181
6895,11.0,299.94427,-6204.3847,0.0,0.0,0.0689509917671518,0.0,0.0,0.0,0.4459590003402266,0.5014904963107585,0.9385285286630541,-0.010474955215797591,0.007912047809583322,0.08675591237714192
6896,11.0,300.31077999999997,-6119.8279,0.0,0.0,0.06896099618752594,0.0,0.0,0.0,0.4682421736244045,0.4773849116617226,0.914647794343709,-0.004922438190781826,-0.001094934067411579,0.09361329419816282
6897,11.0,300.18799,-6139.3565,0.0,0.0,0.06897096769862254,0.0,0.0,0.0,0.4625346574011166,0.47165371578359755,0.9320227132159801,-0.003398026618759116,-0.0035575740940802267,0.09532949060803822
6898,11.0,300.22209,-6183.0283,0.0,0.0,0.06898097211899668,0.0,0.0,0.0,0.49080408187859154,0.4719850890963015,0.9166970318759532,-0.004162181847300366,-0.014759961517694785,0.10604895421871689
6899,11.0,300.88162,-6195.4077,0.0,0.0,0.06899097653937103,0.0,0.0,0.0,0.4648460024692285,0.46710367567954353,0.9512995734534582,0.0026484771877593478,-0.006827042681226654,0.08544707391821961
6900,11.0,300.33781,-6084.1835,0.0,0.0,0.06900098095974516,0.0,0.0,0.0,0.46518831888301254,0.4643358006463756,0.919915752541116,0.012449637805683589,0.0006814847810973114,0.0985506572589426
6901,11.0,299.7736,-6152.9553,0.0,0.0,0.0690109853801193,0.0,0.0,0.0,0.4499057006722356,0.4693875819349476,0.9510514994314752,-0.005439884143899765,0.022903249921374776,0.07869615631170593
6902,11.0,299.5428,-6252.0034,0.0,0.0,0.06902098980049343,0.0,0.0,0.0,0.5015740691790065,0.4769114705524975,0.9219673914760972,0.007199370347072534,0.0038668795288812957,0.08260584363081203
6903,11.0,299.53416,-6337.1747,0.0,0.0,0.06903099422086756,0.0,0.0,0.0,0.4868609684519365,0.5018385781176116,0.937643333110692,-0.00977285557770575,0.003484083570952277,0.08167429999237583
6904,11.0,299.67682,-6315.1223,0.0,0.0,0.06904096573196417,0.0,0.0,0.0,0.49297089695243956,0.49234227659039953,0.9343263373183301,-0.002969612013502887,0.0013570804107584087,0.09785150658394182
6905,11.0,299.86887,-6275.4172,0.0,0.0,0.0690509701523383,0.0,0.0,0.0,0.47295263148429056,0.49750247563967154,0.9371150346410532,-0.007198387899775573,0.0052518252293147945,0.08678816514107501
6906,11.0,300.0787,-6095.5031,0.0,0.0,0.06906097457271243,0.0,0.0,0.0,0.4686867573707815,0.4647346665482405,0.9194593137685692,-0.018068714520493283,0.006663578284993974,0.08291221905029893
6907,11.0,300.63106,-6071.4074,0.0,0.0,0.06907097899308656,0.0,0.0,0.0,0.44308650723423354,0.47085313674708656,0.9316165924433991,-0.016803943321670085,0.00048074514283585147,0.07890089767991232
6908,11.0,300.52512,-6180.9821,0.0,0.0,0.06908098341346092,0.0,0.0,0.0,0.4735708356353026,0.4837024348427135,0.9215909589314462,-0.0028411708096267273,-0.001220206635575019,0.09583862041228541
6909,11.0,300.33308,-6163.0514,0.0,0.0,0.06909098783383505,0.0,0.0,0.0,0.46208981020971357,0.4738088886137966,0.9375150252505291,0.005877050291594704,0.011863552669591488,0.1019396880406639
6910,11.0,300.16815,-6089.1376,0.0,0.0,0.06910099225420918,0.0,0.0,0.0,0.4539803947568766,0.4867858562220235,0.9101795235227251,0.006628097610217304,-0.007352146879925403,0.1126969691848249
6911,11.0,299.45274,-6216.5672,0.0,0.0,0.06911099667458331,0.0,0.0,0.0,0.4598753723811656,0.48952058784442054,0.9402852408914282,0.003504975673439167,-0.009351719350567842,0.09283055849591282
6912,11.0,299.83775,-6393.8603,0.0,0.0,0.06912096818567992,0.0,0.0,0.0,0.48671943767796855,0.49978446685238653,0.9570699821104531,0.001203926138268259,-0.002165375245455898,0.09252927263167822
6913,11.0,300.01904,-6389.2595,0.0,0.0,0.06913097260605405,0.0,0.0,0.0,0.49100761342617855,0.5067468122645165,0.9444209224995881,-0.003548404991275307,0.007715619854472392,0.08469394538389162
6914,11.0,299.832,-6260.8106,0.0,0.0,0.06914097702642819,0.0,0.0,0.0,0.4972506424598175,0.47537220179558354,0.9305072457039152,-0.012822870506518789,0.009903618948161089,0.06699548460893953
6915,11.0,299.95031,-6224.1308,0.0,0.0,0.06915098144680232,0.0,0.0,0.0,0.4719579441261225,0.4821478153467845,0.9378745770485142,-0.02187906381304548,0.0015774264384548684,0.0914726037516431
6916,11.0,300.33631,-6255.8444,0.0,0.0,0.06916098586717645,0.0,0.0,0.0,0.47309535789337653,0.4869088546516625,0.9416162867527921,-0.004500927365081946,0.007983212518431732,0.08499926702327451
6917,11.0,301.0287,-6186.84,0.0,0.0,0.0691709902875508,0.0,0.0,0.0,0.4541346620846016,0.48075230651405854,0.9457578958740371,0.006388148131511134,-0.006191658368144104,0.099833587926058
6918,11.0,300.81368,-6210.9603,0.0,0.0,0.06918099470792494,0.0,0.0,0.0,0.47105260516177255,0.4778078929159676,0.939116345443567,0.024279218225922276,-0.004132736900719376,0.07562219666182973
6919,11.0,300.00692999999995,-6145.7849,0.0,0.0,0.06919099912829907,0.0,0.0,0.0,0.4766832460999736,0.4680332211887826,0.923448682062289,0.01015379343760139,-0.001348855758371699,0.09318212588310981
6920,11.0,300.58387,-6140.9502,0.0,0.0,0.06920097063939545,0.0,0.0,0.0,0.4727909978283385,0.47536818932518754,0.9185363442524791,0.015071710202461985,0.0023792915933177976,0.07559058528520994
6921,11.0,300.09332,-6283.9039,0.0,0.0,0.06921097505976981,0.0,0.0,0.0,0.4699080378488126,0.5047588966283245,0.935482931909977,0.00019369803642650782,0.013049124187598288,0.10886950812458389
6922,11.0,299.94715,-6379.0265,0.0,0.0,0.06922097948014394,0.0,0.0,0.0,0.4848460902305835,0.48855388645401454,0.9656648152886971,-0.005792675131917525,0.01186202874144109,0.07309417312608323
6923,11.0,299.86318,-6232.9231,0.0,0.0,0.06923098390051807,0.0,0.0,0.0,0.45568093239970653,0.4953047868352765,0.9436672670752081,-0.009282278788089592,0.0013661778767812588,0.1035386068309649
6924,11.0,299.94622000000004,-6144.0539,0.0,0.0,0.06924098832089243,0.0,0.0,0.0,0.46061914861707054,0.4809414600427266,0.9260783396493161,-0.021314068464534777,0.0036840983300921964,0.08276034197955982
6925,11.0,299.92728,-6148.3592,0.0,0.0,0.06925099274126656,0.0,0.0,0.0,0.4768559647120196,0.4836002587026295,0.908491438723624,-0.00908567381818619,0.0031535759791337164,0.1002971153963046
6926,11.0,300.42104,-6163.3914,0.0,0.0,0.06926099716164069,0.0,0.0,0.0,0.47622229836448154,0.4913410132390825,0.9059537639806752,0.001072137764011759,-0.005180618875887276,0.0952063087801311
6927,11.0,300.06896,-6189.2009,0.0,0.0,0.0692709686727373,0.0,0.0,0.0,0.46709881207906356,0.47761082590401854,0.9366528811379421,0.006606722491407744,-0.007944824626468143,0.1071261201350249
6928,11.0,300.59917,-6146.2274,0.0,0.0,0.06928097309311121,0.0,0.0,0.0,0.4461953814560556,0.4936846809853845,0.9284196059928812,0.007140021654265273,0.004871501196329735,0.10053667609094741
6929,11.0,300.55917,-6126.8095,0.0,0.0,0.06929097751348556,0.0,0.0,0.0,0.4282917486816046,0.4915512525023315,0.9425541105153482,0.0033393485961930465,-0.0039010296036266464,0.1034881267109829
6930,11.0,300.59311,-6269.063,0.0,0.0,0.0693009819338597,0.0,0.0,0.0,0.4870692217449895,0.47688310968219855,0.941686261804698,0.003598860793254906,-0.004126863393864706,0.07695627923374343
6931,11.0,300.90223,-6358.0559,0.0,0.0,0.06931098635423405,0.0,0.0,0.0,0.5102922959544285,0.4908326251339086,0.931565291590836,0.0007907663983025673,-0.026436723557851472,0.08185517526772683
6932,11.0,300.4105,-6230.4774,0.0,0.0,0.06932099077460818,0.0,0.0,0.0,0.49880394473061657,0.46804744722018654,0.9270581524960161,0.003149235823655377,0.0015101535219155485,0.08519673426901302
6933,11.0,300.33295,-6146.344,0.0,0.0,0.06933099519498231,0.0,0.0,0.0,0.46548004371930357,0.4755792999835225,0.9272757580874921,-0.0003959736098520526,-0.0024205903501686677,0.098977604374079
6934,11.0,300.03684,-6277.0622,0.0,0.0,0.06934099961535622,0.0,0.0,0.0,0.4713490618760306,0.48763286237811654,0.9490882463027172,-0.004174936842209186,0.014973695480538684,0.08624801367176622
6935,11.0,299.69203,-6298.4587,0.0,0.0,0.06935097112645283,0.0,0.0,0.0,0.46894819616158356,0.4754700918877446,0.9701558741044302,0.0024606135264686477,0.002232517047432278,0.08885783891458592
6936,11.0,299.90271,-6132.857,0.0,0.0,0.06936097554682719,0.0,0.0,0.0,0.4843324838873945,0.4651521559869436,0.9147507506863701,0.007982809143566923,0.0033671238079342465,0.09110841025495
6937,11.0,300.27501,-6079.5085,0.0,0.0,0.06937097996720132,0.0,0.0,0.0,0.4646566057605366,0.4761597808333115,0.9072024022114061,0.0018905033927781583,-0.011031806060004489,0.08763529997993072
6938,11.0,300.31141,-6132.2972,0.0,0.0,0.06938098438757545,0.0,0.0,0.0,0.48676481101744656,0.4619488671208035,0.9153515573331651,-0.0015148753687065585,-0.014667594651828887,0.08779482303592441
6939,11.0,300.27199,-6333.2585,0.0,0.0,0.0693909888079498,0.0,0.0,0.0,0.4715447103378396,0.5054670267257115,0.9481406953392012,0.0001036789014398109,-0.018875725668639085,0.1096656896556609
6940,11.0,300.3391,-6399.2062,0.0,0.0,0.06940099322832394,0.0,0.0,0.0,0.47263739924567955,0.4979400578278575,0.9746214496801481,0.006218917632934385,0.002789641874466217,0.1006567938505521
6941,11.0,300.41715,-6149.0328,0.0,0.0,0.06941099764869785,0.0,0.0,0.0,0.4382079815802606,0.48265289012413154,0.9482915581465902,0.017469989089403684,0.005490692658239176,0.10559629486904289
6942,11.0,300.34722,-5901.2292,0.0,0.0,0.06942100206907198,0.0,0.0,0.0,0.4533517946598386,0.4557419807182315,0.884732547728804,-0.004219945107676156,0.003887100555826956,0.07956556137450953
6943,11.0,299.60264,-6099.0157,0.0,0.0,0.06943097358016881,0.0,0.0,0.0,0.4799825404130885,0.4714265755086805,0.9025393543236992,-0.004815079479086345,-0.013508878314472486,0.09112386535872531
6944,11.0,300.20606000000004,-6366.0316,0.0,0.0,0.06944097800054294,0.0,0.0,0.0,0.5123878795462465,0.49911516449883153,0.9236116126783691,-0.000989637745234641,-0.0034719532447301063,0.09003462048797521
6945,11.0,300.15251,-6295.8249,0.0,0.0,0.06945098242091707,0.0,0.0,0.0,0.4739562151783366,0.4910265105405435,0.9487908371333652,-0.003776161828878156,-0.009092864043545812,0.11162107996364289
6946,11.0,300.14307,-6166.5488,0.0,0.0,0.0694609868412912,0.0,0.0,0.0,0.44001035085814055,0.47291890038846157,0.96154760522986,-0.003697972054436426,-0.002430965828542648,0.09914177520828141
6947,11.0,300.21752999999995,-6174.7996,0.0,0.0,0.06947099126166534,0.0,0.0,0.0,0.45235073395854153,0.47578300378362653,0.948851166044319,-0.018002861369994086,-0.005652215160655205,0.1058970477637249
6948,11.0,299.42547,-6202.6938,0.0,0.0,0.06948099568203947,0.0,0.0,0.0,0.4809149128901065,0.46008734430208553,0.944461786876121,-0.006208976129578234,0.01029613785139969,0.06926594199576623
6949,11.0,299.21868,-6111.9093,0.0,0.0,0.0694910001024136,0.0,0.0,0.0,0.4828608191771525,0.4642216985526145,0.9107852849625091,0.004584258167881055,-0.005522196225048335,0.08013921899812512
6950,11.0,299.31782000000004,-6144.073,0.0,0.0,0.06950100452278773,0.0,0.0,0.0,0.48303054870140355,0.46677800696490257,0.9178362188308821,0.012119998163900688,0.008083850443538923,0.07162237466682803
6951,11.0,299.16782,-6154.0162,0.0,0.0,0.06951097603388434,0.0,0.0,0.0,0.4607411135316075,0.47856541895572957,0.9313607265281472,0.014017017160121886,-0.022874787726065778,0.0999073839440911
6952,11.0,299.68965,-6249.8841,0.0,0.0,0.0695209804542587,0.0,0.0,0.0,0.46247690214541654,0.4981256852461775,0.9392061092699262,0.0016067448300983683,-0.002244062525696728,0.0979352344794551
6953,11.0,300.1942,-6311.0391,0.0,0.0,0.06953098487463283,0.0,0.0,0.0,0.47229819350970254,0.49219871931623155,0.9539013869277372,0.005899646883399814,-0.00974811535398908,0.1022827947895259
6954,11.0,299.62633999999997,-6268.4011,0.0,0.0,0.06954098929500696,0.0,0.0,0.0,0.49495755615850756,0.47808867465117855,0.9323911917473462,-0.007140372036149852,0.007689477089967304,0.07376418374145813
6955,11.0,300.41213999999997,-6084.4917,0.0,0.0,0.0695509937153811,0.0,0.0,0.0,0.4750631807800856,0.47161320604459955,0.9028571602175641,-0.015978225550178086,0.0038415365226801366,0.1026101252343309
6956,11.0,300.10812000000004,-6130.7644,0.0,0.0,0.06956099813575523,0.0,0.0,0.0,0.4805213260212625,0.4675165750952936,0.9155613912963741,-0.01828780958961628,0.008260499959347873,0.09463530080552701
6957,11.0,300.25593,-6195.245,0.0,0.0,0.06957100255612936,0.0,0.0,0.0,0.45349278841125357,0.48148524097389356,0.9482217553472011,-0.0035215272151476766,0.0035618727063044665,0.11584664698817387
6958,11.0,300.15639,-6071.6669999999995,0.0,0.0,0.06958097406722619,0.0,0.0,0.0,0.43000787011097263,0.4713872006097946,0.9442400877542411,0.012464590337409289,0.012666680030103988,0.09408032346075501
6959,11.0,300.00514,-6079.988,0.0,0.0,0.0695909784876001,0.0,0.0,0.0,0.4349732920935216,0.4736287124810145,0.939562530125102,0.01161879805493609,-0.015577294644609285,0.09876543790913982
6960,11.0,300.43126,-6097.2633,0.0,0.0,0.06960098290797423,0.0,0.0,0.0,0.46552380599112253,0.4750540919266885,0.9128379168825882,-0.006293568834051884,0.0036410162530653265,0.07705127244386852
6961,11.0,300.51216,-6119.9608,0.0,0.0,0.06961098732834858,0.0,0.0,0.0,0.4787813324195386,0.47566133271161853,0.9058726127801662,0.0012646181980580987,-0.003039913635916117,0.08671413404901873
6962,11.0,299.90013999999996,-6303.1174,0.0,0.0,0.06962099174872272,0.0,0.0,0.0,0.49546583280617057,0.4877819216003275,0.9327425463520223,-0.006202427392856925,0.0099676118728017,0.08520936443150952
6963,11.0,300.3148,-6436.0093,0.0,0.0,0.06963099616909685,0.0,0.0,0.0,0.48396251587838157,0.5030688055940256,0.9693547884428692,0.007846615056550613,-0.008899996649286281,0.1059618045776159
6964,11.0,299.80043,-6316.706999999999,0.0,0.0,0.06964100058947098,0.0,0.0,0.0,0.46870424606750755,0.4941896848352245,0.9572272689234761,-0.003709431811742417,-0.01070552635555319,0.10502267372243089
6965,11.0,299.68521,-6114.3816,0.0,0.0,0.06965100500984511,0.0,0.0,0.0,0.45431148435955254,0.46537271013621057,0.9389351459281841,0.006742552618988133,-0.0024156758845336477,0.08641867842585951
6966,11.0,299.2035,-6145.7592,0.0,0.0,0.06966097652094172,0.0,0.0,0.0,0.4916870178832305,0.4618951648655036,0.9145751645765412,-0.01055379215307819,0.013848274541468288,0.07247779586500153
6967,11.0,299.88344,-6203.2724,0.0,0.0,0.06967098094131585,0.0,0.0,0.0,0.4861727993815195,0.4631853260853326,0.9362817985538191,0.004067286922434966,0.0053455026328600354,0.06410366882353953
6968,11.0,300.39918,-6198.4259999999995,0.0,0.0,0.06968098536168998,0.0,0.0,0.0,0.48298943101234554,0.48016811716890356,0.921009170989028,-0.015264993738537586,0.011802281436044488,0.09302068271817661
6969,11.0,300.60225,-6206.9914,0.0,0.0,0.06969098978206412,0.0,0.0,0.0,0.43733937293203556,0.4936292967349185,0.9558017374902871,0.002599403965541198,-0.01119250043311379,0.09374991780189651
6970,11.0,300.24213,-6168.0918,0.0,0.0,0.06970099420243847,0.0,0.0,0.0,0.45009348631326856,0.4826855775723576,0.9421668260621261,-0.005382152598252105,-0.0044067586365632155,0.10648261512901588
6971,11.0,300.37768,-6229.9064,0.0,0.0,0.0697109986228126,0.0,0.0,0.0,0.45593739613251755,0.49693385994855355,0.9408647388886201,0.003954954976598667,-0.016858990159852785,0.0973268517616624
6972,11.0,300.15171000000004,-6290.4521,0.0,0.0,0.06972100304318674,0.0,0.0,0.0,0.5075302268443335,0.49209321971581954,0.9125169091184071,0.008535813589069212,0.0023747494970945277,0.09519056490007731
6973,11.0,300.46145,-6200.7911,0.0,0.0,0.06973100746356087,0.0,0.0,0.0,0.4846487496411076,0.4785237541116175,0.9217131568935062,-0.004748508947516345,0.015346085157290686,0.07865198468684652
6974,11.0,299.94203999999996,-6021.1452,0.0,0.0,0.06974097897465747,0.0,0.0,0.0,0.45515244141254857,0.4670535096670926,0.9080718518572141,-0.0016403322470631883,0.026888826633220578,0.09619090619380331
6975,11.0,299.49301,-6085.7069,0.0,0.0,0.06975098339503161,0.0,0.0,0.0,0.4293455186531036,0.48392657589733457,0.9366308328157661,-0.016697829691697485,0.01214494336811259,0.10583144995225091
6976,11.0,300.09743,-6179.0508,0.0,0.0,0.06976098781540574,0.0,0.0,0.0,0.4446723145682406,0.49004483331365956,0.9435600044196221,-0.005919319134091314,-0.005939151072998574,0.11169956631638889
6977,11.0,300.13232,-6154.0677,0.0,0.0,0.06977099223577987,0.0,0.0,0.0,0.4536136691481836,0.4831313569538525,0.9339378977599941,0.003932386451821326,-0.025944253611748475,0.10415751012454591
6978,11.0,299.71515,-6128.1816,0.0,0.0,0.069780996656154,0.0,0.0,0.0,0.47821790456893254,0.4702928601042915,0.9143034108997211,-0.009557856065486951,-0.015541036503030884,0.09024101446709472
6979,11.0,299.41065,-6212.4119,0.0,0.0,0.06979100107652836,0.0,0.0,0.0,0.48716742594468154,0.47344097750248654,0.9278096800951862,-0.006416118799196624,-0.01088511885627759,0.07043621647701333
6980,11.0,299.7457,-6290.6546,0.0,0.0,0.06980100549690249,0.0,0.0,0.0,0.4928505836355655,0.48695543375875955,0.9323958932278101,-0.0019371251577043683,0.013950850915341786,0.0886704859313456
6981,11.0,299.66907000000003,-6386.9744,0.0,0.0,0.0698109770079991,0.0,0.0,0.0,0.4696487674132246,0.49375306523463347,0.978078912333873,1.5417225446811686e-05,0.025931813940270776,0.08431821400830983
6982,11.0,299.65404,-6396.2216,0.0,0.0,0.06982098142837301,0.0,0.0,0.0,0.47771062090636757,0.5019462156757346,0.964634826297045,0.004071797911880166,0.013528368180145987,0.09672638252715071
6983,11.0,299.63315,-6228.7296,0.0,0.0,0.06983098584874736,0.0,0.0,0.0,0.47049771900950954,0.4798990891348526,0.9429814588775242,0.003939687628066896,0.018003160278773585,0.08024991555830002
6984,11.0,299.86241,-6128.4993,0.0,0.0,0.0698409902691215,0.0,0.0,0.0,0.4894624272886805,0.46938023587172256,0.9040681156770762,0.006485940343712473,0.0007035201235395303,0.08612076668445791
6985,11.0,299.80282,-6156.9048,0.0,0.0,0.06985099468949563,0.0,0.0,0.0,0.4866648640275826,0.46423414126384255,0.9206463159957171,0.004306598864178215,-0.012088603622802289,0.07707584274554342
6986,11.0,300.24969,-6116.3037,0.0,0.0,0.06986099910986998,0.0,0.0,0.0,0.4661155035195186,0.45941118224535354,0.9336769149317372,-0.002088625806031318,-0.01128185287993219,0.0894048338750701
6987,11.0,300.23292000000004,-6112.7418,0.0,0.0,0.06987100353024411,0.0,0.0,0.0,0.4293044617590516,0.4799460330119855,0.948870367133714,-0.012079906897193987,0.0020454087640911283,0.10836192048698891
6988,11.0,300.25434,-6231.5139,0.0,0.0,0.06988100795061825,0.0,0.0,0.0,0.4455533253976896,0.4974522690972165,0.9512190200705081,-0.012294057305828988,0.005140634507066125,0.1207152225261649
6989,11.0,299.77082,-6309.9512,0.0,0.0,0.06989097946171485,0.0,0.0,0.0,0.4806018591392105,0.49069793379811555,0.9467678225137091,-0.012029784454497289,-0.0012223936345908588,0.10371475022834889
6990,11.0,299.88723999999996,-6212.1197,0.0,0.0,0.06990098388208876,0.0,0.0,0.0,0.49025962206985757,0.4924642212399345,0.9056054389937981,0.0015298646814108888,-0.016557219962070383,0.1017438166638329
6991,11.0,300.09757,-6085.7308,0.0,0.0,0.06991098830246312,0.0,0.0,0.0,0.4731288255441795,0.47488787838028457,0.9018934884449572,0.0034183460322894867,0.0036597696885661466,0.09372613884854972
6992,11.0,299.30865,-6091.8693,0.0,0.0,0.06992099272283725,0.0,0.0,0.0,0.45813346373675257,0.4729571100497325,0.9206855591720902,0.005655356134640194,-0.0027404305462594373,0.09034728920383323
6993,11.0,299.32562,-6131.2525,0.0,0.0,0.0699309971432116,0.0,0.0,0.0,0.4302290220777986,0.4883417220155755,0.9451769083991982,0.0013366652450935886,0.016596326349679884,0.10299180641449991
6994,11.0,299.57117,-6226.1971,0.0,0.0,0.06994100156358574,0.0,0.0,0.0,0.44899735235508853,0.48311019015926354,0.9605008976115581,0.0008646538216271881,0.007879912886636854,0.1062202846781259
6995,11.0,300.06211,-6329.4691,0.0,0.0,0.06995100598395965,0.0,0.0,0.0,0.4870854337465896,0.48397244572936154,0.9529426902131212,0.008957871873798122,0.01386023899864909,0.09307967312574851
6996,11.0,300.25217000000004,-6237.6772,0.0,0.0,0.06996101040433378,0.0,0.0,0.0,0.4982769229561035,0.47616008480834154,0.921661106235869,-0.0035560144995263067,-0.01119595764245499,0.08764634947227122
6997,11.0,300.55357999999995,-6234.9337,0.0,0.0,0.06997098191543039,0.0,0.0,0.0,0.5012543381099516,0.4626070541207616,0.9314027662747961,-0.011145962869270888,-0.0069211624697655535,0.07218288233064583
6998,11.0,299.88298,-6379.3567,0.0,0.0,0.06998098633580474,0.0,0.0,0.0,0.4965967921702875,0.4944931532401745,0.9480751988527372,-0.0009250114379565211,-0.016510632748972583,0.08362790394043153
6999,11.0,300.157,-6336.4033,0.0,0.0,0.06999099075617887,0.0,0.0,0.0,0.4654259361639635,0.4878175069438395,0.9728649299692932,0.0023501960153712877,0.009847632725810681,0.08419679928857712
7000,11.0,299.66562000000005,-6189.0477,0.0,0.0,0.070000995176553,0.0,0.0,0.0,0.45412391150104053,0.48643572764996856,0.9407563312604211,0.012450540611522688,0.007226101505910693,0.0986375535875186
7001,11.0,299.73939,-6210.8236,0.0,0.0,0.07001099959692736,0.0,0.0,0.0,0.4749697084583606,0.4755662189247316,0.9373993627516142,-0.006369116254882834,0.000997272858315668,0.09053675785328232
7002,11.0,300.07478,-6370.0122,0.0,0.0,0.07002100401730149,0.0,0.0,0.0,0.5092194262185445,0.49174350657630556,0.935361716800514,0.011218759822705388,-0.0076997820461343226,0.08428041876632972
7003,11.0,300.44956,-6254.6434,0.0,0.0,0.0700310084376754,0.0,0.0,0.0,0.48473303178442556,0.48890096514326853,0.9276214080941051,0.014576388970577588,0.002738230071017268,0.09010876303754252
7004,11.0,300.18948,-6123.4797,0.0,0.0,0.07004097994877201,0.0,0.0,0.0,0.4571460717793046,0.47829375647141853,0.9259450871286651,0.016911959835330483,-0.013091991759578987,0.09463208272320942
7005,11.0,299.89797000000004,-6166.7733,0.0,0.0,0.07005098436914636,0.0,0.0,0.0,0.4411665502822486,0.47321890347806955,0.9601596248453771,-0.013980387155756788,0.0025837145983427776,0.1026784486885739
7006,11.0,300.44561,-6130.2298,0.0,0.0,0.0700609887895205,0.0,0.0,0.0,0.43748014376842853,0.49052078728313253,0.935435866442832,-0.00911962813301222,0.002358642974829938,0.1163437474872339
7007,11.0,300.63615,-6136.6506,0.0,0.0,0.07007099320989463,0.0,0.0,0.0,0.4552930197314226,0.48928254499842755,0.9208129956371671,-0.008418839640549782,0.015254117511964184,0.1077852899875799
7008,11.0,300.3445,-6250.4736,0.0,0.0,0.07008099763026876,0.0,0.0,0.0,0.49414668250098054,0.4867105616070926,0.919130666098634,-0.0037192991451912467,-0.004858376162484396,0.099557041576265
7009,11.0,299.9764,-6280.5075,0.0,0.0,0.07009100205064289,0.0,0.0,0.0,0.49476780481228055,0.4918984122515935,0.9224512386638491,-0.013648691629520987,-0.006205279489238404,0.08660211418421322
7010,11.0,299.82807,-6227.8447,0.0,0.0,0.07010100647101702,0.0,0.0,0.0,0.4742384661261926,0.47698438402969356,0.941886439494454,-0.01091043997627659,-0.012981607280434886,0.08896766711942511
7011,11.0,299.78906,-6320.8934,0.0,0.0,0.07011101089139116,0.0,0.0,0.0,0.45088877618425754,0.49733960581859754,0.9731653890214461,0.0007909985440329783,-0.0054798043739895845,0.09148513157587951
7012,11.0,299.66944,-6374.585,0.0,0.0,0.07012098240248799,0.0,0.0,0.0,0.47162522319078554,0.4946873831518435,0.971402060269919,0.014418746506769487,-0.007857709537195553,0.0912650293361571
7013,11.0,299.2612,-6264.9467,0.0,0.0,0.0701309868228619,0.0,0.0,0.0,0.4748147825180705,0.4859143699435145,0.9436582086193142,0.012920863950189987,0.004869722537104195,0.08470583182081472
7014,11.0,299.76828,-6217.3769,0.0,0.0,0.07014099124323625,0.0,0.0,0.0,0.48965161121485157,0.4786286862919735,0.9216470321919801,0.013363990642923186,0.006121820814276675,0.08076579259496312
7015,11.0,299.70502999999997,-6229.6931,0.0,0.0,0.07015099566361038,0.0,0.0,0.0,0.4854930402869325,0.47769083213191454,0.930487254279442,0.007319885807341483,0.018469923056589482,0.07037694539916373
7016,11.0,300.08699,-6230.8985,0.0,0.0,0.07016100008398451,0.0,0.0,0.0,0.47289771332887054,0.4825394567754366,0.9386003984926472,0.0061281213047234846,0.000992865595283205,0.07939615710354063
7017,11.0,299.88712000000004,-6279.9938,0.0,0.0,0.07017100450435865,0.0,0.0,0.0,0.46521543345568855,0.48276122682482353,0.9609846536068012,-0.013587079943940384,-0.005662589625779084,0.0983941334232449
7018,11.0,299.92203,-6313.4845,0.0,0.0,0.07018100892473278,0.0,0.0,0.0,0.4901613672076605,0.48395704432784153,0.94502321862403,-0.01063048910614759,-0.01952494540521208,0.0995674436017916
7019,11.0,299.67195,-6204.6305,0.0,0.0,0.07019101334510691,0.0,0.0,0.0,0.46776657429246654,0.5004222165978275,0.9178639616186202,-0.016417789655559685,0.00975191412993899,0.11333085844738489
7020,11.0,300.20523,-6158.2024,0.0,0.0,0.07020098485620352,0.0,0.0,0.0,0.46943469806459753,0.48223646459803354,0.9202685763584372,-0.01020727379112949,0.001985608871014338,0.09406108994735682
7021,11.0,300.33189,-6249.5479,0.0,0.0,0.07021098927657765,0.0,0.0,0.0,0.48319797814792753,0.4851149561446186,0.9313935659638881,-0.004485887997822675,0.008224459869190992,0.08675424152772701
7022,11.0,301.08715,-6105.2803,0.0,0.0,0.07022099369695178,0.0,0.0,0.0,0.4365257128367335,0.4800010524924156,0.9393259970217581,0.004689663637358766,-0.005182382640336345,0.09370861164831991
7023,11.0,300.90455,-5986.1761,0.0,0.0,0.07023099811732614,0.0,0.0,0.0,0.4255499749710126,0.4791197579529385,0.9149783367913311,0.0041852539573774055,-0.0002054159799904788,0.0997948979842396
7024,11.0,300.55388999999997,-6215.4222,0.0,0.0,0.07024100253770027,0.0,0.0,0.0,0.45964039968297554,0.49178049020495557,0.9379122699522341,0.004127065942559696,-0.014361322583852186,0.10316311660890691
7025,11.0,300.20781,-6334.5901,0.0,0.0,0.0702510069580744,0.0,0.0,0.0,0.48860109377617356,0.5036614454450146,0.9332946865965142,-0.003890646525876916,-0.009638167585638081,0.09443150277316371
7026,11.0,300.19112,-6197.4816,0.0,0.0,0.07026101137844831,0.0,0.0,0.0,0.4775918375971446,0.4829575946942035,0.9233302229930982,0.0016249828252733183,0.00045718478806562547,0.09610940035575931
7027,11.0,299.9638,-6193.1409,0.0,0.0,0.07027098288954536,0.0,0.0,0.0,0.47867392790893853,0.47767175263253153,0.9262145103302553,-0.015130666159530485,0.004000097193728856,0.07773582826442893
7028,11.0,299.85166,-6244.9106,0.0,0.0,0.07028098730991927,0.0,0.0,0.0,0.4679045080285796,0.4766526864769576,0.953739692476779,-0.01027015305258519,0.007969158942194753,0.08742322876050092
7029,11.0,299.79539,-6349.6184,0.0,0.0,0.0702909917302934,0.0,0.0,0.0,0.4836232088173945,0.49013414117747356,0.956368103766183,-0.016842539031229183,0.004271728875236816,0.08725871747426492
7030,11.0,300.06126,-6422.7806,0.0,0.0,0.07030099615066754,0.0,0.0,0.0,0.49469792095288356,0.5021852109768216,0.9554817835062102,0.0013602745803736485,-0.005068370624509235,0.09722577297143672
7031,11.0,300.68568,-6314.7816,0.0,0.0,0.07031100057104167,0.0,0.0,0.0,0.4937839592301825,0.4879163900210986,0.9378355669196642,-0.004054958100518207,-0.0036628874591238462,0.08860608172848941
7032,11.0,299.68032,-6202.2397,0.0,0.0,0.07032100499141603,0.0,0.0,0.0,0.47500074430892353,0.48506223674191556,0.9252630076913492,0.011495239297991788,-0.002243642432205268,0.07274349638572412
7033,11.0,300.24997,-6249.0812,0.0,0.0,0.07033100941179016,0.0,0.0,0.0,0.47533507631191957,0.4835289461605915,0.9407006126374221,0.004998997848462675,-0.0006800870633793674,0.07127672162046472
7034,11.0,300.33159,-6340.3752,0.0,0.0,0.07034101383216429,0.0,0.0,0.0,0.47078145943501254,0.4905816025541345,0.9659526796421072,0.0034670845779996066,0.01163942782697209,0.08217257282180152
7035,11.0,299.58662000000004,-6193.0007,0.0,0.0,0.0703509853432609,0.0,0.0,0.0,0.45679654102480854,0.4838466912594505,0.9418743412882601,0.01015217933019209,0.006828421815937764,0.09665191979055182
7036,11.0,299.36376,-6150.3475,0.0,0.0,0.07036098976363503,0.0,0.0,0.0,0.4504973982006315,0.4860189170888326,0.9330357404009582,-0.0028054219275485876,-0.009577153109666421,0.1078938496032939
7037,11.0,300.29089,-6338.3894,0.0,0.0,0.07037099418400916,0.0,0.0,0.0,0.4972433065290935,0.5017685625357016,0.927700238951885,-0.0018899594801244782,-0.013237608971200287,0.1069480920924549
7038,11.0,299.39808999999997,-6399.4173,0.0,0.0,0.0703809986043833,0.0,0.0,0.0,0.5031087377804665,0.49923745365340055,0.9429168743161502,-0.004493351902034305,-0.004525648438371725,0.09397092690045841
7039,11.0,299.88268,-6150.7582,0.0,0.0,0.07039100302475743,0.0,0.0,0.0,0.4601034955086795,0.4791998148433395,0.9303736182807271,-0.009876896503273792,0.0005356120987282985,0.09525491033442772
7040,11.0,299.70052000000004,-6079.4586,0.0,0.0,0.07040100744513156,0.0,0.0,0.0,0.42967318347044164,0.4751485369685095,0.9431818898798052,-0.0061972335741693335,0.003123392069254797,0.08898941349307132
7041,11.0,300.24912,-6188.415,0.0,0.0,0.07041101186550591,0.0,0.0,0.0,0.4600916810125136,0.4780253667849305,0.9430065874800041,-0.015225955238684787,-0.008811227226575421,0.09357267604140411
7042,11.0,300.78954,-6271.4272,0.0,0.0,0.07042101628588004,0.0,0.0,0.0,0.48902780379078653,0.4808559923967915,0.9364734649427352,-0.005579923211070544,0.006986579010796664,0.1074498839394779
7043,11.0,300.5601,-6380.4286,0.0,0.0,0.07043098779697665,0.0,0.0,0.0,0.5114907580402075,0.49650139467337256,0.9314988223842762,-0.0012545374741382087,-0.008048511421126232,0.1037298679198409
7044,11.0,299.75043,-6267.1109,0.0,0.0,0.07044099221735056,0.0,0.0,0.0,0.48306581993738457,0.4763259335847095,0.945653450053729,0.016062084154954286,0.0028225838511173377,0.09038569543562361
7045,11.0,299.77364,-6105.8333,0.0,0.0,0.07045099663772492,0.0,0.0,0.0,0.44540569485811954,0.4813636104318896,0.9292515552524881,0.01008484369347158,-0.0006806835231832332,0.07690629560631042
7046,11.0,299.63366,-6253.5034,0.0,0.0,0.07046100105809905,0.0,0.0,0.0,0.45488496365115055,0.4853023668831145,0.9607215429533341,0.0017672193279359683,0.01161488893605029,0.07494170296092023
7047,11.0,299.8798,-6369.2495,0.0,0.0,0.07047100547847318,0.0,0.0,0.0,0.4864851235923436,0.4800293728327105,0.9695783012824281,0.0004016339390181836,0.0044185337173003264,0.07009523451361103
7048,11.0,299.89578,-6274.7293,0.0,0.0,0.07048100989884754,0.0,0.0,0.0,0.4743537942525745,0.4885351109296615,0.94447211189464,-0.00046306661370361656,0.008468411584467152,0.08491118316558133
7049,11.0,299.6347,-6214.3122,0.0,0.0,0.07049101431922167,0.0,0.0,0.0,0.4962456807456356,0.46787928823359054,0.9248707684451382,0.008766174276779042,-0.014038026900945385,0.1008781292156462
7050,11.0,299.9818,-6300.0467,0.0,0.0,0.07050098583031827,0.0,0.0,0.0,0.4926861838068406,0.4761295251853255,0.946241175641733,3.961536441298206e-05,-0.004797267251603415,0.097798272450188
7051,11.0,299.80903,-6304.88,0.0,0.0,0.07051099025069218,0.0,0.0,0.0,0.48924300797952547,0.47752992801603455,0.9497531612833392,0.006557694054844014,-0.0034729283966263465,0.09139612566059531
7052,11.0,299.96141,-6175.1952,0.0,0.0,0.07052099467106632,0.0,0.0,0.0,0.4390443992728086,0.48013297765543556,0.9579277793801112,-0.0025859016986836277,0.007999707926084702,0.09042419083342282
7053,11.0,300.48591,-6150.7262,0.0,0.0,0.07053099909144067,0.0,0.0,0.0,0.4464062995968716,0.4873963394072735,0.9358645522951401,0.009907178394437381,0.003264223801978807,0.10188131470240291
7054,11.0,300.36981000000003,-6224.1374,0.0,0.0,0.0705410035118148,0.0,0.0,0.0,0.47043062158788757,0.49308344877354754,0.9284682926601862,-0.005241938137489015,0.017851370347543083,0.1042075444144839
7055,11.0,300.3217,-6156.9335,0.0,0.0,0.07055100793218916,0.0,0.0,0.0,0.47537935534128956,0.48921861904961855,0.906956081112096,0.0046062058743221255,0.0024764155670781874,0.10256636296251191
7056,11.0,300.25702,-6104.3362,0.0,0.0,0.07056101235256329,0.0,0.0,0.0,0.46599845286796654,0.47719912212338655,0.9123682146662321,-0.01049058966484059,0.0027894702298992776,0.1022702710182899
7057,11.0,300.65448,-6117.8989,0.0,0.0,0.0705710167729372,0.0,0.0,0.0,0.44481814152263255,0.47211307271643255,0.9427572874254001,-0.005888240220399064,-0.00948329291580314,0.08750298066262183
7058,11.0,300.6081,-6117.3993,0.0,0.0,0.07058098828403403,0.0,0.0,0.0,0.43375034988532657,0.4741210405721035,0.951665245282047,-0.0015546698544589685,-0.004681544768282495,0.08675566210436723
7059,11.0,299.77986,-6281.2066,0.0,0.0,0.07059099270440794,0.0,0.0,0.0,0.4675142952825686,0.4873645334866345,0.9544511460344941,-0.001287143659706189,-0.004309592207623636,0.08309852129318553
7060,11.0,299.78011000000004,-6382.955,0.0,0.0,0.0706009971247823,0.0,0.0,0.0,0.5054677765307855,0.47963137832593156,0.955159782756931,-0.0070962052748909325,0.006290717142970444,0.08956185015031641
7061,11.0,299.72038,-6278.2756,0.0,0.0,0.07061100154515643,0.0,0.0,0.0,0.5068395043836645,0.48577320393958257,0.9158263055350192,0.00012648789073088288,-0.013422855407482686,0.09914468627581871
7062,11.0,299.76091,-6222.9394,0.0,0.0,0.07062100596553056,0.0,0.0,0.0,0.4753498596308786,0.4814646112018576,0.934803730102945,-0.00995714114891832,-0.012581293444176987,0.10181805749865991
7063,11.0,300.21828999999997,-6195.6825,0.0,0.0,0.07063101038590491,0.0,0.0,0.0,0.45518810781606855,0.48915483495582357,0.9389898310360811,0.005733763251228374,-0.01039642630654739,0.09373331164600761
7064,11.0,300.40727000000004,-6160.0212,0.0,0.0,0.07064101480627905,0.0,0.0,0.0,0.4376533994030276,0.48279318473297755,0.9520460449346291,0.0017637555324691182,0.012915104636621589,0.08009588735759862
7065,11.0,299.85181,-6138.9507,0.0,0.0,0.07065101922665296,0.0,0.0,0.0,0.4600471486706185,0.4795301141109375,0.9265104604194632,-0.006885971483192473,0.011906837700613388,0.0981030185635141
7066,11.0,300.69417999999996,-6171.2902,0.0,0.0,0.07066099073774956,0.0,0.0,0.0,0.46187844623885355,0.49358182596773353,0.9204578413446161,-0.016622339519497185,0.018351046528357284,0.09052991537535701
7067,11.0,300.55572,-6193.8945,0.0,0.0,0.07067099515812392,0.0,0.0,0.0,0.4926186608201766,0.47737277292552455,0.9127978124436302,0.0050067046287232755,0.02053460657335788,0.09487861964479072
7068,11.0,300.89182,-6255.1069,0.0,0.0,0.07068099957849805,0.0,0.0,0.0,0.47447473578451055,0.48011790049394754,0.9468036713022471,0.0016376623330496885,0.015997449944325382,0.08498697325981122
7069,11.0,300.66348,-6273.5184,0.0,0.0,0.07069100399887218,0.0,0.0,0.0,0.45714747006444256,0.4880734741841016,0.9617719894645052,0.005194796777911525,-0.014572684528211987,0.0958936672504681
7070,11.0,300.10219,-6285.0188,0.0,0.0,0.07070100841924631,0.0,0.0,0.0,0.4552243213746425,0.48137617473312955,0.97388828217279,-0.004169720022744326,-0.014125775372855486,0.07747135681607763
7071,11.0,299.68658999999997,-6274.0346,0.0,0.0,0.07071101283962045,0.0,0.0,0.0,0.4622305405161026,0.49735934393054554,0.9475599611768871,0.006988637631024833,-0.012785740969854386,0.1008399155013748
7072,11.0,300.32448,-6157.3362,0.0,0.0,0.07072101725999458,0.0,0.0,0.0,0.4752978292382436,0.48382322438713454,0.9125554024897061,-0.01119212046432629,0.008138371100944692,0.09434821969444432
7073,11.0,300.50101,-6166.4489,0.0,0.0,0.07073102168036871,0.0,0.0,0.0,0.48053527847513955,0.48045111792183354,0.9134601132389941,-0.008363137736177431,0.004256982945206506,0.09946620066504971
7074,11.0,299.53725,-6140.566,0.0,0.0,0.07074099319146554,0.0,0.0,0.0,0.43651988664865854,0.4995810467623105,0.9304778107885101,-0.014897403827509287,0.0045986322351246655,0.1077616609952479
7075,11.0,299.73568,-6063.7407,0.0,0.0,0.07075099761183945,0.0,0.0,0.0,0.4328952478609346,0.4777527315805235,0.9325777817532611,-0.0011482462214230788,0.0025037960165804275,0.0975512815925619
7076,11.0,299.82006,-6187.6766,0.0,0.0,0.0707610020322138,0.0,0.0,0.0,0.4555621085604795,0.47628064130523956,0.9490564201170761,0.014712731904033586,-0.00883785047427793,0.08588560045549883
7077,11.0,300.35252,-6221.3957,0.0,0.0,0.07077100645258794,0.0,0.0,0.0,0.4894306416330435,0.4832006936581955,0.9185175991256291,0.005634987375829954,-0.0070980677298997435,0.0938110471804295
7078,11.0,300.37122999999997,-6175.6237,0.0,0.0,0.07078101087296207,0.0,0.0,0.0,0.4849626241245845,0.4590782890574996,0.9331945065591272,-0.009573932595548581,-0.002939001018706817,0.08550367913505612
7079,11.0,300.48952,-6289.9041,0.0,0.0,0.0707910152933362,0.0,0.0,0.0,0.5022921797898785,0.4855962702071205,0.9240853374976221,-0.007286448655366493,0.006603230932888155,0.08769307955363312
7080,11.0,300.43529,-6397.2141,0.0,0.0,0.07080101971371033,0.0,0.0,0.0,0.48066059724750754,0.48227621439945656,0.9816565261844561,-0.015231576750239586,0.016334245158314484,0.07951708850297562
7081,11.0,300.12792,-6322.3625,0.0,0.0,0.07081099122480716,0.0,0.0,0.0,0.47132137988329853,0.49041346383254053,0.9601054970250351,-0.011560413570923989,-0.003228813244109057,0.0889427816969691
7082,11.0,300.32025,-6327.3932,0.0,0.0,0.07082099564518107,0.0,0.0,0.0,0.47091604944579557,0.49518291311324847,0.9572705853652511,-0.010470473610605291,-0.004348223786236276,0.08569138574258132
7083,11.0,300.14207999999996,-6293.7166,0.0,0.0,0.0708310000655552,0.0,0.0,0.0,0.48781364646095854,0.4877047727377135,0.9376142832303251,-0.008683860473105303,0.00036786158364511166,0.09543525871972672
7084,11.0,300.4295,-6138.5869999999995,0.0,0.0,0.07084100448592934,0.0,0.0,0.0,0.4718224827202536,0.48977092141412654,0.9043837532157272,0.021828481354803378,-0.007761872796362202,0.0990772767731659
7085,11.0,299.78914,-6120.1232,0.0,0.0,0.07085100890630369,0.0,0.0,0.0,0.45750865319508854,0.4859287986249386,0.9169271916361682,0.014791466503054086,0.004569130343888055,0.1095218689364669
7086,11.0,300.06552,-6211.1424,0.0,0.0,0.07086101332667782,0.0,0.0,0.0,0.44861613726996563,0.48828814135028753,0.9511279086215161,0.00947455748404102,-0.0022841990846828976,0.1002627054229086
7087,11.0,299.69351,-6147.5025,0.0,0.0,0.07087101774705196,0.0,0.0,0.0,0.44012388553184556,0.4867038741564325,0.9418594769092932,0.008013046958351162,0.010347438703962689,0.1110863169583659
7088,11.0,299.79831,-6176.4064,0.0,0.0,0.07088102216742587,0.0,0.0,0.0,0.46143773310785857,0.47390153007043956,0.9421340474213911,-0.005842812368065684,-0.0012102195359643688,0.09637383532710701
7089,11.0,299.87162,-6415.446999999999,0.0,0.0,0.07089099367852292,0.0,0.0,0.0,0.5131905053479594,0.49357472308453254,0.9433704658559162,-0.0057756197009342855,-0.009138070804707372,0.09445738928671851
7090,11.0,300.1399,-6432.1633,0.0,0.0,0.07090099809889683,0.0,0.0,0.0,0.5134473034533035,0.49577399255908355,0.9459957563350121,-0.013506981510285287,-0.017282303760130586,0.09086910996558292
7091,11.0,300.33922,-6328.3755,0.0,0.0,0.07091100251927096,0.0,0.0,0.0,0.4805012636692825,0.4883505778214496,0.9548162909730311,-0.012499337723088588,0.0029357362255596074,0.08619958639648682
7092,11.0,300.99498,-6370.983,0.0,0.0,0.07092100693964509,0.0,0.0,0.0,0.4587392049115346,0.5033661235708685,0.974514430204586,-0.006458169590271713,0.004630954811989655,0.08972533400095101
7093,11.0,300.493,-6381.5386,0.0,0.0,0.07093101136001922,0.0,0.0,0.0,0.47512409737609756,0.4968272052430276,0.967877094894532,-0.005693814650135754,0.018195259325482282,0.08258784324278551
7094,11.0,299.79405,-6137.6995,0.0,0.0,0.07094101578039358,0.0,0.0,0.0,0.47625821808052654,0.46733399755977456,0.9221151841356832,0.006655673920963873,0.004495653195661426,0.09979971294871481
7095,11.0,299.98292000000004,-6021.0262,0.0,0.0,0.07095102020076771,0.0,0.0,0.0,0.48228136170996455,0.4662890124666426,0.8816712354666761,0.008727724171259311,0.004592146927859616,0.08680289577102883
7096,11.0,299.82903,-6073.1921,0.0,0.0,0.07096102462114184,0.0,0.0,0.0,0.4795634095092236,0.46330991531762855,0.9032254462314111,0.005403084622792934,0.0009115859045290241,0.1003686792243674
7097,11.0,299.11105,-6130.2632,0.0,0.0,0.07097099613223845,0.0,0.0,0.0,0.44952985581264254,0.46667812077004456,0.9472389635452071,-0.0012301774218590588,-0.016456274920857883,0.08775237292298492
7098,11.0,299.50397000000004,-6238.8498,0.0,0.0,0.07098100055261258,0.0,0.0,0.0,0.44400605196498555,0.48404563278408447,0.968402870371422,-0.006704226535280643,-0.020780822294657483,0.11132812909473089
7099,11.0,300.2611,-6396.4184,0.0,0.0,0.07099100497298672,0.0,0.0,0.0,0.47272098224642856,0.4908585136739635,0.9807719588471562,-0.002760353272375657,0.002039484392081438,0.08579389017569773
7100,11.0,300.39614,-6285.3105,0.0,0.0,0.07100100939336085,0.0,0.0,0.0,0.49217712695660054,0.4905043827640135,0.9278959380761992,0.006193593979810134,-0.005314917982566564,0.1071004342449899
7101,11.0,300.06998,-6229.6889,0.0,0.0,0.07101101381373498,0.0,0.0,0.0,0.5067578668231075,0.4801041000275856,0.9068078932849711,0.00013435749015005188,0.009706162645523672,0.09138032301203572
7102,11.0,300.17699,-6270.1986,0.0,0.0,0.07102101823410911,0.0,0.0,0.0,0.4909671746146875,0.4917587255928076,0.9232579073334611,0.01033571641355579,-0.01124637190118049,0.0984419851724675
7103,11.0,300.44847000000004,-6154.1041,0.0,0.0,0.07103102265448347,0.0,0.0,0.0,0.43551662719464457,0.4922099157298365,0.942967455761142,0.012267394642697589,0.016083039180272384,0.0890842111459271
7104,11.0,300.69546,-6047.0155,0.0,0.0,0.07104099416558007,0.0,0.0,0.0,0.3932696911651966,0.4865343776797046,0.9583376491780621,0.0035161963037215567,-0.002556124811369878,0.10054420757894071
7105,11.0,299.58975,-6228.7719,0.0,0.0,0.0710509985859542,0.0,0.0,0.0,0.45434407048276854,0.49117054404225857,0.9478765106406282,0.007280249692579703,0.006034461025104934,0.08715556760083482
7106,11.0,299.91855,-6190.6117,0.0,0.0,0.07106100300632812,0.0,0.0,0.0,0.4849821494540116,0.47529407008037255,0.9215151576914651,-0.011491852002907489,0.0014207010673122787,0.10613149357186291
7107,11.0,299.82347999999996,-6158.5197,0.0,0.0,0.07107100742670247,0.0,0.0,0.0,0.5055296962443965,0.46668370377809554,0.8998228105405972,0.0013239052852592787,0.01201374470541429,0.09701522973315772
7108,11.0,299.8559,-6350.9808,0.0,0.0,0.0710810118470766,0.0,0.0,0.0,0.4922456023983585,0.5039614789321255,0.9343324877464371,0.013227597046962188,-0.01003352794613211,0.10453788421208589
7109,11.0,299.79919,-6422.5789,0.0,0.0,0.07109101626745074,0.0,0.0,0.0,0.4752933709378035,0.4961428358604855,0.9808674171390771,-0.002006323553408718,-0.01005483183345964,0.0910782214814706
7110,11.0,299.3616,-6315.4251,0.0,0.0,0.07110102068782509,0.0,0.0,0.0,0.44709978823031354,0.4847821541492735,0.9878495817231631,0.01094554807899149,-0.02623848826853718,0.09129789308990051
7111,11.0,299.55861,-6275.8145,0.0,0.0,0.07111102510819922,0.0,0.0,0.0,0.48200220117491355,0.47291817084838955,0.9527705390211311,-0.013968854343118587,-0.007639326782892852,0.07165722236426723
7112,11.0,300.12757,-6174.7061,0.0,0.0,0.07112099661929583,0.0,0.0,0.0,0.4860789014947525,0.46738261329957254,0.9234949470618552,0.005825166617574184,0.007332424777328983,0.08260110466009433
7113,11.0,299.31718,-6137.1601,0.0,0.0,0.07113100103966974,0.0,0.0,0.0,0.5106621423734296,0.46064225071935055,0.8942390222870202,-0.010325563647553791,0.005686319537821045,0.08177650146371232
7114,11.0,300.10001,-6257.6551,0.0,0.0,0.07114100546004387,0.0,0.0,0.0,0.4688309327275106,0.5038082147219995,0.9295317594351422,0.004967494484303535,0.00841076049087743,0.10504343521697991
7115,11.0,300.97769,-6311.789000000001,0.0,0.0,0.07115100988041823,0.0,0.0,0.0,0.4542151445400446,0.4959105381425595,0.9685005578135631,-0.005267041408716516,0.014059199775034987,0.0974923975762505
7116,11.0,300.31632,-6239.235,0.0,0.0,0.07116101430079236,0.0,0.0,0.0,0.4116075624025036,0.5089513202420844,0.976012773789961,0.004455862965559436,0.0007593256833971102,0.1010668946695259
7117,11.0,299.53447,-6124.8972,0.0,0.0,0.07117101872116671,0.0,0.0,0.0,0.4613086957076235,0.4787971796511026,0.9217099347581882,0.002657953609319597,0.0002921195276024527,0.09145502082265781
7118,11.0,300.23827,-6125.5821,0.0,0.0,0.07118102314154084,0.0,0.0,0.0,0.4729385473079006,0.4695881041297375,0.9194973309123211,0.00933929538446669,-0.005151111107800086,0.0969633249835351
7119,11.0,299.83735,-6298.2329,0.0,0.0,0.07119102756191475,0.0,0.0,0.0,0.5264105009926715,0.4853807924408545,0.9027142311584582,-0.002164595650828958,0.013370182614284286,0.0918270639678756
7120,11.0,299.95335,-6393.2891,0.0,0.0,0.07120099907301158,0.0,0.0,0.0,0.48429630072632357,0.5024002023830395,0.9567037327293071,-0.008874899457559383,-0.0007122939777454424,0.1074962907940579
7121,11.0,299.57295,-6338.0494,0.0,0.0,0.0712110034933855,0.0,0.0,0.0,0.45781368200519257,0.4997694099559006,0.9690256442803851,-0.0049999659076082155,0.01012128118031768,0.1105233349378039
7122,11.0,299.38749,-6227.9518,0.0,0.0,0.07122100791375985,0.0,0.0,0.0,0.43087520206407154,0.49575443683215353,0.9665121862148262,-0.0040452515698602455,-0.01059263813541199,0.09923084293182172
7123,11.0,299.61396,-6138.3174,0.0,0.0,0.07123101233413398,0.0,0.0,0.0,0.4620264719459626,0.4701562739908115,0.9337124698777461,0.0070946160934340936,-0.0005709791071087505,0.07899743204343952
7124,11.0,300.17197999999996,-6300.6104,0.0,0.0,0.07124101675450811,0.0,0.0,0.0,0.4904342151945885,0.5011327480979515,0.9236612923307722,0.006899840141286203,-0.003009416023806237,0.08415857949480511
7125,11.0,300.04482,-6353.0146,0.0,0.0,0.07125102117488247,0.0,0.0,0.0,0.5087261558048625,0.4987146571318046,0.9237169906887691,0.005263780972544735,0.013841085532008789,0.08727969175133492
7126,11.0,300.31719,-6218.0711,0.0,0.0,0.07126102559525638,0.0,0.0,0.0,0.4548198015372195,0.49012560961163154,0.9451929481482811,0.007645411957693414,0.010345636132034791,0.0971399891914705
7127,11.0,299.92065,-6332.0863,0.0,0.0,0.07127099710635298,0.0,0.0,0.0,0.45754983167915253,0.49831911469026746,0.968927186768168,-0.00968199733991374,0.013610526551254385,0.09228144178971921
7128,11.0,300.50772,-6379.1054,0.0,0.0,0.07128100152672712,0.0,0.0,0.0,0.4705266675648666,0.48754081873903254,0.981021269034261,-0.01102378922521329,8.228692012208672e-05,0.08612334844571273
7129,11.0,299.93872000000005,-6396.495,0.0,0.0,0.07129100594710147,0.0,0.0,0.0,0.5078899103648314,0.49035602268437156,0.9461288366031462,-0.023690303082300874,-0.0018447739972150183,0.07635027258743522
7130,11.0,299.99698,-6367.911999999999,0.0,0.0,0.0713010103674756,0.0,0.0,0.0,0.5089450482239655,0.4871711445725485,0.9395700585733451,-0.005722770906193515,-0.015253052586109086,0.0891855412221776
7131,11.0,300.00888,-6234.794,0.0,0.0,0.07131101478784974,0.0,0.0,0.0,0.5129123783280105,0.46963846265970755,0.9126708420735992,-0.0031158090068314067,0.003925327138374626,0.07667257021899353
7132,11.0,299.30118999999996,-6297.2604,0.0,0.0,0.07132101920822387,0.0,0.0,0.0,0.4587813257181916,0.5015661658282264,0.9538624375938931,-0.0028139695027421673,-0.0030757521906281072,0.1054840267579629
7133,11.0,299.03127,-6444.6284,0.0,0.0,0.071331023628598,0.0,0.0,0.0,0.4710198366535386,0.5112978149561656,0.9766884494866451,-0.008661184138517321,0.007969771451880202,0.1016095204955789
7134,11.0,299.91877999999997,-6258.9016,0.0,0.0,0.07134102804897213,0.0,0.0,0.0,0.4541342061220566,0.5032652139934095,0.9451503815115802,-0.00977883132149551,0.0038370934209916367,0.1077965877261949
7135,11.0,299.76434,-6142.0953,0.0,0.0,0.07135099956006874,0.0,0.0,0.0,0.4719362605739825,0.47797047902701356,0.9171368634793612,0.01161067280238419,0.002136632481194208,0.07926081627443352
7136,11.0,299.08882,-6151.7591,0.0,0.0,0.0713610039804431,0.0,0.0,0.0,0.4729158099756566,0.48420526020483856,0.912860086794776,0.016723406150721685,-0.006631795162482223,0.09436693138404101
7137,11.0,299.74908999999997,-6235.3722,0.0,0.0,0.071371008400817,0.0,0.0,0.0,0.47006142364895054,0.5021370410670675,0.9231989969726472,0.0015912810123722085,0.004985601364915545,0.08503413903871611
7138,11.0,299.49917,-6311.4175,0.0,0.0,0.07138101282119136,0.0,0.0,0.0,0.4467081873316655,0.4972138817461896,0.974591254827168,-0.004234784560690695,-0.0013105901656951786,0.09945155717460451
7139,11.0,300.4403,-6241.4978,0.0,0.0,0.07139101724156549,0.0,0.0,0.0,0.4517775079794686,0.4928875976617186,0.9525943652262441,-0.013244091745340088,0.0015886029923579085,0.1004601676023966
7140,11.0,300.36932,-6213.2805,0.0,0.0,0.07140102166193962,0.0,0.0,0.0,0.46899519070122153,0.4770852328121466,0.9426017028725451,-0.003909069033895077,-0.0008582959305622132,0.0981320937751336
7141,11.0,300.16639,-6296.8501,0.0,0.0,0.07141102608231376,0.0,0.0,0.0,0.5008025704203656,0.47675929051997856,0.936523337112657,-0.0037359005388046766,0.0041829818453531665,0.0894364097879364
7142,11.0,300.33979,-6369.8913,0.0,0.0,0.07142103050268789,0.0,0.0,0.0,0.5082086889787925,0.4996819056772645,0.9283973144906811,-0.0007806735964414851,0.001965793549408718,0.08625170291538033
7143,11.0,300.30514,-6428.1675,0.0,0.0,0.07143100201378472,0.0,0.0,0.0,0.5043898000143975,0.4885934336054175,0.9610191649052071,-0.011597052694539988,-0.0017467491427907184,0.08403547366065552
7144,11.0,299.62453,-6279.9067,0.0,0.0,0.07144100643415863,0.0,0.0,0.0,0.4438863465981716,0.4941073379995975,0.9709411429319301,0.008440201283133013,-0.005649607764172875,0.09197629240285332
7145,11.0,299.6749,-6070.7621,0.0,0.0,0.07145101085453276,0.0,0.0,0.0,0.43431570291112254,0.4713808171341646,0.9396635815575752,0.009413672805407171,0.005729006447308916,0.09487880709605921
7146,11.0,299.44653,-6160.5385,0.0,0.0,0.07146101527490689,0.0,0.0,0.0,0.4470429550322046,0.47882482111383057,0.946782109340119,0.010876671390193889,-0.0012112333940144287,0.08922957707152361
7147,11.0,300.12676,-6312.7532,0.0,0.0,0.07147101969528125,0.0,0.0,0.0,0.49985486746933455,0.4925469733756015,0.9265175025076582,-0.003648658286644536,-0.0044050507021946555,0.08048170766442612
7148,11.0,299.97843,-6369.5752,0.0,0.0,0.07148102411565538,0.0,0.0,0.0,0.5079284847961385,0.48551340661394254,0.9427499312296742,-0.002717967399492497,-0.016205865357394385,0.07495942875816963
7149,11.0,299.91712,-6296.1013,0.0,0.0,0.07149102853602951,0.0,0.0,0.0,0.48216741160371857,0.4949467853099445,0.9367433745043732,0.004293859777295966,-0.016801379798917083,0.09035319138566572
7150,11.0,300.8746,-6296.9614,0.0,0.0,0.07150103295640342,0.0,0.0,0.0,0.4453734532399376,0.5023871719867535,0.9663583849821471,0.005904266493255734,0.00022035841974518276,0.09533836667891422
7151,11.0,300.75112,-6397.6396,0.0,0.0,0.07151100446750047,0.0,0.0,0.0,0.4840264620921925,0.4919923101383606,0.9687039272411341,-7.397653867091594e-05,-0.007206081203809843,0.0993481843861524
7152,11.0,300.132,-6439.7973,0.0,0.0,0.07152100888787438,0.0,0.0,0.0,0.4885863307222165,0.5168291472520655,0.952122089354634,-0.01868978008978768,0.003948865748797706,0.1071284404777539
7153,11.0,300.11911000000003,-6228.1379,0.0,0.0,0.07153101330824851,0.0,0.0,0.0,0.5041255443883175,0.4823068956124845,0.9067659751283342,-0.002220748046195768,0.016777352599295782,0.1111274346474239
7154,11.0,299.83081,-6069.5768,0.0,0.0,0.07154101772862265,0.0,0.0,0.0,0.4686890979785126,0.47736902390015457,0.8989416679886352,0.013343440917645088,0.011855342304031189,0.09116311360134882
7155,11.0,299.82779,-6093.3349,0.0,0.0,0.07155102214899678,0.0,0.0,0.0,0.4442666294932026,0.4916886593483925,0.9162663701859501,-0.002808635855540778,0.00018466607702262281,0.1082344232269059
7156,11.0,300.37242000000003,-6200.5095,0.0,0.0,0.07156102656937113,0.0,0.0,0.0,0.4295216012554816,0.4853890504291696,0.9698893994606311,0.0025387331840034575,-0.003212675209766357,0.08507660333715703
7157,11.0,299.92232,-6328.8687,0.0,0.0,0.07157103098974504,0.0,0.0,0.0,0.4593789912896766,0.5011365680508285,0.9633024936080541,0.00984535321706071,-0.01178982149956479,0.088935161042967
7158,11.0,300.10722000000004,-6297.6916,0.0,0.0,0.07158100250084187,0.0,0.0,0.0,0.46622061808489257,0.49425582980175253,0.9538645552866021,0.013731478215691387,0.003883727243594036,0.09397266563763
7159,11.0,300.44844,-6285.7738,0.0,0.0,0.071591006921216,0.0,0.0,0.0,0.5016190473509455,0.48206370545598354,0.9270355164887821,0.01061600266946789,-0.008700736964120883,0.07477979268769093
7160,11.0,299.78947999999997,-6444.9065,0.0,0.0,0.07160101134159014,0.0,0.0,0.0,0.5238847116733956,0.49452993421880453,0.9406759805274911,-0.01127350268585809,-0.009135092558688442,0.07825143577656543
7161,11.0,300.23681,-6518.1762,0.0,0.0,0.07161101576196427,0.0,0.0,0.0,0.5097716779205475,0.4937242484017895,0.977866879617947,-0.005151588247272175,-0.0007396823002009593,0.08274149755420002
7162,11.0,300.26039,-6330.4067,0.0,0.0,0.0716210201823384,0.0,0.0,0.0,0.46809243552462654,0.49313479015611456,0.9630583307314571,-0.003156498496397147,0.0036013144796970663,0.0925896866556406
7163,11.0,299.58135,-6154.425,0.0,0.0,0.07163102460271253,0.0,0.0,0.0,0.44900269218311556,0.48669788584834156,0.9350909561087921,0.004212726511313736,0.006867353924530062,0.1026184541501529
7164,11.0,299.84862000000004,-6160.7553,0.0,0.0,0.07164102902308667,0.0,0.0,0.0,0.4655895760551136,0.47407552537761155,0.933050685839933,-0.0047012405263763156,0.004446304470741087,0.1081661707001699
7165,11.0,299.93766,-6309.1391,0.0,0.0,0.07165103344346102,0.0,0.0,0.0,0.5029593543182235,0.4969318334483535,0.9179295594300941,0.005058720025256795,-0.004108258906128586,0.09996634192765981
7166,11.0,300.296,-6345.9106,0.0,0.0,0.0716610049545574,0.0,0.0,0.0,0.4906088184518205,0.4997589836123715,0.9386305629481241,-0.008555961864657692,0.003592756670677476,0.09334037427047771
7167,11.0,299.85866,-6193.5604,0.0,0.0,0.07167100937493176,0.0,0.0,0.0,0.4429027543285986,0.4957322567874645,0.9440527074132481,0.014504741042756487,-0.010688168368090091,0.09582150155184592
7168,11.0,299.8615,-6135.5278,0.0,0.0,0.07168101379530567,0.0,0.0,0.0,0.42197822783850863,0.4951834298707995,0.9478855893615241,-0.002382987625707568,-0.006346197348220914,0.09297282792920372
7169,11.0,300.19692000000003,-6400.3998,0.0,0.0,0.07169101821568002,0.0,0.0,0.0,0.4632832364424956,0.5087861402107825,0.9734923546962151,-0.0014189048788600088,-0.010129358810114881,0.0939799873828526
7170,11.0,300.84314,-6561.2628,0.0,0.0,0.07170102263605416,0.0,0.0,0.0,0.5071763796444115,0.5144925215939585,0.9727911552295121,-0.008565553695404331,0.0009270806263832342,0.1002076200812221
7171,11.0,300.62888,-6362.5551,0.0,0.0,0.07171102705642829,0.0,0.0,0.0,0.5112430487882605,0.4970603844885405,0.9257544339898491,-0.01065878816819049,-0.002048091951680938,0.0951649529772996
7172,11.0,300.09955,-6079.8338,0.0,0.0,0.07172103147680264,0.0,0.0,0.0,0.4741218309071816,0.45545049906196455,0.918545341913367,-0.004127596885612096,0.002693725796150037,0.0962208153102551
7173,11.0,300.25487000000004,-6160.2267,0.0,0.0,0.07173103589717678,0.0,0.0,0.0,0.45243600908695764,0.49040680677938353,0.929712280072958,0.006872090564772533,2.3156524956121077e-05,0.10478287795376491
7174,11.0,299.7368,-6300.3847,0.0,0.0,0.07174100740827338,0.0,0.0,0.0,0.4566545238907926,0.48898579444164053,0.969519319994107,0.004175319648096966,0.00027551430390364474,0.1032934914992739
7175,11.0,300.10122,-6335.8719,0.0,0.0,0.0717510118286473,0.0,0.0,0.0,0.4738876080140656,0.49680978747380855,0.955249465523282,0.01111062779853359,-0.006878164289846962,0.0986217337137073
7176,11.0,299.38132,-6289.2407,0.0,0.0,0.07176101624902143,0.0,0.0,0.0,0.4815054553133885,0.4962598561145345,0.9340068392967981,0.0007700568936161984,-0.0034597143994222266,0.1004457318282219
7177,11.0,299.5744,-6236.4637,0.0,0.0,0.07177102066939578,0.0,0.0,0.0,0.4960480463136305,0.4805697391110405,0.9191114548767381,0.004150934163240306,0.002011703303489658,0.08816221029693272
7178,11.0,299.65165,-6343.8672,0.0,0.0,0.07178102508976991,0.0,0.0,0.0,0.47963250303354255,0.5009878229361485,0.9477569167313252,-0.008161953078472053,0.0042883898479561255,0.08852579989656623
7179,11.0,300.36845,-6501.5982,0.0,0.0,0.07179102951014427,0.0,0.0,0.0,0.4822231099617155,0.5132555864018825,0.9808448216618472,-0.006314925511709624,0.009338321245820552,0.08198617330690532
7180,11.0,300.1767,-6397.7058,0.0,0.0,0.0718010339305184,0.0,0.0,0.0,0.4712789652341125,0.49126747154682454,0.982196365572734,-0.01163240701702919,0.012327541168633589,0.07193516294619784
7181,11.0,300.26595,-6237.2576,0.0,0.0,0.07181100544161478,0.0,0.0,0.0,0.4713042762216106,0.48584164898383747,0.9388246408722781,-0.0022752947441291075,-0.004578143406177576,0.0972364718792426
7182,11.0,299.61956000000004,-6327.4732,0.0,0.0,0.07182100986198892,0.0,0.0,0.0,0.4952803168453615,0.4801459472567155,0.947967591692117,0.0036029159214801165,0.007603042094161832,0.08749814644639473
7183,11.0,299.35962,-6260.9736,0.0,0.0,0.07183101428236305,0.0,0.0,0.0,0.5031240479894775,0.47948118426360853,0.9205743955036191,-0.006605374362149694,0.0017756240348654484,0.10787827594925689
7184,11.0,300.27277999999995,-6156.3465,0.0,0.0,0.0718410187027374,0.0,0.0,0.0,0.46160009630388255,0.4800178724440755,0.929757643279935,-0.0015002883162919284,0.007990997926900093,0.100819541068364
7185,11.0,300.3274,-6159.6374,0.0,0.0,0.07185102312311153,0.0,0.0,0.0,0.44304946281057755,0.47293848651289455,0.956388014130648,-0.0013974003680126785,-0.00957459637568909,0.10643979517978991
7186,11.0,300.8348,-6163.4473,0.0,0.0,0.07186102754348567,0.0,0.0,0.0,0.4351372055621986,0.4924837769668645,0.9459130953918541,0.011125905583541389,0.01011896012831361,0.10126918093274
7187,11.0,300.16162,-6226.823,0.0,0.0,0.07187103196386002,0.0,0.0,0.0,0.4580288253989256,0.4931831323183855,0.9415867403798761,0.008347495890408702,-0.013291022450221786,0.1026392156447019
7188,11.0,300.04245,-6333.5176,0.0,0.0,0.07188103638423393,0.0,0.0,0.0,0.49618600031474547,0.48972478813707354,0.9393203937487051,0.003707618702013476,-0.0012321706874557788,0.08494084302250851
7189,11.0,300.58302000000003,-6343.8992,0.0,0.0,0.07189100789533054,0.0,0.0,0.0,0.49516945715192057,0.5030437377865515,0.9301737445660012,-0.006677147223708124,-0.003180782554918797,0.09654142993339732
7190,11.0,300.51777000000004,-6268.4129,0.0,0.0,0.07190101231570467,0.0,0.0,0.0,0.46588815046208054,0.48523641443410553,0.9543164344336992,-0.009343997979505803,0.0055112158363646545,0.08122490938752441
7191,11.0,299.76885,-6201.1828,0.0,0.0,0.07191101673607903,0.0,0.0,0.0,0.45335115631227557,0.48075746395706753,0.9508961073961391,-0.0009185731252311092,0.004841421853861136,0.08458127095952152
7192,11.0,299.73152000000005,-6272.8693,0.0,0.0,0.07192102115645316,0.0,0.0,0.0,0.46094023744125956,0.48833562224997357,0.9575197840948451,-0.007153917771436713,0.013668750941750686,0.08713832107088272
7193,11.0,299.72046,-6323.0619,0.0,0.0,0.07193102557682729,0.0,0.0,0.0,0.49776386376796855,0.4785840323600665,0.9457050346163202,-0.006816065636268304,0.01090737590797419,0.10356204330577791
7194,11.0,299.85037,-6297.9489,0.0,0.0,0.07194102999720142,0.0,0.0,0.0,0.5120459177699974,0.4923716101807945,0.9100016879976741,-0.005957832973042334,-0.0018515968180883783,0.1067648154143669
7195,11.0,299.82175,-6286.666,0.0,0.0,0.07195103441757555,0.0,0.0,0.0,0.4863268336617215,0.4916343592755335,0.933028293012723,0.009159955790967251,0.0024952128763083377,0.1002045924899233
7196,11.0,299.7097,-6324.1676,0.0,0.0,0.07196103883794969,0.0,0.0,0.0,0.4633182442334505,0.4946247237656595,0.9644460780684171,0.006946364938177844,0.006702303791890884,0.09337338190573531
7197,11.0,300.51332,-6380.8772,0.0,0.0,0.0719710103490463,0.0,0.0,0.0,0.4594940154410285,0.5046173455893544,0.975515977265931,0.001124069770062049,-0.012296016931522387,0.08728727694158352
7198,11.0,301.06712999999996,-6373.5803,0.0,0.0,0.07198101476942065,0.0,0.0,0.0,0.4602065633088515,0.4991493110272015,0.9780533885638542,-0.0026254423652859876,-0.002062782558255788,0.08254645501595083
7199,11.0,300.659,-6190.0327,0.0,0.0,0.07199101918979456,0.0,0.0,0.0,0.46584548250036956,0.4824773546768075,0.9332925486388031,0.006965185754810312,-0.0005370423316419515,0.08347704822579322
7200,11.0,300.52459,-6110.7877,0.0,0.0,0.07200102361016891,0.0,0.0,0.0,0.4915296601427005,0.4752116219197356,0.8907855923686931,0.013049114055097287,0.0005235063539535545,0.09162143093958122
7201,11.0,300.52317,-6296.9832,0.0,0.0,0.07201102803054305,0.0,0.0,0.0,0.4906186571102915,0.48577842217759754,0.937728577841605,-0.0029502834572453073,-0.005560153485719426,0.08989777599571971
7202,11.0,299.90862000000004,-6341.1744,0.0,0.0,0.07202103245091718,0.0,0.0,0.0,0.48010692699536456,0.49631625361510057,0.9511354877322642,-0.016480825970780884,-0.01025691595327879,0.11090750871321889
7203,11.0,299.73399,-6263.9785,0.0,0.0,0.07203103687129131,0.0,0.0,0.0,0.44869524170527253,0.48397924463753256,0.971418566114048,-0.003737201754583096,1.0484838457272989e-06,0.09080859664311072
7204,11.0,299.92776000000003,-6319.4238,0.0,0.0,0.07204100838238792,0.0,0.0,0.0,0.4651153446108106,0.4936866872205825,0.962145007356319,0.0009521365079035572,0.007921884238904104,0.0980498148272633
7205,11.0,299.47336,-6322.5705,0.0,0.0,0.07205101280276227,0.0,0.0,0.0,0.49093461888897455,0.49192486821170456,0.9390440804464351,0.004952610650934615,0.0015818672096681386,0.10740528067007589
7206,11.0,299.37037999999995,-6289.896,0.0,0.0,0.07206101722313618,0.0,0.0,0.0,0.5034715319787715,0.4859078648778725,0.9225919385727351,-0.015729156516596884,-0.009911217817286041,0.1019655461832159
7207,11.0,300.31472,-6353.5577,0.0,0.0,0.07207102164351031,0.0,0.0,0.0,0.47972394885506753,0.5063419073920555,0.9452570362171061,-0.0036633581137952968,0.008347432258302423,0.1067464046600499
7208,11.0,300.32167000000004,-6292.9099,0.0,0.0,0.07208102606388445,0.0,0.0,0.0,0.4577658667329736,0.49368675814808954,0.9614348608912331,0.0073691460755280925,0.0018122414749293084,0.08294568366135162
7209,11.0,300.08758,-6179.7119999999995,0.0,0.0,0.0720910304842588,0.0,0.0,0.0,0.4329661652354335,0.48203942798358757,0.9634725372398362,0.013766418118889687,-0.005006677270970575,0.07982151138951983
7210,11.0,299.79632999999995,-6229.9235,0.0,0.0,0.07210103490463293,0.0,0.0,0.0,0.4584296164759806,0.47906510324254453,0.9562464630916782,0.004959871905126245,-0.016097352351184986,0.07749241417965583
7211,11.0,300.18318999999997,-6411.5039,0.0,0.0,0.07211103932500706,0.0,0.0,0.0,0.5089525361422046,0.48604431926883956,0.9539402248040701,0.008118520416910583,-0.00925544063004087,0.08203111196209042
7212,11.0,300.53784,-6399.845,0.0,0.0,0.07212101083610367,0.0,0.0,0.0,0.5195151010146485,0.4890163540646565,0.936861630923544,0.012484106547585387,0.001892173228942958,0.09148742354760572
7213,11.0,300.75784,-6338.814,0.0,0.0,0.0721310152564778,0.0,0.0,0.0,0.4867279287138065,0.4982202417455095,0.9418929952226012,-0.008107302015778414,0.0027773158896497374,0.1101994698083409
7214,11.0,299.37661,-6356.305,0.0,0.0,0.07214101967685194,0.0,0.0,0.0,0.47038264419565257,0.4963177228277455,0.9654576360407501,-0.010561843438372789,0.008024139108520872,0.1055202099190339
7215,11.0,299.47359,-6251.9881,0.0,0.0,0.07215102409722607,0.0,0.0,0.0,0.45405394658163556,0.48316891813505947,0.9632254055404461,-0.01158524326462449,0.013625106206943289,0.09370493051070661
7216,11.0,300.23402000000004,-6223.6331,0.0,0.0,0.0721610285176002,0.0,0.0,0.0,0.4563829222014876,0.48173801647634057,0.9537081196036632,0.003038899676541047,0.005453599801228394,0.09202328694249132
7217,11.0,300.39574,-6244.2894,0.0,0.0,0.07217103293797433,0.0,0.0,0.0,0.4920023919768555,0.4818453500594336,0.9242603055248901,0.01290638561951109,0.003071730094356157,0.0941742152680214
7218,11.0,299.70891,-6244.3675,0.0,0.0,0.07218103735834869,0.0,0.0,0.0,0.48815764486990854,0.49055193459120655,0.9194222288149091,0.01081200374231169,-0.004869832069440005,0.1035308554676999
7219,11.0,299.73184,-6313.4103,0.0,0.0,0.0721910417787226,0.0,0.0,0.0,0.4809989417208996,0.49841716690244453,0.9397029767214631,-0.004796295342107495,-0.001173690552634239,0.09818881754223181
7220,11.0,299.62458,-6463.911999999999,0.0,0.0,0.07220101328981943,0.0,0.0,0.0,0.46898413614263057,0.5294629574489255,0.966420750525802,-0.011427027301259789,0.004973800851600925,0.09361458811854051
7221,11.0,300.10303,-6398.2945,0.0,0.0,0.07221101771019356,0.0,0.0,0.0,0.46623571551138254,0.5115270019962845,0.9671590552111671,-0.01885367430671278,0.01757989430125048,0.09802169713698831
7222,11.0,299.92874,-6316.3554,0.0,0.0,0.07222102213056769,0.0,0.0,0.0,0.4666813226403606,0.4934679366564936,0.959865062908806,-0.002114029505913468,-0.003251845330807147,0.09921403817891322
7223,11.0,300.41376,-6247.8013,0.0,0.0,0.07223102655094182,0.0,0.0,0.0,0.4807558326244066,0.49890888704347347,0.9195108679336571,-0.008274715756925862,-0.004871726137851935,0.11452520673775787
7224,11.0,301.10337000000004,-6231.851,0.0,0.0,0.07224103097131596,0.0,0.0,0.0,0.4863137019404255,0.4788061570469886,0.9292072458256152,0.017292639924400683,-0.006670613280438273,0.09780574719617571
7225,11.0,300.54357999999996,-6351.6078,0.0,0.0,0.07225103539169009,0.0,0.0,0.0,0.4853748041327635,0.5029226240020985,0.9424327434183701,-0.0038830911251812564,-0.010079175369762161,0.11647643258782889
7226,11.0,299.97677000000004,-6350.4927,0.0,0.0,0.07226103981206422,0.0,0.0,0.0,0.4749966305135176,0.49856237577427553,0.956832212841987,-0.0032284652940247167,-0.001077462899912309,0.07998578962823283
7227,11.0,300.00633,-6228.3484,0.0,0.0,0.07227101132316105,0.0,0.0,0.0,0.4532810799353596,0.4766739647290576,0.963307357208534,-0.008029902779064702,0.004178291510640266,0.08348973918329572
7228,11.0,299.40836,-6320.8193,0.0,0.0,0.07228101574353518,0.0,0.0,0.0,0.47197681084298454,0.49098406549385454,0.958410360005238,0.017121430041753587,0.01751026375437848,0.07415973631549613
7229,11.0,299.84332,-6471.6479,0.0,0.0,0.07229102016390909,0.0,0.0,0.0,0.5151580546571416,0.49551002064303157,0.9565512993842631,-0.002319821614473568,0.015806595168739487,0.08594209117507402
7230,11.0,299.71612999999996,-6517.3727,0.0,0.0,0.07230102458428322,0.0,0.0,0.0,0.5214567313862725,0.5080932493948995,0.9515685710900061,-0.004309549853769456,-0.01653712011983668,0.0915985659378246
7231,11.0,300.07012000000003,-6347.7609999999995,0.0,0.0,0.07231102900465758,0.0,0.0,0.0,0.4842402983932966,0.4963182699827995,0.9490022720317322,0.0004859154845186245,-0.01061354351147519,0.08987319556154383
7232,11.0,300.06316,-6234.6054,0.0,0.0,0.07232103342503171,0.0,0.0,0.0,0.45147129366674754,0.47809900980219855,0.9655940600342141,0.0008019272366965561,-0.017828768790812483,0.1053191101716869
7233,11.0,299.8273,-6291.069,0.0,0.0,0.07233103784540584,0.0,0.0,0.0,0.4539669894580536,0.49009636721374555,0.9682645313352691,0.01193338080023299,0.010484050148695188,0.08466356105314292
7234,11.0,299.59039,-6304.4567,0.0,0.0,0.0723410422657802,0.0,0.0,0.0,0.47528209346419054,0.4815610827438785,0.9595542281756291,-0.008800563174572961,-0.010772937884706188,0.1007035664884182
7235,11.0,300.64196,-6203.2963,0.0,0.0,0.0723510137768768,0.0,0.0,0.0,0.4839132820560225,0.4709156542782566,0.930818252689609,0.004398444818167706,0.0053453000841650455,0.08233227117006252
7236,11.0,300.35244,-6164.3465,0.0,0.0,0.07236101819725094,0.0,0.0,0.0,0.46652589007502054,0.4920809897871125,0.9152005425382611,-0.0006581187372987624,0.0008755920996367123,0.10891441536901589
7237,11.0,300.32692000000003,-6306.4967,0.0,0.0,0.07237102261762485,0.0,0.0,0.0,0.48039439618123553,0.48288925097495855,0.9537338764212051,0.007372896215473203,0.009062692900618152,0.09047902792883482
7238,11.0,300.09224,-6520.7963,0.0,0.0,0.07238102703799898,0.0,0.0,0.0,0.4918958183313375,0.5178052313383975,0.9724582012466522,-0.015562853804184085,-0.010957541920425189,0.1029650870093629
7239,11.0,300.62367,-6454.2873,0.0,0.0,0.07239103145837333,0.0,0.0,0.0,0.4709196566161516,0.5129999130041495,0.978022626290818,-0.019274629060757782,-0.0003045125591780497,0.09130241015884631
7240,11.0,300.85029,-6215.8993,0.0,0.0,0.07240103587874747,0.0,0.0,0.0,0.4737648730294526,0.48348349176110555,0.9322298114039191,0.004524800652013055,0.01011789185873318,0.08483705378826532
7241,11.0,299.95202,-6172.3977,0.0,0.0,0.07241104029912182,0.0,0.0,0.0,0.4761861658659155,0.4887295536238515,0.9113390362746601,-0.0024657373295743274,0.010043341374675621,0.10528174150799889
7242,11.0,299.62542,-6233.7372,0.0,0.0,0.07242104471949595,0.0,0.0,0.0,0.48496821726513656,0.4936498251819445,0.9162824099350331,0.0013121156137207287,-0.009912344754047262,0.0988244759394664
7243,11.0,299.32235,-6263.6706,0.0,0.0,0.07243101623059234,0.0,0.0,0.0,0.46524161583827256,0.48640734651466755,0.9523505063246771,-0.01821590834927018,-0.02447227175422518,0.097618724532468
7244,11.0,299.61537000000004,-6187.9038,0.0,0.0,0.07244102065096647,0.0,0.0,0.0,0.4434947456995236,0.4753905112248905,0.9620829761851971,0.0011580286445135289,0.003613857300034947,0.09318597623348981
7245,11.0,299.44023,-6190.3567,0.0,0.0,0.0724510250713406,0.0,0.0,0.0,0.43380706149342363,0.48204051216119453,0.9658663000710821,0.005044561172334425,0.0064796463380663045,0.09013738228661701
7246,11.0,299.58666,-6375.2918,0.0,0.0,0.07246102949171496,0.0,0.0,0.0,0.4945528235385635,0.4906653983374045,0.9527113044202851,0.001941530262514118,-0.002136796425060388,0.08441851968870923
7247,11.0,300.07748,-6633.9586,0.0,0.0,0.07247103391208909,0.0,0.0,0.0,0.5330825097211476,0.5197182069971935,0.9637570578679161,-6.240336625473274e-05,0.012312136727363289,0.08637125528142922
7248,11.0,300.61272,-6452.965,0.0,0.0,0.07248103833246322,0.0,0.0,0.0,0.5117366941044795,0.5061818848037625,0.9436216505557061,0.006716451093762114,0.006318845675021514,0.0985422908528669
7249,11.0,299.73535,-6248.3084,0.0,0.0,0.07249104275283758,0.0,0.0,0.0,0.47362466961311556,0.4951711695445895,0.930533904314046,0.004712926846404665,0.004480869370077376,0.09012557083020131
7250,11.0,300.39734,-6236.9492,0.0,0.0,0.07250101426393396,0.0,0.0,0.0,0.4428162734325636,0.49214596951602557,0.9609145873623861,0.0036456541014230465,-0.017837170660641683,0.1031238633000329
7251,11.0,300.48804,-6199.5786,0.0,0.0,0.07251101868430809,0.0,0.0,0.0,0.4542464033056296,0.48212348721188353,0.9481472105373442,-0.008008664550343653,-0.014956718475113186,0.09144853703526791
7252,11.0,299.77072999999996,-6177.6982,0.0,0.0,0.07252102310468223,0.0,0.0,0.0,0.46004539574794556,0.48158746777648254,0.9362331422840171,-0.003828950436562986,0.006644609939146943,0.1001449181385339
7253,11.0,299.34385,-6200.0282,0.0,0.0,0.07253102752505658,0.0,0.0,0.0,0.4851410068046895,0.4801709644016845,0.9193417970219712,-0.0055093052519760944,0.013216586058125486,0.10021139545109471
7254,11.0,299.40788,-6249.6271,0.0,0.0,0.07254103194543071,0.0,0.0,0.0,0.4767788259819066,0.5001235003358465,0.9228282487610571,-0.001149744716995969,0.007363479676993863,0.1143839900713209
7255,11.0,300.07649,-6323.7513,0.0,0.0,0.07255103636580484,0.0,0.0,0.0,0.47901007362961356,0.4896818972603405,0.9535705202400832,-0.018900722548606082,-0.0031607127048880568,0.09990137233124781
7256,11.0,300.52811,-6477.6957,0.0,0.0,0.07256104078617898,0.0,0.0,0.0,0.4594428260459766,0.5089281472122975,1.0006867714800949,0.008233258933059392,0.007268951649989673,0.09204402310578783
7257,11.0,300.02207000000004,-6437.4582,0.0,0.0,0.07257104520655311,0.0,0.0,0.0,0.4794136612769445,0.5113582350596285,0.9660546632646722,-0.003964189839335076,-0.007634603314901682,0.0958688020930141
7258,11.0,300.00647000000004,-6279.3473,0.0,0.0,0.07258101671764972,0.0,0.0,0.0,0.4706535974048936,0.48647109007845857,0.951640076149563,0.004666842306681475,-0.0061147556239793946,0.07928481510305202
7259,11.0,300.12217000000004,-6239.9009,0.0,0.0,0.07259102113802385,0.0,0.0,0.0,0.4848839959168245,0.4829268425536685,0.928963234936533,-0.0037304426671410265,-0.011823840358422188,0.09406669828666031
7260,11.0,300.39794,-6359.2149,0.0,0.0,0.07260102555839798,0.0,0.0,0.0,0.4986421793521515,0.49310850644852056,0.941291864335774,0.0014133727359640286,0.0059855324950010644,0.07730608761876682
7261,11.0,300.47572,-6379.7526,0.0,0.0,0.07261102997877211,0.0,0.0,0.0,0.48594008623105256,0.4900734677614856,0.9632719137200361,-0.005309291607411285,0.0032454724943031974,0.09184818719271032
7262,11.0,300.49302,-6316.5954,0.0,0.0,0.07262103439914647,0.0,0.0,0.0,0.4624576706585185,0.4841518821895705,0.973477723364771,-0.01055621584731739,-0.00859846041095197,0.08638653103993682
7263,11.0,300.77115,-6295.4285,0.0,0.0,0.0726310388195206,0.0,0.0,0.0,0.4716550330087276,0.48787104707912354,0.9541269971950032,0.005930490115118805,-0.0025216471528671978,0.0965936558833016
7264,11.0,300.66035,-6302.126,0.0,0.0,0.07264104323989473,0.0,0.0,0.0,0.47921317961215854,0.48602834031476255,0.950447409854356,0.012505110208908288,0.007788876620802273,0.09008095540179811
7265,11.0,300.33102,-6455.6756,0.0,0.0,0.07265104766026886,0.0,0.0,0.0,0.5056423899205186,0.5148207842288555,0.9419010100308921,0.01164611629088219,0.0009025141547937121,0.1050918280417559
7266,11.0,300.57346,-6500.1906,0.0,0.0,0.07266101917136547,0.0,0.0,0.0,0.5122287283530396,0.5025879474940685,0.961078966926109,0.0013946233534636084,-0.006466442777338214,0.09249639266593322
7267,11.0,300.35316,-6350.524,0.0,0.0,0.07267102359173983,0.0,0.0,0.0,0.4754137247846816,0.5036105701574934,0.9513764284735431,0.006041275030702425,-0.0026099057962026473,0.10030941219951821
7268,11.0,299.82941,-6243.7907,0.0,0.0,0.07268102801211374,0.0,0.0,0.0,0.4417036032327516,0.4908832065789005,0.9653696555345671,0.0030528321693910772,0.009153338153239142,0.08910227536870992
7269,11.0,299.87287000000003,-6313.6569,0.0,0.0,0.07269103243248787,0.0,0.0,0.0,0.4638864039620236,0.49572739318698456,0.959580238305696,-0.004590315275653845,-0.008063980507752913,0.09104987378342291
7270,11.0,299.60292000000004,-6379.2664,0.0,0.0,0.072701036852862,0.0,0.0,0.0,0.48261965552085156,0.5168279921469515,0.939690047650187,-0.011014868571332888,-0.003463201803616406,0.10557721536965992
7271,11.0,299.85981,-6270.3743,0.0,0.0,0.07271104127323635,0.0,0.0,0.0,0.48636307761779857,0.4819202799043285,0.9377538685641011,-0.014215680040978384,0.0017717816891612383,0.09354440636361411
7272,11.0,299.64841,-6295.0719,0.0,0.0,0.07272104569361049,0.0,0.0,0.0,0.4838100926658385,0.4985810803711215,0.9311534864851941,0.0014436187580740784,0.027493426888389974,0.1112939217713549
7273,11.0,300.1556,-6361.7068,0.0,0.0,0.07273105011398462,0.0,0.0,0.0,0.4649746244369225,0.5037373986725106,0.965087992271769,0.004258350123566436,0.007821266578798912,0.1012084578674971
7274,11.0,300.67338,-6429.1779,0.0,0.0,0.07274102162508123,0.0,0.0,0.0,0.48559273396427155,0.4821299314825196,0.986586879581044,-0.0058833917173455545,-0.0014282562653579187,0.0954435045490405
7275,11.0,300.71631,-6446.6003,0.0,0.0,0.07275102604545536,0.0,0.0,0.0,0.48715179149563853,0.5104390753639145,0.962014652730954,0.0017783176589312884,-0.009507367738179142,0.08018324572822022
7276,11.0,300.15553,-6310.8608,0.0,0.0,0.07276103046582949,0.0,0.0,0.0,0.4904206680407516,0.48260514577941954,0.945318287185651,0.006098817807856454,-0.0018224823936900084,0.08531970736739951
7277,11.0,299.63178999999997,-6279.1719,0.0,0.0,0.07277103488620362,0.0,0.0,0.0,0.48515617515868653,0.4873536511805605,0.93620166060341,0.015777621282129985,-0.01045074259140799,0.08585205073143773
7278,11.0,299.68676,-6394.5711,0.0,0.0,0.07278103930657775,0.0,0.0,0.0,0.49601753735311954,0.5012626062307675,0.9465097983757441,-0.004924872321497055,-0.0008066378364114562,0.1004483277749781
7279,11.0,300.60741,-6494.3265,0.0,0.0,0.07279104372695189,0.0,0.0,0.0,0.49028358543472256,0.5036223542561565,0.980207152976414,0.0018972578192697682,0.0003716013681741996,0.0900836445675635
7280,11.0,300.37804,-6360.7403,0.0,0.0,0.07280104814732624,0.0,0.0,0.0,0.46620459860081154,0.49571349139561255,0.9715881335182831,-0.01007133078748796,0.008200986816049381,0.08351988134727052
7281,11.0,299.30045,-6254.6129,0.0,0.0,0.07281101965842285,0.0,0.0,0.0,0.4490255409728705,0.5028143582289135,0.9494062345816,0.0036461086454179065,-0.007853961119775613,0.09253505423674882
7282,11.0,299.33594,-6273.439,0.0,0.0,0.07282102407879698,0.0,0.0,0.0,0.4681921697319696,0.4852201720350025,0.9535564867261981,0.0025006858453984777,-8.711604882043462e-05,0.092915795120825
7283,11.0,299.20977999999997,-6353.4166,0.0,0.0,0.07283102849917111,0.0,0.0,0.0,0.5019497620510845,0.49663954119200654,0.9326906780794031,-0.006954794773709803,-0.006421117769889984,0.1064546696912579
7284,11.0,300.03107,-6306.3822,0.0,0.0,0.07284103291954525,0.0,0.0,0.0,0.4818114163135846,0.48526834194475654,0.9499029601781231,-0.0005335930357840324,0.011296329184110889,0.09805946096821531
7285,11.0,299.97699,-6217.7487,0.0,0.0,0.07285103733991938,0.0,0.0,0.0,0.46133344940756654,0.4928028190258516,0.9359040994465431,-0.0089505053429211,-0.011235716563128887,0.12235462065796089
7286,11.0,299.61955,-6229.3166,0.0,0.0,0.07286104176029351,0.0,0.0,0.0,0.4542038670664316,0.4976953579287075,0.9416574855018581,0.009489462798312061,0.004319621053138406,0.0981869399897965
7287,11.0,299.87248,-6283.4431,0.0,0.0,0.07287104618066764,0.0,0.0,0.0,0.4820861185481955,0.4848046077714896,0.9431190582411042,0.005299236620043935,-0.014660964956424587,0.09447304906701401
7288,11.0,300.59637000000004,-6351.5645,0.0,0.0,0.07288105060104177,0.0,0.0,0.0,0.47671418062552656,0.5091727457864375,0.9448300931549701,0.004969802972006365,0.009350359670258651,0.08739006508472792
7289,11.0,300.29402999999996,-6304.7891,0.0,0.0,0.0728910221121386,0.0,0.0,0.0,0.49662139388271553,0.4774105975517575,0.9424664643816982,0.01038775795194189,-0.016839660387695084,0.08974924872981123
7290,11.0,300.60231,-6263.9051,0.0,0.0,0.07290102653251274,0.0,0.0,0.0,0.4608108048734856,0.4897149596111035,0.953544976205062,0.0024532890454707773,0.01130256168547599,0.09436705500055322
7291,11.0,300.36242000000004,-6263.0005,0.0,0.0,0.07291103095288665,0.0,0.0,0.0,0.47282545846423957,0.5009190333868595,0.9300512831589152,0.00024804397911753475,0.0034507756083650364,0.1013433599593109
7292,11.0,300.12604,-6330.7311,0.0,0.0,0.07292103537326078,0.0,0.0,0.0,0.4720702325022046,0.4821386758308826,0.970175277843845,-0.01033079505782009,0.015419660286801987,0.08460769145587901
7293,11.0,300.26352,-6285.9895,0.0,0.0,0.07293103979363513,0.0,0.0,0.0,0.48047665182435356,0.49495600588585453,0.9353511789994742,-0.02356348672628508,-0.0037681119621336963,0.09415946234656541
7294,11.0,300.17759,-6306.732,0.0,0.0,0.07294104421400927,0.0,0.0,0.0,0.47971872048455155,0.4965781382359465,0.940792200313961,-0.012864711656148187,0.002307461787103748,0.08210486846336962
7295,11.0,299.94603,-6366.1215,0.0,0.0,0.0729510486343834,0.0,0.0,0.0,0.5008025906853675,0.4851775243382935,0.9491618589224821,0.003975618591188006,0.0038833554821323456,0.095185404417318
7296,11.0,300.19192999999996,-6434.4062,0.0,0.0,0.07296105305475775,0.0,0.0,0.0,0.48475325625642157,0.49765561825978555,0.9734899532934781,-0.0019959659082364983,0.00023355446215753083,0.08462602317668821
7297,11.0,299.79704,-6372.0112,0.0,0.0,0.07297102456585436,0.0,0.0,0.0,0.4690920776757836,0.49538441816063555,0.9724558201089171,0.002341035626517228,-0.03288093643859576,0.12162906265885387
7298,11.0,300.0294,-6294.0632,0.0,0.0,0.07298102898622849,0.0,0.0,0.0,0.46703705448546856,0.49700741177331254,0.9491935837831131,0.0054428406050415455,0.003260204238832107,0.09471298567744392
7299,11.0,299.90547999999995,-6264.371999999999,0.0,0.0,0.0729910334066024,0.0,0.0,0.0,0.4737885121542856,0.4951369419562115,0.935287212520661,0.017123807126488182,-0.003997011745849346,0.1159492689583019
7300,11.0,299.81604,-6326.3614,0.0,0.0,0.07300103782697653,0.0,0.0,0.0,0.49429520470063854,0.4755159921172745,0.953244699537927,0.014424798649616787,0.0034499454525581067,0.07239521800835173
7301,11.0,300.05222000000003,-6227.3037,0.0,0.0,0.07301104224735089,0.0,0.0,0.0,0.47079913051675654,0.4928786911933395,0.929267027581515,0.0016984897630528885,-0.01687864923829298,0.10173837551079591
7302,11.0,299.74081,-6204.8384,0.0,0.0,0.07302104666772524,0.0,0.0,0.0,0.45189168100073657,0.4822627381731266,0.951961509478786,-0.0071040383061139935,0.004536652233132716,0.09649101060842132
7303,11.0,300.04084,-6253.0937,0.0,0.0,0.07303105108809937,0.0,0.0,0.0,0.45474203459204454,0.4916811207676485,0.9543611896906161,-0.015893970764612783,0.004301372114862376,0.10571113663537691
7304,11.0,300.54026,-6284.7035,0.0,0.0,0.07304102259919576,0.0,0.0,0.0,0.46494561508655957,0.49832448491579756,0.947122824818745,-0.03105711260309837,0.016312753110443383,0.11029662022792888
7305,11.0,300.10028,-6358.4793,0.0,0.0,0.07305102701956989,0.0,0.0,0.0,0.4937329623526496,0.48300476148635857,0.9560812020003681,-0.018427008875104182,-0.0013348466638141085,0.08683901712384372
7306,11.0,300.26594,-6301.8092,0.0,0.0,0.07306103143994402,0.0,0.0,0.0,0.5087085455181245,0.47341929395034654,0.933464791023302,-0.0008107100075033483,0.017940696449858882,0.09598709194943841
7307,11.0,300.36851,-6263.6359,0.0,0.0,0.07307103586031816,0.0,0.0,0.0,0.49407588671649355,0.47690327335918853,0.9330097505358932,0.024155425408204877,0.008094222578187572,0.08461357742570992
7308,11.0,299.28622,-6374.4288,0.0,0.0,0.07308104028069251,0.0,0.0,0.0,0.4901143220055176,0.47474359156604456,0.9728092721413001,0.00954262296480856,-0.003957676161067226,0.097459289629233
7309,11.0,299.3992,-6447.9984,0.0,0.0,0.07309104470106664,0.0,0.0,0.0,0.48575682981796653,0.5009598774983905,0.973313820028595,0.007781412513940623,-0.02111381275452108,0.08768440917252741
7310,11.0,299.73219,-6319.9725,0.0,0.0,0.07310104912144078,0.0,0.0,0.0,0.4592189484363816,0.5007123911614655,0.9611825008213271,-0.0004069213617500116,-0.008793027532254253,0.1039965452136599
7311,11.0,300.32543,-6245.7523,0.0,0.0,0.07311105354181513,0.0,0.0,0.0,0.47426605692641555,0.4839208105042655,0.940365885466887,0.0014576516640090187,0.00014584099803838588,0.09144800811871572
7312,11.0,300.09021,-6395.1441,0.0,0.0,0.07312102505291151,0.0,0.0,0.0,0.5059195746178745,0.5033685857686115,0.9346759693978361,-0.02156857865115298,0.0027611047999748276,0.09671936678345831
7313,11.0,299.79363,-6432.8081,0.0,0.0,0.07313102947328565,0.0,0.0,0.0,0.5001316266016484,0.4992974279268195,0.9559840009182752,-0.006770650753536203,-0.007067475885530563,0.09063781131225551
7314,11.0,299.8433,-6234.329000000001,0.0,0.0,0.07314103389365978,0.0,0.0,0.0,0.45564370559103257,0.49381832867357456,0.9456182902752591,-9.510907932703531e-05,0.01112567456251859,0.1002485756502641
7315,11.0,300.08031,-6198.4545,0.0,0.0,0.07315103831403413,0.0,0.0,0.0,0.45152862335740557,0.4950111773537995,0.9376356020124291,0.01244217420544699,0.015598110854663685,0.11192075881321889
7316,11.0,299.65487,-6266.3571,0.0,0.0,0.07316104273440827,0.0,0.0,0.0,0.4626110463261556,0.4846415758303995,0.957563465306656,-0.0016538437344966685,0.003495820756135647,0.1058541974169959
7317,11.0,299.44415,-6309.9957,0.0,0.0,0.0731710471547824,0.0,0.0,0.0,0.4891197359723595,0.5008375680788196,0.9281238180236892,-0.007211170759062144,-0.016089038634114487,0.10019203224168372
7318,11.0,299.39547000000005,-6377.4092,0.0,0.0,0.07318105157515653,0.0,0.0,0.0,0.5039694228129096,0.4884459449208615,0.9461577952910042,0.011974152971006888,-0.01019531136044889,0.08527155772264752
7319,11.0,300.21249,-6391.5394,0.0,0.0,0.07319105599553066,0.0,0.0,0.0,0.48750056231255945,0.5067632066511345,0.9486046220299871,0.009077214497076321,-0.015314894279462383,0.09860492085479801
7320,11.0,300.53339,-6282.8911,0.0,0.0,0.07320102750662727,0.0,0.0,0.0,0.45705484887280157,0.5014200956938105,0.9513670761751201,0.006958091078935124,-0.00985088485333164,0.1032144985214779
7321,11.0,300.49037999999996,-6386.1484,0.0,0.0,0.0732110319270014,0.0,0.0,0.0,0.4650187616112786,0.49779921606395755,0.9784116737992141,-0.007249921191911513,-0.01828056079840088,0.09159547147201921
7322,11.0,300.44972,-6405.5096,0.0,0.0,0.07322103634737553,0.0,0.0,0.0,0.4669115026655775,0.5078214551880755,0.9723819947066311,0.012081734800374389,0.006759843630619623,0.09811202230390272
7323,11.0,300.5636,-6255.5827,0.0,0.0,0.07323104076774967,0.0,0.0,0.0,0.47947613827811053,0.48707190685775453,0.9349929140291162,0.012026748757197687,0.013248875299062187,0.0897351169306665
7324,11.0,300.66575,-6193.4673,0.0,0.0,0.07324104518812402,0.0,0.0,0.0,0.48070517011940656,0.4706537392599075,0.9313004989422031,-0.005039140790924475,0.003770970239340786,0.09120402762713672
7325,11.0,299.39122000000003,-6299.7401,0.0,0.0,0.07325104960849815,0.0,0.0,0.0,0.48640982897741253,0.4867921181076415,0.9417617286721461,-0.02117840238214558,-0.007892792409982963,0.09097549615983241
7326,11.0,299.34552,-6451.9997,0.0,0.0,0.07326105402887229,0.0,0.0,0.0,0.48704699103779553,0.4935356622931775,0.9806641693015181,-0.008538076885817581,0.0016199969255062485,0.08836840669228271
7327,11.0,299.87186,-6460.7543,0.0,0.0,0.07327102553996889,0.0,0.0,0.0,0.4851651930845765,0.49911625880893956,0.97962652013911,-0.004540555272517915,0.016885456252464785,0.09736781543670521
7328,11.0,300.06671,-6526.4154,0.0,0.0,0.07328102996034302,0.0,0.0,0.0,0.4854376155064626,0.5270697721702364,0.971359929330761,-0.01113292639348429,-0.004965855653591795,0.08933942858111511
7329,11.0,300.02832,-6359.232,0.0,0.0,0.07329103438071738,0.0,0.0,0.0,0.5000073109468796,0.48325519638107456,0.9497852306490041,-0.008932222764741753,-0.02118335514863438,0.08921322929441022
7330,11.0,300.17388,-6296.7092,0.0,0.0,0.07330103880109129,0.0,0.0,0.0,0.49217740053412756,0.49174642473659347,0.930118542700553,0.00909645875092558,-0.007161252283610573,0.08571427607559041
7331,11.0,300.33839,-6282.4865,0.0,0.0,0.07331104322146542,0.0,0.0,0.0,0.4866639419699916,0.4945721056879665,0.928482984786636,0.03226818863937227,0.007930317215511372,0.10076797879727521
7332,11.0,300.52841,-6167.823,0.0,0.0,0.07332104764183955,0.0,0.0,0.0,0.45088998195187663,0.48041959571122256,0.9435546037965891,0.02115540869762628,0.00015266065757143385,0.08936312444795373
7333,11.0,300.16606,-6165.4396,0.0,0.0,0.07333105206221391,0.0,0.0,0.0,0.4310151521678836,0.5060113244144295,0.9371132107908732,-0.015072570451796883,-0.005044842653212206,0.1091892290611379
7334,11.0,300.00871,-6340.5253,0.0,0.0,0.07334105648258804,0.0,0.0,0.0,0.46126853047365957,0.49786281777273456,0.9682300200368631,-0.0036725819321056165,0.0023995454495666976,0.1026103380168519
7335,11.0,299.92184,-6412.7391,0.0,0.0,0.07335102799368465,0.0,0.0,0.0,0.4939520776867745,0.5089506514970186,0.946409810855876,-0.012778825537921886,0.017969186002920582,0.10394079619315791
7336,11.0,299.47762,-6375.0027,0.0,0.0,0.07336103241405878,0.0,0.0,0.0,0.48613477210526657,0.5047321974881895,0.9469746673891231,0.005263020427019675,-0.0046892809327959955,0.10868240136111788
7337,11.0,299.50705,-6363.4796,0.0,0.0,0.07337103683443291,0.0,0.0,0.0,0.4856791439327995,0.5006097489263356,0.9480499993227501,-0.009441753714703542,-0.01030090114011979,0.09646217857682582
7338,11.0,299.10107999999997,-6325.3774,0.0,0.0,0.07338104125480704,0.0,0.0,0.0,0.46298152096021855,0.4981811505566516,0.9615941134094501,-0.0024168587527003877,0.0027354550829683977,0.1131391616609659
7339,11.0,299.99304,-6330.4174,0.0,0.0,0.07339104567518118,0.0,0.0,0.0,0.46414963620550254,0.49520039167747354,0.9649387911945441,0.0005956779496913365,0.011475191131513188,0.08214720711879812
7340,11.0,300.70651000000004,-6317.3385,0.0,0.0,0.07340105009555531,0.0,0.0,0.0,0.47132864488651555,0.4943247004110495,0.954659824892589,-0.0014612653191656587,-0.0026133411193416875,0.09837798019015072
7341,11.0,299.98784,-6272.2482,0.0,0.0,0.07341105451592944,0.0,0.0,0.0,0.49066886365274653,0.49085483557610055,0.9250831456660981,-0.001227408817285819,-0.006846526264749534,0.07423180068910834
7342,11.0,299.99882,-6250.4243,0.0,0.0,0.0734210589363038,0.0,0.0,0.0,0.4889015224308236,0.4791140128248715,0.931957378849532,0.012369880837312188,-0.003476315083760587,0.0993863879679228
7343,11.0,300.45202,-6413.9594,0.0,0.0,0.0734310304474004,0.0,0.0,0.0,0.5027111384412265,0.49074462436272354,0.9562277483623312,0.01000613493232863,0.01229101248927849,0.08317507537799082
7344,11.0,300.19038,-6575.3413,0.0,0.0,0.07344103486777454,0.0,0.0,0.0,0.4966208365951605,0.5149178130584315,0.987200899009143,0.007478786423798753,-0.017232228940188582,0.10725290812003789
7345,11.0,299.61045,-6506.6212,0.0,0.0,0.07345103928814867,0.0,0.0,0.0,0.48354578637725354,0.5010973755369605,0.9932072125544201,-0.02048414570512778,-0.007478399260935543,0.08547055598928711
7346,11.0,299.38295,-6369.2095,0.0,0.0,0.0734610437085228,0.0,0.0,0.0,0.4740425542193576,0.5100309888861395,0.9520070956007851,-0.01109256965525139,0.0017325163226110483,0.09527786652869331
7347,11.0,299.59802,-6341.8302,0.0,0.0,0.07347104812889693,0.0,0.0,0.0,0.48930841327348057,0.47926854359762255,0.9591810582963001,-0.007523048227917053,0.021260718820269583,0.07562080546944243
7348,11.0,300.53227000000004,-6260.5257,0.0,0.0,0.07348105254927106,0.0,0.0,0.0,0.4730115823751086,0.47896609857527356,0.951065796390386,-0.0016014747136782485,0.014985345830188485,0.09120405903788982
7349,11.0,300.66398,-6309.6175,0.0,0.0,0.0734910569696452,0.0,0.0,0.0,0.4676312142116075,0.49485081026047256,0.9554841545114441,-0.0013964879362976287,-0.0018489136304985683,0.099213792972389
7350,11.0,300.58104,-6270.1505,0.0,0.0,0.07350102848074203,0.0,0.0,0.0,0.4604409685869855,0.48910972506137157,0.9564184724286541,0.015193463347728087,-0.010265011821577791,0.1092351394231689
7351,11.0,300.20367000000005,-6206.9651,0.0,0.0,0.07351103290111616,0.0,0.0,0.0,0.44328697876651857,0.4979463095809745,0.945529093868956,0.007198727642534103,-0.005903472105177334,0.1113728032916399
7352,11.0,299.78655,-6332.6249,0.0,0.0,0.07352103732149029,0.0,0.0,0.0,0.48822755912680854,0.4956163713735275,0.941115903323408,0.005501083335364655,-0.014940169061229885,0.1106254908128859
7353,11.0,299.46551,-6505.564,0.0,0.0,0.0735310417418642,0.0,0.0,0.0,0.5047819379355986,0.5072983344264476,0.965448729572371,-0.008635058193963891,0.00042211945463744655,0.0989575075715956
7354,11.0,300.1596,-6354.2989,0.0,0.0,0.07354104616223833,0.0,0.0,0.0,0.4819068847380065,0.5037863994473465,0.9458549145711121,0.006041681850617574,0.0003228168513070427,0.1015288759201199
7355,11.0,299.81281,-6293.0835,0.0,0.0,0.07355105058261269,0.0,0.0,0.0,0.4784823324475295,0.4738775667055745,0.960580336419398,0.013479572081830187,0.016296619129101086,0.09381005216883131
7356,11.0,299.69025,-6397.7513,0.0,0.0,0.07356105500298682,0.0,0.0,0.0,0.4723479744871155,0.5104036521404185,0.9620050167225032,-0.0004897421451112866,0.005748096079192915,0.0997108083584406
7357,11.0,300.15636,-6373.6304,0.0,0.0,0.07357105942336117,0.0,0.0,0.0,0.48445290866177954,0.48518227648126255,0.9677893069058681,-0.012987052486472288,-0.006875468335305894,0.088408250725965
7358,11.0,299.74835,-6380.8929,0.0,0.0,0.07358103093445756,0.0,0.0,0.0,0.4888605668617816,0.48689077826987853,0.963880765572625,-0.013704715240800087,-0.007715554601165953,0.093848876872913
7359,11.0,299.51696,-6286.6339,0.0,0.0,0.07359103535483191,0.0,0.0,0.0,0.4912521005428076,0.48598450711543656,0.933743120693271,-0.001824416586805898,0.009448401344634611,0.09096757558380072
7360,11.0,300.12582000000003,-6253.7079,0.0,0.0,0.07360103977520582,0.0,0.0,0.0,0.4724234109570606,0.4837297419329085,0.9448179037562671,0.0029715325277424273,-0.006708904710992344,0.0990931604817335
7361,11.0,299.32988,-6376.1513,0.0,0.0,0.07361104419557996,0.0,0.0,0.0,0.4898001536795116,0.49392704027680356,0.954463598878223,-0.013131103213438987,0.00026951844709939977,0.0935651617786625
7362,11.0,299.3328,-6511.0057,0.0,0.0,0.07362104861595409,0.0,0.0,0.0,0.48176625575662757,0.5223375800957055,0.9750793070028352,0.012351880449285688,-0.003076411411143167,0.1125729676375869
7363,11.0,300.05162,-6437.5187,0.0,0.0,0.07363105303632844,0.0,0.0,0.0,0.4817323422757805,0.49694647491229854,0.978166112637479,0.00960624645846271,0.01047718740576789,0.0949931716215961
7364,11.0,299.7907,-6331.1818,0.0,0.0,0.0736410574567028,0.0,0.0,0.0,0.48350095006032856,0.5005945501748355,0.9404256672227871,0.013718169175627886,0.003698653870428716,0.09504786686199411
7365,11.0,299.87886000000003,-6282.9332,0.0,0.0,0.07365106187707693,0.0,0.0,0.0,0.4778839879984775,0.4869436091300925,0.945027210829424,-0.0070859481441286325,-0.007308407912858703,0.0948631716337661
7366,11.0,300.40341,-6350.9116,0.0,0.0,0.07366103338817331,0.0,0.0,0.0,0.4667411955887696,0.4949712451673585,0.968806113513719,-0.007245499875100164,0.006649017982381984,0.08731696415626342
7367,11.0,300.41589,-6423.2831,0.0,0.0,0.07367103780854745,0.0,0.0,0.0,0.4712245030412376,0.5152331162245495,0.966060043622703,-0.01061081786870619,0.02023255773179798,0.09292406830789152
7368,11.0,300.22013,-6442.9795,0.0,0.0,0.07368104222892158,0.0,0.0,0.0,0.4776089919213375,0.5065066719908164,0.97438923302223,-0.005522658165768925,0.007941479381262993,0.0936260672289234
7369,11.0,299.93932,-6367.512,0.0,0.0,0.07369104664929571,0.0,0.0,0.0,0.4819469587794616,0.5032463878065515,0.9503713046393452,-0.018145500639571484,-0.007096570855527013,0.09495816687039141
7370,11.0,299.83988999999997,-6322.3967,0.0,0.0,0.07370105106967006,0.0,0.0,0.0,0.49108716369152955,0.4943168375902735,0.936446715140095,0.0004716847009716555,-0.006842622414764253,0.09926760465869981
7371,11.0,299.66135,-6434.7011,0.0,0.0,0.0737110554900442,0.0,0.0,0.0,0.4962577688193285,0.5017585516247136,0.9579721496019901,0.004016872258409426,0.0012711512294028588,0.09648767802884241
7372,11.0,299.11641000000003,-6421.4729,0.0,0.0,0.07372105991041833,0.0,0.0,0.0,0.47725653287405256,0.5256449196146146,0.949065975065519,0.026669928134616976,0.012843769803081388,0.10903913632382489
7373,11.0,299.05846,-6273.5605,0.0,0.0,0.07373106433079268,0.0,0.0,0.0,0.4638409799600406,0.47269219581108757,0.970472575555686,0.01075405394259249,0.0013154757537023488,0.08306524413340133
7374,11.0,299.54782,-6202.3035,0.0,0.0,0.07374103584188907,0.0,0.0,0.0,0.4416661433765546,0.4928227496553185,0.9508565095822311,-0.006963194819688822,-0.010614713815340689,0.11003689382979588
7375,11.0,299.98201,-6242.4891,0.0,0.0,0.0737510402622632,0.0,0.0,0.0,0.47011278529651956,0.4907494069031955,0.9366986293799572,-0.01039542926844899,-0.004316758722930915,0.08396890211583541
7376,11.0,299.50371,-6446.6135,0.0,0.0,0.07376104468263733,0.0,0.0,0.0,0.5048296822803106,0.49400880955987353,0.960771019955717,-0.003133235895301307,-0.001009982844655046,0.1084031395010569
7377,11.0,299.37067,-6500.5171,0.0,0.0,0.07377104910301169,0.0,0.0,0.0,0.5098163419849555,0.5081760217955684,0.9580025268399881,-0.011616812084740089,-0.012794795372747988,0.0930165111675149
7378,11.0,299.86508,-6257.85,0.0,0.0,0.07378105352338582,0.0,0.0,0.0,0.4688163317935696,0.4877808982177266,0.9456329216067032,-0.007043472091986572,0.0007167064488834194,0.10546112730570291
7379,11.0,300.55773999999997,-6266.9484,0.0,0.0,0.07379105794375995,0.0,0.0,0.0,0.45817433824578657,0.49507997703558954,0.9517415328820762,0.0006523269794621603,0.014095433598610986,0.08052327017027802
7380,11.0,300.44768,-6434.3761,0.0,0.0,0.07380106236413408,0.0,0.0,0.0,0.4781941539865886,0.5093789016517835,0.9683166225229101,0.006125728514612334,0.016030726090859485,0.1062344701795259
7381,11.0,299.78435,-6461.9409,0.0,0.0,0.07381103387523069,0.0,0.0,0.0,0.48983062211001854,0.5030994057470455,0.9713386510786611,-0.0022333586529653376,0.0020673681229083484,0.08631858046173062
7382,11.0,299.71027999999995,-6277.8417,0.0,0.0,0.07382103829560482,0.0,0.0,0.0,0.47469101401835556,0.4879660190109965,0.9456500961958982,-0.007943866699823603,-0.004683357574036405,0.09640852191778032
7383,11.0,300.36362,-6184.3625,0.0,0.0,0.07383104271597896,0.0,0.0,0.0,0.44886044200157654,0.4955394758234385,0.935491868775859,0.006357040846816084,-0.002156492993754288,0.1017031752023219
7384,11.0,300.86408,-6300.7758,0.0,0.0,0.07384104713635309,0.0,0.0,0.0,0.4693227541935495,0.49330320245523557,0.9526525561794871,0.004558521817991076,-0.003393205473458307,0.09323218145129991
7385,11.0,298.96419,-6567.62,0.0,0.0,0.07385105155672722,0.0,0.0,0.0,0.48971655041376055,0.5177950887048965,0.988880857542442,0.011929476747597688,0.001251921971655079,0.0992814760525688
7386,11.0,299.31036,-6458.2418,0.0,0.0,0.07386105597710158,0.0,0.0,0.0,0.4835648861416385,0.5032746473518406,0.9763047012762721,-0.0046999750783264255,-0.00036866650952455164,0.08641718185546182
7387,11.0,299.74309,-6228.9117,0.0,0.0,0.07387106039747571,0.0,0.0,0.0,0.4591815899051946,0.49034764310604456,0.943904397996111,0.0064677169393389635,0.003454578234665327,0.10021077838178381
7388,11.0,299.70835,-6335.9217,0.0,0.0,0.07388106481784984,0.0,0.0,0.0,0.48447829057678454,0.49902681922261255,0.9424568891682531,-0.004081167334229856,0.01011243682416981,0.0982978614914936
7389,11.0,299.6216,-6584.0069,0.0,0.0,0.07389103632894645,0.0,0.0,0.0,0.5187492156615615,0.5044465217549955,0.978177947398647,0.003739985355257816,-0.00040985830769486566,0.09897471053179341
7390,11.0,299.87251000000003,-6583.1373,0.0,0.0,0.07390104074932058,0.0,0.0,0.0,0.5089422617861905,0.5255751978752335,0.966591898600193,-0.0068433693827379734,-0.005423185782251765,0.09848015633023471
7391,11.0,299.52704,-6229.4588,0.0,0.0,0.07391104516969471,0.0,0.0,0.0,0.4666258775948886,0.4810132184148085,0.945960819471564,0.008987803281752122,-0.01118130199300859,0.08624987906520032
7392,11.0,300.5594,-6097.5057,0.0,0.0,0.07392104959006884,0.0,0.0,0.0,0.44033500632268163,0.4719576604160945,0.9411968113438931,0.0010706452466144592,-0.0007713580891296163,0.08989509290945492
7393,11.0,300.17761,-6367.1095,0.0,0.0,0.07393105401044298,0.0,0.0,0.0,0.4901674973707656,0.48754425365687154,0.9577305603806471,0.002739993936791347,-0.008230349182747222,0.09090652523877552
7394,11.0,300.30596,-6543.0232,0.0,0.0,0.07394105843081711,0.0,0.0,0.0,0.5076559813142445,0.49131049414607053,0.989949187917878,-0.013615089216454686,0.006520481938296464,0.1028028656683529
7395,11.0,299.82202,-6296.7389,0.0,0.0,0.07395106285119146,0.0,0.0,0.0,0.48062071572357157,0.4927145750746425,0.9407161052314512,0.004327097217676246,-0.004704271056100405,0.10431466521505589
7396,11.0,299.7229,-6132.5902,0.0,0.0,0.0739610672715656,0.0,0.0,0.0,0.44467408775591555,0.49103677476405655,0.9284434173702311,0.0018360453542285685,0.00889581000119809,0.1082068425591839
7397,11.0,299.49054,-6247.4197,0.0,0.0,0.0739710387826622,0.0,0.0,0.0,0.46623034528585255,0.4891726174950785,0.9436566178166572,0.00943753038696173,-0.008569947857113002,0.0994709538212688
7398,11.0,299.65058999999997,-6505.8476,0.0,0.0,0.07398104320303633,0.0,0.0,0.0,0.5056763743288726,0.5080552018536445,0.963883643202909,0.006620694298361654,0.002748638986644547,0.09506805992323701
7399,11.0,299.13697,-6542.8335,0.0,0.0,0.07399104762341047,0.0,0.0,0.0,0.5003284605660745,0.5094507917463785,0.9790787571350501,0.0027540721350057576,-0.002802598506144937,0.09401418153397731
7400,11.0,300.27115,-6278.937,0.0,0.0,0.0740010520437846,0.0,0.0,0.0,0.46799474808248553,0.49017184421369453,0.9504734807794292,0.005989447389412434,0.007800953852719202,0.09789853253433291
7401,11.0,299.79443,-6309.58,0.0,0.0,0.07401105646415873,0.0,0.0,0.0,0.46892026085632654,0.5061189822375546,0.942915516561016,0.00017495656740936882,-0.00043318769210479657,0.1139646565174359
7402,11.0,299.64061,-6510.8929,0.0,0.0,0.07402106088453286,0.0,0.0,0.0,0.49915895716815356,0.4970513462976485,0.982938571270984,0.0003233223921794357,0.008988654918461172,0.1031911735041759
7403,11.0,300.09309,-6427.5532,0.0,0.0,0.074031065304907,0.0,0.0,0.0,0.4818863765559825,0.5021093185443316,0.96981998169628,-0.001758169889967858,-0.0015296830056679585,0.1066900071594839
7404,11.0,299.95108999999997,-6253.4021,0.0,0.0,0.07404103681600382,0.0,0.0,0.0,0.4663387427815506,0.4893102067261575,0.9452291414418531,0.00016773366473402384,0.015334666841913787,0.09267412889247441
7405,11.0,299.5477,-6208.816999999999,0.0,0.0,0.07405104123637796,0.0,0.0,0.0,0.46242583434037654,0.48207760724735554,0.9428218821192752,-0.0009119056659955823,0.004250759765742326,0.0893246300634046
7406,11.0,299.61332999999996,-6310.0944,0.0,0.0,0.07406104565675209,0.0,0.0,0.0,0.48380970763080056,0.4945006107609105,0.939800816151119,-0.007968695481599012,0.010568601816539791,0.09839860996218672
7407,11.0,299.25383999999997,-6549.1253,0.0,0.0,0.074071050077126,0.0,0.0,0.0,0.5048838607631575,0.5002245213708165,0.985662177407283,0.004136150945606316,-0.0036955320468706164,0.09093790052812202
7408,11.0,299.25997,-6568.2773,0.0,0.0,0.07408105449750035,0.0,0.0,0.0,0.5000135626999965,0.5215176885122885,0.9750610482360331,0.004286238920643845,-0.00014533930751637285,0.09969608786098781
7409,11.0,299.63013,-6406.6678,0.0,0.0,0.07409105891787449,0.0,0.0,0.0,0.47742235125291754,0.5064396556292025,0.963605050087914,0.017151370568958484,-0.023323500466600276,0.09460369449515771
7410,11.0,299.57227,-6319.7298,0.0,0.0,0.07410106333824862,0.0,0.0,0.0,0.48542798963051254,0.47562264682280053,0.9599894089610782,0.0033797819361335068,-0.004382890821182647,0.09048546409347001
7411,11.0,299.99599,-6361.5751,0.0,0.0,0.07411106775862275,0.0,0.0,0.0,0.47981179763873755,0.49930256510482646,0.9546456393911892,0.0022918772912906777,-0.01195769170988229,0.08498690131905412
7412,11.0,299.84324,-6366.6446,0.0,0.0,0.07412103926971958,0.0,0.0,0.0,0.4802868194181185,0.49359508941154256,0.961419054189673,-0.008134971545534182,0.014192070300398287,0.08997729181056732
7413,11.0,300.34542000000005,-6234.3566,0.0,0.0,0.07413104369009371,0.0,0.0,0.0,0.4592071643377185,0.4865783426015436,0.9493032275764341,0.004094220224668077,0.0035082874813910166,0.10386862238853489
7414,11.0,299.8015,-6195.9449,0.0,0.0,0.07414104811046784,0.0,0.0,0.0,0.46094597243682556,0.4871646496394076,0.935301935044614,0.0025849953464691772,0.01125194781648079,0.1076786150170519
7415,11.0,299.07262000000003,-6289.8504,0.0,0.0,0.07415105253084175,0.0,0.0,0.0,0.46398854970460457,0.48821913901847747,0.959749775312428,0.0004384011982418296,-0.007806875387628612,0.1083361839344489
7416,11.0,299.64852,-6380.4158,0.0,0.0,0.07416105695121589,0.0,0.0,0.0,0.4846075002295365,0.5016413793831495,0.9532382147372872,-0.011054007382945591,0.0053344763439468245,0.09204798896667922
7417,11.0,300.08787,-6489.5789,0.0,0.0,0.07417106137159024,0.0,0.0,0.0,0.4975174413436485,0.5128191593188105,0.962333330019905,-0.005994086352345264,-0.012877840337693887,0.10258083217393989
7418,11.0,300.39836,-6416.4282,0.0,0.0,0.07418106579196437,0.0,0.0,0.0,0.4997085744198965,0.48479816350085353,0.9659272267995951,-0.01179891237946199,0.010608887627265688,0.07664247061152292
7419,11.0,300.56821,-6329.8831,0.0,0.0,0.07419107021233873,0.0,0.0,0.0,0.47582683698295253,0.49990957284223353,0.9483899953938051,0.006660889828503644,-0.0005469294032027295,0.0981584352379833
7420,11.0,300.83305,-6345.5439,0.0,0.0,0.07420104172343511,0.0,0.0,0.0,0.4687531759148365,0.4924440575629445,0.9676896740235351,0.0009167067590769132,-0.0012347854806638388,0.07935920488564373
7421,11.0,300.85573999999997,-6398.5921,0.0,0.0,0.07421104614380947,0.0,0.0,0.0,0.4852036256608696,0.4984925729748865,0.9613160370520061,0.015041023923183487,-0.01145756868577399,0.1029410831144939
7422,11.0,300.44647000000003,-6371.1373,0.0,0.0,0.07422105056418338,0.0,0.0,0.0,0.4805128755154286,0.4895277920526316,0.9666259843335571,0.0021466364007565178,-0.013234300709623788,0.09020490020703051
7423,11.0,299.76711,-6277.0959,0.0,0.0,0.07423105498455751,0.0,0.0,0.0,0.48158922069915555,0.4784347704878355,0.948056433460885,0.014235464762430986,-0.0005819690912708774,0.0969427712052566
7424,11.0,300.19322999999997,-6274.456,0.0,0.0,0.07424105940493164,0.0,0.0,0.0,0.45906859225404256,0.4983700507727945,0.9498393280718431,-0.018349070690662283,0.009042392840164691,0.1048214625175729
7425,11.0,300.00496,-6419.2388,0.0,0.0,0.074251063825306,0.0,0.0,0.0,0.48201159400334054,0.5073958192185685,0.961880903717754,-0.006672948213968713,-0.002050381896906938,0.1081587334444359
7426,11.0,299.4887,-6528.7142,0.0,0.0,0.07426106824568035,0.0,0.0,0.0,0.48773696369339054,0.5193692639277555,0.977459867185278,-0.017194450923460183,0.007348248602815673,0.10611625429035891
7427,11.0,299.94602000000003,-6417.263000000001,0.0,0.0,0.07427103975677674,0.0,0.0,0.0,0.49058003201647954,0.5139779931931785,0.9461296776007291,0.004892150524092665,0.006290580759506984,0.09796779729791881
7428,11.0,299.2471,-6382.4874,0.0,0.0,0.07428104417715087,0.0,0.0,0.0,0.4809503462461035,0.5037125233825556,0.955453939393462,-0.005213094858817405,0.004742503312848635,0.08602164144042501
7429,11.0,300.15671000000003,-6373.61,0.0,0.0,0.074291048597525,0.0,0.0,0.0,0.48826645779814754,0.5005202586775035,0.9486315846151481,0.0070061407159022525,-0.013481892424559185,0.09953252902984581
7430,11.0,300.60667,-6488.5031,0.0,0.0,0.07430105301789913,0.0,0.0,0.0,0.48783916009847655,0.5057726736183765,0.9787311008932391,0.0034839679591158667,-0.006824272151478224,0.0903154194484379
7431,11.0,300.06985,-6418.9404,0.0,0.0,0.07431105743827326,0.0,0.0,0.0,0.48005904079563855,0.49184939121175547,0.979289148385814,0.0029283086970265672,-0.0006116195047071453,0.10498050225326891
7432,11.0,299.95737,-6255.6218,0.0,0.0,0.07432106185864762,0.0,0.0,0.0,0.4526981875503326,0.4895015083450376,0.9593531182957811,0.002753974964321167,-0.008404320577216863,0.09108398484803941
7433,11.0,300.3981,-6258.8744,0.0,0.0,0.07433106627902175,0.0,0.0,0.0,0.46497630643208854,0.4893841638509565,0.9481810632231852,-0.0033634891785005367,-0.014964240843855586,0.11232872370098189
7434,11.0,300.57387,-6439.6709,0.0,0.0,0.07434107069939588,0.0,0.0,0.0,0.49536808456902354,0.4971331662432235,0.9649978940728771,-0.0053918583183099845,-0.0012454325100646187,0.09511683170355041
7435,11.0,300.5954,-6477.7093,0.0,0.0,0.07435104221049249,0.0,0.0,0.0,0.5048525614675685,0.5111500526940825,0.9530592646371261,-0.00032272308514278873,0.013195812404575288,0.10573663000789289
7436,11.0,299.8321,-6417.3104,0.0,0.0,0.07436104663086662,0.0,0.0,0.0,0.4898005792445535,0.4941129108751475,0.966788631239609,-0.01022553357118159,0.005449622895910905,0.08880075139070183
7437,11.0,299.66736000000003,-6381.0293,0.0,0.0,0.07437105105124076,0.0,0.0,0.0,0.4737815409935976,0.5153745152760044,0.950517526761276,-0.015251045337660986,0.018152779828289882,0.10038727540345271
7438,11.0,299.95116,-6385.7965,0.0,0.0,0.07438105547161489,0.0,0.0,0.0,0.47755162170067555,0.4965850992641336,0.966985961696584,0.0002983992768197157,0.0064325159215898944,0.08495074146273542
7439,11.0,299.69375,-6465.3023,0.0,0.0,0.07439105989198924,0.0,0.0,0.0,0.4974333821153525,0.5014785196945765,0.9663785689241392,-0.002852973349441547,0.01982003524508518,0.08581325946460931
7440,11.0,300.21422,-6387.5503,0.0,0.0,0.07440106431236337,0.0,0.0,0.0,0.4845258930664825,0.4952075857531835,0.961922315249341,0.0038790977038871367,-0.01090697871393499,0.0918814147032396
7441,11.0,300.25154,-6301.5406,0.0,0.0,0.0744110687327375,0.0,0.0,0.0,0.48314369834007054,0.4797325614809176,0.9526347229777271,0.007790695911356823,-0.021450877493036778,0.09402101489265172
7442,11.0,300.08946000000003,-6354.0401,0.0,0.0,0.07442107315311164,0.0,0.0,0.0,0.46721470762550155,0.4985580795938515,0.9656967427993481,0.01125534727056629,-0.006816147608201394,0.12157309072332989
7443,11.0,300.13898,-6367.6189,0.0,0.0,0.07443104466420825,0.0,0.0,0.0,0.4768760675940036,0.49703484045351953,0.961686258373544,0.00984122483085327,0.0035207198574679966,0.1034264096473919
7444,11.0,299.77187000000004,-6378.0316,0.0,0.0,0.07444104908458238,0.0,0.0,0.0,0.4761197675868626,0.4933127472711775,0.969329832092906,-0.004642533626182396,-0.012651688994874488,0.11136894280875889
7445,11.0,300.07358999999997,-6319.8228,0.0,0.0,0.07445105350495651,0.0,0.0,0.0,0.4829760358460235,0.49923757524341256,0.9388547040027452,-0.02093997146136428,0.0015672073045713186,0.09736494287267171
7446,11.0,300.62552999999997,-6262.6157,0.0,0.0,0.07446105792533064,0.0,0.0,0.0,0.47091449917314254,0.49472306982036557,0.9380412465574631,0.012619703728967788,0.005096479600833375,0.10294505505488591
7447,11.0,300.20612,-6395.5885,0.0,0.0,0.07447106234570477,0.0,0.0,0.0,0.4972363556334075,0.4889591459640105,0.9579037248227372,0.00966836851811868,0.023380437016219478,0.08489584154581721
7448,11.0,300.72904,-6511.4932,0.0,0.0,0.07448106676607913,0.0,0.0,0.0,0.48680276736619255,0.5185584004027295,0.9739701831783731,-0.007028719170530572,-0.010338963880126291,0.08956663775703891
7449,11.0,300.68773,-6441.7756,0.0,0.0,0.07449107118645326,0.0,0.0,0.0,0.49043566414223155,0.4941469459460065,0.973556311042527,-0.006789116020708584,-0.01889733626677188,0.08922489686931173
7450,11.0,300.04392,-6403.2471,0.0,0.0,0.0745010756068274,0.0,0.0,0.0,0.47975751783088055,0.49998292201697253,0.96668680973706,-0.004054477313345756,-0.005995951340479324,0.09657918261887322
7451,11.0,299.80715,-6369.1939,0.0,0.0,0.074511047117924,0.0,0.0,0.0,0.49182372558672255,0.4828684084204016,0.9613837829536921,0.014833437348696287,0.01851987932626978,0.08981680312722833
7452,11.0,299.9116,-6324.1693,0.0,0.0,0.07452105153829836,0.0,0.0,0.0,0.4867250510835225,0.48585902622305255,0.9498054855185031,-0.004330871675623756,-0.00846964947211432,0.1009855083949937
7453,11.0,299.96547000000004,-6372.8558,0.0,0.0,0.07453105595867227,0.0,0.0,0.0,0.48927347641003255,0.5041090385441885,0.9438065180364512,-0.01036484532743059,0.0018049965340642884,0.11515230722464789
7454,11.0,300.07172,-6330.984,0.0,0.0,0.0745410603790464,0.0,0.0,0.0,0.46801456725444157,0.4902184030557896,0.9662280708867861,0.008311508590582032,-0.013676887340053687,0.1107114448188689
7455,11.0,299.72841,-6297.0292,0.0,0.0,0.07455106479942053,0.0,0.0,0.0,0.46941747281289753,0.4960418553555195,0.9486803016799561,0.006344677169095884,0.023667900122589878,0.0996500336174426
7456,11.0,299.73945,-6348.8443,0.0,0.0,0.07456106921979466,0.0,0.0,0.0,0.46348119511453256,0.4923625517249005,0.974046399850895,0.006294119332831214,-0.004608611532709545,0.092057693876137
7457,11.0,300.55489,-6514.0321,0.0,0.0,0.07457107364016902,0.0,0.0,0.0,0.5035726543387515,0.49845291436597255,0.978077534313737,-0.003084040677771117,0.005704150915730864,0.08201414508916592
7458,11.0,300.68457,-6612.7369,0.0,0.0,0.07458104515126562,0.0,0.0,0.0,0.5090136857857396,0.5304166183105445,0.9706765934633211,0.003966447563207897,0.006558497156873274,0.0868018703619276
7459,11.0,300.15019,-6491.0531,0.0,0.0,0.07459104957163976,0.0,0.0,0.0,0.5057509191387295,0.5031402498585765,0.964226891806785,0.013669404488065187,0.01991319244602908,0.08478750180537492
7460,11.0,299.56389,-6416.1124,0.0,0.0,0.07460105399201389,0.0,0.0,0.0,0.47156177346952355,0.5113636863451665,0.96741249945868,-0.002865453449598237,-0.017617749324986484,0.09607796528465691
7461,11.0,299.69253,-6373.0659,0.0,0.0,0.07461105841238802,0.0,0.0,0.0,0.4870397057695765,0.4984666236398256,0.9517465890000751,-0.0024135146220703478,-0.019845321914580782,0.10003145236583572
7462,11.0,299.55794,-6271.9808,0.0,0.0,0.07462106283276215,0.0,0.0,0.0,0.45629850833565655,0.4788832755120995,0.971343767991666,0.004606711688772046,-0.017802769806496584,0.1026572008339769
7463,11.0,299.61458,-6176.2508,0.0,0.0,0.07463106725313629,0.0,0.0,0.0,0.47148667137211153,0.4794101047690935,0.926529246076317,0.004140744514934666,0.018054647569354983,0.1049877773889869
7464,11.0,299.8147,-6268.2068,0.0,0.0,0.07464107167351042,0.0,0.0,0.0,0.4714461515006126,0.4887293408413305,0.945202857734259,0.0013041115458807886,-0.012902888893415988,0.1036867743930879
7465,11.0,299.73034,-6403.7471,0.0,0.0,0.07465107609388455,0.0,0.0,0.0,0.49279192658727655,0.49516216175120054,0.9586251284964341,-0.014148581606106285,0.0067829168552717735,0.10727568598228589
7466,11.0,300.4275,-6559.1492,0.0,0.0,0.07466104760498138,0.0,0.0,0.0,0.4859275725923175,0.5326512400810846,0.97523874190607,-0.0046127722415951755,-0.0030004485577712165,0.10896202799121489
7467,11.0,300.23542000000003,-6606.2604,0.0,0.0,0.07467105202535551,0.0,0.0,0.0,0.5076498410186385,0.5075745058737035,0.99291387665047,-0.005930705937390104,0.01760397317662688,0.07714297360441873
7468,11.0,300.07755,-6455.0034,0.0,0.0,0.07468105644572964,0.0,0.0,0.0,0.47620677537294953,0.5036161835630475,0.982336913494105,-0.015668049429566087,-0.01002750782198797,0.08450565007805833
7469,11.0,299.99579,-6336.1699,0.0,0.0,0.07469106086610355,0.0,0.0,0.0,0.48759153190653753,0.4940458539835295,0.9444000495475281,-0.007442885554205613,-0.007121345225772053,0.07545967945179052
7470,11.0,299.60504,-6458.0481,0.0,0.0,0.07470106528647791,0.0,0.0,0.0,0.4972217952294706,0.5005430669372545,0.965320502772216,0.0036295220452559366,-0.002200103886008348,0.09044440517291782
7471,11.0,299.86728999999997,-6457.7874,0.0,0.0,0.07471106970685204,0.0,0.0,0.0,0.4974287008998905,0.5108153052585455,0.9547621023576832,-0.00852281115848597,0.01966301593008858,0.0954237573178416
7472,11.0,299.52496,-6253.4422,0.0,0.0,0.07472107412722617,0.0,0.0,0.0,0.46307459811440455,0.48119123632487754,0.956624435776481,0.01021679124931879,-0.017191804314198984,0.11914066226826789
7473,11.0,300.02029,-6259.0086,0.0,0.0,0.0747310785476003,0.0,0.0,0.0,0.4587006406127286,0.4886326362517866,0.9552490399582401,-0.007304038474452473,-0.016347876411909785,0.11695856738291188
7474,11.0,300.20236,-6363.4126,0.0,0.0,0.07474105005869713,0.0,0.0,0.0,0.47325255351389056,0.49518140337059957,0.9658845791028859,0.024514330752626077,-0.018710413914824083,0.11937408469380488
7475,11.0,300.13501,-6491.8657,0.0,0.0,0.07475105447907127,0.0,0.0,0.0,0.5104251026450355,0.4873325857109816,0.9756074028224542,0.006930900411176614,0.01208514540021099,0.08584944971843102
7476,11.0,299.59296,-6533.6118,0.0,0.0,0.07476105889944518,0.0,0.0,0.0,0.49422349699106155,0.5252395385146065,0.966591817540185,0.013983340779798287,0.001078784583342749,0.1020921112532069
7477,11.0,300.00386000000003,-6457.2226,0.0,0.0,0.07477106331981931,0.0,0.0,0.0,0.4935459569141935,0.5028422530041665,0.9664462033683141,-0.007020946427688464,0.013596962172165685,0.09381661296322882
7478,11.0,299.40106000000003,-6310.4032,0.0,0.0,0.07478106774019344,0.0,0.0,0.0,0.45738930246580956,0.5039092762869736,0.9569064334118121,0.00041880627879796163,0.0077773465439393424,0.09541506667173391
7479,11.0,299.10049,-6422.7252,0.0,0.0,0.0747910721605678,0.0,0.0,0.0,0.48074112023295457,0.5122496317026025,0.9593573435486981,-0.0033369998824612467,0.024700190205218974,0.08485476236026301
7480,11.0,299.11773999999997,-6608.6184,0.0,0.0,0.07480107658094193,0.0,0.0,0.0,0.5044389122467445,0.5058364577121716,0.9985796267046361,-0.007204867330190043,-0.01018093334152989,0.08932535960347661
7481,11.0,299.5958,-6401.0976,0.0,0.0,0.07481104809203853,0.0,0.0,0.0,0.49612223648595255,0.4965429784574765,0.953108609916996,-0.016491286764813283,-0.026263445631750273,0.08719152886013393
7482,11.0,300.32579,-6267.0142,0.0,0.0,0.07482105251241267,0.0,0.0,0.0,0.46292111098925653,0.4909285495208755,0.9511661588127912,0.008837477395591112,-0.02068052573350898,0.12146981014063687
7483,11.0,300.04229,-6461.6945,0.0,0.0,0.07483105693278702,0.0,0.0,0.0,0.5035737587813605,0.49207104980363153,0.9685489506383391,0.01049893681916439,-0.00032312082633704267,0.1022545149792349
7484,11.0,300.21539,-6536.4633,0.0,0.0,0.07484106135316093,0.0,0.0,0.0,0.49188968816823253,0.5098540247561746,0.9851779350519921,0.00936521553792481,-0.005267013949638805,0.1274878672545729
7485,11.0,300.205,-6435.4306,0.0,0.0,0.07485106577353506,0.0,0.0,0.0,0.4800175279390415,0.5038680268754024,0.972324654883472,-0.004102196326805256,-0.0007739083383063063,0.0929975248871411
7486,11.0,299.78628,-6324.840999999999,0.0,0.0,0.0748610701939092,0.0,0.0,0.0,0.4743791052400726,0.4917234543568266,0.9564911528583271,0.005660775806775074,0.003648813516559856,0.1012568101622691
7487,11.0,300.26222,-6377.6801,0.0,0.0,0.07487107461428355,0.0,0.0,0.0,0.4942648578601435,0.5041693775876436,0.940221274412615,0.01874412677215128,0.005927974012470484,0.061866613226259345
7488,11.0,299.84185,-6564.2879,0.0,0.0,0.0748810790346579,0.0,0.0,0.0,0.5084358393862105,0.5145614732632635,0.972382298681661,-0.004715292177438105,0.005664127435455854,0.08672168985501441
7489,11.0,299.52238,-6634.3088,0.0,0.0,0.07489105054575429,0.0,0.0,0.0,0.5093824784246366,0.5395438637538335,0.9677378641982911,-0.01086881768866879,-0.004216366713622996,0.0954526683829449
7490,11.0,299.99592,-6481.5445,0.0,0.0,0.07490105496612842,0.0,0.0,0.0,0.4760491947173976,0.5198080518835605,0.9743704271003741,-0.011996221558184887,0.005420256780187695,0.10519386232682591
7491,11.0,300.55935,-6393.401,0.0,0.0,0.07491105938650255,0.0,0.0,0.0,0.47179603689264354,0.49957179578889754,0.9720664280954872,0.006995363382538613,0.02219865201383638,0.1068614592089049
7492,11.0,300.4654,-6362.1233,0.0,0.0,0.07492106380687669,0.0,0.0,0.0,0.4677176444451375,0.5010953895667645,0.9651135971017961,-0.006887531888346473,-0.003890448435482366,0.1121336325267279
7493,11.0,300.81237000000004,-6281.8466,0.0,0.0,0.07493106822725082,0.0,0.0,0.0,0.4892914109368025,0.47164269162250955,0.9485904263960862,0.0030596660346905273,-0.012686171922277688,0.11880144639978989
7494,11.0,300.29536,-6180.937,0.0,0.0,0.07494107264762517,0.0,0.0,0.0,0.46965197941604153,0.47726307846969857,0.9319354521173681,0.008136248949935252,-0.007103131953899544,0.11312758021232289
7495,11.0,299.6593,-6137.8822,0.0,0.0,0.0749510770679993,0.0,0.0,0.0,0.47010599652084956,0.47124794964855155,0.9244089898445641,0.03606765055959996,0.0034253841688090965,0.11126094048059988
7496,11.0,299.88794,-6295.8737,0.0,0.0,0.07496108148837344,0.0,0.0,0.0,0.45750502575973057,0.48193414116569655,0.974349219775781,-0.0009347212819423082,0.000931921621253503,0.09052814016118182
7497,11.0,299.94507999999996,-6535.3832,0.0,0.0,0.07497105299947004,0.0,0.0,0.0,0.49480453512840555,0.5109714167014525,0.9808173321866341,-0.005155855144768285,-0.00959357455006209,0.08258152968141243
7498,11.0,299.86365,-6609.3902,0.0,0.0,0.07498105741984418,0.0,0.0,0.0,0.4911459017998265,0.5204324267276815,0.997511245666695,-0.007251548370247103,0.006160463032015364,0.07803601576555513
7499,11.0,299.63568,-6610.4774,0.0,0.0,0.07499106184021831,0.0,0.0,0.0,0.5257550092379795,0.5103616123937695,0.973303454480072,0.004562198902603975,0.015987116819805587,0.06406779065074865
7500,11.0,300.38973,-6528.8534,0.0,0.0,0.07500106626059244,0.0,0.0,0.0,0.5046678155768356,0.5218608459236556,0.9580797466301091,0.0004209769746196926,0.011188466684465688,0.09334171277385982
7501,11.0,300.42842,-6414.2594,0.0,0.0,0.0750110706809668,0.0,0.0,0.0,0.5031939419813756,0.4944445780303805,0.9521361735310242,-0.01096810099971729,-0.01012023479693941,0.09835128206326581
7502,11.0,300.18817,-6256.9991,0.0,0.0,0.07502107510134093,0.0,0.0,0.0,0.4451417533395705,0.49318091330066655,0.963648832624735,-0.015118787828608184,0.012224495659963789,0.12226787631689989
7503,11.0,300.24457,-6123.999,0.0,0.0,0.07503107952171506,0.0,0.0,0.0,0.45040391574640554,0.4612921594659915,0.949846714665072,-0.005137659402122506,-0.007034673534743223,0.1005158102316381
7504,11.0,299.85459,-6136.6877,0.0,0.0,0.07504105103281145,0.0,0.0,0.0,0.44387178619423456,0.47098166752227155,0.950546394256625,-0.0036360590282760864,0.0008715704593273072,0.11540548802713489
7505,11.0,299.85114,-6277.6055,0.0,0.0,0.0750510554531858,0.0,0.0,0.0,0.4811129424896506,0.49527380164721846,0.931848576053794,0.003647628419242897,-0.019525739793290482,0.1040955904109349
7506,11.0,299.66964,-6487.9495,0.0,0.0,0.07506105987355993,0.0,0.0,0.0,0.4984389821770975,0.5024003442380536,0.9713353276183331,0.016065282985519985,0.004863441703709326,0.1023115204298609
7507,11.0,299.85873,-6639.4163,0.0,0.0,0.07507106429393429,0.0,0.0,0.0,0.5150193711159545,0.5182616397134414,0.984935758145591,0.023312261496491078,0.0064220611057330835,0.09762870808570331
7508,11.0,299.13122000000004,-6664.3256,0.0,0.0,0.0750810687143082,0.0,0.0,0.0,0.48968017473517056,0.5370919403668475,0.999016459087748,0.01071227257471899,0.0077070362075752534,0.09632391249468
7509,11.0,299.48954,-6533.0271,0.0,0.0,0.07509107313468233,0.0,0.0,0.0,0.4802776292397115,0.5149353524176625,0.9906641067909351,0.004431004596881105,-0.008062260718358182,0.09958952333472071
7510,11.0,299.54936000000004,-6352.0631,0.0,0.0,0.07510107755505668,0.0,0.0,0.0,0.4698545686410356,0.5006973747949836,0.960316648213374,-0.009134488661628842,0.013961139456857187,0.087164263313193
7511,11.0,299.42915,-6302.2611,0.0,0.0,0.07511108197543082,0.0,0.0,0.0,0.4843724363388375,0.4940966380785415,0.9372609325229521,-0.005332140194516265,0.016771416980209983,0.09758855805049081
7512,11.0,299.79861,-6222.9408,0.0,0.0,0.0751210534865272,0.0,0.0,0.0,0.4811104904244085,0.4690011790093126,0.9415069368020001,-0.016276606426375982,0.004545733993779016,0.1027967456377489
7513,11.0,300.23492000000005,-6199.5524,0.0,0.0,0.07513105790690155,0.0,0.0,0.0,0.4708324259150425,0.47696297405508054,0.9367137268064472,-0.020600411087852284,-0.014387702550205685,0.12356733917264688
7514,11.0,300.82826,-6265.8465,0.0,0.0,0.07514106232727591,0.0,0.0,0.0,0.4544558015712956,0.4789538585140656,0.971251227860033,-0.005742256009591545,0.004122453628104496,0.1096525579343649
7515,11.0,300.3311,-6403.3296,0.0,0.0,0.07515106674764982,0.0,0.0,0.0,0.4845102586174396,0.48477708789877355,0.977164960743673,0.007678318166616002,-0.0015254982827549585,0.0980101997881036
7516,11.0,299.91427999999996,-6623.9046,0.0,0.0,0.07516107116802395,0.0,0.0,0.0,0.5192835429692956,0.5048379098711225,0.9893801567942189,0.00892063604719823,0.003332189477611497,0.07742318690632363
7517,11.0,299.53177,-6637.0746,0.0,0.0,0.07517107558839808,0.0,0.0,0.0,0.5324393289551705,0.5145897936035585,0.9704758280885071,0.01109957830619309,-0.016669359390387682,0.07099593380575314
7518,11.0,299.97198,-6499.9031,0.0,0.0,0.07518108000877222,0.0,0.0,0.0,0.5012370621957465,0.5105364183010216,0.9640347593228231,0.013169466888725188,0.01008326687366596,0.08876571928174441
7519,11.0,299.63577999999995,-6588.9686,0.0,0.0,0.07519108442914657,0.0,0.0,0.0,0.5101116942566045,0.5147529471346605,0.97801727633029,0.0054206904512304945,0.0001772295305636928,0.07395381653742343
7520,11.0,299.51615,-6557.9351,0.0,0.0,0.07520105594024318,0.0,0.0,0.0,0.47658643005291856,0.5228243555762465,0.994037722998885,-0.01878879792930998,0.01028685648048369,0.11656580124664889
7521,11.0,299.5329,-6373.257,0.0,0.0,0.07521106036061731,0.0,0.0,0.0,0.47105203774171656,0.5001978424956836,0.966061107535308,-0.026601741469137474,-0.014969413485616086,0.1099340590771469
7522,11.0,299.81991,-6250.638000000001,0.0,0.0,0.07522106478099144,0.0,0.0,0.0,0.4475413220938896,0.4936886630582775,0.9588078884169712,-0.020699132045095284,0.013774794657466387,0.1110075772930949
7523,11.0,300.48647,-6121.5234,0.0,0.0,0.07523106920136557,0.0,0.0,0.0,0.45858824077913557,0.47773472612624657,0.9244672821228171,0.004854009358528426,0.006620240564966873,0.1079293842843009
7524,11.0,300.59864,-6239.7036,0.0,0.0,0.0752410736217397,0.0,0.0,0.0,0.4705693051290746,0.4805967928887106,0.9455480011158222,-0.004305804172124786,-0.0025623516385344177,0.10995575276178789
7525,11.0,300.3044,-6478.4951,0.0,0.0,0.07525107804211384,0.0,0.0,0.0,0.5016159670706415,0.5064248115152375,0.9612599739239731,0.008259478299272044,-0.021910458354143878,0.11373346324211889
7526,11.0,300.15283,-6564.6355,0.0,0.0,0.07526108246248797,0.0,0.0,0.0,0.48570213457756856,0.5201749193472676,0.989608208994226,0.0023383250811747176,0.01159306859514679,0.1108904861115389
7527,11.0,300.23248,-6507.4997,0.0,0.0,0.0752710539735848,0.0,0.0,0.0,0.48981111704559355,0.5087950162816585,0.9795112832052372,0.029994593216985874,0.008739849735206012,0.0983391038103139
7528,11.0,299.63929,-6567.6349,0.0,0.0,0.07528105839395893,0.0,0.0,0.0,0.5066829572432145,0.5154090367069115,0.9743050116739181,0.0029764350370262674,0.005987231816743775,0.07851211868279283
7529,11.0,299.54382999999996,-6560.1856,0.0,0.0,0.07529106281433307,0.0,0.0,0.0,0.5204236013193105,0.5066344934909316,0.967074509622823,-0.0042442633127261755,-0.006791351655729224,0.08143267632052942
7530,11.0,299.66167,-6304.8640000000005,0.0,0.0,0.0753010672347072,0.0,0.0,0.0,0.48764689589200155,0.4823538293571165,0.9465205084293011,-0.004084167061150905,-0.0014366919777404586,0.07355793871010334
7531,11.0,299.93306,-6275.7912,0.0,0.0,0.07531107165508111,0.0,0.0,0.0,0.47233676794100954,0.48804448509874054,0.9473025753864851,0.01035133971684769,-0.001054843611304959,0.10274138165228491
7532,11.0,300.38158,-6365.7971,0.0,0.0,0.07532107607545546,0.0,0.0,0.0,0.46453535012106956,0.4867622981571985,0.983745716168143,-0.0068396529840211925,-0.006049776300366434,0.1065980952429129
7533,11.0,300.73193,-6321.5148,0.0,0.0,0.0753310804958296,0.0,0.0,0.0,0.46942437304607854,0.4946108422392895,0.9575474458225751,-0.0005419187092057125,-0.011084253911680688,0.1138471499033389
7534,11.0,300.19214,-6360.5488,0.0,0.0,0.07534108491620373,0.0,0.0,0.0,0.46506169301801553,0.5024806645734805,0.9659056445724651,-0.006810184834012914,0.025169101073246877,0.098702689356947
7535,11.0,300.13026,-6445.098000000001,0.0,0.0,0.07535105642730033,0.0,0.0,0.0,0.5025467183474995,0.49069143886497457,0.965910690557963,-0.0003735738520113686,0.01055022145972579,0.08996733966808511
7536,11.0,299.6,-6504.6902,0.0,0.0,0.07536106084767469,0.0,0.0,0.0,0.5042972700152656,0.5154827101216826,0.957483438813758,0.0008594919304502493,0.0035098151585667863,0.09547017633142281
7537,11.0,299.88181000000003,-6570.5184,0.0,0.0,0.07537106526804882,0.0,0.0,0.0,0.5073607911626115,0.5137672574373805,0.976145479155558,0.0019509399108927781,-0.0013833583428268386,0.10067763437860891
7538,11.0,299.58046,-6592.146,0.0,0.0,0.07538106968842295,0.0,0.0,0.0,0.47693555550737454,0.5260279990799215,1.000884223527082,0.022495968977429278,-0.0024239009422203977,0.10994390786811889
7539,11.0,299.99977,-6443.1511,0.0,0.0,0.07539107410879686,0.0,0.0,0.0,0.47688605823998953,0.5223204966990195,0.9593504838455211,0.002777415492134567,-0.0032326576163134667,0.1054506908296729
7540,11.0,299.81434,-6363.3554,0.0,0.0,0.075401078529171,0.0,0.0,0.0,0.4691194252959825,0.4991512665998945,0.966030466852284,-0.0009229870959792342,-0.01163040990108209,0.1054715941792359
7541,11.0,300.15429,-6356.4226,0.0,0.0,0.07541108294954535,0.0,0.0,0.0,0.4888922410599075,0.5012376802783075,0.94206381905696,0.0022447950041940175,-0.01237794732135829,0.0964201672011796
7542,11.0,299.8013,-6277.1112,0.0,0.0,0.07542108736991948,0.0,0.0,0.0,0.47145644612162857,0.49683434865623255,0.939794290820475,0.0021110702076714083,0.010345440574765491,0.09989133507575722
7543,11.0,299.48067000000003,-6260.5486,0.0,0.0,0.07543105888101609,0.0,0.0,0.0,0.4555702753562856,0.48895841642393856,0.9585217668537331,0.0036118767000644764,-0.0023751910714881076,0.1092659624912109
7544,11.0,299.38957999999997,-6418.9654,0.0,0.0,0.07544106330139022,0.0,0.0,0.0,0.46646705064171357,0.5161820046781975,0.968556134581548,-0.007237440686454784,-0.018568885167356282,0.12375159870333188
7545,11.0,300.52585,-6555.1344,0.0,0.0,0.07545106772176458,0.0,0.0,0.0,0.5041510985558395,0.5041059278663815,0.984340139339308,0.005506945291168184,-0.0026242676031200474,0.1053087040931599
7546,11.0,300.33027999999996,-6465.9311,0.0,0.0,0.07546107214213849,0.0,0.0,0.0,0.49831058312442555,0.4978945122358625,0.969276484475141,0.017070198090197383,0.015651446313427485,0.08607100495879683
7547,11.0,300.79987,-6463.5434,0.0,0.0,0.07547107656251262,0.0,0.0,0.0,0.5131915084655585,0.5056010999789435,0.945963190476798,0.0031239683045866666,0.024591349919227276,0.07478133282784293
7548,11.0,300.12967000000003,-6532.07,0.0,0.0,0.07548108098288675,0.0,0.0,0.0,0.5186270278320025,0.4857236053471875,0.9812355309004072,-0.011513429163786988,0.0049466633794726655,0.05719792558849575
7549,11.0,299.8591,-6435.1358,0.0,0.0,0.0754910854032611,0.0,0.0,0.0,0.4836777622027785,0.5026221548174445,0.9698206808388491,0.006549538607439133,-0.002860400979299597,0.09492733366984842
7550,11.0,299.90256,-6388.2572,0.0,0.0,0.07550105691435771,0.0,0.0,0.0,0.46417340705284854,0.4995073125525335,0.97818993414733,0.012290859488513387,0.004843174979184155,0.0958715226695326
7551,11.0,299.68307000000004,-6465.0356,0.0,0.0,0.07551106133473184,0.0,0.0,0.0,0.48963262290797754,0.4987976321824935,0.9767791353705951,0.003308220033245897,-0.006498110794638604,0.1076660608483129
7552,11.0,299.5371,-6398.5456,0.0,0.0,0.07552106575510598,0.0,0.0,0.0,0.4831638620170606,0.5102188657196816,0.9516153731121252,-0.004183178213222546,-0.023211904140336578,0.10672319110025891
7553,11.0,299.98824,-6315.3082,0.0,0.0,0.07553107017548011,0.0,0.0,0.0,0.5044055357884505,0.47399115204178455,0.9412993015915082,-0.003983866852302046,-0.011968691552967887,0.1008975015443081
7554,11.0,299.7099,-6408.1025,0.0,0.0,0.07554107459585424,0.0,0.0,0.0,0.4771752803485335,0.5028791555728085,0.967848713759231,0.021943615950416277,0.01227328162577859,0.09113940354900882
7555,11.0,300.07367999999997,-6345.3209,0.0,0.0,0.07555107901622837,0.0,0.0,0.0,0.46268712114366356,0.5053891584555266,0.9607428313379351,0.009075915713098142,0.014639385769044886,0.11006820325788591
7556,11.0,299.98716,-6400.3012,0.0,0.0,0.07556108343660273,0.0,0.0,0.0,0.4624339504736776,0.4987190141072345,0.9843787745656211,-0.003313881162879607,-0.006608439950327244,0.10564928784927291
7557,11.0,300.07612,-6522.2243,0.0,0.0,0.07557108785697686,0.0,0.0,0.0,0.4995644902556765,0.5249041628640075,0.9581246842720441,-0.01971093962006828,-0.003158068223452067,0.11022420324328189
7558,11.0,300.43213,-6429.9063,0.0,0.0,0.07558105936807347,0.0,0.0,0.0,0.4943673481077585,0.49696926290704757,0.9631943392923802,0.0019197102255856483,0.0032123424584335173,0.0987422851443548
7559,11.0,300.39791,-6356.908,0.0,0.0,0.0755910637884476,0.0,0.0,0.0,0.49721072040587755,0.49762924335968256,0.9375013565066802,0.0026977895370010976,0.010122475498210552,0.08367974688179801
7560,11.0,299.91127,-6445.2667,0.0,0.0,0.07560106820882173,0.0,0.0,0.0,0.4882126947478415,0.5015506327041935,0.969436831303466,-0.006472377991123974,-0.015731166804795287,0.1036549786049499
7561,11.0,300.19532999999996,-6453.2764,0.0,0.0,0.07561107262919586,0.0,0.0,0.0,0.48366850109686454,0.49746210775568755,0.980504278435738,0.0004333773927885186,-0.004234971707984166,0.09426431954641401
7562,11.0,299.60999,-6339.4601,0.0,0.0,0.07562107704957,0.0,0.0,0.0,0.4555578731750615,0.4987380530766135,0.9727416376971252,0.008078627139273422,-0.004978182651658375,0.1108721361522279
7563,11.0,299.76215,-6268.1807,0.0,0.0,0.07563108146994435,0.0,0.0,0.0,0.4636312574543425,0.4958497836665635,0.945889385339514,0.01016006950872079,0.005319597171528365,0.10698328226842789
7564,11.0,299.52655,-6326.5379,0.0,0.0,0.07564108589031848,0.0,0.0,0.0,0.4778827619658565,0.4830867232869476,0.96214005256333,0.0009396820429743972,-0.02290922708371468,0.0945540067367539
7565,11.0,298.89101,-6395.3283,0.0,0.0,0.07565109031069261,0.0,0.0,0.0,0.5020563356966025,0.4965045256161815,0.945459250539563,-0.018337855025305383,0.0008451019855775723,0.09204471819535641
7566,11.0,299.45124,-6458.3125,0.0,0.0,0.075661061821789,0.0,0.0,0.0,0.4931027917179565,0.49415753440955157,0.9759053996768641,-0.006412139462078894,0.012154808371086187,0.07765428797588152
7567,11.0,299.43298,-6556.5986,0.0,0.0,0.07567106624216335,0.0,0.0,0.0,0.49636476802988855,0.5101106202114986,0.9865668780240701,-0.008769397222697121,0.014922994472034884,0.08366874703871242
7568,11.0,299.9021,-6589.0627,0.0,0.0,0.07568107066253749,0.0,0.0,0.0,0.5061303103736725,0.5158973725926065,0.980882838805599,-0.007437381782312432,-0.011977271754814688,0.0940285321951436
7569,11.0,299.93805,-6560.7217,0.0,0.0,0.07569107508291162,0.0,0.0,0.0,0.5044669995395165,0.5037252498038115,0.9861033262358211,0.0012458543260812488,-0.0012702118452351486,0.09886041997351382
7570,11.0,299.74481000000003,-6523.6855,0.0,0.0,0.07570107950328575,0.0,0.0,0.0,0.5058204888905955,0.5095112422473445,0.967705764435123,0.01908865308440338,-0.0005183007612998026,0.094360862015942
7571,11.0,299.72912,-6354.3665,0.0,0.0,0.07571108392365988,0.0,0.0,0.0,0.4895622425560315,0.4820820250177915,0.9599245001596721,-0.0022677619389106776,0.006478339448087323,0.08809026650008242
7572,11.0,299.66559,-6214.7178,0.0,0.0,0.07572108834403424,0.0,0.0,0.0,0.45825600620384654,0.4832687840649156,0.9475942495602712,-0.007671888790756472,-0.015046394148713487,0.11513476786541689
7573,11.0,299.56088,-6313.284000000001,0.0,0.0,0.07573109276440837,0.0,0.0,0.0,0.44638427153969756,0.5124174461841645,0.9602789755746561,-0.01883623323274148,0.005490704310615324,0.1109195866544109
7574,11.0,300.46366,-6344.1783,0.0,0.0,0.07574106427550475,0.0,0.0,0.0,0.46871385167845553,0.4927939429549755,0.966963994434416,-0.011665938502588489,0.015194120947042984,0.11326345705073289
7575,11.0,300.37462999999997,-6452.9333,0.0,0.0,0.07575106869587911,0.0,0.0,0.0,0.4625656121916715,0.5293763245653754,0.969588646565949,-0.00938498536460094,0.014335840357087288,0.11079653756226689
7576,11.0,300.2629,-6493.223000000001,0.0,0.0,0.07576107311625346,0.0,0.0,0.0,0.4903633890125985,0.5151664038379655,0.9682478431061221,-0.005042208912227276,-0.020152720716668678,0.1053818607503799
7577,11.0,299.81575,-6549.3159,0.0,0.0,0.07577107753662737,0.0,0.0,0.0,0.5138521272657566,0.4996346274275985,0.977341752621121,0.0062532082454686035,0.005545756924323595,0.08165286671301052
7578,11.0,299.38144,-6632.936,0.0,0.0,0.0757810819570015,0.0,0.0,0.0,0.5120995794952935,0.5203383971184015,0.9838089429743829,0.017621952286401284,0.005371833557908694,0.08373477041522842
7579,11.0,299.51649,-6560.1924,0.0,0.0,0.07579108637737564,0.0,0.0,0.0,0.5087697255591626,0.49995285888650554,0.985412107282603,0.0022169167449176477,0.00943836682491928,0.08482412775673961
7580,11.0,300.14932999999996,-6455.3986,0.0,0.0,0.07580109079774977,0.0,0.0,0.0,0.48600920002037357,0.5128580377251475,0.9634127250864332,-0.005851170566815574,-0.00894602991855441,0.1001775285797523
7581,11.0,299.25817,-6484.6168,0.0,0.0,0.07581106230884638,0.0,0.0,0.0,0.4911244918252135,0.5071774536895175,0.9728596408037712,-0.010991109882988091,-6.532749458582174e-05,0.0988846842736585
7582,11.0,299.80761,-6475.8859999999995,0.0,0.0,0.07582106672922073,0.0,0.0,0.0,0.49214628362355656,0.5060625138094815,0.9702988436935401,0.015021028445710087,-0.0025853852451076576,0.09743248105808722
7583,11.0,299.75968,-6402.5137,0.0,0.0,0.07583107114959486,0.0,0.0,0.0,0.4791646044023645,0.5073097841525775,0.9597298852129651,-0.00927339815758814,-0.0015507447262215885,0.0914264633818394
7584,11.0,300.14499,-6375.6757,0.0,0.0,0.075841075569969,0.0,0.0,0.0,0.46792432720053556,0.49834819496813754,0.9717736900090961,-0.006252885626636764,-0.03588543475436667,0.10079815845150371
7585,11.0,300.29061,-6432.0085,0.0,0.0,0.07585107999034313,0.0,0.0,0.0,0.4799922777465495,0.5077942595553915,0.9673834293133111,-0.008862632241248702,0.0100328955767447,0.10086123327022871
7586,11.0,300.03542000000004,-6525.6196,0.0,0.0,0.07586108441071726,0.0,0.0,0.0,0.5031051103451085,0.5108118196782016,0.9697084836552762,0.023252741159116876,0.03325527358203997,0.09999318393605891
7587,11.0,299.10652999999996,-6566.0557,0.0,0.0,0.0758710888310914,0.0,0.0,0.0,0.5033539037746625,0.5085509851275745,0.984012079354431,0.016851902475403285,0.035171111672368464,0.09260438486159123
7588,11.0,300.35607999999996,-6439.0748,0.0,0.0,0.07588109325146553,0.0,0.0,0.0,0.4891941085296996,0.5133675505379326,0.9547562964346101,0.0005969613930630024,0.0006834902968877402,0.09335822773723972
7589,11.0,299.82546,-6470.4578,0.0,0.0,0.07589106476256235,0.0,0.0,0.0,0.49535334178006857,0.5024605920889995,0.9690436699996641,-0.015386438855773284,-0.01004763238752411,0.08294434921096992
7590,11.0,299.67998,-6483.0632,0.0,0.0,0.07590106918293649,0.0,0.0,0.0,0.4916732072843676,0.5050222707268176,0.973993852700709,0.01116485593063549,-0.008341419328233993,0.0936940684696346
7591,11.0,299.67207,-6312.0743,0.0,0.0,0.07591107360331062,0.0,0.0,0.0,0.47007911499569655,0.4998713935784655,0.948762476263066,-0.0023011486310306876,-0.01057308848798259,0.1127907556140809
7592,11.0,299.93607000000003,-6296.2652,0.0,0.0,0.07592107802368475,0.0,0.0,0.0,0.4659554201362196,0.49431155855725256,0.953640424364482,-0.01049843222061459,-0.028205368832653174,0.11361821617574488
7593,11.0,299.63874,-6403.7597,0.0,0.0,0.07593108244405866,0.0,0.0,0.0,0.47396650979935256,0.5083268035429496,0.964289743710488,-0.011116177369331291,-0.008833157505114772,0.1277153013720189
7594,11.0,300.98368999999997,-6365.9795,0.0,0.0,0.07594108686443302,0.0,0.0,0.0,0.4784584501426726,0.4999920412678725,0.956648328213839,0.013809572440648687,0.020846862896425178,0.1054334655779729
7595,11.0,300.55519,-6365.9139,0.0,0.0,0.07595109128480715,0.0,0.0,0.0,0.4687708368640795,0.4893142799915595,0.9769937518742761,0.025758550199670976,0.01059134421503429,0.09002795938181782
7596,11.0,300.80531,-6402.4531,0.0,0.0,0.07596109570518128,0.0,0.0,0.0,0.48015671810527855,0.49642667761099857,0.9696024774298141,0.007305048684802173,-0.005299082302053705,0.08481686579327292
7597,11.0,300.56579,-6449.5485,0.0,0.0,0.07597106721627789,0.0,0.0,0.0,0.49015195411423157,0.4974682987137985,0.9728814459459231,0.004672753709089886,-0.015881633431395186,0.08444775600709463
7598,11.0,300.33684,-6567.965999999999,0.0,0.0,0.07598107163665224,0.0,0.0,0.0,0.5137360594668015,0.5174613545194595,0.965300237770216,0.0034150376693879766,0.01075716563364959,0.09614014135054322
7599,11.0,299.83112,-6588.7868,0.0,0.0,0.07599107605702637,0.0,0.0,0.0,0.5139186268698195,0.5102963793523315,0.97861164883895,-0.0025770730479123074,0.01167763647499299,0.09283375833972861
7600,11.0,299.88279,-6488.8806,0.0,0.0,0.07600108047740028,0.0,0.0,0.0,0.5068904202011896,0.5018163474104175,0.9637509175723101,-0.008683146233109812,-0.008450562879980623,0.099310092261893
7601,11.0,300.0208,-6393.8158,0.0,0.0,0.07601108489777442,0.0,0.0,0.0,0.4657288675463605,0.5089561230475586,0.968875348893052,-0.004538785225918225,-0.004073897568737386,0.101076410101215
7602,11.0,299.70527000000004,-6433.7367,0.0,0.0,0.07602108931814855,0.0,0.0,0.0,0.48172178420973855,0.5039033791713915,0.970070143013469,0.011079691246480389,0.009491177724106311,0.1033683605491629
7603,11.0,299.98884,-6420.1493,0.0,0.0,0.0760310937385229,0.0,0.0,0.0,0.4747767856393205,0.4915158292788355,0.9852724510213201,0.007943997003786462,0.0009526952140086972,0.09669235657554259
7604,11.0,299.93532999999996,-6278.0603,0.0,0.0,0.07604106524961951,0.0,0.0,0.0,0.4587735236924215,0.49678501350886356,0.9528150409655232,0.001278470644150229,-0.024301745815395577,0.1146839121009209
7605,11.0,299.77704,-6336.4071,0.0,0.0,0.07605106966999364,0.0,0.0,0.0,0.47260149979463656,0.4888306455863285,0.9646773726687441,0.007984737561157243,-0.021908977995747776,0.0997050520846225
7606,11.0,299.61564,-6477.0655,0.0,0.0,0.07606107409036778,0.0,0.0,0.0,0.5018604035247655,0.5008818065781855,0.966123989836514,0.006158219189668915,0.013603959677356286,0.08932350636904372
7607,11.0,300.79487,-6394.0245,0.0,0.0,0.07607107851074213,0.0,0.0,0.0,0.46808268805866454,0.5029713410669066,0.972569760082662,0.003651221404097497,0.015627610618075088,0.08829442322298112
7608,11.0,300.60382000000004,-6442.2284,0.0,0.0,0.07608108293111604,0.0,0.0,0.0,0.48538647677391555,0.4911687201920786,0.9817213640583551,-0.004884952699357295,-0.006536479333525284,0.07341872118611363
7609,11.0,300.23253,-6627.5907,0.0,0.0,0.07609108735149017,0.0,0.0,0.0,0.5045511803578245,0.5234547085959576,0.9866162131714391,0.0006245858838518274,-0.0023332593372997674,0.0996961050862395
7610,11.0,300.0564,-6537.1767,0.0,0.0,0.0761010917718643,0.0,0.0,0.0,0.5021984440231275,0.5142505473375776,0.9706894921370942,0.011641581996684688,0.015676788711678585,0.1021628259776859
7611,11.0,300.15041,-6342.3847,0.0,0.0,0.07611109619223866,0.0,0.0,0.0,0.4902400359454245,0.49103435309631754,0.946652180279796,-0.0032393805307269668,0.0016825564052303885,0.12199288023975989
7612,11.0,300.12594,-6414.9316,0.0,0.0,0.07612106770333527,0.0,0.0,0.0,0.4874126020713785,0.5051565263650676,0.9574098869889991,-0.025351859980533773,-0.012616030697355288,0.1106774502780139
7613,11.0,300.10322,-6329.7952,0.0,0.0,0.0761310721237094,0.0,0.0,0.0,0.4564943797124876,0.49474626311515457,0.97285902272121,-0.008315594521610282,-0.01858012616396568,0.12034073542170588
7614,11.0,299.98117,-6134.5365,0.0,0.0,0.07614107654408353,0.0,0.0,0.0,0.44066082702483755,0.4791548366714005,0.9449302427948542,0.0031934568951196567,0.02120724049324168,0.1017742242993339
7615,11.0,299.87377999999995,-6264.8478,0.0,0.0,0.07615108096445766,0.0,0.0,0.0,0.4561095371920066,0.4856504790874705,0.962597271538454,0.0012434661969205588,-0.001817753555473308,0.09030187938735161
7616,11.0,299.53187,-6452.9062,0.0,0.0,0.0761610853848318,0.0,0.0,0.0,0.4864235990462715,0.49673697532162253,0.97836178136429,-0.015352065359380883,-0.02007996935948868,0.08780438609036822
7617,11.0,300.10819,-6551.1055,0.0,0.0,0.07617108980520593,0.0,0.0,0.0,0.5143521560576054,0.5141545722881055,0.9628657625499522,0.009079093670711781,-0.015827844036586585,0.09074557552664102
7618,11.0,300.49151,-6719.4775,0.0,0.0,0.07618109422558028,0.0,0.0,0.0,0.5308602698668295,0.5226590438224314,0.989034060957562,0.02383087937467468,0.018791177040544785,0.08952416839234752
7619,11.0,299.93007,-6761.1566,0.0,0.0,0.07619109864595441,0.0,0.0,0.0,0.5191556606741745,0.5304259706089676,1.005641128771552,0.007763034284951832,-0.0008132328178673302,0.08760866467455201
7620,11.0,299.74422000000004,-6526.4075,0.0,0.0,0.07620107015705102,0.0,0.0,0.0,0.48789665190915055,0.5173386296673476,0.978629634028225,-0.023059721068067276,0.0026408543046070277,0.09482430538643032
7621,11.0,300.00972,-6400.1143,0.0,0.0,0.07621107457742515,0.0,0.0,0.0,0.4812350492592015,0.4993613640081295,0.9648785332110971,-0.017709176908009685,0.001025016162811219,0.095662391901893
7622,11.0,299.87694,-6408.46,0.0,0.0,0.07622107899779929,0.0,0.0,0.0,0.4883898209978225,0.49820550908905553,0.961416500799421,-0.012138860827762289,0.031290674857149176,0.1034706785442609
7623,11.0,300.15067,-6203.7848,0.0,0.0,0.07623108341817342,0.0,0.0,0.0,0.4691201548360545,0.48221228845064756,0.9344632375393411,0.0003483096564029867,0.004255846179919316,0.11939335671070689
7624,11.0,300.23672,-6189.0479,0.0,0.0,0.07624108783854755,0.0,0.0,0.0,0.45702523157237857,0.4846894822951276,0.93960131733893,-0.019647208215278482,-0.012355364003129489,0.11636840999466788
7625,11.0,299.1794,-6431.0424,0.0,0.0,0.0762510922589219,0.0,0.0,0.0,0.4639322433965476,0.5063509557154485,0.9845931174917751,-0.0007705040611503302,-0.02192929568675298,0.1156258800563859
7626,11.0,299.13982999999996,-6496.1494,0.0,0.0,0.07626109667929604,0.0,0.0,0.0,0.48595434265995957,0.5053735037414815,0.9833393522155381,0.01122549388286999,0.011748108019447989,0.08086886951438602
7627,11.0,299.8736,-6553.0921,0.0,0.0,0.07627106819039242,0.0,0.0,0.0,0.47617326719214254,0.5278273286075016,0.987975771890617,0.017395911387842782,-0.008895308239748571,0.08539501515458182
7628,11.0,299.22341,-6724.8469,0.0,0.0,0.07628107261076655,0.0,0.0,0.0,0.5224010399494685,0.5297942091716175,0.991990289051819,-0.0045649359950991055,-0.008930661346337652,0.07825850826226342
7629,11.0,299.79584,-6602.1166,0.0,0.0,0.07629107703114091,0.0,0.0,0.0,0.5155773071510185,0.5183064253678614,0.972994859029616,0.0034548829189703966,-0.02488255698471718,0.09596556443781382
7630,11.0,300.077,-6434.7183,0.0,0.0,0.07630108145151504,0.0,0.0,0.0,0.4918551059423195,0.5115723854682636,0.9525662070059652,0.0029735777730692772,0.01884565037917088,0.1131065350077459
7631,11.0,300.16096,-6437.5935,0.0,0.0,0.0763110858718894,0.0,0.0,0.0,0.4898351716029675,0.5047258241450605,0.962306681542275,0.0032122744693518068,0.003527886372775277,0.10975463274943889
7632,11.0,300.57592,-6377.9637,0.0,0.0,0.0763210902922633,0.0,0.0,0.0,0.48750855685584854,0.4936668173861215,0.9575663226719381,-0.02359546591269118,0.002359422974756918,0.10867918935830088
7633,11.0,300.35808,-6324.9585,0.0,0.0,0.07633109471263744,0.0,0.0,0.0,0.46987431688548453,0.48338839823922053,0.9693667447940492,-0.02200433394940868,-0.01226208521217359,0.0951298134638316
7634,11.0,299.52405,-6390.8832,0.0,0.0,0.07634109913301179,0.0,0.0,0.0,0.4836183350844135,0.4939756661491025,0.9650749010804771,-0.008587671526537192,0.038071055750070665,0.10640221373358089
7635,11.0,299.65508,-6509.6808,0.0,0.0,0.07635107064410818,0.0,0.0,0.0,0.4923472313833885,0.5019225056233946,0.9845106895961402,0.005185490075743025,0.004739037085581545,0.08032348156856042
7636,11.0,299.42663,-6501.168000000001,0.0,0.0,0.07636107506448231,0.0,0.0,0.0,0.4793915318947605,0.5161237225324455,0.9806774935403331,0.003553946456072207,0.0028839430347730173,0.10915499134025891
7637,11.0,299.92705,-6513.3268,0.0,0.0,0.07637107948485666,0.0,0.0,0.0,0.4868526294036135,0.5188119155777494,0.9742241644484392,0.007989861262937912,-0.029786112955910472,0.08560478933603492
7638,11.0,299.85131,-6601.4342,0.0,0.0,0.07638108390523102,0.0,0.0,0.0,0.5127196682914915,0.5248694793130845,0.969082021515949,0.026201010173838375,0.0012070395518505288,0.0959399981112906
7639,11.0,299.69895,-6435.9802,0.0,0.0,0.07639108832560493,0.0,0.0,0.0,0.4886584234668316,0.5076874427298494,0.9600314284427252,0.02321213718785958,-0.0018984936804167384,0.08734149392793432
7640,11.0,299.45937999999995,-6356.3783,0.0,0.0,0.07640109274597906,0.0,0.0,0.0,0.4826121372051095,0.5014438462761545,0.9481243110850841,0.002836734902013937,-0.0008356617269133913,0.1040809894769939
7641,11.0,299.79151,-6466.8092,0.0,0.0,0.07641109716635319,0.0,0.0,0.0,0.4915587302880695,0.5010784277600906,0.9731113726586151,0.005178451432598365,-0.0034550838464652263,0.1147821973606209
7642,11.0,299.8611,-6414.3318,0.0,0.0,0.07642110158672732,0.0,0.0,0.0,0.4796833175260576,0.49321376286890856,0.9768996209399861,-0.009735192058238652,0.03644829721141686,0.12084540489901288
7643,11.0,300.22249,-6236.5346,0.0,0.0,0.07643107309782393,0.0,0.0,0.0,0.46246232147647753,0.48418857197569154,0.9490999088113681,-0.007311366400500683,0.008866328881588533,0.12307393703645188
7644,11.0,300.12774,-6316.9494,0.0,0.0,0.07644107751819829,0.0,0.0,0.0,0.46463471955837654,0.4964333954591615,0.9591267582234411,-0.03182670341180107,-0.01026656412073099,0.11182161229093389
7645,11.0,300.05495,-6460.0621,0.0,0.0,0.07645108193857242,0.0,0.0,0.0,0.48076147642746353,0.5048172091715795,0.978118895182819,-0.005504438915720824,-0.011888227336026689,0.0941662349102338
7646,11.0,299.88812,-6478.6218,0.0,0.0,0.07646108635894655,0.0,0.0,0.0,0.4881706144711886,0.5126919255037535,0.9684767363037121,0.01063486432007939,0.014095739600141185,0.09105742857616851
7647,11.0,300.13451000000003,-6520.3111,0.0,0.0,0.07647109077932068,0.0,0.0,0.0,0.48870861987678554,0.5093413607355785,0.9839617714869661,0.023666942601245376,0.008271744704982643,0.08368615062243003
7648,11.0,300.2189,-6525.1669,0.0,0.0,0.07648109519969482,0.0,0.0,0.0,0.4936672024211595,0.5086606897159015,0.9811599019129431,-0.0021374455130744483,-0.01082748823033989,0.08419131861878622
7649,11.0,299.23707,-6508.2762,0.0,0.0,0.07649109962006895,0.0,0.0,0.0,0.49434171288022855,0.5194614291568515,0.9645503009737031,0.016907854145925286,-0.016474616774168085,0.08788536402511012
7650,11.0,299.69455,-6572.3119,0.0,0.0,0.07650107113116555,0.0,0.0,0.0,0.5101846077338006,0.5154486345208196,0.972185464717235,0.020425283980318582,0.014906369064394088,0.1090890895537549
7651,11.0,299.15704,-6655.5572,0.0,0.0,0.07651107555153991,0.0,0.0,0.0,0.5120531827732145,0.5126636355609615,0.998406381202538,0.018105214828845584,-0.006369788546324183,0.09346225001900592
7652,11.0,299.70297,-6417.168000000001,0.0,0.0,0.07652107997191404,0.0,0.0,0.0,0.4952442147442985,0.48990903753525755,0.96550556277048,-0.02057243930559168,-0.007401019782598783,0.10066255519062071
7653,11.0,300.09177999999997,-6242.6643,0.0,0.0,0.07653108439228817,0.0,0.0,0.0,0.4490431309946065,0.48855217406134555,0.9600187830814771,-0.02174895642070488,-0.012371931655514588,0.1143114616291629
7654,11.0,300.55247,-6408.0345,0.0,0.0,0.0765410888126623,0.0,0.0,0.0,0.48038305791261654,0.49158377783054147,0.9759156335028741,-0.006340203467254364,0.02361829443744418,0.1025766778485299
7655,11.0,299.42921,-6493.6934,0.0,0.0,0.07655109323303622,0.0,0.0,0.0,0.4930910785468005,0.5046343884560365,0.9761951689404621,0.005245243257990206,0.014342953372789288,0.10199626792624791
7656,11.0,300.3974,-6366.9693,0.0,0.0,0.07656109765341057,0.0,0.0,0.0,0.4700306613759146,0.5119716870676715,0.953397335532991,0.003012395688375307,-0.0036154409086162367,0.099765872421875
7657,11.0,300.29654,-6400.1382,0.0,0.0,0.0765711020737847,0.0,0.0,0.0,0.4782425974738695,0.5116771352636015,0.955562478744174,0.006851117300952633,-0.014096463060712588,0.0971894195843489
7658,11.0,300.41616,-6536.2483,0.0,0.0,0.07658107358488131,0.0,0.0,0.0,0.4956657166533975,0.5245218534687766,0.9666687029577732,0.02002303483636968,0.007031106691741203,0.08974123189502001
7659,11.0,299.61451,-6540.0005,0.0,0.0,0.07659107800525544,0.0,0.0,0.0,0.4786581516048815,0.5260522664198165,0.983286420030314,0.02643644998032447,-0.0008375722099769411,0.1099687324955689
7660,11.0,299.4011,-6484.8726,0.0,0.0,0.0766010824256298,0.0,0.0,0.0,0.48006545466877154,0.5105748002148095,0.9805990983800961,-0.006875816994665304,-0.01095949647986809,0.0946781754702584
7661,11.0,299.04447000000005,-6422.5135,0.0,0.0,0.07661108684600393,0.0,0.0,0.0,0.46818819779157755,0.5085878167687096,0.9755077192776159,-0.008820735464188812,-0.005965503681599375,0.1042591492420769
7662,11.0,299.90259,-6278.5579,0.0,0.0,0.07662109126637784,0.0,0.0,0.0,0.47062098088417453,0.4904359478522595,0.9474679074053022,-0.008772509623029293,0.00963692371981532,0.11528125343237389
7663,11.0,300.00546,-6376.7206,0.0,0.0,0.07663109568675197,0.0,0.0,0.0,0.49770177180184055,0.49421578615780054,0.9464462878594762,-0.009048156612033531,0.006148793734588694,0.1152581108000899
7664,11.0,300.0662,-6525.1056,0.0,0.0,0.0766411001071261,0.0,0.0,0.0,0.5083219602074714,0.4958162552207545,0.9793309550849401,-0.01197806006339249,-0.013565524061312988,0.09678604877253931
7665,11.0,299.74559,-6449.8502,0.0,0.0,0.07665110452750046,0.0,0.0,0.0,0.47872572525405055,0.5037333051421065,0.978134367511846,-0.02128460416487688,-0.02634341538264268,0.09644659681678801
7666,11.0,300.45662999999996,-6389.5319,0.0,0.0,0.07666107603859706,0.0,0.0,0.0,0.46936427718264756,0.5003820209663605,0.9725118629719481,0.002297142544110318,0.008055073431423851,0.09667011269609731
7667,11.0,300.35329,-6662.4587,0.0,0.0,0.0766710804589712,0.0,0.0,0.0,0.5082110295865235,0.5137898427821095,1.003220210837626,-0.0013812054903393687,0.016169403552545883,0.07125978109204284
7668,11.0,300.11326,-6761.6202,0.0,0.0,0.07668108487934533,0.0,0.0,0.0,0.5299942044763555,0.5298181826689835,0.995551326130766,0.006917547497383784,0.0030438813206576975,0.08263879553731412
7669,11.0,300.29806,-6595.418000000001,0.0,0.0,0.07669108929971968,0.0,0.0,0.0,0.5169101059350556,0.5167100498353115,0.971222228642171,-0.0031547690811264666,-0.008411369048887491,0.07768294471520973
7670,11.0,299.62876,-6527.8725,0.0,0.0,0.0767010937200936,0.0,0.0,0.0,0.4928862297740836,0.5121820377884315,0.979241961328657,0.010444200035512292,-0.0013284338039312087,0.10128073907663071
7671,11.0,299.86607999999995,-6388.0418,0.0,0.0,0.07671109814046773,0.0,0.0,0.0,0.4688956692763996,0.4971129924337325,0.975796515821118,0.0049900959397091256,-0.0035542062533978464,0.1031736645424479
7672,11.0,300.15582,-6309.8902,0.0,0.0,0.07672110256084186,0.0,0.0,0.0,0.4608969108669836,0.4931555516506635,0.963996610456558,0.0015036155256452984,-0.024399925697085177,0.1138704850531419
7673,11.0,300.02913,-6441.6647,0.0,0.0,0.07673110698121621,0.0,0.0,0.0,0.47445199845226654,0.4994583827052045,0.9841948595399701,-0.01001902276432556,-0.015237232712297787,0.1104045414960799
7674,11.0,299.79616,-6444.0325,0.0,0.0,0.07674107849231282,0.0,0.0,0.0,0.4871240183103975,0.5069777826248115,0.9647231614407631,-0.005108266941896695,0.013509387979272787,0.1087674535745119
7675,11.0,299.68756,-6346.2489,0.0,0.0,0.07675108291268695,0.0,0.0,0.0,0.48079062763284053,0.49724328626409153,0.9510672960005341,-0.01026634120570899,0.030574377963956175,0.1094461690214959
7676,11.0,300.10271,-6445.7238,0.0,0.0,0.07676108733306108,0.0,0.0,0.0,0.4931067129958435,0.4991476796945405,0.9670847029188291,-0.02131713050633698,-0.0008193653215800613,0.1018644238232359
7677,11.0,301.03073,-6632.0656,0.0,0.0,0.07677109175343522,0.0,0.0,0.0,0.5002193335303045,0.5249435478953944,0.990819458296267,-0.009455520338512201,0.0016945366691127485,0.09408824201028651
7678,11.0,300.31755,-6620.5256,0.0,0.0,0.07678109617380935,0.0,0.0,0.0,0.49359569736160247,0.5262539943822255,0.9926247659994369,0.011977565597343687,-0.002160170483667228,0.08185786747324252
7679,11.0,300.17183,-6574.4222,0.0,0.0,0.0767911005941837,0.0,0.0,0.0,0.4834641994792015,0.5320605760677904,0.9829354099306721,0.005436059327422285,0.00983102109837124,0.09394804568670022
7680,11.0,300.14973,-6480.3747,0.0,0.0,0.07680110501455784,0.0,0.0,0.0,0.5073056703571716,0.48826426917793153,0.9743021441761351,-0.0014290502481362787,-0.013503096709401885,0.07930144051069284
7681,11.0,299.25297,-6404.3912,0.0,0.0,0.07681107652565422,0.0,0.0,0.0,0.48839518109085156,0.49547506351458154,0.9629047726788021,-0.004430317208013266,0.0007046505154835914,0.1010282493107119
7682,11.0,299.66628,-6330.5114,0.0,0.0,0.07682108094602857,0.0,0.0,0.0,0.47482458064653754,0.4824682860884125,0.967024536127891,0.007033900728891953,0.008678855118936311,0.0981849246353476
7683,11.0,299.81414,-6503.366999999999,0.0,0.0,0.07683108536640271,0.0,0.0,0.0,0.4970501405300295,0.49391117278023755,0.98589985548324,-0.004269450886361996,0.01069937896719649,0.0976681772168486
7684,11.0,299.81512999999995,-6619.2748,0.0,0.0,0.07684108978677684,0.0,0.0,0.0,0.5142282153053735,0.5149717280962525,0.982894302374115,-0.0019318628433100179,-0.027580535999486972,0.09898861029666521
7685,11.0,300.02583,-6520.4282,0.0,0.0,0.07685109420715097,0.0,0.0,0.0,0.49224169125297257,0.5077585222243645,0.982047164495509,-0.020899047303075378,-0.007871345553066322,0.10376392325570191
7686,11.0,299.98222999999996,-6637.3873,0.0,0.0,0.0768610986275251,0.0,0.0,0.0,0.5152913274427945,0.5294012505178355,0.9729074256784871,0.0047322094011077055,-0.0008185312850252482,0.0950314319453721
7687,11.0,299.92163,-6648.8145,0.0,0.0,0.07687110304789946,0.0,0.0,0.0,0.5060881794345146,0.5242767786670894,0.9907086391328301,-0.005305875637349155,0.020637828387545083,0.09141741505844642
7688,11.0,300.98922999999996,-6429.677,0.0,0.0,0.07688110746827359,0.0,0.0,0.0,0.46892841751963155,0.5201736021221376,0.9653592494560401,-0.0015434810402297186,0.01144505302053879,0.1011371017557048
7689,11.0,300.4568,-6418.2566,0.0,0.0,0.07689107897936998,0.0,0.0,0.0,0.48197548176977656,0.5016068782172446,0.9674073825456752,-0.003148974506454587,0.003307666596041277,0.09664647154476409
7690,11.0,300.03503,-6397.173000000001,0.0,0.0,0.07690108339974411,0.0,0.0,0.0,0.4747778495519256,0.4960385116301895,0.973764493408073,0.018831210551995783,-0.004590978549169305,0.1060495419037749
7691,11.0,299.98191,-6225.047,0.0,0.0,0.07691108782011846,0.0,0.0,0.0,0.46402089264779656,0.4861544696872105,0.942083496373902,0.01085810155561119,0.00031425126052668474,0.1042831126069419
7692,11.0,299.94923,-6396.2771,0.0,0.0,0.0769210922404926,0.0,0.0,0.0,0.4945440690576996,0.4859667955036886,0.9637976486669222,0.027685496550845772,-0.034535571825395565,0.1043241897659959
7693,11.0,299.99896,-6576.8681,0.0,0.0,0.07693109666086673,0.0,0.0,0.0,0.49905644665553656,0.5126734843519335,0.987473757128572,-0.007878366565659241,-0.005407787319157056,0.11485940701824089
7694,11.0,299.80208,-6468.069,0.0,0.0,0.07694110108124086,0.0,0.0,0.0,0.4849453583428805,0.5028928851116635,0.978293214730023,0.0036514886994738764,-0.0100160330685805,0.1055466861441469
7695,11.0,299.42087000000004,-6512.8003,0.0,0.0,0.07695110550161499,0.0,0.0,0.0,0.4934223100044905,0.5120388047542955,0.9742675518177211,-0.014877151997760588,0.02234548917857808,0.09788282411803259
7696,11.0,299.7046,-6621.408,0.0,0.0,0.07696110992198935,0.0,0.0,0.0,0.5069942884689406,0.5131060813496275,0.9926423357561711,-0.01149676626589249,0.0045011476456536855,0.07676791705340352
7697,11.0,300.06712000000005,-6496.8019,0.0,0.0,0.07697108143308573,0.0,0.0,0.0,0.49939627047407453,0.5027653675865785,0.972703924528403,-0.014766758399365585,0.00866458095815256,0.07704408748740943
7698,11.0,299.99037999999996,-6391.2113,0.0,0.0,0.07698108585345986,0.0,0.0,0.0,0.4826277108591466,0.4903219977460135,0.969818938048677,-0.0008087240170423463,0.01007537598586219,0.07335723615679553
7699,11.0,300.70752000000005,-6458.9902,0.0,0.0,0.07699109027383422,0.0,0.0,0.0,0.4710343970574755,0.5031006925746725,0.989236650182556,0.0064119262742578535,0.014745346398252385,0.08843511705236651
7700,11.0,300.72628,-6470.6214,0.0,0.0,0.07700109469420835,0.0,0.0,0.0,0.49015509518954153,0.4882446121259915,0.988507626868107,0.01951169310715418,-0.017887757171884185,0.0983286288307801
7701,11.0,300.32069,-6419.0404,0.0,0.0,0.07701109911458248,0.0,0.0,0.0,0.4850466326903755,0.49807744440891655,0.968103921061918,0.001145091872536769,-0.009186441540631191,0.1147712035970359
7702,11.0,299.78932000000003,-6400.4797,0.0,0.0,0.07702110353495661,0.0,0.0,0.0,0.48478039109409954,0.5034363114052955,0.957369316454995,0.01991913414461548,-0.019675856848605882,0.11731731871331788
7703,11.0,299.49284,-6399.1888,0.0,0.0,0.07703110795533075,0.0,0.0,0.0,0.49964767808888655,0.4952768008675146,0.950269138631762,0.00945040757983261,-0.0034472243694145567,0.10221818996314991
7704,11.0,299.38929,-6400.5444,0.0,0.0,0.07704107946642735,0.0,0.0,0.0,0.4934455032992795,0.5023296193810735,0.9498305431934762,0.01032497089624529,-0.008722675348661032,0.1128464945020819
7705,11.0,299.67644,-6465.7907,0.0,0.0,0.07705108388680149,0.0,0.0,0.0,0.47112327935624754,0.5053470072513665,0.988968635398605,-0.006193592054634944,-0.004643253641703456,0.09771062935628831
7706,11.0,299.76491,-6591.3586,0.0,0.0,0.07706108830717584,0.0,0.0,0.0,0.48306361105216655,0.5262856483153495,0.994259148543238,-0.01232031061591999,0.0026336642818974272,0.09722957873881231
7707,11.0,300.06417000000005,-6522.6774,0.0,0.0,0.07707109272754997,0.0,0.0,0.0,0.47855569175476953,0.5160403928442215,0.9881349636138281,-0.007229385246834773,0.02765055056814687,0.09242169181556083
7708,11.0,300.76379,-6534.9652,0.0,0.0,0.0770810971479241,0.0,0.0,0.0,0.49711818027424454,0.5073762330941355,0.9819718394830751,-0.0073492213229116735,0.01004198108641637,0.09361989653581441
7709,11.0,300.66005,-6562.4448,0.0,0.0,0.07709110156829824,0.0,0.0,0.0,0.5118581219964635,0.5150581177997785,0.9679031151571001,-0.002119336504637228,0.003661385315850596,0.0884956648253421
7710,11.0,300.20302000000004,-6409.2353,0.0,0.0,0.07710110598867237,0.0,0.0,0.0,0.4800166160139515,0.49842647867086354,0.969804408042243,0.005967969831017765,-0.016149271286308983,0.09681253411690321
7711,11.0,299.63648,-6409.1564,0.0,0.0,0.0771111104090465,0.0,0.0,0.0,0.4616958889683366,0.5171265158914136,0.9694010939724391,0.010539095973627791,0.002061813992485198,0.1134985614714359
7712,11.0,299.62995,-6535.7712,0.0,0.0,0.07712108192014311,0.0,0.0,0.0,0.4874146083065765,0.5152579509845006,0.984038687302057,-0.008066543118580821,-0.008159498986729852,0.1022069834170439
7713,11.0,299.37702,-6568.4715,0.0,0.0,0.07713108634051746,0.0,0.0,0.0,0.49444015012744347,0.5153036384315095,0.9869075428401911,0.00016422156763490684,-0.007959562247847633,0.10845523068869789
7714,11.0,299.6898,-6464.1841,0.0,0.0,0.0771410907608916,0.0,0.0,0.0,0.4930329179910605,0.5121829294485195,0.9597347184159422,0.007827495533788663,0.0037120431599001365,0.1030062249634229
7715,11.0,300.12194,-6518.255,0.0,0.0,0.07715109518126573,0.0,0.0,0.0,0.5108248804719905,0.5106982343419915,0.9598636544911671,0.007103883785473743,0.013177852546552788,0.10053229986376551
7716,11.0,300.17989,-6603.8826,0.0,0.0,0.07716109960163986,0.0,0.0,0.0,0.5166862587229635,0.5026877627614195,0.9880414000995942,-0.002130425919031668,-0.00932251059258516,0.09000074044438151
7717,11.0,300.02941,-6551.3275,0.0,0.0,0.07717110402201377,0.0,0.0,0.0,0.48923779987401156,0.5147772550045595,0.9874249083412511,-0.019615354671884782,-0.013824596913131487,0.09638718185742422
7718,11.0,300.72887000000003,-6480.3194,0.0,0.0,0.07718110844238812,0.0,0.0,0.0,0.47368262751883555,0.5011043061676446,0.995068340205599,0.014829789648336287,-0.008086325712208211,0.0928148105628586
7719,11.0,300.28114,-6485.4846,0.0,0.0,0.07719111286276226,0.0,0.0,0.0,0.47593664289628956,0.5092585984674105,0.9862301446183371,-0.0021842719545208575,0.006899433220046044,0.09297243377491482
7720,11.0,300.27431,-6474.9929,0.0,0.0,0.07720108437385886,0.0,0.0,0.0,0.4934081447680925,0.5088138627335185,0.9660141636581752,0.0018471723602017183,0.012668820014315189,0.0977102291224988
7721,11.0,299.8289,-6479.9507,0.0,0.0,0.077211088794233,0.0,0.0,0.0,0.5162519290675985,0.4919274114694555,0.961563878026466,-0.008270381680948123,0.0009080710513896352,0.0987855944933791
7722,11.0,299.5876,-6496.225,0.0,0.0,0.07722109321460735,0.0,0.0,0.0,0.4888019908735005,0.5151303321344055,0.9707578763863431,0.006907762338518063,0.02069289853048008,0.11179874323617689
7723,11.0,299.47458,-6438.3859999999995,0.0,0.0,0.07723109763498148,0.0,0.0,0.0,0.4705536402825286,0.5105142179913306,0.976040719227719,0.015287052193214587,-0.005103794861255335,0.11937476357137188
7724,11.0,300.85055,-6502.2164,0.0,0.0,0.07724110205535539,0.0,0.0,0.0,0.47824234416134453,0.5031850051154935,0.99508405571465,0.003098836358381337,-0.03320927608050037,0.10449776964062689
7725,11.0,300.60146000000003,-6618.8343,0.0,0.0,0.07725110647572953,0.0,0.0,0.0,0.5061928583023455,0.5174360030019576,0.988331493603224,-0.0032701411825628067,-0.03261922609676697,0.10152148932689091
7726,11.0,300.50756,-6450.9002,0.0,0.0,0.07726111089610366,0.0,0.0,0.0,0.49059087379254956,0.49698723796382155,0.973334490330635,0.002167251987291118,-0.00013686652031267386,0.08129321257676543
7727,11.0,300.37871,-6337.3579,0.0,0.0,0.07727108240720049,0.0,0.0,0.0,0.4708346044027576,0.5000007146887285,0.9555632488142501,0.008683550114599672,0.015117072396188884,0.10241519618009291
7728,11.0,300.08371,-6539.6261,0.0,0.0,0.07728108682757462,0.0,0.0,0.0,0.48717307988023956,0.5166871199855485,0.9840228603354951,-0.016579163919486085,0.014683479373646585,0.08281185358814362
7729,11.0,299.87626,-6582.6973,0.0,0.0,0.07729109124794875,0.0,0.0,0.0,0.4994384824732405,0.5037412692878925,0.997795847354783,-0.007411345409067843,-0.002089495782567178,0.10271784385246191
7730,11.0,299.61591,-6522.3153,0.0,0.0,0.07730109566832288,0.0,0.0,0.0,0.48044598074382655,0.5221759363072526,0.979999061803377,-0.001045588686216569,0.02084683047242198,0.09562180718238761
7731,11.0,299.09772000000004,-6542.6277,0.0,0.0,0.07731110008869702,0.0,0.0,0.0,0.4834493958952405,0.5199021726853494,0.9854438828057391,0.011965751101177688,0.011681796879903589,0.10993390708963188
7732,11.0,299.65695,-6493.1471,0.0,0.0,0.07732110450907115,0.0,0.0,0.0,0.5010582843481025,0.49799487465826753,0.974701405245539,0.007404053757373213,-0.005260967784967095,0.1040363051475839
7733,11.0,300.0714,-6385.5138,0.0,0.0,0.07733110892944528,0.0,0.0,0.0,0.48943912253638056,0.49845145528582857,0.953146160965702,0.00030664360652336766,-0.012837026623665888,0.11281671508164288
7734,11.0,300.08795,-6447.6809,0.0,0.0,0.07734111334981963,0.0,0.0,0.0,0.49592054905354754,0.49415848686464553,0.9698549590897321,-0.004669888643107126,0.02126528756497048,0.0998142703129015
7735,11.0,300.51596,-6501.8767,0.0,0.0,0.07735108486091624,0.0,0.0,0.0,0.49655958562661556,0.5025898321392546,0.977258726907927,0.0014309278005715785,0.003509987309758777,0.09651928940546223
7736,11.0,300.08013,-6512.4032,0.0,0.0,0.07736108928129037,0.0,0.0,0.0,0.48722842360070157,0.5186313037474245,0.9737482408764689,-0.012765868095643089,0.0014425071213893686,0.0975785076227489
7737,11.0,299.90297000000004,-6461.8164,0.0,0.0,0.0773710937016645,0.0,0.0,0.0,0.49876324247409953,0.4871905584444645,0.9782770229934251,0.008607163925335943,-0.017543434522902183,0.08742386305506351
7738,11.0,300.10513,-6543.1526,0.0,0.0,0.07738109812203864,0.0,0.0,0.0,0.5128739558842186,0.5006480396476145,0.975432992082741,-0.0033120605550999264,0.027966679533096374,0.0944001842258228
7739,11.0,299.84796,-6557.6546,0.0,0.0,0.07739110254241277,0.0,0.0,0.0,0.4935487534844695,0.5187499857316376,0.9810645044160281,0.013710343845105588,0.02367210815025518,0.0971772575433986
7740,11.0,299.77468,-6521.3451,0.0,0.0,0.0774011069627869,0.0,0.0,0.0,0.4861112343054435,0.5124462123545035,0.9837686358854051,-0.024989963521817374,0.0002743129033925758,0.10537106963681489
7741,11.0,299.87037999999995,-6567.4716,0.0,0.0,0.07741111138316126,0.0,0.0,0.0,0.49119184255936055,0.5280536684148396,0.9771018757924471,0.007017878002410634,-0.024790322854614376,0.1012946479607534
7742,11.0,299.78538,-6396.2682,0.0,0.0,0.07742111580353539,0.0,0.0,0.0,0.4847365984247775,0.4873779185204556,0.9721912909053101,-0.0038840714446530065,0.0005510559047649835,0.10493859422913289
7743,11.0,299.86585,-6286.9441,0.0,0.0,0.07743108731463177,0.0,0.0,0.0,0.4642903462468896,0.5073949376909815,0.9393887273354491,0.01955741500466658,-0.0048618126001985455,0.12370822146655087
7744,11.0,300.48831,-6441.2918,0.0,0.0,0.07744109173500613,0.0,0.0,0.0,0.4927065703988525,0.4956986270166455,0.9695866808607551,-0.015708246074283186,0.0049103065473345255,0.0986913298100759
7745,11.0,300.58895,-6491.646,0.0,0.0,0.07745109615538026,0.0,0.0,0.0,0.4891702363573436,0.49688642971137253,0.987241611398161,0.0011362477190389189,-0.004584862267590676,0.1019542281795989
7746,11.0,300.71732000000003,-6373.7223,0.0,0.0,0.0774611005757544,0.0,0.0,0.0,0.4778392428740616,0.48763910399873256,0.971974080481373,-0.0004008211503179676,0.03779602927542767,0.08064992136652753
7747,11.0,300.39431,-6505.7917,0.0,0.0,0.07747110499612853,0.0,0.0,0.0,0.4916376118083545,0.5017535259042175,0.9842070793361761,-0.004596946592258305,0.014605645553964987,0.09720689409557351
7748,11.0,300.35939,-6655.3173,0.0,0.0,0.07748110941650266,0.0,0.0,0.0,0.5055317936721035,0.5159521286280104,1.001566343494402,-0.016313722790789086,2.5021035849383978e-05,0.08289638701748642
7749,11.0,300.56619,-6657.6688,0.0,0.0,0.07749111383687701,0.0,0.0,0.0,0.5311621373366214,0.5234956844300015,0.9691072311784371,-0.0018642298176851583,-0.027347454025983577,0.11002072235819989
7750,11.0,300.15852,-6652.8586,0.0,0.0,0.07750111825725114,0.0,0.0,0.0,0.5149658411131716,0.5153924498027745,0.9919446117373111,0.013729168005463387,0.008366600619719191,0.09550064070892941
7751,11.0,299.78893,-6488.865,0.0,0.0,0.07751108976834753,0.0,0.0,0.0,0.49203352915242854,0.5092702913735645,0.9711491023824542,0.017396716921672283,-0.006202572287621224,0.0988173649502646
7752,11.0,299.55507,-6327.0242,0.0,0.0,0.07752109418872166,0.0,0.0,0.0,0.45212476905374055,0.5032879715906555,0.9678446303613282,-0.005902899112245785,0.0029492951330977674,0.1087004270803969
7753,11.0,300.13813,-6374.0967,0.0,0.0,0.07753109860909602,0.0,0.0,0.0,0.4695725507407026,0.4947033114434155,0.9732903835537821,-0.0006073109018369195,-0.009720601662098689,0.0949507711579115
7754,11.0,299.44874,-6552.8476,0.0,0.0,0.07754110302947015,0.0,0.0,0.0,0.48907050215000053,0.5091282843720495,0.9937032491408752,0.0006935007215156922,0.027141986157455472,0.1049613315613769
7755,11.0,299.48393,-6438.4373,0.0,0.0,0.07755110744984428,0.0,0.0,0.0,0.5006514137704475,0.49322888056040054,0.9632438872222701,0.017505737566181782,0.009490513842640791,0.09723945286103682
7756,11.0,299.83046,-6392.182,0.0,0.0,0.07756111187021841,0.0,0.0,0.0,0.4646971256320355,0.5118078242614995,0.9665587653219231,-0.020616946316234182,-0.008219116190813612,0.11190735351439589
7757,11.0,300.13473,-6656.5017,0.0,0.0,0.07757111629059255,0.0,0.0,0.0,0.5038371835423585,0.5315926875691135,0.9879804328410771,-0.008674556709362092,-0.02020931276125388,0.1073377880809149
7758,11.0,300.56519,-6788.0619,0.0,0.0,0.07758108780168915,0.0,0.0,0.0,0.5187371681178725,0.5340446514861035,1.01061951022288,-0.0075440306109878525,0.014235905526224484,0.08900530834739001
7759,11.0,300.69631,-6547.3334,0.0,0.0,0.07759109222206328,0.0,0.0,0.0,0.48988286528517455,0.5214842816564915,0.9788587197433342,0.013746047738879288,0.0019500431845542782,0.1062029074389109
7760,11.0,299.75695,-6410.2078,0.0,0.0,0.07760109664243742,0.0,0.0,0.0,0.4821883453507845,0.5007051261582485,0.9656496266696981,-0.003198631867355387,-0.012363600713192388,0.09078532735456422
7761,11.0,299.95266000000004,-6382.6898,0.0,0.0,0.07761110106281177,0.0,0.0,0.0,0.48334828366776156,0.5034038367395905,0.9534261928958392,-0.0018081095423465182,-0.02147809237747268,0.11894629050158488
7762,11.0,300.34193,-6468.2994,0.0,0.0,0.0776211054831859,0.0,0.0,0.0,0.4899375199955685,0.5120614002315256,0.964202594069387,0.014060302191143789,0.015109151820157183,0.10571200803046289
7763,11.0,299.64986,-6608.7812,0.0,0.0,0.07763110990356004,0.0,0.0,0.0,0.5002614442044605,0.5140219074525125,0.994621111876461,0.01831311449761368,0.006793790346069904,0.10123189839531051
7764,11.0,299.8723,-6524.5786,0.0,0.0,0.07764111432393417,0.0,0.0,0.0,0.48417534906188653,0.5138181631224045,0.9853154736205659,-0.00994725324649246,-0.001156153017253419,0.09110416068403061
7765,11.0,300.29499,-6343.9708,0.0,0.0,0.0776511187443083,0.0,0.0,0.0,0.4462646472328916,0.5045077828560415,0.9776362841601891,-0.015257512913049288,-0.014877985902592884,0.1025460878280109
7766,11.0,299.58099999999996,-6568.9574,0.0,0.0,0.07766109025540491,0.0,0.0,0.0,0.5090099671578725,0.5041733292630335,0.9836157364453151,-0.018058204077205983,0.023904915532981477,0.09740869602523981
7767,11.0,300.16393,-6838.925,0.0,0.0,0.07767109467577904,0.0,0.0,0.0,0.5434569748450275,0.5260894324334845,1.0093160247642359,-0.0004597984059035695,0.004438508727121706,0.08670922383903411
7768,11.0,299.61477,-6678.8997,0.0,0.0,0.0776810990961534,0.0,0.0,0.0,0.5211048296265425,0.5228900445802295,0.986223852335216,0.001986065441509398,-0.00991615781682358,0.1045276706510779
7769,11.0,299.60471,-6363.9747,0.0,0.0,0.07769110351652753,0.0,0.0,0.0,0.47495128757154254,0.5010079055531306,0.9585302173595671,0.015099374969942285,-0.017708694600962083,0.09397757179461422
7770,11.0,299.69937999999996,-6385.4099,0.0,0.0,0.07770110793690166,0.0,0.0,0.0,0.47462595322943457,0.49990338188412253,0.9664758409337391,0.007514522234950602,0.01163520764030559,0.1034593098781389
7771,11.0,300.56928,-6455.5692,0.0,0.0,0.07771111235727579,0.0,0.0,0.0,0.4861894369481616,0.5011379967334695,0.9750044176879441,0.013814686313903387,0.016384421303266485,0.096726588216921
7772,11.0,300.10452000000004,-6434.3648,0.0,0.0,0.07772111677764992,0.0,0.0,0.0,0.4801201904391736,0.5077929321977606,0.9679731206065091,0.001236689377601739,0.0030363472995391474,0.11466622075417489
7773,11.0,300.16132999999996,-6477.7407,0.0,0.0,0.07773112119802406,0.0,0.0,0.0,0.4817565285556675,0.5092018260643075,0.9781130689947442,0.005001863015770445,-0.003804237671924027,0.11485532362033789
7774,11.0,299.74916,-6480.5193,0.0,0.0,0.07774109270912066,0.0,0.0,0.0,0.47792463959248954,0.5207323892872855,0.9712590298858031,0.004019603170078946,0.008037141944404153,0.11295653346294189
7775,11.0,300.52583,-6460.4431,0.0,0.0,0.07775109712949502,0.0,0.0,0.0,0.47782849229050056,0.5055038583668465,0.980481034478444,0.007013220699650994,-0.011604319724257189,0.1096087652650429
7776,11.0,300.41837000000004,-6633.5417,0.0,0.0,0.07776110154986915,0.0,0.0,0.0,0.5023720542952615,0.5145200110691714,0.9995389820318171,-0.0058304517300957846,-0.02069776719721058,0.08154890522625033
7777,11.0,299.8465,-6593.1537,0.0,0.0,0.07777110597024328,0.0,0.0,0.0,0.48066798384073656,0.5253093818439994,0.9981767179348722,-0.013447287907143989,-0.015565463936441684,0.08998438760101761
7778,11.0,300.1026,-6334.4916,0.0,0.0,0.07778111039061719,0.0,0.0,0.0,0.46952129041814356,0.4891992761052095,0.9668067076213931,0.00930854810753217,0.012767636217067588,0.08326696398980951
7779,11.0,300.34202999999997,-6462.7134,0.0,0.0,0.07779111481099132,0.0,0.0,0.0,0.4924892383849035,0.5034193799961245,0.9685948812653721,-0.023370156580704876,0.024733461285502578,0.10116333480079381
7780,11.0,299.88974,-6636.2009,0.0,0.0,0.07780111923136568,0.0,0.0,0.0,0.5222519503297545,0.5104562803506125,0.9845311471156589,-0.0013172241167498987,-0.005076704505256725,0.0935344684066333
7781,11.0,299.98002,-6522.1712,0.0,0.0,0.07781109074246229,0.0,0.0,0.0,0.4998210958435015,0.5061307967337205,0.9766252733429102,0.00968411087829733,-0.016830576600548583,0.1091509079423559
7782,11.0,299.80026000000004,-6444.2883,0.0,0.0,0.07782109516283642,0.0,0.0,0.0,0.4772857955369405,0.5108389950458835,0.9707779488708241,0.025772676932565176,-0.0005446908702868035,0.099902073500317
7783,11.0,299.34173,-6500.3855,0.0,0.0,0.07783109958321055,0.0,0.0,0.0,0.49580429886957456,0.49862171170013153,0.9815288769368581,0.005802732753735135,-0.012965754982620386,0.09458489465280231
7784,11.0,299.97218,-6534.3053,0.0,0.0,0.0778411040035849,0.0,0.0,0.0,0.4933308945804686,0.4991626656635195,0.9937720792201681,-0.012970513205089986,-0.009865772841025971,0.09880338412538481
7785,11.0,299.91806,-6608.383000000001,0.0,0.0,0.07785110842395904,0.0,0.0,0.0,0.5042136363520116,0.5187349896301575,0.9858347946943189,-0.016760086817591783,0.00980079189621285,0.0977330789255039
7786,11.0,300.40233,-6597.7956,0.0,0.0,0.07786111284433295,0.0,0.0,0.0,0.4906686002077206,0.5157547779060335,0.999141737330112,0.011247515860543388,0.01977006681640368,0.0938244382937511
7787,11.0,300.32921,-6380.2844,0.0,0.0,0.07787111726470708,0.0,0.0,0.0,0.4800491008121575,0.4945939513601226,0.964804079593749,0.006219226471564864,0.028479822820989677,0.09458385708469991
7788,11.0,300.59488,-6329.9161,0.0,0.0,0.07788112168508121,0.0,0.0,0.0,0.4712225272035426,0.4958264991792655,0.957087410012173,-0.007787123191504223,-0.006616177128090843,0.1013418400841609
7789,11.0,299.79532,-6568.6171,0.0,0.0,0.07789109319617804,0.0,0.0,0.0,0.5062780929007574,0.5055399807329115,0.9848774962648411,-0.015661216070891684,-0.015673113653565884,0.1043373214872919
7790,11.0,299.86746,-6654.8236,0.0,0.0,0.07790109761655217,0.0,0.0,0.0,0.5145132324260026,0.5291694594249595,0.979217511603744,0.007623322396238343,-0.005870282692851794,0.1096874644003099
7791,11.0,299.53147,-6467.1324,0.0,0.0,0.0779111020369263,0.0,0.0,0.0,0.48377578401745247,0.5110698539486674,0.9710011070728481,0.008066848613485972,0.005322260195441185,0.1199583956289719
7792,11.0,299.9482,-6437.0612,0.0,0.0,0.07792110645730044,0.0,0.0,0.0,0.48385411838268355,0.5130134196279825,0.9598383333711682,-0.0013916465259948187,-0.0028976422774500275,0.10610714517195992
7793,11.0,299.58456,-6473.7676,0.0,0.0,0.07793111087767457,0.0,0.0,0.0,0.48177997516298154,0.5107849178880465,0.9752988175044991,-0.013143971489708988,0.0063157932590952644,0.11950208857893789
7794,11.0,299.85109,-6437.4164,0.0,0.0,0.0779411152980487,0.0,0.0,0.0,0.4750294800817595,0.5009547403203836,0.9808296330428481,0.003071167233925607,0.007076645494960533,0.09325449220525181
7795,11.0,299.27466,-6509.5694,0.0,0.0,0.07795111971842283,0.0,0.0,0.0,0.48654954603370154,0.5064358356763256,0.9857611719420531,0.004500917840531005,0.012592356108768788,0.09496691223200451
7796,11.0,299.93077,-6474.0876,0.0,0.0,0.07796112413879719,0.0,0.0,0.0,0.49576069871777156,0.49108783243659554,0.9811124514107601,0.009555460742250551,-0.016172824284883484,0.08018792491718202
7797,11.0,300.28022999999996,-6379.1532,0.0,0.0,0.0779710956498938,0.0,0.0,0.0,0.48599448762892156,0.47879380552826956,0.9743149921874031,-0.015051871778754085,-0.0062097275558523944,0.08899361949423641
7798,11.0,300.24287999999996,-6577.0024,0.0,0.0,0.07798110007026793,0.0,0.0,0.0,0.5056691903856635,0.5099554206936815,0.983619880638224,-0.008376163572837981,-0.0016044771763745686,0.09693888032487259
7799,11.0,300.07704,-6819.1969,0.0,0.0,0.07799110449064206,0.0,0.0,0.0,0.5324850873296866,0.5252479890204405,1.0151325160357791,-0.00038180818093653363,0.013339860091791687,0.08134358731873702
7800,11.0,299.84071,-6633.0021,0.0,0.0,0.07800110891101619,0.0,0.0,0.0,0.5083177957495606,0.5082288830532855,0.9997203436672161,0.0028323916054602875,-0.0026972605191238875,0.10527553028488588
7801,11.0,300.07243,-6444.1276,0.0,0.0,0.07801111333139032,0.0,0.0,0.0,0.49270740126393453,0.5038419458178285,0.962304533452063,-0.01158362510421479,0.01641675816695788,0.09424413661767211
7802,11.0,300.52887000000004,-6482.8943,0.0,0.0,0.07802111775176446,0.0,0.0,0.0,0.48346915427219056,0.4987103406863785,0.9884584943707581,-0.0026147578456315076,-0.0012970156541054787,0.11630346066325789
7803,11.0,299.91033999999996,-6487.2242,0.0,0.0,0.07803112217213881,0.0,0.0,0.0,0.49271282215196954,0.5055847055923256,0.97365665319993,-0.0008003209110480241,0.012112375483398387,0.08693262724758233
7804,11.0,299.79286,-6373.9505,0.0,0.0,0.0780410936832352,0.0,0.0,0.0,0.46718985260054857,0.5101020582481536,0.960229893739812,0.01922089539470468,-0.008902926259300411,0.11502063537415289
7805,11.0,299.4036,-6414.9486,0.0,0.0,0.07805109810360933,0.0,0.0,0.0,0.47857722331939456,0.4952040495103345,0.976202920303727,-0.004744042642400556,0.0022653667169992876,0.10011938727576421
7806,11.0,299.32631000000003,-6502.9581,0.0,0.0,0.07806110252398368,0.0,0.0,0.0,0.4778713223722275,0.5223125730832375,0.976552998213277,0.0031615768045733374,0.00996121036131992,0.11102166146948489
7807,11.0,299.69057999999995,-6582.4684,0.0,0.0,0.07807110694435782,0.0,0.0,0.0,0.4902115534851136,0.5227589806797945,0.987935505331643,-0.018189650986178783,0.013632322574155486,0.10787666488159789
7808,11.0,299.86217,-6736.5745,0.0,0.0,0.07808111136473195,0.0,0.0,0.0,0.5190895663701515,0.5360294868419915,0.9926313926550911,-0.0052198912338631545,-0.00951013907852765,0.10882610049029989
7809,11.0,299.77736,-6671.7787,0.0,0.0,0.07809111578510608,0.0,0.0,0.0,0.5147222659216325,0.5277780238576355,0.9855538305740902,-0.014948196028522086,-0.005130675474483245,0.1053985489795269
7810,11.0,299.64212000000003,-6355.4772,0.0,0.0,0.07810112020548021,0.0,0.0,0.0,0.47207471106764654,0.4942082678420585,0.9656234037571101,0.01054125926259129,0.003117744415847417,0.10634681935061391
7811,11.0,300.07608,-6455.6911,0.0,0.0,0.07811112462585457,0.0,0.0,0.0,0.4718135965168766,0.5127708880840465,0.9777844111923081,-0.013990886453292986,0.016577125260284882,0.10666803989731591
7812,11.0,299.72157999999996,-6634.4597,0.0,0.0,0.07812109613695117,0.0,0.0,0.0,0.5005498557129244,0.5149195963786075,1.0012406241172562,0.004139472075459086,-0.0006631265536654954,0.088886180533133
7813,11.0,299.69628,-6588.6539,0.0,0.0,0.07813110055732508,0.0,0.0,0.0,0.4919249087417085,0.5169195798234906,0.993941768214415,-0.0018856408055482584,0.008558155855099222,0.08995496585786392
7814,11.0,299.41929,-6389.7251,0.0,0.0,0.07814110497769922,0.0,0.0,0.0,0.4753579352341755,0.4981102635796556,0.9688486801504201,0.00885049836865118,-0.003836074091391036,0.100279164657533
7815,11.0,300.70476,-6443.8,0.0,0.0,0.07815110939807357,0.0,0.0,0.0,0.49448359829173155,0.5011577247129165,0.9631129651768491,-0.002664359275126787,-0.007997061823448552,0.08953917158657822
7816,11.0,300.0397,-6691.0153,0.0,0.0,0.0781611138184477,0.0,0.0,0.0,0.5052310711749245,0.5295494991399665,0.999121016365567,-0.0007680331899864744,-0.03655494583744227,0.1016204230666549
7817,11.0,300.48469,-6653.1953,0.0,0.0,0.07817111823882184,0.0,0.0,0.0,0.5157335503164385,0.5159824146734996,0.990689265790918,0.010186509256830189,-0.009452497712138892,0.10132480025722922
7818,11.0,300.3791,-6585.7293,0.0,0.0,0.07818112265919597,0.0,0.0,0.0,0.5016640255228845,0.5126309075827314,0.98760231830126,0.019152895167243583,0.006029703106610364,0.10129186658922891
7819,11.0,299.93498,-6410.3128,0.0,0.0,0.0781911270795701,0.0,0.0,0.0,0.4863693192384146,0.48859839853090753,0.973607328185062,-0.000986125901448049,0.024976162042205274,0.09059872721614821
7820,11.0,300.31907,-6355.4897,0.0,0.0,0.0782010985906667,0.0,0.0,0.0,0.47375101176808454,0.5023507456456585,0.955808414808446,-0.009207193510629251,-0.003889286946892736,0.1106679966545809
7821,11.0,300.1532,-6554.4953,0.0,0.0,0.07821110301104084,0.0,0.0,0.0,0.5087983194769845,0.5026839225435404,0.9809206735643331,-0.016423531743876382,0.00017283638210512282,0.0929190831173995
7822,11.0,299.94409,-6705.3828,0.0,0.0,0.07822110743141497,0.0,0.0,0.0,0.4951677852892555,0.5372011180651225,1.005900034437104,0.013903646632933087,0.005999507341705275,0.10669941012041188
7823,11.0,300.09292999999997,-6404.3417,0.0,0.0,0.07823111185178933,0.0,0.0,0.0,0.4613108235328336,0.5139205115150055,0.971528645604912,0.008767554120765221,0.002910373866281537,0.1105116116341469
7824,11.0,300.52911,-6369.5787,0.0,0.0,0.07824111627216346,0.0,0.0,0.0,0.4529599505811665,0.5075205300408765,0.975712395797816,0.01137654718127779,-0.016364070175007985,0.1074977397417009
7825,11.0,300.14326,-6588.8431,0.0,0.0,0.07825112069253759,0.0,0.0,0.0,0.49514047819906054,0.5245022268143396,0.9832010739743912,-0.004675757083711296,-0.002098741385754648,0.10416674083295689
7826,11.0,300.36832000000004,-6538.0792,0.0,0.0,0.07826112511291172,0.0,0.0,0.0,0.5007666304393185,0.5128716760714935,0.973774504319061,0.013434625320644286,0.004710115280027185,0.1090344348433609
7827,11.0,300.02398,-6453.9539,0.0,0.0,0.07827109662400811,0.0,0.0,0.0,0.4962393276675085,0.5149495784490664,0.9506519343870411,0.005225535746195225,0.0058183461271760556,0.11747855720173088
7828,11.0,299.91865,-6421.0732,0.0,0.0,0.07828110104438246,0.0,0.0,0.0,0.4820680320339105,0.5051508825620106,0.964627004006273,-0.004474326307556626,-0.018208145840254084,0.1077323172723519
7829,11.0,299.91194,-6452.5011,0.0,0.0,0.07829110546475682,0.0,0.0,0.0,0.4839343981881065,0.5068334654130685,0.970631341713855,0.006021687791694314,-0.0035973452750803366,0.1035809606851449
7830,11.0,299.28494,-6642.6323,0.0,0.0,0.07830110988513095,0.0,0.0,0.0,0.5004800731785375,0.5158235370578195,1.0028907525676112,-0.0018382278949439683,0.0056094264195322855,0.10627406799343389
7831,11.0,299.80272,-6766.4467,0.0,0.0,0.07831111430550508,0.0,0.0,0.0,0.5209503495162966,0.5187124346829315,1.017168034161669,0.004940978641111625,0.018907587318033582,0.07960349847150362
7832,11.0,299.49956000000003,-6558.7765,0.0,0.0,0.07832111872587921,0.0,0.0,0.0,0.49939758769920456,0.5012568104401954,0.993049895343894,-0.006487471972563634,-0.014329510583712589,0.09006911760087982
7833,11.0,299.89586,-6452.0941,0.0,0.0,0.07833112314625335,0.0,0.0,0.0,0.4903210148934165,0.5019493770160465,0.969005115833359,0.01044704625504319,0.00045461380779188956,0.08034263402195062
7834,11.0,299.93891,-6592.9571,0.0,0.0,0.07834112756662748,0.0,0.0,0.0,0.5036708686709446,0.5143331474857296,0.986090336369539,0.007870175958475892,0.005932644082181385,0.1074806766100169
7835,11.0,300.29371000000003,-6692.1317,0.0,0.0,0.07835109907772408,0.0,0.0,0.0,0.5127413721086336,0.5164502221121685,1.005049350183148,0.016690676145991484,0.005459634820149005,0.08295513019203392
7836,11.0,299.90403,-6536.744000000001,0.0,0.0,0.07836110349809822,0.0,0.0,0.0,0.47978358875595356,0.5187825414573505,0.9884408232890141,0.011254142516197389,-0.013493570131961686,0.11888122971266389
7837,11.0,300.35222000000005,-6356.1177,0.0,0.0,0.07837110791847257,0.0,0.0,0.0,0.4792018514760405,0.48863931356994555,0.9642598933625421,0.0064509431918835245,-0.014619010322783987,0.0910100581207434
7838,11.0,299.74844,-6475.8575,0.0,0.0,0.0783811123388467,0.0,0.0,0.0,0.48012663470980954,0.5259044737602305,0.9624678592356821,-0.0009045648007435951,0.010210585092456292,0.11939632553349988
7839,11.0,299.63945,-6546.6056,0.0,0.0,0.07839111675922084,0.0,0.0,0.0,0.5018551244917445,0.5154421193226766,0.9727073898437449,-0.017181075008890084,0.01221789737531259,0.11292447422977789
7840,11.0,299.90161,-6539.6759,0.0,0.0,0.07840112117959475,0.0,0.0,0.0,0.4952797291603035,0.5168413873132736,0.9757770614191982,0.0003357430145552557,-0.005680315119053454,0.12190845624142789
7841,11.0,299.30041,-6546.6314,0.0,0.0,0.07841112559996888,0.0,0.0,0.0,0.4899100102553535,0.5174249687083685,0.982677507382719,0.012493899609801887,-0.005361794174592885,0.10655543741370291
7842,11.0,299.20479,-6367.7884,0.0,0.0,0.07842113002034323,0.0,0.0,0.0,0.45788570382230054,0.5023658532046495,0.9753971128967001,0.012498431877499187,0.007907363655696033,0.1163198753148779
7843,11.0,299.6803,-6446.5512,0.0,0.0,0.07843110153143984,0.0,0.0,0.0,0.46319411096369956,0.5227518473990905,0.9736446259212431,-0.001017186576638499,-0.003818388114870566,0.1055789480273309
7844,11.0,299.70633,-6653.2524,0.0,0.0,0.07844110595181397,0.0,0.0,0.0,0.5136913447398885,0.5126800806100845,0.996051182670098,-0.024621088809662274,-0.0007451995584529702,0.09315890624381823
7845,11.0,300.21635,-6607.1334,0.0,0.0,0.0784511103721881,0.0,0.0,0.0,0.49074519178277953,0.5248182595205295,0.9928401221756911,-0.008418851900875992,0.006435288579163534,0.10651135090185189
7846,11.0,300.04306,-6412.1023,0.0,0.0,0.07846111479256246,0.0,0.0,0.0,0.4886311366416385,0.4940281018417776,0.9664597505221512,0.007517535438097984,0.02193288157885688,0.1078121613802319
7847,11.0,299.85668,-6470.7473,0.0,0.0,0.07847111921293659,0.0,0.0,0.0,0.49506645014675454,0.4902740912812855,0.981605063211877,-0.008657261948705232,0.006535083074887485,0.1016066428652949
7848,11.0,300.24271,-6491.3143,0.0,0.0,0.0784811236333105,0.0,0.0,0.0,0.49529562705437247,0.49798742727003253,0.9799143946250212,-0.009392393438732062,-0.011951801687050989,0.09306970578451482
7849,11.0,300.08217,-6468.6877,0.0,0.0,0.07849112805368463,0.0,0.0,0.0,0.49125539360563253,0.49182979495482154,0.9832343491076749,3.0556927770733974e-05,-0.00978185800086922,0.08908484544048972
7850,11.0,299.53281,-6588.7347,0.0,0.0,0.07850109956478146,0.0,0.0,0.0,0.5048461881244396,0.5053496720991295,0.9926149678709701,0.007479000928844923,0.01373208515250129,0.08514337955849732
7851,11.0,299.88584,-6526.647,0.0,0.0,0.0785111039851556,0.0,0.0,0.0,0.5031839817328926,0.5064351162687545,0.97431860949026,0.005598056537510165,-0.008108532304049832,0.09435864907772361
7852,11.0,299.27735,-6568.493,0.0,0.0,0.07852110840552973,0.0,0.0,0.0,0.5043022856032605,0.5166701581788745,0.975685423080154,-0.009232980928324272,0.0010800607718436989,0.09866378156635709
7853,11.0,299.28671,-6712.7724,0.0,0.0,0.07853111282590386,0.0,0.0,0.0,0.5258923958190386,0.5197575616310774,0.994865224090553,0.010276081578920291,-0.01006188273693051,0.1030188500596689
7854,11.0,298.86887,-6762.5749,0.0,0.0,0.07854111724627799,0.0,0.0,0.0,0.5149212986387754,0.5324907615302464,1.008241858068224,0.014514593886728884,0.00980655212170634,0.10324834107481791
7855,11.0,299.20869,-6366.8324,0.0,0.0,0.07855112166665212,0.0,0.0,0.0,0.46912686255171654,0.49476156319166453,0.9714696339190881,0.0037048179774120667,-0.013374167726927587,0.1075910398109089
7856,11.0,299.97539,-6224.3888,0.0,0.0,0.07856112608702626,0.0,0.0,0.0,0.42894515314109055,0.4989229610873625,0.964190637718207,-0.021823638019325377,-0.01112178064238429,0.0947439961967544
7857,11.0,300.17589,-6456.6523,0.0,0.0,0.07857113050740039,0.0,0.0,0.0,0.4830851831467956,0.5027246450650594,0.976851258512713,-0.00992027617185503,0.0035034513399887263,0.10965608404471289
7858,11.0,300.38667999999996,-6547.5275,0.0,0.0,0.078581102018497,0.0,0.0,0.0,0.48667678998125957,0.5198455421372605,0.9837625563848051,-0.014014451610868686,0.025551021380439475,0.10937258679923388
7859,11.0,300.67566,-6454.0835,0.0,0.0,0.07859110643887135,0.0,0.0,0.0,0.4803410890934745,0.5282995234191035,0.9532396028899242,0.009264978049257142,0.000894872192142009,0.12836652734378987
7860,11.0,300.10074,-6475.9212,0.0,0.0,0.07860111085924548,0.0,0.0,0.0,0.48424130151089556,0.5069535862124235,0.977323453324315,-0.017109428094319083,0.002249212673305008,0.1030170566069919
7861,11.0,299.98745,-6542.4204,0.0,0.0,0.07861111527961961,0.0,0.0,0.0,0.5011682118514516,0.5266730442260825,0.9608911711525752,0.009461079535185851,-0.006840072165587563,0.1042622092573789
7862,11.0,299.4169,-6628.3461,0.0,0.0,0.07862111969999375,0.0,0.0,0.0,0.5037620409149426,0.5144742222971525,0.9966154312532851,-0.0002694000690902167,0.006702216449732264,0.0925860987370365
7863,11.0,299.51912000000004,-6763.0227,0.0,0.0,0.07863112412036788,0.0,0.0,0.0,0.5267267160838794,0.5278686996090844,1.001194592165213,0.014495924753636386,-0.027621263587256473,0.08510668369287572
7864,11.0,299.44431000000003,-6606.4878,0.0,0.0,0.07864112854074201,0.0,0.0,0.0,0.4977408427256965,0.5244538846520685,0.9860126200868691,0.0039298810896240665,-0.02408271052802848,0.08967231467621842
7865,11.0,300.19101,-6346.2195,0.0,0.0,0.07865113296111637,0.0,0.0,0.0,0.47409396652943153,0.48911368686926254,0.9658846196328901,0.010719401802422592,-0.007563549759589242,0.09990063873817541
7866,11.0,300.37602999999996,-6571.7049,0.0,0.0,0.07866110447221275,0.0,0.0,0.0,0.4932888041713146,0.5239804030128395,0.9803649970769921,-0.007909968620378122,0.023578449390511777,0.09482609883910732
7867,11.0,300.9397,-6650.4751,0.0,0.0,0.07867110889258688,0.0,0.0,0.0,0.5078818246290335,0.5164632119784505,0.997233351694269,-0.02064322394432758,-0.0023904982407488076,0.09120668234239872
7868,11.0,300.47145,-6404.3054,0.0,0.0,0.07868111331296124,0.0,0.0,0.0,0.4723829620130685,0.4981982440858385,0.9761677402602551,-0.03805354881484286,0.01774165157371468,0.09271660433666641
7869,11.0,300.39685,-6375.0858,0.0,0.0,0.07869111773333537,0.0,0.0,0.0,0.4723166447940235,0.4955858421480145,0.9699644306305362,-0.008129755030044353,0.01017953100339149,0.08777922303738482
7870,11.0,299.89776,-6646.3919,0.0,0.0,0.0787011221537095,0.0,0.0,0.0,0.5091892516305665,0.5176731541878625,0.993474791640828,-0.0033576343154477074,0.029755584743647572,0.1081097934646059
7871,11.0,299.63343,-6744.8155,0.0,0.0,0.07871112657408363,0.0,0.0,0.0,0.5148533399545685,0.5382044180491404,0.9971977460857551,0.004749903078328935,-0.010735245994236291,0.099167973802867
7872,11.0,299.39384,-6727.5747,0.0,0.0,0.07872113099445777,0.0,0.0,0.0,0.5221696541566325,0.5415621059655186,0.9812829611375882,0.009355644073505181,-0.019923309748277582,0.11741387131534688
7873,11.0,299.43523999999996,-6672.0958,0.0,0.0,0.07873113541483212,0.0,0.0,0.0,0.5074964045559954,0.5270485344481405,0.993605581963736,0.02389809838630868,-0.01308110945350499,0.0977012486868625
7874,11.0,298.97263,-6406.2939,0.0,0.0,0.0787411069259285,0.0,0.0,0.0,0.4798125778413146,0.5134907212200885,0.9540500712474111,0.02114872124696628,0.00946379778122912,0.1052776682425969
7875,11.0,299.29726,-6436.571999999999,0.0,0.0,0.07875111134630264,0.0,0.0,0.0,0.46172417891112855,0.5171191191656835,0.977713868720346,0.0075248058115405135,-0.014574570186648086,0.1010989397171885
7876,11.0,299.7369,-6591.7115,0.0,0.0,0.07876111576667677,0.0,0.0,0.0,0.4852670449846286,0.5173980466532115,1.001050619458504,-0.025984645813734875,-0.0018661057489202982,0.1053717586468829
7877,11.0,299.5346,-6448.0455,0.0,0.0,0.07877112018705112,0.0,0.0,0.0,0.4669465813840396,0.5220718451244796,0.971026397795344,0.005501666967422255,0.0030210855238829272,0.11187130207583791
7878,11.0,299.74842,-6281.8065,0.0,0.0,0.07878112460742526,0.0,0.0,0.0,0.4676975922256585,0.4956248421443635,0.9461898950541721,-0.0007910952486225223,0.039556669874439364,0.11173471596235789
7879,11.0,300.20849,-6549.3562,0.0,0.0,0.07879112902779939,0.0,0.0,0.0,0.5051226534142245,0.5089646647459015,0.976753429215558,-0.012575973881151989,0.01089089438184759,0.1086456305149889
7880,11.0,300.38279,-6758.3626,0.0,0.0,0.07880113344817352,0.0,0.0,0.0,0.5245628495678225,0.5324186181231265,0.9973920063949271,-0.024357197953618275,-0.008227487460489792,0.09032490448262401
7881,11.0,299.97237,-6678.9121,0.0,0.0,0.07881110495927013,0.0,0.0,0.0,0.5172252064511534,0.5086245977473396,1.004372691633867,-0.015755137262410984,-0.005762945360733425,0.09151541660811842
7882,11.0,299.89333999999997,-6596.8342,0.0,0.0,0.07882110937964426,0.0,0.0,0.0,0.4930880185314986,0.5139103283515005,0.9982745067020231,0.016269688967943285,0.011012976833396188,0.0928403393991281
7883,11.0,299.90636,-6499.3165,0.0,0.0,0.0788311138000184,0.0,0.0,0.0,0.49053151760169156,0.5024373481317056,0.9826610623335962,0.016457887001766987,-0.02150306797918758,0.08665542532497461
7884,11.0,299.624,-6478.9169,0.0,0.0,0.07884111822039253,0.0,0.0,0.0,0.4824765947392326,0.49325279326276056,0.993699581175513,0.01089957692195449,-0.017356334852186885,0.09772829739828201
7885,11.0,299.88322,-6598.6446,0.0,0.0,0.07885112264076688,0.0,0.0,0.0,0.5038881905523925,0.5187603614126615,0.98317461801428,0.011481956602430888,-0.02170580209894588,0.09316376173829741
7886,11.0,299.59615,-6601.275,0.0,0.0,0.07886112706114101,0.0,0.0,0.0,0.5023234385554636,0.5054441070084496,0.9988552003343331,0.013458275591228386,0.012276480456344288,0.09545284468846231
7887,11.0,298.90711,-6386.1203,0.0,0.0,0.07887113148151514,0.0,0.0,0.0,0.4881664297482755,0.49003632201281955,0.9630183580150121,-0.0006792909325107954,0.0029712459806141476,0.0963064602749576
7888,11.0,299.85582,-6367.5825,0.0,0.0,0.07888113590188928,0.0,0.0,0.0,0.4566216236600456,0.5148736961490775,0.964090751523349,-0.015290485084553385,-0.005359190425810916,0.1136963782884589
7889,11.0,300.59546,-6660.0642,0.0,0.0,0.07889110741298566,0.0,0.0,0.0,0.5089425353637175,0.5223348544529365,0.993215815047769,-0.011193160058928888,-0.0026395553179788273,0.09934460356029899
7890,11.0,299.72631,-6728.5697,0.0,0.0,0.07890111183336002,0.0,0.0,0.0,0.5060263306484105,0.5375183869364345,1.001772448697243,0.005595510645308905,0.01112365312856909,0.10812967343156789
7891,11.0,300.24532,-6434.5935,0.0,0.0,0.07891111625373437,0.0,0.0,0.0,0.4953720666419166,0.5119597813789966,0.9486238940468892,0.0061773752907594735,-0.003483268512571837,0.1118067175144639
7892,11.0,300.5611,-6360.4481,0.0,0.0,0.0789211206741085,0.0,0.0,0.0,0.48211734691627756,0.5013982702866565,0.949901805073009,0.002370798429654588,-0.016376290984464085,0.1042320853319059
7893,11.0,300.02755,-6469.7435,0.0,0.0,0.07893112509448263,0.0,0.0,0.0,0.4891434764222025,0.5139983899176915,0.9634985980324081,0.004126271959781336,-0.0010342457566471092,0.10375123736444991
7894,11.0,300.04434,-6585.5899,0.0,0.0,0.07894112951485677,0.0,0.0,0.0,0.48275568434677657,0.5112439404483485,1.00785526262507,0.006553307897811134,0.015662659952284184,0.11272906894799288
7895,11.0,299.71936,-6687.7859,0.0,0.0,0.0789511339352309,0.0,0.0,0.0,0.5059468107805626,0.5137654335872005,1.013207695483314,0.01106729615800709,-0.0006344959561898753,0.11002826093894388
7896,11.0,299.96306,-6488.9369,0.0,0.0,0.07896113835560503,0.0,0.0,0.0,0.47270035247439257,0.5103813201082145,0.9893931061304971,-0.004240058324811176,-0.017636155013052983,0.1029996793677769
7897,11.0,300.3374,-6310.4707,0.0,0.0,0.07897110986670164,0.0,0.0,0.0,0.46799503179251356,0.4968114593364735,0.9534190393501331,0.003032837907817797,0.0014848903598222685,0.10078792361224359
7898,11.0,299.34772000000004,-6645.2786,0.0,0.0,0.07898111428707577,0.0,0.0,0.0,0.5055600430848916,0.5267011923138605,0.987737526394604,-0.003430925734931007,-0.0023302553547282978,0.0972121214528394
7899,11.0,299.61186000000004,-6837.0332,0.0,0.0,0.07899111870745013,0.0,0.0,0.0,0.5475738201338285,0.5205877275705085,1.010125814244156,-0.015726553477089986,0.004022195469134787,0.08238322549109132
7900,11.0,299.85427999999996,-6571.5541,0.0,0.0,0.07900112312782426,0.0,0.0,0.0,0.4977128972879385,0.5088783358373815,0.9909971114363001,-0.016805913079864482,0.001083608464418829,0.09689119880166681
7901,11.0,299.31973999999997,-6452.9334,0.0,0.0,0.07901112754819839,0.0,0.0,0.0,0.4775340519439415,0.5136883657845945,0.970308216256965,0.006501159056239444,0.007773017635537113,0.0953558391636386
7902,11.0,299.50503,-6590.427,0.0,0.0,0.0790211319685723,0.0,0.0,0.0,0.4988772837728545,0.5033641477331735,1.0010837932667782,0.0032735993038290967,0.011756363981262789,0.1004438765672888
7903,11.0,299.49472000000003,-6747.4553,0.0,0.0,0.07903113638894643,0.0,0.0,0.0,0.5318138091384366,0.5237563936807315,0.9954877244219891,0.0035461778675555072,-0.013708876658960789,0.0920765960567525
7904,11.0,299.93048,-6635.6245,0.0,0.0,0.07904110790004326,0.0,0.0,0.0,0.5152770203513825,0.5185916350060095,0.98319549096634,-0.0020291865286651183,-0.01955226262790808,0.1097666296306229
7905,11.0,300.72521,-6364.9791,0.0,0.0,0.0790511123204174,0.0,0.0,0.0,0.4800605809357905,0.48289478332050456,0.9718393688805781,0.01053120883484939,0.006614706699545723,0.09257165283036081
7906,11.0,300.40457999999995,-6343.0588,0.0,0.0,0.07906111674079153,0.0,0.0,0.0,0.4474345457983516,0.5101931392996425,0.970503803923768,0.016354966122859485,0.017448707797553382,0.11422774690590089
7907,11.0,300.11092,-6591.2857,0.0,0.0,0.07907112116116566,0.0,0.0,0.0,0.48327456972298655,0.5184670356412124,1.001844652899369,-0.007980998364313213,-0.003254718908090747,0.1070647577089689
7908,11.0,300.38555,-6782.3808,0.0,0.0,0.07908112558154001,0.0,0.0,0.0,0.5083484566975865,0.5359767877042905,1.017349203279549,-0.009278741531990492,-0.0016381192075197784,0.10595893707983291
7909,11.0,300.02058,-6641.6685,0.0,0.0,0.07909113000191392,0.0,0.0,0.0,0.5004726156578015,0.5311611038215195,0.987267672190733,-0.01018986210141109,0.004384999394640746,0.09834534948393031
7910,11.0,299.74242999999996,-6347.4501,0.0,0.0,0.07910113442228806,0.0,0.0,0.0,0.4755007224382675,0.49962037099869155,0.9543452310015412,0.0024573699102485276,0.01071146501438929,0.10927133271674089
7911,11.0,300.11807999999996,-6519.8715,0.0,0.0,0.07911113884266219,0.0,0.0,0.0,0.5040317782240635,0.5132070821195955,0.9646392845974852,-0.026120873236679477,0.00909060773822313,0.1022257994714009
7912,11.0,299.22664,-6871.804,0.0,0.0,0.07912111035375902,0.0,0.0,0.0,0.5284923145156305,0.5283254423566615,1.032039100579329,-0.009571521769585652,-0.017538669207681882,0.1017466436316119
7913,11.0,299.88788,-6643.6629,0.0,0.0,0.07913111477413315,0.0,0.0,0.0,0.5082500802453775,0.5147691591362605,0.9964883899557471,0.0015559090593312683,0.005228501731887945,0.1099353155072709
7914,11.0,299.97825,-6348.0776,0.0,0.0,0.07914111919450728,0.0,0.0,0.0,0.45281660608951957,0.5071641395832035,0.9696763332296031,0.03084801527271207,-0.0036372329798419465,0.1176688962330159
7915,11.0,300.4095,-6446.5077,0.0,0.0,0.07915112361488141,0.0,0.0,0.0,0.48997799933706354,0.5004368681942735,0.9691625141038931,0.02200225577345358,-0.008137840867167363,0.09493432306903822
7916,11.0,300.05652000000003,-6572.9661,0.0,0.0,0.07916112803525555,0.0,0.0,0.0,0.4962965053706515,0.5124764781349905,0.9892445839308391,0.007283591087434474,-0.013512120714792488,0.0913613742219156
7917,11.0,300.11867,-6670.2077,0.0,0.0,0.07917113245562968,0.0,0.0,0.0,0.5176920006397225,0.5264911354356295,0.983393449638377,-0.0037966965580547764,0.020814322369463678,0.08846059117313061
7918,11.0,299.66402999999997,-6707.2671,0.0,0.0,0.07918113687600381,0.0,0.0,0.0,0.5063172347521205,0.5180477223523295,1.014476740571059,-0.007952088413785023,0.013874023253009488,0.08133300594794271
7919,11.0,300.23905,-6570.7168,0.0,0.0,0.07919114129637794,0.0,0.0,0.0,0.5019459218332055,0.5134133494424524,0.9819745448608421,-0.02253042150732948,0.004059214865513316,0.09198855880856391
7920,11.0,299.70022,-6610.6092,0.0,0.0,0.07920111280747455,0.0,0.0,0.0,0.4895611178484205,0.5124438413492695,1.0074551706905839,-0.012503666327515789,-0.01150755839270759,0.09095188743250242
7921,11.0,299.35708999999997,-6819.1677,0.0,0.0,0.0792111172278489,0.0,0.0,0.0,0.5444535468483815,0.5144675753764965,1.013935563692649,2.896109939323797e-05,0.008610451820585431,0.08374920517615302
7922,11.0,300.36975,-6685.1702,0.0,0.0,0.07922112164822304,0.0,0.0,0.0,0.5044790369507045,0.5375088826504965,0.990136882366402,0.02753919944840737,0.00020139377226101782,0.09560838972456341
7923,11.0,300.65311,-6253.3039,0.0,0.0,0.07923112606859717,0.0,0.0,0.0,0.45930294686967155,0.49235262187392054,0.9491926718580231,0.005282793293446105,-0.01230318972898029,0.11674447776928289
7924,11.0,300.07144,-6326.2236,0.0,0.0,0.0792411304889713,0.0,0.0,0.0,0.44546554754152656,0.5170611004649575,0.9604873605902221,0.011254300583212988,-0.02187395399279118,0.11946026161480988
7925,11.0,300.09914,-6572.0972,0.0,0.0,0.07925113490934543,0.0,0.0,0.0,0.49275847920147553,0.5274651524917575,0.977529811839681,-0.0018861645545249482,0.00872100257407094,0.13042496518694185
7926,11.0,300.11649,-6542.0278,0.0,0.0,0.07926113932971957,0.0,0.0,0.0,0.4716878116494625,0.5249357965321295,0.991989498716741,0.006842087216061432,0.0025442485069477774,0.11814435370993988
7927,11.0,299.54942,-6437.4774,0.0,0.0,0.07927111084081617,0.0,0.0,0.0,0.4813949299924805,0.5212497041258405,0.9541877415384981,-0.006928988104262884,-0.000965608367125626,0.11637271630759288
7928,11.0,299.14341,-6432.6725,0.0,0.0,0.0792811152611903,0.0,0.0,0.0,0.4781374221134896,0.5033766512394076,0.973857732682275,-0.012438149576049789,-0.004802368560556876,0.09111616668446551
7929,11.0,298.92537999999996,-6506.0837,0.0,0.0,0.07929111968156444,0.0,0.0,0.0,0.49824551220300356,0.5130488631164806,0.966392602438024,-0.004040227673214426,0.023046876096549578,0.1047003892631239
7930,11.0,299.2498,-6757.4281,0.0,0.0,0.07930112410193879,0.0,0.0,0.0,0.5147146665458825,0.5323512673889795,1.007023465352978,-0.017304744210095285,0.007605182990298122,0.09224892963376051
7931,11.0,300.24528,-6903.1475,0.0,0.0,0.07931112852231292,0.0,0.0,0.0,0.5355797760501085,0.5358979163165065,1.026906786172809,-0.01203222132098779,-0.005544264102951265,0.09173799320458502
7932,11.0,300.37985,-6575.4343,0.0,0.0,0.07932113294268706,0.0,0.0,0.0,0.4983298146113236,0.5089167481486725,0.99152126571303,-0.00039068321829743163,-0.022275064243627678,0.09058542729533561
7933,11.0,300.01937000000004,-6365.7971,0.0,0.0,0.07933113736306119,0.0,0.0,0.0,0.48084722778342653,0.48681794585269056,0.9673781908102941,0.014807837584919787,0.00938244889562561,0.09161497754969432
7934,11.0,300.10531000000003,-6622.0046,0.0,0.0,0.07934114178343532,0.0,0.0,0.0,0.5067459813994345,0.5056861319273355,1.0004919234858651,0.009498528346956761,-0.0009149463788831774,0.08392679448142971
7935,11.0,300.36938,-6696.3714,0.0,0.0,0.07935111329453193,0.0,0.0,0.0,0.5137724148803896,0.5230936875853275,0.9986635947404231,-0.004576457965961235,-0.006238686952985464,0.0941201391234345
7936,11.0,299.62675,-6474.408,0.0,0.0,0.07936111771490606,0.0,0.0,0.0,0.4841993428242546,0.5003809773187575,0.9834780560217271,-0.006514572967688294,-0.009072377950373993,0.09841953864300221
7937,11.0,299.67262,-6425.0048,0.0,0.0,0.07937112213528019,0.0,0.0,0.0,0.47677853213937754,0.5039049801065495,0.9723575247167161,0.0048410823137526255,0.02010492570945168,0.1053941818715959
7938,11.0,300.00293,-6563.8625,0.0,0.0,0.07938112655565432,0.0,0.0,0.0,0.48499749006052556,0.5150730227087496,0.995179797716599,0.007640739253532253,0.015533709691557785,0.1033595858032969
7939,11.0,300.01179,-6687.9304,0.0,0.0,0.07939113097602868,0.0,0.0,0.0,0.5127337524678816,0.5279139209610475,0.9923161806814821,-0.004869620908119165,-0.006015912570099344,0.0962048363561781
7940,11.0,300.27099999999996,-6760.7263,0.0,0.0,0.07940113539640281,0.0,0.0,0.0,0.5128942006212165,0.5348128774469215,1.0073849119286502,0.0057684877374554145,-0.015782348093846484,0.09660414403508671
7941,11.0,300.50482999999997,-6622.6249,0.0,0.0,0.07941113981677694,0.0,0.0,0.0,0.5147473539941085,0.5147799806473285,0.983585278147309,0.011114389996154888,0.02021924261223388,0.10396360445290889
7942,11.0,300.1422,-6363.5988,0.0,0.0,0.07942114423715108,0.0,0.0,0.0,0.45909693285933956,0.5048527235875845,0.970425489823539,0.006917604644689424,0.012472770305466589,0.12063120382787289
7943,11.0,300.13003,-6491.0249,0.0,0.0,0.07943111574824768,0.0,0.0,0.0,0.48159900869512157,0.5212438779377655,0.9702666020753582,-0.02037938679053888,0.010808302339696388,0.13335126187324486
7944,11.0,300.21456,-6651.5577,0.0,0.0,0.07944112016862181,0.0,0.0,0.0,0.4954244922020905,0.5144816798178885,1.012001259119248,-0.014258615500715789,-0.007647312814881012,0.1090677403741479
7945,11.0,299.71152,-6384.014,0.0,0.0,0.07945112458899595,0.0,0.0,0.0,0.47600261561030055,0.5052661600258875,0.959312081666731,0.0023769974937663876,0.01994103959852738,0.1085612673116629
7946,11.0,300.00066,-6117.5697,0.0,0.0,0.0794611290093703,0.0,0.0,0.0,0.45090160393052353,0.4665624988011336,0.9421243303529321,0.013183461899106387,0.01057238225266289,0.1046974407053329
7947,11.0,300.16048,-6463.3145,0.0,0.0,0.07947113342974443,0.0,0.0,0.0,0.48960432283268457,0.5055441857208265,0.969537700350921,0.01012549072785813,-0.014063598293719086,0.1020937020558639
7948,11.0,299.50341000000003,-6801.5282,0.0,0.0,0.07948113785011857,0.0,0.0,0.0,0.5279835109779154,0.5324232486760835,1.007087968854344,0.008690330986918892,-0.016024837081278283,0.09514843396091932
7949,11.0,299.64614,-6793.3432,0.0,0.0,0.0794911422704927,0.0,0.0,0.0,0.5251172392275365,0.5304396697503195,1.009449783909937,-0.00012407294084004587,0.014019730643889686,0.09910244793215009
7950,11.0,299.83212000000003,-6712.8635,0.0,0.0,0.0795011137815893,0.0,0.0,0.0,0.5136907165248265,0.5224160360509486,1.0044361210901271,0.003695649685207226,0.007341451923794894,0.09442963636647951
7951,11.0,299.70737,-6584.5514,0.0,0.0,0.07951111820196322,0.0,0.0,0.0,0.4983009471159745,0.5075331146071186,0.995705157760948,-0.028817493483065174,0.004133872247456425,0.08223878162308583
7952,11.0,299.24454,-6568.4697,0.0,0.0,0.07952112262233757,0.0,0.0,0.0,0.49895347004787355,0.5109931914461016,0.986704122750115,-0.020079438416436283,0.004080756866614346,0.07904066641195642
7953,11.0,299.29295,-6679.0304,0.0,0.0,0.07953112704271192,0.0,0.0,0.0,0.5252948417050646,0.5226025551293565,0.9823610592439881,-0.012876100587272187,0.014890721443099785,0.09358881002274641
7954,11.0,299.37172000000004,-6537.2068,0.0,0.0,0.07954113146308606,0.0,0.0,0.0,0.49103450508383256,0.5003913833972845,0.9957217345325841,0.0071797660854627425,0.026906331541948176,0.1005636609676106
7955,11.0,299.7464,-6201.1751,0.0,0.0,0.07955113588346019,0.0,0.0,0.0,0.4544896643896376,0.4924838073643676,0.9380289153037461,0.0014085160255847085,-0.003178813202024437,0.11716031561032289
7956,11.0,299.80228,-6395.985,0.0,0.0,0.0795611403038341,0.0,0.0,0.0,0.4634748015064015,0.5030811773777465,0.9776637533704001,0.014712450220505786,-0.01052148568688979,0.1141450049027349
7957,11.0,300.05452,-6749.7911,0.0,0.0,0.07957114472420845,0.0,0.0,0.0,0.5131304601470336,0.5343852555072185,1.004252236461979,0.01297999519952579,0.010028546605990491,0.09776040121445041
7958,11.0,300.09505,-6670.0998,0.0,0.0,0.07958111623530484,0.0,0.0,0.0,0.4945982374080456,0.5313674522043845,1.0015780971955621,0.009987815471845641,-0.0036275302995343664,0.11019427183532789
7959,11.0,299.95108999999997,-6466.0628,0.0,0.0,0.07959112065567919,0.0,0.0,0.0,0.48784233157128953,0.5026311220808295,0.9750481900922642,-0.010111922498419051,-0.011957475887610989,0.1109696209443489
7960,11.0,299.99553,-6512.7465,0.0,0.0,0.07960112507605333,0.0,0.0,0.0,0.4775604065790426,0.5214228483029285,0.980729078102924,-0.022032974476735277,-0.015657971644071487,0.1158396048999789
7961,11.0,299.83272999999997,-6564.7522,0.0,0.0,0.07961112949642768,0.0,0.0,0.0,0.49491619528942554,0.5176381261319055,0.982966435648734,-0.0015124996011970885,0.0022218490437544277,0.12221959494963489
7962,11.0,300.14877,-6628.8899,0.0,0.0,0.07962113391680181,0.0,0.0,0.0,0.4939861532876375,0.5271883933594436,0.993842459572114,-0.008953246893716672,0.006864019419775973,0.11556771950064589
7963,11.0,300.41361,-6473.0309,0.0,0.0,0.07963113833717594,0.0,0.0,0.0,0.4929321705336175,0.5025334751686925,0.972174126448616,0.013608329825037587,-0.002310425644971258,0.0993393387127794
7964,11.0,300.01501,-6284.0698,0.0,0.0,0.07964114275754985,0.0,0.0,0.0,0.46320362538213855,0.4959973838086305,0.9509993069188241,0.017060055456696383,-0.007587106000564062,0.08697617369713002
7965,11.0,300.07345,-6422.5288,0.0,0.0,0.07965114717792399,0.0,0.0,0.0,0.47644163661362854,0.5001729773382295,0.9756737707040041,0.02287990159932048,0.015188367712975184,0.1086070864811849
7966,11.0,299.53297000000003,-6887.2972,0.0,0.0,0.07966111868902082,0.0,0.0,0.0,0.5229393290650934,0.5433127690907955,1.027314214038019,-0.005466101990237265,0.004734209759455126,0.09959921608517731
7967,11.0,299.60395,-6865.5994,0.0,0.0,0.07967112310939495,0.0,0.0,0.0,0.5335834099080825,0.5286252123987465,1.024762141011149,-0.022889532541520978,-0.00998324996954506,0.10751462048836691
7968,11.0,299.43452,-6465.1316,0.0,0.0,0.07968112752976908,0.0,0.0,0.0,0.4874674290342895,0.4917122579432215,0.9860588952189361,-0.026698107633148078,-0.0026158576272900472,0.0989787533996924
7969,11.0,299.54526,-6469.7382,0.0,0.0,0.07969113195014321,0.0,0.0,0.0,0.4923043202416535,0.4997320615572145,0.974602491770777,-0.0027724335440428875,0.014143648091369386,0.09112515421285251
7970,11.0,299.63377,-6689.5436,0.0,0.0,0.07970113637051757,0.0,0.0,0.0,0.5144842129431385,0.5108689771163425,1.008101026436825,0.0003143936728282397,0.02146096338453218,0.07997363771978351
7971,11.0,300.29287,-6618.4273,0.0,0.0,0.07971114079089148,0.0,0.0,0.0,0.5011079943980086,0.5267670434378595,0.9839615891019481,-0.0019471006049388683,-0.014097903902354787,0.09203811079145431
7972,11.0,300.05615,-6458.3162,0.0,0.0,0.07972114521126561,0.0,0.0,0.0,0.4753413483300385,0.5045903222091875,0.983235200237759,-0.0014828260653935387,-0.015464550305982285,0.1013550832629679
7973,11.0,300.26932,-6371.6169,0.0,0.0,0.07973114963163974,0.0,0.0,0.0,0.46661060791588155,0.5014900403482135,0.968711800194411,0.028165036412422677,0.0005018258719613575,0.1099090216671759
7974,11.0,300.43842,-6454.2301,0.0,0.0,0.07974112114273657,0.0,0.0,0.0,0.4792505989383516,0.5185898516858336,0.9640843275177151,0.010346567308876689,0.014575019056442385,0.12518350347964988
7975,11.0,300.17726,-6762.1657,0.0,0.0,0.0797511255631107,0.0,0.0,0.0,0.5139749939728825,0.5440076256118724,0.9975469019377141,0.0008418819679522813,-0.007706860307357892,0.11882251186936887
7976,11.0,300.48462,-6788.4701,0.0,0.0,0.07976112998348484,0.0,0.0,0.0,0.5071177631261264,0.5514708408134344,1.00493679836204,-0.01810598084592118,0.008414643062610612,0.1021996778838229
7977,11.0,300.28987,-6427.9797,0.0,0.0,0.07977113440385897,0.0,0.0,0.0,0.4634958163134756,0.5237102198736745,0.966739265694737,0.007042220322813034,0.018211978965382382,0.1083635011571449
7978,11.0,300.05919,-6315.1735,0.0,0.0,0.0797811388242331,0.0,0.0,0.0,0.4452243230902196,0.5066801910704416,0.967750539957042,3.129901491872227e-05,0.01035634213259139,0.1155961107684479
7979,11.0,299.83571,-6591.4192,0.0,0.0,0.07979114324460723,0.0,0.0,0.0,0.49300940045623953,0.5245404466081115,0.9860770121307241,-0.0003527607121047717,-0.027851307836960076,0.11426977652004888
7980,11.0,299.87961,-6787.460999999999,0.0,0.0,0.07980114766498136,0.0,0.0,0.0,0.5234807896535315,0.5238455394245295,1.015892352285769,-0.004625336542835176,-0.01079138714252699,0.0957629073250631
7981,11.0,299.84094,-6639.528,0.0,0.0,0.07981111917607797,0.0,0.0,0.0,0.5189322288946235,0.5135313221515955,0.9857871820721201,0.02010716093917228,0.005716119324587055,0.08930087137505982
7982,11.0,300.23688,-6521.863,0.0,0.0,0.0798211235964521,0.0,0.0,0.0,0.5023333076114375,0.5102359795138705,0.9699142139555801,0.014979521668613684,0.013385425948788688,0.09429076942702441
7983,11.0,300.19883,-6601.4529,0.0,0.0,0.07983112801682646,0.0,0.0,0.0,0.4995263211244095,0.5035339380524305,1.003616584144245,-0.007313068052718623,-0.024120042714712877,0.08469269503326822
7984,11.0,300.1982,-6770.2113,0.0,0.0,0.07984113243720059,0.0,0.0,0.0,0.4971852169008606,0.5408536516280995,1.019936334759879,-0.015408028175653987,-0.002965698740291677,0.09462477718998841
7985,11.0,300.8495,-6789.838000000001,0.0,0.0,0.07985113685757472,0.0,0.0,0.0,0.5159533039981266,0.5314518458052134,1.0165360700742991,0.0015883380274567586,-0.0008509142414636973,0.09432034417094322
7986,11.0,300.61592,-6484.2034,0.0,0.0,0.07986114127794885,0.0,0.0,0.0,0.5092254347916375,0.4840137863334415,0.977796701916021,0.02003257255956098,0.02236746961299738,0.0988532735205585
7987,11.0,301.01086000000004,-6189.3602,0.0,0.0,0.07987114569832277,0.0,0.0,0.0,0.4584146203745006,0.4944546396038735,0.9285416823649292,0.007942268601765883,-0.02174015837008658,0.09944353020731231
7988,11.0,300.28379,-6408.6967,0.0,0.0,0.07988115011869712,0.0,0.0,0.0,0.48500553526631957,0.4903048535543216,0.9727733929552591,0.01063777842736699,0.002215772380254708,0.09216096533957911
7989,11.0,299.75105,-6797.5023,0.0,0.0,0.07989112162979373,0.0,0.0,0.0,0.5162601262609074,0.5299767664421344,1.0200341133945292,0.0035401323108338566,0.014661163553444188,0.094935172172622
7990,11.0,300.36413999999996,-6637.3779,0.0,0.0,0.07990112605016786,0.0,0.0,0.0,0.48866039930452654,0.5366142334747015,0.992322523627108,-0.013612749621973789,0.017769177525931285,0.1089979983697649
7991,11.0,300.16477000000003,-6393.0437,0.0,0.0,0.07991113047054199,0.0,0.0,0.0,0.4636303657942546,0.5044130237066895,0.975282260997865,-0.020542708521157478,-0.025232276203731772,0.11532809598449688
7992,11.0,300.12311,-6542.8573,0.0,0.0,0.07992113489091635,0.0,0.0,0.0,0.4844243046114565,0.5347126163495265,0.9697283230922341,-0.03247891932891977,-0.0071319241647661135,0.11539757454385388
7993,11.0,300.13268999999997,-6705.3659,0.0,0.0,0.07993113931129048,0.0,0.0,0.0,0.5209190806182105,0.5257761051050615,0.991568614890203,0.008529312880402642,0.005760787847295495,0.0986775435292153
7994,11.0,300.07698,-6672.0766,0.0,0.0,0.07994114373166461,0.0,0.0,0.0,0.5180867831436845,0.5300203665939375,0.9800375349096742,0.006744842462889123,0.013042110470406088,0.1123821118487509
7995,11.0,300.21002000000004,-6390.8256,0.0,0.0,0.07995114815203874,0.0,0.0,0.0,0.46970033171081355,0.4997991691113375,0.973151912795116,0.02726163478226387,-0.01986815854533458,0.10478921076688988
7996,11.0,300.59062,-6242.6889,0.0,0.0,0.07996115257241287,0.0,0.0,0.0,0.4370677712427306,0.47923166129398254,0.981322123253953,0.014721867366935187,-0.022051380164801775,0.10381846650858491
7997,11.0,300.30301000000003,-6403.5111,0.0,0.0,0.07997112408350948,0.0,0.0,0.0,0.46336455989552155,0.5007315111908525,0.9824113873764551,0.02219355941883378,0.00877420195334631,0.1069666345692849
7998,11.0,300.50833,-6776.2369,0.0,0.0,0.07998112850388361,0.0,0.0,0.0,0.5235742011802504,0.5196762483105525,1.016556335076299,-0.006174184160894535,0.0075871624385946326,0.09880820314286042
7999,11.0,300.8491,-6741.7241,0.0,0.0,0.07999113292425775,0.0,0.0,0.0,0.5436420247107905,0.5032038414348525,1.00246993966858,-0.01254469079756459,-0.017107839318162284,0.07899851824754672
8000,11.0,300.16393,-6399.932,0.0,0.0,0.08000113734463188,0.0,0.0,0.0,0.48998993542324154,0.5038339918045435,0.951595584337672,-0.023471303258687275,0.0011329887014172788,0.0992255416072985
8001,11.0,300.59533,-6460.2753,0.0,0.0,0.08001114176500623,0.0,0.0,0.0,0.48845098077385857,0.4898561762775405,0.9854552312068591,0.004603019608057666,0.004960129574626676,0.08471398341786922
8002,11.0,299.54326000000003,-6932.9969,0.0,0.0,0.08002114618538037,0.0,0.0,0.0,0.5415600490678155,0.5235714451399786,1.042326426194609,-0.009940337713234949,0.013631573782331588,0.09015452647830902
8003,11.0,299.6015,-6855.9025,0.0,0.0,0.0800311506057545,0.0,0.0,0.0,0.5240892767360845,0.5347674939749425,1.025166427801049,-0.015946611133807985,-0.009238887973757251,0.09080332368959032
8004,11.0,299.65959,-6310.9743,0.0,0.0,0.0800411221168511,0.0,0.0,0.0,0.47465058533936555,0.47763620781902355,0.966091809013338,0.01097351986125209,-0.0007384192434213053,0.0937728790624126
8005,11.0,299.93225,-6271.0601,0.0,0.0,0.08005112653722524,0.0,0.0,0.0,0.47636337317590455,0.4879525326521655,0.9419297660687301,0.029745855516187372,0.012366623238240688,0.09222812254295701
8006,11.0,300.1529,-6543.5764,0.0,0.0,0.08006113095759937,0.0,0.0,0.0,0.5094013654065005,0.5060918676648786,0.973590609558412,0.013747112664734386,0.013439793909404385,0.1023051369542309
8007,11.0,300.09762,-6689.2848,0.0,0.0,0.0800711353779735,0.0,0.0,0.0,0.5118176223899665,0.5105866248434765,1.010971300525099,-0.007299242559079154,-0.02352812024479468,0.1060680843806049
8008,11.0,300.21528,-6633.7305,0.0,0.0,0.08008113979834786,0.0,0.0,0.0,0.48444035449304057,0.5356904026960265,0.9963576604278451,-0.016238811184395883,-0.0025396054910145475,0.11665852376329988
8009,11.0,300.59654,-6348.126,0.0,0.0,0.08009114421872199,0.0,0.0,0.0,0.4415192626420586,0.4961732536284875,0.991979275023232,-0.006589309484464213,0.018236838043335785,0.1103317394763949
8010,11.0,300.39089,-6340.5189,0.0,0.0,0.08010114863909612,0.0,0.0,0.0,0.45593920985019654,0.5128392622007945,0.958580960924575,-0.007178965212583703,0.018502458517300483,0.12709546588834586
8011,11.0,299.68991,-6801.6964,0.0,0.0,0.08011115305947025,0.0,0.0,0.0,0.5278029802075985,0.5345412250951115,1.00520166193818,-0.02195721579325848,-0.0013761696373423688,0.09270699163296772
8012,11.0,300.28351000000004,-6835.6321,0.0,0.0,0.08012112457056664,0.0,0.0,0.0,0.5500492306581325,0.5190130153250965,1.008799226683232,-0.002295131546636848,0.00036029433805578263,0.1082451738104669
8013,11.0,299.39105,-6395.5189,0.0,0.0,0.08013112899094077,0.0,0.0,0.0,0.47497572716395453,0.5100991400878655,0.959003182241245,0.015887957125269286,0.006647960858552655,0.1003665635581586
8014,11.0,299.47881,-6337.8427,0.0,0.0,0.08014113341131512,0.0,0.0,0.0,0.46189880243336257,0.5020717472306235,0.962575354938791,0.009397521396163152,-0.0020436004166376584,0.1191038610246359
8015,11.0,299.57792,-6805.3854,0.0,0.0,0.08015113783168948,0.0,0.0,0.0,0.5152359634573306,0.5310919697671964,1.0223392573720291,-0.013668951565270487,-0.02178696444520598,0.09497998619804482
8016,11.0,299.9562,-6885.161999999999,0.0,0.0,0.08016114225206361,0.0,0.0,0.0,0.5369149458393795,0.5406190234349434,1.015383396760539,-0.003776977596533666,-0.0030101015888238975,0.10205780260482089
8017,11.0,300.19591,-6592.0838,0.0,0.0,0.08017114667243774,0.0,0.0,0.0,0.5073302923346016,0.5047621694261476,0.9917364091067631,0.005266059772019635,0.017410364387269183,0.08638202207699183
8018,11.0,300.26923,-6403.4732,0.0,0.0,0.08018115109281165,0.0,0.0,0.0,0.48746197774875155,0.49787166344610756,0.9611622966143331,0.005548533837547655,0.009418089359943052,0.09567076236096911
8019,11.0,299.34922,-6486.9155,0.0,0.0,0.08019115551318601,0.0,0.0,0.0,0.4820286672675255,0.5063542082482695,0.9834774480716671,-0.015702539449719985,-0.016989189757952484,0.1021220730586639
8020,11.0,300.42931,-6654.3730000000005,0.0,0.0,0.08020112702428239,0.0,0.0,0.0,0.5061020710933856,0.5140221101025325,1.0026390612427711,-0.016202597625821883,-0.006909860678150154,0.09808924646815491
8021,11.0,300.43126,-6872.7851,0.0,0.0,0.08021113144465675,0.0,0.0,0.0,0.5157448885850575,0.5411992509722074,1.032210947796289,-0.008549726323542292,0.009056101810042662,0.1060343127547719
8022,11.0,300.31093,-6642.1012,0.0,0.0,0.08022113586503088,0.0,0.0,0.0,0.5010030318201496,0.5274972218574225,0.9905326781204641,-0.0019182335148899084,0.004535195280813926,0.08451466800394833
8023,11.0,299.33623,-6327.2198,0.0,0.0,0.08023114028540523,0.0,0.0,0.0,0.47334562053557555,0.5062474218202305,0.9437237861657861,-0.011206764968021591,-0.007006369710424854,0.09875942933604681
8024,11.0,300.06723999999997,-6661.9643,0.0,0.0,0.08024114470577937,0.0,0.0,0.0,0.5181468891396165,0.5225697764886215,0.984354152588191,0.0007665711207546792,0.0030990694059043374,0.09142983649142232
8025,11.0,299.91804,-6919.6216,0.0,0.0,0.0802511491261535,0.0,0.0,0.0,0.5329416780897485,0.5382542395565575,1.032196255669839,0.0016530885591971387,0.00957980184675283,0.10339655929944591
8026,11.0,300.11735,-6588.1772,0.0,0.0,0.08026115354652741,0.0,0.0,0.0,0.4711652785728926,0.5418376694627145,0.989638424112208,0.01069093150111279,0.008734461676474252,0.12706188678003189
8027,11.0,298.68695,-6446.0793,0.0,0.0,0.08027112505762402,0.0,0.0,0.0,0.4606797105755476,0.5190095905397586,0.9797578474845712,-0.0010879472013470288,-0.008277953192320373,0.12152875089895389
8028,11.0,299.41252000000003,-6648.3654,0.0,0.0,0.08028112947799837,0.0,0.0,0.0,0.4962256893211625,0.5281377580406386,0.996573624554159,0.007558402651731263,-0.008814319969855652,0.11020944018932488
8029,11.0,299.15812999999997,-6673.1673,0.0,0.0,0.0802911338983725,0.0,0.0,0.0,0.5075983780460595,0.5324116064324345,0.988466255866524,0.0035855871156198972,0.009883343003060012,0.09194155413642492
8030,11.0,299.66089,-6656.7081,0.0,0.0,0.08030113831874663,0.0,0.0,0.0,0.4989587896108985,0.5286229528510235,0.995891291804318,-0.0031733703264622674,-0.005856244011391285,0.09861917728370499
8031,11.0,299.72979,-6640.5236,0.0,0.0,0.08031114273912077,0.0,0.0,0.0,0.5064029050480755,0.5288413183800744,0.9833091269650551,-0.01337607770336609,-0.009800045130889152,0.08785746418360661
8032,11.0,300.0054,-6475.7613,0.0,0.0,0.08032114715949512,0.0,0.0,0.0,0.4890940095523206,0.49423444009214157,0.9851412857958751,-0.014125142091542987,0.0027166168384342073,0.09619041679400502
8033,11.0,300.14185,-6579.625,0.0,0.0,0.08033115157986903,0.0,0.0,0.0,0.4984301365037246,0.5144165683664625,0.987195012026062,-0.0008337548408876962,0.02285102802447088,0.09899728979702181
8034,11.0,300.6122,-6880.1187,0.0,0.0,0.08034115600024316,0.0,0.0,0.0,0.5368376956517554,0.5389776798629555,1.0155689228538491,-0.007081820771171294,0.010714943501982592,0.08758432944690031
8035,11.0,300.46991,-6765.9755,0.0,0.0,0.08035112751133999,0.0,0.0,0.0,0.5158637529542885,0.5252386569870195,1.0155852361804591,0.007534816722528513,-0.005259809437452775,0.1002617387823132
8036,11.0,300.22434,-6446.6357,0.0,0.0,0.08036113193171412,0.0,0.0,0.0,0.4813982027903035,0.5021715928954775,0.9760464947532891,0.009621814032999111,-0.014640538847658686,0.09183253247866531
8037,11.0,300.3541,-6516.0984,0.0,0.0,0.08037113635208826,0.0,0.0,0.0,0.4835922236293365,0.5092010762592335,0.9879379168668811,0.022272567595381276,0.009765150114670282,0.1082616391245919
8038,11.0,300.18329,-6664.6221,0.0,0.0,0.08038114077246239,0.0,0.0,0.0,0.5027049272181134,0.5216165614570465,1.0015572039785001,0.013940601890580287,-0.007203540580509103,0.09885079105781351
8039,11.0,300.57367999999997,-6555.3075,0.0,0.0,0.08039114519283652,0.0,0.0,0.0,0.47974272437942056,0.5327371028945584,0.9801699565652431,-0.007861700324039413,-0.01962401188073918,0.11679069210634388
8040,11.0,299.81632,-6500.0271,0.0,0.0,0.08040114961321065,0.0,0.0,0.0,0.49779114046066053,0.5127036082774066,0.965351183985244,-0.01143812542960509,-0.01044903323848929,0.1080171317429609
8041,11.0,299.82369,-6459.2247,0.0,0.0,0.08041115403358479,0.0,0.0,0.0,0.4748986289638456,0.5150351372875106,0.9735092759728851,-0.0008191977300135212,0.005692578890313795,0.0985260373080128
8042,11.0,299.11604,-6426.1339,0.0,0.0,0.08042115845395892,0.0,0.0,0.0,0.4827216594084186,0.5166866944205065,0.9539759013400911,0.008705126566204101,0.004745512260345595,0.11114722342187688
8043,11.0,299.84628,-6612.9823,0.0,0.0,0.08043112996505553,0.0,0.0,0.0,0.48632857645189354,0.5291398218595345,0.9947130845880381,-0.008495589789249431,0.008672155103975072,0.1065400360121829
8044,11.0,299.90049,-6768.6084,0.0,0.0,0.08044113438542966,0.0,0.0,0.0,0.5178942048296785,0.5297881904660234,1.009805536020047,0.00099842413334429,0.0018430521813200883,0.11701240136072488
8045,11.0,299.36067,-6584.2507,0.0,0.0,0.08045113880580401,0.0,0.0,0.0,0.4991061668379435,0.5063734802651716,0.995968167089405,0.0035384832462961066,0.02895115333025637,0.1004907069604106
8046,11.0,299.84594,-6463.7317,0.0,0.0,0.08046114322617814,0.0,0.0,0.0,0.49598831522023556,0.4988899899291085,0.9699347221376041,0.014342302866225088,0.0023617032941069677,0.11652552455517388
8047,11.0,300.12174,-6678.9854,0.0,0.0,0.08047114764655228,0.0,0.0,0.0,0.4961750673461665,0.5202135748385824,1.013856124884809,0.007719362496366763,-0.016810073484775083,0.09062571614581182
8048,11.0,300.30212,-6743.8921,0.0,0.0,0.08048115206692641,0.0,0.0,0.0,0.5272536264008815,0.5181948361343486,1.00452633074653,-0.0033311208027310274,-0.024583507363453272,0.07918065704577243
8049,11.0,300.66201,-6558.911999999999,0.0,0.0,0.08049115648730032,0.0,0.0,0.0,0.48884767832050946,0.5064260983428646,0.9984717054364851,0.005628507540115444,0.004095514043720766,0.0896823367329575
8050,11.0,299.75819,-6607.8499,0.0,0.0,0.08050116090767467,0.0,0.0,0.0,0.5130228935164175,0.5155835386391335,0.9800149394324441,0.003907143554730046,-0.009258028369471262,0.09296465606714722
8051,11.0,300.02308999999997,-6634.2544,0.0,0.0,0.08051113241877128,0.0,0.0,0.0,0.5059318653415875,0.5196868266415965,0.9910289882844461,-0.005382339542895555,-0.0015238766772949187,0.10327777599022289
8052,11.0,300.48197000000005,-6600.0948,0.0,0.0,0.08052113683914541,0.0,0.0,0.0,0.5120337081062925,0.5185347612778965,0.975695535316152,-0.0016518474291496482,-0.005791451328446745,0.1029324806211449
8053,11.0,299.25358,-6677.7117,0.0,0.0,0.08053114125951955,0.0,0.0,0.0,0.5026501914477115,0.5192914361875745,1.0079160069685649,-0.008100889358545534,0.021443716854580082,0.1111045959901699
8054,11.0,299.2342,-6559.3097,0.0,0.0,0.0805411456798939,0.0,0.0,0.0,0.5070734536992535,0.49496421321166456,0.9918286857933701,0.0026851006059987973,0.008809584140213262,0.0925927152601895
8055,11.0,299.43657,-6404.4326,0.0,0.0,0.08055115010026803,0.0,0.0,0.0,0.46571241236473654,0.5040914383899515,0.976983730830787,-0.005896017016241574,0.009591472461404632,0.13093360660464087
8056,11.0,299.35062,-6541.7653,0.0,0.0,0.08056115452064216,0.0,0.0,0.0,0.49678501350886356,0.5031934657538285,0.9885548341902661,0.005280328359927836,0.0003510120248171897,0.11516421291332289
8057,11.0,300.27521,-6650.7615,0.0,0.0,0.0805711589410163,0.0,0.0,0.0,0.5131557711345315,0.5169081402298615,0.9916015151209501,0.005790073004335715,0.008054717983288773,0.1189048587049959
8058,11.0,300.06732999999997,-6488.1937,0.0,0.0,0.0805811304521129,0.0,0.0,0.0,0.4967090704138686,0.4999804598192295,0.975559344370211,0.012075903546048887,-0.0025328584612486675,0.1101809171990099
8059,11.0,300.1628,-6433.5165,0.0,0.0,0.08059113487248704,0.0,0.0,0.0,0.4606738641224705,0.5149161107982635,0.980038386039758,-0.005043814407010725,-0.018691713370978483,0.10367491936691789
8060,11.0,301.05029,-6544.0563,0.0,0.0,0.08060113929286117,0.0,0.0,0.0,0.48488898110731654,0.5180603069185715,0.986280401823297,0.016975936446644482,-0.017582384869996283,0.0909838726984091
8061,11.0,300.25343,-6705.0015,0.0,0.0,0.0806111437132353,0.0,0.0,0.0,0.49049187925777954,0.5283310253647125,1.019330107225049,0.003108667620126607,0.009329212127421552,0.0982235294641576
8062,11.0,300.34027000000003,-6758.6498,0.0,0.0,0.08062114813360943,0.0,0.0,0.0,0.5195577791088605,0.5333850054060014,1.001518011464632,-0.011856669661662187,0.002122858055359778,0.1050085996785419
8063,11.0,299.7331,-6678.1977,0.0,0.0,0.08063115255398379,0.0,0.0,0.0,0.5184778774172825,0.5193202530204185,0.9922072258982291,-0.01998950639056068,0.007874135537216673,0.10759845680164089
8064,11.0,299.6831,-6565.342,0.0,0.0,0.08064115697435792,0.0,0.0,0.0,0.5198747845351465,0.5027989568273935,0.973026290047718,-0.0037032176502041266,0.006801899082645174,0.10727780367499488
8065,11.0,299.69915,-6506.4185,0.0,0.0,0.08065116139473205,0.0,0.0,0.0,0.47819509630918156,0.5054528006943075,0.9941408718590651,0.010148766703855292,0.016961953595264485,0.12410232509294587
8066,11.0,299.65094,-6701.0082,0.0,0.0,0.08066113290582866,0.0,0.0,0.0,0.5136791046786805,0.5138366245392265,1.0094234394073371,0.004564865574217155,-0.0035739744588738167,0.08760577285876661
8067,11.0,300.17422999999997,-6684.0757,0.0,0.0,0.08067113732620279,0.0,0.0,0.0,0.5011868151232876,0.5062073173812726,1.0243979789252091,0.0030740021050553873,-0.01125359941414379,0.10034142583642772
8068,11.0,300.51538999999997,-6486.0083,0.0,0.0,0.08068114174657692,0.0,0.0,0.0,0.4936182117788245,0.5161918332041675,0.9617745327222562,0.005404599127717405,-0.01906233695280618,0.08879563143794651
8069,11.0,300.23400000000004,-6497.7518,0.0,0.0,0.08069114616695106,0.0,0.0,0.0,0.4876686301066466,0.5126697049290605,0.974815943036843,-0.0006042088366557694,0.015357186325386287,0.1115525639918809
8070,11.0,300.50796,-6733.6728,0.0,0.0,0.08070115058732541,0.0,0.0,0.0,0.5246749859563895,0.5224258949744215,0.9997674901943691,-0.009279628733778052,-0.00979048714269585,0.08192469131733751
8071,11.0,300.32481,-6734.0288,0.0,0.0,0.08071115500769954,0.0,0.0,0.0,0.49244221344776257,0.5484128722766365,1.006121510643962,-0.01280363699312059,-0.006502466655493494,0.11317620608462188
8072,11.0,300.57138,-6630.5087,0.0,0.0,0.08072115942807367,0.0,0.0,0.0,0.5118894922195595,0.5107807939601395,0.9928388049505611,-0.003518283700252567,-0.0052724953287047755,0.08989937693087773
8073,11.0,300.9944,-6558.3885,0.0,0.0,0.0807311638484478,0.0,0.0,0.0,0.4690740418240036,0.5268110995522075,0.9977012097954431,0.015326256866083788,-0.0010056564997755692,0.1098227332886599
8074,11.0,300.00933,-6462.4088,0.0,0.0,0.08074113535954419,0.0,0.0,0.0,0.5058294358889786,0.49717831666767953,0.961403156295604,-0.004421661924334056,0.0010296873470972288,0.1044954492978979
8075,11.0,300.26185,-6522.7181,0.0,0.0,0.08075113977991832,0.0,0.0,0.0,0.4909556640935515,0.5071140546307605,0.9846737012722281,-0.011509013419851189,0.004591019281823326,0.11628492831892889
8076,11.0,300.92172,-6636.8756,0.0,0.0,0.08076114420029268,0.0,0.0,0.0,0.5256496008300765,0.5158681808572255,0.9759266779289641,-0.011882036377915689,0.007719374250067924,0.11801419160209388
8077,11.0,300.18174,-6561.307,0.0,0.0,0.08077114862066703,0.0,0.0,0.0,0.4834958635448265,0.5081289056659185,1.002848712820962,0.005600233708000036,0.022242149827379275,0.11316382416839989
8078,11.0,300.20522,-6413.3906,0.0,0.0,0.08078115304104116,0.0,0.0,0.0,0.4756343903914595,0.5103755040526405,0.963500725857618,0.012758090387875487,0.0028833851392679574,0.1124095405289579
8079,11.0,299.79677999999996,-6645.5692,0.0,0.0,0.0807911574614153,0.0,0.0,0.0,0.4866928398628435,0.5241675300413075,1.0092267270329232,0.01022113910549789,-0.014666120372933385,0.09084666140961742
8080,11.0,299.68786,-6762.4569,0.0,0.0,0.08080116188178921,0.0,0.0,0.0,0.5170922781705345,0.5259717130368665,1.012554047843804,0.0016989074247441083,-0.00930149852128643,0.0934894000554354
8081,11.0,299.75806,-6600.6701,0.0,0.0,0.08081113339288604,0.0,0.0,0.0,0.49061619491254854,0.5264495820490285,0.989373124838525,0.0031600746613000873,-0.00971283530273221,0.09723803431089681
8082,11.0,300.31915,-6674.6031,0.0,0.0,0.08082113781325995,0.0,0.0,0.0,0.5045130517565616,0.5308579393915995,0.9935416762799291,-0.009324222377304101,-0.008562116548415112,0.10075338799583522
8083,11.0,299.58581000000004,-6710.938,0.0,0.0,0.0808311422336343,0.0,0.0,0.0,0.5159394528692595,0.5213983884455144,1.002619748695865,-0.016386537982725383,0.003083451371512957,0.0896516413344281
8084,11.0,300.04818,-6631.1155,0.0,0.0,0.08084114665400843,0.0,0.0,0.0,0.5049049363652375,0.5224034717497086,0.988385104666015,-0.00975044937559443,0.008254173732348522,0.10573278979001391
8085,11.0,300.35931,-6708.1299,0.0,0.0,0.08085115107438279,0.0,0.0,0.0,0.5101242585578445,0.5118938187974865,1.017085859578559,-0.0024303841216602377,0.014912015907201386,0.10644306797761288
8086,11.0,301.00065,-6658.3423,0.0,0.0,0.08086115549475692,0.0,0.0,0.0,0.5132760945839066,0.5190316591269365,0.991662066946926,-7.039848810953984e-06,0.007044526378715623,0.10850550815865989
8087,11.0,300.36382000000003,-6481.2288,0.0,0.0,0.08087115991513083,0.0,0.0,0.0,0.4812761872132616,0.5091192461811574,0.9797362956549441,0.0030201769425182573,-0.011944582280088488,0.1131517664922099
8088,11.0,300.43301,-6539.0711,0.0,0.0,0.08088116433550496,0.0,0.0,0.0,0.4905624419947435,0.5050350680755805,0.992116833856808,0.0058897428702973645,-0.004101259881062836,0.11105472382024789
8089,11.0,300.11953,-6782.3466,0.0,0.0,0.08089113584660157,0.0,0.0,0.0,0.5092960684561085,0.5467478591823125,1.0056200936994761,0.0004807898879602675,0.004012332290011366,0.09593441915624
8090,11.0,300.09125,-6659.5855,0.0,0.0,0.08090114026697592,0.0,0.0,0.0,0.5105818321705036,0.5157172369898285,0.99804862285723,-0.002931426264934247,0.0024218936937722975,0.09002491355201722
8091,11.0,299.94,-6451.1097,0.0,0.0,0.08091114468735006,0.0,0.0,0.0,0.46596587687725155,0.5151045145218576,0.979905863059179,-0.004419708682116286,-0.012384036954459289,0.0994970936473486
8092,11.0,299.72213,-6540.3557,0.0,0.0,0.08092114910772419,0.0,0.0,0.0,0.5026595234811325,0.5136233049956735,0.9718219815088621,0.001088073249659469,-0.0047087584368182755,0.097878582653114
8093,11.0,299.24457,-6677.4433,0.0,0.0,0.08093115352809832,0.0,0.0,0.0,0.4976057866198675,0.5168521074993315,1.015318143454099,0.0015729714817401988,0.0012426939990193488,0.1174393342903599
8094,11.0,299.95576,-6622.443,0.0,0.0,0.08094115794847268,0.0,0.0,0.0,0.49780388714691853,0.5322626485352335,0.9829907739161361,0.0028255602732860873,0.0017547845200587484,0.1084659407422549
8095,11.0,300.46612999999996,-6590.7293,0.0,0.0,0.08095116236884659,0.0,0.0,0.0,0.4859698251214875,0.5095147987551955,1.0079325128126941,-0.004185110987788296,-0.006807552612903134,0.11562233368103589
8096,11.0,300.32865,-6574.7955,0.0,0.0,0.08096116678922072,0.0,0.0,0.0,0.5058591038519066,0.5057306136067256,0.986983941897731,0.0023005441260210277,0.018065500491176084,0.1087676055620269
8097,11.0,300.19068,-6488.9007,0.0,0.0,0.08097113830031755,0.0,0.0,0.0,0.4903339946271975,0.5063593656912786,0.9757704448960451,0.023332953076783177,0.012241470638889088,0.1135424554657679
8098,11.0,299.99137,-6727.8357,0.0,0.0,0.08098114272069168,0.0,0.0,0.0,0.5250409617600085,0.5219758194125025,0.998077277570058,-0.0006714233494593254,0.006303572348314154,0.09969199433058382
8099,11.0,300.26987,-6810.715,0.0,0.0,0.08099114714106581,0.0,0.0,0.0,0.5107586037829496,0.5342223147586375,1.025306357639859,-0.00027720725230322575,-0.017764603714979885,0.08764611946449852
8100,11.0,300.06862,-6631.0545,0.0,0.0,0.08100115156143994,0.0,0.0,0.0,0.49623314684189856,0.5292291094583466,0.9902127241363872,-0.008373097072735342,-0.005730380414444515,0.09893066758969672
8101,11.0,299.72117000000003,-6627.9951,0.0,0.0,0.08101115598181408,0.0,0.0,0.0,0.49269671147537947,0.5171175486280285,1.004930749258943,0.009429403411884661,-0.003794746963537366,0.09482857015610122
8102,11.0,299.35947999999996,-6752.8631,0.0,0.0,0.08102116040218821,0.0,0.0,0.0,0.5183573513178875,0.5332571129783795,1.0010873193771261,-0.003971280968834916,-0.0003023966801867287,0.1010821086197774
8103,11.0,300.05904,-6640.9319,0.0,0.0,0.08103116482256234,0.0,0.0,0.0,0.5035422061732465,0.5139949246023495,1.0011403528873601,0.005008329780558665,-0.004560009167812866,0.0993927623243019
8104,11.0,299.70604,-6607.8688,0.0,0.0,0.08104113633365917,0.0,0.0,0.0,0.5026438788995885,0.5145301334376705,0.991453114511304,-0.004560733641634365,0.007294859441796573,0.11428342499889589
8105,11.0,300.53654,-6665.7312,0.0,0.0,0.08105114075403308,0.0,0.0,0.0,0.4964933494675785,0.5287016013237855,1.00102089070057,0.005119552116210456,-0.0002183907691109908,0.11762742390642289
8106,11.0,299.92395,-6588.7003,0.0,0.0,0.08106114517440721,0.0,0.0,0.0,0.49868507022888453,0.5096924113652245,0.9944228998918991,-0.004504590770818496,-0.0013616306129824788,0.1088042041556389
8107,11.0,300.08697,-6561.4951,0.0,0.0,0.08107114959478157,0.0,0.0,0.0,0.4796453713098126,0.5206765389417735,0.994208749483264,0.011465248108281888,-0.008162453927996482,0.1145868123438379
8108,11.0,300.18228999999997,-6730.7195,0.0,0.0,0.0810811540151557,0.0,0.0,0.0,0.5225321443799075,0.5275551088356355,0.995883418851041,-0.001156474926810189,0.003201712248984397,0.1006187503622975
8109,11.0,300.67445,-6643.4246,0.0,0.0,0.08109115843552983,0.0,0.0,0.0,0.5162577147256695,0.5115323114268086,0.9916451659352581,0.016515381852191285,0.0025938485178929175,0.09747554418733723
8110,11.0,300.6522,-6499.3854,0.0,0.0,0.08110116285590396,0.0,0.0,0.0,0.4876454064143545,0.5228851708472485,0.9651202946849572,-0.01112780238772859,0.0026931129824895573,0.1008510987427285
8111,11.0,300.77091,-6697.6757,0.0,0.0,0.0811111672762781,0.0,0.0,0.0,0.49890428688801947,0.5219037570653905,1.015118127884359,-0.0006778941064529394,-0.016039910189765885,0.10170451269245391
8112,11.0,300.58598,-6805.8966,0.0,0.0,0.0811211387873747,0.0,0.0,0.0,0.5133340930196305,0.5332431503920015,1.0222453290877591,-0.008473297679099372,-0.002962824149757977,0.09959658974091809
8113,11.0,299.99619,-6600.894,0.0,0.0,0.08113114320774883,0.0,0.0,0.0,0.4865058749543915,0.5199503121976006,1.000050764524826,-0.006516847916812814,0.00924560876034554,0.10813521590961489
8114,11.0,299.84037,-6466.3379,0.0,0.0,0.08114114762812297,0.0,0.0,0.0,0.4972313907079175,0.4918850272177725,0.9764888189519431,-0.003146156961901517,0.013650463803945885,0.10638790664216889
8115,11.0,300.26968999999997,-6544.3541,0.0,0.0,0.0811511520484971,0.0,0.0,0.0,0.5102105773338635,0.5033479053340706,0.975761751210187,0.0016941178928464185,0.007515465165493664,0.0969451857802449
8116,11.0,299.88115,-6681.4501,0.0,0.0,0.08116115646887145,0.0,0.0,0.0,0.5176317629212775,0.5266163123529835,0.98674591931674,-0.0017842956318712682,0.008843338034169512,0.11289076339895089
8117,11.0,299.59505,-6710.0496,0.0,0.0,0.08117116088924559,0.0,0.0,0.0,0.5157544840635044,0.5187332671049876,1.005199787425495,0.0037354520743104165,-0.015486008916600087,0.10815656508922189
8118,11.0,300.08499,-6641.1259,0.0,0.0,0.08118116530961972,0.0,0.0,0.0,0.4946232545530145,0.5265344620099055,0.9975787281233551,-0.005254591199437775,-0.0006813515893716663,0.1025315375565749
8119,11.0,300.06141,-6481.1814,0.0,0.0,0.08119116972999385,0.0,0.0,0.0,0.4762617441908745,0.5026611041512885,0.991194462158277,0.005074565432970616,-0.022216433539841277,0.09826579313907871
8120,11.0,299.86106,-6537.7537,0.0,0.0,0.08120114124109046,0.0,0.0,0.0,0.49766481857069356,0.5142064202957225,0.9754426483561941,0.0032706560149386166,-0.0028166730566589874,0.1024877144897499
8121,11.0,299.92983,-6772.2913,0.0,0.0,0.08121114566146459,0.0,0.0,0.0,0.5080768752732836,0.5437007526865865,1.006829823126367,-0.02108713793238848,0.01140556767739189,0.1075015090320729
8122,11.0,299.39382,-6661.5916,0.0,0.0,0.08122115008183872,0.0,0.0,0.0,0.5115497190635265,0.5111295141145555,1.002278273279664,-0.01120603948094999,0.004154111411578876,0.09582598417028831
8123,11.0,299.68757,-6492.416,0.0,0.0,0.08123115450221285,0.0,0.0,0.0,0.46504726433659155,0.5262199187813625,0.982265165254524,-0.023024885529629276,-0.0040968113078237965,0.1185946420543799
8124,11.0,300.30955,-6611.0372,0.0,0.0,0.08124115892258699,0.0,0.0,0.0,0.4874271827403175,0.5226456182586066,0.999517440334691,0.0008558695816077511,-0.005383227352633175,0.10612998382921389
8125,11.0,300.1076,-6695.6905,0.0,0.0,0.08125116334296134,0.0,0.0,0.0,0.49509989753255557,0.5250047988639395,1.015218034344219,0.014667900653359085,-0.010763078961233189,0.1042955451856689
8126,11.0,300.60554,-6546.6469,0.0,0.0,0.08126116776333547,0.0,0.0,0.0,0.5011721939243445,0.5168066328348435,0.9720383712002181,0.006470446331133334,0.00999560878366478,0.09668147933571909
8127,11.0,300.02662999999995,-6562.861999999999,0.0,0.0,0.08127113927443208,0.0,0.0,0.0,0.5008277294203485,0.5041350284092535,0.9899834256387571,0.009093538260162352,-0.004407826602168616,0.09166494800487601
8128,11.0,300.27812,-6642.590999999999,0.0,0.0,0.08128114369480621,0.0,0.0,0.0,0.5208261655840405,0.5207760299690926,0.9775796029495951,0.005700318297227614,0.0032181276098794667,0.0958691293727964
8129,11.0,300.43417,-6608.645,0.0,0.0,0.08129114811518035,0.0,0.0,0.0,0.49699790748737455,0.5219801257254275,0.989885028921546,-0.004563133321846196,0.013729662471512185,0.11220069955084691
8130,11.0,299.57771,-6703.669,0.0,0.0,0.08130115253555448,0.0,0.0,0.0,0.5036211180910345,0.5225960703287165,1.0115307969653171,-0.008196550705786572,0.0023078629328183377,0.1045742294931729
8131,11.0,299.57385,-6699.8372,0.0,0.0,0.08131115695592861,0.0,0.0,0.0,0.5013610232129805,0.5348257761206945,1.00039642466394,-0.01078539072843519,-0.005925101549761994,0.10396987647102789
8132,11.0,299.9086,-6561.0044,0.0,0.0,0.08132116137630296,0.0,0.0,0.0,0.49231458446516657,0.5190821797769225,0.9829847552105421,-0.005084870389137635,-0.004122233448857766,0.096787180572901
8133,11.0,299.66567000000003,-6616.4235,0.0,0.0,0.0813311657966771,0.0,0.0,0.0,0.48341633354447755,0.5277055156804795,1.0001056826802461,0.001159409805724839,-0.011025467167378889,0.1044313713615739
8134,11.0,299.76955,-6732.2908,0.0,0.0,0.08134117021705123,0.0,0.0,0.0,0.5147372822881144,0.5328426227599725,0.9988684029831361,-0.010849559857268189,-0.0009940654860516249,0.0970606780531431
8135,11.0,300.22333,-6631.8929,0.0,0.0,0.08135114172814784,0.0,0.0,0.0,0.48978612016562656,0.5154143765349386,1.0107293364012189,-0.0019613602762461884,0.004298522044981096,0.1051778732402479
8136,11.0,300.41353,-6444.0083,0.0,0.0,0.08136114614852175,0.0,0.0,0.0,0.4733745285609285,0.5205667330284366,0.9648763547233821,0.004149673173490856,0.01160141777597079,0.1163564232459849
8137,11.0,300.90164,-6478.392,0.0,0.0,0.08137115056889588,0.0,0.0,0.0,0.48385511136778153,0.5161238441224575,0.969290426796517,0.008384467968007561,0.009663106912999401,0.1129514672124419
8138,11.0,300.8185,-6577.5841,0.0,0.0,0.08138115498927023,0.0,0.0,0.0,0.5052602122478005,0.5109001852194225,0.9832609165252971,0.009253790045627971,-0.0004715544172737975,0.09453209317684122
8139,11.0,300.41772000000003,-6645.0206,0.0,0.0,0.08139115940964459,0.0,0.0,0.0,0.4983400180398306,0.5447882436214135,0.976792074574372,-0.00913479598038417,-0.009877440719902502,0.1170516344045969
8140,11.0,300.50186,-6679.2105,0.0,0.0,0.08140116383001872,0.0,0.0,0.0,0.5143974888670795,0.5117418414149876,1.0041738919642471,-0.005690356123569425,-0.014556000352065383,0.09556539144331981
8141,11.0,300.14229,-6657.3377,0.0,0.0,0.08141116825039285,0.0,0.0,0.0,0.5025566887284835,0.5251510919133775,0.9959566363032671,-0.01150274545473259,0.0029308164910240675,0.1104472499877949
8142,11.0,300.07702,-6585.698,0.0,0.0,0.08142117267076676,0.0,0.0,0.0,0.48613786251807156,0.5232256127483474,0.992524261722018,-0.0023522708476010575,0.0032920445086494967,0.09969036502442301
8143,11.0,299.93548,-6712.898,0.0,0.0,0.08143114418186337,0.0,0.0,0.0,0.5137273657809435,0.5163022166700615,1.010523778353432,0.006059650523915944,-0.002198125717838118,0.09759844635821671
8144,11.0,300.14085,-6746.2836,0.0,0.0,0.0814411486022375,0.0,0.0,0.0,0.5076719096058165,0.5271916560247655,1.015838244730429,0.006234095916782364,-0.0022214403999890977,0.0968223859476255
8145,11.0,299.81146,-6572.6565,0.0,0.0,0.08145115302261186,0.0,0.0,0.0,0.48721717652459157,0.5161862805936195,0.9945199793839801,0.009590501970458852,-0.002136033245085068,0.0981443459953428
8146,11.0,299.76942,-6535.9583,0.0,0.0,0.08146115744298599,0.0,0.0,0.0,0.4898777078421655,0.5047509831450435,0.99213944959904,-0.0008056687133533113,-0.008925245119253111,0.0972390860645006
8147,11.0,299.95626,-6702.1028,0.0,0.0,0.08147116186336034,0.0,0.0,0.0,0.5030899419911116,0.5247173195455676,1.009464638156403,-0.0034733096826389765,0.0038739888968829365,0.09591240427131732
8148,11.0,300.15246,-6729.8576,0.0,0.0,0.08148116628373447,0.0,0.0,0.0,0.5171924582079215,0.5277268141975815,1.000789393450223,-0.003716567625571666,0.004407089462720866,0.11440479209587388
8149,11.0,300.13645,-6602.0792,0.0,0.0,0.08149117070410838,0.0,0.0,0.0,0.5071444926637646,0.5214490002880094,0.9782737299306001,0.005605665032511064,0.004705530931274745,0.11563631653241589
8150,11.0,300.26552000000004,-6616.4164,0.0,0.0,0.08150114221520499,0.0,0.0,0.0,0.5092676062607995,0.5207373136827715,0.9812204638714199,0.0023344527432675477,0.006404192440219584,0.1127328483708659
8151,11.0,300.18801,-6619.2924,0.0,0.0,0.08151114663557935,0.0,0.0,0.0,0.49035027755630456,0.5167815244973655,1.004967813947601,0.0015062577779310687,-0.009071147966077601,0.1031469147398079
8152,11.0,300.77351,-6504.3434,0.0,0.0,0.08152115105595348,0.0,0.0,0.0,0.4843277520094275,0.5132089262347774,0.9796213019010951,0.007004719733962013,-0.01061417273978729,0.10501174075385189
8153,11.0,300.86902000000003,-6492.3756,0.0,0.0,0.08153115547632761,0.0,0.0,0.0,0.4719512972054665,0.5095332196420135,0.9920355408012851,-0.006212239098875264,0.0002225071787022488,0.11159314465838589
8154,11.0,300.0884,-6502.866999999999,0.0,0.0,0.08154115989670174,0.0,0.0,0.0,0.48374714956962656,0.5072364045803355,0.985725637261046,0.0035386619836137467,0.000931077279945173,0.09782713893228691
8155,11.0,299.89603,-6497.4315,0.0,0.0,0.08155116431707587,0.0,0.0,0.0,0.47795481418046754,0.5170513732639975,0.9800507578234791,-0.022191211718352078,-0.002139376463790018,0.11658552922609589
8156,11.0,300.55939,-6679.0707,0.0,0.0,0.08156116873745023,0.0,0.0,0.0,0.5216998303502645,0.5123134563264015,0.9962574297279532,0.012030411656309189,-0.007364229482067863,0.09543263946821821
8157,11.0,300.02967,-6784.5869,0.0,0.0,0.08157117315782414,0.0,0.0,0.0,0.5244870888578455,0.5298089215630695,1.0080489960441898,0.0004547735872001587,-0.001107952507346399,0.1037980393865689
8158,11.0,299.81514,-6566.1218,0.0,0.0,0.08158114466892097,0.0,0.0,0.0,0.5030676808864145,0.5097946381678135,0.9830747622169251,0.021531498763743478,-0.005568165254260125,0.09852158002082291
8159,11.0,299.78143,-6495.1949,0.0,0.0,0.08159114908929488,0.0,0.0,0.0,0.4811044311888105,0.5086564543304835,0.9846161891965521,-0.0036394707426877964,-6.177504581472233e-05,0.1073776189423459
8160,11.0,299.08932000000004,-6669.7068,0.0,0.0,0.08160115350966923,0.0,0.0,0.0,0.5169141386704535,0.5278581415430424,0.9826520444077059,0.0052362367818263355,0.0021479254575337376,0.1128023978577299
8161,11.0,299.89467,-6652.6264,0.0,0.0,0.08161115793004337,0.0,0.0,0.0,0.5137385621945485,0.5117568577814695,0.9967368794102711,-0.004120989076409957,0.01942212281156428,0.1082797763013819
8162,11.0,300.61208,-6514.5356,0.0,0.0,0.0816211623504175,0.0,0.0,0.0,0.4978367975101665,0.5019892585399826,0.9804300983959171,0.009454643269225642,0.003330458947765707,0.1068914412793639
8163,11.0,299.68689,-6574.7877,0.0,0.0,0.08163116677079163,0.0,0.0,0.0,0.4924096982520535,0.5157848309039995,0.9903767591950761,-0.007325355027406253,0.0014676756459233086,0.08915665751482701
8164,11.0,300.0777,-6633.8288,0.0,0.0,0.08164117119116576,0.0,0.0,0.0,0.49499623191482456,0.5148982066689965,1.006623869911041,-0.009210697329475052,-0.014485585549615987,0.0963768234016519
8165,11.0,300.67172,-6653.2304,0.0,0.0,0.0816511756115399,0.0,0.0,0.0,0.48647905422424453,0.5266917792204315,1.009245066859733,-0.0007972304881105234,0.003428169897309027,0.0975463237598226
8166,11.0,300.30973,-6756.7852,0.0,0.0,0.08166114712263672,0.0,0.0,0.0,0.5089680186037325,0.5280446707539515,1.016881284383369,0.009656970974368831,-0.005311374849616885,0.10903838651875089
8167,11.0,301.16111,-6669.2803,0.0,0.0,0.08167115154301063,0.0,0.0,0.0,0.5042263729057685,0.5341930520957495,0.98887526440189,-0.003954087026563006,0.009886882589634341,0.1058968755112079
8168,11.0,301.65679,-6520.5213,0.0,0.0,0.08168115596338477,0.0,0.0,0.0,0.5014784082370656,0.5129812286723054,0.967616010741265,0.0037527646681690366,-0.005703147494156834,0.11880650251778889
8169,11.0,300.54977,-6617.1459,0.0,0.0,0.08169116038375912,0.0,0.0,0.0,0.5188457581310896,0.5106219872719665,0.9819793780638191,0.0045422702996371755,0.0034334013075753267,0.10814646298572489
8170,11.0,300.75076,-6511.245,0.0,0.0,0.08170116480413325,0.0,0.0,0.0,0.48662059513071354,0.5174081892867125,0.9752271097949221,0.008975104927523892,-0.0059391157105700846,0.1078510195215669
8171,11.0,300.39641,-6387.5474,0.0,0.0,0.08171116922450739,0.0,0.0,0.0,0.4625177361244466,0.5024780706532246,0.97665911589625,-0.003274794229672027,-0.010671123474907888,0.1148924288389999
8172,11.0,300.26195,-6552.9251,0.0,0.0,0.08172117364488152,0.0,0.0,0.0,0.4674348058122235,0.5177155891020505,1.006775208945977,0.004065815581964756,-0.003305424172244967,0.1037197658163439
8173,11.0,300.17165,-6748.4816,0.0,0.0,0.08173117806525565,0.0,0.0,0.0,0.5073400398005635,0.5361024205841894,1.007927426297192,-0.011771046988461889,0.01049196971147679,0.1019967238887929
8174,11.0,299.67134,-6675.2487,0.0,0.0,0.08174114957635226,0.0,0.0,0.0,0.5171127052925505,0.5147376166606475,0.9972586120192619,0.004070702588522066,0.007792872980521682,0.09267119958643531
8175,11.0,299.73075,-6636.9976,0.0,0.0,0.08175115399672639,0.0,0.0,0.0,0.5023836357439045,0.5245378729528575,0.9905600358731641,-0.007334544800513212,-0.0053031021691754355,0.0985277294356798
8176,11.0,300.23314,-6735.5206,0.0,0.0,0.08176115841710052,0.0,0.0,0.0,0.5021883520521315,0.5392261085224735,1.006015615876011,-0.0009679159834333701,-0.004389316448016806,0.09483896711537732
8177,11.0,300.11342,-6700.254,0.0,0.0,0.08177116283747465,0.0,0.0,0.0,0.5029065943855165,0.5184049436750845,1.015398392862019,0.009813220016639411,0.004774390090845616,0.08979974607504491
8178,11.0,300.5689,-6750.7532,0.0,0.0,0.08178116725784901,0.0,0.0,0.0,0.5179405103592485,0.5390862800086735,0.9950336059921709,0.008873994827870102,-0.005193619583945344,0.1000892066082856
8179,11.0,300.64454,-6761.6668,0.0,0.0,0.08179117167822314,0.0,0.0,0.0,0.5177485298628015,0.5299394788384545,1.007689859678746,0.01176248907811729,-0.007467180859803374,0.09700905498704832
8180,11.0,300.36897999999997,-6527.0193,0.0,0.0,0.08180117609859727,0.0,0.0,0.0,0.5083598861587145,0.5103302624356756,0.9653607389336871,0.001094162477460429,-0.004825970499111205,0.11369900260621787
8181,11.0,300.74746,-6461.7516,0.0,0.0,0.08181114760969388,0.0,0.0,0.0,0.4862069864398936,0.5071569556399945,0.970847204515159,0.009575812174484081,0.013327459937067887,0.1083424964825719
8182,11.0,300.79174,-6720.8292,0.0,0.0,0.08182115203006801,0.0,0.0,0.0,0.5062656299245275,0.5268961416331005,1.009802496269747,-0.010702251531229988,-0.008477214802660962,0.1052666744790119
8183,11.0,300.19902,-6693.775,0.0,0.0,0.08183115645044214,0.0,0.0,0.0,0.4899862167953746,0.5254023576731756,1.019351892102199,-0.006644079604044604,-0.009323492330607051,0.09907522291521322
8184,11.0,299.45862,-6565.0297,0.0,0.0,0.08184116087081628,0.0,0.0,0.0,0.4627249457698966,0.5281567362150115,1.004723438288483,-0.012179999795072387,-0.007087223724679523,0.1109222515021739
8185,11.0,299.731,-6584.2239,0.0,0.0,0.08185116529119041,0.0,0.0,0.0,0.4697001594582966,0.5352717480197086,0.996467760183711,0.003155865012434627,0.017566370452165782,0.09913816297167491
8186,11.0,299.71892,-6671.3311,0.0,0.0,0.08186116971156454,0.0,0.0,0.0,0.5070338761503476,0.5278113699184265,0.993072825193657,0.00010753219024510091,0.0037648282212096166,0.1110463037119169
8187,11.0,300.02057,-6703.8773,0.0,0.0,0.0818711741319389,0.0,0.0,0.0,0.5167988004115706,0.5318707132640526,0.9891417998406952,-0.008522398563045252,-0.01059762940540459,0.1026758750333199
8188,11.0,300.34087,-6581.4177,0.0,0.0,0.08188117855231303,0.0,0.0,0.0,0.49923035077019956,0.5298145754986275,0.9715417165312021,0.009031615101501012,0.0033170905312463464,0.12043284998829688
8189,11.0,300.20025,-6574.8076,0.0,0.0,0.08189115006340963,0.0,0.0,0.0,0.49198337327247854,0.5250454504579515,0.9815485035912951,-0.0023462404896309077,0.006319239322685364,0.10727659790737588
8190,11.0,300.28811,-6574.1556,0.0,0.0,0.08190115448378354,0.0,0.0,0.0,0.49268859534207854,0.5122360642837636,0.993454486108824,0.009268352780040201,-0.007408564544168393,0.1023631759199589
8191,11.0,300.72076,-6650.9502,0.0,0.0,0.0819111589041579,0.0,0.0,0.0,0.5053639285280366,0.5235350086663825,0.992823859511586,-0.011203395911439089,-0.023280696729375876,0.1037286722847229
8192,11.0,300.13568,-6746.0597,0.0,0.0,0.08192116332453203,0.0,0.0,0.0,0.5051451779639475,0.5187997464440486,1.026688836076299,0.004018178743088366,-0.0005650201832706505,0.1010246218753539
8193,11.0,300.57207999999997,-6665.4061,0.0,0.0,0.08193116774490616,0.0,0.0,0.0,0.5048066916355415,0.5140197998923045,1.0072905276818351,0.005839242586638375,0.013857641025392685,0.09001926569595982
8194,11.0,300.79997000000003,-6650.8221,0.0,0.0,0.08194117216528052,0.0,0.0,0.0,0.49604638458346656,0.5286590245545836,0.996978448366612,-0.00033872388489194463,0.01762253591845888,0.1037222178815859
8195,11.0,300.66252000000003,-6749.3591,0.0,0.0,0.08195117658565465,0.0,0.0,0.0,0.5209024633165705,0.5179423646069314,1.01279181711227,-0.0038437241296460363,-0.007043364991451004,0.09073365767896481
8196,11.0,300.32839,-6729.6345,0.0,0.0,0.08196118100602878,0.0,0.0,0.0,0.5032278554622226,0.5473893883506266,0.9950236254786862,-0.01094917348784929,0.005993612961898545,0.1074068613402319
8197,11.0,300.23343,-6582.1778,0.0,0.0,0.08197115251712539,0.0,0.0,0.0,0.4950890760214875,0.5250367061095884,0.980691912089256,0.003724398326319497,0.014210269285444386,0.0974826531500388
8198,11.0,299.89938,-6568.7202,0.0,0.0,0.0819811569374993,0.0,0.0,0.0,0.4891391903742795,0.5213985708305324,0.9861891485192911,-0.008224296431949862,-0.004539958974834065,0.11466401186895689
8199,11.0,300.09235,-6542.4411,0.0,0.0,0.08199116135787343,0.0,0.0,0.0,0.5000607598896546,0.5162550397454055,0.9724229401431721,0.00091682608954119,-0.012002219998776887,0.10894746758727789
8200,11.0,299.66879,-6592.2243,0.0,0.0,0.08200116577824779,0.0,0.0,0.0,0.4955549582849665,0.5170534909567065,0.9912631402500551,0.0036011466854805065,0.004500855525649856,0.12010347277828988
8201,11.0,299.27434,-6676.028,0.0,0.0,0.08201117019862214,0.0,0.0,0.0,0.49545320770992457,0.5299129012883315,1.0039797127150831,0.012751875111762088,0.012980538301579386,0.1179606312018079
8202,11.0,299.88395,-6637.2024,0.0,0.0,0.08202117461899627,0.0,0.0,0.0,0.4913826476856915,0.5200937782792594,1.006067362558618,-0.0026699020571488174,0.009877000361409042,0.1068323384010309
8203,11.0,300.13084,-6627.1826,0.0,0.0,0.0820311790393704,0.0,0.0,0.0,0.4910346570713475,0.5145579370204145,1.008905435558714,-0.0034132544505369867,-0.02015910520554878,0.09868900642759659
8204,11.0,300.27245,-6647.1873,0.0,0.0,0.08204115055046701,0.0,0.0,0.0,0.48510538093117356,0.5333956445320516,1.002077923337391,-0.01128230681597699,-0.007187439327145034,0.094801321834412
8205,11.0,300.33104,-6666.6722,0.0,0.0,0.08205115497084092,0.0,0.0,0.0,0.49137632500506756,0.5303004694515815,1.004825097671016,-0.0029156844113806474,0.002035323075245748,0.09563552861524181
8206,11.0,300.41301,-6713.6085,0.0,0.0,0.08206115939121505,0.0,0.0,0.0,0.49988789942259454,0.5370403760692585,1.003841059571399,-0.013713436284410787,0.0031938305817565365,0.092139605014221
8207,11.0,299.89844,-6739.6851,0.0,0.0,0.08207116381158941,0.0,0.0,0.0,0.5143466541095625,0.5423485096331305,0.992000806587857,-0.00941802775433697,-0.0023631348138482477,0.1066455761425989
8208,11.0,300.58607,-6592.553000000001,0.0,0.0,0.08208116823196354,0.0,0.0,0.0,0.5116251048709666,0.5026655624517284,0.9896808488938951,-0.007262597355962554,0.0048743065818816055,0.0939338004035443
8209,11.0,299.74805,-6615.8976,0.0,0.0,0.0820911726523379,0.0,0.0,0.0,0.5111820308672385,0.5085173148267514,0.9913683257429361,0.01895393135110738,0.006038913246044334,0.0988405177150496
8210,11.0,299.66077,-6788.8974,0.0,0.0,0.08210117707271203,0.0,0.0,0.0,0.5126367236383055,0.5263769624143615,1.024641564249249,0.0017402526897745683,0.003492374489895527,0.09860084961589621
8211,11.0,299.62527,-6728.6383,0.0,0.0,0.08211118149308594,0.0,0.0,0.0,0.5169767473941326,0.5089030794048235,1.0194581820376891,0.027488154948119674,-0.00994634648897797,0.0991223826146175
8212,11.0,300.13096,-6633.6723,0.0,0.0,0.08212115300418255,0.0,0.0,0.0,0.49172565310954347,0.5207332302848685,1.004011863140756,0.0020006583707746083,0.0017691146122480184,0.1010703437728663
8213,11.0,300.09214,-6572.5871,0.0,0.0,0.0821311574245569,0.0,0.0,0.0,0.49635072438350253,0.5032104478255045,0.9983411684261021,0.009454050619242151,0.0066166989518923434,0.1026649927272459
8214,11.0,300.20536,-6611.013000000001,0.0,0.0,0.08214116184493103,0.0,0.0,0.0,0.4927490661080465,0.5335295151352635,0.983304293762078,-0.01906305129412668,0.004126544524058235,0.1126932302919559
8215,11.0,299.88799,-6683.9701,0.0,0.0,0.08215116626530516,0.0,0.0,0.0,0.5094748057737485,0.5336485112270074,0.9886366845333442,-0.016497013654378483,-0.005210892154425015,0.0989581003229041
8216,11.0,299.86269,-6692.3819,0.0,0.0,0.0821611706856793,0.0,0.0,0.0,0.5018859982222915,0.5282615873353596,1.004169413398805,-0.0020428898243425283,0.0021234344933416683,0.1095310084523689
8217,11.0,300.38462999999996,-6632.4025,0.0,0.0,0.08217117510605343,0.0,0.0,0.0,0.49561465898085855,0.5328843281340885,0.987585771927127,0.007069450608650453,0.004213928124607327,0.10224490936828691
8218,11.0,301.03755,-6613.6642,0.0,0.0,0.08218117952642756,0.0,0.0,0.0,0.4887391187047955,0.5271211946128115,0.994528480552319,0.0027805307295670177,0.008682453879316482,0.1064068544190389
8219,11.0,300.69518999999997,-6746.1841,0.0,0.0,0.0821911839468017,0.0,0.0,0.0,0.5016006264641275,0.5490250273245515,1.000045850261841,0.0034932082934028166,-0.008533702279835843,0.1119605187471429
8220,11.0,300.36372,-6710.6408,0.0,0.0,0.08220115545789852,0.0,0.0,0.0,0.5172772875062935,0.5204705046664395,1.002119446326489,0.0023603973160530776,0.01052086861757889,0.11909410342617288
8221,11.0,299.75366,-6633.7592,0.0,0.0,0.08221115987827243,0.0,0.0,0.0,0.5129562824548436,0.5048588233531865,0.998682056157245,0.009828523436874742,0.002391747071497058,0.09725976447254141
8222,11.0,299.97946,-6515.5236,0.0,0.0,0.08222116429864679,0.0,0.0,0.0,0.4778350986811526,0.5139786923357476,0.9887426806263051,-0.006171010357606305,-0.006411746625015124,0.12016661852452189
8223,11.0,300.16848,-6615.4419,0.0,0.0,0.08223116871902092,0.0,0.0,0.0,0.49193733118793453,0.5200143192064175,0.998977509753904,-0.005202905109186755,-0.015795724008416584,0.0937669110193236
8224,11.0,299.86638,-6836.1107,0.0,0.0,0.08224117313939505,0.0,0.0,0.0,0.5115990744758975,0.5322220780012296,1.0341857722411891,-0.004091037606103976,-0.003987108239371946,0.09238465144490522
8225,11.0,299.74875,-6816.3071,0.0,0.0,0.08225117755976918,0.0,0.0,0.0,0.5187290317195695,0.5323580055021445,1.020900138254999,0.006886460781665764,0.00883595356876572,0.08557532199662674
8226,11.0,300.15836,-6602.254,0.0,0.0,0.08226118198014332,0.0,0.0,0.0,0.4987827374060235,0.5118284540335355,0.9963091662780591,-0.0039003111079807364,0.004665696523468396,0.09376733759761571
8227,11.0,299.72652999999997,-6672.8096,0.0,0.0,0.08227115349124015,0.0,0.0,0.0,0.5130516698192575,0.5242344045479075,0.9910814239771211,-0.0001037935608211269,-0.016630141545267183,0.08610963106585892
8228,11.0,300.45067,-6810.6236,0.0,0.0,0.08228115791161428,0.0,0.0,0.0,0.5097599850143936,0.5538557985013115,1.0066437194805,-0.008758281970425132,0.0065078821733029635,0.1049433261070999
8229,11.0,300.49478,-6815.9937,0.0,0.0,0.08229116233198819,0.0,0.0,0.0,0.5191224666008984,0.5293738319701294,1.0233955706012792,0.015156729991852786,0.008603100285809892,0.0876077537627121
8230,11.0,300.04202999999995,-6636.2575,0.0,0.0,0.08230116675236232,0.0,0.0,0.0,0.48924330182205455,0.5276398368089975,1.0003734238866702,0.005424534316809855,0.0023980719812712777,0.11305349136501089
8231,11.0,300.68978,-6473.8358,0.0,0.0,0.08231117117273667,0.0,0.0,0.0,0.46744863667608855,0.5075066586470075,0.992929126064475,-0.004841983802366595,-0.0054849390188713345,0.1033014049825549
8232,11.0,300.7605,-6531.1846,0.0,0.0,0.0823211755931108,0.0,0.0,0.0,0.4807774047190355,0.5188416342031825,0.9856980059308191,-0.0007953816815805603,0.002291003363079428,0.12681261712293088
8233,11.0,299.95277000000004,-6744.3435,0.0,0.0,0.08233118001348494,0.0,0.0,0.0,0.5238246259424656,0.5185516825545665,1.007735719378272,0.001922541651665088,-0.0002149950944483638,0.1064706283803329
8234,11.0,300.32824,-6683.7932,0.0,0.0,0.08234118443385907,0.0,0.0,0.0,0.5068132916035775,0.5165880241257685,1.008304922754448,0.005100771829581985,-0.011047094990763388,0.1111002795447439
8235,11.0,300.3062,-6505.2575,0.0,0.0,0.0823511559449559,0.0,0.0,0.0,0.4734338138242795,0.5341171697957605,0.9698848601001832,-0.0003838528284458246,-0.017902138230553484,0.1072941879291119
8236,11.0,300.52184,-6546.88,0.0,0.0,0.08236116036532981,0.0,0.0,0.0,0.4707562801700276,0.5300816378274844,0.989250126408886,0.010871505841184091,-0.0026272766519420173,0.1043712147031369
8237,11.0,300.49772,-6785.276999999999,0.0,0.0,0.08237116478570394,0.0,0.0,0.0,0.5090895984832315,0.5461110213619615,1.007354169920616,0.004724134811060806,0.012038563253363688,0.10350208929736089
8238,11.0,300.05147,-6825.2683,0.0,0.0,0.08238116920607808,0.0,0.0,0.0,0.5220589160532034,0.5528096279055625,0.9998425922917811,-0.001058132114504509,0.0037126265893077165,0.1064062160714759
8239,11.0,299.55604,-6612.2743,0.0,0.0,0.08239117362645221,0.0,0.0,0.0,0.5052998809892155,0.5179149055292215,0.9867514719272881,-0.0075757193999152934,-0.006940086941883253,0.11160326702688489
8240,11.0,299.81942999999995,-6580.799,0.0,0.0,0.08240117804682656,0.0,0.0,0.0,0.49075679349642454,0.5250901753173656,0.984551614767679,-0.013298150664675289,0.0006805799284930093,0.10987526017384389
8241,11.0,299.70056,-6704.7684,0.0,0.0,0.0824111824672007,0.0,0.0,0.0,0.5120344173813626,0.5145724872918505,1.0114752708598371,0.0001006313126370373,0.006294997314042864,0.10881509659421389
8242,11.0,299.93813,-6777.9675,0.0,0.0,0.08242118688757483,0.0,0.0,0.0,0.5111305476296575,0.5253989024903345,1.0238034037665291,0.0036740048392210466,0.011577719882631989,0.1019292211671309
8243,11.0,300.11328,-6754.0444,0.0,0.0,0.08243115839867143,0.0,0.0,0.0,0.5093763583940325,0.5298888872609615,1.013795633853839,0.001116430269608089,-0.008174241674359843,0.09035819177490921
8244,11.0,300.68717999999996,-6658.2496,0.0,0.0,0.08244116281904557,0.0,0.0,0.0,0.5044513752229745,0.5187274510494134,1.000762795635098,0.002668131301274057,-0.005201728320520615,0.0980330668163604
8245,11.0,300.88,-6603.2741,0.0,0.0,0.0824511672394197,0.0,0.0,0.0,0.49698747101134455,0.5255167840069684,0.9847261673624061,0.0014137272721740186,0.00024732622314419775,0.0909130617151706
8246,11.0,300.13347999999996,-6818.7641,0.0,0.0,0.08246117165979383,0.0,0.0,0.0,0.5174973755605144,0.5413801667775625,1.013856530184849,-0.001052068116631039,-0.005762046303919694,0.09855054174843121
8247,11.0,299.9074,-6923.9696,0.0,0.0,0.08247117608016796,0.0,0.0,0.0,0.5300088256752985,0.5496324910245034,1.025072600841789,-0.0016433173831827985,-0.0023675314073571575,0.08638052550659411
8248,11.0,300.23691,-6609.4055,0.0,0.0,0.0824811805005421,0.0,0.0,0.0,0.4777295382857346,0.5375136145284636,0.9938510924629661,0.003058273221103067,0.0046536129080758356,0.1201032295982659
8249,11.0,300.28193999999996,-6555.9772,0.0,0.0,0.08249118492091645,0.0,0.0,0.0,0.49726985368171356,0.5148653773657565,0.9807181451343451,0.008798610540305252,0.01247904232358559,0.09710233985750481
8250,11.0,299.9296,-6639.6627,0.0,0.0,0.08250115643201306,0.0,0.0,0.0,0.49995158219137953,0.5172841269444685,1.0010559592865311,-0.0009220290578771832,0.0046218256312386755,0.1157363547147889
8251,11.0,299.90125,-6584.4086,0.0,0.0,0.08251116085238719,0.0,0.0,0.0,0.4971400360789015,0.5174929172600745,0.9868628281132781,-0.005198231391775495,-0.010150678706793991,0.1097393630704319
8252,11.0,299.5833,-6593.7513,0.0,0.0,0.0825211652727611,0.0,0.0,0.0,0.4800603681532696,0.5130595427725345,1.0112158484367342,0.003890812496243296,-0.012413466803613788,0.12505463833193187
8253,11.0,299.49331,-6647.1702,0.0,0.0,0.08253116969313545,0.0,0.0,0.0,0.4952350954933985,0.5307290945088835,0.9946095709578221,-0.003657648956106847,0.01045430213900929,0.11784916355830688
8254,11.0,299.59424,-6541.9437,0.0,0.0,0.08254117411350959,0.0,0.0,0.0,0.4820066290778505,0.5225296213871585,0.9840512718682991,-0.00024147924317714577,-0.006492087022794104,0.12230223562779088
8255,11.0,299.30773,-6617.5588,0.0,0.0,0.08255117853388372,0.0,0.0,0.0,0.5107910277861495,0.5177084355563445,0.983073181546769,-0.014718969471649185,-0.008108013621323643,0.0966356702986981
8256,11.0,299.30904,-6851.6672,0.0,0.0,0.08256118295425807,0.0,0.0,0.0,0.5299812754050794,0.5490734201493275,1.003681057248108,-0.0006619946418462844,-0.007950566816109852,0.10470183821076691
8257,11.0,299.97059,-6782.2599,0.0,0.0,0.0825711873746322,0.0,0.0,0.0,0.5179064854208906,0.5219155918265584,1.021815609720349,-0.0004880406043508576,-0.007161501340485154,0.07546604570216883
8258,11.0,300.03292999999996,-6575.5845,0.0,0.0,0.08258115888572881,0.0,0.0,0.0,0.48773080313278255,0.5133132808625765,0.9977694217921751,0.01042166434003819,0.006752687551788374,0.09769553800929891
8259,11.0,300.36095,-6654.8676,0.0,0.0,0.08259116330610294,0.0,0.0,0.0,0.5014711229688464,0.5089689913238284,1.01247345393085,0.003470851841871407,-0.0037331125811545266,0.08584453646869611
8260,11.0,299.90004,-6780.382,0.0,0.0,0.08260116772647685,0.0,0.0,0.0,0.5209182700181305,0.5275491103950435,1.0125994313157831,0.012119742824875488,0.0005780608843101674,0.11404415612028189
8261,11.0,300.06332000000003,-6743.9523,0.0,0.0,0.08261117214685099,0.0,0.0,0.0,0.5341884924702994,0.5288776028661555,0.986927027639614,-0.007228124257085323,0.004130242582948206,0.10460381639609291
8262,11.0,300.06326,-6647.6094,0.0,0.0,0.08262117656722534,0.0,0.0,0.0,0.5072270016194076,0.5212156183924765,0.9922646569138971,-0.007281192420472743,0.008195724501655031,0.1129713066493999
8263,11.0,299.87969,-6568.6,0.0,0.0,0.0826311809875997,0.0,0.0,0.0,0.48821497456056656,0.5157298114235696,0.992745596073862,-0.02951825218597467,-0.002329366227765548,0.1033843395032399
8264,11.0,299.49189,-6535.0355,0.0,0.0,0.08264118540797383,0.0,0.0,0.0,0.4676724332256756,0.5146229572793316,1.0041922216585562,-0.008050151670388113,-0.0007863164267783892,0.10516337363131689
8265,11.0,299.6919,-6685.0085,0.0,0.0,0.08265118982834796,0.0,0.0,0.0,0.49309349008203857,0.5343982453735004,1.0045839340147151,0.004921425345981866,0.003703134361045906,0.1116607689700599
8266,11.0,299.43983,-6731.2055,0.0,0.0,0.08266116133944457,0.0,0.0,0.0,0.5021268477710615,0.5407938698721995,1.003197686287903,0.017872816799159683,0.012838159437277688,0.1058199292986139
8267,11.0,299.93388,-6600.139,0.0,0.0,0.08267116575981848,0.0,0.0,0.0,0.5139115138541175,0.5199358024561685,0.9724301342188821,0.014001379671328588,-0.009336985275563701,0.1044669364400839
8268,11.0,300.20526,-6636.1822,0.0,0.0,0.08268117018019283,0.0,0.0,0.0,0.4839135556335495,0.5329296001485565,1.0003905174158572,0.006249918830343964,-0.016085478073263087,0.1045873206844649
8269,11.0,299.29708,-6751.9848,0.0,0.0,0.08269117460056696,0.0,0.0,0.0,0.5031180292838835,0.5379764266441396,1.011340326211519,-0.0032636541527725875,-0.0017823680248810285,0.10573288098252291
8270,11.0,299.82804,-6668.8229,0.0,0.0,0.0827011790209411,0.0,0.0,0.0,0.4836621986812426,0.5278209856618755,1.015672477014069,0.007887326634968533,-0.002897144265025877,0.09709536768356672
8271,11.0,300.41141,-6569.0451,0.0,0.0,0.08271118344131545,0.0,0.0,0.0,0.48853631669728054,0.5163746437872094,0.991914730991862,-0.00988445068806933,-4.011902266668926e-05,0.1119358359747069
8272,11.0,300.40742,-6771.9302,0.0,0.0,0.08272118786168958,0.0,0.0,0.0,0.5268207558256605,0.5323144053503415,0.9993625245269021,-0.001874484111347178,-0.004894011560551336,0.11214057328991288
8273,11.0,300.7119,-6734.1052,0.0,0.0,0.08273119228206349,0.0,0.0,0.0,0.5453046566673795,0.5115877463397795,0.990107427185995,-0.010276961080007089,0.010425311027148089,0.10968574187513988
8274,11.0,301.16546,-6594.1999,0.0,0.0,0.0827411637931601,0.0,0.0,0.0,0.5003508331282825,0.5123861772860785,0.991735112146635,-0.010354258890385791,0.017318626749715384,0.1082611831620469
8275,11.0,300.46606,-6659.7355,0.0,0.0,0.08275116821353445,0.0,0.0,0.0,0.5105301665479045,0.5164053452652395,0.9974577764589181,-0.012967872675329386,-0.0019465577055352882,0.09466127040559001
8276,11.0,300.14758,-6737.1263,0.0,0.0,0.08276117263390859,0.0,0.0,0.0,0.49524220850910056,0.5159587654161656,1.036717174966019,0.008917389492552821,-0.001042789582815319,0.08023396396197573
8277,11.0,299.90488999999997,-6719.0289,0.0,0.0,0.08277117705428272,0.0,0.0,0.0,0.49978932032036555,0.5382739979335075,1.004353693194492,0.007322774482051573,0.002281537276670198,0.09143306369299081
8278,11.0,299.77609,-6726.1724,0.0,0.0,0.08278118147465685,0.0,0.0,0.0,0.5053526814519265,0.5275797308130655,1.0116560448101781,0.016609935311772985,-0.013157432517287487,0.09188429436002382
8279,11.0,300.0977,-6621.5467,0.0,0.0,0.08279118589503098,0.0,0.0,0.0,0.5214994905404925,0.5205472279640115,0.970738138274395,-0.009485495822845552,-0.013569115019667387,0.1078489930213669
8280,11.0,300.25621,-6570.2444,0.0,0.0,0.08280119031540512,0.0,0.0,0.0,0.4893013813177865,0.5170992290662204,0.9907896180808221,-0.0015877219713959583,-0.012901203858499686,0.1063144561424199
8281,11.0,300.09168999999997,-6651.8115,0.0,0.0,0.08281116182650172,0.0,0.0,0.0,0.5064201708297795,0.5291638257544036,0.9864005834176581,-0.007705302536654153,0.0034939859628545667,0.12972132378749787
8282,11.0,299.80532,-6630.5683,0.0,0.0,0.08282116624687608,0.0,0.0,0.0,0.4800028763425956,0.5193538827912375,1.016170388113209,-0.0046382071495804054,0.007127880080966993,0.11172102695350689
8283,11.0,299.43295,-6542.8054,0.0,0.0,0.08283117066724999,0.0,0.0,0.0,0.47902270885836057,0.5229530484714475,0.9868737002868511,0.008059966314831742,0.0026236183124559677,0.12888232230719487
8284,11.0,299.71871,-6557.0821,0.0,0.0,0.08284117508762434,0.0,0.0,0.0,0.48760819987068255,0.5201644220762315,0.985416606113047,0.0053015040711177144,0.008090359663506332,0.1044864719020119
8285,11.0,299.7133,-6676.8037,0.0,0.0,0.08285117950799847,0.0,0.0,0.0,0.5258610559934456,0.5197516138529905,0.983968925032672,0.015246046974917686,0.014912135470713187,0.1184120341213579
8286,11.0,299.18219,-6794.2194,0.0,0.0,0.0828611839283726,0.0,0.0,0.0,0.5215336674663655,0.5370034633681154,1.0067359252396,-0.0021828316195037075,0.002149559627295018,0.09790297360952122
8287,11.0,299.79208,-6762.545,0.0,0.0,0.08287118834874674,0.0,0.0,0.0,0.5058207523356215,0.5503342680437635,0.999489809004464,-0.013917544371304687,0.002194525640232818,0.10119168655184191
8288,11.0,300.19595,-6771.2687,0.0,0.0,0.08288119276912087,0.0,0.0,0.0,0.49181629846348957,0.5382358186697395,1.028244478954829,0.007524293714939972,-0.004865804197642485,0.08931508322096242
8289,11.0,300.7816,-6778.9128,0.0,0.0,0.0828911642802177,0.0,0.0,0.0,0.5027009451452206,0.5320116360879604,1.025907620249199,0.00873346686752607,-0.006624489122636174,0.08989529049322441
8290,11.0,300.25959,-6724.9203,0.0,0.0,0.08290116870059183,0.0,0.0,0.0,0.5148701599062285,0.5234383446068425,1.005899355559537,0.01898482635990648,-0.005336090552681135,0.1025506474534609
8291,11.0,300.08712,-6674.2886,0.0,0.0,0.08291117312096574,0.0,0.0,0.0,0.5203590471554395,0.5182945399441885,0.9901635004465291,-0.0026823178159241573,-0.014435624213685185,0.0995362658962146
8292,11.0,299.37664,-6601.1302,0.0,0.0,0.08292117754133987,0.0,0.0,0.0,0.5126025771099355,0.5021682795676505,0.991807883768817,0.007228236423871394,0.0034560015470807967,0.10403884840533491
8293,11.0,300.43046,-6613.9175,0.0,0.0,0.08293118196171423,0.0,0.0,0.0,0.5082861722139396,0.5107442460290325,0.991435331972049,-0.004583377552219146,0.007093233108372603,0.0982509571311145
8294,11.0,299.84893999999997,-6732.8373,0.0,0.0,0.08294118638208836,0.0,0.0,0.0,0.4998334574947215,0.5205835225825935,1.026197409777799,-0.0008421490505461402,0.004245878028085536,0.0994227737790138
8295,11.0,299.90072000000004,-6770.1439,0.0,0.0,0.0829511908024625,0.0,0.0,0.0,0.5116138780598585,0.5350226303501225,1.011318176564333,-0.015503327387309286,-0.0014914477091694286,0.09535230697379
8296,11.0,299.44973999999996,-6732.6112,0.0,0.0,0.0829611952228364,0.0,0.0,0.0,0.49988569053737647,0.5355176739514795,1.011142306744476,-0.0002077674396300498,0.012046292325126488,0.1025234720857789
8297,11.0,299.85642,-6689.8553,0.0,0.0,0.08297116673393345,0.0,0.0,0.0,0.5099868517117835,0.5356424759662965,0.987919637835077,-0.0012358709754959687,0.009574693141073641,0.1158870047396569
8298,11.0,300.11495,-6737.9024,0.0,0.0,0.08298117115430736,0.0,0.0,0.0,0.5108777315972065,0.5399866945775376,0.997289647869825,0.009828598316057131,-0.0014591897776608186,0.099991421894135
8299,11.0,299.82334,-6632.7265,0.0,0.0,0.0829911755746815,0.0,0.0,0.0,0.4950248562301496,0.5260618922957665,0.9950964781608761,0.0015048473337918686,-0.00020510521618480877,0.1160179470500799
8300,11.0,299.77341,-6525.7228,0.0,0.0,0.08300117999505563,0.0,0.0,0.0,0.45944276525097055,0.5322317444071835,0.991982274243528,0.008204357189857013,0.004870342544840385,0.1111992436820109
8301,11.0,299.76013,-6539.1683,0.0,0.0,0.08301118441542976,0.0,0.0,0.0,0.4865922545254165,0.5124520284100775,0.9886995769670511,0.019770915919987482,0.007825679586959441,0.1121602607393559
8302,11.0,300.08895,-6599.1513,0.0,0.0,0.08302118883580412,0.0,0.0,0.0,0.48742290682489553,0.5253572072487195,0.993197110450923,0.008769171673224862,-0.0008996528884988273,0.11117045724666988
8303,11.0,300.55241,-6658.5488,0.0,0.0,0.08303119325617825,0.0,0.0,0.0,0.5058669160101775,0.5377973042914616,0.9803683509348231,0.0025089497105640576,-0.00965279759985695,0.11975766065166088
8304,11.0,300.65668999999997,-6705.6132,0.0,0.0,0.08304116476727486,0.0,0.0,0.0,0.5090464846914765,0.5140743228801855,1.0152181356692291,-0.004700284930207006,-0.006546681242157134,0.1053946884966459
8305,11.0,300.25716,-6742.2617,0.0,0.0,0.08305116918764899,0.0,0.0,0.0,0.5255112617939235,0.5144151700813245,1.009552770650101,-0.006781613207693113,-0.004801179410239515,0.10243980802502191
8306,11.0,299.96622,-6769.5425,0.0,0.0,0.08306117360802312,0.0,0.0,0.0,0.5085572064831886,0.5195183738124715,1.029696263698109,0.004290901087003965,0.004183748673028846,0.08881194375130641
8307,11.0,300.12192000000005,-6757.2603,0.0,0.0,0.08307117802839725,0.0,0.0,0.0,0.5386693681225275,0.5093472679836616,1.006021746039116,0.0008072542268447891,0.006854697214880943,0.08148573617526601
8308,11.0,299.67601,-6812.6219,0.0,0.0,0.08308118244877138,0.0,0.0,0.0,0.5101779202831405,0.5380826152546194,1.022606451423399,0.005322123204027665,0.008965229386749252,0.08123021273854783
8309,11.0,299.73908,-6677.6144,0.0,0.0,0.08309118686914552,0.0,0.0,0.0,0.5171645836976705,0.5288652817449395,0.98379817212582,0.005883082270765015,0.01174434480857659,0.0986702764994981
8310,11.0,299.8257,-6603.5693,0.0,0.0,0.08310119128951965,0.0,0.0,0.0,0.49110233204552656,0.5181588860208005,0.9980589478757491,-0.008590587153699942,-0.0035015158296477066,0.08623152505288892
8311,11.0,299.86712,-6630.9664,0.0,0.0,0.083111195709894,0.0,0.0,0.0,0.5063021474581315,0.5227475309536646,0.9865985319571939,0.0025822378876470377,-0.014116415981681788,0.1107532211204919
8312,11.0,299.94632,-6557.9123,0.0,0.0,0.08312116722099061,0.0,0.0,0.0,0.4735562043038586,0.5191712140632095,1.0007141494977971,-0.005271752515056465,-0.008709698249330293,0.11013387199686689
8313,11.0,300.46411,-6574.8544,0.0,0.0,0.08313117164136474,0.0,0.0,0.0,0.5006372687990516,0.5159085791387125,0.9820456952828641,0.019313378784332084,0.006133115513141375,0.13127226518556387
8314,11.0,300.48618999999997,-6774.6384,0.0,0.0,0.08314117606173865,0.0,0.0,0.0,0.5001001043910375,0.5390512316877145,1.020169584932899,0.003993374988590427,-0.007919617497105392,0.11199013604756589
8315,11.0,300.82354,-6711.5175,0.0,0.0,0.08315118048211301,0.0,0.0,0.0,0.5089436296738256,0.5342113919225594,0.996978711811638,0.007790926121779543,0.002091173319432738,0.11658730241377088
8316,11.0,301.1107,-6600.3237,0.0,0.0,0.08316118490248714,0.0,0.0,0.0,0.4797813596057336,0.5252813350812315,1.001270900030244,-0.011417708440090091,-0.0014507780793056484,0.1078510701840719
8317,11.0,299.87444,-6687.3132,0.0,0.0,0.08317118932286127,0.0,0.0,0.0,0.49336944874677346,0.5326450693879755,1.006761702322144,-0.0005770534907957454,0.01920624075850838,0.0974067779428005
8318,11.0,299.96629,-6699.7643,0.0,0.0,0.08318119374323563,0.0,0.0,0.0,0.5008319141432616,0.5316740718171455,1.004055078257521,-0.014256649795521787,0.01113225967491849,0.0929201531095051
8319,11.0,299.28691000000003,-6712.2185,0.0,0.0,0.08319119816360976,0.0,0.0,0.0,0.5194151844222875,0.5313619502563416,0.9895696953579252,-0.005574404139100854,-0.007035393246289253,0.09635474569522301
8320,11.0,299.97979,-6712.9854,0.0,0.0,0.08320116967470637,0.0,0.0,0.0,0.5072417241433606,0.5346723700555546,0.998665844155645,0.0012919909468595788,0.013814517101136688,0.1038724524739129
8321,11.0,300.12613999999996,-6706.9126,0.0,0.0,0.08321117409508028,0.0,0.0,0.0,0.5182332991081445,0.5223261810320805,0.998174488784652,0.001987397257440838,-0.0008752494285853932,0.1028683317573139
8322,11.0,300.61271,-6677.8127,0.0,0.0,0.08322117851545441,0.0,0.0,0.0,0.5000905291775924,0.5191829880293716,1.010614778344913,0.014358843160857485,-0.009111533075313302,0.1055458046165599
8323,11.0,300.09197,-6685.3953,0.0,0.0,0.08323118293582876,0.0,0.0,0.0,0.5106823465804236,0.5082113335615535,1.013299546604879,-0.003497977154998466,-0.019137201949694784,0.09167430030329901
8324,11.0,299.85213999999996,-6665.2668,0.0,0.0,0.0832411873562029,0.0,0.0,0.0,0.5087669087238845,0.5091227317615015,1.008185024870115,0.005328013226858965,-0.00044700378278333865,0.1097727901912309
8325,11.0,299.53141,-6677.8589,0.0,0.0,0.08325119177657725,0.0,0.0,0.0,0.5157187264674755,0.5233086789915455,0.990874974269246,0.008237363913189522,0.015009989085870588,0.0969892236560911
8326,11.0,300.19274,-6691.3191,0.0,0.0,0.08326119619695138,0.0,0.0,0.0,0.5102500738227616,0.5238357108985595,0.9999081293082491,-0.007431409483573013,0.014011466576074086,0.1076749571841909
8327,11.0,300.13477,-6809.7235,0.0,0.0,0.08327116770804777,0.0,0.0,0.0,0.5283321095423195,0.5432042398725845,0.998449545656798,-0.0006499615167062073,-0.003210625506139067,0.08567597116881003
8328,11.0,299.56646,-6699.5902,0.0,0.0,0.08328117212842212,0.0,0.0,0.0,0.4875509715050345,0.5367942069574635,1.012162963702707,-0.015569101504300685,0.0013042289815673788,0.10013411790571801
8329,11.0,300.57756,-6586.8717,0.0,0.0,0.08329117654879603,0.0,0.0,0.0,0.46855513618279154,0.5386305809086995,0.995058805522158,0.008218870984289414,0.012465462745745387,0.0962305668292175
8330,11.0,300.50608,-6691.857,0.0,0.0,0.08330118096917039,0.0,0.0,0.0,0.49338008787282356,0.5337757855720685,1.007001558885816,-0.004363217962541086,0.0015291359519389687,0.1108136513564559
8331,11.0,300.50252,-6752.4406,0.0,0.0,0.08331118538954452,0.0,0.0,0.0,0.5189444486908295,0.5421074979643445,0.9915213974355431,0.004640974740903546,-0.005083694613721595,0.12065861224307789
8332,11.0,300.3331,-6580.6577,0.0,0.0,0.08332118980991865,0.0,0.0,0.0,0.49836533915982956,0.5235174997046546,0.978472772780244,0.004778524961853696,-0.00859345961640843,0.13156820514227088
8333,11.0,299.74721,-6532.4251,0.0,0.0,0.083331194230293,0.0,0.0,0.0,0.4874632037813726,0.5231472682506155,0.9750836437132631,0.008716325816909381,-0.005005074511962395,0.11962740735130588
8334,11.0,300.03393,-6542.0368,0.0,0.0,0.08334119865066714,0.0,0.0,0.0,0.4548634827490306,0.5193888905821925,1.0143634592098791,0.0011551800945073989,-0.0027539972558233675,0.11419658946532589
8335,11.0,299.89103,-6595.8121,0.0,0.0,0.08335117016176352,0.0,0.0,0.0,0.49060826116426554,0.5071725090290296,1.007181420911067,-0.006859895086568933,-0.015043435458421486,0.10292049387246191
8336,11.0,300.19608,-6816.9905,0.0,0.0,0.08336117458213765,0.0,0.0,0.0,0.5022931626424755,0.5427485711701135,1.0271532085971289,0.005078157303250105,0.013438777619554088,0.09628113003570772
8337,11.0,299.69048,-6805.4124,0.0,0.0,0.08337117900251201,0.0,0.0,0.0,0.5308948419602415,0.5255940747245965,1.012186521767532,0.004975545161648075,0.015875412075781185,0.095529949981322
8338,11.0,299.59654,-6802.7176,0.0,0.0,0.08338118342288614,0.0,0.0,0.0,0.5243707677463655,0.5449940245842225,0.9984915043434391,-0.00013317105534295986,0.009305730056354052,0.09000756975005551
8339,11.0,299.54816,-6888.988,0.0,0.0,0.08339118784326027,0.0,0.0,0.0,0.5525545523253884,0.5406767280281385,1.0008490434836101,-0.007496479898369962,-0.004853193388222896,0.08704481429865432
8340,11.0,300.83471000000003,-6799.0654,0.0,0.0,0.0834011922636344,0.0,0.0,0.0,0.5103152156716905,0.5236508839478184,1.0327799890524492,-0.0077137870876915135,-0.010110107463514921,0.0987531127349234
8341,11.0,300.45616,-6593.685,0.0,0.0,0.08341119668400854,0.0,0.0,0.0,0.48627854216195554,0.5166691753262775,1.001367878197315,0.008062930476674283,0.0070146373246158045,0.09739367965875781
8342,11.0,300.73226,-6523.9283,0.0,0.0,0.08342120110438267,0.0,0.0,0.0,0.46872690233974357,0.5077008986911775,1.006683479414424,-0.01141612473018379,-0.005515184433031324,0.11349413356849888
8343,11.0,300.02945,-6704.9755,0.0,0.0,0.08343117261547928,0.0,0.0,0.0,0.5221876089484045,0.5136838669541506,1.002273642726707,0.006753169250885914,-0.01990369930584218,0.1129530377500969
8344,11.0,299.67166000000003,-6696.5147,0.0,0.0,0.08344117703585363,0.0,0.0,0.0,0.5222032129999444,0.5141665590367885,0.9992034949237071,0.001022132655676639,-0.004215948747956747,0.11687199529436788
8345,11.0,300.23874,-6591.3793,0.0,0.0,0.08345118145622754,0.0,0.0,0.0,0.5092753576240645,0.5032264673095855,0.9911129157902292,0.02277116669133918,0.012869243923845489,0.11021005827188589
8346,11.0,300.11181,-6686.1237,0.0,0.0,0.0834611858766019,0.0,0.0,0.0,0.48102547874101853,0.5420347567396655,1.0093543965455232,-0.0022631594529814478,0.0002679884191833977,0.1094761409594539
8347,11.0,299.55663,-6752.1076,0.0,0.0,0.08347119029697603,0.0,0.0,0.0,0.5026647011891435,0.5360794704694245,1.013727948747159,-0.01162521192806909,0.0034560630513618663,0.09684164985852671
8348,11.0,299.27279,-6755.1463,0.0,0.0,0.08348119471735016,0.0,0.0,0.0,0.49293318378371753,0.5413736515794194,1.019088953701249,-0.002891728848541417,0.0046410394875849355,0.09211016300606531
8349,11.0,300.40729,-6634.0401,0.0,0.0,0.08349119913772429,0.0,0.0,0.0,0.4942879498299225,0.5355084229780664,0.9867861858757141,0.0036121794591943567,0.013388545745846588,0.0998038439693725
8350,11.0,300.36992999999995,-6536.168000000001,0.0,0.0,0.08350120355809842,0.0,0.0,0.0,0.49124806780740954,0.5281722490740425,0.967411536871085,-0.003960595638580356,-0.002788284220657227,0.11230732385886989
8351,11.0,300.46922,-6601.4171,0.0,0.0,0.08351117506919525,0.0,0.0,0.0,0.4954786402874345,0.5260261650972405,0.985161165762837,-0.012937602841841988,-0.016393326758395384,0.11367315459616689
8352,11.0,299.99302,-6810.6866,0.0,0.0,0.08352117948956916,0.0,0.0,0.0,0.4984515566108385,0.5517282671338405,1.0200988600759189,-0.006510794152765354,0.0003334603241999717,0.12783647595147787
8353,11.0,299.51017,-6744.9308,0.0,0.0,0.0835311839099433,0.0,0.0,0.0,0.5173260349686045,0.5045973642973826,1.028367183541939,0.00880039598830646,-0.001028295952059909,0.09105939934761301
8354,11.0,299.22924,-6617.2564,0.0,0.0,0.08354118833031743,0.0,0.0,0.0,0.48591389371596755,0.5275266973028315,0.998040121688891,0.004973456853191976,-0.003669210545047886,0.1163077771086839
8355,11.0,299.02509,-6705.7223,0.0,0.0,0.08355119275069178,0.0,0.0,0.0,0.5132925092355265,0.5192482919983165,1.005831315815322,0.0017136648045005482,-0.011094406677682689,0.08648850250350061
8356,11.0,299.5907,-6797.732,0.0,0.0,0.08356119717106592,0.0,0.0,0.0,0.5360599350074965,0.5261124332107545,1.0041684204137071,0.013392068816444287,-0.013045900025780089,0.1014010442875039
8357,11.0,299.24496,-6880.1419,0.0,0.0,0.08357120159144005,0.0,0.0,0.0,0.5287648686600295,0.5483664958195595,1.014260006374669,0.016432028859214985,0.005109844268327365,0.08034447104438193
8358,11.0,300.11636,-6745.9367,0.0,0.0,0.08358117310253665,0.0,0.0,0.0,0.4959200322959965,0.5386411896372465,1.016035119224859,0.0012611525787410687,-0.002276630815710968,0.1112824619127239
8359,11.0,300.47481,-6665.3814,0.0,0.0,0.08359117752291101,0.0,0.0,0.0,0.4913176780892795,0.5326949719554005,1.002096871114261,-0.01022762491938799,-0.01094822103275529,0.08912313818826892
8360,11.0,300.07948,-6670.3966,0.0,0.0,0.08360118194328492,0.0,0.0,0.0,0.4963911631949935,0.5230523773787505,1.008190455890651,-0.006431209436910954,0.007110221056899182,0.11023991875233291
8361,11.0,299.63201000000004,-6696.6315,0.0,0.0,0.08361118636365905,0.0,0.0,0.0,0.5098493536732135,0.5197618679440025,1.005997539494227,-0.0019005025500649982,0.02093102648948148,0.0995902366627911
8362,11.0,299.89144,-6629.0495,0.0,0.0,0.08362119078403318,0.0,0.0,0.0,0.5119646753769795,0.5127633596358034,0.9903374754886991,0.002045339964409338,0.0067767133328595335,0.11772379412343388
8363,11.0,299.27456,-6669.3053,0.0,0.0,0.08363119520440732,0.0,0.0,0.0,0.5035919364881545,0.5219562434205705,1.0017541088704331,-0.024011780994528276,0.0011968372379186389,0.1131762466146259
8364,11.0,299.77718,-6622.2488,0.0,0.0,0.08364119962478167,0.0,0.0,0.0,0.4929826101235955,0.5213863712993285,0.9986292860920369,0.0017988891690865383,-0.0017163082726864385,0.12989998004512987
8365,11.0,300.59129,-6683.9925,0.0,0.0,0.0836512040451558,0.0,0.0,0.0,0.5125685825690804,0.5249289368289525,0.9942692911767391,-0.0056978945016634055,0.008471955629341922,0.10563495036035792
8366,11.0,300.14973,-6673.5499,0.0,0.0,0.08366117555625241,0.0,0.0,0.0,0.5024904829669495,0.5332178292720026,0.9928842188200431,0.0039376147210123166,-0.007778228780801412,0.11538625654023689
8367,11.0,300.2968,-6614.3249,0.0,0.0,0.08367117997662654,0.0,0.0,0.0,0.5078464622005435,0.5231314818140576,0.9796116557601431,0.00044568467300815253,-0.02840092204895277,0.10337993186530489
8368,11.0,300.27351,-6651.351,0.0,0.0,0.08368118439700067,0.0,0.0,0.0,0.5034789996320085,0.5372546885979095,0.9811109214031091,0.009653430881169451,-0.008735125557939772,0.1208355358430389
8369,11.0,299.872,-6670.2612,0.0,0.0,0.0836911888173748,0.0,0.0,0.0,0.49345158279987955,0.5187600878351345,1.015381167610319,0.006003850739583934,0.00982392196419561,0.09009394830783042
8370,11.0,299.57104,-6694.5492,0.0,0.0,0.08370119323774894,0.0,0.0,0.0,0.4820403804386815,0.5382244398711166,1.014711003994179,-0.010284715483022391,-0.005416742626190875,0.11596137729699688
8371,11.0,299.3663,-6807.0349,0.0,0.0,0.08371119765812307,0.0,0.0,0.0,0.5175812524037925,0.5197145694293345,1.0318728262379189,-0.02334014208624268,0.0043781843757931555,0.08976479806584582
8372,11.0,299.9063,-6785.5957,0.0,0.0,0.0837212020784972,0.0,0.0,0.0,0.5113426006105856,0.5238430062992795,1.027466100228009,-0.0055875909812022955,0.0004706881391008026,0.1059709136960149
8373,11.0,300.21714,-6671.2983,0.0,0.0,0.08373120649887156,0.0,0.0,0.0,0.5270818095814245,0.5028722553396275,0.997954035960395,0.005978546743511625,0.014481518363714585,0.0907718045187296
8374,11.0,299.84046,-6704.06,0.0,0.0,0.08374117800996816,0.0,0.0,0.0,0.5111517245567475,0.5206293214871135,1.006085803710438,0.01193774588166379,-0.0012325366733918989,0.1015486950920759
8375,11.0,300.08361,-6689.7241,0.0,0.0,0.0837511824303423,0.0,0.0,0.0,0.5150814124195775,0.5159112743839785,1.002516407318166,0.0044857552620595756,-0.0024602512895578977,0.09625372263375281
8376,11.0,299.96772000000004,-6649.7464,0.0,0.0,0.08376118685071621,0.0,0.0,0.0,0.4955061297626475,0.5178723490250215,1.007978382644721,0.00917124633550654,0.008630782481191911,0.10470897149147089
8377,11.0,300.41098,-6629.4601,0.0,0.0,0.08377119127109056,0.0,0.0,0.0,0.5043413058646115,0.5188143372454885,0.9920346795387001,0.004909148199820206,0.0033845882879828568,0.1048081382787579
8378,11.0,300.39923,-6676.8415,0.0,0.0,0.0837811956914647,0.0,0.0,0.0,0.5094762547213915,0.5317072354929185,0.9884096151859342,0.012825521168780387,-0.007363379365233963,0.1088559001757409
8379,11.0,299.34755,-6772.1136,0.0,0.0,0.08379120011183883,0.0,0.0,0.0,0.5256506039476755,0.5302731724938875,1.0026296481493422,-0.006209515583931474,-0.009469222114314462,0.10546495739108089
8380,11.0,298.81802000000005,-6742.1503,0.0,0.0,0.08380120453221318,0.0,0.0,0.0,0.5019255352411934,0.5433981759417245,1.004121618391588,0.015866163128868384,-0.014162978876777185,0.1170783538097339
8381,11.0,299.81627000000003,-6641.3299,0.0,0.0,0.08381117604330979,0.0,0.0,0.0,0.48409272864873254,0.5219698615019145,1.012735865441748,-0.004976538754696135,-0.0001906536657060518,0.1075346321778419
8382,11.0,299.67005,-6608.8081,0.0,0.0,0.08382118046368392,0.0,0.0,0.0,0.4797340306935626,0.5187316560373285,1.01044695373085,-0.011029158437493188,-0.003187892429545487,0.11440432600082788
8383,11.0,300.58718,-6545.746,0.0,0.0,0.08383118488405783,0.0,0.0,0.0,0.48294379422784156,0.5205106597679025,0.986288892859135,-0.016075278697756486,0.0014957506783690986,0.11149164739586889
8384,11.0,300.42809,-6651.4465,0.0,0.0,0.08384118930443196,0.0,0.0,0.0,0.5120078600962416,0.5192554759415255,0.9906103336081281,-0.006594889756739944,0.011345023957416689,0.12504477940845887
8385,11.0,300.05141000000003,-6732.7014,0.0,0.0,0.08385119372480632,0.0,0.0,0.0,0.5299393775134446,0.5215270002807075,0.9951067119868862,0.015633470243403384,0.009240513024267632,0.1044012069060969
8386,11.0,300.50011,-6626.6464,0.0,0.0,0.08386119814518045,0.0,0.0,0.0,0.4998603592848765,0.5420721456683555,0.9724025332861581,0.0007322818457105913,-0.0033255606941322868,0.12368153245891687
8387,11.0,299.83884,-6710.1669,0.0,0.0,0.0838712025655548,0.0,0.0,0.0,0.5060263914434165,0.5250097840544314,1.008686999102156,-0.0016592825570584384,-0.007926031674213423,0.09422669149070041
8388,11.0,299.37086,-6875.3316,0.0,0.0,0.08388120698592894,0.0,0.0,0.0,0.5260105610457005,0.5547198779215895,1.009198690402656,-0.0003457834617836707,-0.0036680792513112364,0.11471543431153189
8389,11.0,299.52501,-6833.7302,0.0,0.0,0.08389117849702532,0.0,0.0,0.0,0.5243321629175556,0.5374631344084815,1.015488065495869,-0.004706660198511196,0.001198731306330569,0.0906902226869281
8390,11.0,299.44154,-6690.9415,0.0,0.0,0.08390118291739967,0.0,0.0,0.0,0.5134386097674455,0.5165375845357905,1.003902959020008,0.0028143439999791272,-0.015363425919502086,0.1126196075396899
8391,11.0,299.85087999999996,-6641.1746,0.0,0.0,0.08391118733777359,0.0,0.0,0.0,0.5053567141873245,0.5153859852671365,0.998008548815775,-0.0013078088954956888,-0.022841769958307178,0.08892197257966541
8392,11.0,300.07576,-6624.0616,0.0,0.0,0.08392119175814794,0.0,0.0,0.0,0.4966182528074055,0.5025271930180726,1.0144038878888688,0.01880167735133108,-0.005311512246330446,0.1061206011332879
8393,11.0,300.14333,-6718.6621,0.0,0.0,0.08393119617852207,0.0,0.0,0.0,0.49134863287983455,0.5151150219253945,1.035841828204629,-0.0025380327242093275,0.0033951025816205366,0.08165264177148832
8394,11.0,300.51682,-6652.628000000001,0.0,0.0,0.0839412005988962,0.0,0.0,0.0,0.4962986737258655,0.5156950265476365,1.010239095605336,0.00022721655238452774,0.008456060369723182,0.1009205914875869
8395,11.0,300.16817000000003,-6730.5474,0.0,0.0,0.08395120501927056,0.0,0.0,0.0,0.5131494788514105,0.5271845430090635,1.005584325970946,-0.013621381499575686,0.012857949224980788,0.1031702498896109
8396,11.0,300.06442000000004,-6735.5268,0.0,0.0,0.08396120943964469,0.0,0.0,0.0,0.5306180017679195,0.5412425978114855,0.9755713513838961,0.005633871078194785,0.023329981214239875,0.12814715869713988
8397,11.0,299.84417,-6792.8824,0.0,0.0,0.08397118095074108,0.0,0.0,0.0,0.5376437057088025,0.5357832670676914,0.9914396585499761,-0.002866356863387397,0.012314714435617687,0.10509455368452492
8398,11.0,299.53814,-6781.6186,0.0,0.0,0.08398118537111521,0.0,0.0,0.0,0.5067304178778985,0.5493179477959604,1.005394361842198,0.005052545785772445,-0.013452646986922888,0.12123472598493588
8399,11.0,299.28078999999997,-6598.8497,0.0,0.0,0.08399118979148956,0.0,0.0,0.0,0.4721016432553045,0.5295708787170765,1.004213003418107,-0.0004254547801241175,-0.01975508692692528,0.1021259538065469
8400,11.0,299.7294,-6438.2199,0.0,0.0,0.0840011942118637,0.0,0.0,0.0,0.45839902645546154,0.5047343354459005,0.993924735480234,0.009489277778843801,-0.011792209730050488,0.1106784533956129
8401,11.0,299.59323,-6605.25,0.0,0.0,0.08401119863223783,0.0,0.0,0.0,0.48613924053820756,0.5212038748238175,1.000487951545473,0.001966475264075998,0.002156486002328598,0.1020169483607889
8402,11.0,300.41855,-6646.8109,0.0,0.0,0.08402120305261196,0.0,0.0,0.0,0.49331044719345046,0.5260252531721505,1.001128832233723,-0.00958612128497651,-0.01011057274796084,0.11695422053998289
8403,11.0,299.66708,-6640.899,0.0,0.0,0.08403120747298609,0.0,0.0,0.0,0.5071507849468856,0.5226357593351335,0.9888809284699491,0.0018586799429124283,-0.00991928673313238,0.11654939672752988
8404,11.0,300.01592999999997,-6835.6343,0.0,0.0,0.0840411789840827,0.0,0.0,0.0,0.5105348274983645,0.5485045511456845,1.018822772899979,-0.003296391452903507,0.008339207403265691,0.11184206981045289
8405,11.0,300.01741,-6859.2566,0.0,0.0,0.08405118340445683,0.0,0.0,0.0,0.5270924588399755,0.5380573447971255,1.019892967655599,-0.0027444058303767675,0.002913897646154307,0.10377785544457689
8406,11.0,300.19235,-6820.4466,0.0,0.0,0.08406118782483119,0.0,0.0,0.0,0.5117825740690075,0.5410434333718296,1.020419452407559,-0.01911849633959868,-0.001251401363753699,0.08078170771428383
8407,11.0,299.37217999999996,-6846.7811,0.0,0.0,0.0840711922452051,0.0,0.0,0.0,0.5293546207482335,0.5286845989871075,1.0232112604080892,-0.02108611454978748,0.004593929842735576,0.1059045660794669
8408,11.0,299.99818999999997,-6726.5657,0.0,0.0,0.08408119666557945,0.0,0.0,0.0,0.5218223120223525,0.5177182539498135,1.005167434349802,0.006847125298208654,0.005989901325457235,0.07798491857626222
8409,11.0,299.89062,-6597.4127,0.0,0.0,0.08409120108595358,0.0,0.0,0.0,0.5045653658592245,0.5056002995113644,0.995283047901789,0.015299422963685486,0.004587402181616346,0.10986128745496489
8410,11.0,300.21991,-6625.0847,0.0,0.0,0.08410120550632771,0.0,0.0,0.0,0.4872377049716175,0.5098161697324386,1.016806506525989,0.014887384810520486,-0.01041541258692119,0.08482816859813842
8411,11.0,300.23498,-6648.9462,0.0,0.0,0.08411120992670185,0.0,0.0,0.0,0.49289142774709654,0.5193044969813635,1.008917706017425,0.018668278922665683,-0.016230526851578286,0.11989234185495289
8412,11.0,299.43682,-6685.8322,0.0,0.0,0.08412118143779845,0.0,0.0,0.0,0.48802289273910954,0.5317100320631944,1.012593128900161,-0.0018744713443959182,0.003305232161351017,0.09021321696385132
8413,11.0,299.20288,-6776.9724,0.0,0.0,0.08413118585817281,0.0,0.0,0.0,0.5235111364940265,0.5382628623149085,0.9982563897902351,0.009593319109711881,0.0037842384454252567,0.11912694286191387
8414,11.0,299.64347000000004,-6815.1148,0.0,0.0,0.08414119027854672,0.0,0.0,0.0,0.5261955703814595,0.5463947719199655,0.9990343834820171,-0.005584239859146564,0.01123786161359059,0.09990216165307572
8415,11.0,300.1023,-6750.9649,0.0,0.0,0.08415119469892085,0.0,0.0,0.0,0.5190450948232624,0.5365455959129275,0.996534057137754,-0.0004063308193267296,0.006860154478594533,0.12800896151600089
8416,11.0,300.1909,-6778.5436,0.0,0.0,0.08416119911929498,0.0,0.0,0.0,0.4975404218559165,0.5496231691235834,1.0133444335843091,0.0011331659188597689,-0.0006641362168601415,0.1101532250737769
8417,11.0,300.17816,-6680.6856,0.0,0.0,0.08417120353966934,0.0,0.0,0.0,0.5028078632957725,0.5336242236221105,0.994329539027685,0.002083261862651938,-0.0018483344567414085,0.11482051847940289
8418,11.0,300.56073,-6551.6752,0.0,0.0,0.08418120796004347,0.0,0.0,0.0,0.4782906964561166,0.5097833606942005,1.003471608319937,-0.0063482737003258335,-0.0008552279713794292,0.1020920200606979
8419,11.0,300.45836,-6465.3811,0.0,0.0,0.0841912123804176,0.0,0.0,0.0,0.47915844384175654,0.5185477714091805,0.967608198582994,-0.0009896428824126482,-0.014849161976998183,0.11797405676563288
8420,11.0,300.43756,-6601.166,0.0,0.0,0.08420118389151421,0.0,0.0,0.0,0.49598490056739847,0.5208970322960346,0.989707710154046,-0.020355101212142082,0.007060561872148203,0.10518979919392489
8421,11.0,299.90879,-6744.6269999999995,0.0,0.0,0.08421118831188856,0.0,0.0,0.0,0.5138070882988115,0.5331228776051316,1.003268218627364,-0.0003562643688305557,-0.008345921806378352,0.1052780330126329
8422,11.0,300.08698,-6780.0228,0.0,0.0,0.08422119273226247,0.0,0.0,0.0,0.5153778488688335,0.5250116686996175,1.020568096197229,-0.0030284534733100873,0.005639275348928145,0.1050625147163629
8423,11.0,299.98579,-6844.6226,0.0,0.0,0.0842311971526366,0.0,0.0,0.0,0.5198406886692816,0.5421841908644135,1.018569460374979,0.00830404002541994,-0.012309152705818789,0.1023169514503969
8424,11.0,299.60913999999997,-6779.3731,0.0,0.0,0.08424120157301074,0.0,0.0,0.0,0.5223803291174245,0.5247264590614695,1.013653373539799,0.012116417338047289,-0.01048539169182759,0.08996423506977873
8425,11.0,300.01776,-6713.1358,0.0,0.0,0.08425120599338487,0.0,0.0,0.0,0.5170143389728425,0.5278480597045475,0.9957632575216819,0.0062149799403957645,-0.005535430588579465,0.08819679454934592
8426,11.0,301.0203,-6765.3548,0.0,0.0,0.08426121041375922,0.0,0.0,0.0,0.5396219245415375,0.5105065172905705,1.006370476326033,0.007529988281826982,-0.0016142979003187985,0.08105307230306542
8427,11.0,300.72527,-6764.1552,0.0,0.0,0.08427118192485583,0.0,0.0,0.0,0.5124004033174825,0.5389425403494875,1.004791346310185,0.007486586220418533,0.0009440026427258071,0.11028577845185888
8428,11.0,300.24318999999997,-6582.6785,0.0,0.0,0.08428118634522996,0.0,0.0,0.0,0.4916669757962525,0.5120140409218515,0.997288867667248,0.0003182366062175077,0.01101834807217629,0.10446394735228891
8429,11.0,300.43452,-6632.7984,0.0,0.0,0.0842911907656041,0.0,0.0,0.0,0.4860675024311275,0.5257044885879935,1.0044331016048291,0.0022833631533503975,-0.009279024735393441,0.11877016736920289
8430,11.0,300.08923,-6766.986,0.0,0.0,0.08430119518597823,0.0,0.0,0.0,0.5150073235722655,0.5250972984655684,1.0168900996592392,-0.014011597285336987,0.011803771926941589,0.1048902925968659
8431,11.0,299.97257,-6707.6557,0.0,0.0,0.08431119960635236,0.0,0.0,0.0,0.5050388981609586,0.5339805634172785,0.9999403709264311,-0.007834311059261304,-0.008620372349664512,0.1129907407863179
8432,11.0,299.51295,-6661.0337,0.0,0.0,0.08432120402672671,0.0,0.0,0.0,0.49947081528393156,0.5262181557261886,0.9990989376458881,0.002462094796789838,0.006763876771317664,0.10292674562557891
8433,11.0,299.66686,-6675.0912,0.0,0.0,0.08433120844710063,0.0,0.0,0.0,0.5010253435873515,0.5352032725779505,0.9928324316074321,0.003097229850347787,0.0030699699776074473,0.1161892065819819
8434,11.0,300.06039,-6668.0367,0.0,0.0,0.08434121286747476,0.0,0.0,0.0,0.49774496665360346,0.5160429158369706,1.013128763300524,0.009547932294007551,0.008914261792144142,0.1006355632212068
8435,11.0,300.18523,-6752.9130000000005,0.0,0.0,0.08435118437857159,0.0,0.0,0.0,0.5049088373781225,0.5460855381219465,1.001722556262319,0.00014493578066404787,-0.0005206101913252254,0.11944784930108489
8436,11.0,300.17668,-6735.2081,0.0,0.0,0.08436118879894572,0.0,0.0,0.0,0.5092510497541655,0.5207083549949135,1.017375649107159,-0.0037242594097307864,0.005563378458137705,0.09366340954810881
8437,11.0,299.69337,-6549.111,0.0,0.0,0.08437119321931985,0.0,0.0,0.0,0.4927560879312395,0.5118850845816245,0.9861250401854641,0.011664055883902688,-0.025577288876031876,0.099319768800348
8438,11.0,300.17305,-6665.9852,0.0,0.0,0.08438119763969376,0.0,0.0,0.0,0.4980033555616045,0.5266996825712115,1.0015900130167381,-0.013416967411151589,0.005221669386463646,0.0974831861195914
8439,11.0,300.43105,-6923.1815,0.0,0.0,0.08439120206006812,0.0,0.0,0.0,0.5382809082991895,0.5397812378547605,1.0264121174739889,-0.00028270782232608975,-0.007842308237000562,0.1102683505501389
8440,11.0,300.0428,-6911.9324,0.0,0.0,0.08440120648044225,0.0,0.0,0.0,0.5177735875377745,0.5441320425916515,1.0391491778560389,-0.0066698432103622736,0.0006359691610402693,0.09212073019135822
8441,11.0,299.74157,-6668.8115,0.0,0.0,0.08441121090081638,0.0,0.0,0.0,0.4947518258582035,0.5289324399615675,1.003467920089573,0.008503205984951091,0.003203233947984577,0.1120771742311559
8442,11.0,299.90301,-6717.8202,0.0,0.0,0.08442121532119073,0.0,0.0,0.0,0.5037558398243306,0.5214848794740505,1.016808837001219,0.007062479853262494,0.004723035840002346,0.08571782751719093
8443,11.0,299.60431,-6792.1989,0.0,0.0,0.08443118683228734,0.0,0.0,0.0,0.5308092324592925,0.5346309281264645,0.9992187139402091,0.010041210205740291,0.0033746024042723265,0.1031815273632239
8444,11.0,299.6547,-6744.4715,0.0,0.0,0.08444119125266147,0.0,0.0,0.0,0.5062276634432805,0.5244767537068256,1.0194465296615391,-0.0022708765683930677,0.016138113376207786,0.07924884067150163
8445,11.0,299.9657,-6642.8895,0.0,0.0,0.08445119567303538,0.0,0.0,0.0,0.5008250747050865,0.5241333024529294,0.9943141578911671,0.008432656420238391,-0.0025397321472770476,0.1133289636696979
8446,11.0,300.16967999999997,-6684.0431,0.0,0.0,0.08446120009340952,0.0,0.0,0.0,0.48852543439120655,0.5230083820594085,1.020248415790679,-0.007364632350307623,0.007428654051251073,0.09197834828730622
8447,11.0,300.22877,-6743.1813,0.0,0.0,0.08447120451378387,0.0,0.0,0.0,0.5085524746052216,0.5317759034521955,1.009430349773019,0.01051099550860449,-0.007281868359614452,0.13382579729257787
8448,11.0,300.07216,-6828.2392,0.0,0.0,0.084481208934158,0.0,0.0,0.0,0.5180998135399705,0.5445275546356855,1.012986857624019,-0.0066057840191651234,0.0013006149211106986,0.10647232050799989
8449,11.0,300.17256000000003,-6763.776,0.0,0.0,0.08449121335453236,0.0,0.0,0.0,0.5168959913611625,0.5390845574835035,1.0000384636686122,-0.004437695999216495,-0.010056983672697011,0.10899031793400689
8450,11.0,300.0298,-6607.4529,0.0,0.0,0.08450118486562874,0.0,0.0,0.0,0.49680101272794247,0.5184142453110026,0.993285445594641,-0.006993290070183993,-0.005804859869670064,0.0986729768110146
8451,11.0,299.72906,-6546.3795,0.0,0.0,0.08451118928600287,0.0,0.0,0.0,0.4784653706408556,0.5285023355591195,0.9829681987039081,-0.0034717136110814567,0.0038360942550680266,0.12146147109231388
8452,11.0,299.66925,-6678.773,0.0,0.0,0.084521193706377,0.0,0.0,0.0,0.49372065136393456,0.5246698183808794,1.0117897431608731,0.0012870272372696987,0.016852773870489286,0.1152107210929129
8453,11.0,299.07412,-6747.0214,0.0,0.0,0.08453119812675114,0.0,0.0,0.0,0.4937368431005325,0.5438528415265965,1.013336327583509,-0.0005566944085239604,0.0037153553731520267,0.11209605108051889
8454,11.0,299.25099,-6719.2926,0.0,0.0,0.0845412025471255,0.0,0.0,0.0,0.5129248007742365,0.5391375099337296,0.9904348690883111,-0.011918270201491688,0.0009188506443009982,0.11641376306914387
8455,11.0,299.77574,-6733.0641,0.0,0.0,0.08455120696749963,0.0,0.0,0.0,0.5079742533031555,0.5349632640267635,1.003745834327001,0.006388071935103614,-0.004167085065859276,0.0946145433639784
8456,11.0,300.06171,-6727.7054,0.0,0.0,0.08456121138787376,0.0,0.0,0.0,0.5168845922975376,0.5321655893081545,0.99600428945547,-0.0012347041166808088,-0.003276899966029847,0.1013164652619066
8457,11.0,300.30742999999995,-6803.1479,0.0,0.0,0.08457121580824811,0.0,0.0,0.0,0.5089642898433645,0.5323176072206576,1.026705149402909,-0.004706080822104016,-0.014181019794807686,0.09106043083621482
8458,11.0,300.4129,-6859.8538,0.0,0.0,0.08458118731934428,0.0,0.0,0.0,0.5182561377653985,0.5407548293458465,1.026213317804369,0.0014378251966522986,-0.01117545351343139,0.1030360246488639
8459,11.0,299.72764,-6832.1965,0.0,0.0,0.08459119173971863,0.0,0.0,0.0,0.5090331807176636,0.5333112610637235,1.034472724669509,0.002918022789961427,0.0041894001767866056,0.09275551618025672
8460,11.0,299.7363,-6644.0291,0.0,0.0,0.08460119616009276,0.0,0.0,0.0,0.5030540932025735,0.5163045775427945,1.0002602742480031,0.01774336092663338,0.016943504337443682,0.1050807025556579
8461,11.0,299.94458,-6692.2279,0.0,0.0,0.08461120058046712,0.0,0.0,0.0,0.4959828943322005,0.5348475204678405,1.0034397517367932,-0.007949949240173903,0.008145098878958673,0.08972617702503421
8462,11.0,299.45322999999996,-6845.7071,0.0,0.0,0.08462120500084125,0.0,0.0,0.0,0.5250904691598944,0.5410886243262895,1.014744947872529,-0.007700886083443282,0.005094945540181975,0.0951520948335306
8463,11.0,300.06804,-6775.1768,0.0,0.0,0.08463120942121538,0.0,0.0,0.0,0.5061319721038365,0.5361187339107994,1.017233895418169,-0.002046857509084108,0.0024784460189535775,0.10397403079643791
8464,11.0,300.30913,-6643.2283,0.0,0.0,0.08464121384158951,0.0,0.0,0.0,0.4931289031730335,0.5345092773194584,0.9917373412968551,0.008236377514217174,0.009210157672471792,0.1157866423172519
8465,11.0,300.07845,-6724.2027,0.0,0.0,0.08465121826196365,0.0,0.0,0.0,0.4974607803980565,0.5292454430499585,1.017283443348059,-0.00930567827927394,-0.004005502376387306,0.10850758532136491
8466,11.0,300.45423,-6721.7325,0.0,0.0,0.08466118977306025,0.0,0.0,0.0,0.5107689693314724,0.5383104040096005,0.9941594548658991,-0.006273343551455804,-0.014378599511307287,0.11423827457443989
8467,11.0,300.01234,-6711.3126,0.0,0.0,0.08467119419343438,0.0,0.0,0.0,0.4928438759199035,0.5369194041398195,1.010308189129655,0.002534773706587688,-0.0016179239171266583,0.1122494571456589
8468,11.0,299.63083,-6680.4565,0.0,0.0,0.08468119861380874,0.0,0.0,0.0,0.5057509191387295,0.5178478689026055,1.0070931769598581,0.014076914426533289,0.008019146521303143,0.11412087941785388
8469,11.0,300.01065,-6603.1603,0.0,0.0,0.08469120303418265,0.0,0.0,0.0,0.48822309069386755,0.5190801431442215,0.999892616449218,0.0009519774884328631,-0.002467654196113508,0.10528793246610992
8470,11.0,300.09455,-6682.8173,0.0,0.0,0.084701207454557,0.0,0.0,0.0,0.4996539805045085,0.5246979360711544,1.007057672676354,0.013258773739289088,-0.007639876572397112,0.12216885138462688
8471,11.0,299.41881,-6870.7966,0.0,0.0,0.08471121187493114,0.0,0.0,0.0,0.5215841374538465,0.5471488934393914,1.019817581848159,0.0057953045159270244,0.013632709635693685,0.1075326968701509
8472,11.0,299.99366000000003,-6778.0259,0.0,0.0,0.08472121629530527,0.0,0.0,0.0,0.5134472223932955,0.5412475424719735,1.005655871560507,0.011738955331294688,0.021972807685797277,0.1051632216438019
8473,11.0,299.97865,-6694.3948,0.0,0.0,0.0847312207156794,0.0,0.0,0.0,0.4912422618843365,0.5328807006987305,1.0108058874462742,-0.013343468275397789,0.007938009911595581,0.09408837575929972
8474,11.0,299.95824,-6761.4457,0.0,0.0,0.08474119222677601,0.0,0.0,0.0,0.5083686203745765,0.5344249039836315,1.0125171250101601,-0.02179278151403008,-0.001059800025494119,0.10534113822886089
8475,11.0,299.83926,-6839.901,0.0,0.0,0.08475119664715036,0.0,0.0,0.0,0.5293606799838315,0.5289910767448545,1.0208073245458391,-0.007400068442079893,-0.0012464455575145988,0.09780999778034521
8476,11.0,300.24298,-6823.315,0.0,0.0,0.08476120106752427,0.0,0.0,0.0,0.5193325741416345,0.5421493654584765,1.012635432091836,0.01170881418056999,-0.0028276157524389474,0.1131460618941469
8477,11.0,300.45869,-6709.1962,0.0,0.0,0.0847712054878984,0.0,0.0,0.0,0.5137567196363405,0.5208852684623735,1.00478612807217,0.000826113465921051,-0.016764099287987784,0.10744051137605289
8478,11.0,300.84202,-6751.8783,0.0,0.0,0.08478120990827254,0.0,0.0,0.0,0.5121068647635125,0.5295044703055225,1.010791063597311,0.007030430853924503,-0.02335119664483368,0.1037937736036479
8479,11.0,300.26672,-6745.4453,0.0,0.0,0.08479121432864689,0.0,0.0,0.0,0.48500392419866056,0.5402458231581115,1.025197230604089,0.01120865467945809,0.014313168886099788,0.11660794231830789
8480,11.0,299.91684,-6677.346,0.0,0.0,0.08480121874902102,0.0,0.0,0.0,0.5048400984913385,0.5229757959361925,1.001930546110346,0.01240141723342459,0.005288018826861826,0.11175716958457389
8481,11.0,300.15751,-6702.4735,0.0,0.0,0.08481119026011763,0.0,0.0,0.0,0.49238451898706853,0.5321759852541805,1.012824068862953,0.0030488724893252867,0.007313869128247682,0.1028712904476059
8482,11.0,300.13428999999996,-6680.6447,0.0,0.0,0.08482119468049176,0.0,0.0,0.0,0.4992827965953755,0.5461620790345005,0.9853042974719631,-0.00999603536195688,-0.008328831519591672,0.1164821473183929
8483,11.0,300.06495,-6578.6653,0.0,0.0,0.0848311991008659,0.0,0.0,0.0,0.4939044144020705,0.5122524992003855,0.993593078457502,0.0014291291803190686,0.0051689780507884146,0.11357488960146889
8484,11.0,299.88426,-6771.2042,0.0,0.0,0.08484120352124003,0.0,0.0,0.0,0.5105722670895595,0.5516930769578675,0.9960116456511959,-0.011076517747167188,0.011370723019702988,0.11121132162320291
8485,11.0,299.4942,-6863.3589,0.0,0.0,0.08485120794161416,0.0,0.0,0.0,0.5017983926186456,0.5401217101533625,1.044369645021259,-0.02124126847134998,0.005444079100638775,0.1029039677633309
8486,11.0,300.06789,-6693.3345,0.0,0.0,0.08486121236198829,0.0,0.0,0.0,0.5022639709070945,0.5212819964065275,1.0110605779914101,-0.011850512140804488,-0.017007738314283087,0.1034792202426039
8487,11.0,300.39227999999997,-6713.3192,0.0,0.0,0.08487121678236242,0.0,0.0,0.0,0.5018645274526725,0.5258684020566705,1.01294846557773,-0.002918707544379007,0.008567834318729413,0.11222227164547591
8488,11.0,300.45652,-6694.0592,0.0,0.0,0.08488122120273678,0.0,0.0,0.0,0.5155707818203745,0.5191262257587695,1.000129818297628,0.02038843714043208,-0.00986918283291251,0.1239648878493819
8489,11.0,300.42471,-6660.6025,0.0,0.0,0.08489119271383339,0.0,0.0,0.0,0.5043708927675316,0.5279512997572364,0.9923346319658032,0.012129764881614588,-0.01845914106227538,0.10969702948125389
8490,11.0,300.29483999999997,-6763.5826,0.0,0.0,0.08490119713420752,0.0,0.0,0.0,0.5124213167995465,0.5251659360273425,1.0183729911805892,0.0068873061362241935,-0.02250619469743848,0.11097507222988691
8491,11.0,300.35222999999996,-6771.9724,0.0,0.0,0.08491120155458165,0.0,0.0,0.0,0.5142714304221385,0.5164227427694565,1.027816380787579,0.005067735418021545,-0.004002326343948856,0.08197837026788522
8492,11.0,300.39301,-6568.8763,0.0,0.0,0.08492120597495578,0.0,0.0,0.0,0.49373383374773555,0.5132616152399775,0.989778931503575,-0.0006350516732072204,0.012056502846384187,0.10163883382097191
8493,11.0,299.66542999999996,-6625.7666,0.0,0.0,0.08493121039532991,0.0,0.0,0.0,0.48336248943416354,0.5080702384851284,1.0226348224261992,-0.018770549295008983,0.011585028455603288,0.08756827449906582
8494,11.0,299.71757,-6894.5693,0.0,0.0,0.08494121481570405,0.0,0.0,0.0,0.5395020367897054,0.5456065038721695,1.010668379275203,-0.018387349252940083,-0.0014251073880221486,0.11646313874651688
8495,11.0,299.7379,-6884.5923,0.0,0.0,0.08495121923607818,0.0,0.0,0.0,0.5382038404965835,0.5390233166474595,1.015516943123719,-0.006351318111576294,0.025185367790352273,0.11021510425738389
8496,11.0,299.61451,-6596.5769,0.0,0.0,0.08496122365645231,0.0,0.0,0.0,0.5051117204456455,0.5141985878724495,0.9858843426242091,0.01021981174786689,0.0014589199491591887,0.12331530334277288
8497,11.0,300.06818,-6473.8859999999995,0.0,0.0,0.08497119516754914,0.0,0.0,0.0,0.4625849551360806,0.5111040612720434,0.9942106645259531,-0.0006704255108933464,-0.0005723182387059125,0.09322320506866401
8498,11.0,299.58018,-6504.4089,0.0,0.0,0.08498119958792327,0.0,0.0,0.0,0.47038573460845756,0.5081672977122075,0.9986248581891,-0.01106387035941899,-0.022703057032867277,0.1103365321493679
8499,11.0,299.80619,-6728.8086,0.0,0.0,0.08499120400829718,0.0,0.0,0.0,0.4844136148229016,0.5376226199742214,1.023353520722129,-0.0007233382214504243,-0.0038149596818322067,0.0977859776734746
8500,11.0,300.77891,-6808.0753,0.0,0.0,0.08500120842867132,0.0,0.0,0.0,0.5166742618417794,0.5457445085357896,1.007066123182188,0.015442172677523784,0.0002701729357364927,0.1275577105839659
8501,11.0,300.59459,-6722.5936,0.0,0.0,0.08501121284904567,0.0,0.0,0.0,0.5060022355610325,0.5321476243838815,1.005350741425393,0.0088004592151127,0.0009662090724474111,0.10644984662078188
8502,11.0,300.19799,-6649.9554,0.0,0.0,0.0850212172694198,0.0,0.0,0.0,0.4990367288085905,0.5376579013427035,0.9847257417973642,0.012531538811266589,-0.010483467529887689,0.12257809296751589
8503,11.0,300.11436000000003,-6801.8308,0.0,0.0,0.08503122168979393,0.0,0.0,0.0,0.5149865316802135,0.5362584205695855,1.0163417287051189,-0.005057614062772646,0.005193725975205845,0.09264153263675741
8504,11.0,299.81934,-6871.3656,0.0,0.0,0.08504119320089054,0.0,0.0,0.0,0.5144245730422525,0.5437329335097625,1.0305660375839492,0.007929010325532393,-0.006406083468881213,0.09323345105367523
8505,11.0,299.88538,-6650.3742,0.0,0.0,0.0850511976212649,0.0,0.0,0.0,0.4820278465349445,0.5337565743501725,1.005763265938606,-0.01127010728477299,-0.01089255813851179,0.0954507503005056
8506,11.0,299.77198,-6574.5529,0.0,0.0,0.08506120204163903,0.0,0.0,0.0,0.4879371008531425,0.5278864314858345,0.982676382675108,-0.015011844346803686,-0.011365704391957688,0.10709543892199688
8507,11.0,299.46573,-6778.102,0.0,0.0,0.08507120646201294,0.0,0.0,0.0,0.5188853458124966,0.5271343769966125,1.0143540359839491,-0.01951809380803588,-0.0003296116760801397,0.11572994084165589
8508,11.0,299.70641,-6808.9209,0.0,0.0,0.08508121088238707,0.0,0.0,0.0,0.5398635846903875,0.5300700665113425,0.9998082937758961,-0.007646392581140192,0.015100204821774186,0.11889149393617689
8509,11.0,300.04952000000003,-6699.6936,0.0,0.0,0.08509121530276142,0.0,0.0,0.0,0.5033019949720395,0.5191980347933565,1.014039523152909,-0.0024295144490994076,0.01110533761976149,0.0979034792213211
8510,11.0,300.07968999999997,-6610.9705,0.0,0.0,0.08510121972313556,0.0,0.0,0.0,0.48293520186699357,0.5301813416373246,0.9964534226947961,0.0039634426687113365,0.004418656928512486,0.10040939870613609
8511,11.0,299.8188,-6616.5563,0.0,0.0,0.08511122414350991,0.0,0.0,0.0,0.46782499829323254,0.5315313656730615,1.011911545955394,0.003072906579047267,0.0048606212207309655,0.0984903972489954
8512,11.0,300.11512999999997,-6773.5247,0.0,0.0,0.0851211956546063,0.0,0.0,0.0,0.5067920133514775,0.5468716074170255,1.0053187632522371,0.01055942987663459,0.0024243698743666776,0.1056005505194629
8513,11.0,300.22522999999995,-6891.6867,0.0,0.0,0.08513120007498043,0.0,0.0,0.0,0.5198641656740984,0.5539374157968665,1.021099039249629,0.005467604234835524,-0.003405626703784187,0.11188578141976689
8514,11.0,300.07912999999996,-6708.6422,0.0,0.0,0.08514120449535456,0.0,0.0,0.0,0.5040508577234465,0.5380138459703325,0.9971950305754871,0.0016747980505396984,-0.007793466035805212,0.1058310953147159
8515,11.0,300.02477000000005,-6564.5071,0.0,0.0,0.0851512089157287,0.0,0.0,0.0,0.48512028584014455,0.5255092960887294,0.984816660728837,-0.005693953870699494,-0.013667713373648289,0.11877176830436087
8516,11.0,299.88183,-6745.0313,0.0,0.0,0.08516121333610305,0.0,0.0,0.0,0.49073268827654554,0.5348650091645665,1.024723333532319,-0.015140760157026686,-0.005084607957361735,0.1140042745963459
8517,11.0,299.77504,-6751.6151,0.0,0.0,0.08517121775647718,0.0,0.0,0.0,0.5057454678531915,0.5245336375674395,1.0220432870178189,-0.006943104400681053,0.007363040433075513,0.10933770059829089
8518,11.0,299.35353,-6614.1077,0.0,0.0,0.08518122217685131,0.0,0.0,0.0,0.4875398561514375,0.5249668222501914,0.9980169182616011,0.004125914485146056,0.007056113096259144,0.1163179602721889
8519,11.0,299.20609,-6631.9825,0.0,0.0,0.08519122659722567,0.0,0.0,0.0,0.5057408778302386,0.5217209059523444,0.9884952854818891,0.014630155060633884,0.01938736731988418,0.12468950352589589
8520,11.0,299.09801,-6738.073,0.0,0.0,0.08520119810832205,0.0,0.0,0.0,0.5183710301942375,0.5318071115552755,0.9980278107001761,0.014336482757650686,0.0028466012222126674,0.10177670676207891
8521,11.0,299.17078,-6775.3183,0.0,0.0,0.08521120252869618,0.0,0.0,0.0,0.5157791161734355,0.5311927982846475,1.012555679176465,0.004018216233342066,-0.0060438783741843536,0.10748060568250989
8522,11.0,299.01023,-6885.2834,0.0,0.0,0.08522120694907032,0.0,0.0,0.0,0.5143549323628794,0.5454229333515526,1.033176372491569,-0.009076185845574802,-0.006547300743268274,0.09094678774474911
8523,11.0,299.82392999999996,-6922.0557,0.0,0.0,0.08523121136944467,0.0,0.0,0.0,0.5187611517477395,0.5428399865941355,1.042531001389799,-0.0036343223176046866,-0.01142335528289739,0.09304919760249082
8524,11.0,299.8618,-6817.5079,0.0,0.0,0.0852412157898188,0.0,0.0,0.0,0.5234817725061285,0.5276587744533665,1.021211611335739,-0.011394710702570388,0.0004338173561144396,0.0863292489720335
8525,11.0,299.88745,-6772.0291,0.0,0.0,0.08525122021019294,0.0,0.0,0.0,0.5125071593480186,0.5232582090040645,1.022762390613789,0.002131417080279488,-0.014209848786652886,0.1012201082171469
8526,11.0,300.35957,-6745.3973,0.0,0.0,0.08526122463056707,0.0,0.0,0.0,0.5160161660343305,0.5184929039162655,1.015923256413819,-0.00827360067519081,-0.002902472440676727,0.0961378990280719
8527,11.0,300.11749,-6689.3761,0.0,0.0,0.08527119614166367,0.0,0.0,0.0,0.49898239833822855,0.5292004648780194,1.0052204475950342,0.0026003736458868974,-0.0011011351580235789,0.11946352428013189
8528,11.0,300.09654,-6562.684,0.0,0.0,0.0852812005620378,0.0,0.0,0.0,0.4783417642611566,0.5137312971913315,1.00281900432803,-0.002714407649241177,0.004382286113522965,0.11328817022067189
8529,11.0,300.68448,-6627.6419,0.0,0.0,0.08529120498241194,0.0,0.0,0.0,0.4995089641501965,0.5331643397992235,0.9819643515648361,0.006060588692183535,-0.0034452975730243965,0.1194257097863999
8530,11.0,299.84864,-6782.0341,0.0,0.0,0.08530120940278607,0.0,0.0,0.0,0.5085915860590815,0.5344714729582275,1.018505929593709,-0.011340103614931091,0.0028176591516563074,0.1076634162655519
8531,11.0,299.55149,-6800.4404,0.0,0.0,0.0853112138231602,0.0,0.0,0.0,0.5111606310251265,0.5452525249497345,1.010750908495848,0.007836234106626093,-0.00029171735850526176,0.12019053122688189
8532,11.0,299.79393,-6827.3177,0.0,0.0,0.08532121824353456,0.0,0.0,0.0,0.5060621186419425,0.5482644919319924,1.021007542765599,0.003131842372438777,-0.0006079048285155354,0.1066680804273199
8533,11.0,299.41837999999996,-6848.704000000001,0.0,0.0,0.08533122266390869,0.0,0.0,0.0,0.5086925564315465,0.5461617851919714,1.026980652105099,0.007850990574457442,-0.005427444675072084,0.1027992078354919
8534,11.0,299.12964,-6792.8011,0.0,0.0,0.08534122708428282,0.0,0.0,0.0,0.49903602966602156,0.5469406806763425,1.018865228079169,0.0023357404828196378,0.0017773166691574982,0.09465076401530309
8535,11.0,299.32236,-6698.3771,0.0,0.0,0.08535119859537943,0.0,0.0,0.0,0.5016055103296094,0.5288490292133355,1.0056848302483652,-0.0013736101675897686,0.0010168793592081789,0.1090727559621429
8536,11.0,299.3211,-6697.6174,0.0,0.0,0.08536120301575356,0.0,0.0,0.0,0.5130462995937275,0.5290981671479236,0.99376399348437,-0.007512963147021732,0.0024936362591527375,0.0988102873983161
8537,11.0,300.13117,-6640.1066,0.0,0.0,0.08537120743612792,0.0,0.0,0.0,0.5037892973426324,0.5295993814423895,0.9850379140206731,-0.005165117365257395,-0.013789709698938387,0.1158824147167039
8538,11.0,300.20667000000003,-6692.4252,0.0,0.0,0.08538121185650183,0.0,0.0,0.0,0.5028255445100175,0.5276004011151054,1.003904205317631,-0.012034449457957688,0.0010068702619378581,0.10713095333800189
8539,11.0,300.16352,-6820.7711,0.0,0.0,0.08539121627687596,0.0,0.0,0.0,0.5010438151366745,0.5414512564045785,1.0308490383368791,-0.0051884316421083355,-0.0018864524188783578,0.12924703154818887
8540,11.0,300.50379,-6862.2285,0.0,0.0,0.08540122069725009,0.0,0.0,0.0,0.5208748725163475,0.5408088355761764,1.024262406061829,-0.005652315675065125,-0.0023694580010972977,0.1021843170123069
8541,11.0,299.6537,-6839.2654,0.0,0.0,0.08541122511762445,0.0,0.0,0.0,0.5312344732612605,0.5463784180633515,1.001353013818348,0.008700657322663022,-0.015257667940314587,0.1085535058158969
8542,11.0,299.86826,-6807.2739,0.0,0.0,0.08542122953799858,0.0,0.0,0.0,0.5232500726057615,0.5298850977055874,1.016106148056869,0.012950669715131589,0.0015454773455767384,0.08428702718348192
8543,11.0,299.96974,-6776.0834,0.0,0.0,0.08543120104909518,0.0,0.0,0.0,0.5195397027270765,0.5284224306562335,1.01179802141419,0.016332308837373383,-0.0012519973574625187,0.0981887162172218
8544,11.0,299.82137,-6738.5067,0.0,0.0,0.08544120546946932,0.0,0.0,0.0,0.4923948744030906,0.5256261947527665,1.030316676734339,-0.0014976740297089188,0.0007890247632356813,0.09014932850529601
8545,11.0,299.4442,-6713.9353,0.0,0.0,0.08545120988984345,0.0,0.0,0.0,0.4931586623284705,0.5321249073166395,1.015585134855449,-0.005402607078020805,-0.0067208053334168434,0.09721064514744371
8546,11.0,299.78129,-6650.0154,0.0,0.0,0.08546121431021758,0.0,0.0,0.0,0.49453299423410657,0.5221912566487645,1.004714359567587,-0.009110515974862921,0.02095409414125808,0.1026333691916249
8547,11.0,299.64006,-6651.8496,0.0,0.0,0.08547121873059171,0.0,0.0,0.0,0.5078874076370845,0.5293625038340115,0.984746260111889,-0.004132939145439336,0.007024047580944524,0.12308177959222588
8548,11.0,300.17871,-6779.0563,0.0,0.0,0.08548122315096585,0.0,0.0,0.0,0.5114996442435845,0.5345691502678674,1.014595088182739,-0.011377880618409388,0.003428019733644207,0.1126769878928529
8549,11.0,300.23485,-6803.6135,0.0,0.0,0.08549122757133998,0.0,0.0,0.0,0.5296716565720225,0.5284517946441315,1.01000517668725,0.01103231065855429,-0.01924431565751608,0.10321364739139391
8550,11.0,300.30174,-6684.5088,0.0,0.0,0.08550119908243681,0.0,0.0,0.0,0.4785244329891845,0.5171948190806545,1.036204470415419,0.01231696283758959,0.0026574826506731175,0.1013782157627509
8551,11.0,299.82579,-6585.4129,0.0,0.0,0.08551120350281094,0.0,0.0,0.0,0.47830494275252255,0.5072140421506285,1.0162820482742292,0.016888111980976884,0.005466616619963055,0.0962585842077326
8552,11.0,301.02016000000003,-6673.2988,0.0,0.0,0.08552120792318507,0.0,0.0,0.0,0.4977820110772595,0.5195254969606745,1.011208674626026,-0.007363392942785303,-0.0003430991900162537,0.09386216362147431
8553,11.0,300.95448999999996,-6847.5411,0.0,0.0,0.0855312123435592,0.0,0.0,0.0,0.5389734546100384,0.5269758945484715,1.015532141875219,0.0008883132215946892,-0.006527657066229594,0.08883693860477322
8554,11.0,300.12757,-6846.4946,0.0,0.0,0.08554121676393334,0.0,0.0,0.0,0.5386755489481375,0.5462097727167075,0.9962780696324901,-0.008053224655291392,0.0007261477207977004,0.1021462086760459
8555,11.0,300.16185,-6742.5606,0.0,0.0,0.08555122118430747,0.0,0.0,0.0,0.5181748041798715,0.5382314110318045,0.993163825185138,0.01104471283977829,0.0005653630975019935,0.10530757938554891
8556,11.0,300.31448,-6797.0643,0.0,0.0,0.0855612256046816,0.0,0.0,0.0,0.4979465730260005,0.5380645895353404,1.0301266923405892,-0.008607851212878772,-0.00965736999225821,0.11040938483155789
8557,11.0,300.03957,-6878.3864,0.0,0.0,0.08557123002505573,0.0,0.0,0.0,0.5110781119369825,0.5577283593235035,1.0220512916936089,0.003738735511259466,-0.01043481429983599,0.10461107126680891
8558,11.0,300.33585,-6807.0647,0.0,0.0,0.08558120153615256,0.0,0.0,0.0,0.5150160983181314,0.5275464556797814,1.0266151727940291,-0.009106038220021002,0.008064440016673263,0.1008325289081458
8559,11.0,299.66475,-6720.8212,0.0,0.0,0.0855912059565267,0.0,0.0,0.0,0.5092635836579025,0.5390381708939255,0.994660081475307,-0.0017532494461572484,0.01762924262087078,0.1106952733472729
8560,11.0,299.51106,-6606.9697,0.0,0.0,0.08560121037690083,0.0,0.0,0.0,0.5056291467417114,0.5187668360808005,0.983957840076578,-0.018535604967821785,0.005864641625570064,0.11348184284478588
8561,11.0,299.87874,-6683.8364,0.0,0.0,0.08561121479727474,0.0,0.0,0.0,0.4985408138121475,0.5222348466680665,1.010943709724876,-0.0027017480011667675,-0.012891352027777388,0.1053468732244269
8562,11.0,300.7298,-6833.4619999999995,0.0,0.0,0.08562121921764887,0.0,0.0,0.0,0.4989056041131495,0.5443274985359414,1.033968734069769,0.0035459633625093373,0.0016388275706646885,0.1018728236665649
8563,11.0,300.60632000000004,-6866.2591,0.0,0.0,0.08563122363802322,0.0,0.0,0.0,0.4964655661498365,0.5528986520593485,1.037807128098589,0.004902928668056385,-0.007336246250081133,0.100649294786562
8564,11.0,300.20749,-6788.2702,0.0,0.0,0.08564122805839736,0.0,0.0,0.0,0.5122295490856206,0.5479346182294365,1.0033004602455462,-0.004402015410195096,-0.010298870586919391,0.1051045038005069
8565,11.0,299.87145,-6823.2122,0.0,0.0,0.08565123247877149,0.0,0.0,0.0,0.5369619606440194,0.5444260877706715,0.992698094909174,0.004915636749485575,-0.008772172413396012,0.10522081477948589
8566,11.0,300.15915,-6873.0966,0.0,0.0,0.0856612039898681,0.0,0.0,0.0,0.5451266083598075,0.5437631182302415,1.000360028720348,0.016623392286351086,0.01207756730271309,0.1142311615587379
8567,11.0,299.91267999999997,-6807.8729,0.0,0.0,0.08567120841024245,0.0,0.0,0.0,0.5116689887327975,0.5480055558689375,1.009748814279449,0.020419832694780583,0.0013981825970898786,0.11975387109628688
8568,11.0,299.97404,-6750.9758,0.0,0.0,0.08568121283061658,0.0,0.0,0.0,0.48165524407567156,0.5373900081487645,1.033082849507339,-0.0034684927929885872,-0.009321624505372711,0.11888317515285587
8569,11.0,299.731,-6625.5076,0.0,0.0,0.08569121725099049,0.0,0.0,0.0,0.47676097251514454,0.5148821263899095,1.022345742172669,-0.006534331851263343,-0.008170238221889732,0.0952058193803328
8570,11.0,300.14675,-6571.0802,0.0,0.0,0.08570122167136462,0.0,0.0,0.0,0.47903265897434255,0.5117845803042056,1.006627071781357,-0.0045786517537527455,0.01051170984992499,0.1023664791152849
8571,11.0,300.42997,-6721.5543,0.0,0.0,0.08571122609173898,0.0,0.0,0.0,0.5244977077188935,0.5315771139150766,0.9871098584876581,-0.01116932537682659,0.025462309307684273,0.10029701204479441
8572,11.0,300.48924,-6938.7129,0.0,0.0,0.08572123051211311,0.0,0.0,0.0,0.5415344442377885,0.5431942086965944,1.0244667786069992,-0.01215387516774409,-0.009226533516612961,0.1038770424968659
8573,11.0,300.59122,-6881.1277,0.0,0.0,0.08573123493248747,0.0,0.0,0.0,0.5266513404089406,0.5445664431745235,1.020473255987869,-0.0060769240063207036,-0.007367905148130623,0.1097906031279889
8574,11.0,299.86692999999997,-6833.4508,0.0,0.0,0.08574120644358385,0.0,0.0,0.0,0.49650707900643354,0.5406698379274585,1.040021484867129,0.007771074728470362,-0.001797709847295148,0.1041951219682579
8575,11.0,300.00706,-6859.9485,0.0,0.0,0.08575121086395798,0.0,0.0,0.0,0.5142542659654445,0.5467028506128704,1.0242959446401392,0.012818027171040788,-0.001970246175648158,0.10743843421334791
8576,11.0,300.71767,-6809.593000000001,0.0,0.0,0.08576121528433212,0.0,0.0,0.0,0.5123294150154766,0.5417684239508804,1.015848377231429,-0.002075243001360538,-0.011290654983550889,0.1053471670669559
8577,11.0,299.63021000000003,-6705.899,0.0,0.0,0.08577121970470625,0.0,0.0,0.0,0.5360246739040165,0.5070331567427765,0.9953680089226741,-0.01021993941737949,-0.011600935468923188,0.1013185555968629
8578,11.0,299.61118999999997,-6594.8029,0.0,0.0,0.0857812241250806,0.0,0.0,0.0,0.5034630308104325,0.5139647398818705,0.987227638679282,0.0033228149890113068,0.0025038374585095173,0.1031579186358939
8579,11.0,299.93641,-6569.7642,0.0,0.0,0.08579122854545473,0.0,0.0,0.0,0.48417449793180256,0.5111364042152355,1.0017333676408862,-0.005992021044666434,0.011492392065210789,0.1181640411593829
8580,11.0,299.35074,-6674.8266,0.0,0.0,0.08580123296582887,0.0,0.0,0.0,0.4786784774018875,0.5222960672391085,1.028006061206299,-0.005235171551996205,-0.014566307132082587,0.10765991042020591
8581,11.0,300.07836000000003,-6863.7145,0.0,0.0,0.08581120447692547,0.0,0.0,0.0,0.5182960496868375,0.5340179523459685,1.0340838392811291,-0.0072576335450476636,-0.006504325361476933,0.1067995090977909
8582,11.0,300.75322,-6901.4103,0.0,0.0,0.0858212088972996,0.0,0.0,0.0,0.5301676424959725,0.5394416774812485,1.028247113405089,0.008006209749326382,0.004127005147553696,0.1030742951051409
8583,11.0,300.16911,-6778.2887,0.0,0.0,0.08583121331767374,0.0,0.0,0.0,0.5312157483994125,0.5338038424673375,0.9954109301969101,0.02100132375491928,0.02184722141540288,0.1006472824718634
8584,11.0,300.54555,-6750.5759,0.0,0.0,0.08584121773804787,0.0,0.0,0.0,0.5194397557372126,0.5353087113833565,0.9972580445992061,-0.013385957905091186,-0.008064256517080154,0.1103503528807319
8585,11.0,300.407,-6815.9203,0.0,0.0,0.08585122215842222,0.0,0.0,0.0,0.5215882715142546,0.5285765257314414,1.021704760159409,-0.0001952244571721538,-0.005811131887789064,0.10459380548510491
8586,11.0,300.22704,-6744.1189,0.0,0.0,0.08586122657879636,0.0,0.0,0.0,0.49564705258655556,0.5359862717252265,1.018410380109279,-0.006607051392390203,-0.006422991066674864,0.1061656907627379
8587,11.0,300.71526,-6581.1311,0.0,0.0,0.08587123099917049,0.0,0.0,0.0,0.48633747278777156,0.5148384046480945,0.9993236359880641,0.015246489765211384,0.016464000952870383,0.1075840281202169
8588,11.0,300.47262,-6644.1495,0.0,0.0,0.08588123541954462,0.0,0.0,0.0,0.4981760640411495,0.5200854594959385,1.0013940200498952,-0.007621923401825273,-0.02770714666573247,0.1092780910949079
8589,11.0,300.55025,-6769.571999999999,0.0,0.0,0.08589120693064123,0.0,0.0,0.0,0.5299883174932746,0.5151694334557645,1.012623100838119,-0.0050121583460615154,-0.01239008909730659,0.0927358226513131
8590,11.0,299.98582999999996,-6892.3271,0.0,0.0,0.08590121135101536,0.0,0.0,0.0,0.5258195431368485,0.5320212822289125,1.037254501494049,-0.0016652637723987384,-0.01117956832208749,0.1069024857054539
8591,11.0,299.46282,-6922.8582,0.0,0.0,0.08591121577138949,0.0,0.0,0.0,0.5157297708935655,0.5563462355245985,1.032300012480079,0.019659912345032282,0.02775461945941768,0.10711690969161589
8592,11.0,299.74275,-6724.8678,0.0,0.0,0.08592122019176363,0.0,0.0,0.0,0.4943330090618695,0.5308702503803145,1.018988641941349,-0.0018411335922557382,-0.00977664827415506,0.1105213185701049
8593,11.0,299.62295,-6653.5607,0.0,0.0,0.08593122461213776,0.0,0.0,0.0,0.4997826227372046,0.5151978551210695,1.007535825398544,-0.009872418748431871,0.002231468840203828,0.10271256481944091
8594,11.0,299.73702000000003,-6769.4918,0.0,0.0,0.08594122903251211,0.0,0.0,0.0,0.5298636775984734,0.5369372170765775,0.990955558049699,-0.01043721772907319,0.004116550635671916,0.1021548415668979
8595,11.0,300.23697999999996,-6681.4035,0.0,0.0,0.08595123345288624,0.0,0.0,0.0,0.5275791127305045,0.5116448125854115,0.991755914171188,-0.0019737241566164083,0.020970073095335082,0.1024309015566429
8596,11.0,300.57394,-6537.799,0.0,0.0,0.08596123787326038,0.0,0.0,0.0,0.4823489049616305,0.5223691428363205,0.9826095892285159,-0.008748985603407651,-0.01783966528238788,0.11798327734154287
8597,11.0,300.54641000000004,-6649.8321,0.0,0.0,0.08597120938435698,0.0,0.0,0.0,0.4958569676097725,0.5085914948665725,1.0169344800136189,-0.02110788726793628,-0.01052013198475619,0.1131927625912559
8598,11.0,300.86234,-6813.5119,0.0,0.0,0.08598121380473112,0.0,0.0,0.0,0.5061192760800834,0.5234087273064195,1.0416094504238491,0.016944950245336383,-0.012067112588181288,0.1102726973930679
8599,11.0,300.08851,-6850.4612,0.0,0.0,0.08599121822510547,0.0,0.0,0.0,0.5112545694418975,0.5480594405092555,1.023055118567679,0.015603775935972787,0.010699560338964388,0.1097298486519929
8600,11.0,299.89851,-6666.0389,0.0,0.0,0.08600122264547938,0.0,0.0,0.0,0.49796481152780053,0.5182450832068075,1.010099479874057,0.022290603447161276,-0.01827925167927168,0.09884863587485081
8601,11.0,299.51931,-6644.7131,0.0,0.0,0.08601122706585351,0.0,0.0,0.0,0.5100800200584785,0.5183154432937516,0.991431380296659,-0.009592261681907521,-0.020099389310905283,0.0947646026640381
8602,11.0,299.92994,-6735.7093,0.0,0.0,0.08602123148622765,0.0,0.0,0.0,0.49337225544955055,0.5343555166167835,1.0197596239424391,0.0057874852649053244,-0.004908717264552675,0.1017658143235039
8603,11.0,299.6407,-6864.3541,0.0,0.0,0.086031235906602,0.0,0.0,0.0,0.5203275249448285,0.5446386473766495,1.0216260306266391,-0.004534992428143906,0.03158880748707257,0.1021241502213689
8604,11.0,299.65466000000004,-6909.2479,0.0,0.0,0.0860412074176986,0.0,0.0,0.0,0.5067696407892694,0.5699072708879684,1.023561946267699,0.01011643136003904,0.0019671931517718485,0.12417482313760088
8605,11.0,299.41467,-6760.7969,0.0,0.0,0.08605121183807274,0.0,0.0,0.0,0.5271495960131145,0.5233036330060475,1.004660231747245,-0.02130528966566838,0.005565980788369535,0.1022518399989709
8606,11.0,300.00937999999996,-6709.1844,0.0,0.0,0.08606121625844687,0.0,0.0,0.0,0.5139980150151545,0.5356993598269105,0.989727144290964,0.01036133846883449,-0.003012826218342797,0.1115318531598369
8607,11.0,300.11953,-6831.6837,0.0,0.0,0.086071220678821,0.0,0.0,0.0,0.5377944773236825,0.5322782019242686,1.006588578410058,0.0014610412895685486,0.008311667670847733,0.09444566496981141
8608,11.0,300.1153,-6862.1027,0.0,0.0,0.08608122509919514,0.0,0.0,0.0,0.5002589921392185,0.5429042570479784,1.042744594510879,0.004234152191303285,-0.023139691832209774,0.1081793328189689
8609,11.0,299.98302,-6692.8657,0.0,0.0,0.08609122951956927,0.0,0.0,0.0,0.4849375664496115,0.5229684701379695,1.026558025488389,-0.01043515475186959,-0.02310735598176848,0.1037690199037049
8610,11.0,300.18067,-6673.2551,0.0,0.0,0.0861012339399434,0.0,0.0,0.0,0.47684441366087954,0.5237890203339515,1.027869475092819,0.010927139351174689,-0.010492925206321089,0.1162346103189629
8611,11.0,300.87073,-6758.3595,0.0,0.0,0.08611123836031753,0.0,0.0,0.0,0.5287462248581896,0.5226160414881875,1.0030102552844051,0.0005781060955296295,0.017438348328530983,0.10099756911093401
8612,11.0,300.81174,-6790.1919,0.0,0.0,0.08612120987141436,0.0,0.0,0.0,0.5200242591898985,0.5483932861522035,0.995631231033652,0.002726774772011717,-0.005263258236818146,0.1134206425387459
8613,11.0,300.02787,-6834.9381,0.0,0.0,0.0861312142917885,0.0,0.0,0.0,0.5311886743567406,0.5428840325759825,1.003577817195419,-0.006745820654535665,-0.0055087097648923245,0.1019210847688279
8614,11.0,299.51972,-6821.9776,0.0,0.0,0.08614121871216263,0.0,0.0,0.0,0.5035584688373516,0.5465788895956365,1.023573497318839,-0.0030479718113113974,0.001970262286324748,0.1044071952141879
8615,11.0,299.39923,-6749.0693,0.0,0.0,0.08615122313253676,0.0,0.0,0.0,0.4970241607974656,0.5389875387864285,1.015536802825679,0.013603814782591987,0.016873886962822982,0.10993334980207689
8616,11.0,299.1597,-6710.7813,0.0,0.0,0.08616122755291089,0.0,0.0,0.0,0.4744861449806365,0.5383027742363474,1.027120987243949,-0.010678437114129689,-0.007003695540760933,0.1151226088642169
8617,11.0,299.49363,-6818.1159,0.0,0.0,0.08617123197328502,0.0,0.0,0.0,0.5179889133165255,0.5442877689995205,1.010260302929929,-0.007506365875620633,-0.007108228601902543,0.10518542195349291
8618,11.0,299.98514,-6764.3661,0.0,0.0,0.08618123639365916,0.0,0.0,0.0,0.5257808167180266,0.5305501748062255,0.999867416919231,-0.008247365603601613,-0.005632332457917935,0.11225739089394189
8619,11.0,300.04103,-6633.9829,0.0,0.0,0.08619124081403329,0.0,0.0,0.0,0.5031862412806155,0.5241633554508955,0.989215544182973,0.004627473487296076,0.008754207995748062,0.1097552305669979
8620,11.0,300.10095,-6657.5992,0.0,0.0,0.08620121232513012,0.0,0.0,0.0,0.47775272144802255,0.5347961182902674,1.0111950768096842,-0.006340339141442754,-0.00960374920226625,0.12053824826369888
8621,11.0,300.14351,-6753.6457,0.0,0.0,0.08621121674550425,0.0,0.0,0.0,0.49287433421790955,0.5311637484042805,1.028901571644679,0.0033873920523345667,-0.011393918340992189,0.09112864789919732
8622,11.0,300.35446,-6837.1761,0.0,0.0,0.08622122116587838,0.0,0.0,0.0,0.4908223001153896,0.5672452095627435,1.020263310567149,0.014894291123202088,0.004665492758873286,0.11967228419823488
8623,11.0,300.36135,-6854.3113,0.0,0.0,0.08623122558625229,0.0,0.0,0.0,0.5458837392320305,0.5295052302430975,1.00815052370421,0.014733794333862288,0.02076616360546078,0.08780259061119101
8624,11.0,299.71997999999996,-6807.831999999999,0.0,0.0,0.08624123000662642,0.0,0.0,0.0,0.5366001898283156,0.5298199254591556,1.002990811014986,0.0004843812516147075,0.001048110969690499,0.1039351523901009
8625,11.0,299.5068,-6674.0496,0.0,0.0,0.08625123442700078,0.0,0.0,0.0,0.5015198400336545,0.5349184986373454,0.992306088710486,-0.01830037693060658,-0.013399914411968587,0.09431881821629261
8626,11.0,299.58133,-6731.8596,0.0,0.0,0.08626123884737491,0.0,0.0,0.0,0.48401489077605053,0.5271492515080806,1.035153122111659,-0.001063722620606249,-0.009582119859006602,0.1113127682232149
8627,11.0,299.68359,-6780.6484,0.0,0.0,0.08627121035847152,0.0,0.0,0.0,0.4996169360808525,0.5297182154141175,1.031812639181979,0.002410686235741208,0.015694397985166485,0.10758396732521089
8628,11.0,299.85677000000004,-6545.0506,0.0,0.0,0.08628121477884565,0.0,0.0,0.0,0.4640446938926456,0.5206970775213006,1.0047901810725701,0.0005364366917921795,-0.005844329406115405,0.11653845362644989
8629,11.0,299.52897,-6470.1392,0.0,0.0,0.08629121919922,0.0,0.0,0.0,0.4933352515558985,0.5051795068773355,0.9682459989909401,-0.013293941623759886,-0.005958777626110564,0.1126432973270279
8630,11.0,300.06646,-6719.4648,0.0,0.0,0.08630122361959414,0.0,0.0,0.0,0.5151205745359425,0.5409578340033815,0.986471085359616,-0.000997233706331804,0.007655089914698553,0.1090272914301559
8631,11.0,300.46031,-6884.9335,0.0,0.0,0.08631122803996805,0.0,0.0,0.0,0.5456608343425315,0.5390735231899145,1.008113499545556,0.003137874452934097,0.012330149274390988,0.1115546715520889
8632,11.0,300.76793,-6754.6237,0.0,0.0,0.08632123246034218,0.0,0.0,0.0,0.49529475565928655,0.5332392291141145,1.024702967205309,0.00840280039809183,-0.0030947553922785775,0.09848009654847881
8633,11.0,300.21564,-6719.2182,0.0,0.0,0.08633123688071653,0.0,0.0,0.0,0.49017895722939653,0.5400525355690354,1.0122430712556132,-0.0036028402316976467,-0.027614281280817374,0.1065415862848359
8634,11.0,300.32974,-6749.9771,0.0,0.0,0.08634124130109067,0.0,0.0,0.0,0.48618670117289153,0.5277697152068155,1.037868125754609,0.008873540993150311,-0.007307926112436153,0.09548412878529981
8635,11.0,299.98456,-6817.6852,0.0,0.0,0.08635121281218727,0.0,0.0,0.0,0.5244981738139395,0.5414440623288685,1.006463806792744,0.007846909304379653,0.009064769556698101,0.10899013554898888
8636,11.0,299.8387,-6823.852,0.0,0.0,0.0863612172325614,0.0,0.0,0.0,0.5364267416761975,0.5182627441560504,1.019591120450809,0.011207716409865488,0.003674855361354986,0.09839754604958172
8637,11.0,299.98492999999996,-6697.079000000001,0.0,0.0,0.08637122165293554,0.0,0.0,0.0,0.5048753697273195,0.5208594609823265,1.010009969360223,-0.02004954348548588,-0.02063530843454638,0.0996135089910879
8638,11.0,300.55994,-6536.5357,0.0,0.0,0.08638122607330967,0.0,0.0,0.0,0.45521812028403064,0.5390106611537105,0.9927148641983291,-0.003672974769169387,0.014812230024103284,0.11657965237551589
8639,11.0,299.67792000000003,-6730.8965,0.0,0.0,0.0863912304936838,0.0,0.0,0.0,0.4987778130105375,0.5309259487383114,1.016320754428049,0.0024363939106533576,0.015628623868175085,0.10586282017534689
8640,11.0,300.15952999999996,-6982.7914,0.0,0.0,0.08640123491405816,0.0,0.0,0.0,0.5210661234727225,0.5585972314167545,1.042930829879259,0.003703435093675587,0.014240769126704486,0.11184156318540288
8641,11.0,299.81989,-6822.7501,0.0,0.0,0.08641123933443229,0.0,0.0,0.0,0.5458408990178025,0.5341948860784305,0.9939098913662691,-0.003262147956498937,-0.00999153643018787,0.09688426918423292
8642,11.0,300.1273,-6662.5307,0.0,0.0,0.08642124375480642,0.0,0.0,0.0,0.5030732841594675,0.5228871061549396,0.999282579094012,-0.0034068679351566865,0.0028951918334081876,0.09519033185255432
8643,11.0,300.19955,-6785.3514,0.0,0.0,0.08643121526590303,0.0,0.0,0.0,0.5146942495563676,0.5492089322177015,0.9986742237339721,0.00910106772165545,0.012124213284316688,0.10039461234742682
8644,11.0,300.04135,-6944.8557,0.0,0.0,0.08644121968627716,0.0,0.0,0.0,0.5186255180893535,0.5337444862764795,1.058692745784839,-0.00010664668058520791,-0.012731001146451988,0.1026992405806259
8645,11.0,299.52997999999997,-6903.1989,0.0,0.0,0.08645122410665129,0.0,0.0,0.0,0.5118185241825556,0.5472810313849324,1.039300557420979,0.011543435552248387,-0.02254709453772498,0.10981954155084489
8646,11.0,300.37371,-6707.1163,0.0,0.0,0.08646122852702542,0.0,0.0,0.0,0.49221262110760355,0.5371616925037315,1.009421575027153,0.0039013398608072664,-0.005414453491564955,0.11802609729076889
8647,11.0,300.02957000000004,-6630.1083,0.0,0.0,0.08647123294739978,0.0,0.0,0.0,0.5052673049985005,0.5174462266954665,0.992673847834281,0.018253457371475983,0.0017798612441336282,0.11746514177040689
8648,11.0,300.21999,-6639.5343,0.0,0.0,0.08648123736777391,0.0,0.0,0.0,0.5054578162823026,0.5296254827649656,0.983169328848758,-0.013860843908958788,-0.001959470767459708,0.1174026951667439
8649,11.0,300.38694,-6775.8549,0.0,0.0,0.08649124178814804,0.0,0.0,0.0,0.5048617719109775,0.5370194727196955,1.017809421474969,-0.015188741602262088,-0.014839227059767684,0.11156693187829889
8650,11.0,300.70134,-6697.9605,0.0,0.0,0.08650124620852218,0.0,0.0,0.0,0.49171842863633053,0.5295587805108826,1.014735524646599,-0.008709534609439143,0.010792991117435289,0.0971686175597959
8651,11.0,300.60374,-6535.1689,0.0,0.0,0.08651121771961878,0.0,0.0,0.0,0.4738371684240876,0.5300303572399235,0.9826606266360531,0.01311132558473709,0.007144744311656364,0.11868676675347188
8652,11.0,300.40559,-6662.526,0.0,0.0,0.08652122213999291,0.0,0.0,0.0,0.5113732210286076,0.5087070155104736,1.0051613143191982,0.00015463078053586985,0.003911829532467517,0.09450408897057741
8653,11.0,299.7361,-7039.1769,0.0,0.0,0.08653122656036705,0.0,0.0,0.0,0.5689950519554394,0.5436870434127334,1.027051883587129,-0.004370772451311656,-0.019158199531517085,0.09051423229030922
8654,11.0,299.91303999999997,-7041.0965,0.0,0.0,0.08654123098074118,0.0,0.0,0.0,0.5478134943124825,0.5522726661475685,1.0402313289628389,0.0005778656715459015,0.009858084096617151,0.0999443695992413
8655,11.0,299.80845,-6867.773,0.0,0.0,0.08655123540111531,0.0,0.0,0.0,0.5178001650878975,0.5331249750328385,1.036706333189949,0.015330976585049588,0.0075651237422945826,0.09327018339630042
8656,11.0,299.77211,-6797.4293,0.0,0.0,0.08656123982148967,0.0,0.0,0.0,0.4911449088147285,0.5411115643085536,1.033992342797099,0.006024545359626334,-0.003984567210771166,0.1135366900726989
8657,11.0,299.66547,-6752.2246,0.0,0.0,0.0865712442418638,0.0,0.0,0.0,0.5115848180469905,0.5245654941505835,1.0163573327566588,0.009966992979640621,-0.01943473169580868,0.0979081959005366
8658,11.0,300.10676,-6787.0769,0.0,0.0,0.08658121575296018,0.0,0.0,0.0,0.49876497513177054,0.5454474742689744,1.0188894447565588,0.003195517440523017,0.002425929164945568,0.11640967967124088
8659,11.0,300.40157999999997,-6747.6713,0.0,0.0,0.08659122017333454,0.0,0.0,0.0,0.5195411516747195,0.5338688931237575,0.9977135309166589,0.02333192462793168,0.0019251524931977583,0.1004418804645918
8660,11.0,300.58171,-6626.7948,0.0,0.0,0.08660122459370867,0.0,0.0,0.0,0.4842605026002905,0.5288342053643724,1.001285430036678,-0.018629180641056984,-0.003215094344380107,0.1070356166360929
8661,11.0,300.13117,-6696.0646,0.0,0.0,0.0866112290140828,0.0,0.0,0.0,0.49938069682003755,0.5363507276536955,0.999705023325704,-0.017729344638000084,-0.007566382705543833,0.10355978375805491
8662,11.0,300.68876,-6985.2728,0.0,0.0,0.08662123343445693,0.0,0.0,0.0,0.5198649965391805,0.5513838330273475,1.052099628709149,-0.02250326741789958,0.02160651372164688,0.1047573541837459
8663,11.0,300.2091,-7126.3498,0.0,0.0,0.08663123785483107,0.0,0.0,0.0,0.5449584392407105,0.5726012799888465,1.048672715545939,0.019563298947997285,0.02218955100143818,0.11458081390324588
8664,11.0,299.69899,-6918.5561,0.0,0.0,0.0866412422752052,0.0,0.0,0.0,0.5297518958474415,0.5471641225883945,1.0261522188233392,-0.0064090702262009835,-0.00042339031344287056,0.1032197370244949
8665,11.0,299.55112,-6722.0963,0.0,0.0,0.08665124669557955,0.0,0.0,0.0,0.5244287965795925,0.5243284341571874,0.9945921937186071,-0.012193948195948988,-0.025129817366869877,0.10301446268673589
8666,11.0,299.77836,-6679.1894,0.0,0.0,0.08666121820667616,0.0,0.0,0.0,0.5021893349047285,0.5294075630659585,0.998709890137492,-0.009792462169790772,-0.004420203249490095,0.09247033389986141
8667,11.0,299.64131000000003,-6723.0586,0.0,0.0,0.08667122262705029,0.0,0.0,0.0,0.4944657245599675,0.5318188652564355,1.017357309280349,0.005854303130824734,0.0019655639469360582,0.11785748234162789
8668,11.0,300.2801,-6768.0211,0.0,0.0,0.08668122704742443,0.0,0.0,0.0,0.4939601127600675,0.5374926402513935,1.025856653769169,-0.0013234204450864287,-0.0012008123193859488,0.10801525723027589
8669,11.0,300.25653,-6788.0645,0.0,0.0,0.08669123146779856,0.0,0.0,0.0,0.5094003521564004,0.5529315117600915,1.001070256245442,0.0009174701214372511,-0.016908646507503483,0.1098017691440909
8670,11.0,300.80176,-6727.031,0.0,0.0,0.08670123588817269,0.0,0.0,0.0,0.5128291702297986,0.5328114247893935,0.9992088651492371,-0.003510281152287777,0.02529546146671768,0.1101950621704059
8671,11.0,301.2813,-6815.321999999999,0.0,0.0,0.08671124030854682,0.0,0.0,0.0,0.5358734868565955,0.5447188359895635,0.991095386563499,0.01082507568185179,0.02664377007003537,0.10937009420398788
8672,11.0,300.94704,-7045.217,0.0,0.0,0.08672124472892095,0.0,0.0,0.0,0.5335617466209445,0.5586537201098295,1.049354531538229,-0.012108059037972388,0.005990621138328275,0.0999054790339031
8673,11.0,300.76857,-6929.1172,0.0,0.0,0.08673124914929509,0.0,0.0,0.0,0.5320281824620935,0.5333754707225604,1.040874945426359,-0.004428631261171876,-0.016588112944369283,0.08839643420329882
8674,11.0,300.29994,-6783.1728,0.0,0.0,0.08674122066039192,0.0,0.0,0.0,0.49669936347791055,0.5359576170123984,1.029258134354869,-0.0056732135530775845,0.002147366143478538,0.10226088832236391
8675,11.0,299.6319,-6777.2718,0.0,0.0,0.08675122508076605,0.0,0.0,0.0,0.5075088573997245,0.5323404661429135,1.020272024518009,0.017773351103093183,0.013800788575531787,0.09942381742661681
8676,11.0,299.80604,-6758.6738,0.0,0.0,0.08676122950114018,0.0,0.0,0.0,0.5160715806822994,0.5397118504879125,0.9986846298124991,-0.0024437163651510278,-0.01126912544542609,0.11670066483495888
8677,11.0,299.88775,-6721.204000000001,0.0,0.0,0.08677123392151431,0.0,0.0,0.0,0.5088527411398555,0.5339282290496135,1.000297207214148,0.0005487977958571255,-0.021595990106108277,0.1024957900930469
8678,11.0,300.02529,-6754.0917,0.0,0.0,0.08678123834188844,0.0,0.0,0.0,0.5081429290473025,0.5338097902454244,1.011122507837522,-0.0030390730436331568,0.005375278101623645,0.1164958464597449
8679,11.0,300.35963,-6629.6096,0.0,0.0,0.08679124276226258,0.0,0.0,0.0,0.47664145966584953,0.5393954631441875,0.9991988542382492,-0.0027483633826173473,0.018473620406204382,0.11479246158413388
8680,11.0,300.25082000000003,-6594.5627,0.0,0.0,0.08680124718263671,0.0,0.0,0.0,0.4704413012439415,0.5216731920051355,1.012467891187801,-0.003923631565657286,0.0010182492733433791,0.11481923165177589
8681,11.0,299.91393,-6820.7307,0.0,0.0,0.08681121869373332,0.0,0.0,0.0,0.5106087440931595,0.5411280904176845,1.021595025173579,-0.009700762123815682,-0.012585593677601387,0.10101419451857481
8682,11.0,300.36206,-6892.2769,0.0,0.0,0.08682122311410767,0.0,0.0,0.0,0.5469118841085004,0.5402884708548205,1.007879732614985,-0.0006497279726906584,0.011624319254730989,0.1054628903608769
8683,11.0,300.02324,-6802.0949,0.0,0.0,0.0868312275344818,0.0,0.0,0.0,0.5331333343461635,0.5331321995060515,1.001401477570631,-0.002379692637707378,0.008584768362350673,0.1093318946752179
8684,11.0,300.04161,-6722.3291,0.0,0.0,0.08684123195485594,0.0,0.0,0.0,0.5052529269795816,0.5290611835192734,1.009106069211015,-0.008210888903976643,-0.006232067086107134,0.1032657588440369
8685,11.0,299.14625,-6850.4278,0.0,0.0,0.08685123637522985,0.0,0.0,0.0,0.5145832074779085,0.5286170456029405,1.039158702406979,-0.008432431884016232,-0.027124255293955575,0.08653386368397742
8686,11.0,299.89943,-6863.3759,0.0,0.0,0.08686124079560398,0.0,0.0,0.0,0.5050852847505366,0.5294225287699355,1.051787041053299,0.015168212141985986,0.002356205905689418,0.09770979646470611
8687,11.0,299.76433,-6771.9786,0.0,0.0,0.08687124521597833,0.0,0.0,0.0,0.5132622738525424,0.5373665716739515,1.0078835424353612,0.008143178871344182,0.012217257001249386,0.1040714345285509
8688,11.0,299.59199,-6611.5525,0.0,0.0,0.08688124963635246,0.0,0.0,0.0,0.4930645617916835,0.5294140073365945,0.9872683105382961,-0.002198902576689788,-0.004341793498451655,0.1211872552177509
8689,11.0,299.41202999999996,-6564.7072,0.0,0.0,0.08689122114744907,0.0,0.0,0.0,0.49933829230335247,0.5165002462696056,0.9796685092232541,-0.013274560175847088,-0.015731560959084186,0.1054548248900809
8690,11.0,300.27054,-6673.2455,0.0,0.0,0.0869012255678232,0.0,0.0,0.0,0.4945117362470085,0.5358392390032155,0.998149046074641,0.00020644446937198279,0.009676183817464991,0.1278411065044349
8691,11.0,300.43282,-6847.2538,0.0,0.0,0.08691122998819756,0.0,0.0,0.0,0.5110692156011045,0.5319511247919885,1.038373838879519,0.006077486157476184,0.009522277814725652,0.09525737861167131
8692,11.0,300.80845,-6795.9338,0.0,0.0,0.08692123440857147,0.0,0.0,0.0,0.4976947803761505,0.5440316700367455,1.024067760717619,-0.013002011097698588,0.007163503725332774,0.11624843105032688
8693,11.0,300.35317000000003,-6740.963000000001,0.0,0.0,0.0869312388289456,0.0,0.0,0.0,0.5172664457302235,0.5198068055859375,1.012011168705226,5.625974009565405e-05,-0.004213710275835826,0.0911939549078926
8694,11.0,300.05972,-6863.8586,0.0,0.0,0.08694124324931973,0.0,0.0,0.0,0.5317453235641775,0.5355181501790265,1.019178119710049,0.002280816754524088,0.01152577561625549,0.11735363359690189
8695,11.0,299.93531,-6912.7857,0.0,0.0,0.08695124766969409,0.0,0.0,0.0,0.5349635376042905,0.5480706977178664,1.018279974821409,0.023270917852660777,0.015592269467837183,0.11182182507345488
8696,11.0,299.8561,-6780.0587,0.0,0.0,0.08696125209006822,0.0,0.0,0.0,0.4991384388536285,0.5421628619498085,1.019667215533319,-0.012294687547391188,-0.007277012662485233,0.11937677993907088
8697,11.0,299.32175,-6599.2903,0.0,0.0,0.08697122360116483,0.0,0.0,0.0,0.47752704025324955,0.5198032592105875,1.0086891674573701,-0.01016102601681519,-0.020946335685242377,0.1040907065454529
8698,11.0,299.84289,-6543.147,0.0,0.0,0.08698122802153896,0.0,0.0,0.0,0.4709738452314995,0.5229017678838865,0.995077692504022,-0.01200154517421029,-0.006197751547620454,0.1150297546250529
8699,11.0,299.92659,-6701.9719,0.0,0.0,0.08699123244191309,0.0,0.0,0.0,0.5083686305070775,0.5254214067750556,1.0034420822120231,0.014584681409395988,0.008681318329929412,0.11760157589637188
8700,11.0,300.34077,-6833.396,0.0,0.0,0.08700123686228722,0.0,0.0,0.0,0.5147366135430486,0.5530665577334194,1.009378592957911,-0.005227647359403625,-0.005086440116192555,0.12232198387223987
8701,11.0,299.84212,-6871.7408,0.0,0.0,0.08701124128266136,0.0,0.0,0.0,0.5387910898570405,0.5397791809570575,1.010267345018124,0.006664031309113683,-0.011150309712199888,0.1077722393262919
8702,11.0,300.06214,-6794.5273,0.0,0.0,0.08702124570303571,0.0,0.0,0.0,0.5052428046110825,0.5314776431527595,1.028646131294469,-0.003707946691070846,0.004042032879592586,0.09950068156595271
8703,11.0,299.48764,-6807.2361,0.0,0.0,0.08703125012340984,0.0,0.0,0.0,0.5133346908371895,0.5302929004733344,1.025602226669059,-0.00043492011672827363,0.016759087752993184,0.099060072799718
8704,11.0,300.04933,-6895.3611,0.0,0.0,0.08704122163450645,0.0,0.0,0.0,0.5155757670108665,0.5386914772397094,1.041750393512759,0.0016211875956987584,0.0005382874234973325,0.07780500284875592
8705,11.0,299.66452000000004,-6887.2122,0.0,0.0,0.08705122605488058,0.0,0.0,0.0,0.5263767698968425,0.5380101273424656,1.029153668269559,0.0008378898334857882,-0.001994126960630008,0.08865037089036042
8706,11.0,300.32777999999996,-6806.7705,0.0,0.0,0.08706123047525471,0.0,0.0,0.0,0.5145079533929815,0.5378218553413845,1.0167584784712491,0.016179309085523483,0.009202530938969092,0.1210352575702499
8707,11.0,299.96125,-6776.9408,0.0,0.0,0.08707123489562885,0.0,0.0,0.0,0.5189305367669566,0.5412961582117715,0.999794098141995,8.197719793751953e-05,0.0057697955393594845,0.12615828047335287
8708,11.0,300.01572999999996,-6671.0436,0.0,0.0,0.08708123931600298,0.0,0.0,0.0,0.49531874942165455,0.5343271557464845,0.9981847834056681,-0.0003615056380203286,-0.013499916117337987,0.13040431514990386
8709,11.0,300.41513,-6652.3593,0.0,0.0,0.08709124373637733,0.0,0.0,0.0,0.4883633143752065,0.5338917520460135,0.9998960412345561,-0.009448917392910542,-0.028417993286637577,0.10916422204866989
8710,11.0,300.73107000000005,-6692.4558,0.0,0.0,0.08710124815675147,0.0,0.0,0.0,0.4919630170779696,0.5277911150489275,1.014585259656769,0.012658533499299988,0.006662942065256183,0.1099276046740099
8711,11.0,300.20595,-6715.3989,0.0,0.0,0.0871112525771256,0.0,0.0,0.0,0.5047581974857556,0.5439502249937075,0.9926051596100021,0.0053152266185470245,0.014541043767339286,0.11528604610534689
8712,11.0,299.92,-6743.1235,0.0,0.0,0.08712122408822198,0.0,0.0,0.0,0.4983823921590126,0.5407011068255445,1.010657689486648,0.01157190484030809,-0.0056583496807356345,0.11186836365054788
8713,11.0,299.99145,-6872.022,0.0,0.0,0.08713122850859634,0.0,0.0,0.0,0.5255150209517945,0.5483164412646194,1.015091580731739,-0.011281758647672889,-0.017688788289497482,0.1036785062722719
8714,11.0,299.77932999999996,-6933.7057,0.0,0.0,0.08714123292897047,0.0,0.0,0.0,0.5197251376278775,0.5535682077254285,1.034380113610369,0.013403165931539488,0.001990369525284178,0.1123929333598189
8715,11.0,299.43284,-6839.0518,0.0,0.0,0.0871512373493446,0.0,0.0,0.0,0.5136626697620585,0.5389714078448364,1.0262669187346591,-0.001732398582949428,0.012848150083263687,0.11320388807735389
8716,11.0,299.93154,-6772.6304,0.0,0.0,0.08716124176971873,0.0,0.0,0.0,0.5014316467449506,0.5482088341039995,1.0090700380374589,-0.0003912339805217877,-0.0027398262438997974,0.11307480001461388
8717,11.0,300.12917000000004,-6682.5487,0.0,0.0,0.08717124619009287,0.0,0.0,0.0,0.5013394409858506,0.5204472404441435,1.0095412499964642,-0.012061918668168687,-0.02062865442113968,0.1082161239300999
8718,11.0,300.05373,-6734.8312,0.0,0.0,0.08718125061046722,0.0,0.0,0.0,0.5053753377241625,0.5386616775542685,1.003183490654002,0.016958699035943284,0.003919235174798397,0.11838893201907788
8719,11.0,300.43504,-6792.4225,0.0,0.0,0.08719125503084135,0.0,0.0,0.0,0.5099664144572665,0.5426800450658505,1.012080363554555,0.003688893130890406,0.017001156241633484,0.1126976480623919
8720,11.0,301.09926,-6744.2742,0.0,0.0,0.08720122654193774,0.0,0.0,0.0,0.5140594686337195,0.5223977874166474,1.013633716487859,-0.0027321447948916978,-0.0015299439175687085,0.11031240666448688
8721,11.0,300.08931,-6739.8002,0.0,0.0,0.08721123096231209,0.0,0.0,0.0,0.5009305540404965,0.5307137944323735,1.0170865688536292,-0.02122014018026478,-0.010413786320510689,0.08000579219845692
8722,11.0,300.31883,-6804.4309,0.0,0.0,0.08722123538268622,0.0,0.0,0.0,0.5203791399049225,0.5243187170887286,1.023679179304269,0.02335364668357548,-0.0018748518198084684,0.09654464801571491
8723,11.0,300.13876,-7050.4327,0.0,0.0,0.08723123980306036,0.0,0.0,0.0,0.5475290446119094,0.5504885556364905,1.045137891247079,0.02076019049612128,0.015346925141623587,0.09457514718684032
8724,11.0,299.7067,-6989.7094,0.0,0.0,0.08724124422343449,0.0,0.0,0.0,0.5435103629927965,0.5440584603693895,1.037128250531589,0.01172612555852849,-0.018658792875229483,0.1016707511991219
8725,11.0,299.75952,-6761.0173,0.0,0.0,0.08725124864380862,0.0,0.0,0.0,0.5064995792401166,0.5369212989175064,1.0117595584403942,-0.01054090665155649,-0.013701899418772185,0.10854887526293988
8726,11.0,300.26204,-6714.7062,0.0,0.0,0.08726125306418275,0.0,0.0,0.0,0.49221595470043256,0.5343063841194345,1.014580700031319,0.0009824933289120422,0.010118414087834721,0.1139815068665989
8727,11.0,299.94337,-6733.2712,0.0,0.0,0.08727122457527936,0.0,0.0,0.0,0.5075878098475165,0.5462957773851954,0.992862717652921,0.0099019421205706,0.029256293597871373,0.11985653359641889
8728,11.0,299.83889,-6582.1629,0.0,0.0,0.08728122899565371,0.0,0.0,0.0,0.4842571284774575,0.5223922348060994,0.9941638219738299,-0.017426258228337783,-0.005215772980156715,0.12198905015438188
8729,11.0,300.44824,-6479.4973,0.0,0.0,0.08729123341602785,0.0,0.0,0.0,0.4722799448754016,0.5197089864212835,0.9776164447232312,-0.02040041679636438,-0.017669482835342185,0.12405771169104288
8730,11.0,300.70916,-6580.9397,0.0,0.0,0.08730123783640198,0.0,0.0,0.0,0.4892985036875025,0.5215113860966665,0.9896314630840211,-0.005203814906451545,-0.0039061488471068763,0.1186173287241189
8731,11.0,300.47069,-6738.4108,0.0,0.0,0.08731124225677611,0.0,0.0,0.0,0.5013288018598004,0.5421892165849095,1.004790606637612,0.016000402555116786,0.014773578585788686,0.1173557107596069
8732,11.0,300.72161,-6856.535,0.0,0.0,0.08732124667715024,0.0,0.0,0.0,0.5186389436531785,0.5386680508973976,1.0269084073729688,-0.003022879381859967,-0.01107105936887849,0.11449115140189688
8733,11.0,300.0759,-6880.937,0.0,0.0,0.08733125109752438,0.0,0.0,0.0,0.5263047278147325,0.5234583258988146,1.041869957024559,-0.008886179160322602,-0.016088826864843586,0.09012059070595982
8734,11.0,299.54191000000003,-6884.3636,0.0,0.0,0.08734125551789851,0.0,0.0,0.0,0.5219411561265815,0.5464153712944985,1.0243181348173291,0.005655654942094684,0.016423659413388983,0.10811803118791889
8735,11.0,299.94121,-6809.2389,0.0,0.0,0.08735122702899534,0.0,0.0,0.0,0.5231369229670945,0.5360218469362376,1.010679829001333,0.022512674431827976,0.02023931307021468,0.1066136384994469
8736,11.0,299.84308,-6811.3669,0.0,0.0,0.08736123144936947,0.0,0.0,0.0,0.5272420348197375,0.5312865644489014,1.011956858499866,0.011400847958426089,-0.008102102624215273,0.1072715012593729
8737,11.0,299.624,-6710.7206,0.0,0.0,0.0873712358697436,0.0,0.0,0.0,0.4972831272580235,0.5358894455456705,1.0067189330354231,-0.011882489300710387,-0.013691681804763788,0.1094556125124279
8738,11.0,300.11361,-6546.7755,0.0,0.0,0.08738124029011773,0.0,0.0,0.0,0.4761626787285976,0.5024462849975875,1.0114473051570771,-0.0025918298197186874,0.003910221403233807,0.1024338298494319
8739,11.0,300.26409,-6636.6225,0.0,0.0,0.08739124471049164,0.0,0.0,0.0,0.48331642708461753,0.5334522852126414,1.000598801106413,-0.004362279490298465,0.02748129625819277,0.11941844478318288
8740,11.0,300.25947,-6754.8451,0.0,0.0,0.087401249130866,0.0,0.0,0.0,0.5028973535446045,0.5282156769733285,1.0221912215324191,-0.00033700813836511366,-0.01046547930086239,0.1012860941034092
8741,11.0,300.28418999999997,-6818.0995,0.0,0.0,0.08741125355124013,0.0,0.0,0.0,0.5346950567252935,0.5314575098732724,1.006379443589418,-0.016519083254806586,-0.011783583931949188,0.10955547844228389
8742,11.0,299.70919,-6938.8640000000005,0.0,0.0,0.08742125797161426,0.0,0.0,0.0,0.5414284076148235,0.5420196795781774,1.025793325637919,0.01071900866138379,0.004112781345299916,0.09767324549384881
8743,11.0,299.80307,-6880.672,0.0,0.0,0.08743122948271087,0.0,0.0,0.0,0.5279565179952515,0.5373499645048125,1.026246045782599,0.012952804633092289,0.02363193278379018,0.11970400905886588
8744,11.0,299.71089,-6765.4696,0.0,0.0,0.08744123390308522,0.0,0.0,0.0,0.49738389498046853,0.5324200873357715,1.026729872705349,0.015531262692566286,0.0008042046277538172,0.09869969722940171
8745,11.0,299.13936,-6795.1629,0.0,0.0,0.08745123832345936,0.0,0.0,0.0,0.49375857731517747,0.5405503453431655,1.031250893326539,-0.008015946576162333,-0.004680892032568076,0.10949720642903289
8746,11.0,299.71307,-6804.7919999999995,0.0,0.0,0.08746124274383349,0.0,0.0,0.0,0.5109596326027895,0.5336758487147054,1.023851330496259,0.010147679486497991,0.005718262348548555,0.1029235234902609
8747,11.0,300.43172999999996,-6688.6003,0.0,0.0,0.0874712471642074,0.0,0.0,0.0,0.5077859914345755,0.5431583092455514,0.98222317617038,-0.01401267943644379,0.003012242991585237,0.12868600510031988
8748,11.0,300.47331,-6655.9555,0.0,0.0,0.08748125158458153,0.0,0.0,0.0,0.5043577306487326,0.5279101314056734,0.9909764208692581,-0.003988839883792846,-0.004177473007209486,0.12247166117701189
8749,11.0,300.34592999999995,-6689.0996,0.0,0.0,0.08749125600495589,0.0,0.0,0.0,0.49639377738025153,0.5343632173175434,1.002562256885191,-0.021804007311887977,-0.016317768698438383,0.11349824736390489
8750,11.0,300.44391,-6757.0727,0.0,0.0,0.0875012275160525,0.0,0.0,0.0,0.5015918922482655,0.5326918106150885,1.019697714361329,0.0035780087141469665,0.007653506914067323,0.1137112224024239
8751,11.0,299.85389,-6882.4268,0.0,0.0,0.08751123193642663,0.0,0.0,0.0,0.5098123193820585,0.5294969013272756,1.052776682425969,-0.0012843698875574388,0.02104236545021978,0.09781479450631861
8752,11.0,299.91405,-6913.2279,0.0,0.0,0.08752123635680076,0.0,0.0,0.0,0.5178653069368265,0.5539638312269735,1.029619560665539,-0.007986253889931893,0.007155243406542543,0.09845287457129222
8753,11.0,300.05154,-6862.8516,0.0,0.0,0.08753124077717511,0.0,0.0,0.0,0.5372016652201765,0.5351110262888464,1.013822788956519,0.00025550072978345874,-0.004264707356018846,0.09486892892083432
8754,11.0,299.7563,-6890.9825,0.0,0.0,0.08754124519754902,0.0,0.0,0.0,0.5433247862369814,0.5364397720724835,1.014922063990009,0.004387719363209186,0.00983560169809831,0.10557948504988389
8755,11.0,300.27557,-6921.6348,0.0,0.0,0.08755124961792315,0.0,0.0,0.0,0.5294649738166245,0.5545745677247484,1.0199646044376691,0.018389702019672282,0.010146696633900991,0.12240112883755089
8756,11.0,300.30561,-6774.8833,0.0,0.0,0.08756125403829729,0.0,0.0,0.0,0.5061397842621075,0.5229579526019315,1.030297627632459,-0.0024498370037050877,-0.008245043437022431,0.10382172917390689
8757,11.0,300.41461,-6620.6228,0.0,0.0,0.08757125845867164,0.0,0.0,0.0,0.47578823215414257,0.5223445816538965,1.014371261235649,-0.01125358928164279,-0.015745395875949586,0.1158561107441079
8758,11.0,300.85573,-6622.8431,0.0,0.0,0.08758122996976825,0.0,0.0,0.0,0.4901426828758165,0.5219300306404835,1.001106216491491,0.0033397799367606167,-0.0061968595835574245,0.1085325518038289
8759,11.0,300.21201,-6727.9438,0.0,0.0,0.08759123439014238,0.0,0.0,0.0,0.5088521027922925,0.5269604424844465,1.0093143630340722,0.0012403172182597789,0.016129595995867184,0.1102472141530529
8760,11.0,299.89089,-6729.9116,0.0,0.0,0.08760123881051651,0.0,0.0,0.0,0.5076313390718126,0.5471797773024395,0.9909139438680922,-0.013335039047815885,0.008761537644321441,0.11350449911702189
8761,11.0,299.92242000000005,-6795.3961,0.0,0.0,0.08761124323089065,0.0,0.0,0.0,0.5110524767094525,0.5464840797837796,1.0080941869986502,-0.003342130474342597,-0.007802531483124903,0.1061176424429959
8762,11.0,299.53013,-6939.8399,0.0,0.0,0.08762124765126478,0.0,0.0,0.0,0.5308078645716575,0.5486163430292175,1.0301138240643188,-0.01086819150010699,0.006798658911475394,0.1031638968114839
8763,11.0,299.88516,-6899.5509,0.0,0.0,0.08763125207163891,0.0,0.0,0.0,0.5172577419118645,0.5537764508859805,1.026256988883679,0.007165212875601452,-0.005741791738395724,0.11410618729140388
8764,11.0,300.21763,-6821.1083,0.0,0.0,0.08764125649201326,0.0,0.0,0.0,0.5239481411296556,0.5299646581034395,1.019533770495149,0.002125469099542468,-0.0067012546727373435,0.1034686216465579
8765,11.0,299.50645,-6835.3895,0.0,0.0,0.0876512609123874,0.0,0.0,0.0,0.5245760623491265,0.5432434323864525,1.009968243721105,-0.001017411822135729,-0.015004901557118486,0.1086140981718769
8766,11.0,301.28052,-6637.7169,0.0,0.0,0.087661232423484,0.0,0.0,0.0,0.5037031812166336,0.5145285527675145,0.999468469957358,0.0039683864172742455,-0.006977828582933062,0.1172906297056839
8767,11.0,300.94869,-6640.3036,0.0,0.0,0.08767123684385814,0.0,0.0,0.0,0.4916034754124855,0.5217312107058615,1.0051518100332602,0.015476369868398785,-0.006930149998152554,0.11069521255226689
8768,11.0,300.2091,-6759.9122,0.0,0.0,0.08768124126423227,0.0,0.0,0.0,0.5015026654444595,0.5377956020312935,1.015546226051609,0.002178217886498368,0.007006761939538563,0.11344421073607189
8769,11.0,300.57942,-6779.9891,0.0,0.0,0.0876912456846064,0.0,0.0,0.0,0.49292153140756756,0.5244479368739815,1.043577891393119,-0.0019330037629226183,-0.0067260996665143525,0.09361520822760172
8770,11.0,300.42969,-6825.8338,0.0,0.0,0.08770125010498053,0.0,0.0,0.0,0.5103324105258875,0.5406158620946315,1.0239347209794891,-0.013189248570427489,0.006798913034600474,0.10425624121428989
8771,11.0,300.06951000000004,-6933.3581,0.0,0.0,0.08771125452535489,0.0,0.0,0.0,0.5316640507736565,0.5523561984858124,1.023547456791269,-0.011403924185729688,0.003427752438267827,0.10672014121745789
8772,11.0,300.36879,-6973.5725,0.0,0.0,0.08772125894572902,0.0,0.0,0.0,0.5279076084129245,0.5505310513456845,1.041353300798569,-0.007325157139661723,0.006228757507305504,0.09841432445798759
8773,11.0,299.77186,-6963.9704,0.0,0.0,0.08773126336610315,0.0,0.0,0.0,0.5251483966681115,0.5606190301362904,1.031105694587209,0.011129650555910989,-0.01024878867422669,0.10674261510467589
8774,11.0,300.06298,-6909.5373,0.0,0.0,0.08774123487719954,0.0,0.0,0.0,0.5135177243352536,0.5478159970402295,1.038993036015629,0.005385616900344005,-0.0031242081408853375,0.10421711962792889
8775,11.0,300.48548,-6760.2469,0.0,0.0,0.08775123929757389,0.0,0.0,0.0,0.5131066386371825,0.5304001935264234,1.011439411938798,0.00012503382617487787,-0.007510907667868872,0.1114149950258039
8776,11.0,300.05321000000004,-6664.232,0.0,0.0,0.08776124371794802,0.0,0.0,0.0,0.5041600759517255,0.5322998550789054,0.9893001809638261,0.005720740758293155,-0.0016286303229832984,0.1143966354325689
8777,11.0,300.24755,-6654.0981,0.0,0.0,0.08777124813832216,0.0,0.0,0.0,0.5021036240787695,0.5166018245921306,1.003974220899541,0.0005118310175562886,-0.008771563044785873,0.1066777367007729
8778,11.0,300.47267,-6742.9359,0.0,0.0,0.08778125255869629,0.0,0.0,0.0,0.4995555331247925,0.5314011225052075,1.0187275273905791,0.0006832926827207373,0.0006050296705617795,0.1152518590469729
8779,11.0,300.1779,-6838.6401,0.0,0.0,0.08779125697907042,0.0,0.0,0.0,0.5056621584299695,0.5482747764205075,1.024838844043719,-0.005808991903577864,-0.003483484841468187,0.1083725798780409
8780,11.0,300.67269,-6780.0634,0.0,0.0,0.08780126139944477,0.0,0.0,0.0,0.5045241063151525,0.5306123275673594,1.025833551666889,-0.014723069081553788,0.004309024280942587,0.11599220036503888
8781,11.0,300.99203,-6861.7555,0.0,0.0,0.08781123291054116,0.0,0.0,0.0,0.5186898594707035,0.5483686641747735,1.0187438407171892,-0.0050382570341872554,-0.007726848590755583,0.1064136431947089
8782,11.0,300.3869,-6958.8658,0.0,0.0,0.08782123733091529,0.0,0.0,0.0,0.5389088396511615,0.5454485483140804,1.0309640422232291,-0.0030408525134587774,0.0014618516869985287,0.098137660571183
8783,11.0,300.33169,-6954.1316,0.0,0.0,0.08783124175128965,0.0,0.0,0.0,0.5362651384177485,0.5427037652506915,1.034913488463009,0.0042752693737362355,-0.0007834976156626943,0.0966290132455411
8784,11.0,300.09685,-6797.4225,0.0,0.0,0.08784124617166378,0.0,0.0,0.0,0.5141088544435936,0.5343308845068525,1.017806989674729,0.002643196736188207,0.007232289525596404,0.10307114389732991
8785,11.0,299.95215,-6716.0255,0.0,0.0,0.08785125059203791,0.0,0.0,0.0,0.5008041409580205,0.5171230607085725,1.023576841044169,0.001355315835709259,-0.0066065032240861035,0.1004492437530685
8786,11.0,299.98646,-6778.5663,0.0,0.0,0.08786125501241204,0.0,0.0,0.0,0.4963485560282886,0.5535672451378335,1.0105991033658661,0.01104925726647679,-0.0011141077990538789,0.1152214514114719
8787,11.0,300.42645,-6787.6372,0.0,0.0,0.08787125943278618,0.0,0.0,0.0,0.5194860106042776,0.5369776052255635,1.006808605669273,0.00963974106171837,-0.00944877969222195,0.12444348640161587
8788,11.0,299.80683,-6742.8369999999995,0.0,0.0,0.08788126385316031,0.0,0.0,0.0,0.5189733161861785,0.5332549344906645,0.997425838815766,0.0036319513123706866,-0.005573549563966515,0.12210627305845088
8789,11.0,299.70571,-6701.1637,0.0,0.0,0.08789123536425691,0.0,0.0,0.0,0.49551671822619253,0.5370725366274325,1.004397181888784,0.0014694400183224386,-0.01168257404273029,0.1174090381123699
8790,11.0,300.25363,-6766.1234,0.0,0.0,0.08790123978463127,0.0,0.0,0.0,0.49918027595025755,0.5409249033751315,1.016627363908309,0.018312557210058682,-0.0023112445537020777,0.10691361119155189
8791,11.0,300.85317000000003,-6909.8771,0.0,0.0,0.0879112442050054,0.0,0.0,0.0,0.5092086553699815,0.5488760795598515,1.0423453739714792,0.008526552888455252,-0.0008728093298270742,0.09045055661427491
8792,11.0,300.67214,-6991.8728,0.0,0.0,0.08792124862537953,0.0,0.0,0.0,0.5256267824378246,0.5504048510457296,1.049323120785129,-0.008457639317354012,0.014785281624443685,0.1032015795827029
8793,11.0,300.73616,-6841.3763,0.0,0.0,0.08793125304575367,0.0,0.0,0.0,0.5224392293457375,0.5326720522381385,1.0244962641849091,-0.014007400403422786,0.009010439187661111,0.08317806750553612
8794,11.0,300.08538,-6766.8617,0.0,0.0,0.0879412574661278,0.0,0.0,0.0,0.5215587960688456,0.5363560877467245,0.99904211458028,-0.016692632731934585,0.011292143447947791,0.10606236965004091
8795,11.0,299.94617999999997,-6850.5858,0.0,0.0,0.08795126188650193,0.0,0.0,0.0,0.5241729306643406,0.5399199517934504,1.018314121349779,0.0025954257429985773,-0.003735249424290416,0.0965188162176655
8796,11.0,300.47196,-6813.0442,0.0,0.0,0.08796126630687606,0.0,0.0,0.0,0.5178724604825325,0.5381348077672705,1.014988026571519,0.01096703202086179,-0.009354690807811102,0.11798927578213489
8797,11.0,299.9722,-6740.3584,0.0,0.0,0.08797123781797289,0.0,0.0,0.0,0.4933137402562755,0.5358991119516245,1.019687784510349,0.0037457697974286963,-0.008009192960270804,0.1032461727196039
8798,11.0,300.22602,-6683.9886,0.0,0.0,0.08798124223834702,0.0,0.0,0.0,0.4873031710605785,0.5322957412834995,1.012166722860578,0.001352941081449889,-0.0072432407326772025,0.11972183212812489
8799,11.0,299.6793,-6724.7226,0.0,0.0,0.08799124665872116,0.0,0.0,0.0,0.5031893215609196,0.5345132593923515,1.006445173123405,0.0037872766758501064,-0.003142398310655567,0.11402867365875388
8800,11.0,300.11327,-6881.5356,0.0,0.0,0.08800125107909529,0.0,0.0,0.0,0.5352168298642884,0.5388201802674115,1.017778010721869,-0.0005649949128131564,0.006161253772393405,0.1103486404880629
8801,11.0,300.05213,-6947.1111,0.0,0.0,0.0880112554994692,0.0,0.0,0.0,0.5259018291774695,0.5401808535616995,1.0456655918991589,0.00014799493470346286,-0.010307199502741391,0.1023580184769499
8802,11.0,300.05146,-6865.8901,0.0,0.0,0.08802125991984355,0.0,0.0,0.0,0.5203883300833295,0.5430738548497165,1.023597004721159,-0.00975131225937959,0.0007352728890782843,0.08999012867608422
8803,11.0,299.65839,-6823.217,0.0,0.0,0.08803126434021769,0.0,0.0,0.0,0.4948177783072125,0.5305071116769755,1.048762692154819,-0.008130147259158062,0.01062365169447279,0.0951625161108091
8804,11.0,300.08089,-6845.7268,0.0,0.0,0.08804123585131429,0.0,0.0,0.0,0.5247014013864965,0.5403546664838536,1.015873911133949,0.002380592302471168,0.017451287532307982,0.10740908035795091
8805,11.0,299.74466,-6825.5438,0.0,0.0,0.08805124027168842,0.0,0.0,0.0,0.5260649219135655,0.5283293838995505,1.020400605955699,-0.01021145446104209,0.014742665338487787,0.0996966623737945
8806,11.0,300.11826,-6719.7832,0.0,0.0,0.08806124469206278,0.0,0.0,0.0,0.5250217606706135,0.5289330681766294,0.9886914709662511,-0.008947965023595392,0.0009173942594022641,0.12500025719906488
8807,11.0,300.27331000000004,-6647.6709,0.0,0.0,0.08807124911243691,0.0,0.0,0.0,0.4933403988664065,0.5292990338477475,0.998086528543471,-0.005021468493280355,-0.010116061929052579,0.11666201947614488
8808,11.0,300.25755,-6631.0535,0.0,0.0,0.08808125353281104,0.0,0.0,0.0,0.49163729770082354,0.5163330498706045,1.007704349155176,0.013018344689310589,-0.0015573946866278886,0.11820627342355089
8809,11.0,300.37926,-6725.0728,0.0,0.0,0.08809125795318495,0.0,0.0,0.0,0.4822222385666295,0.5358681368960675,1.0261638711994892,0.013207191203198288,-0.008794640930388481,0.1064025481061139
8810,11.0,300.13292,-6787.0167,0.0,0.0,0.08810126237355909,0.0,0.0,0.0,0.5091473132089275,0.5402126594823385,1.013723591771729,0.002117715709777268,-0.008794031967078382,0.11669797972219388
8811,11.0,300.02787,-6859.8593,0.0,0.0,0.08811126679393344,0.0,0.0,0.0,0.5266595781322535,0.5413272852548435,1.0172390629936792,-0.006565434981632984,-0.002020096155392968,0.10151199517345391
8812,11.0,299.8673,-6914.2818,0.0,0.0,0.08812123830503005,0.0,0.0,0.0,0.5341825244272105,0.5575091021343644,1.010077401154378,-0.006679497457315074,0.005901810172363314,0.1117584260146979
8813,11.0,299.95493999999997,-6929.1095,0.0,0.0,0.08813124272540418,0.0,0.0,0.0,0.5367463511552405,0.5359329545049645,1.0335969726080791,-0.00903780210793662,-0.0007745862938157152,0.09129363642623042
8814,11.0,299.94745,-6931.9011,0.0,0.0,0.08814124714577831,0.0,0.0,0.0,0.5160552977531925,0.5571002658515155,1.033969240694819,-0.005701115015781245,-0.003762266218331766,0.09941955164369581
8815,11.0,299.68649,-6807.356,0.0,0.0,0.08815125156615267,0.0,0.0,0.0,0.48905674221364254,0.5450347977682465,1.035174704338789,-0.011453093160082289,0.006419786865883634,0.1015881915809739
8816,11.0,299.90837999999997,-6665.0601,0.0,0.0,0.08816125598652658,0.0,0.0,0.0,0.5077740452158965,0.5127456074940515,1.005492191139353,-0.0051034400210703155,0.004048766230482116,0.1190030831696899
8817,11.0,300.7652,-6633.2901,0.0,0.0,0.08817126040690071,0.0,0.0,0.0,0.49746446862842053,0.5279198788716355,0.9909701995136441,-0.007949983285377262,-0.0012548520882942587,0.11470659877065989
8818,11.0,300.28103,-6696.9176,0.0,0.0,0.08818126482727484,0.0,0.0,0.0,0.5224326026900835,0.5192015102411995,0.994061605303742,-0.003457033137007606,-0.0024289924226478877,0.1205268897300779
8819,11.0,300.9188,-6734.0184,0.0,0.0,0.0881912692476492,0.0,0.0,0.0,0.5041905646472346,0.5338718619465505,1.008911008434264,0.004672517520491576,0.0024269545740467674,0.11949770120600489
8820,11.0,300.61839,-6821.1548,0.0,0.0,0.0882012407587458,0.0,0.0,0.0,0.4998691137657405,0.5519893816846105,1.021602219249289,-0.003558832449379417,0.014711074226869987,0.1167372938260739
8821,11.0,299.91053,-6880.3573,0.0,0.0,0.08821124517911993,0.0,0.0,0.0,0.5045134063940966,0.5380167134681155,1.0489267373460092,-0.0035384439321922267,0.002922380272016477,0.10514143676665189
8822,11.0,300.10436,-6848.7571,0.0,0.0,0.08822124959949407,0.0,0.0,0.0,0.5212968303879916,0.5449131976237455,1.015641167585979,0.003582430740233387,-0.010681147558147188,0.09274110675058461
8823,11.0,300.56944,-6842.0847,0.0,0.0,0.0882312540198682,0.0,0.0,0.0,0.5224181841411605,0.5398674958357735,1.017537262498109,-0.004648418785413215,0.000985831420571486,0.10012263170258441
8824,11.0,299.81602999999996,-6871.3017,0.0,0.0,0.08824125844024233,0.0,0.0,0.0,0.5369861165264035,0.5304422231405715,1.021275750067069,0.01039219294762959,-0.006226179900376114,0.09498797871483361
8825,11.0,299.96962,-6780.1033,0.0,0.0,0.08825126286061646,0.0,0.0,0.0,0.5052242216042485,0.5443398196571575,1.01141805262669,0.005708795248889224,-0.00920273764198949,0.11653634606624189
8826,11.0,299.66065,-6705.0688,0.0,0.0,0.08826126728099082,0.0,0.0,0.0,0.5015771595918115,0.5190531602940585,1.0175431393486891,0.006986120717776433,-0.012893507210740089,0.1070137405664339
8827,11.0,300.00831,-6672.1834,0.0,0.0,0.0882712387920872,0.0,0.0,0.0,0.4846139141026695,0.5374756176497135,1.0060875971631151,0.010570697217746589,0.00039707659338090865,0.13211806557403788
8828,11.0,301.13683,-6598.5652,0.0,0.0,0.08828124321246156,0.0,0.0,0.0,0.4876924212189946,0.5185454105364475,0.9995612127390111,0.006392724171612754,0.013734605105499988,0.11998536834663388
8829,11.0,300.34475,-6729.2031,0.0,0.0,0.08829124763283569,0.0,0.0,0.0,0.5041940198300755,0.5324354178097845,1.0088802664262302,-0.014776054969033088,0.015390964030719885,0.12122652879162689
8830,11.0,300.0145,-6856.8504,0.0,0.0,0.08830125205320982,0.0,0.0,0.0,0.5333344340935104,0.5428281923629715,1.008148669456527,-0.015994553062289484,-0.004253615205849136,0.09956446160674731
8831,11.0,300.15637999999996,-6817.4351,0.0,0.0,0.08831125647358395,0.0,0.0,0.0,0.5184794580874386,0.5341428759507976,1.019707644212309,-0.015723726509310983,0.0035791073812303964,0.1061796128191119
8832,11.0,299.91202999999996,-6877.4504,0.0,0.0,0.08832126089395809,0.0,0.0,0.0,0.5196728539227176,0.5381567547644365,1.032743613373859,0.012338582554973289,0.0019755022078918882,0.09235314240654552
8833,11.0,299.46609,-6910.2837,0.0,0.0,0.08833126531433244,0.0,0.0,0.0,0.5126732411719095,0.5487364435635705,1.039144010280529,0.003463644897885137,0.003832172470555976,0.1061039939641489
8834,11.0,299.84002000000004,-6940.3066,0.0,0.0,0.08834126973470657,0.0,0.0,0.0,0.5305423525154535,0.5388204437124375,1.040317049921299,0.01170180350312809,-0.012876741974585488,0.09494244021558931
8835,11.0,299.94223,-6790.4148,0.0,0.0,0.08835124124580296,0.0,0.0,0.0,0.5141235769675465,0.5364551430765004,1.013537863028399,-0.0025399881955773173,-0.008623870089009712,0.1111645297335849
8836,11.0,300.55913,-6591.3088,0.0,0.0,0.08836124566617709,0.0,0.0,0.0,0.4976699760137025,0.5178947925147365,0.9880285318233241,0.0032965515464193065,0.005103279218279445,0.10873533354634189
8837,11.0,300.1871,-6571.7078,0.0,0.0,0.08837125008655144,0.0,0.0,0.0,0.4835572361033835,0.5199582662108855,0.994119583474464,-0.008191157783454332,0.00990690461426036,0.1261629920863179
8838,11.0,299.95651000000004,-6701.5767,0.0,0.0,0.08838125450692558,0.0,0.0,0.0,0.49240209887630354,0.5386297601761185,1.0060801193773772,-0.008697963597272172,0.0046972663568340955,0.11415660661637989
8839,11.0,299.40327,-6795.1696,0.0,0.0,0.08839125892729971,0.0,0.0,0.0,0.5031672833712445,0.5459065981542865,1.016488042019559,-0.012404397201968688,0.004176230053311816,0.13006676101158987
8840,11.0,299.85312999999996,-6763.9558,0.0,0.0,0.08840126334767384,0.0,0.0,0.0,0.5098411058173995,0.5357689903737826,1.010463560899989,0.015599954969845684,0.002445519950329028,0.1118956504757409
8841,11.0,299.36208999999997,-6850.3717,0.0,0.0,0.08841126776804797,0.0,0.0,0.0,0.5209800174792245,0.5564700141568144,1.0048919012501092,0.0034212250811236264,-0.003916492813402746,0.11045300524836289
8842,11.0,299.91728,-6932.8444,0.0,0.0,0.08842127218842233,0.0,0.0,0.0,0.5424841128940134,0.5297900852437105,1.035137416735109,0.008324604442824492,-0.01975798887521168,0.07751754278213582
8843,11.0,300.6431,-6962.3859999999995,0.0,0.0,0.08843124369951871,0.0,0.0,0.0,0.5241315292652545,0.5596397847096465,1.032620199511679,-0.004189832530604276,-0.009827081784632461,0.0992793583598598
8844,11.0,300.50018,-6839.9051,0.0,0.0,0.08844124811989285,0.0,0.0,0.0,0.5147277982671785,0.5371825654557915,1.027249973981679,0.004490138987292215,0.00026553042642831273,0.0958918282015366
8845,11.0,300.03065,-6701.9096,0.0,0.0,0.0884512525402672,0.0,0.0,0.0,0.46871387194345754,0.5380758062139475,1.0304234732948792,0.0032393332119472966,0.007476855878383223,0.11516590504098988
8846,11.0,300.19273,-6673.8299,0.0,0.0,0.08846125696064133,0.0,0.0,0.0,0.5078589555742765,0.5320895854181535,0.9887291030749651,-0.0017368328693620585,0.004119828803720446,0.1116152132455639
8847,11.0,299.80598,-6687.3162,0.0,0.0,0.08847126138101546,0.0,0.0,0.0,0.49840608194635055,0.5223969464190645,1.011974114149069,-0.0005550468233313566,0.0018872176253538783,0.11632484024036789
8848,11.0,299.85629,-6667.8371,0.0,0.0,0.0884812658013896,0.0,0.0,0.0,0.5141088240460905,0.5262948080962535,0.9864523604977682,0.00010490907825371989,-0.0022162995742817377,0.11093128969306588
8849,11.0,299.51091,-6657.491,0.0,0.0,0.08849127022176373,0.0,0.0,0.0,0.4857258142324056,0.5316525807825244,1.0063326516998001,-0.0024402961394384775,-0.003164006274338107,0.11732987288205689
8850,11.0,299.08887999999996,-6803.7174,0.0,0.0,0.08850124173286034,0.0,0.0,0.0,0.5160540514555695,0.5377712840288935,1.014334885557059,0.009770675266140571,-0.008678261861002762,0.10614320674301889
8851,11.0,299.59668,-6932.6932,0.0,0.0,0.08851124615323447,0.0,0.0,0.0,0.5239545144727845,0.5488507888373555,1.034560370803159,-0.001059762940540459,0.0007915036593403292,0.1130489520045629
8852,11.0,300.21276,-7022.6362,0.0,0.0,0.08852125057360882,0.0,0.0,0.0,0.5482605301241015,0.5484565534884475,1.0379890064915391,-0.00048496150954947456,0.0035208354693044065,0.1000939040357492
8853,11.0,300.18589,-6913.826999999999,0.0,0.0,0.08853125499398296,0.0,0.0,0.0,0.5247074808870965,0.5470900134760805,1.0298332551116292,-0.011676450972375988,-0.0012654932408444589,0.0938881058637846
8854,11.0,300.29283,-6735.0942,0.0,0.0,0.08854125941435709,0.0,0.0,0.0,0.5083146749392525,0.5215979784502125,1.017387808108359,-0.01185614885111079,0.0009557993056900472,0.08526094088809973
8855,11.0,300.66078,-6714.8405,0.0,0.0,0.08855126383473122,0.0,0.0,0.0,0.4863078250898455,0.5312800492507584,1.023555968092109,-0.0056046590778117845,-0.007140390274651654,0.1091382321836049
8856,11.0,299.99326,-6769.0802,0.0,0.0,0.08856126825510535,0.0,0.0,0.0,0.5017665664330045,0.5300710898939435,1.025793730937959,0.007595841736301212,0.0025304337537593678,0.12482029384880389
8857,11.0,300.03646000000003,-6823.7033,0.0,0.0,0.08857127267547948,0.0,0.0,0.0,0.5004945119924625,0.5595603661668085,1.0141805675668292,0.0024248408330131577,-0.0021627958146763276,0.13876982956551587
8858,11.0,299.97781000000003,-6749.5803,0.0,0.0,0.08858124418657609,0.0,0.0,0.0,0.5170961589184175,0.5309834405489855,1.0036242747125041,0.00954289178006009,0.0005926066467832224,0.1178761160109669
8859,11.0,299.67339,-6675.9658,0.0,0.0,0.08859124860695045,0.0,0.0,0.0,0.5104291353804334,0.5239226376246384,0.9949751313289001,-0.0043293775370262955,0.007674619803751004,0.12245963389832488
8860,11.0,299.75833,-6831.2515,0.0,0.0,0.08860125302732458,0.0,0.0,0.0,0.5269190917478656,0.5367201181101515,1.012890649527024,0.0034678165498718467,0.013076188097769288,0.09307173228471481
8861,11.0,300.21904,-6922.3823,0.0,0.0,0.08861125744769871,0.0,0.0,0.0,0.5088826928128115,0.5490124528908105,1.046336262140349,-0.01020321268472869,-0.0024384823204344677,0.1017078564177839
8862,11.0,300.17034,-6901.2673,0.0,0.0,0.08862126186807284,0.0,0.0,0.0,0.5145194436491155,0.5484426618295765,1.034850869606829,-0.00999865370154029,-0.02053257500690738,0.09029383114180732
8863,11.0,300.31486,-6856.2259,0.0,0.0,0.08863126628844675,0.0,0.0,0.0,0.5070007428720775,0.5446040550182355,1.0325166453514592,0.008638386213917342,-0.014639224662278986,0.1153644615305859
8864,11.0,300.36474,-6872.6998,0.0,0.0,0.08864127070882111,0.0,0.0,0.0,0.5320871738829155,0.5458776799964324,1.011164263874143,0.0033881416547585468,0.005904323944536404,0.1028593442289269
8865,11.0,300.59247999999997,-6849.3103,0.0,0.0,0.08865127512919524,0.0,0.0,0.0,0.5240023804075085,0.5435586646250635,1.014458299419239,0.011726523765817789,0.006231301474331574,0.10517359732482591
8866,11.0,300.43293,-6816.9063,0.0,0.0,0.08866124664029185,0.0,0.0,0.0,0.5104125282112946,0.5367864961242025,1.024970262581689,-0.015699751998694885,0.005771794175181735,0.09406016282351531
8867,11.0,299.60738,-6728.5055,0.0,0.0,0.08867125106066598,0.0,0.0,0.0,0.49802947714918255,0.5299835552178045,1.0172846592481792,-0.0009504022188998961,0.008790351538740152,0.1112858157705549
8868,11.0,299.52436,-6757.0074,0.0,0.0,0.08868125548104033,0.0,0.0,0.0,0.5013030957047635,0.5340041822771094,1.018654269408349,0.005199721983997606,0.007529600004388663,0.1168310397253259
8869,11.0,299.37122999999997,-6786.4886,0.0,0.0,0.08869125990141447,0.0,0.0,0.0,0.5111485834814375,0.5450369458584585,1.006737536307259,-0.0008771517549856383,0.0027913558883353776,0.11955348062400989
8870,11.0,299.96956,-6822.2458,0.0,0.0,0.08870126432178838,0.0,0.0,0.0,0.5241110210832305,0.5422642072248105,1.0074171535468321,-0.012333699702741388,-0.01008377471461608,0.1017828875876889
8871,11.0,300.05826,-6859.8486,0.0,0.0,0.08871126874216251,0.0,0.0,0.0,0.5281569388650315,0.5377141063257505,1.0193515881271689,-0.0027645088136857778,-0.004416488978598526,0.10170867715036491
8872,11.0,300.25182,-6846.7831,0.0,0.0,0.08872127316253664,0.0,0.0,0.0,0.5084176110169115,0.5469350064757825,1.025898500998299,-0.006591182477274062,0.013024634945931387,0.09657594731130391
8873,11.0,300.07657,-6865.4813,0.0,0.0,0.088731277582911,0.0,0.0,0.0,0.5028829147306796,0.5518137955747814,1.032238204223979,0.009335516670868762,-0.0021306627155800377,0.10063757046965491
8874,11.0,300.23696,-6877.9758,0.0,0.0,0.0887412490940076,0.0,0.0,0.0,0.5183698852216245,0.5475364413376395,1.024826583717509,-0.0053931915527915646,-0.01118326263195209,0.1032937448117989
8875,11.0,299.71033,-6878.4904,0.0,0.0,0.08875125351438173,0.0,0.0,0.0,0.5122520736353434,0.5570215768487494,1.021615695475619,0.012232495269503289,-0.02025129272614698,0.12133236276457189
8876,11.0,299.62262000000004,-6774.8817,0.0,0.0,0.08876125793475587,0.0,0.0,0.0,0.5280316504901665,0.5387922753596575,0.9925709522866262,0.015463449916373686,-0.003076687623120427,0.1213951336082669
8877,11.0,299.28996,-6770.8759,0.0,0.0,0.08877126235513022,0.0,0.0,0.0,0.4969248622876655,0.5450674750839715,1.016184877589639,0.0009115426590147562,-0.005106293738651955,0.12027838001055188
8878,11.0,299.37665,-6756.018,0.0,0.0,0.08878126677550413,0.0,0.0,0.0,0.5031470892967514,0.5370856379512254,1.013428026717559,-0.006104966918738324,0.0023451768810009376,0.1018484347366579
8879,11.0,299.08296,-6793.6377,0.0,0.0,0.08879127119587826,0.0,0.0,0.0,0.4917086507728656,0.5445102381914765,1.028877354967289,-0.0030932300455780368,0.013614423511138988,0.10451862232768488
8880,11.0,299.6012,-6885.5516,0.0,0.0,0.0888012756162524,0.0,0.0,0.0,0.5133101499197675,0.5474076775149315,1.0323179470068489,-0.003412840639196147,0.02454479816988298,0.10257333412319991
8881,11.0,300.05682,-6953.8758,0.0,0.0,0.08881124712734922,0.0,0.0,0.0,0.5264184955359604,0.5425822968287035,1.044803822689109,-0.007405777397118322,-0.0023305983398871476,0.09382472504352941
8882,11.0,300.09174,-6928.5729,0.0,0.0,0.08882125154772336,0.0,0.0,0.0,0.5405802564861174,0.5429980738747374,1.0225348146413291,-0.00991613512002134,-0.019555294272207282,0.09060861957687451
8883,11.0,299.88906000000003,-6901.4861,0.0,0.0,0.08883125596809749,0.0,0.0,0.0,0.5147089112853145,0.5387919409871245,1.044378561622139,0.0016242197466230087,-0.014687438141787287,0.08872191749317151
8884,11.0,300.34856,-6833.9516,0.0,0.0,0.08884126038847162,0.0,0.0,0.0,0.5133254398637765,0.5407383741642225,1.023286848865549,-0.0027552938106513276,0.004412692634448856,0.10055202682996241
8885,11.0,300.02879,-6764.7227,0.0,0.0,0.08885126480884575,0.0,0.0,0.0,0.49384202859341353,0.5387975847901816,1.023667121628079,0.002671382111569888,-0.01035209458817219,0.1036337003528499
8886,11.0,300.01156000000003,-6720.9105,0.0,0.0,0.08886126922921989,0.0,0.0,0.0,0.5071537031071736,0.5281857860953785,1.007649491794762,0.0006400436930048943,-0.006166585899719644,0.11469645613715888
8887,11.0,299.88886,-6753.007,0.0,0.0,0.08887127364959402,0.0,0.0,0.0,0.5072040515046424,0.5333301683105895,1.012211295732477,0.012537183627573686,0.0018979289961360084,0.1121471087530579
8888,11.0,299.62382,-6804.5864,0.0,0.0,0.08888127806996837,0.0,0.0,0.0,0.5207837610673555,0.5427109289288985,1.004929675213837,0.014887283485510485,0.008328341917143352,0.11910643467988989
8889,11.0,299.75496,-6770.405,0.0,0.0,0.08889124958106476,0.0,0.0,0.0,0.5009384979212805,0.5271194619551405,1.029976123375729,0.006783853604989223,-0.004979327117646325,0.10686680916943289
8890,11.0,299.7715,-6819.8391,0.0,0.0,0.08890125400143911,0.0,0.0,0.0,0.5149976369013094,0.5456993074488284,1.0123638405350321,-0.015293282668079486,-0.005808935364222285,0.1047483159928539
8891,11.0,300.54893,-6891.6072,0.0,0.0,0.08891125842181324,0.0,0.0,0.0,0.5066500772774696,0.5430871689560305,1.0451392084722089,0.008218401342868062,-0.007267564003977723,0.10114217813870581
8892,11.0,300.47481,-6823.7263,0.0,0.0,0.08892126284218738,0.0,0.0,0.0,0.5210435381279935,0.5416211379163445,1.011577750974951,-0.008566106119358851,0.021814056726379778,0.11935262405668688
8893,11.0,299.81331,-6800.1267,0.0,0.0,0.08893126726256151,0.0,0.0,0.0,0.5141828419658956,0.5431196132242325,1.0097662624461712,0.0015706453634856286,-0.001341914995186699,0.11257703077048789
8894,11.0,300.20672,-6791.8922,0.0,0.0,0.08894127168293564,0.0,0.0,0.0,0.5099604464141775,0.5411620241635334,1.0134431241440491,-0.020395371824116482,-0.00959845983409423,0.0977107843835536
8895,11.0,299.87743,-6831.0075,0.0,0.0,0.08895127610331,0.0,0.0,0.0,0.5043625435867075,0.5449203309044495,1.0271728656490688,0.007458489605745613,0.0003534743340177007,0.10952152443143288
8896,11.0,299.76432,-6856.0172,0.0,0.0,0.08896128052368413,0.0,0.0,0.0,0.5092906475680735,0.5459747290910104,1.028792647258929,0.009612647260669422,0.020519242662091583,0.10557985995242089
8897,11.0,300.65411,-6794.2686,0.0,0.0,0.08897125203478051,0.0,0.0,0.0,0.4960953448282985,0.5373731274020984,1.031819529282659,0.01113954392988739,0.007755330240466503,0.1083171449650699
8898,11.0,300.09163,-6829.5878,0.0,0.0,0.08898125645515464,0.0,0.0,0.0,0.5221041272726655,0.5424977715053615,1.011422257614605,-0.012513290176965588,-0.0032964697771362367,0.10654964162313091
8899,11.0,299.60238,-6918.3391,0.0,0.0,0.088991260875529,0.0,0.0,0.0,0.5391742605148565,0.5346186981977575,1.0292093970250589,0.014483570195167087,0.001028781805482859,0.1033544486252899
8900,11.0,300.08508,-6957.6036,0.0,0.0,0.08900126529590313,0.0,0.0,0.0,0.5354676700590445,0.5407679813321445,1.038702131911919,-0.0017785306441023086,0.01017667870435999,0.1053579075180159
8901,11.0,300.07613,-6911.7291,0.0,0.0,0.08901126971627726,0.0,0.0,0.0,0.5146708232140556,0.5357002312219965,1.0506220060883191,0.005662148659335564,-0.007010884448895423,0.09523808126351681
8902,11.0,299.6784,-6767.783,0.0,0.0,0.0890212741366514,0.0,0.0,0.0,0.5007769250603344,0.5355181400465255,1.020941985484129,-0.025372536362074375,-0.02259646210909718,0.08915962532436991
8903,11.0,299.35087000000004,-6819.1178,0.0,0.0,0.08903127855702553,0.0,0.0,0.0,0.5011239530870836,0.5409335362659835,1.030784089005469,-0.010397360523139589,-0.005500302220862564,0.09519872156338231
8904,11.0,299.24757999999997,-6932.1346,0.0,0.0,0.08904125006812214,0.0,0.0,0.0,0.5360603200425345,0.5541352224813885,1.017000341270119,-0.0018762254829690383,0.012196111484912488,0.1206832139555059
8905,11.0,299.8918,-6860.2778,0.0,0.0,0.08905125448849627,0.0,0.0,0.0,0.5333698066545015,0.5385935668825466,1.0133897258637792,0.01077096204701119,0.010556688021863991,0.11395006571599589
8906,11.0,299.98599,-6817.5395,0.0,0.0,0.0890612589088704,0.0,0.0,0.0,0.5170887419276855,0.5531357221852454,1.002137299793251,-0.002265383435625938,-0.010590738291474491,0.13061457467815488
8907,11.0,300.24629,-6722.3516,0.0,0.0,0.08907126332924475,0.0,0.0,0.0,0.49494842677510653,0.5295133463763985,1.018965235864039,0.0058883859257634445,0.001185353162610249,0.1152892783731659
8908,11.0,300.7805,-6766.9113,0.0,0.0,0.08908126774961889,0.0,0.0,0.0,0.49515771358326155,0.5476782760866375,1.014136085887439,0.01164164177844059,0.028368415972494673,0.12370757298648688
8909,11.0,300.36413,-6864.351,0.0,0.0,0.08909127216999302,0.0,0.0,0.0,0.5006711924123995,0.5484118488940355,1.037508219319089,0.013118964477240987,0.01138197820181379,0.1059980384011919
8910,11.0,300.10875,-6756.0673,0.0,0.0,0.08910127659036715,0.0,0.0,0.0,0.5246854629624235,0.5243208246489365,1.004669492853159,-0.0014413931542294285,-0.007797707095423773,0.1092570256253289
8911,11.0,300.06735,-6754.4656,0.0,0.0,0.08911128101074128,0.0,0.0,0.0,0.5052974897189796,0.5504579250859675,0.9974334584565181,-0.005415522166445426,-0.004824819649647626,0.10938428983788889
8912,11.0,299.44342,-6837.8469,0.0,0.0,0.08912125252183789,0.0,0.0,0.0,0.5197963488449056,0.5435334346975735,1.015204963417929,-0.003463787867474247,0.012405096344537687,0.1166692642143599
8913,11.0,299.8981,-6915.8711,0.0,0.0,0.08913125694221202,0.0,0.0,0.0,0.5059527281611466,0.5552664452905315,1.041033012441959,-0.009529409879529532,0.001257760217406269,0.1056676682060869
8914,11.0,300.08358,-6851.2139,0.0,0.0,0.08914126136258638,0.0,0.0,0.0,0.5137409028022795,0.5441025874112445,1.024754440310389,-0.00979971856038192,-0.021214913836248978,0.1058291093445199
8915,11.0,299.64081,-6758.6714,0.0,0.0,0.08915126578296051,0.0,0.0,0.0,0.4911372790414756,0.5340931051058855,1.029236957427779,-0.01229769588693809,-0.005818004560567344,0.10229891559861691
8916,11.0,299.87793999999997,-6703.5477,0.0,0.0,0.08916127020333464,0.0,0.0,0.0,0.5225609814777535,0.5350894440617164,0.9800606775419581,0.004239587771464735,0.013290646534434685,0.12179743442797089
8917,11.0,300.4591,-6786.9942,0.0,0.0,0.08917127462370877,0.0,0.0,0.0,0.5108568079826414,0.5353870558810885,1.0168328510285891,0.00941033708475296,0.016302609463692285,0.11393137125165088
8918,11.0,299.79176,-6784.4709,0.0,0.0,0.0891812790440829,0.0,0.0,0.0,0.5141452199896825,0.5287601063845595,1.0194043784573792,0.003542969613763877,-0.007681913177970803,0.11989790459800187
8919,11.0,299.38018999999997,-6878.4978,0.0,0.0,0.08919128346445704,0.0,0.0,0.0,0.5165601597480185,0.5430807550828974,1.031250690676519,0.002090872282828028,-0.0020713716767034682,0.091495542720657
8920,11.0,299.39454,-6929.4905,0.0,0.0,0.08920125497555365,0.0,0.0,0.0,0.5137558685062564,0.5413387552459755,1.051297438604979,0.001015795992201259,0.00943511500137335,0.0980833939355773
8921,11.0,299.66075,-6902.7486,0.0,0.0,0.089211259395928,0.0,0.0,0.0,0.5102447745247385,0.5505036429304796,1.037514805444739,-0.006392592449099754,0.0045794942712108965,0.08233779642285782
8922,11.0,299.81559,-6980.274,0.0,0.0,0.08922126381630213,0.0,0.0,0.0,0.5369827728010734,0.5524335803959495,1.032412685891199,-0.016015806996387088,-0.02495483211435018,0.10048124928397721
8923,11.0,299.69246,-6998.9985,0.0,0.0,0.08923126823667626,0.0,0.0,0.0,0.5381433494656135,0.5533948001033145,1.035982568643519,-0.01990718488618618,-0.013402651200488686,0.1042710549307519
8924,11.0,299.43964,-6815.5428,0.0,0.0,0.0892412726570504,0.0,0.0,0.0,0.5122801406631134,0.5501084145964734,1.009366271836695,0.007435628150364363,0.003424586031705327,0.12408584964631988
8925,11.0,299.70693,-6665.2021,0.0,0.0,0.0892512770774243,0.0,0.0,0.0,0.48881579133986247,0.5279015795748295,1.009337637388869,0.0007125640190295933,0.007819184147193393,0.11510671097014788
8926,11.0,300.12742000000003,-6604.8308,0.0,0.0,0.08926128149779866,0.0,0.0,0.0,0.47465699921249854,0.5225329448474865,1.010513706647438,-0.003777476115582866,-0.022972971660755775,0.12205662380355088
8927,11.0,300.63773,-6724.651,0.0,0.0,0.08927125300889527,0.0,0.0,0.0,0.4938310145648265,0.5386489308680105,1.011646044031691,0.005716686238018005,-0.002211578842065838,0.11330331830966689
8928,11.0,300.10117,-6834.3851,0.0,0.0,0.0892812574292694,0.0,0.0,0.0,0.5279484727894576,0.5395355652355145,1.009998377779079,0.02309230009853258,0.013685473621401087,0.12124476729342688
8929,11.0,300.02744,-6780.4331,0.0,0.0,0.08929126184964353,0.0,0.0,0.0,0.5045572497259235,0.5431114464284265,1.013413638566139,0.012427932975291489,0.017271304930295082,0.12645351115498987
8930,11.0,300.25264,-6760.4749,0.0,0.0,0.08930126627001789,0.0,0.0,0.0,0.5057223961484145,0.5320137943106735,1.017279390347659,-0.011824490864986388,-0.01205030479552249,0.10751907878880688
8931,11.0,299.71151000000003,-6907.9064,0.0,0.0,0.08931127069039202,0.0,0.0,0.0,0.5066753781324664,0.5486633274363545,1.044492349608369,-0.013573698963119787,0.006572483959928664,0.10811858847547388
8932,11.0,299.36999,-6995.4276,0.0,0.0,0.08932127511076593,0.0,0.0,0.0,0.5302179807609405,0.5525283091477985,1.043689044929089,0.005114872319298595,0.011794291959005988,0.1027467822753179
8933,11.0,299.46958,-6867.5585,0.0,0.0,0.08933127953114006,0.0,0.0,0.0,0.5311884109117145,0.5342322547421186,1.022145625277919,0.0031858255006664967,0.005933940940984374,0.10495237443049289
8934,11.0,299.79641000000004,-6704.4232,0.0,0.0,0.0893412839515142,0.0,0.0,0.0,0.5089053186875445,0.5395453734964825,0.9895265613011681,-0.013820555058482589,-0.028676300121380473,0.10566902596122091
8935,11.0,299.16687,-6654.2843,0.0,0.0,0.08935125546261102,0.0,0.0,0.0,0.49674295349721254,0.5224963969163795,1.003496929439936,-0.016358461835704483,-0.014204463362371387,0.12323305783215588
8936,11.0,299.73851,-6757.8236,0.0,0.0,0.08936125988298516,0.0,0.0,0.0,0.5079569571239485,0.5394821770877455,1.006770507465513,0.01134887836079709,0.012497340607141489,0.12326399235770888
8937,11.0,300.19669,-6785.3311,0.0,0.0,0.08937126430335929,0.0,0.0,0.0,0.5030638204035335,0.5368245740629605,1.022682850480939,0.008334396897090932,0.02959507883505687,0.11641320578158888
8938,11.0,300.01998,-6728.7205,0.0,0.0,0.08938126872373342,0.0,0.0,0.0,0.5010311089804205,0.5254835696686905,1.018848306802499,0.0036653900855458366,-0.006061288746677624,0.1074539065423749
8939,11.0,299.8233,-6741.0505,0.0,0.0,0.08939127314410777,0.0,0.0,0.0,0.5128058857425005,0.5228013142689725,1.013503817825039,-0.000868410122132906,0.0027315761589355773,0.0959279586736024
8940,11.0,300.3633,-6915.9119,0.0,0.0,0.08940127756448168,0.0,0.0,0.0,0.5364140963149495,0.5430361518134954,1.022814269018909,0.026331121619179373,0.003532557658386297,0.10937163434413989
8941,11.0,299.93969,-7005.5454,0.0,0.0,0.08941128198485582,0.0,0.0,0.0,0.5368201562925244,0.5503236289177135,1.042367057523619,0.007286180650715044,-0.0004426383061849996,0.09723864124770672
8942,11.0,299.95448,-6968.6864,0.0,0.0,0.08942128640522995,0.0,0.0,0.0,0.5213281803460854,0.5605755110444954,1.036402966110009,-0.01101636514173059,-0.021255899802793982,0.11299850228208388
8943,11.0,299.83069,-6825.4788,0.0,0.0,0.08943125791632678,0.0,0.0,0.0,0.48888220988391756,0.5421539149514255,1.043738998159019,-0.019511635351898482,0.010454059972235391,0.10296973782732191
8944,11.0,299.1805,-6656.3121,0.0,0.0,0.08944126233670091,0.0,0.0,0.0,0.4961037750691305,0.5276567580856675,0.999592147264564,-0.010695740386087388,0.023050857156192477,0.12268673364323787
8945,11.0,299.56431000000003,-6698.9378,0.0,0.0,0.08945126675707504,0.0,0.0,0.0,0.5008028034678885,0.5314063103457194,1.004100725174526,-0.008644314638927432,0.016633927047640787,0.1126342084736309
8946,11.0,299.9094,-6742.3869,0.0,0.0,0.08946127117744918,0.0,0.0,0.0,0.5207868514801605,0.5198045460382145,1.00892586268073,-0.01178573607516159,-0.026042223750667372,0.1120247892009859
8947,11.0,299.82761,-6669.6435,0.0,0.0,0.08947127559782331,0.0,0.0,0.0,0.48412726021214053,0.5367875499043064,1.006490293150358,0.004365022763619207,-0.011790693907900888,0.12479618862892487
8948,11.0,300.19841,-6673.0509999999995,0.0,0.0,0.08948128001819744,0.0,0.0,0.0,0.4910452151373896,0.5244583632175105,1.012937299561628,0.01857672164362968,-0.005356861571781074,0.11209740883565289
8949,11.0,300.59762,-6823.1275,0.0,0.0,0.08949128443857157,0.0,0.0,0.0,0.5061974483252986,0.5309942519275525,1.036868655855969,0.017955716869341283,0.010884847305250791,0.1120505054885239
8950,11.0,300.26067,-6922.8169,0.0,0.0,0.08950128885894593,0.0,0.0,0.0,0.5274377947390575,0.5494513421716254,1.027474307553819,0.006447113005180514,-0.013983380296552187,0.09165419640806492
8951,11.0,300.35187,-6950.0302,0.0,0.0,0.08951126037004231,0.0,0.0,0.0,0.5405829010688784,0.5395918411460685,1.032460916595959,0.007911720732451043,0.0017813442369799882,0.09693080877457601
8952,11.0,300.49577,-6924.1906,0.0,0.0,0.08952126479041667,0.0,0.0,0.0,0.5343822461544215,0.5475608707975506,1.022837877746239,0.01160849735441949,0.012927529109347788,0.10059814389501381
8953,11.0,300.04722000000004,-6807.0025,0.0,0.0,0.0895312692107908,0.0,0.0,0.0,0.5178077138011425,0.5349694549848745,1.0163816507590588,-0.006654924115889874,0.0022036947430377376,0.10506177504378988
8954,11.0,299.5649,-6746.5298,0.0,0.0,0.08954127363116493,0.0,0.0,0.0,0.5053161335208195,0.5200296496804305,1.0254307847521391,-0.007229012472122983,-0.027855998171672974,0.1067022674856939
8955,11.0,299.50827000000004,-6790.6558,0.0,0.0,0.08955127805153906,0.0,0.0,0.0,0.49166567883612455,0.5439494751886335,1.028574697162419,-0.012366602973238688,0.00041707801863239563,0.1111778235748969
8956,11.0,299.48400000000004,-6722.9987,0.0,0.0,0.0895612824719132,0.0,0.0,0.0,0.49383171370739554,0.5296391109788104,1.0201528663062491,0.01123266262732749,0.016615520346324183,0.11559479354331788
8957,11.0,299.92456,-6627.5417,0.0,0.0,0.08957128689228755,0.0,0.0,0.0,0.5077023071088165,0.5200938897367705,0.9868109902381621,-0.006844124456712493,0.015815389166357385,0.0985046151743986
8958,11.0,299.71751,-6721.9632,0.0,0.0,0.08958125840338393,0.0,0.0,0.0,0.5071193336637815,0.5366517439934035,0.999537887721709,-0.008066986922124623,-0.008106570550531222,0.11817204583517288
8959,11.0,299.67422,-6912.2119,0.0,0.0,0.08959126282375807,0.0,0.0,0.0,0.5349750582579275,0.5331571659885155,1.033007565024909,0.00941397181551168,-0.001199497120756149,0.1085031979484319
8960,11.0,300.56635,-6941.8714,0.0,0.0,0.0896012672441322,0.0,0.0,0.0,0.5070694614938595,0.5710474102979914,1.032038695279289,0.03088710544831997,-0.008395556977101962,0.12810438941041888
8961,11.0,301.00459,-6858.7378,0.0,0.0,0.08961127166450655,0.0,0.0,0.0,0.5086126008661556,0.5459696324430074,1.0303027952079689,0.014915219804017587,-0.006726091965813594,0.11642968122821488
8962,11.0,300.27335,-6843.7219,0.0,0.0,0.08962127608488069,0.0,0.0,0.0,0.5139350719189425,0.5351255258977775,1.0312600125774392,3.965586199297886e-05,-0.029092432818199572,0.09546843658100111
8963,11.0,300.22668,-6748.3033,0.0,0.0,0.08963128050525482,0.0,0.0,0.0,0.5124601141458754,0.5422227956932235,0.9966327882274981,-0.01021388626128209,-0.005680412289738045,0.11169240263818189
8964,11.0,300.10632000000004,-6739.0266,0.0,0.0,0.08964128492562895,0.0,0.0,0.0,0.5024829342537045,0.5302078077299365,1.0158051114521591,0.006978742433198253,0.004600703217004056,0.1051558857130779
8965,11.0,299.99875,-6793.0651,0.0,0.0,0.08965128934600308,0.0,0.0,0.0,0.5149745246665285,0.5489446056641145,1.0010030372338081,-0.004894739884723215,0.01068567982584449,0.12055417655527088
8966,11.0,300.03117000000003,-6727.6043,0.0,0.0,0.08966126085709969,0.0,0.0,0.0,0.49386698494337655,0.5371014649177875,1.014055329854469,-0.0036576851291354167,0.003001920202216457,0.1004951237175965
8967,11.0,299.60696,-6735.7822,0.0,0.0,0.08967126527747382,0.0,0.0,0.0,0.4916976063467755,0.5337900318684745,1.022022008765719,-0.008365633067198702,0.006631868217814433,0.12853422023533986
8968,11.0,299.58117000000004,-6892.7834,0.0,0.0,0.08968126969784795,0.0,0.0,0.0,0.5119122802143086,0.5554131031100055,1.027908687871689,0.00978727706505404,0.01853466973797948,0.1099925337404179
8969,11.0,300.64082,-6925.0186,0.0,0.0,0.08969127411822231,0.0,0.0,0.0,0.5286544345316305,0.5486035659454565,1.027774736208469,0.0006659554972821903,0.012613864368641488,0.1149192293041449
8970,11.0,300.34078,-6896.9253,0.0,0.0,0.08970127853859666,0.0,0.0,0.0,0.5253150357795575,0.5381259620938975,1.033052046704299,-0.0012203226527114689,-0.009320055791567892,0.0986716747846361
8971,11.0,300.17559,-6836.8824,0.0,0.0,0.08971128295897057,0.0,0.0,0.0,0.5231769564785455,0.5384639519297545,1.016600614105669,0.0009717130875206151,-0.008215445591001352,0.11497419812206988
8972,11.0,300.19989,-6845.959,0.0,0.0,0.0897212873793447,0.0,0.0,0.0,0.5001473623757016,0.5431806615427576,1.037672568485309,0.0007193135515232202,-0.0026220260912488275,0.10925234440986689
8973,11.0,300.45921,-6888.2285,0.0,0.0,0.08973129179971884,0.0,0.0,0.0,0.5168758175516714,0.5543122474063594,1.022661369578819,0.0053507980805326556,-0.012089470964887888,0.1052759457174269
8974,11.0,299.71124,-6879.649,0.0,0.0,0.08974126331081544,0.0,0.0,0.0,0.5101568345485595,0.5457674586505545,1.035317268627859,-0.015816335541950784,-0.02945546817002837,0.1005520065649604
8975,11.0,299.28924,-6780.4225,0.0,0.0,0.08975126773118958,0.0,0.0,0.0,0.5185555025074434,0.5248425167279235,1.017681144012309,-0.006144464319561414,-0.006999701714166773,0.0994681096282381
8976,11.0,299.40826,-6792.6476,0.0,0.0,0.08976127215156393,0.0,0.0,0.0,0.5072281161945175,0.5471556214200555,1.0104115305073542,-0.014274281360511884,0.01888167547322628,0.11218222800152389
8977,11.0,299.43594,-6825.191,0.0,0.0,0.08977127657193806,0.0,0.0,0.0,0.5248116024673725,0.5350051923159015,1.014870793534949,0.0026264903698644177,0.02175451612400358,0.1025102694369759
8978,11.0,300.17733,-6877.1439,0.0,0.0,0.0897812809923122,0.0,0.0,0.0,0.5028343091233826,0.5461911390473685,1.041454625808569,-0.007958135389056811,-0.004381294648300116,0.1119653924801239
8979,11.0,300.42591,-6873.7902,0.0,0.0,0.08979128541268633,0.0,0.0,0.0,0.5111121368753405,0.5367508094556805,1.041597595397679,0.0050647555508024555,0.012553405761674687,0.11236660912222089
8980,11.0,300.14229,-6830.2087,0.0,0.0,0.08980128983306046,0.0,0.0,0.0,0.49947157522150654,0.5439945749505845,1.0327467544491689,-0.008291117236294561,0.014975122136679484,0.1132654531534299
8981,11.0,299.80136,-6834.0384,0.0,0.0,0.08981126134415707,0.0,0.0,0.0,0.5134394001025235,0.5504058744283304,1.013531783527799,0.001138072886444049,-0.002004617746865368,0.12032859668550788
8982,11.0,299.73635,-6897.7631,0.0,0.0,0.0898212657645312,0.0,0.0,0.0,0.5392727889545804,0.5357870464905644,1.021687940207749,-0.01938690730433878,-0.01853878353338548,0.1029863652614629
8983,11.0,299.99428,-6920.0585,0.0,0.0,0.08983127018490555,0.0,0.0,0.0,0.5300139932508084,0.5446858850963114,1.028825071262129,0.007676790590765243,-0.0020781374515961982,0.11068962954421588
8984,11.0,299.80701,-6811.9064,0.0,0.0,0.08984127460527969,0.0,0.0,0.0,0.5123291009079455,0.5421693467504485,1.016151035036299,-0.0025470403149483074,0.02259106857881488,0.11625570618604487
8985,11.0,299.62256,-6772.5233,0.0,0.0,0.08985127902565382,0.0,0.0,0.0,0.4974727164842345,0.5447133340415206,1.016491892369939,0.007477765979623043,0.0012194513589504788,0.1149162098188469
8986,11.0,299.61876,-6745.308000000001,0.0,0.0,0.08986128344602795,0.0,0.0,0.0,0.5040311297439994,0.5281603231203655,1.0182138095898792,-0.008090029445298743,-0.02157127186991878,0.1070888527963469
8987,11.0,300.41135,-6888.8676,0.0,0.0,0.08987128786640186,0.0,0.0,0.0,0.5199506567026345,0.5483171302746874,1.025775897736199,0.01064264709409749,0.0006749304917654534,0.10673933217435189
8988,11.0,300.43511,-7014.1493,0.0,0.0,0.08988129228677622,0.0,0.0,0.0,0.5408411177243625,0.5503005268154334,1.040984579087179,0.0009755828416400301,0.01997802221392728,0.10331843771673589
8989,11.0,300.94403,-6945.5953,0.0,0.0,0.08989126379787282,0.0,0.0,0.0,0.5275233130474974,0.5483056096210505,1.035458617016809,-0.013371850423948886,0.013263797433284884,0.098612489833045
8990,11.0,299.97016,-6861.8117,0.0,0.0,0.08990126821824695,0.0,0.0,0.0,0.5089300318574835,0.5328551262662066,1.0440342592381588,-0.019008689413011585,0.005181022757377135,0.1023593863645849
8991,11.0,299.71025,-6828.0443,0.0,0.0,0.08991127263862109,0.0,0.0,0.0,0.5170253023389245,0.5287057455166945,1.029823933210709,-0.006936406108244983,0.013423117839258588,0.09491219976635482
8992,11.0,300.00509,-6895.7405,0.0,0.0,0.08992127705899544,0.0,0.0,0.0,0.5134991717259225,0.5469092091282365,1.0357245951680591,0.01301811164178759,0.022369292449927275,0.1041308312494129
8993,11.0,299.54871,-6855.4282,0.0,0.0,0.08993128147936957,0.0,0.0,0.0,0.5242493499868824,0.5395059479350915,1.020123684703369,-0.006188660769048265,-0.01283955670916559,0.1066681817523299
8994,11.0,299.86435,-6740.4408,0.0,0.0,0.08994128589974348,0.0,0.0,0.0,0.5062584662463205,0.5393776806049325,1.003289547541969,-0.0022875690531904878,-0.02975470422931067,0.10623635482471189
8995,11.0,299.79816,-6750.2205,0.0,0.0,0.08995129032011762,0.0,0.0,0.0,0.5039214555531756,0.5364142179049615,1.011562805535976,-0.004349333092445756,-0.018515083613546483,0.12719804732846987
8996,11.0,300.96954,-6833.299,0.0,0.0,0.08996129474049175,0.0,0.0,0.0,0.5049034874175945,0.5507556584953515,1.021493092213519,0.01873343394384598,0.02085899048687208,0.13092737511652586
8997,11.0,300.6694,-6826.2211,0.0,0.0,0.08997126625158858,0.0,0.0,0.0,0.5052667375784445,0.5436570512097735,1.026076934340909,-0.016060640273561785,0.004145876018741106,0.13026425358858087
8998,11.0,300.17455,-6783.0434,0.0,0.0,0.08998127067196271,0.0,0.0,0.0,0.49938423306288654,0.5384638607372454,1.024027737338669,-0.01159001567259549,-0.0038218304294352964,0.1082486695233119
8999,11.0,299.9832,-6767.3524,0.0,0.0,0.08999127509233684,0.0,0.0,0.0,0.5058937570053265,0.5354349319483135,1.0157774497244292,-0.0033790384132101263,-3.625033144662916e-05,0.1034459248443179
9000,11.0,300.49201,-6841.5338,0.0,0.0,0.09000127951271097,0.0,0.0,0.0,0.5175986701730115,0.5333354980061155,1.028721314451889,0.017743047832352483,0.01925609874292898,0.09764715430377381
9001,11.0,300.03204,-6938.054,0.0,0.0,0.0900112839330851,0.0,0.0,0.0,0.5249194832055195,0.5459277345513726,1.038147985432229,0.015104452366193384,0.004965543065935945,0.1018932305235789
9002,11.0,299.84366,-6864.1044,0.0,0.0,0.09002128835345924,0.0,0.0,0.0,0.5143630991586855,0.5333321644132865,1.038821087473659,-0.0053255892286447355,-0.0036551214037323972,0.09227805348138482
9003,11.0,299.44437,-6904.8288,0.0,0.0,0.09003129277383337,0.0,0.0,0.0,0.5308605130468536,0.5506717309895685,1.017363287455939,0.007025467245659634,0.007716675357101563,0.1108976599222469
9004,11.0,299.72977000000003,-6909.3247,0.0,0.0,0.09004126428492998,0.0,0.0,0.0,0.5210893876950186,0.5436463816862205,1.035526403448499,0.0022900651948118377,0.026369467055963772,0.11074219695940389
9005,11.0,300.18559,-6911.2016,0.0,0.0,0.09005126870530433,0.0,0.0,0.0,0.5360037908194555,0.5482776236532885,1.016551268825799,0.0017448240689257283,-0.00038137663771894357,0.1101919514925989
9006,11.0,299.7366,-6908.0493,0.0,0.0,0.09006127312567846,0.0,0.0,0.0,0.5263311939073445,0.5411900607938005,1.032353208110329,-0.013390732339562388,-0.026181083597371774,0.10260288049611589
9007,11.0,299.81739,-6788.776999999999,0.0,0.0,0.0900712775460526,0.0,0.0,0.0,0.5087075322680245,0.5325779010388465,1.022333279196439,-0.0003487181380483007,-0.013266906084591686,0.11239874941539288
9008,11.0,299.88833999999997,-6814.8534,0.0,0.0,0.09008128196642673,0.0,0.0,0.0,0.4926006452333985,0.5547646534435086,1.0241799275036891,0.02287306418764568,0.016306370648063485,0.1196574603492719
9009,11.0,300.12881,-6840.4971,0.0,0.0,0.09009128638680086,0.0,0.0,0.0,0.5137925380273756,0.5272934673948134,1.0382542753677189,0.02323460600882708,0.006403657140191754,0.1134003775367459
9010,11.0,300.86395,-6835.4954,0.0,0.0,0.090101290807175,0.0,0.0,0.0,0.5079325479290395,0.5458703238007065,1.0240169968876092,-0.009555646977618931,-0.007456168959041582,0.1008794788647794
9011,11.0,300.17172,-6800.5798,0.0,0.0,0.09011129522754913,0.0,0.0,0.0,0.5245978877562805,0.5254732953126765,1.017135204858429,0.0015955446674679986,-0.007746793203073963,0.09293808155677451
9012,11.0,300.31257,-6785.9945,0.0,0.0,0.09012126673864573,0.0,0.0,0.0,0.5040744056557706,0.5399000819589895,1.018798353572569,-0.01042074937519789,0.013728762705423385,0.1032227869072959
9013,11.0,300.62889,-6808.1239,0.0,0.0,0.09013127115901987,0.0,0.0,0.0,0.5027220511448035,0.5416767146843295,1.025100870519579,-0.0005526227440571186,-0.006708125015040394,0.11213612512197389
9014,11.0,299.79056,-6968.554,0.0,0.0,0.09014127557939422,0.0,0.0,0.0,0.5219649776364325,0.5570272105193055,1.039274212918379,-0.025197215723771576,-0.02878214220032627,0.11311473220105488
9015,11.0,299.82106,-6946.1406,0.0,0.0,0.09015127999976835,0.0,0.0,0.0,0.5302262792792595,0.5616645623844765,1.019562445472979,-0.0006818941544027134,-0.0022780537228263976,0.11540554882214088
9016,11.0,300.08806,-6791.3659,0.0,0.0,0.09016128442014248,0.0,0.0,0.0,0.5127535007123305,0.5515753271637465,1.0000768253173982,-0.0025355575568650475,0.030828639904299866,0.1261612695611479
9017,11.0,299.65016,-6742.6136,0.0,0.0,0.09017128884051662,0.0,0.0,0.0,0.5173980162557085,0.5399400141454305,0.9922481409372671,0.013369596955726488,0.02014507473141408,0.10748520583796389
9018,11.0,299.61400000000003,-6719.2221,0.0,0.0,0.09018129326089075,0.0,0.0,0.0,0.4969137368015675,0.5316774054099745,1.013884597212619,-0.005405975425328235,-0.003624411313076546,0.1027161821222979
9019,11.0,299.96578,-6787.2133,0.0,0.0,0.0901912976812651,0.0,0.0,0.0,0.5011133240935345,0.5246261979640745,1.0374038545587891,0.014995014262642686,-0.007342393334462804,0.1073751364796009
9020,11.0,299.45887,-6878.4381,0.0,0.0,0.09020126919236149,0.0,0.0,0.0,0.5057177554629565,0.5447220479923804,1.040433573682799,0.011726061723772187,0.018487932563866882,0.10859850425283789
9021,11.0,300.42955,-6928.9777,0.0,0.0,0.09021127361273562,0.0,0.0,0.0,0.5288698211053875,0.5536083425618895,1.023758010162049,-0.005417487567664395,-0.008433095765481752,0.09040664640794131
9022,11.0,301.10924,-6932.4977,0.0,0.0,0.09022127803310975,0.0,0.0,0.0,0.5244560327422805,0.5444396957195144,1.0384105185331391,-0.01013587208308269,-0.013840140169665487,0.09395034272467691
9023,11.0,300.46538,-6965.8637,0.0,0.0,0.09023128245348411,0.0,0.0,0.0,0.5503930872120685,0.5405590390290235,1.026496521207319,-0.003957219995872206,-0.01200412592221499,0.08548685209064542
9024,11.0,300.54875,-6876.0831,0.0,0.0,0.09024128687385824,0.0,0.0,0.0,0.5053195988361615,0.5523085453336095,1.0325294123027189,0.022221749049865878,0.023638134887652276,0.11038135833379191
9025,11.0,300.7935,-6749.023,0.0,0.0,0.09025129129423237,0.0,0.0,0.0,0.49594599176355847,0.5375074843653584,1.018080972501769,0.005680882235134425,0.0007949499559779522,0.10972556260406989
9026,11.0,300.03075,-6742.9858,0.0,0.0,0.0902612957146065,0.0,0.0,0.0,0.4887634975022015,0.5471357414530935,1.0138000921542791,0.008505950879471992,-0.025651009913557576,0.12426664386166289
9027,11.0,300.09694,-6765.1943,0.0,0.0,0.09027126722570311,0.0,0.0,0.0,0.5266108002724396,0.5251328128815735,1.0047065372768151,0.006087995790163405,-0.015801138816950985,0.11964684148822388
9028,11.0,300.14861,-6762.7721,0.0,0.0,0.09028127164607724,0.0,0.0,0.0,0.5094893459126835,0.5422594449493405,1.003965061118637,0.0024805860031647774,0.017798143306539987,0.12583833662177688
9029,11.0,299.79318,-6778.5542,0.0,0.0,0.09029127606645138,0.0,0.0,0.0,0.5298795856250434,0.5329856430115875,0.997645977532492,-0.018326510677185784,0.01113926629935999,0.1144719097824979
9030,11.0,299.81948,-6827.6202,0.0,0.0,0.09030128048682551,0.0,0.0,0.0,0.49011149503773854,0.5407600678488635,1.044554461839499,-0.026059370982109673,-0.013595515251022887,0.1007798368631955
9031,11.0,299.80699,-6950.9399,0.0,0.0,0.09031128490719986,0.0,0.0,0.0,0.5183033552200585,0.5625923853685454,1.0320164037770891,-0.005064809658357795,0.0018278927439239682,0.11437955203588288
9032,11.0,299.71105,-7001.8377,0.0,0.0,0.090321289327574,0.0,0.0,0.0,0.5161968589246635,0.5567351006479765,1.055451865339989,0.025056310125115274,0.005749331737689865,0.09998004613526232
9033,11.0,300.5165,-6919.1701,0.0,0.0,0.09033129374794813,0.0,0.0,0.0,0.5268117581647724,0.5541670486670295,1.022276131890799,0.002131453658608098,-0.008205492131294023,0.1159235830682669
9034,11.0,300.29311,-6765.9338,0.0,0.0,0.09034129816832226,0.0,0.0,0.0,0.5024515133681036,0.5412234271195935,1.012999999477816,-0.00989628676646246,-0.02988530507444997,0.1025143427023779
9035,11.0,300.4296,-6733.2961,0.0,0.0,0.09035126967941864,0.0,0.0,0.0,0.5242048885724945,0.5198188024671215,1.002730182824264,-0.005304464078634844,-0.0020586415064220978,0.1068024576555819
9036,11.0,300.3989,-6821.5084,0.0,0.0,0.090361274099793,0.0,0.0,0.0,0.49526207834356156,0.5481606337967424,1.0301455387924492,0.0036347809145999468,0.03085552548245327,0.1098761923639359
9037,11.0,300.1058,-6871.3371,0.0,0.0,0.09037127852016713,0.0,0.0,0.0,0.5174905867848445,0.5355641213360635,1.035660152461699,-0.005053707375687086,0.005901142845847454,0.11279616636961488
9038,11.0,299.93548,-6877.1842,0.0,0.0,0.09038128294054149,0.0,0.0,0.0,0.5041842419666105,0.5436610231501655,1.042647018526249,-0.013196410222134287,-0.007854932319996464,0.11102171213198987
9039,11.0,299.80936,-6890.2726,0.0,0.0,0.09039128736091562,0.0,0.0,0.0,0.5343882243300114,0.5443689708625344,1.015713614968129,0.0028018618733222376,-0.01057651935282119,0.1106158750694369
9040,11.0,298.90815,-6908.1259,0.0,0.0,0.09040129178128975,0.0,0.0,0.0,0.5310787671183935,0.5363289022465415,1.032490098198839,0.02274712125321608,0.008447214392375153,0.1068674880469999
9041,11.0,299.43906,-6881.2277,0.0,0.0,0.09041129620166388,0.0,0.0,0.0,0.5328613172243175,0.5405217412928425,1.0183383380271689,0.007537314384025013,0.0012495166172426888,0.10107957042827691
9042,11.0,299.51273,-6906.1095,0.0,0.0,0.09042130062203801,0.0,0.0,0.0,0.48828545623752256,0.5578168261897345,1.053182590416029,-0.0034192267492764066,-0.007684369498863223,0.10785929777488389
9043,11.0,299.43518,-6972.5726,0.0,0.0,0.09043127213313462,0.0,0.0,0.0,0.5315782690201906,0.5503319375685335,1.0375777282759489,-0.0014022018562615485,0.01988595324359078,0.09322384544272723
9044,11.0,299.80359,-6890.1152,0.0,0.0,0.09044127655350875,0.0,0.0,0.0,0.5095752999186665,0.5590324324672055,1.025815211840079,-0.006848040567023983,0.025719898761356375,0.12411516297171288
9045,11.0,300.47217,-6773.0307,0.0,0.0,0.09045128097388311,0.0,0.0,0.0,0.5299022013672755,0.5303130945478275,0.998616904175815,-0.005446374213440285,-0.008767866607096062,0.11741310124527089
9046,11.0,299.61071,-6843.0864,0.0,0.0,0.09046128539425724,0.0,0.0,0.0,0.5161763507426396,0.5450094259857425,1.018941627136709,-0.02301933697208168,-0.03099792359850687,0.1155561887145079
9047,11.0,300.06401,-6843.2508,0.0,0.0,0.09047128981463137,0.0,0.0,0.0,0.5219372956437005,0.5441836676842464,1.014056444429579,-0.004147145722441416,-0.006493826165265743,0.1160566633364009
9048,11.0,299.93895,-6845.0651,0.0,0.0,0.09048129423500528,0.0,0.0,0.0,0.48942983103296356,0.5473696401061775,1.0439293878528089,0.006997169095541823,0.008459377547900562,0.12086386631583489
9049,11.0,300.03886,-6890.25,0.0,0.0,0.09049129865537942,0.0,0.0,0.0,0.5176136865394936,0.5431011112774066,1.033749162773099,-0.003126645108700847,0.0034642019827901163,0.1128898920038649
9050,11.0,299.91716,-6852.654,0.0,0.0,0.09050127016647624,0.0,0.0,0.0,0.5102133435066365,0.5461425739700755,1.0266798181504089,0.001017929592936829,-0.01281421532416459,0.12430634300058088
9051,11.0,299.60657000000003,-6837.9005,0.0,0.0,0.09051127458685038,0.0,0.0,0.0,0.5250417115650825,0.5364891072198525,1.017020200972079,-0.006503618214232144,0.01140618474670279,0.11661087061109689
9052,11.0,299.07722,-6856.0972,0.0,0.0,0.09052127900722451,0.0,0.0,0.0,0.5243465713339774,0.5479925457376535,1.011743224848782,0.004680604269539675,0.01932507270373618,0.12039671748973088
9053,11.0,299.56457,-6785.0502,0.0,0.0,0.09053128342759864,0.0,0.0,0.0,0.5170226172261595,0.5263719366938655,1.0190912841764792,-0.0089717947407722,-0.00948563271293406,0.0982578837087981
9054,11.0,299.01344,-6739.6638,0.0,0.0,0.090541287847973,0.0,0.0,0.0,0.48555528424057554,0.5353027636052694,1.027831478214069,-0.014728054272045786,-0.018651118518972082,0.10992307544606289
9055,11.0,299.68062000000003,-6840.415,0.0,0.0,0.09055129226834713,0.0,0.0,0.0,0.5136933915050905,0.5402654802100515,1.025356513519809,-0.004834883958915895,0.008773186778071122,0.1012645584857838
9056,11.0,299.7398,-6960.729,0.0,0.0,0.09056129668872104,0.0,0.0,0.0,0.5146962355265635,0.5437338859648565,1.057457695237949,0.012436063294093887,0.023211426899539478,0.11851732093924888
9057,11.0,299.49901,-6922.9152,0.0,0.0,0.09057130110909517,0.0,0.0,0.0,0.5395582721702554,0.5437967074710565,1.021038345568639,0.0010472561919061389,0.003660822860720087,0.1067288146383139
9058,11.0,300.59277000000003,-6819.2356,0.0,0.0,0.090581272620192,0.0,0.0,0.0,0.5192395577824545,0.5312766548629235,1.022361143574189,0.005135020797537094,-0.02048643159735338,0.1120162373701419
9059,11.0,300.16048,-6943.2616,0.0,0.0,0.09059127704056613,0.0,0.0,0.0,0.5382724273958525,0.5382683338654485,1.034037432426549,0.001210645506306409,-0.0010450514610135491,0.09463146464064841
9060,11.0,300.04584,-6923.1666,0.0,0.0,0.09060128146094026,0.0,0.0,0.0,0.5137017710834175,0.5524747791450154,1.038293184171559,0.020122009106137678,0.0077483428677769025,0.1031704930696349
9061,11.0,300.63222,-6804.6215,0.0,0.0,0.0906112858813144,0.0,0.0,0.0,0.5147499073843605,0.5276548531754794,1.026030223511299,-0.009342515189309461,-0.0017146830195260384,0.0979095252846678
9062,11.0,300.02601,-6728.5684,0.0,0.0,0.09062129030168853,0.0,0.0,0.0,0.49852233213032354,0.5296222200996434,1.017172188487079,-0.007523395266076304,-0.006096658571893354,0.11130901919784489
9063,11.0,299.24454,-6696.113,0.0,0.0,0.09063129472206266,0.0,0.0,0.0,0.5021746833082825,0.5359774868468594,0.9972989900357471,-0.011308749603836689,-0.009104160768910711,0.12180453731117187
9064,11.0,299.94989,-6799.6263,0.0,0.0,0.0906412991424368,0.0,0.0,0.0,0.5047837111232736,0.5474382675354506,1.014694589342559,0.009128503089313112,0.010347612982979891,0.12246675704652789
9065,11.0,299.40857,-6939.4992,0.0,0.0,0.09065130356281093,0.0,0.0,0.0,0.5142348419610274,0.5577210436577814,1.037478632416169,-0.00946871194288911,-0.008003350357544183,0.11714513712382488
9066,11.0,300.08308999999997,-6807.4403,0.0,0.0,0.09066127507390753,0.0,0.0,0.0,0.5027027892604025,0.5411842447382265,1.025404845549579,0.008856460636214612,-0.017819712361418685,0.11030128117838889
9067,11.0,300.11724,-6704.2489,0.0,0.0,0.09067127949428189,0.0,0.0,0.0,0.49768799160048055,0.5306141716825415,1.009622076956941,-0.004871641531468586,-0.00021941130447920978,0.1151363080055689
9068,11.0,299.3276,-6832.6217,0.0,0.0,0.09068128391465602,0.0,0.0,0.0,0.4988342814386105,0.5510069951826565,1.027105079217379,0.013472476291379886,0.008287577143095182,0.1232654109078489
9069,11.0,299.54568,-6906.4627,0.0,0.0,0.09069128833503015,0.0,0.0,0.0,0.5328948051401226,0.5426652921443945,1.0238320787443589,-0.007513212406546332,-0.0029295804272270773,0.1127897727614839
9070,11.0,300.09231,-6868.6742,0.0,0.0,0.09070129275540428,0.0,0.0,0.0,0.5206866410452705,0.5385676986074934,1.0286510962199589,-0.01922531012539038,-0.014821642104282187,0.10706854726434288
9071,11.0,300.03699,-6860.0684,0.0,0.0,0.09071129717577842,0.0,0.0,0.0,0.5303999807439025,0.5438276926591145,1.011061824289033,-0.0038807409928993163,-0.0007233339354025014,0.1027058672362799
9072,11.0,300.04587999999995,-6881.5336,0.0,0.0,0.09072130159615255,0.0,0.0,0.0,0.5080698635825915,0.5466105435287605,1.037134026057159,0.0012300055746420988,0.005239782954526315,0.10372517657187791
9073,11.0,300.18579,-6945.0689,0.0,0.0,0.09073130601652668,0.0,0.0,0.0,0.5345469499581764,0.5541738070451965,1.0224067398286891,0.017675452904931385,0.00931143242526683,0.1076294419896989
9074,11.0,300.1608,-6990.7779,0.0,0.0,0.09074127752762329,0.0,0.0,0.0,0.5161344731160065,0.5595756662433184,1.049311772384009,0.008350493996129593,-0.011977733796860289,0.1083164660875029
9075,11.0,300.18567,-6847.1311,0.0,0.0,0.09075128194799742,0.0,0.0,0.0,0.5231714038679974,0.5431398883587335,1.015045579177199,0.003220175894956617,0.0023991873669813577,0.1118071633445079
9076,11.0,299.56584,-6747.076999999999,0.0,0.0,0.09076128636837177,0.0,0.0,0.0,0.49463705501937655,0.5447631352839355,1.011542743183996,0.003488157545629347,0.012884594662860488,0.1224979651496079
9077,11.0,299.20142000000004,-6848.2934,0.0,0.0,0.0907712907887459,0.0,0.0,0.0,0.5224470719015115,0.5364357292045845,1.0228274412702092,-0.0025982267715750178,-0.0005896550897719265,0.1064170274500429
9078,11.0,299.38061,-6934.3466,0.0,0.0,0.09078129520911982,0.0,0.0,0.0,0.5200807073529695,0.5422925376976064,1.045494960582319,-0.0028176504377054475,-0.002832130186934487,0.1037456746214009
9079,11.0,299.16888,-6840.965999999999,0.0,0.0,0.09079129962949417,0.0,0.0,0.0,0.5166790950447565,0.5416057061173215,1.021198033784399,-0.0008927217005272722,-0.0017421082546826986,0.11146003399274888
9080,11.0,298.66047000000003,-6765.2195,0.0,0.0,0.0908013040498683,0.0,0.0,0.0,0.4908714123477365,0.5389957461122384,1.026590652141609,0.017238601270067485,0.008989271886447062,0.1189399272909569
9081,11.0,299.04517000000004,-6834.625,0.0,0.0,0.09081127556096491,0.0,0.0,0.0,0.5101055640934995,0.5552248412414255,1.012224934078823,0.010749287614122091,0.00042295980374038256,0.12024109240687189
9082,11.0,299.71675,-6985.5793,0.0,0.0,0.09082127998133904,0.0,0.0,0.0,0.5246202400534865,0.5550886705604865,1.0437327160083991,0.005297050532953185,-0.012658738175820188,0.10332051487944091
9083,11.0,300.23045,-6980.5611,0.0,0.0,0.09083128440171317,0.0,0.0,0.0,0.5294195194171385,0.5554417882203365,1.037054992549359,0.009139419643240491,-0.0023230532743425077,0.11157679080177191
9084,11.0,299.88606,-6857.8808,0.0,0.0,0.09084128882208731,0.0,0.0,0.0,0.5110560838798085,0.5469276806775594,1.026640706696549,-0.004748307817371495,0.014930008189227087,0.1028129779043509
9085,11.0,300.02689,-6734.7749,0.0,0.0,0.09085129324246166,0.0,0.0,0.0,0.5039352053570325,0.5296795801878045,1.0135886268584091,-0.003971325855814346,0.0026944128810428474,0.10679878969021989
9086,11.0,300.13777999999996,-6837.9536,0.0,0.0,0.0908612976628358,0.0,0.0,0.0,0.5156777101034276,0.5402707896405755,1.022618610424599,-0.022558889782139078,-0.02232763875156638,0.11617732115830888
9087,11.0,300.06441,-7067.7086,0.0,0.0,0.09087130208320993,0.0,0.0,0.0,0.5499562852264595,0.5552189542583444,1.043231663833949,-0.001992367654481378,0.003326693811719117,0.1045710884178629
9088,11.0,299.76093,-6965.4980000000005,0.0,0.0,0.09088130650358406,0.0,0.0,0.0,0.5287945366229575,0.5449258531174944,1.043617104171989,-0.010455116792089691,0.014437009326571886,0.1115615819177709
9089,11.0,300.44906000000003,-6741.311,0.0,0.0,0.09089127801468067,0.0,0.0,0.0,0.5058589721293936,0.5309087032216095,1.0124225482458262,0.01087746780477249,0.009133208318802481,0.10400449922694491
9090,11.0,300.30346000000003,-6815.9146,0.0,0.0,0.0909012824350548,0.0,0.0,0.0,0.5080340249265545,0.5356837760403725,1.028150044045509,0.004826059361144976,0.0004877278444424905,0.1059553096444749
9091,11.0,300.51499,-6943.2993,0.0,0.0,0.09091128685542893,0.0,0.0,0.0,0.5243445043037736,0.5512093006976225,1.035035787750079,0.023413690871251377,-0.0015497149601449583,0.1103149093922339
9092,11.0,300.41747999999995,-6932.3332,0.0,0.0,0.09092129127580306,0.0,0.0,0.0,0.5148402791607795,0.5565998317596265,1.035816091652089,0.02167734598313748,0.007752880303049712,0.12412394785007988
9093,11.0,300.53287,-6808.9639,0.0,0.0,0.09093129569617742,0.0,0.0,0.0,0.5032318780651195,0.5455180167409365,1.021005110965359,-0.006434532897238954,-0.01076765277218459,0.1093239811919369
9094,11.0,299.99863,-6702.2772,0.0,0.0,0.09094130011655155,0.0,0.0,0.0,0.48972136335173555,0.5385964141153274,1.009007145603752,-0.0062320736722327845,-0.015586150450483284,0.11622861187837089
9095,11.0,299.65502999999995,-6814.338000000001,0.0,0.0,0.09095130453692568,0.0,0.0,0.0,0.5145135870635374,0.5356950839114885,1.021179896607609,-0.012588521970390386,0.01016711159691579,0.11706261803568088
9096,11.0,299.49638999999996,-6947.8152,0.0,0.0,0.09096130895729981,0.0,0.0,0.0,0.5234382128843295,0.5558588115639935,1.0326652891411292,0.00036627613094863964,0.028619792176553572,0.1157888512024699
9097,11.0,299.85857000000004,-6907.9813,0.0,0.0,0.0909712804683962,0.0,0.0,0.0,0.5246227225162315,0.5554290921965835,1.019801977796619,0.006210926838670755,-0.0017238853569342383,0.1154697280834749
9098,11.0,299.97616,-6808.3539,0.0,0.0,0.09098128488877055,0.0,0.0,0.0,0.5163842088681535,0.5440964369831375,1.009088945284325,-0.002931075275099607,-0.013167951066575588,0.1140999051407839
9099,11.0,300.35609,-6832.5199,0.0,0.0,0.09099128930914469,0.0,0.0,0.0,0.5241302221726255,0.5431186709016396,1.0096665485038299,0.00977596696478782,-0.007937812429151092,0.11210871670676889
9100,11.0,299.8794,-7015.2359,0.0,0.0,0.09100129372951904,0.0,0.0,0.0,0.5345648540874435,0.5542758413302665,1.043615888271869,0.007964466783631673,0.006519970550970994,0.1026193863402449
9101,11.0,300.22202999999996,-7005.649,0.0,0.0,0.09101129814989317,0.0,0.0,0.0,0.5323377810301485,0.5454714781638434,1.0517331361479791,-0.007037917556263383,0.0009013843809322123,0.1007126644610661
9102,11.0,300.47332,-6835.0115,0.0,0.0,0.0910213025702673,0.0,0.0,0.0,0.5058857219320335,0.5431523715999655,1.0286346815683391,-0.02260475556116568,-0.005512946467535454,0.10960486425215789
9103,11.0,300.41701,-6798.0634,0.0,0.0,0.09103130699064144,0.0,0.0,0.0,0.5026807308057256,0.5321249275816415,1.0316359283645389,0.003159252307518927,-0.00012187014525514687,0.1064885122445979
9104,11.0,299.83251,-6885.8463,0.0,0.0,0.09104127850173782,0.0,0.0,0.0,0.5278962296143015,0.5454232981215885,1.019805828146999,0.0092424085112297,0.015370877360737485,0.11355288180929689
9105,11.0,300.00395,-6942.8071,0.0,0.0,0.09105128292211218,0.0,0.0,0.0,0.5292494352553524,0.5508933389189395,1.030297222332419,-0.006044279317248925,0.0008051810462126822,0.1028461213151219
9106,11.0,299.74651,-6915.9147,0.0,0.0,0.09106128734248631,0.0,0.0,0.0,0.5131951156359146,0.5531862225702295,1.035884080733799,-0.014424919226378684,-0.004486072206690855,0.11676662741646888
9107,11.0,299.35976,-6737.3634,0.0,0.0,0.09107129176286066,0.0,0.0,0.0,0.4990076687957225,0.5444978258777515,1.004484736829925,-0.015044379807514687,0.002084847295083408,0.11192072841571589
9108,11.0,299.40592000000004,-6764.0872,0.0,0.0,0.0910812961832348,0.0,0.0,0.0,0.5005650038019195,0.5388032893882445,1.0167453062199492,0.007578806975620013,0.019274142700709783,0.1188312562177319
9109,11.0,299.63922,-6993.0986,0.0,0.0,0.09109130060360893,0.0,0.0,0.0,0.5405219338103614,0.5494261122441355,1.035779310673459,-0.005489835955279625,0.001158276789463019,0.11669998595739188
9110,11.0,299.59486,-7019.9219,0.0,0.0,0.09110130502398284,0.0,0.0,0.0,0.5361396777903664,0.5623532178149415,1.035388094809849,-0.006671161752717404,-0.004123510346633786,0.1145196338622079
9111,11.0,299.25539,-6818.4167,0.0,0.0,0.09111130944435697,0.0,0.0,0.0,0.5141664779767805,0.5415118386280575,1.016950084065159,0.003550781772034877,-0.002376320642699588,0.12010825531876188
9112,11.0,299.797,-6756.4717,0.0,0.0,0.0911212809554538,0.0,0.0,0.0,0.4870444579125456,0.5449223472721485,1.021831923046959,0.015849115195935886,0.009324840561190111,0.12536896877795387
9113,11.0,300.15137999999996,-6882.8173,0.0,0.0,0.09113128537582793,0.0,0.0,0.0,0.5158327880312326,0.5416286663645875,1.034743161121199,0.005062510289905865,0.001936099140653108,0.1043565428416889
9114,11.0,300.08685,-6894.5005,0.0,0.0,0.09114128979620206,0.0,0.0,0.0,0.5132981733035855,0.5329784084058735,1.049479363950549,-0.004090344948335616,-0.013400977311323488,0.11155956555007189
9115,11.0,300.0316,-6826.4621,0.0,0.0,0.0911512942165762,0.0,0.0,0.0,0.5057448700356325,0.5458930712654514,1.023436100605279,0.006142608450678254,0.0034049482315172265,0.1068931334070309
9116,11.0,300.3173,-6775.6703,0.0,0.0,0.09116129863695055,0.0,0.0,0.0,0.5212620252470566,0.5323129868002014,1.0060595807978499,-0.009367411858841572,0.016537167742591383,0.10573773445050189
9117,11.0,300.15651,-6888.6512,0.0,0.0,0.09117130305732468,0.0,0.0,0.0,0.5259327029080165,0.5473365270929095,1.0207087353111088,-0.0027406150591026478,0.0064146487759515446,0.1091237123096719
9118,11.0,300.34887000000003,-6943.8007,0.0,0.0,0.09118130747769859,0.0,0.0,0.0,0.5336943810590346,0.5459798054740115,1.031067799033469,-0.02778251119492037,-0.008349685321224782,0.1164756422527509
9119,11.0,300.37654,-6916.9983,0.0,0.0,0.09119131189807272,0.0,0.0,0.0,0.5214307313887065,0.5324016867139555,1.048762286854779,0.0007542885334399822,0.0022477667654123078,0.0970819664377441
9120,11.0,299.50722,-6841.3926,0.0,0.0,0.09120128340916955,0.0,0.0,0.0,0.5035125888728236,0.5514107348175025,1.0246891870039492,0.0012464675450417687,0.014517044938720788,0.11081212134880489
9121,11.0,299.22999,-6769.0718,0.0,0.0,0.09121128782954369,0.0,0.0,0.0,0.5117136325322035,0.5181522087026414,1.027762982507309,0.018256922686817983,-0.0008583213428747212,0.09754252001894721
9122,11.0,300.08606000000003,-6929.6809,0.0,0.0,0.09122129224991782,0.0,0.0,0.0,0.5357851010503725,0.5484823508359935,1.022182507581559,-0.0020255111665773884,-0.0026592237183199474,0.1072958293942739
9123,11.0,299.75018,-7077.1278,0.0,0.0,0.09123129667029195,0.0,0.0,0.0,0.5361101820799555,0.5744993203411685,1.040660643030209,0.017223153259042882,0.0005285925756130255,0.11866597486141989
9124,11.0,299.61025,-6930.4721,0.0,0.0,0.09124130109066608,0.0,0.0,0.0,0.5095199663307055,0.5543734477123995,1.042797080866059,-0.004058766401019056,0.016973986953452085,0.12437874985272689
9125,11.0,299.61596000000003,-6808.83,0.0,0.0,0.09125130551104021,0.0,0.0,0.0,0.4892462402473445,0.5672013864959184,1.0132667173016392,-0.01296923245696359,0.0004950743940275385,0.11655590179317188
9126,11.0,300.369,-6855.7963,0.0,0.0,0.09126130993141435,0.0,0.0,0.0,0.49812655664126354,0.5412041449701905,1.044660143824929,-0.009272389872413632,-0.02367538905407898,0.11108701610093488
9127,11.0,300.71657999999996,-6970.3724,0.0,0.0,0.09127128144251118,0.0,0.0,0.0,0.5362367775474495,0.5536633012473134,1.028919100871409,0.005288587969442995,-0.0006141394678383465,0.1062987608983709
9128,11.0,300.41662,-6893.6149,0.0,0.0,0.09128128586288509,0.0,0.0,0.0,0.5242903359534276,0.5628899769229154,1.008306493292103,0.003890246798712466,0.012706090392743489,0.11829246047705688
9129,11.0,299.91829,-6824.8067,0.0,0.0,0.09129129028325944,0.0,0.0,0.0,0.5186757854268145,0.5333129937213945,1.022582032095989,0.0040485074464065764,-0.0016131928497597383,0.11272215858231088
9130,11.0,299.51922,-6807.9454,0.0,0.0,0.09130129470363357,0.0,0.0,0.0,0.5104700605519725,0.5449506777449444,1.0140246283764391,-0.007807608170100932,-0.007473917453093222,0.12051756782915789
9131,11.0,299.67875,-6986.7328,0.0,0.0,0.0913112991240077,0.0,0.0,0.0,0.5173789874188305,0.5600997090625375,1.046313565338109,0.01040963098185059,0.0022925461376816876,0.1126606340362389
9132,11.0,299.90772999999996,-7060.2369,0.0,0.0,0.09132130354438184,0.0,0.0,0.0,0.5270356965693734,0.5522690083147075,1.066831069263029,0.02273440395121098,0.014542982114780587,0.10895167257519289
9133,11.0,300.26903,-6956.5317,0.0,0.0,0.09133130796475597,0.0,0.0,0.0,0.5287157361626805,0.5562981669398545,1.029597978438409,-0.002577439641798487,0.005741458885737875,0.1014907473188569
9134,11.0,300.12153,-6812.2759,0.0,0.0,0.0913413123851301,0.0,0.0,0.0,0.5154384209598115,0.5387223104402525,1.0166010194057091,-0.0026424142031359773,-0.013890048816591088,0.0991823477687856
9135,11.0,300.90824,-6777.769,0.0,0.0,0.09135128389622671,0.0,0.0,0.0,0.5091857356527195,0.5317896532560525,1.019297176596799,-0.010306544943176791,-0.004748413904656966,0.1074287880723959
9136,11.0,300.40272000000004,-6890.1826,0.0,0.0,0.09136128831660084,0.0,0.0,0.0,0.5202666083488166,0.5532725109487455,1.020904393905419,0.01122153004847879,0.02099439008448498,0.1184951510270609
9137,11.0,300.08637999999996,-6896.439,0.0,0.0,0.09137129273697497,0.0,0.0,0.0,0.5157613538991825,0.5490021582697945,1.031581719484189,-0.008672551892714233,-0.012282178974906688,0.1085944715174399
9138,11.0,300.27344,-6853.7515,0.0,0.0,0.09138129715734933,0.0,0.0,0.0,0.5098252889833385,0.5549095380753075,1.018634511031399,-0.0023384888223908777,-0.019504234573168085,0.1056771522270229
9139,11.0,299.6304,-6868.2923,0.0,0.0,0.09139130157772346,0.0,0.0,0.0,0.5304289698292636,0.5437450215834555,1.013615376661049,-0.004928996857354115,-0.008160068838586092,0.11119744009683288
9140,11.0,299.64066,-6940.434,0.0,0.0,0.09140130599809759,0.0,0.0,0.0,0.5212659363924426,0.5491548651923654,1.039297821645709,0.025099979177925075,0.012291318490808688,0.11492811550752188
9141,11.0,300.19403,-7026.3538,0.0,0.0,0.09141131041847173,0.0,0.0,0.0,0.5297663954563725,0.5766312390815724,1.029438492872669,-0.006745155759820045,0.003233666104137997,0.12812294201974986
9142,11.0,299.94545,-7007.8022,0.0,0.0,0.09142131483884586,0.0,0.0,0.0,0.5296139823763305,0.5459195778880676,1.0546633541121688,-0.007355760231107013,-0.008531037938697892,0.10287335747780992
9143,11.0,300.19383,-6833.4708,0.0,0.0,0.09143128634994246,0.0,0.0,0.0,0.5009755524774375,0.5455147439431134,1.030714174748569,-0.009152956259276451,-0.0026671358843758175,0.1172557941672459
9144,11.0,300.40554,-6741.6993,0.0,0.0,0.0914412907703166,0.0,0.0,0.0,0.48754498319694356,0.5447207510322525,1.017042492474279,0.008093754963266421,0.010909260553160188,0.0993042204775635
9145,11.0,299.623,-6868.6772,0.0,0.0,0.09145129519069073,0.0,0.0,0.0,0.5145617265757886,0.5457027018366635,1.027641899120359,0.0038035517016063265,-0.006739188426006113,0.11017152437058289
9146,11.0,299.45889,-6944.4075,0.0,0.0,0.09146129961106486,0.0,0.0,0.0,0.5107811182001716,0.5756471199219475,1.024498189360099,-0.002365202857302348,-0.019315991956339984,0.1142149090271339
9147,11.0,298.92396,-6889.0374,0.0,0.0,0.09147130403143922,0.0,0.0,0.0,0.5201600347032985,0.5538781507985175,1.020057215496809,0.007828004995938942,-0.0009448282490397881,0.11899821956920989
9148,11.0,299.23229,-6846.7257,0.0,0.0,0.09148130845181335,0.0,0.0,0.0,0.5098296256937664,0.5456375295902315,1.025766474510269,-0.0004497418682635666,0.00852578099452907,0.11515341166725689
9149,11.0,300.01417000000004,-6804.2506,0.0,0.0,0.09149131287218748,0.0,0.0,0.0,0.4936666248686026,0.5523786419755276,1.022277043815889,0.0018182020199675683,0.011462134390724589,0.12438938897877688
9150,11.0,300.41677999999996,-6920.1714,0.0,0.0,0.09150128438328409,0.0,0.0,0.0,0.5262176187036355,0.5325790662764615,1.0447625834100391,-0.01912779594901648,-0.015510693715536285,0.09631015965107272
9151,11.0,300.32114,-6977.8035,0.0,0.0,0.09151128880365822,0.0,0.0,0.0,0.5439751205486645,0.5417404481156195,1.035362459582319,0.0007139920430580284,0.005900880616721574,0.10421439398515991
9152,11.0,300.72075,-6861.3978,0.0,0.0,0.09152129322403235,0.0,0.0,0.0,0.5227261209790515,0.5344031697689865,1.028564362011399,-0.01055631109282679,0.008878350384749961,0.10488227778857491
9153,11.0,299.82226,-6794.1145,0.0,0.0,0.09153129764440648,0.0,0.0,0.0,0.5163552603127965,0.5208188904483225,1.028066957537309,0.0015287937773801987,0.014311150491900586,0.1014248860623569
9154,11.0,299.36807000000005,-6862.1153,0.0,0.0,0.09154130206478062,0.0,0.0,0.0,0.5155041707588005,0.5437697752833984,1.026637768271259,-0.014158318939567286,-0.01048110463065449,0.11130114624456788
9155,11.0,299.87832000000003,-6961.0666,0.0,0.0,0.09155130648515497,0.0,0.0,0.0,0.5304618700600106,0.5424862913817284,1.043042287390259,0.010170848463284591,0.01051709628745659,0.09763603996342692
9156,11.0,299.43562000000003,-6902.1426,0.0,0.0,0.0915613109055291,0.0,0.0,0.0,0.5311647008593745,0.5489597537531095,1.0179545188892891,-0.0041334007821848965,0.005888573681006974,0.10790490416188489
9157,11.0,299.23172,-6814.2012,0.0,0.0,0.09157131532590324,0.0,0.0,0.0,0.5025718570824805,0.5563145613264724,1.012460605919582,-0.002852234892768667,-0.0045160121259456955,0.11673727356107189
9158,11.0,300.70883,-6827.1621,0.0,0.0,0.09158128683699984,0.0,0.0,0.0,0.5033510768068835,0.5558940017399664,1.016041705350509,-0.00957034558886957,-0.02364635538571358,0.12230313742037989
9159,11.0,300.31018,-6959.1005,0.0,0.0,0.09159129125737375,0.0,0.0,0.0,0.5273638477467595,0.5555983556257885,1.032430620417969,0.0024707542347944577,-0.0009603385648130371,0.12665785330265686
9160,11.0,300.7437,-6870.7753,0.0,0.0,0.0916012956777481,0.0,0.0,0.0,0.5044580525411335,0.5465722122774775,1.037513893519649,0.014885328926067589,0.014321023600874987,0.12266326677092189
9161,11.0,300.99768,-6731.2721,0.0,0.0,0.09161130009812224,0.0,0.0,0.0,0.4831366663843766,0.5393658458437646,1.0236361161750192,-0.013199040619393887,0.0034510504017921566,0.1176861214847159
9162,11.0,300.06707,-6775.9628,0.0,0.0,0.0916213045184966,0.0,0.0,0.0,0.5056346689547565,0.5407673733820845,1.013321432807039,0.0034667761446691664,-0.006685882047520183,0.1070996945724169
9163,11.0,299.7637,-6938.1593,0.0,0.0,0.09163130893887073,0.0,0.0,0.0,0.5243701597963055,0.5369428406146325,1.047714180951339,0.004746070561150696,0.008413187022216913,0.10606310932261391
9164,11.0,299.96872,-7046.5041,0.0,0.0,0.09164131335924486,0.0,0.0,0.0,0.5456371141576906,0.5603424837864975,1.035981656718429,0.030899485338041772,0.015680632982557983,0.11039744874537989
9165,11.0,298.98839,-7061.9322,0.0,0.0,0.09165131777961899,0.0,0.0,0.0,0.5489782354349335,0.5545604227533525,1.043112404297179,-0.014650812190422587,0.0005579617006890325,0.10676840231972089
9166,11.0,300.25829,-6868.2259,0.0,0.0,0.09166128929071538,0.0,0.0,0.0,0.5062545449684335,0.5500561612888165,1.0314585082720291,-0.02172834488717068,-0.016300101669694787,0.10750238042715889
9167,11.0,300.57833,-6809.9939,0.0,0.0,0.09167129371108973,0.0,0.0,0.0,0.5057055761967546,0.5509155189636284,1.0134469744944292,-0.019031407493503683,-0.002526937939589357,0.10809992440863189
9168,11.0,299.98852999999997,-6950.3739,0.0,0.0,0.09168129813146386,0.0,0.0,0.0,0.5331719290424725,0.5483399891969435,1.031228196524299,0.012050073774499688,0.013518439342416089,0.1058044671020879
9169,11.0,300.4443,-6869.0132,0.0,0.0,0.09169130255183822,0.0,0.0,0.0,0.5131133463528444,0.5461793245512024,1.028715842901349,-0.003555660773916397,-0.002031559560399318,0.1036339131353709
9170,11.0,300.29612000000003,-6711.2852,0.0,0.0,0.09170130697221235,0.0,0.0,0.0,0.5042200400926435,0.5314873196912145,1.004355780489698,0.002106133045234148,-0.024236753927481376,0.11357820292929588
9171,11.0,299.60236000000003,-6780.9267,0.0,0.0,0.09171131139258648,0.0,0.0,0.0,0.5124783121176716,0.5146043236099925,1.0341498018626392,0.004936821377276335,0.00920151819549414,0.11380609300928689
9172,11.0,299.96567000000005,-6958.9839,0.0,0.0,0.09172131581296039,0.0,0.0,0.0,0.5229239479285755,0.5499370942695655,1.042496246911369,0.027497115118753974,0.016160533561170486,0.10990262805904491
9173,11.0,299.56718,-7083.0958,0.0,0.0,0.09173132023333452,0.0,0.0,0.0,0.5456440751858775,0.5454019185444785,1.0620382949650191,-0.0024090568282553976,0.003037880042965417,0.0984414775341674
9174,11.0,299.02301,-7006.0828,0.0,0.0,0.09174129174443135,0.0,0.0,0.0,0.5363691992030185,0.5531403426057014,1.040164657106259,-0.01213332341596579,-0.015084035376678386,0.098458881117885
9175,11.0,299.44565,-6899.0505,0.0,0.0,0.09175129616480548,0.0,0.0,0.0,0.5168660903507115,0.5620316324982034,1.018241369992599,-0.016676438968836384,-0.004720489035875995,0.1175792033341639
9176,11.0,299.81549,-6872.7104,0.0,0.0,0.09176130058517962,0.0,0.0,0.0,0.5344255524636955,0.5429570575106896,1.011749740046925,0.0003986026290915166,0.01666899158060138,0.1078857841324979
9177,11.0,299.94602000000003,-6869.4890000000005,0.0,0.0,0.09177130500555375,0.0,0.0,0.0,0.5166475424366426,0.5594662554975204,1.012039337058006,-0.013145927062401986,-0.0017424681611182184,0.13327665626838187
9178,11.0,300.08291,-6896.4428,0.0,0.0,0.0917813094259281,0.0,0.0,0.0,0.5154841793343274,0.5481586984890515,1.032703488669899,-0.004926345080517405,-0.014208571078276786,0.1119472046408289
9179,11.0,300.03226,-6717.8751,0.0,0.0,0.09179131384630201,0.0,0.0,0.0,0.48725015781534653,0.5386398521471145,1.016176264963789,-0.004087883966492736,0.004835999040650946,0.13242364153919586
9180,11.0,299.91458,-6637.0969,0.0,0.0,0.09180131826667615,0.0,0.0,0.0,0.4778224533199045,0.5359990386764865,1.0036902271615131,0.018246683794557482,0.007459168888612654,0.1148507639948879
9181,11.0,300.48672,-6795.2482,0.0,0.0,0.09181128977777298,0.0,0.0,0.0,0.5078597459093545,0.5272067027887505,1.030519326754339,0.009319967638809191,-0.004761383911237006,0.1083328199441169
9182,11.0,300.50965,-6963.8914,0.0,0.0,0.09182129419814711,0.0,0.0,0.0,0.5348934814923765,0.5437366926676335,1.0382189129392292,-0.006431440761908784,-0.022042463563921776,0.09634609152611891
9183,11.0,300.49829,-6939.97,0.0,0.0,0.09183129861852124,0.0,0.0,0.0,0.5090211838364795,0.5666610607475925,1.033895374762529,0.012495799453739388,0.000878481220176846,0.12240671184560187
9184,11.0,300.19857,-6996.8659,0.0,0.0,0.09184130303889537,0.0,0.0,0.0,0.5346893115972265,0.5586177902612834,1.033565460529969,-0.0007773950433579174,0.018345490878058982,0.1130368335333669
9185,11.0,299.98904,-7017.5698,0.0,0.0,0.0918513074592695,0.0,0.0,0.0,0.5329429953148785,0.5692057674462354,1.031017237853479,-0.0035183276753069067,0.006330822088553494,0.1028367284866949
9186,11.0,300.2136,-6950.1651,0.0,0.0,0.09186131187964364,0.0,0.0,0.0,0.5348549070610695,0.5431615820433744,1.034660175938009,-0.02155331403839648,-0.01870329887262188,0.10821606313509388
9187,11.0,300.08898999999997,-6928.6266,0.0,0.0,0.09187131630001777,0.0,0.0,0.0,0.5271952631951216,0.5508885563784675,1.028045679285209,-0.005535462201982585,0.016645217693505084,0.0964832501259054
9188,11.0,299.86999,-6874.1102,0.0,0.0,0.0918813207203919,0.0,0.0,0.0,0.5198085078461055,0.5490623250607325,1.020686950433959,0.01124428561922459,0.02055831662569788,0.1048668561220529
9189,11.0,299.92246,-6804.0183,0.0,0.0,0.09189129223148873,0.0,0.0,0.0,0.4963065568116435,0.5291049559235935,1.042840143995309,0.00016947678927855685,0.0018968943664588983,0.10106575678966359
9190,11.0,299.88235,-6832.0184,0.0,0.0,0.09190129665186264,0.0,0.0,0.0,0.5087034286051195,0.5474403143006525,1.0206192653272792,-0.0034895321207150066,-0.02143055878878148,0.10720035083735091
9191,11.0,300.07615,-6887.9483,0.0,0.0,0.091911301072237,0.0,0.0,0.0,0.5099584705764825,0.5455482419914195,1.038257619093049,0.002517681291975797,-0.01043133479899259,0.10896928286193089
9192,11.0,300.25715,-6949.06,0.0,0.0,0.09192130549261113,0.0,0.0,0.0,0.5221027289875275,0.5596406561047325,1.030597347012039,0.01151585893752679,0.013661691628303987,0.11112470900465489
9193,11.0,300.42,-6916.3934,0.0,0.0,0.09193130991298526,0.0,0.0,0.0,0.5295335303183905,0.5534535888741164,1.0194237315342891,-0.00024865218249005977,-0.0026368105247829374,0.12028610097631388
9194,11.0,300.21462,-6953.7265,0.0,0.0,0.09194131433335939,0.0,0.0,0.0,0.5460429005577385,0.5387051358510575,1.029011205305499,-0.003482559237501837,-0.012770208859071487,0.1057985699865059
9195,11.0,299.89545,-6940.3071,0.0,0.0,0.09195131875373352,0.0,0.0,0.0,0.5097910715274615,0.5698935818791174,1.0299953751276292,-0.0002841420981076418,-0.00048262935232430855,0.13623954141579586
9196,11.0,299.52271,-6828.028,0.0,0.0,0.09196132317410766,0.0,0.0,0.0,0.5131549301369486,0.5446366208764495,1.017758454994939,0.016121635903081584,0.013296813174543287,0.1183100302337909
9197,11.0,299.69003,-6802.2239,0.0,0.0,0.09197129468520426,0.0,0.0,0.0,0.49377450560674957,0.5456753744814665,1.0282563339809991,-0.007345479896917424,-0.0007228566034128923,0.12933284369915787
9198,11.0,299.42188,-6791.4099,0.0,0.0,0.0919812991055784,0.0,0.0,0.0,0.5124791936452585,0.5357160581885585,1.016223786393479,-0.02005786733505738,-0.015724169299604684,0.09975323921962821
9199,11.0,299.96479,-6772.4835,0.0,0.0,0.09199130352595253,0.0,0.0,0.0,0.4957579325449985,0.5434962281539014,1.019411673858099,-0.015873428132085383,-0.0023655025766819277,0.11814259065476589
9200,11.0,299.94592,-6784.9409,0.0,0.0,0.09200130794632688,0.0,0.0,0.0,0.5031731196918205,0.5366775210759475,1.022601993122959,-0.0010492483429277492,0.016517756910425684,0.10516054666353791
9201,11.0,300.32747,-6946.3083,0.0,0.0,0.09201131236670101,0.0,0.0,0.0,0.5038854953071266,0.5666761885715854,1.040942630533039,0.004645071817682896,0.0035649571409338767,0.11674907792473689
9202,11.0,300.35632999999996,-7034.1759999999995,0.0,0.0,0.09202131678707515,0.0,0.0,0.0,0.5466876113313665,0.5477219471659475,1.0438043527904688,0.0013966354655121887,0.0005199138149289985,0.10268382904660489
9203,11.0,300.30855,-7036.7654,0.0,0.0,0.09203132120744928,0.0,0.0,0.0,0.5262256740419305,0.5706892061226395,1.042086083270889,0.007836123763690202,0.008532102459252951,0.1129567259804609
9204,11.0,299.8206,-6980.7480000000005,0.0,0.0,0.09204129271854589,0.0,0.0,0.0,0.5464656892944645,0.5470514086472705,1.028455944250699,0.02048935482389188,0.00930496434325348,0.1037328570076359
9205,11.0,299.54606,-6792.7,0.0,0.0,0.09205129713892002,0.0,0.0,0.0,0.5046203549421515,0.5190926466504555,1.041098164423389,-0.0030581402826899474,-0.003898373571139517,0.09590928346100931
9206,11.0,299.44284,-6811.7954,0.0,0.0,0.09206130155929415,0.0,0.0,0.0,0.5067956002568316,0.5428485181599775,1.020971572387049,-0.005685290075719444,-0.016156773390049384,0.1036482607567869
9207,11.0,299.33641,-6952.96,0.0,0.0,0.09207130597966828,0.0,0.0,0.0,0.5284071913747295,0.5333891495989105,1.051729893747659,-0.0077912776182392325,0.009333514387346151,0.10700327369290089
9208,11.0,299.50817,-6925.0404,0.0,0.0,0.09208131040004242,0.0,0.0,0.0,0.5243699470137845,0.5386924702248075,1.0419769562351189,0.0006127949660156544,0.018713428333871584,0.11104444946423389
9209,11.0,300.07835,-6750.2106,0.0,0.0,0.09209131482041677,0.0,0.0,0.0,0.4908480164029275,0.5400134646451795,1.021033988593209,-0.009270935959845142,-0.004606323816633766,0.12702698031408688
9210,11.0,299.91303999999997,-6869.5604,0.0,0.0,0.0921013192407909,0.0,0.0,0.0,0.5193775219160706,0.5348583217139065,1.0339389445168292,-0.003483838161778057,-0.005751739523902495,0.1123457260376599
9211,11.0,300.67911000000004,-6959.156999999999,0.0,0.0,0.09211132366116503,0.0,0.0,0.0,0.5231533376187145,0.5691958882577605,1.023060691443229,0.01124072505837319,0.003983079759624366,0.13071633538569788
9212,11.0,300.22874,-6964.7667,0.0,0.0,0.09212129517226164,0.0,0.0,0.0,0.5339699344237295,0.5573542876515855,1.025790893837679,0.008588578284051681,0.014768787939315884,0.10977153376110689
9213,11.0,299.83353,-6941.3361,0.0,0.0,0.09213129959263577,0.0,0.0,0.0,0.5128340844927836,0.5605069545427295,1.0366518203345692,0.005473394452531975,-0.01773841119989488,0.11573733756738588
9214,11.0,299.92465,-6817.4186,0.0,0.0,0.0921413040130099,0.0,0.0,0.0,0.5230444031004635,0.5372773144726425,1.012003295751949,-0.001079027966016769,-0.01974078388851368,0.1062375099298259
9215,11.0,300.16492999999997,-6861.0554,0.0,0.0,0.09215130843338404,0.0,0.0,0.0,0.5046782419203646,0.5505600201660434,1.030351228562749,0.008261485345070122,0.0001147102059410159,0.1190123544081049
9216,11.0,300.09108,-6867.5402,0.0,0.0,0.09216131285375817,0.0,0.0,0.0,0.5372938507142745,0.5338917520460135,1.0163751659584188,-0.005007370638014005,0.015022511843856485,0.11899967864935389
9217,11.0,300.31933,-6862.9228,0.0,0.0,0.09217131727413252,0.0,0.0,0.0,0.5051507711044995,0.5482659510121365,1.032740472298549,-0.013620835357771786,-0.0003424320864154156,0.12001436756449588
9218,11.0,299.72514,-6830.3744,0.0,0.0,0.09218132169450666,0.0,0.0,0.0,0.5099924955148405,0.5333480015123495,1.032922755991539,-0.025906254706498273,-0.0061350555831078445,0.11663957598642989
9219,11.0,299.82183,-6829.724,0.0,0.0,0.09219132611488079,0.0,0.0,0.0,0.5079229929805965,0.5452668725711505,1.022875671974969,0.004358867066611686,0.01169918830461999,0.11697992669501989
9220,11.0,299.88217000000003,-6939.1712,0.0,0.0,0.0922012976259774,0.0,0.0,0.0,0.5250848152243365,0.5549677492935525,1.0292822497072491,-0.002230168029725448,0.020581154269701783,0.11647747623543189
9221,11.0,299.81188,-7041.4633,0.0,0.0,0.0922113020463513,0.0,0.0,0.0,0.5395965831565365,0.5537135685847745,1.047118896517589,-0.0023738922875099276,-0.008671227473508522,0.1079009626189959
9222,11.0,300.2081,-6990.0325,0.0,0.0,0.09222130646672566,0.0,0.0,0.0,0.5341427138307815,0.5639240087824664,1.0267286568052292,-0.012083250622523987,-0.015149401153879484,0.10168817910084191
9223,11.0,299.96679,-6873.5475,0.0,0.0,0.0922313108870998,0.0,0.0,0.0,0.5181960317694666,0.5426040715733524,1.028586653513599,0.011518862210823188,0.004295163931499675,0.0987926487405753
9224,11.0,299.68146,-6946.5455,0.0,0.0,0.09224131530747415,0.0,0.0,0.0,0.5242407778910365,0.5611579474669774,1.026177651400849,0.020052894303566583,0.018701523658446684,0.1029154580194649
9225,11.0,300.4071,-6853.7461,0.0,0.0,0.09225131972784828,0.0,0.0,0.0,0.5098519374609685,0.5398328629473554,1.033682896216559,0.008660203109770502,0.0008434160083386791,0.1029785936331959
9226,11.0,300.56892,-6875.3756,0.0,0.0,0.09226132414822219,0.0,0.0,0.0,0.5211548335189775,0.5382392333225765,1.030548407032209,-0.0075257953515881736,-0.02032086754426348,0.11555914740479989
9227,11.0,300.49841000000004,-6868.8063,0.0,0.0,0.09227129565931902,0.0,0.0,0.0,0.49229912226864053,0.5483775402456494,1.047268958857399,0.0015553791295289687,-0.007159946204231673,0.11706389473080689
9228,11.0,300.68799,-6824.2805,0.0,0.0,0.09228130007969293,0.0,0.0,0.0,0.5307904062724345,0.5339873521929485,1.009633121383031,-0.002859777931813107,0.014946497821354486,0.12760382359601688
9229,11.0,299.80893,-6975.3991,0.0,0.0,0.09229130450006728,0.0,0.0,0.0,0.5117087385342205,0.5550404398557265,1.0535980229570292,0.0004702062272207415,0.004196816255593517,0.11475893313832489
9230,11.0,299.87356,-6999.0396,0.0,0.0,0.09230130892044142,0.0,0.0,0.0,0.5506865244410285,0.5500165432099064,1.026830184465249,-0.021288564959517777,0.004082042883641266,0.1070511700251279
9231,11.0,299.90147,-6940.5242,0.0,0.0,0.09231131334081577,0.0,0.0,0.0,0.5135006713360706,0.5582686141443225,1.037976746165329,-0.0013198422536832887,0.011260740800848589,0.10943205444760289
9232,11.0,299.21034,-6886.2724,0.0,0.0,0.0923213177611899,0.0,0.0,0.0,0.5245328573648624,0.5459541905114835,1.022767862164329,0.003788744976570017,0.02259893038634078,0.1090593810608229
9233,11.0,299.28623,-6861.9005,0.0,0.0,0.09233132218156381,0.0,0.0,0.0,0.49564177355353456,0.5578289750584334,1.032375702262549,0.006934854619691864,0.004438238493320036,0.11381299324246788
9234,11.0,300.34146,-6787.4077,0.0,0.0,0.09234132660193795,0.0,0.0,0.0,0.5165653374560295,0.5376678818561885,1.0089692601825129,-0.01156646774027149,-0.017148936742218287,0.10629894328338889
9235,11.0,300.00196,-6889.4436,0.0,0.0,0.09235129811303455,0.0,0.0,0.0,0.4950244711951115,0.5621931445641434,1.0370011889690491,0.006356605757223145,-0.007387469994311523,0.13056795504105387
9236,11.0,300.45801,-6895.7134,0.0,0.0,0.0923613025334089,0.0,0.0,0.0,0.5267863458522645,0.5538180954650905,1.0155202868490492,0.002008771565650318,0.0039053498994030262,0.1201550978708849
9237,11.0,300.22386,-6821.0927,0.0,0.0,0.09237130695378304,0.0,0.0,0.0,0.5043967103800795,0.5360097791275465,1.033035328077649,0.00989349728893716,-0.002091185478433938,0.12761926552754088
9238,11.0,299.99679,-6877.5149,0.0,0.0,0.09238131137415717,0.0,0.0,0.0,0.5159412361894354,0.5428960091921645,1.0317555932013491,-0.017257098150642983,-0.014394085012585586,0.1177850653569809
9239,11.0,299.89114,-6939.8647,0.0,0.0,0.0923913157945313,0.0,0.0,0.0,0.5185397768658916,0.5475849152224235,1.0434208376276188,-0.012018807916163988,0.007301911358517543,0.1117739895362339
9240,11.0,300.41741,-6997.4902,0.0,0.0,0.09240132021490566,0.0,0.0,0.0,0.5359501290941595,0.5549848428227395,1.0361273620828089,-0.0033270529075545567,0.024369375193320077,0.1062389690099699
9241,11.0,300.26082,-6979.357,0.0,0.0,0.09241132463527957,0.0,0.0,0.0,0.5331328175886124,0.5452179021938175,1.043199543805779,-0.005610442405407555,0.008368705950776972,0.10003845291077659
9242,11.0,300.78966,-6958.5724,0.0,0.0,0.0924213290556537,0.0,0.0,0.0,0.5449699294968445,0.5461351265818405,1.024127238498489,-0.002264267036665758,0.002086889095359918,0.10002982305967491
9243,11.0,300.96412000000004,-6979.3146,0.0,0.0,0.09243130056675053,0.0,0.0,0.0,0.5193705912853865,0.5618862209763524,1.0402805729176992,0.0016838239811054884,0.0025589913972277876,0.10017518189252071
9244,11.0,300.10577,-7004.1522,0.0,0.0,0.09244130498712466,0.0,0.0,0.0,0.5356886599058545,0.5557013930284574,1.037697291787749,0.006822120210915843,0.007099073481949002,0.11540480914956788
9245,11.0,299.62835,-6915.56,0.0,0.0,0.0924513094074988,0.0,0.0,0.0,0.5046646745015255,0.5563903220364496,1.041102521398819,0.003983170850808356,-0.011578568986215789,0.1118236083936309
9246,11.0,299.60267999999996,-6787.5543,0.0,0.0,0.09246131382787293,0.0,0.0,0.0,0.5118128905119995,0.5369740791152154,1.0144600219444089,0.007682474214551174,-0.013252540224673886,0.11216827554764688
9247,11.0,299.728,-6776.9395,0.0,0.0,0.09247131824824706,0.0,0.0,0.0,0.48915999239883257,0.5437055149620565,1.027154829797289,0.0009991368737296321,-0.01268886615429359,0.12980119829288086
9248,11.0,299.70009,-6867.9369,0.0,0.0,0.09248132266862119,0.0,0.0,0.0,0.5229596852596025,0.5476013400065445,1.017120310081959,0.005195331773964325,0.004925668938725675,0.11656223460629689
9249,11.0,299.8933,-7006.3625,0.0,0.0,0.09249132708899532,0.0,0.0,0.0,0.5223769752595935,0.5557504647308005,1.051631811137979,-0.008719169604640042,0.0043715939944927356,0.1246739400043599
9250,11.0,299.80456000000004,-6960.0236,0.0,0.0,0.09250133150936946,0.0,0.0,0.0,0.5331565073759504,0.5444085990739455,1.038108266028309,-0.00859081310847224,-0.0027887346103266774,0.1054036253625279
9251,11.0,299.74127000000004,-6867.1188,0.0,0.0,0.09251130302046606,0.0,0.0,0.0,0.5062795722459035,0.5578441434124304,1.0233089377177291,0.0022963523103573277,0.009581127583183672,0.12439910604723589
9252,11.0,300.24645,-6967.8457,0.0,0.0,0.0925213074408402,0.0,0.0,0.0,0.5311235223753105,0.5569456945487605,1.029981898901299,-0.002576065472012868,0.013290553315425488,0.10550811171283989
9253,11.0,300.17356,-7041.55,0.0,0.0,0.09253131186121455,0.0,0.0,0.0,0.5241283881899444,0.5611315826993755,1.0551954117396791,0.003649279510280846,-0.0027520331718295277,0.1119118928748439
9254,11.0,300.45338,-6911.0303,0.0,0.0,0.09254131628158868,0.0,0.0,0.0,0.5219404569840126,0.5534195234057545,1.0254206522511389,-0.002018257106461468,-0.01047418311922139,0.10406800974321291
9255,11.0,300.40724,-6738.7809,0.0,0.0,0.09255132070196281,0.0,0.0,0.0,0.4859149880260756,0.5309115200568875,1.031594587760459,0.006167906164599944,0.004807738279461826,0.11385452636406689
9256,11.0,300.42075,-6705.991,0.0,0.0,0.09256132512233695,0.0,0.0,0.0,0.5021047487863806,0.5348702983300885,1.0014787784207602,-0.005582708635595444,0.006102012889396785,0.1160541707411549
9257,11.0,300.2287,-6771.6248,0.0,0.0,0.09257132954271086,0.0,0.0,0.0,0.49908823231117355,0.5315873173435836,1.027729342603989,-0.01010785875756799,-0.002325335721517768,0.10190976676521091
9258,11.0,300.1216,-6921.6598,0.0,0.0,0.09258130105380791,0.0,0.0,0.0,0.5418748253438815,0.5329643242294835,1.029172616046429,-0.006375400026702994,-0.013916228159424787,0.1062919417251979
9259,11.0,299.45659,-6956.2855,0.0,0.0,0.09259130547418182,0.0,0.0,0.0,0.5172191370830546,0.5475065909896935,1.049811406008319,0.002075591154094898,-0.004894220492721956,0.10383889363060089
9260,11.0,299.69042,-6880.1131,0.0,0.0,0.09260130989455595,0.0,0.0,0.0,0.5323742985637525,0.5368176535647775,1.0221906135823589,0.007432067184212923,-0.002633656581196668,0.11587389328336288
9261,11.0,299.10942,-6943.6989,0.0,0.0,0.09261131431493008,0.0,0.0,0.0,0.5243015526320345,0.5358546708022385,1.050554827606689,0.01003048515608181,-0.01044292739338669,0.1014317052355299
9262,11.0,299.34966000000003,-7053.7096,0.0,0.0,0.09262131873530444,0.0,0.0,0.0,0.5479282347538065,0.5636487289952985,1.0325746032571792,-0.0007346297691073133,-0.0003249148059040947,0.1086117170341419
9263,11.0,299.6867,-7016.6757,0.0,0.0,0.09263132315567857,0.0,0.0,0.0,0.5241460694041895,0.5612457354556415,1.047502411680439,0.003730774709198796,0.00841499891604573,0.10072834045336321
9264,11.0,299.99422999999996,-6896.8993,0.0,0.0,0.0926413275760527,0.0,0.0,0.0,0.5194181735100826,0.5595247605582945,1.017542227423599,-0.006504581815077243,0.012391657608461388,0.1168972961493649
9265,11.0,299.54415,-6807.9742,0.0,0.0,0.09265133199642683,0.0,0.0,0.0,0.48930134078778253,0.5531570004373455,1.026995850856599,-0.004269487869990646,0.00946711455410646,0.11200225451876189
9266,11.0,300.0785,-6809.6635,0.0,0.0,0.09266130350752344,0.0,0.0,0.0,0.5155103009219055,0.5399975971486135,1.014459717969379,-0.0002270067893488258,-0.005584545860676765,0.11376883580310991
9267,11.0,299.74945,-6936.8774,0.0,0.0,0.09267130792789757,0.0,0.0,0.0,0.5009419429716204,0.5626913393733114,1.045004243558889,0.008502777886783842,-0.007000183818564353,0.11745714722711789
9268,11.0,300.50755,-6885.0051,0.0,0.0,0.0926813123482717,0.0,0.0,0.0,0.5270679989825615,0.5437982678762106,1.0220033649638791,-0.0013238216921260288,-0.003660189579407587,0.1168841644280689
9269,11.0,300.2862,-6844.1059,0.0,0.0,0.09269131676864584,0.0,0.0,0.0,0.5084164964418015,0.5335765502049055,1.038444259761469,-0.007000296795950504,-0.008750317520664101,0.12084694503916489
9270,11.0,300.09623,-6930.4811,0.0,0.0,0.09270132118901997,0.0,0.0,0.0,0.5347825711364305,0.5464119870391645,1.025498672508839,-0.012302659799177988,-0.005504520178378844,0.11402102362049889
9271,11.0,300.33223,-7005.0815,0.0,0.0,0.09271132560939432,0.0,0.0,0.0,0.5263823934348976,0.5490935534288145,1.0538938919862288,-0.003516140372316036,0.013922661284309686,0.11686368664354789
9272,11.0,300.24275,-6997.5529,0.0,0.0,0.09272133002976846,0.0,0.0,0.0,0.5356624268607655,0.5575507365809734,1.033868219659849,0.010609938367619389,0.008006246834280042,0.10572492696923791
9273,11.0,299.69403,-6866.9749,0.0,0.0,0.09273133445014259,0.0,0.0,0.0,0.4953802233052216,0.5490908581835485,1.0429178602779792,0.002944893372013347,-0.002677822227880477,0.1053192418941999
9274,11.0,299.45302999999996,-6794.5313,0.0,0.0,0.0927413059612392,0.0,0.0,0.0,0.5148193859437175,0.5394058084277086,1.011142661382011,0.018075756608688282,0.0031685972092161973,0.08848711603424841
9275,11.0,299.39812,-6935.9003,0.0,0.0,0.09275131038161333,0.0,0.0,0.0,0.5099267963783565,0.5572293235167525,1.041184392006899,-0.01225664912538709,0.005668083569146295,0.0984010498684275
9276,11.0,299.59483,-6981.828,0.0,0.0,0.09276131480198746,0.0,0.0,0.0,0.5328504855807484,0.5508173046314355,1.038633534880149,-0.0013734787490517985,-0.007349193458533924,0.1057933416159899
9277,11.0,300.38492,-6972.3385,0.0,0.0,0.09277131922236159,0.0,0.0,0.0,0.5228022667240665,0.5559243891104655,1.040690128608119,-0.014249054472772187,-0.005293083253511645,0.1116356099700769
9278,11.0,299.9474,-7071.0256,0.0,0.0,0.09278132364273572,0.0,0.0,0.0,0.5425340255939395,0.5589929562433095,1.0478882573185189,0.004600096888144215,0.0002844669663547037,0.11641316525158489
9279,11.0,299.74003,-7003.6433,0.0,0.0,0.09279132806311008,0.0,0.0,0.0,0.5312314841734654,0.5498980436107115,1.0478031443101188,-0.01160794108011459,0.01002696735438463,0.11563518169230388
9280,11.0,300.05199,-6968.5613,0.0,0.0,0.09280133248348421,0.0,0.0,0.0,0.5407443928698165,0.5483231692452835,1.029201088374239,-0.006329396546987804,0.003841235891375466,0.11028441056422389
9281,11.0,300.19822,-7012.5714,0.0,0.0,0.09281130399458082,0.0,0.0,0.0,0.5255442734821816,0.5532434306708754,1.052858857009079,-0.016849134276130086,0.008134023650065632,0.09516026770883722
9282,11.0,299.88237999999996,-6926.7428,0.0,0.0,0.09282130841495473,0.0,0.0,0.0,0.5265881541327044,0.5506140162638725,1.028354720565709,0.011472726907269989,0.00971893729748443,0.1061182807905589
9283,11.0,300.16172,-6854.9846,0.0,0.0,0.09283131283532886,0.0,0.0,0.0,0.5013041900148715,0.5544224991497405,1.028017409607419,0.007881673712660632,0.01127368405762599,0.12015102460548288
9284,11.0,299.78168999999997,-6936.51,0.0,0.0,0.09284131725570322,0.0,0.0,0.0,0.5203382552633875,0.5663088144828284,1.0218787352015792,0.004368686574655796,-0.0068712633473908945,0.1178859242719349
9285,11.0,299.28501,-6911.5223,0.0,0.0,0.09285132167607735,0.0,0.0,0.0,0.5036802108368665,0.5646600437876075,1.032590004658699,-0.0004226507219298786,-0.008117758452835383,0.1255815689139359
9286,11.0,300.05834,-6819.0592,0.0,0.0,0.0928613260964517,0.0,0.0,0.0,0.5159301411008406,0.5483728590301875,1.008520724760746,0.002927382586435167,-0.013472221965604788,0.11454786300999388
9287,11.0,299.99052,-6917.8038,0.0,0.0,0.09287133051682583,0.0,0.0,0.0,0.5067737545846756,0.5589007302192075,1.0371651328352292,-0.004657228893707705,0.00968871620132684,0.13489843398093887
9288,11.0,299.71432999999996,-6932.2343,0.0,0.0,0.09288133493719974,0.0,0.0,0.0,0.5318000998645835,0.5421108518221754,1.033315187755269,-0.01104386170969429,0.0004425067255270136,0.1156852362472439
9289,11.0,300.39897,-6836.092,0.0,0.0,0.09289130644829657,0.0,0.0,0.0,0.5106377838410255,0.5357621914656115,1.031601275211119,-0.010861452373691889,0.0057885298244334145,0.12478257054758088
9290,11.0,300.46326,-6919.9865,0.0,0.0,0.09290131086867048,0.0,0.0,0.0,0.5291994820254226,0.5454760580542956,1.0288276043873792,-0.003891765559287356,0.0038084397214137363,0.1094871651205419
9291,11.0,300.35877999999997,-6982.5868,0.0,0.0,0.09291131528904484,0.0,0.0,0.0,0.5264813069096594,0.5521257144855655,1.043925030877379,0.01085709843801219,0.020428060285592582,0.1066685363898649
9292,11.0,300.37515,-6964.1655,0.0,0.0,0.09292131970941897,0.0,0.0,0.0,0.5309243883331575,0.5520185835524926,1.033989404371809,0.013608396699544187,-0.0013849861291124884,0.08844899047273573
9293,11.0,299.85679,-7046.6246,0.0,0.0,0.09293132412979332,0.0,0.0,0.0,0.5130400073106065,0.5671302462063974,1.061827640269229,0.0013572482049749688,-0.00931797295466233,0.09428460886641642
9294,11.0,299.53218,-7059.1217,0.0,0.0,0.09294132855016746,0.0,0.0,0.0,0.5396037164372405,0.5482640359694475,1.057928957859459,0.01142306751986899,-0.013247339211910588,0.09216585325806151
9295,11.0,299.86159,-6935.7603,0.0,0.0,0.09295133297054159,0.0,0.0,0.0,0.5094074550396016,0.5614090713717614,1.0374814695164492,0.005266651408753025,-0.0027098167143630877,0.11369260899808689
9296,11.0,299.83139,-6858.2269,0.0,0.0,0.0929613373909155,0.0,0.0,0.0,0.5265926124331446,0.5386282099034655,1.0195089458676991,-0.005477802293116995,-0.003806114920384296,0.11519452935631488
9297,11.0,299.63451000000003,-6927.4591,0.0,0.0,0.0929713089020121,0.0,0.0,0.0,0.5146073329627896,0.5493977412413354,1.041769543939649,-0.02630879262672568,-0.0029652665891240276,0.1035199326316219
9298,11.0,299.96484,-6910.2139,0.0,0.0,0.09298131332238646,0.0,0.0,0.0,0.5233067538163555,0.5558127289494454,1.021412944130609,-0.014818221371944586,0.0003002612454684777,0.1151178364562459
9299,11.0,300.2495,-6825.1102,0.0,0.0,0.09299131774276059,0.0,0.0,0.0,0.49739332833889954,0.5470442348365624,1.0302254842253389,-0.005501537879359515,0.013753093880074688,0.12707996316181586
9300,11.0,300.48515,-6909.975,0.0,0.0,0.09300132216313473,0.0,0.0,0.0,0.5268920177051936,0.5539264321657825,1.019641377655769,0.012269323870887989,-0.0014774682015147587,0.11963871522242188
9301,11.0,299.75187999999997,-6947.8928,0.0,0.0,0.09301132658350886,0.0,0.0,0.0,0.5210150658001835,0.5515468953659405,1.039423971283159,0.0003921769313298496,-0.011746669204305988,0.11661913873191289
9302,11.0,299.91405,-6877.3902,0.0,0.0,0.09302133100388321,0.0,0.0,0.0,0.5168119625303695,0.5587169671810716,1.015025922125259,0.0040101247220184965,-0.01998677365504098,0.10928851743843689
9303,11.0,299.45535,-6915.4853,0.0,0.0,0.09303133542425712,0.0,0.0,0.0,0.5081211745676555,0.5641465489019295,1.0298670976649689,-0.00037987382570062764,0.007758329764737532,0.1282655063088199
9304,11.0,299.34987,-6903.0983,0.0,0.0,0.09304130693535373,0.0,0.0,0.0,0.5094983233085695,0.5536483659408394,1.035222833718539,0.003254810404574777,0.006232623360412035,0.0998488616580654
9305,11.0,299.52766,-6822.5541,0.0,0.0,0.09305131135572808,0.0,0.0,0.0,0.5020835211967856,0.5516386451624955,1.020163910732339,-0.017662493436152383,0.015152877614972587,0.11289352957172388
9306,11.0,299.25286,-6906.4580000000005,0.0,0.0,0.09306131577610222,0.0,0.0,0.0,0.5298351850056615,0.5448685538243395,1.024687059178739,-0.0035010831718550067,-0.0011806168263428089,0.1010416059735301
9307,11.0,299.82121,-7000.9261,0.0,0.0,0.09307132019647635,0.0,0.0,0.0,0.5273900909243495,0.5599100083788154,1.040806652369619,0.007589316810957253,0.004453084735110246,0.1086839212362679
9308,11.0,299.96927,-6877.2383,0.0,0.0,0.09308132461685048,0.0,0.0,0.0,0.5299841327703615,0.5393974693793855,1.021127106277399,0.019452312598293782,-0.008483767491057663,0.11360938063487289
9309,11.0,300.48785,-6889.7318,0.0,0.0,0.09309132903722461,0.0,0.0,0.0,0.5151363001774945,0.5462252957082395,1.0329448448437188,0.005053171670359216,-0.008968740399670761,0.10604337121066591
9310,11.0,299.88187999999997,-7007.1571,0.0,0.0,0.09310133345759875,0.0,0.0,0.0,0.5346440902452635,0.5476173290931224,1.047739309553819,0.0041027814787380065,-0.012535286823386489,0.1065737063130059
9311,11.0,300.06167999999997,-6995.3203,0.0,0.0,0.09311133787797288,0.0,0.0,0.0,0.5229013220538424,0.5617036839708375,1.0417977122924291,-0.001129313845954599,0.011831856179963289,0.1110354011408409
9312,11.0,299.50744,-6839.8469,0.0,0.0,0.0931213093890697,0.0,0.0,0.0,0.5161210374196805,0.5393605060157375,1.023661143452489,-0.002828996508350217,0.004355142663219116,0.1081455814581379
9313,11.0,300.02272,-6790.7931,0.0,0.0,0.09313131380944362,0.0,0.0,0.0,0.5037944547856416,0.5450290019776745,1.0154081200629792,0.0016300349915969283,0.005720079815252925,0.1062527694763319
9314,11.0,299.82055,-6951.236999999999,0.0,0.0,0.09314131822981775,0.0,0.0,0.0,0.5223397484509196,0.5609337253523485,1.029728991676339,0.013486154154479789,0.003212371133411347,0.1026445352077269
9315,11.0,300.20352,-6959.545999999999,0.0,0.0,0.0931513226501921,0.0,0.0,0.0,0.5093861463899985,0.5637885271115954,1.0423534799722791,0.015780193924133882,0.009080179368193931,0.12907394816610687
9316,11.0,299.85382000000004,-6970.0133,0.0,0.0,0.09316132707056624,0.0,0.0,0.0,0.5099018501608945,0.5715883439963775,1.037219848340629,0.01006641510595282,0.006857517596534294,0.11521012327535389
9317,11.0,299.34272000000004,-6925.1934,0.0,0.0,0.09317133149094037,0.0,0.0,0.0,0.5155906415223346,0.5468859449059406,1.0426092242975191,-0.007734157771676941,-0.0043122708355879955,0.11550132122159289
9318,11.0,299.65777,-6888.1924,0.0,0.0,0.0931813359113145,0.0,0.0,0.0,0.5220015357000405,0.5409256126502014,1.030911353218029,-0.008063987397853592,-0.015330514543003985,0.1095786717370729
9319,11.0,299.45418,-6960.2563,0.0,0.0,0.09319134033168841,0.0,0.0,0.0,0.5274105991063734,0.5571992097237805,1.031134268240029,-0.0023173252702021977,-0.003958419481340587,0.12770092335309988
9320,11.0,299.27452999999997,-6989.8134,0.0,0.0,0.09320131184278546,0.0,0.0,0.0,0.5403717296155375,0.5406112214091735,1.0437457869346891,-0.0021965316727807975,-0.003649664140018807,0.1051922309941649
9321,11.0,299.39076,-6805.6237,0.0,0.0,0.09321131626315937,0.0,0.0,0.0,0.5136160197274545,0.5400875940224955,1.0150360546262591,-0.00045580664633961356,-0.008497976499859982,0.12714749628098088
9322,11.0,299.6215,-6828.0484,0.0,0.0,0.0932213206835335,0.0,0.0,0.0,0.5125634555235745,0.5410719360971424,1.021920785080729,0.008329776780609961,0.002235738980100258,0.1079821948795129
9323,11.0,300.48854,-7001.9206,0.0,0.0,0.09323132510390764,0.0,0.0,0.0,0.5230504015410555,0.5629843307722274,1.042374251599329,0.014555788582794486,0.023266206239695775,0.1115611664852299
9324,11.0,300.73039,-6944.8730000000005,0.0,0.0,0.09324132952428199,0.0,0.0,0.0,0.5199959185846016,0.5567650928509366,1.0343069569531491,-0.0018642375183859183,0.016890009798414183,0.1049546745082199
9325,11.0,300.38462999999996,-6853.7478,0.0,0.0,0.09325133394465612,0.0,0.0,0.0,0.4965134523495625,0.5496652797977395,1.0371894508376291,-0.00986061641126707,0.0053230655266206656,0.10457675248592191
9326,11.0,300.09185,-6903.1731,0.0,0.0,0.09326133836503026,0.0,0.0,0.0,0.5258916358814635,0.5375044344825575,1.0349961696711691,-0.01283436076265279,-0.008624012146673733,0.1048074188711869
9327,11.0,300.05575,-6958.0738,0.0,0.0,0.09327130987612686,0.0,0.0,0.0,0.5187528329644184,0.5501809126411285,1.046146885696659,0.01799627119134368,0.004163402104395796,0.11501096896819889
9328,11.0,299.46425,-6940.3006,0.0,0.0,0.093281314296501,0.0,0.0,0.0,0.5309643002545965,0.5470514795747774,1.031662272867139,0.005217622364239235,-0.009698448772512372,0.11775626878913889
9329,11.0,299.78528,-6926.9805,0.0,0.0,0.09329131871687513,0.0,0.0,0.0,0.5342713155334734,0.5371662825266844,1.034191446441749,-0.008598953559775642,-0.013884812340074288,0.0981199742906875
9330,11.0,299.5307,-6923.1909,0.0,0.0,0.09330132313724926,0.0,0.0,0.0,0.5356365991157165,0.5378928132458876,1.0309477288966191,-0.012332620591384888,-0.01039038226970089,0.10810772643440189
9331,11.0,300.20875,-6827.4341,0.0,0.0,0.09331132755762339,0.0,0.0,0.0,0.5148266205494315,0.5359271384493904,1.024615726371699,0.004872828452635726,0.01001489640461832,0.12099729108900288
9332,11.0,300.05498,-6934.0779,0.0,0.0,0.09332133197799752,0.0,0.0,0.0,0.5204145023334125,0.5612169490203005,1.026155055923619,0.017814248916879483,0.012724596392569888,0.1153606821077129
9333,11.0,300.47012,-6966.6756,0.0,0.0,0.09333133639837188,0.0,0.0,0.0,0.5272671228922136,0.5513241424639564,1.039104189551599,-0.007297726534279533,-0.0031464927529846567,0.11817727420568888
9334,11.0,300.3189,-6935.0789,0.0,0.0,0.09334134081874601,0.0,0.0,0.0,0.5143415169315555,0.5661198332066775,1.0276294361441292,-0.007801544172227462,-0.005058042870214965,0.11155123663424989
9335,11.0,300.94727,-6890.46,0.0,0.0,0.09335131232984262,0.0,0.0,0.0,0.5030948562540966,0.5615655475847044,1.0298674016399991,-0.006250411371217574,-0.004312333555769186,0.11892212448669989
9336,11.0,300.37135,-6917.8821,0.0,0.0,0.09336131675021675,0.0,0.0,0.0,0.5071097179203325,0.5517098259820206,1.044043885114109,0.001155484474837439,0.0007124234812407234,0.11340482570468488
9337,11.0,300.08427,-6867.5265,0.0,0.0,0.09337132117059088,0.0,0.0,0.0,0.4954317166753035,0.5563604919535055,1.035764415896989,-0.007905832938769963,-0.006205059613966704,0.11610078024575488
9338,11.0,299.62827999999996,-6878.4345,0.0,0.0,0.09338132559096501,0.0,0.0,0.0,0.5145305083402075,0.5374246005071784,1.038917244908149,-0.006851333325873953,0.000935048440134596,0.1138632403149269
9339,11.0,300.1528,-7017.3752,0.0,0.0,0.09339133001133915,0.0,0.0,0.0,0.5326602681394755,0.5618134797516735,1.038633129580109,-0.0024643533312627376,0.012945008686822888,0.12019299342462489
9340,11.0,299.66488,-6966.2636,0.0,0.0,0.09340133443171328,0.0,0.0,0.0,0.5534481578535805,0.5392188840492604,1.024903185425069,-0.004270788173843976,0.018497444955805683,0.11659282462681587
9341,11.0,299.8972,-6942.6035,0.0,0.0,0.09341133885208763,0.0,0.0,0.0,0.5297051343553265,0.5535528975164175,1.027120075318859,0.011186664112537789,-0.001018965337189049,0.11061378777423089
9342,11.0,299.95036,-7016.7781,0.0,0.0,0.09342134327246177,0.0,0.0,0.0,0.5375240814019965,0.5505370295212745,1.0448642123950689,-0.0023319066484162676,-0.0028187328927872777,0.09800812465189881
9343,11.0,299.88112,-7053.0172,0.0,0.0,0.09343131478355837,0.0,0.0,0.0,0.5288894781573275,0.5645259502693735,1.050525646003809,0.0013240600085495488,-0.0027178180464277574,0.10614029871523191
9344,11.0,300.28492,-6879.8464,0.0,0.0,0.09344131920393228,0.0,0.0,0.0,0.4955161913361405,0.5553652067777785,1.040420097456469,-0.0028418216201659572,-0.002095699912929478,0.10872425872274888
9345,11.0,301.07576,-6862.8834,0.0,0.0,0.09345132362430641,0.0,0.0,0.0,0.5102018633830036,0.5428145540166255,1.033128749736869,0.008249401425702532,-0.01219977742377429,0.1003198172647951
9346,11.0,300.58333999999996,-6976.8665,0.0,0.0,0.09346132804468077,0.0,0.0,0.0,0.5212198639103955,0.5574990405608715,1.042074329569729,-0.003382050096482357,0.004696140028022935,0.09689102148289931
9347,11.0,300.35767000000004,-6819.72,0.0,0.0,0.09347133246505512,0.0,0.0,0.0,0.5195149895571376,0.5375435155389144,1.0159661168930492,-0.0008197538827284092,-0.0031077364432847074,0.1106713910424159
9348,11.0,300.44287,-6852.1093,0.0,0.0,0.09348133688542926,0.0,0.0,0.0,0.5097769366885665,0.5477667834828724,1.025326419991839,-0.012121888888587288,0.014153360093577885,0.1066949720849739
9349,11.0,299.65272000000004,-6935.7998,0.0,0.0,0.09349134130580339,0.0,0.0,0.0,0.5266070107170655,0.5453727572066005,1.036330214752829,-0.0053938176400283545,0.00019008191907212481,0.10881887601708688
9350,11.0,299.84899,-6950.2305,0.0,0.0,0.0935013128169,0.0,0.0,0.0,0.5163071005355435,0.5618131352466396,1.034576278829729,-0.006146255441763184,0.007576447724087173,0.11749957200880488
9351,11.0,299.93514,-6958.3527,0.0,0.0,0.09351131723727413,0.0,0.0,0.0,0.5344152983726835,0.5505291869655005,1.030221025924899,-0.0049834549972287145,-0.0026096244166498774,0.12614471305451389
9352,11.0,299.66595,-6950.3307,0.0,0.0,0.09352132165764804,0.0,0.0,0.0,0.5326264965136425,0.5628259699140984,1.017274526747179,-0.004264975056695266,0.002051296456447198,0.12584560162499386
9353,11.0,300.09468,-6783.6019,0.0,0.0,0.09353132607802239,0.0,0.0,0.0,0.5016973918486776,0.5531952303636185,1.007152968848259,0.008821011574841062,-0.010811727125034388,0.12401749579457388
9354,11.0,299.99596,-6793.6415,0.0,0.0,0.09354133049839652,0.0,0.0,0.0,0.4869765904208475,0.5566752884945735,1.021445469458819,0.003626223409555387,0.0006080654286563854,0.11770093520117789
9355,11.0,299.68921,-6969.3467,0.0,0.0,0.09355133491877088,0.0,0.0,0.0,0.5037685865105885,0.5664848869527055,1.0482539392796089,0.013825060981677288,-0.007744899134662033,0.11691785499389389
9356,11.0,300.16766,-6927.5324,0.0,0.0,0.09356133933914501,0.0,0.0,0.0,0.5081251262430455,0.5515338953671575,1.046137867770769,0.0016819823990487383,0.006852470293811164,0.1130493877021059
9357,11.0,300.40148999999997,-6925.719,0.0,0.0,0.09357134375951914,0.0,0.0,0.0,0.5140469955249884,0.5657411613793054,1.0254575345547792,0.005843130832572115,-0.004126490517827906,0.10836796959008589
9358,11.0,299.92852999999997,-7038.0082,0.0,0.0,0.09358131527061553,0.0,0.0,0.0,0.5437696536933865,0.5591924246579955,1.036416644986359,-0.00951836849318983,0.003043955186589987,0.1004950993995941
9359,11.0,299.82337,-7128.9191,0.0,0.0,0.09359131969098966,0.0,0.0,0.0,0.5659132315112875,0.5604487129269814,1.040651422454299,0.005837701129261245,-0.002039923230699748,0.10375221008454591
9360,11.0,300.2396,-6988.2446,0.0,0.0,0.09360132411136401,0.0,0.0,0.0,0.5287458702206544,0.5549761187393785,1.040529832442299,-0.002082752096526628,0.004079743109889297,0.1110688282616399
9361,11.0,300.22701,-6941.8524,0.0,0.0,0.09361132853173815,0.0,0.0,0.0,0.5268135820149524,0.5379839854898855,1.045352193643229,0.0009632677897921292,-0.003773872187627186,0.09546845887250331
9362,11.0,299.78424,-6952.6509,0.0,0.0,0.09362133295211228,0.0,0.0,0.0,0.5171605205647695,0.5613885226597335,1.034883192285019,-0.003817165121999866,0.004008856436868327,0.11317126142413389
9363,11.0,299.27274,-6835.4529,0.0,0.0,0.09363133737248641,0.0,0.0,0.0,0.5172656553951456,0.5334916398465255,1.027049654436909,-0.0028522706604971974,0.0031033715645039273,0.100207152972926
9364,11.0,299.22301,-6914.5083,0.0,0.0,0.09364134179286077,0.0,0.0,0.0,0.5189423411306215,0.5568557584698846,1.026039748062239,0.00990620922071673,0.016320732454980884,0.1175031690466599
9365,11.0,300.43088,-6994.1372,0.0,0.0,0.09365134621323468,0.0,0.0,0.0,0.5232756977007905,0.5634466565278555,1.039320721097969,0.006613569528958493,-6.611339872113443e-05,0.0973540595533476
9366,11.0,300.1188,-6936.2373,0.0,0.0,0.09366131772433128,0.0,0.0,0.0,0.5127807672725215,0.5611689716280654,1.034493192321529,0.008895035270171632,0.0009739763133414782,0.11910743779748889
9367,11.0,299.89922,-6990.5165,0.0,0.0,0.09367132214470564,0.0,0.0,0.0,0.5160586009485185,0.5665404231906864,1.042343448796289,0.002534631344948638,-0.018281424087486082,0.11140449775476788
9368,11.0,299.74279,-7071.4797,0.0,0.0,0.09368132656507977,0.0,0.0,0.0,0.5435913419407885,0.5689424541427485,1.0370194274708489,0.0023800447421171277,-0.002307978443329738,0.12117109387865589
9369,11.0,300.41663,-6983.9768,0.0,0.0,0.0936913309854539,0.0,0.0,0.0,0.5324623195999395,0.5582731129747665,1.032219155122099,0.002037055530266728,-0.005490223016817824,0.1030861298663089
9370,11.0,300.13677,-6824.0609,0.0,0.0,0.09370133540582803,0.0,0.0,0.0,0.5163270109000085,0.5538367088694275,1.004180397029889,-0.01100804129215909,0.006611335312487994,0.12495731565982689
9371,11.0,299.871,-6875.1266,0.0,0.0,0.09371133982620217,0.0,0.0,0.0,0.5074724310586295,0.5475990399288175,1.034795343501349,-0.011292937836026189,0.00944534376113285,0.12226253648887289
9372,11.0,299.47247000000004,-6876.9339,0.0,0.0,0.0937213442465763,0.0,0.0,0.0,0.5058261934886585,0.5458773253588974,1.038712669712959,-0.008511291315449053,0.0100337183358259,0.13079452789591486
9373,11.0,299.3407,-6831.0116,0.0,0.0,0.09373134866695043,0.0,0.0,0.0,0.4940939529657765,0.5482338816464715,1.034129131560599,0.01216553463664479,0.002969314016648477,0.12351122538210889
9374,11.0,299.42512999999997,-6910.8084,0.0,0.0,0.09374132017804726,0.0,0.0,0.0,0.5241543881875106,0.5427645602566915,1.033794252402549,-0.002298948459763548,-0.007108869685240813,0.10944359536624189
9375,11.0,299.45895,-7012.5475,0.0,0.0,0.09375132459842117,0.0,0.0,0.0,0.5461793954787095,0.5569693438060944,1.028490597404119,-0.0001164256079628129,0.00025635078582235274,0.10933596794061988
9376,11.0,300.19695,-6980.1815,0.0,0.0,0.0937613290187953,0.0,0.0,0.0,0.5319688161387345,0.5575431574702255,1.0322888667289791,-0.004057348762804146,0.000909938086288897,0.09778822303569622
9377,11.0,300.21058999999997,-7054.2522,0.0,0.0,0.09377133343916966,0.0,0.0,0.0,0.5401022861489454,0.5537810713064364,1.050433136269679,0.003188454074075917,0.001989386368712148,0.09546571397798241
9378,11.0,300.68667999999997,-7205.8115,0.0,0.0,0.09378133785954379,0.0,0.0,0.0,0.5425171651122755,0.5705062942145875,1.077363297427479,0.009128899878052273,0.003977857265958946,0.1024339717044459
9379,11.0,300.6946,-7006.2544,0.0,0.0,0.09379134227991792,0.0,0.0,0.0,0.5435109912078585,0.5335738346946375,1.0526415148626291,0.002528573021275728,0.003452870806921817,0.1012856806973684
9380,11.0,300.2869,-6881.688,0.0,0.0,0.09380134670029205,0.0,0.0,0.0,0.5289402217223355,0.5441268243536365,1.018794300572169,0.00041627005300265565,0.0027097924976856977,0.11593988626237588
9381,11.0,299.75818,-6896.4574,0.0,0.0,0.09381131821138888,0.0,0.0,0.0,0.5281497954518265,0.5445941454322575,1.023606934572139,-0.007880938093088033,0.0005483404248944865,0.1018011362219899
9382,11.0,299.77299,-6875.8833,0.0,0.0,0.09382132263176302,0.0,0.0,0.0,0.5149803204571005,0.5444945632124295,1.0306219689894691,0.004559267772714696,0.006115414337869404,0.12653111598014888
9383,11.0,299.91797,-6868.5527,0.0,0.0,0.09383132705213693,0.0,0.0,0.0,0.49070927206673454,0.5607036263871394,1.036455655115209,-0.007543688233779063,0.00935912641144886,0.12488272018746488
9384,11.0,299.55036,-6875.4307,0.0,0.0,0.09384133147251106,0.0,0.0,0.0,0.49596036978247754,0.5491813414174785,1.044817501565459,0.00023727250233947277,-0.0014927326116212386,0.12100544775230788
9385,11.0,300.46218,-6833.4352,0.0,0.0,0.09385133589288519,0.0,0.0,0.0,0.4963901094148896,0.5472725606140965,1.0335310100265689,0.01030530168530409,-0.006948311492944953,0.11359115226557388
9386,11.0,299.81506,-6886.6332,0.0,0.0,0.09386134031325954,0.0,0.0,0.0,0.5241296547525696,0.5532457611461055,1.0159891176703189,0.0067218749202224036,-0.009411444972412301,0.1104661065721559
9387,11.0,300.23132000000004,-7067.6485,0.0,0.0,0.09387134473363368,0.0,0.0,0.0,0.5436652281380805,0.5688354954621925,1.0358879310841789,0.015180069194656184,-0.003879284749855596,0.12130689978955887
9388,11.0,300.12733,-7070.2195,0.0,0.0,0.09388134915400781,0.0,0.0,0.0,0.5493582244874354,0.5672578650564924,1.032554135605159,-0.01041676122280429,0.00047210951620858154,0.10525450534531089
9389,11.0,300.22739,-6903.5738,0.0,0.0,0.09389132066510442,0.0,0.0,0.0,0.5049345232681576,0.5574507186636025,1.036128780632949,-0.014965403041720287,0.0065722222374278326,0.12020587183339589
9390,11.0,300.03812999999997,-6859.4838,0.0,0.0,0.09390132508547855,0.0,0.0,0.0,0.5005168136271636,0.5500483491305456,1.034546590601799,-0.005651103118670454,-0.004726712620640215,0.1113678383661499
9391,11.0,300.52635,-6966.7107,0.0,0.0,0.09391132950585268,0.0,0.0,0.0,0.5234712853675935,0.5466844499910545,1.047550338410169,-0.0035639383179583268,0.00020317518752682983,0.12568316750146288
9392,11.0,299.81302999999997,-6926.9252,0.0,0.0,0.09392133392622681,0.0,0.0,0.0,0.5407404310619255,0.5436095196475825,1.021262375165749,0.007317107374242273,-0.008296301327781192,0.11777648312863388
9393,11.0,299.95227,-6755.9396,0.0,0.0,0.09393133834660095,0.0,0.0,0.0,0.5106247331797374,0.5305570750394065,1.0124551546340441,-0.002682502734067407,-0.005760950068636505,0.11837256802996289
9394,11.0,299.69729,-6858.6665,0.0,0.0,0.09394134276697508,0.0,0.0,0.0,0.5071603196303265,0.5500510038458074,1.027652031621359,-0.002123846278182308,-0.006041538577053434,0.1160171871125049
9395,11.0,299.83437000000004,-7057.6037,0.0,0.0,0.09395134718734943,0.0,0.0,0.0,0.5171933903980135,0.5649861684647934,1.063155707175299,0.0037298313733556965,-0.0005974669136703934,0.09609828398891221
9396,11.0,299.87823,-7061.193,0.0,0.0,0.09396135160772356,0.0,0.0,0.0,0.5275312265307786,0.5697669458816194,1.049128171465889,0.005167660116383345,-0.0036079831852302165,0.1027786084609589
9397,11.0,299.66805,-6980.253000000001,0.0,0.0,0.09397132311882017,0.0,0.0,0.0,0.5290028304460145,0.5460272559761945,1.046792528660379,-0.001045453721303249,0.006341364955843995,0.07717727921305442
9398,11.0,299.68347,-6928.3196,0.0,0.0,0.0939813275391943,0.0,0.0,0.0,0.5438592553997296,0.5486556773980995,1.013521245726759,-0.005008563132056695,-0.0050452583897282344,0.11377155131337789
9399,11.0,300.2326,-6976.9709,0.0,0.0,0.09399133195956844,0.0,0.0,0.0,0.5449835273131864,0.5610533395266535,1.014788112326789,-0.0011459440158708687,0.013186461119402386,0.1077910756456509
9400,11.0,300.34337,-7039.2304,0.0,0.0,0.09400133637994257,0.0,0.0,0.0,0.5400228676061075,0.5684692460810464,1.0312581887272592,0.005339066265574815,0.0014940862124298284,0.13671178688990288
9401,11.0,301.02501,-6895.2203,0.0,0.0,0.0940113408003167,0.0,0.0,0.0,0.5091564324598274,0.5487678948466744,1.038050510772609,0.006302479862056333,0.014628160984437089,0.1170984668242189
9402,11.0,300.37602999999996,-6719.9056,0.0,0.0,0.09402134522069105,0.0,0.0,0.0,0.46880103171705956,0.5456008296716095,1.028281665233499,-0.0003759380076746926,-0.004639885294396026,0.12804022028158588
9403,11.0,300.03295,-6875.2748,0.0,0.0,0.09403134964106519,0.0,0.0,0.0,0.49942302027671454,0.5666166499957095,1.023872203448319,0.003792465124312166,0.0024807117475021878,0.12801486876408388
9404,11.0,300.20306,-7045.6065,0.0,0.0,0.0940413211521618,0.0,0.0,0.0,0.5321225363114055,0.5670787528363155,1.0424871276604688,0.009258975859639772,0.0015386380087267484,0.10835562820386789
9405,11.0,300.34241000000003,-6993.9476,0.0,0.0,0.09405132557253593,0.0,0.0,0.0,0.5370190268896514,0.5667220482711115,1.022244315837659,0.007598261580190033,0.0011841994760463889,0.1114409747583679
9406,11.0,299.30201,-6906.4541,0.0,0.0,0.09406132999290984,0.0,0.0,0.0,0.5086854839458484,0.5655054490085425,1.025198649154229,0.005111347728825745,-0.003493919189672977,0.09471495036938782
9407,11.0,299.41175,-6994.651,0.0,0.0,0.09407133441328397,0.0,0.0,0.0,0.5185288033673084,0.5686774284465925,1.038993036015629,-0.002451867860880518,-0.0005579204411449605,0.1103580637139929
9408,11.0,299.7085,-7067.7618,0.0,0.0,0.09408133883365832,0.0,0.0,0.0,0.5230710617105946,0.5720307391225384,1.053321304354719,0.004659501309706975,-0.005806073844614875,0.0997900536355115
9409,11.0,300.25411,-7046.0029,0.0,0.0,0.09409134325403268,0.0,0.0,0.0,0.5410755432674985,0.5595974004579635,1.041135958652119,-0.0014319921184766187,-0.0018546952355691683,0.11935493426691487
9410,11.0,300.37818,-7017.4687,0.0,0.0,0.09410134767440681,0.0,0.0,0.0,0.5410026095253004,0.5562048466056445,1.035927853138119,0.006148050718290363,-0.009317711130836492,0.11415413428613588
9411,11.0,300.38077999999996,-6888.4112,0.0,0.0,0.09411135209478094,0.0,0.0,0.0,0.5302539612719915,0.5535732638434275,1.0100777659244142,-0.0035400251089732766,0.0003199339318575207,0.12613023371058488
9412,11.0,300.23357999999996,-6823.4069,0.0,0.0,0.09412132360587755,0.0,0.0,0.0,0.5120324719411705,0.5371063589157705,1.025006536935269,0.0014055382861908286,0.0007355393231920793,0.12043085388559988
9413,11.0,299.37217999999996,-6895.5068,0.0,0.0,0.09413132802625146,0.0,0.0,0.0,0.5175024114135115,0.5395903618009225,1.038969123313269,0.00012616389387890687,0.02009764652073328,0.1038471414864149
9414,11.0,299.51484,-6885.9587,0.0,0.0,0.09414133244662559,0.0,0.0,0.0,0.4955191196289295,0.5493542829445465,1.0482861606327891,0.0016774242934738887,0.007908372143520562,0.1036279146947789
9415,11.0,299.29124,-6752.0666,0.0,0.0,0.09415133686699995,0.0,0.0,0.0,0.5033148936458125,0.5321167101233305,1.017028104322859,-0.006011757332764254,0.011843583536620688,0.0989341197327874
9416,11.0,299.09078,-6915.5166,0.0,0.0,0.09416134128737408,0.0,0.0,0.0,0.5139401381694425,0.5572996633386944,1.030904564442359,-0.004710808039120555,-0.01036265164096409,0.1089142735140019
9417,11.0,299.56684,-7139.9369,0.0,0.0,0.09417134570774843,0.0,0.0,0.0,0.5613346684169185,0.5702277010995925,1.038800113196589,0.012273989887598489,0.0007251516351543944,0.0931079640817906
9418,11.0,300.1512,-7130.0853,0.0,0.0,0.09418135012812257,0.0,0.0,0.0,0.5414832852402395,0.5785044750714464,1.047380112393369,0.026300034092861274,-0.01045345303542549,0.1096635415654489
9419,11.0,299.89317,-6991.5959,0.0,0.0,0.09419135454849648,0.0,0.0,0.0,0.5250787863862415,0.5706807657493065,1.029511041579829,0.0013606968016903187,0.004089122462089966,0.12329256601052888
9420,11.0,300.63715,-6874.0159,0.0,0.0,0.09420132605959308,0.0,0.0,0.0,0.5032038414348525,0.5479289946913816,1.0383963330317392,-0.004041835903773147,-0.01128985147622159,0.12716965606066788
9421,11.0,300.64497,-6796.3131,0.0,0.0,0.09421133047996721,0.0,0.0,0.0,0.5105009342825195,0.5444198866800595,1.010988647366811,-0.013142751536588589,0.010197251734390391,0.13381329378634385
9422,11.0,299.67253,-6784.3661,0.0,0.0,0.09422133490034157,0.0,0.0,0.0,0.5053077438099915,0.5419198744433275,1.015050240127659,-0.0011064484388979589,0.005274058165659015,0.1251170140080879
9423,11.0,300.0255,-6889.0583,0.0,0.0,0.0942313393207157,0.0,0.0,0.0,0.5229806392716705,0.5467157796841465,1.024405274325929,0.004325531138321686,0.006727259432578813,0.12121479535546889
9424,11.0,299.69642000000005,-6899.4591,0.0,0.0,0.09424134374108983,0.0,0.0,0.0,0.5162156648465195,0.5516294752490905,1.029418126545659,-0.001109145001389089,-0.013433288843762386,0.11752337325365388
9425,11.0,299.64641,-6916.9108,0.0,0.0,0.09425134816146397,0.0,0.0,0.0,0.5010499452997795,0.5579985323301675,1.043519629512369,0.0027212188177383875,0.004313884942997295,0.1020709647236199
9426,11.0,299.10132000000004,-7109.5283,0.0,0.0,0.09426135258183832,0.0,0.0,0.0,0.5272928087822485,0.5757533591949324,1.058072940698669,0.008149795293172174,0.005954037135517715,0.10550958092548492
9427,11.0,300.04837000000003,-7280.7554,0.0,0.0,0.0942713240929347,0.0,0.0,0.0,0.5605438368463694,0.5876723417112444,1.0649516929775489,0.0018894754505517082,0.01135844952124169,0.08890406743714832
9428,11.0,299.48696,-7081.4516,0.0,0.0,0.09428132851330884,0.0,0.0,0.0,0.5428955633621204,0.5707603666771625,1.038928491984259,-0.006094444924399884,-0.017296764865557784,0.11242592478307488
9429,11.0,300.80499,-6862.4192,0.0,0.0,0.09429133293368319,0.0,0.0,0.0,0.5425910513095675,0.5334861682959855,1.0099268828520231,0.0025113352052744875,-0.010127307485287429,0.09389925668113511
9430,11.0,300.60607000000005,-6854.0671,0.0,0.0,0.09430133735405732,0.0,0.0,0.0,0.5188506723940746,0.5381334398796355,1.026481119805799,0.0023379490640626074,-0.011275993254603888,0.12117117493866389
9431,11.0,300.08564,-6807.9284,0.0,0.0,0.09431134177443146,0.0,0.0,0.0,0.5178154854294095,0.5259087091456486,1.025716014655289,0.001804339947999488,-0.007858437354742382,0.11540545762963188
9432,11.0,299.45195,-6773.158,0.0,0.0,0.09432134619480559,0.0,0.0,0.0,0.4906196399628885,0.5382984577909214,1.029952818623429,-0.004475496712747135,0.0035069983232887867,0.14438581890727087
9433,11.0,299.62522,-6787.2629,0.0,0.0,0.09433135061517972,0.0,0.0,0.0,0.5152576166119675,0.5305674203229275,1.0173333965779892,-0.01002207183652648,0.00925140120719221,0.1139896432649019
9434,11.0,300.01993999999996,-6805.6746,0.0,0.0,0.09434135503555385,0.0,0.0,0.0,0.4932297722204885,0.5557910656623075,1.019734292689939,0.0012054347663421486,0.011866459684128387,0.12581657200962887
9435,11.0,300.6196,-6883.259,0.0,0.0,0.09435132654665046,0.0,0.0,0.0,0.5240899860111545,0.5569704077186994,1.011278457160413,-0.003805414967215216,0.010800457757422189,0.1059688162683079
9436,11.0,300.20407,-7134.186,0.0,0.0,0.09436133096702481,0.0,0.0,0.0,0.5242879446831915,0.5826818417887204,1.061644647301169,0.008823061481118371,0.004327502517716246,0.11195600978419788
9437,11.0,299.74584,-7035.8235,0.0,0.0,0.09437133538739872,0.0,0.0,0.0,0.5246222361561835,0.5690424923251215,1.045049941138399,0.0023034948116372376,0.01084728409754359,0.10493483507126189
9438,11.0,300.37673,-6743.9198,0.0,0.0,0.09438133980777286,0.0,0.0,0.0,0.4953745896346655,0.5399198909984445,1.014688712491979,0.004424096156374296,0.008564479954273362,0.11217916798622189
9439,11.0,300.26544,-6920.923000000001,0.0,0.0,0.09439134422814721,0.0,0.0,0.0,0.5300527500671335,0.5576360015768885,1.016099055306169,-0.01006870900285421,-0.003202051383792867,0.12730905900942588
9440,11.0,300.52016000000003,-6997.3377,0.0,0.0,0.09440134864852134,0.0,0.0,0.0,0.5500928510749375,0.5483972682250965,1.0285258585075991,-0.004720276354680006,0.0049289852049779655,0.12564310359250888
9441,11.0,300.35994,-6821.3227,0.0,0.0,0.09441135306889548,0.0,0.0,0.0,0.5340543584220615,0.5284927096831695,1.010964704266948,0.008860957946783462,-0.004280267128529476,0.1224342621158209
9442,11.0,299.17883,-6766.5952,0.0,0.0,0.09442135748926961,0.0,0.0,0.0,0.4873822552308835,0.5295514547126594,1.039942248709309,0.010178729522562392,0.006472309090117174,0.12364523784033488
9443,11.0,299.88149,-6839.1255,0.0,0.0,0.09443132900036644,0.0,0.0,0.0,0.5006120692690645,0.5546095248531985,1.023701774781499,0.0089368173473202,-0.0025941451975221978,0.12154811410836487
9444,11.0,300.23987,-6968.1524,0.0,0.0,0.09444133342074035,0.0,0.0,0.0,0.5076703998631674,0.5630257220388125,1.047448202800089,0.002898706899330097,-0.0002620026948801527,0.1214359878522989
9445,11.0,299.46719,-7183.4258,0.0,0.0,0.09445133784111448,0.0,0.0,0.0,0.5585498214445754,0.5837639827630194,1.041268289115179,0.008123804617507092,0.002489171169937068,0.1073575059278609
9446,11.0,299.94442999999995,-7117.2703,0.0,0.0,0.09446134226148861,0.0,0.0,0.0,0.5374322404129325,0.5685599319649964,1.057480290715179,-0.008493384653056803,0.012549377079277089,0.08966239698423961
9447,11.0,300.47997999999995,-6907.2316,0.0,0.0,0.09447134668186274,0.0,0.0,0.0,0.5370985366249985,0.5401678738279185,1.0223595223740292,-0.015422741580356086,-0.0015019400152799386,0.08734808309333461
9448,11.0,300.06198,-6995.3801,0.0,0.0,0.0944813511022371,0.0,0.0,0.0,0.5050198693240805,0.5582449243569845,1.063156112475339,-0.01954842241002908,0.006659601379676484,0.0974662699091719
9449,11.0,300.82639,-7092.2454,0.0,0.0,0.09449135552261123,0.0,0.0,0.0,0.5534233838886354,0.5463171873598084,1.056124967381419,-0.0007044534079416384,-0.001200831571137849,0.0999392618054872
9450,11.0,300.7479,-7081.8106,0.0,0.0,0.09450132703370784,0.0,0.0,0.0,0.5252526499709005,0.5632624679246775,1.064178481826239,0.0007085941254027954,-0.004989728129922825,0.1132332621977529
9451,11.0,300.10029,-6805.8468,0.0,0.0,0.09451133145408197,0.0,0.0,0.0,0.5172758385586506,0.5494248355490094,1.002106821230243,0.00912657639424796,-0.016928995609261782,0.13170594636086486
9452,11.0,299.7734,-6710.8479,0.0,0.0,0.0945213358744561,0.0,0.0,0.0,0.5009912882514905,0.5355760574222415,1.003362835921702,0.0016416085368891485,-0.0012742779165614388,0.1264867254932679
9453,11.0,299.54912,-6835.1918,0.0,0.0,0.09453134029483024,0.0,0.0,0.0,0.5236844427911305,0.5449476987896505,1.009095501012472,0.004370895155898766,0.01067182363072699,0.1131736020318649
9454,11.0,299.7592,-6833.3882,0.0,0.0,0.09454134471520437,0.0,0.0,0.0,0.48356191731884557,0.5546925201688895,1.038924945608909,-0.0031291697226500073,0.02081289064707238,0.11735750421228389
9455,11.0,299.53015,-6860.158,0.0,0.0,0.0945513491355785,0.0,0.0,0.0,0.4982767000410815,0.5641931280090264,1.022846895672129,0.008988914614461802,0.005649403391627704,0.12101716092346387
9456,11.0,299.34201,-6971.4683,0.0,0.0,0.09456135355595263,0.0,0.0,0.0,0.5072287849395836,0.5641075185080774,1.0478160125863891,-0.013698201055907187,0.004053924484091196,0.11305358255751989
9457,11.0,300.17554,-7027.1924,0.0,0.0,0.09457135797632699,0.0,0.0,0.0,0.5463649621020235,0.5784868749172094,1.011239203851539,0.00042028769097416556,-0.0021631927047404977,0.12379523938513888
9458,11.0,300.17645,-7112.3274,0.0,0.0,0.0945813294874236,0.0,0.0,0.0,0.5503724979700365,0.5739048667725005,1.0376925295122792,-0.003929147597876676,0.003112378344642827,0.1031422943193519
9459,11.0,300.30287000000004,-7107.816999999999,0.0,0.0,0.09459133390779773,0.0,0.0,0.0,0.5594423326626594,0.5609649638529315,1.040191609558919,0.0013019915226965587,-0.002362883730473468,0.1099881767649879
9460,11.0,299.93613,-6863.3369999999995,0.0,0.0,0.09460133832817164,0.0,0.0,0.0,0.49429209402283153,0.5512416639058164,1.0407493024139591,-0.004179131089673126,0.0004052706050845946,0.1170077201452629
9461,11.0,299.54804,-6783.7616,0.0,0.0,0.09461134274854599,0.0,0.0,0.0,0.5137196752126846,0.5289101585918685,1.019464261538289,-0.007554401225761352,0.009522183075841302,0.13080160038161287
9462,11.0,299.84365,-6955.165,0.0,0.0,0.09462134716892012,0.0,0.0,0.0,0.5164908838386815,0.5545839706856764,1.043121624873089,0.0013331650739481487,0.006136896151914494,0.12670253763206688
9463,11.0,299.83635,-6948.2207,0.0,0.0,0.09463135158929425,0.0,0.0,0.0,0.5340107988002626,0.5615338733865785,1.016540933674779,-0.0017206997999448484,-0.015009439904316387,0.12319639844353789
9464,11.0,298.91239,-6979.183000000001,0.0,0.0,0.09464135600966861,0.0,0.0,0.0,0.5213674235224585,0.5567284537273205,1.043401484550709,0.0014155547700543786,-0.01117102763699459,0.11653847389145189
9465,11.0,299.39551,-6993.3625,0.0,0.0,0.09465136043004274,0.0,0.0,0.0,0.5233860609016825,0.5593284940139245,1.043093051220269,0.00026431956216130975,-0.005961009309455813,0.09077034341208541
9466,11.0,299.36461,-6949.8984,0.0,0.0,0.09466133194113935,0.0,0.0,0.0,0.49694313118696853,0.5565943298115835,1.059058123770899,0.00987376252071449,0.003493110920068207,0.09219759939694461
9467,11.0,299.69802000000004,-7066.4484,0.0,0.0,0.09467133636151348,0.0,0.0,0.0,0.5335744527771985,0.5677948876094925,1.0466545239967588,-0.0036847316114046965,-0.0005442845873942065,0.09455184952729101
9468,11.0,299.87577999999996,-7107.3457,0.0,0.0,0.09468134078188739,0.0,0.0,0.0,0.5372505444050005,0.5672828112739544,1.055922317361419,-0.00043003296831594956,-0.0024833112406337375,0.1095184846811329
9469,11.0,300.03172,-6983.243,0.0,0.0,0.09469134520226152,0.0,0.0,0.0,0.5388038770733025,0.5558553158511484,1.028072327762839,-0.007384258194144544,0.002952216029161037,0.1098454807534049
9470,11.0,299.46515,-6833.7721,0.0,0.0,0.09470134962263588,0.0,0.0,0.0,0.5157468036277465,0.5423740739331535,1.0191751812847591,-0.0015993303724916184,0.00953294206937813,0.12655699438770288
9471,11.0,300.37228,-6861.4013,0.0,0.0,0.09471135404301023,0.0,0.0,0.0,0.5112729801962146,0.5489162245288135,1.025505461284509,-0.0009632044819258812,-0.0025465751318273972,0.12106279770796789
9472,11.0,299.93138999999996,-6956.8016,0.0,0.0,0.09472135846338436,0.0,0.0,0.0,0.5017636584052175,0.5461002910434025,1.066830056012929,0.0005137140618071305,0.01322619470882379,0.1134818631097879
9473,11.0,300.28487,-6860.8,0.0,0.0,0.0947313628837585,0.0,0.0,0.0,0.5184242055594854,0.5422600225018975,1.024827596967609,-0.0004926237676006805,0.002927977161593847,0.12593630777394588
9474,11.0,299.93498999999997,-6846.4224,0.0,0.0,0.0947413343948551,0.0,0.0,0.0,0.5036590744397805,0.5428816413057465,1.034600698157139,0.006800905286947093,0.016138876353533085,0.11657454559501187
9475,11.0,299.40727999999996,-7034.1512,0.0,0.0,0.09475133881522901,0.0,0.0,0.0,0.5516795804665354,0.5636032644633114,1.022923497379689,-0.0021271617338345177,0.0024090274440024977,0.11945775888706289
9476,11.0,298.61475,-7079.4602,0.0,0.0,0.09476134323560315,0.0,0.0,0.0,0.5281976411215485,0.5694445904948054,1.054336884929949,0.003315549377844247,-0.004471758225178176,0.1016846732554959
9477,11.0,299.88006,-6977.7372,0.0,0.0,0.0947713476559775,0.0,0.0,0.0,0.5219240220673905,0.5638614912512965,1.035272381648429,0.0009874029106815801,-0.0046977327558551255,0.1019608244377499
9478,11.0,299.81371,-7048.9532,0.0,0.0,0.09478135207635163,0.0,0.0,0.0,0.5163472252395035,0.5647834779147894,1.0615750370192991,0.011911312213054989,-0.002177725750924798,0.08748245221559582
9479,11.0,300.05397,-6964.5661,0.0,0.0,0.09479135649672599,0.0,0.0,0.0,0.5410099961185295,0.5536176441978076,1.022426498205639,0.001958775677891108,-0.010990464442674389,0.1173716086536759
9480,11.0,300.12585,-6907.2376,0.0,0.0,0.09480136091710012,0.0,0.0,0.0,0.5196298211909705,0.5481774132183985,1.031820542532759,-0.01070273282502749,-0.0005474257842942186,0.12494307949592189
9481,11.0,300.06437999999997,-7015.9291,0.0,0.0,0.0948113324281965,0.0,0.0,0.0,0.5615268312983834,0.5528982670243104,1.0182421805926791,-0.0011181646498042588,0.005272827472087555,0.12870957329764587
9482,11.0,300.00703,-6918.1766,0.0,0.0,0.09482133684857064,0.0,0.0,0.0,0.5087530373300154,0.5491788690872345,1.045021063510549,-0.017470616291215584,0.00973647898719066,0.12381969924255289
9483,11.0,299.96037,-6731.8971,0.0,0.0,0.09483134126894477,0.0,0.0,0.0,0.4934565781228725,0.5344343576070645,1.018437737861979,0.0025254868641211474,-0.006291227111745774,0.12010913684634889
9484,11.0,299.98572,-6867.1842,0.0,0.0,0.09484134568931912,0.0,0.0,0.0,0.4837967785595246,0.5624579473452774,1.041197766908219,-0.005880218319357365,-0.013408087287275187,0.1061300344917189
9485,11.0,299.72112000000004,-7041.209,0.0,0.0,0.09485135010969326,0.0,0.0,0.0,0.5529312787125685,0.5608532226319035,1.026567246064299,0.008404713110305601,0.0005218772099127705,0.10737170156176191
9486,11.0,300.21212,-7034.9091,0.0,0.0,0.09486135453006739,0.0,0.0,0.0,0.5196205600850565,0.5819589486373764,1.0368572061298391,-0.003145863423347547,0.004498975642739326,0.1101895804873649
9487,11.0,300.02029,-7002.2518,0.0,0.0,0.09487135895044152,0.0,0.0,0.0,0.5600208680722565,0.5600830917608974,1.008405731006897,0.011162586250411489,-0.0018170918018329983,0.10935182530468489
9488,11.0,300.39772,-7024.4658,0.0,0.0,0.09488136337081587,0.0,0.0,0.0,0.5054042862795195,0.5717329246531464,1.058125021753809,0.005896151575854855,0.0009109615803474081,0.1052977305945769
9489,11.0,300.09666,-6990.345,0.0,0.0,0.09489133488191226,0.0,0.0,0.0,0.5236367288439215,0.5649855605147335,1.036268001196689,0.009779505031487,0.0028647683912056275,0.1075614123779849
9490,11.0,299.45061,-6979.3343,0.0,0.0,0.09490133930228639,0.0,0.0,0.0,0.4967838989337535,0.5600219319848615,1.0647374919064092,-0.003938277082602686,0.006513794994261514,0.10871074196641489
9491,11.0,299.78767999999997,-6999.7645,0.0,0.0,0.09491134372266052,0.0,0.0,0.0,0.5423668190624376,0.5577089555840885,1.027677869498909,-0.011191928960057388,-8.062217148603883e-05,0.11971722184016989
9492,11.0,299.43287000000004,-6920.7394,0.0,0.0,0.09492134814303488,0.0,0.0,0.0,0.5221939214965274,0.5556767203885224,1.025861314719629,-0.0036634990568842063,-0.0002852308150750897,0.13242391511672286
9493,11.0,299.23252,-6908.5844,0.0,0.0,0.09493135256340901,0.0,0.0,0.0,0.5326942120178254,0.5430805119028735,1.024262406061829,0.007224884288565563,0.010921500614368189,0.12604282062445787
9494,11.0,299.49041,-7067.4581,0.0,0.0,0.09494135698378314,0.0,0.0,0.0,0.5119825997712485,0.5713347376288485,1.065013501233649,0.007778619186064942,0.0026846745343317474,0.11582724324875888
9495,11.0,299.83686,-7132.0003,0.0,0.0,0.09495136140415728,0.0,0.0,0.0,0.5265350395624625,0.5683667153034275,1.073048270551619,0.0008522802951160161,-0.0035719827131522465,0.09026355522881932
9496,11.0,300.37298,-6997.9957,0.0,0.0,0.09496136582453141,0.0,0.0,0.0,0.5099426942724254,0.5623903432986055,1.054882925408839,0.014997119796350487,-0.008625688670289192,0.09121591507730993
9497,11.0,300.20467,-6979.408,0.0,0.0,0.09497133733562801,0.0,0.0,0.0,0.5400257857663955,0.5508800450776276,1.030659965868219,0.004669949032813086,0.008551538420021132,0.08503416133021832
9498,11.0,299.09597,-7044.8574,0.0,0.0,0.09498134175600237,0.0,0.0,0.0,0.5464954180523984,0.5548439605288354,1.040121391326989,-0.0004980002246187955,-0.006200062771098555,0.1087267614504959
9499,11.0,299.8317,-6977.0858,0.0,0.0,0.09499134617637628,0.0,0.0,0.0,0.5469670454439445,0.5551682512233405,1.0187245889652892,-0.012861405421071887,-0.007423257278568452,0.11648495402116989
9500,11.0,300.01696,-6923.8241,0.0,0.0,0.09500135059675041,0.0,0.0,0.0,0.5030906208686785,0.5439414705128435,1.057637547130699,0.007938043450173893,-0.00964984154401521,0.13047219277410288
9501,11.0,299.48143,-6903.6622,0.0,0.0,0.09501135501712477,0.0,0.0,0.0,0.5176685236349056,0.5440170488378026,1.0368553822796591,0.0021271243449058276,0.009747596468612871,0.1103487012830689
9502,11.0,300.33268,-6698.73,0.0,0.0,0.0950213594374989,0.0,0.0,0.0,0.47690685013204154,0.5304974858010255,1.028842296513829,-0.0004119754735138135,-0.0003183982094759567,0.12687696863678188
9503,11.0,300.22301,-6813.9264,0.0,0.0,0.09503136385787303,0.0,0.0,0.0,0.5165928471962445,0.5414401511834824,1.013230463213061,-0.017990466281520786,-0.0032910311572244867,0.12143845005004189
9504,11.0,300.19813999999997,-6955.1831,0.0,0.0,0.09504133536896964,0.0,0.0,0.0,0.5217037820256545,0.5632562567015644,1.029241922353269,-0.0004956682599111486,0.00037718794286555166,0.12993779453886187
9505,11.0,300.7729,-6962.2872,0.0,0.0,0.09505133978934399,0.0,0.0,0.0,0.5276269077377216,0.5669506881561764,1.021783894992219,0.005136474406130555,0.00018156138752371383,0.11312982962754489
9506,11.0,299.66417,-6991.2145,0.0,0.0,0.0950613442097179,0.0,0.0,0.0,0.49836617002491157,0.5771694775346924,1.049618989814329,0.002878776877813157,0.0022876429191227778,0.12862043768634887
9507,11.0,299.42026,-7002.0772,0.0,0.0,0.09507134863009203,0.0,0.0,0.0,0.5198542459556195,0.5567787615947855,1.0518236193819088,-0.01225949129191759,-0.015282261546741787,0.08356435897366013
9508,11.0,299.53447,-7001.6303,0.0,0.0,0.09508135305046617,0.0,0.0,0.0,0.5111579459123615,0.5677914020291485,1.049371452814899,-0.005612583605518875,-0.0018685544704369682,0.1009577737132565
9509,11.0,300.15079,-7054.1387,0.0,0.0,0.0950913574708403,0.0,0.0,0.0,0.5622321648254944,0.5537600666318634,1.028289771234299,0.0026444450603114074,0.017879229659042584,0.08568367896232072
9510,11.0,300.31113,-7045.2109,0.0,0.0,0.09510136189121465,0.0,0.0,0.0,0.5338857738704236,0.5711128561219504,1.036569544426449,0.0036167248991429567,-0.007084855455220794,0.13229982237697588
9511,11.0,300.61413999999996,-6976.7078,0.0,0.0,0.09511136631158879,0.0,0.0,0.0,0.5378612505052724,0.5569142736631595,1.0259694285052992,0.0030630826127027166,-0.008240477326771791,0.12242607505501288
9512,11.0,300.16384,-6891.3436,0.0,0.0,0.09512133782268539,0.0,0.0,0.0,0.48608013765987457,0.5550817905923074,1.053634499960629,-0.0015432036123523385,-0.0022160169788288477,0.13435461251976785
9513,11.0,300.46308,-6923.8212,0.0,0.0,0.09513134224305952,0.0,0.0,0.0,0.5218322216083305,0.5464015100331305,1.0364349848131689,0.02038077190342558,0.028752675874168174,0.0987990281632049
9514,11.0,299.78265,-6965.3856,0.0,0.0,0.09514134666343366,0.0,0.0,0.0,0.5049798560776315,0.5525278734502554,1.059795567193679,-0.004943906629925595,0.0027532161413212778,0.10002257832145992
9515,11.0,299.27472,-6886.0849,0.0,0.0,0.09515135108380779,0.0,0.0,0.0,0.5470450454366426,0.5395136081058475,1.006639220650056,-0.0045163374805528055,-0.014474801528801685,0.08672403552899591
9516,11.0,299.60015,-6991.416,0.0,0.0,0.09516135550418192,0.0,0.0,0.0,0.5118182303400265,0.5732000804004435,1.0401975877345089,-0.01137358241148519,-0.015323335666045485,0.11392679136119889
9517,11.0,299.95817999999997,-7088.6407,0.0,0.0,0.09517135992455605,0.0,0.0,0.0,0.5522577004435915,0.5728207398280054,1.029691298772619,0.007077691979663813,0.011687240059440789,0.10498084675830291
9518,11.0,300.28942,-7049.7802,0.0,0.0,0.09518136434493019,0.0,0.0,0.0,0.49891198758877947,0.5851137433537305,1.058931467508399,0.0072701995688128325,0.0014582015548382887,0.1273100013320189
9519,11.0,300.18212,-6980.5632,0.0,0.0,0.09519136876530454,0.0,0.0,0.0,0.5321401972606485,0.5580201550873015,1.031756505126439,-0.004014441268769506,0.0011856335289129188,0.1134035794070619
9520,11.0,299.98013,-6846.008000000001,0.0,0.0,0.09520134027640115,0.0,0.0,0.0,0.4951036972204305,0.5576983063255374,1.028213473501769,0.0007122751312935823,-0.00010212353213880791,0.12474587062895888
9521,11.0,300.21992,-6802.5789,0.0,0.0,0.09521134469677528,0.0,0.0,0.0,0.5323154895279485,0.5365808975464115,0.9989177381305051,0.004440949139987556,0.02098337200289758,0.1130981554294189
9522,11.0,300.00534,-6882.2099,0.0,0.0,0.09522134911714919,0.0,0.0,0.0,0.5028061306381015,0.5558959674451605,1.033317822205529,-0.003564578590696517,0.005772423504818844,0.14265526879647886
9523,11.0,300.44016,-6893.9663,0.0,0.0,0.09523135353752354,0.0,0.0,0.0,0.5291543923959725,0.5376822092126025,1.028756980855409,-0.002014946311759718,-0.019911024090815084,0.12535567493664188
9524,11.0,300.01179,-6875.9996,0.0,0.0,0.09524135795789768,0.0,0.0,0.0,0.47866674396572956,0.5672141534471784,1.044251297409579,-0.004867214844431705,-0.016555507569401384,0.1326379945978509
9525,11.0,299.45232999999996,-6864.0738,0.0,0.0,0.09525136237827181,0.0,0.0,0.0,0.5255397442542344,0.5270900371722365,1.033877237585739,0.004694162670452785,0.017531032341678184,0.0980325824828126
9526,11.0,299.56859,-6993.5587,0.0,0.0,0.09526136679864616,0.0,0.0,0.0,0.5134295310465495,0.5668868027373715,1.045550891987839,-0.0016505473279463383,0.009044513775274012,0.09917657325646571
9527,11.0,299.84044,-7049.6131,0.0,0.0,0.09527133830974277,0.0,0.0,0.0,0.5751047575409204,0.5493813569872185,1.018420208635249,-0.010246092415710591,0.004774071626339186,0.07278340020116233
9528,11.0,299.29512,-7005.8016,0.0,0.0,0.0952813427301169,0.0,0.0,0.0,0.5268356404696295,0.5654683235248785,1.037284797672039,0.0068019833850534945,-0.006925071487326343,0.11600967892926389
9529,11.0,300.05188,-6989.1785,0.0,0.0,0.09529134715049103,0.0,0.0,0.0,0.5370756979677446,0.5555453322480555,1.031914673467049,0.009125785755194932,0.01165284528479629,0.09956256682906031
9530,11.0,299.90156,-7044.6678,0.0,0.0,0.09530135157086495,0.0,0.0,0.0,0.5114855600671945,0.5660889290786274,1.063828606566709,0.011602196965297688,0.0008118131227547172,0.12602410589511087
9531,11.0,300.21386,-7059.7797,0.0,0.0,0.09531135599123908,0.0,0.0,0.0,0.5409815947182265,0.5537829255541195,1.051232286623549,-0.01055963050015439,-0.012844646264417886,0.09814239244915
9532,11.0,300.37774,-6960.5519,0.0,0.0,0.09532136041161343,0.0,0.0,0.0,0.5257223015247515,0.5517626669747355,1.038349014252069,0.0038413159381333662,-0.013871339153494587,0.12224812807245089
9533,11.0,300.30475,-6891.2442,0.0,0.0,0.09533136483198779,0.0,0.0,0.0,0.5440375570198265,0.5322593858699115,1.0184692499400891,0.004769298610418126,0.016220623345100882,0.08425758922832663
9534,11.0,300.21328,-6809.7726,0.0,0.0,0.09534136925236192,0.0,0.0,0.0,0.4981962479831415,0.5474382270054465,1.0243663655220892,0.008709924812052652,0.012667220092407288,0.13491901309046989
9535,11.0,300.18767,-6916.6953,0.0,0.0,0.0953513407634583,0.0,0.0,0.0,0.5080949415225665,0.5595093692892754,1.034898391036519,-0.009155832268360291,0.0026229342673134573,0.10894182378422089
9536,11.0,299.95725,-6998.1088,0.0,0.0,0.09536134518383266,0.0,0.0,0.0,0.4886406713250795,0.5769795134059444,1.061630157824739,0.0017238852556092283,-0.006622416418231613,0.14015002818923086
9537,11.0,300.29182000000003,-6883.486999999999,0.0,0.0,0.09537134960420657,0.0,0.0,0.0,0.5117477486630705,0.5562772331927885,1.024383185473749,0.003496816578333926,0.006395543134715963,0.1040977688986499
9538,11.0,299.96147,-6758.0392,0.0,0.0,0.0953813540245807,0.0,0.0,0.0,0.4998828635695975,0.5443129482645055,1.0100793567270712,0.005038502544686485,0.008537803916240642,0.12089816483171989
9539,11.0,300.24142,-6934.1532,0.0,0.0,0.09539135844495505,0.0,0.0,0.0,0.5405699618651014,0.5650411676802215,1.0021982974492711,-0.008819648854781571,0.0006363374369216154,0.08978937039402092
9540,11.0,300.22078999999997,-7087.3864,0.0,0.0,0.09540136286532919,0.0,0.0,0.0,0.5363547705215944,0.5708298958990244,1.047203806875969,-0.003167585073691307,-0.007319714770724603,0.13157950288088588
9541,11.0,299.91048,-7041.1866,0.0,0.0,0.09541136728570354,0.0,0.0,0.0,0.5387817679561205,0.5534341547371985,1.0481290055422792,0.016027399590781186,-0.0038271402652593368,0.12026139793887589
9542,11.0,299.79652999999996,-6912.4687,0.0,0.0,0.09542137170607767,0.0,0.0,0.0,0.4884366635499455,0.5579532501831985,1.0548280072534189,0.01015601549507069,-0.004339055595356446,0.1277363060465919
9543,11.0,299.72811,-6892.8789,0.0,0.0,0.09543134321717406,0.0,0.0,0.0,0.5237150936066556,0.5353851205733975,1.036162825836309,0.0012083657949064188,-0.01936915212283648,0.10027848780646621
9544,11.0,299.21674,-7064.3918,0.0,0.0,0.09544134763754819,0.0,0.0,0.0,0.5375291983150016,0.5571186867383335,1.0527508445484188,-0.0052581646285654446,-0.009247035416486341,0.0998991158232751
9545,11.0,299.59427999999997,-7096.9794,0.0,0.0,0.09545135205792232,0.0,0.0,0.0,0.5658989852148815,0.5537179356927054,1.0376875645867891,-0.005537881437921345,0.026093548921232775,0.08308468434981992
9546,11.0,299.53469,-6955.56,0.0,0.0,0.09546135647829668,0.0,0.0,0.0,0.5262405282883965,0.5517725056332065,1.0363035662751992,-0.011381847492550888,0.02076757100984968,0.1022476958060619
9547,11.0,299.66042000000004,-6950.7121,0.0,0.0,0.09547136089867081,0.0,0.0,0.0,0.5145202238516925,0.5662827030277514,1.032040012504419,-0.006820578246913664,0.008569581567201853,0.1115167759983489
9548,11.0,300.29855,-6976.7665,0.0,0.0,0.09548136531904494,0.0,0.0,0.0,0.4961708724907526,0.5691170168699764,1.055474967442269,-0.003366253324773337,0.0019467061466749381,0.12986892392956487
9549,11.0,300.37022,-7083.3084,0.0,0.0,0.09549136973941907,0.0,0.0,0.0,0.5447929451018775,0.5720411350685645,1.036314813351309,0.011962374951844488,-8.821368542851293e-05,0.12137916478669089
9550,11.0,300.25389,-6964.295,0.0,0.0,0.0955013741597932,0.0,0.0,0.0,0.5328799610261574,0.5594064028141135,1.024685437978579,0.00994381214782785,0.004644791147405195,0.10857637487065389
9551,11.0,300.07675,-6720.3194,0.0,0.0,0.09551134567088981,0.0,0.0,0.0,0.5209013284764585,0.5264915913981745,0.9954163713499471,0.015094397885451086,-0.01169408963011679,0.1134305521247239
9552,11.0,299.84078,-6834.3682,0.0,0.0,0.09552135009126395,0.0,0.0,0.0,0.5008857987835795,0.5514068034071145,1.025184666302849,0.005899301263790704,-0.0012370689410891988,0.13713167773134285
9553,11.0,299.9605,-7031.0872,0.0,0.0,0.09553135451163808,0.0,0.0,0.0,0.5203444867515026,0.5558660461697075,1.061064460293909,0.00016368138374159484,0.0021533956908486077,0.13537730611069987
9554,11.0,299.80654,-7059.7203,0.0,0.0,0.09554135893201243,0.0,0.0,0.0,0.49840303206354947,0.5819802268894764,1.065595410766079,-0.005076691130355405,0.0060398059193824336,0.13182695882030787
9555,11.0,299.56264,-6925.3878,0.0,0.0,0.09555136335238656,0.0,0.0,0.0,0.5178751455952976,0.5514694222632944,1.035800386275539,-0.0038247153551200165,-0.00967810716880481,0.12127717103162487
9556,11.0,299.36896,-6815.3544,0.0,0.0,0.0955613677727607,0.0,0.0,0.0,0.5080708261701865,0.5393985231594896,1.024228158208449,0.004928136000069155,0.000985153465062077,0.1021630995552129
9557,11.0,300.43536,-6828.1949,0.0,0.0,0.09557137219313483,0.0,0.0,0.0,0.5219258256525685,0.5510934558136895,1.002581457974586,0.007655856641049222,0.002176695376898108,0.1093568408926799
9558,11.0,300.39616,-7096.4977,0.0,0.0,0.09558134370423144,0.0,0.0,0.0,0.5325042377565765,0.5581289882805425,1.066524865082809,-0.0016166412438250685,0.017130576650406282,0.09128716986409222
9559,11.0,300.90469,-7149.1273,0.0,0.0,0.09559134812460579,0.0,0.0,0.0,0.5407523671481035,0.5711367384268075,1.0612671103139089,-0.004545049442011456,-0.009182851798176912,0.11929404806840589
9560,11.0,300.38889,-6983.5901,0.0,0.0,0.09560135254497992,0.0,0.0,0.0,0.5004421776247975,0.5605494401194224,1.061845372145979,0.001089861230785929,0.0043032172432944755,0.11928729982273988
9561,11.0,299.90075,-6864.3304,0.0,0.0,0.09561135696535383,0.0,0.0,0.0,0.5256385057414814,0.5363466645207945,1.0245999196701392,0.0003904437974313026,0.0026010604268046776,0.1128812692455139
9562,11.0,300.25047,-6952.9711,0.0,0.0,0.09562136138572797,0.0,0.0,0.0,0.5364879825122415,0.5390733002748925,1.0379683361894991,-0.0031474430802534473,-0.0038418101002071366,0.1017141385684039
9563,11.0,300.01937000000004,-7081.432,0.0,0.0,0.09563136580610232,0.0,0.0,0.0,0.5673915532746865,0.5495511675714775,1.035635834459299,-0.02059068388689228,-0.02261455166313248,0.10582703218181488
9564,11.0,299.31023,-6982.0167,0.0,0.0,0.09564137022647645,0.0,0.0,0.0,0.5309094023641785,0.5390068817308376,1.052442411217979,-0.0024494412282160274,-0.01067851614763749,0.11305862854301789
9565,11.0,299.55848,-6867.6205,0.0,0.0,0.09565137464685058,0.0,0.0,0.0,0.4983330570116435,0.5585291815400384,1.030722888699429,0.014819349119305884,-0.0009196415873290583,0.12779981656285988
9566,11.0,299.80241,-6881.6569,0.0,0.0,0.09566134615794719,0.0,0.0,0.0,0.4929150972694325,0.5455268218843055,1.053409963738469,0.007633494413992243,0.018726194271881484,0.12561643484987686
9567,11.0,299.88563,-7042.3747,0.0,0.0,0.09567135057832155,0.0,0.0,0.0,0.5260191230090455,0.5794192879242315,1.035267619372959,0.01130074391479659,-0.008073603749252653,0.12417475221009387
9568,11.0,300.48784,-7012.4456,0.0,0.0,0.09568135499869546,0.0,0.0,0.0,0.5160516399203315,0.5732813835884675,1.042275358389569,-0.005089837037152806,0.008472044491375692,0.1130939099114999
9569,11.0,299.8909,-6864.1086,0.0,0.0,0.09569135941906981,0.0,0.0,0.0,0.5170548993743455,0.5480562285064385,1.021406459329969,0.002130101071049608,0.004669356585479616,0.10607926052920791
9570,11.0,300.17377999999997,-6774.6727,0.0,0.0,0.09570136383944372,0.0,0.0,0.0,0.4947427572698085,0.5588763311567995,1.00571223866357,0.00022605700923508976,0.002907568987354717,0.1148464272844599
9571,11.0,300.24102,-6870.7549,0.0,0.0,0.09571136825981785,0.0,0.0,0.0,0.5087298136377235,0.5529211664765705,1.026886926470849,-0.015533587088295683,-0.012673202320997688,0.12961302761680987
9572,11.0,300.6229,-7120.7458,0.0,0.0,0.09572137268019221,0.0,0.0,0.0,0.5395300734199725,0.5663702883663955,1.0586286070535091,-0.0078038816388831525,0.0064041386366392745,0.13170427449819988
9573,11.0,300.18108,-7049.4708,0.0,0.0,0.09573137710056634,0.0,0.0,0.0,0.5346462180704735,0.5676692243320904,1.0405476656440589,0.016304712970899884,0.007578415759756403,0.12631107858843288
9574,11.0,300.33611,-6845.4882,0.0,0.0,0.09574134861166295,0.0,0.0,0.0,0.5237487537749775,0.5177361884765835,1.0393724981780792,0.008442569451266733,0.014700954898121286,0.10356496146606589
9575,11.0,299.58608,-6908.2081,0.0,0.0,0.09575135303203708,0.0,0.0,0.0,0.5272289233634435,0.5493874162228164,1.023306404592479,0.01017541822123559,-0.016802025239230786,0.0982313912716835
9576,11.0,300.01802999999995,-7035.0689,0.0,0.0,0.09576135745241121,0.0,0.0,0.0,0.5379702762160324,0.5488244443347554,1.051690579643779,-0.0016099020160849585,0.0007467749090459453,0.1022874861374889
9577,11.0,299.69765,-7152.4774,0.0,0.0,0.09577136187278534,0.0,0.0,0.0,0.5310494335279985,0.5767998540307134,1.0663252548131092,-0.002002799368235908,0.0013779529575183686,0.1022071050070559
9578,11.0,300.03115,-7021.0225,0.0,0.0,0.09578136629315948,0.0,0.0,0.0,0.5281490355142515,0.5624387766533855,1.043627743298039,-0.004609003052548186,0.0007298703814000983,0.1036508749420449
9579,11.0,300.26906,-6883.2809,0.0,0.0,0.09579137071353361,0.0,0.0,0.0,0.5153586984419435,0.5471608801880745,1.029825959710909,-0.017499865781852284,-0.004373417034072655,0.10935313239731388
9580,11.0,300.47985,-6925.6729,0.0,0.0,0.09580137513390774,0.0,0.0,0.0,0.5273931002771466,0.5505567777657234,1.027281790034819,-0.018840395664152285,0.0033463604895350666,0.09897584131890501
9581,11.0,300.12632,-7109.8644,0.0,0.0,0.09581134664500457,0.0,0.0,0.0,0.5575679213026694,0.5652248496583495,1.038428453059909,0.003792434422834137,0.005498202665330355,0.11278441266845489
9582,11.0,300.10524,-7132.2822,0.0,0.0,0.0958213510653787,0.0,0.0,0.0,0.5444268375757455,0.5558717001052654,1.067737117502449,0.006294188639138055,0.012696836379580188,0.10066472759883509
9583,11.0,299.99285,-6928.0736,0.0,0.0,0.09583135548575283,0.0,0.0,0.0,0.5128913533884355,0.5522842881262156,1.040785779417559,0.011268724198386489,2.4369617360093978e-05,0.12991811722191987
9584,11.0,299.78514,-6848.2761,0.0,0.0,0.09584135990612674,0.0,0.0,0.0,0.4987881076315535,0.5374402754862254,1.045476519430499,-0.002353124814785338,0.006910390101327404,0.12427843809282688
9585,11.0,299.36012,-6933.8216,0.0,0.0,0.0958513643265011,0.0,0.0,0.0,0.5090980793865685,0.5615430534324845,1.0370674555255892,0.004120017774864096,0.007962336830596462,0.1346410684555389
9586,11.0,299.79931,-7016.2943,0.0,0.0,0.09586136874687523,0.0,0.0,0.0,0.5215635583443154,0.5730218801053565,1.038192872411659,0.006806739074397843,-0.0025337192172086177,0.1089849375759759
9587,11.0,299.61073999999996,-6942.6384,0.0,0.0,0.09587137316724936,0.0,0.0,0.0,0.5302928396783285,0.5594009920585795,1.0206948537847391,-0.013288791273501587,-0.00972124933156261,0.11707227430913388
9588,11.0,299.67546,-6837.4856,0.0,0.0,0.09588137758762372,0.0,0.0,0.0,0.4862145655506415,0.5765051097091245,1.015705204992299,-0.004438056614927086,-0.004370256707010756,0.1090939734192369
9589,11.0,300.03832,-6854.6053,0.0,0.0,0.09589134909872032,0.0,0.0,0.0,0.5053331763875015,0.5620795085654285,1.016216187017729,-0.007397870094662932,0.0018870714133644485,0.12268553800811988
9590,11.0,299.70722,-7115.8771,0.0,0.0,0.09590135351909446,0.0,0.0,0.0,0.5303107336750945,0.5685169802932574,1.064221240980459,0.00046240600503591955,0.00926582988861621,0.1040802700694229
9591,11.0,299.65642,-7202.8999,0.0,0.0,0.09591135793946837,0.0,0.0,0.0,0.5523678609944634,0.5802446915881925,1.0568891606068391,0.006305401872694714,-0.0009380867110894501,0.11860319388522389
9592,11.0,299.72974,-7062.1252,0.0,0.0,0.0959213623598425,0.0,0.0,0.0,0.5443168695423924,0.5499059773589945,1.052486892897369,0.005521004845580755,0.003539583534579697,0.11094798805471388
9593,11.0,299.45361,-6939.7829,0.0,0.0,0.09593136678021663,0.0,0.0,0.0,0.5433070442277305,0.5437879124601885,1.022425788930569,-0.00045258249465391455,0.004627052279229506,0.11205703081916789
9594,11.0,299.85657000000003,-6881.1448,0.0,0.0,0.09594137120059099,0.0,0.0,0.0,0.5173679835227446,0.5327866609569495,1.041541562667149,-0.016205041585063085,-0.003482095371606057,0.1086581036237199
9595,11.0,300.33767,-6989.0272,0.0,0.0,0.09595137562096534,0.0,0.0,0.0,0.5395524358496796,0.5406510725356065,1.044286254538029,-0.014888965480676485,-0.013885640165405989,0.11492702119741391
9596,11.0,300.23137,-6974.2654,0.0,0.0,0.09596138004133947,0.0,0.0,0.0,0.5198561407333065,0.5567139541183894,1.043432490003769,-0.01051891811113639,-0.01044289192963319,0.11655598285317989
9597,11.0,300.12665,-6828.1547,0.0,0.0,0.09597135155243586,0.0,0.0,0.0,0.5012313879951865,0.5566892612134524,1.0176678704359992,-0.0016435812335088382,-0.0033234891043028374,0.11803450726659889
9598,11.0,300.15789,-6815.5711,0.0,0.0,0.09598135597281021,0.0,0.0,0.0,0.5062271872157336,0.5457350447798555,1.019801167196539,0.002264259335964998,0.0029019402817242073,0.095737362276792
9599,11.0,299.84825,-7067.7465,0.0,0.0,0.09599136039318412,0.0,0.0,0.0,0.5422453607729505,0.5640840415032605,1.0420890216961791,0.004858091135231266,0.005432991104794475,0.1001917454919054
9600,11.0,300.09652,-7197.0686,0.0,0.0,0.09600136481355825,0.0,0.0,0.0,0.5457324001970945,0.5791441094620735,1.062852644070389,0.0034368760461432565,0.014324367326204986,0.1026493380132009
9601,11.0,299.76422,-6941.2095,0.0,0.0,0.09601136923393261,0.0,0.0,0.0,0.5233799611360805,0.5515295079942244,1.035044907000979,0.004557101140025866,0.0017920496295865283,0.11147591162181589
9602,11.0,299.90033999999997,-6801.8529,0.0,0.0,0.09602137365430674,0.0,0.0,0.0,0.4961950385056375,0.5397191762861354,1.031679194143809,-0.003978296307227277,-0.007122125023049013,0.12205237828563188
9603,11.0,299.95038999999997,-6895.9331,0.0,0.0,0.0960313780746811,0.0,0.0,0.0,0.5120499505053955,0.5360689022708816,1.0480726688367188,-0.00957915640643913,-0.005675154737619165,0.1200309139386289
9604,11.0,300.08822000000004,-7008.2943,0.0,0.0,0.09604134958577748,0.0,0.0,0.0,0.5415912673033966,0.5629255926639305,1.025829599991499,0.002097677473149648,-0.0026163799577165977,0.1343748369917639
9605,11.0,300.39596,-6967.9417,0.0,0.0,0.09605135400615161,0.0,0.0,0.0,0.5200423963666885,0.5611146918202085,1.036923168711349,-3.4830990971551166e-05,0.003351519756394247,0.1170611792205389
9606,11.0,300.5931,-6819.4181,0.0,0.0,0.09606135842652574,0.0,0.0,0.0,0.5129446908736995,0.5473756993417754,1.012612441447067,0.0026950471756054476,0.007377129777041024,0.13053519666532087
9607,11.0,300.71367000000004,-6883.3939,0.0,0.0,0.09607136284689988,0.0,0.0,0.0,0.5026792210630765,0.5651950601054094,1.024505586085829,-0.0014076428066485288,0.004215937298230616,0.1098140801328059
9608,11.0,299.99962999999997,-7051.0487,0.0,0.0,0.09608136726727423,0.0,0.0,0.0,0.5257621627836855,0.5708999824084414,1.0466805645243291,0.005031327112778325,-0.0014602837837937887,0.12293933689316788
9609,11.0,299.7739,-7077.4448,0.0,0.0,0.09609137168764836,0.0,0.0,0.0,0.5202736808345145,0.5764747527361285,1.054618061832699,0.006724673820973633,-0.002555805738913388,0.1129343128882489
9610,11.0,299.82216,-6928.1878,0.0,0.0,0.0961013761080225,0.0,0.0,0.0,0.5256320817358474,0.5504529905579805,1.029911072719309,0.007673383537303993,-0.008521006864032902,0.1049523136354869
9611,11.0,299.64103,-6894.6575,0.0,0.0,0.09611138052839663,0.0,0.0,0.0,0.5156691582725835,0.5434385438257084,1.036695998038929,-0.002133806020040258,-0.005866949809297865,0.09485792198499801
9612,11.0,300.11764,-6985.224,0.0,0.0,0.09612135203949324,0.0,0.0,0.0,0.5449541531927875,0.5427223279925235,1.0356572140364089,-0.002411987451519628,-0.003933143957596087,0.1089148409340579
9613,11.0,300.63612,-7125.2624,0.0,0.0,0.09613135645986737,0.0,0.0,0.0,0.5459077025968955,0.5543738124824354,1.0656203367185388,-0.0015970196556385685,0.005799959792186464,0.11303219284790889
9614,11.0,300.60902000000004,-7071.0716,0.0,0.0,0.09614136088024172,0.0,0.0,0.0,0.5292508234079895,0.5634475887179474,1.0567307896162088,-0.006029973239087025,-0.0064981896254963836,0.12373732200942288
9615,11.0,299.88625,-6996.1793,0.0,0.0,0.09615136530061563,0.0,0.0,0.0,0.5256603311486354,0.5671269024810675,1.0338766296356792,0.004931144846241105,-0.01043825428392549,0.1272569678217849
9616,11.0,300.46536000000003,-6948.8866,0.0,0.0,0.09616136972098999,0.0,0.0,0.0,0.5264960091686105,0.5498771807911526,1.035914782211829,0.004555248108242985,-0.01221071039235329,0.12038530829360489
9617,11.0,299.93414,-6934.7382,0.0,0.0,0.09617137414136412,0.0,0.0,0.0,0.5197761446379114,0.5571641006078155,1.031047027406419,-0.0006028266520618584,0.004421058939199546,0.1113469958115929
9618,11.0,299.95974,-6951.6517,0.0,0.0,0.09618137856173825,0.0,0.0,0.0,0.5128249956393864,0.5596859686492045,1.040617579900959,-0.004064790071538546,0.009741731067759,0.10599747098113589
9619,11.0,299.14191,-6868.8693,0.0,0.0,0.09619138298211238,0.0,0.0,0.0,0.4933925204515505,0.5525512389975614,1.042021032614469,-0.004632725365214396,0.005023516778357506,0.0958749352958694
9620,11.0,299.30535,-6881.7663,0.0,0.0,0.09620135449320899,0.0,0.0,0.0,0.4929673708420916,0.5689101922595645,1.030007534128829,0.006356735149260915,0.0011560164311399388,0.13395842159816687
9621,11.0,299.57455,-7067.8232,0.0,0.0,0.09621135891358334,0.0,0.0,0.0,0.5404061902514384,0.5552009792015705,1.052834640331689,0.004166264434603286,0.006015030637212305,0.1047059418736719
9622,11.0,301.04218,-7160.4957,0.0,0.0,0.09622136333395725,0.0,0.0,0.0,0.5550109948078205,0.5705302575794525,1.051070673232599,0.005929140972610655,-0.01617128617123168,0.12099859818163188
9623,11.0,300.55964,-7123.6495,0.0,0.0,0.09623136775433139,0.0,0.0,0.0,0.5438233660811875,0.5661469883093575,1.055441226213939,-0.004554316526101046,-0.00980444050849794,0.10246299118730991
9624,11.0,299.98195,-6996.4816,0.0,0.0,0.09624137217470552,0.0,0.0,0.0,0.5348279242109064,0.5396684631186305,1.052259316924909,0.004033120331712986,-0.0026767211289968076,0.11544874367390388
9625,11.0,299.59942,-6906.5392,0.0,0.0,0.09625137659507987,0.0,0.0,0.0,0.5171211456658835,0.5364485366858485,1.045845747766939,-0.008294001959329262,0.012404292837208387,0.1170857809329669
9626,11.0,300.14306,-6969.8282,0.0,0.0,0.096261381015454,0.0,0.0,0.0,0.5028130916662885,0.5580166087119515,1.057824086474109,-0.002475094795572838,0.0049838114586138954,0.12000315088588888
9627,11.0,299.70658,-7057.4721,0.0,0.0,0.09627135252655061,0.0,0.0,0.0,0.5392030165526945,0.5636094858189254,1.042482770685039,6.555979635674814e-05,-0.007677980956982723,0.10569692073647391
9628,11.0,299.72382000000005,-7117.0085,0.0,0.0,0.09628135694692475,0.0,0.0,0.0,0.5406343133789525,0.5778698765338165,1.044888733047489,0.009392492027966791,-0.007701396964143702,0.1093449858665099
9629,11.0,299.7754,-6958.0987,0.0,0.0,0.0962913613672991,0.0,0.0,0.0,0.5225005208442866,0.5549383447756504,1.037649365058019,0.008492898090358783,-0.0018959901420696583,0.1078196290334689
9630,11.0,300.20691,-6933.6854,0.0,0.0,0.09630136578767301,0.0,0.0,0.0,0.5204308156600225,0.5608766287092135,1.026359833768829,0.005378649691331395,-0.007775394213646663,0.10281279551933291
9631,11.0,300.04452000000003,-7198.8166,0.0,0.0,0.09631137020804714,0.0,0.0,0.0,0.5307625317621835,0.5819049221420445,1.075593048177769,-0.002215192091922438,0.0018181975616671283,0.1166996819823619
9632,11.0,300.66042999999996,-7176.6677,0.0,0.0,0.09632137462842127,0.0,0.0,0.0,0.5418001792090145,0.5726121420299185,1.067115488566099,0.0027064269874785473,0.001168359438558099,0.12484892829662989
9633,11.0,300.64355,-6943.1559,0.0,0.0,0.0963313790487954,0.0,0.0,0.0,0.5255372617914895,0.5461095825468194,1.038899209056369,0.0020246843544957883,0.01160251715232929,0.12150667217927488
9634,11.0,300.2976,-6768.8137,0.0,0.0,0.09634138346916976,0.0,0.0,0.0,0.5187119787203865,0.5208952084458545,1.017943170488169,0.001037755756318519,0.0029610337368312775,0.12341761120536988
9635,11.0,300.03006,-6787.8096,0.0,0.0,0.09635135498026637,0.0,0.0,0.0,0.49479113996208357,0.5352423941643115,1.033291072402889,-0.00948438702326112,-0.0023116589729929777,0.1193703863309399
9636,11.0,299.87264,-7006.5591,0.0,0.0,0.0963613594006405,0.0,0.0,0.0,0.5296570759030835,0.5588484769115505,1.041313480069639,-4.346823069298036e-05,0.0037533817374799366,0.12463880049089188
9637,11.0,300.18439,-7067.3481,0.0,0.0,0.09637136382101463,0.0,0.0,0.0,0.5117803753162905,0.5624825591902065,1.0740343655489388,0.006051923782628374,0.004748567918672166,0.11387123485821589
9638,11.0,300.20732999999996,-6909.6375,0.0,0.0,0.09638136824138877,0.0,0.0,0.0,0.5175974238753884,0.5743032868443215,1.0084565657644142,0.01034252140122739,0.0016658843880849883,0.13436836232362487
9639,11.0,300.30066,-6947.6612,0.0,0.0,0.0963913726617629,0.0,0.0,0.0,0.5234906080470005,0.5635146152120625,1.0249102781757689,-0.002090294628946018,-0.002294756542774838,0.10399624123862991
9640,11.0,299.64446,-7157.1624,0.0,0.0,0.09640137708213703,0.0,0.0,0.0,0.5573244980986455,0.5756510715973374,1.042623105823889,0.0039037217078173366,-0.006348907082963344,0.12331675229041589
9641,11.0,299.92267000000004,-7214.014,0.0,0.0,0.09641138150251116,0.0,0.0,0.0,0.5516653139051275,0.5823556157865245,1.058859222776269,-0.0032651435290945766,-0.0041168657564530165,0.09026029965624802
9642,11.0,300.11518,-7030.3168,0.0,0.0,0.0964213859228853,0.0,0.0,0.0,0.5332023873404784,0.5437414650756044,1.0600969077734188,-0.0005894432191760164,0.002150851825147548,0.10455537290881191
9643,11.0,300.15076,-6848.7256,0.0,0.0,0.09643135743398212,0.0,0.0,0.0,0.49431634109772454,0.5405130577394854,1.047012201282059,-0.00930259617511976,-0.003361037822533607,0.1038284875520739
9644,11.0,299.55787000000004,-6911.4119,0.0,0.0,0.09644136185435626,0.0,0.0,0.0,0.5242822400851285,0.5488170982715305,1.027797331685699,-0.0011309766906937092,0.006372058023898165,0.11485041948985389
9645,11.0,299.69809,-7097.7655,0.0,0.0,0.09645136627473039,0.0,0.0,0.0,0.5564265659925265,0.5521111540816285,1.049005770853809,-0.0012163371347681288,0.007787334048850033,0.11532549193173988
9646,11.0,300.17377999999997,-7080.7015,0.0,0.0,0.0964613706951043,0.0,0.0,0.0,0.5436002078791635,0.5730695839200645,1.0356866996143188,0.002137429402397858,-0.004524813317639305,0.12415081924273189
9647,11.0,300.12189,-6960.932,0.0,0.0,0.09647137511547865,0.0,0.0,0.0,0.5238203398945426,0.5421103350646245,1.050018818303789,-0.009381993338380652,-0.013561753757690887,0.11441653566453289
9648,11.0,300.3908,-6928.7824,0.0,0.0,0.09648137953585278,0.0,0.0,0.0,0.4990724864046196,0.5638385411365314,1.043265810362319,-0.003049532621765437,-0.00951712351279196,0.1091071862005409
9649,11.0,300.31942000000004,-7115.1765,0.0,0.0,0.09649138395622692,0.0,0.0,0.0,0.5228311848819205,0.5806117110394144,1.059393104253959,0.0023298221903105473,0.00033661231221354866,0.1153604186626869
9650,11.0,300.37924,-7172.0278,0.0,0.0,0.09650135546732352,0.0,0.0,0.0,0.5578224497277895,0.5619612217487545,1.060333704321789,0.01169222322343259,-0.004285524477998336,0.09649272705409072
9651,11.0,300.02669,-6934.5103,0.0,0.0,0.09651135988769788,0.0,0.0,0.0,0.5201210549719515,0.5647359058225945,1.023060995418259,0.00864544228496372,0.004671881300753785,0.12497002181608087
9652,11.0,300.08497,-6703.5026,0.0,0.0,0.09652136430807201,0.0,0.0,0.0,0.5032888531182426,0.5256487902299966,1.008759770724338,0.004621406145697276,0.012214059183933788,0.1105863590940239
9653,11.0,299.39972,-6924.8246,0.0,0.0,0.09653136872844592,0.0,0.0,0.0,0.5242690475688265,0.5498984286457494,1.0308062791826589,-0.001841616811228428,0.006669411565819673,0.11352184595873388
9654,11.0,299.51585,-7108.0677,0.0,0.0,0.09654137314882005,0.0,0.0,0.0,0.5318535285423565,0.5684408041507395,1.060380719126429,-0.012962362621285589,0.0018401050420792284,0.11632561031044389
9655,11.0,299.80771,-7035.8599,0.0,0.0,0.09655137756919419,0.0,0.0,0.0,0.5203345467680215,0.5502751246354265,1.0681160730398491,-0.003201963636334207,-0.007507282562986103,0.12295395809211088
9656,11.0,300.53022999999996,-6985.8014,0.0,0.0,0.09656138198956854,0.0,0.0,0.0,0.5183916802312755,0.5648997787612675,1.040217751411499,-0.0041793260389923655,-0.002382019363912008,0.12267247721433087
9657,11.0,300.37195,-6991.4959,0.0,0.0,0.0965713864099429,0.0,0.0,0.0,0.5271007776232965,0.5563830367682304,1.041756371688349,-5.149974342512895e-05,0.008141169089770832,0.12084069328604789
9658,11.0,300.70322000000004,-7093.2033,0.0,0.0,0.09658135792103928,0.0,0.0,0.0,0.5518729592481205,0.5476226587886485,1.056661078009329,-0.0046662660713496056,-0.0015557036735359985,0.1022967371109019
9659,11.0,300.41177999999996,-7140.8708,0.0,0.0,0.09659136234141341,0.0,0.0,0.0,0.5322950624059325,0.5841519055638045,1.0541994882163892,0.007334796593163063,-0.00027856382193460876,0.1109909802564569
9660,11.0,299.97005,-6954.7988,0.0,0.0,0.09660136676178777,0.0,0.0,0.0,0.5094851611897705,0.5429698751244545,1.061630157824739,0.0011733526337258887,0.011605325881606489,0.09041075919009722
9661,11.0,299.25621,-6787.2206,0.0,0.0,0.09661137118216168,0.0,0.0,0.0,0.4920987013988605,0.5407634318391955,1.030283442131059,0.003755353522174536,0.004398690835291986,0.10638139144402589
9662,11.0,299.72106,-6951.6947,0.0,0.0,0.09662137560253581,0.0,0.0,0.0,0.5348047309161175,0.5565111014483695,1.021825742221349,0.00036844231780742563,-0.002215670953919698,0.10649394326513391
9663,11.0,299.5379,-7124.2762,0.0,0.0,0.09663138002291016,0.0,0.0,0.0,0.5467301577030654,0.5625932668961324,1.0562786774215889,0.003012743435809627,-0.0015147568184448585,0.1272269553538229
9664,11.0,299.76105,-7065.9756,0.0,0.0,0.0966413844432843,0.0,0.0,0.0,0.5482663867096795,0.5844085212841305,1.015205267392959,0.015373127789209587,0.0002857808173618707,0.12048464733340887
9665,11.0,299.87064,-6891.558000000001,0.0,0.0,0.09665138886365865,0.0,0.0,0.0,0.5152162658753865,0.5491762549019764,1.030469069549379,-0.0012154945159849689,0.004434166646468176,0.14056501490018689
9666,11.0,300.14993,-6822.7011,0.0,0.0,0.09666136037475503,0.0,0.0,0.0,0.5120794766133095,0.5312748512777454,1.030576474059979,-0.011498291207292989,-0.0006889021264668465,0.11805970679658588
9667,11.0,300.46611,-6869.0355,0.0,0.0,0.09667136479512917,0.0,0.0,0.0,0.5048033276452095,0.5519632904945354,1.031248664176319,-0.02182715197067218,-0.007023035344094624,0.13127705785853686
9668,11.0,300.23566,-6939.8987,0.0,0.0,0.0966813692155033,0.0,0.0,0.0,0.5223770259220984,0.5395915169060365,1.047587423363829,0.0009111818305216451,0.016223886010422885,0.1112543746199519
9669,11.0,299.95487,-6902.7101,0.0,0.0,0.09669137363587765,0.0,0.0,0.0,0.5078571013265935,0.5618906691442914,1.028503769655419,0.00023303088543335777,0.006500518986151275,0.11705438031236788
9670,11.0,299.77766,-6781.5274,0.0,0.0,0.09670137805625179,0.0,0.0,0.0,0.5160181722695285,0.5357125016807075,1.009684310778083,0.015707733369732586,0.006319500943861183,0.10218349627972591
9671,11.0,300.00446,-6940.5743,0.0,0.0,0.09671138247662592,0.0,0.0,0.0,0.5061189214425486,0.5549010369069685,1.048741312577709,-0.013977181232440386,0.0024205600539906774,0.1095987644865559
9672,11.0,300.12446,-7162.5388,0.0,0.0,0.09672138689700005,0.0,0.0,0.0,0.5338366616380765,0.5843682648576575,1.059028030242929,0.006813716719886484,-0.0006808640438210494,0.11764797261845089
9673,11.0,300.5257,-7077.9496,0.0,0.0,0.09673139131737418,0.0,0.0,0.0,0.5332877232639005,0.5555833595243085,1.062648879475279,0.004030601493289397,-0.006708916363368494,0.11262911182562789
9674,11.0,299.98722999999995,-6974.3694,0.0,0.0,0.09674136282847079,0.0,0.0,0.0,0.5351535219980406,0.5543441039895034,1.030536552006039,0.014734463078928287,-0.004539057080920056,0.1176497762036289
9675,11.0,299.85988,-6896.9424,0.0,0.0,0.09675136724884492,0.0,0.0,0.0,0.5294133081940255,0.5481546150911485,1.0189303800605989,0.007716387492748152,-0.007491185666597463,0.12429620036707989
9676,11.0,299.35078,-6963.2241,0.0,0.0,0.09676137166921928,0.0,0.0,0.0,0.5404909790198065,0.5282285857796025,1.047926659497309,0.006115552038557994,0.009958036051406641,0.10464712270536691
9677,11.0,299.26858,-7029.273,0.0,0.0,0.09677137608959319,0.0,0.0,0.0,0.5198360986463285,0.5585732275218855,1.0583141955474789,0.002832927310788157,0.015180723754220785,0.11622110369512988
9678,11.0,298.95878999999996,-6913.2632,0.0,0.0,0.09678138050996754,0.0,0.0,0.0,0.5218731569123706,0.5395331537002764,1.040053098270249,-0.0013056884670114186,0.013241832197617088,0.1013863724260559
9679,11.0,299.54689,-6837.2756,0.0,0.0,0.09679138493034167,0.0,0.0,0.0,0.5086528978226325,0.5329391449644985,1.0367689520461292,-0.01276199241401059,0.006916643272994544,0.1147603010259599
9680,11.0,299.61346000000003,-7003.1565,0.0,0.0,0.0968013893507158,0.0,0.0,0.0,0.5330784668532484,0.5636358809840305,1.032070410007419,-0.009669266460357302,0.002264552165243898,0.11221777281503191
9681,11.0,299.87859,-7155.4999,0.0,0.0,0.09681136086181219,0.0,0.0,0.0,0.5483422892746704,0.5702801367922675,1.0564708909655591,-0.0014325544722821185,-0.004726942425762896,0.11778724384469588
9682,11.0,300.07054,-7129.2877,0.0,0.0,0.09682136528218654,0.0,0.0,0.0,0.5417448050910494,0.5783499240336935,1.047030743758889,0.004545478958728846,0.008965774920603091,0.1079192315182989
9683,11.0,300.66474,-6945.5515,0.0,0.0,0.0968313697025609,0.0,0.0,0.0,0.5028536723327935,0.5698994384646955,1.038521064119049,0.015044481132524684,-0.0009643196751184423,0.13106458944506788
9684,11.0,300.27988999999997,-6802.7807,0.0,0.0,0.09684137412293481,0.0,0.0,0.0,0.4990494552298465,0.5445916427045105,1.024234339034059,0.01154110406376829,0.01078129618478109,0.1246506352520599
9685,11.0,300.02279,-6901.3398,0.0,0.0,0.09685137854330894,0.0,0.0,0.0,0.4969092177061215,0.5670870310896325,1.033838734081939,-0.005047047384104795,-0.010514457784196189,0.13426072476550185
9686,11.0,299.4118,-6995.4227,0.0,0.0,0.09686138296368307,0.0,0.0,0.0,0.5431335454131075,0.5527069958029335,1.0305932940116391,0.006442197120995354,-0.015586392617257184,0.12981084443383287
9687,11.0,300.02715,-6920.5957,0.0,0.0,0.09687138738405743,0.0,0.0,0.0,0.5324171995729865,0.5572063328719835,1.0140647530803992,0.0012563190717890388,-0.010248861628233892,0.13488546437965887
9688,11.0,300.18065,-6841.4536,0.0,0.0,0.09688139180443156,0.0,0.0,0.0,0.5142154787516164,0.5503152088093825,1.015100396007609,-0.008200461243222512,-0.0004208414625513185,0.12095850387517487
9689,11.0,300.08247,-6934.6089,0.0,0.0,0.09689136331552817,0.0,0.0,0.0,0.5091902750131675,0.5488536259376355,1.049904017067459,-0.014267642545856685,0.005648040164943165,0.11690098437972889
9690,11.0,299.57196,-7209.8865,0.0,0.0,0.0969013677359023,0.0,0.0,0.0,0.5450776987774805,0.5848882445439755,1.0616595420776391,-0.01964364258817658,0.01023187955655789,0.10697695958780391
9691,11.0,299.44385,-7154.531999999999,0.0,0.0,0.09691137215627665,0.0,0.0,0.0,0.5378452006236886,0.5669805689016254,1.0699732591481388,0.004274492413559556,0.010189712140396292,0.10706533526152588
9692,11.0,299.72881,-6997.3186,0.0,0.0,0.09692137657665056,0.0,0.0,0.0,0.5420620638298604,0.5585415431912585,1.0264065445984392,0.005390271062028335,0.0025742644199601176,0.10676949662982889
9693,11.0,300.17682,-6883.8661,0.0,0.0,0.0969313809970247,0.0,0.0,0.0,0.5182324986405655,0.5383956284755115,1.035895226484899,0.02037050970641278,-0.02130463814585408,0.1042124384124669
9694,11.0,299.99854,-7017.1612,0.0,0.0,0.09694138541739883,0.0,0.0,0.0,0.5331091683312785,0.5476500874688555,1.0522825203521988,0.009882324484059492,-0.015112586737996186,0.1043099536020909
9695,11.0,299.71476,-7131.1785,0.0,0.0,0.09695138983777296,0.0,0.0,0.0,0.5212522980460965,0.5682964565414935,1.078151403355259,0.01041820713069699,0.0001073852689806009,0.1095442718961779
9696,11.0,299.83932999999996,-6950.5584,0.0,0.0,0.09696139425814732,0.0,0.0,0.0,0.5277889770912164,0.5411120000060965,1.043895241324439,0.00924442356170357,0.001052953089268379,0.1071721824845709
9697,11.0,299.76599999999996,-6799.2618,0.0,0.0,0.09697136576924392,0.0,0.0,0.0,0.4950420105543425,0.5405157732497535,1.0312480562262591,-0.0014463166377903386,0.005872983612318354,0.11183453122970889
9698,11.0,300.36316,-6887.83,0.0,0.0,0.09698137018961805,0.0,0.0,0.0,0.5374954064241665,0.5452042537149704,1.011028680878262,-0.012737351184828688,0.015924366241112584,0.12099598399637389
9699,11.0,300.54254,-7193.3055,0.0,0.0,0.09699137460999219,0.0,0.0,0.0,0.5630897087826275,0.5754303350630524,1.048065170785979,-0.0051696053539253255,-0.00015265366614574384,0.12200412731586988
9700,11.0,300.87302,-7076.411,0.0,0.0,0.09700137903036632,0.0,0.0,0.0,0.5465387142291714,0.5684184721185355,1.036095039404619,0.0029076177246845276,0.012210065965289688,0.11733164606973188
9701,11.0,299.87214,-6774.5217,0.0,0.0,0.09701138345074045,0.0,0.0,0.0,0.4817497499124985,0.5402503118560544,1.037285405622099,0.010939694533163789,-0.004070000203552746,0.11604560877780988
9702,11.0,299.34796,-6761.3186,0.0,0.0,0.09702138787111458,0.0,0.0,0.0,0.4903732783335745,0.5386139433420575,1.026284751936419,-0.0031774940517192473,0.002356624681955748,0.11170223116415189
9703,11.0,299.94775,-6968.4741,0.0,0.0,0.09703139229148872,0.0,0.0,0.0,0.49647876879863956,0.5725824740669905,1.049180860471089,-0.012968316478873188,0.0005498567131391325,0.13084722703361587
9704,11.0,299.90413,-7098.5949,0.0,0.0,0.09704136380258555,0.0,0.0,0.0,0.5537210261055104,0.5584084325256214,1.045666098524209,-0.006350853232430414,-0.0036924250167639765,0.11766239116737388
9705,11.0,299.17753,-7020.4941,0.0,0.0,0.09705136822295968,0.0,0.0,0.0,0.5305965208657994,0.5723077920973815,1.031150581566639,-0.001979332394594898,-0.011808942542201889,0.12835910022055685
9706,11.0,299.60204,-6806.6566,0.0,0.0,0.09706137264333381,0.0,0.0,0.0,0.5179460224397925,0.5444623621242515,1.006645259620652,0.000943384843874835,-0.01696010340058188,0.11986986796773488
9707,11.0,299.70288999999997,-6902.6231,0.0,0.0,0.09707137706370794,0.0,0.0,0.0,0.5083905268417385,0.5434250372018755,1.046409520122579,0.0009481148473291501,-0.0012612677852774387,0.11313316322037388
9708,11.0,300.21542999999997,-7144.1704,0.0,0.0,0.09708138148408185,0.0,0.0,0.0,0.5465186721421935,0.5727922978976985,1.052338451757719,0.0035472690365881965,0.005411276141901375,0.11545716378223489
9709,11.0,300.301,-7107.2418,0.0,0.0,0.0970913859044562,0.0,0.0,0.0,0.5356837760403725,0.5500290669811425,1.0747112166157389,0.012070698480285188,0.004314066922715256,0.1073231770144729
9710,11.0,299.79825,-6936.4076,0.0,0.0,0.09710139032483034,0.0,0.0,0.0,0.5441861906769955,0.5403045106039035,1.024004027286329,0.00954870449190876,0.010185256879706589,0.1031811524606869
9711,11.0,299.73418,-6898.8108,0.0,0.0,0.09711139474520447,0.0,0.0,0.0,0.5161670389742204,0.5564967436944525,1.024402437225649,-0.009532807712414871,0.02102092305160358,0.1190592172252299
9712,11.0,300.65337999999997,-7074.1455,0.0,0.0,0.09712136625630108,0.0,0.0,0.0,0.5443571462338676,0.5516707145281605,1.0543356690298291,-0.01243259493900159,0.017093413676488582,0.10490914918122689
9713,11.0,300.22163,-7212.9237,0.0,0.0,0.09713137067667543,0.0,0.0,0.0,0.5286415662553605,0.5823826695641945,1.081524411613149,-0.023205333213438078,0.01014061915980119,0.10410321005168689
9714,11.0,299.61888999999996,-7039.6004,0.0,0.0,0.09714137509704956,0.0,0.0,0.0,0.5248266897613615,0.5540395311419445,1.060996572537209,0.0019591062000737284,-0.0035391466211365766,0.1080528488089859
9715,11.0,298.96232000000003,-6853.0369,0.0,0.0,0.09715137951742348,0.0,0.0,0.0,0.49104064537943853,0.5551344086700005,1.036977073616669,-0.002717067228103657,-0.00990690258776016,0.12172514916583688
9716,11.0,299.90328999999997,-6815.6603,0.0,0.0,0.09716138393779761,0.0,0.0,0.0,0.5240552720627285,0.5524740192074404,0.995261263024639,0.01701687073743438,-0.013679829818344088,0.12615266706779887
9717,11.0,299.57482999999996,-6935.4159,0.0,0.0,0.09717138835817174,0.0,0.0,0.0,0.5253972002301666,0.5533903823328785,1.029405663569429,0.01013597543459289,-0.005412670171388955,0.12457738740233087
9718,11.0,299.75845,-7062.7973,0.0,0.0,0.0971813927785461,0.0,0.0,0.0,0.5523626528889495,0.5675091105512884,1.027042257711179,0.023317439204502077,-0.0044268381124699056,0.12415174130032289
9719,11.0,300.38896,-6918.8091,0.0,0.0,0.09719139719892045,0.0,0.0,0.0,0.4995354910378145,0.5592103591847655,1.044399333249189,0.023294066564445375,0.001946200534875038,0.14173327200048488
9720,11.0,300.60285,-6844.0569,0.0,0.0,0.09720136871001683,0.0,0.0,0.0,0.5036916808279985,0.5529758515844675,1.023754869086739,0.0005531458445537445,0.0012028876582407689,0.12619663198963788
9721,11.0,300.55915,-6968.88,0.0,0.0,0.09721137313039097,0.0,0.0,0.0,0.5074246867139176,0.5586516936096295,1.052289106477849,-0.015573358167970786,0.002625583713674937,0.12732159291316286
9722,11.0,300.46438,-7077.4442,0.0,0.0,0.09722137755076532,0.0,0.0,0.0,0.5555033836939155,0.5533438234907835,1.042519045038619,-0.012056875722420987,-0.0061443060498957945,0.10878609737635189
9723,11.0,299.91595,-6971.4129,0.0,0.0,0.09723138197113923,0.0,0.0,0.0,0.5123647977089685,0.5548661405735245,1.0519044767398888,-0.006600027947997044,0.008520211766679432,0.11852633886513889
9724,11.0,299.1318,-6893.0937,0.0,0.0,0.09724138639151358,0.0,0.0,0.0,0.5207766480516535,0.5567661263660385,1.0177856100976188,-0.006666182945701034,-0.010703462365099491,0.11746291262018689
9725,11.0,300.28028,-6883.4567,0.0,0.0,0.09725139081188772,0.0,0.0,0.0,0.49238366785698456,0.5381911546053315,1.061824093893879,-0.0004930306584433375,0.00016064894910731682,0.09697053020499621
9726,11.0,300.15582,-7058.3671,0.0,0.0,0.09726139523226185,0.0,0.0,0.0,0.5418822524671145,0.5590646943503895,1.044620424421009,-0.0034369053290711467,0.0024906428143823076,0.09766276139506411
9727,11.0,299.91167,-7219.8057,0.0,0.0,0.09727136674335846,0.0,0.0,0.0,0.5590592835948555,0.5744406126303745,1.061140758026439,0.01100553248491149,-0.006691982015772203,0.1055504655670199
9728,11.0,299.83943,-7082.4257,0.0,0.0,0.09728137116373259,0.0,0.0,0.0,0.5606747183617865,0.5587407076309145,1.033465148770069,-0.004926167660424896,-0.011929346038334789,0.11394153415015389
9729,11.0,299.69947,-6980.4934,0.0,0.0,0.09729137558410672,0.0,0.0,0.0,0.5160421558993955,0.5730429455749354,1.0328105892054689,-0.0064883866334289044,-0.006107656185828734,0.12106698243088088
9730,11.0,300.30133,-7012.7129,0.0,0.0,0.09730138000448085,0.0,0.0,0.0,0.5406975097876895,0.5469044468527665,1.044087657518429,-0.002134025591336928,0.0016338434947477981,0.11640768356854388
9731,11.0,300.59328999999997,-7084.9901,0.0,0.0,0.09731138442485521,0.0,0.0,0.0,0.5162490413048135,0.5604122460558825,1.076998831366509,0.0027347026434441373,0.017138614763449585,0.12402748644055989
9732,11.0,300.45743,-6978.5374,0.0,0.0,0.09732138884522934,0.0,0.0,0.0,0.5186438680486645,0.5636541904133375,1.039003067191619,0.010850756505636291,0.007025426411680603,0.11581269297732288
9733,11.0,300.41999,-6817.688,0.0,0.0,0.09733139326560347,0.0,0.0,0.0,0.4854791688930636,0.5423471214804935,1.044580603692079,0.0010387630282429289,0.016255032305246785,0.1071863274559669
9734,11.0,300.10835,-6829.1597,0.0,0.0,0.0973413976859776,0.0,0.0,0.0,0.5067283609801955,0.5583184052542365,1.010847258447857,-0.006377905287575244,0.01029355203714449,0.11035709099389689
9735,11.0,299.80654,-7025.7303,0.0,0.0,0.09735136919707421,0.0,0.0,0.0,0.5152567046868775,0.5653352736542474,1.0550545699757792,-0.006358720815481884,0.012665681978755488,0.11756982063823787
9736,11.0,300.28967,-7090.4051,0.0,0.0,0.09736137361744834,0.0,0.0,0.0,0.5431751494622136,0.5704766769141645,1.0416543374032792,-0.01001295106575133,0.0035219642299158067,0.12282818335719789
9737,11.0,300.46592000000004,-6973.3757,0.0,0.0,0.09737137803782248,0.0,0.0,0.0,0.5029330199481246,0.5758381884933045,1.040960869034839,0.0007231224802391324,0.008295962699597773,0.13315121590600187
9738,11.0,299.4764,-6923.6659,0.0,0.0,0.09738138245819683,0.0,0.0,0.0,0.5371235031074625,0.5450676676014904,1.0224303485560189,0.002798927805007667,0.005747720872680885,0.11809958832052189
9739,11.0,299.98697999999996,-6999.4695,0.0,0.0,0.09739138687857074,0.0,0.0,0.0,0.5349840660513164,0.5642970064092784,1.028382888918489,0.000869390877302199,0.0030745382156832967,0.1285625101781319
9740,11.0,299.54059,-7123.7497,0.0,0.0,0.0974013912989451,0.0,0.0,0.0,0.5625890517757165,0.5685565274446605,1.034296419152109,0.018769111493117083,-0.019691371734137084,0.11750842781467889
9741,11.0,299.84245,-7026.3678,0.0,0.0,0.09741139571931923,0.0,0.0,0.0,0.5220681062316105,0.5623870907657844,1.051385186063639,0.008224938528538232,-0.013332510988816387,0.1161329408039289
9742,11.0,299.87076,-6951.2817,0.0,0.0,0.09742140013969336,0.0,0.0,0.0,0.5218977079622935,0.5546903720786774,1.036427993387479,0.016224543609737786,-0.002827959446872867,0.11162127248116188
9743,11.0,300.08637000000004,-7055.3435,0.0,0.0,0.09743137165078974,0.0,0.0,0.0,0.5101537238707525,0.5594392523823555,1.075055316349699,-0.008198228850602191,0.0064433325690574144,0.1187931985439759
9744,11.0,299.90447,-7156.206999999999,0.0,0.0,0.0974413760711641,0.0,0.0,0.0,0.5605803847774764,0.5500915439823084,1.064636268221419,-0.01327627763476659,0.005985789049926384,0.09176245103549882
9745,11.0,301.17049,-7093.5869,0.0,0.0,0.09745138049153845,0.0,0.0,0.0,0.5242080600453075,0.5725091755547564,1.059556034870039,-0.020943444882707083,0.001091034473076719,0.1109499638924089
9746,11.0,300.57409,-7058.8628,0.0,0.0,0.09746138491191236,0.0,0.0,0.0,0.5485528831754545,0.5564783937351414,1.040686784882789,-0.0016285050852709385,0.0025650901495796875,0.09143937725436392
9747,11.0,299.92716,-7095.3322,0.0,0.0,0.0974713893322865,0.0,0.0,0.0,0.5203971048291955,0.5698619887409995,1.0665447247847688,-0.008671489803959412,9.663702096108141e-05,0.11153773001041689
9748,11.0,299.61054,-7060.3477,0.0,0.0,0.09748139375266063,0.0,0.0,0.0,0.5501596850515335,0.5610635530876614,1.034946216441239,0.004196037572891666,-0.004797864157237325,0.10876493058176291
9749,11.0,300.26235,-7000.0695,0.0,0.0,0.09749139817303498,0.0,0.0,0.0,0.5130553985796255,0.5565764358148174,1.058214491737639,0.008262640956809172,0.005520094237715885,0.12231214521376887
9750,11.0,299.62684,-7023.8375,0.0,0.0,0.09750136968413159,0.0,0.0,0.0,0.5420283833965365,0.5687413239978985,1.0243015175156889,0.031424115842318766,0.008764348400098841,0.12157811644382588
9751,11.0,299.63982000000004,-6973.7422,0.0,0.0,0.09751137410450572,0.0,0.0,0.0,0.5212438171427595,0.5545667251689744,1.044032942013029,0.014814792533606187,-0.00027871253665178575,0.13130143665594288
9752,11.0,299.0035,-6964.6629,0.0,0.0,0.09752137852487985,0.0,0.0,0.0,0.5370637112190615,0.5575748215358505,1.022445040682469,-0.003876371554493087,-0.02117892015294668,0.12556604592240386
9753,11.0,299.39961,-6941.7664,0.0,0.0,0.09753138294525399,0.0,0.0,0.0,0.49597122169104857,0.5695228944625335,1.0446295436719089,-0.013427015812393287,-0.02019054027665118,0.13028520760064888
9754,11.0,299.91832,-7018.9092,0.0,0.0,0.09754138736562812,0.0,0.0,0.0,0.5092640497529485,0.5663206087139925,1.057988536965339,-0.01172143218406529,-0.008886209456500592,0.1173412010181749
9755,11.0,300.19102999999996,-6989.9651,0.0,0.0,0.09755139178600225,0.0,0.0,0.0,0.5047681476017375,0.5752813265033465,1.0447253971313688,-0.006452129302450584,0.01160701091652279,0.1297021328306039
9756,11.0,299.71032,-6999.6195,0.0,0.0,0.09756139620637638,0.0,0.0,0.0,0.5366860323767875,0.5546065560304055,1.036416948961389,-0.019034878888346284,0.011425169000576389,0.11360281477422488
9757,11.0,299.75042,-6966.0487,0.0,0.0,0.09757140062675052,0.0,0.0,0.0,0.5286229123210194,0.5566107951257084,1.032271134852229,-0.014586394815315087,0.02192559631063788,0.1064369378145079
9758,11.0,299.93079,-6979.7762,0.0,0.0,0.09758137213784734,0.0,0.0,0.0,0.5379687360758805,0.5635522777182795,1.020156716656629,0.0019091701953954283,0.00933904338916682,0.1037429996411369
9759,11.0,299.75427,-7107.991999999999,0.0,0.0,0.09759137655822148,0.0,0.0,0.0,0.5342914589454615,0.5560291997008094,1.0703314430584887,0.02066245340472538,-0.0027270075155596874,0.1108886723938599
9760,11.0,300.19773,-7119.1898,0.0,0.0,0.09760138097859561,0.0,0.0,0.0,0.5521702974899655,0.5512388673355405,1.060646798602689,0.005007474293499236,-0.015755154487662685,0.10152700140743491
9761,11.0,300.41622,-7109.4789,0.0,0.0,0.09761138539896974,0.0,0.0,0.0,0.5290049886687275,0.5587204831589184,1.0733785900842188,0.011754868424115187,-0.012309095963813188,0.1047944492699069
9762,11.0,300.10567000000003,-7080.535,0.0,0.0,0.09762138981934387,0.0,0.0,0.0,0.5459173487378475,0.5557327835165555,1.050655645991639,-0.0016070329984268085,-0.0008610973036436874,0.1053412192888689
9763,11.0,299.95516000000003,-7111.1521,0.0,0.0,0.097631394239718,0.0,0.0,0.0,0.5390908902966285,0.5743539493493215,1.048167813021109,-0.0002069140398658258,0.0002117044836886058,0.1234958847755949
9764,11.0,299.83113,-7118.7614,0.0,0.0,0.09764139866009214,0.0,0.0,0.0,0.5524531158578775,0.5584534917575685,1.053019051849889,-0.025524482333820275,-0.01113028181072329,0.11380041880872688
9765,11.0,298.79514,-6955.191999999999,0.0,0.0,0.09765140308046627,0.0,0.0,0.0,0.5128316628250446,0.5586606203430105,1.042712373157699,-0.0038244037807142663,-0.0017736452587451582,0.10543264484539189
9766,11.0,299.3596,-6744.3834,0.0,0.0,0.0976613745915631,0.0,0.0,0.0,0.4919913982132706,0.5465511366753975,1.011581621590333,-0.0034400803482594966,0.00884264233665085,0.1092779289748919
9767,11.0,299.72188,-6865.441,0.0,0.0,0.09767137901193723,0.0,0.0,0.0,0.4885966557407355,0.5578647529194645,1.040461235410529,0.007813780687060113,0.01206058016478659,0.1128620681561189
9768,11.0,300.12348,-7014.2031,0.0,0.0,0.09768138343231136,0.0,0.0,0.0,0.5429845672509045,0.5684088057125815,1.0207492653151091,0.007029236941331674,0.0024407170435300175,0.13157180218012587
9769,11.0,300.20977,-6998.185,0.0,0.0,0.0976913878526855,0.0,0.0,0.0,0.5254912805019515,0.5659935315817125,1.035788733899389,0.008698427564492961,0.00995021558448482,0.12385768598880188
9770,11.0,300.02771,-6946.8640000000005,0.0,0.0,0.0977013922730594,0.0,0.0,0.0,0.5327751200383105,0.5536412326601355,1.025256809709969,0.005161597233084985,0.017215899401576983,0.13525857346398187
9771,11.0,299.67222000000004,-6941.2457,0.0,0.0,0.09771139669343376,0.0,0.0,0.0,0.49467070505519756,0.5736690733417296,1.041625561100439,-0.0033855134866491664,0.006598261346447693,0.12832687886737687
9772,11.0,299.94874,-6954.7854,0.0,0.0,0.0977214011138079,0.0,0.0,0.0,0.5253616959466625,0.5456538327843405,1.043065592142559,-0.0029631329883884573,-0.005349618454766235,0.11817933110339188
9773,11.0,299.81654,-7051.6243,0.0,0.0,0.09773140553418203,0.0,0.0,0.0,0.5081729009852605,0.5645427702210335,1.0708019964049291,-0.0006668976172251705,-0.012378963611208589,0.10474083820711591
9774,11.0,300.26422,-7001.7875,0.0,0.0,0.09774137704527863,0.0,0.0,0.0,0.5366098967642734,0.5613414875900915,1.030417191144259,0.01118245304512219,0.0016764321189759682,0.10834131097995489
9775,11.0,300.46457999999996,-6902.5977,0.0,0.0,0.09775138146565299,0.0,0.0,0.0,0.5041643417346465,0.5549543946572345,1.039098616676049,-0.007398953360344843,-0.0028481085330614273,0.11108232475297189
9776,11.0,300.83036,-6996.8423,0.0,0.0,0.09776138588602712,0.0,0.0,0.0,0.5469364858209285,0.5688079654569755,1.011120876504861,-0.01949783589878658,-0.006299869628473724,0.10763326194257589
9777,11.0,300.99107999999995,-7091.7297,0.0,0.0,0.09777139030640103,0.0,0.0,0.0,0.5462658358447405,0.5460073760092325,1.063435566852919,-0.018643751177494984,0.002036133067375688,0.0979214086818406
9778,11.0,300.67199,-7101.3819,0.0,0.0,0.09778139472677516,0.0,0.0,0.0,0.5542078218510536,0.5497992213284585,1.0546356923844389,0.007378382458139653,0.015058695004927486,0.08880778334639582
9779,11.0,299.88254,-7086.7007,0.0,0.0,0.0977913991471493,0.0,0.0,0.0,0.5253437512873915,0.5673857878816174,1.061450508582009,0.007844362702903323,0.00016573407645667986,0.11194131765774788
9780,11.0,300.40766,-7074.418000000001,0.0,0.0,0.09780140356752365,0.0,0.0,0.0,0.5477113080398975,0.5417278736818785,1.061007211663259,0.002151274249114238,-0.008496313553795862,0.09661664754132071
9781,11.0,299.73177999999996,-7087.2537,0.0,0.0,0.09781137507862026,0.0,0.0,0.0,0.5390104990336945,0.5774526100101355,1.037885047031279,0.005448917977816334,-0.014927886443517684,0.1211938818734049
9782,11.0,300.05685,-6976.4616,0.0,0.0,0.09782137949899439,0.0,0.0,0.0,0.5408255744678285,0.5413670350562665,1.038477494364749,0.016062585713753786,0.00858764862708493,0.10815350507391991
9783,11.0,299.84526,-6985.3465,0.0,0.0,0.09783138391936852,0.0,0.0,0.0,0.5154373975772105,0.5694064517610414,1.038527042294639,-0.0037975853810424966,0.008676208205700081,0.1232067538595599
9784,11.0,299.61715,-6978.4504,0.0,0.0,0.09784138833974265,0.0,0.0,0.0,0.5172717348957455,0.5743779127141865,1.029625032216079,-0.007292086176272873,-0.003216107493155097,0.12091468080834988
9785,11.0,300.1916,-6889.2846,0.0,0.0,0.09785139276011678,0.0,0.0,0.0,0.49881944745714657,0.5503312080284615,1.0450198476104289,-0.009481074911334242,-0.016634658614212986,0.12254803996954988
9786,11.0,300.43598,-6929.0863,0.0,0.0,0.09786139718049114,0.0,0.0,0.0,0.5103710761497036,0.5735430047642874,1.0223551653985992,0.003737832908070386,-0.007083675120179303,0.14033745919272886
9787,11.0,300.16837000000004,-6997.0026,0.0,0.0,0.09787140160086527,0.0,0.0,0.0,0.5102533364880835,0.5806795886636135,1.0359811500933789,0.007209432528515593,-0.003924342765902476,0.13586639180146887
9788,11.0,300.29843,-6952.1137,0.0,0.0,0.0978814060212394,0.0,0.0,0.0,0.5214412894547485,0.5703126013254715,1.021515079740689,-0.005125815420378595,-0.004272657214978436,0.12663049554995687
9789,11.0,300.60823,-6961.5857,0.0,0.0,0.09789137753233601,0.0,0.0,0.0,0.5163799937477375,0.5693655671195065,1.030402600342819,0.006554327531386764,0.007042684391358833,0.12256009764573987
9790,11.0,299.29607999999996,-7021.5733,0.0,0.0,0.09790138195271014,0.0,0.0,0.0,0.5311413758420725,0.5492799610497114,1.053961577092909,0.0051554215750504945,0.012433848329375288,0.10688857378158091
9791,11.0,299.97244,-6930.8762,0.0,0.0,0.09791138637308427,0.0,0.0,0.0,0.5123296581955006,0.5461748662507625,1.048308756110019,0.02088700786538718,0.011587558541102988,0.1121501485033579
9792,11.0,299.9501,-7053.1363,0.0,0.0,0.09792139079345841,0.0,0.0,0.0,0.5334087965183495,0.5604532928174335,1.050115178388299,-0.011457945614811189,-0.001115642163680309,0.10932668656970389
9793,11.0,300.67427000000004,-7155.7183,0.0,0.0,0.09793139521383276,0.0,0.0,0.0,0.5730605457291724,0.5433230637118115,1.058776034943059,-0.01102305259239059,-0.01985636532742068,0.09652477108850321
9794,11.0,300.54722000000004,-7104.9506,0.0,0.0,0.0979413996342069,0.0,0.0,0.0,0.5534062498294444,0.5652039564412875,1.041117416175289,-0.024322707933464374,-0.005899586088393813,0.09932646030400841
9795,11.0,300.70276,-6966.5789,0.0,0.0,0.09795140405458103,0.0,0.0,0.0,0.5171352703722775,0.5521377214992506,1.048393058518339,-0.008205789925498412,-0.008166403070261232,0.09881478318900981
9796,11.0,300.03798,-6919.1079,0.0,0.0,0.09796140847495516,0.0,0.0,0.0,0.5088324153428495,0.5567950242588905,1.0376085310789889,-2.820823937018647e-05,-0.0036880876983859164,0.09710366214888531
9797,11.0,300.12216,-6881.0713,0.0,0.0,0.09797137998605177,0.0,0.0,0.0,0.49448924209478856,0.5569706914287275,1.0402139010611189,0.004224081397234376,-0.0076951574713529135,0.12024175101943689
9798,11.0,299.75773,-6936.2237,0.0,0.0,0.0979813844064259,0.0,0.0,0.0,0.5312575854960415,0.5365006076084875,1.040680604057179,0.012882285465882588,0.0005583230763371974,0.1154827483472599
9799,11.0,299.9399,-6959.5783,0.0,0.0,0.09799138882680003,0.0,0.0,0.0,0.5302643369530154,0.5607668329283775,1.024506903310959,0.01098789484042079,-0.0027165741806049973,0.13084096514799787
9800,11.0,299.78779,-6930.9137,0.0,0.0,0.09800139324717416,0.0,0.0,0.0,0.5304725193185615,0.5547774203947684,1.0215747601715792,0.0017531233978448084,0.005155699813527955,0.12562225090545087
9801,11.0,299.79062000000005,-6960.48,0.0,0.0,0.0980113976675483,0.0,0.0,0.0,0.5165962213190775,0.5441713972255355,1.0550445387997889,-0.002186384884954388,0.0034390665915344466,0.12197851235334188
9802,11.0,299.75235,-6967.3601,0.0,0.0,0.09802140208792265,0.0,0.0,0.0,0.5229572939893665,0.5720754133194474,1.022870808374489,-0.012610321033041789,0.004825526695567405,0.13302776151381787
9803,11.0,299.60811,-6931.6041,0.0,0.0,0.09803140650829678,0.0,0.0,0.0,0.4913795876703896,0.5577045175486505,1.057950438761579,-0.008425004051508162,0.0007644289580557643,0.13063541723271185
9804,11.0,299.66727000000003,-6957.7812,0.0,0.0,0.09804137801939317,0.0,0.0,0.0,0.5201233753146806,0.5703119731104095,1.024556451240849,-0.004374939543672916,-0.01080931356329619,0.12729167163770988
9805,11.0,299.94696,-6967.2925,0.0,0.0,0.0980513824397673,0.0,0.0,0.0,0.5114414836878445,0.5782942864707025,1.028147105620219,0.003459795864730267,-0.01014908385113659,0.12030728803590489
9806,11.0,300.40006,-6925.6471,0.0,0.0,0.09806138686014165,0.0,0.0,0.0,0.5246623405951415,0.5568598216027855,1.023701572131479,0.00926463050447284,-0.0017266216388292883,0.10890461724054891
9807,11.0,300.3693,-6935.7432,0.0,0.0,0.09807139128051601,0.0,0.0,0.0,0.5076244793686355,0.5611556575217514,1.039512630666909,0.01320791365051959,0.01012957149131087,0.1117847198547929
9808,11.0,300.23636,-7053.1495,0.0,0.0,0.09808139570088992,0.0,0.0,0.0,0.5392630009586145,0.5528154642261385,1.051902855539729,0.01913784232375798,0.01036103449380449,0.10836713872500389
9809,11.0,300.75849,-7119.7792,0.0,0.0,0.09809140012126405,0.0,0.0,0.0,0.5309831365739555,0.5600002889627255,1.073251629846689,0.005802554016417495,0.005428163981318074,0.1085596359790019
9810,11.0,300.93318999999997,-7053.8454,0.0,0.0,0.09810140454163818,0.0,0.0,0.0,0.5541920962095015,0.5519876490269395,1.038013121843919,0.004448858367618136,0.01116240893164399,0.11611087221675088
9811,11.0,301.00925,-7021.4122,0.0,0.0,0.09811140896201254,0.0,0.0,0.0,0.5463532387983665,0.5416891472630565,1.0462915778109392,-0.021604360565184378,0.0026522280369795275,0.1058646034955229
9812,11.0,300.44022,-7081.0978,0.0,0.0,0.09812138047310892,0.0,0.0,0.0,0.5493686508309644,0.5599622920839755,1.043145942875489,-0.004789102076997576,0.0064476574244592445,0.10174850801179591
9813,11.0,300.02106000000003,-7088.1322,0.0,0.0,0.09813138489348328,0.0,0.0,0.0,0.5383553416515354,0.5640995746272934,1.052160322390139,-0.010244370903790689,-0.0063157620509921835,0.1048083307962769
9814,11.0,299.7016,-7108.5852,0.0,0.0,0.09814138931385741,0.0,0.0,0.0,0.5280783613197765,0.5608366965227725,1.071917382115009,-0.004607175048042776,-0.003908134715977866,0.10536278125099689
9815,11.0,300.27173,-7049.6621,0.0,0.0,0.09815139373423154,0.0,0.0,0.0,0.5135989059332655,0.5798323089299934,1.049490003076599,-0.01021747620638639,-0.004287141523832925,0.12526791734548087
9816,11.0,300.08383,-6927.8349,0.0,0.0,0.09816139815460567,0.0,0.0,0.0,0.5181005532125434,0.5570272206518064,1.030761088228199,-0.004550412068165706,-0.011922193505878888,0.1172633732779939
9817,11.0,299.80203,-6887.9771,0.0,0.0,0.0981714025749798,0.0,0.0,0.0,0.5105304502579325,0.5664269189144845,1.0168157271018992,0.004710481569938336,0.0025290675886495374,0.13642186563878986
9818,11.0,299.9395,-6913.9293,0.0,0.0,0.09818140699535394,0.0,0.0,0.0,0.5140092823562665,0.5670183833953574,1.020634160103749,-0.0006141519409470774,-0.0028091677105182675,0.12226407662902487
9819,11.0,300.36818999999997,-6853.4951,0.0,0.0,0.09819141141572807,0.0,0.0,0.0,0.5060984537905285,0.5503579071685964,1.0268350480657291,0.01055676705537179,0.009654471185047121,0.13060318574703086
9820,11.0,299.66345,-6929.5744,0.0,0.0,0.0982013829268249,0.0,0.0,0.0,0.5160823819283654,0.5624527392397635,1.027882444694099,-0.006087429788657545,0.008067499424025201,0.1200113886092019
9821,11.0,300.15701,-7113.1784,0.0,0.0,0.09821138734719903,0.0,0.0,0.0,0.5351678290894525,0.5717662808464384,1.055294507599459,-0.008241250943223142,0.012678759997796187,0.12720333649399188
9822,11.0,299.62807000000004,-7189.0554,0.0,0.0,0.09822139176757316,0.0,0.0,0.0,0.5593359920646646,0.5706783339490664,1.055279004872929,-0.014718914756143788,-0.004025770519462616,0.11068981192923388
9823,11.0,299.50009,-7112.9614,0.0,0.0,0.0982313961879473,0.0,0.0,0.0,0.5424059913113035,0.5718041054726715,1.047952598699869,-0.01246078862303409,-0.0034279571147880273,0.12704585716344988
9824,11.0,299.31984,-7018.1268,0.0,0.0,0.09824140060832143,0.0,0.0,0.0,0.5317710803817195,0.5488448511917694,1.0527193324703088,0.008784233737286372,-0.00796810962039119,0.10041039574423449
9825,11.0,300.30072,-6922.0397,0.0,0.0,0.09825140502869556,0.0,0.0,0.0,0.5153886197173965,0.5411804754478545,1.047558140435939,-0.004877097376632035,-0.007327143920457803,0.10105273855237881
9826,11.0,300.31887,-6973.5655,0.0,0.0,0.09826140944906969,0.0,0.0,0.0,0.5157005082306775,0.5565071801704825,1.047582154463309,0.0042102655294708555,-0.014209040213073088,0.09368819060580451
9827,11.0,300.53889,-6981.9128,0.0,0.0,0.0982713809601663,0.0,0.0,0.0,0.5228579346845605,0.5541126877991644,1.045356550618659,-0.0034820297129995767,-0.0063718059272732845,0.1056957453663579
9828,11.0,300.22927000000004,-6936.145,0.0,0.0,0.09828138538054065,0.0,0.0,0.0,0.5258808346353975,0.5623771001197985,1.020156919306649,0.014983813796037287,0.008064327343262142,0.1027702187501309
9829,11.0,300.32916,-6965.2196,0.0,0.0,0.09829138980091479,0.0,0.0,0.0,0.5296590618732795,0.5577624045268634,1.029831329936439,0.007029590869591603,0.01066395067744999,0.10454265662005689
9830,11.0,299.85062,-7149.1748,0.0,0.0,0.09830139422128892,0.0,0.0,0.0,0.5527011594823575,0.5698011329399935,1.050668311617889,0.003106693910256817,0.008734228730276261,0.1109575632681589
9831,11.0,300.20235,-7218.1883,0.0,0.0,0.09831139864166283,0.0,0.0,0.0,0.5503308939209305,0.5759027933196804,1.067915348195039,-0.0023467719393083578,0.0066633310519695725,0.11585009203851389
9832,11.0,300.36654,-7131.5171,0.0,0.0,0.09832140306203696,0.0,0.0,0.0,0.5367496948805704,0.5660895978236934,1.064963851978749,-0.004852307503660465,0.0003024477378592677,0.1137379620725629
9833,11.0,299.69007999999997,-6914.8203,0.0,0.0,0.09833140748241131,0.0,0.0,0.0,0.5094743599437045,0.5527661493437714,1.039692178584629,-0.01826778371463988,0.007897354365908193,0.12648589462818588
9834,11.0,299.55503,-6878.855,0.0,0.0,0.09834141190278545,0.0,0.0,0.0,0.5159288340082115,0.5491717358065306,1.025899615573409,-0.01020431814058779,-0.013045183657959387,0.12157521854853989
9835,11.0,300.67787999999996,-6871.6405,0.0,0.0,0.09835138341388205,0.0,0.0,0.0,0.5062024436482915,0.5506771214801005,1.0319275417433191,-0.007377999753576884,-0.00963178218483289,0.13251945446865188
9836,11.0,300.60767000000004,-6811.6451,0.0,0.0,0.09836138783425619,0.0,0.0,0.0,0.5059593345517985,0.5557359144593644,1.008874774610688,0.005594585041342555,-0.00859682543059061,0.11836528276174389
9837,11.0,300.06357,-6803.443,0.0,0.0,0.09837139225463054,0.0,0.0,0.0,0.49655229022589553,0.5554143595401295,1.0161100997322592,0.02133652917950148,-0.01057112176953849,0.1221198202122879
9838,11.0,300.38852,-6869.4132,0.0,0.0,0.09838139667500467,0.0,0.0,0.0,0.5014373006805085,0.5551016097642635,1.031591142710119,0.008949715717118173,-0.001131600042155229,0.11224000352222589
9839,11.0,299.87605,-7061.5182,0.0,0.0,0.09839140109537858,0.0,0.0,0.0,0.5272787144733575,0.5825827256639384,1.0366637766857492,-0.01236497569357809,0.0030168661478165073,0.11588874752982889
9840,11.0,299.56531,-7184.5921,0.0,0.0,0.09840140551575272,0.0,0.0,0.0,0.5518826864490805,0.5711786261859414,1.0608752865002389,0.0016474571177913582,0.0041983985469496755,0.10913957980623791
9841,11.0,300.25196,-7177.7398,0.0,0.0,0.09841140993612707,0.0,0.0,0.0,0.5590517754116144,0.5669090030470625,1.055892831783509,-0.003338638915823007,0.02005377887090388,0.11314110710115789
9842,11.0,300.02207000000004,-7057.6224,0.0,0.0,0.0984214143565012,0.0,0.0,0.0,0.5462302808987315,0.5500321168639435,1.049078522210989,0.006505431222636074,0.005976866572195805,0.1115073122424149
9843,11.0,299.72496,-6909.3736,0.0,0.0,0.09843138586759781,0.0,0.0,0.0,0.5251277364985725,0.5366298476587426,1.038519442918889,-0.013631152270289987,0.007865549255869273,0.11379883813857089
9844,11.0,299.91452999999996,-6949.1707,0.0,0.0,0.09844139028797194,0.0,0.0,0.0,0.5249889718973775,0.5445031049107725,1.042882295199469,-0.010507918268050791,-0.0021753306303384182,0.1077833952098929
9845,11.0,299.84376000000003,-7032.5704,0.0,0.0,0.09845139470834607,0.0,0.0,0.0,0.5426561424959915,0.5453177985211765,1.049751826902439,0.002185590395550978,-0.005767459085953895,0.1094182438487399
9846,11.0,299.69389,-6958.1307,0.0,0.0,0.0984613991287202,0.0,0.0,0.0,0.5255572430834615,0.5521498703679495,1.037390884957509,0.003403861622109987,-0.00945187628585256,0.11135768560014789
9847,11.0,299.42372,-6984.2612,0.0,0.0,0.09847140354909434,0.0,0.0,0.0,0.5139370376241366,0.5744786196416254,1.034625320134569,0.008142862332012942,-0.009514798610437511,0.11322475089691289
9848,11.0,299.52551,-7074.9123,0.0,0.0,0.09848140796946869,0.0,0.0,0.0,0.5221286175275826,0.5753902002265915,1.053077820355689,0.006844890676438113,-0.01270000177289259,0.1061183415855649
9849,11.0,300.11621,-7175.7677,0.0,0.0,0.09849141238984283,0.0,0.0,0.0,0.5300741904392495,0.5906601629436193,1.060519838365159,0.012004639640015687,0.005965216121220995,0.1108960589870889
9850,11.0,300.50083,-7162.5017,0.0,0.0,0.09850141681021696,0.0,0.0,0.0,0.5398298535945585,0.5719468217492565,1.065444943126229,0.016275199021987086,-0.004950297198306295,0.1031969490297459
9851,11.0,300.47144,-6955.0802,0.0,0.0,0.09851138832131356,0.0,0.0,0.0,0.5181455617819855,0.5671986912506525,1.028826489812269,-0.008656530382133033,0.0034105764305226863,0.1187909693937559
9852,11.0,299.72963,-6858.1477,0.0,0.0,0.0985213927416877,0.0,0.0,0.0,0.5051141421133845,0.5513266147942005,1.028264845281839,-0.007318390554168914,0.004251491028339496,0.11993202072886888
9853,11.0,300.03263,-6941.1218,0.0,0.0,0.09853139716206183,0.0,0.0,0.0,0.5222744444819746,0.5446795320181845,1.0429737916834991,-0.009044909044138022,0.010298964819178691,0.13065497295964187
9854,11.0,299.92054,-7039.2152,0.0,0.0,0.09854140158243596,0.0,0.0,0.0,0.5308438349502075,0.5608870550527425,1.048014710930999,0.005325279984714214,0.004416150958365166,0.1234786189938909
9855,11.0,300.17862,-6950.4473,0.0,0.0,0.09855140600281032,0.0,0.0,0.0,0.5149499533516035,0.5631085957644915,1.034703847017319,-0.005502106110015594,-0.003583680077606687,0.13428793053068688
9856,11.0,299.43478999999996,-6870.1963,0.0,0.0,0.09856141042318445,0.0,0.0,0.0,0.5204516886120826,0.5494336406923784,1.018482827491429,0.002054470158410418,-0.008747705665881332,0.1171084574702049
9857,11.0,299.60075,-7001.7722,0.0,0.0,0.09857141484355858,0.0,0.0,0.0,0.5306116081597885,0.5633330103966395,1.0344193263892392,-0.00018249325337568183,-0.005082357326239615,0.12176286233455888
9858,11.0,299.5963,-7210.6438,0.0,0.0,0.09858138635465497,0.0,0.0,0.0,0.5473940189035835,0.5831918612265554,1.061269744764169,0.02064922441141978,-0.01079140031477829,0.1000287794120719
9859,11.0,300.38748,-7099.5379,0.0,0.0,0.09859139077502932,0.0,0.0,0.0,0.5310288544184675,0.5762986296037464,1.050754741851419,0.004175306475845665,-0.01109097581284409,0.11069154458690489
9860,11.0,299.8135,-6942.9593,0.0,0.0,0.09860139519540345,0.0,0.0,0.0,0.49681288801911455,0.5628878288327035,1.050785544654459,0.008926800762131643,0.003561350375877916,0.10034164875144971
9861,11.0,299.53684,-6923.9993,0.0,0.0,0.09861139961577758,0.0,0.0,0.0,0.5190641135276395,0.5478944124654685,1.037764368944369,0.006480906314565655,0.015246415797954087,0.10667632828313389
9862,11.0,299.55126,-7015.8361,0.0,0.0,0.09862140403615172,0.0,0.0,0.0,0.5367353472591545,0.5447866426862555,1.0511169787621688,0.0004793767891058055,0.0049766006642772455,0.1125403105868639
9863,11.0,300.19146,-7081.9626,0.0,0.0,0.09863140845652585,0.0,0.0,0.0,0.5575623078971155,0.5518528664986375,1.043324680193129,-0.0045518154195542055,-0.0016501760731096986,0.10959992972417089
9864,11.0,300.43158,-7086.5695,0.0,0.0,0.0986414128769002,0.0,0.0,0.0,0.5414217809591695,0.5549849441477495,1.057733501915169,-0.00922001254294439,0.0008067277724903321,0.1287326146049199
9865,11.0,300.56192999999996,-6987.905,0.0,0.0,0.09865141729727434,0.0,0.0,0.0,0.5219968950145826,0.5654318566537795,1.036719910741289,0.0015106636933408986,0.006375329200521004,0.12963367765384787
9866,11.0,300.10032,-7005.9351,0.0,0.0,0.09866138880837072,0.0,0.0,0.0,0.5124770860850505,0.5616249747030695,1.055527251147429,-0.007868633285198642,0.0058978695413994045,0.12006453357694688
9867,11.0,300.78207000000003,-7008.5111,0.0,0.0,0.09867139322874485,0.0,0.0,0.0,0.5179285540080685,0.5796439457364034,1.032839872133359,0.002092922695730388,-0.01040775038966499,0.1264912141912109
9868,11.0,300.25412,-6902.2007,0.0,0.0,0.0986813976491192,0.0,0.0,0.0,0.5082869118865125,0.5624194742389805,1.027390309120529,0.009476261466734191,-0.006570520686534903,0.1140280454436919
9869,11.0,300.05445,-6876.9558,0.0,0.0,0.09869140206949356,0.0,0.0,0.0,0.5108565749351186,0.5604592304630195,1.019107090878039,0.01058464865837349,0.004346113084952965,0.12437281220714087
9870,11.0,299.61904,-6977.7743,0.0,0.0,0.09870140648986747,0.0,0.0,0.0,0.5176965197351685,0.5702263230794565,1.033146278963599,0.007909847131691133,-0.003419002719679297,0.1102035937362479
9871,11.0,299.77783,-7079.2801,0.0,0.0,0.0987114109102416,0.0,0.0,0.0,0.5363820978767915,0.5539684212499264,1.061573821119179,-0.006585419819980333,-0.001988394700839278,0.1111383676160029
9872,11.0,299.77114,-7136.7818,0.0,0.0,0.09872141533061574,0.0,0.0,0.0,0.5242399267609525,0.5654058363912114,1.0797577087387888,0.007568475776275403,-0.0025151453296255173,0.1180011004108019
9873,11.0,300.34061,-7143.084,0.0,0.0,0.09873141975099009,0.0,0.0,0.0,0.5442742826406896,0.5653562884613215,1.0616886223555089,0.012423563840860288,0.01030611025888389,0.11511303365077188
9874,11.0,299.7121,-7161.8508,0.0,0.0,0.09874139126208648,0.0,0.0,0.0,0.5507634503886205,0.5623961188241754,1.063864272970229,-0.024312892579745678,0.0049577872443705056,0.12021908461469989
9875,11.0,299.99421,-7071.8175,0.0,0.0,0.09875139568246083,0.0,0.0,0.0,0.5612808243066044,0.5549751865492865,1.0333998954636292,-0.014773462062027185,-0.014323872860156187,0.11358935881289689
9876,11.0,300.14619,-6932.3874,0.0,0.0,0.09876140010283496,0.0,0.0,0.0,0.5321722868913155,0.5432623497658194,1.031838071759489,-0.00983530278931881,-0.005405876734768495,0.11952880798407489
9877,11.0,300.44106,-6891.3045,0.0,0.0,0.0987714045232091,0.0,0.0,0.0,0.5077900646999776,0.5595821307789565,1.027412296647699,0.015908438962790684,0.016106041984042585,0.11488052315032489
9878,11.0,300.69085,-6859.3991,0.0,0.0,0.09878140894358323,0.0,0.0,0.0,0.4954001640671895,0.5550810306547325,1.0346048524825489,0.012238954738890789,0.011516229787063388,0.12246338292369488
9879,11.0,300.76335,-6927.634,0.0,0.0,0.09879141336395736,0.0,0.0,0.0,0.5147756338043995,0.5522910161068795,1.038761103067739,-0.002896157258103467,-0.0049585365428194556,0.09784376433992772
9880,11.0,300.64873,-7033.1937,0.0,0.0,0.09880141778433149,0.0,0.0,0.0,0.5334092322158924,0.5672518970134035,1.037254096194009,-0.010215591561200391,-0.00796596527920456,0.1163119820965989
9881,11.0,300.52435,-7120.1574,0.0,0.0,0.09881138929542832,0.0,0.0,0.0,0.5421936748853494,0.5665298549921435,1.055626549657229,0.01223183361718799,0.00041747470604654565,0.1107660184692549
9882,11.0,300.28679,-7059.793000000001,0.0,0.0,0.09882139371580245,0.0,0.0,0.0,0.5420485166760235,0.5625180736062114,1.0414341581565492,0.008698636496663581,0.004057944351212926,0.13222742565733087
9883,11.0,299.88255,-7060.9054,0.0,0.0,0.09883139813617658,0.0,0.0,0.0,0.5308385761821884,0.5550203065762395,1.060480017636229,0.006734780788071114,-0.008269760254661793,0.11915347988203287
9884,11.0,299.51061,-6995.0461,0.0,0.0,0.09884140255655072,0.0,0.0,0.0,0.5261259297020865,0.5489827038678745,1.051210704396419,0.0005483088216238674,0.0024865163533500574,0.12611593675167387
9885,11.0,299.60215,-6931.5635,0.0,0.0,0.09885140697692485,0.0,0.0,0.0,0.5137638225195416,0.5601799888679604,1.033078391206899,0.006195154992914194,0.0062746634110360635,0.11347758719436589
9886,11.0,299.66038,-6912.8196,0.0,0.0,0.09886141139729898,0.0,0.0,0.0,0.5118692677475636,0.5636430851922414,1.025812172089779,-0.006316403235655464,0.006732337436779974,0.11746187910508488
9887,11.0,300.63686,-6889.7874,0.0,0.0,0.09887141581767311,0.0,0.0,0.0,0.5230203688080914,0.5456835716747755,1.0256193505957492,-0.016490078970694086,-0.0002412038012699618,0.1115262093567799
9888,11.0,300.08729,-6942.0551,0.0,0.0,0.09888142023804725,0.0,0.0,0.0,0.5227401747579384,0.5640949238093345,1.023376318849379,-0.005389541623281345,-0.0005888083571933604,0.11439643278254888
9889,11.0,300.32018,-7021.8903,0.0,0.0,0.09889139174914385,0.0,0.0,0.0,0.5152320219144415,0.5651190258179055,1.054128256734359,0.0031196244000829573,0.010285929356642189,0.11178571283989089
9890,11.0,300.10426,-7078.6559,0.0,0.0,0.09890139616951821,0.0,0.0,0.0,0.5141851825736264,0.5804201257105064,1.057129300880539,0.016140154061909183,0.005321156766082285,0.11656419017898988
9891,11.0,300.11316,-7037.9451,0.0,0.0,0.09891140058989234,0.0,0.0,0.0,0.5361783636791845,0.5484241193527465,1.054757079746419,0.003575373655936906,-0.015722052620145786,0.09720055114994751
9892,11.0,299.25624,-7021.9154,0.0,0.0,0.09892140501026647,0.0,0.0,0.0,0.5335571262004885,0.5514678111956355,1.049462037373839,-0.0019968022448690385,-0.004857085281856995,0.1007932958642738
9893,11.0,299.90736,-6982.9155,0.0,0.0,0.09893140943064038,0.0,0.0,0.0,0.5410111208261404,0.5455564391847284,1.036064439251599,0.0028094691524230176,0.007362889560135622,0.11003823131992789
9894,11.0,298.942,-7080.5495,0.0,0.0,0.09894141385101451,0.0,0.0,0.0,0.5422369203996175,0.5601222741422645,1.0499510318720988,0.002955672022602117,0.01246045425050109,0.11607507409071788
9895,11.0,299.72322,-7012.0957,0.0,0.0,0.09895141827138887,0.0,0.0,0.0,0.5268574557442824,0.5599253185878265,1.0447192163057588,-0.006783107548940593,0.01098942687457199,0.1241078574384919
9896,11.0,300.04671,-6877.8143,0.0,0.0,0.098961422691763,0.0,0.0,0.0,0.5098598002817445,0.5490592954429334,1.031764712452249,-0.008050760228398172,0.0061706677777474935,0.1155991606512489
9897,11.0,299.78161,-6935.4905,0.0,0.0,0.09897139420285961,0.0,0.0,0.0,0.5188423232132505,0.5656835783761225,1.023690021080339,-0.006709001780351924,0.006179853801829084,0.11734650031619788
9898,11.0,299.98458,-6972.342,0.0,0.0,0.09898139862323374,0.0,0.0,0.0,0.5089631347382505,0.5770421930571304,1.0334125610898792,-0.014956469215588589,0.008382375201251022,0.10922866475502989
9899,11.0,300.8734,-6877.6292,0.0,0.0,0.0989914030436081,0.0,0.0,0.0,0.5115516847687205,0.5626100361852875,1.016465851842369,0.006041526418052234,-0.009958203642973179,0.11984956243573089
9900,11.0,300.08605,-6935.7786,0.0,0.0,0.09900140746398223,0.0,0.0,0.0,0.5006337122912006,0.5605851875829505,1.047084547339199,0.005727227180133314,-0.0023016162459518377,0.11670293451518289
9901,11.0,299.75165,-7011.5211,0.0,0.0,0.09901141188435614,0.0,0.0,0.0,0.5191388001925106,0.5708751881784945,1.041313378744629,0.024608119208382274,0.002244101130525538,0.12743512758686787
9902,11.0,299.92207,-7094.5255,0.0,0.0,0.09902141630473027,0.0,0.0,0.0,0.5199614478161995,0.5732375706541434,1.0633595730954188,0.010081360240952792,0.003396130929147027,0.11805256338338088
9903,11.0,299.52545,-7112.6155,0.0,0.0,0.09903142072510462,0.0,0.0,0.0,0.5473648879632085,0.5673216694152895,1.0473709931424688,0.0006245586679541414,-0.004577177880157286,0.1119403550701529
9904,11.0,299.39162999999996,-7087.9679,0.0,0.0,0.09904139223620123,0.0,0.0,0.0,0.5488962938993465,0.5529899256283565,1.052679005116329,-0.00995450609070826,0.006512743341982724,0.11598946458976887
9905,11.0,298.95587,-7041.3657,0.0,0.0,0.09905139665657536,0.0,0.0,0.0,0.5434901993158066,0.5645667943809045,1.032342366334259,-0.011797000376523288,0.019149225175381382,0.11817965534342388
9906,11.0,298.82776,-7081.6065,0.0,0.0,0.0990614010769495,0.0,0.0,0.0,0.5246735167437445,0.5768971463053155,1.051060844706629,-0.015722985823487884,0.01685804479750948,0.12898347506467786
9907,11.0,299.03629,-7119.4285,0.0,0.0,0.09907140549732363,0.0,0.0,0.0,0.5235589112362415,0.5720551077874434,1.0685144829791688,-0.012103247113247489,-0.0032140227310743464,0.1059386112828269
9908,11.0,299.47873,-7039.7402,0.0,0.0,0.09908140991769776,0.0,0.0,0.0,0.5153846275120025,0.5740561652774324,1.050464445697769,-0.005786089614217584,-0.008061140773022652,0.1190838290701589
9909,11.0,299.71135,-6938.1989,0.0,0.0,0.09909141433807189,0.0,0.0,0.0,0.5142988185723415,0.5587029437996874,1.036037486798939,0.008234292448161392,0.001146276767203709,0.1025478711481869
9910,11.0,299.88917000000004,-6964.4392,0.0,0.0,0.09910141875844625,0.0,0.0,0.0,0.5242790280823115,0.5648537974717295,1.027882748669129,0.01003473148460089,0.004191524252971235,0.11691685187629489
9911,11.0,300.00366,-7112.7783,0.0,0.0,0.09911142317882038,0.0,0.0,0.0,0.5408331231810735,0.5692675655698345,1.0520063083749391,0.0016953654063695386,-0.00045578554034003053,0.1014201440518889
9912,11.0,300.42941,-7117.1383,0.0,0.0,0.09912139468991699,0.0,0.0,0.0,0.5432999514770305,0.5726648411676194,1.047467555876999,0.009706897049196151,0.0004310885722701295,0.12184624268528789
9913,11.0,300.01479,-7113.973000000001,0.0,0.0,0.09913139911029112,0.0,0.0,0.0,0.5259909141262614,0.5755008572700124,1.060978435360419,0.011423611635172689,0.0023737483046707177,0.1169895019084649
9914,11.0,299.55012,-7047.1333,0.0,0.0,0.09914140353066525,0.0,0.0,0.0,0.5394127795883965,0.5531319832923765,1.049607742738219,0.0002808793415931327,0.0008335136670988943,0.12468637258308689
9915,11.0,300.09705,-7011.0697,0.0,0.0,0.09915140795103938,0.0,0.0,0.0,0.5373958140718375,0.5551377422628295,1.038656535657419,-0.0067995453026628745,-0.0033800614918360968,0.12433599069850687
9916,11.0,299.65692,-7050.4927,0.0,0.0,0.09916141237141352,0.0,0.0,0.0,0.5487536890802724,0.5579618729415494,1.036458188240459,-0.017648803414051284,0.0035681253713465565,0.12180492234620989
9917,11.0,299.2167,-7076.3169,0.0,0.0,0.09917141679178787,0.0,0.0,0.0,0.5290317182063655,0.5726182113980175,1.049373681965119,-0.004051870119513446,0.009943922896063781,0.12084992399445887
9918,11.0,299.71522999999996,-6889.8941,0.0,0.0,0.099181421212162,0.0,0.0,0.0,0.5039702131479875,0.5591616218549554,1.031223940873879,0.005878677875230334,0.004910767981430066,0.12458214967780087
9919,11.0,299.93053,-6884.6582,0.0,0.0,0.09919142563253613,0.0,0.0,0.0,0.48365679805820955,0.5598229701952255,1.049284414631309,0.007310088185499533,-0.015935582919719585,0.1051924944391909
9920,11.0,300.0568,-6991.0366,0.0,0.0,0.09920139714363252,0.0,0.0,0.0,0.5158360608290555,0.5614598250692705,1.047804664185269,-0.003277062288695867,-0.0015702530330469085,0.11616201094929787
9921,11.0,300.46692,-7052.3272,0.0,0.0,0.09921140156400687,0.0,0.0,0.0,0.5293511250353885,0.5731412004371325,1.041239006187289,0.004430495236055836,-0.008367910954748512,0.1130432879365039
9922,11.0,300.11533,-7012.1227,0.0,0.0,0.099221405984381,0.0,0.0,0.0,0.5445172194846655,0.5560758092054094,1.030917128743599,0.005591382461751484,0.01056002870744369,0.1283625047408929
9923,11.0,300.39575,-6976.7121,0.0,0.0,0.09923141040475514,0.0,0.0,0.0,0.5325379891174075,0.5425605322165555,1.045647758697399,-0.006084879235505824,0.005293509426503705,0.1033811072354209
9924,11.0,300.2218,-6965.286999999999,0.0,0.0,0.09924141482512927,0.0,0.0,0.0,0.5257799959854456,0.5474299588846304,1.044063339516029,-0.0002971576604121777,-0.0033926486925283566,0.12401230795406187
9925,11.0,299.74237,-7061.9857,0.0,0.0,0.0992514192455034,0.0,0.0,0.0,0.5336229671919864,0.5541515155429965,1.058892862679589,0.005041898047096595,-0.005602561346129755,0.1011402742417679
9926,11.0,299.41884,-7092.5733,0.0,0.0,0.09926142366587776,0.0,0.0,0.0,0.5387077196388125,0.5589418580407665,1.0583156140976189,0.011884848146943188,-0.00971238308921258,0.11241285385678489
9927,11.0,299.63647000000003,-6914.3234,0.0,0.0,0.09927139517697414,0.0,0.0,0.0,0.5329722782427685,0.5424925228698435,1.0263168719645892,0.00034764817634020366,-0.014987177786369286,0.11141300905560789
9928,11.0,299.43596,-6933.9015,0.0,0.0,0.09928139959734827,0.0,0.0,0.0,0.5189810067544375,0.5606097994278795,1.028142140694729,-0.012582970373092488,-0.0037749884852623567,0.1155124061776869
9929,11.0,299.49701,-7017.3254,0.0,0.0,0.0992914040177224,0.0,0.0,0.0,0.5256095875836275,0.5722851662226485,1.035196995840989,-0.011328653888801091,0.006967487960362524,0.12791608701183488
9930,11.0,299.72657999999996,-7063.6374,0.0,0.0,0.09930140843809676,0.0,0.0,0.0,0.5203379208908545,0.5647323999772484,1.062099089971019,-0.00018884032292958882,0.012024476037223389,0.11063876438919588
9931,11.0,299.81428,-6929.9106,0.0,0.0,0.0993114128584709,0.0,0.0,0.0,0.5077546009464775,0.5545023939201255,1.044262848460719,0.0024279729917222777,4.112997876846286e-05,0.12491006780766388
9932,11.0,300.17691,-6815.346,0.0,0.0,0.09932141727884503,0.0,0.0,0.0,0.5061179588549535,0.5302991623589525,1.0352778531989688,0.001933775758173808,0.0005522782896856235,0.08841819374919632
9933,11.0,300.08522999999997,-6932.2366,0.0,0.0,0.09933142169921916,0.0,0.0,0.0,0.5220620571285135,0.5553965871333755,1.029768204455209,0.0014723507818847085,-0.007398620507686992,0.13333268899891187
9934,11.0,300.31394,-7093.7675,0.0,0.0,0.09934142611959329,0.0,0.0,0.0,0.5457320759570624,0.5597799374634784,1.0508161448074789,0.007552035793402903,0.0027018618904780076,0.1123169902648239
9935,11.0,300.27917,-7128.595,0.0,0.0,0.0993513976306899,0.0,0.0,0.0,0.5443107596442895,0.5685636607253645,1.0540404079506889,0.015164050723825286,-0.007436273286703033,0.14275095000342186
9936,11.0,299.91515,-7079.3709,0.0,0.0,0.09936140205106425,0.0,0.0,0.0,0.5310330594063825,0.5682342328528525,1.0526846793168891,0.004396692908744806,0.005387770259456526,0.1113740597217639
9937,11.0,300.05175,-6937.1687,0.0,0.0,0.09937140647143838,0.0,0.0,0.0,0.5161941434143955,0.5538361617143734,1.038695748436289,0.0034128559392726564,0.007493129789564332,0.12478720110053787
9938,11.0,299.72643999999997,-6976.2554,0.0,0.0,0.09938141089181252,0.0,0.0,0.0,0.5186545983672235,0.5643421061712295,1.037610760229209,-0.0005563900889889265,0.0014207104905382085,0.10538527540321689
9939,11.0,298.89162000000005,-7063.1199,0.0,0.0,0.09939141531218665,0.0,0.0,0.0,0.5356889334833815,0.5614038936637504,1.049919215818959,-0.0058633571284182956,-0.007252789702944614,0.098609257565226
9940,11.0,299.4121,-7054.8511,0.0,0.0,0.09940141973256078,0.0,0.0,0.0,0.5247551644368025,0.5723952761110155,1.047348093690209,-0.003834984442233497,-0.0032337341945447165,0.1099561681943289
9941,11.0,299.93026000000003,-6928.334,0.0,0.0,0.09941142415293491,0.0,0.0,0.0,0.5080978596828545,0.5601458828695944,1.0377967929475689,0.000994890798523077,0.0033763599878957862,0.12207555131541888
9942,11.0,299.56107000000003,-7011.789000000001,0.0,0.0,0.09942142857330905,0.0,0.0,0.0,0.5213783666235385,0.5663872501730695,1.043643144699559,-0.0014385572698495486,-0.0024885796345286877,0.13024634945931388
9943,11.0,300.2504,-7059.4508,0.0,0.0,0.09943140008440587,0.0,0.0,0.0,0.5335282485726385,0.5619010650903175,1.050467485448069,0.0012441313956112088,-0.014874644203763086,0.1044242279483689
9944,11.0,300.2777,-7054.2241,0.0,0.0,0.09944140450478,0.0,0.0,0.0,0.5484123757840875,0.5543144056290724,1.0415811807460589,0.0039335237237335665,-0.006902656165964124,0.10464776105292992
9945,11.0,299.39511,-7069.9088,0.0,0.0,0.09945140892515414,0.0,0.0,0.0,0.5424609702617296,0.5599256022978545,1.046689177150179,-0.0014853349739661487,-0.0009522795585526749,0.11621435544946389
9946,11.0,300.18518,-7019.3409,0.0,0.0,0.09946141334552827,0.0,0.0,0.0,0.5285034197367265,0.5625763354869615,1.042624625699039,-0.0025366075879436774,-0.0018475409805880985,0.12371078498930388
9947,11.0,300.26639,-7070.754,0.0,0.0,0.0994714177659024,0.0,0.0,0.0,0.5120364337490616,0.5789032903108065,1.0583929250802488,-0.005031840931904035,-0.0066273933000727935,0.12342480528107988
9948,11.0,300.00018,-7139.2208,0.0,0.0,0.09948142218627654,0.0,0.0,0.0,0.5496957482282465,0.5660194403867694,1.054429698639109,0.01131671982912329,-0.0037670114712000866,0.11175894277224889
9949,11.0,300.4297,-7005.2418,0.0,0.0,0.09949142660665067,0.0,0.0,0.0,0.5202491703145955,0.5623293253775834,1.046840050090069,0.002672014886257338,0.0024494971596215474,0.12185921228656788
9950,11.0,300.07411,-6815.4654,0.0,0.0,0.09950139811774728,0.0,0.0,0.0,0.5209268218489745,0.5378508140292425,1.012953663550743,0.00025828894074613373,-0.001059226728587539,0.1067927304546219
9951,11.0,299.58947,-6874.3492,0.0,0.0,0.09951140253812141,0.0,0.0,0.0,0.4912530226003985,0.5589356772151565,1.039441804484919,-0.006607017245861833,-0.008874505100620461,0.11377843128155689
9952,11.0,299.80388999999997,-7014.5558,0.0,0.0,0.09952140695849576,0.0,0.0,0.0,0.5345222165232355,0.5552709643859775,1.0424566288324588,0.002935352406421727,0.006192814486508203,0.11107656949240388
9953,11.0,300.09954,-7237.5954,0.0,0.0,0.0995314113788699,0.0,0.0,0.0,0.5324382346450625,0.5910943406114695,1.076515713718829,0.002167376414403398,0.007003046047446833,0.1299205591546609
9954,11.0,299.90347,-7106.674,0.0,0.0,0.09954141579924403,0.0,0.0,0.0,0.5378746152740915,0.5680251790922205,1.0543516783814089,-0.0036322004705702767,1.4429810184611386e-05,0.12403521753882288
9955,11.0,300.28657999999996,-6970.0516,0.0,0.0,0.09955142021961794,0.0,0.0,0.0,0.5266043256043005,0.5579094879113795,1.034207861093369,-0.016746029998954484,-0.005998494395580305,0.1009716278818738
9956,11.0,299.66732,-7125.4788,0.0,0.0,0.09956142463999207,0.0,0.0,0.0,0.5500897809271345,0.5662247451220315,1.049653136342699,-0.004354853481640576,-0.006467460891038694,0.0985560609217259
9957,11.0,300.83652,-7160.5311,0.0,0.0,0.09957142906036642,0.0,0.0,0.0,0.5451985693819095,0.5709147454623984,1.060509300564119,-0.0036762445272420863,-0.005132672793080366,0.1048117049191099
9958,11.0,300.53426,-7129.4396,0.0,0.0,0.09958140057146303,0.0,0.0,0.0,0.5303902434104415,0.5730139260920715,1.0637674062606688,0.01031225156773999,-0.008854212132917701,0.12851623504606488
9959,11.0,300.53307,-6942.5446,0.0,0.0,0.09959140499183716,0.0,0.0,0.0,0.5101783255831805,0.5536229738933335,1.046558873187319,0.008264748415692164,-0.0015580563389431886,0.11194656629326591
9960,11.0,300.42438,-6855.6691,0.0,0.0,0.0996014094122113,0.0,0.0,0.0,0.5018483255835735,0.5578513577531424,1.024252476210849,0.007529726660651163,0.0042985989506636865,0.11940128032648888
9961,11.0,300.36338,-6968.1368,0.0,0.0,0.09961141383258565,0.0,0.0,0.0,0.5292118132791396,0.5601719132646635,1.0287558662802991,-0.004953002677398306,0.015988852517226884,0.1187024316000179
9962,11.0,299.77859,-7110.6358,0.0,0.0,0.09962141825295956,0.0,0.0,0.0,0.5384379114021844,0.5758167075911844,1.047201071100699,-0.02204957151337328,0.0022970773921288878,0.1138347781196179
9963,11.0,299.82531,-7002.4825,0.0,0.0,0.09963142267333369,0.0,0.0,0.0,0.5215045669234936,0.5657923305093554,1.041282981241629,-0.016256491385390787,0.004302816705529946,0.12016782429214087
9964,11.0,299.74385,-6880.1492,0.0,0.0,0.09964142709370782,0.0,0.0,0.0,0.5031383956108935,0.5477633485650334,1.040491835563549,-0.013501171534211886,0.007460125092732023,0.1138705559806489
9965,11.0,299.86823,-6989.9997,0.0,0.0,0.09965143151408218,0.0,0.0,0.0,0.5107517947422775,0.5640277453277044,1.050005848702509,0.0012879676346875086,0.01025342530668429,0.14296953844749485
9966,11.0,300.34139,-7108.231,0.0,0.0,0.09966140302517879,0.0,0.0,0.0,0.5363301384116635,0.5634959714102225,1.060898591252539,-0.01041075872921189,-0.01041747049787429,0.1054803182625969
9967,11.0,300.0459,-7044.1395,0.0,0.0,0.09967140744555292,0.0,0.0,0.0,0.5463597539965095,0.5555211054381645,1.039361656402009,0.008735318784733843,-0.01919050802420568,0.12951027392416886
9968,11.0,299.85213999999996,-7002.5485,0.0,0.0,0.09968141186592705,0.0,0.0,0.0,0.5383735598883336,0.5525133941063265,1.037712895839289,0.00992039472211673,-0.006260737402986675,0.0861548189805686
9969,11.0,300.33226,-6953.5481,0.0,0.0,0.09969141628630118,0.0,0.0,0.0,0.5279131812884745,0.5538560720788385,1.031935749069129,0.019211483314525782,0.01005918384396415,0.12985730195091788
9970,11.0,300.82967,-6984.44,0.0,0.0,0.09970142070667531,0.0,0.0,0.0,0.5111423925233265,0.5612509232961534,1.050702052846219,0.002746444489577967,-0.0024494001915869776,0.10972391100640688
9971,11.0,300.84121,-7019.4551,0.0,0.0,0.09971142512704945,0.0,0.0,0.0,0.5133408007352925,0.5669158627502395,1.053482411120619,-0.01043131453399059,-0.001867415982624608,0.13601829825646086
9972,11.0,300.57772,-6981.76,0.0,0.0,0.0997214295474238,0.0,0.0,0.0,0.5159042221632825,0.5491292806273405,1.057247243192179,-0.008407348067190653,0.013421612149609989,0.10232746898643491
9973,11.0,300.72596,-6864.274,0.0,0.0,0.09973143396779793,0.0,0.0,0.0,0.5205723261689885,0.5496748448786835,1.016320754428049,-0.02059415730823508,0.022692154461791278,0.12719324452299588
9974,11.0,300.60929,-7000.196,0.0,0.0,0.09974140547889454,0.0,0.0,0.0,0.5340607520301924,0.5585632470084005,1.035260830597289,-0.03037960292373337,0.013074534473606089,0.11504712173176689
9975,11.0,300.12861000000004,-7126.3314,0.0,0.0,0.09975140989926867,0.0,0.0,0.0,0.5571042783219115,0.5581960350396594,1.050926487743369,-0.02813377460708737,-0.003044162902860487,0.1097596686024359
9976,11.0,300.47415,-7121.5105,0.0,0.0,0.0997614143196428,0.0,0.0,0.0,0.5222770181372285,0.5776677331388664,1.064816626739219,0.0029811346936400875,0.004855758025551006,0.12449285194648788
9977,11.0,300.70976,-7037.4585,0.0,0.0,0.09977141874001694,0.0,0.0,0.0,0.5229242113736015,0.5604427043538884,1.055844702403759,0.008775273971952111,0.008461216495507053,0.11243608768157788
9978,11.0,299.3964,-7067.9017,0.0,0.0,0.09978142316039107,0.0,0.0,0.0,0.5277728562821254,0.5597873544542105,1.0609053800282089,0.0026950487968056074,-0.00941504727916782,0.1146244545850529
9979,11.0,299.79004,-7041.3152,0.0,0.0,0.09979142758076542,0.0,0.0,0.0,0.5340803482871265,0.5591115875650174,1.047192053174809,-0.0012786281032157688,-0.01289842350022529,0.09575715814399571
9980,11.0,300.19587,-7042.6723,0.0,0.0,0.09980143200113956,0.0,0.0,0.0,0.5347208338078375,0.5554796027140685,1.050596066885759,0.0008676890832292452,0.0004147149268816766,0.1090980973471439
9981,11.0,299.85927000000004,-7065.5978,0.0,0.0,0.09981140351223594,0.0,0.0,0.0,0.5400775020514994,0.5667884465501645,1.040899364753769,0.017725793196399584,0.014097882624102685,0.1193839841472819
9982,11.0,300.52212000000003,-6932.9471,0.0,0.0,0.09982140793261007,0.0,0.0,0.0,0.5164925658338475,0.5538645327171735,1.037085694027389,-0.011806843087994689,-0.002074266329589148,0.12824862556215388
9983,11.0,300.13388,-6975.3903,0.0,0.0,0.09983141235298443,0.0,0.0,0.0,0.5180566085557066,0.5558560960537254,1.046431811624779,-0.008690131984599251,-0.004679173661723485,0.12613599910365386
9984,11.0,299.84632999999997,-7113.9968,0.0,0.0,0.09984141677335856,0.0,0.0,0.0,0.5392540336952295,0.5712987267202945,1.051924640416879,-0.007126379964193942,-0.001042622193898799,0.1178476538156579
9985,11.0,300.62061,-7096.4323,0.0,0.0,0.09985142119373269,0.0,0.0,0.0,0.5393765254998185,0.5641808170203115,1.053580899030339,-0.009708362411490772,0.02007039921229418,0.1194031548391739
9986,11.0,300.46591,-6932.0522,0.0,0.0,0.09986142561410682,0.0,0.0,0.0,0.5341971962886585,0.5478482082609085,1.025125391171999,-0.008840584223047732,0.006524536762546644,0.1152742214766799
9987,11.0,299.83269,-6953.1969,0.0,0.0,0.09987143003448096,0.0,0.0,0.0,0.5207368070577215,0.5506779928751865,1.0421834566054988,-0.014523656395623287,-0.0015229434739528187,0.11053687195913989
9988,11.0,299.87417,-6994.5867,0.0,0.0,0.09988143445485531,0.0,0.0,0.0,0.5217198217747375,0.5581324434633834,1.046327446864479,0.01197781485686829,-0.0009287257291130932,0.11612792521593389
9989,11.0,300.22017999999997,-7104.0409,0.0,0.0,0.0998914059659517,0.0,0.0,0.0,0.5353143349214114,0.5742707412511094,1.049866020188709,0.017118467298461185,0.001984861801715608,0.11617803043337889
9990,11.0,300.31318999999996,-7042.4906,0.0,0.0,0.09990141038632583,0.0,0.0,0.0,0.5289441936627275,0.5683418906759774,1.0434551868060091,0.019136255574101382,-0.017185776489354085,0.13103076715672987
9991,11.0,300.05489,-6958.3638,0.0,0.0,0.09991141480670018,0.0,0.0,0.0,0.5221494094196345,0.5597265189182065,1.033292896253069,-0.0008309728310156333,-0.026336535414463676,0.09980049720429221
9992,11.0,299.97999,-6942.0291,0.0,0.0,0.09992141922707432,0.0,0.0,0.0,0.5151298153768544,0.5651176579302705,1.029956061023749,0.0027963138223996873,-0.013034692466423988,0.13646157491020885
9993,11.0,300.6443,-7085.515,0.0,0.0,0.09993142364744845,0.0,0.0,0.0,0.5383713611356165,0.5658293141380054,1.049618989814329,0.0024949138662038275,0.012760129047076688,0.1037536792971909
9994,11.0,300.26704,-7117.5383,0.0,0.0,0.09994142806782258,0.0,0.0,0.0,0.5274956918497715,0.5802365957198935,1.055821600301479,-0.0015985621262657984,0.0020503534245791284,0.13237910919730086
9995,11.0,299.76448,-6954.995,0.0,0.0,0.09995143248819671,0.0,0.0,0.0,0.5311641030418155,0.5386300134886435,1.044350697244389,-0.01244010818849309,0.00979195473414069,0.09126483884513831
9996,11.0,299.59188,-6943.8466,0.0,0.0,0.09996143690857084,0.0,0.0,0.0,0.5117050503038565,0.5510314246425675,1.048019473206469,0.0015478832066141786,0.005483396446919094,0.11795820953406888
9997,11.0,299.66357999999997,-7138.554,0.0,0.0,0.09997140841966745,0.0,0.0,0.0,0.5597410691896424,0.5645823376374385,1.0456187797445389,0.0028305953156830075,0.01041210939159519,0.10052091093264151
9998,11.0,299.75833,-7211.2991,0.0,0.0,0.0999814128400418,0.0,0.0,0.0,0.5620174672618055,0.5603708750542995,1.0696665483428691,-0.0015317484146717985,-0.0064269940125199244,0.1094556834399349
9999,11.0,299.4394,-7072.3262,0.0,0.0,0.09999141726041594,0.0,0.0,0.0,0.5402006220711505,0.5686948867458155,1.040915070130319,0.005990171559258905,0.0002136522036933308,0.1199566731038019
10000,11.0,299.38072999999997,-7010.2946,0.0,0.0,0.10000142168079007,0.0,0.0,0.0,0.5143655106939234,0.5635922301697225,1.052996760347689,0.013921980380242486,-0.00016962321405050785,0.11113711118587889
10001,11.0,299.99753,-6973.8191,0.0,0.0,0.1000114261011642,0.0,0.0,0.0,0.5179915376342845,0.5657694513220974,1.036105881180689,0.006156460187495313,0.0005584596219206736,0.13214990189217987
10002,11.0,300.40452999999997,-7019.87,0.0,0.0,0.10002143052153833,0.0,0.0,0.0,0.5186917137183865,0.5723833096273345,1.0427901907653792,0.006196864244507884,-0.02840585455043957,0.11293188108800889
10003,11.0,300.39909,-7028.5722,0.0,0.0,0.10003143494191247,0.0,0.0,0.0,0.5347988236680344,0.5554120493299015,1.0462995824867292,-0.0018452459691115982,-0.012609603651970988,0.12187009459264189
10004,11.0,300.96079,-6916.8124,0.0,0.0,0.10004140645300907,0.0,0.0,0.0,0.5136428201925995,0.5542354633137815,1.034659973287989,0.014409981893404486,-0.0025790780672101873,0.1049206799673649
10005,11.0,300.36092,-6890.5486,0.0,0.0,0.10005141087338343,0.0,0.0,0.0,0.5069274443598435,0.5541005389304654,1.033526754376149,0.0012402627054043987,0.017286987002092784,0.12747302314060788
10006,11.0,299.76896,-7012.015,0.0,0.0,0.10006141529375756,0.0,0.0,0.0,0.5166447661313686,0.5552711062409914,1.0595616077455892,-0.005647518847766714,0.0049750895030781055,0.1156410889403869
10007,11.0,299.97145,-7190.7957,0.0,0.0,0.10007141971413169,0.0,0.0,0.0,0.5433345235704424,0.5816882892706644,1.060799495392759,-0.01656873048320638,0.007001479461467223,0.11939464353833389
10008,11.0,299.51876,-7188.6739,0.0,0.0,0.10008142413450583,0.0,0.0,0.0,0.5378935833159635,0.5718333681355594,1.0754503825636887,-0.0056718193209399845,0.01174524052166499,0.12083793724577589
10009,11.0,299.83936,-7022.8366,0.0,0.0,0.10009142855487974,0.0,0.0,0.0,0.5489760062847135,0.5606565001249885,1.025134409097889,-0.0030436236511572675,0.0013825362930207086,0.11589297278274589
10010,11.0,299.56727,-7022.4376,0.0,0.0,0.10010143297525409,0.0,0.0,0.0,0.5321041559545915,0.5681847862479725,1.034356707533059,-0.0006367954968943224,-0.011754546210583387,0.1128491593498449
10011,11.0,299.21971,-7029.6502,0.0,0.0,0.10011143739562822,0.0,0.0,0.0,0.5379262910291915,0.5523773146178965,1.046534555184919,0.010825090880603289,-0.00971830654929718,0.0909313296012235
10012,11.0,300.24223,-7098.0396,0.0,0.0,0.10012140890672483,0.0,0.0,0.0,0.5242659571560215,0.5828556648433755,1.050505178351789,0.015313980327872184,-0.004890472379277045,0.11870629208289889
10013,11.0,301.08526,-7057.8417,0.0,0.0,0.10013141332709896,0.0,0.0,0.0,0.5296723962445955,0.5597513536781575,1.055983922967499,0.01992373328681938,-0.0005898565948193135,0.11611262513942389
10014,11.0,300.91814,-6933.1925,0.0,0.0,0.10014141774747332,0.0,0.0,0.0,0.5090702859363255,0.5587214254815115,1.039725717162939,-0.002418573678494638,-0.005036102053874576,0.13015337363013788
10015,11.0,300.2272,-6858.5325,0.0,0.0,0.10015142216784745,0.0,0.0,0.0,0.5197373979540875,0.5484472113225255,1.016638003034359,-0.002141927624891798,-0.008715696183297242,0.12438050277539987
10016,11.0,299.61294,-7040.8519,0.0,0.0,0.10016142658822158,0.0,0.0,0.0,0.5358977440639895,0.5529354735679826,1.051409909366079,-0.005643186696964165,0.005775626489709954,0.1161123008993919
10017,11.0,300.00473,-7076.3116,0.0,0.0,0.10017143100859549,0.0,0.0,0.0,0.5283924384532735,0.5726718427258105,1.049957719322759,-0.0025107978787464575,0.005894238458341045,0.12601849248955688
10018,11.0,300.01156000000003,-6961.5273,0.0,0.0,0.10018143542896962,0.0,0.0,0.0,0.5152103991573075,0.5573399400301694,1.043580120543339,-0.006914073772065953,-0.0009434575547020111,0.1163494520852969
10019,11.0,299.6808,-7014.0709,0.0,0.0,0.10019143984934398,0.0,0.0,0.0,0.5148724802489575,0.5612931656928225,1.055936806837849,-0.009001898198593181,-0.002236462238021638,0.12121961842594488
10020,11.0,299.87982,-6966.0035,0.0,0.0,0.10020141136044058,0.0,0.0,0.0,0.5228565465319235,0.5634138880196214,1.031220698473559,-0.01060307765119229,0.006590492352630953,0.1297994149727049
10021,11.0,300.14142999999996,-7012.3896,0.0,0.0,0.10021141578081472,0.0,0.0,0.0,0.5282582132125265,0.5749069103263945,1.028426154697759,-0.005248104574947595,-0.008687160932656033,0.1299817695932019
10022,11.0,300.51363,-7049.8229,0.0,0.0,0.10022142020118885,0.0,0.0,0.0,0.5329288300784805,0.5675086444562425,1.042532622589959,0.0015910415813735783,0.006106727238137055,0.10902765620019189
10023,11.0,300.8362,-6984.14,0.0,0.0,0.1002314246215632,0.0,0.0,0.0,0.5170218471560836,0.5643438489614014,1.0416384293767091,-9.201332973375861e-05,0.004734950445278226,0.09387624678461422
10024,11.0,300.10343,-6905.9041,0.0,0.0,0.10024142904193711,0.0,0.0,0.0,0.5027548196530375,0.5462730501854525,1.0501945158711292,0.006663314738642964,0.008114167190505952,0.0970327052576324
10025,11.0,300.18227,-7071.044,0.0,0.0,0.10025143346231125,0.0,0.0,0.0,0.5170785992941845,0.5748955315277715,1.057446650811859,-0.006569553944614494,-0.016233265666598586,0.1136248934939039
10026,11.0,300.34471,-7225.7369,0.0,0.0,0.10026143788268538,0.0,0.0,0.0,0.5485890156740205,0.5778173699136345,1.070037195229449,-0.0007518795414597333,-0.012064266368650389,0.12281868920376088
10027,11.0,299.91892,-7138.6707,0.0,0.0,0.10027140939378221,0.0,0.0,0.0,0.5573475495384205,0.5635551148185595,1.049074975835639,0.0038445262184251964,-0.007784603846455582,0.11973716260213789
10028,11.0,300.1242,-6979.9096,0.0,0.0,0.10028141381415634,0.0,0.0,0.0,0.5338880942131525,0.5706374391750304,1.017192656139099,0.00985481920214493,0.009611419100223211,0.13282163604597488
10029,11.0,299.91817000000003,-7035.058000000001,0.0,0.0,0.10029141823453047,0.0,0.0,0.0,0.5415602111878315,0.5535772155188174,1.043344539895089,0.0026742692664048274,-0.008967626939135871,0.1111160862463039
10030,11.0,300.16865,-7124.2575,0.0,0.0,0.1003014226549046,0.0,0.0,0.0,0.5394232971244345,0.5740923991010085,1.0520806809322791,0.0022068940802284875,-0.004263154347590576,0.12356117861203889
10031,11.0,300.21516,-6959.0704,0.0,0.0,0.10031142707527874,0.0,0.0,0.0,0.5106205180593215,0.5511878299280035,1.0535753261547889,-0.007249893530183784,-0.0016530135786897383,0.11165024130152089
10032,11.0,299.81964,-6885.3184,0.0,0.0,0.10032143149565287,0.0,0.0,0.0,0.4986276189482145,0.5486134552664325,1.045723752454899,0.0031037314709394474,0.013356485499432488,0.11855981664844288
10033,11.0,300.03954,-6855.5114,0.0,0.0,0.100331435916027,0.0,0.0,0.0,0.5029654844813285,0.5634916752297985,1.017447083239209,-0.009892047632019091,-0.0013209987773474287,0.1158297865065099
10034,11.0,300.69226000000003,-6978.5193,0.0,0.0,0.10034144033640136,0.0,0.0,0.0,0.5181086288158405,0.5614935156350955,1.041693448857139,-0.0007928424362999562,0.006413654574953425,0.1224549020203579
10035,11.0,300.49742000000003,-7222.2924,0.0,0.0,0.10035141184749774,0.0,0.0,0.0,0.5652458847304255,0.5819927607932134,1.048157883170129,0.006026017206721594,0.013788532302322187,0.1105608454565059
10036,11.0,300.98485,-7148.2007,0.0,0.0,0.1003614162678721,0.0,0.0,0.0,0.5398547998120206,0.5751625938566285,1.0578571184273688,0.01071186727467899,0.015022628367617984,0.1090032875352869
10037,11.0,300.99233,-6971.1974,0.0,0.0,0.10037142068824623,0.0,0.0,0.0,0.5166504909944335,0.5636842940738085,1.038735163865179,-0.0023718614303344975,-0.01027828337138759,0.13330929305410288
10038,11.0,300.3203,-7026.6829,0.0,0.0,0.10038142510862036,0.0,0.0,0.0,0.5212689862752435,0.5683110169454304,1.046356121842309,-0.006424642563012854,-0.0035360449612554666,0.11958846814996289
10039,11.0,300.30679,-7126.6098,0.0,0.0,0.10039142952899449,0.0,0.0,0.0,0.5520310465287225,0.5660616929159394,1.0482186781761291,0.0029243998821157973,-0.004082595611570816,0.13791716947386487
10040,11.0,299.92582000000004,-7016.557,0.0,0.0,0.10040143394936862,0.0,0.0,0.0,0.5318614217606356,0.5495270218215944,1.051469691121979,-0.009581776265897691,0.013614038476100985,0.10324222104421389
10041,11.0,299.95432,-6821.2548,0.0,0.0,0.10041143836974298,0.0,0.0,0.0,0.5189777947516204,0.5413892961609635,1.013124041555058,-0.0024396975112793975,-0.022830836989728178,0.11927230372125988
10042,11.0,300.38152,-6909.7794,0.0,0.0,0.10042144279011711,0.0,0.0,0.0,0.5070833531527306,0.5453021843371355,1.0480149135810188,-0.014670947496409785,-0.008971794842097211,0.09554451849125982
10043,11.0,299.78062,-7110.2407,0.0,0.0,0.1004314143012135,0.0,0.0,0.0,0.5344595875345545,0.5674204309025365,1.059455621785129,0.008030910152314124,-0.001986445916921948,0.11319612658158788
10044,11.0,299.50967,-7210.5918,0.0,0.0,0.10044141872158763,0.0,0.0,0.0,0.5327593336017524,0.5883169106298584,1.0707635942261389,0.003154746789624267,0.007880070751002432,0.11378210937941989
10045,11.0,300.26876,-7160.759,0.0,0.0,0.10045142314196198,0.0,0.0,0.0,0.5444755141105495,0.5757093942730934,1.056507063994129,0.013523178313133787,-0.006406550374527295,0.11191989755063389
10046,11.0,300.4728,-7032.215,0.0,0.0,0.10046142756233611,0.0,0.0,0.0,0.5201847377407365,0.5743285876993184,1.0431043996213891,-0.012032940728558789,0.01098773373365489,0.1268806568671459
10047,11.0,300.2242,-7025.6533,0.0,0.0,0.10047143198271025,0.0,0.0,0.0,0.5607814338623185,0.5434632772606495,1.031378461514129,-0.00017878101911681285,0.01143946393298719,0.09416219710858531
10048,11.0,300.25284,-7153.5377,0.0,0.0,0.10048143640308438,0.0,0.0,0.0,0.5488461076218935,0.5671997855607604,1.058450984310979,-0.0036505365483549064,0.019472544163040482,0.12192934945848988
10049,11.0,299.64206,-7018.795,0.0,0.0,0.10049144082345851,0.0,0.0,0.0,0.5348534986434305,0.5525804813954475,1.046104430517469,0.0020034621351263182,-0.007178852032547534,0.10715903049827288
10050,11.0,299.5586,-6829.0693,0.0,0.0,0.10050144524383287,0.0,0.0,0.0,0.49137861495029356,0.5549529051795875,1.029535055607199,0.0020657329398969682,-0.006951842973518483,0.13772028484693388
10051,11.0,299.53391,-6954.6225,0.0,0.0,0.10051141675492925,0.0,0.0,0.0,0.5121107049813914,0.5603512787973655,1.041569629694919,0.014479266921992385,-0.0031968050787500968,0.11885507772758289
10052,11.0,298.95603,-7222.1036,0.0,0.0,0.10052142117530338,0.0,0.0,0.0,0.5581745642700405,0.5759748961967964,1.061189698006269,0.0080502376953216,0.0069571927313964626,0.12360274213114088
10053,11.0,299.45673999999997,-7160.4197,0.0,0.0,0.10053142559567774,0.0,0.0,0.0,0.5451641290110104,0.5792500650250304,1.0521746092165492,0.0015127380189456185,-0.019066001878417883,0.11336262383801989
10054,11.0,300.08168,-6939.7483,0.0,0.0,0.10054143001605187,0.0,0.0,0.0,0.5089680591337366,0.5770962803474685,1.023445827806239,0.00026153711659170374,-0.002035163691005018,0.11885545263011989
10055,11.0,299.37486,-7047.4971,0.0,0.0,0.100551434436426,0.0,0.0,0.0,0.5261802297749455,0.5715864998811955,1.044496402608769,-0.006270102468360934,0.0009240059493522871,0.10947876527721288
10056,11.0,299.80337000000003,-7102.7913,0.0,0.0,0.10056143885680013,0.0,0.0,0.0,0.5365048125964025,0.5686891720152515,1.053877173359579,0.0055519277187576046,0.016851426247856283,0.1154907530230499
10057,11.0,300.6409,-7138.3904,0.0,0.0,0.10057144327717427,0.0,0.0,0.0,0.5300282395472145,0.5805218053580414,1.059342340423949,-0.002718027485223427,-0.0038806995509702265,0.12772606208808088
10058,11.0,300.41103,-6970.6644,0.0,0.0,0.10058141478827087,0.0,0.0,0.0,0.5328057607213345,0.5483170593471804,1.037785140571419,0.004068951185724216,-0.0009287433596648331,0.11317069400407789
10059,11.0,300.27213,-6819.8545,0.0,0.0,0.100591419208645,0.0,0.0,0.0,0.5160672845018756,0.5456550689494625,1.011343122781795,0.009587746538136911,0.00026902628112832674,0.10642980453380389
10060,11.0,299.52471,-6940.3626,0.0,0.0,0.10060142362901936,0.0,0.0,0.0,0.5248603093996795,0.5436018898743296,1.041234750536869,0.004666968658968946,0.0042067148984704355,0.12268639927070489
10061,11.0,299.95717,-7190.4658,0.0,0.0,0.10061142804939349,0.0,0.0,0.0,0.5554790454265135,0.5696690963194624,1.0605739459204988,-0.00947887484139211,-0.008285373932077742,0.10693067432323589
10062,11.0,299.74343999999996,-7174.8412,0.0,0.0,0.10062143246976762,0.0,0.0,0.0,0.5238370585211926,0.5910938238539184,1.0660416461101188,0.00045159561945401754,-0.0039561268003393164,0.13446559380322087
10063,11.0,299.95271,-6981.5393,0.0,0.0,0.10063143689014176,0.0,0.0,0.0,0.5196327900137635,0.5600850878635945,1.0424957402863189,0.0006472565138417445,0.008668111729451023,0.10119007953718331
10064,11.0,299.65777,-7012.2247,0.0,0.0,0.10064144131051589,0.0,0.0,0.0,0.5312123236140746,0.5665273623968975,1.033801547803269,0.0007910133374844382,0.00822356142032732,0.11919083841321987
10065,11.0,299.88656000000003,-7166.1724,0.0,0.0,0.10065144573089002,0.0,0.0,0.0,0.5562084537760005,0.5641092612982495,1.0580197450684188,-0.003042137111935557,-0.011592021907793489,0.0927948698008906
10066,11.0,300.25256,-7051.3807,0.0,0.0,0.10066141724198663,0.0,0.0,0.0,0.5233074225614215,0.5731463274826385,1.046989909779859,-4.876675357965385e-05,-0.013256622609326788,0.11735732182726588
10067,11.0,300.36892,-6853.4984,0.0,0.0,0.10067142166236098,0.0,0.0,0.0,0.5094314488019696,0.5477539456041055,1.026107027868879,0.01088680794419429,-0.008296766814877133,0.1039890876929239
10068,11.0,300.01099,-6955.0183,0.0,0.0,0.10068142608273511,0.0,0.0,0.0,0.5136036479437336,0.5583948245767785,1.0421534644025392,0.014673524191414088,0.01087693483521989,0.12858947276329288
10069,11.0,300.19819,-7009.9774,0.0,0.0,0.10069143050310925,0.0,0.0,0.0,0.5382992683910015,0.5616344688565065,1.030924322819309,0.005677892134089324,0.004689850075377165,0.12885415395441488
10070,11.0,300.1605,-7094.8389,0.0,0.0,0.10070143492348338,0.0,0.0,0.0,0.5380160345905485,0.5756456608418035,1.042992131510309,0.01023823364793499,0.006592789491932665,0.12860074010440486
10071,11.0,299.61895,-7140.0039,0.0,0.0,0.10071143934385729,0.0,0.0,0.0,0.5358927690059985,0.5787403495622254,1.055749760869389,0.004355044175309396,0.011000112610126591,0.1198800308662379
10072,11.0,299.78477999999996,-6977.5507,0.0,0.0,0.10072144376423164,0.0,0.0,0.0,0.5238688745743325,0.5534757993163085,1.043656519600879,-0.0015638473672397186,0.005761179569784155,0.1076795066771399
10073,11.0,300.45282000000003,-6937.7281,0.0,0.0,0.10073144818460578,0.0,0.0,0.0,0.5091430980885115,0.5664321675500025,1.0333208619558292,-0.014001376631578286,-0.008066083609660473,0.12843821478836487
10074,11.0,299.87203,-7081.3402,0.0,0.0,0.10074141969570238,0.0,0.0,0.0,0.5216054663684515,0.5701683449087345,1.060776798590519,-0.01937692273785338,0.0027065378370394874,0.10020763629322371
10075,11.0,299.65862999999996,-7125.02,0.0,0.0,0.10075142411607652,0.0,0.0,0.0,0.5347602188392244,0.5872251336471085,1.043842856294269,-0.0009519354892162181,0.009671327816360742,0.11442616154048288
10076,11.0,299.95124,-6992.8734,0.0,0.0,0.10076142853645087,0.0,0.0,0.0,0.5279514010822465,0.5570644879904845,1.040643012478469,0.013486921184805486,0.0016091390387596586,0.09744427630250131
10077,11.0,300.18872999999996,-7020.3897,0.0,0.0,0.100771432956825,0.0,0.0,0.0,0.5300327485101595,0.5702486247141574,1.033741766047369,0.006278091540099394,-0.007480522627845103,0.12179810317303688
10078,11.0,299.62897999999996,-7154.8346,0.0,0.0,0.10078143737719913,0.0,0.0,0.0,0.5398443734684915,0.5684920138107934,1.0665546546357492,0.009689585265937611,-0.03069832682218897,0.11335140715941289
10079,11.0,300.14482999999996,-7114.4013,0.0,0.0,0.10079144179757304,0.0,0.0,0.0,0.5383923252801855,0.5723436307534185,1.051864352035929,0.011283405179085389,-0.016286112738814182,0.12225940554606388
10080,11.0,299.57215,-7138.4025,0.0,0.0,0.10080144621794718,0.0,0.0,0.0,0.5333362782086926,0.5767142343972634,1.059845621748619,0.013662241823108288,-0.011056178777909889,0.1246666142061369
10081,11.0,300.1086,-7042.3411,0.0,0.0,0.100811417729044,0.0,0.0,0.0,0.5531805078396654,0.5481007709808344,1.039414548057229,-0.005134529573888615,-0.00013370654788830887,0.12203219434363989
10082,11.0,300.61574,-6882.7738,0.0,0.0,0.10082142214941814,0.0,0.0,0.0,0.5101644845868145,0.5531261469718004,1.0289007610445988,-0.013177421915260288,-0.002356363770054998,0.12615790557081588
10083,11.0,300.49895,-6929.5857,0.0,0.0,0.10083142656979227,0.0,0.0,0.0,0.5148328723025485,0.5560603875388874,1.035527720673629,-0.014359705436692589,0.02249220171355748,0.09767999880576532
10084,11.0,299.97126000000003,-7111.9377,0.0,0.0,0.1008414309901664,0.0,0.0,0.0,0.5235086236337786,0.5704196410660355,1.067923251545819,0.0027074062937001977,0.018623492254995582,0.1123135148169809
10085,11.0,300.42757,-7046.3629,0.0,0.0,0.10085143541054076,0.0,0.0,0.0,0.5283494361190295,0.5699774080598904,1.043591570269469,-0.01133273120720349,0.011541054414513387,0.1083371262570419
10086,11.0,300.25807000000003,-6980.9092,0.0,0.0,0.10086143983091467,0.0,0.0,0.0,0.5105662281189635,0.5741043149221845,1.0373515708536292,0.0008524522841879903,-0.003681579491668607,0.12894176969056187
10087,11.0,299.79585,-7084.4415,0.0,0.0,0.1008714442512888,0.0,0.0,0.0,0.5466994866225384,0.5634006245758124,1.043393175899889,-0.004728742971190595,0.005371119621888234,0.10659990896059189
10088,11.0,299.68969,-7160.7535,0.0,0.0,0.10088144867166293,0.0,0.0,0.0,0.5413088441030235,0.5858696076633285,1.049511787953749,0.017436140456563085,-0.006413022205566015,0.12819317038418088
10089,11.0,299.24516,-7058.406,0.0,0.0,0.10089142018275976,0.0,0.0,0.0,0.5331898939667455,0.5713017968680975,1.041087525297339,-0.001114641275231529,-0.013559082830427288,0.13332495790064888
10090,11.0,299.69998,-6933.5163,0.0,0.0,0.1009014246031339,0.0,0.0,0.0,0.5155524622585665,0.5542649488916915,1.0377984141477292,0.013487250491087987,-0.03030888211975377,0.12172172438049889
10091,11.0,300.26703,-6939.6062,0.0,0.0,0.10091142902350803,0.0,0.0,0.0,0.5124163721390584,0.5569056205073054,1.0401450000543189,0.00949694798077579,-0.014616315077517986,0.11837340902754588
10092,11.0,300.19883,-7042.4656,0.0,0.0,0.10092143344388216,0.0,0.0,0.0,0.5217027789080555,0.5663242158843484,1.052706666844059,0.017110841578208587,0.002484735566299308,0.1122889637670579
10093,11.0,299.81705,-7254.1165,0.0,0.0,0.10093143786425629,0.0,0.0,0.0,0.5529419381036205,0.5884351771815305,1.063693135028339,-0.00029776730259984476,0.00994944470380874,0.11761574113276989
10094,11.0,300.08754,-7161.8825,0.0,0.0,0.10094144228463042,0.0,0.0,0.0,0.5448284797828844,0.5692882460043754,1.062916681476709,-0.0038119377647339663,0.0026600519489516877,0.1040580292297279
10095,11.0,300.16548,-6954.8315,0.0,0.0,0.10095144670500455,0.0,0.0,0.0,0.5170154738129545,0.5514172196181425,1.045662450823849,-0.023572822812706475,0.03064873532254467,0.10532427774719691
10096,11.0,300.23585,-7018.865,0.0,0.0,0.10096145112537891,0.0,0.0,0.0,0.5276277082053005,0.5623692778290265,1.043562692641619,-0.011469354810937188,0.0098427267714765,0.10492023413732089
10097,11.0,299.91457,-7228.4077,0.0,0.0,0.1009714226364753,0.0,0.0,0.0,0.5544405653990234,0.5701586683702795,1.072656244087929,-0.02226823189820338,0.01159694934302979,0.1080155105428009
10098,11.0,299.39788,-7142.5464,0.0,0.0,0.10098142705684965,0.0,0.0,0.0,0.5442232857631565,0.5747384878947724,1.0521939622934589,-0.0013061313586301287,-0.013486664832530186,0.1223425731142719
10099,11.0,299.61246,-6919.6078,0.0,0.0,0.10099143147722378,0.0,0.0,0.0,0.5311034194933265,0.5381392154052055,1.034145343562199,0.022910460209086377,-0.005669081012544735,0.1072985043745379
10100,11.0,299.8287,-6936.1712,0.0,0.0,0.10100143589759791,0.0,0.0,0.0,0.5240370740909326,0.5488730499420524,1.035512724572149,0.02216797282730858,-0.008438226863988152,0.12253294254305988
10101,11.0,299.6993,-7124.6793,0.0,0.0,0.10101144031797205,0.0,0.0,0.0,0.5393573041454215,0.5734535651779604,1.052913775164499,0.018841141416225882,-0.016133730056275185,0.11518655507802789
10102,11.0,299.85466,-7124.6233,0.0,0.0,0.10102144473834618,0.0,0.0,0.0,0.5335056834929115,0.5659442470968484,1.0662576710314389,0.006427144378834764,-0.02134620065170598,0.1253520880312879
10103,11.0,300.2077,-7028.2497,0.0,0.0,0.10103144915872053,0.0,0.0,0.0,0.5127613128706014,0.5672100193867704,1.056441101412619,0.0030820354558232167,0.0067970803691446025,0.12085108923207388
10104,11.0,300.76113,-6962.9359,0.0,0.0,0.10104142066981692,0.0,0.0,0.0,0.5106679482965025,0.5691121431369954,1.036778577922079,-0.004439135017008516,0.004769194853607886,0.1167777225050639
10105,11.0,300.3925,-6980.7245,0.0,0.0,0.10105142509019105,0.0,0.0,0.0,0.5226921365706976,0.5657766453978075,1.033497167473229,-0.016502994869718783,0.01177962719030869,0.12503747387523786
10106,11.0,300.56312,-7083.2316,0.0,0.0,0.10106142951056518,0.0,0.0,0.0,0.5270109833994345,0.5795402801186724,1.0465742745888391,-0.025953231007634473,0.0023363114492509877,0.1149226338244809
10107,11.0,300.5386,-7096.7971,0.0,0.0,0.10107143393093954,0.0,0.0,0.0,0.5369315428760175,0.5704762108191185,1.049841398211279,-0.0035065098354155767,0.009231229525526422,0.11295564180285389
10108,11.0,300.08746,-6996.8238,0.0,0.0,0.10108143835131367,0.0,0.0,0.0,0.5217247157727205,0.5595250341358214,1.045609964468669,0.007107374229418224,0.003914293756710716,0.0988793677503838
10109,11.0,299.46969,-7070.3399,0.0,0.0,0.1010914427716878,0.0,0.0,0.0,0.5309007390758235,0.5748689539776485,1.043437049629219,0.009702587088570792,0.009264750675934701,0.14004988868184787
10110,11.0,299.96731,-7236.7296,0.0,0.0,0.10110144719206193,0.0,0.0,0.0,0.5620884150338075,0.5706883955225593,1.067008286705519,0.01094732937266729,-0.009869683682436941,0.1115865078702309
10111,11.0,299.64616,-7174.9701,0.0,0.0,0.10111145161243607,0.0,0.0,0.0,0.5520698945375564,0.5726677289304044,1.056274117796139,0.003261562703241177,-0.0022895101364070578,0.13082566507148788
10112,11.0,300.22353,-7043.1446,0.0,0.0,0.10112142312353267,0.0,0.0,0.0,0.5363767175187605,0.5547886269408744,1.049774726354699,0.00869197042558069,-0.014585784838754886,0.1029926778095859
10113,11.0,300.01122000000004,-7016.5345,0.0,0.0,0.1011314275439068,0.0,0.0,0.0,0.5355848423006085,0.5574982400932925,1.039768172342129,-0.0033168106715687267,-0.012501897192841187,0.11980672222150289
10114,11.0,299.93609,-6980.9135,0.0,0.0,0.10114143196428094,0.0,0.0,0.0,0.5131996043338575,0.5737060671028804,1.0351177596831689,-0.0013954025427905087,-0.014021566653070885,0.1141634359220539
10115,11.0,300.31495,-6978.7914,0.0,0.0,0.10115143638465529,0.0,0.0,0.0,0.5275460503797414,0.5508827605878955,1.0429494736810991,-0.015965528513174985,0.00987031574784932,0.1178698541253489
10116,11.0,300.64932000000005,-7089.6369,0.0,0.0,0.10116144080502942,0.0,0.0,0.0,0.5275149030716675,0.5754087629684235,1.052148872664009,0.000989889173114455,0.007472752316803232,0.11541031109761088
10117,11.0,300.35853,-7058.3708,0.0,0.0,0.10117144522540356,0.0,0.0,0.0,0.5269794409238215,0.5770462865875344,1.0415427785672688,0.0017782837150529384,0.004716333494565876,0.13010575087543788
10118,11.0,300.28348,-7006.316,0.0,0.0,0.10118144964577769,0.0,0.0,0.0,0.5089501347394675,0.5667471262110865,1.054047906001429,0.00029238678244882866,-0.005319875612655844,0.12401979587230089
10119,11.0,299.80338,-7044.7137,0.0,0.0,0.10119145406615182,0.0,0.0,0.0,0.5304319285195556,0.5745394754426315,1.0364456239392188,-0.005140446346522555,-0.008229049385518942,0.1198881976620439
10120,11.0,299.27756,-7104.1022,0.0,0.0,0.10120142557724843,0.0,0.0,0.0,0.5350052632434085,0.5597822476737065,1.0646821684509489,-0.005204577579801814,-0.0069824938903684935,0.1066449073975329
10121,11.0,299.30527,-7068.2368,0.0,0.0,0.10121142999762256,0.0,0.0,0.0,0.5348148836821195,0.5621197548594005,1.051632824388079,-0.002704551056243407,0.007246264980250673,0.12627629371249988
10122,11.0,299.85435,-7074.5047,0.0,0.0,0.10122143441799691,0.0,0.0,0.0,0.5344209827057445,0.5770726614876375,1.038979154489259,0.018776174859564183,0.004264961276493905,0.12250685135298489
10123,11.0,300.56846,-7046.6861,0.0,0.0,0.10123143883837105,0.0,0.0,0.0,0.5186935173035645,0.5609035811618734,1.0624194796526392,0.003981610546979366,0.01192087324099859,0.12235290826529188
10124,11.0,300.32623,-7043.3411,0.0,0.0,0.10124144325874518,0.0,0.0,0.0,0.5252703007876425,0.5746456437881095,1.041083877596979,-0.002001114231994598,-0.0025729092992763775,0.1081270795113119
10125,11.0,300.10002000000003,-7105.062,0.0,0.0,0.10125144767911931,0.0,0.0,0.0,0.5296164547065745,0.5756269461124565,1.0545180540478292,0.005255809632683025,-0.013171260341402187,0.13085588018946986
10126,11.0,300.01048,-7076.9692,0.0,0.0,0.10126145209949344,0.0,0.0,0.0,0.5336668915838215,0.5713466838475275,1.046208389977729,0.007388219596735503,-0.01088437209095389,0.1035894111909789
10127,11.0,300.53877,-6908.3024,0.0,0.0,0.10127142361058983,0.0,0.0,0.0,0.5084203163946784,0.5669019812238695,1.024629101273019,0.0056534547708275455,0.0018193924875100581,0.12268846630090888
10128,11.0,299.5259,-6974.2611,0.0,0.0,0.10128142803096418,0.0,0.0,0.0,0.5369489099827315,0.5403318582241025,1.042720479158499,-0.009606452046908001,0.0021895889844206077,0.09099162102192382
10129,11.0,298.9924,-7185.2979,0.0,0.0,0.10129143245133854,0.0,0.0,0.0,0.5429858034160265,0.5763310637394474,1.064834257290959,-0.007348122351853213,0.002517745532032138,0.1213058966719599
10130,11.0,299.30294,-7080.012,0.0,0.0,0.10130143687171267,0.0,0.0,0.0,0.5328040888586694,0.5664794863296725,1.0528633153095188,0.010897793601778491,0.0016349781322097785,0.1176501308411639
10131,11.0,299.75408,-6981.4438,0.0,0.0,0.1013114412920868,0.0,0.0,0.0,0.5121785319430855,0.5491379743131986,1.060868092424529,0.012663396086529888,-0.005278324455205065,0.1123647143445339
10132,11.0,299.6942,-7086.2445,0.0,0.0,0.10132144571246093,0.0,0.0,0.0,0.5300617173305185,0.5679360637459254,1.056043603398389,0.012389375769236188,-0.007749353078126602,0.11790040361586387
10133,11.0,300.01577000000003,-7147.0393,0.0,0.0,0.10133145013283484,0.0,0.0,0.0,0.5498423249877125,0.5645036182371694,1.0581755829337989,-0.0013198657610856087,-0.00927311495418519,0.11412960350121489
10134,11.0,299.90561,-7039.0186,0.0,0.0,0.1013414545532092,0.0,0.0,0.0,0.5374233744745575,0.5698805818803344,1.032381984413169,-0.0002255836390533718,0.0094096839437385,0.13680346575895086
10135,11.0,300.21328,-6906.349,0.0,0.0,0.1013514260643058,0.0,0.0,0.0,0.5087810739602825,0.5693756286929995,1.021200972209689,-0.01027117339543589,0.007954065872680181,0.12313938286041087
10136,11.0,300.35343,-6934.9394,0.0,0.0,0.10136143048467994,0.0,0.0,0.0,0.5131840712098246,0.5605457721540604,1.034318609329299,-0.01020646116454929,-0.0033150641323713564,0.11598100395143389
10137,11.0,299.91185,-7036.0777,0.0,0.0,0.10137143490505407,0.0,0.0,0.0,0.5218934320468716,0.5841635275424515,1.032735000748009,-0.0032782933875673665,-0.0019871848802198782,0.12692821882683988
10138,11.0,299.94921,-7090.6061,0.0,0.0,0.10138143932542842,0.0,0.0,0.0,0.5353029257252855,0.5719216019542674,1.0481426844186292,-0.008223487351745013,0.007263950146171063,0.1164951979796809
10139,11.0,300.00286,-6926.6709,0.0,0.0,0.10139144374580256,0.0,0.0,0.0,0.5246694738758455,0.5476809105368975,1.033184579817379,0.016029704734758687,-0.004915697341841555,0.1077169766658379
10140,11.0,299.46326,-6862.3771,0.0,0.0,0.10140144816617647,0.0,0.0,0.0,0.5088562267201996,0.5531887151654754,1.023946373355639,-0.0015974720718082184,-0.00991805806606112,0.1118448866457309
10141,11.0,300.17575,-7065.2493,0.0,0.0,0.1014114525865506,0.0,0.0,0.0,0.5322502260890075,0.5574766072036574,1.057932504234809,0.0014296202013175288,-0.014452630603363586,0.13538810735676587
10142,11.0,300.65288,-7310.4109,0.0,0.0,0.10142145700692473,0.0,0.0,0.0,0.5671093124593315,0.5915458245910274,1.063527265986969,0.001138726939383599,-0.003650644459490556,0.13249364698860489
10143,11.0,300.87523999999996,-7137.0486,0.0,0.0,0.10143142851802156,0.0,0.0,0.0,0.5421759734061025,0.5760772851194015,1.051231273373449,-0.009553578528864792,-0.0008322440647235942,0.13681164268725787
10144,11.0,300.64495,-6884.2542,0.0,0.0,0.10144143293839569,0.0,0.0,0.0,0.5185752507518925,0.5522689677847035,1.0217971685685292,-0.005247561776869025,0.005727791459114004,0.10826518549994191
10145,11.0,300.09451,-7019.3425,0.0,0.0,0.10145143735876982,0.0,0.0,0.0,0.5252671698448335,0.5731728341052544,1.035264883597689,-0.006912459158031603,-0.0008255810941860103,0.1207802123875789
10146,11.0,299.71148999999997,-7135.8715,0.0,0.0,0.10146144177914396,0.0,0.0,0.0,0.5393489448320965,0.5596650045046355,1.070112783686909,0.01109382507212529,0.01998711106732428,0.10339623505941391
10147,11.0,300.11352999999997,-7045.423000000001,0.0,0.0,0.10147144619951831,0.0,0.0,0.0,0.5141371038563816,0.5714006292828515,1.056094873853449,0.002331735814449408,0.0058745291226958846,0.11961687968276688
10148,11.0,299.48155,-6997.3237,0.0,0.0,0.10148145061989222,0.0,0.0,0.0,0.5195177151999065,0.5557564327738895,1.0517374931234091,0.012373108038880688,0.011956297477744689,0.10129417477295671
10149,11.0,299.25658,-7089.9927,0.0,0.0,0.10149145504026635,0.0,0.0,0.0,0.5401420562153705,0.5616463441476784,1.053392333186729,-0.006106258002015744,-0.0030943982216183274,0.11086590466411289
10150,11.0,299.43663,-7173.1047,0.0,0.0,0.10150142655136318,0.0,0.0,0.0,0.5546035770751114,0.5785209910480765,1.0473201279874491,0.0020477269789949183,0.004515547550774846,0.12260006022968388
10151,11.0,300.05595,-7223.8034,0.0,0.0,0.10151143097173732,0.0,0.0,0.0,0.5606821860150235,0.5700804251975574,1.065093244016519,-0.0015682070784449884,-0.0004371673838600616,0.1061939604405279
10152,11.0,299.95429,-7169.7006,0.0,0.0,0.10152143539211145,0.0,0.0,0.0,0.5356354034805985,0.5696658944491465,1.074108636781269,-0.014097191587534485,-0.005872465740192245,0.1069489026925349
10153,11.0,300.01606,-6954.3727,0.0,0.0,0.10153143981248558,0.0,0.0,0.0,0.5150449658134805,0.5621711266394704,1.036739567793229,0.001160042884387319,-0.013965921997329187,0.12878519215260886
10154,11.0,300.38924,-6995.9015,0.0,0.0,0.10154144423285971,0.0,0.0,0.0,0.5224837515551315,0.5618443332172184,1.042251243037189,-0.007566193734400182,-0.0029004152389986975,0.13572518526753288
10155,11.0,300.45377,-6982.9234,0.0,0.0,0.10155144865323384,0.0,0.0,0.0,0.5376153043084996,0.5573337085420544,1.0276853675496491,0.001169998674569879,9.877325412041121e-05,0.12524831095604588
10156,11.0,299.7574,-6858.0632,0.0,0.0,0.10156145307360798,0.0,0.0,0.0,0.5125382154635835,0.5511305914298544,1.021011190465959,-0.00999136833199628,0.007819217179146654,0.1105066264436549
10157,11.0,299.95097999999996,-6846.003000000001,0.0,0.0,0.10157145749398211,0.0,0.0,0.0,0.5059722838880766,0.5443330207489865,1.030708703198029,0.006869595537726293,0.007619819590642644,0.11524918406670889
10158,11.0,299.56356,-7048.7595,0.0,0.0,0.10158142900507872,0.0,0.0,0.0,0.5125344664382135,0.5764828992669324,1.053629535035139,0.003944538258945616,0.016975445020345984,0.12076540880361787
10159,11.0,299.88366,-7166.4924,0.0,0.0,0.10159143342545285,0.0,0.0,0.0,0.5261379164507696,0.5801045692318634,1.072192276867139,-0.0016870751967013584,-0.011348504471510189,0.12809207842170386
10160,11.0,299.35163,-7225.1558,0.0,0.0,0.1016014378458272,0.0,0.0,0.0,0.5459026059488925,0.5884612278416015,1.061903127401679,-0.0005852323746754386,-0.01042779956939369,0.12894620772599988
10161,11.0,299.50754,-7241.755,0.0,0.0,0.10161144226620134,0.0,0.0,0.0,0.5619403487966944,0.5938733512632364,1.045499013582719,-0.022191188413599777,-0.02389892925139068,0.12242212337962287
10162,11.0,299.20988,-7119.7702,0.0,0.0,0.10162144668657547,0.0,0.0,0.0,0.5617035522483245,0.5591922625379795,1.0433365352192991,0.003292911344110047,0.011151375651305091,0.1104139545895089
10163,11.0,300.43196,-6941.6369,0.0,0.0,0.1016314511069496,0.0,0.0,0.0,0.5163432127691074,0.5552181841882685,1.038522887969229,-0.002734882900636927,0.012913481409961387,0.1070442799244479
10164,11.0,299.85414,-6983.3497,0.0,0.0,0.10164145552732373,0.0,0.0,0.0,0.5140410274818995,0.5483320554486605,1.060390851627429,0.011411866040013489,0.016104477525888183,0.1034667268688709
10165,11.0,299.8969,-7086.7376,0.0,0.0,0.10165145994769809,0.0,0.0,0.0,0.5241452993341135,0.5623941733839835,1.067651801844029,0.003224787601461757,0.0032571092664016566,0.12047432231488989
10166,11.0,300.32036,-6932.649,0.0,0.0,0.10166143145879447,0.0,0.0,0.0,0.5190946832831566,0.5704294999895084,1.017827963951799,0.0013018332530309387,0.003162038542643907,0.14099320425994585
10167,11.0,300.81619,-6964.9207,0.0,0.0,0.1016714358791686,0.0,0.0,0.0,0.5320849346001946,0.5590081347298075,1.0260689296651189,0.014687724891565586,-0.014612241812115987,0.11969163727514488
10168,11.0,300.12239,-7164.424,0.0,0.0,0.10168144029954274,0.0,0.0,0.0,0.5473285122846185,0.5753290505830564,1.055148396935039,0.0012882301677884188,-0.015729473663878186,0.11765835843197589
10169,11.0,299.73905,-7175.6079,0.0,0.0,0.10169144471991709,0.0,0.0,0.0,0.5351022616754815,0.5840949710406854,1.062008404087069,0.0053776015854279545,-0.01021418820981189,0.10426386085504191
10170,11.0,299.91121,-7111.0652,0.0,0.0,0.10170144914029122,0.0,0.0,0.0,0.5194848251016605,0.5731095566365094,1.068991825101279,-0.01742149291311748,-0.005437165593881465,0.12332200092593389
10171,11.0,300.30351,-7054.3338,0.0,0.0,0.10171145356066535,0.0,0.0,0.0,0.5231478559356735,0.5683430153835884,1.0528504470332491,-0.006499805455430853,0.003293272567770697,0.101181767846613
10172,11.0,300.03848999999997,-6924.6109,0.0,0.0,0.10172145798103949,0.0,0.0,0.0,0.5231233555482555,0.5556646019173265,1.0261208080702389,-0.01056980657090869,0.002152941146853748,0.13563169268080588
10173,11.0,299.29901,-7020.6261,0.0,0.0,0.10173146240141362,0.0,0.0,0.0,0.5399978605936395,0.5562274826128785,1.0378696456297591,-0.009526997128391411,0.0005838917637331304,0.1128356729910139
10174,11.0,299.22283,-7132.9463,0.0,0.0,0.10174143391251023,0.0,0.0,0.0,0.5485459322797684,0.5862632654596796,1.033428367791439,-0.003121191391362607,0.00947439789715027,0.1342656187634849
10175,11.0,300.07138,-6983.6079,0.0,0.0,0.10175143833288436,0.0,0.0,0.0,0.5182747410372345,0.5530308102698914,1.051536869603609,-0.0035145692267109768,0.0016013925390951386,0.1070046010505319
10176,11.0,300.27727000000004,-6897.0921,0.0,0.0,0.10176144275325849,0.0,0.0,0.0,0.4904330398244725,0.5613259443335575,1.044784773587229,0.014015043348927086,0.006303054678838064,0.12307234623379489
10177,11.0,300.02112999999997,-7103.7303,0.0,0.0,0.10177144717363285,0.0,0.0,0.0,0.5093751830239165,0.5872387111984484,1.062742706434539,0.002127325475050678,-0.02214551819184248,0.12282205319409288
10178,11.0,300.14453,-7242.0378,0.0,0.0,0.10178145159400698,0.0,0.0,0.0,0.5512634285179645,0.5804290017813825,1.0697062677467888,0.003255917076333997,-0.015093409966603586,0.11864233573658688
10179,11.0,300.46188,-7063.9003,0.0,0.0,0.10179145601438111,0.0,0.0,0.0,0.5404314404439305,0.5778698664013154,1.028947978499259,0.0077739376666279125,-0.014458428420435786,0.12617666083016688
10180,11.0,300.82915,-6892.9754,0.0,0.0,0.10180146043475524,0.0,0.0,0.0,0.5346181814402065,0.5377423152085345,1.022931907355519,0.013809180312859987,-0.003735263508466807,0.0988240919176785
10181,11.0,300.35351,-6970.927,0.0,0.0,0.10181143194585185,0.0,0.0,0.0,0.5134396128850445,0.5532950354984685,1.052253136099299,0.006884146417112354,0.008127189176816122,0.1072756251872799
10182,11.0,299.96114,-7102.92,0.0,0.0,0.10182143636622598,0.0,0.0,0.0,0.5244874738928835,0.5725447811632705,1.062078014368939,-0.007160486469184993,0.010792216994358889,0.1015918291488329
10183,11.0,299.60572,-7225.7955,0.0,0.0,0.10183144078660011,0.0,0.0,0.0,0.5359732413289405,0.5780245795590844,1.0824635931308388,-0.004350027776714316,0.010796708732052188,0.1110491509446979
10184,11.0,299.8545,-7095.7871,0.0,0.0,0.10184144520697447,0.0,0.0,0.0,0.5407700280973465,0.5642860633081985,1.0518860355880688,-0.02077942704926978,0.007375019177082722,0.1135306814996059
10185,11.0,299.78302,-7012.4858,0.0,0.0,0.1018514496273486,0.0,0.0,0.0,0.5402961512905785,0.5716705895069945,1.019653840631999,0.007297148981722534,-0.0005164754621721596,0.13570962174599688
10186,11.0,300.11967999999996,-7091.0809,0.0,0.0,0.10186145404772273,0.0,0.0,0.0,0.5383821522491815,0.5685707636085655,1.048558623584679,0.0002504518362576718,0.007494662127690562,0.12466516525849389
10187,11.0,300.11402000000004,-7119.7008,0.0,0.0,0.10187145846809686,0.0,0.0,0.0,0.5298862832082045,0.5719001413171495,1.062424849878169,0.008801838045848782,0.004086226897279196,0.11588625493458289
10188,11.0,300.24687,-6964.8157,0.0,0.0,0.101881462888471,0.0,0.0,0.0,0.4971294172178535,0.5645312090373925,1.0554693945667188,0.006132179472698994,-0.002248867965620988,0.11403794489716888
10189,11.0,299.76802000000004,-6847.1449,0.0,0.0,0.10189143439956738,0.0,0.0,0.0,0.4961133097525715,0.5506266008301144,1.0346211658091589,-0.002070965566063388,-0.0008422584916894411,0.1116109474626429
10190,11.0,300.19165,-7014.4145,0.0,0.0,0.10190143881994174,0.0,0.0,0.0,0.5212633222071845,0.5813612931983924,1.029582273061859,0.01131160291611829,-0.004214032286717606,0.13477063274582587
10191,11.0,300.06592,-7188.783,0.0,0.0,0.10191144324031609,0.0,0.0,0.0,0.5764643263925995,0.5611153909627774,1.047630790468109,-0.00018425081673413983,-0.007480366992629743,0.1147293462354049
10192,11.0,299.41123999999996,-7149.775,0.0,0.0,0.10192144766069022,0.0,0.0,0.0,0.5462484484730245,0.5844049951737825,1.042699606206439,0.0009693343613208532,-0.007674201635434732,0.13050075629442187
10193,11.0,299.46255,-7082.8163,0.0,0.0,0.10193145208106436,0.0,0.0,0.0,0.5314998839924545,0.5681763256096375,1.053323128204899,0.0035550453258056565,-0.009666055166815372,0.11675734604555289
10194,11.0,299.13651,-7065.0389,0.0,0.0,0.10194145650143849,0.0,0.0,0.0,0.5160890896440274,0.5707156722152514,1.060790680116889,-0.0018024253106105283,-0.007488360522668643,0.11736906539592488
10195,11.0,299.49951,-7026.7175,0.0,0.0,0.1019514609218124,0.0,0.0,0.0,0.5159136656542146,0.5750482384503425,1.044984789156969,0.0017286905942084784,-0.0007033126504490542,0.11981344006966588
10196,11.0,300.02605,-7137.8657,0.0,0.0,0.10196146534218675,0.0,0.0,0.0,0.5442614548944235,0.5595653209597975,1.0659061745717489,-0.005289939847726415,0.006168507427209285,0.1065114927568659
10197,11.0,300.24266,-7115.7067,0.0,0.0,0.10197143685328336,0.0,0.0,0.0,0.5492815822498714,0.5724903595003995,1.0412252259859291,0.004889399651396176,0.015650536414837685,0.12219097063430989
10198,11.0,300.10699,-6901.7881,0.0,0.0,0.10198144127365749,0.0,0.0,0.0,0.5131268529766775,0.5573675814928974,1.0274768406790689,-0.01009259100373618,0.007801482161321343,0.12400934926376987
10199,11.0,300.28171000000003,-6918.4646,0.0,0.0,0.10199144569403162,0.0,0.0,0.0,0.5091008860893455,0.5466092668336345,1.047330361813459,0.00861591627837473,-0.0066288432609658944,0.12317175620110588
10200,11.0,299.99886000000004,-7051.3409,0.0,0.0,0.10200145011440598,0.0,0.0,0.0,0.5249876344072455,0.5700257907521654,1.0484181871208191,0.003088211823132777,-0.013281197977252187,0.1136654234979039
10201,11.0,300.39722,-7063.2419,0.0,0.0,0.10201145453478011,0.0,0.0,0.0,0.5162587887707755,0.5695512452003314,1.0612391446111489,0.013220675535529088,-0.01856788914250798,0.12405648565842188
10202,11.0,300.01911,-6978.6895,0.0,0.0,0.10202145895515402,0.0,0.0,0.0,0.5293067750785115,0.5552601226099074,1.036780503097269,0.014799811630877686,-0.006592764869955233,0.1216778101211649
10203,11.0,300.63867,-6975.63,0.0,0.0,0.10203146337552815,0.0,0.0,0.0,0.5268475258933024,0.5652777919760744,1.0282920003845188,0.011757189780094289,-0.002755521386623787,0.11602387456316487
10204,11.0,301.2716,-6981.8899,0.0,0.0,0.10204143488662498,0.0,0.0,0.0,0.5322572073821965,0.5461353190993594,1.043927665327639,0.0026307629415610874,0.007768152008556913,0.1174479570487109
10205,11.0,300.57961,-7135.6886,0.0,0.0,0.10205143930699911,0.0,0.0,0.0,0.5322549275694715,0.5719900469985224,1.0648261512901591,-0.02111138095428108,0.016185120074846984,0.1090045135679079
10206,11.0,300.31151,-7141.7703,0.0,0.0,0.10206144372737325,0.0,0.0,0.0,0.5289558967013824,0.5850322071181835,1.0569317171110388,-0.02225916330980838,0.010892522674758291,0.12306772581333889
10207,11.0,300.52907000000005,-6944.6063,0.0,0.0,0.10207144814774738,0.0,0.0,0.0,0.5190021634165255,0.5446901002167275,1.047294594084929,-0.02920455806101547,-0.0031195398950246167,0.10416886865816691
10208,11.0,299.93335,-7001.068,0.0,0.0,0.10208145256812151,0.0,0.0,0.0,0.5226795114744515,0.5764323887494475,1.029037955108139,-0.004308694569360046,-0.013517115024535386,0.12627056884943488
10209,11.0,300.03947999999997,-7133.2809,0.0,0.0,0.10209145698849587,0.0,0.0,0.0,0.5547787376198984,0.5647443056659235,1.048816293085109,0.001224286284452649,-0.009021075375285821,0.11008836693487589
10210,11.0,300.47332,-7195.0591,0.0,0.0,0.10210146140886978,0.0,0.0,0.0,0.5356937464213565,0.5840874223274405,1.0673371876879791,0.008536973253808661,-0.000851211620235546,0.13121827922023588
10211,11.0,299.65172,-7070.7229,0.0,0.0,0.10211146582924391,0.0,0.0,0.0,0.5262283794196975,0.5695428250920005,1.053552021402489,0.024101907564423077,0.001032824774706869,0.11934878383880787
10212,11.0,299.74875,-6971.2019,0.0,0.0,0.10212143734034052,0.0,0.0,0.0,0.5091403015182355,0.5499630132071235,1.0599680223606989,0.006500936343867463,-0.005191720854582956,0.1186776171050689
10213,11.0,300.22524,-7087.5045,0.0,0.0,0.10213144176071487,0.0,0.0,0.0,0.5275014369778386,0.5747391363748364,1.0521838297924588,0.013088506179234986,-0.005093451604234535,0.11941432085527588
10214,11.0,299.50007999999997,-7214.6538,0.0,0.0,0.102141446181089,0.0,0.0,0.0,0.5579451137848954,0.5700743963594624,1.065055145812759,-0.01049774017079629,0.0005561716322673664,0.1094996787592769
10215,11.0,300.47774,-7144.1436,0.0,0.0,0.10215145060146313,0.0,0.0,0.0,0.5447751017676165,0.5771884658415664,1.049677656995119,-0.025598966348671273,0.0007825373078804192,0.12659454543640888
10216,11.0,300.35523,-7014.0854,0.0,0.0,0.10216145502183727,0.0,0.0,0.0,0.5155773172835195,0.5779618695103954,1.0385676736236489,-0.015978709883725885,0.012305925504250288,0.11453923011914188
10217,11.0,300.23933,-7007.2668,0.0,0.0,0.1021714594422114,0.0,0.0,0.0,0.5194105538693305,0.5675089281662704,1.043114633447399,-0.017187391610013484,0.01616427144078938,0.13087982328933287
10218,11.0,301.36349,-7091.9256,0.0,0.0,0.10218146386258553,0.0,0.0,0.0,0.5211646316474445,0.5826560545736754,1.051947641194149,0.014818741169245885,0.015349639638641485,0.11802999830365388
10219,11.0,300.31264,-7208.3315,0.0,0.0,0.10219146828295966,0.0,0.0,0.0,0.5468084920682965,0.5867589879386034,1.057585263425539,-0.008873475435868841,-0.008996103623921302,0.1270526155416169
10220,11.0,299.98982,-6943.6308,0.0,0.0,0.10220143979405627,0.0,0.0,0.0,0.5260632500509005,0.5509883007183114,1.033638819837209,0.008834733919620351,-0.009852337144699972,0.10380167695442791
10221,11.0,299.59795,-6777.5333,0.0,0.0,0.1022114442144304,0.0,0.0,0.0,0.49910714969054054,0.5495545518268115,1.0115391866761452,0.0046441783337447156,-0.003137696931516577,0.13149033687208586
10222,11.0,299.51178,-7087.7209,0.0,0.0,0.10222144863480476,0.0,0.0,0.0,0.5270626287570315,0.5677819078757115,1.059645606178879,0.02025601244511278,0.015241268487446086,0.11282991773044589
10223,11.0,299.63792,-7226.7693,0.0,0.0,0.10223145305517889,0.0,0.0,0.0,0.5412356671808015,0.5787093643741674,1.076812393348109,-0.0029408833334175874,0.013456660470568989,0.1143028591358139
10224,11.0,299.87445,-7126.8024,0.0,0.0,0.10224145747555302,0.0,0.0,0.0,0.5249290888164675,0.5868796964230164,1.0545612185020892,-0.011570362673655887,0.001209077704426679,0.12145988028965689
10225,11.0,299.38996000000003,-7019.0866,0.0,0.0,0.10225146189592715,0.0,0.0,0.0,0.5326813538740566,0.5561142113841995,1.0448314844168392,-0.017512175757317183,0.015131071459570487,0.1105438329873269
10226,11.0,300.16415,-7033.346,0.0,0.0,0.10226146631630129,0.0,0.0,0.0,0.5334321418006536,0.5805768755009765,1.023952554181249,-0.005518593715642795,-0.0007016602725834774,0.11323053655498388
10227,11.0,300.17751,-7158.9475,0.0,0.0,0.10227143782739789,0.0,0.0,0.0,0.5462522177633965,0.5768506887882304,1.0530384049267991,0.003912235947082626,0.0026503796661471075,0.1190130940806779
10228,11.0,299.76441,-7186.6566,0.0,0.0,0.10228144224777203,0.0,0.0,0.0,0.5432108766607395,0.5758245906769625,1.065528738909499,0.00042199230188239765,-0.011211271904466389,0.11940473550932988
10229,11.0,300.27668,-6932.1912,0.0,0.0,0.10229144666814616,0.0,0.0,0.0,0.4989103967861225,0.5803253158986494,1.027977284903459,-0.006783090222363884,-0.006275769576170234,0.12552921428126887
10230,11.0,299.99247,-6863.411999999999,0.0,0.0,0.10230145108852029,0.0,0.0,0.0,0.5014554479897995,0.5424949749350855,1.042355405147469,-0.009685497511059179,-0.003413300958716577,0.11703334524029188
10231,11.0,300.20928,-7005.8364,0.0,0.0,0.10231145550889464,0.0,0.0,0.0,0.5344600232320974,0.5646425956208855,1.030496731277109,-0.00853606163269369,-0.013298723150981786,0.12322119267348489
10232,11.0,299.53963999999996,-7123.0708,0.0,0.0,0.10232145992926878,0.0,0.0,0.0,0.5502842033563224,0.5685203544160904,1.046431102349709,0.015122051507180287,0.002797875240803787,0.10905511527790189
10233,11.0,299.34283999999997,-7160.9585,0.0,0.0,0.10233146434964291,0.0,0.0,0.0,0.5317755285496585,0.5763387340427044,1.068638302141389,0.01043439380104449,0.014879545294496787,0.13090428314674687
10234,11.0,299.63777999999996,-7067.034000000001,0.0,0.0,0.10234146877001704,0.0,0.0,0.0,0.5221237539271025,0.5827257459155535,1.043352341920859,0.038160069771355665,0.017505365703395084,0.1225334491681099
10235,11.0,300.01581,-7158.4717,0.0,0.0,0.10235144028111365,0.0,0.0,0.0,0.5226481615163575,0.5881581444716895,1.0651903133760992,-0.006635460797368994,-0.0018554847600470881,0.12393724638665389
10236,11.0,299.83485,-7224.7616,0.0,0.0,0.10236144470148778,0.0,0.0,0.0,0.5530059552449386,0.5701412607335615,1.072999938521849,0.0002512396078129187,-0.0024002729631384975,0.1042740946810519
10237,11.0,300.06587,-7052.7374,0.0,0.0,0.10237144912186191,0.0,0.0,0.0,0.5351576459259475,0.5788749294405074,1.029823527910669,-0.017714736611308384,0.0009535167571897772,0.1154181739183869
10238,11.0,299.9934,-6870.6908,0.0,0.0,0.10238145354223604,0.0,0.0,0.0,0.5222318271827685,0.5371579637433636,1.029128640992089,-0.014637362308595185,0.006220202231411165,0.09114466231702781
10239,11.0,299.27108,-6926.751,0.0,0.0,0.1023914579626104,0.0,0.0,0.0,0.5117338367391975,0.5558717710327724,1.037953745388059,-0.01014150980663909,-0.006160743499643045,0.11770858523943288
10240,11.0,299.96409,-7065.4145,0.0,0.0,0.10240146238298453,0.0,0.0,0.0,0.5290439886650765,0.5666303694020635,1.0520352873277992,-0.0013266602109561687,-0.013087386537874487,0.10639272971264489
10241,11.0,299.94768,-7223.6155,0.0,0.0,0.10241146680335866,0.0,0.0,0.0,0.5480294685712974,0.5744391738152325,1.0733300554044292,0.027617175123102973,0.00011786386581725789,0.1229621755504219
10242,11.0,299.70027000000005,-7196.776,0.0,0.0,0.1024214712237328,0.0,0.0,0.0,0.5480607678668864,0.5826416461572534,1.0569377966116391,0.01069322448608909,-0.0075609038596031125,0.12145610086678389
10243,11.0,299.32537,-6974.7031,0.0,0.0,0.10243144273482918,0.0,0.0,0.0,0.5442245117957775,0.5471084546279005,1.028802577109909,0.015724283796865985,-0.0041250587954366055,0.11860032638744088
10244,11.0,299.75761,-7060.8518,0.0,0.0,0.10244144715520354,0.0,0.0,0.0,0.5307203602930215,0.5645830266475064,1.051019301452529,-0.004045694968104006,0.0015411617107508185,0.11739822673380289
10245,11.0,299.94139,-7166.5725,0.0,0.0,0.10245145157557767,0.0,0.0,0.0,0.5321502790991435,0.5884278817808105,1.057880929804719,0.014218818076538088,0.007194774041968914,0.12819156944902288
10246,11.0,300.84866,-7001.7537,0.0,0.0,0.10246145599595202,0.0,0.0,0.0,0.5090506592818885,0.5583723101595565,1.060935270906159,-0.0023013907978045875,0.005179818914933325,0.11220105418838189
10247,11.0,300.18653,-6891.3328,0.0,0.0,0.10247146041632615,0.0,0.0,0.0,0.5019285344614896,0.5686233918187594,1.0242412291347391,-0.02094942812454758,-0.0062293277644617845,0.13160294948819987
10248,11.0,299.78665,-6904.8799,0.0,0.0,0.10248146483670029,0.0,0.0,0.0,0.5177615906565904,0.5416078440750325,1.039541609619769,-0.01835646640314218,-0.006852513762240454,0.1100597932820559
10249,11.0,300.16132999999996,-7083.097,0.0,0.0,0.10249146925707442,0.0,0.0,0.0,0.5349671853046505,0.5742595448375044,1.0438578523957491,-0.013795472052257087,-0.005806867219443175,0.1313286018911239
10250,11.0,299.63916,-7191.7656,0.0,0.0,0.10250144076817103,0.0,0.0,0.0,0.5388347812013525,0.5896208419185465,1.0576615611580689,0.002774363988133407,0.019624198318757582,0.12027077050230088
10251,11.0,300.03403,-7098.2182,0.0,0.0,0.10251144518854494,0.0,0.0,0.0,0.5333360958236745,0.5669728074058594,1.0573721769295088,-0.008020071517319432,0.009231490336102162,0.13308286205425587
10252,11.0,299.83451,-7047.1303,0.0,0.0,0.10252144960891929,0.0,0.0,0.0,0.5175838260590465,0.5710389192621534,1.053528919300209,0.02001291854737128,0.012534127665272088,0.1112928477262489
10253,11.0,299.86509,-7086.4886,0.0,0.0,0.10253145402929364,0.0,0.0,0.0,0.5318285215298886,0.5691302803137854,1.053156752538479,0.014286850728002386,-0.014544012590132285,0.1284529069148149
10254,11.0,300.04562999999996,-7142.1321,0.0,0.0,0.10254145844966778,0.0,0.0,0.0,0.5566446984740544,0.5597133871969104,1.054671764087999,0.02316605052031118,-0.018427549950657585,0.1010013444808066
10255,11.0,300.04076000000003,-7055.5394,0.0,0.0,0.10255146287004191,0.0,0.0,0.0,0.5483822214611115,0.5646163321782934,1.031709287671779,0.010356369490344089,-0.02311949674446668,0.1153003835942619
10256,11.0,300.02069,-6959.7382,0.0,0.0,0.10256146729041604,0.0,0.0,0.0,0.5296677150291336,0.5458735763335274,1.040045296244479,0.012147462307861187,0.0005412481402895325,0.10441126847958988
10257,11.0,300.54663999999997,-7028.3518,0.0,0.0,0.10257147171078995,0.0,0.0,0.0,0.5176189858375165,0.5663547451098615,1.052469768970679,0.0005205484843941355,0.01181760785705709,0.11579402891048089
10258,11.0,299.84785,-7198.5321,0.0,0.0,0.10258144322188678,0.0,0.0,0.0,0.5243422244910485,0.5979572760562885,1.065874459843619,-0.012433924323132789,0.014151588932403087,0.12745937466176088
10259,11.0,299.99678,-7151.5381,0.0,0.0,0.10259144764226091,0.0,0.0,0.0,0.5346999405907754,0.5768376685244454,1.0623513892459189,-0.012977564412535886,0.007874206566048682,0.1184870855562649
10260,11.0,300.04456,-6941.3299,0.0,0.0,0.10260145206263505,0.0,0.0,0.0,0.5157516064332205,0.5614653878123195,1.032774010876859,-0.012724015800262589,0.006263133942123193,0.12628262652562489
10261,11.0,300.13767,-6871.6714,0.0,0.0,0.10261145648300918,0.0,0.0,0.0,0.5185070590201625,0.5497458433131904,1.020563637896789,-0.008594182874329812,0.003724643330193677,0.1187654760212399
10262,11.0,299.55241,-7024.3487,0.0,0.0,0.10262146090338353,0.0,0.0,0.0,0.5242230257492845,0.5673986561578875,1.043604945170789,-0.005568212674364806,0.0001157237093535409,0.12914893880600786
10263,11.0,299.38687999999996,-7134.6441,0.0,0.0,0.10263146532375766,0.0,0.0,0.0,0.5322769454941445,0.5851061135804775,1.051370595262199,0.006416981379006754,0.0021048413540066683,0.12343717706480088
10264,11.0,299.26367,-7101.4398,0.0,0.0,0.10264146974413157,0.0,0.0,0.0,0.5298515084647725,0.5723452114235744,1.056463696889849,0.019633337834659582,0.0017692445109108383,0.12570576297869288
10265,11.0,299.97609,-6982.865,0.0,0.0,0.10265147416450571,0.0,0.0,0.0,0.5245321278247904,0.5667104465574664,1.031374003213689,0.008785468686508252,-0.007082889243401743,0.12836103552824787
10266,11.0,300.08967,-6974.5658,0.0,0.0,0.10266144567560254,0.0,0.0,0.0,0.5310443267474945,0.5640344935733704,1.025015048236109,-0.002243109766627698,-0.0046689564530151256,0.11347926918953188
10267,11.0,300.31878,-7133.7173,0.0,0.0,0.10267145009597667,0.0,0.0,0.0,0.5429522547052155,0.5692483239504355,1.056271382020869,-0.0058845959650894045,-0.00964470791238356,0.11409400802520188
10268,11.0,299.96554,-7164.0915,0.0,0.0,0.1026814545163508,0.0,0.0,0.0,0.5377764516044036,0.5852033957225784,1.0547250610432588,0.002813495808320417,-0.0008281076535753623,0.11120312442989388
10269,11.0,300.65397,-6983.6222,0.0,0.0,0.10269145893672493,0.0,0.0,0.0,0.5074203905334935,0.5595827285965155,1.055843689153659,0.004931162780767876,-0.005973411288029795,0.1232292480117799
10270,11.0,300.03502000000003,-6897.6962,0.0,0.0,0.10270146335709907,0.0,0.0,0.0,0.4980409775378175,0.5594307816115194,1.039255670441549,-0.0061470210535387445,-0.0015507862694756885,0.1262370708011289
10271,11.0,300.02687000000003,-7072.1558,0.0,0.0,0.1027114677774732,0.0,0.0,0.0,0.5359758757792005,0.5683400161632924,1.045442879527179,-0.009032880448225892,0.0016354118032525784,0.12050886401079888
10272,11.0,299.84292,-7262.4141,0.0,0.0,0.10272147219784733,0.0,0.0,0.0,0.5668851916697125,0.5781111820451315,1.062596190470079,-0.0038055395969775166,0.009546692075885151,0.1055099355630199
10273,11.0,300.05956000000003,-7205.4351,0.0,0.0,0.10273147661822146,0.0,0.0,0.0,0.5696818328732194,0.5771576731710274,1.043432895303809,0.015777672957885087,0.01079689111707019,0.0955195378232944
10274,11.0,299.74447999999995,-7063.6423,0.0,0.0,0.10274144812931807,0.0,0.0,0.0,0.5192611197445826,0.5704684797208555,1.057441280586329,-0.002175279562533378,0.007825531753769852,0.1187298400152229
10275,11.0,299.09451,-7050.8139,0.0,0.0,0.10275145254969242,0.0,0.0,0.0,0.5237241419300485,0.5590111035526005,1.0605361516917688,0.007596765009792332,0.00884031196274586,0.1048595607213329
10276,11.0,298.62606,-7219.3181,0.0,0.0,0.10276145697006656,0.0,0.0,0.0,0.5268044526315515,0.5928224487895205,1.074865534605969,-0.005734517007977765,-0.0026013318765064674,0.13056758013851688
10277,11.0,299.17585,-7219.7017,0.0,0.0,0.10277146139044069,0.0,0.0,0.0,0.5516705017456395,0.5739136313858654,1.069024958379549,0.01022404814653499,-0.00932280342186406,0.10454271741506291
10278,11.0,299.73999,-6962.2041,0.0,0.0,0.10278146581081482,0.0,0.0,0.0,0.5189779163416325,0.5691622483544404,1.028196045600049,0.0001311735948908259,-0.01879824547324238,0.1259566437034529
10279,11.0,299.61312000000004,-6817.3773,0.0,0.0,0.10279147023118895,0.0,0.0,0.0,0.5024850215489105,0.5488020515075455,1.0210253759673589,0.0007247107497708824,-0.013304611147312887,0.1068665862544109
10280,11.0,299.79937,-6956.6837,0.0,0.0,0.10280147465156309,0.0,0.0,0.0,0.5094344480222656,0.5668061176319085,1.038417611283839,-0.001091477466020439,-0.012660681589511988,0.12678818766301986
10281,11.0,299.35861,-7116.8374,0.0,0.0,0.10281144616265991,0.0,0.0,0.0,0.5298482255344485,0.5844000707782965,1.0490926063873791,0.007101012842640403,0.003793880938676896,0.1281366310286009
10282,11.0,300.01863,-7040.9259999999995,0.0,0.0,0.10282145058303382,0.0,0.0,0.0,0.5168147996306495,0.5789542162608324,1.044496706583799,-0.0005642745730520645,0.01808913049675818,0.14144835620486587
10283,11.0,300.41455,-6934.1556,0.0,0.0,0.10283145500340796,0.0,0.0,0.0,0.5262163318760086,0.5532533605218555,1.028340433739299,-0.014531910330937887,0.015305282589013786,0.1262590988583029
10284,11.0,300.26726,-7097.4292,0.0,0.0,0.10284145942378231,0.0,0.0,0.0,0.5458695739956324,0.5758796405548955,1.035692069839849,-0.028542471061422575,0.005349923443046334,0.10985074965392488
10285,11.0,300.05555,-7212.1317,0.0,0.0,0.10285146384415644,0.0,0.0,0.0,0.5617080004162635,0.5622545475202035,1.0683453715374789,-0.018111013659167882,0.004914517513425116,0.09066754614969011
10286,11.0,299.95624,-7093.7688,0.0,0.0,0.10286146826453058,0.0,0.0,0.0,0.5284145273054535,0.5712916643670974,1.056622371855509,0.0016131256712781084,-0.004646313859655475,0.1076075253900359
10287,11.0,299.82367,-6963.2876,0.0,0.0,0.10287147268490471,0.0,0.0,0.0,0.5091189016761235,0.5518506170834154,1.0556960586140889,0.012039115474668188,-0.014982670849924485,0.1055284375098459
10288,11.0,299.00162,-6999.6036,0.0,0.0,0.10288147710527884,0.0,0.0,0.0,0.5143551958079056,0.5579191340523314,1.055430384437869,0.008985717709071292,-0.016376964795780585,0.12853667230058188
10289,11.0,299.11483,-7147.8769999999995,0.0,0.0,0.10289144861637545,0.0,0.0,0.0,0.5455092622600725,0.5809029596481584,1.046363923868079,0.00833697946894581,-0.007445012974115573,0.1256749196456489
10290,11.0,299.72801,-7144.7631,0.0,0.0,0.10290145303674958,0.0,0.0,0.0,0.5534378531000635,0.5697662771365534,1.048625498091279,0.004034145943464206,-0.00899085306322811,0.12648787046588086
10291,11.0,300.09564,-7031.4578,0.0,0.0,0.10291145745712371,0.0,0.0,0.0,0.5307768185885935,0.5650400429726105,1.041570744270029,0.004747359111302866,-0.0024426040191912477,0.10212145497610291
10292,11.0,300.56165,-6919.2177,0.0,0.0,0.10292146187749784,0.0,0.0,0.0,0.5040162957625355,0.5667388074277655,1.032514314876229,0.001147619019611179,0.0073959577877492026,0.12203323799124288
10293,11.0,300.56318,-7078.2815,0.0,0.0,0.1029314662978722,0.0,0.0,0.0,0.5217304203707835,0.5689822444741754,1.060908217128489,0.0009395686704207082,0.02014833030398538,0.11480287779516189
10294,11.0,299.86615,-7223.5704,0.0,0.0,0.10294147071824633,0.0,0.0,0.0,0.5299455988690585,0.6000522314330444,1.065787219010009,-0.00940004003193672,-0.00017991334636856482,0.13662560996889786
10295,11.0,299.91263,-7130.3101,0.0,0.0,0.10295147513862046,0.0,0.0,0.0,0.5487643586038254,0.5657493180426104,1.052922489115359,-0.0038120552004205564,-0.002161741223972248,0.12086995594893589
10296,11.0,299.47334,-6974.4926,0.0,0.0,0.1029614795589946,0.0,0.0,0.0,0.5205807158798166,0.5742875004077634,1.025203411429699,-0.005970647141756994,-0.008458077446697252,0.12338350520700388
10297,11.0,299.25615,-7006.4307,0.0,0.0,0.1029714510700912,0.0,0.0,0.0,0.5289469699680015,0.5705986012986975,1.030234400826219,-0.0009399818130164822,0.007925226545683962,0.11330800965762988
10298,11.0,299.62928,-7138.0747,0.0,0.0,0.10298145549046533,0.0,0.0,0.0,0.5356925811837415,0.5772157324017575,1.056888147356739,-0.0008367883596995812,0.002790715311622157,0.12326508666781688
10299,11.0,300.05936,-7173.2336,0.0,0.0,0.10299145991083947,0.0,0.0,0.0,0.5423060848514435,0.5859236848211655,1.052254149349399,-0.0021529881616583883,0.004960490899612336,0.11744977076638988
10300,11.0,299.95177,-7111.4015,0.0,0.0,0.1030014643312136,0.0,0.0,0.0,0.5220529581426154,0.5763186007632174,1.0633169152662092,-0.0014287074656274487,-0.00960523857858824,0.13051720134354486
10301,11.0,299.96542999999997,-7024.9943,0.0,0.0,0.10301146875158795,0.0,0.0,0.0,0.5364869388646385,0.5605376762857615,1.038398258206929,-0.0034628745238341066,-0.008813442697919071,0.1140094320393549
10302,11.0,299.85094,-6975.284000000001,0.0,0.0,0.10302147317196209,0.0,0.0,0.0,0.5156113928843825,0.5641956915317795,1.040505109139859,-0.008062874139968722,-0.014254326413042487,0.1256759430282499
10303,11.0,300.22721,-7085.3951,0.0,0.0,0.10303147759233622,0.0,0.0,0.0,0.5360127986128445,0.5597437137724034,1.058026635169099,0.00017027522022485583,0.002262977878563528,0.09308814490983461
10304,11.0,300.12931000000003,-7113.8871,0.0,0.0,0.10304144910343283,0.0,0.0,0.0,0.5363451547781455,0.5670403303925234,1.0590585290709391,0.00908137844836227,0.01037901968307949,0.10528087011291291
10305,11.0,300.14005,-7065.0775,0.0,0.0,0.10305145352380674,0.0,0.0,0.0,0.5271472959353876,0.5745813733342664,1.045878475745169,0.01897623399905848,0.021628461732062978,0.11795960781920688
10306,11.0,299.90115,-7087.5035,0.0,0.0,0.10306145794418109,0.0,0.0,0.0,0.5295470673397266,0.5605366934331645,1.0643402978672092,-0.006392804522345683,0.0008271072616191312,0.1199203075577129
10307,11.0,300.33659,-7151.0663,0.0,0.0,0.10307146236455522,0.0,0.0,0.0,0.5580792984956385,0.5710297392162474,1.044636535097599,-0.02037853160745448,0.002107823349050968,0.1261497894375149
10308,11.0,300.82389,-7181.6681,0.0,0.0,0.10308146678492958,0.0,0.0,0.0,0.5373218164170345,0.5808512433630545,1.0648746859699492,-0.01085295424510319,-0.007464579542821644,0.11890773633527989
10309,11.0,300.18861,-7021.3463,0.0,0.0,0.10309147120530371,0.0,0.0,0.0,0.5287823877542586,0.5630983315409784,1.042433222755149,-0.00021803631396100879,0.011855258204272887,0.11858366855579688
10310,11.0,300.13249,-6880.5891,0.0,0.0,0.10310147562567784,0.0,0.0,0.0,0.5079927856474845,0.5611064540968954,1.022428018080789,0.013971498925879589,-0.005034348624576525,0.11630324788073688
10311,11.0,298.97213,-6901.132,0.0,0.0,0.10311148004605197,0.0,0.0,0.0,0.5047953432344215,0.5452525857447406,1.0477239081522989,0.004930473568049855,0.00025228369111346177,0.12309777881130488
10312,11.0,299.42497000000003,-7033.2769,0.0,0.0,0.10312145155714858,0.0,0.0,0.0,0.5144906876112776,0.5815884233408084,1.041861445723719,0.008494537529020582,-0.014095179272835885,0.12925836981680788
10313,11.0,300.18698,-7222.0964,0.0,0.0,0.10313145597752271,0.0,0.0,0.0,0.5476001038414225,0.5900111053270625,1.0577258012144088,0.011582501409853887,-0.0054117414263472954,0.12355648726407588
10314,11.0,299.94693,-7155.2878,0.0,0.0,0.10314146039789684,0.0,0.0,0.0,0.5365901282548224,0.5789746535153494,1.059464031760959,0.008478785542965982,-0.006479549674006764,0.12811205971367587
10315,11.0,300.62874,-6956.0778,0.0,0.0,0.1031514648182712,0.0,0.0,0.0,0.5161646882339885,0.5670158502701075,1.0312934498307391,-0.0068481789769876435,0.005360911836405805,0.11843492344111688
10316,11.0,300.86305,-7105.1993,0.0,0.0,0.10316146923864533,0.0,0.0,0.0,0.5351569873133826,0.5615621025343644,1.063084070393229,-0.014498784145418586,-0.0002029496583195718,0.11101968563178988
10317,11.0,300.38748,-7269.5127,0.0,0.0,0.10317147365901946,0.0,0.0,0.0,0.5487766999900434,0.5861121797372684,1.0748614816055688,-0.02601010777549777,0.01900951419859298,0.11579268128784788
10318,11.0,300.94147000000004,-7085.6743,0.0,0.0,0.10318147807939337,0.0,0.0,0.0,0.5417453015835986,0.5764669507103585,1.035655795486269,-0.015700037735223087,-0.0034282055637125464,0.13145311006341187
10319,11.0,300.58375,-7010.5478,0.0,0.0,0.1031914824997675,0.0,0.0,0.0,0.5301983439740026,0.5566012604422675,1.044231843007659,-0.003073472580553127,-0.0012124645942109388,0.1094615805555169
10320,11.0,299.84171000000003,-7019.5639,0.0,0.0,0.10320145401086434,0.0,0.0,0.0,0.5242735058692665,0.5707794461765454,1.038719154513599,0.010918064683279091,-0.008427340504913752,0.12404559321984687
10321,11.0,300.16246,-7120.0894,0.0,0.0,0.10321145843123847,0.0,0.0,0.0,0.5381496113512315,0.5723163743257285,1.053863393158219,0.02301073751848298,-0.004574297919398056,0.10896069050108291
10322,11.0,299.85464,-7243.8732,0.0,0.0,0.1032214628516126,0.0,0.0,0.0,0.5439279942865135,0.5852955102891694,1.072733048445509,0.012776542685446588,-0.007480866930229083,0.11040164360079391
10323,11.0,300.44644,-7165.8874,0.0,0.0,0.10323146727198673,0.0,0.0,0.0,0.5356084206304355,0.5813473103470124,1.0612950760166688,0.001209246309243319,-0.0025059795705459275,0.10947815732715291
10324,11.0,300.45121,-7010.5264,0.0,0.0,0.10324147169236109,0.0,0.0,0.0,0.5320785713895665,0.5500447723576924,1.048901608743529,0.00013849372904576688,0.0030439024975847865,0.11705632575255989
10325,11.0,299.18487999999996,-7107.4939,0.0,0.0,0.10325147611273522,0.0,0.0,0.0,0.5420333077920225,0.5664688573361235,1.051998506349169,-0.014241650654291485,0.025062193055195876,0.1251552540668619
10326,11.0,299.12505,-7160.2958,0.0,0.0,0.10326148053310913,0.0,0.0,0.0,0.5364018359887395,0.5842724012656965,1.055876923756939,-0.01212817103920729,0.005374308015977905,0.12929280005520588
10327,11.0,299.71768,-7024.8571,0.0,0.0,0.10327145204420596,0.0,0.0,0.0,0.5318966423341115,0.5513154690431005,1.052169036340999,-0.012619087672906988,0.00021657150895394378,0.1130082193505429
10328,11.0,300.29037,-6897.7706,0.0,0.0,0.10328145646458009,0.0,0.0,0.0,0.5032039630248645,0.5711943518274935,1.0223517203482588,-0.0035457357865368764,-0.01010073682526511,0.12524440994316088
10329,11.0,300.49476,-6990.408,0.0,0.0,0.10329146088495422,0.0,0.0,0.0,0.5284440432808665,0.5597489826729235,1.0367164656909489,-0.0015180232327922287,-0.004255716483906516,0.12299400173606287
10330,11.0,300.28102,-7075.1501,0.0,0.0,0.10330146530532835,0.0,0.0,0.0,0.5299970314441345,0.5843063046140424,1.036365678506329,-0.0012399104996696389,-0.011830194449799289,0.1364900573705199
10331,11.0,299.82399,-7137.0054,0.0,0.0,0.10331146972570249,0.0,0.0,0.0,0.5450862303433225,0.5790144843767805,1.045370736120059,0.007423356374428232,0.00036289597927754465,0.12332835400406088
10332,11.0,299.75617,-7064.2135,0.0,0.0,0.10332147414607662,0.0,0.0,0.0,0.5164866383207625,0.5612490690484705,1.069608793087169,0.0091709135841737,0.0016379575941288284,0.12023938001420288
10333,11.0,300.45525,-7017.9866,0.0,0.0,0.10333147856645075,0.0,0.0,0.0,0.5254628183066425,0.5708908226275375,1.036939076737919,0.01018499343468059,0.012873728568788089,0.10609500643576189
10334,11.0,299.61106,-7114.6389,0.0,0.0,0.10334148298682488,0.0,0.0,0.0,0.5233510227132245,0.5695927377919264,1.069728863224019,0.010541648350629691,-0.005641182792241395,0.1202628367540179
10335,11.0,299.56177,-7199.608,0.0,0.0,0.10335145449792171,0.0,0.0,0.0,0.5630472130734334,0.5650011037712674,1.0604527612085388,-0.0027340262990023876,0.0005294281624404915,0.10334103319396591
10336,11.0,299.43664,-7193.2505,0.0,0.0,0.10336145891829562,0.0,0.0,0.0,0.5473987001190455,0.5832670950464804,1.0559027616344892,-0.004161640873071976,0.0006366970596471073,0.12444859318211988
10337,11.0,299.71353,-7039.9697,0.0,0.0,0.10337146333866998,0.0,0.0,0.0,0.5337675883787595,0.5601578392207744,1.046049613687059,-0.013350289475070987,0.016704876846142983,0.12369792684553488
10338,11.0,299.66669,-7015.5329,0.0,0.0,0.10338146775904411,0.0,0.0,0.0,0.5080493047380625,0.5786625623520484,1.045834905990869,-0.025403273303857877,0.02299406043508708,0.12506936085588488
10339,11.0,300.70894,-7030.6681,0.0,0.0,0.10339147217941824,0.0,0.0,0.0,0.5307967593505615,0.5573824965343694,1.048968280600109,-0.02094039297340588,0.007882269402394422,0.1189485601818089
10340,11.0,299.96952000000005,-7006.6833,0.0,0.0,0.10340147659979237,0.0,0.0,0.0,0.5194116481794385,0.5540221741677315,1.0564229642358292,0.002452208718214158,0.005232092588917336,0.09176116826087222
10341,11.0,300.41122,-6962.9366,0.0,0.0,0.1034114810201665,0.0,0.0,0.0,0.5259944706341124,0.5695939536920465,1.020970457811939,0.0032299402821952864,-0.009891487102063772,0.1290723370984479
10342,11.0,300.50773,-7101.9212,0.0,0.0,0.10342148544054064,0.0,0.0,0.0,0.5489643741735655,0.5690466567830325,1.040795709268539,0.015387601053637985,-0.017554685652012583,0.1142752075405849
10343,11.0,300.18816,-7178.1008,0.0,0.0,0.10343145695163725,0.0,0.0,0.0,0.5474960835861565,0.5770713341300064,1.0573959883068589,0.003024729475217557,-0.009376936308456561,0.13341998049502687
10344,11.0,299.6382,-7194.3974,0.0,0.0,0.10344146137201138,0.0,0.0,0.0,0.5313815161157724,0.5776077791304495,1.0779278803831989,0.014390591326240786,-0.002519368860017348,0.10823295401426089
10345,11.0,299.32615,-7177.8048,0.0,0.0,0.10345146579238551,0.0,0.0,0.0,0.5349965594250495,0.5716251249750074,1.0752517855440888,0.005755173124516365,0.014773670791547785,0.10531692155147089
10346,11.0,299.96209,-7087.0874,0.0,0.0,0.10346147021275987,0.0,0.0,0.0,0.5207366449377054,0.5683408672933765,1.065220102929039,-0.006084246359493364,0.008480015324612353,0.11252133241249089
10347,11.0,300.02109,-7005.2334,0.0,0.0,0.103471474633134,0.0,0.0,0.0,0.5424298736161605,0.5651398481074605,1.021846311198379,-0.015666284347891885,0.005704879746527795,0.1102448836778229
10348,11.0,299.56482,-7065.6655,0.0,0.0,0.10348147905350813,0.0,0.0,0.0,0.5306943298979525,0.5747717123655515,1.042319840068959,-0.03076394185891467,0.006924319047802083,0.13071212026528187
10349,11.0,300.14078,-7137.7446,0.0,0.0,0.10349148347388226,0.0,0.0,0.0,0.5423244145457525,0.5922485641978824,1.0351231299086991,-0.011179823661112689,0.018400449563482982,0.13357640604546486
10350,11.0,300.38522,-7091.8063,0.0,0.0,0.10350145498497909,0.0,0.0,0.0,0.5233787655009625,0.5758271947297194,1.0565260117709991,-0.012503486982248088,0.00988915024335814,0.13570663265820188
10351,11.0,300.45011,-7013.8139,0.0,0.0,0.103511459405353,0.0,0.0,0.0,0.5222922675512336,0.5625455529489234,1.047186480299259,0.001154806103895489,0.003058684600643667,0.1096094137451069
10352,11.0,300.49053,-7057.4013,0.0,0.0,0.10352146382572713,0.0,0.0,0.0,0.5232789198361084,0.5646668629607804,1.057327999225149,0.01957346387300048,-0.0053239854563864545,0.10982605674898789
10353,11.0,300.31602000000004,-7148.4334,0.0,0.0,0.10353146824610127,0.0,0.0,0.0,0.5544299566704765,0.5626654407007555,1.0558498699792689,0.023304989400523377,-0.009019766661456662,0.11179446732075489
10354,11.0,300.27107,-7229.4958,0.0,0.0,0.1035414726664754,0.0,0.0,0.0,0.5509565657251795,0.5874153206908785,1.0592142656113088,0.007897645675311942,-0.025825491580777578,0.13055216860449587
10355,11.0,300.48408,-7143.9378,0.0,0.0,0.10355147708684975,0.0,0.0,0.0,0.5416028690170415,0.5703635171429964,1.059612270250589,-0.002032274205694848,-0.017240791916783682,0.13977259252698088
10356,11.0,300.08835,-6996.9109,0.0,0.0,0.10356148150722388,0.0,0.0,0.0,0.5206902482156266,0.5604311735677504,1.045764789083949,-0.007014656779017723,0.0033690443221737866,0.11891244794824488
10357,11.0,299.95117,-6974.6328,0.0,0.0,0.10357148592759802,0.0,0.0,0.0,0.5132811810994085,0.5663339430853085,1.040499130964269,0.00013833644223274386,0.014702988491071987,0.13171869304712286
10358,11.0,299.81811,-7024.3421,0.0,0.0,0.10358145743869462,0.0,0.0,0.0,0.5330989750352725,0.5536238554209204,1.0485017802540688,-0.007477360375608012,0.00997690084309345,0.1046045763336679
10359,11.0,299.48146,-7044.1922,0.0,0.0,0.10359146185906876,0.0,0.0,0.0,0.5329153133221466,0.5804298326464644,1.027913348822149,-0.01050988498649489,0.0056118703787734845,0.11961274562235888
10360,11.0,299.24599,-6975.1675,0.0,0.0,0.10360146627944289,0.0,0.0,0.0,0.5149265979367985,0.5706620915499635,1.034688040315759,-0.0021566575455705277,0.008438845047874163,0.11692306309940789
10361,11.0,299.33626,-7132.1574,0.0,0.0,0.10361147069981702,0.0,0.0,0.0,0.5316695831192024,0.5826537646284494,1.053674422014569,0.0029844283644151473,0.0076333336112013725,0.1323809938424869
10362,11.0,300.01313,-7264.3553,0.0,0.0,0.10362147512019115,0.0,0.0,0.0,0.5487513991350466,0.5818669353957955,1.077564326247319,0.004190414541461716,-0.002276335250656798,0.12913039632917786
10363,11.0,299.87926,-7258.1646,0.0,0.0,0.10363147954056551,0.0,0.0,0.0,0.5501365322867485,0.5803847531495154,1.075779486196169,0.01092930871963879,-0.01147497632249199,0.10680506170833891
10364,11.0,299.34499,-7090.061,0.0,0.0,0.10364148396093964,0.0,0.0,0.0,0.5312297413832935,0.5665477996514144,1.0574239540096189,0.0014739863701961288,-0.009236510889022652,0.11309579455668589
10365,11.0,299.62407,-6983.5611,0.0,0.0,0.10365148838131377,0.0,0.0,0.0,0.5245531021018605,0.5657200756447245,1.032555047530249,0.015163247216495986,-0.010457327703807891,0.10680305547314091
10366,11.0,300.07841,-7109.2595,0.0,0.0,0.10366145989241038,0.0,0.0,0.0,0.5322212268711455,0.5687320730244855,1.060084039497149,0.012338254261940887,-0.017716871529269082,0.13190536411304588
10367,11.0,300.21442,-7282.5138,0.0,0.0,0.10367146431278429,0.0,0.0,0.0,0.5483250336254675,0.6052366876897104,1.0601405788527292,0.018974421294629583,-0.010013513115581801,0.12333147481436887
10368,11.0,300.6216,-7191.7546,0.0,0.0,0.10368146873315864,0.0,0.0,0.0,0.5251478596455585,0.5923401924044255,1.068625737840149,0.01061915894352939,0.005319101286929425,0.12905067381130989
10369,11.0,300.75036,-6962.0329,0.0,0.0,0.10369147315353278,0.0,0.0,0.0,0.5105479794846626,0.5734185675195065,1.0323176430318188,-0.005460833292367285,0.017354372186743183,0.11628935622186588
10370,11.0,300.10196,-7041.1402,0.0,0.0,0.10370147757390691,0.0,0.0,0.0,0.5262804706073385,0.5881726136831175,1.025877729371249,-0.022132409775298775,0.0036337059575688563,0.1001448330255255
10371,11.0,299.69952,-7142.5677,0.0,0.0,0.10371148199428126,0.0,0.0,0.0,0.5510267636921075,0.5538019037284925,1.066333563463929,-0.030328072063397674,-0.005988323087101474,0.1081158830977069
10372,11.0,299.56259,-7163.2873,0.0,0.0,0.1037214864146554,0.0,0.0,0.0,0.5302970750637466,0.5905074762860504,1.056655910433819,-0.01106520886280109,0.007178935828330804,0.1131476020342989
10373,11.0,299.60401,-7008.2256,0.0,0.0,0.10373149083502953,0.0,0.0,0.0,0.5193699124078195,0.5661207349992664,1.044834929467179,0.0027912413910740775,0.007405059306772452,0.14574374629378786
10374,11.0,299.72531000000004,-7045.2023,0.0,0.0,0.10374146234612591,0.0,0.0,0.0,0.5156621364493905,0.5620816667881414,1.063821817791039,0.002084501067524238,-0.013408822906847787,0.1284104314706229
10375,11.0,299.67787000000004,-7132.4175,0.0,0.0,0.10375146676650027,0.0,0.0,0.0,0.5387470641401955,0.5913452618662335,1.037984548191099,0.014629952410613883,-0.013708027555376987,0.13863200728691386
10376,11.0,299.88272,-7101.7868,0.0,0.0,0.1037614711868744,0.0,0.0,0.0,0.5520437121549725,0.5565378309860075,1.0501842820451188,0.02166952875861598,-0.006658192962037483,0.10046756534137671
10377,11.0,300.09625,-7004.9253,0.0,0.0,0.10377147560724875,0.0,0.0,0.0,0.5232810273963165,0.5818631661054234,1.0241782049785189,0.027125994031127174,0.004364520191569606,0.1283070799604229
10378,11.0,299.97495,-6932.7208,0.0,0.0,0.10378148002762289,0.0,0.0,0.0,0.5148148364507685,0.5557133595121384,1.036845756403709,0.004875655825714765,-0.006356281213216114,0.10326572844653391
10379,11.0,299.6935,-7020.7442,0.0,0.0,0.10379148444799702,0.0,0.0,0.0,0.5221016144124175,0.5655119642066855,1.046517329933219,0.010078332244353951,-0.008513707612962522,0.12809116649661387
10380,11.0,299.62012000000004,-7184.3001,0.0,0.0,0.10380148886837093,0.0,0.0,0.0,0.5212267337460735,0.5873002053470174,1.075320889200909,-0.006826069353180594,-0.005668247107712434,0.12095053972938889
10381,11.0,300.02822000000003,-7136.4359,0.0,0.0,0.10381146037946776,0.0,0.0,0.0,0.5397368980303845,0.5735607670385404,1.0560006415941492,0.005438670776905015,0.004664929898442735,0.1226369121358209
10382,11.0,300.72278,-7079.0286,0.0,0.0,0.10382146479984189,0.0,0.0,0.0,0.5360534603393575,0.5709978319705985,1.044796628613399,-0.01970794647927288,-0.005117563410239185,0.1060014530540289
10383,11.0,300.81751,-7108.6557,0.0,0.0,0.10383146922021602,0.0,0.0,0.0,0.5559593867689194,0.5667487676762485,1.0381456549569992,-0.010992443320119689,-0.006433611751573045,0.10880014102273788
10384,11.0,301.40603,-7210.7851,0.0,0.0,0.10384147364059015,0.0,0.0,0.0,0.5433480200617744,0.5814358076107464,1.0671147792910292,0.004011589273713036,0.0057514544966493645,0.11265175796536289
10385,11.0,300.81774,-7110.4548,0.0,0.0,0.10385147806096429,0.0,0.0,0.0,0.5236245090477155,0.5815515106396654,1.056224671191259,0.00982512144966399,0.004979214444235205,0.13328505611171088
10386,11.0,300.66516,-6948.4394,0.0,0.0,0.10386148248133864,0.0,0.0,0.0,0.49429555933817354,0.5683336225551615,1.049522933704849,0.01082192447404079,-0.00975491355288501,0.13995011394450088
10387,11.0,300.16679,-6915.2963,0.0,0.0,0.10387148690171277,0.0,0.0,0.0,0.5247703327907995,0.5514589047272564,1.025848142468329,-0.005403071146566604,-0.019308043009305484,0.1194378282575959
10388,11.0,300.03427,-6944.0602,0.0,0.0,0.10388149132208668,0.0,0.0,0.0,0.5206026932744855,0.5652574965765714,1.024960738030749,0.006981571022177413,-0.006460552146556854,0.12728081972913888
10389,11.0,300.02886,-7006.0368,0.0,0.0,0.10389146283318351,0.0,0.0,0.0,0.5273761790004765,0.5646545823695684,1.037629505356059,0.004254652672626526,0.006730911388589233,0.11258070886835089
10390,11.0,300.22219,-7188.6593,0.0,0.0,0.10390146725355764,0.0,0.0,0.0,0.5499189165627715,0.5840219258409765,1.0512320839735292,-0.0012974181170451987,0.0032387692369416367,0.1110326349680679
10391,11.0,299.83302000000003,-7196.616,0.0,0.0,0.10391147167393178,0.0,0.0,0.0,0.5309602675191984,0.5783566013518524,1.078274715892429,-0.007445709684884333,0.0035004596177434667,0.11124064508109689
10392,11.0,300.40448,-6988.9239,0.0,0.0,0.10392147609430591,0.0,0.0,0.0,0.5150297366644775,0.5514089008348215,1.0580197450684188,-0.0027362757142243874,0.0013541985248239886,0.12299479207114089
10393,11.0,300.71599,-7087.7683,0.0,0.0,0.10393148051468004,0.0,0.0,0.0,0.5153695402180135,0.5729701131577475,1.066164958647289,-3.9307519780850165e-05,0.0007569859369286953,0.1215807306290839
10394,11.0,300.0361,-7145.9167,0.0,0.0,0.10394148493505417,0.0,0.0,0.0,0.5565039985651684,0.5588449406687015,1.056831304026129,0.0004954401975786405,-0.014749996202961286,0.11172012516091788
10395,11.0,299.85386,-7018.0168,0.0,0.0,0.1039514893554283,0.0,0.0,0.0,0.5314075059808375,0.5711258865182365,1.030768484953929,0.004445715367132946,-0.01106173848120859,0.11371772746806588
10396,11.0,299.76652,-6845.7613,0.0,0.0,0.10396149377580244,0.0,0.0,0.0,0.5285283254241845,0.5403590437242856,1.012053107126865,0.0014991179111014188,0.00931685189475169,0.11224179697490289
10397,11.0,299.4997,-6967.4492,0.0,0.0,0.10397146528689927,0.0,0.0,0.0,0.5046593346734985,0.5641365987859475,1.0491346562665291,-0.0028114510696186173,0.016307706111695287,0.12395422845832989
10398,11.0,299.63403,-7123.0797,0.0,0.0,0.10398146970727318,0.0,0.0,0.0,0.5246427747357105,0.5880552286590325,1.0525403925026489,0.006544135147305853,0.008531915717259522,0.12121683198816989
10399,11.0,299.70772,-7249.2429,0.0,0.0,0.10399147412764753,0.0,0.0,0.0,0.5461516222934685,0.5837652999881494,1.0736719259881689,0.007671062586624932,-0.0026441241640047376,0.11578869921495488
10400,11.0,300.52287,-7285.9141,0.0,0.0,0.10400147854802166,0.0,0.0,0.0,0.5629498397388235,0.5971000563391875,1.054686050914409,0.006466553424249134,0.007106492904481244,0.11776346286484889
10401,11.0,300.26051,-7041.177,0.0,0.0,0.1040114829683958,0.0,0.0,0.0,0.5291032941934295,0.5729170391175095,1.038321656499369,0.013211205700094486,-0.0028635380016091977,0.11285745786816388
10402,11.0,300.04784,-6933.9353,0.0,0.0,0.10402148738876993,0.0,0.0,0.0,0.5188690527508885,0.5528464899442005,1.0360276582729688,-0.0093397960313411,0.0008720615917832783,0.11618451523401889
10403,11.0,299.88469,-7059.4287,0.0,0.0,0.10403149180914406,0.0,0.0,0.0,0.5146001692845825,0.5613440308478425,1.0699459013954389,-0.01023445118531169,0.00012124802995874889,0.11965469417649888
10404,11.0,299.93644,-7101.6455,0.0,0.0,0.10404146332024089,0.0,0.0,0.0,0.5283556777396455,0.5611580589244884,1.069209167247729,-0.012711222504499988,0.008416923483285672,0.12490273187693987
10405,11.0,300.18102000000005,-6944.0549,0.0,0.0,0.1040514677406148,0.0,0.0,0.0,0.5065962230346546,0.5531966995762635,1.051026394203229,-0.004649535792323456,0.0074296733808516735,0.13378498357854987
10406,11.0,300.24433999999997,-6937.4618,0.0,0.0,0.10406147216098893,0.0,0.0,0.0,0.5196459825300654,0.5748105907718885,1.014358595609399,-0.006252704761493914,-0.004946860355292106,0.12670811050761688
10407,11.0,300.04607000000004,-7090.9829,0.0,0.0,0.10407147658136306,0.0,0.0,0.0,0.5490455557715774,0.5688651836901225,1.037571040825289,0.013421082219807687,-0.004541068281043546,0.1168521051949049
10408,11.0,300.97898,-7192.8361,0.0,0.0,0.10408148100173742,0.0,0.0,0.0,0.5594119452921604,0.5830664411291775,1.043964142331239,0.007516928906588122,0.011953460377464689,0.11493344520304788
10409,11.0,301.19057000000004,-7123.9023,0.0,0.0,0.10409148542211155,0.0,0.0,0.0,0.5314675917117675,0.5814831567879194,1.0525376567273792,0.005342272087566205,0.01987756251951268,0.11977014389289288
10410,11.0,300.95149,-7039.3427,0.0,0.0,0.10410148984248568,0.0,0.0,0.0,0.5164454395716965,0.5616665179571694,1.061672410353909,-0.014015558079977886,0.01031979926773489,0.10045575185846081
10411,11.0,300.09148,-7058.7819,0.0,0.0,0.10411149426285982,0.0,0.0,0.0,0.5149051271671795,0.5772175055894324,1.053570867854349,-0.012510261572416687,0.0004224795941204896,0.12008360294382889
10412,11.0,299.91481,-7223.0753,0.0,0.0,0.10412146577395665,0.0,0.0,0.0,0.5497202283506625,0.5644789962597395,1.0814353469293592,-0.005835299929174265,-0.0028403484558455674,0.10411061690991791
10413,11.0,299.95862999999997,-7242.7009,0.0,0.0,0.10413147019433056,0.0,0.0,0.0,0.5665761301242104,0.5760388120131044,1.0589852710887089,-0.002729923142722437,-0.0071721934595153835,0.12430938275088088
10414,11.0,299.80652000000003,-7017.3041,0.0,0.0,0.10414147461470469,0.0,0.0,0.0,0.5337918253211515,0.5604135734135134,1.038879855979459,-0.00021630238972738378,-0.0061919579861986745,0.10549166666371688
10415,11.0,299.77396,-6957.9633,0.0,0.0,0.10415147903507882,0.0,0.0,0.0,0.5176366467867595,0.5579145338968774,1.039495912040259,-0.004849552071338525,-0.01025487932057779,0.12677203645642587
10416,11.0,300.29506000000003,-7197.5797,0.0,0.0,0.10416148345545295,0.0,0.0,0.0,0.5395792261823235,0.5827829337511975,1.0655223554338689,0.006851591299349415,0.00969023354335159,0.10883410516608989
10417,11.0,300.04408,-7204.3862,0.0,0.0,0.1041714878758273,0.0,0.0,0.0,0.5336308604102655,0.5857138407254555,1.070608769610859,0.004724542441576035,0.007097303334024304,0.1309823034044469
10418,11.0,300.53736000000004,-7017.9924,0.0,0.0,0.10418149229620144,0.0,0.0,0.0,0.5147914810359635,0.5764364721473504,1.0420665275439591,0.00014829795727836886,0.0038323239514459267,0.1164802322757039
10419,11.0,300.4696,-6886.2683,0.0,0.0,0.10419149671657557,0.0,0.0,0.0,0.5207516309066845,0.5598000099479594,1.0127019620934021,-0.0025265553363515974,0.0009844308049582562,0.12153084832666088
10420,11.0,300.31212,-7013.4193,0.0,0.0,0.10420146822767218,0.0,0.0,0.0,0.5287205693656575,0.5730229237529594,1.0301608388689592,-0.0006236500865894715,-0.002337000357993978,0.12428322063329887
10421,11.0,300.47154,-7169.8808,0.0,0.0,0.10421147264804631,0.0,0.0,0.0,0.5392475184970865,0.5801784655616564,1.060038747217679,0.007282158351793072,0.006063889050409254,0.12222852168301589
10422,11.0,301.12112,-7226.956999999999,0.0,0.0,0.10422147706842044,0.0,0.0,0.0,0.5341749250514605,0.5941411026021615,1.0684984736275889,-0.001070956821020209,-0.0024088668438616476,0.13008329725322187
10423,11.0,301.14597000000003,-7089.477,0.0,0.0,0.10423148148879458,0.0,0.0,0.0,0.5083567248184025,0.5862332327267155,1.060434016081689,-0.006294782403696655,0.0007805396853082693,0.1210175459585019
10424,11.0,300.99271,-6889.9335,0.0,0.0,0.10424148590916871,0.0,0.0,0.0,0.5129118615704594,0.5544811156680255,1.0269747752545189,-0.006873346184296453,0.01151144623334129,0.12751204340195887
10425,11.0,300.21839,-7029.5394,0.0,0.0,0.10425149032954306,0.0,0.0,0.0,0.5224781584145795,0.5767431120251135,1.037583199826489,-0.008577798214912773,0.011827318846015488,0.1270534666717009
10426,11.0,300.48966,-7184.7148,0.0,0.0,0.1042614947499172,0.0,0.0,0.0,0.5620293324204765,0.5716753112524605,1.050269293728509,-0.003409296796971397,0.0028011413511761277,0.12427566178755288
10427,11.0,300.29025,-7088.0045,0.0,0.0,0.1042714662610138,0.0,0.0,0.0,0.5272837705913564,0.5799786222444334,1.0473139471618391,-0.008085725564173982,-0.003391364499351617,0.1174782532267009
10428,11.0,299.7924,-7066.3317,0.0,0.0,0.10428147068138793,0.0,0.0,0.0,0.5395149253309774,0.5722993314590464,1.036174174237429,0.012753403092912887,-0.0002172585533167498,0.11704325482626989
10429,11.0,299.53409,-7181.111,0.0,0.0,0.10429147510176184,0.0,0.0,0.0,0.5168516211392835,0.5875397072731544,1.078487093113389,-0.0024188109816680576,-0.010747066569902888,0.1138383650249719
10430,11.0,299.79861,-7204.2447,0.0,0.0,0.1043014795221362,0.0,0.0,0.0,0.5521554939060044,0.5752375439665255,1.0625174609373091,0.013249341394108187,-0.0017326218019464584,0.1068736587401089
10431,11.0,299.72423,-7248.2199,0.0,0.0,0.10431148394251033,0.0,0.0,0.0,0.5411153133339235,0.5837353584476945,1.078427210032479,-0.0001780303122502238,0.0011551169690261689,0.1084451589827039
10432,11.0,299.66337999999996,-7129.3976,0.0,0.0,0.10432148836288468,0.0,0.0,0.0,0.5563045504154844,0.5616443277799795,1.049209940748959,0.004987874287539865,0.008893552479975291,0.10942790012219289
10433,11.0,299.92742999999996,-6979.0454,0.0,0.0,0.10433149278325882,0.0,0.0,0.0,0.5274086030036764,0.5565555628627575,1.037491399367429,-0.00956300246406986,-0.0008796933915364782,0.12140983586721789
10434,11.0,300.0127,-6964.0138,0.0,0.0,0.10434149720363295,0.0,0.0,0.0,0.5225450633186826,0.5635913891721395,1.030749841152089,-0.01954217673641268,-0.014929260410653285,0.12718109565429686
10435,11.0,300.64263,-7132.7949,0.0,0.0,0.10435146871472956,0.0,0.0,0.0,0.5322852440124635,0.5824014552210485,1.0535048039478292,-0.007043795622743504,-0.012484808729904687,0.12065834879805189
10436,11.0,300.48624,-7171.068,0.0,0.0,0.10436147313510347,0.0,0.0,0.0,0.5438595593747595,0.5883998451505434,1.047566246436739,-0.004168135806212976,-0.0057365425962526756,0.13434816824913187
10437,11.0,300.06137,-6985.2356,0.0,0.0,0.10437147755547782,0.0,0.0,0.0,0.5138867702866755,0.5646788294444615,1.0447716013359292,0.012193091999614488,0.01866480448807278,0.11848080340564489
10438,11.0,299.89033,-6990.474,0.0,0.0,0.10438148197585195,0.0,0.0,0.0,0.5111626575253265,0.5847390738642535,1.029027822607139,0.006746960864873193,0.012139097928285688,0.13539086339703787
10439,11.0,299.97384,-7170.0698,0.0,0.0,0.10439148639622631,0.0,0.0,0.0,0.5441786115662475,0.5783792880215914,1.056964242439249,0.018315273733576783,0.010383550937526688,0.10954446441369689
10440,11.0,300.14657,-7217.1027,0.0,0.0,0.10440149081660044,0.0,0.0,0.0,0.5505080809659175,0.5852896131735874,1.058021366268579,-0.00017213699635609882,0.0025525012263622575,0.13448064056720588
10441,11.0,299.8707,-7067.6058,0.0,0.0,0.10441149523697457,0.0,0.0,0.0,0.5246085471473325,0.5841207075932255,1.039646481005119,0.004282220370747246,-0.008107081329906634,0.11663023382050788
10442,11.0,300.11262999999997,-6917.0333,0.0,0.0,0.10442149965734848,0.0,0.0,0.0,0.5063785059856675,0.5459183214579435,1.0503086078323889,-0.0028304604520946975,-0.02007921043516378,0.12466596572607287
10443,11.0,299.60958,-7002.688,0.0,0.0,0.10443147116844531,0.0,0.0,0.0,0.5101484651027335,0.5608133512404685,1.057680508934939,0.0012205026059292287,-0.01225838178305809,0.1033163909515339
10444,11.0,299.43054,-7193.7528,0.0,0.0,0.10444147558881944,0.0,0.0,0.0,0.5433619826481525,0.5750080326863745,1.068351248388059,0.008121752684729582,-0.01057691654686039,0.1058675621858149
10445,11.0,299.885,-7248.7776,0.0,0.0,0.10445148000919358,0.0,0.0,0.0,0.5651566984566235,0.5741955175636855,1.0640951926680189,-0.0017736302626436783,-0.000994244344959277,0.12327810693160189
10446,11.0,300.6126,-7107.3341,0.0,0.0,0.10446148442956771,0.0,0.0,0.0,0.5490671683962105,0.5810813119307605,1.030303605808049,-0.0034545272681852967,0.0014359198811642587,0.1184680161893829
10447,11.0,300.23739,-6985.2941,0.0,0.0,0.10447148884994184,0.0,0.0,0.0,0.5261880723307195,0.5621408304614804,1.035026060549119,-0.0028253979506200674,-0.00018627314234372783,0.12965431755838489
10448,11.0,300.25886,-7137.0231,0.0,0.0,0.1044814932703162,0.0,0.0,0.0,0.5306953532805535,0.5817985410140454,1.056982886241089,0.008040846082794722,0.015476369868398785,0.1094232797017369
10449,11.0,300.34365,-7234.3807,0.0,0.0,0.10449149769069033,0.0,0.0,0.0,0.5326666110851015,0.5830354052786144,1.083369134745209,0.004982864373745425,0.015677192998468484,0.1111245975471439
10450,11.0,300.60787999999997,-6990.4473,0.0,0.0,0.10450146920178671,0.0,0.0,0.0,0.5133050532717645,0.5637837648361255,1.047832629888029,-0.0001152185636486869,-0.003068427709630237,0.1114433660286039
10451,11.0,300.40691,-6888.3795,0.0,0.0,0.10451147362216107,0.0,0.0,0.0,0.5039898701999275,0.5576761465458505,1.032229388948109,-0.009166215447435032,-0.00974621551005158,0.11552196112612989
10452,11.0,299.79542999999995,-7120.4151,0.0,0.0,0.1045214780425352,0.0,0.0,0.0,0.5549316370599884,0.5665386196055084,1.042958086306949,0.004561246548834986,-0.015296206907868088,0.12670947839525187
10453,11.0,299.76651,-7337.9646,0.0,0.0,0.10453148246290933,0.0,0.0,0.0,0.5734435238694694,0.5880076970968414,1.069106828987629,0.0012106391228307789,-0.006517597823211824,0.11960341358893789
10454,11.0,300.24773,-7178.9833,0.0,0.0,0.10454148688328346,0.0,0.0,0.0,0.5480166002950275,0.5843956530078604,1.049819410684109,-0.0017617893206500683,-0.011956639956278488,0.13886931046033388
10455,11.0,300.4722,-6949.5837,0.0,0.0,0.1045514913036576,0.0,0.0,0.0,0.5075032034641664,0.5510604441254315,1.053936245840409,-0.0006799436580927143,-0.01021982593336829,0.10078889633233959
10456,11.0,299.78686,-6972.201,0.0,0.0,0.10456149572403173,0.0,0.0,0.0,0.5175644831146375,0.5751844395287844,1.026626115895109,0.010769420893609091,0.007388074499321181,0.12775698648113287
10457,11.0,300.26955,-7096.5706,0.0,0.0,0.10457150014440586,0.0,0.0,0.0,0.5303482948563014,0.5637258575929105,1.063106057920399,0.0025316930209836478,0.00880724991595789,0.10807940609410689
10458,11.0,300.01988,-7210.6074,0.0,0.0,0.10458147165550269,0.0,0.0,0.0,0.5622478702020445,0.5866520089930455,1.042944711405629,0.0016666556740611083,-0.002181919086463648,0.13704595677288287
10459,11.0,299.58155,-7117.9062,0.0,0.0,0.10459147607587682,0.0,0.0,0.0,0.5304067897845746,0.5784852841145524,1.054773697048059,-0.00947609377384264,0.004756700162649756,0.11496728775638788
10460,11.0,299.98309,-6941.2882,0.0,0.0,0.10460148049625073,0.0,0.0,0.0,0.5168495237115764,0.5603469319544364,1.0327818129026292,0.0005420502493336945,0.01338572080456779,0.13444107315080087
10461,11.0,300.18936,-7086.9802,0.0,0.0,0.10461148491662509,0.0,0.0,0.0,0.5180312570382045,0.5666575650347474,1.069576166433949,-0.0037540753071733865,0.008706481585562831,0.1070559930956039
10462,11.0,299.98312000000004,-7209.1057,0.0,0.0,0.10462148933699922,0.0,0.0,0.0,0.5462504547082224,0.5732679782896445,1.071869658035299,-0.0036393225041981662,-0.005287491024884735,0.11071431231665188
10463,11.0,300.52404,-7011.7403,0.0,0.0,0.10463149375737335,0.0,0.0,0.0,0.5221729573519585,0.5593426693828235,1.049878381839929,-0.00898568143471771,-0.0047128555135976255,0.11122605427965689
10464,11.0,300.49425,-6908.7701,0.0,0.0,0.10464149817774748,0.0,0.0,0.0,0.5317330429729654,0.5549046136798215,1.013455992420319,-0.0018537731779781684,-0.001978311646444158,0.1300463136245719
10465,11.0,300.29528999999997,-7135.2349,0.0,0.0,0.10465150259812162,0.0,0.0,0.0,0.5503261417779615,0.5723861061976104,1.0462209542789689,0.014101461423455888,-0.0024381208941237974,0.11828473951129488
10466,11.0,300.72137000000004,-7153.9265,0.0,0.0,0.10466147410921844,0.0,0.0,0.0,0.5498578074492405,0.5769102577616094,1.0478469167144389,-0.0015383304873213984,-0.007640074865441683,0.12725009798610687
10467,11.0,299.82114,-7178.1136,0.0,0.0,0.10467147852959235,0.0,0.0,0.0,0.5341025485968175,0.5808304514710024,1.0670343272330889,0.006664303772065574,0.0034886566726286066,0.1104517792157419
10468,11.0,300.02131,-7061.1697,0.0,0.0,0.10468148294996649,0.0,0.0,0.0,0.5226543828719714,0.5558964132752044,1.067868434715409,-0.004096827722475416,0.014514047744924987,0.1139564998541309
10469,11.0,300.4781,-6995.9003,0.0,0.0,0.10469148737034062,0.0,0.0,0.0,0.5128646643808016,0.5689633980223154,1.0447509310338892,0.00031904318369461066,0.016724885495867682,0.11913208003992087
10470,11.0,299.8845,-7032.8588,0.0,0.0,0.10470149179071497,0.0,0.0,0.0,0.5312171770820535,0.5654641995969715,1.041132108301739,-0.00920332603632256,-0.007616353667350582,0.12433608189101587
10471,11.0,299.87314,-7099.9762,0.0,0.0,0.1047114962110891,0.0,0.0,0.0,0.5402067623667565,0.5752269251054775,1.042781780789549,-0.008776933270315873,-0.003224511389484497,0.12810508855298788
10472,11.0,300.19999,-7060.3714,0.0,0.0,0.10472150063146324,0.0,0.0,0.0,0.5314172433142985,0.5756305431503115,1.0391288115290291,-0.006391463688488353,0.002257647980387508,0.12497678019424788
10473,11.0,300.12027,-6961.4561,0.0,0.0,0.10473150505183737,0.0,0.0,0.0,0.5156557631062615,0.5544956659394615,1.045957407927959,-0.007061641490129753,0.002672463148101578,0.11893392885036488
10474,11.0,300.28432999999995,-7061.5322,0.0,0.0,0.1047414765629342,0.0,0.0,0.0,0.5198084875811034,0.5831652836764324,1.043555701215929,-0.002153101645669588,-0.007973659393838912,0.1194676482080389
10475,11.0,300.39375,-7237.8894,0.0,0.0,0.10475148098330811,0.0,0.0,0.0,0.5308796330762405,0.5868618834862585,1.0823961106741788,0.0013897388800315485,0.0007872625490592643,0.1111571228753539
10476,11.0,300.37846,-7251.6739,0.0,0.0,0.10476148540368224,0.0,0.0,0.0,0.5591478213885935,0.5848789733055604,1.060300976343559,0.004227199066467065,-0.0005394072776403535,0.1233465519758569
10477,11.0,301.06105,-7118.7684,0.0,0.0,0.10477148982405637,0.0,0.0,0.0,0.5309846159191015,0.5924070567785245,1.040536114592919,0.002982964724645697,0.004335363615967076,0.12985500187319088
10478,11.0,301.01645,-6988.7303,0.0,0.0,0.1047814942444305,0.0,0.0,0.0,0.5382354437672024,0.5501945813849775,1.035969497717229,0.0017722189065793885,-0.004739306914083175,0.12793715248141388
10479,11.0,300.48318,-6917.2933,0.0,0.0,0.10479149866480486,0.0,0.0,0.0,0.4976285948796185,0.5744564497294374,1.030599373512239,0.007339089328536723,-0.005716053767305584,0.12699677532860587
10480,11.0,300.26655,-6993.9255,0.0,0.0,0.10480150308517899,0.0,0.0,0.0,0.5160121130339306,0.5682183349587834,1.041748265687549,0.0026269312349829275,0.0015678042102052286,0.1127261811852079
10481,11.0,300.16571,-7124.5159,0.0,0.0,0.1048114745962756,0.0,0.0,0.0,0.5248834013694584,0.5720257843295494,1.068765769003969,-0.011855377767784689,0.009263899647175711,0.11307296603193288
10482,11.0,300.71597,-7064.4807,0.0,0.0,0.10482147901664973,0.0,0.0,0.0,0.5390638263864576,0.5811925667917405,1.027169319273719,-0.015054534600016885,-0.0063280475058046645,0.11898547288295189
10483,11.0,299.37495,-7107.1356,0.0,0.0,0.10483148343702386,0.0,0.0,0.0,0.5300194141388435,0.5753309149632404,1.055041397724479,-0.014449145023019588,-0.002844544324509667,0.12400952151628689
10484,11.0,299.89912999999996,-7325.2988,0.0,0.0,0.104841487857398,0.0,0.0,0.0,0.5746546313164964,0.5892870672031054,1.0627662138368592,0.00935258345025312,0.007875415373417982,0.11270598711071489
10485,11.0,300.1454,-7308.0121,0.0,0.0,0.10485149227777213,0.0,0.0,0.0,0.5558659752422004,0.5921269539208804,1.0734602580422792,0.017620678631025587,0.004439334525953206,0.12273151929765787
10486,11.0,300.0312,-7123.7734,0.0,0.0,0.10486149669814626,0.0,0.0,0.0,0.5500879266794515,0.5542310658083475,1.0611302202253992,0.01134140665455969,-0.005878581008520775,0.10748657372559889
10487,11.0,300.04357999999996,-7064.1999,0.0,0.0,0.10487150111852062,0.0,0.0,0.0,0.5138723010752475,0.5796361335781324,1.0538319824051188,-0.00016089004183611084,-0.01286814252098679,0.11865194134753489
10488,11.0,300.45973,-6983.6407,0.0,0.0,0.10488150553889475,0.0,0.0,0.0,0.5322176399657915,0.5575362977670485,1.0330984535588792,0.0004391168770524616,-0.003047858023325167,0.1072407592513389
10489,11.0,299.77788,-6999.4819,0.0,0.0,0.10489147704999136,0.0,0.0,0.0,0.5168359157627335,0.5609886435077684,1.049843222061459,-0.008338620832782802,0.008642131591586982,0.12801537538913388
10490,11.0,299.62354,-7073.1681,0.0,0.0,0.10490148147036549,0.0,0.0,0.0,0.5377458007888785,0.5832164426739814,1.029104221664679,-0.013324650194540589,0.008567199213566733,0.13672703630390787
10491,11.0,299.26845,-7027.9718,0.0,0.0,0.1049114858907394,0.0,0.0,0.0,0.5180940684119035,0.5717319823305534,1.046501928531699,-0.009206441881705071,0.008375607703833122,0.12970146408553787
10492,11.0,298.89198999999996,-6990.015,0.0,0.0,0.10492149031111375,0.0,0.0,0.0,0.5198538507880806,0.5800704632334974,1.0248656951713688,-0.006093572718713805,0.006554461179074953,0.13526782443739485
10493,11.0,299.82588,-7106.4239,0.0,0.0,0.10493149473148788,0.0,0.0,0.0,0.5299426097812635,0.5750578744587934,1.055174944087659,0.007835179414597002,0.0036772488607412063,0.1165994411499689
10494,11.0,299.75748,-7223.2957,0.0,0.0,0.10494149915186224,0.0,0.0,0.0,0.5450973862269235,0.5735565924481284,1.077047568696319,-0.008559984163579662,0.0024296956182172876,0.1130618000158309
10495,11.0,299.5342,-7180.4191,0.0,0.0,0.10495150357223637,0.0,0.0,0.0,0.5283907159281035,0.5958601928543225,1.0584172430826488,0.0009691063293858481,-0.013075428160194288,0.11112904571508289
10496,11.0,299.66906,-6987.3844,0.0,0.0,0.1049615079926105,0.0,0.0,0.0,0.5268028415638925,0.5522537589007025,1.044933822676939,-0.0023866684593458376,-0.004920886499578685,0.1170445112563939
10497,11.0,300.5939,-7014.0898,0.0,0.0,0.10497147950370711,0.0,0.0,0.0,0.5230157078576315,0.5602043170028614,1.048888132517199,0.004116830697999556,0.007841399250335853,0.11692924392501788
10498,11.0,300.35082,-7060.6269,0.0,0.0,0.10498148392408102,0.0,0.0,0.0,0.5445065398286115,0.5614089497817495,1.040338834798449,0.006997627084587024,0.0015152165300152288,0.12257983575768788
10499,11.0,300.00405,-7115.2431,0.0,0.0,0.10499148834445537,0.0,0.0,0.0,0.5301956993912416,0.5657842143760544,1.066876361542499,-0.004020911985233116,-0.0036445883649678665,0.12133275793211089
10500,11.0,299.28425,-7140.3157,0.0,0.0,0.10500149276482951,0.0,0.0,0.0,0.5312271170655345,0.5866135054892455,1.0526370565621892,0.002010668369837518,0.0033678584142567466,0.11069614474235888
10501,11.0,300.06986,-7024.8572,0.0,0.0,0.10501149718520386,0.0,0.0,0.0,0.5128530221371524,0.5579047965634165,1.064623298620139,0.007760651120716632,0.007218245169935333,0.11987999033623388
10502,11.0,300.39511,-7095.6883,0.0,0.0,0.105021501605578,0.0,0.0,0.0,0.5367958889526295,0.5686590683547805,1.051457126820739,-0.0026949191007928073,0.011771901158296188,0.11278667221617789
10503,11.0,299.69248,-7243.3905,0.0,0.0,0.10503150602595213,0.0,0.0,0.0,0.5340676623958744,0.6017470340803084,1.065995137930529,-0.00018008732141073483,-0.005312853789462845,0.12932374471325989
10504,11.0,298.91205,-7157.2708,0.0,0.0,0.10504147753704851,0.0,0.0,0.0,0.5462053346812694,0.5838455797935724,1.045580681540779,-0.007068962627402293,-0.005754437910243805,0.1057866237678269
10505,11.0,299.73255,-6931.5585,0.0,0.0,0.10505148195742264,0.0,0.0,0.0,0.5061013212883115,0.5675796226257475,1.033339708407689,0.002914807443419097,-0.01157970382632779,0.12216927694966888
10506,11.0,299.42951,-6928.5241,0.0,0.0,0.105061486377797,0.0,0.0,0.0,0.5168712984562255,0.5619403893266984,1.0272866536352991,-0.01146590368109659,-0.007516940254989243,0.1085684715198739
10507,11.0,299.70091,-6986.6108,0.0,0.0,0.10507149079817113,0.0,0.0,0.0,0.5185852616628804,0.5541209052574755,1.0510490910054688,0.0005869211991471123,-0.005696909115941155,0.1178943038502619
10508,11.0,299.57885,-7102.722,0.0,0.0,0.10508149521854526,0.0,0.0,0.0,0.5275922241867985,0.5827700249449235,1.048687914297439,0.000998486458357941,0.01183254519003129,0.1097396265154579
10509,11.0,300.32599999999996,-7141.0878,0.0,0.0,0.1050914996389194,0.0,0.0,0.0,0.5312746384952245,0.5782067517945635,1.061231038610349,0.024235947380401773,0.017189183036190284,0.13524007151715586
10510,11.0,300.11977,-7135.7467,0.0,0.0,0.10510150405929375,0.0,0.0,0.0,0.5540551858559895,0.5715977266923035,1.043435935054109,0.006641015941042243,0.008471458022217812,0.12103360597258689
10511,11.0,300.71892,-7000.0851,0.0,0.0,0.10511150847966766,0.0,0.0,0.0,0.5222615660732035,0.5788705623325765,1.026718929604269,0.0037925006893906764,-0.0019194843721383578,0.14002547948693886
10512,11.0,300.02862000000005,-7080.889,0.0,0.0,0.10512147999076427,0.0,0.0,0.0,0.5369190393697835,0.5721096510403264,1.043384765924059,-0.0055930007234861944,0.0062955486234222745,0.1063169183401629
10513,11.0,299.79803,-7099.2915,0.0,0.0,0.10513148441113862,0.0,0.0,0.0,0.5211432926003385,0.5781614696475944,1.058702574310809,-0.005571466929710975,-0.008653741005932742,0.1196317541942349
10514,11.0,299.41562000000005,-7000.710999999999,0.0,0.0,0.10514148883151275,0.0,0.0,0.0,0.5136890547946625,0.5641279051000895,1.0502244067490791,-0.010841892593761488,-0.005269499046834065,0.1041513495639379
10515,11.0,299.81276,-6954.0919,0.0,0.0,0.10515149325188689,0.0,0.0,0.0,0.5038861032571865,0.5641161412664284,1.045868039269139,-0.013866914290307885,-0.012282870011474888,0.13103163855181588
10516,11.0,299.91603,-7038.5682,0.0,0.0,0.10516149767226102,0.0,0.0,0.0,0.5400142651127584,0.5574687646478835,1.042065919593899,0.009297286845920771,-0.003283423168848637,0.1079026648791639
10517,11.0,300.0843,-7175.8755,0.0,0.0,0.10517150209263515,0.0,0.0,0.0,0.5560796696882905,0.5755263607750295,1.049680899395439,0.0012847796458978788,0.0015610058086592785,0.13756814534441889
10518,11.0,300.93691,-7214.7035,0.0,0.0,0.10518150651300928,0.0,0.0,0.0,0.5680010232098365,0.5763457356008955,1.048742933777869,0.007658334341518752,0.004788314275044826,0.1193604666124609
10519,11.0,301.06781,-7139.576,0.0,0.0,0.10519151093338341,0.0,0.0,0.0,0.5396532643671305,0.5763862250748915,1.054213369742759,0.004689879459630066,0.0005772635983364814,0.12331675229041589
10520,11.0,300.66139,-7058.0831,0.0,0.0,0.10520148244448024,0.0,0.0,0.0,0.5151990304911855,0.5631193463480525,1.067162604695749,0.0016095770667778886,0.018691437766951282,0.11691100542321788
10521,11.0,301.02079,-6971.7751,0.0,0.0,0.10521148686485438,0.0,0.0,0.0,0.5023442203150146,0.5814320383203745,1.0354692561428591,0.004187843723307996,0.0013219515364164588,0.12566902253006687
10522,11.0,300.28361,-7076.6689,0.0,0.0,0.10522149128522829,0.0,0.0,0.0,0.5365314509415314,0.5620216621172195,1.052577578781319,-0.003184229125133947,-0.004083802189789896,0.11835549476577789
10523,11.0,299.71995,-7136.1752,0.0,0.0,0.10523149570560264,0.0,0.0,0.0,0.5442432265251245,0.5719696908040134,1.0530061835736189,-0.005554673119903555,-0.01212361951975809,0.12195522786604387
10524,11.0,299.75293999999997,-6982.2205,0.0,0.0,0.10524150012597677,0.0,0.0,0.0,0.5271502242281765,0.5572352814273405,1.038035210696099,0.0011806365847197588,-0.0060977590628269645,0.11708283237517587
10525,11.0,300.41222,-7045.5445,0.0,0.0,0.1052515045463509,0.0,0.0,0.0,0.5211959714730374,0.5654615955442145,1.055012013471579,-0.0019119862200733483,-0.0018140305706308784,0.12494819640892689
10526,11.0,300.17298,-7262.4284,0.0,0.0,0.10526150896672504,0.0,0.0,0.0,0.5452093604954744,0.5789530307582155,1.083434489376659,0.005457252162538855,-0.002800469971659867,0.1178544425913279
10527,11.0,300.03769,-7262.6741,0.0,0.0,0.10527148047782187,0.0,0.0,0.0,0.5446074291410684,0.5855179490836224,1.077546189070529,0.006301607757695264,-0.012295108046182687,0.12640496634269888
10528,11.0,299.77248,-7167.6473,0.0,0.0,0.105281484898196,0.0,0.0,0.0,0.5477566205843695,0.5775695390716754,1.0534596129933689,0.010601230496259991,-0.002012133124182078,0.11544592683862588
10529,11.0,299.89994,-7051.4637,0.0,0.0,0.10529148931856991,0.0,0.0,0.0,0.5268742959609445,0.5760102991552905,1.040584243972669,0.009402426337247232,-0.005531078375424934,0.12582771776072887
10530,11.0,299.26249,-7130.3022,0.0,0.0,0.10530149373894404,0.0,0.0,0.0,0.5509226522443325,0.5678123459087155,1.048698857398519,0.002325133780772838,-0.002165641426257168,0.1061770391638579
10531,11.0,299.4932,-7214.504,0.0,0.0,0.10531149815931817,0.0,0.0,0.0,0.5368251718805195,0.5808377063417185,1.075366181480379,-0.002298441936038558,-0.004879204632865005,0.12722061240819688
10532,11.0,299.65026,-7213.4085,0.0,0.0,0.10532150257969253,0.0,0.0,0.0,0.5471685200938284,0.5725054569268895,1.073022128699039,0.0014234437326829585,0.005272206957726315,0.10383102067732392
10533,11.0,300.10255,-7134.3826,0.0,0.0,0.10533150700006666,0.0,0.0,0.0,0.5225512542767935,0.5845069180013415,1.0616159723233392,-0.005502301464634875,-0.0003709998623848357,0.12409054099428289
10534,11.0,300.2418,-7054.5119,0.0,0.0,0.10534151142044079,0.0,0.0,0.0,0.5335356858283725,0.5674727348726984,1.043387096399289,0.007014392928691684,-0.009596784323728872,0.1172827668849079
10535,11.0,300.41125,-7157.9712,0.0,0.0,0.1053514829315374,0.0,0.0,0.0,0.5411137630612705,0.5741113975403835,1.060619339524979,-0.007649608636957593,-0.009568540382491412,0.12853116022003788
10536,11.0,300.02492,-7249.7401,0.0,0.0,0.10536148735191153,0.0,0.0,0.0,0.5650817990092315,0.5796774235197074,1.058980711463259,0.0032545074427948765,-0.00017182750924555484,0.11889680336670089
10537,11.0,300.33689,-7082.8195,0.0,0.0,0.10537149177228566,0.0,0.0,0.0,0.5187822678798235,0.5827647053818985,1.051453276470359,-0.00022804985939926882,0.001871961523898218,0.14272095780046187
10538,11.0,300.06743,-7025.1767,0.0,0.0,0.1053814961926598,0.0,0.0,0.0,0.5245031387394296,0.5623656909236725,1.0486094887396988,-0.015030917766686087,-0.005436184058509595,0.12736324762477388
10539,11.0,299.23337999999995,-7089.5882,0.0,0.0,0.10539150061303393,0.0,0.0,0.0,0.5305010119113734,0.5748173795475585,1.049739363926209,0.005692361852142374,-0.0013256989405862987,0.12219628006483389
10540,11.0,299.71328,-7050.1615,0.0,0.0,0.10540150503340806,0.0,0.0,0.0,0.5302028225394445,0.5672903093246945,1.045579972265709,0.001068465137699299,0.0024822580684797976,0.1117506239889279
10541,11.0,299.83411,-7029.4384,0.0,0.0,0.10541150945378241,0.0,0.0,0.0,0.5161093749110295,0.5693086224638865,1.051355700485729,0.009974411388922761,0.008189127736878982,0.12593011681583488
10542,11.0,299.6324,-7150.3009999999995,0.0,0.0,0.10542151387415655,0.0,0.0,0.0,0.5425973131951856,0.5849295344855504,1.045986082905789,0.005577533562034704,-0.01078067100946939,0.1133959698988109
10543,11.0,300.1809,-7069.0437,0.0,0.0,0.10543148538525315,0.0,0.0,0.0,0.5199629980888525,0.5670690864303615,1.061780726789599,0.0025844192124623174,0.008954487517139112,0.13357613246793787
10544,11.0,300.94637,-7034.7631,0.0,0.0,0.10544148980562729,0.0,0.0,0.0,0.5259717535668705,0.5647892838378624,1.047631297093159,-0.002832902790135737,0.003821640647691566,0.1207214540142799
10545,11.0,300.03186,-7069.4733,0.0,0.0,0.10545149422600142,0.0,0.0,0.0,0.5374045077576954,0.5649889650350695,1.046549855261429,-0.008289484890383461,0.002987035355597437,0.13345755180873486
10546,11.0,300.80663,-7056.5507,0.0,0.0,0.10546149864637555,0.0,0.0,0.0,0.5379056105946505,0.5632937165577615,1.043815903841609,-0.020329809476395982,-0.012693050877206588,0.1014873326660199
10547,11.0,300.31032000000005,-6992.4286,0.0,0.0,0.10547150306674968,0.0,0.0,0.0,0.5257489094723775,0.5653984295329805,1.034376364584999,-0.014254659772325385,-0.0030402027161696476,0.1145189752496429
10548,11.0,299.78499,-7152.6848,0.0,0.0,0.10548150748712382,0.0,0.0,0.0,0.5513243552464775,0.5568912931508915,1.066021989058179,-0.005730678107323895,0.009220816860873771,0.09378594188270181
10549,11.0,299.4052,-7196.8926,0.0,0.0,0.10549151190749817,0.0,0.0,0.0,0.5347119476044605,0.5798637399480954,1.0730999463067188,-0.007715804063340572,0.008046002917853663,0.12619073487405588
10550,11.0,299.72244,-7111.1809,0.0,0.0,0.10550148341859478,0.0,0.0,0.0,0.5228896595451915,0.5887076907959254,1.050024087204309,0.0041837062178496556,-0.010922518930718689,0.1182011159805419
10551,11.0,299.54913999999997,-7255.4038,0.0,0.0,0.10551148783896869,0.0,0.0,0.0,0.5467408069616164,0.5875735396939935,1.071147210713999,0.01003405969978459,0.0047594268186688556,0.12170858252670189
10552,11.0,300.5779,-7223.4145,0.0,0.0,0.10552149225934282,0.0,0.0,0.0,0.5506909624764665,0.5803574460593205,1.064689261201649,0.02302264928665858,-0.0034977988229808665,0.11697818390484788
10553,11.0,300.36533,-7051.4379,0.0,0.0,0.10553149667971695,0.0,0.0,0.0,0.5145399113011355,0.5792138615989575,1.049707243898039,0.006967546424893293,-0.00970301103241263,0.12459754094681988
10554,11.0,300.1685,-7009.9101,0.0,0.0,0.1055415011000913,0.0,0.0,0.0,0.5182393076812375,0.5602456677394425,1.052352637259119,-0.009541505147298242,-0.019729544918404483,0.12088535735045587
10555,11.0,300.01785,-7000.3313,0.0,0.0,0.10555150552046544,0.0,0.0,0.0,0.5027185149019545,0.5753391628190544,1.049868249338929,-0.006418518580733464,0.0037014351406282064,0.11912092415631989
10556,11.0,299.87234,-6925.8465,0.0,0.0,0.10556150994083979,0.0,0.0,0.0,0.5236802175382135,0.5536154353125895,1.027988734629589,-0.01112676380637609,0.013592034736929385,0.13665348447914888
10557,11.0,300.15944,-6944.6581,0.0,0.0,0.10557151436121393,0.0,0.0,0.0,0.5213159402848775,0.5610560347719193,1.0286307298929491,-0.0055776882853249745,0.00982754838630351,0.1232862433299049
10558,11.0,299.87818,-7132.7261,0.0,0.0,0.10558148587231053,0.0,0.0,0.0,0.5406075534438115,0.5962474773075445,1.031315538682919,-0.009629040836687341,-0.006804317609308863,0.13934856762513287
10559,11.0,299.6262,-7230.3003,0.0,0.0,0.10559149029268466,0.0,0.0,0.0,0.5447525164228875,0.5821020499489994,1.0709761740971189,-0.005828913920419014,0.009529643129702552,0.1043917431501629
10560,11.0,300.06859,-7150.5475,0.0,0.0,0.10560149471305857,0.0,0.0,0.0,0.5418805806044494,0.5855810441673495,1.046126215394619,0.017979998394737684,0.006258923989282704,0.12537413635346387
10561,11.0,299.7781,-7145.2942,0.0,0.0,0.10561149913343293,0.0,0.0,0.0,0.5211422185552325,0.5763976748010214,1.0744511153150689,0.0038159826591331663,0.004556581241399555,0.1066877982742659
10562,11.0,299.7145,-7085.7495,0.0,0.0,0.10562150355380706,0.0,0.0,0.0,0.5387236985928896,0.5664912096333296,1.048676059271269,0.012401287537411789,-0.015254616031013383,0.1179846654941799
10563,11.0,300.21463,-7025.7009,0.0,0.0,0.10563150797418142,0.0,0.0,0.0,0.5264618626402404,0.5671797738712855,1.041996005336999,-0.007059996579917413,-0.01079258784389549,0.1090275548751819
10564,11.0,300.15609,-7073.5394,0.0,0.0,0.10564151239455555,0.0,0.0,0.0,0.5484947530172175,0.5545896347537355,1.047094983815229,0.011880179090482388,-0.006573842525662744,0.1167460179094349
10565,11.0,300.0949,-7055.2754,0.0,0.0,0.10565151681492968,0.0,0.0,0.0,0.5336669726438296,0.5520538041259684,1.058906744205959,-0.003694233566867466,-0.01182742827702629,0.1080767007163399
10566,11.0,300.64699,-6971.0866,0.0,0.0,0.10566148832602607,0.0,0.0,0.0,0.5135500976759485,0.5693195959624694,1.036166574861679,0.007693907424704543,-0.014161652532396287,0.13160550287845188
10567,11.0,300.24753,-7164.8352,0.0,0.0,0.1056714927464002,0.0,0.0,0.0,0.5191207440757285,0.5857152187455914,1.0730950827062389,-0.011081887972697189,0.002272436061621978,0.12080046725707788
10568,11.0,300.15169,-7271.141,0.0,0.0,0.10568149716677455,0.0,0.0,0.0,0.5567486680668154,0.5939624463445294,1.059534148667879,0.0039041648020860663,0.0027414584884858876,0.13075979368248689
10569,11.0,300.35400000000004,-7151.4345,0.0,0.0,0.10569150158714868,0.0,0.0,0.0,0.5396755254718274,0.5910045159901045,1.043177454953599,-0.016368156612661285,0.02326282806386238,0.12495199609680188
10570,11.0,299.77527000000003,-7046.6759,0.0,0.0,0.10570150600752282,0.0,0.0,0.0,0.5329790974159414,0.5794610439608524,1.029573356460979,-0.007417838011733613,0.0036039938169364965,0.13105012023363988
10571,11.0,300.08612999999997,-7122.3026,0.0,0.0,0.10571151042789695,0.0,0.0,0.0,0.5314243461974995,0.5826470873102905,1.0509307433937891,-0.0033326419951061562,0.014125420735320486,0.10531167291595289
10572,11.0,300.14359,-7107.1147,0.0,0.0,0.1057215148482713,0.0,0.0,0.0,0.5203112116182185,0.5755794956102734,1.064494717182449,-0.0015846671236694687,0.0095596763692916,0.12806927016195288
10573,11.0,299.94597000000005,-7057.7612,0.0,0.0,0.10573151926864521,0.0,0.0,0.0,0.5125074329255456,0.5622131663861194,1.070662573191169,0.017574052914423984,-0.006262591650669675,0.12419858385244588
10574,11.0,299.29823999999996,-7125.6504,0.0,0.0,0.10574149077974182,0.0,0.0,0.0,0.5343012672064295,0.5859693824006754,1.045749185032409,-0.01057705941512449,-0.01955607852778468,0.13038295583779588
10575,11.0,299.28413,-7075.1825,0.0,0.0,0.10575149520011617,0.0,0.0,0.0,0.5401255503712415,0.5642329183404534,1.046320354113779,-0.001267445165837099,-0.01089494636899749,0.12078419446047188
10576,11.0,299.72258999999997,-7101.5564,0.0,0.0,0.1057614996204903,0.0,0.0,0.0,0.5438623559450355,0.5819173547207714,1.032916068540879,0.004980081381020765,-0.001821639876231858,0.1337745167050169
10577,11.0,300.27816,-7157.283,0.0,0.0,0.10577150404086444,0.0,0.0,0.0,0.5534228063360784,0.5749592852240635,1.047253253480849,-0.013038001741250587,0.0060000594616847645,0.11688192514534788
10578,11.0,300.01705,-6995.7112,0.0,0.0,0.10578150846123857,0.0,0.0,0.0,0.5117451750078165,0.5554271771538944,1.0593491291996189,0.005578795463709245,-0.002280125312655848,0.1174165361631099
10579,11.0,300.05476,-6905.9169999999995,0.0,0.0,0.1057915128816127,0.0,0.0,0.0,0.5140808279458275,0.5533312693220445,1.031814260382139,-0.006495072462888744,0.005477691747531085,0.1142773353657949
10580,11.0,299.5835,-7103.5819,0.0,0.0,0.10580151730198684,0.0,0.0,0.0,0.5324653086877346,0.5584788534075714,1.068367359064649,0.001838272275298348,0.008193978773057742,0.10452378990319491
10581,11.0,299.70306,-7155.4683,0.0,0.0,0.10581148881308344,0.0,0.0,0.0,0.5514369374650885,0.5673249928756176,1.0563217405508392,-0.006703136582148074,0.0015382259199110784,0.1127288460329709
10582,11.0,300.16486000000003,-7090.9739,0.0,0.0,0.1058214932334578,0.0,0.0,0.0,0.5365427486801465,0.5716071195207304,1.0473291459133391,-0.02026104525835948,0.007155521239719962,0.11676912001171488
10583,11.0,300.1074,-7089.7951,0.0,0.0,0.10583149765383171,0.0,0.0,0.0,0.5452500526194904,0.5573247007486655,1.052545965378199,-0.006784874758440003,-0.0001417626157233809,0.11374359574311889
10584,11.0,299.59716000000003,-7094.3039,0.0,0.0,0.10584150207420584,0.0,0.0,0.0,0.5137970267253185,0.5806307804062965,1.062063423567499,0.0013183419342602189,0.009614163893419101,0.12810918208339186
10585,11.0,299.96382,-6983.4827,0.0,0.0,0.1058515064945802,0.0,0.0,0.0,0.5115346722995415,0.5686660699129714,1.042603651421969,0.0061952015010937845,0.003772040738071437,0.13104510464564487
10586,11.0,299.76141,-7009.9782,0.0,0.0,0.10586151091495433,0.0,0.0,0.0,0.5135605949469846,0.5727259198836475,1.044571788416209,0.0016747568112606287,-0.025492924659455775,0.13471584631291886
10587,11.0,299.95692,-7120.5223,0.0,0.0,0.10587151533532846,0.0,0.0,0.0,0.5444393309494785,0.5855393590582354,1.034482249220449,0.0054554264885086756,-0.016113935202321586,0.11955820236947588
10588,11.0,299.50034,-7089.8769999999995,0.0,0.0,0.10588151975570259,0.0,0.0,0.0,0.5419622080325055,0.5730795644335495,1.040103760775249,0.01085732439278449,0.003995713873796256,0.12290901031767487
10589,11.0,299.86829,-7072.9014,0.0,0.0,0.10589149126679942,0.0,0.0,0.0,0.5299770400196615,0.5813404607763365,1.038667884058539,0.012106079147276988,0.009895020507812491,0.13071304232287287
10590,11.0,299.60592,-7198.3246,0.0,0.0,0.10590149568717355,0.0,0.0,0.0,0.5242986344717464,0.5856402078406885,1.0781720736572988,-0.003062974397592037,0.016802886501815783,0.12441208578101688
10591,11.0,299.92935,-7145.0897,0.0,0.0,0.10591150010754746,0.0,0.0,0.0,0.5286093246371785,0.5650965417981865,1.078223040137329,-0.01122712318903079,-0.0013177105781229089,0.1169674029237839
10592,11.0,300.10427999999996,-7068.1093,0.0,0.0,0.1059215045279216,0.0,0.0,0.0,0.5244666820008315,0.5908063344030455,1.033255709974399,-0.009112359887394901,0.016364041804005185,0.12538506932204288
10593,11.0,300.56655,-7118.3667,0.0,0.0,0.10593150894829573,0.0,0.0,0.0,0.5356437121314185,0.5764310715243175,1.0517310083227691,-0.003409054022247437,-0.012536222053228789,0.11786329839720189
10594,11.0,300.53055,-7101.0861,0.0,0.0,0.10594151336867008,0.0,0.0,0.0,0.5533861773449634,0.5689179638878314,1.036248749444789,0.002864823208036037,0.0004183626677716807,0.11503862056342788
10595,11.0,300.53952000000004,-7062.1672,0.0,0.0,0.10595151778904421,0.0,0.0,0.0,0.5194009279933804,0.5726751661861385,1.054646331510489,-0.005895373399778055,-0.011310629182772189,0.10954863900410891
10596,11.0,299.99481000000003,-7127.158,0.0,0.0,0.10596152220941835,0.0,0.0,0.0,0.5428825430983355,0.5610373200425725,1.0625581935913289,0.016755620411150984,0.013045699402260288,0.1086977824976359
10597,11.0,300.01558,-7232.6976,0.0,0.0,0.10597149372051495,0.0,0.0,0.0,0.5393328037580035,0.5821402798752724,1.077086376175149,0.0037914105336080864,0.004227920095238226,0.1113926731261009
10598,11.0,300.06317,-7175.7427,0.0,0.0,0.10598149814088909,0.0,0.0,0.0,0.5501117380568015,0.5688805648266404,1.062254319886339,0.008723507226993131,0.00042974789040031464,0.12060317733010689
10599,11.0,299.82907,-7214.1593,0.0,0.0,0.10599150256126322,0.0,0.0,0.0,0.5584989968195595,0.5756166717564425,1.058808661596279,0.01117674439405879,-0.017820007217197783,0.1043776184437689
10600,11.0,299.64203,-7247.6207,0.0,0.0,0.10600150698163735,0.0,0.0,0.0,0.5651001692335444,0.5795892707610074,1.0584062999815689,0.0026245921471270773,-0.004238482619580665,0.1035954096315709
10601,11.0,299.71317999999997,-7067.7243,0.0,0.0,0.10601151140201148,0.0,0.0,0.0,0.5175101830417784,0.5843008938585085,1.046600619091439,0.014144681606471386,-0.000973945986765985,0.1053292528051879
10602,11.0,300.40269,-6962.4214,0.0,0.0,0.10602151582238561,0.0,0.0,0.0,0.48970226358735053,0.5813524981875244,1.045347532692769,-0.007093856763809154,0.0053484445032003745,0.13719300975989587
10603,11.0,299.93807000000004,-7108.1793,0.0,0.0,0.10603152024275997,0.0,0.0,0.0,0.5166339648853026,0.5824334435267055,1.061641607550869,-0.0025234232789674875,0.006620281398945904,0.1280225086698379
10604,11.0,299.68585,-7143.7119999999995,0.0,0.0,0.10604149175385658,0.0,0.0,0.0,0.5309751926931715,0.5860340986845625,1.054500828796129,-0.00883562172935797,0.015237477918821987,0.13919363155234188
10605,11.0,300.17002,-7094.4434,0.0,0.0,0.10605149617423071,0.0,0.0,0.0,0.5473306198448264,0.5872082022379375,1.021994853663039,-0.010826893452531188,-0.0007419850731732252,0.1336090124336829
10606,11.0,300.62911,-7148.8747,0.0,0.0,0.10606150059460484,0.0,0.0,0.0,0.5468525887126485,0.5786699388127764,1.047556924535819,0.003883094468906587,-0.003151593656638077,0.13721459198702587
10607,11.0,300.47852,-7178.1925,0.0,0.0,0.10607150501497897,0.0,0.0,0.0,0.5360397308005025,0.5886475847999935,1.057303985197779,0.005249064528092335,-0.01889920368670618,0.11472286143476489
10608,11.0,300.59654,-7134.5144,0.0,0.0,0.1060815094353531,0.0,0.0,0.0,0.5144387686761535,0.5852248968897004,1.069050593607079,0.011726574428322789,0.011968122106411688,0.12200235412819489
10609,11.0,300.04176,-7202.3131,0.0,0.0,0.10609151385572724,0.0,0.0,0.0,0.5457647330077855,0.5829944193120694,1.060564218719539,0.006191502732928744,-0.011820199750812888,0.11999763880534488
10610,11.0,299.91713,-7118.8929,0.0,0.0,0.10610151827610137,0.0,0.0,0.0,0.5295572809007345,0.5776659802161934,1.0567424419923588,0.0030256339022568172,0.017872805653408583,0.12471760095116888
10611,11.0,299.72017,-6918.8714,0.0,0.0,0.10611152269647572,0.0,0.0,0.0,0.5207675591982566,0.5555953462729916,1.026801205512389,0.004442712093836545,-0.004308297476645856,0.1141928100424529
10612,11.0,299.01965,-7024.4863,0.0,0.0,0.10612149420757233,0.0,0.0,0.0,0.5262330099726545,0.5583724317495685,1.050662941392359,0.008596214542105322,0.015002262040607986,0.1032675320317119
10613,11.0,299.25162,-7204.4154,0.0,0.0,0.10613149862794646,0.0,0.0,0.0,0.5525714938670605,0.5678928182316574,1.069498044851239,0.004670254831693266,-0.0024925597822464977,0.1077386906154809
10614,11.0,300.54462,-7183.8152,0.0,0.0,0.10614150304832037,0.0,0.0,0.0,0.5283512498367086,0.5830153834566384,1.072333827906109,-0.0059277828121766145,-0.004864469848585796,0.1104209156176959
10615,11.0,300.6286,-7106.0261,0.0,0.0,0.1061515074686945,0.0,0.0,0.0,0.5362048095067945,0.5720992956243045,1.051750361399679,0.0013715099027824887,-0.01359323442504779,0.12920169873871487
10616,11.0,300.07325,-7228.3375,0.0,0.0,0.10616151188906886,0.0,0.0,0.0,0.5444371220642604,0.5837034512020455,1.069093555411319,-0.012488292283748488,-5.778642529957615e-05,0.1133687945311289
10617,11.0,299.90726,-7187.3216,0.0,0.0,0.10617151630944299,0.0,0.0,0.0,0.5695537377955774,0.5788526176733054,1.0363599029807589,0.017032264032953583,-0.006356776692515014,0.12060845636312788
10618,11.0,300.15777,-6977.6081,0.0,0.0,0.10618152072981735,0.0,0.0,0.0,0.5200792888028295,0.5592088899721205,1.041730432485789,-0.006654465924194655,0.006113851399590154,0.11374178202543987
10619,11.0,300.69156,-6968.7505,0.0,0.0,0.10619152515019148,0.0,0.0,0.0,0.5104046856555206,0.5678667169090814,1.0400547194704088,0.017059059431848086,0.004644826104533646,0.1163759891054159
10620,11.0,299.61737999999997,-7053.3479,0.0,0.0,0.10620149666128809,0.0,0.0,0.0,0.49954899766164745,0.5757142477410724,1.068778434630219,0.014264092117506287,0.019032115755323584,0.11832034511980889
10621,11.0,299.54499,-7005.7408,0.0,0.0,0.10621150108166222,0.0,0.0,0.0,0.5128407922084456,0.5741703079011975,1.042559169742579,0.01221922979919409,0.002671560139612458,0.14146669603167586
10622,11.0,299.57527999999996,-7175.8386,0.0,0.0,0.10622150550203613,0.0,0.0,0.0,0.5419991815286545,0.5924484885751135,1.0468280937388892,-0.006998866694759363,-0.0049522956314785255,0.14481955074507688
10623,11.0,300.02483,-7192.8437,0.0,0.0,0.10623150992241048,0.0,0.0,0.0,0.5604295422350895,0.5840812516343314,1.041934095755889,-0.016359353495792484,-0.014453247672674486,0.12467060641153088
10624,11.0,299.33594,-6959.6163,0.0,0.0,0.10624151434278462,0.0,0.0,0.0,0.5074761902165005,0.5640030422902665,1.044070330941719,-0.008239204178021143,0.015560532448204985,0.12312268449876287
10625,11.0,300.00074,-6964.6976,0.0,0.0,0.10625151876315897,0.0,0.0,0.0,0.5114319996669084,0.5621840861082494,1.0434780862582689,-0.001099202180807809,-0.006149044311338425,0.1127812411956419
10626,11.0,299.99537999999995,-7135.3229,0.0,0.0,0.1062615231835331,0.0,0.0,0.0,0.5270380979721105,0.5682191050288594,1.0737028301162188,-3.884908794535646e-06,-0.001991407600011628,0.1067010211880709
10627,11.0,300.78301,-7113.5173,0.0,0.0,0.10627149469462949,0.0,0.0,0.0,0.5380524710641444,0.5749580591914425,1.0493210942849291,-0.001265458182390999,-0.017637593828194985,0.1112106934081409
10628,11.0,299.83805,-7146.2001,0.0,0.0,0.10628149911500362,0.0,0.0,0.0,0.5471171280487565,0.5762570255546404,1.048892286842609,0.005350198540448485,0.011520081150693489,0.1117546668568269
10629,11.0,300.31978,-7255.7036,0.0,0.0,0.10629150353537775,0.0,0.0,0.0,0.5839484956062295,0.5765559039366375,1.045048319938239,0.00967350225107534,-0.0077099286313107125,0.11508429787793589
10630,11.0,300.53226,-7233.5579,0.0,0.0,0.1063015079557521,0.0,0.0,0.0,0.5495767014739975,0.5804153127725314,1.068828995810209,0.01074152510510599,-0.005660377194185735,0.12698773713771389
10631,11.0,300.40643,-7072.9027,0.0,0.0,0.10631151237612624,0.0,0.0,0.0,0.5314558481431085,0.5708710743830885,1.047658857495879,0.013952680845022386,-0.012295363385207888,0.1135949722184509
10632,11.0,299.63496000000004,-7152.8819,0.0,0.0,0.10632151679650037,0.0,0.0,0.0,0.5306401412826045,0.5698041017627864,1.0738531964310591,0.006825235144373263,-0.0006791708117114402,0.1135781826642939
10633,11.0,299.57358,-7127.9233,0.0,0.0,0.1063315212168745,0.0,0.0,0.0,0.5313688808870255,0.5701385046932895,1.0652032829773792,0.005023202265526465,-0.005722764522717885,0.11476427296635189
10634,11.0,299.68739,-6915.1391,0.0,0.0,0.10634152563724886,0.0,0.0,0.0,0.5143833134981806,0.5602043879303684,1.027441883550619,-0.01093350864130329,-0.016041454382918287,0.12353953558990288
10635,11.0,299.85803,-7070.6683,0.0,0.0,0.10635149714834524,0.0,0.0,0.0,0.5356434993488974,0.5758132220108405,1.037849887252809,0.001004256563039906,-0.005022114845519145,0.12248494488582289
10636,11.0,299.51769,-7244.4349,0.0,0.0,0.10636150156871937,0.0,0.0,0.0,0.5424216764228516,0.5930389702033895,1.066666618771799,0.0013129566113037287,0.020060269751044482,0.12542313712829986
10637,11.0,299.44311,-7195.1356,0.0,0.0,0.10637150598909373,0.0,0.0,0.0,0.5363555912541754,0.5942472304176355,1.056538778722259,-0.005458228935635255,0.016537511234375284,0.12827287263704687
10638,11.0,300.13132,-7217.9088,0.0,0.0,0.10638151040946786,0.0,0.0,0.0,0.5267909966702234,0.5910846742055155,1.076188332611519,-0.005144011466999405,-0.005101602795988995,0.13063754505792188
10639,11.0,300.5929,-7282.1681,0.0,0.0,0.106391514829842,0.0,0.0,0.0,0.5526577822455765,0.5945899014689544,1.066349572815509,-0.008025359162966284,-0.007267646381210853,0.11789512458284289
10640,11.0,300.03229,-6996.4748,0.0,0.0,0.10640151925021613,0.0,0.0,0.0,0.5267015266863935,0.5653744053731095,1.0346777051647391,0.017986407201620185,-0.008871027220977221,0.12394571715748988
10641,11.0,300.14067,-6936.2481,0.0,0.0,0.10641152367059026,0.0,0.0,0.0,0.5192542195114015,0.5654004762981825,1.023791548740359,-0.0002330950646946918,-0.004406692977956736,0.13909028004214186
10642,11.0,300.65271,-7081.3749,0.0,0.0,0.10642152809096439,0.0,0.0,0.0,0.5310489066379466,0.5757608673781734,1.0457514141826292,0.011485143273995389,-0.003932090684117136,0.1289310799020069
10643,11.0,300.46769,-7036.8178,0.0,0.0,0.106431499602061,0.0,0.0,0.0,0.5324963344057965,0.5674073903737494,1.039113207477489,0.0022866524671500276,0.007960812193170992,0.12173275867408788
10644,11.0,300.02549,-7036.2675,0.0,0.0,0.10644150402243535,0.0,0.0,0.0,0.5144301053877985,0.5660248815398065,1.058394647605419,0.006037511313205974,0.011617421048050188,0.11800020875071389
10645,11.0,300.04798999999997,-7239.688,0.0,0.0,0.10645150844280926,0.0,0.0,0.0,0.5594111853545854,0.5842041892689644,1.0570690124995892,-0.016331942040837183,0.0006019415780995085,0.11548289020227388
10646,11.0,299.72181,-7314.2867,0.0,0.0,0.1064615128631834,0.0,0.0,0.0,0.5651094202069575,0.5844664690573494,1.0737845993992887,-0.02497326313366918,-0.018857626995352882,0.0972054613599321
10647,11.0,299.75259,-7211.0259,0.0,0.0,0.10647151728355775,0.0,0.0,0.0,0.5465568210084585,0.5830647084715065,1.062350274670809,-0.008312644241294112,-0.01102765882734519,0.11525139295192689
10648,11.0,299.89193,-7252.2779,0.0,0.0,0.10648152170393188,0.0,0.0,0.0,0.5475438279308685,0.5790507080678554,1.0779168359571092,-0.00048204192057883354,0.00036067971759881667,0.1083029088011649
10649,11.0,299.8925,-7157.6991,0.0,0.0,0.10649152612430601,0.0,0.0,0.0,0.5389598770586984,0.5714339550786405,1.065367936118629,0.02124567104303448,0.01125173807371009,0.1172813888647719
10650,11.0,300.94372000000004,-6880.8422,0.0,0.0,0.10650153054468015,0.0,0.0,0.0,0.4981147320125965,0.5619955405296415,1.031493972025529,0.002985560975376927,-0.007386621194702753,0.12287653565196988
10651,11.0,300.33896,-6959.0848,0.0,0.0,0.10651150205577697,0.0,0.0,0.0,0.5317085020555435,0.5573358768972685,1.026343621767229,0.014535496223041787,-0.0013067398153151786,0.11927817043933889
10652,11.0,299.94741,-7121.8525,0.0,0.0,0.1065215064761511,0.0,0.0,0.0,0.5374948390041105,0.5726096899646764,1.054760828771789,0.015640164786814088,-0.0028272872567565274,0.11508638517314189
10653,11.0,300.26002,-7039.2118,0.0,0.0,0.10653151089652502,0.0,0.0,0.0,0.5214938264724336,0.5837025291444544,1.034548211801959,0.013210359636260988,0.0025252992102026274,0.14019518874618786
10654,11.0,299.97027,-7119.4794,0.0,0.0,0.10654151531689915,0.0,0.0,0.0,0.5157696929475055,0.5880825154842254,1.060291755767649,-8.815593523906341e-05,-0.017785156480008283,0.12234261364427589
10655,11.0,299.30232,-7295.1659,0.0,0.0,0.10655151973727328,0.0,0.0,0.0,0.5499997739207515,0.6025073364253444,1.065041162961379,-0.009525789638247241,0.007178104355298744,0.12619480813945788
10656,11.0,300.03893999999997,-7171.6502,0.0,0.0,0.10656152415764764,0.0,0.0,0.0,0.5272656435470675,0.5873011881996145,1.0654357225503188,-0.005174497325408125,0.007293336729546293,0.1140375193321269
10657,11.0,299.96977999999996,-7073.5434,0.0,0.0,0.10657152857802177,0.0,0.0,0.0,0.5418395642404015,0.5830113405887394,1.025329662392159,-0.018423628672770583,0.011487858784263387,0.12976164100897689
10658,11.0,300.0963,-7144.9439,0.0,0.0,0.10658150008911838,0.0,0.0,0.0,0.5359640815480365,0.5871993059020595,1.048721148900719,-0.012594792975259289,-0.00873029904241343,0.1200560526736099
10659,11.0,300.46238,-6954.106,0.0,0.0,0.10659150450949251,0.0,0.0,0.0,0.5223909175809694,0.5562965356071935,1.035187167315019,-0.002866832381659327,0.012072722953984988,0.1235359790820519
10660,11.0,299.65401,-6899.1861,0.0,0.0,0.10660150892986664,0.0,0.0,0.0,0.49219434207579954,0.5658185432894425,1.039167416357839,0.01159988776831979,0.008032192318990663,0.1288572241022179
10661,11.0,300.25591000000003,-7034.0599,0.0,0.0,0.10661151335024077,0.0,0.0,0.0,0.5229418520578425,0.5688580808069215,1.0463786159945292,0.015247323670043684,0.014258124074417287,0.13240492680984886
10662,11.0,300.56455,-7086.7764,0.0,0.0,0.1066215177706149,0.0,0.0,0.0,0.5373919130589525,0.5643362090556475,1.052474936546189,0.008949631313384842,-0.014481214388684587,0.12823332548564387
10663,11.0,300.38383999999996,-7086.4373,0.0,0.0,0.10663152219098904,0.0,0.0,0.0,0.5559859440540404,0.5703799621921194,1.027734104879459,-0.003597756249320897,0.002019443419678548,0.12160011410349689
10664,11.0,299.88167000000004,-7233.3661,0.0,0.0,0.10664152661136317,0.0,0.0,0.0,0.5538234555581195,0.5800229114063045,1.064916330549059,-0.0012789491008474488,-0.0050068337167860156,0.1116669801931729
10665,11.0,300.29152999999997,-7254.8209,0.0,0.0,0.10665153103173752,0.0,0.0,0.0,0.5441568266890975,0.5899258605961494,1.071201723569379,-0.002360691563882118,0.003200953425984507,0.097568062027468
10666,11.0,299.52317999999997,-7084.3142,0.0,0.0,0.10666150254283413,0.0,0.0,0.0,0.5122401375491654,0.5771895702841754,1.064024873111079,0.0006193884478613804,-0.016870480415986783,0.1129721273819809
10667,11.0,300.42852999999997,-7036.5906,0.0,0.0,0.10667150696320826,0.0,0.0,0.0,0.5129729098889846,0.5654000406006395,1.0605748578455891,-0.004671613701402375,0.0006696828391000503,0.1055678833362389
10668,11.0,299.90178,-7127.2924,0.0,0.0,0.1066815113835824,0.0,0.0,0.0,0.5373859855458675,0.5665274941194105,1.0626054110459888,-0.005495660015529415,0.004337069017210386,0.10671326124927889
10669,11.0,299.35821,-7034.545999999999,0.0,0.0,0.10669151580395653,0.0,0.0,0.0,0.5431949787666704,0.5706896012901784,1.0244417513295292,-0.015056067647418184,0.025623780843620273,0.12812558660251086
10670,11.0,299.72418999999996,-6991.2316,0.0,0.0,0.10670152022433066,0.0,0.0,0.0,0.5268906396850574,0.5646676330308564,1.033601532233529,-0.006137379370887183,0.006105220839213384,0.13390947148583587
10671,11.0,299.52691,-7106.2692,0.0,0.0,0.10671152464470479,0.0,0.0,0.0,0.5380408896155014,0.5759486732842085,1.046138779695859,-0.014027812326687289,0.01930811596331268,0.13593194908293885
10672,11.0,299.53286,-6999.3125,0.0,0.0,0.10672152906507892,0.0,0.0,0.0,0.5045204079522875,0.5641612410283795,1.0589346085837088,0.02199129747362208,-0.004682339460335925,0.1196413902026859
10673,11.0,300.25155,-6989.5923,0.0,0.0,0.10673153348545328,0.0,0.0,0.0,0.5045137407666295,0.5773836279433274,1.0427641502378089,0.004427321432767605,-0.0007069233570479034,0.13656349773776788
10674,11.0,300.06357,-7197.6694,0.0,0.0,0.10674150499654989,0.0,0.0,0.0,0.5456573386296865,0.5878134063901664,1.054441047040229,0.007527156855747543,-0.029385388753362073,0.11487532517731189
10675,11.0,299.78758999999997,-7131.868,0.0,0.0,0.10675150941692402,0.0,0.0,0.0,0.5545062037405014,0.5730948239800555,1.040308741270479,0.0018899471184732584,0.001912242572348648,0.11939935515129887
10676,11.0,300.26673999999997,-7002.2515,0.0,0.0,0.10676151383729793,0.0,0.0,0.0,0.5201369731310225,0.5797071624101424,1.0286654843713792,-0.002286574548217338,0.006960089005482303,0.13022331828454087
10677,11.0,300.05714,-7194.0099,0.0,0.0,0.10677151825767206,0.0,0.0,0.0,0.5408082073611145,0.5861167494952194,1.059874398051459,-0.01158895986599129,0.024755907814967875,0.11448532521382189
10678,11.0,300.1247,-7195.9047,0.0,0.0,0.10678152267804641,0.0,0.0,0.0,0.5342037317518035,0.5713383954617094,1.0818332502436292,-0.014753056218263288,-0.00028654293342458576,0.12434317464171588
10679,11.0,300.35936,-6972.4797,0.0,0.0,0.10679152709842055,0.0,0.0,0.0,0.5059017616811166,0.5682884518657034,1.045269512435069,-0.016442351851233786,-0.003619480939414957,0.11804851038298088
10680,11.0,299.50994,-6983.1319,0.0,0.0,0.1068015315187949,0.0,0.0,0.0,0.5252787310284744,0.5560072020411385,1.041411765329339,0.002119823776610318,-0.013632626549185489,0.12127678599658688
10681,11.0,299.30315,-7118.3429,0.0,0.0,0.10681150302989129,0.0,0.0,0.0,0.5656315277184855,0.5647772565591754,1.0333897629626292,-0.008179440660622941,0.007265473567696414,0.11161583132812489
10682,11.0,299.82592,-7078.5931,0.0,0.0,0.10682150745026564,0.0,0.0,0.0,0.5403782853436845,0.5733060258308995,1.038031259020709,-0.0015707088942668985,-0.006822596843762883,0.13739394738722688
10683,11.0,299.99739,-7154.4344,0.0,0.0,0.10683151187063955,0.0,0.0,0.0,0.5580201753523035,0.5715503167201245,1.045198888903099,-0.004001126453180437,0.012522334447358188,0.11386905637050089
10684,11.0,299.1687,-7297.8719,0.0,0.0,0.10684151629101368,0.0,0.0,0.0,0.5275040815605996,0.6073331224116124,1.0835335852364387,0.012885102301160588,0.022502036319028078,0.11285284758020889
10685,11.0,299.97957,-7117.9133,0.0,0.0,0.10685152071138804,0.0,0.0,0.0,0.5204210479290585,0.5731496408104654,1.070097179635369,0.016110169964949985,0.006574412073543953,0.11010750722926489
10686,11.0,300.5473,-7119.3635,0.0,0.0,0.10686152513176217,0.0,0.0,0.0,0.5197380464341516,0.5797299402723904,1.0646407265218591,-0.005668150848952934,-0.01091490030321679,0.10956908639112689
10687,11.0,300.34713999999997,-7250.3917,0.0,0.0,0.10687152955213652,0.0,0.0,0.0,0.5744082798196835,0.5766057558415575,1.052924008990509,-0.00956673487213822,-0.016192057798281683,0.11747367333624889
10688,11.0,300.24175,-7105.4707,0.0,0.0,0.10688153397251066,0.0,0.0,0.0,0.5362350651547805,0.5737115791834244,1.0499390755209188,-0.00022244594799870584,0.015194238484054587,0.12050446650536488
10689,11.0,299.62541,-6883.4874,0.0,0.0,0.10689150548360704,0.0,0.0,0.0,0.5149567218622715,0.5650973625307675,1.012354214659082,-0.002228002815586758,0.02270801587885668,0.14131730243693186
10690,11.0,299.67864,-7033.9619,0.0,0.0,0.10690150990398117,0.0,0.0,0.0,0.5051463026715585,0.5696835148683854,1.063318941766409,-0.01022881852800579,0.0046700490405979555,0.13335489944110387
10691,11.0,300.11053,-7130.0653,0.0,0.0,0.1069115143243553,0.0,0.0,0.0,0.5326253920710335,0.5830935759668554,1.051642855564069,-0.010153719470344089,0.005191288906065326,0.12817848839023188
10692,11.0,299.86694,-7136.264,0.0,0.0,0.10692151874472966,0.0,0.0,0.0,0.5251295806137545,0.5905566290484014,1.0535598234282588,0.003616422342663096,-0.0026015042303484774,0.12598675749642488
10693,11.0,299.24088,-7300.8744,0.0,0.0,0.10693152316510379,0.0,0.0,0.0,0.5683956131962795,0.5963225692724554,1.054565372827499,0.016565507334638286,-0.004670843428676356,0.1121354563769079
10694,11.0,299.66665,-7287.9127,0.0,0.0,0.10694152758547792,0.0,0.0,0.0,0.5622957766667724,0.5918461215231644,1.061201553032439,0.0017981173764853684,-0.012869149691586187,0.12079630279916688
10695,11.0,299.59335,-7103.8905,0.0,0.0,0.10695153200585206,0.0,0.0,0.0,0.5399426181981875,0.5797843416702594,1.039678398383269,0.0016085569265772085,-0.001961789286338528,0.11256772913456987
10696,11.0,300.22155,-7142.8808,0.0,0.0,0.10696153642622641,0.0,0.0,0.0,0.5167762961268495,0.5750530817858204,1.079427997156249,-0.003643368107872437,0.008207587025875773,0.1206258234698419
10697,11.0,299.91641,-7209.8058,0.0,0.0,0.1069715079373228,0.0,0.0,0.0,0.5444519864432275,0.5875567197423335,1.0595922078986089,-0.012098757402054386,0.009571474653456001,0.09665985860508532
10698,11.0,300.01682999999997,-6974.2049,0.0,0.0,0.10698151235769693,0.0,0.0,0.0,0.5113092545497946,0.5626287205171315,1.0460461686367188,-0.001952593231080948,-0.009273725032070402,0.11833414558617088
10699,11.0,300.06458,-6913.6693,0.0,0.0,0.10699151677807128,0.0,0.0,0.0,0.5313097476111895,0.5585182181739565,1.011754887357433,-0.004906528543011665,-0.007910397529145453,0.1256138003996169
10700,11.0,300.45657,-7159.7066,0.0,0.0,0.10700152119844542,0.0,0.0,0.0,0.5501575977563276,0.5879488373985324,1.038265623768839,0.018816015853496182,0.010394983438404991,0.13669077208282887
10701,11.0,300.09316,-7196.7626,0.0,0.0,0.10701152561881955,0.0,0.0,0.0,0.5537517681135445,0.5714404398792805,1.0624438989800489,0.016506723630086786,0.0002271634783442898,0.13416606694115987
10702,11.0,299.97982,-7160.8146,0.0,0.0,0.10702153003919368,0.0,0.0,0.0,0.5163768729374295,0.5920837590691175,1.0682482008528889,-0.004400538091549296,0.01120091547519429,0.14006649585098688
10703,11.0,299.71732000000003,-7161.7161,0.0,0.0,0.10703153445956781,0.0,0.0,0.0,0.5394061833302455,0.5728735098932134,1.064703142728019,-0.0023921189342837575,-0.004911696929121745,0.11182911034167389
10704,11.0,299.90255,-7073.1433,0.0,0.0,0.10704150597066442,0.0,0.0,0.0,0.5221496424671574,0.5727793688264226,1.055129955783219,0.008378080743352192,0.010861632732209688,0.11837048073475688
10705,11.0,299.79778,-7049.1031,0.0,0.0,0.10705151039103855,0.0,0.0,0.0,0.5287807665540984,0.5795904866611274,1.034380113610369,0.004469948965799615,-0.005860932927554045,0.1118301438567759
10706,11.0,299.99793,-7211.0744,0.0,0.0,0.1070615148114129,0.0,0.0,0.0,0.5490766017546415,0.5812659058339784,1.0616440393511088,0.0020503696365807285,-0.015355719139241485,0.1215975201832409
10707,11.0,300.09472,-7258.3382,0.0,0.0,0.10707151923178682,0.0,0.0,0.0,0.5446298017032765,0.5987611684206264,1.062962581706239,0.006021344705210454,-0.013126239612958987,0.12238580849603889
10708,11.0,300.27825,-6955.1948,0.0,0.0,0.10708152365216095,0.0,0.0,0.0,0.5045816285233294,0.5654770374757385,1.044146831324269,0.008212230447109042,0.01170319672201559,0.14531409785388485
10709,11.0,299.83606000000003,-7068.8045,0.0,0.0,0.1070915280725353,0.0,0.0,0.0,0.5338026670972215,0.5707887579449645,1.044148655174449,0.007673558829571292,0.0008177534534534821,0.12473484646787088
10710,11.0,299.50669,-7263.6362,0.0,0.0,0.10710153249290943,0.0,0.0,0.0,0.5579423374796214,0.5797894585832645,1.070232245873699,-0.00973188166883694,-6.446297338850014e-05,0.13186065951863388
10711,11.0,299.76764,-7193.2623,0.0,0.0,0.10711153691328357,0.0,0.0,0.0,0.5577898940020765,0.5714500150927255,1.0573322548755688,-0.004605096872087676,-0.013217741163239488,0.11021208477208588
10712,11.0,299.8668,-7094.7409,0.0,0.0,0.10712150842438017,0.0,0.0,0.0,0.5387246307829815,0.5669854527671074,1.050914024767139,-0.006452316449744055,0.005176664160746975,0.12712968334422287
10713,11.0,300.08455,-7169.272,0.0,0.0,0.10713151284475453,0.0,0.0,0.0,0.5411998893197705,0.5724339316023305,1.0656458706210592,0.009426016522100402,-0.009511279592840212,0.11009939109596388
10714,11.0,300.17575,-7164.8694,0.0,0.0,0.10714151726512844,0.0,0.0,0.0,0.5257741900623725,0.5851735656396344,1.066993695904079,-0.006194760838625295,0.0013411411760853287,0.11875114866482589
10715,11.0,300.27542,-7190.6308,0.0,0.0,0.10715152168550257,0.0,0.0,0.0,0.5483132393943035,0.5833404543537204,1.054118529533399,0.0008776683504166222,-0.004601773209109656,0.11746370295526488
10716,11.0,300.56144,-7224.1762,0.0,0.0,0.1071615261058767,0.0,0.0,0.0,0.5453241718643055,0.5828109906464665,1.067833984212009,0.006210628943141354,0.016975004256552483,0.1133916838508879
10717,11.0,300.32477,-6951.8309,0.0,0.0,0.10717153052625084,0.0,0.0,0.0,0.5258609040059306,0.5608157425107044,1.026506349733289,0.009232668036693393,-0.010011971658204671,0.11965054998358989
10718,11.0,299.68082000000004,-6920.3871,0.0,0.0,0.10718153494662519,0.0,0.0,0.0,0.4992223562269105,0.5685318750697275,1.035870604507469,0.011868992809378389,-0.0020359466293572884,0.13158473125140188
10719,11.0,300.125,-7207.8172,0.0,0.0,0.10719153936699932,0.0,0.0,0.0,0.5417398502980605,0.5704786324868575,1.078777997217099,0.01762873700907088,-0.02298850782453908,0.13228675145068589
10720,11.0,299.36295,-7176.415,0.0,0.0,0.10720151087809593,0.0,0.0,0.0,0.5390055239757034,0.5748385666071495,1.0676069148645988,0.002265667246978948,0.005191890269999675,0.13680484377908686
10721,11.0,299.74086,-6874.8404,0.0,0.0,0.10721151529847006,0.0,0.0,0.0,0.5162141753688726,0.5543017704003255,1.019263840668509,-0.006025571376677594,-0.012818725300359688,0.13698837376969988
10722,11.0,299.86557999999997,-6951.8726,0.0,0.0,0.1072215197188442,0.0,0.0,0.0,0.5272483777653635,0.5599322188210075,1.026015024759799,-0.016430371182051384,0.007691798445946404,0.12824654839944888
10723,11.0,299.91787,-7217.6304,0.0,0.0,0.10723152413921833,0.0,0.0,0.0,0.5647746119764144,0.5858909669754364,1.043313838417059,-0.008062361942043173,0.014936594314877085,0.1033234229072279
10724,11.0,299.8682,-7233.3479,0.0,0.0,0.10724152855959246,0.0,0.0,0.0,0.5409046687706345,0.5791603315961745,1.0786921749336291,-0.0029280594375019667,0.020992734433821582,0.10482061138748891
10725,11.0,300.37498999999997,-7180.8524,0.0,0.0,0.10725153297996659,0.0,0.0,0.0,0.5257523038602125,0.5802831950919924,1.076764365293369,0.0063507917281493435,-0.005544761507425355,0.1095588323001149
10726,11.0,299.85975,-7120.1411,0.0,0.0,0.10726153740034072,0.0,0.0,0.0,0.5221525200974415,0.5827057342260784,1.059486829888209,-0.008536261242963392,-0.008639939019695592,0.11930391712437989
10727,11.0,300.21032,-7059.7573,0.0,0.0,0.10727150891143755,0.0,0.0,0.0,0.5394701498090585,0.5650050047841524,1.0415148128645089,0.005821178769155614,-0.01733246774608138,0.12757237231291288
10728,11.0,300.15966000000003,-7232.999,0.0,0.0,0.10728151333181168,0.0,0.0,0.0,0.5564940687141884,0.5961433151972644,1.046013744633519,-0.01183719094173979,0.007431521143734033,0.13475862573214087
10729,11.0,299.93852000000004,-7269.4855,0.0,0.0,0.10729151775218582,0.0,0.0,0.0,0.5679782149500855,0.5828253180028804,1.058938560259099,9.844422141543821e-05,-0.01065379487169769,0.1104555485061139
10730,11.0,299.85311,-6983.843000000001,0.0,0.0,0.10730152217255973,0.0,0.0,0.0,0.5057541514065486,0.5782423776680795,1.038917346233159,0.002946357011782797,0.013932622546042786,0.12807232004475388
10731,11.0,299.73989,-6863.5181,0.0,0.0,0.10731152659293408,0.0,0.0,0.0,0.4943621096047415,0.5614377767470945,1.0305382745312088,0.0101008654067028,-0.0035288612206964866,0.12442103277939989
10732,11.0,299.70242,-7217.5207,0.0,0.0,0.10732153101330821,0.0,0.0,0.0,0.5414682080787515,0.5815003009796115,1.0709775926472591,0.009993253078507291,0.009935952974752211,0.1186574230305759
10733,11.0,300.00862,-7298.374,0.0,0.0,0.10733153543368235,0.0,0.0,0.0,0.5643771747571905,0.5913408947583024,1.062805426615729,-0.004096937356136236,-0.02020566708739408,0.1108303497181039
10734,11.0,300.18388,-7109.8177,0.0,0.0,0.10734153985405648,0.0,0.0,0.0,0.5420964231407515,0.5868512443602085,1.032259381151069,-0.006482012581024833,0.005527183644690556,0.12589964838532788
10735,11.0,300.68029,-7129.9615,0.0,0.0,0.10735151136515331,0.0,0.0,0.0,0.5404707748128125,0.5780513496267264,1.048808085759299,-0.002503420708743388,0.007761526062177982,0.1064080196566539
10736,11.0,300.33727000000005,-7153.2739,0.0,0.0,0.10736151578552744,0.0,0.0,0.0,0.5195356294616744,0.5866775530280665,1.068203516523479,-0.0037052688737065666,0.03088710038206947,0.1199960378701869
10737,11.0,300.15207000000004,-7130.7815,0.0,0.0,0.10737152020590157,0.0,0.0,0.0,0.5057662090827385,0.5829038955481355,1.078909415755069,-0.002114155554225908,-0.0016934858274340384,0.11041695380980489
10738,11.0,300.12363999999997,-7139.9471,0.0,0.0,0.10738152462627548,0.0,0.0,0.0,0.5184019140572855,0.5881163276400624,1.0638473516935592,-0.014397037623376987,0.0011314204942375087,0.12804701918975686
10739,11.0,300.49478,-7095.2129,0.0,0.0,0.10739152904664961,0.0,0.0,0.0,0.5322429306882875,0.5758406304260454,1.048683962622049,0.014324508167968885,-0.0020313145565251382,0.11467652550769189
10740,11.0,299.63119,-6883.7916,0.0,0.0,0.10740153346702397,0.0,0.0,0.0,0.5335855174682905,0.5495920623455135,1.009323188442443,0.013068048659715987,0.009850986380991661,0.12958376495392188
10741,11.0,299.61945,-7066.7014,0.0,0.0,0.1074115378873981,0.0,0.0,0.0,0.5474287227195085,0.5792573604257505,1.021414666655779,0.013010566981542989,-0.005453274142646254,0.12141904631062687
10742,11.0,299.53683,-7312.1230000000005,0.0,0.0,0.10742154230777246,0.0,0.0,0.0,0.5616990635503815,0.5877966472335124,1.073207148167299,0.0018471388216234083,-0.0003847771557170486,0.11534493620115889
10743,11.0,300.17885,-7188.2186,0.0,0.0,0.10743151381886884,0.0,0.0,0.0,0.5274277736955685,0.5819693648484044,1.075641785507579,-0.004228602316530556,0.009680397620655862,0.11699297735630788
10744,11.0,300.43372,-7026.1512,0.0,0.0,0.1074415182392432,0.0,0.0,0.0,0.49848993852462653,0.5814731256119294,1.055811467800479,-0.007546597882766223,0.003306108825337537,0.11783311367672289
10745,11.0,300.41983999999997,-7208.2261,0.0,0.0,0.1074515226596171,0.0,0.0,0.0,0.5573171824329235,0.5689684744053164,1.064835067891039,-0.014030143815167385,-0.02282705047410448,0.1054373767233589
10746,11.0,299.75655,-7259.9865,0.0,0.0,0.10746152707999124,0.0,0.0,0.0,0.5674700700249354,0.5912270865070705,1.048157477870089,-0.01953113231032268,0.003736622783475957,0.11147907296212789
10747,11.0,299.75858,-7090.2349,0.0,0.0,0.10747153150036559,0.0,0.0,0.0,0.5390497118125646,0.5805105886794345,1.035694096340049,-0.008942577066188642,0.01031437837969989,0.12149766438588588
10748,11.0,300.13672,-7006.456999999999,0.0,0.0,0.10748153592073972,0.0,0.0,0.0,0.5168295626846064,0.5611959240807255,1.051762520400879,-0.0037331422693824565,0.02873634430905637,0.1213141850577779
10749,11.0,301.03153,-6893.0182,0.0,0.0,0.10749154034111408,0.0,0.0,0.0,0.4952880682086265,0.5560808450584065,1.043936480603509,-0.0014465137149347889,-0.004761536709352086,0.11814980499547789
10750,11.0,301.15425,-6862.9711,0.0,0.0,0.10750151185221046,0.0,0.0,0.0,0.49148549257084156,0.5591767294139465,1.035509583496839,0.01178146927899049,-0.018589194752360684,0.1339434761591919
10751,11.0,300.50244,-7073.4373,0.0,0.0,0.1075115162725846,0.0,0.0,0.0,0.5309193322151585,0.5816342526428314,1.037594750877629,0.00930110497494759,-0.01112444650339739,0.13047333774671588
10752,11.0,300.58619,-7182.8571,0.0,0.0,0.10752152069295873,0.0,0.0,0.0,0.5673374761168495,0.5840222602135094,1.032049435730349,0.01148912737338859,-0.004986365152840925,0.12961312894181987
10753,11.0,300.76181,-6959.2756,0.0,0.0,0.10753152511333286,0.0,0.0,0.0,0.5277331774082095,0.5683071058000445,1.019405695682509,0.006713546916325493,-0.011277538461006388,0.12638631240835788
10754,11.0,300.30652000000003,-6982.7189,0.0,0.0,0.10754152953370721,0.0,0.0,0.0,0.5152476664959855,0.5701688312687825,1.0371557096092991,-0.012896156859751588,0.007027483005408573,0.11968010648900687
10755,11.0,300.11757,-7272.5767,0.0,0.0,0.10755153395408135,0.0,0.0,0.0,0.5291966955876475,0.5959908717197194,1.085494122854929,0.004732976735408435,0.01990127054535248,0.11312821855988588
10756,11.0,299.60454,-7227.5487,0.0,0.0,0.10756153837445548,0.0,0.0,0.0,0.5257111152436476,0.5904113289840615,1.080871878548749,-0.011930584229956989,0.02044001258377218,0.1095796241921669
10757,11.0,299.8815,-7037.9143,0.0,0.0,0.10757154279482961,0.0,0.0,0.0,0.5184500333045344,0.5834452548115634,1.037454922363829,-0.00034553773850191965,-0.005151946228532505,0.12550731794660788
10758,11.0,300.45444,-7062.6759999999995,0.0,0.0,0.10758151430592622,0.0,0.0,0.0,0.5487943305417835,0.5588773140093964,1.039205514561599,0.0025839464299656574,-0.012253391526315589,0.0965707260335386
10759,11.0,299.83806,-7029.7078,0.0,0.0,0.10759151872630035,0.0,0.0,0.0,0.5379053674146265,0.5671159796449894,1.0318343227341191,0.01034947634991379,0.01909065425335088,0.13543396705629188
10760,11.0,299.22461,-7063.0177,0.0,0.0,0.10760152314667448,0.0,0.0,0.0,0.5309509050882746,0.5763247917213284,1.039705350835929,-0.0005145439440365335,0.009433793824567962,0.1120761711135569
10761,11.0,299.97815,-7181.2943,0.0,0.0,0.10761152756704861,0.0,0.0,0.0,0.5376059114800725,0.5729528575085445,1.072375371160209,-0.012379258466987687,0.0001220927664346179,0.12876428880304588
10762,11.0,301.08186,-7140.5448,0.0,0.0,0.10762153198742297,0.0,0.0,0.0,0.5380202091809605,0.5748007723784194,1.057726307839459,-0.0016009852125549386,-0.011878338015050689,0.11086562095408489
10763,11.0,300.48767000000004,-7062.5159,0.0,0.0,0.1076315364077971,0.0,0.0,0.0,0.5307657842950045,0.5739777903821974,1.042084867370769,0.01746331177124468,0.008525809872156924,0.1294941429825769
10764,11.0,300.19978,-7261.2431,0.0,0.0,0.10764154082817123,0.0,0.0,0.0,0.5654764092606764,0.5856705952111875,1.056089604952929,0.013690540885151186,-0.005203493300869805,0.11298665738841489
10765,11.0,300.63568,-7308.1465,0.0,0.0,0.10765154524854537,0.0,0.0,0.0,0.5617221859176635,0.5967788357924855,1.062993080534249,-0.0014341072780603686,-0.0035279530446318563,0.1223342239334479
10766,11.0,300.37363,-6992.2934,0.0,0.0,0.10766151675964197,0.0,0.0,0.0,0.5077771254962006,0.5640449097843985,1.053660540488199,-0.006664741496108774,-0.0015739485588116286,0.1258815314735399
10767,11.0,299.77887000000004,-6859.267,0.0,0.0,0.1076715211800161,0.0,0.0,0.0,0.4895415519889896,0.5658414528742035,1.029662927769819,-0.005618470689924885,0.025021095631139877,0.12201297298924288
10768,11.0,299.61455,-7033.5497,0.0,0.0,0.10768152560039046,0.0,0.0,0.0,0.5097647168923605,0.5704172497957994,1.057841514375829,-0.0009991107825395571,0.006673475509320754,0.1284760394145979
10769,11.0,299.51841,-7100.6785,0.0,0.0,0.10769153002076437,0.0,0.0,0.0,0.5263601525952025,0.5835109032855424,1.0485579143096089,-0.03006436967187227,3.6719149095647865e-06,0.12566494926466487
10770,11.0,300.6025,-7069.3038,0.0,0.0,0.1077015344411385,0.0,0.0,0.0,0.5364730370732664,0.5802392504351555,1.032179537043189,-0.016393693554931584,-0.020261011821106182,0.1321482705595189
10771,11.0,300.1554,-7156.1026,0.0,0.0,0.10771153886151286,0.0,0.0,0.0,0.5500608627692805,0.5719046705450964,1.053310969203699,0.008043698077851193,0.011930262016425188,0.1266867207980059
10772,11.0,299.36735,-7173.3224,0.0,0.0,0.10772154328188699,0.0,0.0,0.0,0.5420869897823205,0.5835617076455565,1.054862153781789,0.016737282610841186,0.007956344469505062,0.12936361610469488
10773,11.0,299.74975,-7191.2178,0.0,0.0,0.10773154770226112,0.0,0.0,0.0,0.5346283646037114,0.5810034943230805,1.070318777432239,0.0021488790272028483,-0.006604516341965015,0.12483203741746288
10774,11.0,300.41164,-7336.6875,0.0,0.0,0.10774151921335773,0.0,0.0,0.0,0.5609177058682675,0.5905305986533325,1.078721559186529,0.007120660471354473,-0.009779844976895552,0.1042470409033819
10775,11.0,300.26287,-7230.6572,0.0,0.0,0.10775152363373208,0.0,0.0,0.0,0.5580686188395845,0.5758006881071035,1.064069962740529,0.002960309769634827,0.020047959775579584,0.11556073820745688
10776,11.0,300.26288,-7016.3635,0.0,0.0,0.10776152805410599,0.0,0.0,0.0,0.5393166626839104,0.5484820265959615,1.0450005958585291,0.010888907398401489,-0.008899754685162402,0.09994370490717572
10777,11.0,300.50761,-7056.219,0.0,0.0,0.10777153247448013,0.0,0.0,0.0,0.5283637736079445,0.5694187830147585,1.0471318661188689,-0.014320846282107485,-0.004664676687242746,0.11482575698241988
10778,11.0,300.47628,-7185.6423,0.0,0.0,0.10778153689485426,0.0,0.0,0.0,0.5386003657907175,0.5735445753019425,1.072110912884109,-0.014357864361260885,-0.017026268632111884,0.11332048276636089
10779,11.0,300.07707999999997,-7118.129,0.0,0.0,0.10779154131522839,0.0,0.0,0.0,0.5186866373353854,0.5857186232659275,1.059328256247559,-0.013317178488303187,0.02690067861964027,0.13666191471998088
10780,11.0,299.89902,-7083.0389,0.0,0.0,0.10780154573560274,0.0,0.0,0.0,0.5331527076880755,0.5819278013293024,1.0379864733662891,-0.005956138818875134,0.01962536963587318,0.12726158824224088
10781,11.0,299.81183,-7219.5426,0.0,0.0,0.10781151724669935,0.0,0.0,0.0,0.5517100083670385,0.5914021659918495,1.051448514194889,0.008144434997493153,0.013305037725604986,0.12652285799183388
10782,11.0,299.71677,-7164.9801,0.0,0.0,0.10782152166707348,0.0,0.0,0.0,0.5512303053721955,0.5853296466850384,1.0414151090546688,0.008294670299095221,-0.014708993011164587,0.11801510352718389
10783,11.0,299.44239,-7129.3791,0.0,0.0,0.10783152608744762,0.0,0.0,0.0,0.5287601975770685,0.5875294329171404,1.050863564912159,0.011930431229191888,0.005649476852259954,0.12018820075165187
10784,11.0,299.89538999999996,-7186.403,0.0,0.0,0.10784153050782175,0.0,0.0,0.0,0.5370449458272094,0.5775165866214494,1.0699255350684291,0.009409878791732731,-0.021642520577200477,0.1127195545295539
10785,11.0,300.81897000000004,-6911.0174,0.0,0.0,0.10785153492819588,0.0,0.0,0.0,0.4951267587927065,0.5675054527184274,1.038144540381889,-0.011810548543610388,-0.006572565729211734,0.13687994587649885
10786,11.0,300.49534,-6907.4445,0.0,0.0,0.10786153934857001,0.0,0.0,0.0,0.5066609291860404,0.5674712149975485,1.0255584542647391,-0.011241078682658091,-0.01935969647290328,0.13741150701145988
10787,11.0,299.83417000000003,-7138.9561,0.0,0.0,0.10787154376894414,0.0,0.0,0.0,0.5421409554826464,0.5822932097128655,1.045630229470669,-0.01062210952782059,0.019258534596169382,0.14377120166161286
10788,11.0,300.02538,-7066.9833,0.0,0.0,0.10788154818931828,0.0,0.0,0.0,0.5366688679200935,0.5763281354466584,1.035189497790249,-0.01021291050143579,0.014495417115336286,0.1281601384309209
10789,11.0,300.056,-6923.4856,0.0,0.0,0.1078915197004151,0.0,0.0,0.0,0.5065533220254205,0.5545344126232854,1.043478998183359,-0.007632609745329932,0.010660059797065989,0.12572307942290187
10790,11.0,300.05456000000004,-7061.1935,0.0,0.0,0.10790152412078924,0.0,0.0,0.0,0.5219277001652536,0.5731088169639365,1.051389948339109,0.007737480928029913,-0.015913427193032986,0.1190641010907119
10791,11.0,299.73042000000004,-7184.255999999999,0.0,0.0,0.10791152854116337,0.0,0.0,0.0,0.5380857259324264,0.5851259226199325,1.0606227845753189,0.012320770631465387,0.014364213386387485,0.12120458179446088
10792,11.0,299.06295,-7305.3313,0.0,0.0,0.10792153296153728,0.0,0.0,0.0,0.5655599213339184,0.5838325797947894,1.071245799948729,0.001978173236480498,0.0013508409179676187,0.1090267138775989
10793,11.0,299.75467000000003,-7340.5512,0.0,0.0,0.10793153738191164,0.0,0.0,0.0,0.5858232514712535,0.5853793871324475,1.0601415921028292,-0.015047910984113184,0.004277685569924696,0.10046759877863
10794,11.0,300.16892,-7190.0645,0.0,0.0,0.10794154180228577,0.0,0.0,0.0,0.5539224703578914,0.5684286147520364,1.063249027509509,0.004090509804126887,-0.005669875400623135,0.08495168986482902
10795,11.0,300.10134,-6983.4774,0.0,0.0,0.1079515462226599,0.0,0.0,0.0,0.5044204102999185,0.5647696369184235,1.053612715083479,0.011287874625276488,0.015936878866597486,0.11191019061467589
10796,11.0,299.67483,-7102.022,0.0,0.0,0.10796155064303403,0.0,0.0,0.0,0.5081084076163955,0.5808323462486895,1.0698965561155689,0.009606625819300151,-0.012218561054128088,0.1313609752318189
10797,11.0,300.4441,-7187.3498,0.0,0.0,0.10797152215413086,0.0,0.0,0.0,0.5413550584400845,0.5742168667432925,1.0692029864221189,-0.0035440721311976865,-0.01070242581024719,0.13031942505652586
10798,11.0,299.78729,-6945.7424,0.0,0.0,0.107981526574505,0.0,0.0,0.0,0.5283191906035445,0.5756508892123194,1.007362174596406,-0.0002084961589694688,-0.009381823517663892,0.14665788026900586
10799,11.0,300.49699,-6862.0626,0.0,0.0,0.10799153099487913,0.0,0.0,0.0,0.5403711723279825,0.5560064218385615,0.9895180803978311,0.01144255637229239,0.019693719434618784,0.13099188875039286
10800,11.0,300.21167,-7016.445,0.0,0.0,0.10800153541525304,0.0,0.0,0.0,0.5288056215790515,0.5627613042927165,1.0412571433640792,-0.007210229348394233,0.008074440187210201,0.12124679379362688
