,case,Temp,Pressure,e11,e22,e33,e12,e23,e13,s11,s22,s33,s12,s23,s13
0,9.0,300.0,133.47647,0.0,0.0,0.0,0.0,0.0,0.0,-0.026639171941081577,-0.0012696129131010388,-0.012664730536911589,0.002226226486836448,-0.006828949719239863,-0.0026185497314807375
1,9.0,300.51357,-107.52428,1.0009674697553095e-05,0.0,0.0,0.0,0.0,1.5276178857159817e-06,0.028026739932773874,0.004355757807354826,0.00030219725230204675,0.0026312365346578275,-0.00979634160044864,-0.0007249017778122352
2,9.0,300.3794,68.81360600000001,1.9986314164999186e-05,0.0,0.0,0.0,0.0,3.0501941282734535e-06,-0.001235582097892459,0.0004895519783325186,-0.02017158743353068,0.012637130617437688,-0.008143500983550971,-0.008480085137544242
3,9.0,299.0152,191.24749,2.999598886255228e-05,0.0,0.0,0.0,0.0,4.577812013989435e-06,-0.02711629317466977,-0.00967047982735205,-0.02134768810285278,0.01184627168913599,0.006870715989686874,0.013461052909752486
4,9.0,298.5157,-147.30929,4.000566355988333e-05,0.0,0.0,0.0,0.0,6.105429899705417e-06,0.0021413881705385582,0.009141472082643052,0.03349548680974717,0.006820062705262784,-0.00015070132572056285,-0.016473926750849986
5,9.0,298.75703,-102.09555999999999,5.001533825721438e-05,0.0,0.0,0.0,0.0,7.633047785421399e-06,-0.0036373351154520266,0.007857868212161211,0.026813966702582473,-0.017808094435772085,-0.0006554214554000614,0.0034044155659396563
6,9.0,299.64148,465.03809,5.999197772488252e-05,0.0,0.0,0.0,0.0,9.15562402797887e-06,-0.03264712087201997,-0.06065316922450174,-0.048059676249120754,-0.006152460078750535,-0.005694206980574474,-0.01827744201459308
7,9.0,300.19973,637.44302,7.000165242221357e-05,0.0,0.0,0.0,0.0,1.0683241913694852e-05,-0.04417334333156955,-0.07482687132708724,-0.07476654748238373,-0.004637817250941926,0.007498880591831893,0.0026629254249102776
8,9.0,299.76238,393.85048,8.001132711976666e-05,0.0,0.0,0.0,0.0,1.2210859799410834e-05,-0.010926148392576888,-0.04681026997481395,-0.06198429310612344,0.013161202820909589,0.005952705927536334,-0.0037684622426932667
9,9.0,299.73559,283.64815,8.998796658721275e-05,0.0,0.0,0.0,0.0,1.3733436041968305e-05,-0.025058767256607776,-0.028521675116370177,-0.03264151151946637,-0.007104757105734933,0.012154996835604788,0.010440416559638892
10,9.0,299.79942,127.61498,9.999764128476585e-05,0.0,0.0,0.0,0.0,1.5261053927684287e-05,-0.03824857007483997,-0.007672345259926523,0.007129147960817123,-0.005211580151242915,0.0012622175045961688,0.005626306659573235
11,9.0,300.23451,101.49741,0.0001100073159820969,0.0,0.0,0.0,0.0,1.678867181340027e-05,-0.04091436927968386,-0.011395769548924888,0.02145746159218658,-0.012605882997603788,0.012515857752718988,-0.004779948780894216
12,9.0,299.81687,324.06537000000003,0.00011998395544954299,0.0,0.0,0.0,0.0,1.831124805595774e-05,-0.03547735334284217,-0.03492364256069517,-0.028106785677423772,0.006148508099385505,-0.006802255341380333,0.005456000089390285
13,9.0,300.17561,256.57922,0.00012999363014709608,0.0,0.0,0.0,0.0,1.9838865941673722e-05,-0.02091679032557648,-0.009496272750909151,-0.04758061160184075,-0.005114187666206025,-0.0017828383755774486,0.0038445738411798966
14,9.0,299.8524,67.253941,0.00014000330484442713,0.0,0.0,0.0,0.0,2.136648382741746e-05,0.03336673311954017,-0.031185277594997268,-0.02262497496691118,-0.005574532720538545,-0.004777109147488965,-0.0040364378138653964
15,9.0,300.02542,438.18037000000004,0.00015001297954198023,0.0,0.0,0.0,0.0,2.2894101713105686e-05,-0.04417244964498136,-0.04712711226783386,-0.04189633122984596,0.011765947300708589,0.010916580271882591,0.006297367711326805
16,9.0,300.33021,744.52608,0.00015998961900942632,0.0,0.0,0.0,0.0,2.4416677955690913e-05,-0.10698559247865591,-0.06225493018133324,-0.057076816870293236,0.013491445346501988,0.0095203075499062,0.02166019064569438
17,9.0,300.26968,325.91699,0.00016999929370675737,0.0,0.0,0.0,0.0,2.594429584137914e-05,-0.045222429047856255,-0.03899278504803826,-0.014855411703614986,0.009301771490863371,-0.004620187003176956,0.013134374998011886
18,9.0,299.94451000000004,187.18874,0.00018000896840431047,0.0,0.0,0.0,0.0,2.747191372709512e-05,0.0048469791253595955,-0.033344746605620264,-0.02840293639015157,0.009420417302047802,-0.006242365861448545,0.006407894045484904
19,9.0,299.95293,351.83419,0.00018998560787175656,0.0,0.0,0.0,0.0,2.8994489969652593e-05,-0.027102142123773175,-0.03415676422251017,-0.04568990211399225,0.0019724368223643578,0.01073980865943659,0.01716366129267148
20,9.0,299.32181,230.68388,0.0001999952825690876,0.0,0.0,0.0,0.0,3.0522107855368574e-05,0.002076639462648358,-0.038192965949102264,-0.03400581427561257,0.0052765670742316246,-0.005449179295017125,0.0015831231331670885
21,9.0,299.43855,160.89753000000002,0.0002100049572666407,0.0,0.0,0.0,0.0,3.204972574111231e-05,-0.03284958546725167,-0.009314049244975092,-0.006745196289824044,-0.006852849148023554,-0.008280775296498892,0.006242866609647964
22,9.0,300.29064,405.88241,0.00022001463196397175,0.0,0.0,0.0,0.0,3.357734362680054e-05,-0.07440105499906242,-0.040209674100135866,-0.00876738683317371,-0.006257236117266124,-0.01007910150382987,-0.00016642536633740482
23,9.0,299.83762,304.19826,0.0002299912714316399,0.0,0.0,0.0,0.0,3.5099919869385765e-05,-0.03796745295384586,-0.03869548125669667,-0.015805742012155285,-0.00906779137247133,0.018303687218683282,-0.016925129046880184
24,9.0,300.74318999999997,172.55811,0.00024000094612897094,0.0,0.0,0.0,0.0,3.662753775507399e-05,0.010200221570433491,-0.04499397560080966,-0.017659603646867184,-0.008947081368183181,0.0062298687386901745,-0.009918454145525212
25,9.0,300.91415,413.23671,0.00025001062082652403,0.0,0.0,0.0,0.0,3.815515564081773e-05,-0.01156997155911729,-0.05281501500893614,-0.06122865576454785,0.011264964027265388,0.004651281723570766,-0.0028181356831783375
26,9.0,299.89041000000003,318.37032,0.0002599872602939701,0.0,0.0,0.0,0.0,3.9677731883347445e-05,-0.017912012352777985,-0.03238119439652507,-0.046483419810556356,0.01121847915242769,-0.0047180699012622455,-0.0010710558155549788
27,9.0,299.7207,50.589927,0.0002699969349915232,0.0,0.0,0.0,0.0,4.120534976909118e-05,-0.014529726776972384,-0.01988597046884248,0.019037622769617082,0.007666878471661993,-0.0076220070962835324,-0.007173333264552873
28,9.0,300.30984,104.17501999999999,0.00028000660968885427,0.0,0.0,0.0,0.0,4.2732967654807164e-05,-0.043527241365554255,-0.002266609468246938,0.014127245598750587,0.0005162604707659415,-0.02391070321755268,0.021612623619749877
29,9.0,300.36664,257.81602999999996,0.0002900162843861853,0.0,0.0,0.0,0.0,4.426058554049539e-05,-0.03185284425113097,-0.010245033569356089,-0.036271757633243765,-0.006146574210244645,-0.006730480858621743,0.02081188043672268
30,9.0,299.63497,223.45942000000002,0.00029999292385385345,0.0,0.0,0.0,0.0,4.578316178308062e-05,-0.01118147019252519,-0.01928793303457078,-0.037456680671186564,-0.0012802590305767288,0.0032807000592048868,0.0028681203238614373
31,9.0,299.80622999999997,343.95526,0.0003100025985511845,0.0,0.0,0.0,0.0,4.731077966876884e-05,-0.023881026135373778,-0.011328131051749488,-0.06934465126353423,0.0008474681576085951,0.017040587882525084,0.005492514583243985
32,9.0,300.0867,380.91508999999996,0.0003200122732487376,0.0,0.0,0.0,0.0,4.883839755451258e-05,-0.035498436037672866,-0.02947968586066847,-0.050810552998611154,-0.006446545179824474,-2.5499429725097774e-06,-0.005921702298326515
33,9.0,300.07534,133.22637,0.0003299889127161837,0.0,0.0,0.0,0.0,5.0360973797042297e-05,-0.03391340789299277,-0.007163596843016963,0.0005795153136362084,0.008666099921377473,-0.0029966490725462373,0.013602552272967385
34,9.0,300.10955,170.25355,0.0003399985874137368,0.0,0.0,0.0,0.0,5.1888591682786034e-05,-0.04310102683024016,-0.0072440147544285925,-0.0014077852696125885,0.018587754923968584,0.0046222930435098055,-0.01091987232145749
35,9.0,299.02757,312.15285,0.00035000826211106784,0.0,0.0,0.0,0.0,5.3416209568502016e-05,-0.02786983511503857,-0.033280766954555965,-0.03373606987374087,0.008555618879498841,0.016137728341169787,0.008038721094685002
36,9.0,299.09051,20.752182,0.00035998490157873597,0.0,0.0,0.0,0.0,5.493878581105949e-05,0.02064681490268198,-0.0002931870879078127,-0.026661772484562075,-0.004947011025581975,0.009385113135438551,-0.009370369738533491
37,9.0,299.87068999999997,-9.6405162,0.000369994576276067,0.0,0.0,0.0,0.0,5.646640369677547e-05,0.03804511452101046,-0.012954154282225487,-0.02216048389581948,-0.012929807908822687,0.007133149893412083,0.007574651029009852
38,9.0,299.96211,330.54747000000003,0.0003800042509736201,0.0,0.0,0.0,0.0,5.799402158249145e-05,-0.031167602460252866,-0.03060019253675387,-0.03871038312591736,-0.004729479401363276,-0.01016522796497989,-0.0015739826040149884
39,9.0,299.24677,295.98425,0.00039001392567095117,0.0,0.0,0.0,0.0,5.952163946820743e-05,-0.07111159934441844,-0.004432173583521476,-0.014428050169187686,-0.003586906063275067,-0.011855550020301689,0.00948870093556187
40,9.0,299.92952,151.8247,0.0003999905651386193,0.0,0.0,0.0,0.0,6.10442157107649e-05,-0.03172964114497177,-0.02202740464093558,0.0076061286566164515,0.008941648523797002,-0.025013171002107773,-0.01030107339263679
41,9.0,299.45261,278.44111000000004,0.00041000023983595035,0.0,0.0,0.0,0.0,6.257183359648089e-05,-0.01959070837645238,-0.025272683604469676,-0.03977575379781126,0.0024024076784491775,-0.01111808531926959,-0.004061899876953306
42,9.0,299.92672000000005,285.42769,0.0004200099145332814,0.0,0.0,0.0,0.0,6.409945148219687e-05,-0.018264133987779683,-0.020812542089037978,-0.04768621455376296,0.0034538313680166164,0.007170206982694332,-0.002519419725172367
43,9.0,300.39785,125.54196999999999,0.0004299865540007275,0.0,0.0,0.0,0.0,6.562202772475434e-05,0.026602735467485577,-0.02149208232160338,-0.043272277242891254,-0.0040294852969792365,0.022601124072807278,-0.02015032336693208
44,9.0,300.49092,96.65907299999999,0.0004399962286982806,0.0,0.0,0.0,0.0,6.714964561047032e-05,-0.01897119713281138,-0.0038795840639351364,-0.006531163316875635,0.0028358299683496273,0.015221813072275985,0.01003720877977038
45,9.0,300.16764,118.50955,0.0004500059033958337,0.0,0.0,0.0,0.0,6.86772634961863e-05,-0.038315156818411564,-0.0048993294010511645,0.007190542912201332,-0.008715999753027202,0.01144871085339979,0.011908328191510489
46,9.0,300.09196000000003,120.92546000000002,0.00046001557809316473,0.0,0.0,0.0,0.0,7.020488138190228e-05,-0.02603985578518368,-0.015533273994014786,0.004814808029384556,-0.008117747813709332,-0.005238874981111705,0.006091442461703563
47,9.0,299.82339,315.17823,0.0004699922175606108,0.0,0.0,0.0,0.0,7.172745762445976e-05,-0.035747992444552165,-0.012229103921418589,-0.04782921555362605,-0.00923979574452184,0.0015431365351957185,0.005613877323246555
48,9.0,299.69694,491.02109,0.0004800018922579419,0.0,0.0,0.0,0.0,7.325507551017574e-05,-0.03215729753517817,-0.05436039265070305,-0.06274045835100114,0.0015024326574785587,0.016112489294428885,0.010162719157732291
49,9.0,299.64133,243.39235,0.000490011566955495,0.0,0.0,0.0,0.0,7.478269339591948e-05,-0.005733061068909074,-0.013706889675514686,-0.05454524695919674,0.006616857728183014,0.012739299664770987,0.014594209000086287
50,9.0,299.35303999999996,169.29325,0.0004999882064229411,0.0,0.0,0.0,0.0,7.630526963844919e-05,-0.031073546506470272,-0.018633098879193684,-0.0017542766791086282,0.007605383715142932,0.00022975565581011777,-0.004840097029355386
51,9.0,298.92478,312.94824,0.0005099978811204942,0.0,0.0,0.0,0.0,7.783288752419293e-05,-0.07791963487231923,-0.01157809275866879,-0.0056307224035090355,0.013195250050769786,-0.013677589522372987,0.012415731417587289
52,9.0,300.08139,168.17621,0.0005200075558178252,0.0,0.0,0.0,0.0,7.936050540988115e-05,-0.017641752206605382,-0.008245826375374701,-0.025233791012631276,0.01611774806244788,-0.023731711574137577,-0.007405286578769883
53,9.0,300.08429,32.486154,0.0005299841952852713,0.0,0.0,0.0,0.0,8.088308165241087e-05,0.015625031896570586,-0.02919052353388037,0.003690512203225196,0.004102687043828686,-0.02089227372615688,-0.009149178356278601
54,9.0,299.37719,160.91796000000002,0.0005399938699828244,0.0,0.0,0.0,0.0,8.241069953815461e-05,0.036823502710196764,-0.030191781818946873,-0.05554676362303875,-0.0028684924906231674,-0.012692550331657188,-0.013386643875408884
55,9.0,300.30555,164.79176999999999,0.0005500035446801554,0.0,0.0,0.0,0.0,8.393831742387059e-05,0.004748636617028946,-0.031705786197867465,-0.02313543415528958,-0.008046567500809383,0.005562232978899655,-0.0038565568408375265
56,9.0,299.7402,68.958851,0.0005600132193777085,0.0,0.0,0.0,0.0,8.546593530961433e-05,-0.013597763652994787,-0.024390833803937875,0.017026828959417182,-0.003913006219808647,0.01854278992428088,-0.008230371068949383
57,9.0,299.59131,215.15536,0.0005699898588451546,0.0,0.0,0.0,0.0,8.698851155214404e-05,-0.05231823976315825,-0.02110361641876478,0.008019997752712152,0.004632811086172855,0.0067626655321481235,0.0038912326910597664
58,9.0,300.18712,322.86148,0.0005799995335427077,0.0,0.0,0.0,0.0,8.851612943788778e-05,-0.03507798892192796,-0.048001985841427154,-0.015061854318739286,-0.005050106284831685,-0.006517133248040974,0.002995314216864497
59,9.0,299.82289,130.38758,0.0005900092082400388,0.0,0.0,0.0,0.0,9.0043747323576e-05,0.009673119039887521,-0.02325935565576968,-0.02604833060902008,-0.005462564936788184,-0.004207592069082006,-0.013276282701017088
60,9.0,299.22094,189.48558,0.0005999858477074849,0.0,0.0,0.0,0.0,9.156632356610572e-05,0.008393414358440501,-0.027130284132050576,-0.03886201499013226,-0.018111822232747682,-0.0036629418706542165,0.0012879777671885087
61,9.0,299.53342999999995,314.79882000000003,0.000609995522405038,0.0,0.0,0.0,0.0,9.309394145184946e-05,-0.01989933321116128,-0.02558769191480858,-0.05020395664074475,-0.0037195151701125665,0.004197156606302106,-0.005597045313910365
62,9.0,299.04773,97.326102,0.0006200051971025911,0.0,0.0,0.0,0.0,9.46215593375932e-05,-0.043510920946193556,0.005835705837164324,0.008090509928496163,-0.013272750511168488,0.0018143443741868482,0.016047367710501886
63,9.0,300.06961,96.362723,0.0006300148717999221,0.0,0.0,0.0,0.0,9.614917722330918e-05,-0.026416663232371677,-0.011958214546933889,0.00908301565787385,0.00934113230557298,-0.006250664582417564,-0.013318992205982186
64,9.0,299.92388,226.1066,0.0006399915112673682,0.0,0.0,0.0,0.0,9.76717534658389e-05,-0.04257777941234966,-0.01020208493736739,-0.015950896168480885,0.0035244761782387162,-0.01071100702534409,0.015673915134394985
65,9.0,299.33046,130.45531,0.0006500011859649213,0.0,0.0,0.0,0.0,9.919937135158263e-05,0.018052836891426283,-0.01028700340174819,-0.047420991273837455,0.023943346082774274,-0.00959621376259756,0.0007143048333638984
66,9.0,299.84369,178.65895,0.0006600108606622523,0.0,0.0,0.0,0.0,0.00010072698923727086,0.022080516171427277,-0.033239730325505965,-0.04314864451868966,0.013497542072353685,-0.005213760057508055,-0.01079316033020199
67,9.0,300.2819,397.77352,0.0006699875001296984,0.0,0.0,0.0,0.0,0.00010224956547980057,-0.025779474827486076,-0.03999905486809936,-0.055134686966369945,0.01096223630813849,0.0021996665672651882,0.023689695132240875
68,9.0,300.49222000000003,232.791,0.0006799971748272515,0.0,0.0,0.0,0.0,0.00010377718336554431,-0.054575138850396845,-0.018328814807913183,0.0021413031588551684,-0.012075211496230588,0.011103125694793188,0.0028620227874096567
69,9.0,300.06266,121.0071,0.0006900068495248046,0.0,0.0,0.0,0.0,0.00010530480125128805,-0.01998054216692598,-0.01898058793473818,0.0021779923370261077,-0.014060792604192185,0.0062708745649371345,0.016402963780096484
70,9.0,299.56635,228.95987999999997,0.0006999834889920287,0.0,0.0,0.0,0.0,0.00010682737749379001,-0.02225267445616798,-0.016326614371811383,-0.03101879857706707,-0.017961449838407084,-0.0006802279254082694,-0.010903613710352889
71,9.0,299.82242,170.79313,0.0007099931636895818,0.0,0.0,0.0,0.0,0.00010835499537953375,0.01955400237832978,-0.027622947608922675,-0.04384790259820105,-0.006931547574015483,-0.01111135125910499,0.008827969461952752
72,9.0,300.40816,-17.106370000000002,0.0007200028383871349,0.0,0.0,0.0,0.0,0.00010988261326527748,0.04953296418602295,-0.019537628256713784,-0.024795426595368077,0.008915695642360652,-0.0021351380386217178,-0.03674347520404867
73,9.0,299.99404,-4.0245451,0.000730012513084688,0.0,0.0,0.0,0.0,0.00011141023115099347,0.008786493386334382,-0.002271803388259538,-0.005291328810963495,0.007560747819087712,-0.005845809460536474,0.01060449620133229
74,9.0,299.50477,127.14233999999999,0.000739989152551912,0.0,0.0,0.0,0.0,0.00011293280739349543,-0.04511154503641286,-0.01140553120038829,0.017868978607780882,0.014332735758780886,0.0017141422479476686,-0.012814658114458288
75,9.0,299.86778,225.52372000000003,0.0007499988272494651,0.0,0.0,0.0,0.0,0.00011446042527923916,-0.03493973398553327,-0.02048140689010748,-0.013132438677070786,0.002322968769284168,-0.0006026705608839535,0.005267104432872735
76,9.0,300.32532000000003,339.99436000000003,0.0007600085019470182,0.0,0.0,0.0,0.0,0.0001159880431649829,-0.045597844289406865,-0.03900460157070446,-0.01874735093396948,0.007520992647439182,-0.0033652819219024666,0.004603438789624035
77,9.0,300.1293,364.25789,0.0007699851414142422,0.0,0.0,0.0,0.0,0.00011751061940751262,-0.018298746611195682,-0.023028391374975275,-0.06939816606756573,-0.003004054106927057,-0.01158922331101729,0.013948538678613587
78,9.0,300.24877000000004,164.42181000000002,0.0007799948161117953,0.0,0.0,0.0,0.0,0.0001190382372932286,0.004507669531247345,-0.008655465354952922,-0.04583232758779855,-0.003097894643738397,-0.012542710906869188,0.02001520038659648
79,9.0,300.50324,155.82523,0.0007900044908093484,0.0,0.0,0.0,0.0,0.00012056585517897234,-0.02795747516918797,0.0004631951242137996,-0.019872697905782583,-0.00027716237545629676,-0.017135904319432085,0.012862687182448386
80,9.0,300.54679,407.59915,0.0008000141655066795,0.0,0.0,0.0,0.0,0.00012209347306468832,-0.07220691966276814,-0.014554359900153488,-0.037138684286302764,-0.0031365922862575573,0.00046363065963678365,0.039162310909019164
81,9.0,300.58527999999995,217.87112000000002,0.0008099908049739035,0.0,0.0,0.0,0.0,0.00012361604930719028,-0.03286850588636897,-0.021080344090467978,-0.012278529248046488,-0.005531886847679725,0.00877751355864814,-0.007495667373114773
82,9.0,300.21547999999996,-65.006688,0.0008200004796714566,0.0,0.0,0.0,0.0,0.00012514366719293402,0.013290710369190986,0.002832840171279557,0.0036368599011551267,-0.005038332217344676,0.015997695150849586,-0.004098686124483827
83,9.0,300.46067999999997,184.37328,0.0008300101543690097,0.0,0.0,0.0,0.0,0.00012667128507867775,0.023947461904680476,-0.032036431996999674,-0.047955903226879155,-0.005043304944860445,0.008749788097486852,-0.019372311436648283
84,9.0,300.33102,283.82649,0.0008399867938364558,0.0,0.0,0.0,0.0,0.00012819386132120747,-0.0028031589347752473,-0.035409301439625965,-0.04806370493151836,-0.009320355814922502,-0.00034086818554857073,-0.004786068102223146
85,9.0,299.99201,145.64746,0.0008499964685337869,0.0,0.0,0.0,0.0,0.00012972147920692345,-0.02786808320561568,-0.02311389144491348,0.006708784438205474,0.0024921904525850476,-0.008622177454717663,0.0016945673705907782
86,9.0,300.21603,128.10756,0.00086000614323134,0.0,0.0,0.0,0.0,0.00013124909709263943,-0.027511036161877875,-0.02036390838201128,0.008933445960262472,0.0005755044644403686,-0.014501061931643387,0.01974951911762578
87,9.0,300.0054,119.72841000000001,0.000870015817928893,0.0,0.0,0.0,0.0,0.00013277671497838317,-0.03627729808479057,-0.02028051587228108,0.02016336592221928,0.013987267123935786,-0.012068961769613789,0.015390076423632285
88,9.0,300.05093999999997,201.50705,0.0008799924573963391,0.0,0.0,0.0,0.0,0.00013429929122091289,-0.00018489679407039281,-0.03430967582160137,-0.026758538882362178,-0.0067247798069340935,-0.0003575577015231976,-0.0002276738929496638
89,9.0,300.15285,337.3775,0.0008900021320936702,0.0,0.0,0.0,0.0,0.00013582690910662887,-0.0005721138154982374,-0.040946822667136756,-0.06103539857297485,0.017660254153431382,-0.003801690665147656,0.0023506877456448178
90,9.0,299.63313,267.26308,0.0009000118067912233,0.0,0.0,0.0,0.0,0.0001373545269923726,0.001124339598563679,-0.03970759347683436,-0.042658050098521756,-0.0061788737863323635,-0.0021564425338993077,0.0013803802994579286
91,9.0,300.17692,-137.54679,0.0009099884462586694,0.0,0.0,0.0,0.0,0.00013887710323490232,0.001837131254360738,0.013725822253633184,0.026247834487459577,0.006906067272425774,-0.001970104624609188,0.010414313210562689
92,9.0,300.39916,-55.812481999999996,0.0009199981209560004,0.0,0.0,0.0,0.0,0.0001404047211206183,0.006088049492418704,-0.011612641547328488,0.02249019243860918,-0.018101930885271483,-0.005586392812959045,-0.004943729108508075
93,9.0,299.81961,247.85183999999998,0.0009300077956535535,0.0,0.0,0.0,0.0,0.00014193233900633428,-0.04460388140506036,-0.017580630934073183,-0.013156257147171488,-0.001984075013012958,0.0018315899922138582,0.004647563804978836
94,9.0,299.77064,200.63508000000002,0.0009399844351209996,0.0,0.0,0.0,0.0,0.00014345491524889176,0.005831283304452854,-0.03433942383128727,-0.032479914340517974,-0.01242032954654109,0.02099429179922528,-0.004882256744816225
95,9.0,299.65085,-20.656879,0.0009499941098185527,0.0,0.0,0.0,0.0,0.00014498253313460774,0.03954825989860936,-0.017729886726803586,-0.015539198467349484,0.008453861515681173,0.008085028042805142,-0.014460458973636186
96,9.0,299.28197,87.61375799999999,0.0009600037845158838,0.0,0.0,0.0,0.0,0.00014651015102032372,-0.015886736158898785,-0.007589953233345062,-0.0031557052228938566,-0.003340213202503377,0.011405638604898889,0.025381332386192477
97,9.0,300.23166000000003,201.70744,0.0009700134592136589,0.0,0.0,0.0,0.0,0.0001480377689060952,-0.03603717908934267,-0.027343610768354273,0.002066765239098848,0.01119435974704729,-0.012561454007218989,0.012500176694171387
98,9.0,300.54937,215.14857,0.000979990098680883,0.0,0.0,0.0,0.0,0.00014956034514859717,-0.04194829069497396,-0.013254949733411688,-0.010196552591821392,0.008235266992107571,-0.008281124462483353,0.03453019146736457
99,9.0,300.42683999999997,266.58518,0.000989999773378436,0.0,0.0,0.0,0.0,0.0001510879630343409,-0.030703719339221173,-0.025981014325376472,-0.024350505436707776,-0.0021712853306391777,-0.012985812268349887,0.013626113377542685
100,9.0,300.06121,61.754438,0.001000009448075767,0.0,0.0,0.0,0.0,0.00015261558092002914,0.03161865276876807,-0.026620301171219177,-0.023770159349182078,-0.012474081451095988,-0.0013670331611906688,0.0036932810104484564
101,9.0,299.95058,1.1976714,0.0010099860875434352,0.0,0.0,0.0,0.0,0.00015413815716261436,0.049663427229148654,-0.020551181318493678,-0.029476308698085173,-0.016383104078136482,0.0059146253543280744,-0.027351664080149073
102,9.0,299.74111,219.0702,0.0010199957622407663,0.0,0.0,0.0,0.0,0.0001556657750483026,-0.018173152234800483,-0.028840232841809373,-0.019578484527245983,-0.012547463049838187,0.01115321166048629,-0.02067412604587738
103,9.0,300.08057,336.40924,0.0010300054369380973,0.0,0.0,0.0,0.0,0.00015719339293401857,-0.03765733661498977,-0.043205916454091955,-0.021396756765445477,0.006875831281491713,-0.006817760601035583,0.0001159887654471999
104,9.0,299.81821,-46.613448999999996,0.0010400151116358725,0.0,0.0,0.0,0.0,0.00015872101081979006,0.003930699694379856,-0.014644420608791786,0.024883046384515477,0.0033654870037227065,-0.0005163731543095625,-0.011886947601150388
105,9.0,300.1072,-104.50815,0.0010499917511030965,0.0,0.0,0.0,0.0,0.00016024358706229203,0.02231067998464268,-0.006367866005584443,0.015825052532561088,0.00962854079776299,-0.0025415234721288377,0.023234511776567775
106,9.0,300.72121,182.60007,0.0010600014258006496,0.0,0.0,0.0,0.0,0.00016177120494803576,0.02034180129132948,-0.024632210242759876,-0.05121545179157155,0.005491205058814745,0.012971591303196386,-0.004708474929440295
107,9.0,300.87866,221.51222,0.0010700111004982027,0.0,0.0,0.0,0.0,0.00016329882283375174,-0.005036074189496826,-0.01863977315760238,-0.04365833768999246,1.0057628707710671e-05,0.012891869798578488,0.030978617131101466
108,9.0,300.13325,150.66446000000002,0.0010799877399654267,0.0,0.0,0.0,0.0,0.00016482139907630922,-0.012900980943477686,-0.02012136467907408,-0.012775887112631888,-0.004605751431652276,0.009468799183722721,-0.006884870890933853
109,9.0,299.59771,249.16945,0.0010899974146629798,0.0,0.0,0.0,0.0,0.00016634901696199744,-0.043833369552016756,-0.022102666831863377,-0.009805255161578342,-0.024527897158214976,-0.007139554545969175,0.02284408219503538
110,9.0,299.73005,194.63953,0.001100007089360533,0.0,0.0,0.0,0.0,0.00016787663484774118,-0.02932351868900597,-0.024502580091216378,-0.005339457988063475,-0.002215317430959808,-0.005368001243380475,-0.00891593963298473
111,9.0,299.7575,180.85924,0.001109983728827757,0.0,0.0,0.0,0.0,0.0001693992110902709,-0.0058368467567769255,-0.026495388712141275,-0.022644456726583877,-0.0003055622761491487,-0.018149244598690984,0.008629386627854153
112,9.0,299.83922,198.888,0.00111999340352531,0.0,0.0,0.0,0.0,0.00017092682897601463,0.018836213980989582,-0.02864857050589377,-0.05064462924173575,0.009620050369875052,-0.014218708645527286,-0.008371912380718423
113,9.0,299.85356,-32.23192,0.0011300030782226411,0.0,0.0,0.0,0.0,0.00017245444686173061,0.03552140337768957,-0.016219790453518682,-0.00950391346726323,0.007562669042602323,-0.0013756144776125787,-0.013733869485927384
114,9.0,300.44253,-231.01787000000002,0.0011400127529201942,0.0,0.0,0.0,0.0,0.0001739820647474466,0.025133161092199874,0.014852503675827985,0.030237998182508073,-0.004473816136131276,0.015214060695760884,-0.005374487462570615
115,9.0,300.90699,176.67516,0.0011499893923876403,0.0,0.0,0.0,0.0,0.00017550464099000407,-0.03769383287034167,-0.02334475237419768,0.007333746866059462,-0.0046774688684302354,0.010826110210203889,-0.0017125970415451685
116,9.0,300.75448,389.36005,0.0011599990670849714,0.0,0.0,0.0,0.0,0.0001770322588756923,-0.07051544858183294,-0.027445168825877275,-0.02039511547184118,-0.01968136183639918,0.004384653977681656,0.03382397134641607
117,9.0,300.15786,128.04916,0.0011700087417825245,0.0,0.0,0.0,0.0,0.00017855987676143603,0.01045025825786019,-0.02588962220610677,-0.02348438229097808,-0.0018420761174987583,0.002475540422966818,0.0026734329297722873
118,9.0,300.31602000000004,103.72827,0.0011799853812499705,0.0,0.0,0.0,0.0,0.00018008245300396575,0.04141049300564746,-0.03629073074136627,-0.036650567262629365,-0.0008097232234959602,-0.011550599230455387,0.005411684177716645
119,9.0,300.41283,285.12461,0.0011899950559475236,0.0,0.0,0.0,0.0,0.00018161007088970949,-0.005654570865812694,-0.035155898735367064,-0.04586029329055855,0.015708314975289985,-0.0013837667839421486,-0.00936973230289558
120,9.0,299.42091,177.59725,0.0012000047306448547,0.0,0.0,0.0,0.0,0.00018313768877542547,-0.015739304216348383,-0.03186946053952087,-0.006376364944773224,0.006323080857789494,-0.001067693345098129,-0.01216795326463349
121,9.0,299.64296,-36.568323,0.0012100144053424078,0.0,0.0,0.0,0.0,0.00018466530666114145,-0.007513241993449254,-0.011608700004439488,0.030237799585488473,0.005586640957908535,0.000954189494461171,-0.018261819724551282
122,9.0,300.0112,-153.09957,0.0012199910448098539,0.0,0.0,0.0,0.0,0.00018618788290369892,0.015312472611723383,0.010509265890683791,0.02071670686807978,-0.001766753840840028,0.0009759826397319872,0.002211305365863848
123,9.0,300.14047999999997,-211.96771,0.001230000719507407,0.0,0.0,0.0,0.0,0.0001877155007894149,0.04180625734895636,0.01030079069585889,0.012325842961465988,-0.01032905834714869,-0.002158410873543568,-0.004128844196485196
124,9.0,300.06766,89.772047,0.001240010394204738,0.0,0.0,0.0,0.0,0.00018924311867513088,0.034473995603568466,-0.02222785286846828,-0.03953460331376156,-0.0014418560068751086,-0.00950423649139511,0.0036981754137314967
125,9.0,300.0983,420.28236,0.0012499870336724062,0.0,0.0,0.0,0.0,0.00019076569491768836,-0.05008709648021155,-0.03457315935110517,-0.04309508918465416,-0.004917372446906875,-0.0049356441833101556,0.0068376504978485625
126,9.0,299.80868,354.45126,0.0012599967083697372,0.0,0.0,0.0,0.0,0.00019229331280340434,-0.03926216164012366,-0.03342864168740007,-0.035053529064513964,0.018482611987591782,0.0015436085070922984,0.008429313302858451
127,9.0,300.13352000000003,86.794802,0.0012700063830670683,0.0,0.0,0.0,0.0,0.00019382093068912032,-0.04115569708250106,0.0006695354416080034,0.014102709747579089,0.001872640097490188,0.00976409724649137,0.01901631412001408
128,9.0,300.14781,190.52471,0.0012799830225347364,0.0,0.0,0.0,0.0,0.0001953435069316778,-0.025376658263481178,-0.015742222376636385,-0.016795873797873683,0.009745001129806731,0.0056416787781653445,0.02757723888366157
129,9.0,301.03164,236.17397999999997,0.0012899926972320674,0.0,0.0,0.0,0.0,0.00019687112481739377,-0.006400843142014034,-0.018858241024913482,-0.046531909907341955,0.0014003605781798287,0.013720864420893887,0.017892233710825985
130,9.0,300.86562000000004,47.592988,0.0013000023719296205,0.0,0.0,0.0,0.0,0.00019839874270310975,0.037854792714977166,-0.014905936406601386,-0.037415936871415464,0.009368671024740842,-0.007554862254556853,0.004349779125139776
131,9.0,299.80426,-78.149658,0.0013100120466269516,0.0,0.0,0.0,0.0,0.00019992636058882574,0.029801524489931473,-0.005048485287321706,-0.000997494314257524,-0.009291324882332372,0.0036743150964016666,-0.01046386519345309
132,9.0,299.83431,-75.340874,0.0013199886860946197,0.0,0.0,0.0,0.0,0.0002014489368313832,0.004369174555903956,0.010705214274522389,0.007827355097324804,-0.007512199967046414,-0.014831703677775187,-0.0034281464912317163
133,9.0,300.00532000000004,-9.850109300000002,0.0013299983607919508,0.0,0.0,0.0,0.0,0.0002029765547170992,-0.013110169466372988,-0.004899808668348465,0.02100416490819968,-0.014470178068595387,0.0019075407879096183,-0.014068024170155886
134,9.0,300.19917000000004,132.06808999999998,0.0013400080354895039,0.0,0.0,0.0,0.0,0.00020450417260284293,-0.007401047950951562,-0.018845475086903582,-0.013898878277962485,-0.004472203953897165,-0.002005058915958908,0.0017242173989920084
135,9.0,300.26735,218.72061000000002,0.00134998467495695,0.0,0.0,0.0,0.0,0.00020602674884537264,0.01030751462352249,-0.02232962066876198,-0.05446349794112875,0.0050349647819623354,0.013736909236227385,0.00935969747920522
136,9.0,299.61352,33.254991,0.001359994349654503,0.0,0.0,0.0,0.0,0.00020755436673111638,0.021745044262068778,-0.011674279577411687,-0.020179451267556783,0.02053062247396468,0.0001332336843316409,0.004868409060999565
137,9.0,300.21852,161.07992,0.001370004024351834,0.0,0.0,0.0,0.0,0.0002090819846168046,-0.022930668469080775,-0.016131664039321286,-0.009901941613945552,0.0016564624793801185,0.0027086307051210376,0.009732839088856431
138,9.0,300.17037999999997,322.54425,0.0013800136990491652,0.0,0.0,0.0,0.0,0.0002106096025025206,-0.03907012237517086,-0.03071989790356787,-0.02825537981783887,0.013675328961399887,-0.013240130950699187,-0.006091871471795905
139,9.0,300.25592,138.75938,0.0013899903385168333,0.0,0.0,0.0,0.0,0.00021213217874507806,-0.03418617076691237,-0.008594398595276102,0.0006011819951620435,-0.015104789778476685,0.0012535697189676987,0.016803189463595682
140,9.0,300.06335,-90.234899,0.0014000000132141643,0.0,0.0,0.0,0.0,0.00021365979663079404,0.02304865941672558,0.011552000555343687,-0.0071715039428223324,-0.002775124533658467,-0.0003358416139224867,-0.003518726794521296
141,9.0,299.41832999999997,-63.928134,0.0014100096879117174,0.0,0.0,0.0,0.0,0.00021518741451653778,0.04115581259301246,0.00865318827800319,-0.03037644462317167,-0.012188534400664688,-0.0014830047013861686,0.023588138087967978
142,9.0,300.06757999999996,92.353833,0.0014199863273789415,0.0,0.0,0.0,0.0,0.0002167099907590675,0.014469984537826289,-0.005960010143532204,-0.03658323375373406,0.0029008901493205673,0.0006985187109134293,-0.015601985523046086
143,9.0,300.40963,247.40579,0.0014299960020764946,0.0,0.0,0.0,0.0,0.00021823760864481123,-0.01213998857512359,-0.029020120198312873,-0.03404507163748697,-0.0003296085957998357,0.004879972879090825,0.01163839329861999
144,9.0,299.89291000000003,160.56762,0.0014400056767740477,0.0,0.0,0.0,0.0,0.00021976522653049946,-0.026397919118771773,-0.03241477958433967,0.010004151495257881,0.013903038682873087,-0.00973710081877703,-0.017978968932636084
145,9.0,300.63372999999996,59.163014000000004,0.0014500153514713787,0.0,0.0,0.0,0.0,0.0002212928444162432,-0.019137223227946882,-0.001254500591834569,0.0024076452695410877,-5.7723358586851946e-05,0.01071339424257969,0.02008812399629348
146,9.0,300.80392,-9.3717454,0.0014599919909388248,0.0,0.0,0.0,0.0,0.0002228154206587729,0.016018030067106483,-0.009665378011773543,-0.0035038755878055963,-0.004108886817215556,-0.00904934272260059,-0.01097237184888879
147,9.0,300.18877000000003,198.50547,0.001470001665636378,0.0,0.0,0.0,0.0,0.00022434303854451665,0.017994899250708282,-0.03647036579859486,-0.041865240663777566,-0.013857898390918088,0.021966871053461377,0.013435948625274885
148,9.0,300.44052999999997,270.4901,0.001480011340333709,0.0,0.0,0.0,0.0,0.00022587065643023263,-0.020944795545090378,-0.012353467198942288,-0.04892397250492015,-0.019841502974953882,0.01005663146696225,0.009116940385796963
149,9.0,300.29909,65.79417099999999,0.001489987979801377,0.0,0.0,0.0,0.0,0.0002273932326727901,0.0028315598284531975,-0.01048941125497429,-0.01234193438630409,-0.009185147214953452,0.009377603229672382,-0.008540695934676061
150,9.0,300.38046,-126.61225,0.0014999976544987081,0.0,0.0,0.0,0.0,0.00022892085055850608,0.01083385752046849,0.008126799784802692,0.019526305186846282,-0.0032301146625374967,-0.012950046566320088,-0.006620761780818313
151,9.0,299.8522,-55.466508,0.0015100073291960392,0.0,0.0,0.0,0.0,0.0002304484684441943,0.002054888326726688,0.010744064309856591,0.0040614806953869365,0.0015338010567243787,-0.009443875156437912,0.0013509368727520888
152,9.0,300.08176000000003,71.20442299999999,0.0015199839686637073,0.0,0.0,0.0,0.0,0.00023197104468675178,0.03153251840426727,-0.015948794687773486,-0.03722809043537646,0.01921761449088088,-0.01012714526394642,0.016941688593264483
153,9.0,299.75577000000004,59.82245699999999,0.0015299936433610384,0.0,0.0,0.0,0.0,0.00023349866257246776,0.026917164198767274,-0.01773198719426088,-0.027369710064430078,0.006734166657185504,-0.0017282287548128984,0.003552521015831527
154,9.0,300.33407,64.288864,0.0015400033180585915,0.0,0.0,0.0,0.0,0.0002350262804582115,0.01033057720904859,-0.012125512270944888,-0.017747274098519582,0.010329369414929391,-0.005997345977916965,0.001829126578570738
155,9.0,300.4813,63.736875,0.0015500129927559225,0.0,0.0,0.0,0.0,0.00023655389834392748,-0.007077947723989054,-0.02091170279682438,0.008615232233232222,-0.02242412650558898,0.0036318118891569265,-0.014520520386563788
156,9.0,299.86163,178.79585,0.0015599896322235907,0.0,0.0,0.0,0.0,0.00023807647458648495,-0.029541719058290675,-0.026024561788174274,0.0012168049523392987,-0.015477898862799684,0.0029871078029795875,-0.0015507327698704085
157,9.0,299.88439,272.52224,0.0015699993069209217,0.0,0.0,0.0,0.0,0.00023960409247220094,-0.042455239985005964,-0.02803666978375387,-0.01234804833740749,-0.021638333827787275,0.005988132697407684,0.008871812692454741
158,9.0,300.55387,75.014526,0.0015800089816184748,0.0,0.0,0.0,0.0,0.00024113171035791692,0.025494165890828275,-0.0100508493552666,-0.038245859630822464,0.0015709738591680484,0.0004695749622759405,0.011882331233694789
159,9.0,300.06219,-289.2648,0.001589985621085921,0.0,0.0,0.0,0.0,0.00024265428660044663,0.05226356174801195,0.022291536650503378,0.013374176846178488,0.0024178593371741376,0.018835974853965983,0.0010901513242895589
160,9.0,300.32818,-76.475675,0.001599995295783474,0.0,0.0,0.0,0.0,0.00024418190448619037,0.01890355356938548,0.010831013327437791,-0.006487871598403073,0.017013601992611784,0.013012210473205187,0.002064391700739598
161,9.0,300.74916,131.85742,0.001610004970480805,0.0,0.0,0.0,0.0,0.00024570952237190635,-0.02817409081531627,-0.01014596912032919,-0.001761302859277058,0.01059092574274299,0.014197386823672987,-0.019077992680101283
162,9.0,299.62741,-14.696409,0.001620014645178136,0.0,0.0,0.0,0.0,0.00024723714025762233,0.005354096513583185,-0.02358218625688058,0.022695431312614683,0.004161697716402586,-0.009873369886300741,-0.017885167304628583
163,9.0,299.5527,-70.322177,0.0016299912846458042,0.0,0.0,0.0,0.0,0.0002487597165001798,0.017396595331660283,-0.004998456570259255,0.008978047304489282,-0.0024119066954866575,-0.0014157765705012685,-0.013099850527354587
164,9.0,299.29713,79.87589,0.0016400009593431353,0.0,0.0,0.0,0.0,0.00025028733438586803,0.037198767990732566,-0.02082824239933748,-0.040650801650421765,-0.006362662054395853,-0.018057954817681382,0.028480630381319372
165,9.0,299.43437,105.38205,0.0016500106340406884,0.0,0.0,0.0,0.0,0.00025181495227161177,-0.0012597348392011489,-0.015410624122410184,-0.015363152341975085,-0.01815988777774138,0.0003451812061892327,0.010072676586270781
166,9.0,300.31192999999996,148.36258,0.0016599872735081345,0.0,0.0,0.0,0.0,0.0002533375285141415,-0.012898776111260089,-0.01022375531725609,-0.02197598827786118,0.0003419152478044076,-0.0047817969490766155,0.016083121253530484
167,9.0,299.84516,85.863415,0.0016699969482056876,0.0,0.0,0.0,0.0,0.0002548651463998852,-0.022376532121891776,-0.016241791152939982,0.012517988617679289,0.014077304527821789,0.013819211488849986,0.0017234400335152885
168,9.0,299.89822999999996,-82.759764,0.0016800066229030186,0.0,0.0,0.0,0.0,0.0002563927642856012,0.00046884883685677757,0.0038617673781517667,0.02082628581339438,0.009634444600795652,0.014354490238427886,0.01042778031764179
169,9.0,300.64193,-43.552431,0.0016899832623704647,0.0,0.0,0.0,0.0,0.0002579153405281309,0.02098306397486718,-0.005706016106514945,-0.002038195841929268,0.006230209089398764,0.009548606713274111,-0.005425370552117385
170,9.0,300.31504,180.86446,0.0016999929370680178,0.0,0.0,0.0,0.0,0.00025944295841387466,0.014002942102982788,-0.026776461250130976,-0.04220476050728556,-0.017118449059959382,-0.0095167459758047,0.009379078420492971
171,9.0,300.09182999999996,138.25508,0.0017100026117655709,0.0,0.0,0.0,0.0,0.0002609705762996184,0.01122250175532469,-0.013862275631350087,-0.039386317201376864,-0.00943175232826648,0.0012764280332736389,0.012791573237429988
172,9.0,300.12142,-140.11273,0.001720012286462902,0.0,0.0,0.0,0.0,0.0002624981941853066,0.03231935675617217,0.0032645447996104866,0.007006870863924312,-0.019329326327655983,-0.013675662320682786,-0.006117324516957925
173,9.0,299.7372,-2.5502860000000003,0.001729988925930348,0.0,0.0,0.0,0.0,0.00026402077042783634,-0.005199497245125425,-0.008570104809553492,0.014544825216712486,2.4989328214004678e-05,-0.012745011355584687,0.006143660204282055
174,9.0,299.38971000000004,190.63103999999998,0.001739998600627679,0.0,0.0,0.0,0.0,0.0002655483883135801,-0.03341742804854336,-0.02490228901716458,0.00037263990899669564,-0.003880804017055536,-0.013073473600751387,-0.015175761868481085
175,9.0,299.61679,108.55315,0.0017500082753252322,0.0,0.0,0.0,0.0,0.00026707600619929606,0.024260574424082276,-0.03779269365609846,-0.019465327795828283,0.015170456490957487,-0.003461912240214137,0.012789902388015088
176,9.0,299.99962,-54.094167000000006,0.0017599849147924562,0.0,0.0,0.0,0.0,0.00026859858244182577,0.035035643173748764,-0.006086872906402584,-0.012505494230696187,0.014118302653367987,-0.0044639253966051355,0.011612756044589789
177,9.0,300.17703,-64.232371,0.0017699945894900093,0.0,0.0,0.0,0.0,0.0002701262003275695,0.026731319944925874,-7.618882232975133e-05,-0.0071300942350855144,0.006548097157846875,0.008688342382272632,0.044327597487043256
178,9.0,300.08086000000003,-90.186908,0.0017800042641875624,0.0,0.0,0.0,0.0,0.0002716538182132855,0.009570948270029052,0.006841814145159483,0.011001805751043689,-0.009609274556386561,0.008609582148024602,-0.013155517474598486
179,9.0,300.32608,94.746375,0.0017900139388848935,0.0,0.0,0.0,0.0,0.0002731814360990015,-0.015882098513191084,-0.005611596699921475,-0.007306837172553682,-0.012104913909661988,0.016348856224756486,0.0075372016092888836
180,9.0,300.20215,224.63076,0.0017999905783523396,0.0,0.0,0.0,0.0,0.0002747040123415312,-0.02079772127982528,-0.036444929168084464,-0.01103949257526309,-0.014152326578475885,0.013173322305355688,-0.016024165296461983
181,9.0,300.1457,10.179483,0.0018100002530498926,0.0,0.0,0.0,0.0,0.0002762316302272749,0.03299624632647597,-0.015656462914672587,-0.020434092163437882,-0.011283193409814488,0.01015412173063379,-0.0055106691879357045
182,9.0,299.86402000000004,-151.57311,0.0018200099277474457,0.0,0.0,0.0,0.0,0.00027775924811301866,0.04542001889685686,0.001097526062492389,-0.0004431035804984186,0.010896307163881791,0.003006591487827477,0.0008887964203023772
183,9.0,299.44372999999996,11.368514999999999,0.0018299865672146698,0.0,0.0,0.0,0.0,0.0002792818243555206,0.028387671777395075,-0.015712800633482685,-0.016130615325467786,0.01076210522788709,-0.0036934953128446063,0.012758895921704988
184,9.0,299.6109,125.8165,0.0018399962419122229,0.0,0.0,0.0,0.0,0.00028080944224126436,-0.009430463271489262,-0.017764816497500883,-0.011049795302279888,0.030018876768882475,-0.004387506985988225,0.023206197515773377
185,9.0,299.91931,4.2201938,0.001850005916609776,0.0,0.0,0.0,0.0,0.00028233706012698034,-0.006014380738598164,-0.015831732890470386,0.02056328053793778,0.013186169303373588,-0.014550514616023986,0.01035705140766139
186,9.0,300.03707,0.13155588,0.001860015591307107,0.0,0.0,0.0,0.0,0.0002838646780126963,-0.00048229162593347745,-0.01107443754471189,0.011516739451863689,0.004335124083643436,-0.003185005680010587,0.007787244882841233
187,9.0,300.38321,76.380399,0.0018699922307745531,0.0,0.0,0.0,0.0,0.00028538725425522604,0.03046890268154657,-0.02232459089526558,-0.03136204515444287,-0.019494369570194483,-0.020045608022097483,0.007643239448154003
188,9.0,300.39099999999996,62.70994399999999,0.0018800019054721062,0.0,0.0,0.0,0.0,0.0002869148721409698,0.00927957989512323,-0.007044188763782305,-0.021297648746664278,-0.02107650589908918,0.003076210078348297,0.022225964170281876
189,9.0,300.45301,134.34775,0.0018900115801696593,0.0,0.0,0.0,0.0,0.0002884424900267135,0.0028180318250430876,-0.016135013844151884,-0.027521379418898675,-0.009028780635671271,0.004951479863823016,0.011923789374786387
190,9.0,300.41139,75.298355,0.0018999882196368834,0.0,0.0,0.0,0.0,0.0002899650662692155,-0.004468352286292036,-0.008708663315678152,-0.00971180421943045,0.0054423857570716555,0.01144280563181699,0.0061125926389909244
191,9.0,300.02795,-133.96677,0.0019099978943344365,0.0,0.0,0.0,0.0,0.0002914926841549592,0.001162291489009239,-0.00026780623681541774,0.039828066887224164,0.0020224111278964382,0.01056087781102749,-0.011735329922436888
192,9.0,299.39784,-12.24195,0.0019200075690319895,0.0,0.0,0.0,0.0,0.0002930203020406752,0.03730824257128686,-0.016441957696944884,-0.017145037755833484,0.008268637168250952,-0.0027719775814978877,-0.0008366578226891983
193,9.0,300.29481,148.51019,0.0019299842084994356,0.0,0.0,0.0,0.0,0.00029454287828323267,0.007815966470175831,-0.02937527854386427,-0.023584077994817276,0.007026011360963333,-0.0038762809699341466,-0.0020352743379159384
194,9.0,299.85105,-61.490697999999995,0.0019399938831967667,0.0,0.0,0.0,0.0,0.0002960704961689209,0.03293288678447287,-0.006260581463796284,-0.007980668551405662,-0.007573118285583583,0.004452194493572386,0.022343993621430476
195,9.0,300.13684,-195.95848999999998,0.0019500035578945418,0.0,0.0,0.0,0.0,0.0002975981140546924,0.029999813481501072,6.709754827826243e-05,0.02949957596013147,0.009647756680609451,-0.013595686490289787,0.006496606016915093
196,9.0,299.57572000000005,13.216635,0.001960013232591873,0.0,0.0,0.0,0.0,0.00029912573194040837,0.010449480081783391,-0.02742548745593487,0.012958479846902387,-0.009246679157751181,0.0005410170078092216,0.030038811451349873
197,9.0,299.52654,100.77031,0.001969989872059319,0.0,0.0,0.0,0.0,0.0003006483081829381,-0.016139487343343382,-0.008637819503136412,-0.005854351969479555,0.014036256753020688,-0.007053100906361864,-0.0014400954848263585
198,9.0,299.60002000000003,193.56159,0.001979999546756872,0.0,0.0,0.0,0.0,0.0003021759260686818,0.02004517739080498,-0.04193745803815486,-0.03694560947974777,0.006294396963358614,0.0028869695114967075,0.005032123426031915
199,9.0,299.93076,66.94731999999999,0.001990009221454203,0.0,0.0,0.0,0.0,0.00030370354395437005,0.014779357151108985,-0.012827931690768289,-0.022301739065760277,0.014606711493070185,9.521873325285731e-05,-0.00948381676610484
200,9.0,299.75513,-125.03872,0.001999985860921649,0.0,0.0,0.0,0.0,0.0003052261201969275,0.022477315043088277,0.017332674449101783,-0.0018013420449286182,0.0004983413757949645,0.008720121553108992,0.014487958581350185
201,9.0,300.47859,-122.24763999999999,0.0020099955356189803,0.0,0.0,0.0,0.0,0.00030675373808261575,0.01984209167326198,-0.006827513538548123,0.024145652610990376,0.011575007412114289,0.003446168968110397,-0.004964876448695155
202,9.0,300.67335,54.63861,0.0020200052103167554,0.0,0.0,0.0,0.0,0.00030828135596838724,-0.03034839178090307,-0.005662329625803425,0.01940194798882318,-0.007486540928139062,0.013048611483047687,0.015281915015207587
203,9.0,300.216,-32.359906,0.0020300148850140864,0.0,0.0,0.0,0.0,0.0003098089738541032,0.008512462227264612,-0.01166514918076059,0.012989290755943189,-0.0015055660320877984,-0.008306118100050032,-0.003360505258281047
204,9.0,300.16483999999997,-198.87452,0.0020399915244815325,0.0,0.0,0.0,0.0,0.00031133155009663294,0.06088650451053014,-0.0077573293829138025,0.007323712852969182,-0.018107964789616984,-0.012879033946311687,0.0035045292354451063
205,9.0,299.89655,-78.772318,0.0020500011991790856,0.0,0.0,0.0,0.0,0.0003128591679823767,0.036483562367897265,-0.005691001462558114,-0.0068477426714945834,-0.0015898561800815885,-0.01907558418461358,0.006679630598378213
206,9.0,300.34031,182.71416000000002,0.0020600108738764167,0.0,0.0,0.0,0.0,0.00031438678586809266,-0.008571430242009303,-0.021540266416858776,-0.025428845709881676,-0.007611915733237593,0.003430101151999627,0.008973859947126022
207,9.0,299.5164,137.30407,0.0020699875133436407,0.0,0.0,0.0,0.0,0.00031590936211062237,-0.0043966601807665755,-0.03843353888059497,0.001093191783864629,0.017339884736813384,-0.006540521390824203,0.004323739610819876
208,9.0,299.58017,-52.823193999999994,0.002079997188041194,0.0,0.0,0.0,0.0,0.00031743697999633835,-0.009674143537063631,0.002548787360770728,0.02318228785316368,-0.00039311112765704756,0.006371818998199574,0.007874030463181303
209,9.0,299.76912999999996,-45.8912,0.002090006862738747,0.0,0.0,0.0,0.0,0.0003189645978820821,0.03684613365118026,-0.025570053257067776,0.0026736980973234574,0.0016870628350501387,0.0015785697898677083,-0.006747102415912164
210,9.0,300.12504,-123.22165,0.002099983502206193,0.0,0.0,0.0,0.0,0.0003204871741246118,0.04243769150652406,-0.0018660375571885684,-0.003115347876710897,-0.00901289530590351,0.006790671055637055,-0.004906428737876815
211,9.0,300.23508,-116.47668999999999,0.002109993176903524,0.0,0.0,0.0,0.0,0.0003220147920103278,0.04456542045776455,-0.006057501116478813,-0.003101912889659967,-0.013124369153274387,-0.0024257119241241276,-0.006933822320489984
212,9.0,299.95412999999996,-99.759157,0.002120002851601077,0.0,0.0,0.0,0.0,0.0003235424098960715,0.017627539347452682,0.004356087113637326,0.008340666584734702,-0.0068448378861079035,0.011253900349423489,-0.0035640576788201063
213,9.0,299.61936000000003,-101.35975,0.0021300125262986302,0.0,0.0,0.0,0.0,0.0003250700277817875,0.01162458067325679,0.008614057673716303,0.010572192774894188,0.003978118076534687,-0.0017160899172898884,0.011348034323463789
214,9.0,300.10079,29.16108,0.0021399891657658543,0.0,0.0,0.0,0.0,0.0003265926040243172,-0.018896754661214484,-0.010629331974533389,0.020661846467915482,0.005697953168844194,0.02130638498902648,0.0035898588767164868
215,9.0,299.66476,207.84418,0.0021499988404634074,0.0,0.0,0.0,0.0,0.0003281202219100332,0.0050954122431780356,-0.02677199180393987,-0.04150286189801356,-0.0024402973553385976,-0.00891536410692793,0.012393761115668988
216,9.0,299.77777000000003,149.78746,0.0021600085151609605,0.0,0.0,0.0,0.0,0.00032964783979577694,0.017626471381847284,-0.024745001190891475,-0.038413116824829466,0.006940320192056273,-0.003909557116468247,0.02068697709689568
217,9.0,300.04507,-54.815887,0.0021699851546284066,0.0,0.0,0.0,0.0,0.00033117041603830666,0.03860406177967426,-0.003159541286447447,-0.018781860205875283,-0.00866505100487395,-0.009698524664944861,0.02011288174923688
218,9.0,299.81346,-79.804693,0.0021799948293257376,0.0,0.0,0.0,0.0,0.00033269803392402264,0.028857860353799072,0.0025846962350396575,-0.007183922538697952,-0.003050096698096107,-0.0029110612551493773,0.016321314060538286
219,9.0,300.07017,-9.881862199999999,0.0021900045040232907,0.0,0.0,0.0,0.0,0.0003342256518097664,-0.007811749323259632,-0.010327798877274391,0.02114338749843988,-0.008087217878921263,-0.01860981945814618,0.00972076813909012
220,9.0,300.38239,-26.175022,0.002200014178720844,0.0,0.0,0.0,0.0,0.00033575326969548236,-0.014675645937123484,0.010314189915181292,0.012318009524942887,-0.004174476218713726,0.005695966894673165,0.0007479376743307014
221,9.0,300.13535,-76.414338,0.00220999081818829,0.0,0.0,0.0,0.0,0.00033727584593803983,0.02999830171235187,-0.014296892036493385,0.007526640908796622,0.006858367206743143,-0.0008975647826927472,-0.021801867327676777
222,9.0,300.91988,-12.37735,0.002220000492885621,0.0,0.0,0.0,0.0,0.00033880346382372806,0.03043791546698837,-0.013988610693568385,-0.012686900449099588,-0.0017893619836962785,0.006702876987472453,-0.0003290148717712397
223,9.0,300.31332000000003,29.408408,0.002230010167583174,0.0,0.0,0.0,0.0,0.0003403310817094718,0.02247350319621208,-0.013909889266799187,-0.017503035228165084,-0.005098692944351816,0.008085775112103873,-0.016442331586231783
224,9.0,299.74651,88.84203000000001,0.00223998680705062,0.0,0.0,0.0,0.0,0.0003418536579520015,0.02108030963996458,-0.023389454942109478,-0.024696614445616077,-0.008311482854029493,-0.002043226730000778,0.01859338454152418
225,9.0,299.57077000000004,72.550398,0.002249996481747951,0.0,0.0,0.0,0.0,0.0003433812758377175,-0.011907720241450488,-0.011233006119111388,0.0010872167493499389,0.0014496134496407086,-0.006590941627725295,0.0028345091968442777
226,9.0,299.10573999999997,-84.638231,0.0022600061564455043,0.0,0.0,0.0,0.0,0.00034490889372346123,0.02334168526614498,-0.00957486742009084,0.011961091163967789,-0.008392229666423582,-0.0026868043860419476,0.016241724278433383
227,9.0,300.02381,-173.02142,0.0022699827959129504,0.0,0.0,0.0,0.0,0.00034643146996599095,0.056337783658106357,-0.015377102769351884,0.01163350943313799,-0.0006747364847688064,-0.014152641699256988,-0.014694228943957485
228,9.0,300.02018,-33.388242,0.0022799924706105035,0.0,0.0,0.0,0.0,0.0003479590878517347,0.03644182862277846,-0.005539597883590744,-0.02075303897691548,-0.010422831604153391,-0.014137627359275184,0.02032707268787588
229,9.0,299.72317000000004,26.796082000000002,0.0022900021453078345,0.0,0.0,0.0,0.0,0.0003494867057374229,0.022754501766944477,-0.011478334233323388,-0.019421507768753583,0.017379010376174783,0.002129752614340218,-0.006553436783223854
230,9.0,299.58562,-26.063272,0.0023000118200053876,0.0,0.0,0.0,0.0,0.00035101432362316665,0.01875808935852928,-0.012557872168115488,0.0017223656844342586,0.006163680607707915,0.008380214344087762,0.01000009596173263
231,9.0,299.75104,-91.691002,0.0023099884594728337,0.0,0.0,0.0,0.0,0.00035253689986569636,-0.008433602593181773,0.0049346913229161155,0.03137068615129567,0.01831882618842738,0.008254850380765302,-0.008620314898383842
232,9.0,300.33136,46.423126,0.002319998134170387,0.0,0.0,0.0,0.0,0.0003540645177514401,-0.005251268853684885,-0.006152648948569175,-0.0027075533162897077,-0.0013299367578045388,0.002781444073207157,0.006619491975792994
233,9.0,300.67262,50.540813,0.002330007808867718,0.0,0.0,0.0,0.0,0.0003555921356371561,0.005892697102288925,-0.009310966735520872,-0.011944875109367387,0.0041173878842295465,-0.001811622075143178,-0.01086707185874649
234,9.0,300.51687999999996,56.283025,0.002339984448335164,0.0,0.0,0.0,0.0,0.00035711471187971355,0.02118832210062458,-0.015289335045689885,-0.023007620761175376,-0.016274963947963884,0.003255312368674317,0.008253936429175102
235,9.0,300.40041,-24.960603,0.002349994123032717,0.0,0.0,0.0,0.0,0.00035864232976542954,0.02728936135800027,-0.0017179459888230686,-0.01798401593138418,-0.015113094376296285,-0.013645761310231787,0.02086090654281118
236,9.0,300.1022,-111.19233999999999,0.002360003797730048,0.0,0.0,0.0,0.0,0.00036016994765111776,0.025677073745879873,0.003975804826556387,0.0041468156055588365,-0.011283640253108589,-0.02277446786016498,0.016654503117421487
237,9.0,300.34531,4.0759502,0.002370013472427601,0.0,0.0,0.0,0.0,0.0003616975655368615,0.0061601840842628345,-0.00970578966816186,0.0023066185603705276,-0.004440170153310675,-0.004271943177632965,0.025170981665432475
238,9.0,300.09016,113.44578,0.0023799901118950473,0.0,0.0,0.0,0.0,0.0003632201417793912,0.006888715060488243,-0.02085299204628008,-0.02052040587320638,0.015250073630815087,-0.000923785030432984,0.001188782203598669
239,9.0,299.39094,-8.445241900000001,0.0023899997865923783,0.0,0.0,0.0,0.0,0.00036474775966513495,0.02945488352472067,-0.027693642068399676,0.0008059010819987442,0.013192050206953987,0.003469726424985337,0.00023276942637755378
240,9.0,299.71243,-131.68332,0.0024000094612899314,0.0,0.0,0.0,0.0,0.00036627537755085093,0.03903811481776197,0.0032581022514996563,-0.002267775719112038,0.004410931808425076,-0.0004318599899687626,-0.015504937441718184
241,9.0,299.89752000000004,-18.562262,0.0024099861007573775,0.0,0.0,0.0,0.0,0.0003677979537934084,0.03214082614155257,-0.005261166483311705,-0.021237195205947978,-0.004323443032515605,0.00914077182549894,0.0006955930424421883
242,9.0,300.1622,-69.314116,0.0024199957754547086,0.0,0.0,0.0,0.0,0.0003693255716791244,0.0026373157312827972,-6.869991515865373e-05,0.018501144331920783,-0.0027696130610645273,0.006188202374703024,-0.023618459597210477
243,9.0,300.5208,-187.23219,0.0024300054501522617,0.0,0.0,0.0,0.0,0.00037085318956484037,0.030199973946005373,0.005179007808228275,0.02153492760208188,-0.012750268097103489,-5.879924983453415e-05,-0.002289153067071818
244,9.0,300.22687,-188.88162,0.0024400151248495927,0.0,0.0,0.0,0.0,0.00037238080745055635,0.027142747108280574,0.006481082012132993,0.023791466985534977,0.0006214705450943674,-0.017206706183419684,-0.010618274376192088
245,9.0,299.9945,-2.3851726,0.002449991764317261,0.0,0.0,0.0,0.0,0.0003739033836931138,0.025204636767503976,-0.00943565952197709,-0.015043944109971686,-0.01083221909505679,0.005612108492546985,0.012701083923999388
246,9.0,300.55852999999996,107.24265,0.002460001439014592,0.0,0.0,0.0,0.0,0.0003754310015788298,0.017259389109119085,-0.02022201587775758,-0.02963646199564107,0.006839026288834343,0.003387259113921447,0.00028889883109959474
247,9.0,300.76107,88.554259,0.002470011113711923,0.0,0.0,0.0,0.0,0.0003769586194645458,0.03216564164975167,-0.028896956608907575,-0.030186967867721768,-0.005964269239002545,0.002417375712901408,0.02925506452550007
248,9.0,300.995,-123.82082,0.002479987753179591,0.0,0.0,0.0,0.0,0.00037848119570710326,0.017805777132793382,0.012071271979841789,0.0077613895773895126,0.007897621255984533,0.0003955376184665236,0.009154642611417881
249,9.0,300.47276,-205.21031000000002,0.002489997427876922,0.0,0.0,0.0,0.0,0.0003800088135927915,0.041996288352210955,0.0016143298176969486,0.01876819247527638,-0.01024418547902239,0.006382384562292313,0.016182304252819087
250,9.0,300.34833,-75.90247099999999,0.0025000071025744752,0.0,0.0,0.0,0.0,0.0003815364314785352,0.019676112187631083,-0.012748149391144386,0.016144493812087487,-0.0006510177387429484,0.005717386292512094,-0.017192753729542685
251,9.0,299.30478,39.959088,0.0025099837420419213,0.0,0.0,0.0,0.0,0.00038305900772106494,0.016984820623521284,-0.005494980428687344,-0.02363640526973158,-0.017350650519125883,-0.01018764814994259,0.005096562889991595
252,9.0,299.60695,-116.3152,0.0025199934167394744,0.0,0.0,0.0,0.0,0.0003845866256068087,0.025913546054217876,0.0013105488250910989,0.008132820212921861,0.008959904554823732,-0.012644790788193689,-0.016333145781955986
253,9.0,299.77959,-207.64344,0.0025300030914368055,0.0,0.0,0.0,0.0,0.00038611424349252466,0.047405700316578356,0.019298217523085782,-0.0035854965310609566,0.005753046819181515,-0.005719518373372514,-0.003357286061388337
254,9.0,300.16274,-76.210383,0.0025400127661343586,0.0,0.0,0.0,0.0,0.0003876418613782684,0.00945993294137269,0.008189963364236452,0.005516157153127325,0.012360371485123688,-0.006942645195735733,-0.0007803059589077022
255,9.0,300.2066,44.424935,0.0025499894056018046,0.0,0.0,0.0,0.0,0.0003891644376207981,0.015061964763000184,-0.01924527419211068,-0.009320762026887591,-0.004713304180741905,-0.0034946855107236066,0.008358965172265634
256,9.0,300.35913,13.636080999999999,0.0025599990802993577,0.0,0.0,0.0,0.0,0.00039069205550654185,0.013285191195896287,-0.006108632553625094,-0.01132158646935359,-0.004758809040082886,-0.018365563362539986,0.02176860435339398
257,9.0,300.50026,-63.616204,0.002570008754996689,0.0,0.0,0.0,0.0,0.00039221967339223007,0.029880741395999572,-0.0013156172034163088,-0.009227386369222133,-0.007960987586763302,0.008318909571962452,0.005220178692916525
258,9.0,300.44991,-115.73008,0.002579985394464357,0.0,0.0,0.0,0.0,0.00039374224963478754,0.04897313843952245,-0.016725985885476285,0.0029319027964562774,-0.03209726449325337,0.0008612566473544133,0.002397888785653198
259,9.0,300.02862999999996,-175.46787,0.002589995069161688,0.0,0.0,0.0,0.0,0.0003952698675205035,0.044461435666252054,0.0038025521303826763,0.005073863453301335,-0.015812925955364286,-0.0027314917552022475,-0.006234705285392504
260,9.0,299.61036,-109.0883,0.002600004743859019,0.0,0.0,0.0,0.0,0.0003967974854062195,0.019254790637049882,-0.004985483321278896,0.018890811949377983,-0.008103690893747023,-0.005659482089047395,0.0066422201887860926
261,9.0,299.66809,-130.3256,0.002610014418556572,0.0,0.0,0.0,0.0,0.00039832510329196325,0.025011215429414774,0.010454354828014491,0.004150155885838496,0.024013832825980776,0.012572124544022088,-0.004422989180640046
262,9.0,299.3854,-196.41853,0.002619991058024018,0.0,0.0,0.0,0.0,0.00039984767953449296,0.02889131483235077,0.02297227961093748,0.007842734308667613,0.018167466888489383,-0.012470894779531488,0.00025644518020166875
263,9.0,300.15577,-123.94452,0.0026300007327215713,0.0,0.0,0.0,0.0,0.00040137529742020894,0.02756591986679447,0.012349418251542687,-0.002239299338301638,-0.005686922016330505,-0.0061054737464383444,0.002383028054386558
264,9.0,300.08932999999996,-10.214642999999999,0.0026400104074189024,0.0,0.0,0.0,0.0,0.0004029029153059249,0.025626921918930276,0.0034696832605310766,-0.025991607855171975,-0.0007236798691191422,-0.005079376749745456,0.016929361392547883
265,9.0,300.0092,-22.003221,0.0026499870468865705,0.0,0.0,0.0,0.0,0.0004044254915484824,0.005770811829209785,0.00010353979233358191,0.0008140781521607583,-0.0033441446128913764,0.01979021428139208,-0.001963010252709028
266,9.0,299.98659,-95.250217,0.0026599967215839015,0.0,0.0,0.0,0.0,0.0004059531094341984,0.014014633995886688,-0.0027003271205515373,0.01763938120137138,-0.008060372729446852,0.011233934256202989,0.011268280394842688
267,9.0,299.75196,-167.54363999999998,0.0026700063962814546,0.0,0.0,0.0,0.0,0.0004074807273199421,0.03402738434374137,0.0037985004472078066,0.013103198305684988,-0.02628467322134527,-0.011916370357554188,0.0006388981327068363
268,9.0,299.59541,-125.66801000000001,0.0026799830357486787,0.0,0.0,0.0,0.0,0.00040900330356247183,0.056668302800976046,-0.02477061311366918,0.006302248739708524,0.002859983013633347,-0.012885851092984488,0.00931446366426599
269,9.0,300.64366,-15.508799,0.0026899927104462318,0.0,0.0,0.0,0.0,0.00041053092144821557,0.030603675077347573,-0.010672828774826188,-0.015216559370507485,0.005996977458855594,0.004543123354896365,0.0034443358973544865
270,9.0,300.55611,-32.299622,0.002700002385143785,0.0,0.0,0.0,0.0,0.0004120585393339038,0.037777427016841766,-0.013037132372664788,-0.014922015672438286,0.03330152946235507,-0.01036653846834769,-0.006132402590371015
271,9.0,300.6873,-254.00954,0.002710012059841116,0.0,0.0,0.0,0.0,0.0004135861572196198,0.03981373953081017,0.016747824464881586,0.02065099253284428,0.004654216095860366,0.0068453231315807935,-0.004609040846776915
272,9.0,300.7624,-169.67778,0.002719988699308562,0.0,0.0,0.0,0.0,0.00041510873346217725,0.035378551325591166,0.001858145757459708,0.014341112297357588,0.007006879983175212,0.0028100091134013075,0.007319498948453303
273,9.0,300.3428,88.67819899999999,0.002729998374005893,0.0,0.0,0.0,0.0,0.00041663635134789323,0.0026853917127525277,-0.009634562543107291,-0.02000678737101618,-0.008345450543756842,0.024692716472481377,0.012118468156249689
274,9.0,300.50473,123.83299,0.002740008048703446,0.0,0.0,0.0,0.0,0.00041816396923363697,-0.014506307527411087,-0.006044856059205845,-0.017090973770247785,-0.022449929932635577,0.0044321874650478455,0.0049736462296356655
275,9.0,300.1268,-78.018724,0.0027499846881708923,0.0,0.0,0.0,0.0,0.0004196865454761667,0.03286510744553357,0.003271980332819317,-0.012421343809891187,-0.029182486434087176,-0.0009720161708905271,0.01874891944512428
276,9.0,300.08814,-180.02617,0.0027599943628684454,0.0,0.0,0.0,0.0,0.0004212141633619104,0.04487297226061755,-0.003846792858898897,0.013697282038066486,-0.014328338253346885,-0.00015378165668706787,-0.0016701040681264385
277,9.0,299.81019,-38.903486,0.0027700040375657764,0.0,0.0,0.0,0.0,0.00042274178124759865,0.02737281668923668,-0.009880015996356661,-0.005667112267600434,0.018389637171665883,0.024028402349168677,0.022684164984752776
278,9.0,299.94655,90.302216,0.0027800137122633295,0.0,0.0,0.0,0.0,0.0004242693991333424,-0.0024848039606810575,-0.03122890814430327,0.006264093287317874,0.022314561745775778,-0.004304290477800396,-0.008469640048888392
279,9.0,299.39032000000003,15.132431,0.0027899903517307756,0.0,0.0,0.0,0.0,0.0004257919753758721,0.017364198686212983,-0.015855070066773586,-0.006109009381337284,0.01073680943914059,-0.027896098557630575,0.02214176815322238
280,9.0,300.04900000000004,-255.42333,0.0028000000264283287,0.0,0.0,0.0,0.0,0.00042731959326161584,0.046131586951833156,0.00019104529700220285,0.03131968218101197,0.008124330899609032,-0.02065865675660068,-0.006227246042131334
281,9.0,300.04806,-246.64825,0.0028100097011256597,0.0,0.0,0.0,0.0,0.0004288472111473318,0.07667613888584572,-0.011169817816375188,0.009468587718426852,-0.0013202963923781086,0.004904062292268265,0.012647211442682589
282,9.0,300.40437000000003,-15.795785,0.002819986340593106,0.0,0.0,0.0,0.0,0.00043036978738986154,0.019415509328161582,-0.008322432237260112,-0.006291552972977934,0.002890224881417987,0.005646115395053204,-0.014146140686615386
283,9.0,300.73116,136.12096,0.002829996015290659,0.0,0.0,0.0,0.0,0.00043189740527560527,0.0053227705695165555,-0.01886800672937728,-0.027832137145068072,-0.014202315272159384,-0.0018359727041963982,0.016289649994913287
284,9.0,300.43067,-96.809267,0.00284000568998799,0.0,0.0,0.0,0.0,0.0004334250231612935,0.023522533183743276,-0.01206199972817669,0.01796706628371138,0.003383749620875087,-3.715912255406986e-06,-0.01686841439903288
285,9.0,300.22491,-91.718775,0.002849982329455436,0.0,0.0,0.0,0.0,0.00043494759940385097,0.034632437521705466,-0.013442568188178189,0.006690348251310963,0.015896546446366983,0.007528333441763663,0.014466169651199786
286,9.0,299.9535,52.261779,0.002859992004152989,0.0,0.0,0.0,0.0,0.00043647521728956695,0.01127633978613809,-0.02347980037402588,-0.003682815555465596,0.01059766385590799,-0.0034143386281439867,-0.012370142255837989
287,9.0,299.79296,117.81075,0.0028700016788505422,0.0,0.0,0.0,0.0,0.0004380028351753107,0.03676453662062726,-0.03049197945257407,-0.04208408242037556,0.007537592622502472,-0.015590222702635185,0.013767036201450688
288,9.0,299.58959,-93.321702,0.0028800113535478733,0.0,0.0,0.0,0.0,0.00043953045306102667,0.041332360277186356,-0.00932966717804146,-0.003635226339343907,-0.0066414778817628336,-0.010687772187300989,0.002791900814239157
289,9.0,300.01356,-292.64449,0.0028899879930153194,0.0,0.0,0.0,0.0,0.0004410530293035564,0.07941561353196083,-0.008293026300807972,0.017834030598581786,-0.004357142109641447,0.008704943269261013,0.01210532022295209
290,9.0,300.1468,-233.41333999999998,0.0028999976677128725,0.0,0.0,0.0,0.0,0.0004425806471893001,0.04176287605917496,0.004677800505187965,0.024511151173812275,-0.015518037752261087,-0.006783743262053333,0.01092672999813429
291,9.0,299.7333,-96.992926,0.0029100073424104256,0.0,0.0,0.0,0.0,0.0004441082650750161,0.013471559300039387,0.010948632412295888,0.005063235878302475,-0.01047868194966539,-0.006786431617218654,0.015289896386245285
292,9.0,299.33291,-66.012857,0.0029199839818776496,0.0,0.0,0.0,0.0,0.0004456308413175458,0.012750495065125886,0.0014233320725219388,0.005892433454612905,0.0015066853694732684,0.007419903015437414,0.018282254952568085
293,9.0,299.46271,-173.70081000000002,0.0029299936565754248,0.0,0.0,0.0,0.0,0.00044715845920328956,0.055744396028543544,0.004923278276439735,-0.007866966387459132,0.01981944452027688,0.014419124449056785,0.0014122925100324187
294,9.0,298.98802,-197.18367,0.002940003331272756,0.0,0.0,0.0,0.0,0.00044868607708900554,0.041933252036989756,0.0062052997542404046,0.01180035930060479,0.0037071942515465865,0.00977407147782575,0.005724019331641725
295,9.0,300.05786,96.08986,0.002950013005970087,0.0,0.0,0.0,0.0,0.0004502136949747215,-0.003213696464542147,-0.013063427226009885,-0.012931794892268788,-0.01059373751177049,-0.0015558120912966987,0.00046004753370565654
296,9.0,300.47587999999996,82.04584100000001,0.002959989645437755,0.0,0.0,0.0,0.0,0.000451736271217279,-0.0028252989560852973,-0.012837524129464989,-0.00927706409644994,-0.0061093435512202645,0.0002972732519835857,0.015774262358048484
297,9.0,299.73732,-253.51407000000003,0.002969999320135086,0.0,0.0,0.0,0.0,0.000453263889102995,0.03515919281144217,0.008549934141137801,0.03335282018241707,-0.007946959747078862,0.00035862413712094664,-0.0006489322673871285
298,9.0,300.12302,-296.33439,0.002980008994832639,0.0,0.0,0.0,0.0,0.00045479150698871096,0.07278426045049723,0.006311132308635265,0.01098286405367429,-0.01874321180731098,-0.004996574559523515,-0.0018072930654159385
299,9.0,300.82962000000003,-190.75857,0.002989985634299863,0.0,0.0,0.0,0.0,0.0004563140832312407,0.06352224058490703,-0.00980551120987861,0.004269112460828596,-0.007970952192221733,-0.01267077660025829,-0.0008710444305378923
300,9.0,300.02421,-122.30716000000001,0.0029999953089974163,0.0,0.0,0.0,0.0,0.0004578417011169844,0.05632350595094725,-0.013535032326053686,-0.005610151197328814,-0.003540573682577416,0.00969305524223007,-0.00046433432130122955
301,9.0,300.40291,-75.537098,0.0030100049836949694,0.0,0.0,0.0,0.0,0.0004593693190027004,0.03205039964962817,-0.01023398407701559,0.001144976159375349,0.014657045705037787,0.010726464155619592,0.0007082208541984563
302,9.0,299.59566,-108.43866000000001,0.0030200146583925225,0.0,0.0,0.0,0.0,0.00046089693688844413,0.026572508190502372,-0.007319190920422903,0.013709327555255288,0.01692634190724988,0.013781887408166386,0.006039637111915775
303,9.0,299.66166,-195.54961,0.0030299912978597465,0.0,0.0,0.0,0.0,0.00046241951313097385,0.01051857968560299,0.023943909449829878,0.024979709430805377,0.018411132259287283,0.005717742855222285,0.008181104822587182
304,9.0,300.06755,-20.368099,0.0030400009725572996,0.0,0.0,0.0,0.0,0.0004639471310167176,0.017316409758496586,-0.004321692845617876,-0.006803322901685693,-0.0035188524375336966,0.014563100195516088,0.016199410954257382
305,9.0,300.25042,5.3565892999999996,0.0030500106472546307,0.0,0.0,0.0,0.0,0.0004654747489024058,0.024273007002809276,-0.01045795591886989,-0.015443319676636987,-0.01168503117422279,-0.0030581888173697373,0.004131766207123576
306,9.0,299.61409,-161.65157,0.0030599872867220768,0.0,0.0,0.0,0.0,0.0004669973251449633,0.03028035507643837,0.007554199082366403,0.01130348678281729,-0.017685263192399586,-0.0026516425810717476,0.014099504837512789
307,9.0,299.81322,-268.18097,0.00306999696141963,0.0,0.0,0.0,0.0,0.00046852494303067926,0.042260455825532256,0.012548367882177487,0.026711495706719376,-0.014301246985423184,-0.019305137008018683,-0.004136019324418326
308,9.0,299.90111,-181.80822,0.003080006636116961,0.0,0.0,0.0,0.0,0.00047005256091639525,0.014181997581154186,0.014489343694236885,0.026593819879855676,-0.005424155057297425,-0.00033967112174792966,0.02256235611073118
309,9.0,300.33126,-122.64248,0.003089983275584407,0.0,0.0,0.0,0.0,0.00047157513715892496,0.02540788156531268,-0.0009405584739133942,0.012812928496537588,0.00969851868676927,0.002830444341418107,-0.006217936300212535
310,9.0,300.11985,-191.32218,0.00309999295028196,0.0,0.0,0.0,0.0,0.0004731027550446687,0.06743957591576794,-0.001978800134317368,-0.007303609160385104,0.004785665943258455,0.0006851461704661624,0.002348040629758568
311,9.0,299.91265,-237.07942999999997,0.003110002624979513,0.0,0.0,0.0,0.0,0.00047463037293041244,0.059706386304561536,0.0016510562834715684,0.010708784967874791,0.01103159834373399,-0.007676446592356293,-0.005677699211270286
312,9.0,300.27816,-169.24084,0.0031200122996768442,0.0,0.0,0.0,0.0,0.00047615799081610066,0.02857402772253697,0.007414817006560462,0.015456146409652885,0.0003131095505790067,0.004043787220815726,0.018792347344410282
313,9.0,300.41352,-84.745832,0.0031299889391442903,0.0,0.0,0.0,0.0,0.00047768056705865813,0.028976570709014875,-0.013228955815346288,0.01001300182958134,0.008718823073105841,-0.005398346057375276,0.0026661721822057076
314,9.0,300.08918,-71.373286,0.0031399986138418434,0.0,0.0,0.0,0.0,0.0004792081849443741,0.013465970212487788,-0.007256475704158394,0.015486202447369184,-0.012739883296828588,-0.0049489170503450855,0.007230831560027513
315,9.0,299.93633,-124.5454,0.0031500082885393965,0.0,0.0,0.0,0.0,0.00048073580283011785,0.03748188628067416,-0.007864982849063371,0.008241788675051211,0.01088731963549479,-0.030078509577017767,0.010801526736277689
316,9.0,299.68253,-224.38245,0.0031599849280066206,0.0,0.0,0.0,0.0,0.0004822583790726198,0.05417229391538915,0.01036165865586609,0.0036727086896931266,0.003643225442258356,-0.002433505337268278,-0.005135205107730285
317,9.0,299.38727,-136.55517,0.0031699946027041737,0.0,0.0,0.0,0.0,0.00048378599695836355,0.05670683568902895,-0.01065336322715509,-0.004544109753868715,0.01730735738210318,-0.0035720079430797366,0.00881472851229597
318,9.0,299.69055,14.44178,0.0031800042774017268,0.0,0.0,0.0,0.0,0.0004853136148441073,0.020835147698768982,-0.02236362534211798,-0.0028614627640793874,0.0047554340053247955,0.0036477204223519764,-0.014201433744572386
319,9.0,300.63035,-78.548878,0.003190013952099058,0.0,0.0,0.0,0.0,0.0004868412327297955,0.02978072651837887,-0.0065299698095828435,0.0006261407465277804,0.006787712567995073,-0.010965161561177189,0.011369321694814688
320,9.0,299.88351,-300.42429,0.003199990591566504,0.0,0.0,0.0,0.0,0.000488363808972353,0.034993686513607965,0.01048998576778099,0.045837811297339756,0.00016514898531893587,0.012113357322745289,0.0021099969731654877
321,9.0,299.48747000000003,-261.60152999999997,0.003210000266264057,0.0,0.0,0.0,0.0,0.000489891426858069,0.05516607846771804,0.016935796543932985,0.007418456398269643,0.003768309444578187,0.002477605325345607,0.02772416926741247
322,9.0,300.14288,-115.17751000000001,0.00322000994096161,0.0,0.0,0.0,0.0,0.0004914190447438127,0.05016502959840295,-0.01124952716199189,-0.0039044153788357966,-0.003977320648705986,0.005487581372482115,0.006458065833461474
323,9.0,300.35895,-7.1888333,0.003229986580428834,0.0,0.0,0.0,0.0,0.0004929416209863147,0.034865295566936766,-0.027168403614062676,-0.005511666833984165,0.0037346367119549468,-0.008581812306508932,0.014279115576738987
324,9.0,300.3855,-88.032663,0.0032399962551263872,0.0,0.0,0.0,0.0,0.0004944692388720584,0.02357982133114718,0.004863073589947995,-0.0016831634433652981,0.01768846202296528,0.018726005807362882,0.014555895987305088
325,9.0,300.47159,-219.28149,0.0032500059298239403,0.0,0.0,0.0,0.0,0.0004959968567578021,0.033900625742981264,0.007234826805171813,0.025520644142441474,0.006483414007238144,0.004326439821011365,0.006772531345721804
326,9.0,299.74109,-192.2553,0.0032599825692913864,0.0,0.0,0.0,0.0,0.0004975194330003319,0.03443813870902967,0.014826021371214386,0.009176650302264873,-0.008480674443802403,-0.0015485009852001486,0.013165442259327986
327,9.0,300.29332,55.823418999999994,0.0032699922439887175,0.0,0.0,0.0,0.0,0.0004990470508860478,0.02996257856682627,-0.015668380762348787,-0.031263123573680066,-0.008783083394447841,-0.012890360055929488,-0.0021283108607729278
328,9.0,300.0,-12.560949,0.0032800019186862706,0.0,0.0,0.0,0.0,0.0005005746687717638,0.04498595673951826,-0.012456765006886987,-0.028710976579552773,-0.013264324323336886,-0.003405242681996287,0.01186421229540659
329,9.0,299.21623999999997,-374.63387,0.0032900115933838237,0.0,0.0,0.0,0.0,0.0005021022866575076,0.07216135481902124,0.025673293309756776,0.016044694756738087,-0.009890172511384032,-0.005613035717713494,-0.015084636233987687
330,9.0,299.52384,-421.4502,0.0032999882328512697,0.0,0.0,0.0,0.0,0.0005036248629000373,0.06240956126584415,0.014497608775302586,0.051203167147359153,-0.016385910780913483,-0.01167362501784709,-0.0024145307092706277
331,9.0,299.91544,-213.00159,0.003309997907548601,0.0,0.0,0.0,0.0,0.0005051524807857533,0.02349775212604758,-0.0013223029315511388,0.04257171409725106,0.0052113418348193954,-0.004891819292634976,-0.009678449444688592
332,9.0,299.60763,-124.22908000000001,0.003320007582246154,0.0,0.0,0.0,0.0,0.000506680098671497,0.022723884388672774,0.0014343803489623188,0.013604272771637187,0.004318335644061546,0.01010171511823666,0.02009709024642838
333,9.0,299.82133,-225.97749,0.003329984221713378,0.0,0.0,0.0,0.0,0.0005082026749140267,0.062392342093644734,-0.007877789519727292,0.014176960714907089,0.02979835909661907,0.01025470301506039,-0.007308637515331362
334,9.0,299.7989,-202.41333999999998,0.003339993896410931,0.0,0.0,0.0,0.0,0.0005097302927997149,0.06793374001603814,-0.0005435885251055105,-0.005861550402164985,0.007871633113444703,0.005416539368220814,0.008992012221342511
335,9.0,300.31536,-87.091241,0.003350003571108484,0.0,0.0,0.0,0.0,0.0005112579106854587,0.03310410274662057,-0.0090739779736069,0.002443437721373528,0.004107834455661696,0.004313203937605086,-0.0051271676026370455
336,9.0,300.23935,26.436144,0.003360013245805815,0.0,0.0,0.0,0.0,0.0005127855285712024,0.016532622302642783,-0.015323783522589686,-0.00924476705348747,-0.009151097451968002,0.0037361912402583664,0.009962280556075542
337,9.0,300.75,-82.171644,0.0033699898852732613,0.0,0.0,0.0,0.0,0.0005143081048137321,-0.009116160689845013,0.02134055279564858,0.012753735438945688,-0.024854463612444578,-0.010725551217279491,0.009307121451391372
338,9.0,300.65662000000003,-267.24728,0.0033799995599705923,0.0,0.0,0.0,0.0,0.0005158357226994481,0.05329599672540535,0.013043908989333589,0.014896595253929487,-0.025431833784426577,-0.01123386940819659,0.01089619367987059
339,9.0,300.54073999999997,-337.38849,0.0033900092346681454,0.0,0.0,0.0,0.0,0.0005173633405851918,0.07589140606764863,0.017463395871002985,0.00920287635592818,-0.012672440356922488,-0.0055313996770316445,0.00022926879926956877
340,9.0,299.61388999999997,-187.43385,0.0033999858741355915,0.0,0.0,0.0,0.0,0.0005188859168277216,0.06878047462110434,0.007328935042659573,-0.01913419968964848,0.005914518659092545,0.014251451822508787,0.008588716187390292
341,9.0,299.90538,-112.2511,0.0034099955488331446,0.0,0.0,0.0,0.0,0.0005204135347134653,0.025882024856856974,-0.008289015958237183,0.016528521679488085,0.01902652261477158,0.024607021858523974,-0.0013852119825597787
342,9.0,299.95556,-238.85682000000003,0.0034200052235304756,0.0,0.0,0.0,0.0,0.0005219411525991535,0.034406061237363866,0.01801457048814968,0.020185877299690982,0.016948276745414683,0.00953526231078212,0.0013148033609359888
343,9.0,300.34245,-334.19194,0.0034300148982280287,0.0,0.0,0.0,0.0,0.0005234687704848973,0.027657374807570374,0.021562263063279682,0.05236636508990785,0.007355002522682233,0.01035657720661459,0.005716998116398786
344,9.0,299.92689,-181.94603999999998,0.003439991537695475,0.0,0.0,0.0,0.0,0.000524991346727427,0.040626197911493564,0.004815151723818475,0.009865702521469032,-0.016535762364702684,-0.01926288245234848,0.021507216225096982
345,9.0,299.65047999999996,-64.550431,0.003450001212392806,0.0,0.0,0.0,0.0,0.000526518964613143,0.053611521793295244,0.0004330880288249605,-0.034422890308274764,-0.0030686705856792073,-0.013547347367769087,0.0024923961423553476
346,9.0,299.73627,-66.13176899999999,0.003460010887090359,0.0,0.0,0.0,0.0,0.0005280465824988867,0.04798096090185216,-0.007767220933040023,-0.020111333503084083,-0.007694058398969443,-0.021875709955214477,0.0074944127668409525
347,9.0,300.48782,-151.13138,0.003469987526557805,0.0,0.0,0.0,0.0,0.0005295691587414164,0.03954816363984986,0.008159365237716654,-0.0017673633107751783,-0.004095431362512606,0.008508117917460862,-0.004439904073834416
348,9.0,300.55978,-276.2509,0.003479997201255358,0.0,0.0,0.0,0.0,0.0005310967766271324,0.03490970429231957,0.015804410601523884,0.03325926274768367,0.004067667296522506,0.008062554560887182,0.003919696912868966
349,9.0,300.34537,-260.96161,0.003490006875952689,0.0,0.0,0.0,0.0,0.0005326243945128484,0.033780180703594266,0.004276146037722756,0.04126948810848136,-0.007759613856589263,0.016555830796183283,0.0002474607827574778
350,9.0,300.36031,-117.10128999999999,0.0034999835154203573,0.0,0.0,0.0,0.0,0.0005341469707554058,0.036435655903169266,0.00965053683623383,-0.010490325206564491,0.004115223683340956,-0.00954135690880861,0.004884934562180506
351,9.0,300.25399,-191.56445,0.0035099931901176884,0.0,0.0,0.0,0.0,0.0005356745886411218,0.07987057701236222,-0.01042785023189869,-0.01121191734478009,-0.002942121727689807,-0.0014114972100289285,0.0022939136200166477
352,9.0,300.06694,-455.97235,0.0035200028648152415,0.0,0.0,0.0,0.0,0.0005372022065268656,0.09733667522138191,0.027319709211745372,0.013947824337293087,0.016005823443151785,0.004950985904399265,0.005711195131751074
353,9.0,300.55962,-360.15262,0.0035300125395125725,0.0,0.0,0.0,0.0,0.0005387298244125815,0.07115929201337534,0.001961112739246758,0.036356998311156366,-0.001108935866568449,0.01308010430940579,0.006331772314497274
354,9.0,300.16535,-142.91608,0.0035399891789802407,0.0,0.0,0.0,0.0,0.000540252400655139,0.02123681321066028,0.0028066084434156873,0.01939949795008138,-8.846723910703672e-05,0.009380364640169912,0.006519883208812373
355,9.0,299.99869,-69.609954,0.0035499988536775717,0.0,0.0,0.0,0.0,0.0005417800185408272,0.0017012889677791483,0.010422370575357892,0.009036028109661542,-0.013802953890995485,0.015495014683488885,0.018456927110806882
356,9.0,299.85452000000004,-191.63452,0.0035600085283749028,0.0,0.0,0.0,0.0,0.0005433076364265432,0.04360065741479986,-0.0024876148177834677,0.017139066672994183,0.003080182728015367,-0.0035711146617915766,0.006111528827710933
357,9.0,300.08257000000003,-210.0554,0.003569985167842571,0.0,0.0,0.0,0.0,0.0005448302126691007,0.06415389259124624,0.006482816898954214,-0.006785113176188533,0.012494743647135188,-0.003322620850292147,0.0022963029650774577
358,9.0,300.04421,-165.82289,0.003579994842539902,0.0,0.0,0.0,0.0,0.0005463578305548167,0.05715192099420545,0.0015975988293957287,-0.008343502266464561,0.015295930290590785,-0.02273436544770718,0.0019294233423692581
359,9.0,299.88693,-150.06423999999998,0.003590004517237455,0.0,0.0,0.0,0.0,0.0005478854484405604,0.03645944093601667,0.0003966951148507596,0.00875964560240971,0.0005720312964100935,-0.0014081260256212187,0.004897754405095725
360,9.0,299.51889,-263.1649,0.003600014191935008,0.0,0.0,0.0,0.0,0.0005494130663263042,0.02524441291342958,0.02924749960025347,0.025503645858763874,-0.005464184515748025,-0.005713488623352425,0.01274967129279459
361,9.0,300.09002999999996,-463.1966,0.0036099908314024542,0.0,0.0,0.0,0.0,0.0005509356425688339,0.060526305245731236,0.01895733181844298,0.061316562303473536,-0.01835188144643968,0.020993445735391778,0.004204893176115646
362,9.0,300.66919,-374.01561,0.0036200005060997853,0.0,0.0,0.0,0.0,0.0005524632604545221,0.094925059936624,0.0011742530077647488,0.017592093832454483,-0.0009020684260747222,-0.006092449328327933,0.0009006913178638122
363,9.0,300.4159,-107.75968999999999,0.0036300101807973384,0.0,0.0,0.0,0.0,0.0005539908783402658,0.05843949234677885,-0.001828178379127158,-0.02385506058831118,-0.001209020050495989,0.0051330817408207245,-0.0006896725917103853
364,9.0,300.56638,-57.795189,0.0036399868202647845,0.0,0.0,0.0,0.0,0.0005555134545827956,0.050301027013574855,-0.030126813235784974,-0.0026059195689842373,0.025577113583764577,-0.003534738172601497,0.007577385588379732
365,9.0,300.61522,-125.24314,0.0036499964949621155,0.0,0.0,0.0,0.0,0.0005570410724685393,0.03304839020312217,-0.006086780801968494,0.01110917682439039,0.016103508858792585,0.013379099215164286,-0.0016060654459063186
366,9.0,300.09713999999997,-157.55832,0.0036600061696596686,0.0,0.0,0.0,0.0,0.0005585686903542553,0.023838964097222578,-0.002892835115000597,0.026947666066527577,0.01076745620166519,0.0019540475489494783,0.012527586122626487
367,9.0,299.887,-36.955771999999996,0.0036699828091271147,0.0,0.0,0.0,0.0,0.0005600912665968127,0.010717251685710388,-0.016562974209388286,0.017079353818100985,-0.015482227467226883,0.009493270997487901,0.0036388122314478066
368,9.0,299.52625,-46.528704,0.0036799924838244458,0.0,0.0,0.0,0.0,0.0005616188844825287,0.04924738775133875,-0.0019129645130448983,-0.03319085823343267,-0.020854545358683377,-0.0025292603088185577,0.008820573850797861
369,9.0,299.97771,-253.6641,0.003690002158521999,0.0,0.0,0.0,0.0,0.000563146502368217,0.05879122590699225,0.0013628218911250487,0.016953506129180784,-0.013616181500062486,-0.004843049133521735,-0.006545760805766293
370,9.0,300.21427,-452.94594000000006,0.00370001183321933,0.0,0.0,0.0,0.0,0.0005646741202539607,0.09191623402967601,0.018819270412817383,0.026948752270634774,-0.00042910844852720657,-0.02402812269214108,4.390629012196346e-05
371,9.0,300.10334,-492.62669000000005,0.003709988472686776,0.0,0.0,0.0,0.0,0.0005661966964964904,0.06010658260380785,0.03396178754551747,0.05567784272222524,0.019931934533128783,-0.002314076993031618,0.0003464959184589847
372,9.0,299.58884,-246.22968999999998,0.003719998147384329,0.0,0.0,0.0,0.0,0.0005677243143822341,0.03393720913784176,0.0025067439664213675,0.03840372399640246,0.011035904656658988,-0.003198851742627087,0.004628705295442646
373,9.0,299.91388,-58.29061,0.00373000782208166,0.0,0.0,0.0,0.0,0.0005692519322679501,0.020368914850755378,0.008646944732212001,-0.01129696955817409,0.023033686619997877,0.031402980458482874,0.014007376085420386
374,9.0,300.44538,-107.34951000000001,0.0037399844615493283,0.0,0.0,0.0,0.0,0.0005707745085105076,0.07385856393527272,-0.025962774810326376,-0.015264216575710884,0.00951950262402676,0.014393932011820487,0.008561250827529673
375,9.0,300.37677,-252.41875,0.0037499941362466593,0.0,0.0,0.0,0.0,0.0005723021263962236,0.06994548222833163,0.005043000564530405,0.0017405144122753984,0.012317072268600387,0.026162621167299675,0.01897335332902418
376,9.0,299.84508,-15.185638,0.0037600038109442124,0.0,0.0,0.0,0.0,0.0005738297442819396,0.040007453698178264,-0.004430164815198225,-0.030961233812385868,-0.01083561449614189,-0.012272978663998688,0.016905633101706088
377,9.0,300.21794,-4.0681031,0.0037700134856415435,0.0,0.0,0.0,0.0,0.0005753573621676555,0.005689291197714324,-0.01088341355635929,0.006430724495413094,-0.013965847016821785,-0.004682530052679735,0.007574486578518623
378,9.0,300.51499,-315.58772,0.0037799901251092116,0.0,0.0,0.0,0.0,0.000576879938410213,0.04417142119612986,0.02327120054943868,0.028488165922313076,-0.00998907727219517,-0.02309630750267808,0.007107618321367313
379,9.0,300.47688999999997,-509.9109,0.0037899997998065427,0.0,0.0,0.0,0.0,0.000578407556295929,0.08489607459334021,0.027721828659681473,0.04238227685855506,0.002089001823143428,-0.0034004025889186064,-0.007202584579039754
380,9.0,300.44338,-385.83892000000003,0.0038000094745038737,0.0,0.0,0.0,0.0,0.000579935174181645,0.08482504170832983,0.014024742178884287,0.018435612381703284,0.026278429574229076,-0.007860713317117003,-0.00883642239958699
381,9.0,300.12798,-273.29831,0.003809986113971542,0.0,0.0,0.0,0.0,0.0005814577504242024,0.05764651471251804,0.017584269515182282,0.007845076638923783,0.0026525933136405774,0.006158272385299165,0.0013261048485763587
382,9.0,299.64198999999996,-188.16863,0.003819995788668873,0.0,0.0,0.0,0.0,0.0005829853683099184,0.05199873464887555,-0.00976645244502381,0.014966282542807087,0.02104017683000378,0.008466599994613362,-0.01016956366215779
383,9.0,300.05369,-200.49108,0.003830005463366426,0.0,0.0,0.0,0.0,0.0005845129861956344,0.028067354036532172,0.006637739799493914,0.026239188424356272,0.0004240127732443026,0.008236608636564982,0.016838329990313785
384,9.0,300.12066,-227.85556,0.003839982102833872,0.0,0.0,0.0,0.0,0.0005860355624381919,0.04518294471795946,0.013642205815630885,0.01043725015307639,0.0002544875303459638,-0.007075397272162343,0.007840134714211053
385,9.0,300.62743,-25.512816,0.003849991777531425,0.0,0.0,0.0,0.0,0.0005875631803239079,0.04702908640015945,-0.026639644115628174,-0.01263418307289679,-0.019319721729958085,-0.0031727210357981868,0.019325344254762983
386,9.0,300.80233,-35.586633,0.0038600014522287562,0.0,0.0,0.0,0.0,0.0005890907982096238,0.04451841882537586,0.008021973489082143,-0.04172294387273396,-0.008165016842799423,-0.007769636318628402,0.014883696580156485
387,9.0,299.99712,-265.13281,0.0038700111269263093,0.0,0.0,0.0,0.0,0.0005906184160953676,0.06507074511648255,0.005825589345515905,0.00969742022233586,-0.0012864872762914088,0.015352059279880287,0.028504703177195174
388,9.0,299.6077,-426.77446,0.0038799877663937554,0.0,0.0,0.0,0.0,0.0005921409923378973,0.06996030810379485,0.015869193759917483,0.04389927640477125,0.004650815527199756,-0.002377719738437668,-0.012049747507967489
389,9.0,300.50267,-280.37616,0.0038899974410913085,0.0,0.0,0.0,0.0,0.000593668610223641,0.022919270418705878,0.023579671370132376,0.038728409858446465,0.0067696679009392035,0.003809341919302776,0.01837064379854138
390,9.0,300.00954,-233.80282999999997,0.0039000071157886396,0.0,0.0,0.0,0.0,0.0005951962281093293,0.04686032858275436,-0.011921263342287089,0.03613115904936776,-0.0008729508302035392,-0.0015536941959376784,-0.018306000468661585
391,9.0,299.2326,-246.30765,0.003909983755256308,0.0,0.0,0.0,0.0,0.0005967188043519145,0.06345221081749564,0.012908461768965988,-0.0014892970858321785,-0.011511107807807888,0.0016329016787798485,0.015438924197703185
392,9.0,299.47882999999996,-261.60655,0.003919993429953639,0.0,0.0,0.0,0.0,0.0005982464222376027,0.07624950891799064,0.002775898758059877,0.0004964507119033705,-0.00999738997601557,0.005854944315488015,-0.005960090494265134
393,9.0,300.0234,-214.46972000000002,0.00393000310465097,0.0,0.0,0.0,0.0,0.0005997740401233187,0.05398075519598574,-0.004837346359308915,0.016050031545014783,-0.018043929409797183,0.01260492344975909,0.017670790941221284
394,9.0,300.72324,-130.31185,0.003940012779348523,0.0,0.0,0.0,0.0,0.0006013016580090624,0.04289383643654206,-0.0032346968834647267,-4.759229741524405e-05,0.015746544901562985,0.009005901955038321,0.00931688219092968
395,9.0,300.33151000000004,-74.674526,0.003949989418815969,0.0,0.0,0.0,0.0,0.0006028242342515922,0.016035217828552786,-0.014459199503761885,0.02112317214569478,0.007571211754195423,0.006696899217182493,0.026873518450709774
396,9.0,300.16797,-96.161245,0.003959999093513522,0.0,0.0,0.0,0.0,0.0006043518521373359,0.041697745355997066,-0.012244657310453589,-0.0002224702153386008,0.016232963718068785,-0.008975993041236542,0.005277431477891935
397,9.0,300.15036000000003,-306.90445,0.003970008768210853,0.0,0.0,0.0,0.0,0.0006058794700230241,0.07882982831789834,-0.000902916850780955,0.015364377361345986,0.007650755332095762,-0.02206592942298768,0.008357169895738452
398,9.0,300.53598,-459.16949000000005,0.003979985407678299,0.0,0.0,0.0,0.0,0.0006074020462656093,0.0912378610612258,0.006370293043548973,0.04196790620365986,0.0016248778525629584,-0.004555110407554396,-0.010630522543400888
399,9.0,299.83571,-267.30107000000004,0.00398999508237563,0.0,0.0,0.0,0.0,0.0006089296641512976,0.05564502659123654,0.015266940191979685,0.010340883989065791,0.006395837179894984,0.012419161269175789,-0.0003248714590648167
400,9.0,299.38071,-277.1285,0.004000004757073183,0.0,0.0,0.0,0.0,0.0006104572820370413,0.03360632421168597,0.002736228395444717,0.04789759271012436,-0.018213193852252285,0.013245938900272387,-0.018131903836479585
401,9.0,299.34391,-410.0266,0.0040100144317707365,0.0,0.0,0.0,0.0,0.0006119848999227573,0.049225905835968656,0.012949556153271686,0.06246238604655754,-0.011466543041909688,0.0025403049375585774,-0.018154237895183785
402,9.0,300.19843,-279.28442,0.0040199910712381826,0.0,0.0,0.0,0.0,0.0006135074761653148,0.055635558782302155,0.013530437236850188,0.015729492915630087,-0.026060334582954772,-0.006184923193404394,0.0006067173196633374
403,9.0,300.19727,-206.41079,0.004030000745935514,0.0,0.0,0.0,0.0,0.0006150350940510307,0.055277302931195045,-0.004567623033039296,0.01203404517116779,0.004577056492795305,0.005811482168348634,0.009163185525661002
404,9.0,300.61262,-165.36613,0.004040010420632845,0.0,0.0,0.0,0.0,0.000616562711936719,0.06198785569347504,-0.005327165845800334,-0.006393515722590874,0.013565403484551087,0.012219043361175687,0.022622012223618777
405,9.0,300.63317,-53.359825,0.004049987060100513,0.0,0.0,0.0,0.0,0.0006180852881793042,0.024266431009660278,-0.010795509043933789,0.0027491324394432475,0.01974665769934338,0.007527209747402764,0.02187489023588358
406,9.0,300.31023999999996,-155.43636,0.004059996734797844,0.0,0.0,0.0,0.0,0.0006196129060649924,0.03944751041466616,-0.012942426925568089,0.02074368971824278,0.013128544756936486,0.006857948025176775,0.013949685677726788
407,9.0,299.91382000000004,-346.74192999999997,0.004070006409495397,0.0,0.0,0.0,0.0,0.0006211405239507362,0.042685737157504254,0.03006729796466127,0.03264785345184227,3.660859641698717e-05,0.0012456202653081487,0.013290251366895687
408,9.0,299.95088,-207.64564,0.004079983048962843,0.0,0.0,0.0,0.0,0.0006226631001932659,0.07902504716166493,-0.014920188782507986,-0.000985767606080188,-0.01687810410973918,-0.003181372671777037,-0.006476553594786074
409,9.0,299.3345,-229.12497000000002,0.004089992723660396,0.0,0.0,0.0,0.0,0.0006241907180790096,0.05095410014027815,0.005139576066011665,0.013554593119234185,-0.01825232050486378,-0.01862294509994158,-0.0015244790544793685
410,9.0,299.26993,-416.76529,0.004100002398357727,0.0,0.0,0.0,0.0,0.0006257183359647256,0.09485692798664991,0.014697232217253886,0.017132083353304985,-0.009679234612191081,-0.005212522372510905,-0.004857321977080355
411,9.0,299.61424,-462.3604,0.00411001207305528,0.0,0.0,0.0,0.0,0.0006272459538504416,0.06525868578478083,0.02256653982039408,0.052720790855636954,0.00885685600640363,-0.007934245180849033,0.007443526840193904
412,9.0,300.18527,-242.92151,0.004119988712522726,0.0,0.0,0.0,0.0,0.000628768530092999,0.04419147544210905,0.015194148304795685,0.014456448529740385,0.02969431452335067,0.011707256815166288,0.0073348421894175635
413,9.0,300.31756,-181.59806,0.0041299983872202795,0.0,0.0,0.0,0.0,0.000630296147978715,0.038454706688434065,-0.006422818408857823,0.023169387152890478,0.016385380851111183,0.0017957182028985883,0.011811326719687189
414,9.0,300.58042,-154.28599,0.0041400080619176105,0.0,0.0,0.0,0.0,0.000631823765864431,0.06429712967838264,-0.012184466201513188,-0.005213574531414745,0.0038187282629291363,-0.009060855878186851,0.009928377613029579
415,9.0,300.1718,-158.81805,0.004149984701385057,0.0,0.0,0.0,0.0,0.0006333463421069607,0.04308170820383355,0.012437140378950188,-0.007242125448292134,-0.0020507703769952782,0.002148557218971088,0.036772608170923864
416,9.0,300.80706000000004,-178.0552,0.00415999437608261,0.0,0.0,0.0,0.0,0.0006348739599927045,0.06754611916378293,-0.006570668013099443,-0.006851115071802414,-0.008007551799083832,0.007291954656409893,0.018349468897951585
417,9.0,300.2902,-216.14056000000002,0.004170004050779941,0.0,0.0,0.0,0.0,0.0006364015778784204,0.04631093323278325,0.0017674503489587682,0.017622948311249585,0.000975308605500465,-0.007503470310809863,0.005111856279050935
418,9.0,299.81609,-260.11321,0.004180013725477494,0.0,0.0,0.0,0.0,0.0006379291957641364,0.04633649246655575,0.01094266031620649,0.02178876904363408,-0.018402328129168383,0.004557796938869535,-0.0076699290637380615
419,9.0,299.96108,-324.33002999999997,0.00418999036494494,0.0,0.0,0.0,0.0,0.0006394517720066939,0.06256398564733465,0.004167107053386446,0.03185713637855457,-0.008484126181593062,-0.005645964319463295,-0.015786675685023586
420,9.0,300.35787999999997,-491.72629000000006,0.004200000039642493,0.0,0.0,0.0,0.0,0.0006409793898924099,0.0981227739007138,0.02967414172710977,0.02167559913996508,0.0005256150490016665,0.0038294212938844567,-0.007953751461174153
421,9.0,300.38292,-371.57575,0.004210009714339824,0.0,0.0,0.0,0.0,0.0006425070077781259,0.07149887771813984,0.013541441132936188,0.027909431915696475,0.007112913363739894,0.002903293071932717,-0.0030042511840715075
422,9.0,300.90479,-253.37599,0.00421998635380727,0.0,0.0,0.0,0.0,0.0006440295840206556,0.06030537214092684,0.014518621555876384,0.002195978539551208,0.016763251197654084,0.003027825055598067,0.00971941798333187
423,9.0,300.54842,-301.82353,0.004229996028504823,0.0,0.0,0.0,0.0,0.0006455572019063993,0.04431417597621866,0.023193439683764274,0.024239200926472877,-0.00043015503455549664,-0.01046108179542839,0.03272125227583617
424,9.0,301.05717000000004,-120.4821,0.004240005703202376,0.0,0.0,0.0,0.0,0.000647084819792143,0.02076738153208098,-0.0038198879276685866,0.01967605544562548,-0.0003720342184844187,0.008268188197131644,0.017541307710942283
425,9.0,300.85107999999997,65.348893,0.0042499823426696,0.0,0.0,0.0,0.0,0.000648607396034645,0.024926625258066378,-0.015879986899982684,-0.028911070169550475,-0.006488806321620323,-0.005749764395482564,0.026558187926839078
426,9.0,300.04544,-206.11545,0.0042599920173671535,0.0,0.0,0.0,0.0,0.000650135013920361,0.06426690848090004,-0.0008563694786770873,-0.0007565885301069744,-0.008409254801228833,0.00996485927758004,0.0035552732057531466
427,9.0,300.00964,-358.22749,0.004270001692064707,0.0,0.0,0.0,0.0,0.0006516626318061047,0.08377401865785192,0.013590608080788588,0.01152758528093409,0.007327462587614254,-0.0074418898333323425,0.015384184374300787
428,9.0,300.55419,-331.86125,0.004280011366762038,0.0,0.0,0.0,0.0,0.0006531902496918207,0.07158004918365084,0.02075470982633038,0.008542773806656133,0.015529303066872883,0.011732450265652688,-0.0054442281497284846
429,9.0,300.14128,-401.12394,0.004289988006229484,0.0,0.0,0.0,0.0,0.0006547128259343504,0.057917274390989947,0.011767308095592888,0.052247081235135454,0.01929567831833518,-0.009096047776685021,-0.006202423238531514
430,9.0,299.89237,-437.89119000000005,0.004299997680926815,0.0,0.0,0.0,0.0,0.0006562404438200942,0.06589783077560954,0.01932583973406188,0.04788431609406405,0.007615334540400002,-0.011482772268761389,-0.02142029051226808
431,9.0,299.63322999999997,-372.3035,0.004310007355624368,0.0,0.0,0.0,0.0,0.0006577680617058379,0.07804885263107202,0.01051370797912219,0.024608404944910477,-0.007012987753453003,-0.01060240586637599,-0.0017083842516043984
432,9.0,300.05455,-320.37557000000004,0.004319983995091592,0.0,0.0,0.0,0.0,0.0006592906379483399,0.07000033654899533,0.012298408201758388,0.015087426724763086,-0.024072271012248177,0.002281342732650998,0.008263970442265381
433,9.0,300.17937,-215.78485,0.004329993669789145,0.0,0.0,0.0,0.0,0.0006608182558340558,0.06736611528351794,0.004390025520436785,-0.0061629348556343135,-0.01122626395294599,0.005759482071891624,0.02210582107942468
434,9.0,299.42303,-159.08178,0.004340003344486698,0.0,0.0,0.0,0.0,0.0006623458737197996,0.05359642538005535,-0.005149136992630255,-9.039962863774871e-05,-0.0017151742431745181,0.015521189973322184,0.028669881181996974
435,9.0,299.98825,-161.81731000000002,0.004350013019184251,0.0,0.0,0.0,0.0,0.0006638734916055433,0.023300585815588776,0.0031991261307541667,0.022688709411451277,0.01954772428071018,-0.006687694650624074,0.015922581907686487
436,9.0,300.0976,-323.6257,0.004359989658651475,0.0,0.0,0.0,0.0,0.0006653960678480453,0.056134338236777846,0.015332710255970685,0.026907085400022575,0.007130759231126144,-0.0040471994418524865,0.006888253322417674
437,9.0,300.00202,-260.16516,0.004369999333349028,0.0,0.0,0.0,0.0,0.000666923685733789,0.04851903115545555,0.002110800379169778,0.028453882605179576,0.017902504013839585,0.00048656092483232447,-0.026876706135524373
438,9.0,300.38556,-240.28385,0.0043800090080465814,0.0,0.0,0.0,0.0,0.0006684513036195328,0.07112757424549504,0.007185162959470373,-0.005272447199325026,0.00839025241017844,0.0008933155562783812,0.005769694214349484
439,9.0,300.36246,-590.2112,0.0043899856475140275,0.0,0.0,0.0,0.0,0.0006699738798620625,0.1139462761606219,0.023668290223878376,0.04179490489483596,-0.006721593439344624,-0.0026081003871744677,-0.010109854454964949
440,9.0,300.00858999999997,-646.3551,0.004399995322211359,0.0,0.0,0.0,0.0,0.0006715014977477507,0.11390070017112389,0.03939538173677146,0.04317972596550716,-0.012729285714032689,-0.010034218577400271,0.010079548448448982
441,9.0,300.03085,-379.39526,0.004410004996908912,0.0,0.0,0.0,0.0,0.0006730291156334944,0.04860174985386925,0.03037870721064497,0.03634622746259337,-0.00999550948515498,-0.003721582402966587,0.0014004210692107986
442,9.0,299.15095,-257.04486,0.004419981636376358,0.0,0.0,0.0,0.0,0.0006745516918760242,0.05647990009063215,-0.007737374942069453,0.02939269428658307,-0.011709708880408289,-0.0015127186658687086,0.011768362888946988
443,9.0,299.37188,-170.00458999999998,0.004429991311073689,0.0,0.0,0.0,0.0,0.0006760793097617401,0.03245254442881677,0.0025133724459255476,0.016711232964020283,0.0058921094172309256,-0.005557633026095675,0.003300567968490697
444,9.0,300.10591,-37.353265,0.004440000985771242,0.0,0.0,0.0,0.0,0.0006776069276474839,0.037997078360269665,-0.013758460052604286,-0.012884158965317487,0.003158441200813877,0.01974494631992448,0.023189936878168577
445,9.0,299.89502999999996,-255.20267,0.004450010660468795,0.0,0.0,0.0,0.0,0.0006791345455332276,0.06248433507022374,-0.006437492296806025,0.02152839619193728,0.016144425924330782,0.011035329130602189,-0.006015961003454124
446,9.0,300.27729,-259.0779,0.004459987299936241,0.0,0.0,0.0,0.0,0.0006806571217757573,0.06336561643744944,0.007647621552186482,0.007739973117975872,0.008061392160372462,0.0015706299620841084,0.011018990472739689
447,9.0,300.06934,-235.72827999999998,0.004469996974633572,0.0,0.0,0.0,0.0,0.0006821847396614455,0.04617418601253736,0.007985564373238843,0.017495760092447084,-0.001245188519440539,-0.006818242097483104,-0.013299501327058589
448,9.0,300.43672000000004,-461.31827999999996,0.004480006649331347,0.0,0.0,0.0,0.0,0.000683712357547217,0.08734448402897942,0.030691252309990768,0.02219350065032798,-0.005179766631228165,-0.00937188677658321,0.007123050221715323
449,9.0,300.34987,-682.2293900000001,0.004489983288798571,0.0,0.0,0.0,0.0,0.000685234933789719,0.0998913897912626,0.04285047338526246,0.06463883510235634,-0.00962805018206457,-0.007319066999935673,-0.021848158671745378
450,9.0,299.6707,-535.62222,0.004499992963496124,0.0,0.0,0.0,0.0,0.0006867625516754627,0.1014692461517349,0.03402840266009186,0.02731813259458977,-0.013714635972529185,0.006163767848541524,0.0060472748898445635
451,9.0,299.51784,-300.63292,0.0045100026381934555,0.0,0.0,0.0,0.0,0.0006882901695611787,0.07662724247577002,0.017508731720227284,-0.0027510727120597374,-0.0017131323415729982,-0.0003078855775684407,0.013614614002157787
452,9.0,299.74296,-240.21732999999998,0.004520012312891009,0.0,0.0,0.0,0.0,0.0006898177874469225,0.05640821467255735,0.008383832153569812,0.008228023976417741,0.003142300734670937,0.01143146736319799,0.029145416679178675
453,9.0,298.62637,-185.67465,0.004529988952358455,0.0,0.0,0.0,0.0,0.0006913403636894522,0.04264264869700175,-0.009154121800866482,0.02295193050917918,0.013809065815598685,0.022754384229932877,0.00978197999618126
454,9.0,299.59717,-155.33806,0.004539998627055786,0.0,0.0,0.0,0.0,0.0006928679815751404,0.030628887779585872,0.008777822397278623,0.007812180967802233,0.007113769560074394,0.007167052735133034,0.023132320437732275
455,9.0,300.9798,-340.26182,0.004550008301753561,0.0,0.0,0.0,0.0,0.0006943955994609119,0.06284775647034065,0.008080789313661811,0.03250254933450187,-0.011998988744207989,-0.005365195452528565,0.004412971379551366
456,9.0,300.25516,-453.19811,0.004559984941220785,0.0,0.0,0.0,0.0,0.0006959181757034139,0.09435111657648021,0.02432003599295068,0.01908975752701238,-0.009185434268706782,-0.009763268002609531,-0.007254009656065014
457,9.0,300.1411,-441.92027,0.004569994615918338,0.0,0.0,0.0,0.0,0.0006974457935891576,0.08647831427374511,0.028706801989140773,0.019147611067972085,-0.01051149808065409,-0.005992804489643754,0.007002992649166562
458,9.0,299.9271,-652.36546,0.004580004290615891,0.0,0.0,0.0,0.0,0.0006989734114749013,0.09628318794666081,0.04426612765647666,0.05775349467132614,0.005424914488247375,-0.006301626300172093,-0.01119154392501939
459,9.0,300.10683,-702.20048,0.004590013965313444,0.0,0.0,0.0,0.0,0.0007005010293606451,0.11165265283675889,0.052353487694386955,0.04944527144286836,-1.1196096457718688e-05,-0.008927413677117132,0.0005019716685182465
460,9.0,299.7598,-357.64094,0.004599990604780668,0.0,0.0,0.0,0.0,0.000702023605603147,0.07181751447708684,0.01021358532600239,0.026682815662638873,0.01157421201078579,-0.00015449299878727183,-0.001198370487969959
461,9.0,299.53321,-237.72851,0.004610000279478221,0.0,0.0,0.0,0.0,0.000703551223488863,0.05456787587368005,0.01157059268142859,0.006125060276171384,0.002116928313124558,0.010426453973260889,0.01009455164267968
462,9.0,299.3191,-293.21193999999997,0.004620009954175552,0.0,0.0,0.0,0.0,0.0007050788413746067,0.06700775912065093,0.014150858379080986,0.007970490555476174,0.006011953092683574,0.012643758286341789,0.005960751842605405
463,9.0,300.77965,-163.95174,0.0046299865936429985,0.0,0.0,0.0,0.0,0.0007066014176171365,0.04530527338928236,-0.007458363152133133,0.011990324442602887,0.0022151558175688576,-0.004490150234368326,0.025314828729129078
464,9.0,300.16564,-209.87368999999998,0.0046399962683403295,0.0,0.0,0.0,0.0,0.0007081290355028524,0.035225005431937365,0.01150815823676679,0.017063198558506586,0.008395391209385601,-0.007704427189892763,0.035908621969655066
465,9.0,300.46824,-285.75608,0.004650005943037883,0.0,0.0,0.0,0.0,0.0007096566533885962,0.06617792046100224,-0.008931453201290802,0.02961624461639577,-0.012547426572834587,0.0054949887373381655,0.011773058289910387
466,9.0,299.43786,-340.37496,0.004659982582505329,0.0,0.0,0.0,0.0,0.0007111792296311259,0.06280357268648004,0.014155433203282487,0.02650648278748618,0.01119932771228759,0.003212848272883437,0.003199273862618747
467,9.0,299.86787999999996,-413.25978,0.00466999225720266,0.0,0.0,0.0,0.0,0.0007127068475168419,0.08606163239537182,0.02552780376764808,0.014031216847023286,-0.016215608770355983,-0.002238907109187928,-0.0007242903117743884
468,9.0,299.57597000000004,-575.03814,0.004680001931900213,0.0,0.0,0.0,0.0,0.0007142344654025579,0.11567805230403488,0.024833177254343773,0.03428600629926536,0.00957800697552569,-0.004765799148547756,-0.016478984895349182
469,9.0,299.968,-447.52499000000006,0.004690011606597766,0.0,0.0,0.0,0.0,0.0007157620832883016,0.08034355405304143,0.01834705330971318,0.03734581489824496,0.001048882762291669,0.005171548463642095,-0.006470558903219443
470,9.0,300.0307,-253.8968,0.004699988246065212,0.0,0.0,0.0,0.0,0.0007172846595308313,0.03629474118526207,0.01960530829714328,0.02127823791449858,0.01141188427851529,0.009408768370948142,0.01776592094010988
471,9.0,301.43296000000004,-260.87023,0.004709997920762543,0.0,0.0,0.0,0.0,0.0007188122774165473,0.05944994992950324,-0.006764266973931175,0.026612352224184677,-0.010750658541507389,-0.013360178796046987,0.006750778588599974
472,9.0,300.38783,-353.41093,0.004720007595460096,0.0,0.0,0.0,0.0,0.000720339895302291,0.07653339322500782,0.0088495613149587,0.022045143610436278,-0.0042612096166736455,-0.025101131243288773,0.01161104669167109
473,9.0,300.12336,-113.20428000000001,0.004729984234927542,0.0,0.0,0.0,0.0,0.0007218624715448207,0.05366690199076086,-0.00951677424548249,-0.00973885272819993,-0.014649715853814384,-0.0019455621873120381,0.00925996053608695
474,9.0,300.26701,-77.832673,0.004739993909625095,0.0,0.0,0.0,0.0,0.0007233900894305645,0.05444900238519815,-0.02161351224008758,-0.009176301237605423,0.007200573480241273,-0.007711438981909773,0.01043114836097419
475,9.0,300.08088,-399.80092,0.004750003584322426,0.0,0.0,0.0,0.0,0.0007249177073162527,0.05625348226303644,0.03707816083132957,0.028197853556661476,-0.002251030140009378,0.001775684627221428,0.009074377700771352
476,9.0,299.36521,-423.81029,0.0047600132590199795,0.0,0.0,0.0,0.0,0.0007264453252019965,0.07008257395361153,0.020009263754260584,0.038735908922436564,0.018027322240658183,-0.001302929488314129,0.007461980657640153
477,9.0,299.73672,-416.84407999999996,0.004769989898487426,0.0,0.0,0.0,0.0,0.0007279679014445262,0.07412248316231952,0.025161339577480873,0.02742636797027177,0.03390556635046887,0.007570320195432432,0.0015772353394860087
478,9.0,299.53065,-482.93645999999995,0.004779999573184757,0.0,0.0,0.0,0.0,0.0007294955193302421,0.0997484202021526,0.02267500925684918,0.024377195457591875,0.014469687655546987,-0.0015103415811341084,-0.004354033154359616
479,9.0,299.86257,-363.15604,0.00479000924788231,0.0,0.0,0.0,0.0,0.0007310231372159859,0.08516868953274523,0.007786223729390452,0.017435455499495482,0.0013278174438953788,-0.012949546020770688,-0.005326777568362015
480,9.0,299.85925,-364.73102,0.004799985887349756,0.0,0.0,0.0,0.0,0.0007325457134585156,0.0877302658323031,0.007822757778971082,0.015316100047081387,-0.02012227052466348,-0.013391792199166986,0.015475863243348785
481,9.0,300.38189,-454.51125999999994,0.004809995562047309,0.0,0.0,0.0,0.0,0.0007340733313442593,0.06839430575624243,0.015863297657585585,0.05390247048000966,-0.00938747289359644,0.003145137328325887,0.0020348248601715782
482,9.0,300.6659,-202.24296,0.00482000523674464,0.0,0.0,0.0,0.0,0.0007356009492299476,0.04120930307904156,-0.004851755181030956,0.025119261327328078,-0.011048025154355188,0.009193340861887101,0.03017274284956787
483,9.0,300.67582999999996,-28.334981,0.004829981876212308,0.0,0.0,0.0,0.0,0.0007371235254725328,0.01295526480433509,-0.0042228817091159755,-0.00011925603092465387,-0.006348874658960144,0.009652745316151791,0.03012566724992187
484,9.0,300.07302999999996,-266.39588,0.004839991550909639,0.0,0.0,0.0,0.0,0.000738651143358221,0.06090230817233984,0.005105043894653605,0.014970344662457986,0.0032502853309531866,-0.0043485417441176556,0.016546928380804682
485,9.0,299.74104,-469.9418,0.004850001225607192,0.0,0.0,0.0,0.0,0.0007401787612439648,0.10271313223949691,0.013555755317098886,0.026581683170157872,0.02043119122840158,0.01013343015034169,0.0013862811640652985
486,9.0,300.22587999999996,-412.18734,0.004860010900304523,0.0,0.0,0.0,0.0,0.0007417063791296807,0.08433014198848701,0.021381713041210778,0.01958280502567238,0.009226867889145961,0.0053541266071111555,0.004042977532660816
487,9.0,300.43192,-463.22105999999997,0.0048699875397721915,0.0,0.0,0.0,0.0,0.0007432289553722382,0.07624191764824143,0.009399685191751701,0.05516603287146354,-0.005257876865537045,-0.00985792592827654,-0.0008501264699084501
488,9.0,299.86665,-619.31305,0.0048799972144695225,0.0,0.0,0.0,0.0,0.0007447565732579542,0.09867733581294481,0.03514687067697607,0.054431496463220444,-0.008937157698028792,-0.008708369675799172,-0.017038877516356285
489,9.0,299.44246,-531.4305,0.0048900068891668536,0.0,0.0,0.0,0.0,0.0007462841911436424,0.0900470317884501,0.016782434048547283,0.054712134316917245,-0.01285380807182209,-0.003182450769883437,-0.004687452117690506
490,9.0,299.95861,-399.86737999999997,0.004899983528634522,0.0,0.0,0.0,0.0,0.0007478067673862276,0.08719947172766783,0.012009508306746188,0.022340716770607078,0.004825930374407246,-0.013341251284178988,-0.0015809403898016687
491,9.0,299.89739,-290.72487,0.004909993203331853,0.0,0.0,0.0,0.0,0.0007493343852719159,0.08714683946447342,-0.0018434387362332382,0.003069701365005937,-0.008589538845146481,-0.010371693884856491,0.001960989325384578
492,9.0,299.93091,-55.29567900000001,0.004920002878029406,0.0,0.0,0.0,0.0,0.0007508620031576596,0.04708763401743766,-0.02265698860382068,-0.007622139933371643,0.016662393295950186,0.0020364194118539483,0.015958750883256087
493,9.0,299.5112,-81.63727800000001,0.004930012552726737,0.0,0.0,0.0,0.0,0.0007523896210433756,0.02961341866186687,-0.0030402501362743273,-0.0017574748003992583,0.004198611532120696,0.017243008908002483,0.029616431054414173
494,9.0,300.15755,-387.54327,0.004939989192194183,0.0,0.0,0.0,0.0,0.0007539121972859331,0.05590136670753536,0.018627915091682084,0.04327419735183076,0.02092428229681588,0.01169116336382799,0.019545774787517782
495,9.0,300.24848,-399.30593,0.004949998866891736,0.0,0.0,0.0,0.0,0.000755439815171649,0.05876957781860574,0.016840862102313683,0.04576859213000836,-0.011113069731274591,-0.0032487226966489667,0.013595707768541885
496,9.0,300.39846,-391.75453999999996,0.004960008541589067,0.0,0.0,0.0,0.0,0.000756967433057365,0.08411477365323182,0.021490830957729877,0.01347799242492429,-0.00962423549808809,-0.0018421349873295682,-0.005059750703258516
497,9.0,300.27812,-573.9567099999999,0.004969985181056513,0.0,0.0,0.0,0.0,0.0007584900092999225,0.12532957361406588,0.022392157451683877,0.026746776061951274,-0.014595340800447987,0.006928567909446414,-0.011143739798551489
498,9.0,299.86068,-598.5809,0.004979994855754066,0.0,0.0,0.0,0.0,0.0007600176271856385,0.1036432958312969,0.037168132373959065,0.04114221882967086,0.004145567281435636,0.0048701783983241854,0.0006519433731068014
499,9.0,299.92477,-347.37273,0.004990004530451397,0.0,0.0,0.0,0.0,0.0007615452450713545,0.07390315200592323,0.014800865410981686,0.016888620632527086,-0.015217227102323384,-0.0011825822275617788,0.011159282041835389
500,9.0,300.01502,-298.99877000000004,0.0050000142051489505,0.0,0.0,0.0,0.0,0.0007630728629570704,0.06029717900061824,0.008213221608356863,0.022377759167762877,0.018029601040133084,-0.0074282289928341225,0.007958389816156923
501,9.0,299.95252999999997,-232.2087,0.0050099908446163965,0.0,0.0,0.0,0.0,0.0007645954391996279,0.05153447662530686,-0.0034925575841885967,0.02254372649439258,0.005013721892290825,-9.184205297660491e-05,0.014567889828738785
502,9.0,299.73533,-85.04476700000001,0.005020000519313728,0.0,0.0,0.0,0.0,0.0007661230570853439,0.05580890459616004,-0.015879686977953087,-0.014077732119363986,0.010160737240536689,0.003620149887130976,0.01029429474946779
503,9.0,299.95495,-285.20302000000004,0.005030010194011281,0.0,0.0,0.0,0.0,0.0007676506749710599,0.07481700531086352,0.0055889533972867545,0.006288639574965405,-0.007006247613787804,-0.02033769661517438,0.016904276359822185
504,9.0,300.0929,-587.47682,0.005039986833478727,0.0,0.0,0.0,0.0,0.0007691732512136173,0.10430040878614891,0.02362658586301248,0.05065128933464305,-0.019872238903487282,-0.01169626609133159,0.005168735681364495
505,9.0,300.56906000000004,-470.59617000000003,0.00504999650817628,0.0,0.0,0.0,0.0,0.0007707008690993333,0.08683076420177922,0.01859114728530338,0.037627573406552366,-0.013765685539067388,0.004505937076226366,0.012382690345076386
506,9.0,300.36579,-468.75044,0.005060006182873611,0.0,0.0,0.0,0.0,0.0007722284869850493,0.06205957454880314,0.03473409285123807,0.04569476166147186,-0.0003727339386059757,0.009718030134669901,0.008793285303079691
507,9.0,300.60887,-620.54525,0.005069982822341279,0.0,0.0,0.0,0.0,0.0007737510632276068,0.08560220656153002,0.04230284919646616,0.06072520421386104,0.012422968049801487,0.004941569872544975,-0.008488660374465553
508,9.0,300.91679,-517.4390900000001,0.00507999249703861,0.0,0.0,0.0,0.0,0.0007752786811133228,0.1048670486395719,0.013386112932356486,0.03903539626774366,0.008827797108110743,0.0008510584168204262,-0.026802177537668975
509,9.0,300.78476,-325.51196,0.005090002171736163,0.0,0.0,0.0,0.0,0.0007768062989990665,0.08155560280941133,0.014046543268035887,0.0033453611209614364,0.014691128398651486,0.017474062354805683,-0.006962487165818983
510,9.0,300.67969,-222.03508,0.005100011846433494,0.0,0.0,0.0,0.0,0.0007783339168847547,0.06143325831749054,-0.0025477854590718473,0.008607648157558732,-0.005815363828156724,-0.004755976904728375,0.01232414070129799
511,9.0,300.17476,-209.24433,0.005109988485901162,0.0,0.0,0.0,0.0,0.00077985649312734,0.05116214065081016,0.004512992741972706,0.007929918501597022,-0.002018369070597518,-0.008516743310262122,0.032835856941646764
512,9.0,299.89414,-366.9149,0.0051199981605984934,0.0,0.0,0.0,0.0,0.0007813841110130282,0.05097782133836925,0.016215695909864585,0.04433944947346296,-0.024721626524334576,-0.015598439147696087,0.03329261184822497
513,9.0,300.39814,-526.90804,0.0051300078352958245,0.0,0.0,0.0,0.0,0.0007829117288987442,0.09132605637643001,0.02023706669474298,0.048603765208318155,-0.0035532466042281366,0.001203140362815709,0.028130423789006674
514,9.0,300.25475,-392.10991,0.005139984474763493,0.0,0.0,0.0,0.0,0.0007844343051413016,0.08640404101491492,0.006720292730191254,0.026067288518391078,-0.015452321390525383,0.00965673265794531,0.008655520577083372
515,9.0,299.44684,-289.94981,0.005149994149460824,0.0,0.0,0.0,0.0,0.0007859619230270176,0.06639973610664374,0.0007748466585614113,0.020962919549629082,0.016755027659842485,-0.005776469817768184,0.004286538032073366
516,9.0,299.84535,-521.90887,0.005160003824158377,0.0,0.0,0.0,0.0,0.0007874895409127614,0.09294004422221822,0.013923630964655386,0.05178358922864235,0.011424809296790888,0.014127146300240787,-0.02012704698563488
517,9.0,299.86039,-698.04769,0.005170013498855708,0.0,0.0,0.0,0.0,0.0007890171587984496,0.1071746142848109,0.04064148380250217,0.06437296942186743,0.012917291230337387,0.011776886348788188,-0.009473469253433621
518,9.0,300.09112000000005,-456.49659,0.005179990138323376,0.0,0.0,0.0,0.0,0.0007905397350410348,0.07081505549065184,0.01716774469057448,0.05078076344567115,0.0027539772947963977,0.006665004333184713,-0.005644587008602365
519,9.0,299.79599,-269.47917,0.005189999813020707,0.0,0.0,0.0,0.0,0.000792067352926723,0.05893910975908724,0.01168611231207949,0.011289715700708188,-0.0002004375276116438,-0.011398054427900388,0.011490816461305288
520,9.0,299.99764,-333.92141000000004,0.00520000948771826,0.0,0.0,0.0,0.0,0.0007935949708124668,0.08789033199035041,-0.00898573564359806,0.022599174579614877,-0.015462601826039984,-0.006740897677599804,-0.014559569018917588
521,9.0,299.96877,-398.21462,0.005209986127185706,0.0,0.0,0.0,0.0,0.0007951175470549965,0.08564540343979322,0.011761364370506289,0.023640533250638977,-0.012810561544303989,-0.005289203012253695,0.01054842395404839
522,9.0,300.40162000000004,-396.43699,0.005219995801883259,0.0,0.0,0.0,0.0,0.0007966451649407402,0.07715805380565702,0.02317308146275508,0.02017581065994748,-0.024999472874005873,0.0045440096447588365,0.028807496757578575
523,9.0,300.09833,-417.93698,0.00523000547658059,0.0,0.0,0.0,0.0,0.0007981727828264562,0.06498851075161663,0.027265750604170077,0.03478814467782257,0.008109112491057092,-0.011184269802551489,0.03963845334301076
524,9.0,299.79491,-408.12393,0.005239982116047814,0.0,0.0,0.0,0.0,0.0007996953590689859,0.07106453691702372,0.021771781905707582,0.031223165042736468,0.012936035343937289,0.01183018634379849,0.025853789629570374
525,9.0,299.46768,-402.98155,0.0052499917907453675,0.0,0.0,0.0,0.0,0.0008012229769547019,0.08891730250995451,0.01204547767204609,0.021533548568695778,0.012897897623423388,0.003994114053213366,0.011876931623911888
526,9.0,299.86507,-516.98046,0.005260001465442921,0.0,0.0,0.0,0.0,0.0008027505948404179,0.1032675928267179,0.014312251894759287,0.03956930510318636,0.0036095269730825764,0.005285652685228306,-0.01045472669080119
527,9.0,300.24959,-389.44659,0.005270011140140474,0.0,0.0,0.0,0.0,0.0008042782127261616,0.07216838880121543,0.02250447825176908,0.023709170812412975,-0.014400073320676587,-0.008096647184351862,-0.009303842878042801
528,9.0,300.23906,-320.87509,0.005279987779607698,0.0,0.0,0.0,0.0,0.0008058007889686913,0.06658354271453402,0.004299230205475985,0.026655242087667574,0.001356120761588699,-0.003487819322745966,-0.012620865926832488
529,9.0,300.34978,-520.7806,0.005289997454305251,0.0,0.0,0.0,0.0,0.0008073284068544351,0.08136383205573502,0.03566199081581447,0.04127847665011846,-0.0030628894872336567,-0.012114447579852888,0.01800702380140488
530,9.0,300.52204,-566.61355,0.005300007129002582,0.0,0.0,0.0,0.0,0.0008088560247401511,0.09742880903972481,0.03729590422481917,0.03751165759511236,0.005453436971937324,0.007917296951726372,0.024989417380013475
531,9.0,300.61068,-371.94192000000004,0.005309983768470028,0.0,0.0,0.0,0.0,0.0008103786009826808,0.08642584514381682,0.020651405938885082,0.005983805714180644,0.004839297575026485,-0.008029298679355083,0.037131379766331865
532,9.0,300.05268,-311.54039,0.005319993443167581,0.0,0.0,0.0,0.0,0.0008119062188683968,0.08077287521316213,0.0013466469744787086,0.012580976296895688,0.013920739148869987,0.02441215055954168,0.01043589341119249
533,9.0,299.99688,-354.33274,0.005330003117865134,0.0,0.0,0.0,0.0,0.0008134338367541405,0.07803696822064914,-5.4305123910748445e-05,0.029725642189942475,-0.0007266806194227934,0.006589424184375534,0.0100829237871821
534,9.0,299.7709,-442.21935,0.005340012792562465,0.0,0.0,0.0,0.0,0.0008149614546398565,0.08320375136907092,0.016609888702268386,0.03461000011149107,-0.0028518873479843674,0.009430874043079802,-0.000990621996116779
535,9.0,300.16292999999996,-529.71445,0.005349989432029911,0.0,0.0,0.0,0.0,0.0008164840308823862,0.07945606044945264,0.03925449944286746,0.04230940492461316,-0.023641044941939478,-0.02364046434963218,0.011684283395648988
536,9.0,300.37892,-556.4442,0.005359999106727464,0.0,0.0,0.0,0.0,0.0008180116487681299,0.08979126213195761,0.02239711427117308,0.056956764971945045,-0.0012938081095889187,-0.006566341435172443,-0.011726746680839789
537,9.0,299.94805,-471.44752,0.005370008781424795,0.0,0.0,0.0,0.0,0.0008195392666538459,0.0995228768093932,0.024743556296248876,0.01904184092978338,0.0013678967542508987,-0.007675921222179442,-0.003430283233042596
538,9.0,299.58225,-464.60894,0.0053799854208922415,0.0,0.0,0.0,0.0,0.0008210618428963756,0.08268294689717152,0.02075082299894678,0.037795746578649765,-0.00010880211686043292,0.009207416628301272,-0.006788873448634644
539,9.0,299.72435,-505.84673,0.005389995095589795,0.0,0.0,0.0,0.0,0.0008225894607820916,0.08859777915717,0.031203650859060576,0.03396334389767107,0.014720258325776385,-0.01185707090870179,-0.01009795251531532
540,9.0,299.67291,-439.24445,0.005400004770287348,0.0,0.0,0.0,0.0,0.0008241170786678353,0.06786880284362934,0.036810732719186466,0.028839808290017473,0.012014547199493488,0.006609113255018693,0.006427710380340624
541,9.0,299.29926,-372.64669,0.005409981409754572,0.0,0.0,0.0,0.0,0.0008256396549103373,0.07750484270538242,0.015693397907317785,0.02007704815945038,0.02880672162125207,-0.008574052533268102,0.02304810820867118
542,9.0,298.82578,-479.03535999999997,0.005419991084452125,0.0,0.0,0.0,0.0,0.000827167272796081,0.08678342211735691,0.030156921962506474,0.02867444384719727,-0.0019430764821667182,-0.004865985974710425,0.04071386532339566
543,9.0,299.35625,-482.5039,0.005430000759149678,0.0,0.0,0.0,0.0,0.0008286948906818248,0.10934933270943889,0.02454222958087948,0.012777578227048789,-0.007537861539079013,-0.004175488556888636,0.01893596338708408
544,9.0,299.91305,-384.70255,0.005440010433847231,0.0,0.0,0.0,0.0,0.0008302225085675685,0.06860735780176903,0.012351847012032388,0.03598076537677507,-0.01848746140257038,0.007975588824679332,0.013600605819525288
545,9.0,300.30606,-466.59577,0.005449987073314455,0.0,0.0,0.0,0.0,0.0008317450848100705,0.0980860010280846,0.007446019840739942,0.03630144079492326,-0.018398892198079282,0.014254944495603486,-0.012932948984132686
546,9.0,300.35429,-524.91699,0.00545999674801223,0.0,0.0,0.0,0.0,0.0008332727026958142,0.08094172422307622,0.020687383410185778,0.05793254913624744,-0.021522204220576182,0.013064722159637688,-0.016614047080678786
547,9.0,300.5783,-471.37690999999995,0.005470006422709561,0.0,0.0,0.0,0.0,0.0008348003205815302,0.07461984204015502,0.035458915230772464,0.03320805207437957,0.01055550758549749,-0.005097202149479685,-0.008636539362960072
548,9.0,299.64,-579.5684200000001,0.005479983062177007,0.0,0.0,0.0,0.0,0.0008363228968240599,0.0989495484920601,0.04177731487309996,0.03544746347814227,0.017806828886397185,0.013338876225944589,0.000953585648064076
549,9.0,300.67007,-607.8401,0.0054899927368745605,0.0,0.0,0.0,0.0,0.0008378505147098037,0.12587387130278388,0.027041959120833573,0.031852386262085766,0.03740104918769616,-0.002335302252151388,0.002907753297547907
550,9.0,299.75751,-451.08047,0.0055000024115718915,0.0,0.0,0.0,0.0,0.0008393781325955196,0.09182981595514722,0.03303856167715217,0.012248820755114487,0.008170251090166003,-0.0041219457871543765,0.027985558408959575
551,9.0,299.65682000000004,-375.89825,0.005510012086269445,0.0,0.0,0.0,0.0,0.0008409057504812634,0.08328214450280773,0.014126184725895887,0.016855351578743683,-0.006639142745582374,-0.014486465050702786,0.007934617651585794
552,9.0,299.01026,-421.16212,0.005519988725736669,0.0,0.0,0.0,0.0,0.0008424283267237653,0.07695067190769002,0.016188364501667184,0.034883731652506265,-0.013904068144974685,-0.003673543607775527,0.011051254382423888
553,9.0,299.18764,-454.40219,0.005529998400434444,0.0,0.0,0.0,0.0,0.0008439559446095091,0.07206729278573802,0.015018079887919087,0.051041546663658455,0.003503210693089976,-0.0006668076304837894,0.011416579679478688
554,9.0,298.76824,-398.40833,0.005540008075131775,0.0,0.0,0.0,0.0,0.000845483562495225,0.08791051086609192,0.00931641244818332,0.02387926105369958,-0.01041062498019869,-0.004442330098548846,0.03000553935781617
555,9.0,300.12012999999996,-434.03833,0.005549984714599221,0.0,0.0,0.0,0.0,0.0008470061387377548,0.0910716941243264,0.01138126690024359,0.029483853358329773,0.0028432014641521374,-0.013124355981023088,-0.0011086059523358889
556,9.0,299.5426,-578.0070099999999,0.005559994389296552,0.0,0.0,0.0,0.0,0.0008485337566234985,0.09669462017626601,0.03611365110088987,0.04289142794105436,-0.003591601970863517,0.008606920137361883,0.005438955398858105
557,9.0,299.86672000000004,-691.66091,0.005570004063994105,0.0,0.0,0.0,0.0,0.0008500613745092422,0.11186220308993988,0.04094549936250616,0.05743993834838054,0.00986230823495904,0.013816435183575986,-0.024448909246669478
558,9.0,300.36053,-727.72289,0.005580013738691658,0.0,0.0,0.0,0.0,0.0008515889923949582,0.0949633050616485,0.05920159827699285,0.06704468195429493,-0.017444273815115784,-0.00035847563518629064,-0.001158849275769519
559,9.0,300.29983,-542.20438,0.005589990378158882,0.0,0.0,0.0,0.0,0.0008531115686374879,0.09204414266929961,0.023123197133831878,0.049649251860249655,-0.01202380830540749,-0.0024416663575487075,-0.005467887438238474
560,9.0,299.8279,-353.90765,0.005600000052856435,0.0,0.0,0.0,0.0,0.0008546391865232039,0.07539392863955142,0.02044884305839368,0.011736317841284387,0.004314092760592805,0.007965272317461173,0.01955973636064568
561,9.0,299.79848,-446.2786,0.005610009727553766,0.0,0.0,0.0,0.0,0.0008561668044089199,0.09572889859870672,0.014444213534782887,0.02548443767661818,0.004965000267857375,-0.0034605015934249164,0.01935789491422548
562,9.0,299.76929,-477.14887000000004,0.0056199863670212125,0.0,0.0,0.0,0.0,0.0008576893806514496,0.1022920153654359,0.012328364940964887,0.030420966832565673,0.027892409314016476,-0.0017015480558297182,0.03504564091248547
563,9.0,300.32863,-275.88982999999996,0.0056299960417187656,0.0,0.0,0.0,0.0,0.0008592169985371934,0.07130482005898783,-0.007616499575364983,0.02017529795539688,0.0031167151563958376,-0.008894871326305452,0.018601762093350984
564,9.0,300.8025,-258.91249,0.005640005716416319,0.0,0.0,0.0,0.0,0.0008607446164229371,0.04077192252762546,0.007748541262146483,0.030182467010777574,0.004186680512193197,0.01043025467438599,0.01921047918367668
565,9.0,300.46482000000003,-575.32258,0.005649982355883543,0.0,0.0,0.0,0.0,0.000862267192665439,0.10223977219027991,0.02447860963360068,0.04816532175754716,-0.01102336872642179,0.003422092625859247,-0.0015560175784169786
566,9.0,300.24638999999996,-637.5653900000001,0.005659992030581096,0.0,0.0,0.0,0.0,0.0008637948105511828,0.1124175249397459,0.03698860573449116,0.04439782483822416,0.004823477802540195,0.014679028165957286,0.009699877556478382
567,9.0,300.56621,-509.51070999999996,0.005670001705278649,0.0,0.0,0.0,0.0,0.0008653224284368988,0.10287396542786989,0.012469942324437487,0.03953462256551346,-0.013651749618322787,-0.008840440645508561,-0.014964742402655088
568,9.0,300.10871000000003,-476.91567000000003,0.005680011379976202,0.0,0.0,0.0,0.0,0.0008668500463226425,0.08863451859254591,0.022580020099724478,0.03375591741669967,0.0009367825467532391,-0.0030293377366723572,-0.01063573166216499
569,9.0,300.0875,-443.52365,0.005689988019443426,0.0,0.0,0.0,0.0,0.0008683726225651445,0.09309889245364532,0.015085237091296987,0.026635985269517076,-0.00998237350820856,-0.006178932554838165,-0.009034302848716272
570,9.0,299.78553,-473.2306,0.005699997694140979,0.0,0.0,0.0,0.0,0.0008699002404508882,0.07552591561082753,0.03037636052341337,0.03794800969767696,0.02052996588789988,-0.007862790479822001,0.02942161649743747
571,9.0,300.05284,-495.59640999999993,0.005710007368838532,0.0,0.0,0.0,0.0,0.0008714278583366319,0.12014942367032488,0.015376426931535186,0.015123077929531586,0.005880227033308224,0.0026363839464908375,0.011678602102338289
572,9.0,300.15727999999996,-314.13142999999997,0.005719984008305978,0.0,0.0,0.0,0.0,0.0008729504345791617,0.07974112519283633,0.0030618269931787967,0.012685157658927589,0.019490260841038984,0.012091221861060689,0.043858736268270256
573,9.0,300.34756,-315.22108,0.005729993683003309,0.0,0.0,0.0,0.0,0.0008744780524648776,0.08022900308948612,0.0037233124261873266,0.011867022037933888,-0.004674516358963846,-0.0008815470110044161,0.025739878026828176
574,9.0,299.96867000000003,-486.52732000000003,0.0057400033577008625,0.0,0.0,0.0,0.0,0.0008760056703505936,0.093662671902036,0.01946403184895038,0.034765452941833065,-0.014708155053331885,-0.003913679119200056,0.02201073059728998
575,9.0,300.61302,-591.8849700000001,0.0057500130323984155,0.0,0.0,0.0,0.0,0.0008775332882363374,0.08932597363303722,0.03252808627677217,0.05806419362898975,-0.02378963502935418,-0.01116115047501979,-0.010206229130276391
576,9.0,300.58529,-498.72148,0.00575998967186564,0.0,0.0,0.0,0.0,0.0008790558644788393,0.08147779634748242,0.016632593610509182,0.05348848688665265,-0.014217730859180787,-0.002424425096497128,0.0015613274142410184
577,9.0,300.73438,-580.18111,0.005769999346563193,0.0,0.0,0.0,0.0,0.0008805834823645831,0.1077928994958309,0.029693994336319075,0.038873680538533566,-0.005297565871954045,0.003767108844534697,-0.007890274280834442
578,9.0,300.99782999999996,-655.12167,0.005780009021260746,0.0,0.0,0.0,0.0,0.0008821111002503268,0.1072710858268319,0.051537412010846544,0.04033213348072166,0.025246295532115375,0.0065078071927955625,0.006980261700398193
579,9.0,300.62913,-564.81511,0.005789985660728192,0.0,0.0,0.0,0.0,0.0008836336764928565,0.10651687311489691,0.029420177682295472,0.035752639209510766,0.013152746235574988,0.016104176590608484,0.005996397778473384
580,9.0,299.82897,-485.64142999999996,0.005799995335425523,0.0,0.0,0.0,0.0,0.0008851612943785725,0.0953659301213845,0.031449944600617875,0.02080699353149038,0.012828144473289288,0.008933937487885981,0.0034173974275458663
581,9.0,299.69362,-443.43413,0.005810005010123076,0.0,0.0,0.0,0.0,0.0008866889122642885,0.08808791069359992,0.006581900701058024,0.040123092892340964,0.00041696687522892667,0.01724310921976238,0.02093674324654568
582,9.0,299.94169,-407.832,0.005819981649590522,0.0,0.0,0.0,0.0,0.000888211488506846,0.07917555533151892,0.016230070889033287,0.02856511922765777,-0.010324778378726291,0.006769551985127764,0.01974796377872228
583,9.0,300.25002,-423.06298,0.005829991324288075,0.0,0.0,0.0,0.0,0.0008897391063925619,0.0979901364228735,0.01016944308539589,0.02044100354236998,-0.006423694667544304,-0.008190613668150633,0.023644713920551577
584,9.0,300.10591,-519.72432,0.005840000998985406,0.0,0.0,0.0,0.0,0.0008912667242782779,0.1008155093462161,0.015096924931200484,0.04207078047306276,-0.007072204622422253,-0.008866416426397173,0.006723991397031284
585,9.0,300.32741,-538.46906,0.005850010673682959,0.0,0.0,0.0,0.0,0.0008927943421640216,0.1046039177211029,0.017669367324830782,0.041407861595137756,0.013975596509283988,-0.008651359462897702,0.0002528252834244127
586,9.0,299.51022,-537.03004,0.0058599873131504054,0.0,0.0,0.0,0.0,0.0008943169184065514,0.10053780687805901,0.02068872596656828,0.04201718866202366,-0.0017732712681332481,-0.02198062795006908,0.0036932935747496965
587,9.0,300.26072999999997,-530.44076,0.0058699969878477365,0.0,0.0,0.0,0.0,0.0008958445362922673,0.08620720907698912,0.02236418161642288,0.052669357267310854,0.01058970984262299,-0.001089112033661989,-0.007131576012031754
588,9.0,300.15537,-579.2602099999999,0.00588000666254529,0.0,0.0,0.0,0.0,0.0008973721541779833,0.098203400237671,0.026538049581101578,0.05133918888053345,-0.013881254818973187,0.006299419948079344,-0.005599520683904665
589,9.0,299.77443999999997,-560.08389,0.005889983302012514,0.0,0.0,0.0,0.0,0.0008988947304205408,0.10107906278997682,0.037393894628740064,0.03177855984654967,-0.002180961463794138,0.01946242990054228,0.017498526265220082
590,9.0,299.55246,-569.78767,0.005899992976710067,0.0,0.0,0.0,0.0,0.0009004223483062568,0.1055108373556089,0.03187499187181677,0.03581539890745467,-0.018919889187497683,0.0070592350211422525,0.02095542757838968
591,9.0,299.77497999999997,-490.8033,0.00591000265140762,0.0,0.0,0.0,0.0,0.0009019499661919728,0.09635481459622981,0.02230581131791218,0.030531321927456872,0.0022755885866581078,0.003299563533666567,0.02258974932718468
592,9.0,299.74926,-324.01121,0.005920012326105173,0.0,0.0,0.0,0.0,0.0009034775840777165,0.06773279225620614,-0.001344043428346759,0.03210256987077697,0.002043225818075688,-0.004045023993887786,0.017257471026679783
593,9.0,299.8914,-411.30316,0.005929988965572397,0.0,0.0,0.0,0.0,0.0009050001603202462,0.07833072361014051,0.000971130580170626,0.04572403749661116,0.008363495210812711,-0.00905352845876369,0.019503428026088482
594,9.0,299.79213,-522.98582,0.00593999864026995,0.0,0.0,0.0,0.0,0.00090652777820599,0.10088813607363381,0.01025788462037439,0.047828607603566047,0.004276102873268496,-0.0039667653184392564,0.01034538889901039
595,9.0,299.73056,-462.42362,0.005950008314967281,0.0,0.0,0.0,0.0,0.0009080553960916782,0.09649743866705571,0.01007101455213175,0.03399677912447087,-0.0016102825928225183,0.002664439017909657,0.006877531920459553
596,9.0,300.27275,-523.58523,0.005959984954434949,0.0,0.0,0.0,0.0,0.0009095779723342634,0.09741980225958591,0.026128667156448675,0.035608367594022264,0.014891260492152987,0.005393517920648775,0.005028230823122745
597,9.0,300.01558,-785.04048,0.00596999462913228,0.0,0.0,0.0,0.0,0.0009111055902199516,0.13535084001808786,0.04232113836077116,0.06096072609360524,-0.01025138056798249,0.007915613740660252,-0.004629634040484306
598,9.0,300.7101,-837.90445,0.005980004303829611,0.0,0.0,0.0,0.0,0.0009126332081056676,0.1131661445111289,0.04795299621234225,0.09358289061566222,-7.683373474014923e-05,0.006161035315671844,-0.0059323896550812745
599,9.0,300.34438,-600.30534,0.0059899809432972795,0.0,0.0,0.0,0.0,0.0009141557843482251,0.0999482787181271,0.03325294006705967,0.04927661393722315,-0.007651792089598083,-0.014338670364616586,-0.005695329965660305
600,9.0,299.93057999999996,-378.73114,0.0059999906179946105,0.0,0.0,0.0,0.0,0.0009156834022339411,0.07472044764258402,0.005460274687587155,0.034944086907962864,0.008973783852043511,-0.008676149538519293,-0.0025178871843961176
601,9.0,299.58569,-362.92859,0.006010000292692164,0.0,0.0,0.0,0.0,0.0009172110201196848,0.08557304623690212,0.008750724239254243,0.015997459063576285,0.00015622637586584285,-0.006695837736377734,0.012503489008748288
602,9.0,299.80402999999995,-409.74778,0.006020009967389495,0.0,0.0,0.0,0.0,0.000918738638005373,0.1001226357555848,0.015236533569728787,0.009193925608519811,0.02214999371753418,-0.004533379030009676,0.02150330507971098
603,9.0,299.44563,-538.2603,0.006029986606857163,0.0,0.0,0.0,0.0,0.0009202612142479583,0.1035218679393129,0.013793099020522885,0.04630271982747266,-0.0005376206542690275,0.0037715667396746562,0.0015692886216017287
604,9.0,299.80993,-493.03005,0.006039996281554494,0.0,0.0,0.0,0.0,0.0009217888321336465,0.07948787346284232,0.018011228789319884,0.052369721987489154,0.0036533156907291864,0.007666625665762043,0.00897854612751351
605,9.0,300.17065,-423.35778,0.006050005956252047,0.0,0.0,0.0,0.0,0.0009233164500193902,0.06956958873273383,0.02061238263778378,0.038508222505715665,-0.027203694101795572,0.006591926506822493,0.004804868248553576
606,9.0,299.60604,-673.09037,0.006059982595719493,0.0,0.0,0.0,0.0,0.0009248390262619199,0.11132362013178589,0.03889857811999076,0.05438047020143454,-0.005864654797821365,0.001801768217920678,0.018409411760617483
607,9.0,300.06202,-804.0280799999999,0.006069992270417046,0.0,0.0,0.0,0.0,0.0009263666441476637,0.13110248499880786,0.06085716585388464,0.052444803819899154,-0.01041365865099809,0.005359572522423625,0.014653450693682986
608,9.0,300.38883,-511.30522,0.006080001945114377,0.0,0.0,0.0,0.0,0.0009278942620333797,0.11170231222415991,0.024726315845797375,0.018995390505449083,0.011235909080647888,0.007859415951688962,0.005704782069218155
609,9.0,300.38934,-365.67265,0.006090011619811708,0.0,0.0,0.0,0.0,0.0009294218799190679,0.07124101063394034,0.02962735490374227,0.010286988202996691,5.4800298221368346e-05,-0.01071197569243969,0.02116290573511618
610,9.0,300.57407,-396.59384,0.006099988259279376,0.0,0.0,0.0,0.0,0.0009309444561616254,0.07365794548172323,0.016059114318911185,0.030837564611180673,0.0013171989881474186,-0.005392205863094285,0.0019395838090720179
611,9.0,300.74899,-374.63403999999997,0.006109997933976707,0.0,0.0,0.0,0.0,0.0009324720740473413,0.08123070315159622,0.0009475568201015773,0.03170113436665837,-0.008567065261903511,0.0005103948064670455,0.02125849574955018
612,9.0,300.02662999999995,-360.68785,0.0061200076086742605,0.0,0.0,0.0,0.0,0.0009339996919330851,0.08253547645111732,0.01018930988010659,0.016915312679911382,0.015695515600026785,0.00945885271544108,0.0032681172154880567
613,9.0,299.29701,-477.69298,0.006129984248141707,0.0,0.0,0.0,0.0,0.0009355222681756148,0.094677958634737,0.025269237540879577,0.025259542763922775,-0.014763765258570186,-0.002544526137475177,0.025478257864258273
614,9.0,299.44749,-656.52013,0.00613999392283926,0.0,0.0,0.0,0.0,0.0009370498860613585,0.13578279866821885,0.03465094250828177,0.029131988075603372,0.00013236145838055885,-0.0026015139575494375,0.01009139070766772
615,9.0,299.36131,-729.13849,0.006150003597536591,0.0,0.0,0.0,0.0,0.0009385775039470745,0.1238629042268169,0.03623635771450007,0.06154063547033784,-0.006955743175803403,-0.002484133594414898,0.012265930496303088
616,9.0,299.49772,-775.19992,0.006160013272234144,0.0,0.0,0.0,0.0,0.0009401051218327905,0.1171401519333329,0.04186707261995836,0.07663419945095663,-0.0038442919550020762,0.011472494872997091,0.003018470831999877
617,9.0,300.26134,-661.47901,0.00616998991170159,0.0,0.0,0.0,0.0,0.0009416276980753202,0.1101710481430359,0.03229664880818107,0.05860540090490274,0.01024138181599569,0.00028353352996508076,0.006275630152956474
618,9.0,299.86908,-513.38765,0.006179999586399143,0.0,0.0,0.0,0.0,0.0009431553159610639,0.0967159541571215,0.02788616566690027,0.03145490547310747,-0.005987287342849254,-0.0007665584956584333,0.006622188031659074
619,9.0,300.61591,-401.72752,0.006190009261096474,0.0,0.0,0.0,0.0,0.0009446829338467799,0.10257927176878591,0.008264891081306241,0.011270972600358389,0.011568536796975688,0.008834174504240141,0.0007946851531968182
620,9.0,300.63122999999996,-369.7368,0.00619998590056392,0.0,0.0,0.0,0.0,0.0009462055100893374,0.08881508077361601,0.0033799196368220963,0.02019575547491588,-0.004571745745046176,0.009766114931415501,0.002312437655694828
621,9.0,300.41744,-372.20271,0.006209995575261251,0.0,0.0,0.0,0.0,0.0009477331279750534,0.06548902894326394,0.022461432347770777,0.025189867634046376,0.01170331729877749,-0.0026714918465557172,0.01237199245052059
622,9.0,299.85092000000003,-498.09493,0.006220005249958804,0.0,0.0,0.0,0.0,0.0009492607458607694,0.06252374036661275,0.03935125469491646,0.049533425214818454,-0.013474440983323788,-0.00972543993132619,0.019180813247248883
623,9.0,299.86748,-654.06289,0.00622998188942625,0.0,0.0,0.0,0.0,0.0009507833221033268,0.1081688152829309,0.028843317175113774,0.061806658204592246,0.007581240701035203,0.004006501947610957,0.014144384724192088
624,9.0,299.70085,-712.0178,0.0062399915641235815,0.0,0.0,0.0,0.0,0.0009523109399890151,0.1066972316326969,0.039633928168064166,0.07010447231477272,-0.007116536340797453,-0.0009323192813877492,0.01038915117082939
625,9.0,300.18388999999996,-703.1089,0.0062500012388211346,0.0,0.0,0.0,0.0,0.0009538385578747588,0.12936787175511488,0.04358847308234736,0.04077120109355426,0.01032027245553159,-0.004298930992721456,0.014240613086189088
626,9.0,299.37573,-690.44704,0.006260010913518466,0.0,0.0,0.0,0.0,0.0009553661757604748,0.1240323297760379,0.03107579693494237,0.054770537039431154,0.008582348619786863,-0.012829291472402488,0.006866866449906954
627,9.0,299.28552,-503.15542999999997,0.006269987552986134,0.0,0.0,0.0,0.0,0.0009568887520030323,0.1052368545285689,0.023074126444738975,0.02463570899535518,0.015307545176487086,-0.005210363947147885,0.012245663467802889
628,9.0,299.79278999999997,-238.28046,0.006279997227683465,0.0,0.0,0.0,0.0,0.0009584163698887482,0.06303850384141595,-0.007215571608221473,0.016608378959619384,-0.004755710825252116,0.007178904113602673,-0.002862433964300237
629,9.0,299.95917000000003,-289.12045,0.006290006902381018,0.0,0.0,0.0,0.0,0.000959943987774492,0.07838886694062884,-0.0005949082747828754,0.01009144005294759,-0.014306847218725886,-0.004304087827780396,0.00980038983857317
630,9.0,300.2088,-536.4956,0.006299983541848464,0.0,0.0,0.0,0.0,0.0009614665640170217,0.10022438126437631,0.021999771284208377,0.04085711558278336,-0.012166465813486687,0.0005184642796009404,-0.004694726645458446
631,9.0,300.47096,-609.47426,0.006309993216546017,0.0,0.0,0.0,0.0,0.0009629941819027377,0.1265734900993309,0.024514929583435176,0.03417653982471187,-0.005219260688325925,0.011771966006302589,0.01087250287928249
632,9.0,300.19292,-672.07304,0.006320002891243348,0.0,0.0,0.0,0.0,0.0009645217997884536,0.11608927985711989,0.04029514275932096,0.047909002919500454,0.011839801073997389,0.017950899878365883,0.007258402095248513
633,9.0,300.13079,-758.42673,0.006330012565940679,0.0,0.0,0.0,0.0,0.0009660494176741696,0.1121420729000609,0.046972166062541856,0.07142855005519902,0.01165931488668479,-0.004343835400053175,0.005854545601573665
634,9.0,299.9135,-724.3842099999999,0.006339989205408347,0.0,0.0,0.0,0.0,0.0009675719939167271,0.10468817959941891,0.04633207064311936,0.06917445564423723,0.019754286459346283,-0.001038483168565309,0.007794316355289132
635,9.0,299.79037,-630.70097,0.006349998880105678,0.0,0.0,0.0,0.0,0.0009690996118024431,0.1065082503565459,0.02965157259438237,0.055557524339100745,0.01009751833764747,-0.015520725904776385,-0.006038648281143184
636,9.0,299.65015,-522.5379,0.0063600085548032315,0.0,0.0,0.0,0.0,0.0009706272296881868,0.1084681090974689,0.015736737653845086,0.03463362910382307,-0.004849588244367095,0.004408659595075826,-0.0039466679080057965
637,9.0,299.3518,-356.33468,0.0063699851942706776,0.0,0.0,0.0,0.0,0.0009721498059307165,0.09716730945391681,0.006202213495760814,0.004947321688062636,-0.016481274840575186,-0.0064184688301535545,-0.000930527318188396
638,9.0,299.59905,-312.33882,0.006379994868968231,0.0,0.0,0.0,0.0,0.0009736774238164325,0.07260435384224184,0.014369461008655385,0.007969388139367373,-0.005887468123822864,0.005293417423394625,0.025725747240933575
639,9.0,299.48958999999996,-597.7343400000001,0.006390004543665562,0.0,0.0,0.0,0.0,0.0009752050417021485,0.10041798802723381,0.037305383179504666,0.04397294171354146,-0.0032473773031661867,0.009159426570440022,0.012795189527036888
640,9.0,299.27348,-723.20939,0.006399981183133008,0.0,0.0,0.0,0.0,0.0009767276179446782,0.10677138127501491,0.04701655350967255,0.06604966123684403,0.014406890467349385,0.015528857236828885,0.021758434362140276
641,9.0,299.07824,-603.21065,0.006409990857830561,0.0,0.0,0.0,0.0,0.000978255235830422,0.09088971237986622,0.044510821476126054,0.04796044258732715,-0.00939793794327926,-0.012724959136105687,0.016120093736429385
642,9.0,299.44441,-646.62075,0.006420000532528114,0.0,0.0,0.0,0.0,0.0009797828537161657,0.1140151163724159,0.04555368178379836,0.03698776676340836,0.0011359881243632988,0.004417653405613446,0.014843890036727883
643,9.0,300.12236,-769.57116,0.006430010207225445,0.0,0.0,0.0,0.0,0.0009813104716018817,0.13994677021917085,0.035389442750916066,0.058594202464797546,-0.005219412878490945,0.003371981531563667,0.0024252728828557976
644,9.0,300.55003999999997,-719.84597,0.006439986846693113,0.0,0.0,0.0,0.0,0.0009828330478444391,0.11964061000010888,0.04426705174056786,0.05490754162520245,-0.0008223514101547652,0.010902198199963188,0.005812779027151624
645,9.0,299.47629,-521.26779,0.006449996521390444,0.0,0.0,0.0,0.0,0.0009843606657301274,0.08700585584555942,0.026168717893151373,0.045277817351322656,-0.015947972941942383,-0.015987646749607884,0.005997140896096724
646,9.0,300.23691,-422.54585999999995,0.006460006196087775,0.0,0.0,0.0,0.0,0.0009858882836158434,0.0880508105411884,-0.0002161837888031788,0.040608764943523064,-0.0028387381987866472,3.501082158604906e-05,-0.00990072834827581
647,9.0,300.30136,-542.16243,0.006469982835555443,0.0,0.0,0.0,0.0,0.0009874108598584008,0.10056090594058871,0.03110496637882117,0.03313796860471287,-0.0012748755314704186,0.0031192945871754067,-0.00037077757557789766
648,9.0,300.85292000000004,-643.98138,0.0064799925102527745,0.0,0.0,0.0,0.0,0.0009889384777441168,0.13595674331288587,0.02151009385538098,0.03828741909692406,0.002824702354426417,0.0025487850302954975,-0.006491415237977804
649,9.0,299.87577000000005,-712.20065,0.0064900021849503275,0.0,0.0,0.0,0.0,0.0009904660956298605,0.13363202334345387,0.03689052211156107,0.045968669508004455,0.005541302474233975,-0.008220968006696371,0.015633720516178087
650,9.0,299.79486,-588.92529,0.006500011859647659,0.0,0.0,0.0,0.0,0.0009919937135155765,0.096031295998301,0.03574363546912217,0.047243652241335456,0.0005951677174709805,-0.005892765800645704,0.03390153564157107
651,9.0,299.58315,-492.4317,0.006509988499115105,0.0,0.0,0.0,0.0,0.000993516289758134,0.08604797277077372,0.024817938986089874,0.03882102902358726,0.031219910483415266,0.01145265543603909,0.02587787661094758
652,9.0,299.83701,-588.70033,0.006519998173812658,0.0,0.0,0.0,0.0,0.0009950439076438222,0.09240727225338771,0.03479469635296917,0.05174823186640286,0.0011895994911293288,0.003024785609273097,0.019785344601411483
653,9.0,299.56973,-637.88368,0.006530007848510211,0.0,0.0,0.0,0.0,0.000996571525529566,0.11697423222945788,0.03444530542698696,0.04248117614781566,0.010882282769247688,-0.013912960427852289,0.009172688089073832
654,9.0,299.88447,-459.35803,0.006539984487977435,0.0,0.0,0.0,0.0,0.0009980941017720957,0.1033414080965029,0.006424410528739954,0.02986755090619777,-0.015074256499963285,-0.002306947360027978,-0.007288803752573923
655,9.0,299.66901,-458.44662999999997,0.006549994162674988,0.0,0.0,0.0,0.0,0.0009996217196578394,0.10392713758180991,0.018370992356575782,0.017058193103012584,0.012073059353018188,0.008527337751982712,-0.002984751489872037
656,9.0,300.31221,-570.94513,0.006560003837372319,0.0,0.0,0.0,0.0,0.0010011493375435554,0.0939158679032745,0.02140841319459588,0.05822878192223335,-0.010059850055904901,0.008146415090838572,-0.009543504391070552
657,9.0,300.05397999999997,-654.5314900000001,0.006569980476839765,0.0,0.0,0.0,0.0,0.0010026719137860851,0.11347796209690289,0.03695043255022376,0.04853283466156786,-0.002713325903434417,-0.008418489461315222,0.012996487871403489
658,9.0,300.15427999999997,-785.14437,0.006579990151537318,0.0,0.0,0.0,0.0,0.0010041995316718288,0.11435219428318288,0.050566007113476356,0.07374608304167173,-0.01032246107574759,-0.01058591522099849,0.014824024255267285
659,9.0,300.59459,-646.1787400000001,0.006589999826234649,0.0,0.0,0.0,0.0,0.001005727149557517,0.1366606177598529,0.02338652259632008,0.036375059494188865,0.001009013863451915,-0.004413331792611936,0.025155416117396273
660,9.0,300.27619,-489.80208,0.006600009500932202,0.0,0.0,0.0,0.0,0.0010072547674432608,0.11651606079923989,0.028904275314379873,0.0034672671656676263,-0.014317379953515385,-0.004903976166009765,0.00960002236707344
661,9.0,299.56256,-512.67557,0.0066099861403996485,0.0,0.0,0.0,0.0,0.0010087773436857905,0.1002823908458514,0.024161783552582375,0.03139639737258317,-0.014645643601662485,-0.02014965259536588,0.026170865983363375
662,9.0,299.99217000000004,-669.07542,0.006619995815097202,0.0,0.0,0.0,0.0,0.0010103049615715343,0.1122298304912219,0.03617577447777097,0.05497661893751985,0.0015913788923318684,0.0013172070941482187,-0.002834507879619148
663,9.0,299.55454,-661.71926,0.006630005489794533,0.0,0.0,0.0,0.0,0.0010118325794572502,0.0961135830521721,0.037814868634536966,0.06721768224986874,0.012659797022174688,0.006275940714112124,0.01174738455887659
664,9.0,300.00281,-491.80939000000006,0.006639982129261979,0.0,0.0,0.0,0.0,0.00101335515569978,0.09360697557053922,0.0037576568423018566,0.05213314126139045,0.011737772868427988,0.014234447459330588,-0.014876456908191985
665,9.0,299.67742999999996,-556.44826,0.006649991803959532,0.0,0.0,0.0,0.0,0.0010148827735855237,0.10881151982136089,0.02126785210097358,0.039067002578112964,-0.00833804368552584,0.0015580384044164186,0.008254811674611482
666,9.0,299.82545,-683.9751,0.006660001478657085,0.0,0.0,0.0,0.0,0.0010164103914712397,0.14506201136150584,0.01811049082211628,0.04473884429188016,-0.0025015137720551875,0.0027168656926587677,-0.012262113583176387
667,9.0,299.78732,-687.31208,0.006670011153354416,0.0,0.0,0.0,0.0,0.0010179380093569557,0.1280427736718379,0.03310806759426187,0.04777487292426286,-0.005345775197136934,0.0017542491187059084,0.01891454935947068
668,9.0,300.64637,-602.63909,0.006679987792821862,0.0,0.0,0.0,0.0,0.0010194605855994854,0.1112577588752859,0.03060682628515857,0.04132265232797826,0.008855689046263462,-0.01114047206697899,0.017068670109046585
669,9.0,300.15524,-550.4384,0.006689997467519415,0.0,0.0,0.0,0.0,0.0010209882034852291,0.07789184040882613,0.046208844232207856,0.04321884349886775,-0.006769112842534423,-0.025963999829697274,0.03518818797630376
670,9.0,300.53667,-467.65025,0.006700007142216746,0.0,0.0,0.0,0.0,0.001022515821370945,0.07875212115447923,0.027457200157564674,0.03594467543471327,-0.0003979369947033236,-0.006885352387381373,0.025205921568630774
671,9.0,300.24647000000004,-596.2006700000001,0.006709983781684192,0.0,0.0,0.0,0.0,0.0010240383976134748,0.11550631654458589,0.02872600814478627,0.036997790846647664,-0.004143576143664126,0.01154679346307979,0.014819922618862485
672,9.0,299.92216,-683.68241,0.006719993456381745,0.0,0.0,0.0,0.0,0.0010255660154992186,0.13396945589175588,0.017782580798254084,0.056070345413462244,0.008116750471635903,0.02390363985110558,-0.005945032280554005
673,9.0,299.62937999999997,-557.42256,0.0067300031310792985,0.0,0.0,0.0,0.0,0.0010270936333849345,0.0935627005941696,0.029251508017649072,0.04662832977360786,-0.00984246768342593,0.004264308844754516,0.0074216820799629935
674,9.0,299.74571000000003,-604.18938,0.0067400128057766295,0.0,0.0,0.0,0.0,0.0010286212512706505,0.1010495194568111,0.03195285507575127,0.050656110378618856,0.007662712797850873,-0.003368345584904827,0.0028188715054009578
675,9.0,299.5257,-805.75872,0.006749989445244076,0.0,0.0,0.0,0.0,0.0010301438275131802,0.1123593137215009,0.030423558726321475,0.10214765762368891,0.006941612693883833,-0.002351376654387808,-0.0012104287721100189
676,9.0,299.27401000000003,-748.41658,0.006759999119941629,0.0,0.0,0.0,0.0,0.001031671445398924,0.13370783471593586,0.03329166648588167,0.060500456222430145,0.006807642488187003,-0.005180135859564605,-0.002965244601596857
677,9.0,298.79483,-602.70753,0.006770008794639182,0.0,0.0,0.0,0.0,0.0010331990632846677,0.1217144289797789,0.025126131163006077,0.036367477343690564,-0.007352595952369722,-0.01951225951396008,0.013051471888079987
678,9.0,299.33315,-595.44516,0.006779985434106406,0.0,0.0,0.0,0.0,0.0010347216395271697,0.1311138030024249,0.023620899503451278,0.026265756855228372,-0.01995019937943138,-0.002854854042952157,0.015662869695054885
679,9.0,299.21641,-631.9776400000001,0.006789995108803959,0.0,0.0,0.0,0.0,0.0010362492574129134,0.11695074509213989,0.028506234198096274,0.04664844177484275,-0.002307103501868388,0.012604283075695888,0.02395049253572958
680,9.0,299.18135,-642.1496900000001,0.006800004783501512,0.0,0.0,0.0,0.0,0.0010377768752986294,0.11890019775453589,0.023604210261054182,0.05269306630640075,-0.002148771420042228,0.001107061353883449,0.01063607110094849
681,9.0,299.35267999999996,-686.4859299999999,0.006809981422968958,0.0,0.0,0.0,0.0,0.0010392994515411869,0.08832547528554573,0.04420730038217086,0.07614180549861113,0.008795993315296952,-0.010684318017710092,0.03142427188283417
682,9.0,299.56101,-587.33443,0.006819991097666289,0.0,0.0,0.0,0.0,0.001040827069426875,0.1008979038045978,0.02210767735360788,0.05552942083432715,0.011780125709357887,-0.008123774929279163,-0.005447457377797184
683,9.0,299.48886,-566.47703,0.006830000772363842,0.0,0.0,0.0,0.0,0.0010423546873126188,0.11483621372345189,0.02295330244981458,0.03440536006829467,0.014431621875790187,0.010319211582676891,0.00037664805281476866
684,9.0,300.5661,-680.66978,0.006840010447061395,0.0,0.0,0.0,0.0,0.0010438823051983626,0.13422445041192188,0.02164109189455948,0.051041074489111854,-0.0006467881085855164,-0.005182225991870885,-0.01922429890179058
685,9.0,299.9203,-764.23606,0.006849987086528619,0.0,0.0,0.0,0.0,0.0010454048814408645,0.13697821087119685,0.039325208087845856,0.05600525828003865,-0.008454195381589123,-0.007564823110989913,0.014198112310744587
686,9.0,300.6109,-622.76553,0.0068599967612261725,0.0,0.0,0.0,0.0,0.0010469324993266083,0.09822895136544271,0.04335281036083926,0.047723407925183654,-0.007300265840355143,-0.01105440660348499,0.016356347182745784
687,9.0,300.02976,-605.24747,0.006870006435923504,0.0,0.0,0.0,0.0,0.0010484601172123242,0.09853538757993559,0.03445661937760357,0.05098811190638485,0.007503359461248924,-0.002193644315295838,0.029561042750947772
688,9.0,299.40604,-789.6971599999999,0.00687998307539095,0.0,0.0,0.0,0.0,0.0010499826934548817,0.1310094585071269,0.04888021124635125,0.060158549161686545,-0.0017744934504038683,-0.005359172592609155,0.01129218701770209
689,9.0,299.42137,-649.45559,0.006889992750088281,0.0,0.0,0.0,0.0,0.00105151031134057,0.11999708151778989,0.03904869720180636,0.038372503734321266,-0.0027960827000518772,-0.0068895538289210235,0.00964558021939465
690,9.0,299.73357999999996,-542.0614099999999,0.006900002424785834,0.0,0.0,0.0,0.0,0.0010530379292263137,0.10681341088916291,0.03291354384006387,0.025046181677115677,-0.008720669417438062,-0.004375131047941815,0.023815557006662477
691,9.0,299.45203,-639.3338200000001,0.006910012099483387,0.0,0.0,0.0,0.0,0.0010545655471120574,0.12347418095845288,0.014077206242562089,0.05679013295324974,0.00034340166543610565,0.020385584841400583,-0.01012210596589908
692,9.0,300.1151,-616.70849,0.006919988738950833,0.0,0.0,0.0,0.0,0.0010560881233545871,0.1062012558412479,0.024183667728242177,0.05707905615301424,0.0008315838714884383,-0.0013938310932104187,0.007545535287386353
693,9.0,299.51805,-597.17696,0.006929998413648164,0.0,0.0,0.0,0.0,0.0010576157412403031,0.0922102579304439,0.02801657095477027,0.061300055446094445,0.006810586081052514,-0.0039614034015600765,0.008895866844528701
694,9.0,300.10607999999996,-712.11835,0.006940008088345717,0.0,0.0,0.0,0.0,0.001059143359126019,0.12054475332934088,0.04664005915676546,0.049281386345194154,0.002901124716718717,-0.004272496108212535,0.00951244705960543
695,9.0,300.27607,-733.51779,0.006949984727813163,0.0,0.0,0.0,0.0,0.0010606659353685488,0.14487960607850386,0.026715279182592772,0.05137620999943715,0.010278556948914589,0.012939890760567788,-0.008271086396392673
696,9.0,300.70144,-690.71406,0.006959994402510494,0.0,0.0,0.0,0.0,0.0010621935532542648,0.13992453951197686,0.03449897019203326,0.03553631740591147,-0.003982966883563226,0.004412656562745296,0.006790390790659393
697,9.0,300.60864,-753.7927900000001,0.006970004077208047,0.0,0.0,0.0,0.0,0.0010637211711400085,0.13617576745450188,0.04161640265121916,0.05134201686156255,-0.01267469787814529,-0.0056788706297108945,0.008689720706383661
698,9.0,300.92915,-702.89887,0.0069799807166754935,0.0,0.0,0.0,0.0,0.0010652437473825382,0.11501566031616188,0.03506104839350607,0.06358699030604735,-0.003351411135983527,-6.600334152177264e-05,0.025270295373983977
699,9.0,299.71986,-614.89408,0.0069899903913730466,0.0,0.0,0.0,0.0,0.001066771365268282,0.1074749010844469,0.029098886208086473,0.05033865810903875,-0.013571749469927386,0.0068721969560330345,0.02231705839402218
700,9.0,299.87207,-521.66039,0.007000000066070378,0.0,0.0,0.0,0.0,0.001068298983153998,0.12477605534943788,0.0062313669302880344,0.027564309812385574,0.0057051048907000145,-0.0033699053821087672,0.01149112955558619
701,9.0,299.64821,-533.88459,0.007010009740768153,0.0,0.0,0.0,0.0,0.0010698266010397417,0.10386371825805091,0.019756355516050483,0.03866750846118597,-0.01885516479760988,-0.02036459840532938,0.0038140775462951466
702,9.0,299.82517,-444.73167,0.007019986380235377,0.0,0.0,0.0,0.0,0.0010713491772822437,0.0893990016074945,0.019745715376750378,0.026042605745955075,0.008824097225370591,-0.005836527886970454,0.008092543217471831
703,9.0,299.23066,-610.1914400000001,0.00702999605493293,0.0,0.0,0.0,0.0,0.0010728767951679874,0.09613803379033521,0.02276857074458298,0.06657635877132503,-0.004821481497193175,0.014383288832770087,-0.003289064844080427
704,9.0,299.7161,-803.9992599999999,0.007040005729630261,0.0,0.0,0.0,0.0,0.0010744044130537034,0.11631476853437389,0.043653238002239164,0.0844276896021142,0.012489276149595588,0.02134967711279908,0.01962884001746568
705,9.0,299.84963999999997,-717.24198,0.007049982369097929,0.0,0.0,0.0,0.0,0.0010759269892962608,0.12390527834599888,0.038472229835663466,0.055646139139846354,0.007178399920352913,-0.0017834301136358485,0.016912330684867083
706,9.0,299.97888,-682.01404,0.00705999204379526,0.0,0.0,0.0,0.0,0.0010774546071819768,0.12229968223753887,0.049925380751001454,0.03509017528088067,0.013637505348416987,-0.0024101125335345874,0.03435754986232617
707,9.0,300.70488,-771.3516,0.007070001718492591,0.0,0.0,0.0,0.0,0.0010789822250676928,0.14385109643199787,0.04586888463815646,0.04475164670689366,0.01061671701078839,0.0022841386949769378,-0.0037908453427023064
708,9.0,300.21131,-641.67426,0.007080011393190366,0.0,0.0,0.0,0.0,0.0010805098429534366,0.14381455863339185,0.003750408760361527,0.04748798635719936,-0.005860815593192464,-0.010426626225777889,0.0014008549429036187
709,9.0,300.50075,-470.21315,0.00708998803265759,0.0,0.0,0.0,0.0,0.0010820324191959385,0.08926734394250091,0.011925854378490188,0.04173985704340316,-0.01099149998427659,-0.015561384591539086,-0.005369228998526645
710,9.0,300.42351,-444.69794,0.0070999977073551435,0.0,0.0,0.0,0.0,0.0010835600370816822,0.07213887586555273,0.009340686070228942,0.05369750619678125,-0.0016420889187615585,-0.016134819300132684,0.019892450203231982
711,9.0,300.00093,-621.47001,0.0071100073820526966,0.0,0.0,0.0,0.0,0.001085087654967426,0.11547263611126188,0.011003827184993188,0.06243489859784474,0.0016744780661581183,0.02085274177350538,-0.007055591779082693
712,9.0,299.73339,-808.1091299999999,0.007119984021520143,0.0,0.0,0.0,0.0,0.0010866102312099557,0.14214700228131685,0.04108454666047906,0.062413448093227734,0.0036202278060636665,0.014386426868329786,0.024697433151696875
713,9.0,300.15733,-876.18758,0.007129993696217474,0.0,0.0,0.0,0.0,0.0010881378490956717,0.16393385526901186,0.032240128704352965,0.07016515890301203,0.002870369536433417,0.00013358539357385184,0.006988202946731933
714,9.0,299.74006,-800.16023,0.007140003370915027,0.0,0.0,0.0,0.0,0.0010896654669814154,0.13374681444728287,0.052420448327245454,0.057061470184278644,0.007005264254565754,-0.005320074918950515,0.01067870562540619
715,9.0,299.24456000000004,-614.49992,0.00715001304561258,0.0,0.0,0.0,0.0,0.0010911930848671314,0.0976718958447156,0.029614690290742367,0.05950604649478954,0.011048291639131489,-0.0028786367453243274,0.008451820120704702
716,9.0,299.06082999999995,-703.69216,0.007159989685079804,0.0,0.0,0.0,0.0,0.0010927156611096611,0.1044200229604539,0.036948593501292266,0.07253622898501844,-0.0018593089685745084,-0.002997424208872737,0.01082934653102329
717,9.0,299.76765,-753.8102,0.007169999359777357,0.0,0.0,0.0,0.0,0.001094243278995377,0.14509667464742687,0.029837764393008073,0.05420503810562075,-0.02054671085905248,0.004517072694825365,0.014996213950761087
718,9.0,300.55683999999997,-484.28562,0.00718000903447491,0.0,0.0,0.0,0.0,0.0010957708968811208,0.1032476621972509,0.024730802517240177,0.01923227621982788,-0.022041754288851776,0.007718943517450413,0.028784121077771573
719,9.0,299.93294,-448.77392000000003,0.007189985673942134,0.0,0.0,0.0,0.0,0.0010972934731236506,0.1096992586314739,0.0100492271418565,0.016667580123212088,-0.004701420074294035,0.011998856008444888,0.016485729088014784
720,9.0,300.10111,-681.5264400000001,0.007199995348639465,0.0,0.0,0.0,0.0,0.0010988210910093665,0.12339819733345388,0.030919471696264272,0.05284934594882435,-0.0006871935841482263,-0.004650476696366316,-0.0044988747230293655
721,9.0,300.4307,-781.74806,0.007210005023337018,0.0,0.0,0.0,0.0,0.0011003487088951103,0.11558975769032089,0.039165583706842165,0.08287655163352882,0.007560899299977663,-0.017717489611830083,0.01014435602616999
722,9.0,300.70493999999997,-739.99985,0.007219981662804464,0.0,0.0,0.0,0.0,0.00110187128513764,0.1001479244515806,0.05376745895718505,0.07102609420822974,0.0010608697136246892,-0.017179633153997783,0.02409474996571668
723,9.0,300.26512,-738.58442,0.0072299913375020175,0.0,0.0,0.0,0.0,0.001103398903023356,0.12932403855578886,0.04703610721010236,0.04815107850089145,0.02984037553851577,0.002807717952275187,0.007561537850190682
724,9.0,299.31113,-755.6961299999999,0.0072400010121993486,0.0,0.0,0.0,0.0,0.001104926520909072,0.13411518152113788,0.047361935005009057,0.04823563928798695,0.00938937932365959,0.0008864106824119232,0.018405521893483583
725,9.0,299.36377999999996,-683.57894,0.007250010686896902,0.0,0.0,0.0,0.0,0.0011064541387948157,0.1396767694650239,0.04515656373835586,0.022957595590488277,0.0036349459730412367,0.005695385086465744,0.018556432323627282
726,9.0,299.53054,-687.65254,0.007259987326364348,0.0,0.0,0.0,0.0,0.0011079767150373454,0.11766783232041088,0.03954338616562836,0.05181798501653695,-0.012198330502631489,0.006068525784191864,0.009646923586377231
727,9.0,300.67741,-657.05491,0.007269997001061901,0.0,0.0,0.0,0.0,0.0011095043329230891,0.09088808104720522,0.038928584508452165,0.06991161839673952,0.0005704211812061874,0.018703368786878782,-0.01151014218046259
728,9.0,301.26441,-634.70455,0.007280006675759232,0.0,0.0,0.0,0.0,0.0011110319508088051,0.1037551586423369,0.03369914805334697,0.05548002286545195,0.004985712721101535,-0.008250937208879101,0.004782293644275635
729,9.0,300.99306,-809.2884,0.0072899833152269,0.0,0.0,0.0,0.0,0.0011125545270513626,0.14574262158617687,0.038521543704780364,0.06173929531144404,-0.007851053699938673,-0.005894632511304934,0.007662822431511693
730,9.0,300.3494,-888.11461,0.007299992989924231,0.0,0.0,0.0,0.0,0.0011140821449370508,0.15855673963833186,0.05027163060167365,0.061136294978182536,-0.013362050268981686,-0.004807524382365715,0.019007030722597882
731,9.0,300.32489,-644.8684099999999,0.007310002664621562,0.0,0.0,0.0,0.0,0.0011156097628227668,0.13201952700181288,0.025257197089941275,0.03874717018404797,0.00040234020473538663,0.01776956256096928,0.0012480799299258987
732,9.0,299.79085,-619.05835,0.007320012339319115,0.0,0.0,0.0,0.0,0.0011171373807085105,0.11377783346399788,0.027279677726794575,0.047120772361958156,-0.0018336105142382681,0.005610256372689194,0.008581092594962902
733,9.0,299.50752,-747.93128,0.007329988978786561,0.0,0.0,0.0,0.0,0.0011186599569510403,0.12130386003925887,0.03908840545997526,0.06696016676345394,-3.326481333173147e-06,-0.006269201081071974,0.0037985124035589866
734,9.0,299.82959,-692.18852,0.007339998653484114,0.0,0.0,0.0,0.0,0.001120187574836784,0.1123121266643439,0.04097773895418796,0.05711815747437324,0.004663130974215196,-0.008121523082256922,0.01081627459148319
735,9.0,299.60481,-571.58916,0.0073500083281814454,0.0,0.0,0.0,0.0,0.0011217151927225,0.11683786903099988,0.02327051153937068,0.03364045655455457,0.008585526273425471,0.00990114813779224,0.01018267207870149
736,9.0,300.35559,-618.0068,0.007359984967649114,0.0,0.0,0.0,0.0,0.0011232377689650574,0.1160357397218359,0.03698796738692817,0.034834929474689864,0.0025869200150341275,-0.0018406851277614782,0.02157156469919768
737,9.0,300.65745,-716.42041,0.007369994642346445,0.0,0.0,0.0,0.0,0.0011247653868507457,0.14198996878081885,0.04259535119558386,0.033188599698959764,-0.007601312070941092,-0.0028045731279398175,0.02044263487503098
738,9.0,300.41617,-675.81012,0.007380004317043998,0.0,0.0,0.0,0.0,0.0011262930047364894,0.12003204877874088,0.03393283899016047,0.05146450967940166,-0.001984052721510758,0.004658558683138946,0.027457696650113675
739,9.0,300.50869,-704.29311,0.007389980956511444,0.0,0.0,0.0,0.0,0.0011278155809790191,0.1030348087487439,0.044571366209351364,0.06648134630944803,-0.004735077000215715,0.016600915359382785,-0.0028948435793488174
740,9.0,300.55772,-741.25857,0.007399990631208997,0.0,0.0,0.0,0.0,0.0011293431988647629,0.11914378307857589,0.02926844753282087,0.07691187152161072,-0.0009441377190966382,0.0024922518555411076,0.0032289442573469867
741,9.0,300.05499,-716.1556,0.007410000305906328,0.0,0.0,0.0,0.0,0.0011308708167504788,0.11455071024277488,0.047239439147419654,0.05590326857797304,-0.0032494900309496966,-0.015242692103836586,0.00992843232853498
742,9.0,299.79173,-725.64642,0.007420009980603659,0.0,0.0,0.0,0.0,0.001132398434636167,0.13654769103620787,0.039990661104270964,0.04404004217491375,0.005912923499460114,-0.01065682955574719,0.017669499047343783
743,9.0,299.81834,-776.0302,0.007429986620071327,0.0,0.0,0.0,0.0,0.0011339210108787523,0.14169656194936187,0.030916830153253572,0.06328041021004024,0.004309479128912476,0.011344608524875689,-0.004420249656344676
744,9.0,299.77162000000004,-717.6349299999999,0.007439996294768658,0.0,0.0,0.0,0.0,0.0011354486287644405,0.11425105165820089,0.04621266519833496,0.05767938251926185,0.0029361227804727574,-0.0013417017060406487,0.007860998749670172
745,9.0,299.66143,-756.96632,0.007450005969466211,0.0,0.0,0.0,0.0,0.0011369762466501843,0.11434968142293489,0.05083172181970035,0.06491745354860384,-0.004151228613719366,-0.0040275612363643454,0.006701708000832083
746,9.0,299.93757,-775.7794,0.007459982608933657,0.0,0.0,0.0,0.0,0.001138498822892714,0.13347820184577286,0.035227252820659166,0.06711211172194974,0.01097007785066239,-0.004390907048023786,0.002679580926079047
747,9.0,299.89718999999997,-731.6298,0.0074699922836309884,0.0,0.0,0.0,0.0,0.0011400264407784577,0.13054554194884188,0.03815682129153506,0.053694831216517254,0.012141576338030289,-0.00013781971507924686,-0.0012602684167038088
748,9.0,299.71719,-751.5210000000001,0.0074800019583285415,0.0,0.0,0.0,0.0,0.0011415540586641737,0.13399364217164286,0.038687425918401665,0.05576254637758485,-0.004237824614965726,-0.013710238467095187,-0.003752886562156067
749,9.0,299.22337000000005,-846.4026,0.007490011633026095,0.0,0.0,0.0,0.0,0.0011430816765499174,0.15283844243397984,0.042351746619791956,0.062095060593805346,-0.005740893390857064,-0.0018463304506936282,0.012630666081799687
750,9.0,299.28399,-848.7378,0.007499988272493319,0.0,0.0,0.0,0.0,0.0011446042527924472,0.11827379641021489,0.06481049284154763,0.07491081200512152,-0.012269937900448589,0.01048394882368519,0.00927466846923851
751,9.0,299.13697,-735.4010599999999,0.007509997947190872,0.0,0.0,0.0,0.0,0.0011461318706781631,0.12879619604869488,0.03347718447319087,0.061270179766895944,-0.007892848848013534,0.015133176993278286,0.006965578693199094
752,9.0,300.14536,-783.56358,0.007520007621888203,0.0,0.0,0.0,0.0,0.0011476594885638791,0.13789410790158885,0.03797186565803136,0.062317789177786936,-0.0064581901592487435,-0.005741964193562744,0.01006324272121473
753,9.0,300.08336,-809.25132,0.007529984261355871,0.0,0.0,0.0,0.0,0.0011491820648064366,0.13729516563497787,0.05458084040870954,0.054116188230851944,-0.0010054098037737221,-0.008188727300439461,0.031240516950698974
754,9.0,300.39352,-665.1405,0.007539993936053202,0.0,0.0,0.0,0.0,0.0011507096826921526,0.12454472021910687,0.03470081265170357,0.04294057057090436,0.002046110034485338,-0.002778890075005097,0.022919949296272876
755,9.0,300.30487999999997,-675.96109,0.007550003610750533,0.0,0.0,0.0,0.0,0.0011522373005778686,0.1188128049334109,0.035959108169137666,0.05070337646928365,0.012840189990478089,0.00040500599482097967,0.013705783206405486
756,9.0,300.19645,-738.16672,0.007559980250218201,0.0,0.0,0.0,0.0,0.001153759876820426,0.1163898301017819,0.027784044242321674,0.08021037752614792,-0.005304821046645075,-0.005807281030784015,-0.005951011874694144
757,9.0,300.06026,-718.29939,0.007569989924915532,0.0,0.0,0.0,0.0,0.001155287494706142,0.1295094126615839,0.03792600798500557,0.05090966405714265,-0.006521455975617594,-0.007818528675703701,0.004219643868421426
758,9.0,299.84224,-834.26009,0.007579999599613085,0.0,0.0,0.0,0.0,0.001156815112591858,0.14597185928880088,0.04697623324844325,0.060646138282057845,-0.003164735003810027,-0.0013190875850088088,0.005173018790862205
759,9.0,298.92053,-929.69928,0.007590009274310416,0.0,0.0,0.0,0.0,0.001158342730477574,0.16935813769184685,0.04568204638596696,0.06756518042466414,0.00974710980458984,0.01171229469466349,0.0035024476144396664
760,9.0,299.24926,-883.41674,0.0075999859137780845,0.0,0.0,0.0,0.0,0.0011598653067201314,0.15285228343034585,0.06113893044169264,0.054545415158713355,-0.011794025474229688,-0.0006354065437897435,0.007056390625461533
761,9.0,299.1328,-814.05623,0.007609995588475416,0.0,0.0,0.0,0.0,0.0011613929246058474,0.13274076855549388,0.04737709727950546,0.06733489806118703,0.001964095038266088,0.008333456094373082,0.01944792927836118
762,9.0,299.44779,-779.6478099999999,0.007620005263172969,0.0,0.0,0.0,0.0,0.0011629205424915912,0.1049544414606969,0.051880424527449245,0.08015860348578822,-0.010948597961792489,0.0034189945123534867,0.007050701428800054
763,9.0,300.21386,-516.1550599999999,0.007629981902640415,0.0,0.0,0.0,0.0,0.0011644431187341209,0.10515126529262189,0.017072175954392584,0.034674809614387264,0.0050598785754211355,0.012997267060730386,0.017537586043324983
764,9.0,300.53344,-559.14067,0.007639991577337968,0.0,0.0,0.0,0.0,0.0011659707366198646,0.1155244233238729,0.009563200554464411,0.04487717826178266,-0.013716744545987286,-0.004266634760359066,0.008051483182344523
765,9.0,299.97807,-770.54002,0.007650001252035299,0.0,0.0,0.0,0.0,0.0011674983545055528,0.13185852156092287,0.056186220694898245,0.046180182426629156,0.011962283759335487,-0.0007606261189729533,0.029465774950045577
766,9.0,300.60607999999996,-657.98676,0.00766001092673263,0.0,0.0,0.0,0.0,0.0011690259723912688,0.12747601222840288,0.031401156608302866,0.041134373234146565,0.009362599326166612,-0.0016637451131488582,0.018039596752369585
767,9.0,299.91053999999997,-615.57455,0.007669987566200298,0.0,0.0,0.0,0.0,0.0011705485486338263,0.09732812237728782,0.03056598926637827,0.05922518167307035,0.012509649569356289,-0.0020119664445406283,0.012024173075443487
768,9.0,299.94764,-807.4982,0.007679997240897629,0.0,0.0,0.0,0.0,0.0011720761665195423,0.13008005485290186,0.04171079500403496,0.07366843566000852,-0.003685587301114147,-0.012323507419985488,-0.003901279775076336
769,9.0,299.41454,-889.0108,0.007690006915595182,0.0,0.0,0.0,0.0,0.001173603784405286,0.14705607742580487,0.04480891458929555,0.07837209258522333,-0.01836884629286398,0.0017489445517823883,0.010668238751873189
770,9.0,299.95788,-756.79067,0.007699983555062628,0.0,0.0,0.0,0.0,0.0011751263606478157,0.14338176911817888,0.046283323180808356,0.04038037938423316,-0.006054801716887405,0.0048535391091570155,0.027482109898023074
771,9.0,299.94349,-665.38467,0.007709993229760181,0.0,0.0,0.0,0.0,0.0011766539785335595,0.13519326949503688,0.04055930719289196,0.02650774529711077,-0.01041810783218719,0.007694732210285942,0.02080766835605698
772,9.0,300.86582999999996,-643.82749,0.0077200029044575125,0.0,0.0,0.0,0.0,0.0011781815964192477,0.13286346301010288,0.009294653611560892,0.05354935991291035,0.0007661684045024343,-0.0009710698054296281,0.01011153361303067
773,9.0,300.55996,-659.36408,0.0077300125791550656,0.0,0.0,0.0,0.0,0.0011797092143049914,0.1088682516944599,0.04461884204278686,0.046943126314675857,0.0019253485570921082,-0.020628797289403783,0.02171892571424108
774,9.0,300.44813999999997,-715.50174,0.007739989218622512,0.0,0.0,0.0,0.0,0.0011812317905475211,0.11833136928089688,0.03233980819619057,0.06682348135146414,0.01066252300805909,-0.02084179056642458,0.0057721855936953646
775,9.0,299.8761,-730.31288,0.007749998893320065,0.0,0.0,0.0,0.0,0.0011827594084332649,0.12393957686188388,0.03248194185396807,0.06557535785178394,-0.003253683163838527,-0.017786007610092285,-0.00965078102950793
776,9.0,300.15356,-689.00266,0.007760008568017396,0.0,0.0,0.0,0.0,0.0011842870263189809,0.1285603316904169,0.04113451610241066,0.03974475442425186,0.008214620501444923,-0.009054490438408632,0.006104932062934884
777,9.0,299.54811,-922.0921900000001,0.007769985207484842,0.0,0.0,0.0,0.0,0.0011858096025615106,0.16475595573764684,0.043916382092959456,0.07162065822115864,-0.003039639855739097,0.017225892074063182,0.01296702357174559
778,9.0,299.84952000000004,-1024.0794,0.007779994882182395,0.0,0.0,0.0,0.0,0.0011873372204472543,0.16463146783036084,0.07205681780620424,0.07460629285981783,-0.001045548054887559,0.022625047920918375,0.015559405714093786
779,9.0,300.06021,-701.09642,0.007790004556879726,0.0,0.0,0.0,0.0,0.0011888648383329425,0.10432175796575589,0.036720411605272466,0.07207363573136402,-0.007280645265418744,0.01152877179680119,-0.00022779665833177977
780,9.0,299.60573999999997,-527.13698,0.007799981196347172,0.0,0.0,0.0,0.0,0.0011903874145754723,0.08983637303965972,0.014885364389821087,0.05551474188012844,-0.01087319898210119,-0.012170357707120789,0.01214651897201809
781,9.0,299.25542,-701.08057,0.007809990871044503,0.0,0.0,0.0,0.0,0.001191915032461216,0.1176783397239479,0.04175748658189306,0.05367516099232596,-0.0008980432292574659,-0.02113570807593198,0.01972297095175568
782,9.0,299.66132999999996,-743.62427,0.007820000545742056,0.0,0.0,0.0,0.0,0.0011934426503469597,0.13913592695914687,0.03872340136320217,0.04818388044637875,0.006163920241356563,-0.016169196849525485,0.027291402043701674
783,9.0,299.47084,-743.78953,0.00783001022043961,0.0,0.0,0.0,0.0,0.0011949702682326757,0.13768169015062487,0.05634044445286894,0.03207130907869177,0.005671202454279104,-0.011322035339147888,0.017519246216514982
784,9.0,299.63756,-779.8562599999999,0.007839986859906833,0.0,0.0,0.0,0.0,0.0011964928444752054,0.14186031329802287,0.04357477596749556,0.051621743803419454,-0.0018946092848333782,0.004841750045568526,0.02008049928929098
785,9.0,299.46254,-826.91003,0.007849996534604387,0.0,0.0,0.0,0.0,0.0011980204623609492,0.13599266302893087,0.04067498894355886,0.07469234717756072,-0.0019404335206058782,0.008650572471545033,0.006649685612872875
786,9.0,299.43947000000003,-797.48963,0.00786000620930194,0.0,0.0,0.0,0.0,0.0011995480802466651,0.13056568536082988,0.043376084715636254,0.06847516514072263,-0.01049626487865069,0.01086794933333309,-3.5767514734228865e-05
787,9.0,300.19914,-861.37316,0.007869982848769164,0.0,0.0,0.0,0.0,0.0012010706564891671,0.13541057111148289,0.04666822649629536,0.07975713961066683,-0.008225057180124942,0.008624074664204902,-0.00907174669556169
788,9.0,300.23245,-908.5197099999999,0.007879992523466717,0.0,0.0,0.0,0.0,0.0012025982743749108,0.15773596652732785,0.04081391566476986,0.07761742695049362,-0.003872382996799446,-0.0005558276237259154,-0.0045931783151364055
789,9.0,299.69413,-822.11795,0.00789000219816427,0.0,0.0,0.0,0.0,0.0012041258922606546,0.16268171119293484,0.04021023341419106,0.04701138796066275,0.005617335951137895,0.005032073979427035,0.01866716130780538
790,9.0,299.795,-810.04785,0.007900011872861601,0.0,0.0,0.0,0.0,0.0012056535101463706,0.14475808699401085,0.04259168120372166,0.05888455434720304,-0.0001929336506835688,0.005598475009801465,0.01967198420672368
791,9.0,299.31658999999996,-784.86758,0.007909988512329047,0.0,0.0,0.0,0.0,0.0012071760863889003,0.12644489852913987,0.039626440249825166,0.07250880942406233,0.0069511680476268736,0.0013886386930729686,0.007036246402873454
792,9.0,300.10423,-712.46982,0.0079199981870266,0.0,0.0,0.0,0.0,0.001208703704274644,0.12189557783265688,0.021335224113372683,0.07334223093606462,-0.007992713055344361,-0.006500004052450454,0.0009001404137844424
793,9.0,300.0003,-748.85421,0.007930007861724153,0.0,0.0,0.0,0.0,0.00121023132216036,0.12085103856956887,0.03322905877545276,0.07355288664510473,-0.014429234658554587,-0.003269348010384527,0.01087750124202579
794,9.0,299.26112,-835.5043099999999,0.007939984501191377,0.0,0.0,0.0,0.0,0.001211753898402862,0.16120997555518585,0.042911309934516556,0.049851167273927154,-0.0003283470588953317,-0.005560320570660916,0.007206411118042403
795,9.0,299.38032999999996,-768.95824,0.00794999417588893,0.0,0.0,0.0,0.0,0.0012132815162886057,0.15269224057705086,0.030164720948526173,0.05088713950741965,0.005611802187041755,0.0018526255709149083,0.007360789092678322
796,9.0,300.11472000000003,-774.52212,0.007960003850586483,0.0,0.0,0.0,0.0,0.0012148091341743494,0.13667324285609886,0.046315474619731456,0.05244666414708275,0.01172765151317909,0.0002742319751070887,0.015171196163530486
797,9.0,300.32825,-905.81425,0.00796998049005393,0.0,0.0,0.0,0.0,0.0012163317104168792,0.14504853513517585,0.05020893372523595,0.08008744799751571,0.008607383800607642,-0.0007699600471716403,0.009053215567132811
798,9.0,300.57555,-853.58194,0.00797999016475126,0.0,0.0,0.0,0.0,0.0012178593283025951,0.14488281808132086,0.03849674440858286,0.07608803332905423,-0.003002197731418847,0.007322253367525144,0.003795745622835926
799,9.0,300.30295,-613.1457,0.007989999839449036,0.0,0.0,0.0,0.0,0.0012193869461883666,0.1046008982358049,0.03817963968378706,0.04360044868527926,-0.0028221701411015074,0.0033059723405490667,0.009812928504585641
800,9.0,299.95889,-659.52948,0.008000009514146367,0.0,0.0,0.0,0.0,0.0012209145640740549,0.12192252015281589,0.03144411638604267,0.04711386199627616,-0.008522306255961141,-0.004766511159393026,0.005978322815239525
801,9.0,300.11439,-835.9970400000001,0.008009986153613813,0.0,0.0,0.0,0.0,0.0012224371403165846,0.14852646544092088,0.04906622572620945,0.056529536173280846,-0.003364190043594707,-0.0028052593009075372,0.02116081134715948
802,9.0,299.96193999999997,-806.98942,0.008019995828311144,0.0,0.0,0.0,0.0,0.0012239647582023006,0.14132416214010887,0.04699074501637545,0.056989721944697654,0.0033821334869655875,0.0019500621323311482,0.03216221990416397
803,9.0,299.61139,-747.27771,0.008030005503008697,0.0,0.0,0.0,0.0,0.0012254923760880443,0.12872580556424787,0.02456610276648558,0.07386186003784802,-0.003436399919921267,0.01122823067139009,0.01137941467906079
804,9.0,299.59041,-719.99465,0.008039982142476143,0.0,0.0,0.0,0.0,0.001227014952330574,0.13180927760606287,0.031318178517863574,0.055732937183162655,-0.006012046818317824,-0.004281822163457946,0.013942517946519385
805,9.0,299.43743,-851.4077699999999,0.008049991817173474,0.0,0.0,0.0,0.0,0.00122854257021629,0.13967885676022987,0.04720247578377165,0.07192537089723143,0.0025868483782520574,-0.006131857259167193,0.004053377936987256
806,9.0,299.88421,-965.47495,0.00806000149187125,0.0,0.0,0.0,0.0,0.0012300701881020615,0.18323644192652883,0.05085935314992735,0.059384481814042045,0.007877021374826482,0.004895198887018516,0.0012465399924239187
807,9.0,300.45431,-874.79711,0.00807001116656858,0.0,0.0,0.0,0.0,0.0012315978059877497,0.15745403981950384,0.03708410860941657,0.07137833338024303,0.0006936522632006483,-0.00926450182171014,-0.005426426561371604
808,9.0,300.23233,-639.09964,0.008079987806036026,0.0,0.0,0.0,0.0,0.0012331203822302794,0.12556373571217588,0.026959236369419475,0.04174736218689386,0.017188028944326382,-0.01096500754716199,0.018942092536938984
809,9.0,299.84177999999997,-646.73189,0.00808999748073358,0.0,0.0,0.0,0.0,0.0012346480001160232,0.11819949478038189,0.028075118572048474,0.05031572623277555,-0.004128631819264236,-0.007289871110229262,0.013190871797087686
810,9.0,299.68739,-848.50407,0.008100007155431133,0.0,0.0,0.0,0.0,0.001236175618001767,0.14821600561028087,0.04934143559912055,0.06036660284446985,0.012472926345981988,0.0037561996873330464,0.01981777671061228
811,9.0,300.23445,-797.57714,0.008109983794898357,0.0,0.0,0.0,0.0,0.0012376981942442689,0.14559473773408188,0.028648040576091473,0.06820075776189073,-0.023877938762319077,0.00954896601175957,0.0033237797044315173
812,9.0,300.15465,-617.32412,0.00811999346959591,0.0,0.0,0.0,0.0,0.0012392258121300126,0.12428132585561188,0.03813078886996586,0.025239000131395375,-0.009038189372124842,0.008937882475825321,0.014305374966330588
813,9.0,300.36464,-703.74174,0.00813000314429324,0.0,0.0,0.0,0.0,0.0012407534300157563,0.12310673594218889,0.027369928926451677,0.06344324862036115,0.0006799738124156902,-0.0013141738286488588,0.014951162824814885
814,9.0,300.17036,-918.7941599999999,0.008139979783760687,0.0,0.0,0.0,0.0,0.001242276006258286,0.15375420774185886,0.05024559716685435,0.07529068149411174,0.01029452374399039,0.00026049836298668673,0.020315006905685083
815,9.0,300.09938999999997,-955.0291900000001,0.008149989458458018,0.0,0.0,0.0,0.0,0.0012438036241439743,0.15237237778548285,0.06179275641322024,0.07613989450892251,0.0072632898110808935,-0.0014915497434544985,0.01938273778017728
816,9.0,299.78581,-876.0809800000001,0.008159999133155571,0.0,0.0,0.0,0.0,0.001245331242029718,0.14360274883248786,0.048683059121393854,0.07402093523729752,-0.006480576805633134,0.002449957985767028,0.01045536402511409
817,9.0,299.87051,-749.49165,0.008170008807853124,0.0,0.0,0.0,0.0,0.0012468588599154617,0.13240446071480286,0.05896407725480135,0.03645820882389506,-0.0024738379601487977,0.003959203939568006,0.014503316413115884
818,9.0,299.5585,-713.4749099999999,0.008179985447320348,0.0,0.0,0.0,0.0,0.0012483814361579637,0.15501600809138885,0.03339030840961686,0.028472242696991574,-0.005264406147856435,0.012057067226689889,0.01144959542073709
819,9.0,299.65837,-851.47196,0.008189995122017901,0.0,0.0,0.0,0.0,0.0012499090540437074,0.14213054709969286,0.03944947611986017,0.07724619136560552,-0.0016861224376323281,0.006589075828991154,0.006612750214927634
820,9.0,299.30375,-887.59026,0.008200004796715454,0.0,0.0,0.0,0.0,0.0012514366719294512,0.1403529011242529,0.05512915968707445,0.07432321206012993,-0.004284078874080666,-0.0076752983773429725,0.013863326371703786
821,9.0,299.66303,-741.39496,0.0082099814361829,0.0,0.0,0.0,0.0,0.001252959248171981,0.11271804478690489,0.03717967329259807,0.07546783408859534,0.0007005213186760714,-0.012600008173523988,0.028786907515546575
822,9.0,299.93311,-742.36712,0.008219991110880231,0.0,0.0,0.0,0.0,0.0012544868660576691,0.12082307286680889,0.036868680492405465,0.06796931421379904,-0.0008639678817069912,0.0033011014446683467,0.012471440921335387
823,9.0,299.7732,-912.0545199999999,0.008230000785577785,0.0,0.0,0.0,0.0,0.0012560144839434129,0.17099909622879683,0.04483342105621416,0.06140928279362434,0.004431961915575586,0.001992906298234538,0.004204792560380716
824,9.0,299.90501,-921.9512599999999,0.008240010460275338,0.0,0.0,0.0,0.0,0.0012575421018291566,0.17162392703546284,0.03777556061015756,0.07085067629791733,-0.0015654133452692683,0.014432378773614885,-0.013223942253851489
825,9.0,300.22674,-727.4879,0.008249987099742784,0.0,0.0,0.0,0.0,0.0012590646780716863,0.13182141634226088,0.03582270241417547,0.053494042536950955,-0.005278166084214435,0.01062640368174439,0.016867920946234183
826,9.0,299.91451,-817.22697,0.008259996774440115,0.0,0.0,0.0,0.0,0.0012605922959574023,0.13573919851641586,0.03861028009553796,0.07406711107085473,0.004566088972387896,0.009148555815417162,-0.0034965959937871566
827,9.0,300.78295,-786.9735099999999,0.008270006449137668,0.0,0.0,0.0,0.0,0.001262119913843146,0.13656626391054089,0.034896791433045166,0.06775723894136884,-0.00963148692375375,-0.0032631247295953373,0.02827627303490087
828,9.0,300.15176,-808.9207299999999,0.008279983088605114,0.0,0.0,0.0,0.0,0.0012636424900856758,0.1290967361608559,0.05654109634367174,0.06025387167809415,-0.01035133161084689,-0.009004181557693532,0.023833976880230378
829,9.0,299.7144,-905.0400199999999,0.008289992763302445,0.0,0.0,0.0,0.0,0.001265170107971364,0.16825167871514785,0.04831036141661146,0.058547531151941445,-0.00969439151646195,0.0007389123821124744,0.03486091731325467
830,9.0,299.48900000000003,-801.77404,0.008300002437999998,0.0,0.0,0.0,0.0,0.0012666977258571077,0.15630305863341087,0.03675521978595776,0.050661010456102454,0.0005516992273859744,0.006309407351665025,0.01061358708122949
831,9.0,299.87692000000004,-593.4752,0.008310012112697551,0.0,0.0,0.0,0.0,0.0012682253437428515,0.1001684042626018,0.029489870037423576,0.05074336945073065,0.02095096725144948,0.006546391959253583,0.013338366561144288
832,9.0,298.84775,-755.8002799999999,0.008319988752164997,0.0,0.0,0.0,0.0,0.0012697479199853812,0.11675212780753788,0.026655489320691977,0.08633679565877832,0.0015877284561965986,-0.01120255187410579,-0.012042430828995388
833,9.0,299.6392,-979.6686800000001,0.008329998426862328,0.0,0.0,0.0,0.0,0.0012712755378710971,0.12525215117392488,0.07365427852961133,0.0988883866895239,0.012331732984297288,-0.0028017619668623773,0.016299693329904486
834,9.0,300.1014,-917.72856,0.008340008101559881,0.0,0.0,0.0,0.0,0.0012728031557568409,0.15906577622356988,0.04123149832248206,0.07866928897205433,-0.003205819559589757,-9.88637626855937e-05,-0.001080261192713479
835,9.0,300.56248999999997,-792.084,0.008349984741027328,0.0,0.0,0.0,0.0,0.0012743257319993706,0.16157552579376283,0.036871721255955565,0.042326507573051064,-0.007636898123728163,0.002672761752906047,0.010565407038974491
836,9.0,300.23103,-866.1230199999999,0.00835999441572488,0.0,0.0,0.0,0.0,0.0012758533498850866,0.16865045342450383,0.05517463333831235,0.03945468321212406,-0.012473422838530987,-0.0018328368977869184,-0.00036382659883188966
837,9.0,300.1001,-922.2103900000001,0.008370004090422212,0.0,0.0,0.0,0.0,0.0012773809677708026,0.14661951862021988,0.05581191293570695,0.07789750346363503,-0.001138579714144069,0.012958391694143688,0.021699461179820082
838,9.0,300.41652999999997,-876.00309,0.00837998072988988,0.0,0.0,0.0,0.0,0.00127890354401336,0.14082498447834385,0.050060452055581954,0.07539762598916634,0.0009685916388650523,0.01863463597959538,0.005706230206261074
839,9.0,300.35159,-786.08613,0.008389990404587211,0.0,0.0,0.0,0.0,0.001280431161899076,0.12852860682978587,0.03924893163356796,0.07117301851248004,-0.0028395750420442374,-0.004866242326985725,0.028562123047112073
840,9.0,300.09137000000004,-676.8437,0.008400000079284542,0.0,0.0,0.0,0.0,0.001281958779784792,0.13327012080523687,0.01989685480141668,0.05257660536640695,0.008598412585547251,-0.009405488176399412,0.011687638266730091
841,9.0,299.38507999999996,-786.94031,0.008410009753982095,0.0,0.0,0.0,0.0,0.001283486397670508,0.15982955401644885,0.050677719963501545,0.028702934413509074,0.01089320155232529,-0.007552117866661003,0.028123262137299872
842,9.0,299.84041,-984.9566199999999,0.008419986393449541,0.0,0.0,0.0,0.0,0.0012850089739130655,0.1842522352842798,0.03978828770154826,0.07536169512737023,0.008197449154650241,-0.004260692757797636,-0.0012889540336598587
843,9.0,299.86171,-895.30514,0.008429996068147094,0.0,0.0,0.0,0.0,0.0012865365917987814,0.14263301782428287,0.053898291836597244,0.07561909915627403,-0.005400471552110046,-0.008093632663979352,0.01006516131027908
844,9.0,299.79992999999996,-758.54336,0.008440005742844425,0.0,0.0,0.0,0.0,0.0012880642096844974,0.1156952370257309,0.04641626260717845,0.06846673591314073,-0.0009523422483363622,-0.020522105093624083,0.00038834406964657566
845,9.0,299.71303,-864.8349699999999,0.008449982382311871,0.0,0.0,0.0,0.0,0.0012895867859270549,0.11007992656154289,0.06523782195197174,0.08757048541078401,-0.003475927515597337,0.0056032829828509744,0.01216207236105309
846,9.0,300.13625,-953.07821,0.008459992057009202,0.0,0.0,0.0,0.0,0.0012911144038127709,0.17635370757475582,0.055960758362146854,0.05739751559319375,-0.006320097241545034,0.01023155531652589,0.0026561069610123475
847,9.0,300.15002000000004,-835.37937,0.008470001731706756,0.0,0.0,0.0,0.0,0.0012926420216985146,0.16789598740004386,0.04169323335330176,0.04434524222428466,-0.0017429548251412484,0.001884672645077708,0.006080453967019084
848,9.0,300.25301,-676.47972,0.008480011406404309,0.0,0.0,0.0,0.0,0.0012941696395842028,0.15219664982063985,0.03213686838666197,0.02129942801383988,0.005081429695773065,0.0006291312022104154,0.02040582552539818
849,9.0,300.34862999999996,-744.93827,0.008489988045871755,0.0,0.0,0.0,0.0,0.001295692215826788,0.12431440847137688,0.05092228611363835,0.051205941426132946,0.01208100424705229,0.019944934531911783,0.034332543863108266
850,9.0,300.32223999999997,-870.96191,0.008499997720569086,0.0,0.0,0.0,0.0,0.0012972198337124763,0.15176869350840386,0.03305647897867047,0.07992550327378302,0.005959618319718535,0.01021299966744459,0.014123616136892387
851,9.0,300.46013999999997,-900.42289,0.008510007395266417,0.0,0.0,0.0,0.0,0.0012987474515981923,0.13579177606410486,0.05040982069006195,0.08750447925951972,-0.008356812522428182,-0.005509682181013295,0.024446250478407077
852,9.0,299.66251,-890.3484699999999,0.008519984034734085,0.0,0.0,0.0,0.0,0.0013002700278407497,0.17698482053204181,0.036089509404007264,0.05756936686315415,-0.004405080897047636,-0.007519520395043883,-0.00023305683476841876
853,9.0,299.86039,-844.42129,0.008529993709431416,0.0,0.0,0.0,0.0,0.0013017976457264657,0.15735994941521786,0.037477135150955264,0.061845898341214935,-0.011636375917670888,-0.004603779039007615,0.013680610020921087
854,9.0,300.08865,-923.2687099999999,0.008540003384128969,0.0,0.0,0.0,0.0,0.0013033252636122095,0.15790934375193885,0.05240874123559005,0.07033254984603224,0.004538407790255976,-0.007353538680262763,-0.011926039803258489
855,9.0,299.46889,-1043.1654,0.008549980023596415,0.0,0.0,0.0,0.0,0.0013048478398547392,0.16383257078901584,0.052188761599129746,0.10107489427906541,0.0012632982371528288,-0.0006254558603876873,0.0027275602434892374
856,9.0,299.53051,-991.0563199999999,0.008559989698293968,0.0,0.0,0.0,0.0,0.001306375457740483,0.14993232968966885,0.058082249745771745,0.09324179516824872,0.008845731837530763,-0.00034869996034150673,-0.011029588055535592
857,9.0,300.04984,-737.2443900000001,0.0085699993729913,0.0,0.0,0.0,0.0,0.0013079030756261711,0.12203786854419989,0.042363472963199256,0.05970254406018235,0.0012333085673180788,0.013634400750110586,0.015387028567331484
858,9.0,300.1023,-759.96295,0.008580009047688852,0.0,0.0,0.0,0.0,0.0013094306935119149,0.15644542027246086,0.02956756808159177,0.04499677217108566,0.00970017879573311,0.012977712347050488,-6.0577034625237844e-05
859,9.0,300.28966,-905.32326,0.008589985687156299,0.0,0.0,0.0,0.0,0.0013109532697544446,0.17976754981167584,0.05016675617657335,0.045261357103448155,0.002285051329342008,-0.0003303362512266497,0.021636461341602478
860,9.0,300.49098,-959.7868300000001,0.008599995361853852,0.0,0.0,0.0,0.0,0.0013124808876401883,0.17753352585869484,0.04602448540301305,0.06819321411489623,-0.003929143646201286,-0.004104983372530316,0.02379948382032618
861,9.0,299.46897,-877.12491,0.008610005036551183,0.0,0.0,0.0,0.0,0.0013140085055259043,0.14698226215601987,0.047634207465880256,0.07200759816934663,-0.01115109396777729,0.008244479259366753,0.03173252890775677
862,9.0,300.49824,-769.66598,0.00861998167601885,0.0,0.0,0.0,0.0,0.0013155310817684618,0.11255202375801988,0.039515128646839565,0.08189208695561971,-0.012028800588650189,-0.007396642744816804,0.026865244250393175
863,9.0,300.24234,-922.94297,0.008629991350716182,0.0,0.0,0.0,0.0,0.0013170586996541778,0.14480318675596185,0.04749549251394016,0.08825293975063701,-0.012309173984070887,0.0037319180606116367,0.004131997430796396
864,9.0,299.62674,-1080.4776,0.008640001025413513,0.0,0.0,0.0,0.0,0.001318586317539866,0.18767910791748582,0.06399582456239614,0.07676328954019683,-0.008188059771273582,-0.0028352655880439274,0.0008718231233722433
865,9.0,299.61597,-940.40351,0.008650010700111066,0.0,0.0,0.0,0.0,0.0013201139354256097,0.15362367073147584,0.05661817123902844,0.07561734015410042,0.00917233831513931,0.011560838122715888,-0.0012023766762153387
866,9.0,299.63999,-759.5682400000001,0.008659987339578512,0.0,0.0,0.0,0.0,0.0013216365116681394,0.13369272715694488,0.03995390647014357,0.057243145927208645,0.006848437963713203,-0.011725517608468489,-0.01057070633699749
867,9.0,299.64758,-774.07083,0.008669997014276065,0.0,0.0,0.0,0.0,0.0013231641295538832,0.11898312214271987,0.05798374157104974,0.05833133803110485,0.015183677378262287,-0.012683003489214988,0.015315419143014186
868,9.0,300.23087999999996,-890.4593800000001,0.008680006688973396,0.0,0.0,0.0,0.0,0.0013246917474395992,0.12916241503233789,0.053687007912495144,0.08782799887069861,-0.012612440752250988,-0.021986866530934776,0.01794008343354838
869,9.0,299.8832,-937.7496699999999,0.008689983328441064,0.0,0.0,0.0,0.0,0.0013262143236821566,0.16394992541559783,0.05394146034385765,0.06716110236428474,0.0059320764594753645,-0.0013282809044911188,0.03472552075539207
870,9.0,300.18534,-821.61765,0.008699993003138395,0.0,0.0,0.0,0.0,0.0013277419415678726,0.15803162277400684,0.04260511588679755,0.04911451013322475,-0.012948792162696288,0.005166482618442135,0.008886287882058332
871,9.0,300.01721000000003,-775.89288,0.008710002677835949,0.0,0.0,0.0,0.0,0.0013292695594535886,0.15764791509363785,0.026271176730013272,0.05193296559813466,-0.0007016314962806373,0.015843730784904485,0.015624211163989585
872,9.0,300.00102000000004,-941.51486,0.00872001235253328,0.0,0.0,0.0,0.0,0.0013307971773393046,0.17624108482614084,0.045315733170064654,0.06464018779123984,-0.005594913739674995,-0.006459350330613243,0.01058781101193559
873,9.0,300.14075,-1042.1867,0.008729988992000726,0.0,0.0,0.0,0.0,0.001332319753581862,0.16286871663139085,0.053221931182845655,0.100708073424863,0.014097080130023486,0.0030153341136653074,0.009119023729327571
874,9.0,300.22638,-961.3376,0.008739998666698279,0.0,0.0,0.0,0.0,0.001333847371467578,0.16108034033739185,0.053075878273681355,0.07806640718905453,0.008762962476612061,-0.012297136572882887,0.02036647595776468
875,9.0,299.40547000000004,-799.12314,0.00875000834139561,0.0,0.0,0.0,0.0,0.001335374989353294,0.14706342348902984,0.040372171045173065,0.05547788288124075,0.0009354737721290733,-0.011453743666646489,-0.007171901643486583
876,9.0,300.10977,-696.91437,0.008759984980863056,0.0,0.0,0.0,0.0,0.0013368975655958515,0.14551585621379687,0.03972236970304266,0.026606342637841573,-0.014085532118633788,-0.0022133657086171876,0.024145881605512978
877,9.0,299.55234,-884.5920199999999,0.008769994655560609,0.0,0.0,0.0,0.0,0.0013384251834815675,0.14016899623110288,0.06556039214780694,0.06316449845160065,0.0038379763671287765,0.013918710622169789,0.004793929808424036
878,9.0,300.06172000000004,-947.76492,0.00878000433025794,0.0,0.0,0.0,0.0,0.0013399528013672835,0.16501471954818486,0.05684637238680015,0.06623578210796274,0.002074482455835478,0.015133519471812086,0.021931867315506778
879,9.0,299.75048,-789.14441,0.008789980969725386,0.0,0.0,0.0,0.0,0.0013414753776098132,0.11447387548769189,0.04253735073335966,0.08286897049628063,-0.0015641589416454686,-0.0004502625166949505,0.012640810741800887
880,9.0,300.05728,-650.98197,0.00879999064442294,0.0,0.0,0.0,0.0,0.001343002995495557,0.11421102827925088,0.035731720661196266,0.04793951795951205,0.002208432092555278,-0.0029290573875254576,0.04399903290361646
881,9.0,299.64239,-787.5114599999999,0.00881000031912027,0.0,0.0,0.0,0.0,0.0013445306133812729,0.14271394610976987,0.024652090209721877,0.07201778335935184,-0.0007452621773091502,2.3811241574486577e-05,0.008429753154726863
882,9.0,300.40288,-887.8999699999999,0.008820009993817823,0.0,0.0,0.0,0.0,0.0013460582312670166,0.15933863434299886,0.041940182667673756,0.06862060098057603,0.009428622702682611,0.0027122443602776774,0.02295761382899008
883,9.0,299.66386,-922.3260300000001,0.00882998663328527,0.0,0.0,0.0,0.0,0.0013475808075095463,0.17574795626747283,0.03658524809493286,0.06803087726337484,-0.005457042217118135,0.0006645818543866223,-0.009577338331784702
884,9.0,300.17994,-878.71751,0.008839996307982823,0.0,0.0,0.0,0.0,0.00134910842539529,0.16370096986602783,0.03572627849490917,0.06768093006308773,-0.0023560179477958676,-0.001828372315196298,0.002530986785663948
885,9.0,300.28328,-879.6330300000001,0.008850005982680154,0.0,0.0,0.0,0.0,0.0013506360432809783,0.13784650541189086,0.056670246214667847,0.07286973012293242,-0.0038087447096938364,0.005486584131733694,0.005655683110447464
886,9.0,300.37276,-989.3661400000001,0.0088599826221476,0.0,0.0,0.0,0.0,0.001352158619523508,0.16428603060626884,0.05145121077183915,0.08500535868287572,0.009150797428613392,-0.006079851488509625,0.012434548485194387
887,9.0,299.78753,-1080.5163,0.008869992296845153,0.0,0.0,0.0,0.0,0.0013536862374092518,0.18534308007693784,0.04766835906050075,0.0954385396235505,0.002837237980688588,-0.0009316664240833172,-0.004190904447885066
888,9.0,299.70017,-921.77986,0.008880001971542484,0.0,0.0,0.0,0.0,0.0013552138552949677,0.16220058964795184,0.048711099804661255,0.06928637722378303,0.006778730308508593,-0.0005435031283870825,0.011640238427052089
889,9.0,299.06961,-722.72622,0.008890011646240037,0.0,0.0,0.0,0.0,0.0013567414731807115,0.13551900913718487,0.022596675904868278,0.061575035311232845,0.01188440130364909,0.02095858081270088,-0.008485686586747062
890,9.0,299.27612,-695.57924,0.008899988285707483,0.0,0.0,0.0,0.0,0.0013582640494232412,0.12237260584723589,0.04263833022507556,0.046427780221065154,0.01068227226575819,0.007871026379284822,0.01912983156846738
891,9.0,299.89322000000004,-966.3285699999999,0.008909997960405036,0.0,0.0,0.0,0.0,0.001359791667308985,0.15605332288126386,0.03489512261013047,0.1027913146172129,-0.006884650509037104,-0.005012102313330985,0.001081488137259569
892,9.0,300.13962999999995,-1072.5294,0.008920007635102367,0.0,0.0,0.0,0.0,0.0013613192851946732,0.17332470785831683,0.06516058088359863,0.08753686881221633,-0.0017624410431143886,-0.01139591545693929,0.04092244488298086
893,9.0,300.10983999999996,-902.71428,0.008929984274569813,0.0,0.0,0.0,0.0,0.0013628418614372029,0.16444805942975985,0.04637638310974266,0.06357816388442623,-0.01096930879383649,-0.003643492433659707,0.025385907210393976
894,9.0,300.25586,-875.71456,0.008939993949267366,0.0,0.0,0.0,0.0,0.0013643694793229466,0.15652293390511085,0.048783529961559546,0.06088889780726634,0.0024628975948440676,-0.0005205911624883476,0.03010718455484777
895,9.0,299.94687999999996,-939.82185,0.00895000362396492,0.0,0.0,0.0,0.0,0.0013658970972086903,0.18187519107968383,0.04388622878323356,0.05992095113248744,0.002115421610225858,-0.013375610595069988,0.0005878372481650194
896,9.0,299.99912,-916.56613,0.008959980263432143,0.0,0.0,0.0,0.0,0.0013674196734511923,0.14733805479613385,0.048261007017490545,0.08301415099710882,0.0025507963317439974,-0.01011510076000772,0.02123627112185678
897,9.0,299.89558999999997,-899.05309,0.008969989938129919,0.0,0.0,0.0,0.0,0.0013689472913369638,0.14335702555073684,0.046067163497225054,0.08386550196963062,0.017390824872340786,-9.519242016101041e-06,0.004482331793946706
898,9.0,300.03137000000004,-822.46323,0.00897999961282725,0.0,0.0,0.0,0.0,0.0013704749092226798,0.12414288549444888,0.04958636347954305,0.07627903603915473,-0.003857264089407326,-0.0008784455436408251,0.02059317546888818
899,9.0,299.69253,-825.9483700000001,0.00899000928752458,0.0,0.0,0.0,0.0,0.001372002527108368,0.15718461661791386,0.03573672814319047,0.05814633781459675,0.0019187506777409483,0.0017586492585901683,0.0018606493971317982
900,9.0,300.6783,-955.82976,0.008999985926992249,0.0,0.0,0.0,0.0,0.0013735251033509255,0.17049621007166585,0.045774399066331455,0.07427776677989484,-0.0036668317377881164,0.0008990883055431072,0.011992411737808887
901,9.0,300.5963,-1038.2119,0.00900999560168958,0.0,0.0,0.0,0.0,0.0013750527212366415,0.2034457658335338,0.04310885520051276,0.06903586025580893,0.012261975781162789,0.016866143705558785,0.002946744782596067
902,9.0,300.73317000000003,-869.78666,0.009020005276387133,0.0,0.0,0.0,0.0,0.0013765803391223852,0.15540208677699185,0.031532466728512176,0.07745887256159553,-0.01251937170406579,0.001955031820096618,0.009651315316285661
903,9.0,299.97302,-881.47653,0.009029981915854357,0.0,0.0,0.0,0.0,0.0013781029153648872,0.15640187078316284,0.03457204680249537,0.07697294111838783,-0.00020481965190912582,-0.0004497903826783546,0.012867443378417788
904,9.0,300.30065,-1053.5682,0.009039991590552132,0.0,0.0,0.0,0.0,0.0013796305332506587,0.1926388860969778,0.04934172133564875,0.07827781979591933,-0.017436886208636683,-0.012916146257724387,0.012727642222370487
905,9.0,299.67828,-1004.8825,0.009050001265249463,0.0,0.0,0.0,0.0,0.0013811581511363746,0.18716504561175182,0.03723757749606277,0.08105655484365912,0.004809876946447896,-0.0017686494291271082,0.011464040314162689
906,9.0,300.03381,-824.49328,0.009060010939947016,0.0,0.0,0.0,0.0,0.0013826857690220906,0.15351456396070784,0.050915941141512155,0.046194858341077547,0.004738298831558685,0.004848807940465086,0.006426061011827844
907,9.0,299.84779,-783.00245,0.00906998757941424,0.0,0.0,0.0,0.0,0.0013842083452646203,0.15027736161372085,0.02834395206208027,0.059391884619272646,0.0023526710813905577,-0.008582353686037363,0.005189109709075256
908,9.0,299.92282,-865.24776,0.009079997254111793,0.0,0.0,0.0,0.0,0.001385735963150364,0.12604603262727487,0.06545840548549164,0.07150927569066602,0.006645895044248774,-0.004764765836095776,0.018453296635698585
909,9.0,299.57202,-925.1591900000001,0.009090006928809347,0.0,0.0,0.0,0.0,0.00138726358103608,0.1390712917352679,0.06026924065561094,0.08188476217064683,0.004748359898426636,-0.0031538997125406666,0.017599144026650283
910,9.0,300.11139,-965.6677099999999,0.00909998356827657,0.0,0.0,0.0,0.0,0.0013887861572786098,0.14470154763843088,0.06403969525197584,0.08479762721362422,0.006588110100320843,0.015844612312491485,0.026731483078191978
911,9.0,300.17214,-976.6550599999999,0.009109993242974124,0.0,0.0,0.0,0.0,0.0013903137751643535,0.15283001219314787,0.07285793690501852,0.07119080105173503,-0.006808177484239805,0.0014287485022564986,0.01976041662245128
912,9.0,299.64005,-978.1414300000001,0.009120002917671455,0.0,0.0,0.0,0.0,0.0013918413930500695,0.17244602750409782,0.045582787392920855,0.07930175360497373,-0.007881104570079463,0.006830175143910805,0.017693031780916284
913,9.0,299.56541,-1023.7036,0.0091299795571389,0.0,0.0,0.0,0.0,0.0013933639692925992,0.1876822895227998,0.051390777496124855,0.07210727867443434,-0.007689842873253403,0.007309197133361593,0.003924793054246916
914,9.0,299.6496,-1016.4858,0.009139989231836454,0.0,0.0,0.0,0.0,0.0013948915871783152,0.16223046026089985,0.05848831174984694,0.08826751839307583,-0.007787971889787983,-0.002180849398333078,0.007961147882929122
915,9.0,299.87228999999996,-931.2971699999999,0.009149998906534007,0.0,0.0,0.0,0.0,0.001396419205064059,0.15672663770521486,0.03619545888746367,0.09016899163673661,-0.005136679893250835,-0.011728567491269487,-0.0007427714059133302
916,9.0,300.58669,-873.9241900000001,0.009160008581231338,0.0,0.0,0.0,0.0,0.001397946822949775,0.15413929344236385,0.047505201476398355,0.06400663695421324,0.006055879814993804,-0.012031842365450388,0.01212933627682229
917,9.0,300.2148,-1010.7209,0.009169985220698784,0.0,0.0,0.0,0.0,0.0013994693991923046,0.17586427737895283,0.055313243925492146,0.07605639560793183,0.004528016809155465,0.008220158926491522,0.01143616884366199
918,9.0,300.24632,-889.5012800000001,0.009179994895396337,0.0,0.0,0.0,0.0,0.0014009970170780484,0.16850640979028783,0.046501983565638456,0.05537778289061165,0.020773309045165982,0.01045606823393359,0.00975633311627511
919,9.0,299.96223,-873.6166400000001,0.00919000457009389,0.0,0.0,0.0,0.0,0.001402524634963792,0.15049681132037887,0.051281904786129956,0.06377892520623983,0.0004884822395394436,-0.0005396475293715645,0.0038676189988042764
920,9.0,299.09153,-990.9884699999999,0.009199981209561114,0.0,0.0,0.0,0.0,0.001404047211206294,0.15359087182573886,0.04913641964013705,0.09850845640552772,0.006299942582480925,-0.005589117138502915,0.006625638958849654
921,9.0,299.12487000000004,-998.74822,0.009209990884258668,0.0,0.0,0.0,0.0,0.00140557482909201,0.16635534062299384,0.052369895253256256,0.08486928324744611,-0.009034544812840151,-0.006698283620794125,0.0021207778529044783
922,9.0,299.44784,-959.4608699999999,0.00922000055895622,0.0,0.0,0.0,0.0,0.0014071024469777538,0.16175283442876184,0.04614591329499705,0.08375339496531652,0.007474888957289103,0.01189802445124359,0.0018529944952763184
923,9.0,299.56752,-1004.3917,0.009230010233653552,0.0,0.0,0.0,0.0,0.0014086300648634698,0.17742602002308483,0.04429752523732536,0.08358645593184091,-0.006614093885885244,-0.00871674813955106,0.0059053756981402045
924,9.0,299.93746,-988.4394199999999,0.009239986873120998,0.0,0.0,0.0,0.0,0.0014101526411059995,0.18015584751499783,0.059638700184631445,0.06066635870105345,0.0020305102385957583,0.001109544323253499,0.008336206460444522
925,9.0,300.03873,-991.6818199999999,0.00924999654781855,0.0,0.0,0.0,0.0,0.0014116802589917432,0.17810392486998883,0.04628238795096605,0.07706019613749922,-0.004799807773579146,-0.0011694482771155588,0.01959019263215148
926,9.0,299.80869,-963.00586,0.009260006222516104,0.0,0.0,0.0,0.0,0.001413207876877487,0.14458381810931187,0.061012008707666446,0.08713390532694691,0.0018346189007377883,0.013993191597270485,0.027720297638780374
927,9.0,299.83062,-801.9847,0.009269982861983328,0.0,0.0,0.0,0.0,0.001414730453119989,0.1308903104278679,0.05764061557043585,0.05525240028348735,-0.0007088591916289553,0.004037226730393257,0.02771576942408347
928,9.0,299.25057000000004,-861.3665599999999,0.009279992536680881,0.0,0.0,0.0,0.0,0.0014162580710057049,0.13549791327010285,0.06342544682935423,0.06291056784403964,-0.0033058871262156564,0.0015110025241743385,0.03470240345436057
929,9.0,299.18947000000003,-977.53489,0.009290002211378434,0.0,0.0,0.0,0.0,0.0014177856888914486,0.17443161266505985,0.07162139789373163,0.05109318492850475,0.028588634735978575,0.002147095301726808,0.023843567292426877
930,9.0,299.96024,-974.1801,0.009300011886075987,0.0,0.0,0.0,0.0,0.0014193133067771924,0.18219508426875483,0.04538421063832286,0.06854713224232523,-0.004613159708433415,0.0029486830287123573,0.006906053897524453
931,9.0,300.02128,-938.75941,0.009309988525543211,0.0,0.0,0.0,0.0,0.0014208358830196943,0.15594190590026785,0.05161421231542615,0.07780330058858792,0.01154046672945539,-0.016722373648869783,0.004206973783870986
932,9.0,299.84807,-962.2823800000001,0.009319998200240764,0.0,0.0,0.0,0.0,0.001422363500905438,0.14780797992751185,0.054867640849514544,0.08983419353869461,-0.015055357359098086,-0.017027132934447183,0.003948478079309446
933,9.0,300.43851,-1105.4067,0.009330007874938318,0.0,0.0,0.0,0.0,0.001423891118791154,0.18003147106522283,0.04735238005656605,0.10863219481866289,0.003013415220625927,-0.0033329686669383973,-0.0027820859671455075
934,9.0,300.6789,-1184.789,0.009339984514405764,0.0,0.0,0.0,0.0,0.0014254136950337115,0.1937741112440158,0.05730737990404804,0.1090647918163569,-0.01067789299882599,0.006444090176157183,-0.0032419354408541167
935,9.0,300.27533,-1054.8637,0.009349994189103095,0.0,0.0,0.0,0.0,0.0014269413129193997,0.18975564240742382,0.05324615495298635,0.07765042546650033,-0.0016123457726761386,0.0009422123615216201,0.016512014822108984
936,9.0,299.88194,-922.15475,0.009360003863800648,0.0,0.0,0.0,0.0,0.0014284689308051435,0.17452816526708884,0.034092788624446264,0.07169105985135672,-0.015407899492891286,0.012459158303623187,0.005638831444059335
937,9.0,299.66724,-906.8462800000001,0.009369980503268094,0.0,0.0,0.0,0.0,0.0014299915070476732,0.15606778196019086,0.04959991265988025,0.06999093054831704,-0.002711510868530287,0.003119414049362197,0.029819585672963972
938,9.0,299.80233,-885.6393199999999,0.009379990177965425,0.0,0.0,0.0,0.0,0.0014315191249333892,0.15817867576101985,0.03604580184769367,0.07498776227071592,0.0077312551141154725,0.013318115744645687,0.015094917682752384
939,9.0,299.85319,-885.9540199999999,0.009389999852662978,0.0,0.0,0.0,0.0,0.001433046742819133,0.15290626939567384,0.047880671433454355,0.06852095593924183,0.0005713867072264775,-0.009116571056135512,0.02604581369577168
940,9.0,299.73217999999997,-932.69393,0.009400009527360531,0.0,0.0,0.0,0.0,0.001434574360704849,0.14801574686051686,0.06450143028279554,0.07099848618275503,0.006396643625649573,-0.01738245238676448,0.016835318611016586
941,9.0,299.80377999999996,-866.44303,0.009409986166827755,0.0,0.0,0.0,0.0,0.0014360969369474064,0.17260949514273086,0.04376755693152155,0.046999987883787654,0.017002203942236883,-0.011769498742309089,0.017461008653767384
942,9.0,299.94307000000003,-995.6371300000001,0.009419995841525308,0.0,0.0,0.0,0.0,0.0014376245548330946,0.17133346876179684,0.05693929654022104,0.07437605913234552,0.005150154093080636,-0.0028579265212303876,0.0018425038103659684
943,9.0,300.36685,-1124.098,0.009430005516222861,0.0,0.0,0.0,0.0,0.0014391521727188383,0.17235772275788283,0.06515193988674584,0.1041880596150609,-0.004985172050848175,-0.004913178402092956,0.0029351188522736774
944,9.0,300.66312,-1098.9129,0.009439982155690085,0.0,0.0,0.0,0.0,0.001440674748961368,0.16858430845797584,0.06508232656512554,0.1003754396290346,-0.009329155993366011,-0.006144539604043844,0.015991652127253186
945,9.0,300.2598,-1061.2984,0.009449991830387638,0.0,0.0,0.0,0.0,0.0014422023668471118,0.16981524520945984,0.06670692820571124,0.08608605374928202,-9.534415740323571e-05,0.01866343761368788,0.01820388309708338
946,9.0,300.17224,-997.28976,0.00946000150508497,0.0,0.0,0.0,0.0,0.0014437299847328278,0.16952614469092783,0.04406549501742576,0.08955955007258942,0.0010726000087073792,0.022613988296076876,0.008365593854419831
947,9.0,300.01014,-888.1166300000001,0.009470011179782523,0.0,0.0,0.0,0.0,0.0014452576026185437,0.17843892561805083,0.036462118956030964,0.055064239739917344,-0.011422349125548091,0.0005522475476775894,0.015830526109601284
948,9.0,299.48546,-976.4697,0.009479987819249969,0.0,0.0,0.0,0.0,0.0014467801788611012,0.16541049503724484,0.05254149422394175,0.07887041709040413,-0.005958016979260494,-0.001885747298133768,0.010919688923189388
949,9.0,299.43843,-992.3668,0.0094899974939473,0.0,0.0,0.0,0.0,0.0014483077967467894,0.16225675410099485,0.05727962191755854,0.08211835076920022,-0.008026459856549914,-0.00980946531706885,0.01196884455373299
950,9.0,299.75582,-835.91065,0.009500007168644853,0.0,0.0,0.0,0.0,0.0014498354146325332,0.15067266087523387,0.04296016581458825,0.06046313923449725,0.00957811711581156,0.005748664917799055,0.007935359654634024
951,9.0,299.41166,-875.17623,0.009509983808112299,0.0,0.0,0.0,0.0,0.001451357990875063,0.15353833480805384,0.042047499025515064,0.07044588896246794,-0.00948110034391175,-0.020394568316787178,0.01739518083452068
952,9.0,300.10875,-1106.0771,0.009519993482809852,0.0,0.0,0.0,0.0,0.0014528856087608066,0.18199103596361682,0.06863284205503414,0.08559594366266192,0.007397458816447342,0.0026510550986637675,0.004309151241180116
953,9.0,300.31125,-1215.1298,0.009530003157507183,0.0,0.0,0.0,0.0,0.0014544132266465226,0.2000266952260978,0.07023561828846583,0.09910679173532881,-0.001238876275292569,0.008553758754965262,0.011344360278601189
954,9.0,300.07797999999997,-1105.6208,0.009539979796974851,0.0,0.0,0.0,0.0,0.00145593580288908,0.17452299769157884,0.05582248417400024,0.1057356268902939,0.01024962663205939,0.01124788772333009,-0.003638337625100966
955,9.0,299.5495,-952.62722,0.009549989471672182,0.0,0.0,0.0,0.0,0.001457463420774796,0.15705688631030784,0.04811612643869195,0.08440187705581671,-0.004371172583776146,-0.01097710676660609,0.004863356996000965
956,9.0,300.18957,-900.1633800000001,0.009559999146369735,0.0,0.0,0.0,0.0,0.001458991038660512,0.16261155375601086,0.03614222981996036,0.07487341091743033,-0.013733166290357986,-0.011070858745358689,0.0027597081360369873
957,9.0,300.17449,-968.44421,0.009570008821067066,0.0,0.0,0.0,0.0,0.001460518656546228,0.15294340501183884,0.06459873674289894,0.07684071603333822,-0.005399968473435395,0.007232342721226654,0.030737717933076572
958,9.0,299.63324,-936.0596,0.009579985460534735,0.0,0.0,0.0,0.0,0.0014620412327887855,0.16946087111948582,0.05957440642603614,0.05550347149926615,-0.007902961286661552,0.014201970767125384,0.024303780421596376
959,9.0,299.50969,-917.8290400000001,0.009589995135232066,0.0,0.0,0.0,0.0,0.0014635688506745015,0.17153306889899583,0.05301807539522665,0.05444596364814825,-0.007078988635816784,0.003939526825276027,0.03041486098746307
960,9.0,299.48492999999996,-892.44579,0.009600004809929397,0.0,0.0,0.0,0.0,0.0014650964685602175,0.14369947368703387,0.07064735246660084,0.056934408621738646,-0.00855539829495207,0.0014474001061222685,0.029190832575160874
961,9.0,299.47312,-980.7936300000001,0.009609981449397065,0.0,0.0,0.0,0.0,0.001466619044802775,0.14766542577094285,0.07615810565296982,0.07431324066589584,0.011662954481043989,0.005640017149326355,0.015085426569065684
962,9.0,299.78733,-1115.6282,0.009619991124094396,0.0,0.0,0.0,0.0,0.001468146662688491,0.16903996702794583,0.06710151717890413,0.1029816333834959,0.012121417727290789,-0.0008818761956969041,0.0031634570927839066
963,9.0,299.97826000000003,-1065.3399,0.009630000798791949,0.0,0.0,0.0,0.0,0.001469674280574207,0.17196846246696584,0.07095577161153943,0.08091248182519023,0.014093089951129685,-0.020516260667047283,0.00950727644434513
964,9.0,300.19018,-980.5314699999999,0.00964001047348928,0.0,0.0,0.0,0.0,0.0014712018984599229,0.18407640599442682,0.04196642077901326,0.07201425420925352,0.011929527410102688,-0.009128893494576643,0.0038503421726741862
965,9.0,300.3329,-1026.6932,0.009649987112956948,0.0,0.0,0.0,0.0,0.0014727244747024804,0.1933913762837428,0.049330390159780454,0.06936733692002313,0.0028380300382917574,0.011900901068277488,0.008615690830227481
966,9.0,300.48441,-1144.2765,0.00965999678765428,0.0,0.0,0.0,0.0,0.0014742520925881963,0.18480333188116882,0.06708734890275583,0.0959408188438716,-0.008788879894294912,0.013009251782913189,0.0009134093798064873
967,9.0,299.65787,-1155.4494,0.009670006462351832,0.0,0.0,0.0,0.0,0.00147577971047394,0.18901699321702484,0.06015497542858385,0.1020557761046209,-0.01234745153309859,-0.009088091128949762,0.0015295684070816484
968,9.0,300.33751,-1054.7163,0.009679983101819278,0.0,0.0,0.0,0.0,0.0014773022867164698,0.16632041389204685,0.06553674694347335,0.0887502743104701,-0.008556581872393882,-0.003043128273183377,-0.0008392630305513122
969,9.0,299.77853999999996,-952.7841,0.009689992776516831,0.0,0.0,0.0,0.0,0.0014788299046022135,0.16061185402115585,0.05453890401357075,0.07447181937279633,0.015462466050526587,0.004504917138675705,0.02407197109021858
970,9.0,299.75492,-926.5006300000001,0.009700002451214162,0.0,0.0,0.0,0.0,0.0014803575224879018,0.16818283850335383,0.04624528577205436,0.06720493353711053,0.0012107372054404588,0.002405604989139728,0.00876329492396987
971,9.0,299.11978,-1036.482,0.009709979090681609,0.0,0.0,0.0,0.0,0.0014818800987304592,0.18658052189406382,0.05485137818540955,0.07363274797823643,0.006450024883317894,0.005320389330456545,0.02624951141637508
972,9.0,299.68327,-1074.1748,0.00971998876537894,0.0,0.0,0.0,0.0,0.0014834077166161752,0.18122042886506382,0.04882702980160265,0.0964748644680778,0.0024204569051304975,-0.0025398658962902474,-0.003496392533167077
973,9.0,299.66927000000004,-944.18236,0.009729998440076493,0.0,0.0,0.0,0.0,0.0014849353345018912,0.16033282520861783,0.05320171886985085,0.07347331712800184,0.01136808755619289,0.006885785653124133,0.012299721373887988
974,9.0,300.01195,-991.82294,0.009740008114774046,0.0,0.0,0.0,0.0,0.001486462952387635,0.15264618836000587,0.05676700450646714,0.09207621102171451,0.005948696800865664,-0.011779508640046989,0.004479362768503686
975,9.0,299.73819,-1215.9147,0.00974998475424127,0.0,0.0,0.0,0.0,0.0014879855286301646,0.19357619310198282,0.07286937649864753,0.1031621337563099,-0.0024632060281745078,-0.019049212324260878,0.01982171926675138
976,9.0,299.92322,-1228.6104,0.009759994428938823,0.0,0.0,0.0,0.0,0.0014895131465159084,0.20366452653012382,0.08222243688572271,0.08757992788846591,0.009224219557359591,-0.012761851572246687,0.013536732559721487
977,9.0,299.90972999999997,-1022.5166,0.009770004103636154,0.0,0.0,0.0,0.0,0.0014910407644015966,0.17871383050268183,0.060732243262305745,0.07137344140876023,0.0034809952859724863,0.01623936847195088,0.029497384300165175
978,9.0,300.01668,-841.7822699999999,0.009779980743103822,0.0,0.0,0.0,0.0,0.001492563340644154,0.15050114803080686,0.044531744077440955,0.06084789664196985,0.0012523205842444188,0.012515638890697386,0.025431590604402577
979,9.0,300.57634,-742.4950200000001,0.009789990417801153,0.0,0.0,0.0,0.0,0.00149409095852987,0.15026768507526586,0.027647997177894873,0.047784262712939556,-0.02531552381869768,0.004069252526303956,0.01130876074958779
980,9.0,300.17399,-919.5273900000001,0.009800000092498706,0.0,0.0,0.0,0.0,0.0014956185764156138,0.15197771687153286,0.039007695023259764,0.08852795406627882,-0.006032240487510785,0.0017315868682943186,0.02132268716988538
981,9.0,300.13246000000004,-1049.4928,0.009810009767196037,0.0,0.0,0.0,0.0,0.0014971461943013298,0.19013791127265084,0.046518082083227254,0.08236361403540582,0.00939410542610102,0.013081542111297688,0.01117540690392679
982,9.0,300.02357,-1004.6543,0.009819986406663705,0.0,0.0,0.0,0.0,0.0014986687705438873,0.17450007797431685,0.053393646677292655,0.07749609835701943,0.012154857007090989,0.0018129200485212781,0.017204966432997983
983,9.0,299.6583,-1063.1835,0.009829996081361037,0.0,0.0,0.0,0.0,0.0015001963884296032,0.1805506502839618,0.058462919702340944,0.08416766429520171,-0.005502196289274495,-0.009796148778954612,0.01111421673038779
984,9.0,299.20119,-1195.5961,0.009840005756058368,0.0,0.0,0.0,0.0,0.0015017240063152915,0.2045017041602468,0.06610681968823515,0.0928228456361516,-0.01062803501440539,-0.009261511416690012,0.015194626558842884
985,9.0,299.33817999999997,-1151.6964,0.009849982395526036,0.0,0.0,0.0,0.0,0.001503246582557849,0.19138578956580682,0.056339698700795346,0.1023614432622879,-0.0017175478828587783,0.01904680382877318,0.003474180267124897
986,9.0,299.45962000000003,-994.28954,0.009859992070223367,0.0,0.0,0.0,0.0,0.001504774200443565,0.16048527881866387,0.05962721499474794,0.08212669792352402,-0.005913343086326525,0.005897357343473854,0.02415326009274118
987,9.0,299.8998,-919.77911,0.00987000174492092,0.0,0.0,0.0,0.0,0.0015063018183293087,0.17541186120930283,0.036925370822250364,0.06725265153731994,-0.005417891043854215,-0.005434603185703575,0.0044214151979347065
988,9.0,300.29458999999997,-949.80881,0.009880011419618251,0.0,0.0,0.0,0.0,0.0015078294362150246,0.17547547305058084,0.04769112375049746,0.06555155964668524,0.003165570833817517,-0.012064869252459889,0.015934505834863288
989,9.0,299.97083,-942.77001,0.009889988059085919,0.0,0.0,0.0,0.0,0.001509352012457582,0.15906945432143285,0.04664066102732486,0.08086842165784182,0.006123222645790024,0.007040791133546984,0.018623065676703483
990,9.0,299.96117000000004,-928.6107800000001,0.00989999773378325,0.0,0.0,0.0,0.0,0.001510879630343298,0.17054974007444884,0.04784842069602145,0.06387632995160294,-0.0005766438743103194,-0.0017552692589065883,0.013821352486311288
991,9.0,299.87561,-967.51179,0.009910007408480803,0.0,0.0,0.0,0.0,0.001512407248229014,0.16153889680264782,0.052430101560948156,0.08013042398725713,-0.018746225213108383,-0.013301282620734387,0.015341938937881485
992,9.0,299.89234,-1068.3949,0.00991998404794825,0.0,0.0,0.0,0.0,0.0015139298244715438,0.16802380890015886,0.06994881987416103,0.08679275516402801,0.01055925762411759,-0.0031115369417597867,0.011078909017403188
993,9.0,300.75431000000003,-1193.9123,0.009929993722645802,0.0,0.0,0.0,0.0,0.0015154574423572875,0.20861021040072483,0.06564043687920673,0.08866888600943772,0.01041929232155409,0.026670778251450873,0.002194295227160078
994,9.0,300.02067999999997,-1246.6795,0.009940003397343133,0.0,0.0,0.0,0.0,0.0015169850602430035,0.1975750352841378,0.08289621273846923,0.0984881822842768,0.015980215573374482,0.006424912087539453,0.01930388159114478
995,9.0,300.48361,-1020.1638,0.009949980036810802,0.0,0.0,0.0,0.0,0.001518507636485561,0.18129199471962684,0.05605621260106745,0.07275612350847034,0.0007192999030443735,-0.006478634607841453,0.01268899483705629
996,9.0,300.44701000000003,-903.0872800000001,0.009959989711508133,0.0,0.0,0.0,0.0,0.001520035254371277,0.17363466106390682,0.04416811192130326,0.056713208018907856,-0.0038578208703372767,-0.012765891400395387,0.02289285194884858
997,9.0,299.77506,-1044.6501,0.009969999386205464,0.0,0.0,0.0,0.0,0.001521562872256993,0.17623603884064284,0.04920957528410695,0.09210192730925251,0.004804360914228505,0.015701593074126587,0.013377444577750988
998,9.0,299.27824,-1042.9608,0.009980009060903017,0.0,0.0,0.0,0.0,0.001523090490142709,0.1751029516513158,0.05377909410808336,0.08815197444442252,-0.015245712602384685,0.003795568709368466,0.024095147159755876
999,9.0,299.8034,-988.4119900000001,0.009989985700370463,0.0,0.0,0.0,0.0,0.0015246130663852386,0.17984554980437384,0.04605320293734726,0.07455381157088833,-0.00944475830522507,0.004094283248824296,0.006841020061056114
1000,9.0,299.2468,-1060.2576,0.009999995375068016,0.0,0.0,0.0,0.0,0.0015261406842709824,0.16260246490261385,0.06792182216836193,0.09176755274975232,-0.008642360282134552,-0.007195198289785784,0.029324571455859868
1001,9.0,300.39149,-1012.9696,0.010010005049765347,0.0,0.0,0.0,0.0,0.0015276683021566984,0.17581051432864683,0.05008240513224855,0.08202456332669412,0.007560918349079544,0.0015439841189043683,0.0028233513880680876
1002,9.0,300.1348,-1091.6416,0.010019981689232793,0.0,0.0,0.0,0.0,0.0015291908783992558,0.16897296079883284,0.07432463567652044,0.08853419366039461,-0.004716659254473026,-0.016219791466768788,0.015613658164198085
1003,9.0,299.97773,-1259.5229,0.010029991363930346,0.0,0.0,0.0,0.0,0.0015307184962849718,0.1869830456287898,0.08121272302857171,0.11466774062932487,-0.003567278294262957,-0.014521306668641385,-0.004090794831380016
1004,9.0,300.22648,-1083.8148,0.010040001038627677,0.0,0.0,0.0,0.0,0.0015322461141707155,0.17743483529895485,0.06926625610329723,0.08275153987594112,0.004422168853359086,-0.0017849867697644784,0.003697717120711267
1005,9.0,300.50927,-939.2457,0.01005001071332523,0.0,0.0,0.0,0.0,0.0015337737320564038,0.17933964416194484,0.04166851613036236,0.06449907751606335,0.003636394819359226,0.027136694965433274,0.002016852640497858
1006,9.0,300.64911,-998.0817400000001,0.010059987352792676,0.0,0.0,0.0,0.0,0.0015352963082989612,0.17140684833403885,0.04889982675503715,0.08308524771687552,-0.008824415791202031,0.024338114401234876,0.016112363651416484
1007,9.0,300.43784,-1063.3333,0.010069997027490007,0.0,0.0,0.0,0.0,0.0015368239261846772,0.1943014369935588,0.05766773520936235,0.07125758841882643,-0.014847798142363587,-0.00950433741110507,0.016226958184726085
1008,9.0,299.94989,-1111.9737,0.01008000670218756,0.0,0.0,0.0,0.0,0.0015383515440703932,0.18703041507096482,0.06498262275528553,0.08599919288445952,-0.007128924741820093,-0.015468201046092587,0.022687782287609776
1009,9.0,300.34031,-1099.4605,0.010089983341655007,0.0,0.0,0.0,0.0,0.0015398741203129507,0.17418644667086383,0.06278681859607654,0.09723527219112423,0.0031127761466320874,-0.002110908087655408,0.024580124121369378
1010,9.0,300.21117999999996,-1058.1009,0.010099993016352338,0.0,0.0,0.0,0.0,0.0015414017381986667,0.18535216893033482,0.06753620957780493,0.06874788140513764,0.013692955460139487,-0.018538040821062182,0.012850592016004688
1011,9.0,299.4005,-1101.3601,0.01011000269104989,0.0,0.0,0.0,0.0,0.0015429293560844104,0.17386426353656684,0.06397802682438965,0.09694366083884441,0.0005714506331752865,-0.01212537953518179,0.009717957788612761
1012,9.0,299.9555,-1076.2557,0.010119979330517337,0.0,0.0,0.0,0.0,0.0015444519323269401,0.17195873526600583,0.06814734934911973,0.08704878826554652,0.009903935588817341,-0.0062106494107933745,0.013596313692101687
1013,9.0,299.67368999999997,-995.8073699999999,0.01012998900521489,0.0,0.0,0.0,0.0,0.001545979550212656,0.17414582547435484,0.056861661317559035,0.07169308736480684,0.017060743453514285,0.021809917599721278,0.0037738792803778862
1014,9.0,299.62665,-933.5088599999999,0.010139998679912221,0.0,0.0,0.0,0.0,0.001547507168098372,0.15186156801256986,0.04919214636913685,0.08270967136855902,0.00017536634601481084,0.00889030896508018,0.012227931591052886
1015,9.0,299.8992,-989.02482,0.010150008354609774,0.0,0.0,0.0,0.0,0.0015490347859841158,0.17342934619614384,0.05454048063072635,0.07266902351662423,-0.006345841089485754,-0.0016077795611004883,0.008547963369693302
1016,9.0,299.97438999999997,-1110.6,0.01015998499407722,0.0,0.0,0.0,0.0,0.0015505573622266455,0.2024727721600068,0.05761111884677475,0.07751078541721892,-0.012750033023080289,-0.0016992373389766685,0.021754947768546178
1017,9.0,300.14979,-1171.7212,0.010169994668774773,0.0,0.0,0.0,0.0,0.0015520849801123893,0.2057381529922748,0.06033933932402914,0.09009650473783272,-0.0014046586837790185,0.0008287791445491334,0.013255875844003088
1018,9.0,300.85522000000003,-1083.6435,0.010180004343472104,0.0,0.0,0.0,0.0,0.0015536125979980775,0.1848414199524278,0.06742431839576214,0.07713483011336501,0.005911943483963395,-0.002979933688296557,0.03580590272751747
1019,9.0,300.6631,-1075.5255,0.01018998098293955,0.0,0.0,0.0,0.0,0.001555135174240635,0.18651422494002082,0.04789442529031175,0.09252424893768241,-0.008945638601365791,-0.021940647127623277,0.013816367295819287
1020,9.0,300.75995,-1115.0306,0.010199990657637104,0.0,0.0,0.0,0.0,0.001556662792126351,0.17342062211278284,0.06689408563168224,0.09862675335470271,0.004766328065099956,-0.004179406896350346,0.019281873798972782
1021,9.0,300.63451000000003,-1040.601,0.010210000332334435,0.0,0.0,0.0,0.0,0.001558190410012067,0.1767410122929798,0.04811891388971705,0.09145680312958372,-0.009448854064779291,0.0003340256164307617,0.008721499775895012
1022,9.0,300.47218,-947.1716,0.010220010007031988,0.0,0.0,0.0,0.0,0.0015597180278978107,0.16765522904378286,0.04572736906293996,0.07453391843167502,0.003101672952036287,0.012019306435213189,0.007698512646409044
1023,9.0,300.2757,-920.8676,0.010229986646499434,0.0,0.0,0.0,0.0,0.0015612406041403404,0.15250878151394487,0.04942708056382305,0.07798488919200933,-0.01030984307225229,-0.01254562197440649,0.017615496870014184
1024,9.0,300.06028,-1007.0583,0.010239996321196987,0.0,0.0,0.0,0.0,0.0015627682220260841,0.17589885960486581,0.06279145320203394,0.06743025806784834,-0.0052794910100451954,0.006486738379491234,0.014498847980174886
1025,9.0,300.1698,-1168.2801,0.010250005995894318,0.0,0.0,0.0,0.0,0.0015642958399117723,0.18435460394188283,0.07763297932627852,0.09314039821749161,0.002280959318813158,-0.004776575164686266,0.022349433761217376
1026,9.0,299.82582,-1205.443,0.010259982635361764,0.0,0.0,0.0,0.0,0.0015658184161543298,0.1842489726189578,0.08035992513490713,0.1018156763609249,0.008925574526860621,-0.012448024711524387,0.016828565299100085
1027,9.0,299.98364,-1067.0898,0.010269992310059317,0.0,0.0,0.0,0.0,0.0015673460340400458,0.18925852164336182,0.05591491082162204,0.07919521744970942,0.009155016703354802,-0.022675693200666678,0.023352828990744774
1028,9.0,299.81714,-994.65495,0.01028000198475687,0.0,0.0,0.0,0.0,0.0015688736519257895,0.18683799887697483,0.04549299519555905,0.07001927318011424,0.00944037083096706,-0.012341414589002788,0.02098039000785328
1029,9.0,299.67963,-1012.9749,0.010290011659454201,0.0,0.0,0.0,0.0,0.0015704012698115055,0.19329229055646382,0.04535572817801186,0.06927106498827183,0.008137842488367523,0.005102698524647136,0.028118320516562177
1030,9.0,299.63613,-997.46869,0.010299988298921647,0.0,0.0,0.0,0.0,0.0015719238460540352,0.18397540522445882,0.03452043488215167,0.08470973891320031,0.0017229215534391184,0.0062525339275270545,0.011703751983070387
1031,9.0,300.24708,-1016.622,0.0103099979736192,0.0,0.0,0.0,0.0,0.001573451463939779,0.17329902196828184,0.04633062372197655,0.0893980602981516,-0.008183357176234472,0.002071353640851688,0.009213679932469411
1032,9.0,300.91221,-947.51186,0.010320007648316532,0.0,0.0,0.0,0.0,0.0015749790818254672,0.14856135164186388,0.04301358638636046,0.0964450120936316,-0.013573746585874485,0.014031060806507886,0.0018380911061804683
1033,9.0,300.77882999999997,-990.2095400000001,0.010329984287783978,0.0,0.0,0.0,0.0,0.0015765016580680247,0.18854544688548683,0.05036106106874975,0.06209246667354934,-0.023814466749554876,0.01941910839251678,0.0007669906366935822
1034,9.0,299.67836,-1187.2072,0.01033999396248153,0.0,0.0,0.0,0.0,0.0015780292759537407,0.18675554058383684,0.07379365006761622,0.10033216878351409,-0.013056089268785686,0.009351229241494471,0.009498391051568212
1035,9.0,299.80133,-1240.7709,0.010350003637179084,0.0,0.0,0.0,0.0,0.0015795568938394844,0.21267396138428582,0.07205163503194273,0.09243777108139772,0.0013379697032723287,-0.017093540332751084,0.0017413669609095386
1036,9.0,300.45521,-1192.8758,0.010359980276646308,0.0,0.0,0.0,0.0,0.0015810794700819863,0.2023151003119458,0.07722471350323583,0.08306463213034092,0.02122510611900488,-0.0027737962641023774,0.018130747718115483
1037,9.0,299.83605,-1137.031,0.010369989951343639,0.0,0.0,0.0,0.0,0.00158260708796773,0.18498585875418283,0.06635183470816623,0.0942913490060816,0.003293880315180677,-0.007105909779048693,0.017683548773230383
1038,9.0,300.26935,-1067.055,0.010379999626041192,0.0,0.0,0.0,0.0,0.0015841347058534738,0.16912833256916684,0.06820264443357693,0.08702710673990673,0.003357596622543987,0.00033536347133279764,0.018109936574311584
1039,9.0,299.42695,-1053.8146,0.010390009300738745,0.0,0.0,0.0,0.0,0.0015856623237391898,0.1910722494548628,0.048015170251728356,0.08124588974409501,0.0034290123134421663,-0.008626259839370562,0.016538592372231983
1040,9.0,299.68807999999996,-1067.8094,0.010399985940205969,0.0,0.0,0.0,0.0,0.0015871848999817195,0.17775394828544885,0.06162271480793844,0.08521073535889483,0.0013563922112904887,0.0016710656424713385,0.02336798822549088
1041,9.0,300.27111,-982.2856,0.010409995614903522,0.0,0.0,0.0,0.0,0.0015887125178674355,0.17947695981549683,0.06302099690618815,0.05609233496713245,0.008143017257953232,-0.005312858653063324,0.03077222112548177
1042,9.0,299.63468,-1098.7795,0.010420005289601075,0.0,0.0,0.0,0.0,0.0015902401357531792,0.1861093707300648,0.05959766558208165,0.08829449415048811,-0.012954902060799288,0.004990759618524626,0.0060637301727935735
1043,9.0,299.47531000000004,-1240.9186,0.010429981929068521,0.0,0.0,0.0,0.0,0.001591762711995709,0.19070548331616582,0.08399057756197462,0.1025121946121659,-0.0026206142285594876,0.0036821896708788267,0.013722216096527287
1044,9.0,300.1473,-1208.0652,0.010439991603765852,0.0,0.0,0.0,0.0,0.001593290329881425,0.18463845582489682,0.07791553931541502,0.10466765115239289,-0.007356619163216783,0.017778437618595183,-0.004948931742471535
1045,9.0,299.91826000000003,-1181.5556,0.010450001278463406,0.0,0.0,0.0,0.0,0.0015948179477671687,0.18783809699067683,0.07957247376669171,0.09175283022579932,0.013553477530874089,0.03206597533016537,0.010918070762779689
1046,9.0,299.95994,-1095.8311,0.010460010953160959,0.0,0.0,0.0,0.0,0.0015963455656528847,0.17348280527141985,0.07357423886446203,0.08604824330855042,-0.014731789111914384,0.023612561468378375,0.01732377000722298
1047,9.0,300.47078,-1119.0268,0.010469987592628183,0.0,0.0,0.0,0.0,0.0015978681418954144,0.2021733364904548,0.06670206359198114,0.07128080299186754,-0.005639853002810155,-0.005174899585697825,0.025345808850936576
1048,9.0,300.18924,-1114.0873,0.010479997267325736,0.0,0.0,0.0,0.0,0.0015993957597811304,0.19196832731329883,0.06233894077362444,0.08434746147244633,-0.008770180971649472,-0.036274748747538964,0.013308879969984188
1049,9.0,300.13743,-955.3516599999999,0.010490006942023289,0.0,0.0,0.0,0.0,0.001600923377666874,0.16794951740282685,0.061841870672067444,0.06061166650040574,0.021414077262654877,-0.028891636032632475,0.020360241429899378
1050,9.0,299.77461,-849.3313400000001,0.010499983581490735,0.0,0.0,0.0,0.0,0.0016024459539094038,0.15886468660872385,0.027907762079531676,0.07140307086818443,0.0062436569447259635,-0.016957957336870083,0.004905587031018745
1051,9.0,299.46308,-1033.5227,0.010509993256188066,0.0,0.0,0.0,0.0,0.0016039735717951198,0.19059951762070781,0.04603020621307766,0.07753537699714592,0.004152016415672116,-0.007659619547945593,0.0006354270823692703
1052,9.0,300.29702000000003,-1274.1923,0.010520002930885841,0.0,0.0,0.0,0.0,0.0016055011896808913,0.2052982403288588,0.08047036635605682,0.1015540450526039,-0.006593429460695823,0.01071740063347509,0.016243238074082785
1053,9.0,300.08602,-1360.26,0.010529979570353065,0.0,0.0,0.0,0.0,0.0016070237659233932,0.21664313560351278,0.08640136704790101,0.1104405828021369,0.01009940288150846,0.02079058090637058,0.010945268421963888
1054,9.0,300.06548,-1281.016,0.010539989245050618,0.0,0.0,0.0,0.0,0.001608551383809137,0.19246093911441584,0.0930294554375424,0.1039064875447719,0.003268641471089797,0.02021203941727298,0.018467958364645584
1055,9.0,299.99973,-1120.5841,0.01054999891974795,0.0,0.0,0.0,0.0,0.0016100790016948252,0.17773845569141983,0.060600132674517436,0.10229099198283491,-0.02517638938121618,0.002209298624040798,0.00015405493023903786
1056,9.0,300.25816000000003,-1116.0611,0.010560008594445502,0.0,0.0,0.0,0.0,0.001611606619580569,0.17425047394468282,0.06594251814476984,0.09906172135763071,-0.017846392249801783,-0.006333798916022285,-0.0002078179602800358
1057,9.0,300.39209,-1127.751,0.010569985233912949,0.0,0.0,0.0,0.0,0.0016131291958230987,0.17584993989003783,0.06748262283301634,0.0994755924802266,-0.012235787319078187,-0.0063026544450485635,0.005494392642304335
1058,9.0,300.26922,-1119.1888,0.01057999490861028,0.0,0.0,0.0,0.0,0.0016146568137088146,0.18155724333080484,0.05483086493713505,0.1038173215359719,0.011613653784178387,-0.0007105989420506554,0.008785896075400432
1059,9.0,299.77584,-1104.0261,0.010590004583308055,0.0,0.0,0.0,0.0,0.0016161844315945861,0.1932044417727938,0.060190340896824145,0.08220159737091602,0.0035499128087491164,-0.014943017307260985,0.017119480548561182
1060,9.0,299.45474,-1021.0933,0.010599981222775279,0.0,0.0,0.0,0.0,0.001617707007837088,0.1863684385156328,0.04074175097939776,0.08327668308476872,0.008144251497900042,-0.011073789064647888,0.024879657062930976
1061,9.0,299.71707000000004,-1167.2854,0.010609990897472832,0.0,0.0,0.0,0.0,0.0016192346257228318,0.1951823262329958,0.06934361065568154,0.09029968266113482,0.01122702389052099,-0.013011781868412889,0.015362785545438885
1062,9.0,299.83117999999996,-1241.713,0.010620000572170385,0.0,0.0,0.0,0.0,0.0016207622436085478,0.2078383164745448,0.06612249770703243,0.1034889170460609,0.015908797653326087,0.0036307126141234365,0.010915352212761388
1063,9.0,299.95833999999996,-1264.4909,0.010630010246867938,0.0,0.0,0.0,0.0,0.0016222898614942916,0.1997934957155828,0.07869127751247441,0.1058888911004199,-0.005866095538138555,0.0018590961860535085,0.005165449508640175
1064,9.0,299.70741,-1158.157,0.010639986886335162,0.0,0.0,0.0,0.0,0.0016238124377367935,0.19840821057636582,0.06058325699410195,0.09305933010349082,-0.006932970582455924,0.015796091818202882,0.015556812807087884
1065,9.0,300.06617,-1156.3281,0.010649996561032715,0.0,0.0,0.0,0.0,0.0016253400556225372,0.1884373432323178,0.07644862472164182,0.08660888877438182,-0.016296147967804587,0.01990045183927168,0.023914238447151577
1066,9.0,300.21157,-1142.42,0.010660006235730268,0.0,0.0,0.0,0.0,0.001626867673508281,0.16737301862593085,0.07491722993125492,0.10497691534791491,-0.0025432386005731075,0.00026614063603603574,0.014581260677058384
1067,9.0,300.39558,-1065.8418,0.010669982875197492,0.0,0.0,0.0,0.0,0.0016283902497508107,0.17953062154079283,0.05721831623350815,0.08724033914395111,-0.0018130276556818984,-0.01200467105076879,0.006714469784516573
1068,9.0,300.37311,-1013.2368,0.010679992549895045,0.0,0.0,0.0,0.0,0.0016299178676365267,0.17064055768091185,0.049319079248914155,0.08803905684002841,-0.0032629451816776167,-0.007991779345377212,0.004518968992387516
1069,9.0,299.70819,-989.5061800000001,0.010690002224592376,0.0,0.0,0.0,0.0,0.0016314454855222427,0.18053929175034084,0.05015629031629045,0.07008958564430354,-0.0029100518553997574,-0.0015994400061524385,0.014958222138261586
1070,9.0,300.1052,-1100.5238,0.010699978864059823,0.0,0.0,0.0,0.0,0.0016329680617647724,0.18664284690771482,0.07106698695576552,0.07682193442948464,-0.005755281542277064,0.003190793871206837,0.025425487799050274
1071,9.0,300.05891,-1228.0616,0.010709988538757154,0.0,0.0,0.0,0.0,0.0016344956796504884,0.22000567698786982,0.07054111015386554,0.08275327962636284,-0.006441724946448754,0.00010743901176590491,0.02090535275844768
1072,9.0,299.37031,-1266.7224,0.010719998213454707,0.0,0.0,0.0,0.0,0.001636023297536232,0.1973521405271398,0.08278853566359233,0.1049113175364409,-0.0072035502063850535,0.001052322949031189,0.023594474954093378
1073,9.0,299.16486000000003,-1190.4305,0.01073000788815226,0.0,0.0,0.0,0.0,0.0016375509154219758,0.20946719707030279,0.06185671883903284,0.09053724218683011,0.006120483628119703,0.003777207502981356,0.012681384315555188
1074,9.0,299.69723,-1175.5283,0.010739984527619706,0.0,0.0,0.0,0.0,0.0016390734916645056,0.19243120022398083,0.060020363126298645,0.10487969400081988,0.018115721219132484,-0.0038078010698757068,0.008034784922021533
1075,9.0,300.17602,-1130.1951,0.010749994202317037,0.0,0.0,0.0,0.0,0.0016406011095502215,0.18962152862418782,0.05762102539300244,0.0963085364244125,0.026418041252507678,-0.012744079165492687,0.005255770115929125
1076,9.0,300.86471,-1080.0289,0.01076000387701459,0.0,0.0,0.0,0.0,0.0016421287274359375,0.18646659205281985,0.049363223516020856,0.09247200981552682,0.01791933004500018,-0.0024564209002048676,0.0077423115978816626
1077,9.0,300.2929,-1097.911,0.010769980516482036,0.0,0.0,0.0,0.0,0.0016436513036784672,0.18020218344207084,0.06932033123463402,0.08421502563137592,0.0025142733265894573,0.005120277805932075,0.014417747442170887
1078,9.0,300.53652,-976.47317,0.01077999019117959,0.0,0.0,0.0,0.0,0.001645178921564211,0.16187695756601186,0.055090378552747045,0.07985612401293583,-0.027045398091672977,0.006330262571848274,0.012600715422093789
1079,9.0,300.22385,-978.83301,0.01078999986587692,0.0,0.0,0.0,0.0,0.001646706539449927,0.17310035402117485,0.05210138296350616,0.07233905862155923,-0.025735473428643477,-0.0015157780732206485,0.008977061513466991
1080,9.0,299.92331,-1181.9634,0.010800009540574473,0.0,0.0,0.0,0.0,0.0016482341573356707,0.18698542676652483,0.07765770465521872,0.094644227538908,-0.02794513175646977,0.003211061710307117,0.01878468413390398
1081,9.0,299.45885,-1352.6243,0.01080998618004192,0.0,0.0,0.0,0.0,0.0016497567335782004,0.2188671790430088,0.07816170944046012,0.1141351257142599,0.0011447596278289789,0.0027673470285408874,0.02406567475409718
1082,9.0,299.67126,-1240.2219,0.01081999585473925,0.0,0.0,0.0,0.0,0.0016512843514639164,0.2146930344610528,0.07490397763319702,0.08739947108540622,0.0032090711804856667,-0.002087393085959658,0.01835592735408898
1083,9.0,299.59632,-1141.5991,0.010830005529436804,0.0,0.0,0.0,0.0,0.0016528119693496324,0.2045352528710578,0.05463544546984865,0.08784692334281632,0.026481018799223075,-0.008660248706025001,0.015081087832137486
1084,9.0,300.25156,-1235.4933,0.01083998216890425,0.0,0.0,0.0,0.0,0.001654334545592162,0.1988916018015728,0.08253260996658442,0.09413488697864,0.023841146637937977,-0.005460219668106724,0.014258200068174786
1085,9.0,300.01024,-1233.7966,0.010849991843601803,0.0,0.0,0.0,0.0,0.0016558621634779058,0.2139118591639568,0.06417613545744144,0.09695535070524809,0.02407076126959918,0.0055403431290392945,-0.0013899969548320187
1086,9.0,300.68896,-1115.3115,0.010860001518299134,0.0,0.0,0.0,0.0,0.0016573897813636218,0.17896580553754984,0.06452941523730743,0.09553161677773651,-0.005564452807218735,-0.01083355759843889,0.01170953460139109
1087,9.0,300.91321,-944.9808199999999,0.010870011192996687,0.0,0.0,0.0,0.0,0.0016589173992493655,0.16206017344909385,0.059706948658367044,0.06548345100146344,-0.01192268391892729,-0.0076710602561497025,0.00958893244605395
1088,9.0,300.8942,-988.17346,0.010879987832464133,0.0,0.0,0.0,0.0,0.0016604399754918953,0.17414790263705984,0.05491528893546704,0.07131686861592694,-0.026681641305772972,-0.01011245688652179,0.026046520944341473
1089,9.0,300.41064,-1215.5554,0.010889997507161686,0.0,0.0,0.0,0.0,0.001661967593377639,0.1900416626456518,0.07790879512274942,0.1015480162145089,-0.015077697497302884,4.678886506645145e-06,0.016527384812875884
1090,9.0,300.1321,-1222.4552,0.010900007181859017,0.0,0.0,0.0,0.0,0.0016634952112633272,0.20311374404076582,0.07749487536414873,0.09098723364899082,-0.014062001411561486,0.002231211474678428,0.030081220021035266
1091,9.0,299.88371,-1130.5125,0.010909983821326685,0.0,0.0,0.0,0.0,0.0016650177875058847,0.18835107511880383,0.06163944660683974,0.0936570341784796,0.0015546576954577683,0.018149283102194783,-0.0035270187267146466
1092,9.0,299.69271000000003,-1129.7160000000001,0.010919993496024016,0.0,0.0,0.0,0.0,0.0016665454053916007,0.18056303220018383,0.06756536990243284,0.0952770640346141,0.01139689830953629,0.01949891197039278,0.023433132100920077
1093,9.0,300.12997,-1301.74,0.010930003170721347,0.0,0.0,0.0,0.0,0.0016680730232773167,0.21515246232139482,0.08046219044099992,0.10008179569705421,0.016609983947777785,0.0098932575539635,0.0036957014622873365
1094,9.0,300.19234,-1347.5061,0.010939979810189016,0.0,0.0,0.0,0.0,0.0016695955995198741,0.23694419917457177,0.07091008720428073,0.1017539086348289,0.012895725215208988,-0.004107286895307655,0.02396737936189618
1095,9.0,299.80557000000005,-1221.5683,0.010949989484886347,0.0,0.0,0.0,0.0,0.0016711232174055901,0.19127269058964483,0.08012874705834162,0.0999248229915622,-0.0038645809710294464,-0.012861209863802589,0.008098150644850241
1096,9.0,299.94845,-1018.4843,0.0109599991595839,0.0,0.0,0.0,0.0,0.0016726508352913338,0.16244469172954284,0.06656216313742404,0.08058693976681172,-0.002197088555035758,-0.005126416075037875,0.030458201747240468
1097,9.0,299.94743,-1179.9839,0.01097000883428123,0.0,0.0,0.0,0.0,0.001674178453177022,0.18529449473464282,0.06904485082394624,0.10434629888317791,-0.017604718928700483,0.008977522744912512,0.006378767766060364
1098,9.0,299.55362,-1356.5974,0.010979985473748677,0.0,0.0,0.0,0.0,0.0016757010294195795,0.20056706150442782,0.09146328286397322,0.12034140416677189,-0.008764569997895712,0.0013667449928622287,0.02118172584247358
1099,9.0,299.87606,-1221.0168,0.01098999514844623,0.0,0.0,0.0,0.0,0.0016772286473052955,0.20579490513037582,0.060561534938458145,0.1048021803681699,-0.004634470891161665,0.004826407412554325,0.006478281084881563
1100,9.0,299.52027999999996,-1093.7857,0.011000004823143783,0.0,0.0,0.0,0.0,0.0016787562651910393,0.17855404096191183,0.07300662831744323,0.08092288689046713,-0.0015341964269133986,0.010318541824360792,0.02987145495883307
1101,9.0,299.66106,-1142.2803,0.011009981462611007,0.0,0.0,0.0,0.0,0.001680278841433569,0.18109427922761384,0.06637052613276094,0.0997598993125355,-0.006350851104605203,-0.01046767805357939,0.012514047074790289
1102,9.0,300.44701000000003,-1345.4772,0.01101999113730856,0.0,0.0,0.0,0.0,0.0016818064593193127,0.21558557607663978,0.07012845493138964,0.12327744831903689,-0.004015945843842996,-0.012285586534992989,0.010902130312206491
1103,9.0,299.98762999999997,-1392.0166,0.011030000812005891,0.0,0.0,0.0,0.0,0.001683334077205001,0.2232085605539698,0.07427837472995484,0.1256513413158219,-0.0017421557761123883,0.007791304266716863,0.0005006733202376095
1104,9.0,300.02301,-1230.5363,0.011040010486703444,0.0,0.0,0.0,0.0,0.001684861695090717,0.20047758138809682,0.06709416604942864,0.1064805683638139,0.005921256265632494,0.016409778900269085,0.012537654788870188
1105,9.0,299.78564,-1082.9029,0.01104998712617089,0.0,0.0,0.0,0.0,0.0016863842713332744,0.2049134484708828,0.05130051109771625,0.07296148903873834,-0.01206541742076399,0.00982989710003531,0.011914222267342189
1106,9.0,299.13607,-1131.931,0.011059996800868221,0.0,0.0,0.0,0.0,0.0016879118892189904,0.20088221268303083,0.06692407986114243,0.07627246004600573,0.0031718042471077074,-0.0028695503237275675,0.02346216779578568
1107,9.0,299.27441,-1214.0843,0.011070006475565775,0.0,0.0,0.0,0.0,0.0016894395071047341,0.1912871496685718,0.07049201109376983,0.1072721497394369,0.01032923262616589,-3.9312574885599065e-05,0.02162003959723178
1108,9.0,299.67745,-1135.529,0.01107998311503322,0.0,0.0,0.0,0.0,0.0016909620833472638,0.17232350530200582,0.07788259146191333,0.09496635089144911,0.016562965090137386,-0.004140185099554456,0.023972226750374578
1109,9.0,299.79195,-1070.573,0.011089992789730774,0.0,0.0,0.0,0.0,0.0016924897012330076,0.16685861181516284,0.07256926701777903,0.08599956981349673,-0.01098310014094759,-0.01150426532988259,0.02467900415887808
1110,9.0,300.21013,-1072.0828,0.011100002464428105,0.0,0.0,0.0,0.0,0.0016940173191186958,0.18368102567290584,0.05185306069524866,0.09035229871232761,-0.02472088685176158,-0.008192057346893112,0.007174062196674813
1111,9.0,300.39349,-1269.594,0.011109979103895773,0.0,0.0,0.0,0.0,0.001695539895361281,0.22199780774447778,0.07779710253772623,0.08612996598211582,-0.012770625304862589,0.013034514134406386,0.006500238518523594
1112,9.0,299.90876000000003,-1351.3872,0.011119988778593104,0.0,0.0,0.0,0.0,0.0016970675132469693,0.2176047099484128,0.07841559546501672,0.11476766735418689,0.004668369477232195,0.013956222154121886,0.013621081577546088
1113,9.0,299.86959,-1264.6743,0.011129998453290657,0.0,0.0,0.0,0.0,0.001698595131132713,0.2099892437868248,0.07185610613364553,0.1025840543092579,0.0016445115997506586,-0.001077118597528329,0.013385357047781885
1114,9.0,299.64884,-1215.1397,0.011140008127987988,0.0,0.0,0.0,0.0,0.001700122749018429,0.2044901531091068,0.06179079273452644,0.1030911657193059,0.006340605220919014,-0.019581408767034583,0.016744151433269086
1115,9.0,299.52227,-1142.9275,0.011149984767455656,0.0,0.0,0.0,0.0,0.0017016453252609864,0.19319116819648383,0.047914641656306954,0.10631560111503291,0.02069802253623578,-0.002957367493994447,0.015139413547643785
1116,9.0,299.8343,-1133.3588,0.011159994442152987,0.0,0.0,0.0,0.0,0.0017031729431467024,0.19437491789081082,0.06364108671563623,0.08649677873031741,0.019866664001437082,0.017136541653744983,0.024303498738068578
1117,9.0,299.84238,-1086.91,0.011170004116850318,0.0,0.0,0.0,0.0,0.0017047005610323906,0.2053289316743878,0.054690923952573946,0.07037365841583934,0.0038391364371682664,0.0018503137394867484,0.022712328271282275
1118,9.0,300.10467,-1093.5656,0.011179980756317986,0.0,0.0,0.0,0.0,0.0017062231372749759,0.18669901136075784,0.06475992254230674,0.08095768696515163,-0.02065038154303398,-0.008184970169068663,0.026574111152160573
1119,9.0,300.06019,-1118.5949,0.011189990431015318,0.0,0.0,0.0,0.0,0.001707750755160664,0.19467684615560882,0.06618470619692193,0.07916336998581633,-0.015804478489280585,0.00015728293227511685,0.015736108425532986
1120,9.0,300.19452,-1271.9685,0.01120000010571287,0.0,0.0,0.0,0.0,0.0017092783730464078,0.20454135263665982,0.07779269084679083,0.10431260831735291,-0.022006484066120876,-0.006492745838009123,0.008031826434379554
1121,9.0,299.91602,-1340.0897,0.011210009780410202,0.0,0.0,0.0,0.0,0.0017108059909321238,0.20552884591911783,0.08651168566578861,0.1153132721355339,-0.0030789633828450275,-0.012907472836868387,0.005166612010479905
1122,9.0,299.55733,-1264.6018,0.01121998641987787,0.0,0.0,0.0,0.0,0.0017123285671746813,0.21666053310772976,0.06887737071491723,0.09886946931015692,-0.0037082539085011666,-0.00968975447870431,-7.543718935257093e-05
1123,9.0,299.89787,-1156.5073,0.011229996094575201,0.0,0.0,0.0,0.0,0.0017138561850603973,0.2053378584077688,0.06150856205167244,0.08470291568702693,0.015713967897597884,0.01809425754226418,0.012137782729655888
1124,9.0,300.41783,-1094.2183,0.011240005769272754,0.0,0.0,0.0,0.0,0.0017153838029461133,0.1983640936670118,0.05503273880755845,0.07921820809447842,0.0038470838643276163,0.018907860895560583,0.030521179293955873
1125,9.0,300.22709,-1203.7493,0.0112499824087402,0.0,0.0,0.0,0.0,0.0017169063791886707,0.20109761952178978,0.06977323984383264,0.09503885906860511,0.01152063438524809,0.004113000713946566,0.03677860154526536
1126,9.0,300.63867,-1105.5441,0.011259992083437753,0.0,0.0,0.0,0.0,0.0017184339970743867,0.18360399840030384,0.050526710234848046,0.1019271034744219,-0.012639381045909788,-0.017138196291158283,0.026952363493991174
1127,9.0,300.37689,-999.51805,0.011270001758135084,0.0,0.0,0.0,0.0,0.0017199616149601027,0.16194311266504086,0.061606255573314034,0.08027915896943613,0.007920624667704792,-0.005045298919732236,0.034477846967198564
1128,9.0,299.32743,-1043.024,0.01127997839760253,0.0,0.0,0.0,0.0,0.0017214841912026324,0.19272770760074381,0.051158601368210856,0.07316694069526483,-0.004157374380875906,-0.0074885234532847235,0.017032194118696685
1129,9.0,299.24095,-1209.4984,0.011289988072300083,0.0,0.0,0.0,0.0,0.0017230118090883761,0.21189407291481677,0.07097865991804835,0.08478458769808732,0.005607908874857515,-0.016177026233048186,0.008269263458137763
1130,9.0,299.46969,-1377.3948,0.011299997746997414,0.0,0.0,0.0,0.0,0.0017245394269740921,0.2254205665822778,0.08728547639615582,0.1059875715276589,0.0042523228053465865,-0.003550717329328517,0.006950183877804743
1131,9.0,299.95609,-1387.1321,0.011310007421694968,0.0,0.0,0.0,0.0,0.001726067044859808,0.23110404851319377,0.07665845665835062,0.1138910236326689,-0.0005398865145401505,0.01958881461201548,-0.002198571041257068
1132,9.0,300.37514,-1322.4081,0.011319984061162192,0.0,0.0,0.0,0.0,0.0017275896211023656,0.2029484120219488,0.08062368021543771,0.1184069577383569,0.002195852997863818,0.023580969343510477,0.006664718090031463
1133,9.0,299.6325,-1305.8663,0.011329993735859745,0.0,0.0,0.0,0.0,0.0017291172389880816,0.2024060293759198,0.07229148754261433,0.12225321458795288,-0.011625567578854188,-0.002849280660777107,0.01123553924436139
1134,9.0,300.31799,-1252.3837,0.011340003410557298,0.0,0.0,0.0,0.0,0.0017306448568737975,0.2144792184249508,0.06628667563398553,0.09992748378632481,0.0003205295202663007,-0.008873647789710852,0.007994415518162382
1135,9.0,301.03857,-1204.3227,0.011349980050024522,0.0,0.0,0.0,0.0,0.0017321674331163273,0.2107361104355348,0.056300178907145046,0.09904774661225149,-0.0034390321410310465,-0.004835931152894246,0.02175459718401158
1136,9.0,300.39193,-1176.2277,0.011359989724722075,0.0,0.0,0.0,0.0,0.001733695051002071,0.20067112228969783,0.06384445209020684,0.093028265881925,0.008335070708407432,-0.002953766909764097,0.016242570342266883
1137,9.0,300.09458,-1039.9764,0.011369999399419628,0.0,0.0,0.0,0.0,0.0017352226688878147,0.18388713087574682,0.05280923745686595,0.07943048905667893,-0.014694316083466087,-0.02048601717806248,0.028571653677552676
1138,9.0,299.73177999999996,-1209.3442,0.011380009074116959,0.0,0.0,0.0,0.0,0.001736750286773503,0.19065079820826883,0.06879607056664352,0.1081635869124149,0.0028182101570606876,-0.0075104872704023825,0.01860031517220818
1139,9.0,299.69484,-1373.6712,0.011389985713584405,0.0,0.0,0.0,0.0,0.0017382728630160604,0.21822141448927682,0.08612585927946051,0.11321447654089889,-0.004695582233842885,0.007967019565933611,0.030607315684956872
1140,9.0,299.91314,-1300.1899,0.011399995388281958,0.0,0.0,0.0,0.0,0.0017398004809017764,0.21042059448689582,0.08515865126400451,0.0996460100012955,-0.0002965472177569317,0.0034310666780199167,0.012015866451123687
1141,9.0,300.05656,-1286.0515,0.01141000506297929,0.0,0.0,0.0,0.0,0.0017413280987874924,0.20282095529186983,0.08394747896897112,0.1041590907947019,-0.005572176103455964,-0.011214250859760388,0.017050441739747586
1142,9.0,299.9426,-1339.0897,0.011419981702446735,0.0,0.0,0.0,0.0,0.0017428506750300221,0.2145799253523898,0.08151161255631982,0.1109583029407319,-0.00017055919369788182,0.0011629313564473888,-0.0036571987690874165
1143,9.0,300.64097000000004,-1305.1207,0.011429991377144288,0.0,0.0,0.0,0.0,0.0017443782929157658,0.20817171628744882,0.08488991808573262,0.1036624563906879,-0.004342473997218816,0.028918029171237272,0.015876211530110085
1144,9.0,300.60425,-1227.5085,0.011440001051841842,0.0,0.0,0.0,0.0,0.0017459059108015096,0.18702230907016482,0.06384062707107935,0.12226899089200989,-0.0012336907652557988,0.02144744865469838,0.014071066960206187
1145,9.0,300.43858,-1125.7869,0.011450010726539173,0.0,0.0,0.0,0.0,0.0017474335286871978,0.18732073148961684,0.07445984073011414,0.08043055271987752,-0.006871890650527805,0.008430550177255521,0.01983591794040268
1146,9.0,300.30196,-1098.6457,0.011459987366006619,0.0,0.0,0.0,0.0,0.0017489561049297553,0.1975866876602878,0.04900040803946375,0.08737377100986982,-0.001154721294862119,-0.008533551609545973,0.006329448628042944
1147,9.0,299.82264,-1245.6882,0.011469997040704172,0.0,0.0,0.0,0.0,0.0017504837228154713,0.2187837581622758,0.06478390819867394,0.0950904334986951,-0.004692183489032456,-0.013657547435394988,0.017638562495290583
1148,9.0,299.34344,-1341.2264,0.011480006715401725,0.0,0.0,0.0,0.0,0.001752011340701215,0.22892752650338777,0.07402207919666043,0.10474972441049289,0.010818442946697189,-0.023427277541842276,0.006768229693747264
1149,9.0,299.57313999999997,-1254.5256,0.011489983354868949,0.0,0.0,0.0,0.0,0.001753533916943717,0.2083930405067918,0.06258615353302244,0.11036527805470489,-0.0026494386607792374,-0.009655604910584011,0.013051608676843487
1150,9.0,299.86384,-1368.2036,0.011499993029566724,0.0,0.0,0.0,0.0,0.0017550615348294885,0.2068446524989778,0.10210912372238591,0.1069459642672449,0.0016876134351544783,0.005571477670162034,0.014465227328606787
1151,9.0,300.44944,-1468.0987,0.011510002704264055,0.0,0.0,0.0,0.0,0.0017565891527152044,0.24263597962380679,0.09239013718094662,0.1112392366634579,0.0038551167084703965,0.014486321169188587,0.01942119568772278
1152,9.0,300.24798,-1398.6459,0.011519979343731501,0.0,0.0,0.0,0.0,0.0017581117289577342,0.23229892369361876,0.08468884670938842,0.10816567420762088,-0.016834384394424383,-0.003951062880314546,0.009318850226598912
1153,9.0,300.1928,-1188.1995,0.011529989018428832,0.0,0.0,0.0,0.0,0.0017596393468434501,0.1994147022981988,0.07158075339247033,0.09018752702081591,0.0031286583353245367,-0.015667651222276785,0.010185000527431291
1154,9.0,300.90142000000003,-1054.2195,0.011539998693126385,0.0,0.0,0.0,0.0,0.0017611669647291661,0.19084437963987383,0.04674458806358166,0.08286743136937871,-0.013785625287785286,-0.0017646045347279083,0.000922721279948
1155,9.0,300.62555,-1178.351,0.011550008367823938,0.0,0.0,0.0,0.0,0.0017626945826149099,0.19021511079776982,0.06967194421808554,0.09830221036092282,0.0074512322019043625,0.011708291343518386,0.012579138261214288
1156,9.0,300.11768,-1174.6295,0.011559985007291163,0.0,0.0,0.0,0.0,0.0017642171588574118,0.18659021869752082,0.07073187373694244,0.09973595317292222,-0.022442195794622276,0.0008048501491275253,0.01814526657879838
1157,9.0,300.27513999999996,-1158.6587,0.011569994681988938,0.0,0.0,0.0,0.0,0.0017657447767431833,0.2019116747846308,0.06482233976171685,0.08546931577116473,-0.004337099313388376,0.006163848503249484,0.020626642106441082
1158,9.0,300.11413999999996,-1315.8829999999998,0.011580004356686269,0.0,0.0,0.0,0.0,0.0017672723946288993,0.22174426217195478,0.08520469740154892,0.09304662901348731,-0.012906886165060487,-0.000954365566931048,0.024852608351511478
1159,9.0,299.47765,-1340.9894,0.011589980996153715,0.0,0.0,0.0,0.0,0.001768794970871429,0.2254335260510568,0.07659627451296372,0.10559750063666189,0.018323273343116283,0.005839954090858595,0.015527519746696885
1160,9.0,299.80754,-1322.2091,0.011599990670851268,0.0,0.0,0.0,0.0,0.0017703225887571727,0.2246406983778108,0.07322348410384523,0.1040543612643659,0.01158364334271659,-0.018899374925973083,0.011524467510376387
1161,9.0,299.33907999999997,-1336.3218,0.011610000345548821,0.0,0.0,0.0,0.0,0.0017718502066428887,0.2006400965716358,0.08238887537364893,0.12317948729936888,0.01571810398450609,-0.011762875126405389,0.0023484731862262577
1162,9.0,300.02454,-1210.8455,0.011620010020246152,0.0,0.0,0.0,0.0,0.0017733778245286047,0.1969686861592958,0.06464893619260323,0.1064491880082169,0.004653205378885615,0.002306974211155628,0.0054675805247831845
1163,9.0,300.34741,-1133.308,0.011629986659713376,0.0,0.0,0.0,0.0,0.0017749004007711344,0.1950614150985628,0.06859114377366884,0.08084475720175634,0.0018253401642720482,0.01110602662982949,0.016799713002502586
1164,9.0,300.12606,-1242.5122,0.01163999633441093,0.0,0.0,0.0,0.0,0.0017764280186568782,0.2187578088272148,0.07303668942141003,0.08589818907474123,-0.0018908445540868279,0.004701785350955086,0.02180155625989608
1165,9.0,299.39722,-1269.3613,0.011650006009108482,0.0,0.0,0.0,0.0,0.0017779556365425941,0.22602515265194575,0.06830272517245413,0.09152624825168741,-0.016082658198234786,0.004075716757966926,0.014599949061902788
1166,9.0,300.54985,-1140.4672,0.011659982648575706,0.0,0.0,0.0,0.0,0.0017794782127851239,0.2095984838857598,0.05457309005869465,0.08250196219080971,0.0067783352422946044,0.005767409639349015,0.02293277906903908
1167,9.0,300.52524,-1208.3062,0.01166999232327326,0.0,0.0,0.0,0.0,0.0017810058306708676,0.1892537796328938,0.06942748141945894,0.1086136422093319,0.0002279841805277868,0.01118683940480509,0.024151930708609975
1168,9.0,300.86679,-1268.4313,0.011680001997970813,0.0,0.0,0.0,0.0,0.0017825334485565836,0.2085784348775888,0.07726529619624102,0.09972770531710821,0.007092415516866914,-0.006800964055452894,0.029514224516827177
1169,9.0,300.01928,-1315.3537,0.011689978637438037,0.0,0.0,0.0,0.0,0.0017840560247990855,0.2068372355082458,0.07505847902169513,0.11793896791466987,-0.005775768952674015,-0.01175260279689159,0.012938959583725887
1170,9.0,299.89603999999997,-1252.1458,0.01169998831213559,0.0,0.0,0.0,0.0,0.0017855836426848293,0.21834124144610279,0.05722382324780165,0.10505598938571889,5.0143524378280555e-05,-0.00885297758899586,0.009746775229406819
1171,9.0,299.77061000000003,-1172.1587,0.011709997986833143,0.0,0.0,0.0,0.0,0.001787111260570573,0.20532030891603678,0.07091500856001644,0.08007166054770762,0.006842683412420273,-0.0038600261078549163,0.002015577059946968
1172,9.0,300.27286000000004,-1145.4947,0.011720007661530696,0.0,0.0,0.0,0.0,0.0017886388784563167,0.20086972944179882,0.05640865340985064,0.09092341814444271,0.0065009659307703836,-0.016273021547522182,0.0005443333348565174
1173,9.0,299.35431,-1250.8561,0.01172998430099792,0.0,0.0,0.0,0.0,0.0017901614546988187,0.1883779870414598,0.07315671193550533,0.1186943255992179,0.0027532781522273974,-0.0038321349803022765,0.014227883625182788
1174,9.0,300.0344,-1292.3249,0.011739993975695473,0.0,0.0,0.0,0.0,0.0017916890725845624,0.20740180833146482,0.07772512327712243,0.1077075635724089,0.005653799782486595,0.0006238280741020374,0.01992232486918038
1175,9.0,300.34152,-1219.0306,0.011750003650393026,0.0,0.0,0.0,0.0,0.0017932166904702784,0.2037508047761388,0.06600471954190865,0.1007993317951195,-0.0033162780059911566,0.01330417443651979,0.03611740215276007
1176,9.0,300.32272,-1230.8188,0.011759980289860472,0.0,0.0,0.0,0.0,0.0017947392667128081,0.2082953631971518,0.08360670472183933,0.08223612285482342,0.00996406276167643,0.006714420945861754,0.04188310730279086
1177,9.0,300.15035,-1293.1953,0.011769989964557803,0.0,0.0,0.0,0.0,0.0017962668845985241,0.22836675336804377,0.06722293797813744,0.0975093796479265,-0.020855818000808983,0.001918965081462108,0.015456071429145485
1178,9.0,300.34082,-1307.4955,0.011779999639255356,0.0,0.0,0.0,0.0,0.0017977945024842679,0.21868314242734577,0.06197293558575253,0.1167898916387649,0.002163325947128648,5.803471413058034e-05,0.013230033913452687
1179,9.0,299.84608,-1260.0693,0.01179000931395291,0.0,0.0,0.0,0.0,0.0017993221203700116,0.1944373746269748,0.07934622515186272,0.10924600146424089,-0.0024955299222646273,-0.0038994090114167065,0.012313918021039089
1180,9.0,299.3979,-1292.6282,0.011799985953420133,0.0,0.0,0.0,0.0,0.0018008446966125136,0.2030706201165098,0.07283865982186602,0.1170174068162189,0.013605626473770789,-0.00858558564988133,0.015434708064037085
1181,9.0,299.54072,-1387.6347,0.011809995628117687,0.0,0.0,0.0,0.0,0.0018023723144982573,0.21119386643321178,0.09045562995752561,0.12015682039605488,0.006138796806452074,-0.00937733654224606,0.006514533754909425
1182,9.0,299.50109,-1390.6777,0.01182000530281524,0.0,0.0,0.0,0.0,0.0018038999323839733,0.23166162991072276,0.0858928786309671,0.1051767789301399,0.006602469475438003,0.0007428232336559452,0.007001225844967192
1183,9.0,300.06669,-1333.1465,0.011829981942282686,0.0,0.0,0.0,0.0,0.001805422508626503,0.2254538417155618,0.07755301970788712,0.1022363879349459,-0.004126743222402846,0.012615728748825487,0.00012576937481997087
1184,9.0,300.11852000000005,-1229.5509,0.011839991616980017,0.0,0.0,0.0,0.0,0.001806950126512219,0.1983788567209688,0.0900211939109001,0.08535271094965673,-0.004731517452614415,-0.0013313569291446988,0.019575672758218483
1185,9.0,300.03491,-1172.7322,0.01185000129167757,0.0,0.0,0.0,0.0,0.0018084777443979627,0.19116973424698383,0.06182029452443803,0.10349126778629289,-0.003229594155961127,-0.01245708519391859,0.022882931217119477
1186,9.0,300.12217000000004,-1288.9572,0.011860010966375123,0.0,0.0,0.0,0.0,0.0018100053622837065,0.21044257188156482,0.07654813196096243,0.10482011489493989,-0.01891755161951698,-0.01802377383880798,0.023388695004534478
1187,9.0,300.27995,-1375.9386,0.011869987605842569,0.0,0.0,0.0,0.0,0.0018115279385262362,0.2228281155389228,0.07903497397289463,0.1163878947940909,-0.0015797637024605386,-0.005436185071759694,0.033835937830097064
1188,9.0,299.61335,-1334.0601,0.0118799972805399,0.0,0.0,0.0,0.0,0.0018130555564119244,0.23223415674722675,0.07000784169248603,0.1032789817578419,-0.012357538437844089,-0.014053219572944786,0.006116155732967574
1189,9.0,299.99429,-1262.5179,0.011890006955237453,0.0,0.0,0.0,0.0,0.0018145831742976681,0.2156774778607098,0.07247948089991783,0.0956169516879084,0.002648221342109097,-0.0012908860989505387,0.019099211150445383
1190,9.0,300.30464,-1409.3292,0.0118999835947049,0.0,0.0,0.0,0.0,0.0018161057505401978,0.22462696883895578,0.07219284663212923,0.13158106328603988,-0.00965115664132,0.005123706238970435,-0.007784360767756592
1191,9.0,299.63399,-1541.6233,0.01190999326940223,0.0,0.0,0.0,0.0,0.0018176333684259138,0.23704150158167478,0.09688088290239871,0.13469261248812586,0.0036149227325150968,0.017290336806923382,0.012938930199472988
1192,9.0,299.80722000000003,-1454.1261,0.011920002944099783,0.0,0.0,0.0,0.0,0.0018191609863116576,0.2198258960226268,0.1153514615318029,0.10684067744935391,0.004102437379004046,0.012481095168288188,0.014590211728441787
1193,9.0,299.60106,-1303.2681,0.01192997958356723,0.0,0.0,0.0,0.0,0.0018206835625541873,0.21795802012578178,0.07430752694858193,0.1038954127211789,0.01268066592123429,0.005836758705343234,0.015351393574564587
1194,9.0,299.44126,-1223.9464,0.011939989258264783,0.0,0.0,0.0,0.0,0.001822211180439931,0.22427087222381176,0.06683173123377834,0.08094653614780113,0.006642075192696785,-0.0037928579613759365,0.0004856519280351136
1195,9.0,299.75126,-1230.4721,0.011949998932962114,0.0,0.0,0.0,0.0,0.0018237387983256192,0.2153175815576908,0.07231350749378754,0.0864017064866845,-0.006780842630992064,0.005931829733076014,0.015100575671310786
1196,9.0,299.94187999999997,-1282.3414,0.011960008607659667,0.0,0.0,0.0,0.0,0.001825266416211363,0.21222948909541978,0.06214564609179774,0.11542464858652587,-0.002306624234571088,0.008284951305461032,0.017060346259475084
1197,9.0,300.03447,-1262.9654,0.01196998524712689,0.0,0.0,0.0,0.0,0.0018267889924538927,0.2041143893095218,0.07342353209758844,0.1063720188806009,-0.005565851700306795,0.001938968056986248,0.01987511248077088
1198,9.0,300.52346,-1202.886,0.011979994921824444,0.0,0.0,0.0,0.0,0.0018283166103396364,0.2010509390896828,0.07360611976560842,0.09099024502828801,-0.0004389080867368556,-0.0010071700218474422,0.03288664610290927
1199,9.0,300.3359,-1322.8206,0.011990004596521997,0.0,0.0,0.0,0.0,0.0018298442282253524,0.22925765351846877,0.07272157877281103,0.10012518914583682,-0.0019438454376676081,4.182540169634576e-05,0.026401567832381873
1200,9.0,300.05587,-1429.7287,0.011999981235989443,0.0,0.0,0.0,0.0,0.00183136680446791,0.23851455444455374,0.09485738901544541,0.1012298820276115,-0.01039052919096539,-0.006893279042913674,0.031325962305131766
1201,9.0,300.29451,-1280.5822,0.012009990910686774,0.0,0.0,0.0,0.0,0.0018328944223536259,0.1987350749261248,0.07705221983271202,0.1134777290493799,-0.0016998083054080182,0.0002473259698316727,0.005174303895964035
1202,9.0,299.62946,-1251.9654,0.012020000585384105,0.0,0.0,0.0,0.0,0.001834422040239314,0.1913894879286718,0.08539585513891473,0.1037808749298749,-0.002005217590924568,0.008589959546588002,0.0097176481393822
1203,9.0,299.76653,-1275.8642,0.012030010260081658,0.0,0.0,0.0,0.0,0.0018359496581250578,0.20901053538273381,0.07130539761154484,0.1075149244633969,-0.0007894553438656762,0.016067842455272586,0.0005955292045766564
1204,9.0,299.17251,-1385.0083,0.012039986899549104,0.0,0.0,0.0,0.0,0.0018374722343675876,0.23131542261655477,0.08155521676112322,0.10813731333732189,0.000988842647881171,0.011881556097368288,0.016947991008886484
1205,9.0,299.48985,-1374.6415,0.012049996574246657,0.0,0.0,0.0,0.0,0.0018389998522533313,0.23625473314402679,0.08732711185601491,0.09427484518845282,-0.001900191178309268,-0.0015589497215563583,0.018635257101906683
1206,9.0,299.68027,-1286.125,0.012060006248943989,0.0,0.0,0.0,0.0,0.0018405274701390473,0.22748437465095978,0.06151489385154734,0.1019506210092429,0.015184417050835286,-0.008011820013805071,0.02121920393717238
1207,9.0,300.27127,-1188.5449,0.012069982888411657,0.0,0.0,0.0,0.0,0.0018420500463816047,0.1994103554552698,0.05293381149041045,0.1089438097544169,-0.007001292111523734,-0.02035936800831318,0.013200838125071286
1208,9.0,300.0003,-1147.4382,0.012079992563108988,0.0,0.0,0.0,0.0,0.0018435776642673207,0.1930224620548338,0.05817994326741335,0.09759015493264842,0.006903851294457073,-0.0056919174406485145,0.026588413177322075
1209,9.0,300.79079,-1275.454,0.01209000223780654,0.0,0.0,0.0,0.0,0.0018451052821530367,0.21371742660226778,0.05990732697164284,0.1140813930614569,-0.012892930671433187,-0.001069751965326299,0.014870367275090985
1210,9.0,300.01816,-1354.2111,0.012099978877273987,0.0,0.0,0.0,0.0,0.0018466278583955942,0.22935293955787278,0.08411402080840752,0.09817939938255231,0.014525589676814088,0.005791497532651305,0.02056032488739608
1211,9.0,300.19948999999997,-1332.3174,0.01210998855197154,0.0,0.0,0.0,0.0,0.0018481554762813102,0.2270102445316668,0.08058837351570322,0.09739262081240331,-0.002550338241373788,0.00023842789116350075,0.02045923089841888
1212,9.0,300.51335,-1407.2876,0.012119998226668871,0.0,0.0,0.0,0.0,0.0018496830941670261,0.23953164476243277,0.07906044505390843,0.10918819554603588,0.010059964958466242,-0.0007099117558328353,0.009372586729752292
1213,9.0,299.91823999999997,-1476.8589,0.012130007901366202,0.0,0.0,0.0,0.0,0.0018512107120527421,0.21599675296721982,0.09777954758834001,0.13515194915595888,0.00928520302787819,-0.0027710866306849572,0.012945045163826488
1214,9.0,299.76566,-1330.2224,0.01213998454083387,0.0,0.0,0.0,0.0,0.0018527332882952996,0.1973858412254658,0.08741390381983061,0.11955464586162488,0.0006992990553454434,0.0031006957736398467,0.008905052868610291
1215,9.0,300.04396,-1240.3145,0.012149994215531201,0.0,0.0,0.0,0.0,0.0018542609061810156,0.2015244207289118,0.06863009918701345,0.10687010223225789,0.0038183084734127065,0.010338324519313189,0.017625178474719682
1216,9.0,299.82555,-1235.7059,0.012160003890228754,0.0,0.0,0.0,0.0,0.0018557885240667316,0.21687305218370379,0.07173929460911713,0.08701138109835473,-0.0019090082780294484,0.005215667196846276,0.029410703793860474
1217,9.0,300.04199,-1110.9353,0.0121699805296962,0.0,0.0,0.0,0.0,0.001857311100309289,0.2209965545256618,0.04067042121210806,0.07602961439453873,0.008176434752876284,0.005219383494238045,0.025102574111431176
1218,9.0,300.29257,-1246.8837,0.012179990204393754,0.0,0.0,0.0,0.0,0.001858838718195005,0.20837892593289883,0.07705049325454162,0.09359208282056941,-0.011613021516115988,-0.004749977552211285,0.031337334011004074
1219,9.0,300.58357,-1484.1202,0.012189999879091085,0.0,0.0,0.0,0.0,0.001860366336080721,0.22281724336534978,0.08853226544545433,0.13978596742830085,-0.002811335559107217,-0.01073020406173869,0.014640607748665485
1220,9.0,300.64596,-1412.6072,0.012200009553788638,0.0,0.0,0.0,0.0,0.0018618939539664647,0.21847848617214782,0.07673141370530093,0.1341874059882659,-0.004519031408593675,-0.007151936766166203,0.016713496564743684
1221,9.0,300.10759,-1344.7651,0.012209986193256084,0.0,0.0,0.0,0.0,0.0018634165302089944,0.22902916562091877,0.07843311455924572,0.1013127446075394,0.01085501519580659,0.0002815403352958677,0.006100407293288324
1222,9.0,299.86258,-1425.4534,0.012219995867953637,0.0,0.0,0.0,0.0,0.0018649441480947382,0.2419445884180718,0.07329923468132123,0.11805840983645789,0.0022078554519233675,0.003178661822459497,0.006500379360287494
1223,9.0,300.13923,-1383.6071,0.012230005542650968,0.0,0.0,0.0,0.0,0.0018664717659804264,0.24386969268056477,0.08388249417380762,0.09282981477033941,0.005215588264663485,-0.00939790075700059,0.0026865973790465175
1224,9.0,299.83696000000003,-1322.1257,0.012239982182118414,0.0,0.0,0.0,0.0,0.0018679943422230116,0.2165947833087408,0.07790938686080782,0.1073890180059709,-0.008379208085413451,-0.004331788565639246,0.014419960380389287
1225,9.0,299.94481,-1340.5408,0.012249991856815967,0.0,0.0,0.0,0.0,0.0018695219601086999,0.2068715137591288,0.07759335010161743,0.12302607110172789,0.0015598463465698487,-0.0060987226636720635,0.012959973377549788
1226,9.0,299.78691000000003,-1238.7788,0.012260001531513298,0.0,0.0,0.0,0.0,0.0018710495779944158,0.1985228496926798,0.07781204392370084,0.100222939409484,0.0008591946732684121,-0.008319618137757381,0.014293948544952886
1227,9.0,299.80142,-1213.9863,0.012269978170980744,0.0,0.0,0.0,0.0,0.0018725721542369733,0.2015683856507508,0.06962948498589513,0.0978236503121926,-0.0064896945366579835,0.00903275987146399,0.02087440506064338
1228,9.0,300.07108999999997,-1416.2598,0.012279987845678297,0.0,0.0,0.0,0.0,0.0018740997721226893,0.24540167616925976,0.08552652995131133,0.0995794080589724,-0.001007389481686601,0.0050570344837154455,0.028312738892749774
1229,9.0,300.15938,-1467.0635,0.012289997520375628,0.0,0.0,0.0,0.0,0.001875627390008433,0.2503801893431008,0.07938304260749633,0.1161874435268079,-0.007293844975796453,0.008663627489808461,0.021302891302681683
1230,9.0,299.39107,-1285.4686,0.012300007195073182,0.0,0.0,0.0,0.0,0.0018771550078941213,0.20132267250150082,0.07605111860141102,0.11337656615939588,-0.006780907985623514,-0.006861875382564374,0.027029838623137372
1231,9.0,299.94192000000004,-1291.2154,0.012309983834540628,0.0,0.0,0.0,0.0,0.0018786775841367065,0.2014359032001758,0.08433141463061262,0.1067299190809229,0.007150677701591942,-0.01094306156324609,0.018631922495827583
1232,9.0,300.428,-1457.6638,0.012319993509237959,0.0,0.0,0.0,0.0,0.0018802052020223947,0.23954585052883476,0.08670143599876552,0.11684611688681389,0.008978490297433,0.004849027309111735,0.007529796777558083
1233,9.0,300.03109,-1338.1212,0.012330003183935512,0.0,0.0,0.0,0.0,0.0018817328199081385,0.23325786358825876,0.07799205590996663,0.09550552558766151,0.011600625414392591,-0.004480851435550605,2.5881512152306376e-05
1234,9.0,299.73278,-1222.6069,0.012339979823402958,0.0,0.0,0.0,0.0,0.0018832553961506682,0.22493287917664676,0.06839112111117815,0.07831797996363284,0.0014766858711125483,-0.0038974020669436367,0.01033548437928289
1235,9.0,300.2018,-1392.5067,0.012349989498100511,0.0,0.0,0.0,0.0,0.001884783014036412,0.2346185267500458,0.08145661638064212,0.1072121248035129,-0.007406144092329513,0.0039285902089966655,0.00978530345650926
1236,9.0,300.10683,-1452.901,0.012359999172797842,0.0,0.0,0.0,0.0,0.0018863106319221279,0.2117785320059138,0.09672040435156072,0.13314668667805488,-0.0013116693783766888,0.008720624935758673,0.02977886619119527
1237,9.0,299.67422999999997,-1377.0941,0.012370008847495173,0.0,0.0,0.0,0.0,0.0018878382498078161,0.2111822849845688,0.096140463564075,0.1112794728249289,-0.0035628838285792566,-0.0022747962250799078,0.017894613835310883
1238,9.0,299.86897,-1418.5214,0.012379985486962841,0.0,0.0,0.0,0.0,0.0018893608260504013,0.22461537725781178,0.08462324079191362,0.1219564538986649,-0.01046594539590839,0.002057849043518888,0.02183126475282808
1239,9.0,299.71184,-1362.1070000000002,0.012389995161660172,0.0,0.0,0.0,0.0,0.0018908884439360896,0.22659463973814978,0.08084628011665662,0.1066055831611519,-0.0038781390679675266,-0.013203479668081988,0.017371188085402785
1240,9.0,299.67325,-1275.0132,0.012400004836357725,0.0,0.0,0.0,0.0,0.0018924160618218333,0.23277204056281176,0.06431387160978494,0.09048625746829832,0.0009166599367897922,0.006550321140491364,0.02106600153530248
1241,9.0,299.96623999999997,-1383.6224,0.012409981475825171,0.0,0.0,0.0,0.0,0.001893938638064363,0.2266885882874218,0.08061461061379263,0.1132834687402079,0.002418819087668858,0.0033943765879238873,0.016944121406754584
1242,9.0,299.93383,-1418.4209,0.012419991150522725,0.0,0.0,0.0,0.0,0.0018954662559501068,0.22109986550585778,0.08118338234542602,0.1288812685270909,-0.006629891569519353,-0.0006865918149138363,0.011861697408658388
1243,9.0,300.09792999999996,-1328.6415,0.012430000825220056,0.0,0.0,0.0,0.0,0.0018969938738358227,0.2102310356581878,0.07672539601295703,0.11691740916384989,-0.005884308506036035,-0.002072941809058428,0.004496950358439446
1244,9.0,300.16536,-1415.5141,0.012440010499917609,0.0,0.0,0.0,0.0,0.0018985214917215387,0.23341314416608377,0.0878535256804679,0.1090142610338699,0.01896884335282908,0.01159711450279609,0.006559934857440164
1245,9.0,299.98932,-1483.3199,0.012449987139385055,0.0,0.0,0.0,0.0,0.0019000440679640962,0.25054673726203774,0.07798884390714962,0.12235664715816089,0.016424807425752284,0.0013775170573253489,0.0008254099258466172
1246,9.0,300.4742,-1316.1035,0.012459996814082608,0.0,0.0,0.0,0.0,0.0019015716858498122,0.2258945447140558,0.07829429524254533,0.0958737548595029,-0.0035004300308405464,-0.01766222087187548,0.007001097060879483
1247,9.0,300.65795,-1362.4715,0.012470006488779939,0.0,0.0,0.0,0.0,0.0019030993037355282,0.2090608635152008,0.08598828727363322,0.11910815720505989,-0.013604970900956087,-0.00972810538703925,0.03261124371247917
1248,9.0,300.24962999999997,-1537.7721,0.012479983128247607,0.0,0.0,0.0,0.0,0.0019046218799780856,0.2292924181293998,0.0919546676192191,0.14619721624354187,-0.0012521855180060886,0.0047996953028180455,0.02178346771911088
1249,9.0,299.64857,-1336.4912,0.012489992802944938,0.0,0.0,0.0,0.0,0.0019061494978638016,0.2076590016043478,0.09222461568436091,0.1063763251935259,-0.006976074647009963,0.001265704604815319,0.02218472894421228
1250,9.0,299.50705,-1210.4260000000002,0.012500002477642269,0.0,0.0,0.0,0.0,0.0019076771157495176,0.2049990275743288,0.06482039837452523,0.09811985472717571,-0.0065581251927615625,0.0014363202162787686,0.017840784923748382
1251,9.0,299.90612000000004,-1375.974,0.012509979117109937,0.0,0.0,0.0,0.0,0.001909199691992075,0.2357638540005808,0.07732425721956002,0.1051736277223289,-0.006025182896589255,-0.01035629147008639,0.014400545495223186
1252,9.0,300.23623,-1432.2849,0.012519988791807268,0.0,0.0,0.0,0.0,0.001910727309877791,0.24378087117679878,0.08217395590818802,0.10942402950681089,0.014351022896585686,0.0036250499646145766,0.01062225239608469
1253,9.0,299.61751,-1464.1564,0.012529998466504821,0.0,0.0,0.0,0.0,0.001912254927763507,0.2218085427582988,0.0950355801912815,0.12822286874461186,0.012056060056090489,-0.00017184451158223284,0.01916460529864928
1254,9.0,299.8259,-1414.2138,0.012540008141202152,0.0,0.0,0.0,0.0,0.001913782545649223,0.21729122049997382,0.08852740589797473,0.12406706398946588,0.0008172464332359432,-0.002179715571471178,0.014221907476092985
1255,9.0,299.88706,-1279.4027,0.01254998478066982,0.0,0.0,0.0,0.0,0.0019153051218917805,0.2091798900044478,0.07314543040889193,0.1065811435687399,-0.016161153670231684,0.0020161963584080884,0.009131568170865611
1256,9.0,300.1494,-1272.4429,0.012559994455367152,0.0,0.0,0.0,0.0,0.0019168327397774965,0.2121349629935908,0.07041743082015933,0.10423845867503491,-0.01091620942234599,0.01011563737726068,0.004419490428044745
1257,9.0,299.363,-1455.4620000000002,0.012570004130064705,0.0,0.0,0.0,0.0,0.0019183603576632402,0.24377131622835577,0.08231462440632092,0.11633817461168389,0.00918880545311449,-0.009647289167013311,0.01125700393447979
1258,9.0,299.8598,-1459.7127,0.012579980769531929,0.0,0.0,0.0,0.0,0.00191988293390577,0.23418227191949076,0.08648912869206242,0.12304480609607689,-0.014291097259171485,-0.017611706301390084,-0.0007424840988474752
1259,9.0,300.72612999999996,-1296.2614,0.012589990444229482,0.0,0.0,0.0,0.0,0.0019214105517915137,0.2134502933459038,0.07302912246966323,0.10755167504452388,0.005083208658973635,-0.01098384386652099,0.037270779675339566
1260,9.0,301.05442999999997,-1391.0477,0.012600000118927035,0.0,0.0,0.0,0.0,0.0019229381696772019,0.2270587994764588,0.08423892212173432,0.1115460386612369,-0.0013730536906348487,-0.0001909482276426228,0.013009792858466587
1261,9.0,300.62041,-1481.4096,0.012610009793624366,0.0,0.0,0.0,0.0,0.0019244657875629179,0.2521486147426308,0.07399045971403984,0.12417245213236687,0.017036830751154284,-7.888469986381372e-05,0.015291402075893886
1262,9.0,300.17166000000003,-1327.0063,0.012619986433091812,0.0,0.0,0.0,0.0,0.0019259883638054753,0.22886447194966478,0.08251951877529243,0.09199277291572981,0.014009276942607986,-0.009002093654537472,0.005259820785853895
1263,9.0,299.90022,-1210.5801,0.012629996107789143,0.0,0.0,0.0,0.0,0.0019275159816911913,0.2209414641177248,0.07190776365024372,0.07513689951318464,0.014644476337547285,-0.00042152411954119167,0.02910926492886077
1264,9.0,299.5579,-1400.5032,0.012640005782486696,0.0,0.0,0.0,0.0,0.001929043599576935,0.23751555064095978,0.08099483170056752,0.10720760570806691,0.000984601081637561,0.007773849108569173,0.003438887144941737
1265,9.0,299.68183,-1421.5659,0.012649982421954142,0.0,0.0,0.0,0.0,0.0019305661758194648,0.2059388778370848,0.1096736639339479,0.11650799532844389,-0.006072388800198114,0.0014824566344070784,0.03919889329062956
1266,9.0,299.404,-1385.7779999999998,0.012659992096651695,0.0,0.0,0.0,0.0,0.0019320937937052085,0.2042372053541428,0.0977742797010701,0.11923044635962889,-0.001973243369443958,0.01112956848265289,0.023762921703717774
1267,9.0,299.91426,-1419.8588,0.012670001771349026,0.0,0.0,0.0,0.0,0.0019336214115908967,0.2181169180064638,0.091195012740997,0.12228969159155287,-0.006557028856153363,0.016450243043012583,0.03215678584387767
1268,9.0,300.32282999999995,-1310.6981,0.012679978410816473,0.0,0.0,0.0,0.0,0.0019351439878334264,0.2224386019354808,0.07806688442985163,0.09791401296936071,-0.00016242886476298087,0.01083383826871659,0.007506890536522413
1269,9.0,300.58892000000003,-1232.9812,0.012689988085514026,0.0,0.0,0.0,0.0,0.0019366716057191702,0.2248511098935768,0.05167833179500425,0.0982660636768554,0.0009294794351999781,-0.0026010492810535774,0.015755028844650288
1270,9.0,300.41032,-1428.7702,0.012699997760211579,0.0,0.0,0.0,0.0,0.001938199223604914,0.23837062226784878,0.08199345857512433,0.1139463977506339,0.002786282443759667,-0.015806705613000384,0.012640086267979387
1271,9.0,300.73416000000003,-1427.7719,0.01271000743490891,0.0,0.0,0.0,0.0,0.00193972684149063,0.23140672658306577,0.08260686093391242,0.11999342368492888,0.0076024682906302024,-0.014989130319311985,0.03329762946272017
1272,9.0,300.08558,-1302.0249,0.012719984074376356,0.0,0.0,0.0,0.0,0.0019412494177331596,0.22699237079990278,0.05635263993107254,0.1124380432542709,-0.004407819813392946,-0.00972953102992995,0.013109307190537886
1273,9.0,299.632,-1354.9167,0.012729993749073909,0.0,0.0,0.0,0.0,0.0019427770356189034,0.22838181026452978,0.08236679260096952,0.10111222849225,-0.005148592877326555,-0.005943295873857635,0.01264576958779029
1274,9.0,299.80573,-1466.8526,0.01274000342377124,0.0,0.0,0.0,0.0,0.0019443046535045916,0.24733103608217274,0.08017109483302101,0.11838442305613288,-0.010043397204756131,-0.0005820325308596385,0.0011796477539471688
1275,9.0,299.80781,-1534.7336,0.012749980063238686,0.0,0.0,0.0,0.0,0.0019458272297471213,0.2512505306489968,0.1039754392140769,0.1112947121064329,-0.0009121087010506201,0.015191775273061486,0.01116885826853049
1276,9.0,299.91001,-1548.1346,0.01275998973793624,0.0,0.0,0.0,0.0,0.001947354847632865,0.24383902160003776,0.10425367769153691,0.12250155205496188,0.005320861910303184,0.017272285756391885,0.01922847653195288
1277,9.0,299.90932999999995,-1432.376,0.012769999412633792,0.0,0.0,0.0,0.0,0.0019488824655186088,0.22970645238526177,0.07055799090053154,0.13514209023248586,-0.00013363812310905588,0.0006533327619089234,0.0065821483393824634
1278,9.0,299.85944,-1278.767,0.012780009087331123,0.0,0.0,0.0,0.0,0.0019504100834043248,0.2116088632766688,0.07878626565634902,0.09831811636099261,0.004082241379335856,-0.002358749670065468,0.026600440456009077
1279,9.0,300.10413,-1303.6178,0.01278998572679857,0.0,0.0,0.0,0.0,0.0019519326596468545,0.20651016850846682,0.07993455362367621,0.10982253063863989,-0.005245715736511836,-0.005301944834911215,0.014454995529096985
1280,9.0,300.15379,-1447.4498,0.012799995401496123,0.0,0.0,0.0,0.0,0.0019534602775325705,0.25405885462615674,0.06532841563016263,0.12060133321492489,-0.0003891108770572536,0.0008398750538767141,-0.002185484612240538
1281,9.0,300.24481000000003,-1389.7920000000001,0.012810005076193676,0.0,0.0,0.0,0.0,0.001954987895418314,0.2346191650976088,0.08713817921586872,0.10070473679228371,-0.015877579417745084,-0.006268851712437494,0.005506838899907684
1282,9.0,300.85145,-1269.9357,0.0128199817156609,0.0,0.0,0.0,0.0,0.001956510471660816,0.20853659778095981,0.07182196061852564,0.10567019119883589,0.006182929015882584,-0.004087704013274976,0.035882741535600865
1283,9.0,300.14628999999996,-1544.2409,0.012829991390358453,0.0,0.0,0.0,0.0,0.00195803808954656,0.23187781695205878,0.11533089255477288,0.12220195426539388,0.006942338890230503,0.0017080752103238981,0.03833495167236516
1284,9.0,299.92656,-1583.2677,0.012840001065056006,0.0,0.0,0.0,0.0,0.0019595657074323036,0.24457457024513077,0.1078961496810209,0.1288031469443809,0.01008164668675606,-0.009608309030366271,0.04121047034315676
1285,9.0,299.42105,-1363.3072,0.012849977704523452,0.0,0.0,0.0,0.0,0.0019610882836748333,0.22059647272367677,0.08601081081010611,0.10780406551193289,0.0005067128379886636,-0.006412611028675434,0.019380934194999283
1286,9.0,299.67739,-1180.328,0.012859987379220783,0.0,0.0,0.0,0.0,0.0019626159015605493,0.21475221839939382,0.06429314456573934,0.07974488637720753,0.008085881706014392,-0.004878134438109386,0.009386863727636321
1287,9.0,299.41003,-1252.3353,0.012869997053918336,0.0,0.0,0.0,0.0,0.0019641435194462653,0.2155445394475898,0.061033396390777234,0.1041007073239399,-0.012925494503146989,0.01768228018410518,0.002416767053566338
1288,9.0,299.77551,-1347.6084,0.01288000672861589,0.0,0.0,0.0,0.0,0.001965671137332009,0.2158702284272328,0.07334115385120835,0.12042792559281087,-0.008418312446522754,0.007317258652482203,0.005543624032863095
1289,9.0,299.56808,-1549.6845,0.012889983368083113,0.0,0.0,0.0,0.0,0.001967193713574511,0.23997489101867778,0.09273221041470661,0.13835828790489987,-0.014414972150146987,-0.0012830077754480086,0.008596908415773801
1290,9.0,300.55161,-1609.0992,0.012899993042780666,0.0,0.0,0.0,0.0,0.0019687213314602547,0.24788099783894976,0.08456135147580562,0.15668362523846988,-0.0031518807103914064,-0.005593443919079935,0.007982347506821362
1291,9.0,300.26363,-1423.2346,0.01291000271747822,0.0,0.0,0.0,0.0,0.0019702489493459985,0.24072721908542677,0.08074970522312543,0.1111508609897359,0.008602263949177352,0.006714168646586853,0.014337414947742686
1292,9.0,300.18667999999997,-1475.5578,0.012919979356945444,0.0,0.0,0.0,0.0,0.001971771525588528,0.2657736976448217,0.07747161823460343,0.1052874157085589,0.0026743248938353175,0.003989323812040606,0.0019711891061912185
1293,9.0,299.68678,-1548.6118,0.012929989031642997,0.0,0.0,0.0,0.0,0.001973299143474244,0.27155477582536974,0.07328950342736083,0.12589502796487187,-0.007878978467394633,-0.0019909908502454983,0.006380891335619944
1294,9.0,299.68254,-1400.2226,0.012939998706340328,0.0,0.0,0.0,0.0,0.00197482676135996,0.2199005826874978,0.09238669314385672,0.1133454087188209,-0.0018725990608611384,-0.011750364527420688,0.021450087157958778
1295,9.0,300.20341,-1219.8833,0.01295000838103788,0.0,0.0,0.0,0.0,0.001976354379245704,0.1985726002725898,0.07439252343322043,0.09784894204793872,-0.004443362600400746,0.006793627314128813,0.034058825494344365
1296,9.0,299.58689,-1362.1676,0.012959985020505327,0.0,0.0,0.0,0.0,0.0019778769554882336,0.20840812780078083,0.09044896986461831,0.11520783333012789,-0.005192312288666325,-0.003071021731211247,0.02104692507566978
1297,9.0,299.02999,-1432.0216,0.012969994695202658,0.0,0.0,0.0,0.0,0.0019794045733739496,0.2254811082757528,0.0966860835441735,0.11313160281521989,0.0026692573261101874,-0.00940800883867318,0.021968764817898275
1298,9.0,299.49327999999997,-1372.6956,0.012980004369900211,0.0,0.0,0.0,0.0,0.0019809321912596933,0.23718578839591478,0.06736142292230485,0.1127179738593979,0.0001917644309956758,-0.004886835723343135,0.0017692358982849881
1299,9.0,299.71689,-1495.7017,0.012989981009367657,0.0,0.0,0.0,0.0,0.001982454767502223,0.2359338064398538,0.09740011481014291,0.12132205801105488,0.013357672015299587,0.022377331576220683,0.012333462602217989
1300,9.0,299.55132000000003,-1453.5546,0.012999990684064988,0.0,0.0,0.0,0.0,0.001983982385387939,0.2250359267118168,0.08342200138761052,0.13338637098920988,0.0030211039650347472,0.0026581327519372778,0.02039278499661118
1301,9.0,299.75178,-1375.6787,0.013010000358762541,0.0,0.0,0.0,0.0,0.001985510003273655,0.2201412295862478,0.09172898439794591,0.1063017601186669,-0.0029835658859300273,0.002780959739659357,0.04066781715935106
1302,9.0,299.86866000000003,-1559.1154,0.013020010033460094,0.0,0.0,0.0,0.0,0.0019870376211593987,0.23281703899975278,0.1024871065396899,0.13862800494901886,-0.0018547204654966584,-0.012810682121065887,0.033560168643130765
1303,9.0,299.91867,-1512.1809,0.01302998667292754,0.0,0.0,0.0,0.0,0.0019885601974019285,0.2574680460451178,0.08771770862381383,0.11447947876074488,0.0055696418636308545,0.006765295118807644,0.02034134532878448
1304,9.0,300.78795,-1210.0442,0.013039996347624871,0.0,0.0,0.0,0.0,0.0019900878152876444,0.23341307323857677,0.06393814732695384,0.07047200548379544,0.0028031641023507576,-0.0029340032639135773,-0.003273364533780927
1305,9.0,299.98107999999996,-1305.2185,0.013050006022322647,0.0,0.0,0.0,0.0,0.001991615433173416,0.2321813258870128,0.06389732550692503,0.1006751640748651,-0.014031191515770787,0.004945652155872865,0.003026482803190597
1306,9.0,300.10944,-1560.1441,0.01305998266178987,0.0,0.0,0.0,0.0,0.001993138009415918,0.24328004191737074,0.08964749308851871,0.14131732270193387,0.0034975972875359762,0.0017587270761978485,0.006887695224262593
1307,9.0,300.25311,-1537.1284,0.013069992336487424,0.0,0.0,0.0,0.0,0.0019946656273016616,0.23134214202169176,0.1029760503754449,0.13293045910671486,0.0030073617605534974,0.011775404977141989,0.023807491535866476
1308,9.0,299.68626,-1599.4062,0.013080002011184755,0.0,0.0,0.0,0.0,0.00199619324518735,0.24168360558981475,0.0968749361375618,0.14762098462155687,0.018304173578731285,0.0005433156568535805,0.013012631985246787
1309,9.0,299.19472,-1506.9116,0.013089978650652423,0.0,0.0,0.0,0.0,0.001997715821429935,0.27099846099046576,0.07805102503928642,0.1090140178538459,-0.0012420213022779588,-0.012579985338297886,0.004687150675785756
1310,9.0,299.51432,-1338.8499,0.013099988325349754,0.0,0.0,0.0,0.0,0.0019992434393156233,0.24853863768385379,0.061179002456647445,0.0972592993907455,0.0036621168824227963,-0.004330361909498446,-2.8231924091273975e-05
1311,9.0,299.2724,-1311.7619,0.013109998000047085,0.0,0.0,0.0,0.0,0.0020007710572013393,0.2160029945878358,0.06510276179314235,0.11763712070987989,-0.006018811174660414,0.0014133730399390587,0.016425531899573784
1312,9.0,300.16365,-1441.6133,0.01312000767474486,0.0,0.0,0.0,0.0,0.002002298675087111,0.22432109903126882,0.09270669171093811,0.12118666753269287,-0.004208650307486446,-0.004037246995395256,0.02022363910441778
1313,9.0,300.21066,-1442.0285,0.013129984314212084,0.0,0.0,0.0,0.0,0.0020038212513296128,0.2187015633141638,0.09115872116216532,0.12848036599252488,-0.017412258151706085,0.000932299492613296,0.052096628794036946
1314,9.0,300.08333999999996,-1296.8093,0.013139993988909637,0.0,0.0,0.0,0.0,0.0020053488692153565,0.20434116481440281,0.08690514385186991,0.1029513473380069,-0.0005794621788009644,-0.0052030794895289645,0.044241600924556056
1315,9.0,300.01536,-1407.4412,0.013150003663606968,0.0,0.0,0.0,0.0,0.0020068764871010447,0.23898695190617578,0.09448308429600441,0.09435694276455521,0.013339158922722489,0.004801426643263915,0.023040613197681477
1316,9.0,299.67895,-1555.9188,0.013159980303074637,0.0,0.0,0.0,0.0,0.00200839906334363,0.2649169541552678,0.0877672899909571,0.12027623192033987,0.010404649844358991,-0.0013467368497625787,-0.007843975033415062
1317,9.0,300.0675,-1488.5829,0.013169989977771968,0.0,0.0,0.0,0.0,0.002009926681229318,0.23441871383032578,0.10013492039979721,0.11793838022961188,0.008651587748145232,-0.008701671282038092,0.006285365358592265
1318,9.0,300.18972,-1432.8673,0.01317999965246952,0.0,0.0,0.0,0.0,0.002011454299115062,0.22407957060493178,0.08692247954783082,0.12455382933750589,0.005267989101535045,-0.004950015008153445,0.015747361581143586
1319,9.0,299.80674,-1458.7579999999998,0.013190009327167074,0.0,0.0,0.0,0.0,0.0020129819170008056,0.21472535713924282,0.09091699515205881,0.13778365350818786,0.006403263391202894,0.008901321980417081,0.03380935318722336
1320,9.0,300.60047000000003,-1411.4342,0.01319998596663452,0.0,0.0,0.0,0.0,0.0020145044932433354,0.23604816184613978,0.08264505438318182,0.11034754617795489,0.019159428603888383,-0.00040273100516645556,0.03542827556099856
1321,9.0,300.99579,-1525.2524,0.013209995641331851,0.0,0.0,0.0,0.0,0.0020160321111290513,0.28534043860340874,0.07120307455019634,0.1070951450794679,0.003554401304042096,-0.004425349445422986,0.008214224523305842
1322,9.0,300.94251,-1408.6826,0.013220005316029404,0.0,0.0,0.0,0.0,0.0020175597290147673,0.26445198381687873,0.06561356548655474,0.0981387893317944,0.006574748776552183,-0.009834041900894371,0.009258784254045862
1323,9.0,300.41725,-1168.5267,0.013229981955496628,0.0,0.0,0.0,0.0,0.002019082305257325,0.2166466515813598,0.05759689281537075,0.08095940645057133,-0.004834636523241476,-0.010180212920708791,0.0005566453266891164
1324,9.0,299.95755,-1389.7582,0.013239991630194181,0.0,0.0,0.0,0.0,0.002020609923143013,0.21143607373711581,0.07349385064127834,0.13752187021235188,-0.0041330686388021155,-3.320740967381617e-05,0.027932907907263372
1325,9.0,299.80758,-1707.3935,0.013250001304891734,0.0,0.0,0.0,0.0,0.0020221375410287568,0.24666638454657677,0.12242955050285588,0.14990905533487187,-0.011663488463846688,-0.003813140391277656,0.024820782165870477
1326,9.0,300.35955,-1537.5296,0.013259977944358958,0.0,0.0,0.0,0.0,0.0020236601172712865,0.24564093491537276,0.09031247494364732,0.13141720047986785,-0.013882945933390088,0.004998885580351595,0.02837093693874347
1327,9.0,299.91226,-1317.1185,0.013269987619056511,0.0,0.0,0.0,0.0,0.00202518773515703,0.24736977263349577,0.07136474366990184,0.08163660708865583,-0.009508365586877622,0.015896679182130086,0.0049411530214538354
1328,9.0,299.83489,-1361.4086,0.013279997293753842,0.0,0.0,0.0,0.0,0.002026715353042746,0.24364503486839278,0.07125061725813843,0.09893857600672722,0.002065817647605328,0.006557183984743675,0.006541737797569253
1329,9.0,300.0497,-1453.7425,0.013290006968451396,0.0,0.0,0.0,0.0,0.002028242970928462,0.25445267454252374,0.05976110991596235,0.1276876396442889,0.0019913781144337184,-0.002461354313616758,0.007738178145423723
1330,9.0,300.24416,-1442.2947,0.013299983607918842,0.0,0.0,0.0,0.0,0.0020297655471710196,0.1980128201223438,0.10097901852810322,0.13942974922314486,-0.001046409114822539,-0.014270999443437985,0.02805383525369797
1331,9.0,300.02025,-1383.8432,0.013309993282616395,0.0,0.0,0.0,0.0,0.0020312931650567356,0.19921680442116782,0.08669167333405202,0.13474531162582687,0.0008391179837994971,0.0034535484685886972,0.03704872490267446
1332,9.0,299.92194,-1434.2899,0.013320002957313726,0.0,0.0,0.0,0.0,0.0020328207829424516,0.23414747691105678,0.08616902272047042,0.11567182081591988,-0.011537916378953688,-0.0038395920957382365,0.01931176163717248
1333,9.0,300.17591,-1504.0043,0.013329979596781394,0.0,0.0,0.0,0.0,0.002034343359185009,0.26734522828491974,0.08986023102651432,0.0999742868216939,0.0008447087837437662,-0.016170366140140884,0.03077792268379447
1334,9.0,300.27443999999997,-1598.8381,0.013339989271478725,0.0,0.0,0.0,0.0,0.002035870977070725,0.26535459713845977,0.0957757908000846,0.12487646843434788,-0.005390902924790694,-0.01315460149650809,0.00991274427856169
1335,9.0,300.72679,-1532.3624,0.013349998946176056,0.0,0.0,0.0,0.0,0.002037398594956441,0.24409472539527377,0.09558575777032982,0.12611944259701988,0.004784372833480836,-0.0038903419428968564,0.006856617222495432
1336,9.0,300.45648,-1429.9537,0.013360008620873609,0.0,0.0,0.0,0.0,0.002038926212842157,0.1921223919910038,0.0994695727613825,0.14307825005072386,0.000987560278554611,0.009118781461228662,0.013225484420503688
1337,9.0,300.27642000000003,-1555.346,0.013369985260341055,0.0,0.0,0.0,0.0,0.0020404487890847145,0.23840517409625878,0.0914510873857696,0.14293008248860087,-0.004440077339601516,0.003832132447177026,0.015480651863321385
1338,9.0,299.44192999999996,-1672.3894,0.013379994935038608,0.0,0.0,0.0,0.0,0.0020419764069704305,0.2733813921781427,0.09724608356969121,0.13773713519609687,0.004847011245387766,0.01804557594120968,0.006737152198605154
1339,9.0,299.62041,-1470.9231,0.01339000460973594,0.0,0.0,0.0,0.0,0.0020435040248561465,0.26468120125450073,0.08018076529197542,0.1022619218374659,-0.00885511514140682,0.022584040676121277,0.0005763301011518524
1340,9.0,299.39467,-1372.8589,0.013399981249203607,0.0,0.0,0.0,0.0,0.002045026601098704,0.2339046920545958,0.07285006395174153,0.1105600652539289,0.0005475664943356055,0.006325834162286224,0.0014404494130862886
1341,9.0,300.3998,-1481.0365,0.013409990923900938,0.0,0.0,0.0,0.0,0.00204655421898442,0.25864194694847276,0.08041528608062083,0.11114089060875189,-0.018524634508989085,-0.014252419476354285,0.0020462310165472782
1342,9.0,299.78664,-1582.0316,0.013420000598598492,0.0,0.0,0.0,0.0,0.0020480818368701637,0.22116219051950878,0.09831449601838531,0.16142141045355285,-0.005021386521347266,-0.016263455453328086,0.031014893511181675
1343,9.0,299.56088,-1538.0191,0.013430010273295823,0.0,0.0,0.0,0.0,0.002049609454755852,0.24272709107279877,0.1123143862120669,0.1124779247782069,0.0037133294809020873,-0.02066191334242208,0.03292057680900797
1344,9.0,300.15485,-1456.8289,0.01343998691276349,0.0,0.0,0.0,0.0,0.002051132030998437,0.23892657233271675,0.0946080099273336,0.1093050131500649,0.004546484710778106,-0.009155288051731582,0.03244286890361187
1345,9.0,300.68887,-1444.7031,0.013449996587460822,0.0,0.0,0.0,0.0,0.0020526596488841253,0.26243383279770277,0.07555815317600913,0.1011616710441296,0.004641834382288386,-0.014284949870814787,0.016036007150380685
1346,9.0,299.65301,-1409.3807,0.013460006262158153,0.0,0.0,0.0,0.0,0.0020541872667698413,0.24182392046366277,0.08892852121506171,0.09766410901769709,0.021407507349006483,0.004420906850359535,0.023231371714507877
1347,9.0,300.34412000000003,-1472.536,0.013469982901625821,0.0,0.0,0.0,0.0,0.002055709843012399,0.22755492725542278,0.09180537737598532,0.12825388433017287,0.003753875494253666,0.02101446662196638,-0.006673295353452974
1348,9.0,299.73093,-1616.8447,0.013479992576323152,0.0,0.0,0.0,0.0,0.0020572374608981148,0.21183967151694783,0.11986192408695087,0.15977882058394186,0.003934922819471646,0.014737050919683685,0.01716409597696438
1349,9.0,300.04317000000003,-1466.3008,0.013490002251020705,0.0,0.0,0.0,0.0,0.0020587650787838585,0.23356305451837878,0.09686776637985421,0.1152880118105409,-0.026918221018621576,-0.008067597000009832,0.021282013284371182
1350,9.0,300.26349,-1454.7192,0.013499978890488151,0.0,0.0,0.0,0.0,0.0020602876550263882,0.23787020844096177,0.10574335798855691,0.09858475413805771,-0.006406665986363704,-0.0033531516970053063,0.034637234247678866
1351,9.0,299.703,-1592.0947,0.013509988565185704,0.0,0.0,0.0,0.0,0.002061815272912132,0.27096033238920275,0.1014694893317589,0.11152723273938091,-0.004214723728585845,-0.01131254017246079,0.016234313367201984
1352,9.0,299.60553,-1558.5998,0.013519998239883035,0.0,0.0,0.0,0.0,0.00206334289079782,0.2625830541399297,0.09547609675175711,0.11571628223030789,-0.0008836954761189532,0.01007286494946437,0.016377045855788586
1353,9.0,300.24504,-1495.0445,0.013530007914580588,0.0,0.0,0.0,0.0,0.002064870508683564,0.23698257095585878,0.08237891208541562,0.13509471065780987,0.004087355455240576,-0.013924029171944685,0.01008489719307686
1354,9.0,300.39852,-1553.8048,0.013539984554047813,0.0,0.0,0.0,0.0,0.0020663930849260936,0.24049291513230278,0.08929892289511751,0.14252601861372285,0.014307864521826285,0.0015710742722529585,0.027332396116247475
1355,9.0,300.65675,-1471.6896,0.013549994228745366,0.0,0.0,0.0,0.0,0.0020679207028118374,0.24599755842056878,0.08259659164414893,0.11876273011346888,0.01130555381302129,-0.002684181081533047,0.01181947629024149
1356,9.0,299.80696,-1506.5128,0.013560003903442919,0.0,0.0,0.0,0.0,0.0020694483206975534,0.25247420239726376,0.08663527076723551,0.11883278622538287,0.008300979300842873,-0.005955682349705084,0.03201653379153587
1357,9.0,299.60236000000003,-1636.4824,0.013569980542910365,0.0,0.0,0.0,0.0,0.002070970896940111,0.2746736102956748,0.09211927820396491,0.1306569082673329,-0.0019077431339545882,-0.008279058850829493,-0.0031393506570047865
1358,9.0,299.2987,-1454.6731,0.013579990217607696,0.0,0.0,0.0,0.0,0.002072498514825827,0.25173536068934577,0.07203198405950334,0.1184169686493449,9.012044074494501e-05,0.0029095086520211475,0.00968250599146394
1359,9.0,300.25603,-1317.9726,0.013589999892305027,0.0,0.0,0.0,0.0,0.002074026132711515,0.1980600375770038,0.08427049904785072,0.11830022197282289,-0.003255170918960357,0.0030055970841793376,0.0002067702799416378
1360,9.0,300.16868999999997,-1512.6613,0.01360000956700258,0.0,0.0,0.0,0.0,0.0020755537505972588,0.23059525510797976,0.08562331661411342,0.14359270752399686,-0.012877655926175686,0.019385217203171982,0.02286470791407098
1361,9.0,300.64373,-1750.8458,0.013609986206470026,0.0,0.0,0.0,0.0,0.0020770763268397885,0.28053141177379476,0.1081457131806509,0.1435362897584289,-0.007088653319245614,0.003060640578636707,0.01893337655957878
1362,9.0,299.58896,-1632.8677,0.01361999588116758,0.0,0.0,0.0,0.0,0.0020786039447255322,0.2633455349726807,0.10621875467047488,0.12678670831787386,-0.002939495282105597,0.005748799173437305,0.04688560207999866
1363,9.0,300.75012000000004,-1430.5191,0.01363000555586491,0.0,0.0,0.0,0.0,0.002080131562611248,0.26472815526413473,0.07230201521115333,0.0978119148495344,-0.0018829910552117482,-0.007088842797014312,0.026511243036455974
1364,9.0,299.94541,-1450.6272,0.013639982195332578,0.0,0.0,0.0,0.0,0.0020816541388538057,0.23478303803628178,0.08007859320489183,0.12609280425189087,-0.0038253673815593662,0.004050558467258996,0.023017666122666775
1365,9.0,299.51037,-1422.3194,0.01364999187002991,0.0,0.0,0.0,0.0,0.002083181756739494,0.2330658020318038,0.07429908353549862,0.12498470381002988,-0.00870049327747183,-0.01077674871833229,0.020349344938323983
1366,9.0,299.01477,-1498.3835,0.013660001544727463,0.0,0.0,0.0,0.0,0.0020847093746252376,0.23046532604765677,0.09194238398825681,0.13306344818233987,-0.0032393545915244066,-0.005260073287778815,0.02492801442395348
1367,9.0,299.44827999999995,-1485.5674,0.013669978184194909,0.0,0.0,0.0,0.0,0.0020862319508677674,0.2534642490699738,0.09135418622570622,0.1067569424610899,0.01210223487639759,-0.012814299423922888,0.02094262009712568
1368,9.0,300.01968999999997,-1380.9342,0.013679987858892462,0.0,0.0,0.0,0.0,0.002087759568753511,0.2178391557565508,0.09004231308273442,0.11188806123249188,0.019584473848587084,-0.0018928171493815082,0.029370663189658773
1369,9.0,300.59047999999996,-1434.2395,0.013689997533589793,0.0,0.0,0.0,0.0,0.002089287186639227,0.2442826731563228,0.08016450972062113,0.11152581418924089,0.03175127403460677,0.001120737190483149,0.014074767349571386
1370,9.0,300.25166,-1722.4724,0.013700007208287124,0.0,0.0,0.0,0.0,0.002090814804524943,0.2588361971251438,0.1093336881278949,0.15541871421113285,-0.004545131008644506,0.0075699585664717435,-0.003048851312398197
1371,9.0,299.84532,-1574.2802,0.013709983847754792,0.0,0.0,0.0,0.0,0.0020923373807675005,0.25537497531354775,0.08449594820835082,0.13867093635575586,0.015155326640464284,0.00018683350004653087,0.008168742158117082
1372,9.0,300.16163,-1304.5162,0.013719993522452123,0.0,0.0,0.0,0.0,0.0020938649986531888,0.2244785884943118,0.061377510310238644,0.1106842491861849,-0.02832788799499487,0.0006846254511072712,0.015122056573430786
1373,9.0,299.7782,-1550.3183,0.013730003197149676,0.0,0.0,0.0,0.0,0.0020953926165389325,0.26746681829691976,0.08939550893439982,0.1143957235074789,-0.017272693082932083,0.006788477977120614,0.02967254383170207
1374,9.0,299.89025,-1655.1684,0.013739979836617122,0.0,0.0,0.0,0.0,0.002096915192781462,0.2747862127792878,0.09495318674614991,0.13339045438711286,-0.010965615497221989,-0.003226362394767177,0.030920615655627173
1375,9.0,299.81363,-1477.8363,0.013749989511314675,0.0,0.0,0.0,0.0,0.002098442810667206,0.26476913109817873,0.07487002564884623,0.1095861799203139,0.0007779746528126202,0.0005386488194104995,0.028088025351822272
1376,9.0,299.94615,-1419.9536,0.013759999186012006,0.0,0.0,0.0,0.0,0.002099970428552922,0.2265571900144538,0.08111380347430913,0.12395945682884589,0.005930482718393073,0.008773846302561212,0.00979060376778236
1377,9.0,299.40968,-1442.2052,0.01377000886070956,0.0,0.0,0.0,0.0,0.0021014980464386657,0.2349190060672008,0.07897702012017502,0.12449834376202988,0.012553877936221288,-0.0074710230028575625,0.01362249506143559
1378,9.0,299.57482000000005,-1439.8029999999999,0.013779985500177006,0.0,0.0,0.0,0.0,0.0021030206226811954,0.2250088830666478,0.09004242555349551,0.12261283731344487,0.013048587165045287,0.007570202050470773,0.012922071744309187
1379,9.0,299.42217,-1555.6237,0.013789995174874559,0.0,0.0,0.0,0.0,0.0021045482405669114,0.24857581383002278,0.1110047199278129,0.1132902271183749,-0.0025709902035869776,-0.005728183080277655,0.028918395967773475
1380,9.0,299.54373,-1564.5885,0.01380000484957189,0.0,0.0,0.0,0.0,0.0021060758584526273,0.23920774923546675,0.10390097546422791,0.13248709126045788,0.0014340749553821786,0.0073634898094948635,0.02793249754097287
1381,9.0,299.81964,-1368.3065,0.013809981489039336,0.0,0.0,0.0,0.0,0.002107598434695157,0.23401244107022975,0.08172123779000821,0.100197324446956,-0.024790667359648376,-0.008316306937755591,0.033680386714495365
1382,9.0,299.94441,-1475.7993,0.013819991163736889,0.0,0.0,0.0,0.0,0.002109126052580901,0.2364989365506278,0.0894893217081584,0.12261788329894288,-0.02001253756533368,-0.008297073930982442,0.02135068630989868
1383,9.0,300.53869,-1690.1808,0.01383000083843422,0.0,0.0,0.0,0.0,0.0021106536704666168,0.27852072840785574,0.09584137037305682,0.13941064945875986,-0.010310586797825691,-0.001969898934838888,0.018710591233591582
1384,9.0,300.41718,-1662.3241,0.013839977477901666,0.0,0.0,0.0,0.0,0.0021121762467091465,0.2739255784093497,0.1016582780903909,0.12972116166748188,0.00900337936758936,0.0003856438797200876,0.01068430079245839
1385,9.0,300.33586,-1587.7421,0.013849987152599219,0.0,0.0,0.0,0.0,0.0021137038645948902,0.25490140248180976,0.0978423022200334,0.12989024271166888,0.0066799841213381035,-0.005762167691281675,0.028348692046048073
1386,9.0,300.22739,-1647.2067,0.01385999682729655,0.0,0.0,0.0,0.0,0.0021152314824806062,0.2649309471391488,0.10575718885242189,0.13002155992462888,0.0006356980558435134,0.002960764313629687,0.02049505942195488
1387,9.0,300.1506,-1603.2012,0.013870006501994103,0.0,0.0,0.0,0.0,0.002116759100366322,0.25006386279438175,0.1029295523283559,0.13433971774329787,0.007452616706841004,0.006729495472899494,0.006863377728487644
1388,9.0,299.80715,-1440.2682,0.013879983141461327,0.0,0.0,0.0,0.0,0.002118281676608852,0.22988865501824376,0.08754780482054561,0.1203691165570069,-0.005459190408655145,0.014547584296734788,0.006187914915649654
1389,9.0,299.88852,-1468.6814,0.01388999281615888,0.0,0.0,0.0,0.0,0.0021198092944945957,0.24436759364720378,0.07876693689744142,0.12330794714704689,0.009037520627058841,0.0004771794650714465,-0.0033882311247423772
1390,9.0,299.41669,-1527.6666,0.013900002490856433,0.0,0.0,0.0,0.0,0.0021213369123803394,0.2556189558051268,0.08753604807963532,0.12121750073323588,0.006425459141268444,0.0010745065400955389,0.010528758796107589
1391,9.0,299.76898,-1522.4278,0.013909979130323658,0.0,0.0,0.0,0.0,0.0021228594886228414,0.24532796222448477,0.10089099242566571,0.11656106936868188,0.0042409523153744055,-0.016400125666566383,0.028335954479040977
1392,9.0,300.03225,-1713.9659,0.01391998880502121,0.0,0.0,0.0,0.0,0.002124387106508585,0.2683324277248487,0.1080272338464579,0.14464316416766887,0.015628321919645284,-0.008589331635501032,0.026526586682720274
1393,9.0,300.23627,-1786.3782,0.013929998479718764,0.0,0.0,0.0,0.0,0.002125914724394301,0.28219414505539375,0.11008103100415188,0.15073920100930085,0.0051522712791645855,-0.006946086395725354,0.014170297582249487
1394,9.0,300.62052,-1552.7382,0.013940008154416095,0.0,0.0,0.0,0.0,0.002127442342280017,0.23928669155075777,0.08659853234510972,0.14610842513727887,-0.004684685438292455,0.012710929675221088,0.00973437051505757
1395,9.0,300.85508,-1447.3672,0.01394998479388354,0.0,0.0,0.0,0.0,0.0021289649185225468,0.24635515464586077,0.07680325719039133,0.11680509039026488,-0.01167420864990469,0.008753475213275741,0.005889759994224055
1396,9.0,301.24451,-1537.9394,0.013959994468581094,0.0,0.0,0.0,0.0,0.0021304925364082905,0.24330692344252375,0.09481064677508232,0.12937760908857587,-0.024892314583180176,0.007755824909165323,0.01099360349148419
1397,9.0,301.5976,-1458.1870000000001,0.013970004143278647,0.0,0.0,0.0,0.0,0.0021320201542940342,0.2430777262699038,0.09061393610014921,0.1095607777403069,-0.0068304465936125935,0.0016506324409547384,0.030082877698198868
1398,9.0,300.78585,-1430.2201,0.013979980782745871,0.0,0.0,0.0,0.0,0.002133542730536536,0.23371090797297076,0.08977831786193011,0.11126197399570191,-0.002934444838307157,0.0021429549591681883,0.03846831362402696
1399,9.0,300.6357,-1419.8315,0.013989990457443424,0.0,0.0,0.0,0.0,0.00213507034842228,0.2259499492295238,0.09297743821715872,0.1126659434667629,0.02037053807741558,0.011270744619085888,0.02869769489724197
1400,9.0,300.56985,-1447.1734,0.014000000132140977,0.0,0.0,0.0,0.0,0.002136597966307996,0.2288315514539158,0.08395851731556052,0.1271145251227269,0.005891526798423425,-0.005117811453863664,0.006817351957270254
1401,9.0,299.81376,-1629.6318,0.01401000980683853,0.0,0.0,0.0,0.0,0.0021381255841937397,0.26878058824407874,0.09277923231209732,0.13380754865827688,0.019566878760600582,0.0013343296022880786,0.008253215805703982
1402,9.0,299.88187999999997,-1809.9193,0.014019986446305754,0.0,0.0,0.0,0.0,0.0021396481604362416,0.2855624822303227,0.10422818431902091,0.16037959683323386,0.002299679722360718,-0.004467876058745036,0.002210660330850188
1403,9.0,300.06597999999997,-1680.402,0.01402999612100353,0.0,0.0,0.0,0.0,0.002141175778322013,0.27197860820969877,0.0979125052532119,0.14090914503164986,-0.0025126595231551876,-0.004696353519819006,0.03208607517239907
1404,9.0,299.37237999999996,-1523.5068,0.01404000579570086,0.0,0.0,0.0,0.0,0.002142703396207729,0.23727966601767977,0.0944700407274671,0.13135831038405588,-0.015455389511828184,-0.012275229092470788,0.02037726504482948
1405,9.0,299.9903,-1523.0418,0.014049982435168307,0.0,0.0,0.0,0.0,0.002144225972450259,0.23999693934085375,0.09622638615930491,0.12674334121359387,-0.007536538031798393,9.094916077648331e-05,0.03237607545701987
1406,9.0,300.52483,-1548.6975,0.014059992109865638,0.0,0.0,0.0,0.0,0.002145753590335975,0.26353364485374575,0.06286109894765744,0.14437063028827185,-0.0035658723084241967,0.006789584952854863,-0.016047723361286986
1407,9.0,299.6003,-1467.8712,0.01407000178456319,0.0,0.0,0.0,0.0,0.0021472812082216908,0.25410654830836377,0.07943709443408083,0.1126525483004409,0.002856660161255407,0.012272800331981089,0.018133009292338683
1408,9.0,299.38034,-1350.0313,0.014079978424030637,0.0,0.0,0.0,0.0,0.0021488037844642482,0.23183303129763877,0.08267150730354252,0.09587127543650821,0.0043944308278965555,0.0020863993915865883,0.007534689863615993
1409,9.0,300.06961,-1455.5326,0.014089988098727968,0.0,0.0,0.0,0.0,0.0021503314023499365,0.25158951346995173,0.08745517653615392,0.1034008757448719,0.014629483275817588,-2.399723477609268e-05,0.03967473782909176
1410,9.0,299.94289,-1721.9028,0.014099997773425743,0.0,0.0,0.0,0.0,0.002151859020235708,0.26601730323386374,0.1115256115392209,0.14587253038149786,0.01049918911843929,-0.00022500839670659974,0.02417392532853068
1411,9.0,300.45817999999997,-1652.5005,0.014110007448123074,0.0,0.0,0.0,0.0,0.002153386638121424,0.2582296960127867,0.10607438679622688,0.13801480625350088,0.013392570375243789,0.003422830069282027,0.042023146572611664
1412,9.0,300.57059,-1554.0472,0.01411998408759052,0.0,0.0,0.0,0.0,0.0021549092143639537,0.25808868199636975,0.08282946894113212,0.13147339533041388,-0.019608310557189583,-0.00855857756979084,0.011129090228605688
1413,9.0,300.04927000000004,-1400.0275,0.014129993762288073,0.0,0.0,0.0,0.0,0.0021564368322496974,0.23715332386271076,0.06660516445841794,0.1218149231246969,-0.01892408201641148,0.005505863342711405,0.011925887815743488
1414,9.0,300.2099,-1339.1844,0.014140003436985626,0.0,0.0,0.0,0.0,0.0021579644501354134,0.23945412099728178,0.06067151513081234,0.1069529658254359,-0.02276478524220938,0.002965852855631887,0.019694362848432283
1415,9.0,299.944,-1558.7089999999998,0.01414998007645285,0.0,0.0,0.0,0.0,0.002159487026377943,0.25906606304282975,0.09228954373751881,0.1224529971101699,-0.003593043420455777,0.008624126846585051,0.026640547934717373
1416,9.0,299.54752,-1598.9875,0.014159989751150404,0.0,0.0,0.0,0.0,0.002161014644263659,0.25333314463953477,0.09937960425850331,0.13333953856958788,0.003179343841101807,-0.010177308945922189,0.038996597908164565
1417,9.0,299.66359,-1379.4365,0.014169999425847957,0.0,0.0,0.0,0.0,0.002162542262149403,0.21666388696556077,0.08977908489225582,0.11287127859952789,0.008113689949708852,-0.0015695153869741084,0.034395685556339865
1418,9.0,299.87931000000003,-1541.6717,0.014180009100545288,0.0,0.0,0.0,0.0,0.002164069880035119,0.2666578900795848,0.08366988491857472,0.11830192423299088,0.019658957863438083,-0.0032660475508337968,0.009405454131196051
1419,9.0,299.6469,-1751.9409,0.014189985740012734,0.0,0.0,0.0,0.0,0.0021655924562776485,0.2933158010680157,0.09671771417254521,0.14251276530241488,-0.0006153696649172575,-0.003643872503772216,0.004520471236985776
1420,9.0,300.06742,-1624.8206,0.014199995414710065,0.0,0.0,0.0,0.0,0.0021671200741633923,0.26854027571786176,0.09796327212297222,0.12740133569603287,0.005814581193779485,-0.008725263696041482,0.022944335186429576
1421,9.0,300.34494,-1548.5551,0.014210005089407618,0.0,0.0,0.0,0.0,0.0021686476920491082,0.25443299722558177,0.0937421502266299,0.12254692539443988,-0.013540669036359986,-0.0008901552596139842,0.025441288421109678
1422,9.0,300.23008,-1587.881,0.014219981728874842,0.0,0.0,0.0,0.0,0.002170170268291638,0.24739355361334275,0.09584857559451791,0.13943405553606988,0.014315336228063684,0.007617107829400014,0.016528953324030687
1423,9.0,300.26727,-1630.6343,0.014229991403572395,0.0,0.0,0.0,0.0,0.002171697886177354,0.2564502363196678,0.0972948442042535,0.14192702568460688,-0.0010250228502618791,0.0036518665404361664,0.020697414586175782
1424,9.0,299.95981,-1613.6539,0.014240001078269948,0.0,0.0,0.0,0.0,0.0021732255040630977,0.27443276074690476,0.08206898522432822,0.13400874973063387,0.007644440453497533,0.01343193818137909,0.0008566925028089672
1425,9.0,299.85647,-1633.5317,0.014249977717737394,0.0,0.0,0.0,0.0,0.0021747480803056274,0.26815481511481976,0.09004636506988431,0.13835167138174687,-0.008062375620919522,0.022040825138510082,0.001941656006851528
1426,9.0,299.69405,-1499.9259,0.014259987392434725,0.0,0.0,0.0,0.0,0.0021762756981913434,0.25636535635879076,0.08174410076526463,0.11783056028647088,-0.001155928075731219,0.004178413404627296,0.01996757965839668
1427,9.0,299.54374,-1537.4470000000001,0.014269997067132278,0.0,0.0,0.0,0.0,0.002177803316077087,0.25217587117032075,0.100904380499237,0.11426524729210188,-0.00988987806090497,0.004281524369253556,0.03802977391449647
1428,9.0,299.94915,-1769.7664,0.014280006741829832,0.0,0.0,0.0,0.0,0.002179330933962803,0.2602381299635037,0.12985949057113388,0.14786718413085484,-0.004281719014597766,-0.016077433880719184,0.054523391154539746
1429,9.0,300.47576000000004,-1670.2508,0.014289983381297278,0.0,0.0,0.0,0.0,0.0021808535102053606,0.26346595974706577,0.10991819158058089,0.13433040597487889,-0.0028098605709366473,-0.017735201223578086,0.03082330007627287
1430,9.0,299.69838,-1415.2013,0.014299993055994609,0.0,0.0,0.0,0.0,0.0021823811280910488,0.24716817639359978,0.08288106262297401,0.1001366216467151,-0.00026220372369999275,-0.02844264768807077,0.02643041911572927
1431,9.0,299.59479,-1483.1484,0.014310002730692162,0.0,0.0,0.0,0.0,0.0021839087459767925,0.24127842713982678,0.09501775914852272,0.11454389106960189,0.013847777035669187,-0.009100868111385753,0.0012777959209086388
1432,9.0,299.65151000000003,-1635.1601,0.014319979370159608,0.0,0.0,0.0,0.0,0.0021854313222193222,0.26566918089700675,0.09313173594238672,0.13824691145390786,0.013838480466001685,0.0029171238344727073,0.004497813343549616
1433,9.0,300.18671,-1687.7674,0.014329989044856939,0.0,0.0,0.0,0.0,0.0021869589401050382,0.25753626817435077,0.1140647757598169,0.14143810211385385,0.006468658451331885,0.02947799271975137,0.014129261966449588
1434,9.0,300.73013,-1737.5732,0.014339998719554492,0.0,0.0,0.0,0.0,0.002188486557990782,0.26546842565469375,0.1052591662957709,0.15745126351422983,0.0015380853821222085,0.01904870265946058,0.01994686477335228
1435,9.0,300.18719,-1757.2001,0.014350008394252045,0.0,0.0,0.0,0.0,0.002190014175876498,0.2864964860400017,0.09983342985904241,0.14781503214820785,-0.010808261809692389,0.01127010525827279,0.023251017620696778
1436,9.0,299.79444,-1588.5244,0.014359985033719491,0.0,0.0,0.0,0.0,0.0021915367521190554,0.27160892391071373,0.09045634632534631,0.1208064656976699,-0.013067759883437488,-0.00039861255894249663,0.007956970658066862
1437,9.0,300.35759,-1545.2479999999998,0.014369994708416822,0.0,0.0,0.0,0.0,0.0021930643700047436,0.2541753277251517,0.09053820578767521,0.12500325641936086,-0.0035594947096447773,0.006168492532432813,0.018479098036244982
1438,9.0,300.32916,-1714.6114,0.014380004383114375,0.0,0.0,0.0,0.0,0.0021945919878904874,0.2800867165699067,0.10390584919720891,0.13720648598622587,-0.0024479995759737476,-0.0045505634477306465,-0.004089965384848156
1439,9.0,299.4774,-1551.9109,0.014389981022581821,0.0,0.0,0.0,0.0,0.002196114564133017,0.2430026241724918,0.0950646199391475,0.13367493448518888,0.006009006662717784,-0.007382221662768554,0.03465420213385347
1440,9.0,299.29068,-1380.5081,0.014399990697279375,0.0,0.0,0.0,0.0,0.002197642182018761,0.2139520953254278,0.0868457846212616,0.11884210812630289,0.01067588372387769,-0.008868665031019091,0.02999400046567737
1441,9.0,299.61996,-1617.9662,0.014410000371976706,0.0,0.0,0.0,0.0,0.002199169799904477,0.2546870392906537,0.09401840982664461,0.14311586189443587,0.015373599963756184,0.0037439086596450168,0.023760601360988776
1442,9.0,300.03899,-1729.5641,0.014419977011444374,0.0,0.0,0.0,0.0,0.0022006923761470343,0.27619631241345377,0.093009490357572,0.15653848729414585,0.004893887437414085,-0.004818602853659076,-0.0093298215973567
1443,9.0,299.57563,-1602.5812,0.014429986686141705,0.0,0.0,0.0,0.0,0.0022022199940327503,0.26448769075040274,0.0984069935935141,0.12424997589751788,0.012883384842241089,-0.003931518907085706,0.009024294268203501
1444,9.0,299.5997,-1671.0593,0.014439996360839036,0.0,0.0,0.0,0.0,0.0022037476119184385,0.26942295840997577,0.1038383059455429,0.13469903649375986,-0.004996313647622766,-0.0056071895686115245,0.008301423307036692
1445,9.0,299.93088,-1634.3010000000002,0.014450006035536589,0.0,0.0,0.0,0.0,0.0022052752298041822,0.25416813364944174,0.10268550090926991,0.13993305081281687,-0.0037077784915542466,0.004375640206117066,0.029454564350939173
1446,9.0,300.06864,-1620.4973,0.014459982675004035,0.0,0.0,0.0,0.0,0.002206797806046712,0.24697206183674478,0.11773217370176088,0.12788646971141188,-0.014194386590126885,0.0035312150006787863,0.034958165004852264
1447,9.0,299.9796,-1680.2398,0.014469992349701588,0.0,0.0,0.0,0.0,0.0022083254239324557,0.28166555274322574,0.1020661720506469,0.12701920868581987,-0.014987609430911885,0.012439601563443089,0.023333617768848777
1448,9.0,299.75504,-1580.8522,0.01448000202439892,0.0,0.0,0.0,0.0,0.0022098530418181717,0.26495027995105674,0.09583463428639201,0.11975467156386589,-0.004174926101758126,0.002010083015254748,0.017697160775073786
1449,9.0,299.62269,-1359.5917,0.014489978663866365,0.0,0.0,0.0,0.0,0.002211375618060729,0.23769865506653076,0.07557423852134663,0.10000902914112271,-0.0016874190937852984,0.004610588181004626,0.0053379727660668955
1450,9.0,300.21292,-1430.0488,0.014499988338563918,0.0,0.0,0.0,0.0,0.0022129032359464174,0.23860905014887976,0.07869053783990142,0.11739955409143388,0.0011530068756929188,-0.007125639683670883,0.013269063294054589
1451,9.0,300.03677999999996,-1795.0941,0.014509998013261471,0.0,0.0,0.0,0.0,0.002214430853832161,0.2677709149169318,0.11510885906035989,0.16278400892303085,-0.016421066506383083,-0.01038234314340749,0.012259157932634688
1452,9.0,300.07799,-1721.1729999999998,0.014520007687958802,0.0,0.0,0.0,0.0,0.002215958471717877,0.2674508900053477,0.1006008573787816,0.15514187401881085,-0.00019549817655416783,-0.007145612363017033,0.026320410552372275
1453,9.0,300.49048999999997,-1495.0384,0.014529984327426249,0.0,0.0,0.0,0.0,0.0022174810479604345,0.2516511494735348,0.08918995088661281,0.11361325125025488,0.004273749093286196,0.010642300562563291,0.009603823068198541
1454,9.0,300.41943,-1621.8609,0.01453999400212358,0.0,0.0,0.0,0.0,0.0022190086658461505,0.27077586007599674,0.09696326520177921,0.12526608336279987,0.013589973786225987,0.007706287922376404,0.01856400636812478
1455,9.0,300.16862000000003,-1710.1774,0.014550003676821133,0.0,0.0,0.0,0.0,0.0022205362837318665,0.2855288625920047,0.0977913782965076,0.13653098254205887,-0.0024981787606760475,-0.01394018949778959,0.003795188740580966
1456,9.0,300.29008,-1621.4657,0.014559980316288579,0.0,0.0,0.0,0.0,0.002222058859974424,0.27661507854728273,0.1146203914521519,0.10164961480203591,0.01099547699091909,-0.008133438903432924,0.03552002333105336
1457,9.0,299.76277000000005,-1601.9789,0.01456998999098591,0.0,0.0,0.0,0.0,0.002223586477860112,0.25511945390332974,0.09579275564650891,0.13604937463702788,0.002414839243926078,0.008155067233442472,0.024080021362263077
1458,9.0,299.67559,-1501.5673,0.014579999665683463,0.0,0.0,0.0,0.0,0.002225114095745856,0.25491092703274976,0.09179824713503161,0.10972977772448589,-0.005295010455201844,0.015300690539560588,0.03584264418939357
1459,9.0,300.16812999999996,-1537.5772,0.014590009340380794,0.0,0.0,0.0,0.0,0.002226641713631572,0.24556888270076177,0.09937724237252021,0.12243895346378389,-0.023752452803684578,0.014737230264951384,0.021973020468318276
1460,9.0,299.51395,-1675.4678,0.014599985979848462,0.0,0.0,0.0,0.0,0.0022281642898741294,0.27849644080295877,0.08814884350161352,0.14265508641146085,-0.016797142386998885,0.01973346416979128,0.029051205698130772
1461,9.0,300.39454,-1611.2304,0.014609995654545793,0.0,0.0,0.0,0.0,0.0022296919077598454,0.25818521433339675,0.09956874866792041,0.13201986137434588,-0.0015924481751623985,0.009049944593159992,0.009214175513093321
1462,9.0,299.5635,-1396.9704,0.014620005329243346,0.0,0.0,0.0,0.0,0.002231219525645589,0.23420603263433576,0.07831953631578643,0.11211855536523989,-8.055406588056732e-06,-0.01050136051340359,0.026867502784866073
1463,9.0,299.1744,-1492.4484,0.014629981968710792,0.0,0.0,0.0,0.0,0.002232742101888119,0.22868377905933177,0.09018444471401171,0.13479883149610886,0.0035748065398559367,-0.024800965020414678,0.02636569168609118
1464,9.0,299.89384,-1737.1397,0.014639991643408345,0.0,0.0,0.0,0.0,0.002234269719773835,0.29060895408837073,0.10253671526458591,0.13490144333373585,0.0053010940088022455,-0.02033198695086088,0.023214940850886275
1465,9.0,300.57138,-1711.005,0.014650001318105677,0.0,0.0,0.0,0.0,0.002235797337659551,0.27629131474282975,0.0947191938608066,0.14909229469426385,0.013049419043377386,0.0005698361508634493,0.006934128423345193
1466,9.0,300.21834,-1612.9944,0.014659977957573345,0.0,0.0,0.0,0.0,0.0022373199139021083,0.2700523488420917,0.10187344174912591,0.11838424067111489,0.002212602427316858,0.0023715831918570377,0.014761687082615086
1467,9.0,300.64974,-1594.4509,0.014669987632270676,0.0,0.0,0.0,0.0,0.0022388475317878243,0.26632297039153074,0.08768268766060751,0.13066760818838888,-0.008662246531247173,-0.0011870963580822888,0.007863245429116903
1468,9.0,300.1832,-1672.3497,0.014679997306968007,0.0,0.0,0.0,0.0,0.0022403751496735402,0.28013798702496673,0.08400149837155242,0.1442130496327199,-0.01836743280897448,0.003791922224908587,0.017809020546363484
1469,9.0,300.35897,-1685.3771,0.01469000698166556,0.0,0.0,0.0,0.0,0.002241902767559284,0.2602515960573327,0.10997071846576488,0.14209022987821388,0.001067308614035159,0.016276262934592084,0.016916230684501984
1470,9.0,299.99067,-1673.2967,0.014699983621133006,0.0,0.0,0.0,0.0,0.0022434253438018137,0.2779318274497357,0.08549679511387671,0.14521180012378884,-0.00023972436493145273,0.01135037493119479,0.006590585065015104
1471,9.0,298.96592999999996,-1585.296,0.014709993295830559,0.0,0.0,0.0,0.0,0.0022449529616875297,0.2523537269603738,0.09509559296820431,0.13444106301829986,0.013975807265304788,0.001203231656649719,0.015838076849346485
1472,9.0,299.52865,-1488.1735,0.01472000297052789,0.0,0.0,0.0,0.0,0.0022464805795732457,0.24367666853651476,0.09310735207873022,0.1155835565997089,0.011537070315120189,0.0008798260867695742,0.025795357522803576
1473,9.0,300.34182999999996,-1642.5092,0.014729979609995558,0.0,0.0,0.0,0.0,0.002248003155815803,0.2743362284098777,0.0940350980557916,0.13091045383985586,0.019443247049649084,0.005090400302883396,0.02150577538345478
1474,9.0,299.57346,-1793.7576,0.01473998928469289,0.0,0.0,0.0,0.0,0.002249530773701519,0.2702085616100087,0.11648350507352688,0.15856546372169286,0.003129720322754347,-0.002145415434386018,0.014326722119437384
1475,9.0,299.32724,-1578.3996,0.014749998959390442,0.0,0.0,0.0,0.0,0.002251058391587263,0.25427343059983376,0.098456520245152,0.12706411593025188,0.007590993334572712,-0.01131758615795879,0.037056402298682165
1476,9.0,300.09619,-1498.9242,0.014760008634087773,0.0,0.0,0.0,0.0,0.002252586009472979,0.2542637337963768,0.08611962779134551,0.11525217315450388,-0.009664236484210881,-0.0009406874201211201,0.024267820175547378
1477,9.0,299.5982,-1670.9519,0.014769985273555442,0.0,0.0,0.0,0.0,0.0022541085857155363,0.2694002616077357,0.10141635449651491,0.13711102769430486,0.008569691099537662,0.0032183114134476066,0.027737404340218673
1478,9.0,300.05779,-1721.8379,0.014779994948252773,0.0,0.0,0.0,0.0,0.0022556362036012245,0.27647482446844074,0.1050811382532009,0.14183975445349387,-0.0004936375243257305,0.0012968145239606287,0.012474624553149589
1479,9.0,300.17304,-1715.1774,0.014790004622950104,0.0,0.0,0.0,0.0,0.0022571638214869405,0.27495994464143375,0.1079859135073799,0.13842524347150786,0.004934753232497225,0.0006230049907808054,0.024433565600405178
1480,9.0,300.63819,-1667.9253,0.01479998126241755,0.0,0.0,0.0,0.0,0.002258686397729498,0.27170883037057375,0.09867013768423441,0.13662868011670087,-0.008189510238791732,0.004562637031947215,0.0017195673916330883
1481,9.0,300.57638,-1523.2763,0.014809990937115103,0.0,0.0,0.0,0.0,0.002260214015615214,0.25824744815453876,0.07258319515365363,0.13220732277534686,-0.00041871972697441964,0.004177960481832595,0.0008105613434486762
1482,9.0,300.41619,-1620.0169,0.014820000611812656,0.0,0.0,0.0,0.0,0.0022617416335009577,0.26928331228119373,0.09319488776811931,0.12996649991419487,-0.007741817841107932,0.0064483258655502135,0.001378916659688479
1483,9.0,299.58733,-1824.0363,0.01482997725127988,0.0,0.0,0.0,0.0,0.0022632642097434874,0.27230558401696875,0.11070286259052191,0.17145304240609782,-0.013398022674031885,-0.016369733229816885,0.01166931262542149
1484,9.0,300.31667999999996,-1715.6288,0.014839986925977433,0.0,0.0,0.0,0.0,0.002264791827629231,0.27899368315703277,0.10820478566148091,0.13430983699784887,-0.006737100826825083,-0.004954373300808576,0.008698994984548961
1485,9.0,300.04024,-1497.6956,0.014849996600674764,0.0,0.0,0.0,0.0,0.0022663194455149194,0.2528936778061628,0.089896127437807,0.11247225057764688,0.0015508502055569986,0.002912877201978597,0.02173308081813808
1486,9.0,300.08383,-1581.8177,0.014860006275372317,0.0,0.0,0.0,0.0,0.002267847063400663,0.26881126945710676,0.08791454157498972,0.12410726975343388,0.01098384893277149,0.009680823793647922,0.017394728924976087
1487,9.0,299.41041,-1792.7004,0.014869982914839763,0.0,0.0,0.0,0.0,0.002269369639643193,0.29723251932956574,0.11080195845030189,0.13690169022364487,0.00953893098541919,-0.0011006128275970288,0.020409043607715782
1488,9.0,300.08344,-1686.0302,0.014879992589537316,0.0,0.0,0.0,0.0,0.0022708972575289366,0.26706321038458675,0.1106983029650719,0.13474957740874788,0.016868090159000884,0.0036719335533666264,0.028586168485235177
1489,9.0,300.29676,-1562.6447,0.014890002264234647,0.0,0.0,0.0,0.0,0.0022724248754146525,0.23983923709528976,0.09752067637329141,0.13764505102700889,0.012893256937965388,-0.012232578356011489,0.015380773774464184
1490,9.0,300.48761,-1555.8422,0.014899978903702094,0.0,0.0,0.0,0.0,0.0022739474516571823,0.2638431522292918,0.08552847437825323,0.12356556598497188,-0.0030871040367984473,-0.012769335437485289,0.025575813583886275
1491,9.0,300.38208,-1572.0855,0.014909988578399647,0.0,0.0,0.0,0.0,0.002275475069542926,0.2508776039496918,0.1023620309473459,0.12463509199552587,-0.003590461456550957,-0.006427773607146864,0.01814766291528488
1492,9.0,299.94367,-1639.9784,0.014919998253096978,0.0,0.0,0.0,0.0,0.0022770026874286142,0.2710928351047798,0.1059147796404749,0.12150486859409687,-0.017315707576177283,0.01073230756894629,0.03986255893387826
1493,9.0,300.2142,-1693.6197,0.01493000792779453,0.0,0.0,0.0,0.0,0.002278530305314358,0.2672210848826677,0.09714456198917182,0.15045244109849984,-0.007435642741165804,0.02229021233262268,0.006502523701474124
1494,9.0,299.97659,-1538.9113,0.014939984567261977,0.0,0.0,0.0,0.0,0.0022800528815568877,0.25676465795819875,0.08625656651586032,0.12476938816377987,-0.0007896708925594492,0.02060899230294918,0.03757606990396937
1495,9.0,299.70634,-1566.3538,0.01494999424195953,0.0,0.0,0.0,0.0,0.0022815804994426314,0.23512095694463178,0.10113647252739272,0.1398750017145879,-0.004299598724537355,0.0013730624045857084,0.028751234019275873
1496,9.0,299.56527,-1726.2961,0.014960003916656861,0.0,0.0,0.0,0.0,0.0022831081173283474,0.2992165136878707,0.09442231766100721,0.13111206021225288,0.00027164936272220476,-0.015287700673278585,0.025093553145790877
1497,9.0,299.84865,-1652.4015,0.014969980556124307,0.0,0.0,0.0,0.0,0.002284630693570877,0.26599965241712176,0.0935139531318586,0.14277517681331287,0.004848059452616215,-0.007643251303180173,0.009640914000034131
1498,9.0,299.42973,-1520.9574,0.01497999023082186,0.0,0.0,0.0,0.0,0.002286158311456621,0.27908305181585275,0.08195777899935301,0.1012922516242669,0.0064451871207154435,0.0031557829391765276,0.012633598427589088
1499,9.0,300.04406,-1643.8052,0.014989999905519413,0.0,0.0,0.0,0.0,0.002287685929342337,0.27933453035817174,0.07778500838453263,0.14255618306919987,-0.008194577198566803,-0.008049659534814542,0.006360610121618344
1500,9.0,300.29391,-1777.6427,0.015000009580216744,0.0,0.0,0.0,0.0,0.002289213547228053,0.2818204685510148,0.1068482261625989,0.15169030848066786,-0.009867542381000611,-0.004059259245867697,0.010797060329836888
1501,9.0,300.17134,-1647.828,0.015009986219684412,0.0,0.0,0.0,0.0,0.0022907361234706103,0.26436590822088374,0.08652682868853312,0.15000582071942184,-0.018876952714510183,0.00100205612832774,0.01963385053921018
1502,9.0,300.01391,-1683.9089999999999,0.015019995894381744,0.0,0.0,0.0,0.0,0.0022922637413563263,0.28871736813918575,0.08887457375323751,0.1342743428468459,-0.006018499397604645,0.011962276666584788,0.0034243873333607163
1503,9.0,300.53734,-1679.9517,0.015030005569079075,0.0,0.0,0.0,0.0,0.0022937913592420422,0.2673744402853027,0.10375527009984789,0.13953366815340085,-0.0014972909198461084,0.002132470151108418,0.02077565066614708
1504,9.0,300.10326000000003,-1607.2595,0.01503998220854652,0.0,0.0,0.0,0.0,0.002295313935484572,0.27653410973179177,0.08527392974113161,0.12675871221761087,0.0003453345717243687,0.0003392936962181807,0.021670555180967277
1505,9.0,300.18077999999997,-1657.7909,0.015049991883244074,0.0,0.0,0.0,0.0,0.0022968415533703157,0.27452838115884176,0.09982957748216222,0.12956907282747188,0.013357149178247988,0.005102056529383775,0.03255576421650377
1506,9.0,300.03848999999997,-1722.6244,0.015060001557941627,0.0,0.0,0.0,0.0,0.0022983691712560317,0.2644125683879887,0.10962643634678688,0.14959578880145485,0.004909823936311895,0.001252422618529489,0.031778932722586466
1507,9.0,299.88184,-1563.0404,0.015069978197408851,0.0,0.0,0.0,0.0,0.0022998917474985614,0.25621540547649174,0.0972025057093904,0.12170733622907888,0.013206700790149888,-0.004305985949192725,0.04114550581299526
1508,9.0,299.85331,-1521.6714,0.015079987872106626,0.0,0.0,0.0,0.0,0.002301419365384305,0.25281277991817874,0.0966731473801468,0.1130641811535659,-0.00021586597277681275,-0.006049723814011254,0.028643060451849972
1509,9.0,299.71046,-1654.8512,0.015089997546803957,0.0,0.0,0.0,0.0,0.002302946983270021,0.27273852551969674,0.09899570406061531,0.13129920750572288,0.01958649426928648,0.007985760031833152,0.017020695756561885
1510,9.0,299.58766,-1708.8686,0.01510000722150151,0.0,0.0,0.0,0.0,0.002304474601155765,0.29182373963326075,0.09369018569525142,0.13393946368879586,0.0008323189540384851,0.002560925489018668,0.007516352569931243
1511,9.0,300.02594,-1664.4579999999999,0.015109983860968956,0.0,0.0,0.0,0.0,0.0023059971773982946,0.27466815901013675,0.09426674425390331,0.13701877127269987,0.0024417265446046474,0.003816131910872897,0.03370720947114257
1512,9.0,300.25813,-1813.8062,0.015119993535666287,0.0,0.0,0.0,0.0,0.0023075247952840383,0.2745792564463628,0.11671168899604689,0.16006085874927684,0.004389047835415296,-0.013357357907768588,0.017680579950437383
1513,9.0,300.1874,-1722.3867,0.01513000321036384,0.0,0.0,0.0,0.0,0.0023090524131697265,0.27440793611945474,0.1022775461540079,0.14687706653063784,0.015497396834473985,0.013729332151979587,0.02348475820676518
1514,9.0,300.48637,-1586.6553,0.015139979849831064,0.0,0.0,0.0,0.0,0.002310574989412284,0.25856676379105276,0.09530263948038821,0.12843420231796887,0.003817786446961186,0.013835963552753287,0.014746016156568485
1515,9.0,300.53986000000003,-1741.4136,0.015149989524528618,0.0,0.0,0.0,0.0,0.002312102607298,0.27941314843343074,0.1038965678262929,0.14603653504268385,-0.021234001441632778,0.002992528285714547,0.017134761373319284
1516,9.0,300.38805,-1794.4201,0.01515999919922617,0.0,0.0,0.0,0.0,0.002313630225183716,0.3091479149405237,0.1059793439368469,0.1303316549852329,-0.01841389944531038,-0.007736754326383202,0.004492052408781056
1517,9.0,299.99457,-1629.1828,0.015170008873923502,0.0,0.0,0.0,0.0,0.0023151578430694597,0.2698148430186518,0.08886026970157582,0.13655578690450687,-0.004035120183435356,0.007187999755775343,0.025815185814010475
1518,9.0,299.48515,-1623.4854,0.015179985513390948,0.0,0.0,0.0,0.0,0.0023166804193119894,0.26610775607029075,0.0988607553592969,0.12853052187247488,0.008123480377475092,0.00041997798094859957,0.012166514449491489
1519,9.0,299.56789,-1769.0388,0.015189995188088501,0.0,0.0,0.0,0.0,0.002318208037197733,0.27435516605424676,0.1074203882290669,0.15596806801784985,-0.0008547653619137732,-0.0049305084238532955,0.021616702964652477
1520,9.0,300.20347999999996,-1743.9131,0.015200004862785832,0.0,0.0,0.0,0.0,0.0023197356550834214,0.2858359280348097,0.1021378189652179,0.14213227975736387,-0.0024784927297831875,-0.01040509364790279,0.013925099164050289
1521,9.0,299.67394,-1712.7441,0.015209981502253278,0.0,0.0,0.0,0.0,0.002321258231325979,0.26316612890997476,0.1039005498991859,0.15356475023816085,0.0027481910287753377,0.010122688990006621,0.01205521196575679
1522,9.0,299.90279,-1750.6015,0.015219991176950831,0.0,0.0,0.0,0.0,0.002322785849211695,0.2920849453765398,0.1032372662512249,0.13681693185277985,0.009715693073314251,0.002730211513700898,0.012401352385418188
1523,9.0,300.69327000000004,-1706.3567,0.015230000851648384,0.0,0.0,0.0,0.0,0.0023243134670974386,0.25275760845023376,0.1085096016890639,0.15742263919890484,-0.0030271318912046567,0.0015659026437425585,0.027784249932091973
1524,9.0,300.32727,-1684.6412,0.015239977491115608,0.0,0.0,0.0,0.0,0.0023258360433399405,0.26585489950783575,0.1097765290840999,0.13645743071729988,-0.004678816896363276,-0.0012666326405819089,0.03967991959010316
1525,9.0,300.09537,-1718.2472,0.015249987165813161,0.0,0.0,0.0,0.0,0.0023273636612256843,0.25514219123557375,0.11100122421496789,0.15616081858437286,-0.0093067438130791,0.01993643741657318,0.01884995973184618
1526,9.0,299.98037,-1602.2235,0.015259996840510714,0.0,0.0,0.0,0.0,0.002328891279111428,0.27195947804781073,0.09736286165696631,0.1177135805624259,0.0017479518706594185,0.019939914890916382,0.027586276061303476
1527,9.0,299.47477000000003,-1552.6053,0.015270006515208046,0.0,0.0,0.0,0.0,0.0023304188969971162,0.26165443068828176,0.0989100053936575,0.1113888227757209,-0.00909330237553907,0.001307719020211819,0.01868870807118188
1528,9.0,299.6889,-1745.7126,0.015279983154675492,0.0,0.0,0.0,0.0,0.0023319414732396737,0.30412502141230274,0.09116385732692223,0.13536417438940387,0.009091773989088232,-0.018847244221578182,0.015587011713068285
1529,9.0,300.36086,-1809.3918,0.015289992829373045,0.0,0.0,0.0,0.0,0.0023334690911253897,0.2789740666350967,0.1115161376507859,0.15951971226836986,0.003968864164696396,-0.014430682592947485,0.015556269705034287
1530,9.0,300.34146,-1776.5275,0.015300002504070598,0.0,0.0,0.0,0.0,0.0023349967090111334,0.2837845525448547,0.10910110669994089,0.14713434086352886,0.016698303892744286,-0.014754892227444485,0.025798924163155577
1531,9.0,300.69426,-1782.7620000000002,0.015309979143537822,0.0,0.0,0.0,0.0,0.0023365192852536354,0.2653480616753148,0.1129750860722729,0.16359198468527184,-0.012564166477736687,-8.792041639906952e-05,0.016980706828115286
1532,9.0,300.49485,-1691.0378,0.015319988818235375,0.0,0.0,0.0,0.0,0.002338046903139379,0.28191567353041075,0.09490572611146592,0.13721185621175588,-0.006599965329140864,-0.0014309343866972287,0.02111055920844998
1533,9.0,300.19697,-1630.0193,0.015329998492932928,0.0,0.0,0.0,0.0,0.002339574521025123,0.2704171290105927,0.08921029390887052,0.13585774877811588,-0.011172494823139388,0.02476156985652668,0.008688636630101672
1534,9.0,300.61235,-1667.6957,0.015340008167630481,0.0,0.0,0.0,0.0,0.002341102138910839,0.28387973725924875,0.09948820237772109,0.12356992296040187,0.003910847693120617,0.016669605610161984,0.02041945576574338
1535,9.0,299.77123,-1799.1805,0.015349984807097705,0.0,0.0,0.0,0.0,0.002342624715153341,0.28119759331704175,0.10704914352492789,0.15865919948844384,0.008035019996044732,0.003304919776345187,0.022469882853604777
1536,9.0,299.36516,-1701.0102,0.015359994481795258,0.0,0.0,0.0,0.0,0.0023441523330390845,0.27989717800620073,0.1033217206470599,0.13384572792204488,-0.005721618536854785,-0.014937101953177186,0.021180147198817778
1537,9.0,299.65237,-1700.0066,0.015370004156492811,0.0,0.0,0.0,0.0,0.0023456799509248283,0.26778678241349774,0.11108611430834589,0.13788664024835187,-0.0028043509221928878,-0.004917218432891675,0.02576038620885218
1538,9.0,300.16452000000004,-1815.7520000000002,0.015379980795960257,0.0,0.0,0.0,0.0,0.002347202527167358,0.2985619946532747,0.11238515159905088,0.14099612242023388,-0.0059463145485555546,-0.014669588728025686,0.02246445892581948
1539,9.0,300.09193,-1786.9134,0.015389990470657589,0.0,0.0,0.0,0.0,0.002348730145053074,0.28916041174541074,0.12044755224724787,0.13356910051224388,-0.0007429329889067772,0.0034852010844875665,0.024142433515422678
1540,9.0,300.70571,-1643.9799,0.015400000145355142,0.0,0.0,0.0,0.0,0.0023502577629388177,0.2727356276244107,0.09715704421715371,0.12983617568633288,-0.004951672482667026,-0.007072470397923482,0.029143152065205173
1541,9.0,299.7414,-1625.7524,0.015409976784822588,0.0,0.0,0.0,0.0,0.0023517803391813474,0.26642239049134275,0.09037050884312482,0.13739522408235288,-5.3826927618804146e-05,0.012445433831018688,0.023731027630320076
1542,9.0,300.68589,-1567.479,0.015419986459519919,0.0,0.0,0.0,0.0,0.0023533079570670357,0.24879533446418775,0.10137661482759291,0.12630251662508787,0.00989322938561072,0.002645090905925147,0.033755322638890965
1543,9.0,300.75436,-1590.734,0.015429996134217472,0.0,0.0,0.0,0.0,0.0023548355749527794,0.2533844556245987,0.09525568749725441,0.13490327731641685,0.008659895892340182,0.00970698023702936,0.03503086265977697
1544,9.0,300.04652000000004,-1699.6638,0.015440005808915025,0.0,0.0,0.0,0.0,0.002356363192838523,0.28146479750091274,0.0998721258803614,0.13531842614738887,0.014663429180667787,-0.005719891249409314,0.022555321115286877
1545,9.0,300.06728,-1649.1362,0.015449982448382471,0.0,0.0,0.0,0.0,0.002357885769081053,0.28677430908492074,0.08961580875789173,0.12490611613227388,0.010444688422060491,0.0037044189595226867,0.0074740944678856934
1546,9.0,300.7807,-1658.2624,0.015459992123079802,0.0,0.0,0.0,0.0,0.002359413386966769,0.2733008995901987,0.09631605879315491,0.1344534044045179,0.007067633344596103,-0.01049378849540629,0.017626571693607183
1547,9.0,300.38767,-1764.6015,0.015470001797777355,0.0,0.0,0.0,0.0,0.0023609410048525126,0.28565705899465677,0.10501370645904591,0.14572402844684185,-0.0066627681915390246,0.0032212611871387264,0.025028922988162373
1548,9.0,300.12028,-1846.7696,0.01547997843724458,0.0,0.0,0.0,0.0,0.0023624635810950423,0.2994659961274927,0.1082344637569099,0.15367138467868485,-0.008143718224372412,-0.014843270940916786,0.005886795832381515
1549,9.0,299.81856,-1838.5514,0.015489988111942132,0.0,0.0,0.0,0.0,0.0023639911989807583,0.2896321404619667,0.10924678166681791,0.15999480497525784,-0.007055250009823964,0.0016143174560457286,0.015350059124182885
1550,9.0,299.72791,-1740.0605,0.015499997786639685,0.0,0.0,0.0,0.0,0.0023655188168664742,0.3008418479082787,0.0958342350658526,0.13225884654293188,-0.009050511709240962,-0.0018366961647677982,0.004399742284920756
1551,9.0,300.2606,-1655.5828,0.015510007461337016,0.0,0.0,0.0,0.0,0.002367046434752218,0.2783013394962037,0.07854565219485232,0.14640885379192886,0.006898034326957983,0.005663862774529734,0.015534114991597786
1552,9.0,299.76817,-1668.1584,0.015519984100804463,0.0,0.0,0.0,0.0,0.0023685690109947477,0.2675942446294957,0.1022163661129699,0.13726789907478687,0.008106088952758692,-0.0024881790967641575,0.018611954376106882
1553,9.0,299.78137000000004,-1650.8709,0.015529993775501794,0.0,0.0,0.0,0.0,0.0023700966288804637,0.2626615708901787,0.08258189749119872,0.15658005081324786,0.005021760917259215,-0.004611266450621566,0.030899904823583173
1554,9.0,300.05192999999997,-1694.3905,0.015540003450199347,0.0,0.0,0.0,0.0,0.0023716242467662074,0.27543893836120675,0.10602382561623691,0.13358962895926987,0.004811632300921135,-0.009738526664317751,0.03239754318688857
1555,9.0,300.30339,-1672.3069,0.015549980089666793,0.0,0.0,0.0,0.0,0.002373146823008737,0.2572054724142038,0.11606468827719289,0.13506937940530986,-0.0009266288080311432,-0.001090746507398299,0.04284829692404766
1556,9.0,300.90038,-1591.2728,0.015559989764364346,0.0,0.0,0.0,0.0,0.002374674440894453,0.28900757310032676,0.08230008426738593,0.1123995296179699,-0.004305530898572816,-0.004290125241402396,0.024852611391261773
1557,9.0,300.21763,-1823.7629,0.015569999439061677,0.0,0.0,0.0,0.0,0.002376202058780169,0.28911334627826574,0.1159940647452229,0.14927097121689786,-0.015371033401252884,0.005273738789227495,0.015637142261765786
1558,9.0,299.9832,-1910.4163,0.015580009113759452,0.0,0.0,0.0,0.0,0.0023777296766659406,0.2935805531866447,0.12413373584604587,0.16300455293979685,0.0068347944497916925,0.011976035589692688,0.023918017870024576
1559,9.0,300.54785,-1673.7320000000002,0.015589985753226676,0.0,0.0,0.0,0.0,0.0023792522529084426,0.26206197001100273,0.10186343083813791,0.14484733406281886,-0.00024767848967396374,0.004717161927847636,0.021107654220413278
1560,9.0,300.23334,-1609.7506,0.01559999542792423,0.0,0.0,0.0,0.0,0.0023807798707941863,0.25476539392088676,0.1071943321317569,0.12736426087487387,0.01059873790101399,-0.002289023168408998,0.02666499765963037
1561,9.0,299.75302,-1739.8149,0.01561000510262156,0.0,0.0,0.0,0.0,0.0023823074886799023,0.27506323535662774,0.08695615592815442,0.16684090020341483,-0.005717380111686485,-0.0093781120838726,0.0014658014372133385
1562,9.0,299.93449,-1691.7807,0.015619981742089228,0.0,0.0,0.0,0.0,0.0023838300649224597,0.2932666989681697,0.09230859587914911,0.12868378608260087,0.017398623858360482,-0.008135993914885082,0.022047555145674278
1563,9.0,299.75427,-1756.7858,0.01562999141678656,0.0,0.0,0.0,0.0,0.002385357682808148,0.2682123271904957,0.11073045339074489,0.15507625594233485,-0.004913731130022505,-0.004887668412275316,0.009649395207346161
1564,9.0,299.63068,-1742.0965,0.01564000109148389,0.0,0.0,0.0,0.0,0.002386885300693864,0.28033898544730373,0.1023609366372379,0.14685390363335185,0.00023537958903265682,-0.019711358092359584,0.02496450763955508
1565,9.0,299.76755,-1788.3527,0.01564997773095156,0.0,0.0,0.0,0.0,0.0023884078769364214,0.27714855472493277,0.12339391128553089,0.14307209962261686,-0.015268520862135685,-0.0025984939656263878,0.017396997591949983
1566,9.0,299.42304,-1948.9906,0.01565998740564889,0.0,0.0,0.0,0.0,0.0023899354948221374,0.3132591569562717,0.12838254682787087,0.15080278245307588,-0.006448390004281544,0.0008001033561190533,0.02655019034379977
1567,9.0,299.61753,-1859.2024,0.015669997080346443,0.0,0.0,0.0,0.0,0.002391463112707881,0.3085973553661877,0.11449683573495788,0.14205692434742687,0.0016748434441441783,0.005446090604737295,0.019239551355545878
1568,9.0,300.51067,-1641.3954,0.015680006755043774,0.0,0.0,0.0,0.0,0.002392990730593597,0.28567754691167874,0.1040219372611659,0.10924372165151588,-0.004857915640313945,0.007144837733315584,0.01090529165251849
1569,9.0,300.67843,-1628.4506,0.015689983394511442,0.0,0.0,0.0,0.0,0.0023945133068361546,0.26230338697982875,0.08659036858905401,0.14611456543288487,-0.01151481326342359,0.0069512723110621635,0.008349029647085072
1570,9.0,300.65606,-1695.2203,0.015699993069208773,0.0,0.0,0.0,0.0,0.002396040924721843,0.28102005163451976,0.09450577400549372,0.13977881388259486,-0.004284680238015016,0.011621173113170489,0.012395306322071488
1571,9.0,300.5083,-1764.329,0.015710002743906326,0.0,0.0,0.0,0.0,0.0023975685426075866,0.2648524506539017,0.11170736834215889,0.15975212144380685,-0.001882635303101638,0.007950732077201162,0.02083703741020548
1572,9.0,300.52097000000003,-1729.3231,0.015719979383373772,0.0,0.0,0.0,0.0,0.0023990911188501163,0.27160206420753674,0.1066412596971729,0.14742770716498185,0.0028588574954222677,-0.01092042758251229,0.027501844970220773
1573,9.0,300.47328999999996,-1729.4862,0.015729989058071325,0.0,0.0,0.0,0.0,0.00240061873673586,0.27996881478827074,0.1129053035378859,0.1328465012034289,0.003711505732047096,-0.015216181428220186,0.02795639605783147
1574,9.0,299.71932000000004,-1845.8532,0.015739998732768656,0.0,0.0,0.0,0.0,0.002402146354621576,0.3004654254961287,0.11821125861404289,0.14241658760292286,0.005574405253675964,0.001065356283742479,0.03386210501392957
1575,9.0,299.54694,-1832.6076,0.01575000840746621,0.0,0.0,0.0,0.0,0.0024036739725073197,0.27907077122464075,0.12592133193746788,0.15207483689361784,0.0016371359496227381,-0.0031132054606994573,0.03189184830048037
1576,9.0,299.99793999999997,-1765.0964,0.015759985046933656,0.0,0.0,0.0,0.0,0.0024051965487498495,0.29752933068135873,0.11584559320806989,0.12317029712096188,-0.011236071200663889,0.006541844898104824,0.02319991333865318
1577,9.0,299.85239,-1676.3964,0.015769994721630987,0.0,0.0,0.0,0.0,0.0024067241666355377,0.26324964098321674,0.10540846869800591,0.14092453630066887,-0.002642493135318767,0.008315648527840612,0.015684283722668287
1578,9.0,300.18842,-1557.2281,0.01578000439632854,0.0,0.0,0.0,0.0,0.0024082517845212814,0.27094549840773874,0.1021031151492929,0.1003098620825626,-0.006596413076940284,0.008044134687319283,0.019745985914527083
1579,9.0,301.21592999999996,-1697.8748,0.015789981035795764,0.0,0.0,0.0,0.0,0.002409774360763811,0.2863785741258647,0.09919813623184381,0.1305348420277859,0.002520729452251628,0.010854650425770591,0.02116023683435278
1580,9.0,300.44492,-1895.0429,0.015799990710493317,0.0,0.0,0.0,0.0,0.002411301978649555,0.3105791813692787,0.10700060884513789,0.15846593216436985,-0.008340829718000802,-0.009039355015039881,0.006220753540790574
1581,9.0,300.48095,-1766.1943,0.01581000038519087,0.0,0.0,0.0,0.0,0.002412829596535271,0.27414213022072176,0.1093180334138499,0.15341879156125587,0.003201547291868117,-0.013479668340589685,0.027065540490410874
1582,9.0,299.90442,-1810.3403,0.015819977024658316,0.0,0.0,0.0,0.0,0.0024143521727778283,0.2895497024338307,0.10039949013340821,0.16034905747521985,-0.004576695471784675,-0.01139162231626559,0.007186065866634482
1583,9.0,299.8569,-1944.0031,0.015829986699355647,0.0,0.0,0.0,0.0,0.0024158797906635443,0.2940367994416727,0.11909555237381587,0.17779605895960482,0.012560261411851289,-0.002202090261504388,0.026506611470248877
1584,9.0,300.1862,-1855.5599,0.0158399963740532,0.0,0.0,0.0,0.0,0.0024174074085492603,0.3109545702663267,0.10613616465482391,0.14695315148064686,-0.01090122953286759,0.003926706881035796,0.002233568395736038
1585,9.0,300.08982000000003,-1709.1062,0.01585000604875053,0.0,0.0,0.0,0.0,0.0024189350264349763,0.2970757898040977,0.08607133527832941,0.13637848840200886,-0.0015911096717802983,0.007439417097788304,0.014263232881421485
1586,9.0,299.79167,-1663.1919,0.0158599826882182,0.0,0.0,0.0,0.0,0.0024204576026775337,0.2834243320018037,0.09143747943692661,0.13070700335227686,-0.006346754939750943,0.013659771519364488,0.014862108273525883
1587,9.0,300.44395,-1528.4615,0.01586999236291553,0.0,0.0,0.0,0.0,0.0024219852205632497,0.25896504200785975,0.08536758444787461,0.1202815008208599,0.00983203465244627,-0.0024267804976795876,0.02179831892582658
1588,9.0,300.43827999999996,-1616.7892,0.01588000203761286,0.0,0.0,0.0,0.0,0.0024235128384489657,0.2696652974363927,0.0985378376186774,0.12326039531985389,0.01021648423453849,-0.01016665462112069,0.016589222453228785
1589,9.0,300.63092,-1846.7139,0.01588997867708053,0.0,0.0,0.0,0.0,0.002425035414691523,0.28004515305080474,0.1213990852836569,0.15991065455445286,0.013448706457283986,-0.025264946426706077,0.02067501466621508
1590,9.0,299.80941,-1840.7615,0.01589998835177786,0.0,0.0,0.0,0.0,0.002426563032577239,0.2969137407156047,0.11352627386167088,0.14910551760806887,0.011992722805589589,0.004706326636578276,0.02500471441677318
1591,9.0,299.48735,-1673.7756,0.015909998026475414,0.0,0.0,0.0,0.0,0.002428090650462955,0.26605442871752777,0.10874676300746991,0.13398481676327187,0.003460072684657587,0.012360770705663089,0.03519593123356797
1592,9.0,299.70864,-1780.5610000000001,0.015920007701172745,0.0,0.0,0.0,0.0,0.002429618268348671,0.28298862432630273,0.1140262317260129,0.14423122733951385,0.005058650921599975,0.025508759732018577,0.03489795869716037
1593,9.0,299.77457000000004,-1878.3146,0.015929984340640413,0.0,0.0,0.0,0.0,0.0024311408445912286,0.29447233486465674,0.1141124086470179,0.16237598324026184,-0.00905368044627869,0.006354779880542944,0.02187007729790858
1594,9.0,300.26665,-1681.5991,0.015939994015337744,0.0,0.0,0.0,0.0,0.0024326684624769446,0.27350324563516876,0.1003075711240865,0.13735330592571587,-0.0023168584658811277,0.01036630846057499,0.025432237057966375
1595,9.0,300.93168,-1628.3317,0.015950003690035297,0.0,0.0,0.0,0.0,0.0024341960803626883,0.2673682189296887,0.08706373573102172,0.14054022067023986,-0.004192318843699656,-0.015269871524518985,0.01844467185084738
1596,9.0,300.4512,-1676.0167,0.015959980329502743,0.0,0.0,0.0,0.0,0.002435718656605218,0.2891482426117097,0.08680511580199791,0.13351386824929287,0.0070619381697590335,0.0013206060416086688,-0.0036046541520266665
1597,9.0,299.64887999999996,-1767.0462,0.015969990004200296,0.0,0.0,0.0,0.0,0.0024372462744909618,0.29092495639705773,0.1021393895028729,0.14407359602145686,-0.009969404210903591,-0.00876705468979093,0.01271953419507029
1598,9.0,299.89502999999996,-1923.8924,0.015979999678897627,0.0,0.0,0.0,0.0,0.00243877389237665,0.3121150962683617,0.11755686116945888,0.15514327230394886,-0.0014679520605505884,0.008555283088415702,0.01841414566508468
1599,9.0,299.89091,-1984.2974,0.015989976318365295,0.0,0.0,0.0,0.0,0.002440296468619235,0.3006014644545547,0.13404553070926387,0.16852986653010282,-0.011997588432569789,-0.001972061109227278,0.015770832506459987
1600,9.0,299.80791,-1819.932,0.015999985993062626,0.0,0.0,0.0,0.0,0.0024418240865049234,0.2923185704520967,0.10852756661333689,0.15236774723252586,0.007979454475135843,0.008027231851801103,0.030620970243304468
1601,9.0,299.26492,-1732.2294,0.016009995667759958,0.0,0.0,0.0,0.0,0.0024433517043906394,0.26896895143766875,0.0969180205450639,0.16066750171664784,-0.0035757030635444166,-0.012106698243088089,0.016571186601448785
1602,9.0,300.00903,-1712.8185,0.01602000534245751,0.0,0.0,0.0,0.0,0.002444879322276383,0.3062508403871047,0.08673683997050961,0.12766637152468988,-0.004748407723831356,0.0017738942142947285,0.02115015499585778
1603,9.0,300.84686,-1676.4341,0.016029981981924957,0.0,0.0,0.0,0.0,0.002446401898518913,0.2775873832107417,0.08458625817651372,0.14742045229426587,-0.006264445391727624,-0.0025249395064171273,0.01911980140572748
1604,9.0,300.98492000000005,-1610.8974,0.01603999165662251,0.0,0.0,0.0,0.0,0.0024479295164046566,0.28155326436714373,0.0983556451181964,0.10976368107283191,0.002999694699696817,0.018601802623354983,0.03279426302504177
1605,9.0,300.47609,-1682.3892,0.01605000133131984,0.0,0.0,0.0,0.0,0.002449457134290345,0.2699096325655067,0.1042554407467109,0.13723924436195886,0.004782069614678526,-0.003226838520989167,0.02546794196499018
1606,9.0,299.99586,-1828.1204,0.016059977970787287,0.0,0.0,0.0,0.0,0.00245097971053293,0.29898305073232967,0.11192157954579988,0.14479830289047985,-0.0062214403217083535,-0.006015713770429724,0.03141037009146217
1607,9.0,299.82752999999997,-1931.7953,0.01606998764548484,0.0,0.0,0.0,0.0,0.0024525073284186183,0.28063401347892075,0.14614531757341986,0.16043821335151887,0.0020009099607744382,-0.008932005523920311,0.03439589124611017
1608,9.0,300.24676,-1889.3767,0.016079997320182393,0.0,0.0,0.0,0.0,0.002454034946304362,0.3073319073162977,0.12206302754418288,0.14492840420331987,-0.0038967833764325765,0.022308197521897683,0.016254924900736184
1609,9.0,299.6351,-1848.6181,0.016090006994879724,0.0,0.0,0.0,0.0,0.002455562564190078,0.2741199805735357,0.12856319918819986,0.15925055251180584,0.001966509613254388,0.009711526791553071,0.025620626596058974
1610,9.0,299.59536,-1740.612,0.01609998363434717,0.0,0.0,0.0,0.0,0.0024570851404326355,0.27652374418326875,0.1127531539028699,0.13982567669971988,-0.019099706629744282,0.012003653747668387,0.02053612239550748
1611,9.0,300.30844,-1719.5512,0.0161099933090445,0.0,0.0,0.0,0.0,0.0024586127583183515,0.27107892318090676,0.10014369717216341,0.15147800218721486,0.015819265861239985,-0.005874457485913814,0.027941242902585973
1612,9.0,300.32153999999997,-1731.0408,0.016120002983742054,0.0,0.0,0.0,0.0,0.0024601403762040397,0.2796726012540367,0.1017756935119789,0.14474489447770886,0.0019329970754719582,0.002081092088887798,0.015155192891451086
1613,9.0,300.00557000000003,-1672.8237,0.0161299796232095,0.0,0.0,0.0,0.0,0.002461662952446625,0.2854610052328077,0.08060783703687412,0.14242778401652786,0.015159227653349285,-0.014759891603437885,0.009538712832672661
1614,9.0,300.31392999999997,-1824.7085,0.01613998929790683,0.0,0.0,0.0,0.0,0.002463190570332313,0.3110165203774407,0.10238692650230291,0.14126237414901088,-0.012257162843187789,-0.010448787018714989,0.007229436618614843
1615,9.0,300.64376,-1976.4925,0.016149998972604385,0.0,0.0,0.0,0.0,0.002464718188218057,0.3190102226688577,0.11818946360439189,0.16360469084152585,-0.0017139596602796484,0.0021399877575753483,0.01072276680600469
1616,9.0,300.38194,-2001.3123,0.016160008647301716,0.0,0.0,0.0,0.0,0.002466245806103773,0.31515680214105474,0.13032155288173589,0.16287062154157883,0.002376906706557428,0.01127312170382049,0.01770083481993638
1617,9.0,300.11707,-1958.8055,0.016169985286769384,0.0,0.0,0.0,0.0,0.0024677683823463303,0.3004819313402577,0.13607553675460987,0.15887048239929585,-0.009454929309728872,-0.004015147909389246,0.018827587169638182
1618,9.0,299.51054,-1926.0026,0.016179994961466715,0.0,0.0,0.0,0.0,0.0024692960002320463,0.3000221691073827,0.11975012207091688,0.16568441706927883,-0.016207335583289482,-0.014290690945881387,0.01137074835095549
1619,9.0,299.94572,-1699.4151,0.016190004636164268,0.0,0.0,0.0,0.0,0.0024708236181177623,0.2819977366560097,0.1060777001240539,0.1285043192248889,0.007817562035108304,-0.01113609583979709,0.016038622348888785
1620,9.0,299.55825,-1622.246,0.016199981275631714,0.0,0.0,0.0,0.0,0.0024723461943603198,0.26746436623167774,0.10254979632337691,0.12310812409482588,0.011313329494288689,0.016487417162681383,0.01854252951900518
1621,9.0,299.59081000000003,-1685.1186,0.016209990950329267,0.0,0.0,0.0,0.0,0.0024738738122460358,0.26318506655434376,0.10584802672388689,0.14320088371032685,0.0049256375279725755,0.002325714474405148,0.03204701640754427
1622,9.0,299.86937,-1719.8563,0.016220000625026598,0.0,0.0,0.0,0.0,0.0024754014301317517,0.26841849318834277,0.1132262707720629,0.14114859629528187,-0.007759636756041523,-0.004108435616946026,0.031307552564064874
1623,9.0,299.72751,-1767.0076,0.016229977264494044,0.0,0.0,0.0,0.0,0.0024769240063742815,0.27937721858488473,0.1099808307017629,0.14776814906608085,-1.7434037962605583e-05,-0.009628640096272791,0.04213044266545096
1624,9.0,299.89805,-1911.9063,0.016239986939191597,0.0,0.0,0.0,0.0,0.002478451624260025,0.30610257149997167,0.11363338452974191,0.16143581886997485,0.019808198457416982,0.005937165204127584,0.025948974343964374
1625,9.0,300.21537,-1938.6582,0.01624999661388893,0.0,0.0,0.0,0.0,0.002479979242145741,0.3261890692298547,0.12124505100345487,0.14186955413893484,0.01033855452708589,-0.016190329193611085,0.026259561844116975
1626,9.0,299.76361,-1916.6636,0.01626000628858648,0.0,0.0,0.0,0.0,0.002481506860031457,0.3178458057864387,0.1169421425987909,0.14782991679217686,0.012144209775040188,-0.010618429403457391,0.016215263252071885
1627,9.0,300.31564,-1877.8274,0.016269982928053928,0.0,0.0,0.0,0.0,0.002483029436273987,0.29914411696822574,0.12136508061030088,0.15030343253879386,0.0009833944730209781,0.001106269904230339,0.026037312527432677
1628,9.0,300.50704,-1832.4724,0.01627999260275148,0.0,0.0,0.0,0.0,0.0024845570541597306,0.3038786192529847,0.1074815074750989,0.14566572603608785,0.002995448472502747,0.02017190660731218,0.016265102997990683
1629,9.0,300.32309,-1702.7941,0.016290002277448812,0.0,0.0,0.0,0.0,0.0024860846720454466,0.25878805761289275,0.10276751337236391,0.15605129638106385,-0.0057222598228430736,0.008798270594896702,0.016602881064576785
1630,9.0,300.69756,-1645.9645,0.016299978916916258,0.0,0.0,0.0,0.0,0.0024876072482879763,0.2656590281310047,0.09351510215747201,0.14115798912370886,-0.01054609347881839,0.01003831666742972,0.011868353448565289
1631,9.0,300.48457,-1748.4155,0.01630998859161381,0.0,0.0,0.0,0.0,0.00248913486617372,0.2915073117595317,0.08472052800026512,0.15524680619916686,0.0037935069480649866,0.005136471569030275,0.006696109186079524
1632,9.0,299.55142,-1804.0923,0.016319998266311364,0.0,0.0,0.0,0.0,0.0024906624840594638,0.3061869448357987,0.0977394624011339,0.14447259364583487,0.017010821634337384,0.012962658490314789,0.022147434247781577
1633,9.0,299.97053,-1814.5666,0.016330007941008695,0.0,0.0,0.0,0.0,0.002492190101945152,0.2886043502230317,0.11311736665131489,0.14986120966514987,-0.00027925868858818674,-0.008861422521954312,0.02420729976032448
1634,9.0,300.12928,-1953.5477,0.01633998458047614,0.0,0.0,0.0,0.0,0.0024937126781876817,0.3196765967296237,0.1120803051739649,0.16207281881034186,-0.004350833411868826,-0.03188646084969867,0.02882587508789237
1635,9.0,299.90485,-2025.4572,0.016349994255173694,0.0,0.0,0.0,0.0,0.0024952402960734255,0.30433816870333874,0.14227699213664588,0.16907324216122982,-0.011158312361489689,-0.004759879032188485,0.03042762793872307
1636,9.0,298.75969,-1815.9319,0.016360003929871025,0.0,0.0,0.0,0.0,0.0024967679139591414,0.2950988780639917,0.10234324529049191,0.15455582029347184,0.017151284442699984,0.0065864851511354735,0.02153565207590338
1637,9.0,299.57882,-1722.2542,0.01636998056933847,0.0,0.0,0.0,0.0,0.002498290490201671,0.27609317368577474,0.0977390733130955,0.14969002106075485,0.0007462054624897453,0.003521780628997687,0.013800619362765089
1638,9.0,299.69338999999997,-1705.8595,0.016379990244036025,0.0,0.0,0.0,0.0,0.002499818108087415,0.2842771542134707,0.09685471166556582,0.13740683592849887,-0.004122718491680636,-0.008597800075861802,0.025350243846624272
1639,9.0,300.18881,-1644.1195,0.016389999918733578,0.0,0.0,0.0,0.0,0.0025013457259731586,0.26072689141424077,0.0954191115661331,0.14362527338221087,0.0008168553186973432,0.004073232674021766,0.03375227680909037
1640,9.0,300.35699,-1724.0127,0.0163999765582008,0.0,0.0,0.0,0.0,0.0025028683022156606,0.27777705349696075,0.11567178028591589,0.13060796828750287,-0.0035983017831747364,0.014394781115404286,0.04207816605304166
1641,9.0,300.42203,-1802.2535,0.016409986232898355,0.0,0.0,0.0,0.0,0.0025043959201013766,0.27065473615904273,0.1138402598026589,0.16334507590090386,-0.004004918946979726,0.012047800041275288,0.03586480194258036
1642,9.0,300.73368,-1770.5685,0.016419995907595908,0.0,0.0,0.0,0.0,0.0025059235379871203,0.28783097695170573,0.1033375476136219,0.14704008833922685,-0.0016976058036656484,-0.002239429540939488,0.018730875487343483
1643,9.0,300.67818,-1844.1139,0.01643000558229324,0.0,0.0,0.0,0.0,0.002507451155872864,0.29772470556564073,0.11445985210630788,0.14838003053646887,-0.008207289940946452,0.01737256205253838,0.027336040776857178
1644,9.0,300.30937,-1983.7086,0.016439982221760463,0.0,0.0,0.0,0.0,0.002508973732115366,0.32033902924750074,0.12042452107247488,0.16223434100878287,0.0005531383262380024,0.006865793316726044,0.005924653287917754
1645,9.0,299.69773,-1932.9535,0.016449991896458016,0.0,0.0,0.0,0.0,0.0025105013500011097,0.31198513681053575,0.11468274686330589,0.16090172460976385,0.00019537632309714182,-0.0027829750941082572,0.02060668209272118
1646,9.0,299.85672999999997,-1851.3429,0.01646000157115557,0.0,0.0,0.0,0.0,0.0025120289678868535,0.3040868320160337,0.10687056832730389,0.15180460309194785,-0.007488649400272153,-0.021062188675176178,0.016423387862362183
1647,9.0,299.248,-1952.6031,0.016469978210623015,0.0,0.0,0.0,0.0,0.002513551544129383,0.3017930567046557,0.11576557684767289,0.17598395234826383,0.012065179306990489,-0.01021777410191579,0.022372925964785878
1648,9.0,299.86569,-1810.0117,0.016479987885320346,0.0,0.0,0.0,0.0,0.0025150791620150714,0.29582942125359074,0.10545872590296589,0.14891020351879286,0.008578777926434461,0.003627359060267466,0.008485147132393822
1649,9.0,299.81269,-1693.8627,0.0164899975600179,0.0,0.0,0.0,0.0,0.002516606779900815,0.27915466833292074,0.0928262906864916,0.14291100298921788,-0.006547915076803905,-0.0014492643849812587,0.016935630370916586
1650,9.0,300.5015,-1806.6224,0.016500007234715452,0.0,0.0,0.0,0.0,0.002518134397786559,0.2904526906579487,0.1043599676270269,0.15435543995369586,-0.010968932878049389,-0.008690776715637881,0.02045216145247118
1651,9.0,300.79254,-1898.111,0.016509983874182677,0.0,0.0,0.0,0.0,0.002519656974029061,0.3030408944678077,0.13118817555976486,0.14274927814075689,-0.009920583693260382,0.014474138863236287,0.030585006957505174
1652,9.0,300.29797,-1857.5107,0.01651999354888023,0.0,0.0,0.0,0.0,0.0025211845919148046,0.29109758381659473,0.1114209630688929,0.16211833400483386,-0.007645485924950713,0.017117658724881385,0.02204812357898038
1653,9.0,300.22372,-1844.6288,0.016530003223577783,0.0,0.0,0.0,0.0,0.0025227122098005483,0.2844226670603317,0.12919752414830288,0.14710091374272985,-0.014840213965365086,0.005707854344846365,0.033914955125895464
1654,9.0,300.48987999999997,-1870.4582,0.01653997986304523,0.0,0.0,0.0,0.0,0.002524234786043078,0.30203331856836774,0.1043971640381979,0.16214209471967886,-0.0015683545063345386,-0.009752739928770491,-0.0027005992795283975
1655,9.0,300.02136,-1834.4202,0.01654998953774256,0.0,0.0,0.0,0.0,0.0025257624039287663,0.29204734366532875,0.1178181885027499,0.14775239302702586,0.007402351091905173,0.004778488586175105,0.023748280239772775
1656,9.0,299.67247000000003,-1846.3236,0.016559999212440335,0.0,0.0,0.0,0.0,0.0025272900218145378,0.2966926698087867,0.12414649266480487,0.14039711935861685,0.01070759946525779,-0.0038872612572928168,0.02080440467748488
1657,9.0,299.72851,-1749.8348,0.01656997585190756,0.0,0.0,0.0,0.0,0.0025288125980570397,0.2982486369273487,0.09893197873532611,0.13472549245387086,-0.006373710634811264,-0.015233362096915785,0.04613514041993386
1658,9.0,299.56386000000003,-1680.1139,0.016579985526605112,0.0,0.0,0.0,0.0,0.0025303402159427835,0.2663672392883998,0.12144884599606788,0.12289658787144889,-0.014691622864700287,-0.02022357526966148,0.029965353858850175
1659,9.0,300.05782,-1692.7182,0.016589995201302443,0.0,0.0,0.0,0.0,0.0025318678338284994,0.27350496816033876,0.10418461456472089,0.13685447276898488,-0.007929612702716842,-0.003433338992694176,0.05609237144413605
1660,9.0,300.45153,-1788.3243,0.016600004875999996,0.0,0.0,0.0,0.0,0.002533395451714243,0.3054270477908027,0.09230395316719091,0.14587494191673586,0.002297197462265738,0.006581136913132644,0.003886274858320466
1661,9.0,300.04209,-1779.8756,0.016609981515467442,0.0,0.0,0.0,0.0,0.002534918027956773,0.28494018454890674,0.11113752661841989,0.14496003787144185,-0.012186121852176589,0.017027594976492786,0.043302537957127754
1662,9.0,300.16666000000004,-1875.638,0.016619991190164773,0.0,0.0,0.0,0.0,0.002536445645842461,0.3079416001664697,0.0995551052553239,0.16265040176484485,0.012804143618170588,0.01007920161293975,-0.0008374110728135383
1663,9.0,300.03184,-2056.5552,0.01663000086486255,0.0,0.0,0.0,0.0,0.0025379732637282326,0.3201344743173127,0.13567248612983185,0.16933445803700983,0.003366305203178457,0.01944382156245578,0.016634059783403883
1664,9.0,299.8077,-2041.3548,0.016639977504329773,0.0,0.0,0.0,0.0,0.0025394958399707346,0.3171000435803377,0.12364453869776587,0.17977630429253982,0.017643962105073484,0.005977575847265805,0.0014259095781263187
1665,9.0,300.30687,-1862.6595,0.016649987179027326,0.0,0.0,0.0,0.0,0.0025410234578564783,0.2989380218978857,0.1081772961862679,0.15908663904312884,0.004253638409276426,-0.01968518178927618,0.016658129539529384
1666,9.0,300.00538,-1875.5933,0.016659996853724657,0.0,0.0,0.0,0.0,0.0025425510757421943,0.3198832693525207,0.1106976950150119,0.13955257540026686,0.0038638944940866966,-0.02577314302761118,0.014919229234663286
1667,9.0,299.25251000000003,-1902.3353,0.016670006528422432,0.0,0.0,0.0,0.0,0.002544078693627966,0.3002385486662377,0.10884310282697789,0.16918078852684384,0.001095353654277989,-0.0007391558661115044,0.01299702286745629
1668,9.0,299.46512,-1768.0163,0.016679983167889656,0.0,0.0,0.0,0.0,0.0025456012698704678,0.2937925555050677,0.1087983881000649,0.13484186422785585,0.004199176520376456,0.008581690412521903,0.027156686389906273
1669,9.0,299.7993,-1790.6715,0.01668999284258721,0.0,0.0,0.0,0.0,0.0025471288877561837,0.2853189070387837,0.11490456757519789,0.14409595845116388,-0.006600718275290174,0.014885549814589385,0.035335593574351565
1670,9.0,300.33164,-1864.5097,0.016700002517284762,0.0,0.0,0.0,0.0,0.0025486565056419275,0.2898927990501917,0.10887705683782889,0.16799455636977184,0.0038584749232768263,0.001163263803805199,0.026590845990812174
1671,9.0,300.52126,-1847.019,0.016709979156751986,0.0,0.0,0.0,0.0,0.002550179081884457,0.2992929634079157,0.11886848302640589,0.14328621963374888,0.0018391619088861484,0.009406084980708312,0.026170762631853178
1672,9.0,299.85832999999997,-1965.2257,0.01671998883144954,0.0,0.0,0.0,0.0,0.002551706699770173,0.3197156676534797,0.10990782603205788,0.16775605756123382,0.0018862577735341483,-0.0061572467735479435,0.016233741894145583
1673,9.0,300.0948,-1985.2186,0.016729998506147092,0.0,0.0,0.0,0.0,0.002553234317655917,0.29829080839651073,0.12473408653029588,0.18043199869725185,0.0010405659041458591,-0.012141313906254387,0.013112005475554188
1674,9.0,300.73645,-1858.5702,0.016740008180844645,0.0,0.0,0.0,0.0,0.0025547619355416606,0.29260897806325775,0.1170010934896089,0.15534885061673787,-0.0055058732725623855,-0.01199100028041959,0.00986651160167388
1675,9.0,300.0965,-1904.9248,0.01674998482031187,0.0,0.0,0.0,0.0,0.0025562845117841626,0.2868138663688247,0.11743908097783488,0.17479661574858285,-0.008927044246130672,0.0035223094442248764,0.017574100537178682
1676,9.0,299.84592000000004,-1967.1569,0.0167599944950092,0.0,0.0,0.0,0.0,0.0025578121296698786,0.3076672627018947,0.13130174063097286,0.15899756422683786,-0.0005762496896239164,-0.00034382897326827767,0.02051382582705698
1677,9.0,299.51743999999997,-1859.9279999999999,0.016770004169706754,0.0,0.0,0.0,0.0,0.0025593397475556223,0.3144014849865107,0.11766818695794588,0.13330199765338285,-0.005103631424014205,-0.008386799861787702,0.03343489445376717
1678,9.0,299.53122,-1744.3095,0.0167799808091742,0.0,0.0,0.0,0.0,0.002560862323798152,0.3052532247361477,0.09338991206786672,0.13158340389377088,0.009609637806547411,-0.0036787901154683167,0.02127351616903258
1679,9.0,299.445,-1862.2493,0.01678999048387153,0.0,0.0,0.0,0.0,0.002562389941683868,0.3035656972246017,0.12174997379328689,0.14076162594959088,0.005146196439515045,0.0053504400992723244,0.029505610877727073
1680,9.0,299.7545,-1891.7669,0.016800000158569084,0.0,0.0,0.0,0.0,0.0025639175595696118,0.3171622875339807,0.09273224587846012,0.16515534852956384,0.0099767858392071,0.008701098086456522,0.008167748463744013
1681,9.0,299.33549,-1921.6612,0.01680997679803653,0.0,0.0,0.0,0.0,0.0025654401358121415,0.29182176379556574,0.12774016652947287,0.16457509059479686,-0.024161549491809275,0.007829988129034663,0.03406307810501407
1682,9.0,300.41884,-1926.0002,0.016819986472734083,0.0,0.0,0.0,0.0,0.002566967753697885,0.3055175715547367,0.11890132246214688,0.16103706442562085,-0.010238917591752491,-0.005597689234348916,0.015052065309523186
1683,9.0,300.16987,-1956.8087,0.016829996147431414,0.0,0.0,0.0,0.0,0.0025684953715835734,0.32466642790708167,0.1041591617222089,0.16599538352496884,-0.007017198719543593,0.007234217537886683,0.00016279921780703183
1684,9.0,299.82551,-1956.0256,0.016840005822128967,0.0,0.0,0.0,0.0,0.002570022989469317,0.30646738206597574,0.13384184717416187,0.15427372133313086,0.007712782855517403,-0.005113916621804276,0.017554959229539584
1685,9.0,299.8446,-1893.4911,0.016849982461596413,0.0,0.0,0.0,0.0,0.002571545565711847,0.2958569208613047,0.11204733401571088,0.16766975905021683,0.013082932290434885,-0.015954816433117785,0.012725411045650288
1686,9.0,300.55748,-1830.4321,0.016859992136293744,0.0,0.0,0.0,0.0,0.002573073183597563,0.29597906816085967,0.11668877941128589,0.14373781507081784,0.007960996503364182,-0.006636390758310773,0.018677723426847783
1687,9.0,300.3025,-1667.4464,0.016870001810991297,0.0,0.0,0.0,0.0,0.0025746008014833066,0.26026946978909676,0.10824662275810991,0.13834597691618486,-0.0023474226485225777,0.004824798067420495,0.04310232784336855
1688,9.0,300.50061,-1785.4293,0.016879978450458744,0.0,0.0,0.0,0.0,0.0025761233777258363,0.2950983106439357,0.1019095134526859,0.14571809080125586,-8.833524301650971e-05,-0.005111461922112015,0.04358794112604486
1689,9.0,299.68728,-1953.6794,0.016889988125156297,0.0,0.0,0.0,0.0,0.00257765099561158,0.3262967675829837,0.12314135869810588,0.14443163807679285,-0.01021995765588129,-0.0013070366975944786,0.038927007891296564
1690,9.0,299.95321,-1865.4358,0.016899997799853628,0.0,0.0,0.0,0.0,0.0025791786134972683,0.2961016714229597,0.1259823802559929,0.14496184145661986,-0.009853535920893282,0.0016976603165210283,0.03526021789941257
1691,9.0,299.97791,-1754.2137,0.01691000747455118,0.0,0.0,0.0,0.0,0.002580706231383012,0.2877045841342317,0.10067229353733181,0.14486027326659587,-0.0006783400986169552,0.0006715186658962323,0.017737106133766084
1692,9.0,299.73663,-1996.5937,0.016919984114018627,0.0,0.0,0.0,0.0,0.0025822288076255417,0.3118481149995127,0.12747417824572188,0.16759234674257686,-0.005968498240944915,0.008500320653966331,0.008465893353993621
1693,9.0,299.38362,-2034.8479,0.01692999378871618,0.0,0.0,0.0,0.0,0.0025837564255112855,0.3062921809911847,0.12207416316278188,0.19017661742647082,0.007047018872636613,-0.014251142781228287,0.024982708651101374
1694,9.0,299.70601,-1896.226,0.01694000346341351,0.0,0.0,0.0,0.0,0.0025852840433970015,0.3133247750327477,0.11355013590152588,0.14953043417000486,-0.009149681130978221,0.0028450391958585075,0.006282442436028795
1695,9.0,300.36079,-1905.0569,0.01694998010288118,0.0,0.0,0.0,0.0,0.002586806619639559,0.2979061178635447,0.12089068704598188,0.16029292341967982,0.0005060732542605416,0.01200309848661359,0.012994149290172686
1696,9.0,300.63268,-1886.1943,0.01695998977757851,0.0,0.0,0.0,0.0,0.002588334237525275,0.3078635089812627,0.1094222056566309,0.15607024415793386,0.01026738789306229,-8.458288810668112e-05,0.014254558447315385
1697,9.0,300.25563,-1872.8310000000001,0.01696999945227584,0.0,0.0,0.0,0.0,0.002589861855410963,0.3068879213874797,0.11913915252561888,0.14326678549683086,0.006818842346842343,-0.010588543591757892,0.02149821552445868
1698,9.0,300.24714,-1890.2601,0.01697997609174351,0.0,0.0,0.0,0.0,0.0025913844316535484,0.3067986236561667,0.11837882991558088,0.14941442716605588,-0.0014886313805164786,-0.01031522039053299,0.027470815199158373
1699,9.0,299.50792,-1881.9912,0.01698998576644084,0.0,0.0,0.0,0.0,0.0025929120495392366,0.2915475884510067,0.11555073742896989,0.16498001573225984,0.00013790788810294884,-0.006111949225177425,0.025129208403559776
1700,9.0,298.84073,-1793.6326,0.016999995441138394,0.0,0.0,0.0,0.0,0.0025944396674249803,0.3023000161271887,0.1173584566673779,0.12556106073191187,0.0035230941051023167,0.0010440244307121892,0.049240638492422655
1701,9.0,299.85071,-1923.6747,0.017010005115835725,0.0,0.0,0.0,0.0,0.0025959672853106963,0.3052655762548667,0.1100300645241219,0.16945344399625284,0.008712195404201742,-0.001847553240914308,0.013697598172097685
1702,9.0,299.64456,-2090.5939,0.017019981755303393,0.0,0.0,0.0,0.0,0.002597489861553254,0.3171672524594707,0.14187830861979886,0.17644277225854582,0.0006534155140445903,0.01124023160557449,0.035474903304100365
1703,9.0,299.33986,-1923.1549,0.017029991430000724,0.0,0.0,0.0,0.0,0.0025990174794389698,0.31448345691960067,0.1054796799150339,0.16462792145501084,-0.0071794777144842835,0.016963837227200382,-0.008194815312340302
1704,9.0,300.54617,-1743.0137,0.017040001104698277,0.0,0.0,0.0,0.0,0.0026005450973246858,0.26397074068188375,0.1154376181878059,0.15042428287822088,-0.014668055680624386,0.01037873698630159,0.03947686224356296
1705,9.0,300.18354,-1875.4941,0.0170499777441655,0.0,0.0,0.0,0.0,0.0026020676735672432,0.29889136173078074,0.1152711209313739,0.15594090278266887,-0.01099616600098709,-0.020269153285659678,0.005304624374800665
1706,9.0,300.32356,-1896.5424,0.017059987418863054,0.0,0.0,0.0,0.0,0.002603595291452959,0.3161928503683047,0.12127873143677888,0.13902994099868687,-0.0018047617640161184,-0.013532670440070588,0.04170183483340066
1707,9.0,300.38581,-1832.5542,0.017069997093560607,0.0,0.0,0.0,0.0,0.002605122909338675,0.28457931552579174,0.11785366238875089,0.15461774000708287,-0.0014389432168126388,-0.012461466487350989,0.017301043820730087
1708,9.0,299.32478,-1960.7603,0.017080006768257938,0.0,0.0,0.0,0.0,0.002606650527224391,0.3218471000338357,0.12996135260368688,0.14421372851028688,0.017082892087450185,0.0034832447011944865,0.044142481760023757
1709,9.0,299.3716,-1998.4607,0.017089983407725384,0.0,0.0,0.0,0.0,0.0026081731034669486,0.3215880018507647,0.11395539541152189,0.17193875397403383,0.011760544651175387,-0.008376584375604512,0.008945259240528351
1710,9.0,299.75568,-1857.1279,0.017099993082422715,0.0,0.0,0.0,0.0,0.0026097007213526646,0.2960867361164857,0.11237298246534991,0.15606078040199986,0.015307911973023287,0.0010152349556208891,0.026500283723374374
1711,9.0,299.65655,-2080.7758,0.01711000275712027,0.0,0.0,0.0,0.0,0.0026112283392383806,0.3253881254233077,0.12510007246641588,0.18201568833854984,0.007745132688810082,-0.005814856493831655,0.01017878829106819
1712,9.0,299.98177999999996,-2075.4974,0.017119979396587715,0.0,0.0,0.0,0.0,0.0026127509154809103,0.3407622502506157,0.1150967304566629,0.17504039359014184,-0.014289618927275588,0.013541185793910986,0.021368225669129683
1713,9.0,300.12457,-1857.5968,0.017129989071285268,0.0,0.0,0.0,0.0,0.002614278533366654,0.28690123892494773,0.11844273559938788,0.15931906848356786,-0.018782399254928483,-0.006794990135513313,0.032580332491678465
1714,9.0,300.30577,-1846.7174,0.0171399987459826,0.0,0.0,0.0,0.0,0.00261580615125237,0.31082971758900474,0.1069586704234989,0.14356758905401787,-0.014096105383427286,0.00996578447624635,0.013339239982730488
1715,9.0,299.99361,-1938.3434,0.017150008420680152,0.0,0.0,0.0,0.0,0.0026173337691381138,0.31205486868241766,0.11148038005475688,0.16567272416312484,-0.000877953975487311,0.00943927571025898,0.01062254725186379
1716,9.0,299.94147999999996,-1934.0779,0.017159985060147598,0.0,0.0,0.0,0.0,0.0026188563453806435,0.2905460920521667,0.14289054546969887,0.15447474002046985,0.001133343744252319,0.004564442643625415,0.018601502701325382
1717,9.0,300.21256,-1908.2826,0.01716999473484515,0.0,0.0,0.0,0.0,0.0026203839632663872,0.3183647012951497,0.11054678154511789,0.15115875747820784,0.005337357925906215,-0.013406681909386486,0.016455416698023185
1718,9.0,300.00073,-2004.1312,0.017180004409542482,0.0,0.0,0.0,0.0,0.0026219115811520755,0.3198989139340647,0.12548285808919388,0.16382406962067686,0.007108512514580563,0.0015827223927525386,0.029927441079858473
1719,9.0,299.68649,-1931.6936,0.01718998104901015,0.0,0.0,0.0,0.0,0.0026234341573946607,0.29827972344041676,0.12318203055711988,0.16572485588076988,0.01991588566479488,0.005880492606159434,0.03727456315121297
1720,9.0,300.06793,-1917.2997,0.01719999072370748,0.0,0.0,0.0,0.0,0.002624961775280349,0.3062585309553637,0.11816537864951487,0.15838732422161186,-0.0039142733903837065,0.006940785172527164,0.04337878097415236
1721,9.0,299.99863,-1979.4835,0.017210000398404812,0.0,0.0,0.0,0.0,0.002626489393166065,0.3189143388118947,0.1145145777442089,0.16828464987340186,-0.0007326177989137472,-0.009438871524794092,0.022487851830878182
1722,9.0,299.84681,-1807.3903,0.01721997703787248,0.0,0.0,0.0,0.0,0.0026280119694086224,0.2892979908439887,0.0950727826819531,0.16503073903226584,-0.007391971357880773,-0.005493783273694194,0.009236215323968481
1723,9.0,299.36509,-1654.7613,0.01722998671256981,0.0,0.0,0.0,0.0,0.0026295395872943383,0.2852503809345207,0.08905556555235002,0.12870017033671788,-0.0014470925847169188,-0.0004386247110813886,0.009773838632952772
1724,9.0,299.48087000000004,-1969.5244,0.017239996387267364,0.0,0.0,0.0,0.0,0.002631067205180082,0.29040658777839873,0.14084052773487787,0.16743914332745682,-0.016194635506536083,0.0013858114213189388,0.03137598950231907
1725,9.0,300.50455,-2098.7806,0.017250006061964696,0.0,0.0,0.0,0.0,0.0026325948230657703,0.3223347671744647,0.13871428319503387,0.17692783534641784,0.0012774877915532287,-0.0058211566803034335,0.025618979051396377
1726,9.0,300.42413999999997,-1945.184,0.017259982701432364,0.0,0.0,0.0,0.0,0.0026341173993083278,0.3277663449980197,0.11733081520464989,0.14619019442034886,-0.0014961103821545987,0.016878712059799184,0.028211783719036272
1727,9.0,300.66407000000004,-1884.0901,0.017269992376129695,0.0,0.0,0.0,0.0,0.0026356450171940438,0.30306725923540967,0.10493768230404289,0.16471141326325084,0.006985990312488563,0.01995888394603848,0.02082347404436688
1728,9.0,300.16944,-1858.0971,0.017280002050827248,0.0,0.0,0.0,0.0,0.0026371726350797875,0.3017572281811197,0.11577992446908889,0.14727795893270285,-0.007787201211761924,-0.00033807244613765267,0.014689731126763587
1729,9.0,300.0179,-1892.297,0.017289978690294694,0.0,0.0,0.0,0.0,0.002638695211322317,0.31735819944081567,0.1034053543103139,0.15444748359277982,0.003567047577215187,-0.017176300574418882,0.027367534616465374
1730,9.0,299.86235,-2045.4715,0.017299988364992247,0.0,0.0,0.0,0.0,0.002640222829208061,0.3212320470906347,0.11430393318091987,0.18623629043759082,-0.015782016761063784,-0.008828002392581002,0.014262524619601587
1731,9.0,300.05054,-1940.4704,0.017309998039689578,0.0,0.0,0.0,0.0,0.002641750447093777,0.31364035177639266,0.12211857391466488,0.15409563249555486,0.020433551087884482,-0.006451185054682394,0.036121900983204065
1732,9.0,299.58644,-1782.9366,0.01732000771438691,0.0,0.0,0.0,0.0,0.002643278064979465,0.28610538163390276,0.10950025631183388,0.14636256852736088,-0.0012048447508089188,0.0017577362189250582,0.02246081325195968
1733,9.0,299.92573,-1922.4391,0.017329984353854577,0.0,0.0,0.0,0.0,0.0026448006412220226,0.2940315913361587,0.12886151015014088,0.16148039174187384,0.014431444557022685,-0.002274083099659528,0.032033019370662864
1734,9.0,299.35472000000004,-2086.6443,0.01733999402855191,0.0,0.0,0.0,0.0,0.0026463282591077386,0.3361778103056667,0.12545065700101588,0.17265930651764683,0.002519869709541778,-0.00014525664657321486,-0.0013050683579502189
1735,9.0,299.18422999999996,-1902.7712,0.01735000370324946,0.0,0.0,0.0,0.0,0.0026478558769934823,0.3163969797334507,0.10747776858222989,0.15452018428745484,-0.0016015761400132585,0.008678815906157442,0.011336928089117689
1736,9.0,299.15207000000004,-1769.8529,0.017359980342716907,0.0,0.0,0.0,0.0,0.002649378453236012,0.26941365677405776,0.13495509492653088,0.1336223164074959,-0.008116823526968112,-0.007220758131508343,0.04772351330319405
1737,9.0,299.34847,-1945.7387,0.01736999001741424,0.0,0.0,0.0,0.0,0.002650906071121756,0.3074205970975507,0.1251722766685419,0.15886311607106884,-0.0021028289379830577,-0.01170662758685419,0.02897552199516137
1738,9.0,299.54884,-2032.9604,0.01737999969211179,0.0,0.0,0.0,0.0,0.002652433689007472,0.3198762171318247,0.12758338634149988,0.17050960523798783,-0.007031101118865653,0.008361683620958921,0.03331502798018727
1739,9.0,300.02378999999996,-1928.3975,0.017389976331579016,0.0,0.0,0.0,0.0,0.0026539562652500015,0.3045700915187277,0.11888067242510889,0.16273392397058783,-0.006852322663271594,0.002171833093643238,0.014932969919269385
1740,9.0,300.36697000000004,-1889.4529,0.01739998600627657,0.0,0.0,0.0,0.0,0.0026554838831357175,0.3180792282119757,0.10075747038048809,0.15550979526262185,-0.011863536457589887,-8.357886162234142e-05,0.015828068978108786
1741,9.0,300.31338999999997,-1899.0197,0.017409995680974122,0.0,0.0,0.0,0.0,0.0026570115010214612,0.3022480161320567,0.12447622451234688,0.15053032963368684,-0.01030812662658289,-0.005511833513625615,0.011130900906534388
1742,9.0,299.97442,-1917.4161,0.017420005355671453,0.0,0.0,0.0,0.0,0.002658539118907177,0.30038984717116973,0.1192966926511669,0.16316007669764584,0.018929272896673784,0.006237209026389604,0.02382183105128168
1743,9.0,300.26086000000004,-2078.2522,0.0174299819951389,0.0,0.0,0.0,0.0,0.002660061695149707,0.3416840241315877,0.12370931577665888,0.16634342480181785,0.012831192329590088,0.005133891023675594,0.026338746326181876
1744,9.0,300.11077,-2027.9526,0.017439991669836452,0.0,0.0,0.0,0.0,0.0026615893130354507,0.3183078478320387,0.14324084629427086,0.15489824816476686,0.01087576858435479,-0.0054400203247132045,0.029980695478614268
1745,9.0,299.93201,-1781.162,0.017450001344533783,0.0,0.0,0.0,0.0,0.0026631169309211666,0.28314901168463175,0.11510230333221289,0.14317746750051585,0.0015636850445736987,-0.015069453694489286,0.030351628101722473
1746,9.0,299.95534,-1899.1597,0.01745997798400123,0.0,0.0,0.0,0.0,0.0026646395071636964,0.31032812839200175,0.11591684495510188,0.15105216356768786,0.005208007532715326,-0.006273849264580714,-0.0015611885989773187
1747,9.0,299.52881,-2174.063,0.017469987658698782,0.0,0.0,0.0,0.0,0.0026661671250494123,0.3331813359174377,0.14338858829135187,0.18429095157060082,0.0005289615607694415,0.008029849786084472,0.02993347498420397
1748,9.0,299.86807999999996,-2030.8692,0.017479997333396335,0.0,0.0,0.0,0.0,0.002667694742935156,0.3229154608067747,0.12186864564499889,0.17254941954430184,0.0019495238938780283,-0.010011157613074329,0.015860776691336786
1749,9.0,299.79924,-1864.3258,0.017490007008093666,0.0,0.0,0.0,0.0,0.002669222360820872,0.2954848858220877,0.13957471491495188,0.13164889024773388,-0.007993023616500013,-0.014574265198367986,0.053394231322600356
1750,9.0,299.42536,-1984.1029,0.017499983647561113,0.0,0.0,0.0,0.0,0.0026707449370634018,0.2998879945291407,0.1263399055537779,0.1768898283351668,0.005514227418311875,0.0037348654025025165,0.015580571495432686
1751,9.0,299.56332000000003,-1955.7042,0.017509993322258666,0.0,0.0,0.0,0.0,0.0026722725549491455,0.3124375023176807,0.1096658416431759,0.17238188877276783,0.007511137371666544,0.016490924021277484,0.028186808117321372
1752,9.0,300.24012999999997,-1944.4879,0.01752000299695622,0.0,0.0,0.0,0.0,0.0026738001728348892,0.31464316540036275,0.12176089662936489,0.15467172597241086,-0.0042174642661313155,0.008971172503885792,0.011425125430822091
1753,9.0,300.95111,-1963.9696,0.017529979636423443,0.0,0.0,0.0,0.0,0.002675322749077391,0.2988163305608757,0.11733585105764688,0.1808455364605648,-0.01122532872310369,0.008543323596160392,0.014677207355527588
1754,9.0,300.6383,-1887.7181,0.017539989311121218,0.0,0.0,0.0,0.0,0.002676850366963135,0.2915557451143117,0.1278748983952699,0.15438853270196187,0.0025128048232195277,0.006387589830706034,0.019514512982182482
1755,9.0,299.92526000000004,-1884.4284,0.01754999898581855,0.0,0.0,0.0,0.0,0.002678377984848851,0.3097162165241107,0.12445522997027487,0.13864773292846588,-0.0027246991291818676,0.008618324064587362,0.030280133174666473
1756,9.0,299.75879,-2072.611,0.017559975625285995,0.0,0.0,0.0,0.0,0.0026799005610913806,0.3140940649061707,0.13314803430068786,0.18277989169647083,-0.008829182018347422,-0.026070971682504576,0.040315883988867963
1757,9.0,300.14288,-2000.9663,0.017569985299983326,0.0,0.0,0.0,0.0,0.0026814281789770966,0.33954047328003567,0.12202439231786989,0.14667893560608386,-0.008891365379634442,-0.026729752447021176,0.017641375277568185
1758,9.0,299.93143,-1840.5876,0.01757999497468088,0.0,0.0,0.0,0.0,0.0026829557968628404,0.2936259569236257,0.09662463803160931,0.16924209015789382,-0.01022769078064449,-0.008431287012728241,0.007820414536789822
1759,9.0,299.9487,-1827.3256,0.017590004649378432,0.0,0.0,0.0,0.0,0.002684483414748584,0.3024818945201387,0.10109125928143049,0.15188819622519786,0.0033862138451182864,0.00890536596289119,0.01031691961095069
1760,9.0,300.03938999999997,-2027.5538,0.017599981288845656,0.0,0.0,0.0,0.0,0.002686005990991086,0.3316740048036757,0.1121636551271909,0.17248806725074683,-0.005105530153376595,-0.005715536097829495,0.012406923234467987
1761,9.0,299.72876,-2103.5579,0.01760999096354343,0.0,0.0,0.0,0.0,0.00268753360887683,0.34300123912908664,0.12923787176728488,0.16718996486286483,-0.0026284611413089176,0.004641632137568425,0.02312181100769508
1762,9.0,299.57043,-2013.9942,0.017620000638240763,0.0,0.0,0.0,0.0,0.0026890612267625458,0.31342551235768973,0.1239857202714379,0.17479269447069584,-0.004053098482609676,0.001096574215348449,0.03353329826372887
1763,9.0,299.58361,-1994.4032,0.01762997727770821,0.0,0.0,0.0,0.0,0.0026905838030050755,0.33398219866397666,0.1170815658125509,0.15518502834056985,-0.00037151518112069363,0.015853314104350286,0.024814604380010773
1764,9.0,298.81129,-1972.5508,0.017639986952405762,0.0,0.0,0.0,0.0,0.0026921114208908192,0.3180803123895827,0.1108446770745179,0.17068119914242283,0.004791213994181006,-0.009088392570854512,0.014990105065908185
1765,9.0,299.4559,-1958.1304,0.017649996627103315,0.0,0.0,0.0,0.0,0.002693639038776563,0.3070307795190787,0.12884176190569188,0.15935020565914085,0.0038960565721358463,-0.001034309388753389,0.032430553861896465
1766,9.0,299.84533,-1979.6967,0.017660006301800646,0.0,0.0,0.0,0.0,0.002695166656662279,0.3239596555648287,0.1140151163724159,0.16380360196865684,0.003179954932237117,0.009240460740562471,0.005874666722059464
1767,9.0,299.8394,-1909.8572,0.017669982941268092,0.0,0.0,0.0,0.0,0.0026966892329048087,0.2973293961716267,0.12873064889972588,0.15448885459436287,-0.001152685574086209,0.016256442749385987,0.04158147794677236
1768,9.0,300.54821,-1798.2315,0.017679992615965645,0.0,0.0,0.0,0.0,0.0026982168507905246,0.28919426443125174,0.12136103774240188,0.13606217198579088,-0.003031421282852987,-0.02210154820375298,0.03888822270396876
1769,9.0,300.50858,-1952.3588,0.017690002290662976,0.0,0.0,0.0,0.0,0.0026997444686762406,0.3259981931760167,0.11304845551201388,0.15442168624523386,-0.021244753038443878,-0.013915433771346384,0.02960298218583687
1770,9.0,299.92381,-2054.3405,0.0176999789301302,0.0,0.0,0.0,0.0,0.0027012670449187703,0.3105144042903857,0.1262083350282929,0.1877454656665348,-0.003055416463771127,-0.00829738672128831,0.018072252789842484
1771,9.0,300.17272,-1923.7585,0.017709988604827753,0.0,0.0,0.0,0.0,0.002702794662804514,0.3093977114876767,0.11732577935165288,0.15805105691092486,-0.004324773835196946,0.0005262560208824256,0.02162850530181728
1772,9.0,300.0322,-1973.2472,0.017719998279525306,0.0,0.0,0.0,0.0,0.002704322280690258,0.3141646479081367,0.12022589365537188,0.16542734538640783,0.008748481004857851,-0.01046198054826709,0.03113202218299137
1773,9.0,299.54758,-2066.6973,0.01773000795422286,0.0,0.0,0.0,0.0,0.002705849898575946,0.3253868892581857,0.1286753963717729,0.17416207800595884,-0.0008818902596082923,-0.00017165060591059584,0.02106111057706978
1774,9.0,299.26432,-2047.7248,0.017739984593690084,0.0,0.0,0.0,0.0,0.0027073724748185035,0.3213758475448267,0.12075751558533887,0.18032383424907683,0.026352233698262974,0.0023983017863939576,0.030987404035968676
1775,9.0,299.59276,-1996.2326,0.017749994268387637,0.0,0.0,0.0,0.0,0.0027089000927042195,0.3313989884615337,0.12359915522578689,0.15180672078465685,-0.013330899921157385,0.013433443871027686,-0.005246334427022895
1776,9.0,299.79131,-1963.1347,0.01776000394308519,0.0,0.0,0.0,0.0,0.0027104277105899632,0.3033850448642727,0.12012082975250288,0.17323807497476684,-0.015001537566786486,-0.007838793475053682,0.013997077411403987
1777,9.0,299.25642,-1887.0472,0.017769980582552414,0.0,0.0,0.0,0.0,0.002711950286832465,0.3208190666148767,0.10522102756200691,0.14757512492203084,-0.02525379155635518,9.72502936238567e-05,-0.008591576491097583
1778,9.0,299.85791,-1959.191,0.017779990257249967,0.0,0.0,0.0,0.0,0.002713477904718209,0.3091130794020857,0.12354767198820589,0.16288439161043783,8.950238351519752e-05,0.0052933234951103554,0.027543116673293976
1779,9.0,299.89996,-2113.4337,0.01778999993194752,0.0,0.0,0.0,0.0,0.0027150055226039527,0.32771505427795766,0.12480109275940889,0.18991491519064282,-0.004735960858277946,0.004767605672151045,0.02170158596527978
1780,9.0,300.40086,-2009.9047,0.017799976571414966,0.0,0.0,0.0,0.0,0.0027165280988464824,0.3283192249150847,0.13151176711170087,0.15112985958535585,0.012465248949974288,-0.0025094942311677973,0.03173827504907387
1781,9.0,300.62374,-1956.5747,0.017809986246112297,0.0,0.0,0.0,0.0,0.0027180557167321984,0.3182423817430777,0.1251061114370119,0.15140135994965084,0.006220554133170894,0.004322211123044026,0.03322678098922797
1782,9.0,299.88887,-1971.8763,0.01781999592080985,0.0,0.0,0.0,0.0,0.0027195833346179143,0.3150225769003077,0.11505870318040991,0.16931988750057184,0.036687170922491866,0.003846485742793587,0.01946117954991888
1783,9.0,299.47942,-1962.7243,0.017830005595507403,0.0,0.0,0.0,0.0,0.002721110952503658,0.3188804658610517,0.12451383635605888,0.15322487575711785,0.006175346156109214,0.012942209076796588,0.02294166527241608
1784,9.0,300.17823,-1863.3574,0.017839982234974627,0.0,0.0,0.0,0.0,0.00272263352874616,0.2886399760965477,0.12291422855568988,0.15485991691348386,-0.008702580674002841,-0.007088891433019113,0.03203047509966177
1785,9.0,299.81469,-1949.9444,0.01784999190967218,0.0,0.0,0.0,0.0,0.002724161146631904,0.2967327134527387,0.13184606871719387,0.16415564558340084,-0.021760916824885276,-0.016168248447431883,0.04301433923118476
1786,9.0,299.77628,-2035.6601,0.017860001584369734,0.0,0.0,0.0,0.0,0.0027256887645176475,0.3063746595493247,0.13971473594627085,0.17270043433920582,-0.006105432608484285,-0.0007341936459992713,0.02206996215838568
1787,9.0,299.6121,-1983.7848,0.01786997822383718,0.0,0.0,0.0,0.0,0.0027272113407601772,0.30727477014315874,0.12718048770423687,0.16856577611364684,-0.0022696967399766276,-0.015255139881315086,0.03240844778446477
1788,9.0,300.0853,-1991.0562,0.01787998789853451,0.0,0.0,0.0,0.0,0.0027287389586458932,0.29634948199991673,0.14434333333057786,0.16453855279619084,-0.004455569021705425,-0.018968599159554983,0.03399737694202987
1789,9.0,300.50371,-2050.5751,0.017889997573232064,0.0,0.0,0.0,0.0,0.002730266576531609,0.35036573337340565,0.11518745687061689,0.15777043729572984,0.01009603767527634,0.007578480202462763,0.004631693369987546
1790,9.0,300.00001000000003,-2029.6278,0.017900007247929617,0.0,0.0,0.0,0.0,0.002731794194417353,0.3139058131700917,0.12007887106586188,0.1829714972903808,0.020815598051339583,0.01871415888719368,0.033596568639723164
1791,9.0,299.89864,-2034.5858,0.017909983887397063,0.0,0.0,0.0,0.0,0.0027333167706598827,0.3382759574202377,0.12008764581172789,0.16009969662560986,0.0054504924671467244,0.023181414431577476,0.009099858812961142
1792,9.0,299.55862,-2102.473,0.017919993562094394,0.0,0.0,0.0,0.0,0.0027348443885455986,0.3266910434618957,0.12430240145769188,0.18810585846210282,-0.007427658431702812,0.006676612328980334,0.02220085380630368
1793,9.0,299.64214,-2091.0058,0.017930003236791947,0.0,0.0,0.0,0.0,0.0027363720064313424,0.3404983492620707,0.11654660015725389,0.17856861149834982,-0.017738065681610782,-0.0008565662923765111,0.008647903874756661
1794,9.0,300.49312000000003,-2020.1601,0.017939979876259393,0.0,0.0,0.0,0.0,0.002737894582673872,0.3177417247361667,0.11927837308935887,0.17705812917677682,-0.01103967698678129,-0.00813299955818956,0.012013313060871687
1795,9.0,300.26203,-2029.7862,0.017949989550956724,0.0,0.0,0.0,0.0,0.002739422200559588,0.3524594221875367,0.11064665760747489,0.15389824124357387,0.0008216270781882791,-0.01078810421220299,0.002719892372032477
1796,9.0,300.15753,-2069.8587,0.017959999225654277,0.0,0.0,0.0,0.0,0.002740949818445304,0.3085760872465887,0.14024802973890288,0.18036124344276883,-0.0013774850386221887,-0.01254284668238259,0.04131676433164716
1797,9.0,300.33714,-1996.6345,0.017969975865121723,0.0,0.0,0.0,0.0,0.0027424723946878338,0.32828976973467766,0.12434002343390488,0.15429722873545085,0.0013022624657732988,-0.00976476092530687,0.032611701701524366
1798,9.0,300.61249,-1972.1347,0.017979985539819276,0.0,0.0,0.0,0.0,0.0027440000125735775,0.30323142601661174,0.1272233481834669,0.16902495066146384,0.012844683754671588,0.007742258300926404,0.035683161663403865
1799,9.0,300.32664,-1926.0879,0.017989995214516608,0.0,0.0,0.0,0.0,0.0027455276304592935,0.2967184874213347,0.13125940704179487,0.15750474285450786,0.011707778638967789,0.011823806921168887,0.024671157550103677
1800,9.0,299.79783,-1832.1104,0.01800000488921416,0.0,0.0,0.0,0.0,0.0027470552483450372,0.28504238095399276,0.12073681488579589,0.15113662809602385,-0.0037469109196913166,0.015348827012061287,0.028430648780386574
1801,9.0,299.10348,-1942.2402,0.018009981528681607,0.0,0.0,0.0,0.0,0.002748577824587567,0.3160117927079357,0.12768322187385286,0.14669751861291785,-0.013357951672327187,0.00971448842027036,0.029087818477244176
1802,9.0,299.53062,-2054.571,0.018019991203378938,0.0,0.0,0.0,0.0,0.0027501054424733107,0.3165842688819347,0.13042104390905487,0.17753296857113984,-0.00916881230611632,0.007563879471171784,0.04277490924580486
1803,9.0,299.91837999999996,-2033.567,0.01803000087807649,0.0,0.0,0.0,0.0,0.002751633060358999,0.3383038521954907,0.12721428972757287,0.15263545804144685,0.005956785373763944,-0.013584129359649188,0.035469979921864465
1804,9.0,300.28718,-1979.6681,0.018039977517543937,0.0,0.0,0.0,0.0,0.0027531556366015564,0.3090935439401577,0.12585715267613387,0.16681897347125083,-0.006634317952581203,-0.011585496577149489,0.04721721046672586
1805,9.0,300.14547999999996,-2025.2879,0.018049987192241268,0.0,0.0,0.0,0.0,0.0027546832544872724,0.3152513383753847,0.12304701498129489,0.17733859680445682,0.0067887026146677834,-0.016358229801431586,0.014879092371702088
1806,9.0,299.86057,-1972.8042,0.01805999686693882,0.0,0.0,0.0,0.0,0.0027562108723729883,0.32031176268730965,0.11883408318551088,0.16053735987380385,0.0033300286204482367,-0.003994438597220397,0.004134932917661106
1807,9.0,300.22209,-1954.121,0.018070006541636152,0.0,0.0,0.0,0.0,0.002757738490258732,0.3267181276370687,0.09448445826314002,0.17280140471167083,0.007835020942281362,0.00898714831688748,-0.014254897886098886
1808,9.0,300.5399,-2043.3689,0.018079983181103598,0.0,0.0,0.0,0.0,0.002759261066501262,0.3281827097291117,0.12325553171937388,0.16969487109757983,0.0031341113433877073,0.000978158715911749,0.018655343771889082
1809,9.0,300.50248999999997,-2132.1393,0.01808999285580115,0.0,0.0,0.0,0.0,0.0027607886843870055,0.3617042755699327,0.1113678991611559,0.17504493295058984,-0.0017458849417804284,-0.005087452150392435,0.00900019735697532
1810,9.0,300.42748,-2120.9388,0.018100002530498482,0.0,0.0,0.0,0.0,0.0027623163022726938,0.3325207373822417,0.11929883060887789,0.1928928774995448,-0.0030327881572378874,-0.008153966337208822,0.03248559867357897
1811,9.0,300.38897000000003,-2116.0655,0.01810997916996615,0.0,0.0,0.0,0.0,0.0027638388785152512,0.3392182901457387,0.12819600748446086,0.17581676608176383,0.00015045877391162488,-0.0018522038562232882,0.0011429859335289289
1812,9.0,300.12023,-2029.4091,0.01811998884466348,0.0,0.0,0.0,0.0,0.002765366496400967,0.31803142307225774,0.1165253725676589,0.18233288628235483,-0.009677075173577961,0.012731197716971386,0.023888862611647178
1813,9.0,299.83531,-1934.2533,0.018129998519361035,0.0,0.0,0.0,0.0,0.002766894114286711,0.3127900626899757,0.11784241531264089,0.15733221675998085,-0.00944875436096945,0.005776809256551684,0.010711641319906689
1814,9.0,299.78917,-1927.6689,0.01813997515882848,0.0,0.0,0.0,0.0,0.0027684166905292407,0.3145151716477307,0.11793240205402189,0.15351564813831486,-0.008255415672996091,0.01241125589189559,0.04951012451551886
1815,9.0,299.43708,-2000.2079,0.018149984833526034,0.0,0.0,0.0,0.0,0.0027699443084149844,0.34626422869111867,0.1065200952502149,0.15522892233490185,-0.005080398815121325,0.0034237066319435364,0.025682865483451476
1816,9.0,299.39943999999997,-1922.5059,0.018159994508223365,0.0,0.0,0.0,0.0,0.0027714719263007004,0.2875049029370247,0.14021978032611487,0.15666911549703785,-0.007944368055973082,-0.0006671494301400224,0.06987866547698734
1817,9.0,299.89723,-1932.5523,0.018170004182920696,0.0,0.0,0.0,0.0,0.0027729995441863886,0.2974393540724787,0.13662313763865386,0.15338517192293785,0.002993461793031677,-0.024316373093839178,0.02222800282948308
1818,9.0,300.55973,-1997.9111,0.018179980822388364,0.0,0.0,0.0,0.0,0.002774522120428946,0.2981768988202687,0.13642104490620885,0.17271713270085384,0.004080302727919527,-0.004397592573508595,0.02612593746067927
1819,9.0,300.6944,-2048.7524,0.018189990497085695,0.0,0.0,0.0,0.0,0.002776049738314662,0.3173343677984637,0.13925434549833388,0.16618085895577384,0.013640926080754588,-0.008918915447203423,0.01058290688145159
1820,9.0,300.39269,-2094.34,0.018200000171783248,0.0,0.0,0.0,0.0,0.002777577356200406,0.3370030214521087,0.13591967862422788,0.16370437438636384,0.0030284420235839574,-0.008087274316951833,0.03047679286007527
1821,9.0,299.90962,-2123.0338,0.018209976811250694,0.0,0.0,0.0,0.0,0.0027790999324429355,0.34896208814237667,0.13759897854496186,0.15878820649117587,0.02225665146281048,-0.012437945912779688,0.03101359553780357
1822,9.0,300.16697999999997,-2029.9617,0.018219986485948247,0.0,0.0,0.0,0.0,0.0027806275503286793,0.3156179119965627,0.13263544120759888,0.16880431545218885,-0.003381745209527267,-0.004645252074875685,0.04262195306370926
1823,9.0,299.90966000000003,-2020.3970000000002,0.01822999616064558,0.0,0.0,0.0,0.0,0.0027821551682143952,0.3387037212149547,0.1031331649359509,0.17231334240350285,0.01036581196802599,-0.004748870475152026,0.014386691326605886
1824,9.0,300.38075,-2093.9704,0.01824000583534313,0.0,0.0,0.0,0.0,0.0027836827861001112,0.3267138922516507,0.12698421102736587,0.18281662201259583,-0.025040682768822976,0.01098107465399769,0.01696312288587988
1825,9.0,299.92917,-2068.7327,0.018249982474810578,0.0,0.0,0.0,0.0,0.002785205362342641,0.3368774291022137,0.10912466476476589,0.18284100081000182,-0.015038553619439687,0.00920059259152779,0.006401787896407274
1826,9.0,299.53877,-2024.1441,0.01825999214950813,0.0,0.0,0.0,0.0,0.0027867329802283847,0.33196418949981465,0.12066057794827188,0.16266450620623685,-0.024343354930752077,0.013427589311949885,0.014084520895033986
1827,9.0,299.89062,-2113.1504,0.018270001824205462,0.0,0.0,0.0,0.0,0.0027882605981141007,0.34528843844731566,0.13080395112184487,0.16625255653284984,-0.006107711205309165,0.0034545640491639266,0.028785183977126472
1828,9.0,300.16433,-2189.0719,0.01827997846367313,0.0,0.0,0.0,0.0,0.002789783174356658,0.3302264757108157,0.13440204275694886,0.20079467800689182,0.012962488264297987,0.0017906771823260783,0.03482536135399557
1829,9.0,299.748,-2116.2447,0.01828998813837046,0.0,0.0,0.0,0.0,0.002791310792242374,0.33616136525654366,0.14140026735511987,0.16572390342567586,0.022048760913293275,-0.0032618704272965467,0.028067614441807873
1830,9.0,300.04835,-2043.207,0.018299997813067792,0.0,0.0,0.0,0.0,0.00279283841012809,0.29555197311120873,0.14419906678133987,0.18133285909615982,0.011772695546374591,0.002733779471278028,0.019339464908156582
1831,9.0,299.79311,-2045.8939,0.018310007487765345,0.0,0.0,0.0,0.0,0.002794366028013806,0.32469557911245867,0.12178292468653888,0.17542215583031884,0.0012584746600517787,-0.011149086719329189,0.006910673304730353
1832,9.0,300.12552999999997,-2072.0474,0.01831998412723279,0.0,0.0,0.0,0.0,0.002795888604256336,0.3258171152506457,0.14496600591453085,0.15906753927874384,-0.014178035773263186,0.00917862097238436,0.023370202176959377
1833,9.0,300.4618,-2097.0778,0.018329993801930344,0.0,0.0,0.0,0.0,0.0027974162221420795,0.33142267824887167,0.13037667368717587,0.17565994536378682,-0.017375212714799984,-0.010579238916089589,0.03523173138610117
1834,9.0,300.47976,-2046.0578,0.018340003476627675,0.0,0.0,0.0,0.0,0.0027989438400277955,0.31416160815783667,0.13683740963730087,0.17095145320909483,-0.01133914508033649,-0.001065992706130289,0.048411535452346555
1835,9.0,300.22427000000005,-1947.6377,0.01834998011609512,0.0,0.0,0.0,0.0,0.002800466416270353,0.3227845286288527,0.11668924550633189,0.15255945415144587,0.002451960674589678,-0.006287154656943854,0.04069145223118366
1836,9.0,300.07482999999996,-1991.6628,0.018359989790792453,0.0,0.0,0.0,0.0,0.002801994034156069,0.30787116915201873,0.1174229905662469,0.18012160979411884,0.005083584372110715,0.0045794805923345455,0.03529829989117097
1837,9.0,299.53152,-2090.1912,0.018369999465490006,0.0,0.0,0.0,0.0,0.0028035216520418127,0.3402355324511327,0.1320724591870369,0.16305795122006683,0.01143798762759149,0.002240787600048518,0.029457703399748972
1838,9.0,299.74572,-2102.0297,0.01837997610495745,0.0,0.0,0.0,0.0,0.0028050442282843424,0.3356401798026067,0.12564291107498987,0.17768145024079385,-0.0007194070643749493,0.014062261816837186,0.0063529424528116045
1839,9.0,299.8717,-2111.7841,0.018389985779655005,0.0,0.0,0.0,0.0,0.0028065718461700584,0.3245765120932077,0.13335886124899488,0.18399424154381783,0.001926966008226738,-0.0007987319829037093,0.02339092922100498
1840,9.0,299.54118,-2190.3483,0.018399995454352336,0.0,0.0,0.0,0.0,0.0028080994640557744,0.3367700043266117,0.14810325113915285,0.1809379448696848,-0.0029605604477095674,0.009293961967042632,0.008153459002883752
1841,9.0,299.77539,-2163.0421,0.018410005129049667,0.0,0.0,0.0,0.0,0.0028096270819414904,0.3395834452167767,0.1305635170056159,0.18736381488386883,-0.005292125022892075,-0.0006077676344519953,0.008084199001573322
1842,9.0,299.87547,-2095.6812,0.018419981768517335,0.0,0.0,0.0,0.0,0.002811149658184048,0.3283812155562027,0.1356923154342889,0.17296121451744284,-0.01070676150742509,-0.008280287011275702,0.0073241962745918925
1843,9.0,300.57412999999997,-2085.2867,0.018429991443214666,0.0,0.0,0.0,0.0,0.002812677276069764,0.3574589197709487,0.11121494905856089,0.16520121836159085,-0.002330111067914058,-0.014526284766382687,0.009629355248193371
1844,9.0,300.49009,-2032.5949,0.01844000111791222,0.0,0.0,0.0,0.0,0.0028142048939555075,0.3389688786336237,0.1060363189899699,0.17285289808175286,0.006359499802158764,0.007816421318145722,0.02596172406997268
1845,9.0,300.16157000000004,-1992.2912,0.018449977757379665,0.0,0.0,0.0,0.0,0.0028157274701980373,0.3146065060117447,0.13154605549508486,0.15945421578190583,0.01113433278462309,-0.011528928850566687,0.04394003135029346
1846,9.0,300.02099999999996,-1994.0711,0.01845998743207722,0.0,0.0,0.0,0.0,0.0028172550880837532,0.3132775170480837,0.11815279408327288,0.17471751131327584,-0.0013831878128350089,0.004871151118420186,0.047423728062357555
1847,9.0,300.62055,-2073.2441,0.01846999710677455,0.0,0.0,0.0,0.0,0.0028187827059694692,0.3221830836344947,0.1267174425410379,0.1813139113192898,0.0003696488352314996,0.0017069850545413082,0.031077519460112366
1848,9.0,300.12228,-2037.3182,0.018480006781472103,0.0,0.0,0.0,0.0,0.002820310323855213,0.3166923725351037,0.1307565918121709,0.17184490674977185,-0.012812698488764887,0.008811516914779011,0.040922407392727164
1849,9.0,299.36689,-1950.2666,0.01848998342093955,0.0,0.0,0.0,0.0,0.0028218329000977427,0.34390062018284867,0.11318351161784289,0.13574822657480687,-0.009241536609518652,-0.0015818921356205986,0.014437915172161286
1850,9.0,299.3548,-1961.6989,0.0184999930956371,0.0,0.0,0.0,0.0,0.0028233605179834864,0.30875240289648975,0.12232527693506488,0.16522981227941283,-0.027198459651778976,-0.011126779005127591,0.02177740443051248
1851,9.0,299.68779,-2107.2451,0.018510002770334433,0.0,0.0,0.0,0.0,0.0028248881358692024,0.3198568133924097,0.14717961287799686,0.17351345608694485,0.010903851824126388,-0.0035187149394951267,0.017254028002839986
1852,9.0,299.94911,-2148.6408,0.0185199794098021,0.0,0.0,0.0,0.0,0.00282641071211176,0.3185866638620557,0.14611295436522587,0.18843352327944082,0.005140873026139665,0.007151673929090264,0.033010841180916364
1853,9.0,300.72805,-2086.8811,0.018529989084499432,0.0,0.0,0.0,0.0,0.002827938329997448,0.3181293840919257,0.14281020486926987,0.17342015601773683,0.02042205475224988,0.012794928108511088,0.03726222885774567
1854,9.0,300.56991,-1979.4612,0.018539998759196763,0.0,0.0,0.0,0.0,0.002829465947883164,0.3283044010661217,0.1077883500028819,0.16561402658483182,-0.003161956976010857,8.630526230241622e-05,0.026585354175270175
1855,9.0,300.87023,-1900.1445,0.01854997539866421,0.0,0.0,0.0,0.0,0.002830988524125694,0.34158668119448066,0.09733628613334351,0.13867353027601187,0.001120433924728219,-0.0029823594090359574,0.03229032714080717
1856,9.0,300.17058,-2047.3598,0.018559985073361762,0.0,0.0,0.0,0.0,0.0028325161420114375,0.3319953469403897,0.12044477594197389,0.16990613374342983,-0.0012504828525380489,-0.001769926529553148,0.025046262737123678
1857,9.0,299.90722,-2037.8308,0.018569994748059315,0.0,0.0,0.0,0.0,0.0028340437598971813,0.3342889803967537,0.11655626656320789,0.16860443160496186,-0.014359397408662185,-0.001151234397292989,0.03823583048133267
1858,9.0,300.08889,-1950.0928,0.018580004422756646,0.0,0.0,0.0,0.0,0.0028355713777828695,0.3032280214962757,0.11750466865680789,0.17204681709719885,-0.014026859871593288,-0.0026365216471794274,0.01910755019876838
1859,9.0,299.80942999999996,-2083.9298,0.018589981062224314,0.0,0.0,0.0,0.0,0.0028370939540254547,0.31608602341026165,0.1321285324475709,0.18524805748255982,-0.021015461633564582,-0.00024408212056402977,0.024432417588041877
1860,9.0,299.56192999999996,-2212.1149,0.018599990736921646,0.0,0.0,0.0,0.0,0.002838621571911143,0.35796182619308164,0.13136186689190688,0.18310401013845884,-0.0007762491790848292,0.013022566902477287,0.0034947111459511363
1861,9.0,299.78799,-2178.7749,0.0186100004116192,0.0,0.0,0.0,0.0,0.0028401491897968867,0.36828918531981264,0.12988276492593087,0.16412121534500285,-0.0028494884783726174,0.004734977803030925,0.022563077544802378
1862,9.0,299.45356,-2169.0384,0.018619977051086645,0.0,0.0,0.0,0.0,0.0028416717660394164,0.3370297509897467,0.13322344037312986,0.18908033148077583,0.0025928682997461774,-0.004831735790855196,0.012387320898033388
1863,9.0,299.25252,-2086.2856,0.018629986725783976,0.0,0.0,0.0,0.0,0.00284319938392516,0.3171116756914857,0.14465964974679585,0.17240740241028585,0.006337922235979223,-0.007911128183792563,0.03286239902801626
1864,9.0,299.82448,-1973.0287,0.01863999640048153,0.0,0.0,0.0,0.0,0.002844727001810876,0.28699336362403977,0.12330079360134089,0.18945728078297783,-0.001844137878802238,0.0006221753719964284,0.026548661349398872
1865,9.0,299.41654,-2028.0816,0.01865000607517886,0.0,0.0,0.0,0.0,0.0028462546196965643,0.3095823864509027,0.1357704268844979,0.17113334173454584,0.004921189866658625,0.004972360212608745,0.037142772750456264
1866,9.0,299.54573,-2013.1582,0.018659982714646306,0.0,0.0,0.0,0.0,0.0028477771959391496,0.34471706671592567,0.10243433647448191,0.16479842104933784,-0.0024583811338483273,-0.0007225267297103363,0.020830849491844782
1867,9.0,300.0262,-1974.5066,0.01866999238934386,0.0,0.0,0.0,0.0,0.002849304813824838,0.3495248168504137,0.1206893339861099,0.1299865723986759,-0.001141745614081519,0.01087198409523129,0.04268933419535926
1868,9.0,299.86174,-2058.8659,0.01868000206404119,0.0,0.0,0.0,0.0,0.0028508324317105815,0.3211701983045307,0.14643121622163588,0.15824240919230984,0.0038544648846810664,-0.01033167151915659,0.037054754754019564
1869,9.0,299.80352,-2218.5317,0.018689978703508636,0.0,0.0,0.0,0.0,0.0028523550079531113,0.35189192107152867,0.14179166560374787,0.1806946533881738,0.002868071383881607,-0.0013381947461195388,0.03352024658919077
1870,9.0,300.41812999999996,-2383.8076,0.01869998837820619,0.0,0.0,0.0,0.0,0.002853882625838855,0.3387988755318457,0.16273282966047983,0.2230862815319018,0.017150539703876484,-0.01137520969114579,0.014060755113938485
1871,9.0,300.44372000000004,-2203.2125,0.01870999805290352,0.0,0.0,0.0,0.0,0.002855410243724571,0.3362873426414767,0.13949059489164986,0.1939436381182468,0.01093384605358659,-0.00027085451868125973,0.007497431238888853
1872,9.0,299.73509,-2044.9888,0.018720007727601073,0.0,0.0,0.0,0.0,0.002856937861610287,0.34803630179100864,0.10770034923169688,0.16588887067445685,0.013636926782609885,0.002137035450758978,-0.0019151336788589784
1873,9.0,299.96561,-1997.7060000000001,0.01872998436706852,0.0,0.0,0.0,0.0,0.0028584604378528444,0.3315022386467237,0.11630890181629489,0.15944160081816086,-0.014197497267933883,-0.0018928780457125182,0.02400584436219238
1874,9.0,299.16738,-2034.4313,0.018739994041766073,0.0,0.0,0.0,0.0,0.0028599880557385604,0.3301829768840227,0.11436988562992889,0.17386344280398583,-0.016583148018879286,-0.01309984546110409,0.024659575088210577
1875,9.0,299.2771,-2087.8653,0.018750003716463404,0.0,0.0,0.0,0.0,0.0028615156736242764,0.32773251257718067,0.13679323193294088,0.17013318282583784,-0.02027930909141198,0.002276299989553318,0.05230484763658655
1876,9.0,298.99561,-2074.1902,0.01875998035593085,0.0,0.0,0.0,0.0,0.002863038249866806,0.31171631142650474,0.1346569663496079,0.18412876062709382,0.007150631294737363,-0.002428953513844048,0.036597633050905166
1877,9.0,299.87796000000003,-1992.6918,0.018769990030628403,0.0,0.0,0.0,0.0,0.00286456586775255,0.3140480228216267,0.1200050253985739,0.17167549133305185,0.004155137833930176,-0.005230210375531575,0.03699867237423467
1878,9.0,300.38982000000004,-2057.0495,0.018779999705325734,0.0,0.0,0.0,0.0,0.002866093485638266,0.34131444115761267,0.11837977223817388,0.16559747007819783,-0.003549934087001216,-0.01190877402155449,-0.001977156440005148
1879,9.0,300.51205,-2337.1756,0.01878997634479318,0.0,0.0,0.0,0.0,0.0028676160618807955,0.36739266163133266,0.15134866081194984,0.19170169054948383,0.00995257230289241,0.0025107590712676276,0.03306738458949677
1880,9.0,300.25629,-2249.9146,0.018799986019490733,0.0,0.0,0.0,0.0,0.0028691436797665393,0.35019708802676164,0.14569606274408187,0.1880246971290928,-0.001985017538255978,0.0016911839258568584,0.028431681282238476
1881,9.0,299.92811,-2027.8702,0.018809995694188286,0.0,0.0,0.0,0.0,0.0028706712976522553,0.3108220270207457,0.14242139040839685,0.16317848745196284,0.0024899201644109875,0.003042531266224457,0.03013490505108357
1882,9.0,299.89715,-2089.6188,0.018820005368885617,0.0,0.0,0.0,0.0,0.0028721989155379712,0.3203579668918697,0.12327455042375088,0.19155940997044182,-0.013275947315233988,-0.012058480710579387,0.013205126199494488
1883,9.0,300.19316000000003,-2186.1117,0.018829982008353063,0.0,0.0,0.0,0.0,0.002873721491780501,0.3429337465399257,0.13823023335726187,0.1833593896936628,-0.005286026979815245,0.015299761389218883,0.011413216702396789
1884,9.0,299.81905,-2101.3501,0.018839991683050616,0.0,0.0,0.0,0.0,0.0028752491096662447,0.3296010166890877,0.13856551781535187,0.17059144544856486,0.004298349083189027,0.007594571120675812,0.009305202558351992
1885,9.0,299.46058,-2051.8535,0.01885000135774817,0.0,0.0,0.0,0.0,0.0028767767275519884,0.3198888726255737,0.12945897307160587,0.17436439365342582,-0.0031156049382612674,0.005845681689698864,0.03221388046051247
1886,9.0,299.34018,-2087.1996,0.018859977997215394,0.0,0.0,0.0,0.0,0.0028782993037944904,0.33921767206317766,0.13852863551171188,0.15671025345109785,0.0037637574185039368,-0.014927039366434086,0.043838670876539955
1887,9.0,299.35742999999997,-2194.9089,0.018869987671912947,0.0,0.0,0.0,0.0,0.002879826921680234,0.3469716495134357,0.14319555401480086,0.1770302951965298,-0.008644358208681733,-0.008652899907024732,0.05058175200678025
1888,9.0,299.51515,-2265.9970000000003,0.0188799973466105,0.0,0.0,0.0,0.0,0.00288135453956595,0.3444341368905027,0.15087072087228087,0.19350164829212582,0.011896039494297688,-0.006536355413038054,0.045026114880731556
1889,9.0,299.50843,-2149.9295,0.01889000702130783,0.0,0.0,0.0,0.0,0.002882882157451666,0.3580923226734607,0.13015199561000187,0.16528058624192382,-0.00036681029613635764,0.007217267687563863,0.017557986820838384
1890,9.0,299.62529,-2022.4803,0.018899983660775277,0.0,0.0,0.0,0.0,0.002884404733694196,0.32423245288925173,0.11883148926525489,0.17171957784490283,-0.005822860662996604,0.0071700314877770135,-0.006591269211482624
1891,9.0,299.84591,-2062.1734,0.01890999333547283,0.0,0.0,0.0,0.0,0.0028859323515799395,0.32556273881304065,0.12894501209088186,0.17234149049128084,-0.018489876990808785,0.015554708286630184,0.015008069990181186
1892,9.0,299.98872,-2278.1156,0.018920003010170383,0.0,0.0,0.0,0.0,0.0028874599694656833,0.3424397972486766,0.15029980510343585,0.19975066563385582,-0.0005486628208113044,0.01167898713737629,0.011750599601443888
1893,9.0,300.58187000000004,-2256.2404,0.018929979649637607,0.0,0.0,0.0,0.0,0.0028889825457081852,0.34307830693169267,0.14990504286447584,0.1928573934810428,-0.010016860589937171,0.012337659484132187,0.03145422152928997
1894,9.0,300.87979,-2001.6604,0.01893998932433516,0.0,0.0,0.0,0.0,0.002890510163593929,0.32198440555488667,0.1111180722164999,0.17535232263342682,0.0014975484880215286,-0.02050868864904998,0.025968186579110476
1895,9.0,300.55335,-1934.0591,0.018949998999032713,0.0,0.0,0.0,0.0,0.002892037781479645,0.3373177470656697,0.11201975334798889,0.13856816239811287,-0.002456452918908028,-0.015490626297305786,0.03257706577335607
1896,9.0,300.42021,-2016.3343,0.018959975638499937,0.0,0.0,0.0,0.0,0.0028935603577221747,0.3220337204372537,0.12183367838404789,0.16904788051122682,-0.01026209568778999,-0.014141578021415089,0.02088126172407008
1897,9.0,300.45799,-2085.1021,0.01896998531319749,0.0,0.0,0.0,0.0,0.0028950879756078907,0.3312617943979937,0.12496481371056689,0.17759237542450282,0.0006835808105191734,-0.006179636155707604,0.036192006744372965
1898,9.0,300.24088,-2108.7287,0.018979994987895044,0.0,0.0,0.0,0.0,0.0028966155934936344,0.33008175319903266,0.13369645591731286,0.17722264046301284,0.0025252049779433275,-7.438582078380893e-06,0.03592009804028767
1899,9.0,299.82034,-2026.3707,0.018990004662592597,0.0,0.0,0.0,0.0,0.002898143211379378,0.3225343166491587,0.12178558953430188,0.17164618814015983,-0.00016662476382458383,0.0013688039170654286,0.03552784866157567
1900,9.0,299.39637,-2149.3831,0.01899998130205982,0.0,0.0,0.0,0.0,0.002899665787621908,0.3420331191885407,0.14163680045846386,0.16968886252448684,0.0008435008984320572,0.004916095447805845,0.03415982626431237
1901,9.0,299.50786,-2292.1613,0.019009990976757152,0.0,0.0,0.0,0.0,0.002901193405507624,0.37404353396272266,0.13538770205672587,0.1873285841778918,-0.006736995854114723,0.019358776441812484,0.009653725736948551
1902,9.0,300.07309,-2252.4043,0.019020000651454705,0.0,0.0,0.0,0.0,0.00290272102339334,0.34303098815202265,0.14406539882814787,0.19757827768445782,0.005254358253239785,0.001244798620802059,0.012635907624566988
1903,9.0,300.43631,-2056.3144,0.01902997729092215,0.0,0.0,0.0,0.0,0.0029042435996358695,0.3225548349636837,0.1265509452846059,0.17596246131364282,-0.01235249447884629,0.006654293063727593,0.01113242179493449
1904,9.0,300.40761000000003,-2072.4329,0.019039986965619482,0.0,0.0,0.0,0.0,0.0029057712175215855,0.3184423973128177,0.13606385398095688,0.17546160165671185,-0.009138871677586412,-0.008510431674064211,0.024225285962849577
1905,9.0,300.04627999999997,-2159.4225,0.019049996640317035,0.0,0.0,0.0,0.0,0.0029072988354073293,0.3333652104130847,0.14071885666286987,0.18232644201171883,-0.0063954584270076035,-0.009971927102327579,0.03197908001483947
1906,9.0,300.00253,-2083.4614,0.019060006315014588,0.0,0.0,0.0,0.0,0.002908826453293073,0.35187489846984865,0.11764306848796689,0.16380226447852483,-0.00044845707726926757,-0.01144566907659959,0.04449513535132796
1907,9.0,300.07822000000004,-1997.9701,0.019069982954482034,0.0,0.0,0.0,0.0,0.0029103490295356027,0.3367547954426107,0.12440120347494289,0.14617703230154985,0.01168359742533129,-0.011171734885564388,0.037318539218803064
1908,9.0,299.98924,-1966.0447,0.019079992629179365,0.0,0.0,0.0,0.0,0.0029118766474213187,0.3236520227019677,0.11524520199381588,0.15873128210055787,0.00903326122761347,-0.014045623236945089,0.03920609851209066
1909,9.0,299.95799999999997,-2064.0435,0.01909000230387714,0.0,0.0,0.0,0.0,0.0029134042653070624,0.32385778339977467,0.12952653658827387,0.17403336484575582,0.001138433704804659,-0.0032706398029370173,0.017972757709523085
1910,9.0,300.47668999999996,-2203.4089,0.019099978943344365,0.0,0.0,0.0,0.0,0.0029149268415495644,0.3416369991944467,0.14019432748360286,0.18794995980171683,-0.0018023583347789186,0.006045853299954264,0.01954160425010618
1911,9.0,300.45177,-2310.8769,0.019109988618041918,0.0,0.0,0.0,0.0,0.002916454459435308,0.3369266933220757,0.15315837615305486,0.21236380552867581,-0.009186979373784272,0.01156798558892129,0.014472080952283185
1912,9.0,299.94682,-2151.116,0.01911999829273925,0.0,0.0,0.0,0.0,0.002917982077321024,0.36138703709612363,0.13230420974990886,0.16019429365494584,-0.0024889077249110676,0.005997240903881594,0.015664839453249285
1913,9.0,299.91701,-2103.3502,0.019129974932206917,0.0,0.0,0.0,0.0,0.0029195046535635816,0.33717867848944466,0.13238939368581587,0.16979785783774384,-0.00974034352307206,0.0017412394940469582,0.016037752980302987
1914,9.0,299.31726000000003,-2211.4791,0.019139984606904248,0.0,0.0,0.0,0.0,0.0029210322714492976,0.35655737036197266,0.14434530916827285,0.17133173610412586,-0.007949535834133102,-0.006132128911519004,0.035859486432555765
1915,9.0,298.96402,-2158.8963,0.01914999428160158,0.0,0.0,0.0,0.0,0.0029225598893350135,0.33236329858170366,0.13509415337025488,0.1887931054749288,-0.0056472936022694846,-0.017034543845678585,0.015920635454244384
1916,9.0,299.85046,-2019.3593,0.019160003956299354,0.0,0.0,0.0,0.0,0.0029240875072207573,0.3151085106412887,0.1275368680294089,0.17118942512758084,0.0007394762456606234,-0.014399088441579385,0.043374554707985256
1917,9.0,299.73791,-1963.8839,0.019169980595766578,0.0,0.0,0.0,0.0,0.0029256100834632592,0.2995638051596457,0.1174823568896059,0.17992548510476283,-0.002252596219363938,0.0024617531288561173,0.025161544254001075
1918,9.0,299.69424,-2132.139,0.01917999027046413,0.0,0.0,0.0,0.0,0.002927137701349003,0.35494164175251264,0.13010929725078788,0.16306608761836985,0.007157801255094983,0.014439667081584187,0.03221065021919367
1919,9.0,300.26795,-2284.7629,0.019189999945161462,0.0,0.0,0.0,0.0,0.002928665319234719,0.3579968947790427,0.14781720050342187,0.18869675552291984,0.004890027866458175,0.004015931962316626,0.023010518656461375
1920,9.0,300.25658,-2307.2193,0.01919997658462913,0.0,0.0,0.0,0.0,0.0029301878954772764,0.3659990070462897,0.15258059054853185,0.18275744820675582,0.01701985475897888,-0.009480888371990832,0.014095778103644986
1921,9.0,300.08942,-2191.5263,0.01920998625932646,0.0,0.0,0.0,0.0,0.0029317155133629924,0.34640822166282964,0.13607819146987188,0.18368285965558684,0.008359376957106273,-0.0007154825035576252,-0.0027387232198409373
1922,9.0,300.23915,-2098.5652,0.019219995934024015,0.0,0.0,0.0,0.0,0.002933243131248736,0.3279528032814217,0.12574823842288488,0.18421038805514983,0.00025295488824470376,-0.006307107375263034,0.01933713037992618
1923,9.0,299.84611,-2207.959,0.019230005608721568,0.0,0.0,0.0,0.0,0.002934770749134452,0.33019723331292966,0.15236302548705988,0.18860414446377982,-0.007414508674555034,-0.012677858205207186,0.026381642269165374
1924,9.0,299.71412999999995,-2239.4793,0.019239982248189014,0.0,0.0,0.0,0.0,0.002936293325376982,0.37617171381025766,0.13368864375904188,0.17088543996507982,-0.017755396311321184,0.001028006162531309,0.02344542383788318
1925,9.0,300.11252,-2070.1242,0.019249991922886345,0.0,0.0,0.0,0.0,0.002937820943262698,0.34038447008333167,0.12279308437373387,0.16608850120915883,0.0029851414898355274,-0.002070592690026588,0.03744053453084307
1926,9.0,300.59207000000004,-1922.3866,0.019260001597583898,0.0,0.0,0.0,0.0,0.0029393485611484416,0.3249639991964497,0.12271546941607389,0.13667804566157288,-0.0016809294295448184,0.0034417512989994067,0.042844520540924955
1927,9.0,300.22083,-2087.7241,0.019269978237051344,0.0,0.0,0.0,0.0,0.0029408711373909713,0.3163211278309647,0.13900738605146087,0.1792874719142958,-0.012956438147950887,-0.008212259730036931,0.032214647490838175
1928,9.0,300.63268999999997,-2268.9621,0.019279987911748675,0.0,0.0,0.0,0.0,0.0029423987552766873,0.3368186605964137,0.15508794884848884,0.1978012129714598,-0.0006908742961964843,-0.006006473436142775,0.03039726083322607
1929,9.0,300.69379,-2266.9617,0.019289997586446228,0.0,0.0,0.0,0.0,0.002943926373162431,0.34512484921867065,0.14283231398645185,0.20114258756122783,-0.003787237057771196,0.008111001797193552,0.015835149569807586
1930,9.0,300.44862,-2160.4877,0.01930000726114378,0.0,0.0,0.0,0.0,0.002945453991048147,0.3576043515578017,0.13197040463696488,0.16715955722736384,-0.0018395441068238681,0.008512322297425802,0.011785617524899887
1931,9.0,299.58722,-2154.9314,0.019309983900611005,0.0,0.0,0.0,0.0,0.0029469765672906767,0.33924603293347666,0.13705709239148187,0.17874223190298483,0.004561169440502376,-0.014527194664972487,0.0076143177439246534
1932,9.0,299.77871,-2230.9344,0.01931999357530856,0.0,0.0,0.0,0.0,0.0029485041851763927,0.35557802361031865,0.14147077942957886,0.18109953799563283,-0.0038878169236476563,-0.012889078294552988,0.015952204274359987
1933,9.0,299.94705,-2261.8388,0.01933000325000589,0.0,0.0,0.0,0.0,0.0029500318030621364,0.3499009150225317,0.14261244884725288,0.19502914308287783,0.012802768637784886,-0.01194766458689269,0.015196222427750383
1934,9.0,300.28277,-2180.8902,0.019339979889473335,0.0,0.0,0.0,0.0,0.002951554379304666,0.32844988351547966,0.15547506104919384,0.17901122953953283,-0.008286671398830792,-0.00927948951321431,0.04238302261062866
1935,9.0,299.95294,-1960.2461,0.01934998956417089,0.0,0.0,0.0,0.0,0.00295308199719041,0.3151519081430717,0.1180323287788839,0.16268162000042585,-0.008974508427190022,-0.0003065679471384007,0.04273360613197855
1936,9.0,299.97807,-1959.7133,0.01935999923886822,0.0,0.0,0.0,0.0,0.002954609615076126,0.32316378814128266,0.13752757481041486,0.13501253607469987,-0.00898404989940669,0.0027520452295057172,0.05350893528692075
1937,9.0,300.33804,-2134.4939,0.019369975878335888,0.0,0.0,0.0,0.0,0.0029561321913186833,0.34114613018350165,0.1256370443569109,0.18204968287940482,0.00912225032294601,0.023791257242764277,0.028731352025813676
1938,9.0,300.17675,-2176.324,0.01937998555303322,0.0,0.0,0.0,0.0,0.0029576598092043715,0.36208812510531563,0.13538981974943487,0.16407021846746986,0.008026534431757272,0.017608948234617883,0.03543904640956157
1939,9.0,300.6725,-2134.873,0.01938999522773055,0.0,0.0,0.0,0.0,0.0029591874270900875,0.3200276372267687,0.13711462473215988,0.19180584252726282,0.0024690979761809975,-0.00892902910175156,0.023083680379931876
1940,9.0,299.95546,-2212.9215,0.019400004902428103,0.0,0.0,0.0,0.0,0.0029607150449758313,0.34535973072435167,0.13250899772761987,0.1948041508981728,-0.007937880418232804,0.0012187758251088088,0.019939876387412583
1941,9.0,300.14937000000003,-2383.5909,0.01940998154189555,0.0,0.0,0.0,0.0,0.002962237621218361,0.35572527924735164,0.15680517472046585,0.2120216512349078,0.009618370907834302,0.008977484444058732,0.0038634719687949963
1942,9.0,300.55265,-2374.0917,0.019419991216593102,0.0,0.0,0.0,0.0,0.0029637652391041047,0.3789164563436427,0.15413932383986684,0.1886088256792418,0.003094231136676837,0.01023724775558769,0.02056428770853718
1943,9.0,299.81947,-2246.5918,0.019430000891290433,0.0,0.0,0.0,0.0,0.002965292856989793,0.3434014323885827,0.14111259551922886,0.19839378189494183,0.005492861824053255,-0.01836819477304968,0.021965615636587478
1944,9.0,299.45111,-1982.8844,0.0194399775307581,0.0,0.0,0.0,0.0,0.002966815433232378,0.32792821170149467,0.12729186415522886,0.14752726911980787,-0.0035671374524990566,-0.004666697817217216,0.02990790561793047
1945,9.0,299.46706,-1933.5282,0.019449987205455432,0.0,0.0,0.0,0.0,0.0029683430511180664,0.29266989465926974,0.12060778761806189,0.17446662045601483,-0.0027466652767747578,-0.005536729980507704,0.02727997562232397
1946,9.0,299.38646,-2151.616,0.019459996880152985,0.0,0.0,0.0,0.0,0.00296987066900381,0.3611130745340857,0.1183138096566639,0.17461066409023085,-0.007523865414122702,-0.002488083851254758,0.03813658871353826
1947,9.0,299.83425,-2232.2254,0.019470006554850317,0.0,0.0,0.0,0.0,0.002971398286889526,0.3609797814834307,0.13188177565071788,0.18567923593011385,-0.016034903721021787,-0.01129802941777869,0.027189505560645272
1948,9.0,300.54748,-2121.8193,0.019479983194317985,0.0,0.0,0.0,0.0,0.0029729208631320836,0.35175287276030565,0.12889628489357285,0.16433091758569884,-0.0018767226847931082,-0.0008874563970451274,0.04412687770848376
1949,9.0,300.42397,-2229.4858,0.019489992869015316,0.0,0.0,0.0,0.0,0.0029744484810177996,0.3479843929883857,0.14549053509379786,0.18423310512239183,0.008053773735520582,0.012517586357389589,0.010505506732812791
1950,9.0,300.30604,-2382.9499,0.019500002543712647,0.0,0.0,0.0,0.0,0.002975976098903488,0.3714726651464977,0.15459582340741987,0.1982887686545778,0.002409743203873138,0.013634535512373886,0.02134661912399728
1951,9.0,300.22182999999995,-2369.0865,0.019509979183180315,0.0,0.0,0.0,0.0,0.002977498675146073,0.3431202960158367,0.15467137133487585,0.22235147255938179,0.011613677088930689,-0.008820005721466793,0.02083738495498978
1952,9.0,300.7117,-2116.8768,0.019519988857877646,0.0,0.0,0.0,0.0,0.0029790262930317613,0.33722197466621767,0.13944992303263587,0.16680580121995084,0.012090984760537288,0.0025070829999048277,0.030241261861080174
1953,9.0,299.99102999999997,-1940.0991,0.0195299985325752,0.0,0.0,0.0,0.0,0.002980553910917505,0.3221519160614187,0.11216469877479389,0.15542507742176084,0.004351182273878256,0.0034139985814104264,0.014170703895539587
1954,9.0,299.89657,-1963.8624,0.019539975172042645,0.0,0.0,0.0,0.0,0.0029820764871600347,0.3313761194067767,0.12311456836546188,0.14247443405113186,0.007274865382873313,-0.002523932538467748,0.04258970637927676
1955,9.0,299.57611,-2087.2269,0.019549984846740198,0.0,0.0,0.0,0.0,0.0029836041050457784,0.3371778273593607,0.1329866539572609,0.16430037822768484,-0.017561748005209585,-0.012185371033852489,0.03484561723674467
1956,9.0,299.6734,-2178.8272,0.01955999452143753,0.0,0.0,0.0,0.0,0.0029851317229314944,0.3388590321902827,0.13749527239722686,0.18595475889730584,0.0033378572946958667,-0.004106540129983956,0.04517909639407966
1957,9.0,299.7498,-2213.2151,0.019570004196135082,0.0,0.0,0.0,0.0,0.0029866593408172104,0.3386560883277537,0.13939795343500688,0.19470809478869283,0.006856396435298644,-0.0012688877300044688,0.03225806019137267
1958,9.0,300.25421,-2180.6029,0.01957998083560253,0.0,0.0,0.0,0.0,0.002988181917059768,0.36054150015267566,0.1270105960599699,0.17529674586544183,0.007855920238843963,0.005171659819828085,0.027360566495527677
1959,9.0,299.84663,-2298.5417,0.01958999051030008,0.0,0.0,0.0,0.0,0.002989709534945484,0.37568443170466664,0.13923760660668189,0.18377724390240183,0.0015473732378388485,-0.009526831259350043,0.026908556639167774
1960,9.0,300.09222,-2292.7664,0.019600000184997413,0.0,0.0,0.0,0.0,0.0029912371528312,0.36945600360496866,0.14157575213993887,0.18591198961058483,-0.0011706648865106289,-0.0006167029196638394,0.012180390909610988
1961,9.0,300.31297,-2122.4099,0.01960997682446486,0.0,0.0,0.0,0.0,0.0029927597290737573,0.34687763003665667,0.12284236885859788,0.17543962426204285,0.01107012920528669,0.007729567647398932,0.00902916769720947
1962,9.0,300.67652999999996,-2110.6554,0.01961998649916219,0.0,0.0,0.0,0.0,0.0029942873469594733,0.3231032667128097,0.13325058534330886,0.18523267634604182,-0.002877555911442657,-0.001122290604211459,0.014832310614585086
1963,9.0,299.6888,-2158.0258,0.019629996173859743,0.0,0.0,0.0,0.0,0.0029958149648451893,0.3286546410956877,0.13229327678132988,0.19503802928625483,-0.007654108581976703,-0.006295059831574035,0.029812239609738972
1964,9.0,299.84562999999997,-2166.2046,0.019640005848557296,0.0,0.0,0.0,0.0,0.0029973425827309053,0.3462098880882557,0.14364278234393887,0.16861943783894284,-0.00858510790245918,-0.010930123372719189,0.026140762322892374
1965,9.0,299.24631,-2215.3449,0.01964998248802452,0.0,0.0,0.0,0.0,0.0029988651589734627,0.35261362872025565,0.13459848155383586,0.1861974018987528,0.007039644033108774,0.0008238518916978512,0.04350811120366625
1966,9.0,299.31092,-2239.8849,0.019659992162722073,0.0,0.0,0.0,0.0,0.0030003927768591787,0.36876456173672867,0.14667848977603987,0.16542602816127783,0.005643683290838175,-0.004627277524726735,0.03667289726833317
1967,9.0,299.90894,-2124.9889,0.019670001837419404,0.0,0.0,0.0,0.0,0.0030019203947448947,0.3283816512537457,0.14185142709464588,0.17571049641127584,2.744551029116097e-05,-0.0033105176791726567,0.03431963505683426
1968,9.0,299.89092999999997,-2216.6573,0.019679978476887072,0.0,0.0,0.0,0.0,0.003003442970987452,0.33694400976628464,0.13971353017865187,0.19715092932228181,-0.013009793871716687,0.003335940630806707,0.025951558131719375
1969,9.0,299.68352999999996,-2337.5565,0.019689988151584403,0.0,0.0,0.0,0.0,0.003004970588873168,0.34791732596426667,0.15339977285687884,0.20924170839304881,-0.008355971322195161,0.005187930285958855,0.01002869818820545
1970,9.0,300.49619,-2237.7906,0.019699997826281956,0.0,0.0,0.0,0.0,0.003006498206758912,0.3691365967759456,0.14034695334616587,0.17074891464660583,-0.0015775384025909186,0.012366030486932187,0.02340654036529568
1971,9.0,300.46693999999997,-2135.0778,0.019709974465749402,0.0,0.0,0.0,0.0,0.0030080207830014416,0.34751601812966065,0.13731615004454886,0.16417817013312386,-0.0035884482299272666,0.0025165512141392676,0.024054186524463374
1972,9.0,300.50991,-2179.1546,0.019719984140446956,0.0,0.0,0.0,0.0,0.0030095484008871853,0.36114778848251167,0.14940009980964183,0.15186068648498285,0.013486517911265688,-0.0012391100320906388,0.02626061663747108
1973,9.0,300.1052,-2181.8678,0.019729993815144287,0.0,0.0,0.0,0.0,0.0030110760187728736,0.33157381463378766,0.13801103696312886,0.19364847836411683,0.009149679509778061,0.01700888632664638,0.015167177613633885
1974,9.0,299.18108,-2230.3589,0.019740003489841618,0.0,0.0,0.0,0.0,0.0030126036366585895,0.33366033976971166,0.14657281792311086,0.1977402659779448,0.01840903280508008,0.003997456663968257,0.03315014989741507
1975,9.0,299.49849,-2189.6,0.019749980129309286,0.0,0.0,0.0,0.0,0.003014126212901147,0.3333158651332147,0.14133941155411386,0.1909284591331718,0.0007475847187908674,0.0037244988407294163,0.028791783275027773
1976,9.0,299.88874,-2093.5621,0.019759989804006617,0.0,0.0,0.0,0.0,0.003015653830786863,0.3438408485594497,0.12304062137316388,0.16950912208924784,-0.012878648911273686,0.005866419676845544,0.03708210440071876
1977,9.0,299.29553,-2202.8805,0.01976999947870417,0.0,0.0,0.0,0.0,0.0030171814486726067,0.35794001091842864,0.13070173445175687,0.18097893083622982,-0.01247290202797959,-0.005097473193881435,0.01997068425670308
1978,9.0,300.16499,-2287.3493,0.019779976118171616,0.0,0.0,0.0,0.0,0.0030187040249151365,0.38160553091653365,0.14101514112461086,0.17267638991433282,-0.011884231077632288,-0.014311505129435586,0.02307600703692458
1979,9.0,299.37015,-2393.4771,0.01978998579286917,0.0,0.0,0.0,0.0,0.00302023164280088,0.35638816772777365,0.15240144793085186,0.2187676677506878,-0.0055018433742646655,-0.01090438276717879,0.007046311117441764
1980,9.0,299.90307,-2258.7456,0.0197999954675665,0.0,0.0,0.0,0.0,0.0030217592606865684,0.34857422613659766,0.13367048631724987,0.20435754906851983,0.00981631346919471,0.005817421739109823,0.012889603158104787
1981,9.0,300.30692,-2176.0097,0.019810005142264053,0.0,0.0,0.0,0.0,0.003023286878572312,0.3416896071396387,0.13260958306504686,0.18715340336810282,-0.006632572933258984,0.008788044672237483,-0.00034803838908621464
1982,9.0,300.04674,-2338.7101,0.0198199817817315,0.0,0.0,0.0,0.0,0.003024809454814842,0.3696037152045466,0.15091002484365987,0.19039573276059582,0.0098391925551277,0.005102790730406235,0.016889126244326987
1983,9.0,299.92607999999996,-2382.8241,0.019829991456429052,0.0,0.0,0.0,0.0,0.0030263370727005856,0.3713109099005336,0.16392794802092886,0.18908016936075983,0.002649433898503767,-0.0034257410354943166,0.03150949533549507
1984,9.0,300.5488,-2196.0984,0.019840001131126384,0.0,0.0,0.0,0.0,0.0030278646905863016,0.34695473836926666,0.15395567225924184,0.16664867652694385,0.02071546664995738,-0.0016580068751825385,0.04167935587993216
1985,9.0,300.36282,-2169.3228,0.01984997777059383,0.0,0.0,0.0,0.0,0.0030293872668288313,0.3189187363173287,0.14334459297200985,0.1971566339203448,0.003372286215868737,-0.01967160423793618,0.04121249279035636
1986,9.0,299.96395,-2185.1757,0.019859987445291383,0.0,0.0,0.0,0.0,0.003030914884714575,0.3364892023263987,0.14250463903661287,0.18524500759975882,-0.0023511376286892175,-0.015545400571211586,0.03479951537044477
1987,9.0,300.19725,-2154.7667,0.019869997119988714,0.0,0.0,0.0,0.0,0.0030324425026002633,0.3461482723496747,0.13395782378060786,0.17488917614521785,-0.013922071572751486,-0.0036261235030955264,0.04316709782951086
1988,9.0,299.9915,-2146.8752,0.019880006794686267,0.0,0.0,0.0,0.0,0.003033970120486007,0.35457999252682065,0.1271918867678619,0.17082458416407384,8.573136149877662e-05,0.006281247510185864,0.028322814651744174
1989,9.0,299.32473,-2157.7094,0.019889983434153713,0.0,0.0,0.0,0.0,0.0030354926967285367,0.36005285015944966,0.13167636959044587,0.16416055984638583,-0.0026127962947629173,0.018771400425092982,0.028258747861171274
1990,9.0,299.63011,-2292.389,0.019899993108851266,0.0,0.0,0.0,0.0,0.0030370203146142805,0.3717728202236206,0.14378493120046787,0.1812712534900798,0.0030682309364608172,-0.007751180170706922,0.018834461058316584
1991,9.0,299.60613,-2432.7884,0.019910002783548597,0.0,0.0,0.0,0.0,0.0030385479324999964,0.36328550301348767,0.16263594268591783,0.21358548117424578,0.01333779914108829,0.005037602069322615,0.029055996344603572
1992,9.0,300.14639,-2345.2937,0.019919979423016043,0.0,0.0,0.0,0.0,0.003040070508742526,0.36310251004542765,0.15044684795794785,0.1993613546804338,0.014317891644815886,-0.0027369906634949477,0.02121587135759348
1993,9.0,300.05212,-2178.0116,0.019929989097713374,0.0,0.0,0.0,0.0,0.00304159812662827,0.3440979405073227,0.13164706639755389,0.18631612441296982,0.008960011250059262,-0.012460269838982888,0.028271750899704573
1994,9.0,300.44478,-2156.0763,0.019939998772410927,0.0,0.0,0.0,0.0,0.003043125744513986,0.35513017719861967,0.1329612213797509,0.16730194926391684,-0.017154704161787486,-0.01065023127109599,0.031090261080119874
1995,9.0,300.03553999999997,-2205.5485,0.01994997541187815,0.0,0.0,0.0,0.0,0.003044648320756488,0.36734536311666466,0.13032076254665786,0.17276554579063183,-0.017292045146591984,-0.007785721157340852,0.025594715764501775
1996,9.0,300.04106,-2221.9007,0.019959985086575704,0.0,0.0,0.0,0.0,0.0030461759386422316,0.37304984972215366,0.12122315466879388,0.18112931741607183,-0.003268099990236357,0.004321709260269496,0.015232158355796986
1997,9.0,299.90057,-2135.6152,0.019969994761273258,0.0,0.0,0.0,0.0,0.0030477035565279753,0.33471313702111466,0.12507157987360387,0.18938896746123582,-0.018971721996363183,-0.008005816912262613,0.021974515012215777
1998,9.0,299.88267,-2157.2028,0.01998000443597059,0.0,0.0,0.0,0.0,0.0030492311744136913,0.35874446057032167,0.11848997331904988,0.17850135195671182,0.00947129137366868,-0.009006109367333792,0.006719068521420434
1999,9.0,299.51416,-2317.5475,0.019989981075438035,0.0,0.0,0.0,0.0,0.003050753750656221,0.36398073443710166,0.14230717685712488,0.19818864941219683,-0.018079755906832983,0.00962433915357332,0.04170796195675536
2000,9.0,299.93327,-2508.1901,0.019999990750135588,0.0,0.0,0.0,0.0,0.0030522813685419647,0.38730210403874166,0.16973025379107182,0.2053948030633888,0.009533312108314651,0.022228785058560276,0.01852751517902338
2001,9.0,299.88723999999996,-2385.0041,0.02001000042483314,0.0,0.0,0.0,0.0,0.0030538089864276807,0.37682159215939565,0.15485309774031084,0.19330699281541483,-0.01148222714020759,0.009757181105283801,0.03354133739002227
2002,9.0,299.34382,-2223.6416,0.020019977064300365,0.0,0.0,0.0,0.0,0.0030553315626701827,0.35597171180417264,0.14633384288702586,0.17362595724554783,-0.0032698708474361267,0.0038367574272584765,0.013701139481197187
2003,9.0,299.84492,-2079.1794,0.020029986738997918,0.0,0.0,0.0,0.0,0.0030568591805559264,0.3105468992210927,0.13642090305119486,0.18505080808559282,0.002184515134544858,0.0027115205957312476,0.04759715594947355
2004,9.0,299.73299,-2097.8772,0.02003999641369547,0.0,0.0,0.0,0.0,0.00305838679844167,0.3325091154035947,0.13609338008887087,0.16909979944635084,-0.0012327730646402289,0.0005230432175978466,0.029663951470854075
2005,9.0,299.85165,-2145.9022,0.020050006088393024,0.0,0.0,0.0,0.0,0.003059914416327414,0.31504292296231573,0.14209802177148287,0.19515974088826682,0.0017181128711145385,-0.0016619504445717383,0.047009775879753656
2006,9.0,300.01802000000004,-2190.7033,0.02005998272786025,0.0,0.0,0.0,0.0,0.003061436992569916,0.35335458812088266,0.13861346481008385,0.17395105854013285,-0.0005644886221356895,-0.02658135285062527,0.03374521749564367
2007,9.0,299.96518,-2180.6358,0.020069992402558023,0.0,0.0,0.0,0.0,0.0030629646104556874,0.3553380758541376,0.14046976939078687,0.16705097734664784,-0.005648401895228865,0.0060559858009542646,0.03454644501221867
2008,9.0,300.26165,-2257.7305,0.020080002077255354,0.0,0.0,0.0,0.0,0.0030644922283413756,0.37573647222980266,0.13339447699000986,0.17716276751460383,0.002321097498999488,0.01126532778405129,0.015174831704889287
2009,9.0,300.27706,-2423.0593,0.0200899787167228,0.0,0.0,0.0,0.0,0.0030660148045839053,0.37698491794301464,0.15023814883485087,0.20932645663141278,-0.007437287448728122,0.005981057678584434,0.013099987316118087
2010,9.0,300.54299,-2454.1346,0.02009998839142013,0.0,0.0,0.0,0.0,0.0030675424224696213,0.3975772605203206,0.14484603710269087,0.2035723511685268,-0.008355204798494512,-0.006718008357840803,0.00999101247856116
2011,9.0,300.26469,-2298.8173,0.020109998066117685,0.0,0.0,0.0,0.0,0.003069070040355365,0.3554894756840796,0.14725055051749786,0.1960430416629418,0.005090158034784485,0.0019623211413160183,0.025559284435004975
2012,9.0,299.7761,-2063.5674,0.02011997470558513,0.0,0.0,0.0,0.0,0.0030705926165978947,0.34497333793121765,0.12220072823277288,0.16009890629053186,0.0070296231922697934,0.015333108463259984,0.025360122021849178
2013,9.0,299.80183,-2080.8424,0.020129984380282462,0.0,0.0,0.0,0.0,0.0030721202344836107,0.3390865676327387,0.1207062552627799,0.17273129793725184,-0.001077503835216349,0.004185062554433516,0.01990393843286578
2014,9.0,299.40117999999995,-2168.7481,0.020139994054980237,0.0,0.0,0.0,0.0,0.003073647852369382,0.34488039249954466,0.12235900803089389,0.1920058783620048,-0.0036062239804065966,-0.006711422232190804,0.026241822874616273
2015,9.0,299.02851,-2198.7714,0.020150003729677568,0.0,0.0,0.0,0.0,0.0030751754702550704,0.33807246640265465,0.14368326168543386,0.18661586405755182,-0.003889896720802916,0.0010775565242215491,0.02330011364104218
2016,9.0,299.41539,-2088.9824,0.020159980369145014,0.0,0.0,0.0,0.0,0.0030766980464976,0.3324366173589397,0.13116776870275088,0.17139410164778085,-0.0038975553716837663,0.012012059670497989,0.03318063048692327
2017,9.0,299.68678,-2213.3039,0.020169990043842345,0.0,0.0,0.0,0.0,0.003078225664383316,0.3240296914117407,0.15963081514183486,0.1891286229805418,-0.013743090061837385,-0.013554070282182588,0.03555001046776287
2018,9.0,299.35961000000003,-2509.5201,0.02017999971854012,0.0,0.0,0.0,0.0,0.0030797532822690876,0.39496335897234863,0.17909173225997785,0.18877634631827483,-0.013857594415888087,-0.02910682704912017,0.026411542266366276
2019,9.0,300.39873,-2523.1708,0.020189976358007344,0.0,0.0,0.0,0.0,0.0030812758585115896,0.3896986938377666,0.16903507302996285,0.20824714262489283,-0.002029707541866538,-0.008543935903195821,0.029036346385414268
2020,9.0,300.32121,-2328.7854,0.020199986032704897,0.0,0.0,0.0,0.0,0.0030828034763973333,0.37000246964890066,0.15525554041502884,0.1826346017646318,0.007173095252104383,0.0027730984387585073,0.0026697134913052077
2021,9.0,300.58345,-2094.7644,0.02020999570740245,0.0,0.0,0.0,0.0,0.003084331094283077,0.3291577603003417,0.1265550185500079,0.18104329248258183,0.021461238988559377,0.004614225748863625,0.024484103475642876
2022,9.0,300.16982,-2177.8143,0.02022000538209978,0.0,0.0,0.0,0.0,0.0030858587121687653,0.3429328447473367,0.13855466590678087,0.18051363625780883,0.007266739117071312,-0.012458555419813687,0.014973889011307785
2023,9.0,299.74604,-2378.8852,0.020229982021567228,0.0,0.0,0.0,0.0,0.003087381288411295,0.3456603822940237,0.17250697449761282,0.20495435337741982,0.014641970570049985,0.00883619259446431,0.06101442226940464
2024,9.0,299.47275,-2312.0984,0.02023999169626478,0.0,0.0,0.0,0.0,0.0030889089062970387,0.38655999966550164,0.13744393101465988,0.17881622955778784,0.0004518367729778176,0.02111622935600958,0.026168992483928476
2025,9.0,300.10055,-2099.695,0.020250001370962112,0.0,0.0,0.0,0.0,0.0030904365241827825,0.32430323854123766,0.14052285356352587,0.17342874837858485,-0.003050137734725157,0.003518702476518897,0.04485581185692396
2026,9.0,300.4522,-2129.9297,0.020259978010429558,0.0,0.0,0.0,0.0,0.0030919591004252844,0.3449441360633357,0.13250083093181386,0.17000047746024086,-0.0074755742183317325,-0.020758801330234177,0.016134472768598484
2027,9.0,299.93601,-2431.5638,0.02026998768512689,0.0,0.0,0.0,0.0,0.003093486718311028,0.38156826357785567,0.14886348255668186,0.2087029329173758,-0.007026615460672954,-0.007617404610354303,0.01792432232824288
2028,9.0,299.82237000000003,-2555.6316,0.020279997359824442,0.0,0.0,0.0,0.0,0.003095014336196772,0.39309209882016966,0.16572421753320685,0.2180318759255708,-0.005182619943509765,0.013987571098965788,0.011742996172693488
2029,9.0,299.89322999999996,-2282.3227,0.020290007034521995,0.0,0.0,0.0,0.0,0.003096541954082488,0.3543797540420587,0.14575086944199087,0.1936384775856298,-0.015506694417391586,-0.0013022200105941087,0.02058432168951438
2030,9.0,300.59622,-2122.8732,0.02029998367398922,0.0,0.0,0.0,0.0,0.00309806453032499,0.34930000705072667,0.1280941353194069,0.16790630228606185,-0.0023996141479234777,-0.002963024266652727,0.01918958799311488
2031,9.0,300.47456,-2315.6951,0.020309993348686772,0.0,0.0,0.0,0.0,0.0030995921482107336,0.35562083342704365,0.15855642553080085,0.1897362184030068,0.0025870893291258376,0.00902924551481715,0.025777492910290477
2032,9.0,300.06108,-2428.0936,0.020320003023384325,0.0,0.0,0.0,0.0,0.0031011197660964773,0.38313451518493263,0.13721624358468887,0.2177290560006848,0.01747483242488168,0.00982229833223537,0.013749472524217286
2033,9.0,299.43223,-2240.2955,0.02032997966285177,0.0,0.0,0.0,0.0,0.003102642342339007,0.34930550899876966,0.13805184054465586,0.1936365524104398,-0.0006690961470271484,-0.010145729993305591,0.024367671919901975
2034,9.0,300.0085,-2152.3131,0.020339989337549103,0.0,0.0,0.0,0.0,0.003104169960224723,0.3253796039899667,0.14561901520647785,0.1832508199454478,-0.007822253585721322,-0.014631589822775485,0.03179205329813137
2035,9.0,299.94588999999996,-2152.2294,0.020349999012246656,0.0,0.0,0.0,0.0,0.0031056975781104668,0.34128820811252364,0.13732614069053486,0.17560964762882283,-0.003441482990372927,-0.005614299341913204,0.046788945113209364
2036,9.0,299.86339,-2344.0099,0.0203599756517141,0.0,0.0,0.0,0.0,0.0031072201543529965,0.38215853242361064,0.15664268993442984,0.17371925731475582,-0.003800916744721277,0.012685180963679887,0.022936774314183377
2037,9.0,299.98215,-2404.5785,0.020369985326411433,0.0,0.0,0.0,0.0,0.0031087477722386847,0.37333942646823265,0.14671316319446187,0.2108792320121598,-0.006279438250807305,-0.005663675829886285,0.02870506426521927
2038,9.0,299.86503,-2230.9082,0.020379995001108986,0.0,0.0,0.0,0.0,0.0031102753901244284,0.3632966690295897,0.13318968901229888,0.18165403911285785,-0.006877879161268822,-0.014861084890924884,0.001201627377766389
2039,9.0,300.79771,-2115.6432,0.02039000467580654,0.0,0.0,0.0,0.0,0.003111803008010172,0.3372465561136437,0.1268258400367359,0.17903029890641484,0.002070928075809688,0.002724972504058847,0.025242064199697774
2040,9.0,300.01187000000004,-2281.4632,0.020399981315273985,0.0,0.0,0.0,0.0,0.003113325584252702,0.35404506740152764,0.13640565363718987,0.2030571337576788,-0.003144453485833397,0.014605244306925386,0.015185902475481884
2041,9.0,300.20717,-2442.9203,0.020409990989971316,0.0,0.0,0.0,0.0,0.003114853202138418,0.3698251610139016,0.16473809213838386,0.2080235081953218,-0.006122944812612604,0.0073185826663878725,0.03825469821144476
2042,9.0,300.21411,-2373.0432,0.02042000066466887,0.0,0.0,0.0,0.0,0.003116380820024134,0.37165385452937966,0.14899042252920985,0.2007016109852068,-0.011676564456387189,-0.0016541185279237884,0.036000178235440966
2043,9.0,299.9443,-2256.2835,0.020429977304136315,0.0,0.0,0.0,0.0,0.0031179033962666913,0.33877898543238266,0.15952864913425183,0.18754619990186883,0.013700168787601387,0.012945778756898887,0.03517590333209136
2044,9.0,299.95055,-2135.8364,0.02043998697883387,0.0,0.0,0.0,0.0,0.0031194310141524073,0.3487583843422727,0.13082896826681387,0.16965360142100683,0.007223169464096323,-0.002848235695948977,0.033458981435144364
2045,9.0,300.30908999999997,-2265.2355,0.0204499966535312,0.0,0.0,0.0,0.0,0.0031209586320381233,0.3535664283192897,0.14140732970831685,0.1936012609094568,0.002703603363424877,-0.006200577400824344,0.016762897573369184
2046,9.0,300.11984,-2451.0075,0.020460006328228753,0.0,0.0,0.0,0.0,0.003122486249923867,0.36405532990946365,0.17380257687047884,0.2071871715627818,-0.004027976668905346,-0.0069458111969981935,0.04042356916974566
2047,9.0,300.1886,-2322.3087,0.0204699829676962,0.0,0.0,0.0,0.0,0.0031240088261663967,0.37139834325166265,0.15041775754757686,0.1841077660850218,-0.004395060157533666,0.004379178475466266,0.015588493084714486
2048,9.0,299.52083,-2216.4489,0.02047999264239353,0.0,0.0,0.0,0.0,0.0031255364440521127,0.37423063059368766,0.1318337070659739,0.16768078321130483,-0.007520006957741902,0.017256720208355683,0.025147537084618678
2049,9.0,299.86377999999996,-2272.3865,0.020490002317091083,0.0,0.0,0.0,0.0,0.0031270640619378287,0.3689840519733907,0.1294543222536469,0.1923104005470588,-0.013329679968036986,-0.006337851207147214,0.006131485599030514
2050,9.0,300.19731,-2408.3701,0.02049997895655853,0.0,0.0,0.0,0.0,0.003128586638180386,0.3981686135436826,0.13560971528613688,0.1983060445687828,-0.009038504898205981,-0.0067920259736707735,0.017209228162918585
2051,9.0,299.69662999999997,-2522.0779,0.020509988631256082,0.0,0.0,0.0,0.0,0.003130114256066102,0.37569909343361363,0.16401062922908882,0.22693897251963277,-0.005564061388705104,-0.009805053220833412,0.03217923338659307
2052,9.0,300.02134,-2394.7749,0.020519998305953413,0.0,0.0,0.0,0.0,0.003131641873951818,0.37037492012065865,0.14827575696867787,0.20930108484890877,0.004366315569421796,-0.001083941823701729,0.03870950767783096
2053,9.0,300.19032000000004,-2234.8907,0.02052997494542108,0.0,0.0,0.0,0.0,0.0031331644501943756,0.33856182567095067,0.14746473132363586,0.1933244004521328,0.01002963037829745,0.0008219395645191192,0.03753138760105956
2054,9.0,300.05239,-2192.6909,0.020539984620118412,0.0,0.0,0.0,0.0,0.0031346920680800916,0.3534152615368707,0.13873283580436488,0.17437519489949183,0.012125313673925288,0.0014785095186425287,0.03327669470240407
2055,9.0,300.9679,-2248.7165,0.020549994294815965,0.0,0.0,0.0,0.0,0.0031362196859658353,0.3456545865034517,0.14326119235627885,0.19463789682176483,0.015241671760985884,-0.008696572810184912,0.027588067487480276
2056,9.0,300.30599,-2213.0599,0.020560003969513296,0.0,0.0,0.0,0.0,0.0031377473038515236,0.36907313692218263,0.13880088568108087,0.16484093702353383,0.005678339889308515,-0.007238790842213033,0.01010751293530886
2057,9.0,300.62321000000003,-2118.0834,0.020569980608980742,0.0,0.0,0.0,0.0,0.003139269880094109,0.3229468816923757,0.13230051138704388,0.18859708211058282,-0.003275489319240627,-0.0055454915541224056,0.025653600794063272
2058,9.0,300.95912999999996,-2228.1797,0.020579990283678296,0.0,0.0,0.0,0.0,0.003140797497979797,0.35640391363432766,0.13807092004403887,0.18283616760702484,-0.01047931016472739,-0.01081207770956899,0.02932173536882997
2059,9.0,300.06874,-2556.6367,0.020589999958375627,0.0,0.0,0.0,0.0,0.003142325115865513,0.3926412835856776,0.16938663028465883,0.2151258037112638,-0.015260770512120785,0.0016928638945226584,0.03225585029290457
2060,9.0,299.70872,-2551.9286,0.020599976597843073,0.0,0.0,0.0,0.0,0.0031438476921080705,0.4039272583670166,0.16244329344440483,0.20935203106393682,-0.006188465009128943,0.003049835786195357,0.027332626124020175
2061,9.0,299.66246,-2231.4406,0.020609986272540404,0.0,0.0,0.0,0.0,0.0031453753099937865,0.3623879356774046,0.13476611365037985,0.18114817400043284,0.00019473874560421782,0.0015802640453599186,0.017458128996983183
2062,9.0,299.69142999999997,-2210.8075,0.020619995947237957,0.0,0.0,0.0,0.0,0.00314690292787953,0.34661097300783966,0.14028909676545587,0.18513018609842682,0.014106502342703386,0.01238827031337709,0.028323007169263174
2063,9.0,300.07489,-2317.7157,0.02063000562193551,0.0,0.0,0.0,0.0,0.0031484305457652184,0.3473266923484757,0.14295711600126887,0.21424389108922579,0.007894247031826524,0.008441760675036913,0.022651523132781275
2064,9.0,300.3509,-2406.9505,0.020639982261402956,0.0,0.0,0.0,0.0,0.0031499531220078036,0.36063122344903065,0.16848243629292184,0.20253920083656282,0.012944665195038988,0.011120193892727689,0.037318929320091565
2065,9.0,299.88852,-2266.0109,0.020649991936100287,0.0,0.0,0.0,0.0,0.003151480739893492,0.36066219850458764,0.14082834846867587,0.18732019446706383,-0.007916482602621002,-0.00992070193954705,0.016303835496313285
2066,9.0,299.68102000000005,-2171.3644,0.02066000161079784,0.0,0.0,0.0,0.0,0.0031530083577792356,0.35704682082277767,0.13728644155161687,0.16570730638903786,0.006344719016325014,-0.0057150065733272346,0.02428513358000608
2067,9.0,299.77742,-2312.7401,0.020669978250265286,0.0,0.0,0.0,0.0,0.0031545309340217653,0.3767399140688346,0.14236542860537385,0.18390989860549384,0.000893538268650361,-0.009376387734852422,0.00933786447267547
2068,9.0,299.98517999999996,-2551.1489,0.02067998792496284,0.0,0.0,0.0,0.0,0.003156058551907509,0.3914140553295596,0.15738826975551287,0.22668321806189176,0.0011782311289823587,-0.003261316280816857,0.009678718867890181
2069,9.0,299.97148,-2564.2213,0.02068999759966017,0.0,0.0,0.0,0.0,0.003157586169793225,0.37831089755387864,0.17558831871421784,0.22556004045854278,0.0050115571847771856,-0.012424308579683789,0.02719437422737577
2070,9.0,299.77409,-2371.1175,0.02069997423912784,0.0,0.0,0.0,0.0,0.0031591087460357825,0.3706365716939817,0.15022567572611986,0.19989826577592282,-0.006547771600589745,0.008516829841820662,0.03430111993775697
2071,9.0,300.10635,-2328.1693,0.02070998391382517,0.0,0.0,0.0,0.0,0.0031606363639214985,0.37225736655394165,0.14947238507177585,0.1859755811868608,0.00999755493313185,0.015942024150605284,0.04376980432024336
2072,9.0,300.36458,-2381.9328,0.0207199935885225,0.0,0.0,0.0,0.0,0.0031621639818071867,0.3879965755247806,0.15025699528671085,0.18579451339399083,-0.015086494534671086,0.016912817044915086,0.030495637285435074
2073,9.0,300.79022000000003,-2294.0767,0.020730003263220054,0.0,0.0,0.0,0.0,0.0031636915996929305,0.3602647815503656,0.13993169305768285,0.1971455590967518,-0.013810834950273288,0.012247948346778387,0.018784590914894782
2074,9.0,300.48273,-2108.9499,0.0207399799026875,0.0,0.0,0.0,0.0,0.00316521417593546,0.3255332127051267,0.13301738583279385,0.18251750045057483,-0.00962582407159487,0.0069898947704239035,0.022684945187329775
2075,9.0,299.9864,-2121.4807,0.020749989577385053,0.0,0.0,0.0,0.0,0.003166741793821204,0.3147326353841927,0.14319707388995087,0.18694747041777882,-0.001705306099125608,0.01113239950343229,0.027299684350019077
2076,9.0,299.68618,-2251.7241,0.020759999252082384,0.0,0.0,0.0,0.0,0.00316826941170692,0.35970988526560166,0.14670067995322986,0.17805733563039083,0.0012768786255931087,-0.005276202405520635,0.032019500587828674
2077,9.0,299.83221000000003,-2474.8138,0.020769975891550052,0.0,0.0,0.0,0.0,0.0031697919879494774,0.38540036532355465,0.17250697449761282,0.1943742592782458,-0.0029182498593088376,-0.021662879811459777,0.03154967070196007
2078,9.0,299.57271000000003,-2483.8085,0.020779985566247383,0.0,0.0,0.0,0.0,0.0031713196058351933,0.4017557519452056,0.15298536369847984,0.20027464765806882,0.006732006914597353,-0.010764377947861389,0.035246193504778464
2079,9.0,299.63376,-2312.3317,0.020789995240944936,0.0,0.0,0.0,0.0,0.0031728472237209093,0.3696844408400137,0.13321038971184188,0.1999962774580958,0.009362192607576472,-0.0019055461037627583,0.01115236255690249
2080,9.0,299.84958,-2320.4287,0.020800004915642267,0.0,0.0,0.0,0.0,0.0031743748416066253,0.3594438665843477,0.14023180760480186,0.2056766993737098,0.009018862437067423,-0.006539846870232634,0.03297656799628387
2081,9.0,300.26652,-2421.8411,0.020809981555109935,0.0,0.0,0.0,0.0,0.0031758974178491828,0.3678239008738926,0.14782414126660684,0.2205311890197338,-0.016710575364705382,-0.008911222852444221,0.02118125265467688
2082,9.0,300.06245,-2326.5383,0.020819991229807266,0.0,0.0,0.0,0.0,0.0031774250357348988,0.37797956477117867,0.14780465646718385,0.1814253080352838,0.0001167594941357649,0.004586733740525376,0.030944284164713072
2083,9.0,299.79888,-2131.857,0.020830000904504598,0.0,0.0,0.0,0.0,0.0031789526536206147,0.3528823021167717,0.12285385911473187,0.17229513429920582,0.00012660181043962587,0.010836488930978189,0.03815731575758387
2084,9.0,300.28192,-2160.4003,0.020839977543972266,0.0,0.0,0.0,0.0,0.003180475229863172,0.36366639385857863,0.13089853801867987,0.16214279386224784,0.0013180331969547487,0.0018179530644179983,0.014690457627085287
2085,9.0,300.71106000000003,-2336.2132,0.020849987218669597,0.0,0.0,0.0,0.0,0.003182002847748888,0.3478755091326397,0.15128125941529785,0.2109936988759568,-0.0005212970735680154,-0.007357497043103423,0.02055097157572298
2086,9.0,300.05041,-2535.6222,0.02085999689336715,0.0,0.0,0.0,0.0,0.003183530465634604,0.3687168072595156,0.16624676074227784,0.23580228657687374,0.0026745519631827274,0.0036368609144052265,0.0050881820957644755
2087,9.0,299.90452999999997,-2539.6489,0.02087000656806448,0.0,0.0,0.0,0.0,0.00318505808352032,0.3671941152742377,0.1752987521006398,0.2294969629270868,0.011071199197392289,0.003910599548171126,0.017972039315202182
2088,9.0,299.84362999999996,-2372.0805,0.020879983207531927,0.0,0.0,0.0,0.0,0.0031865806597628776,0.38935345926369463,0.14485248137332685,0.1868473005128928,-0.0028792654670113773,-0.005266402858503495,0.016916961237824085
2089,9.0,299.58591,-2302.2077,0.02088999288222948,0.0,0.0,0.0,0.0,0.0031881082776485936,0.3819510390681326,0.12959361374489387,0.18826901199320484,-0.012683581041771988,-0.014029678733371487,0.03365046037279187
2090,9.0,299.50898,-2340.8814,0.020900002556927033,0.0,0.0,0.0,0.0,0.0031896358955343374,0.39789261434894363,0.13383110672310186,0.1798457828518968,-0.0037845552887315263,-0.0024712941957727476,0.027301405861938972
2091,9.0,300.00426,-2346.1721,0.020909979196394257,0.0,0.0,0.0,0.0,0.003191158471776867,0.36437088638810666,0.13964749666963489,0.2091593412924198,0.0006705657548396873,0.007077773140996823,0.03089183226003647
2092,9.0,300.31521000000004,-2300.9848,0.02091998887109181,0.0,0.0,0.0,0.0,0.003192686089662611,0.3474115115143466,0.14425853442970887,0.2077718776654878,0.014075168596610987,-0.0016370282411371083,0.028411701003516573
2093,9.0,300.32358999999997,-2202.6475,0.02092999854578914,0.0,0.0,0.0,0.0,0.003194213707548299,0.34057462672959865,0.14757545929456387,0.18139974373526083,-0.007803431553188733,-0.01120236239633709,0.03605754845610296
2094,9.0,300.07198999999997,-2299.3693,0.020939975185256587,0.0,0.0,0.0,0.0,0.0031957362837908287,0.37062791853812765,0.14884669300252487,0.17947623027542484,0.015142125004911385,-0.004920482516763815,0.027616026097489577
2095,9.0,300.37559,-2507.9426,0.02094998485995414,0.0,0.0,0.0,0.0,0.0031972639016765725,0.39260469512456664,0.16777356652296185,0.20197365529324782,0.0029933073737164373,0.007241555089810844,0.02098129180044228
2096,9.0,300.42781,-2507.2712,0.02095999453465147,0.0,0.0,0.0,0.0,0.0031987915195622885,0.40173005592266964,0.15815316212350186,0.2022646201919638,0.0007349909319729573,0.003775152935753587,0.012121665973565288
2097,9.0,300.12814,-2353.0551,0.020970004209349025,0.0,0.0,0.0,0.0,0.003200319137448032,0.35235637465236663,0.14591432694812287,0.21699930314616378,-0.016207288973784883,0.004803929776310956,0.022396873117649277
2098,9.0,300.74512000000004,-2232.8872,0.02097998084881647,0.0,0.0,0.0,0.0,0.003201841713690562,0.3404271988400487,0.13485475276912787,0.2034600121299398,-0.014572799025473286,0.00911200707371008,0.014385312293219786
2099,9.0,300.21788,-2326.6952,0.020989990523514024,0.0,0.0,0.0,0.0,0.0032033693315763057,0.36616664927533465,0.14864220899984387,0.19244837481317584,-0.002196980745225118,0.013495555088907589,0.02940117822967037
2100,9.0,300.23918,-2446.0208,0.021000000198211355,0.0,0.0,0.0,0.0,0.003204896949461994,0.4062562339868686,0.14460868326676588,0.1926643389394898,-0.013152406796791487,-0.005649024132115274,0.02305337508269098
2101,9.0,300.18503,-2384.4658,0.0210099768376788,0.0,0.0,0.0,0.0,0.0032064195257045236,0.39922093456753865,0.14778359099760488,0.17781354765633084,0.0005001584068017915,-0.018183800480101382,0.05073861629451155
2102,9.0,299.8164,-2206.8186,0.021019986512376354,0.0,0.0,0.0,0.0,0.0032079471435902673,0.37395155111864464,0.13832733311434486,0.15853888617156986,0.003916377809516396,-0.014356935210919184,0.03557749690322557
2103,9.0,299.97127,-2239.7489,0.021029996187073907,0.0,0.0,0.0,0.0,0.003209474761476011,0.32524023143871167,0.15555861365243984,0.2000289041113158,0.027199820446663272,-0.007411186430127154,0.05033989934041125
2104,9.0,299.79558,-2443.406,0.021040005861771238,0.0,0.0,0.0,0.0,0.003211002379361727,0.3639912418406387,0.15889475987169185,0.2198484003073478,-0.00014040120275651987,-0.008349639420995253,0.016193633402187182
2105,9.0,299.82934,-2383.8764,0.021049982501238906,0.0,0.0,0.0,0.0,0.0032125249556042845,0.35784153314120964,0.15985008246347485,0.2069472947341078,-0.007919713147914833,-0.004439794237523576,0.028742253583639576
2106,9.0,300.01887999999997,-2096.896,0.021059992175936237,0.0,0.0,0.0,0.0,0.0032140525734900005,0.3532099973316127,0.12212028630733389,0.16207372060293085,-0.013509258283259986,-0.0008920886421297942,0.008915293888696002
2107,9.0,300.01177,-2200.407,0.02107000185063357,0.0,0.0,0.0,0.0,0.0032155801913756887,0.35312453981817865,0.13686440261996485,0.17887985153156682,-0.006748373335512594,0.02486696813192868,0.022897846258591478
2108,9.0,300.42593999999997,-2485.1879,0.021079978490101015,0.0,0.0,0.0,0.0,0.0032171027676182185,0.4101927106253686,0.14639247967031288,0.1988498660299538,-0.009814366306477541,0.007886525356789452,0.013762842359286785
2109,9.0,299.93612,-2589.9264,0.021089988164798568,0.0,0.0,0.0,0.0,0.003218630385503962,0.3776261431362986,0.16606072802391786,0.24358609411007576,-0.0054582934796666245,-0.0036007939731206966,0.03614716840094776
2110,9.0,300.19628,-2458.6816,0.02109999783949612,0.0,0.0,0.0,0.0,0.003220158003389706,0.38432975513539364,0.15796071553200886,0.2050873323205438,0.0027346126668352576,-0.002748385471469528,0.022481803741031276
2111,9.0,300.78112999999996,-2292.199,0.021109974478963345,0.0,0.0,0.0,0.0,0.003221680579632208,0.35463576181232465,0.15008733668996685,0.19204815115617682,0.0030181188289151372,0.021625676307538078,0.040861653929981256
2112,9.0,299.96438,-2356.6712,0.02111998415366112,0.0,0.0,0.0,0.0,0.0032232081975179794,0.3928107901949066,0.14373832169586787,0.17982007669685984,-0.0026136895760510773,0.0004855136599264675,0.02907849860282437
2113,9.0,299.91432000000003,-2402.2508,0.02112999382835845,0.0,0.0,0.0,0.0,0.0032247358154036954,0.3829138394456536,0.14947921437744985,0.19783120517441982,-0.007705589387757463,-0.008676254511229652,0.04121913160501156
2114,9.0,300.06257,-2282.7745,0.021140003503056004,0.0,0.0,0.0,0.0,0.0032262634332894113,0.36470634309871364,0.14453769496475988,0.18466239892475983,0.0003605400309400307,-0.012726791092286489,0.024243649094411877
2115,9.0,299.16695,-2145.1620000000003,0.02114998014252345,0.0,0.0,0.0,0.0,0.003227786009531941,0.3061278115599627,0.14277143792044386,0.2031764439569538,0.005446215639799635,0.004502583826345426,0.033625294280058164
2116,9.0,299.80155,-2231.3926,0.021159989817221003,0.0,0.0,0.0,0.0,0.003229313627417685,0.34569071900201764,0.14130263057548387,0.1912942930817768,0.013148081232114587,-0.013269725959619989,0.011770814954188987
2117,9.0,300.08027999999996,-2526.5314,0.021169999491918334,0.0,0.0,0.0,0.0,0.0032308412453034008,0.38346740837278664,0.16406974223992282,0.22046532776323383,-0.0012998458642847989,-0.00929653623024669,0.017337204690298882
2118,9.0,299.92975,-2642.415,0.02117997613138578,0.0,0.0,0.0,0.0,0.0032323638215459305,0.4225632885787496,0.16486677490108384,0.2157981052851148,0.007932848111611152,0.0008278635616262723,0.0038297257755395063
2119,9.0,300.40447,-2468.3682,0.02118998580608311,0.0,0.0,0.0,0.0,0.0032338914394316742,0.38227837964543865,0.16837482913230184,0.19966909900080582,-0.0048319918391554655,0.01944973995628988,0.035482182492818766
2120,9.0,299.6579,-2432.348,0.021199995480780665,0.0,0.0,0.0,0.0,0.0032354190573173625,0.38497294603387167,0.14727740164514785,0.2071226984589188,0.0027012734961449373,-0.010646597756237388,0.03053118513869337
2121,9.0,300.10924,-2365.4925,0.021210005155478218,0.0,0.0,0.0,0.0,0.003236946675203106,0.3627683097649446,0.15003850816764785,0.2062438458521828,-0.01062031810164379,-0.015583811869252485,0.05811995886149334
2122,9.0,300.67489,-2271.355,0.02121998179494544,0.0,0.0,0.0,0.0,0.003238469251445636,0.3740479314681567,0.12630888996821688,0.19007837269677483,-0.002261385150731338,-0.012364242100505688,0.015893558371822086
2123,9.0,300.009,-2245.4849,0.021229991469642995,0.0,0.0,0.0,0.0,0.0032399968693313796,0.3657608324777837,0.13378624000867387,0.18302427748808983,-0.0013082251386367688,0.0024411240660951877,0.03409749010491027
2124,9.0,299.59117000000003,-2212.8194,0.021240001144340326,0.0,0.0,0.0,0.0,0.0032415244872170956,0.3755177014007116,0.12936771976759986,0.16775643246377084,-0.004527859755389965,0.00956003080417658,0.015525282490476085
2125,9.0,299.81709,-2298.2106,0.021249977783807772,0.0,0.0,0.0,0.0,0.0032430470634596253,0.3612180472444456,0.14289856027798986,0.19448202855888183,-0.009835436740982032,0.007833583444364491,0.03174529180601637
2126,9.0,299.58064,-2617.1174,0.021259987458505325,0.0,0.0,0.0,0.0,0.003244574681345369,0.3826061559202876,0.1798785412276298,0.2330536328981028,0.0015552426447404985,-8.321805947373301e-05,0.01870943207547718
2127,9.0,299.58588,-2644.1940000000004,0.021269997133202878,0.0,0.0,0.0,0.0,0.003246102299231113,0.36615193688388264,0.18853526372198182,0.24908174986995477,0.0014934963995466184,0.0022697717204840278,0.02031123862856318
2128,9.0,300.02287,-2412.1417,0.021279973772670102,0.0,0.0,0.0,0.0,0.0032476248754736148,0.37325264159716764,0.16072881348019885,0.19924939054438381,0.007445038811993124,-0.019725046087960482,0.02142234538347088
2129,9.0,299.34934,-2266.6646,0.021289983447367655,0.0,0.0,0.0,0.0,0.0032491524933593308,0.37097180548956665,0.14912543810503487,0.16891219619033584,0.003972319043562366,-0.015980649244417285,0.02973040649191267
2130,9.0,300.18771,-2290.9314,0.02129999312206521,0.0,0.0,0.0,0.0,0.0032506801112450745,0.39635916164760365,0.12292272972402889,0.17710406993631084,-0.005291245420480265,0.000930284432006925,0.016168382196445084
2131,9.0,300.51712000000003,-2346.561,0.02131000279676254,0.0,0.0,0.0,0.0,0.0032522077291307905,0.3718027313665726,0.14099307253743287,0.2005001667328258,0.001202614891313849,0.014812574529137285,0.04078239041440856
2132,9.0,300.19067,-2372.5194,0.021319979436229985,0.0,0.0,0.0,0.0,0.00325373030537332,0.3621435600182867,0.15302898411528484,0.2060141015245088,0.004984393368146325,0.007451452279826083,0.03579383694532667
2133,9.0,299.92974,-2322.5476,0.02132998911092754,0.0,0.0,0.0,0.0,0.003255257923259064,0.35095870759692765,0.15240475112617785,0.20263299739831983,0.006152787763832874,0.003981944716862347,0.04109354634786726
2134,9.0,300.31481,-2308.8305,0.02133999878562509,0.0,0.0,0.0,0.0,0.00325678554114478,0.38543315409679063,0.13717950313606286,0.17921414300455882,0.0004415399734741025,-0.005810766712453025,0.025629019346637274
2135,9.0,299.83865,-2562.6734,0.021349975425092316,0.0,0.0,0.0,0.0,0.0032583081173873096,0.4062952846457226,0.16323924192795886,0.2094541970715198,0.004818520476425945,-0.0014271073410695287,0.028927390588911174
2136,9.0,299.75982,-2709.4501,0.02135998509978987,0.0,0.0,0.0,0.0,0.0032598357352730256,0.4271072390497026,0.1892902870339968,0.2072076493473028,-0.01188116903583009,-0.014722475316995186,0.016180530051893984
2137,9.0,300.27906,-2431.5774,0.021369994774487422,0.0,0.0,0.0,0.0,0.0032613633531587694,0.3577673429688877,0.15802072020293087,0.22335074994050277,-0.005005679523597106,-0.005611323021069464,0.030819897582437073
2138,9.0,299.5606,-2218.2011,0.021380004449184975,0.0,0.0,0.0,0.0,0.003262890971044513,0.3382131865765427,0.14691632997201284,0.18914823950247783,-0.004557734725313396,-0.0005382299722166625,0.016505044674671083
2139,9.0,299.47327,-2253.0887,0.0213899810886522,0.0,0.0,0.0,0.0,0.003264413547287015,0.3393535185040847,0.15132429214704485,0.1942049046565318,0.010401001130748891,0.014414035907054586,0.024390768955931477
2140,9.0,299.7414,-2427.5733,0.021399990763349752,0.0,0.0,0.0,0.0,0.003265941165172759,0.4030242802753996,0.14434604884084584,0.1905513477109538,0.004448706177453116,0.006034386145922545,0.020887544887940177
2141,9.0,299.46058999999997,-2451.0802,0.021410000438047305,0.0,0.0,0.0,0.0,0.0032674687830584748,0.39933038584334063,0.15103936621892486,0.1946974151326388,0.009050597936824471,0.004061028785842336,0.03273769124545857
2142,9.0,299.18952,-2316.084,0.02141997707751475,0.0,0.0,0.0,0.0,0.0032689913593010322,0.3963025614970176,0.13268244587973788,0.1750467061382648,0.0006496499625654594,0.003984847070448786,0.03664667536899527
2143,9.0,299.94827000000004,-2378.8322,0.021429986752212082,0.0,0.0,0.0,0.0,0.0032705189771867205,0.36074311665757364,0.14872870002837985,0.2136337828065128,0.0005215656760370245,0.006041214033046405,0.042777017819262964
2144,9.0,300.11093999999997,-2649.047,0.021439996426909635,0.0,0.0,0.0,0.0,0.003272046595072464,0.38896136187249764,0.18391430624342883,0.2323684630479818,-0.00036929011429859667,-0.001211462895162079,0.04244828503631956
2145,9.0,300.07252,-2652.97,0.02145000610160719,0.0,0.0,0.0,0.0,0.003273574212958208,0.38359311218019265,0.1903108021372138,0.2325327311541938,-0.001134299847046679,-0.007455765989476812,0.023236675065531277
2146,9.0,300.45365,-2336.286,0.021459982741074413,0.0,0.0,0.0,0.0,0.00327509678920071,0.3859512694029246,0.13891376174222086,0.18530757579343382,0.01038150417232469,0.000896250333868021,0.004538287213494076
2147,9.0,299.939,-2132.299,0.021469992415771966,0.0,0.0,0.0,0.0,0.0032766244070864536,0.36078312990402267,0.12588857356173488,0.16149395916071285,0.004081489953061696,-0.00841894268808495,0.008221775364376053
2148,9.0,300.71211,-2309.4115,0.02148000209046952,0.0,0.0,0.0,0.0,0.0032781520249721696,0.38954538909763664,0.13560758746092685,0.17685044330377983,-0.0025205190002058576,0.0029283684787824666,0.006137535512727593
2149,9.0,299.81591000000003,-2634.3119,0.021489978729936965,0.0,0.0,0.0,0.0,0.003279674601214727,0.38664725063161265,0.17504928992601984,0.23906847800922176,-0.014072302112078086,0.008194790183737822,0.02138123073416318
2150,9.0,299.79045,-2602.7808,0.021499988404634296,0.0,0.0,0.0,0.0,0.0032812022191004153,0.3929977449708576,0.16373833852971587,0.2344442781303488,-0.005014407558633495,0.012705847212719489,0.028085144681787976
2151,9.0,299.03864,-2333.5289,0.02150999807933185,0.0,0.0,0.0,0.0,0.003282729836986159,0.35879595394040364,0.15742344979898484,0.1931151237764788,-0.006427301939225314,0.012766228812678687,0.038621821014176966
2152,9.0,298.57115,-2327.6417,0.021519974718799295,0.0,0.0,0.0,0.0,0.0032842524132286888,0.38441264912607465,0.1344290053421099,0.18870331125106682,0.0046308374776280765,-0.008188805928647222,0.041056359055947164
2153,9.0,298.82142999999996,-2556.5445,0.021529984393496626,0.0,0.0,0.0,0.0,0.0032857800311144325,0.40287054997022764,0.16774672552781286,0.20650840545329283,-0.0025138985253774677,-0.018459229215034085,0.04550906534214506
2154,9.0,299.69162,-2521.4848,0.02153999406819418,0.0,0.0,0.0,0.0,0.0032873076490001485,0.3995757240900536,0.15725890811524584,0.2096337956517448,0.006088006631939474,-0.012601347690156188,0.03038403893267117
2155,9.0,299.12446,-2229.0051,0.021550003742891732,0.0,0.0,0.0,0.0,0.0032888352668858645,0.34236567800386164,0.13478726017996687,0.2004089640913248,0.007370929902329144,-0.00963714065666173,0.03874662708199436
2156,9.0,299.87657,-2085.2837,0.021559980382358956,0.0,0.0,0.0,0.0,0.003290357843128422,0.3272513910321977,0.1309215995909559,0.17570119477535784,-0.0047564287129479655,0.005793833276781824,0.024003472343708275
2157,9.0,300.36582000000004,-2351.5372,0.02156999005705651,0.0,0.0,0.0,0.0,0.00329188546101411,0.35559463077945763,0.15943532880004185,0.1997786313366158,-0.005235626805266135,0.006948986520161573,0.026937341048008576
2158,9.0,300.14187999999996,-2655.3179,0.02157999973175384,0.0,0.0,0.0,0.0,0.003293413078899854,0.42167632997121357,0.17035782037300784,0.2151161879678148,-0.0028930995732766975,0.001070033142229049,0.008774161524667323
2159,9.0,300.50766,-2635.7584,0.021589976371221287,0.0,0.0,0.0,0.0,0.0032949356551423836,0.41068059054851863,0.16528839840019485,0.2252357497640378,-0.0061370330420030044,-0.004463020260290806,0.019752853723704878
2160,9.0,300.17655,-2407.8764,0.02159998604591884,0.0,0.0,0.0,0.0,0.0032964632730281274,0.3925047177371996,0.14720542035804385,0.19222417296354882,-0.0014045807648463285,-0.003102140364307417,0.02074762214188088
2161,9.0,300.04478,-2318.5328,0.02160999572061617,0.0,0.0,0.0,0.0,0.0032979908909138433,0.3493428573974557,0.15099952522499285,0.2044336948135348,-0.004279934579846656,-0.014630312114399385,0.03720248053909896
2162,9.0,299.92265,-2451.3721,0.021620005395313946,0.0,0.0,0.0,0.0,0.003299518508799587,0.37810693030874865,0.15328557957060884,0.2137634078918058,-0.006178018299272933,0.003981214872815317,0.038702798948918864
2163,9.0,300.07984,-2447.7534,0.02162998203478117,0.0,0.0,0.0,0.0,0.003301041085042117,0.38431334048377364,0.14355970596823986,0.2161828566130868,0.004132703767441106,0.005003998946981245,0.03482969401142317
2164,9.0,300.50489,-2259.311,0.021639991709478723,0.0,0.0,0.0,0.0,0.0033025687029278328,0.37714845650915463,0.13408640521829787,0.17553927740937783,-0.0027339969147494874,0.004648601778381276,0.03168969983927987
2165,9.0,300.28663,-2126.1571,0.021650001384176054,0.0,0.0,0.0,0.0,0.0033040963208135488,0.3589908120671346,0.12230565028062787,0.16500221604195084,-0.0018392158137914684,-0.0035261303090269665,0.020385521006644283
2166,9.0,300.4735,-2348.2070000000003,0.021659978023643722,0.0,0.0,0.0,0.0,0.0033056188970561062,0.37040845869896866,0.14858033994873787,0.1948075047560038,-0.0017572462111766986,-0.009291319410781831,0.021785580345569378
2167,9.0,299.72685,-2653.0049,0.021669987698341053,0.0,0.0,0.0,0.0,0.003307146514941822,0.3755135774728046,0.19065227755341482,0.24028138904142676,0.0047097780703939055,-0.01941139958575598,0.017256931977626587
2168,9.0,299.37973999999997,-2642.4202,0.021679997373038384,0.0,0.0,0.0,0.0,0.003308674132827538,0.3907328472873296,0.18461573875765483,0.22788117352262077,0.007255971916208674,-0.004817740071198925,0.018014569474899583
2169,9.0,299.53201,-2411.2316,0.021689974012506053,0.0,0.0,0.0,0.0,0.0033101967090700957,0.37549495393596666,0.16205793416637285,0.19540130984460782,0.008349877129468712,0.001947108812264678,0.02348346529963758
2170,9.0,299.57484,-2301.0164,0.021699983687203384,0.0,0.0,0.0,0.0,0.0033117243269558116,0.38424850260987464,0.14879178497960588,0.16641123149850987,-0.00986530066647937,0.02394880040806258,0.017008903551898085
2171,9.0,299.82088,-2446.3201,0.021709993361900937,0.0,0.0,0.0,0.0,0.0033132519448415276,0.38448165145788465,0.15225408083630784,0.2068845036254108,-0.012518470924726887,0.006264697083052464,0.022044720071894477
2172,9.0,300.56231,-2597.3677,0.021720003036598268,0.0,0.0,0.0,0.0,0.0033147795627272436,0.4054497477022746,0.17029345872665586,0.2137917180995998,-0.01152076306801079,0.005810555145832145,0.03905946501061906
2173,9.0,300.48722999999995,-2430.3082,0.021729979676065936,0.0,0.0,0.0,0.0,0.003316302138969801,0.3607134486946456,0.16203412278902285,0.2160054263880758,-0.00970237623122498,0.0030211992105441472,0.05220247492598315
2174,9.0,300.45111,-2168.9517,0.021739989350763267,0.0,0.0,0.0,0.0,0.003317829756855517,0.35093521032710867,0.13793309776543686,0.17043884998350484,0.0023793908918275978,0.005115612295846625,0.043015959418094656
2175,9.0,300.36928,-2307.9006,0.02174999902546082,0.0,0.0,0.0,0.0,0.003319357374741261,0.36673745358666865,0.15590973520959284,0.17889696532575583,0.0012306129167520387,-0.012519338266812488,0.03539834415304457
2176,9.0,299.62127999999996,-2611.4063,0.021759975664928266,0.0,0.0,0.0,0.0,0.0033208799509837905,0.41906044245304563,0.16648597895838685,0.2082558768407548,-0.0025875432651706375,0.0013026282490593987,0.01825725097985038
2177,9.0,300.07826,-2578.7481,0.02176998533962582,0.0,0.0,0.0,0.0,0.0033224075688695343,0.4014755477625516,0.16902462642143185,0.21337483661095677,0.01029275460931579,-0.0072185322236886645,0.007226804194855044
2178,9.0,299.38437999999996,-2398.1514,0.02177999501432315,0.0,0.0,0.0,0.0,0.0033239351867552225,0.37200459105149464,0.16183398562927084,0.1951395772112768,0.01160085542216529,0.006610491680454735,0.016346823645055884
2179,9.0,299.0283,-2361.7992,0.02179000468902048,0.0,0.0,0.0,0.0,0.0033254628046409385,0.34903285352936064,0.15591334237994883,0.21298180702966782,-0.0011025619154893889,-0.010153942385366089,0.0097855409623327
2180,9.0,299.4539,-2522.9215,0.02179998132848815,0.0,0.0,0.0,0.0,0.003326985380883496,0.3890437289731266,0.16418819117661285,0.21367322863290578,0.013457576448659386,-0.009267352600866492,0.03616393566360256
2181,9.0,299.58734,-2681.2984,0.02180999100318548,0.0,0.0,0.0,0.0,0.003328512998769212,0.4264022094976216,0.16145755308461987,0.22718800912921078,0.001044882754871899,0.0026975663180040677,0.02102414923992198
2182,9.0,299.91792000000004,-2443.7808,0.021820000677883034,0.0,0.0,0.0,0.0,0.0033300406166549557,0.40823562818971965,0.13581446273384387,0.19879825106985982,0.001900977460386868,0.004864569552395636,0.034920102264845765
2183,9.0,300.22832,-2189.9226,0.02182997731735048,0.0,0.0,0.0,0.0,0.0033315631928974854,0.3531887596095167,0.13684819061836487,0.1756448378047958,-0.01201047494734159,-0.002144549612175568,0.029232853070057973
2184,9.0,300.06521000000004,-2360.3136,0.021839986992048033,0.0,0.0,0.0,0.0,0.003333090810783229,0.36192921709213266,0.14907356983241588,0.2064736104448588,-0.005994877092723305,0.008451105272759152,0.038116690508074466
2185,9.0,300.49259,-2658.2016,0.021849996666745364,0.0,0.0,0.0,0.0,0.0033346184286689173,0.3874253051184006,0.17936168235161984,0.24123990337102477,0.005371571632757845,0.002251495525780308,0.027688297174122176
2186,9.0,300.38254,-2639.4833,0.021860006341442917,0.0,0.0,0.0,0.0,0.003336146046554661,0.4086981160653636,0.17732837311094785,0.2163105159931858,0.005266117425950325,-0.0013419742703175486,0.026825180341439176
2187,9.0,299.56695,-2432.845,0.02186998298091014,0.0,0.0,0.0,0.0,0.003337668622797191,0.38485453762718563,0.15652752392806385,0.1981420601725988,0.0012636481124123587,-0.015633455044651884,0.020664960185472783
2188,9.0,299.76767,-2419.9874,0.021879992655607694,0.0,0.0,0.0,0.0,0.0033391962406829345,0.3942126318407576,0.16554976626348983,0.17585335454287482,0.002246721395284138,-0.009224280656340622,0.02140134881489868
2189,9.0,299.53092000000004,-2551.4138,0.021890002330305247,0.0,0.0,0.0,0.0,0.0033407238585686505,0.38984460185216663,0.16071433413626987,0.22500716054147782,0.007286614017782813,0.005079174707675515,0.021790927266347078
2190,9.0,299.5368,-2572.0825,0.021899978969772693,0.0,0.0,0.0,0.0,0.003342246434811208,0.39325141213339265,0.16138272456473485,0.22721470826934578,-0.0014786621141075886,0.005658540171754434,0.014621402606270085
2191,9.0,299.67462,-2422.8911,0.021909988644470024,0.0,0.0,0.0,0.0,0.003343774052696924,0.3566237078460197,0.15638463539896183,0.2234900616967518,0.0017675437706179882,-0.00997637000136606,0.04461810135696375
2192,9.0,299.78709,-2270.3369,0.021919998319167355,0.0,0.0,0.0,0.0,0.003345301670582612,0.3693333598128647,0.13418249172528088,0.1866098757494608,-0.007578430350557843,-0.01096888626854479,0.02940671057521637
2193,9.0,299.59132,-2378.5976,0.021929974958635023,0.0,0.0,0.0,0.0,0.0033468242468251697,0.38604049620673064,0.14151629462407087,0.19547748598712583,0.0018691583674965682,-0.006227780734209104,0.05013857566479216
2194,9.0,299.7096,-2531.2529,0.021939984633332354,0.0,0.0,0.0,0.0,0.0033483518647108856,0.4164264886855946,0.15033156036156986,0.20267961703542078,-0.017232801426495085,0.007590162469490712,0.02888330002405977
2195,9.0,300.04221,-2494.3606,0.021949994308029908,0.0,0.0,0.0,0.0,0.0033498794825966294,0.3823775869627296,0.16189676660546687,0.21394900491262278,-0.010872721741304091,0.012247528861236989,0.03369982794416407
2196,9.0,300.19895,-2359.2693,0.02196000398272724,0.0,0.0,0.0,0.0,0.0033514071004823454,0.3590713958475877,0.15493009461540988,0.2031574759150818,-0.013837250380380287,0.015576070638488485,0.019278100455600383
2197,9.0,300.47128,-2372.8194,0.021969980622194907,0.0,0.0,0.0,0.0,0.003352929676724903,0.3601292188194867,0.15828989009199584,0.2028587292555978,0.006620990370040874,0.01970395731362918,0.02002243600556058
2198,9.0,300.47163,-2535.2831,0.021979990296892238,0.0,0.0,0.0,0.0,0.003354457294610619,0.4016609421333486,0.16328081557956187,0.2057209885355808,0.005804210680330994,-0.0007530705054947723,0.012634666393194488
2199,9.0,299.64095,-2617.8748,0.02198999997158979,0.0,0.0,0.0,0.0,0.003355984912496335,0.4146570905659686,0.16463201498541485,0.21647944504985778,0.01278818492909559,-0.018980782478757383,0.026735735688861676
2200,9.0,299.70655,-2510.4875,0.021999976611057237,0.0,0.0,0.0,0.0,0.0033575074887388645,0.4075672478937556,0.15773333207706786,0.1978249230237998,0.007012434012273353,-0.016560345838628882,0.030392704247526367
2201,9.0,300.06591000000003,-2255.7641,0.02200998628575479,0.0,0.0,0.0,0.0,0.0033590351066246082,0.34436301686598364,0.14650311644873187,0.19482981652320583,0.012400533679337387,-0.007017815180904432,0.029611133782891368
2202,9.0,299.23859,-2425.4629,0.02201999596045212,0.0,0.0,0.0,0.0,0.0033605627245103242,0.37591276761470166,0.15172527574161887,0.2096421043025648,-0.00921976216884468,0.005058842324543865,0.03477784904355647
2203,9.0,299.1517,-2628.994,0.022030005635149452,0.0,0.0,0.0,0.0,0.00336209034239604,0.39274276058319263,0.16741891885546084,0.23898685058116576,-0.006403244240776004,0.006544193003886564,0.029532969643677177
2204,9.0,299.55556,-2561.2515,0.02203998227461712,0.0,0.0,0.0,0.0,0.0033636129186385977,0.4021047659421506,0.17853592405012383,0.19791581155776983,-0.01109596606958659,0.0059793539998662945,0.03804096830160126
2205,9.0,299.80548,-2367.9402,0.02204999194931445,0.0,0.0,0.0,0.0,0.003365140536524286,0.37724907224408466,0.15436525834716486,0.18818036274195582,0.004914435237516996,0.006166015743888374,0.029340873636718768
2206,9.0,300.16418,-2375.6175,0.022060001624012004,0.0,0.0,0.0,0.0,0.0033666681544100296,0.38585229513315666,0.16251540645402185,0.17376069924384585,-0.001205497891823379,-0.002361084603595908,0.026398382174067474
2207,9.0,300.22003,-2503.1864,0.02206997826347945,0.0,0.0,0.0,0.0,0.0033681907306525594,0.3746146321165857,0.17670974339489381,0.20958177539161077,-0.009076365292167512,0.001067296556358969,0.03101891712732877
2208,9.0,299.82365,-2478.7332,0.022079987938177004,0.0,0.0,0.0,0.0,0.003369718348538303,0.3819079151438767,0.16299024584838484,0.20857481757473179,-0.009388224826495652,0.005356090083154934,0.024561756936806678
2209,9.0,299.84217,-2398.6654,0.022089997612874335,0.0,0.0,0.0,0.0,0.003371245966424019,0.3599662882034067,0.16421989577224186,0.2049482029493128,0.003233583625579857,0.014290264367589286,0.027557371075700773
2210,9.0,299.98842,-2302.5929,0.022099974252342003,0.0,0.0,0.0,0.0,0.0033727685426665766,0.37370825963713367,0.13332406624056087,0.19289840984509082,0.0020035884874137883,0.007263759452502243,0.012496250350033886
2211,9.0,300.27999,-2394.9412,0.022109983927039334,0.0,0.0,0.0,0.0,0.0033742961605522925,0.36032269892608165,0.16071797170412885,0.2069616626205258,-0.001101537722288309,-0.012987678675034088,0.034129082229778174
2212,9.0,299.83125,-2569.2968,0.022119993601736887,0.0,0.0,0.0,0.0,0.0033758237784380363,0.39410386957502364,0.16982106126503385,0.2170771410188458,0.009206864812296812,-0.021327044145315378,0.03787378000860107
2213,9.0,299.62697000000003,-2647.5784,0.022130003276434218,0.0,0.0,0.0,0.0,0.0033773513963237245,0.39678716862234464,0.17942972209583483,0.22858084298167278,-0.005302286908144975,-0.013964737507962288,0.02825156493121237
2214,9.0,299.45547,-2437.9519,0.022139979915901664,0.0,0.0,0.0,0.0,0.003378873972566282,0.3981315995175296,0.15922944651222284,0.18371544577880283,0.003985816446819457,-0.007883923533182673,0.035049096095326464
2215,9.0,299.85247999999996,-2389.1066,0.022149989590599217,0.0,0.0,0.0,0.0,0.003380401590451998,0.37766274172991066,0.14365839652797985,0.2049076121503068,-0.011678978018125388,-0.0077160526135901025,0.009415987372610601
2216,9.0,299.83576,-2565.6465,0.02215999926529655,0.0,0.0,0.0,0.0,0.003381929208337714,0.4153171926086156,0.16554253165777583,0.19903273740800181,0.004214251554039246,0.01110624447860099,0.029806174294640372
2217,9.0,299.84504,-2591.8,0.022169975904763994,0.0,0.0,0.0,0.0,0.0033834517845802714,0.4025345967670716,0.16279659348927286,0.2225113026301558,-0.008944746130677712,0.0036551339680336364,0.00912319649588939
2218,9.0,299.78141,-2450.1866,0.022179985579461325,0.0,0.0,0.0,0.0,0.0033849794024659874,0.38277967499991267,0.15290665443071186,0.2091092360749748,0.0072853095596040725,0.004156196578959666,0.02013480138865018
2219,9.0,299.89858,-2378.1037,0.02218999525415888,0.0,0.0,0.0,0.0,0.0033865070203517034,0.3601041307470107,0.15715695489018383,0.2056230680459168,0.0025165717831162975,-0.005895911334256145,0.022529763908014578
2220,9.0,299.98041,-2460.8563,0.02220000492885643,0.0,0.0,0.0,0.0,0.0033880346382374193,0.38086597993354565,0.16788103182856784,0.19929186598857582,0.010583009219711689,-0.019877610142267382,0.03689648306189936
2221,9.0,300.09966000000003,-2558.6437,0.022209981568323878,0.0,0.0,0.0,0.0,0.003389557214479977,0.38607348762998667,0.16909143000052484,0.2225988677037978,0.01081934575253629,-0.0033993502273647466,0.03764640364641076
2222,9.0,300.04912,-2564.2201,0.02221999124302121,0.0,0.0,0.0,0.0,0.003391084832365693,0.4004653070153486,0.17031904329168085,0.2086745213845718,0.0007241802829460293,0.002288027042235688,0.035032229534161866
2223,9.0,300.05588,-2325.7775,0.022230000917718762,0.0,0.0,0.0,0.0,0.0033926124502514365,0.36119387109705964,0.14110410448339086,0.2046803097553738,-0.0015770458617173084,0.004777721049224356,0.04484938278503946
2224,9.0,299.70038,-2194.5086,0.022239977557186208,0.0,0.0,0.0,0.0,0.0033941350264939663,0.35461859735563067,0.14268533192694588,0.16977186797267885,-0.009229006860107062,-0.004681245960828006,0.034031552854652765
2225,9.0,300.03494,-2462.0309,0.02224998723188376,0.0,0.0,0.0,0.0,0.00339566264437971,0.3810957039962176,0.16550405855147884,0.2017961541407298,0.0004660224871603386,0.013472551271887286,0.04352292998637876
2226,9.0,299.705,-2652.0608,0.022259996906581092,0.0,0.0,0.0,0.0,0.0033971902622653982,0.4288433012410386,0.15387332542361484,0.2234436345771698,-0.0024015854259930277,-0.005982752542026704,0.019477484770528082
2227,9.0,299.8069,-2541.9032,0.022269973546048538,0.0,0.0,0.0,0.0,0.0033987128385079557,0.39537749455322063,0.18310362510342082,0.1941939919529548,0.005383520688537125,-0.007188962343370343,0.030340967697420368
2228,9.0,299.26694,-2435.0136,0.02227998322074609,0.0,0.0,0.0,0.0,0.0034002404563936717,0.3915843218763636,0.14431323980260785,0.2042857602989348,0.014238265385707386,-0.008646582495301251,0.023872302052012774
2229,9.0,299.39898999999997,-2573.3572,0.022289992895443422,0.0,0.0,0.0,0.0,0.0034017680742793877,0.38366039198683266,0.16762183232048686,0.23095410776339576,0.007669811020101413,0.012710744250452788,0.018138855745415683
2230,9.0,299.36056,-2668.3994,0.022300002570140975,0.0,0.0,0.0,0.0,0.0034032956921651314,0.4093930131164446,0.17664439889594483,0.22508938578709278,0.002977566634737947,0.0038735262468872766,0.01854126498288038
2231,9.0,299.82158,-2581.5871,0.02230997920960842,0.0,0.0,0.0,0.0,0.003404818268407661,0.4010651612070496,0.14872167820518686,0.23495118689037675,-0.011441908905478488,-0.005253006577606385,0.015332455930195586
2232,9.0,300.18687,-2477.6397,0.022319988884305975,0.0,0.0,0.0,0.0,0.003406345886293405,0.3963047805147366,0.16442574766255783,0.19241006382689482,-0.0012794353595704387,-0.01001038845492342,0.037730643233224566
2233,9.0,300.37834,-2413.4773,0.022329998559003306,0.0,0.0,0.0,0.0,0.003407873504179093,0.4008057590489486,0.1336167435319459,0.1992143422234248,-0.006636650960936453,0.014486644395970485,0.015565985760243184
2234,9.0,300.49192,-2536.5337,0.022339975198470752,0.0,0.0,0.0,0.0,0.0034093960804216505,0.3916187723797636,0.16497087621635784,0.2144532488248878,0.00012062216563698091,0.006142185216111484,0.037552162267859866
2235,9.0,299.99953999999997,-2630.6549,0.022349984873168305,0.0,0.0,0.0,0.0,0.0034109236983073665,0.39750699162588565,0.17471533282556084,0.2274310776956998,-0.012735067319103288,0.014860466808363884,0.02009353576507758
2236,9.0,300.13732000000005,-2499.1721,0.022359994547865858,0.0,0.0,0.0,0.0,0.0034124513161931103,0.3811527398443466,0.15531731827362585,0.2232158559546898,-0.00970924100065248,0.01176568385568259,0.03418894099268576
2237,9.0,299.65204,-2391.2494,0.02237000422256319,0.0,0.0,0.0,0.0,0.0034139789340788262,0.3726296447731826,0.15092715890285086,0.2033233145589488,-0.005406262073781525,0.015811056508929784,0.02004190661948218
2238,9.0,300.17284,-2544.631,0.022379980862030635,0.0,0.0,0.0,0.0,0.003415501510321356,0.39920435779590263,0.17125042278360084,0.2030495039844258,-0.0003955008780178976,-0.005631659153226484,0.04420477130992126
2239,9.0,299.5681,-2728.7252,0.022389990536728188,0.0,0.0,0.0,0.0,0.0034170291282070997,0.42775243618337866,0.16688226107249685,0.23482961714337877,-0.004675523124263206,-0.01032968757546079,0.026157036132748477
2240,9.0,299.54702000000003,-2560.7342,0.02240000021142552,0.0,0.0,0.0,0.0,0.003418556746092788,0.39343024064354165,0.18240131106160784,0.2025677238268778,0.0061303506575935045,-0.016663625408071783,0.056857794755177445
2241,9.0,299.41347,-2292.5144,0.022409976850892965,0.0,0.0,0.0,0.0,0.0034200793223353454,0.34427107455190964,0.14368950330604988,0.20890654552497082,-0.003749456102617507,-0.005939684650501234,0.030776587220162674
2242,9.0,299.74089,-2296.1018,0.02241998652559052,0.0,0.0,0.0,0.0,0.0034216069402210614,0.36404588641853164,0.14308566704145587,0.19082607021056683,0.006705581554639374,-0.006733768449896204,0.03211809995505967
2243,9.0,299.94735,-2499.0973,0.02242999620028807,0.0,0.0,0.0,0.0,0.003423134558106805,0.37012724126621466,0.17021160838357785,0.21932430682562376,-0.014503750084158686,-0.004414609602313046,0.03467260579541977
2244,9.0,300.26111000000003,-2484.612,0.022440005874985403,0.0,0.0,0.0,0.0,0.003424662175992521,0.41900910107047856,0.14297971147849886,0.1932711946893818,0.00904602453117311,0.0013731515705945087,0.03148214062254537
2245,9.0,300.48868999999996,-2457.1158,0.02244998251445285,0.0,0.0,0.0,0.0,0.003426184752235051,0.38744507362785163,0.14987372330388485,0.20958305208673678,-0.00985521315378381,0.008290654383648881,0.031467862915386266
2246,9.0,300.47848,-2442.6098,0.022459992189150402,0.0,0.0,0.0,0.0,0.0034277123701207945,0.39914903434044263,0.14577053662643186,0.19757282639891982,0.008079893499248404,0.0023493351580863276,0.03224370041095547
2247,9.0,300.26667000000003,-2607.4875,0.022470001863847955,0.0,0.0,0.0,0.0,0.0034292399880065105,0.3919647466264086,0.16413995033935183,0.23650638393886278,-0.009426352110533522,0.0046032579244811855,0.025407357715010976
2248,9.0,300.01089,-2798.3258,0.02247997850331518,0.0,0.0,0.0,0.0,0.0034307625642490402,0.4275568181190726,0.19271269123426182,0.23035165965143878,0.002290693207223818,0.006566046072768295,0.025022712778299476
2249,9.0,299.7871,-2673.5708,0.022489988178012732,0.0,0.0,0.0,0.0,0.0034322901821347562,0.4080949282808336,0.16413333381619882,0.2404705020400908,-0.007837607263161612,0.007298550002635803,-0.0013430616903248687
2250,9.0,299.16927000000004,-2473.8664,0.022499997852710063,0.0,0.0,0.0,0.0,0.0034338178000205,0.40311021401638064,0.15366641975319487,0.1952169793864158,0.001981183298552568,-0.00924971222060052,0.019310339034032082
2251,9.0,299.70915,-2505.4039,0.02250997449217751,0.0,0.0,0.0,0.0,0.0034353403762630297,0.3916172829021166,0.16204267461986685,0.20792025801013178,-0.0006251715930721324,-0.008898635246451922,0.02662708488063868
2252,9.0,299.71764,-2625.4966,0.02251998416687484,0.0,0.0,0.0,0.0,0.0034368679941487457,0.4051736471825256,0.16530661663699284,0.22760512366537677,0.01083247950033249,-0.010818402416693188,0.03906036275020766
2253,9.0,299.67588,-2599.4633,0.022529993841572393,0.0,0.0,0.0,0.0,0.0034383956120344894,0.3808142535159406,0.1899501762941228,0.2194074946588338,0.006147136158750104,-0.01178668751700549,0.039534538465755165
2254,9.0,299.85028,-2432.8231,0.022540003516269946,0.0,0.0,0.0,0.0,0.0034399232299202054,0.3668760662003487,0.14944092365617084,0.2232004748181718,-0.0038572203170030065,-0.006892501981411983,0.026899759601799574
2255,9.0,299.85072,-2362.4248,0.02254998015573717,0.0,0.0,0.0,0.0,0.003441445806162735,0.3684682266124827,0.15103714720120584,0.1986127553740528,-0.0005132964913084195,-0.006150170336174554,0.037846221632381265
2256,9.0,300.23309,-2548.4134,0.022559989830434724,0.0,0.0,0.0,0.0,0.003442973424048451,0.39680430268153566,0.17905743374409283,0.1987923032917728,-0.005542132123415855,0.012661072704050588,0.033912027846356566
2257,9.0,300.26976,-2639.433,0.022569999505132277,0.0,0.0,0.0,0.0,0.003444501041934195,0.4009004675357956,0.16970877288895184,0.23171248493324179,-0.007025777604165263,0.012799926471254386,0.03240389322526527
2258,9.0,300.16908,-2649.5889,0.022579976144599723,0.0,0.0,0.0,0.0,0.0034460236181767245,0.39993376614538967,0.19319767326212584,0.21227741582514978,-0.01058028864319319,0.007729638777555952,0.025141672393039875
2259,9.0,300.48296,-2504.1194,0.022589985819297054,0.0,0.0,0.0,0.0,0.0034475512360624405,0.38274826424681263,0.17430256513232384,0.2041389403594448,-0.005962070486285545,0.01195331649595049,0.053412449559398355
2260,9.0,300.31999,-2434.4003,0.02259999549399483,0.0,0.0,0.0,0.0,0.003449078853948212,0.37753461625476564,0.15323338705795786,0.2092289009117848,-0.0036855323829587264,0.01027724782978539,0.023738831682590274
2261,9.0,299.9211,-2540.6973,0.02261000516869216,0.0,0.0,0.0,0.0,0.0034506064718339002,0.39813678735804164,0.17894416251541384,0.19522758811496282,0.008132426362607992,0.0032625950024430567,0.04173550412097356
2262,9.0,299.76366,-2578.725,0.022619981808159606,0.0,0.0,0.0,0.0,0.0034521290480764577,0.42023711966167454,0.13804094810608086,0.2255899313364928,-0.005316286072851585,-0.00931973205816094,0.01074530452797899
2263,9.0,299.24152999999995,-2449.0723,0.022629991482856937,0.0,0.0,0.0,0.0,0.003453656665962146,0.3941717066692186,0.16538250906948285,0.18490262025846782,0.007565300250462003,-0.008898315059420321,0.05637856900113154
2264,9.0,299.54817,-2396.6499,0.02264000115755449,0.0,0.0,0.0,0.0,0.0034551842838478897,0.38602893502308966,0.14618556386739187,0.1963072364940158,0.012250079211738688,-0.0033704268006102267,0.03337305883991447
2265,9.0,299.8673,-2528.2039,0.022649977797021936,0.0,0.0,0.0,0.0,0.0034567068600904194,0.40040156345155764,0.15207063190570286,0.2160386609913558,0.02307619043519268,-4.869441664176476e-06,0.04172063974200656
2266,9.0,300.34042,-2651.6399,0.022659987471719267,0.0,0.0,0.0,0.0,0.0034582344779761354,0.40380284138723765,0.17664795540379583,0.2255815112281618,0.005782822794570175,-0.006584557037520183,0.015671257379382682
2267,9.0,300.13591,-2552.9642,0.022669997146417042,0.0,0.0,0.0,0.0,0.003459762095861907,0.4059704366636626,0.15353050238478086,0.2165364201029808,-0.001215759075586079,0.002163402042211158,0.02013716732763368
2268,9.0,299.80098,-2553.612,0.022679973785884266,0.0,0.0,0.0,0.0,0.003461284672104409,0.3982959081537456,0.16168967855002883,0.2162487077370858,-0.01136832769646659,0.007391813797490222,0.003999792914723826
2269,9.0,300.05973,-2523.8283,0.02268998346058182,0.0,0.0,0.0,0.0,0.0034628122899901526,0.3902058863078226,0.17285764009222082,0.2041172669398058,-0.004748970280286875,0.006334300272171764,0.027268094251651373
2270,9.0,300.53542999999996,-2651.5394,0.02269999313527915,0.0,0.0,0.0,0.0,0.003464339907875841,0.41406741953777265,0.15127392348457386,0.2406604155063338,-0.02074021528364988,-0.0004415851948260656,0.013506738330261288
2271,9.0,299.60346,-2649.6642,0.022710002809976926,0.0,0.0,0.0,0.0,0.0034658675257616123,0.38636141277840264,0.1913858908908168,0.2276844712807078,-0.014131269214897685,-0.007214660189756523,0.05492620163904404
2272,9.0,299.54482,-2392.2426,0.02271997944944415,0.0,0.0,0.0,0.0,0.0034673901020041142,0.37228733849189966,0.15450429652588685,0.20039036081948883,-0.008126385264186783,0.01037323402500849,0.034905785040932766
2273,9.0,298.959,-2346.0721,0.022729989124141703,0.0,0.0,0.0,0.0,0.003468917719889858,0.3673403677936717,0.14665257083848185,0.1991543983475088,-0.000856832554237789,0.012046824281428989,0.03822399572016466
2274,9.0,299.63301,-2531.1892,0.022739998798839256,0.0,0.0,0.0,0.0,0.0034704453377756017,0.4037825763852376,0.16919485243823185,0.19644088418220582,0.01168617412033559,0.005620369925912324,0.028188430330731474
2275,9.0,300.14929,-2684.5344,0.022749975438306702,0.0,0.0,0.0,0.0,0.0034719679140181314,0.4125096488340326,0.17389547163964683,0.22962631443485276,0.012342948649654188,-0.015970286735644587,0.033491903957393564
2276,9.0,299.9954,-2584.3472,0.022759985113004033,0.0,0.0,0.0,0.0,0.0034734955319038474,0.4044542497440266,0.17463655263028585,0.2064862254086038,0.016484464551889982,-0.008174322430392811,0.026132375651814678
2277,9.0,299.72758,-2515.8976,0.022769994787701586,0.0,0.0,0.0,0.0,0.0034750231497895634,0.38197245917524664,0.16445825272576586,0.21833933653591478,0.012708678233498886,0.0013179695648484688,0.026737804745565877
2278,9.0,300.26437999999996,-2639.7696,0.02278000446239914,0.0,0.0,0.0,0.0,0.003476550767675307,0.41446461357697256,0.15462505567280485,0.2333343741033098,0.005235453032873985,0.005190399069827505,0.014888180211848985
2279,9.0,300.07475,-2719.1364,0.022789981101866363,0.0,0.0,0.0,0.0,0.003478073343917809,0.42514564765110857,0.18200378264987482,0.2194001283306068,-0.015949788686121586,-0.0013044940477935387,0.026210118278987272
2280,9.0,299.95944,-2620.8311,0.022799990776563916,0.0,0.0,0.0,0.0,0.003479600961803553,0.41813444331915656,0.14716336034639285,0.23136940858188276,-0.01937280083644658,0.006980298380051813,0.026199219760911677
2281,9.0,300.14329,-2483.3653,0.02281000045126147,0.0,0.0,0.0,0.0,0.0034811285796892966,0.38801737754933363,0.16017998656353385,0.2066836673230898,-0.007070006275005294,0.016587798836838284,0.025051848784924977
2282,9.0,300.28382,-2493.1195,0.022819977090728694,0.0,0.0,0.0,0.0,0.0034826511559318263,0.3955012833179376,0.15227213695308986,0.21007266466755778,-0.007066926197351313,0.011507158158918089,0.040984521650357354
2283,9.0,300.06015,-2767.4633,0.022829986765426025,0.0,0.0,0.0,0.0,0.0034841787738175423,0.4153161793585156,0.18106476325220083,0.24485879703068178,0.0006227457406102195,-0.0004962000743586346,0.025839477471907873
2284,9.0,299.49545,-2797.9465,0.022839996440123578,0.0,0.0,0.0,0.0,0.0034857063917032582,0.4402569961974826,0.1922253584661658,0.21802351661224578,0.002808351537562717,-0.001119377206198929,0.04244989407747836
2285,9.0,299.44912999999997,-2510.1006,0.022849973079591024,0.0,0.0,0.0,0.0,0.003487228967945788,0.41070048064798165,0.14662593249335285,0.20568149204668282,0.009266047129437651,0.002964043393603307,0.01891877258588748
2286,9.0,299.78336,-2407.7136,0.022859982754288577,0.0,0.0,0.0,0.0,0.0034887565858315317,0.39134749493049065,0.15087121736482986,0.18966610149608681,0.004600253232634645,-0.01038246675991969,0.020404078682225782
2287,9.0,299.4366,-2564.7110000000002,0.022869992428985908,0.0,0.0,0.0,0.0,0.0034902842037172477,0.40319053435180763,0.16925310418648085,0.20716444436303882,0.0006523137362833535,-0.020906336624294784,0.025034446214457478
2288,9.0,299.68821,-2654.1579,0.02288000210368346,0.0,0.0,0.0,0.0,0.0034918118216029914,0.3943906497508266,0.17643012689729784,0.23597694049661075,0.0028419830309068875,-0.0028113610930097376,0.02960090097013147
2289,9.0,299.61691,-2578.09,0.022889978743150907,0.0,0.0,0.0,0.0,0.003493334397845521,0.38601200361391863,0.17853044236708282,0.21913254924419878,0.011673805376364888,0.008083188791223621,0.045165284781966554
2290,9.0,300.01409,-2477.5973,0.022899988417848238,0.0,0.0,0.0,0.0,0.0034948620157312094,0.38099989106676163,0.16412986850085684,0.2079979438952988,0.005540884711217745,0.011435089732305488,0.03682071019292117
2291,9.0,300.21109,-2473.391,0.02290999809254579,0.0,0.0,0.0,0.0,0.003496389633616953,0.3887182021134996,0.16825023990000584,0.19488066141322383,-0.0062247399706590045,0.0008120644493095212,0.05958882902795954
2292,9.0,300.50309,-2607.1977,0.022919974732013237,0.0,0.0,0.0,0.0,0.003497912209859483,0.3930361167521446,0.17367209052260082,0.22581480193118578,-0.01001258447186515,0.004990864895210016,0.04170642181660336
2293,9.0,300.06175,-2711.4935,0.02292998440671079,0.0,0.0,0.0,0.0,0.0034994398277452265,0.4247285635124456,0.16702435926652084,0.23247339522833776,-0.009154419899045902,0.016846786575648382,0.02230983696055948
2294,9.0,300.16278,-2537.8408,0.02293999408140812,0.0,0.0,0.0,0.0,0.0035009674456309425,0.37578771228735963,0.16264348126666184,0.23300903976120177,-0.011200166683370389,0.017351241243934182,0.009830613873156051
2295,9.0,300.01914,-2369.3435,0.022950003756105675,0.0,0.0,0.0,0.0,0.0035024950635166863,0.38340119247875165,0.14099405539002985,0.1958260136240228,-0.006018837215187985,0.003983231747139366,0.028359077859573076
2296,9.0,299.72535,-2635.9132,0.02295998039557312,0.0,0.0,0.0,0.0,0.003504017639759216,0.4065395184498266,0.16877239807403885,0.2259398775235298,0.001956482084964748,0.004283588663682286,0.01937752967466328
2297,9.0,299.52105,-2783.6012,0.022969990070270674,0.0,0.0,0.0,0.0,0.0035055452576449597,0.4439950885989036,0.17889216252028184,0.22325798689384777,0.025911855953051077,0.00017325491519142884,0.03396219487205767
2298,9.0,300.2428,-2728.9891,0.022979999744968005,0.0,0.0,0.0,0.0,0.003507072875530648,0.4106432320173316,0.18139614669740584,0.23750516482743478,0.0070551146396106035,-0.014942784259737987,0.023224562673835877
2299,9.0,299.75704,-2657.639,0.022989976384435673,0.0,0.0,0.0,0.0,0.0035085954517732054,0.4207463892944356,0.17020844704326585,0.21690105841646778,-0.000969158977861044,-0.021079720941656478,0.02875675116607037
2300,9.0,299.80562000000003,-2583.038,0.022999986059133004,0.0,0.0,0.0,0.0,0.0035101230696589214,0.3783172911620096,0.18029840167156683,0.22656336070756278,-0.008042256020308872,-0.009771189490566322,0.029213805994678176
2301,9.0,300.41042999999996,-2557.8238,0.023009995733830335,0.0,0.0,0.0,0.0,0.0035116506875446374,0.40537936735032865,0.15118155560545787,0.22095366364892877,0.001660130343417108,0.009577974450197481,0.01801459784590238
2302,9.0,300.02562,-2657.7690000000002,0.023020005408527888,0.0,0.0,0.0,0.0,0.003513178305430381,0.4019585134227166,0.17668550645250183,0.22925140176535178,-0.016077639570489483,0.0003657578332574876,0.03097862726360247
2303,9.0,299.7596,-2542.6207,0.023029982047995334,0.0,0.0,0.0,0.0,0.003514700881672911,0.4073330148681386,0.16035065841037785,0.2052095201501028,-0.007243454224473274,-0.006251496258099645,0.041430496589121665
2304,9.0,300.51457,-2364.3271,0.023039991722692887,0.0,0.0,0.0,0.0,0.003516228499558627,0.36867432168282266,0.15680825500076986,0.19321382446871982,-0.007082924200530193,-0.005022895149421155,0.047774309557207253
2305,9.0,299.8965,-2540.4554,0.02305000139739022,0.0,0.0,0.0,0.0,0.003517756117444343,0.4110443979969236,0.16395987553157984,0.1972307227676568,0.006411359766126943,0.01881556597045178,0.03313516392843607
2306,9.0,300.28526,-2754.7709,0.023059978036857887,0.0,0.0,0.0,0.0,0.0035192786936869003,0.4025761805511756,0.17333673513700382,0.26146867154744874,0.005204172786386865,0.004001982852164956,0.02432393700583568
2307,9.0,299.4806,-2748.1502,0.023069987711555218,0.0,0.0,0.0,0.0,0.0035208063115726163,0.42402859007836363,0.18799287094345182,0.22334757846768977,-0.0005402287701589285,0.007692110223002173,0.02086109196757948
2308,9.0,298.84086,-2599.737,0.02307999738625277,0.0,0.0,0.0,0.0,0.00352233392945836,0.38694418357341764,0.17640902089771485,0.22690192809597676,0.0049638492157437755,0.0027641793047532576,0.03094721245750207
2309,9.0,299.14858,-2629.9865,0.023089974025720217,0.0,0.0,0.0,0.0,0.0035238565057008897,0.42043963795916156,0.16053325621089884,0.2184773310670338,0.00877505845365584,-0.009181485633067081,0.025018383160622177
2310,9.0,299.97887000000003,-2671.3773,0.023099983700417548,0.0,0.0,0.0,0.0,0.0035253841235866334,0.40763847937578557,0.18053939307535083,0.2238541224576818,0.004519496389064566,-0.020118717056562783,0.042898787176530666
2311,9.0,299.30802,-2659.046,0.0231099933751151,0.0,0.0,0.0,0.0,0.0035269117414723217,0.4238937771525586,0.16542364702354284,0.21896616344527778,0.0022060851013486478,-0.023162046155915977,0.02066026883750978
2312,9.0,300.28422,-2478.8779,0.023120003049812432,0.0,0.0,0.0,0.0,0.0035284393593580377,0.38300097895425367,0.16155075182881787,0.2089652633682658,0.006496450888324784,0.008918615221198791,0.04233978114936106
2313,9.0,299.78827,-2334.2899,0.023129979689279878,0.0,0.0,0.0,0.0,0.003529961935600595,0.3887328942399496,0.13368241227092686,0.18715053587031985,0.002860765749335597,0.023611781265801376,0.012493270381489788
2314,9.0,300.14993,-2423.7598,0.02313998936397743,0.0,0.0,0.0,0.0,0.003531489553486311,0.39028562909069264,0.14739215221897287,0.19908467660812781,-0.004687477752918035,0.015097477152504984,0.04157312167319766
2315,9.0,300.39912000000004,-2752.7334,0.023149999038674762,0.0,0.0,0.0,0.0,0.003533017171372055,0.42907982421188157,0.19206542707038182,0.2156169665647378,-0.015270628422343686,-0.01117005491689859,0.03252261472623217
2316,9.0,300.12732,-2762.132,0.02315997567814221,0.0,0.0,0.0,0.0,0.0035345397476145846,0.43184066728935555,0.19254993287069883,0.21522855740390479,-0.00912281895890213,-0.0029221230078160876,0.06943468258791964
2317,9.0,299.94484,-2595.2663,0.02316998535283976,0.0,0.0,0.0,0.0,0.0035360673655003283,0.4077237241066986,0.16682554946439984,0.2143468676968888,-0.006427789920473474,-0.006328787178377664,0.01932796046652118
2318,9.0,299.9299,-2460.3663,0.023179995027537093,0.0,0.0,0.0,0.0,0.0035375949833860165,0.3830931745808527,0.16312735885191684,0.2016694066857208,-0.00011449245849452592,-0.010225404888418891,0.05262119749005786
2319,9.0,299.59015,-2600.5711,0.023190004702234646,0.0,0.0,0.0,0.0,0.0035391226012717603,0.4108259615403656,0.15333903864588486,0.22634368808588276,0.0013818701824049686,0.0008226827935999702,0.0023622800360638876
2320,9.0,299.52626000000004,-2614.3451,0.02319998134170209,0.0,0.0,0.0,0.0,0.00354064517751429,0.39150001946804364,0.16534214118549884,0.23785345941680874,0.010018108812735361,0.003450984439210647,0.043821185219564254
2321,9.0,299.77086,-2502.8695,0.023209991016399645,0.0,0.0,0.0,0.0,0.0035421727954000337,0.39358345419116264,0.15656067747133584,0.21066568955358478,0.00846387556774448,0.016863299512528088,0.019075929702897683
2322,9.0,299.75176,-2459.6955,0.023220000691096976,0.0,0.0,0.0,0.0,0.0035437004132857497,0.39074292912582465,0.14996696257808687,0.2069761115669518,-0.0025413732071390078,-0.0018390253227726684,0.05801981226135965
2323,9.0,300.15212,-2534.4595,0.023229977330564644,0.0,0.0,0.0,0.0,0.003545222989528307,0.4038297938398976,0.16066533336143385,0.20591726521245182,-0.008691345756894042,-0.01040808374894789,0.03741564404213656
2324,9.0,300.37113,-2626.6324,0.023239987005261975,0.0,0.0,0.0,0.0,0.003546750607414023,0.4030477572802166,0.17497007403320183,0.22041282114305177,0.0026534626822263775,-0.008563957218546771,0.05495150148079095
2325,9.0,300.59269,-2654.2735,0.023249996679959306,0.0,0.0,0.0,0.0,0.0035482782252997114,0.4249073920225946,0.16791479332189985,0.2140106814462098,-0.0003794791749191786,0.0025713534537478273,0.01086036009008409
2326,9.0,300.1603,-2596.6045,0.023259973319426974,0.0,0.0,0.0,0.0,0.0035498008015422966,0.38804641729719963,0.17509162351519783,0.22616488997323678,-0.004428383825497456,-0.004742157085289465,0.03066284685668737
2327,9.0,299.78833,-2624.4861,0.023269982994124305,0.0,0.0,0.0,0.0,0.003551328419427985,0.4133436651238436,0.16597471322292884,0.21845987276781081,-0.009348598844234871,-0.005327836820016555,0.02070720258214178
2328,9.0,300.21706,-2730.1374,0.02327999266882186,0.0,0.0,0.0,0.0,0.0035528560373137286,0.4127728000175036,0.18488444255167383,0.23223636563244476,0.01112576980802799,0.004057366596005906,0.04268016529520437
2329,9.0,299.86519,-2786.4182,0.02329000234351919,0.0,0.0,0.0,0.0,0.0035543836551994445,0.4497504707569156,0.16525452544935182,0.23199656986377878,0.009009729709941091,0.0098473684701846,0.012851968009640488
2330,9.0,299.86888999999996,-2698.4424,0.023299978982986858,0.0,0.0,0.0,0.0,0.003555906231442002,0.4127327158435476,0.16683234837257085,0.24069405540965377,0.0023289989246042977,-0.003604063224568346,0.025594824182262475
2331,9.0,299.81147999999996,-2558.1965,0.02330998865768419,0.0,0.0,0.0,0.0,0.003557433849327718,0.4105886178369416,0.15364391546847386,0.2133953143954778,-0.0026907425852056173,-0.006031838936496154,0.017562816984065085
2332,9.0,299.60312000000005,-2644.8906,0.02331999833238174,0.0,0.0,0.0,0.0,0.003558961467213434,0.37557595314896064,0.17696963191304282,0.2514351144197137,-0.004597156233703995,0.008573318433570652,0.03069901177925657
2333,9.0,299.60457,-2662.7213,0.023329974971849188,0.0,0.0,0.0,0.0,0.0035604840434559915,0.41931999659866165,0.16187466762078584,0.2282061126971898,0.009010566654523692,0.016566564154492588,0.029867740383966473
2334,9.0,299.99316,-2570.8376,0.02333998464654674,0.0,0.0,0.0,0.0,0.0035620116613417074,0.3842382383863616,0.17727532946821284,0.21995686873055278,-0.014720655519815587,-0.0022731773553951377,0.04592524870146916
2335,9.0,299.32734,-2586.0485,0.023349994321244072,0.0,0.0,0.0,0.0,0.0035635392792274234,0.4295478444330716,0.15864294695683984,0.19790338911154381,-0.006328523530701645,-0.005337373124657714,0.040106836307736565
2336,9.0,300.20585,-2589.8849,0.023360003995941403,0.0,0.0,0.0,0.0,0.0035650668971131394,0.39737175313503864,0.18017706497209182,0.20971151193441478,-0.007040402450808623,-0.0005547781296698386,0.03946234135637986
2337,9.0,300.32545,-2568.7329,0.02336998063540907,0.0,0.0,0.0,0.0,0.003566589473355697,0.4170361612707646,0.16597084260754683,0.1978236361961728,0.006133529628457244,0.01206671944714249,0.03654366937707936
2338,9.0,300.14043,-2703.7015,0.023379990310106402,0.0,0.0,0.0,0.0,0.003568117091241413,0.38633174481547466,0.1796301024356108,0.25589590745495977,0.01047446176299889,-0.00829526173317859,0.03139918279710807
2339,9.0,300.47737,-2709.671,0.023389999984803955,0.0,0.0,0.0,0.0,0.003569644709127129,0.4263784589152776,0.17356503051703484,0.2237288442153178,-0.0038533017748912765,-0.01069981567798959,0.02952083293397937
2340,9.0,299.96342000000004,-2636.5378,0.0233999766242714,0.0,0.0,0.0,0.0,0.0035711672853696863,0.39191130781613465,0.17324450911290182,0.23628583992209676,0.005611975148833824,-0.0002733037772204827,0.03534613542839197
2341,9.0,299.97615,-2615.3085,0.023409986298968954,0.0,0.0,0.0,0.0,0.0035726949032554023,0.4221085520663706,0.15564505401847084,0.2172348837944138,0.005531281734720004,0.002151173633379308,0.009187659061951351
2342,9.0,300.39287,-2638.3058,0.023419995973666285,0.0,0.0,0.0,0.0,0.0035742225211411183,0.4109286037754956,0.16140899813982784,0.2296414726563488,0.014337165688218087,-0.005649887015900434,0.01895106790632478
2343,9.0,299.81601,-2610.992,0.02343000564836384,0.0,0.0,0.0,0.0,0.003575750139026862,0.41269219597204865,0.15999343708762287,0.2209907384700878,-0.005180088844759965,-0.00986319614602167,0.024382371139102677
2344,9.0,299.30652000000003,-2624.2852,0.023439982287831063,0.0,0.0,0.0,0.0,0.0035772727152693917,0.3925445891286346,0.1817133041112068,0.22345926902621277,0.013526752046236486,0.01907301762211028,0.03809716923164786
2345,9.0,299.37479,-2644.6267,0.023449991962528616,0.0,0.0,0.0,0.0,0.0035788003331551355,0.41992580870095053,0.16665512079757983,0.2173195712377718,-0.0006228205995276074,0.028066601191707872,0.01886568334689798
2346,9.0,299.15612999999996,-2710.7067,0.02346000163722617,0.0,0.0,0.0,0.0,0.0035803279510408237,0.4094611136556656,0.18619229511824884,0.2283337315472848,-0.0006718322566696814,0.009921811144431521,0.03048498498713377
2347,9.0,299.97475,-2752.9477,0.023469978276693393,0.0,0.0,0.0,0.0,0.003581850527283381,0.43691966447561353,0.18509269584472682,0.21481499937558976,-0.02189897519076058,-0.004294938179377396,0.025279346737127274
2348,9.0,300.24815,-2756.5175,0.023479987951390946,0.0,0.0,0.0,0.0,0.003583378145169097,0.43649221478842765,0.16602821282820884,0.2353920621413878,-0.012663064753747188,0.006279846185297563,0.02917211784581387
2349,9.0,300.18119,-2604.8395,0.023489997626088277,0.0,0.0,0.0,0.0,0.003584905763054813,0.4031496699752746,0.16751207706965485,0.22114440798025378,-0.0028711875332391476,-0.008262001393346053,0.03214060018678026
2350,9.0,299.96946,-2535.7025,0.023499974265555723,0.0,0.0,0.0,0.0,0.003586428339297343,0.3800177578773326,0.17390407413299583,0.2168684013657448,0.001127711998871509,-0.020414139242468682,0.04593906436658266
2351,9.0,299.89729,-2708.1133,0.023509983940253276,0.0,0.0,0.0,0.0,0.0035879559571830866,0.4148688091743636,0.17653588994273584,0.23179412249379877,-0.0025475617334497673,-0.025487784441698476,0.02804937594000787
2352,9.0,299.81831,-2649.2985,0.02351999361495083,0.0,0.0,0.0,0.0,0.0035894835750688303,0.4023513302214846,0.17978315386321583,0.22318609679925278,0.008593595695896862,0.002336552197474748,0.039755591134071365
2353,9.0,300.35491,-2502.1939,0.02353000328964816,0.0,0.0,0.0,0.0,0.0035910111929545185,0.39677205093085266,0.16132022729856685,0.2025121875888968,0.0019168741385557483,0.016803023290579283,0.02137542785084048
2354,9.0,300.07673,-2565.9308,0.023539979929115606,0.0,0.0,0.0,0.0,0.003592533769197076,0.3980989424668066,0.16153804567256386,0.2203419139010538,0.0050705353320228755,0.013780761687305286,0.035441590680562664
2355,9.0,299.90848,-2778.2149,0.02354998960381316,0.0,0.0,0.0,0.0,0.003594061387082792,0.4211011686844496,0.19130073735241282,0.23210607180208578,-0.01218933385499359,0.00969773047951648,0.03685826529462757
2356,9.0,299.63249,-2642.6011,0.023559999278510713,0.0,0.0,0.0,0.0,0.0035955890049685357,0.40596601889322664,0.16627393610995986,0.23104479364734576,0.0013011315773366887,0.018887726602823483,0.045624228308760756
2357,9.0,299.44005,-2542.9913,0.023569975917977937,0.0,0.0,0.0,0.0,0.0035971115812110377,0.4129429551067966,0.16147557880389884,0.1985873126640418,-0.019539781413176284,0.001068861014513369,0.03168818401713027
2358,9.0,299.70327000000003,-2665.4898,0.023579985592675712,0.0,0.0,0.0,0.0,0.003598639199096809,0.4169766936223956,0.16240476967560286,0.2308608887541958,-0.015568567521497986,-0.018791011880778485,0.02806475201027537
2359,9.0,300.68357000000003,-2711.6229,0.023589995267373043,0.0,0.0,0.0,0.0,0.003600166816982525,0.44848503283952657,0.15858962973657784,0.2171909898000818,-0.019785818802458284,-0.016511109989769682,0.02137493439804178
2360,9.0,300.68202,-2699.3907,0.023600004942070374,0.0,0.0,0.0,0.0,0.0036016944348682134,0.4091723475096666,0.16568044512888683,0.24569457637566675,0.019136956743170584,-0.0008672046888864393,0.014361390471608884
2361,9.0,300.26604,-2701.0052,0.02360998158153782,0.0,0.0,0.0,0.0,0.003603217011110771,0.4261960840297786,0.16327123023361584,0.2315708224367608,0.02869427416490437,0.006795880478376182,0.014680420371594685
2362,9.0,301.26526,-2588.3833,0.023619991256235373,0.0,0.0,0.0,0.0,0.003604744628996487,0.38946058006426665,0.17202526526757184,0.2253180560696608,0.015470628793332187,-0.016809013625170486,0.02015301050619728
2363,9.0,300.43796000000003,-2641.3832,0.023630000930932926,0.0,0.0,0.0,0.0,0.0036062722468822306,0.4287878359305646,0.17623217835776184,0.19789451304066782,0.013657466375386987,-0.02216684204019698,0.04674141253776826
2364,9.0,299.45657,-2818.2453,0.02363997757040015,0.0,0.0,0.0,0.0,0.0036077948231247325,0.4295375295470536,0.17946200424402084,0.24767667595628473,0.0016185598328894186,0.001036889427483019,0.031319339702478174
2365,9.0,299.66582,-2570.8536,0.023649987245097925,0.0,0.0,0.0,0.0,0.003609322441010504,0.4273365476798336,0.16419905321768483,0.18993970942058983,0.015646793468968283,0.015259727877767885,0.04716995754831236
2366,9.0,299.84232000000003,-2446.35,0.023659996919795256,0.0,0.0,0.0,0.0,0.00361085005889622,0.36847456955810864,0.15531969941136084,0.21983505580353077,-0.002012881004080888,0.007709121476281053,0.024316076211559876
2367,9.0,299.78997999999996,-2648.0483,0.023669973559262703,0.0,0.0,0.0,0.0,0.0036123726351387497,0.4112694003141296,0.17302098614084183,0.22065016484647576,-0.012440198367751988,-0.004688449054463896,0.052190989736099654
2368,9.0,300.58148,-2750.2706,0.023679983233960034,0.0,0.0,0.0,0.0,0.0036139002530244657,0.4071745222874966,0.18568049236023781,0.24315858362788376,-0.013197904766031788,-0.0018246278494517482,0.026810487201739074
2369,9.0,299.49764,-2612.784,0.02368999290865781,0.0,0.0,0.0,0.0,0.0036154278709102095,0.4194021711817716,0.16134422106093485,0.2134747126733138,-0.010171008556800391,0.008464411070422331,0.04926222578580315
2370,9.0,299.42514,-2599.9995,0.02370000258335514,0.0,0.0,0.0,0.0,0.0036169554887959254,0.3981970960039936,0.17334081853490685,0.2187970114735838,-0.01119999037785299,-0.0006677038400647383,0.018916746085687483
2371,9.0,300.27715,-2633.7966,0.023709979222822586,0.0,0.0,0.0,0.0,0.003618478065038455,0.4260067481160926,0.16978478691145385,0.2048168857363528,-0.0066511263531900625,-0.0039317166935052255,0.054496856160920946
2372,9.0,299.85575,-2696.2594,0.02371998889752014,0.0,0.0,0.0,0.0,0.003620005682924199,0.39742970090825763,0.18238603125009983,0.23977979984442377,0.011233049688865689,0.0012275058866453989,0.010970093049413888
2373,9.0,300.23998,-2690.2989,0.02372999857221747,0.0,0.0,0.0,0.0,0.003621533300809915,0.4250488012065506,0.18881424187201482,0.2039206356253998,0.02092526920241328,-0.00924181049102068,0.04063189744330606
2374,9.0,300.28935,-2716.2481,0.023739975211684916,0.0,0.0,0.0,0.0,0.0036230558770524446,0.40741689171141665,0.17864975256635784,0.23960494327466678,0.01144643813342549,-0.021782678397282977,0.024052970624343376
2375,9.0,299.87874,-2619.7652,0.02374998488638247,0.0,0.0,0.0,0.0,0.0036245834949381883,0.4277350184141596,0.17588945664393785,0.1927187302048578,0.007316337101516253,-0.024943147314196976,0.057670255162361045
2376,9.0,300.03387000000004,-2604.9143,0.0237599945610798,0.0,0.0,0.0,0.0,0.0036261111128239043,0.4030852475339166,0.16995959281870585,0.2187840520048048,0.015069544886998285,-0.005313310258632895,0.024095248484765876
2377,9.0,300.26815,-2663.8956,0.023770004235777353,0.0,0.0,0.0,0.0,0.0036276387307096203,0.43949443430472357,0.14627271350849286,0.2239905971136508,-0.00010967657196173489,0.018564978074970682,0.023347916754259977
2378,9.0,299.85124,-2703.4651,0.023779980875244577,0.0,0.0,0.0,0.0,0.00362916130695215,0.4000172883511326,0.16616933830213684,0.25559925822318275,-0.012258807348100089,0.01114637728856179,0.007491847926862823
2379,9.0,300.10627,-2570.5757,0.02378999054994213,0.0,0.0,0.0,0.0,0.0036306889248378937,0.40136652205179163,0.15321229119087587,0.2268120122821028,-0.024113004679518275,0.013839088416061686,0.029606578210441766
2380,9.0,299.59294,-2713.0338,0.023800000224639684,0.0,0.0,0.0,0.0,0.0036322165427236375,0.40709030093918463,0.17841543848073282,0.23918880145859678,-0.019959771553126084,0.009361530043336081,0.025410354908806776
2381,9.0,299.48956,-2795.1424,0.023809976864106908,0.0,0.0,0.0,0.0,0.0036337391189661394,0.44212018074636456,0.17247478354193585,0.2350585407384718,-0.006217463923015914,-0.002176027645082208,0.03316880180525587
2382,9.0,300.20342,-2664.5044,0.02381998653880446,0.0,0.0,0.0,0.0,0.0036352667368518554,0.4196521501139426,0.16977282042777284,0.22051784451591677,-0.003567323586542426,-0.002789938250120467,0.03278267549689817
2383,9.0,300.55003,-2680.4886,0.023829996213502014,0.0,0.0,0.0,0.0,0.003636794354737599,0.4206136636638366,0.18703013136093682,0.2071578075748838,0.009198730237843991,-0.012614201780924789,0.047907801204881854
2384,9.0,300.43406,-2660.2232,0.02383997285296946,0.0,0.0,0.0,0.0,0.003638316930980129,0.40829195476277863,0.17488006702681883,0.22546941536959877,0.02165644263357448,0.0025128038099694276,0.023070887084169277
2385,9.0,300.66385,-2617.0587,0.02384998252766679,0.0,0.0,0.0,0.0,0.003639844548865845,0.40461052330694963,0.18203814196076584,0.2088718214440438,0.012456187454329987,0.004605157160468626,0.026954820625483673
2386,9.0,300.18956000000003,-2719.1524,0.023859992202364344,0.0,0.0,0.0,0.0,0.0036413721667515886,0.40713096266569765,0.18639227015798485,0.2330311995408888,0.010025724400486961,-0.012936152880948888,0.037363949035284665
2387,9.0,300.32877,-2767.5494,0.023870001877061897,0.0,0.0,0.0,0.0,0.0036428997846373323,0.43206225495372463,0.18010028087951382,0.2291033659257418,-0.01054373767233589,-0.015975390476398284,0.032802613219115866
2388,9.0,299.85457,-2635.3686,0.02387997851652912,0.0,0.0,0.0,0.0,0.0036444223608798343,0.40545005167730463,0.1722038202001938,0.22343237736855878,9.606202686058392e-05,-0.0031274556074558373,0.04504357925945516
2389,9.0,300.03792999999996,-2634.4438,0.023889988191226674,0.0,0.0,0.0,0.0,0.0036459499787655503,0.4113936551738926,0.16461358396609585,0.2247978737333228,-0.005415244738568046,0.006977372113763013,0.02770463279223437
2390,9.0,300.24984,-2718.5851,0.023899997865924227,0.0,0.0,0.0,0.0,0.003647477596651294,0.4081565440194146,0.16742440053850186,0.2508010427721358,-0.018392910982738982,0.009189082779666862,0.03285550690083607
2391,9.0,300.38781,-2749.7842,0.023909974505391673,0.0,0.0,0.0,0.0,0.0036490001728938237,0.4241321138410806,0.18447609262887282,0.22725752821857179,-0.00941970822962782,0.010056398115464221,0.03173433553268507
2392,9.0,300.31674,-2663.3933,0.023919984180089005,0.0,0.0,0.0,0.0,0.0036505277907795397,0.4121572100517496,0.16385354506608585,0.2335943132839638,-0.015836654246206085,0.007395888278792342,0.03860503551302036
2393,9.0,300.46071,-2706.8509999999997,0.023929993854786558,0.0,0.0,0.0,0.0,0.0036520554086652834,0.43939880376028556,0.17486464536029683,0.2085516546774458,0.002675752461901208,0.014130201249292287,0.013119307969024887
2394,9.0,299.20883,-2780.3512,0.02394000352948411,0.0,0.0,0.0,0.0,0.003653583026551027,0.43021561677897563,0.18098171727400483,0.2339599952450538,0.0018078436655202782,-0.00045771704834315555,0.029063064777301174
2395,9.0,299.44749,-2769.8197,0.023949980168951557,0.0,0.0,0.0,0.0,0.003655105602793557,0.43220804137811264,0.18229155581077583,0.22745641908070077,0.0038005663628366965,-0.004112112498908906,0.022790038474451678
2396,9.0,299.45024,-2755.8574,0.023959989843648888,0.0,0.0,0.0,0.0,0.003656633220679245,0.4096685867461416,0.18766162935326083,0.24038159947631677,0.014251643326777686,-0.00947648509103126,0.026558266960346875
2397,9.0,299.57914,-2715.1829,0.02396999951834644,0.0,0.0,0.0,0.0,0.003658160838564989,0.4263737675673146,0.16479888714438384,0.2341751589037888,0.01747350912025108,0.001048286971232869,0.005387490501103915
2398,9.0,300.65151000000003,-2597.2198,0.023979976157813887,0.0,0.0,0.0,0.0,0.0036596834148075186,0.4039025755945806,0.16172272063578985,0.2238646703912228,0.01022756412438199,-0.0016685839903264185,0.03189739787127807
2399,9.0,300.17992000000004,-2710.289,0.023989985832511218,0.0,0.0,0.0,0.0,0.0036612110326932346,0.43377266165252865,0.18239178651066784,0.20769574205297378,0.003390693221160367,-0.008915229243339621,0.04391355715168066
2400,9.0,299.88975,-2713.7762,0.02399999550720877,0.0,0.0,0.0,0.0,0.0036627386505789783,0.41882539882734865,0.16602660176054984,0.24006820122038677,-0.012982013593724988,-0.004813906338120565,0.042761640735745364
2401,9.0,300.37798,-2565.5139,0.024010005181906324,0.0,0.0,0.0,0.0,0.003664266268464722,0.4068038044734096,0.17056704638615686,0.2024813138583498,-0.009009594441052742,0.0004268792172471986,0.045805771315927654
2402,9.0,300.41755,-2641.6607,0.02401998182137377,0.0,0.0,0.0,0.0,0.0036657888447072517,0.3974315551559406,0.18123328700883282,0.2243340585000478,-0.00997410528606755,0.0032229374067791567,0.041929987345167556
2403,9.0,299.8353,-2792.9757,0.0240299914960711,0.0,0.0,0.0,0.0,0.00366731646259294,0.44220065306930656,0.17342611392832483,0.23336810519913878,-0.01081255596361619,0.01834152805691788,0.030541726992733772
2404,9.0,299.15927999999997,-2738.6436,0.024040001170768655,0.0,0.0,0.0,0.0,0.0036688440804786837,0.41563775454275265,0.19174139982090282,0.22510012623815281,-0.013939488328720386,0.01024901665549919,0.03169567598836967
2405,9.0,299.24257,-2561.8857,0.0240499778102361,0.0,0.0,0.0,0.0,0.0036703666567212134,0.41940604179715363,0.15227449782582286,0.2070687428910938,6.337986678685584e-05,0.013821590600084787,0.02182605158106358
2406,9.0,300.37566,-2588.1402,0.024059987484933654,0.0,0.0,0.0,0.0,0.003671894274606957,0.39518000197622966,0.16886788676346284,0.22268209606701178,0.0013933298383859488,-0.0008159607303165542,0.03837329204289907
2407,9.0,300.52083999999996,-2649.8324,0.024069997159630985,0.0,0.0,0.0,0.0,0.003673421892492673,0.4109935125769016,0.16522136177357885,0.2292680190669918,0.021818702478088276,-0.0026572215361223474,0.03564270461341107
2408,9.0,300.30314,-2648.095,0.02407997379909843,0.0,0.0,0.0,0.0,0.0036749444687352306,0.40330753434085465,0.16689287993354482,0.23475434279344976,0.01201590090162709,-0.01059520672441549,0.03551902730620507
2409,9.0,300.4321,-2663.2875,0.024089983473795762,0.0,0.0,0.0,0.0,0.0036764720866209466,0.4303735216745596,0.15868244344573784,0.2205169123258248,0.008784536395091242,-0.016262665118250086,0.016700686043729384
2410,9.0,299.61959,-2717.3476,0.024099993148493315,0.0,0.0,0.0,0.0,0.003677999704506635,0.42609624849742556,0.16516760885577383,0.2347419710097288,0.003718287313641387,-0.01312560430514629,0.03018256630928737
2411,9.0,299.84398999999996,-2769.8396,0.024110002823190868,0.0,0.0,0.0,0.0,0.0036795273223923786,0.4403893367930436,0.17776052427859781,0.2238122144335458,-0.007864228281713903,-0.002094710676856848,0.03793247353389367
2412,9.0,299.47109,-2878.8086,0.024119979462658092,0.0,0.0,0.0,0.0,0.0036810498986349083,0.4330924263303946,0.19185309037942583,0.25014042397193775,-0.021566707178218278,0.004381898545359715,0.04123942295151416
2413,9.0,299.29735,-2923.4072,0.024129989137355645,0.0,0.0,0.0,0.0,0.003682577516520652,0.45688880757891454,0.17608094064783583,0.2556730228304627,-0.021085006054178082,0.004468802169336436,0.00992961023177623
2414,9.0,300.07442000000003,-2689.0793,0.024139998812052976,0.0,0.0,0.0,0.0,0.003684105134406368,0.4056530968648436,0.1913868028159068,0.2203730612091278,0.008710254320985173,0.011978485628434489,0.031467598457110176
2415,9.0,300.55815,-2569.2167,0.024149975451520644,0.0,0.0,0.0,0.0,0.0036856277106489255,0.4231195730161506,0.15458415076626786,0.2032740098090828,0.01169516671497309,0.016407485915292785,0.019469853984024982
2416,9.0,300.17958,-2653.4645,0.024159985126217975,0.0,0.0,0.0,0.0,0.0036871553285346415,0.4130667337390126,0.16195492716120685,0.2315653103562168,0.012314395261836189,-0.0058377115657372745,0.03171681846495627
2417,9.0,300.82158,-2642.3671,0.02416999480091553,0.0,0.0,0.0,0.0,0.0036886829464203574,0.4152974443641666,0.17459584024126784,0.2133203338880778,0.0016514854962139283,-0.006213448716844644,0.020282767314003282
2418,9.0,300.26349,-2643.0793,0.02418000447561286,0.0,0.0,0.0,0.0,0.0036902105643060734,0.38892006179842165,0.17613673019834183,0.23837331751311475,-0.0031611724164584266,-0.006024027791475254,0.057529641379733536
2419,9.0,299.95799,-2748.2081,0.024189981115080528,0.0,0.0,0.0,0.0,0.003691733140548631,0.4232302401920726,0.17819699189167384,0.23395940755999578,0.014665052407327985,0.0007344706787091123,0.04141337570218196
2420,9.0,299.61424,-2703.9651,0.02419999078977786,0.0,0.0,0.0,0.0,0.003693260758434347,0.41549457217112157,0.18570043312220583,0.22074285696562376,-0.0028363397344749373,-0.01078373609102189,0.05954974695835244
2421,9.0,299.53528,-2696.8081,0.02421000046447519,0.0,0.0,0.0,0.0,0.003694788376320063,0.44238672631767056,0.15936034829264187,0.21801525862393076,-0.007425720793536583,-0.025491599328324975,0.01949234509649468
2422,9.0,299.56504,-2776.5547,0.024219977103942858,0.0,0.0,0.0,0.0,0.0036963109525626203,0.4371453558028876,0.19386688442317182,0.2129910782680828,0.0033658760917611064,-0.025871653228833374,0.052984848897947454
2423,9.0,300.20617000000004,-2727.0248,0.02422998677864019,0.0,0.0,0.0,0.0,0.0036978385704483363,0.4265535687975595,0.17003601214124783,0.2323578644519358,0.01077726952888369,0.00905819538739928,0.02852137823409087
2424,9.0,299.86762000000004,-2583.2031,0.024239996453337742,0.0,0.0,0.0,0.0,0.0036993661883340523,0.39366871918707763,0.17099055453045384,0.22056996610106078,0.0035201874958654565,0.011110046192976189,0.060367724512330544
2425,9.0,300.30962999999997,-2638.3412,0.024249973092805188,0.0,0.0,0.0,0.0,0.0037008887645766098,0.4078447163011396,0.16291116167807984,0.2312339775735168,-0.0033960564552646764,0.009987418784431492,0.014421629203303987
2426,9.0,300.49523999999997,-2768.2773,0.02425998276750274,0.0,0.0,0.0,0.0,0.0037024163824623257,0.4365471937388536,0.17430882701794184,0.23063114442652177,-0.004491795043255656,0.004092415626239976,0.03264556451986637
2427,9.0,300.34984,-2817.4361,0.024269992442200072,0.0,0.0,0.0,0.0,0.0037039440003480417,0.4402303983823576,0.19082822843327982,0.2253716063374458,0.000953044562378175,-0.0013329303038999787,0.028068599320905073
2428,9.0,300.47586,-2756.945,0.024280002116897625,0.0,0.0,0.0,0.0,0.0037054716182337855,0.42931804944289265,0.17514622756308684,0.23357817220987076,-0.010984667638852289,-0.013997855587480786,0.02673647637468477
2429,9.0,300.21727000000004,-2827.4433,0.02428997875636507,0.0,0.0,0.0,0.0,0.003706994194476315,0.42051383826398464,0.1852250871027928,0.25373323657402075,-0.0004753303140364495,-0.01242525799502749,0.016780723682378484
2430,9.0,299.74115,-2743.5837,0.024299988431062625,0.0,0.0,0.0,0.0,0.003708521812362059,0.4123564555514136,0.18924571416209782,0.23237876780149877,0.004795234773227825,0.0035965756103043768,0.04805068061473295
2431,9.0,299.57947,-2702.7787,0.024309998105759956,0.0,0.0,0.0,0.0,0.003710049430247747,0.4224297928780746,0.17260054814434783,0.22654690552593876,0.02060437998849398,0.02935370746248537,0.03873128343573007
2432,9.0,300.31993,-2764.3588,0.024319974745227624,0.0,0.0,0.0,0.0,0.0037115720064903324,0.4500234909963605,0.17644153609342383,0.21383104233598083,0.006594170045193914,0.006226732628305665,0.026632958691468374
2433,9.0,300.47959,-2642.7940000000003,0.024329984419924955,0.0,0.0,0.0,0.0,0.0037130996243760206,0.4326824248099306,0.15585105789630185,0.2148099027275868,-0.003389750493267327,-0.007598972476460193,0.02107758703694588
2434,9.0,300.58911,-2593.4765,0.024339994094622286,0.0,0.0,0.0,0.0,0.0037146272422617366,0.40662510768577365,0.16624979036007687,0.21547721911094578,-0.009205019785189722,-0.026783534749079078,0.03688401400616876
2435,9.0,299.48843,-2713.2884,0.02435000376931984,0.0,0.0,0.0,0.0,0.0037161548601474803,0.3910586071944796,0.18235856203988884,0.2513547738192848,-0.007598852710298373,-0.0002039453589278398,0.04094004706371806
2436,9.0,299.33459,-2798.4976,0.024359980408787285,0.0,0.0,0.0,0.0,0.00371767743639001,0.4034812763355016,0.19048207180161683,0.25671004377780876,-0.013796268466835687,-0.0008029586847683523,0.058124601573451534
2437,9.0,299.26318,-2785.2821,0.024369990083484838,0.0,0.0,0.0,0.0,0.0037192050542757538,0.42250572584056856,0.18089585446053083,0.24325463973736375,-0.018686457642709785,0.008011678766741132,0.03712633378083387
2438,9.0,299.36135,-2763.1393,0.02437999975818217,0.0,0.0,0.0,0.0,0.003720732672161442,0.4396711957846686,0.18392176376416483,0.21633239206284482,0.0019415997714709783,0.00922061096845345,0.037646669117936966
2439,9.0,299.91269,-2740.7047,0.024389976397649615,0.0,0.0,0.0,0.0,0.0037222552484040272,0.4344382656432186,0.17775406987546083,0.2209134477524598,0.012922620925863387,0.025622749355018473,0.027607033502852076
2440,9.0,299.98329,-2757.0812,0.02439998607234717,0.0,0.0,0.0,0.0,0.0037237828662897154,0.42017690220823156,0.18599296855857683,0.23191396971562678,0.01128339909958479,0.012184607043277089,0.031376375550607176
2441,9.0,300.60539,-2806.7562,0.0244099957470445,0.0,0.0,0.0,0.0,0.003725310484175459,0.4195288274442716,0.18380633431277282,0.24984863834064078,0.002095273435962388,-0.006623774477340644,0.026204241428407275
2442,9.0,300.63241,-2847.2722,0.024419972386511946,0.0,0.0,0.0,0.0,0.003726833060417989,0.42333779669018756,0.17950164258793283,0.2626602030025437,0.000956134407763119,-0.013091138602994786,0.03303389971344207
2443,9.0,300.52111,-2672.9089,0.0244299820612095,0.0,0.0,0.0,0.0,0.0037283606783037326,0.43056717403367156,0.16561242564967385,0.21631796338142079,0.0004064418816701906,0.0018337595633279784,0.03467365248277307
2444,9.0,299.99068,-2660.4431,0.02443999173590683,0.0,0.0,0.0,0.0,0.0037298882961894486,0.44143874978911257,0.15565902673734985,0.21161050474183082,-0.006763006592131785,0.004112734431820286,0.013421343638333487
2445,9.0,299.72181,-2802.1038,0.024450001410604383,0.0,0.0,0.0,0.0,0.003731415914075137,0.4477430703213006,0.1803119184279008,0.2237145979189118,-0.011939858508122288,-0.0026586496108132874,0.020153952828790282
2446,9.0,299.71623999999997,-2795.6164,0.02445997805007183,0.0,0.0,0.0,0.0,0.003732938490317722,0.4291405482903746,0.18362484095486084,0.2370321898132558,-0.0092005481098484,-0.006658794123321813,0.024366566464042876
2447,9.0,300.23637,-2798.0238,0.02446998772476916,0.0,0.0,0.0,0.0,0.0037344661082034103,0.3981632230531506,0.1991574380978088,0.25320871752725477,0.013066830733095789,0.015621129870435487,0.05542180860745665
2448,9.0,299.85483999999997,-2901.303,0.024479997399466713,0.0,0.0,0.0,0.0,0.003735993726089154,0.4220834031988886,0.20286667313638182,0.25697357999631776,0.017696202240479183,0.009093000629659292,0.029072699772502073
2449,9.0,299.52193,-2796.1976,0.02448997403893416,0.0,0.0,0.0,0.0,0.0037375163023316837,0.4332586398767986,0.18883438528400281,0.2278812241851258,0.009604821119547042,0.002122376558912258,0.036877607225786466
2450,9.0,299.75178999999997,-2668.7974,0.024499983713631712,0.0,0.0,0.0,0.0,0.0037390439202174275,0.4420722641491356,0.16982917739833484,0.1993463079164488,0.0038636864738411662,-0.004607223988022605,0.03026787690145687
2451,9.0,300.01715,-2610.5976,0.024509993388329043,0.0,0.0,0.0,0.0,0.0037405715381031435,0.4358570690957436,0.15972345659847784,0.19797594795120482,0.002100890590541758,0.003050924320777787,0.04952966200394705
2452,9.0,300.27987,-2541.0731,0.024520003063026596,0.0,0.0,0.0,0.0,0.0037420991559888594,0.40530956455093964,0.16494557536136084,0.2021676318923918,-0.006621131313129783,-0.0011873291016302589,0.04153366064805316
2453,9.0,300.15566,-2544.2308,0.024529979702494042,0.0,0.0,0.0,0.0,0.003743621732231417,0.37153366280251765,0.17048963407851683,0.2313593571408908,-0.015703157532280985,-0.015338173700509886,0.04415301145506296
2454,9.0,299.94038,-2780.53,0.024539989377191596,0.0,0.0,0.0,0.0,0.003745149350117133,0.4206787143202566,0.18404255330858582,0.24049044280205875,-0.01029546404008319,-0.005086642867537565,0.043838513822774455
2455,9.0,299.84193,-2878.2939,0.024549999051888927,0.0,0.0,0.0,0.0,0.003746676968002849,0.43340264298101056,0.19887040460948083,0.2426564371433258,0.0050112496633718355,0.018394196797115882,0.037065344230814666
2456,9.0,300.97373999999996,-2652.1397,0.024559975691356595,0.0,0.0,0.0,0.0,0.0037481995442454064,0.4312982947758276,0.15858400619852284,0.21630194389733978,0.016584575688270185,0.014702404859014386,0.026033570594813375
2457,9.0,300.24893,-2692.2636,0.024569985366053926,0.0,0.0,0.0,0.0,0.0037497271621311223,0.4276504221633106,0.17484064146542783,0.21588984494916882,0.006713431405814094,0.004842445439112155,0.028441364913444178
2458,9.0,299.85681,-2858.9753,0.024579995040751257,0.0,0.0,0.0,0.0,0.0037512547800168383,0.43858360352483156,0.17796174561595685,0.25251174331346876,-0.0020708439760513883,0.009087681167959303,0.02230244732758018
2459,9.0,300.22733999999997,-2801.6832,0.02459000471544881,0.0,0.0,0.0,0.0,0.0037527823979025543,0.40215259134687065,0.1975171381734238,0.25197201538270175,0.001188373458508329,-0.005070032050698205,0.04285022108598756
2460,9.0,300.37818,-2632.54,0.024599981354916256,0.0,0.0,0.0,0.0,0.0037543049741451118,0.4257499196132456,0.15730257919455584,0.21717390640339576,0.0007026642717100644,-0.004265825781479226,0.01064586720291529
2461,9.0,299.24382,-2568.4036,0.02460999102961381,0.0,0.0,0.0,0.0,0.0037558325920308278,0.42032504950535254,0.15249096857718686,0.2079145432795678,-0.004645414904166756,-0.017089759896627983,0.018172833061018984
2462,9.0,299.64087,-2683.4233,0.02462000070431114,0.0,0.0,0.0,0.0,0.0037573602099165437,0.4490204747223706,0.15970715340436883,0.2069660499934588,-0.002059484429180288,-0.003347822102804317,0.013844759576871386
2463,9.0,299.35612000000003,-2909.2412,0.02462997734377881,0.0,0.0,0.0,0.0,0.003758882786159101,0.44048476468746156,0.1935573365176218,0.25029457984215175,-0.006105464019237384,0.0057544646600464445,0.04927973474753116
2464,9.0,300.37892,-2971.4717,0.02463998701847614,0.0,0.0,0.0,0.0,0.003760410404044817,0.4435063778106716,0.20121244102312183,0.25853438031785675,0.013364870144009989,0.022087928095908777,0.04044702286981036
2465,9.0,300.36317,-2805.1689,0.024649996693173692,0.0,0.0,0.0,0.0,0.003761938021930561,0.4073548301427916,0.19185043566416382,0.2534960448581118,0.004882075879673375,0.004120449318081686,0.05350776700955545
2466,9.0,299.51687000000004,-2699.3209,0.02465997333264114,0.0,0.0,0.0,0.0,0.0037634605981730906,0.4217563665966126,0.17138841731471985,0.22738137777829476,0.0015853193527588384,-8.002730957758053e-05,0.03130233229954967
2467,9.0,299.64415,-2644.8779999999997,0.02466998300733869,0.0,0.0,0.0,0.0,0.0037649882160588344,0.4042197228758806,0.18004757160931184,0.21970958504364776,0.004403823554998546,-0.006807307507703943,0.05066162752541335
2468,9.0,300.21517,-2642.1793,0.024679992682036023,0.0,0.0,0.0,0.0,0.0037665158339445226,0.4185636864590196,0.16089487503908784,0.22369796035226983,0.0024554418979582477,0.004384672418833476,0.015634623322017184
2469,9.0,299.91933,-2578.4396,0.024690002356733354,0.0,0.0,0.0,0.0,0.0037680434518302386,0.3987625300897976,0.17244537902403384,0.21257336591435783,-0.005180972196197145,-0.004905292884514715,0.040868680819424755
2470,9.0,300.73534,-2693.4606,0.0246999789962008,0.0,0.0,0.0,0.0,0.003769566028072796,0.4031365078564756,0.17841102071029682,0.2371972279895438,-0.002241821419125548,-0.004805312660047435,0.029235357824305176
2471,9.0,299.92692999999997,-2873.3795,0.024709988670898353,0.0,0.0,0.0,0.0,0.003771093645958512,0.4323784295149286,0.2006803124681048,0.24037687773085076,0.005926803809929994,0.0036107349698517965,0.04533472654318916
2472,9.0,300.60238,-2846.9522,0.024719998345595906,0.0,0.0,0.0,0.0,0.0037726212638442558,0.44785411239975953,0.18064677732094883,0.2369015008153578,0.013151227373675089,0.015353247822247586,0.03587870272070226
2473,9.0,299.97125,-2919.0798,0.02472997498506313,0.0,0.0,0.0,0.0,0.0037741438400867855,0.45323804720361255,0.19419027332508781,0.23989904924869276,0.015126875590906386,-0.013578702392113586,0.03691258259273827
2474,9.0,299.07031,-2860.3021,0.024739984659760683,0.0,0.0,0.0,0.0,0.0037756714579725292,0.44714206102448556,0.17669502087094083,0.2456233347611358,0.0028366830236088176,-0.017677599981893284,0.02323497179211318
2475,9.0,299.02265,-2699.8887,0.024749994334458014,0.0,0.0,0.0,0.0,0.0037771990758582175,0.41433686300436456,0.17435462592246184,0.23200726978483477,-0.006162094060701334,-0.016515709131973585,0.03773150854880996
2476,9.0,299.97805,-2694.8897,0.024760004009155567,0.0,0.0,0.0,0.0,0.003778726693743961,0.4015208805720256,0.1760851962982558,0.2415730904014078,-0.010014360192665401,0.00873056258876444,0.02239020897174158
2477,9.0,299.44597000000005,-2773.2415,0.024769980648623013,0.0,0.0,0.0,0.0,0.003780249269986491,0.4315450009101756,0.1817270741800658,0.22972409306950278,-0.02177555119607958,0.004969578739759235,0.032335239451489674
2478,9.0,300.0275,-2775.085,0.024779990323320567,0.0,0.0,0.0,0.0,0.0037817768878722346,0.4416825174981706,0.17555779962120582,0.22631623914067378,-0.005239357288159305,0.017598019319039284,0.022125661529632776
2479,9.0,299.86017000000004,-2747.7107,0.024789999998017898,0.0,0.0,0.0,0.0,0.0037833045057579506,0.4269384822455476,0.1827561005841228,0.22554085963414977,0.008410400381791893,0.01100910419151399,0.039734601658249866
2480,9.0,300.10053999999997,-2855.7359,0.024799976637485344,0.0,0.0,0.0,0.0,0.0037848270820004803,0.4376130720490476,0.1971082613605708,0.2333510521999558,0.019024130331285482,0.018068140007686584,0.012417408346502788
2481,9.0,300.45975,-2843.893,0.024809986312182897,0.0,0.0,0.0,0.0,0.0037863546998861963,0.42111519206583364,0.18810421699694083,0.25525307119401675,0.0015583400489711885,-0.003707814563257806,0.035089821656595764
2482,9.0,299.99842,-2858.8206,0.024819995986880228,0.0,0.0,0.0,0.0,0.0037878823177719123,0.42191822316758665,0.20380857016433981,0.24328328431769078,0.0006079748947599503,-0.013818397849019688,0.03632439090968827
2483,9.0,300.11453,-2808.4277,0.024829972626347674,0.0,0.0,0.0,0.0,0.003789404894014442,0.43976068603350055,0.18368086355288982,0.23025034477393977,-0.0029208632339667575,-0.007901578301600062,0.058389267565822044
2484,9.0,299.35656,-2717.8245,0.024839982301045227,0.0,0.0,0.0,0.0,0.0037909325119001858,0.44458401995452657,0.16126967625107785,0.22029708771662979,0.007263169335644003,0.0019133108419290782,0.03961871421781266
2485,9.0,299.75978,-2608.5659,0.02484999197574278,0.0,0.0,0.0,0.0,0.0037924601297859295,0.4155315861972746,0.18031540400824483,0.1970919075039568,0.0005645828543949894,-0.01998038916616088,0.05695230261850465
2486,9.0,299.70682999999997,-2649.8082,0.02486000165044011,0.0,0.0,0.0,0.0,0.0037939877476716455,0.4078701995411546,0.17435188001469085,0.22325343740089879,0.0027234200022556274,-0.014648040951399086,0.03736048473319276
2487,9.0,299.87277,-2801.0926,0.024869978289907557,0.0,0.0,0.0,0.0,0.003795510323914175,0.3991894224894286,0.19740534628989082,0.2548674484709587,0.004390567710565296,0.0029808729711392574,0.042711135284510864
2488,9.0,300.08951,-2823.7342,0.02487998796460511,0.0,0.0,0.0,0.0,0.003797037941799891,0.41510917236308564,0.2025580472884228,0.24067745837301574,0.014282277930301089,0.024665697145314774,0.025343437845702577
2489,9.0,300.44346,-2793.8001,0.024889997639302663,0.0,0.0,0.0,0.0,0.003798565559685635,0.4254884098949366,0.18456548155269484,0.23919157776387076,-0.015045401163615486,0.026130130289593077,0.026439370167112678
2490,9.0,300.23925,-2920.6251,0.024899974278769887,0.0,0.0,0.0,0.0,0.003800088135928137,0.4663341122285936,0.1904617662696128,0.2310012137605448,-0.008938447666731101,0.022122834561853776,0.026818549632784773
2491,9.0,300.46576,-2890.9226,0.02490998395346744,0.0,0.0,0.0,0.0,0.0038016157538138806,0.45133410973570853,0.18409692430895183,0.24333722975301478,-0.014852746855851985,0.0026065173865432376,0.023424410044059277
2492,9.0,300.86197999999996,-2758.2708,0.024919993628164994,0.0,0.0,0.0,0.0,0.0038031433716996244,0.43960965097359456,0.16018800137182485,0.23864778670020279,-0.008605664416512952,-0.0035609541950888165,0.014810447717177384
2493,9.0,299.77296,-2799.2009,0.024930003302862325,0.0,0.0,0.0,0.0,0.0038046709895853403,0.41980233404376466,0.18111263931942584,0.24997219405783477,-0.01078376750177499,-0.02392692839140398,0.02242841458001218
2494,9.0,299.97664,-2740.7947,0.02493997994232977,0.0,0.0,0.0,0.0,0.00380619356582787,0.43439537476648565,0.15804050897738384,0.24069727754497175,0.0031734620255963173,-0.019389800133374283,0.025420194580527876
2495,9.0,300.11872,-2694.9473,0.024949989617027324,0.0,0.0,0.0,0.0,0.003807721183713586,0.42508067805469657,0.18814829337629083,0.2059677149349308,0.006173659499992754,0.0013221479042858388,0.04121521741987526
2496,9.0,300.39337,-2798.7207,0.024959999291724877,0.0,0.0,0.0,0.0,0.0038092488015993298,0.45896266708858857,0.17083118042222484,0.2209473612333068,0.018667477441836583,0.016755076295847285,0.037729403015102164
2497,9.0,299.48192,-2861.1333,0.0249699759311921,0.0,0.0,0.0,0.0,0.0038107713778418317,0.44850912792690456,0.17565619633841684,0.24554775643617674,-0.0035147291175767568,0.0050349958887404055,0.03411684419507037
2498,9.0,300.10027,-2704.2025,0.024979985605889654,0.0,0.0,0.0,0.0,0.0038122989957275755,0.40534781474221465,0.1892050727005868,0.22745713848827182,-0.01807253953962078,-0.00976766966236894,0.03585045634766457
2499,9.0,299.75011,-2696.5572,0.024989995280587207,0.0,0.0,0.0,0.0,0.003813826613613319,0.3884736136718606,0.1837315665878938,0.24748088563946175,-0.015614686613049586,0.0017806661700130685,0.02082775907903978
2500,9.0,299.50224,-2715.3064,0.024999971920054653,0.0,0.0,0.0,0.0,0.003815349189855849,0.4216861787621856,0.16471831349643185,0.2389808521405738,0.006170120825343514,0.010181078236294189,0.018252184729350383
2501,9.0,299.78047000000004,-2769.4694,0.025009981594751984,0.0,0.0,0.0,0.0,0.003816876807741565,0.4318724225474896,0.18588625305804482,0.2240908582110458,0.006885544600925343,0.0040946725395127155,0.02973842332670387
2502,9.0,300.07435,-2730.5063,0.025019991269449537,0.0,0.0,0.0,0.0,0.003818404425627281,0.4430224698279136,0.16951493814482183,0.2174683264849528,-0.005139563603035435,-0.0034305306687170164,0.04650011614570416
2503,9.0,300.15412000000003,-2758.7135,0.02503000094414709,0.0,0.0,0.0,0.0,0.0038199320435130246,0.4283575390105976,0.18685210331836682,0.22337039685994178,0.007346959546038452,0.00990173045262471,0.037243004463598364
2504,9.0,300.36978999999997,-2806.9304,0.025039977583614315,0.0,0.0,0.0,0.0,0.0038214546197555543,0.4295812006263636,0.18178359327064383,0.24187196878340475,0.0005768297043786595,0.013856300495510386,0.047586102404132656
2505,9.0,300.48667,-2845.5616,0.025049987258311868,0.0,0.0,0.0,0.0,0.0038229822376412703,0.4211789862921296,0.17777395997492385,0.26602672645979375,-0.002278669170937138,-0.002214872006215848,0.034386984777731174
2506,9.0,300.28862999999996,-2900.8541,0.02505999693300942,0.0,0.0,0.0,0.0,0.003824509855527014,0.45580371804682457,0.19181729225339283,0.23416621190540576,-0.01029903574668569,-0.012837553513717887,0.03894345699341996
2507,9.0,300.16411,-2736.8977,0.025069973572476645,0.0,0.0,0.0,0.0,0.0038260324317695438,0.4401222035366795,0.15861935849451184,0.23320700856573978,0.004332865447845526,0.0025388294427629576,0.021662228291645477
2508,9.0,299.90771,-2570.5348,0.025079983247173976,0.0,0.0,0.0,0.0,0.0038275600496552598,0.4298793190707856,0.15874202255161785,0.19275706145614083,0.008345888369125053,0.0015870094539256387,0.03168056133662797
2509,9.0,299.74042000000003,-2752.3574,0.02508999292187153,0.0,0.0,0.0,0.0,0.0038290876675409757,0.4251216032262356,0.17871303003510283,0.23281330010688378,0.011183606123735989,-0.0027116818038221573,0.024632511178039575
2510,9.0,300.15577,-2893.1031,0.025100002596569082,0.0,0.0,0.0,0.0,0.0038306152854267195,0.4402980834890376,0.17836862632611283,0.26076438166794075,0.001017924931986369,-0.012567160631782186,0.018307690569828384
2511,9.0,300.0885,-2798.9004,0.025109979236036528,0.0,0.0,0.0,0.0,0.003832137861669249,0.41305822243817264,0.1976689635684078,0.24006865718293177,0.011123616651565488,-0.0018711838544464682,0.037764717820837464
2512,9.0,300.20392999999996,-2759.3908,0.02511998891073386,0.0,0.0,0.0,0.0,0.003833665479554965,0.4487598769291516,0.15958734671254485,0.23043867757002678,-0.00018235000007654382,0.014802031661846784,0.021159645096294376
2513,9.0,299.88363,-2920.4974,0.025129998585431634,0.0,0.0,0.0,0.0,0.0038351930974407367,0.46678971000355757,0.1824450429359238,0.23852353184043976,-0.0076961947354802825,0.005272000558680945,0.03900797062728696
2514,9.0,300.11024,-2959.5485,0.02513997522489886,0.0,0.0,0.0,0.0,0.0038367156736832386,0.4700779294930795,0.2110775047917278,0.2184733996566458,-0.015077793756062385,-0.008489248363498582,0.04885148155301586
2515,9.0,299.97342000000003,-2852.3651,0.02514998489959641,0.0,0.0,0.0,0.0,0.0038382432915689824,0.44366782908160557,0.17469646610869882,0.24868348178564875,-0.016860761321027585,0.007775425219099722,0.05177473646251865
2516,9.0,299.36321,-2691.343,0.025159994574293743,0.0,0.0,0.0,0.0,0.0038397709094546706,0.4124286698860406,0.18381043797567784,0.2218619613035708,0.007181858041619202,0.01061508061187689,0.041738671540786164
2517,9.0,298.74802999999997,-2553.8698,0.025170004248991296,0.0,0.0,0.0,0.0,0.0038412985273404143,0.3904655519109496,0.16071123359096384,0.22513586356917975,0.008216081101464072,0.0065684578106563135,0.03276888313653697
2518,9.0,299.41911,-2616.9158,0.02517998088845874,0.0,0.0,0.0,0.0,0.003842821103582944,0.4160640187273216,0.15890466945766984,0.2205083807599828,0.00878724775103383,-0.01079818402419779,0.03070574989242157
2519,9.0,299.65376000000003,-2879.5121,0.025189990563156073,0.0,0.0,0.0,0.0,0.00384434872146866,0.43483695929256655,0.2006828354608538,0.23977999236194278,0.017228052323276382,-0.003715322543848786,0.03165977957707697
2520,9.0,299.93856,-2868.2476,0.025200000237853848,0.0,0.0,0.0,0.0,0.0038458763393544315,0.4473496557049736,0.18669590068295083,0.2378300837370018,0.021774627111988378,0.0037633457349883063,0.04457882575658756
2521,9.0,300.26956,-2754.3066,0.025209976877321072,0.0,0.0,0.0,0.0,0.0038473989155969335,0.4179647340599076,0.2025729116673898,0.2167027856368998,0.0056043585478321245,-0.0028791002059200673,0.031060491792181868
2522,9.0,300.10967999999997,-2949.6522,0.025219986552018625,0.0,0.0,0.0,0.0,0.003848926533482677,0.43520889300677357,0.2113659466976948,0.2500457965450988,-0.012338941245508689,-0.008770099303691412,0.04128566971257836
2523,9.0,300.32712000000004,-3058.8599,0.025229996226715956,0.0,0.0,0.0,0.0,0.0038504541513683654,0.46044760537514057,0.19701968303682882,0.27234974145632673,-0.00959975375447193,0.019958295247730382,0.00961887935673448
2524,9.0,300.40021,-2845.5729,0.025239972866183624,0.0,0.0,0.0,0.0,0.0038519767276109507,0.4503506086586445,0.1888813291611358,0.22575115969240478,-0.013049290360614689,0.013204471639929886,0.030406364885374574
2525,9.0,299.70097000000004,-2677.2474,0.025249982540880955,0.0,0.0,0.0,0.0,0.003853504345496639,0.4423192235960086,0.14741520365874786,0.22408192134516378,0.0024122147235170577,0.008616273651685002,0.02084376336436928
2526,9.0,299.86203,-2762.1638,0.02525999221557851,0.0,0.0,0.0,0.0,0.0038550319633823826,0.45190228972928354,0.17060920772281785,0.2171173265178118,-0.0017728566461923281,-0.0057899367221972645,0.03429217293937397
2527,9.0,299.93745,-2825.6669,0.02527000189027606,0.0,0.0,0.0,0.0,0.0038565595812681264,0.43772641420523356,0.17867216565856986,0.24253360083370276,0.013934019817930686,0.005453302310999035,0.04093491393871146
2528,9.0,299.31825,-2899.7633,0.025279978529743508,0.0,0.0,0.0,0.0,0.003858082157510656,0.43876719431045064,0.17904846648070782,0.2636399854517408,0.016849936770209285,0.004100796319142086,0.025563086149380177
2529,9.0,299.30564,-2920.2091,0.02528998820444084,0.0,0.0,0.0,0.0,0.003859609775396372,0.43777451318748056,0.2003667520921588,0.24952939363163376,-0.0010786712006565589,0.003157775495498177,0.029627343757991177
2530,9.0,299.34788,-2696.2406,0.02529999787913817,0.0,0.0,0.0,0.0,0.0038611373932820603,0.4292561499942836,0.17295872192219686,0.2173749554882378,-0.007191047612076144,-0.004949032763506505,0.030213362019576674
2531,9.0,300.11262,-2765.8734,0.025309974518605838,0.0,0.0,0.0,0.0,0.0038626599695246455,0.4371229021806716,0.18299045519975182,0.22064308222827678,-0.006460225981349665,0.008674642430320553,0.04493144895038875
2532,9.0,299.99793999999997,-2976.7717,0.02531998419330317,0.0,0.0,0.0,0.0,0.0038641875874103337,0.4564999221905346,0.21059789298939383,0.23776646176322275,0.0015060151045321185,0.0024293386502070575,0.03884944156964136
2533,9.0,299.77707000000004,-2820.5066,0.025329993868000722,0.0,0.0,0.0,0.0,0.0038657152052960775,0.4226243267647736,0.18162628619261884,0.25311296539280476,-0.008329700482877431,-0.005019793590865055,0.030320721947172273
2534,9.0,300.16638,-2595.1424,0.025340003542698275,0.0,0.0,0.0,0.0,0.0038672428231818212,0.3993825783559916,0.17583046522311582,0.2136454554476648,0.00045506172513109556,-0.02049776885272228,0.05210778163788765
2535,9.0,299.63196,-2807.6102,0.0253499801821655,0.0,0.0,0.0,0.0,0.003868765399424351,0.4273458189182486,0.17398087849057584,0.2521166973644808,0.008970827086926701,0.006729094225859893,0.03181630138627447
2536,9.0,300.10106,-2904.9054,0.025359989856863052,0.0,0.0,0.0,0.0,0.003870293017310067,0.4527398422619436,0.17737318916287084,0.25290568481984776,0.0016991614465441782,7.228335722381193e-05,0.04567275893555036
2537,9.0,299.88597000000004,-2866.0491,0.025369999531560605,0.0,0.0,0.0,0.0,0.003871820635195783,0.4381534484598786,0.2006337840235128,0.23242013880308177,6.441680566094374e-05,0.01106052460758879,0.041033358278677164
2538,9.0,299.68461,-2887.3859,0.02537997617102783,0.0,0.0,0.0,0.0,0.0038733432114383404,0.4470304109959666,0.18807088106865083,0.24259191337695776,-0.00914281484167557,-0.007864055421246843,0.05286327104494865
2539,9.0,300.38924,-2845.261,0.025389985845725382,0.0,0.0,0.0,0.0,0.0038748708293240564,0.43683679074993453,0.18062615768141382,0.2474253595339818,0.02306334749017518,0.012509839047124988,0.02363305749140118
2540,9.0,300.59184,-2780.7009,0.025399995520422713,0.0,0.0,0.0,0.0,0.0038763984472097723,0.4299292216382106,0.1928290528757458,0.22250536498456983,0.0003607419514199587,-0.018490755478645482,0.030768584570872868
2541,9.0,300.39564,-2856.4851,0.02540997215989038,0.0,0.0,0.0,0.0,0.00387792102345233,0.44693189268874356,0.16100671758512586,0.26036152356068176,0.002551901483628068,-0.0036059819149577062,0.004307024733195245
2542,9.0,300.36736,-2924.1744,0.025419981834587713,0.0,0.0,0.0,0.0,0.003879448641338046,0.4708449496862786,0.18600259443452682,0.2320284467119248,-0.01223338186334079,-0.015225733336912885,0.01792581484564018
2543,9.0,299.92174,-2726.532,0.025429991509285044,0.0,0.0,0.0,0.0,0.0038809762592237618,0.44402900207975055,0.15854422599959686,0.22622442854911282,0.009817954022431621,0.017668151424710784,0.03261481339258147
2544,9.0,299.16326000000004,-2821.8855,0.025440001183982597,0.0,0.0,0.0,0.0,0.0038825038771094778,0.44307110583271353,0.18145614123582682,0.23325548245052377,-0.005889333719906984,0.00972643078859898,0.03367527689424107
2545,9.0,299.23581,-3025.2053,0.025449977823450043,0.0,0.0,0.0,0.0,0.0038840264533520352,0.4463505404438686,0.2054506230113978,0.2677857083683917,-0.011000597956924488,-0.0068789696210264425,0.042761201998452056
2546,9.0,299.24726,-2908.0849,0.025459987498147596,0.0,0.0,0.0,0.0,0.003885554071237751,0.43862128629605057,0.18114476948009683,0.26421914907639976,-0.013207788007507187,-0.009481072074233961,0.03233217740968747
2547,9.0,300.15122,-2690.3801,0.025469997172844927,0.0,0.0,0.0,0.0,0.003887081689123467,0.4071024194103806,0.1807138240800658,0.2299921281184558,-0.009282090323570991,0.005251609001743455,0.050959103569271955
2548,9.0,299.81423,-2681.2331,0.025479973812312595,0.0,0.0,0.0,0.0,0.0038886042653660247,0.4321637927462456,0.17953312426853985,0.20333098486220583,0.012337920902657989,-0.001936351439928008,0.03385087111007087
2549,9.0,300.36512,-2714.0718,0.025489983487009926,0.0,0.0,0.0,0.0,0.0038901318832517406,0.42394399382751463,0.17465124475673585,0.22641480811040177,0.0009045356394057172,-0.0008721715294191281,0.04120582155169796
2550,9.0,300.07854,-2743.8205,0.02549999316170748,0.0,0.0,0.0,0.0,0.0038916595011374844,0.4213648264929706,0.2031267440395488,0.2095613482695948,0.008015784050846294,0.00016422011868726384,0.049487949537080356
2551,9.0,299.83594,-2826.2664,0.02551000283640481,0.0,0.0,0.0,0.0,0.0038931871190231726,0.42695393430957257,0.18747363092970684,0.24468683835621075,0.005890211295818594,0.006764428992622164,0.03063371490306227
2552,9.0,299.82512,-2834.3082,0.02551997947587248,0.0,0.0,0.0,0.0,0.003894709695265758,0.44135032345288555,0.17816752657876583,0.24204108022509477,-0.0004903832385820575,0.0005864390744845304,0.03174049913304337
2553,9.0,299.86315,-2813.2259,0.02552998915056981,0.0,0.0,0.0,0.0,0.003896237313151446,0.43365864061877557,0.1944968828053478,0.22699492419015477,-0.005360574120147474,-0.0016276760440391183,0.037206858792781065
2554,9.0,299.76904,-3058.9302,0.02553999882526714,0.0,0.0,0.0,0.0,0.003897764931037162,0.47914242435767557,0.1956389777880638,0.2550569870346648,0.0005561778840204835,0.0047456369914329055,0.029853859870846572
2555,9.0,300.20838,-3085.3447,0.02554997546473481,0.0,0.0,0.0,0.0,0.0038992875072797195,0.46989259591728855,0.2073864474599488,0.2605887043656028,-0.0015041771701757287,0.016584359865998884,0.025696729784569775
2556,9.0,299.41193,-2795.3371,0.02555998513943214,0.0,0.0,0.0,0.0,0.0039008151251654355,0.4345719437289116,0.17587274814978884,0.23926799708641275,0.0017020942989586286,0.0016125479160710885,0.03944174806134746
2557,9.0,299.63442000000003,-2684.9152,0.025569994814129693,0.0,0.0,0.0,0.0,0.0039023427430511792,0.4098732328688386,0.15997219936552684,0.24630175636559076,-0.0053914896979236045,-3.3962059096544266e-05,0.035043904201814066
2558,9.0,299.79918,-2804.6695,0.025580004488827024,0.0,0.0,0.0,0.0,0.0039038703609368675,0.44156169755624664,0.17100272366415484,0.23998506404968176,-0.003334535252918007,-0.0014868369145893785,0.017347670550581784
2559,9.0,299.81301,-2835.2337,0.025589981128294692,0.0,0.0,0.0,0.0,0.0039053929371794527,0.44520987414379354,0.16187709942102585,0.2547532957146928,-0.000988733034485353,-0.0005335438627566795,0.02101945383895858
2560,9.0,299.79172,-2871.8586,0.025599990802992023,0.0,0.0,0.0,0.0,0.003906920555065141,0.4573987662217435,0.1847975766206008,0.2307769612484128,0.01019402351957179,-0.0026664259000307475,0.018706345715672583
2561,9.0,299.89487,-2935.0811,0.025610000477689576,0.0,0.0,0.0,0.0,0.003908448172950885,0.45400974861227356,0.2065134210412878,0.23166821603637278,-0.003089454067755377,-0.00983874844760887,0.03536932568343067
2562,9.0,300.1248,-2954.0552,0.025619977117157022,0.0,0.0,0.0,0.0,0.003909970749193414,0.44594674001401663,0.20082550107493383,0.25118676682020374,0.0042459842166960166,-0.01153465574013189,0.03384538436077937
2563,9.0,300.31802999999996,-2916.2236,0.025629986791854575,0.0,0.0,0.0,0.0,0.003911498367079158,0.42340338436916064,0.2142736097146588,0.24878216221288774,-0.005852487183995514,0.005931549670748375,0.047036227786864254
2564,9.0,300.17321,-2949.0308,0.025639996466551906,0.0,0.0,0.0,0.0,0.003913025984964874,0.45523226525542654,0.1840595657777648,0.25713991513273377,0.0017770624447074083,0.007296037243712813,0.027115506892592175
2565,9.0,300.07835,-2813.8041,0.025649973106019353,0.0,0.0,0.0,0.0,0.0039145485612074316,0.4376786394630186,0.16795438100330684,0.24969315511279574,-0.005118337229340555,0.005416153421257725,0.031514350829974266
2566,9.0,300.30122,-2575.7166,0.025659982780716906,0.0,0.0,0.0,0.0,0.00391607617909312,0.4245468776370146,0.16862139341163584,0.18978525970784682,-0.0013380474195549988,-0.002015246436439338,0.05267532936340024
2567,9.0,300.19125,-2773.1714,0.025669992455414237,0.0,0.0,0.0,0.0,0.003917603796978836,0.43682595910636557,0.17556847927725985,0.23058041099401477,0.0033144219344579764,0.0039240513551737155,0.04674565298943675
2568,9.0,299.91713,-2930.403,0.02568000213011179,0.0,0.0,0.0,0.0,0.0039191314148645795,0.44830247556900954,0.19072905151349184,0.25173781275458773,-0.006041411920790933,-0.007263428119719543,0.04670598526127186
2569,9.0,300.05977,-2777.8692,0.025689978769579014,0.0,0.0,0.0,0.0,0.003920653991107109,0.4160781231687136,0.19227036703560782,0.2360543832017538,-0.0024329421728626977,-0.006607322132816924,0.053033054271454945
2570,9.0,299.98717,-2798.8853,0.025699988444276567,0.0,0.0,0.0,0.0,0.003922181608992853,0.4388372098923606,0.17326811784023186,0.23868591530146577,0.000924921238432619,-0.002472374016404318,0.03511520559810096
2571,9.0,300.14445,-2948.3476,0.02570999811897412,0.0,0.0,0.0,0.0,0.003923709226878569,0.4472968552422626,0.2048747727145658,0.24405242220359877,0.01911921169416928,0.012967453189787988,0.030192445497762375
2572,9.0,299.89044,-3008.9363,0.025719974758441566,0.0,0.0,0.0,0.0,0.003925231803121126,0.46829754774236954,0.2091387824478908,0.2372051617378268,0.007210361172232243,0.0028125718255542272,0.021502178345599778
2573,9.0,300.27229,-3000.244,0.025729984433138897,0.0,0.0,0.0,0.0,0.003926759421006815,0.4588786585227976,0.2015760762190098,0.25154452516551173,0.008083755704654572,-0.017355983254402185,0.033142000326860765
2574,9.0,300.63319,-2975.0409,0.02573999410783645,0.0,0.0,0.0,0.0,0.003928287038892558,0.4536656792758165,0.19631755138003382,0.25435492630537676,0.003507815104194397,-0.015657188401744185,0.027088453114922174
2575,9.0,300.84897,-2739.1858,0.02575000378253378,0.0,0.0,0.0,0.0,0.003929814656778274,0.4152117335382077,0.16061481271144784,0.2568175394809178,0.00993624083910562,0.0002696339778758018,0.02621918889388248
2576,9.0,300.56345,-2754.3390000000004,0.02575998042200145,0.0,0.0,0.0,0.0,0.003931337233020832,0.43050041098458264,0.17253846631072084,0.23421142312486778,-0.006590389102445764,0.014220666244720487,0.024809088246466375
2577,9.0,300.43836,-2972.1459999999997,0.02576999009669878,0.0,0.0,0.0,0.0,0.003932864850906548,0.45976103723988154,0.18359790876720283,0.26009924377229676,-0.0054755225817170045,0.0019617065038053582,0.035639759095370364
2578,9.0,299.82763,-2912.8918,0.02577999977139611,0.0,0.0,0.0,0.0,0.003934392468792264,0.46383347177679957,0.19307606298512384,0.22853683752982976,-0.015861206309379185,0.01129052123453769,0.03711331959654946
2579,9.0,300.08167000000003,-2669.3709999999996,0.02578997641086378,0.0,0.0,0.0,0.0,0.003935915045034821,0.4145019518431576,0.1926439118174738,0.2042762661454978,0.002320661193506428,0.008599714611925751,0.055680161038454044
2580,9.0,299.80987999999996,-2824.2363,0.02579998608556111,0.0,0.0,0.0,0.0,0.0039374426629205095,0.4280012397454335,0.18518603644393883,0.24531005809521778,0.0035063299835228273,-0.0010771679428081989,0.04154811263422946
2581,9.0,299.48908,-3007.123,0.025809995760258664,0.0,0.0,0.0,0.0,0.003938970280806253,0.44711025510384655,0.20050747226604682,0.2664725869012967,0.0068598743149418835,-0.01206317408504259,0.036264831055560165
2582,9.0,300.19345,-2849.2448,0.02581997239972611,0.0,0.0,0.0,0.0,0.003940492857048783,0.43756884368218263,0.18322241854514482,0.24530800119751475,0.00933290430946094,-0.011787804118615687,0.034083391743018866
2583,9.0,300.31989,-2885.4794,0.025829982074423663,0.0,0.0,0.0,0.0,0.003942020474934527,0.4378598693759046,0.18370086510986383,0.2555529628261137,0.005490851535854855,-0.0030098112926702472,0.023714032386392775
2584,9.0,299.83238,-2897.5549,0.025839991749120994,0.0,0.0,0.0,0.0,0.003943548092820243,0.4490587350461466,0.19252840130607382,0.23919721143442677,0.00943943874220007,0.0041305820217317065,0.023243539834958776
2585,9.0,299.86233,-2818.5573,0.025850001423818547,0.0,0.0,0.0,0.0,0.003945075710705986,0.43392929998548757,0.18405921114022983,0.23878252869850078,0.0022873015551640877,-0.013382593914759187,0.042768385941661054
2586,9.0,298.79594,-2888.9504,0.025859978063285993,0.0,0.0,0.0,0.0,0.003946598286948516,0.4482808832093786,0.18869390829013882,0.24119398287649277,0.0005607048828172635,-0.002270190598075368,0.049148652608594356
2587,9.0,298.85316,-2927.2724,0.025869987737983546,0.0,0.0,0.0,0.0,0.003948125904834232,0.4497912034109356,0.1967027282730478,0.24332378392418777,-0.027066320692987873,0.0044827150051345264,0.03647486665553906
2588,9.0,299.38705,-2789.7313,0.025879997412680877,0.0,0.0,0.0,0.0,0.003949653522719948,0.4318762121028636,0.1746164396158008,0.24151599375827276,-0.0025437002373186676,0.018725760600838682,0.03337285821639467
2589,9.0,299.81998,-2809.7465,0.025889974052148323,0.0,0.0,0.0,0.0,0.003951176098962478,0.4364575008400016,0.18361786979417283,0.23401739586321876,-0.015596298150234786,0.008431975110871152,0.04996437872085025
2590,9.0,300.0119,-3081.2867,0.025899983726845877,0.0,0.0,0.0,0.0,0.0039527037168482215,0.47125382649913156,0.2015340770023648,0.26384631356960375,0.0050731212476030855,0.019094403278720883,0.023991296117256578
2591,9.0,300.19687000000005,-3002.1275,0.025909993401543208,0.0,0.0,0.0,0.0,0.0039542313347339375,0.4609439459366255,0.19238975829489083,0.25923808251230673,-4.294866238620296e-06,-0.0006770474954643853,0.02818126259952407
2592,9.0,300.08966000000004,-2740.4618,0.02592000307624076,0.0,0.0,0.0,0.0,0.003955758952619681,0.4319970827072926,0.17352403441798883,0.22751084074357178,0.012072245713187888,0.007732911372728932,0.026416336965839476
2593,9.0,300.53052,-2847.2902,0.025929979715708207,0.0,0.0,0.0,0.0,0.003957281528862211,0.44814087231056055,0.16952867781617784,0.24783558396946778,-0.005078055471615055,-0.012943283121902589,0.025780235778311178
2594,9.0,299.71315,-2949.9062,0.02593998939040576,0.0,0.0,0.0,0.0,0.003958809146747927,0.44500876426394553,0.19180465702464583,0.25988442461859573,0.01073364303257809,-0.004973922948237975,0.02708460985729287
2595,9.0,300.15232000000003,-2791.9425,0.02594999906510309,0.0,0.0,0.0,0.0,0.003960336764633643,0.4347911097255415,0.1892830118982788,0.2246066835719538,0.005696492872800074,0.003834069072093156,0.034797207186716965
2596,9.0,299.95723,-2862.4796,0.025959975704570537,0.0,0.0,0.0,0.0,0.003961859340876173,0.4414330249260476,0.18369498825928382,0.24499431923155673,0.003396047234688767,0.008451290292227413,0.031401407894327674
2597,9.0,299.67863,-2919.0029,0.02596998537926809,0.0,0.0,0.0,0.0,0.003963386958761916,0.44317331237030055,0.2119731773501238,0.23215750437716176,-0.0011798721888443189,-0.01285356489179809,0.04106280028683286
2598,9.0,300.56512000000004,-2747.5701,0.025979995053965643,0.0,0.0,0.0,0.0,0.00396491457664766,0.43422971850763664,0.17169620216509585,0.2292667727693688,0.003379827532388007,-0.0098696508531337,0.04949912061943286
2599,9.0,300.60111,-2952.3638,0.025989971693432867,0.0,0.0,0.0,0.0,0.003966437152890162,0.4524785959886606,0.19934692599900983,0.24561934255574178,0.0036136456320890564,0.002142017196200638,0.04603387113868936
2600,9.0,299.76472,-3131.86,0.0259999813681302,0.0,0.0,0.0,0.0,0.003967964770775906,0.47928181717393253,0.20902337326150078,0.2637020672853677,-0.003095491417151217,0.01016463724017159,0.03099080247680407
2601,9.0,300.04503,-2855.6837,0.02600999104282775,0.0,0.0,0.0,0.0,0.003969492388661622,0.4479168731109536,0.17916205181691783,0.24097763371514075,-0.014539790376965588,-0.005468209753095285,0.038665029038191266
2602,9.0,299.56172000000004,-2777.6025,0.026020000717525305,0.0,0.0,0.0,0.0,0.003971020006547338,0.42802153514493657,0.19707248349953982,0.21922778462109782,-0.009224737125510672,0.0010860895086136889,0.04049433455672967
2603,9.0,299.5088,-2990.8393,0.02602997735699253,0.0,0.0,0.0,0.0,0.0039725425827898675,0.45541767989122556,0.1985023719081588,0.2552204242757947,0.0073609276039669925,0.010685671719843689,0.026372895894302178
2604,9.0,300.13818,-2959.1111,0.02603998703169008,0.0,0.0,0.0,0.0,0.003974070200675611,0.44747714283255563,0.18887695192070383,0.26314177037757075,0.004721271366278206,-0.0008804086954445733,0.013247556047431988
2605,9.0,299.56776,-2856.7046,0.026049996706387635,0.0,0.0,0.0,0.0,0.003975597818561355,0.43088636808017355,0.20394539945784382,0.2335350888156188,-0.008722798357223173,-0.011547597983659189,0.05041620720544225
2606,9.0,299.80491,-2935.6511,0.02605997334585486,0.0,0.0,0.0,0.0,0.003977120394803857,0.44759801343698463,0.18589761159166582,0.25886899603088076,0.0030491437363770572,-0.006337776935914884,0.03232559939003827
2607,9.0,300.44846,-2871.3429,0.026069983020552412,0.0,0.0,0.0,0.0,0.003978648012689601,0.4535297821724046,0.18836292001247282,0.23092384198290877,0.018398020802993284,0.011800198193838889,0.042196420445712465
2608,9.0,300.07507000000004,-2917.8521,0.026079992695249965,0.0,0.0,0.0,0.0,0.003980175630575317,0.45783275137207463,0.1923870225196208,0.23673439560886575,0.0005818251489616715,0.004159700499130475,0.03382125583614807
2609,9.0,300.39156,-2980.2494,0.026090002369947518,0.0,0.0,0.0,0.0,0.00398170324846106,0.47633758596085946,0.17454446846119784,0.25503936661542576,-0.0029995820262856973,-0.005886458724073245,0.03106208158158877
2610,9.0,300.36021,-2917.0051,0.026099979009414742,0.0,0.0,0.0,0.0,0.003983225824703562,0.44728197059829355,0.2034609443200318,0.23595379786432677,-0.01176008058262959,-0.00947812169259278,0.03446149311058457
2611,9.0,299.91078999999996,-2811.2896,0.026109988684112517,0.0,0.0,0.0,0.0,0.003984753442589334,0.43369995082535256,0.16818390241595885,0.2526779973898768,0.009228978590429272,0.007636616744175393,0.02936616537246487
2612,9.0,300.212,-2964.5383,0.02611999835880985,0.0,0.0,0.0,0.0,0.00398628106047505,0.45953680499275157,0.18686620775975882,0.2547426059261378,0.0007928162741823743,0.008145989829771601,0.03143923049406047
2613,9.0,300.6929,-3128.7053,0.026129974998277294,0.0,0.0,0.0,0.0,0.0039878036367175795,0.4729344132474926,0.22094395671297076,0.2571699073356937,-0.0007160663585302473,-0.004264050871279056,0.03141027889895317
2614,9.0,299.43826,-2914.9499,0.026139984672974625,0.0,0.0,0.0,0.0,0.0039893312546032955,0.4436882562036215,0.18744826927970382,0.25493545781767074,-0.006687312047386314,-0.005900051575489755,0.03145219502908997
2615,9.0,299.55107000000004,-2728.7668,0.02614999434767218,0.0,0.0,0.0,0.0,0.0039908588724890115,0.4186414635366956,0.1946969186400898,0.2161385978487188,-0.0007390026322988813,-0.002896311272118667,0.04323544864150656
2616,9.0,299.61399,-2907.5609999999997,0.02616000402236973,0.0,0.0,0.0,0.0,0.003992386490374755,0.4319392058615806,0.19011781852316784,0.26176892794958173,0.006967170407781183,-0.0013700663253650184,0.034642871971235265
2617,9.0,299.48997,-2942.6502,0.026169980661836956,0.0,0.0,0.0,0.0,0.003993909066617257,0.4477059144401336,0.18151870942950182,0.26526754882236875,-0.0013061821224601387,-0.008593821853319182,0.04111493605747826
2618,9.0,299.67418,-2817.3305,0.02617999033653473,0.0,0.0,0.0,0.0,0.003995436684503029,0.43013031125305656,0.2108825149424838,0.21538527679687178,0.004456651983412305,-0.001054833985429009,0.06754494582016714
2619,9.0,299.78443,-2889.3591,0.026190000011232062,0.0,0.0,0.0,0.0,0.003996964302388745,0.45965019781144256,0.17557559229296182,0.24306721886636676,-0.0012786829200461787,-0.0005559932698522634,0.038678564033027066
2620,9.0,299.59782,-2877.6833,0.026199976650699508,0.0,0.0,0.0,0.0,0.003998486878631274,0.4549738358174215,0.1920058783620048,0.2277641431360708,0.004401758652619756,-0.003958815155504636,0.04058251467318236
2621,9.0,300.3924,-2906.1167,0.02620998632539684,0.0,0.0,0.0,0.0,0.00400001449651699,0.4571621621908925,0.1924559741889258,0.23376877468618176,-0.006550579823241894,-0.010262961003375391,0.025615315139034773
2622,9.0,300.17105,-3107.5835,0.026219996000094614,0.0,0.0,0.0,0.0,0.004001542114402734,0.47210849282598055,0.19333177691286083,0.2791875280336637,-0.011481379049873888,-9.68083534469906e-05,0.021748065773866978
2623,9.0,300.03507,-3026.0278,0.026229972639561838,0.0,0.0,0.0,0.0,0.004003064690645264,0.4554322504276636,0.20411182578676879,0.2602928150714008,-0.007259698852726493,0.007602061268065033,0.01878407415734378
2624,9.0,300.2802,-2791.6518,0.02623998231425939,0.0,0.0,0.0,0.0,0.00400459230853098,0.43685582971931364,0.17941990370236582,0.23231671636537476,0.005176907746071015,0.017880753587192984,0.044851100243958955
2625,9.0,300.33842000000004,-2904.9524,0.026249991988956944,0.0,0.0,0.0,0.0,0.0040061199264167235,0.45350649768510654,0.18139128309692584,0.24813521215653875,-0.0027699045731182973,0.004006888299874087,0.03874057696564726
2626,9.0,299.91877999999997,-2962.3801,0.026260001663654275,0.0,0.0,0.0,0.0,0.0040076475443024395,0.4632668927183826,0.19785949511721182,0.23936320206580877,0.006591874527092364,-0.0038389761410024467,0.06253523670224735
2627,9.0,299.95151,-2812.719,0.02626997830312172,0.0,0.0,0.0,0.0,0.004009170120544969,0.43411577853389155,0.17269640160380784,0.24818415213636877,-0.006029464384886805,0.0036411408828276263,0.03268501439925976
2628,9.0,299.47921,-2773.9495,0.026279987977819275,0.0,0.0,0.0,0.0,0.004010697738430713,0.4219919168473596,0.19050605543148383,0.23071342033464176,0.009466522512073031,-0.0015666956132708186,0.039598177664785864
2629,9.0,299.8695,-2894.7544,0.026289997652516828,0.0,0.0,0.0,0.0,0.004012225356316429,0.4438848368555226,0.18496614090723681,0.25108207781987174,0.006185556170741864,-0.002268474861681038,0.017116459036762982
2630,9.0,299.83326,-2971.1888,0.026299974291984052,0.0,0.0,0.0,0.0,0.004013747932558959,0.45814654479554356,0.1919285065843688,0.2530921633682518,0.0027309509836238774,0.008948617961959832,0.04074934528889726
2631,9.0,299.9076,-3035.6459,0.026309983966681605,0.0,0.0,0.0,0.0,0.004015275550444675,0.46689265621371756,0.2178387808540138,0.23802910632164379,0.005974769651113854,0.005654304988986454,0.051029725074741746
2632,9.0,299.8444,-3039.8968,0.026319993641379158,0.0,0.0,0.0,0.0,0.004016803168330418,0.4770808251742115,0.1888176058623468,0.2581542899403448,0.003175725423669697,-0.005911046960274915,0.028001464409029373
2633,9.0,300.20027000000005,-2933.5364,0.02633000331607649,0.0,0.0,0.0,0.0,0.004018330786216162,0.46604460641002154,0.1873408039740978,0.23833640481197177,-0.005068499205946925,-0.01150460983491659,0.03811453836486206
2634,9.0,299.95317,-2890.0814,0.026339979955543713,0.0,0.0,0.0,0.0,0.004019853362458664,0.45405080550632554,0.18787795824961082,0.23658380637900378,-0.004158526040939566,-0.01911193047895068,0.03492003843008947
2635,9.0,300.3584,-2896.6289,0.026349989630241266,0.0,0.0,0.0,0.0,0.004021380980344408,0.4505207637479376,0.16699521819364482,0.2629868647022828,0.0012669387434371187,-0.00011119491710408388,0.027269065958497273
2636,9.0,300.75637,-2854.3008,0.02635999930493882,0.0,0.0,0.0,0.0,0.004022908598230124,0.42703988831555556,0.1988608901910418,0.24173537253742378,-0.0018022464719678784,0.009281790198891372,0.03122677727934297
2637,9.0,300.37674,-2846.6789,0.026369975944406265,0.0,0.0,0.0,0.0,0.004024431174472681,0.4443235944138246,0.18374065544129084,0.23725505417275075,-0.0005281699084663116,-0.006598234393995034,0.04324142479059637
2638,9.0,300.57273,-2998.7803,0.026379985619103596,0.0,0.0,0.0,0.0,0.0040259587923583695,0.4708492357342015,0.19281211133407383,0.24789299472013374,-0.0075498423095864235,-0.004080713499510067,0.03187741151305557
2639,9.0,300.26583999999997,-3088.5557,0.02638999529380115,0.0,0.0,0.0,0.0,0.004027486410244113,0.47901900036299455,0.20937394766359982,0.25045086353757573,0.013463145271208989,-0.0026767804041276573,0.03628642645494146
2640,9.0,300.27367000000004,-2962.8963,0.026399971933268596,0.0,0.0,0.0,0.0,0.004029008986486643,0.45565154814680653,0.18084386459789983,0.26415108906718276,0.01003570319144679,-0.0025607579987771377,0.02517599320042708
2641,9.0,300.10572,-2952.9329,0.026409981607965927,0.0,0.0,0.0,0.0,0.004030536604372359,0.45000286122432454,0.20810961418881982,0.2395054015848428,0.013888765028714386,-0.00020265968640595378,0.040827086902819755
2642,9.0,299.66013,-2970.7382,0.02641999128266348,0.0,0.0,0.0,0.0,0.004032064222258103,0.4590151433112676,0.18939161204399682,0.25462348824438175,-0.011053709487416189,-0.001229989463965509,0.04239856789366286
2643,9.0,298.97755,-2829.3346,0.026430000957361033,0.0,0.0,0.0,0.0,0.004033591840143819,0.4469752395280216,0.18054996127389383,0.23252185898062078,-0.007108940714072822,0.007926643170648772,0.05197984361401115
2644,9.0,299.39326,-2826.8615,0.02643997759682848,0.0,0.0,0.0,0.0,0.004035114416386348,0.4378541242478376,0.19064602580029782,0.23079515922020877,-0.014760177339966088,0.0036801928589067566,0.03309714779793417
2645,9.0,299.89716,-3020.6113,0.02644998727152581,0.0,0.0,0.0,0.0,0.004036642034272064,0.4686311603377945,0.18211765169611283,0.2674415985019307,-0.0015633465177152886,-0.004975592277777725,0.03636396845859426
2646,9.0,300.20155,-2984.5494,0.026459996946223363,0.0,0.0,0.0,0.0,0.004038169652157808,0.4587662688217056,0.19477652970044682,0.25368570501182974,-0.0063202887458139335,-0.0039413058898016065,0.03221966105233297
2647,9.0,300.18466,-2956.1262,0.02646997358569081,0.0,0.0,0.0,0.0,0.004039692228400338,0.4425863467198715,0.21066668253868281,0.24533551093772973,0.012567318698797788,0.005627255770941905,0.04072502019374656
2648,9.0,299.9844,-3050.6379,0.026479983260388362,0.0,0.0,0.0,0.0,0.0040412198462860816,0.45995978624699657,0.19993880591242383,0.26741914487971474,0.012066743765144886,-0.001923856242344828,0.01803812348672418
2649,9.0,300.71501,-2992.3565,0.026489992935085693,0.0,0.0,0.0,0.0,0.0040427474641717975,0.45640154573832553,0.20325602461980782,0.24994409663256173,0.004621839310115026,9.84036660801857e-05,0.03415747552408037
2650,9.0,300.11324,-2952.5585,0.026500002609783246,0.0,0.0,0.0,0.0,0.0040442750820575135,0.45653749350424255,0.19309021808902083,0.24787635715349177,-0.00978913080611199,-0.002295964944844098,0.03760135150721446
2651,9.0,299.53704,-2931.0394,0.026509979249250692,0.0,0.0,0.0,0.0,0.004045797658300043,0.47288931348554153,0.17227331902455284,0.2458001570360868,-0.007338285010607342,-0.0007756638143695583,0.02140581218158918
2652,9.0,299.74934,-2853.3124,0.026519988923948024,0.0,0.0,0.0,0.0,0.004047325276185759,0.4494916461513716,0.18998887231544181,0.2278552140550588,0.003312338894902397,-0.0019933584104291583,0.03989552401263166
2653,9.0,300.20203,-2806.9645,0.026529998598645577,0.0,0.0,0.0,0.0,0.004048852894071503,0.43144488166779454,0.18071287162497182,0.24108935467116677,0.006198617977780964,-0.011991683210986988,0.03620680526208347
2654,9.0,300.24728999999996,-3017.1967,0.026539975238113023,0.0,0.0,0.0,0.0,0.004050375470314033,0.45696320040125654,0.2095000770360478,0.25068917996109574,0.00035322787106337666,-0.0024808854185693276,0.05994276539389035
2655,9.0,299.63385,-3143.3428,0.026549984912810576,0.0,0.0,0.0,0.0,0.004051903088199776,0.4689165726259626,0.20845913481081477,0.2781220246260067,-0.01015853646131949,0.007489075775914233,0.03309654288762447
2656,9.0,299.60676,-2935.37,0.026559994587507907,0.0,0.0,0.0,0.0,0.004053430706085492,0.4418308978428146,0.1961372131272358,0.25431106270854775,-0.007767308781823692,0.012962517648550886,0.03835208167855576
2657,9.0,299.67342,-2885.6138,0.026569971226975575,0.0,0.0,0.0,0.0,0.00405495328232805,0.44038145370726556,0.19708459183823482,0.23968850601041378,-0.014825557302668588,0.01045349457867959,0.020273702778608682
2658,9.0,300.40026,-2992.1087,0.026579980901672906,0.0,0.0,0.0,0.0,0.004056480900213738,0.46956560997751756,0.19016901805072084,0.24979170381752175,0.0012129969558134788,0.00990257600983316,0.03960985537218836
2659,9.0,300.67395,-2938.1409,0.02658999057637046,0.0,0.0,0.0,0.0,0.004058008518099482,0.45430803930921254,0.20164675041348482,0.23716667849902878,-0.002843002157857467,-0.0014480339953848284,0.038583247596120064
2660,9.0,300.19551,-2908.2831,0.02660000025106779,0.0,0.0,0.0,0.0,0.004059536135985198,0.4584789212258466,0.18522880573065983,0.24033771561448578,0.01123997322679899,0.001065989666379989,0.04605020371705126
2661,9.0,299.62433,-2928.4484,0.026609976890535236,0.0,0.0,0.0,0.0,0.004061058712227755,0.44637297380108254,0.18326194543154584,0.2605402608783217,0.003832566320869846,-0.023793387094474476,0.03011337956595917
2662,9.0,300.38076,-2759.3503,0.02661998656523279,0.0,0.0,0.0,0.0,0.004062586330113471,0.42271184117591054,0.18093749903964082,0.23512425000745676,0.006960916932139014,-0.015193521102983786,0.03906137701355776
2663,9.0,299.43028,-2816.9582,0.02662999623993012,0.0,0.0,0.0,0.0,0.004064113947999187,0.4403488067890436,0.16338864565520386,0.25254750090949774,-0.0015825205533326185,-0.002371604368784128,0.03296964243185037
2664,9.0,299.65348,-3019.8858,0.026639972879397567,0.0,0.0,0.0,0.0,0.004065636524241745,0.47041634489397854,0.18577623436218682,0.26177730752790873,-0.0016901969189344484,0.01123122989168609,0.03477062963659397
2665,9.0,299.64812,-3044.4131,0.02664998255409512,0.0,0.0,0.0,0.0,0.004067164142127433,0.4636116105349035,0.2031820168325038,0.25863193603748474,-0.01087369851440049,0.016461542808127786,0.05069231279144175
2666,9.0,299.41232,-2985.5285,0.02665999222879245,0.0,0.0,0.0,0.0,0.004068691760013177,0.4684593637833395,0.1995327054048448,0.2395340461651698,-0.006802577858887163,0.004980412105853405,0.04500553779770076
2667,9.0,300.1454,-3003.1509,0.026670001903490004,0.0,0.0,0.0,0.0,0.004070219377898893,0.46057299507501553,0.2075392658400308,0.24477062400697974,0.0013336159702426486,0.00948434487205696,0.032158550925551865
2668,9.0,301.25821,-3002.3238,0.02667997854295745,0.0,0.0,0.0,0.0,0.00407174195414145,0.4597160388029406,0.18796008217021581,0.26495535633405776,-0.01042061866593499,0.005279227261044165,0.02040763620332688
2669,9.0,300.47598,-2915.9505,0.02668998821765478,0.0,0.0,0.0,0.0,0.004073269572027166,0.43897493084595257,0.18938480300332483,0.2580164169992378,-0.005423934878050695,-0.01069814280207449,0.014171176070086187
2670,9.0,300.43125,-2869.5113,0.026699997892352334,0.0,0.0,0.0,0.0,0.00407479718991291,0.43463827108045755,0.19931764307111982,0.23830386935126077,-0.01014424558190909,-0.016555525807903183,0.04049895193743536
2671,9.0,300.16638,-2974.9153,0.02670997453181978,0.0,0.0,0.0,0.0,0.0040763197661554396,0.46709158760585057,0.18955883884050082,0.24764953098610576,0.019265893831645682,0.005448553309105345,0.027135880312352874
2672,9.0,300.16832999999997,-2943.9814,0.026719984206517333,0.0,0.0,0.0,0.0,0.0040778473840411555,0.4626768467876496,0.1902225987160088,0.2419973888807828,0.00987121490598806,-0.008627721655289832,0.05134715099981925
2673,9.0,299.85183,-2971.3978,0.026729993881214664,0.0,0.0,0.0,0.0,0.0040793750019268715,0.4575692658160706,0.19287779020555582,0.2527836793753067,0.004661631769367235,-0.021723681910210478,0.038023902130166966
2674,9.0,299.39928,-3044.5515,0.026740003555911995,0.0,0.0,0.0,0.0,0.0040809026198125875,0.45552249048156956,0.2030774392896828,0.26686771391029274,-0.011458020595318589,-0.016566691824005185,0.04521892624226055
2675,9.0,299.6236,-2935.4608,0.026749980195379663,0.0,0.0,0.0,0.0,0.004082425196055145,0.44637078518086654,0.2019511408760258,0.24398484855442976,0.00989531374239143,0.0029549909158848977,0.03690101735609686
2676,9.0,300.35537999999997,-2869.5742,0.026759989870076994,0.0,0.0,0.0,0.0,0.004083952813940861,0.44303134589878956,0.18051190360013783,0.24873564390079675,-0.015242467162314383,0.016451562294642785,0.04598736903859996
2677,9.0,299.32161,-3044.9376,0.026769999544774548,0.0,0.0,0.0,0.0,0.004085480431826605,0.4785058803798535,0.20614658397508379,0.2409325440856908,-0.007234768340641043,0.007550601335236332,0.03771102063178797
2678,9.0,300.03032,-2945.4755,0.026779976184241994,0.0,0.0,0.0,0.0,0.004087003008069134,0.46017640898587553,0.2104844191106948,0.22469016524769278,-0.014213714335784385,0.004125303799310785,0.04351085103193666
2679,9.0,300.3348,-2746.6308,0.026789985858939547,0.0,0.0,0.0,0.0,0.00408853062595485,0.4330466983533816,0.16909965759133685,0.2327608036192028,0.003136943580067227,0.006657702042364034,0.03556788419952687
2680,9.0,300.32768,-2922.4368,0.026799995533636878,0.0,0.0,0.0,0.0,0.004090058243840566,0.45538497217799756,0.1886559215438898,0.24430693036371678,0.011027468336326387,-0.012947637057582288,0.014226655566061586
2681,9.0,300.21592000000004,-3001.7851,0.026809972173104546,0.0,0.0,0.0,0.0,0.004091580820083124,0.4517183443061296,0.18290326502864684,0.2778460963587747,0.004412633663293036,-0.026422506645698375,0.02321054030570198
2682,9.0,300.71365,-2964.1807,0.026819981847801877,0.0,0.0,0.0,0.0,0.00409310843796884,0.45244126785497657,0.2013060248023578,0.24728960428558375,0.0019135301092507184,-0.012842189132925386,0.03489709540807517
2683,9.0,300.39581,-3075.3587,0.02682999152249943,0.0,0.0,0.0,0.0,0.004094636055854584,0.4722839573457976,0.2042940790822558,0.25825420653270575,0.007017934136466173,0.011835306296553789,0.05879582302269594
2684,9.0,300.44543,-2987.3377,0.02684000119719676,0.0,0.0,0.0,0.0,0.0040961636737402995,0.4911943250221056,0.17946622949693783,0.2374155124585868,0.006278881773852384,0.014526208772625185,0.04641285504709216
2685,9.0,299.99235,-2939.2279,0.02684997783666443,0.0,0.0,0.0,0.0,0.004097686249982857,0.4587656710041466,0.19125063213496782,0.24343560620522375,-0.005810979798949055,-0.005407157888194934,0.04505606250068716
2686,9.0,299.81016,-3042.02,0.02685998751136176,0.0,0.0,0.0,0.0,0.004099213867868545,0.47759702543765653,0.18981976087375182,0.25728133444919077,0.0032504127978157673,-0.013839829101884787,0.03294179021310157
2687,9.0,300.1415,-3051.2342,0.02686999718605909,0.0,0.0,0.0,0.0,0.004100741485754261,0.45162963425987457,0.2030469607266748,0.2728224023629748,-0.008021541236589482,-9.93086493937506e-05,0.015415467457888183
2688,9.0,300.26351,-2959.7012,0.02687997382552676,0.0,0.0,0.0,0.0,0.004102264061996819,0.44869410686516054,0.2010438970014878,0.24993725719438678,0.005145559611827195,-0.00043947205161001454,0.02922991869776837
2689,9.0,299.64549,-3014.3695,0.02688998350022409,0.0,0.0,0.0,0.0,0.004103791679882535,0.4655970538408516,0.1976416767432148,0.25305432860951776,-0.02038503667309648,-0.0008484786314033213,0.025002043489509577
2690,9.0,300.00421,-3129.4963,0.026899993174921644,0.0,0.0,0.0,0.0,0.004105319297768278,0.4742903647963146,0.2146891537131698,0.26230921316790373,-0.008401471115285643,0.006695488266418244,0.05769159116971674
2691,9.0,300.22956,-2989.0219,0.026910002849618975,0.0,0.0,0.0,0.0,0.004106846915653994,0.44928551055102756,0.2027655609089028,0.25653694013072476,-0.01122583433490359,0.01027743224130359,0.04912509859676975
2692,9.0,300.5403,-2846.8928,0.026919979489086643,0.0,0.0,0.0,0.0,0.004108369491896552,0.42665229988730363,0.18729769018234282,0.2514343240846358,0.016507828072695786,0.009291753487124672,0.05123598834459835
2693,9.0,300.44116,-2935.656,0.026929989163783974,0.0,0.0,0.0,0.0,0.00410989710978224,0.44144482928971257,0.19726165729320982,0.25365963408675674,0.0022420606474741578,-0.009598491852797392,0.031667750815613675
2694,9.0,300.67055,-2990.8937,0.026939998838481527,0.0,0.0,0.0,0.0,0.004111424727667984,0.4672054059895836,0.1972558615026378,0.24469573469208877,0.02084822774430988,-0.016346032296727785,0.04965161171973255
2695,9.0,300.67977,-2934.1776,0.02694997547794875,0.0,0.0,0.0,0.0,0.0041129473039105136,0.45780597117193156,0.19558937919566882,0.2385213837502278,0.00888839554359134,-0.007783025405449803,0.031521530720182864
2696,9.0,300.34065,-3016.9364,0.026959985152646304,0.0,0.0,0.0,0.0,0.004114474921796257,0.47640127886214556,0.19779748421109183,0.24287455949235276,0.010700893776095989,-0.004692219966036055,0.040749294626392256
2697,9.0,299.26724,-3035.3504,0.026969994827343857,0.0,0.0,0.0,0.0,0.004116002539681973,0.4733421045577285,0.18094016388740383,0.2683884503228777,-0.015385439791174684,-0.006733275807697584,0.02032892693555888
2698,9.0,299.59847,-2994.7795,0.02697997146681108,0.0,0.0,0.0,0.0,0.004117525115924503,0.46966404722473254,0.19274903651534883,0.24792509448330174,-0.017449753471656584,-0.0006188604128367673,0.02880828506615637
2699,9.0,299.53596,-3107.5347,0.026989981141508634,0.0,0.0,0.0,0.0,0.004119052733810247,0.4645433851943626,0.19600365663155483,0.28406590170012175,-0.01943943621602298,0.014384430765632786,0.024885530873760678
2700,9.0,300.18785,-3100.1406,0.026999990816205965,0.0,0.0,0.0,0.0,0.004120580351695935,0.4755210381027725,0.2003433764123518,0.26650090724159176,-0.007999743085863173,0.016352705561886383,0.0052466175291008355
2701,9.0,300.71887000000004,-2986.9708,0.02701000049090352,0.0,0.0,0.0,0.0,0.004122107969581679,0.45762386986395953,0.2062309269134078,0.24410974176175576,-0.007904115277200441,0.01130624079658909,0.04196802475392156
2702,9.0,300.42307999999997,-2957.6832,0.027019977130370965,0.0,0.0,0.0,0.0,0.004123630545824208,0.4651509704843266,0.1835700241244508,0.25034085497421876,0.0009690969162924191,0.0057066226380248055,0.04536388889431726
2703,9.0,299.87773,-3006.9679,0.027029986805068518,0.0,0.0,0.0,0.0,0.004125158163709952,0.4602679763974125,0.2073027530016888,0.24647242821243476,0.009799317110692301,-0.00013161779360216488,0.05611629123924674
2704,9.0,299.72123999999997,-2899.8837,0.02703999647976585,0.0,0.0,0.0,0.0,0.004126685781595668,0.4434913006491835,0.19246143560696483,0.24553950858036278,0.0073345954630182125,-0.01946311891061028,0.04049567002036147
2705,9.0,300.20052999999996,-2896.2639,0.027049973119233295,0.0,0.0,0.0,0.0,0.004128208357838198,0.44095642247651057,0.19452959051857582,0.24490589289532977,0.008713930797648012,-0.010752322298171592,0.047452673577964254
2706,9.0,300.33822000000004,-2972.7109,0.027059982793930848,0.0,0.0,0.0,0.0,0.004129735975723942,0.46538944902786256,0.2006261846477628,0.23761426146570178,0.0012622146674958889,-0.013237323234672088,0.04165764800978976
2707,9.0,299.95858,-2927.1593,0.0270699924686284,0.0,0.0,0.0,0.0,0.0041312635936096576,0.4681561081609105,0.1857040706900648,0.23592315718130275,0.006014281237438344,0.0017207035489702183,0.042712300522125865
2708,9.0,299.40574,-3032.067,0.027080002143325732,0.0,0.0,0.0,0.0,0.0041327912114953735,0.4552447687616606,0.21840534977992979,0.24802253874541877,-0.020817027747230682,0.0012226694412680787,0.04209706114090646
2709,9.0,299.8919,-3161.4697,0.0270899787827934,0.0,0.0,0.0,0.0,0.004134313787737931,0.4677684285401496,0.2237080421907648,0.26953135590567373,-0.011303620531830488,0.01207928678813279,0.04251899165479776
2710,9.0,299.45297999999997,-3130.5273,0.02709998845749073,0.0,0.0,0.0,0.0,0.004135841405623647,0.47339072029752655,0.2082579742684618,0.2699534151023278,-0.00914185975213131,0.014993788230021687,0.03958690120442296
2711,9.0,299.4761,-2903.3522,0.027109998132188062,0.0,0.0,0.0,0.0,0.004137369023509363,0.4394079838061916,0.19912408190451683,0.24401450638485678,0.006560709993766664,0.012827880015013188,0.04225554460229756
2712,9.0,299.73149,-2892.7555,0.02711997477165551,0.0,0.0,0.0,0.0,0.004138891599751893,0.4605168407544736,0.17756354845915784,0.24124505068153276,-0.003146614545646677,-0.00017457002262871987,0.02641713540691827
2713,9.0,300.41067000000004,-2985.4758,0.02712998444635306,0.0,0.0,0.0,0.0,0.004140419217637636,0.46538453476487757,0.17971302682379484,0.26241252414809974,0.008672816756290372,-0.012222951466811387,0.029542908613908073
2714,9.0,300.32195,-3024.5614,0.027139994121050615,0.0,0.0,0.0,0.0,0.004141946835523352,0.4670260404568815,0.20957946518138282,0.24278562653107574,0.005586383693708145,-0.006118515187150434,0.03642198411956996
2715,9.0,300.5227,-2991.8163,0.027150003795747946,0.0,0.0,0.0,0.0,0.004143474453409068,0.4573655822809685,0.19234974504844182,0.25972213235007874,0.0014784292692346084,-0.0073529134036260544,0.03659021707342326
2716,9.0,300.15013999999996,-3046.3533,0.027159980435215614,0.0,0.0,0.0,0.0,0.004144997029651626,0.46502284500918156,0.2029957713316228,0.25799670928479274,0.001032122693712579,0.0007681202383025651,0.02276288033202138
2717,9.0,300.27435,-3028.1678,0.027169990109912945,0.0,0.0,0.0,0.0,0.004146524647537342,0.46044072540696157,0.2064647749039868,0.2535818975390848,-0.0029810317474299273,0.004756116226617126,0.04158522899864256
2718,9.0,299.75996000000004,-3053.9228,0.027179999784610498,0.0,0.0,0.0,0.0,0.004148052265423086,0.49703946087397555,0.1878554944948938,0.24342132951131476,0.006415717450832014,0.005089407013810366,0.024545815472983377
2719,9.0,299.84667,-3062.4421,0.027189976424077722,0.0,0.0,0.0,0.0,0.0041495748416655875,0.47463110053994256,0.2053546783594288,0.25092015032139076,-0.005027481727323815,0.006252006429524994,0.039291264209495864
2720,9.0,299.3839,-2929.6883,0.027199986098775497,0.0,0.0,0.0,0.0,0.004151102459551359,0.46808922352180954,0.17925592943868285,0.24320692579015477,-0.0067391724166545345,-0.006175302991654954,0.024401048378195976
2721,9.0,299.99849,-2976.5239,0.027209995773472828,0.0,0.0,0.0,0.0,0.004152630077437047,0.4383976619989806,0.20446725365684681,0.26192403627488975,-0.01079546142117909,-0.006693638679685704,0.048898348423141245
2722,9.0,300.22841,-3120.4395,0.027219972412940274,0.0,0.0,0.0,0.0,0.004154152653679605,0.46737199443852456,0.21030080806007379,0.27086287799458475,-0.0011745463436686988,0.01755624200416618,0.042706763110329365
2723,9.0,300.21123,-2975.8233,0.027229982087637827,0.0,0.0,0.0,0.0,0.004155680271565321,0.45374528020367255,0.1902291645766568,0.26060154224436977,0.000943496706685875,0.014196181056053987,0.04432585874987166
2724,9.0,299.76089,-2781.1762,0.02723999176233516,0.0,0.0,0.0,0.0,0.004157207889451037,0.45822110987040254,0.17690660775682282,0.2102803910705588,0.007608953597895253,0.006069477023385744,0.03898985675524926
2725,9.0,300.1375,-2964.8455,0.02725000143703271,0.0,0.0,0.0,0.0,0.0041587355073367804,0.4477720492741606,0.2006210981322608,0.25284585240144275,0.005386830773963805,-0.0017757800753808483,0.04062162106079186
2726,9.0,299.98779,-3177.1949,0.027259978076499936,0.0,0.0,0.0,0.0,0.00416025808357931,0.48789336897882657,0.21462313033665378,0.2632714157278657,0.01936012406444548,-0.001844968135934178,0.043735253505083456
2727,9.0,299.96565,-3092.9484,0.02726998775119749,0.0,0.0,0.0,0.0,0.004161785701465054,0.4565779829782386,0.21231160288352383,0.27128948668418773,-0.0026800736696026774,-0.008410491574300892,0.04076551574724316
2728,9.0,299.72142,-2955.4953,0.02727999742589504,0.0,0.0,0.0,0.0,0.004163313319350742,0.4573603843079556,0.18808857241539684,0.25294781575900577,0.002067199619416718,-0.005530288445646975,0.029106628452100575
2729,9.0,300.52744,-2990.974,0.027289974065362266,0.0,0.0,0.0,0.0,0.004164835895593272,0.46164025140534554,0.18999390816843884,0.25754725180543475,-0.007321858909261213,-0.009451960182960841,0.026179614384726775
2730,9.0,300.26926000000003,-3121.0866,0.02729998374005982,0.0,0.0,0.0,0.0,0.004166363513479016,0.4899798029222415,0.2095381144448018,0.24921447550055378,0.00036432397290847666,0.01233260741913359,0.05406622486842094
2731,9.0,300.18301,-3117.9584,0.027309993414757372,0.0,0.0,0.0,0.0,0.004167891131364759,0.47647608711702855,0.1987371014263248,0.27256829950289674,-0.00023333332032320577,0.0024684331827903878,0.03368574579427427
2732,9.0,300.62018,-2957.2031,0.027320003089454703,0.0,0.0,0.0,0.0,0.004169418749250475,0.46027813929591554,0.18637189369847385,0.25226587817670376,-0.006020834635110114,-0.001264722765468419,0.033357073806336866
2733,9.0,300.52464,-2811.972,0.02732997972892215,0.0,0.0,0.0,0.0,0.004170941325493005,0.4201906114820846,0.18337273419747982,0.2512059375120958,-0.011757215111346789,-0.0033838949209394264,0.02917496913159527
2734,9.0,300.22843,-2934.1517,0.027339989403619702,0.0,0.0,0.0,0.0,0.004172468943378749,0.45296997162465563,0.19216754241545983,0.24677134712443577,-0.002680369234656847,0.009051823462820423,0.03386639106185257
2735,9.0,300.03493,-3147.9057,0.027349999078317033,0.0,0.0,0.0,0.0,0.004173996561264437,0.4832984621603445,0.20497121385908382,0.26861506370774274,-0.00010811852768046792,0.008302130251631462,0.026447224881887874
2736,9.0,299.60681,-3155.3027,0.02735997571778448,0.0,0.0,0.0,0.0,0.004175519137506967,0.5013832032576695,0.20253040582569481,0.2552196035432137,-0.0024002953559657076,-0.0015442400658796285,0.02826758846829377
2737,9.0,299.85708999999997,-2986.3546,0.027369985392482032,0.0,0.0,0.0,0.0,0.00417704675539271,0.44632686078903155,0.2080855393664438,0.25336482897016177,0.0027178542194563277,-0.016069182985154883,0.05082976624700736
2738,9.0,300.14056,-3060.5616,0.027379995067179586,0.0,0.0,0.0,0.0,0.004178574373278454,0.4756809087035505,0.2138868014889838,0.2407665939843128,0.0075420968231720035,-0.011997067622018388,0.04649331217128266
2739,9.0,300.22548,-3124.7740000000003,0.02738997170664681,0.0,0.0,0.0,0.0,0.004180096949520956,0.4570010858224956,0.2159353094811558,0.27691686495706674,0.014550511576273687,-0.004258455501576836,0.04953542638376595
2740,9.0,299.66587000000004,-2941.3754,0.027399981381344363,0.0,0.0,0.0,0.0,0.0041816245674067,0.46264898240989955,0.18808878519791783,0.24336688758344177,-0.017020768710569085,-0.012832415322460787,0.017784365131680184
2741,9.0,299.92202000000003,-2868.8217,0.027409991056041916,0.0,0.0,0.0,0.0,0.004183152185292444,0.4385592044624236,0.18481361636968383,0.24867733135754175,-0.002407710218872498,-0.002284237790836718,0.04344204020439556
2742,9.0,300.01894,-2999.4198,0.02742000073073947,0.0,0.0,0.0,0.0,0.00418467980317816,0.46774762651559654,0.2042686566372468,0.23973244053474976,-0.01171385104681709,0.018177128228192882,0.03969588739842907
2743,9.0,300.48408,-3014.6490000000003,0.027429977370206693,0.0,0.0,0.0,0.0,0.0041862023794206615,0.4502237497461246,0.20031172247922782,0.2658425479891168,-0.0029136839517082173,0.029958247935898873,0.04877192014191375
2744,9.0,300.55104,-3134.1268,0.027439987044904246,0.0,0.0,0.0,0.0,0.004187729997306405,0.47394015516425153,0.21857046901622582,0.26018568413832777,-0.01957950588334678,0.0021698302021705682,0.029645407980773975
2745,9.0,300.7388,-3213.9943,0.0274499967196018,0.0,0.0,0.0,0.0,0.004189257615192149,0.47942289198535554,0.2125076262478698,0.2850434853966017,-0.0063187411076111935,-0.017825679391257582,0.041176827400086456
2746,9.0,299.91679,-3111.8411,0.027459973359069245,0.0,0.0,0.0,0.0,0.004190780191434679,0.4812269939209065,0.2055479254185008,0.25914706225582373,0.0053312286747263056,-0.01711122053374598,0.03753269672018877
2747,9.0,299.82401,-2951.6153,0.027469983033766576,0.0,0.0,0.0,0.0,0.004192307809320395,0.4554112964155955,0.1959238834511818,0.24588216949918076,0.028923177494995372,-0.017485847466718784,0.01961547727514688
2748,9.0,299.74408,-3037.4281,0.02747999270846413,0.0,0.0,0.0,0.0,0.0041938354272061384,0.47761852660477855,0.1959420206279718,0.2497417404550908,0.005582214473521675,-0.013904357934503288,0.030382552494774468
2749,9.0,299.75704,-3110.9947,0.027490002383161682,0.0,0.0,0.0,0.0,0.004195363045091854,0.4807064873445365,0.2012843007202138,0.26367391919758976,-0.0010360144860216691,-0.02611254229435727,0.02844972625326937
2750,9.0,300.05832000000004,-3034.317,0.027499979022628906,0.0,0.0,0.0,0.0,0.004196885621334356,0.4700993192026906,0.19722066119416382,0.25503661057515375,-0.014997775369165184,0.010839421276767592,0.05437085040498515
2751,9.0,300.04323999999997,-3007.6741,0.02750998869732646,0.0,0.0,0.0,0.0,0.0041984132392201,0.4551722909820075,0.19133258380305582,0.26775294999265875,-0.003030368921299127,0.02830076936931847,0.03173235361548947
2752,9.0,300.22772000000003,-3013.1947,0.027519998372024013,0.0,0.0,0.0,0.0,0.004199940857105844,0.4625958881046595,0.1936423988635168,0.2596976724926648,-0.021278319987756682,0.017504995867108585,0.03055935957097397
2753,9.0,300.34047999999996,-3043.1058,0.02752997501149146,0.0,0.0,0.0,0.0,0.004201463433348374,0.44761576557873656,0.1950299030204528,0.2823825285139857,-0.005743099641624805,-0.016083657262833385,0.02155702354701258
2754,9.0,300.91027,-3160.9389,0.02753998468618879,0.0,0.0,0.0,0.0,0.0042029910512340896,0.4704717595419476,0.21510223551393778,0.27527249176727975,-0.0002966499613170717,0.007831761316709663,0.031201889830386766
2755,9.0,300.85733999999997,-3093.4302,0.027549994360886343,0.0,0.0,0.0,0.0,0.004204518669119833,0.4634862816300345,0.2134959199979068,0.26334332608746275,0.013782951320771387,0.012301455044809088,0.04469158428071596
2756,9.0,300.64251,-2922.5936,0.02755997100035379,0.0,0.0,0.0,0.0,0.004206041245362363,0.46580051446093157,0.18731493569904484,0.23528003721033175,-0.0034960066875289963,-9.035192988929122e-05,0.03328481184895517
2757,9.0,300.26049,-3053.5399,0.027569980675051342,0.0,0.0,0.0,0.0,0.004207568863248079,0.4615749271713986,0.21910422890390382,0.24752074689839573,-0.006736178465259054,-0.0070493274616644525,0.056911287267706744
2758,9.0,299.8466,-3150.5094,0.027579990349748673,0.0,0.0,0.0,0.0,0.004209096481133795,0.5001189407103965,0.20483644146328278,0.2527208072066017,-0.0007073643640214273,-0.004541489489110115,0.035903548626404366
2759,9.0,299.4623,-3060.9546,0.027590000024446226,0.0,0.0,0.0,0.0,0.004210624099019539,0.4616685920106426,0.2059832683239658,0.26280190602902875,0.014756353334088685,0.0015661225190142585,0.040720758463825966
2760,9.0,299.78477999999996,-2921.8425,0.02759997666391345,0.0,0.0,0.0,0.0,0.004212146675262068,0.4627587072632286,0.17956614608929883,0.24584229810774577,0.0027678347058140177,-0.016183720776458885,0.03502583592603087
2761,9.0,299.93465,-2992.0283,0.027609986338611003,0.0,0.0,0.0,0.0,0.004213674293147784,0.45567910854952653,0.18873524889421883,0.2650875348096028,-0.005009309492080355,-0.01817713329444338,0.04214942691932456
2762,9.0,300.2489,-3023.4849,0.027619996013308556,0.0,0.0,0.0,0.0,0.004215201911033528,0.46850337936768355,0.2002130825819928,0.25034744109986873,0.003141397016906747,0.008333540396781403,0.06171939305297985
2763,9.0,300.55159,-3033.2449,0.02762997265277578,0.0,0.0,0.0,0.0,0.004216724487276058,0.46858059915780453,0.1968468529672718,0.25660326748227075,0.008573447521633392,0.024242472711045775,0.03424568502478596
2764,9.0,300.37577000000005,-2984.119,0.027639982327473334,0.0,0.0,0.0,0.0,0.004218252105161774,0.47550100614829555,0.18601239256299384,0.24558426383727977,0.002680187153613878,0.020269934501486783,0.036200588972719966
2765,9.0,300.04103,-2930.6374,0.027649992002170665,0.0,0.0,0.0,0.0,0.00421977972304749,0.45692650048263456,0.18915642656328582,0.24475766453820075,-0.012317268839119789,-0.006155825386307664,0.009162462977014691
2766,9.0,299.80118,-2974.1248,0.027660001676868218,0.0,0.0,0.0,0.0,0.0042213073409332336,0.4538414376381626,0.19528051016768583,0.25493772749789473,-0.001082111894021129,0.0014232178792356687,0.04446455445005986
2767,9.0,299.76611,-3220.6242,0.027669978316335664,0.0,0.0,0.0,0.0,0.004222829917175763,0.49245481827900656,0.20971137007940077,0.2768231393228167,-0.0014796306798781785,-0.0015605921999684584,0.013995711550269185
2768,9.0,300.10812000000004,-3215.1429,0.027679987991033217,0.0,0.0,0.0,0.0,0.004224357535061507,0.4920146016405605,0.2100630083941048,0.27524554944712076,-0.006728447164346034,-0.0013333323615396587,0.04776476068826486
2769,9.0,299.38509,-3032.3996,0.027689997665730548,0.0,0.0,0.0,0.0,0.004225885152947223,0.4794691164549175,0.1958641320927848,0.24644050070178375,-0.011386376720497889,-0.016354771578840285,0.03991521450182496
2770,9.0,299.49762000000004,-3035.6553,0.027699974305198216,0.0,0.0,0.0,0.0,0.0042274077291897805,0.4739283305355846,0.20892210904650682,0.23991296117256578,0.01256510778707959,0.008763106662101292,0.05657629563889565
2771,9.0,299.72298,-3124.5475,0.027709983979895547,0.0,0.0,0.0,0.0,0.004228935347075469,0.4836357832511355,0.2035098336373568,0.26263879302793075,0.027749364744399076,0.004390049534464155,0.04103588836417686
2772,9.0,300.28106,-3028.0038,0.027719993654592878,0.0,0.0,0.0,0.0,0.004230462964961185,0.4573987459567416,0.1964341562015418,0.26660463365432874,0.02599862157236418,-0.013221572261867588,0.029493998018330973
2773,9.0,299.60452999999995,-2945.4121,0.027730003329290653,0.0,0.0,0.0,0.0,0.004231990582846956,0.43316226965978755,0.20519664174133181,0.2569728099262418,0.01032139209689209,-0.01912725082046268,0.06263674511051544
2774,9.0,300.64111,-2915.3209,0.027739979968757877,0.0,0.0,0.0,0.0,0.004233513159089458,0.44302878237603655,0.19080373817836283,0.25235225774772874,-0.014038746308516386,-0.002666012088689907,0.03530101742793917
2775,9.0,300.10828,-3015.1174,0.02774998964345543,0.0,0.0,0.0,0.0,0.004235040776975202,0.46552220505596453,0.2048743978120288,0.24612379925052777,-0.01188914331411709,0.02188605726523568,0.05447034751180475
2776,9.0,299.75635,-3167.9476,0.02775999931815276,0.0,0.0,0.0,0.0,0.004236568394860918,0.49623595354467553,0.20690205311714283,0.2598389499541078,-0.023210726743720378,0.005978918606298324,0.013685597237913287
2777,9.0,299.9019,-3160.4415,0.02776997595762043,0.0,0.0,0.0,0.0,0.004238090971103475,0.48519295613731656,0.2111120363551358,0.2643903174157927,-0.006040554103256274,-0.007591329834930924,0.03240159416078837
2778,9.0,300.17397,-2982.6311,0.02777998563231776,0.0,0.0,0.0,0.0,0.0042396185889891636,0.46083000596288054,0.1963760159108038,0.24943934609524676,-0.007892908325794402,-0.008139988248104293,0.027727433959234677
2779,9.0,299.72024,-3009.5994,0.027789995307015314,0.0,0.0,0.0,0.0,0.004241146206874907,0.4593846452252346,0.19513284923061283,0.26032557344713375,0.005289558359063765,0.0007469602426217364,0.03678548252669446
2780,9.0,300.1702,-3177.3701,0.02779997194648276,0.0,0.0,0.0,0.0,0.004242668783117437,0.4742452549018626,0.2074776399689488,0.28411827659779076,-0.0016242895595548984,-0.011255163872298189,0.037763414781208864
2781,9.0,299.85953,-3165.8305,0.027809981621180313,0.0,0.0,0.0,0.0,0.004244196401003181,0.49397478462151556,0.1965067758362088,0.2718518708871907,0.0027611391491532172,-0.010061978286414941,0.03199426356758797
2782,9.0,299.97458,-2939.8631,0.027819991295877644,0.0,0.0,0.0,0.0,0.004245724018888897,0.46582810526115453,0.18364274508412784,0.24417411354060875,0.009215950524618502,0.0069353941753701135,0.04735080445266055
2783,9.0,300.35531000000003,-2890.3696,0.027830000970574975,0.0,0.0,0.0,0.0,0.004247251636774585,0.4741352362060045,0.16902941909440483,0.23543554070317876,0.012000000981057888,0.021459559019893583,0.02133534367688448
2784,9.0,300.22172,-3063.6311,0.027839977610042643,0.0,0.0,0.0,0.0,0.00424877421301717,0.4627823666530636,0.19141778800396483,0.2770671907419028,0.005586180537063095,-0.0019809239065269684,0.03642517788388516
2785,9.0,299.54337999999996,-3168.8931,0.027849987284739974,0.0,0.0,0.0,0.0,0.004250301830902858,0.4692491213087826,0.2182208369367198,0.27579442702629076,-0.00969782602900091,-0.025930710510911874,0.028889976328968673
2786,9.0,299.45713,-3225.6901,0.027859996959437527,0.0,0.0,0.0,0.0,0.004251829448788602,0.4546239909553946,0.24985403896367378,0.27605120486663276,-0.006901750016399693,-0.01206900027311759,0.05864029115884615
2787,9.0,299.84984,-3069.065,0.027869973598904973,0.0,0.0,0.0,0.0,0.004253352025031132,0.4823734053490486,0.2012661128809188,0.24927959708448078,-0.0036589720580874267,0.008418666273457671,0.030537159261282972
2788,9.0,300.1928,-2957.6456,0.027879983273602527,0.0,0.0,0.0,0.0,0.004254879642916876,0.46762378708837454,0.2003024512408128,0.23112418179268077,-0.006265519335508614,0.002816198045012107,0.034592168936231266
2789,9.0,299.63947,-3072.8688,0.027889992948299858,0.0,0.0,0.0,0.0,0.004256407260802592,0.47073221548015254,0.2053084234923638,0.25803475682604776,-0.01065114522268619,0.003471023385113337,0.041607475917838165
2790,9.0,300.18961,-3137.9245,0.02790000262299741,0.0,0.0,0.0,0.0,0.004257934878688335,0.46829690939480656,0.2098590411489748,0.2756947333489517,0.007888129736997793,0.0032164658797154667,0.03461570166980377
2791,9.0,300.53618,-3070.1679999999997,0.027909979262464857,0.0,0.0,0.0,0.0,0.004259457454930865,0.4496780233747656,0.2065136946188148,0.2770626817789577,0.005919866795770365,0.013195435475538088,0.053433838255759245
2792,9.0,300.64212000000003,-2937.0221,0.027919988937162188,0.0,0.0,0.0,0.0,0.004260985072816581,0.44978694776051553,0.18283981530738483,0.26015461789026173,0.005341874386901954,-0.006298837734571884,0.04582689150101205
2793,9.0,300.46001,-3047.4748,0.02792999861185974,0.0,0.0,0.0,0.0,0.004262512690702297,0.47444063991864555,0.20447437680504982,0.24744122703054774,0.0014941549107866084,-0.009623284866844271,0.05441499061909144
2794,9.0,300.73651,-3164.2795,0.027939975251327187,0.0,0.0,0.0,0.0,0.0042640352669448545,0.4989046212605525,0.2113856544121398,0.25157169040069277,0.00907630388921145,0.0055124936460657645,0.03558117297458836
2795,9.0,300.26232000000005,-3179.8467,0.027949984926024518,0.0,0.0,0.0,0.0,0.0042655628848305704,0.4936426311062345,0.2182644573535248,0.25468689743563977,0.015436599801973786,0.016942131383558184,0.036520273432270364
2796,9.0,299.89595,-3061.0895,0.02795999460072207,0.0,0.0,0.0,0.0,0.004267090502716286,0.47637183381423953,0.19947247781890082,0.25465045082954274,0.0009047691023612582,0.0017250638681255482,0.02784539856237687
2797,9.0,299.39015,-3096.0935,0.027969971240189517,0.0,0.0,0.0,0.0,0.004268613078958844,0.45875674427076557,0.2131712544008648,0.26920712600617475,-0.02246405869202998,-0.016959849074806785,0.03280921150376707
2798,9.0,299.86081,-3107.8908,0.02797998091488685,0.0,0.0,0.0,0.0,0.00427014069684456,0.4549908482866006,0.22270230027400578,0.26702805060611673,-0.01082097911169749,-0.005038918787827565,0.04813567000662075
2799,9.0,299.92384,-3134.64,0.0279899905895844,0.0,0.0,0.0,0.0,0.004271668314730276,0.4782771695672815,0.2060127539018758,0.26856235443754073,-0.01052796542127929,0.017219912885223086,0.03246218854326857
2800,9.0,300.14376,-3089.3994,0.028000000264281732,0.0,0.0,0.0,0.0,0.004273195932615992,0.4884076643320836,0.18609469886861682,0.2645979323612827,-0.0018201920431639683,-0.002211711375178918,0.029997850816057374
2801,9.0,299.74627000000004,-2871.6299,0.0280099769037494,0.0,0.0,0.0,0.0,0.004274718508858549,0.46267318895478854,0.18093362842425884,0.2292969574898478,-0.005971316393448045,0.007598737098461963,0.04225741810173246
2802,9.0,299.88425,-2900.0358,0.02801998657844673,0.0,0.0,0.0,0.0,0.004276246126744265,0.43944691287503357,0.18307420032051683,0.2590173459780218,0.03035941290224077,0.017143788418460183,0.047273597834790855
2803,9.0,300.35325,-3183.4697,0.028029996253144285,0.0,0.0,0.0,0.0,0.004277773744630009,0.47141844924287857,0.21440118803474978,0.2818756704164627,0.024574090217023878,0.019088711852909182,0.048066992928092855
2804,9.0,300.5419,-3247.7827,0.02803997289261173,0.0,0.0,0.0,0.0,0.004279296320872539,0.48703132619124956,0.21445316776487977,0.2857603497098507,0.01027133348895169,-0.016636920188436183,0.03863821134779456
2805,9.0,300.25459,-3077.7443,0.028049982567309284,0.0,0.0,0.0,0.0,0.0042808239387582825,0.48171523861409254,0.1978098154648088,0.25603235171342575,0.00010358036286758591,-0.022757277058968378,0.04869955381977175
2806,9.0,299.95824,-3059.3012,0.028059992242006615,0.0,0.0,0.0,0.0,0.004282351556643971,0.4741373842962165,0.21335432842893282,0.24245947145638677,0.0017788404959828883,-0.01032636208863259,0.025919566786312076
2807,9.0,300.33372,-3118.462,0.028070001916703946,0.0,0.0,0.0,0.0,0.004283879174529687,0.48616032627278855,0.20014321898759782,0.2616310448759738,0.005100214643351995,0.015586921533809386,0.03146459214406347
2808,9.0,299.76091,-3274.1369,0.028079978556171614,0.0,0.0,0.0,0.0,0.004285401750772244,0.48655964813719854,0.2223380773930598,0.2863581470038487,-0.01134937991959659,-0.004333590428292075,0.019160341542228482
2809,9.0,299.75644,-3163.7939,0.028089988230868945,0.0,0.0,0.0,0.0,0.00428692936865796,0.47186538372948755,0.22722314864267876,0.26262579302914774,-0.012537109660316386,-0.00034997045437689463,0.05816290445373175
2810,9.0,299.95219,-2918.3717,0.0280999979055665,0.0,0.0,0.0,0.0,0.004288456986543704,0.4428685875352266,0.1973369215106378,0.24690661601278577,0.0015659652625987384,-0.005623826122003425,0.04209838039253666
2811,9.0,300.24358,-2919.6077,0.028109974545033944,0.0,0.0,0.0,0.0,0.004289979562786234,0.4478336447477396,0.2088716897215308,0.2307825239914618,0.012616637634165187,0.019304261559932284,0.06977778629703134
2812,9.0,299.51797999999997,-3148.0382,0.028119984219731498,0.0,0.0,0.0,0.0,0.004291507180671977,0.4946568843238335,0.19316103413850982,0.26910708782380177,0.003066749362164597,-0.01072495947922109,0.03770592702353526
2813,9.0,299.95935,-3237.9178,0.02812999389442883,0.0,0.0,0.0,0.0,0.0042930347985576656,0.5051812395350065,0.2054835536396478,0.27358136721787873,0.0023321439515896878,-0.000857283420134786,0.05134647110900215
2814,9.0,300.59221,-2997.2908,0.028139970533896497,0.0,0.0,0.0,0.0,0.004294557374800251,0.4561090710969606,0.19452149465027682,0.26047098496898474,0.003965151515004986,0.000943954178973524,0.03332675938984507
2815,9.0,300.66491,-2900.667,0.028149980208593828,0.0,0.0,0.0,0.0,0.004296084992685939,0.4515395360609825,0.17867034180838984,0.25152047060813776,0.001802588950501678,0.011901036843790888,0.03434416482850517
2816,9.0,299.98925,-3242.8581,0.02815998988329138,0.0,0.0,0.0,0.0,0.004297612610571683,0.49066189249205855,0.2105854908081698,0.2845005251980157,-0.008289745903609222,-0.01062241654260089,0.03754276032018196
2817,9.0,299.62095,-3396.7977,0.028169999557988712,0.0,0.0,0.0,0.0,0.004299140228457399,0.5233938730599534,0.2314778162100818,0.27766998335889376,-0.007802092137881543,-0.008181978244173382,0.035877498979583464
2818,9.0,300.15495,-3116.1859,0.02817997619745638,0.0,0.0,0.0,0.0,0.004300662804699956,0.48620819220751255,0.2012662648684338,0.2597682453621297,0.00990215682826679,0.0002495354022047268,0.022270761983703077
2819,9.0,300.36428,-2976.9113,0.02818998587215371,0.0,0.0,0.0,0.0,0.004302190422585672,0.4730886704427166,0.18637387966866983,0.2454441516134518,0.007252301620371442,0.013453823370288987,0.018242777715421984
2820,9.0,299.73572,-3077.3559,0.028199995546851042,0.0,0.0,0.0,0.0,0.00430371804047136,0.45861759463453255,0.2025979490773608,0.27422379817878173,-0.0035228072539990065,-0.005820565246220064,0.030213403562830768
2821,9.0,299.26274,-3176.7923,0.028209972186318488,0.0,0.0,0.0,0.0,0.004305240616713946,0.47508768116750355,0.21048919151866577,0.28008865187759774,-0.012408153320089387,0.005830561059781574,0.05063420796445725
2822,9.0,299.11945,-3245.7933,0.02821998186101604,0.0,0.0,0.0,0.0,0.004306768234599634,0.4876686503716485,0.2233862440915058,0.2755852111456427,-0.008595035929589002,0.012879071436565387,0.06676213412415964
2823,9.0,299.50349,-2978.759,0.028229991535713594,0.0,0.0,0.0,0.0,0.004308295852485378,0.4754949874427015,0.19125785660818082,0.2387155123368868,0.006905216041016764,0.014331621183670885,0.05621087408308135
2824,9.0,299.81712000000005,-2779.2416,0.028240001210410925,0.0,0.0,0.0,0.0,0.004309823470371094,0.4481620593701516,0.1851163248370588,0.2115416746625378,-0.004855301252405925,-0.017457887843459384,0.05500751597281915
2825,9.0,299.6521,-3145.8088,0.02824997784987837,0.0,0.0,0.0,0.0,0.004311346046613651,0.4772563200915315,0.2139659565867958,0.26502504767593577,0.006076692478672854,-0.009082771565924762,0.04253884831700746
2826,9.0,299.87834,-3325.8612,0.028259987524575703,0.0,0.0,0.0,0.0,0.004312873664499367,0.49205328752937855,0.22147049212743578,0.2974549783890207,0.002606941735685117,-0.007963735926334543,0.03631039995230746
2827,9.0,300.81471,-3020.5484,0.028269997199273256,0.0,0.0,0.0,0.0,0.004314401282385083,0.44430313689430556,0.2139652067817218,0.25990295696292476,0.007915106001035142,0.024560406274423376,0.042528812074766956
2828,9.0,300.21394,-2926.6761,0.028279973838740702,0.0,0.0,0.0,0.0,0.004315923858627613,0.4524024907736495,0.1922025603389158,0.24503138392021476,-0.013873437594451685,-0.003427638751606607,0.04821626087982445
2829,9.0,300.25563999999997,-3181.0878,0.028289983513438255,0.0,0.0,0.0,0.0,0.0043174514765133565,0.4753115587770985,0.2263782095167898,0.2652815012762458,-0.017455644507737983,0.010324380171436989,0.04569865760810636
2830,9.0,300.12034,-3278.5088,0.028299993188135586,0.0,0.0,0.0,0.0,0.0043189790943990725,0.4994076898027015,0.2261410481983838,0.27103607283417774,-0.012992691223278787,0.014250238962139087,0.03685592164714626
2831,9.0,299.88392999999996,-3226.8489,0.028310002862832917,0.0,0.0,0.0,0.0,0.0043205067122847884,0.48372350031229255,0.2047930135639968,0.29236496717417576,-0.00991790678782119,0.021618234998803682,0.014951585350106588
2832,9.0,299.5899,-3028.1446,0.028319979502300585,0.0,0.0,0.0,0.0,0.004322029288527346,0.45588010697186354,0.2045888639338488,0.26001138485612574,0.0023527608553494178,-0.02364382732671408,0.03556570875156217
2833,9.0,299.45007999999996,-2979.6436,0.028329989176997916,0.0,0.0,0.0,0.0,0.004323556906413062,0.4643355068038465,0.18575609095019882,0.25564566507776276,-0.009623901530855131,-0.01014543412427639,0.024944406784071272
2834,9.0,299.58587,-3220.9301,0.02833999885169547,0.0,0.0,0.0,0.0,0.004325084524298778,0.5002138923772675,0.20776218086203083,0.27110625053610377,0.025874308957345476,0.0027308683024157175,0.05351770901953665
2835,9.0,299.41848,-3387.6434,0.028349975491162915,0.0,0.0,0.0,0.0,0.004326607100541308,0.5368110978366305,0.21809279252158278,0.27485511378608773,0.02016396272652818,0.003892544545964236,0.03324695479871897
2836,9.0,299.42592,-3182.8552,0.02835998516586047,0.0,0.0,0.0,0.0,0.004328134718427051,0.4923497341111355,0.2022729085777818,0.2728858723492387,0.01371671718823459,-0.018256458618272183,0.03556443914918687
2837,9.0,299.73656,-2875.4951,0.0283699948405578,0.0,0.0,0.0,0.0,0.004329662336312767,0.4489444303023656,0.18492264208044382,0.24021164703704379,-0.0004718841288563375,-0.027253614907722375,0.028599213067022577
2838,9.0,300.20736,-3016.7064,0.028379971480025246,0.0,0.0,0.0,0.0,0.004331184912555297,0.45038039821158454,0.19579189749315581,0.27083111260394976,0.003452101952745937,0.002067449486891378,0.026717892354600675
2839,9.0,299.78783,-3284.0078,0.0283899811547228,0.0,0.0,0.0,0.0,0.004332712530441041,0.49960949882511857,0.2177678634795148,0.2808790072205997,0.002422252384307698,0.014407454847655089,0.03321819673438077
2840,9.0,300.06737999999996,-3154.9634,0.028399990829420352,0.0,0.0,0.0,0.0,0.0043342401483267845,0.46985230909331255,0.22818462166256878,0.26099317354052076,-0.004457807797801376,0.0013098477573469088,0.05458975093008895
2841,9.0,299.99114,-2940.7177,0.028410000504117683,0.0,0.0,0.0,0.0,0.004335767766212473,0.4570966555719275,0.2015083911123298,0.23529970439477277,-0.01032615031936169,0.005361108913550255,0.06088094176748114
2842,9.0,300.2477,-2964.8559,0.02841997714358513,0.0,0.0,0.0,0.0,0.0043372903424550024,0.44148206623088765,0.2178274223203928,0.24193266246439477,-0.004744427880088576,0.008645801786099201,0.05329986936728754
2843,9.0,300.05574,-3054.8919,0.028429986818282682,0.0,0.0,0.0,0.0,0.004338817960340746,0.46200104950095355,0.2021030979935228,0.2645067195872807,0.0035408765430323067,0.018700568163602382,0.04166440436145656
2844,9.0,299.65664,-3189.1935,0.028439996492980013,0.0,0.0,0.0,0.0,0.004340345578226462,0.4751606047772005,0.2074354381022838,0.28683914695881974,-0.004633526339418445,-0.008877084430075023,0.04370629684372566
2845,9.0,299.65745,-3185.327,0.02844997313244746,0.0,0.0,0.0,0.0,0.004341868154468992,0.5002334683691996,0.2091484285888428,0.25887797342676677,0.0015337848447227785,-0.017248567598051084,0.04526539997134716
2846,9.0,299.98582999999996,-3023.6373,0.028459982807145012,0.0,0.0,0.0,0.0,0.004343395772354736,0.46286562541378057,0.1994601465651838,0.25678447713015473,0.01296557158435229,-0.012507031331097887,0.05779605218877624
2847,9.0,299.79798,-3179.3788,0.028469992481842565,0.0,0.0,0.0,0.0,0.004344923390240479,0.5082467770500515,0.21162954371120982,0.24657545548260276,0.0028477252205485973,-0.006064213493091274,0.03914017342083436
2848,9.0,299.53047000000004,-3445.3068,0.028480002156539896,0.0,0.0,0.0,0.0,0.004346451008126168,0.5026002888802865,0.23655718829887679,0.3081297607100397,0.0027073113521658278,-0.026042164982161577,0.033731307598270865
2849,9.0,299.711,-3274.164,0.028489978796007343,0.0,0.0,0.0,0.0,0.004347973584368697,0.5075328004995876,0.2053170259857128,0.28241426350711774,-0.0024715262300456474,-0.018879900259051084,0.021041792963913283
2850,9.0,299.76995,-3022.1212,0.028499988470704896,0.0,0.0,0.0,0.0,0.004349501202254441,0.43607928497517456,0.2189041221416548,0.26366596518430474,0.0009609736699757171,0.014262544884603589,0.024484330443665277
2851,9.0,300.17818,-3104.3593,0.02850999814540245,0.0,0.0,0.0,0.0,0.004351028820140185,0.4857247908498045,0.19462906128089283,0.26329385921758075,-0.01176387723075429,0.02120307299558038,0.01094843888152679
2852,9.0,300.31822999999997,-3316.3944,0.028519974784869673,0.0,0.0,0.0,0.0,0.004352551396382687,0.5001459742230645,0.2142469409720268,0.2937081619042387,-0.011096943855933092,0.01177179071403529,0.03219334796048607
2853,9.0,300.19522,-3311.7786,0.028529984459567226,0.0,0.0,0.0,0.0,0.0043540790142684305,0.5161868176161725,0.21863837703792782,0.2718728046342567,-0.014004972656183187,0.0026539803517024677,0.03251642883437167
2854,9.0,300.24067,-3150.4106,0.02853999413426478,0.0,0.0,0.0,0.0,0.004355606632154174,0.4672619048151595,0.2042764080005118,0.28610785396414673,-0.007808354327474572,0.01581456539402609,0.048679277672020654
2855,9.0,300.14447,-2971.2199,0.028549970773732003,0.0,0.0,0.0,0.0,0.004357129208396704,0.4714027843963326,0.17521546294241985,0.25655841090034376,0.001957174742733108,-0.009615279380454192,0.029159115820530674
2856,9.0,299.84056,-2985.0118,0.028559980448429556,0.0,0.0,0.0,0.0,0.004358656826282392,0.4611745312618825,0.18620287344929282,0.2599916467441778,0.002953801056292467,-0.01069531279454519,0.045251600518235256
2857,9.0,300.16631,-3298.1292,0.028569990123126887,0.0,0.0,0.0,0.0,0.004360184444168136,0.5081323000537535,0.2195769303405558,0.2748396921195657,0.02207668912579958,-0.013111875779541387,0.03577642018935777
2858,9.0,299.76876,-3282.9315,0.02857999979782444,0.0,0.0,0.0,0.0,0.00436171206205388,0.5005665844720755,0.2286965460105918,0.2686660808502777,0.024742698073414178,0.0012736682439762688,0.06215564079078415
2859,9.0,299.8183,-2963.8504,0.028589976437291664,0.0,0.0,0.0,0.0,0.004363234638296382,0.4561895332874016,0.2162773523174128,0.22846961851819575,0.013473388216469885,-0.0038690959121500364,0.04031371563365396
2860,9.0,299.78252000000003,-2947.9632,0.028599986111989217,0.0,0.0,0.0,0.0,0.004364762256182125,0.4343027231773416,0.2125458561741428,0.24925861267490976,-0.013011567059391686,0.00026283059113935977,0.05998802119635674
2861,9.0,299.61251,-3179.2573,0.02860999578668677,0.0,0.0,0.0,0.0,0.004366289874067869,0.47087217571646556,0.2239532689799668,0.2715893884487857,-0.012882641116667688,0.003347812983553416,0.031726368347148766
2862,9.0,300.00052,-3126.2367,0.028619972426154217,0.0,0.0,0.0,0.0,0.004367812450310399,0.4632868436128516,0.2079522665807908,0.2790587743434567,-0.018181448726619285,0.02144995746194598,0.04627501655648855
2863,9.0,299.98183,-3056.5468,0.028629982100851548,0.0,0.0,0.0,0.0,0.004369340068196087,0.48249929154147253,0.1961307080615938,0.25048388535833477,-0.012728888519993488,0.011740993990495888,0.036329803691722465
2864,9.0,299.82995,-3081.6346,0.028639991775549323,0.0,0.0,0.0,0.0,0.0043708676860818585,0.4917712189665405,0.19479942915270682,0.25016932186478974,-0.02141356253160408,-0.0016751971697540884,0.051832096550679656
2865,9.0,300.39409,-3243.7611,0.028650001450246654,0.0,0.0,0.0,0.0,0.0043723953039675745,0.5089035961623746,0.2138888077241818,0.2632299535337737,-0.015553574459768287,-0.004664760280375995,0.039725254426077355
2866,9.0,300.55343999999997,-3461.7463,0.0286599780897141,0.0,0.0,0.0,0.0,0.004373917880210104,0.5019111470897735,0.23924067986371678,0.3111326084413977,0.008990848199627631,0.013703917812971388,0.04314446384877706
2867,9.0,300.58542,-3415.8258,0.02866998776441143,0.0,0.0,0.0,0.0,0.00437544549809582,0.5164509009897356,0.21349321462013982,0.3083816344198977,0.006099462741545104,-0.00921930063342413,0.018647840654898582
2868,9.0,300.39639,-3134.9190000000003,0.028679997439108984,0.0,0.0,0.0,0.0,0.004376973115981564,0.47360661349633354,0.20273765600114882,0.27659281744258574,-0.0017570739586596986,-0.01860553037047288,0.02458307470566058
2869,9.0,299.63786,-3043.3825,0.02868997407857643,0.0,0.0,0.0,0.0,0.004378495692224094,0.4761632461486535,0.2027702927868698,0.24617873767094975,0.014458664507709086,-0.034019694788732464,0.029379560538786872
2870,9.0,300.08783999999997,-3144.0622,0.02869998375327376,0.0,0.0,0.0,0.0,0.004380023310109782,0.48754107205155756,0.2143624413509258,0.25381288816438174,0.02266845352870218,0.0018960902511795381,0.04365874602978276
2871,9.0,299.58135,-3215.8483,0.028709993427971536,0.0,0.0,0.0,0.0,0.004381550927995553,0.49927257290186655,0.21523022926656982,0.26303479143201275,0.008652442019304542,-0.010036321071357771,0.037460384100302065
2872,9.0,298.93516,-3066.5246,0.028720003102668867,0.0,0.0,0.0,0.0,0.004383078545881269,0.45000618468465253,0.2110263255291768,0.27111440719940877,-0.015663946779911182,-0.0031473512797943874,0.04975178061136845
2873,9.0,299.38854,-2953.6934,0.028729979742136313,0.0,0.0,0.0,0.0,0.004384601122123799,0.44511104172903965,0.19810055744850283,0.2546374508307598,-0.018240480677445284,-0.004807237733912425,0.042230659179841555
2874,9.0,299.45013,-3161.1926,0.028739989416833644,0.0,0.0,0.0,0.0,0.004386128740009515,0.46759085646012455,0.2164425526137168,0.2768901962144347,-0.015497943989527986,0.02980460679673567,0.04067192082225606
2875,9.0,299.32287,-3360.4737,0.02874999909153142,0.0,0.0,0.0,0.0,0.0043876563578952865,0.5237717545522474,0.22810780717248777,0.2696205219144737,-0.007646177670793983,0.02062581124135908,0.042762086565789365
2876,9.0,300.17595,-3266.9337,0.028759975730998644,0.0,0.0,0.0,0.0,0.0043891789341377885,0.4993386165433845,0.2149138317903438,0.27881381099928076,-0.020677581228718378,0.0038445994764074267,0.053899864400752444
2877,9.0,299.81031,-3142.9758,0.028769985405696197,0.0,0.0,0.0,0.0,0.0043907065520235045,0.49079043339974454,0.2128822045448378,0.25171352514969075,-0.0075586867670593035,-0.014533884142132684,0.060291507839808536
2878,9.0,300.11667,-3009.777,0.02877999508039375,0.0,0.0,0.0,0.0,0.004392234169909248,0.4364730542290366,0.2018873871797338,0.2765366023270377,0.01882597508872908,0.012349911704341387,0.05069863040581525
2879,9.0,300.79362000000003,-3025.9318,0.028789971719861196,0.0,0.0,0.0,0.0,0.004393756746151778,0.4609002849898166,0.2049062949251768,0.25400113990046075,0.008800394975056362,-0.006749622166260844,0.04235792339240156
2880,9.0,300.4205,-3218.7572,0.028799981394558527,0.0,0.0,0.0,0.0,0.004395284364037494,0.4758151136792956,0.2175520918707198,0.28505461088269973,0.003961866051555737,-0.02268096919393738,0.029905206319664073
2881,9.0,300.27306,-3046.1805,0.028809991069255858,0.0,0.0,0.0,0.0,0.00439681198192321,0.4938018633594495,0.1994729945764518,0.2326879306720108,0.005202077283855055,-0.022831451019288775,0.037616914015500366
2882,9.0,300.51662000000005,-2852.618,0.028820000743953633,0.0,0.0,0.0,0.0,0.004398339599808981,0.4476308224752225,0.1860146723757188,0.23347915741009878,0.012460949729799988,0.02051468810289208,0.04105665593822646
2883,9.0,300.01869,-3087.7792,0.028829977383420857,0.0,0.0,0.0,0.0,0.004399862176051483,0.4812652238471795,0.20217751108086682,0.25516505015782975,0.015350250628451786,0.013632189838392384,0.04343217216167166
2884,9.0,299.76134,-3363.5894,0.02883998705811841,0.0,0.0,0.0,0.0,0.004401389793937199,0.5000979968308294,0.21822825392745177,0.3041209278818987,-0.02063184514570458,0.0015506743053396385,0.038347873650890464
2885,9.0,299.75174,-3314.8721,0.028849996732815963,0.0,0.0,0.0,0.0,0.004402917411822943,0.5055363532975535,0.20948043011660877,0.29262158289450174,-0.01922861636046668,0.0012990312112043988,0.035839556816338866
2886,9.0,298.96353999999997,-3181.2470000000003,0.028859973372283187,0.0,0.0,0.0,0.0,0.004404439988065473,0.49447475261835855,0.1989733609521418,0.2735715488244097,-0.003022664066213717,0.015857550503018382,0.024829274214958577
2887,9.0,300.0452,-3112.7388,0.02886998304698074,0.0,0.0,0.0,0.0,0.004405967605951189,0.5054481600088495,0.1983922316222888,0.24235446834852378,-0.004653660936130575,-0.001775416115944928,0.03149473126828797
2888,9.0,300.28982,-3244.4326,0.028879992721678294,0.0,0.0,0.0,0.0,0.0044074952238369325,0.5011062110778325,0.2132807259416688,0.27183955989847575,-0.0072266028620601745,-0.023192614898182876,0.03440867947562227
2889,9.0,300.59558,-3351.8089,0.028890002396375625,0.0,0.0,0.0,0.0,0.0044090228417226485,0.5091320536624215,0.2307456011578178,0.27898855611152673,0.003068570071269287,-0.011963369963442688,0.052522616361328656
2890,9.0,300.37374,-3198.9696,0.02889997903584307,0.0,0.0,0.0,0.0,0.004410545417965206,0.4672137957004115,0.2106727823042848,0.29452030212439073,0.02077279532736528,0.02259533638823608,0.036214250623818264
2891,9.0,300.23816,-2875.7264,0.028909988710540402,0.0,0.0,0.0,0.0,0.004412073035850894,0.4355747472203806,0.1952977354193858,0.24327653607202476,0.013546327024918385,0.014728059338296287,0.04641952020624995
2892,9.0,299.95156000000003,-2914.1853,0.028919998385237955,0.0,0.0,0.0,0.0,0.004413600653736638,0.44851131654712056,0.19406792337551282,0.24326033420292578,0.0014913197356817985,-0.008808549510536152,0.03652960546569137
2893,9.0,300.07437000000004,-3273.4191,0.0289299750247054,0.0,0.0,0.0,0.0,0.004415123229979168,0.5219547742079255,0.21132970274161778,0.2617531820430277,-0.0004262020622053686,-0.0050291850007419155,0.03241067186843427
2894,9.0,300.12222,-3345.4625,0.028939984699402732,0.0,0.0,0.0,0.0,0.004416650847864884,0.5084806250406305,0.22648856258518077,0.28196788630806374,-0.007469142410671963,0.013016126684841688,0.042442441622992856
2895,9.0,299.90333,-3141.974,0.028949994374100285,0.0,0.0,0.0,0.0,0.004418178465750627,0.46566882234543455,0.22284460111804977,0.2665682275782358,-0.013401862891910886,0.004517121837455215,0.05201463963569525
2896,9.0,299.69363,-3124.7768,0.02895997101356773,0.0,0.0,0.0,0.0,0.004419701041993157,0.4635479176336175,0.20578922079731482,0.2805169830923707,-0.03805847422357896,-0.018871568303478782,0.05548701226464175
2897,9.0,299.6219,-3300.0379,0.028969980688265284,0.0,0.0,0.0,0.0,0.004421228659878901,0.5111089046075215,0.21412433770992678,0.2778958874686887,-0.011325209851711189,-0.0025396215003661276,0.03849220707463506
2898,9.0,299.86838,-3331.3926,0.028979990362962615,0.0,0.0,0.0,0.0,0.004422756277764589,0.5247886118226035,0.2124531437899928,0.27541842004668177,0.00975950793281344,0.020100989232813178,0.03398327554038817
2899,9.0,300.0243,-3176.6426,0.02899000003766017,0.0,0.0,0.0,0.0,0.004424283895650333,0.5116419754851316,0.19561866212355883,0.2583594021580877,0.02438583544119458,0.016732766555145485,0.021786461873156377
2900,9.0,300.31667999999996,-3046.4288,0.028999976677127615,0.0,0.0,0.0,0.0,0.0044258064718928625,0.4640663875772865,0.2067211575767898,0.25525075085128773,0.008628612707427773,-0.03254241261993607,0.03410519181892037
2901,9.0,300.28095,-3130.8613,0.029009986351825168,0.0,0.0,0.0,0.0,0.004427334089778606,0.46665912233066953,0.2117566052737498,0.27328794012141977,0.020574080770753678,-0.015854149022432686,0.03588578736540146
2902,9.0,300.0726,-3394.0949,0.0290199960265225,0.0,0.0,0.0,0.0,0.004428861707664322,0.4848445298254295,0.23124082714419278,0.31563473194822267,0.016598717619915885,0.014881479588937685,0.03044303136674327
2903,9.0,300.27436,-3473.6917,0.029029972665990167,0.0,0.0,0.0,0.0,0.00443038428390688,0.5084802805355965,0.2445419537244118,0.3028932943257407,-0.009795604258350871,-0.008483231684404784,0.03116487073798327
2904,9.0,300.03167,-3196.4166,0.029039982340687498,0.0,0.0,0.0,0.0,0.004431911901792596,0.5009339990908366,0.2059868754943218,0.26470996742483976,-0.01934635298233638,-0.018544145652914682,0.023739277512634275
2905,9.0,299.79255,-3082.8596,0.02904999201538483,0.0,0.0,0.0,0.0,0.004433439519678284,0.49321607307913656,0.2057302293764928,0.23816604707265876,-0.013253740926042387,0.0016152647435642184,0.039345838873131964
2906,9.0,299.16733999999997,-3247.5234,0.029060001690082382,0.0,0.0,0.0,0.0,0.004434967137564028,0.49560824510772555,0.2095486117158378,0.2820091762496387,0.009032621866800372,0.02229521576161648,0.04907009431509125
2907,9.0,299.44019,-3263.1162,0.029069978329549828,0.0,0.0,0.0,0.0,0.004436489713806557,0.48299523693541857,0.22111915778776176,0.2877914601978057,-0.018521055709635883,0.00037023575021942365,0.05551457266736174
2908,9.0,299.52218999999997,-3113.1032,0.02907998800424738,0.0,0.0,0.0,0.0,0.004438017331692301,0.4525606489817586,0.2133578950692848,0.28038708442955074,-0.007920190490036942,-0.014575146725954984,0.058666074320890736
2909,9.0,299.76544,-2960.2619,0.029089997678944712,0.0,0.0,0.0,0.0,0.004439544949578017,0.4616773566240076,0.1873569450481908,0.2508114083206588,-0.0037019225139263063,0.004554918497985456,0.04568580453058786
2910,9.0,299.74982,-2939.3713,0.02909997431841238,0.0,0.0,0.0,0.0,0.0044410675258205745,0.4727130282331436,0.19172734604201583,0.22905511495597977,0.01924002049034218,0.020950073564861282,0.04760621744511786
2911,9.0,300.24581,-3211.2248,0.02910998399310971,0.0,0.0,0.0,0.0,0.0044425951437062905,0.5029504073198405,0.22472741232136878,0.24845432514303276,0.005666026570118285,0.01006520781845867,0.041868433414842664
2912,9.0,299.77373,-3477.663,0.029119993667807265,0.0,0.0,0.0,0.0,0.0044441227615920065,0.5129421982784536,0.24640481403326175,0.2977757125756747,-0.01016830419228349,-0.031401845618370866,0.02663640880805887
2913,9.0,300.10409,-3335.0221,0.02912997030727471,0.0,0.0,0.0,0.0,0.004445645337834536,0.48378848004120556,0.24173733824261778,0.2882376347468397,0.005562634833889314,-0.003697879443377286,0.03353059491246207
2914,9.0,300.41841,-3109.0851,0.029139979981972264,0.0,0.0,0.0,0.0,0.00444717295572028,0.45395958259982255,0.2070740016591128,0.28405064215361575,0.003904535752947676,-0.003851676825705906,0.027061950545306575
2915,9.0,300.44518999999997,-3171.7215,0.029149989656669595,0.0,0.0,0.0,0.0,0.004448700573605996,0.4944424400726695,0.2012128463231618,0.26846883145331074,-0.005147304327174385,0.0008398939611235802,0.023503276365592775
2916,9.0,299.88707,-3306.3928,0.029159999331366926,0.0,0.0,0.0,0.0,0.004450228191491712,0.5127935747537855,0.2209808694141138,0.27128641653638474,-0.01117817611645009,-0.016861033885304483,0.03769680574613507
2917,9.0,299.58406,-3212.4978,0.029169975970834594,0.0,0.0,0.0,0.0,0.004451750767734269,0.5183421626988886,0.19774702435611183,0.26042992807493276,-0.002378413105481098,0.024137602338945876,0.04655354279697695
2918,9.0,299.9185,-3067.123,0.029179985645531925,0.0,0.0,0.0,0.0,0.004453278385619985,0.47331300401485654,0.2049029815973498,0.25411283045898375,0.006032777712713804,0.016921008158723484,0.056986452186624945
2919,9.0,300.1686,-3064.212,0.029189995320229478,0.0,0.0,0.0,0.0,0.004454806003505701,0.46776276447209053,0.20404090841226982,0.25964028200700073,-0.01099680333529999,-0.00977900600581275,0.06401364459190484
2920,9.0,299.48177999999996,-3212.0908,0.029199971959696702,0.0,0.0,0.0,0.0,0.004456328579748231,0.4564624420693356,0.22743231386082177,0.2925006312300647,-0.005886554374882684,-0.024985540685130876,0.04527534502107866
2921,9.0,299.64642000000003,-3307.1736,0.029209981634394255,0.0,0.0,0.0,0.0,0.004457856197633975,0.5013370497156145,0.23124427219453278,0.27271688249756076,0.01119265242062879,0.007271651758856154,0.046557699148887154
2922,9.0,299.54466,-3296.3934,0.02921999130909181,0.0,0.0,0.0,0.0,0.004459383815519691,0.5070728457491935,0.21581226038901177,0.27913618665109674,0.02970140524755047,0.016372283580318586,0.021692886199921182
2923,9.0,300.04157999999995,-3124.502,0.02923000098378914,0.0,0.0,0.0,0.0,0.0044609114334054345,0.4918243841992875,0.2168034722993368,0.2411427124214328,0.003137556596377727,-0.0017526239668705181,0.027622413626119977
2924,9.0,300.52938,-3185.4908,0.029239977623256586,0.0,0.0,0.0,0.0,0.004462434009647964,0.4838746062997055,0.2123469450470118,0.27208811014800577,0.003024655406635247,-0.021906831932035978,0.019902188549943082
2925,9.0,300.29752,-3447.7448,0.02924998729795414,0.0,0.0,0.0,0.0,0.004463961627533708,0.5145790430199975,0.2267749475934448,0.3066743282663997,0.005773342320009525,0.009179228922444362,0.03972728193952746
2926,9.0,299.95067,-3325.1559,0.02925999697265147,0.0,0.0,0.0,0.0,0.004465489245419396,0.49236673644781354,0.2278637557534018,0.29053389252096273,0.0033561237621986266,-0.0030821068899552673,0.04307713337963205
2927,9.0,300.15626000000003,-3001.9131,0.029269973612119138,0.0,0.0,0.0,0.0,0.004467011821661954,0.4748750506340185,0.18081317325237084,0.25681840074350276,-0.00948566392103714,-0.007180132578023913,0.05816250624644245
2928,9.0,299.63941,-3012.8423,0.02927998328681647,0.0,0.0,0.0,0.0,0.00446853943954767,0.47811171595845253,0.19684515070710382,0.24087196186221177,-0.025321270973264875,-0.00997246422620559,0.05248039726941195
2929,9.0,300.25367,-3232.8598,0.0292899929615138,0.0,0.0,0.0,0.0,0.004470067057433386,0.5174222126680965,0.21268927159329679,0.25259716029689877,-0.007396112409714462,0.03406209626566717,0.04875826457031605
2930,9.0,299.56497,-3323.7921,0.029300002636211353,0.0,0.0,0.0,0.0,0.004471594675319129,0.5028396996139145,0.2193373068244068,0.28817280700544173,0.007344506467546352,0.032081735422220765,0.048875551309141355
2931,9.0,299.65111,-3155.0768,0.0293099792756788,0.0,0.0,0.0,0.0,0.004473117251561659,0.48647079623592954,0.2067550913226388,0.26583866724123373,-0.005986251902572064,0.009697204197414542,0.041109033875645754
2932,9.0,300.02049,-3000.1687,0.029319988950376352,0.0,0.0,0.0,0.0,0.004474644869447403,0.44452646734884654,0.2044166722118548,0.2630332411593598,0.0015824483086004885,-0.02477695605929518,0.037144342274861165
2933,9.0,300.47145,-3078.0844,0.029329998625073683,0.0,0.0,0.0,0.0,0.004476172487333091,0.47914182654011656,0.19580305337675682,0.2607159077831568,0.013838736818276987,-0.007555258232695932,0.018633526470735882
2934,9.0,300.60872,-3392.8013,0.02933997526454135,0.0,0.0,0.0,0.0,0.0044776950635756485,0.5166388791482875,0.23646412127719177,0.27822387652605873,0.024625095200557678,-0.009079461987123132,0.02982445940594497
2935,9.0,300.91344,-3420.7522,0.029349984939238682,0.0,0.0,0.0,0.0,0.0044792226814613645,0.5330887209442604,0.21819961947962577,0.2885349223261797,0.004175339406473916,-0.03310927944138147,0.027178047728514475
2936,9.0,299.90025,-3132.0736,0.029359994613936236,0.0,0.0,0.0,0.0,0.004480750299347108,0.4835116601138856,0.20616221842412683,0.26239828798419473,-0.001998553546341878,-0.020948201078676478,0.055810542008321654
2937,9.0,300.31991,-2989.8269,0.02936997125340368,0.0,0.0,0.0,0.0,0.004482272875589638,0.46367255752841857,0.1911356079836158,0.25402455611027175,-0.006404378371612933,0.02306190766178308,0.048131515681210754
2938,9.0,300.34398999999996,-3159.0658,0.029379980928101235,0.0,0.0,0.0,0.0,0.004483800493475382,0.4767695344784896,0.1998554154291938,0.2836521612867887,0.00023975040545902272,0.03387549106100067,0.061951900513676536
2939,9.0,299.69192000000004,-3253.2439,0.029389990602798566,0.0,0.0,0.0,0.0,0.004485328111361098,0.4985311575386945,0.2132439044330348,0.2771298501280867,-0.018042564561912482,0.012227871809296988,0.04481658286605236
2940,9.0,299.33617999999996,-3083.9316,0.029400000277495897,0.0,0.0,0.0,0.0,0.004486855729246786,0.48529750328263455,0.1985955909173588,0.25354511656045475,-0.015846951906972384,7.437714432320262e-05,0.043464099672322655
2941,9.0,300.22162000000003,-2982.4708,0.029409976916963565,0.0,0.0,0.0,0.0,0.004488378305489343,0.46704452213870556,0.1986151466442888,0.24093699225362974,0.002286228523308188,0.021055543781020376,0.03685549304235397
2942,9.0,300.01512,-3130.3017,0.029419986591660896,0.0,0.0,0.0,0.0,0.004489905923375059,0.4854512943828125,0.2089093218302448,0.25717294708599375,0.008637172948247602,0.012058392557820688,0.042306707652846956
2943,9.0,300.1485,-3383.9155,0.02942999626635845,0.0,0.0,0.0,0.0,0.004491433541260803,0.5017777223166056,0.23071886148767876,0.2961292318256797,-0.01108694510394629,-0.013423706537566688,0.02866849302935997
2944,9.0,300.37152000000003,-3412.4566,0.029439972905825895,0.0,0.0,0.0,0.0,0.004492956117503333,0.49812903910400846,0.23819522867553877,0.30097731944664874,-9.038265061907312e-05,-0.029457436914972674,0.03362451914373167
2945,9.0,300.4383,-3269.1057,0.02944998258052345,0.0,0.0,0.0,0.0,0.0044944837353890765,0.5099308291137545,0.21799551037948178,0.2658001637374337,0.012621065537102188,0.0005015869779852805,0.020137008247367978
2946,9.0,299.67525,-3131.905,0.02945999225522078,0.0,0.0,0.0,0.0,0.0044960113532747925,0.49100556666097656,0.20291283681093783,0.2581025027277338,0.01995265043142328,0.008442991165958352,0.04254023342989416
2947,9.0,299.93207,-3257.4756,0.029470001929918332,0.0,0.0,0.0,0.0,0.0044975389711605085,0.5085346920659666,0.20810070772044081,0.2735558333153587,-0.0027170207199240675,-0.01820677592611888,0.03472420150376187
2948,9.0,299.08345,-3369.1302,0.02947997856938578,0.0,0.0,0.0,0.0,0.004499061547403038,0.5110820737448735,0.2150157039553978,0.2980336657861327,-0.0014491585003458085,-0.012068837139851489,0.043602141826196365
2949,9.0,300.08846,-3196.9807,0.02948998824408333,0.0,0.0,0.0,0.0,0.004500589165288782,0.4855850737935155,0.2178123046289008,0.26840491563700275,-0.0034948260485124765,0.008445077549239262,0.050795602493385654
2950,9.0,300.39952,-3104.9668,0.029499997918780663,0.0,0.0,0.0,0.0,0.004502116783174498,0.46852688677000354,0.21936834267496982,0.2559371366015288,-0.0015833996491193786,0.02278996653369458,0.07188426739367483
2951,9.0,301.23868,-3199.139,0.029509974558247887,0.0,0.0,0.0,0.0,0.004503639359417028,0.4992695432840675,0.2179552032905038,0.2552336167920967,-0.030154850879302073,-0.0007626378459864953,0.02865298928957987
2952,9.0,300.36908999999997,-3364.2742,0.02951998423294544,0.0,0.0,0.0,0.0,0.004505166977302771,0.4912522626628235,0.2511603311250948,0.2802427672178077,-0.01305931039085359,-0.016379795816559985,0.04117586987874196
2953,9.0,300.43649,-3413.7291,0.029529993907642993,0.0,0.0,0.0,0.0,0.004506694595188487,0.5101893497442685,0.22516354556191182,0.3023355204106927,0.011155252346187689,0.008450406332840171,0.002184286646647308
2954,9.0,300.0001,-3295.4668,0.029539970547110217,0.0,0.0,0.0,0.0,0.004508217171431017,0.4884603432047825,0.22145822166872478,0.2918210443879947,0.016541059636225482,0.01062809276966109,0.03682869055070876
2955,9.0,300.41804,-3151.3966,0.02954998022180777,0.0,0.0,0.0,0.0,0.004509744789316733,0.47723538634446555,0.1996583078872408,0.2810521817951907,0.0006434212203582304,-0.008496087700348572,0.027688646745406675
2956,9.0,299.18422000000004,-3332.2576,0.029559989896505323,0.0,0.0,0.0,0.0,0.004511272407202477,0.4977338209025035,0.2237268785101238,0.2914623842500977,-0.009707155630621671,-0.0029540750391195076,0.043870272120658756
2957,9.0,300.26961,-3470.2601,0.029569999571202654,0.0,0.0,0.0,0.0,0.004512800025088193,0.5169148783430265,0.23890482798557078,0.2990527116767047,0.016914933724373984,0.018667969881385183,0.04601845453841786
2958,9.0,300.00829,-3244.0107,0.0295799762106701,0.0,0.0,0.0,0.0,0.0045143226013307225,0.5018400979927615,0.21837808321973878,0.26588006864031977,0.020567255518080082,0.006242931153679333,0.05162255440349945
2959,9.0,299.71166,-2940.5088,0.029589985885367653,0.0,0.0,0.0,0.0,0.004515850219216466,0.47701569345778355,0.18231968363355183,0.2345058533389258,0.004610164642462826,-0.021757731166570878,0.04293572419567605
2960,9.0,300.23894,-2966.65,0.029599995560065206,0.0,0.0,0.0,0.0,0.00451737783710221,0.4706670938962255,0.19084098525203883,0.2402794436012348,-0.006967008794390233,-0.013972313578959988,0.039858705543747965
2961,9.0,300.7828,-3313.6082,0.02960997219953243,0.0,0.0,0.0,0.0,0.004518900413344712,0.5020536708488396,0.21162383911314678,0.2935766420412587,0.000862913544315436,0.0028172165640126274,0.040175265139989966
2962,9.0,300.10292999999996,-3537.6612,0.029619981874230206,0.0,0.0,0.0,0.0,0.004520428031230456,0.5304850532222986,0.25066708097641477,0.2942085250686207,-0.0007580746842936462,0.035634089961060864,0.04634547492869225
2963,9.0,300.37397999999996,-3309.5565,0.029629991548927537,0.0,0.0,0.0,0.0,0.004521955649116172,0.5083953701772165,0.22003916490367478,0.27758799116080174,-0.017553506228896183,0.014173338345799587,0.039930025178536666
2964,9.0,300.035,-3091.7435,0.029640001223624868,0.0,0.0,0.0,0.0,0.004523483267001888,0.47711073631716355,0.2060117609167778,0.2566903461958647,-0.008257365064863482,0.016571635471243087,0.025864411530368676
2965,9.0,299.67569,-3209.9824,0.029649977863092314,0.0,0.0,0.0,0.0,0.004525005843244417,0.4843427379784065,0.2164274045247218,0.2749843437038417,-0.0034098855966045068,0.00883223605547383,0.025508730347765678
2966,9.0,299.59317999999996,-3389.8015,0.029659987537789867,0.0,0.0,0.0,0.0,0.004526533461130161,0.49828521134192155,0.2268661603674468,0.30526364094717573,0.013790870883552986,-0.006783348398489364,0.030083857511045572
2967,9.0,299.26408,-3282.6675,0.02966999721248742,0.0,0.0,0.0,0.0,0.004528061079015905,0.49415160689646653,0.2092402493129048,0.2944571057156537,0.016066002393090986,-0.04197195819080976,0.04734370562245995
2968,9.0,299.31361,-3052.8984,0.029679973851954644,0.0,0.0,0.0,0.0,0.004529583655258407,0.47586256418147854,0.20537434554386982,0.24676797300160278,0.003357138430848767,-0.025564711402540578,0.07362691267091052
2969,9.0,300.33465,-3051.3715,0.02968998352665242,0.0,0.0,0.0,0.0,0.0045311112731441505,0.4818401216889176,0.19811608044003481,0.24758453099219074,0.02253382197466508,0.0066574658537657235,0.05925521744578465
2970,9.0,300.63542,-3392.3047,0.02969999320134975,0.0,0.0,0.0,0.0,0.0045326388910298665,0.5227482098312315,0.23690313214801878,0.27152459110489074,0.003974724195324736,0.018157376943993584,0.06083451768764944
2971,9.0,300.40833,-3446.6247,0.029709969840817196,0.0,0.0,0.0,0.0,0.004534161467272396,0.5307552870239685,0.22696015957922377,0.28997241011054875,0.0035587077182921063,0.0075612718720394325,0.02330603912762698
2972,9.0,300.44471,-3150.071,0.029719979515514527,0.0,0.0,0.0,0.0,0.004535689085158112,0.4753598502768645,0.2059463657553238,0.27623670056243976,-0.014271833348270287,0.007386550469845774,0.027845912280177576
2973,9.0,300.32775,-3091.2333,0.029729989190212303,0.0,0.0,0.0,0.0,0.004537216703043884,0.46493938359844456,0.20844933668234783,0.26626902495620675,-0.003086408643254817,0.017643475745025484,0.026797728356479873
2974,9.0,300.24952,-3332.4786,0.029739998864909634,0.0,0.0,0.0,0.0,0.004538744320929572,0.5007952547546435,0.2237660203614868,0.28842900729322674,-0.006875424765551593,0.004699441298173746,0.036868467709884466
2975,9.0,299.9125,-3525.8497,0.02974997550437708,0.0,0.0,0.0,0.0,0.004540266897172129,0.5359388820180495,0.24166843723581777,0.2941629490791227,0.0019676163863386184,-0.01100450504931009,0.037223272431150964
2976,9.0,299.58142000000004,-3370.6823,0.029759985179074633,0.0,0.0,0.0,0.0,0.004541794515057845,0.5283825491322975,0.2144745878719938,0.28174610612617573,0.003980569128526586,-0.007311838879022312,0.038583982202442565
2977,9.0,299.97125,-3027.8283,0.029769994853771964,0.0,0.0,0.0,0.0,0.004543322132943561,0.4803415450560195,0.18585554144751384,0.25418711182381476,0.005836560412298664,-0.0075669043266953125,0.03261608806120726
2978,9.0,300.12527,-2997.5765,0.02977997149323941,0.0,0.0,0.0,0.0,0.004544844709186091,0.4599750153959996,0.1938536007143608,0.25735980053693475,0.02153057873265268,0.003796992427083976,0.043184945216772255
2979,9.0,299.17415,-3368.1253,0.029789981167936963,0.0,0.0,0.0,0.0,0.004546372327071835,0.5030197744216865,0.2189457261907608,0.3018605087638127,0.015831617379958987,-0.015689317549165086,0.05076805120991655
2980,9.0,299.67124,-3452.0994,0.029799990842634516,0.0,0.0,0.0,0.0,0.0045478999449575785,0.5301962870762995,0.2258857699681898,0.2932699515009907,0.016780098507066785,0.010753946538081888,0.05267315290218545
2981,9.0,299.75169,-3150.324,0.029810000517331847,0.0,0.0,0.0,0.0,0.004549427562843267,0.4927067021213655,0.2104497659572748,0.25446336433107875,-0.004907857217867795,0.009050795824569,0.061042667629192235
2982,9.0,299.98835,-2956.0507,0.029819977156799293,0.0,0.0,0.0,0.0,0.004550950139085824,0.4844261081966345,0.1900963072235448,0.22404319492634178,-0.017957536666520883,0.012422910294545788,0.049034729860101045
2983,9.0,300.22332,-3211.1696,0.029829986831496624,0.0,0.0,0.0,0.0,0.00455247775697154,0.4899851934127735,0.22580928985064178,0.2603209124966737,-0.03290561414478127,-0.01159601715293779,0.03562876735828557
2984,9.0,300.82492,-3415.9734,0.029839996506194177,0.0,0.0,0.0,0.0,0.004554005374857284,0.5006469960000115,0.24007940776649278,0.2976442028451957,-0.019594225367549484,-0.005170505018689115,0.029227210280251072
2985,9.0,300.5322,-3354.4353,0.0298499731456614,0.0,0.0,0.0,0.0,0.004555527951099786,0.47977058875717055,0.2313433883193148,0.3085505938740727,0.012641498738618789,0.005478851614920555,0.03035301828085967
2986,9.0,300.51653,-3139.3753,0.029859982820358955,0.0,0.0,0.0,0.0,0.00455705556898553,0.48016357780845553,0.2018515687886988,0.27227656453410476,-0.000872361574607884,-0.006186130987523594,0.03990061762088436
2987,9.0,300.08997,-3105.5853,0.029869992495056508,0.0,0.0,0.0,0.0,0.004558583186871273,0.48206700865130947,0.20488426686800282,0.2570691193482468,0.015788944351997486,-0.02599641775339668,0.04910916726544746
2988,9.0,300.2427,-3322.11,0.02988000216975384,0.0,0.0,0.0,0.0,0.004560110804756962,0.5322837342698145,0.2132199917306748,0.2643347710453108,-0.0008198218616776182,-0.0030700304686384168,0.04232072292823016
2989,9.0,299.93727,-3439.7674,0.029889978809221285,0.0,0.0,0.0,0.0,0.004561633380999519,0.5324468675359145,0.2146530516121068,0.2985034794599997,0.012003530131156188,0.018266904213553085,0.04740685846144266
2990,9.0,299.80495,-3205.9576,0.029899988483918838,0.0,0.0,0.0,0.0,0.004563160998885235,0.49666053573407853,0.20543513041736883,0.27243540161978075,0.003132613557089887,0.022584202796137275,0.03928020458465436
2991,9.0,299.59366,-3080.2182,0.02990999815861639,0.0,0.0,0.0,0.0,0.004564688616770979,0.4682475337174336,0.2023381314867188,0.2657237545473928,-0.008912051893676042,0.01048060205860489,0.05453980377965954
2992,9.0,300.16892,-3310.9771,0.029919974798083615,0.0,0.0,0.0,0.0,0.004566211193013481,0.5012248626645426,0.2243556103296748,0.28087389030759474,0.0037061235501659163,0.008092532071720733,0.029266302482359178
2993,9.0,300.28392,-3538.6987,0.029929984472781168,0.0,0.0,0.0,0.0,0.0045677388108992245,0.5386284024209845,0.23817451784349475,0.2988731130964797,-0.0005083123444640225,0.0013838239312477887,0.03943254673718936
2994,9.0,299.35056000000003,-3453.5362,0.02993999414747872,0.0,0.0,0.0,0.0,0.004569266428784968,0.5285935483331216,0.2200467440144228,0.3011484776535407,0.0023502665375782477,0.004853733450526195,0.017524570845790483
2995,9.0,299.10929,-3184.1643,0.029949970786946167,0.0,0.0,0.0,0.0,0.004570789005027498,0.4819107654858895,0.21215470110553877,0.27384096189349877,-0.00100167261316489,-0.021143224365173782,0.030857545903152674
2996,9.0,298.93234,-3182.3699,0.0299599804616435,0.0,0.0,0.0,0.0,0.004572316622913214,0.4735117732869735,0.2155016688358588,0.27834755383326476,0.0034936688155732666,-0.0015885948863571084,0.031159822725985067
2997,9.0,299.38897000000003,-3351.0043,0.02996999013634105,0.0,0.0,0.0,0.0,0.00457384424079893,0.49009141242075654,0.23177824486473178,0.2967519854696407,0.014457255076819988,0.0068773119438628435,0.04532165561689916
2998,9.0,299.75562,-3457.0536,0.029979999811038605,0.0,0.0,0.0,0.0,0.004575371858684674,0.5144265691449496,0.24234890560547478,0.2940824767561807,0.001139826619717129,-0.002167470241362658,0.04967896744593236
2999,9.0,299.55352999999997,-3282.0639,0.02998997645050605,0.0,0.0,0.0,0.0,0.004576894434927203,0.5039425210227545,0.22529679808256278,0.26842613309409674,0.0018296832581756782,-0.02186167036182888,0.05511343303227235
3000,9.0,300.32191,-3053.8062,0.02999998612520338,0.0,0.0,0.0,0.0,0.004578422052812919,0.4836262080376906,0.2054606035248828,0.23919400956411074,-0.01036046403399819,-0.01197823028940929,0.057248372271224444
3001,9.0,300.8735,-3205.0406,0.030009995799900935,0.0,0.0,0.0,0.0,0.004579949670698663,0.48936299705636754,0.2186700107060498,0.2662192845087978,0.022890254988842278,0.008356617167808902,0.059193862112479345
3002,9.0,300.35062,-3625.9932,0.03001997243936838,0.0,0.0,0.0,0.0,0.004581472246941193,0.5369757611103815,0.23979842338126178,0.3254372072581517,0.004454191001569426,0.011660577396309386,0.038015945077131665
3003,9.0,299.73672,-3494.4913,0.030029982114065712,0.0,0.0,0.0,0.0,0.004582999864826909,0.5261822157451415,0.2300505622517228,0.3060053096228727,0.0004667146281711476,0.007831504964434362,0.03223336728643567
3004,9.0,299.19902,-3109.8062,0.030039991788763265,0.0,0.0,0.0,0.0,0.004584527482712625,0.46926509013035855,0.2115294649988328,0.26450886767749276,-0.013281448250026886,0.01024591712344329,0.012755719382641488
3005,9.0,299.64019,-3034.9894,0.030050001463460818,0.0,0.0,0.0,0.0,0.0045860551005983685,0.46354082488291753,0.2001898588897008,0.25883030000956175,-0.00959343401227322,0.01928353654238688,0.025041497421903373
3006,9.0,300.41321,-3388.1381,0.030059978102928264,0.0,0.0,0.0,0.0,0.004587577676840898,0.5117266730609905,0.2288280354760688,0.2893546821870837,-0.02075397015375738,0.006304541420709795,0.022888922564960775
3007,9.0,300.30657,-3570.2774,0.030069987777625595,0.0,0.0,0.0,0.0,0.004589105294726614,0.5354373434835515,0.2324611754321318,0.3173766608576377,-0.01130494586296129,-0.013554383376463489,0.05126484976044675
3008,9.0,300.71519,-3348.8789,0.03007999745232315,0.0,0.0,0.0,0.0,0.004590632912612358,0.5183505726747185,0.22354107883928678,0.2760839024473597,-0.004237292050713166,-0.01270326950446509,0.04046319028840596
3009,9.0,301.0488,-3035.8725,0.030089974091790594,0.0,0.0,0.0,0.0,0.004592155488854888,0.47122175713346653,0.2117591181339978,0.23984855899620977,0.01236505168733559,0.0018085225430872784,0.06555241482976965
3010,9.0,299.89637999999997,-3208.1217,0.030099983766488148,0.0,0.0,0.0,0.0,0.004593683106740631,0.5090427964611125,0.20775156200098283,0.25839454167155573,0.019032295100591283,0.006066798091446354,0.03979120079558576
3011,9.0,299.59355,-3588.0369,0.03010999344118548,0.0,0.0,0.0,0.0,0.00459521072462632,0.5369932092771035,0.23648067778382575,0.3171997473901777,0.011749411059076589,-0.004609384946510875,0.041133563647316664
3012,9.0,299.52105,-3459.5792,0.030119970080652925,0.0,0.0,0.0,0.0,0.004596733300868877,0.5316361357334014,0.21112511741392678,0.3088644379600467,0.006601995983666274,-0.006512306935164654,0.016255221783015483
3013,9.0,299.92214,-3031.2828,0.030129979755350478,0.0,0.0,0.0,0.0,0.004598260918754593,0.44692926837098457,0.19308895152639582,0.2814160601711027,0.016015166622323884,0.002906272432526757,0.03574174474443557
3014,9.0,299.76307,-3060.08,0.03013998943004781,0.0,0.0,0.0,0.0,0.004599788536640309,0.47424392754423156,0.2054212488909988,0.2505227232346678,-0.008676632656166972,0.005408633990940615,0.04104457191753386
3015,9.0,299.96869,-3542.0854,0.030149999104745362,0.0,0.0,0.0,0.0,0.004601316154526053,0.5327143655623144,0.24177956037428477,0.30221159992346275,-0.02298829301551788,0.0002888393938487287,0.049528726774104755
3016,9.0,299.96079,-3643.0336,0.030159975744212586,0.0,0.0,0.0,0.0,0.0046028387307685825,0.5514393793978295,0.25326562165287075,0.3026862366678057,-0.023803786080250775,0.0042584147689228155,0.05626676495859735
3017,9.0,300.69325,-3191.9209,0.03016998541891014,0.0,0.0,0.0,0.0,0.004604366348654326,0.46649811688977955,0.2317000118245108,0.27206612262083574,-0.010434980472852391,0.026265267455430074,0.04388928778528546
3018,9.0,300.11453,-2945.8907,0.030179995093607692,0.0,0.0,0.0,0.0,0.0046058939665400145,0.4509220310525396,0.19431913847280582,0.25023604438387476,-0.005266246007388015,0.012406897903215489,0.051557114659041045
3019,9.0,300.45276,-3146.9523,0.030189971733075138,0.0,0.0,0.0,0.0,0.004607416542782572,0.48250268592930756,0.2084153421414928,0.26567691199526977,-0.0017345765640393784,-0.018846177269222882,0.04121982264157976
3020,9.0,299.36111,-3412.0268,0.03019998140777247,0.0,0.0,0.0,0.0,0.004608944160668288,0.5441841844417975,0.2172591410018078,0.27572761331469675,0.01023999163685849,-0.02235764615327788,0.05810773095928654
3021,9.0,299.57416,-3409.5028,0.030209991082470022,0.0,0.0,0.0,0.0,0.004610471778554032,0.5284383184178015,0.2138123377391348,0.2941530597581467,0.024731519898310975,-0.004081960303758116,0.04506413101123346
3022,9.0,299.20765,-3215.9367,0.030220000757167353,0.0,0.0,0.0,0.0,0.004611999396439748,0.5148062643549225,0.2141529214952478,0.24860528927543177,0.02802793962089227,0.004671576717773725,0.040414142904065364
3023,9.0,299.53165,-3152.4194,0.03022997739663502,0.0,0.0,0.0,0.0,0.004613521972682305,0.4801849067230605,0.18549990079491482,0.29257197416960573,-0.007307300430499403,-0.006837905735548754,0.028782533314864873
3024,9.0,300.03008,-3544.1996,0.030239987071332353,0.0,0.0,0.0,0.0,0.004615049590568021,0.5288171118351855,0.2342217886733908,0.3143092792274107,-0.009071390436826532,-0.013404775985948386,0.02732688808870387
3025,9.0,300.18082999999996,-3695.5982,0.030249996746029684,0.0,0.0,0.0,0.0,0.004616577208453709,0.5180837839233885,0.2566444155688318,0.34864138435322567,-0.014003338283771887,0.003015768797958207,0.03649736587400956
3026,9.0,299.64258,-3268.2186,0.030259973385497352,0.0,0.0,0.0,0.0,0.004618099784696267,0.49608512113478953,0.22423347316262077,0.2731382526841467,0.0047285856134500655,0.00932809471521127,0.037390136484119166
3027,9.0,299.68464,-3028.4265,0.030269983060194683,0.0,0.0,0.0,0.0,0.004619627402581983,0.46350265575165056,0.22006927869664678,0.2369940814769948,-0.013325961340169987,-0.0011653406625351688,0.06352693193287004
3028,9.0,299.69566000000003,-3146.2288,0.030279992734892236,0.0,0.0,0.0,0.0,0.0046211550204677265,0.5267156817902905,0.18951008124568883,0.24014925109588578,0.0033678249770034466,0.0006981934981613334,0.04037773378822206
3029,9.0,299.94051,-3390.7846,0.030290002409589567,0.0,0.0,0.0,0.0,0.0046226826383534425,0.5093525672816845,0.2292151071467698,0.29214616594758175,0.005032991173417555,0.021270755062510083,0.05758179741538094
3030,9.0,300.18178,-3313.1676,0.030299979049057235,0.0,0.0,0.0,0.0,0.004624205214596,0.4999046079167435,0.21439998226713078,0.2928156202886517,0.015441327626940385,0.00945474429026061,0.03579198371089377
3031,9.0,299.76864,-3176.3066,0.030309988723754566,0.0,0.0,0.0,0.0,0.004625732832481716,0.4822075160426766,0.2023439880722968,0.28096638990922373,0.001003215337104645,-0.013776600269144587,0.04078625799004026
3032,9.0,300.08919,-3290.652,0.03031999839845212,0.0,0.0,0.0,0.0,0.004627260450367432,0.5100932024422795,0.21724219946013582,0.27294064864964473,-0.001803907087556768,-0.026742877075566475,0.04693716637758766
3033,9.0,300.19563999999997,-3515.665,0.030329975037919565,0.0,0.0,0.0,0.0,0.004628783026609962,0.5304490727112474,0.24208893602731776,0.29613635497388274,0.013188108664064987,-0.009177201611644282,0.05277267939325794
3034,9.0,299.8189,-3590.7477,0.03033998471261712,0.0,0.0,0.0,0.0,0.004630310644495705,0.5400289065767034,0.2434561954472558,0.3080125479384717,0.014322303335751288,0.003574055012256767,0.04659786539610126
3035,9.0,300.12206000000003,-3319.3584,0.03034999438731445,0.0,0.0,0.0,0.0,0.004631838262381421,0.49319662880971754,0.21609475451689178,0.29971068589414174,-0.0013469698972855787,-0.018060966196978584,0.047762288358020856
3036,9.0,300.27406,-3051.0371,0.030359971026782118,0.0,0.0,0.0,0.0,0.004633360838623979,0.45348555380553957,0.2040781048234408,0.26987543537463177,-0.005711727797328645,-0.002914377217426637,0.03459809340956597
3037,9.0,299.61487999999997,-3092.849,0.03036998070147945,0.0,0.0,0.0,0.0,0.004634888456509695,0.46422895342333054,0.2006850139485688,0.2752349001885697,-0.017252375391926884,0.02580940724869018,0.036998936832510765
3038,9.0,299.34035,-3396.4714,0.03037999037617678,0.0,0.0,0.0,0.0,0.004636416074395411,0.5116680768077075,0.23223323468963578,0.28854117407929675,-0.0032513468117579473,0.02919126725945377,0.03298034640590677
3039,9.0,299.61455,-3409.0997,0.030390000050874333,0.0,0.0,0.0,0.0,0.004637943692281127,0.5353801556479074,0.22343940932425277,0.27746162874083075,-0.012755820707651489,0.012562142004036887,0.047452663445463256
3040,9.0,299.54219,-3310.2176,0.03039997669034178,0.0,0.0,0.0,0.0,0.0046394662685236565,0.5349681985547504,0.22221435955584978,0.2490409361559268,-0.02592432906178208,0.002853325555176307,0.05232594553016875
3041,9.0,300.00601,-3335.5813,0.030409986365039332,0.0,0.0,0.0,0.0,0.0046409938864094,0.5117250113308265,0.21990041043498076,0.28230801410163175,0.0002581460218195288,0.007294132738824854,0.05855876100279975
3042,9.0,299.9548,-3445.1365,0.030419996039736663,0.0,0.0,0.0,0.0,0.004642521504295116,0.5071556384148646,0.22373121522055175,0.3163486274386787,0.012299006019317387,-0.0036859579480007262,0.027558725791084475
3043,9.0,299.60472000000004,-3546.5656,0.03042997267920411,0.0,0.0,0.0,0.0,0.004644044080537674,0.5073343250699995,0.24004897986598978,0.3306840999859797,0.01923546795764288,-0.01192883434703429,0.03166783592862207
3044,9.0,299.94821,-3434.2389,0.030439982353901662,0.0,0.0,0.0,0.0,0.00464557169842339,0.5246592299173345,0.2224297967921118,0.2968338560777207,0.018230993616758985,-0.03450361695699186,0.015232649782095486
3045,9.0,300.2114,-3166.1469,0.030449992028599215,0.0,0.0,0.0,0.0,0.004647099316309133,0.49595705645465055,0.21235228487503882,0.25412024744971573,0.015402727864380883,0.009288351297263901,0.047994771500715155
3046,9.0,299.88763,-3153.8279,0.030460001703296546,0.0,0.0,0.0,0.0,0.004648626934194822,0.49582368234398755,0.2041514539981798,0.25870980430766977,0.004906220413656255,0.0015480989275604685,0.037498810597094465
3047,9.0,300.10143999999997,-3455.7987,0.030469978342763993,0.0,0.0,0.0,0.0,0.004650149510437379,0.49987641929896154,0.24788660111200275,0.3027134829629947,-0.00991072173003708,0.001105393949518889,0.050494197065639256
3048,9.0,299.80092,-3550.2522,0.030479988017461324,0.0,0.0,0.0,0.0,0.004651677128323095,0.5252059391412905,0.24686484984366375,0.3071172198851097,-0.01791945568801258,0.0018252663996647684,0.04041483495388366
3049,9.0,299.86222000000004,-3295.1687,0.030489997692158877,0.0,0.0,0.0,0.0,0.004653204746208811,0.4858088906081045,0.23425974502213676,0.28158035867481773,-0.012648441528303987,0.032280352706822765,0.03834238690159896
3050,9.0,299.46546,-3130.6997,0.030499974331626323,0.0,0.0,0.0,0.0,0.0046547273224513686,0.4898003360645295,0.21548613571182582,0.24636806345213474,-0.002719616261380227,0.03092133607644827,0.04101965711082496
3051,9.0,299.39763999999997,-3360.3519,0.030509984006323654,0.0,0.0,0.0,0.0,0.0046562549403370845,0.5199147268540886,0.21979067544915082,0.2817576673098167,-0.007864003948141763,-0.0008180681790670432,0.03455776200258557
3052,9.0,299.15535,-3647.5249,0.030519993681021207,0.0,0.0,0.0,0.0,0.004657782558222828,0.5531574361348885,0.25287895528220977,0.3027200893536467,0.003214553471476727,-0.008882591444368522,0.04908607630891855
3053,9.0,299.23942999999997,-3469.7728,0.030529970320488653,0.0,0.0,0.0,0.0,0.004659305134465358,0.5181672048041215,0.2306165536250818,0.3059405224114787,0.0014932815905254187,-0.0013284725100850287,0.04269024814694946
3054,9.0,299.72888,-3112.5642,0.030539979995186206,0.0,0.0,0.0,0.0,0.004660832752351074,0.4625432294969625,0.20979665534031783,0.2738019213671457,0.012284969465682088,-0.009793613424554391,0.04804416946959036
3055,9.0,300.13424,-3035.1389,0.030549989669883537,0.0,0.0,0.0,0.0,0.00466236037023679,0.45713183561539955,0.2017766592088058,0.2636979433574607,-0.004494122580060366,-0.02072050452945458,0.035073209421206265
3056,9.0,300.52952999999997,-3353.9646,0.03055999934458109,0.0,0.0,0.0,0.0,0.004663887988122534,0.5211288335214115,0.2159831247533748,0.2824095214966497,0.003941131813434426,-0.018563934427367684,0.03644412667400526
3057,9.0,299.92827,-3553.364,0.030569975984048536,0.0,0.0,0.0,0.0,0.004665410564365063,0.5411018067100906,0.25034256736688776,0.2886895341589387,-0.0013434063980088888,0.005608927596508055,0.04247209236066916
3058,9.0,300.28322000000003,-3225.6232,0.03057998565874609,0.0,0.0,0.0,0.0,0.004666938182250807,0.5078882992971725,0.21588502187869277,0.25673559794533074,-0.0028067312493278073,0.00845032790728243,0.047610614950551855
3059,9.0,300.32657,-3110.8709999999996,0.03058999533344342,0.0,0.0,0.0,0.0,0.004668465800136495,0.46363142970685955,0.2100372110465588,0.27195847493021175,-0.00019079239990974381,0.0002947030316474247,0.05102784042955575
3060,9.0,300.20948,-3472.0461,0.03059997197291109,0.0,0.0,0.0,0.0,0.004669988376379081,0.5188673606232215,0.24324118377603576,0.2933067831421257,-0.007310228824613413,0.005137069994539336,0.045527151856430054
3061,9.0,299.65269,-3742.6195,0.03060998164760842,0.0,0.0,0.0,0.0,0.004671515994264769,0.5565680663689915,0.25414853739250776,0.3269462608970837,0.01276839108839209,0.01198387713221659,0.037252058866491966
3062,9.0,300.39717,-3390.187,0.03061999132230575,0.0,0.0,0.0,0.0,0.004673043612150485,0.5420269243163924,0.2065350843284258,0.28197019651829175,-0.0008758380660984872,-0.0001286699450862349,0.02539495654703708
3063,9.0,299.62314,-3015.4745,0.030630000997003304,0.0,0.0,0.0,0.0,0.0046745712300362285,0.46280392861519154,0.2022996077179168,0.25152539500362375,-0.0013880632683411786,-0.009079124777489851,0.03877384196643026
3064,9.0,299.5281,-3083.7136,0.03063997763647075,0.0,0.0,0.0,0.0,0.004676093806278758,0.4842909305007935,0.19345750098526882,0.2596235025853448,0.00016361066901711586,-0.01953265927822338,0.04590906709737216
3065,9.0,299.67592,-3539.0726,0.030649987311168303,0.0,0.0,0.0,0.0,0.004677621424164502,0.5036955818408835,0.25511020292991676,0.3169839048538757,0.009917238954680281,0.0016478991988099884,0.06258157060282014
3066,9.0,299.79278,-3598.2518,0.030659996985865634,0.0,0.0,0.0,0.0,0.00467914904205019,0.5316139455562114,0.24387656251624276,0.31828820091259974,0.005393455403117605,0.0014249143638780987,0.04752388580824236
3067,9.0,300.23875,-3197.2997,0.030669973625333302,0.0,0.0,0.0,0.0,0.0046806716182927754,0.4925008704960515,0.19873516611863382,0.28066325587680674,0.005615436816475464,-0.012758523045668189,0.04367806161643906
3068,9.0,300.15462,-3068.842,0.030679983300030633,0.0,0.0,0.0,0.0,0.004682199236178464,0.47680715645470256,0.2213011881682268,0.23474300452483077,0.004399280850825216,-0.00867449935940643,0.04356584923411456
3069,9.0,300.52857,-3434.5663,0.030689992974728186,0.0,0.0,0.0,0.0,0.004683726854064207,0.5349108992615955,0.2207158335854568,0.2883956713649367,0.01135683136083199,0.011241369485436789,0.03286893449116127
3070,9.0,300.43762000000004,-3798.1249,0.03069996961419541,0.0,0.0,0.0,0.0,0.004685249430306709,0.5573915448577625,0.2662299540323507,0.3309136213986317,0.004024320355919496,0.003927806764019346,0.03861046957330667
3071,9.0,300.43165,-3454.5731,0.030709979288893186,0.0,0.0,0.0,0.0,0.004686777048192481,0.5065719962247635,0.2249645331097708,0.3185674121101557,-0.0073619291003658325,-0.008467670594669022,0.03501122688608906
3072,9.0,300.10035,-3170.0512,0.030719988963590517,0.0,0.0,0.0,0.0,0.004688304666078197,0.4710959114710465,0.2144142285635368,0.27810625845445075,-0.006508216647160974,0.0012036950159204488,0.05019101845021786
3073,9.0,300.17272,-3240.5798,0.030729998638287848,0.0,0.0,0.0,0.0,0.004689832283963885,0.5097518891460945,0.2111494556813288,0.2641539768299677,-0.006869844797250893,0.011237033788258887,0.04111363808410016
3074,9.0,299.84274,-3535.7716,0.030739975277755516,0.0,0.0,0.0,0.0,0.00469135486020647,0.5490024926423275,0.22179638375709876,0.3039874017837207,-0.017372078732240684,0.014320196788793387,0.036355395349498165
3075,9.0,299.94012000000004,-3577.8745,0.030749984952452847,0.0,0.0,0.0,0.0,0.0046928824780921585,0.5480725519655495,0.22475404053399678,0.3147579058416867,-0.002926538549101867,0.0012343964939504487,0.027042461692883175
3076,9.0,299.5481,-3259.3436,0.0307599946271504,0.0,0.0,0.0,0.0,0.004694410095977902,0.48499389302267054,0.22110754594161577,0.2846576397585217,0.0016220681100356587,-0.007894095956236611,0.03634715154668457
3077,9.0,299.72886,-3104.9564,0.030769971266617624,0.0,0.0,0.0,0.0,0.004695932672220432,0.45978828353507056,0.20866016363065482,0.2753807778054667,0.024814867825036776,0.0009117483487850559,0.048490980339687156
3078,9.0,299.68339,-3348.8437,0.030779980941315177,0.0,0.0,0.0,0.0,0.004697460290106176,0.5091661495282865,0.22312791597851078,0.28567078853351174,-0.003189166794196257,-0.004478262378895086,0.034780965800864067
3079,9.0,299.79647,-3632.7008,0.03078999061601273,0.0,0.0,0.0,0.0,0.004698987907991892,0.5556687866402396,0.23558572463300076,0.3129958335202837,0.009603239132165911,-0.015445853815137087,0.04113133348384656
3080,9.0,300.14408,-3493.2918,0.03080000029071006,0.0,0.0,0.0,0.0,0.004700515525877608,0.5436294705420515,0.2292596394886648,0.2889843696730367,-0.013554007460676388,0.004940650753379266,0.038302306780643364
3081,9.0,300.09682999999995,-3197.3275,0.030809976930177507,0.0,0.0,0.0,0.0,0.004702038102120165,0.4988835152609695,0.22307980686376278,0.24994441074009277,0.01012561829604572,0.022415441938981876,0.06008958735988054
3082,9.0,300.21237,-3127.8393,0.03081998660487506,0.0,0.0,0.0,0.0,0.004703565720005881,0.47002675023052853,0.2165133787957068,0.26424491602644273,-0.012702275506116988,0.012388294631379488,0.05569111021903465
3083,9.0,300.08672,-3482.6016,0.03082999627957239,0.0,0.0,0.0,0.0,0.004705093337891597,0.5046486550174445,0.24014553246801876,0.3138297484850847,-0.01083652034173129,0.0014516061072873685,0.04441898454006246
3084,9.0,299.25401,-3618.5243,0.030839972919039838,0.0,0.0,0.0,0.0,0.004706615914134127,0.5330457895375236,0.25458275559036175,0.3123124875203427,-0.004290366192276176,-0.003231889775387687,0.05351601790511975
3085,9.0,300.6977,-3199.5963,0.03084998259373739,0.0,0.0,0.0,0.0,0.004708143532019871,0.4945664416199075,0.20142367327146882,0.27660726638901173,0.02196042678282538,0.005295805552555315,0.04306143408258266
3086,9.0,300.36068,-3029.6983,0.03085999226843472,0.0,0.0,0.0,0.0,0.0047096711499055866,0.48541804964703156,0.2016929242205418,0.2338416577658748,0.003732339471328226,0.000949411645337134,0.054824054883212944
3087,9.0,300.23365,-3323.8669,0.030870001943132275,0.0,0.0,0.0,0.0,0.0047111987677913025,0.5217993011125815,0.21355454664869278,0.27501869288223174,-0.0006503593186954674,-0.014884678419503385,0.02406050717858718
3088,9.0,300.77149,-3711.7332,0.03087997858259972,0.0,0.0,0.0,0.0,0.00471272134403386,0.5453229255666825,0.25207174959004475,0.3308795457977687,-0.015242240194291986,0.005367893028269796,0.056831893042871146
3089,9.0,300.63141,-3610.8857,0.030889988257297274,0.0,0.0,0.0,0.0,0.004714248961919576,0.5361931976606485,0.24288658677103975,0.31853931468488267,-0.00012079189516123187,0.004014988423823506,0.02273256084927908
3090,9.0,299.79,-3147.3894,0.030899997931994605,0.0,0.0,0.0,0.0,0.004715776579805292,0.48925983806368656,0.2079258916806878,0.25954206767480775,0.00029472360062445473,0.0052486808102794645,0.04799754071323845
3091,9.0,300.18679,-3068.0919,0.03090997457146205,0.0,0.0,0.0,0.0,0.004717299156047822,0.47907990682650553,0.1941979334958438,0.2593454870229068,-0.016965155465580483,-0.02018351845345818,0.02061572636311378
3092,9.0,299.59445,-3529.6084,0.030919984246159604,0.0,0.0,0.0,0.0,0.004718826773933565,0.5671453638978895,0.23036291686004978,0.2754045486528128,0.0029597794345324873,-0.012173141105145488,0.026321390365218977
3093,9.0,299.48733,-3712.9606,0.030929993920857157,0.0,0.0,0.0,0.0,0.004720354391819309,0.5618664929969055,0.24722412806412178,0.3195566785802887,0.009832817388148521,0.006102399545634944,0.036441297679726065
3094,9.0,300.04028,-3314.4259,0.03093997056032438,0.0,0.0,0.0,0.0,0.004721876968061811,0.5050441062664724,0.2289219738928398,0.27353663222596375,0.011692768351986387,0.011014802710076387,0.046207327396808155
3095,9.0,299.55917,-3107.8551,0.030949980235021934,0.0,0.0,0.0,0.0,0.004723404585947555,0.45492032607964056,0.2160340608359018,0.27375596034260974,-0.0032601983619815274,-0.010756126039046991,0.04442810379096246
3096,9.0,300.42076000000003,-3286.1447,0.030959989909719487,0.0,0.0,0.0,0.0,0.004724932203833271,0.5077278410113365,0.21237086788187282,0.27880721474112974,-0.013479907467613286,0.004245594824682586,0.03741909111897676
3097,9.0,300.36188,-3601.3745,0.03096999958441682,0.0,0.0,0.0,0.0,0.004726459821718987,0.5355661681012654,0.24908972414824176,0.3100720192967257,0.005148916610733505,0.0015489890677733186,0.059461093654103035
3098,9.0,300.68235,-3428.6690000000003,0.030979976223884265,0.0,0.0,0.0,0.0,0.0047279823979615165,0.5458672637854045,0.22469482619815281,0.27166766201901077,0.009685192421454072,0.003780950752825786,0.038844729956676365
3099,9.0,299.94277999999997,-3076.7443,0.030989985898581818,0.0,0.0,0.0,0.0,0.00472951001584726,0.4636630836399836,0.22152810552812177,0.25006224159422175,0.0012931237604713788,-0.012475929619278387,0.05989607685578254
3100,9.0,300.20859,-3090.7996,0.03099999557327937,0.0,0.0,0.0,0.0,0.004731037633733004,0.4746034996072185,0.2086950802291008,0.25622732129766773,0.0006157019096250473,0.0014714612496219187,0.04764813357525466
3101,9.0,299.5988,-3539.5833,0.031009972212746595,0.0,0.0,0.0,0.0,0.004732560209975506,0.5186041385122435,0.25053324077070577,0.3068075605220487,-0.007885548685018062,0.014157118238198789,0.04579189384255805
3102,9.0,300.04947000000004,-3631.9023,0.031019981887444148,0.0,0.0,0.0,0.0,0.00473408782786125,0.5330302766784925,0.2490152198683888,0.32196212418518766,-0.00037360770469720963,0.0098777771189357,0.03560739183417597
3103,9.0,299.04528,-3289.0646,0.0310299915621417,0.0,0.0,0.0,0.0,0.004735615445746966,0.5081449859450056,0.2182236841695008,0.2734248504749317,-0.008593456272683101,-0.002089210248688998,0.03092680357398787
3104,9.0,299.77951,-3048.1551,0.031040001236839254,0.0,0.0,0.0,0.0,0.004737143063632709,0.48975067667712857,0.19055607958892082,0.24625627156860178,-0.01075948192337819,0.00799834115302481,0.04125950962149656
3105,9.0,300.15304,-3314.1020000000003,0.031049977876306478,0.0,0.0,0.0,0.0,0.004738665639875211,0.5203174228413315,0.20383852183729578,0.2832483203269327,0.005922863685591135,0.0028207257530839577,0.03217043837572507
3106,9.0,300.39926,-3665.7990000000004,0.03105998755100403,0.0,0.0,0.0,0.0,0.004740193257760955,0.5471969518916344,0.23912273755207678,0.32799169182025967,-0.0037337970315970766,0.009271619903662641,0.05191664011252345
3107,9.0,300.17025,-3462.5622,0.031069997225701584,0.0,0.0,0.0,0.0,0.004741720875646699,0.5273154447894824,0.2223384016330918,0.3028786123317917,-0.0003668982158475347,-0.008348837534866113,0.034077607098197966
3108,9.0,300.62877000000003,-3125.8889,0.03107997386516903,0.0,0.0,0.0,0.0,0.004743243451889229,0.4703273106076915,0.20942059769820381,0.27044425371576974,-0.0025091932958880977,-0.0039030280367988762,0.04501752049338336
3109,9.0,299.98225,-3228.9295,0.03108998353986636,0.0,0.0,0.0,0.0,0.0047447710697749446,0.5055467391110785,0.2101133770565758,0.26585382546272973,0.004024005133813386,0.005575750140533694,0.03393469830409397
3110,9.0,300.19555,-3598.1666,0.031099993214563915,0.0,0.0,0.0,0.0,0.0047462986876606605,0.5417269414917866,0.25224879478001777,0.29977706390819275,-0.0008263374347231552,-0.0006187099147994144,0.034705077421374464
3111,9.0,299.88565,-3702.5435,0.03110996985403114,0.0,0.0,0.0,0.0,0.00474782126390319,0.5381873346524545,0.26014258047907374,0.3271508664897767,0.00936252596685937,-0.007182420192774683,0.04930692328746445
3112,9.0,299.43985,-3370.9816,0.031119979528728692,0.0,0.0,0.0,0.0,0.004749348881788906,0.49840630486137255,0.23152618876985578,0.2947617393582187,-0.007784457634466153,-0.0007809501022612742,0.04249182743286686
3113,9.0,299.21511,-3109.5906,0.031129989203426245,0.0,0.0,0.0,0.0,0.00475087649967465,0.46967485860329955,0.2164020226097168,0.25916102484220177,0.01971313431978488,0.0013349840605276688,0.06370135685808444
3114,9.0,299.74974,-3258.3793,0.031139998878123576,0.0,0.0,0.0,0.0,0.004752404117560394,0.4926691510726595,0.21631253236088477,0.2814842519028327,-0.01052628342611329,0.01863679116255808,0.03782648048068297
3115,9.0,299.50206000000003,-3572.2794,0.031149975517591022,0.0,0.0,0.0,0.0,0.004753926693802923,0.5383943112503815,0.24397598261605477,0.3035134236519427,-0.0015552144763877186,0.005225983096114375,0.057006382816091945
3116,9.0,299.9403,-3503.5585,0.031159985192288353,0.0,0.0,0.0,0.0,0.004755454311688639,0.5367590167814904,0.22573464371577479,0.3025006396469887,-0.007331747419637134,-0.00023129508668704777,0.03463500003120836
3117,9.0,300.13262000000003,-3175.0792,0.031169994866985906,0.0,0.0,0.0,0.0,0.004756981929574355,0.4801131787484816,0.2145092004954098,0.27052239556348173,-0.0023073316857909077,0.007317978364028233,0.05881228732357085
3118,9.0,300.19469,-3250.9595,0.031179971506453352,0.0,0.0,0.0,0.0,0.004758504505816885,0.49715135408251854,0.2110448477410048,0.2800142995852597,-0.00047859578606122653,6.421288401206823e-05,0.04000756312918906
3119,9.0,300.05259,-3659.5156,0.031189981181150905,0.0,0.0,0.0,0.0,0.004760032123702629,0.5321141162030745,0.25298715012788775,0.3273001080970057,-0.0026087682203153775,-0.008312345332514612,0.04945876489445005
3120,9.0,299.95569,-3703.6209,0.031199990855848236,0.0,0.0,0.0,0.0,0.004761559741588345,0.5425570365037106,0.2529523044569488,0.3302989230929657,0.004109766824927406,-0.0024324067715098575,0.035571978743180965
3121,9.0,299.82842,-3333.5213,0.03121000053054579,0.0,0.0,0.0,0.0,0.004763087359474089,0.5202223597169495,0.2197584439634698,0.27332643349271873,0.00836873118070446,0.0012733051964654387,0.03357807783864827
3122,9.0,300.2837,-3119.5639,0.031219977170013236,0.0,0.0,0.0,0.0,0.004764609935716618,0.4896852916481756,0.19754293552096983,0.26104131305277173,0.009248184138124711,0.015110157977506486,0.03329522805998317
3123,9.0,300.26536,-3260.9423,0.031229986844710567,0.0,0.0,0.0,0.0,0.004766137553602334,0.5134742255084604,0.2109332990374958,0.2668375089248118,0.006880057547658813,0.0058242780985614945,0.031042385012894868
3124,9.0,300.71844,-3628.6102,0.031239996519408342,0.0,0.0,0.0,0.0,0.004767665171488078,0.5480670500175064,0.24005682242176377,0.31488302196403467,-0.0051924600205309045,-0.0019789939690614982,0.03869465039161467
3125,9.0,300.45033,-3583.1937,0.031249973158875566,0.0,0.0,0.0,0.0,0.00476918774773058,0.5363003387262225,0.23817652407869275,0.3147245395158937,-0.012156578519010888,-0.005163117209559995,0.04647857242207796
3126,9.0,300.35897,-3353.4487,0.03125998283357312,0.0,0.0,0.0,0.0,0.004770715365616324,0.5042698008050546,0.2269140161696698,0.28818084207873473,-0.0030635847794522773,-0.015532270876415786,0.05475375255152465
3127,9.0,299.18851,-3313.6978,0.03126999250827045,0.0,0.0,0.0,0.0,0.00477224298350204,0.5211667392076526,0.2054833915196318,0.2806312675711497,-0.01082259321910679,-0.008654790631711332,0.03857820667687256
3128,9.0,299.97889,-3459.2342,0.03127996914773812,0.0,0.0,0.0,0.0,0.004773765559744597,0.5194947954826445,0.24082756124282975,0.2911984629965507,0.007313502129061462,0.0003339342820667477,0.03717232520287286
3129,9.0,300.27911,-3631.6958,0.03128997882243545,0.0,0.0,0.0,0.0,0.004775293177630313,0.5478625660148255,0.24557778916914078,0.3105044744394057,0.0018471669899761884,0.01037060666749919,0.03758290630239407
3130,9.0,300.32237000000003,-3409.551,0.031299988497133,0.0,0.0,0.0,0.0,0.004776820795516057,0.5199761095451465,0.2221858872280398,0.2942563606058417,0.014898467740114286,0.003526215726010397,0.039531411575946564
3131,9.0,300.23395,-3097.4968,0.031309998171830555,0.0,0.0,0.0,0.0,0.004778348413401773,0.46278830429864953,0.21645057755450878,0.26232279071924375,0.0028889160662638174,-0.005518394915973175,0.06379003042733583
3132,9.0,299.8447,-3144.3804,0.031319974811298,0.0,0.0,0.0,0.0,0.004779870989644303,0.48148957768432155,0.2123636028786558,0.26195993572593274,0.004630070751277405,-0.001096181986234739,0.050711793537864355
3133,9.0,299.93518,-3534.1969,0.03132998448599533,0.0,0.0,0.0,0.0,0.0047813986075300186,0.5395901996809065,0.25106368733055673,0.28365372169194275,-0.006142520905869614,0.0012594518384482188,0.057674152122245644
3134,9.0,300.49255,-3540.4436,0.031339994160692664,0.0,0.0,0.0,0.0,0.0047829262254157345,0.5427900536292075,0.23845159108333974,0.29496480481075965,0.006771545757349533,0.004172104098904616,0.047477652219429456
3135,9.0,300.30294,-3266.2459,0.03134997080016033,0.0,0.0,0.0,0.0,0.004784448801658292,0.5079462369378905,0.2115588492517328,0.2733521092502527,-0.016210445247846383,-0.0033042127304254063,0.05026648531766586
3136,9.0,300.25872000000004,-3155.2377,0.03135998047485766,0.0,0.0,0.0,0.0,0.004785976419544008,0.49134630240460453,0.2088721862140798,0.2588949757634448,0.0032478275915106265,-0.0035729476312224766,0.04640671069848576
3137,9.0,300.38192000000004,-3532.1959,0.031369990149555216,0.0,0.0,0.0,0.0,0.004787504037429752,0.5292417244220915,0.2339888424754008,0.3104687776383827,-0.01968384227264398,-0.0031816575977051567,0.04406093235222546
3138,9.0,300.13849,-3716.5829,0.03137999982425277,0.0,0.0,0.0,0.0,0.004789031655315468,0.5574013733837325,0.24450781732854276,0.3278392179452117,0.0012654029602605487,-0.009992914348998861,0.037961266048735266
3139,9.0,300.33335,-3354.2456,0.031389976463720215,0.0,0.0,0.0,0.0,0.004790554231557997,0.5314814428406345,0.2111745842838088,0.2769508797629237,0.005748422649700145,0.0017010273466033282,0.03597302718576136
3140,9.0,300.27374,-3018.4339,0.031399986138417546,0.0,0.0,0.0,0.0,0.004792081849443713,0.47659603566386655,0.18640926236216182,0.2545232372794878,0.00966762215809502,0.009374026254169361,0.038229730715730666
3141,9.0,300.26441,-3200.6162,0.0314099958131151,0.0,0.0,0.0,0.0,0.004793609467329457,0.5057340687895665,0.20413610325916481,0.26303722323225276,0.016207325450788485,0.01702709443094338,0.028629772690038573
3142,9.0,300.45049,-3625.0018,0.03141997245258232,0.0,0.0,0.0,0.0,0.004795132043571987,0.5298758467321745,0.2570042916068488,0.3150298824335287,-0.011391223095726188,-0.001086747715878649,0.044940485114780555
3143,9.0,299.75548,-3729.3249,0.031429982127279876,0.0,0.0,0.0,0.0,0.004796659661457731,0.5541974360375285,0.2601535742426587,0.31927064820955964,0.002099612882165658,-0.0024288544179842677,0.045955044333909754
3144,9.0,299.99852000000004,-3397.8154,0.03143999180197743,0.0,0.0,0.0,0.0,0.004798187279343419,0.5116497775109015,0.23945703915756977,0.2817442316134907,-0.009261125165751892,-0.025491742196589076,0.05109025460921555
3145,9.0,300.16753,-3128.5049,0.03145000147667498,0.0,0.0,0.0,0.0,0.0047997148972291626,0.48708867614690954,0.2150141536827448,0.24888455113549277,0.010988802712510388,-0.00027911972133697174,0.04740113967787825
3146,9.0,299.92118,-3459.8467,0.031459978116142207,0.0,0.0,0.0,0.0,0.004801237473471692,0.5293481967425995,0.2324949369254638,0.2898638606273357,-0.0026358755989156677,-0.01160449602977459,0.04235423820178786
3147,9.0,299.83691,-3714.5341,0.03146998779083954,0.0,0.0,0.0,0.0,0.004802765091357408,0.5541749216203065,0.25493914604803475,0.3200115468151807,0.0008495836515648781,0.00941092456716094,0.04184887566141246
3148,9.0,299.60765,-3374.8158,0.03147999746553709,0.0,0.0,0.0,0.0,0.004804292709243152,0.5120018008606435,0.21677895164691677,0.29707897140941175,-0.0076025435751126335,0.00963921538756649,0.03271600566681837
3149,9.0,300.38577000000004,-3084.1993,0.03148997410500454,0.0,0.0,0.0,0.0,0.004805815285485682,0.4678943046000726,0.2159826383933268,0.2536426216175777,-0.008359953395088163,0.024081116685621178,0.06698335195224213
3150,9.0,300.684,-3370.6395,0.03149998377970209,0.0,0.0,0.0,0.0,0.0048073429033714254,0.5105949030967936,0.22286326518489177,0.2911320849824997,-0.012360877096923588,-0.005178180286871605,0.03801681140596717
3151,9.0,300.45677,-3735.2414,0.03150999345439942,0.0,0.0,0.0,0.0,0.004808870521257114,0.5496717342008764,0.2589593779398008,0.32678900448156367,-0.001015347730357019,-0.004158234934185836,0.058216770855547946
3152,9.0,299.82249,-3601.7071,0.03151997009386709,0.0,0.0,0.0,0.0,0.004810393097499699,0.5312669985894706,0.24189535459571276,0.3216666807210297,0.01794268748630538,-0.004593805314298286,0.02246724536359448
3153,9.0,299.48367,-3231.5833,0.03152997976856442,0.0,0.0,0.0,0.0,0.004811920715385387,0.4913242540824285,0.2176693755697948,0.2733269907802737,0.01088395361866259,0.0008189070792223363,0.04442676630083046
3154,9.0,298.97504,-3187.3822,0.03153998944326197,0.0,0.0,0.0,0.0,0.004813448333271131,0.47972193248736855,0.21967947125067577,0.26948318599591975,0.007061791248494534,-0.0030778138506065774,0.025586781002968677
3155,9.0,300.1199,-3452.8682,0.031549999117959304,0.0,0.0,0.0,0.0,0.004814975951156847,0.5328767490233405,0.23475038098555875,0.28195856440714373,-0.011829403101471188,0.004102250535685606,0.04943931657203065
3156,9.0,299.58115,-3760.5427,0.03155997575742697,0.0,0.0,0.0,0.0,0.004816498527399404,0.5627585989149495,0.24978402338176375,0.3305684780170687,-0.007295940377003252,0.003032949162678777,0.03067561482119747
3157,9.0,300.23605,-3494.81,0.0315699854321243,0.0,0.0,0.0,0.0,0.00481802614528512,0.5422602251519174,0.2175256865731138,0.3025490527367667,-0.005268370083572645,0.011964410571295388,0.04067769330807576
3158,9.0,300.40652,-3124.1922,0.031579995106821634,0.0,0.0,0.0,0.0,0.0048195537631708085,0.47537822050117756,0.2023079467662398,0.27199025045334774,0.004068661396195616,-0.003177037481224187,0.046230242047819656
3159,9.0,300.21524,-3334.1318,0.0315899717462893,0.0,0.0,0.0,0.0,0.004821076339413394,0.5206186620960616,0.2126721274016048,0.2802020244312868,0.008609413239232932,-0.0015864093058914086,0.044975327745969254
3160,9.0,300.02021,-3806.7722,0.031599981420986634,0.0,0.0,0.0,0.0,0.004822603957299082,0.5584557411727904,0.2588743054614048,0.33983362679896767,0.00098970542020882,-0.01073650343761039,0.04605614946863805
3161,9.0,299.97765,-3636.5071,0.03160999109568419,0.0,0.0,0.0,0.0,0.004824131575184826,0.5658622852962595,0.23031561834538178,0.3092294511760707,0.003828248152918676,0.003000530428379297,0.03676963732163067
3162,9.0,300.09171000000003,-3224.9590000000003,0.03162000077038152,0.0,0.0,0.0,0.0,0.004825659193070542,0.47825547588264056,0.2325767872685418,0.2694747557550877,0.0025642390194956875,-0.009148762721087582,0.04707818748675536
3163,9.0,299.60799,-3133.1427,0.031629977409849186,0.0,0.0,0.0,0.0,0.004827181769313099,0.4662209828549286,0.2251732626303708,0.26100291087398175,-0.0001060415878904899,0.003705384181567947,0.04030178664022666
3164,9.0,299.8918,-3416.2711,0.03163998708454652,0.0,0.0,0.0,0.0,0.004828709387198815,0.5023235196154715,0.23607085864837976,0.3000667217142797,0.013616241281818386,-0.008250302103716422,0.04269889117030246
3165,9.0,300.30592,-3674.4295,0.03164999675924407,0.0,0.0,0.0,0.0,0.004830237005084531,0.5389374234364824,0.26200921007829575,0.3159881738481047,-0.0025263763963839377,-0.0036840752279899166,0.056429778661185544
3166,9.0,300.09087,-3417.3028,0.031659973398711516,0.0,0.0,0.0,0.0,0.004831759581327089,0.5286086660246135,0.2213361250316748,0.2888299199602937,-0.006240087264623664,-0.008752490232853532,0.05023240262405215
3167,9.0,300.12455,-3139.3799,0.03166998307340907,0.0,0.0,0.0,0.0,0.004833287199212805,0.49661042038413256,0.21867314164885882,0.23900953725090476,-0.025121199674769376,-0.008801242356114992,0.05717256596499294
3168,9.0,299.68203,-3281.1255,0.0316799927481064,0.0,0.0,0.0,0.0,0.004834814817098521,0.5145202542491956,0.21250329966994277,0.27035666837712574,-0.0034498759436012464,0.007991413258116082,0.049434807609085654
3169,9.0,299.07142999999996,-3793.5719,0.031689969387573846,0.0,0.0,0.0,0.0,0.004836337393341078,0.5618018172430225,0.24888347709038677,0.34246582764374567,-0.015602746473871186,0.013736464419433488,0.03427950123362337
3170,9.0,299.2585,-3823.4648,0.0316999790622714,0.0,0.0,0.0,0.0,0.004837865011226794,0.5670264589986544,0.2613184673526247,0.3338928806676617,0.010208142146465189,0.0019444973627819483,0.037802122961529065
3171,9.0,299.50364,-3378.8988,0.03170998873696873,0.0,0.0,0.0,0.0,0.00483939262911251,0.5007942516370445,0.2283693979508048,0.2979372246416147,0.005522522086280495,-0.002998540607832917,0.036755966551281466
3172,9.0,299.87667999999996,-3214.4608,0.031719998411666284,0.0,0.0,0.0,0.0,0.004840920246998226,0.4950249170251555,0.2236594467159688,0.2584314543726987,0.014577158027403487,-0.003691414806414277,0.05096007730261805
3173,9.0,300.154,-3541.8212,0.03172997505113373,0.0,0.0,0.0,0.0,0.0048424428232407835,0.5502863413140335,0.2252771410306228,0.3010617231799787,-0.0026493854651489877,-0.0006460958966472003,0.02107707129264498
3174,9.0,300.20633,-3706.8305,0.03173998472583106,0.0,0.0,0.0,0.0,0.0048439704411264994,0.5625732450741564,0.24437838476076876,0.3198322927399897,-0.004391167757274515,-0.008728101708246571,0.04845225898711566
3175,9.0,300.27719,-3399.5915,0.031749994400528614,0.0,0.0,0.0,0.0,0.004845498059012215,0.5075451520183065,0.2309318263936968,0.2949139396557397,-8.602349366160781e-05,-0.005687225890035495,0.030260456870974575
3176,9.0,299.93543999999997,-3183.7053,0.03175997103999606,0.0,0.0,0.0,0.0,0.004847020635254773,0.4865634579575745,0.21660612157735978,0.26459733454372375,0.01079856095323499,-0.0034011096348383865,0.05239073983431344
3177,9.0,300.29897,-3376.3096,0.03176998071469339,0.0,0.0,0.0,0.0,0.004848548253140489,0.5162264964900884,0.21997191549453776,0.29011539996466074,0.0030880370374905272,0.009254507426698772,0.034144956819094865
3178,9.0,300.1325,-3724.7878,0.031779990389390944,0.0,0.0,0.0,0.0,0.004850075871026233,0.5642204452317224,0.2531519552566528,0.3148700624952557,-0.009466237180844871,0.0036999834572099366,0.058594119378289344
3179,9.0,299.3761,-3691.8204,0.031790000064088275,0.0,0.0,0.0,0.0,0.004851603488911921,0.5644843056902634,0.24495513685018974,0.3127817844366587,-0.01206477502020059,-0.004613794408296055,0.04337728643025486
3180,9.0,299.24711,-3328.4834,0.03179997670355594,0.0,0.0,0.0,0.0,0.004853126065154506,0.5055812605419855,0.22846755148799178,0.2777270394720247,-0.006197039638100194,0.0066940868402049335,0.05358947245786915
3181,9.0,299.19397000000004,-3209.6166,0.031809986378253274,0.0,0.0,0.0,0.0,0.004854653683040194,0.4876338350982125,0.21777800611301576,0.27023146106226875,-0.001043579917893319,0.00983315996800733,0.05030929614764095
3182,9.0,299.94035,-3469.8971,0.031819996052950605,0.0,0.0,0.0,0.0,0.00485618130092591,0.5300244803893435,0.2216857571111808,0.3030518274363867,0.0029474766531432973,0.0054926178334291755,0.03479108816936307
3183,9.0,299.90305,-3729.7179,0.031829972692418274,0.0,0.0,0.0,0.0,0.004857703877168468,0.5521800956184325,0.26354578358994374,0.3180152313356597,0.0008909718885320791,-0.004259768471056416,0.05023601992690915
3184,9.0,300.0678,-3450.2512,0.031839982367115605,0.0,0.0,0.0,0.0,0.004859231495054184,0.5224392394782386,0.2435234853863968,0.28282749729540074,-0.004457546987225636,-0.0007407240530262723,0.04498742088591275
3185,9.0,300.18487000000005,-3230.9833,0.03184999204181316,0.0,0.0,0.0,0.0,0.0048607591129399275,0.49719840941716253,0.22820908151998281,0.2567307444773518,0.009316046766222231,0.0034735682640644966,0.055459374854914145
3186,9.0,299.9569,-3448.9859,0.03186000171651049,0.0,0.0,0.0,0.0,0.004862286730825616,0.5196812132360425,0.2336077287152878,0.2951166504707457,0.00029251437090142075,0.003921721589218786,0.04262082632959806
3187,9.0,299.52797000000004,-3707.638,0.03186997835597816,0.0,0.0,0.0,0.0,0.004863809307068201,0.5516470855358285,0.24876169456086777,0.3266205820499417,0.0020715471716207883,0.002293046379256058,0.047402135702726556
3188,9.0,299.90409,-3637.255,0.03187998803067549,0.0,0.0,0.0,0.0,0.004865336924953889,0.5312683360796024,0.23798386470467878,0.33638250709086864,-0.003651018652752487,-0.002325139758948428,0.03176197192916257
3189,9.0,299.27796,-3373.4977,0.03188999770537304,0.0,0.0,0.0,0.0,0.004866864542839633,0.5293930634570275,0.2054447765583208,0.2906212245470817,0.007287512567971493,0.005497296009140875,0.034903365399693964
3190,9.0,300.25137,-3297.6113,0.03189997434484049,0.0,0.0,0.0,0.0,0.004868387119082163,0.5120107883890306,0.20729850748376982,0.28308218784053674,-0.009112651095473642,-0.005659783024327094,0.043050886149041664
3191,9.0,300.41211,-3431.5296,0.03190998401953804,0.0,0.0,0.0,0.0,0.004869914736967906,0.5532115943527335,0.2146296151372938,0.2752580934833587,-0.007839041518678163,-0.01051111608536639,0.04227849066406216
3192,9.0,300.27682000000004,-3598.5999,0.03191999369423537,0.0,0.0,0.0,0.0,0.004871442354853622,0.5312942144871564,0.24800235480342678,0.31458794326991274,-0.009052835294370282,0.004547211920374876,0.056135686872660955
3193,9.0,300.34995,-3388.1762,0.03192997033370282,0.0,0.0,0.0,0.0,0.004872964931096152,0.5216105630164545,0.22769027720378077,0.28062011168754875,0.017056633711108684,0.0021015088757527778,0.04357377183664646
3194,9.0,300.10618,-3232.7963,0.03193998000840037,0.0,0.0,0.0,0.0,0.004874492548981896,0.4792849582492425,0.22671374728740476,0.27669065687224176,0.016232077124231283,0.015137130695168486,0.053402707159686855
3195,9.0,299.49501000000004,-3448.1888,0.0319499896830977,0.0,0.0,0.0,0.0,0.004876020166867584,0.5280412662336155,0.2289261687482538,0.29119587920879575,-0.00943903090903482,-0.003785058164756156,0.02638798724129158
3196,9.0,299.87576,-3651.8048,0.031959999357795255,0.0,0.0,0.0,0.0,0.004877547784753328,0.5408848293336764,0.24821331347424677,0.32095933082621975,-0.004870417120047745,-0.008072671356510632,0.037585661329415966
3197,9.0,300.01936,-3551.3656,0.0319699759972627,0.0,0.0,0.0,0.0,0.0048790703609958574,0.5376200868489716,0.24238517995905476,0.29952117772793874,0.0044118320811389255,-0.0038541274723977665,0.04249088815002416
3198,9.0,300.36258,-3383.9298,0.031979985671960254,0.0,0.0,0.0,0.0,0.004880597978881601,0.5036299131019025,0.2284239412036878,0.2965763182998037,0.01138725014208409,0.015497925751026185,0.052670894367712544
3199,9.0,300.22539,-3385.4976,0.031989995346657585,0.0,0.0,0.0,0.0,0.004882125596767317,0.5144540079576575,0.22080716794947078,0.2938455687502997,0.00034380344949825866,-0.013873397064447688,0.04928545454434566
3200,9.0,300.53501,-3459.4069,0.03199997198612503,0.0,0.0,0.0,0.0,0.004883648173009847,0.5218044382905885,0.23401210669769676,0.29575677122142074,-0.007199105888796433,-0.0059337467009402045,0.04974856860855145
3201,9.0,300.87053,-3527.5777,0.032009981660822584,0.0,0.0,0.0,0.0,0.004885175790895591,0.5263800122971625,0.2450086668529728,0.3009068681671957,-0.00043047646788471963,0.0018250301097414484,0.05316766556049004
3202,9.0,300.29127,-3481.5089,0.03201999133552014,0.0,0.0,0.0,0.0,0.004886703408781307,0.5360399334505225,0.2386661062620108,0.2835857528752347,0.006227317577588394,0.007410200335129832,0.045600773595445954
3203,9.0,299.77858,-3377.6658,0.03203000101021747,0.0,0.0,0.0,0.0,0.004888231026667023,0.5164359656832616,0.23568992727328478,0.27460018006092773,-0.002013727878514468,-0.0036615591895677565,0.05341095602875095
3204,9.0,299.79236000000003,-3426.0472,0.032039977649684914,0.0,0.0,0.0,0.0,0.004889753602909552,0.5295010353876834,0.22848122023184078,0.28345053464938974,-0.01067294428533759,0.0035006495008122066,0.04557641404979186
3205,9.0,299.97527,-3654.0055,0.03204998732438247,0.0,0.0,0.0,0.0,0.004891281220795296,0.5406233804103735,0.25729813413584873,0.3128049068039407,0.007582892703998243,-0.0006803779168205724,0.035984568104400365
3206,9.0,299.8216,-3626.7699,0.0320599969990798,0.0,0.0,0.0,0.0,0.004892808838681012,0.5345228751358005,0.24957260874839876,0.3183520154038977,0.014833609601213287,0.006622065732372004,0.044306365844447866
3207,9.0,300.10188,-3353.8262,0.032069973638547244,0.0,0.0,0.0,0.0,0.004894331414923542,0.5203785927498685,0.21531718639015177,0.28378364061976474,0.008922042843637071,-0.023762794034205177,0.03734564973847867
3208,9.0,299.8549,-3333.7788,0.032079983313244576,0.0,0.0,0.0,0.0,0.0048958590328092855,0.5097288579713215,0.2115102639094378,0.29214638886260375,0.0044202896797236255,-0.013358267806358386,0.04991502837472975
3209,9.0,299.91936,-3485.1638,0.03208999298794213,0.0,0.0,0.0,0.0,0.0048973866506950015,0.5285415686029915,0.2277325601304538,0.3031286520589687,-0.023187308507409177,-0.006979282495501554,0.03237541887095507
3210,9.0,300.45909,-3525.1566,0.03209996962740935,0.0,0.0,0.0,0.0,0.004898909226937503,0.5256975072948045,0.2386438451573138,0.3072182307875787,0.003513408346071406,0.02878875669697907,0.061823204578725234
3211,9.0,300.71961,-3551.3068,0.032109979302106906,0.0,0.0,0.0,0.0,0.004900436844823247,0.5537457899379545,0.2367555522709538,0.2890072589927957,-0.008849200192623061,0.00043811031440312156,0.03783724119674497
3212,9.0,300.13749,-3409.9303,0.03211998897680446,0.0,0.0,0.0,0.0,0.004901964462708991,0.5155316804990155,0.23337067885439278,0.2876313160195007,-0.009189387869271972,0.003572695129297557,0.05950970838065095
3213,9.0,300.24325,-3352.7202,0.03212999865150201,0.0,0.0,0.0,0.0,0.004903492080594735,0.5244125744454915,0.22668739265230378,0.26804324614630876,-0.0033494473559647167,-0.00046107889058494365,0.03187388337620737
3214,9.0,300.22656,-3528.8189,0.032139975290969236,0.0,0.0,0.0,0.0,0.004905014656837237,0.5239497927273185,0.25794650274233777,0.29077653552240973,0.002321516477915838,0.015391055223228884,0.04603539608008986
3215,9.0,299.78484,-3584.1014,0.03214998496566701,0.0,0.0,0.0,0.0,0.004906542274723008,0.5442192530277584,0.24722968067466977,0.2980283766206107,0.004045929130202116,-0.004224309479831886,0.03152473664349927
3216,9.0,299.83078,-3399.8841,0.03215999464036434,0.0,0.0,0.0,0.0,0.004908069892608696,0.5132466394034996,0.2280601641527858,0.2921730576052357,-0.012068379150806288,0.001151117670881469,0.03212086612783267
3217,9.0,299.68285,-3305.2603,0.03216997127983179,0.0,0.0,0.0,0.0,0.004909592468851226,0.5132359901449485,0.21213840804393078,0.27934220066142873,0.002794735786693948,0.006075485596478744,0.04644229198899736
3218,9.0,299.47747000000004,-3571.1107,0.03217998095452912,0.0,0.0,0.0,0.0,0.004911120086736942,0.5180045072355645,0.24366539106290175,0.32385857373485266,-0.004214747742613216,0.009033460432583131,0.037742305741875565
3219,9.0,299.81186,-3681.7398,0.03218999062922667,0.0,0.0,0.0,0.0,0.004912647704622686,0.5684729444439115,0.2510491167941188,0.2996349049191627,0.011290239551009888,-0.002286328531093058,0.06147081037944664
3220,9.0,300.07225,-3483.2663,0.032200000303924226,0.0,0.0,0.0,0.0,0.0049141753225084295,0.5394355777156464,0.2194416715847068,0.29994873887263573,-0.007711938514209072,-0.02108163699759558,0.03125857813373147
3221,9.0,300.22905,-3438.5493,0.03220997694339145,0.0,0.0,0.0,0.0,0.0049156978987509314,0.5273304104934594,0.24117119488174377,0.2767315111162737,0.01120107658196019,-0.0018971959096886583,0.05170167302430786
3222,9.0,300.13122000000004,-3487.006,0.032219986618089225,0.0,0.0,0.0,0.0,0.004917225516636703,0.5222972223442225,0.2312055964382158,0.3064599549427427,0.0027090611337635176,0.012514513169836289,0.027211722082337873
3223,9.0,300.38498,-3550.4289,0.032229996292786556,0.0,0.0,0.0,0.0,0.004918753134522391,0.5365900269298125,0.24939375997324775,0.29325795461980675,0.011290186862004689,-0.00011264438150463489,0.05083874870914385
3224,9.0,299.71847,-3601.7004,0.032239972932254,0.0,0.0,0.0,0.0,0.004920275710764921,0.5439793356690804,0.25007145203763076,0.3007761893017987,-0.013346859623482489,0.006539148842238745,0.038359376066025665
3225,9.0,299.43995,-3432.0804,0.03224998260695133,0.0,0.0,0.0,0.0,0.004921803328650637,0.5380820174370605,0.2261718611339248,0.2790128639814258,0.007629664632589273,0.0017412698915499581,0.04423461659161675
3226,9.0,299.85585,-3320.4063,0.03225999228164911,0.0,0.0,0.0,0.0,0.004923330946536408,0.5009859990859685,0.2392213875818128,0.2691131977219048,-0.00013299293610788087,0.012973639081648487,0.052117577739854454
3227,9.0,300.03326,-3521.5262,0.03226996892111633,0.0,0.0,0.0,0.0,0.00492485352277891,0.5312037211207256,0.23506030379364576,0.3041920073764137,-0.006693820558078653,0.0033169670160591563,0.05582138277114154
3228,9.0,300.30826,-3627.5009999999997,0.032279978595813885,0.0,0.0,0.0,0.0,0.004926381140664654,0.5370678351469684,0.2363244852809108,0.3292774048721497,-0.008217863104414943,-0.017212001428442286,0.03301357188993587
3229,9.0,299.93262000000004,-3414.2298,0.03228998827051144,0.0,0.0,0.0,0.0,0.004927908758550398,0.5253010326631755,0.2237894163062958,0.28875016704492273,0.003292783066647387,0.0009440053785010773,0.03721497087308167
3230,9.0,299.85393999999997,-3330.4636,0.03229999794520877,0.0,0.0,0.0,0.0,0.004929436376436086,0.5042645116395326,0.22666638797773078,0.2814468528416417,0.0026813021340239174,0.006528037338992125,0.045541028316549555
3231,9.0,299.90682000000004,-3488.9052,0.032309974584676215,0.0,0.0,0.0,0.0,0.004930958952678616,0.5482834701063655,0.23059110078256978,0.2816654818157187,0.01992844793953468,-0.012059158574896289,0.04870087611115225
3232,9.0,300.30375,-3658.3740000000003,0.032319984259373546,0.0,0.0,0.0,0.0,0.004932486570564332,0.5501037536460134,0.2479393002497038,0.3140112925055017,-0.007464746830413154,-0.018047240711123985,0.043212668752758365
3233,9.0,300.39755,-3522.1729,0.03232999393407132,0.0,0.0,0.0,0.0,0.004934014188450103,0.5361851220573515,0.2326359205443778,0.3018315602084557,0.015338098720002484,0.008638459978524622,0.04071176992218886
3234,9.0,300.46632,-3408.1223,0.032339970573538546,0.0,0.0,0.0,0.0,0.004935536764692605,0.5090947559262405,0.2361648679926578,0.29072445446726974,0.012638037476277187,0.00901676825176074,0.03438037332082867
3235,9.0,300.06572,-3420.4979,0.0323499802482361,0.0,0.0,0.0,0.0,0.004937064382578349,0.5093600855974265,0.2291133464392268,0.3012725298632837,-0.009055734506881411,0.016438504540604085,0.04145961739699566
3236,9.0,300.42955,-3485.5771,0.03235998992293365,0.0,0.0,0.0,0.0,0.004938592000464065,0.5249992462533916,0.23308567186626478,0.30144348542015575,-0.007148289065806203,-0.0023543023127265477,0.050080157743526754
3237,9.0,300.61037000000005,-3601.4938,0.032369999597631205,0.0,0.0,0.0,0.0,0.004940119618349809,0.5488382650661194,0.24275763043081275,0.30316831066788275,-0.01069693500795529,0.00020374008459008084,0.04528838149686525
3238,9.0,300.15009,-3497.0224,0.03237997623709843,0.0,0.0,0.0,0.0,0.004941642194592311,0.5315999221748274,0.2286612747746108,0.3027462818687317,0.015001177863000984,0.008157318776489682,0.04505626819045746
3239,9.0,300.39952,-3402.7548,0.03238998591179598,0.0,0.0,0.0,0.0,0.004943169812478054,0.5077913515276046,0.23141179283356578,0.29514934805147275,-0.005876495435839944,0.0016019812374032385,0.04268884479556096
3240,9.0,299.36941,-3421.9127,0.03239999558649331,0.0,0.0,0.0,0.0,0.004944697430363798,0.5131239753463935,0.22751039491352779,0.2995416555124597,0.013558293508599386,-0.008471200555367401,0.03094220902850827
3241,9.0,299.37615,-3591.7059999999997,0.03240997222596076,0.0,0.0,0.0,0.0,0.004946220006606328,0.5399152604454874,0.24109219177144675,0.31078147675174367,-0.010592534783901791,-0.005415478191391084,0.023433515109457875
3242,9.0,299.49631,-3601.4748,0.03241998190065809,0.0,0.0,0.0,0.0,0.004947747624492044,0.5396772479969976,0.25493309694493776,0.3001480755648087,0.013765799023078588,-0.001974510742669038,0.04971286066177735
3243,9.0,299.65862000000004,-3509.5807,0.03242999157535564,0.0,0.0,0.0,0.0,0.00494927524237776,0.5362740347536264,0.24139939906926575,0.28915146474702774,0.002917865634870917,-0.0018299012082721884,0.04720383556540586
3244,9.0,299.88386,-3450.7007,0.032440001250053196,0.0,0.0,0.0,0.0,0.0049508028602635035,0.5087753997597225,0.24573746725239975,0.2944139817913977,0.0008700272388950032,-0.01078708589585249,0.06695477728617204
3245,9.0,300.09655,-3508.3314,0.03244997788952042,0.0,0.0,0.0,0.0,0.004952325436506005,0.5335633880861065,0.23358282302782976,0.29929894158350573,0.0005119110947116916,0.00988331990095773,0.038628136602050264
3246,9.0,300.16422,-3548.2783,0.032459987564217974,0.0,0.0,0.0,0.0,0.004953853054391749,0.5265235999688335,0.23628319533933576,0.3157812073826787,-0.003783404540592957,0.002945930028190657,0.05527073707054704
3247,9.0,300.4664,-3456.8265,0.03246999723891553,0.0,0.0,0.0,0.0,0.004955380672277493,0.5236017717154715,0.2277504743922218,0.2994366929346007,-0.008332109181015152,0.009551027975713071,0.022297347639826878
3248,9.0,300.22983,-3336.2777,0.03247997387838297,0.0,0.0,0.0,0.0,0.004956903248520023,0.5086407286889315,0.2176568821960618,0.28784750306083673,0.0006878165708397103,-0.018119652629520484,0.04824064778323125
3249,9.0,300.01658,-3430.9968,0.032489983553080304,0.0,0.0,0.0,0.0,0.004958430866405739,0.5263322476874485,0.23571051651531677,0.2808945910071377,-0.0048848518809723445,0.005562635847139415,0.037555479648687266
3250,9.0,299.9481,-3574.4244,0.03249999322777786,0.0,0.0,0.0,0.0,0.004959958484291455,0.5390394577215525,0.25034837328996074,0.29714795347621975,-0.006055345426891064,-0.004060251420365616,0.06403798285930684
3251,9.0,299.27448,-3622.5395,0.0325099698672453,0.0,0.0,0.0,0.0,0.004961481060534012,0.5603497386572135,0.23456623291238476,0.3062455917515867,-0.007932795625255973,0.00999282224456477,0.03429602835600447
3252,9.0,299.68844,-3509.6857,0.032519979541942856,0.0,0.0,0.0,0.0,0.004963008678419728,0.5350589047037024,0.24256364369916777,0.2892342675451997,-0.01052409277939709,0.0042947041186042955,0.05453274547946294
3253,9.0,299.65794,-3509.4346,0.03252998921664019,0.0,0.0,0.0,0.0,0.004964536296305444,0.5328969633628354,0.22980578129256476,0.3040777431626367,-0.004809822230942496,0.01014568237055089,0.029799569930488573
3254,9.0,299.49562000000003,-3543.1607,0.03253999889133774,0.0,0.0,0.0,0.0,0.004966063914191188,0.5435894572956025,0.23749261065869579,0.2959503222555227,0.013846117332005385,-0.008065636158416312,0.04353940036675426
3255,9.0,300.07005,-3538.7490000000003,0.032549975530805186,0.0,0.0,0.0,0.0,0.0049675864904337175,0.5368643947918904,0.23433417837448278,0.3044927501385947,0.008048135201364102,-0.0047985713044821155,0.04226331927031486
3256,9.0,299.90047999999996,-3517.9834,0.03255998520550252,0.0,0.0,0.0,0.0,0.0049691141083194335,0.5286435623580575,0.22581874347407477,0.31491679358986774,0.008801630228253272,-0.02410414786039418,0.03617081968478197
3257,9.0,300.67186,-3417.7475,0.03256999488020007,0.0,0.0,0.0,0.0,0.0049706417262051494,0.5195763722481955,0.23870562301591078,0.28062789344831673,0.008452486535295472,-0.01000408188497601,0.03647905644470257
3258,9.0,300.42672999999996,-3336.2185,0.03257997151966752,0.0,0.0,0.0,0.0,0.004972164302447707,0.5054333665573896,0.21926136372941182,0.2894323782047517,-0.008908440265019602,-0.003921331994555337,0.04183109109565726
3259,9.0,300.0574,-3531.6594,0.03258998119436507,0.0,0.0,0.0,0.0,0.004973691920333423,0.5410717435796235,0.24319970131694177,0.2892648373007167,-0.004338532150354786,0.002994853593369037,0.05256811230406875
3260,9.0,300.15938,-3636.8751,0.0325999908690624,0.0,0.0,0.0,0.0,0.004975219538219139,0.5550384133555265,0.2546267711747058,0.2958540432310207,-0.018580665213018883,-0.014168606467832585,0.047312385048618864
3261,9.0,299.93976000000004,-3519.7258,0.032610000543759954,0.0,0.0,0.0,0.0,0.004976747156104883,0.5361778773191365,0.24006699545276777,0.2936638828748687,0.01908904318569188,0.016737542002866784,0.06145951365408174
3262,9.0,299.61236,-3484.6261,0.0326199771832274,0.0,0.0,0.0,0.0,0.004978269732347412,0.5172363825997565,0.24429744634278078,0.2977055044762457,0.015865320104785186,0.018641122806735584,0.061686314490215235
3263,9.0,299.68645,-3463.3365,0.03262998685792495,0.0,0.0,0.0,0.0,0.004979797350233156,0.5471805980350204,0.2086318432903598,0.29695536502971276,0.008405888277771582,0.015616340237212787,0.043618072144268556
3264,9.0,299.70873,-3556.1247,0.032639996532622284,0.0,0.0,0.0,0.0,0.004981324968118844,0.5341619351851785,0.23369337874624077,0.3131177883023197,-0.01005107510738888,-0.011529855974408188,0.04294959052329455
3265,9.0,300.0409,-3421.9359999999997,0.03264997317208995,0.0,0.0,0.0,0.0,0.0049828475443614295,0.5304781732541195,0.2184497301343098,0.29125519486964974,0.003882166534465006,0.004340181012242515,0.03448466816687177
3266,9.0,300.05939,-3359.7474,0.03265998284678728,0.0,0.0,0.0,0.0,0.004984375162247118,0.5110223426514785,0.22359473043208178,0.28666226388886273,0.008475203095912423,-0.010460290447100291,0.04009084924765876
3267,9.0,300.08522,-3500.8104,0.032669992521484614,0.0,0.0,0.0,0.0,0.004985902780132834,0.5244611293902836,0.2421135681372488,0.2975842589692797,-0.008323444778085042,-0.01135109231226559,0.03038682638369627
3268,9.0,300.16485,-3657.9182,0.03267996916095206,0.0,0.0,0.0,0.0,0.004987425356375391,0.5338817006050215,0.25943381203412375,0.31860028194339973,-0.013290052769876087,-0.02123208031944318,0.042817107059469464
3269,9.0,300.21182000000005,-3690.1601,0.032689978835649613,0.0,0.0,0.0,0.0,0.004988952974261107,0.5580450506422585,0.24798532206924576,0.3156861341257957,-0.013371293136393885,0.005646084592250165,0.02647427865955787
3270,9.0,300.35042000000004,-3636.401,0.03269998851034717,0.0,0.0,0.0,0.0,0.004990480592146851,0.5383982325282685,0.24528950938318977,0.3216873510230697,0.0012575769204631788,0.014095862203403286,0.043630501683245254
3271,9.0,300.36571000000004,-3577.8398,0.0327099981850445,0.0,0.0,0.0,0.0,0.004992008210032539,0.5626346784277194,0.22560826103080178,0.2993310210816717,0.002571210585483728,0.00016675864456029682,0.04286635405407976
3272,9.0,299.97128,-3580.111,0.032719974824511944,0.0,0.0,0.0,0.0,0.004993530786275124,0.5517493933984254,0.2280114876179818,0.3085034676119217,0.008460879184548761,-0.014197717143205588,0.03813870235324686
3273,9.0,299.44279,-3642.052,0.032729984499209275,0.0,0.0,0.0,0.0,0.004995058404160813,0.5401707717232045,0.2596261269031037,0.3072959572027497,8.229642035502432e-05,0.003676863724378197,0.05334163350990936
3274,9.0,299.43657,-3403.6778,0.03273999417390683,0.0,0.0,0.0,0.0,0.004996586022046556,0.5136725793480366,0.2213332170038878,0.29962726501340875,0.009047411569235001,0.004735529112410336,0.040824755414339664
3275,9.0,300.03424,-3302.4325,0.032749970813374274,0.0,0.0,0.0,0.0,0.004998108598289086,0.5000654208401145,0.2272573053035498,0.27653428198430874,-0.02029469732068068,0.002111015796141038,0.04364835717650746
3276,9.0,300.22175,-3403.1534,0.03275998048807183,0.0,0.0,0.0,0.0,0.00499963621617483,0.5216350026088665,0.22133932690199076,0.29149933748124474,-0.020622560735038282,-0.00988610745330784,0.043965472033804257
3277,9.0,300.14594,-3593.3587,0.03276999016276916,0.0,0.0,0.0,0.0,0.005001163834060546,0.5485109650188175,0.24372838482161877,0.3000519789253247,-0.010504954511508291,-0.0015492207980711886,0.045643589491671556
3278,9.0,299.96637000000004,-3684.5075,0.03277999983746649,0.0,0.0,0.0,0.0,0.005002691451946234,0.5296228483147054,0.27469656041043977,0.3156788792550797,0.018201077407556485,0.014570510093497385,0.05698977260720265
3279,9.0,300.07048,-3673.9624,0.03278997647693416,0.0,0.0,0.0,0.0,0.005004214028188819,0.5395660235335205,0.25445566363031874,0.32277114359503173,0.017400827677327983,0.0019153115042515282,0.04016241206247146
3280,9.0,300.62228999999996,-3613.5351,0.03279998615163149,0.0,0.0,0.0,0.0,0.0050057416460745074,0.5432463910767444,0.24759365024309077,0.3075843991087167,0.017379332589706586,-0.007205062279509283,0.044964340061884864
3281,9.0,300.28038,-3533.2649,0.03280999582632904,0.0,0.0,0.0,0.0,0.005007269263960251,0.5318666703961534,0.23720130125494576,0.3049563221918457,-0.007839522305850614,0.006617524548073824,0.030997298423195173
3282,9.0,299.76389,-3476.8106,0.03281997246579649,0.0,0.0,0.0,0.0,0.005008791840202781,0.5253625977392514,0.22680010659342778,0.3047009223716397,-0.003997799851777126,0.001978563641744028,0.04277191306525916
3283,9.0,299.51112,-3369.6933,0.03282998214049404,0.0,0.0,0.0,0.0,0.005010319458088525,0.5329420732572875,0.2192295375437708,0.2721310212897407,-0.02007577754382498,-0.010632115372558091,0.04251075595798496
3284,9.0,300.07196,-3398.5643,0.03283999181519137,0.0,0.0,0.0,0.0,0.005011847075974241,0.5200202061894985,0.22339895024775977,0.2896595387446707,-0.0012752713069594788,-0.0077793676739138125,0.050000010673866856
3285,9.0,300.04935,-3554.1359,0.03284996845465904,0.0,0.0,0.0,0.0,0.005013369652216798,0.5426526467831465,0.23713328177573278,0.3005826382676967,0.010728880757108091,-0.0008448001079752793,0.04878153791186295
3286,9.0,299.12381,-3630.6406,0.03285997812935637,0.0,0.0,0.0,0.0,0.005014897270102514,0.5361839365547345,0.25356646574006175,0.3138737032744227,-0.00025139441216319675,0.012521374899513488,0.04138931303880716
3287,9.0,298.83485,-3590.8296,0.032869987804053924,0.0,0.0,0.0,0.0,0.00501642488798823,0.5366209107928606,0.25096292974061274,0.30393870498391473,0.005540445061999354,0.0036448550523941864,0.037648738174641164
3288,9.0,299.57977,-3648.6072,0.032879997478751255,0.0,0.0,0.0,0.0,0.005017952505873946,0.5495557474619295,0.24161125953267476,0.3179184862161117,-0.00907688640669394,-0.006674486530270534,0.01859859872653878
3289,9.0,299.58952,-3778.8629,0.03288997411821892,0.0,0.0,0.0,0.0,0.0050194750821165035,0.5760981580714615,0.2652303118811937,0.3073515035732317,-0.0006902652822238794,0.008000933249430632,0.04359310870155486
3290,9.0,299.66414,-3703.5874,0.032899983792916254,0.0,0.0,0.0,0.0,0.0050210027000022195,0.5469412987589035,0.2575704856302278,0.3212863167659907,-0.012152102993319187,0.016202919839353683,0.04171281643798446
3291,9.0,299.88408,-3469.9872,0.032909993467613585,0.0,0.0,0.0,0.0,0.0050225303178879355,0.5150373664377306,0.2450858663780918,0.2946662202712917,0.0017174348041476184,0.0035514581164766265,0.061166754289438637
3292,9.0,299.68586,-3416.2727,0.03291997010708125,0.0,0.0,0.0,0.0,0.005024052894130493,0.5213926635824495,0.21791238334127783,0.2991565292819507,0.005567226782017505,-0.006033914579326004,0.038074781470688365
3293,9.0,299.7428,-3383.335,0.032929979781778584,0.0,0.0,0.0,0.0,0.005025580512016209,0.5186353972778285,0.22132817101838978,0.2884857898288307,0.01096775345493299,-0.008218814647583852,0.05973074179721524
3294,9.0,300.81539,-3343.9333,0.03293998945647614,0.0,0.0,0.0,0.0,0.005027108129901925,0.5109687113236855,0.23312572564271777,0.27237776795409274,0.02132331234519708,0.0028862753338531975,0.04869307712513255
3295,9.0,300.40432999999996,-3526.5697,0.03294999913117347,0.0,0.0,0.0,0.0,0.005028635747787641,0.5401409416402605,0.23607696854648275,0.29577121003534573,-0.0037720280724451863,-0.012923030278903787,0.04815275239005666
3296,9.0,299.82891,-3588.3309,0.03295997577064114,0.0,0.0,0.0,0.0,0.005030158324030198,0.5208639598127706,0.25205675348856477,0.3178422796760907,-0.0029948887531475073,-0.01699278679580748,0.05166219376066155
3297,9.0,299.88571,-3492.3367,0.03296998544533847,0.0,0.0,0.0,0.0,0.005031685941915914,0.5410262993126385,0.23614981109617178,0.28440702247878774,0.013084868611375988,-0.0012969628637752688,0.05495611987474675
3298,9.0,299.70499,-3620.7647,0.03297999512003602,0.0,0.0,0.0,0.0,0.005033213559801658,0.5354565141754435,0.2443149755695108,0.32085055842798466,0.0011924961705152089,0.028385377779168677,0.04910462993149965
3299,9.0,299.38651,-3626.8844,0.03298997175950347,0.0,0.0,0.0,0.0,0.005034736136044188,0.5546492949196236,0.25063892275613575,0.29719406648827074,-0.0071812224298314735,0.0002070717623763918,0.04031039622632636
3300,9.0,300.05652000000003,-3516.1008,0.0329999814342008,0.0,0.0,0.0,0.0,0.0050362637539299315,0.5411318394430545,0.22328735088174578,0.3043876558382227,-0.013816184910801287,-0.003967872800798556,0.02190667487827048
3301,9.0,299.66548,-3461.903,0.03300999110889835,0.0,0.0,0.0,0.0,0.00503779137181562,0.5556746330933164,0.2174189204100768,0.2792385147786957,-0.004283522498450756,0.005609761602665364,0.037335122069939664
3302,9.0,299.97711,-3452.2656,0.03302000078359568,0.0,0.0,0.0,0.0,0.005039318989701336,0.5311376166842015,0.22995972438025777,0.28830519826350776,0.008121322762712152,0.007085078876867843,0.05174794612987465
3303,9.0,300.75279,-3468.985,0.03302997742306313,0.0,0.0,0.0,0.0,0.005040841565943893,0.5427338486461605,0.22439946379400277,0.2873515171368867,0.01721046736779088,0.002112136754726668,0.051794613389730355
3304,9.0,300.41691000000003,-3541.5719,0.03303998709776068,0.0,0.0,0.0,0.0,0.005042369183829609,0.5337063272777135,0.2327989727504698,0.3100441346539737,-0.005919775299286334,-0.016499699780393583,0.04351817885665986
3305,9.0,300.49183,-3621.9816,0.03304999677245801,0.0,0.0,0.0,0.0,0.005043896801715353,0.5404154006948475,0.24803707888435375,0.31253949607274667,0.005906228854724405,-0.017556578403199383,0.050622224255524546
3306,9.0,300.01415,-3589.3415,0.03305997341192546,0.0,0.0,0.0,0.0,0.005045419377957883,0.5464097274914415,0.23823860591231977,0.3064218466064817,-0.015397958496160184,-0.002303070969120408,0.037863478294834364
3307,9.0,299.69889,-3577.8026,0.03306998308662301,0.0,0.0,0.0,0.0,0.005046946995843626,0.5295049465330695,0.24731062922515876,0.3107470870433497,-0.013527569739067187,-0.015908160319013185,0.033496240667821565
3308,9.0,299.60904,-3710.3714,0.03307999276132034,0.0,0.0,0.0,0.0,0.005048474613729315,0.5612399801950735,0.2544324298055258,0.3121878678905437,-0.00997706914393506,-0.00011926069187511389,0.04383421764235046
3309,9.0,299.2784,-3709.2994,0.03308996940078779,0.0,0.0,0.0,0.0,0.005049997189971844,0.5693837650913024,0.24109108732883777,0.31705956423884274,0.011065824918861888,0.01246087474929259,0.03910566110917826
3310,9.0,299.2875,-3493.2736,0.03309997907548534,0.0,0.0,0.0,0.0,0.005051524807857588,0.5247620140074786,0.23726482190371478,0.29984110131451275,0.018178687620096782,0.030851501866306176,0.05549345754852785
3311,9.0,300.10934,-3425.4453,0.033109988750182895,0.0,0.0,0.0,0.0,0.005053052425743332,0.5171524753589756,0.22916083747141378,0.29493651486796774,0.0005613628469021994,0.0050007274663833754,0.03568764225534607
3312,9.0,299.50638,-3522.8543,0.033119998424880226,0.0,0.0,0.0,0.0,0.005054580043629048,0.5307130952898045,0.24143519719529877,0.2987114389105237,-0.00975148491719663,-0.0033455025706753973,0.03498217801897217
3313,9.0,300.16496,-3611.695,0.033129975064347894,0.0,0.0,0.0,0.0,0.005056102619871605,0.5533483628512315,0.24615941499154279,0.2983573282655757,-0.012260878431304488,0.009532107049970722,0.041557434535149464
3314,9.0,300.42902000000004,-3608.5653,0.033139984739045225,0.0,0.0,0.0,0.0,0.005057630237757321,0.5446120799590275,0.2448619887684968,0.3074396664644327,-0.01054276697874009,0.01991009595372348,0.05896008099640695
3315,9.0,300.34416,-3545.6543,0.033149994413742556,0.0,0.0,0.0,0.0,0.0050591578556430095,0.5531872459528304,0.22655643007687878,0.29804670631491975,-0.0005348247831355966,-0.02221968505941218,0.05435060465473704
3316,9.0,300.45335,-3558.4709,0.03315997105321,0.0,0.0,0.0,0.0,0.005060680431885539,0.5191299545191376,0.23979160420808876,0.3227647398543997,9.736101855503442e-06,-0.009686462327804402,0.05595869133194285
3317,9.0,300.08124,-3677.8842,0.033169980727907555,0.0,0.0,0.0,0.0,0.005062208049771283,0.5582254598225634,0.24365122582650375,0.3161082743824577,0.0036158717425587568,-0.015986154232210587,0.04107790987232406
3318,9.0,300.26462999999995,-3617.0713,0.03317999040260511,0.0,0.0,0.0,0.0,0.005063735667657027,0.5492772455394435,0.2331216827748188,0.3171004184828747,0.008414130054084982,0.0030241458431599574,0.033790803617642674
3319,9.0,299.96519,-3431.1322,0.03319000007730244,0.0,0.0,0.0,0.0,0.005065263285542743,0.5326588901193395,0.22065144154160177,0.2896681716355227,-0.002434553544496728,-0.008404094217144522,0.023701774086682975
3320,9.0,299.37458,-3454.6935,0.03319997671677011,0.0,0.0,0.0,0.0,0.0050667858617853,0.5324632315250295,0.22746373474642279,0.2902135940318517,0.014632579768123186,-0.013564863422247789,0.036367278746670964
3321,9.0,300.15457000000004,-3600.4978,0.03320998639146744,0.0,0.0,0.0,0.0,0.005068313479670988,0.5591200988658575,0.2449630402009698,0.2903782978356067,0.0025829168665390478,0.013005779374820486,0.05764792819640754
3322,9.0,299.71744,-3669.3947,0.03321999606616499,0.0,0.0,0.0,0.0,0.005069841097556732,0.5322942923358565,0.2555892270471928,0.3275208648962927,0.0036275353657848667,0.018633265052210083,0.04931752188351045
3323,9.0,299.67789,-3591.6109,0.033229972705632216,0.0,0.0,0.0,0.0,0.005071363673799234,0.5452168180162105,0.2441824627214328,0.3023607604706837,-0.015899343016642985,-0.013733110561602486,0.05749275603634324
3324,9.0,299.65791,-3500.1209,0.03323998238032999,0.0,0.0,0.0,0.0,0.0050728912916850055,0.5165674247512355,0.24080011229762077,0.30658180839976873,-0.032830533325621365,0.002802373564622737,0.03468875193576326
3325,9.0,299.34233,-3496.5804,0.03324999205502732,0.0,0.0,0.0,0.0,0.0050744189095707215,0.5415191644262805,0.22760450558281575,0.2937494619783147,-0.003323291723183357,0.010047665926102421,0.05115175382403504
3326,9.0,299.80301000000003,-3561.3721,0.03325996869449477,0.0,0.0,0.0,0.0,0.005075941485813251,0.5412524060724535,0.22834366139826479,0.3129721133354427,0.008573124294851492,0.015099584712712985,0.038003709068924064
3327,9.0,300.9534,-3574.4489,0.03326997836919232,0.0,0.0,0.0,0.0,0.005077469103698995,0.5616755358830594,0.22959176260644276,0.29527591312146373,0.01123607930666469,-0.014571994504893887,0.049433455933452254
3328,9.0,299.62302999999997,-3583.1544,0.03327998804388965,0.0,0.0,0.0,0.0,0.005078996721584683,0.5193591111617535,0.24587148984312676,0.3239588652297507,0.01158724544682209,-0.028372425403140368,0.031106234967946372
3329,9.0,300.71055,-3479.9486,0.033289997718587205,0.0,0.0,0.0,0.0,0.005080524339470427,0.5458372006549375,0.22187502209735976,0.2901052775961617,0.012206698935207387,-0.0063380596326927845,0.049502191780485955
3330,9.0,300.35299,-3575.9582,0.03329997435805465,0.0,0.0,0.0,0.0,0.005082046915712957,0.5316931310515265,0.23648679781442974,0.3188220621252877,-0.0017988779220104282,0.0025429765740972478,0.03464852995979367
3331,9.0,300.08834,-3672.63,0.033309984032752205,0.0,0.0,0.0,0.0,0.0050835745335987,0.5628940096583135,0.24424006598961778,0.3092537489134687,-0.004145958294649226,-0.01047690268248979,0.03244132673695967
3332,9.0,300.44673,-3605.4565,0.033319993707449536,0.0,0.0,0.0,0.0,0.005085102151484416,0.5450149684637895,0.23781645552315678,0.3131373237642477,-0.009821652689271652,0.0016084951183211083,0.038329444658071664
3333,9.0,299.71696000000003,-3580.3405,0.03332997034691676,0.0,0.0,0.0,0.0,0.005086624727726946,0.5471129331933425,0.25596367362164774,0.2852574838177217,0.014567645635464685,0.010372428491178991,0.06085847395976374
3334,9.0,299.31986,-3521.0103,0.03333998002161431,0.0,0.0,0.0,0.0,0.00508815234561269,0.5188143372454885,0.24127629931461675,0.3102085750127027,0.0031114398724002073,0.00928961360423848,0.053890867753114545
3335,9.0,299.85323,-3454.1059999999998,0.033349989696311866,0.0,0.0,0.0,0.0,0.005089679963498406,0.5395644428633645,0.22660189460886576,0.28379561723594676,0.0012056624436396187,-0.005074235113438016,0.046008762801211356
3336,9.0,299.71895,-3557.7434,0.03335999937100942,0.0,0.0,0.0,0.0,0.005091207581384122,0.5268442429629785,0.2464885186240228,0.3081323951602997,-0.017158448120906982,-0.005780024805744036,0.039814445766129865
3337,9.0,300.23995,-3585.3278,0.03336997601047664,0.0,0.0,0.0,0.0,0.0050927301576266515,0.5567964732065335,0.23160083490472277,0.3014528275860777,-0.004287383386631796,0.01867202288178518,0.045225945025703256
3338,9.0,300.1823,-3522.6406,0.033379985685174196,0.0,0.0,0.0,0.0,0.005094257775512395,0.5441135406448255,0.23410784869964577,0.2925733825872447,0.0015862902490046584,0.018227093617124084,0.04152235986968786
3339,9.0,299.99807000000004,-3599.4132,0.03338999535987153,0.0,0.0,0.0,0.0,0.005095785393398111,0.5438997448737255,0.25109333502848274,0.2991386555501867,-0.0029085440379259474,-0.0004277514431982805,0.05647065317021954
3340,9.0,300.30217999999996,-3740.4618,0.03339997199933897,0.0,0.0,0.0,0.0,0.005097307969640641,0.5388156003769595,0.26545604373847176,0.3327353437534217,0.0005041682224825295,-0.019588953427279183,0.05136823876090045
3341,9.0,300.55962,-3701.0559999999996,0.033409981674036526,0.0,0.0,0.0,0.0,0.005098835587526385,0.5656284474381814,0.2529028679845698,0.3064973033414287,0.019144412237406382,0.002322157966554148,0.05297791522751315
3342,9.0,300.01968999999997,-3477.3435,0.03341999134873408,0.0,0.0,0.0,0.0,0.005100363205412101,0.5171888003750604,0.24031826121256578,0.29951852301267673,0.015740444122710886,-0.0011661421433642688,0.050494210237890545
3343,9.0,300.34769,-3311.6618,0.03343000102343141,0.0,0.0,0.0,0.0,0.005101890823297817,0.5260001144371695,0.2127742934091878,0.26788808715849577,0.01397020196575159,-0.018390979728048384,0.027333335399090174
3344,9.0,299.71337,-3421.9523,0.03343997766289886,0.0,0.0,0.0,0.0,0.005103413399540346,0.5198701033196845,0.23270157915085776,0.28761635031552374,-0.004994058152900166,-0.01848292406862258,0.03843705384519186
3345,9.0,300.26347000000004,-3657.1845,0.03344998733759641,0.0,0.0,0.0,0.0,0.00510494101742609,0.5405005339682495,0.2504787583128288,0.3207134859544567,-0.001237026891210049,0.016576497045222884,0.045635796585152454
3346,9.0,300.25482999999997,-3696.6467,0.03345999701229396,0.0,0.0,0.0,0.0,0.005106468635311834,0.5411116757660644,0.26450082247169876,0.31807580342663766,0.000977383164152708,0.01009671594489328,0.06770012203323184
3347,9.0,300.14894,-3656.164,0.03346997365176119,0.0,0.0,0.0,0.0,0.005107991211554336,0.5684114401628415,0.23867009846740475,0.3043010229546727,-0.02752379196738677,0.003126010814138247,0.02907607794833547
3348,9.0,299.65679,-3615.2112,0.03347998332645874,0.0,0.0,0.0,0.0,0.0051095188294400795,0.5390599861685785,0.24476988433440677,0.3151040422083477,-0.009681360005600841,0.009567865152624772,0.05196636333468075
3349,9.0,300.49473,-3696.8466,0.03348999300115629,0.0,0.0,0.0,0.0,0.0051110464473257955,0.5812994444122884,0.24623493252149578,0.2962146893391137,-0.001965860119940288,0.023541212449336775,0.02603589296404258
3350,9.0,300.31207,-3701.8125,0.03349996964062374,0.0,0.0,0.0,0.0,0.005112569023568353,0.5549702722863015,0.24018124953404377,0.3301070439215287,0.012184913044807288,0.03072830585289767,0.04356280137781376
3351,9.0,299.70373,-3592.7154,0.03350997931532107,0.0,0.0,0.0,0.0,0.005114096641454041,0.5452955982114855,0.24611280548694278,0.3006873576655317,0.0024923832740790775,-0.0004390242355958186,0.04876434407091605
3352,9.0,299.60957,-3389.2626,0.03351998899001862,0.0,0.0,0.0,0.0,0.005115624259339785,0.5063797624157915,0.2341518541514888,0.2897195738130957,0.01025181322577519,-0.014574342205375585,0.06334435946360154
3353,9.0,299.1262,-3501.2102,0.033529998664716176,0.0,0.0,0.0,0.0,0.005117151877225529,0.5537033246262635,0.22757287191469378,0.2830042790403477,0.007731462830385972,-0.011827042228738188,0.06058888661165754
3354,9.0,299.19295,-3690.4809999999998,0.0335399753041834,0.0,0.0,0.0,0.0,0.005118674453468031,0.5245890724804105,0.2713280915129977,0.3258969188285217,0.014322971067567187,-0.019116991663200182,0.05394457203491475
3355,9.0,299.78098,-3606.1055,0.03354998497888095,0.0,0.0,0.0,0.0,0.005120202071353774,0.5676421198919155,0.22836799966566676,0.3001559079880817,-0.013237122611152287,-0.02035287814142268,0.03785019559927346
3356,9.0,300.17565,-3579.3098,0.033559994653578507,0.0,0.0,0.0,0.0,0.00512172968923949,0.5186541930671835,0.24541507133558177,0.32395153943152766,0.00015215312059634384,-0.004602425235549006,0.037590779255671065
3357,9.0,300.17794,-3659.6775,0.03356997129304595,0.0,0.0,0.0,0.0,0.005123252265482048,0.5433798057174115,0.2595878260493238,0.30948295621858973,0.00902471932662045,0.03064680710760437,0.05097689218802755
3358,9.0,300.27702999999997,-3722.5148,0.033579980967743284,0.0,0.0,0.0,0.0,0.005124779883367736,0.5468289191903124,0.2589603810573997,0.32576224775773066,-0.0046271636354154955,0.00980664453011546,0.05156992315355515
3359,9.0,300.44332,-3702.039,0.03358999064244084,0.0,0.0,0.0,0.0,0.00512630750125348,0.5704809629620875,0.25375370422604077,0.3010927488980407,-0.019087063294996483,-0.006356342818822194,0.04759860591036666
3360,9.0,299.81685,-3589.4499,0.03360000031713839,0.0,0.0,0.0,0.0,0.0051278351191392235,0.5532434610683785,0.22936451087401477,0.3084951589611017,-0.01319156486015609,-0.015547253805644484,0.045912724930233156
3361,9.0,299.81948,-3424.6236,0.033609976956605836,0.0,0.0,0.0,0.0,0.005129357695381753,0.5539542762785304,0.21253024199010181,0.2745155331475737,0.01407663375625559,0.02084250896074548,0.03601185695609357
3362,9.0,299.44487999999996,-3488.9038,0.03361998663130317,0.0,0.0,0.0,0.0,0.005130885313267469,0.5193564159164875,0.24215840445417375,0.2990248169014517,0.002235917717417898,0.004092633272361456,0.05328388332045985
3363,9.0,300.08536000000004,-3712.1773,0.03362999630600072,0.0,0.0,0.0,0.0,0.005132412931153185,0.5611712919707944,0.23803224739695378,0.3292056465000677,0.004101548353366307,-0.0023954112878336875,0.044036138122278454
3364,9.0,300.10577,-3814.0397,0.033639972945468166,0.0,0.0,0.0,0.0,0.005133935507395743,0.5570569291447385,0.26125578770143876,0.3410601153825127,0.003304047773309127,-0.0015138639424567386,0.05335669952564624
3365,9.0,300.24663,-3638.5546,0.0336499826201655,0.0,0.0,0.0,0.0,0.005135463125281431,0.5468811319679654,0.24494950317963377,0.3141990984115367,0.008422373451598542,0.007981686259806102,0.045499468850447956
3366,9.0,300.08928,-3540.0936,0.03365999229486305,0.0,0.0,0.0,0.0,0.005136990743167175,0.5333706375195836,0.23690800588099978,0.3058214148622237,-0.0018751270185356284,-0.024394409563540775,0.03579028550372617
3367,9.0,300.73384,-3597.5213,0.033669968934330274,0.0,0.0,0.0,0.0,0.005138513319409704,0.5621006348300135,0.23226030873230777,0.2991956913983157,-0.014060649735928086,-0.027569765150923974,0.028683838702124473
3368,9.0,300.27389,-3694.917,0.03367997860902783,0.0,0.0,0.0,0.0,0.005140040937295448,0.5531869926403055,0.2422273763884808,0.32774812676122167,-0.0017203303689583885,-0.01160113203944259,0.032166284050315075
3369,9.0,300.4298,-3627.9807,0.03368998828372538,0.0,0.0,0.0,0.0,0.005141568555181164,0.5688471073083384,0.24458249386091277,0.2893859308201677,0.011061595612944489,0.015017832654894685,0.051461583413112855
3370,9.0,299.73298,-3521.2857,0.03369999795842271,0.0,0.0,0.0,0.0,0.00514309617306688,0.5401075043869605,0.24190050190622078,0.2883749200028887,0.0026138238316893276,0.004276678196675277,0.06661208394335084
3371,9.0,299.28587000000005,-3544.7379,0.03370997459789016,0.0,0.0,0.0,0.0,0.0051446187493094375,0.5438612211049235,0.23974686921617377,0.2939037090410377,-0.02019680925501988,-0.01094463615390149,0.05657347981686774
3372,9.0,299.73503,-3678.9678,0.03371998427258771,0.0,0.0,0.0,0.0,0.0051461463671951535,0.5623088678580644,0.2519078057238648,0.3040976636596027,-0.00989259843477345,0.008448977548874161,0.06329342844732504
3373,9.0,299.8226,-3738.2084,0.03372999394728504,0.0,0.0,0.0,0.0,0.0051476739850808695,0.5603759818348035,0.2500553008310368,0.3258907177379097,0.0004377864999361636,0.03683815937289326,0.04073853289708016
3374,9.0,299.49088,-3495.3834,0.03373997058675271,0.0,0.0,0.0,0.0,0.005149196561323427,0.5051012029096075,0.24582521471105978,0.3115828562558337,0.004152542089823996,0.016322438768149285,0.05455417774557815
3375,9.0,300.13625,-3406.9393,0.03374998026145004,0.0,0.0,0.0,0.0,0.005150724179209143,0.5254735283601996,0.22227289501412678,0.28787807281635375,-0.004762560699903146,0.0021816361870357283,0.03293487680766927
3376,9.0,300.08508,-3606.4933,0.03375998993614737,0.0,0.0,0.0,0.0,0.005152251797094859,0.5444446201150005,0.24237691183823876,0.3094623872415597,0.0031354659574463974,-0.009066162775585602,0.055734061890773644
3377,9.0,299.87877000000003,-3770.0941,0.03376999961084515,0.0,0.0,0.0,0.0,0.005153779414980603,0.5674608190515225,0.26278142824450773,0.31577222998679266,0.02116332116765718,0.0008670404511777302,0.03248269773854267
3378,9.0,299.66066,-3566.8649,0.03377997625031237,0.0,0.0,0.0,0.0,0.005155301991223132,0.5518834869166594,0.23494694137245778,0.2974074265618277,0.005215500314554805,-0.012547812621122686,0.05151958995483765
3379,9.0,299.9512,-3539.5273,0.033789985925009924,0.0,0.0,0.0,0.0,0.005156829609108848,0.5470024382699376,0.23456590867235275,0.2943595803935287,-0.001075320281250849,-0.022870943455186376,0.02932035734869397
3380,9.0,299.86593999999997,-3680.0775,0.033799995599707255,0.0,0.0,0.0,0.0,0.005158357226994564,0.5417711394611484,0.26070573475215275,0.3161747841190217,0.010848174744381489,-0.003922458323366496,0.056844788676893854
3381,9.0,299.9058,-3796.3596,0.033809972239174924,0.0,0.0,0.0,0.0,0.005159879803237122,0.5903074303188074,0.24974478020539076,0.31394630264408774,0.004261034324406346,0.025800961809106675,0.04043677789804926
3382,9.0,300.32261,-3763.9501,0.033819981913872255,0.0,0.0,0.0,0.0,0.005161407421122838,0.5538461624928604,0.25830954012066676,0.3319911419524747,0.003187009078108307,0.00789681481022994,0.05807451966075885
3383,9.0,299.86522,-3545.8763,0.03382999158856981,0.0,0.0,0.0,0.0,0.0051629350390085815,0.5486916781741524,0.23488097879094777,0.2942852078361887,-0.027927151633445273,-0.0016386315067703384,0.037266223089639866
3384,9.0,299.89203,-3401.6221,0.033839968228037254,0.0,0.0,0.0,0.0,0.005164457615251111,0.5280258648320955,0.2208739006010568,0.2851084144630097,-0.008967565840154842,0.004881312497048035,0.03588616226793847
3385,9.0,300.13469,-3628.9304,0.03384997790273481,0.0,0.0,0.0,0.0,0.005165985233136855,0.5568677553510685,0.2308824608488248,0.31535401100801774,0.0017164587403262887,0.014020759092741187,0.02491145994381968
3386,9.0,299.80695,-3773.8208,0.03385998757743214,0.0,0.0,0.0,0.0,0.005167512851022543,0.5622700097167296,0.25854459387886475,0.3263326872990287,0.01960959130531598,0.004189096303081616,0.03603472094460007
3387,9.0,299.41953,-3696.7891,0.03386999725212947,0.0,0.0,0.0,0.0,0.005169040468908259,0.5671195766828444,0.24406229125957277,0.3125497096337547,-0.0004644298505206575,-0.02315053259502968,0.03271367316508817
3388,9.0,299.68338,-3660.237,0.03387997389159714,0.0,0.0,0.0,0.0,0.005170563045150817,0.5404443999127094,0.2696360955685107,0.3025401564008887,0.00928598758743062,-0.008788351079067723,0.06057050524159344
3389,9.0,300.03373,-3672.4978,0.03388998356629447,0.0,0.0,0.0,0.0,0.005172090663036533,0.5500431511575326,0.2567764217918598,0.3095280559805407,-0.0022619309885602078,0.017772831305791884,0.05318432237888395
3390,9.0,300.65993,-3678.8241,0.03389999324099202,0.0,0.0,0.0,0.0,0.005173618280922276,0.5527843270505655,0.25897358370620277,0.30651274527295275,-0.007773299116414893,0.018584553053652583,0.062011616408320036
3391,9.0,300.56208,-3709.6001,0.03390996988045947,0.0,0.0,0.0,0.0,0.005175140857164806,0.5373313511004755,0.25763272958387073,0.33266173113365666,-0.014578498557285786,-0.003054717422527137,0.05308287273912165
3392,9.0,300.05535,-3520.0164,0.03391997955515702,0.0,0.0,0.0,0.0,0.00517666847505055,0.5285930923705765,0.24862307181468676,0.2927809367377287,-0.008218996931276841,-0.005559790944833645,0.05885434429547154
3393,9.0,300.28542999999996,-3389.0016,0.03392998922985435,0.0,0.0,0.0,0.0,0.005178196092936238,0.5273192444773576,0.2227946174906168,0.28005800106207274,0.012898637295996388,0.002870747681370737,0.04571674108264105
3394,9.0,299.53146,-3564.3669,0.033939998904551905,0.0,0.0,0.0,0.0,0.005179723710821982,0.5381234796311525,0.24525563643234677,0.30009942942750767,-0.0026317658565100676,-0.01844080427521568,0.06166255782837065
3395,9.0,300.157,-3767.1569,0.03394997554401935,0.0,0.0,0.0,0.0,0.0051812462870645115,0.5624425966062625,0.25550581629896074,0.3271732187869827,0.006785243682801413,-0.027601363355292473,0.035745061112012866
3396,9.0,299.82149,-3798.0281,0.033959985218716904,0.0,0.0,0.0,0.0,0.005182773904950255,0.5492882899655335,0.25852589941451976,0.34669151625828865,-0.003280413106776567,0.004226423220865496,0.03164996827635867
3397,9.0,299.99073,-3695.5768,0.033969994893414235,0.0,0.0,0.0,0.0,0.005184301522835971,0.5444554618910705,0.2427229975423948,0.3361846092138377,0.008804177032379621,0.026371189581133773,0.018931557775649283
3398,9.0,300.03802,-3720.7498,0.03397997153288168,0.0,0.0,0.0,0.0,0.005185824099078529,0.5645072355400265,0.24678693091097378,0.3197208656264927,0.0026126125925197874,0.003757669203953077,0.03484270110295686
3399,9.0,300.27699,-3724.8371,0.03398998120757901,0.0,0.0,0.0,0.0,0.005187351716964245,0.5865063036286655,0.22866202457968476,0.3170891207442597,0.0002725312854767437,-0.013983279984792287,0.024492268244948677
3400,9.0,300.19127000000003,-3698.8242,0.033999990882276565,0.0,0.0,0.0,0.0,0.005188879334849933,0.5647104023175775,0.2582598908657668,0.3013799242413827,0.008907430257319923,-0.001132191070938559,0.06266770699382114
3401,9.0,300.38136000000003,-3585.0458,0.03401000055697412,0.0,0.0,0.0,0.0,0.005190406952735677,0.5601049070355504,0.22646120483248075,0.3031983028708427,0.006305214522751224,0.018578444168799682,0.043983693310352553
3402,9.0,300.28771,-3490.7706,0.03401997719644134,0.0,0.0,0.0,0.0,0.005191929528978206,0.5219336479433405,0.23451439503726879,0.3046590447450067,-0.0015809797039055484,0.0070392177587917035,0.06304288918784874
3403,9.0,300.35591,-3527.4534,0.034029986871138895,0.0,0.0,0.0,0.0,0.00519345714686395,0.5238951278844235,0.23175840542777376,0.31660421977640374,-0.018518212529855284,-0.005907663819516025,0.04073677186840636
3404,9.0,299.65205,-3715.2192,0.034039996545836226,0.0,0.0,0.0,0.0,0.005194984764749666,0.5662850436354825,0.2401252472010168,0.3229235668075747,-0.0014257516124357287,0.0012403208659601387,0.05261573911176915
3405,9.0,300.1928,-3708.5539,0.034049973185303894,0.0,0.0,0.0,0.0,0.0051965073409922236,0.5656445682472724,0.25142135448335573,0.3102418704109887,0.00036589347704837465,0.004495867092757536,0.044449518831825956
3406,9.0,300.30447999999996,-3548.9409,0.034059982860001226,0.0,0.0,0.0,0.0,0.005198034958877912,0.5533674322181135,0.2354396646310858,0.2899823399615287,-0.0013339772952283087,-0.008036994415189593,0.07073805658905263
3407,9.0,299.6494,-3642.6801,0.03406999253469878,0.0,0.0,0.0,0.0,0.0051995625767636555,0.5474085286450154,0.2510973272338768,0.3087779266665087,-0.0009497791004858991,-0.016620351522800985,0.04840533030873416
3408,9.0,299.65254,-3609.4881,0.034079969174166225,0.0,0.0,0.0,0.0,0.005201085153006185,0.5187701798061305,0.25848827743830677,0.3199358063702057,0.00988194725104726,0.015933584790522384,0.05798957282537525
3409,9.0,299.61081,-3610.7446,0.03408997884886378,0.0,0.0,0.0,0.0,0.005202612770891929,0.5232208606053785,0.2504725876197198,0.3238827498822387,0.019503838392378983,0.022813417194008978,0.04379921694414616
3410,9.0,299.54163,-3610.3951,0.03409998852356111,0.0,0.0,0.0,0.0,0.005204140388777645,0.5578769017881634,0.23590640815714978,0.3036866488890387,-0.0002838443343007547,0.009804084857712841,0.05267664962828055
3411,9.0,301.11877000000004,-3515.7146,0.03410999819825844,0.0,0.0,0.0,0.0,0.005205668006663361,0.5516306404867055,0.23620205427132776,0.2808567562484037,-0.009036870627119692,-0.017794704335700583,0.05496967209483424
3412,9.0,300.53471,-3526.4918,0.03411997483772611,0.0,0.0,0.0,0.0,0.005207190582905918,0.5567248060269605,0.2294901234889118,0.2857505211838807,0.00932049858186159,0.003708305381606247,0.052090639472695856
3413,9.0,300.30756,-3704.1749,0.03412998451242344,0.0,0.0,0.0,0.0,0.005208718200791607,0.5540594009764055,0.24975123460852777,0.3221660306353117,0.0005215001998155625,0.017995086701976783,0.06407711457816884
3414,9.0,300.2448,-3772.6688,0.03413999418712099,0.0,0.0,0.0,0.0,0.00521024581867735,0.5415945299687185,0.2570438792882558,0.34815870240308866,-0.007040008296519723,-0.002417032525092538,0.04187342367158516
3415,9.0,299.83173,-3649.2944,0.03414997082658844,0.0,0.0,0.0,0.0,0.00521176839491988,0.5418739235512925,0.23765870261508779,0.3297617485524507,-0.02463376355516318,-0.008322500327666833,0.030488552640735873
3416,9.0,300.31639,-3612.0095,0.03415998050128599,0.0,0.0,0.0,0.0,0.005213296012805624,0.5620612396661255,0.23371640992101378,0.30218303640314376,0.004234532666715836,0.013092890512417688,0.02279863995455058
3417,9.0,299.81681000000003,-3769.5753,0.03416999017598332,0.0,0.0,0.0,0.0,0.00521482363069134,0.5872078982629074,0.23315164458027576,0.32549722206157466,0.01875542552401638,0.0028942500174402373,0.018472306220824682
3418,9.0,299.04782,-3919.4712,0.034179999850680876,0.0,0.0,0.0,0.0,0.0052163512485770835,0.6127187594756334,0.25655452001995976,0.3221480961085417,0.01999968955406568,-0.014039005700541988,0.035873568582445566
3419,9.0,299.26625,-3790.7657,0.03418997649014832,0.0,0.0,0.0,0.0,0.005217873824819613,0.5752231659476065,0.25107674812434577,0.3259981931760167,0.0042040135737038365,-0.02731037211207387,0.04040419380133346
3420,9.0,300.13265,-3631.5761,0.034199986164845875,0.0,0.0,0.0,0.0,0.005219401442705329,0.5355078656905115,0.24231937949756077,0.32608120875670965,0.020048967959429082,-0.00043867418808377166,0.05154475199457095
3421,9.0,300.04783,-3477.0376,0.034209995839543206,0.0,0.0,0.0,0.0,0.005220929060591045,0.5244222611164475,0.23890653024573877,0.29360382754144176,0.008445313433862543,0.02133462528256358,0.058502257110973246
3422,9.0,299.774,-3519.4344,0.034219972479010874,0.0,0.0,0.0,0.0,0.005222451636833603,0.5474378014404044,0.2244369337827008,0.2979454522324267,-0.015681250051868885,0.012448814033352289,0.049602258333861754
3423,9.0,299.60212,-3676.137,0.034229982153708205,0.0,0.0,0.0,0.0,0.005223979254719319,0.5568830959575826,0.25563965650466974,0.30493109226435566,-0.020847333044471582,0.006658899400007204,0.06483372463984044
3424,9.0,300.60399,-3486.7394,0.034239991828405536,0.0,0.0,0.0,0.0,0.005225506872605035,0.5358607705678404,0.22979040015604676,0.2942305429932937,-0.015529093324102185,0.02218782746301808,0.04983421965275455
3425,9.0,300.32651,-3468.0728,0.034249968467873204,0.0,0.0,0.0,0.0,0.005227029448847592,0.5070165191761346,0.24691215849083276,0.3002788658877167,0.004861373153630175,0.005348324230413505,0.08336474769071002
3426,9.0,300.46215,-3751.5386,0.034259978142570535,0.0,0.0,0.0,0.0,0.005228557066733308,0.5385955528527425,0.2783975171956957,0.3233809985652197,0.0010944803340167991,-0.02278693691589558,0.044262872083905364
3427,9.0,300.27324,-3851.205,0.03426998781726809,0.0,0.0,0.0,0.0,0.005230084684619024,0.5732234155502465,0.2636064671384328,0.3338402727224697,0.008513520060369012,-0.028863873993142573,0.04911753772452355
3428,9.0,300.07041,-3716.592,0.03427999749196542,0.0,0.0,0.0,0.0,0.00523161230250474,0.5809884982216005,0.24478064505046876,0.30398202142568975,0.015781564851519183,-0.0025248042375287773,0.017167502523800584
3429,9.0,300.23302,-3518.7338,0.034289974131432865,0.0,0.0,0.0,0.0,0.0052331348787472975,0.5562079674159525,0.23743556467806576,0.27596369045549574,0.02608356232824718,0.008341369881629113,0.05652454794303854
3430,9.0,299.86289,-3602.8920000000003,0.03429998380613042,0.0,0.0,0.0,0.0,0.0052346624966330135,0.5698122482935905,0.23818807512983275,0.2871888702308347,0.009821266438333531,-0.01918026102594438,0.03466710182087657
3431,9.0,299.65397,-3708.3337,0.03430999348082775,0.0,0.0,0.0,0.0,0.005236190114518757,0.5464209340375474,0.25184748694541176,0.3289724368570517,-0.004974370196832115,-0.026862276440850274,0.06526947892484602
3432,9.0,300.46039,-3724.8138,0.034319970120295196,0.0,0.0,0.0,0.0,0.005237712690761287,0.5469099184033065,0.24041010220162978,0.3449303761269777,-0.01043923511002229,2.3360790096780478e-05,0.044880194707330366
3433,9.0,299.79797,-3656.1645,0.03432997979499275,0.0,0.0,0.0,0.0,0.005239240308647031,0.5526259155299315,0.23547443937451776,0.32328235866798466,-0.0021622932426267278,0.008406444754726503,0.042196371809707665
3434,9.0,299.51549,-3626.75,0.03433998946969008,0.0,0.0,0.0,0.0,0.005240767926532719,0.5565009486823674,0.23478769898674176,0.3111527822508887,-0.013910436421853186,-0.004248943210963046,0.025750078415584875
3435,9.0,299.88521000000003,-3665.9189,0.03434999914438763,0.0,0.0,0.0,0.0,0.005242295544418435,0.5588878822079395,0.24279982216497675,0.3126600930996487,-0.015053276143392686,-0.01104642016619679,0.030920308640846873
3436,9.0,300.4228,-3867.597,0.03435997578385508,0.0,0.0,0.0,0.0,0.005243818120660992,0.5913899360631424,0.24653651628125978,0.3377264516260057,0.0033509280183358463,0.011636093220892988,0.02259273132222898
3437,9.0,299.98421,-3918.3353,0.03436998545855241,0.0,0.0,0.0,0.0,0.005245345738546708,0.5671162937525205,0.27837523582599677,0.34558457092154166,0.0014323808012149787,0.01761520505398538,0.04717420205298126
3438,9.0,300.07927,-3661.0735,0.03437999513324996,0.0,0.0,0.0,0.0,0.005246873356432452,0.5407792385407555,0.26361085451136573,0.3084848440750837,-0.006889669339432424,-0.002767796303635227,0.05545889660086694
3439,9.0,299.92062999999996,-3566.8857,0.03438997177271741,0.0,0.0,0.0,0.0,0.005248395932674982,0.5402674560477465,0.25786404444919975,0.28611267703462273,-0.00990707129390181,-0.020591492460472084,0.055190434973621846
3440,9.0,301.11222999999995,-3593.5184,0.03439998144741496,0.0,0.0,0.0,0.0,0.005249923550560726,0.5670903342849585,0.2304222730509078,0.2948272561096847,0.007830985167133061,0.0015073027427591986,0.03146539869114307
3441,9.0,301.32805,-3707.0588,0.03440999112211229,0.0,0.0,0.0,0.0,0.005251451168446414,0.5533262436015485,0.25881452370550473,0.31471254263470966,0.013187387229993788,0.0019374207227585384,0.05686077776347184
3442,9.0,299.91713,-3664.3009,0.03441996776157974,0.0,0.0,0.0,0.0,0.005252973744688971,0.5404996929706665,0.2599416732492457,0.3134146300516157,-0.006899212331524243,-0.008062566618563373,0.05889182340342044
3443,9.0,300.31421,-3496.8108,0.03442997743627729,0.0,0.0,0.0,0.0,0.005254501362574687,0.4959868358750895,0.24440036215543776,0.3225559596712947,-0.008654772089234503,-0.02176410146994958,0.06956251624703584
3444,9.0,300.51805,-3557.7385,0.034439987110974846,0.0,0.0,0.0,0.0,0.005256028980460431,0.5405414996697925,0.23863075396602176,0.3022914136338397,0.0023369883003177875,0.003808183774438476,0.03932379865695676
3445,9.0,299.77095,-3785.8153,0.03444999678567218,0.0,0.0,0.0,0.0,0.005257556598346147,0.5652922409225005,0.2506613662458507,0.3348397324886087,0.005181764659100355,0.02034086707473728,0.04770680480904505
3446,9.0,299.90921000000003,-3822.3699,0.03445997342513962,0.0,0.0,0.0,0.0,0.005259079174588677,0.6005989203919984,0.23970428231447075,0.3216017921846257,-0.011552685512411289,-0.0005413789002149374,0.01699928071569838
3447,9.0,299.77627,-3616.0062,0.034469983099837176,0.0,0.0,0.0,0.0,0.00526060679247442,0.5492592198201645,0.24525738935501976,0.30465898395000074,-0.015175512608956485,-0.01000911003727225,0.03562841880025117
3448,9.0,299.27918999999997,-3587.8008,0.03447999277453451,0.0,0.0,0.0,0.0,0.005262134410360109,0.5549734234941125,0.23083296358143976,0.3047954687384707,-0.0021213546961864078,0.017004726934985885,0.029059203281170072
3449,9.0,300.26583999999997,-3805.3467,0.03448996941400195,0.0,0.0,0.0,0.0,0.005263656986602666,0.5496587038045905,0.2694086107885597,0.3376630525672487,0.004567786672930446,0.03401316135208767,0.05515243708162175
3450,9.0,300.32788,-3973.9407,0.034499979088699506,0.0,0.0,0.0,0.0,0.005265184604488382,0.5922108104991564,0.26590513644779373,0.3498627965537697,-0.008290838187217021,0.007088830536688103,0.043951924879967255
3451,9.0,300.10242999999997,-3642.8164,0.03450998876339706,0.0,0.0,0.0,0.0,0.005266712222374126,0.5476540898067506,0.25172532951335574,0.3079457950218837,-0.015135608793518288,-0.013318470382180687,0.05731566930311614
3452,9.0,300.9668,-3315.6727,0.03451999843809439,0.0,0.0,0.0,0.0,0.005268239840259842,0.5372787532877845,0.2068139104909438,0.26378905480645276,0.00014118598522397185,-0.004655549330341946,0.027122129495245773
3453,9.0,299.90752000000003,-3626.3139,0.034529975077561836,0.0,0.0,0.0,0.0,0.0052697624165023715,0.5492709431238215,0.24167326030629374,0.31136468324430167,0.014934754252695488,-0.003810605036877436,0.04594985345364746
3454,9.0,300.43477,-3851.5997,0.03453998475225939,0.0,0.0,0.0,0.0,0.005271290034388115,0.5610734221436354,0.26427453332686573,0.3454421890174897,0.002200486894546148,-0.017298495496728582,0.039638652953280465
3455,9.0,299.97418999999996,-3741.2307,0.03454999442695694,0.0,0.0,0.0,0.0,0.005272817652273831,0.5295139340614565,0.25817236632212875,0.3495544138858347,-0.007348149608280904,-0.02423337676489808,0.056103796852263646
3456,9.0,300.35688999999996,-3633.8803,0.03455997106642417,0.0,0.0,0.0,0.0,0.005274340228516361,0.5460110338420935,0.24069428845717677,0.31790356104213874,-0.0021995699032056476,0.011280682576066688,0.04399661326237766
3457,9.0,299.34578,-3588.6229,0.03456998074112172,0.0,0.0,0.0,0.0,0.005275867846402077,0.5548522590471545,0.25211712292952276,0.2838823717095087,-0.006136962317146025,0.03074713102650557,0.06716181163935474
3458,9.0,299.73776000000004,-3708.4906,0.03457999041581927,0.0,0.0,0.0,0.0,0.005277395464287821,0.5887753759026054,0.2482553025583908,0.29025785279621974,-0.00959072711463107,0.014283472552168988,0.052097738302896456
3459,9.0,299.91316,-3793.2558,0.034590000090516604,0.0,0.0,0.0,0.0,0.005278923082173537,0.5645810812073144,0.26110382045144076,0.32737012367891566,-0.007230381474333094,-0.004947536395758826,0.057877293568544146
3460,9.0,300.52427,-3578.6817,0.03459997672998405,0.0,0.0,0.0,0.0,0.005280445658416066,0.5228248723337975,0.24635789042113077,0.3186471042305207,-0.0026695337407374674,0.007055389027737682,0.044694103220464555
3461,9.0,299.82484,-3428.2114,0.0346099864046816,0.0,0.0,0.0,0.0,0.00528197327630181,0.5049262855448444,0.23687172139491877,0.3002926562215777,0.013012471891730989,0.018882402986798084,0.06523593730678574
3462,9.0,299.98951,-3631.2563,0.034619996079379156,0.0,0.0,0.0,0.0,0.005283500894187526,0.5606185336437415,0.23942486846689476,0.30376783048705075,-0.002746845027342497,-0.003125456465008537,0.04723685535966466
3463,9.0,300.3873,-3780.8925,0.03462997271884638,0.0,0.0,0.0,0.0,0.005285023470430056,0.5859078679871045,0.24402855003124277,0.3193604829634257,0.0017252724963211384,-0.02215222388100428,0.04619948180128386
3464,9.0,300.32509,-3788.7628,0.03463998239354371,0.0,0.0,0.0,0.0,0.005286551088315772,0.5948118944333635,0.24878355036552474,0.30809383086149367,-0.0030029804671210967,-0.015187455787885185,0.01971426206714618
3465,9.0,299.08991000000003,-3770.6971,0.034649992068241264,0.0,0.0,0.0,0.0,0.0052880787062015155,0.5694960838648875,0.2546284126398678,0.3220732777211577,0.01794198429073598,-0.012934208454006987,0.04069729463126026
3466,9.0,299.16201,-3821.755,0.03465996870770871,0.0,0.0,0.0,0.0,0.005289601282444045,0.5691690472626114,0.25259251961144075,0.33995652390359665,0.004285791570724696,-0.03203655257376157,0.03892131545223476
3467,9.0,300.03535,-3782.5633,0.03466997838240604,0.0,0.0,0.0,0.0,0.005291128900329761,0.5427068556634964,0.26624684491151773,0.3408510818868827,0.0019907155501933276,-0.015332272531927484,0.05392346806183195
3468,9.0,299.51652,-3772.6301,0.034679988057103595,0.0,0.0,0.0,0.0,0.005292656518215505,0.5760486912015795,0.25715430328415373,0.3135823533406687,-0.004962906285200715,0.015767081454589785,0.04536735218315906
3469,9.0,299.94831,-3747.9449,0.03468999773180115,0.0,0.0,0.0,0.0,0.005294184136101221,0.5703188530785884,0.25714114116535475,0.3118216793044037,-0.0019270253846825982,0.029093421750297173,0.057356784965673945
3470,9.0,300.36891,-3495.3026,0.034699974371268594,0.0,0.0,0.0,0.0,0.005295706712343778,0.5704039458219865,0.2260601807079028,0.2660205861641877,-0.011560336563916387,0.0018084605321811583,0.06312442238364543
3471,9.0,300.18685,-3475.2253,0.034709984045965925,0.0,0.0,0.0,0.0,0.005297234330229467,0.5132867843724614,0.23715490453286678,0.3059400259189297,-0.008224529580797871,-0.016641527436640883,0.051296226063043356
3472,9.0,300.62599,-3689.0247,0.03471999372066348,0.0,0.0,0.0,0.0,0.00529876194811521,0.5379301109820686,0.2591119126098547,0.3243293702613167,0.007227429167516723,0.0019106870307951285,0.04952727985296195
3473,9.0,300.07591,-3782.2637,0.034729970360130924,0.0,0.0,0.0,0.0,0.00530028452435774,0.5278337627456364,0.26811600763598975,0.3537639411612826,0.009121917368963152,0.003452693589479327,0.04195210558160046
3474,9.0,299.39737,-3669.0659,0.034739980034828255,0.0,0.0,0.0,0.0,0.005301812142243456,0.5652055472439445,0.24630537366844776,0.3037934961120837,-0.0008330142259921033,-0.005977421427950564,0.06446018593747503
3475,9.0,299.93059,-3711.7887,0.03474998970952603,0.0,0.0,0.0,0.0,0.005303339760129228,0.5575669789800765,0.24787333766819375,0.3228507749203907,-0.025677118328884273,-0.01020434347184029,0.031794220640095266
3476,9.0,300.4632,-3817.9893,0.03475999938422336,0.0,0.0,0.0,0.0,0.005304867378014916,0.5978151170672584,0.24906047161785475,0.3136978334545657,0.003435735937130737,0.005777925452861844,0.04374375771317275
3477,9.0,300.82808,-3857.1725,0.03476997602369081,0.0,0.0,0.0,0.0,0.005306389954257473,0.5660544481777244,0.25773306160877274,0.3486966267486777,-0.008191041563667862,0.00975090716198961,0.03903587654829106
3478,9.0,300.62175,-3781.7644,0.03477998569838814,0.0,0.0,0.0,0.0,0.0053079175721431615,0.5694145982918454,0.25213649627143475,0.3280108625121517,0.0077171704311004225,-0.014420414316434087,0.06347014230451535
3479,9.0,300.26623,-3618.6662,0.034789995373085913,0.0,0.0,0.0,0.0,0.005309445190028933,0.5316890172561205,0.24942077322091374,0.3188743660954497,0.005254642064592795,-0.022282180299079978,0.03952826543438606
3480,9.0,300.46943999999996,-3464.3134,0.03479997201255314,0.0,0.0,0.0,0.0,0.005310967766271435,0.5452042233174674,0.23014686154122677,0.27771369496820775,0.015439999256059286,0.005715827305908234,0.046004729052563254
3481,9.0,299.71857,-3674.9566,0.03480998168725069,0.0,0.0,0.0,0.0,0.005312495384157179,0.5712256409905815,0.2425767044929568,0.30329269725015867,0.01115041509021029,0.012108418741757889,0.045515440711774255
3482,9.0,299.64862,-3848.6857,0.034819991361948244,0.0,0.0,0.0,0.0,0.0053140230020429224,0.6036007852707594,0.2611667534151517,0.30513681243215873,-0.013267904135940187,-0.0018322676538807382,0.04322415596914206
3483,9.0,299.97046,-3620.6521,0.03482996800141569,0.0,0.0,0.0,0.0,0.005315545578285452,0.5317211271517895,0.23791311958269676,0.3309535738500747,-0.016970490227356985,0.002259944410414148,0.042080459038017964
3484,9.0,299.62932,-3618.3868,0.03483997767611302,0.0,0.0,0.0,0.0,0.00531707319617114,0.5313383415290115,0.24868155661045876,0.3198793278096317,-0.0008285098632025572,0.010816671785522388,0.04169685977540966
3485,9.0,300.26964,-3860.0238,0.03484998735081035,0.0,0.0,0.0,0.0,0.005318600814056856,0.5425959149100474,0.2647567998444617,0.36599814578370465,0.004565695324724046,0.017645471847722485,0.04547509917229286
3486,9.0,300.43896,-3907.4332,0.03485999702550813,0.0,0.0,0.0,0.0,0.005320128431942628,0.5921953077726264,0.2773248602423327,0.3182419561780357,-0.008773212311973642,-0.005624246620794925,0.05264590762024655
3487,9.0,300.41688,-3748.6936,0.03486997366497535,0.0,0.0,0.0,0.0,0.00532165100818513,0.5629552302293555,0.25557672354095873,0.32097731601549473,-0.015326428105350684,-0.00984556751945686,0.044890369764834556
3488,9.0,300.70908,-3507.9164,0.034879983339672904,0.0,0.0,0.0,0.0,0.0053231786260708736,0.5639040072254924,0.2301540252194338,0.27226095035006376,-0.0015023453153199388,0.01105951135748879,0.044572780706490955
3489,9.0,300.42206,-3494.9190000000003,0.03488999301437046,0.0,0.0,0.0,0.0,0.005324706243956617,0.5209143791377465,0.24529038077827578,0.2961633479565467,0.014426616420296185,0.020688152467011677,0.05337290646099575
3490,9.0,300.18048999999996,-3700.0458,0.0348999696538379,0.0,0.0,0.0,0.0,0.005326228820199147,0.5545779722450844,0.26269632536860876,0.3074472253101787,0.01247671691460609,-0.004368926005654425,0.06639102722203424
3491,9.0,299.97805,-3854.3559999999998,0.034909979328535234,0.0,0.0,0.0,0.0,0.005327756438084835,0.5561947951646524,0.27412625259165474,0.34130693297437165,-0.0016856308086838085,-0.016568581535441683,0.05815772573247065
3492,9.0,299.58081,-3735.3908,0.03491998900323279,0.0,0.0,0.0,0.0,0.005329284055970579,0.5680843630305614,0.2514592095070917,0.31592193768906773,0.00011934268407320589,-0.006148789174963244,0.04956429894536545
3493,9.0,300.35854,-3543.6296,0.03492999867793034,0.0,0.0,0.0,0.0,0.005330811673856323,0.5319408504359745,0.23988307029461578,0.3053509932382967,0.0009250690513572073,0.007654258340341482,0.04302267220000716
3494,9.0,299.75865,-3753.4906,0.034939975317397565,0.0,0.0,0.0,0.0,0.005332334250098852,0.5719232028894254,0.27054115082283275,0.2985030640274587,-0.015622324492303385,-0.014784720283888287,0.04803292543323066
3495,9.0,299.6761,-3934.5792,0.03494998499209512,0.0,0.0,0.0,0.0,0.005333861867984568,0.5707816854592664,0.2607897939804487,0.36444234078515864,-0.008022720254405842,-0.009970996533435741,0.02427468190522458
3496,9.0,300.36992999999995,-3702.1017,0.03495999466679245,0.0,0.0,0.0,0.0,0.005335389485870312,0.5759571136575414,0.24526071281534775,0.30412864884766067,-0.008689434868530452,0.012226552557666788,0.039778258552058465
3497,9.0,300.32731,-3632.0865,0.034969971306259895,0.0,0.0,0.0,0.0,0.005336912062112842,0.5396042027972885,0.24465156712022973,0.3198078430150767,0.012945367377358288,0.02112770137364178,0.044249246909810656
3498,9.0,300.00462999999996,-3743.2388,0.034979980980957226,0.0,0.0,0.0,0.0,0.00533843967999853,0.5941857160040644,0.24070061113780075,0.30296478925279674,-0.0016918456794971686,-0.004110946045393786,0.055558404853437646
3499,9.0,300.85781000000003,-3743.4346,0.03498999065565478,0.0,0.0,0.0,0.0,0.005339967297884274,0.5667603288598895,0.2557698996725237,0.3153804061731227,-0.004609219280119526,-0.004196867627373586,0.048828710783518546
3500,9.0,300.5728,-3753.5654,0.034999967295122225,0.0,0.0,0.0,0.0,0.0053414898741268035,0.5830939407368915,0.24681868616910776,0.3110775281659617,-0.014817165565340386,0.001145872176438779,0.045067577074823555
3501,9.0,300.43064,-3776.4775,0.03500997696981978,0.0,0.0,0.0,0.0,0.005343017492012547,0.5400112152299574,0.2589967770009918,0.34894687925837564,-0.0029128506548259767,0.006414013873438884,0.04728510734267675
3502,9.0,299.94153,-3651.3452,0.03501998664451711,0.0,0.0,0.0,0.0,0.005344545109898263,0.5504378829989895,0.2626489559264337,0.2968309277849317,-0.008018685087207602,-0.01118918913178699,0.05792074274608225
3503,9.0,299.46275,-3671.4087,0.03502999631921466,0.0,0.0,0.0,0.0,0.005346072727784007,0.5309088754741265,0.2500741371503958,0.3350335469677367,0.006674440022090944,-0.015208033884166085,0.058426623057258736
3504,9.0,299.29312999999996,-3917.8801,0.03503997295868211,0.0,0.0,0.0,0.0,0.005347595304026537,0.5965348350359044,0.2707962568005097,0.32360662909748766,0.008813233360448413,-9.2736470118127e-05,0.04019825679800906
3505,9.0,299.75937000000005,-3815.745,0.03504998263337966,0.0,0.0,0.0,0.0,0.005349122921912253,0.5657415261493415,0.25487617255431977,0.3392735122761887,-0.007962226588985582,-0.005344015688338285,0.03406003024871326
3506,9.0,299.82298,-3610.0648,0.03505999230807699,0.0,0.0,0.0,0.0,0.005350650539797969,0.5550546962846334,0.25014349411974074,0.2921713553450677,-0.0025993658673374373,-0.016221501832937586,0.050343069799974154
3507,9.0,300.37926,-3701.2776,0.03506996894754466,0.0,0.0,0.0,0.0,0.005352173116040526,0.5379857890750636,0.26310473608641577,0.3240054544693487,-0.009478139120494502,-0.00822341946398831,0.047950072985803754
3508,9.0,300.40623,-3822.1034,0.03507997862224199,0.0,0.0,0.0,0.0,0.005353700733926242,0.5944881306289104,0.24411518291479276,0.3232206720018967,0.016963971989463682,0.026741377465418475,0.04340736779922366
3509,9.0,300.12479,-3814.7791,0.03508998829693932,0.0,0.0,0.0,0.0,0.005355228351811958,0.5566733531868825,0.26621733906860573,0.3367069092428847,-0.0015213102161166286,0.02136251701806628,0.057548050107550354
3510,9.0,300.69781,-3699.4879,0.035099997971636876,0.0,0.0,0.0,0.0,0.005356755969697702,0.5731889650468465,0.2572655176151297,0.29409744246015773,-0.00984644529801849,0.0016275792786545685,0.07333732984533092
3511,9.0,300.35756000000003,-3638.2093,0.03510997461110432,0.0,0.0,0.0,0.0,0.0053582785459402316,0.5553185668756755,0.2274351104310978,0.3231711038070047,-0.013341907870243789,-0.016298198786006985,0.039366956018466064
3512,9.0,299.84612999999996,-3662.2345,0.035119984285801875,0.0,0.0,0.0,0.0,0.0053598061638259475,0.5561496954027014,0.25066983701668677,0.3064083095851457,0.006573445432948554,0.007008239055534344,0.04887047897914075
3513,9.0,299.53071,-3774.8362,0.035129993960499206,0.0,0.0,0.0,0.0,0.0053613337817116635,0.5441564011240555,0.2537366309618557,0.34956291505417364,0.007354357082368534,-0.0032258434080659573,0.035214084622359566
3514,9.0,299.26331,-3865.9240000000004,0.035139970599966874,0.0,0.0,0.0,0.0,0.005362856357954221,0.5867322685334665,0.25498692079024976,0.33342517455400267,0.004101200301956956,-0.02279414619035708,0.040683421210891066
3515,9.0,299.9464,-3722.1956,0.035149980274664205,0.0,0.0,0.0,0.0,0.005364383975839937,0.5485854591661694,0.2568303773596847,0.3260386826500127,-0.002153275215411718,-0.018026449832322086,0.04941989155436355
3516,9.0,300.19018,-3590.2546,0.03515998994936176,0.0,0.0,0.0,0.0,0.005365911593725681,0.5729065823764774,0.23142913967527776,0.28701202769088174,0.014610846566728288,0.006325761512254054,0.04763185773889836
3517,9.0,299.81789,-3847.0465,0.03516999962405909,0.0,0.0,0.0,0.0,0.005367439211611397,0.5749441168700664,0.26525987851911176,0.3292020697272147,-0.017629875902183286,0.0026454397679345773,0.055451635650650345
3518,9.0,300.15783999999996,-3869.4189,0.03517997626352676,0.0,0.0,0.0,0.0,0.005368961787853954,0.5901295643962534,0.26012400760474075,0.3259531339440697,-0.017074818510653383,-0.01098716732684899,0.054738137354233544
3519,9.0,299.88861,-3605.9638,0.03518998593822409,0.0,0.0,0.0,0.0,0.005370489405739642,0.5179853466761735,0.25315213764167077,0.3249854800985697,-0.01082364193296029,-0.0007056462363568615,0.07113497705072563
3520,9.0,300.14341,-3579.5602,0.03519999561292142,0.0,0.0,0.0,0.0,0.005372017023625358,0.5615552934936925,0.2339878190927998,0.29255378633031076,0.02121349528610898,0.02849447036443527,0.043633092563750954
3521,9.0,299.77189,-3776.2842,0.03520997225238909,0.0,0.0,0.0,0.0,0.005373539599867916,0.5504049219732364,0.25395801597620477,0.34353317516658466,0.015181478625545286,0.02030446099864428,0.062023497778992645
3522,9.0,299.51453,-3810.2769,0.03521998192708642,0.0,0.0,0.0,0.0,0.005375067217753632,0.5936893754425795,0.26289668544338274,0.3016429740998437,0.0024081851291943676,-0.004297558444135996,0.05536709715505705
3523,9.0,299.84211,-3774.1377,0.03522999160178397,0.0,0.0,0.0,0.0,0.005376594835639376,0.5484261053229424,0.26827299047398273,0.3305445247847047,-0.01966567064535058,-0.005129830221249826,0.05951587400750944
3524,9.0,299.52543,-3752.5606,0.03523996824125142,0.0,0.0,0.0,0.0,0.005378117411881905,0.5665828175748705,0.24315860389288577,0.3309432994940607,-0.011909279633354388,0.0033353380509722366,0.029576280005951576
3525,9.0,299.21391,-3707.1682,0.03524997791594875,0.0,0.0,0.0,0.0,0.005379645029767649,0.5274981033850095,0.26885390702131473,0.33053457466872266,0.01035459528941899,0.0018592041985141681,0.044751811866659955
3526,9.0,299.98262,-3776.2744,0.0352599875906463,0.0,0.0,0.0,0.0,0.005381172647653337,0.5774197300443904,0.24186669988288478,0.32860668396845466,0.00039433649153298165,-0.024961051443463975,0.03578595284629857
3527,9.0,299.94457,-3927.9217,0.035269997265343855,0.0,0.0,0.0,0.0,0.005382700265539081,0.5830733616273605,0.2658991380072018,0.3450175966955857,0.03322526820682867,-0.008371524103280101,0.057298230255645045
3528,9.0,300.33804,-3809.5917,0.03527997390481108,0.0,0.0,0.0,0.0,0.005384222841781611,0.5962612372439025,0.2571893009426078,0.3045702131087397,0.011951398413511187,0.012007265984274889,0.05577039399960935
3529,9.0,300.39349,-3614.7363,0.03528998357950863,0.0,0.0,0.0,0.0,0.0053857504596673544,0.5508987699394755,0.24015531033148377,0.30773549496362873,0.01737419845144988,0.0022031763642865777,0.07482310507646553
3530,9.0,299.89077000000003,-3801.7401,0.035299993254205964,0.0,0.0,0.0,0.0,0.00538727807755307,0.5905616750338994,0.24980663912399578,0.3152657265268047,-0.012152759579383988,-0.02058679705950868,0.04727613399979116
3531,9.0,299.91774,-3817.382,0.03530996989367363,0.0,0.0,0.0,0.0,0.005388800653795628,0.5596214144853335,0.2511050481996388,0.3496623452864867,-0.001014107005609569,-0.0013219835551196186,0.04494546219927176
3532,9.0,300.07296,-3634.4562,0.03531997956837096,0.0,0.0,0.0,0.0,0.005390328271681344,0.5506168330991504,0.23915346942760976,0.31501364003442567,0.0018471519938747082,0.014226569439803088,0.027924147346898773
3533,9.0,300.44735,-3713.2191,0.035329989243068294,0.0,0.0,0.0,0.0,0.005391855889567032,0.5362715522908815,0.26074807847383175,0.3317062565543587,-0.012347261042079788,0.005144863914308535,0.05455097182226175
3534,9.0,299.97986000000003,-3847.2174,0.03533999891776585,0.0,0.0,0.0,0.0,0.005393383507452776,0.5933621767202875,0.2602495594246318,0.3158462783041007,-0.02106858430980738,0.002143422472764328,0.04310288209117325
3535,9.0,300.23373,-3731.9847,0.03534997555723329,0.0,0.0,0.0,0.0,0.0053949060836953056,0.5384652894198865,0.28120596276286774,0.3147588886942837,-0.01241274030329209,0.005851917838764324,0.06497963772049094
3536,9.0,300.1687,-3727.2134,0.035359985231930846,0.0,0.0,0.0,0.0,0.005396433701581049,0.5718064663454044,0.24048684576420376,0.3206865031042937,0.006621979606113504,0.03197720043590397,0.04150210398693876
3537,9.0,300.1144,-3773.5799,0.03536999490662818,0.0,0.0,0.0,0.0,0.005397961319466765,0.5487026314077335,0.2568446135235897,0.3415268183785727,0.0051274623570911355,0.0017404206866411481,0.054731251306553944
3538,9.0,300.29254,-3652.0035,0.035379971546095845,0.0,0.0,0.0,0.0,0.005399483895709323,0.5546002637472844,0.24747651853153077,0.3080410911937887,0.01064697367202449,-0.022863339013185876,0.054941129852767355
3539,9.0,300.01243999999997,-3722.8408,0.035389981220793176,0.0,0.0,0.0,0.0,0.005401011513595039,0.5470380236134496,0.25265855312045776,0.3319540468663137,0.00932013097472531,-0.006357866037697524,0.05819851816824654
3540,9.0,299.21226,-3865.0727,0.03539999089549073,0.0,0.0,0.0,0.0,0.005402539131480755,0.5980556119784934,0.2659410358988367,0.31088894205734974,0.001207304618076689,-0.003668371168665047,0.048995314431211044
3541,9.0,300.01295,-3695.8565,0.035409967534958176,0.0,0.0,0.0,0.0,0.005404061707723312,0.5519954814502125,0.2516988836857458,0.3197537151947347,-0.014199851047916186,-0.007100149046930154,0.05821990686460744
3542,9.0,299.80497,-3635.349,0.03541997720965573,0.0,0.0,0.0,0.0,0.005405589325609028,0.5628828233772094,0.23176280293320778,0.3104096950250517,-0.02965811515027807,-0.025171698033253177,0.041119826002460856
3543,9.0,300.18401,-3780.9912,0.03542998688435306,0.0,0.0,0.0,0.0,0.005407116943494744,0.5551857297875654,0.25742373661824475,0.33671744704392464,0.011950969808718888,-0.0030532554039578467,0.03458882723740147
3544,9.0,300.83203,-3827.5456,0.03543999655905039,0.0,0.0,0.0,0.0,0.00540864456138046,0.5660285799026715,0.25453446409059577,0.3429152547256007,0.024820453872838075,0.01128644594263549,0.03750213405742247
3545,9.0,300.09972,-3796.9746,0.03544997319851806,0.0,0.0,0.0,0.0,0.005410167137623018,0.5621130572762394,0.26809939033434976,0.32397303046614867,0.01048182505147559,0.009440437097523601,0.050133340201525455
3546,9.0,300.41142,-3869.4013,0.03545998287321539,0.0,0.0,0.0,0.0,0.005411694755508734,0.5943424759270354,0.26769529606196873,0.3141636143930347,-0.007290429005734322,-0.0004221399020244646,0.05051338802253325
3547,9.0,300.36617,-3779.9369,0.03546999254791294,0.0,0.0,0.0,0.0,0.0054132223733944496,0.5750599516214985,0.24445043697537977,0.32949603384622667,-0.021992351253726082,0.01009138857984251,0.049394827799889955
3548,9.0,299.52283,-3648.1291,0.03547996918738039,0.0,0.0,0.0,0.0,0.005414744949637007,0.5635741436554375,0.24398549703449376,0.30138053219144273,-0.0007848050629292292,0.026140494824865978,0.053931530492877654
3549,9.0,300.253,-3761.7317,0.03548997886207794,0.0,0.0,0.0,0.0,0.005416272567522723,0.5561656642242775,0.25034752215987677,0.33695934024029767,-0.027153693249110874,-0.005065364108812516,0.051052347909724446
3550,9.0,299.8829,-3876.9190000000003,0.03549998853677527,0.0,0.0,0.0,0.0,0.005417800185408439,0.5794239083446874,0.25951879332001077,0.3395438676678707,-0.000955087071929755,-0.006888330532075294,0.04264108727859766
3551,9.0,299.6029,-3707.1054,0.035509998211472826,0.0,0.0,0.0,0.0,0.005419327803294183,0.5508116304308754,0.25979654543742275,0.31625927904486073,1.8356412700886882e-06,-0.012623040361547088,0.057548746210369046
3552,9.0,299.91965,-3757.7391,0.03551997485094027,0.0,0.0,0.0,0.0,0.0054208503795367124,0.5698762553024074,0.25641162135835677,0.3159709789939077,0.018937538990989582,-0.0025314032314550476,0.035676710300017164
3553,9.0,299.65566,-3903.4988,0.035529984525637825,0.0,0.0,0.0,0.0,0.005422377997422456,0.5628637033478224,0.2868756138299187,0.3368268679222237,0.0025737797824372877,-0.012656120950811887,0.06296017352918534
3554,9.0,300.5418,-3800.2509999999997,0.03553999420033516,0.0,0.0,0.0,0.0,0.005423905615308144,0.5784424236353224,0.26004799358223873,0.31669098438246673,-0.014921190886856884,-0.02234657740918548,0.04229118567456506
3555,9.0,300.95269,-3727.1096,0.0355499708398026,0.0,0.0,0.0,0.0,0.005425428191550702,0.5566743056419764,0.24868084733538875,0.32759310962842264,0.0029973693920423276,0.007674066771846423,0.05186779841795315
3556,9.0,300.09223,-3684.9779,0.035559980514500156,0.0,0.0,0.0,0.0,0.005426955809436418,0.5560121872316305,0.25498078049464373,0.3091482898430607,-0.003156871980384007,0.015525909692287987,0.043025589347045055
3557,9.0,299.94062,-3542.2448,0.03556999018919749,0.0,0.0,0.0,0.0,0.005428483427322134,0.5385289924536735,0.23105570635092276,0.3071692705427467,0.006737520109716464,0.012615873643589789,0.059637718345284536
3558,9.0,300.23764,-3679.525,0.03557999986389504,0.0,0.0,0.0,0.0,0.005430011045207878,0.5696210682647225,0.2394956135888768,0.30936704040714974,-0.006941466279244384,0.0005005516694306036,0.055622029866966946
3559,9.0,300.37481,-3926.3971,0.035589976503362264,0.0,0.0,0.0,0.0,0.005431533621450407,0.5988567584350604,0.2567608380053218,0.3379090899565307,0.007553929456514793,0.007875935069394272,0.052157725748566745
3560,9.0,300.03084,-3823.3052,0.03559998617805982,0.0,0.0,0.0,0.0,0.005433061239336151,0.5844011448234024,0.23831120528198477,0.3394769728962687,0.007373344375992433,0.012043143143815688,0.037532920648460866
3561,9.0,299.57647000000003,-3625.0831,0.03560999585275737,0.0,0.0,0.0,0.0,0.005434588857221839,0.5276453590220426,0.2525947690266627,0.3216945957612847,0.003816006470510517,-0.008059721817582612,0.05642757281571785
3562,9.0,299.44588,-3900.165,0.035619972492224594,0.0,0.0,0.0,0.0,0.005436111433464397,0.5694230791951824,0.27116500890940276,0.3449646847753637,0.013291431803262187,-0.012785027641783988,0.05168721090563055
3563,9.0,298.99359,-4015.6445,0.03562998216692215,0.0,0.0,0.0,0.0,0.005437639051350113,0.6018675601797034,0.2677695064992927,0.35101858054533663,0.006701370487223773,-0.01046063697863449,0.025118953299297676
3564,9.0,300.13695,-3669.7467,0.0356399918416197,0.0,0.0,0.0,0.0,0.0054391666692358565,0.5640427920916895,0.26254016326319674,0.28892841800251473,0.006144636572078414,-0.002197487978225178,0.05842718743756444
3565,9.0,300.34297000000004,-3587.6591,0.035649968481086924,0.0,0.0,0.0,0.0,0.005440689245478358,0.5454867478428505,0.23548560539061977,0.3095864394513027,-0.016632618941761684,-0.028781514998514373,0.043234226661885956
3566,9.0,299.85491,-3732.8417,0.0356599781557847,0.0,0.0,0.0,0.0,0.00544221686336413,0.5762532562642685,0.2506877816759578,0.3077496095375217,-0.011850587121311889,-0.009014373131174362,0.05276869428061465
3567,9.0,299.49921,-3767.8365,0.03566998783048203,0.0,0.0,0.0,0.0,0.005443744481249846,0.5653965955502994,0.25983042852076677,0.3201011991840287,0.007430632320746313,0.011672313872217689,0.05684894604205415
3568,9.0,299.38932,-3845.6679,0.03567999750517936,0.0,0.0,0.0,0.0,0.005445272099135534,0.5757623163258164,0.2520572398486128,0.3411674692306077,0.01011617936473917,0.023440956418192275,0.06720624873574034
3569,9.0,299.48186,-3797.2616,0.03568997414464681,0.0,0.0,0.0,0.0,0.005446794675378064,0.5649744451611365,0.26739403654223676,0.3219042169419727,0.007596311783022603,0.013706161148692789,0.06454368078546534
3570,9.0,300.00606,-3626.2891,0.03569998381934436,0.0,0.0,0.0,0.0,0.005448322293263808,0.5501804668110845,0.24685725046791376,0.3052636206821737,-0.022423233832250877,-0.015795459550140483,0.05213799371611936
3571,9.0,299.72204,-3768.2938,0.035709993494041914,0.0,0.0,0.0,0.0,0.005449849911149551,0.5660291878527314,0.25117998817703474,0.32825805500654764,0.00029313986032065173,-0.004232975199987126,0.04679660528396536
3572,9.0,299.69153,-3944.4019,0.03571997013350914,0.0,0.0,0.0,0.0,0.005451372487392053,0.5920869001444274,0.26817298268911277,0.3387397827860137,-0.005628750922789464,-0.006726029245632404,0.031833916739262974
3573,9.0,300.08627,-3721.8648,0.03572997980820691,0.0,0.0,0.0,0.0,0.005452900105277825,0.5393184460040865,0.25378032230616776,0.3382551959256887,0.01231092386699359,-0.01988654599489928,0.05225636564580175
3574,9.0,300.14931,-3645.9862,0.035739989482904244,0.0,0.0,0.0,0.0,0.005454427723163541,0.5423528362110576,0.26364496050973174,0.3022909678037957,0.008611131711402532,-0.013688223582172488,0.05543339917535055
3575,9.0,300.63279,-3927.4995,0.0357499991576018,0.0,0.0,0.0,0.0,0.005455955341049257,0.5930505212545295,0.2800771210914597,0.3207341461239957,0.019661239702663282,-0.0027236586226541772,0.05161648807515075
3576,9.0,299.90451,-3987.5922,0.03575997579706902,0.0,0.0,0.0,0.0,0.005457477917291759,0.6159476734368025,0.2684474417436997,0.3277333535747637,0.025719622144079076,0.003265505563355307,0.051269434717149245
3577,9.0,299.85311,-3767.0273,0.035769985471766796,0.0,0.0,0.0,0.0,0.00545900553517753,0.5585737442794364,0.2774831400404537,0.30902534207592675,-0.014213520805015287,-0.009275131423209201,0.06149793305812345
3578,9.0,300.07412,-3700.0644,0.03577999514646413,0.0,0.0,0.0,0.0,0.005460533153063246,0.5515758135237945,0.2503581106234218,0.3227932831097167,-0.0008796591943456032,-0.001095428229485349,0.05545114726410215
3579,9.0,299.98267999999996,-3765.3035,0.035789971785931574,0.0,0.0,0.0,0.0,0.005462055729305776,0.5580111067639085,0.24815448417344074,0.3383926635667557,-0.018956778583888383,0.006811021981245534,0.037249740550263165
3580,9.0,299.6022,-3732.2624,0.03579998146062913,0.0,0.0,0.0,0.0,0.00546358334719152,0.5719848794230125,0.24317950724244877,0.3193501984749107,0.002130479925261998,0.01053077921680699,0.059510438933973044
3581,9.0,300.22101000000004,-3768.9329,0.03580999113532646,0.0,0.0,0.0,0.0,0.005465110965077236,0.5715608443886634,0.25144621964080976,0.3226544171835117,-0.01746288823270288,-0.018515631781850582,0.057478999139735545
3582,9.0,300.06074,-3803.4401,0.035819967774793904,0.0,0.0,0.0,0.0,0.005466633541319765,0.5713820969385224,0.2657653180664947,0.3190034034956847,-0.008070184334140182,-0.008673313451489391,0.04799979823446125
3583,9.0,299.92654,-3750.3857,0.035829977449491235,0.0,0.0,0.0,0.0,0.0054681611592054535,0.5673003506331854,0.25172478235830176,0.3209984524125807,0.004500272501542316,0.01214617345373399,0.03824058262430166
3584,9.0,300.00286,-3884.0878,0.03583998712418901,0.0,0.0,0.0,0.0,0.005469688777091225,0.5735563087381004,0.26665471860677176,0.34045468831526166,-0.0013158220825865287,0.005067207413394436,0.03699222303734817
3585,9.0,299.35866,-4034.9265,0.03584999679888634,0.0,0.0,0.0,0.0,0.005471216394976941,0.5906584302859484,0.28345042319187874,0.35240806053996765,0.005710058467788895,0.0038749033550981864,0.047139025049259556
3586,9.0,299.54855,-3768.1453,0.03585997343835379,0.0,0.0,0.0,0.0,0.005472738971219471,0.5646332534549635,0.26543580913397474,0.3153529977579177,0.0008125587937683091,-0.0038007700261067966,0.050535731200488355
3587,9.0,299.60557,-3610.9679,0.03586998311305134,0.0,0.0,0.0,0.0,0.0054742665891052145,0.5565677015989554,0.2519061034636968,0.28917027066888373,0.003005380552632967,0.014607660908413884,0.058090150056801446
3588,9.0,300.1645,-3833.0631,0.03587999278774889,0.0,0.0,0.0,0.0,0.005475794206990958,0.5977233774032044,0.25288122496243376,0.3145508785812547,-0.02126841344152898,0.007846040949043951,0.04061670679780686
3589,9.0,300.39534,-3783.6658,0.03588996942721612,0.0,0.0,0.0,0.0,0.00547731678323346,0.5779434891535814,0.2389566354631838,0.3332397903157067,-0.02197793169155298,-0.019787477492871984,0.05797108911705104
3590,9.0,300.48462,-3657.9257,0.03589997910191345,0.0,0.0,0.0,0.0,0.005478844401119176,0.5295763502676165,0.2547323721001278,0.3276093418950247,-0.00024256568033186876,-0.007971497118125512,0.05270681915000804
3591,9.0,300.64565,-3784.5358,0.035909988776611,0.0,0.0,0.0,0.0,0.00548037201900492,0.5462391265721045,0.24742392071883976,0.3567413360501287,0.018217489019426183,0.0008591295010219802,0.04812072659414596
3592,9.0,300.51837,-3897.4811,0.035919998451308555,0.0,0.0,0.0,0.0,0.005481899636890636,0.5910346703130804,0.25154951035600376,0.34215275362784764,0.026325222477097177,0.010648128777138489,0.042937247110576365
3593,9.0,300.05683,-3870.5532,0.03592997509077578,0.0,0.0,0.0,0.0,0.005483422213133166,0.5848817597433354,0.27524338109190677,0.3164263943838537,0.007484678979755303,-0.008809320999162292,0.06547291927992403
3594,9.0,300.24334,-3857.3795,0.03593998476547333,0.0,0.0,0.0,0.0,0.005484949831018909,0.5913164146358865,0.2594106694018397,0.3218199651961577,0.007390225730608493,0.005402413547251705,0.044102268903305056
3595,9.0,299.72429,-3939.2995,0.035949994440170885,0.0,0.0,0.0,0.0,0.005486477448904653,0.5877740517562825,0.2775967861716697,0.33207783563103066,-0.0023269461812267076,0.017099226692312286,0.036854074492213965
3596,9.0,299.43852000000004,-3812.3217,0.03595997107963811,0.0,0.0,0.0,0.0,0.005488000025147155,0.5554561763717565,0.26380445620797277,0.3395899705474207,-0.00864534754607937,0.007447702950481053,0.044931432738387164
3597,9.0,300.40184,-3728.9754,0.03596998075433566,0.0,0.0,0.0,0.0,0.005489527643032871,0.5434595079702774,0.2681470637515547,0.3219088474949297,-0.01081657755326309,-0.018663317036925982,0.05579883592991635
3598,9.0,299.69162,-3841.3234,0.035979990429033215,0.0,0.0,0.0,0.0,0.005491055260918615,0.5704433308533735,0.26028546900817573,0.3369376060256527,-0.01011352819585252,-0.016403694333418584,0.05194484190255674
3599,9.0,299.76977,-3774.5006,0.03598996706850066,0.0,0.0,0.0,0.0,0.0054925778371611444,0.5692292951135575,0.25103242856497177,0.3270922094414877,0.014606158258515588,0.006188882670820165,0.047551622516479757
3600,9.0,300.21567000000005,-3815.739,0.03599997674319799,0.0,0.0,0.0,0.0,0.00549410545504686,0.5863525530584914,0.26002721182268773,0.3135096222484907,0.0025830694620041076,0.008210469519760252,0.056299552718583244
3601,9.0,300.29821,-3994.7302,0.036009986417895545,0.0,0.0,0.0,0.0,0.005495633072932604,0.6068770281440994,0.2584133475934117,0.34900784651689265,-0.012297389885407886,0.006961279371699783,0.039619355605125965
3602,9.0,300.8145,-3750.6451,0.0360199960925931,0.0,0.0,0.0,0.0,0.005497160690818348,0.5556025606137035,0.2583977232768697,0.3261021729012787,-0.019451719846985283,0.005989373523480144,0.05354119717010475
3603,9.0,300.41377,-3608.8033,0.036029972732060545,0.0,0.0,0.0,0.0,0.005498683267060878,0.5447820425308015,0.24663606810358474,0.3055680010122137,-0.003151019245156387,-0.005318491715669265,0.04793202902802295
3604,9.0,299.74948,-3962.8286,0.036039982406757876,0.0,0.0,0.0,0.0,0.005500210884946566,0.5976801116239344,0.26838862257539475,0.33853220837052767,0.014047682161148288,-0.006696436871161863,0.051053363186324655
3605,9.0,300.33308,-3864.9774,0.03604999208145543,0.0,0.0,0.0,0.0,0.00550173850283231,0.5970603875977724,0.2704742864487337,0.3073219369353137,0.0025576618104465676,-0.024942518085884876,0.05619146325091565
3606,9.0,299.75028,-3524.6594,0.036059968720922875,0.0,0.0,0.0,0.0,0.005503261079074839,0.5518780862936264,0.24164720964622277,0.27788316104743277,0.005146146790260145,-0.014946023620307685,0.05966954655742574
3607,9.0,299.77076,-3700.3483,0.036069978395620206,0.0,0.0,0.0,0.0,0.005504788696960555,0.5514048579669224,0.24722860662956378,0.3261800107739607,0.002482085714637788,0.0025692757844177775,0.042497765078452855
3608,9.0,300.66067999999996,-3863.4392,0.03607998807031776,0.0,0.0,0.0,0.0,0.005506316314846299,0.5628047625895055,0.2753105291760337,0.33627375495763573,0.01110555546853299,0.011829102166191489,0.049906080363096655
3609,9.0,299.99617,-3766.0306,0.03608999774501531,0.0,0.0,0.0,0.0,0.005507843932732043,0.5542186838921255,0.26003065687302773,0.3305299339832647,0.00886661593534186,0.004669548292398536,0.06193410277567003
3610,9.0,299.9055,-3703.0313,0.03609997438448276,0.0,0.0,0.0,0.0,0.0055093665089745725,0.5604763543897094,0.24841199155385474,0.3167406944323727,-0.004595409086556566,-0.003134989831224407,0.05697263550826135
3611,9.0,299.43987000000004,-3832.4571,0.03610998405918009,0.0,0.0,0.0,0.0,0.005510894126860261,0.5897172121355575,0.2551165458755427,0.3201374836701097,0.005826421629148045,0.01167147591438499,0.046245671820342456
3612,9.0,299.16558,-3790.2393,0.03611999373387764,0.0,0.0,0.0,0.0,0.0055124217447460044,0.5830463585121954,0.24659709850473877,0.3224946377752427,-0.0007667884426361273,0.012888315317227688,0.05042292910660565
3613,9.0,299.80305,-3820.722,0.03612997037334509,0.0,0.0,0.0,0.0,0.005513944320988534,0.5719475512893284,0.27011516021579074,0.3193413629340387,0.003971166471573617,-0.003977738310397206,0.05279279342099305
3614,9.0,300.15246,-3895.4106,0.03613998004804264,0.0,0.0,0.0,0.0,0.005515471938874278,0.5756747512521744,0.25721312245245875,0.3512196701601827,-0.001032038391304259,-0.003564444335058267,0.043336668273496165
3615,9.0,299.87561,-3778.9692,0.03614998972273997,0.0,0.0,0.0,0.0,0.005516999556759994,0.5655214482276215,0.2588602010200127,0.3243306266914407,-0.0009935042670862371,0.0014339339109682588,0.04203357899564125
3616,9.0,300.33083999999997,-3763.5195,0.036159999397437526,0.0,0.0,0.0,0.0,0.005518527174645738,0.5649549704942145,0.27622607156889073,0.3028349209874797,0.008852718399620282,-0.015278467938367384,0.062263723165701036
3617,9.0,300.0481,-4003.6504,0.03616997603690497,0.0,0.0,0.0,0.0,0.005520049750888267,0.6153473024875504,0.26740385493570573,0.3342585930262547,0.0037761705428290162,-0.027309325424720574,0.04953107650108666
3618,9.0,300.24741,-3887.5290000000005,0.0361799857116023,0.0,0.0,0.0,0.0,0.0055215773687739556,0.5857575624672704,0.27308339532373277,0.3228707967423667,0.01013358821735729,-0.007952671640542582,0.053839818186576356
3619,9.0,299.81447000000003,-3605.94,0.036189995386299856,0.0,0.0,0.0,0.0,0.005523104986659699,0.5396145683458115,0.23856896597492377,0.3179321853574637,-0.013615273627972886,-0.006457007189756994,0.03847660910259566
3620,9.0,299.89543,-3807.6627,0.0361999720257673,0.0,0.0,0.0,0.0,0.005524627562902229,0.5494430740508095,0.2553133899724698,0.35267792957160166,-0.004841247169543895,0.012102036279377988,0.04427275735188096
3621,9.0,300.20988,-3935.4053,0.036209981700464855,0.0,0.0,0.0,0.0,0.005526155180787973,0.5775700456967254,0.2743705877207687,0.34432431071216363,-0.008210205264134173,0.004163119407617896,0.05315520157100995
3622,9.0,299.50055,-3783.4169,0.036219991375162186,0.0,0.0,0.0,0.0,0.005527682798673689,0.5655010008406035,0.25152415883850177,0.3330390958683997,0.0014438425850211687,0.012202363238029488,0.052136927777014154
3623,9.0,299.04013,-3846.7243,0.03622996801462963,0.0,0.0,0.0,0.0,0.005529205374916246,0.6044426745138474,0.25430773924821976,0.3105577207321607,0.004297229847128566,0.014648148355909685,0.054845658388595044
3624,9.0,299.26041000000004,-3996.8893,0.03623997768932696,0.0,0.0,0.0,0.0,0.005530732992801962,0.6015597347993233,0.28023168226171374,0.33316312781314067,0.0014127861654811389,0.0051833383378306645,0.05101774643205955
3625,9.0,299.5157,-3772.2785,0.036249987364024516,0.0,0.0,0.0,0.0,0.005532260610687678,0.5627867368702265,0.2667753460311767,0.3171163974369517,0.003026597807076947,-0.01015161089688599,0.06200374041529273
3626,9.0,300.36712,-3734.0142,0.03625999703872207,0.0,0.0,0.0,0.0,0.005533788228573394,0.5364510495460965,0.27436384960760374,0.3242321590467227,-0.003937330808334296,-0.017049482191902884,0.043631711503864655
3627,9.0,299.96802,-3928.4188,0.036269973678189515,0.0,0.0,0.0,0.0,0.005535310804815952,0.5889971662169944,0.26645367965443073,0.33869038684363867,0.016855520791510384,-0.007275862116996682,0.03985681177931106
3628,9.0,300.14513999999997,-3785.2018,0.036279983352886847,0.0,0.0,0.0,0.0,0.005536838422701668,0.5682718345640635,0.2602962195917367,0.3220387664227517,0.016847826170250983,-0.0023653092485628477,0.047693245496206856
3629,9.0,299.84367000000003,-3783.3390000000004,0.03628999302758418,0.0,0.0,0.0,0.0,0.005538366040587384,0.5867078796035594,0.26897029906030173,0.29436239722880675,0.009298464546512002,-0.008772972475674972,0.06460325786484514
3630,9.0,300.17825,-3957.6118,0.036299969667051846,0.0,0.0,0.0,0.0,0.005539888616829941,0.5878777883015205,0.25751124089688077,0.35762612630245066,0.011865862879819488,0.0014922676311503488,0.05198140300591504
3631,9.0,300.15396,-3862.9618,0.03630997934174918,0.0,0.0,0.0,0.0,0.005541416234715657,0.5753025236954384,0.25825421666520676,0.3406871988157087,0.0017092222094370983,0.013273715125263688,0.051424679831220746
3632,9.0,300.06707,-3787.3779999999997,0.03631998901644673,0.0,0.0,0.0,0.0,0.005542943852601373,0.5617358141315084,0.2525910909287998,0.33694142597852966,0.00013284006706529387,0.019903189641041878,0.06262439561829664
3633,9.0,299.70752999999996,-3941.2859,0.03632999869114406,0.0,0.0,0.0,0.0,0.005544471470487089,0.5932196529612214,0.26805628667509573,0.33677656005475864,-0.018947193237942382,-0.0014774818803911084,0.04282679069067516
3634,9.0,300.32439,-3789.5759,0.03633997533061173,0.0,0.0,0.0,0.0,0.0055459940467296465,0.5659560717255154,0.27825016023365273,0.30773021593060773,-0.024209673805308776,0.003886141109307267,0.05326110241846155
3635,9.0,300.27639,-3677.5612,0.03634998500530906,0.0,0.0,0.0,0.0,0.0055475216646153624,0.5801514928439945,0.24294009650882076,0.2947951867440197,-0.014834095961261286,-0.008008576701559982,0.03922080279754186
3636,9.0,300.50445,-3932.6997,0.03635999468000661,0.0,0.0,0.0,0.0,0.005549049282501106,0.5801516954940145,0.28112548030742474,0.3341653537520527,-0.004935983824743675,0.0036483254339866864,0.052415523931759446
3637,9.0,300.4938,-3867.8962,0.03636997131947406,0.0,0.0,0.0,0.0,0.005550571858743636,0.5774155047914734,0.26839848149886775,0.3299298872740447,0.0014070732587673188,-0.007728063781600513,0.05412674427039375
3638,9.0,299.79097,-3595.3084,0.03637998099417161,0.0,0.0,0.0,0.0,0.00555209947662938,0.5199091235810356,0.24807572424316776,0.3248991410575487,0.001055511241795849,-0.014459133642505385,0.055287723195223445
3639,9.0,299.92275,-3858.6479,0.03638999066886894,0.0,0.0,0.0,0.0,0.005553627094515068,0.5697364470536095,0.27437679894388173,0.32881937529694566,0.01785192358209768,0.006970698038004333,0.050395180239367045
3640,9.0,299.60997000000003,-4104.2635,0.03639996730833661,0.0,0.0,0.0,0.0,0.005555149670757653,0.6184209460033955,0.2684050676245177,0.3607675967799897,0.013422519008449488,0.0012861012280033087,0.04582502205457755
3641,9.0,299.6173,-3874.3094,0.03640997698303394,0.0,0.0,0.0,0.0,0.005556677288643341,0.6014031775263725,0.26485494324914777,0.3114351851862597,0.01843468019161128,-0.006725013259757134,0.046010485326381356
3642,9.0,300.09404,-3712.5654,0.036419986657731274,0.0,0.0,0.0,0.0,0.005558204906529057,0.5468619308785705,0.25887450811142476,0.32279074998446666,-0.007442569521499423,-0.010201339185293791,0.06044395131735354
3643,9.0,300.23708999999997,-3831.5599,0.03642999633242883,0.0,0.0,0.0,0.0,0.005559732524414801,0.5718969293143324,0.2518641751745588,0.34093742092790363,-0.005264842554674506,0.007033399271417463,0.03121067876175417
3644,9.0,300.20181,-3867.6681,0.03643997297189627,0.0,0.0,0.0,0.0,0.005561255100657331,0.5667548269118464,0.27761190386316176,0.3313077959525337,-0.01909055292834088,0.014537350470724788,0.058656198172166045
3645,9.0,300.7912,-3832.5448,0.036449982646593826,0.0,0.0,0.0,0.0,0.0055627827185430745,0.5730982791628965,0.26723546290158673,0.32466417849185963,-0.02131749021012248,0.0013078487162246186,0.04657557592040145
3646,9.0,300.86589,-3805.4404,0.03645999232129116,0.0,0.0,0.0,0.0,0.005564310336428763,0.5790543152382115,0.26145537770613675,0.31624915667636166,0.003355323902569687,-0.005237511045152095,0.03993955986197766
3647,9.0,300.62036,-3715.4103,0.036469968960758825,0.0,0.0,0.0,0.0,0.005565832912671348,0.5671666522824904,0.25436330588370376,0.30786198910611273,-0.0008581496375127752,0.01035928359763169,0.039491084221966566
3648,9.0,300.15918999999997,-3793.3947,0.036479978635456156,0.0,0.0,0.0,0.0,0.005567360530557036,0.5566194888115664,0.25451308451348575,0.34196468427678667,0.004627002933949636,0.01020683910683659,0.06694835632028834
3649,9.0,299.72735,-4084.0975,0.03648998831015371,0.0,0.0,0.0,0.0,0.00556888814844278,0.6017263637782684,0.28063665806168175,0.3591006483779747,-0.0006780260924109654,-0.007788191258434633,0.053844595660797856
3650,9.0,300.23353,-3975.3437,0.03649999798485104,0.0,0.0,0.0,0.0,0.005570415766328496,0.5731093945164935,0.27033329269731876,0.36496255351899964,0.009517600652264051,-0.010451143838447589,0.05042994586354815
3651,9.0,300.46091,-3710.9806,0.036509974624318486,0.0,0.0,0.0,0.0,0.005571938342571053,0.5664536991146275,0.24740169001164578,0.3141900399556427,0.008916011979041872,-0.003660982042310796,0.044870001411324356
3652,9.0,300.16209,-3878.992,0.03651998429901604,0.0,0.0,0.0,0.0,0.005573465960456769,0.5914822330147514,0.26721955487501675,0.3204149216799907,0.0049378059523985055,-0.001199509685057389,0.04325350577153866
3653,9.0,300.00242000000003,-4039.9839,0.03652999397371337,0.0,0.0,0.0,0.0,0.005574993578342458,0.6233174771116454,0.26574776857476273,0.3389889815156077,0.0018438450495233381,-0.001998694388105778,0.03947321352995286
3654,9.0,299.86893,-3859.8312,0.03653997061318082,0.0,0.0,0.0,0.0,0.005576516154585043,0.5564872495410155,0.28147963148237676,0.33532541365904167,-0.001911462775071688,-0.004199543519562676,0.05216118498440816
3655,9.0,299.80994,-3778.5408,0.03654998028787815,0.0,0.0,0.0,0.0,0.005578043772470731,0.5638315193133384,0.27269398304530074,0.3120565506775837,0.006442482148248484,0.01018960777563599,0.05548817648900665
3656,9.0,298.96467,-3914.2278,0.0365599899625757,0.0,0.0,0.0,0.0,0.005579571390356475,0.5797143868833555,0.26495707885922776,0.3451560370567487,-0.0035136845580486663,0.008507309039906033,0.05740730662891005
3657,9.0,299.37354,-3834.6737,0.03656996660204315,0.0,0.0,0.0,0.0,0.0055810939665990045,0.5881324687141555,0.2710316651962427,0.30648089882230967,-0.019011786918567284,-0.007181570481240823,0.060859846913649235
3658,9.0,299.74992000000003,-3818.2129999999997,0.0365799762767407,0.0,0.0,0.0,0.0,0.005582621584484748,0.5837157925882634,0.25418055609566775,0.3227450524049567,-0.0049524924046479455,-0.01247840397602259,0.04407446329406086
3659,9.0,299.67539,-3906.7292,0.03658998595143803,0.0,0.0,0.0,0.0,0.005584149202370464,0.5863887260870614,0.25819848790970673,0.3429609016426057,0.013256811073845388,-0.003573623063739137,0.033247923465814566
3660,9.0,299.98811,-3821.5689,0.036599995626135584,0.0,0.0,0.0,0.0,0.00558567682025618,0.5531579934224434,0.2703500619864737,0.3381534757481497,0.016105659988754885,0.019025253012396284,0.05377413627534404
3661,9.0,300.00032999999996,-3825.3908,0.03660997226560303,0.0,0.0,0.0,0.0,0.005587199396498738,0.5708084251294054,0.25769138663215974,0.33432346129765667,0.003926586810898946,0.007314698372129524,0.05238031855703495
3662,9.0,299.70194,-4032.272,0.03661998194030058,0.0,0.0,0.0,0.0,0.005588727014384454,0.5949042724449805,0.2734941162517678,0.35731162360391167,0.0066620174745399335,0.0017638151115749981,0.04627346425733536
3663,9.0,300.53167,-3950.2678,0.036629991614997914,0.0,0.0,0.0,0.0,0.00559025463227017,0.6188460956128544,0.26364578124231275,0.3182909062903667,0.01647746805994948,-0.0018512253606017182,0.05072708652162365
3664,9.0,300.33486,-3883.9899,0.03663996825446558,0.0,0.0,0.0,0.0,0.005591777208512727,0.5964652146215335,0.2689490714707068,0.3152216704124567,0.014458999893492187,-0.008611882124426592,0.05059171124201316
3665,9.0,299.92846000000003,-3935.3858,0.036649977929162914,0.0,0.0,0.0,0.0,0.005593304826398443,0.5952478250238865,0.28332696879969477,0.3176842329254927,0.0020862502411718676,-0.016181349771224884,0.05988629696581734
3666,9.0,300.46457999999996,-3827.6389,0.036659987603860245,0.0,0.0,0.0,0.0,0.005594832444284159,0.5659767521600564,0.24859091125651275,0.34893899617259766,-0.027236605478293676,-0.017107480627626882,0.04111517011825136
3667,9.0,300.33991000000003,-3764.1526,0.0366699972785578,0.0,0.0,0.0,0.0,0.005596360062169875,0.5453786441896815,0.2743351239672687,0.3244946414851277,-0.01229987437465309,0.005990832198324104,0.06125220369687184
3668,9.0,300.32674,-3859.0986,0.036679973918025244,0.0,0.0,0.0,0.0,0.005597882638412405,0.5671429827601545,0.26647774434430577,0.33944887547099567,-0.016531603986292286,0.014657247341807685,0.048487803800623654
3669,9.0,300.60985,-3936.4772,0.0366899835927228,0.0,0.0,0.0,0.0,0.0055994102562981485,0.6218245037518003,0.25531514289514273,0.3194511283173717,-0.0002862319061738897,0.0007789448600483721,0.049441685550764454
3670,9.0,300.22794,-3774.8862,0.03669999326742013,0.0,0.0,0.0,0.0,0.0056009378741838645,0.5804967780805714,0.24847253324732974,0.3185018142986817,-0.0006471880687974893,-0.010336740809406891,0.051967276273020856
3671,9.0,299.81635,-3822.9711,0.036709969906887796,0.0,0.0,0.0,0.0,0.005602460450426422,0.5655170507221874,0.25306418753299076,0.34350651655645364,0.035093308250189865,0.0017634650336654483,0.04439633130757675
3672,9.0,299.9446,-4065.2225,0.03671997958158513,0.0,0.0,0.0,0.0,0.005603988068312138,0.5868010580827554,0.2920470498227997,0.3568780336211197,0.030948350337364372,0.012930877900928287,0.050522874069969456
3673,9.0,300.01302000000004,-3952.0416,0.03672998925628268,0.0,0.0,0.0,0.0,0.005605515686197882,0.5869560650830534,0.2816300383272207,0.33273586051097265,0.007600872320397693,-0.0016677924393482984,0.059672785917995436
3674,9.0,299.79085,-3770.868,0.03673999893098001,0.0,0.0,0.0,0.0,0.00560704330408357,0.5762058057620855,0.25382347662792676,0.3162204310360267,-0.011687196489686488,-0.004304492823845366,0.05439343777621435
3675,9.0,300.0294,-3777.768,0.03674997557044768,0.0,0.0,0.0,0.0,0.005608565880326155,0.6001919687543354,0.2519333902888898,0.29622178208981376,-0.012152191146077887,-0.00025335772608696075,0.03352345859200777
3676,9.0,300.20713,-3795.8479,0.03675998524514501,0.0,0.0,0.0,0.0,0.005610093498211843,0.5730220422253725,0.25528282021695275,0.3255381168356107,-0.009197254135098311,0.005970243260267134,0.05959375646319584
3677,9.0,300.60461000000004,-3845.8066,0.03676999491984234,0.0,0.0,0.0,0.0,0.005611621116097559,0.5631876799347965,0.27140097459269075,0.33444052208170966,-0.004411384832544786,-0.014657979921629984,0.05339792664571504
3678,9.0,300.70627,-4001.6393,0.03677997155931001,0.0,0.0,0.0,0.0,0.005613143692340117,0.5782520947365385,0.27520785654340074,0.36293847498673865,-0.006268461205848954,-0.005220950282867675,0.05159061676034745
3679,9.0,299.93931000000003,-4016.4645,0.03678998123400734,0.0,0.0,0.0,0.0,0.005614671310225833,0.5865623464916965,0.2725334943619617,0.3618090861602767,0.0065803431330043035,0.025345525140908577,0.05146270406772345
3680,9.0,299.75635,-3897.5864,0.036799990908704894,0.0,0.0,0.0,0.0,0.0056161989281115765,0.5800928661932084,0.27023569644768675,0.3344403599616937,0.0017531945280018283,0.014151143102359086,0.04387209698408886
3681,9.0,299.67952,-3978.2075,0.03680996754817234,0.0,0.0,0.0,0.0,0.005617721504354106,0.6203572872094975,0.2643830828100788,0.3245353741391477,0.004036154407812426,0.0011791453845475888,0.03954488172277596
3682,9.0,300.16508,-4021.1293,0.03681997722286967,0.0,0.0,0.0,0.0,0.005619249122239822,0.6099356046309574,0.25095031477686774,0.36143699032605364,-0.01028495461004599,-0.004982125106472465,0.025238407380086876
3683,9.0,300.03645,-3761.3772,0.036829986897567224,0.0,0.0,0.0,0.0,0.005620776740125538,0.5560414194970155,0.26974855619710975,0.3175747613846887,0.02167859228076048,0.015146436384086885,0.05801623852825694
3684,9.0,300.56665,-3708.0948,0.03683999657226478,0.0,0.0,0.0,0.0,0.005622304358011282,0.5473835925600545,0.2538432654023797,0.3259413701104087,-0.00032121815543176366,0.014158508417335985,0.05269575749866635
3685,9.0,300.74376,-3974.868,0.036849973211732,0.0,0.0,0.0,0.0,0.005623826934253812,0.5868417502067714,0.2879591733543577,0.33345969598490965,-0.017234218963384985,0.0006066775901269164,0.06733631965107735
3686,9.0,300.86109,-3846.3664,0.036859982886429554,0.0,0.0,0.0,0.0,0.005625354552139555,0.5901404163048245,0.26599644041430476,0.3130625053768637,-0.02279455756989768,-0.0034736087940684967,0.05502386577643274
3687,9.0,299.76285,-3816.9831,0.036869992561126885,0.0,0.0,0.0,0.0,0.005626882170025271,0.5843200442853984,0.25690447633949776,0.3190430519720977,-0.015779722762837383,0.00033260718788077366,0.05471343634329574
3688,9.0,299.51502999999997,-3973.3796,0.03687996920059433,0.0,0.0,0.0,0.0,0.005628404746267801,0.5649388192876205,0.28725572447243275,0.35561364948383467,0.005922094324790204,0.007417979360122563,0.05297681281140436
3689,9.0,300.07261,-3933.7167,0.036889978875291884,0.0,0.0,0.0,0.0,0.005629932364153517,0.5638401826016934,0.2893500516341267,0.34256142779068066,-0.007704896527339083,-0.018374803190201884,0.057967259031673046
3690,9.0,299.35962,-3920.9434,0.036899988549989216,0.0,0.0,0.0,0.0,0.005631459982039233,0.5689643808749124,0.27424281688315877,0.34866170001773067,0.009793472886765521,-0.015875464764786386,0.05968230844243524
3691,9.0,299.3176,-4013.728,0.03690999822468677,0.0,0.0,0.0,0.0,0.005632987599924977,0.6185910200326804,0.26693213635165075,0.3345499429600087,0.006011146646928984,0.00024935972490238876,0.04843281877069705
3692,9.0,300.05024,-3885.1281,0.036919974864154215,0.0,0.0,0.0,0.0,0.0056345101761675065,0.5995104972670795,0.25699905310383175,0.3244723905129317,0.004024174346580087,0.005098272445560315,0.04121449091955356
3693,9.0,300.22288,-3784.8492,0.03692998453885177,0.0,0.0,0.0,0.0,0.00563603779405325,0.5919582173817275,0.25818443413081976,0.3003569976029277,-0.006849972733639674,0.004748894691829416,0.04715164507925505
3694,9.0,300.18293,-3957.2161,0.0369399942135491,0.0,0.0,0.0,0.0,0.005637565411938966,0.5792072450758045,0.26539235083718576,0.35829529693349266,-0.0027194494804137674,-0.005272078882913675,0.04097771970243606
3695,9.0,300.55933,-3967.2371,0.036949970853016545,0.0,0.0,0.0,0.0,0.005639087988181496,0.5958297345563164,0.2685678057230787,0.34154347621021663,0.015078646912646586,0.016718251747462984,0.049337387664971054
3696,9.0,300.06048,-3897.9946,0.0369599805277141,0.0,0.0,0.0,0.0,0.005640615606067212,0.5650314404792615,0.2880725053780427,0.3317890694850317,0.009227696423752731,0.0006532465849879184,0.07127387134793343
3697,9.0,300.0188,-3961.5799,0.03696999020241165,0.0,0.0,0.0,0.0,0.005642143223952956,0.6036677509698685,0.2703156520130777,0.3302379558344487,-0.013453655170772384,-0.017483217069459184,0.05544933962592375
3698,9.0,299.95932,-3998.9752,0.036979966841878875,0.0,0.0,0.0,0.0,0.005643665800195458,0.6190112452466534,0.2654535207457227,0.3311238403968787,-0.03039368203387287,-0.013553367086613186,0.036254306426771465
3699,9.0,299.47126000000003,-3811.3571,0.03698997651657643,0.0,0.0,0.0,0.0,0.005645193418081201,0.5691344245066945,0.2544070782880238,0.33501589615099464,-0.02055422208204378,0.01268108338027549,0.04255763397386146
3700,9.0,299.81989,-3826.7399,0.03699998619127398,0.0,0.0,0.0,0.0,0.005646721035966945,0.5511017644645094,0.26013597408842176,0.35199564748426565,0.0034805043662990364,0.012152419127350387,0.043059288018870864
3701,9.0,299.88921,-4073.3749,0.03700999586597131,0.0,0.0,0.0,0.0,0.005648248653852661,0.5935668633729884,0.2859564440017037,0.35868095005405365,-0.006756815634020783,-0.0018916474534660683,0.06037821874361624
3702,9.0,299.56111,-3977.1279,0.03701997250543876,0.0,0.0,0.0,0.0,0.005649771230095191,0.5918874114647394,0.27126677974944674,0.34579338150214967,0.012521526887028489,0.0036165385624495664,0.06233072736831384
3703,9.0,299.54508,-3877.6459999999997,0.03702998218013631,0.0,0.0,0.0,0.0,0.005651298847980907,0.6049565848320664,0.2667020475189427,0.3070489166958687,0.0066420053797648934,-0.00034901930637552364,0.06895458442553763
3704,9.0,300.12594,-3939.4699,0.037039991854833865,0.0,0.0,0.0,0.0,0.0056528264658666505,0.6076044910533944,0.2700914805609538,0.3198044992897467,0.023311898752955276,-0.011963696229974887,0.053376690950119245
3705,9.0,300.18124,-3862.4320000000002,0.03704996849430109,0.0,0.0,0.0,0.0,0.0056543490421091525,0.5757481713544205,0.26059140974336975,0.3377433121076697,0.006675783997023583,-0.028352760245199577,0.048405374891738545
3706,9.0,300.53556000000003,-3790.3635,0.03705997816899864,0.0,0.0,0.0,0.0,0.005655876659994896,0.5308982768780806,0.28231748799006673,0.33896010388775766,0.01678673124222138,-0.016673172250513985,0.053938232129039046
3707,9.0,300.26824,-3932.6345,0.037069987843696195,0.0,0.0,0.0,0.0,0.00565740427788064,0.5762188969533775,0.2665437677208217,0.35266002544233466,-0.006134732558975964,0.0009617514508849781,0.040354108848890465
3708,9.0,300.13365,-3913.425,0.03707999751839375,0.0,0.0,0.0,0.0,0.005658931895766384,0.5777306357050744,0.2645516166992118,0.3473012293734627,0.0013454522512857986,-0.006464056066727664,0.062405139442407734
3709,9.0,300.81195,-3764.9308,0.03708997415786097,0.0,0.0,0.0,0.0,0.005660454472008886,0.6022588875008245,0.24279009496401677,0.29939596028058074,-0.01120955545879699,-0.0003043333658978647,0.04123814726963826
3710,9.0,300.21432000000004,-4064.7485,0.037099983832558525,0.0,0.0,0.0,0.0,0.005661982089894602,0.6259616545726053,0.25856754399362974,0.35105283853121766,-0.0013944092537174788,0.005114239747261165,0.04589809562528936
3711,9.0,299.79947999999996,-4187.4943,0.03710999350725608,0.0,0.0,0.0,0.0,0.005663509707780345,0.6170091745065645,0.2714393767714807,0.3844451744542846,0.01158076773893279,0.03263290193336667,0.007525262787335613
3712,9.0,299.87335,-3938.2889,0.037119970146723524,0.0,0.0,0.0,0.0,0.005665032284022875,0.5713115342015584,0.27233805868267374,0.3534919037744346,0.0019874303907191078,0.0003904367857406107,0.057199308674882245
3713,9.0,299.86118999999997,-3965.8131,0.037129979821420855,0.0,0.0,0.0,0.0,0.005666559901908591,0.5801138100727755,0.2709694009775977,0.35442494499651866,0.00992477652217418,-0.012853888118579987,0.035507596831826964
3714,9.0,299.64211,-3988.4144,0.03713998949611841,0.0,0.0,0.0,0.0,0.005668087519794335,0.5968515466196614,0.2832281161199387,0.3322987140203297,0.0099728078193145,-0.014956876542128787,0.07099091517800783
3715,9.0,300.08662999999996,-3766.4903,0.03714999917081596,0.0,0.0,0.0,0.0,0.0056696151376800785,0.5948357362082165,0.25107846051701477,0.2990047950794757,0.01208212388841279,-0.007615071196699013,0.050956220872737455
3716,9.0,300.06671,-3675.8783,0.037159975810283186,0.0,0.0,0.0,0.0,0.0056711377139225805,0.5628241257989165,0.2622181827789198,0.29233290794101174,-0.012593136311345789,-0.025870072558677373,0.06922481113445693
3717,9.0,300.30352999999997,-3821.9468,0.03716998548498074,0.0,0.0,0.0,0.0,0.0056726653318082965,0.5580724185274595,0.2675514145477687,0.3361525702456757,-0.005018612343898475,-0.014534522489695686,0.05596059016263024
3718,9.0,300.62591000000003,-3796.4373,0.03717999515967829,0.0,0.0,0.0,0.0,0.00567419294969404,0.5373050775253825,0.27012137143890375,0.34659568306383065,0.0036753260160264363,0.007406838472623043,0.04930340021686675
3719,9.0,300.51621,-3837.0467,0.037189971799145516,0.0,0.0,0.0,0.0,0.00567571552593657,0.5571787724692635,0.27190292855972975,0.3372846948474077,0.0012646383617350887,0.01881500665639658,0.05796499847069995
3720,9.0,300.39906,-4042.3669,0.03719998147384307,0.0,0.0,0.0,0.0,0.005677243143822286,0.6081527100199994,0.2767870676192567,0.3438388220592497,-0.020067109189219483,0.003075705783773527,0.05695419840944174
3721,9.0,300.07857,-4028.0666,0.0372099911485404,0.0,0.0,0.0,0.0,0.00567877076170803,0.6330530069874674,0.2740914271857178,0.31728723140381165,-0.02261459928588718,-0.007434122359390754,0.051430031818248956
3722,9.0,300.30404,-3884.7411,0.037219967788007846,0.0,0.0,0.0,0.0,0.005680293337950559,0.5838833132272965,0.27146421153143174,0.3255167575235027,-0.018601974875871983,0.014491207061170786,0.06200184259785543
3723,9.0,299.82395,-3961.5755,0.0372299774627054,0.0,0.0,0.0,0.0,0.005681820955836303,0.5778646177657975,0.28376308177523574,0.3425923319187307,0.006828832080903253,0.01019330816500119,0.050539812571891156
3724,9.0,299.53272999999996,-3787.8171,0.03723998713740273,0.0,0.0,0.0,0.0,0.005683348573721991,0.5452361305631165,0.2626526340242968,0.34351305201959864,0.010090630871417731,-0.008595419647401872,0.05305511475263216
3725,9.0,300.05715,-3684.4934,0.03724999681210028,0.0,0.0,0.0,0.0,0.005684876191607735,0.5500393514696574,0.2549477181438808,0.3150069323187637,0.004122287049788056,-0.003429619351577077,0.04157641878902306
3726,9.0,300.09207999999995,-3946.6184,0.03725997345156773,0.0,0.0,0.0,0.0,0.005686398767850265,0.6079509009975824,0.2600991931097918,0.3316233422986757,0.00885510460360578,0.004309686338557926,0.05830320007582785
3727,9.0,300.02166,-4103.3009999999995,0.03726998312626506,0.0,0.0,0.0,0.0,0.005687926385735981,0.6447983589666434,0.2656637093464667,0.3368389863934197,0.004195605928349066,0.011765098197124789,0.023663590769914578
3728,9.0,300.14437000000004,-4005.5217,0.037279992800962836,0.0,0.0,0.0,0.0,0.005689454003621752,0.5846475672477224,0.2851428345689067,0.34778816697401965,-0.01070959556795479,-0.004021861805876856,0.06086532960994035
3729,9.0,299.62065,-4046.7754,0.03728996944043006,0.0,0.0,0.0,0.0,0.005690976579864254,0.5924844285561605,0.27590803262750274,0.3617262124345977,-0.010104562452342671,-0.014574852883425986,0.043330334447121054
3730,9.0,299.53542000000004,-4191.8675,0.03729997911512761,0.0,0.0,0.0,0.0,0.005692504197749998,0.6011381315652145,0.2904143290091627,0.38267059862664765,-0.0009652687358246071,0.003769351673631046,0.047274042651584754
3731,9.0,300.59654,-3927.0355,0.037309988789824944,0.0,0.0,0.0,0.0,0.005694031815635686,0.5892712503690444,0.26510902584422374,0.33934045771029564,-0.0009836496701911641,0.017188498079122684,0.04579060296193066
3732,9.0,300.5912,-3771.8234,0.03731999846452272,0.0,0.0,0.0,0.0,0.005695559433521458,0.5794606082633095,0.26659535228341275,0.30048419088798073,-0.003820568223785726,0.010426053739471391,0.05956884976248774
3733,9.0,300.41459,-3847.7034,0.03732997510398994,0.0,0.0,0.0,0.0,0.00569708200976396,0.5997048285037584,0.25687645997423275,0.3130244781006107,-0.018704669800007182,0.005790439395571874,0.04875380120362555
3734,9.0,300.81866,-3836.7679,0.037339984778687496,0.0,0.0,0.0,0.0,0.005698609627649703,0.5714260213303575,0.2613514385108788,0.3335041776642997,0.0030578782562140873,0.013851157238002785,0.05798772668369304
3735,9.0,300.34036000000003,-3806.5976,0.03734999445338505,0.0,0.0,0.0,0.0,0.005700137245535447,0.5600334121084944,0.26697081210796775,0.3301063853089637,-0.007369725553260284,0.006023655219413484,0.06950844212894913
3736,9.0,299.98735,-3891.6551,0.037359971092852495,0.0,0.0,0.0,0.0,0.005701659821777977,0.5570015752917755,0.27082764728860775,0.3551367633242697,0.005595270606360214,-0.008043363401343161,0.042700763656487256
3737,9.0,299.64527999999996,-3937.29,0.037369980767549826,0.0,0.0,0.0,0.0,0.005703187439663693,0.5718669168463705,0.2884216308324987,0.33654929818982965,-0.008123345615211794,-0.017537056113522683,0.06265688649600323
3738,9.0,299.24397999999997,-3992.8974,0.03737999044224716,0.0,0.0,0.0,0.0,0.005704715057549381,0.6067948028984844,0.27695180182051476,0.3299944921004207,0.00791434525286006,-0.0015480890990344984,0.05231976470455874
3739,9.0,299.30785,-4147.4567,0.037389967081714826,0.0,0.0,0.0,0.0,0.005706237633791966,0.6260185080357165,0.2855450644611037,0.3491597023093797,-0.008214889012721422,0.0066305935491886335,0.06466283899722534
3740,9.0,299.74445,-4033.4935,0.03739997675641216,0.0,0.0,0.0,0.0,0.0057077652516776545,0.5933792297194704,0.27543751981106673,0.35726456826926767,0.0012783739800906887,0.0043913241017649466,0.05105914681789545
3741,9.0,300.03107,-3773.0922,0.03740998643110971,0.0,0.0,0.0,0.0,0.005709292869563398,0.5591137660527324,0.2581406211964958,0.3296714375710377,0.0002520325266786738,0.002008932267116178,0.05525618882561125
3742,9.0,300.62487999999996,-3839.6249,0.03741999610580726,0.0,0.0,0.0,0.0,0.005710820487449142,0.5690452888953974,0.26392845775521073,0.3341763373831367,0.02140126370189028,0.005283021477368625,0.049690531669323655
3743,9.0,300.75617,-4007.1676,0.03742997274527471,0.0,0.0,0.0,0.0,0.005712343063691672,0.6185752335961224,0.25244999585237476,0.3470536518440287,0.013748679149388985,0.004732059034792866,0.043162038671761556
3744,9.0,300.09393,-3918.0269,0.03743998241997204,0.0,0.0,0.0,0.0,0.005713870681577388,0.6016310270763594,0.2703659193505387,0.3189853980414077,-0.004187126443562206,-0.002992700436906537,0.05174868073619715
3745,9.0,300.43269,-3765.2138,0.03744999209466959,0.0,0.0,0.0,0.0,0.005715398299463104,0.5701711820090144,0.26271086550754374,0.3116489404273557,-0.013210001958975688,-0.002211416418074808,0.06662375658450284
3746,9.0,300.19632,-4038.6018,0.03745996873413704,0.0,0.0,0.0,0.0,0.005716920875705661,0.5839434901507354,0.2796913767783898,0.36399922625142667,-0.02285351150046598,0.004366355998100786,0.04753878159796245
3747,9.0,299.50237999999996,-4120.2012,0.03746997840883459,0.0,0.0,0.0,0.0,0.005718448493591377,0.6051934928379474,0.2812564935453547,0.36598830712523367,-0.0027243208829195375,0.011237084450763888,0.05846564433185984
3748,9.0,300.3776,-3953.5877,0.03747998808353192,0.0,0.0,0.0,0.0,0.005719976111477093,0.5734746711775435,0.27285466424615873,0.35546259415892667,0.0036265556542631762,-0.0049844446386013855,0.04733335324618825
3749,9.0,299.75399,-4014.692,0.037489997758229476,0.0,0.0,0.0,0.0,0.005721503729362837,0.6073070008240344,0.2749268316281657,0.33813228868855866,0.02036213722083648,-0.003958174173491376,0.046949595916564356
3750,9.0,300.02407,-4086.1643,0.0374999743976967,0.0,0.0,0.0,0.0,0.0057230263056053665,0.6262418688877605,0.2707463846305877,0.34510366215907967,0.01098902157453199,0.004177899585501586,0.04633020626293536
3751,9.0,300.13267,-3942.1257,0.037509984072394253,0.0,0.0,0.0,0.0,0.0057245539234910825,0.5929406444136854,0.2751266749453887,0.3302404484296947,0.008703238475967762,-0.0005340900349580825,0.05712254484730624
3752,9.0,300.05877999999996,-3909.6217,0.03751999374709181,0.0,0.0,0.0,0.0,0.0057260815413767985,0.5797634889832015,0.2662718215264827,0.3423920630364657,-0.00959058546226709,-0.012395633601853789,0.045308874480137755
3753,9.0,299.92437,-3905.699,0.03752997038655903,0.0,0.0,0.0,0.0,0.005727604117619328,0.5615730355029435,0.2778863933152517,0.34777555201027466,0.005308433891201635,-0.006996594278760092,0.05935539444342135
3754,9.0,300.34684,-3818.6936,0.037539980061256584,0.0,0.0,0.0,0.0,0.005729131735505072,0.5684838470149874,0.26700613400645373,0.3252975408643677,0.003986849151321376,0.0014924187067402587,0.06190333644963364
3755,9.0,299.73978,-4030.5967,0.037549989735953915,0.0,0.0,0.0,0.0,0.005730659353390788,0.6085064862924144,0.2826244926378657,0.3340697738701197,0.008407039329885182,0.006085350396802324,0.06373270681617843
3756,9.0,300.56872000000004,-4036.5056,0.03755996637542158,0.0,0.0,0.0,0.0,0.005732181929633345,0.6171484052028055,0.27333147947821673,0.3365170363066457,-0.0040098792115192666,0.0007998738144413992,0.054576590837790144
3757,9.0,300.71876000000003,-3858.7126,0.037569976050118914,0.0,0.0,0.0,0.0,0.005733709547519061,0.5584374013459805,0.26762976917800174,0.3468851179548957,0.0008713739496029133,-0.0023660696927628976,0.06256145150883453
3758,9.0,300.45896,-3950.9349,0.03757998572481647,0.0,0.0,0.0,0.0,0.005735237165404805,0.5692390425795194,0.27013534415778273,0.36161115788574266,0.003993997833426896,0.00018351631173664984,0.050784714107811046
3759,9.0,300.06997,-4120.5874,0.0375899953995138,0.0,0.0,0.0,0.0,0.005736764783290493,0.5986647374086094,0.27122343291016876,0.38266752847884467,0.0030648937972564665,-0.0008352833083985443,0.03116905242114597
3760,9.0,299.61477,-3992.4346,0.037599972038981466,0.0,0.0,0.0,0.0,0.005738287359533051,0.6025595492029974,0.25930506847641777,0.35173578936361966,0.004112919248638527,-0.0008305500220139051,0.03987119790423086
3761,9.0,299.54867,-3879.243,0.0376099817136788,0.0,0.0,0.0,0.0,0.005739814977418767,0.6027483075641265,0.25638990740871376,0.3200547821969477,-0.0015288183993576287,-0.003486135605054796,0.04397624896186786
3762,9.0,299.88419,-4017.4695,0.03761999138837613,0.0,0.0,0.0,0.0,0.005741342595304483,0.6199909263708404,0.26680843877944277,0.33441104663630067,0.00961395293474828,0.0038757358413803464,0.05129919184608605
3763,9.0,299.89689,-4028.1348,0.037629968027843796,0.0,0.0,0.0,0.0,0.00574286517154704,0.5941957269150524,0.28337039669898073,0.3468862831925107,-0.005701423955736734,-0.004534709934016026,0.054860779119837354
3764,9.0,299.74531,-3906.5973,0.03763997770254113,0.0,0.0,0.0,0.0,0.005744392789432756,0.5746684317828584,0.27621270680007176,0.3366269030149887,-0.002255779040578058,-0.013170264316553888,0.06144638497253604
3765,9.0,300.15411,-3959.2592,0.03764998737723868,0.0,0.0,0.0,0.0,0.0057459204073185,0.5794424001590125,0.27317320981259674,0.3509003241261657,-0.0030371033867637675,-0.011378299090700688,0.051019968489528854
3766,9.0,300.28626,-3974.8455,0.03765999705193601,0.0,0.0,0.0,0.0,0.005747448025204188,0.6022385009088125,0.26539208739215975,0.34062319180689166,0.01131755069420529,0.009202012458892921,0.05388115169790565
3767,9.0,299.92004,-3860.4432,0.03766997369140368,0.0,0.0,0.0,0.0,0.005748970601446746,0.6032931524078984,0.26211169019340974,0.3080735050644877,-0.004631722247615396,0.0009164738534089273,0.058476462803177545
3768,9.0,299.7691,-4003.8163,0.03767998336610101,0.0,0.0,0.0,0.0,0.005750498219332462,0.6105177472109103,0.2667033343465698,0.33983908821700665,-0.012930521236893089,0.0002710531359658617,0.04867568468716605
3769,9.0,299.68919,-4053.2311,0.037689993040798564,0.0,0.0,0.0,0.0,0.005752025837218205,0.5806559292737785,0.2899115948395467,0.3615135109736057,-0.01067002308529929,0.003629735233076976,0.06531673386975974
3770,9.0,300.32694,-3848.3168,0.03769996968026601,0.0,0.0,0.0,0.0,0.005753548413460735,0.5542584843560535,0.27828716412730475,0.3372465865111467,0.003586842127193757,0.0027759901532188975,0.04482560484494275
3771,9.0,299.53823,-3903.5876,0.03770997935496356,0.0,0.0,0.0,0.0,0.005755076031346479,0.5680583630329955,0.2683101666201517,0.3502246180319787,0.004874793347229646,-0.0006088788759691664,0.06433737901210494
3772,9.0,299.49265,-4045.0448,0.037719989029660894,0.0,0.0,0.0,0.0,0.005756603649232195,0.6087963467485215,0.27922421781978474,0.3415720498630367,0.00855850177868336,-0.007527112272743143,0.043438549557801055
3773,9.0,299.79517999999996,-3880.809,0.037729998704358225,0.0,0.0,0.0,0.0,0.005758131267117883,0.5885200774074094,0.2763396974351047,0.3148092573567547,0.018114906566052084,-0.004904326446569336,0.06914755588058244
3774,9.0,300.31552,-3948.4001,0.03773997534382589,0.0,0.0,0.0,0.0,0.0057596538433604405,0.5900271146786424,0.2768823739236628,0.33330557051219867,0.015425763092154286,0.008738752993297771,0.05829282439480384
3775,9.0,300.03332,-4063.6565,0.037749985018523224,0.0,0.0,0.0,0.0,0.0057611814612461565,0.5988364934330604,0.2806695278949257,0.35574408516920764,0.003130676425548707,0.0013371234367888089,0.06762759257782373
3776,9.0,300.03512,-3945.6002,0.03775999469322078,0.0,0.0,0.0,0.0,0.0057627090791319,0.5834178970588635,0.26421633224112173,0.35172970986301966,-0.015592636264373384,-0.0029809880763506168,0.037429484025252466
3777,9.0,299.79614,-3928.0522,0.037769971332688224,0.0,0.0,0.0,0.0,0.00576423165537443,0.5752060420209164,0.2721557141946777,0.34666802912097067,-0.013816029883535986,-0.005505665556291885,0.04712234897911376
3778,9.0,300.16776,-4126.4512,0.03777998100738578,0.0,0.0,0.0,0.0,0.005765759273260174,0.6397173960751914,0.27228672743260773,0.3423340038057357,0.003014383786396517,0.003429294300944996,0.02625578546099427
3779,9.0,300.39641,-4108.8064,0.03778999068208311,0.0,0.0,0.0,0.0,0.00576728689114589,0.6246892049645244,0.2848008930576597,0.33948445068200667,0.004710812801396026,0.0019227250499331884,0.04628258249498526
3780,9.0,300.60263,-3978.5168,0.037799967321550554,0.0,0.0,0.0,0.0,0.005768809467388447,0.5952545327395484,0.2760759079040707,0.33803932299188366,0.0008810459486974652,-0.0003692143535886197,0.04976503797567686
3781,9.0,301.13084,-3993.5943,0.037809976996247885,0.0,0.0,0.0,0.0,0.005770337085274135,0.5760846311826264,0.2825123663817997,0.35535594958590166,0.0008212880345723183,-0.0009111532568688252,0.06865060939553763
3782,9.0,301.34907999999996,-3962.1318,0.03781998667094544,0.0,0.0,0.0,0.0,0.005771864703159879,0.5752313935384185,0.27639102868517074,0.3527667004128627,-0.005658515043151954,0.0065037179180419845,0.04726285839698095
3783,9.0,300.38249,-3839.7608,0.03782999634564299,0.0,0.0,0.0,0.0,0.005773392321045595,0.5664600724577564,0.2632025248535667,0.3375288070614997,-0.0002877362988623617,0.0005643934779512996,0.06252928689766014
3784,9.0,300.22697999999997,-3837.7981,0.03783997298511044,0.0,0.0,0.0,0.0,0.0057749148972881525,0.6049788560692644,0.2515391144099778,0.3100768322347007,-0.007449101640919093,-0.007841311097577153,0.04127921936244176
3785,9.0,299.67692,-3837.6056,0.03784998265980777,0.0,0.0,0.0,0.0,0.0057764425151738685,0.5789079715262685,0.26646393374544275,0.32116437211645565,0.007962534414365962,-0.002058275925786018,0.06708996308801383
3786,9.0,300.27822000000003,-3832.3044,0.0378599923345051,0.0,0.0,0.0,0.0,0.0057779701330595845,0.5747747318508495,0.2774320621029127,0.3127180510053687,0.007188768812601243,-0.004106084167438956,0.06617905023486374
3787,9.0,299.82716,-3982.5135,0.03786996897397277,0.0,0.0,0.0,0.0,0.005779492709302142,0.5707211842957954,0.27823486015714277,0.36162859591996366,0.008658071028910082,0.0014818827295504386,0.07044545225167484
3788,9.0,299.77386,-4033.9099,0.0378799786486701,0.0,0.0,0.0,0.0,0.00578102032718783,0.5893370508305384,0.2831907069262467,0.35368011498050966,-0.012917415860099687,-0.0003542399559257617,0.05027624494262905
3789,9.0,300.20804,-3835.9745,0.03788998832336765,0.0,0.0,0.0,0.0,0.005782547945073574,0.5648392269352914,0.26734945353783673,0.33385177311110464,-0.005510102781129805,0.006257401378357433,0.04720926253294146
3790,9.0,300.86341,-3818.2951,0.03789999799806498,0.0,0.0,0.0,0.0,0.00578407556295929,0.6048797500769835,0.2549417298357897,0.3008448876585787,-0.004616461890509316,0.0036439948030592864,0.03698871719200217
3791,9.0,299.95766000000003,-4130.6681,0.03790997463753265,0.0,0.0,0.0,0.0,0.005785598139201847,0.6159961777190894,0.28965536415425874,0.3499684076116927,0.007198957548981793,-0.001012722237227903,0.05102366989214416
3792,9.0,300.05929,-4029.6071,0.03791998431222998,0.0,0.0,0.0,0.0,0.005787125757087563,0.6123348998077494,0.2679756826296408,0.3445893668058227,0.0011175901369975588,-0.004978134420953615,0.04907310265463816
3793,9.0,300.22764,-3869.5064,0.037929993986927535,0.0,0.0,0.0,0.0,0.005788653374973307,0.5547549566400515,0.2796474523865547,0.34183091499858465,0.0026536637110462177,0.0005025083566987137,0.06530560939691184
3794,9.0,300.6132,-3925.0689,0.03793997062639498,0.0,0.0,0.0,0.0,0.005790175951215837,0.5831482914722554,0.26467195028108775,0.34530269487622267,0.003992049657459626,0.006173883529589864,0.05436312538622275
3795,9.0,300.34508,-4013.2901,0.037949980301092534,0.0,0.0,0.0,0.0,0.005791703569101553,0.6061394428663055,0.26466386454528973,0.34913666100210566,0.007848960933182133,-0.0026276887407576874,0.03567076961468087
3796,9.0,299.9622,-3982.7672,0.037959989975789865,0.0,0.0,0.0,0.0,0.005793231186987269,0.6226621778744724,0.2706379060748817,0.3173617052861617,0.010530294883259189,-0.008028606122911734,0.05177780458382145
3797,9.0,299.8654,-4040.7615,0.03796996661525731,0.0,0.0,0.0,0.0,0.0057947537632297985,0.5903251925930604,0.28180390191187976,0.35616150368040367,0.002168497170339008,-0.009732384139561531,0.04984920562173355
3798,9.0,299.82806,-3996.2132,0.037979976289954864,0.0,0.0,0.0,0.0,0.005796281381115542,0.5875860128027245,0.2716949893742077,0.3554680150469616,-0.008099341112392732,0.006096141510367324,0.055607044911238045
3799,9.0,299.70673,-3997.5125,0.037989985964652195,0.0,0.0,0.0,0.0,0.005797808999001258,0.5567553859149785,0.2967507391720177,0.36163785702587764,-0.02304380594874658,0.0025138506999727475,0.06423485431398654
3800,9.0,299.77914,-4123.3764,0.03799999563934975,0.0,0.0,0.0,0.0,0.005799336616887002,0.6053383166747405,0.2861262647184637,0.3619388936305876,-0.019257759459842882,0.011696253932330388,0.050401060129697355
3801,9.0,299.80025,-4067.6681,0.038009972278817195,0.0,0.0,0.0,0.0,0.005800859193129532,0.6174184971494614,0.26959822027977276,0.3494527950333056,-0.01061208443133119,0.011870037470231489,0.04424745345713366
3802,9.0,299.79985,-3890.8092,0.03801998195351475,0.0,0.0,0.0,0.0,0.005802386811015248,0.6082724559168174,0.2698361921982587,0.3046001951791987,0.016346451782269185,0.005886622059989364,0.04928029507483645
3803,9.0,300.05842,-3909.8318,0.03802999162821208,0.0,0.0,0.0,0.0,0.005803914428900964,0.5870367907185204,0.26533417001644377,0.33612026783248766,0.00913626863807951,-0.015246119928924886,0.06483584435904964
3804,9.0,300.54318,-4104.4049,0.038039968267679525,0.0,0.0,0.0,0.0,0.005805437005143493,0.6030820518820644,0.29046044202121374,0.35409409857386664,0.013118473050942487,-0.015056721193732685,0.058110818332341246
3805,9.0,300.48991,-4024.7777,0.03804997794237708,0.0,0.0,0.0,0.0,0.005806964623029237,0.5677579242458445,0.2780241345338457,0.37764986332113964,-0.004566086540587655,-0.00010521009459342789,0.07205000775228212
3806,9.0,300.91806,-3876.3319,0.03805998761707463,0.0,0.0,0.0,0.0,0.005808492240914981,0.5822185230479945,0.26018297876056073,0.3359066037839007,-0.007205661110318383,0.009200135615732692,0.06033331453893454
3807,9.0,300.31596,-4013.8083,0.03806999729177196,0.0,0.0,0.0,0.0,0.005810019858800697,0.6212487041174735,0.2618000144626497,0.3370487899591257,-0.014576754753863686,0.0057248706643757445,0.04286071329077305
3808,9.0,300.1108,-4058.6513,0.03807997393123941,0.0,0.0,0.0,0.0,0.0058115424350432265,0.6348871720534854,0.26085680020956176,0.3379846784139907,0.0035902483700549262,-0.011414878432560789,0.03261456008005647
3809,9.0,300.3322,-3982.1949,0.03808998360593696,0.0,0.0,0.0,0.0,0.0058130700529289425,0.5896600141674124,0.27706972386715273,0.3437580862912817,0.013289579582079387,-0.0016549657063323984,0.04969486736650155
3810,9.0,299.69307000000003,-4027.2074,0.03809999328063429,0.0,0.0,0.0,0.0,0.0058145976708146585,0.5891024935648895,0.28021506496007376,0.35485293170625765,0.016815043476515586,0.0006615877814011303,0.039643609772769664
3811,9.0,299.61129,-4043.6589,0.03810996992010174,0.0,0.0,0.0,0.0,0.005816120247057188,0.5803520150387844,0.27701479557923175,0.37180453495175064,-0.006964499885817623,0.003735940663508637,0.04172124870531666
3812,9.0,300.14391,-3972.9495,0.03811997959479929,0.0,0.0,0.0,0.0,0.005817647864942932,0.5960761772456384,0.2833903374609487,0.3282109186118957,-0.01715513884608038,0.006020209155823384,0.06257472812489485
3813,9.0,300.60549,-3973.5636,0.03812998926949662,0.0,0.0,0.0,0.0,0.005819175482828676,0.6137208131620284,0.26226429579097077,0.33187901569640865,-0.013467337086872687,0.015815471239615485,0.05086692820767495
3814,9.0,300.10471,-4084.4562,0.03813996590896407,0.0,0.0,0.0,0.0,0.005820698059071178,0.6326384357090524,0.2774948228141067,0.33143942727302467,-0.0038063567831831658,0.01053723463319409,0.05913396180631764
3815,9.0,299.82031,-3984.5040000000004,0.0381499755836614,0.0,0.0,0.0,0.0,0.005822225676956921,0.5994365198772784,0.27340911470087875,0.33834408835696167,0.009288242575528172,-0.00929124118787411,0.05626357423403244
3816,9.0,299.24375,-3891.3754,0.03815998525835895,0.0,0.0,0.0,0.0,0.005823753294842637,0.5730542737110534,0.27188865186582073,0.3379380283793867,0.00849080370240208,-0.017738955315198583,0.06593772445854673
3817,9.0,299.65692,-3912.7598,0.038169994933056506,0.0,0.0,0.0,0.0,0.005825280912728381,0.5485090094461245,0.27472199298794975,0.3661502751537187,0.00997704158353234,-0.013737435113029288,0.053910180300020545
3818,9.0,299.61211000000003,-3933.6474,0.03817997157252373,0.0,0.0,0.0,0.0,0.005826803488970883,0.5877543339093364,0.27544996252229476,0.3325263001252907,0.02161192853018128,-0.007171049702802503,0.05585753654795965
3819,9.0,300.4377,-4035.6542,0.03818998124722128,0.0,0.0,0.0,0.0,0.005828331106856627,0.6080804551553685,0.2727735941056577,0.34588405725359866,0.004366171485257576,-0.004480510679541976,0.036682392435020264
3820,9.0,300.45286,-4163.9698,0.038199990921918836,0.0,0.0,0.0,0.0,0.0058298587247423705,0.6506743584165594,0.28565106055406475,0.3294174360359697,-0.0032147167060678373,-0.0029179405140533072,0.05944537003905124
3821,9.0,300.45686,-4051.5252,0.03820996756138628,0.0,0.0,0.0,0.0,0.0058313813009849,0.5946862007584585,0.2886109870111867,0.34826531657861065,-0.005382338833620485,0.007700017728107582,0.04838402064588105
3822,9.0,300.39649,-3920.0774,0.03821997723608361,0.0,0.0,0.0,0.0,0.005832908918870616,0.5688152811226974,0.28277231569495476,0.34001804844966865,-0.003985951107757747,-0.0013116549902252687,0.06751143257310964
3823,9.0,300.37127000000004,-4150.7002,0.038229986910781166,0.0,0.0,0.0,0.0,0.005834436536756332,0.5879739660010125,0.28735855922508174,0.38637670272241165,0.00017227719977243585,-0.006171962103425234,0.04162925572873766
3824,9.0,300.18272,-4170.2768,0.03823999658547872,0.0,0.0,0.0,0.0,0.005835964154642076,0.6466141436758474,0.2716781998200507,0.3493676820249057,-0.011213980321983688,-0.004338564675682996,0.05041875451619365
3825,9.0,300.29354,-3902.7952,0.03824997322494594,0.0,0.0,0.0,0.0,0.005837486730884578,0.5980917647420614,0.2604556747599738,0.32780482823681767,0.00859639996687362,0.004620735171481055,0.044861565090991755
3826,9.0,299.64142999999996,-3789.9969,0.03825998289964372,0.0,0.0,0.0,0.0,0.005839014348770349,0.5910926282188005,0.2534722841432668,0.3074995090153387,0.011513313653275589,-0.008097331128169363,0.05272582468213375
3827,9.0,299.68075,-3991.1240000000003,0.03826999257434105,0.0,0.0,0.0,0.0,0.005840541966656065,0.5904932502546465,0.26129569962287774,0.36141309788869563,0.025667474214432478,-0.0017373184188099785,0.04096976264940076
3828,9.0,299.86794,-4115.9931,0.038279969213808496,0.0,0.0,0.0,0.0,0.005842064542898595,0.5910517435772654,0.2899161747299987,0.37019119761252667,0.004227192176366386,8.231813025166692e-05,0.061002972543274636
3829,9.0,300.24012,-4049.9736,0.03828997888850583,0.0,0.0,0.0,0.0,0.005843592160784311,0.5850824136606384,0.27431188000997475,0.37169656302109466,-0.0024717908909717675,-0.004144524444432716,0.04956872076880185
3830,9.0,299.61255,-3968.3165,0.0382999885632036,0.0,0.0,0.0,0.0,0.005845119778670055,0.6033690347078875,0.28262626582554073,0.3202738164710647,-0.017289670088357585,-0.0023208245294225474,0.05248296991141585
3831,9.0,299.83725,-3920.1137,0.03830999823790093,0.0,0.0,0.0,0.0,0.005846647396555771,0.5932350138327375,0.2745806344664987,0.3238010211291727,-0.016863736223321185,0.0050096339347623755,0.05217806877082445
3832,9.0,299.98867,-4138.3614,0.03831997487736838,0.0,0.0,0.0,0.0,0.0058481699727983005,0.6362723761326944,0.2872685319536967,0.3344176226294497,-0.0006926337847301323,0.01674630357648148,0.06866215639367723
3833,9.0,300.29077,-4187.3281,0.03832998455206593,0.0,0.0,0.0,0.0,0.005849697590684044,0.6175586701682955,0.2858526263964577,0.3694318882525886,-0.004040422825183686,0.01862881789752118,0.05833159843638054
3834,9.0,300.26222,-3809.3481,0.03833999422676326,0.0,0.0,0.0,0.0,0.00585122520856976,0.5426644207493085,0.27247393552108373,0.3428083568400507,-0.0037599917758322963,0.009208567680414871,0.07021846801727323
3835,9.0,300.04602,-3646.4978,0.03834997086623071,0.0,0.0,0.0,0.0,0.00585274778481229,0.5383175575553065,0.24468942214396577,0.32543728831815966,-0.01014834721831389,-0.013398618465090687,0.051979590301486155
3836,9.0,300.2845,-4009.1152,0.03835998054092804,0.0,0.0,0.0,0.0,0.005854275402698006,0.6143524428768654,0.26246272055805375,0.3418557396260347,-0.004508716522575676,-0.011331342041316389,0.05430099086359055
3837,9.0,300.36189,-4187.0443,0.038369990215625815,0.0,0.0,0.0,0.0,0.00585580302058375,0.6351869522280714,0.28729520069632875,0.3502747536469267,0.0031481639063745876,-0.006424290154628073,0.047939214997732155
3838,9.0,300.4266,-3976.3551,0.03837996685509304,0.0,0.0,0.0,0.0,0.005857325596826252,0.5972759261590443,0.2796949028887377,0.3317418317653697,0.014179660013173487,-0.0034332923831895765,0.05996520179085464
3839,9.0,299.44169,-3989.8196,0.03838997652979059,0.0,0.0,0.0,0.0,0.005858853214711995,0.5767221884105485,0.27875029035051174,0.35733305384352665,0.00992796400433876,-0.004310535746116756,0.052180744764338545
3840,9.0,299.92363,-4186.0731,0.038399986204488146,0.0,0.0,0.0,0.0,0.005860380832597739,0.5978039510511565,0.2961234968301137,0.37853424827342164,0.005571244014688974,0.007619308608617212,0.05165983187467845
3841,9.0,299.20594,-4166.0542,0.0384099958791857,0.0,0.0,0.0,0.0,0.005861908450483483,0.6150873734393975,0.28279843728253273,0.36849062957219364,0.0047691861396570254,0.0045898369202816355,0.04703275031252105
3842,9.0,299.75922,-4087.9572,0.03841997251865292,0.0,0.0,0.0,0.0,0.005863431026725985,0.6287936176745984,0.2742330592846957,0.33961021528441865,-0.009618961328667571,0.012019652966747387,0.04220339261965056
3843,9.0,300.18766,-3993.0443,0.038429982193350476,0.0,0.0,0.0,0.0,0.0058649586446117286,0.6072503905409474,0.2672882532317968,0.33924712724358463,-0.011030614477886889,0.002502632704140617,0.04776010683055555
3844,9.0,300.55643,-3831.9235,0.03843999186804803,0.0,0.0,0.0,0.0,0.0058664862624974445,0.6002186982919734,0.24664252250672175,0.3179478502040097,-0.004109892467939806,0.012817327015221687,0.05039162271826595
3845,9.0,300.41628,-4017.2167,0.03844996850751525,0.0,0.0,0.0,0.0,0.005868008838739974,0.5860287081940305,0.27877232854018674,0.35633253016478267,-0.004423506444816096,0.0050778390413936956,0.06095334760637704
3846,9.0,300.5624,-4198.3829,0.038459978182212806,0.0,0.0,0.0,0.0,0.00586953645662569,0.5976630383597494,0.2912517194218067,0.3872888101974296,-0.0026916590699210675,0.0031725023764266067,0.05317846883305624
3847,9.0,300.62548,-4007.9269,0.03846998785691014,0.0,0.0,0.0,0.0,0.005871064074511434,0.5870239832372565,0.27690980260386977,0.35437591382417966,-0.0032081464884444067,-0.019903808736852983,0.05185619771755825
3848,9.0,300.80127000000005,-3953.5646,0.03847999753160769,0.0,0.0,0.0,0.0,0.005872591692397178,0.5983596680685014,0.27638547607462277,0.3270397838813137,0.00997320876237907,-0.009739268768690992,0.05600514682252764
3849,9.0,300.50577999999996,-4118.8841,0.038489974171074914,0.0,0.0,0.0,0.0,0.00587411426863968,0.6290257228750055,0.27717797950783674,0.3458342053486787,0.003788157595487046,0.0007659687334377284,0.04789104508797816
3850,9.0,299.18057999999996,-4129.8143,0.03849998384577247,0.0,0.0,0.0,0.0,0.005875641886525423,0.6245471169030014,0.29668395585792673,0.3341293428434987,0.005915272111866905,0.008092524877645021,0.06273094494581224
3851,9.0,299.92047,-3958.8388,0.03850999352047002,0.0,0.0,0.0,0.0,0.005877169504411139,0.5667986094486674,0.2778129326830017,0.35877660086349367,0.0024813002431602676,0.005421753147935375,0.051340099792373355
3852,9.0,299.80634,-3913.3993,0.03851997015993747,0.0,0.0,0.0,0.0,0.005878692080653669,0.5683103988628694,0.27373416533295875,0.3475311054236496,-0.013926321143670884,0.006982333796852693,0.07107309888036872
3853,9.0,300.08827,-3863.9501,0.0385299798346348,0.0,0.0,0.0,0.0,0.005880219698539385,0.5814922253763145,0.25667733606458076,0.3363747962576077,-0.015025478640149286,-0.01079578768771129,0.050214518759787156
3854,9.0,299.63795,-3849.9622,0.03853998950933235,0.0,0.0,0.0,0.0,0.005881747316425129,0.5866759115629044,0.26030575427517777,0.3233107094057827,-0.02109498859416328,-0.009668739874280331,0.07274949279981592
3855,9.0,299.92562999999996,-4083.5776,0.0385499661487998,0.0,0.0,0.0,0.0,0.0058832698926676585,0.6189560332487044,0.27691137314152475,0.34543821707709765,0.0038890192462163165,-0.01089309820081509,0.03882504554698367
3856,9.0,300.79444,-4185.8864,0.03855997582349735,0.0,0.0,0.0,0.0,0.005884797510553402,0.6306003641929104,0.2798033105169367,0.36200127943924465,0.008674800396011142,-0.0028661966685465876,0.06642540071842663
3857,9.0,301.30846,-4066.5398,0.03856998549819468,0.0,0.0,0.0,0.0,0.005886325128439118,0.5861161516776604,0.27808642914999376,0.3719239870060397,0.007355015796258544,-0.001060200664583659,0.05081827903062365
3858,9.0,300.05237,-4097.0403,0.038579995172892234,0.0,0.0,0.0,0.0,0.005887852746324834,0.5943173371920545,0.28728303156262774,0.3637975793490256,-0.005021415905600165,0.0044554360832923055,0.05545965045894135
3859,9.0,299.42356,-4201.383,0.03858997181235968,0.0,0.0,0.0,0.0,0.005889375322567364,0.6202716270460434,0.28441944492501375,0.37242445149543163,0.003920898830137587,0.01001039818212438,0.030344382350257368
3860,9.0,299.06171,-4119.7495,0.03859998148705701,0.0,0.0,0.0,0.0,0.00589090294045308,0.6180417168884683,0.28056159649427376,0.35369765433974065,0.0015677537503502484,0.01114517354744299,0.03130252887006907
3861,9.0,299.74327,-4006.6799,0.038609991161754564,0.0,0.0,0.0,0.0,0.005892430558338824,0.6154034568080924,0.28214031107758075,0.3203868850497237,0.011626982075993789,-0.006921350225009083,0.043556883997229755
3862,9.0,299.91123999999996,-3961.8373,0.03861996780122201,0.0,0.0,0.0,0.0,0.005893953134581353,0.6060262628301355,0.25700348100676873,0.34126986828571365,0.006603074588397723,-0.003087374270600117,0.03459432817219437
3863,9.0,299.73696,-3998.1294,0.038629977475919564,0.0,0.0,0.0,0.0,0.005895480752467097,0.5742216290187624,0.2818046618494547,0.3593052337056657,0.021735300849107183,-0.010978782682271489,0.05041919426673705
3864,9.0,299.92443,-4107.2785,0.038639987150616895,0.0,0.0,0.0,0.0,0.005897008370352813,0.5978435995275694,0.28799184053758176,0.3626746753232037,-0.004672949874309246,-0.002096748525457968,0.054412019769798245
3865,9.0,300.55366000000004,-4242.0584,0.03864999682531445,0.0,0.0,0.0,0.0,0.005898535988238529,0.6304733228953724,0.2927253802347457,0.3662811364041336,-0.01084389072295869,0.003260629094599037,0.07898451209141442
3866,9.0,300.09302,-4009.1682,0.038659973464781894,0.0,0.0,0.0,0.0,0.005900058564481059,0.6178388540859474,0.27598070292467475,0.3248674769919237,-0.01250539189243609,0.00940403223733072,0.06307357445387714
3867,9.0,300.40561,-3758.7907,0.03866998313947945,0.0,0.0,0.0,0.0,0.0059015861823668025,0.5882436830451315,0.25337870036403076,0.3009561323870577,0.0003545748148188096,0.007776488625079673,0.06662696960056994
3868,9.0,299.22717,-3955.1004,0.03867999281417678,0.0,0.0,0.0,0.0,0.0059031138002525185,0.5860554782616725,0.2756324995278097,0.3405637748210277,-7.494951207944093e-05,0.0017297252238855881,0.05726342308820984
3869,9.0,299.10935,-4015.5093,0.038689969453644446,0.0,0.0,0.0,0.0,0.005904636376495076,0.5797507726944464,0.28936489574809177,0.35149888135773866,0.012376758778990988,-0.018773105725011282,0.06721342963919903
3870,9.0,299.51295,-3898.8190000000004,0.03869997912834178,0.0,0.0,0.0,0.0,0.005906163994380792,0.5729700827602445,0.26868903096504276,0.34348452902928367,0.003157903367660797,-0.006795625544651024,0.06264838938066464
3871,9.0,299.50165,-3953.5888,0.03870998880303911,0.0,0.0,0.0,0.0,0.005907691612266508,0.5887812730181874,0.2809156260792138,0.33209537499026165,0.015548305559248285,0.004198691072253546,0.05093818704745765
3872,9.0,299.0276,-4139.3913,0.03871999847773666,0.0,0.0,0.0,0.0,0.005909219230152224,0.6201390432704584,0.28468803726152175,0.35344452419975864,0.00949304666391576,0.012242966196036688,0.04067714817952196
3873,9.0,299.4917,-4153.8881,0.03872997511720411,0.0,0.0,0.0,0.0,0.005910741806394754,0.6356926653529814,0.2858273154089597,0.34115826891969964,0.004747618908628505,0.0016387253337295984,0.05401852409346324
3874,9.0,299.80052,-4173.5385,0.03873998479190166,0.0,0.0,0.0,0.0,0.005912269424280497,0.6099482297272034,0.2915690693531267,0.36713418153082267,0.008760935267136992,0.0019625734405909184,0.05125824336979475
3875,9.0,300.33341,-4035.4240000000004,0.03874999446659899,0.0,0.0,0.0,0.0,0.005913797042166213,0.5885479620501615,0.27008064891738476,0.3680395002301707,-0.014221417063044589,-0.005460917594775605,0.05168555525496715
3876,9.0,299.99832000000004,-3998.62,0.03875997110606644,0.0,0.0,0.0,0.0,0.005915319618408771,0.5881019090911395,0.27031376736789176,0.3570649782645697,-0.006369678912663363,-0.0034051123780334267,0.05236125628290366
3877,9.0,300.21792,-4054.4902,0.03876998078076399,0.0,0.0,0.0,0.0,0.005916847236294487,0.6038905038718524,0.2794579746178547,0.34911529155749665,-0.02137890228543338,-0.003321293796636177,0.07487144014598583
3878,9.0,300.20451,-4145.6337,0.038779990455461544,0.0,0.0,0.0,0.0,0.005918374854180231,0.6430956529685994,0.27858303315650473,0.3384904422014057,0.005004790295309345,0.012936634174746388,0.03889210851810226
3879,9.0,299.89695,-4027.27,0.03878996709492877,0.0,0.0,0.0,0.0,0.00591989743042276,0.6168430318876674,0.26657456039136074,0.34077192678907064,0.004045579660242626,0.01093208299841259,0.04116354470452556
3880,9.0,300.08272999999997,-3887.6733,0.03879997676962632,0.0,0.0,0.0,0.0,0.005921425048308476,0.5726885714849614,0.26807467716441075,0.34099234921582466,0.014763679132311684,0.0036140815322820764,0.03514358572015187
3881,9.0,299.82939,-4147.8539,0.03880998644432365,0.0,0.0,0.0,0.0,0.005922952666194192,0.5747245354408955,0.3039722739597277,0.38214718402249065,0.013851998235585788,-0.009604803286345281,0.059612524894798145
3882,9.0,299.72271,-4261.1315,0.038819996119021205,0.0,0.0,0.0,0.0,0.005924480284079908,0.6225411552825284,0.29156888696810873,0.38116754342830766,0.00965020378092596,-0.004831356126042725,0.04135412691583456
3883,9.0,300.69403,-4108.0081,0.03882997275848865,0.0,0.0,0.0,0.0,0.005926002860322466,0.6030905631829044,0.3012306421041497,0.3444106902831887,0.009593354978765421,0.00928661914621795,0.059598460983410144
3884,9.0,299.97798,-4029.3292,0.03883998243318598,0.0,0.0,0.0,0.0,0.005927530478208182,0.6150843438215984,0.28002923489173376,0.3297018857365427,-0.02186136334704858,0.006889897827329973,0.05278827331229695
3885,9.0,299.42105,-3952.6584,0.038849992107883535,0.0,0.0,0.0,0.0,0.005929058096093925,0.6074433640224924,0.26440586067232674,0.3296602208924307,-0.013520973480916187,0.00038423822825386065,0.06345738244600603
3886,9.0,299.81588999999997,-3978.1077,0.03885996874735098,0.0,0.0,0.0,0.0,0.005930580672336455,0.5710758218307954,0.2811715933194757,0.35699800243295965,-0.016817359766244187,-0.008829317895185831,0.07324749914446534
3887,9.0,299.54832000000005,-4094.5213,0.038869978422048534,0.0,0.0,0.0,0.0,0.005932108290222171,0.5941258329231544,0.27724469189442075,0.37326170005306164,0.009524234805968791,-0.01007309819963739,0.052379242485428745
3888,9.0,299.35045,-4116.6902,0.038879988096745866,0.0,0.0,0.0,0.0,0.005933635908107887,0.6111873839369983,0.27155474542786673,0.3686288976808397,-0.004001416141384027,-0.013254384339855886,0.06056947476624174
3889,9.0,299.93291,-3959.2649,0.03888999777144342,0.0,0.0,0.0,0.0,0.005935163525993631,0.6044363417007224,0.27425766099712373,0.3248236539250987,0.004538679949232836,-0.0035558101269811365,0.05987269003022445
3890,9.0,299.57547999999997,-4042.8886,0.038899974410910865,0.0,0.0,0.0,0.0,0.0059366861022361606,0.6289263534376984,0.2803592403168027,0.3196515897171557,0.003632936698092937,0.011984174014495887,0.04594542960371086
3891,9.0,300.39313,-4169.1649,0.03890998408560842,0.0,0.0,0.0,0.0,0.005938213720121904,0.6329910771413554,0.27911838384683973,0.35521256456425065,0.0014070801488679987,0.02798407197106287,0.030126349167239174
3892,9.0,300.29716,-4100.9397,0.03891999376030575,0.0,0.0,0.0,0.0,0.00593974133800762,0.5973542909217784,0.2845800754633667,0.36464890195054467,-0.005836024605645785,-0.0014942386052448685,0.04291341141522396
3893,9.0,300.44291,-4043.4172,0.03892997039977342,0.0,0.0,0.0,0.0,0.005941263914250178,0.5737669836988925,0.2809981552998587,0.37433272567376363,-0.011563878886265989,-0.01098230068661869,0.05792847992384585
3894,9.0,300.36491,-4064.5476,0.03893998007447075,0.0,0.0,0.0,0.0,0.005942791532135866,0.5984489455348124,0.27600410900198474,0.3610679038446276,-0.01268330847749509,-0.014241945510070587,0.04905586828368726
3895,9.0,299.71243,-4117.7269,0.03894998974916808,0.0,0.0,0.0,0.0,0.005944319150021582,0.6145792183817463,0.2881261367058357,0.3489808130042247,-5.246552377119405e-05,-0.0028578519460230275,0.052117098472557154
3896,9.0,299.70076,-4086.2976,0.03895996638863575,0.0,0.0,0.0,0.0,0.005945841726264139,0.6507508081366044,0.26992930988244873,0.3214523073973727,-0.006113613995091724,-0.008511914464260553,0.043072797682454166
3897,9.0,300.26268999999996,-4053.8809,0.03896997606333308,0.0,0.0,0.0,0.0,0.005947369344149855,0.6213182029418324,0.2762084612821527,0.33475190396994065,-0.0037901391073826064,-0.0003984360811725796,0.07303378139362303
3898,9.0,300.0996,-4001.2985,0.03897998573803063,0.0,0.0,0.0,0.0,0.005948896962035599,0.5911706788740034,0.27237293475111574,0.3527512280838357,-0.006028867580577905,0.0061205771511039335,0.04484787101589025
3899,9.0,299.77761,-3916.6925,0.03898999541272796,0.0,0.0,0.0,0.0,0.005950424579921287,0.5682183248262825,0.2792953479768047,0.34306304738518667,0.002970099488125997,0.013539667945261185,0.06480512261601763
3900,9.0,299.75444,-4028.7927,0.03899997205219563,0.0,0.0,0.0,0.0,0.005951947156163873,0.5907776391602134,0.2773829296055637,0.3564918029480017,-0.00950824673264089,-0.006965369862353483,0.05247595214122325
3901,9.0,299.95715,-4145.4138,0.03900998172689296,0.0,0.0,0.0,0.0,0.005953474774049561,0.6201098312700754,0.2996434770150087,0.3403489657998277,-0.006455434524276784,-0.008717265505052122,0.06828216227492473
3902,9.0,300.55174,-3966.9275,0.039019991401590515,0.0,0.0,0.0,0.0,0.0059550023919353046,0.6023686022216523,0.2877655108627447,0.31571279273592673,-0.016179777207069684,-0.005229185169080395,0.07034491757675283
3903,9.0,300.66852,-3894.9675,0.03902996804105796,0.0,0.0,0.0,0.0,0.005956524968177834,0.5854857581279455,0.2688878205021617,0.3295993042964187,0.00021123109324188582,0.009510972172759872,0.05278083403006276
3904,9.0,300.51845,-4099.0572,0.039039977715755514,0.0,0.0,0.0,0.0,0.005958052586063578,0.5820496041238234,0.28836161602907573,0.37559981518881563,0.01941547690415838,0.004236081622143706,0.049732014128417656
3905,9.0,299.94537,-4099.2536,0.039049987390452845,0.0,0.0,0.0,0.0,0.005959580203949294,0.5952382295454394,0.28131477569110674,0.36951774093356166,0.02074361271123518,-0.002110179358183488,0.058059668454043145
3906,9.0,299.59005,-4057.8034,0.039059997065150176,0.0,0.0,0.0,0.0,0.005961107821834982,0.5892758201269954,0.28480646593320974,0.35938863432139667,0.010821947778793091,-0.010432400738097791,0.06599591946479014
3907,9.0,300.46032,-3992.0276,0.03906997370461762,0.0,0.0,0.0,0.0,0.0059626303980775675,0.6246181052050074,0.26135480250121074,0.3275037916321077,-0.01017810029425029,0.0016947152037803683,0.04980568146368805
3908,9.0,299.75007999999997,-4011.6516,0.039079983379315175,0.0,0.0,0.0,0.0,0.005964158015963256,0.6328293826903973,0.25705537967689074,0.3295571328272567,-0.017745065213301586,-0.006014440216379035,0.044822644128150554
3909,9.0,299.37097,-4117.2206,0.03908999305401273,0.0,0.0,0.0,0.0,0.005965685633848999,0.6244661582200114,0.2786845810815267,0.34838151610007867,-0.023976916071837377,0.0017689372934805183,0.05565081224930754
3910,9.0,299.39756,-4195.7191,0.03909996969347995,0.0,0.0,0.0,0.0,0.005967208210091529,0.6047547048821423,0.29141430553285275,0.37922481874657565,-0.00925189516661596,0.0047977728634033155,0.031594175686102365
3911,9.0,299.8184,-4150.960999999999,0.039109979368177505,0.0,0.0,0.0,0.0,0.005968735827977273,0.5897324007545565,0.28964825113855674,0.38240784261071564,0.002918655463323867,0.015201813541802184,0.03756212251634287
3912,9.0,300.18956000000003,-4080.4773,0.039119989042874836,0.0,0.0,0.0,0.0,0.005970263445862989,0.5790690985571705,0.2998575362311347,0.36143655462851065,0.015598971103998585,0.0025948328903650677,0.040233362874223765
3913,9.0,300.87465,-4102.0188,0.03912996568234228,0.0,0.0,0.0,0.0,0.0059717860221055186,0.6249445845197283,0.2866474197748977,0.33531928349593665,0.015241722423490884,-0.006161710444213473,0.06102788532348335
3914,9.0,299.72222,-4191.8763,0.039139975357039836,0.0,0.0,0.0,0.0,0.005973313639991262,0.6313644155633164,0.2886337344759317,0.3542275638770387,0.010984685877354091,-0.009159877669384543,0.04827921410853745
3915,9.0,299.8318,-3988.8712,0.03914998503173739,0.0,0.0,0.0,0.0,0.005974841257876978,0.5923855556114025,0.28486666312165076,0.33526503408558267,0.003246128776392967,0.005371387018589625,0.07081720864711434
3916,9.0,299.95302000000004,-3828.9675,0.03915999470643472,0.0,0.0,0.0,0.0,0.005976368875762694,0.5690951205353155,0.24838853481403977,0.3464268451996677,-0.006260151541778854,-0.0017935032381799884,0.06008445930112444
3917,9.0,300.59854,-3957.5869,0.03916997134590239,0.0,0.0,0.0,0.0,0.005977891452005252,0.5811616423986885,0.2675151908566938,0.35433077353222464,-0.014216763205335289,0.0006249084013586573,0.07005642095528043
3918,9.0,299.95287,-4004.5687,0.03917998102059972,0.0,0.0,0.0,0.0,0.005979419069890968,0.5896085917248375,0.2815666899309687,0.34611361919625466,-0.003954004244029836,-0.003475203548400887,0.07905014840639223
3919,9.0,299.89973,-4082.4114,0.03918999069529705,0.0,0.0,0.0,0.0,0.005980946687776684,0.6299516916113913,0.27642751582127173,0.33457192035467764,0.013982084349674288,0.009687305554537621,0.052676103486476646
3920,9.0,299.69933,-4133.0331,0.039199967334764496,0.0,0.0,0.0,0.0,0.005982469264019213,0.6184865235498673,0.3035771165532287,0.33427521032789465,0.0013106857151796087,-0.0005614397829822924,0.06625184718829824
3921,9.0,300.15623999999997,-4092.6561,0.03920997700946205,0.0,0.0,0.0,0.0,0.005983996881904957,0.6053570212715864,0.27715273944784574,0.36155550005774967,0.004700088359687605,-0.0025331805734554575,0.04245050506728866
3922,9.0,299.21153,-4185.1134,0.0392199866841596,0.0,0.0,0.0,0.0,0.005985524499790673,0.6044018709323205,0.2973528123814377,0.3704152880046427,0.013755162936778885,-0.008009865353037163,0.05290949855426095
3923,9.0,299.86711,-4230.6613,0.03922999635885693,0.0,0.0,0.0,0.0,0.005987052117676389,0.6042898156037614,0.2921559539435477,0.38956962604002865,0.013060805948001186,0.0065051984790881045,0.027718985479900874
3924,9.0,299.77226,-4166.2236,0.0392399729983246,0.0,0.0,0.0,0.0,0.005988574693918947,0.6065528185096024,0.2970939067158857,0.36278121857121864,0.0024239869671538877,-0.0014080048409092587,0.04834072446910805
3925,9.0,299.6356,-4042.7674,0.03924998267302193,0.0,0.0,0.0,0.0,0.005990102311804663,0.6323972923177534,0.2693996637901767,0.32710337545758966,-0.016491796429613584,-0.003764094324162186,0.04435716513821136
3926,9.0,300.49681,-4127.8579,0.039259992347719486,0.0,0.0,0.0,0.0,0.005991629929690406,0.6251975120096904,0.28407464604848476,0.34549356079755966,-0.012756825851750688,0.003497755962501637,0.05573663655927774
3927,9.0,300.17208999999997,-4233.3876,0.03926996898718671,0.0,0.0,0.0,0.0,0.005993152505932908,0.6260322071770684,0.2909620210857157,0.36984989444884264,0.007261963669350013,0.01998424559604148,0.04829577973442235
3928,9.0,299.7851,-4125.7629,0.039279978661884485,0.0,0.0,0.0,0.0,0.00599468012381868,0.6089111682498534,0.27753524136059576,0.3676824815574356,0.008433198610366902,0.005097952562503745,0.05701557299449894
3929,9.0,300.20765,-4050.6297,0.039289988336581816,0.0,0.0,0.0,0.0,0.005996207741704368,0.5870828530680664,0.2962744812275147,0.3479329604133096,-0.004492086251334396,-0.003335082205321987,0.06588499391009264
3930,9.0,299.69067,-4039.6607,0.03929999801127915,0.0,0.0,0.0,0.0,0.005997735359590084,0.6092662718798993,0.2786071890388887,0.3400825316860327,-0.0005453127120056745,-0.004987942580596605,0.05762212172961064
3931,9.0,299.50657,-4099.5539,0.039309974650746815,0.0,0.0,0.0,0.0,0.0059992579358326414,0.6123121726080064,0.3027647635505557,0.33108507344805266,0.009198801064025982,0.006699698016608713,0.06006563210101634
3932,9.0,300.21803,-4202.7081,0.039319984325444146,0.0,0.0,0.0,0.0,0.006000785553718357,0.6089012485313744,0.30442951319985373,0.36418755904751365,0.008278989645847662,0.0007827325713071902,0.06172755174278503
3933,9.0,300.46807,-4209.0844,0.0393299940001417,0.0,0.0,0.0,0.0,0.006002313171604101,0.6133528615207144,0.3006217497215567,0.36548193538775864,-0.003909661379903536,-0.005612264431737375,0.06868676621210602
3934,9.0,300.36503999999996,-3938.4786,0.03933997063960892,0.0,0.0,0.0,0.0,0.006003835747846603,0.5858913114804705,0.27414786521628776,0.33715996376009766,-0.004928432071748375,-0.008661483249946842,0.060375957169393035
3935,9.0,299.6233,-3987.6897,0.0393499803143067,0.0,0.0,0.0,0.0,0.006005363365732375,0.5754902485414655,0.2885847438335967,0.3480831038131277,0.012724590313069288,0.011231524747465188,0.06194722436446504
3936,9.0,299.23557999999997,-4204.3148,0.03935998998900403,0.0,0.0,0.0,0.0,0.006006890983618063,0.6291240182672064,0.29395097715820273,0.35493170176903166,0.020068569282613583,0.00963309555961251,0.05763552297543324
3937,9.0,300.13147999999995,-4085.0025,0.039369966628471476,0.0,0.0,0.0,0.0,0.0060084135598605926,0.6218525403820674,0.2832878573458347,0.3365983698921727,-0.004273546645916215,0.014332256491483588,0.06018348929964794
3938,9.0,300.3912,-3918.098,0.03937997630316903,0.0,0.0,0.0,0.0,0.006009941177746336,0.5953531219742784,0.2575341099516377,0.3381167150345217,-0.017109101827786882,-0.007856548149930932,0.057692174801774354
3939,9.0,300.03121,-3964.7383,0.03938998597786636,0.0,0.0,0.0,0.0,0.00601146879563208,0.6070340312470944,0.2544913199013378,0.3436561026687167,-0.00888682997086183,0.0005138253673306154,0.049021656907310855
3940,9.0,300.17297,-4173.1404,0.03939999565256391,0.0,0.0,0.0,0.0,0.006012996413517796,0.6145914280454514,0.2851388322310117,0.36880021800774765,-0.0018484901932817783,-0.004671613701402375,0.05256762999702116
3941,9.0,300.2079,-4269.1109,0.03940997229203114,0.0,0.0,0.0,0.0,0.006014518989760326,0.6327135884689694,0.28902072508662474,0.3759688104777326,0.01046705085176749,-0.0012723629751974488,0.05539463222652454
3942,9.0,300.47909,-4344.5724,0.03941998196672869,0.0,0.0,0.0,0.0,0.0060160466076460695,0.6427168190212114,0.3061711685317417,0.37175354820671863,0.013281940689575488,0.013495617910413787,0.04730500858789086
3943,9.0,300.41964,-4205.7567,0.03942999164142624,0.0,0.0,0.0,0.0,0.006017574225531758,0.6286519754431193,0.28585940503962676,0.36393363857245364,0.008967994748922173,0.02476241896011048,0.03559079479753797
3944,9.0,300.33769,-4093.1252,0.03943996828089347,0.0,0.0,0.0,0.0,0.006019096801774287,0.5882568248989284,0.28552572151669475,0.37042531918063265,0.005522859599888805,0.006917829383561604,0.04045540650113776
3945,9.0,299.9696,-4172.6756,0.03944997795559102,0.0,0.0,0.0,0.0,0.006020624419660031,0.6095157441870205,0.29028183642608674,0.36859163034216164,-0.011389002051506988,-0.004630912863435516,0.05155605986568695
3946,9.0,300.1754,-4109.1349,0.03945998763028857,0.0,0.0,0.0,0.0,0.006022152037545775,0.6066195714261904,0.26764988219248675,0.37480494075036763,0.002299083728651898,-0.02133411561776328,0.044620470335697555
3947,9.0,299.67711,-3910.24,0.039469997304985904,0.0,0.0,0.0,0.0,0.006023679655431491,0.5918533561288785,0.2687961011031097,0.32796586407521067,-0.01002200668454505,-0.017988179376045084,0.06883681335316454
3948,9.0,300.07585,-3846.3231,0.03947997394445335,0.0,0.0,0.0,0.0,0.006025202231674021,0.6014497667659704,0.25983060077328374,0.3079058121729377,0.0008402051200967891,-0.007772221524933543,0.06569910912624724
3949,9.0,300.20092,-4083.24,0.039489983619150903,0.0,0.0,0.0,0.0,0.006026729849559764,0.6071221434757904,0.28365448162951773,0.3504263662593897,-0.0024918078493472878,-0.00047903321626189757,0.08155123164847992
3950,9.0,299.87093,-4238.3845,0.03949999329384846,0.0,0.0,0.0,0.0,0.00602825746744548,0.6143263314217884,0.3074356539940367,0.36660108025570964,0.006738132518076903,0.011646645207434388,0.05892184296413314
3951,9.0,299.97091,-4189.4255,0.03950996993331568,0.0,0.0,0.0,0.0,0.006029780043687982,0.6040162482092625,0.2923582087960087,0.37710627490749166,-0.0029378898886471567,0.007536902700509382,0.060162183689795236
3952,9.0,300.8166,-4159.5429,0.039519979608013234,0.0,0.0,0.0,0.0,0.006031307661573726,0.6031721095509525,0.2966136970959927,0.3646113812993417,0.012296086845779288,-0.0027729709718959275,0.05211473456007385
3953,9.0,301.30611,-4105.7395,0.03952998928271079,0.0,0.0,0.0,0.0,0.00603283527945947,0.6017260902007414,0.2961857407837567,0.35013046683268667,-0.01027159592072759,-0.005218795809180045,0.062482275132770444
3954,9.0,300.97961000000004,-4155.8948,0.03953996592217823,0.0,0.0,0.0,0.0,0.0060343578557019995,0.6288323947559255,0.28580143700140576,0.3486544248820127,0.0014327333109247684,-0.004920457489486345,0.04930067457409775
3955,9.0,300.18314,-4237.1765,0.039549975596875564,0.0,0.0,0.0,0.0,0.006035885473587715,0.6250143062591094,0.29817513576509475,0.36480639141358767,-0.0018564358979159582,0.004707048171974485,0.04775655032270455
3956,9.0,300.17897,-4009.0489,0.03955998527157312,0.0,0.0,0.0,0.0,0.006037413091473459,0.6040063487557854,0.26755735219335475,0.34708706883232665,-0.012475370305223188,0.005462447602426604,0.05126002263697036
3957,9.0,300.58679,-3822.4493,0.03956999494627067,0.0,0.0,0.0,0.0,0.006038940709359175,0.5828106157439294,0.25102703807443977,0.3280914868226087,-0.007179565765917973,-0.0018854879061081682,0.05201915163839055
3958,9.0,300.10902000000004,-4162.0793,0.039579971585737894,0.0,0.0,0.0,0.0,0.006040463285601677,0.6161543257946974,0.2941704268648607,0.35484342742031966,0.002004315494360538,-0.01020248821090719,0.06843428961843853
3959,9.0,299.35966,-4378.3411,0.03958998126043545,0.0,0.0,0.0,0.0,0.006041990903487421,0.6712938763615474,0.2800246347362797,0.37958785612490464,0.016636202807365382,-0.004914457934319235,0.04334342361191286
3960,9.0,299.83245,-4245.1538,0.039599990935133,0.0,0.0,0.0,0.0,0.006043518521373165,0.6385689277493464,0.2995671184874727,0.3522847176052947,0.013351894463229385,-0.006088510521214204,0.07502540147218063
3961,9.0,299.94459,-4106.6679,0.039609967574600446,0.0,0.0,0.0,0.0,0.006045041097615694,0.6014177277978084,0.28790825753683275,0.3589985229003957,-0.0004072071692057186,-0.009184763801115612,0.04853782998456086
3962,9.0,300.4688,-4051.5944,0.03961997724929778,0.0,0.0,0.0,0.0,0.00604656871550141,0.5952590619674955,0.27601350183041173,0.36031097562242465,-0.012216130267138187,0.001267365321729219,0.04789032568040716
3963,9.0,300.39064,-4132.6311,0.03962998692399533,0.0,0.0,0.0,0.0,0.006048096333387154,0.5989790374571284,0.29437155700971074,0.36286608839959467,-0.019540060056953783,-0.001125904867318159,0.030352186402527574
3964,9.0,300.44174,-4121.0605,0.039639996598692884,0.0,0.0,0.0,0.0,0.00604962395127287,0.5943654767043054,0.28755873691483774,0.3707752653676697,-0.0065457439858146345,0.005629063611770325,0.04737614989066195
3965,9.0,300.37282000000005,-4021.2979,0.03964997323816033,0.0,0.0,0.0,0.0,0.0060511465275154,0.6145468653060534,0.28369169830569074,0.3241355861796917,-0.014897641941282786,0.0006014706194530285,0.06239729486013354
3966,9.0,300.71979,-3995.5238,0.03965998291285766,0.0,0.0,0.0,0.0,0.006052674145401116,0.6040013939627964,0.2869820557529237,0.3235560071224917,0.0013956182637367986,0.013907546632567987,0.06506095306751614
3967,9.0,300.38212999999996,-4126.8594,0.039669992587555214,0.0,0.0,0.0,0.0,0.0060542017632868594,0.6066443757886385,0.3014081229916657,0.3464097111404767,0.011158160373974688,0.006181643404155703,0.08073664240283622
3968,9.0,299.86863,-4284.5397,0.03967996922702266,0.0,0.0,0.0,0.0,0.006055724339529389,0.6235024661824025,0.2956478873656747,0.3832427302956126,0.013778271118559487,-0.005848940504670484,0.052036703156622746
3969,9.0,299.83473,-4179.7523,0.03968997890171999,0.0,0.0,0.0,0.0,0.006057251957415105,0.6008610684578704,0.2923662236042997,0.3773130387228976,0.0026663499062732476,-0.017626768264126583,0.07648896018162263
3970,9.0,300.04697999999996,-3985.2634,0.039699988576417544,0.0,0.0,0.0,0.0,0.006058779575300849,0.5722306432347675,0.2829279711753167,0.3562619471628167,0.0087511696639982,-0.017996848743900683,0.050416194033190954
3971,9.0,300.02356000000003,-4037.212,0.03970996521588499,0.0,0.0,0.0,0.0,0.006060302151543379,0.6279232662362014,0.26577995953043976,0.3335084029172167,0.006586411994478254,-0.016186955070778084,0.06057036946608004
3972,9.0,299.88625,-4322.8433,0.03971997489058232,0.0,0.0,0.0,0.0,0.006061829769429095,0.6561246205719583,0.28347443721924875,0.37443734374658866,0.01102500309883309,-0.01023412897177989,0.04401373212281716
3973,9.0,300.02828999999997,-4245.8097,0.039729984565279874,0.0,0.0,0.0,0.0,0.0060633573873148106,0.6355677721456554,0.29071260957360073,0.36433976947753566,0.0040058616748727665,0.001198720565879509,0.05473039612346954
3974,9.0,299.61297,-4118.5279,0.03973999423997743,0.0,0.0,0.0,0.0,0.006064885005200554,0.6062849050506615,0.28088203683839874,0.36476270006927564,-0.0004246661371737846,0.016920070902380985,0.03229081046110487
3975,9.0,299.73997,-4155.0338,0.03974997087944465,0.0,0.0,0.0,0.0,0.006066407581443084,0.6034909185624164,0.2898256509660647,0.36970995447753163,0.001065820149638259,0.017238120989520087,0.03506160770756126
3976,9.0,299.74564,-4264.3537,0.039759980554142205,0.0,0.0,0.0,0.0,0.006067935199328828,0.6184241276087095,0.3098738883721717,0.3679590279072287,-0.006759274690688474,0.01062156541251689,0.05208181609082504
3977,9.0,300.01521,-4321.7678,0.039769990228839536,0.0,0.0,0.0,0.0,0.006069462817214544,0.6611467338976024,0.29941789714524575,0.35314486561518466,-4.142248887358136e-05,-0.0032103336901102672,0.06267709070299723
3978,9.0,299.79946,-4229.5481,0.039779966868307204,0.0,0.0,0.0,0.0,0.006070985393457101,0.6311696080990904,0.29390342533100966,0.3606039872863427,0.0026041267242572974,0.00852917791548932,0.07152328387329854
3979,9.0,300.14774,-3984.9798,0.039789976543004535,0.0,0.0,0.0,0.0,0.006072513011342789,0.5913206702863064,0.27552957358265173,0.3444841103854347,-0.005491605495254265,-0.00948758352335159,0.06897327686338244
3980,9.0,300.14493,-3975.7099,0.039799986217701866,0.0,0.0,0.0,0.0,0.006074040629228505,0.5827686671897895,0.25968451037386575,0.36606335856014066,-0.007994931870413342,-0.015707317937191587,0.048268014655182157
3981,9.0,300.5342,-4158.0342,0.03980999589239942,0.0,0.0,0.0,0.0,0.006075568247114249,0.5937720870482425,0.2919684013500377,0.37819808228774465,-0.014017916926210686,-0.015259592102254485,0.057003507212308145
3982,9.0,300.42216,-4130.2249,0.039819972531866865,0.0,0.0,0.0,0.0,0.006077090823356779,0.6083173530287485,0.2747006134108398,0.37246727144465763,0.014218527273759387,0.014759982795946886,0.041805494371631065
3983,9.0,300.42226,-4013.0144,0.03982998220656442,0.0,0.0,0.0,0.0,0.006078618441242523,0.5936338696021015,0.2942120410464677,0.33201025184936067,0.019283008639084782,0.006144003290765915,0.06506547520271244
3984,9.0,300.11106,-4141.2741,0.03983999188126175,0.0,0.0,0.0,0.0,0.006080146059128211,0.6180273692670524,0.29707470562649074,0.34374184389217866,0.01079154926254299,0.008638130976217151,0.05058074483618086
3985,9.0,299.54495,-4321.8436,0.03984996852072942,0.0,0.0,0.0,0.0,0.006081668635370796,0.6357539061890254,0.31431433534540965,0.36366429643087167,0.006393571350021364,-0.014292971771856487,0.07100726700812164
3986,9.0,299.01454,-4251.7454,0.03985997819542675,0.0,0.0,0.0,0.0,0.006083196253256484,0.6320613695121005,0.29999386903208974,0.36036919697317066,-0.001225683556340549,0.008295443915546572,0.044817267823119955
3987,9.0,299.88169,-4097.3751,0.0398699878701243,0.0,0.0,0.0,0.0,0.006084723871142228,0.5929100442606654,0.28373750734271175,0.3688521673403746,-0.01072037350926849,0.0007537391087057583,0.05728266470760885
3988,9.0,299.73577,-4079.7489,0.039879997544821855,0.0,0.0,0.0,0.0,0.006086251489027972,0.6192718025098684,0.2799915926505187,0.3408783991095787,-0.011949774173600887,0.0007879006129122363,0.053813435180472546
3989,9.0,300.21608,-4075.0861,0.0398899741842893,0.0,0.0,0.0,0.0,0.0060877740652705015,0.6231878722913544,0.27418296419975174,0.34135358300897567,-0.004446809879890965,0.002717130556234907,0.07365538499872053
3990,9.0,300.51059,-4166.6077,0.03989998385898663,0.0,0.0,0.0,0.0,0.0060893016831562174,0.6273859397081715,0.28349815740408973,0.3556605933609676,0.015276750479447886,0.015967384787358183,0.07020545889923933
3991,9.0,300.3555,-4208.2316,0.03990999353368396,0.0,0.0,0.0,0.0,0.006090829301041906,0.6359325827116594,0.27700201849547074,0.36626274591481867,0.023857349520287077,0.011195589832668688,0.05486032011754205
3992,9.0,299.77154,-4056.3575,0.03991997017315163,0.0,0.0,0.0,0.0,0.006092351877284491,0.5957059559241005,0.27099086161471575,0.36633455494940564,0.01032543395154099,-0.0027160334090266273,0.058796399562002846
3993,9.0,300.74579,-4033.1604,0.03992997984784896,0.0,0.0,0.0,0.0,0.006093879495170179,0.6007080271627665,0.2825800514884797,0.3426919850660657,0.002272488547977158,-0.014802288014122086,0.041791988761048164
3994,9.0,300.23616,-4283.7502,0.039939989522546515,0.0,0.0,0.0,0.0,0.006095407113055923,0.6322957646577334,0.2988072214424767,0.37105011958979567,-0.004975338965252725,0.007305764951297864,0.05401744396885665
3995,9.0,299.38133999999997,-4339.1158,0.03994996616201396,0.0,0.0,0.0,0.0,0.006096929689298453,0.6519960215819974,0.3011017769564317,0.36588506707254465,-0.008017070979798303,0.0011227939868611388,0.045994906606093865
3996,9.0,299.6632,-4117.4503,0.039959975836711514,0.0,0.0,0.0,0.0,0.006098457307184196,0.5958683596501284,0.3012560949466617,0.35447762386921766,-0.01808310976466398,-0.008560687257824053,0.06304901124495295
3997,9.0,299.85626,-4025.2357,0.039969985511408845,0.0,0.0,0.0,0.0,0.006099984925069912,0.6212296347505913,0.2710267306682558,0.33131477724572267,-0.020724934458891783,-0.01205086309632759,0.06808192784316314
3998,9.0,299.52828999999997,-4034.1181,0.0399799951861064,0.0,0.0,0.0,0.0,0.006101512542955628,0.5980828278761795,0.26695071935848474,0.3612376131038767,-0.005112046668744725,-0.0004717884273843925,0.059420761233872535
3999,9.0,299.57056,-4051.6565,0.039989971825573845,0.0,0.0,0.0,0.0,0.006103035119198186,0.6035826176964665,0.27496572016700377,0.3530540682737237,0.01089418744467259,0.005345546202614335,0.07259709491852542
4000,9.0,299.60877,-4189.7119,0.0399999815002714,0.0,0.0,0.0,0.0,0.006104562737083902,0.6285384509019154,0.27866935193252373,0.36636000779191763,0.007382759394596623,-0.0022568061722044275,0.048638500434996255
4001,9.0,300.23357000000004,-4180.833,0.04000999117496873,0.0,0.0,0.0,0.0,0.006106090354969618,0.6224897733699574,0.29271413315863576,0.3556649199388947,0.019835233996585183,-0.01099525812889749,0.07157077287898533
4002,9.0,300.52816,-4012.2209999999995,0.040019967814436175,0.0,0.0,0.0,0.0,0.006107612931212175,0.5974560009668164,0.2828896601890357,0.33926933768577666,-0.009848053629902221,0.005080106188492445,0.05979784124533745
4003,9.0,300.38477,-4253.0597,0.04002997748913373,0.0,0.0,0.0,0.0,0.006109140549097891,0.6398395839047504,0.28582606911133673,0.36715827661820066,0.0003317998504660957,0.002172587255692668,0.06310571981329964
4004,9.0,299.76517,-4479.2878,0.04003998716383106,0.0,0.0,0.0,0.0,0.006110668166983607,0.6397584631017444,0.3242065339516937,0.3976266564626956,-0.01218344687191259,-0.0035036913789374164,0.05548383673882835
4005,9.0,300.00192000000004,-4243.4234,0.04004999683852861,0.0,0.0,0.0,0.0,0.006112195784869323,0.6252794332802755,0.2963423081892087,0.3682730037157157,0.003158311808776107,-0.002386412715020598,0.050142891096968054
4006,9.0,299.99217999999996,-4058.405,0.040059973477995836,0.0,0.0,0.0,0.0,0.006113718361111881,0.6116285226330355,0.27683801383428475,0.3451872451598287,0.002606892694380277,0.0012343447168703388,0.03926889772678847
4007,9.0,299.91635,-4107.8296,0.04006998315269339,0.0,0.0,0.0,0.0,0.006115245978997597,0.6076718012575375,0.28860017563261975,0.3524056388722287,0.013100913426709488,0.005402870725696824,0.04839468003693305
4008,9.0,299.43341000000004,-4191.4246,0.04007999282739094,0.0,0.0,0.0,0.0,0.006116773596883313,0.6185148844201664,0.27933441890066074,0.3762391152069096,0.0038585811118873065,0.0007416565977558074,0.04492833725933166
4009,9.0,299.39504,-4176.4153,0.04008996946685839,0.0,0.0,0.0,0.0,0.00611829617312587,0.6281239302860053,0.2780364049925568,0.36336563083139567,0.0005684442897310835,-0.006214218381620604,0.053161751219656356
4010,9.0,299.93054,-4183.1775,0.04009997914155572,0.0,0.0,0.0,0.0,0.006119823791011586,0.6050348989322953,0.29713414287735673,0.36941247438067265,-0.009096378197542632,0.0038873254973491563,0.07281513316779413
4011,9.0,299.94888,-4102.2551,0.04010998881625327,0.0,0.0,0.0,0.0,0.00612135140889733,0.6258330326049114,0.27133637989881576,0.34981370458642463,-0.017379804764253184,-0.0006604482499411674,0.04997270155717166
4012,9.0,300.10069,-4191.5148,0.04011996545572072,0.0,0.0,0.0,0.0,0.0061228739851398595,0.6265733029954704,0.30012148788218473,0.3474210461977877,-0.008956877976775031,-0.0017649907856660282,0.07317729205828644
4013,9.0,300.7053,-4307.4669,0.04012997513041827,0.0,0.0,0.0,0.0,0.006124401603025603,0.6342824137313005,0.29747795890128875,0.37760201765141765,-0.006580175338787744,0.0062765866610508736,0.05898564326992974
4014,9.0,299.90036000000003,-4198.2374,0.0401399848051156,0.0,0.0,0.0,0.0,0.0061259292209112914,0.6299941670555834,0.2923609952337837,0.35380417732275365,0.01708548803420638,0.015582317325354986,0.06790870159281703
4015,9.0,299.66762,-3971.3328,0.040149994479812934,0.0,0.0,0.0,0.0,0.006127456838797007,0.5859983917510384,0.2878540081264787,0.3333336172749667,0.001115077175424549,0.00981308454510104,0.04756868362166355
4016,9.0,300.35724,-3973.9848,0.0401599711192806,0.0,0.0,0.0,0.0,0.006128979415039565,0.5771036466756955,0.27563901472595276,0.35524949753039564,0.001953957572340598,-0.004130960673294076,0.06672010856301203
4017,9.0,300.29408,-4181.7033,0.04016998079397793,0.0,0.0,0.0,0.0,0.006130507032925281,0.6232457491370664,0.28808603226687773,0.3598016147971546,-0.0025450744071042874,-0.0027582040675885474,0.04231450359911636
4018,9.0,299.54985,-4231.8283,0.040179990468675486,0.0,0.0,0.0,0.0,0.006132034650811025,0.6242125113224785,0.3069696096105417,0.35518802364682867,0.0033076883809184266,-0.009370815669902503,0.06391940118685374
4019,9.0,299.44073,-4225.2077,0.04018996710814293,0.0,0.0,0.0,0.0,0.006133557227053554,0.6102740909593634,0.3036189840473607,0.37046455222450464,-0.0094726513579529,-0.008105828952783032,0.06157636165561374
4020,9.0,299.40988,-4161.6936,0.040199976782840485,0.0,0.0,0.0,0.0,0.006135084844939298,0.6207756683082885,0.2854113762429097,0.35886391262461065,-0.01991096025605878,-0.004889278061384175,0.06844431167517764
4021,9.0,299.83522999999997,-4136.3855,0.040209986457537816,0.0,0.0,0.0,0.0,0.006136612462824986,0.6010742157489064,0.2883366799441147,0.36794701076104264,-0.008616023176260281,0.009772672280762661,0.057142756147050944
4022,9.0,300.18916,-4200.7092,0.04021999613223537,0.0,0.0,0.0,0.0,0.00613814008071073,0.6120329918079535,0.29344115023788675,0.37143658331043666,0.016104478539138285,0.015657107341736184,0.06547588506296674
4023,9.0,300.20027000000005,-4274.5174,0.040229972771702815,0.0,0.0,0.0,0.0,0.00613966265695326,0.6543550501998154,0.2924071082458347,0.35258437618986865,0.012282343121422887,0.015821984411258285,0.05690081836767354
4024,9.0,299.78171000000003,-4096.1725,0.04023998244640037,0.0,0.0,0.0,0.0,0.0061411902748390035,0.6196871641233613,0.2799936394157207,0.34545336516609265,0.008623304492803891,-0.01098722305560449,0.055497730424199546
4025,9.0,300.15297999999996,-3997.4923,0.0402499921210977,0.0,0.0,0.0,0.0,0.0061427178927247195,0.6071475659207994,0.28535786650512873,0.3226323891263377,-0.0025850845124779777,-0.009807910586115411,0.052593481046822446
4026,9.0,300.48656,-4254.3512,0.04025996876056537,0.0,0.0,0.0,0.0,0.006144240468967277,0.6310106392909014,0.2955031344563887,0.36670277003574564,0.005744435003931595,-0.00930463594889607,0.05338015626546124
4027,9.0,300.06026,-4404.4756,0.0402699784352627,0.0,0.0,0.0,0.0,0.006145768086852993,0.6306170422895564,0.2981800297630777,0.4100535204591316,0.006677033841021933,-0.01072434950266089,0.03300512341060207
4028,9.0,299.98879,-4231.73,0.04027998810996003,0.0,0.0,0.0,0.0,0.006147295704738681,0.5954644274977634,0.3104767113866657,0.3803990945524676,-0.01005143258202416,-0.019409806756598782,0.06287126285941054
4029,9.0,300.26845,-4114.717000000001,0.04028999778465758,0.0,0.0,0.0,0.0,0.006148823322624425,0.6249500358052664,0.2713242208976157,0.3544969668136267,-0.006333692828736814,-0.004291844726822095,0.03833720210083726
4030,9.0,300.1173,-4170.2745,0.04029997442412503,0.0,0.0,0.0,0.0,0.006150345898866955,0.6167129913698334,0.2912741527790207,0.3596721720968797,0.005879306495592374,0.0011211829192021387,0.07244653912591673
4031,9.0,300.3965,-4217.4282,0.04030998409882258,0.0,0.0,0.0,0.0,0.006151873516752698,0.6342188525525274,0.2973439768405657,0.35043004435725267,0.004275716824980396,0.016401923172243784,0.05451905849711215
4032,9.0,299.89808999999997,-4182.6768,0.04031999377351991,0.0,0.0,0.0,0.0,0.006153401134638414,0.6224356151521124,0.28813567138927676,0.3608579989539117,0.006589789765011614,-0.003627670128048166,0.07668716507343393
4033,9.0,299.57705,-4063.7373,0.04032997041298736,0.0,0.0,0.0,0.0,0.006154923710880972,0.5828423912670655,0.2947452233815887,0.35768705303096365,-0.01026894931146639,0.009513934004127181,0.05164672751113515
4034,9.0,299.54671,-3948.0661,0.04033998008768491,0.0,0.0,0.0,0.0,0.006156451328766688,0.5824164411900274,0.27889847817763674,0.33879860195431866,-0.010275124057575791,-0.003361757635404647,0.059647777892277355
4035,9.0,299.95813,-4168.3453,0.040349989762382465,0.0,0.0,0.0,0.0,0.006157978946652404,0.6332569641000964,0.28753361844485875,0.34628231520540365,6.507553272320504e-05,-0.006035113963469374,0.048996135163792046
4036,9.0,299.97235,-4477.843,0.04035996640184969,0.0,0.0,0.0,0.0,0.0061595015228949335,0.6624718522458813,0.31721760085693973,0.38146299702496667,-0.0007984705745104102,-0.017614254625391585,0.054533226773260446
4037,9.0,300.31984,-4282.4319,0.04036997607654724,0.0,0.0,0.0,0.0,0.006161029140780677,0.6563243726966724,0.2856150091155067,0.3598129935957777,0.012673457660022888,-0.011303404709559189,0.05725379721225985
4038,9.0,299.31248999999997,-4050.5516,0.040379985751244574,0.0,0.0,0.0,0.0,0.006162556758666393,0.5981529447830994,0.2775643216384657,0.3555492675724806,0.008820203203911282,-0.005179389398215935,0.05801288264392574
4039,9.0,300.21249,-4181.3454,0.04038999542594213,0.0,0.0,0.0,0.0,0.006164084376552109,0.5940004026932754,0.29420906209117376,0.38281510835590965,-0.001999976352132298,-0.0016791513782693382,0.051353372355433254
4040,9.0,300.51302999999996,-4310.4826,0.04039997206540957,0.0,0.0,0.0,0.0,0.006165606952794667,0.6356475858560323,0.29096246691575967,0.3836690350101856,-0.0012977244225504286,-0.0007611526341224163,0.03192429054218217
4041,9.0,300.06275,-4252.7775,0.040409981740106904,0.0,0.0,0.0,0.0,0.006167134570680383,0.6341986078155295,0.2893691513985117,0.3691704190642836,-0.005917589617495624,0.019526859434650982,0.038258474594567465
4042,9.0,299.76887,-4073.8901,0.04041999141480446,0.0,0.0,0.0,0.0,0.006168662188566099,0.6217010088296124,0.26928017120588377,0.3473796954612067,0.0002582079719306427,0.016030258982563383,0.048925102278781656
4043,9.0,300.49792,-3955.5057,0.0404299680542719,0.0,0.0,0.0,0.0,0.006170184764808628,0.6282080604418084,0.25518313667211473,0.3189837565762457,-0.017861870658329383,0.0028741922250856873,0.05439436996630635
4044,9.0,300.26694,-4202.1539,0.040439977728969456,0.0,0.0,0.0,0.0,0.006171712382694372,0.6229364241465384,0.30251450090835674,0.3518989530272227,-0.007783535070250102,-0.01796945350094698,0.07789358319899813
4045,9.0,300.60241,-4361.4826,0.04044998740366679,0.0,0.0,0.0,0.0,0.006173240000580088,0.6303316806638934,0.3080594208880977,0.38739069249498465,0.006004052680328865,0.006643397686727305,0.06323574209263184
4046,9.0,300.70717,-4240.603,0.04045999707836434,0.0,0.0,0.0,0.0,0.006174767618465832,0.6292991078844864,0.2985441918490177,0.36119413454208565,0.005900935433551985,0.01001533757371186,0.06050585988521344
4047,9.0,300.06768,-3994.0424,0.040469973717831786,0.0,0.0,0.0,0.0,0.0061762901947083615,0.5921043888411534,0.28447270135026975,0.3375120783023487,-7.727802059099683e-05,0.0051828231001548155,0.05701376839607085
4048,9.0,300.23622,-3967.3508,0.04047998339252934,0.0,0.0,0.0,0.0,0.006177817812594105,0.5905057638933815,0.2814800266499157,0.33398977777472466,-0.0030796933282170673,-0.001918602236601298,0.07069129813668794
4049,9.0,300.9196,-4229.9697,0.04048999306722667,0.0,0.0,0.0,0.0,0.0061793454304797935,0.6430386373854724,0.28142508822949375,0.36134143070912267,0.005611982950859595,0.013017561446983288,0.045650374214341156
4050,9.0,300.41137000000003,-4373.9023,0.04049996970669412,0.0,0.0,0.0,0.0,0.006180868006722323,0.6199610354928904,0.30553821145927373,0.4040578460399046,0.013154916617289186,0.004254212010158035,0.07458573097553853
4051,9.0,299.9428,-4089.6353,0.04050997938139167,0.0,0.0,0.0,0.0,0.006182395624608067,0.5869529442727455,0.29259864291223775,0.3635954258215746,-0.005905769751104095,0.005103379631364355,0.061500985980674744
4052,9.0,299.96815,-4021.1573,0.040519989056089,0.0,0.0,0.0,0.0,0.006183923242493783,0.5984657249564684,0.27263239770422276,0.35123329837402767,-0.004564202503351715,-0.013160158160056487,0.05546311577428336
4053,9.0,300.08877,-4225.4733,0.04052996569555645,0.0,0.0,0.0,0.0,0.006185445818736313,0.6285914438821454,0.2969249472617107,0.35892198198784164,0.00038701010562492365,-0.002912146446006477,0.05947351103407854
4054,9.0,300.03785,-4292.8646,0.040539975370254,0.0,0.0,0.0,0.0,0.006186973436622056,0.6498559563107894,0.29903862750031474,0.3560290718923337,0.0060219878150489245,0.005579742548577715,0.050668162988558356
4055,9.0,299.82597000000004,-4329.3333,0.04054998504495155,0.0,0.0,0.0,0.0,0.0061885010545078,0.6422133451790224,0.3083280740196117,0.36546780054886363,0.0027474367654008974,-0.007635073868248122,0.05751435143572454
4056,9.0,299.68462999999997,-4186.5429,0.040559994719648884,0.0,0.0,0.0,0.0,0.006190028672393488,0.6081770888174054,0.2892468622439427,0.37518053229743564,-0.003087559898018437,-0.0009764990629104541,0.058267596493814036
4057,9.0,300.40257,-4118.9388,0.04056997135911633,0.0,0.0,0.0,0.0,0.006191551248636018,0.5929101354531744,0.29250759225825174,0.36663680745423566,-0.0027126852253961872,0.0036559973584438465,0.05744333982896624
4058,9.0,300.22571,-4249.9256,0.04057998103381388,0.0,0.0,0.0,0.0,0.006193078866521762,0.6445993769120054,0.27765387268230374,0.36961802229595864,-0.005216122450116205,0.008004251339533103,0.036471154107172665
4059,9.0,300.69212999999996,-4402.6669,0.040589990708511436,0.0,0.0,0.0,0.0,0.0061946064844075055,0.6489885432976824,0.2954860713247047,0.3938261883851186,-0.011265964105114091,0.004125480510128226,0.03799029971710066
4060,9.0,300.70982999999995,-4152.7317,0.04059996734797866,0.0,0.0,0.0,0.0,0.0061961290606500075,0.6399278278559594,0.28050048738074274,0.34189844811774966,-0.006960238155897024,-0.009053388630249891,0.04417679952766066
4061,9.0,300.3455,-3991.5142,0.040609977022676214,0.0,0.0,0.0,0.0,0.006197656678535751,0.5965087742433325,0.2704799099867887,0.3463319745928047,0.008206149122658863,0.006886090134779182,0.04897605761306055
4062,9.0,299.80983,-4208.1244,0.04061998669737377,0.0,0.0,0.0,0.0,0.006199184296421495,0.5895605434050954,0.3081970101191767,0.38140718720945865,0.021887136376592183,0.008141825979810662,0.06275478469416504
4063,9.0,300.57829,-4359.7132,0.0406299963720711,0.0,0.0,0.0,0.0,0.006200711914307183,0.6209729987652634,0.31945057102981667,0.38482038096631466,0.017174048119446585,-0.003102308867799047,0.06547502380038174
4064,9.0,299.92616,-4224.3814,0.040639973011538544,0.0,0.0,0.0,0.0,0.006202234490549713,0.6176466202769755,0.3111806466286387,0.3552791958908267,0.0036092080019510964,-0.019461654764215783,0.07566722853602402
4065,9.0,299.95382,-4027.9284,0.0406499826862361,0.0,0.0,0.0,0.0,0.006203762108435457,0.6102642826983954,0.2886711740671267,0.32545417919732667,-0.01102494635682749,0.0003867755990217796,0.053559321174643446
4066,9.0,300.15496,-4041.1982,0.04065999236093365,0.0,0.0,0.0,0.0,0.0062052897263212,0.6246497084756264,0.2771102944011567,0.3266633513366627,-0.014724380227183186,0.005933167425858034,0.059450907450847745
4067,9.0,299.69927,-4221.4206,0.040669969000400874,0.0,0.0,0.0,0.0,0.006206812302563702,0.6294805100498895,0.29245604822566473,0.36126988511956165,-0.013541079402650487,0.009404240054926231,0.06062973274968874
4068,9.0,299.61675,-4381.5475,0.04067997867509843,0.0,0.0,0.0,0.0,0.006208339920449446,0.6220650594580414,0.3058411327091697,0.4039748304592116,-0.001000452528321977,0.005590939671457785,0.049052594472614154
4069,9.0,299.83072999999996,-4261.7162,0.04068998834979598,0.0,0.0,0.0,0.0,0.00620986753833519,0.6065093500803124,0.3010450856133367,0.38790088418533664,0.007555555013650222,-0.0021214093103667977,0.06288698444796213
4070,9.0,299.32525,-4157.8096,0.040699964989263204,0.0,0.0,0.0,0.0,0.0062113901145777195,0.6151058855187245,0.29326861401085874,0.3554957882322027,0.0007190944868516003,-0.0040484578984766855,0.04179031993813346
4071,9.0,300.39347999999995,-4325.5826,0.040709974663960535,0.0,0.0,0.0,0.0,0.006212917732463408,0.6359422085876093,0.3053386011895737,0.3735883110902956,-0.0005039746511834256,-0.013332014496267388,0.05744040039042614
4072,9.0,300.51178,-4462.6054,0.04071998433865809,0.0,0.0,0.0,0.0,0.0062144453503491515,0.6705229450229624,0.3197086154327837,0.36628907015241663,-0.0024471009244600573,-0.01013174004917489,0.030329959748333968
4073,9.0,300.1101,-4289.5864,0.04072999401335564,0.0,0.0,0.0,0.0,0.006215972968234895,0.6187344861143395,0.3085244418889917,0.37666823675676064,0.006576990896373464,0.0032901552025130366,0.05868887244814074
4074,9.0,299.99343,-4060.216,0.04073997065282309,0.0,0.0,0.0,0.0,0.006217495544477425,0.5891667741512335,0.28255003902051773,0.3624874773672287,-0.002659973016768898,0.012271200410073188,0.04107284666157436
4075,9.0,300.00157,-4122.4204,0.04074998032752042,0.0,0.0,0.0,0.0,0.006219023162363141,0.6061954046693284,0.29029083408697476,0.3566266260063077,-0.0055491942739628345,0.0015132097881921786,0.06605936209330143
4076,9.0,300.09177,-4253.1809,0.04075999000221797,0.0,0.0,0.0,0.0,0.006220550780248857,0.6369758554121224,0.2816710040287637,0.37421393223203964,-0.006320364232946384,-0.01132234640692859,0.04030381010067636
4077,9.0,300.182,-4335.9716,0.04076996664168542,0.0,0.0,0.0,0.0,0.006222073356491414,0.6547206511008974,0.3029360129499567,0.36037043313829265,0.009084799180699871,-0.011024779170560989,0.049740182950723855
4078,9.0,299.34887000000003,-4398.880999999999,0.04077997631638275,0.0,0.0,0.0,0.0,0.006223600974377103,0.6583077489724163,0.2937401096798917,0.3851021151566197,0.0027356616846637874,-0.0030973349243831566,0.03841333467360096
4079,9.0,299.68483,-4208.2986,0.040789985991080524,0.0,0.0,0.0,0.0,0.006225128592262874,0.6246155518147554,0.2843143100946377,0.37028782114206266,0.002578778955780668,-0.013558044249074787,0.06562865987329443
4080,9.0,300.08227,-4217.552,0.040799995665777855,0.0,0.0,0.0,0.0,0.00622665621014859,0.5926445423369624,0.3144002386888877,0.3749857045682076,-0.009013678649555821,0.008150343461476273,0.07115598577829903
4081,9.0,299.26345,-4389.6405,0.0408099723052453,0.0,0.0,0.0,0.0,0.00622817878639112,0.6388498310745694,0.30562715455305167,0.38986411704909263,0.0025427174860466776,0.01836585112556838,0.06649627047017094
4082,9.0,299.93856,-4223.7666,0.04081998197994263,0.0,0.0,0.0,0.0,0.006229706404276836,0.6229496875903474,0.30665871408235873,0.35431118740779166,0.006295380423905674,0.021750969748653582,0.07748359991703593
4083,9.0,300.51971000000003,-3842.8272,0.04082999165464041,0.0,0.0,0.0,0.0,0.006231234022162607,0.6079472228997194,0.26023431001062675,0.29994199062696975,-0.006050318287844925,-0.00960611797835003,0.06667812454511853
4084,9.0,300.14206,-3954.1802,0.04083996829410763,0.0,0.0,0.0,0.0,0.006232756598405109,0.6093209975178004,0.2715229395072277,0.32112812816037867,-0.0030491687636545273,-0.01181931720997579,0.06845769164274813
4085,9.0,300.26703,-4249.3555,0.040849977968805185,0.0,0.0,0.0,0.0,0.006234284216290825,0.6117431718818503,0.3099398002911767,0.37001499342013666,0.010634964631839291,-0.006078364037362824,0.06890206564635443
4086,9.0,300.74034,-4422.1834,0.04085998764350274,0.0,0.0,0.0,0.0,0.006235811834176569,0.6340943241152374,0.3053783813884997,0.4047606261767636,0.010696436488906091,0.014166213171096387,0.04928642523794145
4087,9.0,301.27612999999997,-4497.7339,0.04086999731820007,0.0,0.0,0.0,0.0,0.006237339452062285,0.6415857076695795,0.3178062485025347,0.4078068207473996,0.002337988783466528,-0.007707142598835753,0.05935462842634574
4088,9.0,301.0575,-4255.2116,0.040879973957667515,0.0,0.0,0.0,0.0,0.006238862028304815,0.6377030244788884,0.2897332526894457,0.3660418168630147,-0.025820333124518476,0.008263291767348403,0.04544122520819975
4089,9.0,300.38018999999997,-4182.2374,0.040889983632364846,0.0,0.0,0.0,0.0,0.006240389646190531,0.6370666628860844,0.28113988872384676,0.35308918752218965,-0.008058683742855162,-0.007790096269947643,0.040763894547083165
4090,9.0,299.71697,-4401.318,0.04089999330706262,0.0,0.0,0.0,0.0,0.006241917264076274,0.6713598592080593,0.2858442873481348,0.3806866245333446,0.003670798307954587,-0.0014072510841598685,0.039385783218574166
4091,9.0,300.25206000000003,-4432.5346,0.040909969946529845,0.0,0.0,0.0,0.0,0.006243439840318804,0.6394774888490143,0.30657836334942873,0.40132397568009265,0.017605719006549184,-0.010755831183267889,0.06105532818919174
4092,9.0,299.76596,-4040.3893,0.0409199796212274,0.0,0.0,0.0,0.0,0.00624496745820452,0.6178817652276823,0.2560068279434068,0.3542888756405897,0.0008591477395237802,-0.0032854939480780067,0.05705285249217815
4093,9.0,300.16957,-3946.1429,0.04092998929592495,0.0,0.0,0.0,0.0,0.006246495076090264,0.5731307132985974,0.28803841964467874,0.33835976333600865,0.0005323127436201775,0.01068077569536049,0.08027798461257021
4094,9.0,299.66561,-4226.4588,0.0409399659353924,0.0,0.0,0.0,0.0,0.0062480176523327935,0.6338507995862034,0.2895109152200027,0.3613762358500576,-0.004933582624656696,0.02211919598074468,0.06930954822706983
4095,9.0,299.94366,-4391.7432,0.04094997561008973,0.0,0.0,0.0,0.0,0.0062495452702185095,0.6561477530717414,0.31377663391484273,0.36505588398571065,-0.0025863166245995773,-0.013824167295089087,0.05942948126423314
4096,9.0,300.209,-4208.3034,0.04095998528478728,0.0,0.0,0.0,0.0,0.006251072888104253,0.6214677383915904,0.3128434103077407,0.3449080136972707,-0.01053192013641959,-0.01013957956519859,0.06982720554415864
4097,9.0,300.11163,-4064.3231,0.040969994959484834,0.0,0.0,0.0,0.0,0.006252600505989969,0.5894206439637885,0.2781715117608908,0.36786058052751264,-0.0013878680150469086,-0.017302506953874485,0.05847052718409174
4098,9.0,300.07524,-4178.6332,0.04097997159895206,0.0,0.0,0.0,0.0,0.006254123082232527,0.6053714600855115,0.29980960950140473,0.3650191030070806,0.009985609322402911,-0.0038132679594652464,0.07379988966173202
4099,9.0,300.12182,-4413.2872,0.04098998127364961,0.0,0.0,0.0,0.0,0.006255650700118215,0.6307145473466794,0.30283258037974875,0.4079819914246876,0.008556417016602612,-0.00951045126088346,0.06028317588423624
4100,9.0,300.26906,-4414.6758,0.040999990948347165,0.0,0.0,0.0,0.0,0.006257178318003959,0.6590793186585644,0.3090856101918747,0.37378625962983164,-0.0011400636189155188,0.008319703453415803,0.06844492773123843
4101,9.0,300.28862000000004,-4055.2011,0.04100996758781439,0.0,0.0,0.0,0.0,0.006258700894246488,0.6306924888920025,0.2663868659428367,0.33560052119369266,-0.003936115009539306,0.00913763247271411,0.053144555352209244
4102,9.0,301.47015,-3841.0409999999997,0.04101997726251194,0.0,0.0,0.0,0.0,0.006260228512132204,0.5783407845177915,0.25839180589628574,0.3308479830571537,-0.002183537246873348,0.005157826726812865,0.07370825233593814
4103,9.0,300.40414,-4221.8162,0.04102998693720927,0.0,0.0,0.0,0.0,0.006261756130017948,0.6222878022275243,0.3047302255645317,0.3563086681249277,0.01181683778698109,-0.01160817615413779,0.059093649651089146
4104,9.0,299.77243,-4436.4535,0.041039996611906826,0.0,0.0,0.0,0.0,0.006263283747903664,0.6452477151209913,0.3177345103954547,0.38558883997465565,0.0036544081769870063,-0.02052731421238818,0.061254337601582436
4105,9.0,300.02567999999997,-4275.5842,0.04104997325137427,0.0,0.0,0.0,0.0,0.0062648063241462215,0.6316117904427304,0.29634984676995274,0.37170920838234267,0.012407867583561188,0.004378824141906296,0.05007538533555575
4106,9.0,299.75002,-4100.4389,0.0410599829260716,0.0,0.0,0.0,0.0,0.00626633394203191,0.6205513955311543,0.2797106285302898,0.34616903384422365,-0.03180639585329687,0.007858944182442403,0.048094389184296656
4107,9.0,300.0658,-4213.623,0.041069992600769156,0.0,0.0,0.0,0.0,0.0062678615599176535,0.6437344058316394,0.28529841912176174,0.3518033528802877,-0.018592932631979583,0.006756403849180144,0.04278426357072806
4108,9.0,300.02279,-4489.1575,0.0410799692402366,0.0,0.0,0.0,0.0,0.006269384136160183,0.6470155224379603,0.30372554756037773,0.4138507056063846,-0.017022629037752684,0.011740122595409888,0.043853452168998754
4109,9.0,299.85315,-4515.8666,0.041089978914934155,0.0,0.0,0.0,0.0,0.006270911754045927,0.6623648429028204,0.3110100659743037,0.3993357763338726,0.012655466391247289,0.007859396091987002,0.06382269761055984
4110,9.0,299.95715,-4119.2781,0.041099988589631486,0.0,0.0,0.0,0.0,0.006272439371931643,0.6078165845643264,0.27033893650037577,0.37400216296113964,0.016763109342640085,-0.004904346914221355,0.06600973006365314
4111,9.0,300.48246,-3869.3347,0.041109965229099155,0.0,0.0,0.0,0.0,0.0062739619481742,0.5951439263586324,0.2584640810259187,0.32257312412798866,4.463621725550166e-05,-0.02818943750133087,0.07599345859122042
4112,9.0,299.81658,-4183.1103,0.041119974903796486,0.0,0.0,0.0,0.0,0.006275489566059916,0.6298672676130593,0.29661418345604074,0.34507962786670765,-0.003976062192081786,-0.00879194051754697,0.06592927192621253
4113,9.0,299.99702,-4387.2078,0.04112998457849382,0.0,0.0,0.0,0.0,0.006277017183945605,0.6560964218216754,0.3043081663678777,0.3731970242991786,0.00030246645258861474,-0.0005600898602715655,0.05599129974666104
4114,9.0,299.83394,-4264.3395,0.04113999425319137,0.0,0.0,0.0,0.0,0.006278544801831348,0.6032557533467074,0.31758970682366366,0.37540726727231266,0.009057731622828512,0.016767571696080483,0.05922530528958254
4115,9.0,299.716,-4116.0767,0.041149970892658816,0.0,0.0,0.0,0.0,0.006280067378073878,0.6061347515183425,0.2875201219535267,0.35752967502543165,0.0015420550933639885,-0.004587978518273226,0.05269086248743325
4116,9.0,299.78328,-4208.4187,0.04115998056735637,0.0,0.0,0.0,0.0,0.006281594995959622,0.6055307936637364,0.29991260637406975,0.37381081067975463,0.002959198335600137,0.0036857894445090963,0.053604144319317155
4117,9.0,298.9121,-4506.5094,0.0411699902420537,0.0,0.0,0.0,0.0,0.006283122613845338,0.6731906298862425,0.3123756332665747,0.3843000567749626,-0.0067214936342097735,0.0007736736087881403,0.04117746777414966
4118,9.0,299.37275,-4549.303,0.04117996688152137,0.0,0.0,0.0,0.0,0.006284645190087895,0.6739447210081654,0.3119579715753547,0.39697183345306963,-0.01195173177279409,-0.008521510550657613,0.05083492065026605
4119,9.0,300.29911,-4240.777,0.0411899765562187,0.0,0.0,0.0,0.0,0.006286172807973611,0.6367431523941564,0.28739986943165874,0.36494730410499465,-0.015922260707404785,0.005595381557246165,0.04934638937885945
4120,9.0,300.19396,-4087.1726,0.04119998623091625,0.0,0.0,0.0,0.0,0.006287700425859327,0.5953368086476684,0.2818231840612827,0.3652384311237266,-0.012455447781756989,0.00911528473513356,0.06729754256975035
4121,9.0,300.29152,-4190.3279,0.04120999590561358,0.0,0.0,0.0,0.0,0.006289228043745043,0.6234014755449354,0.2846773778704697,0.36567619569693066,0.008633185099829032,0.015438180472129784,0.055312292483648245
4122,9.0,300.25777,-4351.3443,0.04121997254508125,0.0,0.0,0.0,0.0,0.006290750619987601,0.6332576024476594,0.3073525168233317,0.3820899049943376,0.01035465608442499,-0.00894372386265182,0.07698743971406873
4123,9.0,299.5732,-4310.0297,0.04122998221977858,0.0,0.0,0.0,0.0,0.006292278237873317,0.6457739465604264,0.2940493130804077,0.37031813758505466,0.01964129894069528,-0.004275667682350546,0.06002724613422795
4124,9.0,299.7736,-4022.1649,0.041239991894475914,0.0,0.0,0.0,0.0,0.006293805855759033,0.6127829286044665,0.2751282150855407,0.3347265625849397,0.0005778618414605235,-0.004925511378335125,0.06207179941125965
4125,9.0,300.46382,-4152.2487,0.04124996853394358,0.0,0.0,0.0,0.0,0.00629532843200159,0.6080260334924974,0.2940492725504037,0.36010460697455765,-0.0015489085143903685,0.004878535279848946,0.044319018298446554
4126,9.0,299.52976,-4512.3698,0.04125997820864091,0.0,0.0,0.0,0.0,0.006296856049887306,0.6502154979762734,0.3143674701806537,0.4070647873016666,0.0004357338781485855,0.004362166918212356,0.04761751011748236
4127,9.0,299.82513,-4580.8536,0.041269987883338466,0.0,0.0,0.0,0.0,0.006298383667773022,0.6599552835025153,0.3128469060205857,0.4196629209625056,-0.003986288216066017,-0.003025745663742847,0.03525012086216607
4128,9.0,299.25516,-4331.3075,0.04127996452280591,0.0,0.0,0.0,0.0,0.006299906244015552,0.6303422488624364,0.3031183675704537,0.3831487006863326,0.004047851670941856,-0.003202307330768127,0.06384315006382835
4129,9.0,299.35132000000004,-4115.7656,0.041289974197503465,0.0,0.0,0.0,0.0,0.0063014338619012955,0.6215560026078014,0.28240201331340875,0.34713194567925565,-0.02146229175541328,-0.014370986963305988,0.05306837211694055
4130,9.0,299.47604,-4229.7691,0.041299983872200796,0.0,0.0,0.0,0.0,0.0063029614797870115,0.6437162483898474,0.28620165052590374,0.3558262901498207,0.0015847412935767887,-0.021582938431570182,0.07297876596619343
4131,9.0,299.65145,-4404.9921,0.04130999354689835,0.0,0.0,0.0,0.0,0.006304489097672755,0.6481807397879584,0.3113607720989157,0.37946610399288866,0.0017879008770520784,-0.003975203665272056,0.07085508494910243
4132,9.0,299.3902,-4225.0861,0.04131997018636557,0.0,0.0,0.0,0.0,0.006306011673915285,0.6157427740015804,0.3009419164881547,0.36763597337784565,0.02529991470090718,0.023264060175983977,0.07640580578566593
4133,9.0,300.03489,-3986.4875,0.041329979861063126,0.0,0.0,0.0,0.0,0.006307539291801029,0.5927531830126844,0.2825757451755547,0.3364637494838867,0.013536759917474188,0.025814796725972075,0.06351191556638804
4134,9.0,299.73568,-4035.2179,0.04133998953576068,0.0,0.0,0.0,0.0,0.006309066909686717,0.5808337141363245,0.29533893727768373,0.3504328206625267,-0.0021088591946281984,0.006607825819441634,0.08274880004767071
4135,9.0,299.8849,-4308.5499,0.041349966175228126,0.0,0.0,0.0,0.0,0.006310589485929274,0.6543340252602403,0.29812301417995074,0.3572345254038026,-0.003931922889900577,-0.0028768129964693375,0.04757083981787636
4136,9.0,299.69592,-4541.1594,0.04135997584992546,0.0,0.0,0.0,0.0,0.00631211710381499,0.6613094719961634,0.3272770566572307,0.3918125361963866,-0.007215966775760473,-0.027140233234782474,0.06258408346306814
4137,9.0,299.69862,-4375.55,0.04136998552462279,0.0,0.0,0.0,0.0,0.006313644721700706,0.6431673201481724,0.3101398867884237,0.3767507254474017,-0.003039094220560247,-0.01060525208590689,0.04313959720854676
4138,9.0,299.85126,-4132.0726,0.04137999519932034,0.0,0.0,0.0,0.0,0.00631517233958645,0.6083301301125095,0.27832147277569075,0.36939528965897667,-0.007156478761064463,-0.01894230835921028,0.04793777516934005
4139,9.0,300.65805,-4262.0752,0.04138997183878779,0.0,0.0,0.0,0.0,0.00631669491582898,0.6394782690515914,0.2804787734310997,0.37560739429956363,0.0019725618574266985,0.01991016688123048,0.03780780729459006
4140,9.0,300.34527,-4507.3683,0.04139998151348534,0.0,0.0,0.0,0.0,0.0063182225337147235,0.6530706949030594,0.3073483422329197,0.4097083770775686,0.005794919886189064,0.016526800167568183,0.05509085680679425
4141,9.0,300.55323,-4408.2303,0.04140999118818267,0.0,0.0,0.0,0.0,0.006319750151600412,0.6732616789832544,0.29614449137218574,0.37058578759896965,0.00978737474236368,0.013199952544483886,0.05485208948697975
4142,9.0,300.27021,-4107.9147,0.04141996782765034,0.0,0.0,0.0,0.0,0.006321272727842969,0.6049995061063024,0.28530535988494676,0.35839862817869067,-0.0019500343692784082,-0.005519134385896155,0.07186846879811563
4143,9.0,300.02738,-4001.8095,0.04142997750234767,0.0,0.0,0.0,0.0,0.006322800345728685,0.6049859285549624,0.27151153031110176,0.3399527039507197,-0.013958289184325887,0.001860949724461438,0.06719302582193534
4144,9.0,299.57882,-4146.9179,0.04143998717704522,0.0,0.0,0.0,0.0,0.006324327963614429,0.6138254920298594,0.2965562559478237,0.35017775521485367,0.007635006993741523,0.0013506956179032787,0.061486903830784936
4145,9.0,299.62977,-4310.9259999999995,0.041449996851742554,0.0,0.0,0.0,0.0,0.006325855581500145,0.6370608063005063,0.3040517026350667,0.36930136137470665,-0.01040675740456699,0.009805986829475552,0.05206981616989075
4146,9.0,299.74527,-4332.143,0.04145997349121022,0.0,0.0,0.0,0.0,0.006327378157742702,0.6244148877649515,0.31067128580336867,0.3817771146884676,0.0056818573870306656,-0.004943098461645835,0.06304079378664194
4147,9.0,299.92687,-4216.4193,0.041469983165907554,0.0,0.0,0.0,0.0,0.006328905775628418,0.6380793556985294,0.2931632056029557,0.3504436421735947,-0.01995963071136218,-0.001015675314114349,0.05619281796629935
4148,9.0,300.78521,-4367.1713,0.041479992840604885,0.0,0.0,0.0,0.0,0.006330433393514107,0.6328506204124934,0.3083046578098007,0.3863557588428447,-0.001015640458310909,0.00086526483170249,0.05913828838424465
4149,9.0,300.8066,-4562.4446,0.04148996948007255,0.0,0.0,0.0,0.0,0.006331955969756664,0.6726222269776454,0.3190328282785887,0.39521416876960164,-0.004679810894711376,-0.008395246111971282,0.05879567711468154
4150,9.0,300.54646,-4439.0469,0.041499979154769884,0.0,0.0,0.0,0.0,0.00633348358764238,0.6552115302443434,0.3071854318818417,0.3869624626052216,0.007480129588131313,-0.016963622418179183,0.05807120531968174
4151,9.0,300.43849,-4016.6819,0.04150998882946744,0.0,0.0,0.0,0.0,0.006335011205528124,0.6037999598429165,0.26680860089945874,0.3503624504430817,0.008862685538203961,0.007745046461226573,0.05574007249036685
4152,9.0,300.30523999999997,-3976.0866,0.04151996546893488,0.0,0.0,0.0,0.0,0.0063365337817706535,0.5968798162974515,0.2720765084343607,0.33967470865328364,0.004355159584495786,0.002404733290078698,0.06650581427286284
4153,9.0,299.81923,-4215.1295,0.041529975143632436,0.0,0.0,0.0,0.0,0.006338061399656397,0.6380684936574573,0.28626087499424874,0.35696473743217666,-0.011169024441546889,0.012414429391208789,0.07862051009899022
4154,9.0,300.19399,-4354.3477,0.04153998481832977,0.0,0.0,0.0,0.0,0.006339589017542113,0.6280759326287684,0.31366472044129773,0.3818723298003647,-0.014354731391951685,-0.01080859820872559,0.07443837806649592
4155,9.0,300.0302,-4319.8611,0.04154999449302732,0.0,0.0,0.0,0.0,0.006341116635427829,0.6483354124157233,0.30751696731456174,0.35727751760554566,3.613031602528456e-05,0.011853111127310988,0.05841161277027735
4156,9.0,300.30206,-4240.9686,0.041559971132494766,0.0,0.0,0.0,0.0,0.006342639211670359,0.6310016416300134,0.2957158561823827,0.3624310494691596,0.008468126759864043,-0.003242730436882577,0.04476017117998495
4157,9.0,300.38329,-4302.9621,0.04156998080719232,0.0,0.0,0.0,0.0,0.006344166829556103,0.6267618891040824,0.30375757639603873,0.37747355780373965,-0.0022887633710833577,-0.0018422030777362885,0.038182928693611666
4158,9.0,300.1495,-4524.8431,0.04157999048188965,0.0,0.0,0.0,0.0,0.006345694447441819,0.6549803977640324,0.31784349557621067,0.4026154034625466,0.002810242870199377,-0.0008867771344430891,0.03785975966696736
4159,9.0,299.86444,-4572.811,0.041589967121357097,0.0,0.0,0.0,0.0,0.006347217023684348,0.6556464678497683,0.3263039211286897,0.40806996179836963,-0.00952175386309894,0.012262749904239187,0.029238714721886473
4160,9.0,299.89403,-4211.3392,0.04159997679605465,0.0,0.0,0.0,0.0,0.006348744641570092,0.6226958279102934,0.2900328808765167,0.3674132508733646,-0.009823498932278862,0.01074571590751959,0.06149300562288715
4161,9.0,299.7249,-4029.873,0.04160998647075198,0.0,0.0,0.0,0.0,0.00635027225945578,0.6244405635224854,0.27560819165791073,0.3249320007582917,-0.018100316777862183,-0.0023409898276127074,0.06069410250204154
4162,9.0,300.07556,-4169.1476,0.041619996145449534,0.0,0.0,0.0,0.0,0.006351799877341524,0.6196420643614103,0.29183524002189576,0.35583946240112063,0.003316347818923047,-0.01036951438389139,0.07826063203447302
4163,9.0,300.10399,-4319.8611,0.04162997278491698,0.0,0.0,0.0,0.0,0.006353322453584054,0.6296001039591923,0.3048071008496187,0.3787226925270197,0.015789419566294382,0.011459800875744289,0.05657584980885165
4164,9.0,299.83895,-4326.7906,0.04163998245961431,0.0,0.0,0.0,0.0,0.0063548500714697975,0.6293672590862124,0.3040754329524087,0.3817936002675946,0.02204926855159338,0.006944333067752313,0.07122102934196833
4165,9.0,299.85483,-4286.6401,0.041649992134311864,0.0,0.0,0.0,0.0,0.0063563776893555135,0.6142819915974124,0.3117102217934037,0.3770393497383866,-0.0037926287642033162,0.0017878241740195084,0.06681071136045384
4166,9.0,299.82347999999996,-4249.6607,0.04165996877377909,0.0,0.0,0.0,0.0,0.006357900265598043,0.6247925868722274,0.3080422564314037,0.35895588533618766,-0.014633165426680987,-0.01938025126443188,0.06887379292881414
4167,9.0,299.97427000000005,-4367.1297,0.04166997844847664,0.0,0.0,0.0,0.0,0.006359427883483787,0.6584397957254483,0.30180493199582775,0.36725364371761265,0.006267571369611134,0.006282820682291124,0.030695221210632468
4168,9.0,300.12754,-4438.1086,0.041679988123174194,0.0,0.0,0.0,0.0,0.006360955501369531,0.6517924799019094,0.30627213890420674,0.39100959628714266,-0.001243904630238829,-0.008078091433945552,0.035529197297458764
4169,9.0,300.77946000000003,-4289.3245,0.04168996476264142,0.0,0.0,0.0,0.0,0.006362478077612033,0.6378343315593474,0.29692890906960173,0.36908431307078565,0.008997011496010902,-0.005799646900555584,0.038098043666484165
4170,9.0,300.27864,-4149.741,0.04169997443733897,0.0,0.0,0.0,0.0,0.006364005695497749,0.6127644063926384,0.2779714860586497,0.37068176264844166,-0.015040307555362786,-0.02174974168953238,0.04471230625851105
4171,9.0,300.43566,-4272.694,0.041709984112036524,0.0,0.0,0.0,0.0,0.006365533313383492,0.6156065830556394,0.30097236465365973,0.3822133391215196,0.0024986448557220474,0.013146060811415188,0.06161829703750245
4172,9.0,299.92753,-4383.7018,0.041719993786733856,0.0,0.0,0.0,0.0,0.006367060931269208,0.6500753857524454,0.2977970718877827,0.38466342852582464,-0.004637345177720336,0.02005013319704408,0.06611631890792265
4173,9.0,299.20998,-4361.7449,0.0417299704262013,0.0,0.0,0.0,0.0,0.006368583507511738,0.6727155777093584,0.29110850665267274,0.36203745246781466,-0.0059099144506381445,0.013174860419007487,0.07146482035577863
4174,9.0,299.26221,-4211.6552,0.041739980100898855,0.0,0.0,0.0,0.0,0.006370111125397482,0.6227740710830154,0.2960713955099717,0.36139254917666763,0.008555059666768651,-0.004808597616871635,0.05977473103705664
4175,9.0,299.34995,-4164.5098,0.04174998977559641,0.0,0.0,0.0,0.0,0.006371638743283198,0.6177735095869984,0.2889433229114857,0.35919013862680665,0.01775304759758938,-0.002935952250480927,0.05000005728337145
4176,9.0,299.50272,-4394.5972,0.04175996641506363,0.0,0.0,0.0,0.0,0.0063731613195257275,0.6298708241209103,0.3062014039147257,0.3997755876722786,0.02637406214516727,-0.025450911257309375,0.024978665783202375
4177,9.0,300.04706,-4550.2146,0.04176997608976141,0.0,0.0,0.0,0.0,0.006374688937411471,0.6449324322198754,0.34036847086425265,0.3978507063248076,0.0004619774914361286,-0.01845602227846758,0.05568944848887065
4178,9.0,300.2653,-4399.138,0.04177998576445874,0.0,0.0,0.0,0.0,0.006376216555297187,0.6470362839325094,0.3029319194195527,0.3872599021720766,-0.018345676302827282,-0.015689653948198285,0.030316282898484172
4179,9.0,300.11287000000004,-4146.2393,0.04178999543915629,0.0,0.0,0.0,0.0,0.006377744173182931,0.6412413343580924,0.2776083574878117,0.3415035237587737,-0.01120580947317729,0.017581934986951882,0.058152524719707346
4180,9.0,300.17019,-4234.5726,0.041799972078623515,0.0,0.0,0.0,0.0,0.006379266749425433,0.6154988644375085,0.30214018605641474,0.36956527249575266,-0.005158895199043315,0.024510502693748274,0.05379210221286715
4181,9.0,299.50813,-4445.8693,0.04180998175332129,0.0,0.0,0.0,0.0,0.006380794367311204,0.6640657858456903,0.30702567273857473,0.3803418053918136,0.002378350385299908,0.008571845370575272,0.07525673862901183
4182,9.0,299.78735,-4425.0819,0.04181999142801862,0.0,0.0,0.0,0.0,0.006382321985196893,0.6295688553261084,0.32101046955876666,0.3945350784200806,-0.0028500438407524273,-0.01022894822401859,0.07480656984808363
4183,9.0,299.56599,-4101.2661,0.04182996806748607,0.0,0.0,0.0,0.0,0.00638384456143945,0.6111569965664994,0.2879699442029207,0.34755553488356067,0.003075025892956427,0.007414190716673653,0.08924661588520523
4184,9.0,299.32097000000005,-4087.2523,0.04183997774218362,0.0,0.0,0.0,0.0,0.006385372179325166,0.6059381506014394,0.2914108604825127,0.34507363955861664,0.002859661509376617,-0.001021389943353339,0.06560677367113443
4185,9.0,299.04992000000004,-4268.7676,0.04184998741688095,0.0,0.0,0.0,0.0,0.006386899797210882,0.6421305626458523,0.3063811038199607,0.34908707254221166,-0.013293111771927988,-0.0009392400126182721,0.06110630682822295
4186,9.0,298.901,-4502.9829,0.041859997091578505,0.0,0.0,0.0,0.0,0.006388427415096626,0.6606433613804233,0.3058260352826797,0.4023249451888806,-0.0020632782402047077,0.0023192661507687477,0.03989279431686226
4187,9.0,299.57467,-4433.8347,0.04186997373104573,0.0,0.0,0.0,0.0,0.006389949991339128,0.6604348243773424,0.3044132809332517,0.3829269306369456,0.014001106093801587,0.006209375958067693,0.037027680711347565
4188,9.0,300.38232,-4266.5362,0.041879983405743504,0.0,0.0,0.0,0.0,0.006391477609224899,0.6236082190953395,0.2917935954427857,0.38151863458795765,0.006408121925432394,0.005688771197763005,0.031863116580644765
4189,9.0,299.6185,-4422.5267,0.041889993080440835,0.0,0.0,0.0,0.0,0.0063930052271105875,0.6415339407219705,0.3075718956024827,0.39523184998384664,-0.0052876472680501545,-0.026524820587795976,0.05587704667863515
4190,9.0,299.92704,-4538.7726,0.04189996971990828,0.0,0.0,0.0,0.0,0.006394527803353145,0.6719352028798413,0.3147072332041857,0.39303111129665064,-0.008332689469347423,-0.0038398080193345462,0.051825322973761155
4191,9.0,299.93744,-4498.0535,0.041909979394605834,0.0,0.0,0.0,0.0,0.006396055421238861,0.6703849808893464,0.3026150051857757,0.3942959716614826,0.0015056022051163685,0.02590160186203908,0.05913042151046824
4192,9.0,299.55181,-4257.0397,0.04191998906930339,0.0,0.0,0.0,0.0,0.006397583039124605,0.6276859124002764,0.2978011755506877,0.36854667243522465,0.00034933757836443465,0.02757272282796587,0.06931438750954744
4193,9.0,299.3603,-4069.1409999999996,0.04192996570877061,0.0,0.0,0.0,0.0,0.006399105615367107,0.6145306634369544,0.2877216877959197,0.3346648961838537,-0.0028106052084351375,0.008193869240721931,0.08658459205023392
4194,9.0,299.92059,-4189.6617,0.041939975383468164,0.0,0.0,0.0,0.0,0.00640063323325285,0.6127803954792164,0.2908056563302837,0.36996649927035063,-0.005525308220080465,0.0009758038112218381,0.06963613494630143
4195,9.0,299.98634,-4350.5111,0.04194998505816572,0.0,0.0,0.0,0.0,0.006402160851138594,0.6431248447039805,0.3057485824450357,0.37357332512131664,0.01805230088212338,0.0033316740372856266,0.06524232078241574
4196,9.0,300.86927000000003,-4241.0905,0.04195999473286305,0.0,0.0,0.0,0.0,0.006403688469024282,0.6227124654769354,0.3021567830930527,0.36431637353272667,0.0011814172939218087,-0.0029626046797863173,0.06331416157087123
4197,9.0,300.23172,-4256.1728,0.04196997137233027,0.0,0.0,0.0,0.0,0.00640521104526684,0.6117804898830334,0.3104121876202977,0.3715775669293507,-0.0011636105379894189,-0.01830464879302818,0.04184057309009306
4198,9.0,300.39062,-4403.1187,0.041979981047027826,0.0,0.0,0.0,0.0,0.006406738663152556,0.6285433550323993,0.31735144106264873,0.3925433428310116,-0.018400806227518184,-0.012762430138053789,0.056807537550217446
4199,9.0,300.60802,-4488.5813,0.04198999072172538,0.0,0.0,0.0,0.0,0.0064082662810382995,0.6557653220864984,0.3065999962390637,0.40205131699937563,0.011609058694974887,0.005479827678741885,0.03238626166027517
4200,9.0,300.60837999999995,-4413.7605,0.0419999673611926,0.0,0.0,0.0,0.0,0.0064097888572808015,0.6382239768853024,0.3115307144056877,0.39191827897682263,0.002034714719885708,-0.002087162571561908,0.06793789535469823
4201,9.0,300.2073,-4272.6784,0.042009977035890156,0.0,0.0,0.0,0.0,0.006411316475166545,0.6394042815292894,0.29564253740514673,0.36374072588591466,0.00999190109889886,-0.017765827721100684,0.06870894119054453
4202,9.0,299.50088,-4113.845,0.04201998671058771,0.0,0.0,0.0,0.0,0.006412844093052289,0.6238186610086084,0.27159575165941374,0.3550917344898256,-0.003446468282189936,-0.004121414641451956,0.06605563738593384
4203,9.0,299.90053,-4124.9381,0.04202999638528526,0.0,0.0,0.0,0.0,0.006414371710938005,0.6118206753819994,0.2870499435096237,0.35500757393651966,0.008857621212879151,0.01948770035803628,0.05930473092517124
4204,9.0,300.23882000000003,-4320.5312,0.042039973024752486,0.0,0.0,0.0,0.0,0.006415894287180535,0.6483729128019244,0.2846631619715667,0.3802975263624436,-0.001067983843901799,0.019750542500226783,0.05102118337639875
4205,9.0,300.05619,-4366.7628,0.04204998269945004,0.0,0.0,0.0,0.0,0.006417421905066251,0.6408410195085844,0.3081233164394037,0.37842251718489467,-0.006322566836013764,-0.006630870571765974,0.06686861455066843
4206,9.0,299.53354,-4154.8873,0.04205999237414759,0.0,0.0,0.0,0.0,0.006418949522951994,0.6249005385378814,0.2871103534805857,0.35097108951314965,-0.02779127276853507,0.002643145972358198,0.054423552582436446
4207,9.0,299.95564,-4276.8739,0.04206996901361504,0.0,0.0,0.0,0.0,0.006420472099194524,0.6465073268503054,0.29069115906898374,0.3628643962719276,-0.007688829319178373,0.011150055386424789,0.05019571587768145
4208,9.0,300.19102999999996,-4603.1642,0.04207997868831237,0.0,0.0,0.0,0.0,0.00642199971708024,0.6748646203764523,0.3240971840009017,0.40028516128006963,-0.007759175929896043,-0.0013597907534508987,0.04612317596275305
4209,9.0,300.59414,-4551.4583,0.04208998836300992,0.0,0.0,0.0,0.0,0.006423527334965984,0.6537537470604714,0.3321485908855137,0.3976273454727636,-0.005143523485751245,-0.025401155611148876,0.056616051519819244
4210,9.0,300.68662,-4331.0429,0.04209996500247737,0.0,0.0,0.0,0.0,0.0064250499112085135,0.6367425241790944,0.29813665252629673,0.3816497288858956,-0.0012774763418270988,-0.015099903886494485,0.043477204035865955
4211,9.0,300.37562,-4176.858,0.0421099746771747,0.0,0.0,0.0,0.0,0.0064265775290942295,0.6128815685017014,0.29777279441538673,0.35900617293865067,0.007286741889945433,0.003136124266036367,0.06317333500572274
4212,9.0,299.84758,-4267.1448,0.04211998435187225,0.0,0.0,0.0,0.0,0.0064281051469799455,0.6248713974650054,0.3027619467152777,0.3694721142815587,0.008749452610378742,0.012737999664892688,0.07182615851368992
4213,9.0,299.91607999999997,-4414.7281,0.042129994026569806,0.0,0.0,0.0,0.0,0.006429632764865689,0.6589495821157604,0.3238634576003347,0.3591540466582447,0.008274595889439032,-0.007289935552935623,0.08168282446546712
4214,9.0,300.31808,-4336.1985,0.04213997066603725,0.0,0.0,0.0,0.0,0.006431155341108219,0.6334046858321754,0.3165493117534847,0.36814207153779366,-0.002067988333294558,-0.003186539436686957,0.07388365808724932
4215,9.0,300.19572,-4091.7394,0.04214998034073458,0.0,0.0,0.0,0.0,0.006432682958993935,0.6019377480141304,0.2945464642419727,0.3473023946110777,-0.001227130578808359,0.002533901298251588,0.06591494153004823
4216,9.0,299.91971,-4158.4478,0.042159990015432136,0.0,0.0,0.0,0.0,0.006434210576879679,0.6159607950255974,0.2787270666582197,0.36937645333961766,-0.0073654486245881825,0.006322008535208664,0.043727700738838055
4217,9.0,300.32967,-4478.6758,0.04216996665489958,0.0,0.0,0.0,0.0,0.006435733153122208,0.6447902327008415,0.3210278670629837,0.3955875007689466,-0.007082416460905083,-0.016155909087714086,0.06603070738047344
4218,9.0,300.19709,-4537.4718,0.042179976329597135,0.0,0.0,0.0,0.0,0.006437260771007952,0.6656478745518304,0.3121028055446487,0.40152745656517463,0.0033663627557841366,0.011027635522592888,0.042809130754682255
4219,9.0,300.45698,-4369.5773,0.042189986004294466,0.0,0.0,0.0,0.0,0.00643878838889364,0.6633002146001343,0.3014611767669017,0.3634809994877817,0.005410169672792175,0.01026913574948479,0.05438960566433615
4220,9.0,300.31674,-4354.3631,0.04219999567899202,0.0,0.0,0.0,0.0,0.006440316006779384,0.6435936552602485,0.2962703370346057,0.38375367179103864,0.001081634855874049,0.004342023708874375,0.053058770558992954
4221,9.0,300.53161,-4362.8113,0.042209972318459466,0.0,0.0,0.0,0.0,0.006441838583021914,0.6524005515519214,0.29447246658716975,0.3793126675302457,-0.020319448994123482,-0.018733601130112482,0.06381860104040554
4222,9.0,300.36458999999996,-4407.289000000001,0.0422199819931568,0.0,0.0,0.0,0.0,0.00644336620090763,0.6427684441138064,0.3010928198255477,0.39584454205431463,0.005703448328111525,-0.01132634975807369,0.03658361169602137
4223,9.0,301.02611,-4276.6714,0.04222999166785435,0.0,0.0,0.0,0.0,0.0064448938187933735,0.6297188264734094,0.28696932933166774,0.38331315117756265,0.006827963320267513,0.004097267067718776,0.05991193725959785
4224,9.0,300.75109,-4218.3476,0.042239968307321796,0.0,0.0,0.0,0.0,0.006446416395035903,0.6283092435967944,0.2930720333589577,0.36089107143717564,0.00925068443407147,0.0045781481684530455,0.053308731252662146
4225,9.0,300.16784,-4238.708,0.04224997798201935,0.0,0.0,0.0,0.0,0.006447944012921647,0.6447950355063153,0.29278771538089776,0.3508786507065267,0.0058409484945067345,-0.004393458513100595,0.07342027145876663
4226,9.0,299.93167,-4377.5437,0.04225998765671668,0.0,0.0,0.0,0.0,0.006449471630807335,0.6452874243924104,0.3007807590597497,0.3845957940816496,-0.004529588157410546,0.006003582228307434,0.06359687253427264
4227,9.0,299.89907,-4472.0561,0.042269964296184126,0.0,0.0,0.0,0.0,0.006450994207049893,0.6556343696435744,0.3052407313624147,0.3985182861531926,0.007229407842312003,0.00972750989995548,0.04443826871596566
4228,9.0,299.65875,-4379.3858,0.04227997397088168,0.0,0.0,0.0,0.0,0.006452521824935609,0.6337571550119614,0.2981639292189887,0.39930283557312163,-0.01266721806590709,0.0027210149518182678,0.05634966705527915
4229,9.0,299.33314,-4315.183,0.04228998364557901,0.0,0.0,0.0,0.0,0.006454049442821352,0.6091333334667794,0.3067284864842447,0.39584606192946464,-0.006958641476389443,-0.006560088871455364,0.05272861821265945
4230,9.0,299.55394,-4355.6035,0.04229999332027656,0.0,0.0,0.0,0.0,0.006455577060707068,0.6418378549569644,0.3123217587587577,0.36983509086488164,-0.009302985364483173,-0.01162955573124779,0.06859779576057534
4231,9.0,300.18032999999997,-4381.2822,0.04230996995974401,0.0,0.0,0.0,0.0,0.006457099636949626,0.6527968336660314,0.3035858102390867,0.3754177544108476,0.01021720769510989,0.015816717537238484,0.05419378089700974
4232,9.0,300.19503,-4309.74,0.04231997963444134,0.0,0.0,0.0,0.0,0.006458627254835342,0.6452033246341105,0.3028846310373857,0.36196536985570066,0.012798880797151187,0.014456064507952487,0.08241103515333592
4233,9.0,300.31817,-4168.8388,0.04232998930913889,0.0,0.0,0.0,0.0,0.00646015487272103,0.6309637460762735,0.2864239272003407,0.34983521588604766,0.007261369904791413,-0.005860241283035785,0.06089355369147585
4234,9.0,300.37032,-4029.7001,0.04233996594860634,0.0,0.0,0.0,0.0,0.0064616774489635875,0.5944666497267904,0.27184003612602275,0.35862152293568866,-0.004861974010939475,-0.00927300937352477,0.060737631726337546
4235,9.0,299.70358999999996,-4297.6319,0.04234997562330367,0.0,0.0,0.0,0.0,0.0064632050668493035,0.6243353881621054,0.2927713108617787,0.3892660765750706,0.016794764289014184,-0.005796929262462375,0.042880115003687866
4236,9.0,299.64019,-4532.9891,0.042359985298001224,0.0,0.0,0.0,0.0,0.006464732684735047,0.6643544101366753,0.31719339431205074,0.3963677134784476,0.016326347887035086,-0.009135948552372921,0.06459526129505594
4237,9.0,300.00915,-4464.1213,0.042369994972698555,0.0,0.0,0.0,0.0,0.006466260302620763,0.6575399992391454,0.3137040345451777,0.38573736217431365,-0.0026051821255614577,-0.009797148147528242,0.04588968868920966
4238,9.0,299.60155,-4402.988,0.04237997161216622,0.0,0.0,0.0,0.0,0.006467782878863321,0.6545742364614474,0.30001154011383374,0.38381264294685863,-0.0014951277322076185,0.001989680515216178,0.05659193312768895
4239,9.0,299.90962,-4441.3444,0.042389981286863554,0.0,0.0,0.0,0.0,0.006469310496749037,0.6653431193192534,0.2937272211386197,0.3909874466399566,-0.016017643005568283,0.025815631644054475,0.03572072081811067
4240,9.0,300.44978,-4412.987,0.04239999096156111,0.0,0.0,0.0,0.0,0.006470838114634753,0.6379165264074594,0.31527808817802466,0.3882432512616256,-0.003572683375596397,0.007885462862734591,0.05487145066989054
4241,9.0,299.97157999999996,-4362.3388,0.04240996760102855,0.0,0.0,0.0,0.0,0.006472360690877282,0.6358883442122935,0.3009900357354037,0.38916367751996467,-0.007477213859643553,-0.005902444061625874,0.04614765912491936
4242,9.0,299.48217999999997,-4160.6097,0.042419977275726106,0.0,0.0,0.0,0.0,0.006473888308763026,0.6298862052574284,0.28909880613933076,0.34573644697903066,0.002076657295850118,-0.004604930901721296,0.06748669609841834
4243,9.0,299.68017000000003,-4139.4982,0.04242998695042344,0.0,0.0,0.0,0.0,0.006475415926648742,0.6228064849537144,0.28291853781688575,0.35257907689184564,0.0064981650035189535,0.003153870733587807,0.06232887818688134
4244,9.0,299.59524,-4300.9062,0.04243999662512077,0.0,0.0,0.0,0.0,0.006476943544534458,0.6404756313900234,0.3105599904123847,0.35633246936977664,0.001870832459311788,-0.003551087773565077,0.08052225894667822
4245,9.0,299.56439,-4483.7741,0.042449973264588436,0.0,0.0,0.0,0.0,0.0064784661207770156,0.6506528369844353,0.3259162009779247,0.38638632859836164,-0.0015187240978863986,-0.0041066633411961165,0.07620056184540994
4246,9.0,299.61024,-4508.7596,0.04245998293928577,0.0,0.0,0.0,0.0,0.006479993738662704,0.6458519060231204,0.32586647066301666,0.3988319681191506,-0.0074671841022036925,-0.005828243756802874,0.06530985694133103
4247,9.0,299.58072000000004,-4400.5483,0.04246999261398332,0.0,0.0,0.0,0.0,0.0064815213565484475,0.6418650100596444,0.3133401966992697,0.38245159475003365,0.0049186599838089455,0.009943693800216171,0.05382313097067945
4248,9.0,299.8316,-4421.2564,0.04247996925345077,0.0,0.0,0.0,0.0,0.006483043932790977,0.6442557635380934,0.3267178337945397,0.37297794949505764,0.006135009378903285,-0.008721809019825532,0.05773235118148945
4249,9.0,300.45646,-4423.1552,0.04248997892814832,0.0,0.0,0.0,0.0,0.006484571550676721,0.6510384293099903,0.3094005384554557,0.38408975671670764,-0.004072417818291346,-0.003189244510478927,0.05236695885446645
4250,9.0,299.9306,-4321.4409,0.04249998860284565,0.0,0.0,0.0,0.0,0.006486099168562437,0.6457175794573634,0.3002927879440907,0.3675997699517726,0.0014493034964351186,-0.0006678205360787553,0.04558452714334255
4251,9.0,300.22983999999997,-4204.7504,0.04250996524231332,0.0,0.0,0.0,0.0,0.006487621744804994,0.6325062268360043,0.28119151381644175,0.36444137819756367,-0.003238442362459377,0.008980466236453011,0.05186482452890965
4252,9.0,299.68408999999997,-4277.1077,0.04251997491701065,0.0,0.0,0.0,0.0,0.00648914936269071,0.6196080900855574,0.3100149327860917,0.37051090841657963,-0.013097778430900089,0.00973018386696938,0.06737350086349685
4253,9.0,299.99399,-4352.4356,0.0425299845917082,0.0,0.0,0.0,0.0,0.006490676980576454,0.6483462440592923,0.3025206310714617,0.37216485681981165,-0.0038056978666431364,-0.01194873457899829,0.060744557290771044
4254,9.0,300.16421,-4409.7225,0.042539994266405534,0.0,0.0,0.0,0.0,0.006492204598462142,0.6502006538623083,0.3045391468606737,0.38570572850619167,0.0038557876826866167,-0.004980251100412515,0.06541965272216704
4255,9.0,300.42998,-4398.6102,0.0425499709058732,0.0,0.0,0.0,0.0,0.0064937271747047,0.6496311262461004,0.3101025890522427,0.37733396233746264,0.004451204852199716,0.0038785240016805164,0.054845540851583455
4256,9.0,299.91537,-4397.6644,0.04255998058057053,0.0,0.0,0.0,0.0,0.006495254792590416,0.6451003581589484,0.30474735962372274,0.3869324298722576,0.017196931359704983,-0.0033758909544244968,0.058865427225065346
4257,9.0,299.60367,-4428.6599,0.042569990255267864,0.0,0.0,0.0,0.0,0.006496782410476132,0.6451077143546744,0.3155246524573587,0.38556966928276365,-0.012875774320739988,-0.0016567283562063581,0.05003441355451215
4258,9.0,299.30383,-4473.8348,0.04257996689473531,0.0,0.0,0.0,0.0,0.006498304986718689,0.6450108071151104,0.3197222335141277,0.3952010269158046,-0.007719009885331962,-0.006847501923270823,0.052099120376032856
4259,9.0,299.57415,-4432.6683,0.042589976569432864,0.0,0.0,0.0,0.0,0.006499832604604405,0.6742522626785173,0.2917516772861487,0.38141654964038263,-0.0006368459871468053,-0.00034678327618734467,0.03035111134417147
4260,9.0,300.24617,-4378.4413,0.04259998624413042,0.0,0.0,0.0,0.0,0.006501360222490121,0.6329787762851413,0.3264000279006747,0.37155802133492166,-0.0072063064493070724,-0.003269634962812847,0.05754932274967594
4261,9.0,299.77997,-4359.019,0.04260999591882775,0.0,0.0,0.0,0.0,0.006502887840375837,0.6463064398854794,0.3124463277260517,0.36628017381653866,-0.008746155899853383,-0.014189489552393589,0.06804193486171613
4262,9.0,300.27041,-4372.2982,0.042619972558295194,0.0,0.0,0.0,0.0,0.006504410416618395,0.6387410789413365,0.3044925677535767,0.38583581968653063,-0.013903765183194788,-0.01676153677848488,0.05717606775733854
4263,9.0,300.14692,-4322.5985,0.042629982232992525,0.0,0.0,0.0,0.0,0.006505938034504111,0.6269864354587433,0.3102247667493007,0.3767507963749086,-0.012642105675428688,0.010788825646274189,0.08059824865117783
4264,9.0,300.45795,-4232.1182,0.04263999190769008,0.0,0.0,0.0,0.0,0.006507465652389854,0.6143873392103094,0.2963153456040477,0.37575558212668864,-0.0040204683843393365,0.014477640655581884,0.07902323445723602
4265,9.0,299.46502999999996,-4288.3772,0.042649968547157524,0.0,0.0,0.0,0.0,0.006508988228632384,0.6418505307157154,0.30232818447996873,0.35938088295813164,0.0025141401855263176,0.007924967964258442,0.07430388431447243
4266,9.0,300.10758,-4377.2955,0.04265997822185508,0.0,0.0,0.0,0.0,0.006510515846518128,0.6444444509717153,0.3086741293262647,0.3774699607658846,0.02002562875662568,0.0005182503115773236,0.05495092291498385
4267,9.0,299.46662000000003,-4399.6381,0.04266998789655241,0.0,0.0,0.0,0.0,0.006512043464403816,0.6619531391221883,0.2881166628174007,0.38731034176205464,0.022082564963129478,0.0035175114010263463,0.03927059390745586
4268,9.0,299.15561,-4418.1516,0.042679964536020076,0.0,0.0,0.0,0.0,0.006513566040646401,0.6415274761863324,0.3105550660168987,0.39092521281881465,0.0074539050543431535,-0.0059838993384898845,0.05207731422063075
4269,9.0,299.12232,-4373.5439,0.04268997421071741,0.0,0.0,0.0,0.0,0.0065150936585320895,0.6293123713282954,0.30698394709945676,0.39315179951606166,-0.02131950759107158,-0.018535588755820183,0.05041906659722445
4270,9.0,299.56462999999997,-4382.3243,0.04269998388541474,0.0,0.0,0.0,0.0,0.0065166212764178055,0.6451565631419954,0.2976894545946617,0.3892711326930697,-0.023378996174577275,-0.01003296772015182,0.05352420699242795
4271,9.0,299.62907,-4467.5408,0.04270999356011229,0.0,0.0,0.0,0.0,0.006518148894303549,0.6789727821118964,0.3073124225168747,0.37173564407745163,-0.01019942616910499,0.00976578380128282,0.05135638576123065
4272,9.0,300.29927999999995,-4401.0031,0.04271997019957974,0.0,0.0,0.0,0.0,0.006519671470546079,0.6733182993988424,0.29401393038691576,0.3704628094343327,-0.0012911174239483686,0.017070456468972883,0.06708800447557053
4273,9.0,299.931,-4285.2474,0.04272997987427729,0.0,0.0,0.0,0.0,0.006521199088431823,0.6522412483711993,0.3089841230618587,0.34138284567186367,0.0033981568213969668,-0.0017624490477901782,0.06221559581245124
4274,9.0,300.27792999999997,-4159.9535,0.04273998954897462,0.0,0.0,0.0,0.0,0.006522726706317511,0.6189605016816454,0.28295367733035376,0.36260781094910466,-0.0038840241258733367,-0.008066938083469803,0.07225608154437002
4275,9.0,300.44057000000004,-4330.5499,0.04274996618844229,0.0,0.0,0.0,0.0,0.006524249282560096,0.6245370046670033,0.29162461572360876,0.40021742551088463,0.0065186983141454335,0.003492353819593486,0.04324885799332996
4276,9.0,299.88716,-4493.9012,0.04275997586313962,0.0,0.0,0.0,0.0,0.006525776900445784,0.6574723951924734,0.3122140502731277,0.39634729648893263,0.011589612399055689,-0.006243511847311644,0.06798891655023363
4277,9.0,299.87434,-4351.6484,0.042769985537837174,0.0,0.0,0.0,0.0,0.006527304518331528,0.6445452896216673,0.3022917480063727,0.37595541531141063,0.007265422297241354,-0.003599257683319077,0.05332283873380445
4278,9.0,300.33544,-4240.8307,0.042779995212534505,0.0,0.0,0.0,0.0,0.006528832136217244,0.6435632273597454,0.2889480345244507,0.35659536724072266,-0.005646201419986695,-0.005589705431510975,0.06577160413115193
4279,9.0,300.33555,-4377.4558,0.04278997185200217,0.0,0.0,0.0,0.0,0.006530354712459802,0.6466505396194394,0.3145908715627017,0.36939585707903266,-0.002257015408350078,0.00859416392655294,0.05342568260570435
4280,9.0,300.70057,-4419.8636,0.042799981526699504,0.0,0.0,0.0,0.0,0.006531882330345518,0.6320982011532353,0.3180227091213977,0.3934072803962756,-0.01125542833057429,0.018018839310820982,0.061624918626905945
4281,9.0,300.47967,-4391.3552,0.042809991201396835,0.0,0.0,0.0,0.0,0.006533409948231206,0.6235729478593585,0.3174551573428847,0.3938342133259106,-0.01725908918708948,-0.008598063723537821,0.06294614913455124
4282,9.0,300.35836,-4291.0005,0.042819967840864503,0.0,0.0,0.0,0.0,0.006534932524473791,0.6296827952998534,0.3070721403881607,0.36760208016200063,-0.004717362450042425,-0.003683124191446057,0.060875817761725445
4283,9.0,300.75991,-4163.5171,0.042829977515561835,0.0,0.0,0.0,0.0,0.006536460142359479,0.6189961174226604,0.2933699390208587,0.35323918906699364,-0.006581980747815925,0.0006312436158863944,0.07176998392814593
4284,9.0,299.57217,-4393.2228,0.04283998719025939,0.0,0.0,0.0,0.0,0.006537987760245223,0.6611574338186583,0.3092540427559977,0.36501856598452764,0.013668888743764287,-0.0003126413885028027,0.07337845462713963
4285,9.0,299.20133,-4591.6817,0.04284996382972661,0.0,0.0,0.0,0.0,0.006539510336487725,0.6820577233663563,0.31694380041491765,0.3967550688591766,-0.0034426759910406663,-0.013323118160389386,0.06501229781096424
4286,9.0,299.7578,-4405.2056,0.04285997350442439,0.0,0.0,0.0,0.0,0.0065410379543734964,0.6336408237679804,0.30807672719980567,0.3973549331833786,0.0076694201082128325,-0.0037128158644263963,0.04559335559146386
4287,9.0,300.44537,-4313.0497,0.04286998317912172,0.0,0.0,0.0,0.0,0.006542565572259212,0.6221885239827265,0.30320075493608467,0.3856701431626796,0.009869037735498189,0.0026718460787906774,0.05014764729293745
4288,9.0,300.05589,-4491.2667,0.04287999285381927,0.0,0.0,0.0,0.0,0.006544093190144928,0.6628400369347183,0.3053273237159607,0.3970655590873196,0.006344925820670424,-8.306887562175972e-05,0.02761180793732327
4289,9.0,300.3749,-4597.4133,0.04288996949328672,0.0,0.0,0.0,0.0,0.006545615766387486,0.6753130848707123,0.33367619713377666,0.3885095536529076,-0.005039216176731915,-0.02411239875595848,0.06372742980965765
4290,9.0,299.80109,-4547.3412,0.04289997916798405,0.0,0.0,0.0,0.0,0.006547143384273202,0.6733394155309264,0.3206303589162527,0.3883084133755566,-0.0036445746860915167,0.001157068286068749,0.04190531267873236
4291,9.0,300.24806,-4361.7315,0.0429099888426816,0.0,0.0,0.0,0.0,0.006548671002158918,0.6446625429232394,0.3153934770994127,0.3658014334092906,-0.004186624580787676,0.010434652179819991,0.07677615376346643
4292,9.0,299.54857000000004,-4252.2641,0.042919965482148825,0.0,0.0,0.0,0.0,0.0065501935784014476,0.6061960632818935,0.3072001848032977,0.37918586941273164,-0.014926209514602185,0.008350190831699673,0.06496111044241244
4293,9.0,299.33866,-4285.8942,0.04292997515684638,0.0,0.0,0.0,0.0,0.006551721196287191,0.6369376761483544,0.2950454088562147,0.3708217228847546,-0.019382201770874383,-0.010088867714918721,0.07982460078907472
4294,9.0,299.71224,-4416.4428,0.04293998483154393,0.0,0.0,0.0,0.0,0.006553248814172907,0.6464239464995764,0.3047778584517327,0.39128651753947263,-0.007963544219415622,-0.01019674206959009,0.050266507609168044
4295,9.0,299.87602999999996,-4339.0276,0.04294999450624126,0.0,0.0,0.0,0.0,0.006554776432058623,0.6397577538266743,0.3085158393956427,0.37068244152600865,0.010820520109402189,-0.0007732008769539852,0.07717098591668332
4296,9.0,299.20288999999997,-4269.7065,0.04295997114570871,0.0,0.0,0.0,0.0,0.006556299008301181,0.6308422979192874,0.2994034583313207,0.36763840517808566,0.012284465880382388,-0.005742606188826105,0.050562980535427654
4297,9.0,299.86093,-4395.812,0.04296998082040626,0.0,0.0,0.0,0.0,0.006557826626186897,0.6405756898373983,0.3206438959375887,0.37499748866687066,0.006824759322126304,-0.023505875352099276,0.07369021648415812
4298,9.0,300.24627999999996,-4607.5435,0.04297999049510359,0.0,0.0,0.0,0.0,0.006559354244072613,0.6518410145816994,0.34043370390569067,0.4083034754164156,0.00026802625394213174,0.013911487162206885,0.04766612991028075
4299,9.0,300.65316,-4416.6104,0.04298996713457104,0.0,0.0,0.0,0.0,0.006560876820315142,0.6519450652344684,0.3134798326955507,0.3771143606432897,0.010807841310900889,0.014702398779513787,0.06454642770648644
4300,9.0,299.85952000000003,-4364.4034,0.04299997680926859,0.0,0.0,0.0,0.0,0.006562404438200886,0.6446122350557745,0.30702671638617773,0.37503071313764963,-0.0038033662768380268,0.007075140717237024,0.04160149976874836
4301,9.0,299.51124,-4401.1278,0.043009986483966145,0.0,0.0,0.0,0.0,0.00656393205608663,0.6510129663349774,0.3171001145078447,0.36971987419601066,-0.016537975302921087,-0.026996048758802578,0.06889354725276374
4302,9.0,299.80166,-4322.7063,0.043019996158663476,0.0,0.0,0.0,0.0,0.006565459673972318,0.6536968834648593,0.29159475524316175,0.36870312838316566,-0.007748983140515093,-0.013870395817651487,0.04961622092023975
4303,9.0,300.52344,-4363.4263,0.04302997279813092,0.0,0.0,0.0,0.0,0.006566982250214876,0.6292888335284724,0.31193286323787667,0.3851509335464376,0.010264575110784688,0.013686197081972487,0.07648669556764913
4304,9.0,300.07594,-4435.5165,0.043039982472828475,0.0,0.0,0.0,0.0,0.0065685098681005916,0.6441278305804674,0.30322992640646373,0.4009285041660626,-0.0002333356507984358,0.017498133124181282,0.05249266468837265
4305,9.0,299.90575,-4380.7397,0.043049992147525806,0.0,0.0,0.0,0.0,0.0065700374859863075,0.6508177839682144,0.3040091967933717,0.37680851110060465,-0.004169679999365376,-0.003430275937641877,0.06696149108133463
4306,9.0,299.26006,-4399.46,0.04305996878699325,0.0,0.0,0.0,0.0,0.006571560062228837,0.6582734909865353,0.30805149727231573,0.3710010174899496,-0.01235843516418259,0.016475851926039984,0.041505296738003856
4307,9.0,299.42826,-4501.3627,0.043069978461690805,0.0,0.0,0.0,0.0,0.006573087680114581,0.6602496123915633,0.3251708744693667,0.38288136477994866,0.023836443130973776,0.006316592409449134,0.060281714777592046
4308,9.0,299.39254,-4503.5412,0.04307998813638836,0.0,0.0,0.0,0.0,0.006574615298000325,0.6671116764412964,0.3197629864331497,0.3820893983692876,0.014266192584963588,-0.014168207247293186,0.05484212417224625
4309,9.0,299.74899,-4432.1534,0.04308996477585558,0.0,0.0,0.0,0.0,0.006576137874242827,0.6219026455995124,0.3271628532384596,0.3981984638916286,0.0013583691635605988,-0.021852386964412683,0.07412516422208414
4310,9.0,300.08412000000004,-4365.9567,0.043099974450553136,0.0,0.0,0.0,0.0,0.0065776654921285704,0.6319442985955463,0.3129052996238487,0.38229223077430563,-0.013662574169141087,-0.01015930349164519,0.06559807694552615
4311,9.0,300.12415,-4250.687,0.04310998412525069,0.0,0.0,0.0,0.0,0.006579193110014286,0.6285939567423935,0.2904184833345727,0.3730902784011436,-0.01288552786620259,0.022387130717937777,0.06778673870478023
4312,9.0,299.88757999999996,-4213.7279,0.04311999379994824,0.0,0.0,0.0,0.0,0.00658072072790003,0.6382008038555154,0.2894560477270877,0.35321122336423366,-0.008411576663832982,0.025758790339944677,0.07195967853236733
4313,9.0,300.04594,-4321.5992,0.043129970439415466,0.0,0.0,0.0,0.0,0.006582243304142532,0.6448205795413364,0.30251220083062974,0.36632548636101064,-0.007169189172968883,-0.004820765129372475,0.05419491269737145
4314,9.0,300.05769,-4387.31,0.04313998011411302,0.0,0.0,0.0,0.0,0.006583770922028276,0.6656590912304374,0.28579702936347073,0.38217656827539065,-0.0035435791850240363,0.0005503765408379354,0.05110087752326395
4315,9.0,300.41545,-4387.5427,0.04314998978881057,0.0,0.0,0.0,0.0,0.00658529853991402,0.6256870131330005,0.29795897912126174,0.4100574316045176,0.006155703289670614,0.015615581312887884,0.05152091224621815
4316,9.0,299.67553,-4456.8711,0.04315996642827802,0.0,0.0,0.0,0.0,0.006586821116156549,0.6449221477313604,0.3058460165746517,0.4040093620226196,0.0065791141619580135,0.004426222664359165,0.06157791598126714
4317,9.0,299.64085,-4549.9284,0.04316997610297535,0.0,0.0,0.0,0.0,0.006588348734042265,0.6653554201754673,0.3119601500630697,0.40574906178181464,-0.016500235789696484,-0.017153216710640684,0.04571613313258105
4318,9.0,299.78221,-4467.5349,0.0431799857776729,0.0,0.0,0.0,0.0,0.006589876351927981,0.6725524140457554,0.31249661532851475,0.37297002587927564,-0.007215933845132223,0.002013223178639658,0.05939562452539174
4319,9.0,299.87907,-4303.5919,0.043189995452370455,0.0,0.0,0.0,0.0,0.006591403969813725,0.6564144404980614,0.28732558806682773,0.36444445847786766,0.003109579038591557,0.007763467955994634,0.05285623908925465
4320,9.0,299.34012,-4218.1591,0.04319997209183768,0.0,0.0,0.0,0.0,0.006592926546056227,0.6344291526107824,0.2977611015092327,0.3500247848472567,0.009726512760532071,-0.001061436728380649,0.07028020331936602
4321,9.0,299.97501,-4227.2078,0.04320998176653523,0.0,0.0,0.0,0.0,0.006594454163941971,0.6134155310393994,0.2927272446149297,0.37882285229940466,0.0012547531950844988,-0.026433025194986474,0.06992875042943034
4322,9.0,299.96659,-4327.8674,0.043219991441232786,0.0,0.0,0.0,0.0,0.0065959817818277144,0.6408634427332974,0.2890215964817107,0.38567857340351164,0.004417917458589506,-0.005786259029634305,0.06837796811163002
4323,9.0,300.39637999999997,-4428.5812,0.04322996808070001,0.0,0.0,0.0,0.0,0.006597504358070244,0.6578116110609513,0.3021843333632717,0.3861821587032116,-0.0020350743223461983,0.021991213373863776,0.06125024305792834
4324,9.0,300.0088,-4429.2289,0.04323997775539756,0.0,0.0,0.0,0.0,0.006599031975955932,0.6616853776507623,0.3055664912695647,0.37912312896653966,-0.00976197570343199,0.013862557314877885,0.06650894926867224
4325,9.0,300.10513,-4469.471,0.043249987430095116,0.0,0.0,0.0,0.0,0.006600559593841676,0.6716353821752513,0.3116692560918607,0.37530294304201667,-0.02017057823643108,0.004652319089023146,0.06036914407572064
4326,9.0,300.89776,-4619.7254,0.04325996406956234,0.0,0.0,0.0,0.0,0.006602082170084206,0.6701778421714034,0.32884087646406773,0.4052624382887886,-0.0034011005155874866,-0.006628152528372723,0.051577788000831355
4327,9.0,301.03298,-4606.8492,0.04326997374425989,0.0,0.0,0.0,0.0,0.00660360978796995,0.6582372672954603,0.32331668758137266,0.41881315876614056,0.004219282948735806,-0.002084200537544578,0.047012208693243754
4328,9.0,300.67828,-4384.0186,0.043279983418957224,0.0,0.0,0.0,0.0,0.0066051374058556656,0.6364162981768984,0.3135794250478797,0.3826364622307787,0.0024099655109450775,-0.006183575064146344,0.059257484086258354
4329,9.0,300.30402000000004,-4286.0633,0.04328999309365478,0.0,0.0,0.0,0.0,0.006606665023741409,0.6313478489241814,0.3064360726378857,0.36507230876983165,-0.01157004856612489,-0.01874096745833948,0.06303793338160965
4330,9.0,300.3747,-4406.3617,0.04329996973312222,0.0,0.0,0.0,0.0,0.006608187599983939,0.6698397510105364,0.3079549244052847,0.3616292444000277,0.004416970576371056,-0.004379412232264336,0.06607031127388203
4331,9.0,300.12555,-4412.9645,0.043309979407819554,0.0,0.0,0.0,0.0,0.006609715217869627,0.6733886493532854,0.3064752955492567,0.36156706124139065,0.0023923734627088774,0.014457308779075287,0.06424368782835833
4332,9.0,300.04305,-4335.2848,0.04331998908251711,0.0,0.0,0.0,0.0,0.006611242835755371,0.6409723265890435,0.3069483820209467,0.36989762866105363,0.008413340124307021,0.0002059399518821908,0.07140330999520803
4333,9.0,299.15508,-4331.418,0.043329965721984554,0.0,0.0,0.0,0.0,0.006612765411997901,0.6321434326376995,0.2986277951147687,0.38587167860756966,-0.006319756789511433,-0.017197114757973087,0.06585108954849653
4334,9.0,299.46387000000004,-4425.4853,0.04333997539668211,0.0,0.0,0.0,0.0,0.006614293029883644,0.6473628139097354,0.3049266542289177,0.39294756882590565,-0.0005213050985088076,-0.01985217351175698,0.06072404201599635
4335,9.0,299.56822999999997,-4517.4555,0.04334998507137944,0.0,0.0,0.0,0.0,0.00661582064776936,0.6559857546457534,0.3138793470774797,0.4033285592804296,0.001050891733264939,-0.004890773111906725,0.061850118527881436
4336,9.0,299.5909,-4522.9492,0.04335999474607721,0.0,0.0,0.0,0.0,0.006617348265655132,0.6767000418725944,0.32461351598685967,0.37355007103152166,0.0016853180183779384,-0.0029605535576088873,0.05908316453905435
4337,9.0,299.65631,-4412.4596,0.04336997138554444,0.0,0.0,0.0,0.0,0.006618870841897634,0.6675502414820794,0.30555679446610773,0.3681704932030987,-0.013814028714588488,0.008794945513368542,0.04487704248626926
4338,9.0,300.02957999999995,-4318.893,0.04337998106024199,0.0,0.0,0.0,0.0,0.00662039845978335,0.6331858440755773,0.3063393984458447,0.37331038672036665,7.992628347636003e-05,0.005724393018278604,0.05953660510455545
4339,9.0,300.25167000000005,-4410.2382,0.04338999073493954,0.0,0.0,0.0,0.0,0.006621926077669094,0.6331297606825423,0.3148214062254537,0.39265112224414866,-0.00029161788774294473,0.01054997422670139,0.04740027942854336
4340,9.0,300.15741,-4514.0817,0.04339996737440699,0.0,0.0,0.0,0.0,0.006623448653911623,0.6562128239931634,0.31906640738690273,0.3968888989323846,0.01018487589766899,-0.001242853585910099,0.06936574409086593
4341,9.0,300.10298,-4427.1661,0.04340997704910432,0.0,0.0,0.0,0.0,0.006624976271797339,0.6346976537547814,0.3246585245563017,0.38639176975139866,-0.0037825508773837065,-0.0100016347846595,0.06801822784912644
4342,9.0,299.95096,-4356.5694,0.04341998672380165,0.0,0.0,0.0,0.0,0.006626503889683055,0.6745742634277964,0.3000067677058627,0.3497073031934237,-0.0038266478257107358,-0.02049528537672718,0.08221623579511071
4343,9.0,299.78774,-4385.439,0.043429996398499426,0.0,0.0,0.0,0.0,0.006628031507568827,0.6607720441431234,0.29314177536334074,0.3791501422142056,0.00022962655761487677,0.011373142660941788,0.05135559238640235
4344,9.0,299.47316,-4410.0643,0.04343997303796665,0.0,0.0,0.0,0.0,0.006629554083811329,0.6383738264425914,0.3211309247306547,0.38104468685368265,0.003967125224874776,0.01159171995926369,0.07240911777322352
4345,9.0,299.93415,-4459.8128,0.043449982712664204,0.0,0.0,0.0,0.0,0.006631081701697045,0.6185034448265374,0.3076652362016947,0.42950306891115264,-0.004092257863199405,-0.0024346635834575875,0.03297613128549077
4346,9.0,299.41539,-4517.5152,0.04345999238736176,0.0,0.0,0.0,0.0,0.006632609319582788,0.6440173153920604,0.3301827337039987,0.39901175921689463,-0.016828909804134085,-0.01059916143955579,0.05922296974810204
4347,9.0,298.64104,-4520.1148,0.0434699690268292,0.0,0.0,0.0,0.0,0.006634131895825318,0.6380180540674795,0.3320114373519777,0.4039725303814846,-0.00952298030101998,0.017351783332737684,0.03354591525397407
4348,9.0,299.2071,-4419.9722,0.043479978701526534,0.0,0.0,0.0,0.0,0.006635659513711034,0.6774338173300124,0.3044779566871347,0.36164939794451667,-0.004842279671395795,-0.0007271169755783582,0.06843409507441935
4349,9.0,299.87363,-4505.4528,0.04348998837622409,0.0,0.0,0.0,0.0,0.006637187131596778,0.6681455968433364,0.32326445453871766,0.37813509866152867,7.150912674290133e-05,0.0015611634703748384,0.05156682159499905
4350,9.0,299.75146,-4491.44,0.04349996501569153,0.0,0.0,0.0,0.0,0.006638709707839308,0.6602637472304583,0.3198774026344417,0.3851444588782987,-0.0027361406479860574,-0.007316392424971713,0.07245153850191013
4351,9.0,299.9943,-4344.8174,0.043509974690389086,0.0,0.0,0.0,0.0,0.006640237325725051,0.6293745240894294,0.3002414465615237,0.3911000491235696,0.012855204330459887,0.012866247743299787,0.06055072052014085
4352,9.0,300.0234,-4290.3829,0.04351998436508642,0.0,0.0,0.0,0.0,0.0066417649436107395,0.6303154078672873,0.30044987210709373,0.3734039806321036,0.013474888839867987,0.003353705843484997,0.07012403108145303
4353,9.0,299.52454,-4398.0415,0.04352999403978397,0.0,0.0,0.0,0.0,0.006643292561496483,0.6389773384671534,0.3046990681239567,0.3932183801801326,-0.002365885787869748,-0.019305759143580084,0.05992349135048814
4354,9.0,300.00266,-4433.105,0.043539970679251416,0.0,0.0,0.0,0.0,0.006644815137739013,0.6712559098803004,0.3106362172174077,0.3656610881379397,0.004448080090216326,-0.02561163602792168,0.06190414198346314
4355,9.0,300.32807,-4496.1427,0.04354998035394875,0.0,0.0,0.0,0.0,0.006646342755624729,0.6518241439675344,0.3190241649902337,0.3958668031590116,-0.017511227355223584,0.008913026336297212,0.06952602708443464
4356,9.0,299.58369,-4498.1426,0.0435599900286463,0.0,0.0,0.0,0.0,0.006647870373510473,0.6542703627564574,0.3163946695232227,0.3966579893670956,0.005778541711572665,0.02090377107504158,0.054503245716051536
4357,9.0,299.30009,-4460.3126,0.043569966668113524,0.0,0.0,0.0,0.0,0.0066493929497530024,0.6445360285157533,0.31562122532438974,0.3956663924217326,-0.015063688301420287,0.002230010570659908,0.05665544364395695
4358,9.0,299.67895,-4519.1401,0.04357997634281108,0.0,0.0,0.0,0.0,0.006650920567638746,0.6629008420732193,0.3160590912226037,0.3947458040433776,0.0043667725452168965,-0.0026776122824597576,0.04029485904929296
4359,9.0,299.98526,-4526.9307,0.04358998601750863,0.0,0.0,0.0,0.0,0.006652448185524434,0.6606624814098103,0.3170306562134897,0.3983807678496206,-0.009333623311731902,-4.486409720299166e-05,0.056596790648668356
4360,9.0,300.00158,-4376.3403,0.04359999569220596,0.0,0.0,0.0,0.0,0.006653975803410178,0.6685631673420475,0.3082617568005667,0.3534732397075927,-0.002536781056360797,-0.003166794637288297,0.05528908702985805
4361,9.0,299.59556000000003,-4302.3269,0.04360997233167341,0.0,0.0,0.0,0.0,0.006655498379652708,0.6374788631592654,0.29999222756692767,0.3703288476386116,-0.004099185454133106,-0.014827818876891786,0.07346370442430314
4362,9.0,299.86501,-4426.4592,0.04361998200637096,0.0,0.0,0.0,0.0,0.006657025997538452,0.6515422577897143,0.3118909653462417,0.38209985511031963,0.007436622756662523,-0.014888674677897788,0.07286723955418664
4363,9.0,299.86602999999997,-4477.6584,0.04362999168106829,0.0,0.0,0.0,0.0,0.006658553615424168,0.6457167485922813,0.3204418032051437,0.39493778453982464,0.006005898112735994,0.02378217649536808,0.07332086351795583
4364,9.0,300.5549,-4413.6892,0.04363996832053596,0.0,0.0,0.0,0.0,0.006660076191666725,0.6407263702597694,0.3109645913098157,0.38996034541108965,-0.006154142681866594,0.009251219024824231,0.06555910025392944
4365,9.0,300.66925,-4400.9155,0.04364997799523329,0.0,0.0,0.0,0.0,0.006661603809552441,0.6600940278387084,0.30875273726902275,0.36892166616473365,-0.015752075220608786,-0.011536090502273489,0.06316678029082584
4366,9.0,300.28533999999996,-4515.4285,0.04365998766993062,0.0,0.0,0.0,0.0,0.006663131427438129,0.6726467577625663,0.31416745461091367,0.3857633013768736,-0.013898569236681988,-0.016619569293723786,0.04199153114299146
4367,9.0,299.99695,-4551.5394,0.04366996430939829,0.0,0.0,0.0,0.0,0.0066646540036807145,0.6579584411329423,0.3232715472894177,0.4023243271063196,0.003181373989002167,-0.00873895108369232,0.06099347231033704
4368,9.0,300.40013999999996,-4565.5572,0.04367997398409562,0.0,0.0,0.0,0.0,0.006666181621566403,0.6541102489756554,0.3363343169161127,0.39737082094494663,0.004891994078277225,-0.009759883341975492,0.052028655924328544
4369,9.0,299.96701,-4407.3496,0.043689983658793174,0.0,0.0,0.0,0.0,0.0066677092394521464,0.6382216869400764,0.3074440234398627,0.39405851650054763,-0.015304951256231086,-0.012255203217494388,0.05635141997795214
4370,9.0,299.7945,-4314.5873,0.043699993333490506,0.0,0.0,0.0,0.0,0.006669236857337862,0.6442203605795994,0.2963908935315037,0.37091553971151364,0.006102464596291364,0.004197872974122806,0.058035893553696746
4371,9.0,299.80441,-4418.93,0.043709969972958174,0.0,0.0,0.0,0.0,0.00667075943358042,0.6696069669325624,0.3020485983798757,0.3715888241379617,0.01016144550235659,0.026726650888465077,0.06828533476098785
4372,9.0,299.93091,-4486.7751,0.043719979647655505,0.0,0.0,0.0,0.0,0.006672287051466136,0.6835747208860723,0.3106158306253957,0.36967703398178264,0.009664998650936101,0.017456772255099284,0.06972986868655223
4373,9.0,299.38793,-4401.8347,0.04372998932235306,0.0,0.0,0.0,0.0,0.006673814669351852,0.6468620758428163,0.3089987442608017,0.38218700475142064,-0.01100589421519719,-0.0074453736911511735,0.07798611623788043
4374,9.0,300.11922000000004,-4406.9839,0.043739965961820504,0.0,0.0,0.0,0.0,0.006675337245594409,0.6536547018631964,0.2984984132094997,0.38745993800681866,-0.01135024928818239,-0.011219513680779789,0.05737308005378214
4375,9.0,300.7074,-4463.0299,0.04374997563651806,0.0,0.0,0.0,0.0,0.006676864863480125,0.6418404488772204,0.3148365137844447,0.3999726850817306,0.00834147465168945,0.0018384023766111885,0.05377153931533774
4376,9.0,300.25562,-4463.2507,0.04375998531121539,0.0,0.0,0.0,0.0,0.006678392481365841,0.6609268991559063,0.3159276929496357,0.37986216319197663,0.001902855519447218,0.0012434631571702588,0.056037808939501145
4377,9.0,299.869,-4441.5467,0.04376999498591272,0.0,0.0,0.0,0.0,0.006679920099251557,0.6562801949923124,0.3144223275410677,0.3794167789780206,-0.004076865580930306,-0.00952985429102339,0.043954407342712255
4378,9.0,300.08241,-4482.8443,0.04377997162538039,0.0,0.0,0.0,0.0,0.006681442675494115,0.6729774521977034,0.3149708606152037,0.37472441776492066,-0.013953664710869488,-0.012132862387170288,0.055090293439738654
4379,9.0,299.83522,-4536.6043,0.04378998130007772,0.0,0.0,0.0,0.0,0.006682970293379831,0.6503866460506643,0.3293581609051197,0.3992696111023426,0.011493495494569688,0.0036915093426486065,0.052965196912257956
4380,9.0,300.41443,-4398.4741,0.04379999097477527,0.0,0.0,0.0,0.0,0.006684497911265547,0.6528461080183944,0.3082110031030577,0.3759691752477686,0.0012598238025599286,0.0038291542011580962,0.07210243635220642
4381,9.0,300.50477,-4413.4532,0.04380996761424272,0.0,0.0,0.0,0.0,0.006686020487508104,0.6305836253012584,0.3137111678258817,0.39728477574645465,0.006374853682249074,-0.008351831992886641,0.07068809120012143
4382,9.0,300.34232000000003,-4406.1902,0.04381997728894027,0.0,0.0,0.0,0.0,0.00668754810539382,0.6659962299362104,0.30131555246252967,0.37206003609696664,-0.01948599201836768,0.009407926461440052,0.07461113416879563
4383,9.0,300.19336,-4286.8435,0.0438299869636376,0.0,0.0,0.0,0.0,0.006689075723279536,0.6395758045062174,0.3061078302679907,0.35740974674359566,0.0006312432713813604,0.014801240313518685,0.06367574290880654
4384,9.0,300.45527999999996,-4341.0219,0.04383996360310505,0.0,0.0,0.0,0.0,0.006690598299522094,0.6499657115616213,0.3032398562574437,0.3663566843315897,-0.008596637270047043,0.00953720714302406,0.07150140780363953
4385,9.0,299.74387,-4504.7662,0.0438499732778026,0.0,0.0,0.0,0.0,0.00669212591740781,0.6460423159819124,0.31738875906383174,0.4059053556097396,0.0022568231948061077,-0.009087667083782912,0.053835615225161546
4386,9.0,299.86224,-4549.3774,0.043859982952500154,0.0,0.0,0.0,0.0,0.006693653535293553,0.6573357077539834,0.3165160062226977,0.40904540753713864,0.006232099307460314,-0.0015130781670041886,0.048370816983827954
4387,9.0,299.76735,-4650.7741,0.043869992627197485,0.0,0.0,0.0,0.0,0.0066951811531792416,0.6506949881885954,0.3393724662809547,0.42365174210117157,0.016851984548661384,-0.0024032277017551076,0.05332375167214455
4388,9.0,299.8002,-4639.6938,0.04387996926666493,0.0,0.0,0.0,0.0,0.006696703729421827,0.6954789808784314,0.3207368515017627,0.3941352397981196,0.009233621910337532,-0.0024708349908274274,0.04038940440287386
4389,9.0,300.09327,-4474.9968,0.04388997894136226,0.0,0.0,0.0,0.0,0.006698231347307515,0.6591475002577935,0.3191309716832747,0.3820088145888346,0.006074736500679813,-0.010929051354113388,0.06237049642148874
4390,9.0,300.03985,-4485.1999,0.043899988616059815,0.0,0.0,0.0,0.0,0.006699758965193231,0.6695740464368134,0.3134341959110467,0.38038054194313664,-0.0093634260369232,0.0095341140957688,0.057361338511623346
4391,9.0,299.40067999999997,-4507.223,0.04390996525552726,0.0,0.0,0.0,0.0,0.0067012815414357885,0.6518610769336795,0.3181027254817947,0.40011944422621465,-0.003974877398739856,0.002977798669010847,0.07311105995224984
4392,9.0,300.06183,-4266.1586,0.04391997493022459,0.0,0.0,0.0,0.0,0.0067028091593215045,0.6322881652819834,0.2900616267818537,0.37445589635591964,-0.006175734129572504,0.013205234617255186,0.06040711663646824
4393,9.0,299.94991,-4139.6921,0.043929984604922145,0.0,0.0,0.0,0.0,0.006704336777207248,0.6015043404163564,0.28554533803863075,0.37131335183327463,0.003240555596867937,-0.017615060159221086,0.07563507507060072
4394,9.0,300.52045,-4450.3105,0.043939994279619476,0.0,0.0,0.0,0.0,0.006705864395092936,0.6756823132071523,0.29513522334507875,0.38196572106208165,0.008015569140500082,0.006716838256625323,0.05751379516141965
4395,9.0,300.85611,-4669.5307,0.043949970919087145,0.0,0.0,0.0,0.0,0.006707386971335522,0.6851496661790074,0.3308891514087167,0.40338190689819464,0.007716742130283153,0.012779692880007488,0.06566321575470485
4396,9.0,300.2682,-4544.7477,0.043959980593784476,0.0,0.0,0.0,0.0,0.00670891458922121,0.6711275817551354,0.3173094925085087,0.39305275431878667,-0.0019919942718195282,0.022352631578532976,0.06426903022660943
4397,9.0,299.79751,-4420.5703,0.04396999026848203,0.0,0.0,0.0,0.0,0.006710442207106954,0.6336691238432735,0.3200355405775487,0.3900383352712867,-0.012863619372540387,-0.012774471602242187,0.06806706143769593
4398,9.0,300.34353,-4486.8409,0.043979966907949475,0.0,0.0,0.0,0.0,0.006711964783349483,0.6410938558060374,0.3199529505618977,0.4028407806822896,-0.0004376424056394425,-0.005504706515072235,0.05451253924596875
4399,9.0,299.54408,-4532.0893,0.04398997658264703,0.0,0.0,0.0,0.0,0.006713492401235227,0.6512117964021004,0.32069700037532967,0.4057331942852486,0.006420594730188364,-0.012909122408031187,0.06175207442170524
4400,9.0,300.03475,-4448.128,0.04399998625734436,0.0,0.0,0.0,0.0,0.006715020019120943,0.6662778628015054,0.3073359704491987,0.37850601912563564,0.005285967299384355,-0.00956933892489522,0.05374206792292915
4401,9.0,299.9415,-4318.6103,0.04400999593204169,0.0,0.0,0.0,0.0,0.006716547637006631,0.6546914998955203,0.29805793312602774,0.36000027261176065,0.009080941534919151,-0.021820303413246277,0.062123171191329644
4402,9.0,299.98871,-4316.6145,0.04401997257150936,0.0,0.0,0.0,0.0,0.0067180702132492165,0.6477478388152345,0.2954936200379497,0.36890157341525065,0.0013029279684389787,0.005981978216300285,0.06096774487704794
4403,9.0,299.74032,-4497.189,0.04402998224620669,0.0,0.0,0.0,0.0,0.006719597831134905,0.6490334708071164,0.32389324715327467,0.3941064634952796,0.00982306272811081,0.009324754637581631,0.07544622247721243
4404,9.0,299.81127999999995,-4743.0206,0.04403999192090424,0.0,0.0,0.0,0.0,0.0067211254490206485,0.6812829619423934,0.3249510599926727,0.4355257869755486,0.003743353905215266,0.013276808577818988,0.052247803682456746
4405,9.0,299.62141,-4652.2645,0.04404996856037169,0.0,0.0,0.0,0.0,0.006722648025263178,0.6735776407619374,0.3241428005204037,0.4164517996730926,-0.0070574715606682124,-0.0008171060373020874,0.061965968478064945
4406,9.0,299.79447999999996,-4390.4205,0.04405997823506924,0.0,0.0,0.0,0.0,0.006724175643148922,0.6542262661121054,0.3024299654525137,0.3779219716354946,3.251639235736807e-05,0.0034721626835257768,0.05079238035806765
4407,9.0,300.23055,-4466.7366,0.04406998790976657,0.0,0.0,0.0,0.0,0.006725703261034638,0.6580707903040304,0.3095989936200417,0.39010662832802667,0.0007642864241641972,-0.009641708286787521,0.061552782312536636
4408,9.0,300.96562,-4655.5074,0.04407996454923402,0.0,0.0,0.0,0.0,0.006727225837277168,0.6866748507595314,0.3220796004017817,0.4064035301539056,-0.008219313875908123,0.0007626767041278302,0.052540160786810154
4409,9.0,300.91212,-4463.2863,0.04408997422393157,0.0,0.0,0.0,0.0,0.006728753455162911,0.6493516617360193,0.3087681488030437,0.3986077865345256,-0.005496618651449025,-0.013162164395254488,0.06623982902886213
4410,9.0,299.95486,-4225.7763,0.044099983898629125,0.0,0.0,0.0,0.0,0.006730281073048627,0.6206813144589765,0.2927699125766407,0.3710792606626716,0.001349184355379129,0.0025932764368864574,0.05944409435717535
4411,9.0,299.96256,-4255.2269,0.044109993573326456,0.0,0.0,0.0,0.0,0.006731808690934343,0.6299550556017235,0.2994306843615077,0.36409697448857364,0.01302874063533659,0.006859255117805773,0.06734084279952372
4412,9.0,299.86184,-4549.0569,0.0441199702127939,0.0,0.0,0.0,0.0,0.006733331267176873,0.6844925329591534,0.3143592932523467,0.38394789157020665,0.019351293589823983,0.01176282142415009,0.06975271544980703
4413,9.0,299.98441,-4679.6424,0.044129979887491455,0.0,0.0,0.0,0.0,0.006734858885062617,0.6902328582206794,0.3319410063375267,0.4003205845035656,-0.0018773381329038484,-0.0033387765151865873,0.06856763839784903
4414,9.0,299.8527,-4514.3972,0.044139989562188786,0.0,0.0,0.0,0.0,0.006736386502948333,0.6647528707385003,0.3177895602733877,0.38972160342252765,-0.007686077534556793,0.008474731731965902,0.08105024128228602
4415,9.0,300.20302999999996,-4318.5343,0.04414996620165623,0.0,0.0,0.0,0.0,0.0067379090791908625,0.6153268449680315,0.3068037405691717,0.39059599772882364,-0.00973386338338252,0.013801653891117186,0.07143597717843203
4416,9.0,299.97679,-4437.6735,0.044159975876353785,0.0,0.0,0.0,0.0,0.006739436697076606,0.6520894635062193,0.3143475496836877,0.3825049119702956,-0.014222427273394286,0.008822437217731762,0.07143611396719553
4417,9.0,299.4283,-4691.1216,0.04416998555105134,0.0,0.0,0.0,0.0,0.006740964314962322,0.6838869336393854,0.3208640853168197,0.42123280000494057,-0.007325970880817033,-0.009014707909007403,0.04954098507381455
4418,9.0,299.50382,-4475.3424,0.04417999522574867,0.0,0.0,0.0,0.0,0.006742491932848038,0.6748684808593334,0.3072017857384557,0.37832208383498267,-0.006074839649539993,-0.008484032658608831,0.05100081096988815
4419,9.0,299.12976000000003,-4208.1029,0.044189971865216116,0.0,0.0,0.0,0.0,0.006744014509090568,0.6121286324848925,0.3083028339596207,0.35872672869357164,0.0021711325325240983,-0.0022505793450398877,0.06787334220407734
4420,9.0,299.75622999999996,-4434.8352,0.04419998153991345,0.0,0.0,0.0,0.0,0.006745542126976312,0.6646422643575843,0.31068069889679767,0.37275619971067264,-0.0018927534159502183,0.00026357381008770977,0.06528241306237254
4421,9.0,300.02761,-4755.7596,0.044209991214611,0.0,0.0,0.0,0.0,0.006747069744862055,0.6782847143664894,0.34720694645165767,0.42014049613213855,0.005982575324584214,-0.01157700148831109,0.07783126730459802
4422,9.0,300.20198999999997,-4663.6383,0.044219967854078224,0.0,0.0,0.0,0.0,0.006748592321104557,0.6869640120730693,0.3390235333440177,0.3916420366020596,0.002094989827259398,0.003881636199362666,0.06638202550814584
4423,9.0,300.36665,-4431.9413,0.04422997752877578,0.0,0.0,0.0,0.0,0.006750119938990273,0.6568903032750254,0.3072252627432727,0.3830839337399406,-0.005121906200167785,0.01771180325226888,0.05078891706922586
4424,9.0,300.34477999999996,-4340.936,0.04423998720347333,0.0,0.0,0.0,0.0,0.006751647556876017,0.6623288927892724,0.2939635921219477,0.36324367604935964,-0.004559435364281235,0.01938153201255828,0.04826901473303086
4425,9.0,300.15905,-4519.9825,0.044249963842940776,0.0,0.0,0.0,0.0,0.006753170133118547,0.6612069209535424,0.3106861805798387,0.4020687043710916,-0.01096056039247309,-0.001112457721266029,0.05428648821490925
4426,9.0,300.24705,-4671.9365,0.04425997351763811,0.0,0.0,0.0,0.0,0.006754697751004263,0.6808960219942054,0.3178131284707137,0.4214428771481736,0.011616911383249887,-0.003145278170089787,0.05962371421565244
4427,9.0,299.84522999999996,-4606.8789,0.04426998319233566,0.0,0.0,0.0,0.0,0.0067562253688900065,0.6522072842278475,0.3282351251567847,0.4199337424492336,0.003361115944116317,-0.004741238067448765,0.057405430089724846
4428,9.0,299.21471,-4391.7139,0.04427999286703321,0.0,0.0,0.0,0.0,0.00675775298677575,0.6437492195481014,0.3111734424204277,0.38004868227038463,0.005257273576427505,0.003123384571204057,0.07374098538041864
4429,9.0,299.51943,-4436.5432,0.04428996950650044,0.0,0.0,0.0,0.0,0.006759275563018252,0.6688295710583394,0.3104932273632957,0.36927556402716066,-0.0031170449693033874,-0.015416820146771683,0.05991426469507753
4430,9.0,299.6855,-4646.6101,0.04429997918119821,0.0,0.0,0.0,0.0,0.006760803180904024,0.6994901441818023,0.3298990540735017,0.38306425642299863,0.006698322428272952,0.0039948106626571155,0.06257412726758553
4431,9.0,300.32717,-4451.1522,0.044309988855895543,0.0,0.0,0.0,0.0,0.006762330798789712,0.6576870319611564,0.31285583275396667,0.3824962588144416,-0.00951944669262124,0.02076974848431458,0.06959760003174834
4432,9.0,299.8344,-4280.773,0.04431996549536299,0.0,0.0,0.0,0.0,0.006763853375032242,0.6365601188960924,0.2974494663084767,0.3672385260261206,0.0017707975193391081,-0.0005726587920645225,0.06628706573527404
4433,9.0,299.96704,-4371.3482,0.04432997517006032,0.0,0.0,0.0,0.0,0.006765380992917958,0.6291722692369683,0.3146131326673987,0.38499529833107765,-0.014749757075937685,-0.0024220335222860977,0.07787655755756784
4434,9.0,299.7511,-4503.8842,0.044339984844758096,0.0,0.0,0.0,0.0,0.006766908610803729,0.6746009828329333,0.29890149423178075,0.3955658577468106,0.003865734454943286,0.01003417774342124,0.046050723514352555
4435,9.0,300.20912000000004,-4538.7381,0.04434999451945543,0.0,0.0,0.0,0.0,0.006768436228689445,0.6785332342185164,0.3101683287187307,0.39096148717239465,-0.00019778627766498582,0.01009308131545957,0.06052255723361134
4436,9.0,300.22067999999996,-4593.7253,0.04435997115892287,0.0,0.0,0.0,0.0,0.006769958804931975,0.6941028048576133,0.3097087286058717,0.39256625241577264,-0.012224126836927387,-0.0015555996127507286,0.038158474915698265
4437,9.0,300.10489,-4441.1922,0.044369980833620426,0.0,0.0,0.0,0.0,0.006771486422817691,0.6497108690289704,0.3085441192059337,0.39175654399586063,-0.021057375737201182,-0.005871913012262694,0.07440289708774424
4438,9.0,299.78444,-4371.1055,0.04437999050831776,0.0,0.0,0.0,0.0,0.006773014040703407,0.6374712840485174,0.3122649356931497,0.37897069562149566,-0.003953688008673626,-0.003942448329289356,0.06443462366395224
4439,9.0,300.13149,-4538.3712,0.0443899671477852,0.0,0.0,0.0,0.0,0.0067745366169459365,0.6475964187202904,0.3251653015938167,0.4067897810920256,0.002132071538519078,-0.004604335617287545,0.07469415988198963
4440,9.0,299.9592,-4589.0526,0.044399976822482534,0.0,0.0,0.0,0.0,0.006776064234831652,0.6875078740642444,0.3188539288409327,0.38859558871889865,0.016276266987592485,-0.011522024564385289,0.06320963469055524
4441,9.0,300.76763,-4333.1984,0.04440998649718031,0.0,0.0,0.0,0.0,0.006777591852717424,0.6563503929592404,0.3002027302752027,0.36063101066650965,-0.0042173961757245955,-0.015345727480005384,0.06391070243474524
4442,9.0,300.27733,-4339.624,0.04441996313664753,0.0,0.0,0.0,0.0,0.006779114428959926,0.6583808650996325,0.3003868175533707,0.36036964280321465,0.007467170727302373,-0.005286154041377785,0.04762326436480025
4443,9.0,299.4748,-4647.2524,0.044429972811345086,0.0,0.0,0.0,0.0,0.00678064204684567,0.6679418423807274,0.33696839869619166,0.4077384466306516,-0.000926200284298851,0.01999693047404338,0.04131716861843706
4444,9.0,299.59382999999997,-4729.1681,0.04443998248604264,0.0,0.0,0.0,0.0,0.006782169664731386,0.6773736100090704,0.3385565263729277,0.4216188888230446,0.007784531905698482,0.01001792490784221,0.061237479146418645
4445,9.0,299.6284,-4725.4225,0.04444999216074019,0.0,0.0,0.0,0.0,0.006783697282617129,0.6560107717907223,0.3407259252345307,0.4396737694399226,-0.014374344874137385,-0.009886683182014662,0.06489371613851115
4446,9.0,299.67679,-4662.2637,0.04445996880020742,0.0,0.0,0.0,0.0,0.006785219858859631,0.6851757573690823,0.3320468707079747,0.3999891098658516,-0.0020220756407883277,-0.007223714390000103,0.061710022516055035
4447,9.0,299.62681000000003,-4398.2233,0.04446997847490497,0.0,0.0,0.0,0.0,0.006786747476745375,0.6603711618735594,0.2929010271395807,0.3836778806835586,0.005444530402233315,-0.004299653237392736,0.05571277147967245
4448,9.0,299.35647,-4487.2821,0.04447998814960252,0.0,0.0,0.0,0.0,0.006788275094631119,0.6767824089732234,0.3197337946977687,0.36750549716246866,0.0007785285155822823,-0.008632171748404022,0.06309752768624113
4449,9.0,299.55552,-4599.7468,0.04448996478906975,0.0,0.0,0.0,0.0,0.0067897976708736485,0.6598373310583744,0.3308063688755467,0.40756446145598063,-0.007794585474515692,-0.005882699566202244,0.06592466569125793
4450,9.0,300.25056,-4347.7251,0.0444999744637673,0.0,0.0,0.0,0.0,0.0067913252887593645,0.6490789252066024,0.3058114546137407,0.36670947775140766,0.002466971468196128,0.01082019181636979,0.06550474546556503
4451,9.0,300.34392,-4268.5449,0.04450998413846485,0.0,0.0,0.0,0.0,0.0067928529066450805,0.6075707700900664,0.3118136037011067,0.37814670037517367,3.3205148099592965e-05,0.029778029246612676,0.07710078389675493
4452,9.0,300.15882,-4487.025,0.044519993813162184,0.0,0.0,0.0,0.0,0.006794380524530824,0.6828989945268833,0.3055637352292927,0.37548082922957265,0.004711696051508196,0.003547875162798017,0.05941286700234344
4453,9.0,299.74822,-4705.4232,0.04452997045262963,0.0,0.0,0.0,0.0,0.006795903100773326,0.6888035473646174,0.3359897105571027,0.4055379004609746,0.01036651516359539,-0.007549193829522423,0.05616986177203375
4454,9.0,299.80607000000003,-4553.1837,0.04453998012732696,0.0,0.0,0.0,0.0,0.00679743071865907,0.6898949393123294,0.3101657550634767,0.38399345742720364,-0.0037423226192634866,-0.0033021344531452964,0.04901634950328705
4455,9.0,300.18613999999997,-4510.7857,0.044549989802024514,0.0,0.0,0.0,0.0,0.006798958336544814,0.6435259701535684,0.31072063108323866,0.41691960711176157,-0.0007051738692927423,0.0019188305218488279,0.05301075668975435
4456,9.0,299.55671,-4605.6326,0.04455996644149196,0.0,0.0,0.0,0.0,0.006800480912787343,0.6673827816380523,0.3241763796287177,0.4084381566197076,-0.006463870236659323,-0.005137509947732755,0.06681499943487704
4457,9.0,299.83767,-4605.7916,0.04456997611618929,0.0,0.0,0.0,0.0,0.006802008530673059,0.6486360943828984,0.3202448780482087,0.43116467748514065,-0.011682038033427388,-0.004227988286969956,0.06310549183202714
4458,9.0,299.27085,-4589.3026,0.044579985790886845,0.0,0.0,0.0,0.0,0.006803536148558775,0.6877782497209283,0.3282794852461627,0.37897566054698567,0.004207695420592206,-0.003524058415222487,0.07427243404461853
4459,9.0,299.07099999999997,-4402.8157,0.0445899954655844,0.0,0.0,0.0,0.0,0.006805063766444519,0.6642629845801523,0.2944882530237277,0.37959479688808967,0.0014127308420256786,0.006199122880305795,0.043875630187187556
4460,9.0,299.80257,-4207.175,0.044599972105051844,0.0,0.0,0.0,0.0,0.006806586342687049,0.6466040922348554,0.29002026591277175,0.3422517886926217,0.002720871272954088,0.0006072313211740654,0.06962237703644364
4461,9.0,299.70087,-4510.4761,0.044609981779749175,0.0,0.0,0.0,0.0,0.006808113960572765,0.6393460297810404,0.3263597613417007,0.4053663268215416,-0.01164180896470709,-0.001296730626852349,0.06305829160261885
4462,9.0,300.06419,-4850.1336,0.04461999145444673,0.0,0.0,0.0,0.0,0.0068096415784585085,0.6954512380906934,0.3464263081771147,0.4324419400311966,0.0075894296870183935,0.01148037289252459,0.06814527623941513
4463,9.0,300.12687,-4632.2875,0.044629968093914174,0.0,0.0,0.0,0.0,0.006811164154701038,0.6580318815001904,0.3325933671494097,0.4174744628665216,-0.0019919793770430583,0.018545355473534083,0.06072054326340104
4464,9.0,300.13077000000004,-4453.9282,0.044639977768611505,0.0,0.0,0.0,0.0,0.006812691772586754,0.6622801858569654,0.3206909918022367,0.37091180081864467,0.004517618330004215,-0.005819988301613125,0.06173446818796765
4465,9.0,300.12349,-4601.2262,0.04464998744330906,0.0,0.0,0.0,0.0,0.00681421939047247,0.6859347526214894,0.3185209748580727,0.39420213456972164,0.004398026649851436,-0.02862832678214587,0.056899901376333044
4466,9.0,300.41465,-4724.8396,0.044659964082776504,0.0,0.0,0.0,0.0,0.006815741966715028,0.6978023126952264,0.3306688911019787,0.4077620654904826,0.011581356437240889,-0.008421220879609791,0.04782230822769436
4467,9.0,299.70639,-4552.2997,0.04466997375747406,0.0,0.0,0.0,0.0,0.006817269584600744,0.6552973626603144,0.3171222540225297,0.4113658110611446,-0.004069717912074886,-0.0014831699624774787,0.060119299905812947
4468,9.0,300.01743999999997,-4297.8346,0.04467998343217139,0.0,0.0,0.0,0.0,0.00681879720248646,0.6358784954213214,0.2949611571103997,0.3755947489383156,-0.013104568219820187,-0.007824985713290962,0.06471279830665594
4469,9.0,299.67559,-4314.4726,0.04468999310686894,0.0,0.0,0.0,0.0,0.006820324820372203,0.6297605014500224,0.3041923214839447,0.37753909482020764,-0.02053512130440868,0.006512555384089175,0.07711037430895142
4470,9.0,299.86548999999997,-4452.1828,0.04469996974633639,0.0,0.0,0.0,0.0,0.006821847396614733,0.6710898077914074,0.3033706972428567,0.37889189516121863,-0.001166755767624829,0.015088391338858287,0.07300647025042764
4471,9.0,300.68232,-4605.1622,0.04470997942103394,0.0,0.0,0.0,0.0,0.006823375014500477,0.6835244839461143,0.3324158254668877,0.38391399835436163,0.004126710798399646,0.01150054163576509,0.07529210713700242
4472,9.0,300.15218,-4653.8457,0.04471998909573127,0.0,0.0,0.0,0.0,0.006824902632386165,0.6894113555696033,0.32307850288036566,0.40216302782290064,-0.0037618053921862865,-0.008765942039856122,0.061455870006722146
4473,9.0,300.20551,-4501.6338,0.04472996573519894,0.0,0.0,0.0,0.0,0.00682642520862875,0.6337563545443824,0.3298176191629647,0.40481030582916666,0.0022997423412168976,-0.016809442229962786,0.06740925238002524
4474,9.0,300.29207,-4496.9678,0.04473997540989627,0.0,0.0,0.0,0.0,0.0068279528265144385,0.6491166789053284,0.3273405975710017,0.39050863530520163,0.007844397964006803,-0.007438448228042682,0.06373296722145413
4475,9.0,300.40177,-4636.6459,0.0447499850845936,0.0,0.0,0.0,0.0,0.0068294804444001544,0.6777611984373223,0.3102697753187427,0.42139361292831157,0.0047066452024097155,0.006159049852100895,0.04304263829322766
4476,9.0,299.87065,-4600.146,0.044759994759291155,0.0,0.0,0.0,0.0,0.006831008062285898,0.6839010279482763,0.3253661986911437,0.3890623018474596,-0.008641672386641663,-0.0035593820362336565,0.06190119139917194
4477,9.0,299.66236000000004,-4332.6068,0.0447699713987586,0.0,0.0,0.0,0.0,0.006832530638528428,0.6535430720996794,0.2930609686678657,0.37040025137315863,-0.02226643033952558,-0.005695323278209645,0.056141582974992846
4478,9.0,299.00701000000004,-4358.7336,0.044779981073456154,0.0,0.0,0.0,0.0,0.006834058256414172,0.6568855308670544,0.3018912609043477,0.36616937491810364,-0.001344608315277509,0.0019009842491625384,0.05840032617741345
4479,9.0,299.54291,-4534.265,0.044789990748153485,0.0,0.0,0.0,0.0,0.00683558587429986,0.6514092585815884,0.3216094726203837,0.4052846284659786,0.003498657957740657,0.00046138362555251853,0.06042471780395534
4480,9.0,300.05381,-4621.8962,0.044799967387621153,0.0,0.0,0.0,0.0,0.006837108450542445,0.6716333354100493,0.3190205476873767,0.4142871630869596,-0.007448838094568083,-0.011831756881453489,0.07126380774794024
4481,9.0,299.54738,-4739.0237,0.044809977062318485,0.0,0.0,0.0,0.0,0.006838636068428133,0.6872104243648883,0.3457466706725397,0.40758778647328264,-0.0027220970016000575,-0.00946754508407395,0.07799086939409952
4482,9.0,299.65043,-4610.5671,0.04481998673701604,0.0,0.0,0.0,0.0,0.006840163686313877,0.6817474459207344,0.3219964834960787,0.3977533532551996,0.006353327285199583,0.032978645158988865,0.061980003005200034
4483,9.0,299.85012,-4386.4998,0.04482996337648326,0.0,0.0,0.0,0.0,0.006841686262556407,0.6464873556908344,0.31035979245762674,0.37653925001903066,0.008556923540327601,0.024823027528092078,0.057750282668509144
4484,9.0,300.05386,-4491.3602,0.044839973051180815,0.0,0.0,0.0,0.0,0.0068432138804421505,0.6573549797708854,0.3157726960818387,0.3921336655505796,-0.01005916134981193,-0.002916127910949417,0.044780937740784454
4485,9.0,299.97817000000003,-4600.3011,0.04484998272587837,0.0,0.0,0.0,0.0,0.0068447414983278665,0.6626141125599213,0.30872301864358975,0.4270395438105216,-0.0064985708101840045,-0.016517397206640184,0.04547094687338306
4486,9.0,300.06555,-4440.2221,0.0448599924005757,0.0,0.0,0.0,0.0,0.006846269116213555,0.6607426294927203,0.3128297212988897,0.3761442851300506,-0.008101780410683473,-0.0069164391030993935,0.05092639180304355
4487,9.0,300.05976,-4348.0865,0.044869969040043145,0.0,0.0,0.0,0.0,0.00684779169245614,0.6357240761060814,0.3156958005317497,0.37028984764226264,0.0006777710776257973,-0.007487386181372483,0.06517464074198623
4488,9.0,300.25815,-4494.7006,0.044879978714740476,0.0,0.0,0.0,0.0,0.006849319310341828,0.6785429107569713,0.3103451307286797,0.37738871837286664,-0.001975906697331808,-0.019235313943627683,0.06924022874797853
4489,9.0,300.08023,-4721.2006,0.04488998838943803,0.0,0.0,0.0,0.0,0.006850846928227572,0.6867978593216714,0.35271477134523765,0.3956144734866086,0.006590451822626953,-0.0024923169061975277,0.07317578434213763
4490,9.0,299.80875,-4576.0035,0.044899965028905475,0.0,0.0,0.0,0.0,0.006852369504470102,0.6767091408584923,0.3192328337158277,0.3950488367507846,-0.0008508803279828501,0.012228686462377387,0.07547154663696173
4491,9.0,299.70976,-4443.9064,0.04490997470360303,0.0,0.0,0.0,0.0,0.006853897122355845,0.6408058293326114,0.3074335768313317,0.4025971852257486,0.006495489111329864,0.020634096587426782,0.05497279493164245
4492,9.0,299.46493,-4453.8053,0.04491998437830036,0.0,0.0,0.0,0.0,0.006855424740241561,0.6553217718552233,0.3189509982005127,0.3795728397584226,-0.0037205533461650265,-0.0006312857366930514,0.07436145515865424
4493,9.0,299.52811,-4465.6504,0.04492999405299791,0.0,0.0,0.0,0.0,0.006856952358127277,0.6583428682208824,0.30708202970913673,0.3920213265119927,0.01102172118175919,-0.007621809107213993,0.05815651591185124
4494,9.0,299.15591,-4659.3283,0.04493997069246536,0.0,0.0,0.0,0.0,0.006858474934369835,0.6889607733826344,0.33874868925439267,0.3886099870028196,0.007210768904072483,0.013203972107630588,0.056492565716882145
4495,9.0,299.70502999999997,-4613.2406,0.04494998036716291,0.0,0.0,0.0,0.0,0.006860002552255551,0.6663665829802614,0.32422289794080866,0.4117204587286456,0.0025210250173057975,0.02119100822663968,0.03907042635020086
4496,9.0,300.1854,-4365.6547,0.04495999004186024,0.0,0.0,0.0,0.0,0.006861530170141267,0.6275857019653864,0.3125358686373887,0.3869284477993646,-0.0075165938247800535,-0.007144944327226103,0.05115704704255745
4497,9.0,299.86855,-4542.6964,0.04496996668132791,0.0,0.0,0.0,0.0,0.006863052746383824,0.6538159302191083,0.3256856967126757,0.4013646475391066,-0.011662143880963989,-0.014899071637173885,0.06350694152164714
4498,9.0,299.41297000000003,-4774.8845,0.04497997635602524,0.0,0.0,0.0,0.0,0.00686458036426954,0.7030782755684234,0.3218709722061917,0.42649640122691757,0.007846269436941502,0.003456491453504147,0.07258653279948303
4499,9.0,299.68019,-4641.6263,0.04498998603072257,0.0,0.0,0.0,0.0,0.006866107982155256,0.6834494730412113,0.33325730940993564,0.3942317012076396,0.009538189387671002,-0.013093650449992687,0.08011664986539771
4500,9.0,299.53927999999996,-4519.4179,0.04499996267019024,0.0,0.0,0.0,0.0,0.006867630558397814,0.6886975512716563,0.3162824926046517,0.3688101478587277,-0.003765055391882036,-0.016236345946902587,0.08026461984375122
4501,9.0,299.71431,-4683.4017,0.04500997234488757,0.0,0.0,0.0,0.0,0.00686915817628353,0.6857294884162314,0.3190727604650297,0.41883491324578764,-0.005664732751065595,-0.014933304291802384,0.06304789970959324
4502,9.0,299.96263,-4666.3709,0.045019982019585125,0.0,0.0,0.0,0.0,0.006870685794169246,0.6820579868113823,0.3271225056194777,0.4092797216227636,0.014396479322571886,0.030502587167870972,0.06254800770650774
4503,9.0,300.06222,-4511.2364,0.045029991694282456,0.0,0.0,0.0,0.0,0.006872213412054962,0.6469563688971224,0.3130255116157127,0.41132131924925364,0.005636654678869505,0.02778945702435587,0.05039316285841795
4504,9.0,300.03407000000004,-4465.479,0.045039968333750124,0.0,0.0,0.0,0.0,0.006873735988297519,0.6431220380012034,0.3141603111977087,0.40011174352545464,-0.0008768113738795452,-0.0014045278731911084,0.06129216121456535
4505,9.0,300.61184,-4398.3219,0.045049978008447455,0.0,0.0,0.0,0.0,0.006875263606183235,0.6412787739492873,0.3189938789447447,0.37670737860812364,-0.014242291028354687,-0.021207249612492582,0.07606450870148253
4506,9.0,300.40393,-4473.1589,0.04505998768314501,0.0,0.0,0.0,0.0,0.006876791224068979,0.6595943536843945,0.3225161592073667,0.37761810806300566,0.003460037018254067,0.006761692812052124,0.06518856482486043
4507,9.0,300.50464,-4664.9669,0.045069964322612455,0.0,0.0,0.0,0.0,0.0068783138003115085,0.6696957175088214,0.3390855949126427,0.4092521612200436,0.01099561681943289,-0.0025837158142428974,0.05584872937809044
4508,9.0,299.94716,-4579.4179,0.04507997399731001,0.0,0.0,0.0,0.0,0.006879841418197252,0.6631119020690494,0.3291093776080667,0.39980742399042063,-0.009665746024209861,-0.008702007782396302,0.062032937216924246
4509,9.0,299.78796,-4425.6987,0.04508998367200734,0.0,0.0,0.0,0.0,0.0068813690360829405,0.6408270163922024,0.3089373109072387,0.39553755767151766,-0.015584229328293685,-0.00931204351640214,0.06973448100100743
4510,9.0,299.98942,-4623.6054,0.04509999334670467,0.0,0.0,0.0,0.0,0.0068828966539686565,0.6746252096428244,0.32555299134707866,0.4052823790507566,0.0035974487279155465,0.014480464583610589,0.07735810585240062
4511,9.0,300.20992,-4715.5199,0.04510996998617234,0.0,0.0,0.0,0.0,0.006884419230211214,0.7050293899609833,0.3116248858699817,0.4167460272371306,0.01856748282921788,0.0040603378505991465,0.06053832644491764
4512,9.0,299.55407,-4561.2517,0.04511997966086967,0.0,0.0,0.0,0.0,0.00688594684809693,0.6838297762012443,0.31636284333758175,0.38631399267372263,0.009285352887567981,-0.02181211533918818,0.060818831562851346
4513,9.0,299.73445,-4516.0403,0.04512998933556722,0.0,0.0,0.0,0.0,0.006887474465982674,0.6615701508493903,0.3149723804903537,0.3962209442014626,0.013586991791181686,-0.02702333963699597,0.05673320552288144
4514,9.0,300.09132999999997,-4536.6275,0.045139965975034446,0.0,0.0,0.0,0.0,0.006888997042225203,0.6652526056878204,0.3154682549567927,0.3983006400317126,0.013918575859906485,0.027971368854559173,0.03844562087478737
4515,9.0,300.54675,-4477.4644,0.045149975649732,0.0,0.0,0.0,0.0,0.006890524660110947,0.6399662604322524,0.32870402690556166,0.39236708797611664,0.007041894562905884,0.021903449703202182,0.05340393217905775
4516,9.0,300.4225,-4575.5958,0.04515998532442955,0.0,0.0,0.0,0.0,0.006892052277996635,0.6670171300744654,0.3244813476438157,0.3993683725895896,-0.012012233949515188,0.005255481744950665,0.06711316651530384
4517,9.0,299.51302000000004,-4721.9255,0.045169994999127105,0.0,0.0,0.0,0.0,0.006893579895882379,0.6957249270752043,0.34055686445534566,0.3990656641222146,-0.015950441219185985,-0.013043406417283987,0.07780742046349452
4518,9.0,299.90791,-4508.0142,0.04517997163859433,0.0,0.0,0.0,0.0,0.006895102472124909,0.6754911635757874,0.3184604027670947,0.3763721752100416,-0.014074484652793486,0.005409716547347454,0.07932685890270141
4519,9.0,299.97437,-4467.9285,0.04518998131329188,0.0,0.0,0.0,0.0,0.0068966300900106525,0.6557692230993833,0.3114489451226177,0.3909205417358536,0.0017755362874067886,-0.0002920741339979727,0.07436444931269973
4520,9.0,300.02412000000004,-4677.1844,0.045199990987989214,0.0,0.0,0.0,0.0,0.0068981577078963685,0.6811603181502894,0.3267041042556847,0.4138828357670556,-0.014432265289603686,-0.007006276491415654,0.062047369951348644
4521,9.0,300.05085,-4637.8611,0.04520996762745666,0.0,0.0,0.0,0.0,0.006899680284138898,0.6632964959722674,0.32552439742925665,0.4209730634743066,0.006908566757772453,-0.008071482510168303,0.06483594365755943
4522,9.0,299.97423,-4422.3245,0.04521997730215421,0.0,0.0,0.0,0.0,0.006901207902024614,0.6469987835463084,0.3142290500844927,0.3830483787939316,0.006980175067514643,0.02053647399329218,0.06982881559856753
4523,9.0,300.00403,-4437.0094,0.045229986976851544,0.0,0.0,0.0,0.0,0.00690273551991033,0.6540769738423713,0.3212712497370037,0.37339184189590563,0.019142280359195983,0.015049119791482485,0.057844288973036846
4524,9.0,300.32362,-4521.3398,0.04523996361631899,0.0,0.0,0.0,0.0,0.00690425809615286,0.6732005698697233,0.3197701602438577,0.3814036610991106,0.001031396700015929,-0.01171330895801359,0.06435704417004574
4525,9.0,300.49922999999995,-4531.8369,0.04524997329101654,0.0,0.0,0.0,0.0,0.006905785714038604,0.6603832702122543,0.3285367798440557,0.3886452177087966,0.01959293752667238,-0.017816723273623682,0.06131631507044915
4526,9.0,300.6724,-4627.0066,0.045259982965714096,0.0,0.0,0.0,0.0,0.006907313331924347,0.6729866829061144,0.3329667802087627,0.4005409967978186,0.0032488372952352773,0.009288836340086773,0.05732757195204084
4527,9.0,300.40098,-4633.0467,0.04526999264041143,0.0,0.0,0.0,0.0,0.006908840949810063,0.6711877992085784,0.31951751646392373,0.4176251939513976,0.0012834224987139388,0.014886642098197185,0.05261660645385475
4528,9.0,300.02862000000005,-4569.4511,0.045279969279879095,0.0,0.0,0.0,0.0,0.006910363526052621,0.6646527413636184,0.3309768684698737,0.39336941524003866,-0.039118657054960856,-0.0008392888177663572,0.07409831613418442
4529,9.0,300.08692,-4723.4457,0.045289978954576426,0.0,0.0,0.0,0.0,0.006911891143938309,0.7053082465210043,0.3242820818791497,0.40621921996071564,-0.016429919272506782,-0.007769329405173112,0.06745256476879984
4530,9.0,299.56452,-4811.2289,0.04529998862927398,0.0,0.0,0.0,0.0,0.006913418761824053,0.7084129258874123,0.3319828231691537,0.4220976900252986,0.012286252240308689,0.022781473471356378,0.06385374663337413
4531,9.0,299.31057000000004,-4404.9494,0.045309965268741204,0.0,0.0,0.0,0.0,0.006914941338066555,0.6625787906614354,0.29795435870080567,0.3784614766512397,0.019497594745262782,0.004406649408202436,0.05288930042676755
4532,9.0,299.41368,-4169.9678,0.04531997494343898,0.0,0.0,0.0,0.0,0.006916468955952326,0.6169233420905934,0.27841079077200576,0.37223196437393463,0.013659291238817088,-0.016829583615450585,0.060672912402700244
4533,9.0,299.74025,-4506.2234,0.04532998461813631,0.0,0.0,0.0,0.0,0.006917996573838042,0.6451883184001295,0.32838838936691067,0.3962026955671616,0.0062979859965378235,-0.026761646520418875,0.07298237313654943
4534,9.0,300.5124,-4615.988,0.04533999429283364,0.0,0.0,0.0,0.0,0.006919524191723758,0.6782396146045384,0.3192534634878637,0.4056520025547356,0.018623411194987585,0.015148793203819485,0.06840521238031884
4535,9.0,300.5698,-4570.9083,0.04534997093230131,0.0,0.0,0.0,0.0,0.006921046767966316,0.6693581431055053,0.3357756209434737,0.3843082438357706,-0.0026174801446751774,0.016991269960407784,0.08490483718020501
4536,9.0,300.22102,-4508.2514,0.04535998060699864,0.0,0.0,0.0,0.0,0.006922574385852004,0.6567060741418433,0.3300466846130717,0.3836431059401267,-0.005482816867861895,-0.005032849318403555,0.07003645080905953
4537,9.0,300.1781,-4472.9871,0.04536999028169619,0.0,0.0,0.0,0.0,0.006924102003737748,0.6640345980076123,0.3075009174329777,0.3881408724715216,-0.02418358666823418,-0.013700031998837887,0.06353113084128445
4538,9.0,300.07822000000004,-4578.0016,0.04537996692116342,0.0,0.0,0.0,0.0,0.00692562457998025,0.6635441140317054,0.3325251044901727,0.3955289551781686,0.0005948771376073025,0.004149087210958026,0.06213193783119485
4539,9.0,300.06572,-4697.6305,0.04538997659586119,0.0,0.0,0.0,0.0,0.006927152197866021,0.6819348566592304,0.3293715358064397,0.41665597970074364,-0.005466606690112074,-0.005460981226881885,0.05594415017975774
4540,9.0,299.85832,-4576.0296,0.04539998627055852,0.0,0.0,0.0,0.0,0.006928679815751737,0.6827157279812964,0.3211224438273177,0.38716057326477366,-0.015996873405018482,-0.005733684420370594,0.06491436820204934
4541,9.0,299.95597000000004,-4363.0512,0.04540996291002597,0.0,0.0,0.0,0.0,0.006930202391994267,0.6453105568921934,0.31808373717492067,0.36286433547692165,-0.023957757538946578,-0.0024316650724366578,0.08177913692722243
4542,9.0,299.38128,-4580.1626,0.04541997258472352,0.0,0.0,0.0,0.0,0.0069317300098800105,0.6773512374468624,0.3214544656200857,0.3934493708054296,0.012358204143159789,0.017833280793507784,0.06875575942466514
4543,9.0,299.75266,-4827.6625,0.045429982259421076,0.0,0.0,0.0,0.0,0.0069332576277657265,0.7077432790288234,0.3348573630403487,0.42488819093319957,0.00981276445939445,0.023934155904367278,0.05483164412646195
4544,9.0,299.44345,-4602.3126,0.04543999193411841,0.0,0.0,0.0,0.0,0.0069347852456514425,0.6600594354802943,0.3250351698834737,0.4138935052906086,0.008851308462106132,-0.005933020301943514,0.05813158590639085
4545,9.0,298.88736,-4449.518,0.04544996857358585,0.0,0.0,0.0,0.0,0.006936307821893972,0.6503904964010444,0.3096137060114937,0.39253815499049965,-0.00012214087554936588,-0.015740244512441184,0.057345589565319044
4546,9.0,299.14537,-4580.8129,0.045459978248283184,0.0,0.0,0.0,0.0,0.006937835439779716,0.6737612720775603,0.32430373503378673,0.39438772145803763,0.003086143171728617,0.009095706514051342,0.05864989069029354
4547,9.0,299.94388,-4659.0109999999995,0.04546998792298074,0.0,0.0,0.0,0.0,0.006939363057665432,0.6692353067958824,0.3419842704012197,0.4050034110332246,0.0034288622511023563,0.014013464705271287,0.05677672765442674
4548,9.0,299.89875,-4688.4694,0.04547996456244796,0.0,0.0,0.0,0.0,0.006940885633907962,0.6731098738532724,0.33456543555403767,0.4175023171117706,-0.01182888533067009,-0.003015590060640567,0.06216863471006654
4549,9.0,299.83151000000004,-4632.266,0.045489974237145514,0.0,0.0,0.0,0.0,0.006942413251793705,0.6792671515309484,0.3326922502266687,0.39613380469286263,-0.013569139337669787,-0.0006917219812301444,0.05139999503228455
4550,9.0,300.04927000000004,-4472.5496,0.04549998391184307,0.0,0.0,0.0,0.0,0.006943940869679421,0.6592601027414063,0.30273027251715173,0.3975530438429306,0.0013190585047309388,-0.0027082021003287373,0.04736034116260175
4551,9.0,300.36368999999996,-4539.2007,0.0455099935865404,0.0,0.0,0.0,0.0,0.006945468487565137,0.6637530158048224,0.3297731476160757,0.38627750553762163,0.004329714847984586,-0.00013961780844170489,0.07673375228653173
4552,9.0,300.17559,-4764.0627,0.045519970226007844,0.0,0.0,0.0,0.0,0.006946991063807667,0.7036276901701463,0.3339395205697647,0.4105888914144686,-0.0002525980316919848,-0.022107738148613876,0.07729894623206203
4553,9.0,299.82906,-4677.5404,0.0455299799007054,0.0,0.0,0.0,0.0,0.006948518681693411,0.6831632197554603,0.3311675621386937,0.4075247116545576,0.007718844624240653,-0.013527862568346089,0.09489153351731522
4554,9.0,299.5081,-4355.9356,0.04553998957540295,0.0,0.0,0.0,0.0,0.0069500462995791545,0.6493569914315453,0.32248727144701567,0.35225140194200666,0.007015384393914534,0.007895001396525972,0.07392523781835293
4555,9.0,299.86001,-4381.8087,0.045549966214870174,0.0,0.0,0.0,0.0,0.0069515688758216565,0.6430211993512515,0.30429072833365667,0.38464849321935063,0.011689179420132189,0.014380761787020685,0.05741806025222135
4556,9.0,299.68581,-4703.2091,0.04555997588956773,0.0,0.0,0.0,0.0,0.0069530964937074,0.6773719280139044,0.33374346680791567,0.4185427425794526,-0.005873776379196594,-0.005397698083936325,0.04330952836956766
4557,9.0,298.86935,-4716.5411,0.04556998556426528,0.0,0.0,0.0,0.0,0.006954624111593116,0.6804525426904374,0.33900723014990863,0.4142509596608866,0.002128904422681508,0.00017881033244220585,0.060828201086526035
4558,9.0,299.41512,-4627.6064,0.04557999523896261,0.0,0.0,0.0,0.0,0.006956151729478832,0.6748387824989024,0.3279314439693137,0.40390655766747363,-0.018295590337134182,0.003586708479505567,0.06496596492364153
4559,9.0,300.29151,-4644.0711,0.04558997187843006,0.0,0.0,0.0,0.0,0.006957674305721362,0.6801199433451124,0.3330928285212027,0.39846888007831666,0.0036315703303330866,0.008058533275215312,0.06792627540255143
4560,9.0,300.50382,-4580.7664,0.04559998155312761,0.0,0.0,0.0,0.0,0.006959201923607106,0.6729678161892524,0.3203733378958867,0.3990974497778516,-0.015459014920685986,-0.008733834778637383,0.06783127509967564
4561,9.0,300.39525,-4622.9671,0.045609991227825164,0.0,0.0,0.0,0.0,0.006960729541492849,0.6824853047760553,0.33050886851368566,0.39227238962177063,-0.003938681977342646,-0.014995821822972384,0.061972040885914244
4562,9.0,300.15705,-4629.695,0.04561996786729239,0.0,0.0,0.0,0.0,0.006962252117735351,0.6797491140735143,0.3164355440322567,0.4111270184100776,0.008135398934426363,-0.0006905960881165272,0.05811837920458745
4563,9.0,300.30973,-4439.6845,0.04562997754198994,0.0,0.0,0.0,0.0,0.006963779735621095,0.6660543702269484,0.30477133312108873,0.37872752572999663,0.0028453538100145573,0.016982442525536587,0.05379634367778575
4564,9.0,300.56482,-4439.6959,0.045639987216687494,0.0,0.0,0.0,0.0,0.006965307353506811,0.6379757002132994,0.3285462841299937,0.38303472018258367,0.001061233166435559,-0.0038808751472125566,0.08141256431929453
4565,9.0,300.09831,-4810.5525,0.04564996385615494,0.0,0.0,0.0,0.0,0.0069668299297493685,0.7015132297289653,0.34531312121975166,0.41546148955535667,0.004028272943234586,0.0008741338402252933,0.06634415731215854
4566,9.0,299.21842999999996,-4900.4149,0.04565997353085227,0.0,0.0,0.0,0.0,0.006968357547635057,0.7079405993532973,0.35451780936818367,0.4271453372534626,0.01060551046468239,0.02227105683948218,0.05180588579709285
4567,9.0,299.38106,-4598.2354,0.045669983205549824,0.0,0.0,0.0,0.0,0.0069698851655208005,0.6673362430609593,0.3268544908355267,0.4035580097655746,0.0057945917958066835,0.0027601495077805476,0.049507148599975154
4568,9.0,299.64897,-4557.9492,0.04567999288024738,0.0,0.0,0.0,0.0,0.006971412783406544,0.6718105731175414,0.31766524461861867,0.3960269169398136,-0.0043451212144300765,-0.018453263198445282,0.04311400251102076
4569,9.0,300.02987,-4591.944,0.045689969519714824,0.0,0.0,0.0,0.0,0.006972935359649074,0.6746196671647773,0.3181967652235757,0.4030198827699656,-0.018134393391975284,-0.016234103624431284,0.06305081381688084
4570,9.0,299.98992999999996,-4504.1406,0.045699979194412155,0.0,0.0,0.0,0.0,0.00697446297753479,0.6642784265116763,0.3210482029924907,0.38381964450504963,0.0002891078139327197,0.00018111702669235883,0.07668294590001752
4571,9.0,299.90484,-4550.018,0.04570998886910971,0.0,0.0,0.0,0.0,0.006975990595420506,0.6793112380427994,0.3182638423801957,0.3855167776275436,-0.020334040808813583,0.004096647363957616,0.08479523290363791
4572,9.0,300.30658,-4494.7767,0.045719965508577154,0.0,0.0,0.0,0.0,0.006977513171663063,0.6650845784237374,0.3155469642245607,0.38566834971000263,-0.004764804846224625,-0.0024563828020011075,0.060823885654350145
4573,9.0,299.93649,-4409.3187,0.045729975183274485,0.0,0.0,0.0,0.0,0.006979040789548752,0.6356050698818364,0.3172446445021087,0.3874730697281146,-0.013007061136196986,-0.0026444418179110874,0.08409647840942622
4574,9.0,300.07515,-4691.777,0.04573998485797204,0.0,0.0,0.0,0.0,0.006980568407434495,0.6755750100215623,0.3316036345842307,0.4190044198550166,0.018619874952138585,0.009673462025046372,0.04930881097240075
4575,9.0,300.30671,-4925.3327,0.04574999453266959,0.0,0.0,0.0,0.0,0.006982096025320239,0.7130779293478123,0.3439658329592847,0.4401344030678836,0.010624213035028189,0.0043930914125893655,0.05870509964849224
4576,9.0,299.94751,-4761.6605,0.04575997117213704,0.0,0.0,0.0,0.0,0.006983618601562769,0.6833174769506843,0.3443319100879137,0.41977651643121655,0.012798318443345688,-0.012473819019320088,0.053021640009078455
4577,9.0,299.61256000000003,-4509.7616,0.04576998084683437,0.0,0.0,0.0,0.0,0.006985146219448485,0.6589534628636434,0.3256313257123097,0.3862701290768937,-0.002756486000718987,-0.018512055008997583,0.07055316377705513
4578,9.0,299.09743,-4611.229,0.04577999052153192,0.0,0.0,0.0,0.0,0.006986673837334201,0.6756811581020384,0.3249377256213567,0.40107958988847364,0.007574773936246983,0.008849922538619352,0.04305788872048275
4579,9.0,299.60281000000003,-4621.7262,0.04578996716099937,0.0,0.0,0.0,0.0,0.006988196413576758,0.6776405304829134,0.3212267680576137,0.4060220516237566,-0.01795575131984468,0.01207947119965099,0.051570585819120544
4580,9.0,299.77886,-4501.3288,0.0457999768356967,0.0,0.0,0.0,0.0,0.006989724031462474,0.6696577003650693,0.3156227249345377,0.38301111145525363,-0.014934819100701885,-0.0062079154593735544,0.05767002211483805
4581,9.0,299.21268,-4558.1953,0.04580998651039425,0.0,0.0,0.0,0.0,0.00699125164934819,0.6721340430794653,0.3158338862553777,0.3976096338610156,-0.017412266257706883,0.0076785599280898625,0.06833028861492443
4582,9.0,300.0793,-4576.7506,0.0458199631498617,0.0,0.0,0.0,0.0,0.006992774225590748,0.6662846819746784,0.3231179588392597,0.4018152803885806,0.011302001358170688,0.00897056242600058,0.07352048189365663
4583,9.0,300.05694,-4577.8092,0.04582997282455903,0.0,0.0,0.0,0.0,0.006994301843476464,0.6681665812529073,0.3266045017708547,0.3967685957480116,0.00954772143666174,-0.0039009970782984365,0.08514513248117032
4584,9.0,300.30215,-4772.2001,0.04583998249925658,0.0,0.0,0.0,0.0,0.00699582946136218,0.6705765560857533,0.3490343227420057,0.43101879986824365,-0.005665234208540084,-0.01141535769985809,0.06585837279021534
4585,9.0,300.03809,-4664.6311,0.04584999217395391,0.0,0.0,0.0,0.0,0.006997357079247896,0.6725797414009523,0.32625031006589866,0.4191013169620796,0.014314093983441087,-0.001150196626540569,0.057309421602999545
4586,9.0,299.76363,-4398.959,0.04585996881342136,0.0,0.0,0.0,0.0,0.006998879655490453,0.6488816150146295,0.3053083860715917,0.38298370304004864,-0.003892760469560546,0.009394098738650361,0.042819614853466956
4587,9.0,299.23846000000003,-4474.1953,0.04586997848811891,0.0,0.0,0.0,0.0,0.007000407273376169,0.6683408197401034,0.3120834423352377,0.37961939860051763,0.007728854521978553,0.009371195537364992,0.04806537476768316
4588,9.0,299.85897,-4718.8751,0.04587998816281624,0.0,0.0,0.0,0.0,0.007001934891261885,0.6825611465460403,0.34039328535920166,0.41146576818350955,-0.012778894438928688,-0.011820198737562789,0.05840942415006135
4589,9.0,299.80419,-4705.920999999999,0.04588996480228391,0.0,0.0,0.0,0.0,0.0070034574675044425,0.6880281779905943,0.3423999663872457,0.40005434290728964,-0.004725290422799855,0.008565690078867793,0.07108165071121272
4590,9.0,300.54101,-4480.6894,0.04589997447698124,0.0,0.0,0.0,0.0,0.0070049850853901585,0.6454263004511164,0.3186111237194697,0.39798025035009266,-0.007351715742007853,0.0013322602416088489,0.08811686938145792
4591,9.0,300.58016000000003,-4558.7545,0.045909984151678795,0.0,0.0,0.0,0.0,0.007006512703275902,0.6711087758332794,0.3254339749903327,0.3892047952090226,-0.0001873853869784978,0.003494669906672067,0.06415310732241875
4592,9.0,300.73643,-4552.1809,0.045919993826376126,0.0,0.0,0.0,0.0,0.0070080403211615905,0.6808869331408084,0.31562336328210067,0.38723904948501864,-0.028406893131792076,-0.0027106404866943873,0.07478088193154843
4593,9.0,300.44428999999997,-4613.2066,0.045929970465843795,0.0,0.0,0.0,0.0,0.007009562897404176,0.6787507283524814,0.33652647979757766,0.3870223963486366,0.01071966119444819,-0.007360113254861622,0.07003761807317474
4594,9.0,300.52939,-4695.4208,0.045939980140541126,0.0,0.0,0.0,0.0,0.007011090515289864,0.6880296370707384,0.3312379222256377,0.40802311924624657,-0.008562439471221981,0.010770896185754688,0.06951473441207014
4595,9.0,300.69174,-4521.0908,0.04594998981523846,0.0,0.0,0.0,0.0,0.00701261813317558,0.6481497140698964,0.3318797553689817,0.3942692522563456,0.00994427054217309,0.013261609826318988,0.05529043566574115
4596,9.0,300.03847,-4468.0407,0.045959966454706125,0.0,0.0,0.0,0.0,0.007014140709418137,0.6302501950908515,0.3288074594757697,0.3991151613895996,0.0017469994155654186,-0.012075370576496288,0.06334632922179595
4597,9.0,299.37295,-4845.5801,0.045969976129403456,0.0,0.0,0.0,0.0,0.007015668327303853,0.6955907524969623,0.34587980160317866,0.4314648122972616,-0.0009585502999765491,0.006358622226247154,0.041315355914008166
4598,9.0,300.14563,-4866.6167,0.04597998580410101,0.0,0.0,0.0,0.0,0.007017195945189597,0.7220006907884203,0.34473002618470466,0.4125992505403756,0.009113951804627011,0.010173126249509392,0.039549361301468064
4599,9.0,299.98041,-4565.888,0.045989962443568455,0.0,0.0,0.0,0.0,0.007018718521432127,0.6802968770775744,0.3197590955527657,0.3878599792787996,0.004412286523808776,0.007514311580254813,0.06571744186030654
4600,9.0,300.21317999999997,-4474.9665,0.04599997211826601,0.0,0.0,0.0,0.0,0.007020246139317843,0.6648670336272674,0.3182978571860527,0.3771131852731736,-0.005394354865231375,-0.003978357304883296,0.07298663891947042
4601,9.0,300.33709,-4582.6326,0.04600998179296334,0.0,0.0,0.0,0.0,0.007021773757203559,0.6619820978100465,0.3245007007207257,0.4065230734007036,-0.006624157485878444,-0.008022382234172483,0.08796294655876692
4602,9.0,300.52555,-4637.4877,0.04601999146766089,0.0,0.0,0.0,0.0,0.0070233013750893025,0.6617573690703673,0.3275142179756367,0.4204088756861256,-0.0012471362901077688,0.0031212310094415174,0.06805909019915923
4603,9.0,300.38572999999997,-4560.0021,0.04602996810712834,0.0,0.0,0.0,0.0,0.007024823951331832,0.6702078850368683,0.3199258663867247,0.39599302372396866,-0.003232250796398317,0.004845925851880646,0.06479970476773293
4604,9.0,299.99219,-4560.0412,0.04603997778182589,0.0,0.0,0.0,0.0,0.007026351569217576,0.6868110315729713,0.3094526600405997,0.38987497909016466,-0.0028511398733855973,-0.007310015535467364,0.052954714839973445
4605,9.0,299.74717999999996,-4570.6363,0.04604998745652322,0.0,0.0,0.0,0.0,0.007027879187103292,0.6815774428189564,0.3236106010378797,0.38417127268725265,-0.00996316552871288,-0.0021737627271336776,0.06400122822517944
4606,9.0,299.68104,-4751.428,0.04605996409599089,0.0,0.0,0.0,0.0,0.007029401763345849,0.7092413996991763,0.33986116693668567,0.39521290220697664,-0.0013241947708128488,0.0036487448182030767,0.05382871195223025
4607,9.0,300.18593,-4925.2252,0.04606997377068822,0.0,0.0,0.0,0.0,0.007030929381231538,0.6985385300853854,0.3564198216608977,0.4421871363129726,-0.010406101831752291,0.002833561200050717,0.05352658306391245
4608,9.0,299.63129,-4622.2557,0.04607998344538555,0.0,0.0,0.0,0.0,0.007032456999117254,0.6515238673003994,0.33545727802705566,0.4180691494827126,-0.001143645052718979,-0.0008006138416519343,0.06567008255063253
4609,9.0,299.72562,-4382.5128,0.046089993120083106,0.0,0.0,0.0,0.0,0.007033984617002997,0.6345996927351134,0.31424442108850964,0.38333034603175964,-0.012843912671345489,-0.012543221584919589,0.06080371184485914
4610,9.0,299.82595,-4511.0882,0.04609996975955055,0.0,0.0,0.0,0.0,0.007035507193245527,0.6654653071488124,0.3119090822580297,0.3938837815208026,-0.001018406631083909,0.008880681467930022,0.06223072464969434
4611,9.0,300.40017,-4633.434,0.046109979434248105,0.0,0.0,0.0,0.0,0.007037034811131271,0.6981172916213123,0.3221148412402597,0.3882161062914466,0.0017322277489825683,0.0026746511603675176,0.07271826848473434
4612,9.0,300.22236000000004,-4646.0587,0.046119989108945436,0.0,0.0,0.0,0.0,0.007038562429016987,0.6843839834759404,0.3243225206906407,0.40357933868017964,0.00022911662936955074,0.005141918294942825,0.08213096877269552
4613,9.0,299.71804,-4597.1053,0.04612996574841288,0.0,0.0,0.0,0.0,0.007040085005259544,0.6636090430981133,0.3209468273199857,0.4128493510625586,0.003176484753294637,-0.002974652020825297,0.08235680803448411
4614,9.0,299.43019,-4666.8993,0.04613997542311021,0.0,0.0,0.0,0.0,0.0070416126231452325,0.6566608629223813,0.3391135606154027,0.42284643118669357,0.010494227232699589,-0.006470288973392804,0.059436176820893936
4615,9.0,300.75186,-4696.2157,0.046149985097807766,0.0,0.0,0.0,0.0,0.007043140241030976,0.6914151387023614,0.31186952497412573,0.42424765474998366,0.0041049305822001055,-0.003948408975652626,0.041843740509905664
4616,9.0,300.37658,-4813.4387,0.04615999477250532,0.0,0.0,0.0,0.0,0.007044667858916692,0.6997369313761583,0.34551878059254865,0.4179094511344516,0.0012486430943314788,-0.016371969472787587,0.033961199860459465
4617,9.0,299.74839,-4694.9839,0.046169971411972766,0.0,0.0,0.0,0.0,0.00704619043515925,0.7065334280119203,0.32851119527903067,0.39211323842856366,0.009433232281362542,0.00016688072093234486,0.057202126523410356
4618,9.0,299.6711,-4518.8124,0.0461799810866701,0.0,0.0,0.0,0.0,0.007047718053044966,0.6651980016399314,0.3199678960008727,0.38844024734606764,-0.003549754032458447,0.01165363865962459,0.04937352219003725
4619,9.0,299.48377999999997,-4595.4377,0.04618999076136743,0.0,0.0,0.0,0.0,0.007049245670930682,0.6531808351889293,0.34688447960733265,0.3968329979243676,0.01060069043395669,0.0040030292355432255,0.07639432870178323
4620,9.0,299.8586,-4751.0041,0.046199967400835096,0.0,0.0,0.0,0.0,0.007050768247173239,0.6690001415801733,0.3318344732220127,0.4433520091579366,-0.00947366906635334,-0.003296336433423077,0.06466315209150623
4621,9.0,299.5008,-4665.778,0.04620997707553243,0.0,0.0,0.0,0.0,0.007052295865058927,0.6745983382501723,0.3373100970274147,0.4063715823782526,0.004516487238917586,0.006062713680293255,0.07591517083549403
4622,9.0,298.74442,-4574.6153,0.04621998675022998,0.0,0.0,0.0,0.0,0.007053823482944671,0.6678234643715443,0.32329409210414267,0.39945127671277164,-0.01004972181055532,-0.002379732762411338,0.07042153043006392
4623,9.0,299.69914,-4600.6448,0.046229963389697426,0.0,0.0,0.0,0.0,0.007055346059187201,0.7016303817055274,0.3121354524628707,0.38471529679844363,-0.004544058787388686,-0.003472200072454467,0.07633903665707632
4624,9.0,300.05142,-4710.7581,0.04623997306439498,0.0,0.0,0.0,0.0,0.0070568736770729446,0.7068200663327093,0.3249221924973237,0.4002105860727096,-0.012371357142707888,-0.007686155757464513,0.07605178531997683
4625,9.0,299.95927,-4715.5699,0.04624998273909231,0.0,0.0,0.0,0.0,0.0070584012949586605,0.6731311521053723,0.34747249903786565,0.4128118608088586,0.004106959818175377,-0.0003769284292499397,0.08516631042151042
4626,9.0,299.97294,-4646.3012,0.04625999241378986,0.0,0.0,0.0,0.0,0.007059928912844404,0.6636458342092444,0.3312535060121757,0.41746020643761456,-0.008276920082518412,0.004473892839163845,0.05517877145172075
4627,9.0,299.96027999999995,-4558.3525,0.04626996905325731,0.0,0.0,0.0,0.0,0.007061451489086934,0.6518458072546724,0.3388882239256637,0.39489131689023865,0.005470867102807545,0.0073258062276757826,0.05743240787363735
4628,9.0,300.36426,-4458.5317,0.04627997872795486,0.0,0.0,0.0,0.0,0.00706297910697265,0.6620200541587923,0.3184992913059327,0.37476297193122565,-0.01010905631786118,0.0014728811169870484,0.05161333484083955
4629,9.0,300.30849,-4594.8732,0.046289988402652193,0.0,0.0,0.0,0.0,0.007064506724858366,0.6934796459136123,0.33207005387026267,0.3711770088998187,0.005690181033952145,0.0054802471642832855,0.07292016262015973
4630,9.0,300.26157,-4787.4339,0.04629996504211986,0.0,0.0,0.0,0.0,0.007066029301100923,0.7033812170833214,0.34376173399164167,0.4081174123005526,-0.00018992310225145084,0.006650803126408164,0.07167691386671063
4631,9.0,300.21839,-4599.4115,0.04630997471681719,0.0,0.0,0.0,0.0,0.007067556918986639,0.6622368795476914,0.31591169373055666,0.4199576754165956,0.01034694018491349,-0.007848606498297153,0.08017755936865902
4632,9.0,300.54232,-4502.5837,0.046319984391514524,0.0,0.0,0.0,0.0,0.007069084536872355,0.6581481114191613,0.3208073534437207,0.38971755042212763,-0.01131875443532409,-0.004750340701047125,0.07718879074744052
4633,9.0,300.38532000000004,-4620.0311,0.04632999406621208,0.0,0.0,0.0,0.0,0.007070612154758099,0.6698334283299123,0.3078055916055467,0.4267350621554716,0.008489781941001242,0.0019113529387608482,0.06204125296049494
4634,9.0,300.15713,-4712.4421,0.04633997070567952,0.0,0.0,0.0,0.0,0.007072134731000629,0.6995947318571243,0.32438085349889767,0.4084891433647396,0.0016713674896761284,0.002144520531897698,0.04791787088437566
4635,9.0,299.86135,-4720.5985,0.046349980380377076,0.0,0.0,0.0,0.0,0.007073662348886345,0.7027755772335493,0.3361661072670117,0.39600239628739364,0.0036664383940992968,0.01166891340488209,0.04750059118844336
4636,9.0,299.98706,-4619.7133,0.04635999005507441,0.0,0.0,0.0,0.0,0.007075189966772061,0.6800759885557743,0.3242170210902287,0.39998446918039365,-0.001032645024139129,0.009435490714510431,0.06332095946579214
4637,9.0,299.38632,-4611.1828,0.046369966694542075,0.0,0.0,0.0,0.0,0.007076712543014618,0.6546988459587454,0.3508601588922017,0.39612543524703664,0.005762288774668624,0.009966377328879861,0.07061204779336654
4638,9.0,299.89697,-4678.705,0.046379976369239406,0.0,0.0,0.0,0.0,0.007078240160900334,0.6700093285472724,0.3393847570046677,0.4128154071842086,0.0018384948863453185,0.00963117849042331,0.06925903669633472
4639,9.0,299.98319,-4706.4516,0.04638998604393696,0.0,0.0,0.0,0.0,0.007079767778786078,0.6859703784950054,0.3282297245337517,0.41644366327478965,-0.0002824273445659087,-0.015146345191577886,0.06137200836219564
4640,9.0,299.71426,-4577.5593,0.04639996268340418,0.0,0.0,0.0,0.0,0.007081290355028608,0.6762815695812944,0.3275231041790137,0.38765905178396964,-0.0011755550341432488,-0.01653680398580548,0.06318065675094534
4641,9.0,299.98623,-4354.2468,0.046409972358101736,0.0,0.0,0.0,0.0,0.0070828179729143514,0.6579268682598264,0.2985452557616227,0.36711018776845467,-0.002440305360014388,-0.014077823311872985,0.07360275881502673
4642,9.0,299.99501000000004,-4500.2722,0.04641998203279929,0.0,0.0,0.0,0.0,0.00708434559080004,0.6496393943669164,0.3115019381028477,0.4068290242683986,0.014350637861547687,-0.010688014354074888,0.07500210482588143
4643,9.0,300.40042,-4838.978,0.04642999170749662,0.0,0.0,0.0,0.0,0.007085873208685756,0.6838188837626693,0.34879443578083064,0.4383151733083396,-0.01120140487499259,-0.003954737837102236,0.08346016646587712
4644,9.0,300.61376,-4688.9173,0.04643996834696407,0.0,0.0,0.0,0.0,0.007087395784928313,0.6771000122170684,0.32689034975656567,0.4213234048288826,-0.002060311139936878,0.0008520811104113582,0.06997991753298013
4645,9.0,299.83155,-4583.6176,0.0464499780216614,0.0,0.0,0.0,0.0,0.007088923402814029,0.6769695360016914,0.3351008571718797,0.3812349144274566,-0.004740990125149295,-6.624393877126774e-05,0.07877795599227892
4646,9.0,300.40531,-4644.9078,0.04645998769635895,0.0,0.0,0.0,0.0,0.007090451020699773,0.7054205247645853,0.3195833270579187,0.38693214616222965,0.0013668728650248487,0.013760210948777088,0.04600089390093475
4647,9.0,300.78677000000005,-4688.0097,0.0464699643358264,0.0,0.0,0.0,0.0,0.0070919735969423026,0.7050967812251343,0.33355737329454965,0.38638372454560466,-0.004014301946880757,0.0014389902316172785,0.05913876562504174
4648,9.0,299.64184,-4795.2773,0.04647997401052395,0.0,0.0,0.0,0.0,0.007093501214828046,0.6798981631632244,0.35951610118397664,0.41823030691111757,0.01178522641036129,0.0014115568904598187,0.058108893157151245
4649,9.0,299.80257,-4664.3616,0.04648998368522128,0.0,0.0,0.0,0.0,0.0070950288327137345,0.6670586125335594,0.3192928991817557,0.4314979354430306,-0.004371661578274406,-0.0015929328126852286,0.07191482397694053
4650,9.0,299.74701,-4498.9948,0.046499993359918834,0.0,0.0,0.0,0.0,0.007096556450599478,0.6404982167347524,0.3284797845259307,0.3986040780391596,0.006425456506818183,-0.004475533493725765,0.06611518204131044
4651,9.0,299.76097000000004,-4524.7408,0.04650996999938628,0.0,0.0,0.0,0.0,0.007098079026842008,0.6734390990757644,0.3086835120221907,0.39328560932426765,-0.00914968721047882,-0.009610169762849912,0.06917562797460293
4652,9.0,300.18556,-4818.6523,0.04651997967408383,0.0,0.0,0.0,0.0,0.007099606644727752,0.7122310751792343,0.3355204845682937,0.4169984278370406,-0.0018020944844528784,0.009550298840941112,0.05206757790041985
4653,9.0,299.58721,-4909.6973,0.046529989348781164,0.0,0.0,0.0,0.0,0.007101134262613468,0.7224156167043703,0.3448961688036017,0.4251135985504456,0.007047597539768723,0.009825694543920552,0.06291077454706004
4654,9.0,299.83303,-4726.9131,0.04653996598824861,0.0,0.0,0.0,0.0,0.007102656838855997,0.6699785865392384,0.3373050105119127,0.42957996446124164,0.007797089823462852,0.002366621711417378,0.05858309420395124
4655,9.0,301.05086,-4644.0527,0.046549975662946164,0.0,0.0,0.0,0.0,0.007104184456741741,0.6697929793859203,0.3342563740085357,0.4076267155421246,0.0007899751107694733,-0.001072442245666809,0.06637225271093133
4656,9.0,300.51784,-4739.0164,0.046559985337643495,0.0,0.0,0.0,0.0,0.007105712074627429,0.6716262223943473,0.3461643019662567,0.4227521279998866,-0.002069199268489068,0.002090724044338398,0.06620819941374054
4657,9.0,300.38871,-4737.4159,0.04656996197711094,0.0,0.0,0.0,0.0,0.007107234650869987,0.6872564259194284,0.34925873737415364,0.4035409972963956,0.0046688519869298156,0.009255301814777172,0.06189460122052153
4658,9.0,300.30496,-4673.5856,0.046579971651808494,0.0,0.0,0.0,0.0,0.007108762268755703,0.7034361352387414,0.3355727176109487,0.3816444701178766,-0.015545122940684185,-0.0017337685984096386,0.06156385004337894
4659,9.0,300.42302,-4596.572,0.04658998132650605,0.0,0.0,0.0,0.0,0.0071102898866414466,0.6775628243327444,0.3287387509864887,0.39094153627792566,-0.0093021801346287,-0.0006451216972060544,0.07091710902747374
4660,9.0,299.89268,-4509.8894,0.04659999100120338,0.0,0.0,0.0,0.0,0.0071118175045271625,0.6433551159217064,0.32946445084060966,0.3980741887668636,-0.018467971536896884,-0.002836137996380028,0.08148269845146622
4661,9.0,300.27525,-4657.001,0.046609967640670824,0.0,0.0,0.0,0.0,0.007113340080769692,0.6579745923395364,0.33777452021074966,0.4198629162672436,-0.00024106055810332476,0.011832858284312188,0.08304045598295491
4662,9.0,299.8644,-4808.1475,0.04661997731536838,0.0,0.0,0.0,0.0,0.007114867698655436,0.6882804266029894,0.34145181760617066,0.4318245464802646,-0.0027937523261468873,-0.004239059564187606,0.07163245447882284
4663,9.0,300.24985,-4616.4769,0.04662998699006593,0.0,0.0,0.0,0.0,0.007116395316541152,0.6927973131637714,0.3140298248498307,0.39646655602570263,0.00016332470957389385,-0.013324017926478186,0.06944755086418963
4664,9.0,299.78335,-4498.0268,0.046639963629533154,0.0,0.0,0.0,0.0,0.007117917892783682,0.6887779931970953,0.3132243315503347,0.36528548645837067,-0.009294277695773793,-0.008067484833223762,0.06217577204377094
4665,9.0,300.35382999999996,-4663.7255,0.04664997330423071,0.0,0.0,0.0,0.0,0.007119445510669398,0.6856970846780334,0.3255132719431587,0.4064457522855726,0.01790613752869818,0.004523091805719405,0.056707631090357445
4666,9.0,300.08082,-4788.3114,0.04665998297892826,0.0,0.0,0.0,0.0,0.007120973128555141,0.6900322853633843,0.34258600923810667,0.4229088068628496,0.004909728488152475,-0.002246795159891418,0.06698606948901034
4667,9.0,300.24008,-4691.2958,0.04666999265362559,0.0,0.0,0.0,0.0,0.007122500746440857,0.6764493840628564,0.3228935644721137,0.4266938330089026,0.005990142782956064,-0.008822523647965293,0.051071087970323954
4668,9.0,300.60774,-4620.7904,0.04667996929309304,0.0,0.0,0.0,0.0,0.007124023322683387,0.6568348176995493,0.3381294515882787,0.4096406311758826,-0.007313375878099004,-0.00998851532368971,0.08309632355371861
4669,9.0,300.51313999999996,-4617.9333,0.04668997896779059,0.0,0.0,0.0,0.0,0.007125550940569131,0.6911427061479744,0.3216978077641017,0.39089589949342163,0.004926467987754535,0.008156895440597903,0.04730308949220145
4670,9.0,300.53559,-4673.0793,0.046699988642488144,0.0,0.0,0.0,0.0,0.007127078558454847,0.7029962023103233,0.3214604336631747,0.39604277430387863,-0.0037877074084676165,-0.004031596808862626,0.07639945574728922
4671,9.0,300.71087,-4765.5774,0.04670996528195537,0.0,0.0,0.0,0.0,0.007128601134697349,0.7028108788670334,0.3277013146066017,0.41810432952618454,-0.0077695287114677835,0.008831531340029283,0.04630643541558936
4672,9.0,299.69088999999997,-4678.2284,0.04671997495665292,0.0,0.0,0.0,0.0,0.0071301287525830925,0.6819960569652703,0.32310493857547473,0.4169636125636046,-0.02033544314695198,0.007641912698473062,0.07455102006686283
4673,9.0,299.926,-4500.484,0.046729984631350474,0.0,0.0,0.0,0.0,0.007131656370468836,0.6428189546312915,0.3138585349204257,0.41135726936280165,-0.006980673079938794,0.011240980397398388,0.05441592382243355
4674,9.0,300.3655,-4543.9777,0.04673999430604803,0.0,0.0,0.0,0.0,0.00713318398835458,0.6543582318051294,0.33728555610999267,0.38961197989420865,0.002975365652870727,0.0077608165844579614,0.08239079852233872
4675,9.0,299.87341000000004,-4867.8313,0.04674997094551525,0.0,0.0,0.0,0.0,0.007134706564597082,0.7252479547089002,0.3265487628828537,0.4279024377281826,-0.0007517857955604814,-0.011635332270067886,0.04950072864734155
4676,9.0,300.18849,-4765.5403,0.046759980620212804,0.0,0.0,0.0,0.0,0.007136234182482826,0.7004370061352503,0.3497793858055377,0.39838887385042066,0.010771452460059592,-0.015029387759035088,0.08708554593942422
4677,9.0,299.88399,-4582.0869,0.046769990294910135,0.0,0.0,0.0,0.0,0.007137761800368542,0.6694325156628453,0.3365140573513517,0.38689344000840964,-0.004105311665562716,-0.013734809782020187,0.07145857265566202
4678,9.0,299.76811000000004,-4615.8859999999995,0.04677996693437758,0.0,0.0,0.0,0.0,0.007139284376611099,0.6694293948525374,0.3371847073275397,0.39649998314650164,0.021038652901853378,0.0036089123355719163,0.07893683259470882
4679,9.0,300.74239,-4650.9558,0.04678997660907491,0.0,0.0,0.0,0.0,0.007140811994496787,0.6623124072101454,0.3344154238767327,0.4170465876142936,-0.0054771259486752445,-0.0014828050911164686,0.07106325414239714
4680,9.0,300.46537,-4732.8343,0.046799986283772466,0.0,0.0,0.0,0.0,0.007142339612382531,0.6782567891937334,0.34543716329699364,0.4149695059693016,0.007071466469724403,0.0030309859906100275,0.08114834213046783
4681,9.0,299.98913,-4736.4874,0.04680996292323991,0.0,0.0,0.0,0.0,0.007143862188625061,0.7047644453248353,0.3350110629480177,0.3999983912367676,-0.027995980699488176,-0.002162807568377488,0.056227471119719354
4682,9.0,300.41799,-4526.1865,0.04681997259793724,0.0,0.0,0.0,0.0,0.007145389806510777,0.6688509405029484,0.3214542629700657,0.3855424736500796,-0.0026282837212164073,0.004167106850736426,0.06324973710301304
4683,9.0,300.11755,-4620.4622,0.046829982272634796,0.0,0.0,0.0,0.0,0.0071469174243965206,0.6834035829441824,0.31767922746999866,0.40342232544468365,-0.006184543832566954,0.006835297933766384,0.06484760920596074
4684,9.0,299.99338,-4861.8521,0.04683999194733235,0.0,0.0,0.0,0.0,0.0071484450422822365,0.7026837767744893,0.34388016266332966,0.4313177086477436,0.010175802243023491,0.01173415049932049,0.06977349416960774
4685,9.0,300.14727,-4814.4492,0.046849968586799795,0.0,0.0,0.0,0.0,0.007149967618524766,0.6838218323204603,0.3407497974068867,0.4389007102761276,0.008654116313769783,0.006820257755907034,0.06487931076183943
4686,9.0,299.63437000000005,-4593.409000000001,0.046859978261497126,0.0,0.0,0.0,0.0,0.007151495236410482,0.6640402722081723,0.33476376912861167,0.39747758710798364,0.004006718985782376,0.002396092495875918,0.07402711302315723
4687,9.0,299.51395,-4557.3482,0.0468699879361949,0.0,0.0,0.0,0.0,0.007153022854296254,0.6816173750053973,0.3205944290677067,0.3831082416098397,0.008706547649469352,0.0009195019006702722,0.05278325772430195
4688,9.0,299.67371,-4764.0039,0.046879964575662125,0.0,0.0,0.0,0.0,0.007154545430538756,0.7005611596700033,0.34069401798888166,0.4068830507637306,0.014473032394127087,-0.006038493557852915,0.061387313504956145
4689,9.0,299.9253,-4773.0397,0.04688997425035968,0.0,0.0,0.0,0.0,0.007156073048424499,0.7039757111819934,0.3420451869972317,0.40486398781946464,0.0028964737974347073,-0.0026469129322549676,0.05838947325559235
4690,9.0,300.35368,-4622.5738,0.04689998392505723,0.0,0.0,0.0,0.0,0.007157600666310243,0.6697253348092443,0.3360744182654627,0.3993472463250046,-0.006341636202895764,-0.009087988993339681,0.07829146016876552
4691,9.0,300.16565,-4665.7889,0.04690999359975456,0.0,0.0,0.0,0.0,0.007159128284195931,0.6740789057189084,0.32066701830487065,0.42353738669488555,-0.003629428420946697,0.0030844905608155174,0.07619121663973763
4692,9.0,300.28638,-4646.6279,0.04691997023922201,0.0,0.0,0.0,0.0,0.007160650860438461,0.6722165520351083,0.3369717626865237,0.4032705507122046,-0.006910361122374544,0.014815233297399685,0.07412806313062023
4693,9.0,300.3494,-4645.8753,0.04692997991391934,0.0,0.0,0.0,0.0,0.007162178478324177,0.6854615546922883,0.32753137229982965,0.3992371567016396,0.00993457221884094,0.009478867343341371,0.06436389171422154
4694,9.0,300.20893,-4768.3286,0.046939989588617115,0.0,0.0,0.0,0.0,0.007163706096209949,0.6852016965716424,0.34400390076554166,0.42024724203017355,-0.0075997240040593635,-0.0027677055164262673,0.06798997640983824
4695,9.0,300.3322,-4592.7117,0.04694996622808434,0.0,0.0,0.0,0.0,0.0071652286724524505,0.6765429273120883,0.3191279521979767,0.4003987972787846,0.004133397033159526,0.002075635838424308,0.06067694007184774
4696,9.0,300.21424,-4549.2377,0.04695997590278189,0.0,0.0,0.0,0.0,0.007166756290338194,0.6513957418252544,0.33356963362075964,0.3978892807561146,0.0037251617089448367,-0.0009970090079896281,0.08549696432664342
4697,9.0,299.34961,-4763.4094,0.046969985577479445,0.0,0.0,0.0,0.0,0.007168283908223938,0.6807574904405334,0.3498481854873277,0.4173518494719206,0.01076160670883789,0.005959656417922295,0.07429901260799163
4698,9.0,299.93197999999995,-4748.8514,0.04697996221694689,0.0,0.0,0.0,0.0,0.007169806484466468,0.6894173742751973,0.3416901441621917,0.41242473847565264,-0.011919402001853386,-0.005024797121183865,0.06558607094509124
4699,9.0,300.04469,-4681.6443,0.04698997189164422,0.0,0.0,0.0,0.0,0.007171334102352156,0.6825347716459373,0.3353090598024277,0.4052591350934626,0.00924479795761552,-0.005846459663125645,0.05021880784746045
4700,9.0,299.50552999999996,-4705.5832,0.046999981566341775,0.0,0.0,0.0,0.0,0.0071728617202379,0.6896466930378293,0.3316658582728717,0.40906725320929466,-0.00971283054045674,0.0037465216290028967,0.057672853135617444
4701,9.0,300.02517,-4733.9994,0.04700999124103933,0.0,0.0,0.0,0.0,0.007174389338123643,0.7036170915741004,0.32475250350307666,0.41064801455780364,0.0063022861286372136,-0.0005631340486070035,0.04625900315190815
4702,9.0,299.78312999999997,-4683.0514,0.047019967880506774,0.0,0.0,0.0,0.0,0.007175911914366173,0.6669466686625113,0.3345383311138627,0.4220456900301666,-0.0017690588834925183,-0.012726247990232887,0.07213634881980333
4703,9.0,300.17865,-4623.359,0.047029977555204105,0.0,0.0,0.0,0.0,0.007177439532251889,0.6695711181440244,0.32286225504402366,0.4129523074052196,0.008669949258507371,0.004670401145007706,0.062164497609908234
4704,9.0,300.38953,-4643.5575,0.04703998722990166,0.0,0.0,0.0,0.0,0.007178967150137633,0.6848749740768973,0.32215486461920967,0.4044956815406156,0.0030545173056323875,0.015847097814986787,0.05823124614647654
4705,9.0,300.46447,-4663.8852,0.04704996386936888,0.0,0.0,0.0,0.0,0.007180489726380163,0.6779445663079193,0.33531665917817766,0.40444340796795664,-0.004469593517664535,0.002374274992072698,0.05593686693803895
4706,9.0,299.97048,-4661.6049,0.047059973544066436,0.0,0.0,0.0,0.0,0.007182017344265851,0.6806481506222424,0.32941614920834267,0.4069471793625596,-0.01050696783945699,-0.006719925832330045,0.062244810852584535
4707,9.0,299.8944,-4736.2217,0.04706998321876399,0.0,0.0,0.0,0.0,0.0071835449621515945,0.6913103179795163,0.3248541122231047,0.42352870314152863,-0.005625519668220564,-0.01114477837990399,0.05583012407975424
4708,9.0,299.9184,-4731.9005,0.04707999289346154,0.0,0.0,0.0,0.0,0.007185072580037338,0.6730013041050573,0.34553841737948665,0.4198398648274686,0.016008118454628285,-0.002037890752324158,0.08019156147179092
4709,9.0,300.14519,-4638.5572,0.047089969532928766,0.0,0.0,0.0,0.0,0.007186595156279868,0.6741558316665004,0.33390610358146666,0.4019436389112486,-0.0038784980624779566,-0.01025556934389589,0.08308738263483621
4710,9.0,300.04942,-4637.1245,0.0470999792076261,0.0,0.0,0.0,0.0,0.007188122774165584,0.6842798213656603,0.33195913338181565,0.3933311042537576,0.006107800269992953,-0.007599114128824174,0.07738905962970552
4711,9.0,300.03257,-4588.7892,0.04710998888232365,0.0,0.0,0.0,0.0,0.007189650392051328,0.6670417520518953,0.3326761598150807,0.3951594228666986,-0.006843101580736545,0.017137578208597282,0.06755634792354244
4712,9.0,300.43507999999997,-4476.7258,0.047119965521791096,0.0,0.0,0.0,0.0,0.0071911729682938574,0.6649791902808364,0.3114796364681467,0.38435404274029067,0.0032741977293381562,0.03330236134068717,0.06555265395679324
4713,9.0,299.85067999999995,-4668.274,0.04712997519648865,0.0,0.0,0.0,0.0,0.007192700586179573,0.6707334679962393,0.34506141976241067,0.40324384143956865,-0.020833761572632177,0.0022944230821669276,0.07012578299087593
4714,9.0,299.62122999999997,-4832.4746,0.04713998487118598,0.0,0.0,0.0,0.0,0.007194228204065289,0.6837281573487154,0.3559321038577637,0.4292913401702566,-0.013457266394128788,-0.008434187035839452,0.06913730178957044
4715,9.0,299.67172,-4804.7606,0.04714999454588353,0.0,0.0,0.0,0.0,0.007195755821951033,0.6881254500001944,0.3533257408905357,0.4190760465045856,-0.008193634673323782,-0.008522426832723043,0.07674406919904993
4716,9.0,299.90302,-4888.5328,0.04715997118535098,0.0,0.0,0.0,0.0,0.007197278398193563,0.7272098399500233,0.34685558171448067,0.41192647273897764,0.011683061416028389,0.013169817473259786,0.06788952279492423
4717,9.0,299.45934,-4868.2991,0.04716998086004831,0.0,0.0,0.0,0.0,0.007198806016079279,0.7119923939856784,0.3408095285002817,0.4270394526180126,-0.003526618492925147,-0.007132521881000103,0.05264405641231386
4718,9.0,300.10855,-4585.6848,0.047179990534745864,0.0,0.0,0.0,0.0,0.007200333633965023,0.6799001997959253,0.31327799327563066,0.4007554917114876,0.005833582470254764,-0.002995868059369157,0.04631238015392605
4719,9.0,299.87554,-4546.5164,0.04718996717421331,0.0,0.0,0.0,0.0,0.007201856210207552,0.6561235262618503,0.3145175527854657,0.4113863901706756,0.014666501354970985,-0.0023019758484123277,0.056754456417228746
4720,9.0,300.00646,-4742.285,0.04719997684891086,0.0,0.0,0.0,0.0,0.007203383828093268,0.6790051351875893,0.3251643288737207,0.43736675094973754,0.025864445980872078,0.01157184809830249,0.05066095371409686
4721,9.0,300.21184,-4732.6359999999995,0.047209986523608194,0.0,0.0,0.0,0.0,0.007204911445978984,0.6960329044430994,0.3393627289474937,0.40320752655598463,0.0038168296348917562,-0.013983030725267687,0.08117999302384152
4722,9.0,300.35361,-4725.1779,0.04721996316307586,0.0,0.0,0.0,0.0,0.007206434022221542,0.6954258257781853,0.3311569736751487,0.4097532843220006,-0.003344908603466777,-0.01353883606692909,0.06290662427465044
4723,9.0,300.05575,-4807.7895,0.04722997283777319,0.0,0.0,0.0,0.0,0.007207961640107258,0.7079614317753533,0.33979516382517166,0.4136913517631576,0.002749368932016588,0.014471328107458886,0.07490526547407413
4724,9.0,300.31999,-4833.3813,0.047239982512470746,0.0,0.0,0.0,0.0,0.0072094892579930014,0.7077142798109614,0.3458783729205377,0.41563457293743866,-0.011335220762699189,0.026614545910651176,0.05473323423699965
4725,9.0,300.15029,-4732.7289,0.04724999218716808,0.0,0.0,0.0,0.0,0.007211016875878717,0.6749349500658933,0.3422606141009927,0.4214358350599786,-0.007137723805688493,0.0062075710556645635,0.06417309570714144
4726,9.0,300.08352,-4757.7662,0.047259968826635745,0.0,0.0,0.0,0.0,0.007212539452121275,0.6740192860830243,0.34477021168367067,0.4274526458762916,-0.013191222381622287,-0.00991973509630163,0.054949991738141954
4727,9.0,299.49474,-4685.8798,0.047269978501333076,0.0,0.0,0.0,0.0,0.007214067070006963,0.6808137055560813,0.3408170062860197,0.40275975107179257,0.014145162900268887,0.005428338868285335,0.07146251825155144
4728,9.0,299.5287,-4522.8,0.04727998817603041,0.0,0.0,0.0,0.0,0.007215594687892679,0.6670403233692543,0.31941686019898974,0.3883610821157546,0.003970238131831996,-0.0002769650551318227,0.06720936954604834
4729,9.0,299.85622,-4634.7986,0.047289964815498076,0.0,0.0,0.0,0.0,0.007217117264135237,0.6842726374224514,0.3391228014563147,0.38546760460019064,-0.0009282448710131359,-0.014737400490968186,0.08191211283059613
4730,9.0,300.10771,-4704.2769,0.04729997449019541,0.0,0.0,0.0,0.0,0.0072186448820209526,0.6970215123006673,0.3157492798720277,0.4172119196331106,-0.0077131037518240715,-0.007702112420039312,0.060066018149304436
4731,9.0,299.93802,-4660.4342,0.04730998416489296,0.0,0.0,0.0,0.0,0.007220172499906696,0.6686310247012444,0.3354692647757387,0.41255533628104163,0.01709584142372818,0.006910839680396774,0.087372932038787
4732,9.0,300.06712000000005,-4807.4593,0.04731999383959029,0.0,0.0,0.0,0.0,0.007221700117792412,0.6796853198472184,0.3543054828097287,0.4273567924168316,0.0014609864727381386,0.015720991747291087,0.06974430243422673
4733,9.0,300.16075,-4840.1967,0.04732997047905796,0.0,0.0,0.0,0.0,0.00722322269403497,0.7090304207633543,0.34668795975043765,0.4155805363096056,-0.0025094286738863276,-0.008596542328512672,0.07889774748535143
4734,9.0,300.99118,-4631.7846,0.04733998015375529,0.0,0.0,0.0,0.0,0.007224750311920658,0.6911335159695673,0.3190273364630467,0.39778600017342164,-0.005018266318989326,-0.012887750936921988,0.06608620916795103
4735,9.0,300.86226,-4568.9093,0.04734998982845284,0.0,0.0,0.0,0.0,0.007226277929806402,0.6929017083215744,0.3185407838975277,0.37739183918317465,0.0028795150305110074,0.0038062524184228667,0.06832884169378163
4736,9.0,300.72371,-4632.2577,0.04735996646792029,0.0,0.0,0.0,0.0,0.007227800506048931,0.6859944533173813,0.3148048091888157,0.4072914310840346,-0.00024043369066395774,0.015945562419954484,0.04312435995354296
4737,9.0,300.4098,-4676.263,0.04736997614261762,0.0,0.0,0.0,0.0,0.007229328123934675,0.6739761114962634,0.3378846300991167,0.40960644411750863,-0.01000543791758484,-0.003059750033123817,0.06760725462181653
4738,9.0,300.54042999999996,-4708.0727,0.04737998581731517,0.0,0.0,0.0,0.0,0.007230855741820391,0.6731012105649173,0.33129227296100167,0.42674307696376257,-0.003075742463427147,0.005780893769029795,0.04943799225414996
4739,9.0,300.27407999999997,-4806.4429,0.04738996245678262,0.0,0.0,0.0,0.0,0.007232378318062949,0.6960962528393513,0.34327803879140467,0.4216643432225306,0.004981064334942775,0.01241668691243159,0.07311943547757643
4740,9.0,299.55269,-4843.0074,0.04739997213147995,0.0,0.0,0.0,0.0,0.007233905935948665,0.7005771690215834,0.34184433042990864,0.4297318405187306,0.008015168906710581,0.004097445095761346,0.06489960616134244
4741,9.0,299.12707,-4798.9341,0.047409981806177504,0.0,0.0,0.0,0.0,0.007235433553834353,0.7126917696022013,0.3333079009874287,0.4127564664258916,-0.004679773911082726,-0.02254256125677758,0.07952878140912963
4742,9.0,299.94358,-4771.372,0.047419991480874835,0.0,0.0,0.0,0.0,0.0072369611717200966,0.6938687238195114,0.3417059103337477,0.4148033126878996,0.00860433716020696,-0.015637000406751787,0.06047304983372534
4743,9.0,299.34726,-4718.3252,0.04742996812034228,0.0,0.0,0.0,0.0,0.007238483747962626,0.6786406893916214,0.3351912897433047,0.42042107521732963,0.015772174049592382,0.006301533891762974,0.07355770566258032
4744,9.0,299.54783,-4644.5891,0.047439977795039834,0.0,0.0,0.0,0.0,0.00724001136584837,0.6683076256668273,0.3323542097283067,0.4111772756150376,0.01081228238608919,0.016257550231745285,0.05963618225813295
4745,9.0,300.34559,-4665.5428,0.047449987469737165,0.0,0.0,0.0,0.0,0.007241538983734086,0.6800656635372553,0.3319026244237387,0.4062402043702866,-0.01008771767605522,-0.009989057919118262,0.07482624716502563
4746,9.0,300.47102,-4650.2876,0.04745996410920483,0.0,0.0,0.0,0.0,0.0072430615599766435,0.6764043146984083,0.32872030983466866,0.40844667805304863,0.0018000905797301084,0.004922246787837935,0.06597764752573683
4747,9.0,300.67914,-4558.6395,0.047469973783902164,0.0,0.0,0.0,0.0,0.0072445891778623595,0.6772017526596092,0.3272042749025477,0.3813065512095266,-0.01114572880849779,0.01760701292692688,0.08066851855886292
4748,9.0,300.64225,-4717.245,0.04747998345859972,0.0,0.0,0.0,0.0,0.0072461167957480754,0.6790675007312443,0.33103309371792267,0.4238241060756826,0.0015847484876524984,0.008121087587363941,0.07143292222938054
4749,9.0,299.94387,-4858.6792,0.04748999313329705,0.0,0.0,0.0,0.0,0.007247644413633791,0.7064783274714823,0.3406322907927897,0.42980652718360157,-0.021635994233306376,-0.011633761732412888,0.08264078556051052
4750,9.0,299.53361,-4764.4538,0.047499969772764716,0.0,0.0,0.0,0.0,0.007249166989876349,0.6808161576213234,0.3416166936624427,0.42584212537234556,0.001924977910205528,0.00834228008419394,0.07252419967983123
4751,9.0,299.99261,-4602.9991,0.04750997944746205,0.0,0.0,0.0,0.0,0.007250694607762065,0.6903630608585294,0.32958843212284566,0.3792453066635977,0.011482844209518488,0.008406541114811013,0.07633626643130294
4752,9.0,299.53573,-4650.6013,0.04751998912215938,0.0,0.0,0.0,0.0,0.007252222225647781,0.6820237288255013,0.3230164109142377,0.4086265400782996,0.012680148150433187,0.010947016278386389,0.055042074893979845
4753,9.0,299.98184,-4721.2341,0.04752996576162705,0.0,0.0,0.0,0.0,0.007253744801890338,0.7226062901081883,0.3249725814247967,0.38755838538653464,-0.0066114481885491344,-0.023428711290733775,0.04878614516006766
4754,9.0,300.34676,-4790.2462,0.04753997543632438,0.0,0.0,0.0,0.0,0.007255272419776054,0.6785985787174654,0.33963801886716266,0.43787862463525556,0.005950168141335874,-0.009196559754804781,0.06125288358768895
4755,9.0,300.72899,-4755.5004,0.04754998511102193,0.0,0.0,0.0,0.0,0.00725680003766177,0.6875383424947513,0.3295678124833107,0.4284472116444476,-0.0012230928784848687,0.01079628418026029,0.06373605256800864
4756,9.0,300.3159,-4663.6426,0.04755996175048938,0.0,0.0,0.0,0.0,0.007258322613904328,0.6701688039805114,0.3249472805697997,0.42251483495896763,0.010068960187554,0.012659495073644887,0.07176912975831164
4757,9.0,300.76,-4694.4454,0.04756997142518693,0.0,0.0,0.0,0.0,0.007259850231790044,0.6987398932777583,0.3249672213317677,0.40328706668883463,-0.012262894799003488,-0.015625968139662983,0.07365551064173294
4758,9.0,300.73597,-4818.7451,0.04757998109988426,0.0,0.0,0.0,0.0,0.00726137784967576,0.7027590511244183,0.3409499649641417,0.42106918037879254,0.0014231382377778085,0.0014459348451526586,0.07109717674249502
4759,9.0,299.81521000000004,-4733.0145,0.047589990774581814,0.0,0.0,0.0,0.0,0.0072629054675615035,0.7044412084104343,0.3232881443260557,0.4109888718914436,0.009107416138831991,0.012077181254424987,0.055677232745665044
4760,9.0,299.65473,-4519.9552,0.04759996741404926,0.0,0.0,0.0,0.0,0.007264428043804033,0.6352606459078444,0.33244673972743866,0.4062461318833716,-0.0012747323592312888,0.0039113436790445665,0.06910055627469393
4761,9.0,299.92204,-4622.8777,0.04760997708874681,0.0,0.0,0.0,0.0,0.007265955661689777,0.6773713707263493,0.33222452384800766,0.3956434929694726,-0.016958059675130185,-0.005893643072582285,0.06575562416382484
4762,9.0,300.00379,-4854.5189,0.047619986763444144,0.0,0.0,0.0,0.0,0.007267483279575465,0.7002286515171873,0.35489969319837267,0.42052418354750565,-0.012402579431289288,0.01010986215566571,0.08015542188047421
4763,9.0,299.69973,-4804.6919,0.04762996340291159,0.0,0.0,0.0,0.0,0.007269005855818023,0.7122932684703723,0.34704966977113566,0.4011634160692466,0.007215467750086223,0.027985079141662268,0.07915834021231992
4764,9.0,299.6314,-4691.1127,0.04763997307760914,0.0,0.0,0.0,0.0,0.007270533473703739,0.6762704136976934,0.3441799732354187,0.40553073678276763,-0.0004040388070705256,0.013157145767509188,0.06834982306360234
4765,9.0,299.61464,-4741.3758,0.047649982752306475,0.0,0.0,0.0,0.0,0.007272061091589455,0.6914263249834653,0.33597930447857566,0.41385422158423163,-0.0015902716126225884,-0.010744209204620889,0.04611492709368895
4766,9.0,300.21902,-4725.9789,0.04765999242700403,0.0,0.0,0.0,0.0,0.007273588709475198,0.6622969754111223,0.33521920478355965,0.4390633875796826,0.0009919306896809372,-0.016514519576356183,0.07336340583665443
4767,9.0,300.20941,-4761.4757,0.047669969066471474,0.0,0.0,0.0,0.0,0.007275111285717728,0.6954669434672434,0.3268664167892037,0.42503635849532256,0.012525724782192788,-0.00045575557853457356,0.06150327896565104
4768,9.0,300.05654,-4792.2246,0.04767997874116903,0.0,0.0,0.0,0.0,0.007276638903603472,0.6972898006621454,0.3330396531559547,0.4263871627336366,0.003108395461149747,-0.0022146248745164576,0.08483935994549292
4769,9.0,300.29135,-4613.0236,0.04768998841586636,0.0,0.0,0.0,0.0,0.00727816652148916,0.6961690751240384,0.3217657259183047,0.3843091760258626,-0.006627592201067424,-0.008318801863476822,0.05843551128713595
4770,9.0,300.10991,-4625.1504,0.047699965055333804,0.0,0.0,0.0,0.0,0.00727968909773169,0.7025758757713404,0.3206104890817917,0.38274386674137867,-0.009715382005533551,0.00976441216462245,0.07925491409260102
4771,9.0,300.23292999999995,-4879.8669,0.047709974730031135,0.0,0.0,0.0,0.0,0.0072812167156174334,0.7081976710361684,0.34100965552753265,0.43415036075980457,-0.001183644214991589,0.02440898921922968,0.03928729024260367
4772,9.0,299.98347,-4867.7375,0.04771998440472869,0.0,0.0,0.0,0.0,0.007282744333503177,0.6930602414322203,0.35014354789147767,0.43646685313842454,0.012452681608983988,0.005749097575591755,0.06424937722766984
4773,9.0,299.41146000000003,-4729.1004,0.04772999407942624,0.0,0.0,0.0,0.0,0.007284271951388893,0.6870667961632133,0.3273090348303867,0.4231526049694106,-0.004996309797272385,-0.017732746118585784,0.04732969440007716
4774,9.0,299.4945,-4675.4092,0.047739970718893465,0.0,0.0,0.0,0.0,0.007285794527631423,0.6874830798342974,0.3353545344669157,0.39837002739856064,0.01952068570179168,-0.004390522215635805,0.07763968602869042
4775,9.0,299.81569,-4792.7363,0.04774998039359102,0.0,0.0,0.0,0.0,0.007287322145517167,0.7203887922643383,0.3349641697333897,0.4015192087093606,0.010855304985335188,0.010286172536666189,0.061875228891859646
4776,9.0,300.10422,-4807.0935,0.04775999006828835,0.0,0.0,0.0,0.0,0.007288849763402855,0.7024261680690653,0.34616207281603667,0.4126481702552036,-0.003221526253364887,0.011687260324442788,0.07904859408073883
4777,9.0,300.19017,-4709.3096,0.047769966707755795,0.0,0.0,0.0,0.0,0.0072903723396453846,0.6646859557018964,0.3343187800821947,0.43250780128769656,-0.02086798206825948,-0.01793546909259298,0.060796308026378434
4778,9.0,300.01063,-4651.5565,0.04777997638245335,0.0,0.0,0.0,0.0,0.007291899957531128,0.6546274726217013,0.3349631767482917,0.42436635699919856,-0.0040792679969174055,-0.007843855875203304,0.07920500139267503
4779,9.0,300.12579,-4626.5487,0.0477899860571509,0.0,0.0,0.0,0.0,0.007293427575416872,0.6779402903924973,0.3306625177588497,0.39775246159511163,0.0034284847141150964,0.012595137480293289,0.06504605626454595
4780,9.0,299.95012,-4741.3279,0.047799962696618126,0.0,0.0,0.0,0.0,0.007294950151659374,0.6938599085436413,0.34451938162141565,0.4028660106097796,0.011804903727303289,-0.007328984793239482,0.09305231841279882
4781,9.0,299.73306,-4863.6798,0.0478099723713159,0.0,0.0,0.0,0.0,0.0072964777695451455,0.7492321621284573,0.33795884053644065,0.3912462104504946,-0.006502529274349675,-0.0044455658114181855,0.06997690412718274
4782,9.0,299.43586,-4736.1143,0.04781998204601323,0.0,0.0,0.0,0.0,0.0072980053874308615,0.7018239124746274,0.3339306951613937,0.40390588892240764,-0.0032132786002009067,0.01115420464558429,0.08038560697194172
4783,9.0,299.86829,-4696.3215,0.047829991720710785,0.0,0.0,0.0,0.0,0.0072995330053165774,0.6736363890027354,0.33715284061189466,0.41677524937001464,0.004843817582397576,0.03234534560798707,0.054258516432648646
4784,9.0,300.30341,-4702.8782,0.04783996836017801,0.0,0.0,0.0,0.0,0.007301055581559079,0.6632048677657244,0.3211260813951767,0.4452265725054416,-0.01092534488524759,0.00995773714262714,0.06435500449759445
4785,9.0,301.25525,-4729.2632,0.047849978034875784,0.0,0.0,0.0,0.0,0.007302583199444851,0.6848865555255403,0.3212864890185077,0.4314048684213456,-0.013777138304947685,-0.02388941989920218,0.04635471272985396
4786,9.0,300.27543,-4760.0134,0.047859987709573115,0.0,0.0,0.0,0.0,0.007304110817330567,0.6835109570572794,0.3407637093307596,0.42265054967736165,0.0006239132681704454,-0.02150625667725228,0.07574947809964143
4787,9.0,300.20149,-4715.9251,0.04786996434904056,0.0,0.0,0.0,0.0,0.007305633393573097,0.7283804883205574,0.3127672848277277,0.39237570060196664,0.007758639211318072,-0.002848402882215477,0.06089891277125475
4788,9.0,300.39498,-4643.8232,0.047879974023738114,0.0,0.0,0.0,0.0,0.00730716101145884,0.6855421790027453,0.3317654404926997,0.39429866690674864,0.015040899293421185,-0.0017369456440981884,0.07707047252001342
4789,9.0,300.36687,-4616.1537,0.047889983698435445,0.0,0.0,0.0,0.0,0.007308688629344556,0.6701943277505303,0.3234821918527067,0.4095189398388726,-0.009743091254693241,-0.01004484139012366,0.06557325130482604
4790,9.0,299.80938,-4812.4387,0.047899993373133,0.0,0.0,0.0,0.0,0.007310216247230272,0.6835141791925974,0.3425403420560997,0.4368066870894636,0.006949799856016844,0.008256556795258713,0.056064675265902655
4791,9.0,300.0589,-4846.5908,0.04790997001260022,0.0,0.0,0.0,0.0,0.007311738823472774,0.7088393623244983,0.3425689562389237,0.4218342551317996,-0.00020809864069023682,0.01977488178087888,0.06274361665156285
4792,9.0,299.89545,-4708.5416,0.047919979687298,0.0,0.0,0.0,0.0,0.007313266441358546,0.6872663557704083,0.34330015804108766,0.4007125603047506,0.008232165332226463,0.003924190373087436,0.07000773530122553
4793,9.0,300.09371,-4712.6597,0.04792998936199533,0.0,0.0,0.0,0.0,0.007314794059244262,0.7205644391691733,0.32857374320770366,0.38339269131041265,-0.006299538700991063,-0.02034090051199058,0.08232851201219152
4794,9.0,299.83121,-4913.3892,0.047939966001462775,0.0,0.0,0.0,0.0,0.0073163166354867915,0.6997818690180934,0.35254755468123466,0.44121819563984555,0.0005418505884014894,-0.004625206238872316,0.07207073276982752
4795,9.0,300.06562,-4771.4219,0.04794997567616033,0.0,0.0,0.0,0.0,0.007317844253372535,0.6850473988464143,0.3278923426479547,0.4374533838332876,-0.0009540482777947341,0.013356237253157988,0.061782785018986146
4796,9.0,299.88879,-4589.987,0.04795998535085788,0.0,0.0,0.0,0.0,0.007319371871258279,0.6598388711985264,0.3204136551173657,0.4149889198412176,-0.0018859621071549682,-0.006911092283646704,0.055917637477641155
4797,9.0,299.84556000000003,-4638.5799,0.047969961990325105,0.0,0.0,0.0,0.0,0.007320894447500781,0.6746561948308823,0.32820667309397666,0.4071496064675376,0.004399498699596716,-0.01096142570805849,0.05407153227244474
4798,9.0,299.07088,-4741.0958,0.04797997166502266,0.0,0.0,0.0,0.0,0.007322422065386497,0.6984187639235654,0.33922373129877564,0.40353224281553157,-0.003239619556425557,-0.007329007591366732,0.06834069165370114
4799,9.0,299.39722,-4851.3125,0.04798998133972021,0.0,0.0,0.0,0.0,0.007323949683272241,0.7284112303285913,0.34678357002987364,0.3994830421034066,0.005208498553713785,0.007535107829282243,0.07457918436664243
4800,9.0,299.61547,-4884.0122,0.04799999101441754,0.0,0.0,0.0,0.0,0.007325477301157957,0.7051230142702233,0.34861693462831267,0.4308778061168286,0.0013826029648772887,-0.016371579371499086,0.0876063757425761
4801,9.0,299.89346,-4750.3112,0.04800996765388499,0.0,0.0,0.0,0.0,0.007326999877400486,0.6873789278565183,0.34025265637782265,0.4163444154274946,-0.0024965793453931976,0.0002326187256901808,0.07188768305976193
4802,9.0,299.7757,-4672.0208,0.04801997732858254,0.0,0.0,0.0,0.0,0.00732852749528623,0.6759525470088223,0.3336876873899107,0.4105374487068916,-0.014841932437534684,-0.0036543855815097765,0.07118809060771752
4803,9.0,299.90707000000003,-4794.5113,0.04802998700327987,0.0,0.0,0.0,0.0,0.007330055113171974,0.6962393237534713,0.3370101344678107,0.4241622681640566,0.005412735323370385,0.013775021625488788,0.04849113840670275
4804,9.0,300.29,-4778.6559,0.0480399636427471,0.0,0.0,0.0,0.0,0.007331577689414476,0.7069776267232594,0.33251010838869266,0.4131043151852216,-0.008605716700218112,0.014357375974712686,0.05117202186578535
4805,9.0,300.20885,-4619.4934,0.04804997331744465,0.0,0.0,0.0,0.0,0.007333105307300192,0.6959852512908964,0.3128816402340137,0.39534374319238963,0.013364805296003588,-0.003675082329377387,0.06754649203981973
4806,9.0,300.03286,-4697.962,0.0480599829921422,0.0,0.0,0.0,0.0,0.0073346329251859355,0.6796043915617314,0.3343630895090677,0.41409565881805954,0.005439341548471215,0.004874233425224386,0.07487374326346313
4807,9.0,300.04602,-4825.4292,0.048069992666839756,0.0,0.0,0.0,0.0,0.007336160543071679,0.7081851675299343,0.3394324101568707,0.4191924081460696,0.015844596100489883,0.001074215028041769,0.06885290477800263
4808,9.0,300.51767,-4875.8666,0.04807996930630698,0.0,0.0,0.0,0.0,0.007337683119314181,0.7015854339310913,0.3441869646611087,0.43636929741879665,0.01152146018407959,-0.016702432886901784,0.06367441859092585
4809,9.0,300.02935,-4906.2531,0.04808997898100453,0.0,0.0,0.0,0.0,0.007339210737199925,0.7087074270289773,0.36503428149357864,0.4176367247375356,0.013705790299156185,-0.014743287474049186,0.06535803394383574
4810,9.0,299.55425,-4698.9471,0.048099988655702086,0.0,0.0,0.0,0.0,0.007340738355085669,0.6940411283240263,0.3352467145237747,0.3990747428431106,0.004602314082013036,0.0024949147781289176,0.06006295408100205
4811,9.0,299.25379,-4639.608,0.04810996529516953,0.0,0.0,0.0,0.0,0.007342260931328198,0.6760864682745394,0.3385234234921607,0.39571509935403965,0.012129558178594188,0.0006608159178724534,0.06820808356011374
4812,9.0,298.92462,-4830.0631,0.04811997496986686,0.0,0.0,0.0,0.0,0.007343788549213887,0.6766466334598233,0.34961485425429967,0.44195709814276957,-0.018901383187671282,0.0015482853655788685,0.07023888095378783
4813,9.0,299.63579,-4907.9955,0.048129984644564416,0.0,0.0,0.0,0.0,0.00734531616709963,0.6991543024361573,0.35218873242332166,0.4405650647578866,-0.0018486719703497184,0.004221468326551486,0.06606752179635673
4814,9.0,299.61702,-4706.2017,0.04813996128403186,0.0,0.0,0.0,0.0,0.00734683874334216,0.6835126289199444,0.3370171258935007,0.4100380481301046,-0.012890605262453687,0.017603080503288782,0.07370668179828313
4815,9.0,300.0975,-4619.1909,0.048149970958729194,0.0,0.0,0.0,0.0,0.007348366361227876,0.6905926835961913,0.3303962052350667,0.38312981370446864,0.002822558317214817,0.008538619075946092,0.05673934885823775
4816,9.0,299.98586,-4778.6092,0.04815998063342675,0.0,0.0,0.0,0.0,0.00734989397911362,0.7119429372482974,0.33865285605993467,0.4019820917525436,-0.010460558958376791,-0.006932069904442033,0.06241734403986224
4817,9.0,299.86469,-4955.2408,0.0481699903081243,0.0,0.0,0.0,0.0,0.0073514215969993635,0.7180005617786384,0.36258597540944965,0.42568294378163557,-0.008596886529571643,-0.01002691284152925,0.07101597183973073
4818,9.0,300.26119,-4860.9668,0.048179966947591746,0.0,0.0,0.0,0.0,0.007352944173241893,0.6910573195620474,0.34730087473592763,0.4392543446935286,0.004395416010968786,-0.008489383733711942,0.07797125084566332
4819,9.0,300.258,-4736.6939,0.04818997662228908,0.0,0.0,0.0,0.0,0.007354471791127581,0.6979932191465673,0.3351185079886217,0.40672494321812663,0.005022590161141055,-0.0034201024000128266,0.06947498562389723
4820,9.0,299.17922999999996,-4709.0341,0.04819998629698663,0.0,0.0,0.0,0.0,0.007355999409013325,0.6836433989778503,0.3289662762964437,0.4188191065442276,0.005738017685748255,0.006321529369236374,0.06383741101526194
4821,9.0,299.22728,-4777.791,0.048209962936454076,0.0,0.0,0.0,0.0,0.007357521985255855,0.7139721326935633,0.3351596256776797,0.4031973839224836,-0.0016982869103828685,-0.0014190184641962185,0.06502006842598114
4822,9.0,299.33737,-4949.7491,0.04821997261115163,0.0,0.0,0.0,0.0,0.007359049603141599,0.7218538809814313,0.35348841819409066,0.42925784212195056,-0.005021171205701016,0.027173979529362974,0.05395991669442915
4823,9.0,299.70667000000003,-4837.2482,0.04822998228584896,0.0,0.0,0.0,0.0,0.007360577221027315,0.6868439520687203,0.35080062031632564,0.43275808419489764,-0.002327974934053238,0.014053442487966788,0.07034152116241764
4824,9.0,299.91799,-4639.7437,0.04823999196054651,0.0,0.0,0.0,0.0,0.007362104838913058,0.6506524215518944,0.34243758836345867,0.4172762204844566,0.0030067494535180673,0.008199709411648312,0.06172823973960294
4825,9.0,299.96725,-4678.4667,0.04824996860001396,0.0,0.0,0.0,0.0,0.007363627415155588,0.6703186738028024,0.3424356530557677,0.40938272862792957,-0.004320499844950136,-0.008548704562141452,0.08677866896113783
4826,9.0,300.23682,-4884.6274,0.04825997827471129,0.0,0.0,0.0,0.0,0.007365155033041276,0.7108593169288523,0.34591973378961965,0.4280257198678496,0.002271517347756308,-0.006490575253644904,0.05891001833546614
4827,9.0,300.33713,-4766.4045,0.048269987949408844,0.0,0.0,0.0,0.0,0.00736668265092702,0.7198705655006934,0.33727772368671965,0.3917196616922206,-0.008557619136521252,-0.00962386809360183,0.07872507041655953
4828,9.0,299.94912999999997,-4664.377,0.04827996458887629,0.0,0.0,0.0,0.0,0.00736820522716955,0.7012668579671504,0.3173775829152287,0.3992096874914286,-9.116368608765531e-05,-0.0026460817631979374,0.05719751522220525
4829,9.0,300.31026,-4752.8588,0.04828997426357384,0.0,0.0,0.0,0.0,0.0073697328450552935,0.6690439849120003,0.3451409902927637,0.4305654312434996,0.012483250351250887,0.0019145756820289081,0.08332146468618833
4830,9.0,299.60291,-4846.8026,0.048299983938271174,0.0,0.0,0.0,0.0,0.0073712604629410095,0.6807362223209343,0.34475609710977767,0.44781465644086554,0.007005068899946473,0.010522130113953391,0.06040426535068684
4831,9.0,299.20308,-4955.4886,0.04830999361296873,0.0,0.0,0.0,0.0,0.007372788080826725,0.7140914732903413,0.33903345306249666,0.4532198593643176,0.024010895413940875,-0.004918469188815115,0.06940243691673723
4832,9.0,299.96447,-4879.5866,0.04831997025243617,0.0,0.0,0.0,0.0,0.007374310657069283,0.7058061069576393,0.3482233173619657,0.4292430486704906,0.0018439262108563483,-0.004754122150420326,0.05743966274435335
4833,9.0,299.7863,-4613.7291,0.048329979927133726,0.0,0.0,0.0,0.0,0.007375838274954999,0.7084484403034174,0.3119878219233007,0.38202219962265566,0.01048989153552169,-0.00920634714282072,0.06343790777908404
4834,9.0,299.1391,-4749.2475,0.04833998960183106,0.0,0.0,0.0,0.0,0.007377365892840715,0.6893972207307083,0.3459919785217497,0.4082634419049646,-0.012601883699459089,-0.004739836235935416,0.06829272743371743
4835,9.0,299.79171,-4953.3162,0.0483499662412985,0.0,0.0,0.0,0.0,0.007378888469083272,0.7046899815749863,0.3678248837264897,0.4331695650605076,-0.016009863271300485,0.0030546973601751565,0.06442635250338594
4836,9.0,299.81753,-4886.7808,0.048359975915995834,0.0,0.0,0.0,0.0,0.007380416086968988,0.6854666310752894,0.34231578556893766,0.4576769337716966,-0.016662500700460783,-0.0013782454828222387,0.061487931266386346
4837,9.0,300.20332,-4655.4259999999995,0.04836998559069339,0.0,0.0,0.0,0.0,0.007381943704854704,0.6609954353926704,0.3469767461614387,0.4071610663261686,0.012753255158398287,-0.001992978745616688,0.07708628732757422
4838,9.0,300.62144,-4653.2725,0.04837996223016083,0.0,0.0,0.0,0.0,0.007383466281097262,0.6849924705584933,0.33132130257636666,0.3981648746508136,0.0028883258480805673,0.005941000051781055,0.07831577817116553
4839,9.0,300.34715,-4877.2184,0.048389971904858164,0.0,0.0,0.0,0.0,0.007384993898982978,0.7447591391645043,0.3334589360473347,0.40433451397970954,0.011751111292744388,0.0016843791408352785,0.06848733528767373
4840,9.0,300.26162,-4868.1687,0.04839998157955572,0.0,0.0,0.0,0.0,0.007386521516868694,0.7148609962112874,0.3494639509169067,0.4154767794993656,-4.2687492106677456e-05,0.003018458166373627,0.07436411494016672
4841,9.0,300.22796,-4719.7083,0.04840999125425305,0.0,0.0,0.0,0.0,0.00738804913475441,0.6812653009931503,0.33688726776068467,0.4165209033299126,0.01042555623367229,0.011037869348602888,0.07950294353157962
4842,9.0,299.63081,-4660.3941,0.04841996789372072,0.0,0.0,0.0,0.0,0.007389571710996967,0.6561210944616104,0.3331749625743087,0.42734736919090155,0.009898092276815651,0.025115067485164178,0.07368100502749902
4843,9.0,299.43256,-4677.0226,0.04842997756841805,0.0,0.0,0.0,0.0,0.007391099328882683,0.6530349474395314,0.3400144311468117,0.42864872682433564,0.0037634812065266763,0.0037563939273772165,0.07402377943032823
4844,9.0,299.53822,-4733.4299,0.0484399872431156,0.0,0.0,0.0,0.0,0.007392626946768427,0.6998529890426124,0.3219725809262197,0.4170189258865636,-0.006981964568516253,-0.0033581145959951063,0.05655307397310385
4845,9.0,299.57417999999996,-4796.935,0.04844996388258305,0.0,0.0,0.0,0.0,0.007394149523010957,0.7143008715560073,0.35278287188445867,0.3910647170925826,-0.004257719071404155,-0.01066415839372049,0.07445384330277223
4846,9.0,299.62821,-4684.847,0.0484599735572806,0.0,0.0,0.0,0.0,0.0073956771408967,0.6988100000521774,0.3342922937245807,0.3909742034611496,0.0016036705279699585,0.004508212228000906,0.06853866451123954
4847,9.0,299.34566,-4750.9934,0.04846998323197793,0.0,0.0,0.0,0.0,0.007397204758782389,0.6963833673876874,0.34291699751577265,0.4048829862588396,-0.002977441802325627,0.0094858104370016,0.07661625175193533
4848,9.0,299.96654,-4904.9314,0.04847999290667526,0.0,0.0,0.0,0.0,0.007398732376668105,0.7003693615585743,0.35310756787900366,0.43749974002536257,-0.008978002113534821,0.011826533577187989,0.06829356032529964
4849,9.0,299.91316,-4826.4966,0.04848996954614293,0.0,0.0,0.0,0.0,0.007400254952910662,0.6862380589064233,0.3342571339461107,0.4466392356623606,-0.001923526328112268,0.012899203702802288,0.06215697929416624
4850,9.0,299.7222,-4674.3903,0.04849997922084026,0.0,0.0,0.0,0.0,0.007401782570796378,0.6860381649266953,0.32682641367525567,0.40803335307225663,-0.0028111174063606874,0.01204782334602759,0.06870857135425802
4851,9.0,300.05165,-4688.1228,0.048509988895537814,0.0,0.0,0.0,0.0,0.007403310188682122,0.7050645902694573,0.3185858228644727,0.4014218657722536,0.0034525101912112263,-0.006361561563462244,0.05200822778906245
4852,9.0,300.56941,-4821.3155,0.04851996553500526,0.0,0.0,0.0,0.0,0.0074048327649246515,0.7195060690422204,0.3353362655676127,0.41071719927463163,0.009146607436799872,-0.026305434715894273,0.07248049516326793
4853,9.0,300.52862000000005,-4830.8907,0.048529975209702814,0.0,0.0,0.0,0.0,0.007406360382810395,0.7076198651666433,0.3525605648125187,0.40828970534755665,-0.003065248637441487,-0.017488602493740683,0.07179867613122763
4854,9.0,300.41364,-4806.6742,0.048539984884400145,0.0,0.0,0.0,0.0,0.0074078880006960834,0.6826375253385784,0.34768809839414366,0.43078333067750463,0.01095532492920639,0.007329813631821283,0.08425674721749352
4855,9.0,300.00926,-4753.732,0.04854996152386781,0.0,0.0,0.0,0.0,0.007409410576938669,0.6745241480778503,0.34816925033662965,0.42232243902997957,-0.004054031381976746,0.007252415914982723,0.056943053671591845
4856,9.0,300.00327999999996,-4671.4791,0.048559971198565144,0.0,0.0,0.0,0.0,0.007410938194824357,0.6808332511505103,0.3410984365012947,0.39808132204756763,0.007086001441083893,0.014936591275126785,0.06673515735349723
4857,9.0,300.19599,-4858.4192,0.0485699808732627,0.0,0.0,0.0,0.0,0.007412465812710101,0.7212104773004323,0.3458744820401537,0.40975315259948764,-0.021455746159767277,-0.003482126073084087,0.06686840987414824
4858,9.0,299.97301,-4945.4173,0.04857999054796003,0.0,0.0,0.0,0.0,0.007413993430595817,0.7225489502850294,0.35463851785259665,0.4260959141248926,0.0029397414005548875,0.008292887688194292,0.07569809821357064
4859,9.0,299.81699,-4736.8864,0.048589967187427696,0.0,0.0,0.0,0.0,0.007415516006838374,0.6942500604946464,0.34105027672404165,0.40459482806290065,-0.016079253677898787,-0.003711797142775856,0.07646103500886663
4860,9.0,299.34271,-4608.8749,0.04859997686212503,0.0,0.0,0.0,0.0,0.00741704362472409,0.6572779322332813,0.33724308066580067,0.4064618730946636,0.017493093218183882,0.006077715050673774,0.07786441578161953
4861,9.0,300.32075,-4804.0148,0.04860998653682236,0.0,0.0,0.0,0.0,0.007418571242609778,0.7023419771182564,0.3360462600451837,0.42191231591950357,0.0028463833734411674,0.005742569002547434,0.07361860604659073
4862,9.0,299.97968,-4955.3387,0.048619963176290026,0.0,0.0,0.0,0.0,0.007420093818852336,0.7151594591607434,0.35030149331706567,0.44083827751485055,0.00924130518319581,0.01821193742212828,0.060710853552694746
4863,9.0,299.8445,-4865.1214,0.04862997285098736,0.0,0.0,0.0,0.0,0.007421621436738052,0.7176746904139772,0.3468319729871507,0.4143687499850116,-0.005313357577412564,0.004270062686772376,0.06090821035417235
4864,9.0,300.46653,-4794.0235,0.04863998252568491,0.0,0.0,0.0,0.0,0.0074231490546237955,0.6885663759137104,0.3429951292309837,0.42570192195600864,-0.01030070355635029,-0.010910998277081689,0.06259618268251224
4865,9.0,300.6612,-4818.9877,0.04864999220038224,0.0,0.0,0.0,0.0,0.0074246766725095115,0.7065168005777793,0.3449049131519647,0.4134302068148846,-0.0004361842576855346,-0.013139353095753188,0.06337728603885115
4866,9.0,300.26481,-4858.2109,0.04865996883984969,0.0,0.0,0.0,0.0,0.007426199248752069,0.6870492872014854,0.35065380037683563,0.43907171649550464,-0.009323070717240442,-0.005028460729570435,0.07007499788261384
4867,9.0,300.48421,-4875.3613,0.04866997851454724,0.0,0.0,0.0,0.0,0.007427726866637785,0.7220787718411262,0.3291318210977817,0.4307775044894296,-0.002767663770522148,0.0060575872427373135,0.05657691676120695
4868,9.0,299.7525,-4806.7692,0.04867998818924457,0.0,0.0,0.0,0.0,0.007429254484523501,0.7034015327478264,0.3436674409373357,0.4140688380879126,-0.01136952029183429,-0.005250065517866125,0.06750415439764133
4869,9.0,299.75383,-4650.4545,0.04868996482871202,0.0,0.0,0.0,0.0,0.007430777060766031,0.6961408459762523,0.3262193552753437,0.3912618448995376,-0.0026894420787022676,-0.0034433930681364365,0.06667525603408543
4870,9.0,299.50396,-4764.5707,0.04869997450340957,0.0,0.0,0.0,0.0,0.007432304678651774,0.6830690685561683,0.3409210366737867,0.42432041623966466,-0.001157588792645119,0.011469245379926388,0.08264625001829982
4871,9.0,299.90013999999996,-4947.3596,0.0487099841781069,0.0,0.0,0.0,0.0,0.00743383229653749,0.7136337679551693,0.3472725442631317,0.44296746047998453,-0.0007004314433922014,-0.002099007059930868,0.06384206588622134
4872,9.0,299.80557000000005,-4906.8992,0.048719993852804455,0.0,0.0,0.0,0.0,0.007435359914423206,0.6889060578772344,0.3663348589244357,0.4363339147253046,-0.0003896883789517486,-0.008742763133218543,0.08233076953341432
4873,9.0,299.55832999999996,-4758.7374,0.0487299704922719,0.0,0.0,0.0,0.0,0.007436882490665764,0.6965755201366514,0.3374560759693217,0.4125057478211476,0.0008858810059221482,-0.007912731550750804,0.07082631472576303
4874,9.0,299.44133999999997,-4776.0823,0.04873998016696923,0.0,0.0,0.0,0.0,0.00743841010855148,0.7098321042424743,0.3400869697214707,0.4018906763285216,0.008859608196325253,0.017703542224203582,0.07502755057564273
4875,9.0,300.46877,-4858.7576,0.048749989841666785,0.0,0.0,0.0,0.0,0.007439937726437196,0.7103956739480943,0.34357193198290964,0.4229733812917226,0.002304993003235098,0.01992562502475608,0.059257382761248346
4876,9.0,300.20242,-4884.0251,0.04875996648113423,0.0,0.0,0.0,0.0,0.0074414603026797255,0.7069968379451553,0.36248527861451163,0.4151395698660856,-0.007618263035839023,-0.0033682829660486467,0.07097733256041734
4877,9.0,300.29188,-4755.2057,0.048769976155831785,0.0,0.0,0.0,0.0,0.007442987920565469,0.6812235449565294,0.3356330465219027,0.4286072038352376,0.0029167077939816475,-0.0027642537786356073,0.06630494352003845
4878,9.0,299.55554,-4628.9072,0.048779985830529116,0.0,0.0,0.0,0.0,0.007444515538451185,0.6695822740276254,0.33466419704128464,0.40282574405080557,0.0059603681247925346,0.008539583690041293,0.07456161967615893
4879,9.0,299.70647,-4699.5446,0.048789962469996784,0.0,0.0,0.0,0.0,0.007446038114693743,0.7009422835626173,0.3170625938566417,0.4105393434845786,0.004332518814986316,0.005820907522103845,0.06311149533886964
4880,9.0,300.363,-4956.3148,0.048799972144694115,0.0,0.0,0.0,0.0,0.007447565732579459,0.7336336328015023,0.34761525584445463,0.4253470311084836,-0.014139465394956587,-0.012894455612833687,0.07219031452012933
4881,9.0,300.85511,-4901.3174,0.04880998181939167,0.0,0.0,0.0,0.0,0.007449093350465202,0.7252018619618513,0.3414438331953827,0.42323241867978756,-0.013623600517294686,0.015217405434340985,0.06740351738445922
4882,9.0,300.11408,-4721.7828,0.048819991494089,0.0,0.0,0.0,0.0,0.007450620968350891,0.6916834169313383,0.33463747763614765,0.40898317371599663,-0.001000436610162906,0.014469427250271286,0.08290453050854012
4883,9.0,300.03915,-4811.8659,0.04882996813355667,0.0,0.0,0.0,0.0,0.007452143544593448,0.6885336682004823,0.3447627946929387,0.4293906184150546,0.004698369076917925,0.01064680445925779,0.06479757694252294
4884,9.0,300.32285,-4946.8716,0.048839977808254,0.0,0.0,0.0,0.0,0.007453671162479164,0.7056340672231604,0.36244536669307265,0.4356460192324146,0.004597694674807136,-0.016769869747307285,0.08281351126530721
4885,9.0,299.99877000000004,-4897.4574,0.04884998748295133,0.0,0.0,0.0,0.0,0.00745519878036488,0.7116098414104234,0.34359833728051564,0.4334965813977816,0.003943255686969036,-0.011313491614304689,0.05880402021600495
4886,9.0,299.77693,-4742.7348,0.048859964122419,0.0,0.0,0.0,0.0,0.0074567213566074375,0.6853251104338224,0.34211432105155465,0.4142335216266656,0.018449209184795184,0.006591966631526453,0.07343047083427323
4887,9.0,299.91245,-4705.4478,0.04886997379711633,0.0,0.0,0.0,0.0,0.0074582489744931535,0.6964530789945673,0.3263283607211017,0.4075571863202626,-0.004371190923602956,0.012570487131860488,0.04401797966723636
4888,9.0,299.83886,-4789.8012,0.04887998347181388,0.0,0.0,0.0,0.0,0.007459776592378897,0.6917615790440523,0.3442184666067177,0.4199999178132646,-0.01075481489341759,-0.008472020578673332,0.08352987401975671
4889,9.0,299.49147999999997,-4901.4275,0.04888999314651121,0.0,0.0,0.0,0.0,0.0074613042102645855,0.6903488956221313,0.3565449073857427,0.44301775821494854,-0.013068741722784384,-0.016459108981387586,0.07009221705481322
4890,9.0,300.04233,-4897.719,0.04889996978597888,0.0,0.0,0.0,0.0,0.007462826786507143,0.7068698067801183,0.3504848510551617,0.43142961198878765,0.006528539708391703,0.0024220859073162677,0.07813606104067883
4891,9.0,300.3217,-4780.2587,0.04890997946067621,0.0,0.0,0.0,0.0,0.007464354404392859,0.7043440985208503,0.33595534111371067,0.41277985223819963,0.01010569972425491,0.005514354581199425,0.07388657928728763
4892,9.0,300.64443,-4709.1124,0.048919989135373765,0.0,0.0,0.0,0.0,0.007465882022278603,0.6993025611907894,0.3362971914324487,0.39585283044013264,0.013443911757810787,-0.01803142793006338,0.08323934583183383
4893,9.0,300.49809,-4871.0078,0.04892996577484121,0.0,0.0,0.0,0.0,0.007467404598521132,0.7299461319775743,0.33912832366935963,0.4115902966207996,0.005500691815526015,0.0038809398938939466,0.07776711033476623
4894,9.0,300.77636,-4863.1366,0.048939975449538764,0.0,0.0,0.0,0.0,0.007468932216406876,0.7022403481332263,0.34554189282732967,0.43048984278603963,0.014451808857532488,0.016492005159134186,0.06408841636978424
4895,9.0,300.49573,-4671.8742,0.048949985124236095,0.0,0.0,0.0,0.0,0.007470459834292592,0.6799116393895543,0.3277657066504567,0.4124557439287126,0.017629753298921184,0.013840081401159686,0.06388940594414344
4896,9.0,300.49067,-4682.8675,0.04895996176370354,0.0,0.0,0.0,0.0,0.007471982410535122,0.6842790411630834,0.3194230511571007,0.4197726964783396,0.003916749165678046,-0.014417708938667088,0.04867283948088525
4897,9.0,299.95858,-4875.4401,0.04896997143840087,0.0,0.0,0.0,0.0,0.007473510028420838,0.7054538201628713,0.3451939528754907,0.43136428775484054,-0.009874517594689011,-0.016411267364665985,0.06360868703043863
4898,9.0,299.36782,-4940.5766,0.048979981113098425,0.0,0.0,0.0,0.0,0.007475037646306554,0.7186925609344333,0.35520283736329067,0.4279165117720716,-0.001987043633155938,-0.0018149248651691387,0.06365516582577574
4899,9.0,299.63473,-4861.3479,0.04898999078779598,0.0,0.0,0.0,0.0,0.0074765652641922975,0.7154969829015543,0.34690195817155767,0.4153294225373226,-0.012704116581548687,0.015200773947199585,0.07637075746470692
4900,9.0,300.68014,-4777.63,0.0489999674272632,0.0,0.0,0.0,0.0,0.007478087840434827,0.6908818854397333,0.3432962975582067,0.41810203958095865,-0.011711180119553488,-0.002990837069972637,0.07838551713579822
4901,9.0,300.24117,-4796.6458,0.049009977101960756,0.0,0.0,0.0,0.0,0.007479615458320571,0.6991056259013534,0.3441251564050087,0.4148297787805116,-0.007676420754478742,-0.00023477706999319278,0.08298651358738121
4902,9.0,300.66132999999996,-4879.0608,0.04901998677665809,0.0,0.0,0.0,0.0,0.007481143076206287,0.7137499269466333,0.3486534926919207,0.4207092435457696,0.010661664785224388,0.00985830802488925,0.06799748763282953
4903,9.0,300.62165,-4887.1298,0.04902996341612553,0.0,0.0,0.0,0.0,0.007482665652448817,0.7196815234295363,0.34173947930956067,0.4241444450947976,0.016792653689055883,0.001109262234425659,0.07176725220587633
4904,9.0,300.41969,-4700.7087,0.049039973090823086,0.0,0.0,0.0,0.0,0.007484193270334533,0.6950263316612584,0.33213015986619465,0.4017415664438056,-0.0059902313410148044,-0.025749222219250373,0.06114764945880314
4905,9.0,300.35926,-4582.8031,0.04904998276552064,0.0,0.0,0.0,0.0,0.007485720888220276,0.6741557404739913,0.3311419269111637,0.3877600221564346,-0.0004890184717573655,-0.017260638446492383,0.08695030744857722
4906,9.0,300.18093,-4902.4513,0.04905999244021797,0.0,0.0,0.0,0.0,0.007487248506105992,0.6991948831026623,0.35440034328409065,0.4366275546042846,-0.004552997679770886,-0.002060032496159378,0.06133559114035154
4907,9.0,300.10086,-4998.8977,0.049069969079685416,0.0,0.0,0.0,0.0,0.007488771082348522,0.7155236820416893,0.3603990979836217,0.44361729829911856,0.01190543130947459,0.01136310337895099,0.06808789588625214
4908,9.0,300.23037,-4857.4662,0.04907997875438297,0.0,0.0,0.0,0.0,0.007490298700234266,0.7017271876200813,0.35529928864030963,0.4195219474760926,-0.016452695108254586,-0.0024524784453907778,0.06498178986370334
4909,9.0,299.98696,-4805.0056,0.0490899884290803,0.0,0.0,0.0,0.0,0.007491826318119982,0.6887098014653654,0.34477387964903267,0.4271180402957686,0.0010713604998600491,0.002433134183756648,0.08073035315946551
4910,9.0,299.5231,-4822.8779,0.049099965068547746,0.0,0.0,0.0,0.0,0.0074933488943625115,0.7051479807526874,0.35305659126647265,0.4078298823196756,0.0020516123878283783,0.009991776165161531,0.06741824801441304
4911,9.0,300.23081,-4814.7884,0.0491099747432453,0.0,0.0,0.0,0.0,0.0074948765122482275,0.6993427770872583,0.3432666802577837,0.42096597072360664,0.01130368132683649,0.009006680131115122,0.07968357056065613
4912,9.0,300.10861,-4892.4563,0.04911998441794285,0.0,0.0,0.0,0.0,0.007496404130133971,0.7132894149086842,0.3468703447684377,0.42702480102156654,-0.003520433107689697,-0.003146493766234757,0.06103095445803624
4913,9.0,300.15747000000005,-4817.6776,0.049129961057410076,0.0,0.0,0.0,0.0,0.007497926706376473,0.7061161412232373,0.3373396636653327,0.42099787796925553,-0.0006434207036006794,0.0006570810881363544,0.06395801716141485
4914,9.0,299.97924,-4737.6877,0.04913997073210763,0.0,0.0,0.0,0.0,0.007499454324262217,0.6935355874516334,0.33065867754097067,0.4159444957455256,0.0013943656839631787,0.00948900653179203,0.05163185907916775
4915,9.0,300.01467,-4935.8722,0.04914998040680518,0.0,0.0,0.0,0.0,0.007500981942147961,0.7080923943507783,0.36024782987619264,0.43204167584419356,-0.002984184373791067,0.01120308687015859,0.05250515400910525
4916,9.0,300.29392,-5108.912,0.049159990081502736,0.0,0.0,0.0,0.0,0.007502509560033704,0.7364077291902843,0.35916429061675564,0.4574096586603186,-0.011862954852032488,0.002312351934736368,0.05476889152126875
4917,9.0,300.83874,-4950.6225,0.04916996672096996,0.0,0.0,0.0,0.0,0.007504032136276206,0.7046680852403253,0.3602492990888377,0.4399482284945096,-0.003155624162885857,-0.013663873155769288,0.06786019731053003
4918,9.0,299.91359,-4759.6453,0.04917997639566751,0.0,0.0,0.0,0.0,0.007505559754161922,0.6831780436044234,0.3490364809647187,0.41459880842021657,-0.006248284255282644,0.005737693851016295,0.08060708621855002
4919,9.0,300.06799,-4774.553,0.049189986070365066,0.0,0.0,0.0,0.0,0.007507087372047666,0.7086103981994013,0.3280032530039007,0.4147312300757856,0.0034047024170429665,-0.00026892940428626576,0.06194656169889964
4920,9.0,300.05933,-4838.0689,0.04919996270983251,0.0,0.0,0.0,0.0,0.007508609948290196,0.7077536952398513,0.35123947919963766,0.4116589645800766,0.001749169391979578,-0.02054324453046038,0.07938969256790263
4921,9.0,299.36942999999997,-4786.9365,0.04920997238452984,0.0,0.0,0.0,0.0,0.007510137566175912,0.6981753001895373,0.3462149442062547,0.41071893193230263,-0.00015542714445196485,-0.002900526189884647,0.07349488111663002
4922,9.0,299.77267,-4708.9001,0.049219982059227396,0.0,0.0,0.0,0.0,0.0075116651840616555,0.6861668071593914,0.3354499724938347,0.4097712593787746,-0.0018618267937479983,0.007466923494277972,0.06561271942272123
4923,9.0,299.70833999999996,-4782.157,0.04922999173392495,0.0,0.0,0.0,0.0,0.007513192801947399,0.6740924427402444,0.3494554598810687,0.43010840478589457,0.0021247661066230877,0.01056104094429359,0.07702265218154393
4924,9.0,299.8344,-4986.1394,0.04923996837339217,0.0,0.0,0.0,0.0,0.007514715378189901,0.7178857808073104,0.36278080313867767,0.43499527962069157,-0.01170968658890609,0.014831263927231785,0.06619505857319365
4925,9.0,299.81712000000005,-5122.9668,0.049249978048089726,0.0,0.0,0.0,0.0,0.007516242996075617,0.7415689820196603,0.37198053649412066,0.44370444794021957,0.004353736778705366,0.003265866888340967,0.08120246691105952
4926,9.0,300.36545,-4990.9639,0.04925998772278728,0.0,0.0,0.0,0.0,0.007517770613961361,0.7256659710376553,0.3611874977539306,0.4302749223073286,0.014028970471551588,0.002174862610117228,0.06765562920809073
4927,9.0,299.95527000000004,-4694.9881,0.049269964362254726,0.0,0.0,0.0,0.0,0.007519293190203891,0.6804601319336864,0.34809992376478766,0.3985990725836656,0.0005183424464089165,-0.011249418744231188,0.07554036253075333
4928,9.0,300.24615,-4724.7652,0.04927997403695206,0.0,0.0,0.0,0.0,0.007520820808089607,0.6937774198530003,0.3348161136287777,0.4076171200636776,0.00878534010507056,-0.017979455292684084,0.06260537488741943
4929,9.0,300.0133,-4900.9337,0.04928998371164961,0.0,0.0,0.0,0.0,0.00752234842597535,0.6911162400553623,0.35999128508337364,0.43865395347927455,-0.008323770943292232,-0.017525643877646383,0.07064299245142053
4930,9.0,300.51395,-4781.1223,0.04929999338634716,0.0,0.0,0.0,0.0,0.007523876043861066,0.7111429154993413,0.3218476269238877,0.42035126228543956,0.009037872832793602,0.0046962520934839954,0.05124351375309105
4931,9.0,300.21766,-4824.2617,0.04930997002581439,0.0,0.0,0.0,0.0,0.007525398620103624,0.7046006129161663,0.35042602175435567,0.4114284704473286,0.004046535053761916,0.013827197926138186,0.07504914293527372
4932,9.0,300.33322999999996,-5006.5564,0.04931997970051194,0.0,0.0,0.0,0.0,0.007526926237989312,0.7276236512908634,0.35308620856689565,0.4411582517639296,0.0076425044365314625,0.016407268066521284,0.07170710871969063
4933,9.0,299.59035,-5015.9445,0.04932998937520949,0.0,0.0,0.0,0.0,0.007528453855875056,0.7211437851788504,0.36608111070189264,0.43749697385258957,0.007604128703569073,0.015308084225540287,0.07341735633822893
4934,9.0,298.88408,-4978.8864,0.04933996601467672,0.0,0.0,0.0,0.0,0.0075299764321175855,0.7013948415872813,0.3616246138470707,0.4504376975047396,-0.009337172321532161,0.014893910141164484,0.07198385873275373
4935,9.0,299.69691,-4873.0305,0.04934997568937405,0.0,0.0,0.0,0.0,0.0075315040500033015,0.6836351409895354,0.35011652451131065,0.4475279370600686,-0.002030286411648668,0.003064251801993107,0.05754984254697724
4936,9.0,300.23095,-4761.2343,0.0493599853640716,0.0,0.0,0.0,0.0,0.007533031667889045,0.6968037040591714,0.3356747012335137,0.41481793388684257,-0.01737669408644618,-0.02070499369692378,0.06020897861916354
4937,9.0,299.61371,-4811.420999999999,0.04936996200353905,0.0,0.0,0.0,0.0,0.007534554244131575,0.7020779545396993,0.3422615564235857,0.4182123318543436,0.006594583856534754,-0.017918598478427986,0.07277984470656143
4938,9.0,300.04449,-4969.638,0.0493799716782366,0.0,0.0,0.0,0.0,0.007536081862017319,0.7172355174231343,0.3599486981816707,0.43346163440183255,0.0037199026369508065,-0.017196569629419282,0.06939858960610754
4939,9.0,300.5139,-4895.7735,0.04938998135293393,0.0,0.0,0.0,0.0,0.007537609479903007,0.7104050465115193,0.35292975261895465,0.4248580872727286,0.007039643931783763,-0.000973593406128688,0.07235173944656073
4940,9.0,300.49586,-4773.064,0.04939999102763171,0.0,0.0,0.0,0.0,0.007539137097788778,0.6789522435323693,0.3494602829515447,0.42247975624050554,0.008415864332956142,-0.008456337392300523,0.07291390681404233
4941,9.0,300.38795,-4780.3212,0.04940996766709893,0.0,0.0,0.0,0.0,0.00754065967403128,0.6893898037399764,0.34001708586207363,0.4236913804450836,0.005361851524548546,0.0017893140569665482,0.07457199839693324
4942,9.0,299.99314,-4925.2693,0.049419977341796484,0.0,0.0,0.0,0.0,0.007542187291917024,0.7161944434753883,0.3524200574211517,0.42854437219653657,0.0033938100797929766,0.02485405425940418,0.05925677683768854
4943,9.0,300.18438,-4872.9984,0.049429987016493815,0.0,0.0,0.0,0.0,0.00754371490980274,0.7000346039905364,0.34877797046670567,0.43245726037270865,-0.00979611149135093,0.012940156232093988,0.07322865471910553
4944,9.0,299.89525,-4842.1140000000005,0.04943996365596148,0.0,0.0,0.0,0.0,0.0075452374860452975,0.7136656346708143,0.34397092960728765,0.4142451740028156,-0.013961156682108886,0.00025091091961297976,0.07642561887812133
4945,9.0,300.28525,-4911.6371,0.049449973330658814,0.0,0.0,0.0,0.0,0.0075467651039310135,0.7210953720890723,0.3523187526761537,0.4196008999238846,-0.00998536796622909,-0.015114161328651588,0.07868278242363602
4946,9.0,299.72271,-4813.8954,0.049459983005356145,0.0,0.0,0.0,0.0,0.007548292721816702,0.6915671566148643,0.34832893855238967,0.4234079237296086,-0.0016974424677495283,0.007158388534852943,0.07849401798300643
4947,9.0,299.46395,-4845.1321,0.04946999268005392,0.0,0.0,0.0,0.0,0.007549820339702473,0.6988890436924784,0.3558066330978807,0.4181035087936036,0.009141002035921662,0.001885274616962118,0.062021404404286044
4948,9.0,299.74227,-4946.9341,0.049479969319521144,0.0,0.0,0.0,0.0,0.007551342915944975,0.7234485035913083,0.3353348470174727,0.44496110097924163,-0.0008961209519627524,-0.007460280119997322,0.058590996541481144
4949,9.0,299.83077000000003,-4847.8397,0.0494899789942187,0.0,0.0,0.0,0.0,0.007552870533830719,0.7053430617944403,0.35238295220248966,0.41589619411325857,0.009397380959699293,-0.0005082323990311325,0.06939038025379733
4950,9.0,300.47697999999997,-4712.2001,0.04949998866891625,0.0,0.0,0.0,0.0,0.007554398151716463,0.6884837858980593,0.34153321198670367,0.4023741891437406,0.011760160629387489,0.012734287116526289,0.07639804631640014
4951,9.0,300.62451,-4851.4725,0.0495099653083837,0.0,0.0,0.0,0.0,0.007555920727958992,0.7049336884890384,0.3464017672596927,0.4233910328504416,0.006733720523166474,0.01970914718064138,0.07505487083808902
4952,9.0,300.28369,-5036.3251,0.04951997498308103,0.0,0.0,0.0,0.0,0.007557448345844708,0.7023560106321414,0.37588347455431065,0.45267758817579956,-0.02089129391331018,-0.0047321853870803355,0.07335634550995764
4953,9.0,300.05127999999996,-4960.7019,0.04952998465777858,0.0,0.0,0.0,0.0,0.007558975963730424,0.7249063678351884,0.3498346282009897,0.4331885128373776,-0.016244327317940285,-0.015478599018618784,0.06652594856559993
4954,9.0,300.30869,-4898.9969,0.04953996129724603,0.0,0.0,0.0,0.0,0.007560498539972954,0.7086940723926592,0.3392852153148437,0.44119345207240357,-0.008060077974992762,-0.002118548702684478,0.05079976593804655
4955,9.0,299.70727,-4886.0089,0.04954997097194358,0.0,0.0,0.0,0.0,0.007562026157858698,0.7046205840756373,0.35082861641658863,0.4297755115980406,0.0035473532376715062,0.0021004917753023977,0.06404852370009714
4956,9.0,299.83127,-4918.7767,0.04955998064664091,0.0,0.0,0.0,0.0,0.007563553775744414,0.7143430632901714,0.35367965901796466,0.4271625625051626,0.0018618733019275882,-0.005788786379358734,0.06603679194732394
4957,9.0,299.59581000000003,-5032.3583,0.049569990321338464,0.0,0.0,0.0,0.0,0.0075650813936301575,0.7236729790184623,0.36375358402968366,0.4422847021651016,-0.01123855568990909,-0.010404660990110089,0.09044251444823122
4958,9.0,300.03132999999997,-4883.3022,0.04957996696080591,0.0,0.0,0.0,0.0,0.007566603969872687,0.7040324025250884,0.34763632131403366,0.43273321903744355,0.012540071390358688,0.01141246689732279,0.06412172291382133
4959,9.0,300.34986000000004,-4534.6878,0.04958997663550324,0.0,0.0,0.0,0.0,0.007568131587758403,0.6788900198437284,0.32488264534592065,0.37465919485598365,-0.005256594192235455,0.017422101876427586,0.07940958874686622
4960,9.0,300.52315,-4674.4271,0.049599986310200794,0.0,0.0,0.0,0.0,0.007569659205644119,0.6835788042839753,0.32601683697785666,0.4113134868259806,0.008223894779610223,-0.007191065242627884,0.05540208670751025
4961,9.0,300.30777,-5031.1221,0.04960996294966824,0.0,0.0,0.0,0.0,0.007571181781886649,0.7242291519983522,0.3614928609365677,0.4436134884787426,-0.007774015990860643,-0.016403452166644683,0.08461572247617162
4962,9.0,300.47475,-4972.8727,0.04961997262436557,0.0,0.0,0.0,0.0,0.007572709399772393,0.7199396590250123,0.35684622770048063,0.4348432414431866,0.012213087477087888,0.0051433145535806244,0.060964390005966845
4963,9.0,300.27086,-4832.4351,0.049629982299063125,0.0,0.0,0.0,0.0,0.007574237017658109,0.6882582972208053,0.3530514034259607,0.4276299038487856,0.0015852022210472785,0.005071707257088535,0.08613510214687273
4964,9.0,299.80609,-4948.344,0.04963999197376068,0.0,0.0,0.0,0.0,0.007575764635543852,0.7122455139931593,0.34650319359470266,0.4454242981299556,0.002198206169896058,0.012205948116883289,0.059516475878068846
4965,9.0,299.83303,-5013.8162,0.0496499686132279,0.0,0.0,0.0,0.0,0.007577287211786382,0.7388234288861953,0.35192191327448863,0.43332958764880064,-0.007103018368563333,0.005745368004623675,0.07395020936706743
4966,9.0,299.94723,-4900.96,0.049659978287925455,0.0,0.0,0.0,0.0,0.007578814829672126,0.7123731125782523,0.33865950298059067,0.4387368474699556,0.0032523242941294166,0.004288468982788936,0.07020100870480013
4967,9.0,300.12371,-4826.9426,0.049669987962622786,0.0,0.0,0.0,0.0,0.007580342447557814,0.6991225674430254,0.3509121892848367,0.4172352547829136,-0.005209491842786815,-0.00014937529544719385,0.07686580410581421
4968,9.0,300.40526,-4712.362,0.049679964602090454,0.0,0.0,0.0,0.0,0.0075818650238003715,0.6963892847682713,0.3361267931631317,0.3999242922569546,0.006963467079990693,-0.013809204630862387,0.06775887534028034
4969,9.0,299.92612,-4749.4798,0.049689974276787785,0.0,0.0,0.0,0.0,0.0075833926416860875,0.6897830967662913,0.34025807726585766,0.4136820906572436,-0.004670664184733666,-0.01197510846585119,0.08145342464282714
4970,9.0,299.9707,-4957.6649,0.049699983951485116,0.0,0.0,0.0,0.0,0.0075849202595718035,0.7262140481492463,0.3518064230280907,0.4289858452651066,0.003514873505716007,0.0024446281889160177,0.06454218218856744
4971,9.0,300.99887,-4905.8359,0.049709960590952784,0.0,0.0,0.0,0.0,0.007586442835814361,0.7281597112562683,0.32605646518926773,0.4370354586970416,-0.0015172990629457586,-0.00015769042093533286,0.05732192105623315
4972,9.0,300.49296,-4856.2877,0.049719970265650115,0.0,0.0,0.0,0.0,0.007587970453700077,0.7005784254517073,0.3492634185896157,0.4263483552548066,-0.002158422019294668,0.002034229575737828,0.06981398870985422
4973,9.0,300.43474,-4913.8396,0.04972997994034767,0.0,0.0,0.0,0.0,0.007589498071585821,0.7143194849603443,0.34574517106239167,0.4336198736699496,-0.0016172379468089584,0.0019724424965649186,0.07072378192164384
4974,9.0,300.2144,-4994.5005,0.049739989615045,0.0,0.0,0.0,0.0,0.007591025689471509,0.7206053035457063,0.35928755249142064,0.4383105832853866,0.0027535767570318675,0.00977842531218044,0.06247499290430173
4975,9.0,299.9066,-4874.5674,0.04974996625451267,0.0,0.0,0.0,0.0,0.007592548265714066,0.6947022537492743,0.35952934436278366,0.42751517353996255,-0.008676938657697173,0.0042082325444702156,0.07652265885344842
4976,9.0,299.98528999999996,-4733.0379,0.04975997592921,0.0,0.0,0.0,0.0,0.007594075883599782,0.7031704002675153,0.32888343296826766,0.4066715044078526,-0.012410645915335387,-0.0011606267190949389,0.05817770195819214
4977,9.0,300.01275,-4837.6631,0.04976998560390755,0.0,0.0,0.0,0.0,0.007595603501485526,0.7114357954407463,0.3427403474933387,0.41635264301830666,-0.017782352816981584,0.0014930407409766487,0.06684190021178193
4978,9.0,299.57275,-4784.8618,0.049779962243375,0.0,0.0,0.0,0.0,0.007597126077728056,0.6940666520940453,0.34487235742625166,0.4155395199455576,-0.0037744528812594966,0.008342687106759112,0.07497647973085243
4979,9.0,299.6623,-4773.4004,0.04978997191807255,0.0,0.0,0.0,0.0,0.0075986536956137996,0.6892942643880473,0.3351944409511157,0.4265058143203466,-0.006991052712638183,0.0032797845877395363,0.08061154249248982
4980,9.0,299.51465,-4933.1868,0.04979998159276988,0.0,0.0,0.0,0.0,0.0076001813134995155,0.7125705848902413,0.35562256608471465,0.43137244441814554,-0.004671342353025595,-0.009771980838894422,0.07286468819043483
4981,9.0,300.38011,-4924.3295,0.04980999126746721,0.0,0.0,0.0,0.0,0.007601708931385204,0.7136691506486613,0.35208689065577065,0.43111717632045254,0.0019335193045734982,-0.01043824111167419,0.08148508769520202
4982,9.0,300.56412,-4806.4631,0.04981996790693488,0.0,0.0,0.0,0.0,0.007603231507627761,0.7162023569586693,0.3241430842304317,0.4206993339597916,0.013846854978078185,0.0064112196336381135,0.05779841508800944
4983,9.0,300.31451,-5011.3726,0.04982997758163221,0.0,0.0,0.0,0.0,0.007604759125513477,0.7215558739945204,0.3668811020533457,0.4348951502458096,0.015163224924993786,-0.0075585396431447835,0.06448550604422394
4984,9.0,300.32603,-5045.8151,0.049839987256329765,0.0,0.0,0.0,0.0,0.007606286743399221,0.7299997227753633,0.34955758535864767,0.45424447813043956,0.007546051943612342,-0.007928071245339712,0.05441671618401174
4985,9.0,300.54236000000003,-4886.748,0.04984996389579721,0.0,0.0,0.0,0.0,0.007607809319641751,0.7097286514072643,0.35002762194753667,0.42569308641513665,-0.011383524421466389,0.004671473366263525,0.07314238153934102
4986,9.0,300.32903,-4900.8781,0.049859973570494764,0.0,0.0,0.0,0.0,0.007609336937527494,0.6952071664066054,0.35690294944107864,0.43763445162615755,-0.0021126443930267677,0.02077404973098908,0.05867353893437745
4987,9.0,300.59159,-4887.1255,0.049869983245192095,0.0,0.0,0.0,0.0,0.00761086455541321,0.7105395757272963,0.3426108136005547,0.4324137210159116,-0.01268141572630829,0.008071719002741642,0.06082897318310224
4988,9.0,299.88172000000003,-4918.0077,0.04987999291988965,0.0,0.0,0.0,0.0,0.007612392173298926,0.7150753290049403,0.35614668996394167,0.4237295191788476,-0.017268799162797784,-0.008311796049635401,0.06595904628040103
4989,9.0,299.79453,-4940.7141,0.049889969559357095,0.0,0.0,0.0,0.0,0.007613914749541456,0.7135582402927153,0.34997452764229664,0.43832094883390954,-0.014890473196825285,-0.012749464589774186,0.08051556541651762
4990,9.0,299.81514,-4897.7186,0.04989997923405465,0.0,0.0,0.0,0.0,0.0076154423674272,0.7043769075590883,0.34839320900623266,0.43601403166873454,-0.007616943682883811,-0.002252024341007498,0.07090356491338702
4991,9.0,299.60916000000003,-4736.4392,0.04990998890875198,0.0,0.0,0.0,0.0,0.007616969985312916,0.6809999510569623,0.35047719088440565,0.40828209583930564,0.0015874899371230585,-0.004354857838616006,0.0970983456256106
4992,9.0,299.59531,-4921.7404,0.049919965548219425,0.0,0.0,0.0,0.0,0.007618492561555473,0.6991844567591333,0.35656335867006367,0.4403383601805126,0.02330763195678418,-0.01056846502777629,0.07704755482925163
4993,9.0,299.92544,-5117.4174,0.04992997522291698,0.0,0.0,0.0,0.0,0.007620020179441189,0.7459644305559573,0.36800695463695865,0.4415957326271056,0.006656568519477163,-0.0016380532449382684,0.07651536041297813
4994,9.0,300.18682,-4889.0923,0.04993998489761431,0.0,0.0,0.0,0.0,0.007621547797326905,0.7282444797596342,0.3367851524156067,0.4211323565225276,0.024991576615976577,0.004856415118240855,0.06151955885500773
4995,9.0,299.97156,-4746.7877,0.049949961537081755,0.0,0.0,0.0,0.0,0.007623070373569463,0.6911520077838923,0.3378799387511537,0.4138729869760836,-0.0008918687871230961,-0.0009625166066979931,0.05479518029511325
4996,9.0,300.23447999999996,-4972.0903,0.049959971211779086,0.0,0.0,0.0,0.0,0.007624597991455151,0.7076708417791743,0.36463570943424267,0.4390847468917906,0.001040676145756739,-0.0016694971313165384,0.06240868480450765
4997,9.0,300.76597000000004,-5032.6209,0.04996998088647664,0.0,0.0,0.0,0.0,0.007626125609340895,0.7288574352751283,0.34172272015290667,0.45921092349558956,-0.025952994920361176,0.00041026869425036757,0.060766830554469235
4998,9.0,300.85803,-4878.4423,0.04997999056117419,0.0,0.0,0.0,0.0,0.007627653227226611,0.7014925188969213,0.35201316657849463,0.4294189488878506,-0.01225195271117359,0.00974720626599936,0.07506331121142203
4999,9.0,299.99256,-4815.3104,0.04998996720064164,0.0,0.0,0.0,0.0,0.007629175803469168,0.7111284462879134,0.3444589513854517,0.4081467256259456,-0.027550068582230074,0.006656388059634354,0.07450540152086063
5000,9.0,300.07274,-4781.9348,0.04999997687533897,0.0,0.0,0.0,0.0,0.007630703421354884,0.7029417198524464,0.34049047630879364,0.4101565781268026,-2.5652201495675174e-05,-0.00991168938388258,0.08412483421347472
5001,9.0,300.35467,-4857.0635,0.05000998655003652,0.0,0.0,0.0,0.0,0.007632231039240628,0.6976847250211213,0.3645355192643547,0.4142057687064266,0.0007170788993551774,-0.007865539123368273,0.08071854879580052
5002,9.0,300.1709,-5029.295,0.05001996318950397,0.0,0.0,0.0,0.0,0.0076337536154831576,0.7243880600115353,0.3557084694281927,0.44868356906412055,0.01846508884036238,0.005466770937953285,0.07719022753608233
5003,9.0,300.28176,-4950.2394,0.05002997286420152,0.0,0.0,0.0,0.0,0.0076352812333688735,0.7117488390591413,0.35460236508902865,0.4383979761065116,0.020595745071141782,0.00029005288243349076,0.06787033386453044
5004,9.0,300.00539,-4760.7208,0.05003998253889885,0.0,0.0,0.0,0.0,0.0076368088512545895,0.6796450735532463,0.3516144121341407,0.4158807521817346,0.014846494089484885,0.001172687131060209,0.07837878510213384
5005,9.0,299.42697999999996,-4868.5485,0.050049992213596184,0.0,0.0,0.0,0.0,0.0076383364691403055,0.7270706396512853,0.3256097738826827,0.42723676280998557,0.008151583172973622,0.008291772910434272,0.056255155138951546
5006,9.0,299.98742999999996,-5067.9369,0.05005996885306385,0.0,0.0,0.0,0.0,0.007639859045382863,0.7517556817675093,0.35180291718274465,0.4369676621328506,0.007836017879054753,-0.01242075004533259,0.05420107325797945
5007,9.0,300.33997,-5020.9451,0.05006997852776118,0.0,0.0,0.0,0.0,0.007641386663268579,0.7183900449845774,0.35247603948917666,0.4553758427945966,-0.015894183547133785,-0.005195004899482065,0.053777926843968156
5008,9.0,299.5295,-4892.0617,0.050079988202458736,0.0,0.0,0.0,0.0,0.007642914281154323,0.6990219719730973,0.3532630713718507,0.4347795586744016,-0.017337287776807084,-0.008924145945544632,0.07106061057288623
5009,9.0,300.35877999999997,-4918.7637,0.05008996484192618,0.0,0.0,0.0,0.0,0.007644436857396852,0.6984070102224054,0.34962415589021767,0.44715016702528554,-0.017074013990073984,0.005354307269603984,0.06512756108933984
5010,9.0,300.10885,-4971.3161,0.050099974516623735,0.0,0.0,0.0,0.0,0.007645964475282568,0.7287230377818643,0.3441503154049917,0.4382826175826266,-0.007043092427174103,0.022016901290398978,0.08276325507359733
5011,9.0,299.9912,-4925.4303,0.050109984191321066,0.0,0.0,0.0,0.0,0.007647492093168284,0.7394789003758853,0.34837405857934267,0.40935484398517763,-0.012620891258084988,0.014377232636922385,0.07624768304131042
5012,9.0,300.31184,-4787.7971,0.05011996083078851,0.0,0.0,0.0,0.0,0.007649014669410814,0.7162101488519383,0.33932729559149666,0.3998333226629766,0.004976174491285185,-0.0012265229327233888,0.08470444366817771
5013,9.0,299.83457000000004,-4771.1009,0.050129970505486066,0.0,0.0,0.0,0.0,0.007650542287296558,0.6953324750464723,0.3369797166998087,0.4179833373317436,0.004704018452850475,-0.004256543903938176,0.06607238134383635
5014,9.0,299.85409,-4848.3987,0.05013998018018362,0.0,0.0,0.0,0.0,0.007652069905182302,0.6994660389619233,0.35824501946353066,0.4160810818590056,0.026506087619947175,-0.01159277475261779,0.08168773264895152
5015,9.0,299.68638,-5078.3544,0.05014998985488095,0.0,0.0,0.0,0.0,0.00765359752306799,0.7185977916525803,0.36626654560269367,0.45882858370285556,0.017787058350445983,-0.01206279816925549,0.06666467162354084
5016,9.0,300.24171,-5067.427,0.050159966494348396,0.0,0.0,0.0,0.0,0.007655120099310547,0.7305052433827542,0.37593230307662967,0.43393371775592365,-0.004119251757788496,-0.008543400907143022,0.08025539521484083
5017,9.0,300.01121,-4851.7202,0.05016997616904595,0.0,0.0,0.0,0.0,0.007656647717196263,0.7134712527716303,0.34391060069633367,0.4174199196136386,-0.0030155936070159167,-0.0025081676841368777,0.07475687601017922
5018,9.0,299.76912000000004,-4966.37,0.05017998584374328,0.0,0.0,0.0,0.0,0.007658175335081979,0.7119098141025284,0.36781559222307264,0.4299270634154976,-0.011049856097285888,0.0051517493540380755,0.07914538986279182
5019,9.0,298.65344,-5056.5461,0.050189962483210726,0.0,0.0,0.0,0.0,0.007659697911324509,0.7236695441006233,0.35670676395671663,0.4566874545190426,-0.007522341181997272,0.008683533902598071,0.07247594364381874
5020,9.0,299.72803999999996,-4873.035,0.05019997215790828,0.0,0.0,0.0,0.0,0.007661225529210253,0.6943420636037263,0.3534734119601097,0.43346549488471364,-0.018538102629318282,-0.011981538550985788,0.07155260226494202
5021,9.0,299.13732999999996,-4814.7195,0.05020998183260583,0.0,0.0,0.0,0.0,0.007662753147095996,0.6849301455448423,0.35073512382986166,0.4278892249468786,-0.0005130398755880935,-0.005378888413054955,0.07308223906640543
5022,9.0,299.6946,-4886.465999999999,0.05021999150730316,0.0,0.0,0.0,0.0,0.007664280764981685,0.7195436910184333,0.34122542713632764,0.4245945409217186,-0.006234224396895045,0.0005026655624517287,0.06176788011001515
5023,9.0,299.60994,-4965.1642,0.05022996814677061,0.0,0.0,0.0,0.0,0.007665803341224242,0.7392026073386173,0.35024878404686366,0.4198345553969446,0.011780747844919288,0.009455322045467632,0.06974069931687114
5024,9.0,300.32043,-4978.7199,0.05023997782146816,0.0,0.0,0.0,0.0,0.007667330959109958,0.7172152017586293,0.3571875713941687,0.4390037578112976,0.002959367852341867,0.01023511891712759,0.07553639363011162
5025,9.0,300.268,-4957.6222,0.050249987496165716,0.0,0.0,0.0,0.0,0.007668858576995702,0.7265908454639333,0.3479494054624327,0.43245311617979953,0.009505544090649161,0.01371722381328459,0.06038242474478134
5026,9.0,300.27178,-4840.3159,0.05025996413563294,0.0,0.0,0.0,0.0,0.007670381153238204,0.6932333856093084,0.3395282737488317,0.43857350142133456,0.016544709363085684,0.009916520256384351,0.06394514989839495
5027,9.0,299.93816,-4843.1461,0.05026997381033027,0.0,0.0,0.0,0.0,0.0076719087711239475,0.7019596879880273,0.34059233834134667,0.4296434648450086,0.004383173923260587,-0.0015231417669973886,0.06413366001324944
5028,9.0,300.19836000000004,-4969.9999,0.050279983485027824,0.0,0.0,0.0,0.0,0.007673436389009691,0.7258016654910473,0.34670617798723563,0.4382480150917116,0.0013707578685582685,-0.02198400409940228,0.06466874523205823
5029,9.0,300.27333,-4965.289000000001,0.05028999315972538,0.0,0.0,0.0,0.0,0.0076749640068953795,0.7385074671075122,0.34688508755739267,0.4239313282012646,-0.011886396393095989,-0.01060146455703309,0.06801292753785335
5030,9.0,300.66266,-4779.6075,0.0502999697991926,0.0,0.0,0.0,0.0,0.007676486583137937,0.6867747774843934,0.34448575185059666,0.4216207937332326,-0.00973504544094918,0.01001460377798944,0.08781405756257273
5031,9.0,300.0908,-4768.8689,0.050309979473890154,0.0,0.0,0.0,0.0,0.007678014201023653,0.6940260308975363,0.32601863043053364,0.4295723954829946,-0.007186850020886873,0.018175966030328183,0.06966719612811693
5032,9.0,299.9389,-4919.4233,0.05031998914858771,0.0,0.0,0.0,0.0,0.007679541818909397,0.6795928709080944,0.36496889646462566,0.4508200879599786,-0.00931385774070619,0.006700703768657974,0.08423327629217713
5033,9.0,299.64444,-4941.0213,0.05032996578805493,0.0,0.0,0.0,0.0,0.007681064395151899,0.6987594996671933,0.36526419807376964,0.4379234102896756,0.008602687690369173,0.0069413586720837635,0.07176317894047433
5034,9.0,299.72596,-4978.2135,0.050339975462752484,0.0,0.0,0.0,0.0,0.007682592013037642,0.7349902834928933,0.36392122625872864,0.4143410882572816,0.014148632268611287,0.011784668109556189,0.08016441447511172
5035,9.0,299.69608999999997,-5018.8879,0.05034998513745004,0.0,0.0,0.0,0.0,0.007684119630923386,0.7315092121118383,0.36804692735340366,0.42606047063639463,0.00970277372923921,0.0017525702646152184,0.07070546742608634
5036,9.0,299.36528,-4979.4153,0.05035996177691748,0.0,0.0,0.0,0.0,0.007685642207165916,0.7215314749321123,0.36317024581461266,0.4289161944532326,-0.01082755206509619,-0.005164804068326475,0.07158693219158013
5037,9.0,300.01881000000003,-4996.32,0.050369971451614814,0.0,0.0,0.0,0.0,0.007687169825051632,0.7056990266870713,0.3615681454189977,0.4514893599160306,0.002674196819022677,0.00020612624804557683,0.06459535856706553
5038,9.0,300.06212,-5043.8128,0.05037998112631259,0.0,0.0,0.0,0.0,0.0076886974429373756,0.7123235950458653,0.35696941864763865,0.4639001233683776,-0.0036692926183059865,0.0017297194483600184,0.052455569602211656
5039,9.0,300.16983999999997,-4946.683,0.05038999080100992,0.0,0.0,0.0,0.0,0.0076902250608230915,0.7077393881484393,0.3550021327834827,0.44092658226106557,-0.007477024077899822,-0.02046402255814178,0.06638327585876924
5040,9.0,300.20406,-4818.9425,0.05039996744047737,0.0,0.0,0.0,0.0,0.007691747637065621,0.7248609337007043,0.3315544514243767,0.4084228160131936,-0.007669100022506242,-0.02215957805023008,0.06027741758391794
5041,9.0,300.54687,-4968.8119,0.05040997711517492,0.0,0.0,0.0,0.0,0.007693275254951365,0.7218432519878824,0.35632769696180566,0.4322237872846666,-0.0013050332994967587,-0.006289314095556974,0.07214941670634303
5042,9.0,300.72859,-5010.0,0.05041998678987225,0.0,0.0,0.0,0.0,0.007694802872837081,0.7219369370921284,0.35893543794916966,0.4420425353912016,0.00035318320699896866,0.024229340989749777,0.05846518735606474
5043,9.0,301.13657,-4887.1262,0.0504299634293397,0.0,0.0,0.0,0.0,0.007696325449079611,0.6948473511635943,0.3573055035733077,0.43341146838938155,-0.01044671593551059,0.019314515650944282,0.07024630503727053
5044,9.0,300.25406,-4935.2154,0.05043997310403703,0.0,0.0,0.0,0.0,0.007697853066965327,0.6902510764574773,0.35765674672047265,0.4522744362260116,-0.013640207686433687,0.01262650263713879,0.06417517692284684
5045,9.0,300.004,-4969.8929,0.0504499827787348,0.0,0.0,0.0,0.0,0.00769938068485107,0.7154099244529624,0.3598602313154397,0.43545317747338264,-0.0003434381525722067,0.009349981221346303,0.06423310848406423
5046,9.0,299.98747000000003,-5035.648,0.050459992453432134,0.0,0.0,0.0,0.0,0.007700908302736786,0.7366452856762293,0.36250923184687567,0.4315567444788346,0.0025078707005325674,-0.007068065597088763,0.06270818532206603
5047,9.0,300.22325,-5049.0206,0.05046996909289958,0.0,0.0,0.0,0.0,0.007702430878979316,0.7247643000386673,0.36833661555699365,0.4416752626274546,0.01081042205890559,-0.02223741997591248,0.07206237750950292
5048,9.0,300.40245,-4961.6102,0.05047997876759713,0.0,0.0,0.0,0.0,0.00770395849686506,0.7121171048079864,0.36268995513471164,0.43339853931810557,-0.0037172566356396667,-0.01891249752801818,0.08058385442025721
5049,9.0,299.63947,-4874.0199,0.050489988442294687,0.0,0.0,0.0,0.0,0.007705486114750804,0.7000821760827313,0.3530554361613587,0.42844272294650454,0.016260239397510683,-0.005277475452946275,0.07465434016630973
5050,9.0,299.08988,-4920.0551,0.05049996508176191,0.0,0.0,0.0,0.0,0.0077070086909933055,0.6995925229719063,0.36212676033162866,0.4338546031881156,0.014423522967740885,0.010411446726029791,0.08383211132583522
5051,9.0,299.79913999999997,-4911.3059,0.050509974756459464,0.0,0.0,0.0,0.0,0.007708536308879049,0.7263482024624863,0.34426738632154563,0.4222987796401446,0.0052784893109963345,0.005490684754888395,0.07339465345648832
5052,9.0,299.80283,-4918.3775,0.05051998443115702,0.0,0.0,0.0,0.0,0.007710063926764765,0.7113532054250954,0.3620087876224856,0.4217019348012406,-0.001056828264275829,-0.0060755055575057145,0.08271402125123832
5053,9.0,299.56062000000003,-4845.0176,0.05052996107062446,0.0,0.0,0.0,0.0,0.007711586503007295,0.7042054960396713,0.35142302945525267,0.4171358346831016,0.0013230149423964087,0.0013325138581088787,0.07787034126820433
5054,9.0,299.80814,-4995.1064,0.050539970745321794,0.0,0.0,0.0,0.0,0.007713114120893011,0.7118934906434173,0.35874111684499166,0.4477529900397796,-0.007044918810479353,0.003269223076647197,0.06119142591612353
5055,9.0,300.25587,-5130.0389,0.05054998042001935,0.0,0.0,0.0,0.0,0.007714641738778755,0.7321035339579933,0.37260364477561664,0.4546965396625546,-0.0008430143154690352,-0.015845366170565884,0.06816046992466464
5056,9.0,301.19175,-5064.5683,0.0505599900947169,0.0,0.0,0.0,0.0,0.0077161693566644984,0.7256200809406264,0.36114759596499263,0.45273464428893057,-0.021413884745135878,-0.006511123763022883,0.052278451458231456
5057,9.0,301.38355,-5071.5457,0.050569966734184124,0.0,0.0,0.0,0.0,0.007717691932907,0.7442772779469483,0.36396473521802264,0.4333812431388986,0.0024866990423430876,0.0026171597549935577,0.06509499016487534
5058,9.0,300.7189,-5044.4975,0.05057997640888168,0.0,0.0,0.0,0.0,0.007719219550792744,0.7400153960388333,0.34890067505381567,0.44448519767227357,0.003247540537757297,0.003116362849336067,0.055125315416195045
5059,9.0,300.2363,-4904.976,0.05058998608357901,0.0,0.0,0.0,0.0,0.00772074716867846,0.7144769034958803,0.3441698103369157,0.4323435230489836,-0.0004495347700756276,-0.002271897215218798,0.07547029020683772
5060,9.0,299.98577,-4891.5663,0.050599962723046454,0.0,0.0,0.0,0.0,0.00772226974492099,0.7067556742888543,0.3409986009689417,0.43915972739919057,-0.00994537356623195,-0.015697352622458086,0.06552811405262135
5061,9.0,299.98843,-4903.5917,0.050609972397743785,0.0,0.0,0.0,0.0,0.007723797362806706,0.6967681997756673,0.3483870788431277,0.44541414536395363,-0.0006201015124867544,-0.0023082581003573376,0.07684663138742202
5062,9.0,299.78797000000003,-4855.9626,0.05061998207244134,0.0,0.0,0.0,0.0,0.0077253249806924496,0.7094234807421463,0.3433343147019587,0.4233335917022725,-0.010317157724724189,0.008123454438272533,0.06829569423001024
5063,9.0,299.75487000000004,-4944.4216,0.05062999174713889,0.0,0.0,0.0,0.0,0.007726852598578193,0.7274880581624813,0.35374771902718166,0.42174492700298355,-0.0015618075934634085,-0.0025446543136128275,0.08563551411881722
5064,9.0,299.99789,-5030.2318,0.05063996838660634,0.0,0.0,0.0,0.0,0.007728375174820723,0.7243848986712234,0.36723764449853363,0.4374423090096946,-0.01050339714610459,0.005040466223380285,0.07345924105761263
5065,9.0,300.08272999999997,-4893.4205,0.05064997806130367,0.0,0.0,0.0,0.0,0.007729902792706439,0.7030927447798513,0.35336958422236264,0.43101530415539857,-0.0046807556491046155,-0.0002452530323795898,0.08471735450095191
5066,9.0,299.85105,-4863.7665,0.05065998773600122,0.0,0.0,0.0,0.0,0.007731430410592155,0.6951543760763954,0.35081732881047467,0.43249184259862156,0.008450053924455391,0.002804022629160487,0.06460067610359034
5067,9.0,299.6727,-4921.2124,0.05066996437546867,0.0,0.0,0.0,0.0,0.007732952986834685,0.7020122452707144,0.35489068540498364,0.4390227461181716,0.0059976090176429245,-0.007170162197039913,0.07140740251236194
5068,9.0,299.84362999999996,-4961.2614,0.050679974050166,0.0,0.0,0.0,0.0,0.007734480604720401,0.7282065132783874,0.3507709016908927,0.42912216793356056,0.011587064075054188,0.0016816026329112585,0.06053470204930995
5069,9.0,299.73438,-4927.8366,0.05068998372486355,0.0,0.0,0.0,0.0,0.007736008222606144,0.7428425664678533,0.34998507557583763,0.4051116362764056,0.0037456259159144964,0.015775274594898386,0.08031239863896662
5070,9.0,300.03968,-4922.065,0.050699960364331,0.0,0.0,0.0,0.0,0.007737530798848674,0.7222211740101804,0.3532632537568687,0.42070041813739856,0.008921832188941282,0.022004851720209776,0.08453435038714081
5071,9.0,300.49081,-4917.4978,0.05070997003902855,0.0,0.0,0.0,0.0,0.007739058416734418,0.7199914665026254,0.3461787509126827,0.4286263441296266,0.009532619045246252,-0.005321665518957495,0.08864819442914561
5072,9.0,299.56406,-4962.5048,0.05071997971372588,0.0,0.0,0.0,0.0,0.007740586034620134,0.7097665469610043,0.35319941900056867,0.44551155922856756,-0.004747138020131046,-0.001157588995295139,0.08718619815135782
5073,9.0,300.54447000000005,-4923.2477,0.050729989388423435,0.0,0.0,0.0,0.0,0.00774211365250585,0.7023979085237764,0.35060888299990267,0.4435375757812506,0.004828385074099505,-0.0012749324761260389,0.06945540051271434
5074,9.0,300.25011,-4923.6066,0.05073996602789088,0.0,0.0,0.0,0.0,0.0077436362287483795,0.7260338618839632,0.3355249226037317,0.43509468958800257,-0.002086158035412768,0.010257588751345189,0.05781531002017685
5075,9.0,300.08274,-4958.814,0.050749975702588435,0.0,0.0,0.0,0.0,0.007745163846634123,0.7297129122020573,0.3490902744125277,0.4285524376673326,-0.008618170557197212,0.014380629051257586,0.05100512944181436
5076,9.0,300.0357,-5019.5997,0.050759985377285766,0.0,0.0,0.0,0.0,0.007746691464519839,0.7336274317108903,0.35422063324635467,0.4379848943057436,-0.012114144618072989,-0.0018034501117616686,0.05897593430747154
5077,9.0,299.7927,-5129.6698,0.050769962016753434,0.0,0.0,0.0,0.0,0.007748214040762397,0.7339468689374162,0.36440255045373166,0.4609421220864455,-0.008581364044664691,-0.011077406367504889,0.06721422909352794
5078,9.0,299.56287000000003,-4991.6308,0.050779971691450765,0.0,0.0,0.0,0.0,0.007749741658648113,0.7036134945362453,0.36337406107222764,0.45034355643794854,0.001890543517482118,-0.007253298354494813,0.05940558072087435
5079,9.0,300.2732,-4896.0507,0.050789981366148096,0.0,0.0,0.0,0.0,0.007751269276533829,0.6982946407863153,0.35290471520898364,0.4370777821537186,0.0061922098801735345,-0.00879834263697881,0.07896785324652032
5080,9.0,299.77961,-4967.012,0.05079999104084565,0.0,0.0,0.0,0.0,0.007752796894419545,0.7243245697602693,0.3529232678183146,0.4325997841317746,0.0041501880058666665,0.005099313256063035,0.07377764780878693
5081,9.0,299.59144,-4885.7482,0.050809967680313095,0.0,0.0,0.0,0.0,0.007754319470662074,0.7261938034122484,0.34669900417652766,0.4122526480786686,-0.002948808570399747,-0.00023005176801934178,0.09637200438417631
5082,9.0,299.29642,-4873.9896,0.05081997735501065,0.0,0.0,0.0,0.0,0.007755847088547818,0.7084175767053713,0.3478547071080867,0.4252988510662286,0.0048632073389611955,0.013606522186859187,0.08712973580278542
5083,9.0,300.01547,-4902.3458,0.05082998702970798,0.0,0.0,0.0,0.0,0.007757374706433534,0.7224381817840974,0.35062276452627267,0.41712975518250167,-0.014215911062001185,0.002353938353290628,0.09293055412178161
5084,9.0,300.62797,-4970.3939,0.05083996366917565,0.0,0.0,0.0,0.0,0.007758897282676092,0.7104319888316784,0.3468353572424847,0.4536082786576516,0.004342233451645076,-0.003543770283992897,0.058407243635846144
5085,9.0,300.6039,-5031.7349,0.05084997334387298,0.0,0.0,0.0,0.0,0.0077604249005618076,0.7129599363736673,0.3672075104405596,0.4493543203653186,-0.0033718575097514266,-0.00912204341727559,0.05990996851465354
5086,9.0,300.03157999999996,-5002.3742,0.05085998301857053,0.0,0.0,0.0,0.0,0.007761952518447551,0.7217692948630833,0.34765447875582567,0.45117306376481453,0.012525624470432886,0.01003658552963387,0.04823232190715955
5087,9.0,300.89588,-4919.4499,0.05086999269326786,0.0,0.0,0.0,0.0,0.0077634801363332395,0.7162806609263973,0.34845410533724264,0.4306551748048566,0.00017172243521018486,-0.005301426962785105,0.06172903412768135
5088,9.0,299.87446,-4948.8697,0.05087996933273531,0.0,0.0,0.0,0.0,0.007765002712575797,0.7186508960903213,0.36075874097411564,0.42492318859165357,-0.007874494835702133,-0.0049562326147420755,0.07623894477244803
5089,9.0,300.26785,-4983.4645,0.05088997900743286,0.0,0.0,0.0,0.0,0.007766530330461513,0.7286245397396433,0.3560214826490847,0.43020273837020456,0.004674593467296456,-0.011928620551263189,0.08064720686950963
5090,9.0,300.0863,-5037.9638,0.05089998868213019,0.0,0.0,0.0,0.0,0.007768057948347229,0.7259250388232233,0.36686315739407466,0.43862699089411356,0.001125545163532659,-0.00878685764974533,0.08103846123662342
5091,9.0,299.95797000000005,-4916.6334,0.05090996532159764,0.0,0.0,0.0,0.0,0.007769580524589786,0.7105121267820873,0.34627293250947766,0.4377487158399345,0.01040518990666229,-0.0018679442912267483,0.08340583092926462
5092,9.0,300.11185,-4884.5562,0.05091997499629519,0.0,0.0,0.0,0.0,0.007771108142475502,0.7217709363282453,0.3309170867139737,0.4320950842569646,-0.009618945420641001,-0.010651729867993889,0.06890329978497622
5093,9.0,300.3193,-4973.9526,0.05092998467099252,0.0,0.0,0.0,0.0,0.007772635760361246,0.7199136184974424,0.34844923160426167,0.44359455083437355,-0.003039259684301577,0.008363002264639062,0.06808362503708064
5094,9.0,299.46738,-5081.8751,0.05093996131045997,0.0,0.0,0.0,0.0,0.007774158336603776,0.7365187206062382,0.35699276392994267,0.45125165144257057,-0.013967849199019385,0.008486981621699873,0.051703478635986046
5095,9.0,299.90382,-4973.3998,0.05094997098515752,0.0,0.0,0.0,0.0,0.007775685954489492,0.7245282634278724,0.3436364354842757,0.44362465449484456,-0.002199668897740418,0.01050498288251109,0.06444415632089302
5096,9.0,300.38645,-5007.9287,0.05095998065985485,0.0,0.0,0.0,0.0,0.007777213572375208,0.7163185970101413,0.36082410573806667,0.4451425842046526,-0.0016920097246883583,0.0038557076359287163,0.05345769624261385
5097,9.0,299.63787,-5089.7304,0.050969990334552406,0.0,0.0,0.0,0.0,0.0077787411902609516,0.7221005871157794,0.36636633047254163,0.4586840334435896,-0.007721697936522253,-0.002065743477698008,0.06897991365153743
5098,9.0,300.18882,-5016.2954,0.05097996697401985,0.0,0.0,0.0,0.0,0.007780263766503481,0.7140226837410524,0.36957994435720065,0.44122593687060957,0.011947798335905887,-0.006514241634905594,0.060580068296037244
5099,9.0,300.04861,-4991.8898,0.050989976648717406,0.0,0.0,0.0,0.0,0.007781791384389225,0.7211950049714053,0.3677785883294207,0.4284362584108666,0.003793334695547986,-0.0032305310070035874,0.09150586368617561
5100,9.0,299.92396,-4916.8485,0.05099998632341474,0.0,0.0,0.0,0.0,0.007783319002274913,0.7302466822222362,0.34328787744987566,0.4210646106208416,0.007314397436849823,0.0015438716481432683,0.07322731722897353
5101,9.0,299.97574,-4833.569,0.051009962962882405,0.0,0.0,0.0,0.0,0.0077848415785174985,0.7168007115402223,0.3542862107928267,0.3981973391840176,-0.008930736934795111,0.007556084335502462,0.090207043230992
5102,9.0,299.75883,-4867.0471,0.051019972637579736,0.0,0.0,0.0,0.0,0.007786369196403187,0.7055632714386734,0.34663784440049167,0.42725967239474655,0.008619655171243731,0.02124208211118028,0.0889577474009461
5103,9.0,299.34869,-4997.2093,0.05102998231227707,0.0,0.0,0.0,0.0,0.007787896814288903,0.7279607595991333,0.34402124760725367,0.44704483967739056,-0.006532165218574515,0.004619899037498536,0.06353222109839203
5104,9.0,299.93672999999995,-4973.1076,0.05103999198697462,0.0,0.0,0.0,0.0,0.007789424432174646,0.7090969811624234,0.3558528980974467,0.4467506425108556,0.005493396414806015,-0.004815482955276166,0.07059080297851984
5105,9.0,299.76878999999997,-5059.7997,0.051049968626442066,0.0,0.0,0.0,0.0,0.007790947008417176,0.7324406929287683,0.35562141097960065,0.44999065156061957,-0.0003297672302354917,-0.007952274041203342,0.05955588421420815
5106,9.0,300.50641,-5149.4048,0.05105997830113962,0.0,0.0,0.0,0.0,0.00779247462630292,0.7414707879524692,0.37412761345602064,0.44969208728615356,0.0014669178361735185,-0.010765489483221091,0.07448869809296213
5107,9.0,300.58506,-5078.9274,0.05106998797583695,0.0,0.0,0.0,0.0,0.007794002244188608,0.7327671418459862,0.3729101731958686,0.43818978360846456,0.008982792861332632,0.003873944921828596,0.06367524844275774
5108,9.0,300.03812,-5053.2016,0.05107996461530462,0.0,0.0,0.0,0.0,0.007795524820431193,0.7212675030160604,0.36852520166560565,0.4462543931418796,-0.004969658482542105,0.003203622833372957,0.08105818313656982
5109,9.0,300.13992,-4985.2804,0.05108997429000195,0.0,0.0,0.0,0.0,0.0077970524383168816,0.7294402364676463,0.35924565459978564,0.4267148579484775,-0.009318876571101512,0.002351118072962288,0.053037987786191856
5110,9.0,300.26796,-4891.0277,0.0510999839646995,0.0,0.0,0.0,0.0,0.007798580056202625,0.7086351417668433,0.3463676815263287,0.4317474786776586,-0.012717092262329288,0.006965323050198863,0.06989998121934103
5111,9.0,299.98384,-4858.3252,0.05110996060416695,0.0,0.0,0.0,0.0,0.007800102632445155,0.7144573579014513,0.3381080010836617,0.4242441793021406,-0.012001211814927387,0.006160744107593104,0.06762141580521414
5112,9.0,300.04874,-4985.5583,0.0511199702788645,0.0,0.0,0.0,0.0,0.007801630250330899,0.7321618768987513,0.3504539469271117,0.4328694201158856,0.00027464089244994574,-0.00926202158811536,0.06499784278503765
5113,9.0,299.88366,-5055.6926,0.05112997995356183,0.0,0.0,0.0,0.0,0.007803157868216615,0.7187013863428043,0.36194345325603766,0.4561594701569346,-0.01003524976202704,0.002363962639179948,0.06937578134635654
5114,9.0,299.9361,-4969.0766,0.051139989628259164,0.0,0.0,0.0,0.0,0.007804685486102303,0.7348053653496432,0.34953537491645564,0.4261344581586966,0.008748953179404452,-0.004267513349520776,0.06691313676006244
5115,9.0,300.16277,-4955.572,0.05114996626772683,0.0,0.0,0.0,0.0,0.007806208062344888,0.7169961877495143,0.35119792581303666,0.43817602367210656,0.0036830280340115666,-0.0038345901866195862,0.07248993257469934
5116,9.0,300.12122,-5061.7031,0.05115997594242416,0.0,0.0,0.0,0.0,0.007807735680230576,0.7310126182378284,0.36264792552056363,0.4449708079151996,0.01857992554044588,-0.0009689089381338671,0.05630308592168194
5117,9.0,299.60505,-5094.4649,0.051169985617121716,0.0,0.0,0.0,0.0,0.00780926329811632,0.7238711099430163,0.37433598833908566,0.4503830326618446,0.002585767544370388,-0.009161290747974001,0.07992181605666912
5118,9.0,299.98084,-4985.8611,0.05117996225658916,0.0,0.0,0.0,0.0,0.00781078587435885,0.7305545683976223,0.3525508984065647,0.43247179037914263,0.005915534442317795,-0.008683109249481161,0.06761739218906702
5119,9.0,300.47561,-4896.6456,0.051189971931286715,0.0,0.0,0.0,0.0,0.007812313492244594,0.7026503597861914,0.36170926076042464,0.42409836248024957,-0.014702020837226484,-0.0023583183294978976,0.08360253013142732
5120,9.0,300.29082999999997,-4800.7319,0.051199981605984046,0.0,0.0,0.0,0.0,0.00781384111013031,0.7091421011893764,0.34088584649781367,0.4092746553722636,-0.0038566749857991862,-0.005599055095483714,0.06973578201413584
5121,9.0,300.34257,-4893.7457,0.0512099912806816,0.0,0.0,0.0,0.0,0.007815368728016026,0.7078179656936943,0.34982328993237066,0.42993526060880655,-0.01007496511294664,0.017973430507589483,0.07566101832616114
5122,9.0,300.54266,-5071.2332,0.05121996792014882,0.0,0.0,0.0,0.0,0.007816891304258583,0.7278505889157604,0.3574501044950787,0.45622757069615555,0.001195332865495169,0.011343048119721689,0.07857219225472163
5123,9.0,300.64436,-4992.3899,0.051229977594846376,0.0,0.0,0.0,0.0,0.007818418922144299,0.7400281528575923,0.34822104768174167,0.4293126589523606,-0.0018741366678878882,0.007033798998581914,0.08332763031304682
5124,9.0,300.60591,-4918.071,0.05123998726954393,0.0,0.0,0.0,0.0,0.007819946540030015,0.7054046370030174,0.3542459239688507,0.43532019853025855,-0.003188073294688337,-0.0021437643433480677,0.08662114910059182
5125,9.0,300.0943,-5016.3009999999995,0.051249963909011154,0.0,0.0,0.0,0.0,0.007821469116272545,0.7268669155861793,0.3623529278864496,0.4356103933588986,0.008909025720927381,-0.004245755120848406,0.07792986565857893
5126,9.0,300.12917000000004,-5150.0522,0.05125997358370871,0.0,0.0,0.0,0.0,0.007822996734158288,0.7490756859155142,0.36336544844637764,0.4530461376346726,-0.0008934350893926782,-0.006657916648735214,0.06660568526896934
5127,9.0,300.47776,-4986.167,0.05126998325840604,0.0,0.0,0.0,0.0,0.007824524352044004,0.7260119756818033,0.35845975755722365,0.43119853017098164,0.0008802205247685022,-0.0033789163165730764,0.050756474827524045
5128,9.0,299.93519,-4913.7338,0.051279959897873484,0.0,0.0,0.0,0.0,0.007826046928286534,0.6948246138313504,0.36732101471676165,0.43150675071890054,-0.0012310177101669888,-0.004450965826501126,0.060576882637722845
5129,9.0,300.17917,-4946.5253,0.05128996957257104,0.0,0.0,0.0,0.0,0.007827574546172278,0.7157859111675693,0.3549648249148007,0.43286945051338854,-0.003880097376435796,0.005777918866736194,0.05842084043893804
5130,9.0,299.94647000000003,-5064.9475,0.05129997924726859,0.0,0.0,0.0,0.0,0.007829102164057994,0.7187346412110863,0.36629634528813465,0.4545865918942036,-0.0009725385519795822,-0.0024147732813445677,0.07559678536257183
5131,9.0,299.8683,-5051.4306,0.05130998892196592,0.0,0.0,0.0,0.0,0.00783062978194371,0.7282633363439953,0.35881618854490066,0.4484292534215216,0.0005538474594529886,0.0005323662736229604,0.07681097815615333
5132,9.0,299.83696000000003,-4937.7975,0.05131996556143359,0.0,0.0,0.0,0.0,0.007832152358186267,0.7227446088793393,0.3397796003036357,0.4384429441459496,-0.0025057540210736678,0.005521059257111125,0.06620996145566443
5133,9.0,300.07903,-4935.7503,0.05132997523613092,0.0,0.0,0.0,0.0,0.007833679976071983,0.7088296655210413,0.35049862112402064,0.4410165690024466,0.005170421121580835,0.011538698608030888,0.07727639432458633
5134,9.0,300.26759,-5017.923,0.05133998491082847,0.0,0.0,0.0,0.0,0.007835207593957727,0.7154344045753783,0.3557947983367127,0.45409408141809654,0.0036151428104368166,0.013784101359634886,0.06746037895357103
5135,9.0,301.01167000000004,-5104.7928,0.0513499615502957,0.0,0.0,0.0,0.0,0.007836730170200229,0.7442145071032532,0.36895827489084665,0.43855677266218357,0.011443895888924591,0.011487868916764388,0.07611735577369813
5136,9.0,300.1533,-5011.8246,0.05135997122499347,0.0,0.0,0.0,0.0,0.007838257788086,0.7222734577153404,0.3659698355759107,0.43522622971598457,0.0007676351549496912,0.0017006806124191083,0.06537658047366614
5137,9.0,300.58737,-4861.1423,0.051369980899690804,0.0,0.0,0.0,0.0,0.007839785405971689,0.7059787445096773,0.35585868375551766,0.4158284482115726,0.0021675292125184777,0.0003235375761031727,0.07115489856094173
5138,9.0,299.78217,-4973.7018,0.051379990574388135,0.0,0.0,0.0,0.0,0.007841313023857405,0.7217358880072863,0.3655631777807766,0.4245820982104906,-0.004804727406789676,-0.005175985283179974,0.06764954768099053
5139,9.0,299.74425,-5122.6209,0.0513899672138558,0.0,0.0,0.0,0.0,0.007842835600099962,0.7301082317285723,0.37067695984296767,0.4563636603170866,-0.004734670990900646,0.0016964262792242384,0.06578360303883614
5140,9.0,299.96358,-4988.1359,0.051399976888553134,0.0,0.0,0.0,0.0,0.007844363217985678,0.7131349854609433,0.3636436666588357,0.43949009759429564,-0.001948369396714088,0.0005851089202832544,0.08365201017356062
5141,9.0,300.10213,-4842.6899,0.05140998656325069,0.0,0.0,0.0,0.0,0.007845890835871422,0.7058947156788843,0.3474407640447337,0.4187213279095776,0.008599346396839413,0.0009391713243939932,0.07762898306788413
5142,9.0,299.99694,-4888.4464,0.05141996320271791,0.0,0.0,0.0,0.0,0.007847413412113924,0.7092834495783263,0.3505171939983537,0.42616500764921156,0.0039014522302433566,0.0061723999287934435,0.08790626129517251
5143,9.0,300.27778,-4990.6804,0.051429972877415686,0.0,0.0,0.0,0.0,0.007848941029999695,0.7357126700191874,0.3408627950580387,0.4404667592331846,0.006600218742990873,0.0026072395298895076,0.06892264880888584
5144,9.0,299.68194,-5083.1666,0.05143998255211302,0.0,0.0,0.0,0.0,0.007850468647885384,0.7376500954028963,0.3589776398158347,0.4485279845112655,-0.005848009530478605,-0.003526064853070507,0.07492330436560442
5145,9.0,300.04648,-5010.4651,0.05144999222681057,0.0,0.0,0.0,0.0,0.007851996265771127,0.7215893821753273,0.3560966759390057,0.4453702108396176,-0.013124237430761387,-0.01062473485882969,0.05365800464163274
5146,9.0,300.19039,-4962.456,0.051459968866278016,0.0,0.0,0.0,0.0,0.007853518842013657,0.7197048889768423,0.36435269854881164,0.42440511381552354,-0.0067453825251924246,0.0024169780122371576,0.07365627969855884
5147,9.0,299.51286,-5073.5513,0.05146997854097557,0.0,0.0,0.0,0.0,0.0078550464598994,0.7316531442885433,0.36692717453539264,0.4436526100651036,-0.003088287310265227,0.01037425538110929,0.05693505710180264
5148,9.0,298.96572000000003,-5189.5494,0.0514799882156729,0.0,0.0,0.0,0.0,0.007856574077785117,0.7445178032556863,0.38633534185332963,0.4466402995749656,0.006785298803606854,0.011273803621137791,0.06504447052813944
5149,9.0,299.43497,-5101.8343,0.05148996485514035,0.0,0.0,0.0,0.0,0.007858096654027646,0.7373804796837874,0.3721207196454556,0.4413290350682845,0.015708182239526882,-0.008002350279695482,0.05315850983258645
5150,9.0,299.97797,-4893.8946,0.0514999745298379,0.0,0.0,0.0,0.0,0.00785962427191339,0.6961419200213583,0.35358071514569966,0.4378991226847786,0.01831704793450188,-0.002205286862919868,0.07440124954308164
5151,9.0,301.06931000000003,-4861.0266,0.05150998420453523,0.0,0.0,0.0,0.0,0.007861151889799078,0.6985185994559183,0.34268080891746266,0.43643130832491656,0.001178418478925849,-0.0017218592620342785,0.07356575086837433
5152,9.0,300.28968,-5004.9922,0.05151996084400268,0.0,0.0,0.0,0.0,0.007862674466041608,0.7357825538785844,0.3409748199890947,0.44463527014458454,-0.0030497088259578272,-0.01324447678037809,0.08268089810546932
5153,9.0,300.00387,-5095.3754,0.05152997051870001,0.0,0.0,0.0,0.0,0.007864202083927352,0.7451110105267313,0.36841073480180864,0.4353451447477206,-0.0045010980977237955,-0.010717484733233388,0.08929818322254451
5154,9.0,299.77316,-5010.6851,0.05153998019339756,0.0,0.0,0.0,0.0,0.007865729701813096,0.7297726331629513,0.3591936343396517,0.43415687595794755,-0.004150120219434976,0.006691417027516443,0.08375596963382062
5155,9.0,300.5209,-4964.347,0.051549989868095114,0.0,0.0,0.0,0.0,0.007867257319698812,0.7189745990997682,0.3513342484814907,0.43872868067414955,0.0005093338930823416,0.007297631187445123,0.06296035186120294
5156,9.0,300.19442999999995,-5080.5379,0.05155996650756234,0.0,0.0,0.0,0.0,0.007868779895941341,0.7111989887598754,0.37312890349495564,0.46002875818130357,0.0023232530872622278,0.007208545732028073,0.06391760570767653
5157,9.0,300.00722,-5227.025,0.05156997618225989,0.0,0.0,0.0,0.0,0.007870307513827085,0.7427399141002222,0.38509183066810465,0.4610533364174215,0.007682524269106112,0.0014060773352440287,0.05099699608326165
5158,9.0,299.98097,-5169.4112,0.051579985856957444,0.0,0.0,0.0,0.0,0.007871835131712801,0.7375330548838454,0.37547813398430663,0.45836072560168156,0.004852110122540985,-0.011921996935359488,0.06835992719359953
5159,9.0,300.44676,-4951.0954,0.05158996249642467,0.0,0.0,0.0,0.0,0.007873357707955303,0.7180968914656453,0.35961322120606165,0.42729924994365265,0.005015322624798805,0.0064229705990228435,0.07114982217794073
5160,9.0,300.55029,-4861.5025,0.05159997217112222,0.0,0.0,0.0,0.0,0.007874885325841047,0.7180690574853983,0.3477989986175887,0.41190731217958665,-0.01849657052096938,0.001298241484076459,0.07220063751214814
5161,9.0,300.31761,-4992.7402,0.051609981845819775,0.0,0.0,0.0,0.0,0.00787641294372679,0.7398623344787273,0.34264957041687966,0.4351564674465996,-0.008561867288890513,0.004154126306355346,0.06715755193593434
5162,9.0,300.03842000000003,-5017.8926,0.051619991520517106,0.0,0.0,0.0,0.0,0.007877940561612506,0.7056183314491072,0.35767738662500964,0.4620183254151586,-0.013190814041831988,0.00883174240002511,0.07485350764571602
5163,9.0,300.4025,-4817.3088,0.05162996815998455,0.0,0.0,0.0,0.0,0.007879463137855036,0.6992873624392894,0.3375461640357127,0.42750806052426055,0.009546576464048741,0.011761608563780387,0.08136642293624073
5164,9.0,300.07705,-4883.2572,0.051639977834682105,0.0,0.0,0.0,0.0,0.00788099075574078,0.7149071497533424,0.3404975487944917,0.4289835350548786,-0.0003504950342186667,-0.0006138806533653035,0.08181253162401822
5165,9.0,300.1425,-5106.7359,0.05164998750937966,0.0,0.0,0.0,0.0,0.007882518373626496,0.7541191078907613,0.36383009454473464,0.4343709959690795,0.0011092890855533089,-0.012060136361242788,0.08169598455776593
5166,9.0,300.58986,-5225.2354,0.05165996414884688,0.0,0.0,0.0,0.0,0.007884040949868998,0.7562313695792253,0.37693317126040765,0.45517654663242757,0.003437315391386617,-0.015049463283266385,0.07203553347460363
5167,9.0,300.26552999999996,-5203.3197,0.051669973823544435,0.0,0.0,0.0,0.0,0.007885568567754742,0.7341699866094363,0.3861889880088857,0.46132027715626656,0.005146580056002904,0.0025279395373132073,0.05630568896118885
5168,9.0,300.35947999999996,-4985.1135,0.05167998349824199,0.0,0.0,0.0,0.0,0.007887096185640485,0.6823237825776143,0.37051687645966863,0.4625093565461196,-0.0019130171007250884,0.0006946070892998823,0.04779136863589086
5169,9.0,300.04592,-4886.1653,0.051689960137709434,0.0,0.0,0.0,0.0,0.007888618761883015,0.6969436541629833,0.3574886991913877,0.43083990043058756,0.003835956149079396,-0.0040068080504661666,0.06262506841636303
5170,9.0,299.47807,-5003.1849,0.051699969812406765,0.0,0.0,0.0,0.0,0.007890146379768731,0.7259286054635753,0.3544236075063867,0.44049105697058255,-0.0016447775779019084,0.0018967162370913185,0.06366370549761853
5171,9.0,299.78952999999996,-5018.186,0.05170997948710432,0.0,0.0,0.0,0.0,0.007891673997654475,0.7412453600702213,0.35544914833009966,0.4287087314952576,0.013336342087444487,0.0015497866982520385,0.0941117098958526
5172,9.0,300.43872999999996,-4905.0366,0.05171998916180187,0.0,0.0,0.0,0.0,0.00789320161554019,0.7301848537011344,0.34723882329980366,0.4135849807676596,0.00941555805854323,0.012780538943840989,0.08384440103629812
5173,9.0,300.28161,-4938.5316,0.05172996580126932,0.0,0.0,0.0,0.0,0.00789472419178272,0.7165164340921664,0.3446393099032517,0.44003454727052854,-0.004016135726911736,0.018027106418386882,0.0927224173524901
5174,9.0,300.60596,-5127.6804,0.05173997547596665,0.0,0.0,0.0,0.0,0.007896251809668436,0.7255385953675842,0.37127333858682565,0.46187486946600054,-0.019225773180686082,0.016034358592467986,0.06723273104035393
5175,9.0,300.74987000000004,-5194.9816,0.0517499851506642,0.0,0.0,0.0,0.0,0.00789777942755418,0.7357696856023143,0.3755212781735646,0.46785374419856957,-0.02043600213987638,0.01011209231913581,0.06445118625008685
5176,9.0,300.4858,-5141.1357,0.05175996179013165,0.0,0.0,0.0,0.0,0.00789930200379671,0.7359377635289023,0.37477281058969664,0.4520663146554716,-0.013205151530746988,-0.005040526106461195,0.060098888995798544
5177,9.0,300.66183,-5050.9254,0.05176997146482898,0.0,0.0,0.0,0.0,0.007900829621682426,0.7467396783399683,0.36377136656893866,0.42484417534885555,0.0006574849088312084,-0.012586415423432487,0.07255642001976113
5178,9.0,300.46961,-4973.4894,0.05177998113952653,0.0,0.0,0.0,0.0,0.007902357239568142,0.7385369729504242,0.34621376883613864,0.4270658477831176,0.005984958691469433,-0.014596802920342287,0.06231292456405684
5179,9.0,299.61919,-4958.2389,0.051789990814224085,0.0,0.0,0.0,0.0,0.007903884857453886,0.7056813454728263,0.36564693303404266,0.4358525500002976,0.015465817881857385,-0.012851532312097487,0.07538612256078103
5180,9.0,300.0729,-4929.2602,0.05179996745369153,0.0,0.0,0.0,0.0,0.007905407433696415,0.6867369325931583,0.35503111173634266,0.4566039627108025,0.012215547648330688,0.002435637012828658,0.06141597835028514
5181,9.0,299.87825,-4830.0325,0.05180997712838886,0.0,0.0,0.0,0.0,0.007906935051582131,0.7008792290088943,0.3382684796344997,0.42906157557758057,0.008679725095472173,0.006384299402331294,0.07144394537721843
5182,9.0,300.3162,-4842.9767,0.051819986803086415,0.0,0.0,0.0,0.0,0.007908462669467875,0.7051486900277574,0.34619805332708764,0.4207972645819566,0.0006046240969442524,-0.0017749653209754384,0.08600701010898101
5183,9.0,300.33941,-5107.0798,0.05182996344255386,0.0,0.0,0.0,0.0,0.007909985245710405,0.7549768139679103,0.36716400148126566,0.43028390983571563,-0.006578762158873274,-0.014080448642882087,0.08929752055697911
5184,9.0,300.04661,-5215.6582,0.051839973117251414,0.0,0.0,0.0,0.0,0.007911512863596148,0.7594119109806203,0.37391008892455263,0.4521078477770705,0.003921717333568366,-0.012757814783848288,0.08694262701281923
5185,9.0,300.09702000000004,-5028.5716,0.051849982791948745,0.0,0.0,0.0,0.0,0.007913040481481837,0.7120427423831474,0.37219515299780165,0.4443223075861976,-0.006824314100032363,-0.003981969338839777,0.09613391695517891
5186,9.0,300.00827000000004,-4961.4272,0.0518599924666463,0.0,0.0,0.0,0.0,0.00791456809936758,0.7170360692734503,0.3462701359392017,0.44484376661766156,-0.008861344096396571,0.005346278174486574,0.06272045882052735
5187,9.0,299.22061,-5008.1162,0.05186996910611352,0.0,0.0,0.0,0.0,0.00791609067561011,0.7238287864863393,0.35835431875181767,0.4401591567678266,-0.0018640123742136984,0.005658462556796775,0.04742418706465286
5188,9.0,299.41278,-5026.2528,0.051879978780811076,0.0,0.0,0.0,0.0,0.007917618293495826,0.7181149273174253,0.36877877763563166,0.4409616609795276,0.002196337939361678,0.010668433295892388,0.05523167931894235
5189,9.0,299.61638999999997,-5135.6438,0.05188998845550863,0.0,0.0,0.0,0.0,0.00791914591138157,0.7396451747172953,0.37374537498829663,0.44771690820371857,0.011072674489537889,0.006812305667797224,0.06019491166802524
5190,9.0,300.1934,-5192.1990000000005,0.05189996509497585,0.0,0.0,0.0,0.0,0.0079206684876241,0.7507847449916852,0.37338915678314066,0.4541249348836416,0.0037351642099570067,-0.004772065897766235,0.06579936110439134
5191,9.0,300.39127,-5092.0461,0.051909974769673406,0.0,0.0,0.0,0.0,0.007922196105509843,0.7147923282520103,0.37178155443948263,0.4612809833173886,-0.0003401010538978607,-0.004797826666983626,0.08470822410430082
5192,9.0,299.74064,-5087.287,0.05191998444437074,0.0,0.0,0.0,0.0,0.007923723723395532,0.7285019162125413,0.36837049864033766,0.4495358035907296,0.002049057680351248,-0.008670224963859581,0.07323974575470013
5193,9.0,299.83842000000004,-5096.1658,0.051929961083838405,0.0,0.0,0.0,0.0,0.007925246299638117,0.7302998271899813,0.3635280750874276,0.4552792597950646,0.0023823555602951875,-0.0003108157347376247,0.08330172860074052
5194,9.0,300.19969,-5006.157,0.051939970758535736,0.0,0.0,0.0,0.0,0.007926773917523805,0.7293987641410533,0.35069988299138366,0.4416480771272716,-0.008582034005630812,0.005286485779460525,0.07192856466154664
5195,9.0,299.93365,-4935.0662,0.05194998043323329,0.0,0.0,0.0,0.0,0.007928301535409549,0.7375223245652863,0.3471635692148767,0.41545101254932265,-0.0015570489656937683,0.00042695297172197754,0.07811325379417793
5196,9.0,300.08247,-5020.3757,0.05195999010793062,0.0,0.0,0.0,0.0,0.007929829153295265,0.7259000520757573,0.35411653193108067,0.44605228014443254,-0.00024280688451817377,0.004306965660714416,0.07300679550370973
5197,9.0,299.60014,-5105.892,0.05196996674739829,0.0,0.0,0.0,0.0,0.007931351729537822,0.7182627909045183,0.3766162874241336,0.4571846056806076,-0.0013096190667993388,0.01238376135043209,0.07379569176656774
5198,9.0,300.44325,-5088.1612,0.05197997642209562,0.0,0.0,0.0,0.0,0.007932879347423538,0.7280342202313833,0.37883997622609467,0.43979974682485556,-0.0040354675255696365,0.0015620713424644385,0.06418106694567814
5199,9.0,300.375,-5084.608,0.05198998609679295,0.0,0.0,0.0,0.0,0.007934406965309226,0.7366266925368944,0.36395567676212864,0.4450115203042176,-0.00909570539947623,-0.0020345237222418582,0.06604952748783084
5200,9.0,300.12362,-5023.2546,0.05199996273626062,0.0,0.0,0.0,0.0,0.007935929541551812,0.7215096900549622,0.37132080935401063,0.43411345819116254,-0.0005413512080897046,-0.0009411086281876901,0.05954735264836615
5201,9.0,299.63816,-4954.0634,0.05200997241095795,0.0,0.0,0.0,0.0,0.0079374571594375,0.7182333458566122,0.3700181446279477,0.4176600700198396,0.0004354663091946786,0.005948393737760755,0.06999229134320134
5202,9.0,299.80987000000005,-5035.2098,0.0520199820856555,0.0,0.0,0.0,0.0,0.007938984777323244,0.7121394571051923,0.3602122344001797,0.45822634837341963,0.0040420888109981064,0.0028084074689682373,0.08436245858717642
5203,9.0,299.42352999999997,-4995.0049,0.052029991760353056,0.0,0.0,0.0,0.0,0.007940512395208987,0.7165351893515173,0.35552111948470266,0.44630044535892455,0.0032297159486231472,-0.003128595716468357,0.08083902727244083
5204,9.0,300.23701,-4852.3654,0.0520399683998205,0.0,0.0,0.0,0.0,0.007942034971451517,0.7194351010052163,0.3269808633879987,0.4285819637752466,0.018200298218229584,-0.0067362717855932635,0.08777097923457122
5205,9.0,299.83977999999996,-5004.2174,0.05204997807451783,0.0,0.0,0.0,0.0,0.007943562589337233,0.7332538160015173,0.35236040738776464,0.43554290076973756,0.009600093091930422,0.0004900239704941005,0.07896173422916643
5206,9.0,300.56172999999995,-5224.729,0.052059987749215386,0.0,0.0,0.0,0.0,0.007945090207222949,0.7570182596068853,0.37963655292471066,0.45153233185277164,-0.0005481417468148784,-0.003073911925796487,0.06462870361460643
5207,9.0,300.20659,-5148.2887,0.05206996438868283,0.0,0.0,0.0,0.0,0.007946612783465506,0.7523501353361772,0.36528524327834666,0.44731582328413455,-0.02078658363472608,-0.01844118525725328,0.06054027796461024
5208,9.0,299.63051,-4985.5322,0.052079974063380385,0.0,0.0,0.0,0.0,0.007948140401351222,0.6965439371310344,0.37028702067448366,0.44864635238794753,-0.018937623090747882,-0.0008873958958816561,0.07358534003255764
5209,9.0,299.25067,-5019.7304,0.052089983738077716,0.0,0.0,0.0,0.0,0.007949668019236938,0.7093807722504313,0.3787851087331796,0.43770680781579857,-0.014114092599202488,0.02053536752418298,0.06140075224103244
5210,9.0,299.55293,-5104.7806,0.052099960377545385,0.0,0.0,0.0,0.0,0.007951190595479496,0.7361242522098074,0.3671708206544387,0.4484307530316696,0.0004849283661387036,0.015566737591817384,0.07120076028696794
5211,9.0,299.53994,-5121.1613,0.052109970052242716,0.0,0.0,0.0,0.0,0.007952718213365212,0.7426342017172893,0.37483342321067864,0.43923753487436956,0.0006346527262453474,0.0091746778082952,0.07341379476412743
5212,9.0,299.96297999999996,-4952.5527,0.05211997972694005,0.0,0.0,0.0,0.0,0.007954245831250928,0.7394896610919474,0.3384398202264096,0.42752286410822155,0.007243121878440473,0.005050737640968995,0.06999660170912674
5213,9.0,300.29805,-4814.6109,0.0521299894016376,0.0,0.0,0.0,0.0,0.007955773449136644,0.7165209430551113,0.3360009171032087,0.4109996326075056,0.013678946264256886,0.015309306205160883,0.07529287112757783
5214,9.0,300.48255,-4926.4658,0.052139966041105046,0.0,0.0,0.0,0.0,0.007957296025379201,0.6904656119011503,0.36479450598991464,0.4422624815904086,0.004639926229700065,-0.00998709535499957,0.0966721776998011
5215,9.0,300.32878999999997,-5079.5104,0.0521499757158026,0.0,0.0,0.0,0.0,0.007958823643264917,0.7285498834722753,0.3611059412533817,0.45438849136715254,-0.003085432579433487,-0.022999518813375776,0.07688509537446812
5216,9.0,300.5003,-5039.3335,0.05215998539049993,0.0,0.0,0.0,0.0,0.007960351261150633,0.7312625667724963,0.3648298177558997,0.43573916731410756,-0.016952904258621383,-0.02161032050227258,0.08150603360126922
5217,9.0,300.20769,-4923.3625,0.052169962029967376,0.0,0.0,0.0,0.0,0.00796187383739319,0.7136670836184573,0.35417088266644464,0.4287413074859726,0.0041164530596872854,0.0017913419757166885,0.07209265342249094
5218,9.0,300.23854,-5018.3373,0.05217997170466493,0.0,0.0,0.0,0.0,0.007963401455278907,0.7382418334612963,0.36727729297494666,0.41993009474887355,0.0036241023731210563,-0.004325196765788686,0.07221421506348814
5219,9.0,300.32063999999997,-5268.1618,0.05218998137936226,0.0,0.0,0.0,0.0,0.00796492907316465,0.7483121006401543,0.37224635252535465,0.48083119816684455,-0.0033245599070085173,0.001059637094878039,0.059395197947099646
5220,9.0,299.9347,-5211.6292,0.05219999105405981,0.0,0.0,0.0,0.0,0.007966456691050339,0.7280648609144074,0.3801411920045146,0.47599907936745156,0.0005659933086666905,0.007023352795350953,0.06479052978807745
5221,9.0,299.89749,-5014.009,0.05220996769352726,0.0,0.0,0.0,0.0,0.007967979267292924,0.7115834158478154,0.36189199028345864,0.45065813006399463,-0.0014891392214665987,0.02110292132919618,0.059604252720981736
5222,9.0,299.82885,-4984.3092,0.05221997736822459,0.0,0.0,0.0,0.0,0.007969506885178612,0.7159908511327953,0.3555885816763607,0.44352610579011864,0.006354622320152394,0.005763894370777084,0.07445196575033693
5223,9.0,299.81057999999996,-5109.2287,0.052229987042922144,0.0,0.0,0.0,0.0,0.007971034503064328,0.7443571017898263,0.37001900589053266,0.43870184981150157,-0.0016374098311247682,-0.01032318960256949,0.07882234343940962
5224,9.0,299.46571,-5163.5075,0.05223996368238959,0.0,0.0,0.0,0.0,0.007972557079306886,0.7728679331036262,0.3546840533120907,0.44202537093450756,-0.01154649962055079,0.0036602297041115465,0.0876976949078386
5225,9.0,299.44945,-5114.0894,0.05224997335708692,0.0,0.0,0.0,0.0,0.007974084697192602,0.7398736423498433,0.35917110978992867,0.45551072664790854,-0.01012492148395195,0.008023375421920503,0.08201556262605583
5226,9.0,300.14552000000003,-4994.5816,0.052259983031784474,0.0,0.0,0.0,0.0,0.007975612315078345,0.7063690484481974,0.36157326233200265,0.4502857809172465,-0.013852413668126787,0.01112917838136439,0.07944394907100732
5227,9.0,300.84997000000004,-5026.0706,0.05226995967125192,0.0,0.0,0.0,0.0,0.007977134891320875,0.7254213015360084,0.3558576097104117,0.44652102990569453,-0.00996714050885518,-0.007525300682889352,0.06820191995975544
5228,9.0,300.33426000000003,-5238.2315,0.05227996934594947,0.0,0.0,0.0,0.0,0.007978662509206619,0.7513537862478453,0.38247956045279363,0.4584582306588046,0.01094373841431289,-0.006498345666011784,0.07017951463042883
5229,9.0,300.32239,-5154.1397,0.052289979020646804,0.0,0.0,0.0,0.0,0.007980190127092307,0.7601399413099712,0.3539219879118806,0.45266784070983757,0.007909075541739983,0.005262916568884425,0.05879958724681744
5230,9.0,299.77779,-4960.3261,0.05229998869534436,0.0,0.0,0.0,0.0,0.00798171774497805,0.7296228747981713,0.35821976927103866,0.41997263098807164,0.007065362752447014,0.0009069251769840461,0.06597190847717044
5231,9.0,300.12539,-4908.0231,0.0523099653348118,0.0,0.0,0.0,0.0,0.00798324032122058,0.6926130637655873,0.36723034909781366,0.4320730663322916,-0.0002827555768033027,0.005073517023092146,0.08084034956382131
5232,9.0,300.22292999999996,-5044.7373,0.052319975009509356,0.0,0.0,0.0,0.0,0.007984767939106324,0.7056130625485874,0.3739890413723446,0.45387206818868553,0.0015014291345795184,0.016653042010777285,0.07839898322962723
5233,9.0,300.00777,-5120.6389,0.05232998468420669,0.0,0.0,0.0,0.0,0.00798629555699204,0.7321769236627362,0.3718786744615677,0.45249077525486253,-0.0055468849756599254,0.01185100964660359,0.07909814910337952
5234,9.0,299.38752999999997,-5092.2684,0.052339961323674355,0.0,0.0,0.0,0.0,0.007987818133234598,0.7237406033301363,0.37816947823742164,0.44601235809049256,-0.012197752950074489,-0.006519673364716663,0.08648216665062532
5235,9.0,299.85573999999997,-4958.8699,0.05234997099837169,0.0,0.0,0.0,0.0,0.007989345751120314,0.7428401245351123,0.35017405685198866,0.41435843509899356,-0.013863199715441287,-0.013815461450229886,0.08259694425518371
5236,9.0,299.14312,-4998.5188,0.05235998067306902,0.0,0.0,0.0,0.0,0.007990873369006002,0.7343377605609943,0.3595877987610527,0.4254993428635156,0.015404042049760586,-0.005620883846363045,0.08788081047916073
5237,9.0,299.78132,-5171.0483,0.05236999034776657,0.0,0.0,0.0,0.0,0.007992400986891746,0.7426700606383283,0.36929810884188563,0.45990140277623454,0.00936266153972275,0.0058084125271706845,0.07611723924993663
5238,9.0,300.27258,-5262.5408,0.05237996698723402,0.0,0.0,0.0,0.0,0.007993923563134275,0.7491825736685632,0.37378740460244464,0.47671101928521453,0.005211581975093095,0.001062244795335399,0.06581275019121273
5239,9.0,300.58297999999996,-5125.6697,0.05238997666193157,0.0,0.0,0.0,0.0,0.007995451181020019,0.7316760234758013,0.37879780475693264,0.44760176246235456,-0.011638925254922489,-0.00987654277766388,0.059017196891293845
5240,9.0,300.20865,-4902.9534,0.0523999863366289,0.0,0.0,0.0,0.0,0.007996978798905735,0.7039954492939413,0.3457634602266967,0.44061647706796053,0.0015196411905519084,0.009135628162691301,0.05883616152242704
5241,9.0,299.84033999999997,-5069.7655,0.05240996297609657,0.0,0.0,0.0,0.0,0.007998501375148293,0.7470932519623633,0.35793708262563967,0.43605180563246254,0.0052622734590459545,0.004680510341255406,0.04909945222348865
5242,9.0,299.80262999999997,-5252.7752,0.0524199726507939,0.0,0.0,0.0,0.0,0.008000028993034008,0.7569674957768753,0.37727777761941766,0.4624672256069616,-0.0012361502272235287,-0.006425224269895264,0.06306128778316454
5243,9.0,300.10581,-5102.8935,0.05242998232549145,0.0,0.0,0.0,0.0,0.008001556610919724,0.7238747779083784,0.3753325502099386,0.4519448664984856,-0.006776395273653144,-0.007739174575572062,0.09602640706656851
5244,9.0,299.52226,-5044.085999999999,0.052439992000188784,0.0,0.0,0.0,0.0,0.00800308422880544,0.7128754921103333,0.38025095738784764,0.44014975380689864,0.002030266045321658,0.0026714335846749673,0.08626449722439301
5245,9.0,299.54467,-5076.0894,0.05244996863965645,0.0,0.0,0.0,0.0,0.008004606805047998,0.7247433966891043,0.3675664745534867,0.4506945564050896,0.008394422744940021,0.00985565006722693,0.09201940315485801
5246,9.0,299.9666,-5148.5625,0.05245997831435378,0.0,0.0,0.0,0.0,0.008006134422933714,0.7515582195880213,0.36371718808609166,0.4497590327202606,-0.007270578220375203,-0.004429658392798246,0.07723077983158452
5247,9.0,300.16019,-5151.7791,0.052469987989051114,0.0,0.0,0.0,0.0,0.00800766204081943,0.7589140606764863,0.3655635121533096,0.44153464377857654,-0.0020191704501016077,-0.012740491246888587,0.07108897853593593
5248,9.0,299.90812,-4961.3529,0.05247996462851856,0.0,0.0,0.0,0.0,0.008009184617061987,0.7208841398407253,0.34945909744892767,0.4377841795934346,-0.005178880645340725,-0.005432708205366556,0.06466317539625853
5249,9.0,299.96169,-4794.6825,0.052489974303216114,0.0,0.0,0.0,0.0,0.008010712234947703,0.6889266471192663,0.3478175613594207,0.42071954829928665,0.005471728770692585,-0.007140480149935523,0.08361423620983262
5250,9.0,299.60557,-5032.4428,0.05249998397791367,0.0,0.0,0.0,0.0,0.00801223985283342,0.7239360896719294,0.36146193654351566,0.4443389451528396,0.008840174667357311,-0.0033471202244600468,0.07467891654748522
5251,9.0,299.89772,-5224.895,0.05250996061738089,0.0,0.0,0.0,0.0,0.008013762429075949,0.7329286944419303,0.38473459921284864,0.4705743308495705,0.000949011826980175,-0.003278182031381377,0.07782564376654302
5252,9.0,300.65947,-5041.6916,0.052519970292078444,0.0,0.0,0.0,0.0,0.008015290046961693,0.7205545903782014,0.3741801606062066,0.43781360437633854,0.008898366329875382,0.01061523563914219,0.07403192089488174
5253,9.0,300.20743999999996,-4937.5601,0.052529979966775775,0.0,0.0,0.0,0.0,0.008016817664847409,0.7192937526162663,0.3544751616714747,0.4271260449715586,-0.002432746818243418,0.01035538359799679,0.06673600544383093
5254,9.0,300.56811,-5059.5932,0.05253998964147333,0.0,0.0,0.0,0.0,0.008018345282733153,0.7299244484254342,0.35458747031255866,0.45347807601980156,0.002083297833030488,0.0012844429428896485,0.07033254174003144
5255,9.0,300.48028999999997,-5241.1798,0.052549966280940774,0.0,0.0,0.0,0.0,0.008019867858975682,0.7445613831424873,0.3788653480085986,0.46976107605430856,-0.002015372079451738,-0.014442687580132287,0.08015369732880402
5256,9.0,300.08912999999995,-5194.0035,0.05255997595563833,0.0,0.0,0.0,0.0,0.008021395476861426,0.7535151905661592,0.36484227059962865,0.4604898883018136,-0.004868232248857116,-0.003867529934120486,0.06821802759659513
5257,9.0,299.95282000000003,-4996.5383,0.05256998563033566,0.0,0.0,0.0,0.0,0.008022923094747114,0.7229438949090073,0.3522408945384697,0.4436380800586696,-0.0055330576581702744,-0.001941851462795818,0.06416695642478554
5258,9.0,299.67064,-4855.6704,0.052579962269803104,0.0,0.0,0.0,0.0,0.008024445670989644,0.7370706987307143,0.32343366730541767,0.4154981996064796,-0.015022698281874884,-0.0096474349737027,0.051960914075642954
5259,9.0,299.53615,-5021.0029,0.05258997194450066,0.0,0.0,0.0,0.0,0.008025973288875388,0.7352715718531543,0.3551290423585077,0.4358588828134226,0.005126256893447165,-0.0014716367445392385,0.06416979048531524
5260,9.0,299.76288,-5236.6858,0.05259998161919799,0.0,0.0,0.0,0.0,0.008027500906761104,0.7302942543144313,0.38739335734274766,0.4741341114983935,0.006465481000343294,0.008964955302597201,0.07194305616447683
5261,9.0,299.47591,-5160.3126,0.05260999129389554,0.0,0.0,0.0,0.0,0.008029028524646847,0.7127458264950364,0.38760922014405164,0.4682511408877896,0.007514870792985002,0.01181374940067629,0.08498026149114882
5262,9.0,299.9559,-4967.5749,0.05261996793336299,0.0,0.0,0.0,0.0,0.008030551100889377,0.6976223797424683,0.37742630995157667,0.43497002942819957,0.0012273589653808987,0.00026071700209326473,0.08855000238845483
5263,9.0,299.93179,-5057.5361,0.05262997760806054,0.0,0.0,0.0,0.0,0.00803207871877512,0.7295695879754123,0.37622966158347665,0.43156543816469256,-0.007188807620080073,-0.005087902134761845,0.09198311056277622
5264,9.0,300.03298,-5210.3734,0.05263998728275787,0.0,0.0,0.0,0.0,0.008033606336660809,0.7627791741104433,0.3789272474572076,0.4421169788760486,0.0017457359940157282,0.006753893420732383,0.07707966675142082
5265,9.0,300.69259,-5025.2398,0.05264996392222532,0.0,0.0,0.0,0.0,0.008035128912903339,0.7294283307789713,0.36531255036854166,0.4328065378146796,0.001005676511465044,-0.008996668916152091,0.06583936421833934
5266,9.0,300.44572,-4904.3468,0.05265997359692287,0.0,0.0,0.0,0.0,0.008036656530789082,0.6917443233948493,0.3575075963057527,0.44154703582729954,-0.006421960084698114,-0.006075140483494683,0.06614328351958385
5267,9.0,300.07532000000003,-4998.2842,0.052669983271620424,0.0,0.0,0.0,0.0,0.008038184148674826,0.7231357335504404,0.3511572742190247,0.4450606021390616,0.0073824755832436134,-0.01862737604262888,0.07140089947322013
5268,9.0,300.32244,-5134.8448,0.05267995991108765,0.0,0.0,0.0,0.0,0.008039706724917328,0.7337977286551973,0.36587188468874365,0.4611949786489005,0.014281948624018588,0.002736125955859607,0.08458092442798731
5269,9.0,299.85684,-5288.5598,0.0526899695857852,0.0,0.0,0.0,0.0,0.008041234342803072,0.7615974205188133,0.39267164055867365,0.4533210526518046,0.017881955301811584,0.010279626941020189,0.08573394731303181
5270,9.0,299.76857,-5267.3234,0.052699979260482754,0.0,0.0,0.0,0.0,0.008042761960688816,0.7709587976627092,0.36838862568462666,0.4617873550548635,0.001251151800254069,0.009204484383836881,0.07376852653138673
5271,9.0,299.77785,-5122.2992,0.052709988935180085,0.0,0.0,0.0,0.0,0.008044289578574504,0.7349257394615233,0.37032221085045663,0.45180309254449363,-0.008133625240126313,-0.004378990416247707,0.06818347678143524
5272,9.0,299.64896,-5062.2324,0.05271996557464753,0.0,0.0,0.0,0.0,0.008045812154817034,0.7048922972224533,0.3714038857297096,0.4624960627048076,-0.01102523108010559,-0.00028684780011467375,0.058848381318633035
5273,9.0,299.867,-5121.7826,0.052729975249345085,0.0,0.0,0.0,0.0,0.008047339772702777,0.7222935200673203,0.36724337949409963,0.4673571199270566,0.01008834275004191,0.0026414738057181676,0.055000929847169144
5274,9.0,299.85496,-5096.8903,0.05273998492404264,0.0,0.0,0.0,0.0,0.008048867390588521,0.7254735649761662,0.3775589038596626,0.44629492314587954,-0.010440768157423591,-0.005740324653575934,0.06047322208624235
5275,9.0,300.28125,-4937.2662,0.05274996156350986,0.0,0.0,0.0,0.0,0.008050389966831023,0.7386776728593103,0.3435255656583337,0.4186024027453406,-0.013082005166593387,-0.003279070550394067,0.08077950693506662
5276,9.0,300.62523,-4979.5014,0.052759971238207415,0.0,0.0,0.0,0.0,0.008051917584716767,0.7627659207991353,0.3418736842853057,0.4090044722330986,-0.007460547314048693,-0.005053108038252935,0.06626222286932223
5277,9.0,300.46286000000003,-5095.764,0.05276998091290497,0.0,0.0,0.0,0.0,0.008053445202602483,0.7378038155755673,0.37160102366916564,0.43958017552818557,0.005057983189784075,0.001019787386995179,0.08082160545022142
5278,9.0,299.91389,-5175.7867,0.05277999058760252,0.0,0.0,0.0,0.0,0.008054972820488226,0.7315598340868343,0.37043701208678664,0.4713130813649795,0.007905595736921553,-0.005428877714688515,0.06895925753499883
5279,9.0,299.88793,-5249.7893,0.052789967227069745,0.0,0.0,0.0,0.0,0.008056495396730728,0.7308331716451183,0.3788730487093586,0.4860986396067006,0.0009288043573208532,-0.012746199897951987,0.08696381508566033
5280,9.0,300.0578,-5165.2707,0.0527999769017673,0.0,0.0,0.0,0.0,0.008058023014616472,0.7303238412173513,0.3807630539883876,0.45902643091738154,-0.004730492651463276,-0.0006073138605272114,0.08582611760837833
5281,9.0,300.17618999999996,-4982.5874,0.05280998657646485,0.0,0.0,0.0,0.0,0.008059550632502216,0.7328083000650483,0.36054092260011866,0.4212329317274536,-0.004497963000589386,-0.000904828357227106,0.08561092456539042
5282,9.0,299.78347,-5082.183,0.052819963215932075,0.0,0.0,0.0,0.0,0.008061073208744746,0.7418230342172333,0.3758257902261177,0.42720790544713766,0.0061749563587957445,-0.003128890369597437,0.08372827750858763
5283,9.0,300.07957999999996,-5158.3134,0.05282997289062963,0.0,0.0,0.0,0.0,0.008062600826630462,0.7318290546384043,0.38178110689386163,0.45438829884963355,-0.008031264485874092,-0.007478759268696073,0.07235456337458943
5284,9.0,300.01355,-4982.8708,0.05283998256532696,0.0,0.0,0.0,0.0,0.008064128444516178,0.7071579548435564,0.35696966182766265,0.4505406741124026,-0.011470166424267288,0.007086486483906763,0.06528408897803795
5285,9.0,300.11091,-4841.6648,0.052849959204794406,0.0,0.0,0.0,0.0,0.008065651020758735,0.6817149003275224,0.3520232686819917,0.4380070135554266,4.714905115899905e-05,0.012936718274504686,0.05703443363186036
5286,9.0,299.86087000000003,-5043.7173,0.05285996887949174,0.0,0.0,0.0,0.0,0.008067178638644423,0.7291612583176134,0.3563079892473607,0.44769485988154256,-0.008334619508137903,0.006225487039957734,0.07054752200049834
5287,9.0,299.89621,-5305.3202,0.05286997855418929,0.0,0.0,0.0,0.0,0.008068706256530167,0.7801712270419052,0.38109943275658564,0.4514142071561135,-0.0015742421986906085,-0.009961447259193302,0.06559701607267143
5288,9.0,300.68039,-5294.7062,0.05287998822888684,0.0,0.0,0.0,0.0,0.00807023387441591,0.7802021007724522,0.37142506265679964,0.45783132268943355,-0.016786753533723584,-0.012812606283005788,0.08622805669779661
5289,9.0,300.56183,-5205.3425,0.05288996486835429,0.0,0.0,0.0,0.0,0.00807175645065844,0.7556184545937352,0.35815869055501065,0.4685169873165265,3.9917992833599165e-05,0.003192261665301697,0.06617607735907033
5290,9.0,300.54989,-5039.5396,0.05289997454305162,0.0,0.0,0.0,0.0,0.008073284068544156,0.7177081276672773,0.36785631474459163,0.44632974855181656,0.0054595044148611355,-0.010045149722129089,0.07779156816568002
5291,9.0,299.93079,-5073.1757,0.052909984217749395,0.0,0.0,0.0,0.0,0.0080748116864299,0.7155219696490204,0.36383670093538667,0.4627600548858615,0.014885820352366085,0.0001961286410313898,0.06522344393305274
5292,9.0,299.63381,-5184.2072,0.05291996085721662,0.0,0.0,0.0,0.0,0.00807633426267243,0.7442352179352973,0.37346853479597464,0.45816579654744355,0.007519108914178273,0.0006434208859856974,0.06338237052785294
5293,9.0,299.57243,-5006.5526,0.05292997053191417,0.0,0.0,0.0,0.0,0.008077861880558146,0.7412223694254523,0.3507451550058517,0.4298994624827736,0.004102641852874226,0.007117458702363483,0.05764606786922395
5294,9.0,299.71655,-4884.8073,0.0529399802066115,0.0,0.0,0.0,0.0,0.008079389498443862,0.7138716081511424,0.35419317416864465,0.41679465310942965,-0.004310117983100526,0.007931835976086262,0.06816746844310534
5295,9.0,299.8887,-5074.3243,0.052949989881309056,0.0,0.0,0.0,0.0,0.008080917116329606,0.7223068139086323,0.37532429222162367,0.4448367650594706,-0.0016421049281131388,-0.005371747330325184,0.06674854137406815
5296,9.0,300.1718,-5260.3244,0.0529599665207765,0.0,0.0,0.0,0.0,0.008082439692572135,0.7497025736198834,0.37750868718470665,0.4717960064951406,-0.0004089549445682106,-0.0016013795694938583,0.08273489926954883
5297,9.0,299.52245,-5211.289000000001,0.052969976195473834,0.0,0.0,0.0,0.0,0.008083967310457851,0.7360920511216293,0.37809110334218665,0.4699185857823535,-0.010902296485222888,-0.0008287324945145293,0.08041698935403893
5298,9.0,300.14652,-5026.4938,0.05297998587017161,0.0,0.0,0.0,0.0,0.008085494928343595,0.7211933027112374,0.37342704220437967,0.4333082486016946,0.003126804290291557,-0.0031394334395379573,0.09718683680984401
5299,9.0,300.50125,-5065.4208,0.05298996250963883,0.0,0.0,0.0,0.0,0.008087017504586125,0.7303191701343903,0.3705914314020266,0.43885082797370456,-0.0031191381413599667,-0.014086235314203187,0.08297641047063412
5300,9.0,300.28893999999997,-5080.9239,0.052999972184336386,0.0,0.0,0.0,0.0,0.00808854512247184,0.7358548695382212,0.3703473293204356,0.43827178593905763,-0.0038840783347536866,-0.009642879907878151,0.1018803419823069
5301,9.0,299.91534,-5045.1140000000005,0.05300998185903394,0.0,0.0,0.0,0.0,0.008090072740357585,0.7223282542807483,0.3641515886689637,0.44710885681870854,-0.0025283073470995076,0.002748226593853847,0.07821269719874223
5302,9.0,299.56987999999996,-4950.2433,0.05301999153373149,0.0,0.0,0.0,0.0,0.008091600358243328,0.7182156241123633,0.3478616174737687,0.43867312417116655,-0.008623738873121763,3.5846139902238566e-05,0.08599856872239792
5303,9.0,299.87678,-4942.2709,0.053029968173198716,0.0,0.0,0.0,0.0,0.00809312293448583,0.7017611720284354,0.3676977816339457,0.43286800156574556,-7.623004033056923e-08,-0.004113099303181296,0.06910738963336834
5304,9.0,299.75265,-5088.7506,0.05303997784789627,0.0,0.0,0.0,0.0,0.008094650552371574,0.7403454217289044,0.3709267462576197,0.4355809483109926,-0.0016832708478758986,-0.008077582275770302,0.07002698907962573
5305,9.0,299.83693999999997,-5402.1378,0.05304998752259382,0.0,0.0,0.0,0.0,0.00809617817025729,0.7786666317034133,0.38133053483939366,0.4821178434088266,0.00992362395018543,0.0019127526424489883,0.05797792247572544
5306,9.0,299.48273,-5422.1267,0.05305996416206127,0.0,0.0,0.0,0.0,0.008097700746499847,0.7860664579787192,0.3839786133132386,0.4781460550043415,-0.012331307419255288,-0.007510214098175424,0.058172073353886654
5307,9.0,299.94263,-5164.2394,0.0530699738367586,0.0,0.0,0.0,0.0,0.008099228364385536,0.7466672816203233,0.3558269487623857,0.4673055860269706,-0.0013905925432407987,0.005046552411430946,0.06728575441808694
5308,9.0,299.91135,-5222.6345,0.05307998351145615,0.0,0.0,0.0,0.0,0.00810075598227128,0.7576817661698683,0.3716364468926617,0.4582322657540036,0.003449654244479367,0.005247947622507105,0.062282526047806736
5309,9.0,300.30601,-5269.8264,0.0530899601509236,0.0,0.0,0.0,0.0,0.008102278558513809,0.7613415850010643,0.36781489308050364,0.4727391700857235,0.01231557975120309,0.01118341461946709,0.07264785773528534
5310,9.0,300.19495,-5146.7841,0.05309996982562093,0.0,0.0,0.0,0.0,0.008103806176399525,0.7519987807315013,0.36650376771610566,0.44599130275341464,-0.0009295583268527641,0.004727094717252926,0.07027556871340863
5311,9.0,300.95457999999996,-4886.2052,0.05310997950031848,0.0,0.0,0.0,0.0,0.008105333794285269,0.7030825920138494,0.3548759831460327,0.4273257869637716,0.0007644990952276864,-0.006191964876299354,0.09549853821497191
5312,9.0,300.53096,-4846.7178,0.053119989175016036,0.0,0.0,0.0,0.0,0.008106861412170985,0.6861120004614824,0.36045839337947366,0.4267107846830756,0.002062387897341838,-0.009013916662004311,0.08356958531767592
5313,9.0,300.65407999999996,-4947.9193,0.05312996581448326,0.0,0.0,0.0,0.0,0.008108383988413542,0.7058590290103623,0.3659782050217366,0.4322067038879806,0.00976565957682056,0.00018097971103880683,0.08945468881974042
5314,9.0,300.33922,-5182.4284,0.05313997548918081,0.0,0.0,0.0,0.0,0.00810991160629923,0.7328645962406043,0.3776732288684456,0.46479100325380057,0.01829965549653538,-0.0097353597511302,0.07837378775264062
5315,9.0,300.10306,-5258.8508,0.053149985163878366,0.0,0.0,0.0,0.0,0.008111439224184974,0.7528329490088274,0.3941768134497226,0.45154956723697254,-0.002779270246442617,-0.01091204597768509,0.08541568545662183
5316,9.0,299.85962,-5184.3319,0.05315996180334559,0.0,0.0,0.0,0.0,0.008112961800427504,0.7436659537641154,0.38075957854054465,0.4514819023952945,-0.0014555562628022186,-0.017917431214312784,0.07929781408858493
5317,9.0,299.50363,-5227.9118,0.05316997147804314,0.0,0.0,0.0,0.0,0.008114489418313248,0.7468515918135132,0.3866136512582966,0.4556894031705425,-0.01048168218321149,-0.012672931783220988,0.07925979593158282
5318,9.0,299.33482000000004,-5330.5477,0.053179981152740474,0.0,0.0,0.0,0.0,0.008116017036198964,0.7600883364823783,0.38473200529259266,0.47553307551396057,-0.005051474881741755,0.006262003762961654,0.05843886210521664
5319,9.0,299.89367000000004,-5165.9049,0.05318999082743803,0.0,0.0,0.0,0.0,0.00811754465408468,0.7494076165157733,0.36497645531037165,0.45592202512850055,-0.014486571441963286,0.0037917627393428462,0.06597452874192904
5320,9.0,300.39439,-4890.5831,0.05319996746690547,0.0,0.0,0.0,0.0,0.008119067230327237,0.7158488542637813,0.34332919778895366,0.4274370823547556,-0.013667419531119288,0.013437259770904288,0.06086602469950895
5321,9.0,300.06464,-4971.4525,0.053209977141602804,0.0,0.0,0.0,0.0,0.008120594848212925,0.7392205418653873,0.34311112610243166,0.42886575486325457,-0.016864074648854584,0.004998354231999155,0.08234139244746272
5322,9.0,300.35986,-5180.2527,0.05321998681630036,0.0,0.0,0.0,0.0,0.008122122466098669,0.7585943600049342,0.36407074144348467,0.45200237857416153,0.01057793486321089,-0.005547508124471425,0.07612179583563633
5323,9.0,300.44407,-5235.5789,0.053229963455767804,0.0,0.0,0.0,0.0,0.008123645042341199,0.7445323129971183,0.38507946901688467,0.4618734813133636,0.012147038769319387,-0.00985472395663553,0.09399225986806381
5324,9.0,300.08988,-5188.0876,0.05323997313046536,0.0,0.0,0.0,0.0,0.008125172660226943,0.7392525301710443,0.37138455291780165,0.46641200076378053,0.017121181795479085,-0.0076676442860875715,0.05755056398104845
5325,9.0,299.99163,-5112.3843,0.05324998280516269,0.0,0.0,0.0,0.0,0.008126700278112658,0.7318946524498783,0.37157393949399264,0.45056857902015657,0.006285264844182344,-0.010406684450559792,0.08001847099695822
5326,9.0,300.44684,-5118.8603,0.053259959444630356,0.0,0.0,0.0,0.0,0.008128222854355216,0.7446117112749543,0.3604431540979697,0.45095085801788454,-0.002057043205714358,0.006150268621434254,0.052120368230629856
5327,9.0,299.45232000000004,-5276.835,0.05326996911932769,0.0,0.0,0.0,0.0,0.008129750472240932,0.7648953570767942,0.38505161477163563,0.45407910558161857,-0.006501992961071744,0.0038899576171339263,0.08244077607027112
5328,9.0,299.88612,-5208.9973,0.05327997879402524,0.0,0.0,0.0,0.0,0.008131278090126648,0.7565895534895752,0.38348272871429867,0.4433328384660446,-0.017404566570196983,0.0086164479307022,0.08077016983539513
5329,9.0,300.0151,-4936.8577,0.05328998846872257,0.0,0.0,0.0,0.0,0.008132805708012364,0.7061699144060444,0.36194422332611365,0.43256732973107165,-0.013362549801280986,0.005021867004544685,0.09670805384609181
5330,9.0,299.42456,-4910.3443,0.05329996510819024,0.0,0.0,0.0,0.0,0.008134328284254921,0.7035286753703743,0.3597873988982517,0.4293059917667026,-0.011217292636560591,0.0010139160079657191,0.09285703877402621
5331,9.0,300.06255,-5070.0552,0.05330997478288757,0.0,0.0,0.0,0.0,0.008135855902140637,0.7018844541681023,0.3774728079986656,0.46181290922238555,0.0024645282182299976,0.009705441515427501,0.08256652446068152
5332,9.0,300.23424,-5229.1507,0.0533199844575849,0.0,0.0,0.0,0.0,0.008137383520026353,0.7470476455753623,0.37710016500938864,0.46538344045476954,0.00920276520239221,-0.004837727138696495,0.06706107330116264
5333,9.0,299.315,-5226.7679,0.05332996109705257,0.0,0.0,0.0,0.0,0.00813890609626891,0.7409754809060862,0.39363085403084064,0.45420060440110954,0.021658648479042183,-0.007802544148751153,0.09016250480959642
5334,9.0,300.33628999999996,-5118.519,0.0533399707717499,0.0,0.0,0.0,0.0,0.008140433714154627,0.7505772719012093,0.36701054475362066,0.43831414992573864,-0.000951082211042006,-0.008026038851133363,0.07684358961062183
5335,9.0,299.99744,-5274.2425,0.053349980446447454,0.0,0.0,0.0,0.0,0.008141961332040343,0.7544495996758783,0.3810589838125936,0.46772942854380056,-0.006988582712869413,-0.008002421916477553,0.07785599668653863
5336,9.0,300.35685,-5332.6521,0.053359990121144785,0.0,0.0,0.0,0.0,0.008143488949926059,0.7582059305790992,0.39473540809735164,0.46805174340061056,-0.013852343753869885,-0.0036726846756657563,0.05811480547148474
5337,9.0,300.58448,-5172.6133,0.05336996676061245,0.0,0.0,0.0,0.0,0.008145011526168616,0.7368260292290673,0.36449802901065464,0.47102122480617553,-0.005853565788726964,0.005309942823250555,0.05233296228711125
5338,9.0,300.41,-5052.6081,0.053379976435309784,0.0,0.0,0.0,0.0,0.008146539144054332,0.7491562899609693,0.34378648769158465,0.44292391099068656,-0.010479191614465689,0.002070977623739578,0.04188243146497416
5339,9.0,300.31512999999995,-4989.4085,0.05338998611000734,0.0,0.0,0.0,0.0,0.008148066761940076,0.7397656602866863,0.34772655123543866,0.42916338694762857,-0.01060458638059119,0.004141951599778796,0.07521407066730083
5340,9.0,300.1374,-5161.3463,0.05339996274947478,0.0,0.0,0.0,0.0,0.008149589338182606,0.7573561379852313,0.35755082155501866,0.45401344697513857,-0.002094334254444698,0.004689623107354766,0.07594455204864373
5341,9.0,299.70437000000004,-5288.403,0.053409972424172336,0.0,0.0,0.0,0.0,0.00815111695606835,0.7531275616079033,0.38371927195014366,0.4706956067540396,0.008483363204267761,0.004236860102195536,0.0950339184611175
5342,9.0,299.72168999999997,-5051.2003,0.05341998209886967,0.0,0.0,0.0,0.0,0.008152644573954038,0.7183347215291173,0.35767427594720264,0.4594297551196866,0.0001021952195833829,0.003262409881649787,0.08233815713989341
5343,9.0,299.96875,-4975.7168,0.053429991773567,0.0,0.0,0.0,0.0,0.008154172191839754,0.7085754613359534,0.3614699209543037,0.4424482812612456,-0.0038070817636297162,0.0030495633232434666,0.08707654219903561
5344,9.0,299.77849,-5142.2514,0.053439968413034444,0.0,0.0,0.0,0.0,0.008155694768082311,0.7371711523456282,0.37112722792240566,0.4548176433145066,-0.008551963782413113,-0.004410961800628036,0.06749940225467234
5345,9.0,300.74588,-5243.4393,0.053449978087732,0.0,0.0,0.0,0.0,0.008157222385968027,0.7536375911782394,0.39490402304649264,0.4453329941634446,0.006569051473889904,0.002048319628978408,0.07856771774228002
5346,9.0,300.2423,-5193.4942,0.05345998776242955,0.0,0.0,0.0,0.0,0.00815875000385377,0.7459704999240563,0.38651826389388266,0.4462037914318856,0.00937411724402834,-0.0017737167942022184,0.08743098924301682
5347,9.0,300.25262000000004,-5040.6005,0.053469964401896775,0.0,0.0,0.0,0.0,0.0081602725800963,0.7200218944031282,0.3713721102065736,0.44082268359581156,0.008747401690851331,-0.0007470819744887502,0.0875697062214571
5348,9.0,300.30867,-5004.8462,0.05347997407659433,0.0,0.0,0.0,0.0,0.008161800197982044,0.7126868249417133,0.36111240578901965,0.44754904305965154,0.0058183265714491245,0.00037787559517841763,0.07936019787074172
5349,9.0,299.85681,-5185.1185,0.05348998375129166,0.0,0.0,0.0,0.0,0.008163327815867732,0.7419317964829673,0.37318944518843067,0.46102529978715456,0.0028004379529567077,-0.002683703840735948,0.06534240354779314
5350,9.0,299.64092,-5282.3011,0.05349996039075933,0.0,0.0,0.0,0.0,0.00816485039211029,0.7586169554821643,0.38282700391208363,0.46424367594728355,0.0015435430511358385,0.003161675799108107,0.06373720362012224
5351,9.0,299.58877,-5156.6275,0.05350997006545666,0.0,0.0,0.0,0.0,0.008166378009996006,0.7535631476933923,0.3622983947660677,0.45162443628686155,-0.017591650028910683,-0.012480001871430288,0.07574529135022823
5352,9.0,299.75165,-5000.1955,0.05351997974015421,0.0,0.0,0.0,0.0,0.00816790562788175,0.7243229688251113,0.36753797182817366,0.4280736263325776,-0.008937201369108102,-0.014204983159672687,0.0911376334010841
5353,9.0,299.88267,-5119.8095,0.05352998941485154,0.0,0.0,0.0,0.0,0.008169433245767466,0.7415717279274313,0.3647338629714297,0.4499886554579226,-0.014238671698997488,0.0006314677062785103,0.09213475053299192
5354,9.0,300.29825,-5305.781999999999,0.05353996605431921,0.0,0.0,0.0,0.0,0.008170955822010023,0.7509939406073313,0.3879871725638526,0.47384412945227455,0.014722906961537788,0.0015592126599573083,0.06143904397556153
5355,9.0,299.81325,-5200.7344,0.05354997572901654,0.0,0.0,0.0,0.0,0.008172483439895739,0.7481387943430502,0.36893484854853464,0.4638197523704456,0.006693180589315494,-0.001186927246640599,0.052477648321890655
5356,9.0,300.77352,-5029.5809,0.05355998540371387,0.0,0.0,0.0,0.0,0.008174011057781427,0.7329650903855224,0.3452946598029296,0.45060724464397256,0.007407515830314894,0.002916889672374597,0.04113440971115016
5357,9.0,300.58092999999997,-5170.9012,0.05356996204318154,0.0,0.0,0.0,0.0,0.008175533634023985,0.7510148439568943,0.36476227450423365,0.45604772893590656,0.0014773980846078385,-0.010849661182278189,0.050450618192088355
5358,9.0,300.20524,-5361.9872,0.05357997171787887,0.0,0.0,0.0,0.0,0.0081770612519097,0.7709789106771943,0.3975661350342226,0.46136517426819756,-0.002159042736305928,-0.005056548022342435,0.07889173789900833
5359,9.0,300.22423,-5349.0928,0.053589981392576425,0.0,0.0,0.0,0.0,0.008178588869795445,0.7516855445955872,0.40047225791103463,0.47383283171365953,-0.01005862017293352,-0.004322046165927746,0.09172912929271022
5360,9.0,299.83391,-5207.2677,0.053599991067273756,0.0,0.0,0.0,0.0,0.00818011648768116,0.7436125048213403,0.3855338002292236,0.45373303000996357,-0.008774018555078212,0.006148068247517094,0.0968463189149875
5361,9.0,299.92749,-4935.1227,0.053609967706741424,0.0,0.0,0.0,0.0,0.008181639063923718,0.7027114182372174,0.3648572667011087,0.43258539598035456,-0.004440211291264736,0.012385385590342387,0.07832125478795603
5362,9.0,299.80761,-4765.775,0.053619977381438755,0.0,0.0,0.0,0.0,0.008183166681809406,0.6944021290696544,0.3451186177305557,0.40915584166553765,0.0013077857933934088,0.011986407217716289,0.08537007704312062
5363,9.0,299.59848,-5041.9124,0.05362998705613631,0.0,0.0,0.0,0.0,0.00818469429969515,0.7239835705716153,0.36403175157963663,0.44460014076361754,0.012956174702924886,-0.0023940680221761178,0.07019756365446013
5364,9.0,299.32047,-5182.0635,0.053639963695603754,0.0,0.0,0.0,0.0,0.00818621687593768,0.7434426131770733,0.3756241331912156,0.45615117163861557,0.0016995739406598885,-0.0009976030663907572,0.09235034786276972
5365,9.0,300.04251,-5014.3018,0.05364997337030131,0.0,0.0,0.0,0.0,0.008187744493823423,0.7219872246945913,0.3612776364828267,0.44095768903913557,0.012148689353732289,-0.014854480526773087,0.08651241824561091
5366,9.0,299.66934,-5220.0756,0.05365998304499864,0.0,0.0,0.0,0.0,0.00818927211170914,0.7610634275836122,0.37684176596888663,0.4488674435597676,-0.01045174064275649,-0.0070499852636293735,0.08729403531975051
5367,9.0,299.93802999999997,-5473.12,0.053669959684466084,0.0,0.0,0.0,0.0,0.008190794687951669,0.7798883580114883,0.38935375310622367,0.49444969494338553,0.008471499362821893,-0.017805148917731384,0.05332482774375075
5368,9.0,299.95273,-5332.986999999999,0.05367996935916364,0.0,0.0,0.0,0.0,0.008192322305837413,0.7730640071304773,0.38211436485175165,0.4659165214648805,-0.0014548333088558686,-0.002934756514037917,0.05796231943743554
5369,9.0,300.39794,-5090.6723,0.05368997903386097,0.0,0.0,0.0,0.0,0.008193849923723101,0.7402576641377433,0.3519671447589527,0.45521243595096955,-0.001984866563991078,0.008757879406160402,0.047369100709716255
5370,9.0,300.23325,-5028.2069,0.05369998870855852,0.0,0.0,0.0,0.0,0.008195377541608845,0.7205831437660193,0.36606811070310963,0.4417981090695786,-0.01989870600934938,0.013014832764463989,0.07374501203631603
5371,9.0,300.45347000000004,-5015.4354,0.05370996534802597,0.0,0.0,0.0,0.0,0.008196900117851375,0.7214626853828233,0.36747002327646766,0.43563440738626863,-0.01108473925847859,0.008316981154372132,0.08383177897980242
5372,9.0,300.65589,-5132.9358,0.05371997502272352,0.0,0.0,0.0,0.0,0.008198427735737118,0.7335652485522534,0.3674331308403267,0.45928593440049253,-0.003625865630945077,0.018137020749484586,0.08678386389440051
5373,9.0,300.34084,-5280.4342,0.05372998469742085,0.0,0.0,0.0,0.0,0.008199955353622834,0.7540715054010633,0.37996802756242465,0.47108062152703756,0.011750472945181388,0.0023992904145165275,0.06762768681008303
5374,9.0,300.06866,-5091.8607,0.0537399613368883,0.0,0.0,0.0,0.0,0.008201477929865364,0.7298197492926013,0.3705561095035407,0.4474226401096766,0.0024123805925584277,-0.01047767173931569,0.07130491429124713
5375,9.0,300.11233,-5010.6918,0.05374997101158585,0.0,0.0,0.0,0.0,0.008203005547751108,0.7176723903362503,0.3659708893560147,0.43948190040098656,-0.001969582395507648,-0.01837507676772888,0.06878541421534183
5376,9.0,299.43212,-5348.4079,0.05375998068628318,0.0,0.0,0.0,0.0,0.008204533165636824,0.7392331061666273,0.4027331836541706,0.4838161822989396,-0.00040163893434117665,-0.015019810519089884,0.08279384002786583
5377,9.0,299.91983999999997,-5495.1857,0.053769990360980735,0.0,0.0,0.0,0.0,0.00820606078352254,0.7675871775574563,0.4112649521461906,0.4915471184419235,0.006041356901310504,-0.00010274434034257689,0.06858957728901423
5378,9.0,300.01547999999997,-5120.87,0.05377996700044796,0.0,0.0,0.0,0.0,0.00820758335976507,0.7215884905152393,0.37825091314795867,0.45677719808039957,0.010888833431144189,0.01002271991129044,0.08580910311269911
5379,9.0,300.0054,-4925.428,0.05378997667514551,0.0,0.0,0.0,0.0,0.008209110977650813,0.7185001548729443,0.35838836395517765,0.4203186052347166,-0.002169959999508378,0.002219265154674418,0.07471206705100693
5380,9.0,300.36499,-4962.079000000001,0.053799986349843065,0.0,0.0,0.0,0.0,0.008210638595536529,0.7295088841619214,0.3492550288787877,0.42958417958165757,-0.003930297028790116,0.0031778533502047073,0.06964942169486273
5381,9.0,300.71642,-5108.442,0.05380996298931029,0.0,0.0,0.0,0.0,0.008212161171779059,0.7412395338821464,0.3683884432996086,0.44321084315400455,0.0024326142851303374,0.002298416402136038,0.07597052772820734
5382,9.0,300.0033,-5308.251,0.05381997266400784,0.0,0.0,0.0,0.0,0.008213688789664803,0.7415886694691033,0.39037622378213366,0.4816108535887906,0.0017351979903257081,0.007234788099017992,0.07908982626705813
5383,9.0,300.21162000000004,-5153.8239,0.053829982338705396,0.0,0.0,0.0,0.0,0.008215216407550519,0.7380093938883563,0.37626056571152666,0.45236379475233063,-0.011693257751784689,0.00048221563217597745,0.08702968850116152
5384,9.0,299.7151,-5050.978,0.05383995897817262,0.0,0.0,0.0,0.0,0.008216738983793048,0.7210214656267783,0.37605825006405963,0.43829148352100156,-0.01236001279458829,0.0038228617153870767,0.07994435580514363
5385,9.0,299.63007000000005,-5287.7234,0.05384996865287017,0.0,0.0,0.0,0.0,0.008218266601678764,0.7677404417675823,0.36773219160734166,0.4718632559042776,0.007389222207709453,0.007758326623662222,0.07068501902581822
5386,9.0,300.19729,-5508.0861,0.053859978327567726,0.0,0.0,0.0,0.0,0.008219794219564508,0.8080872501495022,0.37993324268649165,0.48630013452158655,-0.0008389697959723721,-0.0005160543756956015,0.04459692544312386
5387,9.0,300.36002,-5166.0345,0.05386998800226528,0.0,0.0,0.0,0.0,0.008221321837450252,0.7459976246292332,0.3668218573199986,0.45752601016930156,0.008906845004062162,-0.011255211495052889,0.06386818038104865
5388,9.0,300.15609,-4860.6384,0.0538799646417325,0.0,0.0,0.0,0.0,0.008222844413692754,0.7042574048422944,0.3483067281101977,0.4249485705066586,-0.001135172356707789,-0.007378205544672192,0.06607495094608994
5389,9.0,299.88392000000005,-5074.4177,0.05388997431643028,0.0,0.0,0.0,0.0,0.008224372031578525,0.7284915405315173,0.3530055943889397,0.46099913766957257,-2.867915444691217e-05,0.004304286830100036,0.06603404603955293
5390,9.0,300.03857,-5323.7614,0.05389998399112761,0.0,0.0,0.0,0.0,0.008225899649464213,0.7664739804675922,0.38770057477306763,0.4641159861696816,-0.0015759451681336785,0.010599406646079989,0.08281250814770823
5391,9.0,299.77465,-5235.7072,0.053909960630595055,0.0,0.0,0.0,0.0,0.00822742222570677,0.7545860540668452,0.3750766032346787,0.4618615958896906,-0.008413712291068753,0.00884453539181268,0.08059274366338452
5392,9.0,300.12953999999996,-5101.2882,0.05391997030529261,0.0,0.0,0.0,0.0,0.008228949843592487,0.7368593347598543,0.3761438696975096,0.4376610291762806,-0.01233022121514809,-0.0025948593361926776,0.08967255684299232
5393,9.0,299.72341,-5133.0335,0.05392997997998994,0.0,0.0,0.0,0.0,0.008230477461478203,0.7245298137005253,0.38285357132970566,0.45293062712327253,-0.008083528128682111,-0.004508946530348376,0.07653922143958303
5394,9.0,299.09129,-5292.169,0.05393998965468749,0.0,0.0,0.0,0.0,0.008232005079363947,0.7484101933823353,0.3965599979499246,0.46371704934030955,0.003598916116710367,-0.003933883630169086,0.08917542898617961
5395,9.0,299.72545,-5422.8815,0.053949966294154716,0.0,0.0,0.0,0.0,0.008233527655606449,0.7643759042805283,0.3998438604640166,0.48420080190439857,0.01020783614493499,-0.008659672166718101,0.07258268751535352
5396,9.0,299.62717999999995,-5174.5711,0.05395997596885249,0.0,0.0,0.0,0.0,0.00823505527349222,0.7455097953685883,0.37371170468747367,0.45371890530356956,0.006670481051300223,1.4721132760612686e-05,0.07382629495933803
5397,9.0,299.98832999999996,-4879.8389,0.05396998564354982,0.0,0.0,0.0,0.0,0.008236582891377908,0.7171426023889643,0.34764415373730667,0.4185624401613966,-0.0022959192472645877,0.01059029854093109,0.059597981716112844
5398,9.0,300.33862,-5107.0464,0.05397996228301727,0.0,0.0,0.0,0.0,0.008238105467620466,0.7469206042778244,0.36551125884565266,0.43998270939541256,0.004290313503270976,0.008727376829125031,0.07751345735773263
5399,9.0,299.89865,-5469.0595,0.05398997195771482,0.0,0.0,0.0,0.0,0.008239633085506182,0.7770742281112553,0.3970940314151296,0.4882892660578985,0.005799951280885624,-0.0008349230270604872,0.06161437981261584
5400,9.0,300.12772,-5303.4083,0.053999981632412375,0.0,0.0,0.0,0.0,0.008241160703391925,0.7571419065165883,0.38300447466709864,0.4719573361760626,0.00896367617567096,-0.014934360098406586,0.08451479871321121
5401,9.0,300.01878999999997,-5116.423,0.054009991307109706,0.0,0.0,0.0,0.0,0.008242688321277641,0.7223473236476303,0.37575285648391965,0.4571646547861386,0.009695272436098891,-0.0006869533324170154,0.07414451729899413
5402,9.0,299.44794,-5125.275,0.05401996794657715,0.0,0.0,0.0,0.0,0.008244210897520171,0.7375757025805544,0.36055825930932967,0.4598216599933646,-0.003311547647899307,-0.002811481872421657,0.07626947602446123
5403,9.0,299.59342999999996,-5207.0665,0.054029977621274705,0.0,0.0,0.0,0.0,0.008245738515405915,0.7522578282520673,0.37274912722497466,0.4578112400724516,0.003474072558639267,0.008080342875667753,0.060739611617032944
5404,9.0,300.41983999999997,-5242.3640000000005,0.054039987295972036,0.0,0.0,0.0,0.0,0.008247266133291603,0.7578801402744463,0.37397786522374166,0.4616897385402296,-0.008632991873034962,0.005628972013961285,0.07753357239871783
5405,9.0,300.06868,-5220.2512,0.05404996393543948,0.0,0.0,0.0,0.0,0.00824878870953416,0.7514727620745874,0.3644496564508806,0.47090360673456755,-0.008628916277157733,0.01194451236583159,0.05764048790092325
5406,9.0,300.93231000000003,-5055.5855,0.054059973610137035,0.0,0.0,0.0,0.0,0.008250316327419877,0.7394015488632513,0.36911745648155664,0.4282527385527546,-0.014499747746263687,0.005192203364280576,0.07385694070861253
5407,9.0,300.26545,-5092.312,0.05406998328483459,0.0,0.0,0.0,0.0,0.00825184394530562,0.7349232772637803,0.36616605145777564,0.44684637438030356,-0.016650921278317982,-0.0017260381080966985,0.07926485306283192
5408,9.0,300.1086,-5292.2152,0.05407995992430181,0.0,0.0,0.0,0.0,0.008253366521548122,0.7619428172129014,0.37979387013523663,0.4669645767058156,0.0028413848080478467,-0.0063395580269406645,0.07257392999473923
5409,9.0,299.84783,-5264.9026,0.054089969598999366,0.0,0.0,0.0,0.0,0.008254894139433866,0.7564737694006484,0.3795319247193847,0.46439324179454455,0.006388723150942884,0.007064479401009833,0.07144295137887033
5410,9.0,299.78494,-5082.5299,0.0540999792736967,0.0,0.0,0.0,0.0,0.00825642175731961,0.7287099871205763,0.3650660367517127,0.4511861549561066,0.013974787935704187,0.013267337729134288,0.09118278585204032
5411,9.0,299.15835,-5044.4061,0.05410998894839425,0.0,0.0,0.0,0.0,0.008257949375205326,0.7231581567751534,0.37039532697767263,0.43982001182685554,-0.004650908239583905,-0.001054478537293929,0.09077463351300881
5412,9.0,299.92807,-5174.9109,0.054119965587861474,0.0,0.0,0.0,0.0,0.008259471951447855,0.7437267791676183,0.37120154981724063,0.45811536708996653,0.007420831152529014,-0.00961489252156601,0.08489064661255451
5413,9.0,299.78407999999996,-5271.0902,0.05412997526255903,0.0,0.0,0.0,0.0,0.008260999569333571,0.7460988787117263,0.3722966705253206,0.4838842423081566,0.007558420890233062,-0.0007884819448921093,0.07927057995239713
5414,9.0,300.2119,-5260.7998,0.05413998493725658,0.0,0.0,0.0,0.0,0.008262527187219315,0.7418818939155423,0.3863210752919216,0.47094879768902753,0.021867976830451278,-0.003983615870252277,0.06853439568856824
5415,9.0,300.48881,-5175.7067,0.054149961576724026,0.0,0.0,0.0,0.0,0.008264049763461845,0.7343150333612514,0.3850595181224156,0.45391103778753156,0.005992714310384854,0.0017290977180986586,0.06028234907215464
5416,9.0,300.13922,-5137.3346,0.05415997125142136,0.0,0.0,0.0,0.0,0.00826557738134756,0.7345267317046443,0.36913095297288867,0.4579637646100046,-0.011595523700139089,-0.001987706400046348,0.048380267567510654
5417,9.0,299.84857999999997,-5283.6332,0.05416998092611891,0.0,0.0,0.0,0.0,0.008267104999233305,0.7615320861523653,0.3855734993681416,0.4589869546934856,-0.008396390881934262,0.009912592392371699,0.07715950376655013
5418,9.0,300.1369,-5421.7137,0.05417999060081646,0.0,0.0,0.0,0.0,0.00826863261711902,0.7982627873124032,0.38049707583713765,0.4693057214593685,0.002057222348332038,0.005803467157407614,0.06769671244664534
5419,9.0,300.31754,-5212.8725,0.05418996724028369,0.0,0.0,0.0,0.0,0.00827015519336155,0.7568077163686063,0.37881350000098163,0.4489618683365866,0.004308324733073546,0.004340999110373256,0.11346355368048089
5420,9.0,300.70541000000003,-5086.042,0.05419997691498124,0.0,0.0,0.0,0.0,0.008271682811247266,0.7326184980563163,0.37164477580848365,0.44176650579895954,-0.00026547292448513774,-0.008905198573974671,0.07765895399259203
5421,9.0,300.53856,-5201.425,0.054209986589678794,0.0,0.0,0.0,0.0,0.00827321042913301,0.7419159593839043,0.37371304217760565,0.4654743087237376,-0.00094562589978351,-0.004708503807068146,0.08058565091268452
5422,9.0,300.05197999999996,-5296.3132,0.05421996322914624,0.0,0.0,0.0,0.0,0.00827473300537554,0.7443554603246644,0.3817580959840906,0.4838333974181385,0.007094086366281813,0.006049027103242494,0.04872252521278886
5423,9.0,300.0106,-5089.2751,0.05422997290384357,0.0,0.0,0.0,0.0,0.008276260623261256,0.7348220535787903,0.37241431899443167,0.43977617862752955,-0.01015109312608489,-0.006370543214998664,0.08228143539929542
5424,9.0,300.20844,-5059.0979,0.054239982578541124,0.0,0.0,0.0,0.0,0.008277788241147,0.7420978985718603,0.35554361363692266,0.4401979135841516,0.004788980689635595,0.0016482031738399884,0.05839068611596204
5425,9.0,299.96202999999997,-5181.3243,0.05424995921800857,0.0,0.0,0.0,0.0,0.008279310817389529,0.7560909837778702,0.3800709332425806,0.4388312823792756,-0.01029499794503719,0.00013795920922051388,0.08873737462344701
5426,9.0,299.32941,-5288.5651,0.05425996889270612,0.0,0.0,0.0,0.0,0.008280838435275273,0.7565221622254242,0.3750241472770017,0.4760454254270255,0.01150064498727529,0.012122328639130688,0.07912678355120552
5427,9.0,299.56625,-5273.5603,0.054269978567403454,0.0,0.0,0.0,0.0,0.008282366053160961,0.7486341520519383,0.3999295307599716,0.4544669777198985,-0.008596121728396163,0.007565107732943003,0.0929657139002516
5428,9.0,300.12273999999996,-5147.8499,0.05427998824210101,0.0,0.0,0.0,0.0,0.008283893671046705,0.7236713578183023,0.36948535746036565,0.47166110237682657,-0.013177446233262686,-0.006895675379400174,0.06660393538604663
5429,9.0,300.64807,-4992.9892,0.05428996488156845,0.0,0.0,0.0,0.0,0.008285416247289235,0.7184262484106503,0.3647065153512306,0.4346112780977936,-0.022065889906233777,0.0016510679358477185,0.08578444263176532
5430,9.0,300.70336000000003,-5147.8841,0.054299974556265784,0.0,0.0,0.0,0.0,0.00828694386517495,0.7424079125724563,0.36701949175200366,0.4554008194095615,-0.004240876118966886,0.003946031384292976,0.08268482039660642
5431,9.0,300.12608,-5343.4154,0.05430998423096334,0.0,0.0,0.0,0.0,0.008288471483060694,0.7754324387092233,0.38315587449704064,0.46567653317869556,0.003087519064039407,0.00982566546364268,0.10050022745835022
5432,9.0,299.52029,-5108.2504,0.054319960870430783,0.0,0.0,0.0,0.0,0.008289994059303224,0.7376051982909653,0.36529012714382864,0.4498852532852176,0.012828615634585788,-0.007059755831693654,0.07723220851422552
5433,9.0,300.42413,-4895.6402,0.05432997054512834,0.0,0.0,0.0,0.0,0.008291521677188968,0.7011644183820404,0.35351587727180067,0.4334720911428646,0.01135328802523229,-0.005928313552578994,0.07764062835128342
5434,9.0,299.65561,-5271.513000000001,0.05433998021982567,0.0,0.0,0.0,0.0,0.008293049295074656,0.7550024795929433,0.37115322791997163,0.4762526249399746,0.008121048577235092,-0.008941092452142122,0.04783740970718475
5435,9.0,299.55487,-5464.2681,0.05434998989452322,0.0,0.0,0.0,0.0,0.0082945769129604,0.7958400455282972,0.38688437142001464,0.4782766325447285,-0.01047281523158639,-0.011419936577059989,0.06507190630109715
5436,9.0,300.53446,-5255.3674,0.05435996653399067,0.0,0.0,0.0,0.0,0.00829609948920293,0.7650968114616763,0.3749576780704416,0.45744595327890053,-0.000978232784494059,-0.002031384369457028,0.06450616722701304
5437,9.0,300.11381,-5295.5234,0.05436997620868822,0.0,0.0,0.0,0.0,0.008297627107088673,0.7567245386678972,0.3942183161738186,0.4587640396714856,0.0022884375098511977,0.00959177390330938,0.09528385382353421
5438,9.0,300.11329,-5314.566,0.05437998588338555,0.0,0.0,0.0,0.0,0.008299154724974389,0.7666772789676563,0.38015417173829563,0.46866392884602853,-0.0036371260819563966,0.012368202895146589,0.08196222514079184
5439,9.0,300.15427,-5141.5549,0.054389962522853,0.0,0.0,0.0,0.0,0.008300677301216947,0.7276150791950173,0.3758251214810516,0.4594640941655756,-0.011858105437053889,-0.0022250195033173274,0.09622180930860322
5440,9.0,299.38597000000004,-5062.4478,0.05439997219755055,0.0,0.0,0.0,0.0,0.008302204919102635,0.7159849438847123,0.36445685052659066,0.45841593759963056,-0.015531431905332986,0.0006873296636366565,0.05748088885117204
5441,9.0,299.49883,-4955.2779,0.05440998187224788,0.0,0.0,0.0,0.0,0.00830373253698835,0.7129649620941634,0.35070924542230764,0.44260654079436457,0.003285875335415647,0.0028500715024801573,0.06483313594153234
5442,9.0,299.61309,-4980.2976,0.05441995851171533,0.0,0.0,0.0,0.0,0.008305255113230908,0.7184994253328724,0.36281785769483466,0.4325688293412196,0.0014799324257579586,0.006651375612714664,0.07010321588464873
5443,9.0,299.19612,-5256.6117,0.05442996818641266,0.0,0.0,0.0,0.0,0.008306782731116624,0.7507346904367453,0.3873429785477756,0.45980100995632656,-0.004368820627644026,0.0032316824644172265,0.0929741370483329
5444,9.0,299.95794,-5445.9966,0.05443997786111021,0.0,0.0,0.0,0.0,0.008308310349002368,0.7817916875293323,0.39498225608671367,0.4786730463813515,-0.0005342157387654884,-0.0035709953009297963,0.08337484878095691
5445,9.0,299.56357,-5309.5861,0.054449987535807765,0.0,0.0,0.0,0.0,0.008309837966888084,0.7515585539605544,0.40242873239662363,0.45999430767790356,0.0070371038151080725,0.003657296649047077,0.09646578068093131
5446,9.0,299.70767,-5140.7335,0.05445996417527521,0.0,0.0,0.0,0.0,0.008311360543130641,0.7484680702280473,0.36922699894986766,0.4449595405740876,-0.00026481281230998974,-0.009477508574957272,0.07766458563664784
5447,9.0,300.27992,-5235.8711,0.05446997384997254,0.0,0.0,0.0,0.0,0.00831288816101633,0.7595935968560513,0.37601987828277267,0.45596058942730655,0.0018025540946982382,-0.005844601767742285,0.07008121822497773
5448,9.0,299.8291,-5249.4130000000005,0.054479983524670095,0.0,0.0,0.0,0.0,0.008314415778902073,0.7476744116897193,0.37215208986855164,0.4758639624666165,-0.0008927179818994051,0.0028484900217240774,0.06722966393230123
5449,9.0,300.07984,-5075.2966,0.05448996016413754,0.0,0.0,0.0,0.0,0.008315938355144603,0.7307944046962923,0.37397460255841963,0.43799443912168556,0.005744394575252604,0.01715764664007788,0.07827855541549193
5450,9.0,300.14833,-5164.3606,0.054499969838835094,0.0,0.0,0.0,0.0,0.008317465973030347,0.7335044231487503,0.37228327535899863,0.4640489698080676,-0.0038645802617543767,0.014433112366687288,0.08571293047945762
5451,9.0,299.88093,-5236.7371,0.054509979513532425,0.0,0.0,0.0,0.0,0.008318993590916063,0.7558867632202153,0.37726750326340364,0.4586830404584915,-0.01151699884388929,-0.0007313187616230424,0.07569095986661613
5452,9.0,299.9576,-5103.4364,0.054519989188229756,0.0,0.0,0.0,0.0,0.008320521208801779,0.7399946750742883,0.3537047166929377,0.4576178511583655,-0.003964924344332567,0.0003895251646256407,0.06699748172488663
5453,9.0,300.03607999999997,-5255.6244,0.054529965827697424,0.0,0.0,0.0,0.0,0.008322043785044336,0.7678407332624803,0.36981223194262564,0.4599256093211236,-0.0008224143937809813,-0.001851770793130548,0.06470953057508343
5454,9.0,299.71656,-5435.3558,0.054539975502394755,0.0,0.0,0.0,0.0,0.008323571402930025,0.7581781776588602,0.3939565531429846,0.5000777318288295,0.005995073359267675,0.004126573199036066,0.05736031411577224
5455,9.0,299.75699,-5240.9906,0.05454998517709231,0.0,0.0,0.0,0.0,0.008325099020815768,0.7557952363386823,0.38380203421831166,0.4535329941752216,0.0024051600710208176,-0.007086629149520842,0.08894586501702342
5456,9.0,300.49944,-5201.1183,0.054559961816559754,0.0,0.0,0.0,0.0,0.008326621597058298,0.7389551919291993,0.37757090074084665,0.46448398847350053,0.006754951963111853,0.00907701204970634,0.07410975572781342
5457,9.0,300.63836000000003,-5345.7784,0.05456997149125731,0.0,0.0,0.0,0.0,0.008328149214944042,0.7867893207325602,0.3775355889748616,0.4606582398059285,-0.011891598419109388,-0.0038073162297028564,0.08481895714147931
5458,9.0,300.37726000000004,-5183.9375,0.05457998116595464,0.0,0.0,0.0,0.0,0.008329676832829758,0.7534974080269042,0.37668089225050966,0.44560925680320956,0.0024785076245596575,0.008193377814423431,0.06518264947077664
5459,9.0,300.16479,-4990.5039,0.05458999084065219,0.0,0.0,0.0,0.0,0.008331204450715501,0.7272526700317503,0.35418753036558764,0.43554836218777654,-0.00030179770752261474,-0.008390429931595961,0.07917285502000243
5460,9.0,300.35945,-5018.8094,0.05459996748011964,0.0,0.0,0.0,0.0,0.008332727026958031,0.7000222930018214,0.3634240041696567,0.4621464407578026,0.017205158950516986,0.00045923899052335957,0.06645053438715715
5461,9.0,299.73915,-5030.4062,0.05460997715481719,0.0,0.0,0.0,0.0,0.008334254644843747,0.7076263398347823,0.36563213958258267,0.4558593961398196,0.0027373058856010575,-0.006946989505539483,0.08391929947044001
5462,9.0,299.44272,-5216.6716,0.05461998682951452,0.0,0.0,0.0,0.0,0.008335782262729463,0.7180843575619082,0.3957566020781356,0.47189695660260356,-0.004671625252453516,0.0054375878151981345,0.09444370838386831
5463,9.0,299.61449,-5394.2342,0.05462996346898219,0.0,0.0,0.0,0.0,0.00833730483897202,0.7799508755426583,0.3971429815274606,0.4626186558344066,-0.008117578904917662,-0.00926694476770124,0.09206626901173331
5464,9.0,299.68207,-5258.2192,0.05463997314367952,0.0,0.0,0.0,0.0,0.008338832456857737,0.7757816148261842,0.37551624232056763,0.44706949205232355,-0.006586615252448313,0.003641421857080356,0.06806116634861413
5465,9.0,299.90078,-5144.4393,0.05464998281837685,0.0,0.0,0.0,0.0,0.008340360074743453,0.7517630987582413,0.36569223544601365,0.44632575634642263,-0.0022287865645391077,0.007045213767583463,0.06661863865824774
5466,9.0,300.07768,-5262.8909,0.05465995945784452,0.0,0.0,0.0,0.0,0.00834188265098601,0.7424417551257964,0.3821227545625796,0.47522290952584956,-0.00018715379853564181,-0.006924473872417363,0.06588483077682654
5467,9.0,299.85565,-5280.1174,0.05466996913254185,0.0,0.0,0.0,0.0,0.008343410268871726,0.7594621884505822,0.36938227952769265,0.47617938722274655,0.01978747343987158,-0.008415893109258981,0.060705858229701745
5468,9.0,300.24026000000003,-5088.778,0.054679978807239404,0.0,0.0,0.0,0.0,0.008344937886757442,0.7219256190885113,0.36759743947654266,0.4573383765157836,0.010855930160646888,-0.00034751668687472666,0.07938784642622042
5469,9.0,300.07235,-5026.5107,0.054689988481936735,0.0,0.0,0.0,0.0,0.008346465504643158,0.7465123860775363,0.3501661737662107,0.43125517085157156,0.012135921389222187,-0.001039619325902439,0.07234043157544473
5470,9.0,300.23086,-5218.0142,0.05469996512140418,0.0,0.0,0.0,0.0,0.008347988080885715,0.7569773850978513,0.37318035633503366,0.45598827142003856,-0.006649317397786534,-0.01061251404937359,0.08764550340843773
5471,9.0,300.29311,-5382.2235,0.054709974796101735,0.0,0.0,0.0,0.0,0.008349515698771431,0.7724796860628093,0.3907995799389156,0.47278228387747856,-0.009569830351193721,0.0015706556986366485,0.08301915543935272
5472,9.0,300.17095,-5348.5336,0.05471998447079929,0.0,0.0,0.0,0.0,0.008351043316657175,0.7560618933674993,0.4001895104706296,0.46956924754537654,-0.01100463474532289,0.013629265598603786,0.08970442457188742
5473,9.0,299.58808999999997,-5275.9382,0.05472996111026651,0.0,0.0,0.0,0.0,0.008352565892899705,0.7481735994839853,0.3889189573558126,0.46666090565084556,0.000976151913293693,0.003058147274115637,0.07156076602099773
5474,9.0,299.61507,-5135.1239,0.054739970784964065,0.0,0.0,0.0,0.0,0.008354093510785449,0.7247132524986294,0.3883463291942986,0.4478898598632876,-0.015329850864188485,0.003025826825075857,0.08152046430919342
5475,9.0,299.4196,-5173.263,0.054749980459661396,0.0,0.0,0.0,0.0,0.008355621128671137,0.7545460104228933,0.3714431998335897,0.44655357549890656,0.0032511801321164968,-0.00037157858017945066,0.06267960660299554
5476,9.0,300.01112,-5308.9814,0.05475999013435895,0.0,0.0,0.0,0.0,0.008357148746556853,0.7715377181073442,0.37843393651352164,0.46382613584607557,-0.002239850039730988,0.001855398532463578,0.06874886729748494
5477,9.0,299.96693,-5179.1242,0.054769966773826395,0.0,0.0,0.0,0.0,0.00835867132279941,0.7501148954830763,0.36178905420579965,0.4624204843798486,0.016012017441013084,-0.008334117240063332,0.06670439406721114
5478,9.0,299.43023999999997,-5045.3236,0.054779976448523726,0.0,0.0,0.0,0.0,0.008360198940685126,0.7174882017330724,0.36489993466281967,0.45126427653881657,0.014947973113500086,-0.006659959968886874,0.09352895835258951
5479,9.0,299.96612999999996,-5287.5327,0.05478998612322128,0.0,0.0,0.0,0.0,0.00836172655857087,0.7401667958687753,0.3957784072202876,0.47133270801941657,0.013306557600754988,0.0050716466647325546,0.08443418149550493
5480,9.0,300.41641,-5325.8013,0.054799962762688725,0.0,0.0,0.0,0.0,0.0083632491348134,0.7545213276504573,0.3821358964163767,0.4822533656097015,-0.008291048740587803,0.007587071955360702,0.09160520475247981
5481,9.0,300.16347,-5254.4635,0.05480997243738628,0.0,0.0,0.0,0.0,0.008364776752699143,0.7605374697217043,0.38453339814049164,0.45215484231670855,-0.009799743182359351,0.0010404148285559488,0.06130852317718015
5482,9.0,300.19867999999997,-5172.3286,0.05481998211208361,0.0,0.0,0.0,0.0,0.008366304370584832,0.7419393350637112,0.37380533912921465,0.45651407729443155,-0.016520227214169486,-0.004236412346976345,0.08789360580142351
5483,9.0,299.88975,-5154.7867,0.05482995875155128,0.0,0.0,0.0,0.0,0.008367826946827417,0.7659158113850053,0.36134274793425264,0.4396678723243406,-0.002189961759132398,0.0034422961235781764,0.06314479884315644
5484,9.0,299.9024,-5090.9637,0.05483996842624861,0.0,0.0,0.0,0.0,0.008369354564713105,0.7389233860085603,0.3655579088802567,0.44304454854759256,0.0017745606288854983,0.007020083239928274,0.08347631665922102
5485,9.0,300.09337,-5267.4519,0.05484997810094616,0.0,0.0,0.0,0.0,0.008370882182598849,0.7623114578642832,0.3762879234642266,0.4625744781300466,-0.008024373067968962,0.0007060995745841024,0.06549172621503013
5486,9.0,299.87394,-5397.5077,0.05485998777564349,0.0,0.0,0.0,0.0,0.008372409800484565,0.7716241888708784,0.3843146678414046,0.48476870832044655,0.0025175985094426276,0.002379996004787318,0.06879708077699323
5487,9.0,299.41119,-5309.8885,0.05486996441511116,0.0,0.0,0.0,0.0,0.008373932376727122,0.7697016785286412,0.37376239758997665,0.47060945009803656,-0.01001022278853207,0.007233287779594924,0.06201976800537454
5488,9.0,299.2046,-5232.7608,0.05487997408980849,0.0,0.0,0.0,0.0,0.008375459994612838,0.7430064900690313,0.3717023182816626,0.4759198026796276,-0.0021253527784309877,0.0042438708809624465,0.07209482887045564
5489,9.0,299.36629,-5271.3228,0.05488998376450582,0.0,0.0,0.0,0.0,0.008376987612498527,0.7630581927904803,0.36301941340472665,0.47627291020697654,-0.012390881458884789,-0.012202488881041888,0.06888338840726115
5490,9.0,299.63864,-5189.6235,0.05489996040397349,0.0,0.0,0.0,0.0,0.008378510188741112,0.7347479647314783,0.3809553992548706,0.46181259511485456,0.016490214746207484,-0.006688285578082394,0.0903945036187429
5491,9.0,299.61903,-5079.8107,0.05490997007867082,0.0,0.0,0.0,0.0,0.0083800378066268,0.7289284843721403,0.3761524721908586,0.43905465336382055,0.02057424289076968,-0.005458532201390184,0.09426228494021323
5492,9.0,299.981,-5139.2489,0.054919979753368375,0.0,0.0,0.0,0.0,0.008381565424512544,0.7373890517796332,0.36875982985876166,0.4560544569165706,0.016633133672812484,0.006185702180081275,0.07983166111577153
5493,9.0,300.47031,-5136.0043,0.054929989428065706,0.0,0.0,0.0,0.0,0.00838309304239826,0.7396207047273803,0.37799202774740864,0.4436043388303396,-0.006237970990464805,-0.001842498946765488,0.07873839668187473
5494,9.0,299.81763,-5158.6211,0.054939966067533375,0.0,0.0,0.0,0.0,0.008384615618640817,0.7296359862544654,0.3793966963610386,0.4590593108831266,-0.01137882496750259,-0.0026296901123552077,0.07429066849341813
5495,9.0,299.97722999999996,-5318.8635,0.054949975742230706,0.0,0.0,0.0,0.0,0.008386143236526533,0.7573097919256573,0.3924615127529356,0.46703037716730955,-0.0031073529281218566,0.008800589620400572,0.08404315612291371
5496,9.0,300.09918,-5356.5217,0.05495998541692826,0.0,0.0,0.0,0.0,0.00838767085441225,0.7550630314189193,0.3939215149545266,0.47926428794720255,0.004010059164737026,0.00996059238008393,0.07661960966276674
5497,9.0,300.3274,-5228.073,0.054969962056395705,0.0,0.0,0.0,0.0,0.008389193430654807,0.7603374845494673,0.37415854798157366,0.4547076043536466,-0.0008952195849387941,-0.006788772427599675,0.08820576079948082
5498,9.0,300.18068999999997,-5298.5325,0.05497997173109326,0.0,0.0,0.0,0.0,0.008390721048540523,0.7572674482039783,0.38647150240176764,0.4668826149052266,-0.004597584737171286,-0.02231833002289768,0.07569889766789953
5499,9.0,299.80267000000003,-5302.9145,0.05498998140579059,0.0,0.0,0.0,0.0,0.008392248666426239,0.7665757817051393,0.3726079814860446,0.4727698209012485,0.008688349171048302,-0.006065736306666563,0.06797265692587894
5500,9.0,299.2192,-5188.4467,0.054999958045258035,0.0,0.0,0.0,0.0,0.008393771242668768,0.7295884445597732,0.3819219993202666,0.46564781767086155,0.007105662647349303,-0.005450309879478704,0.06125464056336234
5501,9.0,299.70193,-5124.4142,0.05500996771995559,0.0,0.0,0.0,0.0,0.008395298860554512,0.7393868162067972,0.36712916594282763,0.4511779881603006,0.003338794855013397,-0.0014504372219720086,0.059515388660711536
5502,9.0,299.56802999999996,-5297.8447,0.05501997739465292,0.0,0.0,0.0,0.0,0.008396826478440228,0.7446545008266773,0.38146476008014063,0.4842932407110216,-0.001038041898146759,-0.016465375933256088,0.06507625618377644
5503,9.0,299.42838,-5369.3184,0.05502998706935047,0.0,0.0,0.0,0.0,0.008398354096325944,0.7781174096192092,0.39318115337145865,0.4608401587288825,0.0063416830150503836,0.0100113224688656,0.08388400594295684
5504,9.0,299.14484,-5331.599,0.055039963708817696,0.0,0.0,0.0,0.0,0.008399876672568501,0.7615126722804493,0.3976136767289146,0.4615466068311035,-0.005633359285569275,0.009251362703688412,0.08359226692116442
5505,9.0,300.00177,-5277.5877,0.05504997338351525,0.0,0.0,0.0,0.0,0.008401404290454217,0.7667158736639653,0.3820876961091197,0.45545131979454556,-0.016027310424772383,0.006243045144315584,0.07287970253041663
5506,9.0,299.87703,-5189.173,0.0550599830582128,0.0,0.0,0.0,0.0,0.008402931908339933,0.7353287292912953,0.38702926618431466,0.45502101274207757,-0.017696662256024585,0.005175788915310595,0.08277031438704402
5507,9.0,300.03409,-5177.2437,0.055069959697680027,0.0,0.0,0.0,0.0,0.008404454484582463,0.7338664168794763,0.38003680697921266,0.4598495952986215,0.011049541989754889,0.015654782946006786,0.07235363219774753
5508,9.0,299.76568,-5320.8665,0.05507996937237758,0.0,0.0,0.0,0.0,0.008405982102468207,0.7519498812816753,0.3949406216401046,0.4705200611742146,0.008501460965628873,0.016724090094539186,0.08009578096633813
5509,9.0,300.03753,-5273.6304,0.05508997904707513,0.0,0.0,0.0,0.0,0.00840750972035395,0.7660259010083702,0.38655575414758264,0.4504702836279556,0.001007148500415318,-0.0002640662699013118,0.08028056130757452
5510,9.0,300.34406,-5049.974,0.055099988721772464,0.0,0.0,0.0,0.0,0.008409037338239639,0.7318023554982692,0.3738028566664696,0.42946076571947756,-0.0029365255473875074,-0.00986618584176673,0.09185421704405541
5511,9.0,300.12708,-5203.6181,0.05510996536123991,0.0,0.0,0.0,0.0,0.008410559914482196,0.7540045093044513,0.38105670399986863,0.44670874461922055,0.004351645937124016,0.0023909565337690377,0.08364272373639411
5512,9.0,299.73597,-5349.5652,0.05511997503593746,0.0,0.0,0.0,0.0,0.008412087532367912,0.7598315282445333,0.3947462802709246,0.4715564336414965,0.018087725118869483,0.001698494322678338,0.07791818693792633
5513,9.0,299.98257,-5170.018,0.055129984710634794,0.0,0.0,0.0,0.0,0.008413615150253628,0.7296419340325523,0.37935450462687464,0.46255992785861055,0.011895944248788289,-0.0036070740972404965,0.07088557972411202
5514,9.0,299.17915,-5160.1992,0.05513996135010224,0.0,0.0,0.0,0.0,0.008415137726496158,0.7283080105409043,0.37970541340150665,0.4605582826835635,0.0035934157898675264,-0.013166911471972988,0.08170416655232342
5515,9.0,299.48568,-5261.0591,0.05514997102479979,0.0,0.0,0.0,0.0,0.008416665344381902,0.7577636671754512,0.37315281619731566,0.46831412451400556,0.0058591732161053746,0.01145162293418719,0.06807833283180834
5516,9.0,300.22812999999996,-5296.5433,0.055159980699497346,0.0,0.0,0.0,0.0,0.008418192962267645,0.7679383801746172,0.3802599955787397,0.46181853276044055,0.00982607187825779,0.00995765314419385,0.09166478993786041
5517,9.0,299.64951,-5364.8484,0.05516999037419468,0.0,0.0,0.0,0.0,0.008419720580153334,0.7767662406108592,0.38791146251638065,0.46610225020821056,-0.016185050160590086,0.006149583968341684,0.06420888775367384
5518,9.0,300.57993999999997,-5222.9944,0.05517996701366212,0.0,0.0,0.0,0.0,0.008421243156395891,0.7581742462484723,0.36610261186901466,0.4633830213123436,-0.014404325931346286,-0.008087189001293413,0.07369540027166972
5519,9.0,300.28635,-5157.6323,0.055189976688359677,0.0,0.0,0.0,0.0,0.008422770774281607,0.7256149944251243,0.37910268157952165,0.4630737571168216,-0.006037691773048785,0.006216140821035334,0.048443058676207656
5520,9.0,300.09636,-5246.4281,0.05519998636305723,0.0,0.0,0.0,0.0,0.008424298392167351,0.7468819183890063,0.3778474673556416,0.4700537533456936,0.008052630485432753,0.0076238570883161135,0.07062503563314834
5521,9.0,300.40834,-5429.3771,0.055209963002524454,0.0,0.0,0.0,0.0,0.008425820968409853,0.7620792108088623,0.3895928092023166,0.4987230367101316,-0.0034133335853697966,-0.0033607373938789567,0.06270704338920334
5522,9.0,300.65886,-5355.0188,0.05521997267722201,0.0,0.0,0.0,0.0,0.008427348586295597,0.7596607449401782,0.3965209472910706,0.4716102980168126,0.012368998296475088,-0.009114700596450913,0.09309443921945582
5523,9.0,299.7712,-5178.8494,0.05522998235191956,0.0,0.0,0.0,0.0,0.00842887620418134,0.7420804301401364,0.38232307410734967,0.44983739748299456,0.0021658027356730876,0.015200491250421685,0.08863897689298592
5524,9.0,300.3122,-5241.1798,0.055239958991387006,0.0,0.0,0.0,0.0,0.00843039878042387,0.7581040077515403,0.3789894306158446,0.45609433844050656,0.02757854901604087,0.01916519906320788,0.09330196499893702
5525,9.0,299.65512,-5371.7105,0.05524996866608434,0.0,0.0,0.0,0.0,0.008431926398309558,0.7637665762003923,0.38909980223366064,0.47999948195476055,-0.0026457417164643775,-0.0013510809569163087,0.08096433287255751
5526,9.0,299.73332,-5146.1862,0.05525997834078189,0.0,0.0,0.0,0.0,0.008433454016195302,0.7329009415216914,0.37244800956025664,0.4589631433161355,-0.005687288508891675,-0.003759639975397577,0.07606641259842042
5527,9.0,300.18451,-5117.3682,0.05526998801547944,0.0,0.0,0.0,0.0,0.008434981634081046,0.7233223640863593,0.36481745610467964,0.46741234205750654,-0.009087367060428302,9.233470125472551e-05,0.07158160857555473
5528,9.0,299.80495,-5278.9046,0.05527996465494667,0.0,0.0,0.0,0.0,0.008436504210323548,0.7444142288304644,0.39141036709919563,0.46883058822247653,-0.005413674910188115,0.00044515260524814157,0.07765589195078983
5529,9.0,300.49335,-5124.5817,0.05528997432964422,0.0,0.0,0.0,0.0,0.008438031828209291,0.7469734351380383,0.36187868630964565,0.44889275454726557,-0.020357768086405284,-0.008219189955420893,0.09034388063049681
5530,9.0,300.62931000000003,-5231.1434,0.05529998400434177,0.0,0.0,0.0,0.0,0.008439559446095035,0.7413835268538573,0.39217733662988963,0.45657609833305257,-0.006007210575590525,-0.01007974897064377,0.09185810387143901
5531,9.0,300.51328,-5332.7688,0.05530996064380922,0.0,0.0,0.0,0.0,0.008441082022337565,0.7711999511865093,0.37377949111916364,0.4760491136573896,0.01066260609456729,0.016150400046920383,0.07209322996179784
5532,9.0,300.94219,-5171.5833,0.05531997031850655,0.0,0.0,0.0,0.0,0.008442609640223253,0.7433645726543713,0.3691096139257827,0.4595580021848436,0.018441386894023182,0.01979139066475818,0.06454388343548534
5533,9.0,300.11159,-5219.4649,0.055329979993204104,0.0,0.0,0.0,0.0,0.008444137258108997,0.7596723669188252,0.3755682423156997,0.4513463903269206,0.00940348619685183,0.006726689378072554,0.06774824128048083
5534,9.0,299.93708,-5435.4441,0.05533998966790166,0.0,0.0,0.0,0.0,0.00844566487599474,0.7758336857488233,0.38603017118821165,0.49037542642378656,-0.005612249030335854,-0.008708552668767232,0.06812977148638494
5535,9.0,300.21103,-5355.2712,0.0553499663073691,0.0,0.0,0.0,0.0,0.00844718745223727,0.7788036433819352,0.38622643773258164,0.46283865269611857,0.0019410821019948885,0.00031568849499852866,0.07481448535786484
5536,9.0,299.83833,-5241.2518,0.055359975982066434,0.0,0.0,0.0,0.0,0.008448715070122986,0.7495799196952783,0.3756685236780966,0.4679612399016786,0.0047212821067292654,-0.0005379268888467504,0.08242519025723292
5537,9.0,300.3478,-5308.5414,0.05536998565676399,0.0,0.0,0.0,0.0,0.00845024268800873,0.7681043201434943,0.38200011077047563,0.46355961053977157,-0.012099799023157188,-0.013433293910012887,0.07282084688510802
5538,9.0,299.68747,-5223.0327,0.05537996229623121,0.0,0.0,0.0,0.0,0.00845176526425126,0.7434031977481833,0.37675138405996667,0.4675169398653295,-0.0059556069638976444,-0.01768774869489488,0.07685566552531363
5539,9.0,299.23503999999997,-5198.3239,0.055389971970928764,0.0,0.0,0.0,0.0,0.008453292882136948,0.7367394064780184,0.38110930181255964,0.46231196529413854,-0.0017337257379304084,0.0037901114456548764,0.08018457713885163
5540,9.0,299.93846,-5236.7169,0.05539998164562632,0.0,0.0,0.0,0.0,0.008454820500022692,0.7391998512983453,0.38588808312668865,0.46674323222147057,-0.0008950364906457242,0.015436198554934185,0.08529158663737423
5541,9.0,300.70544,-5294.0725,0.05540995828509354,0.0,0.0,0.0,0.0,0.008456343076265221,0.7599370886399514,0.3937607324286586,0.45556803607356455,-0.006050122223950574,-0.007632605388354503,0.09575190241572701
5542,9.0,300.26158,-5257.3857,0.055419967959791094,0.0,0.0,0.0,0.0,0.008457870694150965,0.7421345376954763,0.39564129421675565,0.46033814396683753,-0.001999217022507358,-0.002994837178717417,0.0916064692886046
5543,9.0,301.24055,-5293.5045,0.055429977634488425,0.0,0.0,0.0,0.0,0.008459398312036681,0.7683862772488212,0.38615670586069967,0.4545501959506116,-0.0004559513283213925,0.016119145334335786,0.07854093348913663
5544,9.0,300.02479,-5415.3587,0.0554399873091862,0.0,0.0,0.0,0.0,0.008460925929922453,0.7698220526405213,0.3944303590222456,0.48188141163049253,0.005105857331833885,0.01975351233626988,0.06731637179635863
5545,9.0,299.78086,-5209.9965,0.055449963948653425,0.0,0.0,0.0,0.0,0.008462448506164955,0.7493635502689243,0.37350847711491664,0.46083680487105155,-0.009377760384762892,-0.00972238974455016,0.06475392308846463
5546,9.0,300.0718,-5128.4619,0.05545997362335098,0.0,0.0,0.0,0.0,0.00846397612405067,0.7342246109223273,0.3814425699029506,0.44325717908107753,-0.013915957621648087,-0.005976463906606064,0.08030488133647472
5547,9.0,300.43122999999997,-5284.3954,0.05546998329804831,0.0,0.0,0.0,0.0,0.008465503741936387,0.7664075619235372,0.3643475005757987,0.4755691877475245,0.010677448182032092,-0.0026545395644326573,0.06983050265998403
5548,9.0,299.86851,-5427.5507,0.05547995993751598,0.0,0.0,0.0,0.0,0.008467026318178944,0.7600967363257073,0.4071112650837536,0.48263189558205954,0.005672170513424645,0.011805984865159989,0.08682249709421332
5549,9.0,300.13093,-5349.3854,0.05548996961221331,0.0,0.0,0.0,0.0,0.00846855393606466,0.7760201642972272,0.3858300644259626,0.4642293587233705,0.01009265362259236,0.002023982982776568,0.07598406170979304
5550,9.0,299.67051000000004,-5294.9356,0.05549997928691064,0.0,0.0,0.0,0.0,0.008470081553950376,0.7799174990843643,0.3687943918196726,0.46081633721903154,3.6682140135745366e-05,0.0008679121705037621,0.07736695152577362
5551,9.0,300.68876,-5178.2464,0.055509988961608414,0.0,0.0,0.0,0.0,0.008471609171836147,0.7504042898441373,0.37353643268517567,0.45011689239057856,0.011332942976474388,0.00906217776426731,0.06016399943397445
5552,9.0,300.1139,-5219.6255,0.05551996560107564,0.0,0.0,0.0,0.0,0.00847313174807865,0.7619239403635383,0.3609580877987897,0.4637537897889356,-0.008391740165300273,0.008931530410948423,0.07203072560287913
5553,9.0,299.97145,-5393.4624,0.05552997527577319,0.0,0.0,0.0,0.0,0.008474659365964365,0.7733468964258963,0.38409227970945664,0.4820387288410185,0.0009674896381887932,-0.014848390893672087,0.07799736027424013
5554,9.0,299.41128,-5263.1726,0.055539984950470744,0.0,0.0,0.0,0.0,0.00847618698385011,0.7446045577292483,0.3829100296252776,0.47235846162565054,-0.00891556128539739,-0.004128808935381716,0.07651418402961203
5555,9.0,300.05273,-5053.9662,0.05554996158993819,0.0,0.0,0.0,0.0,0.008477709560092639,0.7233707670436363,0.3667815400985197,0.44612722012182854,0.004093485517020566,-0.0019184688928881384,0.08138809128962922
5556,9.0,300.20472,-5187.4092,0.05555997126463552,0.0,0.0,0.0,0.0,0.008479237177978355,0.7337318977962003,0.38152748026133065,0.46158349926724457,0.001985935846821608,0.005911900218184125,0.08218836837761041
5557,9.0,300.1148,-5399.5951,0.055569980939333075,0.0,0.0,0.0,0.0,0.008480764795864099,0.7723410734491293,0.3998648955360926,0.4691361033926285,-0.008516693255707182,2.069631014356678e-05,0.08167975229116392
5558,9.0,300.33123,-5180.1257,0.05557999061403063,0.0,0.0,0.0,0.0,0.008482292413749842,0.7401548597825973,0.37022572917593466,0.46424828623523856,-0.0034103622294515464,0.0009642366595377491,0.08107200082818351
5559,9.0,300.76925,-5071.1157,0.055589967253498074,0.0,0.0,0.0,0.0,0.008483814989992372,0.7152670967188663,0.3888909713880506,0.43733448906655353,0.003661267576188976,-0.0044354184156417155,0.09057643166094782
5560,9.0,300.44272,-5244.7554,0.055599976928195405,0.0,0.0,0.0,0.0,0.00848534260787806,0.7379086464309134,0.37523667648547665,0.4811293470087696,0.005365237907707755,0.012380448022605088,0.07121353129122833
5561,9.0,300.38625,-5397.5254,0.05560998660289296,0.0,0.0,0.0,0.0,0.008486870225763804,0.7801428357741033,0.38883420911744865,0.47173590049920855,0.006336196671058924,-0.007742229017998513,0.08815569408553961
5562,9.0,300.05231000000003,-5489.7769,0.055619963242360404,0.0,0.0,0.0,0.0,0.008488392802006334,0.7710898514306432,0.4080803172143916,0.48958492922577057,-0.006662075128470623,-0.007492638160615812,0.08215528474859533
5563,9.0,299.94305,-5348.8964,0.055629972917057735,0.0,0.0,0.0,0.0,0.00848992041989205,0.7883688661809493,0.3746082891709596,0.4629537781724805,-0.002020164549774718,-0.006993263117731334,0.06588416304501064
5564,9.0,299.79123,-5169.5247,0.05563998259175529,0.0,0.0,0.0,0.0,0.008491448037777793,0.7329462338011613,0.38179010455474965,0.45667008741232856,-0.0003358947892877347,0.008400754139514882,0.06532016777434864
5565,9.0,299.96064,-5291.7126,0.055649959231222734,0.0,0.0,0.0,0.0,0.008492970614020323,0.7546773782983582,0.3914871410592726,0.46238398711124656,0.012240480693541387,-0.0011881184234581589,0.07613726107191263
5566,9.0,299.83555,-5527.9259999999995,0.05565996890592029,0.0,0.0,0.0,0.0,0.008494498231906067,0.7695352927297202,0.4011773077281176,0.5096388813624415,0.003527826185719337,-0.0009963230680694309,0.05631743354309795
5567,9.0,300.42183,-5351.1748,0.05566997858061762,0.0,0.0,0.0,0.0,0.008496025849791755,0.7614955990162643,0.39449658504878166,0.47063134643269755,0.003944905359456846,-0.0053106270710430855,0.07115308281676253
5568,9.0,300.19405,-5088.5932,0.05567998825531517,0.0,0.0,0.0,0.0,0.008497553467677499,0.7316348145942343,0.3600244690241487,0.45514597687691055,0.0028547672074185878,0.018669750161810883,0.07675208400734093
5569,9.0,300.43422999999996,-5100.8397,0.055689964894782396,0.0,0.0,0.0,0.0,0.008499076043920029,0.7564841450816723,0.35956802011910066,0.4344757254994156,-0.01043512030136619,0.0013746619211935688,0.08488342923209222
5570,9.0,300.55772,-5280.516,0.05569997456947995,0.0,0.0,0.0,0.0,0.008500603661805772,0.7647711934095403,0.37304768136693967,0.46732614487149954,-0.01088164239518449,0.005221477882194746,0.07206911359616773
5571,9.0,300.39196,-5323.8367,0.0557099842441775,0.0,0.0,0.0,0.0,0.008502131279691488,0.7609027767802573,0.38502270674628264,0.4723879168060576,-0.0035635878347487367,-0.003971494257980966,0.0988556303402911
5572,9.0,300.09761000000003,-5253.2991,0.05571996088364495,0.0,0.0,0.0,0.0,0.008503653855934046,0.7464314881895523,0.3764314300758897,0.47400884338853055,-0.0012975275480559987,0.015054793992042487,0.08090116787457362
5573,9.0,300.14858,-5212.3533,0.05572997055834228,0.0,0.0,0.0,0.0,0.008505181473819762,0.7467951233854403,0.38015693791106864,0.4574731894415886,0.012066243219595488,-0.013118817555976487,0.09581240661894831
5574,9.0,299.97827,-5222.8681,0.05573998023303961,0.0,0.0,0.0,0.0,0.00850670909170545,0.7465460259808563,0.3819454357950796,0.4591300256076055,-0.014189276769872586,-0.023169196661871682,0.06970591545418822
5575,9.0,299.69417000000004,-5330.9496,0.05574998990773716,0.0,0.0,0.0,0.0,0.008508236709591194,0.7685552164379943,0.39785556992528764,0.4540647782252045,-0.0037356823860581465,-0.017168702211918983,0.093383825474516
5576,9.0,299.53097,-5387.0971,0.05575996654720461,0.0,0.0,0.0,0.0,0.008509759285833723,0.7648345418057924,0.39276859846074264,0.4799398521863755,-0.003483392635709087,0.0016108551804540285,0.06292077025929654
5577,9.0,299.82289,-5158.1522,0.05576997622190216,0.0,0.0,0.0,0.0,0.008511286903719467,0.7415576437510413,0.38219961971516564,0.44419220627335754,0.002213686908898888,-0.0007996092953702933,0.0942287352161521
5578,9.0,299.99419,-5108.5825,0.05577998589659949,0.0,0.0,0.0,0.0,0.008512814521605183,0.7225370445963544,0.37271314671392364,0.4576313273846956,-0.010819453157046889,-0.00012036887337698289,0.07539092536625502
5579,9.0,299.9115,-5288.6624,0.05578996253606716,0.0,0.0,0.0,0.0,0.00851433709784774,0.7625119091315662,0.37722222111643466,0.4678872017168716,0.02160518231101548,-0.0018603940581065981,0.08172914620703872
5580,9.0,300.11787000000004,-5427.9039,0.05579997221076449,0.0,0.0,0.0,0.0,0.008515864715733457,0.7821570655153923,0.37935152567158065,0.4884386596526425,0.011863241601810789,0.01094257418994799,0.07770450667733772
5581,9.0,300.44251,-5326.9098,0.055809981885462046,0.0,0.0,0.0,0.0,0.008517392333619173,0.7868894501074423,0.37644527107225567,0.45591282481759254,0.009509013965616611,-0.004670605314902856,0.08689185102380802
5582,9.0,300.71862999999996,-5262.0,0.05581995852492949,0.0,0.0,0.0,0.0,0.00851891490986173,0.7689607799230203,0.3654272705448636,0.4651285573921146,-0.016813313858594883,-0.0023279759473033377,0.06660995105189034
5583,9.0,300.7253,-5274.3367,0.055829968199627045,0.0,0.0,0.0,0.0,0.008520442527747446,0.7621167415925663,0.3767698860067926,0.46438002901324055,-0.01027110145467879,0.0034939697508529666,0.07372741188207903
5584,9.0,300.14875,-5355.4462,0.055839977874324376,0.0,0.0,0.0,0.0,0.008521970145633162,0.7618811508118153,0.3790710580439006,0.48696969018766656,-0.008769958157952482,0.018540500992304983,0.05976169050826964
5585,9.0,300.3857,-5395.5708,0.05584998754902171,0.0,0.0,0.0,0.0,0.008523497763518878,0.7684369194888192,0.39716995424512264,0.4745119220631806,-0.005605190932789275,-0.006672474519546964,0.07307608965154852
5586,9.0,300.43527,-5310.111999999999,0.055859964188489375,0.0,0.0,0.0,0.0,0.008525020339761435,0.7637445785407212,0.38297421901911266,0.46742265694352453,-0.010047477765558852,-0.0005965259893625314,0.05830764520401654
5587,9.0,299.311,-5178.8547,0.055869973863186706,0.0,0.0,0.0,0.0,0.008526547957647151,0.7589454410320833,0.38065050216727964,0.43464655946627556,0.015988393514931584,-0.005842678315077454,0.08616131695345992
5588,9.0,299.49323,-5263.6099,0.05587998353788426,0.0,0.0,0.0,0.0,0.008528075575532867,0.7524735897283612,0.38457723133981764,0.46295515619261657,0.014576997933887685,-0.0008169834847024922,0.07968311358486102
5589,9.0,299.61266,-5476.3297,0.055889960177351705,0.0,0.0,0.0,0.0,0.008529598151775425,0.7782057346304263,0.4015041416803736,0.4849576085365896,0.014388393586773886,-0.005320415674959145,0.0993977434617935
5590,9.0,299.84719,-5331.005999999999,0.05589996985204926,0.0,0.0,0.0,0.0,0.008531125769661141,0.7432186747724723,0.3874737992681866,0.48980024487202056,-0.005456671367581535,-8.544716004447811e-05,0.0933981386454286
5591,9.0,300.54532,-5048.1514,0.05590997952674659,0.0,0.0,0.0,0.0,0.008532653387546857,0.7290577649523993,0.3652274373601417,0.4402267810795006,0.005042436893499775,0.01114449264337579,0.10394226540580291
5592,9.0,300.58934,-5064.2626,0.05591998920144414,0.0,0.0,0.0,0.0,0.0085341810054326,0.7396805270132842,0.35210760148781467,0.4476212371292766,-0.008898910546504091,0.01919324582597588,0.07662027638133252
5593,9.0,299.56629,-5268.0624,0.05592996584091159,0.0,0.0,0.0,0.0,0.00853570358167513,0.7682988540301933,0.3880756596950856,0.44498490222409054,-0.008055918279357232,-0.00944145409664897,0.08760286280447942
5594,9.0,300.22558,-5246.9354,0.05593997551560914,0.0,0.0,0.0,0.0,0.008537231199560874,0.7580391698776412,0.37392398058342363,0.46297418502949456,-0.017347234853038785,-0.010103307035468771,0.07411988518906314
5595,9.0,299.91359,-5296.7556,0.05594998519030647,0.0,0.0,0.0,0.0,0.008538758817446562,0.7650239486469852,0.3902379556734876,0.45481953809219355,-0.01078166500781749,-0.0009799284382714071,0.07997014808643912
5596,9.0,299.62881,-5286.8413,0.05595996182977392,0.0,0.0,0.0,0.0,0.008540281393689148,0.7448798983114223,0.38476076133043063,0.4774270729983835,0.011870738639300688,0.004757920521070195,0.06647984264629964
5597,9.0,300.06658,-5271.3428,0.05596997150447147,0.0,0.0,0.0,0.0,0.008541809011574836,0.7525870433420583,0.38412624385280864,0.4656432884429146,0.001052037111177979,-0.00011187501057120389,0.07724259432775053
5598,9.0,300.11958,-5501.2864,0.0559799811791688,0.0,0.0,0.0,0.0,0.008543336629460552,0.7816933921371313,0.4042244142238436,0.4863359123826176,-0.0001893049487629438,0.000994215588921439,0.06985350951675463
5599,9.0,299.96671000000003,-5489.1849,0.05598995781863625,0.0,0.0,0.0,0.0,0.00854485920570311,0.7937919327036642,0.38867852323958363,0.48610468870979756,-0.00016843457035819784,-0.008909899446488612,0.06873232294985214
5600,9.0,300.64866,-5132.3801,0.0559999674933338,0.0,0.0,0.0,0.0,0.008546386823588825,0.7432745048529823,0.3614727884520867,0.4553680914313316,0.013602171290929789,0.000979482658889912,0.07912737832901422
5601,9.0,300.55217999999996,-5088.5808,0.05600997716803113,0.0,0.0,0.0,0.0,0.008547914441474569,0.7468757983584022,0.3547181390454547,0.4452075740660666,0.006008968463189014,-0.006482235901346874,0.07722198583396662
5602,9.0,300.07638,-5383.3087,0.056019986842728686,0.0,0.0,0.0,0.0,0.008549442059360257,0.7669910723911253,0.3816642183623256,0.4877361429608095,0.013292327516350589,-0.0044922723853777664,0.07646092253810552
5603,9.0,299.96822000000003,-5395.2647,0.05602996348219613,0.0,0.0,0.0,0.0,0.008550964635602842,0.7738935448548463,0.4008738595881696,0.4652583547299246,-0.0010694145530429989,0.007497350786830914,0.09176765002176192
5604,9.0,299.61295,-5210.0802,0.05603997315689346,0.0,0.0,0.0,0.0,0.00855249225348853,0.7495425408990893,0.37315738595526665,0.46103435824304856,-0.006760950707678884,0.0026214742752443676,0.08145678863315912
5605,9.0,299.69428999999997,-5227.9315,0.056049982831591016,0.0,0.0,0.0,0.0,0.008554019871374274,0.7483245838813863,0.3913211200303876,0.4495149205061686,-0.003385029355751387,0.0011566323858757288,0.08037057034045772
5606,9.0,299.7756,-5306.7614,0.05605995947105846,0.0,0.0,0.0,0.0,0.008555542447616804,0.7457227298771033,0.40059497263064564,0.4668052532600916,-0.013744570420233486,0.003665205268727596,0.08050402044487823
5607,9.0,299.89513999999997,-5372.5701,0.056069969145756016,0.0,0.0,0.0,0.0,0.008557070065502548,0.7504103693447373,0.3907831551547946,0.4919336429575705,-0.006169736803555615,0.005372240681798875,0.08387490999680912
5608,9.0,299.98733,-5411.481,0.05607997882045335,0.0,0.0,0.0,0.0,0.008558597683388264,0.7398891045463692,0.4122355545494816,0.4928304402235775,-0.010143948699629791,0.0012776210339413788,0.09059616470664532
5609,9.0,300.32826,-5230.5552,0.05608998849515068,0.0,0.0,0.0,0.0,0.008560125301273952,0.7508607995441913,0.37052481020795164,0.46857257421701254,0.007614589801576502,0.0023803814451253576,0.07489533359659394
5610,9.0,300.7265,-5118.862,0.056099965134618346,0.0,0.0,0.0,0.0,0.008561647877516537,0.7365648640157924,0.3681944464354626,0.45124690943210255,0.002286826442192198,-0.0029958424241416275,0.08403186547704942
5611,9.0,299.99052,-5421.7302,0.05610997480931568,0.0,0.0,0.0,0.0,0.008563175495402225,0.7815249393080063,0.39190394148790764,0.4746416991359885,0.015289119223418586,-0.002023496926703598,0.060043486506830744
5612,9.0,299.35562000000004,-5560.731,0.05611998448401323,0.0,0.0,0.0,0.0,0.00856470311328797,0.7960733767613253,0.39019416300416565,0.5040558226489364,-0.010684001883678889,-0.012617145272465288,0.07182267394659603
5613,9.0,299.97844,-5303.2291,0.056129961123480676,0.0,0.0,0.0,0.0,0.008566225689530499,0.7657539142840273,0.38595854453864264,0.46033678621170354,0.005230624085547405,-0.0023118881701655975,0.07032812295634534
5614,9.0,300.04041,-5288.6317,0.05613997079817823,0.0,0.0,0.0,0.0,0.008567753307416243,0.7505799975439783,0.3871277540940346,0.46990420776343456,-0.004971692176817815,-0.015801950430281087,0.08332859695364223
5615,9.0,300.20811000000003,-5461.3240000000005,0.05614998047287556,0.0,0.0,0.0,0.0,0.008569280925301959,0.7844185485460833,0.3989531224336076,0.4767344760250295,0.003301883673745547,0.0038937486923830765,0.06478457289073954
5616,9.0,300.49554,-5351.8808,0.05615999014757311,0.0,0.0,0.0,0.0,0.008570808543187675,0.7478871232832123,0.4080859711499496,0.4708650323032606,-0.017022298718220086,-0.004081483265611036,0.08442893387323702
5617,9.0,300.53799,-5309.6001,0.05616996678704056,0.0,0.0,0.0,0.0,0.008572331119430232,0.7609312187105642,0.3805087079482856,0.47254594329165356,-0.0024621201280423375,0.01122867244843369,0.06512169639776104
5618,9.0,300.47952999999995,-5298.984,0.05617997646173811,0.0,0.0,0.0,0.0,0.008573858737315948,0.7499140490482543,0.3930351541645496,0.46780963742171655,-0.005487546415353665,0.01165661660166849,0.08318772681873943
5619,9.0,300.98565,-5100.4014,0.056189986136435444,0.0,0.0,0.0,0.0,0.008575386355201664,0.7353284151837644,0.36278339705893364,0.45228286646684357,0.014445785085687987,0.01146852191935499,0.06647470749479284
5620,9.0,299.58952,-5258.9873,0.05619996277590289,0.0,0.0,0.0,0.0,0.008576908931444194,0.7427578992894973,0.3785626902037286,0.47728023279389153,0.015246072306170184,-0.0026994733560172777,0.08595966701130861
5621,9.0,299.47468,-5617.6137,0.05620997245060044,0.0,0.0,0.0,0.0,0.008578436549329937,0.7981175987055742,0.3995813678931106,0.5099153466522265,-0.006777845133221233,0.0015216636377515086,0.07183726576128613
5622,9.0,299.59102,-5457.3725,0.056219982125297774,0.0,0.0,0.0,0.0,0.008579964167215653,0.7787546628721013,0.40044036079788664,0.4797099356061845,0.01126780518054579,-0.017244700022419384,0.10173039110000791
5623,9.0,300.06346,-5288.7305,0.05622995876476522,0.0,0.0,0.0,0.0,0.008581486743458183,0.7613801391673692,0.3889547858793487,0.45730709748519655,-0.008163070389357322,-0.004182880419018156,0.06941200098443114
5624,9.0,300.43587,-5292.0475,0.05623996843946277,0.0,0.0,0.0,0.0,0.0085830143613439,0.7502905727854143,0.39381993663200165,0.4645397780240066,0.0026433757774808773,-0.0007992972447369963,0.09917054948462121
5625,9.0,300.73495,-5300.144,0.056249978114160326,0.0,0.0,0.0,0.0,0.008584541979229643,0.7561453345132343,0.37559019944536665,0.4793758974457175,-0.011398915690485388,-0.005687551852592665,0.056143100823642655
5626,9.0,300.02539,-5244.4097,0.05625998778885766,0.0,0.0,0.0,0.0,0.008586069597115359,0.7415612813189002,0.39315828431670163,0.4594500403866885,0.0013613815561078985,-0.010602271104112689,0.09795489457114541
5627,9.0,300.08299999999997,-5228.2866,0.0562699644283251,0.0,0.0,0.0,0.0,0.008587592173357889,0.7566564482611773,0.36913100363539364,0.46348112418702553,0.0024040640383876477,0.0008996007263836792,0.06306025933431304
5628,9.0,299.65108,-5202.3116,0.056279974103022656,0.0,0.0,0.0,0.0,0.008589119791243632,0.7444581532222992,0.37291793469163464,0.46399673676541253,0.019159727512667882,-0.008725010079541452,0.089524426771123
5629,9.0,299.6386,-5279.7353,0.05628998377772021,0.0,0.0,0.0,0.0,0.008590647409129376,0.7614583823400913,0.3727740734424366,0.4706752606920315,-0.011422555828568489,0.02056837718594078,0.053804329101823846
5630,9.0,300.47118,-5514.5179,0.056299960417187433,0.0,0.0,0.0,0.0,0.008592169985371878,0.7812039214113242,0.3970813049938736,0.4979905075503365,-0.007498169492911712,0.001797062583131268,0.07968913836995563
5631,9.0,300.62101,-5564.6868,0.05630997009188499,0.0,0.0,0.0,0.0,0.008593697603257594,0.8036167299132962,0.3878025887931356,0.5001065182641705,-0.006003120388911855,0.01044694290353299,0.05653298122362085
5632,9.0,300.23787999999996,-5268.0928,0.05631997976658254,0.0,0.0,0.0,0.0,0.008595225221143338,0.7542898810626153,0.3846773911122026,0.4624013947479646,0.01186602297333529,0.0021032690938264983,0.08221249892874193
5633,9.0,300.65443,-5214.9917,0.05632998944127987,0.0,0.0,0.0,0.0,0.008596752839029054,0.7547541421259343,0.36958026859723264,0.46089283760158156,0.0038013397766380264,-0.01081197739780909,0.07344710637441502
5634,9.0,300.00749,-5491.061,0.056339966080747095,0.0,0.0,0.0,0.0,0.008598275415271583,0.7942604291524012,0.40501146637151964,0.46987354681540855,0.016007749631591885,-0.025210201537053178,0.08200438343770251
5635,9.0,299.78197,-5371.7329,0.05634997575544465,0.0,0.0,0.0,0.0,0.008599803033157327,0.7759396210467783,0.38260463604513767,0.47432843260257157,-0.01009770842336623,-0.004906715791630146,0.07592422017213712
5636,9.0,299.81188,-5051.5338,0.0563599854301422,0.0,0.0,0.0,0.0,0.008601330651043071,0.7194974260188673,0.37107295824704967,0.4449697541350956,0.00896194726702533,-0.0052030133242974355,0.0927954260751955
5637,9.0,299.70641,-5114.6542,0.056369962069609425,0.0,0.0,0.0,0.0,0.008602853227285573,0.7227430586066863,0.3682538228913227,0.4637302823866156,-0.012919740255829088,0.008617874485517991,0.07772143606000852
5638,9.0,299.50743,-5361.5328,0.05637997174430698,0.0,0.0,0.0,0.0,0.008604380845171289,0.7549895302566653,0.39105197040632467,0.48373060319549355,-0.0016674014261347082,0.007309428357034413,0.08807535753811101
5639,9.0,299.97935,-5472.3111,0.05638998141900453,0.0,0.0,0.0,0.0,0.008605908463057033,0.7679249444782913,0.4050877539715486,0.49043323234199154,-0.01125731804201079,0.018466237865975784,0.08742770935244311
5640,9.0,300.21969,-5444.1954,0.05639995805847198,0.0,0.0,0.0,0.0,0.008607431039299562,0.7766489974417883,0.4046072403766256,0.47364321208994553,0.0030581896279698174,0.007621051297464203,0.09766650940718401
5641,9.0,300.46347000000003,-5259.3885,0.05640996773316931,0.0,0.0,0.0,0.0,0.008608958657185278,0.7631866627706593,0.37836459980917864,0.45717151448931553,0.0025837112546174476,0.006107118352675655,0.06940763488975024
5642,9.0,300.47191000000004,-5257.8244,0.056419977407867083,0.0,0.0,0.0,0.0,0.00861048627507105,0.7477097335882052,0.3931905563323866,0.4573470296716376,-0.0075775000856410325,-0.011834386265462989,0.089377910806663
5643,9.0,299.97853,-5499.0829,0.056429987082564415,0.0,0.0,0.0,0.0,0.008612013892956766,0.7931860294088663,0.38882890981942564,0.4895689604041945,0.0002846810661008337,0.008190187292508554,0.06514168478248374
5644,9.0,299.77582,-5464.0384,0.05643996372203186,0.0,0.0,0.0,0.0,0.008613536469199295,0.7653481177514783,0.4037914220586106,0.49179168661856054,-0.006554993945977534,-0.0015455918428380385,0.07487954918653614
5645,9.0,300.02612,-5039.126,0.05644997339672919,0.0,0.0,0.0,0.0,0.008615064087084984,0.7286586660030113,0.36581586209071465,0.4372939691950546,0.003929574682793827,-0.006898587865487612,0.06147307094041973
5646,9.0,299.87023999999997,-5122.5761,0.056459983071426745,0.0,0.0,0.0,0.0,0.008616591704970727,0.7361443348267893,0.37795883367413263,0.4430320551738595,0.006151221583153304,-0.024111024788822877,0.0979786502197399
5647,9.0,299.84387000000004,-5439.922,0.05646995971089419,0.0,0.0,0.0,0.0,0.008618114281213257,0.7872137813319513,0.39131348012463363,0.47507318155857253,-0.002314883641436228,-0.002391717079294098,0.06994412143344733
5648,9.0,300.03072000000003,-5432.1482,0.05647996938559152,0.0,0.0,0.0,0.0,0.008619641899098973,0.7617276535541663,0.4015148010714256,0.4879949574338525,0.002228410547426998,-0.007513541814153843,0.08567538145725183
5649,9.0,299.98848,-5287.3729,0.0564899790602893,0.0,0.0,0.0,0.0,0.008621169516984745,0.7406561247395683,0.3901593983932346,0.4764138228983835,-0.00947473632268367,0.00909824348965172,0.06846803692626914
5650,9.0,300.68926,-5235.1477,0.05649998873498663,0.0,0.0,0.0,0.0,0.00862269713487046,0.7419047325727963,0.3826637389234706,0.46678569753316157,-0.00839294299449398,0.0035350922021864365,0.08137023478311692
5651,9.0,300.29299,-5394.0830000000005,0.056509965374454074,0.0,0.0,0.0,0.0,0.00862421971111299,0.7736131481546733,0.38654428415645065,0.47950912970136655,-0.0018911703139939783,0.012903580943234289,0.06997870872561084
5652,9.0,299.4025,-5466.8696,0.05651997504915163,0.0,0.0,0.0,0.0,0.008625747328998706,0.7851467004654463,0.3980727398192206,0.4785724103814195,-0.005836954262612535,0.009519494112725922,0.09038546238810061
5653,9.0,299.54467,-5435.2228,0.05652998472384918,0.0,0.0,0.0,0.0,0.00862727494688445,0.7751754987488653,0.3980189261064096,0.47897758883140756,-0.009490483546462801,-0.0005036157883955086,0.07728676899236023
5654,9.0,299.55518,-5282.0027,0.056539961363316404,0.0,0.0,0.0,0.0,0.008628797523126952,0.7583635517646553,0.3850816576371006,0.4621517299233246,-0.004244387435863426,-0.01071982635421449,0.07969707819773922
5655,9.0,299.73463,-5149.4442,0.05654997103801396,0.0,0.0,0.0,0.0,0.008630325141012696,0.7228232573521014,0.3831057794120966,0.45937340828162554,-0.0022420911463021677,0.0035573639460094865,0.0918063531358316
5656,9.0,299.72224,-5347.8134,0.05655998071271151,0.0,0.0,0.0,0.0,0.00863185275889844,0.7489034536635163,0.39830043738169263,0.4783978476541916,0.007279943589724493,-5.9477347198957146e-05,0.07950242373427832
5657,9.0,299.75649,-5587.4215,0.05656995735217896,0.0,0.0,0.0,0.0,0.00863337533514097,0.7696268196112532,0.4166640147740366,0.5121457938323545,0.008926039912631552,-9.094588493891001e-05,0.07355434775174893
5658,9.0,300.26952,-5381.5835,0.05657996702687629,0.0,0.0,0.0,0.0,0.008634902953026685,0.7515296763327043,0.4045234749908586,0.4798138444039396,-0.004319264997053266,0.0025323526467987477,0.08158209322002571
5659,9.0,300.02738999999997,-5259.7606,0.05658997670157384,0.0,0.0,0.0,0.0,0.008636430570912401,0.7585923436372353,0.3905553258698096,0.44968820653827063,-0.0016068480802835586,0.009537632910716081,0.07929340645064993
5660,9.0,300.0339,-5359.9331,0.056599986376271394,0.0,0.0,0.0,0.0,0.008637958188798145,0.7665595089085333,0.3900985729897316,0.47262773283972553,0.005549739402516635,0.0024820396117582375,0.06811679377910414
5661,9.0,300.2611,-5395.0703,0.05660996301573862,0.0,0.0,0.0,0.0,0.008639480765040647,0.7767997487916662,0.38902981704925366,0.4741371005861886,0.0005652344350042955,-0.0005350656934793725,0.06368023261999964
5662,9.0,300.48342,-5383.8304,0.05661997269043617,0.0,0.0,0.0,0.0,0.00864100838292639,0.7700179848123583,0.39589599489439264,0.47063603778066054,-0.0023860915147388977,-0.007671138580382432,0.07822378620783663
5663,9.0,299.90294,-5285.7589,0.056629982365133724,0.0,0.0,0.0,0.0,0.008642536000812134,0.7761498603100273,0.36969608308366264,0.4608927565415736,-0.002296493456096258,-0.008277010059127293,0.07436704323295572
5664,9.0,300.56527,-5217.6248,0.05663995900460095,0.0,0.0,0.0,0.0,0.008644058577054664,0.7535134579084882,0.38178778421202064,0.45072641298823357,0.01051288623329109,0.005120935911872025,0.08199362576139083
5665,9.0,299.81718,-5233.6461,0.0566499686792985,0.0,0.0,0.0,0.0,0.00864558619494038,0.7518889748181643,0.37821414230182965,0.4607946232693886,0.005698515725299714,-0.006987187670131734,0.08894442316213111
5666,9.0,300.2135,-5426.8306,0.056659978353996054,0.0,0.0,0.0,0.0,0.008647113812826096,0.7558251778791373,0.39395788050061564,0.4998379461926645,0.01276243824405459,0.001098939647706899,0.08577141628847973
5667,9.0,299.79297,-5413.0792,0.056669988028693385,0.0,0.0,0.0,0.0,0.00864864143071184,0.7615768616742843,0.39990683395773163,0.48395722671285957,-0.0053198579821041045,-0.0027209191996838173,0.07870967205478982
5668,9.0,299.75369,-5108.5876,0.05667996466816083,0.0,0.0,0.0,0.0,0.00865016400695437,0.7268592959454273,0.3674296452599827,0.45859414802721854,0.0039288673328990165,0.001167453086343649,0.07192328461527553
5669,9.0,299.62067,-5185.7925,0.05668997434285816,0.0,0.0,0.0,0.0,0.008651691624840085,0.7473376985489883,0.38647644706225565,0.4425372750175286,-0.0007070345207163743,0.0015637420905543283,0.07220276533735813
5670,9.0,300.62669,-5461.1247,0.056699984017555716,0.0,0.0,0.0,0.0,0.00865321924272583,0.7764527916924243,0.39059437652866363,0.49299837629515153,-0.0003265220130802137,0.01959174898430508,0.05935681603331165
5671,9.0,299.97272999999996,-5457.9308,0.05670996065702316,0.0,0.0,0.0,0.0,0.008654741818968359,0.7827514076265493,0.4080057724045346,0.4683174783718365,-0.0032944787406897365,0.011993705658186589,0.0877955799337491
5672,9.0,300.15826,-5280.1354,0.05671997033172049,0.0,0.0,0.0,0.0,0.008656269436854075,0.7557789128795712,0.37947301435857067,0.46977736911591655,-0.009476353165868241,0.012369951764819188,0.07014680894370103
5673,9.0,299.83199,-5328.9964,0.056729980006418046,0.0,0.0,0.0,0.0,0.008657797054739791,0.7767396529282352,0.3875770494533766,0.45556515844328055,0.0011138452659529689,-0.013409829064197088,0.09118593705985131
5674,9.0,300.2594,-5448.6936,0.0567399896811156,0.0,0.0,0.0,0.0,0.008659324672625535,0.7720167928871252,0.39545888893375364,0.48879112883242853,0.014868730876179487,-0.016352990285164484,0.07591458315043603
5675,9.0,299.27485,-5507.7403,0.056749966320583045,0.0,0.0,0.0,0.0,0.008660847248868064,0.8035377875980052,0.39898627597687963,0.47169145934982254,0.008667416741207431,-0.016854210659131084,0.10339265828656091
5676,9.0,299.69187,-5399.8227,0.056759975995280376,0.0,0.0,0.0,0.0,0.00866237486675378,0.7596592858600343,0.38947319502801164,0.4922787762066326,0.004558528201466705,-0.00954820273045924,0.07067059541064473
5677,9.0,299.11908999999997,-5154.8104,0.05676998566997793,0.0,0.0,0.0,0.0,0.008663902484639524,0.7350666724179323,0.3800603346465346,0.4518066490523445,0.005008251051025895,-0.01085024481433579,0.08876633736430542
5678,9.0,299.64736,-5140.2570000000005,0.056779962309445375,0.0,0.0,0.0,0.0,0.008665425060882054,0.7192186606513553,0.3726237881876046,0.4706673370762495,0.0015660625346083385,0.028368744265527074,0.07001704099014394
5679,9.0,300.00669,-5544.0075,0.05678997198414293,0.0,0.0,0.0,0.0,0.008666952678767798,0.7990744411725073,0.4029765764606916,0.48318881836702354,0.005431337581956285,0.014164852376212086,0.06972766588083483
5680,9.0,300.47854,-5626.3104,0.05679998165884026,0.0,0.0,0.0,0.0,0.008668480296653486,0.8014040450074212,0.4087090895639466,0.5001447481904435,-0.011131702387363489,0.004800944032241285,0.059922897585929544
5681,9.0,299.87455,-5283.1777,0.05680995829830793,0.0,0.0,0.0,0.0,0.008670002872896071,0.7827534442592503,0.3802092520137316,0.44299139344734656,-0.01045097361243079,-0.007177228197937274,0.07362046738702444
5682,9.0,300.03247999999996,-5259.887,0.05681996797300526,0.0,0.0,0.0,0.0,0.00867153049078176,0.7484929860480063,0.36684383471466764,0.4835374979914356,-0.003087229882460867,-0.004633353276301366,0.07153719883692183
5683,9.0,299.49751000000003,-5479.2564,0.05682997764770259,0.0,0.0,0.0,0.0,0.008673058108667475,0.7753578736343643,0.4014711603896186,0.48872810467620853,0.011332276257908589,-0.005487811886879864,0.09495076811816121
5684,9.0,300.23118999999997,-5425.6884,0.05683998732240014,0.0,0.0,0.0,0.0,0.008674585726553219,0.7622695599726483,0.38974715759004963,0.4972570765979525,-0.01865015897112738,-0.0032264297758988272,0.08488774466426813
5685,9.0,300.49814,-5286.0628,0.05684996396186759,0.0,0.0,0.0,0.0,0.008676108302795749,0.7669529539223633,0.37639299749959665,0.46348514678992253,0.006546084843148273,-0.008544869917138001,0.10627325739335389
5686,9.0,300.35389,-5154.0336,0.05685997363656514,0.0,0.0,0.0,0.0,0.008677635920681492,0.7423062430574223,0.37164537362604266,0.45274589136504056,-0.008404978176531762,0.0039420549856005365,0.08418947754335451
5687,9.0,300.01479,-5068.4097,0.05686998331126247,0.0,0.0,0.0,0.0,0.00867916353856718,0.7502833280471993,0.36621485971509266,0.42417180284749756,0.026418211478524474,0.007070606929664574,0.10214621880854691
5688,9.0,300.15233,-5338.4302,0.05687995995073014,0.0,0.0,0.0,0.0,0.008680686114809766,0.7510580894711623,0.38349572871308163,0.48819567214616155,0.006359660706274644,-0.007131833276232144,0.07513075516457823
5689,9.0,299.84993,-5566.4727,0.05688996962542747,0.0,0.0,0.0,0.0,0.008682213732695454,0.7875052933857212,0.4023831361421236,0.5021802764488346,0.01066712519001329,-0.005237382970339455,0.06385577516007435
5690,9.0,300.83859,-5339.6671,0.056899979300125025,0.0,0.0,0.0,0.0,0.008683741350581198,0.7397659845267184,0.3956178070794376,0.4877416651738546,-0.01051193580469729,-0.0049592361920135055,0.06498241605226515
5691,9.0,300.6437,-5312.6788,0.056909988974822356,0.0,0.0,0.0,0.0,0.008685268968466914,0.7546033299810503,0.40365543376268964,0.4566629439991236,0.0024415969499168573,-0.006943988968018353,0.08280448928641683
5692,9.0,299.77723,-5655.48,0.056919965614290025,0.0,0.0,0.0,0.0,0.008686791544709471,0.8134292262667142,0.4170633873009516,0.48863208909673256,-0.00950956527499602,0.00014697020447982986,0.07783033612775613
5693,9.0,300.17432,-5556.908,0.056929975288987356,0.0,0.0,0.0,0.0,0.008688319162595187,0.8123886893415213,0.39424489372394167,0.48252769294177555,-0.005041191203826835,-0.0048963570318828155,0.08349261073407913
5694,9.0,300.34713999999997,-5177.1985,0.05693998496368469,0.0,0.0,0.0,0.0,0.008689846780480875,0.7416295338456362,0.36715722283809665,0.4649523228022216,-0.014820065487126588,0.004293712754706456,0.08865194345451562
5695,9.0,299.79062999999996,-5142.1878,0.05694996160315213,0.0,0.0,0.0,0.0,0.00869136935672346,0.7230025012947913,0.3787152350062836,0.46137896460205857,0.002720481880940657,0.007898369743833402,0.08269623567223301
5696,9.0,299.54129,-5204.4278,0.056959971277849686,0.0,0.0,0.0,0.0,0.008692896974609149,0.7308040508372443,0.3721233743607177,0.4790886917048725,0.0017058018823995383,0.0072939338378302234,0.08130526113370451
5697,9.0,299.60132000000004,-5280.9186,0.05696998095254724,0.0,0.0,0.0,0.0,0.008694424592494893,0.7654929111907682,0.38034821926494666,0.45942626953934257,0.001797266145076358,-0.0037919751165638067,0.08321392845307533
5698,9.0,298.82417999999996,-5431.9194,0.05697995759201446,0.0,0.0,0.0,0.0,0.008695947168737422,0.7845238252314732,0.3970970306354256,0.4695470067056815,-0.016848583068075684,-0.01046163908298339,0.07397479993374433
5699,9.0,298.96162999999996,-5494.9081,0.056989967266712016,0.0,0.0,0.0,0.0,0.008697474786623166,0.8009076740484332,0.4089063389609136,0.46050085166789556,0.004379795646102176,-0.0008709458413031621,0.07684047994606492
5700,9.0,299.93546000000003,-5370.8156,0.05699997694140935,0.0,0.0,0.0,0.0,0.008699002404508882,0.7479125254632192,0.40743338742304464,0.4772479303807035,-0.00047762185006510664,-0.0016591421205945781,0.07757377208318522
5701,9.0,300.08044,-5487.1631,0.0570099866161069,0.0,0.0,0.0,0.0,0.008700530022394598,0.7781148562289573,0.4056343010754886,0.4842114207654466,0.005232193407302285,-0.0038222918635308365,0.07342259281474574
5702,9.0,299.88395,-5583.977,0.057019963255574346,0.0,0.0,0.0,0.0,0.008702052598637128,0.7722385224065083,0.4047321031864486,0.5204189505013515,-0.004963977189231405,-0.0013166446390177088,0.06627389145747384
5703,9.0,300.5365,-5263.9705,0.0570299729302719,0.0,0.0,0.0,0.0,0.008703580216522872,0.7560351536973603,0.3872751617185826,0.4568052853731716,-0.006767826521532473,0.006920889297538593,0.07930865586465492
5704,9.0,299.85481,-5116.6996,0.05703998260496923,0.0,0.0,0.0,0.0,0.008705107834408587,0.7265865695485113,0.38262131414178363,0.44614102058819055,-0.005115682108778516,0.016026291095171785,0.08654965012053542
5705,9.0,299.83211,-5296.3025,0.0570499592444369,0.0,0.0,0.0,0.0,0.008706630410651145,0.7620526535237413,0.38962928620591664,0.45826177159691556,-0.0034648064877997775,0.004351917386825805,0.09478994100928882
5706,9.0,300.30124,-5281.1537,0.05705996891913423,0.0,0.0,0.0,0.0,0.008708158028536861,0.7426322360120953,0.3836388401572056,0.4790677680903076,0.007071786352780974,0.005418839040647775,0.089343156328233
5707,9.0,299.65224,-5408.5695,0.05706997859383156,0.0,0.0,0.0,0.0,0.008709685646422577,0.7600263661062623,0.4032916465792866,0.4807520532015336,-0.011994601371274989,-0.0002526577323878768,0.08848788914407472
5708,9.0,299.43212,-5519.4701,0.057079988268529114,0.0,0.0,0.0,0.0,0.008711213264308293,0.7659990498807203,0.4166519773628486,0.4951300619880325,0.0040055119009382465,0.007051607983664523,0.07792017594787264
5709,9.0,300.133,-5405.6431,0.05708996490799656,0.0,0.0,0.0,0.0,0.008712735840550823,0.7834897325769162,0.39229419476392263,0.4673965860184515,-0.002341216694310098,0.005429040037354535,0.06944603098903963
5710,9.0,299.56076,-5498.9292,0.05709997458269411,0.0,0.0,0.0,0.0,0.008714263458436566,0.7839065735355553,0.4066662355073326,0.48096434936248555,0.015639554810253885,0.015630158942076585,0.06811315519799503
5711,9.0,299.34653,-5617.151,0.057109984257391444,0.0,0.0,0.0,0.0,0.008715791076322282,0.8175192001628632,0.4064764841611056,0.4834779492830586,0.009217425411464062,0.01002004523500147,0.06490339774321664
5712,9.0,299.69662,-5425.3554,0.05711996089685911,0.0,0.0,0.0,0.0,0.00871731365256484,0.7681917332296213,0.3814256182287777,0.4995551987522595,-0.0003356955235230686,-0.0032919984057699467,0.06428726467540904
5713,9.0,299.56147000000004,-5233.3881,0.05712997057155644,0.0,0.0,0.0,0.0,0.008718841270450556,0.7458575326704072,0.37985214214848767,0.4651096501452486,0.01002754044864119,-0.015741436094558785,0.07612704345790422
5714,9.0,300.50133,-5255.8442,0.057139980246253996,0.0,0.0,0.0,0.0,0.0087203688883363,0.7473305956657873,0.37773043696909164,0.47258436573544554,0.002117972366027598,-0.02871929029662327,0.07270629794805293
5715,9.0,300.22668,-5425.5628,0.05714998992095133,0.0,0.0,0.0,0.0,0.008721896506221988,0.7836214956199203,0.3904677506636666,0.47514637874579657,0.009520994432148992,-0.004234973025209296,0.08331553818635343
5716,9.0,299.76597999999996,-5434.5364,0.057159966560418995,0.0,0.0,0.0,0.0,0.008723419082464545,0.7722029066654933,0.39857661896144964,0.48118382946664656,-0.015425814767909385,-0.0070362459975734145,0.08403939899154292
5717,9.0,300.35604,-5316.2336,0.05716997623511633,0.0,0.0,0.0,0.0,0.008724946700350261,0.7502874519751063,0.3991425900698066,0.4665722462670956,0.006732847608205323,0.019376631935074683,0.09865125475537082
5718,9.0,299.70923999999997,-5397.7115,0.05717998590981366,0.0,0.0,0.0,0.0,0.008726474318235977,0.7572238379196743,0.39648549367007163,0.4870601835540976,-0.002994123344021967,0.016720331949918284,0.07437775024676242
5719,9.0,299.6553,-5420.8285,0.057189962549281326,0.0,0.0,0.0,0.0,0.008727996894478535,0.7675022368015733,0.39363937546418165,0.4866548936465985,0.019136416680867283,0.026848021025193375,0.09041020291579233
5720,9.0,299.59529,-5475.5341,0.05719997222397866,0.0,0.0,0.0,0.0,0.00872952451236425,0.7910178869773873,0.39844088397805366,0.4749668713580806,-0.009594859047213862,-0.0026516123862187673,0.08125005318875592
5721,9.0,299.58312,-5434.0425,0.05720998189867621,0.0,0.0,0.0,0.0,0.008731052130249994,0.7869235257083053,0.39469919453877766,0.4701905117116906,-0.006627407384249183,-0.0006101125890259244,0.07995209500940742
5722,9.0,299.17638,-5198.9676,0.057219958538143656,0.0,0.0,0.0,0.0,0.008732574706492524,0.7465357921548463,0.37988030036876663,0.45394025992041553,0.0009308310601708732,-0.01972173579988378,0.07859143995362122
5723,9.0,299.69131,-5284.2485,0.05722996821284121,0.0,0.0,0.0,0.0,0.00873410232437824,0.7386058536922223,0.3879488413125696,0.47972489117766054,0.018208480212787082,-0.012318267903718387,0.08420444730033191
5724,9.0,299.23337999999995,-5542.0494,0.05723997788753854,0.0,0.0,0.0,0.0,0.008735629942263956,0.7692958515985893,0.3989391902447326,0.5164095806506576,0.016268069794283482,-0.014804210149561785,0.08309385730297522
5725,9.0,300.32301,-5476.6374,0.05724998756223609,0.0,0.0,0.0,0.0,0.0087371575601497,0.7746170966187553,0.3983989860864186,0.49174494539144753,0.006251329882433224,-0.013962603603251687,0.08101923582922602
5726,9.0,299.85242,-5271.905,0.05725996420170354,0.0,0.0,0.0,0.0,0.00873868013639223,0.7556913174084263,0.3796511639911526,0.4671849991325696,-0.001011908516337595,-0.012735458433641888,0.0957885425525931
5727,9.0,299.97481,-5352.9779,0.05726997387640087,0.0,0.0,0.0,0.0,0.008740207754277973,0.7897130336311082,0.3812880593952016,0.45617051458302454,-0.0029972014965007573,0.012800680329328788,0.07999076265972362
5728,9.0,300.20998,-5575.259,0.05727998355109842,0.0,0.0,0.0,0.0,0.00874173537216369,0.8006172765697732,0.4014496389574946,0.4926726062555006,0.002237564046180378,0.007880488412693653,0.07611504860322042
5729,9.0,300.42721,-5606.5012,0.05728996019056565,0.0,0.0,0.0,0.0,0.008743257948406219,0.8069635051260973,0.4029399069395726,0.49433296853186554,0.004017876591908546,0.012533985810258089,0.062179188723108146
5730,9.0,299.66863,-5427.1969,0.0572999698652632,0.0,0.0,0.0,0.0,0.008744785566291935,0.7576062689049172,0.3995167731992356,0.4926092983892525,-0.01126487384800649,0.01044128187522429,0.06880523440054793
5731,9.0,299.5607,-5276.0815,0.057309979539960754,0.0,0.0,0.0,0.0,0.008746313184177651,0.7583900989172753,0.36637909742380165,0.47902785616886856,0.004555605988178306,0.006022149631089895,0.055714412944834445
5732,9.0,299.12537000000003,-5363.134,0.057319989214658085,0.0,0.0,0.0,0.0,0.008747840802063395,0.7831015564636062,0.3872809169791506,0.4598763349687606,0.005345511549460915,-0.0007484245714012544,0.08697718289422961
5733,9.0,299.69455,-5548.656999999999,0.05732996585412553,0.0,0.0,0.0,0.0,0.008749363378305924,0.8028996730825283,0.40375162159468264,0.4800018934899985,-0.0012039331296939489,-0.0014849007962982985,0.07721793688656702
5734,9.0,299.22071,-5463.4045,0.057339975528823084,0.0,0.0,0.0,0.0,0.008750890996191668,0.7700185623649153,0.3917429157820156,0.4989770787752036,0.009257680216736902,-0.01169041254550389,0.09004983241172651
5735,9.0,299.80536,-5236.17,0.057349985203520415,0.0,0.0,0.0,0.0,0.008752418614077384,0.7216903424152913,0.3945570051522446,0.47541758526756256,-0.0038719074785275166,0.0037635442306828966,0.09230618333066101
5736,9.0,300.40459,-5227.4687,0.05735996184298786,0.0,0.0,0.0,0.0,0.008753941190319914,0.7235344373322894,0.39306291721728964,0.4724226003569805,0.01926758899906298,-0.006288511601477774,0.09816053367894041
5737,9.0,299.96285,-5462.7734,0.057369971517685414,0.0,0.0,0.0,0.0,0.00875546880820563,0.7813501739307582,0.3953172163047716,0.4838793179126705,0.0027304140623958875,-0.007185163871395463,0.08417964293788392
5738,9.0,299.62757999999997,-5416.116,0.05737998119238297,0.0,0.0,0.0,0.0,0.008756996426091374,0.7868581406793522,0.4091752150074496,0.4503306577641755,0.002397804381919868,0.004994069703951305,0.09058051911185122
5739,9.0,300.27516,-5226.6855,0.05738995783185019,0.0,0.0,0.0,0.0,0.008758519002333875,0.7659982190156382,0.3729511692949147,0.44983249335251063,-0.01159643967822949,0.005228690601706586,0.07308526057820364
5740,9.0,299.77741000000003,-5375.1898,0.057399967506547966,0.0,0.0,0.0,0.0,0.008760046620219647,0.7703161235217822,0.40055869827706564,0.4630486589118446,0.008351607152689452,0.0040351053899838965,0.08523591259737962
5741,9.0,300.33558999999997,-5607.4207,0.0574099771812453,0.0,0.0,0.0,0.0,0.008761574238105363,0.7833692368750242,0.4106966910926076,0.5104499576699885,-0.008738885222435822,0.013774256621663285,0.06337079009246004
5742,9.0,299.96859,-5619.2863,0.05741998685594263,0.0,0.0,0.0,0.0,0.008763101855991079,0.7730834412673953,0.4085843280791336,0.5264549522745585,0.02051058443998708,0.006186314791091734,0.08731274903584742
5743,9.0,299.87552999999997,-5508.7468,0.0574299634954103,0.0,0.0,0.0,0.0,0.008764624432233636,0.7769539350593833,0.39470916491976166,0.5028583738132575,-0.006556183805569964,0.0029981451363188874,0.05921565509563015
5744,9.0,299.81752,-5343.9429,0.05743997317010763,0.0,0.0,0.0,0.0,0.008766152050119325,0.7771161260028903,0.37421990027512864,0.47308916693526554,-0.010197828273697291,-0.0035291563804506166,0.0918304857134633
5745,9.0,299.64518,-5240.3001,0.05744998284480518,0.0,0.0,0.0,0.0,0.008767679668005068,0.7678685672427272,0.3692584907629756,0.4557933119682976,-0.00974964789476533,-0.01078065175771749,0.07048026245886034
5746,9.0,299.64475,-5360.4167,0.057459959484272405,0.0,0.0,0.0,0.0,0.00876920224424757,0.7610259778599162,0.4031907167368256,0.4652161224657566,-0.0030192705903038073,-0.005084314925432816,0.09527593324750251
5747,9.0,299.92776000000003,-5386.5976,0.05746996915897018,0.0,0.0,0.0,0.0,0.008770729862133342,0.7435105009337734,0.38498928975798463,0.5088913662336675,-0.004396958278945996,-0.0002327023593534348,0.060853351980508244
5748,9.0,299.66465,-5334.503000000001,0.05747997883366751,0.0,0.0,0.0,0.0,0.008772257480019058,0.7358049669707963,0.4209332326128756,0.4648175200089176,6.0508753727499045e-05,0.00020432892475319482,0.0924424816811126
5749,9.0,299.0845,-5399.3678,0.057489988508365064,0.0,0.0,0.0,0.0,0.008773785097904802,0.7745145050461302,0.38622783601771965,0.4805306377896816,-0.01031979217498419,0.01021419023631209,0.06463987165720864
5750,9.0,299.71175,-5578.139,0.05749996514783251,0.0,0.0,0.0,0.0,0.008775307674147331,0.8156237233332942,0.4103946209727956,0.4695966255630785,-0.0035098421110194467,0.011733135222720289,0.08347181377577663
5751,9.0,299.5011,-5615.9178,0.05750997482253006,0.0,0.0,0.0,0.0,0.008776835292033047,0.8028209840797622,0.4110064517806786,0.49327134587209154,0.002783615873471497,0.01047630993118129,0.08746089531971833
5752,9.0,300.52331000000004,-5388.4538,0.057519984497227394,0.0,0.0,0.0,0.0,0.008778362909918763,0.7701514805130333,0.38869118886583365,0.4791127259972446,-0.0069843421598759035,-0.002152936688553308,0.0961817383068985
5753,9.0,299.55435,-5317.3683,0.05752996113669484,0.0,0.0,0.0,0.0,0.008779885486161293,0.7409733632133774,0.3948587712970266,0.4805150641356446,-0.00910869475913318,-0.006268783419380754,0.08314483391550621
5754,9.0,299.29466,-5191.8933,0.057539970811392394,0.0,0.0,0.0,0.0,0.008781413104047037,0.7303934920292253,0.3815380687248756,0.4662743507376955,0.002683836373849028,0.0010842314105803089,0.08748956117829741
5755,9.0,300.22174,-5073.5965,0.057549980486089725,0.0,0.0,0.0,0.0,0.008782940721932753,0.7243306492608692,0.37002640261626263,0.44788960655076254,0.005609681758557484,0.009302715130681502,0.07351797409965913
5756,9.0,300.80483,-5328.307,0.05755995712555717,0.0,0.0,0.0,0.0,0.008784463298175282,0.7684950901770603,0.3897345122288016,0.4614426879008475,-0.008027276840105542,-0.002417046710593938,0.08700826130129682
5757,9.0,299.97471,-5514.9686,0.057569966800254724,0.0,0.0,0.0,0.0,0.008785990916061026,0.7904435970857092,0.4006829734018306,0.48528617514651656,0.001129451546643189,0.003375275303663737,0.07581423795328272
5758,9.0,299.91767999999996,-5349.0575,0.05757997647495228,0.0,0.0,0.0,0.0,0.008787518533946742,0.7642684288424212,0.40389750934408064,0.45781398598022255,0.0017152626999082485,0.01997012798239818,0.09502270482226081
5759,9.0,299.50306,-5447.5774,0.05758998614964961,0.0,0.0,0.0,0.0,0.008789046151832458,0.7603877518869283,0.39914615671015863,0.49639360512773456,0.005720118217431714,0.015583892929260485,0.07053927009168394
5760,9.0,299.1481,-5577.7436,0.05759996278911683,0.0,0.0,0.0,0.0,0.008790568728074988,0.7919985509541713,0.4110799934729366,0.49241622358269754,0.002199347089508658,-0.01005868755406517,0.08058920438078522
5761,9.0,299.69236,-5493.2123,0.057609972463814385,0.0,0.0,0.0,0.0,0.008792096345960732,0.7811334093368653,0.4026081789893336,0.4860577853626685,-0.018293466564924584,-0.014123426659123688,0.05714535108055704
5762,9.0,299.75221,-5412.0058,0.05761998213851194,0.0,0.0,0.0,0.0,0.008793623963846475,0.7930847854588742,0.38205601177849263,0.4699738180453045,-0.01761575423553958,-0.016758130231648686,0.07992940732641833
5763,9.0,299.98042000000004,-5368.2643,0.05762995877797916,0.0,0.0,0.0,0.0,0.008795146540088977,0.7645162292868772,0.38771346331433965,0.4795886191717115,0.002044018990253968,-0.017333023007136183,0.07458602785781783
5764,9.0,299.96729,-5370.0391,0.057639968452676715,0.0,0.0,0.0,0.0,0.008796674157974721,0.7516066630753023,0.3971371756043876,0.4836139477114806,0.012202013666744988,-0.0003332433265585557,0.0976679968583308
5765,9.0,299.95331,-5461.7546,0.05764997812737427,0.0,0.0,0.0,0.0,0.008798201775860437,0.7417113537912112,0.3945597409275146,0.5239659236689105,0.016480617241260282,-0.00955461062541665,0.09019050090985942
5766,9.0,299.81777999999997,-5484.6508,0.0576599878020716,0.0,0.0,0.0,0.0,0.008799729393746153,0.7767881572105223,0.4025778828113436,0.48783085144765653,0.018410188923444183,0.014627063634578786,0.08009135508990133
5767,9.0,299.96696000000003,-5222.2733,0.057669964441539046,0.0,0.0,0.0,0.0,0.008801251969988683,0.7387118092551793,0.38107450680412563,0.4676543568438915,-0.0073840360897226235,0.009168751815085351,0.07989807965982652
5768,9.0,299.62865,-5260.4851,0.0576799741162366,0.0,0.0,0.0,0.0,0.008802779587874426,0.7660442205701783,0.3956655210266466,0.43734638462272757,0.003818007943433046,0.00041820849163646455,0.05903973258676794
5769,9.0,299.66036,-5638.1348,0.05768998379093415,0.0,0.0,0.0,0.0,0.00880430720576017,0.7946665904549862,0.42461414731115354,0.4945714673404035,-0.018717641427787382,0.0014524247120431587,0.07721422839120101
5770,9.0,300.29,-5624.2797,0.057699960430401376,0.0,0.0,0.0,0.0,0.008805829782002672,0.8141083571462392,0.40487967293101257,0.4906525401936355,-0.002276416715964838,0.018447529216129382,0.07155370366780073
5771,9.0,300.15536000000003,-5353.9667,0.05770997010509893,0.0,0.0,0.0,0.0,0.008807357399888416,0.7504230957659933,0.3931968384830066,0.48385224386999853,-0.005032949022213395,0.0032661602242449166,0.09317085854199782
5772,9.0,300.29173,-5392.1853,0.05771997977979648,0.0,0.0,0.0,0.0,0.008808885017774132,0.7812707959179243,0.3816823048766106,0.4761365875385225,0.0005944688079495034,0.003062120025107717,0.07643926533046813
5773,9.0,299.92555,-5552.5863,0.057729989454494035,0.0,0.0,0.0,0.0,0.008810412635659876,0.7841276545748743,0.4085845205966526,0.49513540181605953,-4.356837931961426e-05,-0.01034928687214509,0.09418818798690042
5774,9.0,299.85854,-5500.696999999999,0.05773996609396126,0.0,0.0,0.0,0.0,0.008811935211902377,0.7974282542650413,0.4016727262320116,0.4729735550988555,0.017009801291486683,-0.002401126423697728,0.08418475985088891
5775,9.0,299.81423,-5318.2446,0.05774997576865881,0.0,0.0,0.0,0.0,0.008813462829788121,0.7445718601485213,0.3977389853687816,0.4743027163150335,0.0012421636639170087,0.00015220426946139186,0.0890648074065121
5776,9.0,299.67377999999997,-5180.445,0.057759985443356365,0.0,0.0,0.0,0.0,0.008814990447673865,0.7332997668935524,0.3850868150801096,0.45633935244718754,0.002176780084606468,0.004080780779316707,0.08855234400943592
5777,9.0,299.29696,-5281.4501,0.05776996208282381,0.0,0.0,0.0,0.0,0.008816513023916395,0.7331481340160872,0.3983418691782816,0.47393895952913356,-0.003267719818798837,-0.0069220951664826025,0.08307807593266772
5778,9.0,300.09451,-5512.4466,0.05777997175752114,0.0,0.0,0.0,0.0,0.00881804064180211,0.7916716359419073,0.4032115288938796,0.4807629456401086,-0.003906549790171446,0.007256297473465803,0.07141426120228883
5779,9.0,300.40675,-5577.6231,0.057789981432218696,0.0,0.0,0.0,0.0,0.008819568259687827,0.8026966278949892,0.4121315849567206,0.48062993629948153,-0.011950229122895789,-0.014013988555572987,0.07077429345237893
5780,9.0,300.19171,-5404.1064,0.05779995807168614,0.0,0.0,0.0,0.0,0.008821090835930384,0.7926963053705343,0.3847570629675657,0.4652600367250906,0.002383687781526668,-0.006449821524022823,0.06043131000910595
5781,9.0,300.5109,-5351.8008,0.05780996774638347,0.0,0.0,0.0,0.0,0.008822618453816072,0.7669466920367453,0.3816122183671936,0.47825490846258456,0.005424100848417075,-0.00027458136400657074,0.08454030931097892
5782,9.0,300.40259,-5567.5343,0.057819977421081026,0.0,0.0,0.0,0.0,0.008824146071701816,0.7871082513340363,0.40448861918741863,0.5007945454795736,0.01857096840956188,0.02122417798191328,0.08254874496117683
5783,9.0,300.31584,-5404.4244,0.05782998709577858,0.0,0.0,0.0,0.0,0.00882567368958756,0.7577940444134493,0.3784860783636676,0.5065299564781145,0.005921353031017045,0.008102024603957573,0.09606779833315351
5784,9.0,300.21128,-5156.233,0.057839963735246025,0.0,0.0,0.0,0.0,0.00882719626583009,0.7464623619200993,0.3746944559594636,0.44620925284992463,-0.012285051538940188,0.005522112023965025,0.08107646318162393
5785,9.0,299.61955,-5158.812,0.057849973409943356,0.0,0.0,0.0,0.0,0.008828723883715806,0.7527069108288883,0.3716880821177576,0.4437550395177126,-0.01775008181454668,-0.005967820579278035,0.09194700542196291
5786,9.0,299.70361,-5383.5157,0.05785998308464091,0.0,0.0,0.0,0.0,0.008830251501601522,0.7864027962169132,0.3895446392925626,0.46050691090349355,-0.007700366184816972,-0.014543776502858987,0.06977694225969804
5787,9.0,300.27317,-5520.9178,0.057869959724108355,0.0,0.0,0.0,0.0,0.008831774077844051,0.7667314878480063,0.41800664208404364,0.4934830340829835,7.070767124505383e-05,-0.01102192281852909,0.08226222215089922
5788,9.0,299.99211,-5520.3859999999995,0.05787996939880591,0.0,0.0,0.0,0.0,0.008833301695729795,0.7811082098068782,0.3939407160439216,0.5030105538457765,0.003992984988626936,-0.01124250939179929,0.06268228563625994
5789,9.0,300.4273,-5463.7783,0.05788997907350324,0.0,0.0,0.0,0.0,0.008834829313615511,0.7620677002877263,0.4147693890745516,0.4840150832935695,0.02908078753480027,-0.006082547645700714,0.08394071451130351
5790,9.0,301.10431,-5409.8137,0.05789998874820079,0.0,0.0,0.0,0.0,0.008836356931501255,0.7860270628148313,0.38551054613942864,0.4729106626651486,0.0005442087354917204,0.01101027044237909,0.07432276825658614
5791,9.0,300.40506,-5558.7043,0.05790996538766824,0.0,0.0,0.0,0.0,0.008837879507743784,0.8057142792103082,0.40726191510862164,0.47673112216719854,0.016886295223547586,-0.00019225540133163083,0.09352234486918681
5792,9.0,300.1651,-5429.49,0.05791997506236557,0.0,0.0,0.0,0.0,0.0088394071256295,0.7900695862087972,0.37171992856840064,0.48863988099000155,-0.006764338509388234,0.001155029829517569,0.08118216644530601
5793,9.0,300.6166,-5164.867,0.05792998473706312,0.0,0.0,0.0,0.0,0.008840934743515216,0.7324788012650294,0.37451317538407264,0.46299861448940555,-0.015580730575698384,0.0032652707933071372,0.09140622168459171
5794,9.0,300.70508,-5232.3817,0.05793996137653035,0.0,0.0,0.0,0.0,0.008842457319757746,0.7351645017150873,0.38459053531363063,0.47075833706773057,-0.023311685970434277,0.0011720958996268589,0.09514864066393972
5795,9.0,299.93737000000004,-5352.9241,0.0579499710512279,0.0,0.0,0.0,0.0,0.00884398493764349,0.7540685568432722,0.3888314936071806,0.4842552235672695,-0.01852411876468818,0.010937667019713689,0.08466433314971912
5796,9.0,300.04694,-5400.2059,0.05795998072592545,0.0,0.0,0.0,0.0,0.008845512555529206,0.7825548269746483,0.3913073803590316,0.4676655431249956,-0.020698032668736783,0.006673564270029514,0.08102740363828212
5797,9.0,299.62243,-5494.1732,0.0579699573653929,0.0,0.0,0.0,0.0,0.008847035131771763,0.7888293579538962,0.4078203679012366,0.4734417273075605,0.004378271312651736,-0.007790355763298253,0.07434192070997633
5798,9.0,299.74336,-5539.721,0.05797996704009023,0.0,0.0,0.0,0.0,0.00884856274965748,0.7953123854062212,0.41591819177292955,0.47270627998747755,-0.0055933634670219945,0.00041593682544226857,0.07932054331482812
5799,9.0,299.62572,-5520.2372,0.05798997671478778,0.0,0.0,0.0,0.0,0.008850090367543223,0.7645704482997282,0.41570308890920066,0.49774073126818547,0.02064415816091978,-0.008409316102859882,0.06891580025145994
5800,9.0,299.88197,-5612.5754,0.057999986389485114,0.0,0.0,0.0,0.0,0.008851617985428911,0.7830131807898842,0.4235825979143476,0.4994870171530305,0.014682221930272486,-0.0026997024518648875,0.08047217703398551
5801,9.0,300.34828999999996,-5444.6354,0.05800996302895278,0.0,0.0,0.0,0.0,0.008853140561671469,0.7680216997303403,0.38378296485142965,0.5032285444722905,0.00012069383281655386,-0.004178341970495246,0.07887656751851113
5802,9.0,300.77007000000003,-5250.7786,0.05801997270365011,0.0,0.0,0.0,0.0,0.008854668179557185,0.7724275340801623,0.3824096360633926,0.4412684224473026,-0.01110211244469319,0.00045274257803721364,0.08444540425361252
5803,9.0,300.31313,-5182.0648,0.058029982378347444,0.0,0.0,0.0,0.0,0.0088561957974429,0.7458554149776984,0.36709085495654664,0.46227201284269553,-0.018065674770193284,0.009722287203640042,0.0991350036578631
5804,9.0,300.72716,-5275.0634,0.05803995901781511,0.0,0.0,0.0,0.0,0.008857718373685458,0.7776017869083213,0.3616036395700007,0.46428211865607755,-0.009195986052598162,0.02163418152887748,0.09244162244502782
5805,9.0,300.25211,-5446.2398,0.058049968692512444,0.0,0.0,0.0,0.0,0.008859245991571174,0.7482586516973793,0.4123181243001306,0.49494413059468256,0.004913891324863315,0.005776729209793784,0.08947892069588191
5806,9.0,299.79325,-5414.9498,0.05805997836721,0.0,0.0,0.0,0.0,0.008860773609456918,0.7616572833347213,0.39692407897585663,0.48742815546041357,0.01013116543504318,0.004575239735366006,0.07708367516881642
5807,9.0,299.79215,-5487.8705,0.05806998804190733,0.0,0.0,0.0,0.0,0.008862301227342606,0.7566787904258823,0.4245700607993026,0.48692676891343056,0.006285860736566154,0.013124530260040288,0.08246264403392932
5808,9.0,299.61507,-5492.9018,0.058079964681374996,0.0,0.0,0.0,0.0,0.008863823803585164,0.8019274900090813,0.3936123520840146,0.4741651574814576,-0.006451040058593083,0.008970330594377702,0.05664580662225585
5809,9.0,299.65711,-5594.5243,0.05808997435607233,0.0,0.0,0.0,0.0,0.00886535142147088,0.7902796633520303,0.4212561756847476,0.4890598528914496,-0.005658528114078245,-0.0020636302432894484,0.07344306755951643
5810,9.0,300.02967,-5637.4657,0.05809998403076988,0.0,0.0,0.0,0.0,0.008866879039356623,0.8038649964527983,0.4150640827336356,0.4947197159625345,-0.012208958482930387,-0.006881765178052343,0.07597962164785484
5811,9.0,299.75614,-5467.9707,0.058109960670237326,0.0,0.0,0.0,0.0,0.008868401615599153,0.7559448832459512,0.39898316529907263,0.5071985191590965,0.005384086183417934,-0.0008450720845671212,0.08081434753975512
5812,9.0,299.99651,-5223.7431,0.05811997034493488,0.0,0.0,0.0,0.0,0.008869929233484897,0.7390227149158634,0.3821159049919036,0.46674883549452356,0.008777298141676881,-0.005104919872841365,0.09145734623163732
5813,9.0,300.2506,-5312.0872,0.05812998001963221,0.0,0.0,0.0,0.0,0.008871456851370613,0.7601919919676083,0.38098464165275664,0.47356522222974856,0.005808598965189084,-0.013671452266517286,0.09583809048248311
5814,9.0,300.02179,-5576.0249,0.05813995665909988,0.0,0.0,0.0,0.0,0.00887297942761317,0.7967497819980813,0.4092261612224776,0.48899638290518554,0.01051096105810109,0.0020923166708455778,0.0959465345876857
5815,9.0,299.58865,-5476.9644,0.05814996633379721,0.0,0.0,0.0,0.0,0.008874507045498858,0.7830210334781592,0.40249923433858165,0.47934012971718754,-0.004713170735703736,0.02096194986928338,0.08247660560705722
5816,9.0,299.22769,-5336.6008,0.05815997600849454,0.0,0.0,0.0,0.0,0.008876034663384574,0.7484799556517203,0.4087830162912426,0.46493040620255854,0.0018232770857434385,0.028561394520290176,0.09485096804956172
5817,9.0,300.03712,-5411.6275,0.058169985683192094,0.0,0.0,0.0,0.0,0.008877562281270318,0.7535608172181624,0.3933380551494436,0.4981007491612165,0.00041986235897968854,0.00044608898006305456,0.07464293198343383
5818,9.0,300.12029,-5590.4619,0.05817996232265954,0.0,0.0,0.0,0.0,0.008879084857512848,0.7748665081308702,0.42609573173987464,0.49839859402811154,-0.005159391488942295,-0.01059549955369439,0.07238475620106924
5819,9.0,300.01727999999997,-5528.6525,0.05818997199735709,0.0,0.0,0.0,0.0,0.008880612475398592,0.7902979119863313,0.4051883190439736,0.4850860886492695,-0.0065358115003843744,-0.006421232064501264,0.061081181265493244
5820,9.0,300.49621,-5473.9326,0.058199981672054424,0.0,0.0,0.0,0.0,0.008882140093284308,0.7927072484716142,0.39388259601818565,0.47734898181317653,-0.004518287277720236,-0.01078175721357659,0.057387402343945654
5821,9.0,300.65898,-5351.6597,0.05820995831152187,0.0,0.0,0.0,0.0,0.008883662669526865,0.7745540218000303,0.37847103159968265,0.47374587459007755,-0.005314750694975056,-0.0007208900268238064,0.06852193372558835
5822,9.0,299.9196,-5372.4924,0.05821996798621942,0.0,0.0,0.0,0.0,0.008885190287412553,0.7705995397072533,0.38280189557460564,0.4797021031829115,-0.003368048499975507,0.0014985697427973186,0.07831323390016443
5823,9.0,299.57354,-5561.1114,0.058229977660916976,0.0,0.0,0.0,0.0,0.008886717905298297,0.7574214926166812,0.41715025323202465,0.5158672486671335,0.01896132807683738,0.025797383009753476,0.1029983013476409
5824,9.0,298.9687,-5504.5696,0.05823998733561431,0.0,0.0,0.0,0.0,0.008888245523184013,0.7852920309272893,0.3965601702024416,0.4913994980348545,0.008035508483917942,0.01029466863875469,0.08575775970363192
5825,9.0,298.81,-5317.6489,0.05824996397508175,0.0,0.0,0.0,0.0,0.00888976809942657,0.7518188173812402,0.3988075994542456,0.4658060772039806,0.012364754805056288,-0.01016504051371139,0.11525475694225888
5826,9.0,299.1564,-5287.9772,0.058259973649779084,0.0,0.0,0.0,0.0,0.008891295717312286,0.7783631936959663,0.39315541681891863,0.43589442762693065,-0.0015561322783282983,-0.03522681307011576,0.08005310793837662
5827,9.0,299.79346,-5472.4286,0.05826998332447664,0.0,0.0,0.0,0.0,0.008892823335198002,0.7838125236612733,0.4015003217274966,0.47816880246908655,0.015944663667115784,-0.01179651604297549,0.08428040964707882
5828,9.0,299.7701,-5477.7005,0.058279959963944084,0.0,0.0,0.0,0.0,0.00889434591144056,0.7756502976132242,0.4056670797162236,0.48376678635656456,-0.0024981065159439177,0.0005095680855779546,0.05909537420275935
5829,9.0,300.03967,-5342.9971,0.058289969638641415,0.0,0.0,0.0,0.0,0.008895873529326248,0.7292528865241562,0.4023711797909436,0.4925136171823095,0.008457607197325842,0.006780739684781904,0.06937765484579143
5830,9.0,300.51835,-5479.7421,0.05829997931333897,0.0,0.0,0.0,0.0,0.008897401147211992,0.7762332203957543,0.4019435274537376,0.4875280315227706,-0.005529829949976725,0.014752919429499788,0.06676421331336484
5831,9.0,299.78322000000003,-5553.955,0.0583099889880363,0.0,0.0,0.0,0.0,0.008898928765097708,0.7870644991947182,0.4099083217198016,0.4912908269616295,0.004732990819584826,0.014643865347736986,0.08171055104120352
5832,9.0,299.83505,-5527.539000000001,0.05831996562750397,0.0,0.0,0.0,0.0,0.008900451341340265,0.7942470238535783,0.40897321346751364,0.47701358589757553,-0.003331698861913077,-0.007859360830883523,0.08710300221214701
5833,9.0,300.40743,-5457.7165,0.0583299753022013,0.0,0.0,0.0,0.0,0.008901978959225981,0.7809039588517203,0.38188062831868363,0.49622493951608854,-0.0064005384577089635,0.0018979976944927882,0.07645074950710153
5834,9.0,300.67285,-5355.1088,0.05833998497689885,0.0,0.0,0.0,0.0,0.008903506577111725,0.7569087171385743,0.38927826597377363,0.4816323851534155,0.002922907770018537,-0.0028697743533246775,0.0990182306368385
5835,9.0,300.07322999999997,-5260.4487,0.0583499616163663,0.0,0.0,0.0,0.0,0.008905029153354255,0.7338525454856073,0.38262547859969465,0.48256701717815653,0.005161742330499305,0.007787360596002653,0.08886632893717382
5836,9.0,300.84875,-5440.9496,0.05835997129106385,0.0,0.0,0.0,0.0,0.00890655677123997,0.7857052647155723,0.3874644469697636,0.4807430960706495,-0.0019110528140812283,0.0028163278423499172,0.095682667036394
5837,9.0,301.11174,-5610.2202,0.05836998096576118,0.0,0.0,0.0,0.0,0.008908084389125687,0.7952807821356023,0.4182902710520356,0.49179580041396653,0.007563344880419023,-0.011364774228365888,0.06767866747561443
5838,9.0,300.88974,-5447.0558,0.05837995760522885,0.0,0.0,0.0,0.0,0.008909606965368244,0.7951129068590342,0.3997978893069796,0.4608581540506585,0.007610968547044113,-0.017117109543327184,0.06889644312154952
5839,9.0,299.78051,-5452.5467,0.05838996727992618,0.0,0.0,0.0,0.0,0.00891113458325396,0.7730408341006902,0.3971137796595786,0.48728344308113153,-0.0015207540431367386,0.0027811064582738375,0.04972299012302705
5840,9.0,300.20068,-5520.0045,0.05839997695462351,0.0,0.0,0.0,0.0,0.008912662201139676,0.7717994608731762,0.4048816183712046,0.5012624542432526,8.252214106655122e-05,-0.004941213613809815,0.06013252180636785
5841,9.0,299.94122999999996,-5562.5836,0.058409986629321065,0.0,0.0,0.0,0.0,0.00891418981902542,0.7582430155327593,0.41836225233913965,0.5142812386831065,-0.015543234242497785,0.012599613005984988,0.07415002431328763
5842,9.0,299.85741,-5546.4284,0.05841996326878851,0.0,0.0,0.0,0.0,0.00891571239526795,0.7889495091507542,0.40469420763270864,0.4923320224993875,-0.007565144311271612,0.01150403430885979,0.09272179420367861
5843,9.0,299.9387,-5602.2443,0.058429972943486064,0.0,0.0,0.0,0.0,0.008917240013153666,0.8037817072945783,0.4107001868054526,0.48846046479479455,-0.008320994334043201,0.016839995773478184,0.1005138728974469
5844,9.0,300.02451,-5316.4541,0.058439982618183395,0.0,0.0,0.0,0.0,0.008918767631039382,0.7913480342574702,0.37544899291143063,0.4492722775047216,0.0036787845425927668,0.00961624794622478,0.1004105710365018
5845,9.0,300.11856,-5221.7868,0.05844995925765106,0.0,0.0,0.0,0.0,0.008920290207281939,0.7501142166055093,0.37399264854270065,0.4631859340353926,0.004718787687633086,-0.006769564448103994,0.0946728670529845
5846,9.0,300.86212,-5405.0998,0.058459968932348394,0.0,0.0,0.0,0.0,0.008921817825167655,0.7518394775507793,0.40372002845656463,0.4874558678506486,0.02017873287323588,-0.008143885005338872,0.09423696483346432
5847,9.0,300.18395,-5507.3772,0.05846997860704595,0.0,0.0,0.0,0.0,0.008923345443053399,0.7710340821451392,0.4056030220449016,0.4974680555337745,0.008606327284728372,0.008192922257178473,0.07379512434651173
5848,9.0,299.53147,-5336.9824,0.05847998828174328,0.0,0.0,0.0,0.0,0.008924873060939115,0.7462160306882883,0.40674962599056264,0.46934372847061956,0.006248770919305674,-0.01018700473612909,0.09229035940384932
5849,9.0,299.87824,-5319.2555,0.058489964921210946,0.0,0.0,0.0,0.0,0.008926395637181672,0.7638244935761083,0.40720670311067264,0.44588966363588356,-0.01099997480811299,0.003209352965338477,0.07216968778784363
5850,9.0,300.13338,-5552.7948,0.05849997459590828,0.0,0.0,0.0,0.0,0.00892792325506736,0.7973165130440132,0.4132900439285516,0.4773044190737786,-0.005179499842476835,-0.013544185014206988,0.08429443100196263
5851,9.0,299.9845,-5628.4584,0.05850998427060561,0.0,0.0,0.0,0.0,0.008929450872953076,0.8015759428868862,0.4104771603259416,0.49885770778092253,0.00902794085398839,-0.005196396497169404,0.06367413184114754
5852,9.0,299.75732999999997,-5517.721,0.058519960910073276,0.0,0.0,0.0,0.0,0.008930973449195634,0.7768569568923123,0.3930182328878796,0.5073742268589375,0.0027527494383252173,-0.007440604829555523,0.07967704219026184
5853,9.0,300.09181,-5422.5192,0.05852997058477061,0.0,0.0,0.0,0.0,0.00893250106708135,0.7640424132751152,0.38427305365979764,0.4999949594281605,-3.1501955741500964e-05,0.003374436129930917,0.06757961315908853
5854,9.0,299.57841,-5360.0637,0.05853998025946816,0.0,0.0,0.0,0.0,0.008934028684967094,0.7541487859861903,0.3901357694009026,0.48504095848981554,-0.002765956950728697,-0.0001084607225042399,0.08844527691111922
5855,9.0,300.02404,-5481.4262,0.058549956898935385,0.0,0.0,0.0,0.0,0.008935551261209623,0.7978628372329313,0.3891832940419006,0.4791705623129525,-0.0026159028182445076,0.02673715423900168,0.08057047039968632
5856,9.0,299.91804,-5589.679,0.05855996657363294,0.0,0.0,0.0,0.0,0.008937078879095367,0.8115531835740633,0.3968105139046486,0.49075913410415556,-0.0008639525917629821,0.0063253505380134935,0.07353737581257393
5857,9.0,299.87815,-5319.8132,0.05856997624833049,0.0,0.0,0.0,0.0,0.008938606496981055,0.7517155671960503,0.3922042789500486,0.47317053091829553,-0.014145039283756688,0.002926440263842167,0.08318536797250663
5858,9.0,299.54863,-5256.8908,0.05857998592302782,0.0,0.0,0.0,0.0,0.008940134114866799,0.7314369471147063,0.39925166644307164,0.46727493521144553,0.0027436310993503073,-0.02208099847847488,0.07415931480345453
5859,9.0,300.16648,-5557.5187,0.05858996256249527,0.0,0.0,0.0,0.0,0.008941656691109329,0.7821566703478532,0.42009250860740266,0.4870977244703026,-0.0003166336242943057,-0.01130218779618909,0.09141124537858751
5860,9.0,300.24543,-5612.924,0.05859997223719282,0.0,0.0,0.0,0.0,0.008943184308995072,0.7941184221508862,0.41622324084803564,0.4958470884212975,0.021278077820982778,-0.012832249149444386,0.07776080487939392
5861,9.0,300.41898,-5403.0211,0.05860998191189015,0.0,0.0,0.0,0.0,0.008944711926880788,0.7835935805796652,0.39267517680152264,0.4661147435819436,0.004607098648985236,0.00011541552933562589,0.09057015964282882
5862,9.0,299.83328,-5387.536999999999,0.0586199585513576,0.0,0.0,0.0,0.0,0.008946234503123318,0.7605365679291153,0.4056974366892196,0.47144271658277354,0.008191560955669122,-0.007292240291613082,0.0862629074349861
5863,9.0,299.78497000000004,-5397.6951,0.05862996822605515,0.0,0.0,0.0,0.0,0.008947762121009062,0.7768514650767703,0.3830718254012456,0.48084121921033357,-0.009239009361119231,0.005438377643651084,0.07859217962619422
5864,9.0,299.93721,-5443.8293,0.05863997790075248,0.0,0.0,0.0,0.0,0.00894928973889475,0.7667687551866842,0.3981887873531736,0.4898306423750205,-0.003310967967517097,0.012443432662071189,0.09288156651919692
5865,9.0,300.00511,-5526.6798,0.058649987575450035,0.0,0.0,0.0,0.0,0.008950817356780494,0.7939906715782783,0.39253633114031966,0.4934456451542935,-0.01098010092065159,0.016857906995495883,0.08398121310455042
5866,9.0,299.64304,-5410.7721,0.05865996421491748,0.0,0.0,0.0,0.0,0.008952339933023024,0.7606557869358813,0.40127456960521657,0.48280924474706255,-0.003979220999268536,-0.006104362717703694,0.1033014151150559
5867,9.0,299.96485,-5272.0763,0.058669973889615035,0.0,0.0,0.0,0.0,0.008953867550908767,0.7589278408778463,0.3965873658351256,0.44706434474181556,-0.015158645034541786,0.00911774095470097,0.07636531529841983
5868,9.0,299.55622999999997,-5442.5128,0.058679983564312366,0.0,0.0,0.0,0.0,0.008955395168794483,0.7576108791928723,0.3997190989792036,0.4970580236158075,0.003729067281455286,0.0029641044925843374,0.0905985184866276
5869,9.0,299.77398999999997,-5646.1406,0.05868996020377981,0.0,0.0,0.0,0.0,0.008956917745037013,0.7907567724266172,0.4148344701284746,0.5106945258466254,0.008590740863740112,0.005739423266286975,0.055587298693289246
5870,9.0,299.87766,-5435.3272,0.058699969878477365,0.0,0.0,0.0,0.0,0.008958445362922757,0.7548918022845204,0.4079988215088486,0.48931311475394457,0.0038595361001065565,-0.007615035226320462,0.08222816782828833
5871,9.0,299.86141000000003,-5395.856,0.05870997955317492,0.0,0.0,0.0,0.0,0.008959972980808473,0.7814350437591342,0.3934423489822366,0.4653280866018065,-0.004898658832134985,-0.0003719460657257186,0.06679986147838303
5872,9.0,299.77726,-5552.6048,0.05871998922787225,0.0,0.0,0.0,0.0,0.008961500598694189,0.7974835473229982,0.4092084800082326,0.48116116306190954,0.0004580347022495055,0.0024905919492272874,0.07901282229920842
5873,9.0,300.26622000000003,-5586.4911,0.058729965867339695,0.0,0.0,0.0,0.0,0.008963023174936718,0.8079861480545243,0.4016672952114756,0.4885003564512315,-0.004013868478487976,0.005309360508418085,0.07560263181564883
5874,9.0,300.05832999999996,-5560.6759,0.05873997554203725,0.0,0.0,0.0,0.0,0.008964550792822462,0.7693825554096463,0.4017059203052876,0.5192181579403425,0.009169680256151981,-0.0047592848623298455,0.0886838000376596
5875,9.0,300.76807,-5537.38,0.05874998521673458,0.0,0.0,0.0,0.0,0.008966078410708178,0.7682240761728133,0.4029748032730166,0.5120263823080695,-0.0035545920990359267,0.0037285689650561065,0.07805456432188572
5876,9.0,300.94685,-5414.098000000001,0.058759961856202025,0.0,0.0,0.0,0.0,0.008967600986950708,0.7665677263668443,0.3900825129756466,0.48910034236544553,0.006058446884122154,0.01099848330396579,0.08706186121833673
5877,9.0,300.30622,-5413.875,0.05876997153089958,0.0,0.0,0.0,0.0,0.008969128604836452,0.7734418176952642,0.4005526897039726,0.4716883182745125,0.007571171832141483,0.007640499315908572,0.08514897979180001
5878,9.0,300.38847000000004,-5464.7336,0.05877998120559713,0.0,0.0,0.0,0.0,0.008970656222722168,0.7888997788358463,0.4087732080302746,0.4634695934008876,-0.004749764060415215,-0.0071730900845288735,0.0975327168242297
5879,9.0,300.54398,-5476.6639,0.058789957845064356,0.0,0.0,0.0,0.0,0.00897217879896467,0.7857443964344343,0.40980720949232263,0.4692174572431576,-0.007188242733149323,0.0007546415599073233,0.08010617691236412
5880,9.0,299.72929,-5320.608,0.05879996751976191,0.0,0.0,0.0,0.0,0.008973706416850413,0.7478159221986853,0.3994715619797736,0.47004450237228057,-0.007581332096194222,0.01051102793260769,0.09493756546935822
5881,9.0,299.91551,-5381.5667,0.05880997719445946,0.0,0.0,0.0,0.0,0.008975234034736157,0.7518038415447623,0.3931336724717726,0.4909243850629646,-0.014823435556959185,0.02092972547635308,0.07850802515238883
5882,9.0,299.80679,-5467.2298,0.058819986869157015,0.0,0.0,0.0,0.0,0.0089767616526219,0.7737345557816553,0.3924882625555756,0.4956785342671625,-0.007211235100443493,-0.004836215166897275,0.09415763646988522
5883,9.0,300.1172,-5473.7317,0.05882996350862424,0.0,0.0,0.0,0.0,0.008978284228864403,0.7927695430877623,0.3941047511026106,0.4770034635290765,0.008405368379145272,-0.009264254588685742,0.08835110038057471
5884,9.0,300.07675,-5523.2533,0.05883997318332179,0.0,0.0,0.0,0.0,0.008979811846750146,0.7927634433221602,0.40612232285365263,0.4800453315217856,0.020999283069217882,-0.005300124429781555,0.10034179060646371
5885,9.0,299.83745,-5504.6311,0.058849982858019345,0.0,0.0,0.0,0.0,0.008981339464635862,0.7889276432135962,0.39888912555729167,0.4854536248580425,0.014286781826995587,-0.012836781417141686,0.07996775478970292
5886,9.0,299.9869,-5356.6957,0.05885995949748657,0.0,0.0,0.0,0.0,0.008982862040878392,0.7411647053622613,0.3923250380969666,0.49481199264914155,0.013900585604380986,-0.016934055780261182,0.08339479967542592
5887,9.0,300.26866,-5380.2343,0.05886996917218412,0.0,0.0,0.0,0.0,0.008984389658764108,0.7640295753963483,0.3782482786976986,0.4931790387879815,-0.0011235762159383389,0.0018469370835284982,0.06539792560027274
5888,9.0,299.40805,-5487.3783,0.058879978846881675,0.0,0.0,0.0,0.0,0.008985917276649852,0.7771357627898282,0.39544181566956865,0.4954483947719495,-0.0089781974681541,0.01853458259847088,0.06683642562149164
5889,9.0,300.14529,-5387.736999999999,0.05888998852157923,0.0,0.0,0.0,0.0,0.008987444894535596,0.7924100014222782,0.3859146606768116,0.4594128541080186,-0.008173621463973633,-0.0018006910317393682,0.08161140046591812
5890,9.0,300.00282000000004,-5425.2001,0.05889996516104645,0.0,0.0,0.0,0.0,0.008988967470778098,0.7873609761739783,0.3951283262211296,0.46663607089089454,-0.01279566474133379,-0.01043711944381349,0.08093339733375442
5891,9.0,299.96071,-5647.3218,0.058909974835743784,0.0,0.0,0.0,0.0,0.008990495088663841,0.8098777542687112,0.4147869588312856,0.49198008020965356,0.009525262748195241,-0.016493026515234984,0.08295743938901183
5892,9.0,299.72603,-5701.7338,0.05891998451044134,0.0,0.0,0.0,0.0,0.008992022706549557,0.7870217096429952,0.41453976633688966,0.5316232471921296,0.028361680899079974,0.005377071047675595,0.06998207676894323
5893,9.0,299.50403,-5521.7764,0.05892996114990878,0.0,0.0,0.0,0.0,0.008993545282792087,0.7776818336662212,0.4030979536901706,0.4977023696193995,0.003060125036985827,0.01033931041166049,0.08399548169245862
5894,9.0,299.79035,-5480.0419,0.058939970824606114,0.0,0.0,0.0,0.0,0.008995072900677803,0.7566028675958892,0.3947661501053856,0.5144268933849815,0.006660451597835394,0.001872913877667208,0.06718966487135364
5895,9.0,300.28792999999996,-5491.1502,0.05894998049930389,0.0,0.0,0.0,0.0,0.008996600518563574,0.7940842452250133,0.39478808697005063,0.4803002044519396,-0.020033449020897483,-0.0015339809086171285,0.08782182919083972
5896,9.0,299.47719,-5520.2077,0.05895995713877111,0.0,0.0,0.0,0.0,0.008998123094806076,0.7797807204533652,0.41675248164026757,0.4814720991200965,-0.0012526550581024288,0.008111575398075162,0.09608675117627401
5897,9.0,299.19082000000003,-5478.5113,0.058969966813468666,0.0,0.0,0.0,0.0,0.00899965071269182,0.7812450796303863,0.41857141755728255,0.4655141395851685,0.00022210042971460578,-0.005202506091297375,0.10311349775150991
5898,9.0,299.47132,-5387.3261,0.058979976488166,0.0,0.0,0.0,0.0,0.009001178330577536,0.7432134261369543,0.4107425203946306,0.48365665620319553,0.003006594020952727,-0.002145803205199288,0.0919963476620826
5899,9.0,300.21915,-5351.0601,0.05898998616286355,0.0,0.0,0.0,0.0,0.009002705948463252,0.7665941721944542,0.3897826821385556,0.47021178996379054,0.0054140516365752955,-0.01165102143461629,0.08390161015019422
5900,9.0,300.3343,-5457.2936,0.058999962802330996,0.0,0.0,0.0,0.0,0.009004228524705782,0.7543840930569132,0.4169427700090476,0.48755413284534654,0.00039104828217596067,0.015797830555374485,0.08724016182518361
5901,9.0,300.69833,-5531.985,0.05900997247702833,0.0,0.0,0.0,0.0,0.009005756142591498,0.8088595595082232,0.4082110568747946,0.4645146899515306,-0.008709744858834892,0.005675743942552314,0.0944997998829041
5902,9.0,299.83045,-5511.3103,0.0590199821517261,0.0,0.0,0.0,0.0,0.00900728376047727,0.7737033679435772,0.4134040244323006,0.4881933214059295,-0.002253299617583358,0.0007590684394617222,0.0992330315520377
5903,9.0,299.98479,-5400.3633,0.05902995879119333,0.0,0.0,0.0,0.0,0.009008806336719771,0.7788767595091513,0.3891465839907776,0.47355224249596756,0.0031286209463958466,0.00012447006395173888,0.08223846447580452
5904,9.0,299.58617000000004,-5533.4742,0.05903996846589088,0.0,0.0,0.0,0.0,0.009010333954605515,0.7709820010899993,0.39101793533546564,0.5200380596562606,0.0034113504522740768,0.017427159007676683,0.07035134766188744
5905,9.0,299.94498,-5515.3365,0.05904997814058843,0.0,0.0,0.0,0.0,0.009011861572491259,0.7859288484826382,0.3853424682128406,0.5052532512196135,0.015832022679998985,-8.157805136537682e-05,0.05136294047612754
5906,9.0,299.86012999999997,-5366.4316,0.059059987815285986,0.0,0.0,0.0,0.0,0.009013389190376975,0.7591420216839843,0.3860653410991826,0.48605385395228057,-0.01040421819981639,0.004792897914522195,0.06512466927355444
5907,9.0,300.07788999999997,-5579.2879,0.05906996445475321,0.0,0.0,0.0,0.0,0.009014911766619477,0.8046987898275872,0.40053510981473767,0.4907303071388105,-0.0012195399170092187,-0.007878639636561192,0.07094678813615284
5908,9.0,300.00234,-5698.715999999999,0.05907997412945076,0.0,0.0,0.0,0.0,0.00901643938450522,0.8211844398820942,0.4192656255982956,0.49181729144858755,-0.005737707124592604,0.005451376325208954,0.08696320713560032
5909,9.0,300.64429,-5486.9788,0.059089983804148316,0.0,0.0,0.0,0.0,0.009017967002390964,0.7780733940348653,0.4233754794614066,0.46645566171058955,0.015268265523110485,-0.0017200834399090181,0.09859635787820291
5910,9.0,300.03611,-5385.8612,0.05909996044361576,0.0,0.0,0.0,0.0,0.009019489578633494,0.7625854305588223,0.3920692633742236,0.48251261578028753,0.001902545566241628,-0.004720252340652636,0.08270439030903783
5911,9.0,299.43152000000003,-5412.6554,0.05910997011831309,0.0,0.0,0.0,0.0,0.00902101719651921,0.7643473103627063,0.4014184916494206,0.4795462754500326,-0.00918073947569344,-0.002308455481476818,0.07188091758884423
5912,9.0,299.70169,-5382.8328,0.059119979793010646,0.0,0.0,0.0,0.0,0.009022544814404954,0.7680315890513163,0.38643560295072465,0.4817795799954425,-0.013379779105981386,0.007711078366199183,0.08084103452088892
5913,9.0,299.58324,-5456.6522,0.05912995643247809,0.0,0.0,0.0,0.0,0.009024067390647483,0.7743836741932183,0.40603451459998663,0.4782678172688586,-0.008756274114026972,0.005566204513991615,0.09951924937403521
5914,9.0,300.35504,-5471.38,0.05913996610717542,0.0,0.0,0.0,0.0,0.009025595008533172,0.7759101354688683,0.4016698283367256,0.48558294596830553,0.00041451423243436965,0.001998371363973898,0.0976703415190622
5915,9.0,300.14137999999997,-5458.7498,0.05914997578187298,0.0,0.0,0.0,0.0,0.009027122626418915,0.7570097483060453,0.41623495401919164,0.48607894202475654,0.025761101563422775,-0.002802779472612797,0.0970992099279459
5916,9.0,299.93057999999996,-5514.4387,0.05915998545657053,0.0,0.0,0.0,0.0,0.009028650244304659,0.7684015671928303,0.4100710598183626,0.4977790625194685,0.020492106811163483,0.006413477458835943,0.09321756227885711
5917,9.0,300.31028,-5522.6163,0.059169962096037976,0.0,0.0,0.0,0.0,0.009030172820547189,0.7732991622136852,0.40979322664094264,0.49564504635135753,0.019766656216567084,-0.014404723125385484,0.07929113474392571
5918,9.0,300.8896,-5447.0544,0.05917997177073531,0.0,0.0,0.0,0.0,0.009031700438432905,0.7596919733082603,0.41636841932236357,0.47970814215350754,-0.010551367445588891,-0.009733285121550452,0.08458795233068092
5919,9.0,300.19536,-5425.8779,0.05918998144543286,0.0,0.0,0.0,0.0,0.009033228056318648,0.7829163242128252,0.4006124815923736,0.4658025814911355,-0.016570347630365984,0.004595182523834206,0.08348422811600183
5920,9.0,299.13059,-5596.7929,0.059199958084900084,0.0,0.0,0.0,0.0,0.009034750632561178,0.8025143948645043,0.4037807424025566,0.4949901524142245,-0.02235322331659138,0.015419014846488286,0.08965875029712972
5921,9.0,299.39711,-5563.8667,0.05920996775959764,0.0,0.0,0.0,0.0,0.009036278250446894,0.7965831226216333,0.4054725458295246,0.48922087859734154,-0.01023493653210959,0.0037628908870184167,0.08001472501133852
5922,9.0,299.78868,-5324.5557,0.05921997743429519,0.0,0.0,0.0,0.0,0.00903780586833261,0.7563198364454562,0.3771799989847676,0.48503213308144455,0.007001257154395284,0.005389758458802745,0.06232327187407804
5923,9.0,300.27375,-5433.1069,0.05922998710899252,0.0,0.0,0.0,0.0,0.009039333486218354,0.7826218534687632,0.38499710191625564,0.48390988766818754,0.022742247520235077,-0.012471793532370188,0.06009670037558254
5924,9.0,300.10224,-5665.223000000001,0.05923996374845997,0.0,0.0,0.0,0.0,0.009040856062460884,0.8127701374741673,0.3967970782083226,0.5125191156991985,0.009030079926274501,-0.0007392937897151162,0.06282803761014454
5925,9.0,300.07614,-5667.4407,0.0592499734231573,0.0,0.0,0.0,0.0,0.0090423836803466,0.8258854542510482,0.4067906119571076,0.49008439059756354,-0.007865679154532092,-0.01163124583241459,0.08595351354345132
5926,9.0,300.22666,-5482.3241,0.05925998309785485,0.0,0.0,0.0,0.0,0.009043911298232343,0.7711924632682703,0.39409593582674063,0.5012012336722105,0.0005710415638449144,0.0009673343272134651,0.08455536418096472
5927,9.0,300.46455,-5403.0762,0.0592699597373223,0.0,0.0,0.0,0.0,0.009045433874474873,0.7607410215342932,0.3999859586580406,0.48167326979495056,-0.006402103118513384,0.007467039308764404,0.09154696313673182
5928,9.0,300.3484,-5500.7771,0.05927996941201985,0.0,0.0,0.0,0.0,0.009046961492360589,0.7627364757512293,0.4057536112747636,0.5036088071023195,0.0021508405780714377,0.005941760394656094,0.07777046925884772
5929,9.0,299.29321,-5595.3022,0.05928997908671718,0.0,0.0,0.0,0.0,0.009048489110246305,0.7952256309326592,0.41913528110543163,0.4864712319334726,-0.007151742627447043,-0.02005010279954108,0.08910561605428961
5930,9.0,299.81197000000003,-5466.4086,0.059299988761414735,0.0,0.0,0.0,0.0,0.009050016728132049,0.7700105374241233,0.4174478042563906,0.47419339676174455,-0.01066597515114979,-0.00996462704065712,0.07692445710110282
5931,9.0,299.82246000000004,-5321.3517,0.05930996540088218,0.0,0.0,0.0,0.0,0.009051539304374578,0.7661473694303582,0.4038359341355036,0.44757474921468854,0.010884404514957091,-0.005106715554668586,0.0996908453049704
5932,9.0,300.00001000000003,-5413.5372,0.059319975075579734,0.0,0.0,0.0,0.0,0.009053066922260322,0.7548938389172213,0.41189099885297664,0.4787952848734155,0.0012344505001807787,0.006564150889781253,0.1016874090307659
5933,9.0,299.84292999999997,-5602.4216,0.059329984750277065,0.0,0.0,0.0,0.0,0.009054594540146038,0.7889673322200133,0.41755819785478565,0.49647074385784756,-0.0009259266865068491,0.006873044134441644,0.09310390702839022
5934,9.0,300.06674,-5538.5445,0.05933996138974473,0.0,0.0,0.0,0.0,0.009056117116388596,0.7691349778802123,0.4110974517721596,0.5033467907589605,-0.007247942314466213,0.009288431445346811,0.09139977133445511
5935,9.0,300.15157999999997,-5333.2889,0.059349971064442064,0.0,0.0,0.0,0.0,0.009057644734274284,0.7603376466694833,0.38635716726048364,0.4744918293136976,0.002237486431222718,0.006992491122480143,0.08934332655424981
5936,9.0,300.81933,-5393.2988,0.059359980739139395,0.0,0.0,0.0,0.0,0.00905917235216,0.7798852270686792,0.39086226972260263,0.4686806778701816,-0.006373524399442884,-0.0064437871130522744,0.08263696662088361
5937,9.0,300.40082,-5593.3458,0.05936995737860706,0.0,0.0,0.0,0.0,0.009060694928402557,0.8164565439879872,0.39754303293194265,0.48623788043544247,-0.006127579722545034,-0.023104132833200376,0.085627689801545
5938,9.0,300.00585,-5618.6149,0.059379967053304394,0.0,0.0,0.0,0.0,0.009062222546288273,0.7988587404912192,0.4048887921819126,0.5041711001128135,0.01008540290620177,0.003186740060206757,0.08197076683913483
5939,9.0,300.26395,-5515.3363,0.05938997672800195,0.0,0.0,0.0,0.0,0.009063750164174017,0.7780025171903702,0.4028472046879236,0.49567479537429354,0.011337087169383388,0.006848035399448473,0.06597815617728703
5940,9.0,300.07799,-5496.8617,0.05939998640269928,0.0,0.0,0.0,0.0,0.009065277782059705,0.7715692504504562,0.4013823084883496,0.4979571513570445,0.00951410291291885,0.007056309666778543,0.05946397736388765
5941,9.0,300.41362999999996,-5514.3274,0.05940996304216695,0.0,0.0,0.0,0.0,0.00906680035830229,0.7867930393604272,0.39782217320199165,0.49160262428240153,-0.0047221911947189854,-0.0007555972067391384,0.06019017269730754
5942,9.0,300.25518999999997,-5620.054,0.05941997271686428,0.0,0.0,0.0,0.0,0.009068327976187979,0.8166104668106782,0.40442721623135863,0.4873183900770805,-0.01182883669466529,0.0030618809994091274,0.06799776323685673
5943,9.0,299.41168,-5656.1709,0.05942998239156183,0.0,0.0,0.0,0.0,0.009069855594073722,0.7991961933045233,0.4221101935315326,0.4980283220440685,0.0016994562009982684,-0.0007038843261554744,0.08625183970414382
5944,9.0,299.63087,-5402.7947,0.05943995903102928,0.0,0.0,0.0,0.0,0.009071378170316252,0.7691959147412263,0.38809479998947466,0.48502397641813955,-0.007385469230664062,-0.00940828859702579,0.0978124944285916
5945,9.0,300.21792,-5441.1019,0.05944996870572683,0.0,0.0,0.0,0.0,0.009072905788201996,0.7560606470698763,0.4061175099156776,0.49178095630000157,0.009482004872276021,-0.00870130387755183,0.1035898772860249
5946,9.0,300.08636,-5558.5019999999995,0.05945997838042416,0.0,0.0,0.0,0.0,0.009074433406087712,0.7753316811192793,0.41192231841356763,0.5023918126722116,0.008386060797164762,0.006762153131572554,0.1022383232426369
5947,9.0,299.67585,-5514.0686,0.05946998805512149,0.0,0.0,0.0,0.0,0.0090759610239734,0.7661083795665102,0.4131479052045236,0.4968828833360225,0.01720531296453218,0.014281646675488787,0.08464866019717232
5948,9.0,299.55438,-5380.9942,0.05947996469458916,0.0,0.0,0.0,0.0,0.009077483600215985,0.7653316727023552,0.4134053619224326,0.45695082861753555,-0.001987976329872988,-0.013598550948322486,0.1006818717905271
5949,9.0,299.80044,-5425.2965,0.05948997436928649,0.0,0.0,0.0,0.0,0.009079011218101674,0.7803809698126052,0.39509409863275163,0.47367959790103653,-0.0012307023867358688,-0.01881641608728568,0.07418153335164733
5950,9.0,300.50167999999996,-5505.7148,0.059499984043984044,0.0,0.0,0.0,0.0,0.009080538835987417,0.7687102538357953,0.4161398199673026,0.4887497375658435,0.001651675784582708,-0.015568514832492785,0.09349572678905982
5951,9.0,300.24686,-5601.3196,0.05950996068345149,0.0,0.0,0.0,0.0,0.009082061412229947,0.7776910339771294,0.4253480240935816,0.4996222455113766,-0.0017521459154733383,0.0015199421258316084,0.07150679829417153
5952,9.0,299.96007000000003,-5650.2919999999995,0.05951997035814882,0.0,0.0,0.0,0.0,0.00908358903011569,0.7806408076682493,0.4238505417707916,0.5130563307697176,-0.0025266518990861276,-0.0059865957996560045,0.08509335134805993
5953,9.0,299.74742000000003,-5538.2342,0.059529980032846375,0.0,0.0,0.0,0.0,0.009085116648001407,0.7977551996748082,0.39780814982060764,0.48792156772910955,-0.016720580196192786,0.005993152237078074,0.05868388117814814
5954,9.0,299.91183,-5430.6829,0.05953995667231382,0.0,0.0,0.0,0.0,0.009086639224243964,0.7862629879681152,0.39375438948303265,0.4707746098643365,0.0030312714231631975,0.017295313891414584,0.08952470845465083
5955,9.0,300.41516,-5539.5885,0.05954996634701115,0.0,0.0,0.0,0.0,0.00908816684212968,0.8118007813684993,0.39299364130795267,0.4791021577987016,0.008653566929565561,0.00849583175337331,0.07409742548734652
5956,9.0,300.26594,-5663.3186,0.059559976021708705,0.0,0.0,0.0,0.0,0.009089694460015396,0.7992646484812793,0.4145334943187706,0.5077092985345065,0.002849336288207597,-0.015963440204718883,0.0920168710428581
5957,9.0,299.80681,-5547.1083,0.059569985696406036,0.0,0.0,0.0,0.0,0.009091222077901112,0.7902720031812742,0.39574945866493066,0.5001609399270416,-0.0015249218447730686,-0.01921707645507778,0.07788292076819582
5958,9.0,299.94538,-5456.0069,0.059579962335873704,0.0,0.0,0.0,0.0,0.00909274465414367,0.7744502143272853,0.3927794706343156,0.4912601660136035,-0.0027609979020892777,-0.005675662274594255,0.07860966730967013
5959,9.0,299.51142999999996,-5536.601,0.059589972010571035,0.0,0.0,0.0,0.0,0.009094272272029386,0.7904159758879832,0.4049310751085856,0.4876414040764595,0.0008914719578539323,0.016623519955863683,0.06180945578811834
5960,9.0,300.33586,-5506.4083,0.059599981685268366,0.0,0.0,0.0,0.0,0.009095799889915102,0.7925859421696422,0.39728082407106463,0.48394387207654155,-0.0064126392983532236,0.0073062506020707945,0.06404135394238954
5961,9.0,299.87793,-5670.8964,0.059609958324736034,0.0,0.0,0.0,0.0,0.009097322466157659,0.7985455854153132,0.4271619545551026,0.49810335321397353,-0.001853230177249578,0.0011841558049670788,0.07884640002328383
5962,9.0,299.48708,-5657.9287,0.059619967999433365,0.0,0.0,0.0,0.0,0.009098850084043375,0.7769763684165973,0.42932143369822656,0.5135712340730345,0.002946477487219687,-0.0024373950017521576,0.08840838954122873
5963,9.0,299.71615,-5466.3868,0.05962997767413092,0.0,0.0,0.0,0.0,0.009100377701929091,0.7544730361506913,0.4105005664032516,0.4966714889676595,0.011675642398796189,0.018749543607185882,0.0953199954413511
5964,9.0,300.56383,-5496.599,0.05963998734882825,0.0,0.0,0.0,0.0,0.009101905319814807,0.7518372078705553,0.4289047751246056,0.4900868831928095,-0.00036852011515010365,-0.0014606870573335886,0.10331536756893289
5965,9.0,300.91326000000004,-5619.3478,0.05964996398829592,0.0,0.0,0.0,0.0,0.009103427896057364,0.8110120674906592,0.4072956766019536,0.4898336618603185,-0.014770181158203386,0.00019753063466475582,0.08323945627609472
5966,9.0,300.67323,-5518.5785,0.05965997366299325,0.0,0.0,0.0,0.0,0.00910495551394308,0.7857776614352173,0.41245410246355063,0.4792783113285865,-0.008540779831784343,0.00964615098317598,0.09194757588176922
5967,9.0,299.44453,-5307.7125,0.0596699833376908,0.0,0.0,0.0,0.0,0.009106483131828824,0.7621134687947433,0.3881435170542826,0.46315508056984755,-0.007453500260928203,0.014941868281647588,0.08032920643162543
5968,9.0,299.81002,-5349.897,0.05967995997715825,0.0,0.0,0.0,0.0,0.009108005708071354,0.7402754162794953,0.39274184865810263,0.4932178158693086,0.014649863788328986,-0.01005842795938955,0.10094670598241422
5969,9.0,300.24536,-5602.7019,0.0596899696518558,0.0,0.0,0.0,0.0,0.009109533325957098,0.7894996431600483,0.4029368975867756,0.5106449272542305,0.005297810875828225,-0.02720536292471027,0.08290422754676022
5970,9.0,299.75435,-5760.7321,0.05969997932655313,0.0,0.0,0.0,0.0,0.009111060943842786,0.8062923890548632,0.4246054637577966,0.5202208702393025,0.01889045933834318,-0.02103597994808958,0.08835547964750692
5971,9.0,299.78517,-5569.9381,0.05970995596602058,0.0,0.0,0.0,0.0,0.009112583520085316,0.8114022498391672,0.3930382040473506,0.4886816674241255,-0.006283959575403524,0.012946915623511088,0.059578261842666645
5972,9.0,299.43175,-5408.9483,0.05971996564071813,0.0,0.0,0.0,0.0,0.00911411113797106,0.7832645276096902,0.3997611184608506,0.46115955542540454,0.0002678613170908538,0.009274639490285652,0.07630894211585623
5973,9.0,300.10422,-5527.0195,0.05972997531541546,0.0,0.0,0.0,0.0,0.009115638755856775,0.7929329499313893,0.39476282664505763,0.4923801518791376,-0.018005967994800684,0.01936348096202678,0.06888713945913134
5974,9.0,300.95432,-5740.0661,0.059739984990113015,0.0,0.0,0.0,0.0,0.009117166373742519,0.7950128180141562,0.42413140456601056,0.5256925423693145,-0.015434093021226383,0.008779623651981391,0.09170979445430201
5975,9.0,300.66489,-5649.6044,0.05974996162958046,0.0,0.0,0.0,0.0,0.009118688949985049,0.7802023743499793,0.4181518610883756,0.5189844518047775,-0.0034758247720371965,0.0069030850747314534,0.08634993143307472
5976,9.0,300.65855,-5266.3191,0.059759971304278015,0.0,0.0,0.0,0.0,0.009120216567870792,0.7548448381423852,0.36994773387849866,0.4760369445236886,-0.01210865786878149,-0.013818139470244186,0.09696948250439281
5977,9.0,300.44706,-5226.5582,0.059769980978975346,0.0,0.0,0.0,0.0,0.00912174418575648,0.7701977353800983,0.37793565051184463,0.4406097997498016,0.0005792141959714904,-0.01082744060758519,0.08939603987745222
5978,9.0,300.2391,-5482.2458,0.05977995761844279,0.0,0.0,0.0,0.0,0.00912326676199901,0.8045217547701152,0.3913175229925326,0.4706265436272235,0.008427483879802902,-0.01071164435965699,0.08764986342361801
5979,9.0,300.55057,-5653.9256,0.059789967293140345,0.0,0.0,0.0,0.0,0.009124794379884754,0.8015980418715672,0.4121163862052206,0.5049377758009785,0.014534220541165885,0.029761253877957073,0.07575200919839122
5980,9.0,299.60082,-5560.8137,0.0597999769678379,0.0,0.0,0.0,0.0,0.009126321997770498,0.7543917633601703,0.4307648793931836,0.5051918786610565,0.006421373818190254,0.0029035746541355074,0.1016140193260229
5981,9.0,299.35559,-5490.3317,0.05980998664253523,0.0,0.0,0.0,0.0,0.009127849615656214,0.7564503633233383,0.41532053633394556,0.49715285369266654,-0.010244715408824689,-0.005881712153979795,0.08836948681688932
5982,9.0,299.28061,-5528.0823,0.059819963282002675,0.0,0.0,0.0,0.0,0.009129372191898744,0.7739386750143002,0.4285919442887316,0.4778683636819355,-0.004724016564774136,-0.01959456683283318,0.10138598739101791
5983,9.0,299.76963,-5595.1835,0.05982997295670023,0.0,0.0,0.0,0.0,0.009130899809784487,0.8005081394015022,0.4197259349862246,0.4805619978802765,0.005496434949205895,-0.006721827804092753,0.07777471477676673
5984,9.0,299.91213999999997,-5569.2109,0.05983998263139756,0.0,0.0,0.0,0.0,0.009132427427670176,0.7928923084698782,0.40891333038660366,0.49109540141484254,0.01046904898096469,-0.003002324489006357,0.0903133747097361
5985,9.0,300.70142999999996,-5286.5639,0.05984995927086478,0.0,0.0,0.0,0.0,0.009133950003912705,0.7621898779847843,0.3772991369315256,0.4674943849181036,-0.008466684499671702,0.006591939881723813,0.07162925463500704
5986,9.0,299.78581,-5217.7458,0.059859968945562336,0.0,0.0,0.0,0.0,0.009135477621798449,0.7307512706395353,0.37058970887685666,0.4847234667034816,-0.0005448570838332075,0.007296487025432202,0.09917842750414872
5987,9.0,300.25925,-5470.269,0.05986997862025989,0.0,0.0,0.0,0.0,0.009137005239684193,0.7812679689501453,0.38411811758700665,0.4974390867134155,-0.004439487020093256,0.03147138091973347,0.08169603724677112
5988,9.0,300.05181,-5671.6822,0.05987998829495744,0.0,0.0,0.0,0.0,0.009138532857569909,0.8050281771700952,0.41713349407537054,0.5018880855174975,0.00984216857199641,-0.003950257853110096,0.08853621610759423
5989,9.0,300.86838,-5576.42,0.059889964934424667,0.0,0.0,0.0,0.0,0.009140055433812438,0.8149402962733452,0.3982496938166846,0.48190243657006754,0.0024012278500327375,-0.020282961858022478,0.06732952175615643
5990,9.0,300.17183,-5452.3118,0.05989997460912222,0.0,0.0,0.0,0.0,0.009141583051698182,0.7912719189099582,0.4056926541487476,0.4604020800481476,-0.005159553710283305,-0.020082392040477782,0.07755828151565643
5991,9.0,299.97839,-5580.8733,0.05990998428381977,0.0,0.0,0.0,0.0,0.009143110669583898,0.8029135647413993,0.4076806711099496,0.4858519030748495,0.00946010691641486,0.006251682898768064,0.06392907975180893
5992,9.0,299.86393,-5688.7088,0.059919960923287,0.0,0.0,0.0,0.0,0.0091446332458264,0.7819946921868673,0.42784305113982163,0.5193876848145735,-0.002817686306758987,0.006023051727653925,0.07939082234176413
5993,9.0,299.84542000000005,-5627.9133,0.05992997059798477,0.0,0.0,0.0,0.0,0.009146160863712172,0.7883033088994793,0.4214134928952736,0.5010283022776435,-0.010477813594329689,0.005606921158660035,0.08887048326258382
5994,9.0,300.03082,-5419.8767,0.0599399802726821,0.0,0.0,0.0,0.0,0.009147688481597888,0.7631635809333813,0.3997600849457486,0.48458352673217053,-0.0009548571553495641,-0.008249835502045373,0.08310417725524372
5995,9.0,299.964,-5256.0839,0.05994995691214955,0.0,0.0,0.0,0.0,0.009149211057840417,0.7658458971281052,0.38484203412095164,0.44703034006845954,0.0008898814085094573,0.0012966756073719188,0.09712871982385832
5996,9.0,299.27824,-5429.1995,0.05995996658684688,0.0,0.0,0.0,0.0,0.009150738675726133,0.7708448171589602,0.3951456122678356,0.48435063119668553,0.006198148235034604,-0.014971324475304686,0.08209237002338612
5997,9.0,300.18926,-5714.6475,0.05996997626154443,0.0,0.0,0.0,0.0,0.009152266293611877,0.8078313234392442,0.4085713686103546,0.5207074532023245,-0.0013532199278774087,-0.018897268379015182,0.08624809473177422
5998,9.0,300.65708,-5686.2238,0.059979985936241986,0.0,0.0,0.0,0.0,0.009153793911497593,0.7902979930463393,0.42227122936992556,0.5159008176429466,-0.001189090940904139,0.0024026389021219977,0.08343701268784202
5999,9.0,300.1105,-5509.5292,0.05998996257570921,0.0,0.0,0.0,0.0,0.009155316487740095,0.7735971489355943,0.40768063057994564,0.49348151420783354,-0.011345547807718388,0.019106802420194583,0.10060048855574522
6000,9.0,300.0434,-5568.2194,0.059999972250406985,0.0,0.0,0.0,0.0,0.009156844105625866,0.7779748351976382,0.42856623813369454,0.4860585959627486,0.009415918876903842,0.007514367612985342,0.09025168297739761
6001,9.0,299.97787,-5786.6891,0.060009981925104317,0.0,0.0,0.0,0.0,0.009158371723511582,0.8275887175366472,0.4358764627026576,0.49554382266636754,0.0037262883417310266,-0.014071385120737587,0.08073574770299792
6002,9.0,299.62227,-5773.8982,0.06001995856457176,0.0,0.0,0.0,0.0,0.009159894299754112,0.8167695977388832,0.4273963598332366,0.5109549209898245,0.01207949450440329,-0.01924538666287178,0.06312443859564704
6003,9.0,300.10853,-5376.3311,0.060029968239269316,0.0,0.0,0.0,0.0,0.009161421917639856,0.7699396099171233,0.3866929786086256,0.47763781888668255,-0.0034628383508055367,-0.009104972787540851,0.06863907962264974
6004,9.0,299.71035,-5265.495,0.06003997791396687,0.0,0.0,0.0,0.0,0.0091629495355256,0.7372134251398003,0.37711451263080464,0.4862510729517445,-0.00977406529700014,0.006467558669673344,0.06764380356617364
6005,9.0,299.70779,-5488.5321,0.0600499875886642,0.0,0.0,0.0,0.0,0.009164477153411288,0.7726537320324863,0.4077150709508446,0.48800791690263157,-0.015070440600086684,0.013448274812741384,0.09083218206568841
6006,9.0,300.26001,-5737.1284,0.060059964228131646,0.0,0.0,0.0,0.0,0.009165999729653818,0.7967161015647573,0.42752203324313964,0.5197056325634525,-0.014023364158748287,0.006341988915255573,0.08792354430212822
6007,9.0,300.75401,-5702.6757,0.0600699739028292,0.0,0.0,0.0,0.0,0.009167527347539561,0.8215040493611372,0.4121146636800506,0.49985231407908254,-0.0042856258030083355,0.008839818205972133,0.08492776196371751
6008,9.0,300.5157,-5372.7003,0.06007998357752653,0.0,0.0,0.0,0.0,0.009169054965425277,0.7739141442293793,0.38777360984027565,0.4714789706713515,-0.0015327177910424686,-0.005628193736559474,0.07626493159776274
6009,9.0,300.7146,-5302.3154,0.060089960216993976,0.0,0.0,0.0,0.0,0.009170577541667807,0.7715226409458562,0.3765854238260876,0.46366341801251654,0.006605350550772344,-0.030432627314716472,0.08123364562988662
6010,9.0,300.56469,-5654.0476,0.06009996989169153,0.0,0.0,0.0,0.0,0.00917210515955355,0.7952613581311853,0.4153391092082786,0.5080888113594616,-0.006897688099398812,-0.018114958241807182,0.08129228545292393
6011,9.0,300.04045,-5753.1531,0.06010997956638908,0.0,0.0,0.0,0.0,0.009173632777439295,0.8182871930761582,0.4268207223189256,0.5037069809045085,0.002117219115903258,0.006154222120674434,0.0969499744002175
6012,9.0,299.90299,-5462.0097,0.060119956205856306,0.0,0.0,0.0,0.0,0.009175155353681796,0.7637385193051233,0.4126066877961096,0.4839693654490576,0.004832377988768575,0.016333201510711482,0.08786909325500432
6013,9.0,299.57457999999997,-5309.852,0.06012996588055386,0.0,0.0,0.0,0.0,0.009176682971567512,0.7707403308086482,0.38836416239605864,0.45495793792335254,0.003417134387819907,0.012451924711159289,0.08700466426344182
6014,9.0,299.76647,-5533.0087,0.06013997555525141,0.0,0.0,0.0,0.0,0.009178210589453256,0.7793091639893263,0.4038314657025626,0.49875584574836956,-0.0015354909552411586,0.003530702397453197,0.07527908282021702
6015,9.0,300.2785,-5658.7696,0.060149985229948966,0.0,0.0,0.0,0.0,0.009179738207339,0.7966772636884242,0.4083732072882976,0.5150741879463645,0.0015538045388735686,-0.008483504147356671,0.08259970941470662
6016,9.0,299.73884,-5587.8464,0.06015996186941619,0.0,0.0,0.0,0.0,0.009181260783581502,0.7633505965043382,0.4236073414817896,0.5116078593542644,-0.008609144626631421,0.002949218227415177,0.07974619549633673
6017,9.0,300.32489,-5525.4613,0.06016997154411352,0.0,0.0,0.0,0.0,0.009182788401467246,0.7727814218100882,0.4140217422232646,0.4927991003979845,-0.0074313983378219125,-0.001030517401579149,0.0942078146413374
6018,9.0,300.49915,-5522.6489,0.060179981218811074,0.0,0.0,0.0,0.0,0.00918431601935299,0.7844115469878923,0.4075805316025666,0.48675528646650656,-0.0058884598930207446,0.008894578193051521,0.0988858170872703
6019,9.0,299.70033,-5693.078,0.06018995785827852,0.0,0.0,0.0,0.0,0.009185838595595519,0.8308473095932452,0.41758448156237965,0.4821217646867136,0.0059923941233532545,0.02109052117447238,0.07637221553160083
6020,9.0,299.48597,-5758.0775,0.06019996753297585,0.0,0.0,0.0,0.0,0.009187366213481207,0.8132980509087683,0.4141035013738336,0.5229102183897205,-0.002974716159556627,0.003927339453073226,0.06420621176015974
6021,9.0,299.67107999999996,-5503.5532,0.060209977207673404,0.0,0.0,0.0,0.0,0.009188893831366951,0.7901500483992382,0.3999293078449496,0.4828633928324066,0.006288408351292583,-0.016252977434043987,0.06351435547262885
6022,9.0,299.32394,-5423.4982,0.06021998688237096,0.0,0.0,0.0,0.0,0.009190421449252695,0.7586758557104774,0.3949503387085636,0.49498184376340454,-0.0037189120836530463,-0.017798844475609185,0.07695162334953393
6023,9.0,300.12175,-5638.4424,0.06022996352183818,0.0,0.0,0.0,0.0,0.009191944025495197,0.7933989233873773,0.4162234840280596,0.5043233004103345,-0.0007470788942084463,-0.006307078902935224,0.09372621686880742
6024,9.0,300.45034,-5743.488,0.060239973196535734,0.0,0.0,0.0,0.0,0.00919347164338094,0.7914957762545513,0.43522952277880955,0.5191516380712775,0.0007955302544427232,0.0035621243976293065,0.0984659951468371
6025,9.0,300.25313,-5515.0669,0.06024998287123329,0.0,0.0,0.0,0.0,0.009194999261266684,0.7921406491481953,0.39115400469139466,0.49314796240741454,-0.01028329085338179,0.0066720482452298936,0.0856366834094326
6026,9.0,300.46226,-5330.9791,0.060259959510700734,0.0,0.0,0.0,0.0,0.009196521837509214,0.7635716066161503,0.3875556698762666,0.46935725535945455,-0.009579803670603012,0.0023005106887677277,0.08955233471862732
6027,9.0,299.80695,-5410.548000000001,0.060269969185398065,0.0,0.0,0.0,0.0,0.009198049455394902,0.7830129680073632,0.3889695489333056,0.47268898380827057,0.0017642453375674584,-0.0070695307567333636,0.08014469764141582
6028,9.0,299.82308,-5603.0762,0.06027997886009562,0.0,0.0,0.0,0.0,0.009199577073280646,0.7860493644495322,0.41339338530625064,0.5037525163640025,-0.00015431401828960785,-0.005413210132367245,0.07947750386131892
6029,9.0,299.35334,-5777.3324,0.06028998853479317,0.0,0.0,0.0,0.0,0.00920110469116639,0.8045675638071362,0.4422490560265836,0.5093481596437495,0.007273043863168544,-0.02035187502382368,0.09799763143386321
6030,9.0,299.75572999999997,-5685.2961,0.06029996517426062,0.0,0.0,0.0,0.0,0.00920262726740892,0.8115083472571382,0.4183911502319916,0.49828857533225357,0.008020548859441543,0.006518575812208343,0.07784606176930813
6031,9.0,298.99318999999997,-5476.5164,0.06030997484895795,0.0,0.0,0.0,0.0,0.009204154885294635,0.7992735853471612,0.3994269688428726,0.46602368279545653,0.002043922832819478,0.007012256186880804,0.0922409654879745
6032,9.0,299.45166,-5487.1997,0.0603199845236555,0.0,0.0,0.0,0.0,0.009205682503180351,0.7793455092704132,0.3985177086006356,0.4901084755524405,-0.0018816150615759484,0.008455125342530902,0.06829824255401173
6033,9.0,299.89236,-5601.0538,0.06032996116312295,0.0,0.0,0.0,0.0,0.009207205079422909,0.7933961673471053,0.40426421468777163,0.5049201249842366,-0.009521261930175391,-0.00015012448243863287,0.08078846203945042
6034,9.0,300.61769,-5551.8133,0.06033997083782028,0.0,0.0,0.0,0.0,0.009208732697308597,0.7625282123256754,0.42036652183194556,0.5047178802642766,-0.0007105301626338673,-0.005544847329708825,0.08599983123202251
6035,9.0,300.1168,-5441.9833,0.06034998051251783,0.0,0.0,0.0,0.0,0.00921026031519434,0.7686602702083623,0.41046780802751864,0.47509895864111656,0.02141332036483018,-0.013854673215849787,0.10537870954256891
6036,9.0,299.99617,-5435.9346,0.06035995715198528,0.0,0.0,0.0,0.0,0.00921178289143687,0.7777254439505252,0.39367285324748563,0.4809901061800276,0.011157563569665789,-0.0017687234977094184,0.09382940220599101
6037,9.0,300.24404,-5463.5871,0.06036996682668283,0.0,0.0,0.0,0.0,0.009213310509322614,0.7942147011753882,0.4031483426176436,0.46343101896958055,0.012059949923224388,0.001957794142519238,0.08413083366731682
6038,9.0,300.06608,-5580.2642,0.06037997650138016,0.0,0.0,0.0,0.0,0.00921483812720833,0.7921239102565433,0.40111746517721164,0.5030195920366686,0.0017277480689654582,0.017995871970804284,0.07321630421363663
6039,9.0,299.87956,-5698.3575,0.060389986176077715,0.0,0.0,0.0,0.0,0.009216365745094046,0.8096972032333922,0.41753988842547857,0.5049212902218515,-0.004489564474485516,0.011460399706553388,0.06628386386495803
6040,9.0,300.11831,-5660.8841,0.06039996281554516,0.0,0.0,0.0,0.0,0.009217888321336604,0.7904899634102852,0.42168492233206156,0.5085925283816745,-0.014026216457779786,0.001812801802234608,0.08930785469474901
6041,9.0,299.60036,-5588.4076,0.060409972490242714,0.0,0.0,0.0,0.0,0.00921941593922232,0.7963446440780972,0.40627083492080956,0.49612088886331956,-0.00976964935041432,-0.008812384662164652,0.08334672906418172
6042,9.0,299.56609,-5647.0981,0.060419982164940045,0.0,0.0,0.0,0.0,0.009220943557108036,0.8017249514465923,0.4253687855881306,0.4894830671932175,-0.0036810528042666266,-0.004183461011325456,0.09424756849576081
6043,9.0,299.11915,-5603.5338,0.06042995880440771,0.0,0.0,0.0,0.0,0.009222466133350593,0.8029126629488101,0.4025173107203656,0.4979043812918365,0.006796789769015924,-0.0035436868935096667,0.07977260484694312
6044,9.0,299.52092000000005,-5397.5586,0.060439968479105044,0.0,0.0,0.0,0.0,0.009223993751236309,0.7630049464977253,0.38875750608487863,0.48896057464665155,-0.001771426747651208,0.012833439718311888,0.07550278209779443
6045,9.0,299.80307,-5395.8757,0.060449978153802375,0.0,0.0,0.0,0.0,0.009225521369122025,0.7637260664613943,0.3953610596365986,0.4811243516857765,0.011460672270830289,-0.0027305433531086476,0.08755634854538882
6046,9.0,300.29672999999997,-5576.3826,0.06045998782849993,0.0,0.0,0.0,0.0,0.009227048987007741,0.7837789141554562,0.40668661196684364,0.5046155521366775,0.00044112737803338257,0.0017711650251503784,0.0886390093169891
6047,9.0,299.72691000000003,-5664.52,0.060469964467967374,0.0,0.0,0.0,0.0,0.009228571563250298,0.8105101236561212,0.4244033608928506,0.4869591523866265,0.018062168924847282,-0.01973807040474588,0.10050939027900449
6048,9.0,300.07339,-5571.1018,0.06047997414266493,0.0,0.0,0.0,0.0,0.009230099181136014,0.7931850668212712,0.40901109888875264,0.49127969134303057,-0.0028097157774973573,-0.013837883661692786,0.08364880728999452
6049,9.0,300.6699,-5482.1208,0.06048998381736226,0.0,0.0,0.0,0.0,0.00923162679902173,0.7737759267832383,0.4024956676982296,0.4901562502946556,0.0076367622468897535,-0.0007315933422676414,0.08400277101367801
6050,9.0,300.61987,-5545.3371,0.060499960456829704,0.0,0.0,0.0,0.0,0.009233149375264288,0.7870637797871473,0.39968605689344266,0.49889416451952057,-0.013028356613548687,0.008718227788672091,0.07168156468466963
6051,9.0,300.24259,-5678.2428,0.060509970131527036,0.0,0.0,0.0,0.0,0.009234676993150004,0.8034423394385852,0.40837152529313164,0.5142301607455655,-0.009840110053093251,0.016089850247444585,0.08517808641417261
6052,9.0,299.26682999999997,-5592.9148,0.06051997980622459,0.0,0.0,0.0,0.0,0.009236204611035748,0.7912757185978333,0.40860198902837663,0.5002287466237335,-0.017027637532996985,0.014491569804706589,0.0995675955893066
6053,9.0,300.23027,-5451.7231,0.060529956445692035,0.0,0.0,0.0,0.0,0.009237727187278277,0.7861152054410303,0.39993956193596164,0.4711329356297005,0.013166673358199488,-0.0007494537497928263,0.096689726178283
6054,9.0,300.34441,-5491.6922,0.06053996612038959,0.0,0.0,0.0,0.0,0.009239254805164021,0.7787830034773983,0.4059459565412466,0.48460833109461854,0.003672095673382627,-0.005366603971492574,0.1018792578046999
6055,9.0,299.58423999999997,-5668.8257,0.06054997579508692,0.0,0.0,0.0,0.0,0.00924078242304971,0.8012511860973351,0.4119057517744326,0.5100245243505015,0.021025344875039983,-0.015859650970475685,0.07141678115528753
6056,9.0,299.32876,-5618.4876,0.06055998546978425,0.0,0.0,0.0,0.0,0.009242310040935425,0.7854935461071773,0.4024243956861956,0.5199619848387524,0.0036637483164088064,-0.013532829520336286,0.06501233124821754
6057,9.0,299.72531000000004,-5409.5987,0.06056996210925192,0.0,0.0,0.0,0.0,0.009243832617177983,0.7707912871561773,0.38688131140471266,0.4867103184270685,-0.009072494068835452,-0.004809189050955005,0.06024001750947684
6058,9.0,299.86696,-5502.6689,0.06057997178394925,0.0,0.0,0.0,0.0,0.009245360235063699,0.7718268996858842,0.4037853324255096,0.4970617017136706,-0.009583609032678572,-0.0014651954123285286,0.08569254895369612
6059,9.0,299.84957,-5760.2163,0.0605899814586468,0.0,0.0,0.0,0.0,0.009246887852949442,0.8351531158931953,0.41340531125992763,0.5024035055783654,2.6790450181011578e-05,-0.0010981459689035692,0.07866570206670033
6060,9.0,299.84201,-5864.5158,0.06059995809811425,0.0,0.0,0.0,0.0,0.009248410429191972,0.8249148113177532,0.4329256960264396,0.5248258487637786,-0.0016465231038491786,-0.0004291866916999286,0.07853681969373062
6061,9.0,299.76129,-5665.8332,0.0606099677728118,0.0,0.0,0.0,0.0,0.009249938047077716,0.8043467867428473,0.4019627082781306,0.5159623320565174,0.011971548918249888,-0.02313113392186518,0.08092416966509372
6062,9.0,299.95402,-5481.7509,0.06061997744750913,0.0,0.0,0.0,0.0,0.009251465664963404,0.7662195736324843,0.4028552194962146,0.4972406011513265,-0.007195664790131823,-0.0038139973982122366,0.06619454992164343
6063,9.0,300.46779,-5497.1773,0.060629987122206686,0.0,0.0,0.0,0.0,0.009252993282849148,0.7804710376139943,0.3980221887717316,0.49251139816459055,-0.01035066387903099,0.0016479164240616885,0.08600354479363902
6064,9.0,300.5338,-5611.7785,0.06063996376167413,0.0,0.0,0.0,0.0,0.009254515859091678,0.7999723631461253,0.41336356535580765,0.49250460938892054,-0.01068940149346179,0.00991357038136822,0.08907071465459511
6065,9.0,300.13711,-5556.8744,0.060649973436371685,0.0,0.0,0.0,0.0,0.009256043476977421,0.8007604488089033,0.4158932252904656,0.47249737821436055,-0.01034172498664879,0.007943897603951653,0.10760578259986389
6066,9.0,299.67945,-5476.8479,0.060659983111069016,0.0,0.0,0.0,0.0,0.009257571094863137,0.7600837363269243,0.42015310096338265,0.4845881674176285,0.0076536961891860026,0.001064470804480089,0.09586167083881031
6067,9.0,299.5504,-5495.4913,0.060669959750536684,0.0,0.0,0.0,0.0,0.009259093671105695,0.7655279797767294,0.41754928125390556,0.4874148717516025,0.012759049935720187,-0.020074749094973483,0.09016856201869422
6068,9.0,299.43672999999995,-5659.0083,0.060679969425234015,0.0,0.0,0.0,0.0,0.00926062128899141,0.7831178089952102,0.4225221506246896,0.5145572378778455,0.005573127038674814,-0.006219980025664234,0.07302411802741933
6069,9.0,299.91307,-5711.9045,0.060689979099931346,0.0,0.0,0.0,0.0,0.009262148906877099,0.8090004519346283,0.4283835592731656,0.49889233053683957,0.005810427678969564,-0.017712934039380485,0.08229343532022972
6070,9.0,299.76928,-5597.4859,0.060699955739399014,0.0,0.0,0.0,0.0,0.009263671483119656,0.8040490634659642,0.4112792592376026,0.4861676216735086,0.009542963011542121,0.0035680517080642865,0.10013379163918582
6071,9.0,300.28995,-5523.2661,0.060709965414096345,0.0,0.0,0.0,0.0,0.009265199101005372,0.8021388033174363,0.4082239251510646,0.46857222971197854,-0.0059348153758206745,0.013545308708567886,0.09949049333619721
6072,9.0,299.96558999999996,-5540.5532,0.0607199750887939,0.0,0.0,0.0,0.0,0.009266726718891116,0.7788545693319613,0.40643125267664165,0.49890400317799155,-0.0014155210288260484,0.0031228450155258067,0.1026818430764089
6073,9.0,300.90522999999996,-5602.1117,0.06072998476349123,0.0,0.0,0.0,0.0,0.009268254336776832,0.7946520503160512,0.4108041462657126,0.49744588562158654,-0.015032459933338287,-0.008635559854088402,0.07678665711400302
6074,9.0,300.62156,-5508.0677,0.0607399614029589,0.0,0.0,0.0,0.0,0.00926977691301939,0.7727362308556283,0.39325127027837864,0.5083275330830215,0.00024155576382469773,-0.00012133885769771288,0.07955927213113882
6075,9.0,299.80658999999997,-5471.9099,0.06074997107765623,0.0,0.0,0.0,0.0,0.009271304530905106,0.7918785720098303,0.39369814396998165,0.4777472701624845,-0.0009249233966553323,-0.002356198610288698,0.06354734486938465
6076,9.0,299.92453,-5589.7016,0.06075998075235378,0.0,0.0,0.0,0.0,0.009272832148790822,0.8010416662416572,0.4071010616552466,0.49098698365414256,-0.00010386333322301291,0.00918673811893546,0.07624732435077503
6077,9.0,300.03571,-5802.8234,0.060769957391821006,0.0,0.0,0.0,0.0,0.009274354725033351,0.8361008289767272,0.4266463622417176,0.5011662360137564,0.007591048151403122,0.007059783290771364,0.08492698277439062
6078,9.0,299.46738999999997,-5935.1861,0.06077996706651856,0.0,0.0,0.0,0.0,0.009275882342919095,0.8182942148993512,0.45146230613836064,0.5343918416328685,0.012166920762781589,0.007641225410930232,0.09161176453362721
6079,9.0,299.40792000000005,-5787.863,0.06078997674121611,0.0,0.0,0.0,0.0,0.009277409960804811,0.8222688100066132,0.4108153021493136,0.5262817169049615,-0.0018992532126916983,0.005760524300944484,0.07360618765336513
6080,9.0,300.00711,-5526.5617,0.06079998641591344,0.0,0.0,0.0,0.0,0.009278937578690527,0.7775491688306283,0.4002583912124276,0.5021291883787925,-0.01057940407585589,-0.02007391316364098,0.07600516365637563
6081,9.0,299.72958,-5440.347,0.06080996305538089,0.0,0.0,0.0,0.0,0.009280460154933085,0.7924047426542592,0.3879088888611266,0.47341600088752156,-0.011915241596942789,-0.026323028790630674,0.07136908139357993
6082,9.0,299.91357,-5507.9403,0.06081997273007822,0.0,0.0,0.0,0.0,0.0092819877728188,0.7985992775381122,0.4027054509989336,0.47297157926116057,0.0024010017939354276,-0.0016978711738668383,0.0894566008226791
6083,9.0,299.84929,-5486.285,0.06082998240477577,0.0,0.0,0.0,0.0,0.009283515390704516,0.7844639016205592,0.4007124995097446,0.4825172463332445,0.009439180566074592,0.007221639253795304,0.1022648501302549
6084,9.0,299.72368,-5505.6134,0.06083995904424322,0.0,0.0,0.0,0.0,0.009285037966947046,0.7621831398716192,0.41062078852761663,0.5007650599016635,-0.0016808924459161686,0.005046456253996455,0.1098218922910769
6085,9.0,300.00607,-5584.8663,0.06084996871894077,0.0,0.0,0.0,0.0,0.00928656558483279,0.7656996547411723,0.4193245562241116,0.5126357002557045,-0.0016032159839750985,0.00929056453945733,0.0942431912553288
6086,9.0,299.94131,-5605.2398,0.0608599783936381,0.0,0.0,0.0,0.0,0.009288093202718506,0.7777199825324863,0.41444328466236763,0.5116896792998396,0.0024066589718937477,0.01055717134216169,0.0896818868499131
6087,9.0,300.12887,-5721.1359999999995,0.060869988068335656,0.0,0.0,0.0,0.0,0.00928962082060425,0.8133513073340243,0.4208531959874766,0.5048779839125775,0.006065526766545885,0.006204022349839334,0.06485410008610135
6088,9.0,299.3714,-5686.3212,0.0608799647078031,0.0,0.0,0.0,0.0,0.00929114339684678,0.8244493546193162,0.4090160232842386,0.49503427945607953,-0.01133967804988909,-0.004457564516452366,0.07520604876625912
6089,9.0,299.95947,-5606.2807,0.060889974382500656,0.0,0.0,0.0,0.0,0.009292671014732523,0.7959977984363662,0.40995134431904756,0.49822022148050754,-0.002996277209759537,-0.007814052947361982,0.07681194479674873
6090,9.0,299.64712000000003,-5509.7804,0.06089998405719799,0.0,0.0,0.0,0.0,0.009294198632618211,0.7750805977444992,0.4035835943305996,0.4961714703083115,0.0013478555791979886,-0.008200533487954641,0.09486691356638541
6091,9.0,299.78301,-5477.8549,0.060909960696665655,0.0,0.0,0.0,0.0,0.009295721208860769,0.7853844089389063,0.3896377468442516,0.4901089619124885,0.00015309250476405381,0.004975245239618475,0.07909307677337893
6092,9.0,299.41528,-5461.4484,0.060919970371362986,0.0,0.0,0.0,0.0,0.009297248826746485,0.7914493693999712,0.38228029468812763,0.48641428727785246,-0.0015517992156006586,-0.002776570948176217,0.08492961722465062
6093,9.0,300.01198999999997,-5493.2589,0.06092998004606032,0.0,0.0,0.0,0.0,0.0092987764446322,0.8159804988260052,0.39270442933190963,0.46112861076735057,-0.007036360190859682,-0.004227048092202166,0.07084657466151252
6094,9.0,300.15983,-5650.1802,0.060939956685527985,0.0,0.0,0.0,0.0,0.009300299020874758,0.8086255392651273,0.41195616096690757,0.49693198543586853,-0.001976016229667618,-0.0038474619079399267,0.09232674622819041
6095,9.0,299.87455,-5788.1269999999995,0.060949966360225316,0.0,0.0,0.0,0.0,0.009301826638760474,0.8042996706131973,0.42502946839464256,0.5301169293284675,0.006646884482971424,-0.0035992557581438866,0.08786649528174792
6096,9.0,300.2665,-5752.1857,0.06095997603492287,0.0,0.0,0.0,0.0,0.009303354256646218,0.7886975239833852,0.4408469205382035,0.5189763762014805,0.0008470232800196893,-0.015484214450672985,0.0989626133388495
6097,9.0,300.22059,-5631.6423,0.0609699857096202,0.0,0.0,0.0,0.0,0.009304881874531906,0.7915562267555173,0.40564025898607664,0.5146821614826745,-0.006942780363299073,-0.004875814399355415,0.08217356479364943
6098,9.0,299.8663,-5538.9841,0.06097996234908787,0.0,0.0,0.0,0.0,0.009306404450774464,0.7850889452097463,0.4084515213885266,0.4901724116337505,0.00012744947520828388,-0.0071256219517941335,0.07041345077376653
6099,9.0,300.9566,-5438.9368,0.0609899720237852,0.0,0.0,0.0,0.0,0.00930793206866018,0.7947311040888533,0.39413905975099667,0.4644308131082526,7.367480292363693e-05,0.003994832650184286,0.07377708140198103
6100,9.0,300.6667,-5550.7739,0.06099998169848275,0.0,0.0,0.0,0.0,0.009309459686545923,0.8013373528858392,0.40242681735393465,0.48353248240344054,0.012305613423219489,0.004154343445851777,0.07076821901802943
6101,9.0,299.98895,-5610.8025,0.0610099583379502,0.0,0.0,0.0,0.0,0.009310982262788453,0.7793307766139592,0.4226211552919606,0.5035919162231526,0.00043053757699825054,0.009489440304159841,0.10288134188859789
6102,9.0,300.12542,-5549.9544,0.06101996801264775,0.0,0.0,0.0,0.0,0.009312509880674197,0.7600141564425573,0.4182302967786166,0.5088030918849555,-0.0004535803838823986,0.007157647342404794,0.1092350786281629
6103,9.0,299.78777,-5587.65,0.06102997768734508,0.0,0.0,0.0,0.0,0.009314037498559913,0.7795340649815222,0.4204589302410656,0.49851309128941157,-0.02068471856242278,0.007878466776094132,0.1189734152067619
6104,9.0,299.46266,-5651.0991,0.061039987362042414,0.0,0.0,0.0,0.0,0.009315565116445601,0.8024654548846742,0.4143499136656526,0.5009776499051446,-0.0026708133742887577,-0.004056495099594897,0.09326638674817572
6105,9.0,299.66958999999997,-5653.0225,0.06104996400151008,0.0,0.0,0.0,0.0,0.009317087692688159,0.8235484131604003,0.4227592511480896,0.4720700095871826,-0.01160167108849579,-0.014366073713571088,0.08594734183709223
6106,9.0,299.34876,-5602.6083,0.06105997367620741,0.0,0.0,0.0,0.0,0.009318615310573874,0.7962222333335163,0.39936195871645663,0.5074688340207746,0.0028213278262933772,-0.014963197196252586,0.06772556879624324
6107,9.0,299.9766,-5559.1866,0.061069983350904966,0.0,0.0,0.0,0.0,0.009320142928459618,0.7717654055373153,0.4222690204847076,0.4958194773560725,0.001725732613191548,-0.02007391316364098,0.06383027773455793
6108,9.0,300.38997,-5537.8723,0.06107995999037241,0.0,0.0,0.0,0.0,0.009321665504702148,0.7670214597616243,0.3941360909282036,0.5222173579713405,0.022289255824528276,-0.004887480859681805,0.05951001640868135
6109,9.0,300.11614,-5618.1025,0.06108996966506974,0.0,0.0,0.0,0.0,0.009323193122587892,0.7993053304727942,0.41048612758932657,0.49797142805095357,0.008667756179990932,0.008685333029475632,0.06730668107240223
6110,9.0,300.50858999999997,-5685.0471,0.061099979339767296,0.0,0.0,0.0,0.0,0.009324720740473608,0.8199608795913382,0.41284390990952163,0.49530756314055047,0.00973711905727883,0.003087060061744107,0.07459814835551402
6111,9.0,299.76833999999997,-5729.9063,0.06110995597923452,0.0,0.0,0.0,0.0,0.009326243316716137,0.8354784907653072,0.4135772091393926,0.4926927496674885,-0.013146066890915787,0.006853761985038644,0.07929393638045223
6112,9.0,300.05793,-5652.2752,0.061119965653932073,0.0,0.0,0.0,0.0,0.009327770934601853,0.8124919293942102,0.4102924144352086,0.49536617965883556,-0.012795680953335387,-0.001971933135739648,0.09094368821269322
6113,9.0,300.21778,-5546.1316,0.06112997532862963,0.0,0.0,0.0,0.0,0.009329298552487597,0.7642025574534203,0.4048131327969456,0.5168698292435805,-0.013629340579111188,-0.005304569051345205,0.1044750019108799
6114,9.0,299.46125,-5504.7386,0.06113998500332696,0.0,0.0,0.0,0.0,0.009330826170373313,0.7609902810588933,0.4112508983673036,0.5010619219159616,-0.003424355922607616,-0.004521043419317246,0.09164017809293142
6115,9.0,299.36848,-5449.2008,0.061149961642794404,0.0,0.0,0.0,0.0,0.009332348746615843,0.7546512567107803,0.4121603004645546,0.48960940934818653,-0.009014016061839122,-0.0042834449848181055,0.09386932628643122
6116,9.0,300.13755,-5514.9264,0.06115997131749196,0.0,0.0,0.0,0.0,0.009333876364501587,0.7983284560513842,0.4064858668570316,0.4715855848468735,0.00880769189565151,-0.003839525018581616,0.07482657545805803
6117,9.0,299.47898,-5603.2854,0.06116998099218929,0.0,0.0,0.0,0.0,0.009335403982387275,0.8145860539058842,0.4125361554566486,0.47613664833352853,-0.0024462545566515275,0.014825325268395686,0.08223353501406802
6118,9.0,299.07921,-5661.3701,0.061179957631656734,0.0,0.0,0.0,0.0,0.009336926558629832,0.8080994395482052,0.4198678710602326,0.4929478455126645,0.008138570711214392,-0.005988618854805665,0.07322556937255104
6119,9.0,299.81166,-5599.0617,0.06118996730635429,0.0,0.0,0.0,0.0,0.009338454176515548,0.7606370519415323,0.4300582083759406,0.5112796777793756,0.001108978828372689,-0.010875380509566488,0.0967879871199806
6120,9.0,300.00135,-5692.1975,0.06119997698105184,0.0,0.0,0.0,0.0,0.009339981794401292,0.7823035713473513,0.42749780643324853,0.5204845381803246,-0.004232960203885646,-0.012591780582711987,0.09182228750690422
6121,9.0,300.02986,-5709.0387,0.06120998665574917,0.0,0.0,0.0,0.0,0.009341509412287008,0.7865084782023433,0.43742846801332863,0.5114682537554865,-0.002864388321093117,-0.003406296056800247,0.1017117776956709
6122,9.0,300.17525,-5529.4797,0.06121996329521662,0.0,0.0,0.0,0.0,0.009343031988529538,0.8132069293272752,0.3942939654262846,0.47332286293832954,-0.008342628743553352,-0.0034950918240137067,0.09711944757219322
6123,9.0,300.11093999999997,-5535.4389,0.06122997296991417,0.0,0.0,0.0,0.0,0.009344559606415281,0.8060295215814203,0.3974281405031036,0.47917754360614156,-0.0006164749789213435,0.0076232364726298634,0.08447890939466922
6124,9.0,299.99408999999997,-5542.2249,0.061239982644611723,0.0,0.0,0.0,0.0,0.009346087224301025,0.7951317533108943,0.3978463189518746,0.4917198978489756,-0.0028423268266658175,0.014142094778966089,0.08135097087221572
6125,9.0,300.37521,-5639.4018,0.06124995928407895,0.0,0.0,0.0,0.0,0.009347609800543527,0.7793403822249072,0.41226864729774765,0.5226283018143976,0.0024705426681735777,0.02146311958074498,0.07675470021909912
6126,9.0,299.9443,-5749.9851,0.0612599689587765,0.0,0.0,0.0,0.0,0.009349137418429243,0.7981476618360412,0.42207122393268653,0.5276330075033235,-0.007159485580736213,-0.008457445685259902,0.07611852202456322
6127,9.0,299.56152000000003,-5735.4854,0.061269978633474054,0.0,0.0,0.0,0.0,0.009350665036314987,0.7917608222157092,0.4290843331748265,0.5225992114040264,0.008058344202746653,-0.022980176882216877,0.06766587114010153
6128,9.0,299.56365,-5736.2702,0.0612799552729415,0.0,0.0,0.0,0.0,0.009352187612557517,0.8206985053991362,0.4188788173726206,0.5041055630963456,-0.0026260845631993677,-0.017188022864825785,0.06368408601012994
6129,9.0,299.77747,-5768.4427,0.06128996494763883,0.0,0.0,0.0,0.0,0.009353715230443232,0.8297890205263002,0.42212211948520956,0.5015514027742695,-0.002221915411635978,-0.0034212087677970167,0.07285209349169183
6130,9.0,299.56567,-5729.6628,0.061299974622336384,0.0,0.0,0.0,0.0,0.009355242848328976,0.8200916699142462,0.4130250688949006,0.5085576624457335,-0.009737797022920741,-0.0077272256211177925,0.07995034512648472
6131,9.0,299.19759,-5609.4585,0.06130998429703394,0.0,0.0,0.0,0.0,0.009356770466214692,0.7839931152265963,0.4142465925529556,0.5068956181742025,-0.0037118416244552466,-0.0028549916423157374,0.10462025131271491
6132,9.0,300.18959,-5578.8554,0.06131996093650116,0.0,0.0,0.0,0.0,0.009358293042457222,0.7757689998624393,0.42171946402797056,0.4983442736902505,0.013305678099668188,0.0072003118590654525,0.09411845408851821
6133,9.0,300.35894,-5558.2859,0.061329970611198714,0.0,0.0,0.0,0.0,0.009359820660342938,0.7643473306277083,0.4163559056836286,0.5088768868897385,0.0032450025489068174,0.003250398510989357,0.11896419463085188
6134,9.0,300.50931,-5562.7294,0.06133998028589627,0.0,0.0,0.0,0.0,0.009361348278228682,0.8081821511538683,0.4061667032080326,0.4765819818849795,-8.276767791028382e-05,-0.012225180617031388,0.08930597815556382
6135,9.0,300.85305,-5484.4489,0.06134995692536371,0.0,0.0,0.0,0.0,0.009362870854471211,0.7843179328111533,0.4051665949618296,0.4776509911379826,-0.018826910318571383,-0.005255734145550575,0.10071271107057071
6136,9.0,300.28539,-5557.7392,0.061359966600061044,0.0,0.0,0.0,0.0,0.009364398472356927,0.7955516036223302,0.39977165626189065,0.49409068016795354,-0.007411435385676723,0.017326092376452183,0.07014862874088064
6137,9.0,299.72621000000004,-5708.7832,0.0613699762747586,0.0,0.0,0.0,0.0,0.009365926090242671,0.7753524324813273,0.4351919210675986,0.5247832010670695,-0.007982245877836332,0.020554684124089378,0.09163059781323592
6138,9.0,299.96011,-5786.7768,0.06137998594945615,0.0,0.0,0.0,0.0,0.009367453708128387,0.8079384442398163,0.42857453665201356,0.5225226907564745,-0.0020152596086906384,0.006217358950305554,0.07746830895977683
6139,9.0,299.70701,-5795.2527,0.0613899625889236,0.0,0.0,0.0,0.0,0.009368976284370945,0.7978727164214062,0.43236633130873453,0.5313730554774375,-0.006258086639400064,-0.011959977602107888,0.08562467943549792
6140,9.0,299.49168,-5709.0361,0.06139997226362093,0.0,0.0,0.0,0.0,0.009370503902256633,0.8278305499380142,0.4067970866252466,0.5007767832053206,0.018495229991087082,-0.008564019026802872,0.06625655373501273
6141,9.0,299.93604,-5611.4283,0.06140998193831848,0.0,0.0,0.0,0.0,0.009372031520142377,0.8056938723532943,0.4062656268152956,0.49377458666675755,0.01105211361850869,-0.006375515942514434,0.08931898423384742
6142,9.0,299.68792,-5626.8722,0.06141995857778593,0.0,0.0,0.0,0.0,0.009373554096384906,0.8148315137426092,0.40015363128458864,0.49544350077396654,0.006215781421224864,-0.0002803078685367327,0.08023526801485442
6143,9.0,300.20552000000004,-5535.8019,0.06142996825248326,0.0,0.0,0.0,0.0,0.009375081714270622,0.7856718274622722,0.3890832963895316,0.5079904349072525,-0.01883991842335518,0.0006424451362718984,0.099629306573397
6144,9.0,300.22882999999996,-5613.7439,0.06143997792718081,0.0,0.0,0.0,0.0,0.009376609332156366,0.7894778684153992,0.4132777633373396,0.5036823285295755,-0.011434205164968188,0.014415961082244588,0.08769603419092473
6145,9.0,300.3505,-5679.9312,0.061449987601878364,0.0,0.0,0.0,0.0,0.009378136950042082,0.7971006907727132,0.4143410983897826,0.5151154576229375,-0.015969003961017983,-0.00036056678074267064,0.09246500521758551
6146,9.0,299.86247000000003,-5734.8934,0.06145996424134559,0.0,0.0,0.0,0.0,0.00937965952628464,0.8204074797054143,0.4168520030650896,0.5060049308062985,0.0006198768850720854,-0.005906345175835884,0.06185567823118014
6147,9.0,299.76617000000005,-5656.438,0.06146997391604314,0.0,0.0,0.0,0.0,0.009381187144170328,0.7988724396325713,0.4175773685466776,0.5029661025638895,-0.0018298563212927584,-0.009864741757724211,0.07376576542486424
6148,9.0,300.35354,-5714.5718,0.061479983590740694,0.0,0.0,0.0,0.0,0.009382714762056099,0.7995703257714473,0.42250339536533865,0.5150134030728656,0.008482827397614882,0.004799147438488975,0.06344613334339586
6149,9.0,300.28876,-5770.8107,0.06148996023020792,0.0,0.0,0.0,0.0,0.009384237338298601,0.7901664225208542,0.4436452842668806,0.5203706286040826,0.004571915464437926,0.007216539971342043,0.09092902547049611
6150,9.0,299.1481,-5712.5523,0.06149996990490547,0.0,0.0,0.0,0.0,0.009385764956184345,0.7955591118055713,0.43755399956821756,0.5033601352627775,0.004736311442812545,0.006637214125342033,0.0983505271919413
6151,9.0,299.48952,-5591.4967,0.0615099795796028,0.0,0.0,0.0,0.0,0.00938729257407006,0.7780803449305512,0.4247865518156686,0.4968084803811795,0.0038393780973171162,0.0027414435937094172,0.1087681932470849
6152,9.0,299.53252000000003,-5504.3804,0.06151995621907047,0.0,0.0,0.0,0.0,0.009388815150312618,0.8083408261195283,0.3943636263706596,0.47048974473122257,-0.006289230502423724,0.01034206949168279,0.08823884544174601
6153,9.0,299.65913,-5469.0885,0.0615299658937678,0.0,0.0,0.0,0.0,0.009390342768198334,0.7686217363070593,0.39856066027237463,0.4952839240157175,0.005571369455051355,-0.011732076376365788,0.08524685265870932
6154,9.0,299.97952999999995,-5545.8076,0.06153997556846513,0.0,0.0,0.0,0.0,0.009391870386084022,0.7937434182888763,0.40420478756940664,0.4878388257259435,-0.004748903304455266,-0.011038685014933389,0.09088984207587901
6155,9.0,299.99669,-5698.161,0.06154998524316291,0.0,0.0,0.0,0.0,0.009393398003969794,0.7896817242030183,0.4188918984314116,0.5235250281528975,0.007660962408303123,0.007447003605262034,0.08898932635356273
6156,9.0,299.9643,-5711.7327,0.06155996188263013,0.0,0.0,0.0,0.0,0.009394920580212296,0.8058517873813793,0.4321076992207096,0.4982646322323905,-0.015651553717938086,0.01039420728882839,0.08884025902535092
6157,9.0,300.08867000000004,-5732.295999999999,0.061569971557327685,0.0,0.0,0.0,0.0,0.00939644819809804,0.8165246039972043,0.43110560500431055,0.49484462943486246,-0.004035685475666146,0.005981443422897505,0.07758125088217334
6158,9.0,300.10836,-5748.436,0.061579981232025016,0.0,0.0,0.0,0.0,0.009397975815983756,0.8359064673425453,0.41641095556156166,0.4950635927814725,-0.002259505875770868,-0.005467576877082825,0.06976747951701413
6159,9.0,299.78033,-5696.8967,0.061589957871492684,0.0,0.0,0.0,0.0,0.009399498392226313,0.8018170558806822,0.42240178664531064,0.5074954926309055,0.011416017325673189,-0.007136939955411133,0.05698730129020875
6160,9.0,300.80775,-5673.488,0.061599967546190015,0.0,0.0,0.0,0.0,0.009401026010112029,0.7951378125464923,0.4205712996771556,0.5088895829134915,-0.005170842430972415,-0.002314629720961168,0.07988576461811112
6161,9.0,300.31962999999996,-5706.8547,0.06160997722088757,0.0,0.0,0.0,0.0,0.009402553627997745,0.7991302611205162,0.4169669968189386,0.5186440605661835,-0.001043911554651049,-0.00950030011608162,0.08107341633857322
6162,9.0,300.64787,-5653.7402,0.06161998689558512,0.0,0.0,0.0,0.0,0.009404081245883489,0.8087889765062573,0.4177387286251026,0.4920681316433435,-0.009719234078438721,0.0011258117496339688,0.1133364414554359
6163,9.0,300.39725,-5497.4883,0.06162996353505257,0.0,0.0,0.0,0.0,0.009405603822126019,0.7947665779748542,0.3923205797965266,0.48401202327826753,0.009440459186375781,0.009258093217477661,0.09016544120838622
6164,9.0,300.32662,-5433.4784,0.0616399732097499,0.0,0.0,0.0,0.0,0.009407131440011735,0.7862546995822972,0.3932103653718416,0.47217668455771056,0.005745118745099074,0.007371832201543192,0.09623826955647771
6165,9.0,300.04137000000003,-5502.6062,0.06164998288444745,0.0,0.0,0.0,0.0,0.009408659057897478,0.7488288581911543,0.40661005078928764,0.5172159858752435,0.0091478925419017,-0.0032232049048055568,0.07629928685565333
6166,9.0,299.58275,-5517.4022,0.0616599595239149,0.0,0.0,0.0,0.0,0.009410181634140008,0.7764419904463583,0.4043219192809666,0.4963885895397395,-0.0065686421208495036,-0.009132754078782652,0.09396641287126291
6167,9.0,299.30647,-5638.2675,0.06166996919861223,0.0,0.0,0.0,0.0,0.009411709252025724,0.7749911784231742,0.4293943978379276,0.5095069460669205,-0.001218841179740259,-0.008679455672270582,0.09086882929530522
6168,9.0,300.32477,-5737.8026,0.06167997887330978,0.0,0.0,0.0,0.0,0.00941323686991144,0.8231167078227942,0.42398522297408364,0.49704678667219854,-0.005331243569502775,0.006336637637502443,0.0955462359501793
6169,9.0,299.43845,-5767.411,0.06168995551277723,0.0,0.0,0.0,0.0,0.00941475944615397,0.8280663838987892,0.43293519017987653,0.4921473475361616,-0.0014148242167322785,0.001756441082647238,0.0888711246498971
6170,9.0,299.16727000000003,-5685.2762,0.06169996518747478,0.0,0.0,0.0,0.0,0.009416287064039713,0.8183729140346182,0.4178063225392736,0.49200278714439455,-0.0062354696812679435,0.0005473251685592885,0.08521627783694181
6171,9.0,300.45639,-5633.4653,0.06170997486217211,0.0,0.0,0.0,0.0,0.00941781468192543,0.7849970839556802,0.4123124906295746,0.5151232191187035,0.007723882605062862,-0.009301227071584641,0.07810596143320822
6172,9.0,300.39647,-5627.7153,0.061719984536869665,0.0,0.0,0.0,0.0,0.009419342299811173,0.7837988447849232,0.4096932188560726,0.5171928635079615,0.013996105704558085,0.002325149688799408,0.07027082366319033
6173,9.0,300.31082999999995,-5584.8822,0.06172996117633711,0.0,0.0,0.0,0.0,0.009420864876053703,0.7795961569476502,0.4053550493479286,0.5127135178633845,-0.001083323335840689,-0.01062693665129699,0.088053886768492
6174,9.0,300.60877,-5661.8493,0.061739970851034665,0.0,0.0,0.0,0.0,0.009422392493939447,0.8112128126004712,0.41227250778062857,0.4975754803093766,-0.008934658111357102,0.0028904813350182973,0.098623443066626
6175,9.0,299.82894,-5651.8549,0.061749980525731996,0.0,0.0,0.0,0.0,0.009423920111825135,0.8231527795263542,0.4061082488097636,0.48876173444702753,-0.017052949533745084,0.014873350283385383,0.0992915953813175
6176,9.0,300.05769,-5589.2299,0.06175995716519944,0.0,0.0,0.0,0.0,0.009425442688067692,0.7988660460244402,0.4024662429153256,0.49765402745712856,-0.002235212596673308,0.02048041998451008,0.08857437713286043
6177,9.0,300.08976,-5747.0801,0.06176996683989677,0.0,0.0,0.0,0.0,0.009426970305953408,0.8026025780207072,0.4266464534342266,0.5177198143549675,-0.006126091562123164,-0.0010784032973301188,0.07652395986657683
6178,9.0,299.94425,-5784.7401,0.061779976514594326,0.0,0.0,0.0,0.0,0.009428497923839124,0.8021947245904553,0.4296191265776066,0.5266026942716395,-0.0022532579730042477,-0.011926215095525789,0.07609580799707152
6179,9.0,300.12396,-5643.8541,0.06178998618929188,0.0,0.0,0.0,0.0,0.009430025541724868,0.7970689557795813,0.4074137911661106,0.5111079622849285,0.004112815390503276,-0.020686788632377082,0.07262654300618174
6180,9.0,300.32575,-5680.0413,0.0617999628287591,0.0,0.0,0.0,0.0,0.009431548117967398,0.8052466845541603,0.4286425156012226,0.4927015142808535,0.002546960065540388,-0.015147151738657485,0.0964118311926069
6181,9.0,299.82217,-5756.526999999999,0.061809972503456656,0.0,0.0,0.0,0.0,0.009433075735853141,0.8303629051179383,0.41843600681391857,0.5010415657214525,0.006128307844066894,-0.008962944913073792,0.07819151621865184
6182,9.0,300.72722000000005,-5718.8674,0.06181998217815399,0.0,0.0,0.0,0.0,0.00943460335373883,0.7926211323456153,0.4373200705176306,0.5084516764852736,0.011004604347819889,0.004555358248528856,0.12169857161571389
6183,9.0,300.68299,-5600.9358,0.061829958817621655,0.0,0.0,0.0,0.0,0.009436125929981387,0.7815510102330794,0.41753636231513064,0.5034572552848625,0.009211425957621961,0.008694723020802353,0.09364849045363641
6184,9.0,300.83052000000004,-5473.0366,0.061839968492318986,0.0,0.0,0.0,0.0,0.009437653547867103,0.7658816749891363,0.4007548229664216,0.4970299565880375,0.00031437973050686365,0.005615450495351814,0.097838883514196
6185,9.0,299.81293999999997,-5566.1023,0.06184997816701654,0.0,0.0,0.0,0.0,0.009439181165752847,0.7821495269346482,0.4098041596095216,0.5000024169488965,-0.006730726470445984,-0.0043476502866796754,0.08317730452821083
6186,9.0,299.69592,-5616.5465,0.06185998784171387,0.0,0.0,0.0,0.0,0.009440708783638563,0.8082528152158422,0.4159090623895286,0.48312800309602155,-0.009166847310197391,0.0029833766108113466,0.0960391415938253
6187,9.0,300.05293,-5669.7355,0.06186996448118154,0.0,0.0,0.0,0.0,0.00944223135988112,0.8224313555876552,0.40777433594919366,0.4932523170352135,-0.005003427879224885,0.013500726717417989,0.08749290389037732
6188,9.0,300.27473,-5752.0981,0.06187997415587887,0.0,0.0,0.0,0.0,0.009443758977766836,0.8047461997997662,0.4277531049284446,0.5159948877822306,-0.006631823938785063,0.012950917961406088,0.08020077191519992
6189,9.0,299.803,-5728.6102,0.0618899838305762,0.0,0.0,0.0,0.0,0.009445286595652524,0.8099699397628092,0.4073927560940346,0.5239917615464605,-0.004658913827298996,0.002311315683859098,0.06391137624606173
6190,9.0,299.97814,-5716.003000000001,0.06189996047004387,0.0,0.0,0.0,0.0,0.009446809171895082,0.8067148738165593,0.4236083040693846,0.5071989953866435,-0.002014975493362598,0.004989966547671355,0.07183066443688464
6191,9.0,300.28025,-5744.4773,0.0619099701447412,0.0,0.0,0.0,0.0,0.009448336789780798,0.8119482295230512,0.4211891998531376,0.5130402403581296,0.011080842298593989,-0.01307458716261129,0.06262504004536024
6192,9.0,300.75732999999997,-5624.5524,0.06191997981943875,0.0,0.0,0.0,0.0,0.009449864407666542,0.8145530624826282,0.4138841631246866,0.48128627918425754,0.008082423483423092,-0.015986633499507887,0.08648270468642841
6193,9.0,301.01304,-5622.3252,0.0619299564589062,0.0,0.0,0.0,0.0,0.009451386983909071,0.7993348869782113,0.4157692440082296,0.4939423302208125,-0.0015275777759351885,-0.02042865607665138,0.08767658282875501
6194,9.0,300.48163999999997,-5636.1566,0.06193996613360375,0.0,0.0,0.0,0.0,0.009452914601794815,0.7934300706954512,0.4155224264163706,0.5042983643253736,0.00037603099363636965,0.002208460362233068,0.11680370223762788
6195,9.0,299.95167999999995,-5559.5289,0.06194997580830108,0.0,0.0,0.0,0.0,0.009454442219680531,0.7861004322545723,0.4109589708809926,0.49289856102780055,-0.003526443200657846,0.015660912095861686,0.08526106551786201
6196,9.0,299.59758999999997,-5512.6937,0.061959985482998636,0.0,0.0,0.0,0.0,0.009455969837566247,0.7765559506851052,0.4030511618005526,0.4961141203526515,-0.010855696099873791,0.01040853261874219,0.09847996989221632
6197,9.0,299.15144,-5632.1961,0.06196996212246608,0.0,0.0,0.0,0.0,0.009457492413808777,0.8037863479800362,0.4095559639975266,0.4987046563533175,-0.006912260561012003,-0.00025888485339494577,0.06179242305393735
6198,9.0,299.95322999999996,-5696.1633,0.061979971797163635,0.0,0.0,0.0,0.0,0.00945902003169452,0.8189032592694592,0.4231274358369266,0.48946071489601156,-0.00942563462813771,0.002002563483612628,0.09077996320853482
6199,9.0,299.77367999999996,-5765.3403,0.061989981471860967,0.0,0.0,0.0,0.0,0.009460547649580237,0.7987582058162972,0.42991046637885955,0.5238508285900515,0.004819847327431895,-0.0022650254543656076,0.07885483431711622
6200,9.0,300.08635,-5759.3807,0.061999958111328635,0.0,0.0,0.0,0.0,0.009462070225822794,0.7910076328863752,0.43777550617257854,0.5219247921374665,0.004444759973613655,-0.0028264260954965373,0.1019141845356469
6201,9.0,300.01698,-5647.2733,0.062009967786025966,0.0,0.0,0.0,0.0,0.00946359784370851,0.7922324192097523,0.4134592161652476,0.5109384354106975,-0.004505719024804846,-0.0024685748351543674,0.08191630768601012
6202,9.0,299.94282000000004,-5551.684,0.0620199774607233,0.0,0.0,0.0,0.0,0.009465125461594198,0.7808795192593083,0.4186568041432096,0.4880369870480006,-0.0024479484068436978,0.004105811400512036,0.0973198917467255
6203,9.0,300.48662,-5515.2881,0.06202998713542085,0.0,0.0,0.0,0.0,0.009466653079479942,0.7977143656957782,0.40189946120688863,0.4768960184884726,-0.002990953188434097,0.007938962569339602,0.08872748226272072
6204,9.0,300.48652000000004,-5595.9218,0.062039963774888296,0.0,0.0,0.0,0.0,0.009468175655722472,0.8088676148465183,0.4106957690350166,0.4814571030186166,-0.003863853052157606,0.008943148133945,0.0896158269963935
6205,9.0,300.26313999999996,-5633.1162,0.06204997344958585,0.0,0.0,0.0,0.0,0.009469703273608215,0.7871994033130322,0.4176107956674766,0.5075164669079755,0.0015370911811240886,-0.005032236403418065,0.09041584773209942
6206,9.0,300.52432999999996,-5644.0723,0.06205998312428318,0.0,0.0,0.0,0.0,0.009471230891493931,0.7889405621523712,0.4131425147139916,0.5135739495833025,0.009900052814434141,0.008769280394960591,0.09102010449548491
6207,9.0,300.6726,-5749.8898,0.062069959763750626,0.0,0.0,0.0,0.0,0.009472753467736489,0.8089459593442503,0.4146607281338276,0.5242162471061155,0.003626905022897656,0.00948464773251185,0.08247873849851771
6208,9.0,300.5623,-5825.1318,0.06207996943844796,0.0,0.0,0.0,0.0,0.009474281085622205,0.8310322378689962,0.41913022498743263,0.5205321609350244,0.0051995860058341855,0.003176592867080307,0.06843116475513014
6209,9.0,300.23644,-5795.842,0.06208997911314551,0.0,0.0,0.0,0.0,0.00947580870350792,0.8502477052829153,0.4102415999426936,0.5013019405996495,-0.0059827687540283045,-0.014410101456916288,0.07116259318220113
6210,9.0,299.24372,-5770.826,0.062099955752612956,0.0,0.0,0.0,0.0,0.009477331279750478,0.8315843679809872,0.41370433149693864,0.5088983069968526,0.0007624431702447823,-0.014424517979339087,0.07132950384467393
6211,9.0,299.97297000000003,-5690.8639,0.06210996542731051,0.0,0.0,0.0,0.0,0.009478858897636194,0.7942467705410533,0.4209751710345146,0.5146585932853485,0.0011399331123026389,-0.007803543415999772,0.0925760665477964
6212,9.0,300.0131,-5608.605,0.06211997510200784,0.0,0.0,0.0,0.0,0.00948038651552191,0.7803343603080052,0.4037356730381086,0.5208058296545336,0.003478588107709916,-0.0014869273978233085,0.08537783955213672
6213,9.0,299.70471000000003,-5546.1675,0.06212998477670517,0.0,0.0,0.0,0.0,0.009481914133407626,0.7732137047002513,0.4037979068592506,0.5088848307705225,-0.008119662147123263,0.002102848493709988,0.09613598702513322
6214,9.0,300.40445,-5423.5859,0.06213996141617284,0.0,0.0,0.0,0.0,0.009483436709650184,0.7606306887309043,0.40309301916218365,0.4849109686344865,-0.0006037227907153004,0.011781975904040488,0.08979479837480661
6215,9.0,300.51757000000003,-5508.9871,0.06214997109087017,0.0,0.0,0.0,0.0,0.0094849643275359,0.7957884913632093,0.4116623691004126,0.46714364839598854,0.0037948023883178366,0.012298340314001689,0.1074413827711389
6216,9.0,300.35849,-5719.4226,0.062159980765567724,0.0,0.0,0.0,0.0,0.009486491945421616,0.7972105777460582,0.4356114471390026,0.5057396416651165,0.003214661787912417,-0.0028957368606369774,0.0948677363254666
6217,9.0,300.92465,-5659.9843,0.06216995740503517,0.0,0.0,0.0,0.0,0.009488014521664173,0.7913976429823663,0.42267300329957763,0.5064232409775825,0.0018512270831268884,-0.014425146194401087,0.1005600284660021
6218,9.0,300.15002000000004,-5621.924,0.06217996707973272,0.0,0.0,0.0,0.0,0.009489542139549889,0.7829526492289103,0.4125806675335416,0.5133911997952666,0.007248198160116462,-0.013248035314729288,0.08042045466938091
6219,9.0,299.94333,-5636.7782,0.062189976754430054,0.0,0.0,0.0,0.0,0.009491069757435605,0.8033269302521953,0.4096578564275826,0.5004550357685665,0.0013007676179007687,0.004987960515123376,0.09650251505005672
6220,9.0,299.76153999999997,-5752.0674,0.06219998642912761,0.0,0.0,0.0,0.0,0.009492597375321349,0.8241457848893562,0.4150666665213906,0.5092724191987745,-0.005675149367393635,-0.008598608649441602,0.06419370622742554
6221,9.0,299.83203,-5742.0676,0.06220996306859505,0.0,0.0,0.0,0.0,0.009494119951563879,0.8413240217847162,0.4147215636698316,0.4893995753849775,-0.015304185239155485,-0.004077442424212236,0.09301875450323631
6222,9.0,300.09328999999997,-5741.6699,0.062219972743292606,0.0,0.0,0.0,0.0,0.009495647569449622,0.8095529772141582,0.4217374796147486,0.5140338131411876,0.0022680303488621678,0.005204359325730275,0.08511878899182042
6223,9.0,300.52185,-5721.36,0.06222998241798994,0.0,0.0,0.0,0.0,0.00949717518733531,0.7924178642430543,0.42285693859023066,0.5238757646750125,0.0032539154007614466,0.005436013528517765,0.099852160800391
6224,9.0,300.01767,-5658.996,0.062239959057457384,0.0,0.0,0.0,0.0,0.009498697763577868,0.7821817989503332,0.4226661739939036,0.5153455160581425,-0.004702491383624766,-0.0053534453990689256,0.06374065272346265
6225,9.0,299.73973,-5670.3539,0.06224996873215494,0.0,0.0,0.0,0.0,0.009500225381463584,0.7868913550176303,0.4255798861139646,0.5111747455990195,-0.008528603200032603,-0.006499010966027443,0.08248634902001882
6226,9.0,299.62227,-5739.3964,0.06225997840685227,0.0,0.0,0.0,0.0,0.0095017529993493,0.8299657212112392,0.4086932828623866,0.5059741989307656,0.00877284450218734,0.00971197849844765,0.06451813371069404
6227,9.0,300.11761,-5676.4185,0.062269955046319714,0.0,0.0,0.0,0.0,0.00950327557559183,0.8238708090772182,0.4145810461459636,0.48703762860687155,0.010352631610725188,0.009316453890112411,0.0993581345021344
6228,9.0,300.25677,-5650.4334,0.06227996472101727,0.0,0.0,0.0,0.0,0.009504803193477573,0.8078274426913612,0.41599009200002557,0.4937731275866135,0.0032588677619502073,-0.002193997128980658,0.0927047391779954
6229,9.0,300.29047,-5802.4051,0.06228997439571482,0.0,0.0,0.0,0.0,0.009506330811363317,0.8111559287398573,0.43515039807850053,0.5174799375262935,-0.013627914936220488,-0.010328435198337189,0.092969841881159
6230,9.0,300.89842999999996,-5741.6226,0.06229998407041215,0.0,0.0,0.0,0.0,0.009507858429249005,0.7961157407480062,0.4299674718294856,0.5192266793736835,-0.001072346797507389,-0.004274470628682406,0.0945583961361871
6231,9.0,300.26797999999997,-5635.0797,0.0623099607098796,0.0,0.0,0.0,0.0,0.009509381005491563,0.7767076038275723,0.4321274778626616,0.5040884391696555,0.006350064417227563,-0.0015724717467908785,0.09727511014530592
6232,9.0,300.77025,-5599.4588,0.06231997038457715,0.0,0.0,0.0,0.0,0.009510908623377279,0.8083791877683143,0.4084858806994176,0.4852305983785315,0.003224909495448787,-0.013573010966301886,0.08140457484225601
6233,9.0,300.33312,-5651.2046,0.0623299800592747,0.0,0.0,0.0,0.0,0.009512436241263023,0.8100162756898822,0.4206177065317356,0.48719110559951856,-0.006283343316692704,-0.009270672312169121,0.08891754467672842
6234,9.0,299.80685,-5582.3117,0.06233995669874193,0.0,0.0,0.0,0.0,0.009513958817505525,0.7789664726730052,0.4128654110766436,0.5050514725946995,0.00018883274381884083,0.0017434298367881285,0.10019651182037581
6235,9.0,299.83648,-5563.2786,0.06234996637343948,0.0,0.0,0.0,0.0,0.009515486435391268,0.7832352548143012,0.40775581373736564,0.5001067107816896,0.004669479695366766,0.026225540958759376,0.09626329683394771
6236,9.0,300.39437999999996,-5676.7080000000005,0.062359976048137034,0.0,0.0,0.0,0.0,0.009517014053277012,0.7876278459853162,0.41263456230636064,0.5253150560445595,0.0013495031238605888,0.013259015906062988,0.07834029173083483
6237,9.0,299.81958,-5712.7933,0.062369985722834365,0.0,0.0,0.0,0.0,0.0095185416711627,0.8010445033419372,0.42470321199494354,0.5107988095469175,-0.005554325777769275,0.008380443541260382,0.07199872108522053
6238,9.0,299.95715,-5685.0131,0.06237996236230181,0.0,0.0,0.0,0.0,0.009520064247405258,0.8172632227901002,0.4097532235269946,0.5010855813057965,-0.004228656728060926,0.004455593441032836,0.08296242356625372
6239,9.0,299.598,-5832.670999999999,0.062389972036999364,0.0,0.0,0.0,0.0,0.009521591865290974,0.8351634003817101,0.4317465566200676,0.5060763953358516,0.0015366785856833684,0.013399664139193886,0.08598872297117623
6240,9.0,299.64398,-5771.6301,0.062399981711696695,0.0,0.0,0.0,0.0,0.009523119483176717,0.8198612467090052,0.4241565331684906,0.5104136427864046,0.005761133162929574,0.0046277290289712955,0.09089009133540361
6241,9.0,300.81854,-5694.5517,0.06240995835116414,0.0,0.0,0.0,0.0,0.00952464205941922,0.8088896023736882,0.4116080386300506,0.5105038929728115,-0.011445593082842091,-0.00030706222066968173,0.08217214827000963
6242,9.0,300.59517,-5746.1397,0.06241996802586147,0.0,0.0,0.0,0.0,0.009526169677304963,0.7881125645681543,0.4213968350636296,0.5371735677949034,-0.007826726780937793,-0.014627993798170588,0.07969287219657413
6243,9.0,301.04377,-5699.454000000001,0.062429977700559025,0.0,0.0,0.0,0.0,0.009527697295190707,0.7926256007785563,0.42347077563331154,0.5163953343542514,-0.01197864876170059,-0.0057184885059708744,0.07703310081657512
6244,9.0,300.76403,-5638.9737,0.06243998737525658,0.0,0.0,0.0,0.0,0.009529224913076423,0.7928371775319373,0.4133725934141986,0.5078974286805735,0.0063534209095088235,-0.0036653572562425963,0.07996885213956123
6245,9.0,300.09285,-5720.2761,0.0624499640147238,0.0,0.0,0.0,0.0,0.009530747489318953,0.8122920556794843,0.4230240843267266,0.5035049692320716,0.006831611121952523,-0.003204496356284167,0.09068631154154211
6246,9.0,300.06234,-5689.9966,0.06245997368942158,0.0,0.0,0.0,0.0,0.009532275107204696,0.8037865810275592,0.4257595860191996,0.5000707100056365,0.00889603149766995,0.003935344230188237,0.09887231147668742
6247,9.0,299.9648,-5651.8955,0.06246998336411891,0.0,0.0,0.0,0.0,0.009533802725090412,0.8057605644748762,0.4185676077369066,0.4937069522225826,-0.003948126481524747,0.018187252623192082,0.10017164767617191
6248,9.0,299.62404,-5779.9363,0.062479960003586354,0.0,0.0,0.0,0.0,0.009535325301332942,0.7961862021599603,0.43619804801939555,0.5245720498787305,0.005308906775023305,0.0009444733581922631,0.08508573677355842
6249,9.0,300.03099,-5764.0997,0.062489969678283686,0.0,0.0,0.0,0.0,0.009536852919218658,0.8180587254436102,0.41945052347654366,0.5146331404428365,-0.002868705374469177,-0.012659749399419988,0.07966002972108283
6250,9.0,299.89195,-5706.6091,0.06249997935298124,0.0,0.0,0.0,0.0,0.009538380537104402,0.7951343472311503,0.4354680317198486,0.5040643035522735,0.0007915596008783502,-0.016666408806096482,0.08355526809376292
6251,9.0,299.71988999999996,-5733.8056,0.06250995599244868,0.0,0.0,0.0,0.0,0.009539903113346931,0.8000288417066993,0.43410535219036256,0.5087995353771045,-0.014080465868133787,0.008602122195488362,0.09563085651903071
6252,9.0,299.95977999999997,-5722.0485,0.06251996566714602,0.0,0.0,0.0,0.0,0.009541430731232647,0.8087030528977772,0.4184322273910456,0.5122246044251325,-0.00929039887306598,0.005970463540838874,0.08440689264381171
6253,9.0,299.95865,-5567.8923,0.06252997534184379,0.0,0.0,0.0,0.0,0.009542958349118391,0.7985906446472603,0.3993254310503516,0.4945841633641565,-0.01112522062647379,0.016236024746620885,0.088727829807505
6254,9.0,300.14096,-5629.733,0.06253998501654112,0.0,0.0,0.0,0.0,0.009544485967004107,0.7894680804194333,0.41557520661407954,0.5062549604009745,0.006100874908209474,0.007805948973062183,0.09129487867085301
6255,9.0,300.53483,-5707.7659,0.06254996165600857,0.0,0.0,0.0,0.0,0.009546008543246637,0.8179095446313872,0.4110558578555546,0.5060529081985335,-0.0012741040428442788,0.013372999449562288,0.07997172673009492
6256,9.0,300.19088,-5750.8776,0.06255997133070612,0.0,0.0,0.0,0.0,0.00954753616113238,0.8143883586788732,0.4277318570738476,0.5060029651011045,0.005699368679233895,-0.013276785273066687,0.07876661063090921
6257,9.0,300.70322000000004,-5711.4329,0.06256998100540367,0.0,0.0,0.0,0.0,0.009549063779018124,0.8124502645500983,0.4238713336628436,0.4998113990400445,0.0001917755868792768,-0.01857156926687118,0.08230765121913272
6258,9.0,300.35128,-5726.61,0.0625799576448709,0.0,0.0,0.0,0.0,0.009550586355260626,0.8188068991849492,0.4203025553531326,0.5016370021427176,0.010799071631285389,-0.018138215371352483,0.09487828527225772
6259,9.0,299.89819,-5715.7086,0.06258996731956845,0.0,0.0,0.0,0.0,0.00955211397314637,0.8054640064356082,0.43853025590706657,0.4934384308135815,0.0015750868439739685,0.003308968926394807,0.0991726489388284
6260,9.0,299.59466000000003,-5603.4169999999995,0.062599976994266,0.0,0.0,0.0,0.0,0.009553641591032086,0.7901837896275683,0.4081330062195916,0.5049820649628495,-0.0053597780095439055,-0.007575805728823813,0.0970465877972525
6261,9.0,299.71141,-5625.4556,0.06260998666896334,0.0,0.0,0.0,0.0,0.009555169208917802,0.8067711497271133,0.4133307563175696,0.4898961185964825,-0.016283357711792283,-0.01165579688233759,0.08874766924446302
6262,9.0,299.75644,-5637.4201,0.06261996330843078,0.0,0.0,0.0,0.0,0.009556691785160332,0.7884876292251702,0.41033737234214557,0.5148099323202845,0.0011952504882620388,-0.0034232388143723667,0.0977029104170265
6263,9.0,300.08069,-5564.5587,0.06262997298312833,0.0,0.0,0.0,0.0,0.009558219403046075,0.7788894555329042,0.4090814285781936,0.5035160136581616,0.007882974421814003,0.019230412852893983,0.0957652428665436
6264,9.0,300.16376,-5653.3613,0.06263998265782589,0.0,0.0,0.0,0.0,0.00955974702093182,0.7843130286806692,0.4322073827655476,0.5019602694546215,0.004776604143639125,0.001996316796746128,0.1022689740581619
6265,9.0,299.23625,-5852.642,0.06264995929729311,0.0,0.0,0.0,0.0,0.009561269597174321,0.8163992345623312,0.4272661977253906,0.5353915851090355,-0.006737443508008904,-0.006338995470485145,0.07225675332918634
6266,9.0,299.70872,-5733.794,0.06265996897199066,0.0,0.0,0.0,0.0,0.009562797215060065,0.8019395274202692,0.4347451689660076,0.5062455067775415,-0.0017703758046474882,-0.007641060048513913,0.1044689325427809
6267,9.0,300.09739,-5565.124,0.06266997864668822,0.0,0.0,0.0,0.0,0.00956432483294578,0.8065395106217522,0.40312731767806864,0.4819919065538975,0.008438115811777192,0.003046103783427037,0.07123440424328834
6268,9.0,300.44372999999996,-5584.7071,0.06267995528615566,0.0,0.0,0.0,0.0,0.00956584740918831,0.8013134503159802,0.3994953733571236,0.49680269472310856,-0.009333799617249302,-0.012631127110595188,0.0935981086189141
6269,9.0,300.25178,-5712.869000000001,0.062689964960853,0.0,0.0,0.0,0.0,0.009567375027074027,0.8237798597482422,0.4101575305818966,0.5026321251984285,-0.006580584489178124,-0.0059586544148984046,0.07211248981969863
6270,9.0,300.67932,-5767.3966,0.06269997463555055,0.0,0.0,0.0,0.0,0.00956890264495977,0.8195722880454872,0.4098824939747526,0.5236897724866565,-0.00042093486394553667,-0.004085205946478436,0.09854894081327321
6271,9.0,300.44091000000003,-5778.8949,0.0627099843102481,0.0,0.0,0.0,0.0,0.009570430262845514,0.8190376871602263,0.42154957238370355,0.5160524809179146,0.022834211112561183,0.014599748438382987,0.07903206087885713
6272,9.0,300.33862,-5605.876,0.06271996094971533,0.0,0.0,0.0,0.0,0.009571952839088044,0.8019832795595873,0.40683916690189964,0.4952238788147915,0.005906356220261974,-0.016665968042302984,0.08852837355182022
6273,9.0,300.58797999999996,-5616.0717,0.06272997062441288,0.0,0.0,0.0,0.0,0.00957348045697376,0.8148535620647852,0.3970112691469616,0.49528074241040354,-0.0014972090492380286,-0.0076191885384803626,0.07282850198961353
6274,9.0,299.98953,-5830.0287,0.06273998029911021,0.0,0.0,0.0,0.0,0.009575008074859476,0.8210025614891442,0.43849534944112156,0.5126852380530935,-0.015576192228500487,0.008918748767561971,0.08665172088260902
6275,9.0,299.66387000000003,-5799.3637,0.06274995693857766,0.0,0.0,0.0,0.0,0.009576530651102005,0.8174128494323671,0.42377640226097457,0.5216725029950675,0.00037622566937808264,0.014902826742044486,0.08430572772732751
6276,9.0,299.75217000000004,-5603.0868,0.06275996661327499,0.0,0.0,0.0,0.0,0.009578058268987721,0.7923152422729263,0.4150054662153506,0.4958777595018245,-0.014445986722457884,-0.002090815946122468,0.08860932311555932
6277,9.0,300.40984,-5652.1732,0.06276997628797254,0.0,0.0,0.0,0.0,0.009579585886873465,0.7808727203511373,0.42958006578625163,0.5076667217653045,-0.0043678476035729965,-0.008150896797355882,0.08903650125171851
6278,9.0,300.03865,-5759.3765,0.06277998596267009,0.0,0.0,0.0,0.0,0.009581113504759209,0.8240035448403182,0.4125073994188106,0.5141957102421655,0.005130626838478446,-0.0025283987422585275,0.09415640537101372
6279,9.0,299.87245,-5731.1595,0.06278996260213754,0.0,0.0,0.0,0.0,0.009582636081001739,0.7949345241789293,0.4405245246213856,0.5066703321469685,0.015762838976421088,0.0019724953882201382,0.1051705879720289
6280,9.0,300.10618,-5586.4785,0.06279997227683487,0.0,0.0,0.0,0.0,0.009584163698887427,0.7824578994700823,0.4118462334635586,0.5038458366982125,0.0037507705919722365,-0.014821751535292986,0.1015280450550379
6281,9.0,300.43821,-5608.6709,0.06280998195153242,0.0,0.0,0.0,0.0,0.00958569131677317,0.7975361046056852,0.4156459314710596,0.49171386901088054,0.015602661360862784,-0.012289613190890386,0.09492041317166541
6282,9.0,300.6911,-5723.9315,0.06281995859099987,0.0,0.0,0.0,0.0,0.0095872138930157,0.8097327277818983,0.43739551712007657,0.4928040045284685,-0.001091682649165689,0.010686859248960888,0.09428414277137041
6283,9.0,300.93161000000003,-5772.223000000001,0.06282996826569742,0.0,0.0,0.0,0.0,0.009588741510901444,0.8163468596646622,0.41817849943350455,0.5200863207585235,0.0075607999001428535,0.009199685428713262,0.08733004724155462
6284,9.0,300.20861,-5840.9204,0.06283997794039475,0.0,0.0,0.0,0.0,0.00959026912878716,0.8135809807341913,0.44243983075541155,0.5194731625930095,-0.017191931983711585,0.004378813401455236,0.07556802527173342
6285,9.0,299.87797,-5728.4853,0.06284995457986242,0.0,0.0,0.0,0.0,0.009591791705029717,0.8154845432995582,0.4131406705988096,0.5126912871561905,-0.004153471848115756,-0.007936402390311932,0.08414895969835572
6286,9.0,300.03514,-5733.7518,0.06285996425455975,0.0,0.0,0.0,0.0,0.009593319322915433,0.8033446114664403,0.4274554627115696,0.5121173012395426,-0.005612415102027245,0.01240467483249609,0.07712407142380322
6287,9.0,299.86699,-5853.736,0.06286997392925708,0.0,0.0,0.0,0.0,0.009594846940801122,0.8411550116680362,0.4359293543578776,0.5023052203186655,2.370250767975538e-06,0.01112635546658579,0.08033114579231683
6288,9.0,299.68827999999996,-5827.0367,0.06287998360395464,0.0,0.0,0.0,0.0,0.009596374558686865,0.8095280005991932,0.42291749041620663,0.5388281646781995,-0.006744050506610963,-0.01016106553356909,0.06967589589347553
6289,9.0,299.74157,-5567.6545,0.06288996024342208,0.0,0.0,0.0,0.0,0.009597897134929395,0.7855503894377872,0.4119678234755586,0.4949097307537876,0.005038594649120575,-0.016781083386163985,0.08810693851722783
6290,9.0,300.06959,-5628.5794,0.06289996991811964,0.0,0.0,0.0,0.0,0.009599424752815139,0.7921887481304422,0.4110363122611256,0.5077225214483114,0.02357366583678968,-0.005733586033785884,0.08209953167509293
6291,9.0,300.34993,-5758.8317,0.06290997959281697,0.0,0.0,0.0,0.0,0.009600952370700855,0.8150386929905562,0.4156400748854816,0.5198622708964115,0.01919960802335378,-0.003100425235863147,0.09222308567670992
6292,9.0,299.94907,-5788.9061,0.06291995623228464,0.0,0.0,0.0,0.0,0.009602474946943412,0.8054825590449393,0.43394065851910857,0.5202596878506335,-0.001003634853043548,-0.010847807947845291,0.09569387155599982
6293,9.0,300.41519,-5754.1264,0.06292996590698197,0.0,0.0,0.0,0.0,0.009604002564829128,0.8245021044195222,0.4189210192392856,0.5056876315374835,-0.009355490464790022,-0.01093496062869659,0.0980508919121196
6294,9.0,300.77632,-5704.2805,0.06293997558167952,0.0,0.0,0.0,0.0,0.009605530182714844,0.7962961701933132,0.4265466786968796,0.5111159973582214,-0.007112075203257174,0.02038425444401928,0.08207448919887142
6295,9.0,300.32801,-5645.7424,0.06294998525637685,0.0,0.0,0.0,0.0,0.00960705780060056,0.7932763201252773,0.4338597201011206,0.4890286650533715,0.0015050666011135086,0.013311215511464686,0.0989814283799564
6296,9.0,299.79106,-5680.3406,0.06295996189584452,0.0,0.0,0.0,0.0,0.009608580376843118,0.7998718183387022,0.41513219340535756,0.5116776925511566,-0.01023367098273469,-0.008544307462007492,0.08305719386135682
6297,9.0,299.58279,-5795.6899,0.06296997157054185,0.0,0.0,0.0,0.0,0.009610107994728834,0.7997249781342102,0.4477526860647496,0.5142673672892375,-0.00871619997124696,-0.014046065013988685,0.0973206476313001
6298,9.0,300.22575,-5592.3044,0.06297998124523918,0.0,0.0,0.0,0.0,0.00961163561261455,0.7868697930555022,0.41281164802633763,0.5002394465447896,-0.00012322772813662988,0.01135008919466659,0.09825146071641422
6299,9.0,300.43284,-5530.1734,0.06298995788470685,0.0,0.0,0.0,0.0,0.009613158188857107,0.7956434648763963,0.40611990118591357,0.47927125910789053,0.016522807962174185,0.002092399048078708,0.09126928194682682
6300,9.0,299.60136,-5713.5993,0.06299996755940418,0.0,0.0,0.0,0.0,0.009614685806742823,0.8029470526572042,0.42632896164789263,0.5075155144528816,-0.007432232749279262,0.0032749218991846266,0.09285993362956191
6301,9.0,299.66261000000003,-5761.4158,0.06300997723410173,0.0,0.0,0.0,0.0,0.009616213424628539,0.8147876096157762,0.41388718260998464,0.5226517585542125,-0.0008648499260515422,-0.012077779071983989,0.07074107607435064
6302,9.0,299.87071000000003,-5770.4959,0.06301998690879906,0.0,0.0,0.0,0.0,0.009617741042514255,0.8013607893606522,0.42904629576607256,0.5236795893231515,0.006908434528634404,0.012335724176441187,0.10019346700382531
6303,9.0,299.77587,-5830.7434,0.06302996354826651,0.0,0.0,0.0,0.0,0.009619263618756813,0.8076385424752182,0.43118176088182664,0.5335801067127565,0.018047999635448883,0.007299257149880593,0.06676155859810284
6304,9.0,300.08959,-5848.5347,0.06303997322296406,0.0,0.0,0.0,0.0,0.009620791236642529,0.8259134300863091,0.4295533058511106,0.5223417850836205,-0.0029954320578511272,-0.0027894517887474576,0.09074517630610161
6305,9.0,299.69423,-5857.9802,0.06304998289766162,0.0,0.0,0.0,0.0,0.009622318854528272,0.8345002079262581,0.43141918564525855,0.5147603235953885,-0.014313897412921685,-0.006923160497637743,0.07011506989756865
6306,9.0,299.76567,-5888.49,0.06305995953712884,0.0,0.0,0.0,0.0,0.009623841430770802,0.8336133405112313,0.43667376894134563,0.5196668149521215,-0.02443528103282448,0.028668303551591272,0.1031992187099699
6307,9.0,300.76565,-5719.0674,0.0630699692118264,0.0,0.0,0.0,0.0,0.009625369048656546,0.8129718755690772,0.41673822521136056,0.5087435735740815,-0.0030920550807620774,0.008361420581232962,0.06955289138433593
6308,9.0,300.29554,-5482.7936,0.06307997888652372,0.0,0.0,0.0,0.0,0.009626896666542234,0.7799479979123742,0.42059663092965566,0.4660877202017766,-0.003863408539338736,-0.0012008573076903888,0.1131351187930669
6309,9.0,299.69861000000003,-5616.6328,0.06308995552599139,0.0,0.0,0.0,0.0,0.00962841924278482,0.7773378656547743,0.4167415284066866,0.5132367095525195,0.012542186043317386,-0.009157277163002893,0.08448291477231451
6310,9.0,299.99728999999996,-5741.1746,0.06309996520068872,0.0,0.0,0.0,0.0,0.009629946860670507,0.8159394723294563,0.43292407482627954,0.4963101943795026,0.0006020708181497634,0.0005379774297617385,0.1031859350011589
6311,9.0,299.76103,-5714.9259,0.06310997487538605,0.0,0.0,0.0,0.0,0.009631474478556223,0.7996931823460722,0.4276529654210616,0.5098486241331415,0.008440762319713382,0.006480012729302463,0.08501948642902002
6312,9.0,299.87684,-5590.526,0.06311998455008361,0.0,0.0,0.0,0.0,0.009633002096441967,0.7952464937522182,0.40071133427212957,0.5034224704089295,-0.005272322062937675,0.00017885425683404084,0.0960213620943206
6313,9.0,300.02051,-5716.8204,0.06312996118955105,0.0,0.0,0.0,0.0,0.009634524672684497,0.7914265510077192,0.43358218076622956,0.5127619106881605,0.008619083191562283,0.0021745616748375276,0.09175934339744211
6314,9.0,299.93478999999996,-5798.9299,0.0631399708642486,0.0,0.0,0.0,0.0,0.00963605229057024,0.7972757499924903,0.4347127753603106,0.5307413751000956,-0.0057793789601302955,0.018142104225236284,0.098493878776339
6315,9.0,299.63271000000003,-5855.0535,0.06314998053894594,0.0,0.0,0.0,0.0,0.009637579908455929,0.8086514987326893,0.44467801916630356,0.5264605555476115,-0.006354808555520774,0.0027296941481998378,0.08231196462480843
6316,9.0,300.0687,-5683.06,0.0631599571784136,0.0,0.0,0.0,0.0,0.009639102484698514,0.8072958916889013,0.4145191162998516,0.5056933361355465,-0.01943471447055698,-0.01029563831910039,0.08037562139220622
6317,9.0,300.2415,-5574.0082,0.06316996685311094,0.0,0.0,0.0,0.0,0.009640630102584202,0.8054563665298542,0.3943377479631056,0.49456520545478555,0.009989390062501042,-0.0017186958952220784,0.07556288606722622
6318,9.0,300.38631000000004,-5650.6772,0.06317997652780849,0.0,0.0,0.0,0.0,0.009642157720469946,0.7960316308572052,0.4238169119999726,0.49781621840063556,0.007005942625507703,0.013810921076531786,0.09795866690126771
6319,9.0,300.16672,-5934.996,0.06318998620250582,0.0,0.0,0.0,0.0,0.009643685338355662,0.8527741430822552,0.4275773566985996,0.5237390873690235,-8.422337481219992e-05,0.007878020540750093,0.07297075115790243
6320,9.0,299.8095,-5913.4603,0.06319996284197349,0.0,0.0,0.0,0.0,0.00964520791459822,0.8157067693114902,0.44212850966218664,0.5397089931226305,-0.015265787113365884,-0.0009156523710228533,0.09611833215539081
6321,9.0,299.64062,-5593.736999999999,0.06320997251667082,0.0,0.0,0.0,0.0,0.009646735532483935,0.8047769620728022,0.4066042651312166,0.48897514518308954,0.01016830317903339,-0.005233897795295495,0.08712836892840051
6322,9.0,299.98402000000004,-5650.0697,0.06321998219136815,0.0,0.0,0.0,0.0,0.009648263150369624,0.7969993961602163,0.4079145494980316,0.5125661710338425,0.015939253924831885,0.004123928210975026,0.08541630860543331
6323,9.0,299.85915,-5886.3236,0.06322995883083582,0.0,0.0,0.0,0.0,0.009649785726612209,0.8405718761029852,0.42455256197007557,0.5241709649591465,0.0012629522122436787,-0.014885302581564985,0.07114736403319814
6324,9.0,299.25149,-5862.4311,0.06323996850553315,0.0,0.0,0.0,0.0,0.009651313344497897,0.8057794311917382,0.43570063341280457,0.5405526150233895,0.006776067183270763,-0.017314704458578283,0.09219330524302081
6325,9.0,299.75231,-5644.3425,0.0632499781802307,0.0,0.0,0.0,0.0,0.00965284096238364,0.7981381676826043,0.4092704199868456,0.5083305930983235,0.009148734451409792,-0.01134395903156159,0.09458206160552272
6326,9.0,299.34644,-5641.9653,0.06325995481969815,0.0,0.0,0.0,0.0,0.00965436353862617,0.7713764694864302,0.43416791025153656,0.5094721814559895,0.02038260284635628,0.007612684080788423,0.0954735778120085
6327,9.0,299.67085,-5588.9648,0.0632699644943957,0.0,0.0,0.0,0.0,0.009655891156511914,0.8016771767043772,0.4082138737100726,0.4890146923344926,-0.007885171654655852,0.001008722037290614,0.10450426457376791
6328,9.0,300.31404,-5733.8005,0.06327997416909303,0.0,0.0,0.0,0.0,0.00965741877439763,0.8063983547503212,0.42461722759145765,0.5119165966597345,-0.023822946639641775,-0.0003161776110868007,0.07730749907615614
6329,9.0,299.70721000000003,-5811.4968,0.06328998384379059,0.0,0.0,0.0,0.0,0.009658946392283346,0.8191044299443132,0.43750036824042454,0.5099451058076636,-0.023456672940493375,0.008189249833516033,0.10416227240001591
6330,9.0,299.89702,-5626.4815,0.06329996048325803,0.0,0.0,0.0,0.0,0.009660468968525904,0.7894348154186502,0.4150549432177336,0.5058201139880586,0.01018249172018369,0.010915677466043489,0.08469890017688063
6331,9.0,299.88659,-5637.213000000001,0.06330997015795559,0.0,0.0,0.0,0.0,0.00966199658641162,0.7816100928464103,0.4370656231525186,0.4948962646599585,0.006335716187861504,-0.002170296601191598,0.11426941175001289
6332,9.0,299.83611,-5963.1233,0.06331997983265292,0.0,0.0,0.0,0.0,0.009663524204297336,0.8327995790909191,0.43133709212215654,0.5485039026656204,0.012215566900082589,-0.013697468476084884,0.08340223895766012
6333,9.0,300.24273,-5931.6455,0.06332995647212036,0.0,0.0,0.0,0.0,0.009665046780539865,0.8388788871734001,0.4288630798829906,0.5353301618879736,-0.004238076711590605,-0.006864714306694554,0.092502794380065
6334,9.0,299.89903,-5604.0549,0.0633399661468177,0.0,0.0,0.0,0.0,0.00966657439842561,0.8016798719496432,0.4128847236235496,0.4889281506434515,0.010381700742844089,-0.003590057575061096,0.08113061329346813
6335,9.0,299.34884,-5613.3673,0.06334997582151525,0.0,0.0,0.0,0.0,0.009668102016311325,0.7947526153884763,0.4034797159303476,0.5080911620996935,-0.006108258664338194,-0.00996368745383939,0.07171918564763254
6336,9.0,299.4062,-5848.1538,0.0633599854962128,0.0,0.0,0.0,0.0,0.009669629634197041,0.8284309512847692,0.4256174776926746,0.5236442978221686,-0.004773837464241076,-0.0006238967217963123,0.08107897097562142
6337,9.0,299.76498,-5881.4614,0.06336996213568002,0.0,0.0,0.0,0.0,0.009671152210439599,0.8228601832949772,0.4426588650295286,0.5222983571843345,-0.0069485143456149735,0.005337914706836166,0.08234191021826381
6338,9.0,299.89246,-5795.5569,0.06337997181037758,0.0,0.0,0.0,0.0,0.009672679828325315,0.8077129049000572,0.4330400615652266,0.5209516160789215,-0.008711490384782162,0.01805568817720768,0.1031915180092099
6339,9.0,300.06543,-5696.1021,0.06338998148507491,0.0,0.0,0.0,0.0,0.00967420744621103,0.8146654724487222,0.42202104778773464,0.4947862662291025,-0.0032555828051260075,0.008490186633091182,0.07632961545764652
6340,9.0,299.6066,-5675.2408,0.06339995812454235,0.0,0.0,0.0,0.0,0.00967573002245356,0.7961733338836903,0.42067541112493056,0.5082827474286016,-0.0026563683795381475,0.007042496433465283,0.0965113191801756
6341,9.0,300.28961,-5865.3639,0.06340996779923991,0.0,0.0,0.0,0.0,0.009677257640339304,0.8049924499715692,0.43882725977637854,0.5391044678479685,0.005829319017808995,0.0020427704634807483,0.06987542814291783
6342,9.0,300.21866,-5957.7301,0.06341997747393746,0.0,0.0,0.0,0.0,0.009678785258225048,0.8232102713370283,0.4451206878699916,0.5426702266723814,-0.0006274556918450554,-0.001069982074424009,0.08816635448984173
6343,9.0,300.5122,-5695.9264,0.06342998714863479,0.0,0.0,0.0,0.0,0.009680312876110736,0.7913559882707553,0.41557452773651266,0.5244888721780215,0.01044249068259359,0.0036681581834940268,0.07609723870621272
6344,9.0,300.09486,-5492.6825,0.06343996378810246,0.0,0.0,0.0,0.0,0.009681835452353321,0.7788375062002773,0.4095917114610546,0.4812091100566416,0.0030038075831777273,-0.013334775602789886,0.1011312411171264
6345,9.0,299.72152,-5696.8706,0.06344997346279979,0.0,0.0,0.0,0.0,0.00968336307023901,0.8155952104754802,0.4207330346581176,0.4953781765400196,0.01771834378166438,0.0029330331782678374,0.08635738794056061
6346,9.0,299.80236,-5809.8234,0.06345998313749712,0.0,0.0,0.0,0.0,0.009684890688124725,0.8232969143530793,0.4319329845059666,0.5108113535831555,-0.01017129935957909,0.0038586095842151158,0.09511474744809471
6347,9.0,300.00112,-5698.9478,0.06346995977696457,0.0,0.0,0.0,0.0,0.009686413264367255,0.7995346289704242,0.43247034143149954,0.5003328682040095,0.009011438454909731,0.0016157515089122586,0.0985086428435461
6348,9.0,299.51267,-5633.5812,0.06347996945166212,0.0,0.0,0.0,0.0,0.009687940882252999,0.7990788285454402,0.4151562580952326,0.49823293776926253,-0.004216123736249016,-0.017661743631078385,0.08596426412701232
6349,9.0,299.80784,-5719.4462,0.06348997912635967,0.0,0.0,0.0,0.0,0.009689468500138743,0.7876001234625802,0.44024260804606263,0.5107261088522425,0.010070360803167231,0.002441328337315348,0.0955643042259625
6350,9.0,299.99335,-5830.8858,0.0634999557658269,0.0,0.0,0.0,0.0,0.009690991076381245,0.8106680792142101,0.4379462894769336,0.5238293274229294,-0.0025877849253194874,0.006589299149313193,0.0939566147427959
6351,9.0,300.26929,-6025.5598,0.06350996544052467,0.0,0.0,0.0,0.0,0.009692518694267016,0.8508432531616912,0.4422241402066246,0.5385523174709755,-0.016345302756655786,0.020588966427972782,0.08394231949946192
6352,9.0,300.29999,-5813.3433,0.063519975115222,0.0,0.0,0.0,0.0,0.009694046312152704,0.8040951055505082,0.4311184631480796,0.5318976353192094,-0.016536933681818283,0.004536181882436296,0.07508954121676072
6353,9.0,300.24528,-5515.4366,0.06352998478991956,0.0,0.0,0.0,0.0,0.009695573930038448,0.7717302153613422,0.41126428340112464,0.49356051731813055,-0.0024937885506427677,0.007413307567886493,0.07845393684880073
6354,9.0,300.18439,-5595.4568,0.063539961429387,0.0,0.0,0.0,0.0,0.009697096506280978,0.7712284539118223,0.41649737566259065,0.5131533292017906,0.015897266867188085,0.015509778750695986,0.07586143311644052
6355,9.0,300.18421,-5922.5946,0.06354997110408456,0.0,0.0,0.0,0.0,0.009698624124166721,0.8366860822344873,0.4399799128251366,0.5236548558882105,-0.0006794272551792494,-0.004128485201974766,0.07961740026287563
6356,9.0,300.08602,-5975.852,0.06355998077878189,0.0,0.0,0.0,0.0,0.009700151742052437,0.8398872128779141,0.4387326526145416,0.5378899356156035,0.0033296457132354473,-0.01098673264255609,0.08858525335943382
6357,9.0,299.88498,-5758.016,0.06356995741824933,0.0,0.0,0.0,0.0,0.009701674318294967,0.8360073769200043,0.4395987585350196,0.4746869711504565,0.0013912438604050785,-0.014769502280636384,0.1054261195147479
6358,9.0,299.45288999999997,-5740.0106,0.06357996709294689,0.0,0.0,0.0,0.0,0.009703201936180711,0.7977294225922642,0.4214555326419226,0.5256349391011296,0.02087840233228788,-0.004265065539929196,0.09897111045418809
6359,9.0,299.31266,-5836.4812,0.06358997676764422,0.0,0.0,0.0,0.0,0.0097047295540664,0.8291838569040751,0.43060406646981264,0.5143566143580456,0.002282574338147548,-0.005620214594671994,0.1025352055219369
6360,9.0,299.57227,-5941.4058,0.06359998644234177,0.0,0.0,0.0,0.0,0.009706257171952143,0.8192356154347602,0.45218540193972456,0.5346179889226875,0.0042294170709359655,-0.01107568890858539,0.07768282008544743
6361,9.0,299.9701,-5736.885,0.06360996308180922,0.0,0.0,0.0,0.0,0.009707779748194673,0.8119040214211882,0.4150613266933636,0.5169044519994975,-0.004143741303430426,0.0035920130464290865,0.0937542909893281
6362,9.0,300.3818,-5504.0187,0.06361997275650677,0.0,0.0,0.0,0.0,0.009709307366080416,0.7770752818913592,0.40735061502237563,0.4886583424068235,0.0094965215038087,0.021703428053961582,0.06419298276685415
6363,9.0,300.04796,-5542.8704,0.0636299824312041,0.0,0.0,0.0,0.0,0.009710834983966132,0.7833677372648762,0.4080997817488126,0.4934266872449225,-0.0005453407689009435,0.011190652264931388,0.1108123949263319
6364,9.0,300.45535,-5945.6405,0.06363995907067155,0.0,0.0,0.0,0.0,0.009712357560208662,0.8181273224753802,0.4426862835772346,0.5465126433040984,-0.015337138158907686,0.0029973978643701373,0.06501217318120193
6365,9.0,300.14557,-5934.6168,0.0636499687453691,0.0,0.0,0.0,0.0,0.009713885178094406,0.8258720590847263,0.4533599513231436,0.5247432992781315,-0.018221669689338783,-0.0015650939688377486,0.11696640993868589
6366,9.0,300.56192999999996,-5669.7067,0.06365997842006643,0.0,0.0,0.0,0.0,0.009715412795980122,0.8014341790653953,0.4111043114753366,0.5109107838154685,0.012122017571349989,-0.0006266001034606153,0.07982459977582462
6367,9.0,300.05202,-5687.4448,0.06366995505953366,0.0,0.0,0.0,0.0,0.009716935372222624,0.8109096279055492,0.43456974497619455,0.4833618308215985,0.015167153295631485,-0.00013429765773164686,0.1170164138311209
6368,9.0,300.08327,-5937.5228,0.06367996473423121,0.0,0.0,0.0,0.0,0.009718462990108367,0.8506535423454681,0.4269479966639866,0.5272571221137264,0.014007901962222288,-0.014646306267227885,0.07631105575556482
6369,9.0,300.27626000000004,-5933.3346,0.06368997440892876,0.0,0.0,0.0,0.0,0.009719990607994111,0.8348069288640292,0.44666788024268755,0.5221107539283195,-0.009068329205624412,-0.005320503827717845,0.1035162140037549
6370,9.0,300.40157999999997,-5694.6431,0.06369998408362632,0.0,0.0,0.0,0.0,0.009721518225879827,0.7872795412634412,0.4203552443583326,0.5233945316725185,0.0021527568366605577,0.011537168600379889,0.09209499971831882
6371,9.0,300.18905,-5582.2669,0.06370996072309354,0.0,0.0,0.0,0.0,0.009723040802122357,0.7859066887029512,0.4104079046816066,0.5005551651434486,0.005887731163548824,0.007411064029515073,0.07940929895733763
6372,9.0,299.59351000000004,-5601.4158,0.06371997039779109,0.0,0.0,0.0,0.0,0.0097245684200081,0.7892537070957762,0.4106656755070466,0.5027711431121485,-0.0011788176994652487,0.0017164639079017981,0.07501738970363991
6373,9.0,299.63874,-5845.1122,0.06372998007248865,0.0,0.0,0.0,0.0,0.009726096037893817,0.8327255915686173,0.4377108304186956,0.5063317242285504,-0.0015776454018014787,0.005530767408969245,0.08092190707762043
6374,9.0,300.19437999999997,-5998.3944,0.06373995671195587,0.0,0.0,0.0,0.0,0.009727618614136319,0.8511143583584473,0.4310642644002306,0.5411834949331525,-0.001826984162559298,0.0033141268760288572,0.08029550269354913
6375,9.0,300.18639,-5819.003000000001,0.06374996638665342,0.0,0.0,0.0,0.0,0.009729146232022062,0.8146734669920113,0.44592248280662256,0.5082356718289555,0.003157385292884667,0.0026777918303774774,0.09799214265807149
6376,9.0,299.66517999999996,-5748.6703,0.06375997606135098,0.0,0.0,0.0,0.0,0.009730673849907806,0.8026489848752872,0.4265815243678186,0.5182217379245034,0.01078549914619589,-0.0012921630980515689,0.09896229720481832
6377,9.0,299.71913,-5907.6528,0.06376998573604853,0.0,0.0,0.0,0.0,0.00973220146779355,0.8284560596222472,0.4409010078285416,0.5264218493937916,0.01076680772160119,0.004206175342792186,0.09021338820311822
6378,9.0,300.16200000000003,-5896.1543,0.06377996237551575,0.0,0.0,0.0,0.0,0.009733724044036052,0.8297623517836682,0.43435042699204957,0.5281709115839105,0.004512389858163206,0.006724979923828843,0.08650032409241731
6379,9.0,300.57261,-5674.7811,0.0637899720502133,0.0,0.0,0.0,0.0,0.009735251661921768,0.8125744788798572,0.41741873411102165,0.4949985319925515,0.005723559113446305,8.853824058129401e-05,0.08377690946038721
6380,9.0,299.99457,-5566.78,0.06379998172491086,0.0,0.0,0.0,0.0,0.009736779279807511,0.7980960468759473,0.4073053734054106,0.4867606870895396,0.0024428969497951574,-0.007241825222287503,0.08705452326111252
6381,9.0,299.56396,-5648.9022,0.0638099583643783,0.0,0.0,0.0,0.0,0.009738301856050041,0.7929716054227042,0.41059978385304363,0.5135538365688175,0.007851543505037013,8.783110752200541e-05,0.09132859659443072
6382,9.0,300.0577,-5770.4102,0.06381996803907564,0.0,0.0,0.0,0.0,0.009739829473935757,0.7942340238547952,0.4208575732279086,0.5389690165746005,-0.012758727722188386,-0.004129409691366006,0.1020301408770909
6383,9.0,300.39247,-5905.1862,0.06382997771377319,0.0,0.0,0.0,0.0,0.009741357091821501,0.8219162091043142,0.4481002207165486,0.5250127123472205,-0.006630642185193433,-0.004707558546049855,0.09530066870894371
6384,9.0,300.67775,-5814.2035,0.06383995435324064,0.0,0.0,0.0,0.0,0.00974287966806403,0.8275304860534003,0.42430000938265056,0.5155421777700515,-0.01875600814282388,-0.012275913036288288,0.09360457011480182
6385,9.0,300.8142,-5681.8674,0.06384996402793797,0.0,0.0,0.0,0.0,0.009744407285949747,0.8167830435677103,0.43034794724203557,0.48001484282627654,0.01058026331194069,0.0024474181730663675,0.09649953812126291
6386,9.0,300.6817,-5746.4965,0.06385997370263552,0.0,0.0,0.0,0.0,0.009745934903835463,0.8352335882161371,0.41451504303444964,0.4970428147318065,-0.0014772529871935184,-0.0008973037694669872,0.09165595338373832
6387,9.0,300.3886,-5995.6519,0.06386998337733307,0.0,0.0,0.0,0.0,0.009747462521721206,0.8394195067642553,0.44059674908851354,0.5425122001867855,0.0005456861858600336,0.0065621869071124245,0.09275795507324741
6388,9.0,300.2496,-5789.501,0.06387996001680052,0.0,0.0,0.0,0.0,0.009748985097963736,0.8089138899785852,0.4193458750062156,0.5316039751752275,-0.01036732475042529,-0.0038362876845121166,0.08037760938890243
6389,9.0,300.45637,-5544.7964,0.06388996969149785,0.0,0.0,0.0,0.0,0.009750512715849452,0.7786053604698663,0.39865286603147465,0.5082214154000485,0.012986114216879688,0.016054008551657284,0.08719297172827632
6390,9.0,299.85862000000003,-5716.7308,0.0638999793661954,0.0,0.0,0.0,0.0,0.009752040333735196,0.8019540878242062,0.4223946330996046,0.5133946752431094,0.002967963860890227,0.0011329228401607788,0.06708311453058793
6391,9.0,299.66747999999995,-5939.5673,0.06390995600566285,0.0,0.0,0.0,0.0,0.009753562909977725,0.8473046494399582,0.4299080447111206,0.5282674540534384,0.001136765489840019,-0.0008767664666351132,0.09115691757698732
6392,9.0,299.23852,-6033.4651,0.0639199656803604,0.0,0.0,0.0,0.0,0.00975509052786347,0.8361897518055033,0.45614717943322153,0.5416857934052255,-0.0019062506165572883,-0.00018854558874050083,0.08942852974190872
6393,9.0,299.86284,-5861.5969,0.06392997535505773,0.0,0.0,0.0,0.0,0.009756618145749157,0.8117983394357582,0.4514731377819296,0.5185075960427155,-0.009188996653408362,-0.0027388569688541376,0.12116931055847988
6394,9.0,300.28586,-5680.0249,0.06393998502975529,0.0,0.0,0.0,0.0,0.009758145763634901,0.7971338747134883,0.4220065785763066,0.5074452860884505,0.014054648255585788,0.0025429021002148977,0.08887853049487801
6395,9.0,299.68737000000004,-5687.2686,0.06394996166922273,0.0,0.0,0.0,0.0,0.009759668339877431,0.8004329866415852,0.43149587854532756,0.49685876798364254,-0.0027580076997191674,-0.011223740960196989,0.1099923310903979
6396,9.0,299.37485,-5977.1344,0.06395997134392006,0.0,0.0,0.0,0.0,0.009761195957763147,0.8406758963582511,0.44752922388769556,0.5286944984405845,0.008676136771568033,0.00037922016792861664,0.07193358328929193
6397,9.0,299.70891,-5890.5245,0.06396998101861762,0.0,0.0,0.0,0.0,0.00976272357564889,0.8573980085885952,0.4242245323827016,0.5089498307644376,-0.00964187638497911,-0.011195075101617888,0.07905148589652422
6398,9.0,299.77612999999997,-5584.1467,0.06397995765808506,0.0,0.0,0.0,0.0,0.00976424615189142,0.7924177933155472,0.4187421805966356,0.48628119687721755,0.01153736213114899,-0.002156980873677438,0.08205188662889072
6399,9.0,300.64227999999997,-5596.794,0.0639899673327824,0.0,0.0,0.0,0.0,0.009765773769777164,0.7889499549807982,0.4005638962500786,0.5117717829554425,-0.004533907135961795,-0.0007672426522584543,0.0928861261446469
6400,9.0,300.53615,-6007.2871,0.06399997700747995,0.0,0.0,0.0,0.0,0.009767301387662852,0.8154721309858333,0.4508222360501906,0.5597708992725865,-0.0033481194917086665,0.002327417950473268,0.08974583205047401
6401,9.0,300.25111,-5983.061,0.0640099866821775,0.0,0.0,0.0,0.0,0.009768829005548624,0.8206534866971932,0.4518491954240436,0.5461984445805895,-0.021455792769271877,0.017943550775390584,0.1031795211280259
6402,9.0,300.44774,-5696.9441,0.06401996332164472,0.0,0.0,0.0,0.0,0.009770351581791126,0.7935915726288902,0.42751493035993865,0.5106222507169925,-0.005626209387563635,0.01082432081052729,0.09047891647132382
6403,9.0,300.4052,-5649.5846,0.06402997299634228,0.0,0.0,0.0,0.0,0.00977187919967687,0.8232047187264803,0.4124091749541166,0.48171873432693757,-0.0017598866396122885,0.004538660190855886,0.08928218096371522
6404,9.0,299.55147999999997,-5790.075,0.06403998267103961,0.0,0.0,0.0,0.0,0.009773406817562585,0.8151994957814263,0.42836057876089756,0.5164781574174254,0.0021035751966817077,-0.004713794796440326,0.0948391201161424
6405,9.0,299.73393,-5971.4185,0.06404995931050728,0.0,0.0,0.0,0.0,0.009774929393805143,0.8427007044305841,0.44350004499754664,0.5289613581194216,-0.0051475220746208744,-0.0036350116316477164,0.095774335772941
6406,9.0,299.61954,-5918.9886,0.06405996898520461,0.0,0.0,0.0,0.0,0.009776457011690859,0.8195775062835022,0.44199524700903464,0.5376519839621194,0.0052557567410278045,0.0016155010334875386,0.09074984738906261
6407,9.0,300.03622,-5641.6932,0.06406997865990194,0.0,0.0,0.0,0.0,0.009777984629576547,0.7987941457973442,0.4041818678521446,0.5119578460713056,0.0002785895584871487,0.001146469386047719,0.07607232085975353
6408,9.0,299.75861000000003,-5631.064,0.0640799552993696,0.0,0.0,0.0,0.0,0.009779507205819132,0.7971713649671882,0.4197926980353136,0.4947387954619175,0.02033230105839188,-0.0015398215861685586,0.08492788152722933
6409,9.0,299.83055,-6001.5197,0.06408996497406694,0.0,0.0,0.0,0.0,0.00978103482370482,0.8567111263458052,0.44160673652319155,0.5259942578515915,-0.005766963505329984,-0.004749835291897246,0.06673662453964203
6410,9.0,299.71337,-6116.9751,0.06409997464876449,0.0,0.0,0.0,0.0,0.009782562441590564,0.8500832041291803,0.4496900709184546,0.5596344043516155,0.007691959350062283,0.007548151600469562,0.08528861173508061
6411,9.0,300.16749,-5682.2462,0.06410998432346182,0.0,0.0,0.0,0.0,0.00978409005947628,0.7840056187328303,0.42420018398279863,0.5190551665292564,-0.0019442908624115682,-0.0026718207475381777,0.08199067315059942
6412,9.0,299.86769,-5527.8503,0.06411996096292949,0.0,0.0,0.0,0.0,0.009785612635718838,0.7660290927461852,0.4073511317799266,0.5069482159868935,-0.0025438031835288274,0.003627628787444087,0.1034366536059029
6413,9.0,300.21442,-5912.6714,0.06412997063762682,0.0,0.0,0.0,0.0,0.009787140253604554,0.8140465691551412,0.4450241555329646,0.5382337415070344,0.010251424137736791,0.0016964081420474484,0.08101086840990022
6414,9.0,300.27162999999996,-5955.2023,0.06413998031232437,0.0,0.0,0.0,0.0,0.00978866787149027,0.8486251473677813,0.45086662653707155,0.5107410441587165,-0.018496444877956982,0.012555742316405289,0.1071021669026609
6415,9.0,300.45398,-5762.555,0.06414995695179182,0.0,0.0,0.0,0.0,0.009790190447732827,0.8137621701170733,0.4271402406054595,0.5107704081466146,-0.004304343470780627,0.0024606108920183878,0.07489846453940292
6416,9.0,300.00971,-5587.7155,0.06415996662648937,0.0,0.0,0.0,0.0,0.009791718065618543,0.7987451348900072,0.4211738288491206,0.4786070128723346,-0.016567787147363285,-0.0080602131425561,0.10804534062574489
6417,9.0,300.07732000000004,-5650.3873,0.0641699763011867,0.0,0.0,0.0,0.0,0.00979324568350426,0.7900075347726733,0.4268656903583636,0.5007034441630825,0.01122143378971929,0.0021068124294261977,0.08261914456487472
6418,9.0,299.6772,-5940.7475,0.06417998597588426,0.0,0.0,0.0,0.0,0.009794773301390003,0.8251467442656433,0.4489576329511686,0.5317345324506125,-0.0031306951706755568,-0.0011885237234981589,0.10722518559730189
6419,9.0,299.4584,-6085.8271,0.0641899626153517,0.0,0.0,0.0,0.0,0.009796295877632533,0.8369576940562932,0.45583465257237754,0.5571471084036385,0.004943649163075186,-0.00013251818790602687,0.06881580766534143
6420,9.0,299.83535,-5690.7994,0.06419997229004903,0.0,0.0,0.0,0.0,0.009797823495518249,0.8158398090496202,0.41899537153162364,0.4950257478902375,-0.0006430990777539374,-0.014474407374512787,0.09378142481375601
6421,9.0,300.00943,-5550.1107,0.06420998196474659,0.0,0.0,0.0,0.0,0.009799351113403965,0.7811023532213003,0.4166776024578776,0.48931511085664153,0.013916601035461586,-0.009689398523944182,0.08037449769784533
6422,9.0,300.18716,-5861.6332,0.06421995860421403,0.0,0.0,0.0,0.0,0.009800873689646522,0.8187688415111932,0.4398674521965376,0.5231538138462615,-0.0028932551071670473,0.0002647040399117548,0.1030069849009979
6423,9.0,300.44004,-6055.0521,0.06422996827891159,0.0,0.0,0.0,0.0,0.009802401307532238,0.8421425150829952,0.4459814944924466,0.5524606341736193,-0.004569150710215066,-0.007681577285562653,0.07711986643588822
6424,9.0,300.75986,-5756.2415,0.06423997795360892,0.0,0.0,0.0,0.0,0.009803928925417954,0.7966856027367473,0.44213404200773254,0.5109340480377645,-0.012243620755601288,0.005198748858601565,0.11265485851066889
6425,9.0,300.93352999999996,-5620.9281,0.06424995459307659,0.0,0.0,0.0,0.0,0.009805451501660511,0.8019433575056473,0.41601358926984455,0.4906648410498495,-0.0037139333779616867,0.0065848083235449835,0.07693388843303363
6426,9.0,301.14782,-5757.3901,0.06425996426777392,0.0,0.0,0.0,0.0,0.009806979119546227,0.8332562914409931,0.4212141866006036,0.49563234019510355,0.0045214603717333955,0.007401408769312174,0.08680776241125912
6427,9.0,300.47781000000003,-5903.5024,0.06426997394247147,0.0,0.0,0.0,0.0,0.009808506737431971,0.8448356527887873,0.43092459800644656,0.5187570683498365,0.0014658769243457886,0.007174655251958343,0.06779649123699273
6428,9.0,299.9391,-5905.7965,0.0642799836171688,0.0,0.0,0.0,0.0,0.00981003435531766,0.8177803957736413,0.4321551902528966,0.5452790822348554,-0.008615815662639801,-0.0003965817625620726,0.09233680070893273
6429,9.0,300.17789,-5767.0624,0.06428996025663625,0.0,0.0,0.0,0.0,0.009811556931560245,0.7953858460384713,0.42617105675230854,0.5314860733935914,0.002951988757163607,-0.002518527761109338,0.07845128416003894
6430,9.0,300.10339,-5681.9633,0.0642999699313338,0.0,0.0,0.0,0.0,0.009813084549445933,0.7533563230829803,0.4468926495123706,0.5269259818485454,0.003118627665959587,0.00988875943279457,0.1112540301149179
6431,9.0,300.21622,-5832.7765,0.06430997960603113,0.0,0.0,0.0,0.0,0.009814612167331649,0.8185268976523152,0.43146180294446457,0.5230297008415126,0.013053125512243188,-0.0002423726561878188,0.08591193381234773
6432,9.0,299.7015,-6034.4786,0.06431995624549858,0.0,0.0,0.0,0.0,0.009816134743574206,0.8468285232179681,0.4583002751007156,0.5292020050181715,-0.002086158035412768,-0.0038765752177631865,0.0893666698100536
6433,9.0,299.83881,-5808.2019,0.06432996592019591,0.0,0.0,0.0,0.0,0.009817662361459922,0.8370958507074281,0.41820229054585256,0.5102502055452746,-0.003753769710943226,-0.0050725189717436454,0.091822640117939
6434,9.0,299.44705,-5490.5504,0.06433997559489346,0.0,0.0,0.0,0.0,0.009819189979345666,0.7669770084797373,0.4160375728997116,0.4859756310445606,0.018873987944717584,-0.01044849520268619,0.0995217612210331
6435,9.0,300.13987000000003,-5720.9999,0.06434998526959101,0.0,0.0,0.0,0.0,0.009820717597231354,0.8058013072613972,0.4249646406532446,0.5082751784503545,0.003254864005505067,-0.016427254424743784,0.0944993581058605
6436,9.0,300.09447,-6071.2361,0.06435996190905846,0.0,0.0,0.0,0.0,0.00982224017347394,0.8285086169049342,0.4499076663774295,0.5670878923522175,0.011622676776318888,0.01016466763767459,0.08759561705301432
6437,9.0,300.55099,-5943.274,0.06436997158375579,0.0,0.0,0.0,0.0,0.009823767791359628,0.8601269038904161,0.4239428691199036,0.5225371194378985,-0.021550197281088878,0.006520894432412174,0.08375703354642562
6438,9.0,300.45727999999997,-5763.0245,0.06437998125845334,0.0,0.0,0.0,0.0,0.009825295409245371,0.8145111544584922,0.4193001571617036,0.5180042235255365,-0.01074061824626649,0.02289117907293348,0.07764159499187884
6439,9.0,300.91528,-5635.2164,0.06438995789792079,0.0,0.0,0.0,0.0,0.009826817985487901,0.8105320605207862,0.4072027311702806,0.49523027242292256,-0.01863373925325688,0.006469668560356573,0.07043875061551343
6440,9.0,300.73145,-5772.9289,0.06439996757261834,0.0,0.0,0.0,0.0,0.009828345603373645,0.7992998893197573,0.4218275372836366,0.5336987886969694,0.012902446103122288,0.016746849718285384,0.08550456167589322
6441,9.0,300.41983999999997,-6115.5923,0.06440997724731568,0.0,0.0,0.0,0.0,0.009829873221259361,0.8372536137479982,0.44831296270754456,0.5734207764047244,0.0016193165280640985,0.009303853618493861,0.08120824446312973
6442,9.0,299.85585,-5951.069,0.06441995388678334,0.0,0.0,0.0,0.0,0.009831395797501918,0.8194139170548572,0.43803152407534557,0.5515309366768655,0.007801327336706062,-0.0014138496727860988,0.09025302452053001
6443,9.0,299.67167,-5470.2673,0.06442996356148067,0.0,0.0,0.0,0.0,0.009832923415387634,0.7907041442164232,0.3968838630793876,0.4752366491972055,0.004182211572627146,-0.017873938467020383,0.07517065290051583
6444,9.0,299.8214,-5550.7185,0.064439973236178,0.0,0.0,0.0,0.0,0.009834451033273323,0.8054647461081812,0.40271156089703664,0.47910351555383557,0.01182872321065409,-0.005928795251676535,0.09263301930941722
6445,9.0,300.51175,-5986.5321,0.06444998291087556,0.0,0.0,0.0,0.0,0.009835978651159066,0.8552693322485111,0.43180887150121755,0.5326780810762335,0.013742129500742589,-0.003930783287513106,0.07450177408550263
6446,9.0,300.05624,-5988.8592,0.064459959550343,0.0,0.0,0.0,0.0,0.009837501227401596,0.8373802497454962,0.4417294005802976,0.5413540046599805,0.009246547029938141,-0.012883276424480387,0.10075613390360622
6447,9.0,300.08644,-5675.308000000001,0.06446996922504056,0.0,0.0,0.0,0.0,0.00983902884528734,0.7804925286486153,0.42995015538527653,0.5147092557903484,0.00956017772544108,-0.015968750648492985,0.1026726731630039
6448,9.0,299.9937,-5671.6054,0.06447997889973789,0.0,0.0,0.0,0.0,0.009840556463173056,0.7962941842231173,0.4306943166562196,0.4970379308663245,0.0037286473906138463,0.006473019885062323,0.1084297981111879
6449,9.0,300.22042000000005,-5839.387,0.06448995553920556,0.0,0.0,0.0,0.0,0.009842079039415613,0.8294455895374062,0.43063661206302456,0.5149456369061776,0.006466879994756364,0.015076343795169287,0.08341527847319702
6450,9.0,300.18708,-5902.5504,0.06449996521390289,0.0,0.0,0.0,0.0,0.00984360665730133,0.8338102150056611,0.4497151893884335,0.5107025507874174,-0.015693927837120085,0.008358996886993762,0.09287139348819291
6451,9.0,300.05093,-5864.2596,0.06450997488860044,0.0,0.0,0.0,0.0,0.009845134275187045,0.8210536292941842,0.43524585637042157,0.5262890021731805,-0.014572059352900287,-0.004747778090219215,0.07233557405446533
6452,9.0,299.64335,-5616.5614,0.06451998456329777,0.0,0.0,0.0,0.0,0.009846661893072761,0.7802569176028622,0.4182387979469556,0.5087987045120225,0.001051984827472819,0.002054568443670118,0.0891336212738035
6453,9.0,299.52894,-5664.6064,0.06452996120276544,0.0,0.0,0.0,0.0,0.009848184469315319,0.7728503734793933,0.4319440694620606,0.5171044675692374,7.233525994693433e-05,-0.0009597910551215021,0.08693980409804061
6454,9.0,299.20431,-6062.3307,0.06453997087746277,0.0,0.0,0.0,0.0,0.009849712087201035,0.8525026933804651,0.44353140508814154,0.5467630680663135,-0.005877133682077934,-0.014785370790452487,0.08775664883840692
6455,9.0,299.78398,-6088.1596,0.0645499805521601,0.0,0.0,0.0,0.0,0.00985123970508675,0.8676258868205082,0.4453519014103106,0.5376706986914666,-0.01127908873365939,-0.01126918826693229,0.06902609252484494
6456,9.0,300.14752000000004,-5692.015,0.06455995719162777,0.0,0.0,0.0,0.0,0.009852762281329308,0.8128366978732362,0.4233210476660346,0.4940726747136765,-0.00961067344947462,-0.002131632902550788,0.09613906629218709
6457,9.0,299.83513999999997,-5702.298000000001,0.0645699668663251,0.0,0.0,0.0,0.0,0.009854289899215024,0.8130117165630092,0.4265518462723896,0.49379265291604046,0.013781013986580186,0.007191928734363103,0.07332827442918723
6458,9.0,300.18349,-6011.5387,0.06457997654102265,0.0,0.0,0.0,0.0,0.00985581751710074,0.8333492672701692,0.45373274629993554,0.5402756532410554,-0.004066404584247886,-0.005354026194026245,0.100027007237647
6459,9.0,300.03425,-6117.2153,0.06458998621571999,0.0,0.0,0.0,0.0,0.009857345134986456,0.8341915618132971,0.47407403589996455,0.5512151167531965,0.011377490517120888,-0.008548617219982832,0.09296393969932651
6460,9.0,300.12185,-5781.621999999999,0.06459996285518743,0.0,0.0,0.0,0.0,0.009858867711229014,0.8136087539194322,0.43693560289968664,0.5069243742120405,-0.00955080516201608,-0.0054745826909242444,0.1022010761689609
6461,9.0,300.30632,-5639.9305,0.06460997252988498,0.0,0.0,0.0,0.0,0.00986039532911473,0.8021331797793811,0.42297865019224257,0.4892862028312885,-0.0036007858671198967,0.015100738804576887,0.08932226007142072
6462,9.0,299.61416,-5658.7011,0.06461998220458254,0.0,0.0,0.0,0.0,0.009861922947000473,0.7950604711663591,0.4113418172987766,0.5137015380358945,-0.01145605995637509,-0.001222308420257449,0.07360913823765633
6463,9.0,298.88682,-5912.1495,0.06462995884404976,0.0,0.0,0.0,0.0,0.009863445523243003,0.8264673131209732,0.4464663853278016,0.5242121333107095,0.006520471907120473,0.008550517975845422,0.08401069766921032
6464,9.0,299.40584,-6121.2301,0.06463996851874731,0.0,0.0,0.0,0.0,0.009864973141128747,0.8178466623301812,0.46630895322861055,0.5765454877256094,0.006510822726418175,0.009450310510473032,0.08328065705166092
6465,9.0,300.22711,-5896.4731,0.06464997819344465,0.0,0.0,0.0,0.0,0.009866500759014435,0.8272289428236402,0.43859868068631963,0.5265529639567316,0.003352177355709147,-0.00013092411245120388,0.09479170203796261
6466,9.0,300.15117999999995,-5674.7891,0.06465995483291209,0.0,0.0,0.0,0.0,0.009868023335256965,0.8004418525799603,0.43081695031582257,0.49373538402038847,-0.004090843366059806,-0.01102628688670979,0.09555762082830291
6467,9.0,300.13371,-5850.5768,0.06466996450760965,0.0,0.0,0.0,0.0,0.009869550953142708,0.8316595916684113,0.43020642660056857,0.5165632400283225,-0.008728736306784201,-0.015549883189653984,0.08646755862393361
6468,9.0,299.79697999999996,-6011.3239,0.06467997418230698,0.0,0.0,0.0,0.0,0.009871078571028424,0.8363483457111551,0.4499709337136736,0.5409730935498875,0.0008199307556658652,0.013295879971201189,0.06702303994540904
6469,9.0,300.66507,-5831.4943,0.06468998385700453,0.0,0.0,0.0,0.0,0.009872606188914168,0.8228951708209302,0.4337253631378606,0.5160081309610375,-0.012464910524440887,0.0007330589882722893,0.08515878805276801
6470,9.0,300.55638,-5784.7694,0.06469996049647198,0.0,0.0,0.0,0.0,0.009874128765156698,0.7907580997842483,0.42972403849296054,0.5379432933658694,0.01057880423179669,0.005308046930988445,0.07977775114420102
6471,9.0,300.73585,-5811.8313,0.06470997017116953,0.0,0.0,0.0,0.0,0.009875656383042442,0.8158259477882522,0.42734517043818465,0.5234804654134996,-0.000924329368651706,0.005176507106981474,0.09444662350440601
6472,9.0,300.6112,-5862.9009,0.06471997984586686,0.0,0.0,0.0,0.0,0.00987718400092813,0.8177486303830062,0.43155283333344857,0.5328740233805715,0.027446439441502674,0.003677998463165187,0.08068638925087662
6473,9.0,300.68411000000003,-5899.9156,0.0647299564853343,0.0,0.0,0.0,0.0,0.00987870657717066,0.8357301212951411,0.43216713647157556,0.5255297840057516,-0.013908277185890088,-0.008500158635275342,0.08419660170480762
6474,9.0,300.0216,-5879.5313,0.06473996616003186,0.0,0.0,0.0,0.0,0.009880234195056403,0.8329512423658871,0.4413324801186246,0.5129469909514266,-0.018162009523450783,-0.01082019992237059,0.06697184953710693
6475,9.0,300.09853,-5675.7516,0.06474997583472941,0.0,0.0,0.0,0.0,0.009881761812942147,0.8023690644026612,0.4192029763446126,0.5037147221352725,-0.015806878878767482,-0.005621327852556864,0.08644856829055943
6476,9.0,299.6447,-5744.1218,0.06475998550942674,0.0,0.0,0.0,0.0,0.009883289430827863,0.7875606675036863,0.43752416948527356,0.5209847594896925,-0.0028651106670894073,0.016132099736864285,0.08941329046040472
6477,9.0,299.81281,-5937.3148,0.06476996214889419,0.0,0.0,0.0,0.0,0.009884812007070393,0.8358614182430991,0.4464301312392236,0.5225038747021175,0.004628126830960556,-0.0004489705822874466,0.1038654002532169
6478,9.0,299.9662,-5949.8381,0.06477997182359174,0.0,0.0,0.0,0.0,0.009886339624956109,0.8315639611239732,0.4411858121666496,0.5358524315195174,0.01079747474912779,-0.009111018850887552,0.0923928314129625
6479,9.0,299.45866,-5732.07,0.06478998149828907,0.0,0.0,0.0,0.0,0.009887867242841825,0.8076640257152332,0.43312317847092957,0.5016189460259355,0.005472044904723785,-0.0062898042046303435,0.10965701623480488
6480,9.0,299.98514,-5693.8008,0.06479995813775652,0.0,0.0,0.0,0.0,0.009889389819084354,0.8024018937059012,0.42248472116599556,0.5058866541221255,0.025706158076750273,-0.018370855567812282,0.07768165788758273
6481,9.0,299.79346,-5858.5617,0.06480996781245407,0.0,0.0,0.0,0.0,0.009890917436970098,0.8002056943791532,0.4449475943554086,0.5357031797797874,0.01092049851001929,-0.014654445705281186,0.09128663182828911
6482,9.0,299.0596,-5963.4494,0.06481997748715163,0.0,0.0,0.0,0.0,0.009892445054855842,0.8109130932208912,0.4545992068579486,0.5472274000571394,0.0006452725194834395,0.002793993175695657,0.08721033984824042
6483,9.0,299.98999,-5811.9317,0.06482995412661885,0.0,0.0,0.0,0.0,0.009893967631098344,0.8248314107020223,0.42671988366897357,0.5151308083619526,0.0006148292783739254,0.01797024282277488,0.10026981742536051
6484,9.0,300.3699,-5755.0673,0.0648399638013164,0.0,0.0,0.0,0.0,0.009895495248984087,0.8255832828062262,0.4251751737590226,0.49863828847176755,-0.013588071915788289,0.025382055846763875,0.09407273523075611
6485,9.0,300.65617000000003,-5819.6137,0.06484997347601396,0.0,0.0,0.0,0.0,0.009897022866869803,0.8269859350521572,0.4347366576651676,0.5072946664610855,-0.006404742128398834,-0.00045952117054370856,0.09300408365503841
6486,9.0,300.36753999999996,-6008.8721,0.06485998315071151,0.0,0.0,0.0,0.0,0.009898550484755547,0.8602770472902341,0.4409551863113886,0.5253148432620386,-0.016063517903845786,-0.014280825942907789,0.08718204787894822
6487,9.0,299.95517,-6131.4151,0.06486995979017873,0.0,0.0,0.0,0.0,0.00990007306099805,0.8480584973818571,0.4637710454381386,0.5519675360124545,-0.004656570483792725,0.0018731353741390682,0.08645705122039661
6488,9.0,300.46913,-5740.7507,0.06487996946487629,0.0,0.0,0.0,0.0,0.009901600678883793,0.8063061996537262,0.4227268879398956,0.5160117685288965,-0.0025476587014843376,-0.005812832830731934,0.09236451005941741
6489,9.0,300.17168,-5667.8106,0.06488997913957384,0.0,0.0,0.0,0.0,0.009903128296769537,0.8011613716084712,0.4226419775815156,0.4990695682443316,0.01879303736772838,0.0033448075824318068,0.08798217804566492
6490,9.0,299.67042000000004,-5954.6676,0.06489995577904129,0.0,0.0,0.0,0.0,0.009904650873012066,0.8280981188919212,0.44225029219170564,0.5397218715314015,0.005966553611352995,0.0093987469221591,0.08918672672479461
6491,9.0,299.6834,-5976.1745,0.06490996545373862,0.0,0.0,0.0,0.0,0.009906178490897782,0.8425538439610901,0.4432428415921626,0.5308111272369795,0.015783534609713587,0.013673397706709287,0.08298511631549332
6492,9.0,299.68676,-5713.9376,0.06491997512843617,0.0,0.0,0.0,0.0,0.009907706108783498,0.8048948638544382,0.41946231770770764,0.5125371718159806,-0.017806079081323183,0.0014397928270214885,0.08963861499114252
6493,9.0,299.39255,-5651.4145,0.06492998480313372,0.0,0.0,0.0,0.0,0.009909233726669242,0.7847752936412913,0.4172411012359906,0.5158724973026515,0.0016680256895213184,-0.014623708763497686,0.08532932412409862
6494,9.0,299.99982,-5708.9631,0.06493996144260095,0.0,0.0,0.0,0.0,0.009910756302911744,0.8023100932468412,0.4242059493758676,0.5088661869686826,-6.618280331323414e-06,-0.004439235328768416,0.10196217206038291
6495,9.0,300.25996000000004,-5902.1671,0.0649499711172985,0.0,0.0,0.0,0.0,0.009912283920797488,0.8366915335200252,0.4445611103697656,0.5128587773977206,0.017464554015867283,0.005900729439806654,0.1110746848472179
6496,9.0,300.57558,-5959.4097,0.06495998079199605,0.0,0.0,0.0,0.0,0.009913811538683232,0.8449456512196433,0.4400869323006986,0.5264791486869465,0.0014498935119683486,0.0054265378162325845,0.11184246497799188
6497,9.0,300.21371,-5769.6527,0.06496995743146328,0.0,0.0,0.0,0.0,0.009915334114925761,0.8286503807264253,0.41877961005532954,0.5064003516578235,-0.012113992630557988,-0.004403630733504516,0.1028902990194819
6498,9.0,299.51276,-5593.1501,0.06497996710616061,0.0,0.0,0.0,0.0,0.009916861732811477,0.7894970593722933,0.41795315261126464,0.49272775745844355,-0.005198632334840065,0.003039169606367687,0.08591368166877023
6499,9.0,299.96187000000003,-5768.8825,0.06498997678085838,0.0,0.0,0.0,0.0,0.009918389350697221,0.8025354502015822,0.42237542187770866,0.5286853589246825,0.005541834531861484,0.013158332283376288,0.08003793958437962
6500,9.0,299.91382000000004,-6017.4097,0.06499998645555571,0.0,0.0,0.0,0.0,0.009919916968582937,0.8426251565031283,0.4351999966708956,0.5513171510382664,0.001384874266301449,0.01037051648824029,0.06547114001274844
6501,9.0,300.75639,-5869.522,0.06500996309502316,0.0,0.0,0.0,0.0,0.009921439544825467,0.8201771375601813,0.4276177043175816,0.5363932740253945,-0.003331966157289457,-0.0052176001740620445,0.08098287940238792
6502,9.0,299.9219,-5785.3974,0.06501997276972049,0.0,0.0,0.0,0.0,0.009922967162711183,0.8133268778741132,0.4290292934293946,0.5162601566584105,0.002794249122670917,0.001016733147218749,0.07988903032318342
6503,9.0,300.18776,-5871.3054,0.06502998244441804,0.0,0.0,0.0,0.0,0.009924494780596926,0.8412477645821902,0.4306152730159186,0.5128671873735505,0.00917738693508757,-0.0012796429745159288,0.09226385278123332
6504,9.0,299.64297,-5998.3656,0.06503995908388549,0.0,0.0,0.0,0.0,0.009926017356839456,0.8482722830204562,0.4378177080392436,0.5372633721512665,0.015983667716465186,-0.003676994636291117,0.07738367521867413
6505,9.0,299.69785,-5843.5759,0.06504996875858282,0.0,0.0,0.0,0.0,0.009927544974725172,0.8347442086828392,0.42458171317545257,0.5169752477839845,-0.009187717121182081,-0.014020394322705186,0.10082846982824521
6506,9.0,299.26425,-5647.5107,0.0650599784332806,0.0,0.0,0.0,0.0,0.009929072592610916,0.8152435924257783,0.4052893907414486,0.4961692411580915,0.005996644302222714,0.002328969033726348,0.08247715985486193
6507,9.0,300.44577999999996,-5575.6949,0.06506995507274782,0.0,0.0,0.0,0.0,0.009930595168853446,0.7904874809475403,0.42089760673935955,0.48348692667894455,-0.0097024595203832,0.007795440860250112,0.11350128711420489
6508,9.0,300.40017,-5846.6262,0.06507996474744537,0.0,0.0,0.0,0.0,0.009932122786739161,0.8139998279280282,0.4411920740522676,0.5220364624309874,-0.0026700885964922273,0.016123209480486882,0.09153523679332451
6509,9.0,300.2515,-6086.2326,0.0650899744221427,0.0,0.0,0.0,0.0,0.009933650404624877,0.8476554974195842,0.45035563437914056,0.5520515952407504,-0.02243023133744148,-0.004513039756777346,0.09052717656033672
6510,9.0,300.49716,-6023.3623,0.06509998409684048,0.0,0.0,0.0,0.0,0.009935178022510649,0.8263204830489822,0.4586812976683196,0.5459499449935644,-0.0036932789839482566,0.0062566741687606646,0.07331092556097503
6511,9.0,300.55679,-5711.8772,0.0651099607363077,0.0,0.0,0.0,0.0,0.009936700598753151,0.7907252198185033,0.42915167377647256,0.5163911394988374,0.004670630443505336,0.006282458242730354,0.08990074076551231
6512,9.0,300.22739,-5772.6808,0.06511997041100526,0.0,0.0,0.0,0.0,0.009938228216638895,0.8132136978379432,0.4248029563347876,0.5167341550551906,0.026844187900065073,-0.0053875780459125555,0.07862076645126552
6513,9.0,299.69485,-5983.9564,0.06512998008570281,0.0,0.0,0.0,0.0,0.00993975583452461,0.8304197991110532,0.4506726600704286,0.5378808872922105,0.01980414039076648,-0.01815266127802818,0.1094210809490199
6514,9.0,299.5785,-5974.9885,0.06513995672517026,0.0,0.0,0.0,0.0,0.009941278410767168,0.8414403732936993,0.45234738010071057,0.5224595450102425,0.0018817543834646984,-0.010390607211223089,0.1073069447478709
6515,9.0,299.64355,-5752.8266,0.06514996639986759,0.0,0.0,0.0,0.0,0.009942806028652856,0.8096948423606593,0.43126026749957463,0.5077605183270615,0.0055545682485182045,0.008432892710161712,0.1032608141835489
6516,9.0,300.01811000000004,-5706.8069,0.06515997607456514,0.0,0.0,0.0,0.0,0.0099443336465386,0.8099296529388332,0.4261160271393776,0.49868112868599546,-0.016630633984815787,0.013264165243071186,0.09522853644757481
6517,9.0,299.87832000000003,-5858.467,0.0651699857492627,0.0,0.0,0.0,0.0,0.009945861264424344,0.8351709997574602,0.4251360319076596,0.5205206504138885,-0.014021268757541488,0.014787330416145885,0.08237915019918912
6518,9.0,299.91896,-6052.6294,0.06517996238872992,0.0,0.0,0.0,0.0,0.009947383840666846,0.8482196649427632,0.44479118906997256,0.5468373595636454,-0.026739063202190078,-0.0057514300773219545,0.0924312295387521
6519,9.0,300.16643999999997,-6077.9868,0.06518997206342747,0.0,0.0,0.0,0.0,0.00994891145855259,0.8421646140676763,0.4596847091098486,0.5457068865595764,0.0015709609908917785,0.010837066483535189,0.07928781128359773
6520,9.0,300.22575,-5787.6481,0.06519998173812502,0.0,0.0,0.0,0.0,0.009950439076438305,0.8117341095119192,0.4207472404245196,0.5268191346255006,-0.015131848622397186,0.002100460465874308,0.08610975873537151
6521,9.0,300.09413,-5745.3174,0.06520995837759247,0.0,0.0,0.0,0.0,0.009951961652680863,0.7961895053552862,0.4235077997919656,0.5267357137447676,0.016725739665701983,-0.005359901524731095,0.06749867372785043
6522,9.0,299.9065,-5932.103,0.0652199680522898,0.0,0.0,0.0,0.0,0.009953489270566551,0.8298244336172952,0.4301861008035626,0.5432006428347296,0.0033097202513439573,0.01210677626334579,0.07473304234132702
6523,9.0,299.87495,-5926.1094,0.06522997772698735,0.0,0.0,0.0,0.0,0.009955016888452295,0.8387657274022322,0.43182518482782756,0.5307983805507215,0.015203055786424786,0.008172341425122303,0.07643940414573183
6524,9.0,299.68891,-5791.5852,0.0652399543664548,0.0,0.0,0.0,0.0,0.009956539464694825,0.8182038532554332,0.43515755162420655,0.5071358699054135,0.0014178115820021086,-0.003539630144084297,0.1101575617842049
6525,9.0,299.66118,-5866.2939,0.06524996404115213,0.0,0.0,0.0,0.0,0.009958067082580568,0.8144466610896273,0.4458373799307236,0.5229228333534655,-0.010642559954588888,-0.01978882207575468,0.1045838249716199
6526,9.0,299.7905,-5906.3138,0.06525997371584968,0.0,0.0,0.0,0.0,0.009959594700466284,0.8386741498581941,0.44715644917590563,0.5095412952453106,0.0028750746645977775,-0.013722008380256787,0.12196377969688788
6527,9.0,299.44579,-5879.1918,0.06526998339054724,0.0,0.0,0.0,0.0,0.009961122318352,0.8134401389702912,0.44476536132492356,0.5289219933530366,0.003929474978983986,-0.001025949062178289,0.1018612320854209
6528,9.0,299.8374,-5752.4076,0.06527996003001446,0.0,0.0,0.0,0.0,0.009962644894594558,0.8115844626046502,0.42332366185129255,0.5136801685912855,-0.0058407830307654045,0.0015836861962476585,0.08957529395264321
6529,9.0,299.78173,-5690.1945,0.06528996970471201,0.0,0.0,0.0,0.0,0.009964172512480246,0.7967076003964182,0.4112146037487216,0.5217548498306944,0.004030753278154377,-0.0029904103903555276,0.06962813128376154
6530,9.0,300.09754,-5741.9195,0.06529997937940935,0.0,0.0,0.0,0.0,0.00996570013036599,0.8062039525861352,0.41685320883270865,0.5223429908512395,-0.016080996468070784,0.011199007525255988,0.08071845760329152
6531,9.0,300.21623999999997,-5971.2389,0.06530995601887679,0.0,0.0,0.0,0.0,0.00996722270660852,0.8219711272597342,0.4489830959261816,0.5441533107112505,0.009233253492601172,0.010966038022513688,0.0905318364975466
6532,9.0,300.32674,-6090.9646,0.06531996569357434,0.0,0.0,0.0,0.0,0.009968750324494263,0.8635950158026922,0.45527959416759756,0.5326265370436465,0.0009359409006901751,-0.01121835857566579,0.08855724813991991
6533,9.0,299.68002,-5935.903,0.06532997536827168,0.0,0.0,0.0,0.0,0.00997027794237998,0.8260387691236792,0.45327131220439554,0.5250562111740135,-0.001068182035621359,-0.011811936696247388,0.10068556407389151
6534,9.0,300.01517,-5807.5491,0.06533998504296923,0.0,0.0,0.0,0.0,0.009971805560265695,0.8318321177629383,0.4304426557288826,0.5030751384071506,0.0037132969555738766,-0.0026462567514902073,0.0915756107568091
6535,9.0,299.75235,-5910.5193,0.06534996168243667,0.0,0.0,0.0,0.0,0.009973328136508253,0.8315863539511832,0.43519927726332464,0.5298646401860685,0.012110999489762589,0.010775530791712092,0.08500679851126783
6536,9.0,299.11167,-5942.2802,0.06535997135713423,0.0,0.0,0.0,0.0,0.009974855754393969,0.8314570936359261,0.4445143387451496,0.5303333696823285,0.007712893299778303,0.013384759230222885,0.08441749934585852
6537,9.0,299.21,-5784.7934,0.06536998103183156,0.0,0.0,0.0,0.0,0.009976383372279685,0.8104730893649662,0.4228615792756886,0.5250980786681455,0.002280343060102338,-0.008949685218290163,0.1012351195173784
6538,9.0,299.85257,-5736.0159,0.06537995767129923,0.0,0.0,0.0,0.0,0.009977905948522242,0.8255250209254762,0.4130109948510116,0.5050695692414856,-0.001979951389080988,0.008598757901181331,0.09338652882578281
6539,9.0,299.70252999999997,-5714.0533,0.06538996734599656,0.0,0.0,0.0,0.0,0.009979433566407958,0.8004321253790002,0.4204620713163756,0.5160353164612205,-0.008713760470306201,-0.012232734396526888,0.09969365606074782
6540,9.0,299.81743,-5850.641,0.06539997702069389,0.0,0.0,0.0,0.0,0.009980961184293674,0.8178645056644422,0.4315270055883996,0.5290572723738874,0.0026287901436163877,-0.009766853996038442,0.07500834543324733
6541,9.0,300.15517,-6109.345,0.06540995366016156,0.0,0.0,0.0,0.0,0.009982483760536232,0.8396127234258243,0.4654586945396965,0.5520169116898275,-0.005530430705961015,-0.013627261389905988,0.08061473625680503
6542,9.0,300.33358,-6143.3458,0.06541996333485889,0.0,0.0,0.0,0.0,0.00998401137842192,0.8472265886522542,0.4701186722796006,0.5500784831885195,0.005677968837121895,-0.0015046038497928385,0.07727269393522113
6543,9.0,300.06207,-5868.7207,0.06542997300955644,0.0,0.0,0.0,0.0,0.009985538996307664,0.8216459854351452,0.4547475669375906,0.5075509883388825,-0.0019988333046944877,2.8674980869750274e-05,0.1016586631254289
6544,9.0,300.282,-5820.6512,0.06543998268425377,0.0,0.0,0.0,0.0,0.00998706661419338,0.8234255768507772,0.45374347661849457,0.4921635696702626,0.01160190109626849,0.006422485961500014,0.09209989878255231
6545,9.0,299.75642,-5894.1228,0.06544995932372144,0.0,0.0,0.0,0.0,0.009988589190435937,0.8198354088314552,0.44087566644354054,0.5309550594136845,0.012578975127948188,-0.0030561212805406872,0.10613778585498389
6546,9.0,300.24392,-5760.2394,0.06545996899841877,0.0,0.0,0.0,0.0,0.009990116808321653,0.8096465103308892,0.4246521239249016,0.5166703202988906,0.0068167107726069725,0.007754421253801793,0.08544254469027261
6547,9.0,299.90226,-5658.6917,0.06546997867311632,0.0,0.0,0.0,0.0,0.009991644426207397,0.7963826510893482,0.4139811412917576,0.5097371868871435,-0.0006917915104520064,0.0024021293386467077,0.1019996927115859
6548,9.0,299.49771,-5755.4277,0.06547995531258377,0.0,0.0,0.0,0.0,0.009993167002449926,0.8116242428035761,0.4143276424284546,0.5235544124057976,-0.015200090003382087,0.00898774056157093,0.08409679150370712
6549,9.0,299.43344,-5886.7788,0.06548996498728132,0.0,0.0,0.0,0.0,0.00999469462033567,0.8243844255529083,0.4459772692395295,0.5190720878059265,-0.009025917697513722,0.010091999468327801,0.10679551689239691
6550,9.0,300.06739,-6063.6682,0.06549997466197865,0.0,0.0,0.0,0.0,0.009996222238221358,0.8495529196893452,0.45219773319344153,0.5414530701222575,-0.005504209617223195,0.009142592027978581,0.0960533027772229
6551,9.0,299.6363,-6132.9024,0.06550998433667599,0.0,0.0,0.0,0.0,0.009997749856107074,0.8427070777737132,0.46549690420096757,0.5560452090523895,-0.004065369751920756,0.00040994713933113265,0.08597249475757461
6552,9.0,300.08693,-5876.9443,0.06551996097614365,0.0,0.0,0.0,0.0,0.009999272432349632,0.8126602099708182,0.4441017129069265,0.5296824071555835,-0.0014336107855113685,-0.004452479926125556,0.08004014644309743
6553,9.0,299.4833,-5776.5552,0.06552997065084099,0.0,0.0,0.0,0.0,0.010000800050235348,0.7999342041473593,0.4331628269473426,0.5228315091219525,0.018505178080568882,-0.012689655476121487,0.07126047719486153
6554,9.0,299.63531,-5913.5987,0.06553998032553854,0.0,0.0,0.0,0.0,0.010002327668121092,0.8357663551187173,0.4417343553732866,0.5200856418809565,0.004740682806393965,0.006300219301083234,0.08393714685770141
6555,9.0,300.65875,-5875.6354,0.06554995696500598,0.0,0.0,0.0,0.0,0.010003850244363621,0.8416813342999803,0.42201696438983155,0.5223481381617475,0.012742124606049789,-0.0037151818034098965,0.08296084390934783
6556,9.0,300.77572000000004,-5735.8658,0.06555996663970354,0.0,0.0,0.0,0.0,0.010005377862249337,0.8214280657361382,0.4164628440991826,0.5056690687956515,-0.011059187117456789,0.003070913617425577,0.09942298048203421
6557,9.0,300.00219,-5802.1262,0.06556997631440087,0.0,0.0,0.0,0.0,0.010006905480135053,0.8029428274042872,0.4252779882466696,0.5354806903228295,0.001011890034655771,-0.0008078511020811963,0.08993535237567822
6558,9.0,300.49296,-5922.6517,0.06557998598909842,0.0,0.0,0.0,0.0,0.010008433098020797,0.8283934508985682,0.4322920803414066,0.5396527070795755,-0.005788214501002295,-0.008316216657171683,0.09206464477182301
6559,9.0,299.7272,-6004.2757,0.06558996262856565,0.0,0.0,0.0,0.0,0.010009955674263327,0.8151448714685353,0.45243892724724555,0.5575660974524894,0.011782778398119689,-0.003683466062029797,0.08616633152820481
6560,9.0,299.9373,-5994.0675,0.0655999723032632,0.0,0.0,0.0,0.0,0.01001148329214907,0.8522744993254442,0.4480055831572086,0.5217667656518705,-0.0068657337376201635,-0.007851647667147294,0.09897082674416009
6561,9.0,300.58103,-5892.4155,0.06560998197796075,0.0,0.0,0.0,0.0,0.010013010910034786,0.8201440853419192,0.4417031067402026,0.5292999964353425,-0.004711341109998165,-0.0020339530597855383,0.08393855122234002
6562,9.0,300.24204,-5746.7041,0.0656199586174282,0.0,0.0,0.0,0.0,0.010014533486277344,0.8095775890590873,0.44112883711352663,0.4961481047610055,-0.002828672572293247,0.009059919939069482,0.1028649778994829
6563,9.0,299.69497,-5833.5973,0.06562996829212553,0.0,0.0,0.0,0.0,0.010016061104163032,0.7951008897128482,0.44308583848916755,0.5350811962059024,-0.0022732465603769675,0.004846451830007556,0.08402936984205313
6564,9.0,299.6816,-5939.1215,0.06563997796682286,0.0,0.0,0.0,0.0,0.010017588722048748,0.8326286134015461,0.44208456500534954,0.5306314678617485,0.005962419550944994,0.0038389204122469462,0.08317069915080892
6565,9.0,300.07198,-5829.2728,0.06564995460629053,0.0,0.0,0.0,0.0,0.010019111298291306,0.8006235384553912,0.4380037812876076,0.5333260646476845,-0.014424843232621186,-0.005798092270927155,0.07973555333053642
6566,9.0,300.07923,-5748.0948,0.06565996428098786,0.0,0.0,0.0,0.0,0.010020638916177022,0.8266064424922043,0.4283292085378016,0.49234164837533756,0.006521430745690103,-0.017779193503169782,0.1001786735523653
6567,9.0,299.96817000000004,-6029.8568,0.06566997395568541,0.0,0.0,0.0,0.0,0.010022166534062765,0.8438094634850102,0.4564490165055105,0.5326674216851816,0.004509297824158045,-0.016018295538632685,0.09543436199338823
6568,9.0,299.95381000000003,-6146.7909,0.06567998363038274,0.0,0.0,0.0,0.0,0.010023694151948481,0.8671857816395732,0.45805774355677953,0.5432274129023714,0.013617051881898386,-0.0004245252447473795,0.1024544292239649
6569,9.0,300.10697999999996,-5920.3089,0.06568996026985041,0.0,0.0,0.0,0.0,0.010025216728191039,0.8217580002337003,0.4419634816183996,0.5359046037671665,-0.0027857604173081476,-0.004517218197539725,0.08929523567800361
6570,9.0,300.1419,-5777.903,0.06569996994454774,0.0,0.0,0.0,0.0,0.010026744346076727,0.8045358592115073,0.43655105422173457,0.5152513445938485,-0.011343016708968591,0.015135614873018887,0.08543825965559973
6571,9.0,300.62192999999996,-5789.4633,0.0657099796192453,0.0,0.0,0.0,0.0,0.01002827196396247,0.8032407634636912,0.42662288523690056,0.5299886417333065,-0.007959226051464452,0.018945030962228982,0.07219124974997163
6572,9.0,300.19194,-5883.7049,0.06571995625871274,0.0,0.0,0.0,0.0,0.010029794540205,0.8353477916349082,0.4399973913893616,0.5131542005968766,-0.008131631062604502,0.006664379563173054,0.07919924207910663
6573,9.0,300.23706,-5946.0889,0.0657299659334103,0.0,0.0,0.0,0.0,0.010031322158090744,0.8320933437712191,0.44272787749383957,0.5326413203626055,-0.0064443947591372435,-0.0007808686268207332,0.08225772534695543
6574,9.0,300.10151,-5930.9876,0.06573997560810763,0.0,0.0,0.0,0.0,0.01003284977597646,0.8199172186445293,0.4501350599648715,0.5328198651627265,-0.01079382806201789,-0.003961271375072046,0.09306018224682491
6575,9.0,299.7895,-5966.3997,0.06574998528280496,0.0,0.0,0.0,0.0,0.010034377393862176,0.8082701924550573,0.46732546599393254,0.5380408794830005,0.007454936238969923,-0.0009615405834066671,0.099322788285646
6576,9.0,299.89151,-6021.7271,0.06575996192227263,0.0,0.0,0.0,0.0,0.010035899970104734,0.8336642461962551,0.4522468048957845,0.5445436247822715,0.01017254768370229,0.006807155925488984,0.09044202910143331
6577,9.0,299.78503,-6027.0468,0.06576997159696996,0.0,0.0,0.0,0.0,0.010037427587990422,0.8396335457153793,0.44631774153813153,0.5461204344553905,0.007686656910963972,-0.008597254339357941,0.08273982163853462
6578,9.0,299.34949,-5782.3866,0.06577998127166751,0.0,0.0,0.0,0.0,0.010038955205876166,0.8287827111894852,0.4309756962089896,0.4979427226756205,0.004259714566151096,-0.00949738033459346,0.08696420113394841
6579,9.0,299.96766,-5621.4222,0.06578995791113496,0.0,0.0,0.0,0.0,0.010040477782118695,0.7911734006027353,0.41727468034430465,0.5003239110731256,-0.021699912076114578,-0.004986536696082855,0.08716629386639342
6580,9.0,299.82437000000004,-5821.4114,0.06579996758583251,0.0,0.0,0.0,0.0,0.010042005400004439,0.8060859089494852,0.4452473643974936,0.5182304518753635,0.015162121495634884,-0.004391219635679636,0.09276367284356173
6581,9.0,300.16655,-6025.4715,0.06580997726052984,0.0,0.0,0.0,0.0,0.010043533017890155,0.8297660501465333,0.4479990172965606,0.5538278226660505,0.0014321379251660087,0.01194883590400829,0.08603476201596992
6582,9.0,300.21532,-5995.4186,0.06581995389999729,0.0,0.0,0.0,0.0,0.010045055594132685,0.8302560477623921,0.45079341921734656,0.5414080716853165,0.016554375769039682,0.008510614261732231,0.092298928459945
6583,9.0,300.27506,-5917.0368,0.06582996357469484,0.0,0.0,0.0,0.0,0.010046583212018428,0.8111057728599071,0.4523907066749866,0.5351349693887095,-0.008108117986083942,0.0069615051238220635,0.08283284306396513
6584,9.0,299.52387999999996,-5976.8771,0.06583997324939239,0.0,0.0,0.0,0.0,0.010048110829904144,0.8417137887006833,0.4515225337243046,0.5235850733538235,0.0006806526798501894,-0.013554715722496287,0.08980132978495123
6585,9.0,300.32918,-5975.0041,0.06584998292408972,0.0,0.0,0.0,0.0,0.01004963844778986,0.8282761469344913,0.4446873410672235,0.5432885524134056,0.004361578726529306,-0.005193390589422745,0.08811175246845292
6586,9.0,299.52032,-6082.4797,0.06585995956355717,0.0,0.0,0.0,0.0,0.01005116102403239,0.8477575621021571,0.4540943245981206,0.5470700828466135,0.006135251849652214,0.0012703251265963288,0.10135422200038291
6587,9.0,300.08828,-5892.3411,0.06586996923825472,0.0,0.0,0.0,0.0,0.010052688641918134,0.8180797199856822,0.43251430635333854,0.5405305363037105,-0.0029675308991224973,0.016408564013399185,0.08730477475756042
6588,9.0,300.06052999999997,-5656.2726,0.06587997891295205,0.0,0.0,0.0,0.0,0.01005421625980385,0.8053773127570522,0.41454888558778963,0.49943944506083554,-0.01724618139406558,-0.0031338591454378173,0.08625951608690142
6589,9.0,300.23771,-5799.2798,0.0658899555524195,0.0,0.0,0.0,0.0,0.01005573883604638,0.8189526754768361,0.4185962928472376,0.5252872727268175,-0.0059691516859344046,0.008440635156825832,0.07410622151146463
6590,9.0,299.4963,-5999.6857,0.06589996522711705,0.0,0.0,0.0,0.0,0.010057266453932123,0.8619715966249732,0.4406214723909536,0.5211615918971445,0.0026766016668100176,-0.013411040911316688,0.09000054488711222
6591,9.0,299.50192000000004,-5962.7392,0.06590997490181438,0.0,0.0,0.0,0.0,0.01005879407181784,0.8188513302018342,0.44808910536295155,0.5455833916373886,0.0005000471620733124,-0.014977914653955086,0.09671007021379081
6592,9.0,299.09733,-5896.536,0.06591998457651194,0.0,0.0,0.0,0.0,0.010060321689703555,0.8224174132662793,0.45220574800173263,0.5177765563605675,0.015291928965945886,-0.01048989153552169,0.1029989396952039
6593,9.0,299.33161,-5939.4693,0.06592996121597916,0.0,0.0,0.0,0.0,0.010061844265946085,0.8067556976630882,0.44597008529632054,0.5527245655596675,0.01076111426928929,-0.011734249797830288,0.0959593359894491
6594,9.0,299.7714,-5985.5193,0.06593997089067671,0.0,0.0,0.0,0.0,0.010063371883831829,0.8446828546737073,0.44399087347848754,0.5307746806308825,0.012054732698459488,0.01132035537048209,0.0933997395805866
6595,9.0,300.17901,-5977.1519,0.06594998056537427,0.0,0.0,0.0,0.0,0.010064899501717572,0.8416512407720103,0.43289852065875756,0.5423551565537865,-0.0017509500777053183,0.0006141172776611564,0.08060476486257093
6596,9.0,300.1651,-5819.3018,0.06595995720484149,0.0,0.0,0.0,0.0,0.010066422077960074,0.8307786821639722,0.4308894888904816,0.5072542681795985,-0.0018876430890708683,0.008686557947521522,0.09083005930672891
6597,9.0,300.08692,-5733.8225,0.06596996687953927,0.0,0.0,0.0,0.0,0.010067949695845846,0.7944718336532652,0.4316272362882916,0.5168397965106165,-0.016452555279740783,0.009143190757462673,0.08317675939965702
6598,9.0,299.91015,-5797.6482,0.0659799765542366,0.0,0.0,0.0,0.0,0.010069477313731534,0.8188996824966063,0.4332659352775186,0.5101746576178185,0.0031563055735781068,-0.0015376524203544787,0.1094444768938289
6599,9.0,299.91057,-5956.8089,0.06598995319370404,0.0,0.0,0.0,0.0,0.010070999889974092,0.8139634623819393,0.4454357377235846,0.5513219639762414,-0.004178014386737916,0.005376106737555425,0.09172173054048001
6600,9.0,300.06442999999996,-5932.0272,0.06599996286840137,0.0,0.0,0.0,0.0,0.01007252750785978,0.8319240904745152,0.45193610188512057,0.5193279435886775,-0.008910337170531812,0.0007096068384802424,0.1049723354574629
6601,9.0,299.70876,-5892.513000000001,0.06600997254309893,0.0,0.0,0.0,0.0,0.010074055125745524,0.8288438810980222,0.44633239313457757,0.5160005518502896,0.00026097216886594775,0.008167226639942512,0.08369143066870113
6602,9.0,299.78802,-5940.8586,0.06601998221779648,0.0,0.0,0.0,0.0,0.010075582743631267,0.8356452008042603,0.45515577500537757,0.5150716953511185,-0.0039576691696415365,-0.006600875430380683,0.10293219691111691
6603,9.0,299.71187000000003,-6041.8837,0.0660299588572637,0.0,0.0,0.0,0.0,0.01007710531987377,0.8352438828371531,0.4547824734035356,0.5465554125908194,0.013411478635359885,0.0003814748013886317,0.09144990289640272
6604,9.0,299.59995,-6054.6526,0.06603996853196148,0.0,0.0,0.0,0.0,0.01007863293775954,0.8479022846139401,0.45346822722882957,0.5390926938818065,-4.5126065923595956e-05,-0.02030682389787748,0.0938098322935596
6605,9.0,299.88013,-5890.5380000000005,0.06604997820665881,0.0,0.0,0.0,0.0,0.010080160555645229,0.8100848220591472,0.44425520003207464,0.5362364330424155,0.0036165527479509667,-0.001107451455171949,0.08432678103790532
6606,9.0,300.12142,-5675.108,0.06605995484612626,0.0,0.0,0.0,0.0,0.010081683131887786,0.8184991751295793,0.41331778671628966,0.4932741627073695,0.0018395673102511582,-0.0034165480199870365,0.08159124996117942
6607,9.0,299.82954,-5682.3007,0.06606996452082381,0.0,0.0,0.0,0.0,0.010083210749773502,0.8027601789412612,0.4152844747628866,0.5092328619148705,-0.008957578740544191,0.009547766728941212,0.08182014822501991
6608,9.0,300.07128,-5856.531,0.06607997419552136,0.0,0.0,0.0,0.0,0.010084738367659246,0.8290488210632482,0.4347471549362036,0.5164432205539775,-0.0049406247128516954,0.01104139140595049,0.08805174171803032
6609,9.0,299.91111,-5964.2289,0.0660899838702187,0.0,0.0,0.0,0.0,0.010086265985544962,0.8267876420075871,0.45140095384480555,0.5347880832169745,-0.005521885461242665,-0.0006555958357422714,0.0956504517627146
6610,9.0,300.13608,-5944.9874,0.06609996050968614,0.0,0.0,0.0,0.0,0.010087788561787492,0.8364408959752893,0.43987311626459663,0.5308137211572356,0.00987308729084785,0.002956492045908047,0.09388556159278351
6611,9.0,300.59552,-5993.5661,0.06610997018438369,0.0,0.0,0.0,0.0,0.010089316179673236,0.8276049396707482,0.4475991584095975,0.5466903268416344,0.0015901392821595286,0.003331120397430987,0.1066265777032239
6612,9.0,300.68922000000003,-6095.3913,0.06611997985908102,0.0,0.0,0.0,0.0,0.010090843797558924,0.8623087555957482,0.44345521881312255,0.5470827788703665,-0.0040739435702919265,-0.0050909283075105055,0.07833073374264153
6613,9.0,299.95752000000005,-5990.7314,0.06612995649854847,0.0,0.0,0.0,0.0,0.010092366373801481,0.8291168608074632,0.4551464024419526,0.5367694836550235,-0.004336893319643046,-0.011014815882327689,0.07791144882476132
6614,9.0,300.10733,-5770.4904,0.06613996617324602,0.0,0.0,0.0,0.0,0.010093893991687197,0.8181572741483363,0.4222643190042436,0.5136633993021305,-0.0034671047416765964,0.0014537579465247385,0.07567670951720973
6615,9.0,300.04232,-5663.6742,0.06614997584794358,0.0,0.0,0.0,0.0,0.010095421609572941,0.7937892678559012,0.41610039440591157,0.5117258725934115,0.010478590757156389,0.00037614709183282765,0.09459772138581822
6616,9.0,300.09955,-5738.2238,0.06615998552264091,0.0,0.0,0.0,0.0,0.010096949227458657,0.8210625560275652,0.4177045618317306,0.5055096440249175,0.0026173806435153576,-0.00022336404378181475,0.09641578692099731
6617,9.0,299.70504,-5944.6516,0.06616996216210835,0.0,0.0,0.0,0.0,0.010098471803701187,0.8240475198946582,0.4501472493635746,0.5328308791913136,-0.003323543414508197,-0.004421460287564155,0.1087558518608669
6618,9.0,300.11277,-6051.3476,0.0661799718368059,0.0,0.0,0.0,0.0,0.01009999942158693,0.8555356549047952,0.45236242686469563,0.5315604966134365,0.007508815002437342,0.0016831422664382084,0.09264170691577461
6619,9.0,299.98685,-6008.4935,0.06618998151150346,0.0,0.0,0.0,0.0,0.010101527039472646,0.8252127372446562,0.46109797008432657,0.5401212845883204,-0.003538354462208397,0.018650129586874484,0.1032220067047189
6620,9.0,299.60267999999996,-6061.5414,0.06619995815097068,0.0,0.0,0.0,0.0,0.010103049615715176,0.8443629108221312,0.4495329360929466,0.5486613921286635,-0.016728903032514182,0.013315600857897488,0.08590903693031182
6621,9.0,300.09587999999997,-6086.0437,0.06620996782566824,0.0,0.0,0.0,0.0,0.010104577233600892,0.8339796304223812,0.45314408852183957,0.5628815973445884,-0.014835922851191586,-0.0022731283140902977,0.09195171196867741
6622,9.0,300.53489,-6055.61,0.06621997750036579,0.0,0.0,0.0,0.0,0.010106104851486636,0.8346346864795303,0.4568510133501846,0.5492685315885835,-0.0041084559832730355,0.0037225286772349766,0.08132854156800212
6623,9.0,300.77348,-5798.9647,0.06622995413983301,0.0,0.0,0.0,0.0,0.010107627427729166,0.8103504253078603,0.42085499957265465,0.5315350437709244,0.005526699311142755,-0.005448049014530575,0.08763304549845823
6624,9.0,300.4872,-5716.2819,0.06623996381453034,0.0,0.0,0.0,0.0,0.010109155045614882,0.8200724586923502,0.4235830741418946,0.4939514292067105,0.0019362544718934383,-0.003990565347388136,0.08250002992286902
6625,9.0,300.59432999999996,-5740.228,0.0662499734892279,0.0,0.0,0.0,0.0,0.010110682663500625,0.8053818217199972,0.42851228256586965,0.5109918640884705,-0.006739993149235534,-0.013935849747611289,0.08918220154984802
6626,9.0,300.52418,-5878.8534,0.06625998316392545,0.0,0.0,0.0,0.0,0.010112210281386341,0.8281610518556322,0.43021430968634655,0.5286492669561206,0.0016180712436911987,-0.007266475773370322,0.08084033537831992
6627,9.0,300.53106,-5975.6371,0.06626995980339268,0.0,0.0,0.0,0.0,0.010113732857628843,0.8185669007662633,0.45473128400848356,0.5431462920993655,0.012908997778268887,0.008819572557049042,0.11632840688071988
6628,9.0,299.107,-6009.8765,0.06627996947809023,0.0,0.0,0.0,0.0,0.010115260475514587,0.8403061512642602,0.4402316142824776,0.5463146238370555,0.0099196243480657,0.005093535703992836,0.1009194181439711
6629,9.0,299.33146,-5949.6304,0.06628997915278778,0.0,0.0,0.0,0.0,0.01011678809340033,0.8342153022631401,0.4477249838070156,0.5265987932587545,0.008170728330963103,-0.0063844516938213235,0.11281686706915789
6630,9.0,299.52842999999996,-5908.2184,0.06629995579225523,0.0,0.0,0.0,0.0,0.01011831066964286,0.8424151806849051,0.43549903717290855,0.5180366475287366,-0.01056939316486789,-0.004974178489913195,0.08262994581094071
6631,9.0,300.20576,-5872.9547,0.06630996546695256,0.0,0.0,0.0,0.0,0.010119838287528576,0.8203245451847293,0.4425254706538636,0.5223815754150475,0.004559034522541676,0.00029570936124924174,0.09466594148855101
6632,9.0,300.3364,-5831.1816,0.06631997514165011,0.0,0.0,0.0,0.0,0.01012136590541432,0.8317065862080493,0.4222113158915126,0.5186156996958845,-0.018670395602124582,0.007352134619599192,0.06736709813611494
6633,9.0,300.17228,-5871.3709,0.06632998481634766,0.0,0.0,0.0,0.0,0.010122893523300036,0.8095551557018732,0.44013524406546656,0.5350597558337865,-0.005397092970976605,0.004011196233999247,0.09399697350752902
6634,9.0,300.23807,-5877.6405,0.06633996145581511,0.0,0.0,0.0,0.0,0.010124416099542594,0.8231543399315082,0.43891360894990056,0.5245879984353045,-0.002139220017974578,0.0055761278801709745,0.08402147561052402
6635,9.0,300.59722999999997,-5903.3613,0.06634997113051244,0.0,0.0,0.0,0.0,0.010125943717428282,0.8222244093872313,0.4569476064822176,0.5153024225313895,0.013315262432364089,0.011433575936656091,0.11121164586323488
6636,9.0,299.6901,-5992.1642,0.06635998080521,0.0,0.0,0.0,0.0,0.010127471335314026,0.8441767362487572,0.4554675115311436,0.5218240548125245,0.0020498662539310476,-0.01011061226471474,0.09590780310261321
6637,9.0,299.1657,-6008.0621,0.06636995744467744,0.0,0.0,0.0,0.0,0.010128993911556555,0.8355911236464233,0.4574268636470165,0.5332828596634205,0.006114566956810775,-0.017304995496120086,0.1114986996165649
6638,9.0,299.15554,-5892.8663,0.06637996711937477,0.0,0.0,0.0,0.0,0.010130521529442271,0.8351705843249192,0.43722258572550954,0.5188910504105595,-0.0036797330460113767,-0.00974325793433469,0.09008778065447172
6639,9.0,299.53873,-5782.9456,0.06638997679407233,0.0,0.0,0.0,0.0,0.010132049147328015,0.7919240264093163,0.4365482272539556,0.5293988187175955,0.014481483913211187,0.006780157572599453,0.1069342916260929
6640,9.0,299.75136000000003,-5894.3726,0.06639995343353977,0.0,0.0,0.0,0.0,0.010133571723570545,0.8133827890146312,0.45356036206042255,0.5247989368411224,-0.01844223802410718,0.018235263452680384,0.09014133294875692
6641,9.0,299.65603,-5942.6405,0.06640996310823732,0.0,0.0,0.0,0.0,0.01013509934145626,0.8369640775319231,0.4293483253558806,0.5401019213789094,-0.007489993273879783,0.0042440973423597955,0.08321759439193713
6642,9.0,299.67978999999997,-5978.0414,0.06641997278293466,0.0,0.0,0.0,0.0,0.010136626959341977,0.8491406282236551,0.44720998931118966,0.5208246963713955,-0.013779014844132884,-0.0037882741192485463,0.07689124276282483
6643,9.0,299.71992,-5906.9491,0.06642998245763221,0.0,0.0,0.0,0.0,0.01013815457722772,0.8295233058200763,0.4372705225877406,0.5287712014731545,-0.005640994429047805,0.008338197800866053,0.08395419681713413
6644,9.0,299.8941,-5948.7115,0.06643995909709965,0.0,0.0,0.0,0.0,0.01013967715347025,0.8428630068316022,0.4300115988713406,0.5353851509709006,0.0025400263951060875,-0.0025480375556967277,0.07483479696936943
6645,9.0,300.4935,-6063.1135,0.06644996877179721,0.0,0.0,0.0,0.0,0.010141204771355994,0.8308243797434822,0.45339828257442655,0.5588124356054934,0.005545746589172574,-0.0027921916170178572,0.10039086230880671
6646,9.0,300.11616000000004,-6012.6854,0.06645997844649454,0.0,0.0,0.0,0.0,0.01014273238924171,0.8485770585180351,0.4296989605529856,0.5494302159070404,0.014685342740580486,0.007463708553035683,0.0954662955835398
6647,9.0,299.57122000000004,-5883.338000000001,0.0664699550859622,0.0,0.0,0.0,0.0,0.010144254965484267,0.8242459345292402,0.4527446551999186,0.5113972451884785,0.019117126425463482,-0.005421737138583795,0.1020569818722399
6648,9.0,300.18329,-5746.1388,0.06647996476065954,0.0,0.0,0.0,0.0,0.010145782583369956,0.8142820282133792,0.43338043253881864,0.49902026349446554,0.01208434594588209,0.009740124357075431,0.0943432324774521
6649,9.0,300.33036,-5822.182,0.06648997443535687,0.0,0.0,0.0,0.0,0.010147310201255672,0.8208309777172101,0.42419010214430364,0.5247768783864455,-0.004265704191467225,-0.01023298298591679,0.0958275060719385
6650,9.0,299.52741000000003,-5984.5719,0.06649998411005442,0.0,0.0,0.0,0.0,0.010148837819141415,0.8349660192622301,0.44657948430396355,0.5376149091409604,-0.0015836379655428984,0.007369578733320794,0.08673999320482081
6651,9.0,299.53213,-6092.005999999999,0.06650996074952187,0.0,0.0,0.0,0.0,0.010150360395383945,0.8345599288871521,0.44629000888289455,0.5709677789726324,-0.01748030093567138,0.01171642064907069,0.09136904452517261
6652,9.0,299.77801,-6056.6359999999995,0.06651997042421942,0.0,0.0,0.0,0.0,0.010151888013269689,0.8349107262042732,0.45982417285361254,0.5463312107411925,-0.011634288622464888,0.00972628802165989,0.0975617504925951
6653,9.0,300.0686,-6027.7104,0.06652998009891675,0.0,0.0,0.0,0.0,0.010153415631155405,0.8385401070024653,0.46008339262669556,0.5336499500421495,-0.024264299131449875,-0.0052759040033661855,0.09030530214618941
6654,9.0,300.36025,-5988.3312,0.0665399567383842,0.0,0.0,0.0,0.0,0.010154938207397962,0.8387980602129232,0.44452753126145156,0.5369775748280605,-0.004510130411765216,-0.0007019038477750165,0.10189040355579991
6655,9.0,299.99781,-5902.8182,0.06654996641308175,0.0,0.0,0.0,0.0,0.01015646582528365,0.8272637378320743,0.4580303047440715,0.5090152968533985,0.009950598491697611,-0.013042051701900289,0.09613573371260821
6656,9.0,300.25527,-5774.5774,0.06655997608777908,0.0,0.0,0.0,0.0,0.010157993443169394,0.7998698121035042,0.43905164401102353,0.5164058924202936,0.029494253357356174,-0.004802229846618186,0.1061235395585779
6657,9.0,300.09101,-5818.0562,0.06656995272724653,0.0,0.0,0.0,0.0,0.010159516019411924,0.8156427825676752,0.4269029779620436,0.5259980372744645,0.022114515778532778,-0.0018560852120563483,0.09659070327251022
6658,9.0,300.89737,-5915.4647,0.06657996240194408,0.0,0.0,0.0,0.0,0.010161043637297668,0.8254350848466002,0.44637542586632456,0.5263430388010134,0.008990304894924011,-0.0034560615314867165,0.1128632941887399
6659,9.0,300.20962000000003,-5964.994000000001,0.06658997207664141,0.0,0.0,0.0,0.0,0.010162571255183384,0.8354938009743181,0.4380925521288686,0.5396228567316296,-0.0016782642778067885,0.0052251991445120055,0.08711828911640572
6660,9.0,300.13383999999996,-6010.5992,0.06659998175133897,0.0,0.0,0.0,0.0,0.0101640988730691,0.8345492390985972,0.4501399742278566,0.5423828790765225,-0.01060342722247679,0.006925750972843404,0.09166043194918032
6661,9.0,299.93393,-5999.0517,0.06660995839080641,0.0,0.0,0.0,0.0,0.010165621449311657,0.8424928969675752,0.4435898898839136,0.5374791336275605,-0.0067868479616847435,0.0008604854221732993,0.06740536960564203
6662,9.0,300.34828999999996,-5935.6915,0.06661996806550374,0.0,0.0,0.0,0.0,0.010167149067197345,0.8295637750290702,0.4213422310157406,0.5533959957384326,-0.014830146312371487,0.0016114609013638086,0.08014859764105073
6663,9.0,299.41591,-5981.77,0.0666299777402013,0.0,0.0,0.0,0.0,0.010168676685083089,0.8291132435046061,0.4533635686260005,0.5358318929399905,-0.002866227471349627,-0.004162983834754517,0.08550543509747942
6664,9.0,299.76294,-5995.9828,0.06663995437966874,0.0,0.0,0.0,0.0,0.010170199261325619,0.8517921112178362,0.44266579566021264,0.5281711446314334,-0.0069904605692797436,0.006219238529241055,0.09863300105481931
6665,9.0,299.30297,-5967.5752,0.0666499640543663,0.0,0.0,0.0,0.0,0.010171726879211362,0.8310643781621682,0.45778930320778655,0.5251401690772994,0.006489310514870083,0.011786200143707388,0.09675513552523841
6666,9.0,299.56066,-5873.068,0.06665997372906363,0.0,0.0,0.0,0.0,0.010173254497097078,0.8320592175078513,0.44166436005637855,0.5115424337953075,-0.005772245274126255,0.007159894427151562,0.10625464398901689
6667,9.0,299.91087000000005,-5844.6887,0.06666998340376118,0.0,0.0,0.0,0.0,0.010174782114982822,0.8170875353552612,0.42960243834845957,0.5299494593519395,0.017046672449375584,-0.004127858810762946,0.09426079647581631
6668,9.0,299.92918,-5884.6186,0.06667996004322863,0.0,0.0,0.0,0.0,0.010176304691225352,0.8148868979930752,0.4489865511090225,0.5249036765039595,0.002149514942965608,-0.013509035368237988,0.0991502713103699
6669,9.0,300.10979,-5944.4108,0.06668996971792618,0.0,0.0,0.0,0.0,0.010177832309111068,0.8295216744874152,0.4336268245656356,0.5438039522092715,0.019017560417637084,-0.01162888495968159,0.0924152647701765
6670,9.0,300.42775,-5969.7162,0.06669997939262351,0.0,0.0,0.0,0.0,0.010179359926996784,0.8349297043786462,0.4472108404412736,0.5325041060340635,-0.007174753841193073,-0.008248971199710072,0.1034070160404779
6671,9.0,299.92742000000004,-5939.093000000001,0.06670995603209118,0.0,0.0,0.0,0.0,0.010180882503239341,0.8228625137702072,0.45282642448298854,0.5296470345945925,-0.008254382968494173,-0.006964034196071664,0.10283514781653891
6672,9.0,300.12699,-5901.8803,0.06671996570678851,0.0,0.0,0.0,0.0,0.010182410121125057,0.8203873464259273,0.44383861238596056,0.5297982925695205,-0.005553051210468485,0.006050048864643334,0.08976258310112722
6673,9.0,299.88345,-5999.6197,0.06672997538148584,0.0,0.0,0.0,0.0,0.010183937739010773,0.8284542155070652,0.4541344290370786,0.5411459438844465,-2.6721408332447675e-05,0.02097956724877208,0.08154286220265393
6674,9.0,299.52237,-6090.9447,0.06673998505618339,0.0,0.0,0.0,0.0,0.010185465356896517,0.8445754096331032,0.45473702913655056,0.5521826591411855,-0.0006162369766053545,0.002315904288261958,0.09422276109356251
6675,9.0,299.56523,-5930.1618,0.06674996169565084,0.0,0.0,0.0,0.0,0.010186987933139047,0.8405186703402341,0.4269201322862366,0.5351823084333815,-0.007888155473550332,-0.005385317282289435,0.08097050964516712
6676,9.0,299.51445,-5818.1047,0.06675997137034839,0.0,0.0,0.0,0.0,0.010188515551024763,0.8122364687789982,0.44655713200675756,0.5097649398073825,0.004490502338778075,-0.010917852914008189,0.11340527153472889
6677,9.0,298.89105,-5877.2224,0.06676998104504572,0.0,0.0,0.0,0.0,0.010190043168910479,0.8166986297018792,0.42746431851744354,0.5423659172698485,-0.0019338676599578782,-0.002240473695167538,0.08962653907645073
6678,9.0,299.49399,-5928.7884,0.06677995768451339,0.0,0.0,0.0,0.0,0.010191565745153036,0.8261722749568552,0.44479996381583853,0.5312314031134575,-0.002765068735691037,-0.001132505583769599,0.0975952262493989
6679,9.0,299.36084,-6011.7508,0.06678996735921072,0.0,0.0,0.0,0.0,0.010193093363038752,0.8337633724535383,0.4500925338581746,0.5435662336033105,-0.0005581444707420704,-0.0019358040822239882,0.07632946043038123
6680,9.0,299.46782,-5934.8525,0.06679997703390828,0.0,0.0,0.0,0.0,0.010194620980924496,0.8300480477818641,0.4337970201849326,0.5402019190312786,0.0026523273354893276,0.0021247419912707077,0.08086813693456371
6681,9.0,300.11098,-5920.0758,0.06680995367337572,0.0,0.0,0.0,0.0,0.010196143557167026,0.8380835061099021,0.4442515118017105,0.5172202111281605,0.00037102331912465064,0.009844039436981051,0.07833977497328383
6682,9.0,300.23564,-6088.1425,0.06681996334807327,0.0,0.0,0.0,0.0,0.01019767117505277,0.8669572532120191,0.4456957883617496,0.5379902575080046,0.008462467352755501,-0.0006282736379882803,0.0963200986213036
6683,9.0,300.25381,-6174.6313,0.0668299730227706,0.0,0.0,0.0,0.0,0.010199198792938458,0.8661947217167631,0.4704827533055325,0.5402562393691396,-0.007675944324281723,-0.004375396924768056,0.10292884305328591
6684,9.0,300.2008,-5962.2279,0.06683998269746794,0.0,0.0,0.0,0.0,0.010200726410824174,0.8286833924146831,0.4563057226763686,0.5273792795457826,0.003578411481061716,-0.008972040048621413,0.1010292068320564
6685,9.0,300.02916,-5805.2805,0.06684995933693538,0.0,0.0,0.0,0.0,0.010202248987066731,0.7995419952986512,0.4335347302640466,0.5315835683182135,-0.016218863329677185,-0.004558538840592756,0.08511048946025132
6686,9.0,299.44454,-5886.2637,0.06685996901163294,0.0,0.0,0.0,0.0,0.010203776604952447,0.8020565578068192,0.45746897432117256,0.5297516425349165,-0.003398776018533077,0.007483396610428742,0.0918674744083638
6687,9.0,299.80532999999997,-5896.9251,0.06686997868633049,0.0,0.0,0.0,0.0,0.01020530422283819,0.8246548417395962,0.4376061819483676,0.5302569503597865,-0.01013547894204389,0.004270662125531535,0.09220757180442882
6688,9.0,299.34155,-5919.7989,0.06687995532579771,0.0,0.0,0.0,0.0,0.01020682679908072,0.8241847038256972,0.44922985272303456,0.5260564916727335,0.00983102798847192,0.004973533961524586,0.10526515460386189
6689,9.0,299.76977,-5947.5812,0.06688996500049527,0.0,0.0,0.0,0.0,0.010208354416966464,0.8333568970434222,0.45539467911395554,0.5191645975400565,-0.005667473085961046,-0.0030967979018301567,0.1065136003170739
6690,9.0,299.74505,-5965.3407,0.0668999746751926,0.0,0.0,0.0,0.0,0.010209882034852152,0.8461681070677902,0.4398907468163366,0.5272557542260915,0.011546004141251889,-0.01000875114408683,0.1002269640388812
6691,9.0,300.49379,-5988.918000000001,0.06690998434989015,0.0,0.0,0.0,0.0,0.010211409652737896,0.8353559989607183,0.45117046984455855,0.5339550599122614,-0.006838666787698863,-0.0016976369104437184,0.07955372154709102
6692,9.0,300.27087,-5979.3497,0.0669199609893576,0.0,0.0,0.0,0.0,0.010212932228980426,0.8419286686493902,0.44639054355781654,0.5292538023632836,0.006771513029371304,-0.002466190049719008,0.09338324488220871
6693,9.0,300.30683999999997,-5963.8238,0.06692997066405515,0.0,0.0,0.0,0.0,0.01021445984686617,0.8347291619188543,0.44143206233845256,0.5366923145274074,-0.003067451645808907,-0.0002890836479178347,0.07927132063822023
6694,9.0,300.47123,-5920.978,0.06693998033875248,0.0,0.0,0.0,0.0,0.010215987464751886,0.8300374593183192,0.4644161007168005,0.5053758950117175,-0.005078572127841045,-0.0033941125349478273,0.1076126828330449
6695,9.0,300.17751,-5955.9932,0.06694995697822015,0.0,0.0,0.0,0.0,0.010217510040994443,0.8300388880009602,0.44001231656333456,0.5404220273505015,0.005085942306418425,0.007194107931353174,0.09491210958709591
6696,9.0,299.82977,-5990.2369,0.06695996665291748,0.0,0.0,0.0,0.0,0.010219037658880159,0.8160475557176232,0.4646496244673476,0.5401852713321355,-0.004535073184176876,-0.014014000714574187,0.09242326843271642
6697,9.0,300.19219,-5932.4327,0.06696997632761481,0.0,0.0,0.0,0.0,0.010220565276765847,0.8044420727822512,0.44956875448398154,0.5493005908217474,0.0011491517630374487,0.007427941533780753,0.08506903638541023
6698,9.0,299.57781,-5924.2249,0.06697995296708226,0.0,0.0,0.0,0.0,0.010222087853008405,0.8203244033297152,0.4284908421937536,0.5520011961807765,-0.008784519169839541,-0.0017227179914940283,0.07123904999499683
6699,9.0,299.58206,-5894.7685,0.06698996264177981,0.0,0.0,0.0,0.0,0.01022361547089412,0.8241013437399701,0.44188482301313653,0.5258762547449455,0.0028312631488239173,0.005306010804912495,0.09213906697841792
6700,9.0,300.05757,-5961.593000000001,0.06699997231647736,0.0,0.0,0.0,0.0,0.010225143088779864,0.8432299958853212,0.4345261853543956,0.5344192196505705,-0.004519254222290665,-0.01016940863489249,0.08291623456044522
6701,9.0,299.9487,-6118.8674,0.0670099819911747,0.0,0.0,0.0,0.0,0.01022667070666558,0.8538973916131112,0.4631364165030055,0.5429490933649035,0.004237668067825277,-0.01182658018669259,0.10983092034946788
6702,9.0,300.16897,-6062.2191,0.06701995863064236,0.0,0.0,0.0,0.0,0.010228193282908138,0.8508066748330811,0.4572527568823336,0.5347038112061574,0.006347710839895285,-0.015100935375096285,0.10136441529638891
6703,9.0,300.7876,-5900.8691,0.0670299683053397,0.0,0.0,0.0,0.0,0.010229720900793854,0.8203700401142192,0.4371253035834086,0.5362215382659455,0.007883753813790924,-0.005619968577547714,0.08980882175619061
6704,9.0,300.09664,-5886.4735,0.06703997798003725,0.0,0.0,0.0,0.0,0.01023124851867957,0.8295827329384412,0.43871084747238964,0.5210473783458726,0.003696206364812166,0.0018076356452747483,0.09057476385128323
6705,9.0,299.78938,-5962.2104,0.06704995461950469,0.0,0.0,0.0,0.0,0.010232771094922127,0.8300236689844582,0.46275013516738256,0.5195892911869705,-0.0036042478387365664,0.012636303805356089,0.08950499364745511
6706,9.0,300.00531,-5986.8196,0.06705996429420225,0.0,0.0,0.0,0.0,0.010234298712807843,0.8389199035374482,0.4451663955820026,0.5357573582626345,-0.004328692579958696,0.007505852360469952,0.09928168883508981
6707,9.0,300.31773,-5952.596,0.06706997396889958,0.0,0.0,0.0,0.0,0.01023582633069356,0.8165486484220772,0.45883946600892955,0.5340524535118735,-0.011993184847635188,-0.002031382444281838,0.10104499326861441
6708,9.0,299.55045,-5881.1571,0.06707998364359691,0.0,0.0,0.0,0.0,0.010237353948579275,0.8151096812925622,0.42711425074039455,0.5455009840067554,0.0017702713385621784,-0.010766713489341889,0.1015420481714199
6709,9.0,300.28382,-5881.135,0.06708996028306458,0.0,0.0,0.0,0.0,0.010238876524821833,0.8112663628682563,0.4305889285133186,0.5458628966774735,0.00035281274249740664,-0.009505993467068511,0.08409243959452763
6710,9.0,300.15314,-5998.0465,0.0670999699577619,0.0,0.0,0.0,0.0,0.010240404142707549,0.8317423032740742,0.4507091472065296,0.5408049244307904,0.006391041771146714,-0.011544745684627688,0.090691802343834
6711,9.0,300.53767,-6009.9068,0.06710997963245946,0.0,0.0,0.0,0.0,0.010241931760593265,0.8518716209531833,0.43168516379650856,0.5433048353425125,0.008616010307984012,0.007603041080911733,0.08311148278846472
6712,9.0,299.61222999999995,-5980.0928,0.0671199562719269,0.0,0.0,0.0,0.0,0.010243454336835822,0.8341330060900182,0.45772206393115056,0.5259438283941145,0.005435074043025045,0.010525337050519891,0.08769235204006132
6713,9.0,300.32265,-5946.8754,0.06712996594662446,0.0,0.0,0.0,0.0,0.010244981954721538,0.8307896050000503,0.44166581913652253,0.5352462039846875,0.006588035727763504,0.01931356218260018,0.09589955524679922
6714,9.0,300.17117,-5983.1803,0.06713997562132179,0.0,0.0,0.0,0.0,0.010246509572607254,0.8239423344017772,0.45469478673988156,0.5401003103112505,0.0018139805160759383,0.005333188503069725,0.09414698214508371
6715,9.0,300.17775,-5984.4123,0.06714998529601934,0.0,0.0,0.0,0.0,0.010248037190492998,0.8275334751411952,0.4574586594351546,0.5341197839810184,-0.001766925789381998,-0.0006402038371831994,0.0918182638907571
6716,9.0,299.97936,-5928.0737,0.06715996193548657,0.0,0.0,0.0,0.0,0.010249559766735528,0.8387899846096262,0.42975174075069456,0.5334446554393885,0.002429073685305908,-0.004228537063224115,0.07897478083745402
6717,9.0,300.82599999999996,-5879.3718,0.06716997161018412,0.0,0.0,0.0,0.0,0.010251087384621271,0.8200907073266512,0.45070774892139154,0.5163837630381095,-0.02019500465659178,-0.0038303410210002264,0.09817611138597782
6718,9.0,300.14361,-5907.4334,0.06717998128488167,0.0,0.0,0.0,0.0,0.01025261500250696,0.8199209778024003,0.45488118422827756,0.5209100930898235,-0.0070174555784439435,-0.001138141483475819,0.09363857377490772
6719,9.0,300.75754,-5965.6746,0.0671899579243489,0.0,0.0,0.0,0.0,0.010254137578749517,0.8268474845584932,0.44128894076182756,0.5452796901849155,-0.0057000559667767245,0.0013738203156605088,0.1010106755009775
6720,9.0,300.65634,-6006.9185,0.06719996759904645,0.0,0.0,0.0,0.0,0.010255665196635233,0.8377726207142202,0.44943436712321855,0.5387462434076145,0.016964462402512082,0.01730104483398018,0.093806067056188
6721,9.0,299.88864,-5889.5101,0.06720997727374378,0.0,0.0,0.0,0.0,0.010257192814520949,0.8272071680789912,0.4304370524558295,0.5326197786654796,-0.0023867735333812077,-0.00019222794225392083,0.09355500293315991
6722,9.0,299.63881000000003,-5804.9036,0.06721995391321123,0.0,0.0,0.0,0.0,0.010258715390763479,0.8301863057580091,0.4326327856875316,0.5017266443790646,0.013269555733603187,-0.0032237354425579167,0.09333544379549111
6723,9.0,300.03681,-5986.2335,0.06722996358790878,0.0,0.0,0.0,0.0,0.010260243008649222,0.8393028310152403,0.4649233134518586,0.5154393835474066,0.0027355536722031273,-0.002447135577613478,0.1155109268325409
6724,9.0,299.85665,-6081.7395,0.06723997326260633,0.0,0.0,0.0,0.0,0.010261770626534966,0.8534865592275652,0.45438392160920155,0.5408264661279165,0.008185529989748912,0.017427847004494585,0.10041366854205751
6725,9.0,300.04919,-5881.579000000001,0.06724998293730367,0.0,0.0,0.0,0.0,0.010263298244420654,0.8042322489515432,0.45761729387081057,0.5260036304150165,-0.005183937067314755,0.0013271061423251785,0.1171840053976609
6726,9.0,299.97487,-5809.7691,0.06725995957677111,0.0,0.0,0.0,0.0,0.010264820820663184,0.7976899362358673,0.4434841977659825,0.5248506024637215,-0.019501168478365482,-0.007820847802532581,0.10108635616419659
6727,9.0,300.5439,-5839.5068,0.06726996925146866,0.0,0.0,0.0,0.0,0.010266348438548928,0.8163422493767072,0.43110914124715954,0.5276128843563375,-0.001819996891194708,-0.0011986570350982389,0.0967262953876421
6728,9.0,300.28421000000003,-5935.9344,0.06727997892616622,0.0,0.0,0.0,0.0,0.010267876056434672,0.8397572939500921,0.43666636208311455,0.5279521711523225,-0.012198489582897189,0.003328311262853747,0.08685856170502261
6729,9.0,300.24076,-5974.4687,0.06728995556563344,0.0,0.0,0.0,0.0,0.010269398632677174,0.8505424192070011,0.4280443738021906,0.5375025093073674,0.0012769730605024286,0.0011350189506426488,0.08007203950324503
6730,9.0,300.95306,-5885.0109999999995,0.067299965240331,0.0,0.0,0.0,0.0,0.010270926250562917,0.8326188760680853,0.4299881218665236,0.5262894176057215,-0.01291229793384459,-0.004111674470890676,0.0883509271148076
6731,9.0,300.62691,-5921.9319,0.06730997491502855,0.0,0.0,0.0,0.0,0.010272453868448661,0.8377137002209052,0.4312667826977176,0.5311389440418325,0.0030843013870218467,0.015992990630635286,0.09117137158966382
6732,9.0,300.30383,-6051.4651,0.06731998458972588,0.0,0.0,0.0,0.0,0.01027398148633435,0.8413846546707002,0.4434078189734446,0.5547018116723065,-0.00029237617372028177,0.027878966524939774,0.08124250751526121
6733,9.0,300.12278,-6019.8798,0.06732996122919332,0.0,0.0,0.0,0.0,0.010275504062576879,0.8487265939677932,0.4440928874985556,0.5370736613350434,0.008007841284637404,-0.00010615213347639989,0.0940515735024176
6734,9.0,299.59762,-5886.3074,0.06733997090389088,0.0,0.0,0.0,0.0,0.010277031680462623,0.8342257792691742,0.4341147956812946,0.5209498834212505,0.000985322647431274,-0.016476406173844684,0.08310395434022172
6735,9.0,299.39076,-5840.3561,0.06734998057858843,0.0,0.0,0.0,0.0,0.010278559298348366,0.8322343172576323,0.43480021884394066,0.5082878947391095,0.007092889008638644,-0.020797734452076583,0.10193080183728691
6736,9.0,300.27434,-5916.9918,0.06735995721805565,0.0,0.0,0.0,0.0,0.010280081874590868,0.8265010138192992,0.4510887613564946,0.5210279746064576,0.01758647232089968,-0.0037342731578190666,0.09727829479037021
6737,9.0,299.57472,-6100.5149,0.06736996689275321,0.0,0.0,0.0,0.0,0.010281609492476612,0.8411598752685161,0.44775115605709853,0.5654931481523284,0.006866412209887123,-0.010727467273218591,0.09742717061431311
6738,9.0,299.59207999999995,-6037.9619999999995,0.06737997656745076,0.0,0.0,0.0,0.0,0.010283137110362356,0.8196028679335052,0.45776072955496655,0.5580260826003864,-0.00978927387702611,-0.01036843932553529,0.09451881960053123
6739,9.0,300.08444,-5947.4261,0.06738995320691821,0.0,0.0,0.0,0.0,0.010284659686604886,0.8259161861265812,0.4522614564922306,0.5296913946839705,-0.014810108278393885,-0.0026403538603826378,0.0994149302099897
6740,9.0,300.6753,-5974.9514,0.06739996288161554,0.0,0.0,0.0,0.0,0.010286187304490574,0.8448346902011922,0.43842604313428163,0.5329752875955655,-0.013582494987237887,0.016042732091294382,0.09037330034715033
6741,9.0,300.07651,-6077.1402,0.06740997255631309,0.0,0.0,0.0,0.0,0.010287714922376318,0.8580554660484813,0.46109380562641555,0.5281496130668085,0.01099922297653879,-0.003206054025662897,0.1064779744435579
6742,9.0,300.34755,-5950.7967,0.06741998223101064,0.0,0.0,0.0,0.0,0.010289242540262061,0.8326453421606972,0.44450556399928354,0.5317426891139175,-0.004041506901465676,-0.009001787146382221,0.10917582376231491
6743,9.0,299.82341,-5870.9085,0.06742995887047809,0.0,0.0,0.0,0.0,0.010290765116504591,0.8236215292876162,0.45043723140969355,0.5105508368499445,0.011560589876441388,-0.00956904599429131,0.1042237969460879
6744,9.0,299.49959,-5891.5289,0.06743996854517542,0.0,0.0,0.0,0.0,0.010292292734390307,0.8193964688881352,0.4452413963544046,0.5262397987483245,-0.0028704143220878377,0.007960349847150362,0.1036607946605239
6745,9.0,300.1292,-5901.4619,0.06744997821987297,0.0,0.0,0.0,0.0,0.01029382035227605,0.8338626709633382,0.4325936539686696,0.5274407331643475,0.0027937248670691773,-9.687905398596821e-05,0.08112075133024482
6746,9.0,300.20712000000003,-6087.647,0.06745995485934042,0.0,0.0,0.0,0.0,0.01029534292851858,0.8518259841686793,0.4576840873174026,0.5409826181008275,-0.0021943832785937677,0.004732937623954576,0.0919830031582656
6747,9.0,299.83179,-6127.4452,0.06746996453403775,0.0,0.0,0.0,0.0,0.010296870546404269,0.8634378911096852,0.44600307671957656,0.5531493605315915,0.0042533296719709564,-0.019993786358983082,0.07826408823056413
6748,9.0,299.38617999999997,-6002.8224,0.0674799742087353,0.0,0.0,0.0,0.0,0.010298398164290012,0.8333631690615413,0.44873398838909656,0.5426109616740324,-0.0013330848245402289,-0.003923419999036406,0.09584468775388422
6749,9.0,299.61992999999995,-5973.695,0.06748998388343286,0.0,0.0,0.0,0.0,0.010299925782175756,0.8310397967147422,0.44388327645036857,0.5409310538032385,-0.00862612568505732,-0.009689599552764022,0.09600878462082932
6750,9.0,299.68452,-6081.4935,0.06749996052290008,0.0,0.0,0.0,0.0,0.010301448358418286,0.8458973565085692,0.4441407027707746,0.5585841098279594,-0.008908968674946753,0.003158644256133917,0.09321161247426991
6751,9.0,299.71322999999995,-5995.0288,0.06750997019759764,0.0,0.0,0.0,0.0,0.010302975976304002,0.8384649846400511,0.4510030505305356,0.5328710241602755,-0.005040109964645125,0.005222488497844485,0.08872226098495542
6752,9.0,299.96558999999996,-5861.7788,0.06751997987229519,0.0,0.0,0.0,0.0,0.010304503594189773,0.8202701032568562,0.4495261371847756,0.5120381461417305,0.012811539330650488,0.014817892065662086,0.09518325835360622
6753,9.0,300.21074,-5886.4224,0.06752995651176241,0.0,0.0,0.0,0.0,0.010306026170432275,0.8332272618256283,0.4325896516307746,0.5235085121762675,0.014944681063925184,0.002338201565987528,0.08902574256215673
6754,9.0,300.45516000000003,-5988.3966,0.06753996618645997,0.0,0.0,0.0,0.0,0.010307553788317991,0.8308231739758632,0.46282023180930054,0.5266796202192315,0.01054863572331929,0.0033113200719268464,0.100559429635193
6755,9.0,299.67035,-6085.1125,0.0675499758611573,0.0,0.0,0.0,0.0,0.010309081406203707,0.8467019581479772,0.45513636113346156,0.5478839253269335,0.004873027454955365,-0.012264643668676089,0.09919844527312431
6756,9.0,299.30055,-6141.306,0.06755995250062496,0.0,0.0,0.0,0.0,0.010310603982446265,0.8536412926503362,0.4593759414068756,0.5537864415319665,-0.0039800886453291665,-0.0006594558423957244,0.1000201840114736
6757,9.0,299.52776,-6027.4489,0.0675699621753223,0.0,0.0,0.0,0.0,0.01031213160033198,0.8467504522977632,0.4509049071258496,0.5345385906448515,-0.009268276988932721,-0.0027920791462567574,0.09096689670623372
6758,9.0,300.1017,-5831.3489,0.06757997185001963,0.0,0.0,0.0,0.0,0.010313659218217697,0.8182804346979913,0.42949300733765955,0.5248110249148155,-0.015951907392080685,0.004992043102426295,0.10144948777478491
6759,9.0,299.86469,-5912.4935,0.0675899815247174,0.0,0.0,0.0,0.0,0.010315186836103468,0.8303654382431882,0.4479587912675906,0.5189261595265245,-0.007730525574043473,-0.004033509217101366,0.08208920159032342
6760,9.0,300.63648,-5932.4189,0.06759995816418463,0.0,0.0,0.0,0.0,0.01031670941234597,0.8223503462421602,0.44327267167510653,0.5376841850502975,0.006499870911387313,0.003107971618632917,0.1085892836769279
6761,9.0,300.08389,-5876.6017,0.06760996783888218,0.0,0.0,0.0,0.0,0.010318237030231686,0.8187584151676642,0.4447808640514536,0.5228008988364315,0.004887047087313996,-0.0026884958044338775,0.087642193120361
6762,9.0,300.57671,-5832.2666,0.06761997751357951,0.0,0.0,0.0,0.0,0.010319764648117402,0.8204469761943123,0.43617854295497055,0.5162379158187156,0.01197920098300509,0.0031286721155258973,0.11275487642803989
6763,9.0,300.61789,-5981.0687,0.06762995415304718,0.0,0.0,0.0,0.0,0.01032128722435996,0.850896225876919,0.43278197663225554,0.5344173552703865,-0.0023993998455273274,-0.002385925747022538,0.07943019926715034
6764,9.0,299.57054,-6130.4872,0.06763996382774451,0.0,0.0,0.0,0.0,0.010322814842245676,0.8506859055536622,0.4723481062096286,0.5404809985063215,-0.01090597356983579,0.013024064486125086,0.09475217819131192
6765,9.0,299.35947999999996,-6215.3713,0.06764997350244206,0.0,0.0,0.0,0.0,0.01032434246013142,0.8693108406768001,0.4560010586363006,0.5640057780655365,-0.0021639604443412677,0.005891189487465135,0.07319390429367593
6766,9.0,299.62728,-6170.3576,0.06765998317713962,0.0,0.0,0.0,0.0,0.010325870078017163,0.8542434773172672,0.4623705919449246,0.5590205774410355,-0.016920400208663484,0.004305915933610816,0.08666022610394843
6767,9.0,299.41256,-5993.7135,0.06766995981660706,0.0,0.0,0.0,0.0,0.010327392654259693,0.8335523327227102,0.4422556725497365,0.5461312357014565,-0.006131402411197305,-0.01100495087935409,0.08012207379318302
6768,9.0,300.2208,-5899.4702,0.06767996949130439,0.0,0.0,0.0,0.0,0.010328920272145381,0.8186567051226262,0.44421333253794254,0.5304215832360345,-0.007155945487536833,-0.002019163965300968,0.09997807333731759
6769,9.0,300.06085,-6024.2854,0.06768997916600195,0.0,0.0,0.0,0.0,0.010330447890031125,0.8484512837831222,0.4498819196923886,0.5328991418505504,0.007791251679036673,0.002887707157569507,0.0961463353484045
6770,9.0,299.81372999999996,-5986.1389,0.06769995580546939,0.0,0.0,0.0,0.0,0.010331970466273654,0.8340872375830012,0.45733239834019357,0.5282171259209715,-0.0020827059936470776,-0.008471535839825493,0.10507487636758289
6771,9.0,300.16233,-5798.5894,0.06770996548016672,0.0,0.0,0.0,0.0,0.01033349808415937,0.8202826574255951,0.43515194835115356,0.5071917911784326,0.004064026486263186,-0.013679774089588587,0.1020219538162829
6772,9.0,299.87912,-5950.4229,0.06771997515486428,0.0,0.0,0.0,0.0,0.010335025702045114,0.8211748444036473,0.4628728093569896,0.5247323257795484,0.0026951541748160075,-0.0015606076013699787,0.1090672641466009
6773,9.0,299.07942,-6154.9654,0.06772998482956183,0.0,0.0,0.0,0.0,0.010336553319930858,0.8417898128556862,0.46881923982135654,0.5603467394369174,0.014482141512526088,0.0030325361619380174,0.099787981539057
6774,9.0,299.08331,-6073.2775,0.06773996146902928,0.0,0.0,0.0,0.0,0.010338075896173388,0.8336965080794392,0.4603535251033556,0.5520746872105295,0.0032039386634291267,-0.0003239299369393957,0.1013848322859039
6775,9.0,299.1479,-6058.5613,0.0677499711437266,0.0,0.0,0.0,0.0,0.010339603514059076,0.8401437272732302,0.4524646536672846,0.5490429719838225,0.002281930823009038,-0.012140507359174789,0.09053200976331371
6776,9.0,300.07173,-5981.5849,0.06775998081842416,0.0,0.0,0.0,0.0,0.01034113113194482,0.8408006477105632,0.4463269215840376,0.5311248699979435,0.005882065980914714,0.008011042749653363,0.09085244098818782
6777,9.0,300.62651,-5844.7306,0.0677699574578916,0.0,0.0,0.0,0.0,0.01034265370818735,0.8229053337194332,0.4363696621888326,0.5173771433036485,-0.0002902019720532047,0.015573447333979588,0.08371368366739733
6778,9.0,300.23323,-6015.4785,0.06777996713258916,0.0,0.0,0.0,0.0,0.010344181326073093,0.8498711916782561,0.43903679989705857,0.5396472659265386,-0.0032631063897685273,0.008464327274639062,0.08218494764527283
6779,9.0,300.08973,-6108.2488,0.06778997680728649,0.0,0.0,0.0,0.0,0.010345708943958809,0.8626339379503412,0.4408225721383006,0.5532986122713215,-0.00998086376555956,-0.01999302236840768,0.08267157215154892
6780,9.0,300.21857,-5892.6236,0.06779995344675394,0.0,0.0,0.0,0.0,0.010347231520201366,0.8256280887256482,0.44839433682307556,0.5171879897749805,-0.0038115382402195363,-0.014802193781862788,0.10532104547937789
6781,9.0,299.63229,-5879.861,0.06780996312145149,0.0,0.0,0.0,0.0,0.010348759138087082,0.8274949412398922,0.44351855707687354,0.5163174154215615,0.01061318380768969,0.006677817083349233,0.09999601900983872
6782,9.0,299.40775,-6107.9855,0.06781997279614882,0.0,0.0,0.0,0.0,0.01035028675597277,0.8538367891246302,0.46811297410415353,0.5347253123732796,0.005480688130726805,-0.003287246364125957,0.095215143307753
6783,9.0,299.27053,-6098.2277,0.06782998247084637,0.0,0.0,0.0,0.0,0.010351814373858514,0.8508349445108712,0.4579452322656756,0.5449287611452814,0.0012731939416044588,0.003153761910527067,0.084116488072401
6784,9.0,299.5154,-6042.8954,0.0678399591103136,0.0,0.0,0.0,0.0,0.010353336950101044,0.8317634498036612,0.45182977141962655,0.5532960994110735,0.006206289800913114,0.0035813190022236665,0.08240882626811792
6785,9.0,299.86085,-6019.6589,0.06784996878501115,0.0,0.0,0.0,0.0,0.010354864567986788,0.8261807963901961,0.4620184267401685,0.5416267715869004,0.011458904149405789,0.014526860292439487,0.08712087493066092
6786,9.0,300.34612000000004,-5997.3343,0.0678599784597087,0.0,0.0,0.0,0.0,0.010356392185872504,0.8284736901739872,0.4447882911746866,0.5497778924138534,-0.0035913070137594066,-0.004243916578541956,0.08266752117764913
6787,9.0,299.84434,-6115.9588,0.06786995509917615,0.0,0.0,0.0,0.0,0.010357914762115061,0.8485283718507302,0.46129406437617954,0.5492763234818525,-0.012147042822319789,-0.016488606718298784,0.0908062347571276
6788,9.0,300.85132999999996,-6122.0657,0.06787996477387348,0.0,0.0,0.0,0.0,0.010359442380000777,0.8570505144668001,0.4557834631773256,0.5481211474403455,0.0014059978964361887,-0.009126352567300872,0.1017587114403029
6789,9.0,300.30978,-5921.8369,0.06788997444857103,0.0,0.0,0.0,0.0,0.010360969997886493,0.8281727954242911,0.43614205581886956,0.5357756980894445,-0.006440919108644224,0.011809837242040188,0.10216524764542491
6790,9.0,300.08141,-5725.3697,0.06789998412326836,0.0,0.0,0.0,0.0,0.01036249761577221,0.7957395108533752,0.4419816998551976,0.5026482156100165,0.0019360549629487483,0.007279970542177153,0.10324336601682689
6791,9.0,300.11427000000003,-5910.283,0.06790996076273603,0.0,0.0,0.0,0.0,0.010364020192014767,0.8271608422844191,0.4502907053127326,0.5191269046363365,-0.015389101677036086,0.0004170586655554856,0.0991497565793191
6792,9.0,300.01403999999997,-6114.4938,0.06791997043743336,0.0,0.0,0.0,0.0,0.010365547809900483,0.8547085591131672,0.46559149109780257,0.5383533962113435,0.006452481204210313,0.010735782003539189,0.0983670360758206
6793,9.0,299.92406,-6016.2112,0.0679299801121307,0.0,0.0,0.0,0.0,0.010367075427786199,0.8414522080548673,0.46487061431415755,0.5224551677698105,0.015309669961946786,0.006593531798955924,0.10318412128347991
6794,9.0,299.75352999999996,-5945.4673,0.06793995675159836,0.0,0.0,0.0,0.0,0.010368598004028756,0.8254128845369092,0.44979184175849857,0.5320688847186105,0.014281459224220288,-0.0025356753978516776,0.0934473187655323
6795,9.0,299.97766,-6124.3221,0.0679499664262957,0.0,0.0,0.0,0.0,0.010370125621914472,0.8506163763318001,0.45923978085843753,0.5517848267544224,0.00012486441075815788,-0.010991036928980888,0.08287618787674292
6796,9.0,300.20291000000003,-6213.4656,0.06795997610099325,0.0,0.0,0.0,0.0,0.010371653239800188,0.8571410584957363,0.46455025503004055,0.5670470685056885,0.004841713568564925,-0.013445683932235686,0.07849274534088083
6797,9.0,300.41569,-6148.8015,0.06796995274046069,0.0,0.0,0.0,0.0,0.010373175816042746,0.8563122705764412,0.45311558579652655,0.5596542437885734,-0.0006700576099145373,0.008334747177650502,0.08203307766728442
6798,9.0,299.55863,-6044.156,0.06797996241515825,0.0,0.0,0.0,0.0,0.010374703433928462,0.8257778977529332,0.45762794312936156,0.5538666706748845,-0.009836639367525721,-0.006398174038600614,0.08910171909440501
6799,9.0,299.03713,-5901.3873,0.06798997208985558,0.0,0.0,0.0,0.0,0.010376231051814178,0.8165662181788113,0.44312477769051056,0.5341833958222965,-0.01050254702927069,0.0012092277667664888,0.0900110664761506
6800,9.0,299.43868,-5910.2963,0.06799998176455313,0.0,0.0,0.0,0.0,0.010377758669699921,0.8216105723441502,0.4431981876602556,0.5317737452294825,-0.00925680588322561,0.0014403866929050986,0.09978140453265791
6801,9.0,299.50621,-6050.4674,0.06800995840402058,0.0,0.0,0.0,0.0,0.010379281245942451,0.8397982495191343,0.46070815250585456,0.5386846074040315,0.01064967904979149,0.017741230061673084,0.09931460831758872
6802,9.0,299.16177999999996,-6064.0189,0.06801996807871813,0.0,0.0,0.0,0.0,0.010380808863828195,0.8386953267852842,0.45625940701429757,0.5483555729834815,-0.0010055819650982131,-0.0026264183277823075,0.09074967817629591
6803,9.0,299.8155,-5969.2676,0.06802997775341546,0.0,0.0,0.0,0.0,0.010382336481713883,0.8227333142499562,0.46074715250220355,0.5310278411683675,-0.000927855154759674,-0.008383653213602153,0.089243037085852
6804,9.0,299.99377999999996,-6115.1646,0.06803995439288313,0.0,0.0,0.0,0.0,0.010383859057956468,0.8492550140274443,0.4589227551671496,0.5506795634128415,-0.008808230134104632,-0.006295344960152174,0.08428048766733652
6805,9.0,299.70691,-6280.4665,0.06804996406758046,0.0,0.0,0.0,0.0,0.010385386675842156,0.8604473543670421,0.47335432435393454,0.5753033241630174,-0.002186201284036268,0.016627735076279685,0.08745939165656991
6806,9.0,299.85964,-6165.8428,0.06805997374227779,0.0,0.0,0.0,0.0,0.010386914293727872,0.8455224438390682,0.4698058313112255,0.5589339648224875,0.007320174482294973,-0.004618327587918446,0.09037329832065011
6807,9.0,299.9716,-5985.8315,0.06806998341697534,0.0,0.0,0.0,0.0,0.010388441911613616,0.8247715681511163,0.4491203811822306,0.5456513503215955,0.0004768625812351725,-0.005225386899755535,0.1023938571329869
6808,9.0,300.03039,-5898.4711,0.06807996005644279,0.0,0.0,0.0,0.0,0.010389964487856146,0.8235348153440581,0.44221749328596854,0.5272356209466045,0.0032369853088155772,-0.011247995127840688,0.08797405380636311
6809,9.0,300.34991,-5817.91,0.06808996973114034,0.0,0.0,0.0,0.0,0.01039149210574189,0.8238336633285522,0.4328484762363186,0.5118172373549286,0.0014100530246613984,-0.009434979529834981,0.1084432844700189
6810,9.0,300.04561,-5972.2329,0.06809997940583767,0.0,0.0,0.0,0.0,0.010393019723627578,0.8313895605167612,0.4530848133909896,0.5309353010367345,0.0026069641285123273,-0.007118838242374633,0.09389825153703592
6811,9.0,300.08252000000005,-6067.9844,0.06810995604530512,0.0,0.0,0.0,0.0,0.010394542299870163,0.8520357269393792,0.4543675880175896,0.5381124352050625,0.006114943277897914,8.296015895228022e-06,0.10465615076375791
6812,9.0,300.09583,-6003.5547,0.06811996572000267,0.0,0.0,0.0,0.0,0.010396069917755851,0.8283751617342633,0.4623024914057035,0.5342530567666715,-0.002458704968580288,0.006177149943937234,0.0951176645951326
6813,9.0,299.56591000000003,-6052.7515,0.06812997539470023,0.0,0.0,0.0,0.0,0.010397597535641595,0.8369100510365912,0.4672617122976406,0.5357135554608115,-0.004586230965825756,0.009350386318736283,0.1033837011556769
6814,9.0,299.69101,-6182.3678,0.06813995203416745,0.0,0.0,0.0,0.0,0.010399120111884125,0.8576122197922362,0.45301444317154455,0.5686587745122514,-0.0019190991344503383,-0.006060481794297984,0.08318865191608071
6815,9.0,299.93707,-6101.5824,0.068149961708865,0.0,0.0,0.0,0.0,0.010400647729769869,0.8575296297765852,0.4554240329693526,0.5417750303415325,-0.004526195390775705,0.0019387354147632884,0.07750752477839712
6816,9.0,299.29034,-5971.5193,0.06815997138356233,0.0,0.0,0.0,0.0,0.010402175347655584,0.8396271014447431,0.4440316770600146,0.5315339798583194,0.0042709147287814655,0.00010913595237087988,0.08490392120211462
6817,9.0,299.85442,-5901.5459,0.06816998105825989,0.0,0.0,0.0,0.0,0.010403702965541273,0.8403427903878763,0.4271250925164646,0.5264546989620336,0.0057252281390110255,0.007383578911277502,0.08287386550751372
6818,9.0,300.17357000000004,-5935.0615,0.06817995769772733,0.0,0.0,0.0,0.0,0.01040522554178383,0.8200950237720772,0.44045858230487756,0.5435568813048874,-0.005086443459917885,-0.005223993680868035,0.09211083276438141
6819,9.0,300.16309,-6093.6033,0.06818996737242466,0.0,0.0,0.0,0.0,0.010406753159669546,0.8375783401400462,0.4576471442187565,0.5570777818317965,-0.005797026737121995,-0.013030750923534987,0.0982842565824009
6820,9.0,300.55491,-6155.7046,0.06819997704712222,0.0,0.0,0.0,0.0,0.01040828077755529,0.8355969700995002,0.4767616209952086,0.5588218790964254,-0.01183091385737029,0.002451880121206728,0.1067226844752089
6821,9.0,299.98041,-6010.3688,0.06820995368658966,0.0,0.0,0.0,0.0,0.01040980335379782,0.8337844581881192,0.4636908264277216,0.5295267516752216,-0.004052821054732296,0.0024684954976715375,0.10777907876446689
6822,9.0,299.70364,-5852.6174,0.06821996336128722,0.0,0.0,0.0,0.0,0.010411330971683563,0.8298877617485452,0.4436927449015646,0.5054690329609095,0.005006534098731446,-0.00021871153369514777,0.09568946087831451
6823,9.0,299.95455,-5945.0419999999995,0.06822997303598455,0.0,0.0,0.0,0.0,0.01041285858956928,0.8415406951861002,0.44676217329699364,0.5188414416856635,0.0006960580634430823,0.008226466205714003,0.09087708424386991
6824,9.0,300.17809,-6149.9083,0.0682399827106821,0.0,0.0,0.0,0.0,0.010414386207454995,0.8525279739704601,0.46106796774886555,0.5558226284029225,0.014034200868567786,0.016357333075093086,0.08142152347667872
6825,9.0,299.39772999999997,-6042.1825,0.06824995935014955,0.0,0.0,0.0,0.0,0.010415908783697525,0.8322442673736143,0.45104435060461157,0.5533839887247475,0.008012372032459553,0.0037745576513198366,0.09210351912515961
6826,9.0,299.75092,-5888.8135,0.0682599690248471,0.0,0.0,0.0,0.0,0.010417436401583269,0.8126785295326262,0.4391778949734836,0.5381958256882925,0.007795996627929962,-0.006325726453800594,0.09506377286206391
6827,9.0,299.66553,-6097.9778,0.06826997869954443,0.0,0.0,0.0,0.0,0.010418964019468985,0.8485150070819111,0.4525580449290016,0.5525599326834194,-0.00960946332488019,-0.011553285356470488,0.0947380909751716
6828,9.0,299.7513,-6220.9921,0.06827995533901188,0.0,0.0,0.0,0.0,0.010420486595711514,0.8784025615715831,0.4736553102961396,0.5389683984920396,-0.009009656755933891,-0.0014812691052898785,0.1084016804209129
6829,9.0,299.60805,-6094.9082,0.06828996501370943,0.0,0.0,0.0,0.0,0.010422014213597258,0.8594064121418092,0.46722907551191956,0.5260644152885154,-0.004085899414846876,-0.002715427688116847,0.1080033515416009
6830,9.0,299.95976,-5924.2028,0.06829997468840676,0.0,0.0,0.0,0.0,0.010423541831482974,0.8358448009414593,0.44137774200059154,0.5235871910465325,-0.003926348089175386,-0.0012025296769804389,0.10327553670750189
6831,9.0,299.64962,-5869.4983,0.06830998436310431,0.0,0.0,0.0,0.0,0.01042506944936869,0.8018411712330623,0.45031009891964663,0.5320296618072395,0.006060197982944974,-0.00035174575974460364,0.0927221235099611
6832,9.0,300.13469,-5912.5574,0.06831996100257176,0.0,0.0,0.0,0.0,0.01042659202561122,0.8100404417047673,0.44880860412646056,0.5384207469454905,0.008805206798456252,0.011700401164989688,0.10275632709125991
6833,9.0,300.23537999999996,-6112.4408,0.06832997067726931,0.0,0.0,0.0,0.0,0.010428119643496964,0.8461315692691842,0.4594689780310576,0.5524288181204795,0.004284918453113526,0.0074020638355018235,0.08021367362872323
6834,9.0,300.3369,-6088.0783,0.06833998035196664,0.0,0.0,0.0,0.0,0.01042964726138268,0.8693460004552701,0.44682593712578655,0.5344518463037905,0.0017572470217767783,-0.001099273614939859,0.08483871146542893
6835,9.0,300.34389,-5996.0952,0.06834995699143409,0.0,0.0,0.0,0.0,0.01043116983762521,0.8433819428703173,0.43983880761621064,0.5394424779488275,0.004870507907256705,-0.016697384874903586,0.08135477765284142
6836,9.0,299.91272000000004,-6177.4124,0.06835996666613164,0.0,0.0,0.0,0.0,0.010432697455510953,0.8550379768531782,0.46774361404520054,0.5549975287139914,-0.008013857761081182,-0.008579427622398581,0.1039791375769419
6837,9.0,299.62046000000004,-6348.2599,0.0683699763408292,0.0,0.0,0.0,0.0,0.010434225073396697,0.8684560223624362,0.47665193667188355,0.5846045243834744,0.0020591314128454484,-0.01047224578503019,0.09679088602851671
6838,9.0,299.9247,-6114.4067,0.06837995298029642,0.0,0.0,0.0,0.0,0.010435747649639199,0.8282470261266172,0.46594019098721656,0.5644397429508654,-0.006839440302825203,-0.002436036942643128,0.1070255347975979
6839,9.0,299.3391,-5836.4152,0.06838996265499397,0.0,0.0,0.0,0.0,0.010437275267524915,0.8198755234029143,0.43892508907353356,0.5153238831685075,0.015124930150714384,-0.006533454579326764,0.1017040060674039
6840,9.0,299.31555,-5847.2386,0.06839997232969153,0.0,0.0,0.0,0.0,0.010438802885410658,0.8285067626572512,0.4392260952807406,0.5096816607816635,0.008325040039042482,0.01013487301848409,0.1016369491757859
6841,9.0,299.55888,-5913.3742,0.06840998200438886,0.0,0.0,0.0,0.0,0.010440330503296374,0.8309635091147133,0.45042432260341964,0.5161302579955905,0.004865497081537175,-0.00024917085508374876,0.1092515844722919
6842,9.0,299.67105,-6045.7452,0.0684199586438563,0.0,0.0,0.0,0.0,0.010441853079538904,0.8368566730213233,0.45123294684572457,0.5496659586753065,-0.0018200346854234384,-0.0011393643750215088,0.0956020366464364
6843,9.0,299.66076,-6052.684,0.06842996831855386,0.0,0.0,0.0,0.0,0.010443380697424648,0.8345208174332921,0.4505225774656166,0.5548214157141105,-0.0027715068255014276,0.006127321445094544,0.08878770984866473
6844,9.0,300.03567999999996,-6017.8205,0.06843997799325141,0.0,0.0,0.0,0.0,0.010444908315310392,0.8150309720247942,0.4580539337364036,0.5561822713934165,-0.00016933272537933883,0.008453261164996922,0.09853023621642722
6845,9.0,299.8169,-6154.2831,0.06844995463271863,0.0,0.0,0.0,0.0,0.010446430891552894,0.8581103234088953,0.45629494169530455,0.5563431349792924,-0.005975223384508634,-0.0003110501096182557,0.08901627373997222
6846,9.0,300.33572000000004,-6293.9431,0.06845996430741619,0.0,0.0,0.0,0.0,0.01044795850943861,0.8755816834256841,0.4607788976278366,0.5768409615872705,-0.006357084923195433,-0.010000884168985421,0.08294706066823751
6847,9.0,300.53904,-6148.3269,0.06846997398211352,0.0,0.0,0.0,0.0,0.010449486127324353,0.8684960761388892,0.45736791275619854,0.5430738548497165,0.00016777491414559484,-0.014237583468390087,0.087056564960064
6848,9.0,300.5612,-5872.1424,0.06847998365681107,0.0,0.0,0.0,0.0,0.010451013745210097,0.8280898406386041,0.4351564573140986,0.5217383541190664,0.00026915207612824177,0.003537675280666366,0.0999233811366699
6849,9.0,300.22046,-5904.7019,0.0684899602962783,0.0,0.0,0.0,0.0,0.010452536321452599,0.8276634649965242,0.4497557193924336,0.5174627528045974,-0.005485478169249545,0.005102516342279154,0.11024363738019989
6850,9.0,300.13204,-6013.3143,0.06849996997097607,0.0,0.0,0.0,0.0,0.01045406393933837,0.8280782186599572,0.4520250652439005,0.5477941007055684,-0.01140314702290299,0.005576949626002074,0.09806234974425042
6851,9.0,299.55329,-5964.415,0.0685099796456734,0.0,0.0,0.0,0.0,0.010455591557224087,0.8448314781983752,0.43996936489159555,0.5282323854674775,-0.004729535839393845,0.002104443248042378,0.09380644094547491
6852,9.0,300.0408,-5989.5384,0.06851995628514085,0.0,0.0,0.0,0.0,0.010457114133466616,0.8321181582661683,0.4495437373390126,0.5390082192209694,0.005816457428989655,0.002986136501433727,0.09439548983810951
6853,9.0,299.74861,-6146.3001,0.06852996595983818,0.0,0.0,0.0,0.0,0.010458641751352304,0.8621467065072551,0.4611515000871095,0.5450235405596355,0.0032657275664522167,-0.01114547346947259,0.08899197802907442
6854,9.0,299.94674,-6144.0575,0.06853997563453573,0.0,0.0,0.0,0.0,0.010460169369238048,0.8384247890085842,0.4675964090706725,0.5616188749374674,-0.007105961252153774,-0.013209837812459487,0.08577568511115101
6855,9.0,299.96506,-6133.8051,0.06854995227400318,0.0,0.0,0.0,0.0,0.010461691945480578,0.8391974732698422,0.47117086158094357,0.5541552747008675,-0.0051680010750419945,0.000864490465446066,0.09235381013836141
6856,9.0,300.5249,-6164.6273,0.06855996194870051,0.0,0.0,0.0,0.0,0.010463219563366294,0.8361198983436091,0.46755761172434357,0.5702152583883645,-0.0013945315530045485,0.015639236649722485,0.08940345889468441
6857,9.0,300.5929,-5884.7385,0.06856997162339828,0.0,0.0,0.0,0.0,0.010464747181252065,0.8231062105517583,0.4460805498222226,0.5196268118381735,-6.275576349376164e-05,0.0075068996557733116,0.09578714325420501
6858,9.0,300.8422,-5820.7136,0.06857998129809562,0.0,0.0,0.0,0.0,0.010466274799137781,0.8092169125534912,0.44062372180617554,0.5195109669542405,-0.007143762472309463,0.0007658375884772852,0.09922148556714822
6859,9.0,300.16803,-6050.0527,0.06858995793756306,0.0,0.0,0.0,0.0,0.010467797375380311,0.8523888851292332,0.4488097187015706,0.5378663572857765,-0.002809200945121547,-0.00038607187656232764,0.09505062898176672
6860,9.0,300.09822,-6113.0682,0.06859996761226039,0.0,0.0,0.0,0.0,0.010469324993266,0.8580844652663433,0.4636581187144936,0.5364775156387085,0.009855073527920031,0.003981196634313517,0.11421871884750989
6861,9.0,300.06414,-6028.0693,0.06860997728695817,0.0,0.0,0.0,0.0,0.01047085261115177,0.8451877065360323,0.45788539984727056,0.5293094399262744,-0.007169333459783124,-0.01138299449166409,0.11381939698309988
6862,9.0,299.58612,-5983.4801,0.06861995392642539,0.0,0.0,0.0,0.0,0.010472375187394273,0.8511429725412712,0.44810579359209857,0.5195797767685315,-0.00045499834633734045,-0.010272604104577091,0.1055611958855789
6863,9.0,300.13476,-6054.4041,0.06862996360112295,0.0,0.0,0.0,0.0,0.010473902805280016,0.8405142424372971,0.4576584115598685,0.5422149936674535,-0.006972878653544544,0.0005770773731006023,0.08274718594026143
6864,9.0,300.35111,-6133.5901,0.0686399732758205,0.0,0.0,0.0,0.0,0.01047543042316576,0.8451601663983143,0.45496729022177557,0.5643307679026104,0.002408779096402988,0.009910574504797551,0.08041050961964943
6865,9.0,300.13376,-6195.605,0.06864998295051783,0.0,0.0,0.0,0.0,0.010476958041051476,0.8540921078848283,0.46238186941853754,0.5668352485722835,0.01135874437702079,-0.004591313732302386,0.07572476290320224
6866,9.0,300.3288,-5953.3322,0.06865995958998528,0.0,0.0,0.0,0.0,0.010478480617294006,0.8248066367370772,0.4339825564107436,0.5508751409471434,0.006787703854044213,-0.016950485630632683,0.08097011549087822
6867,9.0,300.38825,-5829.2508,0.06866996926468283,0.0,0.0,0.0,0.0,0.010480008235179722,0.8222215216244462,0.4333392135247506,0.5163859617908265,0.00977783782977246,0.004349159218728596,0.10432354128593191
6868,9.0,300.41056000000003,-6104.2767,0.06867997893938038,0.0,0.0,0.0,0.0,0.010481535853065466,0.8522063785212212,0.4594297247221835,0.5439115998998955,-0.006467366962754424,-0.005182176342615984,0.10967166783125089
6869,9.0,300.28465,-6234.5956,0.0686899555788476,0.0,0.0,0.0,0.0,0.010483058429307968,0.8724560500472082,0.4644247437401536,0.5582805907605045,-0.008110759934394682,0.008045202450274663,0.10615378507406291
6870,9.0,300.22601000000003,-5979.0542,0.06869996525354516,0.0,0.0,0.0,0.0,0.010484586047193711,0.8204258093997232,0.4544278257360346,0.5426295446808664,-0.013665012048881686,-0.009783772232958142,0.099420283210268
6871,9.0,300.12439,-5761.9652,0.06870997492824271,0.0,0.0,0.0,0.0,0.010486113665079455,0.8166172150563442,0.4314084147966956,0.5034679045434135,-0.0006236958044339835,0.015078202095852686,0.09271693769594931
6872,9.0,300.18331,-5895.2643,0.06871998460294027,0.0,0.0,0.0,0.0,0.010487641282965199,0.8159265635231823,0.4468192192776235,0.5292673495171205,-0.0038500282677932066,0.014826842103795384,0.09667846086367121
6873,9.0,299.60346,-6115.4599,0.06872996124240749,0.0,0.0,0.0,0.0,0.0104891638592077,0.8589485244216192,0.4633379215503926,0.5366606504617825,0.005599963170223335,0.002040977618753808,0.10063472019712359
6874,9.0,299.53938,-6129.6683,0.06873997091710504,0.0,0.0,0.0,0.0,0.010490691477093417,0.8534510853415641,0.4499847949750416,0.5598302149334405,0.003406179431713737,-0.015050465387615286,0.09600939763713981
6875,9.0,299.58646,-6080.6488,0.0687499805918026,0.0,0.0,0.0,0.0,0.01049221909497916,0.8522218508502483,0.45630527684632455,0.5398382635703884,0.003968947149879587,0.003539751835421307,0.08905179119572751
6876,9.0,300.07018999999997,-5995.4336,0.06875995723126982,0.0,0.0,0.0,0.0,0.01049374167122169,0.8205172856187513,0.44435835902475557,0.5575864536469984,0.0012974670570250286,0.01081618846522469,0.09454850377546081
6877,9.0,299.97822,-6103.9413,0.06876996690596737,0.0,0.0,0.0,0.0,0.010495269289107406,0.8522820277736872,0.4577035417193226,0.5454601601602265,-0.005479391879873874,-0.009006154558288251,0.0998776501199066
6878,9.0,299.94928,-6271.3149,0.06877997658066493,0.0,0.0,0.0,0.0,0.01049679690699315,0.8501512641383971,0.48292114808810654,0.5732507226404415,-0.004654715729484675,-0.02082164715443658,0.09032353456848882
6879,9.0,300.21275,-6006.1841,0.06878995322013215,0.0,0.0,0.0,0.0,0.01049831948323568,0.8623182700141871,0.4413217801975686,0.5220899519037665,0.003583989321537207,-0.01156933827780479,0.11173243614963288
6880,9.0,300.57192000000003,-5703.7158,0.0687999628948297,0.0,0.0,0.0,0.0,0.010499847101121396,0.8074750748365852,0.4345700793487276,0.4917420170986585,0.00033049995191280574,-0.005301744718016465,0.10445868858426989
6881,9.0,300.53298,-5909.575,0.06880997256952703,0.0,0.0,0.0,0.0,0.010501374719007112,0.8395693664540452,0.4484366704122536,0.5083571909134486,0.01142420438648119,0.008341725329764191,0.11848924377897788
6882,9.0,300.16578,-6189.7492,0.06881998224422459,0.0,0.0,0.0,0.0,0.010502902336892855,0.8598598212965572,0.4531819638105775,0.5684874136553395,0.0017164828556786686,0.005247819851669495,0.08520254323183632
6883,9.0,299.48892,-6046.4392,0.06882995888369203,0.0,0.0,0.0,0.0,0.010504424913135385,0.8457739122488861,0.4483900507751526,0.5438025539241336,0.01060370282650399,0.03202809092217647,0.09775921976483382
6884,9.0,299.73436,-5948.6379,0.06883996855838936,0.0,0.0,0.0,0.0,0.010505952531021101,0.8188262826593623,0.44854138981008856,0.5408697116421844,-0.005688661260127154,0.009998658565140772,0.07934730831621963
6885,9.0,299.39346,-6075.4111,0.06884997823308692,0.0,0.0,0.0,0.0,0.010507480148906845,0.8511687192263121,0.4451087923138176,0.5504957598447014,-0.0029417323356763776,0.003397119658594607,0.09470672176532571
6886,9.0,299.19926,-6260.3122,0.06885995487255436,0.0,0.0,0.0,0.0,0.010509002725149375,0.8679353637985512,0.47732299194811156,0.5577202330577015,-0.004875901944164055,-0.019095742795353084,0.0894052138438576
6887,9.0,299.74403,-6244.1945,0.06886996454725192,0.0,0.0,0.0,0.0,0.010510530343035118,0.8630178584132312,0.46559464230561354,0.5694667097444885,0.005789699013723805,-0.004627027150627026,0.10195966933263591
6888,9.0,300.12183,-6015.1515,0.06887997422194925,0.0,0.0,0.0,0.0,0.010512057960920806,0.8370455631049653,0.4447782296011935,0.5466320649608845,0.01002902708918791,-0.005337522376397444,0.09151074653840752
6889,9.0,299.90144,-5796.2648,0.0688899838966468,0.0,0.0,0.0,0.0,0.01051358557880655,0.8048291241879503,0.4392989783604335,0.5177916639195586,-0.004696899560297896,-0.003070145168549737,0.1026084331066639
6890,9.0,300.37421,-5931.9044,0.06889996053611425,0.0,0.0,0.0,0.0,0.01051510815504908,0.8229893726827272,0.4428487582307696,0.5373126971661345,0.00039277856884172664,-0.006993204247900524,0.09626967726982741
6891,9.0,300.60594,-6232.1749,0.06890997021081158,0.0,0.0,0.0,0.0,0.010516635772934796,0.8645709681665112,0.4711759278314436,0.5586786561947904,-0.0019719507662913885,0.00982677264202695,0.09970059175768231
6892,9.0,299.92499,-6180.6179,0.06891997988550913,0.0,0.0,0.0,0.0,0.01051816339082054,0.8536930089354401,0.4667844411030375,0.5582760514000564,0.01002149397999445,0.015238513460424184,0.0994487464188271
6893,9.0,300.00189,-5906.6987,0.06892995652497658,0.0,0.0,0.0,0.0,0.01051968596706307,0.8199534524681052,0.45650892998392356,0.5190265219489295,0.0008066746781850921,0.007781539879478193,0.10844016365971089
6894,9.0,299.56652,-6002.1148,0.06893996619967413,0.0,0.0,0.0,0.0,0.010521213584948813,0.8355630464861522,0.45079117993462553,0.5381387898401635,-0.003275959568612037,-0.006511980871282474,0.09868679855562872
6895,9.0,299.62542,-6276.5828,0.06894997587437146,0.0,0.0,0.0,0.0,0.010522741202834501,0.8683304705425452,0.46634876382503954,0.5732452004273965,0.0024943183791200575,-0.0030857558062153873,0.07760467722448533
6896,9.0,300.3562,-6182.0179,0.06895995251383913,0.0,0.0,0.0,0.0,0.010524263779077087,0.8496674473481481,0.4652452331411296,0.5642663859912564,-0.0038756924742760664,0.004974035317674066,0.09539784445978422
6897,9.0,300.39838,-6029.8068,0.06896996218853646,0.0,0.0,0.0,0.0,0.010525791396962775,0.8399566407747662,0.45369567147877654,0.5392583906706595,-0.0045233891946237555,0.0034568771978172163,0.09003454044121732
6898,9.0,299.64775,-5933.4592,0.06897997186323401,0.0,0.0,0.0,0.0,0.010527319014848519,0.8277908204015931,0.44648664019730055,0.5293459979898825,-0.0056968188353572445,-0.007588204161022442,0.10643913656722491
6899,9.0,300.4933,-5964.408,0.06898998153793134,0.0,0.0,0.0,0.0,0.010528846632734234,0.8337092446331962,0.4430598790216056,0.5362619770774365,0.014302778006324287,0.016574456359521483,0.10994904504612589
6900,9.0,300.02316,-6165.2449,0.06899995817739901,0.0,0.0,0.0,0.0,0.010530369208976792,0.8652182728603952,0.4600042273963825,0.5488579930455665,0.0007977308614074063,0.0018676973621773783,0.11353129958216689
6901,9.0,300.49984,-6118.0863,0.06900996785209634,0.0,0.0,0.0,0.0,0.010531896826862508,0.8632489300985361,0.4474590461857696,0.5490374903007814,0.0004673332477547005,-0.0037720674878740767,0.08946899489790232
6902,9.0,299.75649,-5877.579000000001,0.06901997752679367,0.0,0.0,0.0,0.0,0.010533424444748196,0.8127314617178503,0.4442034026869625,0.5297023884475556,-0.009775762389592631,-0.016919963497870383,0.1041524742715489
6903,9.0,299.659,-5855.2923,0.06902995416626134,0.0,0.0,0.0,0.0,0.010534947020990754,0.8205732980842793,0.43743163948614155,0.5218577251133475,0.004093246491321975,0.01023862476247359,0.08324599984524052
6904,9.0,299.34574,-6171.7679,0.06903996384095867,0.0,0.0,0.0,0.0,0.01053647463887647,0.8468381085639142,0.4718029472583255,0.5574222868657965,0.006878709418400764,0.01840627473830788,0.09579258744699232
6905,9.0,300.1732,-6248.2566,0.06904997351565623,0.0,0.0,0.0,0.0,0.010538002256762213,0.8636402270221541,0.4682715781423066,0.5674021924007364,0.0015717667273712984,0.013369312232448386,0.08287527189865251
6906,9.0,299.50896,-6012.9512,0.06905998319035356,0.0,0.0,0.0,0.0,0.01053952987464793,0.8376376558009001,0.45485834557102356,0.5352909997716084,0.0070571167204831935,-0.00944892418168621,0.09627806191440491
6907,9.0,300.74114,-5952.6128,0.06906995982982123,0.0,0.0,0.0,0.0,0.010541052450890487,0.8301682496412272,0.4489045893084335,0.5303728357737235,3.830395736505626e-05,-0.0004868368227020536,0.0933189713886154
6908,9.0,300.1864,-6062.9051,0.06907996950451856,0.0,0.0,0.0,0.0,0.010542580068776203,0.8540039855236312,0.45215888518460756,0.5368088990839135,0.003918971425797366,0.008189163909907553,0.10266240893949091
6909,9.0,300.20249,-6192.1635,0.06908997917921611,0.0,0.0,0.0,0.0,0.010544107686661919,0.8564474178747793,0.47210425744056256,0.5537114204945625,-0.012947884290606688,0.002863591602539487,0.1149536595425429
6910,9.0,299.84017,-6132.2393,0.06909995581868333,0.0,0.0,0.0,0.0,0.010545630262904448,0.8369268304582472,0.46578002654390954,0.5613407681825204,-0.014146441621895087,0.003165410031026647,0.0999968741929231
6911,9.0,300.498,-5855.0380000000005,0.06910996549338089,0.0,0.0,0.0,0.0,0.010547157880790192,0.8019076303071212,0.4505489219682166,0.5273287994258005,-0.0014322370210257888,0.0062202864324944745,0.10393113991970489
6912,9.0,300.05388,-5819.3545,0.06911997516807844,0.0,0.0,0.0,0.0,0.010548685498675908,0.8034149006258773,0.4463886183826266,0.5191349397096294,0.008749580786516392,0.008167764777070622,0.09047043658123691
6913,9.0,299.75378,-6124.7955,0.06912995180754589,0.0,0.0,0.0,0.0,0.010550208074918466,0.8438959038510412,0.45998443862192956,0.5579045533833924,0.00937131651942693,-0.005218711608096735,0.08614611212245933
6914,9.0,299.97787,-6302.2005,0.06913996148224322,0.0,0.0,0.0,0.0,0.010551735692804182,0.8721992519418641,0.47790914699846054,0.5656031769806875,0.0015478019439561586,-0.013262263372633488,0.06977439393569652
6915,9.0,300.17516,-6048.8123,0.06914997115694055,0.0,0.0,0.0,0.0,0.010553263310689898,0.846471362690219,0.4514819023952945,0.5407346454038545,0.013862049676577788,0.013534195381471088,0.1002530684012075
6916,9.0,299.84778,-6004.1333,0.0691599808316381,0.0,0.0,0.0,0.0,0.010554790928575614,0.8253304262437712,0.4566927538170656,0.5430834199306604,0.0015700116768730885,0.016445528390297285,0.0988129015835741
6917,9.0,299.94355,-6151.4233,0.06916995747110555,0.0,0.0,0.0,0.0,0.010556313504818143,0.8593769265638991,0.45894629296697254,0.5515558626293254,-0.008859656123054982,-0.0012657802945977889,0.1022262554339459
6918,9.0,299.78484,-6249.9236,0.0691799671458031,0.0,0.0,0.0,0.0,0.010557841122703887,0.8658784863605531,0.4679050754486355,0.5660371621310184,-0.01943455944329168,-0.00919034518796645,0.10040202731165859
6919,9.0,299.71997000000005,-6011.0494,0.06918997682050043,0.0,0.0,0.0,0.0,0.010559368740589603,0.8456013861543592,0.44417656169181363,0.5374309839828084,-0.002703417432031528,-0.004224909425216096,0.100013885648852
6920,9.0,300.89141,-5833.3551,0.0691999534599681,0.0,0.0,0.0,0.0,0.01056089131683216,0.8182286170878772,0.4402637343106476,0.5147019401246266,0.01049895100466579,0.01224650142563559,0.09729655355717222
6921,9.0,300.55086,-5870.4366,0.06920996313466543,0.0,0.0,0.0,0.0,0.010562418934717877,0.8167616842556022,0.4396252651576356,0.5280792023173595,0.0033643829664137463,0.003635118833508297,0.09336417551532672
6922,9.0,300.26739,-6110.593000000001,0.06921997280936298,0.0,0.0,0.0,0.0,0.01056394655260362,0.8328691589752862,0.4668514675971525,0.5577470537878484,-0.003467814827346677,-0.0001119558273991799,0.0964149692281666
6923,9.0,300.51474,-6330.4673,0.06922998248406032,0.0,0.0,0.0,0.0,0.010565474170489308,0.8630806292569262,0.4799450096293846,0.5812783485452064,0.00949597596995486,0.006432985866986274,0.0901475360658691
6924,9.0,300.00493,-6207.2946,0.06923995912352798,0.0,0.0,0.0,0.0,0.010566996746731866,0.8627505529043502,0.45999742848821157,0.5641145909937755,-0.004682288291205876,0.005264861705101395,0.09283528632087941
6925,9.0,299.93937,-6024.5475,0.06924996879822531,0.0,0.0,0.0,0.0,0.010568524364617582,0.8398407350958272,0.4563062596989216,0.5351650122541745,0.0009061768411226911,-0.006828931176763034,0.08540809621337282
6926,9.0,300.1595,-6116.2474,0.06925997847292265,0.0,0.0,0.0,0.0,0.010570051982503298,0.8662572899104383,0.44946503820374556,0.5434641486557354,-0.01883598295996678,-0.015173339187491986,0.08769524892209724
6927,9.0,299.86015,-6297.3307,0.06926995511239031,0.0,0.0,0.0,0.0,0.010571574558745855,0.8725080500423401,0.4672199866585225,0.5745032517515565,0.007570856508710363,0.002682942180635778,0.0989668375785164
6928,9.0,299.84893,-6032.8124,0.06927996478708764,0.0,0.0,0.0,0.0,0.010573102176631571,0.8366086395293442,0.46066138088123854,0.5365543098637875,-0.0021160082820337583,0.004630643338908915,0.1166378129312559
6929,9.0,299.60995,-5898.9959,0.0692899744617852,0.0,0.0,0.0,0.0,0.010574629794517315,0.8208977812963032,0.43600896541823464,0.5362407089578375,0.002336411254385838,0.0017860954680238982,0.10077840412755411
6930,9.0,299.36267000000004,-5989.7909,0.06929998413648253,0.0,0.0,0.0,0.0,0.010576157412403003,0.8333274418630153,0.44572138305927556,0.5416980435989345,-0.007424879491978553,-0.01232912893154029,0.09216614608734042
6931,9.0,300.15747999999996,-6047.9482,0.0693099607759502,0.0,0.0,0.0,0.0,0.01057767998864556,0.8390104374338831,0.4504950677254016,0.5489197405066605,0.005656746921727455,0.007078712322514513,0.09537977618400101
6932,9.0,300.57592,-6123.148,0.06931997045064753,0.0,0.0,0.0,0.0,0.010579207606531277,0.8554207827409582,0.4499941776709676,0.5558691467150135,-0.004937781938371136,0.0012962312972030687,0.08697059575532952
6933,9.0,299.95943,-6193.2146,0.06932998012534508,0.0,0.0,0.0,0.0,0.01058073522441702,0.8529513605247452,0.46411743511732456,0.5655138083218675,-0.008647273227894423,-0.014682191532769485,0.08806497881733671
6934,9.0,300.06518,-6014.3781,0.06933995676481253,0.0,0.0,0.0,0.0,0.01058225780065955,0.8294318093360462,0.4671324722473855,0.5316564615304075,-0.008940002093709511,-0.010037861515484801,0.09312399977787322
6935,9.0,300.14952,-6070.3147,0.06934996643951008,0.0,0.0,0.0,0.0,0.010583785418545294,0.8372065888108573,0.45552133537645556,0.5524961789871276,0.0035557853023536865,0.001008560677212189,0.09322207934780291
6936,9.0,300.12994,-6252.6274,0.06935997611420741,0.0,0.0,0.0,0.0,0.01058531303643101,0.8641997741248773,0.4800691226341336,0.5563737047348094,0.003625752957533957,8.474441638462272e-05,0.10012786716585109
6937,9.0,300.65292999999997,-5989.4145,0.06936995275367486,0.0,0.0,0.0,0.0,0.01058683561267354,0.8422684620704253,0.43506290393236563,0.5433010761846415,-0.004413507794154305,-0.013590830995810588,0.08272828679939621
6938,9.0,300.3032,-5870.3654,0.06937996242837241,0.0,0.0,0.0,0.0,0.010588363230559256,0.8296328482883872,0.44265521732916857,0.5121564329584045,0.003404609603333807,-0.013251903903611088,0.09966290594671301
6939,9.0,299.84477000000004,-6059.3009999999995,0.06938997210306974,0.0,0.0,0.0,0.0,0.010589890848444972,0.8428988860176432,0.4512310419355366,0.5477462753008484,0.0075461252015945725,0.00984507963953371,0.099069972253195
6940,9.0,300.0764,-6180.1006,0.0693999817777673,0.0,0.0,0.0,0.0,0.010591418466330715,0.8579816102486922,0.46100423431757553,0.5596104207217485,0.005035429053158155,0.0031295226376598373,0.10980990554239389
6941,9.0,299.85582,-6188.0548,0.06940995841723452,0.0,0.0,0.0,0.0,0.010592941042573245,0.8430016498427851,0.4760385353263456,0.5619739481700105,-0.01043787836813839,-0.003076679415794617,0.09300037414642232
6942,9.0,299.81937,-6085.9,0.06941996809193207,0.0,0.0,0.0,0.0,0.010594468660458989,0.8449936184793772,0.4518062944148096,0.5531617221828115,-0.011905626866743887,-0.004769535001666455,0.07788845108724163
6943,9.0,299.75737999999996,-6016.3191,0.06942997776662962,0.0,0.0,0.0,0.0,0.010595996278344705,0.8425805127037223,0.4493760647124646,0.5368541913633834,0.008676207496425012,0.014896655035685385,0.08090086693929392
6944,9.0,299.82897,-6058.2237,0.06943995440609685,0.0,0.0,0.0,0.0,0.010597518854587235,0.8402973765183942,0.45951515183811453,0.5417361924651996,0.005683896958156954,0.01161905238071119,0.08357474681368532
6945,9.0,300.05795,-6215.0396,0.0694499640807944,0.0,0.0,0.0,0.0,0.01059904647247295,0.8501432999926113,0.4742814988579395,0.5647920500106355,0.004353697261951466,-0.007442308913573703,0.10408103000699791
6946,9.0,299.79251,-6232.9421,0.06945997375549195,0.0,0.0,0.0,0.0,0.010600574090358694,0.8618330042762952,0.47521581677514957,0.5576099509168175,0.00017279070479061484,-0.005416677372884434,0.1022324463920569
6947,9.0,301.08675,-5913.2566,0.06946998343018929,0.0,0.0,0.0,0.0,0.01060210170824441,0.8127135981185872,0.45184388599351955,0.5329248682705895,-0.006065188543662504,0.008856900690733043,0.1254663015825599
6948,9.0,300.68719,-5924.9422,0.06947996006965695,0.0,0.0,0.0,0.0,0.010603624284486968,0.8291793986036352,0.44333339575359954,0.5285216886360296,-0.002264653591578908,-0.009679451143737451,0.0994493189051336
6949,9.0,299.69595,-6161.6542,0.06948996974435429,0.0,0.0,0.0,0.0,0.010605151902372684,0.8659570031108021,0.45479612188238255,0.5522359054339405,-0.015839593684746182,-0.02639634351486627,0.09143419346685232
6950,9.0,300.2149,-6080.1042,0.06949997941905162,0.0,0.0,0.0,0.0,0.0106066795202584,0.8604096006683163,0.4438571649952916,0.5439330909345165,0.0024297541840730677,-0.01782761773869888,0.08295775856279333
6951,9.0,300.44349,-5928.8045,0.06950995605851906,0.0,0.0,0.0,0.0,0.01060820209650093,0.8278556582754921,0.4461406152881506,0.5282122420554894,0.009858052685864052,0.00920509932532257,0.0967508808880685
6952,9.0,300.01176,-6019.3385,0.06951996573321662,0.0,0.0,0.0,0.0,0.010609729714386645,0.8309842199467573,0.4581956975578946,0.5405486937455025,0.0015345302928213486,0.007697849676868613,0.0997769543382187
6953,9.0,300.00253,-6144.0953,0.06952997540791417,0.0,0.0,0.0,0.0,0.010611257332272389,0.8391110126388092,0.4700628928615955,0.5584776577724534,-0.008280318523353812,0.007943382163625784,0.0912283294175351
6954,9.0,299.71227000000005,-6265.1717,0.06953995204738139,0.0,0.0,0.0,0.0,0.010612779908514891,0.8607435071062701,0.4839766101872725,0.5597356483016074,-0.013814141185349587,0.006152006750655794,0.08956642497451792
6955,9.0,299.36332000000004,-6173.4741,0.06954996172207917,0.0,0.0,0.0,0.0,0.010614307526400663,0.8675473599377582,0.4492242190524786,0.5598103856289834,-0.0060060605367270245,0.024867581148239178,0.06870744462014684
6956,9.0,300.07292,-5916.9776,0.0695599713967765,0.0,0.0,0.0,0.0,0.010615835144286379,0.8284892030330182,0.4493590927732896,0.5207651375305176,-0.012253365181812987,0.003361113410991067,0.09107035663419441
6957,9.0,299.77558,-5928.556,0.06956998107147405,0.0,0.0,0.0,0.0,0.010617362762172122,0.8214114180369952,0.4493923881715755,0.5313291918806086,-0.002142424826715868,-0.014801158240260587,0.0997382664229005
6958,9.0,299.99245,-6278.9248,0.0695799577109415,0.0,0.0,0.0,0.0,0.010618885338414652,0.8666521534744082,0.47112624817904053,0.5708579629267945,-0.0005748110062044295,-0.03011553069592147,0.11341291144048289
6959,9.0,300.03161,-6293.1495,0.06958996738563905,0.0,0.0,0.0,0.0,0.010620412956300368,0.8513578727549803,0.49045595954173454,0.5711464656277674,0.012704489457585488,-0.008246833748624123,0.11382398700605288
6960,9.0,299.57391,-5899.4923,0.06959997706033638,0.0,0.0,0.0,0.0,0.010621940574186084,0.8303806471271893,0.43984242491906755,0.5230752768310105,0.008946412521792171,-0.0047257601655462155,0.10507068151216889
6961,9.0,299.34674,-5851.8662,0.06960995369980383,0.0,0.0,0.0,0.0,0.010623463150428614,0.8099363201244912,0.4477103524755716,0.5211745412334226,0.005762705423109744,-0.004893422862243235,0.08320751052694192
6962,9.0,299.34358,-6114.3279,0.06961996337450138,0.0,0.0,0.0,0.0,0.010624990768314357,0.8517702655456802,0.45932859222970257,0.5475041389244515,0.00963085019739091,0.0030286645333059167,0.07814788566934583
6963,9.0,299.60747000000003,-6323.4794,0.06962997304919871,0.0,0.0,0.0,0.0,0.010626518386200073,0.8607786162222351,0.4867772334636725,0.5746240108984745,0.013203074368041988,0.01871637385191228,0.08699897486413033
6964,9.0,299.72853,-6248.2955,0.06963998272389627,0.0,0.0,0.0,0.0,0.010628046004085817,0.8614390526374152,0.4822712089439626,0.5556155403474844,-0.006526694579959603,0.017055110796208386,0.11741781285823588
6965,9.0,299.83771,-6125.111999999999,0.06964995936336371,0.0,0.0,0.0,0.0,0.010629568580328347,0.8317172658641033,0.4686772632173445,0.5614865850044115,-0.02583140389511108,0.0031630592907946472,0.09791327329678771
6966,9.0,300.09111,-6005.8138,0.06965996903806126,0.0,0.0,0.0,0.0,0.010631096198214063,0.8570332892151001,0.4452589255811346,0.5233252152331774,-0.02231777780159318,-0.007230036665324063,0.10735644201525589
6967,9.0,300.63993999999997,-6089.8852,0.0696699787127586,0.0,0.0,0.0,0.0,0.010632623816099779,0.8417469219789532,0.4616907923203336,0.5477353220672675,-0.008428100341163742,0.006547216643509974,0.09227491848557541
6968,9.0,300.00876,-6136.6834,0.06967995535222604,0.0,0.0,0.0,0.0,0.010634146392342309,0.8660998713749021,0.44960134060719753,0.5496972883683985,0.01174210045960509,0.010976654857061488,0.0983132223630096
6969,9.0,299.77824,-5900.1375,0.0696899650269236,0.0,0.0,0.0,0.0,0.010635674010228052,0.8137215793180672,0.43682226074350056,0.5429506436375564,0.011982983445628387,-0.005107158446287295,0.08884876120694002
6970,9.0,300.03046,-5784.4568,0.06969997470162115,0.0,0.0,0.0,0.0,0.010637201628113796,0.8111224712215552,0.4361180721890026,0.5110898757706436,0.006563877312254255,-0.011762328984601488,0.11805869354648589
6971,9.0,299.40814,-6181.0048,0.06970995134108837,0.0,0.0,0.0,0.0,0.010638724204356298,0.8552872465102792,0.46350433774681654,0.5600795453855475,0.0035661154884481967,-0.002506587013980878,0.0938554589455626
6972,9.0,299.40423,-6429.9963,0.06971996101578593,0.0,0.0,0.0,0.0,0.010640251822242042,0.8982097062488961,0.4796975435574615,0.5766510683860294,0.003574693461144777,0.01167830623330909,0.1006881438086461
6973,9.0,299.94525,-6249.2439,0.06972997069048326,0.0,0.0,0.0,0.0,0.010641779440127758,0.8656126601968182,0.4695550113814716,0.5644464405340264,-0.020455823338332582,-0.003899825963832856,0.07083607435072622
6974,9.0,300.83175,-6025.4137,0.06973998036518081,0.0,0.0,0.0,0.0,0.010643307058013474,0.8408641278293282,0.45380459586452654,0.5369065763935535,-0.016027806917321384,-0.0076325959651285715,0.07853053855636072
6975,9.0,300.43021,-6041.2409,0.06974995700464803,0.0,0.0,0.0,0.0,0.010644829634256003,0.8305075364372121,0.4550608638685106,0.5508179936415035,-0.006909575549572014,0.004442596887300175,0.0917626313940166
6976,9.0,300.10535,-6133.7792,0.06975996667934559,0.0,0.0,0.0,0.0,0.010646357252141747,0.8404252588135152,0.46300089430213054,0.5610895429527265,0.0023600303168668578,0.012725322892891588,0.11027340666813788
6977,9.0,300.02951,-6059.8469,0.06976997635404314,0.0,0.0,0.0,0.0,0.01064788487002749,0.8324993834837923,0.4544561156788266,0.5550866237952845,-0.005139612745665285,-0.008240562034480153,0.11229439478759388
6978,9.0,300.63428999999996,-5902.1149,0.06977995299351036,0.0,0.0,0.0,0.0,0.010649407446269993,0.8381981249612142,0.4363133356157736,0.5195841134789595,-0.007144318949264383,-0.006500058767955854,0.1006042284618643
6979,9.0,300.30354,-5943.6977,0.06978996266820792,0.0,0.0,0.0,0.0,0.010650935064155737,0.8398381310430701,0.4398687390241646,0.5270288064686934,0.008812303703481662,0.005248350794721895,0.10559459260887491
6980,9.0,300.02282,-6162.2947,0.06979997234290547,0.0,0.0,0.0,0.0,0.010652462682041453,0.8617719052952652,0.4637714102081746,0.5476403805328974,0.007758065610436462,0.014677176958024587,0.1020595352624919
6981,9.0,299.57743999999997,-6395.4162,0.06980998201760302,0.0,0.0,0.0,0.0,0.010653990299927196,0.8715384811541511,0.4847701370030875,0.5877382131002454,7.101617550300083e-05,-0.006471084577371324,0.095720126892591
6982,9.0,300.0305,-6256.4703,0.06981995865707025,0.0,0.0,0.0,0.0,0.010655512876169698,0.8383353595547581,0.48640364815180254,0.5770717292975455,-0.01086233998077949,-0.017396887147689086,0.08583396523040282
6983,9.0,300.31147000000004,-6037.6082,0.0698299683317678,0.0,0.0,0.0,0.0,0.010657040494055442,0.8231873212222631,0.46398599631435256,0.5481088161866285,0.0003119562895801887,-0.00937176640247133,0.1037195226363199
6984,9.0,299.63333,-6144.5209,0.06983997800646535,0.0,0.0,0.0,0.0,0.010658568111941186,0.8515417269856251,0.4593649071132866,0.5568742908142135,0.016077690232994487,0.01145503860027429,0.08613550440716242
6985,9.0,299.22368,-6140.1081,0.0698499546459328,0.0,0.0,0.0,0.0,0.010660090688183715,0.8670959772832101,0.4581543974838186,0.5411891691337125,0.005771205780848665,-0.003039727907172787,0.09108531017917022
6986,9.0,299.75636000000003,-6046.5451,0.06985996432063013,0.0,0.0,0.0,0.0,0.010661618306069431,0.8467880337439723,0.4454809793405496,0.5457297252168305,-0.004907480592805625,-0.0033338162506470473,0.09454493814835892
6987,9.0,300.19031,-6035.1808,0.06986997399532768,0.0,0.0,0.0,0.0,0.010663145923955147,0.8436983099490402,0.4483499666011966,0.5424959983176865,-0.016034119465444384,0.0008645774124371473,0.1080564255818389
6988,9.0,300.52451,-6066.1615,0.06987998367002524,0.0,0.0,0.0,0.0,0.010664673541840891,0.8425411884673413,0.44938342090819056,0.5520370044393105,0.0006755339733925123,0.012365472186127088,0.1087961386848429
6989,9.0,299.94212000000005,-6150.18,0.06988996030949246,0.0,0.0,0.0,0.0,0.010666196118083393,0.8479385387025181,0.4541273362863785,0.5674352648840004,-0.009439930472473601,-0.01265847067779379,0.09607799466890982
6990,9.0,299.77442,-6203.5333,0.06989996998419001,0.0,0.0,0.0,0.0,0.010667723735969137,0.8683417885461622,0.46388425587181153,0.5534931866880245,-0.008993303000644902,-0.006202417260355925,0.08284525132468971
6991,9.0,299.99451,-6137.4653,0.06990997965888757,0.0,0.0,0.0,0.0,0.01066925135385488,0.8599395539469261,0.45592901655419055,0.5497676383228415,0.004611822522276446,0.005019145921401135,0.07917134730385363
6992,9.0,299.99435,-6122.3308,0.06991995629835501,0.0,0.0,0.0,0.0,0.01067077393009741,0.8574317700819273,0.4599701720605216,0.5436337464574735,0.015485025050752985,0.014582266834407687,0.08845024386310942
6993,9.0,300.3252,-6168.6962,0.06992996597305234,0.0,0.0,0.0,0.0,0.010672301547983126,0.8475524904144182,0.46137551955171857,0.5662015822247454,0.017052155145666683,0.004404680663258136,0.08398524381344821
6994,9.0,300.51884,-6260.4121,0.0699399756477499,0.0,0.0,0.0,0.0,0.010673829165868842,0.8527628960061453,0.4791825895916396,0.5710634804445774,0.0053646236754971354,-0.01305012021244659,0.0941479335869276
6995,9.0,300.00654,-6121.4269,0.06994995228721734,0.0,0.0,0.0,0.0,0.010675351742111372,0.8303779214844202,0.46654307479671653,0.5638399292891685,0.006264612780644144,-0.0015158959142072784,0.1062744226309689
6996,9.0,300.74573,-5940.8036,0.0699599619619149,0.0,0.0,0.0,0.0,0.010676879359997116,0.8355762795324582,0.4510865727362786,0.5191931002653696,-0.00952842550705738,0.0005320411824608765,0.11341718735590489
6997,9.0,300.72786,-6033.2957,0.06996997163661223,0.0,0.0,0.0,0.0,0.010678406977882832,0.8512383396406832,0.44950013718720955,0.5332327544459755,-0.01062314000317229,-0.016469194872882984,0.1003350737715508
6998,9.0,300.47836,-6079.5905,0.06997998131130978,0.0,0.0,0.0,0.0,0.010679934595768575,0.8711774196135172,0.4430876319418446,0.5337786429373504,-0.011672987683534189,-0.006913531277962414,0.1151439377788219
6999,9.0,300.0098,-6014.7286,0.06998995795077723,0.0,0.0,0.0,0.0,0.010681457172011105,0.8317347444283282,0.45983726404490455,0.5367552981536234,0.0025643938441109676,0.0020156615650053084,0.1128184781368169
7000,9.0,299.84244,-5957.2242,0.06999996762547456,0.0,0.0,0.0,0.0,0.010682984789896821,0.8321267303620141,0.44654646248320456,0.5321742120665055,0.016483793780323785,0.016531716457053383,0.1123176590098899
7001,9.0,299.97382000000005,-5973.3683,0.07000997730017211,0.0,0.0,0.0,0.0,0.010684512407782537,0.8109659646111093,0.45780917304224755,0.5469796806726914,0.015898528363562585,-0.006027903473107755,0.09155627591840092
7002,9.0,299.98794,-6080.2321,0.07001995393963956,0.0,0.0,0.0,0.0,0.010686034984025067,0.8567620522958311,0.4500240280189136,0.5414526648222175,0.014870690501872884,-0.003565900274126957,0.0974917997586915
7003,9.0,299.87672000000003,-6212.6269999999995,0.07002996361433711,0.0,0.0,0.0,0.0,0.01068756260191081,0.8556451771081042,0.4665141262413595,0.5663241956193464,0.0013914963623299986,0.006868382981331624,0.08206015880270712
7004,9.0,299.8237,-6038.7986,0.07003997328903444,0.0,0.0,0.0,0.0,0.010689090219796527,0.8648848325174872,0.4386465871510476,0.5321125659304214,-0.011720281131951688,0.02095863046195578,0.1040619809051179
7005,9.0,300.32925,-5945.2083,0.070049982963732,0.0,0.0,0.0,0.0,0.010690617837682298,0.8214090875617652,0.44240378944935455,0.5433820044701284,-0.027563740365829374,-0.0007956204337016234,0.0889443573008746
7006,9.0,300.67781,-6050.8411,0.07005995960319922,0.0,0.0,0.0,0.0,0.0106921404139248,0.8438084097049062,0.45208311434212956,0.5434130707181944,-0.02835609079827827,-0.005241967217766885,0.1010943223364828
7007,9.0,300.43012999999996,-6237.8444,0.07006996927789677,0.0,0.0,0.0,0.0,0.010693668031810544,0.8530888281658122,0.4711738810662416,0.5718862091282745,0.0014174763988690285,0.005284897104628735,0.0966546028768166
7008,9.0,299.42206,-6123.0617,0.07007997895259432,0.0,0.0,0.0,0.0,0.010695195649696232,0.8530998421943993,0.4642384982392726,0.5439195336481785,0.017108984290775283,0.006032384267699974,0.09725930243049581
7009,9.0,300.07367,-5959.3637,0.07008995559206177,0.0,0.0,0.0,0.0,0.01069671822593879,0.8365054096091562,0.4410416773399246,0.5339506725393285,0.01791064345189288,-0.014672179608531384,0.0917297210307686
7010,9.0,300.21657000000005,-6115.9497,0.0700999652667591,0.0,0.0,0.0,0.0,0.010698245843824505,0.871556233295903,0.44371195612346054,0.5438278041166255,0.015163570443277884,-0.012618608405609686,0.09451382934378871
7011,9.0,299.40952000000004,-6282.106,0.07010997494145643,0.0,0.0,0.0,0.0,0.010699773461710221,0.8597191720501762,0.4748869259251906,0.5749972821028134,0.01187708057167659,0.005504829726284395,0.10585528159460289
7012,9.0,299.70827,-6257.3219,0.0701199515809241,0.0,0.0,0.0,0.0,0.010701296037952779,0.8567062323478223,0.47616700530652456,0.5691963644853075,-0.0016864934898189487,0.012287121608894488,0.0978883645695794
7013,9.0,299.76231,-6183.0246,0.07012996125562143,0.0,0.0,0.0,0.0,0.010702823655838495,0.8552289643645271,0.45488043442320353,0.5693756894880054,-0.024384183843531578,-0.007881421008085691,0.08671870482021982
7014,9.0,300.02686,-6085.329000000001,0.07013997093031898,0.0,0.0,0.0,0.0,0.010704351273724239,0.8412883553811962,0.4619720806805946,0.5465276394055785,-0.02073669727930268,-0.01001755973250617,0.09673849390559601
7015,9.0,300.48765,-6050.565,0.07014998060501632,0.0,0.0,0.0,0.0,0.010705878891609927,0.8443941290577123,0.45943090009229953,0.5353956482419364,0.007288594212453242,0.007079857092477493,0.10301627640441491
7016,9.0,300.36973,-6182.9501,0.07015995724448398,0.0,0.0,0.0,0.0,0.010707401467852484,0.8487515705827583,0.47624921028713757,0.5544616612661055,0.012682222273387887,0.012711123205990186,0.1035489926444899
7017,9.0,299.48138,-6108.4454,0.07016996691918131,0.0,0.0,0.0,0.0,0.0107089290857382,0.8389248380654353,0.46744693441592056,0.5504431113695055,0.001976924608382268,-0.007980798652718503,0.1085126617043659
7018,9.0,300.20206,-5957.6325,0.07017997659387887,0.0,0.0,0.0,0.0,0.010710456703623944,0.8283973012489483,0.44904672803246154,0.5335274987675646,-0.0012195414368843687,-0.008370776628681333,0.10674761042766891
7019,9.0,299.66541,-6084.566,0.07018995323334631,0.0,0.0,0.0,0.0,0.010711979279866474,0.8386278443286241,0.4684334549782826,0.5424948128150694,0.002169703241933038,0.006024500067346864,0.11372750533153089
7020,9.0,299.69735,-6207.1709,0.07019996290804387,0.0,0.0,0.0,0.0,0.010713506897752217,0.8603270714476712,0.4675488977734835,0.5589490014539715,-0.003029311189519737,0.01117013496365649,0.09361439560102151
7021,9.0,299.47443,-6131.5681,0.0702099725827412,0.0,0.0,0.0,0.0,0.010715034515637933,0.8587759780620902,0.45112941295050657,0.5539381959994435,-0.007691604205902232,-0.0019123240376566883,0.09104797799248582
7022,9.0,299.89381000000003,-6158.8653,0.07021998225743853,0.0,0.0,0.0,0.0,0.010716562133523622,0.8588224761091792,0.45329971360469856,0.5600190746195796,-0.01058088747400229,-0.003292022521122327,0.07497473086117983
7023,9.0,300.0899,-6171.4511,0.0702299588969062,0.0,0.0,0.0,0.0,0.010718084709766179,0.8505815407933622,0.45826322054455854,0.5671222516631085,0.007538191554636583,0.01123627283743379,0.10421475875519591
7024,9.0,300.38115,-6111.3775,0.07023996857160353,0.0,0.0,0.0,0.0,0.010719612327651895,0.8443346310118403,0.46838319777332255,0.5449883301186605,-0.0001937125157704368,0.0012238266742072886,0.09388794982326922
7025,9.0,299.91753,-6115.2131,0.07024997824630108,0.0,0.0,0.0,0.0,0.010721139945537639,0.8427067839311843,0.4623827205486215,0.5537825709165844,-0.007955743105570713,-0.00949001431034149,0.1052582442381799
7026,9.0,300.29714,-6100.2376,0.07025995488576853,0.0,0.0,0.0,0.0,0.010722662521780169,0.8544373627239021,0.44823595569994457,0.5516465890432796,-0.0018774148359364184,-0.01006606604129337,0.08638710757924371
7027,9.0,299.8222,-5979.0859,0.07026996456046608,0.0,0.0,0.0,0.0,0.010724190139665912,0.8306343446872272,0.4569354373485166,0.5299230540543335,-0.0037134560358395765,0.01803879729804068,0.100309268318004
7028,9.0,300.34234,-5951.1164,0.07027997423516341,0.0,0.0,0.0,0.0,0.010725717757551628,0.8242514567422853,0.44850348412384755,0.5362358352248565,-0.001124242833179129,0.00940472621232421,0.09506207870789672
7029,9.0,301.32912000000005,-6140.1759999999995,0.07028998390986096,0.0,0.0,0.0,0.0,0.010727245375437344,0.8472468333892522,0.46303801978579456,0.5561753204977306,-0.012661411129583989,-0.009144031653720661,0.0926746294380238
7030,9.0,300.88741,-6270.1783,0.07029996054932841,0.0,0.0,0.0,0.0,0.010728767951679874,0.8800241062366172,0.4640529822784636,0.5619005584652674,-0.0037447166252747564,-0.004427759764760866,0.09497457240276051
7031,9.0,300.44419,-6148.6297,0.07030997022402596,0.0,0.0,0.0,0.0,0.010730295569565618,0.8471202683192611,0.46641469600904656,0.5554949129230795,0.007350922468504563,0.019158138736511083,0.0948997023396214
7032,9.0,300.4731,-6038.5016,0.0703199798987233,0.0,0.0,0.0,0.0,0.010731823187451334,0.8420381503226951,0.4628605388982786,0.5306550157940725,0.014158110210046686,0.018774370261136084,0.09845760138300871
7033,9.0,300.17689,-6151.081,0.07032995653819074,0.0,0.0,0.0,0.0,0.010733345763693891,0.8478624436200081,0.4583582228739346,0.5635543852784874,0.0016243180318827083,0.0025901281675007473,0.08073568285499151
7034,9.0,300.62313,-6183.7733,0.0703399662128883,0.0,0.0,0.0,0.0,0.010734873381579607,0.8502887520444662,0.46178559199968955,0.5676383100715395,-0.0025046421817389373,-0.003166708511029797,0.0984668381709203
7035,9.0,300.05474,-6180.2277,0.07034997588758563,0.0,0.0,0.0,0.0,0.010736400999465323,0.8487883718263902,0.4741129041738006,0.5557336346466395,0.002025717261647728,0.006703172552526624,0.1113502382119129
7036,9.0,299.96565,-6050.5043,0.07035995252705307,0.0,0.0,0.0,0.0,0.01073792357570788,0.8430902788290322,0.4596180879157736,0.5364938694953225,-0.011716967804124689,-0.014563558184561287,0.1090677403741479
7037,9.0,299.68339,-5887.2603,0.07036996220175062,0.0,0.0,0.0,0.0,0.010739451193593569,0.8143061739632622,0.45491041649366254,0.5203635561183845,-0.01870220557576398,-0.02028066482004578,0.1043353051195929
7038,9.0,300.18073,-6008.7445,0.07037997187644796,0.0,0.0,0.0,0.0,0.010740978811479313,0.8484113009341762,0.44938532581837864,0.5287116628972784,-0.012226034786865687,-0.01003196835157819,0.08570645581131861
7039,9.0,300.09692,-6182.516,0.07038998155114551,0.0,0.0,0.0,0.0,0.010742506429365029,0.8645550500074402,0.4500666655831216,0.5647087811174174,0.00932357744361545,0.022342136333997183,0.08492920483185992
7040,9.0,300.10837999999995,-6124.066,0.07039995819061295,0.0,0.0,0.0,0.0,0.010744029005607586,0.8510208860367222,0.45491583738169755,0.5556264327860595,0.007872174188998103,0.02196825717959818,0.09081087442933551
7041,9.0,299.67328,-6142.4616,0.07040996786531029,0.0,0.0,0.0,0.0,0.010745556623493302,0.8507278034452972,0.45482914370314154,0.5615980019854074,-0.00027178053808015075,0.0028935749902236174,0.08198712170899893
7042,9.0,299.88047,-6280.8429,0.07041997754000784,0.0,0.0,0.0,0.0,0.010747084241379046,0.8823057428117972,0.4662580576760876,0.5606556185974015,0.004684691619118065,-0.007039641803958554,0.08601490940676061
7043,9.0,299.8371,-6326.9521,0.07042995417947528,0.0,0.0,0.0,0.0,0.010748606817621575,0.8775131306338032,0.4724034296650885,0.5733188941071694,0.0100849077308779,0.008244931371561372,0.09298146284655591
7044,9.0,300.22292999999996,-6112.9691,0.07043996385417284,0.0,0.0,0.0,0.0,0.010750134435507291,0.8693237798805772,0.4492520530327256,0.5396141225157675,0.009192599061488891,-0.0063422535761816935,0.09060865402737792
7045,9.0,300.61072,-5979.9273,0.07044997352887017,0.0,0.0,0.0,0.0,0.010751662053393007,0.8258626155937943,0.46261182652873256,0.5292741382927905,-0.01873056036656238,-0.01923412844101068,0.0949358905669429
7046,9.0,300.54924,-6013.8612,0.0704599832035675,0.0,0.0,0.0,0.0,0.010753189671278723,0.8337708198417733,0.4463465583709756,0.5479462503405845,-0.007414144309819073,-0.02174245844781358,0.08868696543097201
7047,9.0,300.07043,-6083.1955,0.07046995984303517,0.0,0.0,0.0,0.0,0.01075471224752128,0.8365556870791181,0.4632865700353246,0.5492972876264215,0.00936659791503624,0.012511986124086888,0.10925262811989489
7048,9.0,300.47797,-6070.1004,0.0704799695177325,0.0,0.0,0.0,0.0,0.010756239865406997,0.8464353923116691,0.46404730807790356,0.5346762508034375,0.022950916245829078,0.0040690358934325765,0.1022310785044219
7049,9.0,300.02336,-6079.6845,0.07048997919243005,0.0,0.0,0.0,0.0,0.010757767483292713,0.8410561083257753,0.45813683785958553,0.5488793422251734,0.013458927111042688,0.003571095410039677,0.1073674256463399
7050,9.0,299.72708,-6092.8399,0.0704999558318975,0.0,0.0,0.0,0.0,0.01075929005953527,0.8446524065082022,0.47011286635652755,0.5373059083904645,0.00885098401942411,-0.0027336123863365373,0.08461834172768012
7051,9.0,299.30502,-6209.1949,0.07050996550659505,0.0,0.0,0.0,0.0,0.010760817677420986,0.8525877253288572,0.4698627860993465,0.5649896945751415,0.016037772232054884,0.014968969682072288,0.10962532177167689
7052,9.0,299.40511000000004,-6258.8175,0.07051997518129238,0.0,0.0,0.0,0.0,0.010762345295306702,0.8565886953362223,0.46271071973849254,0.5832248121198075,-0.0042599504507743755,0.004928115937717176,0.08377445232889472
7053,9.0,299.10286,-6031.816,0.07052995182076005,0.0,0.0,0.0,0.0,0.01076386787154926,0.8336996288897472,0.46458506017097556,0.5352367706262564,-0.02185333739300648,-0.005396598302277785,0.11601826115761088
7054,9.0,299.87801,-6028.6998,0.07053996149545738,0.0,0.0,0.0,0.0,0.010765395489434976,0.8342219086537923,0.44776277803574555,0.5505895158764544,-0.024707851389225075,-0.009253235595173251,0.09850181759087251
7055,9.0,300.18298,-6155.3597,0.07054997117015493,0.0,0.0,0.0,0.0,0.01076692310732072,0.8593431752030681,0.4595474238537996,0.5521850504114215,-0.006119594602481964,0.014131760641196187,0.11499856678697488
7056,9.0,300.38524,-6079.8772,0.07055998084485227,0.0,0.0,0.0,0.0,0.010768450725206408,0.8569745612393043,0.4504705572054826,0.5406857256890264,0.012528798982996189,0.0002449256107422758,0.08830635525615872
7057,9.0,300.37265,-5943.6368,0.07056995748431993,0.0,0.0,0.0,0.0,0.010769973301448993,0.8442687596228392,0.4227237569970866,0.5397246681016775,0.0007726480983619303,-0.014417281347124885,0.08299536534025483
7058,9.0,300.23612,-6071.4577,0.07057996715901727,0.0,0.0,0.0,0.0,0.010771500919334681,0.8528437128341213,0.4484012269237556,0.5443265866108515,0.014586853817610386,-0.012013622102152188,0.07359622841813222
7059,9.0,299.91778999999997,-6191.7674,0.0705899768337146,0.0,0.0,0.0,0.0,0.010773028537220397,0.8751011596982602,0.44743951072384164,0.5596020107459185,0.008593488595361293,0.002191153442575008,0.08898339884047772
7060,9.0,300.02644,-6326.5435,0.07059995347318226,0.0,0.0,0.0,0.0,0.010774551113462955,0.8851602101985111,0.46720534519457757,0.5707456948157145,0.012215713821347089,0.005371826363832985,0.09067420320284711
7061,9.0,300.06152000000003,-6361.7895,0.0706099631478796,0.0,0.0,0.0,0.0,0.01077607873134867,0.8861505000512451,0.4753836616542146,0.5722910025432245,-0.017909467068526783,-0.014772383963920785,0.10449195358505291
7062,9.0,300.13751,-6203.4645,0.07061997282257715,0.0,0.0,0.0,0.0,0.010777606349234414,0.863667635437359,0.44978225641255254,0.5722484156415215,-0.0018760440098761282,-0.015218256564424985,0.08252660139349142
7063,9.0,299.79022000000003,-6056.8556,0.07062998249727448,0.0,0.0,0.0,0.0,0.010779133967120103,0.8314943508421032,0.46839361398435053,0.5412449080217135,0.00040294574326014856,0.018225453165212183,0.1123600533940739
7064,9.0,299.65423,-6111.6071,0.07063995913674215,0.0,0.0,0.0,0.0,0.010780656543362688,0.8453250221895843,0.4631941616262046,0.5492567880199245,0.01123567299337459,0.014717748505278686,0.09612741796903751
7065,9.0,299.27988999999997,-6166.8049,0.07064996881143948,0.0,0.0,0.0,0.0,0.010782184161248376,0.8469485021623092,0.4700350183513446,0.5575711738354905,-0.0042136569788805665,0.0036975363568934262,0.10400100351409991
7066,9.0,299.71692,-6059.4049,0.07065997848613703,0.0,0.0,0.0,0.0,0.01078371177913412,0.8300259791946862,0.47702890623908756,0.5348528805608694,-0.008224748544144482,-0.00011899114708351187,0.1122745046881309
7067,9.0,300.06086,-6014.1161,0.07066995512560426,0.0,0.0,0.0,0.0,0.01078523435537665,0.8231558598066582,0.46540848799724155,0.5395767842495826,0.0018940691212050683,0.00998041965804073,0.12381405543949588
7068,9.0,299.77115,-6176.9572,0.07067996480030181,0.0,0.0,0.0,0.0,0.010786761973262393,0.8538417033876151,0.47567145508011754,0.5481276018434824,0.003469267422690037,-0.015022973885902085,0.0974658990596353
7069,9.0,299.79751,-6244.3522,0.07068997447499936,0.0,0.0,0.0,0.0,0.01078828959114811,0.8479745597435733,0.4839670045763245,0.5661855931381674,0.0004621133480095366,-0.024298906688615375,0.09913269446088521
7070,9.0,299.98888999999997,-6217.7778,0.07069995111446659,0.0,0.0,0.0,0.0,0.010789812167390639,0.8690234424184361,0.45512397921723957,0.5659017716526564,0.013031838140892286,-0.01942465796331448,0.08817559229100343
7071,9.0,300.26554,-6196.0294,0.07070996078916414,0.0,0.0,0.0,0.0,0.010791339785276383,0.8451126247036223,0.47928069246632155,0.5590449157084374,0.01161799353435669,0.008316068013382012,0.10904802252720189
7072,9.0,300.42323,-6132.6852,0.07071997046386147,0.0,0.0,0.0,0.0,0.01079286740316207,0.8505377886540443,0.4597955485382876,0.5538498304582224,0.005404870577419194,0.019113963058651283,0.099007039289484
7073,9.0,299.92689,-6125.3978,0.07072998013855902,0.0,0.0,0.0,0.0,0.010794395021047815,0.8431832242607051,0.4588866935960905,0.5598980722926374,-0.005503771994505005,0.006634175793592175,0.0966130981262204
7074,9.0,299.86156,-6162.7997,0.07073995677802647,0.0,0.0,0.0,0.0,0.010795917597290344,0.8628377734729581,0.46433970165926053,0.5461597384267695,-0.0006900542728905543,0.008191969092809403,0.08148259509995602
7075,9.0,300.57832,-6084.6038,0.07074996645272402,0.0,0.0,0.0,0.0,0.010797445215176088,0.8473909074209712,0.4427733926883316,0.5594033225338094,-0.003948720448733367,0.00041642509040045665,0.08579485073679251
7076,9.0,300.2101,-6039.0795,0.07075997612742135,0.0,0.0,0.0,0.0,0.010798972833061804,0.8607193106938822,0.44237695858670656,0.5326331231692965,-0.005121193682697465,-0.01055633439757909,0.09095840871014602
7077,9.0,299.9525,-6215.8224,0.0707699527668888,0.0,0.0,0.0,0.0,0.010800495409304334,0.8625796784074862,0.47289355900346053,0.5539815428387215,-0.014309608325248387,-0.02948786684197587,0.0980149407853215
7078,9.0,299.74437,-6283.16,0.07077996244158635,0.0,0.0,0.0,0.0,0.010802023027190077,0.8853909373787822,0.46005468725136256,0.5644781349971545,-0.006442937300193404,-0.008810824966285722,0.0987973512342894
7079,9.0,299.66851,-6174.435,0.0707899721162839,0.0,0.0,0.0,0.0,0.010803550645075793,0.8475447491836542,0.4814997101853215,0.5478296049890725,0.007881229402491783,0.015320805580545785,0.11856046512850689
7080,9.0,299.53221,-6061.5837,0.07079998179098124,0.0,0.0,0.0,0.0,0.01080507826296151,0.8362276676242453,0.45595935326218456,0.5503830661685795,0.011775149638116789,0.016232215939494983,0.09604389272354422
7081,9.0,300.10217,-6009.1656,0.07080995843044868,0.0,0.0,0.0,0.0,0.01080660083920404,0.8246043514871132,0.4502974130283946,0.5517345290194584,0.019709831124458878,0.004045680174652546,0.098962952777633
7082,9.0,299.74793,-6040.6408,0.07081996810514624,0.0,0.0,0.0,0.0,0.010808128457089783,0.8469110423061122,0.4583279064309425,0.5309650196621675,0.009528090121274282,-0.009888576642476532,0.09564100523203231
7083,9.0,299.7878,-6124.9951,0.07082997777984357,0.0,0.0,0.0,0.0,0.010809656074975499,0.8346015633337612,0.46282426454469855,0.5644197413938914,0.008096141673876973,-0.0064914213174784045,0.1164474536349689
7084,9.0,300.45594,-6154.5547,0.07083995441931101,0.0,0.0,0.0,0.0,0.010811178651218029,0.8549992909643602,0.4717009332382575,0.5441307152340205,-0.014803301264222088,-0.005749005775132694,0.1069388816490459
7085,9.0,300.46981,-6125.3833,0.07084996409400857,0.0,0.0,0.0,0.0,0.010812706269103772,0.8416714551115053,0.4646236548672846,0.5556684522677064,-0.01799063752078768,-0.006286897088768433,0.1069521349603539
7086,9.0,300.25532999999996,-6203.8436,0.07085997376870612,0.0,0.0,0.0,0.0,0.010814233886989488,0.8545352933460671,0.4654832759871226,0.5657949649596155,-0.0023983590350246074,0.009141832495703621,0.08327871363796913
7087,9.0,300.51756,-6224.4046,0.07086998344340345,0.0,0.0,0.0,0.0,0.010815761504875204,0.8626905887634322,0.4746733530691125,0.5546996331845915,0.0013714121241478387,0.014970249416948588,0.0854414706451666
7088,9.0,300.45392999999996,-6130.4542,0.0708799600828709,0.0,0.0,0.0,0.0,0.010817284081117734,0.8708127610350281,0.4496686609438416,0.5430235875122554,0.007884456401410262,0.006931730465658533,0.08390099713388371
7089,9.0,300.07689,-6057.9947,0.07088996975756845,0.0,0.0,0.0,0.0,0.010818811699003478,0.8446977798476801,0.45685546151812356,0.5399258894390365,0.006157991512371444,-0.017177626918799784,0.1027408040997279
7090,9.0,299.90529,-6130.5657,0.070899979432266,0.0,0.0,0.0,0.0,0.010820339316889221,0.8650954162857702,0.45020439666921463,0.5482390694869835,0.007952347299185572,-0.0032752957884715273,0.1025706996729399
7091,9.0,299.58537,-6179.8573,0.07090995607173323,0.0,0.0,0.0,0.0,0.010821861893131723,0.8487032486854893,0.4474533111902036,0.5823657482875244,-0.008490194637766972,-6.904921793187724e-05,0.10021527721222781
7092,9.0,299.71495,-6116.5951,0.07091996574643078,0.0,0.0,0.0,0.0,0.010823389511017467,0.8376073292254073,0.45182401615905854,0.5698608336358855,-0.01285936068237009,0.017115178288636585,0.09055380679946491
7093,9.0,299.64474,-6132.3353,0.07092997542112833,0.0,0.0,0.0,0.0,0.010824917128903183,0.8493374317905782,0.45198051263700356,0.5627588724924765,-0.014894924404514587,-0.006530137907774433,0.08096233373011022
7094,9.0,299.80634,-6124.906999999999,0.07093995206059578,0.0,0.0,0.0,0.0,0.010826439705145713,0.8551087422401621,0.4578852782572586,0.5488247787072885,0.0016047230921738384,-0.00948181559715734,0.08638705489023851
7095,9.0,299.88287,-6130.6371,0.07094996173529311,0.0,0.0,0.0,0.0,0.010827967323031429,0.8495133624054412,0.47342184734059856,0.5406253866455715,0.0027165924191067973,-0.0028013276878695176,0.11169934340136689
7096,9.0,300.13875,-6217.7034,0.07095997140999066,0.0,0.0,0.0,0.0,0.010829494940917173,0.8667241752915162,0.4775150433720656,0.5457873690150195,0.0011684598516430089,-0.0067766883055820635,0.1097288860643979
7097,9.0,300.10715,-6188.0703,0.07096998108468822,0.0,0.0,0.0,0.0,0.010831022558802916,0.8422976031433013,0.48172947477799755,0.5569917771633085,0.013872084905568184,-0.002248524879137128,0.1040163846506179
7098,9.0,300.52781,-6161.0661,0.07097995772415544,0.0,0.0,0.0,0.0,0.010832545135045418,0.8446667338646162,0.4753846749043145,0.5527588235455485,0.0037513824937076266,0.016098921875589884,0.09954721609004531
7099,9.0,300.27717,-6127.6441,0.070989967398853,0.0,0.0,0.0,0.0,0.010834072752931162,0.8461187617879202,0.45405116014386054,0.5624808670625394,0.01053655879537739,0.00821683617543859,0.08582305759307632
7100,9.0,300.78596,-6169.7938,0.07099997707355055,0.0,0.0,0.0,0.0,0.010835600370816878,0.8550835021801713,0.4756923280321776,0.5446874353689645,-0.014143721045376586,0.005907280507003194,0.10112721952747951
7101,9.0,300.21629,-6204.1912,0.07100995371301777,0.0,0.0,0.0,0.0,0.010837122947059408,0.8518480020933522,0.4707212115840665,0.5633500026008165,-0.01218581686389649,0.0032597190946842265,0.11003698502230488
7102,9.0,299.81852000000003,-6128.0495,0.07101996338771532,0.0,0.0,0.0,0.0,0.010838650564945124,0.8528516161849012,0.4702433020419005,0.5396791022446805,0.004167629282487986,0.004947726684127606,0.1160538262361209
7103,9.0,299.05593999999996,-6139.1246,0.07102997306241288,0.0,0.0,0.0,0.0,0.010840178182830895,0.8306373945700282,0.46733751353762154,0.5681656864835875,0.00990112604894006,0.007920376928055342,0.1080657576152599
7104,9.0,299.9617,-6053.2661,0.07103998273711021,0.0,0.0,0.0,0.0,0.010841705800716611,0.8413028043276223,0.4468465466328206,0.5518923731200365,0.01059468794036429,0.0016198597314427085,0.09535629816593391
7105,9.0,299.60676,-6074.8374,0.07104995937657765,0.0,0.0,0.0,0.0,0.010843228376959141,0.8446799263809182,0.4529366964913716,0.5489822580378304,0.0011559748878858388,0.003293407228708987,0.07079853242127114
7106,9.0,299.2454,-6202.1857,0.07105996905127498,0.0,0.0,0.0,0.0,0.010844755994844857,0.87461672482545,0.45711797435403156,0.5535748749110865,-0.003767746685472647,0.015797936946634984,0.09180753762519851
7107,9.0,299.6348,-6298.7603,0.07106997872597254,0.0,0.0,0.0,0.0,0.010846283612730573,0.8801022987468341,0.4678876272819135,0.5666759251265595,-0.0068062090432705336,-0.008800651529981681,0.08644016844723042
7108,9.0,300.20533,-6268.289000000001,0.07107995536543998,0.0,0.0,0.0,0.0,0.010847806188973103,0.8788698623852021,0.4766744206916025,0.5498590537468634,-0.022390195799490274,-0.01144330313761609,0.11531119497282888
7109,9.0,300.10212,-6369.1849,0.07108996504013732,0.0,0.0,0.0,0.0,0.010849333806858819,0.8681628789760052,0.48476877924795353,0.5831415229615875,-0.013816245705807285,-0.012712386728864888,0.08667203148086351
7110,9.0,300.69034,-6237.3843,0.07109997471483509,0.0,0.0,0.0,0.0,0.01085086142474459,0.8641628918212371,0.46592465786318354,0.5659215300296064,0.005147632012256725,-0.005922908369920545,0.09774884307055971
7111,9.0,300.06622999999996,-6047.382,0.07110995135430231,0.0,0.0,0.0,0.0,0.010852384000987092,0.8342554269671002,0.4458423448562136,0.5581553429156435,0.018019490830635282,0.001274049935288939,0.07740551683782972
7112,9.0,299.85831,-5987.1359,0.07111996102899987,0.0,0.0,0.0,0.0,0.010853911618872836,0.8390059690009423,0.4454429419317956,0.5354909140163385,0.011568960335517488,0.006462916261690174,0.1067296759008989
7113,9.0,300.12318,-6060.8247,0.0711299707036972,0.0,0.0,0.0,0.0,0.010855439236758552,0.8327391893849592,0.4564759284281666,0.5531242623266145,0.00983083668685304,0.009413709485060791,0.08987267576424252
7114,9.0,299.98357999999996,-6094.8959,0.07113998037839497,0.0,0.0,0.0,0.0,0.010856966854644295,0.8413206679268852,0.4737165916621875,0.5376588841953005,0.012345043037610887,0.016402928316342984,0.12858350472020388
7115,9.0,299.63546,-6138.7774,0.0711499570178622,0.0,0.0,0.0,0.0,0.010858489430886797,0.8320417896061312,0.45700817857319553,0.5769850558839914,0.002070713672088528,-2.5824139905144174e-05,0.1018865633379209
7116,9.0,299.77821,-6256.0667,0.07115996669255975,0.0,0.0,0.0,0.0,0.010860017048772541,0.8662243086196831,0.4693403746127886,0.5661233795820274,-0.01269699242009559,-0.01008987052854269,0.1098273030466109
7117,9.0,299.41913999999997,-6289.706,0.0711699763672573,0.0,0.0,0.0,0.0,0.010861544666658285,0.8597899577021622,0.47694302316061155,0.5751805790459035,0.004434785539629256,-0.014520560916567787,0.07699016839658802
7118,9.0,300.12852999999996,-6227.5552,0.07117995300672475,0.0,0.0,0.0,0.0,0.010863067242900815,0.8769006108158522,0.4737155986770895,0.5424050591212114,0.006131285178160735,-0.00922055361849779,0.10269113457982591
7119,9.0,300.20903,-6271.1124,0.07118996268142208,0.0,0.0,0.0,0.0,0.01086459486078653,0.8722322231001182,0.4724101576457526,0.5616192093100005,0.00941886246976935,-0.006199427260635834,0.09355493909840361
7120,9.0,299.95762,-6205.8596,0.07119997235611963,0.0,0.0,0.0,0.0,0.010866122478672274,0.8610102958576001,0.4680163100446136,0.5573997521835724,0.011593297589669389,-0.0017574366008704884,0.11191461851761288
7121,9.0,299.7338,-6116.7349,0.07120998203081719,0.0,0.0,0.0,0.0,0.01086765009655799,0.8341326615849842,0.46193403313933956,0.5632679698727204,0.012992153187475687,0.008399292222270602,0.09087721191338251
7122,9.0,299.79495,-6050.969,0.07121995867028441,0.0,0.0,0.0,0.0,0.010869172672800492,0.8433853777881561,0.43858709923767664,0.5573710062782354,0.0005590401838304704,0.012885342441434288,0.0992642538406191
7123,9.0,300.43167,-6099.4272,0.07122996834498196,0.0,0.0,0.0,0.0,0.010870700290686236,0.8570323164950042,0.4473701942845006,0.5496710553233095,-0.0072500584873000625,-0.002626242427564948,0.08854152047186772
7124,9.0,300.59265,-6057.1434,0.07123997801967952,0.0,0.0,0.0,0.0,0.01087222790857198,0.8627453954613412,0.44719599632730855,0.5312789549406505,-0.015324525221662885,-0.0023769658803632675,0.1117244010763399
7125,9.0,300.10017,-6203.9536,0.07124995465914696,0.0,0.0,0.0,0.0,0.01087375048481451,0.8788116612994582,0.46226524433202754,0.5447700861796215,-0.00961541535861761,0.0012024977596022887,0.10229237000297091
7126,9.0,299.77307,-6335.0334,0.0712599643338443,0.0,0.0,0.0,0.0,0.010875278102700225,0.8739987435894601,0.4868311687664955,0.5648620655925455,0.0035911067955396465,0.0015309941512973583,0.1188754845845969
7127,9.0,300.04233,-6179.0312,0.07126997400854185,0.0,0.0,0.0,0.0,0.01087680572058597,0.8498599952646513,0.48207643187723953,0.5463347773815445,0.0017822081340152483,-0.011979491785783789,0.1046255404782369
7128,9.0,300.06096,-6043.7543,0.0712799506480093,0.0,0.0,0.0,0.0,0.010878328296828499,0.8227782316268892,0.4726520001796205,0.5417201425836154,0.013004767137970587,-0.01173046024245629,0.10534376254661991
7129,9.0,299.62481,-6055.9727,0.07128996032270685,0.0,0.0,0.0,0.0,0.010879855914714215,0.8457544679794672,0.45044996796345055,0.5446600472187615,0.012541098825960089,-0.0049171732419372146,0.08637147009045042
7130,9.0,299.65296,-6072.5448,0.07129996999740418,0.0,0.0,0.0,0.0,0.01088138353259993,0.8493344629677851,0.4559304452368316,0.5406370795517255,0.020001039203198883,0.012094829031416688,0.09281404150603272
7131,9.0,299.39632,-6017.7432,0.07130997967210173,0.0,0.0,0.0,0.0,0.010882911150485675,0.8503442882824472,0.43752051165241257,0.5413788698174344,-0.0061246627781571545,-0.00021027870907539282,0.1089595049984659
7132,9.0,299.56879,-6123.3525,0.07131995631156895,0.0,0.0,0.0,0.0,0.010884433726728204,0.8393550640578952,0.47294357302839657,0.5490476228017815,-0.016527792139416086,-0.005115990035483905,0.12126704866312588
7133,9.0,299.4362,-6153.3664,0.07132996598626651,0.0,0.0,0.0,0.0,0.01088596134461392,0.8513299171847212,0.4588155229090665,0.5603242756822004,0.0004912499321875936,0.009502090731658341,0.1072067444454819
7134,9.0,300.39957000000004,-6157.1630000000005,0.07133997566096406,0.0,0.0,0.0,0.0,0.010887488962499636,0.8441833122419061,0.4654436781732146,0.5619968070922665,0.008302004101994012,0.006927587792624684,0.1028115289567079
7135,9.0,299.57905,-6277.9383,0.07134995230043129,0.0,0.0,0.0,0.0,0.010889011538742194,0.8727446439406902,0.48160127837534555,0.5539905607646114,0.013001847964432487,-0.005384325918391594,0.09497828089812652
7136,9.0,299.8166,-6237.2315,0.07135996197512884,0.0,0.0,0.0,0.0,0.01089053915662791,0.8736799244454952,0.46687900773487057,0.5554037001490775,0.005031486902319095,-0.007287206161141254,0.09070059431495173
7137,9.0,299.8943,-6104.4047,0.07136997164982617,0.0,0.0,0.0,0.0,0.010892066774513626,0.8573691208282442,0.46161870970821955,0.5365987814106764,0.006271066271856055,0.007231544685447894,0.08704408982483282
7138,9.0,301.08924,-6076.0503,0.07137998132452372,0.0,0.0,0.0,0.0,0.01089359439239937,0.8450495093548932,0.44617755838679657,0.5557404943498165,-0.0024748396591976578,0.012852464502189489,0.09259023989019523
7139,9.0,300.28263,-6278.8539,0.07138995796399117,0.0,0.0,0.0,0.0,0.0108951169686419,0.8615776449860931,0.4721705239971025,0.5748666235024185,-0.018906132290889985,0.01113753566818919,0.08914437996336533
7140,9.0,299.8317,-6175.5032,0.07139996763868872,0.0,0.0,0.0,0.0,0.010896644586527643,0.8479459759582523,0.4592419289486495,0.5700108757106935,-0.00857747620403099,-0.0021776424617665777,0.09023655211365432
7141,9.0,299.36602,-6090.4131,0.07140997731338605,0.0,0.0,0.0,0.0,0.010898172204413331,0.8437269849268701,0.4414783577355216,0.5661281722550005,-0.001186025859351639,0.009359790394239391,0.07890309136637882
7142,9.0,300.17722000000003,-6121.0874,0.07141995395285372,0.0,0.0,0.0,0.0,0.010899694780655916,0.8536788436990422,0.4591974472692595,0.5477814350793184,0.007972139417363903,0.0024199129924768175,0.1013554176355009
7143,9.0,299.91438999999997,-6189.7147,0.07142996362755105,0.0,0.0,0.0,0.0,0.010901222398541605,0.8567591746655472,0.4579896936800636,0.5667698432783285,-0.0016382020913779584,-0.006920396857989993,0.1059149924229959
7144,9.0,299.71035,-6264.0947,0.07143997330224838,0.0,0.0,0.0,0.0,0.01090275001642732,0.8589205181888552,0.4799228802472005,0.5652849860517845,0.004221015910381837,-0.009509073544722491,0.12730193586122288
7145,9.0,298.94978,-6187.1956,0.07144998297694594,0.0,0.0,0.0,0.0,0.010904277634313064,0.8584573311706422,0.46771507078988356,0.5545805661653405,0.012780787190115488,0.008630397142178881,0.0989375749156284
7146,9.0,299.59134,-5984.4307,0.07145995961641338,0.0,0.0,0.0,0.0,0.010905800210555594,0.8374192801393482,0.45164642381403153,0.5300517874795385,0.001641852628838238,0.0015920863435516886,0.1093220864142499
7147,9.0,300.46205,-5924.6891,0.07146996929111094,0.0,0.0,0.0,0.0,0.010907327828441338,0.8398103882553322,0.43971045922604357,0.5214367196967975,-0.011655284177786988,-0.013793109153023887,0.08216801826260202
7148,9.0,300.34522000000004,-6166.2102,0.07147997896580827,0.0,0.0,0.0,0.0,0.010908855446327026,0.8663464052567331,0.4564872362992825,0.5515402788427874,-0.018992532126916983,-0.02311000157777958,0.09980661216864571
7149,9.0,299.49984,-6349.8122,0.07148995560527593,0.0,0.0,0.0,0.0,0.010910378022569611,0.8834145829262312,0.47234080067640755,0.5744289602542244,0.001132653416959189,0.012739611745801788,0.08112623301328582
7150,9.0,299.76923999999997,-6222.2439,0.07149996527997327,0.0,0.0,0.0,0.0,0.0109119056404553,0.8497510607464003,0.4832588035514306,0.5583969118719845,0.003813078988321596,0.004843351386026565,0.1180811471687019
7151,9.0,300.26526,-6202.991,0.07150997495467082,0.0,0.0,0.0,0.0,0.010913433258341043,0.8450980845646873,0.47420366098525757,0.5662526398972845,0.012599887596762088,0.005958267353360204,0.1108447480020249
7152,9.0,300.52811,-6320.1493,0.07151995159413826,0.0,0.0,0.0,0.0,0.010914955834583573,0.8573115783550652,0.4774724058078575,0.5863835889090544,0.007351485936885174,0.0038766734016978765,0.1038868710228359
7153,9.0,300.06407,-6354.0861,0.07152996126883582,0.0,0.0,0.0,0.0,0.010916483452469317,0.8677626958490101,0.4971439472242875,0.5665768900617855,0.004110911189590346,0.007318403321120173,0.08318780078599672
7154,9.0,299.96788,-6190.7963,0.07153997094353315,0.0,0.0,0.0,0.0,0.010918011070355033,0.8608682787235842,0.4634852481149326,0.5574939540453694,0.0037411741002751366,0.0019039194320522182,0.08866850300089991
7155,9.0,299.66557,-6044.8716,0.07154998061823048,0.0,0.0,0.0,0.0,0.01091953868824072,0.8333992103675981,0.4612665343709626,0.5428242913500865,-0.027002593341198474,3.158913679335507e-06,0.0998663655535429
7156,9.0,299.60342,-5952.6589,0.07155995725769815,0.0,0.0,0.0,0.0,0.010921061264483306,0.8223647141285783,0.44752035794932055,0.5395745854968654,-0.016973718442175583,0.0013134214904496086,0.1016688057589299
7157,9.0,299.39799,-6236.7663,0.07156996693239548,0.0,0.0,0.0,0.0,0.010922588882368994,0.8615331025116971,0.47197108597991955,0.5623170447863715,-0.017242723171474284,0.009913607364996871,0.09507391448231481
7158,9.0,299.21004,-6386.0673,0.07157997660709303,0.0,0.0,0.0,0.0,0.010924116500254738,0.8699440915917972,0.48303437878678157,0.5882265287209384,0.014207784796199188,0.005387975239951755,0.07911790545382932
7159,9.0,299.4914,-6222.9542,0.07158995324656048,0.0,0.0,0.0,0.0,0.010925639076497268,0.8637187640374051,0.47354808817055755,0.5543558374256615,-0.0035854232730787266,-0.010911451199876389,0.08862924361252532
7160,9.0,300.07068,-6133.4812,0.07159996292125803,0.0,0.0,0.0,0.0,0.010927166694383011,0.8381060103946233,0.4746000849543815,0.5517190262929285,0.01327193079183759,-0.0053904889107998346,0.09012758213164981
7161,9.0,300.06566000000004,-6280.8644,0.07160997259595536,0.0,0.0,0.0,0.0,0.010928694312268727,0.866407970332809,0.4758085174211445,0.5670094465294755,-0.0022058373616991984,-0.0057469104752509055,0.10606630106042889
7162,9.0,300.02349,-6411.647,0.07161998227065292,0.0,0.0,0.0,0.0,0.010930221930154443,0.8721600796929981,0.4904156727177585,0.5864048468961525,0.004880285669396695,0.005710977485629595,0.09554133992569609
7163,9.0,300.08883,-6055.778,0.07162995891012036,0.0,0.0,0.0,0.0,0.010931744506397001,0.8404913125875343,0.4569555807605046,0.5433584160078004,-0.018817508370893483,-0.001162402237245169,0.11561697358800689
7164,9.0,299.85398,-5891.2777,0.07163996858481769,0.0,0.0,0.0,0.0,0.010933272124282717,0.8178102258565852,0.4424888315302476,0.5305022582089964,-0.004110265141326586,-0.0036406577651799466,0.0953679849925873
7165,9.0,299.82512,-5911.2177,0.07164997825951525,0.0,0.0,0.0,0.0,0.010934799742168433,0.8430237386949653,0.43767235731239856,0.5161664816866655,-0.009236282502450111,0.0095755843958616,0.09062899907613582
7166,9.0,300.33482999999995,-6161.81,0.07165995489898269,0.0,0.0,0.0,0.0,0.01093632231841099,0.8576964310080472,0.4587392454415386,0.5566006930222115,0.0003190704907848057,-0.0013775981173333488,0.08900881115298573
7167,9.0,300.45159,-6344.8865,0.07166996457368002,0.0,0.0,0.0,0.0,0.010937849936296706,0.8802277999042202,0.48339600774747155,0.5650632565324015,0.009106257791317672,-0.003683056810314406,0.11308737444835489
7168,9.0,300.1607,-6165.2256,0.07167997424837758,0.0,0.0,0.0,0.0,0.010939377554182422,0.8515996038313371,0.4736576407713695,0.5488174022465605,0.009033590837871001,0.00896607251215746,0.10050438178376021
7169,9.0,300.26377,-6043.5686,0.07168995088784502,0.0,0.0,0.0,0.0,0.01094090013042498,0.8268077854195752,0.4700908889618586,0.5401952518456204,0.010119224485264701,0.015600114050111386,0.11809768341033389
7170,9.0,300.31366,-6234.9409,0.07169996056254235,0.0,0.0,0.0,0.0,0.010942427748310696,0.8539157517049231,0.47044642828944755,0.5709041671313545,0.004803545045247985,0.0013814911255425587,0.09531882817723591
7171,9.0,300.00676,-6364.1567,0.0717099702372399,0.0,0.0,0.0,0.0,0.010943955366196412,0.8812072581133851,0.47944000577954454,0.5738974599142694,0.004768753887164366,-0.0032904409390412366,0.09324512572132741
7172,9.0,299.87931000000003,-6110.4003,0.07171997991193724,0.0,0.0,0.0,0.0,0.010945482984082128,0.8463189090801733,0.4597480271085976,0.5513421783157365,0.005452632350032916,-0.007642205122451924,0.09327503787752951
7173,9.0,299.50111,-5863.2278,0.0717299565514049,0.0,0.0,0.0,0.0,0.010947005560324685,0.8142882090389892,0.4376521632379056,0.5303344842574386,0.004427429039928225,0.006384449262021084,0.10512043209207891
7174,9.0,299.7372,-6031.6675,0.07173996622610224,0.0,0.0,0.0,0.0,0.010948533178210401,0.8323306469446392,0.4554509854220125,0.5456946870283725,0.002302913206079838,-0.004761286841877425,0.10640176790353689
7175,9.0,300.11657,-6342.6626,0.07174997590079979,0.0,0.0,0.0,0.0,0.010950060796096145,0.8663005658222092,0.4945442210452145,0.5671662773799534,-0.0030127883227890574,-0.00919784567050669,0.1131555965775879
7176,9.0,300.25266,-6401.3240000000005,0.07175995254026724,0.0,0.0,0.0,0.0,0.010951583372338675,0.8683875469206782,0.49807895415156556,0.5793761437349735,0.005133698202181566,0.005480512433159464,0.1016077878379079
7177,9.0,299.9001,-6221.6168,0.07176996221496479,0.0,0.0,0.0,0.0,0.010953110990224418,0.8611676232006271,0.47942405722297055,0.5506244527399026,0.01132699823813769,0.018165021915998083,0.08953777228819011
7178,9.0,299.786,-6052.5308,0.07177997188966212,0.0,0.0,0.0,0.0,0.010954638608110107,0.8375443658641932,0.44781753407114955,0.5544563113055774,-0.008405008574034763,0.012261617090627388,0.08852066879805981
7179,9.0,299.99118,-6187.9516,0.07178998156435945,0.0,0.0,0.0,0.0,0.010956166225995823,0.8480062744717033,0.4686801003176245,0.5642963984592185,-0.007622028881160683,-0.00024041890734499878,0.0942281931273486
7180,9.0,299.98312999999996,-6447.1718,0.07179995820382712,0.0,0.0,0.0,0.0,0.01095768880223838,0.8780907642508112,0.4842356678403396,0.5974528294940035,-0.01133657953108329,-0.0036032851498165566,0.09576160732518482
7181,9.0,300.11522,-6340.1242,0.07180996787852445,0.0,0.0,0.0,0.0,0.010959216420124096,0.8705014500743042,0.4642128123492375,0.5925251916076835,0.00966797213467956,0.004846765937538555,0.0921477880220286
7182,9.0,299.58437999999995,-5939.5704,0.071819977553222,0.0,0.0,0.0,0.0,0.01096074403800984,0.8239392439889722,0.44674108756241254,0.5348007589757255,0.012826675260644288,-0.01054050135151649,0.1052154242889539
7183,9.0,299.82422,-5913.9156,0.07182995419268945,0.0,0.0,0.0,0.0,0.01096226661425237,0.8335494246949231,0.4348304035644196,0.5293028639331255,0.013404479103669088,-0.012813715791865288,0.09731701208994131
7184,9.0,299.87199,-6231.3814,0.071839963867387,0.0,0.0,0.0,0.0,0.010963794232138113,0.8703393604558072,0.46556003981469857,0.5582849376034335,0.005230021404387925,-0.0016435981547855084,0.09601306762900201
7185,9.0,300.1173,-6354.2912,0.07184997354208433,0.0,0.0,0.0,0.0,0.010965321850023801,0.8822225549785871,0.48461211051749153,0.5647111825201545,0.00889815668842969,0.006798152286425394,0.0968386364527293
7186,9.0,300.41929,-6152.6466,0.07185998321678189,0.0,0.0,0.0,0.0,0.010966849467909545,0.8446221913902202,0.4686937589289725,0.5569349946277045,-0.007232190125761593,0.00985532917092026,0.10665167590820089
7187,9.0,300.40824,-6077.5485,0.07186995985624933,0.0,0.0,0.0,0.0,0.010968372044152075,0.8371552170307871,0.4754203717053376,0.5348473988778285,-0.006014236755758954,-0.004898879923306805,0.12513215196458188
7188,9.0,299.93962999999997,-6146.7373,0.07187996953094689,0.0,0.0,0.0,0.0,0.010969899662037819,0.8475301077197092,0.46923738787262453,0.5516871494447825,-0.0018271503355756981,0.004430732944529296,0.11042241522784389
7189,9.0,300.38496000000004,-6237.4279,0.07188997920564422,0.0,0.0,0.0,0.0,0.010971427279923535,0.8822322416495432,0.45898715734350554,0.5548029340322864,0.0018016860433375684,0.0058572935358448645,0.10044101413575632
7190,9.0,299.76237000000003,-6293.6558,0.07189995584511166,0.0,0.0,0.0,0.0,0.010972949856166064,0.870260924765566,0.4708379987905925,0.5720152870585135,0.017912297076056082,-0.00017452913798718487,0.09070122759626423
7191,9.0,299.58754,-6035.2075,0.07190996551980922,0.0,0.0,0.0,0.0,0.010974477474051808,0.8432507472473691,0.4494743398396636,0.5418272937816905,-0.002522102102162098,-0.01788149325976598,0.1007800526854668
7192,9.0,299.80686000000003,-5907.2566,0.07191997519450655,0.0,0.0,0.0,0.0,0.010976005091937496,0.7956907836560663,0.4569923414741326,0.5429753669399965,0.019071419726702583,0.005586728300067154,0.1152232448641489
7193,9.0,300.12743,-6230.6684,0.07192995183397399,0.0,0.0,0.0,0.0,0.010977527668180026,0.8522693520149363,0.4678598642291736,0.5738384076984414,-0.0071590427904425135,0.007014280660580604,0.1207372505833389
7194,9.0,299.53997000000004,-6442.2519,0.07193996150867155,0.0,0.0,0.0,0.0,0.01097905528606577,0.8809785675658152,0.48780426376503255,0.5895008933717084,-0.007431155360447933,0.006690781517053723,0.1054208708792299
7195,9.0,299.96837999999997,-6128.1396,0.0719499711833691,0.0,0.0,0.0,0.0,0.010980582903951513,0.8628257360617703,0.4689005430093806,0.5310751599480374,-0.022801823586364775,-0.01210515506318579,0.1151631793982209
7196,9.0,299.30535,-6007.9227,0.07195998085806643,0.0,0.0,0.0,0.0,0.01098211052183723,0.8299415247988512,0.45472594418045653,0.5415910139908715,-0.01044960268504549,0.0006361129716269624,0.09413828643272551
7197,9.0,299.93332999999996,-6165.5032,0.07196995749753388,0.0,0.0,0.0,0.0,0.01098363309807976,0.8628577446324293,0.46374680849574657,0.5475544467919166,-0.008428296911683142,-0.010793015435437689,0.09133941911874881
7198,9.0,299.88509,-6402.1988,0.07197996717223121,0.0,0.0,0.0,0.0,0.010985160715965503,0.8719152075413312,0.47716403327242357,0.5970293416147084,-0.0052133201043146355,-0.005948087330930514,0.07541832466220913
7199,9.0,300.28222999999997,-6362.416,0.07198997684692876,0.0,0.0,0.0,0.0,0.010986688333851219,0.8723906447532531,0.4802984008667615,0.5813265589849644,0.008543824344359812,-0.018793833782306982,0.10107266816859571
7200,9.0,300.13126,-6279.4121,0.07199995348639598,0.0,0.0,0.0,0.0,0.01098821091009372,0.8725465738111421,0.4710805404670295,0.5651573773341905,0.013872824578141187,0.008922218338554392,0.08221713049494901
7201,9.0,300.69462000000004,-6149.0076,0.07200996316109376,0.0,0.0,0.0,0.0,0.010989738527979492,0.871022270758205,0.45725956592300554,0.5408629431315165,0.013985391598000687,0.007635671888457143,0.1035449903065949
7202,9.0,300.03764,-6283.5271,0.07201997283579109,0.0,0.0,0.0,0.0,0.010991266145865208,0.8760314144825692,0.4669039640848336,0.5670999500284074,-0.006883648404688202,0.007262687737871473,0.07971079253784272
7203,9.0,300.08262,-6512.0819,0.07202998251048842,0.0,0.0,0.0,0.0,0.010992793763750924,0.9024067806806152,0.4941719934884785,0.5829315167458614,-0.010639898146576189,-0.005246268464441386,0.11234143998973689
7204,9.0,299.45095,-6328.5911,0.07203995914995587,0.0,0.0,0.0,0.0,0.010994316339993454,0.8514712858386732,0.4868113090645355,0.5854510948420245,-0.024107956667520077,0.007880453151590172,0.09632648412343381
7205,9.0,299.75632,-5982.1064,0.07204996882465342,0.0,0.0,0.0,0.0,0.010995843957879198,0.8274299209809752,0.47456024396044955,0.5164208175942665,-0.0036706275753127363,0.004474764538224876,0.1185700606069539
7206,9.0,299.58513,-6110.6908,0.07205997849935097,0.0,0.0,0.0,0.0,0.010997371575764914,0.8442191610304441,0.4588348050584695,0.5544434632943094,-0.014977418161406087,0.002020334370491478,0.09883509176076409
7207,9.0,299.9524,-6314.4184,0.0720699551388182,0.0,0.0,0.0,0.0,0.010998894152007416,0.8838368042429011,0.4819219416344926,0.5536667766951565,0.02098128166794128,-0.011532380993657387,0.1048989457527199
7208,9.0,300.02149,-6185.56,0.07207996481351597,0.0,0.0,0.0,0.0,0.011000421769893187,0.8457910463080772,0.4781293667751946,0.5563353532185245,0.012067966758015589,0.008429439148520871,0.10085854309121321
7209,9.0,300.22353,-5990.6616,0.0720899744882133,0.0,0.0,0.0,0.0,0.011001949387778903,0.8414555720451993,0.4464447625706675,0.5331111948314785,0.02230722986805218,0.0024361116191754977,0.0993021949906136
7210,9.0,300.05369,-6048.5139,0.07209995112768075,0.0,0.0,0.0,0.0,0.011003471964021433,0.8162272454903572,0.4676486117158246,0.5547213370017334,-0.015088165384085986,-0.005055260384115356,0.10555428551989691
7211,9.0,300.02079,-6237.8142,0.07210996080237808,0.0,0.0,0.0,0.0,0.011004999581907149,0.8619968974799702,0.4762170598614645,0.5579258012379895,-0.016359807431837285,0.0006428940871262064,0.1075711699764479
7212,9.0,300.12225,-6369.1142,0.07211997047707586,0.0,0.0,0.0,0.0,0.01100652719979292,0.8739642930860603,0.4778316131008085,0.5842557535665535,-0.02258888806459968,0.013880034865852788,0.1111169779063919
7213,9.0,300.2105,-6269.3632,0.07212998015177319,0.0,0.0,0.0,0.0,0.011008054817678609,0.8875562933724862,0.4599288719864455,0.5582447115744634,-0.001752101636443968,0.01052228919421909,0.0934247364605536
7214,9.0,299.60492,-5988.6741,0.07213995679124063,0.0,0.0,0.0,0.0,0.011009577393921138,0.8463452434502722,0.4242670280918956,0.5497951075330525,-0.013533125389365488,-0.0036438104928660964,0.08952039606222523
7215,9.0,300.15672,-6045.1515,0.07214996646593819,0.0,0.0,0.0,0.0,0.011011105011806882,0.8557315870766322,0.44623045004201656,0.5356130815808955,0.01038927681384179,-0.011134750243664289,0.0977551637246835
7216,9.0,300.68135,-6341.6047,0.07215997614063552,0.0,0.0,0.0,0.0,0.011012632629692598,0.8636872215617921,0.4831869438543385,0.5808153236470095,0.007321809665306354,0.005556548949813684,0.0869973658229715
7217,9.0,300.33395,-6378.6782,0.07216995278010296,0.0,0.0,0.0,0.0,0.011014155205935128,0.8859724821411762,0.4671870965602765,0.5857992982388894,0.004748086928849696,0.008671985789883362,0.07840574262104433
7218,9.0,300.67356,-6120.9145,0.07217996245480052,0.0,0.0,0.0,0.0,0.011015682823820871,0.8417994083341331,0.48335024937295556,0.5354555211903455,-0.01033469708395519,-0.0026273073534200473,0.08477744833788271
7219,9.0,300.51673,-6112.0993,0.07218997212949807,0.0,0.0,0.0,0.0,0.011017210441706615,0.8568545012349552,0.4523711712130586,0.5486998956324635,-0.0037015066760852666,-0.016348398235711287,0.0906690194153355
7220,9.0,299.79442,-6343.0503,0.0721999818041954,0.0,0.0,0.0,0.0,0.011018738059592303,0.8708179691405421,0.4752743319684245,0.5820366243900424,0.002306286518312758,0.0047330455350902256,0.09628653673824131
7221,9.0,299.94765,-6404.076999999999,0.07220995844366285,0.0,0.0,0.0,0.0,0.011020260635834833,0.8794529270227461,0.48589721561932153,0.5813293758202425,0.0018403586585792585,-0.0016301963010128485,0.1091662080188659
7222,9.0,299.90066,-6301.4891,0.0722199681183604,0.0,0.0,0.0,0.0,0.011021788253720577,0.8511953575714413,0.47211254582638057,0.5921874449518504,-0.0032412334611848373,-0.0029777705006580673,0.11295530743032088
7223,9.0,299.96497,-6106.4161,0.07222997779305795,0.0,0.0,0.0,0.0,0.01102331587160632,0.8394746377021962,0.4882537009793885,0.5284696582433945,-0.008465035029833912,-0.01151878520381559,0.1132921522935649
7224,9.0,299.92457,-5872.9285,0.07223995443252518,0.0,0.0,0.0,0.0,0.011024838447848823,0.8029302529705462,0.45101070056879056,0.5312826634360165,-0.0058849271965470944,0.005521932577372314,0.12113770728786089
7225,9.0,299.40668,-6201.3567,0.07224996410722273,0.0,0.0,0.0,0.0,0.011026366065734566,0.8606749810020072,0.4665295175103786,0.5578531005433145,0.002252294777459188,0.014979267342838587,0.09040038350907323
7226,9.0,299.64825,-6398.648,0.07225997378192028,0.0,0.0,0.0,0.0,0.01102789368362031,0.8729521474286692,0.4910592081212705,0.5810178824745005,0.0012549240290513587,-0.0003461951149017976,0.10049425941526122
7227,9.0,300.81656,-6131.3154,0.07226995042138751,0.0,0.0,0.0,0.0,0.01102941625986284,0.8466204523099331,0.4595424487958086,0.5576038714162175,-0.0018236625260814783,-0.006457859535741114,0.09573125237868901
7228,9.0,300.34103,-6122.7045,0.07227996009608506,0.0,0.0,0.0,0.0,0.011030943877748528,0.8278325764382142,0.48295777707922155,0.5503589508161995,0.0022941453503145175,-0.004969570735083445,0.11761139428984088
7229,9.0,300.14883,-6332.5665,0.07228996977078261,0.0,0.0,0.0,0.0,0.011032471495634272,0.8863918663575662,0.4703668273615916,0.5681833980953355,-0.006416773865386274,0.007628151850189973,0.09685609069895192
7230,9.0,299.75869,-6408.0729,0.07229997944547994,0.0,0.0,0.0,0.0,0.011033999113520016,0.8731307023612911,0.47647193279161854,0.5982915067342744,-0.00828610823442521,-0.001133482660841029,0.08847950551274732
7231,9.0,300.15921000000003,-6348.2233,0.07230995608494717,0.0,0.0,0.0,0.0,0.011035521689762517,0.8877809207871551,0.47636387980095457,0.5655565776085885,0.003979409159812106,-0.009352309163451051,0.0998044721844345
7232,9.0,300.40134,-6217.6407,0.07231996575964472,0.0,0.0,0.0,0.0,0.011037049307648261,0.8591863038225862,0.44193631638321856,0.5888848981059145,0.013902235175543788,0.0002930911635208457,0.08054013571819252
7233,9.0,299.31762000000003,-6091.9229,0.07232997543434228,0.0,0.0,0.0,0.0,0.011038576925533977,0.8619270845480802,0.4433790832006086,0.5464862684039955,0.008316122627562402,0.005916250810138494,0.09596294518630531
7234,9.0,298.94779,-6257.4757,0.07233995207380972,0.0,0.0,0.0,0.0,0.011040099501776535,0.8548485801444863,0.47619078628637157,0.5710769870684104,0.002133797407414408,-0.005812176143342124,0.0937808128106956
7235,9.0,300.05984,-6474.366,0.07234996174850705,0.0,0.0,0.0,0.0,0.011041627119662223,0.9095054994237042,0.47787809088289557,0.5806619986418774,-0.01927554909184858,-0.012693225156223788,0.1026788742536159
7236,9.0,299.8737,-6359.8447,0.0723599714232046,0.0,0.0,0.0,0.0,0.011043154737547967,0.8677474160375022,0.49651570176478454,0.5689708555430515,-0.0025302151957127977,-0.01029959810049119,0.09676513022422481
7237,9.0,300.23312000000004,-6020.4226,0.07236998109790216,0.0,0.0,0.0,0.0,0.01104468235543371,0.8431683396167361,0.45017756580656654,0.5367122248918724,-0.0020641337272641383,0.015387737842401486,0.0904701346327071
7238,9.0,299.71702999999997,-6158.861999999999,0.0723799577373696,0.0,0.0,0.0,0.0,0.01104620493167624,0.8340834885576311,0.4621486699080226,0.5759081128827054,-0.00022975519984757276,0.0014284634750033687,0.09469046011447081
7239,9.0,299.69795,-6376.3104,0.07238996741206694,0.0,0.0,0.0,0.0,0.011047732549561956,0.8674789351585052,0.4979523181540675,0.5728079019492385,0.004285789544224496,-0.006235811957151724,0.11239256858978289
7240,9.0,300.07858999999996,-6231.4596,0.07239997708676449,0.0,0.0,0.0,0.0,0.011049260167447672,0.8476807780095792,0.4677265103835126,0.5788008405931955,0.0069465052733166935,-0.0027376962908645876,0.11633001794837888
7241,9.0,300.65013,-6063.6674,0.07240995372623193,0.0,0.0,0.0,0.0,0.01105078274369023,0.8491424115438312,0.4649879892057416,0.5290730892079485,0.015823210443879288,0.01013620240261529,0.1168611433857969
7242,9.0,299.92869,-6047.8508,0.07241996340092927,0.0,0.0,0.0,0.0,0.011052310361575918,0.8317459915044382,0.46069462561701957,0.5459550011115635,-0.002772659194840157,-0.012883471981749687,0.1040814454395389
7243,9.0,300.52024,-6140.5922,0.07242997307562682,0.0,0.0,0.0,0.0,0.011053837979461661,0.8560915137771542,0.4544472396079506,0.5560479549601605,-0.006304611537616714,-0.002635429870196677,0.1017289218873629
7244,9.0,300.06501000000003,-6441.3468,0.07243998275032437,0.0,0.0,0.0,0.0,0.011055365597347405,0.8659216609473142,0.4948887058142125,0.5971982098763744,-0.014631123727729487,0.0005894899097406244,0.09686021867985932
7245,9.0,300.24208,-6441.8732,0.07244995938979182,0.0,0.0,0.0,0.0,0.011056888173589935,0.895005383867654,0.47134291144792356,0.5918203140431175,0.007146314038711284,0.025467358332932576,0.09770813676104231
7246,9.0,300.35575,-6135.4582,0.07245996906448915,0.0,0.0,0.0,0.0,0.011058415791475651,0.8428894323942101,0.4675238097010076,0.5546128280485245,-0.008095333505597213,-0.0006700682085105834,0.09853668352681351
7247,9.0,299.42783,-6145.3283,0.0724699787391867,0.0,0.0,0.0,0.0,0.011059943409361367,0.8620832871834962,0.47333632903215855,0.5326067381366925,0.00021581512788679477,-0.0050628510459144955,0.10552279370678891
7248,9.0,299.60517000000004,-6386.2658,0.07247995537865415,0.0,0.0,0.0,0.0,0.011061465985603924,0.888880307278156,0.4681717628749556,0.5842132679898604,0.007908577427990822,-0.01049391211191849,0.08456916059432633
7249,9.0,300.18878,-6273.954000000001,0.0724899650533517,0.0,0.0,0.0,0.0,0.01106299360348964,0.8671071230343101,0.4711215973610815,0.5688966248407255,0.023332956116533476,0.006487660639732254,0.07944401999851433
7250,9.0,299.88771,-5975.6808,0.07249997472804903,0.0,0.0,0.0,0.0,0.011064521221375356,0.8260517083274562,0.44602535808927557,0.5443806840336904,0.001114258469343749,-0.010720228614504189,0.09053927476653072
7251,9.0,300.39013,-5942.8341,0.0725099513675167,0.0,0.0,0.0,0.0,0.011066043797617914,0.8189811680696483,0.44274964210598755,0.5447423535243845,-0.00968664805654773,-0.003525332779873257,0.1000373687331696
7252,9.0,300.48942,-6142.0877,0.07251996104221403,0.0,0.0,0.0,0.0,0.01106757141550363,0.8645599541379241,0.4639067398915306,0.5385745988406745,-0.0099371738397977,0.0033416773488978767,0.11756784480054289
7253,9.0,299.90766,-6398.7296,0.07252997071691136,0.0,0.0,0.0,0.0,0.011069099033389346,0.906599285354383,0.4754236749006635,0.5630310719993405,-0.007058463431191103,0.01845772960488608,0.1093577426852689
7254,9.0,300.66831,-6376.0645,0.07253998039160892,0.0,0.0,0.0,0.0,0.011070626651275062,0.8944083769087341,0.47536896952776453,0.5683870613654355,-0.0012935486162383087,-0.003915363951466337,0.1158981707557589
7255,9.0,300.67712,-6213.8874,0.07254995703107636,0.0,0.0,0.0,0.0,0.01107214922751762,0.8553668271731331,0.4712422349179875,0.5622575467404994,-0.01084123904744699,-0.006885626066233383,0.10463549059421891
7256,9.0,299.92697000000004,-6055.2729,0.07255996670577392,0.0,0.0,0.0,0.0,0.011073676845403335,0.8188431026110222,0.4557310173521496,0.5660776313400124,0.001175189858807209,-0.009072130818674601,0.10334033405139689
7257,9.0,300.05003,-6208.2155,0.07256997638047125,0.0,0.0,0.0,0.0,0.011075204463289051,0.8467072169159963,0.48154114198191056,0.5588941339610565,-0.00034935498600115265,0.015137081045913587,0.09802463657552841
7258,9.0,299.69962999999996,-6310.7398,0.07257995301993869,0.0,0.0,0.0,0.0,0.011076727039531609,0.8734795339732182,0.4713590018595116,0.5734687740619615,0.005407787116507036,0.0011729358839597589,0.10242974645152891
7259,9.0,299.94001000000003,-6004.7421,0.07258996269463625,0.0,0.0,0.0,0.0,0.011078254657417325,0.8437997869465552,0.4623673191471016,0.5191245538961045,-0.014591692086837887,0.0016446676402660583,0.1178823373665809
7260,9.0,300.40765,-5858.9865,0.0725999723693338,0.0,0.0,0.0,0.0,0.011079782275303068,0.8091855828603992,0.45577586380157553,0.5160241504451185,-0.0052377730716279556,-0.008161063546209263,0.11566810218805289
7261,9.0,300.04605,-6186.8502,0.07260998204403113,0.0,0.0,0.0,0.0,0.011081309893188757,0.8499463140406702,0.4650509323019535,0.5656507288078805,-0.0030212484544990073,-0.0009501499500224991,0.10747763685971691
7262,9.0,299.66272000000004,-6426.6591,0.07261995868349858,0.0,0.0,0.0,0.0,0.011082832469431342,0.8631293969842393,0.48646466607282457,0.6039498296652075,0.0038013271110117768,-0.015101942545695685,0.09378866752547081
7263,9.0,300.16197,-6386.4089,0.0726299683581959,0.0,0.0,0.0,0.0,0.01108436008731703,0.8860341485422621,0.47526432105743655,0.5800103775025675,-0.00946682324470271,-0.005865461142250944,0.1049114087289499
7264,9.0,299.41093,-6358.7353,0.07263997803289346,0.0,0.0,0.0,0.0,0.011085887705202746,0.8905337085263342,0.4778639459114995,0.5644990890092225,0.00013217386525704488,-0.004383238264641936,0.08466002886329432
7265,9.0,300.40963999999997,-6246.5035,0.0726499546723609,0.0,0.0,0.0,0.0,0.011087410281445303,0.8862664563926892,0.4660706368050906,0.5464439854773224,0.001071958824044099,0.02609186692606677,0.1011072524210089
7266,9.0,300.39081,-6454.1618,0.07265996434705824,0.0,0.0,0.0,0.0,0.01108893789933102,0.886762462581641,0.48370997342345756,0.5914315907747535,0.0038200880445633367,0.003637230041416656,0.08709247758335832
7267,9.0,300.29882000000003,-6459.858,0.07266997402175579,0.0,0.0,0.0,0.0,0.011090465517216763,0.8801682005333381,0.48399712850179755,0.5994702003106024,-0.007993050366302653,-0.005206218639663775,0.09165938627507711
7268,9.0,300.73361,-6018.3678,0.07267995066122324,0.0,0.0,0.0,0.0,0.011091988093459293,0.8088983467220513,0.44994165078578363,0.5705935350481974,-0.0025414197153185974,-0.018179301649657382,0.08744386461203751
7269,9.0,300.36327,-5828.1964,0.07268996033592079,0.0,0.0,0.0,0.0,0.011093515711345037,0.8012170699664682,0.44733072819310554,0.5230783571113146,-0.00945079332414568,-0.0002530644611105177,0.1025678321751569
7270,9.0,299.53741,-6189.1152,0.07269997001061812,0.0,0.0,0.0,0.0,0.011095043329230725,0.8586385104210231,0.47163526449927656,0.5510626935406535,-0.01108049272730949,-0.0036151068400582667,0.10612458320618089
7271,9.0,300.04008,-6488.6095,0.07270997968531567,0.0,0.0,0.0,0.0,0.011096570947116469,0.9101175024841042,0.49576539006573456,0.5664923850034455,-0.012485967888019088,-0.0032836834727993274,0.1197418032875959
7272,9.0,299.81062000000003,-6418.4681,0.07271995632478312,0.0,0.0,0.0,0.0,0.011098093523358998,0.8770041041810662,0.4933350286408765,0.5807149105620995,0.0014991602649555985,0.0011996872064749088,0.1199160316422909
7273,9.0,299.62896,-6105.9435,0.07272996599948067,0.0,0.0,0.0,0.0,0.011099621141244742,0.8310117094219701,0.4667819586402926,0.5582607006610415,0.012744536141287788,0.016908311121720383,0.11649787295994489
7274,9.0,300.03052,-6060.2388,0.072739975674178,0.0,0.0,0.0,0.0,0.011101148759130458,0.8211426027854651,0.4621504126981945,0.5588682555535025,0.015107134439208086,0.0031372886930512867,0.1045964095378619
7275,9.0,299.96182999999996,-6204.3766,0.07274995231364567,0.0,0.0,0.0,0.0,0.011102671335373016,0.8525810682757002,0.47251323557842556,0.5608812592621705,-0.0011787050260541289,-0.01171416414109799,0.1022121611250549
7276,9.0,300.28662,-6298.8398,0.072759961988343,0.0,0.0,0.0,0.0,0.011104198953258732,0.8725476782537512,0.47715724449675356,0.5649850842871865,-0.0009526145795657391,-0.01136848272373189,0.09872521390667
7277,9.0,300.35738,-6189.5101,0.07276997166304033,0.0,0.0,0.0,0.0,0.01110572657114442,0.8587023755748262,0.47126854902308457,0.5514855937348905,-0.009109174431730522,0.013667160139093686,0.09543416440961872
7278,9.0,300.74747,-6016.8374,0.07277998133773789,0.0,0.0,0.0,0.0,0.011107254189030163,0.8302061857249712,0.4615294727719126,0.5372326706732364,-0.02131780026465308,0.004833019173431856,0.1131746254144659
7279,9.0,300.39177,-6190.6315,0.07278995797720533,0.0,0.0,0.0,0.0,0.011108776765272693,0.8342213614987383,0.46945427405652956,0.5781217502436745,-0.014990447544441985,-0.0031963351333537168,0.10608601890737489
7280,9.0,300.67195,-6587.6703,0.07279996765190289,0.0,0.0,0.0,0.0,0.011110304383158437,0.8927261385627101,0.49978997893293053,0.6099711595769665,0.00975762105847722,0.004461724212087896,0.08919260762837501
7281,9.0,300.19336,-6487.9127,0.07280997732660022,0.0,0.0,0.0,0.0,0.011111832001044153,0.8874067680552292,0.48253041858454454,0.6022262608476044,0.024405928190677578,0.013918485680647588,0.090697000316847
7282,9.0,300.0107,-6115.8018,0.07281995396606789,0.0,0.0,0.0,0.0,0.01111335457728671,0.8678147262416451,0.45841256347679754,0.5328237357781085,0.01161710086101859,-0.008751646600820272,0.08505245454752373
7283,9.0,299.71072999999996,-6245.9708,0.07282996364076522,0.0,0.0,0.0,0.0,0.011114882195172426,0.8711200189953521,0.47733962951475356,0.5501595127990165,0.0047248205787284855,-0.01016131884609409,0.0931198383597125
7284,9.0,300.05809,-6491.7626,0.07283997331546277,0.0,0.0,0.0,0.0,0.011116409813058142,0.8951149466009671,0.4777747393726955,0.6004440349817124,0.00012107192709136888,0.002027949350293018,0.1032098477035189
7285,9.0,299.47502000000003,-6502.1394,0.07284994995493022,0.0,0.0,0.0,0.0,0.011117932389300672,0.8703263807220262,0.4952699208993356,0.6108917276903193,-0.0025206999666737176,0.012943977198221088,0.0930026154556435
7286,9.0,299.6708,-6251.142,0.07285995962962777,0.0,0.0,0.0,0.0,0.011119460007186416,0.8475941045960252,0.4860413504460465,0.5665556320746874,-0.016000857504411683,-0.006708671156844293,0.10925030777716589
7287,9.0,299.72379,-6059.821999999999,0.0728699693043251,0.0,0.0,0.0,0.0,0.011120987625072132,0.8310997203256562,0.4550688989418036,0.5558659549771985,-0.019814938597082183,-0.009032594306397652,0.09707456059276322
7288,9.0,299.75921,-6157.0156,0.07287997897902243,0.0,0.0,0.0,0.0,0.011122515242957848,0.8678689553869972,0.4763754916471006,0.5273345445538675,0.009137426174993751,0.0048843725123500345,0.12054984997734389
7289,9.0,300.29372,-6415.5762,0.0728899556184901,0.0,0.0,0.0,0.0,0.011124037819200405,0.8715724250325012,0.4985532565233755,0.5800492964389085,0.022287817009386278,0.01902082004320878,0.10118270307645531
7290,9.0,300.42273,-6323.9901,0.07289996529318743,0.0,0.0,0.0,0.0,0.011125565437086121,0.8655461403277532,0.4974577811777605,0.5593311487291864,0.01104535422709159,0.01074904443409809,0.1288000160015719
7291,9.0,299.96711,-6008.9041,0.07290997496788498,0.0,0.0,0.0,0.0,0.011127093054971837,0.8099248096033552,0.46842579480752655,0.5482061996537395,0.0032868311342349765,-0.01040326473147229,0.1035612833682029
7292,9.0,300.29536,-6017.9991,0.0729199516073522,0.0,0.0,0.0,0.0,0.011128615631214367,0.8338434901389452,0.4595031650894315,0.5359748017340945,-0.006383711717273295,0.002260313942725618,0.11451389886664189
7293,9.0,300.06226000000004,-6434.2781,0.07292996128204976,0.0,0.0,0.0,0.0,0.01113014324910011,0.9001934675596781,0.47691859370070055,0.5787478273479635,0.005480965862579215,-0.001104860574666249,0.07806455598112183
7294,9.0,299.97853,-6510.4914,0.07293997095674731,0.0,0.0,0.0,0.0,0.011131670866985827,0.9205650533376971,0.4784611859179425,0.5800005692415995,-0.013082513818143588,-0.014556231373088185,0.09871948195085431
7295,9.0,300.18529,-6167.9992,0.07294998063144464,0.0,0.0,0.0,0.0,0.01113319848487157,0.8493556196298732,0.46119721793162155,0.5643649042984795,-0.014895292214300885,-0.027633416508955875,0.09334575057550831
7296,9.0,300.30739,-6039.6876,0.07295995727091209,0.0,0.0,0.0,0.0,0.0111347210611141,0.8320063765151362,0.4590405961537795,0.5448672568642114,-0.003393646338576817,-0.006144483672638324,0.11331815229113089
7297,9.0,300.05203,-6259.223000000001,0.07296996694560964,0.0,0.0,0.0,0.0,0.011136248678999844,0.8504790505457472,0.45797217458583456,0.5941962639376054,0.018552860617024783,0.006513260808808795,0.09572137622996431
7298,9.0,299.8517,-6335.8727,0.07297997662030697,0.0,0.0,0.0,0.0,0.011137776296885532,0.8687956536634552,0.4772425905526766,0.5799088498425474,0.011579063452264591,0.0019628859269217582,0.1010578919423874
7299,9.0,299.1016,-6239.4885,0.07298995325977464,0.0,0.0,0.0,0.0,0.01113929887312809,0.8782636551153742,0.45815183396106557,0.5602332047632125,0.006348395492987853,-0.009892065465220852,0.08780777034570222
7300,9.0,298.37029,-6058.92,0.07299996293447197,0.0,0.0,0.0,0.0,0.011140826491013806,0.8625993354594261,0.44573876029849063,0.5334222828771805,0.0014880272808068585,0.013414017840110488,0.08805268100087302
7301,9.0,299.17879,-6088.5584,0.0730099726091693,0.0,0.0,0.0,0.0,0.011142354108899521,0.8464068287913501,0.4632381164155425,0.5411247770898575,0.001187986599620149,0.017814828495936682,0.0970363448519916
7302,9.0,299.42969,-6562.783,0.07301998228386686,0.0,0.0,0.0,0.0,0.011143881726785265,0.9019149085520712,0.4931711253047005,0.5998361355842174,0.0008259747317173592,0.014878483408391987,0.0957376885433242
7303,9.0,299.7431,-6761.8974,0.0730299589233343,0.0,0.0,0.0,0.0,0.011145404303027795,0.9101242709947722,0.5130439893834996,0.6322797249086504,-0.015565714209216383,-0.014903309049092086,0.1062977577807719
7304,9.0,300.40412000000003,-6350.3131,0.07303996859803186,0.0,0.0,0.0,0.0,0.011146931920913539,0.8737253281824762,0.4919426102209555,0.5646686868109604,0.001165791457504659,0.0006690977682273085,0.10489509540233989
7305,9.0,300.33176000000003,-5970.9091,0.07304997827272919,0.0,0.0,0.0,0.0,0.011148459538799227,0.8363008242814652,0.44550418276783965,0.5332022556179654,0.010334309009166891,-0.001113916700085019,0.10070167779023181
7306,9.0,300.43057000000005,-6078.611999999999,0.07305995491219686,0.0,0.0,0.0,0.0,0.011149982115041784,0.8545071047282853,0.45605252160887955,0.5371866589861954,0.024701441569092476,0.0051629650193949755,0.1109029592202699
7307,9.0,300.66306000000003,-6198.3998,0.07306996458689419,0.0,0.0,0.0,0.0,0.0111515097329275,0.8510465719267573,0.47198822003911056,0.5611239833236255,0.009038878483517851,-0.012897210639855588,0.11536548491318689
7308,9.0,299.95872,-6150.5634,0.07307997426159174,0.0,0.0,0.0,0.0,0.011153037350813244,0.8343030699868023,0.47225761284319756,0.5630570112019004,-0.0013933907347169585,0.005567556290950025,0.1312519292560569
7309,9.0,299.48759,-5991.4324,0.07308995090105919,0.0,0.0,0.0,0.0,0.011154559927055774,0.8115235358761372,0.4625534633229726,0.5471688342013594,-0.0019215271856649681,-0.0029889792759142868,0.11008778938231889
7310,9.0,300.32466,-6039.73,0.07309996057575674,0.0,0.0,0.0,0.0,0.011156087544941518,0.8324272704741753,0.46544312088565953,0.5380567267145645,-0.019215288068651283,0.004404979673362646,0.11475130336507189
7311,9.0,300.05883,-6475.5852,0.07310997025045407,0.0,0.0,0.0,0.0,0.011157615162827234,0.8967445972668012,0.49055539990654856,0.5811161981317035,-0.00996476575459581,-0.004934336077431056,0.09584202797237172
7312,9.0,299.50381,-6817.6819,0.0731199799251514,0.0,0.0,0.0,0.0,0.011159142780712922,0.9432403341455731,0.5174846390067575,0.6116800767981234,-0.0025726912478548575,0.010704033838155888,0.1000298190066745
7313,9.0,299.26707000000005,-6448.0941,0.07312995656461907,0.0,0.0,0.0,0.0,0.01116066535695548,0.8925950543972732,0.4788522396615365,0.5886123135640124,0.013627876432716686,0.014493654060162288,0.08093472063838503
7314,9.0,299.71481,-6040.8951,0.0731399662393164,0.0,0.0,0.0,0.0,0.011162192974841195,0.8372078857709851,0.45282587732793456,0.5462474960179304,0.00882974325757781,-0.010530853184064291,0.10122192497457622
7315,9.0,300.25291,-6203.7919,0.07314997591401395,0.0,0.0,0.0,0.0,0.011163720592726939,0.8489512619124662,0.45583478429489055,0.5810117928413995,0.017805148917731384,-0.012819472065683388,0.0909953366100405
7316,9.0,300.5693,-6411.585,0.0731599525534814,0.0,0.0,0.0,0.0,0.011165243168969469,0.9070069969296212,0.4673832820446385,0.5745714840132904,0.0025909399834808675,0.008906189836547502,0.08960862582793282
7317,9.0,300.37179,-6333.8845,0.07316996222817895,0.0,0.0,0.0,0.0,0.011166770786855212,0.8817492658568772,0.4745493819193775,0.5690440831277784,0.017304488871070084,0.00995493175707527,0.0903499581045966
7318,9.0,300.09734,-6069.6918,0.07317997190287628,0.0,0.0,0.0,0.0,0.0111682984047409,0.8588451425139162,0.44476981962536355,0.5414197848564725,-0.013834773997135888,0.0035153678704397963,0.0954580548204765
7319,9.0,300.12712999999997,-6152.0829,0.07318998157757384,0.0,0.0,0.0,0.0,0.011169826022626644,0.8344420068405142,0.4823772759644306,0.5532603012850404,-0.016380325746362286,-0.006260991222136724,0.10940055250199389
7320,9.0,300.12889,-6435.1537,0.07319995821704128,0.0,0.0,0.0,0.0,0.011171348598869174,0.8701140946935751,0.49935643961264353,0.5866555047058905,-0.004691820846821665,0.006541164804637703,0.1154033703344259
7321,9.0,300.24052,-6591.1703,0.07320996789173884,0.0,0.0,0.0,0.0,0.011172876216754918,0.8813817803106091,0.5093561440545376,0.6128132653124605,-0.002798751296840247,0.00932779256403145,0.09933471727907331
7322,9.0,299.59373,-6381.0827,0.07321997756643617,0.0,0.0,0.0,0.0,0.011174403834640634,0.8891721334394571,0.4804891553305875,0.5700285062624335,0.001159752182933629,-0.0009908319618025009,0.10121099909874791
7323,9.0,299.10478,-6028.14,0.07322995420590339,0.0,0.0,0.0,0.0,0.011175926410883164,0.8312368941241942,0.4605138617991795,0.5406532814208246,-0.003861965265896296,-0.013811968777135185,0.0989299177846227
7324,9.0,299.34087999999997,-6034.325,0.07323996388060094,0.0,0.0,0.0,0.0,0.011177454028768907,0.8363217174985272,0.4559279729065876,0.5420344324996335,0.0071976032388981325,0.004869476216004885,0.1093737317718469
7325,9.0,299.61542000000003,-6466.2407,0.0732499735552985,0.0,0.0,0.0,0.0,0.011178981646654595,0.8729415184351201,0.48779710008682553,0.6048370821152724,0.015314709867944185,0.0024026794321259978,0.1006479927601835
7326,9.0,299.8196,-6464.3117,0.07325995019476572,0.0,0.0,0.0,0.0,0.011180504222897153,0.8712966284877821,0.49053680676721356,0.6031558975493524,-0.008201944844018932,-0.012857366606173287,0.11603092678386089
7327,9.0,299.48915,-6127.6268,0.07326995986946327,0.0,0.0,0.0,0.0,0.011182031840782869,0.8333519219854312,0.47673320946240455,0.5525603987784654,-0.011179901681370388,-0.015597688329371985,0.12284652318400788
7328,9.0,299.55827,-6097.7655,0.07327996954416083,0.0,0.0,0.0,0.0,0.011183559458668613,0.8524424353970181,0.4690903247531105,0.5320356906453344,-0.013432552210939688,0.005140523860155205,0.1100762991261849
7329,9.0,299.82187999999996,-6372.1569,0.07328997921885816,0.0,0.0,0.0,0.0,0.011185087076554329,0.8826103663218612,0.4831032392635775,0.5712629589917644,0.008539137758672283,0.03022485835521127,0.09599572484029041
7330,9.0,299.9627,-6450.1707,0.0732999558583256,0.0,0.0,0.0,0.0,0.011186609652796858,0.900418642129401,0.4870583698364185,0.5732138403368015,-0.011284689980212188,0.004527281290907875,0.08767311143391242
7331,9.0,300.13176,-6262.4061,0.07330996553302316,0.0,0.0,0.0,0.0,0.011188137270682602,0.8637441763499133,0.47161178749445953,0.5682591284078095,-0.01163356516189349,-0.007343959211167343,0.08920978931032073
7332,9.0,300.04593,-6088.6751,0.07331997520772071,0.0,0.0,0.0,0.0,0.011189664888568318,0.8361854150950753,0.45344193338873456,0.5611778578314425,0.001876010775272848,-0.006084066608925624,0.08371306457158623
7333,9.0,300.24365,-6157.5158,0.07332995184718794,0.0,0.0,0.0,0.0,0.011191187464810848,0.8541711616576302,0.4513697761392285,0.5661901122336135,0.014187149957912686,0.0001069084132185389,0.09125076074824891
7334,9.0,300.55226,-6542.7147,0.07333996152188549,0.0,0.0,0.0,0.0,0.011192715082696564,0.9030328071223991,0.4833934340922176,0.6023956458668215,-0.00098238884256173,-0.014672719670834685,0.07489578347963834
7335,9.0,300.41247999999996,-6568.3086,0.07334997119658304,0.0,0.0,0.0,0.0,0.011194242700582308,0.9060388871215761,0.49358447055049454,0.5969784460621854,-0.004977274475593745,-0.016665067262964087,0.099434438314165
7336,9.0,299.38091000000003,-6193.0419,0.07335998087128037,0.0,0.0,0.0,0.0,0.011195770318468024,0.8632611093647382,0.4612645382682656,0.5580044699757535,0.00017567175985995284,0.013115744368423186,0.08110195554088982
7337,9.0,299.84357,-6010.8044,0.07336995751074782,0.0,0.0,0.0,0.0,0.011197292894710553,0.8237609626338772,0.4691151189830576,0.5342583560646945,0.0026085202780159076,0.011300864491558489,0.1181178572198249
7338,9.0,299.28581,-6366.1788,0.07337996718544537,0.0,0.0,0.0,0.0,0.011198820512596297,0.8585309133929041,0.4987166836320045,0.5779117946904534,0.0036971483834301365,0.002010474839068418,0.10012188595051082
7339,9.0,299.50935,-6486.6713,0.07338997686014292,0.0,0.0,0.0,0.0,0.011200348130482013,0.8783391321153232,0.5124443479743195,0.5810026026629924,-0.008247074395522871,-0.014218437094500488,0.1321654958112189
7340,9.0,300.12542,-6154.5452,0.07339995349961015,0.0,0.0,0.0,0.0,0.011201870706724543,0.8464560220837052,0.47977990052558955,0.5445921290645585,0.014284402715760786,0.005636432371797564,0.10687780293301789
7341,9.0,300.32297,-5885.3843,0.0734099631743077,0.0,0.0,0.0,0.0,0.011203398324610259,0.8201012451276912,0.45085951352136955,0.5180491003724655,0.003948805156441726,0.007153804692725554,0.12416337341147088
7342,9.0,300.06313,-6065.3403,0.07341997284900526,0.0,0.0,0.0,0.0,0.011204925942496002,0.8365987603408691,0.4641118521092735,0.5430013872025645,-0.0029223680116902675,0.0003466687079985377,0.09545667072083991
7343,9.0,300.18141,-6397.4899,0.07342998252370281,0.0,0.0,0.0,0.0,0.011206453560381746,0.8677220442549982,0.49867032743992945,0.5782848328472694,-0.005348780395608525,-0.0012521348555010888,0.12110636746226787
7344,9.0,300.14452,-6529.3947,0.07343995916317003,0.0,0.0,0.0,0.0,0.011207976136624248,0.8842449211181793,0.49433611973967656,0.6061919089564834,-0.002243855316051278,0.011166955384842688,0.0958712875955094
7345,9.0,300.39113,-6208.0535,0.07344996883786759,0.0,0.0,0.0,0.0,0.011209503754509992,0.8574394505176851,0.46897167316640054,0.5606821049550155,0.002772006155150708,0.005994010763887805,0.1120130253673249
7346,9.0,300.52029,-6016.3819,0.07345997851256514,0.0,0.0,0.0,0.0,0.011211031372395708,0.8321948916962413,0.45706921675921963,0.5395657600884946,-0.004109849708785586,-0.014402301457646486,0.09718663213332382
7347,9.0,299.68677,-6304.6457,0.07346995515203258,0.0,0.0,0.0,0.0,0.011212553948638265,0.8810173243821401,0.4757617559290296,0.5596757753531985,-0.004001570358049246,-0.003512717309503207,0.1066751630455189
7348,9.0,299.93591000000004,-6575.901,0.07347996482672992,0.0,0.0,0.0,0.0,0.011214081566523953,0.9173509226954871,0.4922274753540695,0.5893313158349724,0.018784737836159283,0.004576984653363215,0.08147100453206213
7349,9.0,300.00927,-6353.125,0.07348997450142747,0.0,0.0,0.0,0.0,0.011215609184409697,0.8784340128546873,0.47025149923520954,0.5825058503788514,0.006023875196010194,0.00980816673574069,0.08955850034548582
7350,9.0,299.84114,-6109.736999999999,0.07349995114089491,0.0,0.0,0.0,0.0,0.011217131760652227,0.8480872736846973,0.45034627194821664,0.5587739523666955,0.00022985956460787275,-0.020674252702139878,0.08591947948584241
7351,9.0,299.78542999999996,-6215.7377,0.07350996081559225,0.0,0.0,0.0,0.0,0.011218659378537943,0.8622357711910452,0.4627180658017176,0.5644752168368665,-0.004863528944542935,-0.010279382747746089,0.0941748181518309
7352,9.0,299.92192,-6522.1548,0.0735199704902898,0.0,0.0,0.0,0.0,0.011220186996423687,0.9021140729917272,0.4828371800523195,0.5976209580830965,0.015476175324379587,0.016923790543498084,0.08603241938173872
7353,9.0,300.03578,-6621.0829,0.07352998016498735,0.0,0.0,0.0,0.0,0.011221714614309403,0.9045283642699992,0.5037554345242905,0.6043600743656954,0.009039979278426492,0.013080086070903987,0.09415909960302961
7354,9.0,300.3307,-6262.985,0.0735399568044548,0.0,0.0,0.0,0.0,0.01122323719055196,0.8757067488855271,0.46793278783887055,0.5601515064076495,-0.0041964144006038555,-0.009030687268384442,0.0930526355600801
7355,9.0,300.10708999999997,-6033.1859,0.07354996647915213,0.0,0.0,0.0,0.0,0.011224764808437648,0.8119186628851333,0.4713667025602716,0.5506524995026705,-0.008689417237978711,0.000981188759275791,0.11612643573828689
7356,9.0,299.96122,-6136.2944,0.07355997615384968,0.0,0.0,0.0,0.0,0.01122629242632342,0.8463060610689053,0.46098146658782857,0.5579927466720965,0.007685324689732492,0.01976730368338098,0.10842525875073988
7357,9.0,300.58717,-6448.8693,0.0735699527933169,0.0,0.0,0.0,0.0,0.011227815002565922,0.8723161911359051,0.4964820314639615,0.5914970163337104,0.0016656351285603886,0.017830928026775585,0.1092430326414479
7358,9.0,300.28779,-6278.5729,0.07357996246801446,0.0,0.0,0.0,0.0,0.011229342620451666,0.8701475319468751,0.47446443103099356,0.5639174125243155,-0.01045332941891329,-0.025253307222807376,0.10515083972757991
7359,9.0,300.5795,-5907.0321,0.07358997214271201,0.0,0.0,0.0,0.0,0.011230870238337382,0.8189406785956522,0.4497648285108326,0.5268847729669786,-0.0035570549047289866,-0.006958586760884043,0.12141327078505688
7360,9.0,301.06337,-6008.3307,0.07359998181740957,0.0,0.0,0.0,0.0,0.011232397856223097,0.8377509979570861,0.4461908015656036,0.5424407153922305,0.012593515266883189,0.009352757323970281,0.1032656473865259
7361,9.0,300.31428999999997,-6435.2199,0.07360995845687679,0.0,0.0,0.0,0.0,0.011233920432465655,0.8754913521792691,0.4876325685355875,0.5930222515767394,0.026838478235751573,0.01073106633757379,0.1067152472194749
7362,9.0,300.05521,-6466.003000000001,0.07361996813157412,0.0,0.0,0.0,0.0,0.011235448050351343,0.9046080665228651,0.4776042499108696,0.5832911496038545,-0.0048064523637599155,-0.01946346341564428,0.097284210144454
7363,9.0,300.25889,-6245.6194,0.0736299778062719,0.0,0.0,0.0,0.0,0.011236975668237115,0.8566136516861852,0.47104435730595856,0.5708543354914364,-0.003504293756121867,-0.016117925381215384,0.1010169596780977
7364,9.0,299.4501,-6107.4419,0.07363995444573912,0.0,0.0,0.0,0.0,0.011238498244479617,0.8566498956422622,0.45843815817432354,0.5414217708266685,-0.0012894760601113789,0.010589245774077188,0.0868519401156191
7365,9.0,300.01963,-6240.4018,0.07364996412043667,0.0,0.0,0.0,0.0,0.01124002586236536,0.8800829963324293,0.45446184054189154,0.5623814874927314,-0.0034742142110032463,0.00989155235537021,0.07728476984991293
7366,9.0,300.34148,-6569.1978,0.073659973795134,0.0,0.0,0.0,0.0,0.011241553480251076,0.9024339965783011,0.4930349546237615,0.6014031369963685,1.073840632129819e-05,-0.01792385116694638,0.0902160013751261
7367,9.0,300.19257000000005,-6484.0022,0.07366995043460167,0.0,0.0,0.0,0.0,0.011243076056493634,0.8961859215591641,0.4834313397784586,0.5913574917949405,-0.01899981435538568,0.0002108264112844468,0.09280078718147461
7368,9.0,300.11587000000003,-6144.3106,0.073679960109299,0.0,0.0,0.0,0.0,0.01124460367437935,0.8587793116549192,0.46331702833333055,0.5456206488435655,0.008628356355152472,0.014021209989035686,0.1013160589486165
7369,9.0,299.8982,-6059.9819,0.07368996978399656,0.0,0.0,0.0,0.0,0.011246131292265066,0.8339521713446711,0.46576478726240556,0.5423662111123775,-0.0009648029852836411,0.012305550601713289,0.1000354790217331
7370,9.0,299.49276000000003,-6347.1543,0.07369997945869411,0.0,0.0,0.0,0.0,0.01124765891015081,0.8766646451325641,0.47902723808630754,0.5736845254057544,0.005725536774991484,-0.012300792379243688,0.09687453489052222
7371,9.0,300.68467000000004,-6371.7297,0.07370995609816156,0.0,0.0,0.0,0.0,0.01124918148639334,0.8737720390120861,0.48980573668756255,0.5732689712747424,0.006250258167802454,-0.00903546970753143,0.11420911323656188
7372,9.0,300.55516,-6090.9755,0.07371996577285889,0.0,0.0,0.0,0.0,0.011250709104279055,0.8234513235358182,0.46990029661804855,0.5581528503203974,0.015509783816946485,0.009564136189606751,0.1125562794084399
7373,9.0,300.44669,-5999.4287,0.07372997544755622,0.0,0.0,0.0,0.0,0.011252236722164771,0.8234200749027343,0.4570462058494486,0.5432102281806755,-0.0035525711717114762,-0.0008654921746274274,0.11837044020475289
7374,9.0,300.77355,-6171.7686,0.07373995208702389,0.0,0.0,0.0,0.0,0.011253759298407329,0.8438414619231682,0.4770046794291966,0.5552174141181925,-0.0025275377836485578,-0.025209114319695875,0.1094186795462829
7375,9.0,300.62762000000004,-6480.5239,0.07374996176172122,0.0,0.0,0.0,0.0,0.011255286916293045,0.8889831724283083,0.5007872500788535,0.5801470244110535,-0.01664050405403988,-0.006542796137298703,0.11549196892316989
7376,9.0,300.3339,-6538.443,0.07375997143641877,0.0,0.0,0.0,0.0,0.01125681453417876,0.8944591508712451,0.5065753500825946,0.5864889061244485,0.012243033070543289,0.014009399545870087,0.09629240953582091
7377,9.0,300.47945,-6222.9681,0.07376998111111632,0.0,0.0,0.0,0.0,0.011258342152064504,0.8705785482744132,0.4686703021891575,0.5523780644229704,-0.00980611226983793,0.015813415355162584,0.09319058652144482
7378,9.0,299.61912,-6178.4591,0.07377995775058377,0.0,0.0,0.0,0.0,0.011259864728307034,0.8472773220847611,0.47064699101424157,0.5601729873097695,0.005148463586613795,-0.004853400597868346,0.08921328400991561
7379,9.0,299.68388,-6351.2202,0.0737899674252811,0.0,0.0,0.0,0.0,0.01126139234619275,0.8731644435896212,0.4801738926944735,0.5772740044150084,-0.0029781796510484474,0.0053758577820058545,0.09787368257563041
7380,9.0,300.27064,-6499.7384,0.07379997709997865,0.0,0.0,0.0,0.0,0.011262919964078494,0.8957493627535792,0.49908446302080156,0.5809243696227715,0.009531945537904781,0.026473295806960877,0.100520064868808
7381,9.0,299.96089,-6315.8749,0.0738099537394461,0.0,0.0,0.0,0.0,0.011264442540321024,0.8850520660153381,0.4621845693590656,0.5726316369618425,-0.012862891858968589,0.006878973876676863,0.09656947568291521
7382,9.0,300.19786,-6081.433000000001,0.07381996341414365,0.0,0.0,0.0,0.0,0.011265970158206767,0.859193670150813,0.45888939897385755,0.5305207196258185,-0.007918358027231093,-0.017216000726586984,0.1061014203088949
7383,9.0,300.63077999999996,-6172.7203,0.07382997308884098,0.0,0.0,0.0,0.0,0.011267497776092456,0.8479414365978043,0.46088235046304654,0.5675290513132565,-0.010226850796311589,-0.008123029278530572,0.08066859049962001
7384,9.0,299.84698,-6443.727,0.07383994972830843,0.0,0.0,0.0,0.0,0.011269020352335013,0.8754000380802571,0.48904206021969354,0.5942900301018594,0.013880471576645886,0.007725464896419023,0.1003031442343996
7385,9.0,299.33322999999996,-6531.953,0.07384995940300598,0.0,0.0,0.0,0.0,0.011270547970220729,0.8786805771340213,0.5042224212303785,0.6026476209016894,0.003072688730275767,0.0074392795997497325,0.08601098407587322
7386,9.0,299.52402,-6277.7618,0.07385996907770331,0.0,0.0,0.0,0.0,0.011272075588106445,0.8719760126798322,0.47339335474778654,0.5629134741927345,-0.003815402776100936,-0.02364896045172068,0.11017678313860191
7387,9.0,299.04031000000003,-6078.054,0.07386997875240087,0.0,0.0,0.0,0.0,0.011273603205992189,0.8436338571101792,0.46612535231049057,0.5378174173059465,0.004747727326389206,0.004894468637671445,0.09481877304088432
7388,9.0,299.13853,-6202.6515,0.07387995539186831,0.0,0.0,0.0,0.0,0.011275125782234718,0.8638808333909002,0.46955488979145954,0.5520154424771825,0.016010303021843884,0.028120640859291175,0.11267463715262088
7389,9.0,299.59471,-6428.3169,0.07388996506656564,0.0,0.0,0.0,0.0,0.011276653400120462,0.8792452918122542,0.4846164472279196,0.5901860733543305,0.004296459574402546,0.016257985929288284,0.08236253391079922
7390,9.0,299.72389,-6277.3067,0.0738999747412632,0.0,0.0,0.0,0.0,0.01127818101800615,0.8545493471249542,0.4820796236150546,0.5715155318441915,-0.014722798543777088,-0.009523973083467962,0.11205683830164889
7391,9.0,299.80938,-6095.7032,0.07390995138073064,0.0,0.0,0.0,0.0,0.011279703594248708,0.8176612274293803,0.4729551747420416,0.5623251406546704,-0.011145621403987189,-0.006249589828036493,0.11094440114935991
7392,9.0,300.12045,-6173.619000000001,0.07391996105542797,0.0,0.0,0.0,0.0,0.011281231212134424,0.8447647354142883,0.4819378192635595,0.5499234660557205,0.007932361042288083,0.01677531697984488,0.12876267773538688
7393,9.0,299.67332000000005,-6479.955,0.07392997073012553,0.0,0.0,0.0,0.0,0.011282758830020168,0.8892544904075851,0.49548017029508556,0.5850098649534784,0.004008851573267846,0.0007030798055760744,0.11083178853324589
7394,9.0,300.08597000000003,-6477.8526,0.07393998040482286,0.0,0.0,0.0,0.0,0.011284286447905884,0.8914813304173572,0.5000565346367375,0.5775675733664815,-0.0037476398518132563,-0.012864340806611588,0.10864045280697789
7395,9.0,300.11015,-6170.0863,0.07394995704429053,0.0,0.0,0.0,0.0,0.011285809024148441,0.8500857068569273,0.4628350759232656,0.5626313853648944,0.005508327870929634,-0.0022426890651861776,0.08886861280289923
7396,9.0,299.79825,-6135.9486,0.07395996671898786,0.0,0.0,0.0,0.0,0.01128733664203413,0.8485948005272862,0.45976437083271054,0.5568159681384575,0.01156023929190679,0.006043181663415594,0.09124253619718721
7397,9.0,299.18466,-6375.5201,0.07396997639368519,0.0,0.0,0.0,0.0,0.011288864259919845,0.8635207547028633,0.4750234613761656,0.5994547077165734,0.0047663799435050756,-0.015694008897128086,0.08287173261605321
7398,9.0,299.63201000000004,-6512.638000000001,0.07397995303315286,0.0,0.0,0.0,0.0,0.011290386836162403,0.9101921080889672,0.49370699275258656,0.5757802305875844,-0.01007477381132776,-0.027763803558324075,0.10191217830044891
7399,9.0,299.76651,-6481.7432,0.07398996270785019,0.0,0.0,0.0,0.0,0.011291914454048119,0.9047514515445161,0.48802853654216655,0.5775080854531104,0.0013992726515474586,-0.007442861236203213,0.09562045044050373
7400,9.0,299.48727,-6273.1291,0.07399997238254774,0.0,0.0,0.0,0.0,0.011293442071933862,0.8668914426180242,0.4750723608259915,0.5649107927898545,0.0001897076954126918,0.014694541024988286,0.11060609720597189
7401,9.0,299.38282999999996,-6201.6843,0.07400998205724507,0.0,0.0,0.0,0.0,0.011294969689819578,0.8453291663824932,0.47023170032825556,0.5695963246972805,0.0031337441415514667,0.01085757466555919,0.09525453948489111
7402,9.0,299.65477000000004,-6425.7308,0.07401995869671274,0.0,0.0,0.0,0.0,0.011296492266062136,0.8733116992266541,0.4880773751969865,0.5918726484107825,-0.009618261983448551,-0.006245770787084584,0.1103104510917939
7403,9.0,300.74376,-6489.289000000001,0.07402996837141007,0.0,0.0,0.0,0.0,0.011298019883947824,0.8827793663060403,0.5023744556979985,0.5874279863171284,0.007958497119342512,0.003571157319620786,0.10295005037787891
7404,9.0,299.9479,-6239.7714,0.07403997804610762,0.0,0.0,0.0,0.0,0.011299547501833568,0.8645745044093602,0.4742362471084735,0.5579239368578055,0.010170653919265391,0.011903463577780387,0.11677718548251088
7405,9.0,300.50007,-6059.7054,0.07404995468557507,0.0,0.0,0.0,0.0,0.011301070078076098,0.8557383961173042,0.4551969940194455,0.5310637304869095,0.0007811516579711663,-0.014136359783400089,0.100477893399646
7406,9.0,299.68107000000003,-6320.9799,0.07405996436027262,0.0,0.0,0.0,0.0,0.011302597695961841,0.8573491091387693,0.4887259059234915,0.5753450295371334,0.0005226760765566125,-0.023848559575669576,0.10891653306172489
7407,9.0,300.33122000000003,-6442.177,0.07406997403496995,0.0,0.0,0.0,0.0,0.011304125313847557,0.8749365774845173,0.49220388689174155,0.5911204723315485,0.006794815248546054,-0.004018946786664166,0.1043956137655449
7408,9.0,299.94062,-6378.8328,0.07407995067443762,0.0,0.0,0.0,0.0,0.011305647890090115,0.8450461453645612,0.5045744141826175,0.5893853321978034,0.014703179995340885,0.02229368271421518,0.1004693506880529
7409,9.0,300.35004,-6267.7519999999995,0.07408996034913495,0.0,0.0,0.0,0.0,0.01130717550797583,0.8621886347963932,0.4732784015239415,0.5697730659122234,-0.007009151892549433,-0.004667093795356295,0.1103911159322549
7410,9.0,299.39513,-6209.1573,0.07409997002383228,0.0,0.0,0.0,0.0,0.011308703125861519,0.8594696085505462,0.46959516648293453,0.5583640015087364,-0.005451483729719556,-0.004096000606418786,0.1062763376736579
7411,9.0,299.64313,-6273.3745,0.07410997969852984,0.0,0.0,0.0,0.0,0.011310230743747263,0.8779237705018302,0.46801329055931556,0.5610121407775874,-0.0034503461929726565,0.0018500051035062882,0.11387320056340991
7412,9.0,299.37866,-6482.7249,0.07411995633799728,0.0,0.0,0.0,0.0,0.011311753319989792,0.8969380165783901,0.4857688672291545,0.5878796121517005,0.01169956624690729,0.02075152822101638,0.09019788142358783
7413,9.0,300.0669,-6321.5842,0.07412996601269484,0.0,0.0,0.0,0.0,0.011313280937875536,0.8854647830460701,0.45440266673605156,0.5817363173254044,-0.01071712806919819,-0.014872576160308987,0.08488733936422813
7414,9.0,300.19442000000004,-6194.215999999999,0.07413997568739217,0.0,0.0,0.0,0.0,0.011314808555761252,0.8537901593550281,0.46849944795729553,0.5605973871141545,-0.018231256048534882,-0.02131159106804028,0.08270163528201592
7415,9.0,299.96341,-6376.2201,0.07414995232685984,0.0,0.0,0.0,0.0,0.01131633113200381,0.8868184345171651,0.47621362494362557,0.5751796367233105,0.0019319269820413482,-0.002367542654433268,0.0924381500369351
7416,9.0,299.76499,-6560.9377,0.07415996200155717,0.0,0.0,0.0,0.0,0.011317858749889526,0.9019704549225531,0.5060679043000136,0.5863228648305614,0.005072314193898435,0.026676546684270174,0.1020548945770339
7417,9.0,300.01124,-6459.7731,0.07416997167625472,0.0,0.0,0.0,0.0,0.011319386367775242,0.8906776609680412,0.4897481435518785,0.5831839274782724,-0.00046613322526376747,-0.001080783928440069,0.1043590557019369
7418,9.0,300.01186,-6259.4832,0.07417998135095205,0.0,0.0,0.0,0.0,0.011320913985660958,0.8609389731830612,0.4697069482339666,0.5720806923524685,-0.005130411725482215,-0.013368687057136687,0.1131201632215909
7419,9.0,300.38702,-6174.8195,0.0741899579904195,0.0,0.0,0.0,0.0,0.011322436561903515,0.8454569574851052,0.4764850239829106,0.5550489612890674,0.01019917893608059,0.0016679283161867085,0.10647363773312991
7420,9.0,299.65871,-6214.6663,0.07419996766511705,0.0,0.0,0.0,0.0,0.011323964179789231,0.8416089679778382,0.47958529571138353,0.5679091214257664,0.015223803095472383,0.016933876434993483,0.10907080038944988
7421,9.0,300.70451,-6267.7229,0.07420997733981438,0.0,0.0,0.0,0.0,0.011325491797674947,0.8538190369828781,0.48457619080144654,0.5668360389073615,0.0035894081830720064,-0.01952561009727768,0.1037095218578329
7422,9.0,300.88867,-6252.1689,0.07421995397928183,0.0,0.0,0.0,0.0,0.011327014373917504,0.8609794930545601,0.4846793396616265,0.5548443860938775,-0.0060281174715288745,-0.013409128908377987,0.1179610871643529
7423,9.0,300.43014,-6142.4993,0.07422996365397916,0.0,0.0,0.0,0.0,0.01132854199180322,0.8474595956452503,0.4683681206118346,0.5513386826028915,-0.0003028535850543217,0.003092976834378047,0.10663986141203491
7424,9.0,299.62761,-6222.3425,0.07423997332867671,0.0,0.0,0.0,0.0,0.011330069609688936,0.8435809553224581,0.49110965784374955,0.5567461248090645,-0.003570900967345487,0.03098364285159747,0.1081984224508529
7425,9.0,299.88417000000004,-6479.2359,0.07424994996814416,0.0,0.0,0.0,0.0,0.011331592185931494,0.8666935852709972,0.49310542616821657,0.6097269055078605,-0.002259091355154958,0.002958296948311177,0.0949165942320385
7426,9.0,299.59881,-6496.5638,0.07425995964284171,0.0,0.0,0.0,0.0,0.01133311980381721,0.8886093236714121,0.4846497122287025,0.6015341502342985,-0.016823489929349185,-0.008169415057508492,0.1068912791593479
7427,9.0,300.48351,-6243.2212,0.07426996931753904,0.0,0.0,0.0,0.0,0.011334647421702926,0.8608208180889002,0.48089003760015153,0.5560724756125804,-0.003983340468875096,0.007059925753735424,0.1048949028848209
7428,9.0,300.10056000000003,-6198.1373,0.0742799789922366,0.0,0.0,0.0,0.0,0.01133617503958867,0.8733759899454991,0.4627845451407786,0.5479184264928385,-0.0015759091977551286,0.017040501756266584,0.1094441121237929
7429,9.0,299.63811,-6397.8123,0.07428995563170404,0.0,0.0,0.0,0.0,0.0113376976158312,0.8810929533696041,0.4864504197764185,0.5772318126808444,0.005214616557817586,-0.005807686330824014,0.0870938282457416
7430,9.0,299.95409,-6407.3330000000005,0.0742999653064016,0.0,0.0,0.0,0.0,0.011339225233716943,0.8839547161570382,0.48306552609485554,0.5806490087755954,-0.009360726434681771,-0.023968622619768877,0.09994668994197031
7431,9.0,299.88914,-6357.2104,0.07430997498109893,0.0,0.0,0.0,0.0,0.011340752851602631,0.8788175685475411,0.4655263087188695,0.5880893346573984,0.017226251777848683,-0.005494437326633745,0.08387872488343562
7432,9.0,299.81432,-6265.2031,0.07431995162056637,0.0,0.0,0.0,0.0,0.011342275427845189,0.8788611788318452,0.47310114355144756,0.5525029778952986,-0.004212340463025636,0.015386538154283088,0.1003955455507689
7433,9.0,300.04105,-6308.4306,0.07432996129526392,0.0,0.0,0.0,0.0,0.011343803045730905,0.8817982767642142,0.4713178639054515,0.5644892300857495,-0.01111880776659089,-0.0060818560011824535,0.09089283521667442
7434,9.0,300.45569,-6526.1042,0.07433997096996126,0.0,0.0,0.0,0.0,0.01134533066361662,0.9047621818630751,0.4945924112199705,0.5844181370275795,-0.02300688716810298,-0.006703984064531714,0.11404820912068188
7435,9.0,300.14327000000003,-6589.5069,0.07434998064465881,0.0,0.0,0.0,0.0,0.011346858281502364,0.8938755796086512,0.5115622934972676,0.5976076946392874,0.0013450380346449187,0.008209532466067771,0.1064011092909719
7436,9.0,300.643,-6187.5617,0.07435995728412625,0.0,0.0,0.0,0.0,0.011348380857744894,0.8307439580830451,0.4713464172932696,0.5787738780080345,0.0064301878781601336,0.02282456193185888,0.10365987260293291
7437,9.0,300.53141,-6105.4185,0.07436996695882381,0.0,0.0,0.0,0.0,0.011349908475630638,0.8262817870276633,0.4696673605525595,0.5599456342523315,0.0045442297226805555,-0.016118062169978884,0.097170523483234
7438,9.0,300.00976,-6310.0419999999995,0.07437997663352114,0.0,0.0,0.0,0.0,0.011351436093516326,0.8585982742595522,0.49147838968764057,0.5680185423040655,-0.003923565299100746,-0.022410073739952078,0.1140854156643539
7439,9.0,299.89137,-6280.6187,0.07438995327298858,0.0,0.0,0.0,0.0,0.011352958669758884,0.8745931566281242,0.4776035406357995,0.5569545706196365,0.004505957645203396,-0.004694198235531296,0.1127616854687119
7440,9.0,299.99857000000003,-6198.3825,0.07439996294768614,0.0,0.0,0.0,0.0,0.0113544862876446,0.8536485880510561,0.49571153582291955,0.5347933926474985,0.012030286013296788,0.01915910943010688,0.12860127712695787
7441,9.0,299.9176,-6267.0596,0.07440997262238369,0.0,0.0,0.0,0.0,0.011356013905530343,0.8486856080012483,0.48269204210799554,0.5736519899450434,-0.001331708425604389,-0.0008319767389497111,0.1065950149626089
7442,9.0,300.24509,-6317.7243,0.07441994926185092,0.0,0.0,0.0,0.0,0.011357536481772845,0.8494900171231372,0.4859052506926145,0.5850351658084755,-0.01030977822424589,-0.0054493131453553344,0.09836577660594631
7443,9.0,300.3978,-6393.3436,0.07442995893654847,0.0,0.0,0.0,0.0,0.011359064099658589,0.8607533761622442,0.4896898208761225,0.5929736257044405,0.006105244751915744,0.007404782486845133,0.09639564857525981
7444,9.0,299.90044,-6448.8349,0.07443996861124602,0.0,0.0,0.0,0.0,0.011360591717544333,0.8889595839659801,0.4826766103089725,0.5886485879175924,0.00986490813339063,0.014906577793914685,0.09159103343658123
7445,9.0,299.86589,-6309.3259,0.07444997828594335,0.0,0.0,0.0,0.0,0.011362119335430021,0.8990939290811621,0.4687647877609825,0.5500188128901304,-0.007867573628244062,-0.013059231357345788,0.10461363478956191
7446,9.0,300.3913,-6289.4511,0.0744599549254108,0.0,0.0,0.0,0.0,0.011363641911672578,0.8840939569857802,0.4774774517933556,0.5502646780268955,-0.0076568111226434235,-0.027547748239501076,0.0996735035295089
7447,9.0,300.68244,-6421.0086,0.07446996460010835,0.0,0.0,0.0,0.0,0.011365169529558294,0.8882827126341782,0.48040065806685356,0.5831429313792265,0.005191427113378965,-0.0002897047398316317,0.10005518065667751
7448,9.0,300.69291,-6476.2188,0.0744799742748059,0.0,0.0,0.0,0.0,0.011366697147444038,0.8783767135615321,0.48723230434858456,0.6029998063714475,0.012793789215398688,0.02031112818430228,0.08313692955147611
7449,9.0,300.40965,-6266.6897,0.07448995091427313,0.0,0.0,0.0,0.0,0.01136821972368654,0.8524639365641402,0.4720264803628866,0.5804267726311624,0.0038909182795537362,0.0008806448739103822,0.08726374319476092
7450,9.0,299.71182000000005,-6241.6733,0.07449996058897068,0.0,0.0,0.0,0.0,0.011369747341572284,0.8515048446819852,0.4862100869851996,0.5595978868180115,-0.014902373819249786,-0.008348647246497332,0.10359176193121089
7451,9.0,300.0912,-6404.3172,0.07450997026366823,0.0,0.0,0.0,0.0,0.011371274959458028,0.9013648252052822,0.4879395225208816,0.5574481754058516,0.002203865273029568,0.009127636760477611,0.10217472153385991
7452,9.0,300.11146,-6438.9788,0.07451997993836579,0.0,0.0,0.0,0.0,0.011372802577343744,0.8910491285872022,0.4935761821646765,0.5726634732799845,0.014604345554086686,0.02122034992303548,0.12045629659561087
7453,9.0,299.87522,-6334.6446,0.07452995657783301,0.0,0.0,0.0,0.0,0.011374325153586273,0.8574689867581002,0.49993871391510947,0.5681660715186255,-0.002871234041418737,-0.006174029133629234,0.1151696135363559
7454,9.0,299.44585,-6222.3224,0.07453996625253057,0.0,0.0,0.0,0.0,0.011375852771472017,0.8360183200210842,0.47303390427481157,0.5823784037812735,-0.012578084481110289,-0.011590897200182488,0.11401339384724589
7455,9.0,300.18531,-6142.4807,0.0745499759272279,0.0,0.0,0.0,0.0,0.011377380389357733,0.8242056679702663,0.4712850143372095,0.5716700930144455,-0.0008715412270619222,0.01029128134367039,0.099645934007538
7456,9.0,299.73848,-6256.8157,0.07455995256669534,0.0,0.0,0.0,0.0,0.011378902965600263,0.8513625843679451,0.48399435219652354,0.5665588238125024,0.014506046108885288,0.02836476016613387,0.11057371373277589
7457,9.0,300.34207000000004,-6467.9281,0.07456996224139267,0.0,0.0,0.0,0.0,0.011380430583485979,0.8951307026400221,0.49095010135050254,0.5800078241123154,-0.0017176843676472483,0.0006270554783205574,0.1074863710755789
7458,9.0,300.02848,-6402.1896,0.07457997191609023,0.0,0.0,0.0,0.0,0.011381958201371722,0.8848337916787961,0.5016722835111995,0.5595996904031895,0.01193020932741999,-0.019019095491538584,0.1184453295196439
7459,9.0,299.58557,-6229.2387,0.07458998159078778,0.0,0.0,0.0,0.0,0.011383485819257438,0.8583683070168562,0.47862215082882853,0.5565425425989724,0.014049389487566786,-0.0014855989256171986,0.11970257024372388
7460,9.0,299.31131,-6273.2147,0.074599958230255,0.0,0.0,0.0,0.0,0.011385008395499968,0.8586611058982532,0.4757965712024656,0.5724429292632185,0.026961460453388975,0.008538194321504173,0.09848807994601672
7461,9.0,299.54829,-6447.3907,0.07460996790495278,0.0,0.0,0.0,0.0,0.011386536013385712,0.8764437262132612,0.4855186451169595,0.5978834101239985,-0.0014750417715002886,-0.013829738144138886,0.07797947033047452
7462,9.0,299.5303,-6447.7598,0.07461997757965011,0.0,0.0,0.0,0.0,0.011388063631271428,0.9009818065349812,0.4747861987327495,0.5841899733700614,-0.015004335150312588,-0.013612330136432385,0.08624825482529001
7463,9.0,300.17167,-6389.1076,0.07462995421911756,0.0,0.0,0.0,0.0,0.011389586207513958,0.897296666583786,0.47452647233461653,0.5703060253323224,-0.012048913603135187,0.009017878064595272,0.08925956015523272
7464,9.0,299.76511,-6425.1366,0.07463996389381489,0.0,0.0,0.0,0.0,0.011391113825399674,0.900873449569287,0.4775349030740256,0.5746727279632825,0.001094408393259699,0.019776178741006883,0.1021493092213519
7465,9.0,300.15328,-6416.353,0.07464997356851266,0.0,0.0,0.0,0.0,0.011392641443285445,0.8757878392910302,0.47448921512843956,0.6001340412461185,0.0008181220738398621,0.002448183683516918,0.0937348679981612
7466,9.0,300.52169,-6426.9741,0.07465995020797989,0.0,0.0,0.0,0.0,0.011394164019527947,0.8623729449895832,0.5028545335953786,0.5884121561392585,-0.0004229896642208296,-0.024635645160598876,0.11733126103469388
7467,9.0,300.4032,-6389.7059,0.07466995988267744,0.0,0.0,0.0,0.0,0.01139569163741369,0.8711364437794731,0.47913157244910454,0.5920430162825964,0.02130454492684488,0.008508924768515492,0.08962972270826491
7468,9.0,299.67487,-6225.6293,0.07467996955737499,0.0,0.0,0.0,0.0,0.011397219255299407,0.8580822766461272,0.48238814813800357,0.5519654385847474,0.014645090367107885,0.016377108677294784,0.1111020020699139
7469,9.0,299.80349,-6168.7633,0.07468997923207232,0.0,0.0,0.0,0.0,0.011398746873185123,0.8480759050185751,0.4848784838362805,0.5421956000605395,0.005474632745479185,0.0017354188788475085,0.10476727390222491
7470,9.0,299.75011,-6349.9714,0.07469995587153977,0.0,0.0,0.0,0.0,0.011400269449427652,0.8783351196449272,0.4788674282805356,0.5730302090211785,-0.005255688042671025,-0.021547883017860477,0.11376627228035688
7471,9.0,299.45604,-6528.4901,0.07470996554623732,0.0,0.0,0.0,0.0,0.011401797067313396,0.8793140104340362,0.5149410164857214,0.5902429369499425,0.01128444173393769,0.01081053655616689,0.11367117875847188
7472,9.0,299.80809,-6286.8465,0.07471997522093488,0.0,0.0,0.0,0.0,0.01140332468519914,0.8494263444868532,0.48246527673561557,0.5791527423529255,0.017906805260514084,0.005669664948577365,0.1046854438241489
7473,9.0,300.19243,-6275.4571,0.0747299518604021,0.0,0.0,0.0,0.0,0.011404847261441642,0.8563567218583281,0.47702920008161653,0.5741963382962665,-0.002345961541878378,-0.015082850887311487,0.1046272832684089
7474,9.0,299.89635,-6405.2376,0.07473996153509965,0.0,0.0,0.0,0.0,0.011406374879327386,0.8833764745899703,0.4895142651637966,0.5741415619958605,-0.011118288982539689,-0.013523174260133386,0.09501842992008891
7475,9.0,300.29902999999996,-6367.5525,0.0747499712097972,0.0,0.0,0.0,0.0,0.011407902497213102,0.8810546829133272,0.48124184816737253,0.5732804311333735,0.005131141366879225,0.014762143045160086,0.11180127636142691
7476,9.0,300.34271,-6345.3192,0.07475998088449476,0.0,0.0,0.0,0.0,0.011409430115098845,0.8749408837974422,0.48766895434667856,0.5662087459029524,0.015454808919520883,0.03226585309789177,0.1013172677559858
7477,9.0,299.22538,-6352.6733,0.07476995752396198,0.0,0.0,0.0,0.0,0.011410952691341347,0.8690002389911462,0.48311245983948753,0.5789413479845624,-0.006048683814108614,0.007884473322686932,0.11031499045224191
7478,9.0,299.88346,-6300.0683,0.07477996719865954,0.0,0.0,0.0,0.0,0.011412480309227091,0.8626585700602721,0.4755418401273256,0.5768630605719515,-0.005788583830663744,-0.005669520864413145,0.09722350329121271
7479,9.0,299.65051,-6410.0014,0.07478997687335709,0.0,0.0,0.0,0.0,0.011414007927112835,0.8811018091754781,0.49253330463175254,0.5748452641903105,-0.013944074298672986,-0.0012115122404419488,0.1036221087717059
7480,9.0,299.7334,-6640.2080000000005,0.07479995351282454,0.0,0.0,0.0,0.0,0.011415530503355364,0.9169212641230832,0.5040409177399655,0.5974952644081915,0.01054693346315129,-0.0036746419708839264,0.07441784455321943
7481,9.0,299.65415,-6511.258000000001,0.07480996318752187,0.0,0.0,0.0,0.0,0.011417058121241053,0.9091970762257652,0.4884439893481685,0.5816187904463055,0.004874900853065255,-0.016121748373842684,0.08714268311256322
7482,9.0,299.93028,-6319.6271,0.07481997286221942,0.0,0.0,0.0,0.0,0.011418585739126796,0.8683771712396542,0.4835435166970295,0.5690881696396295,-0.0008160103289089493,-0.01876940432239598,0.0896622399304741
7483,9.0,299.78315,-6374.1062,0.07482994950168664,0.0,0.0,0.0,0.0,0.011420108315369326,0.8743939009959592,0.4803017141945885,0.5828735183101375,0.00994760443897712,0.00935878271701494,0.1060054249944209
7484,9.0,299.69252,-6487.129,0.0748399591763842,0.0,0.0,0.0,0.0,0.011421635933255042,0.8739907997086762,0.5037428499580485,0.5941915827221435,0.00965534268145813,0.0069562477743532036,0.11014592967305688
7485,9.0,299.9568,-6331.233,0.07484996885108175,0.0,0.0,0.0,0.0,0.011423163551140786,0.8756567855230961,0.47975857161098456,0.5691213839779075,0.0019280563666593483,0.005748981254480275,0.11737099057111489
7486,9.0,299.98932,-6233.4392,0.07485997852577908,0.0,0.0,0.0,0.0,0.01142469116902653,0.8669544870392462,0.47337177252065654,0.5544836082632715,-0.013494664442069688,-0.009406711777220172,0.10935735765023091
7487,9.0,299.72581,-6220.6061,0.07486995516524653,0.0,0.0,0.0,0.0,0.01142621374526906,0.8612719676959252,0.4863124252452995,0.5433245329244565,-0.006650635838816654,0.015419456623531886,0.12228378434346988
7488,9.0,299.87462999999997,-6265.0345,0.07487996483994386,0.0,0.0,0.0,0.0,0.011427741363154748,0.8482098060192901,0.47954494809240156,0.5766592858443405,0.004586812774033176,0.01739488293899128,0.10809618551576289
7489,9.0,300.32912000000005,-6450.8358,0.07488997451464141,0.0,0.0,0.0,0.0,0.011429268981040491,0.8597263357283832,0.5082376476666506,0.5929290224350384,-0.0038445967406321563,0.009278320019948891,0.1141598490166999
7490,9.0,299.60123,-6506.8244,0.07489995115410886,0.0,0.0,0.0,0.0,0.011430791557283021,0.8769743146281263,0.49823331267179954,0.6027045351598065,0.009424313147357291,-0.013932902203070386,0.1032231719423339
7491,9.0,300.44826,-6182.9472,0.07490996082880641,0.0,0.0,0.0,0.0,0.011432319175168765,0.8513865477328102,0.4715900330148126,0.5564849697282904,-0.003623387018550457,0.005764102897647665,0.1107775897853969
7492,9.0,300.49541,-6150.5562,0.07491997050350374,0.0,0.0,0.0,0.0,0.01143384679305448,0.8600024767781362,0.4712635435675906,0.5383494951984585,0.011377814757152887,0.01224832020956509,0.10488986703182389
7493,9.0,300.07546,-6523.4229,0.0749299801782013,0.0,0.0,0.0,0.0,0.011435374410940224,0.8964326884885181,0.48816058329519857,0.5983643898139674,-0.004531548999004066,-0.00929805509214659,0.0918939334082251
7494,9.0,300.00881,-6553.7269,0.07493995681766874,0.0,0.0,0.0,0.0,0.011436896987182754,0.8998240163082162,0.48919769543505354,0.6031476294285364,-0.0013782752723751786,-0.008791235599452402,0.0975552575859543
7495,9.0,300.15625,-6330.5378,0.07494996649236607,0.0,0.0,0.0,0.0,0.011438424605068442,0.8591345368749771,0.4772269257061305,0.5879639550900244,0.0007558811498146612,0.002519562694761478,0.0963888932368431
7496,9.0,299.77567,-6300.5217,0.07495997616706362,0.0,0.0,0.0,0.0,0.011439952222954186,0.8659488768450001,0.46544671792351455,0.5838056780046345,-0.0003256451160461707,0.00976862140818787,0.09670073007436901
7497,9.0,299.74732,-6335.5156,0.07496995280653107,0.0,0.0,0.0,0.0,0.011441474799196716,0.8827267786258501,0.47880810248718053,0.5643036533299344,-0.015267136762499087,0.008929320107180281,0.0978947470319593
7498,9.0,299.99928,-6400.0525,0.07497996248122862,0.0,0.0,0.0,0.0,0.01144300241708246,0.9016094947069293,0.4753797809063316,0.5684668750758124,-0.014100289093090187,-0.004272864120648856,0.0981600442791421
7499,9.0,300.14931,-6445.7393,0.07498997215592595,0.0,0.0,0.0,0.0,0.011444530034968176,0.8960727313904931,0.4864685873507116,0.5768024783484725,-7.031282085333513e-05,0.01970919480339608,0.09929964160036159
7500,9.0,300.3267,-6201.2246,0.07499998183062351,0.0,0.0,0.0,0.0,0.01144605765285392,0.8587586413528793,0.46720368346441354,0.5590550988719425,-0.0012390722378619087,0.013881206182968385,0.09982195480165991
7501,9.0,300.62235,-6136.9443,0.07500995847009095,0.0,0.0,0.0,0.0,0.011447580229096449,0.8315788457679422,0.4705884048934595,0.5633105973044275,0.013012656303249185,0.0006614107666086603,0.09933943801128921
7502,9.0,300.92508,-6415.8503,0.07501996814478851,0.0,0.0,0.0,0.0,0.011449107846982165,0.8751904472970722,0.48224805617917754,0.5928197839417574,-0.0010126234250781509,-0.014021348804299387,0.0990398432614715
7503,9.0,300.20198,-6535.7181,0.07502997781948584,0.0,0.0,0.0,0.0,0.011450635464867881,0.9002091526712261,0.4940069249146875,0.5924790481981295,0.019284269122209183,0.009089523053991081,0.10433963169751989
7504,9.0,300.56887,-6229.7184,0.0750399544589535,0.0,0.0,0.0,0.0,0.011452158041110438,0.8703013433120551,0.4727450672013056,0.5506324270181895,0.01019610878827759,0.007040959333063582,0.11822194840259789
7505,9.0,299.95113,-6114.4311,0.07504996413365084,0.0,0.0,0.0,0.0,0.011453685658996154,0.8430503466425913,0.4774254821957265,0.5381585482171135,0.001065694911925899,0.004811114834095066,0.12887860367932788
7506,9.0,299.50198,-6328.6798,0.07505997380834817,0.0,0.0,0.0,0.0,0.01145521327688187,0.8699357525434741,0.49000300634953153,0.5638218630398855,-0.0018078244137683783,-0.0036436345926487363,0.1144470344925429
7507,9.0,299.33606000000003,-6384.3164,0.07506995044781584,0.0,0.0,0.0,0.0,0.011456735853124428,0.8621513674577151,0.4929166374095845,0.5856047744846914,0.0039194391420435265,-0.0018002901899998084,0.11136034031540991
7508,9.0,300.18375,-6275.9634,0.07507996012251317,0.0,0.0,0.0,0.0,0.011458263471010144,0.8559597709991522,0.47873406430237353,0.5730423376248754,0.012177685531843988,0.0071763078628714425,0.1026405936648379
7509,9.0,300.05165,-6234.1395,0.07508996979721072,0.0,0.0,0.0,0.0,0.01145979108889586,0.8536029715315543,0.4776587425012475,0.5637610275038815,-0.008865541484935822,-0.0028293466875847777,0.096930818907077
7510,9.0,300.42862,-6302.797,0.07509997947190805,0.0,0.0,0.0,0.0,0.011461318706781576,0.8664592711853721,0.48905956918142157,0.5603740870571164,-0.005455095459701005,0.0017259041564334785,0.09844583754934771
7511,9.0,299.97348,-6534.7892,0.07510995611137572,0.0,0.0,0.0,0.0,0.011462841283024133,0.8980618730593062,0.4960376706326065,0.5923131892892604,0.0028677468398745774,0.005104842359208715,0.1089550365655249
7512,9.0,300.16609,-6631.82,0.07511996578607305,0.0,0.0,0.0,0.0,0.01146436890090985,0.916040982833706,0.4930574791734845,0.6068092214474073,0.011488976399123689,0.003954954976598667,0.08433731275944471
7513,9.0,300.64907999999997,-6325.823,0.0751299754607706,0.0,0.0,0.0,0.0,0.011465896518795593,0.8741991543267392,0.46692951825235557,0.5817635636205934,0.006458695163098583,-0.014858087697129086,0.09440161392171391
7514,9.0,300.24209,-6182.3154,0.07513995210023805,0.0,0.0,0.0,0.0,0.011467419095038123,0.8559240539331272,0.4513403918863285,0.5720050734975055,-0.005378487368665375,-0.01000381773067494,0.07941136700079171
7515,9.0,300.39451,-6402.8302,0.07514996177493538,0.0,0.0,0.0,0.0,0.011468946712923866,0.8803139565602232,0.4870189138775245,0.5789676215596555,-0.0016616911538711485,0.0027484136398223074,0.0979229741532451
7516,9.0,300.38928,-6563.2439,0.07515997144963293,0.0,0.0,0.0,0.0,0.011470474330809555,0.9093424269526101,0.48815907355254956,0.5975607608946555,-0.007039970704941013,0.02531791812868398,0.08993537973343092
7517,9.0,299.85087000000004,-6393.3228,0.07516998112433027,0.0,0.0,0.0,0.0,0.01147200194869527,0.8831846359485372,0.49852681069576554,0.5616990432853796,-0.01034428952265189,0.013941747876443386,0.1131709067865989
7518,9.0,300.25641,-6208.9291,0.07517995776379771,0.0,0.0,0.0,0.0,0.011473524524937828,0.8516302749118642,0.49233125242931153,0.5433978922316965,-8.521286014435452e-05,-0.007300100883238863,0.1080477116309789
7519,9.0,299.99461,-6274.0068,0.07518996743849526,0.0,0.0,0.0,0.0,0.011475052142823544,0.8643496338146672,0.4812001022632526,0.5615916691722824,0.004004658440379017,0.00011942002545333889,0.1094667177335239
7520,9.0,299.1324,-6401.4519,0.0751999771131926,0.0,0.0,0.0,0.0,0.011476579760709288,0.8678190832170751,0.4980402479977455,0.5800222122637354,0.01997486290011548,-0.006239393492280193,0.09673240629899522
7521,9.0,300.02366,-6344.9352,0.07520995375266004,0.0,0.0,0.0,0.0,0.011478102336951818,0.8612512973938852,0.4866460479732256,0.5808045224009435,0.012876194819531487,-0.022449096027803275,0.11023152904150489
7522,9.0,299.53037,-6230.2486,0.0752199634273576,0.0,0.0,0.0,0.0,0.011479629954837561,0.8477318863446233,0.4819887148160825,0.5641194241967524,0.0016091725773379685,-0.009640182028161892,0.10622894796648091
7523,9.0,299.61813,-6140.6631,0.07522997310205493,0.0,0.0,0.0,0.0,0.01148115757272325,0.8490407420287972,0.4729920266481786,0.5445754712329145,0.005483589775038176,0.015859157517676983,0.12434082390148389
7524,9.0,300.3564,-6353.746999999999,0.0752399497415226,0.0,0.0,0.0,0.0,0.011482680148965835,0.8698397572290002,0.47449458535396954,0.5870460923544385,-0.0013692188429813787,0.021435533846772478,0.11497065174671989
7525,9.0,300.38331,-6605.7599,0.07524995941621992,0.0,0.0,0.0,0.0,0.011484207766851523,0.9051335785547291,0.4993788121748515,0.6034736730457144,0.002229467569931318,-0.0007116664212960074,0.1030981267474929
7526,9.0,299.98548,-6343.0737,0.07525996909091748,0.0,0.0,0.0,0.0,0.011485735384737267,0.8662905751762232,0.4849050208563996,0.5769404222170864,0.0008840984152862201,-0.014709004156915687,0.09968444967033921
7527,9.0,300.54041,-6127.0421,0.07526997876561481,0.0,0.0,0.0,0.0,0.011487263002622983,0.8465937835673012,0.4623591118212916,0.5535149006376675,0.018810763164977783,-0.0009937001080655649,0.1030837892585779
7528,9.0,299.89101,-6349.3813,0.07527995540508248,0.0,0.0,0.0,0.0,0.01148878557886554,0.8839344511550381,0.4739912634992956,0.5721276463621024,0.003821036649306956,0.0025408907987663977,0.09048635372705782
7529,9.0,300.18303,-6595.3943,0.07528996507977981,0.0,0.0,0.0,0.0,0.011490313196751256,0.9214007009601691,0.4888659066898085,0.5945685725543495,0.005372613456510665,-0.013192344049482987,0.08753112571064951
7530,9.0,300.39583999999996,-6535.0095,0.07529997475447714,0.0,0.0,0.0,0.0,0.011491840814636944,0.8993232073137901,0.49138162430309057,0.5957748873284034,-0.013530882053644087,-0.003260720084458017,0.096517048096241
7531,9.0,300.3585,-6341.0191,0.07530995139394481,0.0,0.0,0.0,0.0,0.01149336339087953,0.8729887156247782,0.48218380599033656,0.5723389394054554,0.002012762960444238,0.014076542563746589,0.09346207573998871
7532,9.0,299.63962999999995,-6294.5772,0.07531996106864214,0.0,0.0,0.0,0.0,0.011494891008765218,0.8731362144418352,0.4712427820730415,0.5690152966924374,-0.0017815090927712585,0.01192137581304819,0.08831546437455773
7533,9.0,299.33082,-6460.9571,0.07532997074333969,0.0,0.0,0.0,0.0,0.011496418626650962,0.8718110656960532,0.4968148841218115,0.5953436886158474,-0.0076984610719789525,-0.021754238493476182,0.09570755043234981
7534,9.0,299.63558,-6604.8256,0.07533998041803702,0.0,0.0,0.0,0.0,0.011497946244536678,0.90338684683984,0.5042391094595254,0.6000760934728995,0.0009363883620668361,-0.02550833011397618,0.0972488771002169
7535,9.0,300.77795,-6439.772,0.07534995705750469,0.0,0.0,0.0,0.0,0.011499468820779235,0.8895480897565611,0.4811045527788226,0.5868772240927724,0.013939042498676385,0.0002933710535959687,0.10055738489649121
7536,9.0,300.55466,-6151.2129,0.07535996673220202,0.0,0.0,0.0,0.0,0.011500996438664951,0.8447579871686223,0.4771304035016045,0.5479267250111575,0.01926533350434038,0.029583040410618773,0.12075153740974888
7537,9.0,300.28335,-6197.0985,0.07536997640689957,0.0,0.0,0.0,0.0,0.011502524056550667,0.853317893615919,0.46659864143220053,0.5638466775348345,0.005017966092984696,0.02000956063653988,0.1095129726005889
7538,9.0,300.35497999999995,-6504.393,0.07537995304636702,0.0,0.0,0.0,0.0,0.011504046632793224,0.8797905115585632,0.5066437748618475,0.5907387607538764,-0.016934126707768185,0.0017470317382436084,0.12751772773501988
7539,9.0,300.85123,-6486.1265,0.07538996272106457,0.0,0.0,0.0,0.0,0.01150557425067894,0.8725683992182962,0.5126928374288435,0.5863592607741535,0.007378150829166793,0.013750411807059989,0.11136492020586189
7540,9.0,300.19046000000003,-6226.894,0.0753999723957619,0.0,0.0,0.0,0.0,0.011507101868564656,0.8474102301003781,0.4924582126668415,0.5529518274245965,0.003935009047055156,0.01137574367394849,0.11591924635783887
7541,9.0,300.01321,-6210.5347,0.07540994903522935,0.0,0.0,0.0,0.0,0.011508624444807186,0.8515381603452733,0.4793286191960515,0.5569806922072145,0.008336864870359503,-0.010783188935967889,0.0977483415117602
7542,9.0,299.78695,-6459.404,0.0754199587099269,0.0,0.0,0.0,0.0,0.01151015206269293,0.8718787710677353,0.49727386615210944,0.5943448874622734,-0.01063102207570019,-0.032460317070333866,0.11244066757202989
7543,9.0,299.76721000000003,-6547.1961,0.07542996838462424,0.0,0.0,0.0,0.0,0.011511679680578646,0.8920435423678432,0.49434505660555855,0.6037955218074784,0.005864840627889704,0.013084981082137088,0.1007723003089517
7544,9.0,300.47686,-6428.5416,0.07543997805932179,0.0,0.0,0.0,0.0,0.011513207298464362,0.8870927517167382,0.4812763797307805,0.5857469841362264,0.007692661228406553,0.02303052730618608,0.1031766333652409
7545,9.0,300.04949,-6233.491,0.07544995469878923,0.0,0.0,0.0,0.0,0.01151472987470692,0.8764595734448251,0.4580616344371636,0.5603043957152385,0.0034283263431244665,0.0008242900919685982,0.0878243562365891
7546,9.0,299.77091,-6254.3903,0.07545996437348679,0.0,0.0,0.0,0.0,0.011516257492592635,0.8821818527220702,0.4643358209113776,0.5546608155732605,0.0014365367478251388,-0.020074208019420083,0.09736254146993471
7547,9.0,299.89991000000003,-6611.3924,0.07546997404818412,0.0,0.0,0.0,0.0,0.011517785110478351,0.9037056761163061,0.4952363519235225,0.6107561852244424,0.01018713443214189,-0.015334733716420385,0.09225275465288801
7548,9.0,300.72745,-6586.6966,0.07547995068765134,0.0,0.0,0.0,0.0,0.011519307686720881,0.9069940779908461,0.4929789320257325,0.6022182865693174,0.014750715610532285,0.004112939513640526,0.09922486982248221
7549,9.0,300.48101,-6264.7464,0.0754899603623489,0.0,0.0,0.0,0.0,0.011520835304606625,0.8599459779525602,0.4776024767231945,0.5667780404716375,-0.015031305841474383,-0.006848520239621323,0.10560685293508489
7550,9.0,300.81117,-6287.7548,0.07549997003704645,0.0,0.0,0.0,0.0,0.011522362922492368,0.8579727949728223,0.48179854803731453,0.5715491312175074,-0.02271573380486838,-0.012708456331726988,0.1028487658978829
7551,9.0,300.35655,-6512.1952,0.075509979711744,0.0,0.0,0.0,0.0,0.011523890540378057,0.8934890956230082,0.4918205237164065,0.5942351220789405,-0.02002472696403668,0.013338282461385987,0.1002835874942195
7552,9.0,300.15307,-6534.7825,0.07551995635121145,0.0,0.0,0.0,0.0,0.011525413116620642,0.8984159837042541,0.5075963312808575,0.5803983813633605,-0.001171320155350299,0.020163300060962782,0.1030166209094489
7553,9.0,300.26551,-6308.2011,0.07552996602590878,0.0,0.0,0.0,0.0,0.01152694073450633,0.8523862709439752,0.4853161572169756,0.5798332005900815,0.008255075018312472,0.008890866353960192,0.10086591752544101
7554,9.0,300.39474,-6120.6514,0.07553997570060611,0.0,0.0,0.0,0.0,0.011528468352392046,0.8358680955612581,0.4724944499215715,0.5521626575842115,-0.004327423078908405,-0.018213069222489987,0.11204413214539491
7555,9.0,299.83252000000005,-6254.3497,0.07554995234007356,0.0,0.0,0.0,0.0,0.011529990928634576,0.8426495656980372,0.48668233245930653,0.5718342293981445,0.013024729178190688,-0.012504149647813488,0.11488528542579489
7556,9.0,299.68264,-6390.5806,0.07555996201477111,0.0,0.0,0.0,0.0,0.01153151854652032,0.8595225204707682,0.5038410237602375,0.5792133853714104,0.002108327035675678,0.0026612594390958574,0.13008635726852388
7557,9.0,299.73744,-6489.4081,0.07556997168946866,0.0,0.0,0.0,0.0,0.011533046164406063,0.8909746749698543,0.5020263029636386,0.5796170540787494,0.002534982334783278,0.014466292254461886,0.11097268095965088
7558,9.0,299.78279,-6339.4975,0.075579981364166,0.0,0.0,0.0,0.0,0.011534573782291752,0.8787141055798301,0.4760130824838335,0.5723217648162605,0.00013699537532789086,-0.011443351773620889,0.12478303664262688
7559,9.0,300.2207,-6165.5088,0.07558995800363366,0.0,0.0,0.0,0.0,0.011536096358534337,0.8543575794110282,0.46608000936851557,0.5537231336657185,-0.006077424957170144,0.009704800938714281,0.09841121175368041
7560,9.0,300.22758999999996,-6375.5637,0.07559996767833099,0.0,0.0,0.0,0.0,0.011537623976420025,0.8755012617652471,0.4768455890309955,0.5856653161781665,0.012542038108802788,0.007830358877246254,0.09898870148917421
7561,9.0,300.00725,-6647.2148,0.07560997735302855,0.0,0.0,0.0,0.0,0.011539151594305769,0.9043497586748722,0.5023551634160944,0.6138823961554754,-0.0015207728895885986,-0.00965890668735987,0.07685107550236063
7562,9.0,300.20722,-6481.9167,0.07561995399249577,0.0,0.0,0.0,0.0,0.01154067417054827,0.8987050740902851,0.48857452635855153,0.5830612127586615,0.0016120446347464186,-0.0014344484393690388,0.0938981877022796
7563,9.0,300.09941000000003,-6334.1416,0.07562996366719354,0.0,0.0,0.0,0.0,0.011542201788434042,0.8962716323851231,0.4676834168567595,0.5614658437748644,-0.008391889011739961,0.0006462134336588004,0.08758936631314741
7564,9.0,299.93147,-6378.6196,0.07563997334189088,0.0,0.0,0.0,0.0,0.011543729406319758,0.8858071298573572,0.4895122893261015,0.5636216549526265,0.006570916765998995,0.02175930373072608,0.0951718765152329
7565,9.0,299.55025,-6402.3748,0.07564994998135832,0.0,0.0,0.0,0.0,0.011545251982562288,0.8718973743395713,0.48111612409496457,0.5931485835992074,-0.007577909641331452,0.007987282338783392,0.1066075691313479
7566,9.0,299.4216,-6452.0964,0.07565995965605588,0.0,0.0,0.0,0.0,0.011546779600448032,0.8752351822889872,0.49607503929629454,0.5899659751676085,-0.006159506929221004,-0.017126920844045483,0.1053867547483629
7567,9.0,299.28807,-6374.598000000001,0.0756699693307532,0.0,0.0,0.0,0.0,0.01154830721833372,0.8663750701020622,0.4859493169394635,0.5853942413789135,-0.01008391454312988,-0.015956713237304986,0.12535344578642188
7568,9.0,300.26795,-6145.7634,0.07567997900545076,0.0,0.0,0.0,0.0,0.011549834836219464,0.8564683414893441,0.46674006074865754,0.5449502116498984,-0.005287747275835025,-0.004706811983376176,0.1094805080673849
7569,9.0,300.02152,-6213.1863,0.0756899556449182,0.0,0.0,0.0,0.0,0.011551357412461993,0.8667747668690091,0.4725308458651636,0.5493478792039145,0.007091578268309284,0.01125601094938179,0.12266237511083389
7570,9.0,300.2353,-6567.4451,0.07569996531961576,0.0,0.0,0.0,0.0,0.011552885030347737,0.9047243572368422,0.5064168676344535,0.5851980964245554,0.0007569124053689383,0.0036339540011933367,0.11104618212190488
7571,9.0,300.03975,-6500.2624,0.07570997499431309,0.0,0.0,0.0,0.0,0.011554412648233453,0.886359665269388,0.5034287728245516,0.5861290300864315,0.008314074849110302,0.006007487192867824,0.1119464953657589
7572,9.0,300.47591,-6166.4488,0.07571995163378054,0.0,0.0,0.0,0.0,0.011555935224475983,0.8333902329717122,0.4760233568398476,0.5650328691619024,0.008209866838600774,0.0029152717146149172,0.10619134625526991
7573,9.0,300.25632,-6290.0623,0.07572996130847809,0.0,0.0,0.0,0.0,0.011557462842361726,0.8438081563923812,0.4917214177241255,0.5764923022278605,0.012619407859938588,0.0019493463724605082,0.0999069056900439
7574,9.0,300.14768,-6544.7462,0.07573997098317564,0.0,0.0,0.0,0.0,0.011558990460247442,0.8955615973775481,0.5043079091413155,0.5895699159685205,-0.004484967156131795,-0.020209359370758483,0.098518875656306
7575,9.0,299.21898999999996,-6529.3169,0.07574998065787297,0.0,0.0,0.0,0.0,0.011560518078133158,0.9134344273489592,0.4928738579903625,0.5784410152176834,-0.008297616019785941,0.007157342354124693,0.0993914005161675
7576,9.0,299.18892999999997,-6365.7354,0.07575995729734042,0.0,0.0,0.0,0.0,0.011562040654375688,0.8906178488146382,0.47536955721282254,0.5690372031595995,-0.0025704495333336175,0.014563966524351588,0.1015080333655629
7577,9.0,299.13923,-6289.1556,0.07576996697203797,0.0,0.0,0.0,0.0,0.011563568272261432,0.8736125129163421,0.47190192152809357,0.5662318378727315,-0.005870831367780944,0.02052418326957918,0.1023654456001829
7578,9.0,300.1474,-6408.4663,0.0757799766467353,0.0,0.0,0.0,0.0,0.011565095890147148,0.8774433582319172,0.47579840518514654,0.5947719723794235,0.004366807097045306,0.0033419171851965467,0.097722430680203
7579,9.0,300.01369,-6630.2496,0.07578995328620275,0.0,0.0,0.0,0.0,0.011566618466389678,0.9027872256956622,0.4974236853118955,0.6152193897949264,0.013704000899479587,-0.006713467477517654,0.08668768518165841
7580,9.0,300.75498999999996,-6521.0618,0.07579996296090008,0.0,0.0,0.0,0.0,0.011568146084275394,0.9067839603176092,0.48082376091111056,0.5946322249256314,0.01975487921065478,-0.01078648503854319,0.08835298198601041
7581,9.0,300.35656,-6179.7664,0.07580997263559763,0.0,0.0,0.0,0.0,0.011569673702161137,0.8704613861653501,0.4598298267891705,0.5482034638784694,0.014221662269568789,-0.004479604327327526,0.09862091906062691
7582,9.0,299.83712,-6230.7108,0.07581994927506486,0.0,0.0,0.0,0.0,0.01157119627840364,0.8543072208810583,0.4879565147250585,0.5517167667452054,-0.005217423767219636,-0.018609672536881682,0.11035125467332091
7583,9.0,299.74018,-6530.3811,0.07582995894976241,0.0,0.0,0.0,0.0,0.011572723896289383,0.8773155975268081,0.5091104106402855,0.5986467724843364,-0.009543921039511672,0.0017516848866778382,0.11315456306248588
7584,9.0,299.94843,-6521.1851,0.07583996862445996,0.0,0.0,0.0,0.0,0.011574251514175127,0.8719947983366861,0.5052501304093054,0.6050325076620594,0.0020846114104601282,0.014483727248932586,0.10610969856221189
7585,9.0,299.20837,-6309.1629,0.07584997829915752,0.0,0.0,0.0,0.0,0.01157577913206087,0.8334283818379772,0.4981355543021515,0.5862640456622564,0.008711888693396471,0.00999044728765538,0.11542258155632189
7586,9.0,300.2107,-6164.2558,0.07585995493862474,0.0,0.0,0.0,0.0,0.011577301708303372,0.8500946741203123,0.4695448991454736,0.5541402684668865,0.003905627935230466,-0.0034569813599274967,0.11605073582331589
7587,9.0,299.70331,-6297.3936,0.0758699646133223,0.0,0.0,0.0,0.0,0.011578829326189088,0.8752225673252421,0.4781929380864685,0.5608349030700955,-0.003239760195539437,-0.006999748019696343,0.11132668014708791
7588,9.0,300.00919,-6494.9177,0.07587997428801985,0.0,0.0,0.0,0.0,0.011580356944074832,0.8961178818149492,0.4987747732602375,0.5794001678948444,-0.002122576067856948,0.008937042491492422,0.1149117920484109
7589,9.0,300.33929,-6458.0211,0.07588995092748729,0.0,0.0,0.0,0.0,0.011581879520317362,0.8834502594622522,0.4881693884385675,0.5914575097123115,-0.008154245183636341,0.012470032503696387,0.11607084883780089
7590,9.0,300.54748,-6224.1469,0.07589996060218462,0.0,0.0,0.0,0.0,0.011583407138203078,0.8511829249927143,0.4824997069740135,0.5583025985526765,-0.002140438653869848,-0.006703554750464344,0.11599511852532689
7591,9.0,300.42539,-6199.8998,0.07590997027688218,0.0,0.0,0.0,0.0,0.011584934756088822,0.8499383296298822,0.4754601620367645,0.5592162360353454,-0.0029269976527221773,-0.009772154915261599,0.09519193684071271
7592,9.0,300.55319,-6526.4629,0.07591997995157973,0.0,0.0,0.0,0.0,0.011586462373974565,0.9163246827292051,0.4866437276304965,0.5809133657266854,0.01990175589215038,-0.006363632038716584,0.0943514195382601
7593,9.0,299.48568,-6755.1482,0.07592995659104695,0.0,0.0,0.0,0.0,0.011587984950217067,0.9334401791783732,0.5098268797859955,0.6101293380500774,0.015244646663279484,-0.007825201028937212,0.08511959655215011
7594,9.0,299.76328,-6400.4646,0.07593996626574451,0.0,0.0,0.0,0.0,0.011589512568102783,0.8718705333444222,0.4901562198971525,0.5835546655573615,0.017455140922438283,-0.006599413310486384,0.09694341157931982
7595,9.0,299.75813,-6229.8184,0.07594997594044206,0.0,0.0,0.0,0.0,0.011591040185988527,0.8470640228062102,0.4747483842390175,0.5718968178568214,0.003642232254510337,0.009384150953143591,0.09749272789578309
7596,9.0,299.80149,-6501.118,0.0759599525799095,0.0,0.0,0.0,0.0,0.011592562762231057,0.8895631973155521,0.48420639504495055,0.6024079365905344,-0.0073694589671589724,0.011389368848043188,0.09370094438481322
7597,9.0,299.99059,-6522.3877,0.07596996225460684,0.0,0.0,0.0,0.0,0.011594090380116773,0.8875926994485792,0.4943204751581325,0.6007298221724174,-0.006166885213799184,0.018110999473666484,0.09950114056824799
7598,9.0,300.60478,-6293.1453,0.07597997192930439,0.0,0.0,0.0,0.0,0.011595617998002516,0.8736604903085772,0.4858958274666845,0.5534027237190965,0.0021786861093695776,-0.004668255182620915,0.0995191450092749
7599,9.0,299.79607999999996,-6208.1526,0.07598994856877184,0.0,0.0,0.0,0.0,0.011597140574245046,0.8513187613011202,0.47819039482871756,0.5576142166997384,-0.001007269087309719,-0.006323769867857494,0.1123766605632129
7600,9.0,300.71379,-6200.0987,0.07599995824346939,0.0,0.0,0.0,0.0,0.01159866819213079,0.8584220092721563,0.4726880921481825,0.5535650767826195,0.00949330200294096,-0.003318307343291437,0.1047246566030189
7601,9.0,300.8862,-6452.6185,0.07600996791816672,0.0,0.0,0.0,0.0,0.011600195810016478,0.8749730950181211,0.5078470802831044,0.5786147369473285,0.007307893384457923,-0.006676251713269744,0.1324614053704229
7602,9.0,300.56073,-6664.9056,0.07601997759286427,0.0,0.0,0.0,0.0,0.011601723427902222,0.8891738255671241,0.5198241118976455,0.6169669625073984,0.01792247719981078,-0.00019551705340353084,0.10595230029167789
7603,9.0,300.18327,-6384.469,0.07602995423233172,0.0,0.0,0.0,0.0,0.011603246004144752,0.8736939478268791,0.4946863496367416,0.5723388380804455,0.007954055030904112,0.00997132867681852,0.1102623217120439
7604,9.0,300.18966,-6216.1849,0.07603996390702905,0.0,0.0,0.0,0.0,0.011604773622030468,0.8637782519507762,0.47281383648559255,0.5529729131591775,0.0026118159752911677,0.01926083062089598,0.09257075103777182
7605,9.0,299.42758,-6438.2662,0.0760499735817266,0.0,0.0,0.0,0.0,0.011606301239916211,0.8839549188070582,0.49214017372545354,0.5809770687604725,-0.006486000024143364,0.005389103493938104,0.10906505526138291
7606,9.0,300.97049,-6574.5449,0.07605995022119405,0.0,0.0,0.0,0.0,0.011607823816158741,0.8886153525095072,0.5095182843355395,0.6003638463687985,-0.014106425335695788,-0.0061665416206902746,0.09178850372207001
7607,9.0,299.77374,-6452.2349,0.0760699598958916,0.0,0.0,0.0,0.0,0.011609351434044485,0.8759776311672611,0.49024917546132657,0.5950915007984584,0.0010701716535177189,-0.013676471907512687,0.1028311049486399
7608,9.0,299.08317999999997,-6339.5452,0.07607996957058893,0.0,0.0,0.0,0.0,0.011610879051930173,0.8696124345690652,0.4810531303362475,0.5763978774510414,-0.012516172873500089,-0.0015984510740548385,0.1159470702055849
7609,9.0,299.35345,-6347.3193,0.07608997924528649,0.0,0.0,0.0,0.0,0.011612406669815917,0.9017318547890052,0.47368584965415356,0.5540088701939184,-0.003134858412686437,0.015657005003476086,0.10020270075198659
7610,9.0,300.58594,-6513.2080000000005,0.07609995588475393,0.0,0.0,0.0,0.0,0.011613929246058446,0.9104427051036992,0.4914651566413345,0.5779447455837055,-0.007695724587433883,0.005097159086350435,0.1044372887421579
7611,9.0,300.02518,-6591.9259,0.07610996555945149,0.0,0.0,0.0,0.0,0.01161545686394419,0.9080008331577051,0.5031866263156536,0.5925934238694174,0.008412617879635743,0.01854233294848578,0.1052361148559959
7612,9.0,300.71056,-6464.964,0.07611997523414882,0.0,0.0,0.0,0.0,0.011616984481829906,0.8859679731782313,0.48308427122170555,0.5961353915814824,-0.003080624201083937,-0.003241701481406027,0.08495660311456392
7613,9.0,299.6795,-6330.8575,0.07612995187361626,0.0,0.0,0.0,0.0,0.011618507058072464,0.8477744935113283,0.4900729915339385,0.5865751033104555,0.012689946278900188,0.0014458579394700686,0.11020722117160589
7614,9.0,300.36837,-6321.4013,0.0761399615483136,0.0,0.0,0.0,0.0,0.01162003467595818,0.8483420047598372,0.4949548305157386,0.5782513145339615,-0.001978830531820368,-0.014602649373419286,0.1111209194492809
7615,9.0,300.44173,-6444.4446,0.07614997122301115,0.0,0.0,0.0,0.0,0.011621562293843868,0.8875151959484302,0.48875955595931253,0.5826754785780924,0.016111026161284483,-0.012868486012770687,0.10673786296170688
7616,9.0,300.26417000000004,-6472.6002,0.0761599808977087,0.0,0.0,0.0,0.0,0.01162308991172964,0.9031332404723111,0.4969731740524336,0.5674024355807605,0.014019508742117787,-0.0011133723821312989,0.09639903891009441
7617,9.0,299.85161,-6285.5118,0.07616995753717593,0.0,0.0,0.0,0.0,0.011624612487972141,0.8696270355030061,0.4837329235382225,0.5572786789291235,-0.0031728382688347573,0.013070224107680686,0.11720019713425889
7618,9.0,299.99143,-6272.9143,0.07617996721187348,0.0,0.0,0.0,0.0,0.011626140105857885,0.8628838054250012,0.47095877820251253,0.5729667187699125,-0.00918655674716756,0.008279027034776352,0.10532559497232691
7619,9.0,299.83018,-6521.8094,0.07618997688657081,0.0,0.0,0.0,0.0,0.011627667723743601,0.8619914461944322,0.5138061763737215,0.6066696057161284,-0.01997269961115198,0.0005590217224136485,0.10974936384891891
7620,9.0,299.60645,-6554.4328,0.07619995352603848,0.0,0.0,0.0,0.0,0.011629190299986158,0.8909233335872873,0.4949984002700385,0.6064621731556564,0.004228715597891735,0.00982500371000237,0.1069501895201619
7621,9.0,299.61184,-6447.3586,0.07620996320073581,0.0,0.0,0.0,0.0,0.011630717917871874,0.8935134237579091,0.49814241400532855,0.5681801962250194,-0.004188034416976816,0.008798951093663862,0.10975646673211989
7622,9.0,299.57662,-6371.8952,0.07621997287543336,0.0,0.0,0.0,0.0,0.01163224553575759,0.8923973186402582,0.47702420475862356,0.5674755010454715,0.0007882410244158323,0.003964305957796536,0.1113670277660699
7623,9.0,299.84583,-6383.4282,0.07622994951490081,0.0,0.0,0.0,0.0,0.011633768112000148,0.8697465179547982,0.48747026613456956,0.5831859843759755,0.0025184109333728074,0.0033121445535332166,0.10218791405016191
7624,9.0,300.35902000000004,-6459.7763,0.07623995918959836,0.0,0.0,0.0,0.0,0.011635295729885864,0.8807986548780592,0.4950334283259955,0.5877786012492314,0.001076035737146459,0.0036159614151926064,0.11311253344833791
7625,9.0,300.46721,-6518.1756,0.07624996886429569,0.0,0.0,0.0,0.0,0.01163682334777158,0.8681829818579893,0.4919884395229785,0.6211911920417974,0.02051443175061678,0.001702605179659048,0.09056656767122431
7626,9.0,300.1949,-6224.3631,0.07625997853899302,0.0,0.0,0.0,0.0,0.011638350965657296,0.8530372740007242,0.4747712532937745,0.5642424327588924,-0.004640063119788576,-0.012542197189068488,0.11724204436338888
7627,9.0,299.4048,-6174.0149,0.07626995517846069,0.0,0.0,0.0,0.0,0.011639873541899853,0.8593968875908692,0.4723299690328386,0.5450195078242375,-0.0017963915075900382,-0.01199894112145329,0.09129327165619441
7628,9.0,300.07407,-6575.7709,0.07627996485315802,0.0,0.0,0.0,0.0,0.01164140115978557,0.9157799189454412,0.4960669738254985,0.5870232638296855,0.006916151137420974,-0.008972867975278121,0.1054707025191479
7629,9.0,300.27513999999996,-6703.6565,0.07628997452785558,0.0,0.0,0.0,0.0,0.011642928777671285,0.937430155422153,0.5092611619901636,0.5910528682848764,0.008430033014404481,0.016314874856152788,0.10104429311279531
7630,9.0,299.78586,-6378.5322,0.07629995116732302,0.0,0.0,0.0,0.0,0.011644451353913843,0.8759529585273262,0.4881727220313965,0.5747888261597405,-0.012234582564709289,0.007961570002920783,0.11769669981575989
7631,9.0,299.44038,-6314.3977,0.07630996084202057,0.0,0.0,0.0,0.0,0.011645978971799559,0.8429229101775142,0.47685185091661353,0.5996444590628004,-0.009805816806108772,-0.007127693338973562,0.0963946059409069
7632,9.0,299.50397000000004,-6502.0921,0.0763199705167179,0.0,0.0,0.0,0.0,0.011647506589685275,0.8842646085676222,0.4962308467641715,0.5959781858284675,-0.016450273440515584,0.010779105538064888,0.1020732648013469
7633,9.0,299.89063,-6476.829000000001,0.07632998019141546,0.0,0.0,0.0,0.0,0.011649034207571018,0.886959793038616,0.48145834931623954,0.6003761472250124,0.0014916710294914687,0.0010690302272800692,0.1036242669944189
7634,9.0,300.20864,-6394.7889,0.0763399568308829,0.0,0.0,0.0,0.0,0.011650556783813548,0.8776946543892181,0.48341129769148056,0.5827502057729674,0.00989553807596357,-0.0017933319989130883,0.11140239019455991
7635,9.0,300.05182,-6284.1779,0.07634996650558046,0.0,0.0,0.0,0.0,0.011652084401699292,0.8692613028794111,0.47274108512841256,0.5682307776700114,0.0019411276982493882,-0.005515139444726884,0.1073022736649099
7636,9.0,299.915,-6180.5428,0.07635997618027779,0.0,0.0,0.0,0.0,0.01165361201958498,0.8445250105731292,0.4751514348637956,0.5590542477418585,0.003014601635168017,0.00937467260640815,0.1060364507124829
7637,9.0,300.69712999999996,-6415.9948,0.07636995281974546,0.0,0.0,0.0,0.0,0.011655134595827565,0.8604944704966921,0.5042810377486635,0.5855266934319854,0.007713685053406441,0.004477835699277975,0.1104510598081709
7638,9.0,300.63526,-6632.2674,0.07637996249444279,0.0,0.0,0.0,0.0,0.011656662213713254,0.903736590376857,0.5068774911299135,0.6054295902437484,-0.0015060240211329987,-0.005141856081386685,0.1017174417637299
7639,9.0,300.61742999999996,-6444.7979,0.07638997216914012,0.0,0.0,0.0,0.0,0.01165818983159897,0.8964963509923012,0.5009900824838716,0.5615711913877615,0.01061961389282429,-0.010931243014079689,0.11036396082957489
7640,9.0,299.87012000000004,-6328.465,0.07639994880860779,0.0,0.0,0.0,0.0,0.011659712407841527,0.8645898348833733,0.49041427443262053,0.5686912187804535,-0.006407715612142295,0.0065981675194884334,0.10518092312304891
7641,9.0,300.0139,-6516.6665,0.07640995848330512,0.0,0.0,0.0,0.0,0.011661240025727243,0.9140649222236842,0.4809313883367326,0.5859075741445754,-0.0009568040647542091,0.01046467680678319,0.1066937460523529
7642,9.0,299.99249,-6573.2874,0.07641996815800267,0.0,0.0,0.0,0.0,0.011662767643612987,0.8849981104475131,0.5039674469752145,0.6091496670583915,-0.01933708782342198,0.00889819873830884,0.1092704714541559
7643,9.0,299.88042,-6338.6115,0.0764299778327,0.0,0.0,0.0,0.0,0.011664295261498675,0.8714840392262782,0.46863701692337256,0.5866585647211925,-0.002338122127179688,0.008428160122919642,0.09913753779636321
7644,9.0,299.47458,-6289.02,0.07643995447216745,0.0,0.0,0.0,0.0,0.01166581783774126,0.8665242813117883,0.46817587667036153,0.5770048953209495,0.007853871751116792,0.0029086518477365875,0.0978845152324495
7645,9.0,300.06915,-6283.6825,0.076449964146865,0.0,0.0,0.0,0.0,0.011667345455626948,0.8718619308510732,0.47558063747365453,0.5626400182557465,0.014207648007435687,-0.008361453005236162,0.09914998050759122
7646,9.0,299.5644,-6351.2231,0.07645997382156233,0.0,0.0,0.0,0.0,0.011668873073512692,0.8666745057716142,0.4923954012931425,0.5715433354269354,0.010028630807073802,-0.019223818621243182,0.11367085451843989
7647,9.0,299.64512,-6560.4283,0.07646995046102978,0.0,0.0,0.0,0.0,0.011670395649755222,0.9025130908811072,0.5009034597328225,0.5907898285589165,-0.0012815957101086487,-0.016365568771905883,0.1017621463581419
7648,9.0,299.67505,-6582.2021,0.07647996013572733,0.0,0.0,0.0,0.0,0.011671923267640966,0.8806343867718472,0.5185402429609375,0.6016504510807764,-0.0065541346085677245,0.0066282537520577145,0.11451032209378888
7649,9.0,300.26443,-6353.6772,0.07648996981042466,0.0,0.0,0.0,0.0,0.011673450885526682,0.8668963062185042,0.49141887137676654,0.5730440297525424,-0.01059697484583999,0.009217252247021971,0.1064678520750589
7650,9.0,299.87256,-6452.3482,0.07649997948512222,0.0,0.0,0.0,0.0,0.01167497850341237,0.8833870630535151,0.5044215451400305,0.5735441497369005,-0.012152105019819387,0.005822976781458064,0.1022792484141759
7651,9.0,299.98686000000004,-6572.4857,0.07650995612458966,0.0,0.0,0.0,0.0,0.011676501079654955,0.8973528513018311,0.5003791332035755,0.6001395533266625,0.007851197581452873,0.006605805297417223,0.09445597276307871
7652,9.0,300.39293,-6392.8864,0.07651996579928699,0.0,0.0,0.0,0.0,0.011678028697540643,0.8747619134322793,0.47852978294971255,0.5899861489770994,0.011704170455361687,0.01200057650711469,0.09169627161846741
7653,9.0,300.51325,-6333.9566,0.07652997547398455,0.0,0.0,0.0,0.0,0.011679556315426387,0.8635812761313362,0.48280307405395356,0.5789802871859054,0.015053344031149383,0.007529152958444543,0.1082930498776919
7654,9.0,300.68262999999996,-6424.3641,0.07653995211345199,0.0,0.0,0.0,0.0,0.011681078891668917,0.8728628294323543,0.4894942534743216,0.5904891769892444,-0.0033060773132594264,-0.013878142114665986,0.10380834414008588
7655,9.0,300.03227000000004,-6463.6488,0.07654996178814955,0.0,0.0,0.0,0.0,0.01168260650955466,0.8823142845101402,0.4901814700896445,0.5922920630246754,-0.01107053551857679,-0.0035028296097273665,0.1049354531538229
7656,9.0,299.64771,-6544.6990000000005,0.07655997146284688,0.0,0.0,0.0,0.0,0.011684134127440376,0.9081151682989891,0.49380784153503954,0.5875020548994384,-0.009291245848824571,0.0027951567921104974,0.09695951111015873
7657,9.0,299.90105,-6613.170999999999,0.07656994810231454,0.0,0.0,0.0,0.0,0.011685656703682934,0.9019928680147652,0.5049885294984875,0.6032574556068755,0.0012764548844012887,0.002209825919392838,0.10575057232926889
7658,9.0,299.50212,-6381.1681,0.07657995777701188,0.0,0.0,0.0,0.0,0.011687184321568622,0.8830751542752322,0.48948626906353354,0.5671543514262765,-0.00037571394768007966,-0.003262967777154847,0.1062866930896799
7659,9.0,299.36402999999996,-6321.0427,0.07658996745170943,0.0,0.0,0.0,0.0,0.011688711939454366,0.8570022634970382,0.4833097497664586,0.5811271412327834,-0.003891491779110337,-0.0005672766709783485,0.08907903951741672
7660,9.0,299.93892,-6519.483,0.07659997712640676,0.0,0.0,0.0,0.0,0.011690239557340082,0.8795936775941372,0.4906698161078405,0.6114965670725124,0.0008957115786573501,0.0073430292502255625,0.1068436462721469
7661,9.0,299.86829,-6519.2951,0.07660995376587443,0.0,0.0,0.0,0.0,0.01169176213358264,0.9013214581010022,0.4927150816996925,0.5876663939331574,0.004940980667611825,0.0069024769220214326,0.08846353263817092
7662,9.0,300.53761000000003,-6279.3717,0.07661996344057176,0.0,0.0,0.0,0.0,0.011693289751468355,0.8713971428977022,0.4758635976965805,0.5615114602943665,0.007081744777413793,-0.003332616663853657,0.11247352727277289
7663,9.0,300.12953999999996,-6373.5735,0.07662997311526909,0.0,0.0,0.0,0.0,0.011694817369354071,0.8814990741421852,0.4963323541591895,0.5595757777008296,-0.004131157446463496,-0.0053027885682694845,0.09506893841107372
7664,9.0,299.52017,-6498.187,0.07663994975473676,0.0,0.0,0.0,0.0,0.011696339945596629,0.8912328004328293,0.49419961468620455,0.5898541731515745,-0.007931534736831532,-0.008257102531762572,0.1006111114697936
7665,9.0,300.26162999999997,-6466.1698,0.07664995942943409,0.0,0.0,0.0,0.0,0.011697867563482317,0.8819395136956532,0.4944541431113245,0.5891604920006134,0.00046860069190728755,0.0017079707442385886,0.10703974056399991
7666,9.0,300.44318,-6484.177,0.07665996910413164,0.0,0.0,0.0,0.0,0.01169939518136806,0.8619362747264873,0.5179738361550376,0.5911177973512844,-0.007323445253617774,-0.014492793810827385,0.12339245220538689
7667,9.0,299.5961,-6368.0558,0.07666997877882897,0.0,0.0,0.0,0.0,0.011700922799253777,0.8876269067719551,0.47404546224714456,0.5740575838275724,0.006728414436367805,-0.005237243648450705,0.1154716937886689
7668,9.0,299.70018999999996,-6130.1639,0.07667995541829664,0.0,0.0,0.0,0.0,0.011702445375496334,0.8462486807157422,0.4691551322295066,0.5480129424621665,0.007427307441868174,-0.0027366701724883175,0.1077804263870999
7669,9.0,299.42213,-6319.7761,0.07668996509299397,0.0,0.0,0.0,0.0,0.01170397299338205,0.8719278326375771,0.4947171119097775,0.5544091749109255,0.019103256044844582,0.012868620775033987,0.1173011979042269
7670,9.0,299.31813,-6510.7182,0.07669997476769153,0.0,0.0,0.0,0.0,0.011705500611267794,0.8894299549274021,0.49475859436887154,0.5949072108702704,0.0097576806375831,-0.0028461758598206876,0.093815551077124
7671,9.0,299.65807,-6378.7483,0.07670995140715897,0.0,0.0,0.0,0.0,0.011707023187510324,0.8543364734114451,0.49221624854296153,0.5924274940330414,-0.0009155332533410973,-0.0016090280878737085,0.10674271642968589
7672,9.0,299.74006,-6365.4506,0.07671996108185652,0.0,0.0,0.0,0.0,0.01170855080539604,0.8521269701108841,0.48609074638842154,0.5967203205992104,-0.009729558387682651,0.0070435111021154235,0.1044078943567569
7673,9.0,299.35829,-6609.9151,0.07672997075655386,0.0,0.0,0.0,0.0,0.011710078423281756,0.9116911812144142,0.49393008002710354,0.6036278795784334,-0.01949885016213668,0.009111696208579403,0.1007945218968948
7674,9.0,300.33538,-6636.5715,0.07673998043125119,0.0,0.0,0.0,0.0,0.011711606041167472,0.9145517382342292,0.5082191254548225,0.5945811672530924,0.0005673681471973764,-0.00032320099468495473,0.09970308435292831
7675,9.0,300.46455,-6519.2315,0.07674995707071863,0.0,0.0,0.0,0.0,0.011713128617410029,0.9195501516400342,0.48940876556338453,0.5727246634535235,0.0015408979617497886,0.0003519422593364967,0.09369348787732731
7676,9.0,299.94176,-6409.8224,0.07675996674541619,0.0,0.0,0.0,0.0,0.011714656235295745,0.8790534531708213,0.4851553341611035,0.5842171690027455,0.023760203153699477,0.006856247791508973,0.09765182943973522
7677,9.0,300.13133,-6374.0879,0.07676997642011374,0.0,0.0,0.0,0.0,0.011716183853181489,0.8682650044535842,0.48462527263629057,0.5846732734027594,-0.0014590429577213285,0.006176728229245614,0.0983459604737406
7678,9.0,299.83943999999997,-6486.9579,0.07677995305958096,0.0,0.0,0.0,0.0,0.011717706429424019,0.8777702529791791,0.49903173348559754,0.5950712459289594,-0.0019406780178550082,-0.013052557078937089,0.1135323634947719
7679,9.0,299.91526,-6532.6581,0.07678996273427852,0.0,0.0,0.0,0.0,0.011719234047309735,0.9019464206301812,0.49423564585976054,0.5895828855698004,-0.012108012428467789,-0.01266561713074909,0.1102989709681609
7680,9.0,299.96791,-6408.9775,0.07679997240897585,0.0,0.0,0.0,0.0,0.01172076166519545,0.8826357381043652,0.48443078941209655,0.5811026003153614,-0.004426157208402706,-0.006933364230119774,0.1090035307153109
7681,9.0,299.49427000000003,-6267.691,0.0768099490484433,0.0,0.0,0.0,0.0,0.01172228424143798,0.8779801680023962,0.4773737152481176,0.5498676765052145,-0.008080712407979222,0.018870439542867382,0.1151128816632569
7682,9.0,299.40618,-6452.0507,0.07681995872314085,0.0,0.0,0.0,0.0,0.011723811859323724,0.8724321373448481,0.5021821002990146,0.5866480775826575,0.003548545934364216,-0.0023621727328782976,0.1146087390760019
7683,9.0,299.65906,-6502.3863,0.0768299683978384,0.0,0.0,0.0,0.0,0.011725339477209468,0.8839583435923961,0.47994805951218555,0.6126566877745073,0.000968666781492468,0.012218257079098089,0.1037054181949279
7684,9.0,299.45977999999997,-6364.5025,0.07683997807253573,0.0,0.0,0.0,0.0,0.011726867095095184,0.8557556618990082,0.49312492110014056,0.5857692553734244,0.0031109915092309573,0.0021746043326667376,0.09756316701623491
7685,9.0,299.9288,-6234.4951,0.07684995471200318,0.0,0.0,0.0,0.0,0.011728389671337713,0.8633582901818293,0.47160737985652457,0.5601651548864964,0.0006284301952612314,-0.004583653054921336,0.12888019448198487
7686,9.0,300.3733,-6421.2686,0.07685996438670073,0.0,0.0,0.0,0.0,0.01172991728922343,0.9034594563420061,0.48137224332274153,0.5670736257908094,-0.003633336425257387,-0.012751838634758487,0.1017914191535309
7687,9.0,299.60742999999997,-6601.9315,0.07686997406139806,0.0,0.0,0.0,0.0,0.011731444907109145,0.9144168037184122,0.5039844391793915,0.5884210828726395,-0.014168014729774185,-0.013201051920842385,0.11551929627836689
7688,9.0,300.40635,-6525.7418,0.07687995070086551,0.0,0.0,0.0,0.0,0.011732967483351675,0.8814149439863822,0.49025667351206653,0.6119909317963024,0.005619423955618964,0.005681072219528175,0.1021304019744859
7689,9.0,300.50645,-6465.2079,0.07688996037556306,0.0,0.0,0.0,0.0,0.011734495101237419,0.8713253946581212,0.4907931590425135,0.6031432116581004,-0.01976426494633108,0.01081881176973359,0.1022107223099129
7690,9.0,299.63655,-6330.8726,0.07689997005026061,0.0,0.0,0.0,0.0,0.011736022719123163,0.8705924703307871,0.4697896395746276,0.5840450786057615,0.004489553227409405,0.0016694392747358283,0.09302357656046223
7691,9.0,299.58284,-6337.6906,0.07690997972495794,0.0,0.0,0.0,0.0,0.011737550337008879,0.8882034460788552,0.4791188358953476,0.5591774082915134,0.0028128097366777074,-0.007799450898845872,0.09408791574375432
7692,9.0,299.35252,-6499.6504,0.07691995636442539,0.0,0.0,0.0,0.0,0.011739072913251408,0.9014663123352981,0.4895749183147825,0.5846901845469284,0.017736115175168283,0.0022998434635768776,0.1088089056361029
7693,9.0,299.1989,-6542.3999,0.07692996603912294,0.0,0.0,0.0,0.0,0.011740600531137124,0.9125288654695871,0.4970311116931515,0.5791662287117564,0.023130994093351377,0.0003901829057955546,0.08600511938429442
7694,9.0,299.52441,-6377.9128,0.0769399757138205,0.0,0.0,0.0,0.0,0.011742128149022868,0.8488656118815132,0.5043597470164316,0.5855008960844394,0.003022514003873907,-0.001988998395248858,0.1250068737222179
7695,9.0,299.74437,-6435.2343,0.07694995235328772,0.0,0.0,0.0,0.0,0.01174365072526537,0.8822092510047742,0.48867868846883156,0.5852626100584225,-0.013876761054779686,-0.00823529343793518,0.09318547163494001
7696,9.0,299.98659,-6608.5094,0.07695996202798527,0.0,0.0,0.0,0.0,0.011745178343151114,0.8881600992395772,0.5070759665595015,0.6135857773212015,-0.025578180536119873,-0.018430744728222884,0.11249668003755789
7697,9.0,300.12542,-6501.9722,0.07696997170268283,0.0,0.0,0.0,0.0,0.011746705961036857,0.8951082996803111,0.5072959938187165,0.5740329111876374,-0.004830068285165625,0.0049701025900609356,0.11160252735431189
7698,9.0,300.49925,-6376.9439,0.07697994834215027,0.0,0.0,0.0,0.0,0.011748228537279387,0.8737546516403701,0.49412166535601154,0.5705554165794354,-0.00965890111448432,0.0002862041228561477,0.12800408778301986
7699,9.0,299.5482,-6326.397,0.0769899580168476,0.0,0.0,0.0,0.0,0.011749756155165103,0.8823020545814333,0.48200944591312855,0.5587552072398454,0.010904444575434888,-0.001208480798792769,0.0989465442055136
7700,9.0,300.04232,-6265.5698,0.07699996769154516,0.0,0.0,0.0,0.0,0.011751283773050819,0.8431957277669392,0.4920340459099795,0.5693470043776745,0.012832832781501987,-0.001046933573074299,0.11750978556981288
7701,9.0,299.61400000000003,-6325.0563,0.07700997736624271,0.0,0.0,0.0,0.0,0.011752811390936563,0.8655995082105202,0.47668224298237455,0.5803774172187914,0.008775711898645332,0.014609514142846787,0.1033346902483399
7702,9.0,299.54749,-6500.6023,0.07701995400570993,0.0,0.0,0.0,0.0,0.011754333967179065,0.8912657817235842,0.4933953980818345,0.5913596094876494,0.005632065162541555,-0.00021889390858064681,0.1013737067998059
7703,9.0,299.94021000000004,-6469.4345,0.07702996368040749,0.0,0.0,0.0,0.0,0.011755861585064808,0.8913194941113852,0.4997560350545805,0.5754710069220664,-0.0058363169282996345,-0.009465703704667221,0.1153531029969649
7704,9.0,300.4008,-6399.6592,0.07703997335510504,0.0,0.0,0.0,0.0,0.011757389202950552,0.8834298424727373,0.4865673285729565,0.5753394161315795,0.0015654547871983586,0.006961876074683674,0.10551576175109491
7705,9.0,299.63096,-6602.4626,0.07704994999457249,0.0,0.0,0.0,0.0,0.011758911779193082,0.9037023627884792,0.5199856746260905,0.5832957193618055,0.00015307224989455487,0.0038931795498019063,0.11338977894069989
7706,9.0,299.84555,-6631.4198,0.07705995966926982,0.0,0.0,0.0,0.0,0.011760439397078798,0.8971718949664722,0.5055916058255066,0.6130225318556134,0.00938338534136803,0.007197274033940643,0.09285751804132351
7707,9.0,299.89243,-6464.4309,0.07706996934396737,0.0,0.0,0.0,0.0,0.011761967014964542,0.8889845707134462,0.4996908324106455,0.5763501837688344,-0.015524515460150384,-0.003949625686372706,0.1001297183737838
7708,9.0,300.05786,-6358.7816,0.07707997901866492,0.0,0.0,0.0,0.0,0.011763494632850258,0.8741326243251732,0.47848369020266357,0.5802945029631085,0.007736167046625243,0.0033571620395760966,0.08516631548776092
7709,9.0,299.75892999999996,-6475.7243,0.07708995565813215,0.0,0.0,0.0,0.0,0.011765017209092787,0.8953150533632162,0.49143414105577354,0.5817092838127365,0.003525183933433567,0.00866546512018982,0.09081602173984352
7710,9.0,299.34608,-6495.4266,0.0770999653328297,0.0,0.0,0.0,0.0,0.011766544826978503,0.8884414585273451,0.5008298065830535,0.5851762304873974,-0.001981723867480918,-0.0033354175911050874,0.1053590727556309
7711,9.0,299.48707,-6463.0438,0.07710997500752703,0.0,0.0,0.0,0.0,0.011768072444864247,0.8895350188302712,0.47979501821708154,0.5952738959489594,-0.00014364580182923685,-0.005239902518038114,0.1014597823958009
7712,9.0,299.56006,-6509.6666,0.07711995164699448,0.0,0.0,0.0,0.0,0.011769595021106777,0.8552726759738413,0.5020166568226865,0.6214867672284684,0.0031552795565268467,0.01112269155422419,0.10599345851073988
7713,9.0,299.69547,-6420.0858,0.07712996132169181,0.0,0.0,0.0,0.0,0.011771122638992493,0.8802461397310302,0.49946292206565257,0.5718366915958875,0.020759110371514677,0.01886553946538378,0.1139556385915459
7714,9.0,300.00147000000004,-6519.4229,0.07713997099638958,0.0,0.0,0.0,0.0,0.011772650256878237,0.8804818723667951,0.5030699809641416,0.5981899182792484,0.007010890731046043,0.0008780303441473482,0.1152490928741999
7715,9.0,300.36683999999997,-6593.806,0.07714998067108692,0.0,0.0,0.0,0.0,0.011774177874763953,0.9267398399771011,0.5074730694061925,0.5701394470158825,-0.002727833719691227,-0.011628854562178591,0.1070616368986609
7716,9.0,300.39092,-6411.5319,0.07715995731055436,0.0,0.0,0.0,0.0,0.011775700451006482,0.8710051164340121,0.5056063486144615,0.5723341365999814,0.005750636601168644,0.002027443231868068,0.1077375963053729
7717,9.0,300.6411,-6282.6776,0.07716996698525169,0.0,0.0,0.0,0.0,0.011777228068892198,0.8602940192294091,0.48593802933334956,0.5635450633775675,0.004797761515002196,0.014489987108050384,0.1029371213066029
7718,9.0,300.18001,-6512.2939,0.07717997665994947,0.0,0.0,0.0,0.0,0.01177875568677797,0.8731300842787303,0.4966684998798645,0.6097761595952215,0.004214464944510306,-0.009947066403174021,0.097736636446605
7719,9.0,299.76436,-6549.5197,0.07718995329941669,0.0,0.0,0.0,0.0,0.011780278263020472,0.9001974293675691,0.4888289129286575,0.6018641049968625,-0.02174789554785018,-0.024934848795877974,0.1032831867457569
7720,9.0,300.07767,-6351.2096,0.07719996297411424,0.0,0.0,0.0,0.0,0.011781805880906215,0.8663129882684352,0.4746336640626955,0.5896624662326545,-0.011168011191446888,0.0033590118289586568,0.0975455790209991
7721,9.0,299.45333,-6464.1313,0.0772099726488118,0.0,0.0,0.0,0.0,0.011783333498791931,0.9007361541807372,0.4964103440193865,0.5677880177738145,-0.003408014326319827,0.013189632592215388,0.10842796412850689
7722,9.0,299.39567,-6500.4145,0.07721994928827924,0.0,0.0,0.0,0.0,0.011784856075034489,0.8966010805226372,0.49274974498561347,0.5866128570091814,0.002168791316843038,0.0016145628652199486,0.1019319164123969
7723,9.0,299.87761,-6409.9405,0.07722995896297657,0.0,0.0,0.0,0.0,0.011786383692920177,0.8824315884742172,0.4942478048609605,0.5717824421855334,0.008965291093680341,-0.013590858353563285,0.12145174389135387
7724,9.0,299.85472999999996,-6422.8013,0.0772399686376739,0.0,0.0,0.0,0.0,0.011787911310805893,0.8667468214312513,0.48486568648751754,0.6007586998002674,0.009246771870135331,0.002460347750967418,0.10097058322102072
7725,9.0,300.37832000000003,-6474.4349,0.07724997831237168,0.0,0.0,0.0,0.0,0.011789438928691665,0.8910468791719801,0.49852393306548154,0.5784957307230835,0.014469304647009185,0.004910314146710276,0.10876234679400788
7726,9.0,300.55171,-6394.6284,0.0772599549518389,0.0,0.0,0.0,0.0,0.011790961504934167,0.8675716576751562,0.4868817806089905,0.5893539214447034,-0.005542472068824405,-0.01235238504783549,0.1080925682129059
7727,9.0,299.76861,-6501.5039,0.07726996462653646,0.0,0.0,0.0,0.0,0.01179248912281991,0.9150473695206441,0.49291902867982057,0.5683284448471505,-0.008216111498967072,-0.023842099093031976,0.10322796461530691
7728,9.0,299.98261,-6525.6994,0.07727997430123401,0.0,0.0,0.0,0.0,0.011794016740705626,0.8782785802893472,0.5146059549426535,0.5907651356539795,-0.014518407760105285,-0.002149559019344958,0.1019726794639199
7729,9.0,299.96427,-6383.1657,0.07728995094070146,0.0,0.0,0.0,0.0,0.011795539316948184,0.8673240598807201,0.49269697492040554,0.5803019503513435,-0.0019959162589815982,0.01862725749236718,0.0940694664859335
7730,9.0,299.68354,-6406.6362,0.07729996061539879,0.0,0.0,0.0,0.0,0.011797066934833872,0.8559225239254761,0.4949116660614785,0.5966232512396304,-0.0019125960953085383,0.006267893887117964,0.1157731559584209
7731,9.0,300.99711,-6452.5744,0.07730997029009634,0.0,0.0,0.0,0.0,0.011798594552719616,0.8834583046680462,0.49066740457260255,0.5872957977090825,0.0066363244917542336,-0.023947439613178276,0.10622453019604489
7732,9.0,300.14467,-6442.0527,0.0773199799647939,0.0,0.0,0.0,0.0,0.01180012217060536,0.8789764258982192,0.49448350709922256,0.5847632297466375,0.008166324442053473,0.011224915317062888,0.12428423388339888
7733,9.0,300.5968,-6352.5896,0.07732995660426134,0.0,0.0,0.0,0.0,0.011801644746847889,0.8955580206046951,0.48343948630926253,0.5520311174562296,0.01772878836369518,0.014173898673104887,0.11148140343735789
7734,9.0,301.00795,-6446.7715,0.07733996627895867,0.0,0.0,0.0,0.0,0.011803172364733605,0.882716737317359,0.48934772737736054,0.5875930852884225,0.01137224897435359,-0.011792224928801989,0.12024093028685588
7735,9.0,300.24015,-6458.3,0.07734997595365622,0.0,0.0,0.0,0.0,0.011804699982619321,0.8840754043764492,0.48835828865471054,0.5907282432178385,0.0008621499793050781,-0.01988799696904248,0.0982148580698018
7736,9.0,300.20422,-6362.6091,0.07735995259312367,0.0,0.0,0.0,0.0,0.011806222558861879,0.86411408356392,0.4794736760803675,0.5904865324064834,0.006098777784477504,-0.008173376865399493,0.09551757718435092
7737,9.0,300.02868,-6554.0563,0.077369962267821,0.0,0.0,0.0,0.0,0.011807750176747567,0.8925023116156201,0.49906957837683247,0.6006975704217344,0.0036228755298999766,0.003946895382653246,0.10284803635781091
7738,9.0,299.7531,-6605.1314,0.07737997194251856,0.0,0.0,0.0,0.0,0.01180927779463331,0.9072340561445302,0.49583932692553156,0.6047216425313795,-0.024447261702006878,-0.007989829649534793,0.09115409162245841
7739,9.0,300.07991,-6421.5119,0.07738994858198578,0.0,0.0,0.0,0.0,0.01181080037087584,0.8915741947890221,0.4909700421124705,0.5694350254138615,-0.015565575393952686,-0.014636364257246686,0.11257106272739889
7740,9.0,299.86312000000004,-6452.6339,0.07739995825668333,0.0,0.0,0.0,0.0,0.011812327988761584,0.8765367628374431,0.5010336319731695,0.5838691885209024,-0.00917025487028369,0.012440432428525088,0.10017157573541481
7741,9.0,299.77493,-6457.6398,0.07740996793138089,0.0,0.0,0.0,0.0,0.0118138556066473,0.8864778710260541,0.4842215836639496,0.5922618073766894,0.01197067448341359,0.03271360223758117,0.11719631638637588
7742,9.0,300.34247,-6386.4642,0.07741997760607844,0.0,0.0,0.0,0.0,0.011815383224533016,0.8667629827703461,0.4859940924613825,0.5885685715571954,0.005583758767999085,0.01104736147553969,0.1036227876492729
7743,9.0,300.26406000000003,-6500.408,0.07742995424554566,0.0,0.0,0.0,0.0,0.011816905800775546,0.8870608647360912,0.5062180274348296,0.5826828145088164,-0.00020604112490467578,-0.009982034576050111,0.11403354739173491
7744,9.0,300.13592,-6429.8011,0.07743996392024322,0.0,0.0,0.0,0.0,0.01181843341866129,0.8852085726257841,0.4890303875785415,0.5802600321947065,0.002993692206104417,0.001052884289586589,0.1059371116726789
7745,9.0,299.95394,-6316.8752,0.07744997359494055,0.0,0.0,0.0,0.0,0.011819961036547005,0.8922783833435202,0.46690481521491756,0.5609891197353155,0.006355735476712254,-0.004482147179778486,0.1027051376962079
7746,9.0,299.80688,-6524.6055,0.07745995023440821,0.0,0.0,0.0,0.0,0.011821483612789563,0.8728888800924252,0.5044094874638405,0.6060187951768985,0.006088143015402934,-0.012835168322982487,0.11159612361367989
7747,9.0,299.80101,-6691.9365,0.07746995990910555,0.0,0.0,0.0,0.0,0.011823011230675279,0.91667288612607,0.5104300270405215,0.6070786750465004,0.0012595927815371288,-0.02190900535350048,0.09441149108368872
7748,9.0,299.34432999999996,-6562.6196,0.07747996958380288,0.0,0.0,0.0,0.0,0.011824538848560995,0.8658129594765862,0.5164191153340985,0.6126404149779014,0.014735586773289186,0.0001920115728275668,0.10973410430241289
7749,9.0,299.69965,-6336.0127,0.07748997925850043,0.0,0.0,0.0,0.0,0.01182606646644671,0.8637640664493762,0.48797823880720254,0.5742473655713024,0.014480375417601787,0.017262896980965284,0.10834080435490491
7750,9.0,299.61835,-6387.5468,0.07749995589796788,0.0,0.0,0.0,0.0,0.01182758904268924,0.8670895532775762,0.4875325607507175,0.5870326262606094,-0.012344839374340789,0.013604750012434287,0.1168067723854309
7751,9.0,299.67216,-6487.6521,0.07750996557266543,0.0,0.0,0.0,0.0,0.011829116660574984,0.9058688637547961,0.4883622605951025,0.5778531275096634,-0.007045745723885963,-0.0023183621290295275,0.1014454854368899
7752,9.0,300.29899,-6374.5868,0.07751997524736276,0.0,0.0,0.0,0.0,0.0118306442784607,0.8598228376679072,0.48833784126769253,0.5895545550970044,-0.014989529539851386,0.006553723938302193,0.11377773213898788
7753,9.0,300.05669,-6367.3588,0.07752995188683043,0.0,0.0,0.0,0.0,0.011832166854703258,0.8872101975358292,0.4815128621716196,0.5667950225433135,0.005414869633381025,0.015463934249921487,0.1032302241630299
7754,9.0,299.90475,-6486.3525,0.07753996156152776,0.0,0.0,0.0,0.0,0.011833694472588974,0.8767135445823903,0.4923689554655325,0.6026067159951525,-0.015077120957995986,-0.006757443545107753,0.09879467422752522
7755,9.0,300.15986000000004,-6642.6171,0.07754997123622531,0.0,0.0,0.0,0.0,0.011835222090474717,0.9126621281227391,0.5203911469186076,0.5861364470771635,-0.003960427743038787,0.0007356615819491452,0.10507299172239691
7756,9.0,299.90142000000003,-6762.6341,0.07755994787569276,0.0,0.0,0.0,0.0,0.011836744666717247,0.9255620279283602,0.5124129169562175,0.6176969585419434,-0.013773257557064687,-0.005687895648351595,0.0970985026793761
7757,9.0,299.82645,-6663.8894,0.07756995755039031,0.0,0.0,0.0,0.0,0.011838272284602963,0.9104032694098071,0.5140534397956245,0.6011992710762484,0.012817923819530588,-0.006537091235260674,0.1002572835216235
7758,9.0,299.34684,-6390.1745,0.07757996722508764,0.0,0.0,0.0,0.0,0.011839799902488679,0.8676870972590492,0.48458403335722056,0.5901823445939625,-0.001989013695325368,-0.01062773306587559,0.10188239888000991
7759,9.0,299.13138,-6419.7418,0.07758997689978497,0.0,0.0,0.0,0.0,0.011841327520374395,0.8795689137616932,0.4933683645691665,0.5785039177838914,0.01062431638653839,-0.014862309910295787,0.11412833693858988
7760,9.0,299.65435,-6483.5704,0.07759995353925264,0.0,0.0,0.0,0.0,0.011842850096616953,0.8729121037847171,0.5038459785532264,0.5940854346416674,0.002645490937064627,0.00021410354581787478,0.10895439821796189
7761,9.0,300.48188999999996,-6402.3599,0.07760996321394997,0.0,0.0,0.0,0.0,0.011844377714502669,0.8728868637247262,0.4910494099928035,0.5822212689557654,-0.001967467641223938,0.00974966562664208,0.11519411392377389
7762,9.0,300.02891,-6340.1356,0.07761997288864753,0.0,0.0,0.0,0.0,0.011845905332388412,0.8669531799466171,0.5017829912171256,0.5585067481828245,-0.020131506299324982,0.00046565644042921247,0.12257093942180988
7763,9.0,299.8873,-6354.5102,0.07762994952811497,0.0,0.0,0.0,0.0,0.011847427908630942,0.8761158486134022,0.48471483381262953,0.5707817563867734,-0.012554233587006388,0.012982080468231589,0.10676435945182189
7764,9.0,299.91247000000004,-6510.2586,0.07763995920281253,0.0,0.0,0.0,0.0,0.011848955526516658,0.8847205913776243,0.4858879747784095,0.6083474668217204,-0.0055729103044784255,0.02206240533913988,0.1112629973783029
7765,9.0,300.36156,-6622.1289,0.07764996887750986,0.0,0.0,0.0,0.0,0.011850483144402374,0.9019591673164392,0.5039332295193375,0.6070694240730874,0.016136685706816884,0.01790885506546638,0.10000227785570641
7766,9.0,300.87348,-6640.0051,0.07765997855220741,0.0,0.0,0.0,0.0,0.011852010762288118,0.884319952288084,0.5115588484469274,0.6225169588701405,-0.006617007182572764,-0.004638313844815936,0.09818868581971882
7767,9.0,300.75944,-6599.1307,0.07766995519167486,0.0,0.0,0.0,0.0,0.011853533338530647,0.9156752603426122,0.49008676160279757,0.6002089204285085,0.0023087310855040176,-0.0014973714732290585,0.08800406323457483
7768,9.0,300.90681,-6540.325,0.07767996486637241,0.0,0.0,0.0,0.0,0.011855060956416391,0.8927946038719671,0.5074004801690285,0.5879003837787504,0.0013333421900656288,-0.01093019328697609,0.09533830081765772
7769,9.0,300.64716,-6442.9312,0.07768997454106974,0.0,0.0,0.0,0.0,0.011856588574302107,0.8852929459616112,0.4873604298237295,0.5858368188900924,0.01131256550371329,0.006393402643879714,0.08845806412738122
7770,9.0,300.60908,-6489.5239,0.07769995118053719,0.0,0.0,0.0,0.0,0.011858111150544665,0.8714076604337403,0.5041006792308635,0.5971449027886134,-0.008106019646451853,-0.018982498924426782,0.09623995965764451
7771,9.0,300.16282,-6415.3382,0.07770996085523452,0.0,0.0,0.0,0.0,0.011859638768430353,0.8836572259276783,0.4842474620715036,0.5821979439384635,-0.0058627541432837845,-0.006884135879311313,0.1123831757613559
7772,9.0,299.53477999999996,-6297.2434,0.07771997052993207,0.0,0.0,0.0,0.0,0.011861166386316069,0.8608409513683871,0.4751324465569216,0.5782313636394925,0.0036314984909009964,-0.00022310926204416976,0.11671888307175689
7773,9.0,299.26727,-6396.238,0.07772998020462962,0.0,0.0,0.0,0.0,0.011862694004201813,0.8760204511164873,0.49887542952517155,0.5694007572954796,-0.0035784646766919663,0.017292504148887285,0.12366785358256688
7774,9.0,299.73605,-6525.4874,0.07773995684409685,0.0,0.0,0.0,0.0,0.011864216580444342,0.8871778748576392,0.4960698413232815,0.6003375221312004,-0.01038620869253899,0.012485900000262387,0.11556365636774489
7775,9.0,299.67882000000003,-6636.8427,0.0777499665187944,0.0,0.0,0.0,0.0,0.011865744198330086,0.9014827979144252,0.5131259309190865,0.6028257401367685,-0.017778461936597583,0.010211144406511491,0.1069003680127449
7776,9.0,299.80599,-6599.1042,0.07775997619349173,0.0,0.0,0.0,0.0,0.011867271816215802,0.9030431220084172,0.49431826627291453,0.6086015190192934,-0.005057767266187765,0.013026542895869688,0.094035345288816
7777,9.0,300.34652,-6465.5317,0.0777699528329594,0.0,0.0,0.0,0.0,0.01186879439245836,0.8792582107510293,0.49123196726332047,0.5948700144590994,0.012321138441251687,-0.0018423373333745381,0.09459561990511081
7778,9.0,300.70651000000004,-6402.2363,0.07777996250765673,0.0,0.0,0.0,0.0,0.011870322010344048,0.8599121961942261,0.5075632689300945,0.5786445062352665,-0.002044206137547438,-0.025087430075436574,0.11165788120727489
7779,9.0,299.8643,-6486.0032,0.07778997218235428,0.0,0.0,0.0,0.0,0.011871849628229791,0.8955897353328252,0.5005461978800635,0.5754470739547045,0.004245700810643046,-0.007688651899085862,0.09929904175630241
7780,9.0,299.95906,-6483.9746,0.07779994882182173,0.0,0.0,0.0,0.0,0.011873372204472321,0.8760372609356463,0.5051725357166474,0.5897565769019425,0.019347435133443183,-0.0029138182073464667,0.11739174193316289
7781,9.0,299.75912,-6385.004,0.07780995849651928,0.0,0.0,0.0,0.0,0.011874899822358065,0.8718474515071442,0.4987132081841615,0.5703211227588124,0.016950600127893983,0.027592420409909873,0.11325677973257389
7782,9.0,299.52212000000003,-6394.5512,0.07781996817121661,0.0,0.0,0.0,0.0,0.01187642744024378,0.8690717845807071,0.4838958034917975,0.5908163149165305,-0.0007786476332640384,-0.004861655951733085,0.1075343484678139
7783,9.0,299.40382,-6484.625,0.07782997784591394,0.0,0.0,0.0,0.0,0.011877955058129497,0.8890941435792602,0.4936821073301305,0.5883878178718565,0.00991144721710868,0.007465889573875933,0.1169700475065449
7784,9.0,299.83912000000004,-6573.2138,0.07783995448538161,0.0,0.0,0.0,0.0,0.011879477634372054,0.8988043422025821,0.4907772814134465,0.6085112384353835,-0.0071414685754080725,-0.003454946145776637,0.12255872975810489
7785,9.0,299.84978,-6546.3414,0.07784996416007894,0.0,0.0,0.0,0.0,0.011881005252257743,0.9107057853596631,0.48352701085290056,0.5956915171101754,0.008548903969761133,-0.0018889386306487285,0.1001871676279536
7786,9.0,300.12859,-6462.0491,0.0778599738347765,0.0,0.0,0.0,0.0,0.011882532870143486,0.8752806569534751,0.5030461695867915,0.5859747424937044,-0.0037485670769797667,-0.02410437077541618,0.1079986500611369
7787,9.0,300.57448,-6502.6429,0.07786995047424394,0.0,0.0,0.0,0.0,0.011884055446386016,0.8880075443045211,0.4914983912446146,0.5971351350576495,-0.017359804220529285,-0.009523076965079522,0.09020362148540431
7788,9.0,300.69561,-6568.5803,0.0778799601489415,0.0,0.0,0.0,0.0,0.01188558306427176,0.9038817283211812,0.5011295259626335,0.5916731394660925,-0.0007005981939611583,0.0035363032387059567,0.09115569154436631
7789,9.0,300.29157000000004,-6550.8506,0.07788996982363883,0.0,0.0,0.0,0.0,0.011887110682157476,0.8844751822034042,0.5004071191713375,0.6064127062857745,-0.004785990385940475,0.018279655966061584,0.0955847384407292
7790,9.0,300.15278,-6430.1954,0.07789997949833638,0.0,0.0,0.0,0.0,0.01188863830004322,0.8842654293002031,0.4966125786068455,0.5737408215813105,0.015535547727239184,0.000903340956742811,0.1082530872937479
7791,9.0,300.50018,-6470.1726,0.07790995613780383,0.0,0.0,0.0,0.0,0.01189016087628575,0.8771545819534172,0.5083640404841245,0.5812522978851354,0.0038669930128924965,0.004634556916095155,0.11667538424496389
7792,9.0,300.13644,-6592.286,0.07791996581250138,0.0,0.0,0.0,0.0,0.011891688494171465,0.8991906742007101,0.49948498052032947,0.6052146900300394,-0.0006495805853311123,0.002730698684348977,0.1097115088251829
7793,9.0,300.21283,-6544.9527,0.07792997548719871,0.0,0.0,0.0,0.0,0.011893216112057181,0.8892778458223902,0.5014177956160836,0.5988065518926053,-0.00956364172355795,-0.0020172761790396582,0.11790287594610788
7794,9.0,300.04846000000003,-6426.8684,0.07793995212666616,0.0,0.0,0.0,0.0,0.01189473868829971,0.8706889317403073,0.4976035676021485,0.5853150356185964,-0.0004853404346893716,-0.02280859615003318,0.11505273513732088
7795,9.0,299.79508,-6448.683000000001,0.07794996180136371,0.0,0.0,0.0,0.0,0.011896266306185455,0.8752166904746622,0.4903360312598985,0.5946858765184264,0.008380474141413402,-0.01147530157577409,0.11065153134045588
7796,9.0,299.76681,-6567.9952,0.07795997147606104,0.0,0.0,0.0,0.0,0.01189779392407117,0.8993091839324062,0.5028972116895906,0.5943001322053565,0.012303999315810187,-0.013106242108985386,0.10862439279289289
7797,9.0,300.12304,-6613.9999,0.07796994811552849,0.0,0.0,0.0,0.0,0.0118993165003137,0.9153132767443871,0.49999580042574354,0.5951817509848655,0.015958875513018382,-0.004632674196084346,0.10159606453425091
7798,9.0,299.69392,-6621.7614,0.07797995779022604,0.0,0.0,0.0,0.0,0.011900844118199444,0.8971654304308342,0.5065461786122155,0.6091385111747903,0.009273812272904011,-0.014550988817070785,0.1073557023426829
7799,9.0,300.09272000000004,-6529.6818,0.07798996746492359,0.0,0.0,0.0,0.0,0.01190237173608516,0.8879520891265481,0.4980625901624505,0.5988455518889544,0.0026406462843614974,0.005062829565012375,0.095869409029824
7800,9.0,300.89595,-6412.8085,0.07799997713962092,0.0,0.0,0.0,0.0,0.011903899353970876,0.8652236329534242,0.4904195028031365,0.5936905001501904,0.00993380751899047,0.00931248640802085,0.10695601570823689
7801,9.0,300.60029,-6458.7664,0.07800995377908837,0.0,0.0,0.0,0.0,0.011905421930213406,0.8783830058446531,0.4936654900284906,0.5912552244623475,-0.01126029497080459,0.018798090445977085,0.0972433873111751
7802,9.0,300.3623,-6552.5188,0.07801996345378592,0.0,0.0,0.0,0.0,0.01190694954809915,0.8909040818353872,0.5008537902129205,0.6000442368897554,0.0004042327735371686,-0.0020242076203237378,0.12173166436397989
7803,9.0,300.47772000000003,-6477.9127,0.07802997312848325,0.0,0.0,0.0,0.0,0.011908477165984893,0.8975288224466982,0.4881191616311105,0.5834757435070724,-0.005799847726725405,-0.0053400485102217555,0.10806757133293889
7804,9.0,300.55404,-6372.6579,0.0780399497679507,0.0,0.0,0.0,0.0,0.011909999742227395,0.8773596536411562,0.4771421369377626,0.5826270857533165,0.011789558054538789,0.013692730518617286,0.12388499307899688
7805,9.0,299.72769,-6497.9012,0.07804995944264825,0.0,0.0,0.0,0.0,0.011911527360113167,0.8960684250775682,0.4859199326865635,0.5932113544429024,-0.013269045055552788,0.001016213957867509,0.0961402061985496
7806,9.0,299.53746,-6584.6746,0.07805996911734558,0.0,0.0,0.0,0.0,0.011913054977998855,0.8933000028893461,0.5073544482169855,0.6009222181014054,-0.01151469369991179,-0.00890804560410565,0.1097845540248919
7807,9.0,300.17368999999997,-6661.1649,0.07806997879204314,0.0,0.0,0.0,0.0,0.01191458259588457,0.913785852881142,0.5011317855103565,0.6099101720534474,-0.025759187533983874,-0.008490466492768802,0.09825738316324871
7808,9.0,300.99183999999997,-6610.5458,0.07807995543151036,0.0,0.0,0.0,0.0,0.0119161051721271,0.9053613470447082,0.5059314600415475,0.5981480507851165,0.00889343615886381,-0.010274148297729489,0.1046100073542039
7809,9.0,300.24476,-6513.9956,0.07808996510620791,0.0,0.0,0.0,0.0,0.011917632790012844,0.8956973728909482,0.5037150463753045,0.5806795886636135,-0.0018457693127882484,-0.006230219525874795,0.10419839476608089
7810,9.0,299.81802000000005,-6509.4395,0.07809997478090547,0.0,0.0,0.0,0.0,0.011919160407898588,0.88513811121383,0.49735158243477956,0.5962173736470735,-0.0013235843889526087,-0.007370144430851623,0.1060729885110889
7811,9.0,299.46124,-6575.1055,0.07810995142037269,0.0,0.0,0.0,0.0,0.01192068298414109,0.8837834870226393,0.5093666818555774,0.6055177126049455,0.0005285376675901065,0.003012179460803967,0.10389232230837389
7812,9.0,299.15066,-6532.6268,0.07811996109507047,0.0,0.0,0.0,0.0,0.011922210602026861,0.8702977665392021,0.5182710730718725,0.5971865777652264,0.007300553806033562,0.015505934479816586,0.10695118250525991
7813,9.0,299.70384,-6418.5461,0.0781299707697678,0.0,0.0,0.0,0.0,0.01192373821991255,0.8756111690035943,0.4945056263489055,0.5809609276863795,0.013136983103769286,0.025732153008065774,0.10421316795253889
7814,9.0,299.36832000000004,-6490.601,0.07813994740923524,0.0,0.0,0.0,0.0,0.011925260796155107,0.8869213705948241,0.5116625140646586,0.5743967287685434,0.003473026377911017,-0.00016322343522639883,0.12002004176505589
7815,9.0,299.36733,-6518.9726,0.07814995708393258,0.0,0.0,0.0,0.0,0.011926788414040795,0.9015254152136312,0.4945195281402775,0.5855599685652694,-0.009843750458052532,-0.012388450671894887,0.10812006782061989
7816,9.0,299.9111,-6526.6859,0.07815996675863035,0.0,0.0,0.0,0.0,0.011928316031926567,0.9036545373837591,0.4961174640779815,0.5841775509238355,-0.0015005809429208085,-0.003642063751018707,0.11246189516162489
7817,9.0,300.05388,-6596.0366,0.07816997643332768,0.0,0.0,0.0,0.0,0.011929843649812283,0.8987185604491162,0.5049355466507585,0.6013763162662215,-0.004835722423373646,-0.013157884426832089,0.1069595012885809
7818,9.0,300.51904,-6564.4873,0.07817995307279513,0.0,0.0,0.0,0.0,0.011931366226054813,0.8913522524871181,0.5017176771156795,0.6023703044818204,0.001088601862236639,0.003997093008507366,0.1068104825963739
7819,9.0,300.62376,-6538.5695,0.07818996274749268,0.0,0.0,0.0,0.0,0.011932893843940556,0.8842634838600112,0.5148412417483744,0.5884571343111975,-0.012223096361575689,0.004708568756399555,0.09722096712621241
7820,9.0,300.33885,-6557.2464,0.07819997242219001,0.0,0.0,0.0,0.0,0.011934421461826245,0.8981126166243142,0.5035014228567215,0.5916251316763544,0.007741259641627842,0.024432811742330775,0.10657082868272191
7821,9.0,300.2504,-6480.02,0.07820994906165746,0.0,0.0,0.0,0.0,0.011935944038068802,0.8792927423144371,0.49938044350751254,0.5910910982111495,0.007081162969206373,0.01075047818298959,0.09431458283087461
7822,9.0,300.15596,-6338.1619,0.07821995873635501,0.0,0.0,0.0,0.0,0.011937471655954518,0.8611740370737602,0.4941797245867416,0.5712892021693544,0.007114061984053253,0.015037628522098386,0.11368466511730288
7823,9.0,299.67649,-6407.9879,0.07822996841105256,0.0,0.0,0.0,0.0,0.011938999273840262,0.8623416355614932,0.4889183626474855,0.5966083260656575,0.0015901425245598486,0.00042172112575813466,0.1047433004048589
7824,9.0,299.67834,-6511.4298,0.0782399780857499,0.0,0.0,0.0,0.0,0.011940526891725978,0.8765549709417402,0.5073547623245165,0.5954023355316355,-0.011744032727545789,0.0039582025444941755,0.11542898529695389
7825,9.0,299.1775,-6537.661,0.07824995472521734,0.0,0.0,0.0,0.0,0.011942049467968507,0.8955287579418072,0.5006057769859436,0.5911511636770774,-0.01853705898171528,-0.005650359697072084,0.10539539777171589
7826,9.0,299.87165,-6550.7513,0.0782599643999149,0.0,0.0,0.0,0.0,0.011943577085854251,0.9126208179161621,0.4919362470103275,0.5867077681460484,-0.00935946970058274,-0.004062988512860746,0.11286766129667088
7827,9.0,300.22393999999997,-6633.0366,0.07826997407461245,0.0,0.0,0.0,0.0,0.011945104703739967,0.9184535110568042,0.5060481053930594,0.5917758931587335,-0.0054432507686820245,0.004390169199300966,0.1089361495836609
7828,9.0,300.46204,-6616.7105,0.07827995071407967,0.0,0.0,0.0,0.0,0.011946627279982469,0.9137673104043121,0.4956183978737275,0.6019290745932745,-0.002216139784740968,0.008204773129023062,0.1028629311342809
7829,9.0,299.89526,-6551.9201,0.07828996038877722,0.0,0.0,0.0,0.0,0.011948154897868213,0.8816586711654362,0.5021204946929345,0.6078409633617324,0.002325033874312978,-0.010192113543133291,0.1058461724762039
7830,9.0,299.68981,-6477.7349,0.07829997006347478,0.0,0.0,0.0,0.0,0.011949682515753957,0.8784430814430823,0.5039689871153665,0.5866575920010965,-0.0028306960327429474,0.006503849741879994,0.1142946923400079
7831,9.0,300.22366,-6428.9702,0.07830997973817211,0.0,0.0,0.0,0.0,0.011951210133639673,0.8773245850551952,0.4922470817435045,0.5846747223504024,0.0038256604134882864,-0.003804107367961166,0.09441588858912273
7832,9.0,300.10034,-6466.3846,0.07831995637763955,0.0,0.0,0.0,0.0,0.011952732709882202,0.8848789927657572,0.5059579970616664,0.5747824426841105,0.013276200627758987,0.013194185124914687,0.11513177877762187
7833,9.0,300.28639,-6511.611999999999,0.07832996605233711,0.0,0.0,0.0,0.0,0.011954260327767946,0.8921249874108812,0.4976863400028175,0.5895561458996614,-1.6674219951117385e-05,-0.006461588498759135,0.11062882440571489
7834,9.0,299.66998,-6477.1437,0.07833997572703466,0.0,0.0,0.0,0.0,0.011955787945653662,0.8860020893090982,0.49096573579954556,0.5919221355456664,0.018781668701606382,-0.0037441863914974265,0.1098303427969109
7835,9.0,299.60585,-6532.9181,0.07834995236650188,0.0,0.0,0.0,0.0,0.011957310521896164,0.8684874331155362,0.5118430144374725,0.6055135177495314,0.005744421223730234,-0.015123705131343488,0.10903838651875089
7836,9.0,299.7586,-6573.2985,0.07835996204119944,0.0,0.0,0.0,0.0,0.011958838139781908,0.8985256173650741,0.4913652805789775,0.6082277107924015,0.005129585926650714,-0.0016007105204528284,0.1020051135996209
7837,9.0,300.0907,-6650.3104,0.07836997171589677,0.0,0.0,0.0,0.0,0.011960365757667651,0.9040407781893782,0.5100517402481876,0.6074357950442455,0.000962598355716061,-0.018431539116301285,0.1043069543817949
7838,9.0,299.3946,-6623.1979,0.07837994835536422,0.0,0.0,0.0,0.0,0.011961888333910181,0.9157353866035461,0.5010982367995456,0.5964531670778445,-0.018574501612660586,0.0016208540337658386,0.09841331728738821
7839,9.0,299.1576,-6519.4346,0.07838995803006155,0.0,0.0,0.0,0.0,0.011963415951795897,0.8894857546104091,0.48962519578474456,0.6026343979878844,0.007881954788238372,0.006968630805150313,0.10793446066730189
7840,9.0,298.92312000000004,-6458.1752,0.0783999677047591,0.0,0.0,0.0,0.0,0.01196494356968164,0.8811211723848891,0.5015031518045074,0.5804996861083584,-0.005380356105824806,0.009861545460283762,0.0992336455815983
7841,9.0,299.56015,-6435.8622,0.07840997737945665,0.0,0.0,0.0,0.0,0.011966471187567357,0.8602603691935881,0.4951604189610285,0.6009206272987484,0.02100399772193318,-0.0016158224364192586,0.1087093943437819
7842,9.0,300.14173,-6500.0259,0.0784199540189241,0.0,0.0,0.0,0.0,0.011967993763809887,0.8914628082055291,0.4995309212798635,0.5848518486003835,0.001030309482658629,0.0009093514550110011,0.10214243938567391
7843,9.0,300.11156,-6438.618,0.07842996369362143,0.0,0.0,0.0,0.0,0.011969521381695603,0.8743805564921421,0.4942147729077005,0.5885837703086955,0.019102213410491682,-0.007062866205525623,0.10850845671645089
7844,9.0,300.01229,-6423.3254,0.07843997336831898,0.0,0.0,0.0,0.0,0.011971048999581346,0.8994002751163961,0.4808040126666615,0.5723262535142034,0.0040842682848358965,0.006848302188199804,0.0988845018886405
7845,9.0,300.06836,-6541.3521,0.07844995000778643,0.0,0.0,0.0,0.0,0.011972571575823876,0.8949412856663282,0.5039555818165435,0.5895108536201914,0.016109519458385787,-0.007869989621782501,0.12242167754957889
7846,9.0,300.08873,-6674.2732,0.07845995968248376,0.0,0.0,0.0,0.0,0.011974099193709592,0.9169161573425791,0.5162410264965225,0.5956552224915934,-0.003248889072315387,0.004305716323341116,0.10617840705149291
7847,9.0,300.17104,-6600.4237,0.07846996935718131,0.0,0.0,0.0,0.0,0.011975626811595336,0.8913769656570572,0.49886517543415954,0.6161218511289924,-0.0009643048715344809,-0.01891691935145458,0.11082029827711189
7848,9.0,299.48462,-6529.3363,0.07847997903187887,0.0,0.0,0.0,0.0,0.011977154429481052,0.8959365809745562,0.5020319771641986,0.5867866496663334,-0.0032977946016419864,-0.0005078021426411695,0.1077966687862029
7849,9.0,299.65292999999997,-6428.6998,0.07848995567134631,0.0,0.0,0.0,0.0,0.011978677005723581,0.8741200600239333,0.49357100445666546,0.5864731602178944,0.005893444576887693,-0.015926151587788782,0.11687225873939389
7850,9.0,299.75773,-6433.8764,0.07849996534604364,0.0,0.0,0.0,0.0,0.011980204623609297,0.8929665828114401,0.49097895871335057,0.5717922403140004,0.0009839798782662532,-0.0047468097270986455,0.10596499631543091
7851,9.0,300.34413,-6520.2457,0.0785099750207412,0.0,0.0,0.0,0.0,0.011981732241495041,0.8838708190487581,0.5147679229711385,0.5833531199799704,0.00999428821480945,0.0024851493776401478,0.12730155082618488
7852,9.0,299.96982,-6517.0496,0.07851995166020864,0.0,0.0,0.0,0.0,0.01198325481773757,0.8844971899955761,0.5020545118464226,0.5944686255644854,-0.0024546118434763276,0.02607782226643068,0.1010517455672808
7853,9.0,299.84763,-6456.6919,0.0785299613349062,0.0,0.0,0.0,0.0,0.011984782435623315,0.8650687880731421,0.5155610647519155,0.5820432409131955,0.003960278997924106,0.01902409385428188,0.12239477575942387
7854,9.0,299.57979,-6510.2658,0.07853997100960353,0.0,0.0,0.0,0.0,0.01198631005350903,0.8859775483916762,0.5024616661341056,0.5905190172046895,-0.0015969662573582983,0.01204415234091529,0.09916428557250301
7855,9.0,299.60362000000003,-6615.5036,0.0785499476490712,0.0,0.0,0.0,0.0,0.011987832629751588,0.9059692768397061,0.5055781397316775,0.5994004887037224,0.006439472592801464,-0.0036974257099825067,0.1019917589633029
7856,9.0,299.48863,-6669.5957,0.07855995732376853,0.0,0.0,0.0,0.0,0.011989360247637276,0.9325354481640832,0.49069093223992455,0.6041641624588604,-0.008053685988061922,-0.011988937303215989,0.08434003840221371
7857,9.0,299.99442,-6607.214,0.07856996699846586,0.0,0.0,0.0,0.0,0.011990887865522992,0.9090221993910063,0.48681278840968156,0.6125930658007285,0.004503165026602785,-0.01987666579317418,0.10774055499566489
7858,9.0,300.16165,-6539.3988,0.07857997667316341,0.0,0.0,0.0,0.0,0.011992415483408736,0.8762376514079232,0.5067827725105655,0.6047935224934734,-0.013745415470816886,-0.0074676823172778635,0.0979224209186905
7859,9.0,300.18696,-6543.0572,0.07858995331263086,0.0,0.0,0.0,0.0,0.011993938059651266,0.8835705221166212,0.5005266928156386,0.6048287937294544,-0.01193631517252259,-0.0013522760854092588,0.09995430755622209
7860,9.0,300.22172,-6547.766,0.07859996298732841,0.0,0.0,0.0,0.0,0.01199546567753701,0.8899339252621401,0.49121327279897553,0.6092101580893614,0.006581330646551764,0.02054109745349848,0.09058239261128612
7861,9.0,300.19953,-6396.8064,0.07860997266202574,0.0,0.0,0.0,0.0,0.011996993295422725,0.8714449784349231,0.5032112888230875,0.5698131399536784,-0.005452240323569224,0.007168533904129214,0.1086489641078179
7862,9.0,300.41405,-6325.9154,0.07861994930149341,0.0,0.0,0.0,0.0,0.011998515871665283,0.8712452465752111,0.4856749794748886,0.5660000974423605,0.008924536249483151,0.004722365473736186,0.1063636291697729
7863,9.0,300.32226,-6426.4086,0.07862995897619074,0.0,0.0,0.0,0.0,0.012000043489550971,0.8630672948856103,0.5101809093709355,0.5802195427207104,0.00044340069582524155,-0.015513379841551383,0.11781311211974888
7864,9.0,299.88976,-6571.4203,0.07863996865088829,0.0,0.0,0.0,0.0,0.012001571107436715,0.8829703234198861,0.5128160891710075,0.6017612601117124,0.006871952357458894,0.00960736083092269,0.11377000104072489
7865,9.0,299.56377000000003,-6672.8742,0.07864997832558562,0.0,0.0,0.0,0.0,0.01200309872532243,0.9005451261393842,0.5127783152072796,0.6150636937845605,-0.006344166693695504,0.0063866640240896645,0.1144739058851949
7866,9.0,299.98965,-6561.5575,0.07865995496505307,0.0,0.0,0.0,0.0,0.012004621301564988,0.8950444243940071,0.5106619599884115,0.5888432636593054,-0.005085908261215065,-0.004513810941428456,0.1088302750807119
7867,9.0,299.66977,-6477.4503,0.07866996463975062,0.0,0.0,0.0,0.0,0.012006148919450704,0.8937653987927772,0.49258536542189046,0.5826323749188385,-0.008290696838828071,-0.006041444142144114,0.11236909158496589
7868,9.0,299.70775,-6540.016,0.07867997431444795,0.0,0.0,0.0,0.0,0.01200767653733642,0.9099094315760692,0.48722732929059354,0.5908648090663164,-0.0014643923102992684,-0.0006964444461037153,0.0910280959990236
7869,9.0,299.57726,-6578.3124,0.0786899509539154,0.0,0.0,0.0,0.0,0.012009199113578978,0.8832859406935352,0.5149024116569115,0.6014543466564225,0.01213531445241229,0.0036790769665716264,0.11616143339674088
7870,9.0,300.16101000000003,-6535.9478,0.07869996062861273,0.0,0.0,0.0,0.0,0.012010726731464666,0.8784278421615782,0.49765172737940155,0.6106853691749534,-0.0035202751419991063,0.0019014165016551985,0.10502645314530391
7871,9.0,299.8281,-6398.0309,0.07870997030331028,0.0,0.0,0.0,0.0,0.01201225434935041,0.8594575103443521,0.5121298250107785,0.5732543095457955,0.009887748209194771,0.01330472665782429,0.12439836637466288
7872,9.0,300.30275,-6430.1514,0.07871997997800784,0.0,0.0,0.0,0.0,0.012013781967236126,0.8882905855874552,0.4906661177449755,0.5756487613871094,-0.0020287009792171982,0.007752601557947202,0.1020555835871019
7873,9.0,299.85836,-6623.701,0.07872995661747528,0.0,0.0,0.0,0.0,0.012015304543478683,0.9064071731354232,0.5184698828739935,0.5885626440441105,-0.004186706147420726,0.017359781929027082,0.11556390968026989
7874,9.0,300.22298,-6663.9074,0.07873996629217261,0.0,0.0,0.0,0.0,0.0120168321613644,0.9062686618467531,0.5179504402102285,0.6014423599077394,-0.018881850765493584,-0.01060815200769309,0.09864294509130071
7875,9.0,300.5348,-6616.7089,0.07874997596687017,0.0,0.0,0.0,0.0,0.012018359779250143,0.8850371104438621,0.5047027727052855,0.6215743930971164,-0.0016738963592757082,-0.009653950273170711,0.09950004828464021
7876,9.0,299.95571,-6591.5029,0.07875995260633761,0.0,0.0,0.0,0.0,0.012019882355492673,0.8877169948383461,0.5068792440525866,0.6090560630141534,-0.012235972743846487,-0.001223343252584579,0.0969868171871036
7877,9.0,299.84134,-6541.3068,0.07876996228103517,0.0,0.0,0.0,0.0,0.012021409973378389,0.9000391698344502,0.4933006085349795,0.5950541422672715,0.001674715774631578,-0.0009474468622007251,0.10049902270398131
7878,9.0,299.25888,-6587.5297,0.0787799719557325,0.0,0.0,0.0,0.0,0.012022937591264105,0.9060538122955492,0.49456656320991954,0.6018241525454193,-0.007481179011259883,-0.01134024243019479,0.1094284067472429
7879,9.0,299.65521,-6571.3071,0.07878994859520017,0.0,0.0,0.0,0.0,0.012024460167506662,0.90918476523705,0.5114534197740225,0.5768750878506385,-0.013002182336965488,-0.0007117945569036535,0.11065822892361689
7880,9.0,300.02801,-6398.2979,0.0787999582698975,0.0,0.0,0.0,0.0,0.012025987785392378,0.8650865402148942,0.4872821562535045,0.5925541097655374,0.008219633049689623,0.005604074432504084,0.12344570863064289
7881,9.0,300.01892000000004,-6406.0857,0.07880996794459483,0.0,0.0,0.0,0.0,0.012027515403278094,0.8578464528178532,0.5055584421497336,0.5838851776074804,0.009078685837546532,0.0065136117986434325,0.11884184468127688
7882,9.0,299.98737,-6501.6535,0.07881997761929238,0.0,0.0,0.0,0.0,0.012029043021163838,0.8609395608681192,0.5180305680281365,0.5973701786833465,0.012286573440590387,-0.0011703261570021987,0.1161513819557489
7883,9.0,300.52856,-6461.4837,0.07882995425875983,0.0,0.0,0.0,0.0,0.012030565597406367,0.887532431332631,0.4909275464032765,0.5856697238161015,0.0005000919071977285,0.0034171678250732064,0.1012949347105317
7884,9.0,300.13016,-6515.2055,0.07883996393345738,0.0,0.0,0.0,0.0,0.012032093215292083,0.8901156719325771,0.5123945163344015,0.5779495889191834,0.01025472429331249,0.009719914779855902,0.11244170108713189
7885,9.0,299.78287,-6618.9507,0.07884997360815471,0.0,0.0,0.0,0.0,0.0120336208331778,0.9207172739002202,0.4953016964224715,0.5959767774108284,-0.00949417623512724,0.003057846946785997,0.1058729628088479
7886,9.0,300.07862,-6690.7286,0.07885995024762238,0.0,0.0,0.0,0.0,0.012035143409420357,0.9133695084150522,0.5079004684308736,0.6125444601934315,-0.001075347233703509,-0.024028151063143877,0.10705956986845691
7887,9.0,299.76127,-6647.9111,0.07886995992231971,0.0,0.0,0.0,0.0,0.012036671027306073,0.8927880988063253,0.5053042075671424,0.6227066595538624,-0.008854803972301113,-0.006301655177799944,0.09699826488673341
7888,9.0,299.97134,-6536.7344,0.07887996959701726,0.0,0.0,0.0,0.0,0.012038198645191817,0.8918376398150222,0.4782461438492196,0.6169202415452875,-0.00038798075869071963,0.0019255099678330383,0.09326377864241832
7889,9.0,300.15484,-6543.7145,0.0788899792717146,0.0,0.0,0.0,0.0,0.012039726263077505,0.8991258363268112,0.49980394151930857,0.5901960336028135,0.0017301423789517587,0.0017165551004107984,0.10636396354230591
7890,9.0,300.05172999999996,-6466.3594,0.07889995591118226,0.0,0.0,0.0,0.0,0.01204124883932009,0.8964499846677252,0.4872925927295345,0.5818692253410215,0.006485015955646245,-0.0037154112032325363,0.1055037750024119
7891,9.0,300.02574,-6437.124,0.0789099655858796,0.0,0.0,0.0,0.0,0.012042776457205778,0.8832327349307841,0.4915805556952235,0.5819116703877104,-0.012315226126918188,0.02016739764436718,0.1024829826117829
7892,9.0,300.12708,-6447.0702,0.07891997526057692,0.0,0.0,0.0,0.0,0.012044304075091494,0.8752266507231451,0.5015340761975594,0.5829876406689004,0.013678664580729088,0.02054848202022728,0.11870841990810888
7893,9.0,299.72354,-6499.1805,0.07892995190004459,0.0,0.0,0.0,0.0,0.012045826651334052,0.8849562328208802,0.4888286089536275,0.6018037355559045,-0.003181861058325237,0.024149775525647274,0.1049863284413439
7894,9.0,300.15398999999996,-6484.0188,0.07893996157474192,0.0,0.0,0.0,0.0,0.012047354269219768,0.8768212125380161,0.5072889719955235,0.5868696247170224,0.008671753046335391,-0.0031902203716502367,0.11975767078416187
7895,9.0,299.77599,-6589.235,0.07894997124943948,0.0,0.0,0.0,0.0,0.012048881887105511,0.9035164212626281,0.5007506818827445,0.5986958036566754,-0.0006428881697456224,-0.011841790083943688,0.09860879856293071
7896,9.0,300.07849,-6650.393,0.07895994788890692,0.0,0.0,0.0,0.0,0.012050404463348041,0.9131604951844241,0.49719038447637054,0.6112025522909954,-0.002051313479048878,-0.016484178815361784,0.11531760884596189
7897,9.0,300.53925,-6591.6967,0.07896995756360425,0.0,0.0,0.0,0.0,0.012051932081233785,0.9055919728999691,0.5119152186395985,0.5862040004613305,0.0001986628605914978,-0.009933602335845221,0.1062900570800119
7898,9.0,300.26597999999996,-6589.3334,0.07897996723830181,0.0,0.0,0.0,0.0,0.012053459699119473,0.8853319763554631,0.5125579333105295,0.6051029184115084,0.001140324226841239,-0.02765830598441227,0.12955843370142187
7899,9.0,300.24084,-6514.4751,0.07898997691299936,0.0,0.0,0.0,0.0,0.012054987317005217,0.8770301345761352,0.49685866665863254,0.6063489728544844,-0.002606906373256628,0.0025094793363913273,0.0983368017060867
7900,9.0,300.32899,-6442.4159,0.07899995355246658,0.0,0.0,0.0,0.0,0.012056509893247747,0.8658283811431082,0.5104513255576235,0.5820538597742434,0.014208735224792986,0.005386003049957115,0.12415113335026288
7901,9.0,299.65142000000003,-6417.0968,0.07900996322716414,0.0,0.0,0.0,0.0,0.01205803751113349,0.8778087260854761,0.4913126118387795,0.5815158543686465,0.014082154956050487,0.016419767519754883,0.0952659770520199
7902,9.0,299.97315,-6436.7008,0.07901997290186147,0.0,0.0,0.0,0.0,0.012059565129019206,0.8943535803433262,0.5034503145216775,0.5587924137835175,-0.0014128568903381186,-0.0033844470409189163,0.1141142223646969
7903,9.0,299.61497,-6535.1736,0.07902994954132914,0.0,0.0,0.0,0.0,0.012061087705261764,0.8927701034845491,0.4985217140477626,0.5952377634503934,0.004538399785580186,0.012273627144062688,0.09540969441970372
7904,9.0,299.49557999999996,-6656.0623,0.07903995921602647,0.0,0.0,0.0,0.0,0.01206261532314748,0.8862527471188362,0.5130779332618496,0.6239460468111804,-0.005062607055290415,0.008408029579207913,0.1060097110423439
7905,9.0,299.46616,-6763.1386,0.0790499688907238,0.0,0.0,0.0,0.0,0.012064142941033168,0.9116820416985122,0.5256078447934555,0.6185353824696894,-0.003075199969323607,0.007419037699852013,0.1052002356699549
7906,9.0,299.76963,-6695.3412,0.07905997856542135,0.0,0.0,0.0,0.0,0.012065670558918912,0.9139834771806462,0.5072229384865066,0.6140101264630815,-0.024105752848552577,-0.03773037168219776,0.1054230594994459
7907,9.0,299.97785,-6520.7835,0.0790699552048888,0.0,0.0,0.0,0.0,0.012067193135161441,0.9027789170448421,0.49269271926998554,0.5866837135886744,-0.01015601549507069,-0.016634972721743982,0.1012936539624053
7908,9.0,300.21235,-6430.7959,0.07907996487958635,0.0,0.0,0.0,0.0,0.012068720753047185,0.901078186884493,0.4747701488511656,0.5789530307582155,0.0026425742966517773,-0.011432543434804187,0.1112036310549439
7909,9.0,300.11892,-6511.7358,0.07908997455428368,0.0,0.0,0.0,0.0,0.012070248370932901,0.8951185639038242,0.4940676793906835,0.5902188418625645,0.011117578694219591,0.010176025158045492,0.1087980537275319
7910,9.0,300.32481,-6430.7424,0.07909995119375135,0.0,0.0,0.0,0.0,0.012071770947175459,0.8549457913590802,0.5153178138004085,0.5845214885377795,0.00979539725135544,-0.006691460394620724,0.12660516429745688
7911,9.0,300.50147999999996,-6406.2691,0.07910996086844868,0.0,0.0,0.0,0.0,0.012073298565061175,0.8615569037565461,0.4934915859138276,0.5922973623226985,-0.003020850348534717,0.012660529601996989,0.10815715277427991
7912,9.0,300.08207999999996,-6485.4483,0.07911997054314623,0.0,0.0,0.0,0.0,0.01207482618294689,0.8744117443302202,0.5057520235813385,0.5912505736443885,0.018815916554986382,0.012807339408985988,0.11569562206076889
7913,9.0,299.46396,-6592.7805,0.07912994718261346,0.0,0.0,0.0,0.0,0.012076348759189393,0.9017025921261173,0.5164255190747306,0.5859125390700655,-0.005747398760474094,0.017952869636560283,0.09440571353161852
7914,9.0,299.45252,-6632.9839,0.07913995685731123,0.0,0.0,0.0,0.0,0.012077876377075164,0.9106392857556002,0.5081796998934316,0.5974425044754844,-0.012822416570473987,-0.011890842534534788,0.10715057999243889
7915,9.0,299.64862999999997,-6620.6953,0.07914996653200856,0.0,0.0,0.0,0.0,0.01207940399496088,0.8884064102063861,0.5069212027392276,0.6171984394927434,-0.02386491951178418,-0.023809441029058877,0.09033440167581132
7916,9.0,299.51589,-6555.1085,0.0791599762067059,0.0,0.0,0.0,0.0,0.012080931612846596,0.8748860770995333,0.49944194778858253,0.6182612780526374,0.0021728887989224278,-0.003998786858699536,0.11870256332253087
7917,9.0,299.48033,-6555.1754,0.07916995284617356,0.0,0.0,0.0,0.0,0.012082454189089153,0.8906344255862743,0.49532478839225047,0.6066504350242364,-0.004518712336137185,-0.0016034660540997785,0.1041233129336709
7918,9.0,299.62061,-6572.5843,0.0791799625208709,0.0,0.0,0.0,0.0,0.01208398180697487,0.9003913755692101,0.5137890625795325,0.5837210513562825,0.013868015693166586,-0.016816729524681984,0.12787284149756686
7919,9.0,300.12206000000003,-6490.4147,0.07918997219556845,0.0,0.0,0.0,0.0,0.012085509424860585,0.912727543549195,0.4775128243543465,0.5826836352413974,-0.011373194336696889,0.004670211059288946,0.10125393354523521
7920,9.0,300.25556,-6466.6036,0.0791999488350359,0.0,0.0,0.0,0.0,0.012087032001103115,0.8926203957822743,0.4954695210365346,0.5775961064892975,0.02199894143237648,0.014086579819237187,0.12010003786045088
7921,9.0,299.74845,-6614.7961,0.07920995850973345,0.0,0.0,0.0,0.0,0.012088559618988859,0.8854208485217342,0.5125808834252945,0.6127311109943524,0.0022388762050598783,0.013996422851839387,0.10001800349725841
7922,9.0,300.01319,-6679.0131,0.07921996818443078,0.0,0.0,0.0,0.0,0.012090087236874575,0.8852784564851812,0.5176719585527445,0.6273027924049654,-0.005014599062902395,0.012664318144120888,0.10412836905166989
7923,9.0,300.09339,-6604.7,0.07922997785912833,0.0,0.0,0.0,0.0,0.012091614854760319,0.8962530088482852,0.5094366467749826,0.6019742250177305,-0.02061379206867288,-0.006138888100286084,0.0980574983027716
7924,9.0,299.76227,-6570.0679,0.07923995449859578,0.0,0.0,0.0,0.0,0.012093137431002848,0.8956921242554302,0.4965841974715445,0.6048602652775604,-0.006747074044909363,0.0008366998219058431,0.09626453299906972
7925,9.0,299.73283,-6579.7112,0.07924996417329333,0.0,0.0,0.0,0.0,0.012094665048888592,0.9044576799430232,0.5051528685322065,0.5904573609361045,-0.013651949228592487,0.007904248620913603,0.09582058861350581
7926,9.0,299.2335,-6520.8867,0.07925997384799066,0.0,0.0,0.0,0.0,0.01209619266677428,0.8979248715132853,0.49457873234362054,0.5896831264021934,-0.006631164616944994,-0.008083794917433442,0.1115030261944919
7927,9.0,299.4295,-6456.2237,0.07926995048745811,0.0,0.0,0.0,0.0,0.01209771524301681,0.8703750167268262,0.48387031011928155,0.6082854660481014,-0.0068321416597048835,-0.01909369299040078,0.10223406759221691
7928,9.0,299.83938,-6433.198,0.07927996016215566,0.0,0.0,0.0,0.0,0.012099242860902554,0.8664270903621961,0.4952742677422645,0.5938301969414774,0.010774948172904591,-0.006727466338249234,0.12918749297231286
7929,9.0,299.53544,-6555.9883,0.07928996983685299,0.0,0.0,0.0,0.0,0.01210077047878827,0.8827526266359013,0.5082498168003515,0.6018542967358944,0.01067798013833459,0.007989338932511362,0.12220360586305687
7930,9.0,299.5465,-6549.6549,0.07929997951155054,0.0,0.0,0.0,0.0,0.012102298096674013,0.9030155109431921,0.5090747341042645,0.5788412895371874,-0.0024805024100315277,0.008983949688971801,0.13821298784055988
7931,9.0,300.33099999999996,-6533.6935,0.07930995615101777,0.0,0.0,0.0,0.0,0.012103820672916543,0.9056306385237851,0.5161965752146355,0.5642524639348825,-0.0022552237795232582,0.01147391038338679,0.1140291701513029
7932,9.0,300.24082000000004,-6513.6365,0.07931996582571532,0.0,0.0,0.0,0.0,0.012105348290802287,0.8853757487597832,0.49875337341812553,0.5958537283186844,-0.007747372478156133,0.017285837976479382,0.1075235573542489
7933,9.0,300.05452,-6510.7076,0.07932997550041287,0.0,0.0,0.0,0.0,0.012106875908687975,0.8665673140435353,0.5106095040307346,0.6019157098244554,0.0033536300523775166,0.015464701280247186,0.09351146154986271
7934,9.0,300.53623999999996,-6561.5786,0.0793399521398801,0.0,0.0,0.0,0.0,0.012108398484930505,0.8789964173226922,0.5024420394796686,0.6131176051124965,-0.012470662745258588,0.0005024095040189575,0.09121822528753791
7935,9.0,300.04129,-6604.2654,0.07934996181457765,0.0,0.0,0.0,0.0,0.012109926102816249,0.8985898776864162,0.49680767991360053,0.6121342053604424,-0.0003980899144084156,-0.02653821372761777,0.09362806535812061
7936,9.0,300.09341,-6561.1011,0.0793599714892752,0.0,0.0,0.0,0.0,0.012111453720701992,0.8957507407737152,0.5044241086627835,0.5942360441365314,0.009666044932989361,-0.01139550711714899,0.11456329480901688
7937,9.0,299.39486,-6604.272,0.07936994812874243,0.0,0.0,0.0,0.0,0.012112976296944494,0.921135513143997,0.49789307342072053,0.5885051927634405,0.008302150415308452,-0.008200235896400274,0.11873379169061289
7938,9.0,299.41900000000004,-6639.7251,0.07937995780343998,0.0,0.0,0.0,0.0,0.012114503914830238,0.8917823670220671,0.5198420970869205,0.6066861824877644,-0.017640510975232882,-0.015444692630522484,0.11596097199695689
7939,9.0,299.59525,-6516.1373,0.07938996747813754,0.0,0.0,0.0,0.0,0.012116031532715982,0.8792182785645881,0.5068273453824645,0.5946973870395624,-0.015285172614279086,-0.005155317311615205,0.10807196883837289
7940,9.0,300.2963,-6436.09,0.07939997715283487,0.0,0.0,0.0,0.0,0.01211755915060167,0.8703256309169521,0.4850022523359955,0.6010827675797504,-0.008469514608526012,0.02123935748166138,0.1017874877431429
7941,9.0,299.78495,-6536.0697,0.07940995379230231,0.0,0.0,0.0,0.0,0.0121190817268442,0.8891117943960022,0.5121232895476335,0.5855669093284545,0.014149248324672088,0.018030030658175485,0.11648672720884488
7942,9.0,299.878,-6560.5625,0.07941996346699987,0.0,0.0,0.0,0.0,0.012120609344729943,0.9013097854598501,0.5074428441557095,0.5854945328738114,-0.00848467232339696,0.014329215727933487,0.1136525856191369
7943,9.0,300.15269,-6516.2907,0.07942997314169742,0.0,0.0,0.0,0.0,0.012122136962615687,0.8996136453224542,0.5028269731926586,0.5783490425061064,-0.0017757502858279082,-0.017904431215529783,0.10993601464983989
7944,9.0,300.88043999999996,-6545.2571,0.07943994978116464,0.0,0.0,0.0,0.0,0.01212365953885819,0.8907006516128102,0.5081894676243955,0.5907046243580074,0.0027316621838690677,-0.0006418707247902084,0.1081859290771199
7945,9.0,301.09184,-6631.279,0.0794499594558622,0.0,0.0,0.0,0.0,0.012125187156743933,0.8887006175054221,0.5064284896131005,0.6206141359773464,-0.0036417288718606565,-0.005988833157201814,0.09688941852124111
7946,9.0,300.4527,-6601.0893,0.07945996913055975,0.0,0.0,0.0,0.0,0.012126714774629677,0.8830145416542502,0.5106225141620185,0.6129292520514075,-0.0035739021128166765,-0.011966728887524189,0.10427669873380892
7947,9.0,300.05858,-6588.8694,0.0794699788052573,0.0,0.0,0.0,0.0,0.012128242392515393,0.8886742628703211,0.5135567040666005,0.6006207964616574,-0.014963622761294586,-0.01970371616010538,0.098781418889717
7948,9.0,299.87157,-6611.4404,0.07947995544472453,0.0,0.0,0.0,0.0,0.012129764968757895,0.9078640443942051,0.4991673671439835,0.6026813823950214,0.008549853081129802,0.014059635472577986,0.1093795376949199
7949,9.0,299.84792000000004,-6526.6015,0.07948996511942208,0.0,0.0,0.0,0.0,0.012131292586643638,0.8975354288373502,0.5072053079347665,0.5791831398559254,0.0035990491564484965,0.0013018541259829988,0.12140747499448488
7950,9.0,299.84195,-6496.4425,0.07949997479411963,0.0,0.0,0.0,0.0,0.012132820204529382,0.8876703346712411,0.4992168644113686,0.5878690844831614,0.003953583542588316,0.006587317232117593,0.11541837656840688
7951,9.0,300.35553,-6465.7927,0.07950995143358708,0.0,0.0,0.0,0.0,0.012134342780771912,0.8824188721854621,0.48955644676545945,0.5934642110053574,0.0015583611245732684,-0.013937364556510788,0.1044830471166739
7952,9.0,299.91546,-6470.6792,0.07951996110828441,0.0,0.0,0.0,0.0,0.012135870398657628,0.8744956414385001,0.5018291548916816,0.5906001076101924,0.016060846976582183,0.022045873150508277,0.09686576622415681
7953,9.0,299.8848,-6567.0342,0.07952997078298196,0.0,0.0,0.0,0.0,0.012137398016543371,0.8940378921421701,0.49510866214592053,0.6070678636679334,0.013553068177833685,0.0040222865603187765,0.0970506418109026
7954,9.0,300.62187,-6669.5952,0.07953994742244941,0.0,0.0,0.0,0.0,0.012138920592785901,0.8975357125473782,0.5245839859649085,0.6052707126280684,-0.005736944653892354,-0.0040570891681285266,0.10626097680214189
7955,9.0,300.48922999999996,-6659.0622,0.07954995709714674,0.0,0.0,0.0,0.0,0.01214044821067159,0.8928167636516541,0.5251354979943385,0.6062363602383704,-0.01015389780236169,-0.023564114941347077,0.1069689447795129
7956,9.0,299.76471000000004,-6614.28,0.07955996677184429,0.0,0.0,0.0,0.0,0.012141975828557333,0.8862933176528403,0.5083827754784734,0.6158998480320824,-0.011084420084697089,-0.0007498739243442943,0.09977909634893009
7957,9.0,299.58951,-6637.9814,0.07956997644654185,0.0,0.0,0.0,0.0,0.012143503446443077,0.9051535598467012,0.5127160104586305,0.5999110248991084,-0.0007218260470011843,0.00044959358924393254,0.11607650277335889
7958,9.0,299.74331,-6571.575,0.07957995308600929,0.0,0.0,0.0,0.0,0.012145026022685607,0.8997734044657212,0.49217725867911355,0.6056440344949124,-0.008075356773250664,0.004735861661093155,0.1133020922770459
7959,9.0,299.53255,-6429.9465,0.07958996276070662,0.0,0.0,0.0,0.0,0.012146553640571323,0.891684568122415,0.49234602561576957,0.5705125864977085,0.0007551500594700084,-0.005676167987719165,0.11426931042500288
7960,9.0,299.99666,-6454.3811,0.07959997243540418,0.0,0.0,0.0,0.0,0.012148081258457066,0.8749482399931682,0.5086154278339345,0.5784070105443274,0.0032101526223173972,0.003596886678085077,0.11691817923392588
7961,9.0,299.88082,-6562.013000000001,0.07960994907487162,0.0,0.0,0.0,0.0,0.012149603834699596,0.8891832082630501,0.5036777081091195,0.6018271720307174,0.014576098167798885,-0.008185084666329962,0.10829103350999289
7962,9.0,300.23908,-6544.2649,0.07961995874956918,0.0,0.0,0.0,0.0,0.012151131452585312,0.8828471426052292,0.5055750087888685,0.6008709780438485,0.0030510171344869472,-0.006962012458147134,0.11589298291524688
7963,9.0,300.58315,-6578.7096,0.0796299684242665,0.0,0.0,0.0,0.0,0.012152659070471028,0.89517111105401,0.5070592884628555,0.5975330383719193,-0.002467620860185218,-0.012644070367372588,0.10047395894950771
7964,9.0,300.59435,-6551.3195,0.07963997809896406,0.0,0.0,0.0,0.0,0.012154186688356772,0.8973118045402801,0.4977584732774365,0.5963672738668675,-0.0024705379058981075,0.002817563399521857,0.0979683829564766
7965,9.0,300.29244,-6560.9098,0.07964995473843128,0.0,0.0,0.0,0.0,0.012155709264599301,0.8961247820481301,0.5106804619352375,0.5875475295639265,0.005255640723891355,0.008685995391066003,0.1072281240225919
7966,9.0,300.55803,-6669.1042,0.07965996441312884,0.0,0.0,0.0,0.0,0.012157236882485017,0.8971434226386621,0.5086803467678416,0.6214173798616204,-0.003167502392483147,-0.001342447559439259,0.10433864884492289
7967,9.0,300.4832,-6677.7936,0.07966997408782639,0.0,0.0,0.0,0.0,0.012158764500370789,0.8961272949083782,0.5136749908832745,0.6200802139696524,0.00924268452055694,-0.01865428897853498,0.1138444951880769
7968,9.0,300.41742,-6503.4405,0.07967995072729361,0.0,0.0,0.0,0.0,0.012160287076613291,0.8801600641350351,0.4928714464551245,0.6038520105005535,-0.009941886972637851,-0.005733101598913074,0.1088555455382059
7969,9.0,299.20923999999997,-6475.8366,0.07968996040199117,0.0,0.0,0.0,0.0,0.012161814694499007,0.8924713365600632,0.48509398186754854,0.5909273164649854,0.0035672543815605967,-0.0035287197709825274,0.11477666501507489
7970,9.0,299.69356,-6566.4375,0.0796999700766885,0.0,0.0,0.0,0.0,0.012163342312384723,0.9117410635168373,0.5000801838940715,0.5842117987772154,-0.005690097035518854,0.007921957294236311,0.10395070577913591
7971,9.0,300.29542999999995,-6569.7402,0.07970994671615617,0.0,0.0,0.0,0.0,0.01216486488862728,0.9156069976833752,0.49251062809451457,0.5889193486093144,0.002075021910188718,0.003533346676239167,0.1044353736994689
7972,9.0,299.88277999999997,-6553.4181,0.0797199563908535,0.0,0.0,0.0,0.0,0.012166392506512996,0.8850735874474622,0.5116316403341115,0.5953702357684675,0.002547178116961908,0.012386875067989387,0.1104090707240269
7973,9.0,299.92797,-6577.0762,0.07972996606555105,0.0,0.0,0.0,0.0,0.01216792012439874,0.8706784749992753,0.5224615107154366,0.6061269393600714,-0.004414602610887356,0.005091218401014135,0.11660978643348988
7974,9.0,300.47665,-6533.7851,0.0797399757402486,0.0,0.0,0.0,0.0,0.012169447742284484,0.8777968406618031,0.4998020163441185,0.6085086850451314,-0.004324368129856906,0.0046811427106428155,0.1103583676890229
7975,9.0,300.07349,-6537.2519999999995,0.07974995237971605,0.0,0.0,0.0,0.0,0.012170970318527013,0.8784381469150951,0.5099853723666375,0.5987378535358254,-0.0013734917186530786,-0.02114108944721308,0.1122775748359339
7976,9.0,300.00894,-6572.5787,0.07975996205441338,0.0,0.0,0.0,0.0,0.012172497936412702,0.8942002756031961,0.5073156508706566,0.5963838709035054,0.006719102363973775,-0.013254090497326886,0.11109873940459189
7977,9.0,300.05797,-6508.9161,0.07976997172911071,0.0,0.0,0.0,0.0,0.012174025554298418,0.9009685329586712,0.48987834618972853,0.5877010876165815,-0.0026377108988217975,-0.015858372248849485,0.1062824779692639
7978,9.0,299.59024,-6479.8128,0.07977994836857838,0.0,0.0,0.0,0.0,0.012175548130540975,0.8780748663567423,0.5025141018267806,0.5891123220908594,-0.002238247787347858,-0.0005057532698789615,0.12380611155871189
7979,9.0,299.61817,-6583.2256,0.07978995804327571,0.0,0.0,0.0,0.0,0.012177075748426691,0.8958075030443172,0.4905777015412495,0.6147509845386984,-0.0015538864094816484,-0.01048407446669759,0.1022825110794979
7980,9.0,300.03573,-6680.3321,0.07979996771797326,0.0,0.0,0.0,0.0,0.012178603366312435,0.9004300614580282,0.5122131040364976,0.6180109951454364,0.0036059006522996865,0.012335655275434388,0.10213549862248891
7981,9.0,300.06189,-6649.446999999999,0.07980997739267082,0.0,0.0,0.0,0.0,0.012180130984198179,0.9109302911843201,0.5036512724140105,0.6066842978425784,0.01005026156888359,0.017103024353687084,0.1013710115545399
7982,9.0,299.69821,-6615.8119,0.07981995403213826,0.0,0.0,0.0,0.0,0.012181653560440708,0.9152532011459582,0.5012447122340016,0.5945437175293964,0.004035981344695346,0.02192378461945908,0.1025574058316279
7983,9.0,300.25217999999995,-6619.3544,0.0798299637068356,0.0,0.0,0.0,0.0,0.012183181178326397,0.9121398078286901,0.5150902580929505,0.5848883762664885,-0.0035383386555068366,0.018240635704710583,0.1140410150449719
7984,9.0,300.30491,-6651.9396,0.07983997338153315,0.0,0.0,0.0,0.0,0.01218470879621214,0.8915720973613153,0.5116216598206266,0.6188297721537434,-0.0016801491256428084,0.01191194346786729,0.09980158543489959
7985,9.0,299.93789,-6667.6758,0.07984995002100059,0.0,0.0,0.0,0.0,0.01218623137245467,0.8887655465718302,0.5329243312480365,0.6051170836479064,9.123252123319881e-05,-1.4999715743106687e-06,0.1176903366051319
7986,9.0,300.45946000000004,-6588.7534,0.07985995969569815,0.0,0.0,0.0,0.0,0.012187758990340414,0.8745067973221011,0.5199805171830816,0.6083291877899164,-0.008126582847956282,-0.0024454755699746477,0.1017409592985509
7987,9.0,300.31158999999997,-6427.6134,0.07986996937039548,0.0,0.0,0.0,0.0,0.01218928660822613,0.8880280524865451,0.4788122669450916,0.5869936667942643,-0.008535143729428101,-0.02392390586635568,0.11477693859260188
7988,9.0,300.00691,-6410.5578,0.07987997904509303,0.0,0.0,0.0,0.0,0.012190814226111846,0.8834720443394022,0.49684801740008155,0.5683294479647495,-0.0069728074220625135,-0.01139433985303379,0.10334929118228091
7989,9.0,300.57364,-6573.3591,0.07988995568456048,0.0,0.0,0.0,0.0,0.012192336802354403,0.9122528460098462,0.49648297378655454,0.5894011996943694,0.0036400085758408764,-0.0005016887386928235,0.13055650531492388
7990,9.0,299.97794,-6725.7602,0.07989996535925781,0.0,0.0,0.0,0.0,0.012193864420240091,0.9054204397905401,0.5177972063976055,0.6212455123796584,0.005679990473721416,0.016860498889251684,0.11872819855006089
7991,9.0,299.45732000000004,-6644.6007,0.07990997503395536,0.0,0.0,0.0,0.0,0.012195392038125835,0.9010269873569402,0.5231883150121664,0.5955774048839135,-0.003822718543147946,0.01006876381968462,0.1275339093391169
7992,9.0,299.72601000000003,-6618.0742,0.0799199516734228,0.0,0.0,0.0,0.0,0.012196914614368365,0.8894258715294993,0.5003369819994156,0.6219664600908105,-0.004947015382557405,0.002056220142658128,0.09740903445077322
7993,9.0,300.51257999999996,-6591.2062,0.07992996134812036,0.0,0.0,0.0,0.0,0.012198442232254109,0.8975938731031182,0.5085933187167525,0.5973749105613134,0.0036358800883084263,0.01052179270167009,0.1024147402175479
7994,9.0,300.21528,-6614.4621,0.07993997102281769,0.0,0.0,0.0,0.0,0.012199969850139825,0.8914907840407902,0.5127247852044965,0.6064157561685755,0.003301818623089127,0.007190976684569143,0.0932468897897515
7995,9.0,300.18102000000005,-6595.6315,0.07994994766228514,0.0,0.0,0.0,0.0,0.012201492426382382,0.9034233846384461,0.5123340151709305,0.5891498630070645,-0.005820803967943625,-0.007772682452404032,0.1085095408940579
7996,9.0,300.47514,-6538.6506,0.07995995733698247,0.0,0.0,0.0,0.0,0.012203020044268098,0.8951954695864142,0.5040916106424685,0.5882994219331324,-0.018650424442653583,-0.01846878618997728,0.10698412326601091
7997,9.0,300.81506,-6476.1571,0.07996996701168002,0.0,0.0,0.0,0.0,0.012204547662153814,0.8848875040665971,0.49008544437766755,0.5936171003129465,-0.008702120759782451,0.009008708759140331,0.11757921346666489
7998,9.0,299.97997999999995,-6507.4239,0.07997997668637757,0.0,0.0,0.0,0.0,0.01220607528003953,0.8730711232554111,0.5033505803143346,0.6016726817879704,-0.01178769164785459,0.001965645716219128,0.1159712159554679
7999,9.0,299.57696,-6651.0251,0.07998995332584502,0.0,0.0,0.0,0.0,0.012207597856282087,0.9063306423553701,0.5121362287514105,0.6032786933289714,-0.009103701462640381,0.0015108085881051986,0.12357477642838087
8000,9.0,299.85067999999995,-6643.3033,0.07999996300054235,0.0,0.0,0.0,0.0,0.012209125474167803,0.9204080502347022,0.48617075261631754,0.6128195170655774,0.007037328655305264,-0.012309884272390988,0.09770838196756651
8001,9.0,299.6233,-6508.085,0.08000997267523968,0.0,0.0,0.0,0.0,0.01221065309205352,0.8927474573448141,0.5108959700990066,0.5746518955412264,0.01271602125697359,0.004680765781605616,0.13106592693519986
8002,9.0,299.75063,-6594.9103,0.08001994931470735,0.0,0.0,0.0,0.0,0.012212175668296077,0.899021694481533,0.5013909343559325,0.6042754173198404,0.023209722612871273,-0.0003777848586319626,0.1027348461891399
8003,9.0,299.48034,-6726.1769,0.08002995898940468,0.0,0.0,0.0,0.0,0.012213703286181793,0.8958027914313521,0.5278844455156385,0.6209025981483155,-0.0012876095521021688,0.0002303372005725118,0.11442815764317989
8004,9.0,300.07656000000003,-6655.8023,0.08003996866410223,0.0,0.0,0.0,0.0,0.012215230904067509,0.8971986143716092,0.5172116896948195,0.6087874098826395,0.002109356801752308,-0.009110967377782471,0.0967430484647955
8005,9.0,300.27896,-6565.1107,0.08004997833879957,0.0,0.0,0.0,0.0,0.012216758521953225,0.8891122098285432,0.49898746458872856,0.6075300475685474,-0.011477187234210188,0.008893286704474061,0.0978737281718849
8006,9.0,300.99846,-6521.8867,0.08005995497826723,0.0,0.0,0.0,0.0,0.012218281098195782,0.8906286601932051,0.5081090864939626,0.5837529687344324,0.0038873948036559965,0.012721562721770488,0.0976238951477283
8007,9.0,300.93127999999996,-6525.3483,0.08006996465296456,0.0,0.0,0.0,0.0,0.012219808716081498,0.8869554664606891,0.5102478446725416,0.5863396341197165,-0.01142076541564179,-0.004331413663102246,0.11926497792303688
8008,9.0,300.401,-6601.5401,0.08007997432766212,0.0,0.0,0.0,0.0,0.012221336333967242,0.9090570450619452,0.4973416424512985,0.6003046624304574,-0.008578708113502571,-0.014125335622312088,0.1146481038423869
8009,9.0,299.87047,-6640.2771,0.08008995096712956,0.0,0.0,0.0,0.0,0.012222858910209772,0.898792618898925,0.5193209622954885,0.6003648494863975,-0.014545087648488384,0.0027973896913558675,0.1342092617929229
8010,9.0,299.88687000000004,-6459.9267,0.08009996064182712,0.0,0.0,0.0,0.0,0.012224386528095516,0.8824667786501901,0.48003802598856454,0.6011516179240454,0.01346203170934909,0.009697908811534081,0.1252097061272359
8011,9.0,299.28046,-6497.1437,0.08010997031652445,0.0,0.0,0.0,0.0,0.012225914145981204,0.9019671719922291,0.4944050308789775,0.5785972482506024,0.002265417582154308,0.01037828710325719,0.11020352280874089
8012,9.0,299.65612000000004,-6720.9417,0.08011994695599212,0.0,0.0,0.0,0.0,0.012227436722223789,0.9336261713667292,0.5107057019952285,0.5986666017887934,0.02063219167723878,-0.012689310971087489,0.09668740988855441
8013,9.0,299.99537000000004,-6781.2644,0.08012995663068945,0.0,0.0,0.0,0.0,0.012228964340109477,0.9367039286779801,0.5077291278389635,0.6169019827784854,0.016836423053625586,-0.0045815196568357855,0.07831656749299343
8014,9.0,299.59659,-6611.5565,0.08013996630538678,0.0,0.0,0.0,0.0,0.012230491957995193,0.8798188724288621,0.5301539230896185,0.5997752797832114,0.01148431544866369,-0.005664941480586194,0.1076287023171259
8015,9.0,299.71745,-6540.0032,0.08014997598008433,0.0,0.0,0.0,0.0,0.012232019575880937,0.8737054178180111,0.5102937145045685,0.6039985467300154,-0.008303236214115613,-0.007042268148217754,0.1075261918045089
8016,9.0,300.26905,-6655.2042,0.08015995261955178,0.0,0.0,0.0,0.0,0.012233542152123467,0.8891200321193151,0.5152835862120305,0.6186122780197784,-0.0014180876926543585,-0.017927700504076285,0.10835668198397191
8017,9.0,300.0421,-6580.9432,0.08016996229424933,0.0,0.0,0.0,0.0,0.01223506977000921,0.907089019525216,0.5047309106605625,0.5886224764625154,-0.00957661365531318,0.013263856201790686,0.1033717448044969
8018,9.0,300.10007,-6473.1424,0.08017997196894666,0.0,0.0,0.0,0.0,0.012236597387894899,0.886917165606909,0.4846146740402446,0.5961418054546154,0.011839694682736887,0.0035270045412132463,0.11185456318418589
8019,9.0,300.04704,-6461.3129,0.08018994860841433,0.0,0.0,0.0,0.0,0.012238119964137456,0.8939432748478321,0.4890649090094486,0.5810695886271035,-0.004228004194996526,0.002925624090886617,0.11850413855544788
8020,9.0,299.90297000000004,-6461.9837,0.08019995828311166,0.0,0.0,0.0,0.0,0.012239647582023172,0.8766870987547802,0.4987424607145485,0.5888521194651795,0.00029183677002954676,-0.01194469475084959,0.11839671377984588
8021,9.0,299.44117,-6584.0131,0.08020996795780921,0.0,0.0,0.0,0.0,0.012241175199908916,0.8786348998195131,0.5031249396495656,0.6196157299913114,0.004023921540680137,0.0099857429700911,0.1170399212334409
8022,9.0,300.24875,-6781.0526,0.08021997763250655,0.0,0.0,0.0,0.0,0.012242702817794632,0.911222857018194,0.5371220136298155,0.6129257867360655,0.013570313694535688,0.017218584514341984,0.12230158714772688
8023,9.0,301.08121,-6713.323,0.08022995427197399,0.0,0.0,0.0,0.0,0.01224422539403719,0.9076138324145111,0.5180562336531696,0.6150124841245065,0.003136967087469547,0.014096991977264788,0.1026430355975789
8024,9.0,300.61773,-6576.2672,0.08023996394667154,0.0,0.0,0.0,0.0,0.012245753011922905,0.8960658210248111,0.5169930100582375,0.5859621781924644,0.006173864987113035,-0.016604832584269383,0.09147375480375672
8025,9.0,300.01308,-6693.8205,0.08024997362136888,0.0,0.0,0.0,0.0,0.012247280629808593,0.9131128724297242,0.5167621612879545,0.6048792637169353,0.0018007444300196383,0.007710602645277232,0.09082296959577922
8026,9.0,299.68112,-6667.9526,0.08025995026083632,0.0,0.0,0.0,0.0,0.012248803206051151,0.903325818786317,0.5024039615409105,0.6211613315613504,0.010336461152379291,-0.007050335746838963,0.09265565126365082
8027,9.0,299.77315,-6520.2012,0.08026995993553387,0.0,0.0,0.0,0.0,0.012250330823936867,0.8685701649862011,0.5100292359634665,0.6033789645588674,-0.0045182969035961855,-0.018328549336386984,0.10985186422903488
8028,9.0,299.62032,-6545.8498,0.0802799696102312,0.0,0.0,0.0,0.0,0.01225185844182261,0.8948834392181192,0.49673485762891356,0.5981565823509585,-0.007230515831296353,-0.021533957921736183,0.11749275283563189
8029,9.0,299.84274,-6586.3332,0.08028997928492876,0.0,0.0,0.0,0.0,0.012253386059708327,0.9077238409778681,0.4943472756232775,0.6000097357238505,-0.0026315409149878675,0.01180855953366409,0.11460265957540189
8030,9.0,299.75366,-6555.7265,0.0802999559243962,0.0,0.0,0.0,0.0,0.012254908635950884,0.9019624401142621,0.5053301872997065,0.5854845422278254,0.008669893529751872,0.01120531804687879,0.1361236053393539
8031,9.0,300.04123,-6599.1417,0.08030996559909354,0.0,0.0,0.0,0.0,0.0122564362538366,0.9124093323552901,0.4908141738495876,0.6027508001593724,-0.0012682849475199787,0.015816753000991984,0.1046906620621639
8032,9.0,300.65403,-6613.899,0.08031997527379109,0.0,0.0,0.0,0.0,0.012257963871722316,0.882578763051242,0.5262656974208805,0.6016156763373444,-0.008684681914961372,-0.004028212148228587,0.13380639355316287
8033,9.0,300.73793,-6571.4394,0.08032995191325853,0.0,0.0,0.0,0.0,0.012259486447964846,0.8913069399426461,0.5049543525726145,0.6012921861104185,-0.0013217017702668087,0.013461813860577588,0.08694998016879492
8034,9.0,299.96763,-6627.2913,0.08033996158795609,0.0,0.0,0.0,0.0,0.01226101406585059,0.8933831096625482,0.5123410369941235,0.6088069048145635,0.002697629139510268,0.006840482633203073,0.11450128390289689
8035,9.0,300.12646,-6612.8999,0.08034997126265342,0.0,0.0,0.0,0.0,0.012262541683736305,0.8996525439937931,0.5106429007540305,0.5998610108741724,-0.005073132494679195,0.0029652413591965366,0.08026106840215072
8036,9.0,300.39405,-6486.7971,0.08035994790212087,0.0,0.0,0.0,0.0,0.012264064259978835,0.8800143891681581,0.5067880312785845,0.5850219327621694,-0.006670313459733683,-0.017209320368677682,0.1127531336378679
8037,9.0,300.44858999999997,-6484.0488,0.08036995757681842,0.0,0.0,0.0,0.0,0.012265591877864579,0.8823228363409842,0.5036688117732415,0.5849972702547355,-0.0028557638402169475,0.004649076182078096,0.09795280018318872
8038,9.0,300.48708999999997,-6654.5915,0.08037996725151575,0.0,0.0,0.0,0.0,0.012267119495750295,0.8978055815790121,0.5139013002931094,0.6111227892431234,0.014244499913572685,0.0054840305388316754,0.12292333767408888
8039,9.0,299.53938,-6751.4228,0.0803899769262133,0.0,0.0,0.0,0.0,0.012268647113636011,0.9109336045121471,0.5079825011589695,0.6333478526340663,0.008728920819627412,-0.0075793072171943835,0.10928219475781291
8040,9.0,299.73528,-6577.5804,0.08039995356568075,0.0,0.0,0.0,0.0,0.01227016968987854,0.8960587384066121,0.5135052613590235,0.5898561996517744,-0.012402836796814688,-0.016297435808681683,0.13247423311668885
8041,9.0,299.61008,-6627.1268,0.0804099632403783,0.0,0.0,0.0,0.0,0.012271697307764284,0.9126510330341442,0.4985417966647446,0.6032882482774145,0.0012853125141254688,0.004945808095063255,0.11618227595129789
8042,9.0,299.807,-6612.0943,0.08041997291507563,0.0,0.0,0.0,0.0,0.01227322492565,0.921462914516309,0.5037261110663965,0.5847225477551224,-0.0017823881885580184,0.021730867879919683,0.11230064654071088
8043,9.0,300.27052000000003,-6622.3084,0.08042994955454308,0.0,0.0,0.0,0.0,0.01227474750189253,0.8991194123211771,0.5194986255680225,0.5943983364050485,-0.012310492222450987,0.01082730685857199,0.098614070503201
8044,9.0,300.26488,-6667.8585,0.08043995922924063,0.0,0.0,0.0,0.0,0.012276275119778274,0.8967780142550992,0.5127332357103305,0.6173512274753225,-0.0017079625369127783,0.003963463946963436,0.1015544503526439
8045,9.0,300.27127,-6660.7443,0.08044996890393818,0.0,0.0,0.0,0.0,0.012277802737664018,0.889159994703259,0.5277135203562695,0.6078264536203004,-0.002152253454010878,0.01081700818455559,0.08581626679090612
8046,9.0,300.86277,-6481.9363,0.08045997857863552,0.0,0.0,0.0,0.0,0.012279330355549706,0.8771737121153051,0.5066719330821265,0.5865011259206544,0.014009731891902886,0.01169211176592159,0.11222326463057389
8047,9.0,300.59676,-6639.8609,0.08046995521810296,0.0,0.0,0.0,0.0,0.012280852931792235,0.9044347500932601,0.5150380149177944,0.5988791309972684,0.0028354335849105077,-0.017154169165734683,0.09174787137980993
8048,9.0,300.47755,-6665.6242,0.08047996489280052,0.0,0.0,0.0,0.0,0.01228238054967798,0.9043309223555132,0.5252676460723804,0.5965847578683314,-0.0005533506223989544,-0.018941185678099482,0.12940063013084788
8049,9.0,299.87075,-6435.04,0.08048997456749785,0.0,0.0,0.0,0.0,0.012283908167563695,0.8902485292856891,0.47980627542569254,0.5860366723398165,-0.004616988273936266,-0.006358431431253323,0.1149844826105849
8050,9.0,300.03151,-6397.8330000000005,0.08049995120696529,0.0,0.0,0.0,0.0,0.012285430743806225,0.8615902700823392,0.5031312825951915,0.5800599254324574,-0.005054765310116495,0.0026187436675498776,0.15189231002060385
8051,9.0,299.84956,-6542.5684,0.08050996088166285,0.0,0.0,0.0,0.0,0.012286958361691969,0.9004465571696562,0.4927441315800595,0.5955867166523324,-0.007073642221664133,-0.005061508286881975,0.11088584542608089
8052,9.0,299.95786,-6663.6543,0.0805199705563604,0.0,0.0,0.0,0.0,0.012288485979577712,0.9033643932176242,0.5094308712494126,0.6127892512850904,-0.008436140886007281,0.007107006622281943,0.1309287734016639
8053,9.0,300.20881,-6559.5676,0.08052994719582762,0.0,0.0,0.0,0.0,0.012290008555820214,0.8967646089562761,0.5121420144094815,0.5850381447637694,0.01185419327841779,0.01819032175774498,0.1022770395289579
8054,9.0,300.69424,-6577.518,0.08053995687052518,0.0,0.0,0.0,0.0,0.01229153617370593,0.9020437331697851,0.5106480784620415,0.5867094298762124,0.0005967401397711664,0.023840208368345377,0.1066986400503359
8055,9.0,300.20531,-6633.7585,0.08054996654522273,0.0,0.0,0.0,0.0,0.012293063791591674,0.8997169664351511,0.5062367928266815,0.6105431797884204,0.0023356197034077176,0.004904605394321865,0.09135991716827181
8056,9.0,300.67011,-6710.1605,0.08055997621992028,0.0,0.0,0.0,0.0,0.012294591409477418,0.8999661145022401,0.5267564043118095,0.6129987306107644,-0.012904802922854886,-0.007951211851123512,0.09854330410296691
8057,9.0,300.4892,-6758.2313,0.0805699528593875,0.0,0.0,0.0,0.0,0.01229611398571992,0.914479128732063,0.5056846221846866,0.6341698011151864,0.004706392903134815,0.004019790722672456,0.1024829218167769
8058,9.0,300.24476,-6637.089,0.08057996253408506,0.0,0.0,0.0,0.0,0.012297641603605691,0.9115601071814782,0.5027149279966006,0.6032343028420905,-0.010723052542532889,0.007400925043714433,0.1045447439152629
8059,9.0,299.98908,-6514.298000000001,0.08058997220878261,0.0,0.0,0.0,0.0,0.012299169221491407,0.8852686887542172,0.4937720028790026,0.6011432282132174,-0.0033754457323305572,-0.020426534330941982,0.12460061109462288
8060,9.0,300.37227,-6547.9334,0.08059994884824984,0.0,0.0,0.0,0.0,0.012300691797733937,0.9060252386427292,0.4896183259490665,0.5947646871112044,-0.0011710360400222588,-0.007949775366456743,0.1046486223155149
8061,9.0,300.26703,-6662.7848,0.08060995852294717,0.0,0.0,0.0,0.0,0.012302219415619625,0.9049037936970512,0.5112449942284525,0.6091714316705394,0.027213607740773974,0.003615932030939707,0.13154659251763787
8062,9.0,300.39496,-6568.5412,0.08061996819764472,0.0,0.0,0.0,0.0,0.012303747033505369,0.8964638864590971,0.4913654629639955,0.6088431386381394,0.02100930107295658,0.017218864171369582,0.10399182346819391
8063,9.0,299.71806000000004,-6574.3192,0.08062997787234227,0.0,0.0,0.0,0.0,0.012305274651391113,0.8965800353180601,0.5089259687245825,0.5929228618744304,0.0031031683065338668,-0.014932289015202185,0.12025624049586689
8064,9.0,299.38583,-6664.146,0.0806399545118095,0.0,0.0,0.0,0.0,0.012306797227633615,0.8945790791530811,0.5215390275593945,0.6096158532969004,-0.014687951859587985,-0.004960159668154645,0.10483591146399888
8065,9.0,300.13897000000003,-6636.3285,0.08064996418650727,0.0,0.0,0.0,0.0,0.012308324845519386,0.8946713153096842,0.5183052702627475,0.6043015895699234,0.001189593208978709,-0.002252354559215088,0.101025626006203
8066,9.0,299.99422000000004,-6776.4282,0.0806599738612046,0.0,0.0,0.0,0.0,0.012309852463405102,0.9006663513813481,0.5487926688116194,0.6104059249298744,-0.014357846122759088,0.012578060163107887,0.1232586322646799
8067,9.0,299.90795,-6793.0742,0.08066995050067205,0.0,0.0,0.0,0.0,0.012311375039647632,0.9141040235450432,0.5226115527902445,0.6282093371369344,-0.004855983169723225,-0.010493220062100189,0.09275557697526271
8068,9.0,299.98933999999997,-6581.3441,0.08067996017536938,0.0,0.0,0.0,0.0,0.01231290265753332,0.8869768257727971,0.5118625296343985,0.6017249249631265,-0.015894329455148185,-0.010110311430760051,0.11988714388193988
8069,9.0,300.23868999999996,-6479.4275,0.08068996985006716,0.0,0.0,0.0,0.0,0.012314430275419092,0.8822692556756961,0.49968047699462353,0.5876344360250034,0.019372700524686683,0.0012603473488865989,0.11061942144478688
8070,9.0,300.74683,-6642.3901,0.08069994648953438,0.0,0.0,0.0,0.0,0.012315952851661593,0.9035573869641711,0.49348987352115853,0.6220734694338714,0.014648009540645988,0.011776886348788188,0.12484480436872288
8071,9.0,301.08258,-6644.9664,0.08070995616423193,0.0,0.0,0.0,0.0,0.012317480469547337,0.9191897284469632,0.4997737973288335,0.6009403350131934,0.017630257897470983,-0.012511217067260988,0.099034224789667
8072,9.0,299.73938,-6532.3305,0.08071996583892949,0.0,0.0,0.0,0.0,0.012319008087433081,0.8940467175505412,0.49324101929659847,0.5983776127277725,-0.0014752439148952386,-0.0006492187435879014,0.11243644231911289
8073,9.0,299.8622,-6597.0926,0.08072997551362682,0.0,0.0,0.0,0.0,0.01232053570531877,0.8937937495305751,0.5025896092242326,0.6089680622429684,0.01211714687811929,-0.0026302165971071674,0.0975711281222706
8074,9.0,300.14788,-6770.6715,0.08073995215309426,0.0,0.0,0.0,0.0,0.012322058281561327,0.9249486772453273,0.5200364080585975,0.6131299870287185,-0.007629357313833943,0.007673349593425642,0.10300695450349491
8075,9.0,300.2663,-6804.7868,0.0807499618277916,0.0,0.0,0.0,0.0,0.012323585899447015,0.9105647004157392,0.5331192704347755,0.6248013109555884,-0.011099688750453989,-0.012618371305086288,0.11064327335214089
8076,9.0,300.02735,-6675.8564,0.08075997150248937,0.0,0.0,0.0,0.0,0.012325113517332786,0.9173216397675971,0.5131579901522505,0.5988140296783434,-0.008864178562226311,-0.004183198883524586,0.09124674625135272
8077,9.0,299.66783,-6589.8302,0.0807699481419566,0.0,0.0,0.0,0.0,0.012326636093575288,0.8861991157910432,0.5156778418259406,0.6012668548579184,0.004000979835890966,0.0008705255046316782,0.1117057775395019
8078,9.0,299.5775,-6467.7848,0.08077995781665415,0.0,0.0,0.0,0.0,0.012328163711461032,0.8980672838148401,0.48938755823879154,0.5785902365599105,0.012857170035653887,0.005489839400329964,0.0965526425590039
8079,9.0,300.28353,-6566.8725,0.0807899674913517,0.0,0.0,0.0,0.0,0.012329691329346776,0.8833784808251682,0.5142653407890375,0.5985214537119684,0.006210132045292314,-0.01302936783714849,0.12453126425777888
8080,9.0,299.56796,-6713.4924,0.08079997716604925,0.0,0.0,0.0,0.0,0.01233121894723252,0.9237938963713591,0.5057256790787384,0.6112144883771735,0.0027325950832361376,0.0076700657511765535,0.0961396337122431
8081,9.0,299.71802,-6533.8287,0.08080995380551648,0.0,0.0,0.0,0.0,0.012332741523475022,0.8735588613235471,0.5039811765140695,0.6085807372597424,0.010936002249799388,0.005005795946033595,0.13072396515895088
8082,9.0,299.20611,-6509.0735,0.08081996348021403,0.0,0.0,0.0,0.0,0.012334269141360737,0.8851283333503651,0.5157728644203186,0.5776946247965205,0.0004864927736305986,0.004291837330096366,0.13436821033610988
8083,9.0,299.52835,-6764.1045,0.08082997315491158,0.0,0.0,0.0,0.0,0.012335796759246481,0.9183226396738882,0.5196418586021585,0.6181543801670875,-0.003028607487325287,-0.011468662761118888,0.11109801999702089
8084,9.0,299.8176,-6757.7339,0.08083994979437903,0.0,0.0,0.0,0.0,0.012337319335489011,0.9234253570449871,0.5244397700781755,0.6063172277288514,0.003737783360140496,-0.008716056292382783,0.10260196857102591
8085,9.0,300.10458,-6547.4017,0.08084995946907636,0.0,0.0,0.0,0.0,0.012338846953374727,0.8866529809083361,0.5155334435541895,0.5880602239820254,0.001162549969109749,0.0008546251584974361,0.1042172614829429
8086,9.0,299.7042,-6549.7586,0.08085996914377391,0.0,0.0,0.0,0.0,0.01234037457126047,0.8822314918444691,0.5045485560400655,0.6041830190432214,-0.0008417965003063463,0.00028697538856726573,0.10064013500565801
8087,9.0,300.36251,-6567.1444,0.08086997881847147,0.0,0.0,0.0,0.0,0.012341902189146187,0.8893644280434352,0.5139750547678885,0.5929084230605054,-0.0036144182352903067,-0.010229054615279091,0.10616001656217788
8088,9.0,299.91578,-6609.6127,0.08087995545793869,0.0,0.0,0.0,0.0,0.012343424765388716,0.8908652236940522,0.5066170250592075,0.6116749497526175,-0.008034543261872681,-0.0016028803955419786,0.11350340480691389
8089,9.0,300.21807,-6686.6742,0.08088996513263624,0.0,0.0,0.0,0.0,0.012344952383274432,0.9171062329288382,0.5072631442504745,0.6082126133659114,-0.013759888735245288,0.00983267421590939,0.10463044460872091
8090,9.0,299.2751,-6718.7048,0.0808999748073338,0.0,0.0,0.0,0.0,0.012346480001160176,0.9140752472422031,0.5151498777288345,0.6130933783026054,0.0024568790919000877,0.005449580238081695,0.1064125387520999
8091,9.0,299.50551,-6538.8802,0.08090995144680102,0.0,0.0,0.0,0.0,0.012348002577402706,0.9015128002498861,0.48694295051752756,0.5992005643264914,-0.0028768223183702575,-0.004107924128295546,0.10667462602296589
8092,9.0,299.92908,-6612.3084,0.08091996112149857,0.0,0.0,0.0,0.0,0.012349530195288422,0.898102159883282,0.5059134241897676,0.6059610500536994,0.009453903596652642,-0.0034736506412976265,0.0914574607288986
8093,9.0,300.41499,-6842.3783,0.0809299707961959,0.0,0.0,0.0,0.0,0.012351057813174166,0.9074896687472571,0.5335439843466915,0.6388784857873974,0.018000847028795283,0.007125982060879673,0.1235064428416369
8094,9.0,300.47712,-6710.0874,0.08093994743566335,0.0,0.0,0.0,0.0,0.012352580389416695,0.903805653503673,0.5142693532594336,0.6216240119545134,-0.008441488414735044,0.01940758165937918,0.1009071122215066
8095,9.0,300.11573,-6499.5867,0.0809499571103609,0.0,0.0,0.0,0.0,0.012354108007302439,0.8771554128184992,0.5262344690527986,0.5723222005138034,-0.0008930770068073382,0.013739552805738285,0.1283655444911929
8096,9.0,299.78735,-6535.2771,0.08095996678505823,0.0,0.0,0.0,0.0,0.012355635625188127,0.9169201292829712,0.48386383545114253,0.5857771080616995,-0.015134107156870085,0.0002686393715776418,0.09234328145657232
8097,9.0,300.19329,-6643.9686,0.08096997645975579,0.0,0.0,0.0,0.0,0.012357163243073871,0.9037975475028731,0.5221821576628665,0.5936208493383164,0.006733155940210753,0.007376244297778633,0.12327055821835689
8098,9.0,299.85336,-6709.271,0.08097995309922323,0.0,0.0,0.0,0.0,0.0123586858193164,0.8919352157996522,0.5304247040463425,0.6170909336571334,-0.005471058809726465,-0.011731925402100888,0.10630006799099989
8099,9.0,299.60098999999997,-6778.4281,0.08098996277392057,0.0,0.0,0.0,0.0,0.012360213437202117,0.8955628031451671,0.5323801652818315,0.6325299166233425,0.007230885464932832,-0.014885310687565784,0.13513611205689585
8100,9.0,299.99921,-6628.6295,0.08099997244861812,0.0,0.0,0.0,0.0,0.01236174105508786,0.8916542212819202,0.5122764929627536,0.6110071368767094,0.0014967143805392083,-0.020029766870034084,0.1156206516858699
8101,9.0,299.99863999999997,-6465.2321,0.08100994908808556,0.0,0.0,0.0,0.0,0.01236326363133039,0.8833615088859931,0.49537730514493356,0.5865303075235344,0.012849467308393687,-0.0003157817950677367,0.13242151371398586
8102,9.0,300.00171,-6646.0936,0.08101995876278312,0.0,0.0,0.0,0.0,0.012364791249216134,0.9129039301266032,0.5036191321208385,0.6037234493278655,0.0034573220146111162,0.010949430853374688,0.10724760882201488
8103,9.0,299.86528,-6680.7494,0.08102996843748045,0.0,0.0,0.0,0.0,0.012366318867101822,0.9121601133606941,0.5148145932707445,0.6038063027885424,-0.011810403648846089,0.015759560099097486,0.1045433760276279
8104,9.0,299.75349,-6544.1739,0.081039978112178,0.0,0.0,0.0,0.0,0.012367846484987566,0.8844382695022611,0.4985692050799495,0.6062579829955045,-0.004195292631418147,0.0034876446384287264,0.10589351152087591
8105,9.0,299.77702,-6601.1753,0.08104995475164545,0.0,0.0,0.0,0.0,0.012369369061230095,0.8807673150524661,0.5159544692357415,0.6098706654320484,-0.007438151548413404,0.012657280108926288,0.10739580678164089
8106,9.0,298.9613,-6869.4003,0.081059964426343,0.0,0.0,0.0,0.0,0.01237089667911584,0.9397623126473191,0.5294002068702325,0.6189636427569554,0.0046487481930207256,0.004541381375324446,0.10492138924243491
8107,9.0,299.65247,-6831.3995,0.08106997410104033,0.0,0.0,0.0,0.0,0.012372424297001555,0.9143411544659461,0.5328889688195465,0.6293447446689904,-0.003624785101038436,-0.0049925772878790155,0.1010474250688544
8108,9.0,299.6715,-6744.1325,0.081079950740508,0.0,0.0,0.0,0.0,0.012373946873244113,0.9400564591513492,0.5130106635877105,0.5969807562724134,0.003150186353574187,-0.016768032724875984,0.0993196076935821
8109,9.0,300.46425,-6685.9166,0.08108996041520533,0.0,0.0,0.0,0.0,0.012375474491129829,0.9037654274747031,0.5105655897714004,0.6180206716838914,0.0011680114884737589,-0.0017035586480031485,0.09602596326302472
8110,9.0,300.41057,-6554.1334,0.08109997008990266,0.0,0.0,0.0,0.0,0.012377002109015517,0.8981871006391652,0.4980533797190415,0.5960524266632944,0.00992821447976348,-0.003041671624839617,0.10983570288993989
8111,9.0,300.50581,-6566.0756,0.08110994672937033,0.0,0.0,0.0,0.0,0.012378524685258074,0.8732464459202143,0.5127536223023426,0.6099229694022104,-0.009538459824122691,-0.0035469086235276268,0.13299094000518386
8112,9.0,299.97092999999995,-6705.1841,0.08111995640406766,0.0,0.0,0.0,0.0,0.01238005230314379,0.9290899013315341,0.5072258870442975,0.6018927597096905,-0.0022529069831696076,-0.008379863759553163,0.1063047897364659
8113,9.0,299.65196000000003,-6618.1458,0.08112996607876521,0.0,0.0,0.0,0.0,0.012381579921029534,0.8889771233252111,0.5183780418849294,0.6043959130217325,-0.0008316249587799933,0.00971534846695524,0.12977682962797588
8114,9.0,299.37135,-6456.3708,0.08113997575346255,0.0,0.0,0.0,0.0,0.01238310753891525,0.8992368986702721,0.4909639524793695,0.5723746666039814,0.01149164023363659,0.003285233137502267,0.09763259693958709
8115,9.0,299.5013,-6684.9203,0.08114995239293021,0.0,0.0,0.0,0.0,0.012384630115157808,0.8863877424296592,0.5309673501373975,0.6146937561730503,0.007870801843062663,0.003408033172771687,0.12490238737190587
8116,9.0,299.51129,-6834.8136,0.08115996206762754,0.0,0.0,0.0,0.0,0.012386157733043524,0.910063405061265,0.5398542425244655,0.6276950215186754,0.01230963399961629,-0.005315353984084594,0.1032560113780749
8117,9.0,300.44341000000003,-6554.6435,0.0811699717423251,0.0,0.0,0.0,0.0,0.01238768535092924,0.8757807668053321,0.5139956136124175,0.6026715741340534,-0.008938362857697732,0.006573641294192884,0.12909454754063987
8118,9.0,300.66777,-6486.2088,0.08117994838179254,0.0,0.0,0.0,0.0,0.01238920792717177,0.8809686073173322,0.5126645981485565,0.5780122989678724,-0.017440260331469684,-0.003313829791099537,0.11277073379210488
8119,9.0,300.09151,-6552.0455,0.0811899580564901,0.0,0.0,0.0,0.0,0.012390735545057513,0.9014017075089221,0.49352033181916455,0.5967361982282774,-0.02209705646605968,-0.008786785506338213,0.1100132547049629
8120,9.0,299.99705,-6498.4932,0.08119996773118743,0.0,0.0,0.0,0.0,0.012392263162943229,0.8980937397749511,0.4908597093090815,0.5864262163407615,-0.0032186017096012573,-0.0023861082333655474,0.10121095350249341
8121,9.0,299.54829,-6620.9283,0.08120997740588476,0.0,0.0,0.0,0.0,0.012393790780828945,0.8963457718949401,0.5110670168483875,0.6051841000095205,-0.004594626553504336,0.013711824203501685,0.1033041711553279
8122,9.0,299.68779,-6841.0623,0.0812199540453522,0.0,0.0,0.0,0.0,0.012395313357071502,0.925166748931849,0.5098469117404726,0.6444984470695444,0.016744274036531184,-0.0033151311082029664,0.10557576642201691
8123,9.0,300.08808999999997,-6763.4102,0.08122996372004976,0.0,0.0,0.0,0.0,0.012396840974957218,0.913096407115599,0.5244717178538285,0.6183396934778764,-0.003981829510325976,-0.0024200477547401174,0.12291263775303289
8124,9.0,299.92617,-6686.1297,0.08123997339474731,0.0,0.0,0.0,0.0,0.012398368592842934,0.9073402548875112,0.5230466930456895,0.6020295180756874,0.018727504404260784,-0.005621597073108434,0.1104314331537339
8125,9.0,300.42982,-6714.2284,0.08124995003421454,0.0,0.0,0.0,0.0,0.012399891169085464,0.9192519724006061,0.5137389978920915,0.6079668191566534,0.013498744800222387,0.0047705444014160756,0.10801442636519389
8126,9.0,300.82583999999997,-6624.1509,0.08125995970891209,0.0,0.0,0.0,0.0,0.012401418786971208,0.9112226138381702,0.5035744376589275,0.5987794170549274,0.005892577234802094,-0.003441317830606627,0.07862419224985362
8127,9.0,300.70791,-6480.3639,0.08126996938360942,0.0,0.0,0.0,0.0,0.012402946404856924,0.8794008257026042,0.4983357725219115,0.5921322126888995,-0.016193342599408484,-0.00989954446685897,0.11852097877210989
8128,9.0,301.06745,-6596.9232,0.08127994602307709,0.0,0.0,0.0,0.0,0.012404468981099481,0.8915389843480471,0.5046939979594195,0.6090669554527284,-0.008445872747917742,-0.00022387248254949379,0.10191607931333391
8129,9.0,300.21114,-6679.1249,0.08128995569777442,0.0,0.0,0.0,0.0,0.012405996598985197,0.8962139277919281,0.5279220370943485,0.6061512168324674,-0.0014115272022318887,0.02240499127745048,0.14051535551278588
8130,9.0,299.39869,-6657.2178,0.08129996537247197,0.0,0.0,0.0,0.0,0.012407524216870941,0.9064557990077222,0.5176430910573955,0.5995290701414124,0.0017324744753819184,-0.0027200355442716074,0.12146040717970889
8131,9.0,300.20451,-6678.2363,0.0813099750471693,0.0,0.0,0.0,0.0,0.01240905183475663,0.9027217900042042,0.5252521028158466,0.6020431868195364,-0.005576821449864425,0.0009542701593016321,0.13433368890520286
8132,9.0,300.01887999999997,-6723.1642,0.08131995168663697,0.0,0.0,0.0,0.0,0.012410574410999187,0.924443491010469,0.5116817354190555,0.6075488230929005,0.004296187314100676,-0.0005862133831572565,0.09384695879047372
8133,9.0,299.5661,-6588.2734,0.0813299613613343,0.0,0.0,0.0,0.0,0.012412102028884903,0.8705220190513342,0.5207736285663555,0.6113749567955103,0.01990391411486338,0.0019089457604982783,0.1078482736137959
8134,9.0,299.98134,-6561.0774,0.08133997103603163,0.0,0.0,0.0,0.0,0.012413629646770619,0.8851557721630732,0.5012854550205226,0.6079624824462254,0.006269546295381045,-0.016967071521519585,0.09954220860805109
8135,9.0,299.78317000000004,-6685.8418,0.0813499476754993,0.0,0.0,0.0,0.0,0.012415152223013176,0.8969654249935951,0.5205513721569205,0.6148121645797364,0.0013201511936387787,-0.017045716954531283,0.12040740727828589
8136,9.0,300.07763,-6603.9438,0.08135995735019663,0.0,0.0,0.0,0.0,0.012416679840898892,0.9100240200298781,0.5173361269396005,0.5800738576213325,-0.007942796403742972,-0.016049203719683085,0.11331232610305589
8137,9.0,300.34667,-6581.7969,0.08136996702489419,0.0,0.0,0.0,0.0,0.012418207458784636,0.900336315558776,0.5105999794797945,0.5897656252253354,0.002480432394449618,0.010779099458564291,0.11311939315151488
8138,9.0,300.02672,-6810.9034,0.08137997669959152,0.0,0.0,0.0,0.0,0.012419735076670324,0.9362068991064271,0.5228074140345745,0.6113302623335994,-0.003988425363176936,-0.005556752511758775,0.09592392391170422
8139,9.0,300.19967,-6717.4098,0.08138995333905918,0.0,0.0,0.0,0.0,0.012421257652912882,0.9083695042065902,0.5104707799595435,0.6230845714436594,-0.009136075715260471,-0.007152560421602753,0.100964162255137
8140,9.0,299.98969,-6579.2665,0.08139996301375652,0.0,0.0,0.0,0.0,0.012422785270798598,0.8945254478252881,0.5051146690034366,0.6002926250192694,-0.004415236804124946,-0.0053174940696208055,0.1087429430545929
8141,9.0,300.57887999999997,-6628.3372,0.08140997268845407,0.0,0.0,0.0,0.0,0.012424312888684341,0.8944323706711022,0.5064985558575155,0.6139180828239974,0.008628091896876371,0.011227095831278091,0.10796007562982989
8142,9.0,300.62092,-6648.6104,0.08141994932792151,0.0,0.0,0.0,0.0,0.012425835464926871,0.8988473850668302,0.5068663352463125,0.6152978153526665,-0.0019459142917217884,0.0036748807939324967,0.11742837092427788
8143,9.0,300.79762,-6583.7926,0.08142995900261907,0.0,0.0,0.0,0.0,0.012427363082812615,0.892804878227981,0.5081659906195786,0.6003376842512164,-0.01034317190779159,-0.007722024912329523,0.12335106093880188
8144,9.0,300.49953999999997,-6571.6442,0.0814399686773164,0.0,0.0,0.0,0.0,0.01242889070069833,0.8962470813352001,0.49821404065489755,0.6031546208542264,-7.501447053010183e-05,0.002791088998259037,0.1202282443956039
8145,9.0,300.27912000000003,-6500.3314,0.08144997835201373,0.0,0.0,0.0,0.0,0.012430418318584019,0.8888824249708652,0.49421524913524756,0.5928407480863265,0.0007753354402771503,0.008039112614523643,0.1078679104007339
8146,9.0,299.7998,-6500.307,0.0814599549914814,0.0,0.0,0.0,0.0,0.012431940894826576,0.8678347987261261,0.5132069503970825,0.5948892763435004,0.001217664897699169,-0.0005423964160978585,0.11944688671348988
8147,9.0,300.46072000000004,-6704.7815,0.08146996466617873,0.0,0.0,0.0,0.0,0.012433468512712292,0.8991805214347082,0.5315947343343155,0.6073109119694204,0.004519663980631105,-0.008151427841733292,0.12387862986836888
8148,9.0,300.56421,-6814.2579,0.08147997434087628,0.0,0.0,0.0,0.0,0.012434996130598036,0.9161614278730932,0.5280568804176565,0.6271459412894854,0.011063425542625089,-0.007677895945299333,0.1147226587847449
8149,9.0,299.81838999999997,-6656.94,0.08148995098034373,0.0,0.0,0.0,0.0,0.012436518706840566,0.9008305789575561,0.5213523058309665,0.6013606615521765,0.005821141380226925,-0.0017928890059693684,0.1136425848406499
8150,9.0,299.68304,-6565.3733,0.08149996065504128,0.0,0.0,0.0,0.0,0.01243804632472631,0.8816253251046451,0.5210881413973955,0.5929960691941555,0.0016830806608321284,-0.008023230527156202,0.11073026087322589
8151,9.0,299.41685,-6753.1843,0.08150997032973861,0.0,0.0,0.0,0.0,0.012439573942612026,0.9102021899274622,0.5199110082262215,0.6226861919018424,-0.004603241712479586,-0.001940392585301838,0.1035672108812879
8152,9.0,299.49388999999996,-6766.4481,0.08151994696920606,0.0,0.0,0.0,0.0,0.012441096518854555,0.919637139161119,0.5179376935239706,0.6192564416383524,-0.0059156087135501245,0.01058298895470969,0.10793432894478891
8153,9.0,299.81056,-6658.1418,0.08152995664390361,0.0,0.0,0.0,0.0,0.012442624136740271,0.9050453852660252,0.5098733170380785,0.6089901612276495,-0.0003935794619857686,0.02137353915265408,0.11254578213740388
8154,9.0,299.89137999999997,-6705.7903,0.08153996631860094,0.0,0.0,0.0,0.0,0.012444151754626015,0.906311046098436,0.5155891419121865,0.6164926398705863,0.005274780005030255,0.011665938502588489,0.1111977339393619
8155,9.0,300.10835,-6717.2068,0.0815499759932985,0.0,0.0,0.0,0.0,0.012445679372511731,0.9036694118952272,0.5268936287728525,0.6113000978781223,-0.012547599838601688,-0.0043544504107507955,0.1100176420778959
8156,9.0,300.31401,-6684.8558,0.08155995263276594,0.0,0.0,0.0,0.0,0.012447201948754288,0.9110120908648932,0.5087452657017485,0.6122718857840305,0.00948234633755972,0.004875204422795215,0.11257707130049188
8157,9.0,300.2721,-6717.1144,0.08156996230746327,0.0,0.0,0.0,0.0,0.012448729566640004,0.9094507028582962,0.5127105997030965,0.6196737385595364,-0.009004161191366522,-0.0034155278797863564,0.0944930364384866
8158,9.0,300.48825,-6616.7456,0.08157997198216083,0.0,0.0,0.0,0.0,0.012450257184525693,0.8944831648986151,0.5224101085378635,0.5944321586933865,-0.000977476413559411,-0.01088737029799979,0.0990854526882228
8159,9.0,300.10662,-6591.9938,0.08158994862162805,0.0,0.0,0.0,0.0,0.01245177976076825,0.8953382061280011,0.5073086999749705,0.6011546070118404,-0.00859645377045393,-0.028400836935944373,0.0980770327514495
8160,9.0,299.48767999999995,-6798.1889,0.0815999582963256,0.0,0.0,0.0,0.0,0.012453307378653966,0.9139066829555672,0.5321021699843954,0.6204708218832025,-0.0021001481821934878,-0.0028084165882191377,0.1080889813075519
8161,9.0,299.60832,-6830.2147,0.08160996797102316,0.0,0.0,0.0,0.0,0.01245483499653971,0.9193807058258112,0.5147256907069705,0.6421083116736565,0.006482586181906443,0.0015008027433676986,0.09690220573750309
8162,9.0,299.19075,-6623.979,0.08161997764572049,0.0,0.0,0.0,0.0,0.012456362614425426,0.8862621399472631,0.5176230185729145,0.6096390567241904,0.0006763361432316802,-0.0009807040406929531,0.12286172193550789
8163,9.0,299.16617,-6504.8774,0.08162995428518816,0.0,0.0,0.0,0.0,0.012457885190667983,0.8775005359350602,0.5086519555000395,0.5911678215087214,0.01135749706614769,-0.004433271237354806,0.12696867790333288
8164,9.0,299.21903,-6679.005,0.08163996395988549,0.0,0.0,0.0,0.0,0.0124594128085537,0.9224174467730141,0.5200460541995495,0.5877872645375865,0.004591731799293646,0.016771493987217584,0.1280460464696609
8165,9.0,298.7237,-6660.8986,0.08164997363458304,0.0,0.0,0.0,0.0,0.012460940426439415,0.9138236673748741,0.5135206019655375,0.5974025824215444,0.013197141788706488,0.01983899720745658,0.12433892912379688
8166,9.0,299.15252000000004,-6518.9943,0.08165995027405026,0.0,0.0,0.0,0.0,0.012462463002681945,0.8823192291706282,0.5166980428216265,0.5825942260525735,-0.012492763756439788,0.0028912261751668075,0.1294040447836849
8167,9.0,299.49202,-6606.2824,0.08166995994874804,0.0,0.0,0.0,0.0,0.012463990620567689,0.8768318313990641,0.5145869767682805,0.6167260825611255,-0.004625784196729355,-0.0034944555029509062,0.10489326141965889
8168,9.0,300.0764,-6703.8945,0.08167996962344537,0.0,0.0,0.0,0.0,0.012465518238453405,0.8924652063969583,0.5273046638084186,0.6180466615489564,-0.023576412757810774,-0.006102024035147885,0.1023437215180389
8169,9.0,299.82409,-6733.811,0.08168994626291282,0.0,0.0,0.0,0.0,0.012467040814695934,0.9068246524416251,0.5197985577301235,0.6202872007000804,-0.0027464759003310675,0.0008636465699677801,0.0900623065337076
8170,9.0,300.01793,-6798.8927,0.08169995593761037,0.0,0.0,0.0,0.0,0.012468568432581678,0.9304952893527352,0.5209410884103826,0.6152572245536604,-0.01047827057012479,-0.005072341349001115,0.10477968621594991
8171,9.0,300.8111,-6807.7119999999995,0.0817099656123077,0.0,0.0,0.0,0.0,0.012470096050467394,0.9212309309059141,0.5264644666929975,0.6216790618324465,0.013097458243868489,-0.005016091073674646,0.1037472552915569
8172,9.0,300.49199,-6687.8867,0.08171997528700525,0.0,0.0,0.0,0.0,0.01247162366835311,0.9097575757835821,0.5065986953648984,0.6165942891206184,0.0068961702507490145,0.01705642802133838,0.12196816706982087
8173,9.0,300.01333,-6704.6985,0.0817299519264727,0.0,0.0,0.0,0.0,0.012473146244595668,0.9063505324548331,0.5098975235829675,0.6218128513756503,0.017260313193210284,0.011156165284527791,0.09593975189151632
8174,9.0,299.60496,-6675.8069,0.08173996160117025,0.0,0.0,0.0,0.0,0.012474673862481384,0.8906417919145011,0.5183588103980316,0.6202780003891725,-0.007378646207140683,-0.0025278207844014874,0.1125212006899779
8175,9.0,299.65589,-6563.8966,0.08174997127586758,0.0,0.0,0.0,0.0,0.0124762014803671,0.8933665024934092,0.5042008390032485,0.5976933142727374,-0.007317989915079373,-0.01086574754086579,0.09619816005126922
8176,9.0,299.72328999999996,-6644.3414,0.08175994791533503,0.0,0.0,0.0,0.0,0.01247772405660963,0.9095872788392753,0.5193659505999285,0.5907606368235355,-0.01021935882507219,0.0004427118681422596,0.11934395063583089
8177,9.0,300.05699,-6835.2414,0.08176995759003258,0.0,0.0,0.0,0.0,0.012479251674495373,0.9412048362846851,0.5262908564208635,0.6102470169166915,0.00858749572764484,2.5374273072745776e-05,0.1010187207067715
8178,9.0,299.40979,-6786.1826,0.08177996726473014,0.0,0.0,0.0,0.0,0.012480779292381117,0.9086149336458121,0.5193767315809925,0.6348383941936714,-0.01350297714589009,-0.0016092808937736586,0.11418594020677489
8179,9.0,299.8568,-6678.4319,0.08178997693942747,0.0,0.0,0.0,0.0,0.012482306910266805,0.8773906286967131,0.5356948407314645,0.6169910879922794,0.005375550665900545,-0.016090578774266485,0.1033127229861719
8180,9.0,300.197,-6738.5473,0.08179995357889491,0.0,0.0,0.0,0.0,0.012483829486509362,0.892498633517757,0.5225203501487434,0.6333311238749154,0.005940111532768364,0.004096130302431587,0.1108546981180069
8181,9.0,300.62959,-6720.0104,0.08180996325359247,0.0,0.0,0.0,0.0,0.012485357104395078,0.9094635812670672,0.5181590380083155,0.6150927436649274,0.012041157173619688,8.563434888120222e-05,0.09591558486338121
8182,9.0,300.37807999999995,-6619.7912,0.0818199729282898,0.0,0.0,0.0,0.0,0.012486884722280794,0.9002163771444391,0.5246493000663546,0.5873855514029405,0.011188826388251189,-0.006269721587648344,0.1237158715048059
8183,9.0,299.95977,-6660.1265,0.08182994956775724,0.0,0.0,0.0,0.0,0.012488407298523324,0.9035104430870382,0.5248751433811435,0.5961265661731114,-0.0030514897143335876,-0.0023227945915919776,0.12131952488580489
8184,9.0,300.37349,-6654.0056,0.0818399592424548,0.0,0.0,0.0,0.0,0.012489934916409068,0.8988419844437973,0.5258576109431055,0.5979519564932634,0.005017175048631625,0.00959346400447618,0.12734897093086486
8185,9.0,300.05397,-6614.3797,0.08184996891715235,0.0,0.0,0.0,0.0,0.012491462534294812,0.8783791960242772,0.5267239803086095,0.6055030914060024,-0.006218403509833644,0.002405140413968878,0.11589162516011288
8186,9.0,299.99892,-6625.6554,0.08185997859184968,0.0,0.0,0.0,0.0,0.0124929901521805,0.8916159406931422,0.5052659269783646,0.6171519414456543,-0.008439017604366193,0.003369906901983917,0.1039208149011859
8187,9.0,300.33295,-6670.023,0.0818699552313169,0.0,0.0,0.0,0.0,0.012494512728423057,0.8983711879173331,0.5274981945775186,0.6016510691633374,-0.012872371826904188,-0.0073603621090861816,0.11346991689110889
8188,9.0,299.53952999999996,-6650.5458,0.08187996490601446,0.0,0.0,0.0,0.0,0.012496040346308773,0.9100549748204332,0.5066438255243525,0.6049010688590875,-0.0042493252062507465,0.002045699870844858,0.093874005475393
8189,9.0,299.12991,-6687.4351,0.08188997458071201,0.0,0.0,0.0,0.0,0.012497567964194517,0.9131840735142511,0.5115983854658295,0.6080308160329694,0.0088939740933419,0.0035016819013390962,0.11801059456423889
8190,9.0,299.66847,-6798.606,0.08189995122017923,0.0,0.0,0.0,0.0,0.012499090540437019,0.9227694397252532,0.5215382473568175,0.6222987655936064,0.00944917627831109,-0.0047651503645087245,0.1003803559185198
8191,9.0,299.63896,-6759.069,0.08190996089487679,0.0,0.0,0.0,0.0,0.012500618158322763,0.8943862981890551,0.5245553515170825,0.6356465422084294,-0.0005750104340891115,-0.0012227591139019286,0.11682544658477388
8192,9.0,299.49099,-6685.9069,0.08191997056957434,0.0,0.0,0.0,0.0,0.012502145776208506,0.8931167768737631,0.5203080908079105,0.6189239030880334,0.003726653618392077,0.002039837712391308,0.10190793278252991
8193,9.0,300.00434,-6643.3239,0.08192994720904179,0.0,0.0,0.0,0.0,0.012503668352451036,0.9027361578906221,0.5104697869744454,0.6061986268046464,0.012473204989759488,0.006523320862426644,0.10550461599999489
8194,9.0,299.61922999999996,-6582.3008,0.08193995688373912,0.0,0.0,0.0,0.0,0.012505195970336752,0.9075598971116882,0.5000858682271325,0.5932093279427024,-0.0016736194380233783,0.0014987953935945886,0.1049388475416579
8195,9.0,300.41341,-6572.8449,0.08194996655843667,0.0,0.0,0.0,0.0,0.012506723588222468,0.8994991885911582,0.5044690767022215,0.5940124502369645,0.00960756996574333,-0.006248648316043574,0.11838690551887789
8196,9.0,299.91641,-6741.3565,0.08195997623313422,0.0,0.0,0.0,0.0,0.012508251206108212,0.9148469182533611,0.5136244195707835,0.6207327267690504,-0.01018063645925059,0.01004377646426856,0.1106964385848879
8197,9.0,299.73739,-6753.0074,0.08196995287260145,0.0,0.0,0.0,0.0,0.012509773782350714,0.9147750078937642,0.5183306116477485,0.6196399973312064,0.001042637088675269,0.0026198432465583976,0.10906265385864591
8198,9.0,300.19554,-6637.6758,0.081979962547299,0.0,0.0,0.0,0.0,0.012511301400236458,0.8835266787847941,0.5176284293284485,0.6165325923220295,-0.011870117516989388,-0.001031144400741029,0.11672080824694689
8199,9.0,300.09238999999997,-6675.7508,0.08198997222199655,0.0,0.0,0.0,0.0,0.012512829018122201,0.9070666064330041,0.5156897779121186,0.6065051653573994,-0.013304855340586987,-0.008470789682451851,0.10679046077439791
8200,9.0,299.66197999999997,-6771.1066,0.081999948861464,0.0,0.0,0.0,0.0,0.012514351594364731,0.9124828132525422,0.5298461990342485,0.6159183195814054,-0.0029784766346527573,-0.007550644904990633,0.11791956417525488
8201,9.0,299.33457999999996,-6712.5603,0.08200995853616133,0.0,0.0,0.0,0.0,0.012515879212250447,0.9185434674006822,0.5200570783606375,0.6018501829404884,0.010649921216565389,0.006864949988667813,0.11656592283666088
8202,9.0,299.00228,-6699.7864,0.08201996821085888,0.0,0.0,0.0,0.0,0.012517406830136163,0.8973122402378232,0.5240337911606086,0.6152217202701564,0.003927902009528746,-6.092144340047834e-05,0.12316307264774887
8203,9.0,299.96029,-6587.9923,0.08202997788555644,0.0,0.0,0.0,0.0,0.012518934448021907,0.8915265821668231,0.5122698359095965,0.5987887389558474,0.016544133837028883,0.005542873518514025,0.1150564638976889
8204,9.0,300.31732,-6493.1683,0.08203995452502388,0.0,0.0,0.0,0.0,0.012520457024264436,0.8732046290885872,0.5038672872028295,0.5966891023636295,-0.007107919155322004,0.01151837483752509,0.1030034486581489
8205,9.0,299.63896,-6648.5042,0.08204996419972121,0.0,0.0,0.0,0.0,0.012521984642150152,0.9057885332868681,0.5174700482053175,0.5977206720254374,0.009749665322667052,0.02294231881873058,0.1111632327734569
8206,9.0,300.21379,-6704.4872,0.08205997387441877,0.0,0.0,0.0,0.0,0.012523512260035896,0.9147560195868901,0.5105337230557555,0.6127069449794674,-0.016602030947742884,-0.001094170583461229,0.09325429462148231
8207,9.0,300.52941,-6643.7579,0.08206995051388621,0.0,0.0,0.0,0.0,0.012525034836278426,0.9091039078790701,0.5081526258507595,0.6022799732354055,-0.0009380336978442181,-0.0015324084457869387,0.12349465874297387
8208,9.0,300.68809,-6650.8817,0.08207996018858355,0.0,0.0,0.0,0.0,0.012526562454164142,0.8984567974182821,0.5126875482633215,0.6105576388673475,-0.017674474105334785,-0.012965308139326288,0.1003072539768052
8209,9.0,300.41322,-6811.9704,0.0820899698632811,0.0,0.0,0.0,0.0,0.012528090072049858,0.9143369089480271,0.5196032233758455,0.6367287845077384,-0.005423348307567806,0.004219871343068875,0.12359129240501088
8210,9.0,299.44,-6897.8438,0.08209994650274854,0.0,0.0,0.0,0.0,0.012529612648292388,0.9341513084960561,0.5293537392206464,0.6332672384561104,-0.010257702235356391,-0.008949889590835331,0.1021665040755489
8211,9.0,300.25087,-6652.1266,0.0821099561774461,0.0,0.0,0.0,0.0,0.012531140266178131,0.9077361823640862,0.5141196962196636,0.6002245143475474,0.01351883957620559,-0.009150516353035652,0.11449174921945589
8212,9.0,300.17264,-6496.1962,0.08211996585214343,0.0,0.0,0.0,0.0,0.012532667884063847,0.9015545056240021,0.49483359514127356,0.5782933441481094,0.013967314202966588,0.014740524341026488,0.0992665377063445
8213,9.0,299.5339,-6533.2622,0.08212997552684098,0.0,0.0,0.0,0.0,0.012534195501949591,0.8822381691626281,0.5134768903562236,0.5902335035915115,0.01984496018429508,0.00996732644024853,0.1096659328356849
8214,9.0,300.06999,-6537.7101,0.08213995216630843,0.0,0.0,0.0,0.0,0.01253571807819212,0.8758819499603182,0.5101573614386116,0.6012613123798713,0.01048314734285609,0.005388801140108265,0.1192151665481209
8215,9.0,300.45119,-6705.2941,0.08214996184100598,0.0,0.0,0.0,0.0,0.012537245696077864,0.8902860296718901,0.5351820247233535,0.6127739106785763,0.00027781275029798374,-0.007428937558629054,0.12270406021994788
8216,9.0,300.32081,-6798.1781,0.08215997151570331,0.0,0.0,0.0,0.0,0.012538773313963553,0.9161310101050911,0.5281947128287595,0.6221506790914914,-0.006189464884327624,-0.0008288887782099532,0.1229221521714719
8217,9.0,300.49028,-6662.8757,0.08216994815517076,0.0,0.0,0.0,0.0,0.01254029589020611,0.912295321454038,0.5140367009039725,0.5990158083032574,-0.024826589102193576,-0.002186495835840338,0.12128237913713888
8218,9.0,299.7171,-6715.3715,0.08217995782986831,0.0,0.0,0.0,0.0,0.012541823508091826,0.917671879797163,0.5231797530488215,0.6004536101951574,-0.018575572618016283,-0.0008628537625595361,0.12322141558850688
8219,9.0,299.59505,-6829.2526,0.08218996750456564,0.0,0.0,0.0,0.0,0.012543351125977542,0.915698362444892,0.5285246473263215,0.6316992744563643,-0.02018988875683688,-0.00038479039889585567,0.11791538958484289
8220,9.0,300.08052999999995,-6714.44,0.0821999771792632,0.0,0.0,0.0,0.0,0.012544878743863314,0.8944889910866901,0.5264403918706215,0.6200927377408884,0.002180784145026638,0.009840119273669162,0.1110659810288589
8221,9.0,299.7225,-6532.2116,0.08220995381873042,0.0,0.0,0.0,0.0,0.012546401320105816,0.8750255509757983,0.5024028469658005,0.6082008191347474,-0.0038502174415868764,0.019003872422036182,0.11707993447988989
8222,9.0,299.36863999999997,-6536.8322,0.08221996349342797,0.0,0.0,0.0,0.0,0.01254792893799156,0.8976330757494871,0.5067517467925035,0.5826489516904744,0.012085791853774789,0.004709772294868336,0.1028593543614279
8223,9.0,299.26363,-6641.0753,0.08222997316812553,0.0,0.0,0.0,0.0,0.012549456555877248,0.911820411132168,0.5140093228862704,0.5928913295313185,0.008189158033056972,-0.005317414529487955,0.11524126045092688
8224,9.0,299.52994,-6757.5002,0.08223994980759297,0.0,0.0,0.0,0.0,0.012550979132119805,0.937995700965468,0.5007896514815905,0.6153259837054464,0.02043740650451498,-0.01071985168546699,0.10116360533857051
8225,9.0,300.24045,-6841.6876,0.0822499594822903,0.0,0.0,0.0,0.0,0.012552506750005521,0.912855861541859,0.5331336079236905,0.6337127442600784,0.007809703976607772,-0.012638701155092687,0.11885379089995589
8226,9.0,299.96373,-6730.485,0.08225996915698786,0.0,0.0,0.0,0.0,0.012554034367891265,0.8904393344120202,0.5207062980972105,0.6347537574128184,0.004643759152178345,-0.01086164590446099,0.1066279354583579
8227,9.0,300.57412999999997,-6719.5275,0.0822699457964553,0.0,0.0,0.0,0.0,0.012555556944133794,0.8902342019292753,0.5248998970810865,0.6274344642554603,-0.012257065571178187,-0.004914720264770126,0.11871628272888489
8228,9.0,300.10636,-6786.5058,0.08227995547115285,0.0,0.0,0.0,0.0,0.012557084562019538,0.9193688609321421,0.5135790867613095,0.6299803564567203,-0.0017605536621531183,0.0037906045944785458,0.09396694989381592
8229,9.0,300.60652000000005,-6681.1498,0.08228996514585019,0.0,0.0,0.0,0.0,0.012558612179905254,0.9323093110067652,0.5058735122683286,0.5927198774818975,-0.0030561778198962674,0.014200033432934186,0.1029051026034429
8230,9.0,300.03231,-6485.1306,0.08229997482054752,0.0,0.0,0.0,0.0,0.012560139797790942,0.8886163556271062,0.4923717520358085,0.5903296711585024,-0.001100220294508289,0.005188263037291695,0.1033607307759099
8231,9.0,299.80054,-6479.5588,0.08230995146001518,0.0,0.0,0.0,0.0,0.0125616623740335,0.8720920095512802,0.5085390085113924,0.5889930625540895,0.004207726426045266,-0.0050903376840272145,0.1278762865479069
8232,9.0,299.29737,-6701.4363,0.08231996113471252,0.0,0.0,0.0,0.0,0.012563189991919216,0.8812755309051231,0.5113161041204705,0.6444776754424943,-0.005769074611913334,0.0008622735552872742,0.1128014251376339
8233,9.0,299.8099,-6830.205,0.08232997080941007,0.0,0.0,0.0,0.0,0.01256471760980496,0.9144029829870481,0.5373163752639974,0.6244924216626034,0.002971469908886247,-0.001943519373785428,0.1264099920631949
8234,9.0,299.3327,-6853.5388,0.08233994744887752,0.0,0.0,0.0,0.0,0.01256624018604749,0.925744676391386,0.5410380935438025,0.6165218822684725,-0.01115576505073829,-0.008787129200772133,0.11849054073910588
8235,9.0,299.52079,-6699.9381,0.08234995712357507,0.0,0.0,0.0,0.0,0.012567767803933233,0.9302555138490711,0.5158358581790354,0.5905225027850334,0.005229233095810125,-0.00884355770679119,0.1178615353420279
8236,9.0,299.31692999999996,-6725.9353,0.0823599667982724,0.0,0.0,0.0,0.0,0.012569295421818921,0.9130189745429571,0.5331915962269135,0.5983058036931854,0.016790639347857083,-0.002790061157357597,0.1138094266021159
8237,9.0,299.87075,-6727.8724,0.08236997647296995,0.0,0.0,0.0,0.0,0.012570823039704665,0.8930056436027951,0.5125145662062495,0.6395850048171253,0.018929212101667783,0.0025270111975715876,0.1206880674234849
8238,9.0,300.15367000000003,-6720.1319,0.0823799531124374,0.0,0.0,0.0,0.0,0.012572345615947195,0.8902155682599362,0.5259338073506256,0.6266029304283944,0.011587201877067788,-0.010500288494797791,0.1061054429117919
8239,9.0,300.09556000000003,-6557.1093,0.08238996278713495,0.0,0.0,0.0,0.0,0.012573873233832938,0.8775241750598932,0.5149805636371245,0.6006927676162604,0.004429848883817046,-0.011620298678334189,0.12067467225716288
8240,9.0,300.54102,-6509.3913,0.08239997246183228,0.0,0.0,0.0,0.0,0.012575400851718654,0.9109316894694582,0.4853303224533736,0.5824304037764054,-0.006655713133742743,-0.0018523546278381685,0.09350002904898441
8241,9.0,300.65954,-6831.6048,0.08240994910129995,0.0,0.0,0.0,0.0,0.012576923427961212,0.9460143292093451,0.5300154219334495,0.6006075228853475,-0.01012382129699337,0.004137849456748946,0.12000259359833389
8242,9.0,299.97545,-6965.9311,0.08241995877599728,0.0,0.0,0.0,0.0,0.012578451045846928,0.9594513427604751,0.5277454276019184,0.6302723447380374,-0.007377614110588822,-0.004908412884222635,0.1057482418540389
8243,9.0,300.45411,-6770.9002,0.08242996845069461,0.0,0.0,0.0,0.0,0.012579978663732616,0.8935958415210432,0.5449254275524524,0.6196633122160075,-0.011291161608600888,-0.0033578493271189266,0.13737649922050488
8244,9.0,299.75529,-6699.1744,0.08243997812539217,0.0,0.0,0.0,0.0,0.01258150628161836,0.8862678344128252,0.5303812254845516,0.6197326691853524,0.01872156473217458,0.004726612612855345,0.1167459165844249
8245,9.0,299.31081,-6727.2998,0.08244995476485961,0.0,0.0,0.0,0.0,0.01258302885786089,0.8997552470239292,0.5163370319434974,0.6288388896890663,0.016083957184862985,0.003073982448003447,0.09865503316499372
8246,9.0,299.62621,-6644.28,0.08245996443955717,0.0,0.0,0.0,0.0,0.012584556475746633,0.9177576514181283,0.5072650288956605,0.5946725117496074,0.01937754183366448,-0.01046771351733289,0.09788416262141472
8247,9.0,299.94067,-6697.1283,0.0824699741142545,0.0,0.0,0.0,0.0,0.01258608409363235,0.9149857943120672,0.5086880576011026,0.6120859138606763,0.0017504846919343885,-0.018299950352314482,0.09566868722476432
8248,9.0,300.21673,-6689.6554,0.08247995075372194,0.0,0.0,0.0,0.0,0.012587606669874907,0.9066783695246882,0.5080072649914136,0.6188025562560574,0.012959813284033988,-0.002229029541913088,0.11599575687288989
8249,9.0,300.16437,-6705.1598,0.0824899604284195,0.0,0.0,0.0,0.0,0.012589134287760623,0.8781891812330241,0.5306519659112715,0.6293599940829955,-0.004799786394002035,-0.008558355971993972,0.12726579323015588
8250,9.0,299.52672,-6922.5369,0.08249997010311705,0.0,0.0,0.0,0.0,0.012590661905646339,0.9142956798014581,0.5448603262335274,0.6451223659511204,-0.013093331276211186,-0.003890489472111416,0.1333763398132199
8251,9.0,299.27507,-6920.42,0.08250994674258427,0.0,0.0,0.0,0.0,0.012592184481888896,0.9279747284039751,0.5372744368423584,0.6383857219987653,-0.027050723734198572,0.0017032773697753883,0.11310074934967489
8252,9.0,300.29822,-6579.7649,0.08251995641728183,0.0,0.0,0.0,0.0,0.012593712099774612,0.9051854974898531,0.5095680855779545,0.5853306396701364,0.001973621717031298,0.02929738494242677,0.11281321936879789
8253,9.0,299.82004,-6507.7212,0.08252996609197916,0.0,0.0,0.0,0.0,0.012595239717660328,0.9055850827992892,0.48287325175587953,0.5897264023139644,-0.009207614313395781,0.021510754494446182,0.09425849741133942
8254,9.0,300.29996,-6762.3501,0.08253997576667671,0.0,0.0,0.0,0.0,0.012596767335546044,0.9207954562779361,0.5309577445264495,0.6038323838461165,0.01099231666385719,0.0051923430914693645,0.11447329793513489
8255,9.0,300.06909,-6843.7838,0.08254995240614416,0.0,0.0,0.0,0.0,0.012598289911788602,0.9152326625664312,0.5241539220924645,0.6409528012596164,-0.007456330065807483,-0.013291563525775187,0.1099113014799009
8256,9.0,300.99906,-6697.4074,0.08255996208084149,0.0,0.0,0.0,0.0,0.012599817529674318,0.8854625741608522,0.5320176953235585,0.6183643559853105,0.024968184724167976,-0.004323408075387156,0.12404732587751788
8257,9.0,301.01982000000004,-6677.3049,0.08256997175553904,0.0,0.0,0.0,0.0,0.012601345147560034,0.8932459054665071,0.5236470741274425,0.6128409777026954,0.004111548017278197,-0.012206450688932889,0.09754376834307041
8258,9.0,300.50941,-6694.3653,0.08257994839500649,0.0,0.0,0.0,0.0,0.012602867723802591,0.9252365618637391,0.4940901634104025,0.6155931676243154,0.01189591385128529,-0.01053082278656129,0.09955243939431081
8259,9.0,299.84766,-6733.9580000000005,0.08258995806970404,0.0,0.0,0.0,0.0,0.012604395341688307,0.9263227862359411,0.5139582753462325,0.6066740032215624,-0.011440595733348888,-0.015299277055671086,0.1029270496006089
8260,9.0,300.01737,-6677.1661,0.08259996774440137,0.0,0.0,0.0,0.0,0.012605922959574023,0.9088396522529901,0.4991024887400805,0.6217496347019115,0.014795301654682586,0.01315957351474879,0.11743348783728288
8261,9.0,299.99464,-6689.2612,0.08260997741909892,0.0,0.0,0.0,0.0,0.012607450577459767,0.887050590380077,0.5217591966736235,0.6245585868941335,-0.01052716900670069,0.017007953123304286,0.1192865702826679
8262,9.0,300.12057000000004,-6554.7244,0.08261995405856637,0.0,0.0,0.0,0.0,0.012608973153702296,0.8752814574210541,0.5198380035565165,0.5973530851541594,0.0068785345314335035,0.008758691424790542,0.14189065000601686
8263,9.0,299.71009,-6648.3501,0.08262996373326392,0.0,0.0,0.0,0.0,0.01261050077158804,0.9119832606882401,0.5004954847125586,0.6084536756972024,-0.026180938702607473,0.004555456939088595,0.12279117946354587
8264,9.0,299.9398,-6743.289000000001,0.08263997340796125,0.0,0.0,0.0,0.0,0.012612028389473728,0.9253629242837101,0.5301180540360785,0.5943105180188815,-0.007291136152979112,0.01840264324994948,0.10389867538650091
8265,9.0,300.47077,-6559.5893,0.08264995004742892,0.0,0.0,0.0,0.0,0.012613550965716314,0.9043637009962482,0.5057246658286385,0.5838629874302904,-0.0072201145150448225,0.007658960834055583,0.0941058218995215
8266,9.0,300.01182,-6628.7884,0.08265995972212625,0.0,0.0,0.0,0.0,0.012615078583602002,0.8916140763129581,0.5139003579705165,0.6094717184701754,0.0006570700538427654,-0.006713670735487713,0.1085418737047489
8267,9.0,299.86076,-6811.9273,0.08266996939682358,0.0,0.0,0.0,0.0,0.012616606201487718,0.9108801960993762,0.5211198865230284,0.6386557328854134,0.004254308775542586,-0.016555918948941987,0.10459784835300391
8268,9.0,299.46987,-6788.6217,0.08267994603629125,0.0,0.0,0.0,0.0,0.012618128777730275,0.9022928001768662,0.5316766556049005,0.6296020190018814,0.017141895667273383,-0.009441105234639542,0.12218896439911188
8269,9.0,299.38243,-6672.2747,0.08268995571098858,0.0,0.0,0.0,0.0,0.012619656395615991,0.91551940221223,0.5124194625518634,0.6002660373366454,0.012256529561875288,-0.005504193911846645,0.1112377573183119
8270,9.0,300.27439,-6817.821,0.08269996538568614,0.0,0.0,0.0,0.0,0.012621184013501735,0.9426873833010012,0.5269585274417575,0.6028014423993704,-0.0007232177865435384,0.005109155866209425,0.1145646930941549
8271,9.0,300.04073999999997,-6731.5819,0.08270997506038347,0.0,0.0,0.0,0.0,0.012622711631387423,0.9372983315841431,0.4877182185665405,0.6212162699817725,0.0029092907019246375,0.012991342587395689,0.09092859990545411
8272,9.0,300.12408,-6554.8912,0.08271995169985114,0.0,0.0,0.0,0.0,0.012624234207630008,0.8771511065055743,0.5234154958170876,0.5919566671090745,-0.011762039195072887,0.026206795831909376,0.12217577188280988
8273,9.0,300.51068,-6622.9487,0.08272996137454847,0.0,0.0,0.0,0.0,0.012625761825515697,0.8703973791565331,0.5170216343735625,0.6257920263733644,-0.01045487158556549,0.015251271292433284,0.11343521307518388
8274,9.0,299.71459,-6823.7681,0.08273997104924602,0.0,0.0,0.0,0.0,0.01262728944340144,0.9122980876268112,0.5359535336144955,0.6260034815367334,-0.01746442330660438,0.003148543064562007,0.12683338874998087
8275,9.0,300.02047000000005,-6736.5675,0.08274994768871347,0.0,0.0,0.0,0.0,0.01262881201964397,0.9158943756767371,0.5266419171830105,0.6052120150497754,-0.003909006313713887,-0.012368968912222188,0.11880311826245489
8276,9.0,300.56731,-6680.6817,0.08275995736341102,0.0,0.0,0.0,0.0,0.012630339637529714,0.9310441567994042,0.5110759233167665,0.5886403501942795,0.0007563711778280234,-0.003411784731266937,0.10018704705119172
8277,9.0,300.35173,-6817.9941,0.08276996703810835,0.0,0.0,0.0,0.0,0.01263186725541543,0.9217415380288072,0.5353086708533524,0.6154497522051614,0.01988647000114178,-0.016426060816125982,0.09055234873257101
8278,9.0,300.44216,-6773.8348,0.08277997671280568,0.0,0.0,0.0,0.0,0.012633394873301118,0.9050613844851042,0.5276368983837074,0.6263783739412324,-0.0017405556515544683,-0.006002150809891165,0.10295392099326091
8279,9.0,300.3107,-6787.5465,0.08278995335227335,0.0,0.0,0.0,0.0,0.012634917449543703,0.8908865019461522,0.5284828102296925,0.6438753489205494,0.007879472426818383,0.003643862877896267,0.11239054208958289
8280,9.0,299.67252,-6770.6989,0.08279996302697068,0.0,0.0,0.0,0.0,0.012636445067429392,0.9023380417938311,0.5303335621998475,0.6254518073872873,0.008204030518024772,0.011366220136258591,0.13187358858990988
8281,9.0,299.74312000000003,-6620.2037,0.08280997270166823,0.0,0.0,0.0,0.0,0.012637972685315135,0.9038501757130671,0.5066026470402886,0.6019238056927544,0.0030630450211240074,0.012632317679462688,0.12259079912376988
8282,9.0,299.4761,-6526.0619,0.08281994934113546,0.0,0.0,0.0,0.0,0.012639495261557665,0.9004420178092081,0.5128403362459005,0.5704775179117474,-0.014255836155691487,-0.004825654871705056,0.13715180087832887
8283,9.0,299.18875,-6694.3136,0.08282995901583301,0.0,0.0,0.0,0.0,0.012641022879443409,0.9245806344115041,0.5077243554309925,0.6025991976794104,-0.0012122199956367988,0.004020467675064266,0.1069952183546059
8284,9.0,299.318,-6647.691,0.08283996869053056,0.0,0.0,0.0,0.0,0.012642550497329125,0.8910114052859791,0.5143734951047115,0.6153471606325365,-0.01149695979666159,0.01182393459068149,0.12160826063430089
8285,9.0,299.64187000000004,-6612.4609,0.08284994532999779,0.0,0.0,0.0,0.0,0.012644073073571654,0.8710361016220701,0.5242485191218005,0.6147383797074544,0.0026420494330999774,-0.0026456152628518974,0.1026548399612439
8286,9.0,300.03303999999997,-6864.6037,0.08285995500469534,0.0,0.0,0.0,0.0,0.012645600691457398,0.9133414312547811,0.5405896797120475,0.6327370046787804,-0.007405780639518643,-0.004015280847802366,0.1162695269174089
8287,9.0,300.34463999999997,-6949.4468,0.0828699646793929,0.0,0.0,0.0,0.0,0.012647128309343114,0.9514152359523731,0.5295267111452175,0.6315163422833104,-0.004538220338987475,-0.009434574939070052,0.08520420090899991
8288,9.0,300.60885,-6700.9327,0.08287997435409022,0.0,0.0,0.0,0.0,0.01264865592722883,0.9194096949111721,0.5219670142691335,0.5955395093301734,0.017913168471142084,0.0005641841303481384,0.11785839426671789
8289,9.0,300.49467000000004,-6611.7376,0.08288995099355767,0.0,0.0,0.0,0.0,0.01265017850347136,0.91406822541901,0.48278742947240955,0.6129474905532074,0.0002364924922799918,-0.013342237176526286,0.09429965867015172
8290,9.0,300.34142,-6688.701,0.08289996066825522,0.0,0.0,0.0,0.0,0.012651706121357104,0.8925527714706002,0.5147460975639845,0.6258992181014434,0.007352463115281613,0.0004892673665119296,0.11951909091561588
8291,9.0,300.27333,-6680.3838,0.08290997034295255,0.0,0.0,0.0,0.0,0.01265323373924282,0.889390397643498,0.5137981919629334,0.6274812764100804,-0.004051845801511046,-0.007854922491470491,0.11980106828594488
8292,9.0,299.76311,-6648.4369,0.08291994698242,0.0,0.0,0.0,0.0,0.01265475631548535,0.8996108791496811,0.5096241791034906,0.6117237478774334,0.01375532201704459,0.02175208939001408,0.1330002517736029
8293,9.0,299.68674,-6657.1585,0.08292995665711755,0.0,0.0,0.0,0.0,0.012656283933371093,0.9033549598591932,0.5258851612133245,0.5943698438122363,0.004784828897350845,-0.009067998075491732,0.12616569746408487
8294,9.0,299.20625,-6595.1127,0.08293996633181511,0.0,0.0,0.0,0.0,0.012657811551256809,0.9006383654135862,0.5147667070710185,0.5893444982187734,0.0038365249876855362,0.0007228452651442734,0.11389061833262888
8295,9.0,299.94662,-6761.0557,0.08294997600651244,0.0,0.0,0.0,0.0,0.012659339169142525,0.9022341836585812,0.5408974037674175,0.6120605218131704,-0.007430851182767913,-0.006370543721623714,0.1232772558015179
8296,9.0,300.37292,-6938.6555,0.08295995264597988,0.0,0.0,0.0,0.0,0.012660861745385055,0.9177923957640571,0.5479735979607835,0.6434120301798234,-0.006327320093557874,-0.0004657544115813816,0.099623480385322
8297,9.0,300.56056,-6740.4303,0.08296996232067744,0.0,0.0,0.0,0.0,0.012662389363270798,0.8931753325970421,0.5262346413053155,0.6295125388855504,-0.00948129245613071,-0.0003166533624062537,0.1132179114587379
8298,9.0,300.35896,-6597.767,0.08297997199537499,0.0,0.0,0.0,0.0,0.012663916981156542,0.8860426193130981,0.5205528413695656,0.5989609610753444,-0.014462573626594885,-0.004623954165723746,0.11595209592608088
8299,9.0,300.3953,-6760.5934,0.08298994863484221,0.0,0.0,0.0,0.0,0.012665439557399044,0.9134363727891511,0.5308154740799085,0.6107997448462414,0.01784599302926238,0.006669326756786304,0.1122231126430589
8300,9.0,299.62234,-6828.5797,0.08299995830953977,0.0,0.0,0.0,0.0,0.012666967175284788,0.9352163458086671,0.5213109854918885,0.6191903777318324,0.002449840651405448,0.012056247507358989,0.1092946881315459
8301,9.0,299.81286,-6640.4965,0.08300996798423732,0.0,0.0,0.0,0.0,0.012668494793170504,0.8857384517655792,0.5126047859951536,0.6202018850416604,0.026963756478115573,-0.0021532119886054782,0.12351966575544189
8302,9.0,299.9071,-6615.7492,0.08301997765893465,0.0,0.0,0.0,0.0,0.01267002241105622,0.8821252829689873,0.5042593035340185,0.6246379953044704,-0.004704367720159946,-0.011624318241480887,0.12541525404252188
8303,9.0,299.99182,-6697.6145,0.0830299542984021,0.0,0.0,0.0,0.0,0.01267154498729875,0.9022117097713631,0.5162973834670845,0.6173984854599864,0.015090274970794185,0.0036694343719949766,0.12043823034632789
8304,9.0,299.8724,-6810.5519,0.08303996397309965,0.0,0.0,0.0,0.0,0.012673072605184493,0.917879038780108,0.5344538322739865,0.6179048470649604,-0.0047767356635021055,0.016507950675957884,0.11553958154536889
8305,9.0,300.53725,-6816.3657,0.0830499736477972,0.0,0.0,0.0,0.0,0.012674600223070237,0.9315187023512381,0.5238859985010225,0.6166002672962084,-0.0003577709400067426,0.005661570296178485,0.1077947638760149
8306,9.0,299.84377,-6792.9526,0.08305995028726443,0.0,0.0,0.0,0.0,0.012676122799312739,0.9155108807788892,0.5286360744398185,0.6207410050223674,-0.019435001220335285,-0.002372376971985378,0.08392646821489752
8307,9.0,299.81225,-6600.6772,0.08306995996196198,0.0,0.0,0.0,0.0,0.012677650417198483,0.8882441787328751,0.5097517776885835,0.6084450732038534,0.0003284413215521347,-0.007104011657636363,0.098559365130302
8308,9.0,299.84328999999997,-6735.0674,0.08307996963665953,0.0,0.0,0.0,0.0,0.012679178035084199,0.9014857667372181,0.5183131026860205,0.6274934252787795,0.0017996067528073582,-0.0015923830231809686,0.08712960813327282
8309,9.0,300.3694,-6936.7244,0.08308994627612698,0.0,0.0,0.0,0.0,0.012680700611326728,0.9323179945601221,0.5389621163414194,0.6373108966901884,0.008366172014926891,-0.009434849529847151,0.11779889622084588
8310,9.0,300.31871,-6801.4859,0.08309995595082431,0.0,0.0,0.0,0.0,0.012682228229212444,0.9215272052351541,0.5144743134896614,0.6314803719047604,-0.009184358703725632,-0.0017974648434209682,0.11167451877391689
8311,9.0,300.88302000000004,-6556.965,0.08310996562552186,0.0,0.0,0.0,0.0,0.012683755847098188,0.8937493083811892,0.5161010257302054,0.5833032883400524,0.018006282102331683,0.003789423955462027,0.15755829312229286
8312,9.0,300.52252000000004,-6601.6055,0.08311997530021942,0.0,0.0,0.0,0.0,0.012685283464983932,0.8961464250702662,0.5040135802522676,0.6065632245881294,-0.005209618499049315,0.016076997169926083,0.11746552680544489
8313,9.0,300.12518,-6645.8288,0.08312995193968664,0.0,0.0,0.0,0.0,0.012686806041226462,0.8830044294182522,0.5299783673772925,0.6071832120593175,0.01069555901431949,0.0006757485797636923,0.14134947312760687
8314,9.0,300.09221,-6566.5807,0.0831399616143842,0.0,0.0,0.0,0.0,0.012688333659112178,0.8864560456189002,0.5051922130335895,0.6044283066274294,-0.016003896241461587,-0.02452488273916748,0.1164455487247809
8315,9.0,299.77943,-6695.7856,0.08314997128908175,0.0,0.0,0.0,0.0,0.012689861276997894,0.9075272907234703,0.5180211751997095,0.6098031627103864,-0.005814166470513555,-0.006703894087922833,0.1076494536791739
8316,9.0,299.50458,-6729.7383,0.08315994792854897,0.0,0.0,0.0,0.0,0.012691383853240423,0.916532490192214,0.5243569166174985,0.6047829846924334,-0.016078836218857587,-0.005055230290587385,0.0937696265295916
8317,9.0,299.93446,-6773.0329,0.08316995760324652,0.0,0.0,0.0,0.0,0.01269291147112614,0.9135823010685532,0.5325183016679645,0.6127322863644684,0.003559428341763226,0.005413183281239595,0.1021998400038389
8318,9.0,299.31483,-7073.2923,0.08317996727794408,0.0,0.0,0.0,0.0,0.01269443908901191,0.942367013884383,0.5475619955051615,0.6601752297017224,-0.012775697634863187,0.0046389811713317955,0.09179315757977932
8319,9.0,299.51072,-7011.5488,0.08318997695264141,0.0,0.0,0.0,0.0,0.012695966706897627,0.9271331330034162,0.5500119329219515,0.6541906909010944,0.008428104698139174,0.01207489738869959,0.09278198936561942
8320,9.0,300.02742,-6672.741,0.08319995359210886,0.0,0.0,0.0,0.0,0.012697489283140156,0.8908407435716361,0.5144666026564004,0.6230392994291915,0.006246799843886145,0.003589725735653346,0.11317621621712289
8321,9.0,299.89763,-6664.045,0.08320996326680619,0.0,0.0,0.0,0.0,0.012699016901025845,0.9145482931838892,0.5067183196717046,0.6044366558082533,-0.001058479355313779,-0.008201836730233263,0.12163283194922589
8322,9.0,299.88327000000004,-6776.3399,0.08321997294150396,0.0,0.0,0.0,0.0,0.012700544518911616,0.9407105931509071,0.5144737562021064,0.6046537750396814,0.006244405736549864,-0.005599007371404005,0.12510000153890888
8323,9.0,300.00369,-6632.4294,0.08322994958097119,0.0,0.0,0.0,0.0,0.012702067095154118,0.9120434477441802,0.5030698695066305,0.6009796187195704,-0.011860676052557589,-0.0026183537689113976,0.13198082084799287
8324,9.0,300.0599,-6630.9754,0.08323995925566874,0.0,0.0,0.0,0.0,0.012703594713039862,0.8934014089593542,0.5256472703548465,0.5966022769625604,0.0015379913525129284,0.01276657230446259,0.10961540205319789
8325,9.0,300.19158,-6793.9118,0.08324996893036629,0.0,0.0,0.0,0.0,0.012705122330925606,0.8919472937408442,0.5300543206047885,0.6431779187442184,-0.017086302687286784,-0.005276000160800675,0.1118476426860029
8326,9.0,299.74597,-6893.8253,0.08325994556983374,0.0,0.0,0.0,0.0,0.012706644907168135,0.9230202799200091,0.5349885142192554,0.6375419481104915,0.005226367421877305,0.001138317383693179,0.08597885391520223
8327,9.0,299.53927000000004,-6939.0112,0.08326995524453107,0.0,0.0,0.0,0.0,0.012708172525053851,0.9187745694834901,0.5606295476723284,0.6298820306670163,-0.007281105280964143,-0.00019129300625414985,0.12142434560864988
8328,9.0,299.50777,-6927.0332,0.0832799649192284,0.0,0.0,0.0,0.0,0.01270970014293954,0.9507441097486381,0.5367723308878045,0.6181286740120504,-0.0015575444449926687,0.009302149331825662,0.09774230355441431
8329,9.0,299.38746000000003,-6738.1916,0.08328997459392617,0.0,0.0,0.0,0.0,0.012711227760825311,0.8923634558219161,0.5397200882112254,0.6161584497226045,-0.002255061659507258,-0.002028191618391928,0.12214168614944589
8330,9.0,299.49071000000004,-6487.416,0.0832999512333934,0.0,0.0,0.0,0.0,0.012712750337067813,0.8708932536229722,0.5096276342863315,0.5914915954456754,-0.007731558987820463,0.0007259169834849283,0.11945568172435789
8331,9.0,299.57962000000003,-6619.4689,0.08330996090809095,0.0,0.0,0.0,0.0,0.012714277954953557,0.8799932629035733,0.5089185112038465,0.6232414732216444,-0.0013566543390913586,0.005534868538748994,0.12174086467488789
8332,9.0,299.34237,-6728.3354,0.0833199705827885,0.0,0.0,0.0,0.0,0.0127158055728393,0.9197436722766331,0.5178485883101765,0.6076536944782505,-0.005162794185428116,-0.004721021701453566,0.11760277153148987
8333,9.0,300.22452000000004,-6551.0356,0.08332994722225595,0.0,0.0,0.0,0.0,0.01271732814908183,0.9045697251390811,0.5014478688790516,0.5853336692879354,-0.008918211542358952,-0.002811032394677297,0.13837884674942888
8334,9.0,299.76735,-6725.9045,0.08333995689695328,0.0,0.0,0.0,0.0,0.012718855766967546,0.9274470784144001,0.5149828434498495,0.6020771205653854,-0.0013369312232448386,-0.016769884946058782,0.11862196940957688
8335,9.0,300.3228,-6957.8413,0.08334996657165084,0.0,0.0,0.0,0.0,0.012720383384853262,0.937849154603505,0.5369249060878625,0.6402359572113694,0.003215509878246117,0.0039012945685277965,0.10637206954310591
8336,9.0,300.26635,-6884.8267,0.08335997624634839,0.0,0.0,0.0,0.0,0.012721911002739006,0.9027290752724231,0.5369800370258034,0.6531062903790724,0.003854888828522906,-0.0019124017539393578,0.09860721282652421
8337,9.0,300.38108,-6778.249,0.08336995288581583,0.0,0.0,0.0,0.0,0.012723433578981536,0.8943450285124821,0.5359238859165694,0.6301495084284144,0.007510755883003892,0.002908351216431917,0.09187719249007291
8338,9.0,299.59828,-6793.9093,0.08337996256051317,0.0,0.0,0.0,0.0,0.012724961196867252,0.9123458725015271,0.5212118288371025,0.6316210718136465,0.008239202455495972,-0.0006180617995054504,0.08780190464087333
8339,9.0,300.2229,-6592.4562,0.08338997223521072,0.0,0.0,0.0,0.0,0.012726488814752995,0.9222044210719901,0.48865895035688356,0.5930786997398104,-0.00032990642040172866,0.0015651975229979687,0.1011231807125809
8340,9.0,299.32698,-6644.4668,0.08339994887467816,0.0,0.0,0.0,0.0,0.012728011390995525,0.9145366408077391,0.5153283414689475,0.5898870125873155,0.0006500724371946544,-0.004016103708208576,0.12248572508839987
8341,9.0,299.71402,-6716.0002,0.0834099585493755,0.0,0.0,0.0,0.0,0.012729539008881241,0.9126821499447152,0.5073171707458065,0.6214970415844824,-0.005366857689317615,0.007535687813639482,0.13288112395934587
8342,9.0,299.45173,-6668.1066,0.08341996822407305,0.0,0.0,0.0,0.0,0.012731066626766957,0.8765771003239241,0.5185608322029696,0.6317999611188013,0.001278978181125319,0.006532019817185164,0.12967932457085288
8343,9.0,299.88013,-6655.028,0.0834299778987706,0.0,0.0,0.0,0.0,0.0127325942446527,0.8802752504064032,0.5263159748908426,0.6163711207860935,0.009823451005549131,0.01097161900406449,0.13506345189222488
8344,9.0,300.27975,-6861.0946,0.08343995453823805,0.0,0.0,0.0,0.0,0.01273411682089523,0.9437897386147952,0.5220035520677395,0.6198081360528004,0.002879282489613057,0.003921927886939147,0.1164094770212209
8345,9.0,300.39155,-6887.9446,0.08344996421293538,0.0,0.0,0.0,0.0,0.012735644438780946,0.937841595757759,0.5484609509938815,0.6074606095391945,0.014340352359782588,-0.008639130040815752,0.1169787715899059
8346,9.0,300.39968999999996,-6676.3635,0.08345997388763293,0.0,0.0,0.0,0.0,0.01273717205666669,0.9111182896078742,0.5249714426706475,0.5933580730573824,0.004108070846910027,-0.01998153312552378,0.11309561217166789
8347,9.0,300.57604,-6758.0695,0.08346995052710016,0.0,0.0,0.0,0.0,0.01273869463290922,0.8961004235157262,0.5296535295277335,0.6285304158286223,0.005196376029517385,-0.006250707240246774,0.10039779395274082
8348,9.0,300.08788,-6859.1136,0.08347996020179771,0.0,0.0,0.0,0.0,0.012740222250794964,0.9080534715004002,0.5316334911506404,0.6453123098148664,8.050257251048532e-05,-0.0075205545180959425,0.0963432088295844
8349,9.0,299.55843,-6764.8432,0.08348996987649526,0.0,0.0,0.0,0.0,0.012741749868680652,0.8966036136478872,0.5284995288563424,0.6312402620285633,-0.0035839518312835066,0.0039190586666309766,0.1123940884649329
8350,9.0,299.44426,-6702.4035,0.08349994651596271,0.0,0.0,0.0,0.0,0.012743272444923237,0.9175692882245382,0.5090102913979045,0.6107837152296594,0.004705256239172635,0.002877111094648757,0.11302670103236688
8351,9.0,299.48022000000003,-6799.7496,0.08350995619066004,0.0,0.0,0.0,0.0,0.012744800062808925,0.9319267482990091,0.5155076462066435,0.6195196840143323,0.005197798936632815,0.023593797089776478,0.11947192412346089
8352,9.0,300.37818,-6764.1779,0.08351996586535737,0.0,0.0,0.0,0.0,0.012746327680694641,0.929733153025018,0.5263077067700265,0.6001003304152914,0.0005621333425432414,0.014872734227324587,0.13765669327065788
8353,9.0,300.29233999999997,-6823.6939,0.08352997554005492,0.0,0.0,0.0,0.0,0.012747855298580385,0.911003924069087,0.5262752219718205,0.6369534220549083,-0.013538394289885488,0.001942897440874048,0.12843212515526387
8354,9.0,299.60187,-6887.2912,0.08353995217952237,0.0,0.0,0.0,0.0,0.012749377874822915,0.9101069748155651,0.5315734966122194,0.6518840675784484,-0.014164567652933986,-0.01836523304300738,0.1074457904090739
8355,9.0,299.98412,-6586.6237,0.08354996185421992,0.0,0.0,0.0,0.0,0.012750905492708658,0.8762681299709311,0.5089548362199315,0.6169461604828455,-0.00928095750995919,-0.0016050459136556987,0.096579484567403
8356,9.0,300.0839,-6659.6507,0.08355997152891725,0.0,0.0,0.0,0.0,0.012752433110594347,0.9220336884301401,0.5139152831444895,0.5884185396148884,0.006381457742425843,0.008300965520641513,0.1039843558149569
8357,9.0,299.86273,-6923.1399,0.08356994816838492,0.0,0.0,0.0,0.0,0.012753955686836932,0.950277285162566,0.5292867633890365,0.6248976001125914,-0.004256631043446776,-0.0018212362987170283,0.09300429947730972
8358,9.0,299.83821,-6848.4465,0.08357995784308225,0.0,0.0,0.0,0.0,0.01275548330472262,0.9299592395198312,0.5387066253287045,0.6130908553098564,0.018762659116480285,-0.014692403067277288,0.1133788257071189
8359,9.0,300.15088,-6684.4695,0.0835899675177798,0.0,0.0,0.0,0.0,0.012757010922608364,0.8735009540803321,0.5266141541302706,0.6317966984534795,0.013233317857026786,-0.00936241157092308,0.1163007046229859
8360,9.0,300.31361,-6723.2878,0.08359997719247714,0.0,0.0,0.0,0.0,0.01275853854049408,0.8865986301729721,0.5273274214056645,0.6297855591249955,0.01871290853657028,-0.002097670887023998,0.1226539854000059
8361,9.0,300.50382,-6742.9267,0.0836099538319448,0.0,0.0,0.0,0.0,0.012760061116736637,0.9069882112727671,0.5223747663743755,0.6203183784056574,-0.011780143947859688,-0.007790809901993072,0.11866774804909488
8362,9.0,300.3643,-6634.7722,0.08361996350664214,0.0,0.0,0.0,0.0,0.012761588734622353,0.924470220548107,0.5010598346207555,0.5912750335018024,-0.01057475933739749,-0.0003159614848404707,0.12354001181744988
8363,9.0,300.63232999999997,-6715.7907,0.08362997318133947,0.0,0.0,0.0,0.0,0.012763116352508042,0.9276944127638102,0.5179540473805845,0.5957842294943254,-0.016060893586086783,0.004332173296702216,0.12262955594009488
8364,9.0,300.37605,-6777.0745,0.08363994982080714,0.0,0.0,0.0,0.0,0.012764638928750627,0.9251826468259181,0.5232215496154465,0.6116572178758675,-0.015793516136448683,0.015454055061446486,0.1192837534473899
8365,9.0,299.93284,-6711.4265,0.08364995949550447,0.0,0.0,0.0,0.0,0.012766166546636315,0.8845874908444881,0.5348224830578694,0.6206960977779354,-0.014113270853371386,-0.016612225256998986,0.1183540356856339
8366,9.0,299.87711,-6840.6799,0.08365996917020202,0.0,0.0,0.0,0.0,0.012767694164522059,0.9059119572815492,0.5371809239906294,0.6363029965507164,0.008203121430035052,-0.019738253803013982,0.10376118748043191
8367,9.0,299.9706,-6981.1747,0.08366994580966947,0.0,0.0,0.0,0.0,0.012769216740764588,0.9430155750083912,0.5358266747019755,0.6432605290248713,0.006255253592120464,0.004260142866968366,0.08807608910468323
8368,9.0,299.69579,-6720.0243,0.08367995548436702,0.0,0.0,0.0,0.0,0.012770744358650332,0.9234950787843682,0.5246487427787995,0.5945757564975584,0.01863416279179868,0.007391433626052703,0.1050626464388759
8369,9.0,299.67237,-6628.5302,0.08368996515906435,0.0,0.0,0.0,0.0,0.012772271976536048,0.9060598006036402,0.5196572194736745,0.5891906564560904,-0.006170022337433795,0.005018449210632376,0.11763844806751088
8370,9.0,299.89378,-6828.113,0.0836999748337619,0.0,0.0,0.0,0.0,0.012773799594421764,0.9181385625282211,0.5316272596625254,0.6258100318276414,-0.00018535698186830982,0.009144336642000763,0.12055878684322588
8371,9.0,300.61666,-6736.9916,0.08370995147322935,0.0,0.0,0.0,0.0,0.012775322170664322,0.8875184991437562,0.5289659177448714,0.6313928169636193,-0.005802100485672734,0.008385062441841232,0.12940094423837886
8372,9.0,300.43466,-6591.4024,0.0837199611479269,0.0,0.0,0.0,0.0,0.012776849788550038,0.8808888746669632,0.5037217135609625,0.6190111641866454,0.004913179719318086,-0.0033004259108266767,0.12191352249192788
8373,9.0,300.08519,-6692.4816,0.08372997082262423,0.0,0.0,0.0,0.0,0.012778377406435754,0.9167506834687482,0.5092619117952375,0.6083347100029614,-0.010445541578644689,-0.02176928627071128,0.11271042514615288
8374,9.0,299.90485,-6615.1012,0.08373994746209168,0.0,0.0,0.0,0.0,0.012779899982678311,0.9098191307271571,0.5043217096076775,0.5966847453881994,0.0017014397393940285,-0.013798520921807987,0.1041861547048729
8375,9.0,300.90826,-6615.6593,0.08374995713678923,0.0,0.0,0.0,0.0,0.012781427600564027,0.9048988287715611,0.5048870930309766,0.6012093225172405,-0.0016922749935645385,0.01222636004014779,0.11766147924228389
8376,9.0,301.00539,-6959.3824,0.08375996681148656,0.0,0.0,0.0,0.0,0.012782955218449743,0.9356290121768942,0.5433150387710195,0.6365344228735564,0.003091792648986177,0.009068507031016962,0.10680522382835489
8377,9.0,300.33432999999997,-6914.9478,0.08376997648618412,0.0,0.0,0.0,0.0,0.012784482836335459,0.906573457609334,0.5456863581125505,0.6497116492315475,-0.011748446444981388,-0.008423606779620263,0.11789926877575188
8378,9.0,300.17117,-6599.7958,0.08377995312565134,0.0,0.0,0.0,0.0,0.012786005412578016,0.8900661442676892,0.5139570695786135,0.6021499327175714,-0.004046624321095726,-0.013034320603637288,0.09764702460776101
8379,9.0,300.62947,-6627.1878,0.0837899628003489,0.0,0.0,0.0,0.0,0.012787533030463732,0.9060565582033201,0.5078626438046405,0.6005804184451725,0.012906721005294188,0.003180494994540417,0.1067286525182979
8380,9.0,300.14493,-6840.9872,0.08379997247504645,0.0,0.0,0.0,0.0,0.012789060648349448,0.9489681862983681,0.5143060126480515,0.6162150802706935,0.006553733260203114,0.004911032642356186,0.09305966954227432
8381,9.0,300.29073999999997,-6723.5146,0.0838099491145139,0.0,0.0,0.0,0.0,0.012790583224592006,0.9103774821947621,0.5263635672480395,0.6070395230626364,0.0013123636573452088,0.00025288663571796776,0.12650662572523189
8382,9.0,299.99662,-6674.0415,0.08381995878921122,0.0,0.0,0.0,0.0,0.012792110842477722,0.9041056565932811,0.5149132433004805,0.6097230652899814,-0.00973381768580301,0.0028150843818271973,0.12121858491084288
8383,9.0,299.43555,-6733.0431,0.08382996846390878,0.0,0.0,0.0,0.0,0.012793638460363466,0.8951793994398283,0.5167152579408255,0.6347823310656384,0.00999952175290096,0.024280810041829377,0.12055679074052887
8384,9.0,299.93663,-6691.1955,0.08383994510337622,0.0,0.0,0.0,0.0,0.012795161036605995,0.9177697597568231,0.5073332712898955,0.6088533116691434,-0.0008979932658950352,0.0005536219403782315,0.11084590310713889
8385,9.0,299.79565,-6760.9608,0.08384995477807378,0.0,0.0,0.0,0.0,0.012796688654491739,0.9215613112335201,0.5141247726026645,0.6194771781726374,0.005212867586819975,-0.014264657511062089,0.12108878757303289
8386,9.0,300.26055,-6887.4261,0.08385996445277111,0.0,0.0,0.0,0.0,0.012798216272377427,0.9345329896762252,0.5346727956205964,0.6243997700734594,0.00029175175834615674,-0.025138020639679477,0.1035041259300619
8387,9.0,300.11871,-6697.2224,0.08386997412746844,0.0,0.0,0.0,0.0,0.012799743890263143,0.9035690494728222,0.5247505845463506,0.6074687459374973,0.012195493402351489,-0.0013987498144958585,0.11902655004200588
8388,9.0,300.06897999999995,-6637.0184,0.0838799507669361,0.0,0.0,0.0,0.0,0.0128012664665057,0.8820437771309432,0.5193939264351896,0.6160501535519164,0.0026877364748089374,0.005300585255927035,0.1102423100225689
8389,9.0,300.15219,-6864.5423,0.08388996044163344,0.0,0.0,0.0,0.0,0.012802794084391417,0.9122967400041782,0.5375911990886205,0.6367615124859684,-0.01088258471777749,0.008512470941215473,0.11406946710777989
8390,9.0,300.86571000000004,-6827.3019,0.08389997011633099,0.0,0.0,0.0,0.0,0.01280432170227716,0.9217129238459832,0.5266418867855075,0.6269744993725653,-0.01173359321176549,0.012443235078301687,0.1022739693811549
8391,9.0,300.32786,-6600.2056,0.08390994675579844,0.0,0.0,0.0,0.0,0.01280584427851969,0.8991668222933561,0.5049850540506445,0.6021458087896645,0.007223435442247572,0.008901277600062702,0.1079288979242529
8392,9.0,299.8403,-6671.9055,0.08391995643049599,0.0,0.0,0.0,0.0,0.012807371896405434,0.9150916992125192,0.5113151010028715,0.6016858743042724,0.017203876175890382,0.0050812905765343355,0.1123817369462139
8393,9.0,299.9745,-6755.5378,0.08392996610519332,0.0,0.0,0.0,0.0,0.012808899514291122,0.9130244156959941,0.5196057565010955,0.6208846230915414,-0.004444507674338755,-0.016476739533127584,0.11310655527274788
8394,9.0,299.95042,-6718.7394,0.08393997577989087,0.0,0.0,0.0,0.0,0.012810427132176866,0.8963327009686503,0.5245591816024605,0.6214371281060694,0.0069717256762557534,-0.002966032302224597,0.12511880746076487
8395,9.0,300.56985,-6807.675,0.08394995241935832,0.0,0.0,0.0,0.0,0.012811949708419396,0.9118728772223462,0.5340333132174845,0.6234570320479185,-0.017750960302383382,-0.007036482692796773,0.1173962002336029
8396,9.0,299.82315,-6857.3683,0.08395996209405587,0.0,0.0,0.0,0.0,0.01281347732630514,0.939305184864704,0.5109770199745055,0.6341865298743373,-0.008053168217260822,0.01030198633097689,0.10560484669988691
8397,9.0,299.29247000000004,-6720.4389,0.0839699717687532,0.0,0.0,0.0,0.0,0.012815004944190855,0.9065454919065741,0.5284437899683415,0.6078563444982504,-0.019108332427845584,-0.01074031629773669,0.1185366638836579
8398,9.0,299.76963,-6703.4636,0.08397994840822065,0.0,0.0,0.0,0.0,0.012816527520433385,0.9092488533058752,0.5221508381022755,0.6062858676382564,0.0006618939754488493,0.0034478924052054865,0.1021948446808459
8399,9.0,300.23039,-6880.38,0.0839899580829182,0.0,0.0,0.0,0.0,0.012818055138319129,0.9174998603276862,0.5425156553696265,0.6314482012140854,0.001985981949701158,-0.003162675674306787,0.10336897863172391
8400,9.0,299.89853,-6736.2023,0.08399996775761553,0.0,0.0,0.0,0.0,0.012819582756204817,0.8998373000170271,0.5181968828995506,0.6296031133119895,0.024818710069415977,-0.0015971434748007886,0.1097602968174979
8401,9.0,300.33534,-6537.8314,0.08400997743231309,0.0,0.0,0.0,0.0,0.01282111037409056,0.8802727375461551,0.5093312383670795,0.5977335301692064,0.008124334851284422,-0.0025770152926566075,0.12871056628274388
8402,9.0,300.57561,-6724.0646,0.08401995407178053,0.0,0.0,0.0,0.0,0.01282263295033309,0.9098828945559502,0.5231771591285655,0.6108876949549213,0.005292491110153205,0.005065668691792575,0.12202249754018288
8403,9.0,300.39161,-6849.6887,0.08402996374647809,0.0,0.0,0.0,0.0,0.012824160568218834,0.9271629225563562,0.5381174305280555,0.6168539648562464,0.0035008866013356062,0.007228123041185203,0.13201481538884788
8404,9.0,299.93175,-6774.5599,0.08403997342117542,0.0,0.0,0.0,0.0,0.01282568818610455,0.9196605047084251,0.5263063794123954,0.6133301545859734,-0.002916218495508357,-0.0036514524251202965,0.12299468061362989
8405,9.0,299.75832,-6759.9434,0.08404995006064286,0.0,0.0,0.0,0.0,0.01282721076234708,0.89964400229545,0.5305166868904204,0.6246933187599304,-0.005620387961764104,-0.00987121166358774,0.12028270658847888
8406,9.0,299.9043,-6687.2475,0.08405995973534042,0.0,0.0,0.0,0.0,0.012828738380232824,0.8886376237467051,0.5177636880842975,0.6263549374664193,-0.008184898329636571,-0.006580602525029904,0.1026077035665919
8407,9.0,300.09321,-6584.8058,0.08406996941003797,0.0,0.0,0.0,0.0,0.01283026599811854,0.8861077408970253,0.5067905542713335,0.6087182555633145,-0.003235042300423817,0.007799160805342243,0.11255584371089689
8408,9.0,299.70376,-6846.8173,0.0840799460495052,0.0,0.0,0.0,0.0,0.012831788574361042,0.9221691397035081,0.5297392099561895,0.6293531343798183,-0.009195145460315201,0.009609141010023381,0.10085664223402559
8409,9.0,300.01249,-6857.6257,0.08408995572420275,0.0,0.0,0.0,0.0,0.012833316192246813,0.933506232952392,0.5251411620623976,0.6258996031364814,0.008354207557746091,0.002319670538883658,0.1126216340398899
8410,9.0,300.1588,-6635.7279,0.08409996539890008,0.0,0.0,0.0,0.0,0.012834843810132529,0.8917736632037081,0.5269861891694875,0.5983357351011395,0.010095532671426502,0.001103428142999879,0.10760125337191691
8411,9.0,299.79467999999997,-6685.2562,0.08410997507359763,0.0,0.0,0.0,0.0,0.012836371428018245,0.8902436150227042,0.5260865852007035,0.6158207638617774,0.026404066507128475,-0.008212582247543763,0.1154885644028339
8412,9.0,299.67779,-6958.3963,0.08411995171306486,0.0,0.0,0.0,0.0,0.012837894004260775,0.935684305234851,0.5252866242467535,0.6542077844302814,0.004658942299626806,-0.012990641418326487,0.1105951237073889
8413,9.0,299.20383,-6946.8148,0.08412996138776241,0.0,0.0,0.0,0.0,0.012839421622146518,0.9364804462359242,0.5329426204123415,0.6422351807186774,0.0006536699614097023,-0.01216309067740359,0.11339419671113589
8414,9.0,299.40512,-6702.6035,0.08413997106245996,0.0,0.0,0.0,0.0,0.012840949240032234,0.9101519631200051,0.5126695022790405,0.6146026345915575,-0.015309889837218484,0.00040808010443187066,0.11292571039489989
8415,9.0,299.92856,-6700.9745,0.08414994770192719,0.0,0.0,0.0,0.0,0.012842471816274736,0.9098635617440421,0.5235818816160085,0.6034834914391833,0.003797892395822796,0.01089773483327269,0.1151717413615659
8416,9.0,299.97937,-6799.5217,0.08415995737662496,0.0,0.0,0.0,0.0,0.012843999434160508,0.9206363760122361,0.5270823668689795,0.6191660698619335,-0.00995664212324407,0.007992506250998952,0.09954096940317882
8417,9.0,299.8134,-6736.9255,0.08416996705132229,0.0,0.0,0.0,0.0,0.012845527052046224,0.900875516599491,0.5394557109951335,0.6075258932431374,0.012907167848588289,-0.0016804717444746484,0.1245852806206099
8418,9.0,300.74115,-6708.5402,0.08417997672601985,0.0,0.0,0.0,0.0,0.012847054669931968,0.9014739218435491,0.5220226214346215,0.6157321652730334,-0.00848649586960193,-0.003338897193273497,0.1037932264485939
8419,9.0,300.26452,-6680.6958,0.08418995336548707,0.0,0.0,0.0,0.0,0.01284857724617447,0.894598969252544,0.5253533568983395,0.6108123800749884,0.017715475270631283,0.0037239408438993465,0.12467948248240689
8420,9.0,300.47587999999996,-6665.3099,0.08419996304018484,0.0,0.0,0.0,0.0,0.012850104864060241,0.8861886387850092,0.5373694999667405,0.6025296279275444,-0.00939611966597481,0.002181435259540898,0.12192986621604089
8421,9.0,299.77295,-6951.1715,0.08420997271488218,0.0,0.0,0.0,0.0,0.01285163248194593,0.9360142701299161,0.5446342802687185,0.6323340148490083,0.005593009133462025,0.011342975165714489,0.13180686607082487
8422,9.0,299.22808,-7008.6723,0.08421994935434962,0.0,0.0,0.0,0.0,0.012853155058188459,0.9497266039982182,0.5390615161762295,0.6416732626107204,0.0002102133139139388,0.001129820268354579,0.10313926470155291
8423,9.0,299.39599999999996,-6661.7268,0.08422995902904717,0.0,0.0,0.0,0.0,0.012854682676074203,0.8891422526940083,0.5151739322862084,0.6206824391665874,0.018254084573287883,0.0036642792594612063,0.10944490245887088
8424,9.0,299.73665,-6641.6324,0.0842399687037445,0.0,0.0,0.0,0.0,0.012856210293959919,0.8838017660544432,0.5165467949791995,0.6185418470053274,0.0041414773987319955,-0.024583320925434873,0.10689119809933989
8425,9.0,299.38774,-6932.9049,0.08424994534321195,0.0,0.0,0.0,0.0,0.012857732870202448,0.9279382108703712,0.5394775870647924,0.6400141567644794,0.007177191720933674,-0.022212777733480477,0.09321401185050672
8426,9.0,299.63858999999997,-6930.0258,0.08425995501790928,0.0,0.0,0.0,0.0,0.012859260488088164,0.9198653332161402,0.5425692968299205,0.6441201704097114,-0.0050939619783099055,-0.008432945905791961,0.11656985424704888
8427,9.0,299.68639,-6774.6446,0.08426996469260706,0.0,0.0,0.0,0.0,0.012860788105973908,0.9184553754369881,0.5265339452523545,0.6143334950999955,-0.0031605775373247168,0.011895898652533788,0.1076766898418619
8428,9.0,299.8687,-6744.0616,0.08427997436730439,0.0,0.0,0.0,0.0,0.012862315723859624,0.9170100045668411,0.5321188784785446,0.6008974441364604,-0.0025727685588374876,0.01812880734417398,0.12442301874959587
8429,9.0,300.16112000000004,-6697.9358,0.08428995100677183,0.0,0.0,0.0,0.0,0.012863838300102154,0.8991701153561812,0.5217927656494364,0.6150423547374544,-0.004183974121176095,0.008887906751743101,0.1043505038710929
8430,9.0,299.94714,-6770.6917,0.08429996068146939,0.0,0.0,0.0,0.0,0.012865365917987898,0.9100405866690132,0.5205710494738626,0.6275095866178745,0.001264077933104779,0.01026968797078929,0.11725238964690989
8431,9.0,299.82254,-6980.2663,0.08430997035616694,0.0,0.0,0.0,0.0,0.012866893535873641,0.9322317365791091,0.5338886109707035,0.6557063205331755,0.005074495518713714,-0.006451764127114544,0.10482323570524789
8432,9.0,300.35247999999996,-6808.6167,0.08431994699563417,0.0,0.0,0.0,0.0,0.012868416112116143,0.9188420418076491,0.5136967048329175,0.6371107190004324,0.01178482921632209,-0.0012409277014450288,0.11401498464990288
8433,9.0,300.41145,-6615.0459,0.08432995667033172,0.0,0.0,0.0,0.0,0.012869943730001887,0.9026022467574062,0.5062951965624455,0.6019113427165245,-0.006319621013998035,0.003999473538292306,0.1095687520185939
8434,9.0,299.61856,-6823.2026,0.08433996634502927,0.0,0.0,0.0,0.0,0.012871471347887603,0.9336424846933392,0.5237603149586185,0.6166804052466174,0.0029057184886970874,-4.137278895617636e-05,0.10938157432762088
8435,9.0,299.01864,-7013.4174,0.0843499760197266,0.0,0.0,0.0,0.0,0.012872998965773319,0.9432090956449902,0.5350741845152105,0.6536205046723215,-0.00045375301130193545,-0.0028730899103018978,0.1101457776855419
8436,9.0,298.97211,-6760.2633,0.08435995265919405,0.0,0.0,0.0,0.0,0.012874521542015849,0.9156241013450631,0.5251183639351475,0.6142087741451864,-0.002258100801857198,0.002373876278158348,0.1142525816658519
8437,9.0,299.82492,-6625.2821,0.0843699623338916,0.0,0.0,0.0,0.0,0.012876049159901592,0.8625670533112403,0.5348922858572586,0.6164609859374623,0.0018062231746353483,-0.015338160528258588,0.1301438794767009
8438,9.0,300.01095,-6690.2238,0.08437997200858915,0.0,0.0,0.0,0.0,0.012877576777787336,0.8975071591595601,0.5313829042684094,0.6047709168837425,-0.004177215337709057,-0.020118147610006583,0.12971098863647787
8439,9.0,299.7794,-6689.305,0.08438994864805638,0.0,0.0,0.0,0.0,0.012879099354029838,0.9061296844630371,0.5262498805868194,0.6010021331367924,0.005343209951858765,0.0029294978473439273,0.12792137617735688
8440,9.0,300.0962,-6639.1543,0.08439995832275393,0.0,0.0,0.0,0.0,0.012880626971915582,0.8973230212188872,0.5161142993065155,0.6046997867267224,-0.00029498627558037873,0.02069628075931388,0.1281660051489999
8441,9.0,300.24096000000003,-6624.4228,0.08440996799745148,0.0,0.0,0.0,0.0,0.012882154589801298,0.900266472229383,0.4998277427641575,0.6135649043691415,-0.00041558589640263463,0.028821481635458772,0.10188274338504391
8442,9.0,299.97008999999997,-6683.0524,0.08441994463691871,0.0,0.0,0.0,0.0,0.012883677166043855,0.8970456744015151,0.5105441190017815,0.6238912705107744,-0.015935539349965284,0.005504533553280165,0.11126068716807488
8443,9.0,300.10434,-6918.2206,0.08442995431161626,0.0,0.0,0.0,0.0,0.012885204783929544,0.9216356939233611,0.5362295936042405,0.6451010269040144,0.002718030524973727,0.0024452526549526474,0.10419581097832589
8444,9.0,299.39308,-7202.1481,0.0844399639863136,0.0,0.0,0.0,0.0,0.012886732401815287,0.9656116500559502,0.5601040660379675,0.6635574686680233,-0.0007815318395411871,-0.015248901300449385,0.1095847613701739
8445,9.0,299.26791000000003,-7003.6465,0.08444997366101115,0.0,0.0,0.0,0.0,0.012888260019701031,0.955077435921304,0.5422520684886124,0.6316041606694774,0.01318400500115999,-0.016275807985297184,0.1024586240793789
8446,9.0,299.81846,-6620.7739,0.08445995030047859,0.0,0.0,0.0,0.0,0.01288978259594356,0.8903846797016263,0.5197567611634986,0.6024085040105904,-0.0010339583989187491,-0.02159946150095088,0.12141420297514888
8447,9.0,300.20231,-6657.5125,0.08446995997517592,0.0,0.0,0.0,0.0,0.012891310213829277,0.9079215463373802,0.5073482065963695,0.6084477988466224,0.007406137506203864,0.007242125752267164,0.1060467149359959
8448,9.0,300.29877,-6803.8539,0.08447996964987348,0.0,0.0,0.0,0.0,0.012892837831714993,0.9084681441038253,0.5355527830674445,0.6241807459318434,-0.0026064505120366377,0.022970986703809877,0.11761226568492689
8449,9.0,300.555,-6686.8123,0.08448994628934092,0.0,0.0,0.0,0.0,0.01289436040795755,0.8922673287849292,0.5322394349754425,0.6081172057364954,0.0049969071082063355,0.015898514178061183,0.12176852640261789
8450,9.0,300.0805,-6581.3705,0.08449995596403825,0.0,0.0,0.0,0.0,0.012895888025843238,0.8881240984635242,0.5291104882691395,0.5833377185784504,-0.013186497596405987,-0.008932089218378571,0.1213213284709829
8451,9.0,300.70519,-6612.8805,0.0845099656387358,0.0,0.0,0.0,0.0,0.012897415643728982,0.9027366239856681,0.5077862346145995,0.5996276897736454,0.007354057160338932,-0.013807942121237789,0.11970109089857789
8452,9.0,300.49573,-6809.3527,0.08451997531343336,0.0,0.0,0.0,0.0,0.012898943261614726,0.9179852375230892,0.5235745355527835,0.6283134384522084,0.000921758834208014,-0.01027689623200069,0.1222426261244079
8453,9.0,299.94698,-7026.685,0.0845299519529008,0.0,0.0,0.0,0.0,0.012900465837857256,0.9493030147939131,0.5378654554931875,0.6487683032559464,0.003201490955162557,0.009090476015710131,0.11361115382254788
8454,9.0,299.45092,-6971.3211,0.08453996162759814,0.0,0.0,0.0,0.0,0.012901993455742972,0.9229388855394762,0.5388744094127634,0.6572942354273904,-0.013126662138250688,0.001071789509952389,0.11469084273160489
8455,9.0,299.85457,-6656.6416,0.08454997130229569,0.0,0.0,0.0,0.0,0.012903521073628688,0.8958140486399632,0.5283747369740265,0.5992640343127554,0.005465122076065555,0.01869353722115848,0.12384302425985488
8456,9.0,300.03485,-6678.6902,0.08455994794176314,0.0,0.0,0.0,0.0,0.012905043649871245,0.9092223264182572,0.5257901487514475,0.5951425888685004,0.006568341489544834,0.015126176448337384,0.12734033804001288
8457,9.0,300.18915,-6883.8112,0.08456995761646069,0.0,0.0,0.0,0.0,0.012906571267756961,0.9307754631378861,0.5384763338459765,0.6232549190504714,0.025497773061184274,0.0054967448010864745,0.1111955757166489
8458,9.0,299.38083,-6733.5705,0.08457996729115802,0.0,0.0,0.0,0.0,0.012908098885642677,0.8977001833036101,0.5285174836481145,0.6206196379253894,0.006862844860260054,-0.02332007770776248,0.11196582817766688
8459,9.0,299.37318,-6554.266,0.08458997696585557,0.0,0.0,0.0,0.0,0.01290962650352842,0.884827590588184,0.4982219440056775,0.6092836693841164,-0.0006241183803881885,-0.005596653490096694,0.1022146030577959
8460,9.0,299.48999,-6672.2456,0.08459995360532302,0.0,0.0,0.0,0.0,0.01291114907977095,0.8837841760327072,0.5188100511975655,0.6256018291970934,0.0036811141058976766,0.0014263347378682784,0.12129331210571788
8461,9.0,299.7026,-6942.919,0.08460996328002035,0.0,0.0,0.0,0.0,0.012912676697656666,0.935448349684064,0.5400830951920516,0.6349425664364524,-0.0032134135651142267,0.013390297655269487,0.1053820532678989
8462,9.0,299.2366,-7117.3203,0.0846199729547179,0.0,0.0,0.0,0.0,0.012914204315542382,0.961312652796672,0.5456555147795065,0.6565194841359283,-0.0016280757712035685,0.002143133493835808,0.11746179804507689
8463,9.0,299.87296000000003,-7009.2118,0.08462994959418535,0.0,0.0,0.0,0.0,0.01291572689178494,0.9425558026430152,0.5401016579338834,0.6479679066044534,-0.006394217904910174,0.0069411496385881335,0.09042410572041441
8464,9.0,299.8257,-6801.3348,0.0846399592688829,0.0,0.0,0.0,0.0,0.012917254509670656,0.9238328659702051,0.5162647264163615,0.6273383574834754,0.013414712929679088,0.005902550554211385,0.10111209980948731
8465,9.0,300.3055,-6756.0426,0.08464996894358023,0.0,0.0,0.0,0.0,0.012918782127556372,0.910215970128822,0.5240645433011435,0.6193877183213085,0.006864595857757864,0.0016261841345918786,0.1014289491952579
8466,9.0,300.44253,-6911.6895,0.0846599455830479,0.0,0.0,0.0,0.0,0.01292030470379893,0.9180137807784062,0.5503600349938065,0.6326071972084694,0.01057038007046529,-0.004641145878845436,0.11769100535019789
8467,9.0,300.34605,-6870.0839,0.08466995525774523,0.0,0.0,0.0,0.0,0.012921832321684645,0.9336973521862542,0.5433016132071945,0.6113349942115663,-0.014505423973323885,0.002010004589697008,0.12401447630927588
8468,9.0,299.87806,-6555.2622,0.08467996493244279,0.0,0.0,0.0,0.0,0.012923359939570389,0.8868738390326332,0.5333710529521245,0.5723911319181064,-0.0012598270449602487,0.00994476217112161,0.14138273812838986
8469,9.0,299.7046,-6520.9539,0.08468997460714012,0.0,0.0,0.0,0.0,0.012924887557456077,0.8706345506074401,0.5279503574346435,0.5836222392065304,-0.01016328049828769,-0.004805493423865276,0.13584989608984085
8470,9.0,299.57619,-6824.0078,0.08469995124660779,0.0,0.0,0.0,0.0,0.012926410133698663,0.9075987552530231,0.5350952398522885,0.6316339704874193,-0.0026970660764296973,-0.012208680852402988,0.11985070740834389
8471,9.0,299.63354,-6921.6051,0.08470996092130512,0.0,0.0,0.0,0.0,0.01292793775158435,0.9162125260756362,0.5374350268507075,0.6503475751268084,-0.004877268413248916,0.003123089512774937,0.1201257237504859
8472,9.0,299.2348,-6804.8341,0.08471997059600245,0.0,0.0,0.0,0.0,0.012929465369470067,0.9035226628832442,0.5245317123922495,0.6404452946820295,0.0053047910544421146,0.004908202533501875,0.1236500710433119
8473,9.0,299.51412999999997,-6773.52,0.0847299472354699,0.0,0.0,0.0,0.0,0.012930987945712624,0.920910368971777,0.5338422243811255,0.6042283518526954,-0.0009230808418784861,0.00966082649232434,0.11876990392417688
8474,9.0,299.52237,-6772.5035,0.08473995691016745,0.0,0.0,0.0,0.0,0.01293251556359834,0.9215943026567761,0.5222820843877285,0.6147955574105974,0.0007909774380333951,0.0034455306205473974,0.11707029847143889
8475,9.0,300.26104,-6868.8256,0.084749966584865,0.0,0.0,0.0,0.0,0.012934043181484084,0.9248037115535201,0.5400672783579905,0.6230804677807544,0.003307176081667867,0.012433965866386888,0.11017306451073489
8476,9.0,300.11214,-6911.9009,0.08475997625956233,0.0,0.0,0.0,0.0,0.012935570799369772,0.9357644533177611,0.5275798828005805,0.6377009574486844,-0.007449081071942062,0.007228504023222803,0.09651416843945682
8477,9.0,300.18117,-6751.5712,0.08476995289902978,0.0,0.0,0.0,0.0,0.012937093375612357,0.9124571172300062,0.5156867178968165,0.6241652432053134,-0.004174514620892516,-0.015718092838754985,0.09677999460319181
8478,9.0,299.82052000000004,-6626.1818,0.08477996257372711,0.0,0.0,0.0,0.0,0.012938620993498046,0.8847012585657162,0.5165126991133345,0.6129798740264034,-0.002240279556448378,-0.031767648156222766,0.10855869365640891
8479,9.0,299.65016,-6780.0032,0.08478997224842466,0.0,0.0,0.0,0.0,0.01294014861138379,0.9415352875397981,0.5087074613405176,0.6107089171072774,0.005716484195948064,-0.0008074473117838451,0.1104689234074339
8480,9.0,300.24517000000003,-6984.9038,0.08479994888789211,0.0,0.0,0.0,0.0,0.012941671187626319,0.9373488522341291,0.5359581236374484,0.6499293764130354,0.003889305185394536,0.016962625380080785,0.10723032277530889
8481,9.0,300.1441,-6868.8102,0.08480995856258966,0.0,0.0,0.0,0.0,0.012943198805512063,0.9297003845167842,0.5271409124597575,0.6311054795002614,0.003901192331592707,0.015713676081569088,0.1116738196313479
8482,9.0,300.00871,-6761.2039,0.08481996823728699,0.0,0.0,0.0,0.0,0.012944726423397779,0.9068401349031531,0.5211725856607295,0.6272244175097305,-0.0035846078093982464,-0.0037574781049842165,0.10111427424420191
8483,9.0,300.3764,-6759.0299,0.08482994487675466,0.0,0.0,0.0,0.0,0.012946248999640336,0.9005823529480581,0.5190442639581806,0.6349496895846555,0.015605777104920285,-0.0024123589090062876,0.1137873174849339
8484,9.0,300.60943,-6796.4968,0.08483995455145199,0.0,0.0,0.0,0.0,0.012947776617526052,0.9076536227459381,0.5244504902642335,0.6338612056647304,0.008770342078415372,-0.004775075554538266,0.1112827354902509
8485,9.0,299.99895,-6841.7914,0.08484996422614932,0.0,0.0,0.0,0.0,0.01294930423541174,0.9323210647079252,0.5413480264843904,0.6060646548764245,-0.0071111453436404045,-0.006136319916582624,0.13182438516505388
8486,9.0,300.03656,-6729.1849,0.08485997390084687,0.0,0.0,0.0,0.0,0.012950831853297484,0.9135905083943632,0.5281947634912645,0.6037189099674174,-0.013368478327616087,-0.011329685377402888,0.1218566791613179
8487,9.0,299.94088999999997,-6606.4504,0.08486995054031432,0.0,0.0,0.0,0.0,0.012952354429540014,0.8885132574294311,0.5296624055986094,0.5900202853729685,-0.016854874337946583,0.0029050968597607372,0.13688896380238888
8488,9.0,299.94744,-6668.8921,0.08487996021501187,0.0,0.0,0.0,0.0,0.012953882047425758,0.8902558854814152,0.5235183913647425,0.6134024195831054,-0.005391274888902405,0.015171272157287986,0.12911851090550489
8489,9.0,300.20249,-6882.9059,0.0848899698897092,0.0,0.0,0.0,0.0,0.012955409665311474,0.9082953950942761,0.5381910228828185,0.6457450993300795,0.004422578611699526,0.006578785666275594,0.12628497726585688
8490,9.0,299.76336000000003,-6813.2776,0.08489994652917687,0.0,0.0,0.0,0.0,0.012956932241554031,0.9084459235291321,0.5274962086073225,0.6351241104568693,0.00960172168881615,-0.008323804279220522,0.11314601123164189
8491,9.0,299.59575,-6611.1918,0.0849099562038742,0.0,0.0,0.0,0.0,0.012958459859439747,0.8970425637237082,0.5185159553560404,0.5940787167935044,0.024112657134733977,-0.014117168826506087,0.12326564395537189
8492,9.0,300.16857999999996,-6777.8242,0.08491996587857176,0.0,0.0,0.0,0.0,0.012959987477325463,0.9173038774933442,0.5157563687086905,0.6272290683276894,0.00944786553798173,0.003557830142380497,0.0978596156244921
8493,9.0,300.13212000000004,-7030.1151,0.08492997555326909,0.0,0.0,0.0,0.0,0.012961515095211179,0.954516905965984,0.5382616970772935,0.6442008352501725,-0.006399494202155904,0.014640441575649086,0.09944683745563872
8494,9.0,299.82631000000003,-6941.6861,0.08493995219273676,0.0,0.0,0.0,0.0,0.012963037671453737,0.9392884763705551,0.5215444585799305,0.6492663055475955,-0.01975564117472998,0.011733859696541789,0.09300018365540351
8495,9.0,299.65263,-6727.9428,0.08494996186743409,0.0,0.0,0.0,0.0,0.012964565289339453,0.9115462155226072,0.5126025669774344,0.6209778319682404,-0.0095786596099151,0.007530613862438722,0.1108722881397429
8496,9.0,299.65001,-6760.9014,0.08495997154213142,0.0,0.0,0.0,0.0,0.012966092907225168,0.9214071553633062,0.5182136420562045,0.6155244186050304,0.0028743609312273373,-0.0070900576838842135,0.1035178858664199
8497,9.0,299.65461,-6845.8841,0.08496994818159909,0.0,0.0,0.0,0.0,0.012967615483467726,0.9440696388224191,0.5288841585943025,0.6080240069922974,0.0036044340741049462,-0.006809065395302434,0.11442990043335188
8498,9.0,299.90834,-7018.8164,0.08497995785629642,0.0,0.0,0.0,0.0,0.012969143101353414,0.9492770553263512,0.5491833780501795,0.6350845025104603,0.0015376604250302685,-0.008496569602096132,0.10671003911396089
8499,9.0,299.77617999999995,-6902.455,0.08498996753099397,0.0,0.0,0.0,0.0,0.012970670719239158,0.9302278825188441,0.5331109516514545,0.6348351416608504,-0.0009596691915319751,0.0018881088801418384,0.11490497287523789
8500,9.0,300.02537,-6545.1826,0.08499994417046142,0.0,0.0,0.0,0.0,0.012972193295481688,0.8563693368220732,0.5210699231605975,0.6121328070753044,0.0014920280988267086,0.005024573598211806,0.11599703356801588
8501,9.0,299.8691,-6665.2551,0.08500995384515897,0.0,0.0,0.0,0.0,0.012973720913367431,0.8810755761303892,0.5235979314975925,0.6213976012196685,-0.006666830817814974,0.0014902001956463085,0.12792781031549186
8502,9.0,300.03444,-7014.965,0.0850199635198563,0.0,0.0,0.0,0.0,0.012975248531253147,0.9317896859579822,0.5467581132733246,0.6538263970926413,0.0006881891327689794,0.0019156143647064182,0.1073381528509509
8503,9.0,299.48951,-6902.2905,0.08502997319455385,0.0,0.0,0.0,0.0,0.012976776149138891,0.9312377483635101,0.5525135460938415,0.6143726774813624,-0.00915426477045559,-0.012823601059840888,0.13355009194036788
8504,9.0,299.57405,-6549.1584,0.08503994983402108,0.0,0.0,0.0,0.0,0.01297829872538142,0.8809385543193662,0.5186568984449506,0.5911851784829344,0.008084230513651432,0.004580256336611105,0.12851638703357987
8505,9.0,299.51381000000003,-6619.7515,0.08504995950871863,0.0,0.0,0.0,0.0,0.012979826343267165,0.9032751765463191,0.5280016278897035,0.5809623665015214,-0.008749457473979221,-0.0014175274666740688,0.12792809402551986
8506,9.0,299.47274,-6911.7142,0.08505996918341618,0.0,0.0,0.0,0.0,0.012981353961152853,0.9071130538175882,0.5434928033685634,0.6503826842427733,0.006600319966675863,0.004013823591508546,0.12679432795862589
8507,9.0,299.64601,-6986.8414,0.08506994582288363,0.0,0.0,0.0,0.0,0.01298287653739541,0.9323670561299641,0.5526405265963734,0.6388177515764034,-0.00969811004300394,-0.0098994981613294,0.12020930675123488
8508,9.0,299.91055,-6829.0575,0.08507995549758096,0.0,0.0,0.0,0.0,0.012984404155281126,0.9152686633424841,0.5275222592673935,0.6330720256918444,0.0008613501703386431,0.0006357595905220864,0.12094725679906489
8509,9.0,299.99393,-6747.7572,0.08508996517227829,0.0,0.0,0.0,0.0,0.012985931773166842,0.9228545223361502,0.5195828063863305,0.6087123483152314,0.005963298342756724,-0.012577262735279187,0.1039048460796099
8510,9.0,299.82457,-6811.2812,0.08509997484697585,0.0,0.0,0.0,0.0,0.012987459391052586,0.9229460492176832,0.5169840326623515,0.6305293353609004,0.007035749808999443,-0.006967663759254874,0.1057238630566329
8511,9.0,300.01204,-7026.1663,0.08510995148644329,0.0,0.0,0.0,0.0,0.012988981967295116,0.9587518860839441,0.5272839732413765,0.6497432727671684,0.003250423436941817,-0.008020733068309723,0.08228063999796692
8512,9.0,299.95822000000004,-7008.5437,0.08511996116114084,0.0,0.0,0.0,0.0,0.012990509585180832,0.921483270710818,0.5310707624426035,0.6778682483103874,0.006183702632333934,0.0009704904087574458,0.0951070811978381
8513,9.0,300.18649,-6717.6162,0.08512997083583818,0.0,0.0,0.0,0.0,0.012992037203066548,0.911888309021369,0.5113383652251675,0.6187609218094484,0.007192439919038554,0.012652287825683589,0.0967343709909391
8514,9.0,300.04008,-6790.0046,0.08513994747530584,0.0,0.0,0.0,0.0,0.012993559779309105,0.9155044567732551,0.5290590252965605,0.6194283800478214,0.004709082575525266,-0.004916972213117376,0.10946253301061089
8515,9.0,300.24123,-7054.4855,0.08514995715000317,0.0,0.0,0.0,0.0,0.012995087397194821,0.958318316366154,0.5537035779387884,0.6323655370596194,0.008982441364872942,0.0014080854956172186,0.12115747579731188
8516,9.0,299.87397000000004,-7009.9331,0.08515996682470073,0.0,0.0,0.0,0.0,0.012996615015080565,0.9320992135985301,0.5545532996051495,0.6441921212993124,-0.006657078285602474,-0.0022100794345678576,0.12390754802622288
8517,9.0,299.62827999999996,-6765.8241,0.08516997649939806,0.0,0.0,0.0,0.0,0.01299814263296628,0.9111840698043662,0.5363580635844194,0.6090994706484374,0.00041029343781780956,0.0003808656151635097,0.12890523189195588
8518,9.0,299.02061000000003,-6702.5822,0.08517995313886573,0.0,0.0,0.0,0.0,0.012999665209208838,0.865009016449743,0.5350267948080335,0.6373818140646873,-0.012510930317482688,0.002970326760123427,0.13126326752467588
8519,9.0,299.36007,-6682.9652,0.08518996281356306,0.0,0.0,0.0,0.0,0.013001192827094527,0.8990084411702252,0.5329959376326036,0.5994501683561255,-0.006699662248880182,0.0033417078477258866,0.12657370288185188
8520,9.0,299.58661,-6754.0024,0.08519997248826039,0.0,0.0,0.0,0.0,0.013002720444980242,0.8875801554123413,0.5401767195012915,0.6252912173789384,-0.004700290908382595,0.006432732453136264,0.12207119433998889
8521,9.0,299.91447,-6819.5564,0.08520994912772806,0.0,0.0,0.0,0.0,0.0130042430212228,0.921944106988799,0.5411099735058965,0.6099207706494935,0.013549262410458087,-0.0016094110964115086,0.12514486825333687
8522,9.0,299.74235,-6718.4197,0.08521995880242539,0.0,0.0,0.0,0.0,0.013005770639108516,0.9025200721742962,0.5297399901587665,0.6099717675270264,0.005664568097924344,-0.007426125384301514,0.12200219200817888
8523,9.0,300.28461,-6649.8089,0.08522996847712294,0.0,0.0,0.0,0.0,0.01300729825699426,0.8968609183782812,0.5223576525801865,0.6021572787807965,0.007833874551118223,-0.016318601590020586,0.12025664579590688
8524,9.0,300.02816,-6904.533,0.08523994511659039,0.0,0.0,0.0,0.0,0.01300882083323679,0.9063860671358401,0.5393381537185314,0.6530814049566164,-0.0013022003535421687,-0.007127216604801513,0.1248707334387819
8525,9.0,300.44676,-7009.9828,0.08524995479128794,0.0,0.0,0.0,0.0,0.013010348451122533,0.95675503358187,0.5405501730906486,0.6335545151244624,0.003948112296023347,-0.0004448362280369176,0.1025148189299249
8526,9.0,299.63322,-6900.1786,0.08525996446598527,0.0,0.0,0.0,0.0,0.013011876069008221,0.9265161954150292,0.5307470189031526,0.6402187724896734,-0.015764094393294986,0.012209613042494988,0.1101254721535379
8527,9.0,299.81426,-6819.5368,0.08526997414068282,0.0,0.0,0.0,0.0,0.013013403686893965,0.9353317347300552,0.5221588123805625,0.6154783562554844,-3.4889911464866165e-05,0.012363352466917887,0.0947493633825341
8528,9.0,299.93043,-6741.5397,0.08527995078015027,0.0,0.0,0.0,0.0,0.013014926263136495,0.9115318577686902,0.5127871304831495,0.6249407544343504,-0.014721982877446587,0.01153977873263749,0.0949023894788866
8529,9.0,300.5434,-6839.4064,0.08528996045484782,0.0,0.0,0.0,0.0,0.013016453881022239,0.9202125030979031,0.5246678830731886,0.6341283693185974,0.0077244367515425525,-0.0008839914059431592,0.09891908006155309
8530,9.0,300.46455,-6917.0184,0.08529997012954516,0.0,0.0,0.0,0.0,0.013017981498907955,0.9011473209388161,0.5404840686541246,0.6609694759251084,-0.0002068613103306218,-0.001971250407822268,0.12364184345249989
8531,9.0,300.86671,-6785.965999999999,0.0853099467690126,0.0,0.0,0.0,0.0,0.013019504075150484,0.933540034975728,0.5203179598638845,0.6089062337218665,0.0023434360160041277,-0.0016006705983988886,0.11064400289221289
8532,9.0,300.48188,-6668.0582,0.08531995644371015,0.0,0.0,0.0,0.0,0.013021031693036228,0.8814867023584642,0.5369163238595155,0.6085201651687645,0.01096328096899159,0.006908948955710174,0.12140894420712989
8533,9.0,300.3137,-6768.0008,0.08532996611840749,0.0,0.0,0.0,0.0,0.013022559310921916,0.9286205638852142,0.5233160858497765,0.6053665964850314,0.00973906480144586,0.0025378317967144977,0.1183727504149809
8534,9.0,299.76288,-7027.4926,0.08533997579310504,0.0,0.0,0.0,0.0,0.01302408692880766,0.9375809371695341,0.5600612967512465,0.6385400399889953,0.008014943965188382,-0.006692412545739693,0.12678692110039488
8535,9.0,299.8577,-6893.2638,0.08534995243257248,0.0,0.0,0.0,0.0,0.01302560950505019,0.9168523833812852,0.5341988985488265,0.6443287986053015,-0.013149956758049686,-0.02334633304435368,0.11941813067565189
8536,9.0,299.7101,-6630.1477,0.08535996210726982,0.0,0.0,0.0,0.0,0.013027137122935933,0.8793579550908732,0.5220488848772136,0.6139924857788405,-0.0016617224632992382,-0.008600620558840161,0.14192098671401088
8537,9.0,299.94183,-6763.0269,0.08536997178196737,0.0,0.0,0.0,0.0,0.01302866474082165,0.914851903443853,0.5297367680234485,0.6112026130860014,-0.012125659192209388,0.003966587898346746,0.11368558717489388
8538,9.0,299.4196,-6960.1222,0.08537994842143459,0.0,0.0,0.0,0.0,0.013030187317064179,0.919427082282888,0.5519172281449894,0.6443590339882854,0.002183982063667248,0.017985469945277683,0.12380452075605487
8539,9.0,299.84976,-6880.9999,0.08538995809613215,0.0,0.0,0.0,0.0,0.013031714934949923,0.936381877266196,0.5293992645476395,0.6258709990861584,-0.013664083911790088,0.006766640512290424,0.1064855332893039
8540,9.0,299.78291,-6702.1874,0.0853999677708297,0.0,0.0,0.0,0.0,0.013033242552835639,0.8888922332318332,0.5205000814368586,0.6279053114444294,-0.004561681233127886,0.008389821069610873,0.12634453610673488
8541,9.0,300.24161000000004,-6711.9248,0.08540994441029692,0.0,0.0,0.0,0.0,0.013034765129078169,0.8827677240623911,0.5285455506758845,0.6289442575669654,0.005159958098398215,-0.0030202517203756375,0.1141637905595889
8542,9.0,299.7505,-6885.6523,0.08541995408499448,0.0,0.0,0.0,0.0,0.013036292746963885,0.9191688656274041,0.5361657791129425,0.6377317197217204,0.014690555912344985,-0.005465055201558954,0.13540561631849388
8543,9.0,300.1777,-7106.2333,0.08542996375969203,0.0,0.0,0.0,0.0,0.013037820364849628,0.9819673305201301,0.5430733684896685,0.6350767815446984,0.004224898887415056,-0.015571202985008087,0.1017171276561989
8544,9.0,300.33499,-6896.9359,0.08543997343438936,0.0,0.0,0.0,0.0,0.013039347982735344,0.926765434674627,0.5201166169365135,0.6496142454994344,0.005565579642654944,0.00026574626896461477,0.1066948302299599
8545,9.0,300.48481,-6626.9512,0.0854499500738568,0.0,0.0,0.0,0.0,0.013040870558977874,0.9191431392073651,0.4958452645711175,0.5994392860500514,0.0007482114443752201,0.016463762839096886,0.08006399733720133
8546,9.0,299.91582,-6774.3182,0.08545995974855436,0.0,0.0,0.0,0.0,0.013042398176863618,0.894085697281888,0.5330900483018914,0.6320478527557664,-0.0015812182229790884,0.015918356654769483,0.1105421104621569
8547,9.0,300.22324,-7124.7542,0.08546996942325191,0.0,0.0,0.0,0.0,0.013043925794749334,0.9489023757043732,0.5518365734370295,0.6650084225462214,-0.00032055953273426273,0.0028152199546905773,0.1010817762737446
8548,9.0,299.51523,-7108.6594,0.08547994606271914,0.0,0.0,0.0,0.0,0.013045448370991863,0.9473794506715721,0.5532432482858575,0.6602322655498514,-0.0015325956944054187,-0.013306962900794988,0.11777552054103889
8549,9.0,299.27295,-6802.0671,0.08548995573741669,0.0,0.0,0.0,0.0,0.01304697598887758,0.9122107252031891,0.5369185327447334,0.6185293029690895,0.002147610843377688,-0.011162159672119388,0.11772365226841988
8550,9.0,299.44203,-6599.3907,0.08549996541211424,0.0,0.0,0.0,0.0,0.013048503606763323,0.8666042976721852,0.5322466493161545,0.6071990491583804,0.002007622742686938,-0.0007601375297747332,0.11879058435871788
8551,9.0,299.59021,-6741.2419,0.0855099750868118,0.0,0.0,0.0,0.0,0.013050031224649067,0.9100406778615221,0.5224449238112995,0.6166836071169334,-0.0033980199313084565,0.008025333021113702,0.11204401055538289
8552,9.0,300.0098,-6930.3712,0.08551995172627902,0.0,0.0,0.0,0.0,0.013051553800891569,0.8950019590823162,0.5581281371504585,0.6535297174633613,-0.012266279054337489,0.010860383394836389,0.13070710467728686
8553,9.0,300.43978,-6808.4325,0.08552996140097657,0.0,0.0,0.0,0.0,0.013053081418777313,0.9099427675043591,0.5284092077424285,0.6312414981936854,-0.004358759966076116,0.014746342423100686,0.12314583726354789
8554,9.0,300.14681,-6651.7587,0.08553997107567413,0.0,0.0,0.0,0.0,0.013054609036663029,0.88950613106992,0.5365668640325265,0.5958955451503115,-0.004301137750114246,-0.0007367121095203243,0.13671147278237186
8555,9.0,301.26757000000003,-6684.6417,0.08554994771514157,0.0,0.0,0.0,0.0,0.013056131612905586,0.918170459641369,0.5251144527897615,0.5886792488656184,0.004997360638951095,-0.007717120477870492,0.1267096405152679
8556,9.0,301.17367,-6971.4781,0.0855599573898389,0.0,0.0,0.0,0.0,0.013057659230791274,0.9373501795917601,0.5337933451963015,0.6480117499362804,-0.002181855859657408,-0.02147470001613788,0.10326627560158791
8557,9.0,300.23872,-7097.3394,0.08556996706453646,0.0,0.0,0.0,0.0,0.013059186848677018,0.9693456185294641,0.5503312282934635,0.6377371203447534,0.004900094607526685,-0.01013800801429349,0.096345839226844
8558,9.0,300.28839,-6800.3697,0.08557997673923401,0.0,0.0,0.0,0.0,0.013060714466562762,0.8705128491379291,0.5390856315286094,0.6575440927695494,-0.009143177990511411,0.0017478314965475384,0.11423991603960189
8559,9.0,300.45955,-6711.0329,0.08558995337870123,0.0,0.0,0.0,0.0,0.013062237042805264,0.8971567975399821,0.5397542651370985,0.6030753644314044,-0.0029207956501850875,0.021629002807616378,0.10869486433734789
8560,9.0,300.26576,-6925.8339,0.08559996305339879,0.0,0.0,0.0,0.0,0.013063764660691007,0.9298564351646851,0.5331603982563344,0.6422637442389963,-0.008445922701147673,0.0074237706923941235,0.11396938839540288
8561,9.0,300.28123,-6994.7177,0.08560997272809634,0.0,0.0,0.0,0.0,0.013065292278576723,0.9631776206657301,0.5325856118721075,0.6304562800286904,-0.00041782165301328664,0.011968708778219591,0.11083207224327389
8562,9.0,299.75481,-6802.7901,0.08561994936756379,0.0,0.0,0.0,0.0,0.01306681485481928,0.9117901250866791,0.5283361929402225,0.6277519965717984,0.0013876166276970987,0.004372110954693757,0.1071308317479899
8563,9.0,299.51215,-6623.0442,0.08562995904226112,0.0,0.0,0.0,0.0,0.013068342472704969,0.9004206078345952,0.5027946099844646,0.6100248415672644,0.006607520425861494,-0.0012113640019523189,0.10202031235112091
8564,9.0,299.9469,-6627.7269,0.08563996871695867,0.0,0.0,0.0,0.0,0.013069870090590713,0.8562411606844231,0.5256641409690115,0.6327581613408684,0.0031527706479542368,-0.008029112950611752,0.11941805974814489
8565,9.0,299.72617,-6957.3514,0.08564994535642612,0.0,0.0,0.0,0.0,0.013071392666833243,0.9472384366551552,0.5349700528024335,0.6326526212104524,0.0013389592433199885,-0.004051369371314026,0.12149176727030389
8566,9.0,299.68582000000004,-7141.5987,0.08565995503112367,0.0,0.0,0.0,0.0,0.013072920284718986,0.956390699243413,0.5558276946534225,0.6586492851836234,0.005942562179460224,0.013983014513266086,0.12827685470993988
8567,9.0,299.80133,-6831.2243,0.085669964705821,0.0,0.0,0.0,0.0,0.013074447902604702,0.9368722801820951,0.5323514903040015,0.6072978309106294,0.002365728126154188,-0.005995146617249905,0.1158823032591929
8568,9.0,300.09931,-6587.9381,0.08567997438051855,0.0,0.0,0.0,0.0,0.013075975520490418,0.8829526118081381,0.5299449605214954,0.5896711193885085,0.0022721336064671282,-0.009889764576893771,0.11954912364857988
8569,9.0,300.31543999999997,-6816.3874,0.085689951019986,0.0,0.0,0.0,0.0,0.013077498096732976,0.9134834787863002,0.5240706937292505,0.6344573817585684,-0.005803717328857305,-0.004759686514669486,0.10114152965864182
8570,9.0,300.19225,-7011.0663,0.08569996069468333,0.0,0.0,0.0,0.0,0.013079025714618664,0.8928007745650761,0.5627782357018875,0.6756100786075234,0.007715699191955222,0.0006743368589293663,0.12120516947951888
8571,9.0,299.9032,-6721.544,0.08570997036938088,0.0,0.0,0.0,0.0,0.013080553332504435,0.9147102308148711,0.5256113202412985,0.6028599981226495,-0.009476118294495059,0.0033306188386314868,0.11768947534254688
8572,9.0,300.06554,-6546.9102,0.08571994700884811,0.0,0.0,0.0,0.0,0.013082075908746937,0.8767400917350101,0.5076073250444425,0.6057497975403504,0.0006452569863594063,-0.004350507550636666,0.13693671827960185
8573,9.0,300.20445,-6750.2479,0.08572995668354566,0.0,0.0,0.0,0.0,0.013083603526632681,0.9289786870005581,0.5243289306497364,0.5985991902596405,-0.012656677225116788,-0.002959395007444547,0.1210915132158019
8574,9.0,300.42985,-6887.0538,0.08573996635824321,0.0,0.0,0.0,0.0,0.013085131144518397,0.9258569748999691,0.5200079559957895,0.6476274444383524,0.00971824737549134,4.6830147915275755e-05,0.11972037304798089
8575,9.0,299.91091,-7048.1357,0.08574997603294077,0.0,0.0,0.0,0.0,0.01308665876240414,0.9291294079529332,0.5531127011429735,0.6602151720206644,-0.003971546339036107,-0.01084115900068909,0.0985978706606022
8576,9.0,299.70718,-6904.4901,0.08575995267240799,0.0,0.0,0.0,0.0,0.01308818133864667,0.9058941646097931,0.5442660651823785,0.6486323453575285,0.0003657772167319006,-0.02004447723498588,0.11426947254501889
8577,9.0,299.81464,-6662.2519999999995,0.08576996234710554,0.0,0.0,0.0,0.0,0.013089708956532387,0.909042778500537,0.5098633162595916,0.6062521568074295,-0.011774428204045591,0.002029161298737628,0.09409224029518111
8578,9.0,299.65862000000004,-6811.808000000001,0.0857799720218031,0.0,0.0,0.0,0.0,0.01309123657441813,0.919217998124753,0.5344955376481025,0.6169059952488815,0.0036147558502236266,0.005677828198008015,0.1278245905278049
8579,9.0,300.03323,-7127.7826,0.08578994866127054,0.0,0.0,0.0,0.0,0.01309275915066066,0.9775100433302301,0.5409729111648695,0.6481849751733764,0.0068330147773160545,0.007003776803418953,0.1027254432282119
8580,9.0,300.39172,-6950.8239,0.08579995833596787,0.0,0.0,0.0,0.0,0.013094286768546376,0.9309838177559491,0.5382468023008236,0.6436462834704424,0.014539613058198087,0.001084060171313409,0.11612256512290489
8581,9.0,299.97179,-6633.1052,0.0858099680106652,0.0,0.0,0.0,0.0,0.013095814386432092,0.8702489177518812,0.5300579885701504,0.6159914458411224,0.013240206944456687,0.00026969642447946475,0.1258408900120289
8582,9.0,300.42419,-6713.0283,0.08581994465013287,0.0,0.0,0.0,0.0,0.01309733696267465,0.8841163700779923,0.5252488300180235,0.6312277787873314,0.009271892670589562,-0.004538982404387686,0.1151802526624059
8583,9.0,300.35483,-6977.7142,0.0858299543248302,0.0,0.0,0.0,0.0,0.013098864580560338,0.9400771902483951,0.5404192713102295,0.6405544217177994,-0.012656257739575388,-0.0012483720499297287,0.1268000730866929
8584,9.0,299.86622,-6931.8853,0.08583996399952776,0.0,0.0,0.0,0.0,0.013100392198446081,0.9164391495930022,0.5502543530083764,0.6404265495551794,-0.012151414996501289,-0.004480135777004976,0.12557455722324387
8585,9.0,299.65606,-6729.8385,0.08584997367422531,0.0,0.0,0.0,0.0,0.013101919816331825,0.9220362519528931,0.5197975850100275,0.6038690229697324,-0.01076670639659119,0.013830784831492188,0.11732184794126489
8586,9.0,299.36294,-6669.6759999999995,0.08585995031369276,0.0,0.0,0.0,0.0,0.013103442392574355,0.886879553763197,0.5231159081600205,0.6174194901345594,-0.00023546110500320179,0.005220029643826815,0.1106798618132519
8587,9.0,300.08691,-6754.6209,0.08586995998839009,0.0,0.0,0.0,0.0,0.01310497001046007,0.900153494843233,0.5317220086793766,0.6213605871935154,0.014303247141120586,-0.007005801885068813,0.11578686523227388
8588,9.0,300.45752000000005,-7020.2272,0.08587996966308764,0.0,0.0,0.0,0.0,0.013106497628345815,0.9388639549761582,0.5490010132971815,0.6461087953209733,0.014719230890174987,-0.016410289578319484,0.11082803950787591
8589,9.0,300.3119,-7081.4623,0.08588994630255509,0.0,0.0,0.0,0.0,0.013108020204588344,0.9504861261406772,0.5694037970457795,0.6326977918999104,0.01927986452402448,-0.0004735514724258916,0.11891818294381089
8590,9.0,300.58772999999997,-6653.9987,0.08589995597725264,0.0,0.0,0.0,0.0,0.013109547822474088,0.8938489007335181,0.5214768038707535,0.6073237397156864,-0.00020306662791111583,0.007613594789978303,0.13472831942164987
8591,9.0,300.85019,-6627.7298,0.08590996565194997,0.0,0.0,0.0,0.0,0.013111075440359776,0.9198150861436812,0.5111029264319314,0.5837463522112795,-0.00912502723617007,0.016165195524880584,0.11914748144144088
8592,9.0,300.12793999999997,-7019.7206,0.08591997532664752,0.0,0.0,0.0,0.0,0.01311260305824552,0.930121926955887,0.5443429202024634,0.6593549328182654,-0.021109945178889377,0.0054437672222579945,0.1192838142423959
8593,9.0,300.38072,-7012.6876,0.08592995196611497,0.0,0.0,0.0,0.0,0.01311412563448805,0.9267809272686561,0.5493033671270214,0.6555976393274494,-0.013404699992190886,0.011287932380532188,0.1000549080924006
8594,9.0,299.42701,-6800.2849,0.0859399616408123,0.0,0.0,0.0,0.0,0.013115653252373766,0.9069927607657162,0.5259360365008455,0.6341880092194834,-0.009062293578753742,0.0006524123559155864,0.10399390063089889
8595,9.0,299.58177,-6772.2812,0.08594997131550985,0.0,0.0,0.0,0.0,0.01311718087025951,0.9252167730892862,0.5217079667485675,0.6116796208355784,-0.0012221706182438488,-0.0094978458216894,0.09888112168630692
8596,9.0,299.95722,-6978.6361,0.0859599479549773,0.0,0.0,0.0,0.0,0.013118703446502039,0.9332554636851431,0.5556934491476735,0.6323822252887664,0.01040826917371619,-0.004957691289586035,0.10684256209453989
8597,9.0,299.7223,-7134.054,0.08596995762967485,0.0,0.0,0.0,0.0,0.013120231064387755,0.9736974061189521,0.5566921388437365,0.6381847337089294,0.012600278711300688,0.008138242519507002,0.12098022795731889
8598,9.0,300.00912999999997,-7054.2351,0.08597996730437218,0.0,0.0,0.0,0.0,0.013121758682273471,0.9260298454995302,0.5547492824394915,0.6635321982105294,0.013276258383014687,0.013977529790474789,0.1050294321005979
8599,9.0,300.29902000000004,-6686.3149,0.08598994394383963,0.0,0.0,0.0,0.0,0.013123281258516029,0.9003056850082531,0.5224537694846725,0.6097133178240194,-0.0004729515371741825,-0.008057689237882013,0.12788318678108787
8600,9.0,299.7537,-6563.5408,0.08599995361853718,0.0,0.0,0.0,0.0,0.013124808876401745,0.8859543854943901,0.5085761441275575,0.6006220022292764,-0.0002830900405288117,-0.007442286318096472,0.11428341486639489
8601,9.0,300.56389,-6841.9435,0.08600996329323474,0.0,0.0,0.0,0.0,0.013126336494287488,0.9107808773245741,0.5521087222813885,0.6168903810648404,-0.002092318089395718,-0.0035961092112833464,0.13946459489408386
8602,9.0,300.11666,-7003.819,0.08601997296793207,0.0,0.0,0.0,0.0,0.013127864112173204,0.9365761173103662,0.5458844079770965,0.6465255653521054,0.007854924213995662,-7.006709959808433e-05,0.1279660098442619
8603,9.0,299.64682999999997,-6769.2231,0.08602994960739951,0.0,0.0,0.0,0.0,0.013129386688415762,0.9187413044827072,0.5231407327874704,0.6157927474965125,-0.008236172533721942,-0.008954750354215052,0.12130456931432888
8604,9.0,299.72447,-6593.1395,0.08603995928209685,0.0,0.0,0.0,0.0,0.01313091430630145,0.8708379706975162,0.5204524992121625,0.6128593175295054,0.00013576313148377787,0.006237744934367495,0.11709990563936087
8605,9.0,299.64564,-6842.3086,0.0860499689567944,0.0,0.0,0.0,0.0,0.013132441924187166,0.916034964128112,0.5285814602594285,0.6352745274342144,-0.005006257886754185,0.013038440478543885,0.09938950168548011
8606,9.0,299.65021,-6998.6751,0.08605994559626184,0.0,0.0,0.0,0.0,0.013133964500429723,0.9471361895875641,0.5407386477417495,0.6395476462859384,0.0013122607111350488,0.008117624399847152,0.11163173935469489
8607,9.0,300.0897,-7013.5477,0.08606995527095918,0.0,0.0,0.0,0.0,0.01313549211831544,0.9506446085888182,0.5484063064159884,0.6328924575091224,-0.009249494371829021,-0.01993600475878048,0.11373551000732089
8608,9.0,300.06247,-6935.4766,0.08607996494565673,0.0,0.0,0.0,0.0,0.013137019736201183,0.9593148782370071,0.5277182015717315,0.6211786378730585,-0.003383767251426827,-0.013192561898254487,0.1166906640564719
8609,9.0,300.34932000000003,-6742.6678,0.08608997462035406,0.0,0.0,0.0,0.0,0.013138547354086899,0.9245116827421991,0.5191011984812995,0.6059897858265354,0.0010581771028089488,-0.007469514273458663,0.11681621587636287
8610,9.0,301.34806000000003,-6805.4803,0.08609995125982173,0.0,0.0,0.0,0.0,0.013140069930329457,0.8884938131600122,0.5287350183120836,0.6514672570173125,0.015086478322669487,0.011835327574805888,0.12287501577681989
8611,9.0,300.93691,-6957.1701,0.08610996093451906,0.0,0.0,0.0,0.0,0.013141597548215145,0.9347946311170471,0.5232375893645295,0.6567737896460264,-0.005535585311869735,-0.0031494727215287573,0.1041075062321109
8612,9.0,300.8577,-6726.6824,0.08611997060921661,0.0,0.0,0.0,0.0,0.013143125166100889,0.9003339445535422,0.5164083647505375,0.6280011953013924,0.017613111679278783,0.007090284854556633,0.1124280424757839
8613,9.0,300.08583,-6611.5143,0.08612994724868406,0.0,0.0,0.0,0.0,0.013144647742343418,0.8983272432604961,0.5064131996690915,0.6049948046258384,0.0004571316836278846,0.0015274764509251887,0.1091321830805079
8614,9.0,300.23848,-6858.4185,0.08613995692338161,0.0,0.0,0.0,0.0,0.013146175360229162,0.9389768006397952,0.5316488013596514,0.6141623470256043,-0.0013877976954899689,0.0005734865059387114,0.11896743703117188
8615,9.0,300.34227000000004,-7093.9323,0.08614996659807894,0.0,0.0,0.0,0.0,0.013147702978114878,0.9501881191537662,0.5524403894366214,0.6537497649875783,-0.02145758216894848,-0.027440064071873473,0.10520019513995091
8616,9.0,299.81043999999997,-7047.3836,0.08615997627277627,0.0,0.0,0.0,0.0,0.013149230596000594,0.9273607495058802,0.5494502478615174,0.6654176438641084,-0.01778562156180418,-0.003542069645025057,0.11903153523249789
8617,9.0,299.76673999999997,-6876.7423,0.08616995291224394,0.0,0.0,0.0,0.0,0.013150753172243151,0.914890447477657,0.5475606174850255,0.6279068921145854,0.002774357199357737,0.009013483294936543,0.1166673694366729
8618,9.0,300.06538,-6728.7028,0.08617996258694127,0.0,0.0,0.0,0.0,0.01315228079012884,0.9078386320816971,0.5219967936895725,0.6155221995873115,0.005582188432994104,0.023987851066916577,0.1227508014470609
8619,9.0,299.82164,-6792.7336,0.08618997226163883,0.0,0.0,0.0,0.0,0.013153808408014583,0.9133567110662892,0.5340954659786185,0.6173692126645973,0.00989674769393295,0.0031918884852898672,0.12282363386424888
8620,9.0,300.4464,-6892.1578,0.08619994890110627,0.0,0.0,0.0,0.0,0.013155330984257113,0.9407296118552841,0.5391892566163365,0.6151250258131133,0.005179801892331646,0.005423131066746365,0.12701980650337888
8621,9.0,300.06526,-6879.4285,0.08620995857580382,0.0,0.0,0.0,0.0,0.013156858602142857,0.9196895951187961,0.5340987691739445,0.6373861203776124,0.018037512496913884,0.00862840803090757,0.12029879700006688
8622,9.0,300.33156,-6605.0307,0.08621996825050116,0.0,0.0,0.0,0.0,0.013158386220028573,0.8711686448676511,0.5225527640194425,0.6140429861638244,0.0040539809221217665,-0.0017313591909968486,0.12503034059453388
8623,9.0,300.09487,-6666.4528,0.08622994488996882,0.0,0.0,0.0,0.0,0.01315990879627113,0.8955703822559151,0.5143858060934265,0.6164789913917395,-0.003336160810053437,-0.012779100128698989,0.12308188091723589
8624,9.0,300.11071,-7062.856,0.08623995456466615,0.0,0.0,0.0,0.0,0.013161436414156846,0.9501164823716961,0.5376224477217045,0.6591929343922773,-0.01007321148099857,-0.008948596278407692,0.11535267743192289
8625,9.0,300.09578,-7049.0738,0.08624996423936371,0.0,0.0,0.0,0.0,0.013162964032042562,0.9709974796374902,0.5466801639431315,0.6250647762465904,0.003243840452367127,-0.008102648360719132,0.1123062498137639
8626,9.0,300.69937000000004,-6803.5133,0.08625997391406104,0.0,0.0,0.0,0.0,0.013164491649928278,0.9404379376814982,0.5268510722686526,0.6008091495227464,-0.0027001610488601477,-0.006766208969072833,0.12248618105094487
8627,9.0,300.16711000000004,-6860.5374,0.08626995055352871,0.0,0.0,0.0,0.0,0.013166014226170836,0.9209081195565552,0.5355519623348635,0.6289719598246994,-0.0018474986267339184,-0.014607624431410287,0.10900958995090888
8628,9.0,300.16395,-6941.4315,0.08627996022822604,0.0,0.0,0.0,0.0,0.013167541844056552,0.9199153371085751,0.5522136139317405,0.6378928872826264,-0.005282570885049155,0.01027978804778609,0.11948349543960288
8629,9.0,299.7686,-6930.8309,0.08628996990292337,0.0,0.0,0.0,0.0,0.013169069461942268,0.9265763926034702,0.5333279898228745,0.6468951280610784,0.008314306275433142,0.01934943123614018,0.0941683992124474
8630,9.0,300.17213,-6962.523,0.08629994654239082,0.0,0.0,0.0,0.0,0.013170592038184825,0.9260290855619551,0.5493186469385295,0.6410853951677024,0.003496134458366606,0.012919052259011188,0.12090422406731789
8631,9.0,300.33927,-6798.3824,0.08630995621708837,0.0,0.0,0.0,0.0,0.013172119656070541,0.9240926328983422,0.5201357470984015,0.6223100937297243,0.002541027080904848,0.0009393230079339632,0.09864852404635131
8632,9.0,299.5563,-6671.4502,0.08631996589178592,0.0,0.0,0.0,0.0,0.013173647273956257,0.9061259050401641,0.5163084278931745,0.6055199316226644,-0.014763732834566987,-0.0077369302266005625,0.13607691477474587
8633,9.0,298.97303999999997,-6954.8588,0.08632997556648325,0.0,0.0,0.0,0.0,0.013175174891841973,0.9114845187240183,0.5523255476702875,0.6502933358489553,0.004239861247666726,-0.01006467292373088,0.13207394866468386
8634,9.0,299.40699,-7007.9364,0.0863399522059507,0.0,0.0,0.0,0.0,0.01317669746808453,0.935523735491504,0.5356491532844555,0.6590647987846314,-0.0033398298899905464,-0.012958892239693088,0.1183074059160319
8635,9.0,300.34861,-6711.0111,0.08634996188064803,0.0,0.0,0.0,0.0,0.013178225085970247,0.8804866447747661,0.5457259356614564,0.6137672301491094,0.018500037862811583,-0.013882510235847087,0.12428381845085788
8636,9.0,300.49908,-6731.576,0.08635997155534558,0.0,0.0,0.0,0.0,0.01317975270385599,0.8957959215956741,0.5400101715823544,0.6104249132367484,0.01978027936416158,0.010800591506435388,0.12361714041506189
8637,9.0,300.19107,-7023.5155,0.08636994819481303,0.0,0.0,0.0,0.0,0.01318127528009852,0.957803899422885,0.5426635493542225,0.6345058860408554,0.005471500586770065,0.004757363334840206,0.11504968525451989
8638,9.0,300.41404,-7026.6668,0.08637995786951058,0.0,0.0,0.0,0.0,0.013182802897984264,0.947402015751299,0.5630050517367725,0.6255241635769284,0.0012640529058273087,0.0020154794839623382,0.1094183553062509
8639,9.0,299.89032000000003,-6849.7402,0.08638996754420791,0.0,0.0,0.0,0.0,0.013184330515869952,0.8960647875097091,0.5443431735149884,0.6417420014975044,-0.013154245845722988,-0.01687684261336468,0.12259552086923589
8640,9.0,299.98246,-6780.835,0.08639994418367536,0.0,0.0,0.0,0.0,0.01318585309211251,0.8972444538061332,0.5368911243295285,0.6270689545468874,0.012392729627067188,0.005279219459018395,0.10481746017967788
8641,9.0,300.17838,-6749.5304,0.08640995385837291,0.0,0.0,0.0,0.0,0.013187380709998225,0.8966340010183862,0.5280720893016575,0.6269826256383674,-0.00992428925020109,-0.01120759178010319,0.1107615297713119
8642,9.0,299.47438999999997,-6829.1008,0.08641996353307024,0.0,0.0,0.0,0.0,0.013188908327883941,0.934233594536677,0.5130595630375365,0.6285829731113094,-0.0032800051722863066,0.0025415310715045875,0.11470869619836689
8643,9.0,299.5792,-6954.9774,0.0864299732077678,0.0,0.0,0.0,0.0,0.013190435945769685,0.9658427825362611,0.5280283979573455,0.6202682934532144,-0.018247892601926784,-0.011317181871168888,0.10476313984181691
8644,9.0,300.36054,-6863.7564,0.08643994984723524,0.0,0.0,0.0,0.0,0.013191958522012215,0.9332396164535791,0.5329505136306205,0.6202204275184905,0.006169142633696974,0.017621382839845084,0.1286003955993709
8645,9.0,300.09747999999996,-6827.9593,0.0864499595219328,0.0,0.0,0.0,0.0,0.013193486139897959,0.9098518080428821,0.5320793819896465,0.6335979227587464,0.0033965083648092773,0.0012711961163822888,0.1202289739356759
8646,9.0,300.62067,-6975.9105,0.08645996919663013,0.0,0.0,0.0,0.0,0.013195013757783647,0.9358319256419201,0.5511955407612645,0.6334751269791274,7.204757696529223e-05,-0.007960810571970832,0.12480718239250987
8647,9.0,300.51513,-7009.1647,0.08646994583609757,0.0,0.0,0.0,0.0,0.013196536334026204,0.9387556689379712,0.5328284372585724,0.6590269437608954,0.002437262265989058,-0.016090830060291286,0.091690573099905
8648,9.0,299.98435,-6724.4001,0.08647995551079513,0.0,0.0,0.0,0.0,0.01319806395191192,0.9060713212572772,0.5357147916259335,0.6022636295112924,-3.008364472852457e-05,-0.001052234998922509,0.11972415247085388
8649,9.0,300.13807,-6597.9091,0.08648996518549268,0.0,0.0,0.0,0.0,0.013199591569797664,0.9076978612453042,0.5085786063253005,0.5893231389066654,0.0013117192302816087,0.012474486751135988,0.1031504813801599
8650,9.0,300.59262,-6871.4973,0.08649997486019001,0.0,0.0,0.0,0.0,0.01320111918768338,0.926782609263822,0.5267304043142434,0.6352505843343513,-0.019348680417816084,0.0014946208031825887,0.11962668794373488
8651,9.0,300.10556,-7018.1453,0.08650995149965746,0.0,0.0,0.0,0.0,0.01320264176392591,0.9176718190021571,0.5711536394384754,0.6445154798037254,-0.013295699612683386,0.006376131390625175,0.13513576755186188
8652,9.0,300.0961,-6882.5843,0.08651996117435501,0.0,0.0,0.0,0.0,0.013204169381811653,0.9079091238911541,0.5381328724595795,0.6460917929842954,0.0003037161547319507,0.017759703637496283,0.13119329247276987
8653,9.0,299.49908999999997,-6856.3581,0.08652997084905234,0.0,0.0,0.0,0.0,0.013205696999697342,0.896375905952914,0.5410751886299635,0.6467105746878644,0.014601719209827488,0.007998775330692662,0.12198782412176087
8654,9.0,299.45347999999996,-6837.5893,0.08653994748851979,0.0,0.0,0.0,0.0,0.0132072195759399,0.93451966543741,0.5324935682330234,0.6114431789247434,-0.005222773930397655,-0.014051308583256188,0.11889833337435188
8655,9.0,299.70198,-6880.7529,0.08654995716321734,0.0,0.0,0.0,0.0,0.013208747193825615,0.9255437894265601,0.5346097208018715,0.6314235589716534,-0.004429996311706596,-0.016613651913139783,0.12295262060197887
8656,9.0,299.46461,-7057.3927,0.08655996683791489,0.0,0.0,0.0,0.0,0.013210274811711359,0.9468152122208862,0.5599465157799185,0.6385094499684765,-0.00904580029892598,0.018857383815328883,0.12180830660154388
8657,9.0,299.44392999999997,-6889.1998,0.08656994347738212,0.0,0.0,0.0,0.0,0.01321179738795386,0.902339176633943,0.5486641988314406,0.6431413201506064,-0.004128110704737806,0.019972015667334482,0.11507028462905287
8658,9.0,300.24239,-6582.9682,0.08657995315207967,0.0,0.0,0.0,0.0,0.013213325005839605,0.8831450280021282,0.5143803548078885,0.6035325631415264,-0.007870853924117804,-0.007931566046259622,0.1089012228527139
8659,9.0,299.95998,-6910.2426,0.08658996282677722,0.0,0.0,0.0,0.0,0.013214852623725348,0.91693248080169,0.5466281335504964,0.6369805771575884,0.004781149583587725,-0.005341757457840415,0.1142223766803709
8660,9.0,300.15648,-7140.82,0.08659997250147478,0.0,0.0,0.0,0.0,0.013216380241611064,0.984740748031345,0.5281641937357475,0.6577260319575055,0.0019088524401640681,0.011199543534558888,0.0924254884636855
8661,9.0,300.32644,-6919.0319,0.086609949140942,0.0,0.0,0.0,0.0,0.013217902817853594,0.9333411745111021,0.5439786162615095,0.6258931487333445,0.006679023560243304,0.005330424762096965,0.1185823513306669
8662,9.0,300.53005,-6838.4466,0.08661995881563955,0.0,0.0,0.0,0.0,0.01321943043573931,0.9226188606278921,0.5270530231460835,0.6290451367469214,-0.03206984290579707,-0.00915177217520959,0.11730885807498288
8663,9.0,300.01768,-6890.2861,0.0866299684903371,0.0,0.0,0.0,0.0,0.013220958053625054,0.9238255604369842,0.5206046995096835,0.6500446538769125,-0.02210364968446038,-0.005200990877097835,0.11160986328503589
8664,9.0,300.02244,-6818.7355,0.08663994512980433,0.0,0.0,0.0,0.0,0.013222480629867583,0.9052728903109782,0.5414740950618324,0.6259783428017524,-0.006317034997092813,0.009017768532259461,0.12432726661514588
8665,9.0,298.99626,-6894.6799,0.08664995480450188,0.0,0.0,0.0,0.0,0.0132240082477533,0.9223211880135141,0.5308337024492075,0.6426556491126744,-0.004763570707602825,0.001273640075623489,0.1121147151473609
8666,9.0,299.42623,-6991.0443,0.08665996447919944,0.0,0.0,0.0,0.0,0.013225535865639043,0.956358508287736,0.5456948491483885,0.6230495636527044,0.0009135729791676331,-0.01883955669306948,0.11223373150410688
8667,9.0,299.67439,-6777.9838,0.08666997415389677,0.0,0.0,0.0,0.0,0.01322706348352476,0.9137288170330131,0.5430687784667154,0.6035402537097855,0.008297719776596182,-0.008171550786069272,0.13037747415475487
8668,9.0,299.76291000000003,-6784.8741,0.08667995079336399,0.0,0.0,0.0,0.0,0.013228586059767261,0.9105250418068251,0.5339009523569216,0.6180062936649724,0.02131204804383538,0.015662375229006088,0.12460159394721988
8669,9.0,299.115,-7051.6749,0.08668996046806177,0.0,0.0,0.0,0.0,0.013230113677653033,0.9225524015538332,0.5770427807421884,0.6439379069817234,0.0009349024003976833,0.02245324933996318,0.12821880561171087
8670,9.0,300.12494,-6960.1601,0.0866999701427591,0.0,0.0,0.0,0.0,0.013231641295538749,0.9143162386459871,0.5409236469450075,0.6604749896113064,-0.013585024059487485,0.002034988804037758,0.10563092775746091
8671,9.0,299.68237,-6680.4304,0.08670994678222654,0.0,0.0,0.0,0.0,0.013233163871781278,0.8721208770466292,0.5338987536042045,0.6246644107345775,-0.01208958951514959,-0.004457845288055076,0.13840619436962787
8672,9.0,299.80319,-6743.465999999999,0.08671995645692387,0.0,0.0,0.0,0.0,0.013234691489666994,0.9300266307839822,0.5133513486688335,0.6064673103336634,0.008703008366870053,0.013257804058943386,0.1025583684192229
8673,9.0,299.6911,-6917.6416,0.08672996613162165,0.0,0.0,0.0,0.0,0.013236219107552766,0.9180559826450712,0.5386665816847525,0.6460677384269214,-0.01082582953992619,-0.013012911642274387,0.12496008183259988
8674,9.0,300.26703,-6930.121999999999,0.08673997580631898,0.0,0.0,0.0,0.0,0.013237746725438454,0.9185470441735352,0.5593242484960055,0.6287127501841174,-0.011921127566773687,-0.03276173364383137,0.1108583559508679
8675,9.0,300.13378,-6970.6635,0.08674995244578643,0.0,0.0,0.0,0.0,0.013239269301681011,0.9196995452347781,0.5457410229554455,0.6534670783421794,-0.011805719393633788,-0.010197771531691689,0.13236367739827787
8676,9.0,300.22003,-7001.3375,0.08675996212048398,0.0,0.0,0.0,0.0,0.013240796919566727,0.9381785824760172,0.5347330637365445,0.6553201303900613,0.03865458445616046,0.016967990539360284,0.09687882701794581
8677,9.0,299.34595,-6863.1439,0.08676997179518131,0.0,0.0,0.0,0.0,0.013242324537452443,0.9173719273700601,0.5478887382649085,0.6209637072618464,0.009746821737586411,0.02056437180829548,0.11726012074517289
8678,9.0,299.53812,-6976.4159,0.08677994843464876,0.0,0.0,0.0,0.0,0.013243847113694973,0.9519086684860711,0.5253162618121785,0.6434312819317234,0.006754048853297724,-0.012903865666512387,0.08761600871127682
8679,9.0,299.39297,-7170.786999999999,0.08678995810934609,0.0,0.0,0.0,0.0,0.013245374731580689,0.9464968490394662,0.5691035102461435,0.6641398341629984,-0.01778255344050138,-0.020197421258080283,0.10580559180969891
8680,9.0,300.2717,-6850.7924,0.08679996778404386,0.0,0.0,0.0,0.0,0.01324690234946646,0.9210662980296662,0.5323149626378966,0.6290885747787084,-0.001202758772828049,0.01123401328971079,0.11163146577716788
8681,9.0,299.89116,-6667.5594,0.08680994442351109,0.0,0.0,0.0,0.0,0.013248424925708963,0.8920932726827512,0.5079328620365705,0.6267454440549595,-0.013766685616916088,0.007325512587796804,0.11239049142707788
8682,9.0,299.43016,-6931.0022,0.08681995409820864,0.0,0.0,0.0,0.0,0.013249952543594679,0.9193354743413471,0.5473867133703625,0.6401294038308534,-0.01273866739670859,-0.010293119379351791,0.1152174288085749
8683,9.0,299.61566,-6922.4994,0.0868299637729062,0.0,0.0,0.0,0.0,0.013251480161480422,0.9226270172911971,0.5262128766931674,0.6554270789381164,-0.016280238927984483,0.008461248007585163,0.1105204877050229
8684,9.0,300.38791000000003,-6877.0756,0.08683997344760375,0.0,0.0,0.0,0.0,0.013253007779366166,0.9314160195861042,0.5371625233688135,0.6218807087348475,0.013348817222675688,0.017857708226918585,0.12213179682846988
8685,9.0,300.35787999999997,-7006.3785,0.08684995008707097,0.0,0.0,0.0,0.0,0.013254530355608668,0.9177133014612512,0.5639009370776895,0.6481498660574114,0.0068568153128899835,0.0016084335127150285,0.13180330956297387
8686,9.0,300.54229,-6931.8635,0.08685995976176852,0.0,0.0,0.0,0.0,0.013256057973494412,0.937809810102122,0.5368179271423045,0.6324856679914754,-0.009323965721053772,-0.022227159805399875,0.11576334769745289
8687,9.0,300.26802000000004,-6792.7971,0.08686996943646608,0.0,0.0,0.0,0.0,0.013257585591380155,0.8846956046301582,0.5631696744805195,0.6169754332782345,0.00015786391974995583,-0.004921133833928094,0.14292947453854088
8688,9.0,299.83813,-6917.8518,0.08687994607593352,0.0,0.0,0.0,0.0,0.013259108167622685,0.9211969566300611,0.5456976862486684,0.6359595655618224,0.006515593107888974,0.02321314030545858,0.11005432173151589
8689,9.0,299.74883,-6873.132,0.08688995575063085,0.0,0.0,0.0,0.0,0.013260635785508373,0.9173496865303651,0.5319402931484195,0.6399705160826724,0.012186316396195789,0.02185997620766168,0.11015792655424089
8690,9.0,299.61406,-6667.6484,0.08689996542532841,0.0,0.0,0.0,0.0,0.013262163403394117,0.9107103044551091,0.5251305330688485,0.5909577747629915,-0.004303179753040776,-0.013784418506916186,0.10615946940712388
8691,9.0,299.34956,-6801.819,0.08690997510002596,0.0,0.0,0.0,0.0,0.013263691021279861,0.891392975008637,0.5300281078247014,0.6461620517462294,0.009311668512540132,-0.0007482557740670952,0.12868777828799488
8692,9.0,299.49268,-7063.6956,0.08691995173949318,0.0,0.0,0.0,0.0,0.013265213597522363,0.952385747163155,0.5496479532210294,0.6451533815366814,-0.0023721659119895475,0.0068268823850608324,0.11585177403367988
8693,9.0,299.7277,-7030.9134,0.08692996141419074,0.0,0.0,0.0,0.0,0.013266741215408107,0.9239603632302881,0.5511979016339975,0.6620638670931164,-6.986272907941453e-05,0.002593624690945827,0.12830865049807788
8694,9.0,299.87318999999997,-6867.1115,0.08693997108888829,0.0,0.0,0.0,0.0,0.01326826883329385,0.9380168677600572,0.5214093112815925,0.6280042451841934,-0.025122111599859377,-0.021054703796687477,0.10660542104113589
8695,9.0,299.4872,-6852.9224,0.08694994772835551,0.0,0.0,0.0,0.0,0.01326979140953638,0.9254619796134862,0.5353555134054755,0.6222998193737105,-0.007062450772984624,0.0015991357271474085,0.0996448761744336
8696,9.0,299.90116,-6749.4964,0.08695995740305307,0.0,0.0,0.0,0.0,0.013271319027422068,0.9287354157840492,0.5065709728421626,0.6163719820486784,-0.00866515354578407,0.015119906456718587,0.09526978788564601
8697,9.0,300.37888,-6872.7817,0.08696996707775062,0.0,0.0,0.0,0.0,0.013272846645307812,0.9145285956019452,0.5339128276480934,0.6407126103234114,0.006965181195184864,0.004988337950785625,0.1093326039502879
8698,9.0,299.98181,-7089.164000000001,0.08697994371721784,0.0,0.0,0.0,0.0,0.013274369221550342,0.9603514837518121,0.5588589336525825,0.6357184120380224,-0.0029516502303051973,-0.03407933468961847,0.1082622065446479
8699,9.0,300.32366,-6888.9693,0.0869899533919154,0.0,0.0,0.0,0.0,0.013275896839436085,0.9108931150381511,0.5420163966478535,0.6411651379505724,0.011765062733371289,-0.013870640010925587,0.1138290937865569
8700,9.0,299.90539,-6788.0017,0.08699996306661273,0.0,0.0,0.0,0.0,0.013277424457321801,0.9020249171154282,0.5514227620961896,0.6099353310534305,0.02261577161625288,0.013181546856417386,0.13425622593505787
8701,9.0,299.79489,-6970.0151,0.08700997274131028,0.0,0.0,0.0,0.0,0.013278952075207545,0.9382087064014901,0.5396172939885805,0.6408845284678785,-0.005108056489850925,0.01186386272412209,0.1099852484721989
8702,9.0,300.13544,-6997.0156,0.08701994938077773,0.0,0.0,0.0,0.0,0.013280474651450075,0.9332062805252892,0.5450349801532645,0.6486767662419124,-0.016271033550825986,-0.011187701680640188,0.1157082066270109
8703,9.0,300.08446000000004,-6684.6533,0.08702995905547506,0.0,0.0,0.0,0.0,0.013282002269335763,0.8731321513089342,0.5324829797694786,0.6263525563286844,-0.03158419922561777,-0.01979108466322798,0.14134041467171285
8704,9.0,299.43464,-6730.6075,0.08703996873017261,0.0,0.0,0.0,0.0,0.013283529887221507,0.8998568354789551,0.5172708331031565,0.6288089380161104,0.012261577573873488,0.016092295219935885,0.1162138690894159
8705,9.0,300.05141000000003,-6855.0694,0.08704994536964006,0.0,0.0,0.0,0.0,0.013285052463464037,0.9035540128413382,0.5406380928018255,0.6395778208739165,0.009033543113791292,0.0020762146068814278,0.12985340093803288
8706,9.0,300.26673,-6895.9601,0.08705995504433761,0.0,0.0,0.0,0.0,0.01328658008134978,0.9313574233328211,0.5373068000505525,0.6275354650254285,0.012127028093094488,-0.01983860305316768,0.10783858694283989
8707,9.0,300.63866,-7016.8785,0.08706996471903494,0.0,0.0,0.0,0.0,0.013288107699235496,0.9472599884847822,0.5413374886833505,0.6443583855082213,0.0018363761803862184,-0.0043484369740573155,0.1128710962145099
8708,9.0,300.11199,-7060.0051,0.0870799743937325,0.0,0.0,0.0,0.0,0.01328963531712124,0.9425340785608711,0.5609169155331895,0.6426142679785903,0.024663153887563776,0.02792834828181337,0.1065307647737679
8709,9.0,299.56464,-6889.535,0.08708995103319994,0.0,0.0,0.0,0.0,0.01329115789336377,0.9144303002097441,0.5340658486781955,0.6457504796881104,0.01115511961042459,0.017585650575068584,0.1140244686708389
8710,9.0,299.55228999999997,-6907.6767,0.0870999607078975,0.0,0.0,0.0,0.0,0.013292685511249486,0.9241178425608301,0.5483875916866415,0.6272557978653274,-0.007886062200168742,-0.016956132473439987,0.11845278704037988
8711,9.0,299.90094,-7023.5848,0.08710997038259483,0.0,0.0,0.0,0.0,0.013294213129135202,0.9316877833954251,0.5441641119573165,0.6591424948022994,-0.016914620630093084,-0.021366347103444278,0.11652476461759889
8712,9.0,299.94106,-6810.9875,0.0871199470220625,0.0,0.0,0.0,0.0,0.01329573570537776,0.9455534726663621,0.5008282157803966,0.6239884411953645,0.005554504819061944,-0.0017612423682460882,0.1150306462851409
8713,9.0,299.82025,-6627.7394,0.08712995669675982,0.0,0.0,0.0,0.0,0.013297263323263475,0.8926774620279061,0.5229994046635225,0.5989904263882525,0.005507512103274125,-0.01090827263431269,0.1153649478906339
8714,9.0,299.24445,-6828.0592,0.08713996637145716,0.0,0.0,0.0,0.0,0.013298790941149191,0.9249077520737881,0.5133643588001175,0.6372873791553674,-0.01036339030028699,-0.017163274231133282,0.10981971380336189
8715,9.0,299.41899,-6984.6876,0.08714997604615471,0.0,0.0,0.0,0.0,0.013300318559034935,0.9299266939266191,0.5406768901481545,0.6525670184108504,-0.017976424661634984,-0.0034042536485736764,0.1089406281491029
8716,9.0,298.88488,-6998.6405,0.08715995268562216,0.0,0.0,0.0,0.0,0.013301841135277465,0.9254765602824251,0.5647072409772654,0.6372281749520244,0.004690134292030215,0.03401019354254477,0.1252331729995519
8717,9.0,298.72576000000004,-7085.396,0.08716996236031971,0.0,0.0,0.0,0.0,0.01330336875316318,0.9304344740817331,0.5625905007233594,0.6607584868567854,0.005888209012295985,0.02484708309871618,0.1142989682554299
8718,9.0,298.8122,-6999.7679,0.08717997203501704,0.0,0.0,0.0,0.0,0.013304896371048897,0.9425487200248162,0.5593854791995484,0.6258204683036713,-0.0008482131193471173,-0.0026962121092454173,0.12162050069550888
8719,9.0,299.97527,-6777.7703,0.08718994867448471,0.0,0.0,0.0,0.0,0.013306418947291454,0.9028069232776063,0.5353353193309824,0.6221306876670184,-0.01134957649011599,-0.0048530168800554755,0.1263027902026149
8720,9.0,299.68153,-6776.4842,0.08719995834918204,0.0,0.0,0.0,0.0,0.01330794656517717,0.9114045631586272,0.5331893164141884,0.6152881084167084,-0.01156975168384559,0.01056924725685349,0.1149312768478339
8721,9.0,299.93643,-6814.1048,0.08720996802387959,0.0,0.0,0.0,0.0,0.013309474183062914,0.9091515205012691,0.5444034720284395,0.6177627286059344,-0.004180556529913807,0.0042740111197620565,0.12267966115753988
8722,9.0,299.85378,-6736.8205,0.08721994466334704,0.0,0.0,0.0,0.0,0.013310996759305443,0.8957517033613102,0.5284618055551195,0.6236117046756834,-0.015788281686432086,-0.03153916025867277,0.12112096839620888
8723,9.0,300.64311000000004,-6816.0831,0.08722995433804459,0.0,0.0,0.0,0.0,0.013312524377191187,0.8953173939709472,0.5453709738864245,0.6312307070801204,0.02052835583349098,-0.010669974449294491,0.13285536714180388
8724,9.0,300.04695,-7065.2662,0.08723996401274192,0.0,0.0,0.0,0.0,0.013314051995076875,0.9605355001024731,0.5390052503981765,0.6481237748673364,0.011990160296086688,0.009713502122623022,0.11437013894245389
8725,9.0,300.32547999999997,-7058.4407,0.08724997368743925,0.0,0.0,0.0,0.0,0.013315579612962591,0.9422837753886681,0.5419910552628524,0.6613149030166994,0.02634238288079077,0.00993401138491059,0.10630609682909489
8726,9.0,300.08402,-6930.3808,0.08725995032690692,0.0,0.0,0.0,0.0,0.013317102189205149,0.9330565018955072,0.5474638824979784,0.6261423170654354,-0.018385143407472382,-0.008499394746024952,0.11540054336664689
8727,9.0,299.42922999999996,-7055.5371,0.08726996000160425,0.0,0.0,0.0,0.0,0.013318629807090865,0.949105127049383,0.5336906421661656,0.6619113222905614,-0.002992040000491357,0.018084063233008082,0.09246912407924202
8728,9.0,299.51698,-6962.5713,0.0872799696763018,0.0,0.0,0.0,0.0,0.013320157424976609,0.931790739738086,0.5336666180062944,0.6509904721827574,-0.007519937752760073,0.02822982463706677,0.11014436926790289
8729,9.0,299.37705,-6794.5871,0.08728994631576903,0.0,0.0,0.0,0.0,0.013321680001219138,0.9192305117634882,0.5330114606241355,0.6131428350399865,-0.00012102472990171089,0.010463031288620792,0.11957151647578988
8730,9.0,298.97451,-6879.5334,0.08729995599046658,0.0,0.0,0.0,0.0,0.013323207619104882,0.9315858605678662,0.5298321452553615,0.6297883658277724,-0.013933618570891088,-0.027756523356355575,0.11540872029495389
8731,9.0,299.74095,-6845.8945,0.08730996566516414,0.0,0.0,0.0,0.0,0.01332473523699057,0.9161412337986001,0.5578949072424405,0.6069448348407914,0.0027779183681591975,-0.02347202671925868,0.1253756156986099
8732,9.0,300.36144,-6745.8640000000005,0.08731997533986169,0.0,0.0,0.0,0.0,0.013326262854876314,0.9076452431676112,0.5269272484111706,0.6160017303296375,0.008357198976016321,0.01372382007143559,0.11184924362116089
8733,9.0,299.72345,-6964.326,0.08732995197932891,0.0,0.0,0.0,0.0,0.013327785431118844,0.9278467143863411,0.5417127559903865,0.6474217242705494,0.0016336038610991485,0.007639285847588812,0.12447270853449989
8734,9.0,300.42613,-6985.7435,0.08733996165402647,0.0,0.0,0.0,0.0,0.013329313049004587,0.9199992240843541,0.5604637292934636,0.6430286366069854,-0.023709742285469376,-0.007375414141971703,0.12241949906186389
8735,9.0,300.43115,-6790.4747,0.0873499713287238,0.0,0.0,0.0,0.0,0.013330840666890303,0.9018877838468942,0.5380826051221185,0.6241643515452254,-0.017678970909278585,-0.0004628429387440416,0.13694761071817688
8736,9.0,299.75846,-6889.8357,0.08735994796819146,0.0,0.0,0.0,0.0,0.013332363243132861,0.926541779980054,0.5473859129027835,0.6204103207197315,0.0062208386537989735,0.016781626488217585,0.12928161377410188
8737,9.0,300.06132,-7000.1546,0.0873699576428888,0.0,0.0,0.0,0.0,0.013333890861018577,0.9328697599020771,0.5504226741149885,0.6445797705225703,0.00888469738337636,0.007727484810493372,0.13223191435527387
8738,9.0,300.25542,-6778.8807,0.08737996731758613,0.0,0.0,0.0,0.0,0.013335418478904265,0.9134395442619642,0.5271306077062405,0.6200403020482134,-0.01800183089464238,-0.026458224724973473,0.11548770314024888
8739,9.0,299.74119,-6637.8037,0.0873899439570538,0.0,0.0,0.0,0.0,0.01333694105514685,0.8767170808252391,0.5378711094287455,0.6031383987201254,0.0016488699937307985,-0.002261084620751678,0.12193537829658488
8740,9.0,299.82923999999997,-6810.1677,0.08739995363175113,0.0,0.0,0.0,0.0,0.013338468673032539,0.9098532367255232,0.5254311238435144,0.6348365804759923,0.008183039117028081,0.029251966006694267,0.1110916466538919
8741,9.0,299.62951,-6956.7752,0.08740996330644868,0.0,0.0,0.0,0.0,0.013339996290918282,0.9369180182916091,0.5379412466006674,0.6398266852309773,0.009728723672250271,0.02679408572237037,0.11782294064571888
8742,9.0,300.09757,-6979.5232,0.08741997298114601,0.0,0.0,0.0,0.0,0.013341523908803998,0.9386954210870252,0.5494164053081775,0.6334889477104915,-0.011373077812935388,-0.017363715365915286,0.13207449581973787
8743,9.0,299.93681000000004,-7055.8931,0.08742994962061368,0.0,0.0,0.0,0.0,0.013343046485046556,0.9501901051239622,0.5292431936347365,0.6653820078580913,-0.011850189927272688,-0.023455580656885577,0.1112998898144439
8744,9.0,300.03021,-7044.1785,0.08743995929531101,0.0,0.0,0.0,0.0,0.013344574102932272,0.9515816825463002,0.5536746597809344,0.6359980184031174,0.017297803446910287,0.005113173200205905,0.11175003630386988
8745,9.0,299.90962,-6918.2669,0.08744996897000856,0.0,0.0,0.0,0.0,0.013346101720817988,0.9225309105192121,0.5337726546292595,0.6466768233270335,0.006690747471850364,0.007979619128277092,0.09818403702826001
8746,9.0,300.18005,-6993.1643,0.08745994560947601,0.0,0.0,0.0,0.0,0.013347624297060545,0.9388567001054421,0.5349496560779204,0.6519409615715633,0.0036183497470033167,-0.004324269844597206,0.10589652087367289
8747,9.0,300.3486,-6938.6591,0.08746995528417356,0.0,0.0,0.0,0.0,0.013349151914946261,0.9188155757150371,0.5456221281887115,0.6447414041785223,-0.0073122876474916035,-0.006569545838613694,0.11398287475423388
8748,9.0,300.82462000000004,-6716.491,0.08747996495887089,0.0,0.0,0.0,0.0,0.013350679532831977,0.9061544280304792,0.5246593008448415,0.6108318344769084,0.029801916617720175,0.027297488637052374,0.13102848734400488
8749,9.0,299.91819,-6833.8813,0.08748997463356822,0.0,0.0,0.0,0.0,0.013352207150717693,0.9043506199374572,0.5511237114616755,0.6218549215198024,0.00952769779083556,0.012780703090357186,0.12031577907174287
8750,9.0,300.28117000000003,-6947.5564,0.08749995127303589,0.0,0.0,0.0,0.0,0.01335372972696025,0.948473710117067,0.5392429690041375,0.6241669657304834,-0.0005732557483609374,-0.020795718084377583,0.12118446877997588
8751,9.0,300.22628,-6866.5098,0.08750996094773322,0.0,0.0,0.0,0.0,0.013355257344845967,0.8980825940238512,0.5402790881588945,0.6488858301350454,-0.007724576985356393,-0.02120463441398448,0.12717100368330087
8752,9.0,299.65286000000003,-6835.3283,0.08751997062243078,0.0,0.0,0.0,0.0,0.013356784962731683,0.907832410726083,0.5517158953501194,0.6182208088436435,-0.0028920238056455274,0.005372078359132854,0.1227731942742709
8753,9.0,299.78074,-6976.4464,0.08752994726189822,0.0,0.0,0.0,0.0,0.01335830753897424,0.915515622789357,0.5502900396768985,0.6548598210021324,-0.0026367047414724972,0.019932891041223182,0.12154160904272289
8754,9.0,299.96915,-6849.1741,0.08753995693659578,0.0,0.0,0.0,0.0,0.013359835156859956,0.9325914504971101,0.5317041450801135,0.6176822968129964,-0.018322373577027484,-0.01040477346087119,0.13270807097476686
8755,9.0,299.64627,-6825.9958,0.0875499666112931,0.0,0.0,0.0,0.0,0.013361362774745672,0.9134884639767921,0.5442648492822585,0.6171789749583224,0.004293219099257736,-0.0071088669494655445,0.13784794422703286
8756,9.0,299.92438,-6912.2605,0.08755994325076055,0.0,0.0,0.0,0.0,0.013362885350988202,0.9392282487846111,0.5223120157956825,0.6396143384075204,0.016156173545990183,0.018925179366269782,0.11167457956892289
8757,9.0,299.82206,-6878.7224,0.0875699529254581,0.0,0.0,0.0,0.0,0.013364412968873945,0.9219405302159461,0.5360931493457746,0.6329261582074484,0.024998517379161575,0.008581383296416592,0.11088443700844189
8758,9.0,300.69549,-6871.3849,0.08757996260015566,0.0,0.0,0.0,0.0,0.01336594058675969,0.9243673553979551,0.5290056776787955,0.6353564081747953,0.0007273999256687834,-0.012917985306655888,0.11936062873247688
8759,9.0,300.32583,-7100.7603,0.08758997227485299,0.0,0.0,0.0,0.0,0.013367468204645377,0.9496821831138341,0.5530544088647205,0.6557172433692534,-0.009397255823311941,0.003465796737122507,0.11200133246117089
8760,9.0,300.70832,-7047.656,0.08759994891432044,0.0,0.0,0.0,0.0,0.013368990780887963,0.9389439713365552,0.5637084195586896,0.6396590632669344,-0.007904079306821894,0.012706902006073589,0.1283878663908959
8761,9.0,300.29064,-6814.0508,0.08760995858901777,0.0,0.0,0.0,0.0,0.013370518398773651,0.9318928348181622,0.5260142188785615,0.6133942325222974,-0.008371769107154281,0.00955994812296842,0.11080013460012188
8762,9.0,300.5962,-6870.4657,0.08761996826371532,0.0,0.0,0.0,0.0,0.013372046016659367,0.9274530363249882,0.5435769740543704,0.6174200068921104,-0.006002410201916765,-0.024967249494325678,0.10765071010929789
8763,9.0,300.36195,-6945.2872,0.08762994490318254,0.0,0.0,0.0,0.0,0.013373568592901897,0.9253667543690881,0.5388063899335505,0.6470207406759754,0.013950742497581086,-0.012170028400838289,0.099817456984466
8764,9.0,300.30062000000004,-6869.3171,0.0876399545778801,0.0,0.0,0.0,0.0,0.01337509621078764,0.9247378604295211,0.5216520252105464,0.6417109859119434,0.029066801643669975,0.001894632285610648,0.1051760392575669
8765,9.0,299.80317,-6920.5779,0.08764996425257765,0.0,0.0,0.0,0.0,0.013376623828673384,0.9074689781802151,0.5564504584298845,0.6397634381597355,0.02152059821916768,0.012585315033823886,0.13368121663580887
8766,9.0,299.95664,-6997.0677,0.08765997392727498,0.0,0.0,0.0,0.0,0.013378151446559072,0.9532018897212021,0.5312825621110064,0.6424494223198214,-0.01022494689937369,-0.004194812148220726,0.1179591619891629
8767,9.0,299.65782,-6939.5324,0.08766995056674265,0.0,0.0,0.0,0.0,0.013379674022801658,0.9304672020599631,0.5473939581085775,0.6315834194399303,-0.01795582832685228,0.023476100997910775,0.14409654613622186
8768,9.0,299.71578999999997,-6874.0808,0.08767996024143998,0.0,0.0,0.0,0.0,0.013381201640687346,0.9171316553738471,0.5473342675451864,0.6250830046158894,-0.0016505096350426184,0.01791990861080728,0.11248960755185991
8769,9.0,299.88046,-6953.555,0.08768996991613753,0.0,0.0,0.0,0.0,0.01338272925857309,0.920967941842459,0.5435359982203265,0.6492031294038604,-0.004734478372056636,0.013269608422608386,0.12754692960290187
8770,9.0,299.79795,-6798.7094,0.08769994655560476,0.0,0.0,0.0,0.0,0.013384251834815591,0.9061162183692081,0.5484847319737285,0.6120369536158444,-0.007164580506214043,-0.030757350667014172,0.10909920178975291
8771,9.0,299.90648999999996,-6704.6990000000005,0.08770995623030253,0.0,0.0,0.0,0.0,0.013385779452701363,0.8929851556857732,0.5447211968622965,0.6003547271178984,-0.004165395167342496,-0.016814341294196285,0.14595099646924187
8772,9.0,300.15686,-6939.8574,0.08771996590499986,0.0,0.0,0.0,0.0,0.013387307070587079,0.9288143783643422,0.5350839015836694,0.6456450712802074,0.006330813881227683,-0.0017789339176421083,0.10654742260541189
8773,9.0,300.59252000000004,-6908.4245,0.0877299755796972,0.0,0.0,0.0,0.0,0.013388834688472767,0.934128824476337,0.5312372596990355,0.6346224807298624,-0.004703588226858016,0.006868942295386822,0.12830125377234788
8774,9.0,300.50266,-6876.1664,0.08773995221916486,0.0,0.0,0.0,0.0,0.013390357264715325,0.915212144251906,0.5324205939608215,0.6425501596447634,-0.005183838376755015,-0.009897155121798161,0.1041522918865309
8775,9.0,300.20887,-6990.1852,0.0877499618938622,0.0,0.0,0.0,0.0,0.01339188488260104,0.9256619749182241,0.5335034036801864,0.6656763570121415,-0.008089690310490272,0.009058043399884282,0.1107535656255259
8776,9.0,300.32002,-7094.0126,0.08775997156855975,0.0,0.0,0.0,0.0,0.013393412500486784,0.9450337564250701,0.5509765368846505,0.6603923894631544,0.017436031025552284,0.00975119451971797,0.1014539258102229
8777,9.0,299.87095,-6972.0472,0.08776994820802697,0.0,0.0,0.0,0.0,0.013394935076729286,0.9317797257094992,0.5367412443747365,0.6508072765646774,-0.012186993247262589,0.011598409436423889,0.11450675545343689
8778,9.0,299.67582000000004,-6994.3365,0.08777995788272475,0.0,0.0,0.0,0.0,0.013396462694615058,0.9394342526624422,0.5635095894915664,0.6231598153960853,-0.01019928532734109,-0.00974460130131727,0.1272131447549599
8779,9.0,299.38176,-7001.9342,0.08778996755742208,0.0,0.0,0.0,0.0,0.013397990312500774,0.9382526003958221,0.5514840839922415,0.6386764639824594,-0.012694239419573887,0.003130074251014277,0.11641141232891189
8780,9.0,299.56222,-6901.4518,0.08779994419688952,0.0,0.0,0.0,0.0,0.013399512888743303,0.9113236551381422,0.5531609926427395,0.6333843701676704,0.012133469323980187,0.017378653712139584,0.11257364651515389
8781,9.0,299.73157000000003,-6896.3256,0.08780995387158708,0.0,0.0,0.0,0.0,0.01340104050662902,0.9145779408818151,0.5515838992595925,0.6301489410083584,-0.0072997438139036225,0.01162746843604179,0.1172156491982839
8782,9.0,300.39195,-6944.2295,0.08781996354628463,0.0,0.0,0.0,0.0,0.013402568124514763,0.931145106906867,0.5332099867162285,0.6465172769662875,-0.004539402801854176,-0.00872089354836018,0.1109764806475259
8783,9.0,299.76673999999997,-6816.9251,0.08782997322098196,0.0,0.0,0.0,0.0,0.01340409574240048,0.9117876122264311,0.5458386901325845,0.6145486992887343,-0.02138908848868868,-0.006097492071425614,0.1322994981369439
8784,9.0,300.09639,-6719.8377,0.0878399498604494,0.0,0.0,0.0,0.0,0.013405618318643009,0.9020212086200621,0.5224746525692334,0.6181669951308324,0.005115743511734576,0.0016158493888719185,0.13187621290766888
8785,9.0,300.03604,-7011.7566,0.08784995953514696,0.0,0.0,0.0,0.0,0.013407145936528753,0.9314591029803562,0.5408997038451445,0.6590400957471934,-0.013446770136342885,-0.0018283171943908583,0.1171719781189739
8786,9.0,299.69115,-7011.3088,0.08785996920984429,0.0,0.0,0.0,0.0,0.013408673554414469,0.9187971548282191,0.5526765881674325,0.6597890699561114,0.007600230325134332,-0.0008824899010174722,0.1279808438257259
8787,9.0,299.8391,-6819.4366,0.08786994584931174,0.0,0.0,0.0,0.0,0.013410196130656998,0.8967419526840401,0.5391112870211415,0.6370851952304134,-0.0018206467898088485,0.01184153981116899,0.1153732565414539
8788,9.0,299.56705,-6889.4038,0.08787995552400929,0.0,0.0,0.0,0.0,0.013411723748542714,0.9161505860970232,0.5543044960430945,0.6237516345144934,0.018791447578321484,0.023415018228882378,0.12414556047471287
8789,9.0,299.42436000000004,-7012.4219,0.08788996519870684,0.0,0.0,0.0,0.0,0.013413251366428458,0.9434142787902402,0.5621777634276255,0.6260091152072894,-0.0018602996231972782,0.005488130250061285,0.11301577819628889
8790,9.0,299.95579,-6881.5668,0.08789997487340417,0.0,0.0,0.0,0.0,0.013414778984314174,0.9348670987641992,0.5477702082682104,0.6091871674445924,-0.008905347724389391,-0.02156582869038158,0.13416644184369686
8791,9.0,300.17826,-6921.04,0.08790995151287162,0.0,0.0,0.0,0.0,0.013416301560556704,0.9274091625956581,0.5479634755922845,0.6284507135757564,-0.012783615171144588,0.0012622294609473488,0.1121380300321619
8792,9.0,300.04603,-6963.4055,0.08791996118756917,0.0,0.0,0.0,0.0,0.013417829178442447,0.9189376419545842,0.5382462348807675,0.6595175391943134,0.004561096081195135,0.005984179198167505,0.11256834721713088
8793,9.0,300.48445,-6838.1639,0.0879299708622665,0.0,0.0,0.0,0.0,0.013419356796328191,0.9037239754131121,0.5250737606657455,0.6498333507010583,-0.0068904137742808935,0.013335920575402886,0.08423019499862301
8794,9.0,299.75591000000003,-6983.6825,0.08793994750173373,0.0,0.0,0.0,0.0,0.013420879372570693,0.9253221814971893,0.5418845829423444,0.6556583431409404,0.0015001697660302286,-0.013847346404376687,0.10660219890581789
8795,9.0,300.03373,-7216.9067,0.08794995717643128,0.0,0.0,0.0,0.0,0.01342240699045641,0.9736169540610121,0.5447598726186135,0.6753826039600734,0.004819912884713366,-0.0025456318973093076,0.10231731622043291
8796,9.0,300.47829,-7065.7404,0.08795996685112883,0.0,0.0,0.0,0.0,0.013423934608342153,0.9426736030996411,0.5633505598883715,0.6417844870741973,0.005949086902154165,-0.007598401510028843,0.13172909912564987
8797,9.0,299.64897,-6940.9223,0.08796994349059628,0.0,0.0,0.0,0.0,0.013425457184584683,0.9322736750007481,0.5497418105777925,0.6278515889241274,0.02374212373216518,-0.012033792871892888,0.11903577061791588
8798,9.0,299.48876,-7024.6327,0.08797995316529361,0.0,0.0,0.0,0.0,0.013426984802470399,0.9250018728755772,0.5557338068991564,0.6545772660792464,0.017246531978600182,-0.01947428695321248,0.12371618561233688
8799,9.0,300.05617,-6892.7438,0.08798996283999116,0.0,0.0,0.0,0.0,0.013428512420356142,0.9161069048852122,0.5507431549891174,0.6283719333804815,0.017576784636693585,0.011996494122461789,0.1180287317410289
8800,9.0,299.76711,-6701.418000000001,0.08799997251468872,0.0,0.0,0.0,0.0,0.013430040038241886,0.8854944611414991,0.5322312985771395,0.6193379778738994,-0.0057699862330283045,0.02088949944738308,0.12113812272040188
8801,9.0,300.34878,-6792.729,0.08800994915415594,0.0,0.0,0.0,0.0,0.013431562614484388,0.9125505692867292,0.5398319003597605,0.6124375420428795,-0.017425206474733983,0.02015996646813378,0.11196947587802689
8802,9.0,300.39817999999997,-6876.4461,0.0880199588288535,0.0,0.0,0.0,0.0,0.013433090232370104,0.9246848066542851,0.5357662849960155,0.6298168280230815,-0.012299335325599887,-0.0012881979464352388,0.11564462518323589
8803,9.0,299.60668,-6972.1414,0.08802996850355105,0.0,0.0,0.0,0.0,0.013434617850255848,0.9228296065161911,0.5481857117367175,0.6483415831088324,0.008365208211431772,0.01111213652793249,0.12706468335030788
8804,9.0,299.88653999999997,-7102.5082,0.0880399451430185,0.0,0.0,0.0,0.0,0.013436140426498377,0.926258829889629,0.5570937303883704,0.6756325828922444,0.0074419089837592335,0.01008835815144343,0.11405692307154189
8805,9.0,300.22902999999997,-7049.2409,0.08804995481771583,0.0,0.0,0.0,0.0,0.013437668044384093,0.932892628956834,0.5430107698984905,0.6668898253319013,-0.005667785065666835,0.0017859303082575983,0.1146178279293989
8806,9.0,299.59937,-6914.4516,0.08805996449241338,0.0,0.0,0.0,0.0,0.013439195662269837,0.9120312583454772,0.5508324020579255,0.6389569620076424,-0.023435208250374977,-0.014643677896468485,0.1123456652426539
8807,9.0,299.81683,-6895.0904,0.08806997416711093,0.0,0.0,0.0,0.0,0.013440723280155581,0.9470890126629081,0.5308236814057185,0.6180226171240835,0.004565045223459885,-0.0038448796400600764,0.1306551857421629
8808,9.0,300.04513,-6952.646,0.08807995080657838,0.0,0.0,0.0,0.0,0.01344224585639811,0.9383425466071991,0.5493109259727674,0.6257773038494114,0.01083367310895029,0.0027659707309300573,0.11389033462260088
8809,9.0,300.18831,-6702.985,0.08808996048127571,0.0,0.0,0.0,0.0,0.013443773474283799,0.9090614324348781,0.5310831544913265,0.5973954694058424,0.013877926292394687,-0.009307242534778321,0.13834493326858185
8810,9.0,300.34573,-6767.4816,0.08809997015597326,0.0,0.0,0.0,0.0,0.013445301092169543,0.8875974414590472,0.5371007961727216,0.6324471847526774,0.011130033564448789,-0.018299699066289685,0.11488439376570689
8811,9.0,300.58932999999996,-7017.9128,0.08810994679544071,0.0,0.0,0.0,0.0,0.013446823668412072,0.9401925690372822,0.5418826071046495,0.6511950777754504,0.010253143623156491,-0.0009754723163191221,0.10718546619338189
8812,9.0,300.40252999999996,-7107.9403,0.08811995647013804,0.0,0.0,0.0,0.0,0.013448351286297788,0.9207494040608911,0.5667958027458905,0.6730911489914243,0.011661122524863189,0.015385552261935786,0.10607687939147291
8813,9.0,300.11955,-6979.5247,0.08812996614483559,0.0,0.0,0.0,0.0,0.013449878904183532,0.9417797442589241,0.5370701453571964,0.6427513303196174,-0.022984279531871776,0.013967979908282286,0.09674739834747481
8814,9.0,299.69712999999996,-7083.7436,0.08813994278430304,0.0,0.0,0.0,0.0,0.013451401480426062,0.9270322031609551,0.5648376158676324,0.6614113644262193,-0.027695884390870975,0.005437595819873926,0.12257019974923689
8815,9.0,299.49802,-7011.1546,0.08814995245900059,0.0,0.0,0.0,0.0,0.013452929098311806,0.9330096188133802,0.5462541834685904,0.6519521275876654,-0.015529983970940086,0.003551247157805806,0.12081104558812189
8816,9.0,300.03387999999995,-6746.670999999999,0.08815996213369792,0.0,0.0,0.0,0.0,0.013454456716197494,0.8956405396928391,0.5331496071427694,0.6220293930545214,0.02003222096177628,0.011406406648474688,0.13721207912677785
8817,9.0,299.76201000000003,-6749.9243,0.08816997180839548,0.0,0.0,0.0,0.0,0.013455984334083237,0.9098371665789371,0.5352934417043496,0.6066778333069404,0.01786328718196918,-0.017623914951844986,0.12334287387799389
8818,9.0,299.77476,-6798.0373,0.08817994844786292,0.0,0.0,0.0,0.0,0.013457506910325767,0.9182066934649451,0.5224535567021514,0.6257733420415205,0.0075350815861046526,-0.012031759278942188,0.1190582343726329
8819,9.0,299.92193,-6870.1539,0.08818995812256047,0.0,0.0,0.0,0.0,0.013459034528211511,0.9377602419072301,0.5528282514424004,0.5977667546399854,0.013816458488328288,-0.012043540337854887,0.12274608983409588
8820,9.0,300.71505,-7126.5208,0.0881999677972578,0.0,0.0,0.0,0.0,0.013460562146097227,0.940039841849709,0.5684078937874915,0.6578366180734193,0.025879209034829077,0.009601380730157502,0.11664746920470889
8821,9.0,300.56281,-7195.7623,0.08820994443672525,0.0,0.0,0.0,0.0,0.013462084722339784,0.9461951639546922,0.5603630831610305,0.6807738341646464,0.00022556143874368078,0.004790052606916386,0.11736349252037488
8822,9.0,300.38581,-6975.8796,0.0882199541114228,0.0,0.0,0.0,0.0,0.0134636123402255,0.9045555396376812,0.5677263513727284,0.6482113095434754,-0.007770976240560643,-0.008861279045740153,0.11868836768862989
8823,9.0,299.28075,-7040.0652,0.08822996378612014,0.0,0.0,0.0,0.0,0.013465139958111189,0.9263130894324841,0.5438252608588745,0.6698656699480944,-0.013742415237270787,-0.0004746615284404455,0.1159700507178529
8824,9.0,300.51585,-6963.3196,0.08823997346081769,0.0,0.0,0.0,0.0,0.013466667575996932,0.9379478856932492,0.5348564370687204,0.6438709818126185,-0.013663666452748885,0.010587544527159291,0.1090020209726619
8825,9.0,300.72429,-6732.9195,0.08824995010028513,0.0,0.0,0.0,0.0,0.013468190152239462,0.9169610544545101,0.5211492505109265,0.6085290817696444,-0.005037190183156965,-0.001827262198386738,0.1061052706592749
8826,9.0,300.43915,-6709.8029,0.08825995977498247,0.0,0.0,0.0,0.0,0.013469717770125206,0.8934939490909871,0.5194946840251334,0.6266238945729634,-0.02012715641664568,0.006170198946926224,0.13062384591656986
8827,9.0,300.00575,-6951.5501,0.08826996944968002,0.0,0.0,0.0,0.0,0.013471245388010922,0.919516866374249,0.5548921101735874,0.6386886635136634,0.008294017056755752,0.017574211994689684,0.12411739212193287
8828,9.0,300.4485,-6959.1802,0.08827994608914747,0.0,0.0,0.0,0.0,0.01347276796425348,0.9265095282293712,0.5421162625777095,0.6467912192633234,0.023662341432541277,0.018692694197075282,0.13844178984564087
8829,9.0,299.85873,-6996.1037,0.0882899557638448,0.0,0.0,0.0,0.0,0.013474295582139195,0.944654456382636,0.5521217121476705,0.6298646534278014,0.017212793790020484,-0.0036053210732424866,0.1145437593470889
8830,9.0,300.82239,-7078.7797,0.08829996543854235,0.0,0.0,0.0,0.0,0.013475823200024911,0.9596095820285921,0.5580442197771764,0.6341184698651204,0.0018172357846722082,-0.028575128112145576,0.12840948914802988
8831,9.0,299.82687000000004,-7071.3997,0.0883099751132399,0.0,0.0,0.0,0.0,0.013477350817910655,0.9586632976277012,0.5473101015303015,0.6435555367914864,0.01705535194973218,-0.018180174057993482,0.09391480601716973
8832,9.0,299.87374,-6962.4894,0.08831995175270735,0.0,0.0,0.0,0.0,0.013478873394153185,0.9111230822808472,0.5527887752185044,0.6525110768728294,-0.0025125556650199376,0.011253149531099389,0.12181820605502088
8833,9.0,300.26669,-6949.7301,0.08832996142740468,0.0,0.0,0.0,0.0,0.0134804010120389,0.9055248045508402,0.5496363312423824,0.6573832798461784,0.01010303224204165,0.002932987075388287,0.1048106916690099
8834,9.0,300.9744,-6804.9821,0.08833997110210201,0.0,0.0,0.0,0.0,0.013481928629924617,0.8923739733579542,0.5267137971451046,0.6494568674939024,-0.026073920240295576,0.008423292469439242,0.12049454678688588
8835,9.0,300.77391,-6632.9434,0.08834994774156968,0.0,0.0,0.0,0.0,0.013483451206167174,0.8829045634883962,0.5340173139984056,0.5993273016489994,0.00976965857099023,0.013324126344238886,0.12898189439452187
8836,9.0,300.28217,-6819.2561,0.08835995741626701,0.0,0.0,0.0,0.0,0.01348497882405289,0.9325217388902302,0.5270851735717564,0.6132766752456954,-0.001700774338053358,0.017361747634221086,0.11666832189176689
8837,9.0,299.37344,-7050.9046,0.08836996709096456,0.0,0.0,0.0,0.0,0.013486506441938606,0.9629900984697232,0.5503977886925325,0.6299110400173794,0.0007857734057847972,-0.005632499137559385,0.12390377873585089
8838,9.0,299.6737,-6931.1771,0.08837994373043201,0.0,0.0,0.0,0.0,0.013488029018181164,0.9198276200474182,0.5582855252884914,0.6287916215719014,-0.01708773339642798,-0.013260715126480686,0.12113230666482788
8839,9.0,299.52041,-6931.5797,0.08838995340512956,0.0,0.0,0.0,0.0,0.01348955663606688,0.9094515945183841,0.5535916138027385,0.6439839389337664,0.004883216495310945,0.006565627195176954,0.14386728816859587
8840,9.0,300.48931,-7025.326,0.0883999630798269,0.0,0.0,0.0,0.0,0.013491084253952595,0.9185596186072761,0.5583476679171244,0.6586163950853774,0.004653516345341306,0.03170901137293577,0.10965288217439688
8841,9.0,299.86531,-6990.9947,0.08840997275452445,0.0,0.0,0.0,0.0,0.01349261187183834,0.9328966718247332,0.5549051810998774,0.6372859606052274,0.008724575091273522,-0.0005092153428206415,0.12439981532230589
8842,9.0,299.83227,-6890.9209,0.08841994939399189,0.0,0.0,0.0,0.0,0.013494134448080869,0.9320975721333682,0.5381300961543054,0.6244402291499523,-0.014601254128031586,-0.014808289494464385,0.1010969334819905
8843,9.0,300.67669,-6819.3211,0.08842995906868945,0.0,0.0,0.0,0.0,0.013495662065966613,0.9323620709394721,0.5344347831721065,0.6061064919730534,0.00994120161027021,-0.016749748626821485,0.1120168655852039
8844,9.0,300.95564,-6790.3556,0.08843996874338678,0.0,0.0,0.0,0.0,0.013497189683852301,0.899360717832492,0.5236596282961815,0.6410781909594914,0.004834496086777615,0.0031951316962099473,0.11318205253769889
8845,9.0,299.70979,-6907.7529,0.08844994538285444,0.0,0.0,0.0,0.0,0.013498712260094886,0.9206352918346291,0.5435444183286574,0.6356047051118003,0.003873413674801166,0.0016423159881089687,0.12788591242385688
8846,9.0,300.06994,-7198.698,0.08845995505755178,0.0,0.0,0.0,0.0,0.013500239877980574,0.9393001287467051,0.5762286950818445,0.6726956268148894,-0.008921920747000022,-0.0028060441644349975,0.13176737971442787
8847,9.0,300.02712,-7109.2207,0.0884699647322491,0.0,0.0,0.0,0.0,0.01350176749586629,0.9548280142766882,0.5589589313049514,0.6472386299774794,0.007046313751892023,0.013391274428365886,0.12860686013500888
8848,9.0,299.71693,-6868.5368,0.08847997440694666,0.0,0.0,0.0,0.0,0.013503295113752034,0.9266841416191041,0.5446616076239155,0.6165179204605814,0.004894585262757955,0.011986882432013188,0.12216172823642388
8849,9.0,299.90564,-6889.1759,0.0884899510464141,0.0,0.0,0.0,0.0,0.013504817689994564,0.9458221055328742,0.5274000106428285,0.6209153347020724,0.004879784110597195,-0.014473752814948187,0.1061525083789369
8850,9.0,299.89002999999997,-7020.7454,0.08849996072111166,0.0,0.0,0.0,0.0,0.013506345307880308,0.9309799471405671,0.5379861842426025,0.6651651520716894,-0.017026767151161085,-0.02024232140976158,0.1101708252280139
8851,9.0,299.39014,-6894.9203,0.08850997039580899,0.0,0.0,0.0,0.0,0.013507872925765996,0.9106159810033001,0.5378005872217855,0.6474670469475224,0.0007333064847417153,0.004041852521074786,0.1153796197520819
8852,9.0,300.24399,-6814.2222,0.08851994703527666,0.0,0.0,0.0,0.0,0.013509395502008581,0.8811027818955742,0.5368899793569155,0.6533606364191743,0.00971335206028321,0.031790529369980974,0.12018457331629388
8853,9.0,300.44635,-6925.9477,0.08852995670997399,0.0,0.0,0.0,0.0,0.01351092311989427,0.9187854619220651,0.5480280398886566,0.6385016682077085,-0.0016516441711795884,0.011737827583933389,0.11791058677936889
8854,9.0,299.89577,-7023.3722,0.08853996638467154,0.0,0.0,0.0,0.0,0.013512450737780013,0.9532135015673481,0.5507606943483485,0.6309555590154654,-0.002838673350780247,-0.005208026075192155,0.12285391990973789
8855,9.0,300.35278999999997,-7132.1568,0.08854994302413877,0.0,0.0,0.0,0.0,0.013513973314022543,0.9589103381345822,0.5656791707381874,0.6434080582394314,-0.012855844704523089,-0.0004793838919890066,0.12762890153599188
8856,9.0,300.10933,-7034.911999999999,0.08855995269883632,0.0,0.0,0.0,0.0,0.013515500931908286,0.951923978695082,0.5524527308228395,0.6340608767294363,0.019015026279136982,0.014154077474648684,0.13142507343314486
8857,9.0,299.6872,-6810.3131,0.08856996237353387,0.0,0.0,0.0,0.0,0.013517028549794002,0.9063978816320061,0.5386173985248984,0.6251498487249865,-0.004502110638548725,-0.01913095424957818,0.12613957587650687
8858,9.0,299.91094,-6784.0523,0.0885799720482312,0.0,0.0,0.0,0.0,0.01351855616767969,0.8933333185526341,0.5304813143294295,0.6383678786645044,-0.0035213097716762162,-0.008716493307150911,0.12634534670681488
8859,9.0,299.86274,-7083.0901,0.08858994868769865,0.0,0.0,0.0,0.0,0.013520078743922248,0.939312328277909,0.5588352641302464,0.6549349433645464,-0.002740907584406518,0.0049523811497869654,0.11376981865570689
8860,9.0,300.05221,-7072.3919,0.08859995836239598,0.0,0.0,0.0,0.0,0.013521606361807964,0.9607023418639391,0.5420933935229525,0.6470348147198643,0.002464130821540778,0.022762783060011775,0.10954172863842689
8861,9.0,299.17064,-6927.0066,0.08860996803709353,0.0,0.0,0.0,0.0,0.013523133979693708,0.9140905270537111,0.5488629883685594,0.6426835236229254,0.00890570418577457,0.004791343588868795,0.10188500293276691
8862,9.0,299.39732999999995,-6936.9389,0.08861994467656098,0.0,0.0,0.0,0.0,0.013524656555936238,0.9278274018394351,0.5381944983306615,0.6426342898005664,-0.0017047528645710085,-0.017617947922006084,0.11102215796203391
8863,9.0,300.09393,-7071.7088,0.08862995435125853,0.0,0.0,0.0,0.0,0.013526184173821981,0.9361819630214661,0.5494612618901045,0.6639796494546893,0.013857347182863687,1.1032052279778788e-05,0.10980169821658389
8864,9.0,299.88925,-7109.1356,0.08863996402595586,0.0,0.0,0.0,0.0,0.013527711791707697,0.929101594237688,0.5671448572728395,0.6647532557735384,0.002022379818468348,0.012416235002886989,0.13985558784267188
8865,9.0,299.61068,-6966.3482,0.08864997370065342,0.0,0.0,0.0,0.0,0.013529239409593413,0.9385303119832301,0.5459111577797364,0.6331544434549784,0.002027314650430378,-0.001373820011685479,0.1092002734872279
8866,9.0,300.67506000000003,-6742.4243,0.08865995034012086,0.0,0.0,0.0,0.0,0.013530761985835943,0.9184150987455132,0.5272904783070185,0.6038230518126954,-0.024129607795656875,-0.007227512963299993,0.13522402163557187
8867,9.0,300.04913999999997,-6723.8007,0.08866996001481842,0.0,0.0,0.0,0.0,0.013532289603721687,0.908070342114565,0.5269532281437345,0.6088439492382194,-0.008792423331219622,0.02537119583219208,0.12296620828581988
8868,9.0,300.4814,-6937.5889,0.08867996968951575,0.0,0.0,0.0,0.0,0.013533817221607403,0.9370500954421441,0.5479844701343565,0.6238192081636623,-0.0038573010730359766,0.01798872450459888,0.12035134415025289
8869,9.0,300.1615,-7143.0421,0.08868994632898342,0.0,0.0,0.0,0.0,0.01353533979784996,0.9491975253260021,0.5632698950479105,0.6588390162648484,0.0035356085544373966,-0.007337478868827783,0.11411521534979488
8870,9.0,299.48143,-6969.3093,0.08869995600368075,0.0,0.0,0.0,0.0,0.013536867415735676,0.9173026109307192,0.5462498670231645,0.6549435154603924,0.0027349980058482873,-0.029081087456829875,0.1169881238883289
8871,9.0,299.56957,-6858.8809,0.08870996567837808,0.0,0.0,0.0,0.0,0.013538395033621392,0.9275304081026242,0.5359233488940165,0.6214747500822824,0.011412063623782989,-0.008427796670108772,0.12672218455150588
8872,9.0,299.90468,-7136.3257,0.08871997535307563,0.0,0.0,0.0,0.0,0.013539922651507108,0.947693061710023,0.5598140130643414,0.6617577439729043,0.014689555834496285,0.015791870618286286,0.10716380290624389
8873,9.0,300.17143,-7155.3511,0.08872995199254308,0.0,0.0,0.0,0.0,0.013541445227749638,0.9498553475559242,0.5591070988670745,0.6660856087275314,-0.006337270412189894,-0.003989198675653256,0.1259258105029099
8874,9.0,299.80515,-6825.9482,0.08873996166724063,0.0,0.0,0.0,0.0,0.013542972845635382,0.9048246284667382,0.5465711888948764,0.6235219813793283,-0.0065840950967995925,-0.003876200112576166,0.1173283732719089
8875,9.0,299.98436,-6715.5991,0.08874997134193796,0.0,0.0,0.0,0.0,0.013544500463521097,0.8985329532957982,0.5261919125485985,0.6166495720460744,-0.0012772470433294687,0.016683522600285484,0.14033121757211287
8876,9.0,300.15999,-6795.5415,0.08875994798140563,0.0,0.0,0.0,0.0,0.013546023039763655,0.913973466269658,0.5292214898175945,0.6224799549764884,0.01966414367744988,0.007595255875093392,0.12349658391816387
8877,9.0,300.20488,-6954.7686,0.08876995765610296,0.0,0.0,0.0,0.0,0.013547550657649371,0.9552180750351841,0.5423333818091375,0.6165245369837343,0.00944857369847662,0.00015892723453739686,0.12830906593061886
8878,9.0,300.28976,-7114.2805,0.08877996733080051,0.0,0.0,0.0,0.0,0.013549078275535115,0.9462799527230601,0.5457520167190305,0.6705316691063234,-0.008100341595541473,-0.008937942764206272,0.12421749109931188
8879,9.0,300.79883,-7039.3768,0.08878994397026796,0.0,0.0,0.0,0.0,0.013550600851777644,0.9468389222732262,0.5462478607879665,0.6467079807676084,0.0027415591042208175,0.017035065669480084,0.1171755447593259
8880,9.0,299.7323,-6920.9315,0.08879995364496551,0.0,0.0,0.0,0.0,0.01355212846966336,0.9142852838554321,0.5440682584978566,0.6454368078546534,-0.003797310992915416,0.014109619100010988,0.1134364391078049
8881,9.0,299.82177,-7077.1519,0.08880996331966284,0.0,0.0,0.0,0.0,0.013553656087549076,0.9553199978627431,0.5440301501615955,0.6519273029602154,-0.005311049292359755,-0.0037993327308399466,0.1041987088736119
8882,9.0,300.00407,-7211.8603,0.08881997299436017,0.0,0.0,0.0,0.0,0.013555183705434792,0.9590563576064931,0.5643821194176785,0.6687869841566364,-0.007359990448949503,-0.030514316551028573,0.11300000189223189
8883,9.0,300.16523,-6836.2601,0.08882994963382784,0.0,0.0,0.0,0.0,0.01355670628167735,0.9300165388129861,0.5253248947030305,0.6227109354692844,-0.005517545103114305,-0.007089293895958833,0.1134226893039479
8884,9.0,299.63305,-6669.1258,0.08883995930852517,0.0,0.0,0.0,0.0,0.013558233899563066,0.8755540115654532,0.5316313937229334,0.6200622895753835,0.02261536834271308,0.0025610714983580773,0.12311411240291688
8885,9.0,299.67805,-6908.9046,0.08884996898322273,0.0,0.0,0.0,0.0,0.01355976151744881,0.9250225330451161,0.5371373846338325,0.6379745755056884,-0.0038274144507363965,-0.0009160582486154101,0.11828889383670488
8886,9.0,300.04753999999997,-7038.5101,0.08885994562269017,0.0,0.0,0.0,0.0,0.01356128409369134,0.9252530170453632,0.5565846532731284,0.6576936484843093,0.008803722691034781,0.006483832986154494,0.12406938433219487
8887,9.0,300.32752999999997,-7008.2025,0.0888699552973875,0.0,0.0,0.0,0.0,0.013562811711577055,0.9384432332696361,0.5545985614871165,0.6372767805593215,-0.012290158319444189,0.01094978549090969,0.13607023745658686
8888,9.0,300.25387,-6941.6741,0.08887996497208506,0.0,0.0,0.0,0.0,0.013564339329462771,0.9383239028053592,0.5321541395820245,0.6396175605428385,0.01809894179747648,0.01082811340565159,0.12355184657861787
8889,9.0,300.63797,-6804.8684,0.08888997464678261,0.0,0.0,0.0,0.0,0.013565866947348515,0.9217129947734901,0.5336152766237275,0.6131818046388324,-0.011694325717390089,-0.015294182434168286,0.1266479842466829
8890,9.0,300.10533,-6901.6936,0.08889995128624983,0.0,0.0,0.0,0.0,0.013567389523591045,0.906925227646551,0.5549330252126254,0.6360842662516294,-0.0011829783070258688,-0.020062235456238482,0.13343356817886787
8891,9.0,300.67217,-7071.0799,0.08890996096094739,0.0,0.0,0.0,0.0,0.013568917141476788,0.9450464828463261,0.5469335676606404,0.6574516843604294,-0.020117328903925782,0.006855223699632904,0.1113012779670809
8892,9.0,300.85200000000003,-6994.2244,0.08891997063564472,0.0,0.0,0.0,0.0,0.013570444759362504,0.9272324619107192,0.5527959895592165,0.6460411000817924,0.004961917454428125,0.02432704059089198,0.11934095141553488
8893,9.0,299.6444,-6810.6455,0.08892994727511216,0.0,0.0,0.0,0.0,0.013571967335605034,0.9116369216715591,0.5290330759614995,0.6295961725488044,-0.005402149595600655,0.005954421359955634,0.1106155913594089
8894,9.0,299.60551,-6974.6707,0.08893995694980972,0.0,0.0,0.0,0.0,0.01357349495349075,0.94368957884241,0.5437831603172194,0.6326529859804884,0.02041269333457598,-0.014103648017171688,0.12103003933223488
8895,9.0,299.93748999999997,-7251.2303,0.08894996662450705,0.0,0.0,0.0,0.0,0.013575022571376466,0.967165306964284,0.5725948357182105,0.6644327951644113,0.01999596585994818,0.005198408305242955,0.1116737385713399
8896,9.0,299.8426,-7032.9127,0.0889599432639745,0.0,0.0,0.0,0.0,0.013576545147618996,0.9332791534724811,0.5426908057819125,0.6618598897154854,0.026843184782466074,-0.008607546021948652,0.1267689257786189
8897,9.0,299.63204,-6834.9082,0.08896995293867205,0.0,0.0,0.0,0.0,0.01357807276550474,0.9024025148976942,0.5522365133840005,0.6230023968605495,0.005508702368166594,-0.01146047266056059,0.11457709527537889
8898,9.0,300.43703999999997,-6848.0653,0.0889799626133696,0.0,0.0,0.0,0.0,0.013579600383390483,0.9024064361755811,0.5397406267907525,0.6394937819106223,-0.013925526755592487,-0.013046619433351087,0.1277456583450149
8899,9.0,300.47209,-6935.3372,0.08898997228806693,0.0,0.0,0.0,0.0,0.0135811280012762,0.9239504232468071,0.5482466283327295,0.6359722818505773,-0.014259804043083088,0.01998524162088978,0.1102620076045129
8900,9.0,300.38531,-7040.7508,0.08899994892753438,0.0,0.0,0.0,0.0,0.013582650577518729,0.9396058161693741,0.5525841898908135,0.6480224397248353,-0.012351557222503789,0.01902914490603038,0.12168179219405788
8901,9.0,300.30624,-7174.738,0.08900995860223193,0.0,0.0,0.0,0.0,0.013584178195404445,0.965154319623315,0.5505411737141834,0.6652456953221383,-0.008517860823797413,0.0045867532962523055,0.1019444300511319
8902,9.0,300.35712,-6993.5395,0.08901996827692948,0.0,0.0,0.0,0.0,0.013585705813290189,0.9187336949744561,0.5624662154660935,0.6446614486131313,0.004375096800088436,-0.01048607563564509,0.13464817133873988
8903,9.0,299.75946,-6970.0997,0.08902994491639671,0.0,0.0,0.0,0.0,0.01358722838953269,0.9246928417275782,0.5458921897378645,0.6481512339450465,0.021196805030461778,0.01052567750255349,0.10852251049533788
8904,9.0,299.35082,-7208.4828,0.08903995459109426,0.0,0.0,0.0,0.0,0.013588756007418434,0.9354962561487922,0.5726355075772245,0.6830670116584653,0.006501576515280644,0.014617613050896086,0.12603995312667488
8905,9.0,299.27398999999997,-7130.6603,0.08904996426579181,0.0,0.0,0.0,0.0,0.013590283625304178,0.9535129271043992,0.5637809581333485,0.6502487832420584,-0.008317032019527153,0.0018901214988154681,0.1069642331665479
8906,9.0,299.49343999999996,-6740.9339,0.08905997394048915,0.0,0.0,0.0,0.0,0.013591811243189894,0.9036089917917641,0.5309884966669846,0.6144780858892654,-0.003678152679830406,-0.016686400230569484,0.13441818383104187
8907,9.0,299.77836,-6753.5831,0.08906995057995659,0.0,0.0,0.0,0.0,0.013593333819432424,0.904526834262348,0.5389067118259515,0.6094870793416914,-0.0013158372813380287,-0.0005859294907442384,0.1295227875629039
8908,9.0,300.27279,-6998.4183,0.08907996025465414,0.0,0.0,0.0,0.0,0.01359486143731814,0.9330444036893131,0.5467886728963405,0.6475113462418944,0.004159321036968026,-0.0018428836778284583,0.12425644043315587
8909,9.0,300.24105,-7085.2908,0.0890899699293517,0.0,0.0,0.0,0.0,0.013596389055203884,0.949276579098804,0.5523308571008114,0.6521440472891065,-0.0005839138424528094,-0.015588881159502785,0.1185055267080849
8910,9.0,300.22127,-7015.48,0.08909994656881892,0.0,0.0,0.0,0.0,0.013597911631446385,0.923716717111242,0.5642033821000384,0.6446106543856184,-0.00013900207662093686,-0.015274974252022585,0.12752336140557588
8911,9.0,301.14407,-6913.7281,0.08910995624351647,0.0,0.0,0.0,0.0,0.01359943924933213,0.9288426683071341,0.5311578918187024,0.6416001566160053,0.013577886725783087,0.017666690318066582,0.1158264731786829
8912,9.0,300.71105,-6951.3155,0.08911996591821403,0.0,0.0,0.0,0.0,0.013600966867217873,0.9227971014529831,0.5481485355905484,0.6420807107409324,0.0044618918036544355,0.027977640872678174,0.1086676180421589
8913,9.0,300.36207,-7154.2351,0.08912994255768147,0.0,0.0,0.0,0.0,0.013602489443460403,0.9505575197427231,0.5660087202007115,0.6581425790736154,-0.013591601065886588,0.01021912375104899,0.12097171665647888
8914,9.0,300.39997,-7179.9989,0.0891399522323788,0.0,0.0,0.0,0.0,0.013604017061346119,0.9566940055283472,0.5637373478490444,0.6621090377825744,-0.015898476687807486,-0.008785392794075761,0.1073362479407629
8915,9.0,299.83365,-6906.0303,0.08914996190707636,0.0,0.0,0.0,0.0,0.013605544679231835,0.9144912877332632,0.5577904816871344,0.6269790184680114,8.778758640371021e-05,0.0035926310276650766,0.1293563004389729
8916,9.0,299.83617999999996,-6784.2739,0.08915997158177391,0.0,0.0,0.0,0.0,0.013607072297117578,0.8937767370613962,0.5274468126649475,0.6410263125543714,0.0059841264078372945,0.007982772362588294,0.10327460451740991
8917,9.0,299.80233,-7015.5954,0.08916994822124136,0.0,0.0,0.0,0.0,0.013608594873360108,0.9480164404794381,0.5410883912787665,0.6434610005571564,0.007324814255827883,-0.0074007673819988734,0.10826029150195889
8918,9.0,300.01881000000003,-7067.0236,0.08917995789593869,0.0,0.0,0.0,0.0,0.013610122491245824,0.9425594706083771,0.5553985325735674,0.6502407177712624,-0.007053007991327694,-0.0063116043818568545,0.1091280388875989
8919,9.0,300.10819,-6815.2405,0.08918996757063624,0.0,0.0,0.0,0.0,0.013611650109131568,0.9143243750442901,0.5241294318375475,0.6332091285628754,0.002976292270087177,0.0025764468593505075,0.12278690354812388
8920,9.0,299.92671,-6832.1067,0.08919994421010347,0.0,0.0,0.0,0.0,0.013613172685374098,0.9235914084713751,0.5394556502001275,0.6137427702916954,0.004715327742516615,0.01909073024710838,0.1276587316189359
8921,9.0,300.01057000000003,-6998.6008,0.08920995388480102,0.0,0.0,0.0,0.0,0.013614700303259814,0.9345143661393871,0.5439226544584864,0.6489628574076474,-0.012382558622563388,0.001261761947351209,0.1163820382085129
8922,9.0,299.85026,-7081.3158,0.08921996355949857,0.0,0.0,0.0,0.0,0.013616227921145557,0.9339175111679822,0.5667003647189714,0.6519252967250174,-0.003957871819661536,-0.012217250921748789,0.13136778427249088
8923,9.0,299.60377,-7007.3019,0.08922997323419612,0.0,0.0,0.0,0.0,0.013617755539031273,0.9318164256281212,0.5605093964754705,0.6377189730354624,-0.01105791244883099,-0.016122984538964682,0.1200685359148419
8924,9.0,300.60128,-6885.0676,0.08923994987366335,0.0,0.0,0.0,0.0,0.013619278115273803,0.9080870810062173,0.5435036046146295,0.6412979446411794,0.005279204361591905,0.006176263654074764,0.11479152939404189
8925,9.0,299.95829,-6805.8293,0.08924995954836068,0.0,0.0,0.0,0.0,0.013620805733159519,0.906297600269609,0.5404139314822025,0.6220906440230665,-0.0024667667916759275,-0.003988750211158997,0.12867515319174888
8926,9.0,299.87756,-6913.4913,0.08925996922305846,0.0,0.0,0.0,0.0,0.01362233335104529,0.9311920507840001,0.5412856609407355,0.6290510034650004,0.006976110718713524,0.018239659944864286,0.12753113303384286
8927,9.0,300.63776,-6956.4253,0.08926994586252568,0.0,0.0,0.0,0.0,0.013623855927287792,0.9264592203619061,0.5461989714706414,0.6419213974277094,-0.0028985023241349067,0.02028741306571178,0.12544157828011987
8928,9.0,300.79515,-6763.1818,0.08927995553722323,0.0,0.0,0.0,0.0,0.013625383545173536,0.9052402636577582,0.5321624077028405,0.6184357191898534,0.0019274195389714982,0.01830046103036488,0.12844995835702386
8929,9.0,300.27533999999997,-6832.9486,0.08928996521192079,0.0,0.0,0.0,0.0,0.013626911163059252,0.9152409002897441,0.5286261648538405,0.6331786803973705,0.0014245970139467787,-0.02324638098823918,0.11733348005241288
8930,9.0,300.12087,-7136.035,0.08929997488661812,0.0,0.0,0.0,0.0,0.013628438780944968,0.944706415847764,0.5659849189558624,0.6584851184024213,0.004656902019225446,-0.031243746178767674,0.11005117052370489
8931,9.0,299.48831,-7193.3714,0.08930995152608556,0.0,0.0,0.0,0.0,0.013629961357187498,0.95601708353404,0.5710481601030655,0.6595400637440364,0.016279077743369886,-0.02044687735319968,0.1062537624614299
8932,9.0,300.07667999999995,-7030.8692,0.0893199612007829,0.0,0.0,0.0,0.0,0.013631488975073214,0.9384376806590882,0.5440031065164265,0.6547678786880584,0.008666928455984243,0.0031489550520526666,0.0977762129822609
8933,9.0,300.09884,-7100.4686,0.08932997087548067,0.0,0.0,0.0,0.0,0.013633016592958985,0.9386375746388161,0.5637092200262684,0.6560183407689694,-0.0035281633953526165,0.004600452032304267,0.1058461522112019
8934,9.0,299.89567,-7030.4597,0.08933994751494789,0.0,0.0,0.0,0.0,0.013634539169201487,0.9537704648823161,0.5281254267869215,0.6551883166845524,-0.010696052467118189,0.0098704168702093,0.12469788310422288
8935,9.0,299.66767000000004,-7003.3138,0.08934995718964545,0.0,0.0,0.0,0.0,0.013636066787087231,0.930685314276489,0.5585318970503065,0.6396153212601174,-0.002055314094418708,0.01178563475015159,0.1072357537958449
8936,9.0,300.09212,-6938.3275,0.089359966864343,0.0,0.0,0.0,0.0,0.013637594404972947,0.9192659856494891,0.5448146489190194,0.6449976753938145,-0.005328293897136665,0.002835109750178547,0.12064930047465888
8937,9.0,299.35887,-6933.8396,0.08936994350381045,0.0,0.0,0.0,0.0,0.013639116981215504,0.9257057777200471,0.5311031763133025,0.6509051261268344,-0.006524158009659264,-0.024006437113500874,0.1000775430863845
8938,9.0,298.85061,-6832.2649,0.08937995317850778,0.0,0.0,0.0,0.0,0.013640644599101193,0.9038498210755321,0.5515272889765055,0.6214608077609064,-0.0075677040849992435,-0.01328501387712879,0.14181929693397488
8939,9.0,299.26439,-6941.8985,0.08938996285320533,0.0,0.0,0.0,0.0,0.013642172216986936,0.9175562172982481,0.5492158932458885,0.6433917043828173,0.014406664512577088,0.002379794874642468,0.1162059049436299
8940,9.0,300.15884,-7098.5053,0.08939997252790288,0.0,0.0,0.0,0.0,0.01364369983487268,0.9401996921854852,0.5585662360961955,0.6590024231084753,0.01353570411086999,0.010461772831996589,0.11973385940681189
8941,9.0,299.5215,-7040.6227,0.08940994916737033,0.0,0.0,0.0,0.0,0.01364522241111521,0.9288009122705131,0.5668211137333884,0.6445514805797784,0.006665559796889534,-0.004144108403941656,0.12089109234602188
8942,9.0,299.59832,-7056.0047,0.08941995884206766,0.0,0.0,0.0,0.0,0.013646750029000926,0.92890534795832,0.5584151098437805,0.6575287825605384,-0.00894886519498423,-0.004175066639546996,0.12802960142053788
8943,9.0,300.09368,-7061.9835,0.08942996851676521,0.0,0.0,0.0,0.0,0.013648277646886642,0.945451093876258,0.5549629870180824,0.6462525653776624,0.024845590581318876,0.006965163969933164,0.12366519886730487
8944,9.0,300.17461000000003,-6906.9436,0.08943994515623266,0.0,0.0,0.0,0.0,0.013649800223129172,0.9220059355099012,0.5423895259971785,0.6351429265112264,0.0046083558897093155,0.014073701410466185,0.10975106610908689
8945,9.0,299.4981,-6901.0163,0.08944995483092999,0.0,0.0,0.0,0.0,0.013651327841014887,0.919341867949478,0.5402876197247365,0.6381071390162714,-0.00038223813335146666,-0.005431579242105135,0.12816801138419787
8946,9.0,299.83021,-6982.01,0.08945996450562754,0.0,0.0,0.0,0.0,0.013652855458900631,0.9604134237304252,0.5394370266632895,0.6225062488165835,-0.026498295726678178,0.00042615643555336553,0.11927220239624989
8947,9.0,299.93691,-6850.3965,0.0894699741803251,0.0,0.0,0.0,0.0,0.013654383076786375,0.9202885373854072,0.5366720697904095,0.6253888744235764,-0.003280164759177057,0.0020606561515959278,0.13299665473574787
8948,9.0,300.78867,-6763.6112,0.08947995081979254,0.0,0.0,0.0,0.0,0.013655905653028905,0.9067951769962161,0.5379796386469565,0.6111940916526604,0.005505411027866765,0.0075781508961802625,0.11873192731042888
8949,9.0,300.70529,-7061.3379,0.08948996049448987,0.0,0.0,0.0,0.0,0.01365743327091462,0.9312494210046621,0.5555998349709345,0.6596211440170384,0.011861692342407889,-0.023311581605673978,0.12001010178157488
8950,9.0,300.37675,-7167.2757,0.08949997016918743,0.0,0.0,0.0,0.0,0.013658960888800337,0.9501726670897411,0.5553278887765954,0.6731723001919334,-0.00017673871221525283,-0.007918168245487363,0.1050819387207799
8951,9.0,299.6376,-6981.3523,0.08950994680865487,0.0,0.0,0.0,0.0,0.013660483465042866,0.9258817792624171,0.5522870948289925,0.6439879007416573,0.014025690580977886,0.009187949459430012,0.11957158740329689
8952,9.0,299.72432000000003,-7037.5922,0.0895199564833522,0.0,0.0,0.0,0.0,0.01366201108292861,0.9530916987728272,0.5368147658019925,0.6493458456804454,0.008119614017743512,0.03461198101543657,0.1025806295239199
8953,9.0,299.61629,-7130.8929,0.08952996615804976,0.0,0.0,0.0,0.0,0.013663538700814326,0.9497844808439301,0.5506529757302175,0.6671759367626383,-0.01138086666645409,-0.004252016702491376,0.1100452632756219
8954,9.0,299.86148,-6935.404,0.0895399427975172,0.0,0.0,0.0,0.0,0.013665061277056884,0.9185153598429081,0.5570246773940555,0.6326496219901564,-0.016890253991688284,-0.009584126195529612,0.12534316129790687
8955,9.0,300.0496,-6867.798000000001,0.08954995247221453,0.0,0.0,0.0,0.0,0.0136665888949426,0.9270308150083181,0.5258991339322036,0.6347091440109154,-0.0040387711261956755,-0.006074109602842943,0.11768763122736489
8956,9.0,299.89448,-6932.054,0.08955996214691209,0.0,0.0,0.0,0.0,0.013668116512828316,0.9052197858732371,0.5638734577349774,0.6380780790034034,0.003312862846529107,0.004926858291693055,0.12412388705507388
8957,9.0,300.47345,-6811.0377,0.08956997182160942,0.0,0.0,0.0,0.0,0.013669644130714032,0.9141308442751901,0.5427289850456806,0.6135255497352574,0.005166359407229975,-0.012982231442496488,0.11988984925970689
8958,9.0,299.95282000000003,-6975.6281,0.08957994846107686,0.0,0.0,0.0,0.0,0.013671166706956561,0.9358045780217212,0.5482142347270325,0.6363979482175873,-0.009124419083460051,-0.0020700789722258883,0.1301639620936829
8959,9.0,300.5052,-7099.8514,0.08958995813577442,0.0,0.0,0.0,0.0,0.013672694324842305,0.9504087543630412,0.5679536335026594,0.6398151544448394,0.0029250925398841567,0.012264543356916189,0.1211515584167279
8960,9.0,300.06182,-6938.9652,0.08959996781047175,0.0,0.0,0.0,0.0,0.013674221942728021,0.9226297631989681,0.5409885557464136,0.6456538257610714,0.0014468335979913585,0.018673208384402184,0.1197748555058579
8961,9.0,299.48482,-6900.5380000000005,0.08960994444993942,0.0,0.0,0.0,0.0,0.013675744518970578,0.912696740746155,0.5500037965236484,0.6348906981638334,0.0017013950550646183,-0.014995233124664286,0.11439753722515789
8962,9.0,299.33806,-7073.9992,0.08961995412463675,0.0,0.0,0.0,0.0,0.013677272136856294,0.9180894604283752,0.5658461746196695,0.6663835042569314,0.0019473916103675882,0.0018231313803790583,0.1098058626744949
8963,9.0,299.58234,-7062.819,0.0896299637993343,0.0,0.0,0.0,0.0,0.013678799754742038,0.9461165357469322,0.5342879632326165,0.6665161082975184,0.00992970365343545,0.007127376090367252,0.09540491998523251
8964,9.0,300.34805,-6812.7075,0.08963997347403163,0.0,0.0,0.0,0.0,0.013680327372627726,0.9224479050710201,0.5335585346181274,0.6148865168720744,0.005898879853074115,0.028394385572557673,0.12175018657580788
8965,9.0,300.3122,-6882.9492,0.0896499501134993,0.0,0.0,0.0,0.0,0.013681849948870284,0.9223270040690882,0.5374068078354225,0.6325108776539634,-0.015018210597181985,-0.007234951536259123,0.12478039205986588
8966,9.0,300.34119,-7017.5473,0.08965995978819663,0.0,0.0,0.0,0.0,0.013683377566756,0.9465570766254101,0.5453882396681284,0.6412138246178773,-0.004633224086913616,0.004539903448728586,0.12439743418457089
8967,9.0,300.35232,-6876.0523,0.08966996946289396,0.0,0.0,0.0,0.0,0.013684905184641716,0.9111302358265531,0.5573600023821494,0.6216579659653644,0.006376216604958583,0.008624610470857781,0.13534949239545488
8968,9.0,300.34416,-6914.6805,0.08967994610236163,0.0,0.0,0.0,0.0,0.013686427760884273,0.9157097919060201,0.5370539738856005,0.6491264365037914,0.005110195562137035,0.017515218547367484,0.1119960635606509
8969,9.0,300.15055,-7074.4972,0.08968995577705896,0.0,0.0,0.0,0.0,0.01368795537876999,0.9452817797845482,0.5583994855272385,0.6467892434256284,-4.731882121325405e-05,-0.016821108791614182,0.11350671813474088
8970,9.0,299.81414,-6938.4515,0.08969996545175651,0.0,0.0,0.0,0.0,0.013689482996655733,0.9311184888267401,0.5481131832945595,0.6298843408772444,-0.012994995354006188,-0.014797451771394786,0.1092902804936109
8971,9.0,299.33717,-7025.0019999999995,0.08970994209122396,0.0,0.0,0.0,0.0,0.013691005572898263,0.9280639754727831,0.5541000829679205,0.6532611453918553,0.0070595548028738134,0.008593511292163533,0.11508535165803987
8972,9.0,299.65704,-7117.9439,0.08971995176592151,0.0,0.0,0.0,0.0,0.013692533190783979,0.947549180195823,0.5568762666519085,0.6592517535605823,0.0035589042888115067,0.012619249792922988,0.11445351929318288
8973,9.0,300.31101,-7022.3802,0.08972996144061884,0.0,0.0,0.0,0.0,0.013694060808669695,0.9284840183017381,0.5513705290535345,0.6547736846111314,0.006072681021526954,-0.012275238211721688,0.12410249734546287
8974,9.0,299.51462999999995,-6964.7071,0.0897399711153164,0.0,0.0,0.0,0.0,0.013695588426555438,0.912938481955013,0.5629284601617135,0.6412301278119864,0.004554935419262125,-0.013696329582972486,0.13975962292570085
8975,9.0,299.93113,-6896.6104,0.08974994775478384,0.0,0.0,0.0,0.0,0.013697111002797968,0.9310190788594292,0.5321181894684766,0.6332600747779034,0.02781855250097737,0.012520851049211789,0.12626333424372088
8976,9.0,299.17511,-6806.1309,0.0897599574294814,0.0,0.0,0.0,0.0,0.013698638620683712,0.904529053280067,0.5398810531221114,0.6244837482417473,0.0033668946107616267,0.02070121123430048,0.12542166791565487
8977,9.0,299.006,-6794.8539,0.08976996710417873,0.0,0.0,0.0,0.0,0.013700166238569428,0.9015674650927812,0.5470864569682296,0.6168120061696054,-0.013871345232995186,-0.01967919753418558,0.1281434502017739
8978,9.0,299.08691,-7025.1606,0.0897799437436464,0.0,0.0,0.0,0.0,0.013701688814811985,0.935188886730957,0.5545021000775965,0.6457824071987613,-0.03176697231840607,-0.01192923255432359,0.1307355770050969
8979,9.0,299.16861,-7089.2108,0.08978995341834373,0.0,0.0,0.0,0.0,0.013703216432697674,0.9406207583970411,0.5528909716235905,0.6614313457181914,-0.005539552084686225,0.007759661175368931,0.11494662758684888
8980,9.0,299.23495,-6980.4245,0.08979996309304106,0.0,0.0,0.0,0.0,0.01370474405058339,0.9330473319821022,0.5408774123429445,0.6479499923426855,0.005592225688484704,0.012686099981520588,0.10990728900950489
8981,9.0,299.88319,-7041.8018,0.08980997276773861,0.0,0.0,0.0,0.0,0.013706271668469133,0.950987137785123,0.5407383538992204,0.6488064115922074,0.00999706674923367,-0.009732888130161271,0.1029453792949179
8982,9.0,300.05869,-7185.4413,0.08981994940720606,0.0,0.0,0.0,0.0,0.013707794244711663,0.9588030754789961,0.5529710487789935,0.6724206104727474,0.0011949223978796589,-0.014964850820415787,0.1035854493830879
8983,9.0,300.33506,-7021.6959,0.08982995908190361,0.0,0.0,0.0,0.0,0.013709321862597407,0.931071220709575,0.5510441510638235,0.6523048399474753,0.013936920752966986,0.004757357660639646,0.12617620486762188
8984,9.0,300.37439,-6887.475,0.08983996875660094,0.0,0.0,0.0,0.0,0.013710849480483123,0.9255875111683752,0.5340600630201244,0.6339728455607484,0.005724396260678925,0.013039509457399385,0.11793958599723088
8985,9.0,300.41977,-6889.6175,0.08984994539606839,0.0,0.0,0.0,0.0,0.01371237205672568,0.924546163643102,0.5484337857587005,0.6212917469817214,0.006190714221700924,0.0026394667599200874,0.13058461287269787
8986,9.0,300.05608,-6879.693,0.08985995507076572,0.0,0.0,0.0,0.0,0.013713899674611368,0.9311946852342602,0.5352043871530605,0.6248558238109684,0.0020364680478587483,-0.003934640021368736,0.12142535885874989
8987,9.0,300.26839,-6923.092,0.08986996474546327,0.0,0.0,0.0,0.0,0.013715427292497112,0.936888998808745,0.5464256152530095,0.6211324843310034,0.013184549116463686,0.009741396289925961,0.1271027612890659
8988,9.0,299.857,-7005.7145,0.08987997442016082,0.0,0.0,0.0,0.0,0.013716954910382828,0.934923891432304,0.5373029902301765,0.6573354139114543,0.0017933928952440982,-0.00012670339889465188,0.10801185270993989
8989,9.0,300.0102,-6963.5672,0.08988995105962827,0.0,0.0,0.0,0.0,0.013718477486625386,0.9172877060217481,0.5420891682700355,0.6573736742352304,-0.01207757236896359,-0.013240649734750387,0.11663610053858689
8990,9.0,299.68637,-7023.7123,0.0898999607343256,0.0,0.0,0.0,0.0,0.013720005104511102,0.9251844504110962,0.5586024091247654,0.6512463077005064,-0.01081896071749829,-0.005025912506893945,0.1168280607700319
8991,9.0,300.04935,-7242.1611,0.08990997040902293,0.0,0.0,0.0,0.0,0.013721532722396818,0.9522368095309561,0.5701104579305215,0.6790888600433523,-0.007093924752890864,0.015373556394001885,0.12210706339352889
8992,9.0,299.25315,-7177.6277,0.0899199470484906,0.0,0.0,0.0,0.0,0.013723055298639375,0.956294947108963,0.5582367676936795,0.6672878806336864,0.0036851922349001565,0.017545708256126585,0.11571352619003589
8993,9.0,299.56317,-6878.3631,0.08992995672318793,0.0,0.0,0.0,0.0,0.013724582916525063,0.9218568661551891,0.5412612517458265,0.6277325117723754,-0.006423643498414254,-0.009513867230945591,0.12791743463446786
8994,9.0,298.72151,-6946.2049,0.08993996639788548,0.0,0.0,0.0,0.0,0.013726110534410807,0.9243447801857271,0.5434309647149606,0.6436970878304563,-0.003443771010423736,-0.01050873697413159,0.12938025367133688
8995,9.0,299.89108999999996,-6979.4294,0.08994994303735293,0.0,0.0,0.0,0.0,0.013727633110653337,0.9358945748956031,0.5539834477489094,0.6316942284708664,0.00949176034291381,-0.004561297616640025,0.12575142002819886
8996,9.0,300.23259,-6877.8606,0.08995995271205048,0.0,0.0,0.0,0.0,0.01372916072853908,0.9164880085128241,0.5477516961888834,0.6264581673866074,0.0035688764936456863,-0.0038696826852829464,0.12548780274968188
8997,9.0,299.98135,-6899.2557,0.08996996238674781,0.0,0.0,0.0,0.0,0.013730688346424796,0.9168388159624461,0.5443737027405015,0.6359889498147224,-0.005076721021233355,-0.0007294131725574753,0.13132247172801886
8998,9.0,300.02389,-6959.7124,0.08997997206144537,0.0,0.0,0.0,0.0,0.01373221596431054,0.95491395815017,0.5429687909468475,0.6176960466168534,0.007351512686687813,0.002965408241488007,0.11856555164400889
8999,9.0,300.35827,-7027.8183,0.08998994870091281,0.0,0.0,0.0,0.0,0.01373373854055307,0.936618643417063,0.5571920257805715,0.6424706093794125,0.0025179176832241276,0.016751974737291182,0.12715860150207686
9000,9.0,299.93011,-7197.746999999999,0.08999995837561037,0.0,0.0,0.0,0.0,0.013735266158438786,0.9529698655808032,0.5598762367529825,0.6750892477911213,-2.9969530475762374e-05,-0.0037907233473902665,0.10494663943492691
9001,9.0,300.33182999999997,-7216.3257,0.0900099680503077,0.0,0.0,0.0,0.0,0.013736793776324502,0.9396644022901561,0.5725577811620535,0.6813606275625583,-0.015816369992454185,-0.010748607723304989,0.11388874381994389
9002,9.0,300.02274,-7038.4217,0.09001994468977514,0.0,0.0,0.0,0.0,0.013738316352567032,0.9327931885920202,0.5452553924475175,0.6614558663706114,-0.0017714410344776184,-0.006611427720897114,0.10916615735636089
9003,9.0,299.37793999999997,-6953.4365,0.0900299543644727,0.0,0.0,0.0,0.0,0.013739843970452775,0.9257245025818951,0.5435514604168525,0.6443951158243464,0.003949909396400706,0.01808177430103218,0.12955680236876088
9004,9.0,299.98212,-7046.2164,0.09003996403917003,0.0,0.0,0.0,0.0,0.013741371588338491,0.9631524819307492,0.5400489790611844,0.6386723805845564,0.015416182812458787,0.015736637342085184,0.1044507447034859
9005,9.0,299.94829,-6950.6774,0.09004997371386758,0.0,0.0,0.0,0.0,0.013742899206224207,0.9225058832417422,0.5529983558691884,0.6373281422068904,-0.006217716627590854,-2.3286890727237177e-05,0.1256152493472599
9006,9.0,299.50227,-6802.3157,0.09005995035333503,0.0,0.0,0.0,0.0,0.013744421782466765,0.9044977742494801,0.5364367221896825,0.6267996124053055,0.002184142157183048,-0.006843915929841914,0.11872887742762789
9007,9.0,300.23197999999996,-6964.2045,0.09006996002803258,0.0,0.0,0.0,0.0,0.01374594940035248,0.9236348667681642,0.5395291817598845,0.6537802232855844,0.006685705944652804,-0.0001033754330348609,0.12792815482052589
9008,9.0,300.78429,-7089.1457,0.09007996970272991,0.0,0.0,0.0,0.0,0.013747477018238197,0.9351540005300142,0.5669715408432345,0.6527977151936184,0.01002946217878085,-0.016937537307604784,0.1141274554110029
9009,9.0,300.28817000000004,-7018.41,0.09008994634219736,0.0,0.0,0.0,0.0,0.013748999594480726,0.9239266321344591,0.5642841685305114,0.6452105997698284,0.003336873935473817,-0.012852237534167088,0.12717143938084388
9010,9.0,300.02018,-7139.3052,0.09009995601689491,0.0,0.0,0.0,0.0,0.01375052721236647,0.9541416183939462,0.5653998176856175,0.6506290864020914,0.00026508149583900675,-0.0015579417403568786,0.11753878478767488
9011,9.0,300.09474,-7171.0532,0.09010996569159246,0.0,0.0,0.0,0.0,0.013752054830252214,0.9502646499338191,0.5623686698789665,0.6671877816563073,0.00020449912037249178,0.017587516981752784,0.12346146466969789
9012,9.0,299.81616,-6899.5924,0.09011994233105969,0.0,0.0,0.0,0.0,0.013753577406494716,0.9291076940032902,0.5258462625419855,0.6423498603649954,-0.02274040847130358,0.002052140595105508,0.11836257738397689
9013,9.0,299.77452,-6817.3867,0.09012995200575724,0.0,0.0,0.0,0.0,0.01375510502438046,0.9132348778742652,0.5257078120483215,0.6333726367315125,-0.011390736735678189,0.0017237641722222783,0.11932093972605988
9014,9.0,299.81842,-7011.9043,0.0901399616804548,0.0,0.0,0.0,0.0,0.013756632642266176,0.9375490704538892,0.5383999550534385,0.6554947843097984,-0.009284666815925272,0.006056657991070604,0.12374802193047889
9015,9.0,299.07849,-6954.1204,0.09014997135515213,0.0,0.0,0.0,0.0,0.013758160260151892,0.942952571117173,0.5366079107940774,0.6343184753023594,0.006924391191209203,0.020208391716912983,0.12811022573099487
9016,9.0,300.03539,-6841.0233,0.09015994799461957,0.0,0.0,0.0,0.0,0.013759682836394421,0.9277416403509712,0.5372373012261934,0.6145213111385314,0.013051984592630588,0.0004567847366611436,0.11758612383234689
9017,9.0,300.82757999999995,-7032.0573,0.09016995766931712,0.0,0.0,0.0,0.0,0.013761210454280165,0.9234742058323082,0.5625567088325244,0.6515389039318834,0.007077507669470623,-0.007716257087460284,0.12137693563647088
9018,9.0,300.85774,-7082.3939,0.09017996734401446,0.0,0.0,0.0,0.0,0.013762738072165909,0.947176354821528,0.5468305707879755,0.6588639928798133,0.014647764334121786,-0.004808025130565136,0.11468389183591889
9019,9.0,300.32721000000004,-7024.8658,0.09018994398348168,0.0,0.0,0.0,0.0,0.01376426064840841,0.9253262851600941,0.5589013483017685,0.6511561588391094,0.0005758829437502215,0.0055029113398700645,0.13045094491950587
9020,9.0,300.6985,-6970.4489,0.09019995365817945,0.0,0.0,0.0,0.0,0.013765788266294182,0.9414882930001601,0.5260282827899495,0.6513258377008554,-0.0044244858523627565,0.002175711409725998,0.1085016274107769
9021,9.0,300.18687,-6869.6467,0.09020996333287679,0.0,0.0,0.0,0.0,0.01376731588417987,0.9198875132608292,0.5373414836014755,0.6309720547270934,-0.014128057212080686,-0.003459651881891057,0.12362304766314487
9022,9.0,300.5551,-6923.1502,0.09021997300757434,0.0,0.0,0.0,0.0,0.013768843502065614,0.9246084886567532,0.5443893067920414,0.6354669942907094,-0.007675208198084073,0.008661265502500352,0.11440625117601788
9023,9.0,300.49977,-7148.1016,0.09022994964704156,0.0,0.0,0.0,0.0,0.013770366078308116,0.9333890809758301,0.5615027159460035,0.6779526013812124,0.004543808514613986,0.02153895932422978,0.13201932435179287
9024,9.0,300.30397,-7088.406999999999,0.09023995932173934,0.0,0.0,0.0,0.0,0.013771893696193888,0.9575789579006851,0.5541115022965475,0.6430082702799753,-0.004012743973526996,-0.00048073980300782456,0.11381676253283989
9025,9.0,299.81868,-6868.3748,0.09024996899643667,0.0,0.0,0.0,0.0,0.013773421314079604,0.8992083351499531,0.5470556237676865,0.6415504769636025,0.001220413743895459,-0.002279244291693898,0.1312300126563939
9026,9.0,300.16994,-6922.7223,0.09025994563590412,0.0,0.0,0.0,0.0,0.013774943890322133,0.9309132043564802,0.5522332811161814,0.6211882434840065,0.003216464258515307,-0.008652262268736803,0.1298257594753049
9027,9.0,300.13955,-7174.0487,0.09026995531060167,0.0,0.0,0.0,0.0,0.013776471508207877,0.9523329973629491,0.5655359782340554,0.6628626932069543,0.015499702991701588,0.004031672295995077,0.11594507410288789
9028,9.0,300.18887,-7022.1568,0.090279964985299,0.0,0.0,0.0,0.0,0.013777999126093565,0.9420147270896152,0.5447832786959236,0.6477623080266623,0.0011798428045914188,-0.008043548015511383,0.1124828593061939
9029,9.0,299.91382000000004,-6798.6683,0.09028997465999655,0.0,0.0,0.0,0.0,0.013779526743979309,0.8921544628562902,0.5367226917654055,0.6377482660958533,0.0054352058668630555,-0.00967339423861468,0.1082747708458879
9030,9.0,299.55475,-6901.4606,0.09029995129946378,0.0,0.0,0.0,0.0,0.013781049320221811,0.9331275003300141,0.5275961049346816,0.6371480876641203,-0.0017926873691994684,-0.004463038397467596,0.1236855955918179
9031,9.0,299.9923,-7036.1137,0.09030996097416155,0.0,0.0,0.0,0.0,0.013782576938107582,0.9295088701153831,0.5435985765465025,0.6656954162465223,-0.006685485360106033,0.0012093742827309487,0.11733894147045189
9032,9.0,300.42471,-7139.9543,0.09031997064885888,0.0,0.0,0.0,0.0,0.013784104555993298,0.9691341734985962,0.5615802498436555,0.6396533991988754,0.005027128204363925,-0.002130100057799508,0.13145909837150288
9033,9.0,300.39997999999997,-7167.9441,0.09032994728832633,0.0,0.0,0.0,0.0,0.013785627132235828,0.9566875207277071,0.5565361793883444,0.6656523227197694,-0.0006795925264030604,-0.010390815940743689,0.11896432635336487
9034,9.0,299.84974,-6951.0811,0.09033995696302388,0.0,0.0,0.0,0.0,0.013787154750121572,0.9262713131308611,0.5556348326293885,0.6310489401446814,0.02823739868156427,0.004262570512882956,0.1336092961437109
9035,9.0,299.65398,-6863.6635,0.09034996663772143,0.0,0.0,0.0,0.0,0.013788682368007288,0.8976120609424132,0.5605636458858245,0.6282066317591674,0.005919940256402614,-0.0017884144935277682,0.13234057529599788
9036,9.0,299.67638,-7080.2297,0.09035994327718866,0.0,0.0,0.0,0.0,0.01379020494424979,0.9565335269775092,0.5428502508176485,0.6528292678017324,0.005108719054091315,-0.002119224641826188,0.1085514691831959
9037,9.0,300.20637999999997,-7020.9749,0.09036995295188621,0.0,0.0,0.0,0.0,0.013791732562135534,0.9169199063679492,0.5579348596938835,0.6593462999274133,-0.01691869490874518,-0.017052902924240484,0.12186930425756388
9038,9.0,299.96187000000003,-6763.8821,0.09037996262658377,0.0,0.0,0.0,0.0,0.013793260180021277,0.9087127122804621,0.5290625818044116,0.6182759600465864,0.0027413843185785675,0.0029571288735958977,0.1152230219491269
9039,9.0,299.85481,-6874.7137,0.0903899723012811,0.0,0.0,0.0,0.0,0.013794787797906993,0.9081455050069831,0.5350171182695785,0.6465786900548485,0.012804845800489887,0.006585189609557614,0.1281063247181099
9040,9.0,300.32562,-7152.9818,0.09039994894074854,0.0,0.0,0.0,0.0,0.013796310374149523,0.9548310641594892,0.5600531198229395,0.6594436833945244,0.014244276998550687,0.008275589685137112,0.11452222778246389
9041,9.0,300.60195,-7112.6662,0.0904099586154461,0.0,0.0,0.0,0.0,0.013797837992035267,0.9400112985943921,0.5522650161093136,0.6697966169537795,0.008897678738357522,-0.0033339992436151066,0.1106930441970529
9042,9.0,300.88281,-7049.2497,0.09041996829014365,0.0,0.0,0.0,0.0,0.013799365609920983,0.9365774953305022,0.5661853600906445,0.6400330437463434,-0.005969027258822124,-0.002092189609283038,0.1224456307819429
9043,9.0,300.46823,-7109.6358,0.09042994492961087,0.0,0.0,0.0,0.0,0.013800888186163485,0.9427031900025611,0.5673512461857084,0.6510973295383033,0.0023621703010780577,0.005846570715336604,0.12470154093708388
9044,9.0,300.42613,-6985.9846,0.09043995460430843,0.0,0.0,0.0,0.0,0.013802415804049228,0.9465676042939491,0.5486485238523935,0.6283487502181935,-0.015023075210912085,-0.0047364784264290255,0.11561283952759889
9045,9.0,299.47395,-6992.0638,0.09044996427900598,0.0,0.0,0.0,0.0,0.013803943421934972,0.9304741732206511,0.5531251337217005,0.6418134964245604,-0.014945673035773087,-0.0018174853481718381,0.12011492250441988
9046,9.0,299.59207999999995,-7094.9917,0.09045997395370353,0.0,0.0,0.0,0.0,0.013805471039820716,0.9345378330117032,0.5652366134920105,0.6569258784860363,-0.004924927948927545,-0.0012832305891449988,0.11755631401440488
9047,9.0,299.96218999999996,-6877.3604,0.09046995059317076,0.0,0.0,0.0,0.0,0.013806993616063218,0.9193262436329361,0.5286362365598345,0.6425833537180394,0.012373205310890287,-0.0007247709570918242,0.10885088458774589
9048,9.0,299.94633999999996,-6826.1165,0.09047996026786831,0.0,0.0,0.0,0.0,0.013808521233948962,0.8975957374833021,0.5429672102766915,0.6344060201109994,0.006523698399413904,-0.007834163732696763,0.11746323686021888
9049,9.0,299.88701000000003,-7020.9691,0.09048996994256586,0.0,0.0,0.0,0.0,0.013810048851834678,0.9233638324989152,0.5456015794766834,0.6652338808259725,0.0098144358154344,-0.01090122649311729,0.1140365972745359
9050,9.0,300.1336,-7150.8292,0.09049994658203309,0.0,0.0,0.0,0.0,0.013811571428077207,0.9545151429108101,0.5620004345276245,0.6571579431564394,0.00930005504519397,0.0056986373153117146,0.11854798188727489
9051,9.0,300.19858,-7090.0806,0.09050995625673042,0.0,0.0,0.0,0.0,0.013813099045962923,0.9208655326548522,0.5724913727504994,0.6618505678145654,0.006012497106662264,0.00967843829893749,0.13644446111601988
9052,9.0,300.77365,-7021.3627,0.09051996593142797,0.0,0.0,0.0,0.0,0.013814626663848667,0.9464990680571851,0.5401561099942574,0.6476637694544374,0.013962223634464185,0.009585043794820171,0.1114092093677329
9053,9.0,300.59118,-6960.5213,0.09052994257089542,0.0,0.0,0.0,0.0,0.013816149240091197,0.9310821840756571,0.5470941374039875,0.6376483393709914,-0.003187858586992147,-0.003448099716175947,0.11702232107920389
9054,9.0,300.06005,-6849.3803,0.09053995224559275,0.0,0.0,0.0,0.0,0.013817676857976913,0.9192625507316502,0.5423367154019665,0.6204413059077895,-0.014053478964970386,0.003163863203423987,0.11957272224340888
9055,9.0,299.86995,-6920.0515,0.0905499619202903,0.0,0.0,0.0,0.0,0.013819204475862656,0.9137730352673772,0.5424852072041214,0.6472646198425444,-0.008181105430537242,0.002590755267987638,0.13041337360579788
9056,9.0,299.68804,-7011.5864,0.09055997159498785,0.0,0.0,0.0,0.0,0.013820732093748372,0.9545650657432371,0.5475495223964305,0.6292325880154214,-0.01068412853994139,0.01042010900113469,0.11230923890155889
9057,9.0,299.86723,-6822.4471,0.0905699482344553,0.0,0.0,0.0,0.0,0.013822254669990902,0.9024062031280581,0.5260491456095084,0.6453981928933424,0.013895152557344786,-0.002362499607360558,0.12669415805373987
9058,9.0,299.76615,-6873.8058,0.09057995790915263,0.0,0.0,0.0,0.0,0.013823782287876618,0.9195240300524561,0.5479111918871244,0.6220301023295914,0.01070619003436869,0.00927165607669121,0.12513565780992789
9059,9.0,299.92303,-7164.0968,0.09058996758385018,0.0,0.0,0.0,0.0,0.013825309905762362,0.9468743252317201,0.5468234780372755,0.6840087263014053,0.011152772923192989,0.010658294715391791,0.11146462401570191
9060,9.0,300.19916,-7278.4161,0.09059994422331763,0.0,0.0,0.0,0.0,0.013826832482004892,0.961444365177171,0.5697498726174344,0.6812625145553753,-0.0033725074083655673,-0.005974124413450175,0.10843402336410489
9061,9.0,300.32538999999997,-7130.7726,0.09060995389801518,0.0,0.0,0.0,0.0,0.013828360099890635,0.941885953134406,0.5584306024378095,0.6672602493034593,-0.006968542956366643,-0.013024499170417987,0.10886952838958588
9062,9.0,300.2667,-7050.1102,0.09061996357271251,0.0,0.0,0.0,0.0,0.013829887717776351,0.9470047406520911,0.5526544993152525,0.6433982195809603,-0.007712432068332783,0.0032754422031109763,0.13475031708132088
9063,9.0,300.80003999999997,-7037.425,0.09062997324741007,0.0,0.0,0.0,0.0,0.013831415335662067,0.9318120483876892,0.5636602091189316,0.6437292078586263,-0.008077123982750073,0.006475121568419744,0.11566674443291888
9064,9.0,299.76016,-6974.7725,0.09063994988687751,0.0,0.0,0.0,0.0,0.013832937911904597,0.9389078185729871,0.5483738317502835,0.6328750093424004,-9.611405826646901e-05,0.009165444060133901,0.12863773386555588
9065,9.0,299.8421,-6957.6159,0.09064995956157484,0.0,0.0,0.0,0.0,0.013834465529790313,0.9287633308243042,0.5390570376107875,0.6471211436283844,-0.0007417533732728582,0.004054767812149426,0.10507665968775891
9066,9.0,299.6221,-6833.8519,0.0906599692362724,0.0,0.0,0.0,0.0,0.013835993147676057,0.9016324245566921,0.5499840584117005,0.6257038736146644,0.016360876410692785,0.017337306015308883,0.13174391284211187
9067,9.0,299.33743,-6845.3788,0.09066994587573984,0.0,0.0,0.0,0.0,0.013837515723918586,0.9056437702450811,0.5377584056201226,0.6374220603586593,-0.005088751542320675,-0.0009401745635830049,0.11863030845789989
9068,9.0,299.93007,-7204.0758,0.0906799555504374,0.0,0.0,0.0,0.0,0.01383904334180433,0.9604608539676062,0.5724432535032504,0.6569550600889164,-0.002397096829375038,0.004409463001080116,0.13604764197935687
9069,9.0,300.04272000000003,-7411.7412,0.09068996522513473,0.0,0.0,0.0,0.0,0.013840570959690046,0.9803512878031391,0.5827456765450204,0.6898872994065753,-0.01073846711630419,-0.002797257360892807,0.11835330614556189
9070,9.0,299.6826,-7051.8099,0.0906999418646024,0.0,0.0,0.0,0.0,0.013842093535932604,0.9607552233866581,0.5505735571873795,0.6322453352002564,0.005626153557483125,0.0005992809657219265,0.12981980156471687
9071,9.0,299.96492,-6858.3714,0.09070995153929973,0.0,0.0,0.0,0.0,0.013843621153818292,0.9098625282289401,0.5440621182022505,0.6308489955024483,0.008502000217332092,0.001030659053943129,0.1158801653014819
9072,9.0,300.00764,-6972.8746,0.09071996121399728,0.0,0.0,0.0,0.0,0.013845148771704036,0.9452001928864961,0.5341941261408555,0.6401854466938844,0.007790095155372533,0.0020310080483698883,0.1092595486180779
9073,9.0,300.12997,-7020.1266,0.09072997088869461,0.0,0.0,0.0,0.0,0.013846676389589752,0.9357886193326461,0.5458283955115685,0.6523261789945813,0.006704187829126823,-0.001002503468114389,0.1158909361500449
9074,9.0,300.22725,-6955.4668,0.09073994752816228,0.0,0.0,0.0,0.0,0.013848198965832309,0.9267597908715701,0.5597961697300805,0.6277322584598504,0.00027610479566442177,-0.0025469407124634777,0.13812105565898686
9075,9.0,300.03004,-6926.0049,0.09074995720285961,0.0,0.0,0.0,0.0,0.013849726583718025,0.9225478925908882,0.5427093989212475,0.6400752557455094,-0.003199411056682287,0.006347511837575644,0.12496791425587288
9076,9.0,300.11276000000004,-6920.4074,0.09075996687755694,0.0,0.0,0.0,0.0,0.013851254201603713,0.9363585015863892,0.5460620509846286,0.6212104944562024,-0.004108208446273606,0.008450679809042162,0.13005774308569987
9077,9.0,300.14585,-7064.4098,0.09076994351702461,0.0,0.0,0.0,0.0,0.013852776777846298,0.9356712951035671,0.5494398113854875,0.6622930642657363,-0.014367792185740686,0.009811928730711971,0.11441037510392488
9078,9.0,300.19797,-7200.6738,0.09077995319172194,0.0,0.0,0.0,0.0,0.013854304395731987,0.9618125498660081,0.5623862902982054,0.6646262043434994,-0.02147902659406488,0.006006134402659314,0.11857350565729388
9079,9.0,299.78667,-7040.9914,0.0907899628664195,0.0,0.0,0.0,0.0,0.01385583201361773,0.9291439987543731,0.5466558256757295,0.6644857678796393,-0.013835841962741286,-0.006559798777951734,0.1109225149471999
9080,9.0,299.47061,-6904.6816,0.09079997254111682,0.0,0.0,0.0,0.0,0.013857359631503446,0.9237305175776042,0.5390789136804465,0.6360413551098943,0.012662915805982488,-0.005198174852419915,0.11833321339607888
9081,9.0,299.68242000000004,-6997.525,0.09080994918058427,0.0,0.0,0.0,0.0,0.013858882207746004,0.9407675884690321,0.5471687734063535,0.6391364997928614,0.02119635312091718,-7.054782800202853e-05,0.1055737500543179
9082,9.0,300.2087,-7141.8428,0.09081995885528182,0.0,0.0,0.0,0.0,0.01386040982563172,0.9609410129249941,0.5615392436121085,0.6484616127156784,0.014627213595593587,-0.004970258934551365,0.1193664346555499
9083,9.0,299.50626,-6998.3481,0.09082996852997915,0.0,0.0,0.0,0.0,0.013861937443517464,0.9238431301937181,0.5529639864257965,0.6505159468959254,0.01097171728932419,-0.001989899478562788,0.12245981628334288
9084,9.0,299.49369,-6903.5749,0.0908399451694466,0.0,0.0,0.0,0.0,0.013863460019759993,0.928448584945741,0.5431963567868064,0.6268694354696963,-0.003127002482011117,0.007819372206411952,0.12373301569649788
9085,9.0,299.40067999999997,-7003.79,0.09084995484414415,0.0,0.0,0.0,0.0,0.01386498763764571,0.9255393615236231,0.5414139586683975,0.6620239349066753,-0.0005419367551899936,0.011090919070838489,0.11831516741179787
9086,9.0,300.38367999999997,-7053.3513,0.09085996451884149,0.0,0.0,0.0,0.0,0.013866515255531425,0.9234662720840251,0.5760028517670555,0.6445735592994575,-0.019938048484232182,-0.0066084999347331645,0.14404597482373085
9087,9.0,300.85674,-7089.8058,0.09086997419353904,0.0,0.0,0.0,0.0,0.013868042873417141,0.9311505683249062,0.5648761295039334,0.6590972227878313,-0.01135546448644709,-0.009895592082193901,0.12745016421835187
9088,9.0,300.92592,-7137.9673,0.09087995083300648,0.0,0.0,0.0,0.0,0.013869565449659699,0.9595448252147011,0.5476480609686555,0.6625709278406593,0.001981256556534798,-0.010440315234628891,0.1120672545126769
9089,9.0,299.79868999999997,-6999.0758,0.09088996050770382,0.0,0.0,0.0,0.0,0.013871093067545415,0.9198258772572462,0.5458515685413554,0.6618668406111713,0.013528521180911086,0.004382510447095106,0.10888680430379091
9090,9.0,299.58296,-6840.5457,0.09089997018240137,0.0,0.0,0.0,0.0,0.01387262068543113,0.9294784219498782,0.5267785843564985,0.6230980780674924,0.009846122780511661,0.01114852537877379,0.12202056223249189
9091,9.0,299.82007999999996,-7111.1804,0.09090994682186881,0.0,0.0,0.0,0.0,0.013874143261673688,0.9303546502388551,0.5635973774802305,0.6676692477063243,-0.004526051914561546,0.024788705707454776,0.11688902802854889
9092,9.0,300.24854,-7106.321,0.09091995649656637,0.0,0.0,0.0,0.0,0.013875670879559404,0.9569318153268171,0.5570602323400645,0.6461521117627484,-0.0016543945372510284,0.007904468394860293,0.13162514979789086
9093,9.0,299.98155,-6926.3179,0.0909299661712637,0.0,0.0,0.0,0.0,0.01387719849744512,0.928820569322453,0.5358452678413105,0.6407618542782714,0.003757250123711716,-0.0009052343057471702,0.1153263633268259
9094,9.0,299.67307,-7022.0119,0.09093994281073137,0.0,0.0,0.0,0.0,0.013878721073687678,0.937258804697742,0.5717042902053205,0.6255531931922934,0.014531129115110786,-0.016582118556777686,0.13642297008139886
9095,9.0,300.22315,-7136.0975,0.0909499524854287,0.0,0.0,0.0,0.0,0.013880248691573394,0.9379804008889581,0.5589414324757245,0.6722736284132413,0.002787691570673737,-0.026820223521949973,0.1091298424727769
9096,9.0,300.83829,-7151.5239,0.09095996216012625,0.0,0.0,0.0,0.0,0.013881776309459137,0.9547285131168681,0.5690083356642505,0.6501478533995974,-0.0016976900047489584,-0.011443402436125887,0.12557657359094287
9097,9.0,301.31895,-7172.2907,0.09096997183482358,0.0,0.0,0.0,0.0,0.013883303927344826,0.9390554896425611,0.5555371654522495,0.6856046154739074,-0.012893005651940587,0.018030986153019783,0.1080585939370529
9098,9.0,300.5646,-7040.3174,0.09097994847429125,0.0,0.0,0.0,0.0,0.01388482650358741,0.9446114439158911,0.5508979593393954,0.6445712794867324,0.0027891796297705974,0.015113429762079385,0.13556839494705886
9099,9.0,299.66499,-6864.6121,0.09098995814898858,0.0,0.0,0.0,0.0,0.013886354121473099,0.9061731731573291,0.5513859912500604,0.6291114944959704,-0.0005348657387046385,0.015250107068068383,0.12332882009910687
9100,9.0,299.82632,-7012.4438,0.09099996782368591,0.0,0.0,0.0,0.0,0.013887881739358815,0.9307021848906541,0.5554795317865615,0.6454260775360944,0.010131983431848911,-0.007390112449247313,0.12313471177744988
9101,9.0,300.1199,-7210.9209,0.09100994446315358,0.0,0.0,0.0,0.0,0.013889404315601372,0.9588813794467241,0.5514064791670825,0.6816520281588173,0.004745869734980875,-0.0026916223902674476,0.10566686773850789
9102,9.0,299.77092999999996,-7072.473000000001,0.09101995413785091,0.0,0.0,0.0,0.0,0.013890931933487088,0.947939028171798,0.5807728380703164,0.6211433159745724,0.005504991846300395,-0.00965379808300569,0.1340986655445079
9103,9.0,299.71918999999997,-6947.5477,0.09102996381254846,0.0,0.0,0.0,0.0,0.013892459551372832,0.90948985484216,0.5643622901132215,0.6380288755785474,0.011450798148605789,-0.0030203796938632673,0.13110378195893588
9104,9.0,299.64499,-7171.3305,0.0910399734872458,0.0,0.0,0.0,0.0,0.01389398716925852,0.959281744958737,0.5716857173309874,0.6489379314551874,0.003402922845892337,0.001195889747750129,0.1228803049423419
9105,9.0,300.41305,-7242.7211,0.09104995012671346,0.0,0.0,0.0,0.0,0.013895509745501106,0.9543740377018841,0.5773482553823365,0.6698840807024115,-0.003209425615370647,0.0012998716008373386,0.12214967056023389
9106,9.0,300.76034,-7015.6103,0.0910599598014108,0.0,0.0,0.0,0.0,0.013897037363386794,0.9352245227369741,0.5422438307652995,0.6551019877760323,0.012845532858255387,-0.015887863906260086,0.11649203663936888
9107,9.0,299.99485,-6845.9788,0.09106996947610835,0.0,0.0,0.0,0.0,0.013898564981272538,0.903666665987456,0.5336593226055745,0.6436806427813334,0.004688104144129856,-0.01098476187111159,0.11380010470119589
9108,9.0,300.02512,-6789.5786,0.0910799461155758,0.0,0.0,0.0,0.0,0.013900087557515067,0.9130825559867322,0.5189351774524145,0.6318446353157104,0.00939005840387661,0.0008287239528161863,0.10361843067384291
9109,9.0,300.58247,-7039.842,0.09108995579027335,0.0,0.0,0.0,0.0,0.013901615175400811,0.9357718703084931,0.5467129527163676,0.6574513499878964,-0.02052758475016488,0.005080279656909565,0.11984335121261788
9110,9.0,300.2742,-7387.4285,0.09109996546497068,0.0,0.0,0.0,0.0,0.013903142793286527,0.9936089358215672,0.5842166927751985,0.6677681611810864,-0.003951567478864346,0.018749029889385184,0.13384095551407388
9111,9.0,300.76892000000004,-7230.6261,0.09110994210443812,0.0,0.0,0.0,0.0,0.013904665369529084,0.9611642217895231,0.5711110728017744,0.6656544708099814,-0.004876212100019665,0.002401193298204328,0.1284786130698519
9112,9.0,300.21145,-6853.7784,0.09111995177913546,0.0,0.0,0.0,0.0,0.0139061929874148,0.9021962678398392,0.5479501513534695,0.6332310856925424,0.017390860336094285,-0.005471920578936515,0.12784777369009287
9113,9.0,299.75127000000003,-7012.7761,0.09112996145383301,0.0,0.0,0.0,0.0,0.013907720605300489,0.9284873924245712,0.5498533896788045,0.6533680432774054,0.004439655320934866,-0.009085469749616052,0.1165303476256499
9114,9.0,299.98866,-7281.6467,0.09113997112853056,0.0,0.0,0.0,0.0,0.013909248223186232,0.976166818202664,0.5677794456779685,0.6694925203337674,0.006525882358679444,-0.017509382226791482,0.10948388219021789
9115,9.0,300.11041,-6957.8355,0.09114994776799779,0.0,0.0,0.0,0.0,0.013910770799428762,0.9133380469994471,0.5593760661061193,0.6422941316094953,0.005804551132364594,-0.002008169897740938,0.1271959093707589
9116,9.0,299.65752000000003,-6733.9732,0.09115995744269534,0.0,0.0,0.0,0.0,0.013912298417314506,0.9056472355604231,0.5316888146061005,0.6096236553226704,-0.006469905762204984,-0.000980592400796935,0.11702042630151688
9117,9.0,299.77232000000004,-6977.4917,0.09116996711739267,0.0,0.0,0.0,0.0,0.013913826035200222,0.9276597798753922,0.5402265308762074,0.6530969279481484,0.004168562080530046,0.01002723171133572,0.12632990477529088
9118,9.0,299.50829,-7236.221,0.09117994375686034,0.0,0.0,0.0,0.0,0.01391534861144278,0.9699519777868071,0.5667825089045785,0.6628959886052403,-0.014882535395541885,-0.003944248874717057,0.1280788251103959
9119,9.0,299.8792,-7209.6184,0.09118995343155767,0.0,0.0,0.0,0.0,0.013916876229328495,0.9576092135486711,0.5638768723878145,0.6700578834920644,-0.0006462178108992323,-0.0009309777382553493,0.12699924765884987
9120,9.0,300.23275,-7134.3793,0.09119996310625522,0.0,0.0,0.0,0.0,0.013918403847214211,0.945808203741502,0.5584257894998345,0.6644391583750393,-0.003527104954298156,-0.017498046997922786,0.10532251469202289
9121,9.0,299.9639,-6980.0222,0.09120997278095255,0.0,0.0,0.0,0.0,0.013919931465099927,0.9246758596559022,0.5469178825490925,0.6501587255731704,0.008720465855492972,0.01041444290657549,0.13223906790097986
9122,9.0,299.897,-6985.5948,0.09121994942042022,0.0,0.0,0.0,0.0,0.013921454041342485,0.947459760874498,0.5446241984302235,0.6313624295931204,-0.003255055104473927,0.013111149279219686,0.13271449498040086
9123,9.0,299.94785,-7104.8159,0.09122995909511755,0.0,0.0,0.0,0.0,0.0139229816592282,0.9375551600869901,0.5638617344313205,0.6582697419611654,0.00016250404792040086,0.0027264272272274175,0.13741214535902285
9124,9.0,300.05681,-6938.0438,0.09123996876981488,0.0,0.0,0.0,0.0,0.013924509277113917,0.9303238170383121,0.5348906950546015,0.6437775702858994,-0.005095524815264146,0.001972527305598288,0.1109337113608049
9125,9.0,300.28912,-6778.5913,0.09124994540928255,0.0,0.0,0.0,0.0,0.013926031853356474,0.901129376279545,0.5287713939906735,0.6306217133725174,0.007098101673778092,0.0014595281018692085,0.10749737497166491
9126,9.0,299.69728,-7093.528,0.09125995508397988,0.0,0.0,0.0,0.0,0.01392755947124219,0.946730393055015,0.5645507951618255,0.6449742186539994,0.0069814497361404436,-0.0023406603186801878,0.12336766810794089
9127,9.0,299.42918,-7400.0533,0.09126996475867744,0.0,0.0,0.0,0.0,0.013929087089127906,0.9729602362736992,0.5767453411753335,0.6997258565525653,0.0063559952740378945,-0.008139085239615172,0.09792108038880822
9128,9.0,299.41407000000004,-7266.4438,0.09127994139814466,0.0,0.0,0.0,0.0,0.013930609665370408,0.9694912934963411,0.5738797685675234,0.6654464100344474,0.006268824050709764,-0.008235524458957982,0.12135424896673187
9129,9.0,299.08628999999996,-7109.8295,0.09128995107284243,0.0,0.0,0.0,0.0,0.01393213728325618,0.929744177186106,0.5627973861287775,0.6686690925075014,0.002445316895008988,0.004055215263393586,0.12354921212835789
9130,9.0,298.76464,-7081.2652,0.09129996074753977,0.0,0.0,0.0,0.0,0.013933664901141896,0.960842119715234,0.5436497963390575,0.6480358956861634,-0.00962942425052518,0.006068783960317343,0.13567039883462587
9131,9.0,299.55846,-6989.7352,0.09130997042223732,0.0,0.0,0.0,0.0,0.01393519251902764,0.9381528053934731,0.5483854841264335,0.6381666775921474,-0.005810059565208235,0.013211013182575488,0.12473842324072389
9132,9.0,300.02547000000004,-6905.2883,0.09131994706170476,0.0,0.0,0.0,0.0,0.013936715095270169,0.9165928697656731,0.5408229906800736,0.6416193678379014,-0.015054868972549883,0.003337133631474447,0.1283782202499439
9133,9.0,299.82642000000004,-6934.4890000000005,0.09132995673640232,0.0,0.0,0.0,0.0,0.013938242713155913,0.9181999654842812,0.5379658584455964,0.6517456880122914,-0.006673183287991914,0.01100647278100429,0.12160746016672189
9134,9.0,299.89771,-6896.5207,0.09133996641109965,0.0,0.0,0.0,0.0,0.013939770331041601,0.9126925661557431,0.5586232415468215,0.6250542789755544,-0.006555413431518934,0.006038079645187064,0.14837588634355986
9135,9.0,300.23257,-6992.5728,0.0913499430505671,0.0,0.0,0.0,0.0,0.01394129290728413,0.922259156842392,0.5540557127460415,0.6492526570687484,0.008996598393945131,0.0036936101140809365,0.13832885298949485
9136,9.0,300.22798,-7231.1796,0.09135995272526465,0.0,0.0,0.0,0.0,0.013942820525169874,0.96653948317252,0.5680434175940204,0.6635151148138434,0.003795164827878606,-0.0064026634458186835,0.10848250738138988
9137,9.0,300.01869,-7256.4161,0.09136996239996198,0.0,0.0,0.0,0.0,0.01394434814305559,0.9463048077480132,0.5845752009255805,0.6748892828838864,0.006043778873024534,-0.0015123804429853283,0.1060098123673539
9138,9.0,299.72444,-7050.2141,0.09137997207465953,0.0,0.0,0.0,0.0,0.013945875760941334,0.9206567018092422,0.5591300185843364,0.6633023120278414,0.009722303314316632,0.0019061468597470481,0.1094858174979089
9139,9.0,299.22823999999997,-7046.0654,0.09138994871412698,0.0,0.0,0.0,0.0,0.013947398337183864,0.9337170193706952,0.5546285131600724,0.6534824189486933,-0.00011786029917690589,-0.006541535654174304,0.11177347277868291
9140,9.0,298.98716,-7069.8571,0.09139995838882453,0.0,0.0,0.0,0.0,0.013948925955069608,0.9448994501243151,0.5402140273699735,0.6639465263089204,0.003130558483237067,-0.0011746644886303588,0.10751820739372091
9141,9.0,299.52866,-7004.815,0.09140996806352186,0.0,0.0,0.0,0.0,0.013950453572955296,0.93894533922419,0.5421817793291754,0.6481617312160823,-0.013340339359088986,-0.004691342491449456,0.12803305660337888
9142,9.0,299.45984,-7046.1414,0.09141994470298931,0.0,0.0,0.0,0.0,0.013951976149197826,0.9491029789591711,0.5552760002389745,0.6374720642510944,-0.017640440047725883,0.011449338055211688,0.14234887209873986
9143,9.0,299.93719,-7048.2021,0.09142995437768664,0.0,0.0,0.0,0.0,0.01395350376708357,0.9468481732466392,0.5446658632743355,0.6509633981400854,-0.019046539370497082,-0.002804127703195857,0.1270475999536219
9144,9.0,300.13631000000004,-6947.2545,0.09143996405238419,0.0,0.0,0.0,0.0,0.013955031384969313,0.9195118001237491,0.5466432715069904,0.6456368335568944,0.005758564776576094,0.008065450733648012,0.12183816708199088
9145,9.0,299.84732,-7119.6454,0.09144997372708175,0.0,0.0,0.0,0.0,0.013956559002855029,0.9328700537446061,0.5684604713351805,0.6628638888420724,0.0003638921358483577,0.008931732756993393,0.11942596309892488
9146,9.0,299.67402000000004,-7282.731,0.09145995036654897,0.0,0.0,0.0,0.0,0.013958081579097559,0.9408578082579361,0.5793441047668114,0.6935664510496794,-0.0015019096177769386,-0.003935061736060356,0.1063229370457569
9147,9.0,300.14141,-7054.6037,0.09146996004124652,0.0,0.0,0.0,0.0,0.013959609196983302,0.9360550129164371,0.5597525189157725,0.6486158496459005,0.002354837004804318,-0.01891207601597658,0.12237153180212988
9148,9.0,300.24292,-6952.8862,0.09147996971594385,0.0,0.0,0.0,0.0,0.01396113681486899,0.9337162087706152,0.5349231089253005,0.6448644735356683,0.0019438618523192285,-0.0077105254356196135,0.09891337445024
9149,9.0,299.80519,-7133.0558,0.0914899463554113,0.0,0.0,0.0,0.0,0.01396265939111152,0.9526022280470201,0.5521095734114725,0.6635590392056784,0.017007377597247485,0.00015330278455730686,0.1089494434249729
9150,9.0,300.23512999999997,-7188.0895,0.09149995603010885,0.0,0.0,0.0,0.0,0.013964187008997264,0.9445413878039771,0.5807692106349585,0.6596891432312494,-0.004886559106065835,-0.0035728264465105164,0.12518570223236689
9151,9.0,300.64667000000003,-6953.4526,0.0915099657048064,0.0,0.0,0.0,0.0,0.013965714626883008,0.929882891124796,0.5430488174397454,0.6407442439915334,-0.0017711925855530982,-0.0011320767763272788,0.14332377068245486
9152,9.0,301.02195,-6907.3367,0.09151994234427363,0.0,0.0,0.0,0.0,0.01396723720312551,0.9232410265867951,0.5484776696205315,0.6279391742627715,-0.010829353623773989,0.00045811456662238754,0.14582028720634185
9153,9.0,300.3113,-6956.2648,0.09152995201897118,0.0,0.0,0.0,0.0,0.013968764821011254,0.9339643739851071,0.5487080725607705,0.6318583344570624,-0.001004552736044136,0.008474003610444042,0.1358912265614199
9154,9.0,299.99164,-7014.5678,0.09153996169366874,0.0,0.0,0.0,0.0,0.013970292438896997,0.9388810383728441,0.5626996074941275,0.6306728115750604,0.0013373642863375786,0.0004175167660581966,0.14414967083896488
9155,9.0,299.91587999999996,-7136.5174,0.09154997136836629,0.0,0.0,0.0,0.0,0.013971820056782713,0.9302497484560022,0.5761138533155105,0.6629594788565064,0.008119466285878932,0.002745482003307977,0.1173863919726349
9156,9.0,299.66245,-7023.3548,0.09155994800783351,0.0,0.0,0.0,0.0,0.013973342633025215,0.9402297553159522,0.5353710262645065,0.6593237044501834,-0.0015999483537276083,0.009399877607945691,0.09687449132076792
9157,9.0,299.48955,-6889.6307,0.09156995768253107,0.0,0.0,0.0,0.0,0.013974870250910959,0.9060024303829781,0.5390284436929654,0.6492448145129743,0.015308928262873587,-0.0018633339019467382,0.10136446595889391
9158,9.0,299.76552000000004,-7176.8453,0.09157996735722862,0.0,0.0,0.0,0.0,0.013976397868796703,0.9347658142842032,0.5716275973052515,0.6751883639159033,-0.0038777283977019968,-0.008197661633196213,0.11395084591857288
9159,9.0,300.04711000000003,-7417.7105,0.09158994399669607,0.0,0.0,0.0,0.0,0.013977920445039232,0.990113526951597,0.5751014948755985,0.6895837499416173,0.006282165920076504,-0.013595425071763987,0.11195480401657888
9160,9.0,300.4368,-7094.6963,0.0915999536713934,0.0,0.0,0.0,0.0,0.013979448062924948,0.9513625874771772,0.5582586437633384,0.6469892995253724,-0.002989720164387407,-0.011776921812541688,0.11532632279682188
9161,9.0,300.56023,-6890.9929,0.09160996334609095,0.0,0.0,0.0,0.0,0.013980975680810692,0.9228656072922441,0.5406008153306465,0.6312233610168954,0.0028308177240799577,0.0032387093538607265,0.1308326868946809
9162,9.0,300.46792999999997,-7031.4765,0.0916199730207885,0.0,0.0,0.0,0.0,0.013982503298696408,0.9417740599258632,0.5508354114107225,0.6447838188277084,-0.012548112543152289,0.0024689518655165773,0.13028658562078488
9163,9.0,300.0056,-7086.6946,0.09162994966025573,0.0,0.0,0.0,0.0,0.01398402587493891,0.934054401256492,0.5706706940433124,0.6494530982035304,0.0033678043067014063,0.01020036747844789,0.13865618343429986
9164,9.0,299.98842,-6948.9685,0.09163995933495328,0.0,0.0,0.0,0.0,0.013985553492824654,0.9305496096905961,0.5403058582265364,0.6414574302069193,-0.01987793438229938,0.011469942495995188,0.12509925173383488
9165,9.0,299.95533,-6944.3885,0.09164996900965083,0.0,0.0,0.0,0.0,0.013987081110710398,0.9340646249500012,0.5433071455527404,0.6335489219839103,-0.00026478788635752974,0.004262085672710106,0.1165799056880409
9166,9.0,299.58918,-6997.1762,0.09165994564911828,0.0,0.0,0.0,0.0,0.013988603686952927,0.9268977854026892,0.5520324650788625,0.6480366049612334,-0.007156636422780024,-0.0096134242208461,0.1193560488420249
9167,9.0,299.78787,-7046.696999999999,0.09166995532381561,0.0,0.0,0.0,0.0,0.013990131304838643,0.9156548433530972,0.5697172966267194,0.6566477919960914,0.014192405686181386,-0.009650606142540671,0.1160618815744159
9168,9.0,300.03085,-7233.3278,0.09167996499851316,0.0,0.0,0.0,0.0,0.013991658922724387,0.9504983054068791,0.5734839930784635,0.6747687365194894,0.015991314714969885,0.0013706201678696788,0.11298914998366089
9169,9.0,299.86471,-7171.3382,0.09168994163798061,0.0,0.0,0.0,0.0,0.013993181498966917,0.943415778400388,0.5598890948967514,0.6766028813205053,-0.0007603919366098414,0.002054739378961988,0.11255038229285791
9170,9.0,299.80372,-6856.914000000001,0.09169995131267816,0.0,0.0,0.0,0.0,0.013994709116852633,0.9213601202936641,0.5391564273130964,0.6238140811181564,-0.0034603231600823067,-0.001769849522545548,0.14623428093219987
9171,9.0,300.30895,-6944.2605,0.0917099609873755,0.0,0.0,0.0,0.0,0.013996236734738349,0.937414936405651,0.5502581324312494,0.6232087249784124,-0.004000593280977816,-0.004841777403321225,0.13526773324488586
9172,9.0,300.12086,-7120.9587,0.09171997066207305,0.0,0.0,0.0,0.0,0.013997764352624092,0.9532765257235681,0.5467632504513315,0.6645538582863593,0.007992080179331902,0.014120455809830486,0.12355966886938986
9173,9.0,300.19867,-7020.954000000001,0.0917299473015405,0.0,0.0,0.0,0.0,0.013999286928866622,0.9362517658208551,0.5566880757108355,0.6412548511144264,0.002193940184325038,0.0034163497269424667,0.13053286619009088
9174,9.0,300.14652,-6939.496,0.09173995697623782,0.0,0.0,0.0,0.0,0.014000814546752338,0.9205712442958082,0.5387564873661256,0.6501057629904433,-0.004139077110570106,0.0037891541269603965,0.1266961440239359
9175,9.0,300.48283,-7092.275,0.09174996665093538,0.0,0.0,0.0,0.0,0.014002342164638054,0.9335872524303881,0.5688774744138355,0.6534097587840223,-0.0041880123281246365,0.0001308379456626999,0.11495283880996189
9176,9.0,299.76954,-7228.7778,0.09175994329040282,0.0,0.0,0.0,0.0,0.014003864740880612,0.9479394740018422,0.5773798383879535,0.6720486463610373,0.004785087478776365,0.012307810149436289,0.10103962202983431
9177,9.0,300.21019,-7230.0332,0.09176995296510015,0.0,0.0,0.0,0.0,0.014005392358766328,0.9634985473699031,0.5608832756298694,0.6733677460037224,-0.0072868816171342225,0.004607756248300136,0.10860532342601091
9178,9.0,299.92512999999997,-7239.368,0.09177996263979771,0.0,0.0,0.0,0.0,0.014006919976652044,0.95125571998913,0.5754202126945535,0.6739111824298554,-0.007386410742656983,-0.018128100095604182,0.1115472038988519
9179,9.0,299.84769,-7019.7423,0.09178997231449526,0.0,0.0,0.0,0.0,0.014008447594537815,0.926033067634848,0.5531752997341515,0.6546179987332663,-0.0038244918321479566,-0.015189927104879087,0.12102134564637688
9180,9.0,299.46992,-6916.9846,0.09179994895396248,0.0,0.0,0.0,0.0,0.014009970170780317,0.9162410085359473,0.5479386205673314,0.6384109721912574,0.016282365739944384,-0.0016919083996783583,0.11686421353359988
9181,9.0,299.89637999999997,-7109.5557,0.09180995862866004,0.0,0.0,0.0,0.0,0.01401149778866606,0.945348117268595,0.5582641355788804,0.6575151442141923,0.007559536579918173,0.0014744899554958283,0.12512798750667087
9182,9.0,299.47964,-7156.076,0.09181996830335759,0.0,0.0,0.0,0.0,0.014013025406551805,0.9615990985999421,0.5479280523687885,0.6657412658135474,-0.005983484108598904,-0.018610225771436284,0.1264261635347909
9183,9.0,299.79163,-6892.4867,0.09182994494282504,0.0,0.0,0.0,0.0,0.014014547982794334,0.9216173135665472,0.5533044789894005,0.6202220588511514,-0.014566461146097786,-0.010336977909930292,0.15423967612977085
9184,9.0,299.9232,-6865.5921,0.09183995461752237,0.0,0.0,0.0,0.0,0.014016075600680022,0.9053619853922711,0.5411161340665045,0.6404904552389864,0.005778183223687285,0.01137172917705229,0.12702376831126988
9185,9.0,299.8682,-7116.3693,0.0918499642922197,0.0,0.0,0.0,0.0,0.014017603218565738,0.9436534362113432,0.5643526946347744,0.6551924406124594,0.0010285492645849092,0.012521331329759187,0.12773973083192988
9186,9.0,299.67704,-7172.1586,0.09185997396691747,0.0,0.0,0.0,0.0,0.01401913083645151,0.9405167280092741,0.5784518975237575,0.6611885101992253,-0.009377060228943792,0.0017189020916174283,0.11941501999784489
9187,9.0,300.52981,-7064.0459,0.0918699506063847,0.0,0.0,0.0,0.0,0.014020653412694012,0.9391760360069582,0.5490770171871825,0.6590405010472333,-0.014812764006905985,-0.0013813585924294788,0.12279069310349788
9188,9.0,300.44487000000004,-7052.7383,0.09187996028108225,0.0,0.0,0.0,0.0,0.014022181030579756,0.9391455473114492,0.5504954862671745,0.6542153027460234,-0.0032670242226051868,0.006436137480097313,0.1052528537476479
9189,9.0,299.99064,-6961.9113,0.0918899699557798,0.0,0.0,0.0,0.0,0.014023708648465472,0.9343302383312152,0.5501121534893425,0.6318048044542794,0.0012826664114893188,0.0021120471834178275,0.13465122122154086
9190,9.0,300.10461000000004,-7127.1107,0.09189994659524725,0.0,0.0,0.0,0.0,0.014025231224708029,0.9355238570815162,0.5676403973667455,0.6632994242650564,-0.004153473266665896,-0.02166411395008158,0.1288291469419469
9191,9.0,300.04945,-7237.4086,0.09190995626994458,0.0,0.0,0.0,0.0,0.014026758842593717,0.973247685194568,0.5667841605022415,0.6599596506104464,0.008858547830095601,-0.008175171027351562,0.1273184315728509
9192,9.0,299.82308,-6975.5356,0.09191996594464213,0.0,0.0,0.0,0.0,0.014028286460479461,0.92642835676386,0.5382764297337475,0.6556838466459574,0.007996725424415353,0.0012821751878408388,0.10716826120668389
9193,9.0,299.82287,-6843.8135,0.09192994258410958,0.0,0.0,0.0,0.0,0.01402980903672199,0.9112720199130462,0.5437898781653825,0.6252865158984744,0.005427970754524005,0.014291925084503186,0.11685691813287989
9194,9.0,300.124,-7197.8076,0.09193995225880713,0.0,0.0,0.0,0.0,0.014031336654607734,0.9567097007723961,0.5726863929972464,0.6585576975070844,-0.014868575848914186,-0.013453955092801988,0.1127904212415479
9195,9.0,299.87907,-7285.3585,0.09194996193350446,0.0,0.0,0.0,0.0,0.01403286427249345,0.975048483934793,0.5602380784961934,0.6792804960347654,-0.005040902630198355,-0.007472528996481193,0.12481576462085689
9196,9.0,299.71834,-7069.0033,0.09195997160820202,0.0,0.0,0.0,0.0,0.014034391890379166,0.9312274740074962,0.5639179394143675,0.6536550666332324,0.002026869630986458,0.002877956550532197,0.12456488389609688
9197,9.0,300.53328999999997,-6947.5124,0.09196994824766946,0.0,0.0,0.0,0.0,0.014035914466621724,0.9282925545628421,0.5444312452136805,0.6391464803063464,0.0010435603621663891,0.017503898517250285,0.11582661503369689
9198,9.0,300.96865,-6979.8978,0.0919799579223668,0.0,0.0,0.0,0.0,0.014037442084507412,0.9173411043020181,0.5537848203318064,0.6505886982531054,-0.014561193258827885,-0.008028992373849853,0.11986536913729089
9199,9.0,300.16657999999995,-7030.2983,0.09198996759706435,0.0,0.0,0.0,0.0,0.014038969702393156,0.933899596906214,0.5588268744194185,0.6443086551933134,-0.023591405819540476,0.0007506002422809762,0.12800642839075088
9200,9.0,300.5365,-7057.4078,0.0919999442365318,0.0,0.0,0.0,0.0,0.014040492278635686,0.9441188929097801,0.5455919333357314,0.6555649316142214,-0.012861295990061089,0.01070927538092319,0.12467867188232688
9201,9.0,300.30321000000004,-7075.1878,0.09200995391122935,0.0,0.0,0.0,0.0,0.01404201989652143,0.9289246909027292,0.5790665755644215,0.6426891674259824,0.00024110688389789676,0.017388934147654182,0.14248734285740589
9202,9.0,299.88408,-6963.7475,0.09201996358592668,0.0,0.0,0.0,0.0,0.014043547514407145,0.9192010667155822,0.5598499530453884,0.6377543455964534,0.008951213199440962,-0.0006774090636300694,0.1415275923626859
9203,9.0,300.05386,-7103.6572,0.09202997326062423,0.0,0.0,0.0,0.0,0.014045075132292861,0.9446642646436042,0.5660995580721765,0.6485705877639334,0.00993668494662445,-0.006162652766806474,0.1173665322706749
9204,9.0,299.97335,-7251.8242,0.09203994990009168,0.0,0.0,0.0,0.0,0.014046597708535419,0.9652916251443661,0.5620894890789135,0.6769923442614424,0.02083265409027288,0.0008581884652566073,0.1097440544183949
9205,9.0,300.17867,-7032.6453,0.09204995957478923,0.0,0.0,0.0,0.0,0.014048125326421135,0.9345312164885502,0.5480549720763145,0.6551623673494914,0.005916912867753834,0.0009130687555203702,0.1038593207526169
9206,9.0,300.79921,-6869.4249,0.09205996924948656,0.0,0.0,0.0,0.0,0.01404965294430685,0.914157036790275,0.5427970450548976,0.6311795683475735,-0.00015741576936322685,-0.013513766232954886,0.13014335258664889
9207,9.0,300.5421,-7154.4765,0.09206994588895401,0.0,0.0,0.0,0.0,0.014051175520549408,0.9394733033212961,0.5591974503784914,0.6761114550220053,-0.024475476664291475,-0.011350738687980689,0.12083142204763289
9208,9.0,299.52735,-7261.9402,0.09207995556365156,0.0,0.0,0.0,0.0,0.014052703138435124,0.981122756164277,0.5579592283587884,0.6683665157626394,-0.0006334350732026744,0.008184873403684113,0.11996019921414988
9209,9.0,300.06082000000004,-7107.9267,0.09208996523834889,0.0,0.0,0.0,0.0,0.01405423075632084,0.9446854517031952,0.5666624489002294,0.6492843413993754,-0.004204312077183296,0.02280296551922748,0.11916958042612188
9210,9.0,299.81611000000004,-7106.0659,0.09209994187781634,0.0,0.0,0.0,0.0,0.014055753332563398,0.9424277683603791,0.5686320551071145,0.6490067716669814,0.006655733905369794,0.0030674584345845774,0.12429584572954488
9211,9.0,299.84416,-7033.8719,0.09210995155251367,0.0,0.0,0.0,0.0,0.014057280950449114,0.9335165579709112,0.5539286613160025,0.6506761923992403,-0.02436682281631818,-0.012325243117406789,0.1124593620363749
9212,9.0,299.53398,-7074.3655,0.09211996122721122,0.0,0.0,0.0,0.0,0.01405880856833483,0.9350053162103402,0.5692942444449675,0.6461309247031574,0.010604728235605189,-0.004676877535671875,0.1242835246083289
9213,9.0,299.95045,-7284.2828,0.09212997090190878,0.0,0.0,0.0,0.0,0.014060336186220546,0.9563574139776281,0.5697124026287365,0.6881702457871153,0.008251050996865333,0.01201502646679079,0.1180229460829579
9214,9.0,300.53202000000005,-7100.0558,0.09213994754137622,0.0,0.0,0.0,0.0,0.014061858762463103,0.934345710660242,0.5692136505320134,0.6546803237469173,0.021546553633729277,0.003586014707162097,0.1258583989737569
9215,9.0,300.81149,-6771.397,0.09214995721607355,0.0,0.0,0.0,0.0,0.014063386380348819,0.9086608034778391,0.5334072867757005,0.6162675159633685,-0.006124579185023905,-0.013442049404126988,0.1146780453828419
9216,9.0,300.23481,-6985.7981,0.0921599668907711,0.0,0.0,0.0,0.0,0.014064913998234563,0.9362208312953021,0.5301867219953555,0.6571006235982824,0.0034837536567197164,-0.01024684627378499,0.1144918302794639
9217,9.0,300.19563,-7290.859,0.09216994353023855,0.0,0.0,0.0,0.0,0.014066436574477093,0.979561753192718,0.5644340586178045,0.6722432714402453,-0.00044473836834225955,-0.0033800127545062864,0.1111666575587949
9218,9.0,299.79544,-7172.7301,0.0921799532049361,0.0,0.0,0.0,0.0,0.014067964192362836,0.9327013172054532,0.5777540721798875,0.6698754478115594,0.0033499484081391667,-0.0096341492383915,0.13509992889582487
9219,9.0,299.7644,-7097.7368,0.09218996287963344,0.0,0.0,0.0,0.0,0.014069491810248524,0.9270262959128721,0.5750867115566395,0.6554217593750914,-0.004774559202287305,-0.006871392334128624,0.14255599055168086
9220,9.0,299.57891,-7134.488,0.09219997255433077,0.0,0.0,0.0,0.0,0.01407101942813424,0.953786535028902,0.5671299118338644,0.6477897671043723,-0.0014767647019703284,0.014939307798644883,0.1261669842917119
9221,9.0,299.75506,-7082.7127,0.09220994919379844,0.0,0.0,0.0,0.0,0.014072542004376798,0.948016298624424,0.5554922987378215,0.6494592283666354,-0.002222635427157038,0.017475447467692383,0.12415258229790589
9222,9.0,299.35656,-7062.0701,0.09221995886849577,0.0,0.0,0.0,0.0,0.014074069622262514,0.93469151265437,0.5700768585572055,0.6419245891655244,0.004915047544552425,0.005885192566748285,0.11960877368196689
9223,9.0,300.10086,-6965.924,0.09222996854319332,0.0,0.0,0.0,0.0,0.014075597240148258,0.935315178223421,0.5377776877695255,0.6443740807522704,-0.00904374218532286,-0.006626272746787203,0.1123571251012849
9224,9.0,300.47202000000004,-6889.3952,0.09223994518266077,0.0,0.0,0.0,0.0,0.014077119816390787,0.9109822303844461,0.5383085294969155,0.6449133628529934,0.0025678036333474873,-0.008898961209009092,0.1112059108676689
9225,9.0,300.70386,-7008.6195,0.09224995485735832,0.0,0.0,0.0,0.0,0.014078647434276531,0.932083376499467,0.5488224684970605,0.6495394676420544,0.006933265539560034,0.0006666863951093244,0.13378827664137488
9226,9.0,300.44847999999996,-7285.4,0.09225996453205565,0.0,0.0,0.0,0.0,0.01408017505216222,0.970758362746391,0.5689123302172755,0.6749090108633334,0.013281179738750388,-0.007755803022963163,0.12649674653675688
9227,9.0,300.25347999999997,-7230.3288,0.09226994117152332,0.0,0.0,0.0,0.0,0.014081697628404777,0.958408566552561,0.5714973845349004,0.6679334628024004,0.018289065006490184,-0.008494403881332392,0.1331301909664269
9228,9.0,299.92248,-6996.0387,0.09227995084622065,0.0,0.0,0.0,0.0,0.014083225246290493,0.9244790864864822,0.5590182570983065,0.6431237199963694,0.0004883504764964396,0.0025858402957275677,0.12155873296941289
9229,9.0,300.4774,-7032.5019,0.0922899605209182,0.0,0.0,0.0,0.0,0.014084752864176237,0.9413011254416882,0.5522552179808465,0.6441486326050203,0.0026058404341514274,0.006360797978186884,0.11789037243987388
9230,9.0,300.04644,-7165.7064,0.09229997019561553,0.0,0.0,0.0,0.0,0.014086280482061952,0.9395278161766761,0.5722520937393845,0.6664159079951294,-0.018912067909975783,-0.01190046131773409,0.12738921722483687
9231,9.0,299.95282000000003,-6996.1517,0.0923099468350832,0.0,0.0,0.0,0.0,0.01408780305830451,0.9324367474718422,0.5487826477681305,0.6454360377845774,-0.0007932190005671203,0.004977403361006465,0.12637649401488887
9232,9.0,300.04495,-6925.9068,0.09231995650978053,0.0,0.0,0.0,0.0,0.014089330676190226,0.9287539886583821,0.5479798497139005,0.6285689091999214,-0.007417389243264322,0.015879785263212785,0.12449304446400687
9233,9.0,299.6942,-7045.9762,0.09232996618447786,0.0,0.0,0.0,0.0,0.014090858294075914,0.9360270776111801,0.5537859247744155,0.6519878142561873,0.006182098758750644,0.015631770009735587,0.11923431697501088
9234,9.0,299.74647000000004,-7041.6647,0.09233994282394553,0.0,0.0,0.0,0.0,0.014092380870318472,0.9405343889585172,0.5473414920183995,0.6526143574555224,-0.008311617818942811,-0.006136137835539655,0.12139250929050788
9235,9.0,299.9204,-7171.9011,0.09234995249864286,0.0,0.0,0.0,0.0,0.014093908488204188,0.935910949017219,0.5752491051501665,0.6689188079946464,0.003060954888817727,-0.009073166461601811,0.12513821120017987
9236,9.0,300.12129,-7243.581,0.09235996217334042,0.0,0.0,0.0,0.0,0.014095436106089931,0.955936550416092,0.5694739342177014,0.6764572772811354,0.004239527483083786,0.01246263780446659,0.1174149149629499
9237,9.0,299.88921,-7062.1514,0.09236997184803775,0.0,0.0,0.0,0.0,0.014096963723975647,0.9378967165631991,0.5565110203883614,0.6523099568604803,0.003487196781884527,0.005882504110257954,0.12560945355668787
9238,9.0,300.31029,-6914.6242,0.09237994848750519,0.0,0.0,0.0,0.0,0.014098486300218205,0.9281494633837202,0.5497116359898144,0.6240120093926904,0.006624853386047125,-0.008319669408212441,0.13800651786768287
9239,9.0,300.03057,-7096.8891,0.09238995816220275,0.0,0.0,0.0,0.0,0.01410001391810392,0.9419925774424291,0.5510213022740684,0.6642631872301724,0.002799560478370107,-0.019060517155626584,0.12292379363663387
9240,9.0,300.17343,-7118.4054,0.0923999678369003,0.0,0.0,0.0,0.0,0.014101541535989637,0.9505579149102621,0.5595396148047604,0.6537199754346383,0.014067707022874588,0.01051289129954159,0.11931580254805288
9241,9.0,300.29257,-7012.874,0.09240994447636752,0.0,0.0,0.0,0.0,0.014103064112232166,0.9221473852238612,0.5542405194317804,0.6553506798805764,-0.005321489314765105,0.0036686321818908065,0.12444141937141188
9242,9.0,300.64046,-7063.4342,0.09241995415106508,0.0,0.0,0.0,0.0,0.01410459173011791,0.946044493664822,0.5529898648333506,0.6480732643498514,-0.01047764843456339,0.007065693578604664,0.13312451676586687
9243,9.0,299.78635,-7169.9717,0.0924299638257624,0.0,0.0,0.0,0.0,0.014106119348003626,0.963912672818274,0.5653126072495105,0.6502670926713654,-0.02099573466736768,0.005781237260813694,0.12298169074734788
9244,9.0,299.86557,-7100.9325,0.09243997350045996,0.0,0.0,0.0,0.0,0.014107646965889342,0.945912264526772,0.5549067921675365,0.6576871028886634,0.012783204804854089,0.028909150060610973,0.13775214143007788
9245,9.0,299.59699,-7184.2162,0.0924499501399274,0.0,0.0,0.0,0.0,0.0141091695421319,0.9441672452045521,0.5748664715149034,0.6647886283345295,0.0063143623473040445,0.012852523270695288,0.12011038314397189
9246,9.0,299.22307,-7171.1826,0.09245995981462474,0.0,0.0,0.0,0.0,0.014110697160017616,0.9391422846461271,0.5730714786977514,0.6676466724940964,0.0032756450557809968,-0.0005555666611626604,0.12556360398966288
9247,9.0,300.05177000000003,-7038.1965,0.09246996948932229,0.0,0.0,0.0,0.0,0.014112224777903332,0.9185843621747182,0.5613858780769725,0.6594657418492014,-0.0033386920101282466,-0.021284485614615184,0.1041963480008789
9248,9.0,300.58206,-7061.6309,0.09247994612878974,0.0,0.0,0.0,0.0,0.014113747354145861,0.936469229557317,0.5580805245282595,0.6520097207233494,0.01027741704255209,0.003075081317736897,0.12625408327030788
9249,9.0,300.89177,-7235.0645,0.09248995580348729,0.0,0.0,0.0,0.0,0.014115274972031605,0.9667412313999312,0.5694539731907314,0.6630837337162693,0.003421919258767137,-0.0055296551643344745,0.1175112750474599
9250,9.0,300.81684,-7101.2583,0.09249996547818462,0.0,0.0,0.0,0.0,0.014116802589917321,0.935514484518091,0.5745028160540134,0.6485879143406434,-0.0007123723931706813,-0.011590826272675488,0.14066564076761787
9251,9.0,300.19641,-6951.866,0.09250994211765207,0.0,0.0,0.0,0.0,0.01411832516615985,0.9250827099685552,0.5495451184683805,0.6385658474690424,-0.01299497306250399,-0.01992899914758908,0.1279697892671349
9252,9.0,299.97418,-7050.0228,0.09251995179234962,0.0,0.0,0.0,0.0,0.014119852784045595,0.9362706122727151,0.5469721724894505,0.6597880972360154,-0.001057856611802319,0.008411517591352153,0.1187544619926529
9253,9.0,299.87346,-7082.3363,0.09252996146704717,0.0,0.0,0.0,0.0,0.014121380401931338,0.9355991820939501,0.5672836117415335,0.6499705852946024,-0.0010647744755350591,0.008117023035912803,0.13160181464808787
9254,9.0,299.71147,-7093.3978,0.0925399711417445,0.0,0.0,0.0,0.0,0.014122908019817026,0.9446422669839332,0.5626676293209715,0.6489058924870253,0.005229322464468945,-0.0029740542032662973,0.12896768862811986
9255,9.0,300.14045,-7106.1945,0.09254994778121195,0.0,0.0,0.0,0.0,0.014124430596059556,0.9554538178034502,0.5523169857069424,0.6523348929454414,0.0017114336277803484,-0.009164894067979622,0.12251818962160388
9256,9.0,299.96956,-7131.854,0.0925599574559095,0.0,0.0,0.0,0.0,0.0141259582139453,0.940877465309876,0.5725915021253815,0.6544365763028613,0.0004603596856639636,0.016140120624655883,0.1182254238504409
9257,9.0,300.03441000000004,-7153.7806,0.09256996713060683,0.0,0.0,0.0,0.0,0.014127485831831016,0.9422433568421792,0.5666685486658315,0.6656587872554074,0.014644474311047088,0.0013635009713420688,0.11959935045603687
9258,9.0,300.09139,-7171.0508,0.09257994377007428,0.0,0.0,0.0,0.0,0.014129008408073546,0.9348209958846492,0.5782435125081914,0.6667558635361803,-0.006438820363712093,0.0001027369334843459,0.13189206013923288
9259,9.0,299.8556,-7069.5999,0.09258995344477183,0.0,0.0,0.0,0.0,0.01413053602595929,0.9444075172007651,0.5514493700438154,0.6531249645784154,-0.0025592686224551477,-0.02072727911962318,0.1147267725801509
9260,9.0,299.1186,-6947.78,0.09259996311946939,0.0,0.0,0.0,0.0,0.014132063643845033,0.941115295373348,0.5380655622554366,0.6327707763046134,-0.013077936967441887,0.005431616935008854,0.13147472268804486
9261,9.0,299.48451,-6991.1212,0.09260997279416672,0.0,0.0,0.0,0.0,0.014133591261730721,0.937630718146947,0.5541631172566415,0.6333324613650474,0.0026120620937404573,0.01133632925830859,0.13055318185459586
9262,9.0,299.50473,-7108.8527,0.09261994943363416,0.0,0.0,0.0,0.0,0.014135113837973251,0.9379891756348241,0.5627678600208634,0.6601566669598904,0.002342540910865788,-0.0094677026444645,0.14050431108669587
9263,9.0,299.97435,-7041.522,0.09262995910833172,0.0,0.0,0.0,0.0,0.014136641455858995,0.9394837600623281,0.5401617841948174,0.6608013169385124,0.01123661024971709,-0.009155325845960311,0.11813430226894789
9264,9.0,299.69572,-7048.2269,0.09263996878302927,0.0,0.0,0.0,0.0,0.014138169073744739,0.9235420023964991,0.5580020179105114,0.6609409529347934,0.0028898215065531773,0.003506784628842697,0.11883665684076487
9265,9.0,300.00997,-7135.0347,0.0926499454224965,0.0,0.0,0.0,0.0,0.01413969164998724,0.9503621651234431,0.5476122729751235,0.6708979387524714,0.019626214686456582,-0.005667626593351194,0.11526591282585989
9266,9.0,300.04437,-7128.0037,0.09265995509719405,0.0,0.0,0.0,0.0,0.014141219267872984,0.9451389419179511,0.5692097900491325,0.6523864167130264,-0.02221634842683288,-0.016696084875025285,0.13174770239748587
9267,9.0,300.68911,-7119.0685,0.0926699647718916,0.0,0.0,0.0,0.0,0.0141427468857587,0.951537889876978,0.5594137792748415,0.6530673917077334,-0.0038706875254071165,-0.009639699113164231,0.12001802539735688
9268,9.0,299.9505,-7218.8906,0.09267994141135905,0.0,0.0,0.0,0.0,0.014144269462001258,0.9483797818327971,0.5783543316716285,0.6676283833297914,-0.0060064965382450545,0.018015252405466982,0.11762317838850389
9269,9.0,299.5502,-7072.2685,0.09268995108605638,0.0,0.0,0.0,0.0,0.014145797079886946,0.9384091272712701,0.5557002581883455,0.6556836439959374,0.001034098531407579,0.019652454824296284,0.12473625488550989
9270,9.0,299.54553,-6950.0383,0.09269996076075393,0.0,0.0,0.0,0.0,0.01414732469777269,0.908964494797811,0.5600212632397954,0.6436523528385414,-0.0070103983928224535,0.001904723547331578,0.1250422969457139
9271,9.0,299.89811000000003,-7038.8309,0.09270997043545148,0.0,0.0,0.0,0.0,0.014148852315658433,0.9502707395669201,0.5407167716720905,0.6486413227534145,-0.0051974782429761645,-0.005783447969881874,0.10993253920199689
9272,9.0,300.06169,-7106.1757,0.09271994707491871,0.0,0.0,0.0,0.0,0.014150374891900935,0.9537891593466611,0.5564101108109024,0.6499006913027043,0.010911585962139689,0.008637794070558901,0.12492466874160488
9273,9.0,299.89432,-7148.6423,0.09272995674961626,0.0,0.0,0.0,0.0,0.014151902509786707,0.9413155845206151,0.5702593651652175,0.6614338079159343,0.007027853854945174,-0.0018628037694944182,0.12368532201429089
9274,9.0,299.26318,-7147.7686,0.09273996642431359,0.0,0.0,0.0,0.0,0.014153430127672395,0.9366153098242341,0.5625404157709165,0.6735874490229053,-0.00014790168529675986,-0.0009640933454436051,0.14416214394769586
9275,9.0,299.99087000000003,-7090.491999999999,0.09274994306378104,0.0,0.0,0.0,0.0,0.014154952703914953,0.9362588281740521,0.5567221006491935,0.6623515794590114,-0.005475748637814314,-0.013159185439960487,0.11366435958529889
9276,9.0,299.30252,-7028.8968,0.09275995273847837,0.0,0.0,0.0,0.0,0.01415648032180064,0.932039077205095,0.5514358431549805,0.6531342054193273,0.009188032444613201,0.016005006763571184,0.1389344219117599
9277,9.0,299.06838,-7148.3319,0.09276996241317614,0.0,0.0,0.0,0.0,0.014158007939686412,0.971213352571295,0.5575659758624775,0.6441350753186824,0.007490602237189883,0.004860568734375785,0.10819057989507891
9278,9.0,299.94633999999996,-7101.1604,0.09277997208787347,0.0,0.0,0.0,0.0,0.014159535557572128,0.9523037549650631,0.5619620323488345,0.6443096583109124,0.0027952180937415474,-0.004262921705367616,0.12811115792108688
9279,9.0,300.26327000000003,-7065.9429,0.09278994872734092,0.0,0.0,0.0,0.0,0.014161058133814658,0.9341562227590412,0.5598671478995855,0.6538468343471584,-0.016474707966677084,-0.018730059821012984,0.1005185156094051
9280,9.0,300.41164,-7094.1478,0.09279995840203847,0.0,0.0,0.0,0.0,0.014162585751700402,0.9326318690435992,0.5564895901487465,0.6673223210045853,0.0025970733889861875,0.012504289476327288,0.12628707469356387
9281,9.0,300.20925,-7200.3856,0.0928099680767358,0.0,0.0,0.0,0.0,0.01416411336958609,0.9466771771597631,0.5666414239606544,0.6754188276511484,0.0012686381665048387,0.01628691016664288,0.1151280601497549
9282,9.0,299.42777,-7131.5175,0.09281994471620325,0.0,0.0,0.0,0.0,0.014165635945828647,0.936251623965841,0.5705151601529624,0.6610364720217203,0.00014929462047423187,-0.0020211571295726777,0.13929737823008087
9283,9.0,299.98852,-7021.3159,0.09282995439090058,0.0,0.0,0.0,0.0,0.014167163563714336,0.949735905634136,0.5473251584267874,0.6372436270160493,-0.0015310851411563385,-0.0053848741880207045,0.11684619794682188
9284,9.0,300.23659,-7104.5234,0.09283996406559836,0.0,0.0,0.0,0.0,0.014168691181600107,0.9448155732810372,0.5653925425498995,0.6493896079522643,-0.002701674641859528,0.0025503361135485775,0.12742605899847287
9285,9.0,299.4941,-7160.3459,0.09284994070506558,0.0,0.0,0.0,0.0,0.014170213757842609,0.9467285692048351,0.5682100871029694,0.6616277034550704,0.0038184274289744463,-0.0013231981380144888,0.12819702073456088
9286,9.0,299.37325,-7121.1153,0.09285995037976313,0.0,0.0,0.0,0.0,0.014171741375728353,0.927530357440119,0.5774269545176035,0.6596839249932344,-0.004024061977143996,-0.012997184987472288,0.13987873047495586
9287,9.0,299.55926,-7097.4656,0.09286996005446069,0.0,0.0,0.0,0.0,0.014173268993614097,0.9266440574451481,0.5690796684712904,0.6617286029000284,-0.00858864303073307,-0.01111848960605949,0.1160814778313499
9288,9.0,299.09646000000004,-7049.3638,0.09287996972915824,0.0,0.0,0.0,0.0,0.014174796611499813,0.9247555517762671,0.5610947814557435,0.6569802393539014,0.0024575992087461575,0.004611222272917206,0.12202252793768589
9289,9.0,299.08083999999997,-7035.0121,0.09288994636862546,0.0,0.0,0.0,0.0,0.014176319187742342,0.9458139893995731,0.5570832229848335,0.6355708017634545,0.0034748363465646466,0.01801093494679088,0.1135379465028229
9290,9.0,298.78553,-7206.3168,0.09289995604332302,0.0,0.0,0.0,0.0,0.014177846805628058,0.951861511826417,0.5718147547312225,0.6668640786468604,0.003700822732267767,0.003590614761291087,0.12175516163379888
9291,9.0,300.06718,-7251.0755,0.09290996571802057,0.0,0.0,0.0,0.0,0.014179374423513802,0.9588665657302621,0.5755024784701724,0.6697768687093304,-0.0012776051259148088,-0.005556188030128064,0.11271427549653289
9292,9.0,300.04935,-7074.2836,0.09291994235748802,0.0,0.0,0.0,0.0,0.014180896999756332,0.922784962716785,0.5595390676497064,0.6680815493045154,-0.001327044536719099,0.004628316511379276,0.12623321031824788
9293,9.0,300.04116,-7090.7395,0.09292995203218535,0.0,0.0,0.0,0.0,0.014182424617642048,0.9373308467798521,0.5536221936907565,0.6644547016315734,0.004198778211762146,0.0036360679448769664,0.13789791772196486
9294,9.0,300.00822999999997,-7140.7269,0.0929399617068829,0.0,0.0,0.0,0.0,0.014183952235527791,0.947868576892345,0.5570398964105575,0.6656942003464024,-0.01014894706237309,-0.00980545041487261,0.11905253990707089
9295,9.0,300.24417,-7033.9829,0.09294997138158045,0.0,0.0,0.0,0.0,0.014185479853413507,0.9648004724233932,0.5501172602698464,0.6232374202212444,0.0036359377422391166,-0.004721146128565845,0.11729029533315088
9296,9.0,300.31411,-6948.8395,0.09295994802104768,0.0,0.0,0.0,0.0,0.014187002429656037,0.9156741356350012,0.5500621597294084,0.6465374001132734,0.005365155935774665,0.011867114243692987,0.1127386644264399
9297,9.0,300.53385,-6996.3657,0.09296995769574523,0.0,0.0,0.0,0.0,0.014188530047541753,0.9360570191516351,0.5477707554232645,0.6428926989735694,0.0076352200802375534,0.014292545193564385,0.12658626718309188
9298,9.0,300.36841,-7092.597,0.09297996737044278,0.0,0.0,0.0,0.0,0.014190057665427497,0.9184539771518502,0.5778795834697744,0.6596388353637843,0.003584761620763426,-0.014022972030959587,0.13165690505602487
9299,9.0,300.45871,-7084.4577,0.09298994400991023,0.0,0.0,0.0,0.0,0.014191580241670027,0.9230509510005361,0.5714219581974564,0.6590253225607353,0.007779174244469723,-0.01994040226421448,0.13437257744404088
9300,9.0,300.26514,-7145.4688,0.09299995368460756,0.0,0.0,0.0,0.0,0.014193107859555743,0.941860621881906,0.5692642725070095,0.6609191883226454,0.009482620117736741,-0.008228262394166273,0.1251456079259099
9301,9.0,299.66057,-7149.6023,0.09300996335930511,0.0,0.0,0.0,0.0,0.014194635477441486,0.9656847256531621,0.5596369678743685,0.6479788801030364,0.005905711691873364,0.005292409340870135,0.1207476161318619
9302,9.0,299.23425,-7049.2732,0.09301997303400267,0.0,0.0,0.0,0.0,0.014196163095327202,0.9291325084982391,0.5588805462772155,0.6547899675402384,-0.014651077661948788,-0.006993662135620713,0.13146483336706888
9303,9.0,299.55464,-6982.8065,0.09302994967346989,0.0,0.0,0.0,0.0,0.01419768567156976,0.9270367729189061,0.5424349601316625,0.6531270822711244,-0.0008319327638953713,0.002254923148218588,0.1156710811433469
9304,9.0,299.47987,-7067.2881,0.09303995934816744,0.0,0.0,0.0,0.0,0.014199213289455448,0.9210292941360142,0.5495620498775514,0.6776877682025754,-0.0009662270779016881,0.01876449512566148,0.12499501869604789
9305,9.0,299.74695,-7024.8223,0.093049969022865,0.0,0.0,0.0,0.0,0.014200740907341192,0.9324609641492322,0.5585128986109315,0.6443967167595044,0.002128321094598938,0.014848235866406786,0.13270239677420687
9306,9.0,300.16747999999995,-7056.5121,0.09305994566233222,0.0,0.0,0.0,0.0,0.014202263483583721,0.9434657518953201,0.5555872504046925,0.6459504648603475,-0.01048677883121449,-0.005104814393505955,0.11946562170783888
9307,9.0,300.30542,-7098.1028,0.09306995533702977,0.0,0.0,0.0,0.0,0.014203791101469437,0.9587464347984062,0.5555047211840475,0.6433948657231294,-0.015703219340537086,-0.003258932204656567,0.1172274028994439
9308,9.0,300.27656,-7051.9981,0.0930799650117271,0.0,0.0,0.0,0.0,0.014205318719355181,0.9250944738022161,0.5568508239418974,0.6616860261308264,0.0067838085153597745,0.0010996840825553689,0.11183705422245789
9309,9.0,299.92991,-7118.5269,0.09308994165119455,0.0,0.0,0.0,0.0,0.01420684129559771,0.9294081631879441,0.5776314385202845,0.6568148262750764,-0.0025872038263871377,0.008807479214455521,0.12939127783242488
9310,9.0,299.81718,-7163.1013,0.0930999513258921,0.0,0.0,0.0,0.0,0.014208368913483455,0.9276989825217611,0.5686289849593115,0.6810759650794643,0.0018611728421334581,-0.006425841237881155,0.1247251800619169
9311,9.0,299.94042,-7051.7232,0.09310996100058944,0.0,0.0,0.0,0.0,0.014209896531369143,0.9321240280934792,0.5484621871590035,0.6629615458867103,0.006592604776439433,-0.01863698570657728,0.13437362109164386
9312,9.0,300.00984,-7006.4867,0.09311997067528699,0.0,0.0,0.0,0.0,0.014211424149254887,0.944235659851304,0.5472131233632305,0.6383482418775663,0.02143030041000598,-0.0037518907399577864,0.11373189270446389
9313,9.0,299.78555,-7147.8657,0.09312994731475444,0.0,0.0,0.0,0.0,0.014212946725497416,0.9625729940660581,0.5599921728294245,0.6502075338304873,0.01684742087021098,0.007222278310633374,0.12203279216119887
9314,9.0,299.37591000000003,-7158.0846,0.09313995698945199,0.0,0.0,0.0,0.0,0.01421447434338316,0.9555016128106671,0.5567114007281374,0.6636659776212324,0.0044912767658295055,-0.008391236580000572,0.12103548048527188
9315,9.0,299.82487000000003,-7041.6177,0.09314996666414932,0.0,0.0,0.0,0.0,0.014216001961268876,0.9307175660271721,0.5547407914036534,0.6550175840427024,-0.01784845826675568,0.0035219856094929163,0.12104321158353488
9316,9.0,300.22317999999996,-7095.226,0.09315994330361699,0.0,0.0,0.0,0.0,0.014217524537511433,0.9158067295430872,0.5700060729052194,0.6709587236259703,-0.015267438711028885,0.007537117002905533,0.12677802476451688
9317,9.0,299.66587999999996,-7201.6144,0.09316995297831432,0.0,0.0,0.0,0.0,0.01421905215539715,0.9438146746997562,0.5793530821626974,0.6659432166909783,-0.011801868030003689,0.008689429903604962,0.12738829516724587
9318,9.0,299.84528,-7128.1643,0.09317996265301165,0.0,0.0,0.0,0.0,0.014220579773282838,0.9588755431261481,0.5672473272554525,0.6406610865558264,-0.0013105422389654486,-0.01099838096570569,0.13722507912556087
9319,9.0,300.00391,-7128.0105,0.0931899723277092,0.0,0.0,0.0,0.0,0.014222107391168581,0.9649491060805621,0.5526219739870425,0.6491661255102085,0.008892436688965173,-0.005638065021683694,0.10879619947984889
9320,9.0,300.16285,-7125.5434,0.09319994896717665,0.0,0.0,0.0,0.0,0.014223629967411111,0.941848969505756,0.5607316731499075,0.6634066463906384,0.015811940063016987,-0.0006464190828990964,0.10968693751025789
9321,9.0,300.93576,-7024.0802,0.0932099586418742,0.0,0.0,0.0,0.0,0.014225157585296855,0.9212548942707792,0.5545115638335305,0.6593785314130944,0.0038642033327171764,0.012590996327134589,0.11782367018579087
9322,9.0,300.82415,-7145.9919,0.09321996831657153,0.0,0.0,0.0,0.0,0.01422668520318257,0.9181389880932631,0.5697772202376334,0.6842868938513583,0.0016700232107684585,-0.002100450941323368,0.13015882491567587
9323,9.0,300.62519,-7239.883000000001,0.0932299449560392,0.0,0.0,0.0,0.0,0.014228207779425128,0.9633442496446751,0.5728660321074754,0.6645333501043355,-0.006478368123065154,-0.004313202721704966,0.11865417049775488
9324,9.0,300.83637999999996,-7161.2476,0.09323995463073653,0.0,0.0,0.0,0.0,0.014229735397310844,0.9633647679592,0.5593604620545796,0.6541152341661474,0.0029242316825991974,-0.0027257636497369274,0.11931895375586388
9325,9.0,299.91556,-7190.5228,0.09324996430543409,0.0,0.0,0.0,0.0,0.01423126301519656,0.9536855139939321,0.5690585827367094,0.6629952871150404,0.0018281075529451684,-0.0016229058652183384,0.13144365643997888
9326,9.0,299.49022,-7192.7631,0.09325994094490153,0.0,0.0,0.0,0.0,0.01423278559143909,0.953990948104076,0.5725476891910575,0.6598817316777564,0.001985061411985308,-0.008072252782894323,0.12588225088111088
9327,9.0,300.21587,-7040.9974,0.09326995061959908,0.0,0.0,0.0,0.0,0.014234313209324834,0.9261877807926171,0.5506910941989794,0.6634085107708224,-0.0007103823598417804,0.009089725197386033,0.12904510093575988
9328,9.0,299.81747,-7011.983,0.09327996029429642,0.0,0.0,0.0,0.0,0.01423584082721055,0.9108150137204432,0.5597173692698035,0.6609353699267423,0.006521017643624334,0.023135289260525275,0.12948879302204888
9329,9.0,300.14696000000004,-7067.9206,0.09328996996899375,0.0,0.0,0.0,0.0,0.014237368445096266,0.9409453834640792,0.5601762094450874,0.6473498037784513,-0.0053212099617125355,0.023521679013908975,0.12209011171935588
9330,9.0,300.1645,-7040.6086,0.09329994660846141,0.0,0.0,0.0,0.0,0.014238891021338823,0.9472727655685431,0.5525032717378274,0.6403931629643844,-0.015946149091762386,-0.0024398264980171275,0.12479790102159388
9331,9.0,299.75885,-7061.0338,0.09330995628315875,0.0,0.0,0.0,0.0,0.014240418639224539,0.9465371459959431,0.5541176628571555,0.6457231523329134,-0.003099654152537047,-0.002114428118502808,0.12797957726310086
9332,9.0,299.93895,-7113.0507,0.0933199659578563,0.0,0.0,0.0,0.0,0.014241946257110255,0.955415628407181,0.5459290112464985,0.6608451602703395,-0.0035383261925306065,-0.009172372866967721,0.1102373450970789
9333,9.0,299.58718,-7232.4229,0.09332994259732375,0.0,0.0,0.0,0.0,0.014243468833352785,0.9489176859133841,0.5757807372126345,0.6737775550066674,0.00975482580542635,-0.006963418140010863,0.13438258835502886
9334,9.0,299.4331,-7252.6706,0.0933399522720213,0.0,0.0,0.0,0.0,0.014244996451238529,0.9382044406185691,0.5856521135293634,0.6807742090671833,-0.01015917582213259,-0.032791421871761366,0.13204658077948286
9335,9.0,299.76205,-7152.3149,0.09334996194671863,0.0,0.0,0.0,0.0,0.014246524069124245,0.960968765845233,0.5521934097247464,0.6609629607269654,0.010827486203839689,-0.0034194959698279764,0.12968842355675086
9336,9.0,299.93276000000003,-7099.7546,0.09335997162141618,0.0,0.0,0.0,0.0,0.014248051687009988,0.9428355508631241,0.5591884831151065,0.6561240835494053,0.010904447615185189,0.006978475036496863,0.1148125847311199
9337,9.0,299.86222000000004,-7013.8682,0.0933699482608834,0.0,0.0,0.0,0.0,0.014249574263252518,0.9315923960310111,0.5512019039718925,0.6492464863756394,0.02333947232792658,0.012068502767318488,0.11829534823984189
9338,9.0,300.23762,-7049.7328,0.09337995793558096,0.0,0.0,0.0,0.0,0.014251101881138262,0.9212593323062171,0.5601912866065755,0.6614921204591894,-0.014895568831578186,-0.00956950671911178,0.12139712971096388
9339,9.0,299.99093999999997,-7136.661,0.09338996761027851,0.0,0.0,0.0,0.0,0.01425262949902395,0.942108564181376,0.5613995569533224,0.6658586204401294,-0.02058649713747908,0.0033239389873472368,0.1200674618697359
9340,9.0,300.42795,-7105.9803,0.09339994424974596,0.0,0.0,0.0,0.0,0.014254152075266507,0.9409771387222131,0.5546894601535874,0.6643739759961064,-0.018023631983793982,0.015646391208678587,0.1277666731520889
9341,9.0,300.34513,-7171.5302,0.09340995392444329,0.0,0.0,0.0,0.0,0.014255679693152223,0.9654414544366531,0.5681213365267104,0.6464033268600414,-0.0032638023912622167,0.016985738628111882,0.12086273147572289
9342,9.0,300.02483,-7237.7304,0.09341996359914062,0.0,0.0,0.0,0.0,0.01425720731103794,0.949645858097749,0.5803438583754795,0.6700996091311824,-0.01026008742609179,-0.012504120263560589,0.13413423062301788
9343,9.0,299.95583999999997,-7093.7223,0.09342997327383817,0.0,0.0,0.0,0.0,0.014258734928923683,0.94309784078401,0.5598203560099675,0.6533962521601894,0.009008524955572191,-0.01266826070025999,0.12426579273157888
9344,9.0,299.98216,-7039.4199,0.09343994991330562,0.0,0.0,0.0,0.0,0.014260257505166213,0.9150468426305922,0.5637493548627295,0.6610116676592724,0.019158920965588282,0.006006813381551324,0.13092581471137185
9345,9.0,299.87502,-7205.7932,0.09344995958800317,0.0,0.0,0.0,0.0,0.014261785123051957,0.9398941567503311,0.5738287716899905,0.6766582959684744,0.02672789009333737,0.0067874743528965635,0.13323289399656288
9346,9.0,299.6025,-7196.7709,0.0934599692627005,0.0,0.0,0.0,0.0,0.014263312740937645,0.940082246366394,0.5728220874506385,0.6747343164135924,-0.0008960185225101431,-0.017596423450131786,0.13758527940360987
9347,9.0,299.64361,-7087.0538,0.09346994590216817,0.0,0.0,0.0,0.0,0.014264835317180202,0.9427777145474161,0.5691362280918724,0.6423734386948223,-0.005101348470213895,-0.007245695736344493,0.13824088261581288
9348,9.0,299.79806,-7073.7086,0.0934799555768655,0.0,0.0,0.0,0.0,0.014266362935065918,0.9368195506468912,0.5552128848902455,0.6581983382266183,-0.01067190773048529,0.007124200564553852,0.11875588054279287
9349,9.0,299.81768,-7168.3126,0.09348996525156306,0.0,0.0,0.0,0.0,0.014267890552951662,0.952006386325715,0.5700689146764215,0.6569127264997384,0.0017938847268426385,0.017123495045457383,0.12126813284073289
9350,9.0,300.08646,-7239.7799,0.0934999418910305,0.0,0.0,0.0,0.0,0.014269413129194192,0.9538055638657802,0.5726855722646654,0.6742211862979504,-0.0054130318003496455,-0.011617891196096589,0.12335802196698889
9351,9.0,300.34349,-7237.8389,0.09350995156572806,0.0,0.0,0.0,0.0,0.014270940747079935,0.9680965952636951,0.5716229160897894,0.6604027955416814,-0.002098282586109368,-0.01004178451589697,0.11476665410408689
9352,9.0,300.1662,-7105.781999999999,0.09351996124042539,0.0,0.0,0.0,0.0,0.014272468364965624,0.9558364413062121,0.5553933852630595,0.6487504599216853,0.0060333380400191036,0.01173690248659209,0.12277695343214187
9353,9.0,300.27849,-7017.5439,0.09352997091512272,0.0,0.0,0.0,0.0,0.01427399598285134,0.9384505286703562,0.5473328895250505,0.6473747195984103,0.0002960452131273877,0.006358318656517194,0.11079351807696888
9354,9.0,300.73363,-7135.9221,0.09353994755459039,0.0,0.0,0.0,0.0,0.014275518559093897,0.942017138624853,0.5681886973933584,0.6589363085394504,-0.004324644747134207,-0.0026896278074455974,0.13613339333531987
9355,9.0,299.78112999999996,-7243.2207,0.09354995722928772,0.0,0.0,0.0,0.0,0.014277046176979613,0.9563930601161461,0.5648789463392114,0.6804862332562623,-0.008369078117538701,-0.006343981370252214,0.11266443372411389
9356,9.0,299.00394,-7030.6819,0.09355996690398527,0.0,0.0,0.0,0.0,0.014278573794865357,0.922923007910409,0.5540033175833704,0.6602254261116763,0.0024254720878254575,0.008248544418767953,0.13481718145541988
9357,9.0,299.70591,-6921.4195,0.09356994354345272,0.0,0.0,0.0,0.0,0.014280096371107887,0.914185316600566,0.5516883957424055,0.6380649878121114,0.001233402900902389,0.0002955135810649197,0.12302562527168388
9358,9.0,299.18559,-7083.9227,0.09357995321815027,0.0,0.0,0.0,0.0,0.01428162398899363,0.9348994822373952,0.5583975806170505,0.6600385422632323,-0.0029857541008459867,-0.02326379166470748,0.13759360831943188
9359,9.0,299.28129,-7168.5972,0.0935899628928476,0.0,0.0,0.0,0.0,0.014283151606879319,0.94978549409403,0.5791879629264014,0.6501011121724843,-0.002642725473566698,-0.013636848762352187,0.11923598883767587
9360,9.0,299.5558,-7091.3403,0.09359997256754515,0.0,0.0,0.0,0.0,0.014284679224765062,0.9321362276246831,0.5624834711152965,0.6609706918252284,0.012995807980586386,0.005244388277555825,0.12002179468772887
9361,9.0,299.81237000000004,-7044.7458,0.0936099492070126,0.0,0.0,0.0,0.0,0.014286201801007592,0.936279295826072,0.5571286875168204,0.6480188224219784,0.006857047347162883,0.018218772807302882,0.11851917518693188
9362,9.0,300.25045,-7053.0232,0.09361995888171015,0.0,0.0,0.0,0.0,0.014287729418893336,0.9272715024370721,0.5692797448360364,0.6473917016700864,-0.008760986537592053,0.002413223920616658,0.12836528104616687
9363,9.0,300.80323,-7175.8141,0.09362996855640748,0.0,0.0,0.0,0.0,0.014289257036779052,0.955488724269395,0.5648721980935454,0.6609074042239823,0.0027143526297607476,-0.008152026976517422,0.13257652071428389
9364,9.0,300.42814,-7303.9583,0.09363994519587493,0.0,0.0,0.0,0.0,0.014290779613021581,0.9697295187273521,0.5754224418447734,0.6750690030541234,-0.003809654912258666,0.010082758323440771,0.1191479981989919
9365,9.0,300.17838,-7113.5664,0.09364995487057248,0.0,0.0,0.0,0.0,0.014292307230907325,0.9514834884791091,0.5554231849485004,0.6554398965518813,-0.005494196375759965,0.002659615238158588,0.13133438754919488
9366,9.0,299.68539,-6936.564,0.09365996454526981,0.0,0.0,0.0,0.0,0.014293834848793013,0.9132747290006982,0.5472886510256845,0.6479788598380344,-0.012664242150363386,-0.01686408579460568,0.12741960459533588
9367,9.0,299.67035,-7036.4402,0.09366994118473726,0.0,0.0,0.0,0.0,0.01429535742503557,0.9239333499826221,0.5632391631723774,0.6517295874682024,0.002955168133327387,-0.008009230551849511,0.12507227901617288
9368,9.0,299.57192000000003,-7192.5105,0.09367995085943459,0.0,0.0,0.0,0.0,0.014296885042921287,0.947389451450059,0.5676445719571575,0.6713095513405944,0.017363777174171383,0.007357596240288213,0.11487993546526688
9369,9.0,299.97731,-7134.8828,0.09368996053413214,0.0,0.0,0.0,0.0,0.01429841266080703,0.9503997364371511,0.5687021821465355,0.6497242844602944,0.014166281058853088,0.011538854648546289,0.1191054112972889
9370,9.0,300.57108999999997,-7076.4214,0.0936999702088297,0.0,0.0,0.0,0.0,0.014299940278692747,0.9514447519277862,0.5535613176247485,0.6460493479376064,-0.018789836510662482,-0.006913248885159545,0.13152016695502985
9371,9.0,300.91971,-7151.7069,0.09370994684829714,0.0,0.0,0.0,0.0,0.014301462854935304,0.951085787814859,0.5662494785569725,0.6566050531068733,-0.006792144422607464,-0.0023180651454252177,0.1204817291731209
9372,9.0,300.90378,-7225.2304,0.09371995652299447,0.0,0.0,0.0,0.0,0.01430299047282102,0.9369749528147282,0.5770746170603304,0.6822400678543523,-0.011268074705072387,0.005996710872754284,0.12426802188179889
9373,9.0,300.3366,-7266.762,0.09372996619769203,0.0,0.0,0.0,0.0,0.014304518090706736,0.9600793349074531,0.5696798266380214,0.6791550354073834,0.01793394313794238,0.0008567033851150411,0.11852680496018488
9374,9.0,300.19808,-7095.2376,0.09373994283715925,0.0,0.0,0.0,0.0,0.014306040666949266,0.9444365366836293,0.5529581501052205,0.6593803755282763,-0.008436851275652392,-0.012269005710356589,0.13173187543092388
9375,9.0,299.38403,-6894.0095,0.09374995251185703,0.0,0.0,0.0,0.0,0.01430756828483501,0.9293931062914581,0.5439218337259055,0.6222917944329184,0.006086928027208024,-0.006227941233024944,0.13014488259429988
9376,9.0,299.23471,-6984.0471,0.09375996218655436,0.0,0.0,0.0,0.0,0.014309095902720725,0.9319372455700451,0.5481857218692185,0.6428529491721464,0.009977741638026429,-0.0005557127515620785,0.12403760880905888
9377,9.0,299.75121,-7220.238,0.09376997186125169,0.0,0.0,0.0,0.0,0.014310623520606441,0.944861929473112,0.5745826500293925,0.6753274730221324,0.0036803285330951467,0.0026605501640258574,0.13447809730945487
9378,9.0,299.71295,-7255.7825,0.09377994850071936,0.0,0.0,0.0,0.0,0.014312146096848999,0.944435229591,0.5771238610151905,0.6840176226372834,-0.007460996893118062,-0.006155779283428114,0.13354773106763487
9379,9.0,298.49796000000003,-7052.4591,0.09378995817541669,0.0,0.0,0.0,0.0,0.014313673714734715,0.9255478424269601,0.5559103150665764,0.6623132988702334,-0.008627138428532273,-0.0031356899870435074,0.12538674118470788
9380,9.0,299.10663,-7005.1353,0.09379996785011424,0.0,0.0,0.0,0.0,0.01431520133262043,0.936291728404799,0.5586794363973674,0.6344150380368895,-0.0033576232710216163,0.025101283230803774,0.12243407973080289
9381,9.0,299.40303,-7178.3908,0.09380994448958146,0.0,0.0,0.0,0.0,0.01431672390886296,0.9655709275344311,0.5533654665129194,0.6631151546018704,0.007713671171880072,0.004781396208662065,0.11736390795291589
9382,9.0,299.69002,-7289.7228,0.09381995416427924,0.0,0.0,0.0,0.0,0.014318251526748704,0.9803133618518961,0.5798928607559695,0.6556874943463173,-0.0026904263498494074,-0.012044758264475089,0.12663406219030887
9383,9.0,299.81413,-7156.1172,0.09382996383897657,0.0,0.0,0.0,0.0,0.01431977914463442,0.937006089990301,0.5560512986854905,0.6822235417452214,-0.00973706950934894,-0.018373551826328383,0.11709885185925689
9384,9.0,299.15425,-6982.8338,0.09383994047844402,0.0,0.0,0.0,0.0,0.01432130172087695,0.9267613512767242,0.5358064907599835,0.6600392718033044,-0.002034887985652808,0.005189157635804985,0.12131011179237587
9385,9.0,299.60551,-7032.2223,0.09384995015314157,0.0,0.0,0.0,0.0,0.014322829338762694,0.9212651078317871,0.5543648148215475,0.6619900619558324,0.0037645333654305166,0.00944183710518677,0.11910864356510789
9386,9.0,300.23072,-7222.8084,0.09385995982783912,0.0,0.0,0.0,0.0,0.014324356956648437,0.9774502007793241,0.5485791263530445,0.6695240628093804,0.0031114209246233373,-0.002002999687780678,0.13002245158471687
9387,9.0,300.24372999999997,-7311.4442,0.09386996950253645,0.0,0.0,0.0,0.0,0.014325884574534126,0.9750760342050121,0.5760617823928714,0.6713586635729414,-0.00033451094296365973,-0.0023116040548375578,0.11989418597013489
9388,9.0,300.2108,-7098.3045,0.0938799461420039,0.0,0.0,0.0,0.0,0.014327407150776683,0.9502325603031521,0.5605346061379585,0.6469401366305204,0.004631152801059196,0.011604321750757388,0.13364880276510988
9389,9.0,300.07906,-7002.8742,0.09388995581670145,0.0,0.0,0.0,0.0,0.014328934768662399,0.9131494102283301,0.5553029830891375,0.6602465118462574,0.0003618109505404607,0.007618533168315682,0.12408403592864088
9390,9.0,299.98139,-7065.2937,0.09389996549139878,0.0,0.0,0.0,0.0,0.014330462386548115,0.9254072742405872,0.5674499975404544,0.6548155723702654,0.0013712668240834988,-0.015428879849461884,0.1330817474791459
9391,9.0,300.01491,-7129.2119999999995,0.09390994213086623,0.0,0.0,0.0,0.0,0.014331984962790645,0.936136984849527,0.5624405093110565,0.6685249475482753,0.0019167457597680782,-0.015577510466880587,0.11097256950213989
9392,9.0,299.62281,-7076.9409,0.09391995180556378,0.0,0.0,0.0,0.0,0.014333512580676389,0.9547465692336502,0.5598292422133445,0.6366375109387303,0.008123529925404983,0.013265170387170386,0.12607918617054686
9393,9.0,299.98332,-6971.9847,0.09392996148026134,0.0,0.0,0.0,0.0,0.014335040198562132,0.933344102803891,0.5616866816341595,0.6242784840364894,-0.0036038857031508264,0.017766663652433182,0.13464850571127288
9394,9.0,300.10405,-7046.6843,0.09393997115495867,0.0,0.0,0.0,0.0,0.01433656781644782,0.9328066141558451,0.5607216217089155,0.6484878254957654,-0.0022215818497030577,-0.006788126784635953,0.13706189519695586
9395,9.0,299.68766,-7276.3838,0.09394994779442611,0.0,0.0,0.0,0.0,0.014338090392690378,0.9360648009124032,0.5908959462418895,0.6848782367422194,-0.014748208829784884,-0.017573467255866185,0.13050656221749488
9396,9.0,300.00191,-7346.9554,0.09395995746912367,0.0,0.0,0.0,0.0,0.014339618010576094,0.955869716439496,0.5786306551063994,0.6987906267102654,0.011123198179274188,0.016130617351967986,0.12662322041423887
9397,9.0,300.48957,-7185.2577,0.09396996714382122,0.0,0.0,0.0,0.0,0.014341145628461838,0.9368076044282121,0.5607308017548215,0.6866005085996943,-0.004324471278717086,0.0066559848874195625,0.12597957355321587
9398,9.0,299.94982000000005,-7059.7374,0.09397994378328844,0.0,0.0,0.0,0.0,0.01434266820470434,0.9530558398517882,0.5613705374704585,0.6315575005023724,-0.0071174332697859725,-0.004090108050462236,0.12739093975000687
9399,9.0,299.72122,-7134.156999999999,0.093989953457986,0.0,0.0,0.0,0.0,0.014344195822590083,0.9557983431024522,0.5588820965498684,0.6539251484473874,-0.005577749181655984,-0.003337606109996077,0.11981425066974588
9400,9.0,300.06147999999996,-7274.9567,0.09399996313268333,0.0,0.0,0.0,0.0,0.014345723440475827,0.966035462175277,0.5742968831036895,0.6710728459847334,0.0072015341426610825,0.008292963175326741,0.1085450857075659
9401,9.0,299.74377000000004,-7197.4868,0.09400997280738088,0.0,0.0,0.0,0.0,0.014347251058361515,0.9382645871445051,0.5698848881932594,0.6797068007493383,-0.0006484221263592814,0.007426754511288603,0.12937699100601488
9402,9.0,298.9731,-7091.9824,0.0940199494468481,0.0,0.0,0.0,0.0,0.014348773634604073,0.9280106785175231,0.5565904389311994,0.6711844453507474,-0.018182034385177084,-0.02344323319116698,0.10319023118158291
9403,9.0,299.11287999999996,-7041.805,0.09402995912154566,0.0,0.0,0.0,0.0,0.014350301252489789,0.934117547002724,0.5580746071476754,0.6483407421112494,-0.0007870584602241223,-0.01067475698976649,0.12597452756771788
9404,9.0,299.43537000000003,-7231.6193,0.09403996879624321,0.0,0.0,0.0,0.0,0.014351828870375533,0.97948284127493,0.5584381511510544,0.6603107012400924,0.005898167740903834,-0.00023500691564587678,0.11150037147922989
9405,9.0,299.4326,-7383.7692,0.09404994543571044,0.0,0.0,0.0,0.0,0.014353351446618035,0.981934288434369,0.5805717788529735,0.6819753866632303,0.008381612527900753,0.028150285517466872,0.13598950168861887
9406,9.0,299.59122,-7187.483,0.09405995511040799,0.0,0.0,0.0,0.0,0.014354879064503778,0.95426000653563,0.5737798114451584,0.6567755527012004,-0.015948651819509385,-0.0035158279873102067,0.11967864740886287
9407,9.0,300.2752,-6938.6879,0.09406996478510554,0.0,0.0,0.0,0.0,0.014356406682389522,0.9074382260396802,0.5420447271206494,0.6597049094028054,-0.012115603698216989,-0.002006032041354948,0.13252626350932387
9408,9.0,300.28031,-6988.6434,0.09407994142457299,0.0,0.0,0.0,0.0,0.014357929258632052,0.9204510525689462,0.5576805541837855,0.6462414804215684,0.008855438570838743,0.005308295177262945,0.11986803398505388
9409,9.0,300.43859,-7145.0396,0.09408995109927032,0.0,0.0,0.0,0.0,0.014359456876517768,0.9423512071828231,0.5654720320202445,0.6640903976906194,0.024693669940825478,0.013807681715962087,0.13525240277087286
9410,9.0,299.74995,-7159.9535,0.09409996077396787,0.0,0.0,0.0,0.0,0.014360984494403484,0.9692315164357032,0.5613510020085305,0.6458645615168693,0.01009890871943469,-0.012082676109717288,0.1231613501225789
9411,9.0,299.51939,-7043.0487,0.09410997044866543,0.0,0.0,0.0,0.0,0.014362512112289227,0.933965812800249,0.5738723515767914,0.6330727653644174,-0.0005547582497028765,-0.00877387284971383,0.13982979049512587
9412,9.0,299.71414,-7003.238,0.09411994708813287,0.0,0.0,0.0,0.0,0.014364034688531757,0.9304205013628541,0.5523517097878694,0.6460372699964143,0.008272645079021501,-0.0033489860231941866,0.12417831885044588
9413,9.0,300.2297,-7172.9853,0.0941299567628302,0.0,0.0,0.0,0.0,0.014365562306417473,0.9213316884958581,0.5713137228217744,0.6877630205719254,-0.005719762363996594,0.0067551045585769135,0.13547052511989988
9414,9.0,299.59022999999996,-7307.5513,0.09413996643752776,0.0,0.0,0.0,0.0,0.014367089924303217,0.9517929857221541,0.5804217367781654,0.6890983930112163,-0.014536464890137386,-0.019168316833765586,0.11988473234670188
9415,9.0,299.2821,-7221.3769999999995,0.0941499430769952,0.0,0.0,0.0,0.0,0.014368612500545747,0.958231359242572,0.5654505409856234,0.6714363899881124,-0.01094469593565739,-0.011818280655123489,0.12067828956001989
9416,9.0,299.36789,-7025.0669,0.09415995275169253,0.0,0.0,0.0,0.0,0.014370140118431463,0.954705573134604,0.5527097011807005,0.6280296473642004,0.0018369572793185684,0.007873001710354773,0.12029193729688988
9417,9.0,299.23489,-6991.7968,0.09416996242639009,0.0,0.0,0.0,0.0,0.014371667736317179,0.9345203747124802,0.5467544351754614,0.6440568220134594,0.016828803412873586,0.02182210497192408,0.12603694377387786
9418,9.0,299.38965,-7256.3615,0.09417997210108764,0.0,0.0,0.0,0.0,0.014373195354202922,0.9525097892403971,0.5745113070898514,0.6787315981905934,0.004530731508823386,-0.002928860918331067,0.11704707477914689
9419,9.0,300.10138,-7358.2465,0.09418994874055509,0.0,0.0,0.0,0.0,0.014374717930445452,0.9541208265018941,0.5853546030350015,0.6972477811804983,-0.0062455372329365344,-0.003964876316277826,0.12399147553200587
9420,9.0,299.98296,-7143.4274,0.09419995841525242,0.0,0.0,0.0,0.0,0.014376245548331168,0.947247778821077,0.5610390020377385,0.6631367874915054,0.0059173465387966345,-0.00010746698760116592,0.1191311883798329
9421,9.0,299.9988,-6984.2919,0.09420996808994997,0.0,0.0,0.0,0.0,0.014377773166216912,0.9227490227357381,0.5660885845735935,0.6342127325219233,0.004753383896397466,0.013329045673474387,0.12796904959456187
9422,9.0,299.80926,-7119.1048,0.09421994472941742,0.0,0.0,0.0,0.0,0.014379295742459441,0.9654676570842392,0.5644177351586934,0.6341446927777085,0.0008518607690446124,-0.026065523436716875,0.1199924509648329
9423,9.0,300.36942999999997,-7309.5491,0.09422995440411497,0.0,0.0,0.0,0.0,0.014380823360345185,0.95876998273073,0.5838482041113314,0.6793022201169093,-0.0007656401161652963,-0.015432423185061587,0.11996083756171289
9424,9.0,300.2765,-7096.6792,0.0942399640788123,0.0,0.0,0.0,0.0,0.014382350978230873,0.9399160328199901,0.5564541263952465,0.6608431135051374,0.012772123901760489,0.015637523243803384,0.1179476919980309
9425,9.0,299.95735,-6891.4026,0.09424994071827997,0.0,0.0,0.0,0.0,0.01438387355447343,0.8916132049178721,0.5485101746837394,0.6546909223429634,0.014966262277805086,0.028308568355338175,0.13141596431474586
9426,9.0,299.68369,-6986.4037,0.0942599503929773,0.0,0.0,0.0,0.0,0.014385401172359147,0.922004385237248,0.5496106048223435,0.6520772842400174,0.0006504452220389453,-0.002293379535888938,0.12808991006648987
9427,9.0,299.81952,-7296.9653,0.09426996006767463,0.0,0.0,0.0,0.0,0.014386928790244863,0.951738320879259,0.5849456552946415,0.6814112596700554,-0.009350406077113231,-0.009065973703116941,0.12789267080202388
9428,9.0,299.76995,-7397.5069,0.09427996974237218,0.0,0.0,0.0,0.0,0.014388456408130607,0.9893801162642151,0.5815565262276604,0.6777207292283284,0.011729326415594387,0.003347924947689467,0.1264838681279859
9429,9.0,299.03438,-7197.6603,0.09428994638183963,0.0,0.0,0.0,0.0,0.014389978984373136,0.938788650228726,0.5835392337583384,0.6655811216352424,-0.013661831456817788,0.016664647777422683,0.12881683595323187
9430,9.0,299.09469,-7011.4914,0.09429995605653718,0.0,0.0,0.0,0.0,0.01439150660225888,0.9206363050847292,0.5684871603428144,0.6421948432321963,-0.016700112544172786,-0.017056752261370385,0.12388898528439089
9431,9.0,299.46752999999995,-7096.5206,0.09430996573123451,0.0,0.0,0.0,0.0,0.014393034220144568,0.9251451261747152,0.5585325050003664,0.6734874209730334,-0.013337600544068686,-0.01649596392727488,0.12313333375731388
9432,9.0,299.95761,-7343.4507,0.09431994237070196,0.0,0.0,0.0,0.0,0.014394556796387126,0.9756939039834911,0.5747423686426554,0.6817893742098723,0.003270658142763827,0.008877660462756872,0.11929146428065089
9433,9.0,300.23404,-7259.8015,0.09432995204539929,0.0,0.0,0.0,0.0,0.014396084414272842,0.9597430068017602,0.5678787239227665,0.6791766682970184,0.016854381898397983,0.017108819131008982,0.1175971277284329
9434,9.0,300.17568,-6972.9821,0.09433996172009684,0.0,0.0,0.0,0.0,0.014397612032158585,0.9368745397298182,0.5528364283707076,0.6299014648039344,-0.000981050045337101,-0.006050535731316384,0.1195917713452889
9435,9.0,300.05246,-6944.0963,0.0943499713947944,0.0,0.0,0.0,0.0,0.01439913965004433,0.9049802535495972,0.5401780671239245,0.6656735705743664,-0.003245649914395707,-0.006641753384465023,0.12419850279243788
9436,9.0,300.52535,-7240.3501,0.09435994803426184,0.0,0.0,0.0,0.0,0.014400662226286859,0.9543440961614291,0.5594674916626424,0.6870740409014283,-0.008250214862882813,0.01041887891551329,0.1110560815753819
9437,9.0,300.16555,-7406.547,0.09436995770895917,0.0,0.0,0.0,0.0,0.014402189844172547,0.9593367644391672,0.5896862573450025,0.7023823247372383,-0.002814342378778967,0.01956402443506888,0.1335133818892449
9438,9.0,300.46427,-7232.3804,0.0943799673836565,0.0,0.0,0.0,0.0,0.014403717462058263,0.9640757554218691,0.5669092259620845,0.6674780575449554,-0.01088049032982079,-0.006006967496891534,0.1115639630555059
9439,9.0,300.24672999999996,-6995.7968,0.09438994402312417,0.0,0.0,0.0,0.0,0.01440524003830082,0.938017323722602,0.5578066531587305,0.6307235551400684,-0.004804807554872586,-0.01043710221856179,0.13423156342762388
9440,9.0,299.42375,-7120.7162,0.0943999536978215,0.0,0.0,0.0,0.0,0.014406767656186537,0.962853451561237,0.5563280071552994,0.6453384415349454,0.014880264702067787,-0.005515594090046755,0.11210780478167888
9441,9.0,298.92645,-7295.4371,0.09440996337251906,0.0,0.0,0.0,0.0,0.01440829527407228,0.9555562067260551,0.5777109482556314,0.6843635563539243,0.02603444908265008,-0.0023588495765253276,0.13589084152638187
9442,9.0,299.53963999999996,-7203.3814,0.0944199400119865,0.0,0.0,0.0,0.0,0.01440981785031481,0.9454436768855261,0.5641393649587204,0.6800650150571913,-0.008749656172323832,-0.009585732602238151,0.1193781680917079
9443,9.0,299.37526,-6995.6705,0.09442994968668406,0.0,0.0,0.0,0.0,0.014411345468200554,0.9101878727035491,0.5583459757894575,0.6579752914821054,0.0012752526631576388,-0.013348138345108687,0.13524819778295788
9444,9.0,300.06927,-6900.42,0.09443995936138139,0.0,0.0,0.0,0.0,0.014412873086086242,0.9220025208570641,0.5351555890282444,0.6403972564947884,-0.004505555283588686,0.01077008457242459,0.12693713542771987
9445,9.0,299.45699,-7180.1508,0.09444996903607894,0.0,0.0,0.0,0.0,0.014414400703971986,0.9569314201592781,0.5733154794543325,0.6523396450884104,0.01068481349700899,0.017915901206661783,0.14351592343141886
9446,9.0,299.24671,-7438.3119,0.09445994567554639,0.0,0.0,0.0,0.0,0.014415923280214515,0.990742116916134,0.5877010977490824,0.6826178784191395,-0.0033501531859843766,-0.00984545839242109,0.12759522110266788
9447,9.0,299.74272,-7192.7823,0.09446995535024394,0.0,0.0,0.0,0.0,0.01441745089810026,0.9385466455748421,0.5767331517766304,0.6711464180744944,-0.0004398103048908976,-0.00781809540996094,0.12279469544139289
9448,9.0,300.14116,-7024.5628,0.09447996502494127,0.0,0.0,0.0,0.0,0.014418978515985975,0.9218679511112831,0.5650839268344414,0.6483398099211574,0.004003170989232216,0.0054460701370852745,0.11438207502863189
9449,9.0,300.02786000000003,-7099.0048,0.09448994166440894,0.0,0.0,0.0,0.0,0.014420501092228533,0.9362056224113011,0.5584558627628025,0.6632587118760384,0.015984296944777286,0.012869337142854688,0.11705084406951889
9450,9.0,300.85344,-7207.4343,0.09449995133910627,0.0,0.0,0.0,0.0,0.014422028710114249,0.954998706388534,0.5740794193672274,0.6618019419422664,-0.011944105039291388,0.009612002023005741,0.11788901468473988
9451,9.0,300.22227000000004,-7228.9348,0.0945099610138036,0.0,0.0,0.0,0.0,0.014423556327999937,0.9614797580031642,0.5609987152137624,0.6749371994811154,-0.005750168175647415,-0.0015277267236998887,0.1139979519157219
9452,9.0,300.51056,-7053.9142,0.09451997068850115,0.0,0.0,0.0,0.0,0.01442508394588568,0.9467436362338221,0.5564171427665965,0.6410529812970034,-0.01095524285594829,0.011861434976882489,0.1288933768657859
9453,9.0,300.17062000000004,-6978.4625,0.0945299473279686,0.0,0.0,0.0,0.0,0.01442660652212821,0.9090400325927662,0.5593466919857205,0.6528916232128864,0.002920317294812877,-0.005450398437537444,0.13215798762797787
9454,9.0,299.82703,-7141.286,0.09453995700266615,0.0,0.0,0.0,0.0,0.014428134140013954,0.941185999965326,0.5566595932505245,0.6729270328727274,-0.003324896508691737,-0.02423647629695398,0.13054129643092288
9455,9.0,299.95867000000004,-7320.8428,0.09454996667736348,0.0,0.0,0.0,0.0,0.01442966175789967,0.9531657268251331,0.5799383354204575,0.6922493475096912,-0.012951778210740988,-0.014853125811389385,0.13324130397239287
9456,9.0,300.01296,-7264.8046,0.09455994331683115,0.0,0.0,0.0,0.0,0.014431184334142227,0.9750656585239881,0.5762479873637484,0.6570055300763974,0.012140496213423687,0.019415071604118383,0.12480571317986489
9457,9.0,299.22415,-7106.3907,0.09456995299152848,0.0,0.0,0.0,0.0,0.014432711952027943,0.9474902191725041,0.5637248240778084,0.6489502829739063,0.010397325059386089,0.024831467901425076,0.13495838798935586
9458,9.0,299.77918,-7053.4488,0.09457996266622604,0.0,0.0,0.0,0.0,0.01443423956991366,0.9578431628642602,0.5594242866783785,0.6268048610408234,0.012304994327408388,0.0077989857157249615,0.1184141112840629
9459,9.0,300.05562000000003,-7202.0269,0.09458997234092337,0.0,0.0,0.0,0.0,0.014435767187799375,0.9379009620811181,0.5724006868665494,0.6789346839081363,0.009056639947170772,-0.014636340952494385,0.1137890501426049
9460,9.0,299.95508,-7262.6204,0.09459994898039081,0.0,0.0,0.0,0.0,0.014437289764041933,0.9548782816141492,0.5713201974899135,0.6814567748645474,0.008159025596283133,2.001474847705188e-05,0.11794432800769888
9461,9.0,300.00156,-7116.8388,0.09460995865508837,0.0,0.0,0.0,0.0,0.014438817381927649,0.9136584974760732,0.5755167247665784,0.6741660654925103,0.0063577207376331836,-0.005767358875519005,0.12475943804779788
9462,9.0,300.21247,-7020.8953,0.0946199683297857,0.0,0.0,0.0,0.0,0.014440344999813365,0.925560639775723,0.5597730372302975,0.6488431824383364,-0.017748186023609586,-0.005028462046795565,0.12589076218195086
9463,9.0,300.29036,-7112.9944,0.09462994496925314,0.0,0.0,0.0,0.0,0.014441867576055922,0.934894294396883,0.5752555190232994,0.6520228727096473,-0.008950731297693403,0.0028584446973315275,0.13026414213106988
9464,9.0,301.06798,-7228.1934,0.0946399546439507,0.0,0.0,0.0,0.0,0.014443395193941638,0.9701470588285601,0.5702325950975754,0.6568106415521634,-0.0036602886752673666,0.03196962537815637,0.13341520808705587
9465,9.0,299.79146000000003,-7232.6403,0.09464996431864803,0.0,0.0,0.0,0.0,0.014444922811827354,0.945731551371437,0.5803527243138544,0.6724577866189164,0.007026088266645924,0.015481617490666684,0.12981603227434488
9466,9.0,299.29254,-7042.8174,0.09465994095811547,0.0,0.0,0.0,0.0,0.014446445388069912,0.9298235957289441,0.5480074709116265,0.6630095739414503,-0.005078103702319815,-0.01855500465423638,0.1277974759551289
9467,9.0,299.40448,-7049.1046,0.09466995063281303,0.0,0.0,0.0,0.0,0.014447973005955628,0.9278790167995292,0.5551310852096725,0.6597416802489344,-0.001176764753437639,-0.024188349956954278,0.1185154565590649
9468,9.0,299.85679,-7324.6868,0.09467996030751036,0.0,0.0,0.0,0.0,0.014449500623841344,0.975452183039635,0.5789203027799854,0.6721494039509814,0.0013903730732691389,0.005721944803386984,0.11799594296779288
9469,9.0,299.8269,-7340.5985,0.09468996998220791,0.0,0.0,0.0,0.0,0.014451028241727087,0.966689494849825,0.5857882943428034,0.6788808600628243,0.008942330137139272,0.004985064241037535,0.11966500906251688
9470,9.0,300.2447,-7173.3258,0.09469994662167536,0.0,0.0,0.0,0.0,0.014452550817969617,0.9591394643796951,0.5617938024347315,0.6595786685728464,-0.012277063075151789,0.0036903484620090365,0.10613937665764091
9471,9.0,299.77853999999996,-7154.7792,0.09470995629637291,0.0,0.0,0.0,0.0,0.014454078435855361,0.9261009249940451,0.5740518386995055,0.6747214481373224,-0.0027622328513111573,-0.012434546458694188,0.12303495730510489
9472,9.0,300.21137999999996,-7140.5953,0.09471996597107024,0.0,0.0,0.0,0.0,0.014455606053741049,0.9413799461669671,0.5654384326469285,0.6637442917214614,0.013298540765963788,0.01868283324710208,0.1179678860725239
9473,9.0,300.18993,-7196.9736,0.09472994261053791,0.0,0.0,0.0,0.0,0.014457128629983634,0.9319158761254361,0.5738111918007555,0.6819731879105134,0.009417811324115611,0.0004617251313662226,0.13923281393370884
9474,9.0,300.03087,-7191.3259,0.09473995228523524,0.0,0.0,0.0,0.0,0.014458656247869323,0.9538149972242111,0.5781895164103624,0.6539789925577014,0.0034655307589712566,-0.016018269194130085,0.12952534095315588
9475,9.0,299.3529,-7040.9736,0.09474996195993257,0.0,0.0,0.0,0.0,0.014460183865755039,0.9360309887565661,0.5500483693955475,0.6542007930045914,-0.008847878407867611,-0.014779271024850486,0.13127145458548387
9476,9.0,299.32476,-7040.7056,0.09475997163463012,0.0,0.0,0.0,0.0,0.014461711483640782,0.9440975538626741,0.5579827661586115,0.6381183759598803,0.0012058093649041188,0.02073567288345158,0.12113552880014589
9477,9.0,299.83842999999996,-7241.1,0.09476994827409757,0.0,0.0,0.0,0.0,0.014463234059883312,0.943066460428413,0.5754862766010734,0.6825608527035114,-0.0049288197412366355,0.011059337078471591,0.13160519890342187
9478,9.0,299.99566,-7317.111999999999,0.09477995794879512,0.0,0.0,0.0,0.0,0.014464761677769056,0.9697550830273751,0.5676389484191025,0.6868253082668804,-0.016771136309932287,-0.01032453621195239,0.11494472267666088
9479,9.0,299.92584,-7176.4502,0.09478996762349245,0.0,0.0,0.0,0.0,0.014466289295654744,0.940062052291901,0.5650192004180535,0.6763804323935514,0.003319416649500917,-0.031210515628488072,0.12555993602430088
9480,9.0,300.18486,-7123.6277,0.09479994426296012,0.0,0.0,0.0,0.0,0.01446781187189733,0.949697827695378,0.5737303040452725,0.6419768120756784,0.027427082311592268,0.002982583945258117,0.13219712947934087
9481,9.0,300.55827999999997,-7191.9047,0.09480995393765745,0.0,0.0,0.0,0.0,0.014469339489783017,0.949654197146072,0.5773269467327334,0.6591782929283324,0.03284443613024347,0.0002688674339101497,0.1241695441045799
9482,9.0,300.30367,-7197.763000000001,0.09481996361235501,0.0,0.0,0.0,0.0,0.014470867107668761,0.9462399192116091,0.5798860111852935,0.6618142833284844,0.006308966587871524,-0.01310980064333659,0.1266203427839549
9483,9.0,299.71049,-7132.0297,0.09482994025182245,0.0,0.0,0.0,0.0,0.014472389683911291,0.9272071509232211,0.5703055693697774,0.6704462318578914,-0.010801855029310092,0.005440885133673555,0.11974015168993289
9484,9.0,299.64884,-7090.5097,0.09483994992652,0.0,0.0,0.0,0.0,0.014473917301797035,0.9401375394243511,0.5642436587915134,0.6509567005569243,-0.014516983130464685,0.026851335366270473,0.13220608661022487
9485,9.0,299.6981,-7163.9262,0.09484995960121734,0.0,0.0,0.0,0.0,0.01447544491968275,0.9369034173576681,0.5705769177465575,0.6701743464585583,-0.015470094810529486,0.013277770152163885,0.13889729642809587
9486,9.0,300.23716,-7227.6047,0.09485996927591467,0.0,0.0,0.0,0.0,0.014476972537568439,0.9752733950594901,0.5677326335233485,0.6540053370603014,-0.018493325080899084,-0.01136228973912069,0.13313585503448586
9487,9.0,300.35528,-7320.719,0.09486994591538234,0.0,0.0,0.0,0.0,0.014478495113811024,0.9704202817180252,0.5803643766900045,0.6745311192385384,0.0013870152637627487,-0.03670877341462387,0.12975441653576386
9488,9.0,299.5362,-7259.9367,0.09487995559007967,0.0,0.0,0.0,0.0,0.014480022731696712,0.966545684263132,0.5647571942071955,0.6755366179752733,0.015863349333340684,-0.0038251753706654164,0.11017215258564489
9489,9.0,298.99075,-7075.7856,0.09488996526477722,0.0,0.0,0.0,0.0,0.014481550349582456,0.9138602355709832,0.5649553048667474,0.6720465995958353,0.02205456886286648,0.00918475326331457,0.1065186969650769
9490,9.0,299.2711,-7071.5957,0.09489994190424467,0.0,0.0,0.0,0.0,0.014483072925824986,0.9369626418260131,0.5619521936903634,0.6506736795389924,0.005915709227960045,0.006919724262573613,0.1130913362562459
9491,9.0,298.94439,-7248.119000000001,0.09490995157894222,0.0,0.0,0.0,0.0,0.01448460054371073,0.9429740925492971,0.5733828099234775,0.6868903082607953,-0.014076206164713384,0.007263906373766744,0.1165689929844639
9492,9.0,299.84057,-7263.2946,0.09491996125363955,0.0,0.0,0.0,0.0,0.014486128161596445,0.9774700402162821,0.5829332088735284,0.6474569448440254,0.01216901008448779,0.012592493910782388,0.13647845565687486
9493,9.0,300.45962000000003,-7075.0467,0.0949299709283371,0.0,0.0,0.0,0.0,0.014487655779482161,0.933311273500651,0.5634435255850465,0.6538827337982014,0.008798293291698941,0.0019776029793242183,0.13884810313574086
9494,9.0,300.33353,-6992.0212,0.09493994756780433,0.0,0.0,0.0,0.0,0.014489178355724719,0.9314198902014861,0.5572929657555334,0.6366869879411133,-0.008873625700858671,-0.026479358082309175,0.13317349727570085
9495,9.0,300.47364,-7127.5313,0.09494995724250188,0.0,0.0,0.0,0.0,0.014490705973610435,0.9274982576769512,0.5718885700010075,0.6672047231979794,-0.018128238910867882,-0.02132959956206758,0.12212806806810188
9496,9.0,300.59011,-7257.4686,0.09495996691719943,0.0,0.0,0.0,0.0,0.014492233591496151,0.961242130589712,0.5706947587331874,0.6741523562186573,-0.013996928463639289,0.017827110100398783,0.13159156055707588
9497,9.0,299.94991,-7193.486,0.09496994355666666,0.0,0.0,0.0,0.0,0.01449375616773868,0.951160788587261,0.5615020573334385,0.6739772666013774,0.0027428085429191274,0.019644211021482682,0.12598073879083088
9498,9.0,299.70822999999996,-7048.5517,0.09497995323136421,0.0,0.0,0.0,0.0,0.014495283785624424,0.9425824105906412,0.5550249573941984,0.6449763363467084,0.005894714685888045,-0.002845714121750117,0.12634964288723888
9499,9.0,300.12591000000003,-7146.4838,0.09498996290606154,0.0,0.0,0.0,0.0,0.01449681140351014,0.9366985077899451,0.5738318823677975,0.6618222373417694,0.0012788169730344088,-0.007257782188837333,0.12042331530485588
9500,9.0,300.12907,-7311.7849,0.09499993954552899,0.0,0.0,0.0,0.0,0.01449833397975267,0.9646631770348431,0.5774431361217005,0.6804937211745014,0.021990993498592078,-0.0008818171130835732,0.11801119238179787
9501,9.0,300.6156,-7299.8921,0.09500994922022654,0.0,0.0,0.0,0.0,0.014499861597638414,0.9451669684157171,0.5849015485177884,0.6889163930282544,0.003061755255071717,0.00039594682965190967,0.1109399428489199
9502,9.0,300.29334,-7060.5394,0.0950199588949241,0.0,0.0,0.0,0.0,0.01450138921552413,0.9288421920795872,0.5621410736415045,0.6552444102100884,-0.006163471979512323,-0.002796579901875947,0.1193464229660749
9503,9.0,300.46086,-7009.2403,0.09502996856962143,0.0,0.0,0.0,0.0,0.014502916833409846,0.924713785607145,0.5546585053630324,0.6512617394995294,-0.02186235227914618,-0.00959013446464758,0.12979196758446987
9504,9.0,300.46831000000003,-7198.429,0.09503994520908887,0.0,0.0,0.0,0.0,0.014504439409652375,0.9823773117755922,0.5660232603396466,0.6397421193776314,-0.006821156002120684,0.019180278251196083,0.12603030698572287
9505,9.0,300.66083,-7254.5082,0.09504995488378642,0.0,0.0,0.0,0.0,0.01450596702753812,0.975371335814156,0.5690749568583254,0.6607430449252614,-0.004359298711154286,0.0071734086503603125,0.13811536119342488
9506,9.0,299.93686,-7131.4103,0.09505996455848398,0.0,0.0,0.0,0.0,0.014507494645423863,0.953584219381435,0.5542571569984225,0.6599292936374503,0.0038689296378086263,-0.013072362065391687,0.11344045157820089
9507,9.0,299.38571,-7060.3277,0.0950699411979512,0.0,0.0,0.0,0.0,0.014509017221666365,0.9140263680573792,0.5550830368899304,0.6770539296025203,-0.005474137063530265,-0.02124481282019978,0.1211358429076769
9508,9.0,299.83839,-7229.1134,0.09507995087264876,0.0,0.0,0.0,0.0,0.014510544839552109,0.9389992745270132,0.5790724118849974,0.6793982559613874,0.013763870808138286,-0.0027061478370759974,0.11137942994729388
9509,9.0,300.03201,-7329.4236,0.09508996054734631,0.0,0.0,0.0,0.0,0.014512072457437825,0.9531847455295102,0.5864069240588574,0.6883700992368393,-0.0016380165652846485,0.015842221042255484,0.13823616087034687
9510,9.0,300.20599,-7272.5598,0.09509997022204364,0.0,0.0,0.0,0.0,0.01451360007532354,0.963699099962196,0.5840074566295484,0.6629700267900474,-0.007518342795777664,0.006062357826858135,0.12232043359958687
9511,9.0,299.74698,-6994.1928,0.09510994686151109,0.0,0.0,0.0,0.0,0.01451512265156607,0.9128241366812282,0.5699882701009624,0.6432475594235914,-0.01070618598136829,0.0062320733682577545,0.14150547311300288
9512,9.0,299.97787,-6848.0283,0.09511995653620864,0.0,0.0,0.0,0.0,0.014516650269451814,0.9082668721039611,0.5518545282288014,0.6215082177330854,-0.0008189063294172621,0.00789462244098857,0.13846254120768886
9513,9.0,300.32195,-7065.5026,0.09512996621090619,0.0,0.0,0.0,0.0,0.014518177887337558,0.92367606551723,0.5667501558288854,0.6573101333214594,0.005140241366027325,-0.008566435222991331,0.13553709565146987
9514,9.0,300.53595,-7304.5095,0.09513994285037342,0.0,0.0,0.0,0.0,0.01451970046358006,0.972843732777201,0.5704481235263464,0.6770966178292334,-0.002210490510133428,-0.027085998009929876,0.13124623479049488
9515,9.0,300.61622,-7222.7093,0.09514995252507097,0.0,0.0,0.0,0.0,0.014521228081465803,0.9491586874496689,0.5809053509183945,0.6654592276482123,-0.004299777765830026,-0.003114681563445137,0.12198057938354587
9516,9.0,300.52677,-7173.7798,0.09515996219976852,0.0,0.0,0.0,0.0,0.01452275569935152,0.9558523493327821,0.5729386517421424,0.6518589288434674,-0.0062589462807849045,0.017324855198080084,0.13127693626852488
9517,9.0,300.68192,-7347.8319,0.09516997187446607,0.0,0.0,0.0,0.0,0.014524283317237263,0.970638535789565,0.5808213322201025,0.6820975542277874,-0.0010963838256546588,0.023279410914998976,0.1271012819439199
9518,9.0,300.30361,-7414.9571,0.0951799485139333,0.0,0.0,0.0,0.0,0.014525805893479765,0.9850982024016229,0.5704483261763664,0.6984152783432213,-0.007617702911183743,-0.002344069702616668,0.11337933233216888
9519,9.0,300.27437000000003,-7271.7164,0.09518995818863085,0.0,0.0,0.0,0.0,0.014527333511365509,0.945823706468032,0.5656884723741055,0.6989080319993524,0.0008279048110378433,-0.005794253268948275,0.10515888493337389
9520,9.0,299.83374,-7121.084,0.0951999678633284,0.0,0.0,0.0,0.0,0.014528861129251253,0.9443224041923651,0.5506734839122415,0.6696358344279113,0.016474414124148084,-0.0004789530884439895,0.10148809260359491
9521,9.0,299.79893,-6972.1952,0.09520994450279585,0.0,0.0,0.0,0.0,0.014530383705493782,0.9286353269391711,0.5421107910271694,0.6486271271195134,0.016868686963309787,0.003022397581437417,0.11999826702040689
9522,9.0,299.71297999999996,-7090.8261,0.09521995417749318,0.0,0.0,0.0,0.0,0.01453191132337947,0.956938006284928,0.5560389471667715,0.6424571128880804,0.007901492884616631,-0.017465824631492682,0.12115588499465489
9523,9.0,299.20985,-7372.967,0.09522996385219074,0.0,0.0,0.0,0.0,0.014533438941265214,0.9704790502238252,0.5846244043504365,0.6860944205722473,-0.0067222130417807745,0.004999057832868595,0.12281320752071988
9524,9.0,300.14489,-7309.3783,0.09523994049165818,0.0,0.0,0.0,0.0,0.014534961517507744,0.9610036115161721,0.5811705083370634,0.6796943479056093,-0.006645998902384024,0.014233363281723588,0.13745630279838086
9525,9.0,300.90816,-7104.1990000000005,0.09524995016635551,0.0,0.0,0.0,0.0,0.01453648913539346,0.923439613473894,0.5693111454566354,0.6667483350879374,-0.010350044783219891,0.005833733241869645,0.13847169085609187
9526,9.0,300.66545,-7120.085,0.09525995984105307,0.0,0.0,0.0,0.0,0.014538016753279204,0.9359650667050602,0.5614384353596594,0.6669245595453294,-0.013353516676639487,-0.016499510302624885,0.13238469220535187
9527,9.0,299.90135,-7305.3741,0.09526996951575062,0.0,0.0,0.0,0.0,0.014539544371164947,0.962202114131955,0.5794053456028555,0.6790438514739103,0.003242418862476827,-0.006827001441947583,0.11543599698764588
9528,9.0,299.9591,-7221.3732,0.09527994615521784,0.0,0.0,0.0,0.0,0.014541066947407477,0.9609486224332451,0.5704911866555964,0.6636773361548534,0.015268476279131285,0.011580530638409388,0.13240088394194988
9529,9.0,299.66906,-7024.9428,0.0952899558299154,0.0,0.0,0.0,0.0,0.014542594565293165,0.9210365895367342,0.5599035134456745,0.6544670953958734,0.010259296077763689,0.018172672967503183,0.12116701048075289
9530,9.0,300.36602,-6965.8356,0.09529996550461295,0.0,0.0,0.0,0.0,0.014544122183178937,0.9183472312538152,0.5458248086062145,0.6532680557575374,-0.0007157696890334683,-0.0017543405138649283,0.1312323735291269
9531,9.0,299.88841,-7191.2671,0.09530994214408017,0.0,0.0,0.0,0.0,0.014545644759421439,0.9279481305888501,0.5745257864337805,0.6834917154378803,0.008249121768674931,0.006837058455815133,0.11489727217447789
9532,9.0,300.29491,-7333.4832,0.09531995181877773,0.0,0.0,0.0,0.0,0.014547172377307183,0.9637809705702761,0.5904543617158085,0.6749604333059084,0.0034787185129977866,0.010959284710597188,0.13729978605543386
9533,9.0,300.44914,-7349.7814,0.09532996149347528,0.0,0.0,0.0,0.0,0.014548699995192926,0.9734887272608571,0.5892326658052364,0.6714286183598454,-0.003279095476346527,0.007696578047993112,0.13222273430936787
9534,9.0,300.2886,-7115.7989,0.09533997116817261,0.0,0.0,0.0,0.0,0.014550227613078642,0.960151559374581,0.5616499006555296,0.6412237240713544,-0.015020635304671286,-0.02217136417539328,0.1271448213007169
9535,9.0,299.67872,-7127.6735,0.09534994780764006,0.0,0.0,0.0,0.0,0.014551750189321172,0.9435393746475861,0.5531047977921935,0.6699906036854243,-0.01097402648630209,-0.011508762133826388,0.1088762563702499
9536,9.0,299.61363,-7370.4182,0.09535995748233739,0.0,0.0,0.0,0.0,0.01455327780720686,0.9705683175576351,0.5676850310336504,0.7021697448662584,0.004360405281588496,0.007803869885181992,0.1077404334056529
9537,9.0,299.29851,-7387.7834,0.09536996715703516,0.0,0.0,0.0,0.0,0.014554805425092632,0.9637293150801781,0.5768597979066294,0.7051125676616923,0.0008962287009783859,0.01159919875825179,0.1054295949625909
9538,9.0,299.74369,-7257.8446,0.09537994379650239,0.0,0.0,0.0,0.0,0.014556328001335134,0.964752282248637,0.5655685339597685,0.6758827239444313,0.010106362085845281,-0.01123169497348199,0.10580908752254391
9539,9.0,299.23398,-7251.1443,0.09538995347119994,0.0,0.0,0.0,0.0,0.014557855619220877,0.965119423289871,0.5703112131728344,0.6687361595316204,0.017459362122354882,-0.005229846416095654,0.11731946680352989
9540,9.0,299.15256,-7241.7439,0.09539996314589749,0.0,0.0,0.0,0.0,0.014559383237106621,0.9642197889235841,0.5853951938340075,0.6516943263647225,0.02315425628914718,0.005840668432179095,0.13080209687416186
9541,9.0,300.3105,-7282.4652,0.09540993978536494,0.0,0.0,0.0,0.0,0.014560905813349151,0.9499860973488281,0.5933849545825355,0.6703165358450914,0.001161989439154429,-0.005922468518052134,0.14122147937497487
9542,9.0,299.78294,-7292.6939,0.09541994946006227,0.0,0.0,0.0,0.0,0.014562433431234867,0.9473071147469331,0.5887246120725955,0.6807651404787883,-0.018984109992085784,-0.014309002401688586,0.13900622081384587
9543,9.0,299.89016000000004,-7089.0945,0.09542995913475982,0.0,0.0,0.0,0.0,0.014563961049120583,0.9116949201072831,0.5724215192886054,0.6707912840469453,-0.01009335377841146,-0.007445967658359792,0.13362493059275388
9544,9.0,299.70974,-6983.3531,0.09543996880945738,0.0,0.0,0.0,0.0,0.014565488667006327,0.9197682841215622,0.5619441282195674,0.6410525658644624,-0.0024425611587120177,0.007484060289244243,0.14357423597467386
9545,9.0,299.42461000000003,-7154.9664,0.09544994544892482,0.0,0.0,0.0,0.0,0.014567011243248856,0.9464268030600531,0.5746255915686304,0.6538787213278053,-0.001083611808144159,0.0027956482184089975,0.13934059334684587
9546,9.0,300.10512,-7289.0379,0.09545995512362215,0.0,0.0,0.0,0.0,0.014568538861134572,0.9695890518659891,0.5762384324153055,0.6698580300423403,-0.012081953662395988,-0.019447259520045085,0.12677579561429686
9547,9.0,300.37845,-7218.044,0.0954699647983197,0.0,0.0,0.0,0.0,0.014570066479020316,0.945124047141481,0.5722662488432815,0.6767148454565554,0.004721471483172955,-0.013665775026206988,0.12020102849791789
9548,9.0,300.13527,-7197.4125,0.09547994143778715,0.0,0.0,0.0,0.0,0.014571589055262846,0.9300239862012211,0.5711587462189794,0.6866509583221734,0.012879460524603788,0.011785608405648988,0.1197728188731569
9549,9.0,300.45007999999996,-7287.8676,0.09548995111248448,0.0,0.0,0.0,0.0,0.014573116673148562,0.9388623743060022,0.5921240965555985,0.6843432913519244,0.022924198867192276,0.01205599419483399,0.12298902667807188
9550,9.0,299.89187000000004,-7349.3892,0.09549996078718204,0.0,0.0,0.0,0.0,0.014574644291034278,0.970441985535167,0.5878697937582315,0.6757190435232774,-0.00849225244739506,0.0002729913415521477,0.12775437229587489
9551,9.0,299.38924,-7257.4816,0.09550997046187959,0.0,0.0,0.0,0.0,0.014576171908920021,0.9751632041111151,0.5772816645857645,0.6536483183875663,-0.004279909653894196,-0.0001914229251819718,0.13005540247796887
9552,9.0,299.07566,-7038.3196,0.09551994710134704,0.0,0.0,0.0,0.0,0.014577694485162551,0.942614875123845,0.5548292785348865,0.6420292376358524,0.007151773531575093,0.015010947620465186,0.1312752340083569
9553,9.0,299.26842999999997,-6984.2675,0.09552995677604437,0.0,0.0,0.0,0.0,0.014579222103048267,0.9248328424938952,0.5509916748411444,0.6472183953729824,0.002822806867464347,0.00012845881416289788,0.12524157284288087
9554,9.0,299.84957,-7171.9643,0.09553996645074192,0.0,0.0,0.0,0.0,0.014580749720934011,0.9333479430217702,0.5651199478754965,0.6816301926191624,-0.01084446624901549,-0.019634991458822783,0.1256194138051709
9555,9.0,299.72286,-7318.4985,0.09554994309020937,0.0,0.0,0.0,0.0,0.01458227229717654,0.954432289450133,0.5755381347411914,0.6946703870336294,-0.0042022074554005865,-0.012281085678048788,0.1104053216986569
9556,9.0,299.73559,-7201.5844,0.09555995276490692,0.0,0.0,0.0,0.0,0.014583799915062284,0.9558244545575292,0.5611507736562694,0.6721266159562324,0.011777271383826188,0.02040736161254978,0.1205015686100789
9557,9.0,299.91933,-7179.6859,0.09556996243960425,0.0,0.0,0.0,0.0,0.014585327532947973,0.951814811129308,0.5734168753918395,0.6572135604544284,0.01338079336933149,0.0100820888690997,0.11899438948383188
9558,9.0,299.80054,-7359.6656,0.0955799721143018,0.0,0.0,0.0,0.0,0.014586855150833716,0.9702649403451941,0.5919129251022575,0.6749767162350153,-0.014357051734680687,-0.0025681753948091778,0.12256888252410687
9559,9.0,300.41472000000005,-7389.9073,0.09558994875376903,0.0,0.0,0.0,0.0,0.014588377727076246,0.966440924335293,0.5757506031546604,0.7041557758572643,-0.01084761847007659,-0.01020230987888959,0.10787228764116591
9560,9.0,300.03594,-7177.7654,0.09559995842846658,0.0,0.0,0.0,0.0,0.014589905344961962,0.933231388862767,0.5727315028916985,0.6758985610434943,-0.004900517639443436,0.0065048237792011245,0.12588145041353188
9561,9.0,299.51268999999996,-7044.179,0.09560996810316413,0.0,0.0,0.0,0.0,0.014591432962847706,0.908502483149714,0.5711353908041744,0.6616166590289804,0.008520092811117692,0.006188564510288764,0.13827483662666387
9562,9.0,300.1083,-6967.7544,0.09561994474263136,0.0,0.0,0.0,0.0,0.014592955539090235,0.935486235105303,0.5542571772634245,0.6282799505364034,-0.0017289213112562482,-0.013008644846103288,0.14404779867391088
9563,9.0,300.01363,-7086.5913,0.09562995441732891,0.0,0.0,0.0,0.0,0.01459448315697598,0.9517251688929612,0.5668149937027845,0.6356066606844935,-0.00012206203455908487,-0.0001534155491609359,0.14619076184040486
9564,9.0,300.13992,-7255.7181,0.09563996409202624,0.0,0.0,0.0,0.0,0.014596010774861667,0.963175482708019,0.5781863550700505,0.6641952994734724,-0.005872805482950775,0.016644631021697186,0.13892414755574586
9565,9.0,299.85219,-7321.4051,0.09564994073149391,0.0,0.0,0.0,0.0,0.014597533351104253,0.9517437518997951,0.5784111750022385,0.6953694080126174,0.003984899860778996,-0.006524266123444934,0.12496530007061489
9566,9.0,299.54894,-7277.3068,0.09565995040619124,0.0,0.0,0.0,0.0,0.014599060968989941,0.9342035719362141,0.5880083658419075,0.6899076150710803,-0.013002681869264787,-0.00885474155609495,0.1258485805802879
9567,9.0,299.77734,-7306.8224,0.0956699600808888,0.0,0.0,0.0,0.0,0.014600588586875685,0.9498015034456102,0.5792131117938835,0.6920769430051764,-0.0025459941342200576,-0.008503656577270561,0.11756650731041088
9568,9.0,298.90283,-7380.935,0.09567996975558613,0.0,0.0,0.0,0.0,0.0146021162047614,0.983524614863822,0.5818434482584774,0.6782518951957504,0.005922680591298064,0.027881809704720373,0.11460027843766687
9569,9.0,299.58456,-7301.8813,0.0956899463950538,0.0,0.0,0.0,0.0,0.014603638781003958,0.9772460511491761,0.5777386302483635,0.6646049058263973,0.004224118988813086,0.008722871615205402,0.11647521668770888
9570,9.0,300.05723,-7132.0633,0.09569995606975112,0.0,0.0,0.0,0.0,0.014605166398889674,0.955671808429964,0.5595616732594375,0.6527356840224964,0.004945672826174905,-0.0025863413479020173,0.12082043841654888
9571,9.0,300.35479,-7075.6131,0.09570996574444846,0.0,0.0,0.0,0.0,0.014606694016775362,0.931217503626512,0.5632424866327055,0.6563497039491724,0.010308120547082291,-0.00916300374859306,0.11374190361545189
9572,9.0,300.63852,-7168.9142,0.09571994238391612,0.0,0.0,0.0,0.0,0.014608216593017948,0.9274057580753222,0.5715988311349124,0.6801663299346904,0.02277482655070038,0.01109332655307609,0.1263499671272709
9573,9.0,300.06382,-7311.3517,0.09572995205861345,0.0,0.0,0.0,0.0,0.014609744210903636,0.9542687002214881,0.5781774992641765,0.6900221528623843,0.01147979230021729,-0.007931899608192542,0.12222783267294787
9574,9.0,299.60607000000005,-7311.9512,0.09573996173331101,0.0,0.0,0.0,0.0,0.01461127182878938,0.9761388221024011,0.5851108251934424,0.6614009482151914,-0.009218591763654171,-0.008100583154365312,0.13774516013688887
9575,9.0,300.45541000000003,-7185.3937,0.09574997140800834,0.0,0.0,0.0,0.0,0.014612799446675095,0.9557291685181251,0.5619181687520055,0.6665329181166774,-0.006980661326237634,-0.003829967840988397,0.11648444739611989
9576,9.0,299.2243,-7239.6689,0.095759948047476,0.0,0.0,0.0,0.0,0.014614322022917653,0.949001349974141,0.5864638991119804,0.6652133017164413,-0.016920166147890384,0.023476877147487377,0.12051919916181889
9577,9.0,299.42400000000004,-7352.9788,0.09576995772217334,0.0,0.0,0.0,0.0,0.014615849640803369,0.9539158054766601,0.5842700707904664,0.6969360851847363,-0.01793134111168558,0.0025379948286555873,0.11947290697605789
9578,9.0,300.08988999999997,-7274.9796,0.09577996739687089,0.0,0.0,0.0,0.0,0.014617377258689085,0.947129441341898,0.5631158810327105,0.7011668096522764,-0.01912241761748568,-0.015305549073790087,0.11971880251032589
9579,9.0,299.77914,-7102.7664,0.09578994403633834,0.0,0.0,0.0,0.0,0.014618899834931642,0.9357235382787231,0.5709524586311204,0.6523876224806453,-0.00013859668538842787,-0.012646354233097987,0.13361715896448687
9580,9.0,299.88478,-6970.9099,0.09579995371103589,0.0,0.0,0.0,0.0,0.014620427452817358,0.9248077746864212,0.5580980740199915,0.6360767074058834,0.028042179837797675,0.015726260647811085,0.13334793841291687
9581,9.0,300.65485,-7165.0095,0.09580996338573322,0.0,0.0,0.0,0.0,0.014621955070703074,0.956174674322093,0.5720071405277094,0.6498021527304795,0.010770208188936791,-0.005644810835549454,0.13331254558692388
9582,9.0,300.15456,-7351.9496,0.09581994002520089,0.0,0.0,0.0,0.0,0.014623477646945632,0.956104891787706,0.5965633478937185,0.6821408706695623,-0.003607896248371637,-0.005653783570484994,0.1274135858897419
9583,9.0,301.06866,-7086.2604,0.09582994969989822,0.0,0.0,0.0,0.0,0.014625005264831348,0.9204157610679631,0.5548845513278414,0.6787459154145064,-0.004671051448921886,-0.0076619692749274925,0.1282423839415379
9584,9.0,300.11097,-7110.9758,0.09583995937459555,0.0,0.0,0.0,0.0,0.014626532882717064,0.9131770111610541,0.5773238563199284,0.6710582247857904,0.007687242670846783,0.026126499814484776,0.12222838996050289
9585,9.0,300.23964,-7371.3128,0.0958499690492931,0.0,0.0,0.0,0.0,0.01462806050060278,0.979107543570391,0.5858351064974234,0.6757523895840684,-0.002924627863388297,-0.009298835294723591,0.11912897949461487
9586,9.0,300.64437000000004,-7448.4249,0.09585994568876055,0.0,0.0,0.0,0.0,0.014629583076845337,1.00006630778136,0.5801957313433604,0.6838731433055243,-0.009020673317646142,-0.014551671747638186,0.11579571090564687
9587,9.0,300.26436,-7394.0988,0.0958699553634581,0.0,0.0,0.0,0.0,0.014631110694731053,0.9884046705254461,0.5822672198478004,0.6769495243122163,0.0023123668295128375,-0.016869228038863184,0.10896348707135889
9588,9.0,299.66184,-7172.6389,0.09587996503815543,0.0,0.0,0.0,0.0,0.01463263831261677,0.940373738155162,0.5594980411531575,0.6804313454983454,0.011423806179191889,0.02125777735522928,0.1103843271565849
9589,9.0,300.44574,-6996.2924,0.09588994167762288,0.0,0.0,0.0,0.0,0.014634160888859327,0.904501766454874,0.5553592995296955,0.6668371261942004,0.008325385861301611,0.006426623568283364,0.1216298935239359
9590,9.0,299.83087,-7151.1442,0.09589995135232043,0.0,0.0,0.0,0.0,0.014635688506745043,0.9262067893644931,0.5800153424280574,0.6675471409367734,-0.007737591574940831,0.004698968009052036,0.13067318106393888
9591,9.0,299.72126000000003,-7258.2979,0.09590996102701776,0.0,0.0,0.0,0.0,0.014637216124630786,0.9752999118146072,0.5685811798195934,0.6624602201347334,-0.0009394034802569052,0.004638628965597035,0.13851456146782287
9592,9.0,299.44629,-7064.9858,0.09591997070171532,0.0,0.0,0.0,0.0,0.014638743742516475,0.9468057585974531,0.5724522308991364,0.6283212708754814,0.0007375371382817484,0.01971795739026088,0.14868333682140286
9593,9.0,299.81113,-6916.3446,0.09592994734118276,0.0,0.0,0.0,0.0,0.01464026631875906,0.9334634028706651,0.5468207422620055,0.6221119222751664,0.005884176884848045,-0.005358077978526125,0.13685194977623585
9594,9.0,300.2884,-7195.3485,0.0959399570158801,0.0,0.0,0.0,0.0,0.014641793936644748,0.9430201650313441,0.5719978287592905,0.6721882924898194,-0.014280200767596089,-0.019861723393949482,0.12378033447616789
9595,9.0,300.74594,-7450.898,0.09594996669057765,0.0,0.0,0.0,0.0,0.014643321554530464,0.9532620362471381,0.5969395575233474,0.7146853695714542,-0.0014349850566219987,-0.01041260284439389,0.12932096840798588
9596,9.0,300.06309,-7323.1013,0.0959599433300451,0.0,0.0,0.0,0.0,0.014644844130773021,0.9410895892183112,0.5826843749139704,0.7022659630957543,-0.002195732725076948,0.016768917292213283,0.12017115788496989
9597,9.0,300.49683,-7096.0966,0.09596995300474243,0.0,0.0,0.0,0.0,0.014646371748658737,0.9416839313294681,0.5695255593102965,0.6458266862281313,0.0028970598612925473,-0.00022477420421098678,0.12119673923868689
9598,9.0,300.09514,-7088.6437,0.09597996267943998,0.0,0.0,0.0,0.0,0.014647899366544481,0.9540918475490341,0.5651404560575204,0.6355383676277534,0.0012907915627162088,-0.005620625670237564,0.13218115052526386
9599,9.0,300.04846000000003,-7256.8577,0.09598993931890742,0.0,0.0,0.0,0.0,0.014649421942787011,0.9704321671416981,0.5724424834331745,0.6630288864883563,0.007759215345324933,0.006890331093072733,0.13343593918410188
9600,9.0,299.40364,-7335.5242,0.09599994899360498,0.0,0.0,0.0,0.0,0.014650949560672755,0.9575862026389002,0.5893458559739074,0.6828841402804173,-0.002858049124492487,0.013734638542753287,0.13295172722631388
9601,9.0,299.73536,-7152.4825,0.09600995866830231,0.0,0.0,0.0,0.0,0.014652477178558443,0.921570156906893,0.5630606791672625,0.6895452363053163,-0.010628990509249689,-0.008476166190132473,0.12022832545561189
9602,9.0,299.83072000000004,-6984.4171,0.09601996834299986,0.0,0.0,0.0,0.0,0.014654004796444187,0.9040220026650251,0.5686784720941955,0.6503879227457904,-0.008764856747674013,-0.007123089231844173,0.12998456616347787
9603,9.0,300.25186,-7239.0308,0.09602994498246731,0.0,0.0,0.0,0.0,0.014655527372686716,0.961202978605848,0.5708644578599354,0.6684171681351384,0.016603949030182186,0.008881081904369542,0.11987358659560188
9604,9.0,300.02098,-7512.0388,0.09603995465716486,0.0,0.0,0.0,0.0,0.01465705499057246,1.003140427524752,0.5985748317272364,0.6817569502066724,0.02165845798802338,0.02084944567093008,0.12676723365095188
9605,9.0,300.89136,-7280.8667,0.09604996433186219,0.0,0.0,0.0,0.0,0.014658582608458176,0.971681291732477,0.5795421242338544,0.6619782474596664,0.003163075300146227,-0.01282275195625709,0.1154497265265009
9606,9.0,299.61149,-7128.3197,0.09605994097132964,0.0,0.0,0.0,0.0,0.014660105184700706,0.9405119758663052,0.5517370621447085,0.6745821667785763,-0.0030780318007030873,-0.01972200127140998,0.1216858654594599
9607,9.0,299.90662000000003,-7177.6282,0.09606995064602719,0.0,0.0,0.0,0.0,0.01466163280258645,0.9288342988613081,0.5716178093092855,0.6813676392532504,0.0017595216669262681,-0.007101514705414932,0.1205571859080679
9608,9.0,299.85851,-7200.1748,0.09607996032072452,0.0,0.0,0.0,0.0,0.014663160420472138,0.9376840252347082,0.5688720129957965,0.6821173227372384,0.007687535094825643,0.013600332241998287,0.1198872857369539
9609,9.0,299.89735,-7282.7504,0.09608996999542208,0.0,0.0,0.0,0.0,0.014664688038357881,0.966725941455922,0.5820326524496505,0.6650156774169373,-0.007380459823494674,0.004387912995303295,0.12727420320598587
9610,9.0,300.11875,-7241.8945,0.09609994663488952,0.0,0.0,0.0,0.0,0.014666210614600411,0.9658714473815901,0.5802185902656165,0.6552650602471264,-0.0036763413939516465,-0.00023773895202300777,0.13210093151484686
9611,9.0,299.97414,-7089.2058,0.09610995630958707,0.0,0.0,0.0,0.0,0.014667738232486155,0.9598359927634371,0.5517351167045165,0.6433704261307174,-0.0005150854654199775,0.0015216078076709986,0.14139086439419188
9612,9.0,299.33116,-7053.6208,0.0961199659842844,0.0,0.0,0.0,0.0,0.014669265850371871,0.918300550821708,0.5628201639910255,0.6630038693433874,0.01029729903601429,0.014144934918996386,0.12156260358479487
9613,9.0,300.44842,-7124.3037,0.09612994262375185,0.0,0.0,0.0,0.0,0.0146707884266144,0.9118635857189291,0.5718908295487304,0.6818560055364484,-0.013472266548609186,-0.017406292135117286,0.13523552202420686
9614,9.0,300.1505,-7219.5675,0.0961399522984494,0.0,0.0,0.0,0.0,0.014672316044500117,0.9413888121053421,0.5611376723324765,0.6920417528292033,-0.013625465910728787,-0.012496193608028288,0.10886871778950588
9615,9.0,300.07647000000003,-7134.1359,0.09614996197314696,0.0,0.0,0.0,0.0,0.01467384366238586,0.9540066028181211,0.5753340256410474,0.6392585356349054,-0.01090811963354759,0.0018058859650020684,0.13639049541569387
9616,9.0,300.24899,-7103.9523,0.09615997164784429,0.0,0.0,0.0,0.0,0.014675371280271576,0.954271344804249,0.5593077122543735,0.6458450564524444,0.012060214381500487,0.012976360671417088,0.12333244753446489
9617,9.0,300.54796,-7295.4851,0.09616994828731174,0.0,0.0,0.0,0.0,0.014676893856514106,0.9750121791837101,0.5742581972148714,0.6683749257384693,-0.0025741207410959377,-0.0038518378311467962,0.12387515442052588
9618,9.0,300.52187000000004,-7417.063,0.09617995796200929,0.0,0.0,0.0,0.0,0.01467842147439985,0.9610649536772261,0.5966018716625204,0.6969351327296422,-0.004693245780437296,-0.017971913672189782,0.12480307872960487
9619,9.0,300.25602000000003,-7366.8702,0.09618996763670662,0.0,0.0,0.0,0.0,0.014679949092285566,0.957600398272801,0.5805702893753264,0.7011738821379743,0.007486828691167463,-0.013986668293126685,0.1264219180168719
9620,9.0,299.13293,-7211.6453,0.09619994427617407,0.0,0.0,0.0,0.0,0.014681471668528095,0.9343231759780182,0.5821115643674385,0.6757253358063984,0.027535567960048975,0.00948186149738687,0.1251219485360749
9621,9.0,299.88063,-6957.6919,0.09620995395087162,0.0,0.0,0.0,0.0,0.014682999286413811,0.9262841814071311,0.5648282838342115,0.6238521489244134,0.018837612266127585,0.0008663149843711322,0.12465912628789788
9622,9.0,299.61217,-7183.6181,0.09621996362556917,0.0,0.0,0.0,0.0,0.014684526904299555,0.9558997795699631,0.5642626065683835,0.6634781514501953,0.002969918319008117,-0.0006983385550456493,0.12873805575795685
9623,9.0,299.5957,-7379.3568,0.0962299402650364,0.0,0.0,0.0,0.0,0.014686049480542057,0.9911545097068339,0.5905107896138775,0.6614748952074894,-0.011782259614068489,0.014096512709967486,0.13324819407307287
9624,9.0,300.14706,-7187.8576,0.09623994993973395,0.0,0.0,0.0,0.0,0.014687577098427829,0.9353690223337352,0.5589912438506405,0.6905689431463483,-0.002899592378592487,0.017119329574296283,0.12287538054685589
9625,9.0,300.12222,-7016.7909,0.09624995961443128,0.0,0.0,0.0,0.0,0.014689104716313545,0.9052155606203202,0.5650297078215905,0.6626839558893144,-0.011845045656514988,-0.003292461359740637,0.13827856538703187
9626,9.0,299.62835,-7226.2254,0.09625996928912883,0.0,0.0,0.0,0.0,0.014690632334199288,0.9351335430104951,0.5796200431665444,0.6818384864422193,-0.002065617328060558,-0.01005584011863415,0.1131086932304589
9627,9.0,300.67557999999997,-7462.6899,0.09626994592859606,0.0,0.0,0.0,0.0,0.01469215491044179,0.9985168862584439,0.5804677180677035,0.6894867717745463,-0.0009867731858769309,0.00031721028519121765,0.13359192903699685
9628,9.0,300.63082,-7393.2754,0.09627995560329383,0.0,0.0,0.0,0.0,0.014693682528327534,0.991975769177886,0.5854983426941874,0.6698969895086854,0.009476317296814701,0.01160594599066769,0.12165723101163388
9629,9.0,300.4825,-7124.8261,0.09628996527799116,0.0,0.0,0.0,0.0,0.01469521014621325,0.9425896350638542,0.5777714190215995,0.6454081632743264,0.0006801814577586834,-0.01052622769735779,0.12869983596418488
9630,9.0,299.77094,-7069.5697,0.09629994191745861,0.0,0.0,0.0,0.0,0.01469673272245578,0.9235068324855282,0.5577417038273205,0.6677241151992394,-0.015747933054199983,-0.01823594536999768,0.1151518208645999
9631,9.0,299.84372,-7233.9627,0.09630995159215616,0.0,0.0,0.0,0.0,0.014698260340341524,0.9533856223618351,0.5846513973331005,0.6609070191889445,-0.00896415848271856,0.005953878359227045,0.13479936851866187
9632,9.0,299.77907000000005,-7241.5588,0.0963199612668535,0.0,0.0,0.0,0.0,0.01469978795822724,0.952300553094747,0.5600438891145285,0.6889086213999873,-0.006587016600812925,0.00921404895815583,0.1227936720587919
9633,9.0,300.22274,-7078.1508,0.09632997094155105,0.0,0.0,0.0,0.0,0.014701315576112983,0.9393248520491451,0.5600441930895584,0.6522120465033173,0.005365843223317495,-0.01167722712195259,0.13113619582963487
9634,9.0,299.24325,-7072.71,0.09633994758101827,0.0,0.0,0.0,0.0,0.014702838152355485,0.9354605796127712,0.5642851513831085,0.6501814831704164,-0.005672400926497384,-0.016145222338909384,0.12525242475145187
9635,9.0,299.1924,-7326.2705,0.09634995725571605,0.0,0.0,0.0,0.0,0.014704365770241229,0.9762004885034871,0.5728273158211544,0.6779754907009714,0.015075282922314586,0.006933513380534493,0.12393029549096789
9636,9.0,299.91817000000003,-7526.6817,0.09635996693041338,0.0,0.0,0.0,0.0,0.014705893388126945,0.966524365481028,0.6010978042112344,0.7203011258656863,-0.0015895465308510283,0.015875308724270985,0.12415635158827788
9637,9.0,299.93307999999996,-7386.4316,0.09636994356988082,0.0,0.0,0.0,0.0,0.014707415964369475,0.9665460389006671,0.5834656616685774,0.6952790767662023,-0.005258427262991365,-0.008729440819578731,0.12543617765708687
9638,9.0,300.02617999999995,-7124.2801,0.09637995324457838,0.0,0.0,0.0,0.0,0.014708943582255218,0.9216872784859522,0.5715921943467575,0.6723237741606903,-0.0041604210212765865,0.0016599835234776183,0.13174614199233187
9639,9.0,299.72337000000005,-7105.3389,0.09638996291927593,0.0,0.0,0.0,0.0,0.014710471200140962,0.9659248760593632,0.5636430345297364,0.6302776845660644,0.011026155164196791,0.014683252405624186,0.13230700632018486
9640,9.0,300.27102,-7197.2412,0.09639993955874315,0.0,0.0,0.0,0.0,0.014711993776383464,0.9698938881585741,0.5546901694286575,0.6631975521000023,0.02658591754232577,0.015971373953001886,0.11434106879708489
9641,9.0,300.78201,-7167.1966,0.0964099492334407,0.0,0.0,0.0,0.0,0.014713521394269208,0.9482363157511381,0.5798746323866704,0.6505378533630873,-0.021475495417466378,-0.01877979925517188,0.12930497932140786
9642,9.0,300.29233999999997,-7074.8571,0.09641995890813826,0.0,0.0,0.0,0.0,0.014715049012154924,0.9053610633346801,0.5623740705019995,0.6828447755140323,0.0015666247870888283,-0.020029549021262583,0.11433411790139889
9643,9.0,299.61208999999997,-7142.1591,0.09642996858283559,0.0,0.0,0.0,0.0,0.01471657663004064,0.9343687114375121,0.5674359741590705,0.6692333309581874,0.0005121669200969396,0.004621950868951035,0.13422527114450286
9644,9.0,299.76434,-7355.1952,0.09643994522230304,0.0,0.0,0.0,0.0,0.01471809920628317,0.9548949698432961,0.5909929244089605,0.6899077771910963,0.01817697421417768,0.025864805684657575,0.13716758731488687
9645,9.0,299.50457,-7507.2736,0.09644995489700059,0.0,0.0,0.0,0.0,0.014719626824168913,1.0107266614209551,0.5913255744167905,0.6799714718079592,-0.007743402868239362,-0.01034565335728649,0.12982838379306388
9646,9.0,299.51642000000004,-7353.0149,0.09645996457169814,0.0,0.0,0.0,0.0,0.014721154442054657,0.9748593810686301,0.5846300684184954,0.6756434854633203,-0.006433192570006675,-0.011985195370596688,0.11830644332843687
9647,9.0,300.05264,-7151.1437,0.09646994121116537,0.0,0.0,0.0,0.0,0.014722677018297159,0.9420912376046662,0.5747731106506895,0.6569047927514553,0.0015349144159342587,0.013061154506035587,0.13172609990535386
9648,9.0,299.44642000000005,-7124.1327,0.09647995088586292,0.0,0.0,0.0,0.0,0.014724204636182903,0.9346604160088011,0.5504291690481294,0.6804688661495484,0.005752924317244425,0.008491839041354263,0.1125901827567859
9649,9.0,299.89113,-7168.6525,0.09648996056056047,0.0,0.0,0.0,0.0,0.014725732254068619,0.9461071834485092,0.5735737974348264,0.6594103778637374,-0.025878520024761077,-0.006669473678050803,0.12758038712120387
9650,9.0,299.81793999999996,-7218.5708,0.09649997023525803,0.0,0.0,0.0,0.0,0.014727259871954362,0.9413029594243691,0.5768747028156004,0.6760876031146513,-0.014874377718986788,-0.017338897831215984,0.12172766202608488
9651,9.0,300.62652,-7129.9471,0.09650994687472525,0.0,0.0,0.0,0.0,0.014728782448196864,0.962167866278575,0.5739476259267204,0.6312104015481165,0.008323604162325771,0.010939049092850091,0.13825118736932987
9652,9.0,300.79507,-7133.8486,0.0965199565494228,0.0,0.0,0.0,0.0,0.014730310066082608,0.950546009221587,0.5718952878491704,0.6460705653947003,0.019282109886246082,0.019753908517058983,0.13110915218446587
9653,9.0,300.72593,-7176.5567,0.09652996622412036,0.0,0.0,0.0,0.0,0.014731837683968352,0.949458356166744,0.5637460921974075,0.6682895898150474,0.0025741565088244676,-0.012907482969369386,0.13818035105483886
9654,9.0,300.11537999999996,-7323.0347,0.09653994286358758,0.0,0.0,0.0,0.0,0.014733360260210882,0.920533480464581,0.5979005441831895,0.7075856578432673,-0.0027169449288165877,-0.014684755055522485,0.12383270937383689
9655,9.0,300.31967000000003,-7290.7096,0.09654995253828513,0.0,0.0,0.0,0.0,0.014734887878096598,0.9465318061679161,0.5741343071251445,0.6955275560882254,-0.009184830979597242,0.01008419926640798,0.12772429903290689
9656,9.0,300.27293,-7195.5577,0.09655996221298269,0.0,0.0,0.0,0.0,0.014736415495982313,0.9469577663774551,0.5739932829762264,0.6663188285030484,0.004156532268717796,0.015662757224293788,0.12159339625533389
9657,9.0,299.99455,-7122.2777,0.09656993885244991,0.0,0.0,0.0,0.0,0.014737938072224871,0.976262651397122,0.5636259207355474,0.6251059952606584,-0.013973126205540186,-0.014257786662133988,0.13007582959998487
9658,9.0,299.82847999999996,-7242.4067,0.09657994852714724,0.0,0.0,0.0,0.0,0.01473946569011056,0.972500950268371,0.5617334633912765,0.6672764005100533,-0.003361515265980727,-0.013865696363687688,0.1145164421243929
9659,9.0,300.03826000000004,-7318.6432,0.0965899582018448,0.0,0.0,0.0,0.0,0.014740993307996303,0.949199592356206,0.5933114331552795,0.6821737506353074,0.016342310629110485,8.091822087375663e-06,0.13057164327141788
9660,9.0,300.42672999999996,-7226.6135,0.09659996787654235,0.0,0.0,0.0,0.0,0.014742520925882047,0.9197192225517201,0.5800284538843514,0.6969623891573323,0.01061333478195459,0.016233341660356084,0.12720199900385987
9661,9.0,299.73371000000003,-7244.4833,0.0966099445160098,0.0,0.0,0.0,0.0,0.014744043502124576,0.947374982238631,0.5748597131367364,0.6799073533416313,0.01017184448813289,-0.006794682918082994,0.13074548659107488
9662,9.0,299.73409,-7267.5348,0.09661995419070712,0.0,0.0,0.0,0.0,0.014745571120010292,0.9545231475866,0.5868566348507405,0.6677693162862004,0.0006239307366021694,-0.008977288278839372,0.13352462896535486
9663,9.0,299.35598999999996,-7260.6243,0.09662996386540468,0.0,0.0,0.0,0.0,0.014747098737896008,0.9791070166803391,0.5745437817555564,0.6533977011078324,0.012306724958579188,0.025334297316550475,0.12944631757785688
9664,9.0,299.49068,-7198.5194,0.09663994050487212,0.0,0.0,0.0,0.0,0.014748621314138566,0.9538067797659,0.5715846152360095,0.6627787657011713,-0.01041497587612809,0.013618589995550188,0.12823449072325888
9665,9.0,299.51701,-7129.0891,0.09664995017956968,0.0,0.0,0.0,0.0,0.014750148932024282,0.9302967835256442,0.5689393535974425,0.6678289257895834,-0.018790364413964582,-0.01921624862974608,0.11204828647080489
9666,9.0,299.51622000000003,-7094.4617,0.09665995985426701,0.0,0.0,0.0,0.0,0.014751676549909998,0.9130297251265183,0.5617697478773575,0.6817397350874733,-0.021473208511990683,-0.015710160103722087,0.11322365658680489
9667,9.0,300.01431,-7327.2656,0.09666996952896456,0.0,0.0,0.0,0.0,0.014753204167795742,0.953033315302065,0.5893740141941864,0.6848984409492134,0.004775339404864305,0.001084979594454149,0.10822753312622589
9668,9.0,300.17055,-7526.7131,0.09667994616843201,0.0,0.0,0.0,0.0,0.014754726744038271,0.992410483868289,0.5938824806466375,0.7016398657264633,0.017995225517240483,0.006160187630638184,0.1282838765331329
9669,9.0,300.21972,-7398.4975,0.09668995584312934,0.0,0.0,0.0,0.0,0.014756254361923987,1.010023587441567,0.5760060637698724,0.6629288381734824,0.009591340637566621,-0.01049476324200249,0.13242021675385787
9670,9.0,299.8598,-7221.5047,0.09669996551782689,0.0,0.0,0.0,0.0,0.014757781979809703,0.953183560026893,0.5776409833362265,0.6643325745970204,0.011526934774369888,-0.010732645994479689,0.15163478237518785
9671,9.0,300.32857,-7325.2053,0.09670994215729434,0.0,0.0,0.0,0.0,0.01475930455605226,0.9619289824349991,0.5664388347356605,0.6983116836529973,0.00842627223533332,0.0033594460066265074,0.12504527590100786
9672,9.0,300.43151,-7401.9937,0.09671995183199189,0.0,0.0,0.0,0.0,0.014760832173937977,0.9390603735080432,0.5986939088789884,0.7122669746302773,0.00011632410056779489,0.0052476117300989545,0.13724692479771686
9673,9.0,299.61967999999996,-7189.9208,0.09672996150668922,0.0,0.0,0.0,0.0,0.014762359791823693,0.9305027772709741,0.5731024334883065,0.6819511699858404,-0.028088685990887475,-0.015668388868349585,0.1176261877413009
9674,9.0,299.32315,-7064.878000000001,0.09673997118138677,0.0,0.0,0.0,0.0,0.014763887409709436,0.9258444105987291,0.5701784064822274,0.6515236849153814,-0.018350325094286083,-0.01190345547177959,0.1223836097433219
9675,9.0,299.48669,-7209.1648,0.09674994782085422,0.0,0.0,0.0,0.0,0.014765409985951966,0.9647035854488311,0.5839645657528155,0.6427379452857964,0.0011077419539756187,0.008127729036469402,0.11603001485877089
9676,9.0,299.30658,-7375.5439,0.09675995749555177,0.0,0.0,0.0,0.0,0.01476693760383771,0.9709112013914751,0.5805450189178325,0.6905249376945054,0.017080640645727983,0.008863103909170252,0.1299443300020069
9677,9.0,300.10287,-7516.7386,0.0967699671702491,0.0,0.0,0.0,0.0,0.014768465221723398,0.977164595973637,0.6055388895320354,0.7021973559314834,-0.0021962017585482377,-0.0018753303778306983,0.12653084240262186
9678,9.0,300.28584,-7325.6018,0.09677994380971677,0.0,0.0,0.0,0.0,0.014769987797965983,0.93809876876564,0.5909147622962465,0.6977864958611654,-0.004425018923240366,-0.004529242132501396,0.14499739640262885
9679,9.0,299.74447999999995,-7045.2196,0.0967899534844141,0.0,0.0,0.0,0.0,0.014771515415851671,0.915060754554465,0.5721743571917125,0.6543357275204084,0.007948045140585981,0.012138608528487388,0.13786243370346285
9680,9.0,299.68882,-7090.3911,0.09679996315911144,0.0,0.0,0.0,0.0,0.014773043033737387,0.9499087559686951,0.5612883932848515,0.6441047082131853,0.01176004410562599,0.01074472697542199,0.15259261782721886
9681,9.0,299.8602,-7301.3049,0.0968099397985791,0.0,0.0,0.0,0.0,0.014774565609979945,0.992884867300107,0.5632836853817714,0.6632458233347663,4.120225592459606e-05,-0.022833985157788877,0.12668641682297588
9682,9.0,300.40783999999996,-7096.4114,0.09681994947327643,0.0,0.0,0.0,0.0,0.014776093227865661,0.9478658005870712,0.5569483796615255,0.6523176980912444,-0.007014472164849504,-0.02033534080869188,0.13653558269751287
9683,9.0,300.48298,-6926.8001,0.09682995914797399,0.0,0.0,0.0,0.0,0.014777620845751405,0.9098761260452821,0.5428266319578174,0.6528715101984014,0.003687448844197866,-0.004828649937675645,0.11803069744622288
9684,9.0,299.59168999999997,-7290.4469,0.09683996882267132,0.0,0.0,0.0,0.0,0.014779148463637093,0.9380852925393101,0.5799615895102525,0.6980669128263404,0.01015832773179889,0.008262501229620382,0.12457535076962988
9685,9.0,300.03632999999996,-7545.9888,0.09684994546213876,0.0,0.0,0.0,0.0,0.014780671039879678,0.9753478588093392,0.6177290887026143,0.7007152344802093,-0.008253653124447143,-0.0018775225444220482,0.12462038973657488
9686,9.0,300.13284,-7498.8166,0.09685995513683632,0.0,0.0,0.0,0.0,0.014782198657765366,0.9965674538610502,0.6013397379376114,0.6815458192833354,-0.014032845139933987,0.004962189106779935,0.11895166072711487
9687,9.0,300.32518999999996,-7233.2902,0.09686996481153387,0.0,0.0,0.0,0.0,0.01478372627565111,0.9787914298041931,0.5642202729792055,0.6557279027603053,-0.00936676560792779,0.00980694830249544,0.12411592290928787
9688,9.0,300.03735,-7084.0546,0.0968799414510011,0.0,0.0,0.0,0.0,0.01478524885189364,0.94663540085814,0.5597877090917455,0.6469526097392514,-0.007279467463502504,0.00964065177090825,0.10912726881752291
9689,9.0,300.04341,-7155.6364,0.09688995112569865,0.0,0.0,0.0,0.0,0.014786776469779384,0.9344892983319131,0.5526088017357424,0.6880366892914344,-0.004837487201072816,-0.015365290299686085,0.12196497533200587
9690,9.0,300.56479,-7340.8657,0.09689996080039598,0.0,0.0,0.0,0.0,0.0147883040876651,0.9411629383930501,0.5870483620346625,0.7032285608232554,-0.02108386716106568,-0.0043374789782008455,0.13985075463969485
9691,9.0,301.06626,-7139.0539,0.09690997047509353,0.0,0.0,0.0,0.0,0.014789831705550788,0.9302122987323062,0.5707560299667345,0.6691257845925734,0.007111593200184603,0.004044435700879726,0.14397232167396184
9692,9.0,300.65966000000003,-6905.9447,0.09691994711456098,0.0,0.0,0.0,0.0,0.014791354281793373,0.9179578392403851,0.5469540758426644,0.6343228424102904,0.01308579168221709,0.002439051564340648,0.14783550993272884
9693,9.0,300.14856000000003,-7184.9489,0.09692995678925831,0.0,0.0,0.0,0.0,0.014792881899679061,0.9515424798999311,0.5870429006166235,0.6454596769094104,0.02313940102943108,-0.008316694303268821,0.1336549126632129
9694,9.0,299.86009,-7504.5667,0.09693996646395586,0.0,0.0,0.0,0.0,0.014794409517564805,0.974399183138212,0.6026157237885414,0.7041859707102444,0.012392131809508189,-0.015572077419844385,0.13328295868400386
9695,9.0,299.85957,-7425.8911,0.09694994310342331,0.0,0.0,0.0,0.0,0.014795932093807335,0.9531383792049342,0.5985803134102774,0.7055667975490214,0.022716868644980376,-0.003950778359686466,0.11483823009115089
9696,9.0,299.70411,-7235.7504,0.09695995277812086,0.0,0.0,0.0,0.0,0.014797459711693078,0.9218873751157002,0.5935082265897014,0.6840918533396093,-0.004068518527931516,0.0035776305692096473,0.1343915353534119
9697,9.0,299.5575,-7171.0448,0.09696996245281819,0.0,0.0,0.0,0.0,0.014798987329578794,0.9523511852022442,0.5636631779417244,0.6638042051998744,-0.016799663353247684,-0.01034885624085259,0.11090529982800089
9698,9.0,300.32287,-7176.7318,0.09697993909228586,0.0,0.0,0.0,0.0,0.014800509905821352,0.951986394901242,0.5754781402027704,0.6540827088379374,-0.027577735376210576,0.014181921587396685,0.13609724057175185
9699,9.0,299.86352999999997,-7329.2138,0.09698994876698319,0.0,0.0,0.0,0.0,0.01480203752370704,0.992682774567662,0.5612818071592014,0.6739334030045483,-0.022393219337788678,0.025108951507560578,0.11598101408393488
9700,9.0,300.50632,-7267.3104,0.09699995844168074,0.0,0.0,0.0,0.0,0.014803565141592784,0.9628712138354901,0.5601056973706284,0.6861040059181934,0.0010085986335609351,0.015455559737844985,0.13496665611017186
9701,9.0,299.99703,-7055.1085,0.09700996811637808,0.0,0.0,0.0,0.0,0.0148050927594785,0.9247308994013341,0.5561989798875654,0.6636469285193524,-0.012557436470572487,-0.004911743032001295,0.1223225715572979
9702,9.0,299.41974,-7246.6867,0.09701994475584574,0.0,0.0,0.0,0.0,0.014806615335721057,0.9418408229749522,0.5641619604359505,0.6968090236221963,0.013388702799612087,-0.014514385157208287,0.13644236368831286
9703,9.0,299.62601,-7507.3868,0.09702995443054308,0.0,0.0,0.0,0.0,0.014808142953606773,0.995806776613477,0.5959115241043884,0.6903398270337363,0.02334608682457938,-0.0008756560255855212,0.13067242112636387
9704,9.0,299.98533,-7417.493,0.0970399641052404,0.0,0.0,0.0,0.0,0.01480967057149249,0.9924129156685292,0.5918245899585395,0.6704951414402184,0.008131690236410341,0.0024073014737821577,0.12442062747935989
9705,9.0,299.43802999999997,-7240.6011,0.09704994074470807,0.0,0.0,0.0,0.0,0.014811193147735047,0.9587479850710591,0.5824121754071064,0.6598017862448664,-0.004281337323285095,-0.02028767651073778,0.11539637890873589
9706,9.0,299.67851,-7155.7049,0.0970599504194054,0.0,0.0,0.0,0.0,0.014812720765620735,0.9296918022884372,0.5867709949522885,0.6586928042754184,-0.014534482972941788,-0.01007606134822983,0.11353297144483188
9707,9.0,299.65738999999996,-7268.4515,0.09706996009410296,0.0,0.0,0.0,0.0,0.014814248383506479,0.9314603290129772,0.5771965921073684,0.7007708416456974,0.004974054265450935,0.012297565177675189,0.10234563656072791
9708,9.0,300.2171,-7338.3546,0.09707996976880029,0.0,0.0,0.0,0.0,0.014815776001392195,0.9537862817163771,0.5838586000573575,0.6930316779119013,-0.0014464483603033385,0.01114082366476369,0.13490160545375188
9709,9.0,300.40657999999996,-7317.713000000001,0.09708994640826796,0.0,0.0,0.0,0.0,0.014817298577634752,0.9599776045974132,0.5917937263604934,0.6726307180134834,-0.01095314340174109,-0.004887002402984586,0.1308460010009949
9710,9.0,300.35056000000003,-7100.4639,0.09709995608296529,0.0,0.0,0.0,0.0,0.014818826195520468,0.9573346734340761,0.5491781902096675,0.6518508633726714,-0.007112860978709722,0.0016674487449143786,0.15081643093192285
9711,9.0,299.71566,-7122.1087,0.09710996575766284,0.0,0.0,0.0,0.0,0.014820353813406212,0.940083887831556,0.5704444251634815,0.6544149028832223,0.009366757096626951,0.018911232991893383,0.14218467492003486
9712,9.0,299.72033999999996,-7340.1796,0.09711994239713029,0.0,0.0,0.0,0.0,0.014821876389648742,0.9614636067965702,0.5847563295134565,0.6850113879378604,0.001034077151830469,0.021892370826608776,0.15074592898996486
9713,9.0,300.30527,-7402.1433,0.09712995207182784,0.0,0.0,0.0,0.0,0.014823404007534458,0.9598743138822191,0.5817206119488545,0.7084717957182223,0.003256119929004017,-0.01937766646342678,0.11374258249301888
9714,9.0,300.45297,-7046.3205,0.09713996174652517,0.0,0.0,0.0,0.0,0.014824931625420174,0.9148466244108322,0.5737824256304165,0.6532764454683654,-0.004887754842508845,-0.014551173228588987,0.13812711489458487
9715,9.0,300.56562,-6990.8053,0.0971499714212225,0.0,0.0,0.0,0.0,0.01482645924330589,0.9315521396045382,0.5591135330052095,0.6343645680494083,0.01899064950823118,-0.004920835837073686,0.10561588099347591
9716,9.0,300.71474,-7304.9276,0.09715994806069017,0.0,0.0,0.0,0.0,0.014827981819548447,0.9713827679880151,0.5833313351028204,0.6658014731344895,0.012735664123412187,-0.0018404183390101482,0.1198347689842709
9717,9.0,300.74681,-7432.151999999999,0.0971699577353875,0.0,0.0,0.0,0.0,0.014829509437434163,0.9929351650350711,0.5899047545965664,0.6763487176654214,0.0034958090024344865,-0.016686952451873984,0.1160607973968089
9718,9.0,300.59946,-7356.9109,0.09717996741008506,0.0,0.0,0.0,0.0,0.014831037055319907,0.9551107617170931,0.5823110733121285,0.6988953866381042,0.0014253893755249787,-0.0038402679335549366,0.1224359035809829
9719,9.0,300.23111,-7151.6124,0.09718994404955228,0.0,0.0,0.0,0.0,0.014832559631562436,0.9277570924149962,0.5667965829484675,0.6793579286074073,0.003253538978349297,0.013104438523807386,0.12400941005877589
9720,9.0,299.65294,-7240.1866,0.09719995372424983,0.0,0.0,0.0,0.0,0.014834087249448152,0.9432074845773312,0.5693263746056385,0.6883020696251253,-0.019659004472942682,0.0027184334945384975,0.12282125272651388
9721,9.0,300.0039,-7360.7651,0.09720996339894739,0.0,0.0,0.0,0.0,0.014835614867333868,0.979758566892142,0.5759147800683635,0.6818154552674464,-0.02374841398878598,-0.004676795462413776,0.13645699501975686
9722,9.0,299.80782999999997,-7368.7908,0.09721994003841483,0.0,0.0,0.0,0.0,0.014837137443576426,0.9794433447860321,0.5870450081768315,0.6734400413983573,-0.017398300631578583,-0.004438542671000056,0.13912546008561388
9723,9.0,299.99441,-7243.012,0.09722994971311216,0.0,0.0,0.0,0.0,0.014838665061462142,0.960171338016533,0.5704271897792804,0.6710962520620434,0.008489688721992041,0.017322378814835684,0.13268864697034988
9724,9.0,299.94867,-7109.8664,0.09723995938780972,0.0,0.0,0.0,0.0,0.014840192679347886,0.9124547664897742,0.5860958056156524,0.6626712699980624,0.01156996243986639,0.006698142475055194,0.12698604501004687
9725,9.0,300.27515,-7260.3208,0.09724996906250705,0.0,0.0,0.0,0.0,0.014841720297233602,0.9362853550616702,0.5847651549218273,0.6859057432711263,0.008100080075690663,-0.006912810857141313,0.1267461783138739
9726,9.0,300.13707999999997,-7398.9984,0.09725994570197471,0.0,0.0,0.0,0.0,0.014843242873476159,0.9571063780540451,0.5866786068081704,0.7053257554827324,0.027625572939931772,-0.0065771006313592945,0.11133374250028488
9727,9.0,300.61699,-7283.5364,0.09726995537667205,0.0,0.0,0.0,0.0,0.014844770491361847,0.9572010865408921,0.6006054457226424,0.6562066836975574,0.011787728124858189,0.0072654526947443536,0.13096293006253487
9728,9.0,300.63901,-7127.7848,0.09727996505136938,0.0,0.0,0.0,0.0,0.014846298109247563,0.9289288756256421,0.5658106399386624,0.6719290929817383,-0.00018958983416105982,-0.003047190696809307,0.12495413405451287
9729,9.0,300.07885,-7229.0663,0.09728994169083705,0.0,0.0,0.0,0.0,0.01484782068549012,0.9545494920892,0.5781048188345034,0.6648013243582824,-0.03380317844111397,-0.018481976679779084,0.13876728630776486
9730,9.0,299.84417,-7347.2237,0.09729995136553438,0.0,0.0,0.0,0.0,0.014849348303375837,0.9353040122073191,0.5941210098526785,0.7039475225642113,-0.016143476508987085,-0.0047827000588907456,0.14123420579623086
9731,9.0,299.76394,-7331.1254,0.09730996104023193,0.0,0.0,0.0,0.0,0.01485087592126158,0.9595008298953591,0.5806646432246384,0.6883135801462613,-0.007056105192908363,0.014936406863608587,0.14236009890984785
9732,9.0,299.40515,-7206.1981,0.09731997071492926,0.0,0.0,0.0,0.0,0.014852403539147296,0.9453173144655551,0.5680246319371665,0.6771623372307193,-0.010311040733870491,0.01303190906839929,0.13178540543370687
9733,9.0,299.39636,-7107.2308,0.09732994735439693,0.0,0.0,0.0,0.0,0.014853926115389854,0.9609600012318682,0.5526552288553245,0.6468054756922303,-0.010022822148225531,-0.0023949631273144575,0.12572579493316988
9734,9.0,299.79514,-7316.8183,0.09733995702909426,0.0,0.0,0.0,0.0,0.014855453733275542,0.9606400472477912,0.5901683313450795,0.6733216735216754,0.009463311218531101,0.0026468806095767774,0.12268072507014488
9735,9.0,299.83092,-7494.0279,0.09734996670379181,0.0,0.0,0.0,0.0,0.014856981351161286,0.983552783216602,0.5948298796226384,0.6996147030165953,0.02108804276472778,0.007657520195063403,0.11114227876138888
9736,9.0,300.43653,-7403.5351,0.09735994334325926,0.0,0.0,0.0,0.0,0.014858503927403816,0.9535878873467971,0.5875494040766114,0.7093525025726413,0.0021721596641504676,-0.01040779395941929,0.11897556329697388
9737,9.0,300.17714,-7186.1754,0.09736995301795681,0.0,0.0,0.0,0.0,0.01486003154528956,0.940642553406692,0.5720191374088934,0.6717561818521735,-0.005332094902236796,-0.016021442693443282,0.11375874383211389
9738,9.0,300.51125,-7191.0286,0.09737996269265414,0.0,0.0,0.0,0.0,0.014861559163175275,0.9613204142924381,0.5673456226476535,0.6572270873432634,-0.0027427522062135677,-0.005927218431870915,0.12620830463078989
9739,9.0,300.27137,-7374.4661,0.09738993933212159,0.0,0.0,0.0,0.0,0.014863081739417805,0.9805079869311041,0.5818643414755394,0.6792812255748374,0.004840101690305845,0.025758326271398874,0.12268149514022088
9740,9.0,299.47092999999995,-7324.2344,0.09739994900681914,0.0,0.0,0.0,0.0,0.014864609357303549,0.9688132974569281,0.5842066210692045,0.6733644630733984,-0.003815121295223156,0.005016325843722816,0.13632894047211888
9741,9.0,299.91888,-7177.7480000000005,0.09740995868151647,0.0,0.0,0.0,0.0,0.014866136975189237,0.9299935076382132,0.5753133249415044,0.6765493209202194,-0.014684489583996287,-0.017816336212085483,0.14034422770339686
9742,9.0,299.63892000000004,-7172.98,0.09741996835621403,0.0,0.0,0.0,0.0,0.01486766459307498,0.9173585119387362,0.5742064100022605,0.6888418887484014,0.0017169257472973785,-0.00855550640873774,0.14314769821257786
9743,9.0,299.5264,-7266.5911,0.09742994499568147,0.0,0.0,0.0,0.0,0.01486918716931751,0.9419802259237101,0.5898621879598654,0.6770198540016573,0.011626638584209889,0.012394147163957089,0.14454468639044987
9744,9.0,300.27218999999997,-7286.96,0.09743995467037903,0.0,0.0,0.0,0.0,0.014870714787203254,0.958707049767019,0.5799883494453935,0.6763584853963854,0.0011047025076506489,6.556217242823264e-05,0.1284211009941759
9745,9.0,300.06453999999997,-7350.3240000000005,0.09744996434507636,0.0,0.0,0.0,0.0,0.01487224240508897,0.96792196160896,0.5988282861072504,0.6675647005610064,-0.017438725257568184,-0.016660684956281587,0.12717520867121587
9746,9.0,300.19039,-7215.4058,0.0974599409845438,0.0,0.0,0.0,0.0,0.0148737649813315,0.9489476781163441,0.5774118874886165,0.6669436289122114,-0.0026206048053335576,-0.016807659923036882,0.12908955221764687
9747,9.0,300.04905,-7168.2983,0.09746995065924136,0.0,0.0,0.0,0.0,0.014875292599217244,0.9213265006553462,0.5832027637976315,0.6744544263384693,0.006391065785174083,0.008209789527618142,0.12240239540017588
9748,9.0,299.44442000000004,-7306.5169,0.09747996033393891,0.0,0.0,0.0,0.0,0.01487682021710296,0.9329490264574002,0.5859932849705345,0.7020563925775714,0.008054076798625492,-0.004502555759317656,0.12792742528045387
9749,9.0,300.15752000000003,-7377.509,0.09748997000863624,0.0,0.0,0.0,0.0,0.014878347834988676,0.9682137877702611,0.5889023260076345,0.6854624159548733,0.013684350940290288,-0.005656501715203255,0.12273294798029888
9750,9.0,300.28913,-7249.7544,0.09749994664810346,0.0,0.0,0.0,0.0,0.014879870411231205,0.9633353533087972,0.5727574319617574,0.6676515158295744,-0.006016573513139574,0.01026400870397879,0.13908136344126187
9751,9.0,300.18481,-7221.3744,0.09750995632280102,0.0,0.0,0.0,0.0,0.014881398029116949,0.986654169520185,0.5592691884855715,0.6491941520079744,-0.007004103373926183,0.02048843783255138,0.12067591855478588
9752,9.0,300.42999,-7276.5828,0.09751996599749857,0.0,0.0,0.0,0.0,0.014882925647002665,0.9634045684231282,0.5757575135203424,0.6727373929840114,-0.02358425734008498,-0.0038429670291713165,0.13520221649341987
9753,9.0,299.98812999999996,-7334.9378,0.0975299426369658,0.0,0.0,0.0,0.0,0.014884448223245195,0.953872924732428,0.5875976145163694,0.6881673884218333,-0.02244174793807808,-0.016716616361801585,0.12904875876862087
9754,9.0,300.04312999999996,-7334.7268,0.09753995231166335,0.0,0.0,0.0,0.0,0.014885975841130938,0.9347645173240752,0.5797330914802015,0.7150762004000263,0.0019033374211947782,-0.02060609440766318,0.1212009138290989
9755,9.0,300.26623,-7181.6357,0.0975499619863609,0.0,0.0,0.0,0.0,0.014887503459016654,0.959931106550324,0.5728025317237084,0.6503042992150374,0.010312698411034089,0.0029895609827966974,0.12417900786051389
9756,9.0,299.59201,-7144.4884,0.09755993862582812,0.0,0.0,0.0,0.0,0.014889026035259184,0.9403588231136901,0.5690577721366296,0.6623294703418294,0.015913497107289884,0.006518900052240343,0.10706444360143791
9757,9.0,299.97907999999995,-7236.2116,0.09756994830052568,0.0,0.0,0.0,0.0,0.0148905536531449,0.9744352649742731,0.5773142608414814,0.6478781123805913,0.005243341590202525,-0.0013153224489622188,0.13061768535596188
9758,9.0,300.73843999999997,-7334.8425,0.09757995797522323,0.0,0.0,0.0,0.0,0.014892081271030644,0.9442361360788512,0.5973026556966825,0.6880701974722413,0.009280118741526412,0.006867357876205453,0.12886151015014088
9759,9.0,300.094,-7236.5002,0.09758996764992078,0.0,0.0,0.0,0.0,0.014893608888916388,0.9278152732357381,0.5828261691329645,0.6890739230213013,0.00918516099515481,0.008473645730508721,0.15696210689595386
9760,9.0,300.54474,-7041.5941,0.09759994428938801,0.0,0.0,0.0,0.0,0.01489513146515889,0.9018425928924342,0.5619319286883635,0.6766942460820223,0.005063737437101975,-0.006700320658795164,0.13446354703801885
9761,9.0,300.56552,-7158.6547,0.09760995396408556,0.0,0.0,0.0,0.0,0.014896659083044633,0.9472137944127231,0.5793643697688114,0.6494741332756064,-0.0058708690606846655,-0.015532569785195287,0.15176827807586285
9762,9.0,300.02322000000004,-7264.3636,0.09761996363878311,0.0,0.0,0.0,0.0,0.01489818670093035,0.977507023844932,0.5655239205578655,0.6651541988381084,-0.002016142048202728,-0.008713828560712922,0.12455987844060289
9763,9.0,300.05092,-7194.5053,0.09762994027825056,0.0,0.0,0.0,0.0,0.014899709277172907,0.9810783859423982,0.5683327004975705,0.6375388779626884,-0.01122013378984099,0.015076163436651488,0.1391011319507129
9764,9.0,299.73701,-7316.8283,0.09763994995294789,0.0,0.0,0.0,0.0,0.014901236895058595,0.958019407586654,0.5749397294971335,0.6911739750460604,-0.015516022397812183,0.007722626276263872,0.12311047483505787
9765,9.0,299.10924,-7366.8330000000005,0.09764995962764544,0.0,0.0,0.0,0.0,0.014902764512944339,0.943131774529859,0.5862724556380864,0.7099290621445433,-0.008358349724154893,0.005685866513701334,0.1196828017342729
9766,9.0,300.16872,-7371.1105,0.097659969302343,0.0,0.0,0.0,0.0,0.014904292130830082,0.9367563745031561,0.6009065127248554,0.7029706582753024,0.016213425216390485,0.004967827235636375,0.12155259267380687
9767,9.0,299.88484,-7377.0909,0.09766994594181022,0.0,0.0,0.0,0.0,0.014905814707072584,0.9772660831036531,0.5753528720929074,0.6898324825761654,0.02098074059238788,0.010575396671710391,0.11605084728082689
9768,9.0,300.15781,-7310.7327,0.09767995561650777,0.0,0.0,0.0,0.0,0.014907342324958328,0.9724886291471551,0.5828013445055144,0.6669902080193084,0.012305567826964988,-0.006606276458713723,0.11603543574680589
9769,9.0,300.3084,-7164.618,0.09768996529120533,0.0,0.0,0.0,0.0,0.014908869942844044,0.9667980240680362,0.5609663013430635,0.6501006359449374,-0.00877691807156437,-0.018232179119375982,0.12518883317517587
9770,9.0,300.42195,-7317.5022,0.09769994193067277,0.0,0.0,0.0,0.0,0.014910392519086602,0.9676413419937651,0.5790772450879744,0.6776193535558234,0.010157239501191491,-0.007790301453092893,0.12223045699070688
9771,9.0,300.27144,-7346.8533,0.0977099516053701,0.0,0.0,0.0,0.0,0.01491192013697229,0.9474785769288551,0.5902132183245095,0.6955681570197323,0.006921216070695843,0.011057432168283591,0.15096426412151284
9772,9.0,300.2124,-7203.715,0.09771996128006766,0.0,0.0,0.0,0.0,0.014913447754858034,0.9420876203018091,0.5635292972060114,0.6841325555961263,0.0072530447379947835,0.0036768956417563463,0.12107952646711889
9773,9.0,299.26732000000004,-7196.5156,0.09772997095476521,0.0,0.0,0.0,0.0,0.014914975372743777,0.9511618423673651,0.5682867496055355,0.6681124433000644,-0.009392940391136041,-0.001299062824607519,0.14789517009861686
9774,9.0,300.18111,-7326.2682,0.09773994759423266,0.0,0.0,0.0,0.0,0.014916497948986307,0.988696405494238,0.5754358268785944,0.6628703736427124,0.002561927694692577,0.013356957673979089,0.11775052366107187
9775,9.0,300.07322,-7346.3455,0.09774995726892999,0.0,0.0,0.0,0.0,0.014918025566872023,0.9657223374968741,0.5846166023246664,0.6827666640638234,-0.004124309800962686,0.018384309502640084,0.12968663010407389
9776,9.0,300.54802,-7297.2425,0.09775996694362754,0.0,0.0,0.0,0.0,0.014919553184757739,0.9442059310933701,0.5984018598026655,0.6755717270912384,-0.003489384794150466,0.00879240762584307,0.1265597200304719
9777,9.0,299.94325,-7377.2286,0.09776994358309499,0.0,0.0,0.0,0.0,0.014921075761000296,0.9315848777152691,0.5949513379121254,0.7159570592419603,-0.01237273212309359,-0.009935246435457479,0.1261237691749469
9778,9.0,299.5923,-7258.3398,0.09777995325779232,0.0,0.0,0.0,0.0,0.014922603378885985,0.944431561625638,0.5782914189729194,0.6836310575916323,0.0016325420763193584,-0.0015161297723303585,0.12428805383627589
9779,9.0,299.72591,-7222.6763,0.09778996293248987,0.0,0.0,0.0,0.0,0.014924130996771728,0.9493443857954961,0.5977283423286944,0.6484405269810974,0.01029641345542689,-0.0006628495209556543,0.12907436359864788
9780,9.0,300.30706000000004,-7308.0387,0.09779993957195732,0.0,0.0,0.0,0.0,0.014925653573014258,0.9820639641821671,0.5765217979382714,0.6628755310857213,0.012112323807643289,-0.01968357882761798,0.13180254962539886
9781,9.0,299.22106,-7393.4975,0.09780994924665487,0.0,0.0,0.0,0.0,0.014927181190900002,0.980420209074941,0.5934587901173224,0.6735596353076604,0.0006817341520794223,-0.02068352090080458,0.1124573355361749
9782,9.0,299.58463,-7315.0481,0.0978199589213522,0.0,0.0,0.0,0.0,0.014928708808785718,0.941347816006296,0.5831829344931745,0.6990612252819713,-0.005648334919397255,0.005042443175650395,0.14921179741105786
9783,9.0,300.21677,-7320.9132,0.09782996859604975,0.0,0.0,0.0,0.0,0.014930236426671462,0.9430660551283732,0.5805365481469965,0.7017721961895234,0.0036725137403738864,0.013275850043224386,0.12596712070948687
9784,9.0,300.63212000000004,-7382.3044,0.09783994523551698,0.0,0.0,0.0,0.0,0.014931759002913964,0.948189919029059,0.6005807629502065,0.6952655093473633,-0.006024452545917175,0.0037654073949667764,0.14464859518820486
9785,9.0,300.45464,-7313.9007,0.09784995491021453,0.0,0.0,0.0,0.0,0.014933286620799707,0.979799248883657,0.5703703768461734,0.6730735387046864,-0.0070889327736231925,-0.0057186054350324145,0.12201916394735389
9786,9.0,300.37618,-7351.3556,0.09785996458491208,0.0,0.0,0.0,0.0,0.014934814238685451,0.983475867401511,0.5854304144074834,0.6657222673741724,-0.0031646703584536475,0.008196553441561841,0.12597847924310787
9787,9.0,299.95467,-7317.1384,0.09786994122437953,0.0,0.0,0.0,0.0,0.01493633681492798,0.971073280877471,0.5842675579302185,0.6688865055814585,-0.013518579170929888,0.013651051489003887,0.11771967019552688
9788,9.0,300.21993,-7077.5618,0.09787995089907686,0.0,0.0,0.0,0.0,0.014937864432813697,0.9191550144985372,0.5601303396130605,0.6721166861052524,0.0007563319751816543,0.0013710972060167587,0.11172889990678389
9789,9.0,299.73687,-7221.8164,0.09788996057377419,0.0,0.0,0.0,0.0,0.014939392050699413,0.9203819489121261,0.5931633365206634,0.6817065815442013,0.0028093861672398275,-0.00968537247599684,0.13878405559691986
9790,9.0,299.78595,-7526.0740000000005,0.09789997024847197,0.0,0.0,0.0,0.0,0.014940919668585156,0.9779253441487171,0.5922056226586444,0.7176076031248564,0.019259418150256582,-0.005236620398314195,0.10991178783994889
9791,9.0,300.13833999999997,-7420.142,0.09790994688793919,0.0,0.0,0.0,0.0,0.014942442244827658,0.9714076838079742,0.5965508139899814,0.6875793791238013,0.012034076581920888,-0.004773254946758586,0.14992652376659585
9792,9.0,299.81469,-7238.9802,0.09791995656263675,0.0,0.0,0.0,0.0,0.014943969862713402,0.9681963193385371,0.5837630505729274,0.6485098636854404,0.002104185983841988,-0.01112090924729829,0.13441548858577587
9793,9.0,299.8305,-7255.9126,0.0979299662373343,0.0,0.0,0.0,0.0,0.014945497480599146,0.9500170622718841,0.5746725253132624,0.6809266525447283,0.006917763927605143,-0.016271999178171286,0.13949156761174586
9794,9.0,300.21176,-7318.918000000001,0.09793994287680174,0.0,0.0,0.0,0.0,0.014947020056841676,0.9503950552216891,0.5826399134995824,0.6917333701612683,-0.0029508953589806974,-0.0026434561282138074,0.11950542217176688
9795,9.0,299.94851,-7263.932,0.09794995255149908,0.0,0.0,0.0,0.0,0.014948547674727392,0.9340651518400531,0.5879331826844875,0.6860556029609164,0.0038631604957142566,0.015317170039186985,0.14106643184467288
9796,9.0,300.26181,-7164.1296,0.09795996222619663,0.0,0.0,0.0,0.0,0.014950075292613135,0.9367361804286631,0.5715746549875265,0.6694056848001974,-0.01808371062197328,0.014906173507124787,0.1276536856334379
9797,9.0,300.63649,-7190.0019999999995,0.09796993886566407,0.0,0.0,0.0,0.0,0.014951597868855665,0.9463373229437222,0.5868703035945895,0.6523734471117464,-0.0033239577324740872,0.012996852641439486,0.13415792041035587
9798,9.0,300.5245,-7319.8273,0.09797994854036163,0.0,0.0,0.0,0.0,0.014953125486741381,0.97435680901903,0.5799054047922074,0.6707825194335804,-0.006466761241844645,0.020641716228178782,0.12105788344498288
9799,9.0,301.00705,-7398.7591,0.09798995821505896,0.0,0.0,0.0,0.0,0.014954653104627097,0.974904430168076,0.5894512035868045,0.6846823856303903,-0.0025668056833239973,0.009125077392050021,0.12944608453033388
9800,9.0,300.37881,-7499.7684,0.09799996788975651,0.0,0.0,0.0,0.0,0.01495618072251284,0.9522828820130032,0.6079011098876684,0.7195583223498773,-0.012565816048899487,-0.007865557463195083,0.11895747678268889
9801,9.0,299.70735,-7339.1463,0.09800994452922396,0.0,0.0,0.0,0.0,0.01495770329875537,0.9463152543565442,0.5851209982244464,0.6994809438708943,-0.011189074634525687,-0.024527231452899274,0.13048791841565488
9802,9.0,300.43214,-7330.1543,0.09801995420392129,0.0,0.0,0.0,0.0,0.014959230916641086,0.9455827555942522,0.6028738796490193,0.6797272380038553,0.001097015283116979,-0.015602755593122086,0.11933076825202989
9803,9.0,300.04314,-7405.4323,0.09802996387861884,0.0,0.0,0.0,0.0,0.01496075853452683,0.9973642636071891,0.5766496903658934,0.6770525515823844,0.01631988132489688,-0.013684728882577588,0.13298847780744086
9804,9.0,299.31264,-7229.7943,0.09803994051808629,0.0,0.0,0.0,0.0,0.01496228111076936,0.9699127447429352,0.5633921842024795,0.6643720102909124,0.013840142196165686,-0.006403378901714295,0.1069144217916319
9805,9.0,299.60717,-6967.291,0.09804995019278384,0.0,0.0,0.0,0.0,0.014963808728655076,0.9129208716682752,0.5668904403052305,0.6380711686377214,0.009168194020905303,-0.016097681657467482,0.14559851715695488
9806,9.0,300.48617,-7086.8213,0.09805995986748117,0.0,0.0,0.0,0.0,0.014965336346540792,0.9238075043202021,0.5532766146116505,0.6771325983402844,0.016227381723267882,0.003362189279947247,0.10915800069305588
9807,9.0,300.41598999999997,-7349.2805,0.09806996954217873,0.0,0.0,0.0,0.0,0.014966863964426536,0.956947176198333,0.5933261860767355,0.6837244083233454,-0.002409100094034668,0.005185163606560805,0.14488416570395388
9808,9.0,300.91994,-7393.9535,0.09807994618164617,0.0,0.0,0.0,0.0,0.014968386540669065,0.9657392283760411,0.5909704707867445,0.6908675276858163,-0.0001372714555826379,0.017890349065639986,0.13048003532987687
9809,9.0,300.17739,-7329.6811,0.09808995585634372,0.0,0.0,0.0,0.0,0.014969914158554809,0.9768734588224041,0.5822670475952835,0.6688995157127424,-0.018366943409176183,0.013651996851347185,0.13403310826303785
9810,9.0,299.97285,-7305.8013,0.09809996553104106,0.0,0.0,0.0,0.0,0.014971441776440525,0.9682173037481081,0.5882447773552395,0.6643190882381894,-0.02108871353629398,0.02067247242171418,0.12043564655857288
9811,9.0,299.91606,-7327.7766,0.0981099421705085,0.0,0.0,0.0,0.0,0.014972964352683082,0.9557960531572262,0.5823211044881185,0.6893439643054523,-0.007701653012443973,-3.100871167232157e-05,0.12634424226420587
9812,9.0,299.9672,-7314.6259,0.09811995184520605,0.0,0.0,0.0,0.0,0.01497449197056877,0.9506480232416551,0.5802863462998035,0.6925292578498163,0.004858512343297835,-0.008726182612557172,0.13178460496612787
9813,9.0,299.95858,-7282.595,0.09812996151990339,0.0,0.0,0.0,0.0,0.014976019588454487,0.9385919277218112,0.5967317703253404,0.6784033456881974,0.024303648699083375,-0.022404421830894274,0.13155030101300388
9814,9.0,300.05745,-7133.7366,0.09813993815937083,0.0,0.0,0.0,0.0,0.014977542164697044,0.9310786782303111,0.5706910401053205,0.6667080989264664,0.01281950955593709,-0.004596655282854556,0.14715974304353585
9815,9.0,299.49712999999997,-7270.0113,0.09814994783406839,0.0,0.0,0.0,0.0,0.01497906978258276,0.9709417508819901,0.5831837856232585,0.6557763766450894,0.01866501119109318,-0.0009262490824236671,0.1407779392762009
9816,9.0,299.63045,-7429.5103,0.09815995750876572,0.0,0.0,0.0,0.0,0.014980597400468504,0.9882169254144171,0.5781273940467314,0.6920412968666584,0.00016866687820862484,0.002251472119702998,0.13258100941222686
9817,9.0,300.3031,-7325.0084,0.09816996718346327,0.0,0.0,0.0,0.0,0.01498212501835422,0.941718847927914,0.5847789047256845,0.7001218752216494,-0.015962493829125485,0.008335661027915692,0.12278312412525089
9818,9.0,300.63735,-7262.0081,0.09817994382293072,0.0,0.0,0.0,0.0,0.014983647594596777,0.936220274007747,0.5907429454767894,0.6805059004407034,-0.025995018455008574,0.0047103745707277765,0.1254520856836569
9819,9.0,300.86201,-7376.1169,0.09818995349762805,0.0,0.0,0.0,0.0,0.014985175212482466,0.9512014199162712,0.5870162521389934,0.7039376839057403,-0.02238068543405168,-0.00919494362089528,0.1141188326526519
9820,9.0,300.75647999999995,-7393.6906,0.0981999631723256,0.0,0.0,0.0,0.0,0.01498670283036821,0.983349352994025,0.5963858467412004,0.6677621120779894,-0.021552818559097582,0.0006063752666945794,0.13383100539809187
9821,9.0,300.13741,-7275.3081,0.09820993981179305,0.0,0.0,0.0,0.0,0.014988225406610739,0.9666442127028562,0.5783862997122834,0.6664814754091004,0.011462235715734589,-0.0026074991245651274,0.1268269343468439
9822,9.0,301.01474,-7250.728,0.0982199494864906,0.0,0.0,0.0,0.0,0.014989753024496483,0.9643541965493491,0.5752472509024835,0.6644388138700054,-0.0063135626903251234,0.011677787449257888,0.12127661374406988
9823,9.0,300.86678,-7309.2689,0.09822995916118793,0.0,0.0,0.0,0.0,0.014991280642382199,0.9376577516596152,0.5927922944665444,0.6913851768969043,0.010683102117590092,0.00814829831747443,0.12487003429621288
9824,9.0,299.66857000000005,-7287.6897,0.09823996883588526,0.0,0.0,0.0,0.0,0.014992808260267915,0.9503693693316541,0.5692689739874734,0.6956373518690614,0.004572479236793566,0.00030391285697386366,0.13232303593676686
9825,9.0,300.21549,-7261.3841,0.09824994547535293,0.0,0.0,0.0,0.0,0.014994330836510472,0.9222322145222333,0.5879588179120174,0.6970884374697723,0.014904501644459785,0.005138120025617965,0.13731906820483686
9826,9.0,300.36663,-7246.5329,0.09825995515005026,0.0,0.0,0.0,0.0,0.01499585845439616,0.9589776483387251,0.5717421756265595,0.6720452215756993,0.007749627871553723,0.006020757121477464,0.14806906408077886
9827,9.0,299.64922,-7261.8408,0.09826996482474781,0.0,0.0,0.0,0.0,0.014997386072281904,0.970199697171255,0.5753339445810395,0.6618846231504264,0.004080143445003806,-0.0024802678426333775,0.14940860097798087
9828,9.0,300.04599,-7219.1136,0.09827994146421526,0.0,0.0,0.0,0.0,0.014998908648524434,0.9613228460926782,0.5791273097754154,0.6539801071328114,-0.0098533263807726,-0.014728123173052587,0.13746660755189788
9829,9.0,299.83533,-7268.0621,0.09828995113891281,0.0,0.0,0.0,0.0,0.015000436266410178,0.951016268725498,0.5717199854493694,0.6865731305819923,-0.0015800090103097486,-0.014192998437489885,0.1154254186566019
9830,9.0,299.51177,-7234.6096,0.09829996081361014,0.0,0.0,0.0,0.0,0.015001963884295894,0.9351891197784801,0.5852392445111165,0.6787123160411903,-0.0017310641325677283,0.004649420079162036,0.1153177709659779
9831,9.0,299.91627,-7333.9489,0.0983099704883077,0.0,0.0,0.0,0.0,0.015003491502181637,0.9396315425894131,0.5927586950932284,0.6969470890808224,-0.004170386842635136,0.013584717044707187,0.11845869428846288
9832,9.0,299.90202,-7596.4865,0.09831994712777514,0.0,0.0,0.0,0.0,0.015005014078424167,1.000522513506384,0.6010188720284444,0.7076008261972643,-0.007934189249443514,0.007002266250169874,0.12192531672309187
9833,9.0,300.43764,-7381.3913,0.0983299568024727,0.0,0.0,0.0,0.0,0.015006541696309883,0.984338619464158,0.5883028467184704,0.6711171858091094,-0.012276810775876888,0.014769468843383088,0.13525356800848787
9834,9.0,300.30901,-7126.2756,0.09833996647717003,0.0,0.0,0.0,0.0,0.015008069314195599,0.93460386652072,0.5692872631517785,0.6623187096257673,-0.0013526884781999587,0.014446863183794383,0.13380249254027787
9835,9.0,300.14703,-7284.543000000001,0.0983499431166377,0.0,0.0,0.0,0.0,0.015009591890438156,0.952916376108024,0.5667682119456674,0.6946345990400973,0.0005378355544827365,-0.0012322050366341687,0.12634383696416587
9836,9.0,300.60632000000004,-7334.5577,0.09835995279133503,0.0,0.0,0.0,0.0,0.015011119508323872,0.948757369482562,0.5888986681747734,0.6918663592368933,-0.0009345740567027782,-0.001129764843574109,0.1280280815453879
9837,9.0,300.07716,-7190.9117,0.09836996246603236,0.0,0.0,0.0,0.0,0.015012647126209588,0.9391653664834051,0.5642911802212034,0.6824010428977394,0.0014690173917057288,-0.001721616892610358,0.12240224341266089
9838,9.0,299.596,-7298.2304,0.09837993910550002,0.0,0.0,0.0,0.0,0.015014169702452146,0.9588046662816531,0.5943206302548795,0.6653544981178764,0.006753710731739354,-0.0030592066270951875,0.13643458192754487
9839,9.0,300.42773,-7363.0187,0.09838994878019736,0.0,0.0,0.0,0.0,0.015015697320337862,0.9745118058868272,0.5865923994896625,0.6770696248465693,0.002186066927073008,0.0021209666213981076,0.13321031878433487
9840,9.0,299.27796,-7428.1723,0.09839995845489491,0.0,0.0,0.0,0.0,0.015017224938223578,0.9801983174355421,0.5954751578163224,0.6823054224858023,-0.008237608005138612,-0.008397519642545663,0.13718024280863586
9841,9.0,299.61755,-7466.3057,0.09840996812959224,0.0,0.0,0.0,0.0,0.015018752556109294,0.970541588019997,0.5959595420266275,0.7030693792325453,-0.016623325411844483,-0.001988007335326048,0.12392399307534588
9842,9.0,300.23432,-7289.9099,0.09841994476905991,0.0,0.0,0.0,0.0,0.015020275132351851,0.9327109126839002,0.5811365948562164,0.7021030730096783,0.0007017412413989683,0.003385837220056117,0.1160379486070539
9843,9.0,299.56172999999995,-7165.5505,0.09842995444375724,0.0,0.0,0.0,0.0,0.015021802750237567,0.9129441358905711,0.5847823295110224,0.6804219729349203,-0.006421965556248654,0.007976054717075312,0.12353614120206788
9844,9.0,300.15331000000003,-7183.8925,0.09843996411845479,0.0,0.0,0.0,0.0,0.015023330368123311,0.9539808054705751,0.5794300790377964,0.6503130334308994,0.006893806439590724,-0.0016377012418535282,0.12789345100460087
9845,9.0,300.69271000000003,-7266.0375,0.09844994075792202,0.0,0.0,0.0,0.0,0.01502485294436584,0.9650676259447591,0.5710223424905174,0.6726040087408474,0.007092073747608183,0.004861456544113405,0.13138001420119788
9846,9.0,300.11796,-7197.8483,0.09845995043261957,0.0,0.0,0.0,0.0,0.015026380562251584,0.9606890480226271,0.5832540443851925,0.6440230605201275,0.01978571849069838,-0.003104935009408227,0.14401240584791786
9847,9.0,300.32901,-7169.3832,0.09846996010731712,0.0,0.0,0.0,0.0,0.015027908180137273,0.926287373144946,0.5699990510820264,0.6830270288095193,0.016265305648010684,-0.0016232198714243283,0.14170309741250686
9848,9.0,300.22497999999996,-7332.0609,0.09847996978201445,0.0,0.0,0.0,0.0,0.015029435798022989,0.9580583771855001,0.5828875112940184,0.6878175638248083,0.004205489473799496,-0.002857372172100677,0.13829676335882787
9849,9.0,299.86377000000005,-7410.1264,0.0984899464214819,0.0,0.0,0.0,0.0,0.015030958374265546,0.9504226764194151,0.5971557850946874,0.7049149332296873,0.0040895682921339655,0.007261509733305213,0.12780116418549287
9850,9.0,300.6964,-7279.0702,0.09849995609617923,0.0,0.0,0.0,0.0,0.015032485992151262,0.97561354311806,0.5738601115155835,0.6631819379159614,-0.006068145916729374,0.00887536869368069,0.12506885423083489
9851,9.0,299.88899,-7395.2668,0.09850996577087678,0.0,0.0,0.0,0.0,0.015034013610037006,0.958630164349431,0.6046086752777304,0.6847376178933414,-0.016300409697725185,0.005627381920579355,0.1162447326874619
9852,9.0,299.88108,-7343.0115,0.09851994241034423,0.0,0.0,0.0,0.0,0.015035536186279536,0.9694712818068661,0.5853127355408694,0.6773081236551074,-0.019416909639799782,-0.006346313973307424,0.12409606320732788
9853,9.0,299.46884,-7275.0943,0.09852995208504178,0.0,0.0,0.0,0.0,0.01503706380416528,0.9467820080151091,0.5731931193722565,0.6914718908404623,0.0005701826013376415,0.005715450072896005,0.1012038577120431
9854,9.0,299.49967000000004,-7396.286,0.09853996175973911,0.0,0.0,0.0,0.0,0.015038591422050968,0.9612888211543201,0.6012106498748714,0.6857867775768854,0.016964029744719382,-0.0012288600954040488,0.12413336094350887
9855,9.0,299.84237,-7405.7719,0.09854993839920656,0.0,0.0,0.0,0.0,0.015040113998293525,0.962896322172968,0.5799877313628324,0.7082857022048563,0.016783460470898584,-0.016851626871376084,0.0995600215448091
9856,9.0,300.78616,-7215.3248,0.09855994807390411,0.0,0.0,0.0,0.0,0.015041641616179241,0.952306004380285,0.5867487135825894,0.6542238545768674,0.007577401699056322,-0.014378369503534586,0.15046936237516986
9857,9.0,300.24137,-7325.8473,0.09856995774860167,0.0,0.0,0.0,0.0,0.015043169234064985,0.9541197929867921,0.5909312377428725,0.6818236321957534,0.015764475375332584,-0.0022162657317283977,0.13747916172063687
9858,9.0,300.4202,-7393.5717,0.098579967423299,0.0,0.0,0.0,0.0,0.0150446968519507,0.970555814051401,0.5858882818626715,0.6910170935330773,0.005683626217730235,0.005577981215928885,0.14881858544475088
9859,9.0,300.21112,-7242.1007,0.09858994406276644,0.0,0.0,0.0,0.0,0.01504621942819323,0.9398139276074132,0.5864419014523095,0.6751619383532954,-0.006312386205634015,0.007696422716752783,0.13435304198211287
9860,9.0,300.04962,-7206.7135,0.098599953737464,0.0,0.0,0.0,0.0,0.015047747046078974,0.9316575885424451,0.5851765952574335,0.6738267584315234,-0.02270430130399008,0.008936196630308941,0.13911600646218086
9861,9.0,299.94318,-7278.8782,0.09860996341216133,0.0,0.0,0.0,0.0,0.015049274663964662,0.9500852844011172,0.5788691843124404,0.6836427504977863,-0.017047574241964587,0.025632516072732377,0.1155144326778869
9862,9.0,299.86834,-7208.7157,0.09861994005162877,0.0,0.0,0.0,0.0,0.01505079724020722,0.947203742971731,0.5803349924371045,0.6637308256276323,-0.01090280615002319,0.006444638243136274,0.12874522956866488
9863,9.0,299.74232,-7257.3302,0.09862994972632633,0.0,0.0,0.0,0.0,0.015052324858092936,0.9473958855881941,0.5789243152503815,0.6797269542938273,6.473068318417104e-05,0.003875797852286466,0.12090920925780987
9864,9.0,300.36545,-7422.3097,0.09863995940102388,0.0,0.0,0.0,0.0,0.01505385247597868,0.9737250273166781,0.5973516767365205,0.6851200995410894,0.008579838799289162,-0.013474573719086887,0.13047122005400685
9865,9.0,300.61001,-7424.4489,0.09864996907572121,0.0,0.0,0.0,0.0,0.015055380093864396,0.975980582834284,0.5864168640423385,0.6944496201018413,0.00972378022766239,-0.003705946535373447,0.12157815697382988
9866,9.0,300.99841000000004,-7274.2926,0.09865994571518866,0.0,0.0,0.0,0.0,0.015056902670106925,0.9560361022384171,0.5756810232702935,0.6794861959375663,0.011767123684074688,-0.013416046366810687,0.1335921620845199
9867,9.0,300.60969,-7343.8124,0.09866995538988621,0.0,0.0,0.0,0.0,0.015058430287992669,0.980680533290633,0.5775563060253693,0.6740987654208683,0.01767687145507138,-0.02143407172687818,0.12991253421386886
9868,9.0,300.40974,-7346.7291,0.09867996506458376,0.0,0.0,0.0,0.0,0.015059957905878385,0.970185106369815,0.5714317157959194,0.6916053561436344,0.023776453658803275,-0.004533486231870256,0.14068187303421986
9869,9.0,300.46332,-7170.9812,0.09868994170405099,0.0,0.0,0.0,0.0,0.015061480482120887,0.9416459952457241,0.5761332570549255,0.6620199730987844,0.006755715244412183,0.0026931227096905173,0.13845972437241086
9870,9.0,300.07421,-7165.2232,0.09869995137874854,0.0,0.0,0.0,0.0,0.01506300810000663,0.9372283970622411,0.5668578035195094,0.6739627365949433,-0.002520373193516468,0.004699644150843766,0.12761988361010188
9871,9.0,299.68262000000004,-7282.9311,0.0987099610534461,0.0,0.0,0.0,0.0,0.015064535717892374,0.9627500392560311,0.5585309141977094,0.6925482360241894,-0.019584724121361783,0.01952984750919588,0.1081257318886789
9872,9.0,299.77465,-7311.3698,0.09871997072814342,0.0,0.0,0.0,0.0,0.01506606333577809,0.96284456535786,0.5841731331533995,0.6754561456523314,-0.01252549882742049,0.02943100831261437,0.1210725147764269
9873,9.0,299.88462000000004,-7377.2941,0.09872994736761087,0.0,0.0,0.0,0.0,0.01506758591202062,0.972298259718367,0.5865854485939764,0.6836294971864784,-0.012111514220813387,0.019913295797539282,0.12113970339055789
9874,9.0,299.95117,-7461.8235,0.09873995704230842,0.0,0.0,0.0,0.0,0.015069113529906364,0.977728388594279,0.6066623305804104,0.6838173030925133,-0.022344675538747777,-0.004467743120331915,0.1294002552283109
9875,9.0,300.05669,-7344.689,0.09874996671700598,0.0,0.0,0.0,0.0,0.01507064114779208,0.951859242146193,0.5933069951198414,0.6874358218496333,-0.0030428787096837473,-0.00886244722178044,0.14022734930436187
9876,9.0,300.33242,-7291.7169,0.0987599433564732,0.0,0.0,0.0,0.0,0.015072163724034582,0.950928784711864,0.5863521882884554,0.6792188802961843,0.012384481771253187,-0.0004392056985562275,0.14112927361587488
9877,9.0,299.92713,-7281.4601,0.09876995303117075,0.0,0.0,0.0,0.0,0.015073691341920326,0.9470648365155221,0.5707024290364445,0.6956147766568334,0.019044891825834482,-0.001165805440356039,0.13899784123551887
9878,9.0,300.28918,-7134.0861,0.09877996270586831,0.0,0.0,0.0,0.0,0.01507521895980607,0.946936356402842,0.5595621190894815,0.6620855506452564,0.020328938081309977,-0.013782220767449288,0.13392066789944088
9879,9.0,300.4183,-7027.0318,0.09878993934533553,0.0,0.0,0.0,0.0,0.015076741536048599,0.9319195643558,0.5494989142638205,0.6546237337288324,0.005925698151420874,-0.0019356377065575681,0.13755315937543985
9880,9.0,300.10474,-7276.6001,0.09879994902003308,0.0,0.0,0.0,0.0,0.015078269153934315,0.9637218474269411,0.5824873180345225,0.6656955479690353,0.01124192474649159,0.0007973628895010902,0.13949176012926487
9881,9.0,299.61834,-7445.0066,0.09880995869473064,0.0,0.0,0.0,0.0,0.015079796771820086,0.97210344212164,0.5862850908668334,0.7047075715967224,0.0008036528522793613,0.0050532814053450455,0.12757586802575788
9882,9.0,300.09488,-7345.0632,0.09881996836942797,0.0,0.0,0.0,0.0,0.015081324389705775,0.9513330005742572,0.5944744314875584,0.6869083643775774,-0.015577662454395586,-0.0037643272703601766,0.13230606399759187
9883,9.0,299.60281000000003,-7459.5753,0.09882994500889541,0.0,0.0,0.0,0.0,0.015082846965948304,0.961992867853804,0.6004221791770554,0.7051095785738973,-0.03407923032485817,0.006010672344557175,0.1080932065604689
9884,9.0,299.77052000000003,-7440.3137,0.09883995468359297,0.0,0.0,0.0,0.0,0.015084374583834048,0.9962420384589341,0.5849599725185544,0.6804675691894204,-0.016472185987178183,0.018505080808559282,0.12395784576118687
9885,9.0,299.23503,-7327.5379,0.0988499643582903,0.0,0.0,0.0,0.0,0.015085902201719764,0.975638013107975,0.5847546880482944,0.6669958619548664,-0.002998468768400827,0.021898675268730978,0.12619346051682487
9886,9.0,299.37942000000004,-7258.5352,0.09885994099775774,0.0,0.0,0.0,0.0,0.015087424777962294,0.9706917618173182,0.5624181975438545,0.6733035059473823,0.0006011088486373244,0.004650934077461456,0.14457256090070086
9887,9.0,299.51203,-7278.7115,0.09886995067245508,0.0,0.0,0.0,0.0,0.01508895239584801,0.9551047632765011,0.5777795250223994,0.6796622684074433,0.006041375038487295,0.0014063205152680287,0.1310471716758489
9888,9.0,300.23086,-7245.778,0.09887996034715285,0.0,0.0,0.0,0.0,0.015090480013733781,0.9493635362223861,0.5703802762996505,0.6827917622688003,0.006191295928583334,-0.009189704509928221,0.13906832291247487
9889,9.0,300.01831,-7325.1258,0.09888997002185018,0.0,0.0,0.0,0.0,0.01509200763161947,0.9536898000418552,0.5669240802085505,0.7060414444258652,0.0068796959186981236,-0.017908225837154283,0.11962288825585989
9890,9.0,300.37897000000004,-7341.5805,0.09889994666131763,0.0,0.0,0.0,0.0,0.015093530207862,0.970368393180404,0.5751553997809185,0.6861333597735904,0.01126821250708599,-0.02770938898820377,0.12668555556039088
9891,9.0,299.80664,-7341.3231,0.09890995633601518,0.0,0.0,0.0,0.0,0.015095057825747743,0.9474508138761151,0.5964638467338984,0.6876642590846783,-0.0003550657952872657,-0.016325095509911486,0.12099135344341688
9892,9.0,300.19969,-7346.0031,0.09891996601071273,0.0,0.0,0.0,0.0,0.015096585443633487,0.9608447136354901,0.6061989814421814,0.6659578074924184,0.0004462409979755576,0.0007327111091154563,0.14651797069519787
9893,9.0,300.15705,-7416.9257,0.09892994265017996,0.0,0.0,0.0,0.0,0.015098108019875989,0.96512164230759,0.6092196826403015,0.6802188770848763,-0.015413851323978685,0.014501407449927487,0.13080068845652287
9894,9.0,299.67852999999997,-7352.5757,0.09893995232487751,0.0,0.0,0.0,0.0,0.015099635637761732,0.9582205478640051,0.5990317264623284,0.6777471243934333,-0.012547100306302386,0.015103577931357085,0.13338776927434787
9895,9.0,299.47319,-7237.4767,0.09894996199957506,0.0,0.0,0.0,0.0,0.015101163255647476,0.9363917057921662,0.5888451584369925,0.6747753429101413,-0.013154430257241187,0.020308192798762583,0.12268102904517487
9896,9.0,299.75952,-7256.9133,0.09895993863904251,0.0,0.0,0.0,0.0,0.015102685831890006,0.9612699747024601,0.5748101652068465,0.6698402779005883,-0.006063988348919054,0.03129388888646637,0.13019098547384989
9897,9.0,299.5164,-7295.0638,0.09896994831373984,0.0,0.0,0.0,0.0,0.015104213449775694,0.9664550895716911,0.5689500028559935,0.6821121348967264,-0.016200500198114882,0.02176099991139348,0.1356320473183409
9898,9.0,299.38701000000003,-7287.1632,0.0989799579884374,0.0,0.0,0.0,0.0,0.015105741067661438,0.9592068657763471,0.5838987652913215,0.6720100010022233,0.0049688305558853955,-0.005486709673421085,0.14408598807017983
9899,9.0,299.42832000000004,-7368.2178,0.09898996766313495,0.0,0.0,0.0,0.0,0.015107268685547182,0.951367633462675,0.5884286923808905,0.6999578806929644,-0.0006856489654307843,-0.008669185065281951,0.13481982603818088
9900,9.0,300.09045,-7455.5058,0.09899994430260217,0.0,0.0,0.0,0.0,0.015108791261789684,0.958582085632186,0.6009897714855724,0.7067157522349143,0.01107787955530159,-0.0049517546572501354,0.13363818390406187
9901,9.0,299.95802000000003,-7394.5687,0.09900995397729973,0.0,0.0,0.0,0.0,0.015110318879675427,0.9604595164774741,0.5922746756529593,0.6950300502891253,0.006101806186376384,-0.015232073242788588,0.11699562193906889
9902,9.0,300.37905,-7372.7964,0.09901996365199728,0.0,0.0,0.0,0.0,0.015111846497561171,0.9774050402223672,0.5900613422670204,0.6736796243845024,0.003362156653294027,-0.014613608686500886,0.1016698291415309
9903,9.0,300.29177999999996,-7488.1026,0.09902994029146472,0.0,0.0,0.0,0.0,0.0151133690738037,0.9804450742323951,0.6061476400596144,0.6896034981860664,0.0027566779102879274,0.0008262156724586383,0.11009773949830089
9904,9.0,300.14047,-7456.0376,0.09903994996616206,0.0,0.0,0.0,0.0,0.015114896691689389,0.988828401584765,0.5889650360563234,0.6886558155000374,0.0034665723800740567,0.009311267468150553,0.12001147980171088
9905,9.0,300.47067000000004,-7411.5465,0.09904995964085961,0.0,0.0,0.0,0.0,0.015116424309575133,0.968483221104352,0.6011127192527065,0.6833291191943334,-0.013263266490232486,0.008557659362550221,0.14905592914817486
9906,9.0,300.13812,-7420.8735,0.09905996931555716,0.0,0.0,0.0,0.0,0.015117951927460876,0.9635559581205689,0.5962271008480334,0.6959771959526013,-0.024205970376193275,0.0018357019637696783,0.13496904738040788
9907,9.0,299.75876,-7252.7828,0.09906994595502461,0.0,0.0,0.0,0.0,0.015119474503703406,0.9473356276047471,0.5749836944189725,0.6823455471897624,-0.012418578650368288,0.005755510030174615,0.14426814004065688
9908,9.0,299.53299,-7172.2057,0.09907995562972194,0.0,0.0,0.0,0.0,0.015121002121589122,0.9313491552120051,0.5789740556977904,0.6698482420463744,-0.003492249758808216,0.018149979205013482,0.13223954412852687
9909,9.0,299.4144,-7256.4474,0.09908996530441949,0.0,0.0,0.0,0.0,0.015122529739474866,0.9408226586119671,0.5832360490634164,0.6817201084330364,0.0051880381970945055,0.013597972382515387,0.13092783107907086
9910,9.0,299.18392,-7385.068,0.09909994194388672,0.0,0.0,0.0,0.0,0.015124052315717396,0.9506980575315931,0.6005522703573944,0.6936259389630502,0.01032902085689499,-0.0016299371116372681,0.13975416150766187
9911,9.0,299.53578,-7337.6077,0.09910995161858427,0.0,0.0,0.0,0.0,0.015125579933603084,0.9414728004061311,0.6020862904787905,0.6868904399833083,0.007667661004714223,0.002378574516222028,0.14448824835987983
9912,9.0,299.81371,-7364.3198,0.09911996129328182,0.0,0.0,0.0,0.0,0.015127107551488828,0.95027752834259,0.5966957087542815,0.6915960849052193,-0.008442065055366951,-0.003816715846905526,0.14640167998122086
9913,9.0,300.37747,-7345.9557,0.09912993793274905,0.0,0.0,0.0,0.0,0.015128630127731357,0.96595595243993,0.5953342957874205,0.6716968661913193,0.004776498664303715,-0.015672887698793585,0.1325364669378309
9914,9.0,300.16643999999997,-7330.9035,0.0991399476074466,0.0,0.0,0.0,0.0,0.015130157745617101,0.963246004914979,0.5876718958812005,0.6774937105434234,-0.012160872672934689,-0.015195788756707587,0.12066998090919989
9915,9.0,299.72881,-7308.5412,0.09914995728214393,0.0,0.0,0.0,0.0,0.015131685363502817,0.959673730892423,0.5809483431201374,0.6809919463811723,0.006897982549877873,-0.0015707831654992285,0.12163257863670089
9916,9.0,300.3576,-7287.7594,0.09915996695684148,0.0,0.0,0.0,0.0,0.01513321298138856,0.9560189175167212,0.5779508048193035,0.6813271700442564,0.0033200805309664366,-0.001207770409147659,0.12125165739410687
9917,9.0,300.35156,-7396.3418,0.09916994359630893,0.0,0.0,0.0,0.0,0.01513473555763109,0.957709586103577,0.5906581769734235,0.6999354676007524,0.005567549806149385,-0.0005656824232710085,0.14025513262210387
9918,9.0,300.1792,-7489.5953,0.09917995327100648,0.0,0.0,0.0,0.0,0.015136263175516806,0.9705445568427901,0.5977238738957534,0.7083815252668134,0.0024858506480343575,0.012323861044270388,0.13112617478614588
9919,9.0,300.01866,-7432.1254,0.09918996294570381,0.0,0.0,0.0,0.0,0.015137790793402522,0.9769566061256102,0.5924131970741304,0.6898107382290193,-0.003339536250111567,0.016412504543038085,0.13547218685006387
9920,9.0,299.45932999999997,-7251.8975,0.09919993958517148,0.0,0.0,0.0,0.0,0.01513931336964508,0.9633440368621541,0.5732400125868845,0.6678116904053824,-0.014217525169410486,0.027664021728226372,0.11668175758809288
9921,9.0,299.80516,-7222.7746,0.09920994925986881,0.0,0.0,0.0,0.0,0.015140840987530796,0.9420437972349841,0.5817961092138055,0.6717032091369454,-0.017280494095451984,-0.004346609678826976,0.11693118936520988
9922,9.0,300.01555,-7365.639,0.09921995893456614,0.0,0.0,0.0,0.0,0.015142368605416512,0.9657886445834181,0.5829574458159205,0.6902242455948293,0.003552524055581827,0.004887922535400395,0.11473105862807388
9923,9.0,300.48362000000003,-7393.1652,0.0992299686092637,0.0,0.0,0.0,0.0,0.015143896223302256,0.9502165306865701,0.5890806478927334,0.7080404247531493,0.01045295552962639,-0.0005265914877255335,0.12618554703354387
9924,9.0,300.32051,-7233.125,0.09923994524873114,0.0,0.0,0.0,0.0,0.015145418799544785,0.9469475730814492,0.5795038335125754,0.6722380025397253,0.02136167399398308,-0.0035680420821883373,0.14832458549099686
9925,9.0,300.78564,-7261.318,0.0992499549234287,0.0,0.0,0.0,0.0,0.015146946417430501,0.957354219028505,0.5792760650225964,0.6706290829709374,0.0093050901889159,-0.015206853447799585,0.12890783594471286
9926,9.0,300.48682,-7320.9559,0.09925996459812603,0.0,0.0,0.0,0.0,0.015148474035316217,0.9696117182707261,0.5881975599005795,0.6675785111598693,0.007019774705272823,-0.006526878586177764,0.14507811190559486
9927,9.0,300.30322,-7276.2555,0.0992699412375937,0.0,0.0,0.0,0.0,0.015149996611558775,0.9573448768625832,0.5760471611939284,0.6784079458436514,0.013037523487203386,0.011717187679396387,0.12295525505223888
9928,9.0,299.45072999999996,-7331.4248,0.09927995091229103,0.0,0.0,0.0,0.0,0.01515152422944449,0.9606995250286611,0.5804555995965075,0.6874149286325714,0.0006234392596411644,0.005893847850427494,0.13662766686660088
9929,9.0,299.97822,-7330.8876,0.09928996058698858,0.0,0.0,0.0,0.0,0.015153051847330234,0.942828235197402,0.5854059140200654,0.7001726390516594,-0.01192576419923129,-0.007952085272709712,0.13294887999353286
9930,9.0,299.96488999999997,-7226.7541,0.09929997026168591,0.0,0.0,0.0,0.0,0.015154579465215923,0.9508691650759801,0.5809449183347994,0.6649387210718424,-0.021529285825525078,-0.011694598281666989,0.13943872661903087
9931,9.0,299.42058,-7332.0219,0.09930994690115358,0.0,0.0,0.0,0.0,0.015156102041458508,0.978827410315244,0.5903076937638334,0.6596164628015764,-0.006413418892980164,-0.006150848605791494,0.13253854410053587
9932,9.0,299.62705,-7433.9288,0.09931995657585091,0.0,0.0,0.0,0.0,0.015157629659344196,0.983325166714138,0.5951574431149664,0.6812461100362563,0.004614429918758775,0.004591948938790076,0.12653829992335788
9933,9.0,299.65969,-7355.6913,0.09932996625054824,0.0,0.0,0.0,0.0,0.015159157277229912,0.9713613276158991,0.5869155654765564,0.6776696006282824,0.0025205796938868475,0.0045688729783626555,0.12639235137895388
9934,9.0,299.61087000000003,-7302.4053,0.09933994289001591,0.0,0.0,0.0,0.0,0.01516067985347247,0.9541709823818441,0.5935380465401444,0.6720398412176684,0.007209318943179384,0.008679975165596852,0.1084184801075709
9935,9.0,300.01761,-7360.6408,0.09934995256471324,0.0,0.0,0.0,0.0,0.015162207471358186,0.9492721815933701,0.5878638561126455,0.7003149702932063,0.005577564668812774,0.005783555779692515,0.13632443150917387
9936,9.0,300.25649,-7453.1289,0.09935996223941079,0.0,0.0,0.0,0.0,0.01516373508924393,0.9830400381359979,0.5893427452961004,0.6931823076717674,-0.0011043857656693888,0.0033042065495997967,0.12379908973551887
9937,9.0,300.03119,-7369.6613,0.09936993887887824,0.0,0.0,0.0,0.0,0.015165257665486459,0.9745233265404641,0.5815078800903595,0.6841617979940124,-0.005992222985411365,-0.001127954368295429,0.14733511637084384
9938,9.0,300.0805,-7204.1476,0.09937994855357579,0.0,0.0,0.0,0.0,0.015166785283372203,0.9566536680418661,0.5695596349111595,0.6636676900139014,-0.017356940775746683,-0.002454208164636488,0.12150181871129588
9939,9.0,300.24217000000004,-7172.409000000001,0.09938995822827312,0.0,0.0,0.0,0.0,0.015168312901257891,0.9512235290334531,0.5721350633528344,0.6568746384284795,0.00936069421332859,-0.0054176986276602244,0.14118228686110687
9940,9.0,300.47715,-7298.1958,0.09939996790297068,0.0,0.0,0.0,0.0,0.015169840519143635,0.9485930304488431,0.5749814956662554,0.6948947510032724,-0.0026076617512061774,0.004437993692095876,0.11594290574767388
9941,9.0,300.38025,-7439.7169,0.09940994454243812,0.0,0.0,0.0,0.0,0.015171363095386164,0.9490413632205902,0.6060135769388834,0.7064332175770303,0.021988887964884275,-0.0014153414809083286,0.1315368855816799
9942,9.0,299.69163,-7487.4337,0.09941995421713545,0.0,0.0,0.0,0.0,0.015172890713271908,0.974200109891065,0.6038218460450764,0.6979709276443674,-0.002676866125086117,-0.008396266860122023,0.1214496464636469
9943,9.0,299.65971,-7319.7335,0.099429963891833,0.0,0.0,0.0,0.0,0.015174418331157624,0.9625058865119351,0.5944858609486864,0.6680244627938814,-0.003702366114820087,0.004384134281705366,0.13586627021145686
9944,9.0,299.32921,-7377.9761,0.09943994053130045,0.0,0.0,0.0,0.0,0.015175940907400182,0.9683574970319441,0.5992535877042244,0.6751094317331133,-0.00976134323271957,0.0015566995970592884,0.12620418070288286
9945,9.0,299.70083999999997,-7462.6148,0.09944995020599778,0.0,0.0,0.0,0.0,0.015177468525285898,0.997632612763673,0.5824532728311624,0.6883626721136064,-0.004177905563677176,0.004154553593922516,0.13309160640261888
9946,9.0,300.14255,-7390.2786,0.09945995988069534,0.0,0.0,0.0,0.0,0.015178996143171586,0.9620375015207091,0.5851989576871405,0.6992237100680073,-0.0017244574379406987,0.002199522179125938,0.1183261814403849
9947,9.0,299.97026,-7200.4016,0.09946996955539267,0.0,0.0,0.0,0.0,0.01518052376105733,0.9390064483377211,0.5711381063144425,0.6785977377198823,-0.004141733244382246,-0.0048235218789195455,0.13894135254244389
9948,9.0,299.92612,-7214.9936,0.09947994619486011,0.0,0.0,0.0,0.0,0.01518204633729986,0.9359449840880781,0.5655592120588485,0.6916736998628794,-0.007360359069335884,-0.010887999526311889,0.12430212788016487
9949,9.0,300.23556,-7353.9328,0.09948995586955767,0.0,0.0,0.0,0.0,0.015183573955185603,0.960305309944755,0.5926559211355855,0.6824507124176413,-0.006505198175113074,-0.006160171013336544,0.14369050642364886
9950,9.0,300.7515,-7553.0196,0.099499965544255,0.0,0.0,0.0,0.0,0.015185101573071319,0.9888764499045071,0.5999210966051024,0.7071318028584753,0.00970193506213144,0.00010876381600665289,0.1195053512442599
9951,9.0,299.84688,-7548.0613,0.09950994218372267,0.0,0.0,0.0,0.0,0.015186624149313876,0.9917195992876041,0.6070437989780585,0.6956587618436744,0.0006797705139156264,0.004080427864306876,0.12937636279095288
9952,9.0,300.29016,-7373.5877,0.09951995185842,0.0,0.0,0.0,0.0,0.015188151767199592,0.961124127483066,0.5859550449117604,0.6943073800528033,-0.004031130308516586,-0.003175652874962537,0.1188055500626949
9953,9.0,299.8073,-7308.0212,0.09952996153311755,0.0,0.0,0.0,0.0,0.015189679385085308,0.9484882198584992,0.5836502859692985,0.6893174576828364,-0.004520263926015316,-0.018894303609222583,0.12710181896647288
9954,9.0,299.27693999999997,-7335.9775,0.099539938172585,0.0,0.0,0.0,0.0,0.015191201961327866,0.9619300970101091,0.5810372051539074,0.6869866683453053,0.0037439877944778262,-0.0044894105617953265,0.12239893008483389
9955,9.0,299.21224,-7348.5178,0.09954994784728255,0.0,0.0,0.0,0.0,0.015192729579213582,0.9517477643701912,0.5977235293907194,0.6842946350821224,-0.001753532750885208,-0.007240879859944202,0.13362237720250186
9956,9.0,299.84778,-7289.3895,0.09955995752197988,0.0,0.0,0.0,0.0,0.015194257197099298,0.9673438416319041,0.5802212855108825,0.6682272749338973,-0.004710919496631555,-0.0033819113825436665,0.1313836416365559
9957,9.0,299.27686,-7276.8531,0.09956996719667721,0.0,0.0,0.0,0.0,0.015195784814985014,0.9510991829811811,0.5846205033375514,0.6762619631918593,-0.0013055776174504786,-0.0028620728419645972,0.14019690113885688
9958,9.0,299.60303999999996,-7260.357,0.09957994383614488,0.0,0.0,0.0,0.0,0.015197307391227571,0.9453216815734862,0.5810171022719235,0.6806284530402984,0.01037181851461879,0.014515927323860487,0.13802062230907486
9959,9.0,299.88696,-7434.6352,0.09958995351084221,0.0,0.0,0.0,0.0,0.015198835009113287,0.9542514445722852,0.6032823410293314,0.7024096723574373,0.008546260501575243,0.016172926623143586,0.13376538732161586
9960,9.0,299.89534,-7429.3703,0.09959996318553976,0.0,0.0,0.0,0.0,0.015200362626999003,0.960020627196659,0.6046457602313905,0.6936766723955573,-0.01176209289732819,0.006453312373267343,0.13525385171851587
9961,9.0,300.54201,-7273.8498,0.09960993982500721,0.0,0.0,0.0,0.0,0.015201885203241533,0.938687254291219,0.5887406214241754,0.6836408354550974,-0.012823521013082989,-0.0026179220230437873,0.12385014740805789
9962,9.0,300.46011,-7292.7856,0.09961994949970476,0.0,0.0,0.0,0.0,0.015203412821127277,0.959041959322572,0.5857909490580654,0.6719918232954294,-0.003984943227883277,0.012644367249651888,0.12422785664783488
9963,9.0,300.04283,-7388.5582,0.0996299591744021,0.0,0.0,0.0,0.0,0.015204940439012993,0.9591395454397031,0.5965298093154084,0.6902678660116343,-0.013957617399509589,0.0044038039992716155,0.1175903288202619
9964,9.0,299.71848,-7474.9371,0.09963996884909965,0.0,0.0,0.0,0.0,0.015206468056898736,0.9758379982802121,0.6103697721663064,0.6859864587740924,-0.009699610463752022,-0.01943158150124778,0.13489522197812187
9965,9.0,299.54233,-7444.1854,0.0996499454885671,0.0,0.0,0.0,0.0,0.015207990633141266,0.9712962972244812,0.6019341408437744,0.6896160320898034,-0.002018760691761168,-0.011294827547462688,0.13652113375108688
9966,9.0,299.54747000000003,-7361.0246,0.09965995516326465,0.0,0.0,0.0,0.0,0.01520951825102701,0.965399688267531,0.5875274976094494,0.6846404978712564,0.0070969064439601335,-0.00047718643623213456,0.12210750922357287
9967,9.0,299.57833999999997,-7410.7067,0.09966996483796198,0.0,0.0,0.0,0.0,0.015211045868912698,0.9616634906437972,0.6018102102240435,0.6891961007183592,0.01711395022951538,-0.008196783246684523,0.12508291814222286
9968,9.0,299.45946000000004,-7487.8947,0.09967994147742942,0.0,0.0,0.0,0.0,0.015212568445155228,0.9844393669216011,0.5957284298113185,0.6959652092039182,0.006418455961877284,-0.01063941279977829,0.11247068003999189
9969,9.0,299.66532,-7406.8075,0.09968995115212698,0.0,0.0,0.0,0.0,0.015214096063040972,0.960871433040627,0.5900146010399074,0.7005984979361883,0.005131984289637415,0.0034676445000048663,0.13273467892239288
9970,9.0,300.3654,-7292.161999999999,0.09969996082682431,0.0,0.0,0.0,0.0,0.015215623680926688,0.9530258577813291,0.5795017664823714,0.6841075485836583,-0.004828684185529025,0.015569873600876884,0.1215728374108049
9971,9.0,300.65988,-7278.0007,0.09970993746629175,0.0,0.0,0.0,0.0,0.015217146257169217,0.9519833247534392,0.5814343485306025,0.6789128179709784,-0.0015142236462422384,0.009246636297271951,0.13526046824166887
9972,9.0,301.02763999999996,-7341.4137,0.0997199471409893,0.0,0.0,0.0,0.0,0.015218673875054961,0.9563863118704801,0.5958864056344094,0.6793337119300173,-0.023386862035103578,0.0034182357906786063,0.12186453184959288
9973,9.0,300.13124,-7415.7693,0.09972995681568686,0.0,0.0,0.0,0.0,0.015220201492940705,0.9678494534318041,0.6073379454820884,0.6790212863941834,-0.006084080895752035,0.002057185466028398,0.13194083799904688
9974,9.0,299.83846,-7317.5496,0.09973996649038419,0.0,0.0,0.0,0.0,0.015221729110826393,0.966665207244928,0.5749082376840254,0.6827789243900333,0.0026004994915493173,0.014371970829153088,0.11740065853404288
9975,9.0,299.18293,-7235.6222,0.09974994312985164,0.0,0.0,0.0,0.0,0.01522325168706895,0.942357246153419,0.5847206327124335,0.6723705863153103,0.0089075597506827,-0.0014971551443327086,0.13214779433197188
9976,9.0,299.70935,-7270.9534,0.09975995280454897,0.0,0.0,0.0,0.0,0.015224779304954666,0.940694289956798,0.5899516275461925,0.6795423603906093,-0.005470151241611895,-0.00914824839533682,0.14119565162992587
9977,9.0,299.87678999999997,-7335.7949,0.09976996247924652,0.0,0.0,0.0,0.0,0.01522630692284041,0.9655859337684121,0.5913049953072594,0.6730075457256733,0.01006751843398671,-0.0017398074676806285,0.15684888632977984
9978,9.0,299.99638999999996,-7387.3531,0.09977993911871375,0.0,0.0,0.0,0.0,0.015227829499082912,0.9516416466872182,0.6037500876729944,0.6901791357003774,0.0011976987031536589,0.015875258061765984,0.14917893771031487
9979,9.0,300.10733999999997,-7239.4580000000005,0.09978994879341152,0.0,0.0,0.0,0.0,0.015229357116968684,0.953691948132067,0.5775078726705895,0.6694146317985804,0.008251945798028642,-0.007520214674012404,0.12445996184824189
9980,9.0,300.82119,-7172.103,0.09979995846810885,0.0,0.0,0.0,0.0,0.0152308847348544,0.9401821426937532,0.5741855674477034,0.6657725043141304,-0.0058692698480518335,-0.02140808996781398,0.12738534660945489
9981,9.0,300.49904,-7253.3041,0.09980996814280618,0.0,0.0,0.0,0.0,0.015232412352740088,0.933807968699671,0.5753204987522125,0.6956948639447373,0.005959809418687395,0.002960932715796307,0.12089635111404089
9982,9.0,300.38342,-7420.7198,0.09981994478227385,0.0,0.0,0.0,0.0,0.015233934928982645,0.971301525594997,0.5946674556316084,0.6897445324674853,0.008365260089836892,0.01203573729883479,0.12003006280854488
9983,9.0,300.29053999999996,-7484.2773,0.09982995445697118,0.0,0.0,0.0,0.0,0.015235462546868361,0.981381722624835,0.5920751667082693,0.7015765173302113,-0.0013295554717919088,0.008494677357534381,0.11295242980003689
9984,9.0,299.71623999999997,-7487.5817,0.09983996413166873,0.0,0.0,0.0,0.0,0.015236990164754105,0.990718214346275,0.5952299006296174,0.6900897467765553,-0.014897349112003884,-0.00091382099239461,0.1255113709470079
9985,9.0,299.93309,-7450.5238,0.09984994077113596,0.0,0.0,0.0,0.0,0.015238512740996607,0.9925648525210241,0.5858182561482604,0.6863900768189264,-0.008077705385657451,0.01090800209653599,0.11823003413839589
9986,9.0,300.15171000000004,-7406.4147,0.09985995044583373,0.0,0.0,0.0,0.0,0.015240040358882379,0.988712830278359,0.5702856083428075,0.6923667021362734,0.0006911619882973773,0.016120736136992785,0.1253408510876789
9987,9.0,300.03348,-7405.6379,0.09986996012053106,0.0,0.0,0.0,0.0,0.015241567976768094,0.9544863260779661,0.5817469361864525,0.7148957405572163,0.005443560823212625,-0.012989646406728289,0.11795179566093587
9988,9.0,299.88513,-7285.5006,0.09987996979522862,0.0,0.0,0.0,0.0,0.01524309559465381,0.9597681050067371,0.5767952842727625,0.6780468640380153,0.01190404315683759,-0.024620409932095275,0.13205854726316388
9989,9.0,300.17267000000004,-7236.0465,0.09988994643469606,0.0,0.0,0.0,0.0,0.01524461817089634,0.9408276640674611,0.5828944013946985,0.6758553864567334,0.000965457747498261,-0.006927561549447093,0.14218459386002685
9990,9.0,299.7931,-7325.0284,0.09989995610939362,0.0,0.0,0.0,0.0,0.015246145788782084,0.9629783143710602,0.5951738071040814,0.6684735960332074,0.01904859626820008,0.015502651549492588,0.14500300980818284
9991,9.0,299.97308,-7368.5331,0.09990996578409095,0.0,0.0,0.0,0.0,0.0152476734066678,0.9762724495255892,0.5805749097957824,0.6830027006746183,0.005741636103180365,0.0016932205585578582,0.1215446589255239
9992,9.0,299.535,-7357.8394,0.0999199424235584,0.0,0.0,0.0,0.0,0.01524919598291033,0.96366499396383,0.5926935329792974,0.6802409152745514,0.001952252677722338,0.0005242369072756545,0.13885383813130686
9993,9.0,299.62904,-7321.0916,0.09992995209825595,0.0,0.0,0.0,0.0,0.015250723600796073,0.9458161678872881,0.5888727897672195,0.6907400709557373,-0.002772371938436807,0.007054344164234562,0.13122519971841887
9994,9.0,299.93867,-7284.1678,0.09993996177295328,0.0,0.0,0.0,0.0,0.01525225121868179,0.9462379535064152,0.5972445458034474,0.6707226262201693,-0.009460646573418122,0.01894981248945088,0.14111673971213787
9995,9.0,299.90785,-7436.1058,0.09994993841242072,0.0,0.0,0.0,0.0,0.015253773794924319,0.963280931645926,0.5959670198123654,0.7011425423123813,-0.008717501085700371,0.001151232776092829,0.11682075523681089
9996,9.0,300.16167,-7468.67,0.09995994808711828,0.0,0.0,0.0,0.0,0.015255301412810035,0.984536811183718,0.5937270075512934,0.6920253787075873,-0.008745903701903491,-0.011386158871726388,0.15114188686404284
9997,9.0,301.07599,-7302.9051,0.09996995776181583,0.0,0.0,0.0,0.0,0.015256829030695779,0.9614257517728341,0.5859055071143715,0.6725695278399444,0.005385649526997225,0.008885840228164152,0.13191113963861587
9998,9.0,300.22926,-7199.8294,0.09997996743651316,0.0,0.0,0.0,0.0,0.015258356648581495,0.949761054501618,0.5749926211523534,0.6638146923384093,0.012662205517662386,0.00852679079957873,0.15503186545545386
9999,9.0,299.9556,-7216.3663,0.09998994407598061,0.0,0.0,0.0,0.0,0.015259879224824024,0.9467727671741971,0.5624886386908065,0.6843337668009843,0.019442121328787983,-0.005720967219690505,0.1132989512017359
10000,9.0,299.77485,-7308.6495,0.09999995375067816,0.0,0.0,0.0,0.0,0.015261406842709768,0.9559056361555411,0.5851122032135785,0.6806291015203624,0.004503692423279837,-0.013991100249064086,0.12691828897585988
10001,9.0,299.63378,-7467.4465,0.10000996342537571,0.0,0.0,0.0,0.0,0.015262934460595512,0.9566034209694071,0.5969843837077715,0.7163294691837143,0.012505257130172788,0.0029702017250610876,0.11936460067286889
10002,9.0,299.56612,-7437.6324,0.10001994006484294,0.0,0.0,0.0,0.0,0.015264457036838014,0.987044007363659,0.5937657137051134,0.6800448108501973,-0.002336705502214878,0.018246056592745585,0.12439452615678388
10003,9.0,299.89396,-7409.9751,0.10002994973954049,0.0,0.0,0.0,0.0,0.01526598465472373,0.9822849033664721,0.5827669345321185,0.6873955755556613,-0.01056319004775569,-0.005123225958423035,0.12047902379535388
10004,9.0,299.31824,-7473.3801,0.10003995941423804,0.0,0.0,0.0,0.0,0.015267512272609474,0.9851051228998061,0.5870612201784314,0.6995546071531643,-0.015390985308971985,0.00014172081915675587,0.12138730118499387
10005,9.0,299.98973,-7463.3535,0.10004996908893538,0.0,0.0,0.0,0.0,0.01526903989049519,0.978880747800508,0.5996221067655945,0.6901702494970003,-0.0002764949374829257,-0.0002444932467921048,0.13715560056620388
10006,9.0,300.18572,-7342.4869,0.10005994572840282,0.0,0.0,0.0,0.0,0.01527056246673772,0.9538068912234111,0.5874766831169345,0.6906490912292583,0.004774218851578715,0.004600601486694016,0.13242338822667085
10007,9.0,300.40641,-7196.1254,0.10006995540310015,0.0,0.0,0.0,0.0,0.015272090084623463,0.9310881926487501,0.5752730989125344,0.6810811326549744,-0.0007980188676158301,-0.012886559354804386,0.14388573945291686
10008,9.0,299.30922999999996,-7229.2216,0.1000799650777977,0.0,0.0,0.0,0.0,0.015273617702509207,0.9525137611807891,0.5814358785382534,0.6635532130176034,0.002185777745494468,-0.01063896089023369,0.13362299528506288
10009,9.0,300.03477999999996,-7310.8429,0.10008994171726493,0.0,0.0,0.0,0.0,0.015275140278751709,0.9605505873964622,0.5762384222828044,0.6855246801735183,0.004454601874484976,0.017151472907218582,0.15012251673343888
10010,9.0,299.9951,-7321.6635,0.10009995139196248,0.0,0.0,0.0,0.0,0.015276667896637425,0.9396960460907793,0.6045418919636395,0.6813649541404854,0.01020620278577379,0.02220310119502548,0.13988667435573984
10011,9.0,299.87621,-7272.9538,0.10010996106666004,0.0,0.0,0.0,0.0,0.015278195514523168,0.9488766999468392,0.5906607303636754,0.6712589091005964,0.0007882074554400192,-0.003259856187422757,0.13032166433924688
10012,9.0,298.95001,-7398.1672,0.10011993770612748,0.0,0.0,0.0,0.0,0.015279718090765698,0.948242425649241,0.5970053681173424,0.7036103027984303,-0.0009164938853634042,-0.013479917600114287,0.12457611070720487
10013,9.0,299.75886,-7393.2503,0.10012994738082481,0.0,0.0,0.0,0.0,0.015281245708651414,0.9631187204374171,0.5985469166869815,0.6856978547481093,0.0032680417283556065,-0.0024964630242817177,0.13020322553505786
10014,9.0,299.76657,-7394.3985,0.10013995705552237,0.0,0.0,0.0,0.0,0.015282773326537158,0.979018691669122,0.5855475157215404,0.6831462782137884,0.013213587851079588,0.012930248672616189,0.11853026014302588
10015,9.0,299.5592,-7377.2393,0.10014996673021992,0.0,0.0,0.0,0.0,0.015284300944422902,0.9706553557412252,0.5825956040727094,0.6892455777207424,-0.011321562151351189,-0.00038536693820275566,0.11740347536932089
10016,9.0,300.16306000000003,-7340.6116,0.10015994336968737,0.0,0.0,0.0,0.0,0.015285823520665431,0.9664119251174311,0.5817229018940804,0.6832278043168344,-0.007841655197311111,-0.014501950551981085,0.1290280175390739
10017,9.0,300.66384,-7351.4778,0.1001699530443847,0.0,0.0,0.0,0.0,0.01528735113855112,0.9718786323219532,0.5697043878204455,0.6930826747894344,-0.013918619429660788,-0.0005497889976349494,0.13593263809300687
10018,9.0,300.20707000000004,-7477.2531,0.10017996271908225,0.0,0.0,0.0,0.0,0.015288878756436863,0.9589292048514442,0.6057029853857304,0.7082660552854173,0.006566684724306324,0.003374780229664877,0.1303092722905239
10019,9.0,300.31537000000003,-7407.0973,0.1001899393585497,0.0,0.0,0.0,0.0,0.015290401332679393,0.9626321070768921,0.5941249412630665,0.6948155756404584,0.0005522569101085135,-0.011720838419506689,0.12198530112901189
10020,9.0,299.87375,-7368.5391,0.10019994903324703,0.0,0.0,0.0,0.0,0.015291928950565109,0.9663938993981521,0.5926594472459334,0.6807985372020843,0.0047886151089995155,-0.0015746516530560184,0.11024660620299288
10021,9.0,299.46195,-7385.2042,0.10020995870794458,0.0,0.0,0.0,0.0,0.015293456568450853,0.9482333773258481,0.5944646738890954,0.7022196170361803,0.015769450433323586,0.014153619485603487,0.13037796051480288
10022,9.0,299.91454,-7403.3159,0.10021996838264213,0.0,0.0,0.0,0.0,0.015294984186336597,0.9582937855812331,0.5984144545014085,0.6937149327193334,0.015807428060321684,0.017266796980600185,0.12371555739727488
10023,9.0,300.65414,-7488.9938,0.10022994502210958,0.0,0.0,0.0,0.0,0.015296506762579126,0.962146081401425,0.6174668494442334,0.6968541740466523,0.005143477788171735,-0.004749891628602805,0.13492667326122587
10024,9.0,299.83246,-7514.8515,0.10023995469680691,0.0,0.0,0.0,0.0,0.015298034380464814,0.9767073060710062,0.6171023732507623,0.6905175207037734,-0.015228108395147285,-0.01021203606659949,0.14076281145220787
10025,9.0,300.09938,-7321.8263,0.10024996437150446,0.0,0.0,0.0,0.0,0.015299561998350558,0.9657089119330491,0.5922465782276864,0.6676968891690525,-0.009276968749615531,-0.0040920631165301865,0.14456983525793188
10026,9.0,299.39198,-7231.4314,0.10025994101097191,0.0,0.0,0.0,0.0,0.015301084574593088,0.9568901910127091,0.5843084527042545,0.6569759330409763,-0.014653991769236386,0.012469183400112589,0.14405649235976886
10027,9.0,299.63358999999997,-7294.6362,0.10026995068566946,0.0,0.0,0.0,0.0,0.015302612192478832,0.9296735131241322,0.5874833199050894,0.7002304145723613,-0.014422158119856187,-0.0007671906826608253,0.1253659898226599
10028,9.0,299.41724,-7359.3109,0.1002799603603668,0.0,0.0,0.0,0.0,0.015304139810364548,0.9527319544573232,0.5910836204254114,0.6932311868565914,-0.004821358285981016,-0.005550816588697945,0.14233241691711587
10029,9.0,300.24752,-7434.4652,0.10028997003506435,0.0,0.0,0.0,0.0,0.015305667428250264,0.9571759782034142,0.5981947616147265,0.7045210525183143,0.005208398545928915,0.0037491439202616966,0.13984706640933087
10030,9.0,300.06984,-7347.4102,0.10029994667453179,0.0,0.0,0.0,0.0,0.015307190004492821,0.96195432382,0.5770392951618445,0.6944356169854593,0.02540710136273568,0.007610143964112733,0.14622965037924285
10031,9.0,299.67659,-7298.7916,0.10030995634922912,0.0,0.0,0.0,0.0,0.01530871762237851,0.968589419847333,0.5833257419622684,0.6667352438966454,0.010963499831013189,-0.01116490456664029,0.11669894230978889
10032,9.0,299.2281,-7444.2938,0.10031996602392668,0.0,0.0,0.0,0.0,0.015310245240264253,0.9824603476212871,0.5890346260731915,0.6913844574893333,0.013153459563645387,-0.008193143145700273,0.1137352769597979
10033,9.0,300.30454,-7574.5364,0.10032994266339412,0.0,0.0,0.0,0.0,0.015311767816506783,0.984444058269564,0.6019309389734585,0.7160949423155683,-0.004035460331493926,0.003930908322575447,0.10187610659688891
10034,9.0,300.20937999999995,-7492.0521,0.10033995233809168,0.0,0.0,0.0,0.0,0.015313295434392526,0.984154663908503,0.5890538676925905,0.7041882505229693,-0.015164872469656384,0.013248732430798089,0.11375800415954089
10035,9.0,300.29695,-7315.812,0.100349962012789,0.0,0.0,0.0,0.0,0.015314823052278242,0.9514579849740921,0.5748783974685805,0.6974878099966874,-0.027502881525073075,-0.004430920801097836,0.1176607800997149
10036,9.0,300.61882,-7292.8257,0.10035993865225645,0.0,0.0,0.0,0.0,0.0153163456285208,0.9564487787391451,0.5851466841144815,0.6752414480886424,-0.013159701184261387,-0.004940966583435436,0.13767666443012885
10037,9.0,300.43122,-7431.7557,0.100369948326954,0.0,0.0,0.0,0.0,0.015317873246406516,0.9886074421354579,0.5861066777892254,0.6843540520679864,-0.0015735616999234486,0.015133532644063384,0.13972263929705087
10038,9.0,300.48756000000003,-7365.1332,0.10037995800165156,0.0,0.0,0.0,0.0,0.015319400864292232,0.967337893853817,0.5809511092929105,0.6905275822772664,0.006770655414486664,0.008520020363735541,0.14657540171086586
10039,9.0,300.29246,-7180.0395,0.10038996767634889,0.0,0.0,0.0,0.0,0.015320928482177948,0.918653050398997,0.5780048110496334,0.6858948508325513,0.003139774803496647,-0.005527771836373604,0.13875349597390388
10040,9.0,299.81782000000004,-7203.3805,0.10039994431581634,0.0,0.0,0.0,0.0,0.015322451058420505,0.9302365052771951,0.5778139957908015,0.6815972822559144,0.0007714020236539522,-0.00913701763255343,0.12463187999270887
10041,9.0,299.82863,-7374.6042,0.10040995399051367,0.0,0.0,0.0,0.0,0.015323978676306221,0.9337394223304061,0.6085059897998655,0.6994501106703513,0.007013418790045543,0.0038821210395355164,0.14313864988918487
10042,9.0,300.01586000000003,-7499.7112,0.10041996366521122,0.0,0.0,0.0,0.0,0.015325506294191937,0.999393833954992,0.5954325911796214,0.6848985118767204,0.006362332342813313,0.01061275520289739,0.12744349703269386
10043,9.0,300.05048999999997,-7385.4537,0.10042994030467867,0.0,0.0,0.0,0.0,0.015327028870434495,0.984764154108655,0.5862269404435944,0.6740024256013604,-0.004283803371378476,-0.006024294276251554,0.13586680723400987
10044,9.0,299.71702999999997,-7275.3117,0.100439949979376,0.0,0.0,0.0,0.0,0.01532855648832021,0.9469576549199442,0.5967498669721264,0.6678055805072793,-0.0041593524477211265,-0.010420816249704491,0.12221458949414088
10045,9.0,299.74681,-7298.9179,0.10044995965407355,0.0,0.0,0.0,0.0,0.015330084106205927,0.9493388230524471,0.5769574853487704,0.6923924792188173,0.0027200089971189875,-0.01024249943085599,0.13180368446551086
10046,9.0,299.47766,-7506.2985,0.1004599693287711,0.0,0.0,0.0,0.0,0.01533161172409167,0.972810680558939,0.5952232131789574,0.7136934078560553,0.007785250502669402,0.005701088569953635,0.12506939125338787
10047,9.0,299.73022000000003,-7431.6362,0.10046994596823855,0.0,0.0,0.0,0.0,0.0153331343003342,0.965979956334799,0.5826012985382714,0.7104505921035142,-0.013745633319588387,-0.008170596000500043,0.14212962504210186
10048,9.0,299.69716,-7284.7665,0.10047995564293588,0.0,0.0,0.0,0.0,0.015334661918219916,0.979506115629727,0.5663959438589274,0.6684850558918384,-0.0036161078298320567,-0.004166456952122286,0.12497835073190287
10049,9.0,300.42135,-7323.0568,0.10048996531763343,0.0,0.0,0.0,0.0,0.01533618953610566,0.9834407177555421,0.5819162097481584,0.6606694728355004,0.014222688691920088,0.0072297717004229135,0.14503193809853787
10050,9.0,300.8764,-7471.4954,0.10049994195710088,0.0,0.0,0.0,0.0,0.01533771211234819,0.985988261554465,0.5818288675895384,0.7033309092158563,0.009790225521520032,0.016620851055100284,0.12664533966392189
10051,9.0,300.68859,-7547.007,0.10050995163179843,0.0,0.0,0.0,0.0,0.015339239730233933,0.9811082464228451,0.5990001535892124,0.7139932792231503,0.00983089636728393,-0.006182573567747505,0.11154341434347789
10052,9.0,300.40969,-7459.615,0.10051996130649576,0.0,0.0,0.0,0.0,0.015340767348119622,0.9534169723199292,0.5977137211297514,0.7164059796987653,-0.0038150607028671767,-0.01894792277801438,0.11359570175852289
10053,9.0,300.65772000000004,-7176.5527,0.10052993794596343,0.0,0.0,0.0,0.0,0.015342289924362207,0.9313221419643393,0.5780268999018134,0.6721437905454274,0.0027114216011964775,-0.0015612265958560687,0.11887170516172388
10054,9.0,299.71932000000004,-7225.8777,0.10053994762066076,0.0,0.0,0.0,0.0,0.015343817542247895,0.9674626553386301,0.5793824258855934,0.6496413195421064,-0.007857259958126183,0.004476457780466986,0.12225511949814089
10055,9.0,299.69487000000004,-7458.5951,0.1005499572953581,0.0,0.0,0.0,0.0,0.015345345160133611,0.990628095882381,0.5895752355315454,0.6870233277339233,-0.0022162964332064277,-0.005408643515491556,0.13140078582824788
10056,9.0,300.10246,-7418.8058,0.10055996697005565,0.0,0.0,0.0,0.0,0.015346872778019355,0.968291402727921,0.5919060248690764,0.6949342981546753,-0.006558126915286734,-0.010140002090490291,0.14379612761407287
10057,9.0,299.3637,-7304.1077,0.1005699436095231,0.0,0.0,0.0,0.0,0.015348395354261885,0.9410393624108541,0.5956014087787824,0.6836255860410924,7.262475461975523e-05,-0.003488659611053897,0.14693998936184785
10058,9.0,299.76707999999996,-7239.4529,0.10057995328422065,0.0,0.0,0.0,0.0,0.015349922972147628,0.9279128390878671,0.5760773256494054,0.6966227477238124,0.005106226864145354,0.007284165296266143,0.15223950016736887
10059,9.0,300.46987,-7325.9676,0.10058996295891798,0.0,0.0,0.0,0.0,0.015351450590033316,0.9517604299964412,0.5888998131473864,0.6862509879776993,0.005325565822567425,-0.005908095768033655,0.1384392972503949
10060,9.0,300.33786000000003,-7342.0084,0.10059993959838565,0.0,0.0,0.0,0.0,0.015352973166275874,0.9800446783228791,0.5851665539489425,0.6665759812459274,0.01048463479400289,0.0002021227651779638,0.13560667553583686
10061,9.0,300.75677,-7298.3533,0.10060994927308298,0.0,0.0,0.0,0.0,0.01535450078416159,0.966897454300349,0.5839555072969215,0.6676642017208264,-0.0033092340939459763,0.002205508562041748,0.12329706484097287
10062,9.0,300.34417,-7262.0783,0.10061995894778053,0.0,0.0,0.0,0.0,0.015356028402047334,0.9576778815079482,0.5878088872947205,0.6620037003021784,0.0024618183821625574,0.017743709484667785,0.12796476354663888
10063,9.0,299.5324,-7317.8793,0.10062996862247786,0.0,0.0,0.0,0.0,0.01535755601993305,0.9537459644948981,0.5779971306138755,0.6927094846451034,-0.012719508863817787,0.003475984358927947,0.11461210306633389
10064,9.0,300.19077000000004,-7430.4184,0.10063994526194553,0.0,0.0,0.0,0.0,0.015359078596175607,0.9569429205479131,0.5964663798591484,0.7052523759104904,-0.002709429450174867,0.0006617736722644763,0.1222836627534579
10065,9.0,299.94677,-7560.7674,0.10064995493664286,0.0,0.0,0.0,0.0,0.015360606214061323,0.981265411645856,0.6120528312449115,0.7049662442147513,0.00966639926654933,-2.195672234045978e-05,0.12008004643597789
10066,9.0,300.21327,-7383.8346,0.10065996461134019,0.0,0.0,0.0,0.0,0.015362133831947011,0.988434784318418,0.5734206142847085,0.6826459454469094,0.006808481864569844,-0.0076374553099581525,0.12364091126240788
10067,9.0,300.1745,-7302.058000000001,0.10066994125080764,0.0,0.0,0.0,0.0,0.015363656408189569,0.9617894274987261,0.5785016075736634,0.6793522746718494,0.012787335825511788,-0.013073070327211589,0.1306409394457569
10068,9.0,299.74256,-7364.5241,0.10067995092550519,0.0,0.0,0.0,0.0,0.015365184026075285,0.9730787156078922,0.5689519584286865,0.6966007601966424,0.007944112818272894,-0.006294365957905555,0.13351298672170586
10069,9.0,299.66708,-7418.5533,0.10068996060020274,0.0,0.0,0.0,0.0,0.015366711643961029,0.9621342871702611,0.5905456251523155,0.7023750394690192,0.010508281011586589,0.012577625478814988,0.13308162588913386
10070,9.0,299.43145,-7351.3366,0.10069993723966997,0.0,0.0,0.0,0.0,0.015368234220203558,0.943335903895005,0.5938562982640534,0.6974305411010354,-0.011014491642295688,0.002581825798831367,0.12791567157929387
10071,9.0,299.14979,-7329.5539,0.10070994691436752,0.0,0.0,0.0,0.0,0.015369761838089302,0.963568927721849,0.5822424560153565,0.6821899829019094,-0.010777066878863688,-0.003960848545805316,0.12624852052725888
10072,9.0,299.35618999999997,-7379.4739,0.10071995658906485,0.0,0.0,0.0,0.0,0.015371289455975018,0.9669718268576891,0.6032858367421764,0.6729181365368494,-0.014648697537463885,0.002707395857224167,0.12621787984423488
10073,9.0,299.75489,-7408.7642,0.1007299662637624,0.0,0.0,0.0,0.0,0.015372817073860734,0.9564302159973131,0.6134360493539244,0.6822130546066864,0.004440628851630946,0.006002198128670834,0.13636612675078888
10074,9.0,299.81216,-7453.1766,0.10073994290322985,0.0,0.0,0.0,0.0,0.015374339650103264,0.9567914700554662,0.6024465312868434,0.7063415792379864,-0.0061069787268118745,0.004265335875055876,0.12729615020315188
10075,9.0,300.30875,-7305.7267,0.1007499525779274,0.0,0.0,0.0,0.0,0.015375867267989007,0.9451233783964151,0.5901535480261204,0.6854815765142643,-0.008104584073710173,-0.01119292599815579,0.14044570470091186
10076,9.0,300.32558,-7248.1424,0.10075996225262474,0.0,0.0,0.0,0.0,0.015377394885874723,0.9323696804477231,0.5846530185332605,0.6862315842382843,-0.011580611698417387,8.451027049851432e-05,0.13120330338375788
10077,9.0,300.36575,-7350.1896,0.1007699388920924,0.0,0.0,0.0,0.0,0.01537891746211728,0.9794541662971001,0.5850222570022015,0.6697976909988854,0.01256238214431059,0.005217847204436425,0.14774668842896288
10078,9.0,299.64607,-7460.8584,0.10077994856678973,0.0,0.0,0.0,0.0,0.015380445080002997,0.9826570802607031,0.5894886735755024,0.6957688919970433,0.002038610565195198,0.003010989905186567,0.12944565896529187
10079,9.0,299.9062,-7363.4512,0.10078995824148707,0.0,0.0,0.0,0.0,0.015381972697888713,0.9696083542803942,0.5757637146109544,0.6929332203996843,0.012729611980564886,-0.014344642460705988,0.14051188006494286
10080,9.0,300.03018,-7366.0249,0.10079996791618462,0.0,0.0,0.0,0.0,0.015383500315774429,0.9492692330355792,0.5965447040918784,0.6932737129632884,0.005070070250226975,-0.0016623656744627186,0.1301920797839579
10081,9.0,300.54382999999996,-7420.5373,0.10080994455565206,0.0,0.0,0.0,0.0,0.015385022892016958,0.965100212067975,0.5937931322528194,0.6967646939303213,0.011783624461953187,0.01256666819223359,0.13913978744202787
10082,9.0,300.29475,-7426.0088,0.10081995423034962,0.0,0.0,0.0,0.0,0.015386550509902702,0.965913112225702,0.5958052240363975,0.6956029216306633,-0.00922893765512523,0.008545495700399763,0.1183303357657949
10083,9.0,300.5109,-7296.6136,0.10082996390504695,0.0,0.0,0.0,0.0,0.015388078127788418,0.991214737292778,0.5740134466532165,0.6527601337474094,-0.011333918736320689,-0.009651289782383141,0.12593213318353388
10084,9.0,300.84911,-7251.1991,0.10083994054451462,0.0,0.0,0.0,0.0,0.015389600704030976,0.959775309214948,0.5740535814896774,0.6703545529888434,-0.017574241378942583,0.002172268993836258,0.11609340378502689
10085,9.0,301.15412000000003,-7300.9134,0.10084995021921195,0.0,0.0,0.0,0.0,0.015391128321916692,0.9597683177892581,0.5852327191804725,0.6742943328226694,0.008130462177289143,0.017734401769249186,0.13002322165479288
10086,9.0,300.01395,-7461.0097,0.1008599598939095,0.0,0.0,0.0,0.0,0.015392655939802435,0.9573488184054721,0.5948727299693675,0.7157390990129493,-0.002128905435931608,0.003071948652402727,0.12651860234141388
10087,9.0,300.07899,-7531.398,0.10086996956860683,0.0,0.0,0.0,0.0,0.015394183557688124,0.9683846622671252,0.6050286775766814,0.7159436032806323,-0.009122385997134401,-0.010143565691091991,0.13940775156347388
10088,9.0,299.4922,-7426.9873,0.1008799462080745,0.0,0.0,0.0,0.0,0.015395706133930681,0.9578989118847621,0.5971609932002014,0.7025588025071554,-0.005127016831022165,-0.00878108313742543,0.13978928075612787
10089,9.0,299.94711,-7323.4003,0.10088995588277183,0.0,0.0,0.0,0.0,0.015397233751816397,0.9692397744240182,0.5858313372070515,0.6710597041309364,0.01008259691269984,0.002988757070167357,0.14559969252707086
10090,9.0,300.04087999999996,-7394.0314,0.10089996555746916,0.0,0.0,0.0,0.0,0.015398761369702113,0.964364521567868,0.5970889004555864,0.6861475047449863,0.013569384544193987,0.001823798504244898,0.13852299170865487
10091,9.0,300.15614,-7383.6776,0.10090994219693683,0.0,0.0,0.0,0.0,0.01540028394594467,0.962408796887353,0.5917975868433744,0.6902472261070973,0.007257851089844133,-0.007906030623864472,0.13940031430773986
10092,9.0,299.79836,-7179.8865,0.10091995187163416,0.0,0.0,0.0,0.0,0.015401811563830387,0.9305408045472271,0.5776885858259244,0.6742768137284404,-0.0010327222337967491,-0.010474207437223791,0.14158352376820588
10093,9.0,300.42894,-7132.929,0.10092996154633171,0.0,0.0,0.0,0.0,0.01540333918171613,0.9199150027360422,0.5784203246506414,0.6698969692436834,-0.0018997437270651082,0.0018684483831514981,0.14626566128779686
10094,9.0,300.22382000000005,-7326.4516,0.10093993818579916,0.0,0.0,0.0,0.0,0.01540486175795866,0.963680253510336,0.5863427447975235,0.6770353465956863,-0.007342488073347154,0.0024593256855915476,0.13055897764516788
10095,9.0,300.59862000000004,-7468.8171,0.10094994786049671,0.0,0.0,0.0,0.0,0.015406389375844376,1.001500988862952,0.5888937539117884,0.6799391389972683,-0.015587002593817385,-0.0023514049240655976,0.12182256303045089
10096,9.0,300.71237,-7562.084,0.10095995753519404,0.0,0.0,0.0,0.0,0.015407916993730092,0.991480056831463,0.6098240255299454,0.6973806182686083,-0.02105587308730288,0.003337533662613927,0.13142609681574588
10097,9.0,300.85523,-7466.2611,0.1009699672098916,0.0,0.0,0.0,0.0,0.015409444611615836,0.974534725604089,0.5889818053454784,0.7060404109107633,0.000982868646881583,0.016372168069807184,0.12922190294570887
10098,9.0,300.04386,-7465.2709,0.10097994384935904,0.0,0.0,0.0,0.0,0.015410967187858365,0.9714641927660511,0.5883841195089914,0.7094076436430833,0.011648586594625988,0.014742244839696286,0.13366559231926686
10099,9.0,299.70373,-7424.2033,0.10098995352405638,0.0,0.0,0.0,0.0,0.015412494805744109,0.96313952246197,0.5784661336876624,0.7151667646939643,0.012523180511191688,0.008969550290475692,0.12492404052654288
10100,9.0,299.99584,-7269.7586,0.10099996319875393,0.0,0.0,0.0,0.0,0.015414022423629825,0.9699679567408841,0.5650492230185165,0.6748078986358543,0.0041415138757355955,-0.010591547878304389,0.1287296356496259
10101,9.0,300.1918,-7260.5943,0.10100993983822115,0.0,0.0,0.0,0.0,0.015415544999872355,0.966257850307225,0.5746944925754305,0.6660870374101724,0.013539585872003088,-0.004036049131127036,0.13079317014078087
10102,9.0,299.78241,-7311.6172,0.1010199495129187,0.0,0.0,0.0,0.0,0.01541707261775807,0.9583646421607261,0.5832363733034485,0.6809480523868404,0.01601885687918809,-0.0029334659373855473,0.13785407439013786
10103,9.0,300.25221,-7441.2315,0.10102995918761626,0.0,0.0,0.0,0.0,0.015418600235643787,0.969910931025256,0.6081919835938754,0.6838456538303114,0.0018104510620026082,-0.007757653116320753,0.13018144065790788
10104,9.0,300.12357000000003,-7538.3021,0.10103996886231359,0.0,0.0,0.0,0.0,0.01542012785352953,0.9645195893631722,0.6094941720923914,0.7174418556734984,-0.014277744649353686,-0.01098849164472969,0.13188819965635187
10105,9.0,300.23098999999996,-7504.6045,0.10104994550178104,0.0,0.0,0.0,0.0,0.01542165042977206,0.952425203122049,0.6217214055541254,0.7070657794819594,-0.00865342710105176,-0.004130752957023576,0.14653834715470887
10106,9.0,299.87466,-7379.598000000001,0.10105995517647859,0.0,0.0,0.0,0.0,0.015423178047657804,0.9731922705465991,0.5860701805206234,0.6839510723707154,-0.007906215440682712,-0.0008309662550224843,0.13110752085180488
10107,9.0,299.38095,-7442.3544,0.10106996485117592,0.0,0.0,0.0,0.0,0.015424705665543492,0.980286409399236,0.5858216708010975,0.6961818319427974,0.004934370122634415,0.00912944105493068,0.13201913183427388
10108,9.0,298.8775,-7402.7098,0.10107994149064337,0.0,0.0,0.0,0.0,0.01542622824178605,0.9672139834990882,0.5905851520387164,0.6924397979984873,-0.008246851784475902,0.004248638830633006,0.13849469163336187
10109,9.0,300.09011,-7267.9531,0.10108995116534092,0.0,0.0,0.0,0.0,0.015427755859671766,0.9525617284405231,0.5748349087742884,0.6818796142637784,0.006062982596869795,0.017154220841489785,0.14517533325268986
10110,9.0,300.17929,-7308.8786,0.10109996084003847,0.0,0.0,0.0,0.0,0.01542928347755751,0.9297897025130991,0.5950929801436045,0.6968339090446524,-0.0008242248791921621,0.012712909565916489,0.14491762322225585
10111,9.0,300.62413,-7359.0594,0.1011099374795057,0.0,0.0,0.0,0.0,0.015430806053800011,0.9583167660935011,0.5870951437917795,0.6915583920014993,0.004692294946543456,-0.006504469648291174,0.13454215498077687
10112,9.0,300.25855,-7502.6621,0.10111994715420325,0.0,0.0,0.0,0.0,0.015432333671685755,0.98298311374538,0.6069827202620304,0.6906561029199504,-0.004103694417078105,-0.00902301818102756,0.12432745913266488
10113,9.0,300.01367999999997,-7527.9943,0.1011299568289008,0.0,0.0,0.0,0.0,0.015433861289571499,0.996800734431573,0.6002601402210634,0.6912614083971893,0.008020979186759014,-0.006298088233472915,0.1256345314966629
10114,9.0,300.00919,-7500.2578,0.10113996650359813,0.0,0.0,0.0,0.0,0.015435388907457187,0.9640446385112981,0.6163289087869274,0.6995175424645064,0.01004092294933694,-0.002268557036264148,0.13328376928408386
10115,9.0,299.91253,-7487.7641,0.10114994314306558,0.0,0.0,0.0,0.0,0.015436911483699745,0.9844333178185041,0.5929845789380215,0.6986754201738954,-0.0052823226387746555,-0.008301540134773222,0.11641471552423789
10116,9.0,299.89542,-7494.1492,0.10115995281776313,0.0,0.0,0.0,0.0,0.01543843910158546,0.9448413199660782,0.6082648058785625,0.7249281223148353,-0.0035865954007944065,-0.0016039585949733886,0.13269233520071388
10117,9.0,300.28362999999996,-7376.3339,0.10116996249246069,0.0,0.0,0.0,0.0,0.015439966719471204,0.9706146838822111,0.5929022523673965,0.6787043924254084,-0.012592291260762386,0.0052171038841630655,0.13918578899656786
10118,9.0,299.82214,-7352.4439,0.10117993913192791,0.0,0.0,0.0,0.0,0.015441489295713706,0.959654387948014,0.5921838884439994,0.6831210685513004,0.00890504060828408,0.01000231447282658,0.12868432310515387
10119,9.0,299.88749,-7376.1968,0.10118994880662546,0.0,0.0,0.0,0.0,0.01544301691359945,0.970805722056065,0.5970003221318445,0.6743735892454914,0.00884429900056435,-0.0015565375783682985,0.14082118479046887
10120,9.0,299.65358,-7344.8608,0.10119995848132302,0.0,0.0,0.0,0.0,0.015444544531485194,0.9603584954425041,0.5812095691284185,0.6910862174548993,0.012643815028347386,-0.008096647184351862,0.12909474005815888
10121,9.0,299.17933,-7473.2906,0.10120996815602057,0.0,0.0,0.0,0.0,0.01544607214937091,0.9633340158186651,0.6067834544973644,0.7015762741501873,0.004882350875750515,0.006102636950133375,0.14946238429328887
10122,9.0,299.13765,-7463.2741,0.10121994479548779,0.0,0.0,0.0,0.0,0.01544759472561344,0.94808809752651,0.6125613510725985,0.7079995299791133,0.0032231172586719065,0.0012237723640019288,0.14374169581870086
10123,9.0,299.28707,-7364.6779,0.10122995447018535,0.0,0.0,0.0,0.0,0.015449122343499155,0.9578056016830531,0.5928907114487574,0.6879818724610244,-0.011505970629800888,0.007490508916855673,0.14015171018439684
10124,9.0,299.44805,-7333.4915,0.1012399641448829,0.0,0.0,0.0,0.0,0.015450649961384899,0.9624571086521211,0.5896107904775545,0.6771303894550663,-0.013645165519172988,-0.007482699291709923,0.12377378888052189
10125,9.0,300.01729,-7337.6938,0.10124994078435035,0.0,0.0,0.0,0.0,0.015452172537627429,0.9518838641236231,0.5962527664730665,0.6823390522566213,-0.010845716599638889,0.011274037681910888,0.12616088452610988
10126,9.0,299.73593,-7376.0008,0.10125995045904768,0.0,0.0,0.0,0.0,0.015453700155513145,0.9584391059105751,0.5948962373716875,0.6887847211777594,0.0013867168616082987,-0.004298521741006066,0.12299683883634288
10127,9.0,300.36156,-7441.1042,0.10126996013374523,0.0,0.0,0.0,0.0,0.015455227773398889,0.959797468994635,0.6014684409653134,0.7006439624681754,-0.005911472018691864,-0.013932793785309686,0.12613247299330588
10128,9.0,300.34301,-7480.1408,0.10127993677321268,0.0,0.0,0.0,0.0,0.015456750349641418,0.969467016023945,0.5906648846890854,0.7136441335036924,0.0025144639189332674,-0.012155254201130188,0.13094863310362387
10129,9.0,299.96632,-7440.4971,0.10128994644791,0.0,0.0,0.0,0.0,0.015458277967527134,0.9827044294378762,0.5840667520254005,0.6949541375916334,0.0036639533982290463,0.0033560684387431666,0.13213464234567388
10130,9.0,299.91438999999997,-7392.9913,0.10129995612260756,0.0,0.0,0.0,0.0,0.01545980558541285,0.9688188095374721,0.5909835518455354,0.6874824009567303,0.012391935238988789,0.009351188812815481,0.14198834758065887
10131,9.0,299.72576000000004,-7399.8831,0.10130996579730511,0.0,0.0,0.0,0.0,0.015461333203298594,0.969167833666918,0.5822406625626795,0.6979712012218944,-0.005407444333998205,-0.0014600307752438188,0.1092716062942679
10132,9.0,299.79062000000005,-7393.8202,0.10131994243677256,0.0,0.0,0.0,0.0,0.015462855779541124,0.9682396357803121,0.5826422743723154,0.6966547968244754,0.01054805513101199,0.006997190475118933,0.12684178859330988
10133,9.0,300.05162,-7271.5504,0.10132995211146989,0.0,0.0,0.0,0.0,0.01546438339742684,0.930509140481602,0.5774811431329514,0.7023794673719563,-0.005997381239020444,0.0061685316438866745,0.12345305469386789
10134,9.0,300.13281,-7276.4981,0.10133996178616744,0.0,0.0,0.0,0.0,0.015465911015312611,0.9379312177291041,0.5901791731211494,0.6837633475246884,-0.004098090637400056,0.004460689683735795,0.13886951311035386
10135,9.0,300.64002,-7462.7909,0.10134993842563467,0.0,0.0,0.0,0.0,0.015467433591555113,0.962363656595398,0.6060591427958805,0.7000792883199464,-0.01068672347344749,-0.017005645952826585,0.12911533943269188
10136,9.0,301.11963,-7505.0282,0.10135994810033222,0.0,0.0,0.0,0.0,0.015468961209440857,0.9870438452436431,0.5992716438210064,0.6950256730486933,-0.005529173161261905,-0.003179894137231117,0.13162448105282487
10137,9.0,300.70807,-7393.3847,0.10136995777502977,0.0,0.0,0.0,0.0,0.015470488827326573,0.9529559739219322,0.6005523514174025,0.6938960106447044,-0.004228394194960016,0.01922537092039638,0.13008841416622688
10138,9.0,299.93196,-7235.3514,0.1013799674497271,0.0,0.0,0.0,0.0,0.015472016445212289,0.944723043281905,0.5736641894762474,0.6809789362498884,-9.91939707606827e-05,0.006605189342681433,0.12909339243552587
10139,9.0,299.99539,-7257.2978,0.10138994408919455,0.0,0.0,0.0,0.0,0.015473539021454819,0.9254065649655171,0.5818368114703224,0.6987939400380924,-0.013424883934182888,0.0022871311264972675,0.13302087141313787
10140,9.0,299.93509,-7416.3424,0.10139995376389188,0.0,0.0,0.0,0.0,0.015475066639340535,0.972688938559424,0.5881132980222634,0.6935806770810834,0.0022885560601128975,-0.008767662538525922,0.13647563882159686
10141,9.0,300.03663,-7467.4535,0.10140996343858966,0.0,0.0,0.0,0.0,0.015476594257226306,0.986717163278902,0.5884696884799364,0.6947325701922663,0.01105879701616829,0.003090622851745727,0.14662792859604987
10142,9.0,300.1525,-7336.1254,0.10141994007805688,0.0,0.0,0.0,0.0,0.015478116833468808,0.9707046706235921,0.5920341199467185,0.6672601378459484,0.007325527685223293,-0.0068334021428292846,0.13036584204360688
10143,9.0,300.29142,-7366.5615,0.10142994975275443,0.0,0.0,0.0,0.0,0.015479644451354552,0.9578438620068291,0.5997218409729375,0.6816850398470753,-0.004488050577511105,-0.01886179955926468,0.12841431221850588
10144,9.0,300.2802,-7581.9277,0.10143995942745199,0.0,0.0,0.0,0.0,0.015481172069240268,0.975406992085175,0.6085906975082255,0.7207190206044294,0.0048775248668492255,-0.009323533772536141,0.10781838273584589
10145,9.0,300.33405,-7549.7532,0.10144996910214954,0.0,0.0,0.0,0.0,0.015482699687126011,0.963075859958187,0.6193848913535294,0.7124757142833784,-0.012222709300037488,0.017809063102867683,0.13369983004014588
10146,9.0,299.8044,-7350.2874,0.10145994574161676,0.0,0.0,0.0,0.0,0.015484222263368513,0.953379613788742,0.5896753750389284,0.6912488339634484,-0.007465222551335103,0.01949222350648268,0.12240404699783887
10147,9.0,298.95544,-7261.5177,0.10146995541631432,0.0,0.0,0.0,0.0,0.015485749881254257,0.9609323091066351,0.5752806982882844,0.6711070533081094,-0.025096938414374974,0.0057571490635363745,0.14593591930775385
10148,9.0,299.91059,-7313.2982,0.10147996509101187,0.0,0.0,0.0,0.0,0.01548727749914,0.9622519964343782,0.5872501609245785,0.6735578925174883,-0.0002905646649264997,0.001035885093983899,0.13593511042325088
10149,9.0,299.60147,-7413.8967,0.10148994173047932,0.0,0.0,0.0,0.0,0.01548880007538253,0.9747809859083931,0.5838181207158625,0.6950403753076444,0.00983405426254559,0.015681146700358684,0.13903669937685387
10150,9.0,300.33068,-7436.3112,0.10149995140517665,0.0,0.0,0.0,0.0,0.015490327693268247,0.951719322439884,0.6119917727938854,0.6967418248755644,0.0053010811405259746,0.0019206294460763682,0.1275860613217639
10151,9.0,300.05223,-7369.691999999999,0.1015099610798742,0.0,0.0,0.0,0.0,0.015491855311153963,0.9404159805518311,0.5909458792068175,0.7088404768996083,-0.0016178599810453486,-0.010972224927624289,0.12679564518375588
10152,9.0,300.10771,-7455.1072,0.10151993771934165,0.0,0.0,0.0,0.0,0.015493377887396492,0.9670408595870021,0.6061709144144114,0.6929546709043013,-0.005909144076587114,-0.02340914441805268,0.13035218343225888
10153,9.0,300.05081,-7519.5403,0.10152994739403898,0.0,0.0,0.0,0.0,0.015494905505282208,0.9802811607637181,0.6096009281229274,0.6958703993920613,0.015433939007211185,0.003653816134953577,0.1386022886614809
10154,9.0,300.47616,-7490.3625,0.10153995706873653,0.0,0.0,0.0,0.0,0.015496433123167952,0.9860518835282441,0.6066792822545835,0.6841519897330444,0.004955455451915375,-0.010562412884928991,0.13564855316246988
10155,9.0,299.65405,-7320.3081,0.10154996674343408,0.0,0.0,0.0,0.0,0.015497960741053696,0.952632311442489,0.5879631546224454,0.6845954183743074,0.0054033077404649545,-0.014626292551252685,0.12224662846230287
10156,9.0,300.02127,-7238.1443,0.10155994338290153,0.0,0.0,0.0,0.0,0.015499483317296225,0.9313894724334841,0.5808919557520724,0.6879337126837713,-0.008929143801662882,-0.014156368433124787,0.13196365639129887
10157,9.0,299.9769,-7396.0001,0.10156995305759886,0.0,0.0,0.0,0.0,0.015501010935181941,0.9430682133510861,0.6005296444826614,0.7046014944437533,0.003278957674332927,0.016984851021024285,0.1289880144251259
10158,9.0,299.69602000000003,-7505.4388,0.10157996273229641,0.0,0.0,0.0,0.0,0.015502538553067657,0.981759604117129,0.5989551956822754,0.7007511744612563,-0.004093701237966856,0.01946712023525518,0.13213133915034786
10159,9.0,300.69165,-7461.6185,0.10158993937176386,0.0,0.0,0.0,0.0,0.015504061129310187,0.9815816470020662,0.6001642664966015,0.6863997938873854,-0.017001949616461783,0.011430074144310489,0.12734794754826387
10160,9.0,300.09955,-7429.1336,0.10159994904646141,0.0,0.0,0.0,0.0,0.01550558874719593,0.9854102125049161,0.5884940875423444,0.6843668291517473,-0.02075954809555788,0.0021876476985540176,0.13624645178147787
10161,9.0,299.74895,-7474.8032,0.10160995872115874,0.0,0.0,0.0,0.0,0.015507116365081647,0.9728762682379122,0.6051720828633343,0.6941051859953483,0.004528537315731836,0.0018523222038349682,0.12338218798187388
10162,9.0,299.0485,-7541.2338,0.1016199683958563,0.0,0.0,0.0,0.0,0.01550864398296739,0.9677715446316151,0.6118981890146494,0.7126770268132463,0.005482908769645965,0.0020329668634632083,0.12866875958361787
10163,9.0,299.37806,-7590.8059,0.10162994503532374,0.0,0.0,0.0,0.0,0.01551016655920992,0.9609494229008241,0.6145302885344174,0.7319357498739343,0.007009869476270254,-0.018373584250331584,0.1128684111017449
10164,9.0,299.83,-7387.6193,0.10163995471002107,0.0,0.0,0.0,0.0,0.015511694177095636,0.9634587773034782,0.5949453698690365,0.6872476511735623,0.008347100216244652,-0.015615616776641384,0.12577417762544488
10165,9.0,300.00257,-7291.5236,0.10164996438471863,0.0,0.0,0.0,0.0,0.015513221794981352,0.945635464864454,0.5949433129713334,0.6758623170874173,0.0059825905233357145,-0.000972609418691576,0.1258894956193259
10166,9.0,299.62105,-7412.5849,0.10165994102418585,0.0,0.0,0.0,0.0,0.015514744371223882,0.9814465503662331,0.5985874162934784,0.6732067304303313,0.004689612569553725,-0.0030053173258267267,0.13630321405207985
10167,9.0,299.92466,-7477.8076,0.1016699506988834,0.0,0.0,0.0,0.0,0.015516271989109626,0.978689648831648,0.5937250013160954,0.7006521292639813,-0.004835282774155255,-0.004012480528500996,0.1174505307039649
10168,9.0,300.11101,-7365.8831,0.10167996037358096,0.0,0.0,0.0,0.0,0.015517799606995342,0.9470958217035801,0.5981692378447074,0.6937794666182023,-0.007013556997359183,0.004144710173176046,0.14804447250085187
10169,9.0,299.85549,-7354.4249,0.1016899370130484,0.0,0.0,0.0,0.0,0.0155193221832379,0.9434712031808581,0.5950628460856304,0.6970274702112553,-0.0009322045612114273,0.014996702337309287,0.13366259309897086
10170,9.0,300.24951,-7428.0333,0.10169994668774573,0.0,0.0,0.0,0.0,0.015520849801123615,0.952524471234346,0.6128912045101524,0.6925209694639983,0.006002697154345084,0.012031705576686888,0.14968225956498887
10171,9.0,299.92627000000005,-7525.141,0.10170995636244329,0.0,0.0,0.0,0.0,0.015522377419009359,0.9800305738814872,0.6051373385174055,0.7022870488303353,-0.004686663707787695,2.7946288888083973e-05,0.1256822555763729
10172,9.0,299.83167000000003,-7497.2898,0.10171996603714062,0.0,0.0,0.0,0.0,0.015523905036895047,0.976676705917986,0.6028515982793204,0.6994605978088864,0.015861921663949785,0.0018495478237361583,0.13612712131720087
10173,9.0,299.8048,-7338.7055,0.10172994267660829,0.0,0.0,0.0,0.0,0.015525427613137605,0.9616913651540481,0.5958293393887775,0.6732625301133384,0.004048855193840896,0.0031086649856763467,0.12373242801143988
10174,9.0,299.84577,-7257.9514,0.10173995235130562,0.0,0.0,0.0,0.0,0.01552695523102332,0.9283084524569111,0.5833960919167114,0.6945314501799174,0.012802257959734487,0.0004533917775087846,0.13016151002844087
10175,9.0,300.0898,-7477.3766,0.10174996202600295,0.0,0.0,0.0,0.0,0.015528482848909037,0.9784435709123621,0.5950351134303934,0.6994571122285423,-0.01004666706415384,-0.008273712538001852,0.1267204822913379
10176,9.0,300.01283,-7611.5846,0.10175993866547062,0.0,0.0,0.0,0.0,0.015530005425151594,0.9963218825668141,0.6028544049820974,0.7145553797161254,-0.004995923242359235,-0.003836863919843986,0.13132119503289286
10177,9.0,299.40078,-7517.1251,0.10176994834016795,0.0,0.0,0.0,0.0,0.01553153304303731,0.9862096567013151,0.6022457963095325,0.6965628849079043,0.005236934303195175,0.004561983789607746,0.1340145252562039
10178,9.0,299.46682999999996,-7327.8284,0.1017799580148655,0.0,0.0,0.0,0.0,0.015533060660923054,0.9558735262598722,0.5956955701105754,0.6759077613544023,-0.008339212773491221,-0.00015366313682287086,0.12720345808400388
10179,9.0,299.77067999999997,-7414.1563,0.10178996768956283,0.0,0.0,0.0,0.0,0.015534588278808742,0.9541831920455491,0.5999625790641965,0.6995726227399424,0.008956965116283631,-0.007748866616753592,0.12117449839899189
10180,9.0,299.69955,-7591.9057,0.1017999443290305,0.0,0.0,0.0,0.0,0.0155361108550513,0.9758048751344431,0.6098573715907364,0.7220875161894894,-0.00925753552462262,-0.006757400583303514,0.12054655691451889
10181,9.0,299.73645,-7509.445,0.10180995400372783,0.0,0.0,0.0,0.0,0.015537638472937015,0.969696507039094,0.6037514251631265,0.7092358470886283,0.014416541674551886,0.009635421779192091,0.13478441294718588
10182,9.0,299.89157,-7243.5205,0.10181996367842538,0.0,0.0,0.0,0.0,0.015539166090822759,0.9393377608554191,0.5880663744101324,0.6744452260275613,-0.004127123900465416,-0.007864903410255532,0.12643749167090887
10183,9.0,300.02799,-7198.2998,0.10182994031789283,0.0,0.0,0.0,0.0,0.015540688667065289,0.943816052719892,0.5850207877895565,0.6592665571445433,0.0030684756363599667,0.004693311033743735,0.14145471941549387
10184,9.0,300.65538,-7455.7266,0.10183994999259038,0.0,0.0,0.0,0.0,0.015542216284951033,0.970536278589473,0.6052379035898304,0.6905805448599933,-0.01254104309720459,0.0012862482505928189,0.13172500559524586
10185,9.0,300.45611,-7553.7718,0.10184995966728771,0.0,0.0,0.0,0.0,0.015543743902836749,0.981105247202549,0.6083066125776885,0.7067461396054133,0.002050844850877628,0.017830279546711583,0.14386953758381787
10186,9.0,300.29797,-7444.2681,0.10185996934198505,0.0,0.0,0.0,0.0,0.015545271520722437,0.9487609969179202,0.6090445727580194,0.7050660493496014,-0.002933484986487427,0.004912930662443506,0.13632019612375587
10187,9.0,299.57043,-7184.4191,0.10186994598145271,0.0,0.0,0.0,0.0,0.015546794096964994,0.944653341807526,0.5744887116126215,0.6647419580349234,0.009541204212018541,-0.009145229315338862,0.12952026457015486
10188,9.0,299.83612,-7282.8492,0.10187995565615005,0.0,0.0,0.0,0.0,0.01554832171485071,0.9414638838052511,0.5831828838306694,0.6891575566845554,0.0031054422424082865,-0.014694619045245985,0.12941525132979087
10189,9.0,299.62852999999996,-7553.432,0.1018899653308476,0.0,0.0,0.0,0.0,0.015549849332736454,0.992714043465748,0.5978297686637044,0.7055109066735054,0.018667720621860583,-0.00956344089738813,0.1223690088093809
10190,9.0,299.49508,-7489.2169,0.10189994197031504,0.0,0.0,0.0,0.0,0.015551371908978984,0.9778304330118501,0.5882526199110134,0.7104518890636423,0.005154536805063175,-0.0051042187037721645,0.1190787222896549
10191,9.0,299.99034,-7290.1214,0.1019099516450126,0.0,0.0,0.0,0.0,0.015552899526864727,0.9494528744837031,0.5854404455834734,0.6811215309364613,0.004617315148418525,0.0015054183002232186,0.1286589817201529
10192,9.0,299.49478999999997,-7346.4597,0.10191996131970993,0.0,0.0,0.0,0.0,0.015554427144750416,0.9746532657332881,0.5690737105607024,0.6894133212747974,-0.006309351318934494,-0.0010334146889150891,0.1267746506416839
10193,9.0,299.68501000000003,-7532.3454,0.10192993795917737,0.0,0.0,0.0,0.0,0.015555949720993001,0.9852056879722311,0.5995197178429894,0.7049195131201393,0.007943059848768972,0.002364448695252918,0.13190190893020487
10194,9.0,300.14243999999997,-7584.6572,0.10193994763387493,0.0,0.0,0.0,0.0,0.015557477338878689,0.994939586515392,0.5999393959019084,0.7106674174924134,-0.011968972223245588,-0.0026064091714325575,0.12978948512172486
10195,9.0,300.37802,-7490.0124,0.10194995730857248,0.0,0.0,0.0,0.0,0.015559004956764433,0.980796732812101,0.5981096891363304,0.6978703423069403,0.004445447970431556,-0.006776530947841534,0.12959060439209688
10196,9.0,300.55228,-7219.2134,0.10195996698326981,0.0,0.0,0.0,0.0,0.015560532574650149,0.9455531686913321,0.5773470192172144,0.6715604016678514,-0.0062961926451858335,-2.5145148854132973e-05,0.11990187653839389
10197,9.0,300.29885,-7296.0401,0.10196994362273726,0.0,0.0,0.0,0.0,0.015562055150892706,0.942263368531654,0.5980488333353244,0.6775017962792214,0.0016630103041763386,0.01906347685916868,0.14321426874414786
10198,9.0,300.04465,-7556.0405,0.10197995329743459,0.0,0.0,0.0,0.0,0.015563582768778422,0.9780141149899781,0.6028506052942224,0.7159829173845123,-0.003128106924620117,0.007085464418530893,0.12727287584835487
10199,9.0,300.37615,-7476.098000000001,0.10198996297213214,0.0,0.0,0.0,0.0,0.01556511038666411,0.9689157370420381,0.6067688434309224,0.6968625333599774,-0.004045239917484096,-0.007772849841320553,0.14513501603121087
10200,9.0,300.21426,-7248.2647,0.10199993961159959,0.0,0.0,0.0,0.0,0.015566632962906696,0.936481743196052,0.5907203499995595,0.6760893763023264,0.01163087599612809,-0.0017967470570501283,0.14192434057184186
10201,9.0,299.58842000000004,-7242.7619,0.10200994928629692,0.0,0.0,0.0,0.0,0.015568160580792384,0.9515197121701842,0.5827473990701905,0.6673516343299783,-0.0032717947054009973,-0.01011857326942543,0.14429487971079585
10202,9.0,299.301,-7475.9283,0.10201995896099447,0.0,0.0,0.0,0.0,0.015569688198678128,0.96867906208368,0.6002932633668324,0.7035232038198344,0.00980099849790824,-0.006555772932654415,0.13255443186210386
10203,9.0,299.17298,-7579.8965,0.1020299686356918,0.0,0.0,0.0,0.0,0.015571215816563844,0.979021903671939,0.6125984157612564,0.7124789465511974,-0.00959563793256573,-0.0065948082914319035,0.13103675546482088
10204,9.0,300.10049,-7442.4871,0.10203994527515947,0.0,0.0,0.0,0.0,0.015572738392806401,0.9656855970482481,0.6020894720841045,0.6945551703647583,0.006665803078238544,0.014775516933229984,0.13057789502453487
10205,9.0,300.18255,-7343.5911,0.1020499549498568,0.0,0.0,0.0,0.0,0.015574266010692117,0.956977695291345,0.5900011349460784,0.6852895048253084,-0.00953211941162194,0.017295058552389383,0.13423159382512687
10206,9.0,300.03108,-7439.5425,0.10205996462455436,0.0,0.0,0.0,0.0,0.015575793628577833,0.9716310041300141,0.5952389084230064,0.6945652420707524,-0.0002210344804769048,0.006965545762570843,0.12687805281438888
10207,9.0,300.38743999999997,-7551.0419999999995,0.1020699412640218,0.0,0.0,0.0,0.0,0.01557731620482039,0.9861465616175882,0.6056157850821244,0.7035658717815453,-0.002660444279390407,0.00015494016632140384,0.13406402252358887
10208,9.0,299.96962,-7494.6887,0.10207995093871935,0.0,0.0,0.0,0.0,0.015578843822706107,0.9830079687703331,0.5981216860175145,0.6970685473703093,0.0017825205190210782,0.004013223240824296,0.11331714917353189
10209,9.0,300.01462000000004,-7312.6145,0.10208996061341669,0.0,0.0,0.0,0.0,0.015580371440591823,0.9604736310513671,0.5815222479767775,0.6808563431202894,0.002177629390840288,0.012943172677641689,0.13447362887651387
10210,9.0,299.97324,-7273.2097,0.10209993725288413,0.0,0.0,0.0,0.0,0.015581894016834352,0.955365300274714,0.5689330309168185,0.6865758055622564,-0.008629383790753873,-0.008243497723994882,0.11621765864478989
10211,9.0,299.81715,-7494.0873,0.10210994692758169,0.0,0.0,0.0,0.0,0.015583421634720096,0.9798537110765321,0.6013891338799865,0.6967725668835983,-0.008532556091322722,-0.008726122830801273,0.14763834159576988
10212,9.0,300.38432,-7670.3232,0.10211995660227902,0.0,0.0,0.0,0.0,0.015584949252605812,0.9988404980753821,0.6132752060330504,0.7194710308537623,-0.0038039426134949057,-0.005623313113477795,0.11858239186067089
10213,9.0,299.82412999999997,-7447.2322,0.10212996627697657,0.0,0.0,0.0,0.0,0.015586476870491528,0.9804247281703871,0.6000733779626315,0.6832745252789453,0.0023781224040274078,0.002325926750301098,0.14832124176566686
10214,9.0,299.78789,-7214.1646,0.10213994291644402,0.0,0.0,0.0,0.0,0.015587999446734085,0.9405552112480722,0.5759125509181434,0.6764581385437203,0.0032756901454104466,-0.009958146394342532,0.1191873629653769
10215,9.0,299.481,-7257.3008,0.10214995259114157,0.0,0.0,0.0,0.0,0.015589527064619801,0.9448636114682781,0.5824145565448414,0.6787600502534014,0.011536738982337489,-0.010892813477536989,0.14034489644846285
10216,9.0,299.76056,-7467.4712,0.1021599622658389,0.0,0.0,0.0,0.0,0.015591054682505517,0.9566915838606082,0.6104159561058644,0.7028172522101623,0.013963838755123588,-0.0016571489563228683,0.12323764785510888
10217,9.0,300.00122000000005,-7492.4657,0.10216993890530635,0.0,0.0,0.0,0.0,0.015592577258748047,0.978031897529233,0.6058036416506644,0.6936869366190703,0.01121218180305619,0.007734782643013612,0.14971734841595186
10218,9.0,300.75613,-7438.7985,0.1021799485800039,0.0,0.0,0.0,0.0,0.01559410487663379,0.9726472838478131,0.5993205838008364,0.6892411295528033,-0.006557642683063943,0.01042379317849829,0.14099171478229888
10219,9.0,300.24144,-7300.8799,0.10218995825470145,0.0,0.0,0.0,0.0,0.015595632494519535,0.9557217211298902,0.5949601430554945,0.6686033224435104,-0.012234787241229488,0.0038533099822170864,0.14930092288985386
10220,9.0,299.78202000000005,-7394.379,0.10219996792939878,0.0,0.0,0.0,0.0,0.015597160112405223,0.951214318590044,0.5959730486504604,0.7005192212483644,-0.010929332024391092,0.0041214479773802465,0.13576202704116888
10221,9.0,299.46274,-7506.1051,0.10220994456886623,0.0,0.0,0.0,0.0,0.01559868268864778,0.977402426037109,0.5928689671016114,0.7113971399494313,0.002115615444969988,0.005223247827469425,0.11625541234351588
10222,9.0,299.53946,-7421.0284,0.10221995424356378,0.0,0.0,0.0,0.0,0.015600210306533496,0.963951865332142,0.5823564061216024,0.7094990590671053,-0.010506534168414189,-0.013795371740497187,0.11977807764117589
10223,9.0,299.65255,-7305.0736,0.10222996391826111,0.0,0.0,0.0,0.0,0.015601737924419212,0.9525043886173642,0.5882202263053163,0.6798353416570244,0.0018905528393830383,-0.008632787500489793,0.1267356303803329
10224,9.0,299.85783,-7455.1631,0.10223994055772856,0.0,0.0,0.0,0.0,0.015603260500661742,0.9717588458951311,0.6004200412193444,0.6940045195979133,-0.005112550051394405,-0.001799699870491548,0.12979101512937588
10225,9.0,299.91462,-7713.0299,0.10224995023242611,0.0,0.0,0.0,0.0,0.015604788118547486,1.0077576866404399,0.6225126930872193,0.7142981053832343,0.014309446205232387,0.01841301285147288,0.1274490597757429
10226,9.0,299.92621,-7680.3763,0.10225995990712367,0.0,0.0,0.0,0.0,0.01560631573643323,0.9924108891683291,0.6136439480094424,0.7285877891585163,0.0023391181520279877,-0.00893137224260781,0.11925618291216887
10227,9.0,300.43759,-7414.3179,0.10226993654659089,0.0,0.0,0.0,0.0,0.015607838312675731,0.979448725144063,0.5924415680769305,0.6818772027285404,-0.0018875600025626681,-0.021048662799591278,0.12675966467270489
10228,9.0,299.89747,-7321.4636,0.10227994622128844,0.0,0.0,0.0,0.0,0.015609365930561475,0.9539249652575641,0.5844865516743315,0.6871306005220104,0.005216063478960385,-0.016073427489823787,0.1325015908693889
10229,9.0,299.03439,-7411.1253,0.102289955895986,0.0,0.0,0.0,0.0,0.015610893548447191,0.9744773047209221,0.5879467703683284,0.6903729501795054,0.002217578903857998,0.004988043804281595,0.14492445252792985
10230,9.0,298.98532,-7487.4925,0.10229996557068333,0.0,0.0,0.0,0.0,0.015612421166332935,0.9941730222847381,0.5973116736225724,0.6845260512724614,0.006173570739283995,-0.0013876925201295885,0.14360306294001887
10231,9.0,298.86891,-7398.7666,0.10230994221015077,0.0,0.0,0.0,0.0,0.015613943742575437,0.9550882878298751,0.6007406943459904,0.6932113271546314,-0.01109878391811469,0.0015046551202478984,0.13121338522225287
10232,9.0,299.73684,-7194.8943,0.10231995188484833,0.0,0.0,0.0,0.0,0.015615471360461208,0.932917402921779,0.5791864835812555,0.6749643241862923,0.005178233482501854,0.015879107398895885,0.14315773952106886
10233,9.0,299.53893,-7410.923000000001,0.10232996155954566,0.0,0.0,0.0,0.0,0.015616998978346924,0.951721359072585,0.6022014868826594,0.6988126952974433,-0.0005606617994230115,0.011734699680874688,0.11991072221176688
10234,9.0,299.55384,-7692.1063,0.1023399381990131,0.0,0.0,0.0,0.0,0.015618521554589454,0.9971258154611561,0.6187599997518575,0.7223224382251743,0.004956217922615625,-0.003412574357069867,0.13869236659537088
10235,9.0,300.39966,-7627.8692,0.10234994787371066,0.0,0.0,0.0,0.0,0.015620049172475198,0.9881776011780361,0.6128702201005815,0.7176339374949553,-0.01154365542752009,-0.017944408998225282,0.13080488331193688
10236,9.0,300.72935,-7262.1091,0.10235995754840799,0.0,0.0,0.0,0.0,0.015621576790360886,0.9497111924641971,0.5915248908439614,0.6662637583601134,0.006042101133508953,0.0040538576095845965,0.15926988532371386
10237,9.0,300.00813999999997,-7171.6916,0.10236996722310554,0.0,0.0,0.0,0.0,0.01562310440824663,0.9308991607100942,0.5755460380919715,0.6735699704586803,-0.008050249651672782,0.004106785032533126,0.1356881205788749
10238,9.0,299.92776000000003,-7316.9737,0.10237994386257276,0.0,0.0,0.0,0.0,0.015624626984489132,0.957698724062505,0.5799913385331885,0.6864872373710154,0.008812615176562401,-0.008239683951943492,0.13548525777635387
10239,9.0,299.31391,-7458.6344,0.10238995353727054,0.0,0.0,0.0,0.0,0.015626154602374903,0.981325801351816,0.5913893382455834,0.6945234657691294,-0.0081184557715542,-0.01230810196546509,0.11889408785643288
10240,9.0,299.6032,-7469.9708,0.10239996321196787,0.0,0.0,0.0,0.0,0.01562768222026062,0.974082572879465,0.5949310425126225,0.7016709826370343,0.0049748131897758355,0.0023135754342321177,0.13826457240315088
10241,9.0,300.15448,-7429.243,0.10240993985143532,0.0,0.0,0.0,0.0,0.01562920479650315,0.9792994126093271,0.6024254759497655,0.6765794752431953,0.004831170802599435,0.005421849913319925,0.13160341558324587
10242,9.0,300.04671,-7543.7192,0.10241994952613287,0.0,0.0,0.0,0.0,0.015630732414388893,0.977059775250792,0.6114599988764035,0.7045824960043783,-0.006955563222585644,0.0036380696204495167,0.13959416931687188
10243,9.0,299.75481,-7752.6192,0.10242995920083042,0.0,0.0,0.0,0.0,0.01563226003227461,1.009729015372495,0.6095413186195444,0.7373323199065344,-0.015924553692381088,-0.006965360033827513,0.12596496248677388
10244,9.0,300.10483999999997,-7627.6183,0.10243996887552775,0.0,0.0,0.0,0.0,0.015633787650160325,0.9883929877517932,0.6038862887514364,0.7263262149353162,-0.011449260034953989,0.012296629947832888,0.1250584684173099
10245,9.0,299.82498,-7282.348000000001,0.1024499455149952,0.0,0.0,0.0,0.0,0.015635310226402854,0.9599965827717861,0.5655619377016174,0.6880934312970343,0.0016476596664863484,0.018619714858622783,0.1095804955872529
10246,9.0,299.99699,-7264.1426,0.10245995518969275,0.0,0.0,0.0,0.0,0.015636837844288598,0.9423000177877712,0.5861167900252234,0.6797011569462814,0.006802384226793055,-0.006158319298778795,0.13111875779541388
10247,9.0,299.78398,-7453.7518,0.10246996486439008,0.0,0.0,0.0,0.0,0.015638365462174314,0.984944907793994,0.5878394266527345,0.6929700925708233,0.0022325150209320777,-0.006997397887414404,0.1271771642439089
10248,9.0,299.81917000000004,-7546.9875,0.10247994150385753,0.0,0.0,0.0,0.0,0.015639888038416844,0.978820003457013,0.6127547501191855,0.7025210082784253,0.005656729797800765,0.00798312730409832,0.15781777634040184
10249,9.0,300.25987000000003,-7428.4131,0.10248995117855508,0.0,0.0,0.0,0.0,0.015641415656302587,0.967398121439761,0.6033409778126184,0.6873129855400104,0.009316952307836602,0.013951366659642686,0.14644493562798985
10250,9.0,301.08487,-7263.9091,0.10249996085325264,0.0,0.0,0.0,0.0,0.015642943274188303,0.9386067819682771,0.5856281096344944,0.6838120949869994,-0.009222341396974231,0.0016644261185410686,0.13966926128178286
10251,9.0,299.98201,-7390.5823,0.10250993749271986,0.0,0.0,0.0,0.0,0.015644465850430805,0.9720003135264621,0.5889551366028465,0.6855970363631593,-0.007363862482881644,-0.007915772719600941,0.1265169608762519
10252,9.0,299.62766,-7527.2494,0.10251994716741741,0.0,0.0,0.0,0.0,0.01564599346831655,0.972826841898034,0.5944484010924894,0.7208206090594553,-0.016805084241282686,-0.014835670551916685,0.12696305436527788
10253,9.0,299.11807000000005,-7511.7085,0.10252995684211497,0.0,0.0,0.0,0.0,0.015647521086202293,0.986683665230596,0.5970367079429354,0.6996514535977223,0.007103519015437743,-0.008350396825445002,0.12486859548107088
10254,9.0,299.27464,-7355.8818,0.10253996651681252,0.0,0.0,0.0,0.0,0.015649048704088037,0.947980541028395,0.5969078934577224,0.6911159462128333,-0.004301138459389316,-0.012876700431331387,0.13547172075501787
10255,9.0,299.35742,-7340.1745,0.10254994315627974,0.0,0.0,0.0,0.0,0.01565057128033054,0.9687539007360662,0.5731433991898495,0.6893324639168174,-0.004550774406401466,-0.006896596525066084,0.13731560288949488
10256,9.0,300.10251,-7547.8208,0.1025599528309773,0.0,0.0,0.0,0.0,0.015652098898216282,0.979725798383908,0.6089035587416024,0.7057197071216122,0.0014345053840246588,0.008693008196333112,0.13777128172446687
10257,9.0,299.5969,-7635.670999999999,0.10256996250567485,0.0,0.0,0.0,0.0,0.015653626516102,1.0041917150335062,0.6033087159294345,0.7135528801996863,0.007592607036681973,0.031889629282761366,0.11877812138248789
10258,9.0,300.28843,-7463.8863,0.1025799391451423,0.0,0.0,0.0,0.0,0.015655149092344528,0.971363242658588,0.6049184359658014,0.6925533833346973,-0.0031697879807337168,0.018747361066470482,0.13533584391660788
10259,9.0,299.76437000000004,-7377.7205,0.10258994881983963,0.0,0.0,0.0,0.0,0.015656676710230244,0.9629483323006011,0.5939895203872014,0.6857049677638113,-0.0006634851834058893,-0.003798153307723546,0.12392167273261688
10260,9.0,300.02019,-7484.3617,0.10259995849453718,0.0,0.0,0.0,0.0,0.015658204328115988,0.970593577882628,0.6110143410849205,0.6934511735858023,-0.0072748430913711125,-0.008619246932778442,0.14972551521175786
10261,9.0,299.95769,-7554.4499,0.10260996816923473,0.0,0.0,0.0,0.0,0.01565973194600173,0.96343792461642,0.6091100388469803,0.7238161715225944,0.012529175912033386,-0.013121788405269688,0.11795582839633388
10262,9.0,299.77303,-7496.8406,0.10261994480870196,0.0,0.0,0.0,0.0,0.015661254522244233,0.9757343225299802,0.6030379248402093,0.7000800989200263,0.0033629588433981973,-0.012953512894912186,0.15086820801203285
10263,9.0,299.62658999999996,-7473.0841,0.10262995448339951,0.0,0.0,0.0,0.0,0.015662782140129977,0.9725251770782621,0.5877000338364774,0.7114057525752813,-0.01110036965452119,-0.02204283643995858,0.10859016520451488
10264,9.0,299.76133,-7333.772,0.10263996415809684,0.0,0.0,0.0,0.0,0.015664309758015693,0.9683194089606851,0.5854666178335565,0.6754975166539143,0.0023413013006934476,0.007769507027915643,0.14555803781545987
10265,9.0,299.38664,-7384.7429,0.10264994079756429,0.0,0.0,0.0,0.0,0.015665832334258223,0.960258031695089,0.6003083303958193,0.6842110723463753,-0.0005553575364745215,0.02216057610157858,0.11949185475292788
10266,9.0,299.51126,-7560.2714,0.10265995047226162,0.0,0.0,0.0,0.0,0.01566735995214394,0.976217176732634,0.6096575384060144,0.7122589902194894,0.003992981644901606,0.012051282581868989,0.14568303234779587
10267,9.0,299.76341,-7559.3862,0.10266996014695917,0.0,0.0,0.0,0.0,0.015668887570029683,0.9652132603816321,0.6178177379538634,0.7148336587235894,-0.002003046905235338,-0.008265969483387673,0.13063713975788188
10268,9.0,300.16213,-7304.8057,0.10267993678642662,0.0,0.0,0.0,0.0,0.015670410146272212,0.9472519635439901,0.5883855177941295,0.6848410605960503,0.007864490612164793,-0.0008896345098575902,0.15262234658515286
10269,9.0,300.54542999999995,-7316.4816,0.10268994646112417,0.0,0.0,0.0,0.0,0.015671937764157956,0.9440843816113742,0.5910090452180514,0.6889342870250204,-0.003646413025747947,-0.0032038977281250874,0.12322428308628987
10270,9.0,300.16488,-7478.8993,0.1026999561358215,0.0,0.0,0.0,0.0,0.015673465382043672,0.9870675552959831,0.5963440704395775,0.6899870234814174,-0.007179229772184813,-0.000995321085310543,0.13333649881928786
10271,9.0,299.61664,-7498.4237,0.10270996581051905,0.0,0.0,0.0,0.0,0.015674992999929388,0.9797789838816572,0.5961020455206915,0.7034525498903613,-0.017523718702456382,0.00011424328002993388,0.12546074897201187
10272,9.0,299.92502,-7374.1003,0.1027199424499865,0.0,0.0,0.0,0.0,0.015676515576171918,0.9574619984416421,0.5986763695197574,0.6854039818216063,-0.0009076200233726222,0.013374508178961186,0.14967372799914685
10273,9.0,299.84553999999997,-7345.9119,0.10272995212468383,0.0,0.0,0.0,0.0,0.015678043194057634,0.936924330839732,0.5902318722588504,0.7058175870812723,0.0008459758833913193,0.014192255725166587,0.12827410880216886
10274,9.0,299.71007000000003,-7516.1699,0.10273996179938139,0.0,0.0,0.0,0.0,0.015679570811943377,0.973533482517774,0.6003662579040364,0.7108282506807864,0.003990498675531556,0.0005549055762674166,0.13723090531363585
10275,9.0,300.37462,-7660.7275,0.10274993843884883,0.0,0.0,0.0,0.0,0.015681093388185907,0.986588804756234,0.6181784448569624,0.7239026220211263,-0.001230526993143559,-0.01937326085199198,0.12868606589532589
10276,9.0,300.30194,-7572.3701,0.10275994811354638,0.0,0.0,0.0,0.0,0.01568262100607165,1.005190151417044,0.5999606842865094,0.6966606027475484,0.004189558041152186,-0.008320314949851151,0.1265781409172899
10277,9.0,300.60992000000005,-7362.6141,0.10276995778824372,0.0,0.0,0.0,0.0,0.01568414862395734,0.9610591072241492,0.6004689406691704,0.6765228041651024,0.006437883310019614,0.0025325539795936175,0.12596714097448888
10278,9.0,300.43251000000004,-7329.4427,0.10277996746294127,0.0,0.0,0.0,0.0,0.015685676241843083,0.9467535762173032,0.6041149590340044,0.6770990293644713,-0.0032224637123574066,0.0027831144159970074,0.13461965848092586
10279,9.0,300.03732,-7556.8337,0.10278994410240871,0.0,0.0,0.0,0.0,0.015687198818085613,0.9767518181478991,0.6041423775817104,0.7161945549328993,-0.006932204970680363,-0.00897563921430162,0.14213526884515887
10280,9.0,300.19175,-7494.2751,0.10279995377710627,0.0,0.0,0.0,0.0,0.015688726435971356,0.9548363330600091,0.6097860286511955,0.7134501265070453,-0.006088479414436134,0.010185765531256791,0.13251651604336187
10281,9.0,300.32902,-7173.7982,0.1028099634518036,0.0,0.0,0.0,0.0,0.015690254053857072,0.9509167979631811,0.5718483642370396,0.6578903709912244,4.031121695890736e-05,0.012872101289127488,0.14542731842005888
10282,9.0,299.80716,-7254.1554,0.10281994009127127,0.0,0.0,0.0,0.0,0.01569177663009963,0.9518636700491301,0.5738073819803795,0.6794110431776493,-0.007713016814965492,0.008571433383084612,0.12389862129284189
10283,9.0,299.67835,-7507.2108,0.1028299497659686,0.0,0.0,0.0,0.0,0.015693304247985346,0.983749677976034,0.6067547491220314,0.6915002111807573,-0.009013070598170811,-0.004198345148669406,0.15201677766288785
10284,9.0,300.04865,-7660.9461,0.10283995944066593,0.0,0.0,0.0,0.0,0.015694831865871034,0.972307216849251,0.6256260864044875,0.7308030274546433,-0.005941173621523184,0.0014154653000705486,0.13830658175229688
10285,9.0,299.47429,-7536.9490000000005,0.1028499360801336,0.0,0.0,0.0,0.0,0.01569635444211362,0.9673849390559601,0.6080696539093025,0.7155897054182053,0.018272874283142285,0.0015379429191581485,0.14853070082633887
10286,9.0,300.03296,-7386.2115,0.10285994575483093,0.0,0.0,0.0,0.0,0.015697882059999307,0.9447941329089211,0.6020346957836984,0.6983950336062233,0.004492391644914535,-0.004544551226937285,0.13777259894959687
10287,9.0,300.01558,-7324.8464,0.10286995542952848,0.0,0.0,0.0,0.0,0.01569940967788505,0.968210748019961,0.5865771703406594,0.6717824959572704,0.003629733713201827,-0.02024223224375278,0.12727078855314888
10288,9.0,299.70387999999997,-7474.0587,0.10287996510422581,0.0,0.0,0.0,0.0,0.015700937295770767,0.9973634530071089,0.5973635621601935,0.6772001922544554,-0.004050677422820737,-0.004900560297272646,0.1158145776225089
10289,9.0,300.48507,-7509.0611,0.10288994174369348,0.0,0.0,0.0,0.0,0.015702459872013325,0.986478340230332,0.6016782141335164,0.6944105187804823,0.016298776338563987,0.01806730306310398,0.11794874577813488
10290,9.0,300.6197,-7392.9487,0.10289995141839081,0.0,0.0,0.0,0.0,0.01570398748989904,0.9593308369260821,0.5896079837747774,0.6983330024351013,-0.003943726949590546,0.006203374275075374,0.1171799827947639
10291,9.0,300.33984,-7401.1648,0.10290996109308836,0.0,0.0,0.0,0.0,0.015705515107784757,0.9352770597546591,0.5948136270910345,0.7196786154017494,-0.011953837306501888,-0.007851958329627953,0.13787979067767586
10292,9.0,300.06205,-7591.2375,0.10291993773255559,0.0,0.0,0.0,0.0,0.015707037684027314,0.987764752424791,0.5926500037550014,0.7271318906198303,-0.01882392629702688,-0.002250301917162508,0.12305206096679289
10293,9.0,299.77797999999996,-7673.4347,0.10292994740725314,0.0,0.0,0.0,0.0,0.01570856530191303,0.9976537592932601,0.6180652850857944,0.7168135190214863,0.012560324233357489,0.007834420996897153,0.1337080576309579
10294,9.0,299.71851000000004,-7472.226,0.1029399570819507,0.0,0.0,0.0,0.0,0.015710092919798746,0.997908662620917,0.5871933277264695,0.6862681119043894,0.00973912894017719,0.006551035887111905,0.1152231334066379
10295,9.0,299.87874,-7383.313,0.10294996675664803,0.0,0.0,0.0,0.0,0.015711620537684462,0.9626122575074331,0.6017861860641724,0.6799443673677844,0.006698805647245644,-0.01091312711554179,0.13693772139720087
10296,9.0,299.53292999999996,-7409.1267,0.10295994339611547,0.0,0.0,0.0,0.0,0.01571314311392702,0.9587188034681792,0.6033748304984594,0.6900958668071593,0.006523705593489614,0.008986245105748343,0.12762521330562787
10297,9.0,299.69882,-7407.6182,0.1029699530708128,0.0,0.0,0.0,0.0,0.015714670731812735,0.9438559139788261,0.6057230882677144,0.7021519623270033,0.004705798530626155,0.012054187569905688,0.13810421544232487
10298,9.0,300.20793,-7436.7132,0.10297996274551036,0.0,0.0,0.0,0.0,0.01571619834969845,0.968415384010157,0.5982824482783804,0.6938772756503554,0.0007493979703748212,-0.005850069062631864,0.13058885839061687
10299,9.0,300.9108,-7397.1679,0.1029899393849778,0.0,0.0,0.0,0.0,0.01571772092594101,0.9713764149098881,0.5881604850794204,0.6890174140632244,-0.01593265260043038,-0.02257748190822398,0.13613436605541587
10300,9.0,300.97988,-7317.9061,0.10299994905967536,0.0,0.0,0.0,0.0,0.015719248543826725,0.968279912471787,0.5859483878586034,0.6702324360867913,-0.004634173096957276,-0.011303477663566389,0.14465241514108185
10301,9.0,299.7094,-7512.6262,0.10300995873437269,0.0,0.0,0.0,0.0,0.01572077616171244,0.966199730281489,0.6093438463075554,0.7081072080672404,0.0012938356699916387,-0.012162129103058687,0.13756886475198984
10302,9.0,299.8664,-7637.8339,0.10301996840907024,0.0,0.0,0.0,0.0,0.015722303779598185,0.9818745573409741,0.6145670087180414,0.7252692228284994,0.0049371917201878855,-0.0005266620707274995,0.14039750439365487
10303,9.0,300.77272999999997,-7488.979,0.10302994504853769,0.0,0.0,0.0,0.0,0.015723826355840714,0.952446349651636,0.6047177415184944,0.7192985351567383,-0.004134229418116676,-0.0003838847458239746,0.13027609848224986
10304,9.0,300.15742,-7357.3526,0.10303995472323524,0.0,0.0,0.0,0.0,0.015725353973726458,0.9559405628864881,0.5981583758036354,0.6823525386154523,0.002137410251970968,0.012011026155395987,0.14130398833061786
10305,9.0,299.6291,-7400.9929,0.10304996439793257,0.0,0.0,0.0,0.0,0.015726881591612146,0.978981221680424,0.5848268922504204,0.6859089248764404,-0.003349153918735757,0.015732051372132586,0.11835999359622189
10306,9.0,299.83221000000003,-7498.3418,0.10305994103740024,0.0,0.0,0.0,0.0,0.01572840416785473,0.985666514117711,0.5998240576430254,0.6938181119770163,0.002086067957478878,0.01022544643167299,0.1210882100204759
10307,9.0,299.88869,-7617.9649,0.10306995071209757,0.0,0.0,0.0,0.0,0.01572993178574042,1.001773482212345,0.6063849128355314,0.7075127139685683,0.0025451024741320574,-0.014936159630584186,0.12395040850545289
10308,9.0,300.21612999999996,-7535.4746,0.1030799603867949,0.0,0.0,0.0,0.0,0.015731459403626136,0.9773201906589931,0.5934659233980265,0.7198100035422164,0.0062559181828610545,-0.013745772134852088,0.12997291378732787
10309,9.0,300.30947000000003,-7436.3271,0.10308993702626257,0.0,0.0,0.0,0.0,0.015732981979868693,0.956879045261609,0.6000932275320904,0.7034854805186114,0.003880133448139356,-0.012550979027685188,0.14159360560670087
10310,9.0,299.95776,-7427.7171,0.1030999467009599,0.0,0.0,0.0,0.0,0.01573450959775441,0.9652056407408802,0.5839251705889275,0.7087097169742034,0.0059324329208605454,0.005158676539671735,0.13201677096154088
10311,9.0,299.98201,-7507.6456,0.10310995637565745,0.0,0.0,0.0,0.0,0.015736037215640153,0.984172486977762,0.5983661224716383,0.6995981769074644,-0.004947123698993095,0.0014877805544075086,0.13547942145577788
10312,9.0,300.63835,-7506.1973,0.10311996605035478,0.0,0.0,0.0,0.0,0.01573756483352584,0.983071276636581,0.5918355431921204,0.7067897498897173,0.001152624779080209,0.016608778180158785,0.11664250427921889
10313,9.0,300.47916000000004,-7358.9541,0.10312994268982245,0.0,0.0,0.0,0.0,0.015739087409768426,0.958494834666075,0.5825789665060674,0.6958644921439784,-0.01010238163415244,0.02390897055988168,0.1288554914445469
10314,9.0,300.80056,-7398.9809,0.10313995236451978,0.0,0.0,0.0,0.0,0.015740615027654115,0.9519073715259431,0.6018522398381915,0.6953458296827904,0.0023699684764976778,0.00997942707824277,0.11919135517077088
10315,9.0,300.03128,-7618.2373,0.10314996203921734,0.0,0.0,0.0,0.0,0.01574214264553986,0.972720329047522,0.6256117083855683,0.7174218642490253,-0.007410099618069893,-0.007272445336334473,0.14513780246898586
10316,9.0,300.25699,-7584.5265,0.10315993867868478,0.0,0.0,0.0,0.0,0.015743665221782388,0.9866055740453892,0.6204306161192344,0.6984704700761684,0.005605233995918525,-0.015516208835830585,0.1373675319571199
10317,9.0,300.12401,-7401.3696,0.10316994835338233,0.0,0.0,0.0,0.0,0.015745192839668132,0.9714605349331902,0.6006713171116433,0.6776997042887534,-0.006585777294615613,0.003151663773544997,0.15115811913064486
10318,9.0,300.10382999999996,-7402.2531,0.10317995802807967,0.0,0.0,0.0,0.0,0.015746720457553848,0.9692437666294121,0.5951106005628434,0.6857457409478354,-0.004369638016499696,0.005369319076460536,0.12504555961103586
10319,9.0,299.24748999999997,-7406.9017,0.103189967702777,0.0,0.0,0.0,0.0,0.015748248075439536,0.966943303867374,0.5951499349317254,0.6894199377979504,-0.006609685741325193,0.01114200004812979,0.13643255542734486
10320,9.0,299.88965,-7497.0935,0.10319994434224466,0.0,0.0,0.0,0.0,0.01574977065168212,0.967896873536484,0.5996604582818794,0.7113718897569393,-0.0003024501392620047,-0.001019456155537489,0.1397285364126329
10321,9.0,299.81131,-7481.3741,0.103209954016942,0.0,0.0,0.0,0.0,0.01575129826956781,0.9613075257511662,0.5942429443697125,0.7186004463678424,0.005285084859872265,0.014524247120431587,0.14495442446588785
10322,9.0,300.20957000000004,-7393.460999999999,0.10321996369163955,0.0,0.0,0.0,0.0,0.015752825887453553,0.9515446482551452,0.5955622162649145,0.7003206546262674,0.007843413186234613,-0.0022579531713176277,0.12946530588473087
10323,9.0,300.63704,-7433.9568,0.103229940331107,0.0,0.0,0.0,0.0,0.015754348463696083,0.9743810054314181,0.5937855531420714,0.6915706725927113,-0.002349690707546418,-0.004182901798595266,0.13173150052838686
10324,9.0,300.12101,-7592.1508,0.10323995000580433,0.0,0.0,0.0,0.0,0.015755876081581827,0.9968322363771821,0.6105369786978084,0.7004550521195313,-0.002963204017220467,-0.0013274353472826686,0.1138509597237149
10325,9.0,300.13032999999996,-7555.0805,0.10324995968050188,0.0,0.0,0.0,0.0,0.015757403699467543,0.9942952810418041,0.6018917363270894,0.7003688042710193,0.002251694122799908,0.0017866330985269582,0.1275414580523619
10326,9.0,300.69462999999996,-7433.293000000001,0.10325993631996933,0.0,0.0,0.0,0.0,0.0157589262757101,0.9662793514743472,0.5903768784806614,0.7028792327187794,0.001051047875105349,-0.0063349516906610545,0.11557267429363488
10327,9.0,300.66246,-7443.6402,0.10326994599466666,0.0,0.0,0.0,0.0,0.015760453893595816,0.9635079401983301,0.6080820256930234,0.6910907770803493,-0.00026169175882196575,-0.0034633053577766268,0.14394568332883287
10328,9.0,300.25962999999996,-7537.8768,0.10327995566936421,0.0,0.0,0.0,0.0,0.015761981511481532,0.99141011217706,0.6005338393380755,0.6993823546361644,0.0027250455593910575,-0.008873631780359272,0.1297254477154049
10329,9.0,300.06617,-7506.5161,0.10328996534406154,0.0,0.0,0.0,0.0,0.015763509129367248,0.9805429947220591,0.6004093007682844,0.7008411713351383,0.007271744167265274,0.016446439302137184,0.13874619044068287
10330,9.0,300.40249,-7426.7895,0.10329994198352921,0.0,0.0,0.0,0.0,0.015765031705609805,0.974515261069668,0.5978861762967714,0.6851571439647453,0.004832568682437396,0.007724081404732483,0.12891796844571288
10331,9.0,299.58155,-7417.8914,0.10330995165822654,0.0,0.0,0.0,0.0,0.01576655932349552,0.9608854462895101,0.5851161346239665,0.7088521799382633,-0.001961781990937808,0.007346737036316492,0.13923067597599786
10332,9.0,299.87105,-7399.6055,0.10331996133292387,0.0,0.0,0.0,0.0,0.015768086941381237,0.951760733971471,0.5998697450900344,0.6976648146566563,-0.012311210616771887,0.0018290053938587784,0.15650023710287086
10333,9.0,300.14832,-7432.6015,0.10332993797239154,0.0,0.0,0.0,0.0,0.015769609517623795,0.9524840729528591,0.6062768193148634,0.7005643615403192,-0.011605699770893388,0.0006849036693197294,0.15339837457174085
10334,9.0,300.00351,-7411.3623,0.10333994764708887,0.0,0.0,0.0,0.0,0.01577113713550951,0.959730097995486,0.6043070205904594,0.6888319791624233,0.002342359741747908,-0.014317590709536187,0.14623132224190788
10335,9.0,300.09365,-7409.2362,0.10334995732178642,0.0,0.0,0.0,0.0,0.015772664753395227,0.961928445412446,0.6174095501510785,0.6728848006085594,-0.01135459005161079,0.002990079969497917,0.12153773842734088
10336,9.0,300.70555,-7374.5264,0.10335996699648375,0.0,0.0,0.0,0.0,0.015774192371280943,0.9586115002825891,0.6029295780070164,0.6801308155186854,0.004712639083376266,0.005783160105528464,0.12991262540637788
10337,9.0,299.85114,-7444.7365,0.10336994363595142,0.0,0.0,0.0,0.0,0.0157757149475235,0.9662259126640731,0.6008035665146955,0.6959845116183233,-0.0030976157973108772,0.017575628518329483,0.11709730158660389
10338,9.0,300.13773,-7455.7315,0.10337995331064875,0.0,0.0,0.0,0.0,0.015777242565409216,0.95412879064768,0.6041863323710485,0.7080410934982153,0.013950170011274587,0.006244880748196744,0.14130414031813288
10339,9.0,299.42389,-7468.7608,0.1033899629853463,0.0,0.0,0.0,0.0,0.01577877018329496,0.9641764927468112,0.5949103722105824,0.7112299334179294,0.006768996014797893,-0.009219106798680002,0.13805849759781288
10340,9.0,299.22561,-7503.7715,0.10339993962481375,0.0,0.0,0.0,0.0,0.01578029275953749,0.9719643026179081,0.6068225456862224,0.7021723083890113,0.013645171598673587,-0.008913386952007801,0.15390328722907187
10341,9.0,298.98208,-7519.7382,0.1034099492995113,0.0,0.0,0.0,0.0,0.015781820377423234,0.993317484562803,0.5901860125593245,0.7023091478150163,-0.0025886458839294575,-0.004182817293536926,0.11453459956618489
10342,9.0,299.2468,-7422.7264,0.10341995897420864,0.0,0.0,0.0,0.0,0.015783347995308922,0.974226261876146,0.5775477339295234,0.7045494843161204,0.015006421432268487,-0.012332248728598188,0.11349833855641389
10343,9.0,299.83525,-7459.3774,0.10342996864890597,0.0,0.0,0.0,0.0,0.015784875613194638,0.961671373729575,0.5987706321765605,0.7070224731726854,-0.005699878040059165,0.006850263536418373,0.1099181611830779
10344,9.0,299.98872,-7547.1677,0.10343994528837364,0.0,0.0,0.0,0.0,0.015786398189437195,0.9823799563583531,0.5983389369714555,0.7134316144277183,-0.001138416276902939,0.011970576198153888,0.11586331495231889
10345,9.0,299.84114,-7519.1687,0.10344995496307097,0.0,0.0,0.0,0.0,0.01578792580732291,0.9724834615716451,0.6150726509154444,0.6980834389354713,-0.013911358479444186,0.016565417155379382,0.14478031770120486
10346,9.0,300.24785,-7491.0228,0.10345996463776852,0.0,0.0,0.0,0.0,0.015789453425208655,0.9748306452957941,0.6119245943122554,0.6903286306201314,-0.004036741586245376,-0.002012912820134028,0.14050349035411486
10347,9.0,299.41188,-7535.2675,0.10346994127723597,0.0,0.0,0.0,0.0,0.015790976001451185,0.9913836258194461,0.6031733355835734,0.6959762131000043,0.0018244082781550782,-0.004802490961168956,0.13435603106990787
10348,9.0,299.41617,-7487.1925,0.10347995095193352,0.0,0.0,0.0,0.0,0.01579250361933693,0.9619232474394331,0.6123898686256745,0.7016064588706664,0.01122577252664749,-0.0036887204730733664,0.1292946137728849
10349,9.0,299.95322000000004,-7353.9923,0.10348996062663085,0.0,0.0,0.0,0.0,0.015794031237222617,0.9415206663408552,0.5949767704896355,0.6989325931817764,0.0025230367240543375,-0.008029471033197092,0.14718613820864085
10350,9.0,299.73071,-7395.2821,0.1034999372660983,0.0,0.0,0.0,0.0,0.015795553813465146,0.9301253213437222,0.6018556038285234,0.7160001831662163,0.003938909755965126,-0.017131287951976486,0.13443155873236187
10351,9.0,300.42739,-7407.3911,0.10350994694079585,0.0,0.0,0.0,0.0,0.01579708143135089,0.9486916500810761,0.6049207867060334,0.6980494950571213,-0.004889343416015626,-0.0008200558211257082,0.16316557864568884
10352,9.0,300.75411,-7447.2012,0.1035199566154934,0.0,0.0,0.0,0.0,0.015798609049236634,0.9620528015972191,0.5985761590848674,0.7031342373714463,0.004129109060061336,0.003375469442382897,0.14475135901334688
10353,9.0,300.02866,-7361.3417,0.10352996629019073,0.0,0.0,0.0,0.0,0.01580013666712235,0.9825147186216531,0.5877727953261584,0.6673765400174364,0.014801988092092485,0.012629109729646088,0.13952649434269285
10354,9.0,300.66657000000004,-7288.3775,0.10353994292965818,0.0,0.0,0.0,0.0,0.01580165924336488,0.9433624915776292,0.5815947257564305,0.6905275316147613,0.008204916909212252,0.004964650493922855,0.1179046693987849
10355,9.0,299.33797999999996,-7426.6046,0.10354995260435573,0.0,0.0,0.0,0.0,0.015803186861250623,0.962980421931268,0.5993440304081504,0.6951779138762183,0.014737374146465587,-0.0014211150813031388,0.12208115458847188
10356,9.0,299.07086,-7644.9281,0.10355996227905306,0.0,0.0,0.0,0.0,0.01580471447913631,0.978120769695504,0.6258106195126995,0.7199358694696383,-0.006030860744849614,0.0059235754937863845,0.12995481714054188
10357,9.0,299.49669,-7654.8893,0.10356993891852029,0.0,0.0,0.0,0.0,0.01580623705537884,1.006138675100656,0.6025550807700564,0.7182014690084664,-0.005299752060369805,0.003580266438019786,0.14080907645177387
10358,9.0,299.54976,-7568.6203,0.10357994859321784,0.0,0.0,0.0,0.0,0.015807764673264585,0.997797154447412,0.6128135490224884,0.6900608995462083,-0.014343200605813684,0.005784348850545785,0.13245652150494086
10359,9.0,300.00442000000004,-7362.7806,0.1035899582679154,0.0,0.0,0.0,0.0,0.01580929229115033,0.987515330780175,0.5773177362893245,0.6732683968314174,0.0006716482707165235,0.005193532241786725,0.12871301834798587
10360,9.0,300.60748,-7399.5186,0.10359996794261295,0.0,0.0,0.0,0.0,0.015810819909036045,0.9654160319916442,0.5724580266897085,0.7113948297392033,0.011298566440331689,-0.008120914625571872,0.1125260642904579
10361,9.0,300.01747,-7465.1196,0.10360994458208017,0.0,0.0,0.0,0.0,0.015812342485278574,0.958534290624969,0.6023189023042474,0.7083567614343693,0.015341227636311287,-0.004748208417536685,0.1316748497152959
10362,9.0,300.14714,-7393.815,0.10361995425677772,0.0,0.0,0.0,0.0,0.015813870103164318,0.9482920141091351,0.5813134576611714,0.7179296748016424,0.019860013027780683,-0.007368793160518263,0.1283067151903869
10363,9.0,299.76282000000003,-7505.3365,0.10362996393147528,0.0,0.0,0.0,0.0,0.015815397721050034,0.960831014494138,0.6235279392899163,0.6970759339635384,0.009461725684774621,-0.01017217987391599,0.13884529643296387
10364,9.0,299.44428,-7618.1711,0.1036399405709425,0.0,0.0,0.0,0.0,0.015816920297292536,0.995836485106409,0.6201922692982115,0.6997050342630103,-0.0074207615422471436,0.01050183268795019,0.14304139814458686
10365,9.0,299.85942,-7616.8871,0.10364995024564005,0.0,0.0,0.0,0.0,0.01581844791517828,0.998090703133883,0.6179720559440933,0.6992807256511344,-0.015106959146940784,0.008539064196715023,0.13716793181992087
10366,9.0,299.60444,-7565.1615,0.10365995992033761,0.0,0.0,0.0,0.0,0.015819975533064023,0.9834262282791121,0.6183823513070864,0.6978115940661423,-0.018527830299804482,0.004821378449658006,0.14415898260738386
10367,9.0,299.50948,-7443.1822,0.10366993655980505,0.0,0.0,0.0,0.0,0.015821498109306553,0.9498878728841341,0.6105538493119734,0.7020998103443563,-0.01092248650671549,-0.012061233711101089,0.13100346006653488
10368,9.0,299.9586,-7243.4828,0.10367994623450238,0.0,0.0,0.0,0.0,0.01582302572719227,0.931088638478794,0.5867973799848925,0.6839518931032964,0.0015633955590201286,-0.01109350083209329,0.15188237003712285
10369,9.0,300.32312,-7370.4893,0.10368995590919994,0.0,0.0,0.0,0.0,0.015824553345078013,0.953491729912307,0.6009145477981485,0.6860384283717214,-0.0032921775483876273,-0.006702129614198693,0.13452504118658787
10370,9.0,300.17553,-7416.1269,0.10369996558389749,0.0,0.0,0.0,0.0,0.01582608096296373,0.9744470186754332,0.5936054378042954,0.6862649404315764,0.008814863071909252,0.017690739809190083,0.15106830464178087
10371,9.0,300.67797,-7338.7242,0.10370994222336472,0.0,0.0,0.0,0.0,0.01582760353920623,0.961124380795591,0.5889639518787164,0.6807005660499154,0.008096204191408144,0.012856900511127289,0.12772078305505988
10372,9.0,299.66029,-7459.5939,0.10371995189806227,0.0,0.0,0.0,0.0,0.015829131157091975,0.9639766392970871,0.6025081774229274,0.7010454729528014,-0.0013740331995065187,0.014547504249976886,0.14195377548724686
10373,9.0,299.66884,-7494.5478,0.10372996157275982,0.0,0.0,0.0,0.0,0.01583065877497772,0.9651583422262121,0.5971543969420504,0.7158426633056704,-0.003628744274479176,-0.008859665647605923,0.12420227208280987
10374,9.0,299.79721,-7488.3344,0.10373993821222727,0.0,0.0,0.0,0.0,0.015832181351220248,0.9635732846972792,0.6172676343420724,0.6954257548506784,0.0003753135416380626,-0.013601587658872188,0.13890524030887985
10375,9.0,299.82498,-7526.5285,0.1037499478869246,0.0,0.0,0.0,0.0,0.015833708969105964,0.9923602570608321,0.5931206077639464,0.7023958617585744,-0.0024405704262405476,-0.016770236543843485,0.12015825921119688
10376,9.0,299.98056,-7524.5894,0.10375995756162215,0.0,0.0,0.0,0.0,0.01583523658699168,1.0067880974872492,0.5904671185345675,0.6900320725808634,0.012901268706506088,0.005470515099722806,0.11805499518362089
10377,9.0,300.24537999999995,-7528.6509,0.1037699672363197,0.0,0.0,0.0,0.0,0.015836764204877424,0.995161397094783,0.6011503716264225,0.6922101043333183,0.0039698918029478164,0.008237848246737322,0.12488813094299887
10378,9.0,299.98762,-7496.1758,0.10377994387578715,0.0,0.0,0.0,0.0,0.015838286781119953,0.9800729581331701,0.5907482751723154,0.7078290506497883,0.0023248159242164677,0.019134368902415183,0.1199288593885569
10379,9.0,300.12741,-7566.4804,0.10378995355048448,0.0,0.0,0.0,0.0,0.01583981439900567,0.9677849803279411,0.6162007326492774,0.7160353834746903,-0.01092368518158379,-0.0075352226305185725,0.13426223450815086
10380,9.0,300.10898,-7562.2256,0.10379996322518203,0.0,0.0,0.0,0.0,0.015841342016891413,0.9773274657947111,0.6089407044902684,0.7124595833417864,-0.008754871471913542,-0.003008257574966907,0.13020969007069588
10381,9.0,299.46401000000003,-7541.0692,0.10380993986464948,0.0,0.0,0.0,0.0,0.015842864593133943,0.978445698737572,0.6177202024992373,0.6961308249327633,-0.00017705663969912983,-0.01043766963861779,0.15091531400918187
10382,9.0,299.33011,-7449.1732,0.10381994953934681,0.0,0.0,0.0,0.0,0.01584439221101966,0.97328114271287,0.6099900972213355,0.6810913968784873,-0.017199058171664883,0.001999864894621298,0.14278241141902687
10383,9.0,299.43667999999997,-7377.2145,0.10382995921404437,0.0,0.0,0.0,0.0,0.015845919828905375,0.952954160204253,0.6001854738211944,0.6893493547959844,-0.003105695149633247,0.0097362139209645,0.15179474416847485
10384,9.0,299.9895,-7333.2411,0.10383993585351181,0.0,0.0,0.0,0.0,0.015847442405147932,0.9382518505907481,0.5924713576298705,0.6983989751491123,-0.007755165283350222,0.024059780678265478,0.1299100010886189
10385,9.0,299.41235,-7426.3646,0.10384994552820936,0.0,0.0,0.0,0.0,0.01584897002303365,0.9635931849292431,0.6085667645408634,0.6852694526058294,0.012696290237776289,0.01770979093757028,0.14455833486929684
10386,9.0,299.80037000000004,-7466.2738,0.1038599552029067,0.0,0.0,0.0,0.0,0.015850497640919364,0.9681117534851912,0.5979867515016974,0.7034623074888243,-0.001942127370798048,0.004518717402387686,0.13182019030963987
10387,9.0,300.25512000000003,-7442.7535,0.10386996487760447,0.0,0.0,0.0,0.0,0.015852025258805136,0.99557173298778,0.5898553687866924,0.6769841268031314,0.015653066500337383,-0.023893304700085577,0.13823888651311586
10388,9.0,299.7362,-7591.5238,0.1038799415170717,0.0,0.0,0.0,0.0,0.015853547835047638,0.988434257428366,0.6093324168464274,0.7098670107084193,0.008669263997464743,-0.021872748225172184,0.13059720757144086
10389,9.0,300.08026,-7627.5637,0.10388995119176903,0.0,0.0,0.0,0.0,0.01585507545293338,1.001296859497806,0.5950270074295934,0.7222650274745083,-0.0006727289830081814,-0.013224408348897487,0.12245689812305488
10390,9.0,299.49372,-7589.7492,0.10389996086646658,0.0,0.0,0.0,0.0,0.01585660307081907,0.956225630669622,0.6076344224613485,0.7432341977640042,-0.014257990325404089,0.009410282673222591,0.13263904837795487
10391,9.0,299.9693,-7481.4968,0.10390993750593402,0.0,0.0,0.0,0.0,0.015858125647061655,0.9743465650605191,0.5916548199042845,0.7081868191275973,-0.01110437503216649,0.010655791987644792,0.12592220333255388
10392,9.0,299.94117,-7528.8536,0.10391994718063136,0.0,0.0,0.0,0.0,0.015859653264947343,0.9666251636009761,0.6150214007253865,0.7069369345992433,-0.005795360852632584,0.024124851599687476,0.12470976852789589
10393,9.0,299.69989,-7487.5765,0.10392995685532891,0.0,0.0,0.0,0.0,0.01586118088283306,0.995973172544899,0.5991596999499584,0.6809034187199353,0.00927321769774533,-0.005556381966197205,0.1277089381613909
10394,9.0,299.5748,-7524.5811,0.10393996653002646,0.0,0.0,0.0,0.0,0.01586270850071883,0.973424102169479,0.6046546059047634,0.7092060474031874,0.013902214910541787,0.0024964708263074875,0.12137085613587088
10395,9.0,299.95664,-7489.9891,0.10394994316949369,0.0,0.0,0.0,0.0,0.015864231076961333,0.97193655983017,0.6017437815474874,0.7030893402595154,-0.0014856738047995886,-0.008587850263854831,0.13149358940490688
10396,9.0,299.55446,-7513.5071,0.10395995284419124,0.0,0.0,0.0,0.0,0.015865758694847076,0.957083245554262,0.6035906223722565,0.7232446782011923,-0.0018817773842419682,0.004182623762767826,0.1183903404367169
10397,9.0,299.94588999999996,-7630.5215,0.10396996251888879,0.0,0.0,0.0,0.0,0.015867286312732792,0.98397721341849,0.6103361525279885,0.7251746561966663,-0.012730317202634489,-0.005356100316980945,0.14635963010207087
10398,9.0,299.52993,-7632.1858,0.10397993915835624,0.0,0.0,0.0,0.0,0.01586880888897535,0.9940846263460141,0.6080081293632303,0.7179011518113273,-0.01890754577477948,0.003168586468765137,0.13959377414933286
10399,9.0,299.96257,-7458.8922,0.10398994883305357,0.0,0.0,0.0,0.0,0.015870336506861038,0.9884001311649981,0.5976129939373104,0.6813038551594554,0.0008584825914956351,-0.009994922306722031,0.15317116336931685
10400,9.0,300.30527,-7340.0334,0.10399995850775112,0.0,0.0,0.0,0.0,0.015871864124746782,0.949995601634766,0.5984157615940374,0.6827755198696973,0.01018978205465319,0.0017688310035450284,0.1342743428468459
