,case,Temp,Pressure,e11,e22,e33,e12,e23,e13,s11,s22,s33,s12,s23,s13
0,10.0,300.0,115.35948,0.0,0.0,0.0,0.0,0.0,0.0,-0.03680656319502496,-0.009047801569198492,0.01078796337043909,-0.0012351634229511388,-0.017669497020843583,0.005576842221491475
1,10.0,300.33392000000003,77.58665400000001,0.0,9.99598741935337e-06,0.0,0.0,0.0,0.0,-0.0014581193802551786,-0.018381286977591782,-0.003744999119402637,-0.01051408288165919,0.005674146047144614,0.005587258533844485
2,10.0,300.36924,84.841564,0.0,1.999197483870674e-05,0.0,0.0,0.0,0.0,-0.011682520340474989,-0.008003072423041753,-0.006104124603930194,-0.007039569052601374,0.004236951598679566,0.007776103184741632
3,10.0,300.18331,99.245632,0.0,2.9987962258060108e-05,0.0,0.0,0.0,0.0,0.03208050736309957,-0.032704388754421866,-0.029544311965296572,0.005088629850983665,0.029552990452403075,-0.008635688030226053
4,10.0,298.22892,16.264335,0.0,3.998394967741348e-05,0.0,0.0,0.0,0.0,0.004295627290770406,0.00016960159129337385,-0.009409180662413832,-0.005142476798397946,-0.014157563054992685,-0.002048893027209998
5,10.0,298.73998,301.09485,0.0,5.0012927154119424e-05,0.0,0.0,0.0,0.0,-0.03200608211675437,-0.03328164240264237,-0.026237590528948574,0.001970672449965228,0.005030948967841005,-9.352214120591671e-05
6,10.0,300.12388,382.0483,0.0,6.000891457369484e-05,0.0,0.0,0.0,0.0,-0.07116168328361133,-0.029916382468267073,-0.015055077702070487,-0.0007441842717202693,-0.007399616633860303,-0.0007767857963377892
7,10.0,300.15573,220.83119,0.0,7.000490199282616e-05,0.0,0.0,0.0,0.0,-0.02243113313003048,-0.025543688489465775,-0.019152344972439284,0.010775031259412789,0.009274405936137601,-0.01157499221336279
8,10.0,299.72924,280.8457,0.0,8.000088941195749e-05,0.0,0.0,0.0,0.0,-0.02164615003905868,-0.03725816673809476,-0.026465761279217275,0.007273977269160663,-0.01042542349790919,-0.006886581966377723
9,10.0,300.14757000000003,475.34193,0.0,8.999687683131086e-05,0.0,0.0,0.0,0.0,-0.027424899770876875,-0.03851718672935037,-0.07854998890528034,0.0024668111720303077,0.0005125911577813085,0.0008058226260435013
10,10.0,299.31483,295.20604,0.0,9.999286425066423e-05,0.0,0.0,0.0,0.0,-0.03756082758271506,-0.014797498380899386,-0.037376940928066864,0.012916739009032886,0.0036269828405053367,0.008199145943267701
11,10.0,299.84256,149.89569,0.0,0.0001099888516700176,0.0,0.0,0.0,0.0,-0.03056158770794387,-0.009116991757577032,-0.005885967399099755,-0.00845785645685044,0.01830739166104888,0.023612146035837375
12,10.0,299.77914,226.40951,0.0,0.00011998483908937096,0.0,0.0,0.0,0.0,-0.05298749044095815,-0.004998297793968586,-0.010837047231783291,-0.010412404247374291,-0.012904290218304288,0.02150783532090808
13,10.0,299.38042,208.52621000000002,0.0,0.0001300138165660769,0.0,0.0,0.0,0.0,-0.03186836724266297,-0.021517560495367877,-0.01000083289853036,-0.017293768685012083,0.006304015138607854,0.018729876422744884
14,10.0,300.28684,372.25712999999996,0.0,0.00014000980398543028,0.0,0.0,0.0,0.0,-0.02130932746731688,-0.057609997178914046,-0.034237546599982766,-0.009553165730774051,0.012431794471422588,-0.017223131980790785
15,10.0,300.33361,386.08867999999995,0.0,0.00015000579140478365,0.0,0.0,0.0,0.0,-0.015135128512970884,-0.04172878120656006,-0.060497408366129345,-0.007729417281084093,0.018101561048984985,-0.005587916437134415
16,10.0,299.8884,206.97421,0.0,0.00016000177882391498,0.0,0.0,0.0,0.0,-0.013798799565585487,-0.04002535985394546,-0.00909083115987018,-0.0035243653286777766,-0.015904832805684783,-0.015628053408368786
17,10.0,300.27864,140.24249,0.0,0.00016999776624326834,0.0,0.0,0.0,0.0,-0.013562005043715686,-0.012478416135023788,-0.016589793926285186,0.0055760483400381245,-0.002001898690222018,0.0035357152496729265
18,10.0,300.61188,310.3161,0.0,0.00017999375366239967,0.0,0.0,0.0,0.0,-0.06254401246136344,-0.018406104512291084,-0.013378228833328386,0.025113400688749676,-0.006030202132284614,0.010000834215755492
19,10.0,299.72264,361.07142999999996,0.0,0.00018998974108197508,0.0,0.0,0.0,0.0,-0.02898085574368777,-0.03080333904930287,-0.04997250296015205,0.011673819561866288,0.008795040049602871,0.017735220475329983
20,10.0,299.69722,210.92632000000003,0.0,0.00019998572850132845,0.0,0.0,0.0,0.0,-0.011235366991844388,-0.011119532240412388,-0.04176143521753276,0.002685525360440717,-0.01797002801375368,0.016996633093187087
21,10.0,299.20207,228.02253,0.0,0.0002100147059780344,0.0,0.0,0.0,0.0,-0.00036106295918413966,-0.030164492967253674,-0.038787597849787865,-0.013397957826025488,-0.0040852392824067265,-0.0004285634922259236
22,10.0,300.39409,393.44919,0.0,0.00022001069339738777,0.0,0.0,0.0,0.0,-0.05979664155721904,-0.020563699010229083,-0.039238389779527566,0.015375446105438383,0.003802104679138517,0.024047173820521274
23,10.0,300.31791,394.47346,0.0,0.00023000668081674114,0.0,0.0,0.0,0.0,-0.058508742924863355,-0.03619579427324676,-0.025205544639593576,0.0033253790183893567,-0.00040500852794622964,0.0008989166204461632
24,10.0,300.74512000000004,288.34609,0.0,0.00024000266823587246,0.0,0.0,0.0,0.0,-0.05513303232895665,-0.028524233572872672,-0.003992744949678246,-0.0019755778976743577,-0.018499329600991682,0.009082607824708601
25,10.0,300.54832000000005,216.60241000000002,0.0,0.00024999865565522583,0.0,0.0,0.0,0.0,-0.02618915312116818,-0.014952233830170586,-0.024700337126483476,-0.01917844629501528,-0.014870947867398288,-0.006472602223371104
26,10.0,300.14664,182.28026,0.0,0.0002599946430745792,0.0,0.0,0.0,0.0,-0.007362719840743873,-0.021320096289379684,-0.026725831169134174,0.014742412025962787,0.0037828292171861767,-0.019357384236175085
27,10.0,299.89687999999995,165.30516,0.0,0.00026999063049393257,0.0,0.0,0.0,0.0,-0.006228801482359844,-0.012898728488505385,-0.03112110947941437,-0.0053580817275514945,0.007455281554604003,-0.007738156157896553
28,10.0,299.68655,234.47387999999998,0.0,0.00027998661791328594,0.0,0.0,0.0,0.0,-0.04506340451091176,0.003293249364343407,-0.029504048446072868,-0.006238535269445494,-0.0040711358542648264,0.005862386029522454
29,10.0,299.48028,121.55991999999999,0.0,0.0002900155953899919,0.0,0.0,0.0,0.0,-0.029872430718679368,0.004821815971051186,-0.01190056669574449,-0.003388960056864317,-0.0038749794501806967,0.02412194053215018
30,10.0,300.04199,103.24467,0.0,0.00030001158280934526,0.0,0.0,0.0,0.0,-0.03992938581772356,0.01014584651706709,-0.0016002621572835784,0.010232713461390189,0.0027223809142780772,0.009000855564240282
31,10.0,299.75813,327.80931,0.0,0.0003100075702286986,0.0,0.0,0.0,0.0,-0.03397724366254287,-0.018716042519129582,-0.046952560686356955,0.016567044435039983,0.007730523446218262,0.029618631833631368
32,10.0,300.47783,453.35352,0.0,0.00032000355764782995,0.0,0.0,0.0,0.0,-0.04240507194605476,-0.04303381592460696,-0.052369259945443544,-0.005868843168434724,-0.015126722590141285,-0.008519645157223511
33,10.0,300.03375,299.13555,0.0,0.0003299995450671833,0.0,0.0,0.0,0.0,-0.016146263960012182,-0.03322787935233636,-0.04155559548621796,0.004350431050254116,-0.005152040156816776,-0.0016232367927009983
34,10.0,300.36989,188.60896,0.0,0.0003399955324865367,0.0,0.0,0.0,0.0,-0.03759172157826406,-0.026707095161535074,0.006966403985405544,-0.01215638296174159,0.010708389800335791,-0.02281815515147658
35,10.0,300.61122,237.21476,0.0,0.00034999151990589006,0.0,0.0,0.0,0.0,-0.033946692145527674,-0.027302571099553974,-0.01085809952911099,0.017172506966044485,0.009543174172862962,-0.004838032633601646
36,10.0,300.99065,64.585061,0.0,0.00035998750732524343,0.0,0.0,0.0,0.0,-0.03388028981347427,0.0017582324074990282,0.012489811145648387,-0.006309282823227734,-0.005082422376896035,0.001149101303182469
37,10.0,299.91045,69.150242,0.0,0.0003700164848019494,0.0,0.0,0.0,0.0,0.003016118673217737,-0.009220133322356312,-0.014815932439968685,-0.007847681299630843,-0.006309011069550914,-0.0029019423082244067
38,10.0,300.27675,197.49761999999998,0.0,0.00038001247222130274,0.0,0.0,0.0,0.0,-0.008734734646051191,0.005549575863950495,-0.05684918516907774,0.003719423977603567,0.01163248098428649,0.015118353144315286
39,10.0,299.08831000000004,172.35151000000002,0.0,0.00039000845964043407,0.0,0.0,0.0,0.0,-7.337880115867383e-05,-0.02377099629376468,-0.028546180570038677,0.003203585748419297,0.015063474505649184,-0.005686562819170056
40,10.0,299.39389,264.66949,0.0,0.00040000444705978744,0.0,0.0,0.0,0.0,-0.04017989265319666,-0.009883580407558441,-0.030389444621954673,0.010357880246243189,0.002076075994267748,0.016009040512219283
41,10.0,299.43132,505.70250999999996,0.0,0.00041000043447936285,0.0,0.0,0.0,0.0,-0.07459363837931893,-0.038286263991810066,-0.04084103327719617,0.008854525328523611,-0.005346845695867585,0.006640750064216004
42,10.0,299.94502,380.62457,0.0,0.0004199964218984942,0.0,0.0,0.0,0.0,-0.06083367770331655,-0.039280721342205366,-0.015585968065465285,0.006192645071091484,0.02162277739900198,0.015624839379051585
43,10.0,300.01155,143.81861,0.0,0.00042999240931784755,0.0,0.0,0.0,0.0,0.002147501108391858,-0.013251890731359788,-0.032612876058390264,-0.003843096522534096,-0.0028981599469261174,0.0021862928818453076
44,10.0,301.10462,255.02802999999997,0.0,0.00043998839673697887,0.0,0.0,0.0,0.0,-0.018148837272150782,-0.025099270916105178,-0.03427404285533467,-0.011838992500417589,-0.007043990470737733,-0.0034048263375301966
45,10.0,300.08304,169.57716000000002,0.0,0.00044998438415633224,0.0,0.0,0.0,0.0,-0.00959200938263262,-0.01217586978766479,-0.02977934343199237,-0.0024044973041304077,-0.007719864460466303,-0.005662824395827255
46,10.0,300.36559,43.396566,0.0,0.00046001336163326023,0.0,0.0,0.0,0.0,-0.016659369757651782,0.0037238066895861066,-0.00025590959646381076,0.007511730021650034,0.023758699490551077,-0.009529222428261031
47,10.0,299.63677,79.216302,0.0,0.00047000934905239156,0.0,0.0,0.0,0.0,-0.030078052601222677,0.003455211313327807,0.0025430632069807974,-0.008829685299672091,0.014749859414197786,0.004032763262377746
48,10.0,299.72429,124.5742,0.0,0.0004800053364717449,0.0,0.0,0.0,0.0,-0.02229043626089478,0.0028724528799640276,-0.018449463510570283,-0.00975503848662234,0.00039788010071020865,0.004652143290130795
49,10.0,299.98307,193.75791,0.0,0.0004900013238913203,0.0,0.0,0.0,0.0,-0.0047672702863679455,-0.021196608459942378,-0.03293368927855207,-0.00014555904093305886,-0.001912518986975928,0.002082909859567198
50,10.0,299.7318,386.97002000000003,0.0,0.0004999973113104517,0.0,0.0,0.0,0.0,-0.018544658357465285,-0.034479769102638266,-0.06460479597849694,0.012034112045674387,0.01026631992745689,0.003979985800444017
51,10.0,299.11646,420.10767999999996,0.0,0.000509993298729805,0.0,0.0,0.0,0.0,-0.046901505040318155,-0.027896235346394075,-0.05290450525776816,0.010248646819212691,-0.006891563509169364,-0.0009148422674354022
52,10.0,299.63251,200.8807,0.0,0.0005199892861489364,0.0,0.0,0.0,0.0,-0.029552362237341073,-0.013140058317822787,-0.018370296253757083,-0.003807258981072207,-0.012826372298864387,0.009185849093297721
53,10.0,299.60544,39.2128,0.0,0.0005299852735682897,0.0,0.0,0.0,0.0,-0.028225166726357075,0.0064582821623578235,0.00984717250761526,-0.004816401061191776,-0.01836934278541298,-0.0068379337012515135
54,10.0,299.81641,160.41298999999998,0.0,0.0005400142510452177,0.0,0.0,0.0,0.0,-0.02958557049611847,0.004461423175483186,-0.023637395215079276,0.018088797137475285,0.01212850743824049,0.025957625473318178
55,10.0,300.11348,83.601326,0.0,0.000550010238464349,0.0,0.0,0.0,0.0,-0.0048284665394075455,-0.003308581763531597,-0.017275666971975585,-0.004176299764918696,-0.004109129389289496,-0.005069502526195945
56,10.0,299.15684,-35.555595000000004,0.0,0.0005600062258837024,0.0,0.0,0.0,0.0,0.008897692518558882,0.021988868713132378,-0.02007854776959838,-0.005955839200820564,-0.014403220475487186,0.011571657607283688
57,10.0,299.1644,142.33706999999998,0.0,0.0005700022133030558,0.0,0.0,0.0,0.0,-0.0067606434902485624,-0.006558482870046864,-0.02994779018161677,-0.009524695632114272,-0.01790606457469098,-0.005661814084152545
58,10.0,299.94131,308.33411,0.0,0.0005799982007224092,0.0,0.0,0.0,0.0,-0.05387899651494294,-0.017644849712161084,-0.02220202309691908,0.019190036862909182,0.0019076970310750382,0.013314922993580587
59,10.0,299.84294,244.74642999999998,0.0,0.0005899941881417625,0.0,0.0,0.0,0.0,-0.049904081220649356,-0.004178513716387196,-0.02031420745135618,0.02238929603340148,-0.0067811299887204236,0.008492001161370262
60,10.0,299.88131,374.45383,0.0,0.0005999901755608938,0.0,0.0,0.0,0.0,-0.048123234388143456,-0.03319995113983007,-0.03250142969314137,-0.009085669866510802,-0.00976026898496355,-0.0004675831557593645
61,10.0,299.57381000000004,319.7027,0.0,0.0006099861629802472,0.0,0.0,0.0,0.0,-0.019304598972215585,-0.020426936591231678,-0.05745010327338375,-0.005720715528365665,-0.015346733637354684,0.011661279578628688
62,10.0,299.73682,139.18934,0.0,0.0006200151404571752,0.0,0.0,0.0,0.0,-0.008616091773292053,-0.016973810647934684,-0.016720180975653382,-0.007216174694680994,0.021551346306702277,-0.015139060936608986
63,10.0,299.81318,143.2759,0.0,0.0006300111278763065,0.0,0.0,0.0,0.0,-0.011575733912435989,-0.01085596663765049,-0.02112059545069048,-0.0018554800990966283,0.020137283851395182,-0.002882157485446797
64,10.0,300.53493,149.96903999999998,0.0,0.0006400071152956599,0.0,0.0,0.0,0.0,-0.047579638881744754,0.0035749985507498865,-0.0015822027981012585,-0.014390865917017884,-0.005230130430098685,-0.004100714144558976
65,10.0,300.50717000000003,-12.891005,0.0,0.0006500031027150133,0.0,0.0,0.0,0.0,-0.014892321365007684,0.002215527579030548,0.016595337417582283,-0.01130902622111399,-0.012262195656434488,0.005355068321754095
66,10.0,299.99685,11.81997,0.0,0.0006599990901343666,0.0,0.0,0.0,0.0,-0.0047601761171178055,0.014476286953448287,-0.013309086673004587,0.002584812150851098,0.007071355417513443,-0.00836672717465668
67,10.0,299.70563,208.07879,0.0,0.00066999507755372,0.0,0.0,0.0,0.0,-0.004276382530296096,-0.01083447965602989,-0.04813989424628765,0.015358519762517885,-0.008350992819153821,0.011270143761776591
68,10.0,299.94385,198.22143,0.0,0.0006799910649728513,0.0,0.0,0.0,0.0,-0.016349089272279484,-0.013263252304731087,-0.030642022540632172,0.0004308046595921096,-0.006660992572063784,-0.005545818124629635
69,10.0,299.41507,253.91212000000002,0.0,0.0006899870523922047,0.0,0.0,0.0,0.0,-0.02061968614450458,-0.011998977598456887,-0.044564280551402054,0.0037499739747436167,-0.011154454918358989,-0.003079873281434827
70,10.0,299.65625,232.31259,0.0,0.0007000160298691327,0.0,0.0,0.0,0.0,-0.053953029633499454,-0.013090212492403388,-0.003573985503299906,-0.0002568452620036537,0.014964573189888386,0.007804295348898982
71,10.0,299.39457999999996,92.23743,0.0,0.0007100120172884861,0.0,0.0,0.0,0.0,-0.021616557056638078,0.002282290729444558,-0.008703609122854342,0.004630059808176325,0.008491375074133473,0.0066374047176858434
72,10.0,299.68385,73.31093100000001,0.0,0.0007200080047076174,0.0,0.0,0.0,0.0,-0.02123127174586338,0.004360607728958476,-0.005414027926522954,-0.007549316534109533,-0.0060910025085101445,0.008039311312868253
73,10.0,299.91174,164.19024,0.0,0.0007300039921269708,0.0,0.0,0.0,0.0,-0.0004724181927190455,-0.016851929833155983,-0.032585383543426966,-0.003328782626800267,-0.0025498221930978573,-0.0007332160319052884
74,10.0,300.36051000000003,155.50965,0.0,0.0007399999795463241,0.0,0.0,0.0,0.0,-0.02858827908519347,0.0035042252604151063,-0.022186994571435876,-0.0023534420633916477,0.014963906471322588,-0.002443826708086918
75,10.0,300.42068,105.70275,0.0,0.0007499959669656775,0.0,0.0,0.0,0.0,-0.01189052842700379,-0.002024983769900338,-0.018215484810728384,-0.000849928126201375,0.005233123976194125,-0.0071038550091709046
76,10.0,299.90954,91.158287,0.0,0.0007599919543850309,0.0,0.0,0.0,0.0,-0.04048012068432686,0.0038233747239127067,0.008946902934840571,-0.015872155489959787,-0.014522922802550884,-0.0027834375414538975
77,10.0,299.54393999999996,183.01641,0.0,0.0007699879418041622,0.0,0.0,0.0,0.0,-0.028611875653522273,0.004816129408839965,-0.031836671766284866,0.010562303453918188,-0.006940363660485563,0.011086155782118388
78,10.0,299.89256,219.80611000000002,0.0,0.0007799839292235156,0.0,0.0,0.0,0.0,-0.013689203395019188,-0.014984531177108087,-0.03814183329605586,0.004887730321856425,0.027261081547709273,0.015349938547420984
79,10.0,299.9025,241.86167000000003,0.0,0.0007900129067004436,0.0,0.0,0.0,0.0,-0.00991076540111639,-0.017374779043757182,-0.046234363949226455,0.007038560463451833,0.012807917974793089,0.008953942185935293
80,10.0,299.97504,241.44817,0.0,0.0008000088941195749,0.0,0.0,0.0,0.0,-0.024185210908144475,-0.012858461929531387,-0.03635054086826907,-0.017235305167492183,-0.00098786393947708,0.0070238736059023525
81,10.0,300.10103,130.56965,0.0,0.0008100048815389282,0.0,0.0,0.0,0.0,-0.03309369261509317,-0.02119877580190628,0.014602555141159988,-0.009873221749136121,-0.004683159686291876,-0.004304808957876566
82,10.0,299.38445,230.72224,0.0,0.0008200008689580596,0.0,0.0,0.0,0.0,-0.05017643980777905,-0.008451040931377803,-0.011506321214335489,0.012783240268607589,0.014449422653546987,0.014238985806528487
83,10.0,299.91225,309.31134,0.0,0.000829996856377635,0.0,0.0,0.0,0.0,-0.05083278471905525,-0.03045013222344407,-0.012740006913340788,-0.0027588509264523872,-0.01008572430913349,-0.0009270985305125011
84,10.0,299.87203999999997,151.94765,0.0,0.0008399928437969884,0.0,0.0,0.0,0.0,-0.015012337799602385,-0.005008149422040865,-0.026167803941561176,0.0003779367245569507,-0.019879801802233678,0.010306715169193589
85,10.0,299.84251,19.083854000000002,0.0,0.0008499888312161197,0.0,0.0,0.0,0.0,0.014568700428818786,-0.0002391110345134218,-0.02013060450673598,0.001082427622752289,-0.021375292075327082,-0.01080709758532749
86,10.0,299.81641,144.46018999999998,0.0,0.000859984818635473,0.0,0.0,0.0,0.0,-0.009096501408754792,-0.012806320079385387,-0.02200946910091548,0.012819020156138788,0.02044865662037528,0.00906627068672125
87,10.0,299.68734,216.29721,0.0,0.000870013796112401,0.0,0.0,0.0,0.0,-0.034938860563947065,-0.0032692485092247073,-0.027540842940069574,0.006954357252316624,-0.002167247326340658,-0.007245892306863894
88,10.0,300.36172999999997,180.76793,0.0,0.0008800097835315324,0.0,0.0,0.0,0.0,-0.03603115937049857,-0.01190453863613649,-0.007013238228877723,-0.006592428470922035,-0.016673748789820884,0.01857489779344968
89,10.0,300.39339,62.264982999999994,0.0,0.0008900057709508857,0.0,0.0,0.0,0.0,-0.0075675741863364225,-7.160157770852553e-05,-0.01128782396277149,0.0072138922475057324,-0.012747054067786288,0.008462967391679852
90,10.0,300.09184,68.423025,0.0,0.0009000017583700171,0.0,0.0,0.0,0.0,0.0037127851629483663,0.0059018312479653945,-0.030413507285329475,0.011059677530505189,0.01906407265022748,0.037958068231419666
91,10.0,300.15545,164.53067,0.0,0.0009099977457895925,0.0,0.0,0.0,0.0,-0.01173056156746629,-0.016954102933489684,-0.021328551861464182,0.008375227937695642,0.0066119455930232236,-0.006396974350482213
92,10.0,299.95401,310.42255,0.0,0.0009199937332089458,0.0,0.0,0.0,0.0,-0.04278206988426155,-0.011966128030214887,-0.03961250400794976,-0.01139013993136929,-0.010777293846886091,0.01323025784172479
93,10.0,299.72934,138.58337,0.0,0.0009299897206280772,0.0,0.0,0.0,0.0,-0.032158374620034465,-0.01178268619236059,0.0018151773670940581,-0.0019445137774335682,0.0005303450321909796,-0.010903883234879489
94,10.0,300.01465,39.36926,0.0,0.0009399857080474305,0.0,0.0,0.0,0.0,-0.024732756063432976,-0.001200845959289269,0.013966329323869386,0.0069129927355342635,0.01920253023664218,0.0044261684554788155
95,10.0,299.59779,155.17829,0.0,0.0009500146855241365,0.0,0.0,0.0,0.0,-0.012777632942554188,-0.012155504473904887,-0.022237185915139377,0.0099288753214787,0.003020496521599797,0.0005445935172171954
96,10.0,299.73685,227.41092999999998,0.0,0.0009600106729434899,0.0,0.0,0.0,0.0,-0.018672755461607484,-0.010339711658700089,-0.04011477816202036,-0.01092248549346539,-0.019293385333358882,0.01978619269174518
97,10.0,300.0939,126.33326000000001,0.0,0.0009700066603628432,0.0,0.0,0.0,0.0,-2.5604296044197275e-05,-0.005864114228893014,-0.03251243865547787,-0.004846993006885965,-0.025855638811002873,0.009464000836549162
98,10.0,300.44174,61.1723,0.0,0.0009800026477819745,0.0,0.0,0.0,0.0,-0.016267370651714484,0.01048188483323149,-0.012809365909185988,0.0068512326088140145,0.016582071947273083,0.01789054867590968
99,10.0,300.27067999999997,179.11698,0.0,0.000989998635201328,0.0,0.0,0.0,0.0,-0.03613419272016717,-0.008648674552782721,-0.009664221488109402,0.00042288508667800854,0.005008068767332905,-0.0008828677318472611
100,10.0,300.10745,315.50271000000004,0.0,0.0009999946226209033,0.0,0.0,0.0,0.0,-0.06327390514439823,-0.007262585804911413,-0.025368453977421476,0.0039560966054863365,0.0031146163101386974,0.006588287216438324
101,10.0,300.14365,181.74522,0.0,0.0010099906100400347,0.0,0.0,0.0,0.0,-0.018939330417166382,-0.012674830613908386,-0.023631848684031877,-0.008555699331556782,0.012225574771320288,0.001245678425863889
102,10.0,299.67113,-14.753182999999998,0.0,0.001019986597459388,0.0,0.0,0.0,0.0,-0.005424084940390505,0.01123602155140899,-0.0013273369606979588,0.001922274862913758,0.027938815155346373,0.018898752790411682
103,10.0,299.90018,25.341816,0.0,0.001030015574936094,0.0,0.0,0.0,0.0,0.0023198664001279875,0.017032983440524584,-0.027056128410231972,-0.0050630654496356545,-0.0023647777988853977,0.005950265413345474
104,10.0,299.62282000000005,156.4529,0.0,0.0010400115623554473,0.0,0.0,0.0,0.0,-0.03232079658456427,-0.01853855656536308,0.003301577570890337,-0.01075287147972579,-0.024506545952107776,-9.483512487099811e-05
105,10.0,299.62854,322.20676000000003,0.0,0.0010500075497748007,0.0,0.0,0.0,0.0,-0.05236343983686915,-0.029741778197784972,-0.015837592515798683,0.00936223911575606,-0.015906195627069287,0.006390427538936094
106,10.0,299.28389,214.2762,0.0,0.001060003537193932,0.0,0.0,0.0,0.0,-0.04661301449834636,-0.005250866390745164,-0.013270733130219385,0.008111225928115673,0.014041234850761987,0.006003869079410744
107,10.0,299.85471,65.335383,0.0,0.0010699995246135074,0.0,0.0,0.0,0.0,-0.0022548208099584877,-0.008713828864687951,-0.008891675332840033,-0.0012596088922137187,0.006110782163712245,0.005353221268146805
108,10.0,299.88494,112.95073000000001,0.0,0.0010799955120326388,0.0,0.0,0.0,0.0,-0.011615863682646489,0.009437120729946302,-0.03215545949949677,-0.012932818274869789,-0.014860941009410685,0.015411155065462586
109,10.0,300.10526,165.09731000000002,0.0,0.0010899914994519921,0.0,0.0,0.0,0.0,-0.011745114878652589,-0.012455239052236387,-0.025985106842530373,0.0056472933996194645,0.00999819287539481,0.01843613319225468
110,10.0,300.2967,61.276731999999996,0.0,0.0010999874868713455,0.0,0.0,0.0,0.0,-0.02404241559805168,0.0038234519335703264,0.0015923673178044185,0.025264336450145874,0.017509010364004783,0.0030364235972716773
111,10.0,300.14763,-25.868589,0.0,0.0011100164643480515,0.0,0.0,0.0,0.0,-0.012758396389405688,0.014139811926490787,0.006481990289522634,0.0008135377757499271,0.004271255282140077,-0.0015520386465992886
112,10.0,299.6525,2.0313477,0.0,0.0011200124517674048,0.0,0.0,0.0,0.0,-0.02089583631350848,-0.005771260800329094,0.026049618449897175,-0.013923143591357287,-0.023313951597657877,-0.026191537298653474
113,10.0,299.97733,143.40282,0.0,0.0011300084391867582,0.0,0.0,0.0,0.0,-0.014985739984477386,-0.012193799248184287,-0.016411337278922883,-0.015124049636377486,-0.0013489322587542487,-0.0005969428100561685
114,10.0,300.78102,141.99957,0.0,0.0011400044266061116,0.0,0.0,0.0,0.0,-0.02038923558151088,-0.003647542799609447,-0.019127544662991682,-0.009212442044822241,0.027289141482728572,0.0011067123905490089
115,10.0,300.37414,158.20408,0.0,0.001150000414025465,0.0,0.0,0.0,0.0,-0.008709705747381032,-0.01916323943751448,-0.02021714619777698,-0.01077849150850429,0.003464360353780747,0.0009290507797451731
116,10.0,300.14926,141.91338000000002,0.0,0.0011599964014445963,0.0,0.0,0.0,0.0,-0.03431203973408467,-0.002326588605266418,-0.006499496414150354,-0.015042196253549184,-0.02934592975471777,0.014464549464289884
117,10.0,299.22837999999996,39.617096999999994,0.0,0.0011699923888639496,0.0,0.0,0.0,0.0,-0.012655353920486187,-0.0032763486566504373,0.0038890940240736967,0.0034084781922156067,-0.00950338992093656,-0.0009963959308841221
118,10.0,299.33578,143.8259,0.0,0.001179988376283303,0.0,0.0,0.0,0.0,-0.03066640843078887,0.008219215995948461,-0.02127229114966168,0.029433199972580672,0.006130077789341573,0.026315164956604575
119,10.0,299.95743999999996,131.5756,0.0,0.0011899843637024343,0.0,0.0,0.0,0.0,-0.020722038590105983,0.012935196372854488,-0.03220885575326657,0.003382463806498187,-0.0075290744315617926,0.0036880175814789965
120,10.0,299.70799999999997,10.829569000000001,0.0,0.0012000133411791403,0.0,0.0,0.0,0.0,-0.00012712208396847287,0.0026299318738290675,-0.005794728381920165,-0.012699306683323988,-0.016352157393582284,0.01930577839533198
121,10.0,299.65317000000005,11.043543,0.0,0.0012100093285987157,0.0,0.0,0.0,0.0,-0.013903641566682588,0.027052774552400974,-0.016506093388524587,-0.005318083274553955,0.0012286921998624788,0.009280286434417962
122,10.0,299.69747,178.11813,0.0,0.001220005316018069,0.0,0.0,0.0,0.0,-0.029748792928227265,-0.011281093955607288,-0.013113577026459287,0.01004857319024196,0.028087596747029972,0.017200147415522383
123,10.0,300.27189,254.24694,0.0,0.0012300013034374224,0.0,0.0,0.0,0.0,-0.04394552721883586,-0.014595141190178287,-0.018744053818144084,0.0025431275483621474,0.006340862079819364,-0.0014029776005381085
124,10.0,300.68697000000003,185.12581,0.0,0.0012399972908565537,0.0,0.0,0.0,0.0,-0.029763136496642868,0.006093697956426164,-0.03260418439903247,0.0018721292167897681,-0.016602221438761684,0.017585209811275083
125,10.0,300.0951,-14.332425,0.0,0.0012499932782759071,0.0,0.0,0.0,0.0,-0.002359321953721948,0.012145962697713187,-0.005429941221993475,-0.004857305461103725,0.010561303376069489,0.017064526929387685
126,10.0,299.58216,-3.2976611000000005,0.0,0.0012599892656952605,0.0,0.0,0.0,0.0,0.007964948989354263,0.028089796512997076,-0.035052338495646464,0.02372128117760818,0.025871042239023076,0.02119675335470668
127,10.0,299.72972000000004,185.77868999999998,0.0,0.0012699852531146139,0.0,0.0,0.0,0.0,-0.02894602020524977,0.0013328825798202685,-0.028858946557906273,-0.013485880576952788,0.005273768173480395,0.02291681936671398
128,10.0,299.23172999999997,242.21635,0.0,0.0012800142305910978,0.0,0.0,0.0,0.0,-0.028837119124252072,-0.02071200133461538,-0.02407860382537318,-0.02160568589631518,-0.027991489975044973,0.0045562507192169355
129,10.0,299.64445,-7.3156761,0.0,0.0012900102180106732,0.0,0.0,0.0,0.0,-0.020512036427380382,0.026108507532459073,-0.003372688577483447,-0.009370339645005521,-0.00998931082634322,0.015778658850232385
130,10.0,300.21896,-36.848844,0.0,0.0013000062054300265,0.0,0.0,0.0,0.0,0.009308724007749531,-0.008452173339689562,0.01034457728568029,0.016332369632379384,0.007464975926260764,0.006262669062977314
131,10.0,300.33833,174.50238000000002,0.0,0.00131000219284938,0.0,0.0,0.0,0.0,-0.014809629011096587,0.0010164447762402889,-0.03925118206204006,0.01053432153915659,-0.009589673334527071,0.008462846612267932
132,10.0,300.78171000000003,213.14581,0.0,0.0013199981802685112,0.0,0.0,0.0,0.0,-0.029216332027177473,-0.0035437097929619265,-0.03203096145970977,0.006767604518435563,-0.02168334138397918,0.005269646373398605
133,10.0,301.22738,-19.974747,0.0,0.0013299941676876426,0.0,0.0,0.0,0.0,-0.007775692615801112,0.005879320681093775,0.007968196354599753,0.005372057688830814,0.018219106166585782,-0.004281336715335036
134,10.0,301.05349,-51.844359999999995,0.0,0.001339990155107218,0.0,0.0,0.0,0.0,-0.02290237649978858,0.027495710754115374,0.01116605663200399,0.01046506994782199,0.025862541070684076,0.0037445752768858064
135,10.0,300.62846,158.90788999999998,0.0,0.0013499861425265713,0.0,0.0,0.0,0.0,-0.030905457434131173,-0.01179392313596959,-0.005604650566510944,-0.012900020382382887,0.006243311021141823,0.0034023979823405368
136,10.0,300.17426,219.45962000000003,0.0,0.0013600151200030552,0.0,0.0,0.0,0.0,-0.028940774609482075,-0.012950178288833089,-0.02481928964847318,-0.016734222595539184,-0.02292553939707458,0.0016349360823306287
137,10.0,299.72143,91.70213000000001,0.0,0.0013700111074226307,0.0,0.0,0.0,0.0,-0.003326960195170406,0.008263463715890373,-0.03281166154250887,-0.012462201093673488,-0.006152373243216964,0.028129679050183178
138,10.0,299.70477,4.9512246,0.0,0.001380007094841984,0.0,0.0,0.0,0.0,-0.01111069062003979,0.006906959337813813,0.0026986828182892575,0.002976628669120377,0.014055228847893089,0.005132136581127445
139,10.0,300.349,63.919734,0.0,0.0013900030822613374,0.0,0.0,0.0,0.0,-0.019123370072579682,0.01967770906978868,-0.01998434185480098,0.0002068709666040748,0.005343975968934365,0.017021761695667086
140,10.0,300.08416,122.5534,0.0,0.0013999990696804687,0.0,0.0,0.0,0.0,-0.04371226083381426,0.0012824852423714388,0.005176603163090956,-0.004771990815933825,-0.003974448996597576,-0.013490963039454386
141,10.0,299.97328,164.99432,0.0,0.0014099950570996,0.0,0.0,0.0,0.0,-0.03287649738990767,-0.007237256274936583,-0.01004039980831031,0.018052223875115785,0.018435763355968183,0.012079928175446088
142,10.0,299.48843,-100.74795999999999,0.0,0.0014199910445189534,0.0,0.0,0.0,0.0,0.0033052007505979166,0.03490095589095617,-0.007581291971490263,0.02199143527563568,0.017854714072873083,0.005290661079147595
143,10.0,299.48867,-111.4077,0.0,0.0014299870319385288,0.0,0.0,0.0,0.0,0.023982985439936377,0.012242921613032288,-0.0023607488125127673,0.006260621183200204,-0.016438328235086685,0.021621225099848776
144,10.0,299.86056,166.83616999999998,0.0,0.0014400160094152348,0.0,0.0,0.0,0.0,-0.020597997526114083,-0.0024480184224256077,-0.02766801393362037,-0.005344897823875344,-0.043521173010705363,-0.004532322919430446
145,10.0,299.8992,219.35615,0.0,0.0014500119968345881,0.0,0.0,0.0,0.0,-0.041019149472524864,0.007140593228646683,-0.032800236134381267,-0.004593865805329256,0.0016605950199129684,0.022835201057908875
146,10.0,299.98093,40.482951,0.0,0.0014600079842537195,0.0,0.0,0.0,0.0,-0.02033711196986668,-0.00957976384987408,0.01761106998032728,0.0010060600063628922,0.018944501032426682,-0.010720124249743888
147,10.0,300.45876,22.1448,0.0,0.0014700039716732949,0.0,0.0,0.0,0.0,-0.02427869944187108,0.027856636519235974,-0.01030940332170889,-0.011190019996868989,0.014007401416672886,0.021589779896245376
148,10.0,300.2143,-7.2938407000000005,0.0,0.0014799999590924262,0.0,0.0,0.0,0.0,-0.0005164174434714335,0.014282084399531988,-0.011548521054500289,-0.006945218243039674,-0.007674951440508733,0.0014432174097094685
149,10.0,300.3529,47.574791999999995,0.0,0.0014899959465115575,0.0,0.0,0.0,0.0,-0.004460670229333876,0.008094962960035642,-0.018095841252170484,0.005777555819225365,0.014447076979565486,0.017254752476661483
150,10.0,300.59225,132.71556999999999,0.0,0.001499991933931133,0.0,0.0,0.0,0.0,-0.017138792082217084,0.014194666247154488,-0.03739809455040456,0.008841968424009342,0.00890227109178575,0.005181984737022075
151,10.0,299.87297,16.386235,0.0,0.0015099879213502643,0.0,0.0,0.0,0.0,-0.02046144586313748,-0.0015175215726677186,0.016997961464068186,-0.0100344245711456,-0.015696469068370883,-0.011103930215372591
152,10.0,300.05782999999997,-70.18164200000001,0.0,0.0015199839087698397,0.0,0.0,0.0,0.0,-0.01938440862959218,0.02599931058243218,0.014718564171609185,-0.014555070188473589,-0.020557761364643084,-0.005019878703873455
153,10.0,299.39512,43.493563,0.0,0.0015300128862465456,0.0,0.0,0.0,0.0,-0.021937176746030778,0.015522643987215687,-0.006806424966866843,-0.003644864576945127,0.016167680014125784,0.001722692052291468
154,10.0,299.18037000000004,70.271211,0.0,0.001540008873665677,0.0,0.0,0.0,0.0,0.006336754769214004,-0.004402532978346176,-0.02329491566802918,0.010719671326949188,0.023339418625671276,0.019894852619219083
155,10.0,299.39134,-88.187111,0.0,0.0015500048610850303,0.0,0.0,0.0,0.0,0.006624371484299563,0.05261024121672655,-0.032427932583887764,0.0014262618851860886,-0.009382616487192151,0.02580990475448927
156,10.0,299.43797,-51.002511,0.0,0.0015600008485043837,0.0,0.0,0.0,0.0,0.007978156501757743,0.012540766479927289,-0.0050154327650846755,0.005292705108574326,-0.021789770134732878,0.01455781102999409
157,10.0,299.2991,43.010525,0.0,0.001569996835923737,0.0,0.0,0.0,0.0,-0.04255005081011305,0.026488275696439273,0.002987648979857997,0.011229453664260789,0.0048518440430647255,0.013740329968564988
158,10.0,300.16852,122.0928,0.0,0.0015799928233430904,0.0,0.0,0.0,0.0,-0.025788582932634974,0.007218778240812942,-0.018543359370837082,0.005284806925369835,0.022364034695158377,0.010980481902689188
159,10.0,300.35438999999997,134.97946000000002,0.0,0.0015899888107622218,0.0,0.0,0.0,0.0,-0.026218017576766874,-0.014423635438501987,-0.00038873283344494357,-0.02106273076397968,-0.002696689046067487,-0.012190195117578588
160,10.0,300.33921000000004,144.11065,0.0,0.0015999847981817972,0.0,0.0,0.0,0.0,-0.01165086742060109,0.014527666839519088,-0.04668283958923755,-0.014397741832196486,-0.0044276606689010855,0.016896352744040184
161,10.0,299.77633,16.394254,0.0,0.0016100137756585031,0.0,0.0,0.0,0.0,-0.015102659926766486,0.018758479459817783,-0.008639264195128992,-0.016746603498511085,0.020196909566779782,0.008325281091241272
162,10.0,300.11204,-98.25591,0.0,0.0016200097630776344,0.0,0.0,0.0,0.0,0.004100561650418926,0.033088848266365066,-0.0073220664228816935,0.007915697941743561,0.014327339188748288,0.02048099247081658
163,10.0,299.74293,-77.436465,0.0,0.0016300057504969878,0.0,0.0,0.0,0.0,-0.037907108844140364,0.03427958533338167,0.027166274775602572,-0.0009104859100879632,-0.02107240628918458,0.004207176940516036
164,10.0,300.2254,61.025786,0.0,0.0016400017379163412,0.0,0.0,0.0,0.0,-0.02147689167610418,0.005741336383800784,-0.0028147599391451774,0.021422166038203183,-0.021358154976385775,0.01120272412662279
165,10.0,299.6753,-68.106255,0.0,0.0016499977253356946,0.0,0.0,0.0,0.0,-0.008733797288383681,0.026076522266552372,0.0033598759286439365,0.025543045075652276,0.013325357443110385,-0.0013368723534140287
166,10.0,298.96099,-60.221157999999996,0.0,0.001659993712755048,0.0,0.0,0.0,0.0,0.016276281173093883,0.016589010683957885,-0.014559563952667087,0.005333148783665806,0.02323537607890308,0.022301293235716276
167,10.0,299.65692,129.57602,0.0,0.0016699897001741792,0.0,0.0,0.0,0.0,-0.016392069315021286,0.004714318140116975,-0.027710122581276173,-0.015297857492280987,-0.012245822548068589,0.01096169219283479
168,10.0,300.17778,76.719026,0.0,0.0016799856875935326,0.0,0.0,0.0,0.0,-0.021264712038913683,0.015708456830303984,-0.017764413223961082,-0.012541624702761989,-0.014995721511212486,0.014806435246781387
169,10.0,300.33217,-87.990189,0.0,0.0016900146650704606,0.0,0.0,0.0,0.0,-0.022183859575626477,0.021198160759095582,0.027732519461486575,0.0014754246787130785,0.0017644971302173084,-0.01054307500677049
170,10.0,300.43112,-29.288383000000003,0.0,0.001700010652489592,0.0,0.0,0.0,0.0,-0.01813583524686758,0.022080150388141182,0.0049586223651029255,0.0003199558180596807,-0.003088510326612237,0.0003459741149224867
171,10.0,299.70405,-121.13141,0.0,0.0017100066399089453,0.0,0.0,0.0,0.0,0.013192504142998789,0.02040878522894028,0.003219635326028267,-0.01039994431089459,-0.020551037436979478,-0.007074586469432322
172,10.0,300.26966,-55.63385,0.0,0.0017200026273282987,0.0,0.0,0.0,0.0,0.0088592682509167,0.0011417974924866389,0.006910235378037133,-0.007840437979965982,-0.0002236487062649088,0.0007309822916623353
173,10.0,300.26957999999996,60.733031000000004,0.0,0.001729998614747652,0.0,0.0,0.0,0.0,-0.007892228131002273,0.021820719859037378,-0.03238981614162597,0.01842425283483218,0.03124514142415537,0.02307147679572748
174,10.0,299.41825,-48.634595000000004,0.0,0.0017399946021670054,0.0,0.0,0.0,0.0,-0.018730528955809282,0.02750314193034877,0.006011089398298334,0.00956531733524832,0.04461883697653636,0.019940418476216082
175,10.0,299.93677,107.09862,0.0,0.0017499905895861367,0.0,0.0,0.0,0.0,-0.025411044932124875,-0.006715509480444182,-0.0004287528484046116,-0.012884339323835288,-0.0096408184505497,0.024828097831592476
176,10.0,300.44195,251.20267,0.0,0.00175998657700549,0.0,0.0,0.0,0.0,-0.047660610736986055,0.0026661060169741774,-0.03136483260546797,-0.004691409365956056,-0.013290867422956487,0.007857821906631644
177,10.0,300.48067000000003,230.69271,0.0,0.001770015554482418,0.0,0.0,0.0,0.0,-0.03130105155142327,-0.012956066285164186,-0.025867706619693873,0.0050185164904390156,-0.008759695555639642,0.025885915737240976
178,10.0,300.32079,65.703338,0.0,0.0017800115419015494,0.0,0.0,0.0,0.0,-0.01090763529999979,0.02049541507273998,-0.02955995452034037,0.01057854787952139,-0.0042547982766658965,0.017629753298921184
179,10.0,299.37622999999996,46.653262,0.0,0.0017900075293209028,0.0,0.0,0.0,0.0,-0.007024019007291703,0.007218442044429763,-0.014375849550535887,-0.00977624064363983,-0.023237841316396377,0.02577308831210577
180,10.0,299.54071,52.816192,0.0,0.0018000035167402562,0.0,0.0,0.0,0.0,-0.029841305702107572,0.015256843154733185,-0.0014703411016363686,7.425290162244084e-06,-0.0015037178639053985,0.0065867075595324245
181,10.0,299.96791,1.0632919,0.0,0.0018099995041596095,0.0,0.0,0.0,0.0,-0.015203967711514785,0.017736428269449184,-0.0028556746742081475,0.02072776345317098,0.013928026443589188,0.010337698330751391
182,10.0,299.77867000000003,-53.2434,0.0,0.001819995491578963,0.0,0.0,0.0,0.0,0.0005703119629779086,0.008331689290173713,0.0072826629503428735,-0.0033091530339379766,0.008486059665433882,0.005537268421610844
183,10.0,299.81968,104.68321999999999,0.0,0.0018299914789980942,0.0,0.0,0.0,0.0,-0.005145444303965815,0.00034348108397894367,-0.027019121476829677,-0.007900693835587773,-0.018043311327236182,0.018932649046006982
184,10.0,300.22256,66.659812,0.0,0.0018399874664174476,0.0,0.0,0.0,0.0,-0.0038955459954104566,-0.0007872904337020163,-0.015580082095634386,-0.01962278888786848,0.006084410404684555,0.0025396146102654475
185,10.0,300.88524,7.0599024,0.0,0.0018500164438943756,0.0,0.0,0.0,0.0,-0.008311092550090972,0.012040873463591688,-0.005875814937072785,0.004845365119275306,0.024449204102448576,0.017876560758279182
186,10.0,300.90558,138.15563,0.0,0.001860012431313507,0.0,0.0,0.0,0.0,-0.04846120091924816,0.017559937327280884,-0.01109459716870149,0.0004231379533729646,0.013473685098749187,0.015696413339615384
187,10.0,300.29748,34.127278999999994,0.0,0.0018700084187328603,0.0,0.0,0.0,0.0,-0.024570569172926375,0.0037497271470192566,0.01044700167203879,-0.009546054336272211,-0.01018088875852549,0.0005022012912559086
188,10.0,300.0529,-79.452212,0.0,0.0018800044061522136,0.0,0.0,0.0,0.0,0.0018440180113154085,0.013824610085382785,0.008482860226918121,-0.0012018722803155588,-0.013478671302491288,-0.01006033094440236
189,10.0,300.04004,36.679972,0.0,0.001890000393571345,0.0,0.0,0.0,0.0,-0.01180527862984029,0.015425206817849384,-0.014769723169158184,0.012943918429715288,-0.0059010144670597845,0.01072573765529789
190,10.0,300.20501,-71.362831,0.0,0.0018999963809909204,0.0,0.0,0.0,0.0,0.004131734897695486,0.02193002016057448,-0.004369236566810077,0.003980465574366366,-0.003432025212614517,0.011885376050245288
191,10.0,300.62666,-216.04667999999998,0.0,0.0019099923684100517,0.0,0.0,0.0,0.0,-0.002143454187492458,0.03590053116760657,0.03191571743308607,-0.00972225883263724,-0.032778290150465364,-0.0014302190321266288
192,10.0,299.9393,-46.362425,0.0,0.001919988355829405,0.0,0.0,0.0,0.0,-0.014898205308338386,0.015857630549776285,0.013133593782184788,-0.015905460007496684,0.0023667112827262175,0.014093906630710288
193,10.0,300.11249,16.599946,0.0,0.0019299843432487584,0.0,0.0,0.0,0.0,-0.031168503239591767,0.012470503664992888,0.013652031301850588,0.004847828532918426,0.025233284387581274,-0.0027905364729795073
194,10.0,300.00981,-28.832691999999998,0.0,0.0019400133207254644,0.0,0.0,0.0,0.0,0.01038908328307269,0.023331363287376276,-0.024956027749468177,0.004854383045165305,0.023588384307742277,0.02371097034459058
195,10.0,299.67666,17.046472,0.0,0.0019500093081448178,0.0,0.0,0.0,0.0,0.0035908656420158462,0.0045980672468689055,-0.013370634523828886,-0.0007995041098774122,-0.0035976925158896066,0.0007202040159761024
196,10.0,299.39898,99.66554599999999,0.0,0.001960005295564171,0.0,0.0,0.0,0.0,-0.004726493454643586,0.013847873294428686,-0.03941721626317636,0.002338987746740118,-0.006126497672763244,0.036423457385215366
197,10.0,299.66357,-83.821777,0.0,0.0019700012829833025,0.0,0.0,0.0,0.0,-0.014491025689402885,0.032857783673810766,0.007112969295145414,0.01119875522598109,0.01246243008819609,0.00934528916410823
198,10.0,299.77407,-12.133608,0.0,0.001979997270402878,0.0,0.0,0.0,0.0,-0.019107841001547082,0.012242097840700988,0.010554056611354291,-0.001148384023436679,0.003695234252666226,0.02525173972490268
199,10.0,299.9715,158.99313,0.0,0.001989993257822009,0.0,0.0,0.0,0.0,-0.05613784914837435,0.015962786658404383,-0.008154879174223913,-0.01028686661298469,-0.02179317972131938,0.0036602977945182666
200,10.0,299.93136,69.542547,0.0,0.0019999892452413626,0.0,0.0,0.0,0.0,-0.002263166849707178,-0.007583694387477363,-0.011292336978716889,-0.016793274811367182,0.0037066290606408065,0.0030679924173872774
201,10.0,300.06318999999996,-171.44168,0.0,0.002009985232660716,0.0,0.0,0.0,0.0,0.015328469804302185,0.02590716561833818,0.010878353385359888,0.005294442629845805,0.0028395410981658874,0.0011247525993044389
202,10.0,300.20695,-0.67411943,0.0,0.002020014210137644,0.0,0.0,0.0,0.0,0.0005424909624646895,0.02242490670816598,-0.02276248212473208,0.007406332759498133,0.00920959633191639,0.02485791980853568
203,10.0,300.64156,-2.3288737999999998,0.0,0.0020300101975569973,0.0,0.0,0.0,0.0,-0.022813693811286277,0.01114658703133249,0.01237502612131999,-0.01022480808410999,-0.012088501284542188,0.006187196217353723
204,10.0,299.76103,-131.65881000000002,0.0,0.0020400061849761286,0.0,0.0,0.0,0.0,-0.004364526271070206,0.032872812199293965,0.01151270468996549,0.012649322042640887,-0.0007629161249939593,0.007193086575252374
205,10.0,300.15307,21.781865,0.0,0.00205000217239526,0.0,0.0,0.0,0.0,-0.027195249675462177,0.016271425678614684,0.004302681031341556,0.003737708886258147,0.02185981206114548,0.006746252400403274
206,10.0,300.26658,86.186518,0.0,0.0020599981598146133,0.0,0.0,0.0,0.0,-0.002035712061959138,0.01148642908837229,-0.035649266421058666,0.016388030500122684,0.02342443942831218,0.018806042432761884
207,10.0,300.94779,0.29552116,0.0,0.0020699941472339667,0.0,0.0,0.0,0.0,0.007229903017635873,0.028181932357840174,-0.035501666278991664,0.0004326145877157355,-0.01962966986929758,0.011097340036722188
208,10.0,300.89461,75.83204,0.0,0.00207999013465332,0.0,0.0,0.0,0.0,-0.006833150856804484,0.01069974171073229,-0.026917637386563976,-0.005820227327311714,-0.00902666973173794,0.017382724951041383
209,10.0,300.04421,26.334296000000002,0.0,0.0020899861220726734,0.0,0.0,0.0,0.0,-0.029999038345174568,0.027053313601454177,-0.005059243976883505,0.011427418415798389,-0.005546321811254345,0.02149090999123768
210,10.0,299.9918,-227.9466,0.0,0.0021000150995493794,0.0,0.0,0.0,0.0,-0.0078121187542460925,0.04467778786735436,0.032424406473539766,-0.0019109908031751082,0.0018511042772147682,0.012688968492553687
211,10.0,300.38218,-115.72558000000001,0.0,0.002110011086968955,0.0,0.0,0.0,0.0,0.0015374993182643683,0.009569271037138522,0.024070915283614377,-0.01096174082883959,-0.001970363408684728,0.003100751401070337
212,10.0,299.33887000000004,-6.606948200000001,0.0,0.002120007074388086,0.0,0.0,0.0,0.0,-0.01001160911731889,0.03102480005740937,-0.019004844128882082,-0.00018097616466345682,0.008044766347431622,0.008104248687927073
213,10.0,299.65182999999996,-68.92796899999999,0.0,0.0021300030618072174,0.0,0.0,0.0,0.0,0.009565277514519391,0.01886886089921158,-0.007481756867791914,0.0069685074926131435,0.023594436450589576,0.006863693457218804
214,10.0,300.10434,-109.90602,0.0,0.002139999049226571,0.0,0.0,0.0,0.0,0.0023326904986936277,0.02862182678275437,0.0024541674319824677,-0.0007837212399597642,0.012341607106521789,0.00990595226049137
215,10.0,299.7384,61.736229,0.0,0.002149995036645924,0.0,0.0,0.0,0.0,-0.028135326906240574,0.021900847676945376,-0.01253179212379159,0.0017474369369585984,-0.02128876153003718,0.03464702629664527
216,10.0,300.55066,96.359603,0.0,0.0021599910240654996,0.0,0.0,0.0,0.0,-0.032023376269461175,-0.005434566810024985,0.008167030170748121,-0.002568347748651188,-0.022410234846717978,-0.005799446479685805
217,10.0,300.05088,63.293184,0.0,0.002169987011484631,0.0,0.0,0.0,0.0,-0.02178409998717328,0.015188245109713085,-0.012643693438335386,0.018240470544944282,-0.0026376876953945073,0.023135504069546477
218,10.0,300.30025,64.79626,0.0,0.002180015988961337,0.0,0.0,0.0,0.0,-0.013850629334700685,0.016901862798083984,-0.02274767854077108,-0.0064362009095535735,0.004444454884008546,0.0014921157449603584
219,10.0,300.50549,-119.34198,0.0,0.0021900119763806902,0.0,0.0,0.0,0.0,0.025043643485615177,0.01960036059690498,-0.008367022739710852,-0.004582220724579976,-0.0038859746323158363,0.016046880337203785
220,10.0,299.88942000000003,-270.84809,0.0,0.0022000079638000436,0.0,0.0,0.0,0.0,0.029673828632828872,0.04635266596465196,0.006304563002936925,-0.014389465605379686,0.005611067175419215,0.003847760107444356
221,10.0,299.22561,-48.031379,0.0,0.002210003951219175,0.0,0.0,0.0,0.0,-0.018747751167758984,0.019921074518556982,0.013427016825643387,0.0021981989758203483,0.01927870739241028,0.01294595303591609
222,10.0,299.59661,-9.278545900000001,0.0,0.0022199999386385283,0.0,0.0,0.0,0.0,-0.03626964500678526,0.03366687705091207,0.005423213747954525,0.0017416465166121284,4.366129536703436e-05,0.025693735630524274
223,10.0,299.78407000000004,-182.65138000000002,0.0,0.0022299959260578817,0.0,0.0,0.0,0.0,-0.003210042988656577,0.02950651165706597,0.029224990249281973,-0.009278339271700792,-0.012596602639937888,0.0010761836716610589
224,10.0,300.66582999999997,23.494412,0.0,0.002239991913477457,0.0,0.0,0.0,0.0,-0.01870160978470518,0.010723401100567291,0.0008364933620654671,-0.0025520929878969675,-0.007371037306839743,0.009417407746600782
225,10.0,300.12262999999996,200.45425,0.0,0.0022499879008965884,0.0,0.0,0.0,0.0,-0.03663346968044196,0.013448892895302385,-0.03774850784573766,0.014086174519197187,0.013435323449963186,0.014691956223983187
226,10.0,300.22542000000004,66.949837,0.0,0.0022600168783732943,0.0,0.0,0.0,0.0,-0.016182057019794683,0.013618182669009988,-0.017787205271710484,-0.001820321435201738,0.005051546721173845,0.03216652115083847
227,10.0,299.99825,8.184197099999999,0.0,0.0022700128657926477,0.0,0.0,0.0,0.0,-0.01919204005835688,0.02040964243852488,-0.0037053941114189265,0.001987164412567858,-0.02122212716371088,0.007730501256041072
228,10.0,299.75806,-6.3162833,0.0,0.002280008853212001,0.0,0.0,0.0,0.0,-0.025651508432606773,0.031915082125273365,-0.004343581378253105,-0.0004930339413736616,-0.01036265062771399,0.03205349816843397
229,10.0,299.69659,-158.50216,0.0,0.0022900048406311324,0.0,0.0,0.0,0.0,0.006010399071005204,0.027267607891603374,0.014902692993031288,0.0001082436640678179,0.004244277700877596,0.005469168490339905
230,10.0,299.82087,-156.3308,0.0,0.0023000008280504858,0.0,0.0,0.0,0.0,0.015061972869000987,0.03726850391561497,-0.004809815746141855,0.01004589790600293,-0.005562567351432656,0.010445237603614689
231,10.0,299.46719,-101.80243,0.0,0.002309996815469839,0.0,0.0,0.0,0.0,0.006785723659373784,0.03627167252023537,-0.012112000580861388,-0.02284924571754498,-0.014500965672883885,0.002159911395616658
232,10.0,299.17537999999996,-138.89403000000001,0.0,0.0023199928028891925,0.0,0.0,0.0,0.0,0.014268651742956285,0.01944351961392598,0.008508146288463662,0.0023750435422735475,-0.0030997811127745772,0.002898574568867037
233,10.0,299.15832,-172.72189,0.0,0.002329988790308546,0.0,0.0,0.0,0.0,-0.011846744876932687,0.044417573082673155,0.019932314501916282,-0.006503655400510813,0.025347955927898475,0.004484102955121506
234,10.0,300.38689,161.3649,0.0,0.002339984777727677,0.0,0.0,0.0,0.0,-0.03530535109861686,-0.004411273071058756,-0.009334275946121311,0.008545592871084352,0.023916295344854576,0.020855655880792977
235,10.0,299.97869,110.00411000000001,0.0,0.002350013755204605,0.0,0.0,0.0,0.0,-0.03821423609520146,0.014803585987500185,-0.01002785293497203,-0.0043901069857448256,-0.009059793080156961,0.00948964751380529
236,10.0,300.15377,-75.318772,0.0,0.0023600097426239586,0.0,0.0,0.0,0.0,0.007404414879708852,0.02717922613838077,-0.011688615039826489,0.015793887999235385,0.0006205206940531244,0.009183343021825392
237,10.0,300.18655,-34.603494,0.0,0.00237000573004309,0.0,0.0,0.0,0.0,-0.008064153874845022,0.022143485612141876,-0.0035607332052420065,0.0066421357850527645,0.01080170405504519,0.00970456444614094
238,10.0,300.16631,-30.813865999999997,0.0,0.0023800017174626653,0.0,0.0,0.0,0.0,-0.003930459452781147,0.035582472974466664,-0.02228536697064448,0.003985173843606036,-0.0023637215869811577,0.027674892888549275
239,10.0,300.21792,-185.72013,0.0,0.0023899977048817966,0.0,0.0,0.0,0.0,-0.001131484936943869,0.04053686775617736,0.017048898559845285,-0.02873018780144877,-0.01117410183779799,0.015910240521468486
240,10.0,300.44229,-105.04761,0.0,0.00239999369230115,0.0,0.0,0.0,0.0,-0.003202354446897777,0.025201803720224375,0.00993240153315171,-0.003204774797411647,-0.008954458335536231,0.014706701039438384
241,10.0,299.66098,-8.0336378,0.0,0.0024099896797205034,0.0,0.0,0.0,0.0,-0.014810806407712785,0.034878159790206364,-0.017625328435734482,-0.002385665544396858,0.012076004871058888,0.017384581225224585
242,10.0,300.1037,-88.12912,0.0,0.0024199856671396347,0.0,0.0,0.0,0.0,-0.006767322226957703,0.02257390108237058,0.01098247293913569,-0.0006915221379129214,-0.0045191631311066755,0.015679249896171487
243,10.0,300.13557000000003,-46.633555,0.0,0.0024300146446165627,0.0,0.0,0.0,0.0,-0.0014396194599293787,0.030597317946220174,-0.014982262510134185,-0.0006177780793449494,-0.012024200433196188,0.019485349617804282
244,10.0,299.63473,47.097558,0.0,0.002440010632035694,0.0,0.0,0.0,0.0,-0.03801554383009206,0.02104937511441158,0.0026496877176538174,0.0057761105192827246,0.006419356639891175,0.015320982899313286
245,10.0,299.28954,-28.059569,0.0,0.0024500066194552694,0.0,0.0,0.0,0.0,-0.02203865779654618,0.03193702810918927,-0.0013689627946811085,0.024472853359782578,0.023378867491814576,0.02180522929150858
246,10.0,299.90911,-121.15723999999999,0.0,0.002460002606874623,0.0,0.0,0.0,0.0,-0.016061810577427286,0.03873582482267826,0.014154761418466185,-0.0013681281805737386,0.007411471153405253,0.008662624068234431
247,10.0,299.4963,-96.046031,0.0,0.002469998594293754,0.0,0.0,0.0,0.0,0.005343756600287714,0.026037632714464274,-0.0021857937548460478,-0.0042886411339809255,-0.015610625506648787,0.0035411144541557865
248,10.0,299.69753,-127.83653999999999,0.0,0.0024799945817131075,0.0,0.0,0.0,0.0,0.00021288155606477376,0.03952367541143306,-0.0008774417978267632,-0.0058369696640140556,-0.028095265023786772,-0.009497015057932412
249,10.0,300.02837,-123.76638,0.0,0.002489990569132239,0.0,0.0,0.0,0.0,0.026542547398295473,0.01173946600934509,-0.0006601255804468223,0.007378438997495233,0.008185470613293052,0.0013012998781782989
250,10.0,300.0113,-101.8461,0.0,0.002499986556551592,0.0,0.0,0.0,0.0,-0.014812796430909186,0.03242898028449117,0.013342487449300989,0.004156390312378786,-0.007017696124017682,0.002244162938781638
251,10.0,300.12331,-115.8123,0.0,0.00251001553402852,0.0,0.0,0.0,0.0,-0.0019236162033961382,0.03373523292915827,0.0033924303371318065,-0.0013072671106672186,0.002058974460404958,0.026013716972353978
252,10.0,300.67044,-228.54643,0.0,0.0025200115214476515,0.0,0.0,0.0,0.0,0.01122145810772169,0.024268899286903876,0.03398204849451707,-0.012376347399450387,0.0058189586368615044,0.003563527343717767
253,10.0,300.12445,-126.09747,0.0,0.002530007508867005,0.0,0.0,0.0,0.0,0.005134064289442695,0.03875764313708157,-0.005561226517575324,0.02074016259464468,0.012061716018148688,0.027474059625978577
254,10.0,300.28144,-5.424721099999999,0.0,0.0025400034962865803,0.0,0.0,0.0,0.0,-0.028499516349933272,0.030047344030441972,0.00010115232887820761,0.0003361753582404247,0.0012390131653810788,0.012762812133341487
255,10.0,299.83338,-131.65139,0.0,0.0025499994837057116,0.0,0.0,0.0,0.0,0.00021606298912625683,0.03437504970480326,0.005427621791189564,-0.0075206112601015436,-0.012370656986888788,0.0018357308413975285
256,10.0,299.62868,-133.54012,0.0,0.002559995471125065,0.0,0.0,0.0,0.0,-0.02555716370254568,0.04797760603077105,0.01817241965497818,-0.009091831136393872,-0.01219610236566159,0.0022507940527360776
257,10.0,300.14147,-7.4740687,0.0,0.0025699914585441963,0.0,0.0,0.0,0.0,-0.02000383577347488,0.030521718343009072,-0.008245952018387102,-0.007546980992629034,0.02152702526455198,0.017027929349025785
258,10.0,299.9399,-163.12079,0.0,0.0025799874459637717,0.0,0.0,0.0,0.0,-0.005390086853160155,0.046559429780057955,0.008415303397700783,-0.005423984223330564,-0.004450046606010405,0.017580513397061584
259,10.0,299.74104,-162.26568999999998,0.0,0.0025900164234404777,0.0,0.0,0.0,0.0,0.010298758116158291,0.045236518290496755,-0.0062105572050342745,-0.009593690263223511,-0.01337573319833209,0.023885227070288378
260,10.0,300.15258,-91.05030500000001,0.0,0.002600012410859609,0.0,0.0,0.0,0.0,0.001136265856215709,0.03584342540522067,-0.00930267216887726,0.0019254781517798981,-0.0028535371217971875,0.017513845593481982
261,10.0,300.14884,-204.24767,0.0,0.0026100083982789624,0.0,0.0,0.0,0.0,0.019167505220435484,0.03465667142434717,0.008262015376197432,0.01933129101959988,-1.3331482539964888e-05,0.004084039188988286
262,10.0,300.45325,-161.97566,0.0,0.0026200043856985378,0.0,0.0,0.0,0.0,-0.018998019889458585,0.037744952351136764,0.03048962465934167,0.012839710723180789,-0.0006178821806602235,0.011499352080147688
263,10.0,300.65971,53.03088399999999,0.0,0.002630000373117669,0.0,0.0,0.0,0.0,-0.02061886237217328,0.0009622941881685421,0.0035365041662007864,-0.01323705472339559,-0.0064928820188225635,0.0062473057596610735
264,10.0,300.2609,35.690366999999995,0.0,0.0026399963605370225,0.0,0.0,0.0,0.0,-0.01028334658213729,0.013657954761935187,-0.014223588458008887,-0.013958992379895287,0.001128191266168809,0.02172980295406458
265,10.0,299.85483,-133.55405,0.0,0.002649992347956154,0.0,0.0,0.0,0.0,0.017003827168897086,0.02143638092385608,0.002156889985143468,-0.016228267303855282,0.016725822752210184,-0.002347718416226768
266,10.0,300.25655,-108.29333999999999,0.0,0.002659988335375507,0.0,0.0,0.0,0.0,0.014949702731420786,0.03438561182384567,-0.016416845306466483,0.0005484173812395815,0.004939239701290006,0.017297925036922283
267,10.0,299.52974,-130.73944,0.0,0.0026699843227950826,0.0,0.0,0.0,0.0,-0.00023991095493736776,0.04812248964931995,-0.008141051755409252,-0.005627203689886765,-0.004381479769093386,-0.003492113274019747
268,10.0,299.77704,-198.17898,0.0,0.0026800133002717885,0.0,0.0,0.0,0.0,-0.006851805297770534,0.041526369300333564,0.025566897996256374,0.014133140687832385,0.0036120848216350167,0.0028229799305814272
269,10.0,299.95567,-195.18569,0.0,0.00269000928769092,0.0,0.0,0.0,0.0,-0.009938669700920331,0.06006675680862735,0.009203488055013552,0.003686714845825426,0.008205854874829822,0.005377843448226825
270,10.0,300.03683,-164.64356999999998,0.0,0.0027000052751102732,0.0,0.0,0.0,0.0,-0.008912751238895062,0.05152024147465195,0.007440043894300164,0.0014265732569418187,-0.001199222327329029,0.03076793609080887
271,10.0,299.49234,-172.45802,0.0,0.0027100012625296266,0.0,0.0,0.0,0.0,0.007549130906691212,0.04124319629488656,0.0036306061215379266,-0.0019464042994701482,-0.008694126520468482,0.027004043302091576
272,10.0,299.74459,107.55293,0.0,0.00271999724994898,0.0,0.0,0.0,0.0,-0.023179348414623577,0.017252657075454682,-0.02676671479741908,-0.002091328144048018,-0.014345276755268588,0.03777184400879076
273,10.0,299.80364,240.64198,0.0,0.0027299932373681113,0.0,0.0,0.0,0.0,-0.04701542373581105,-0.0012603963901914388,-0.024873332355806774,0.0010852922834350088,-0.0069412233018704035,0.028290811147335674
274,10.0,300.4078,-10.881999,0.0,0.0027399892247874647,0.0,0.0,0.0,0.0,-0.038106396900308565,0.02916978230433337,0.012244470872435189,0.0025283483837285578,-0.014420814550223586,0.031697898045838974
275,10.0,300.56296000000003,-132.06791,0.0,0.002749985212206818,0.0,0.0,0.0,0.0,-0.011998569258666589,0.03689470784772417,0.015249209328479786,-0.005045420307094215,-0.01103656934872459,0.014106660409718988
276,10.0,299.98277,-18.608278,0.0,0.002760014189683746,0.0,0.0,0.0,0.0,-0.035537756221053464,0.04165780709005546,-0.00046359940087119857,-0.0002458797376989408,0.001069609299712219,0.030514996441845674
277,10.0,300.16315,-153.29514,0.0,0.0027700101771028773,0.0,0.0,0.0,0.0,0.01705533877748088,0.044481205188953155,-0.014938648172829787,0.0027634745893087074,0.02246801239392018,0.004739689719970955
278,10.0,300.46702999999997,-442.33502000000004,0.0,0.0027800061645222307,0.0,0.0,0.0,0.0,0.05120679458271715,0.06476393906570314,0.01848806631288008,-0.01003999481224534,0.002869223955870357,-0.0007824759150568601
279,10.0,300.62511,-328.89241,0.0,0.002790002151941584,0.0,0.0,0.0,0.0,0.03149841747215177,0.046082642919002756,0.022394018792117578,0.0020711470391562977,-0.004451390175643006,-0.011525274057455988
280,10.0,300.05388,-141.83664,0.0,0.0027999981393609374,0.0,0.0,0.0,0.0,-0.013391454786883685,0.03346942196417477,0.02303682972180808,-0.003139780882997247,-0.01067063306185949,-0.006053964873629814
281,10.0,299.65182000000004,-69.606306,0.0,0.002809994126780291,0.0,0.0,0.0,0.0,0.0003117995701872217,0.0017649136773334186,0.01908186532198348,0.0025175959763173777,-0.004841494605218316,-0.004601594674442036
282,10.0,299.80861,-19.116384,0.0,0.002819990114199422,0.0,0.0,0.0,0.0,-0.02372222350020118,0.025483322088258077,0.004049804710509606,-0.01062432854553959,-0.016119217275092884,0.014302972550343485
283,10.0,299.84985,-95.738052,0.0,0.0028299861016187755,0.0,0.0,0.0,0.0,0.027745925773559676,0.017615575903521984,-0.016259525056190185,0.005752421643869814,0.004011965898775206,0.038826880542914756
284,10.0,300.24079,-182.58556000000002,0.0,0.0028400150790957035,0.0,0.0,0.0,0.0,0.0034474195213838165,0.035790739439770965,0.016263293333312084,0.005426582297911975,0.011985618909138488,0.012459634531170187
285,10.0,299.93604,-30.044629999999998,0.0,0.002850011066514835,0.0,0.0,0.0,0.0,-0.015412763093371286,0.03855848680342636,-0.014012905391216088,0.02185074347275048,0.014666133545184687,0.04229134171508046
286,10.0,299.82686,-25.466073,0.0,0.002860007053934188,0.0,0.0,0.0,0.0,-0.04634574749296916,0.033027016705512766,0.02105978017968848,-0.012385741241127488,-0.007836742352876251,0.01803727539639048
287,10.0,300.32972,-188.34152,0.0,0.0028700030413533195,0.0,0.0,0.0,0.0,0.0024604763324051074,0.05429329928208145,0.0004973443680940675,-0.0059942240530338545,-0.010671647325209591,0.022713522893150182
288,10.0,301.02006,-248.20578999999998,0.0,0.002879999028772895,0.0,0.0,0.0,0.0,-0.0012605852600100788,0.059025404217103845,0.017683543706979884,-0.019774686223609582,0.0017660042384160482,0.010587975158451791
289,10.0,300.83341,-56.825299,0.0,0.0028899950161922483,0.0,0.0,0.0,0.0,0.01810017188309788,0.03835862220795126,-0.03918532181879016,0.0027022744859187273,0.018352147931215982,0.01931804784079288
290,10.0,300.48337999999995,-45.554669,0.0,0.0028999910036113796,0.0,0.0,0.0,0.0,-0.019804726049324282,0.049199026337315856,-0.015546819121351585,-0.016606399068923985,-0.0028592488126108874,0.02734147889014387
291,10.0,300.13604,-97.738136,0.0,0.002909986991030733,0.0,0.0,0.0,0.0,-0.0035548027537317165,0.024243268112374275,0.009021487869401532,-0.01079688402431949,-0.012938109466891988,0.012969878910527387
292,10.0,299.84041,-90.053324,0.0,0.002920015968507661,0.0,0.0,0.0,0.0,-0.04018592453104196,0.03341702376175346,0.03414286141788807,0.004188041509727516,-0.003209303214758567,0.027363386370555978
293,10.0,300.60432000000003,-163.85436,0.0,0.0029300119559267923,0.0,0.0,0.0,0.0,-0.007955626075184163,0.03954409949369876,0.018219160882091183,0.016583474285411483,0.005876315786597214,0.017632205364163184
294,10.0,299.81462,-204.1762,0.0,0.0029400079433461457,0.0,0.0,0.0,0.0,-0.0017086243918780983,0.03395722488031717,0.029815867045096974,0.017063402221776682,-0.0029443935357390174,0.008514481229413872
295,10.0,299.6723,-71.876611,0.0,0.002950003930765277,0.0,0.0,0.0,0.0,0.015136309962587484,0.028939603292366473,-0.02222721756065558,-0.0040326420776657865,-0.004858820979278295,0.012813848527628386
296,10.0,299.28711,-171.49873,0.0,0.0029599999181848524,0.0,0.0,0.0,0.0,0.0066001515645092435,0.03091796803311587,0.014613212505711787,-0.012034577127470289,-0.0023150126281739577,-0.0004523454042630155
297,10.0,299.78598,-300.53237,0.0,0.002969995905604206,0.0,0.0,0.0,0.0,0.024838618407380775,0.03936920948668846,0.02714650829265177,-0.0095390496370059,0.002605991003116288,-0.011864530455937989
298,10.0,300.01697,-201.20878000000002,0.0,0.002979991893023337,0.0,0.0,0.0,0.0,-0.005340322999673844,0.04157751917863166,0.024925248251180476,-0.0016913678307500083,-0.007614228983215893,-0.006584676905007014
299,10.0,299.87752,-215.72352999999998,0.0,0.0029899878804426905,0.0,0.0,0.0,0.0,0.015179704424620185,0.03682419476001506,0.013570668332070684,0.002163735198844038,-0.017196626371424883,-0.0052334967509059145
300,10.0,299.62209,-245.60403,0.0,0.0030000168579196185,0.0,0.0,0.0,0.0,0.02194280940333668,0.04056173190038126,0.012152952096902987,0.008372512630077662,0.0019006897986834784,0.003400064163385207
301,10.0,300.73023,-184.89643999999998,0.0,0.00301001284533875,0.0,0.0,0.0,0.0,0.033686314227580366,0.033483890162352675,-0.01096630248078979,-0.003486490242589797,0.009204047875693802,0.014465221249106186
302,10.0,301.06795,-73.467512,0.0,0.003020008832758103,0.0,0.0,0.0,0.0,-0.009856604650146141,0.02222007921370108,0.00996881490464543,0.0012415656437079889,0.003170041698558757,0.03884940711913796
303,10.0,300.6823,-70.60566,0.0,0.0030300048201772345,0.0,0.0,0.0,0.0,-0.021973429821358678,0.04391226829755346,-0.00047648102164501554,-0.01890698544747418,0.002173698892377378,0.04559395442227296
304,10.0,299.56709,12.312097,0.0,0.00304000080759681,0.0,0.0,0.0,0.0,-0.03779045842637786,0.023890198075278975,0.01015769039748599,-0.011991441044213088,0.01005813887913602,0.03423081152656807
305,10.0,299.6969,122.30028999999999,0.0,0.0030499967950161633,0.0,0.0,0.0,0.0,-0.040336706278422965,0.03335964442184057,-0.030199170438676072,-0.006087588868923244,0.009269198235923641,0.042142794184169954
306,10.0,300.2047,29.098664000000003,0.0,0.0030599927824352946,0.0,0.0,0.0,0.0,-0.020160488291935282,0.03577747194296157,-0.02446225071073618,6.006665041736684e-05,5.190209997358845e-05,0.021938995529960276
307,10.0,299.64124,-232.99679,0.0,0.003069988769854648,0.0,0.0,0.0,0.0,0.025442079769437773,0.052830544079968754,-0.007447417112627842,0.006421787629531094,-0.017500242710889485,0.008131819729773122
308,10.0,299.81003,-248.71331,0.0,0.0030799847572737793,0.0,0.0,0.0,0.0,0.006895557842388572,0.058857268535260146,0.009849808275100392,0.012773310417627588,-0.003950499310608926,0.015436395125453585
309,10.0,299.67914,-327.42739,0.0,0.0030900137347507073,0.0,0.0,0.0,0.0,0.001084451589827039,0.061448173358962535,0.03699712716783216,0.004179347215919456,0.008706443183384042,0.011591112009203689
310,10.0,299.66832,-352.60502,0.0,0.0031000097221700607,0.0,0.0,0.0,0.0,0.001803626315954058,0.054144550114401044,0.051234944696995355,-0.0036955526158476467,-0.002297766503521898,0.006374800182643794
311,10.0,299.87486,-218.75402000000003,0.0,0.003110005709589414,0.0,0.0,0.0,0.0,0.01005035772631808,0.050993090004126156,0.005452312973601396,-0.0028691868709166974,0.0025006290020678675,0.013876042660458788
312,10.0,299.66186,-181.48655,0.0,0.0031200016970087674,0.0,0.0,0.0,0.0,0.018358234524566683,0.021425839069815683,0.015383305886464086,-0.004846799881416905,0.007993019664824623,-0.001052266105700579
313,10.0,299.40137000000004,-125.42541000000001,0.0,0.0031299976844278987,0.0,0.0,0.0,0.0,0.030094750962870672,0.020372412590100582,-0.012340969772208887,0.005699702443816834,0.005097160504900575,0.004416879282537046
314,10.0,299.29354,57.637287,0.0,0.003139993671847252,0.0,0.0,0.0,0.0,-0.03900325597457167,0.007274049919192832,0.014208909503810187,-0.01267733030190509,-0.007057155223986994,0.005890279082250285
315,10.0,299.19097,-25.537293,0.0,0.0031499896592666055,0.0,0.0,0.0,0.0,-0.03190783130755777,0.02967432816512817,0.00999620295352342,0.01016300996051099,-0.007185715484749903,0.015057841848343285
316,10.0,299.63748,-414.14161,0.0,0.0031599856466857368,0.0,0.0,0.0,0.0,0.00045853735535911357,0.07343947660116203,0.051990694509332046,0.009079690373695673,0.0027613947921534474,0.004910827560535945
317,10.0,300.2129,-502.42613,0.0,0.0031700146241626648,0.0,0.0,0.0,0.0,0.05496263304638954,0.06178640232184314,0.03597596358455117,0.014114014578944786,0.011030041991580388,0.0006386035201077603
318,10.0,300.2955,-251.81298999999999,0.0,0.003180010611582018,0.0,0.0,0.0,0.0,0.02062923197369668,0.06252171589291294,-0.006606087487570074,-0.008516985274386001,-0.01216506651509859,0.007343645711586403
319,10.0,299.8896,-129.54941000000002,0.0,0.0031900065990013715,0.0,0.0,0.0,0.0,0.02014880957128268,0.04202962124075066,-0.02279864502080108,-0.006532727572380014,-0.0023445200922861177,0.012957433159549088
320,10.0,299.64581,-111.76513999999999,0.0,0.003200002586420725,0.0,0.0,0.0,0.0,-0.026066737310336676,0.04150506875673136,0.018535480338059483,-0.0007457684983841203,0.002826866859290037,0.029946081841948174
321,10.0,299.89314,-11.950657000000001,0.0,0.003209998573839856,0.0,0.0,0.0,0.0,-0.03738466189382886,0.04224511623226836,-0.001227753727619859,0.009681789218343199,-0.00022094032927761275,0.04474140882788326
322,10.0,299.48312000000004,-23.841379999999997,0.0,0.0032199945612592096,0.0,0.0,0.0,0.0,-0.048521337312683155,0.032930237135461365,0.022838284377963182,-0.011635150898299989,-0.005612070596993245,0.04403852229976376
323,10.0,299.95995,0.95716553,0.0,0.003229990548678563,0.0,0.0,0.0,0.0,-0.01117619217275429,0.02962431616669237,-0.018739078760153082,-0.010770320659697888,-0.00928937650371508,0.04175835088422836
324,10.0,299.5972,-46.504642,0.0,0.0032399865360979163,0.0,0.0,0.0,0.0,-0.011433041953853388,0.05149393750205595,-0.025924645195813275,-0.007893376649990623,0.010842608961582189,0.03475534070583507
325,10.0,299.5765,-238.26015,0.0,0.0032500155135746223,0.0,0.0,0.0,0.0,0.02686619163923668,0.04608940433692005,-0.0005304612519774495,-0.0050520100804445755,0.004430857270316566,0.018009427230642083
326,10.0,299.92715,-380.16266,0.0,0.0032600115009939756,0.0,0.0,0.0,0.0,-0.009335248362242282,0.07337705938175193,0.05151814506019505,-0.0036841712840993968,-0.0035407925445990166,0.015053613555675985
327,10.0,300.15682000000004,-319.64297999999997,0.0,0.003270007488413329,0.0,0.0,0.0,0.0,-0.016742422828598485,0.07164836858489343,0.04225753766524426,-0.013058078278731988,-0.003527622623774247,0.01262865883335159
328,10.0,300.03705,-219.01814,0.0,0.0032800034758326824,0.0,0.0,0.0,0.0,-0.01054335162404779,0.04360478640895736,0.03351461089213457,0.005872214352842434,-0.002117209591352318,-0.005316578395505435
329,10.0,300.57447,-296.71027000000004,0.0,0.0032899994632518137,0.0,0.0,0.0,0.0,0.043923691679180865,0.05227130399202605,-0.006002483257248974,0.011548406557238988,-0.006335351620475524,0.0009078791722181981
330,10.0,300.2793,-220.33872999999997,0.0,0.003299995450671167,0.0,0.0,0.0,0.0,0.04096517971919846,0.02258505088647098,0.003427242570817507,0.008646801458647862,-0.002037805841965778,-0.013782337291210789
331,10.0,300.3386,-52.670671999999996,0.0,0.0033099914380905204,0.0,0.0,0.0,0.0,0.005439621509473845,0.024953088310928077,-0.014382140820406787,0.01160517085434119,-0.0004326898114031596,0.016340819124963286
332,10.0,300.02743,-165.80505,0.0,0.003319987425509874,0.0,0.0,0.0,0.0,-0.02024510379453618,0.048402694845224054,0.02224300501046368,0.007433167269846493,0.013407227037940287,0.02230164179375068
333,10.0,300.19313,-292.3127,0.0,0.0033300164029865797,0.0,0.0,0.0,0.0,-0.007299205068825452,0.04546038880734105,0.050694577405415255,0.0038736060909951558,0.0013989966422202186,0.03464434118388027
334,10.0,299.87941,-194.61117,0.0,0.003340012390405933,0.0,0.0,0.0,0.0,-0.017416028455328185,0.06501554730403494,0.01155741840362839,-0.0035099533658804268,-0.01120868305046089,0.04563199588402736
335,10.0,299.30151,-178.43538999999998,0.0,0.0033500083778252865,0.0,0.0,0.0,0.0,0.01043813573366379,0.05338898775333286,-0.00958722137061008,-0.01006247802136426,-0.0009110274213389061,0.00998675915861639
336,10.0,299.45901000000003,-137.2541,0.0,0.00336000436524464,0.0,0.0,0.0,0.0,0.022981888261635774,0.041702362736702754,-0.02296243183321558,-0.01085535970084059,0.002095346187319568,0.025186550253218976
337,10.0,299.72701,-105.78114,0.0,0.003370000352663771,0.0,0.0,0.0,0.0,0.003187397152896607,0.048932780688039454,-0.019965351521426783,-0.0026545289253066076,-0.0022113090135642078,0.01075493141717909
338,10.0,299.36322,-273.15854,0.0,0.0033799963400829025,0.0,0.0,0.0,0.0,-0.014706489270167487,0.06641936782733122,0.03132049683409237,-0.005214729332553714,0.007686105398934544,0.023794380079572477
339,10.0,300.42907,-292.3338,0.0,0.003389992327502478,0.0,0.0,0.0,0.0,-0.02132654765276638,0.07313173633379043,0.037056985930739764,-0.00036149254682903674,-0.003396106205844587,0.003999543249899187
340,10.0,299.75815,-106.03465,0.0,0.0033999883149218313,0.0,0.0,0.0,0.0,-0.03144703657283087,0.059786550599473146,0.0038923710775471162,-0.0036614666798336264,0.015929422359111586,0.04027281984636786
341,10.0,299.85337999999996,-137.40423,0.0,0.0034099843023411847,0.0,0.0,0.0,0.0,0.016617654251034782,0.04075590101704426,-0.015606099318452088,-0.006134831046885684,0.007764781938724312,0.010010680270952222
342,10.0,300.36814,-187.88968,0.0,0.0034200132798178906,0.0,0.0,0.0,0.0,0.03361257292505267,0.044231862577844956,-0.02073066438820728,-0.005263696872786435,-0.0032749305118104765,0.03872116005398096
343,10.0,300.66528,-114.11416000000001,0.0,0.003430009267237244,0.0,0.0,0.0,0.0,0.001073000242496879,0.029108092598495075,0.004506763584332936,-0.012490176928934489,0.003910191005730806,0.01128391079088529
344,10.0,300.1762,-116.05325,0.0,0.0034400052546565973,0.0,0.0,0.0,0.0,-0.034233866475619566,0.04139777975664276,0.02811337686932427,-0.004873006176703265,0.013614797400425885,0.02820007561413077
345,10.0,300.80125,-292.71307,0.0,0.0034500012420757287,0.0,0.0,0.0,0.0,-0.006260140801327794,0.04735072237940245,0.04788688366981745,-0.003982951583486716,0.0027783104959478977,0.002119843332337248
346,10.0,300.31567,-326.632,0.0,0.00345999722949486,0.0,0.0,0.0,0.0,0.024672382569474578,0.03887212215987976,0.035743469296105765,0.0031362038061692166,-0.006929790091717034,0.0032248101969389866
347,10.0,299.35202999999996,-258.43332999999996,0.0,0.0034699932169144354,0.0,0.0,0.0,0.0,0.03670295026629916,0.04774357160217366,-0.005889243439323074,0.015519129022618785,-0.007504997278710563,-0.017459361109104784
348,10.0,299.56023999999996,-255.46247999999997,0.0,0.0034799892043337888,0.0,0.0,0.0,0.0,0.030672048180845467,0.04605932499445146,0.000922843244862537,0.013835157005673688,-3.5326999187003367e-05,-0.005405179517374684
349,10.0,299.67472000000004,-380.64637,0.0,0.003489985191753142,0.0,0.0,0.0,0.0,0.019347120012662082,0.06922875571709623,0.027131114997132576,0.005387018833182365,-0.007401239657870483,0.0016196370190707287
350,10.0,299.83322000000004,-343.61832000000004,0.0,0.003500014169229848,0.0,0.0,0.0,0.0,-0.025189993277058776,0.08200928756818653,0.047632095852671856,-0.01831482182403218,-0.01097683622882939,0.025131278473514075
351,10.0,300.29871,-193.8525,0.0,0.0035100101566489794,0.0,0.0,0.0,0.0,-0.017026772217411584,0.049342348537460654,0.026610745209526075,-0.0033747438539862866,-0.0031991653435330366,0.01949525819053218
352,10.0,300.12344,-132.25653,0.0,0.003520006144068555,0.0,0.0,0.0,0.0,-0.02041402069220698,0.05924843880261565,0.0013682652733122687,-0.013050621771246088,0.01326836415148559,0.03264496366255707
353,10.0,299.89845,-81.519592,0.0,0.003530002131487686,0.0,0.0,0.0,0.0,0.014396746820598287,0.04341704839067905,-0.03303387539543967,-0.0013098609295982089,0.00868832090137051,0.02173708619578338
354,10.0,300.48195,-193.42673,0.0,0.0035399981189070395,0.0,0.0,0.0,0.0,0.016134947982895383,0.044604459970867455,-0.0019425139257111983,-0.01089553304080539,-0.0029240441300056874,0.038858328786268465
355,10.0,300.10987,-285.58449,0.0,0.003549994106326393,0.0,0.0,0.0,0.0,0.012205690751357887,0.048283429228953456,0.02632143292172318,0.0006481362783735704,-0.002738165932285937,0.014186725406120787
356,10.0,300.49326,-128.42533,0.0,0.0035599900937457463,0.0,0.0,0.0,0.0,-0.04710985155238036,0.054908914579087954,0.03123903051280227,-0.003928402149778106,0.012527696566887386,0.024575895828702076
357,10.0,300.76414,-203.78618,0.0,0.0035699860811650996,0.0,0.0,0.0,0.0,-0.014338705828370086,0.05694349747513564,0.019341118532319783,0.0002532110074724808,-0.005262332734176805,0.01056496019568039
358,10.0,299.88369,-493.85379000000006,0.0,0.0035800150586418056,0.0,0.0,0.0,0.0,0.03265567371611407,0.08437255359792271,0.033090993316826765,-0.017847105577872183,-0.015863318935837683,0.013944604228475288
359,10.0,299.81312,-315.23292999999995,0.0,0.003590011046060937,0.0,0.0,0.0,0.0,0.04812108325818116,0.05291588506964124,-0.005214029886009685,-0.007906257693211882,-0.012415202501035089,-0.007014702780572263
360,10.0,299.9149,-74.929868,0.0,0.0036000070334805123,0.0,0.0,0.0,0.0,-0.009721887983100641,0.04776492280828085,-0.015266225850659185,-0.006253416569689165,-0.0017217456766980685,0.017828261152512383
361,10.0,299.34952999999996,-197.94053,0.0,0.0036100030208996436,0.0,0.0,0.0,0.0,-0.013595398727261388,0.053784810865147546,0.01997956640707968,0.006005386725410525,-0.0019520158811739683,0.02108385905506488
362,10.0,299.68247,-185.05347,0.0,0.003619999008318997,0.0,0.0,0.0,0.0,-0.02075898675500248,0.04628467992269225,0.03072594194041437,0.005311694023398385,-0.008182323559807463,0.028066976094244873
363,10.0,299.97816,-113.45088,0.0,0.0036299949957383504,0.0,0.0,0.0,0.0,-0.013431506536836488,0.04138751148012936,0.006530228796308404,0.01313621809994379,0.014039380603078985,0.035195423595267866
364,10.0,300.06234,-167.70786999999999,0.0,0.0036399909831574817,0.0,0.0,0.0,0.0,0.02144567040077288,0.024375996782723577,0.005157338948214725,0.006711082996057324,0.008768707706004072,0.01049643409141739
365,10.0,300.45588,-176.7864,0.0,0.003649986970577057,0.0,0.0,0.0,0.0,0.03405173274364437,0.03799125825169526,-0.018304340764997783,0.003071177670401637,0.005736454443493974,0.006679368166602313
366,10.0,301.01998,-269.99797,0.0,0.003660015948053763,0.0,0.0,0.0,0.0,0.0093825095893066,0.05521926396546704,0.017470866563990287,-0.018993082321721283,-0.0022944876261982976,0.00879660501438232
367,10.0,300.36645,-469.40274000000005,0.0,0.0036700119354728944,0.0,0.0,0.0,0.0,0.013539988132292787,0.06731510523373364,0.06183161860755565,-0.012064448753668387,0.0012965210867316689,0.009731199852844652
368,10.0,300.36724,-450.99867,0.0,0.0036800079228922478,0.0,0.0,0.0,0.0,-0.0004992934559864275,0.0917119374782635,0.045879689937222856,-0.013141855823500187,0.0023390348628697676,0.017247149047911085
369,10.0,300.14782,-147.4673,0.0,0.003690003910311823,0.0,0.0,0.0,0.0,-0.025252268641454873,0.06343676584622134,0.006641880344702554,-0.011658468822851289,0.003132476768326387,0.024365232013661177
370,10.0,299.52671000000004,8.872810000000001,0.0,0.0036999998977309545,0.0,0.0,0.0,0.0,-0.0070998611825767435,0.04498654341132616,-0.04058379440805866,0.004581055790940006,-0.0030649088946829574,0.03667712252125017
371,10.0,299.5215,-84.874012,0.0,0.003709995885150308,0.0,0.0,0.0,0.0,0.01137324601245199,0.046198611419447956,-0.031772276682679575,0.0028024654664068074,0.008559689713100602,0.01052196698068729
372,10.0,300.06355,-60.154925,0.0,0.003719991872569439,0.0,0.0,0.0,0.0,-0.02355465219866318,0.03657009189993707,0.0052701553289238355,0.014807697756405986,0.0008742312439574062,0.040111486112445464
373,10.0,299.99053,-46.009652,0.0,0.0037299878599887926,0.0,0.0,0.0,0.0,-0.05168361792077595,0.05341913397030804,0.012250268689507387,-0.005676609764762765,-0.014884218403957986,0.03416404239797847
374,10.0,299.89588,-156.61032,0.0,0.0037400168374657206,0.0,0.0,0.0,0.0,-0.028193871483768472,0.05226123228603204,0.023538266931296077,-0.00013661424130277587,-0.013072547490159986,0.048461187746996856
375,10.0,299.6578,-359.69969,0.0,0.003750012824884852,0.0,0.0,0.0,0.0,0.025584622780255677,0.05216314359685145,0.03159195869488357,-0.0050556213038009746,-0.00018639699190345084,0.01083914871249069
376,10.0,299.83722,-415.2785,0.0,0.0037600088123042053,0.0,0.0,0.0,0.0,0.05736343391283014,0.06075317396962144,0.008117685600153192,-0.005435853435001964,0.017278990432303583,0.013368815739899386
377,10.0,299.7755,-501.36548,0.0,0.0037700047997235586,0.0,0.0,0.0,0.0,0.07106760098532613,0.05793244274498694,0.023402544106901277,-0.016648559392334884,0.0057699492493996545,-0.017800209323493882
378,10.0,299.37662,-348.30165,0.0,0.003780000787142912,0.0,0.0,0.0,0.0,-0.0013975799159303987,0.06387199324117493,0.04340059118255486,0.007336394488570763,0.007934266965726182,-0.004508645899043705
379,10.0,299.53701,-136.82686,0.0,0.0037899967745622654,0.0,0.0,0.0,0.0,-0.034829321135386365,0.06187819568815244,0.014543075333789788,0.005583471308945714,0.006981076252153583,0.004021961611011707
380,10.0,299.78109,-239.38362,0.0,0.0037999927619813967,0.0,0.0,0.0,0.0,-0.01155890484152509,0.040789792206389064,0.04353575367964436,0.01848146904147898,-0.003898660320917816,0.00987742025225048
381,10.0,300.04164,-302.80978,0.0,0.00380998874940075,0.0,0.0,0.0,0.0,0.017189342116455984,0.06763205493126413,0.007225216533273352,-0.008466390150517653,-0.008600958072448473,0.03236159509984077
382,10.0,300.46475,-79.91541099999999,0.0,0.0038199847368201034,0.0,0.0,0.0,0.0,0.01046051437537239,0.04000260428319966,-0.026170829506359773,-0.005536309177741175,-0.01206095506732359,0.02356855804303558
383,10.0,299.98992000000004,-103.09133,0.0,0.0038300137142968094,0.0,0.0,0.0,0.0,0.006485618738130733,0.03317032775990647,-0.008318754443372142,0.0037269769464989863,0.008866020549583102,0.03551961904426347
384,10.0,299.91963,-322.46659,0.0,0.0038400097017161627,0.0,0.0,0.0,0.0,-0.0095059143322357,0.06426568143502893,0.043262023151879256,0.002157409478469738,0.006575400600341515,0.0058539329905632044
385,10.0,300.24235,-370.78087999999997,0.0,0.003850005689135516,0.0,0.0,0.0,0.0,-0.015657732517047884,0.06452725498809424,0.06383860665037994,0.0032241413505479767,-0.003987372191022996,0.03033012592135037
386,10.0,299.98613,-357.46404,0.0,0.0038600016765548695,0.0,0.0,0.0,0.0,0.001171930942510579,0.08061850554717702,0.026869705590583475,-0.0054270471770578544,-0.011588282001674388,0.023133556602854276
387,10.0,300.08192,-243.15819,0.0,0.003869997663974223,0.0,0.0,0.0,0.0,0.01896727281517408,0.05451795608100335,0.0004287891734206966,-0.0038898020832435765,-0.0005995909898550235,0.038538141754668465
388,10.0,300.03771,-100.28272,0.0,0.003879993651393354,0.0,0.0,0.0,0.0,0.026327847808106274,0.04269310855198175,-0.03853751455285657,-0.006377343339069784,-0.004528355234688866,0.011361809458573291
389,10.0,299.68919,-152.0169,0.0,0.0038899896388127075,0.0,0.0,0.0,0.0,-0.003433933061227807,0.06525934237084564,-0.015616068686185983,-0.01208007509671059,0.0009966516954743642,0.037551480350542565
390,10.0,299.76139,-354.04097,0.0,0.003899985626232061,0.0,0.0,0.0,0.0,-0.01136077796997149,0.06443235702347853,0.05454803643672205,-0.013340432578098187,0.00019065949189412684,0.01222220571473779
391,10.0,298.95475,-226.61319,0.0,0.003910014603708767,0.0,0.0,0.0,0.0,-0.034394132243936566,0.06541221546643304,0.037866668006149164,0.0007615963059437032,0.0049932770383980755,0.03300837391692287
392,10.0,298.99446,-75.61953299999999,0.0,0.003920010591128342,0.0,0.0,0.0,0.0,-0.04138724904835346,0.05088471581318046,0.013488984162009087,-0.0027841127713205374,-0.0009067849533027072,0.030359295365229175
393,10.0,299.10034,-224.74142,0.0,0.003930006578547474,0.0,0.0,0.0,0.0,0.026200103314998873,0.04236662518426036,-0.00025094935218927274,0.00956101152894837,-0.013020231360996788,0.03200579030072557
394,10.0,299.05707,-412.23939,0.0,0.003940002565966827,0.0,0.0,0.0,0.0,0.06724790344735133,0.05518452063278815,0.0028780577742171876,0.004004712142634316,-0.015635147172318883,0.008297734671372653
395,10.0,299.67106,-341.53893,0.0,0.00394999855338618,0.0,0.0,0.0,0.0,0.034476182197284266,0.050800493451618356,0.01854263084401518,0.015249546740763087,0.0002994224871681987,0.01115428469234219
396,10.0,299.88121,-360.06233,0.0,0.003959994540805312,0.0,0.0,0.0,0.0,0.0003279235912810387,0.059553924588514745,0.04956810977899155,-0.0007261313365435833,7.158577708646614e-05,-0.012990739703586187
397,10.0,300.05377999999996,-379.47949,0.0,0.003969990528224665,0.0,0.0,0.0,0.0,-0.0005229465231408035,0.06541324087553424,0.050461995977461246,0.0031679767961799664,0.003394891521624707,-0.0012504956194893087
398,10.0,300.47857999999997,-425.85183,0.0,0.003979986515644018,0.0,0.0,0.0,0.0,0.01053831577105079,0.06862437837694883,0.050285626625304954,-0.01290131430276059,0.013108424649700788,0.006044415903362405
399,10.0,300.14981,-441.95748,0.0,0.003990015493120946,0.0,0.0,0.0,0.0,0.044799545065620866,0.07432351096890942,0.015220983220444087,-0.015806676228747485,0.02299050494048618,0.020581808829266378
400,10.0,300.14341,-280.90259,0.0,0.0040000114805403,0.0,0.0,0.0,0.0,0.040431729886051065,0.05310344171615165,-0.008147797265299982,-0.015964197102543584,0.008758672477013672,0.015173801229537586
401,10.0,300.05105,-35.95499,0.0,0.004010007467959431,0.0,0.0,0.0,0.0,-0.03495628947891717,0.05018752071087265,-0.0043018118654057766,-0.006721532948313654,-0.006605512366813312,0.03221919293078677
402,10.0,299.54237,-5.906805,0.0,0.004020003455378562,0.0,0.0,0.0,0.0,-0.057929531677449644,0.05958197743078335,0.00014307608169550985,0.007079683218760333,-0.005308387585672065,0.04317028956732587
403,10.0,299.276,-251.89833,0.0,0.004029999442798138,0.0,0.0,0.0,0.0,-0.027730200132007672,0.05650977475658054,0.04779122880737705,0.002077416220175018,-0.007550660103742134,0.026453756292032476
404,10.0,299.7396,-213.97117000000003,0.0,0.004039995430217269,0.0,0.0,0.0,0.0,-0.014617277665112987,0.061821160853273535,0.017838010644974582,0.012308795028533489,0.0015442851555090785,0.043929215918726054
405,10.0,299.98731000000004,-78.712186,0.0,0.0040499914176368446,0.0,0.0,0.0,0.0,0.005543534258904234,0.04035515857599406,-0.021972153126232682,-0.007355315616963133,-0.0067371878650086744,0.024087162748967876
406,10.0,300.52945,-204.64593,0.0,0.004059987405055976,0.0,0.0,0.0,0.0,0.028279835622252475,0.04777611719538566,-0.013848700106510287,0.015690218328503987,0.002148139861254898,0.024926505694554575
407,10.0,299.88635,-466.36650999999995,0.0,0.004070016382532904,0.0,0.0,0.0,0.0,0.02823433056026147,0.08270244486884583,0.03082699843913787,-0.007460208787190284,-0.002363172608076978,0.01025532717712199
408,10.0,300.08615,-486.92347,0.0,0.004080012369952257,0.0,0.0,0.0,0.0,0.007222604881140603,0.08474647834857621,0.056043493272562146,-0.0016700697189480484,0.0009486624583456951,0.01826847272470788
409,10.0,300.28272000000004,-360.15868,0.0,0.004090008357371389,0.0,0.0,0.0,0.0,-0.0021242748829746077,0.07486466758231743,0.03673885275709247,-0.014178058064765386,-0.011962172301824489,0.00991472964080763
410,10.0,300.43588,-241.85356000000002,0.0,0.00410000434479052,0.0,0.0,0.0,0.0,0.0036519718171215566,0.06032182934905104,0.009543642091759142,0.007162885541446763,0.001823719470737098,0.025222873242803773
411,10.0,300.4308,-128.34685,0.0,0.004110000332209873,0.0,0.0,0.0,0.0,0.012867243768148089,0.03540222996717807,-0.009255235953520673,0.004216049566341696,-0.0001117935351306629,0.017105082264640182
412,10.0,299.98708999999997,-295.82742,0.0,0.004119996319629449,0.0,0.0,0.0,0.0,0.016004069507228685,0.06615862817909825,0.007761449865770462,0.00898861003148174,0.00872437315052859,0.025524816706353273
413,10.0,299.62538,-355.83829,0.0,0.004129992307048802,0.0,0.0,0.0,0.0,-0.003777053488966156,0.05943647978267384,0.052506527976240856,-0.005826723071052795,-0.0011301238380845389,0.01824785105867268
414,10.0,299.58859,-70.90568,0.0,0.004139988294467933,0.0,0.0,0.0,0.0,-0.02366153995171218,0.02955147767000377,0.015663618486878788,0.007560767374814643,0.0026471466890530377,0.02077803687013258
415,10.0,299.84648,-76.992059,0.0,0.004150017271944639,0.0,0.0,0.0,0.0,-0.024565736983199478,0.04483333695645586,0.003136063876330407,0.00862487178805857,0.012184668851533189,0.02300548584321468
416,10.0,300.45018,-384.11217,0.0,0.004160013259364215,0.0,0.0,0.0,0.0,0.045260263806590255,0.05743388012603264,0.014066365479742186,0.007642431077224222,0.0015305669650551986,0.0026281161296498675
417,10.0,300.00856,-548.5726900000001,0.0,0.004170009246783346,0.0,0.0,0.0,0.0,0.057823324828467845,0.0886835416588841,0.020245533412578582,-0.004117149061180976,-0.005978402558022395,0.020156903413081483
418,10.0,299.62922000000003,-443.03650999999996,0.0,0.004180005234202477,0.0,0.0,0.0,0.0,0.033386192587710674,0.08101667433297322,0.02026917051091138,-0.007576377201880213,-0.003634993595795937,0.013495684784920386
419,10.0,300.50202,-195.16543000000001,0.0,0.004190001221621831,0.0,0.0,0.0,0.0,-0.025086090558804373,0.06353164658558534,0.02087986141243188,0.00020541703377058282,-0.0035507148975282765,0.036981418751531867
420,10.0,300.464,-107.26529,0.0,0.004199997209041184,0.0,0.0,0.0,0.0,-0.04914874785410375,0.061588038349766144,0.02016668026329638,-0.002070598870852198,0.002032698960136768,0.023956999627871775
421,10.0,299.79762,-216.76977000000002,0.0,0.0042099931964607595,0.0,0.0,0.0,0.0,-0.020074420801941082,0.06424881082086394,0.02171820731992018,-0.0009048191974462022,-0.006658637576181364,0.04303328295505436
422,10.0,299.82547999999997,-308.54517999999996,0.0,0.004219989183879891,0.0,0.0,0.0,0.0,0.021878407226980683,0.07001863584580134,0.0018929879833483683,-0.008143978021698053,0.006236116236156754,0.03345202648645797
423,10.0,299.11834,-146.66024,0.0,0.004229985171299022,0.0,0.0,0.0,0.0,0.011971315870726888,0.04768773544216305,-0.015077999445832685,0.002170592672870818,0.004958952481985505,0.03036627260541777
424,10.0,299.92637,-42.083449,0.0,0.00424001414877595,0.0,0.0,0.0,0.0,-0.03035454930176077,0.04371476964106186,-0.0005679029304676554,-0.0017000222025041285,-0.0006878832426962904,0.02315271614899518
425,10.0,300.42457,-322.92295,0.0,0.0042500101361953035,0.0,0.0,0.0,0.0,-0.0074403120002766235,0.07324419189613893,0.03235663220085097,-0.0008859022335117433,-0.006815143274702273,0.016537334928857884
426,10.0,299.43878,-700.42863,0.0,0.004260006123614435,0.0,0.0,0.0,0.0,0.04243610982311796,0.08088926927864933,0.0895874347153414,-0.002512790941693158,-0.0064622623100756334,-0.0016394676407528582
427,10.0,300.18384,-449.92127,0.0,0.004270002111033788,0.0,0.0,0.0,0.0,0.03258457395659707,0.06983450195812872,0.03434575461791207,0.007713477438460951,-0.003518073450856817,0.00973086031273614
428,10.0,300.5891,-116.74002,0.0,0.004279998098453142,0.0,0.0,0.0,0.0,0.020400160444089082,0.033214274443243666,-0.018128384818882282,-0.003152284490556257,-0.0025626479128636574,0.005828013343730135
429,10.0,300.29758,-286.76296,0.0,0.004289994085872717,0.0,0.0,0.0,0.0,0.03344104589512426,0.04340740528947736,0.01032032818428709,0.006313253243744584,-0.0034236129063092867,0.015505905095563684
430,10.0,300.59533,-425.94024,0.0,0.004299990073291848,0.0,0.0,0.0,0.0,0.007219943681077963,0.08088137707362042,0.041373876173533664,-0.006976051139607643,0.005139189511098516,0.019941778257850283
431,10.0,300.70838,-437.5296,0.0,0.00430998606071098,0.0,0.0,0.0,0.0,0.0005326347950319615,0.07501744340589522,0.05744799571317574,0.007132505162373452,0.01055835380502839,0.03070235854433687
432,10.0,299.80888,-271.35013,0.0,0.004320015038187908,0.0,0.0,0.0,0.0,-0.015547460508664884,0.06707447556023534,0.03095664986893347,-0.016055228504777683,-0.005674041175759264,0.025835612936026476
433,10.0,300.47856,16.607433,0.0,0.004330011025607261,0.0,0.0,0.0,0.0,-0.03543309761822447,0.05367372319043404,-0.02328887061793258,-0.0009479871068890432,-0.003123749239915047,0.04069269954205676
434,10.0,299.6443,-288.79465,0.0,0.004340007013026392,0.0,0.0,0.0,0.0,0.027764465210639373,0.06635570937654864,-0.006333814317423804,0.0032141582026127165,0.002982581918757917,0.02071278457694268
435,10.0,299.79265,-672.66227,0.0,0.004350003000445968,0.0,0.0,0.0,0.0,0.056987052030684146,0.1027274494634099,0.04475803626202426,0.013605695374777587,-0.00014359464283168787,0.01985246330128558
436,10.0,300.30359,-427.51872000000003,0.0,0.004359998987865099,0.0,0.0,0.0,0.0,0.009237925082187222,0.08097839678394551,0.03973869214890356,0.0011632332036521787,-0.00044063263840705556,0.01927783498407418
437,10.0,299.54667,-100.51329,0.0,0.0043699949752844525,0.0,0.0,0.0,0.0,-0.05465860127438395,0.06285928421672834,0.022352847400804277,-0.0016005041214074585,-0.012907054364577088,0.022098446645196876
438,10.0,299.8221,-241.27482999999998,0.0,0.004379990962703806,0.0,0.0,0.0,0.0,-0.01174290498018449,0.06153504232978584,0.023549385324643377,0.009561440640365721,-0.005517789904338464,0.025288901685570273
439,10.0,300.82995,-544.33993,0.0,0.004389986950122937,0.0,0.0,0.0,0.0,0.03768918103913256,0.08203930408914892,0.045737262436916365,-0.0014796886377838984,-0.007316566501338892,0.018880525434362784
440,10.0,300.35238,-455.75324000000006,0.0,0.004400015927599865,0.0,0.0,0.0,0.0,0.061822896550694846,0.06877645404470753,0.007938255624744832,-0.007665521223153043,-0.006214004788499525,0.019218258917944483
441,10.0,301.04641000000004,-181.82076,0.0,0.0044100119150192185,0.0,0.0,0.0,0.0,-0.017819289836126982,0.07325564972826973,-0.00016738878479748685,-0.014064649034072787,-0.006536412155043653,0.03128545256613377
442,10.0,300.79036,-179.8373,0.0,0.004420007902438572,0.0,0.0,0.0,0.0,-0.009638548162375641,0.05644942355412434,0.007855174081470321,-0.0027829484456306274,0.028882351621966174,0.027100687096629574
443,10.0,300.49696,-335.97886,0.0,0.004430003889857925,0.0,0.0,0.0,0.0,-0.01131209636891699,0.06833022781991843,0.04511105158361416,0.002239527826199188,0.013461421732788885,0.016796481747933686
444,10.0,300.31843,-410.12196,0.0,0.004439999877277057,0.0,0.0,0.0,0.0,0.024456319144650775,0.07578651644379683,0.02442400051946118,0.0055442927779290945,-0.0035200940742062363,0.013922838603077185
445,10.0,300.2041,-323.76932,0.0,0.00444999586469641,0.0,0.0,0.0,0.0,0.014081198447956089,0.06690162421242624,0.01743496609969718,-0.0019453861857696684,-0.01865939677228908,0.003463812894751716
446,10.0,300.02864,-129.57268,0.0,0.004459991852115763,0.0,0.0,0.0,0.0,0.017311111473723682,0.055889566396870746,-0.03381381756716397,0.012630138178497589,-0.008746629391625111,0.02084309765905358
447,10.0,300.40013999999996,-291.78381,0.0,0.004469987839534895,0.0,0.0,0.0,0.0,0.0019898456749824784,0.06890472137486653,0.017800427172265383,0.007829889033174883,0.004679850715440306,0.01970822512305038
448,10.0,300.19536,-575.12828,0.0,0.004480016817011823,0.0,0.0,0.0,0.0,0.03840441300647046,0.07731317935621672,0.05910704279091094,0.005596461276552725,-0.004372576543114706,0.017257153879398485
449,10.0,300.68975,-431.43985,0.0,0.004490012804430954,0.0,0.0,0.0,0.0,-0.0071629921353572835,0.07845309889096802,0.05985683367940954,0.0020465963945333378,-0.005064404358317795,0.02971116689901387
450,10.0,300.24848,-19.729942,0.0,0.004500008791850529,0.0,0.0,0.0,0.0,-0.04554384211207726,0.04528486045276776,0.006256391066682724,-0.004566595698762906,0.0061627438579904634,0.02262136577005498
451,10.0,299.83585,-30.950304,0.0,0.004510004779269883,0.0,0.0,0.0,0.0,-0.013830682493232088,0.043887532836112256,-0.020648730958621082,-0.0030795516758530873,-0.0058838159651624245,0.034447048217158965
452,10.0,299.54774,-408.24512999999996,0.0,0.004520000766689014,0.0,0.0,0.0,0.0,0.036388834629298365,0.07441887604182124,0.013288613954734088,-0.0038209692681753066,0.0027709823672496673,0.019131922916673785
453,10.0,299.72311,-496.89519,0.0,0.0045299967541083674,0.0,0.0,0.0,0.0,0.015390671201440987,0.10630139534863091,0.02935166779003407,-0.008188688695610654,-0.003296214640761057,0.03858964323075126
454,10.0,299.64117999999996,-368.01179,0.0,0.004539992741527721,0.0,0.0,0.0,0.0,-0.01128406784465079,0.09371833175652922,0.02943212998047507,-0.011147794825451689,0.012947978522865989,0.02140985200973788
455,10.0,300.04759,-232.73667000000003,0.0,0.004549988728947074,0.0,0.0,0.0,0.0,-0.031305856383397467,0.07182804822512644,0.03022394339037097,-0.004482836088521475,0.011235192712827188,0.02415155681932308
456,10.0,300.36134,-269.86615,0.0,0.0045599847163664275,0.0,0.0,0.0,0.0,-0.0007932072975284652,0.07157308511571353,0.011252693568554389,-0.0016108962170830782,-0.0004769942530856675,0.009536421772871551
457,10.0,300.14092,-513.95448,0.0,0.0045700136938429115,0.0,0.0,0.0,0.0,0.051458912485849245,0.07237599868045493,0.03239441832358017,0.014701579060182886,-0.024307356181199277,0.024276335529387776
458,10.0,299.86758,-562.20052,0.0,0.004580009681262487,0.0,0.0,0.0,0.0,0.052726909872990856,0.0937437430557871,0.024424267004237478,-0.007782639458486713,-0.01045814944963899,0.018065911870716683
459,10.0,300.49676,-247.03012999999999,0.0,0.00459000566868184,0.0,0.0,0.0,0.0,0.006354125726278384,0.06174922313592385,0.006987640694251443,0.016972437694049183,-0.001779141633912608,0.029296817522370767
460,10.0,300.25064,-205.03033,0.0,0.0046000016561009716,0.0,0.0,0.0,0.0,-0.01164051707082959,0.048419585724391055,0.025545032059098374,-0.004334601955866906,0.0026283451241724677,0.026493518252456678
461,10.0,300.58914,-366.97745,0.0,0.004609997643520325,0.0,0.0,0.0,0.0,-0.005013756342794225,0.06614763137576293,0.05041810704937975,2.7897686320537275e-05,0.0064296038408024935,0.024063854956917576
462,10.0,300.3716,-476.84172,0.0,0.004619993630939456,0.0,0.0,0.0,0.0,0.017300322386658882,0.08326613515122772,0.04438151860436486,-0.01728678131232248,-0.001962061647965408,0.01056256284594379
463,10.0,299.64495,-362.08082,0.0,0.004629989618359032,0.0,0.0,0.0,0.0,0.014283228358894885,0.08113444236559603,0.014645855370933386,-0.0012425271167278789,0.0033278231802805766,0.013826287014298288
464,10.0,300.08648999999997,-229.16771,0.0,0.004639985605778385,0.0,0.0,0.0,0.0,0.01218656464247029,0.062356492291856636,-0.004881795918670745,-0.009059525480805552,-0.0024104064773885978,0.01112383450033699
465,10.0,300.08892000000003,-259.50937000000005,0.0,0.004650014583255091,0.0,0.0,0.0,0.0,0.006480699510220244,0.06286092770839054,0.009542740096520121,0.002287233667407388,0.0013573432478343488,0.03271647378836457
466,10.0,299.97312999999997,-382.90864,0.0,0.004660010570674222,0.0,0.0,0.0,0.0,0.0038916875390296556,0.08531910347033991,0.027183874929839577,-0.006037494391929305,0.013806503306095787,0.028905547956505472
467,10.0,300.16892,-471.04874,0.0,0.004670006558093798,0.0,0.0,0.0,0.0,-0.003101741853043087,0.0928352072873716,0.053453589539958546,0.004696137798872715,0.017100339240922083,0.03301842535791487
468,10.0,300.31165,-408.40111,0.0,0.004680002545512929,0.0,0.0,0.0,0.0,0.031084555468806768,0.06894822324140984,0.024110961967316682,-0.0033900461596465072,0.006758180279255464,0.020311241668313478
469,10.0,300.693,-220.78965,0.0,0.004689998532932282,0.0,0.0,0.0,0.0,-0.004161324941690796,0.058338557438067346,0.012937308999312986,0.003063718123165437,-0.0069987703346748534,0.046991192872919654
470,10.0,300.85058,-332.30764,0.0,0.004699994520351414,0.0,0.0,0.0,0.0,0.02745364972921427,0.06004525564150535,0.013514318454259386,0.012869290533350088,-0.002944947276918667,0.02252016741631748
471,10.0,300.68447000000003,-504.88934000000006,0.0,0.004709990507770767,0.0,0.0,0.0,0.0,0.0016558148099161986,0.093691427939874,0.05812651154989004,0.011549884889134887,0.008846833443039482,0.036894403872694166
472,10.0,300.76223,-375.40617000000003,0.0,0.0047199864951903425,0.0,0.0,0.0,0.0,0.005144665317288935,0.08186487916393452,0.027104557712011576,0.004777406131093276,-0.011236142128170888,0.025536455910251978
473,10.0,299.94694,-202.11364,0.0,0.0047300154726670485,0.0,0.0,0.0,0.0,-0.034930697821141464,0.06525735944039994,0.031110838163150672,-0.013198904843880487,-0.015218677063216486,0.028649061932192268
474,10.0,299.50057000000004,-285.00304,0.0,0.00474001146008618,0.0,0.0,0.0,0.0,0.020080220645513482,0.07648405605113863,-0.00993046865726095,-0.010106037541838251,0.003252854325256727,0.01838064255052818
475,10.0,300.41172,-424.80913,0.0,0.004750007447505533,0.0,0.0,0.0,0.0,0.014582632617693788,0.07833273085858863,0.03621600455974136,-0.0005392525948800875,0.01141426541625029,0.0057201169002065845
476,10.0,300.26441,-486.24597,0.0,0.0047600034349248865,0.0,0.0,0.0,0.0,0.05689435991153615,0.07296799613088054,0.01794427727571228,-0.012698592342003488,0.004446902490950105,0.01960614828147618
477,10.0,300.33962,-418.87731,0.0,0.00476999942234424,0.0,0.0,0.0,0.0,0.01004783240309385,0.08076607225199071,0.03651433781318457,-0.004026605437545017,-0.012581292430926887,0.015283577758621684
478,10.0,300.07162,-237.31341,0.0,0.004779995409763593,0.0,0.0,0.0,0.0,-0.004752865821621335,0.05660744294696964,0.02028277542000408,0.017870696066700383,-0.0018900880615621682,0.03568631388446497
479,10.0,299.62317,-344.8297,0.0,0.004789991397182725,0.0,0.0,0.0,0.0,-0.009180319179551961,0.08424309772539643,0.02975684016052147,0.006007211791490645,0.005955445350506694,0.02201458702717058
480,10.0,299.64542,-558.73049,0.0,0.004799987384602078,0.0,0.0,0.0,0.0,0.05306098755021174,0.08234847405241162,0.03443065687029127,0.005054191202609836,-0.007573261052522674,0.03254099508304617
481,10.0,300.28121,-430.01131,0.0,0.004810016362079006,0.0,0.0,0.0,0.0,0.03360209490576857,0.06551857632943003,0.03159202962239057,-0.013684160449271489,-0.012108337681749888,0.01164120101464709
482,10.0,300.29785,-90.500024,0.0,0.004820012349498137,0.0,0.0,0.0,0.0,-0.01000669657685906,0.05495092392823395,-0.017434480752899283,0.010917898510262689,0.013897411091817686,0.026512373823567578
483,10.0,299.85623,-116.0399,0.0,0.004830008336917491,0.0,0.0,0.0,0.0,-0.03831464614036116,0.05863157619473604,0.014956301016071986,-0.002964488007747187,0.004711395217553506,0.020242424761271784
484,10.0,300.3182,-377.38986,0.0,0.004840004324336844,0.0,0.0,0.0,0.0,0.0009650966859576272,0.07651381216682533,0.037238185446122764,0.001170935424287329,0.0028662174401736375,0.011952120860832489
485,10.0,300.66598,-519.64952,0.0,0.004850000311756197,0.0,0.0,0.0,0.0,0.00937694340120726,0.1056537968122179,0.04292973386108487,-0.008751531698258931,-0.004745773374896366,0.03243084871767557
486,10.0,300.60174,-378.09011,0.0,0.004859996299175551,0.0,0.0,0.0,0.0,0.03031765889211997,0.06386368357710484,0.02074861107397848,0.005275434564594854,0.012605350028051188,0.010794537337087889
487,10.0,300.1017,-287.87296000000003,0.0,0.004869992286594682,0.0,0.0,0.0,0.0,0.0012358242646663589,0.07760120481639263,0.008669162976429771,0.015076402563675088,0.014971639596085785,0.028490429523036473
488,10.0,300.42426,-366.10015,0.0,0.0048799882740140355,0.0,0.0,0.0,0.0,0.025844114104365476,0.07144527881435003,0.013995912173788986,0.007446795787666522,-0.0002778188399310847,0.017362031344249084
489,10.0,299.32046,-488.78109000000006,0.0,0.0048900172514909634,0.0,0.0,0.0,0.0,0.011469706408721888,0.07923619936325402,0.057871340724206646,0.0024818837738928576,-0.02042908265494348,0.035011212700587664
490,10.0,299.69962000000004,-460.31678,0.0,0.004900013238910095,0.0,0.0,0.0,0.0,0.014764393473632186,0.09247383873195732,0.03268657480441377,0.0020093647222588582,-0.01073020000873829,0.023463862963202978
491,10.0,300.24863,-223.98164,0.0,0.004910009226329448,0.0,0.0,0.0,0.0,-0.009645588629370481,0.04540910619327986,0.03232130827586477,5.9105557366264346e-05,0.00095387963244809,0.02370356956586018
492,10.0,300.11487999999997,-204.22855,0.0,0.0049200052137488015,0.0,0.0,0.0,0.0,0.004271016763066536,0.06367958920618613,-0.005870226558796254,-0.010100483310090091,-0.01006941392094878,0.01913081746081468
493,10.0,299.87245,-422.11071,0.0,0.004930001201168155,0.0,0.0,0.0,0.0,0.02085146913137978,0.08234527015559541,0.025114377461846076,-0.005254844309312756,-0.005949828195927324,0.025447021390175475
494,10.0,299.88172000000003,-551.37578,0.0,0.004939997188587508,0.0,0.0,0.0,0.0,0.03474961381626986,0.08384698077105272,0.04900787265295045,0.010073896640716189,0.011298713361596189,0.014307073173498185
495,10.0,299.82551,-374.29902999999996,0.0,0.00494999317600664,0.0,0.0,0.0,0.0,-0.007835042828483523,0.0930943510666971,0.028518250331032176,0.007725260118573812,0.01177343015269709,0.026808202322763576
496,10.0,299.53105,-322.5359,0.0,0.004959989163425993,0.0,0.0,0.0,0.0,-0.006311368193258544,0.07805962550613522,0.026294604085575376,-0.0065527021769013535,-0.0023839298469755577,0.016230999026124883
497,10.0,299.65668,-447.26322999999996,0.0,0.004969985150845346,0.0,0.0,0.0,0.0,0.016359772981333884,0.08994776570265332,0.029649314059909473,-0.013580018603993486,-0.012091735578861387,0.02415125385754318
498,10.0,299.63128,-564.84364,0.0,0.004980014128322052,0.0,0.0,0.0,0.0,0.05363869108147665,0.1001589992751736,0.01790067104440868,-0.009070002790814581,0.007879940447039572,0.013068378979248589
499,10.0,299.90882,-389.58492,0.0,0.004990010115741406,0.0,0.0,0.0,0.0,0.013680693107429288,0.06758858852847434,0.037154807121893965,0.0012824203943650387,0.016263147425297685,0.01964943027274778
500,10.0,300.07925,-281.36654,0.0,0.005000006103160537,0.0,0.0,0.0,0.0,0.005860605343796715,0.07886725575009212,0.0008005411612222612,-0.0054450521247098056,-0.006538579395682544,0.029777218646532676
501,10.0,300.46246,-279.45456,0.0,0.005010002090580112,0.0,0.0,0.0,0.0,-0.030215472619534972,0.07700274485682923,0.038159935009092365,0.003327242283998247,-0.02013878042179288,0.04607129958413326
502,10.0,299.98913999999996,-413.94453,0.0,0.005019998077999466,0.0,0.0,0.0,0.0,0.013620362169975088,0.07871611733867592,0.03349232141643477,0.002850407394888307,0.0023188078577485176,0.03162942868358157
503,10.0,300.1188,-548.3426599999999,0.0,0.005029994065418597,0.0,0.0,0.0,0.0,0.02056869635972228,0.09801173080900472,0.04810204834180255,0.013772238227464088,0.011133915325581887,0.028357209426388676
504,10.0,300.70822999999996,-438.08960999999994,0.0,0.00503999005283795,0.0,0.0,0.0,0.0,0.04012759982878576,0.07779053262407783,0.015250168876324487,-0.02063015099153738,-0.0029818838907640275,0.022026711577867182
505,10.0,300.48439,-315.13185,0.0,0.005049986040257082,0.0,0.0,0.0,0.0,-0.007273947378282713,0.08406097412592221,0.019005186607415882,-0.00948018163004608,-0.015212090937566486,0.024792446626823977
506,10.0,299.70126,-369.40192,0.0,0.00506001501773401,0.0,0.0,0.0,0.0,0.0077304628538622825,0.08602099498686122,0.01853750075875888,-0.0037304995104716363,0.013222599697468989,0.02133220361482458
507,10.0,299.94229,-454.55389,0.0,0.005070011005153363,0.0,0.0,0.0,0.0,-0.0014802805784923186,0.08461093182969882,0.05504238190876015,0.01068958894473029,0.022067937684685877,0.00911203939638827
508,10.0,299.728,-470.84191,0.0,0.0050800069925727165,0.0,0.0,0.0,0.0,0.03100336171179357,0.0917512718471455,0.02036954914531798,-0.006783883901167214,-0.006757283755566984,0.02398593095797708
509,10.0,299.78027000000003,-380.15086,0.0,0.00509000297999207,0.0,0.0,0.0,0.0,0.016348816708002586,0.06828802190025303,0.03091952945151997,-0.008924558338335331,-0.025018486512132378,0.011245833865377388
510,10.0,299.82279,-291.57513,0.0,0.005099998967411423,0.0,0.0,0.0,0.0,0.014223294615479885,0.06383215123399284,0.01057611506603129,0.0045402922327919554,-0.004090441308420126,0.03603934643130657
511,10.0,299.75907,-446.60507,0.0,0.0051099949548305545,0.0,0.0,0.0,0.0,0.016603848718422284,0.08177646599995883,0.03737647483302087,5.5403324899132444e-05,0.007469454390377753,0.011941023745737288
512,10.0,299.58657999999997,-582.1052099999999,0.0,0.005119990942249908,0.0,0.0,0.0,0.0,0.04150626135209906,0.08108575265854072,0.05435343364901624,-0.0034185983315643867,-0.008456484718865061,0.04175588260698476
513,10.0,300.10517999999996,-491.91632999999996,0.0,0.005129986929669039,0.0,0.0,0.0,0.0,0.0008946741118799601,0.1022011572289689,0.046434453486223756,-0.014338155633565788,-0.018385860788543183,0.01943666295049928
514,10.0,300.08793,-246.54592000000002,0.0,0.005140015907145967,0.0,0.0,0.0,0.0,0.0008743589337350083,0.06677122500405683,0.007298219581778192,0.008654673094699732,0.005419663420929135,0.04002272135068506
515,10.0,300.40243,-288.68793,0.0,0.005150011894565321,0.0,0.0,0.0,0.0,-0.005665514777492775,0.06860941875247244,0.02481001739680808,0.0037138484676033064,0.008941098936942761,0.006188102670893184
516,10.0,300.43473,-483.32147000000003,0.0,0.005160007881984674,0.0,0.0,0.0,0.0,0.03167323857815527,0.1027855796216469,0.01245884318284209,0.004469307071861266,-0.00013275687923208385,0.02901965815626727
517,10.0,300.21832,-483.28533,0.0,0.005170003869404027,0.0,0.0,0.0,0.0,0.00976384910154188,0.08982745846527991,0.04731536501716296,-0.00927027825920523,-0.01034216676369239,0.017889396610545984
518,10.0,300.46334,-243.46762999999999,0.0,0.005179999856823159,0.0,0.0,0.0,0.0,-0.01005461550456329,0.07819954115944383,0.005863153667798214,0.01993808090823538,0.006503376959383334,0.032885434255789665
519,10.0,300.00996000000004,-259.09353,0.0,0.005189995844242512,0.0,0.0,0.0,0.0,-0.022152022244234376,0.07249786226998194,0.028412124542058374,0.0021619092208388277,0.02141848490058988,0.02842558556963687
520,10.0,299.75288,-483.50767,0.0,0.005199991831661865,0.0,0.0,0.0,0.0,0.04010144987020497,0.07980343298123563,0.027069375642039373,-0.003154547179354567,0.0018355038733751283,0.021217690141522978
521,10.0,299.66177999999996,-596.26208,0.0,0.005209987819081219,0.0,0.0,0.0,0.0,0.03044149325309147,0.1026907900747919,0.04811650032797886,-0.028103141016814073,-0.024335801151256577,0.035128847997447366
522,10.0,299.66896,-494.75732999999997,0.0,0.005220016796557925,0.0,0.0,0.0,0.0,0.03563808723270536,0.08554005177389583,0.029215734209618476,-0.014025584189717387,0.009407409095938991,0.013284847704112385
523,10.0,299.26271,-334.17162,0.0,0.005230012783977278,0.0,0.0,0.0,0.0,0.0012923288657679286,0.07063692713632193,0.029650570490033473,0.003418934527947567,-0.003919093725084436,0.028083934861168572
524,10.0,298.83956,-461.90175999999997,0.0,0.0052400087713966315,0.0,0.0,0.0,0.0,0.021705458607161977,0.08919779546888702,0.029503346263753574,0.014264115422258588,-0.006684380208221963,0.02243102369901968
525,10.0,298.41452000000004,-637.00417,0.0,0.005250004758815985,0.0,0.0,0.0,0.0,0.027269816776821373,0.1032227362447909,0.06314080663776243,-0.000967467549336613,-0.013997974137742486,0.02619697845169048
526,10.0,299.14587,-520.55943,0.0,0.005260000746235116,0.0,0.0,0.0,0.0,0.02762815976743708,0.1004331543547306,0.030175755242115174,0.01885937890477578,0.007256235766534713,0.011309311957642188
527,10.0,299.74535,-308.5261,0.0,0.0052699967336544695,0.0,0.0,0.0,0.0,-0.004678560949388016,0.07710322988249634,0.02135956136752458,0.0003678900255754187,0.013621063339044287,0.015806256743206085
528,10.0,299.7476,-364.60742999999997,0.0,0.005279992721073823,0.0,0.0,0.0,0.0,0.013633277055749687,0.08477021474541882,0.012428061658054188,-0.0037952687873388665,0.002836526780443397,0.011014881743584188
529,10.0,299.47483,-477.33297999999996,0.0,0.005289988708493176,0.0,0.0,0.0,0.0,0.008640811934656743,0.1001806098733064,0.03627588662740126,-0.006034016816261094,-0.012005696459869989,0.024007971174152275
530,10.0,300.06458,-498.37947,0.0,0.005300017685969882,0.0,0.0,0.0,0.0,0.013183184268578988,0.08630361171800333,0.05200811835805165,-0.003851200800808926,0.01024742281309189,0.026829454230360972
531,10.0,300.01894,-384.83811000000003,0.0,0.005310013673389458,0.0,0.0,0.0,0.0,-0.00022638340748980278,0.08230257078313133,0.03490498862635417,0.006088867793199464,0.01010078049634442,0.03708430923293636
532,10.0,300.69936,-370.07972,0.0,0.005320009660808589,0.0,0.0,0.0,0.0,0.020505304393715982,0.07675989008611132,0.015229798496314086,-0.008550219371040951,-0.011489854886960388,0.03291940245214207
533,10.0,300.16875,-396.47454,0.0,0.005330005648227942,0.0,0.0,0.0,0.0,0.029121757289343676,0.06572311808736674,0.025673484814025677,0.006887165902410353,-0.009202064742598081,0.04377446121770296
534,10.0,300.30192999999997,-398.46145,0.0,0.005340001635647074,0.0,0.0,0.0,0.0,0.02025650083166098,0.09366424953244172,0.007201582373365843,0.0050035407552860255,-0.002032492155791358,0.006275717900415134
535,10.0,300.09128,-378.3287,0.0,0.005349997623066427,0.0,0.0,0.0,0.0,0.008463113502344272,0.08221151911589522,0.024327846124721476,0.014630524896920384,0.01318143742540659,0.027343653324858476
536,10.0,300.71358,-361.17843999999997,0.0,0.00535999361048578,0.0,0.0,0.0,0.0,0.006906418464910432,0.08013101673856562,0.022751791322926977,-0.011384790984091389,-0.003445560106125307,0.007150714786545604
537,10.0,299.58153,-392.50662,0.0,0.005369989597905134,0.0,0.0,0.0,0.0,0.0031299908605310466,0.09439411181797351,0.02178810840456888,-0.0026500891673434377,-0.005165290833674515,0.03480017094325946
538,10.0,299.60316,-573.50728,0.0,0.005379985585324487,0.0,0.0,0.0,0.0,0.03275418797033667,0.1035657619336449,0.03801194071273646,-0.007332333686144994,-0.004055352254807106,0.012116376808043288
539,10.0,299.33105,-617.81711,0.0,0.005390014562801193,0.0,0.0,0.0,0.0,0.025080411291993874,0.11424078743468791,0.04847977885983165,0.0006867665802910844,0.011675580590540089,0.024909131495089876
540,10.0,299.63791000000003,-507.59457000000003,0.0,0.0054000105502205464,0.0,0.0,0.0,0.0,0.028704903158453372,0.08825920062300492,0.03733196883562847,-0.016551312713987385,-0.0042148661915499055,0.02167974333287408
541,10.0,300.24707,-408.95922,0.0,0.0054100065376399,0.0,0.0,0.0,0.0,0.01095651853782419,0.08141828512935913,0.03193858648784307,-0.006405847381607914,-0.001975977118213758,0.02963207664920827
542,10.0,300.33229,-328.53275,0.0,0.005420002525059031,0.0,0.0,0.0,0.0,0.01109700971718959,0.06470964304584453,0.02405909876094818,-0.006533247673656343,0.009952508569461121,0.03218715092287447
543,10.0,300.23868999999996,-375.72291,0.0,0.0054299985124783845,0.0,0.0,0.0,0.0,-0.006140568778226953,0.093212687532626,0.02713826550308827,0.001046821102313199,0.010469534327762589,0.028591023979714376
544,10.0,299.67707,-452.79152,0.0,0.005439994499897738,0.0,0.0,0.0,0.0,0.02870100619856877,0.08688469849135211,0.02205161017257448,-0.01036597510129209,-0.01121071056391099,0.02875155217980727
545,10.0,300.12717000000004,-507.50107,0.0,0.005449990487317091,0.0,0.0,0.0,0.0,0.027401668985834175,0.1002005455690239,0.026665438423423875,-0.0008261185321715512,-0.01082465720956049,0.022980003616449775
546,10.0,299.93156,-428.80976,0.0,0.005459986474736445,0.0,0.0,0.0,0.0,0.027421417230283178,0.08459070837095291,0.018335335072306683,0.025837825874244873,-8.336551978728622e-05,0.02063392129515948
547,10.0,300.31942999999995,-522.9809,0.0,0.0054700154522131506,0.0,0.0,0.0,0.0,0.002260013007445918,0.1161246726831129,0.04058845130551826,0.01101848182118949,0.013260186209928488,0.019491031924365083
548,10.0,299.98666000000003,-690.51275,0.0,0.005480011439632504,0.0,0.0,0.0,0.0,0.042229971183023664,0.11022264283812788,0.057446023928481145,-0.006171795119808754,0.002011842726703418,0.025195962333397874
549,10.0,299.82751,-608.24163,0.0,0.005490007427051857,0.0,0.0,0.0,0.0,0.008724167258108272,0.11436118181156989,0.06180491642767034,-0.013372364141749589,0.007232708504512753,0.029476652189869074
550,10.0,299.829,-264.48278,0.0,0.005500003414470989,0.0,0.0,0.0,0.0,0.0015874214414162984,0.07564371505420342,0.003165024084063557,0.004877934017239605,0.015157276133656684,0.032802279859832965
551,10.0,299.96002999999996,-209.93493999999998,0.0,0.005509999401890342,0.0,0.0,0.0,0.0,-0.028116958708427772,0.06703261414560394,0.024899325260622076,5.190157004378615e-05,0.007055914499239543,0.028342957050482072
552,10.0,300.15115,-434.28425,0.0,0.005519995389309695,0.0,0.0,0.0,0.0,0.029804915838016175,0.08260499756697852,0.01960165350403258,0.0014444374641548786,-0.016969358426995287,0.016526547868293284
553,10.0,299.86239,-535.12189,0.0,0.005529991376729049,0.0,0.0,0.0,0.0,0.022872099573550478,0.08341933147359702,0.05637226354575924,-0.01907437436399418,-0.019725589190014083,0.028424990791828173
554,10.0,299.83603,-486.14525999999995,0.0,0.005539987364148402,0.0,0.0,0.0,0.0,0.02774594401206147,0.08989545666624082,0.03013461931455537,0.007485644505775593,0.0024951695092040576,0.018567649002234284
555,10.0,300.35128,-419.09577,0.0,0.005550016341625108,0.0,0.0,0.0,0.0,0.004151031739224936,0.1024867822996579,0.020756834611790082,0.0016214583361254785,0.003937538220629766,0.04479549105197076
556,10.0,300.12487999999996,-564.9175,0.0,0.005560012329044461,0.0,0.0,0.0,0.0,0.03574421910117976,0.11290938693578889,0.02306720797305618,0.008003973911655722,-0.0008670306631817641,0.014892392292514687
557,10.0,299.33027999999996,-751.8494,0.0,0.005570008316463815,0.0,0.0,0.0,0.0,0.04806078170497986,0.13016760979404288,0.05031505343470915,-0.009462345489860791,0.004142922698674636,0.02190172008528148
558,10.0,299.85106,-543.9162299999999,0.0,0.005580004303882946,0.0,0.0,0.0,0.0,0.030774265864183574,0.09379739566183222,0.04076529080572096,0.001822687374185238,0.017871469176526683,0.0015413425758936687
559,10.0,300.55936,-154.82617,0.0,0.0055900002913022995,0.0,0.0,0.0,0.0,-0.041606221514214364,0.06776929459105864,0.02090021862019098,-0.01239019751506729,0.009028909622409001,0.027858185778638876
560,10.0,299.87436,-242.36203999999998,0.0,0.005599996278721653,0.0,0.0,0.0,0.0,-0.02106402975060788,0.06929598080823084,0.025440057322238176,-0.006913025767487524,-0.008220109986511692,0.018298492285420583
561,10.0,300.3409,-577.41471,0.0,0.005609992266141006,0.0,0.0,0.0,0.0,0.025030251359043475,0.098540883448478,0.05194851898716965,0.004523955500104646,-0.02350835072209358,0.037396096421207364
562,10.0,300.12192999999996,-633.9503,0.0,0.00561998825356036,0.0,0.0,0.0,0.0,0.049291933265485054,0.0932507867496361,0.050162340432637544,0.01082484162107869,-0.004243333757084436,0.026786812613152577
563,10.0,300.10064,-357.64681,0.0,0.0056300172310370655,0.0,0.0,0.0,0.0,0.01086261963780709,0.08164412439114772,0.016208954756949286,0.010267971525119891,0.0054265189697807244,0.034760765646870466
564,10.0,299.68973,-276.38415,0.0,0.005640013218456197,0.0,0.0,0.0,0.0,-0.007669802002175523,0.06944006294595063,0.022243620053274377,0.007487620343470593,-0.012106215936040488,0.02036341492921258
565,10.0,299.26249,-488.95852,0.0,0.005650009205875772,0.0,0.0,0.0,0.0,0.02051137072206468,0.09229097545991011,0.035828833590530566,0.0022285190665127077,0.005904976984225855,0.03897983773826046
566,10.0,299.16967,-664.2685299999999,0.0,0.005660005193295126,0.0,0.0,0.0,0.0,0.02973597024821177,0.1122416753848909,0.05994340070170304,-0.00014676933778000586,0.016836756412908483,0.02672011035906957
567,10.0,299.45763,-534.29723,0.0,0.005670001180714257,0.0,0.0,0.0,0.0,0.023934599707911078,0.10470946798401991,0.03376894578648547,0.009312308177328261,0.01012490304280013,0.04309997001038586
568,10.0,300.02082,-369.63012000000003,0.0,0.00567999716813361,0.0,0.0,0.0,0.0,0.013647155542369387,0.0950104880658051,0.0037006846262791363,-0.0072301338360086535,-0.006119286878426594,0.02591269289763368
569,10.0,300.29554,-352.53351000000004,0.0,0.005689993155552742,0.0,0.0,0.0,0.0,0.014023447245256488,0.08216364203542012,0.01097429398432849,0.013506907543027986,-0.01208526800347309,0.026000906451339675
570,10.0,300.82923999999997,-517.84308,0.0,0.005699989142972317,0.0,0.0,0.0,0.0,0.014869306402236285,0.0951308753499364,0.04741118402611955,-0.005297034320951585,0.004501420919205655,0.005745434676480254
571,10.0,301.11717999999996,-560.78636,0.0,0.005709985130391448,0.0,0.0,0.0,0.0,0.01145705192822299,0.09378406433026651,0.06522393434610115,-0.0064851553788600035,0.017466162043775983,0.016005981510167383
572,10.0,300.7145,-403.67298,0.0,0.005720014107868154,0.0,0.0,0.0,0.0,0.0015859890097499284,0.08699991212047282,0.03412060335294137,-0.011308166985029188,-0.005553068334395175,0.02167283296719208
573,10.0,299.69388,-300.32896,0.0,0.005730010095287508,0.0,0.0,0.0,0.0,-0.0048851044842222755,0.08195870612319452,0.014218902176296384,6.651768145803403e-05,-0.006407636679959504,0.048066700098813954
574,10.0,299.81669,-452.3059,0.0,0.005740006082707083,0.0,0.0,0.0,0.0,0.04366854618474996,0.08444275561785113,0.00937839812437583,0.01079495175637879,0.0013735794661117386,0.03528396037575576
575,10.0,299.87516,-605.99809,0.0,0.0057500020701262144,0.0,0.0,0.0,0.0,0.039931795326461364,0.1028752623879979,0.041401225820232854,0.004223936097170035,0.004798586300583595,0.035890290248845866
576,10.0,299.24991,-574.58729,0.0,0.005759998057545568,0.0,0.0,0.0,0.0,0.027076265742719378,0.1035225772143829,0.04406135082451676,-0.023203988630555377,-0.01039143301005459,0.019779266114061583
577,10.0,299.15417,-439.33615,0.0,0.005769994044964699,0.0,0.0,0.0,0.0,-0.014793667282271286,0.1018433076911519,0.046497583020454154,-0.009165784208192472,-0.01006201344619341,0.017071294426805585
578,10.0,300.00302,-331.73015,0.0,0.0057799900323840525,0.0,0.0,0.0,0.0,-0.0049101282153169255,0.07568733040475793,0.030060478791488272,0.0002453224704089428,0.009062545472728601,0.021789204741177078
579,10.0,300.24408999999997,-460.28114000000005,0.0,0.005789986019803628,0.0,0.0,0.0,0.0,-0.00015970952440960286,0.1054600532605969,0.034613629573349264,0.01973564873700688,0.014773783262308883,0.017365990112389783
580,10.0,300.03951,-575.68515,0.0,0.005800014997280112,0.0,0.0,0.0,0.0,0.04675460809382055,0.1011528375297578,0.027086466131476073,-0.0016072361550718585,0.001219796370609529,0.03042806566276627
581,10.0,300.07672,-453.26507999999995,0.0,0.005810010984699465,0.0,0.0,0.0,0.0,0.007535110869032543,0.09281148507603042,0.03743466983926426,0.00022139794342027581,0.01142657944471559,0.027865939168404078
582,10.0,299.89952999999997,-268.34263,0.0,0.005820006972118819,0.0,0.0,0.0,0.0,-0.0008142795254856322,0.08106679170941943,0.0013169466888725188,-0.001953656535735888,0.01874464048995198,0.03195305772577127
583,10.0,299.82687000000004,-418.27755,0.0,0.005830002959538172,0.0,0.0,0.0,0.0,-0.007667174239366182,0.09063244108672551,0.04418066305029196,0.0077414945130010225,0.022994105018091477,0.02104781268275738
584,10.0,299.77495,-717.1933700000001,0.0,0.005839998946957525,0.0,0.0,0.0,0.0,0.05209779909790245,0.11333215540751289,0.05257892570913595,-0.013399707708948187,-0.017297258318356483,0.03389821826074367
585,10.0,299.60139,-683.7451599999999,0.0,0.005849994934376657,0.0,0.0,0.0,0.0,0.05135356791270255,0.1112934658088099,0.045194426868092656,-0.006544289363971074,-0.01852051362083238,0.029957008731026573
586,10.0,300.17026,-369.94291,0.0,0.00585999092179601,0.0,0.0,0.0,0.0,0.03303366362616877,0.08426735087979002,-0.004847606732471536,0.0016108530526288186,-0.010221943626077291,0.03987516275187216
587,10.0,299.91111,-315.06871,0.0,0.005869986909215585,0.0,0.0,0.0,0.0,0.0021812976601773178,0.07459711788016234,0.018994605236621585,0.02043107369138998,0.003920736608796577,0.022344553948735777
588,10.0,299.80194,-534.42187,0.0,0.005880015886692069,0.0,0.0,0.0,0.0,0.014634058100019089,0.09843869413614272,0.04937815375624436,0.004874815537406835,-0.004616544571717476,0.014822585440125286
589,10.0,300.07116,-649.92807,0.0,0.005890011874111645,0.0,0.0,0.0,0.0,0.005158539852233245,0.11183135975689588,0.08057200648683792,-0.004739835425335336,-0.0007636575302246302,0.007943291275091812
590,10.0,299.99001,-534.3014900000001,0.0,0.005900007861530776,0.0,0.0,0.0,0.0,0.015734911777164882,0.1030796754631719,0.043599724211457754,-0.002977546167085927,0.02250199477577398,0.017604466629425584
591,10.0,300.23458999999997,-343.92197999999996,0.0,0.005910003848950129,0.0,0.0,0.0,0.0,-0.002964061834755127,0.097670805587608,0.00983694942205632,-0.010661629321470889,0.020923573021745877,0.03577375230184447
592,10.0,299.66176,-499.8937,0.0,0.005919999836369483,0.0,0.0,0.0,0.0,0.03049711967033137,0.0995412004242016,0.021916883373027978,0.00015709399152896985,-0.011044876986294491,0.03893310563039836
593,10.0,298.86402999999996,-817.31013,0.0,0.005929995823788614,0.0,0.0,0.0,0.0,0.05901875932294804,0.13167675462548387,0.057746363417122346,-0.019137006392425483,-0.016652558690479585,0.03780328921239417
594,10.0,299.78766,-640.1615400000001,0.0,0.0059399918112079675,0.0,0.0,0.0,0.0,0.038493417908504565,0.10118157127609359,0.05491813515499795,-0.008536459738657982,0.008516128064801402,0.026200365746774774
595,10.0,299.59718,-344.59108,0.0,0.005949987798627321,0.0,0.0,0.0,0.0,-0.011012321260581489,0.08400345799724583,0.03175594815731807,-0.00014752291214437785,0.0033614018832945364,0.037946935652570964
596,10.0,299.56908,-338.28623,0.0,0.005960016776104249,0.0,0.0,0.0,0.0,0.003953319489612256,0.07378558257032003,0.025091663434354376,0.00045973294994710955,0.0012581621737209388,0.02233496049678898
597,10.0,300.64587,-530.38662,0.0,0.005970012763523602,0.0,0.0,0.0,0.0,0.034726655595504065,0.09562335745504061,0.03087427567555377,0.012118675872520189,0.0008182909319690272,0.03384722239646076
598,10.0,300.72699,-651.72731,0.0,0.0059800087509427335,0.0,0.0,0.0,0.0,0.04003141503654306,0.11359829567877888,0.04447911485399686,0.016450888483326286,0.015733525651028087,0.027293270476886074
599,10.0,300.37366000000003,-443.38923,0.0,0.005990004738362087,0.0,0.0,0.0,0.0,0.016818988059154882,0.100789893370438,0.017170374074583983,0.006975505808403824,0.017168238143373184,0.03800933868647966
600,10.0,300.42136,-276.39488,0.0,0.00600000072578144,0.0,0.0,0.0,0.0,-0.02863446809100197,0.09281960222258151,0.01983200882151688,-0.006663459126782213,-0.007544200026404572,0.027001006591541876
601,10.0,299.86399,-400.49001,0.0,0.006009996713200572,0.0,0.0,0.0,0.0,-0.00992133734868476,0.09396551918467472,0.037694780259185164,-0.003377403939473817,-0.013858626917739987,0.02176933389346598
602,10.0,300.01277000000005,-605.19285,0.0,0.006019992700620147,0.0,0.0,0.0,0.0,0.022588291260290775,0.10639716774808289,0.05497805471291154,-0.002675577676258958,0.0005844317145789194,0.027396539913827973
603,10.0,299.98238,-557.7516400000001,0.0,0.006029988688039278,0.0,0.0,0.0,0.0,0.04286307112375576,0.0937459975372596,0.03293350486703387,0.0012797170430982388,0.006956709816398804,0.03240103484673317
604,10.0,299.58473,-383.9357,0.0,0.006040017665516206,0.0,0.0,0.0,0.0,0.012882078762862187,0.08410734450349862,0.01971744367246018,-0.0063134416069381746,-0.00904572329191838,0.03584853015922447
605,10.0,299.86523,-361.6143,0.0,0.00605001365293556,0.0,0.0,0.0,0.0,0.011548338669482289,0.08211597469771571,0.016257404323730882,0.00026034975972702077,-0.01178388892022929,0.03631885451114186
606,10.0,300.31034,-683.07588,0.0,0.006060009640354691,0.0,0.0,0.0,0.0,0.03338547014038937,0.0966747665538066,0.07757777340783012,-0.0006545189535359914,0.002011390513183788,0.01704692373540038
607,10.0,300.61582000000004,-757.61615,0.0,0.006070005627773822,0.0,0.0,0.0,0.0,0.04619021866886966,0.11296499410127689,0.07114118320758814,-0.007382261686147504,0.0013132013112028787,0.025948034047871573
608,10.0,300.83547000000004,-443.30897000000004,0.0,0.006080001615193398,0.0,0.0,0.0,0.0,0.012885346494434688,0.097852623185552,0.024016887775032275,-0.013529277065485687,-0.009657791504299811,0.015550708988485484
609,10.0,300.54172,-264.76417000000004,0.0,0.006089997602612751,0.0,0.0,0.0,0.0,-0.01004841289407614,0.08825276445836973,0.002277345866306538,0.0001274953146428079,-0.008207716924538592,0.03986168855204236
610,10.0,300.09175,-536.53521,0.0,0.0060999935900321045,0.0,0.0,0.0,0.0,0.015240555159375684,0.1179144776597529,0.02993827576317777,0.020951396869491882,-0.003091766507133597,0.02286175023702908
611,10.0,300.45227,-712.90688,0.0,0.006109989577451236,0.0,0.0,0.0,0.0,0.025666435633079975,0.13624840735417085,0.05479105130095575,0.02232181560324168,0.006080746188347925,0.03159372884280826
612,10.0,300.27223,-592.92474,0.0,0.006119985564870589,0.0,0.0,0.0,0.0,0.018099682483299583,0.1093451277215239,0.05278950643766866,-0.016507676085180785,-0.0024791687702499076,0.016508400559002285
613,10.0,300.01383,-383.41235,0.0,0.006130014542347517,0.0,0.0,0.0,0.0,0.0019717278512693883,0.08285137743479432,0.03172467419298157,-0.007500835556574833,-0.00930986624458726,0.033540654459454866
614,10.0,299.83907,-402.86171,0.0,0.0061400105297666485,0.0,0.0,0.0,0.0,0.02350859998161818,0.08009703942296233,0.01885426199177078,-0.01424546148791759,0.017095102764405283,0.032842470425049466
615,10.0,299.48693,-778.5693200000001,0.0,0.00615000651718578,0.0,0.0,0.0,0.0,0.06160722221390944,0.12451504212367788,0.05054336502674175,0.00826742511848133,0.015764951602879586,0.03760166460149536
616,10.0,299.62135,-834.18402,0.0,0.006160002504605133,0.0,0.0,0.0,0.0,0.050996779247740244,0.1269365578751629,0.07563777842186753,-0.015089767332494088,-0.006765628072790504,0.03735079096948606
617,10.0,300.20592,-463.75505999999996,0.0,0.006169998492024709,0.0,0.0,0.0,0.0,-0.00032219330732800367,0.09477152518872131,0.04652062736747846,-0.005014441198536815,-0.006880834001210442,0.025560244996099775
618,10.0,300.01931,-232.38429,0.0,0.006179994479444062,0.0,0.0,0.0,0.0,-0.03168987107854677,0.0922996944770206,0.01002919640327962,0.012738024996145188,-0.015523605561560586,0.04504768596211046
619,10.0,300.21644,-434.53679000000005,0.0,0.006189990466863193,0.0,0.0,0.0,0.0,0.013905555596121489,0.09117583394310422,0.027006945250377976,0.025101116044537273,0.004800890127335965,0.01111274447799249
620,10.0,300.42329,-664.1491,0.0,0.006199986454282325,0.0,0.0,0.0,0.0,0.04314253968683716,0.1273900582224199,0.031352138608215174,0.0035287676977122564,-0.01128710050220009,0.045097303806257365
621,10.0,300.26142000000004,-625.15823,0.0,0.006210015431759475,0.0,0.0,0.0,0.0,0.050741681376064045,0.11587707488867689,0.023413737480755977,-0.0026895458355125075,-0.00996020633179583,0.027892359664761574
622,10.0,299.90981,-480.86470999999995,0.0,0.006220011419178606,0.0,0.0,0.0,0.0,0.01084039298361349,0.1046860821717119,0.03064438949286577,0.000924183187059779,0.006985370912702433,0.03865503636570507
623,10.0,299.52651000000003,-556.18896,0.0,0.006230007406597737,0.0,0.0,0.0,0.0,0.013757872367546286,0.1097593038323999,0.04555038162822266,-0.0028482019547206474,0.009467021436422272,0.024189309504798976
624,10.0,299.37432,-702.29244,0.0,0.006240003394017091,0.0,0.0,0.0,0.0,0.02936098665120377,0.1106046685233309,0.07351371236973853,0.0014872931811094087,-0.0063582729589376835,0.026477011395077577
625,10.0,299.86422999999996,-672.37805,0.0,0.006249999381436666,0.0,0.0,0.0,0.0,0.041161165593290756,0.1061278357390019,0.05709713253479824,-0.02826004076829887,-0.009182121650154852,0.023238914348252277
626,10.0,299.65156,-463.48229000000003,0.0,0.0062599953688560195,0.0,0.0,0.0,0.0,0.02475367663824768,0.0927657337942651,0.023367633587955877,-0.005658008519426964,0.008836172228137302,0.03132870213340217
627,10.0,300.1252,-324.97631,0.0,0.006269991356275151,0.0,0.0,0.0,0.0,0.016681839591869384,0.08634781779336612,-0.004244974715621385,0.004674512609938475,0.00912338171800767,0.04196483098960636
628,10.0,300.60116,-401.94126,0.0,0.006279987343694282,0.0,0.0,0.0,0.0,0.0026560840615600873,0.09782655530022931,0.02169746811687338,0.008830733608225552,0.0038395904745380763,0.03682756381659757
629,10.0,300.29585,-688.53767,0.0,0.006290016321171432,0.0,0.0,0.0,0.0,0.02106150473135868,0.11783933503233689,0.07039742318368473,-0.01083814458164159,-0.002795820977551047,0.027468744115953972
630,10.0,299.98846000000003,-613.29768,0.0,0.0063000123085905635,0.0,0.0,0.0,0.0,-0.001247335799052459,0.11733238574230488,0.07034212911247763,-0.0017407405696977184,0.008082716920652053,0.022743982204406276
631,10.0,300.17273,-419.11655,0.0,0.006310008296009695,0.0,0.0,0.0,0.0,-0.0053713808377640155,0.1024402943850699,0.030332052109790467,0.004125905467220165,0.0027574843560425177,0.03325184980995207
632,10.0,299.80041,-461.80231,0.0,0.00632000428342927,0.0,0.0,0.0,0.0,0.00897620724230768,0.1045054602088859,0.026894699430800174,0.016293309854274483,-0.008924536452133173,0.03487526392142057
633,10.0,300.05496,-743.42569,0.0,0.0063300002708484016,0.0,0.0,0.0,0.0,0.06505609757303694,0.12384722924776989,0.03707951352021306,0.012570361488848089,-0.00960829646606503,0.03139294624274257
634,10.0,299.95538999999997,-779.5953900000001,0.0,0.006339996258267977,0.0,0.0,0.0,0.0,0.047563898041441253,0.12961606736710987,0.059797566654560354,0.0041185722722714355,0.006182157020631394,0.03601112437627126
635,10.0,299.99363,-438.13723,0.0,0.006349992245687108,0.0,0.0,0.0,0.0,0.004886046502840245,0.08589536919971293,0.042401363450688755,-0.0035835690253957263,0.007014405391667914,0.02569214888086768
636,10.0,300.18106,-255.33434,0.0,0.00635998823310624,0.0,0.0,0.0,0.0,-0.028770376340165073,0.08200401765441642,0.024381623360528876,-0.014284020720473089,-0.0092159160741151,0.030668731813268173
637,10.0,299.95127,-437.1511,0.0,0.006370017210583168,0.0,0.0,0.0,0.0,0.024099259941911776,0.06467187009536664,0.04411188971300455,-0.013481378706758487,-0.0006999209375943183,0.024035137422583376
638,10.0,299.65018,-793.78558,0.0,0.006380013198002521,0.0,0.0,0.0,0.0,0.05614735850056285,0.12542321818830787,0.059720414752196034,-0.0015036896955526184,0.001923381433347968,0.027487116366767175
639,10.0,299.38827000000003,-731.1546599999999,0.0,0.006390009185421874,0.0,0.0,0.0,0.0,0.07093453186294324,0.11148834420054289,0.03982988567115366,-0.004021906794181296,0.007111014026427443,0.033673938390858964
640,10.0,299.32579,-481.07634,0.0,0.006400005172841228,0.0,0.0,0.0,0.0,0.008214721725129912,0.11011691019019289,0.027903562157867177,-0.013810224973713087,-0.008866074353163412,0.03878619855139976
641,10.0,299.1612,-467.21537,0.0,0.006410001160260359,0.0,0.0,0.0,0.0,0.0017492545049879785,0.1042814002142729,0.035991151190300066,0.002152581037768208,-0.008179222001251363,0.023373555021540277
642,10.0,299.71379,-732.13176,0.0,0.006419997147679712,0.0,0.0,0.0,0.0,0.016029190003707883,0.1153618169478249,0.0911587647319196,0.0016404934551540985,0.016524558858346985,0.014376903330639883
643,10.0,300.07914,-773.30997,0.0,0.006429993135099066,0.0,0.0,0.0,0.0,0.04521307776268336,0.12368089411135387,0.06617295350901203,0.005586550778649635,0.0007236542237591114,0.025850658686761376
644,10.0,300.44061,-502.32523,0.0,0.006439989122518197,0.0,0.0,0.0,0.0,0.022727645573043978,0.10218602940497591,0.027780652894236972,-0.004468698209876176,-0.01943025515686688,0.02720934601085337
645,10.0,300.52513999999996,-301.13947,0.0,0.0064499851099377725,0.0,0.0,0.0,0.0,0.016033989769431586,0.07575755978243903,-0.00025267082357916876,0.012193400027644886,-0.02216688257020098,0.03271680309464707
646,10.0,299.94834,-459.81507999999997,0.0,0.0064600140874144785,0.0,0.0,0.0,0.0,0.018886125667665482,0.09891693298459121,0.02196924408519558,0.008809848294514332,0.006418297388236635,0.04410441192726655
647,10.0,299.49519,-740.41862,0.0,0.006470010074833832,0.0,0.0,0.0,0.0,0.03171475143475227,0.1260227076099729,0.06733131520883343,0.005667786382891964,0.01075717373965039,0.03849469359038046
648,10.0,300.06469,-617.70475,0.0,0.006480006062253185,0.0,0.0,0.0,0.0,0.0017903898245977185,0.12901497701028689,0.05696144720065714,-0.02265557005368068,0.006540120650409655,0.04713754063786305
649,10.0,299.76901000000004,-428.88735999999994,0.0,0.0064900020496723165,0.0,0.0,0.0,0.0,-0.0031929586800454866,0.1143856011389799,0.019178402725260984,-0.0066371782562884936,0.007740847147512133,0.03712712411591186
650,10.0,300.14537,-444.30510999999996,0.0,0.00649999803709167,0.0,0.0,0.0,0.0,0.015730842564763283,0.0996284290988104,0.01969838646457938,0.003951109996444196,0.01715120236944188,0.03860120745414256
651,10.0,300.36151,-717.17155,0.0,0.006509994024511023,0.0,0.0,0.0,0.0,0.055513107507717145,0.12782511741785688,0.03466401343457176,0.026679109193773077,0.00889502706284582,0.03280775343687317
652,10.0,300.43425,-729.30431,0.0,0.006519990011930377,0.0,0.0,0.0,0.0,0.040694708817005064,0.11836936615964688,0.06262622352147704,-0.004522660971776886,-0.015820988386409985,0.03189983271126837
653,10.0,300.8006,-479.22238,0.0,0.00652998599934973,0.0,0.0,0.0,0.0,0.004489118543116505,0.09380605895018722,0.04737645893194246,0.003766310200805877,-0.017556328130424684,0.017066345713317183
654,10.0,300.38566000000003,-400.49056,0.0,0.006540014976826214,0.0,0.0,0.0,0.0,-0.012260450839762288,0.08796340353456202,0.046036177295916955,0.0007419086335856813,0.004865892249076176,0.015381656315301284
655,10.0,299.80347,-602.68993,0.0,0.006550010964245789,0.0,0.0,0.0,0.0,0.036788151427457866,0.1031183106894849,0.04329622540900476,0.012808949463394887,0.006881133720590023,0.008269335905519912
656,10.0,300.02611,-761.52043,0.0,0.006560006951665143,0.0,0.0,0.0,0.0,0.04720190329746515,0.13964875309975885,0.04463254017088876,0.005857196162510255,-0.01885505232684878,0.03529818336740947
657,10.0,299.89381000000003,-678.5274400000001,0.0,0.006570002939084274,0.0,0.0,0.0,0.0,0.05521047706059985,0.1214384601825429,0.02960646675293077,0.006168607840294194,-0.006098930278617555,0.030083505913260873
658,10.0,299.93674,-479.01832,0.0,0.006579998926503627,0.0,0.0,0.0,0.0,0.02008847052782768,0.0977493375366085,0.027771801141363375,0.004408821309791786,0.01181566950961579,0.03845581721054367
659,10.0,300.12066,-538.96836,0.0,0.006589994913922981,0.0,0.0,0.0,0.0,0.0036192147586136866,0.12276331508579588,0.037450390414565764,0.007317155604947033,0.018101516465980586,0.04460199270687396
660,10.0,299.50982,-730.47184,0.0,0.006599990901342334,0.0,0.0,0.0,0.0,0.02196414845044268,0.11867372622468488,0.08140732075002702,-0.007062126228977593,0.008430181962169181,0.029823344830834972
661,10.0,300.15954,-745.47682,0.0,0.0066099868887616875,0.0,0.0,0.0,0.0,0.025199562411003178,0.14107678726069486,0.06032999310510674,-0.023002069163877478,0.008559234966455722,0.025411940645213273
662,10.0,300.10816,-492.89763,0.0,0.0066200158662383934,0.0,0.0,0.0,0.0,0.020144152673823083,0.09939303995482932,0.030291378224276272,0.0005832883935635824,0.017370989488383184,0.015712615208714385
663,10.0,299.27148,-381.57711,0.0,0.006630011853657747,0.0,0.0,0.0,0.0,0.004560633127224446,0.09289149940992722,0.018537780415786482,-0.002092920162605138,0.004239169096523416,0.028717762315472475
664,10.0,299.1654,-556.93322,0.0,0.0066400078410771,0.0,0.0,0.0,0.0,0.013878640633715187,0.11784423916282087,0.03757090739470986,0.02128884056354498,-0.02194923036922038,0.023879232682696774
665,10.0,299.5852,-714.13522,0.0,0.0066500038284962315,0.0,0.0,0.0,0.0,0.011097029982191592,0.13805255995222687,0.06792968904213834,0.0068514899743394135,-0.02925834137632347,0.04170594052280586
666,10.0,299.84296,-717.41798,0.0,0.006659999815915585,0.0,0.0,0.0,0.0,0.030446563556591873,0.12702767945665588,0.06060290897979144,0.0053398094845231656,0.007688764572496983,0.013413130233022886
667,10.0,299.87257,-573.5421,0.0,0.006669995803334716,0.0,0.0,0.0,0.0,0.026479647871837774,0.12243672431356387,0.025426099802110677,-0.00913123237978247,0.002496205962731348,0.05089347738679515
668,10.0,299.98168,-557.1847,0.0,0.006679991790754292,0.0,0.0,0.0,0.0,0.03103011860718427,0.1061674031554069,0.032172715148699765,-0.01153276704194549,0.0026553256438602373,0.021868002161703776
669,10.0,299.99857000000003,-660.5666,0.0,0.006689987778173645,0.0,0.0,0.0,0.0,0.045842502645302756,0.12176411876468288,0.03318912557576167,0.008305469214685992,0.0035570054581241066,0.05111092997750605
670,10.0,300.24383,-788.18552,0.0,0.006700016755650351,0.0,0.0,0.0,0.0,0.03879519722553786,0.12171877582270789,0.07907474201281943,0.005213835139340465,0.01042978452633959,0.015651862759218586
671,10.0,300.54297,-588.16222,0.0,0.006710012743069482,0.0,0.0,0.0,0.0,0.021338137207410183,0.10265326942358889,0.05479522082511725,0.008377519200146772,0.006773215390864313,0.04202199146749766
672,10.0,299.98717,-381.53963,0.0,0.006720008730489058,0.0,0.0,0.0,0.0,-0.00931766391338183,0.09121437392390783,0.03408181005961276,-0.013897347257061387,-0.024066647474193178,0.016976319455182284
673,10.0,299.74608,-414.079,0.0,0.006730004717908189,0.0,0.0,0.0,0.0,0.01102482780656579,0.0987790438314826,0.016065805822571586,0.003781750612454726,-0.0007131881202961872,0.02053188194383898
674,10.0,299.6854,-762.3652,0.0,0.006740000705327542,0.0,0.0,0.0,0.0,0.05017796677567975,0.12637472082721388,0.05518729795131224,-0.004630611624180785,0.008811231684875862,0.0075844287911498425
675,10.0,299.66867,-821.85298,0.0,0.006749996692746896,0.0,0.0,0.0,0.0,0.06783532506032534,0.13063189112236387,0.051355567055149855,0.003131881483892637,0.011721634834085289,0.031845418141148066
676,10.0,299.16559,-678.1983799999999,0.0,0.006759992680166027,0.0,0.0,0.0,0.0,0.018172670941002982,0.12557990718377188,0.06240279579492644,-0.018502008634256085,-0.016654693608440286,0.03757875501673437
677,10.0,299.18459,-608.1019200000001,0.0,0.0067699886675856025,0.0,0.0,0.0,0.0,0.015452090369502585,0.13230144357713589,0.03709426542841897,0.0010108650207221101,-0.008149398808408042,0.053683627710161545
678,10.0,299.24415,-750.41896,0.0,0.006780017645062308,0.0,0.0,0.0,0.0,0.03517527005077887,0.11042081429268591,0.08251253646885333,0.0052535143172314945,0.004887937531501876,0.036953093344986365
679,10.0,299.57967,-773.58418,0.0,0.00679001363248144,0.0,0.0,0.0,0.0,0.05444427152048125,0.13367671780536486,0.047029281957428754,-0.002033072545448638,0.009782170892500101,0.044237670527418164
680,10.0,299.68428,-539.12737,0.0,0.006800009619900793,0.0,0.0,0.0,0.0,0.018519200448702783,0.0994972334758624,0.04586482353175566,-0.008761482624841012,-0.0013810335417973987,0.022408111074508377
681,10.0,300.14869,-275.52643,0.0,0.0068100056073201465,0.0,0.0,0.0,0.0,-0.02121944610394628,0.08882674226901692,0.016145858659972184,-0.0027158394729574873,0.0032871715862685773,0.03288739388148307
682,10.0,300.34411,-439.78770999999995,0.0,0.0068200015947395,0.0,0.0,0.0,0.0,-0.026468814201768574,0.1054661124961949,0.054687184046454854,0.008316963523820393,0.01956241742041028,0.015636999393501685
683,10.0,300.18712999999997,-786.18531,0.0,0.006829997582158853,0.0,0.0,0.0,0.0,0.036323251003325764,0.12810373079785387,0.07455372240487954,-0.0027624156416291975,-0.0033586206130950466,0.03548664991250967
684,10.0,300.0462,-836.79762,0.0,0.0068399935695779845,0.0,0.0,0.0,0.0,0.05366485319905866,0.13452623682170586,0.06617449364916404,-0.010288650946410792,-0.02399933625680008,0.023009732374383775
685,10.0,300.16345,-686.78521,0.0,0.00684998955699756,0.0,0.0,0.0,0.0,0.05051912301809925,0.13033974072103088,0.027906692087426077,-0.007558953961110674,-0.004509803638607966,0.038945223088344263
686,10.0,299.94709,-635.84093,0.0,0.006859985544416691,0.0,0.0,0.0,0.0,0.04367958351808926,0.11017374338830191,0.03942643481258617,0.00044384855236944163,-0.0018284469917286684,0.02079964746826538
687,10.0,300.25699,-725.5518,0.0,0.006870014521893397,0.0,0.0,0.0,0.0,0.042481471003594756,0.12689130612569688,0.05117685304226215,0.006605178399580354,0.0006751565275977614,0.03431844347471667
688,10.0,299.04295,-754.98182,0.0,0.006880010509312751,0.0,0.0,0.0,0.0,0.03319646961248647,0.11296152878593489,0.08333761893253262,-0.0060580614437841145,-0.01937945181010298,0.027512791111051076
689,10.0,299.46848,-469.55167,0.0,0.006890006496732104,0.0,0.0,0.0,0.0,-0.003870509497364546,0.0962215995658325,0.05038089239970695,0.006672169227291833,0.0028703134023778773,0.024569123265033677
690,10.0,299.83797999999996,-267.55736,0.0,0.006900002484151457,0.0,0.0,0.0,0.0,-0.015389125995038486,0.08588076725252183,0.01083911426198729,-0.0003235133087632777,0.014662466593072786,0.04180772858810156
691,10.0,300.37717000000004,-439.8841,0.0,0.006909998471570811,0.0,0.0,0.0,0.0,0.024387940974902374,0.0941066608706043,0.015219179635266087,0.002110690137558898,0.006316204334660834,0.02988164014883827
692,10.0,300.26943,-765.19646,0.0,0.006919994458989942,0.0,0.0,0.0,0.0,0.06045928989736734,0.13409285962143486,0.03804846229934086,-0.009216865996083852,-0.01021855937074329,0.03892049269315356
693,10.0,300.63876,-731.37414,0.0,0.006929990446409295,0.0,0.0,0.0,0.0,0.03104262413991847,0.13415179024725088,0.05712505568105404,-0.009124644227632272,0.004087684862848086,0.035947668575508664
694,10.0,300.1649,-588.83026,0.0,0.006939986433828649,0.0,0.0,0.0,0.0,-0.01095495813267019,0.12966813828974888,0.060276512751578644,0.007048108116494113,0.0006085998674216304,0.038515796550213165
695,10.0,300.21632999999997,-614.78875,0.0,0.006950015411305355,0.0,0.0,0.0,0.0,0.005553455801233415,0.13447980970212386,0.04684715734470446,-0.00930364286247306,-0.011762237792092489,0.04069861185639026
696,10.0,299.88156000000004,-799.15896,0.0,0.006960011398724708,0.0,0.0,0.0,0.0,0.048853089580924554,0.12931560831495686,0.06475566689188673,0.0051296663787086545,-0.01829710818578398,0.036864382285481265
697,10.0,299.69485,-716.18421,0.0,0.0069700073861440615,0.0,0.0,0.0,0.0,0.05965507633274764,0.12407032665478789,0.033976711706240365,0.001277185336398379,-0.005453320042875786,0.044388409718294955
698,10.0,300.03604,-467.17029,0.0,0.006980003373563637,0.0,0.0,0.0,0.0,0.02232309533811798,0.1002631846902059,0.01942182288953468,0.014874989722047186,0.01982722020154428,0.017049215707126586
699,10.0,299.61822,-476.71412999999995,0.0,0.006989999360982768,0.0,0.0,0.0,0.0,0.0043668581648503456,0.10650736882895889,0.03403496649423967,0.0008879966316009442,0.006576660576840864,0.03363355125512307
700,10.0,299.73909,-594.5031799999999,0.0,0.0069999953484018995,0.0,0.0,0.0,0.0,-0.0015349348835862785,0.11748352212722088,0.06476552986836014,0.0028166505625067677,0.003432274877439156,0.024048663298168276
701,10.0,300.3326,-777.66899,0.0,0.007009991335821253,0.0,0.0,0.0,0.0,0.044484785001556455,0.12629550493439587,0.06561166260286694,0.0026765173644016974,0.01984492776029188,0.02945253886398927
702,10.0,300.2783,-822.9085299999999,0.0,0.007019987323240606,0.0,0.0,0.0,0.0,0.04477337788178836,0.13629077134085188,0.06907949283161513,-0.007941412912056432,0.015256663809465486,0.025109967797410877
703,10.0,300.11314,-599.87127,0.0,0.007030016300717312,0.0,0.0,0.0,0.0,0.05477886595525314,0.12450110993480287,0.003065907756631537,-0.015730483874227884,0.00047105503696201256,0.03351328657425386
704,10.0,299.80716,-564.76642,0.0,0.007040012288136666,0.0,0.0,0.0,0.0,0.03083389259281827,0.1176350131496719,0.023205985746502476,-0.018125890197136084,-0.02382111063046058,0.03312884428756237
705,10.0,300.1952,-782.4277099999999,0.0,0.007050008275556019,0.0,0.0,0.0,0.0,0.04338915969492666,0.13720295987587788,0.05724637008902685,0.008710295053639192,-0.011686600698627689,0.024292248622208277
706,10.0,300.53805,-804.4410799999999,0.0,0.007060004262975372,0.0,0.0,0.0,0.0,0.006047989636465105,0.13260592523218587,0.1058760836191559,-0.0023158572734573177,-0.008717509495676201,0.02155172424898958
707,10.0,300.23786,-595.04088,0.0,0.007070000250394726,0.0,0.0,0.0,0.0,0.012967212036264187,0.11541804219587389,0.05249231511708815,0.015675767355577786,0.0002650523345011288,0.02892541677771637
708,10.0,299.7577,-529.62469,0.0,0.007079996237813857,0.0,0.0,0.0,0.0,-0.002162553039952368,0.12433741938114788,0.03881781398101996,0.0004964680486125815,0.002183557106575308,0.05079519618009555
709,10.0,300.00673,-568.2119799999999,0.0,0.00708999222523321,0.0,0.0,0.0,0.0,0.05940302023787164,0.10897041770204291,0.004348814713694596,0.010844614183530091,0.013871594492519788,0.04231071910999286
710,10.0,300.02365,-718.8824400000001,0.0,0.007099988212652342,0.0,0.0,0.0,0.0,0.03561744631491826,0.13493467793701588,0.047970182960538454,-0.006440096045587994,0.006978411809690623,0.03706580221985987
711,10.0,299.87171,-703.3466,0.0,0.00711001719012927,0.0,0.0,0.0,0.0,0.019831863926752583,0.13523529910918486,0.058732637759710035,-0.0091534096886962,0.0011907265292155588,0.04387757866712986
712,10.0,299.22234,-561.56201,0.0,0.007120013177548623,0.0,0.0,0.0,0.0,-0.01998814458242628,0.1208693176013729,0.06981965176466313,-0.008476774444167503,-0.016933880487993883,0.03872343885345586
713,10.0,299.41475,-446.42067000000003,0.0,0.007130009164967976,0.0,0.0,0.0,0.0,-0.008062866844568002,0.1148335083456849,0.028930099006428473,0.008439564962070212,0.0037697459292449563,0.03548810291315307
714,10.0,299.96535,-678.33006,0.0,0.00714000515238733,0.0,0.0,0.0,0.0,0.035185324531521164,0.1144883244341179,0.056521748333012246,-0.002168506593564938,0.005825896258971194,0.02389842667934108
715,10.0,299.73704,-948.55943,0.0,0.007150001139806683,0.0,0.0,0.0,0.0,0.09230006735305742,0.13026403067355888,0.06577427911141594,-0.0036777496089406263,-0.007982785230864563,0.015178890784789886
716,10.0,299.88732999999996,-800.81152,0.0,0.0071599971272258145,0.0,0.0,0.0,0.0,0.04967600064963955,0.12897510561885187,0.06477559448160344,-0.013074286227331589,-0.012609861017496386,0.02878930081228277
717,10.0,300.40328,-658.19168,0.0,0.007169993114645168,0.0,0.0,0.0,0.0,0.01076759906992929,0.1100968782357159,0.07920936140785532,-0.004245443951742696,-0.001028637316018599,0.02116309419963478
718,10.0,300.32216,-623.34347,0.0,0.007179989102064521,0.0,0.0,0.0,0.0,0.003855775422360406,0.1108027994478849,0.07482227826438392,0.003950664065075187,0.006892207530932924,0.023018020760201777
719,10.0,300.1768,-713.61461,0.0,0.007190018079541227,0.0,0.0,0.0,0.0,0.023044709767835774,0.1270414596580159,0.06683485001758613,-0.008166612306406883,0.008203052427703241,0.017644615651387984
720,10.0,300.09207999999995,-720.58663,0.0,0.007200014066960803,0.0,0.0,0.0,0.0,0.05795752473796235,0.13238195643008188,0.028700856237553973,0.0038168706715208064,0.0025684225265085675,0.05079593483941845
721,10.0,300.00242000000003,-509.81585,0.0,0.007210010054379934,0.0,0.0,0.0,0.0,0.044340740354090365,0.1139679394477599,-0.003337390693024817,-0.008825581839417113,-0.0005851837994656444,0.026927825616319477
722,10.0,300.28303999999997,-372.82286,0.0,0.007220006041799287,0.0,0.0,0.0,0.0,-0.0001792569122912798,0.09599526381149491,0.017512833356632083,0.012171870489520089,0.01140042138013399,0.04767775796842835
723,10.0,299.83709,-633.9377,0.0,0.007230002029218641,0.0,0.0,0.0,0.0,0.009418341355242922,0.11285413440783588,0.07042875389002684,-0.005091178073660155,-0.012917215236579887,0.016439524883454786
724,10.0,298.73778,-941.99955,0.0,0.007239998016637772,0.0,0.0,0.0,0.0,0.025560386851113774,0.16693157595486385,0.0938523837315091,0.0005051227142092305,-0.0034921815670764865,0.05329419820647785
725,10.0,298.93563,-797.7420099999999,0.0,0.007249994004057125,0.0,0.0,0.0,0.0,0.018793247110499085,0.14323889072157786,0.08046151257668302,-0.011855790160575388,0.016039155318441384,0.01991998932769988
726,10.0,299.32219,-527.59028,0.0,0.007259989991476479,0.0,0.0,0.0,0.0,0.027400877637506073,0.11406777498011288,0.018905614520088883,-0.005501477692303574,0.024919277168341178,0.04770704089631836
727,10.0,299.49537999999995,-650.36126,0.0,0.007269985978895832,0.0,0.0,0.0,0.0,0.04479419105209246,0.12005950785645088,0.03283988866379467,-0.022830525921947478,0.004515267893747245,0.021596434922902183
728,10.0,299.37573,-760.64396,0.0,0.00728001495637276,0.0,0.0,0.0,0.0,0.03869076761723146,0.13105866193198287,0.06146733999785415,-0.005345705890830095,-0.014673834245944685,0.05380865871950115
729,10.0,299.96744,-692.71834,0.0,0.007290010943791891,0.0,0.0,0.0,0.0,0.015519963940701185,0.1287819396197879,0.06626717664906114,0.012197165265016487,-0.0025366499417978573,0.03127129847548687
730,10.0,300.2734,-430.73704000000004,0.0,0.007300006931211245,0.0,0.0,0.0,0.0,-0.014019691127135789,0.10990591098936889,0.03504708175412767,0.03240788036440877,0.0071094866532267036,0.043884335018796655
731,10.0,299.97881,-476.33097000000004,0.0,0.007310002918630376,0.0,0.0,0.0,0.0,0.016094217355375584,0.1011926329274353,0.027505870612868074,0.016996237925648083,0.004174771277142846,0.016905081893651683
732,10.0,300.3229,-725.14277,0.0,0.0073199989060497295,0.0,0.0,0.0,0.0,0.056018267398072544,0.13331618315478289,0.031090839645926967,0.00014546621709139788,-4.393037001058996e-05,0.03869161773406536
733,10.0,299.85200000000003,-941.69756,0.0,0.007329994893469305,0.0,0.0,0.0,0.0,0.06974591451513584,0.14777645771690087,0.06873016979338964,0.00048200818948300456,0.013631977055871386,0.019841239529927883
734,10.0,299.54894,-850.8652800000001,0.0,0.007339990880888436,0.0,0.0,0.0,0.0,0.03318676672952887,0.14330986889108288,0.08214516643309672,-0.00974990931329113,0.0013186520901158287,0.013423648782310987
735,10.0,299.35823,-638.59288,0.0,0.00734998686830779,0.0,0.0,0.0,0.0,0.02040799590711238,0.11068293196105489,0.06302536502736925,-0.017998477036811383,-0.022639464443341178,0.013171393077165288
736,10.0,299.30067,-730.09093,0.0,0.007360015845784718,0.0,0.0,0.0,0.0,0.016233700350891483,0.12938866364716686,0.07630704531166903,-0.008104722787648863,-0.01227641966133829,0.026876954381798872
737,10.0,299.16362999999996,-887.3040900000001,0.0,0.007370011833203849,0.0,0.0,0.0,0.0,0.07291746433514343,0.14232492899887686,0.05447589809585255,-0.0013232066493153287,0.0030514054119252674,0.03194968562943847
738,10.0,300.20207,-693.94595,0.0,0.007380007820623202,0.0,0.0,0.0,0.0,0.04963473907906736,0.11862452279982888,0.04268298415698255,0.011552768598919488,0.02161209875619808,0.03283979240503517
739,10.0,300.14094,-405.54794,0.0,0.007390003808042334,0.0,0.0,0.0,0.0,0.017542462816056283,0.09845223318397892,0.007281751835852953,-0.0010759900395669489,0.005824428870176375,0.04361753410846546
740,10.0,300.16546,-477.91576,0.0,0.007399999795461687,0.0,0.0,0.0,0.0,-0.015162024223625285,0.12167833701121687,0.03875814773563136,-0.0018601603013085283,-0.0015140749011275584,0.053929781623205046
741,10.0,300.582,-625.9091099999999,0.0,0.007409995782881262,0.0,0.0,0.0,0.0,0.0009830338471778872,0.13340873341891687,0.055868969048837945,0.017307991676665784,-0.002920930209798367,0.04801617944882795
742,10.0,299.92919,-742.83735,0.0,0.007419991770300394,0.0,0.0,0.0,0.0,-0.002057592995218618,0.15870510985047484,0.06915649375971453,-0.0011876321647351687,-0.001118470955309489,0.04700074984786286
743,10.0,299.55674,-737.4163599999999,0.0,0.007429987757719747,0.0,0.0,0.0,0.0,0.04813309331161646,0.13510189460101887,0.04092116920110496,0.0024397294286575477,-0.02052038358170418,0.03684063068988717
744,10.0,299.36426,-652.87556,0.0,0.007440016735196453,0.0,0.0,0.0,0.0,0.03877331912937866,0.1212519411041349,0.03843260365075266,-0.019233960241494083,-0.014618006191934884,0.03328486251146017
745,10.0,299.68998999999997,-651.71542,0.0,0.007450012722615806,0.0,0.0,0.0,0.0,0.031007475507199574,0.12915672056677588,0.03794102232498736,0.007752560723968173,0.015031068740950986,0.03770916841060517
746,10.0,299.89274,-799.33336,0.0,0.00746000871003516,0.0,0.0,0.0,0.0,0.029732387395858175,0.13135661825638886,0.08188837947350382,-0.003657582182925257,0.013828236507490686,0.01013304714180389
747,10.0,300.13347000000005,-818.99877,0.0,0.007470004697454291,0.0,0.0,0.0,0.0,0.04565243516504455,0.12766980644252887,0.07563293508638952,0.0013586080879341787,0.0030371851560468373,0.021774601780735876
748,10.0,299.82667999999995,-705.78632,0.0,0.0074800006848736444,0.0,0.0,0.0,0.0,0.03149368154118437,0.12149517179063987,0.061552568516765535,-0.003608376427594027,-0.017239157544372382,0.03293038405672587
749,10.0,300.08164,-581.7754,0.0,0.007489996672292998,0.0,0.0,0.0,0.0,0.04641934288748245,0.11330591222992288,0.017119944617106985,0.007562068793243081,0.003259703287982667,0.048431214795788755
750,10.0,299.96599,-703.76454,0.0,0.007499992659712351,0.0,0.0,0.0,0.0,0.04077667771034476,0.1258386000668029,0.047311566342538046,-0.0027235543592188873,0.013506184082456588,0.03540678047337717
751,10.0,299.35446,-869.07569,0.0,0.0075099886471317046,0.0,0.0,0.0,0.0,0.05277574346156035,0.13148096430866088,0.07992060522279963,-0.005296607742659485,-0.0018926710387170882,0.02952421414956307
752,10.0,299.79498,-735.89136,0.0,0.0075200176246084105,0.0,0.0,0.0,0.0,0.011404144061001388,0.13614932162689186,0.07613913659784773,-0.007994236882169752,-0.005266063014419955,0.03389340937576907
753,10.0,300.01854,-605.80781,0.0,0.007530013612027764,0.0,0.0,0.0,0.0,-0.01087855299562959,0.12827946889519787,0.06674953537241624,0.016239061457170585,-0.01056526518396049,0.02162403180262578
754,10.0,300.32082,-714.27592,0.0,0.007540009599447117,0.0,0.0,0.0,0.0,0.0052027424825457054,0.13371038810618788,0.07820891473611892,0.019372081428875584,0.006168395463073234,0.027673357814647772
755,10.0,300.86281,-832.40658,0.0,0.0075500055868662486,0.0,0.0,0.0,0.0,0.061077973315676645,0.14880113727802885,0.043151700480991255,0.0008027937681820763,-0.013670246498898286,0.017502036163566482
756,10.0,300.78521,-837.2909400000001,0.0,0.007560001574285602,0.0,0.0,0.0,0.0,0.06076794107657884,0.13807575324701588,0.05567184732138355,0.006413052603069014,-0.01042778031764179,0.04435818953406246
757,10.0,300.5132,-760.00395,0.0,0.007569997561704955,0.0,0.0,0.0,0.0,0.03412278893340707,0.14110484415596386,0.05579459142524745,-0.003052855170168347,0.006062092254006925,0.030167817440831773
758,10.0,300.58783,-521.26401,0.0,0.007579993549124309,0.0,0.0,0.0,0.0,-0.01213510673614179,0.12712752512150988,0.04345882671880225,-0.006374790354117824,0.01784370713703678,0.06088435034081754
759,10.0,299.80902000000003,-632.70614,0.0,0.007589989536543662,0.0,0.0,0.0,0.0,0.002250812696537918,0.12935165975351487,0.060724397666781435,-0.018034436269610283,0.0017232087085174584,0.03595414527014786
760,10.0,299.96362,-760.2207099999999,0.0,0.007599985523962793,0.0,0.0,0.0,0.0,0.03545404960379227,0.14562163952423687,0.050012421974341754,-0.01031767954852569,0.014997590957646986,0.07226540243203992
761,10.0,300.2126,-649.4032,0.0,0.007610014501439721,0.0,0.0,0.0,0.0,0.04608433099366936,0.12975632144595187,0.02156170172272428,0.018564689298692184,0.009627824733917321,0.036980939484234567
762,10.0,299.52882999999997,-537.03387,0.0,0.007620010488859075,0.0,0.0,0.0,0.0,0.006065550780573255,0.11728919089054189,0.03989014669435096,0.006062158317913444,0.015136654467621484,0.03605165235377107
763,10.0,299.68376,-709.93329,0.0,0.007630006476278428,0.0,0.0,0.0,0.0,0.013995245455223187,0.1377320588130959,0.06407469291042985,-0.00926042896160818,-0.00959124144038183,0.017304072425278982
764,10.0,300.1357,-949.38041,0.0,0.007640002463697559,0.0,0.0,0.0,0.0,0.03694480191941806,0.13591469343373586,0.1157284513640089,0.0009556521919080283,-0.013122614204101187,0.01825717093309248
765,10.0,299.99395,-954.4396800000001,0.0,0.007649998451116913,0.0,0.0,0.0,0.0,0.05060608824768205,0.14679256147229786,0.09272717861471,-0.006092321354840305,0.0034677639621916562,0.02173352462168188
766,10.0,300.03789,-648.6845599999999,0.0,0.007659994438536266,0.0,0.0,0.0,0.0,0.035765429465523066,0.11681150426339788,0.04460697789736596,0.012065690998290989,0.01242364692736849,0.018997907418697484
767,10.0,299.75416,-603.8686799999999,0.0,0.0076699904259556195,0.0,0.0,0.0,0.0,0.05921678892249205,0.1111444268516009,0.013199779278716788,-0.0027901123264876477,-0.007101104440449442,0.030181337236916076
768,10.0,299.82835,-772.2643099999999,0.0,0.007679986413374751,0.0,0.0,0.0,0.0,0.04734145924698825,0.14713570875116389,0.04027190184177726,0.004790552037890676,0.0023402934208189776,0.046665903113816055
769,10.0,299.69647000000003,-840.9852900000001,0.0,0.007690015390851457,0.0,0.0,0.0,0.0,0.05182543747102245,0.14112882778583088,0.06268425843420465,0.008225313228425212,0.0010325264738774288,0.05013849460478415
770,10.0,299.55848,-746.84665,0.0,0.007700011378271032,0.0,0.0,0.0,0.0,-0.004171080209678566,0.15696617002885485,0.07422764231069792,0.004680560598460366,0.005913961067562514,0.041287969790305364
771,10.0,299.52738,-597.67293,0.0,0.007710007365690386,0.0,0.0,0.0,0.0,-0.014147713250770586,0.14371537158110287,0.052109985456855155,-0.002423997099654888,-0.005379606807375855,0.04763420239962975
772,10.0,300.13035,-712.71316,0.0,0.007720003353109517,0.0,0.0,0.0,0.0,0.03132826643585917,0.13141315761196887,0.05390558115781665,0.0032515537174283666,0.006261596132446425,0.04831899633396366
773,10.0,299.74427000000003,-920.1827300000001,0.0,0.00772999934052887,0.0,0.0,0.0,0.0,0.08583031955654301,0.15233984232477185,0.04154241310241696,-0.005847823700410265,0.004108590542886316,0.02938819748263927
774,10.0,300.35997000000003,-836.03989,0.0,0.007739995327948002,0.0,0.0,0.0,0.0,0.03423627598435737,0.14888227834603684,0.07101670036655264,-0.008800580298499653,0.00048245757603485555,0.019059465402022784
775,10.0,300.1556,-630.6341,0.0,0.007749991315367577,0.0,0.0,0.0,0.0,0.006992522938533283,0.13560096080527287,0.04910353359489145,-0.007568205035848683,-0.01848408322673698,0.03156322494854777
776,10.0,300.41412,-726.87494,0.0,0.00775998730278693,0.0,0.0,0.0,0.0,-0.01121205616004379,0.16421431276419085,0.06794957306210073,-7.4226604742595526e-06,-0.015305998956834484,0.04259570785961905
777,10.0,300.12993,-785.20566,0.0,0.007770016280263414,0.0,0.0,0.0,0.0,0.04412572159011966,0.14002247013414185,0.054534724356908246,0.02116603262492478,0.0021691284251513076,0.054024699852822745
778,10.0,300.0784,-795.68334,0.0,0.007780012267682768,0.0,0.0,0.0,0.0,0.04943737721133925,0.14154936710733487,0.05088112586807615,0.008821441902158533,0.00952681656722359,0.04290145506404396
779,10.0,299.6226,-730.06601,0.0,0.007790008255102343,0.0,0.0,0.0,0.0,0.07332268432838553,0.13282437182124487,0.015774778102349382,0.00975324847899568,0.007355646949745833,0.05613706995904745
780,10.0,300.61253,-616.30396,0.0,0.007800004242521474,0.0,0.0,0.0,0.0,0.01922333327444528,0.1167316196255139,0.05138606284340955,-0.017438045366751084,0.005946722787020844,0.034325407542653966
781,10.0,300.25881,-659.46702,0.0,0.007810000229940828,0.0,0.0,0.0,0.0,0.027682918842591372,0.12431591821402586,0.04846267114514326,-0.004510534090605056,0.003055612628990487,0.04205605794910976
782,10.0,299.70134,-780.72642,0.0,0.007819996217359959,0.0,0.0,0.0,0.0,0.004182019865708226,0.12397123079500788,0.10916809266405189,-0.00961220234255051,-0.0018178743348852284,0.001891763470602518
783,10.0,300.10947999999996,-821.3648400000001,0.0,0.007829992204779535,0.0,0.0,0.0,0.0,0.03455075335164387,0.14408855159293288,0.07103509693536823,-0.007267084939330443,0.016317813281442786,0.03254345221453867
784,10.0,299.72236000000004,-826.96022,0.0,0.007839988192198888,0.0,0.0,0.0,0.0,0.054012823548400646,0.14764129015356087,0.04972114094159455,-0.004004665127829676,-0.006095963279674734,0.013904374146504885
785,10.0,299.85042999999996,-808.13672,0.0,0.007850017169675372,0.0,0.0,0.0,0.0,0.07473998918401263,0.14563982736353187,0.025273569185057077,0.002247556110716518,0.00028116086300091674,0.028755715624468176
786,10.0,300.20586000000003,-839.96332,0.0,0.007860013157094947,0.0,0.0,0.0,0.0,0.051538442486198245,0.14784207579337685,0.05594735407657395,0.003682888205497767,0.0034404880800997365,0.03833729835959676
787,10.0,300.12939,-847.02565,0.0,0.0078700091445143,0.0,0.0,0.0,0.0,0.03194080955856247,0.14955839987276484,0.07597543996469212,0.01086558744734999,-0.0029101368670831473,0.04429466888529346
788,10.0,299.9733,-750.53553,0.0,0.007880005131933432,0.0,0.0,0.0,0.0,-0.00947524345435872,0.15567843047676486,0.08194087089493432,5.727768154361704e-05,0.0006849846178702182,0.06547515957589514
789,10.0,299.89701,-643.57662,0.0,0.007890001119352785,0.0,0.0,0.0,0.0,0.012347094869063387,0.13501410661235488,0.04827001683737975,-0.0012928550465448588,-0.006846659811112713,0.05138839534513975
790,10.0,299.24872999999997,-604.9249900000001,0.0,0.007899997106771917,0.0,0.0,0.0,0.0,0.03125339029321947,0.1074162339036569,0.04521246677287305,0.0004220463891727357,0.00983165478498378,0.04554566697550736
791,10.0,299.92491,-624.2381799999999,0.0,0.00790999309419127,0.0,0.0,0.0,0.0,0.03997125229860546,0.11921648377325089,0.030565088487039368,-0.008275638422466923,0.012203733152164688,0.039357146744247964
792,10.0,299.70466,-749.26591,0.0,0.007919989081610845,0.0,0.0,0.0,0.0,0.015386931295321886,0.14024763457136388,0.07212356059029124,-0.004233124857026896,0.017783331616578184,0.04560510929262386
793,10.0,299.27378999999996,-772.92553,0.0,0.007930018059087551,0.0,0.0,0.0,0.0,0.014632864491401287,0.13966313111867787,0.08065406657268663,0.003112912834070577,0.01061090095521439,0.027547635768739975
794,10.0,299.59327,-765.44288,0.0,0.007940014046506905,0.0,0.0,0.0,0.0,0.00020671133918332077,0.14353767791106586,0.08893113033406923,0.0099545662777642,0.006439825710461314,0.02852306630875747
795,10.0,299.93306,-867.24279,0.0,0.007950010033926036,0.0,0.0,0.0,0.0,0.05153895721724905,0.14477962869113686,0.06730156618589743,0.0040802025174846365,-0.007158171294031504,0.024343934509809276
796,10.0,300.23686000000004,-920.52185,0.0,0.00796000602134539,0.0,0.0,0.0,0.0,0.07155516984069543,0.15016433356506584,0.058096149510643534,0.008439223091486472,-0.012293390587263187,0.027170637830533174
797,10.0,300.69485,-843.3145099999999,0.0,0.007970002008764743,0.0,0.0,0.0,0.0,0.07395324607761714,0.14365000681715187,0.03874330260841626,-0.006861606162012804,-0.012840163645975488,0.03846626685882496
798,10.0,299.93113999999997,-727.8659,0.0,0.007979997996183874,0.0,0.0,0.0,0.0,0.044970808650523254,0.11865943939827489,0.057622805673428146,-0.0008291223019605002,-0.00097057870337116,0.02977364592668007
799,10.0,299.4077,-671.83384,0.0,0.00798999398360345,0.0,0.0,0.0,0.0,0.011094074331649889,0.12869718124892288,0.06442945811494244,-0.015870751125321183,0.003196728071742497,0.054279825082251654
800,10.0,299.92969,-601.52667,0.0,0.00799998997102258,0.0,0.0,0.0,0.0,-0.011028344797662888,0.11958132473675788,0.07429610761995493,0.009286800821960881,0.012826452345622288,0.03863478757570667
801,10.0,299.98456,-687.11602,0.0,0.008009985958441934,0.0,0.0,0.0,0.0,0.026271810011325773,0.1292930432352299,0.05330125954642474,-0.004082869290422827,0.008400025612692982,0.04173726616289746
802,10.0,300.16292999999996,-783.5362299999999,0.0,0.008020014935918862,0.0,0.0,0.0,0.0,0.04931140590590686,0.13416224698828286,0.05470179511289685,0.01981915878374868,0.0012878187882478188,0.018674877207316882
803,10.0,299.89128999999997,-792.22954,0.0,0.008030010923337993,0.0,0.0,0.0,0.0,0.05520889436394365,0.13327739594095486,0.05233170990998766,-0.016367739153620085,-0.007744196547042692,0.03481817639753647
804,10.0,299.33682000000005,-870.5826400000001,0.0,0.008040006910757347,0.0,0.0,0.0,0.0,0.024212858450373076,0.17007014853711686,0.07035237712398903,0.0046329070409573255,-0.0035685593463643866,0.03992806149984286
805,10.0,298.71917,-911.8807400000001,0.0,0.0080500028981767,0.0,0.0,0.0,0.0,0.028261216138414876,0.17299840079611284,0.07592935836339422,-0.005880741460383995,-0.006778258944562074,0.053625976819221856
806,10.0,299.42181,-904.98497,0.0,0.008059998885596054,0.0,0.0,0.0,0.0,0.023644310647011776,0.16258845165373084,0.08886007414430651,0.006822825635635463,-0.0013651326079780989,0.03306445325695746
807,10.0,299.97631,-693.99247,0.0,0.008069994873015407,0.0,0.0,0.0,0.0,0.04702173932368436,0.14122117539994486,0.022713468177644774,0.0009314023103122511,-0.0015257924292589886,0.04486714708579266
808,10.0,300.13827000000003,-590.9368400000001,0.0,0.008079990860434538,0.0,0.0,0.0,0.0,0.018023263160757585,0.12241741176665788,0.03918936468668917,0.010815670694423591,-0.002702648172555607,0.02796532583096277
809,10.0,299.96493,-676.3340400000001,0.0,0.008089986847853892,0.0,0.0,0.0,0.0,0.04914009469824975,0.13702313838063088,0.019425423980390082,0.01195065772768809,0.010869905919276189,0.04482764249089386
810,10.0,300.04356,-797.70955,0.0,0.00810001582533082,0.0,0.0,0.0,0.0,0.016484901262683083,0.14461369885476086,0.08138518123534202,0.014231111840001387,-0.012185780386892888,0.039792979049511255
811,10.0,300.11435,-856.7493,0.0,0.008110011812749951,0.0,0.0,0.0,0.0,0.042375894396175166,0.14615130588151087,0.07190318882604223,0.008960551008387533,0.00040447919596148864,0.05776555133426604
812,10.0,300.3482,-857.1373,0.0,0.008120007800169082,0.0,0.0,0.0,0.0,0.030795028371982672,0.15543633463037185,0.07431697246601413,-0.016115718522497588,0.0020475122712987283,0.04036235873120467
813,10.0,300.04438,-844.14684,0.0,0.008130003787588658,0.0,0.0,0.0,0.0,0.06357622655023504,0.14814411551568588,0.044879215907733756,-0.004638412636700686,0.00974790773904359,0.03746768659377276
814,10.0,299.45806,-852.5988,0.0,0.008139999775008011,0.0,0.0,0.0,0.0,0.046311419592831256,0.15376301288522784,0.05909431434315474,-0.018685251875090785,0.01043753082335409,0.01893037227303228
815,10.0,299.36400000000003,-936.28445,0.0,0.008149995762427364,0.0,0.0,0.0,0.0,0.05872699800965344,0.15978353219690686,0.06609656357072294,0.006126158841929805,0.000970035895160089,0.027773884383568974
816,10.0,299.64786000000004,-830.11509,0.0,0.008159991749846496,0.0,0.0,0.0,0.0,0.013450995389259887,0.14418290544224488,0.09470035956794781,0.0058168710376804746,-0.004534157814036535,0.032508366403325974
817,10.0,299.95662999999996,-638.6152400000001,0.0,0.00816998773726585,0.0,0.0,0.0,0.0,0.010857984018599592,0.14092666412587887,0.042338432513477964,0.007723089534209591,-0.0007560640414577113,0.046988995133452754
818,10.0,299.8371,-700.30983,0.0,0.008180016714742777,0.0,0.0,0.0,0.0,0.015797795091620985,0.13904259649243586,0.05803631405248824,0.00978927752472647,-0.008043984017029413,0.03683679655150877
819,10.0,300.32698999999997,-805.45914,0.0,0.008190012702161908,0.0,0.0,0.0,0.0,0.06724961280027003,0.14130162745788488,0.03628821990761846,0.01017559959300349,-0.00018694117813465783,0.035757086364199664
820,10.0,299.87302,-802.8285,0.0,0.00820000868958104,0.0,0.0,0.0,0.0,0.042287223866674065,0.14601480082803886,0.05573779369089195,0.006424647021313294,0.008493261745819672,0.03997252798048136
821,10.0,299.74611,-724.6606099999999,0.0,0.008210004677000615,0.0,0.0,0.0,0.0,0.035078938337271666,0.1305893548831659,0.054610440483880855,-0.0029370160617609173,0.008478427257730622,0.029896283639283473
822,10.0,299.48048,-731.8308099999999,0.0,0.008220000664419969,0.0,0.0,0.0,0.0,0.00027631999985316074,0.15071970607737684,0.07146226595227653,-0.01097496982214519,-0.009212261888954461,0.04956263518870125
823,10.0,300.1326,-807.1346,0.0,0.008229996651839322,0.0,0.0,0.0,0.0,0.03777121984672916,0.14834013888003186,0.05923741058852724,-0.002520650317418818,-0.0037461593920921467,0.04144003532556306
824,10.0,300.21732000000003,-902.45635,0.0,0.008239992639258453,0.0,0.0,0.0,0.0,0.048938087078813156,0.15049543330024287,0.07489067568588423,0.00015218236299422984,-0.004897256392671575,0.05471617313181586
825,10.0,300.1618,-896.9811300000001,0.0,0.008249988626677585,0.0,0.0,0.0,0.0,0.06637677079312723,0.15499212578653185,0.051290965268524155,-0.002889326837854357,0.01732640952373348,0.031244623653354273
826,10.0,299.3456,-754.37035,0.0,0.008260017604154735,0.0,0.0,0.0,0.0,0.03087455837233167,0.14292280735288285,0.05551239012664635,-0.0035304811036313568,-0.004348676506380956,0.030125429136148373
827,10.0,300.24441,-660.36911,0.0,0.008270013591573866,0.0,0.0,0.0,0.0,-0.0034558969796704767,0.14593018431218788,0.05826143593320604,-0.005175177824175285,-0.0027261412880491974,0.02958315997413057
828,10.0,300.23652000000004,-785.25247,0.0,0.008280009578992997,0.0,0.0,0.0,0.0,0.012964154047462387,0.13202088475694687,0.09371209824191401,0.01173010357842109,-0.0006023278189051275,0.04015114370810936
829,10.0,300.47387000000003,-916.0224599999999,0.0,0.008290005566412573,0.0,0.0,0.0,0.0,0.04009215026078716,0.14468101919140486,0.0936747863202316,0.007854406139219533,0.002130944703082868,0.038063731978347864
830,10.0,299.97865,-752.91516,0.0,0.008300001553831926,0.0,0.0,0.0,0.0,0.04427312313516705,0.1339229274471639,0.05067136283237415,0.01031025445179289,-0.007262544666957353,0.04416053179730516
831,10.0,299.55266,-726.49043,0.0,0.00830999754125128,0.0,0.0,0.0,0.0,0.049698348893845154,0.1342164963986369,0.03692010496148067,-0.015296992176695586,-0.01059516416791129,0.04009122820319616
832,10.0,299.73138,-883.42355,0.0,0.00831999352867041,0.0,0.0,0.0,0.0,0.05402396929950065,0.15583716623743085,0.058677569643275244,0.015314426157916184,0.017965165426523783,0.034566640099961764
833,10.0,299.90129,-962.93359,0.0,0.008329989516089542,0.0,0.0,0.0,0.0,0.050882789624740354,0.16251048205853583,0.07931449522498123,0.0005380546495518595,0.017148363242661682,0.024047847631837777
834,10.0,300.19862,-886.11994,0.0,0.008339985503508895,0.0,0.0,0.0,0.0,0.02136015411883308,0.15278902622660284,0.0952091509466616,0.005729965387203556,0.001111265125898329,0.023990587855436677
835,10.0,300.19118,-732.47548,0.0,0.008350014480985823,0.0,0.0,0.0,0.0,0.025085190792715577,0.14598276185987685,0.051586305381171954,-0.017553927740937784,-0.014873216534372185,0.04289130533779226
836,10.0,300.86037000000005,-625.18299,0.0,0.008360010468405177,0.0,0.0,0.0,0.0,0.016493560498037685,0.12851215164816188,0.045034311060790456,-0.0014683330425881887,-0.0058248922294471045,0.04381508342746206
837,10.0,300.7503,-757.93503,0.0,0.00837000645582453,0.0,0.0,0.0,0.0,0.05986310772402874,0.13635496073468686,0.03417525603683517,-0.00915750190187507,0.007413469485252472,0.04297279395058456
838,10.0,300.60867,-920.24486,0.0,0.008380002443243662,0.0,0.0,0.0,0.0,0.05082349220238815,0.15588840629498785,0.07301955637546913,-0.007040767322169634,-0.004179279936112816,0.04766511362043045
839,10.0,300.47626,-776.61379,0.0,0.008389998430663237,0.0,0.0,0.0,0.0,0.03585011285588067,0.1264952367941079,0.07372584742392463,-0.003190069194735317,0.002207480549386368,0.03542266620844496
840,10.0,300.13903,-672.32463,0.0,0.008399994418082368,0.0,0.0,0.0,0.0,-0.0098003080692901,0.15016488072011988,0.06400532580858384,0.01055108981506149,0.015430280161100086,0.04904483905634875
841,10.0,299.68297,-811.23236,0.0,0.0084099904055015,0.0,0.0,0.0,0.0,0.050989337939005855,0.13590096389488088,0.05970408318708424,0.01941482943734448,0.01995701044660358,0.029794249354213473
842,10.0,299.77119,-1016.6807,0.0,0.008419986392921075,0.0,0.0,0.0,0.0,0.06967481272911864,0.16026907151232586,0.07910164785597483,0.01196499015035259,-0.005384400797573985,0.042912093176843864
843,10.0,300.00527999999997,-975.3739699999999,0.0,0.008430015370397781,0.0,0.0,0.0,0.0,0.07829782945889413,0.17298641404742984,0.04520509233864525,0.004308801061945556,-0.004013816194782816,0.04596513022540516
844,10.0,299.83924,-691.2866799999999,0.0,0.008440011357817134,0.0,0.0,0.0,0.0,0.01963646269796798,0.14317290787506587,0.04732452378481686,-0.0015092437246507586,-0.005260415259687565,0.03353738875438257
845,10.0,300.12672000000003,-621.23162,0.0,0.008450007345236488,0.0,0.0,0.0,0.0,0.007223805481184092,0.13539235287468487,0.046222738930829156,-0.007484409657878722,0.007849771026637083,0.028121157616842175
846,10.0,300.30357999999995,-767.33244,0.0,0.008460003332655619,0.0,0.0,0.0,0.0,-0.0005384185785902765,0.15479876726994884,0.07898955199741182,-0.015406281332481585,-0.004514867052007686,0.02185174051084888
847,10.0,300.69552999999996,-879.44702,0.0,0.008469999320074972,0.0,0.0,0.0,0.0,0.050073980970917156,0.14309185799956686,0.07416409329092613,-0.003120918421785667,-0.002216141304616118,0.03155483625096987
848,10.0,300.16949,-884.10865,0.0,0.008479995307494326,0.0,0.0,0.0,0.0,0.043649823349402164,0.16592925882344284,0.05916786819441395,0.0023256577323995478,0.0054970705609936246,0.035269299660058866
849,10.0,299.61349,-799.63936,0.0,0.008489991294913679,0.0,0.0,0.0,0.0,0.05494923686681744,0.13879290127029287,0.04932825524181975,0.005973762075214414,0.006510950294605764,0.049318847214641255
850,10.0,300.75853,-891.4444199999999,0.0,0.008499987282333032,0.0,0.0,0.0,0.0,0.05287870487047185,0.14440893114205186,0.07368920728705852,0.008318877553259293,0.003142286042544487,0.041994327713267464
851,10.0,299.865,-1025.0206,0.0,0.008510016259809738,0.0,0.0,0.0,0.0,0.05243413834934654,0.17814727170926684,0.08099925251075382,0.01192162709907299,0.0051026408707164446,0.04835269399253936
852,10.0,299.91229,-839.1576,0.0,0.008520012247229092,0.0,0.0,0.0,0.0,0.023828128400653178,0.14385414631479887,0.087400684959026,0.00955513792076869,0.006622316613096765,0.030287596774903076
853,10.0,299.49534,-655.91377,0.0,0.008530008234648445,0.0,0.0,0.0,0.0,0.01901955854683428,0.14195625794999187,0.038405587363336366,0.014817277022851386,0.003685821665862277,0.03800189535124506
854,10.0,299.55357000000004,-760.17558,0.0,0.008540004222067576,0.0,0.0,0.0,0.0,0.03552998864578687,0.15511559031121686,0.04042882185826406,-0.012274063854855789,-0.012843598563814488,0.037925339239939564
855,10.0,299.84641,-869.0423199999999,0.0,0.00855000020948693,0.0,0.0,0.0,0.0,0.04655828987369546,0.15437179381030985,0.06323708667551453,-0.001928169242720488,-0.016352901119155685,0.033463625160352665
856,10.0,300.45397,-896.6053800000001,0.0,0.008559996196906283,0.0,0.0,0.0,0.0,0.03421488931449666,0.17959045395919782,0.058740300970216354,-0.01190140364032709,-0.0068887058399123334,0.042862866447235554
857,10.0,299.98186,-893.9835300000001,0.0,0.008569992184325637,0.0,0.0,0.0,0.0,0.02646983859761968,0.15659122696185085,0.08868760580503522,0.005448940573293564,0.01064672846550029,0.029000327370859474
858,10.0,300.3034,-794.58848,0.0,0.00857998817174499,0.0,0.0,0.0,0.0,0.021561286290183276,0.15061899914993784,0.06935477768503363,-0.004734883368121606,0.004200637019070596,0.04341077333280976
859,10.0,300.5135,-909.31602,0.0,0.008590017149221696,0.0,0.0,0.0,0.0,0.04871091032689255,0.16911402547775484,0.05858443270733335,0.002431154698361288,0.005413410249261995,0.04201893651844617
860,10.0,300.13029,-999.00373,0.0,0.00860001313664105,0.0,0.0,0.0,0.0,0.07066942206702893,0.15796841623276886,0.07503435049706383,-0.006763889335618904,0.008564331411808701,0.044187029300670255
861,10.0,301.25041,-826.66759,0.0,0.008610009124060403,0.0,0.0,0.0,0.0,0.05049590844505815,0.15577416234621286,0.045016236705506654,0.00030062446523182473,0.006826494614247562,0.03749152634212557
862,10.0,301.17476,-643.78269,0.0,0.008620005111479534,0.0,0.0,0.0,0.0,0.022962480469220378,0.12731606056761688,0.04541531741639286,0.0037336202194546263,-0.0006150941723475685,0.03654659260361786
863,10.0,300.87681000000003,-735.25825,0.0,0.008630001098898887,0.0,0.0,0.0,0.0,0.015398270577190985,0.14012733138699088,0.06797454461081524,-0.0002251170880448268,-0.012496413483299988,0.04508410318395455
864,10.0,300.30261,-922.94711,0.0,0.00863999708631824,0.0,0.0,0.0,0.0,0.039383842844632665,0.16903018916448084,0.07213883938854913,0.0005748852875692604,0.011812048153758387,0.03707557805682467
865,10.0,300.31967000000003,-1008.0994,0.0,0.008649993073737594,0.0,0.0,0.0,0.0,0.05810378333689695,0.16624821982242183,0.08208505638416433,-0.007164876375243243,0.004876745880172345,0.031461961746803865
866,10.0,299.96618,-900.59642,0.0,0.008659989061156947,0.0,0.0,0.0,0.0,0.043809297769391055,0.16675780356271386,0.06319172448178764,-0.005334547879403885,0.0063948627372738135,0.027969342354359175
867,10.0,300.98341,-817.00328,0.0,0.008670018038633653,0.0,0.0,0.0,0.0,0.03421093358610627,0.15609882794325483,0.05803883501873704,-0.012084452337142589,-0.017078693179035785,0.040567101112661166
868,10.0,300.01878,-865.8114,0.0,0.008680014026053007,0.0,0.0,0.0,0.0,0.02325670094050768,0.15364506044108686,0.08628328389449712,0.00950278703712706,-0.004442135959829686,0.027109159893965774
869,10.0,299.27639,-902.49541,0.0,0.00869001001347236,0.0,0.0,0.0,0.0,0.029068640692601472,0.16312304240649086,0.08214438825701992,-0.002177777528004908,-0.006065288044822324,0.04433588992586166
870,10.0,299.36541,-866.9227,0.0,0.008700006000891491,0.0,0.0,0.0,0.0,0.03763106810614726,0.15303629978100686,0.07285548180002623,0.01027544829760779,-0.007766599810728723,0.042350024094621956
871,10.0,299.76735,-774.38245,0.0,0.008710001988310845,0.0,0.0,0.0,0.0,0.050243097478857655,0.14363622661579184,0.04151361045507436,0.004036212467043156,-0.0036940482434241763,0.04595572422472686
872,10.0,299.5806,-795.52337,0.0,0.008719997975730198,0.0,0.0,0.0,0.0,0.039128037724386666,0.15440129965322186,0.04828990491034255,0.006211222606374944,0.025128566002996375,0.058809916318336854
873,10.0,300.26727,-964.57565,0.0,0.008729993963149552,0.0,0.0,0.0,0.0,0.05876037244144724,0.15418423108429885,0.08026231267327352,0.012857558110442186,0.012362546933088388,0.028823064332114973
874,10.0,299.83536000000004,-982.89363,0.0,0.008739989950568905,0.0,0.0,0.0,0.0,0.03489474973409367,0.16284515856656584,0.10103520932564881,-0.005564753134548375,0.0012575824933387287,0.037699615488662366
875,10.0,299.84232000000003,-840.4041199999999,0.0,0.008749985937988036,0.0,0.0,0.0,0.0,0.025511756925814377,0.16110306753713485,0.06884704211292403,-0.0029381959915023674,-0.016342446404623883,0.03868785857619436
876,10.0,300.0655,-757.37994,0.0,0.008760014915464742,0.0,0.0,0.0,0.0,0.01251108838449829,0.14386770360113688,0.07384580002376302,-0.00022190531827534978,-0.004255896335799266,0.032222348191598166
877,10.0,300.66925,-843.6293199999999,0.0,0.008770010902884318,0.0,0.0,0.0,0.0,0.05739309680950765,0.14670055836321785,0.05234858761690336,-0.006627807415388664,0.007796338903813743,0.028170786606740175
878,10.0,300.08634,-954.4118599999999,0.0,0.008780006890303449,0.0,0.0,0.0,0.0,0.054043434847171744,0.14912830560281787,0.08694563839211641,-0.014552199650940288,0.008012880278709713,0.03489943398930597
879,10.0,300.58243999999996,-707.3704299999999,0.0,0.008790002877722802,0.0,0.0,0.0,0.0,0.03416256001308217,0.13594676279940088,0.04491362790762996,0.003983191115810357,0.0008510500473746001,0.05414443156413935
880,10.0,299.95501,-708.9155400000001,0.0,0.008799998865142156,0.0,0.0,0.0,0.0,-0.0014534599496703285,0.14784097135076787,0.06910510880739323,0.012082804792479987,0.017593973411389983,0.035541198231643166
881,10.0,299.73028,-808.4599599999999,0.0,0.008809994852561509,0.0,0.0,0.0,0.0,0.013973292378556587,0.14408949391552586,0.08768885430071612,0.02198683917318208,0.002532390441027478,0.05452452295490145
882,10.0,299.78876,-981.62037,0.0,0.008819990839980862,0.0,0.0,0.0,0.0,0.050985941524670654,0.17637906922475882,0.07102306763018103,-0.01222851826286079,-0.005957111133671094,0.04157627997375936
883,10.0,300.02776,-1036.1737,0.0,0.008829986827399994,0.0,0.0,0.0,0.0,0.08955802715768911,0.16869883611677883,0.05671405509599145,-0.008054946471186323,-0.013713555847922589,0.05932939545910544
884,10.0,299.63567,-866.0263699999999,0.0,0.0088400158048767,0.0,0.0,0.0,0.0,0.053972342180405454,0.15801655574501985,0.05126149691586586,-0.015427609233836485,0.013206692684149087,0.03902571061003776
885,10.0,300.28732,-681.29156,0.0,0.008850011792296053,0.0,0.0,0.0,0.0,0.017894453741795085,0.14550633166285684,0.043694837998344754,-0.007105575102540664,0.011680189865244989,0.03236746181791977
886,10.0,300.24461,-883.16835,0.0,0.008860007779715406,0.0,0.0,0.0,0.0,0.017507067963563085,0.15083844885659586,0.10011560987939142,-0.006983240554367183,0.000874004427922521,0.019962028061098782
887,10.0,300.17842,-990.0046,0.0,0.008870003767134982,0.0,0.0,0.0,0.0,0.030220496313530767,0.17557669673557083,0.09513948189628582,0.011911147053288688,-0.015333871440585284,0.02627086262248227
888,10.0,300.48409,-863.70984,0.0,0.008879999754554113,0.0,0.0,0.0,0.0,0.04412951823824436,0.15084803420254186,0.06756866803150834,0.008276550854181972,-0.0025833906622858074,0.03979650414660916
889,10.0,300.46725,-847.1985900000001,0.0,0.008889995741973244,0.0,0.0,0.0,0.0,0.06511710536155794,0.14109509669000186,0.05131501678614785,0.013356146060648987,-0.005473836330900584,0.026054202393349577
890,10.0,300.60533,-906.2746800000001,0.0,0.00889999172939282,0.0,0.0,0.0,0.0,0.06732569775027904,0.15965856806207385,0.04850061229513775,-0.005045135583816115,0.0025911483077014274,0.06065878161680564
891,10.0,300.67445,-978.36876,0.0,0.008909987716811951,0.0,0.0,0.0,0.0,0.06435317862091425,0.16497271019903884,0.06807378131235914,0.0014227777233922288,0.004476715956592465,0.03292904656659387
892,10.0,299.71529,-884.4178099999999,0.0,0.008920016694288657,0.0,0.0,0.0,0.0,0.019297102947975785,0.16641994544936986,0.08312387889018813,0.0026609810992933875,0.02686946139730937,0.06072486477507753
893,10.0,299.62502,-786.62044,0.0,0.00893001268170801,0.0,0.0,0.0,0.0,0.02280140106107308,0.14484045409463986,0.07147111669190002,0.0005848637948190624,0.010643603602191888,0.030640826905514174
894,10.0,300.03006,-726.1515,0.0,0.008940008669127586,0.0,0.0,0.0,0.0,0.03318559946541367,0.12987775947043687,0.057668571140694846,0.0003386471109318676,-0.014531216254619384,0.05555147624925385
895,10.0,299.92782,-850.85598,0.0,0.00895000465654694,0.0,0.0,0.0,0.0,0.06449833075073964,0.15755064308403785,0.036589997198151564,0.007942288461467842,-0.017533127742884982,0.04526909124146145
896,10.0,299.56942999999995,-953.98066,0.0,0.00896000064396607,0.0,0.0,0.0,0.0,0.06014923131376695,0.16187238780806085,0.06796468467409214,0.01210103417502909,0.002254844722660848,0.04819757958773075
897,10.0,299.86997,-831.00795,0.0,0.008969996631385202,0.0,0.0,0.0,0.0,0.033265187221018365,0.15987859532128884,0.05946188297593095,0.0030690968599962776,0.0008733085581513442,0.030379168239440472
898,10.0,299.92375,-691.7243,0.0,0.008979992618804555,0.0,0.0,0.0,0.0,-0.016977568792555586,0.16468261669540885,0.06256187200762603,-0.017430252460231985,-0.0001689273544118318,0.04194642732804006
899,10.0,300.40505,-909.0558900000001,0.0,0.008989988606223909,0.0,0.0,0.0,0.0,0.024020325732621577,0.16772133348030685,0.08458863526124832,-0.007751443109107872,-0.0037349220431831063,0.023530404110520077
900,10.0,300.31111,-1066.2968,0.0,0.009000017583700615,0.0,0.0,0.0,0.0,0.06065353500778784,0.18845711174176882,0.07501694184709572,0.006737282299917993,0.018692879621843583,0.05443889521545065
901,10.0,300.70736,-973.7833,0.0,0.009010013571119968,0.0,0.0,0.0,0.0,0.07790325061820223,0.15766227284755485,0.06044028335199154,-0.0018496130770425984,0.006565749089163984,0.03970360127144036
902,10.0,299.92023,-829.6897,0.0,0.009020009558539321,0.0,0.0,0.0,0.0,0.053569496232147656,0.15560992463750384,0.043025528552039054,0.006806214514821073,-0.007408455315807613,0.05527387510610675
903,10.0,299.96612000000005,-880.34114,0.0,0.009030005545958897,0.0,0.0,0.0,0.0,0.043104427297575756,0.16416926366474485,0.06032803145291315,-0.0016272370027707883,-0.0034177044423261667,0.051392586147553355
904,10.0,299.64576,-967.14307,0.0,0.009040001533378028,0.0,0.0,0.0,0.0,0.01691800792517738,0.16262769483010384,0.11444164400201089,0.013874221850029086,0.014221456579798486,0.03076432486745247
905,10.0,300.03005,-1007.0357,0.0,0.00904999752079716,0.0,0.0,0.0,0.0,0.045410389981156554,0.16658566250322485,0.094117641461938,-0.006235747717095385,0.00025764047081463474,0.017868397002223483
906,10.0,300.00192999999996,-909.59017,0.0,0.009059993508216513,0.0,0.0,0.0,0.0,0.043412063200187055,0.15666997675962285,0.07641065418739443,-0.011670562976044888,-0.0016430192850033784,0.031467619735362266
907,10.0,299.42458,-763.36348,0.0,0.009069989495635866,0.0,0.0,0.0,0.0,0.04909254793730725,0.1415162236965639,0.04143466510003306,-0.0027989142274563276,-0.011441417479179988,0.045376946648355954
908,10.0,299.31718,-918.78533,0.0,0.009080018473112572,0.0,0.0,0.0,0.0,0.04180033490212186,0.18281597353253184,0.054671490828906044,0.008106623644836462,0.0095659443344102,0.05259500294847265
909,10.0,300.18231000000003,-1102.6647,0.0,0.009090014460531926,0.0,0.0,0.0,0.0,0.06313216868065995,0.17367153323504583,0.0983788303069846,0.0013182369615498588,-0.0006303047890062394,0.03973842870387757
910,10.0,300.28632000000005,-1040.8036,0.0,0.009100010447951279,0.0,0.0,0.0,0.0,0.034237453380973566,0.18211783408113083,0.10002300692625221,-0.0016374865341573382,-0.01151349603829359,0.03703581913615076
911,10.0,300.19319,-800.05265,0.0,0.009110006435370632,0.0,0.0,0.0,0.0,0.025418453816856076,0.15563953180542586,0.06213804367629744,0.0004094718338417236,0.004329379158226456,0.04262395524590686
912,10.0,299.99494,-821.00692,0.0,0.009120002422789986,0.0,0.0,0.0,0.0,0.03389527375595307,0.15409310950280586,0.06157721481219794,0.011307393875202888,0.013624974484430287,0.03901972230194676
913,10.0,300.30888999999996,-949.26634,0.0,0.009129998410209117,0.0,0.0,0.0,0.0,0.07168461963372114,0.16209512044504285,0.05477352815372636,0.006167747996259334,0.007089150217094654,0.04043381312825666
914,10.0,300.89759,-1035.4615,0.0,0.00913999439762847,0.0,0.0,0.0,0.0,0.06686659514321913,0.1750947949880108,0.07279304431561413,-0.0015247093662270985,-0.002568300125896487,0.050590038366098045
915,10.0,300.33608,-930.8789199999999,0.0,0.009149990385047824,0.0,0.0,0.0,0.0,0.04174037278770406,0.16325332610434884,0.07797024671481423,0.0005679283427801635,-0.0035692155271291473,0.05414421371536785
916,10.0,299.73175,-768.42339,0.0,0.009159986372467399,0.0,0.0,0.0,0.0,0.0023142993001035576,0.16641823305670084,0.06484899127909714,0.0041969183912035956,0.011246130747656688,0.049296576990693355
917,10.0,299.58246,-720.8221900000001,0.0,0.009170015349944105,0.0,0.0,0.0,0.0,0.012942161454041886,0.13999483880391486,0.06617495163820923,-3.083981605290287e-05,0.004777587604186185,0.033518380182506566
918,10.0,299.42467999999997,-984.94005,0.0,0.009180011337363236,0.0,0.0,0.0,0.0,0.049612446563617255,0.17372750517056984,0.07605722545976372,-0.006845496802647933,-0.009293295653776871,0.041880231699007064
919,10.0,299.1471,-1122.0414,0.0,0.00919000732478259,0.0,0.0,0.0,0.0,0.0881792977466191,0.17670437316936383,0.07618890541625951,0.0055702567037915355,-0.009339385057100542,0.04718563860685995
920,10.0,299.36022,-840.19792,0.0,0.009200003312201943,0.0,0.0,0.0,0.0,0.03221974109909087,0.15498039235037384,0.06819905854147304,0.01045721827279709,0.006205001960036014,0.04430310013937556
921,10.0,299.41965,-816.6059799999999,0.0,0.009209999299621074,0.0,0.0,0.0,0.0,0.032817380326073266,0.15991425159230785,0.055496196363548154,0.004211140572257216,-0.0016135554919705284,0.04285784376648986
922,10.0,300.03944,-1077.218,0.0,0.009219995287040428,0.0,0.0,0.0,0.0,0.05558727842828724,0.15701550517622384,0.11484458316927788,0.0007537539528197233,-0.01952649567786508,0.03188377776343387
923,10.0,300.11848,-1142.2112,0.0,0.009229991274459781,0.0,0.0,0.0,0.0,0.08164213842095172,0.17606167876343481,0.08949986254894872,-0.006779211197006054,0.0072943523101215236,0.028842402210273475
924,10.0,300.40197,-909.57616,0.0,0.009239987261879135,0.0,0.0,0.0,0.0,0.048762148357949356,0.16764697105546786,0.06007932313636754,-0.008913584130477263,0.02120359785913218,0.03742306001961847
925,10.0,300.25731,-751.56363,0.0,0.009250016239356063,0.0,0.0,0.0,0.0,0.046755897961197855,0.14011592219086486,0.04158475479759576,-0.002907724521245067,0.002886236526374367,0.03818406353372367
926,10.0,299.98177999999996,-845.7324800000001,0.0,0.009260012226775194,0.0,0.0,0.0,0.0,0.035991154230050365,0.17249869624429584,0.04859170043937745,-0.0067611853764020435,-0.013689490144797487,0.06048587656674124
927,10.0,300.41141,-1014.9977,0.0,0.009270008214194547,0.0,0.0,0.0,0.0,0.04870786652359216,0.18204969301190582,0.07777639677193272,0.0016924620395329982,-0.006721953649755174,0.05748743242031785
928,10.0,300.29078,-963.9772300000001,0.0,0.0092800042016139,0.0,0.0,0.0,0.0,0.03295700618985326,0.17332570084341484,0.08674230341504882,0.010990851504212591,-0.0017853563020759486,0.05184492531019575
929,10.0,300.2252,-678.8231099999999,0.0,0.009290000189033032,0.0,0.0,0.0,0.0,0.01200100612515709,0.15027177860566987,0.04407248846961596,-0.008045074882087073,0.0029547482424859472,0.037021494819487064
930,10.0,299.92717000000005,-662.3917299999999,0.0,0.009299996176452607,0.0,0.0,0.0,0.0,0.020971343710960478,0.13679037456765888,0.043588829746382556,0.0002967991319967937,-0.012340806638942789,0.05162544115303435
931,10.0,299.76198,-1040.4802,0.0,0.009309992163871739,0.0,0.0,0.0,0.0,0.06165063390119384,0.19342160153422583,0.06120777571973714,0.003260698704880907,0.0027623257663453274,0.04964506713733666
932,10.0,299.68901,-1155.6585,0.0,0.009319988151291092,0.0,0.0,0.0,0.0,0.06226146361797804,0.1950881041061968,0.09394175441682932,0.01943084892142548,0.017530701008895484,0.05997083444816054
933,10.0,300.09393,-905.6030400000001,0.0,0.00933001712876802,0.0,0.0,0.0,0.0,0.02924321152583027,0.15746195330278484,0.08857554642347581,-0.0025883342081986973,0.0008620041726156881,0.03384424546766697
934,10.0,300.15306,-787.10722,0.0,0.009340013116187151,0.0,0.0,0.0,0.0,0.031157831689538572,0.14917680988510487,0.05892629518507254,0.0006133284117958015,-0.017095284136173183,0.04503108385922196
935,10.0,299.53623999999996,-1027.6802,0.0,0.009350009103606505,0.0,0.0,0.0,0.0,0.07052835434835664,0.15959174421797884,0.08226901396631953,-0.007471547967734373,-0.0003364920191616767,0.03143539230268167
936,10.0,299.87192999999996,-1096.7811,0.0,0.009360005091025636,0.0,0.0,0.0,0.0,0.08490401239462361,0.17415029390729583,0.07433975539451264,0.009040632723415981,0.012554244732757487,0.03931204191604646
937,10.0,299.51832,-995.01281,0.0,0.009370001078445211,0.0,0.0,0.0,0.0,0.05414805291999675,0.17195725592085984,0.07635373688952712,-0.018724099883924785,0.005083476866275105,0.04137430376507586
938,10.0,299.43176,-895.37727,0.0,0.009379997065864565,0.0,0.0,0.0,0.0,0.04637325216693366,0.14736736812152687,0.07843170715485683,-0.0037379628067332068,-0.0004546133923593486,0.03144539308116867
939,10.0,299.89435,-888.0983699999999,0.0,0.009389993053283696,0.0,0.0,0.0,0.0,0.027633852206498874,0.17657769664186185,0.06574818082859023,0.0010154411520162392,-0.0012330398533915588,0.05875653526331854
940,10.0,300.49637,-993.23729,0.0,0.00939998904070305,0.0,0.0,0.0,0.0,0.05873887532732565,0.16670258143226385,0.07647787522552862,0.02230106728094398,0.002431840466028968,0.02044331577909818
941,10.0,300.16728,-1082.6394,0.0,0.009410018018179978,0.0,0.0,0.0,0.0,0.061201430747610946,0.18023774852058083,0.08765617293199073,-0.002961697010346737,-0.006442824322807254,0.03111198414901377
942,10.0,300.032,-956.3878300000001,0.0,0.009420014005599109,0.0,0.0,0.0,0.0,0.05827432042147765,0.17303096665432685,0.05941273426658035,-0.0015565252167170783,-0.0013343663832667085,0.02870720222293027
943,10.0,300.25264,-856.58248,0.0,0.009430009993018462,0.0,0.0,0.0,0.0,0.03770937004737506,0.15972895854652086,0.06294136152782874,0.0029058907412140875,0.017531742629998286,0.05577226648579415
944,10.0,300.40643,-998.54384,0.0,0.009440005980437594,0.0,0.0,0.0,0.0,0.04463684243081336,0.17896665666763384,0.07992889360861763,0.012695810970478987,0.0032362363143416564,0.038162728539618065
945,10.0,300.38479,-976.83964,0.0,0.009450001967856947,0.0,0.0,0.0,0.0,0.04019352390679196,0.16873462411031084,0.08800670680408573,-0.0032754905351407466,-0.011344342040099388,0.04786013994667805
946,10.0,299.59503,-872.85156,0.0,0.009459997955276522,0.0,0.0,0.0,0.0,0.025848958453093575,0.15758428298735785,0.08189183769609512,-0.001017278073122529,-0.02156771536206778,0.038750361921862965
947,10.0,299.50104,-832.84461,0.0,0.009469993942695654,0.0,0.0,0.0,0.0,0.034163980589722365,0.17904212353508184,0.03995786017203376,0.0020949024851007777,0.0011362181321359988,0.06398007358959164
948,10.0,299.74802999999997,-884.2606300000001,0.0,0.009479989930115007,0.0,0.0,0.0,0.0,0.035695637811885166,0.15984959610342683,0.07324791761675663,0.01054981413318559,0.006275141563758254,0.046540970389736154
949,10.0,299.93032,-967.7723699999999,0.0,0.009489985917534138,0.0,0.0,0.0,0.0,0.05078551356213995,0.18460373174396985,0.05878938888456094,-0.004598348525096665,0.014943752926833587,0.054939970694652944
950,10.0,299.55986,-1162.4323,0.0,0.009500014895011066,0.0,0.0,0.0,0.0,0.04752170428077705,0.2024140036542068,0.10341468634373491,-0.002374178631988188,0.007262788961556463,0.043408390168574555
951,10.0,300.30195,-1119.2815,0.0,0.00951001088243042,0.0,0.0,0.0,0.0,0.06792794625196634,0.17817761854976183,0.09412806071271632,0.003429060037521877,0.016154374013812586,0.04440795024647346
952,10.0,300.25166,-931.8427800000001,0.0,0.009520006869849551,0.0,0.0,0.0,0.0,0.033207190811794574,0.17428879506346484,0.07576094910402353,0.01164930194919659,0.002373961391166748,0.026947925458553176
953,10.0,300.02857,-878.16744,0.0,0.009530002857268904,0.0,0.0,0.0,0.0,0.051559964931572354,0.15059935223049886,0.06478165574370165,-0.004079606422450806,-0.017348813496694582,0.029146544426539973
954,10.0,300.83362,-951.37626,0.0,0.00953999884468848,0.0,0.0,0.0,0.0,0.05672211955353735,0.15950225396914686,0.07297025466535342,0.007631916074311472,-0.02047908857387868,0.024570278370147677
955,10.0,300.50224,-954.6274599999999,0.0,0.009549994832107611,0.0,0.0,0.0,0.0,0.05384070984666435,0.17380751139846584,0.06253468752069313,0.0033844210003913465,0.014794266113080386,0.06468496432640894
956,10.0,300.2499,-864.1904099999999,0.0,0.009559990819526965,0.0,0.0,0.0,0.0,0.03784044712006136,0.14979960405906986,0.07505225766608113,0.005398281310693885,0.006575018605053813,0.03925793334745636
957,10.0,300.06357,-839.54076,0.0,0.009569986806946096,0.0,0.0,0.0,0.0,0.025915151042376273,0.16904506367594885,0.06023921096239724,-0.013734332541223087,-0.0021393543749378377,0.05162571979681186
958,10.0,299.24843,-1081.405,0.0,0.009580015784423024,0.0,0.0,0.0,0.0,0.05543890314989374,0.17439625023656985,0.0988849720366869,-0.006985173430257943,-0.010639981233084388,0.03535882435939427
959,10.0,299.5064,-1241.4895,0.0,0.009590011771842377,0.0,0.0,0.0,0.0,0.06923910404036752,0.2107976451141078,0.09734505986595941,0.005608167152308005,0.007384339152827534,0.04571330819130225
960,10.0,299.99064,-1124.0101,0.0,0.00960000775926173,0.0,0.0,0.0,0.0,0.05686335243197594,0.1929457894197668,0.09186186606906031,0.004410508776508326,0.008429775750204092,0.04032132007565446
961,10.0,299.73401,-965.5536699999999,0.0,0.009610003746680862,0.0,0.0,0.0,0.0,0.03227279690082707,0.18104286691753982,0.08018854502624322,-0.0035436897306099467,0.0032312579126253273,0.04263483856523096
962,10.0,299.94128,-844.8903300000001,0.0,0.009619999734100215,0.0,0.0,0.0,0.0,0.02234330967761298,0.18023416161522682,0.054248088062619444,0.0048675557017653455,0.0004950841820235045,0.04736579954089045
963,10.0,299.76217,-935.23227,0.0,0.009629995721519569,0.0,0.0,0.0,0.0,0.03900755114174556,0.17839320777353884,0.06688650348118393,0.01181539795858899,0.018572970591759483,0.05317352417256825
964,10.0,300.17404,-981.71698,0.0,0.009639991708938922,0.0,0.0,0.0,0.0,0.06279273698991064,0.16249533396954083,0.07312937647430752,0.008720835894429492,-0.007663438487572493,0.037342435709161466
965,10.0,300.57616,-764.7863,0.0,0.009649987696358053,0.0,0.0,0.0,0.0,0.01993303796248768,0.16545398373153686,0.047088920845064657,-0.0030553789735174273,-0.027171675398635575,0.04666263943524396
966,10.0,299.92661,-864.46116,0.0,0.009660016673834981,0.0,0.0,0.0,0.0,0.042269685520693163,0.16112868249966286,0.05937623598472824,-0.006624946706381333,-0.015194269894807686,0.04845106537849786
967,10.0,300.14897,-1253.0172,0.0,0.009670012661254335,0.0,0.0,0.0,0.0,0.06385794655503864,0.2118864938040688,0.10514150769415889,-0.002125719473642178,0.020230476516092583,0.06218244834867984
968,10.0,300.22263,-1279.951,0.0,0.009680008648673688,0.0,0.0,0.0,0.0,0.08952159777684382,0.20524302833090982,0.09430851346277559,-0.0065448774543291136,0.021425076092490378,0.04232827468122546
969,10.0,299.86802,-1047.3546,0.0,0.00969000463609282,0.0,0.0,0.0,0.0,0.048398892117598756,0.17326848261026784,0.09670227528077151,-0.026122546112594576,-0.0005841659897401944,0.036899989920495466
970,10.0,300.33821,-817.97633,0.0,0.009700000623512173,0.0,0.0,0.0,0.0,0.03789005381845716,0.15684832904222487,0.05390599861685785,-0.009386954109545242,-0.006631610041688953,0.01975475356764238
971,10.0,299.95197,-785.00636,0.0,0.009709996610931526,0.0,0.0,0.0,0.0,0.028222544435098272,0.14921249655362684,0.06118728881596524,0.012834948447710787,-0.003053778646309487,0.029496498719577772
972,10.0,300.16265,-960.9638,0.0,0.00971999259835088,0.0,0.0,0.0,0.0,0.054278991177419356,0.16085499351515184,0.07697501625459262,0.021730671309400276,0.008125672848041473,0.018404708253653285
973,10.0,299.62262999999996,-1046.111,0.0,0.00972998858577001,0.0,0.0,0.0,0.0,0.04608335320732286,0.18998515368757482,0.08192312483268292,0.004018982757042716,-0.023595443621188976,0.04796418857294686
974,10.0,299.7182,-899.55793,0.0,0.009740017563246717,0.0,0.0,0.0,0.0,0.04664588635809055,0.15795352145629885,0.06884373891759803,-0.007581604964446154,-0.0005964969800121684,0.04693894969776365
975,10.0,300.09739,-875.9952199999999,0.0,0.009750013550666292,0.0,0.0,0.0,0.0,0.027650041916596677,0.18259012008524184,0.05604051431726815,-0.006851507098266104,0.01866568500240968,0.08022094065844043
976,10.0,300.83168,-1083.8945,0.0,0.009760009538085646,0.0,0.0,0.0,0.0,0.07008409484201164,0.17948407283119883,0.07990868636187333,-0.004090026281179166,0.019679840947999083,0.04942824985443845
977,10.0,299.98312999999996,-1136.7926,0.0,0.009770005525504777,0.0,0.0,0.0,0.0,0.07544474009231614,0.18230802112490083,0.08780381056431141,-0.0024314510740155375,-0.004361229155244806,0.05153163040577595
978,10.0,300.46922,-865.28425,0.0,0.00978000151292413,0.0,0.0,0.0,0.0,0.01967139854816588,0.16691655958838184,0.07643685176872993,-0.009116940487121972,-0.009318047124569651,0.05165494800919645
979,10.0,300.47887000000003,-767.44803,0.0,0.009789997500343484,0.0,0.0,0.0,0.0,0.017171896989484285,0.15761587612547587,0.05849726482773054,0.007604727027753123,-0.004480203563436666,0.052965929492080246
980,10.0,300.53679,-979.18074,0.0,0.009799993487762837,0.0,0.0,0.0,0.0,0.03976586346358516,0.17625817835532784,0.08162245502450913,0.0023926037744566074,0.0029270528748526273,0.03941076591303976
981,10.0,299.73502,-1091.4259,0.0,0.00980998947518219,0.0,0.0,0.0,0.0,0.06027963052213634,0.19006053949501484,0.08142606385037683,0.0009370599847631202,-0.006617207907417574,0.036095643620112666
982,10.0,299.68831,-1043.7202,0.0,0.009820018452658674,0.0,0.0,0.0,0.0,0.05607072132924935,0.17271118492276682,0.08848297792084002,-6.296101554001843e-05,-0.003142257772866697,0.023176583255100677
983,10.0,299.5938,-971.0826699999999,0.0,0.00983001444007825,0.0,0.0,0.0,0.0,0.052996664407363545,0.1801224102616978,0.06206580806341835,0.011688755881590388,0.007576473055339674,0.04894937671142736
984,10.0,300.10901,-981.5069800000001,0.0,0.009840010427497603,0.0,0.0,0.0,0.0,0.041806516740981965,0.18290241389856282,0.07364468507766453,-0.0006469877593852204,0.012853812124822487,0.04481840671623236
985,10.0,299.95855,-1064.8994,0.0,0.009850006414916734,0.0,0.0,0.0,0.0,0.059705544293728444,0.18559977685727183,0.07839749577848042,0.003720389807598887,-0.02139370586939438,0.05168546000945775
986,10.0,299.57484,-1133.8857,0.0,0.009860002402336088,0.0,0.0,0.0,0.0,0.05868625927613285,0.19442081812034082,0.09156586227759701,-0.018169785204718184,-0.005829251130052295,0.06291263183449335
987,10.0,299.83125,-941.26452,0.0,0.009869998389755219,0.0,0.0,0.0,0.0,0.04371285358512276,0.15560525355454286,0.08680280052551942,-0.007048240244307153,0.0035144917130783267,0.05134101475721365
988,10.0,300.74172000000004,-780.64487,0.0,0.009879994377174794,0.0,0.0,0.0,0.0,0.03229190477121287,0.15347661774446286,0.051528027288420354,-0.001121145732923469,0.024566713756295877,0.03760302539637966
989,10.0,300.16405,-955.98109,0.0,0.009889990364594148,0.0,0.0,0.0,0.0,0.04597389686527036,0.16507157301129585,0.07954891570186673,-0.002122124360962368,0.010796612473292689,0.035605638911502965
990,10.0,300.1703,-1150.107,0.0,0.00989998635201328,0.0,0.0,0.0,0.0,0.06596804292803894,0.17720534428380583,0.1064304327488659,-0.0005731381809518345,-0.005029928422340285,0.026980986796066073
991,10.0,300.43502,-1069.2826,0.0,0.009910015329490207,0.0,0.0,0.0,0.0,0.045840438654849054,0.19465183914314083,0.08454292045648662,0.013038647181564288,-0.01179709359553249,0.04852449459999475
992,10.0,299.87922000000003,-1002.0595,0.0,0.00992001131690956,0.0,0.0,0.0,0.0,0.038990977409859864,0.18163339920832083,0.08397669096935413,-0.009071692588006351,-0.0036375836657015566,0.04592761768020296
993,10.0,300.13836000000003,-983.89724,0.0,0.009930007304328692,0.0,0.0,0.0,0.0,0.04422893833805636,0.18144236103446681,0.07340889266014364,0.004351913029850375,-0.01813258068754638,0.04566808075983866
994,10.0,299.70902,-1020.5045,0.0,0.009940003291748045,0.0,0.0,0.0,0.0,0.05301213470989036,0.19562293803898081,0.06157282743926495,-0.013963362527576587,-0.0003275105196127717,0.05862870160420235
995,10.0,299.45796,-1071.5526,0.0,0.009949999279167177,0.0,0.0,0.0,0.0,0.05178836264986345,0.17760205196295784,0.09633481911875641,0.007167536460730773,0.008150329377299882,0.04689818563299055
996,10.0,299.69937000000004,-945.45295,0.0,0.009959995266586752,0.0,0.0,0.0,0.0,0.048374015814393656,0.17253710855558685,0.06648296143010744,0.007059269268995634,0.015477569556517187,0.061324118109469236
997,10.0,300.22508,-824.11631,0.0,0.009969991254006105,0.0,0.0,0.0,0.0,0.025486721542343577,0.15439877666047286,0.07062528083967252,0.009914425361802601,-0.013225994085303986,0.03318509790661417
998,10.0,300.00144,-998.04299,0.0,0.009979987241425237,0.0,0.0,0.0,0.0,0.05205763487718855,0.16515286606681884,0.0861696418162815,-0.00027608456105992476,-0.016145231458160287,0.053557852975248545
999,10.0,300.45473,-1166.5127,0.0,0.009990016218902165,0.0,0.0,0.0,0.0,0.07282508125727594,0.18196376940342582,0.09980189042317972,-0.0039672198624341164,-0.01196410456976519,0.024427279396784775
1000,10.0,300.09465,-1214.1894,0.0,0.010000012206321296,0.0,0.0,0.0,0.0,0.07601180855053143,0.19395631387699783,0.09911515003540372,-0.00029492831767465873,0.020287088825679783,0.043104576245340455
1001,10.0,300.05915,-1157.1121,0.0,0.01001000819374065,0.0,0.0,0.0,0.0,0.05532327611473225,0.2017024589039828,0.0947074624511488,-0.0026841607152060373,0.015594679989825085,0.030991112531334672
1002,10.0,299.86696,-1059.6324,0.0,0.010020004181160003,0.0,0.0,0.0,0.0,0.056941016025640744,0.20217649783076683,0.06298426355031285,-0.013975904537314385,0.015233123983142288,0.054720191681712445
1003,10.0,298.94462000000004,-1087.2745,0.0,0.010030000168579356,0.0,0.0,0.0,0.0,0.05511950645337174,0.18116642263473384,0.09421836257487841,-0.002233971669275838,-0.01013115307339196,0.029103316137523674
1004,10.0,298.93383,-1021.7439999999999,0.0,0.01003999615599871,0.0,0.0,0.0,0.0,0.05343182999406105,0.18638311037708083,0.07076972572092813,0.002988626158254437,-0.011477979595788388,0.06071072689643224
1005,10.0,299.14671,-976.4382800000001,0.0,0.01004999214341784,0.0,0.0,0.0,0.0,0.04336620654041136,0.17584598821464784,0.07760065968783883,0.01175204044308609,-0.02700955132963518,0.04078443717961056
1006,10.0,299.60142,-924.5646199999999,0.0,0.010059988130837194,0.0,0.0,0.0,0.0,0.028106054110851573,0.17855411188941883,0.07438439412766813,-0.0032942943291715365,-0.008034277182396424,0.054173281834236656
1007,10.0,299.8006,-1065.2669,0.0,0.010070017108314122,0.0,0.0,0.0,0.0,0.06002210895622095,0.18957098770919983,0.07422144729958653,-0.0013906300334944985,0.00954914029077677,0.037468180046571466
1008,10.0,300.16369,-1201.2149,0.0,0.010080013095733253,0.0,0.0,0.0,0.0,0.07807657312730783,0.1884387617824578,0.09862398920842991,0.0045444267998250056,0.02849071323306447,0.04994300218349055
1009,10.0,299.96369,-1310.4718,0.0,0.010090009083152607,0.0,0.0,0.0,0.0,0.07731404568505222,0.2148968699836698,0.1061397920901819,0.0008267518033515501,0.011198320541688189,0.02942335928760947
1010,10.0,300.09411,-1120.7596,0.0,0.01010000507057196,0.0,0.0,0.0,0.0,0.05380738607737555,0.1978839853721288,0.08899157576878472,-0.003886906417107796,0.006686314502662864,0.06124857018201324
1011,10.0,299.8989,-939.26858,0.0,0.010110001057991314,0.0,0.0,0.0,0.0,0.03034600861666787,0.17846439872556483,0.07670378440157413,-0.001834110553162618,-0.02091949671659358,0.03213280829351127
1012,10.0,299.93055,-952.8629599999999,0.0,0.010119997045410667,0.0,0.0,0.0,0.0,0.039963503975090756,0.17916271042948284,0.07052033244731493,0.006715116238080373,0.0044317390005535855,0.055198068799875245
1013,10.0,299.94306,-1009.4065,0.0,0.010129993032829798,0.0,0.0,0.0,0.0,0.06884463361743634,0.16641063368095085,0.07157909064905622,-0.0004931461486897355,-0.0004850604939517436,0.030368260602113974
1014,10.0,300.70552999999995,-882.74334,0.0,0.010139989020249152,0.0,0.0,0.0,0.0,0.045717011620417754,0.16780700377626184,0.054807912795869856,-0.006319476017908724,0.013942412568508986,0.06783607385214924
1015,10.0,300.48433,-894.2374,0.0,0.01015001799772608,0.0,0.0,0.0,0.0,0.03721110937695057,0.16244932228249984,0.07216540883267133,-0.022738480256363276,-0.00014546515317879287,0.04625101671461995
1016,10.0,300.72688999999997,-1060.6896,0.0,0.010160013985145211,0.0,0.0,0.0,0.0,0.05556222176656435,0.17269260191593283,0.0941683394306915,0.0037941827858816867,-0.005366779466409895,0.051137120466090855
1017,10.0,300.54521,-1203.4231,0.0,0.010170009972564564,0.0,0.0,0.0,0.0,0.06790104344856124,0.2050655069133898,0.09284402154999151,0.01080832868419899,-0.024507728414974474,0.04722948903143766
1018,10.0,299.76101,-1248.5535,0.0,0.010180005959983918,0.0,0.0,0.0,0.0,0.06312333719278834,0.2088883678181768,0.10751737652863891,0.006437713084002814,-0.025203572854898975,0.037691868178397765
1019,10.0,299.38232,-1047.6436,0.0,0.010190001947403271,0.0,0.0,0.0,0.0,0.05122562076957515,0.18297963368868383,0.08425222508229722,0.02131023027315598,-0.008583365314937202,0.03858102959165117
1020,10.0,299.88723999999996,-980.8403400000001,0.0,0.010199997934822624,0.0,0.0,0.0,0.0,0.05065366540612754,0.18484697256297583,0.06265033076785624,0.0019501048914853682,0.012834460061162588,0.04167462704171546
1021,10.0,299.82738,-1019.3844,0.0,0.010209993922241756,0.0,0.0,0.0,0.0,0.050708937185832456,0.16627466565003185,0.0928838128946686,-0.006661446913408624,0.017893500273450984,0.05334117146786375
1022,10.0,299.87296000000003,-1050.8182,0.0,0.010219989909661109,0.0,0.0,0.0,0.0,0.05046164437967655,0.1924685182251638,0.07649233025145523,-0.009770314245129941,0.006557820204481464,0.05870979808920595
1023,10.0,300.28227999999996,-921.7924800000001,0.0,0.010229985897080462,0.0,0.0,0.0,0.0,0.022181359887629776,0.18071137201482385,0.07730916587257063,-0.023279582154265878,0.016652082462932587,0.06556422729943544
1024,10.0,300.33329,-934.27725,0.0,0.010240014874557168,0.0,0.0,0.0,0.0,0.04659977638578986,0.16946505584239885,0.06793212388212863,-0.013123377181426487,0.0054365631153720055,0.05683628649530474
1025,10.0,300.26124,-1056.8275,0.0,0.010250010861976522,0.0,0.0,0.0,0.0,0.05581171535193745,0.18895047334795984,0.07648697015842622,-0.005132190587357775,-0.013763045009306788,0.057333451842371146
1026,10.0,300.35017999999997,-1078.9816,0.0,0.010260006849395875,0.0,0.0,0.0,0.0,0.06599214713466783,0.17741460069445783,0.08457671133407152,0.0022296778193270682,0.003096414386667307,0.052528541847913446
1027,10.0,299.7964,-1082.7413,0.0,0.010270002836815229,0.0,0.0,0.0,0.0,0.03964733853313766,0.19451616495475083,0.0949627974233484,0.008446512210055851,0.005732885877966785,0.04584518471831746
1028,10.0,299.35778,-1066.6823,0.0,0.010279998824234582,0.0,0.0,0.0,0.0,0.05483059541260845,0.1841184052110718,0.08529578149278823,0.009670116070566151,0.01164176843470309,0.034459702697657864
1029,10.0,299.47193,-1068.6856,0.0,0.010289994811653713,0.0,0.0,0.0,0.0,0.04885690345430095,0.17178243988110684,0.1042144041176609,0.005537193441103445,-0.005948504182021654,0.031919803870739366
1030,10.0,299.66236000000004,-1114.4557,0.0,0.010299990799072845,0.0,0.0,0.0,0.0,0.06530731368358003,0.19032961819157082,0.08312976789976932,0.00992122639779881,-0.015990245736114385,0.03986908933077276
1031,10.0,299.93295,-1112.7474,0.0,0.01030998678649242,0.0,0.0,0.0,0.0,0.06404935861817954,0.1836597778183088,0.09053828380793291,0.014408369812495384,-0.011328772439062789,0.03899426641968447
1032,10.0,300.08019,-1046.2823,0.0,0.010320015763969126,0.0,0.0,0.0,0.0,0.05822817295892324,0.17674347449072284,0.08307202885607091,0.002092508783064538,-0.005430915765939655,0.05242474349441936
1033,10.0,299.78567999999996,-1088.3677,0.0,0.01033001175138848,0.0,0.0,0.0,0.0,0.049456281418454956,0.2057666253200848,0.07561370359949153,-0.019472114544998084,0.004569536758503166,0.06690200519446383
1034,10.0,299.47659,-1052.0955,0.0,0.010340007738807833,0.0,0.0,0.0,0.0,0.05935243372662914,0.17833434807522983,0.08212396924100471,-0.014330298892290386,0.004593506405518786,0.05738414069187374
1035,10.0,299.66696,-938.0165300000001,0.0,0.010350003726227186,0.0,0.0,0.0,0.0,0.029669365266138368,0.1901018091715878,0.06536242840951943,0.002303329145245888,0.01855651946313588,0.07181613848345103
1036,10.0,299.66312,-982.52405,0.0,0.01035999971364654,0.0,0.0,0.0,0.0,0.05072816765948036,0.17581343248893483,0.07212118249230653,0.020229924294788083,0.0016301741108356584,0.04222020345205966
1037,10.0,299.91279,-1085.6724,0.0,0.01036999570106567,0.0,0.0,0.0,0.0,0.05394692074864654,0.18790678521495582,0.08816359540981941,-0.004219259643983506,-0.018770572599761285,0.05157754684730755
1038,10.0,300.24203,-1067.1212,0.0,0.010379991688484802,0.0,0.0,0.0,0.0,0.04674409461078296,0.19781401032022283,0.07982008878637943,0.003068872425099127,-0.016140382043181686,0.046195120772853454
1039,10.0,300.21807,-1064.8818,0.0,0.010389987675904377,0.0,0.0,0.0,0.0,0.035081641688538466,0.18948002824772284,0.09913580716519241,-0.019399559758337483,0.003934071486737626,0.053590839332254045
1040,10.0,300.20139,-1155.5229,0.0,0.010400016653381083,0.0,0.0,0.0,0.0,0.06194383402963043,0.2029215304967958,0.08638473252100932,0.00967372516609734,0.007060474428664572,0.04121484454383846
1041,10.0,300.50269,-1226.458,0.0,0.010410012640800437,0.0,0.0,0.0,0.0,0.06275667237910135,0.2142524429200698,0.09580349407106871,-0.02050302660749118,0.007390652714200634,0.052311908976533456
1042,10.0,299.61314,-1086.6713,0.0,0.01042000862821979,0.0,0.0,0.0,0.0,0.07618379762250542,0.17403030483045384,0.08010684971043051,0.016398692930924986,-0.005235090795963235,0.027192657781706372
1043,10.0,299.43432,-930.5413800000001,0.0,0.010430004615638921,0.0,0.0,0.0,0.0,0.022194208912147878,0.19904526117923782,0.06162187583685564,0.005745403569702184,-0.0026041539806849873,0.05258616335460024
1044,10.0,299.37481,-1027.4006,0.0,0.010440000603058497,0.0,0.0,0.0,0.0,0.04617981664334305,0.17348762834189582,0.09263667612902811,0.015613087704391786,-0.013465360235927587,0.03540085093379197
1045,10.0,299.65508,-1225.5985,0.0,0.010449996590477628,0.0,0.0,0.0,0.0,0.06139580251429394,0.20793558848414478,0.1032199599395169,-0.005612292397440135,-0.015292737539525685,0.061420364709968034
1046,10.0,299.58939,-1217.8685,0.0,0.010459992577896982,0.0,0.0,0.0,0.0,0.08056901537254273,0.1919070358147498,0.0977255626362621,-0.008795444539042793,-0.004449608577992176,0.04086584270589466
1047,10.0,299.92942,-1076.7311,0.0,0.010469988565316335,0.0,0.0,0.0,0.0,0.051769261872228356,0.17484410678076986,0.1006859855859331,-0.01066285434084179,0.023425019007369378,0.048354219947189955
1048,10.0,299.24726,-1103.2936,0.0,0.010480017542793263,0.0,0.0,0.0,0.0,0.07679319460364822,0.18698400821638483,0.07159650943152535,-0.001068457031698499,0.01192867729326879,0.02167711293561448
1049,10.0,300.47168999999997,-1278.6331,0.0,0.010490013530212394,0.0,0.0,0.0,0.0,0.06250441566070554,0.2167219259312888,0.10944619941899889,0.0002853623653355727,-0.004476511685372306,0.04317744007328156
1050,10.0,300.15204,-1449.1829,0.0,0.010500009517631748,0.0,0.0,0.0,0.0,0.101131926074194,0.2095420863851938,0.12984140405684888,0.013830630817476987,-0.014868302271387185,0.02056774998412888
1051,10.0,299.94511,-1224.8294,0.0,0.010510005505050879,0.0,0.0,0.0,0.0,0.05472151093334265,0.22345043348534077,0.09414560007194732,0.0004410111683794136,0.0015421628018496185,0.06010800115394784
1052,10.0,299.37046000000004,-967.0378699999999,0.0,0.010520001492470454,0.0,0.0,0.0,0.0,0.037407269530060065,0.18647457646360782,0.07007352259046823,0.014912435392742786,0.00854130388473606,0.03494483164678637
1053,10.0,299.17073999999997,-1036.2094,0.0,0.010529997479889586,0.0,0.0,0.0,0.0,0.04241805674608626,0.2051449558537308,0.06741876578521414,-0.0004917046585674715,0.004022254237640586,0.07099463887212533
1054,10.0,299.53231,-1106.0779,0.0,0.010539993467308939,0.0,0.0,0.0,0.0,0.061482977486647446,0.18826341885265283,0.08647366649553641,0.0007238163336426101,0.004305125091907766,0.04173652750357456
1055,10.0,300.25431000000003,-925.45185,0.0,0.010549989454728292,0.0,0.0,0.0,0.0,0.019666535960935982,0.17933100113859185,0.08231671474127722,-0.00936380073681018,0.0033762340409083567,0.06715156869409385
1056,10.0,299.49858,-923.55056,0.0,0.01056001843220522,0.0,0.0,0.0,0.0,0.014908467505351186,0.1908193523624038,0.07500849336776193,-0.007205130673891033,-0.01818170710539478,0.045002579107408756
1057,10.0,299.82126,-1011.6418,0.0,0.010570014419624352,0.0,0.0,0.0,0.0,0.04891495356578005,0.18468614950710383,0.07391274951087043,-0.005468011156075684,-0.019899339290661882,0.07073233375248783
1058,10.0,299.98365,-1241.5398,0.0,0.010580010407043705,0.0,0.0,0.0,0.0,0.07403483297566912,0.2104391470962268,0.09292310977329692,-0.003074348129964537,-0.008849680777145492,0.04286004657220726
1059,10.0,299.78641,-1294.6543,0.0,0.010590006394462836,0.0,0.0,0.0,0.0,0.1012018291853429,0.2153165784400918,0.07702415483144222,0.0066907693580525235,0.026839965686898375,0.06626324523867314
1060,10.0,299.88572,-1166.8796,0.0,0.01060000238188219,0.0,0.0,0.0,0.0,0.07326488448968113,0.1794571811735448,0.1019802079121629,-4.723770547649856e-05,0.012747510030331288,0.014240382065166287
1061,10.0,299.81548,-1036.7425,0.0,0.010609998369301765,0.0,0.0,0.0,0.0,0.04106310426186286,0.20194400759532183,0.07213671764283973,0.00019209202488550679,0.020134210663841877,0.046778153999644356
1062,10.0,299.89825,-1115.4102,0.0,0.010619994356720897,0.0,0.0,0.0,0.0,0.055526855285073944,0.17940445163834084,0.10412553195138989,-0.001116565538496439,-0.011838552749874188,0.016809083539427384
1063,10.0,300.10618999999997,-1256.8444,0.0,0.01062999034414025,0.0,0.0,0.0,0.0,0.07105065843040402,0.20256389374149983,0.10843476303667789,0.0100861357899991,-0.002197606021861828,0.05033019341770335
1064,10.0,300.36135,-1181.0641,0.0,0.010639986331559381,0.0,0.0,0.0,0.0,0.059199160397252246,0.2060836206138698,0.09373121827130101,0.008639099541987742,-0.008852535406652222,0.04085041597312216
1065,10.0,299.72938,-1014.3369,0.0,0.01065001530903631,0.0,0.0,0.0,0.0,0.062472364533542345,0.17000947512112885,0.07585125096618563,7.006406491403483e-05,-0.01097317028996759,0.04977386743704825
1066,10.0,299.51495,-1019.6262,0.0,0.010660011296455663,0.0,0.0,0.0,0.0,0.05434319171700545,0.19368144952237082,0.06191625538840864,0.003247620685840207,0.002283234470587698,0.047015953665613355
1067,10.0,299.30683999999997,-1201.0852,0.0,0.010670007283874794,0.0,0.0,0.0,0.0,0.061698398510907845,0.21012078391480682,0.09328073943584221,-0.004861797604097066,0.01162927202121979,0.04793609722717445
1068,10.0,299.56574,-1194.2027,0.0,0.010680003271294147,0.0,0.0,0.0,0.0,0.054605001357344043,0.20259280176685282,0.10580998931513291,0.01210633347305209,0.003973634242192166,0.04850279483585316
1069,10.0,299.53425,-1172.51,0.0,0.0106899992587135,0.0,0.0,0.0,0.0,0.039133290412905065,0.22659055634024677,0.09068991161914741,-0.017647321029154985,-0.013669121791287287,0.056506032823961244
1070,10.0,299.8318,-1180.0289,0.0,0.010699995246132854,0.0,0.0,0.0,0.0,0.06977015145752784,0.2006793397480088,0.08824981894032902,-0.001335287731582639,-0.013196974602439987,0.05247897365302145
1071,10.0,299.642,-1084.8075,0.0,0.010709991233552207,0.0,0.0,0.0,0.0,0.061642311064872446,0.1922596468495498,0.07585242836280183,-0.003229840578385447,0.0014882933602831186,0.05352327986858645
1072,10.0,299.78153,-1068.9665,0.0,0.010719987220971339,0.0,0.0,0.0,0.0,0.04735585246465875,0.19578222095470083,0.08180103731488382,0.011047663424069489,0.008898176852106681,0.05270573598565115
1073,10.0,299.88297,-1131.6395,0.0,0.010730016198448267,0.0,0.0,0.0,0.0,0.04122830658466706,0.1936699491337358,0.1090918759915299,0.000974352918138646,0.00918171594481481,0.046978810956697654
1074,10.0,300.53765,-1082.2733,0.0,0.01074001218586762,0.0,0.0,0.0,0.0,0.048513572777166857,0.1985820741610248,0.08188839973850583,0.006584274644717313,0.0038745052491338965,0.04980933119054825
1075,10.0,300.21081000000004,-1039.785,0.0,0.010750008173286751,0.0,0.0,0.0,0.0,0.03270453060943587,0.18567706757489982,0.0976870591324621,0.008373568943306911,0.0035789032113352466,0.053750985537059245
1076,10.0,300.09952000000004,-1078.0115,0.0,0.010760004160706105,0.0,0.0,0.0,0.0,0.07357801828733503,0.1867923215624668,0.06731822908379194,0.0013489057116016288,-0.013158850054177388,0.03676500879517386
1077,10.0,299.82281,-1185.0866,0.0,0.010770000148125458,0.0,0.0,0.0,0.0,0.06246515221933053,0.2067824389428378,0.09098914362542933,-0.003898039603906556,-0.00944074583482907,0.05059453719654205
1078,10.0,299.45296,-1310.0627,0.0,0.010779996135544812,0.0,0.0,0.0,0.0,0.0943139090195581,0.1983044132361218,0.1056080181726999,-0.012420317387539887,-0.003173531534553177,0.037843964111158465
1079,10.0,299.33889,-1227.1968,0.0,0.010789992122964165,0.0,0.0,0.0,0.0,0.06031825257619804,0.2031112210480168,0.10960773174994089,-0.0039368214475090264,0.00027066880007043076,0.04256015392686016
1080,10.0,300.01313999999996,-1116.3998,0.0,0.010799988110383296,0.0,0.0,0.0,0.0,0.05737670850239024,0.19157708105218582,0.0904038721291675,0.008215420665048892,-0.0014695400261073085,0.03800457742425976
1081,10.0,300.00613,-1154.3854,0.0,0.010810017087860002,0.0,0.0,0.0,0.0,0.04425769234939416,0.1972643728034778,0.1093822734701899,0.006865185974616103,-0.006513014791684514,0.05284658788205215
1082,10.0,300.21931,-1146.4597,0.0,0.010820013075279578,0.0,0.0,0.0,0.0,0.07336898580495513,0.2047101195733158,0.07041601530976964,0.015908790560575384,0.006778885234448883,0.059723841564034236
1083,10.0,299.8025,-1103.6124,0.0,0.010830009062698709,0.0,0.0,0.0,0.0,0.06065681287186135,0.1797252567525018,0.0950885336547576,0.005095018088889135,0.005719948599364975,0.041855050407521854
1084,10.0,300.0711,-932.9384699999999,0.0,0.010840005050118284,0.0,0.0,0.0,0.0,0.02834982891266027,0.18947104071933582,0.06576913180090793,-0.0036109402543220565,0.01150064296077509,0.05887330423134274
1085,10.0,299.92885,-951.83841,0.0,0.010850001037537416,0.0,0.0,0.0,0.0,0.020493848588085378,0.1977752839014008,0.07106597269241542,-0.01350156366200059,0.013412625634473088,0.05139164281171025
1086,10.0,299.9817,-1210.6805,0.0,0.010859997024956769,0.0,0.0,0.0,0.0,0.05359538679870285,0.2084760358224828,0.10594521767347889,-0.02233269588281548,0.011582205540824689,0.06421828970135174
1087,10.0,300.4743,-1287.4168,0.0,0.010869993012376122,0.0,0.0,0.0,0.0,0.07115382147608544,0.2253064644885168,0.0948822764644016,-0.0011255182110799988,-0.0015817596025075186,0.05098859725318275
1088,10.0,300.69759,-1103.3406,0.0,0.010879988999795254,0.0,0.0,0.0,0.0,0.06543933510535954,0.18896386851428182,0.08098479545832701,-0.013710277983849087,-0.0035079177464295273,0.05641447250517495
1089,10.0,300.38254,-1112.9592,0.0,0.01089001797727196,0.0,0.0,0.0,0.0,0.05761320006248015,0.1946166185696648,0.08608198453688042,0.0075498659183137525,-0.00926347002913331,0.04235624241048566
1090,10.0,300.83883,-1170.0303,0.0,0.010900013964691535,0.0,0.0,0.0,0.0,0.05818527802918985,0.2146063914450018,0.08286832302946671,0.002204247470967288,-0.0098227160952516,0.057637898033667645
1091,10.0,300.64776,-1153.9304,0.0,0.010910009952110888,0.0,0.0,0.0,0.0,0.05135829979066955,0.19359345888368681,0.1058142652305549,0.014944740845681086,0.008094405773805652,0.049349548692671254
1092,10.0,299.95852,-1153.9885,0.0,0.010920005939530242,0.0,0.0,0.0,0.0,0.04471239441126976,0.2036152521777608,0.1024560402916239,-0.0034881903749325867,0.00013120431663385789,0.04664078971008755
1093,10.0,300.60817000000003,-1051.517,0.0,0.010930001926949373,0.0,0.0,0.0,0.0,0.04593956491213205,0.19181630940079583,0.08187905047983313,0.006097744370700514,0.003743000382255377,0.054882355267466744
1094,10.0,300.0514,-1097.5358,0.0,0.010939997914368504,0.0,0.0,0.0,0.0,0.07413362992666964,0.18164163693163382,0.07784822607152173,-0.016996769881950584,-0.0031148791472146373,0.04351832172492395
1095,10.0,299.54618,-1207.6431,0.0,0.01094999390178808,0.0,0.0,0.0,0.0,0.07863952475036683,0.2037822053967378,0.08467161537818783,-0.0017554720102515983,0.003134848786810487,0.048343219090854254
1096,10.0,300.10848,-1223.5421,0.0,0.010959989889207211,0.0,0.0,0.0,0.0,0.08314777538054652,0.18637632160141082,0.1024021455188049,-0.02075376142423678,0.0072084934483229125,0.026268742903273076
1097,10.0,299.90647,-1210.4786,0.0,0.010970018866683917,0.0,0.0,0.0,0.0,0.05705482934312324,0.2059870680118408,0.10491337443414389,0.004311130219950426,0.0013614887579684789,0.050449512736229246
1098,10.0,299.23775,-1217.0283,0.0,0.01098001485410327,0.0,0.0,0.0,0.0,0.05908666126514944,0.2261994316691458,0.08466010891005221,-0.011500122150223687,0.0024779089964005775,0.05215083564788675
1099,10.0,299.86872,-1207.5995,0.0,0.010990010841522846,0.0,0.0,0.0,0.0,0.06225590188817914,0.2078171598124568,0.097007015314597,0.00945922123450245,-0.005613854626444314,0.05425513015081445
1100,10.0,299.69912,-1208.4144,0.0,0.0110000068289422,0.0,0.0,0.0,0.0,0.07425027325168143,0.2115504899384078,0.08152705246134362,0.00029571634254243074,-0.005986592759905704,0.05552295325893884
1101,10.0,299.98355,-1177.261,0.0,0.01101000281636133,0.0,0.0,0.0,0.0,0.05983440234869575,0.2052373034678448,0.09278624501603942,0.013267773426677289,-0.004879516308595766,0.05094101908148715
1102,10.0,300.26612,-1089.2415,0.0,0.011019998803780462,0.0,0.0,0.0,0.0,0.04101906942576696,0.19527033713668182,0.09481279993154482,0.006246522010708724,-0.00989558103776781,0.05348758712056385
1103,10.0,300.12542,-1066.0526,0.0,0.011029994791199815,0.0,0.0,0.0,0.0,0.03224654460398617,0.20094691883441682,0.09085989952217391,0.005038099575121715,-0.01003925240389707,0.052376221986880654
1104,10.0,300.62677,-1056.7382,0.0,0.01103999077861939,0.0,0.0,0.0,0.0,0.03784968998747357,0.18850808835429983,0.0948642406126216,-0.007647399346439552,0.00969391772071519,0.046993102849358155
1105,10.0,300.55874,-1065.886,0.0,0.011049986766038744,0.0,0.0,0.0,0.0,0.05361937650807045,0.1981420905701018,0.07224125972190723,-0.009414681293231702,0.005725685418781155,0.05659884450662104
1106,10.0,300.29625,-1200.0322,0.0,0.011060015743515228,0.0,0.0,0.0,0.0,0.06908431995509152,0.21397485292267382,0.08172066530370171,-0.0024932053238852074,0.018911155984885783,0.05767992663456554
1107,10.0,300.32892999999996,-1244.2546,0.0,0.011070011730934581,0.0,0.0,0.0,0.0,0.07278691719225944,0.2103212959770958,0.09511411923303272,-0.007133597445981253,-4.530077253233816e-05,0.05171084597746315
1108,10.0,299.59885,-1299.7,0.0,0.011080007718354157,0.0,0.0,0.0,0.0,0.08282663690710262,0.21670127589425078,0.095548431663146,0.002240866937531348,-0.00935061936625928,0.03968716534156826
1109,10.0,299.44556,-1209.9328,0.0,0.011090003705773288,0.0,0.0,0.0,0.0,0.060924189308249346,0.18549778310220583,0.12136738068802788,-0.005468805138854046,-0.016638160406558584,0.034003835398167266
1110,10.0,300.37285,-1180.1571,0.0,0.01109999969319242,0.0,0.0,0.0,0.0,0.061570847548569535,0.20045581677594881,0.09671163061894482,0.004558960960584416,0.0008197046793035534,0.040251455468009366
1111,10.0,299.52917,-1232.2888,0.0,0.011109995680611773,0.0,0.0,0.0,0.0,0.07243451995323053,0.2016202640558708,0.10053023486006171,0.006675461783491784,-0.00854527339332782,0.038828843208358464
1112,10.0,299.79641000000004,-1260.4694,0.0,0.011119991668031348,0.0,0.0,0.0,0.0,0.0924113141080366,0.1922941682804568,0.0984457534495894,0.01004843771870359,0.014696652638196686,0.04095977504316506
1113,10.0,301.15952000000004,-1166.735,0.0,0.011129987655450702,0.0,0.0,0.0,0.0,0.05183722663593595,0.21411116545862682,0.08870991453248692,0.013309033983999389,0.0007624335342363312,0.06639420274784763
1114,10.0,301.18447000000003,-1069.447,0.0,0.011140016632927408,0.0,0.0,0.0,0.0,0.05871881702834604,0.17883717343735483,0.08752917824395733,0.0008007754651753852,0.0017942155530002884,0.05406821286511715
1115,10.0,300.37402000000003,-1128.7136,0.0,0.011150012620346539,0.0,0.0,0.0,0.0,0.028996032203685573,0.2175362547716568,0.0965684512870641,-0.0028005948040721873,0.0002256327715507208,0.06543052894874044
1116,10.0,299.59786,-1136.3737,0.0,0.011160008607765892,0.0,0.0,0.0,0.0,0.046804104347955455,0.20675357144748882,0.09187155679301673,-0.0005546460626518044,0.005306686744054205,0.052375459009555356
1117,10.0,300.02664,-1196.2857,0.0,0.011170004595185246,0.0,0.0,0.0,0.0,0.061869497949294035,0.2086449851441568,0.093126490346619,-0.006008463459339175,0.004419514239422096,0.03736242308063406
1118,10.0,299.41991,-1209.8353,0.0,0.011180000582604377,0.0,0.0,0.0,0.0,0.06460992201075284,0.21734140677742678,0.08580839485087922,-0.008390113493589731,0.003970167710950046,0.05959962014152454
1119,10.0,300.2398,-1131.0034,0.0,0.01118999657002373,0.0,0.0,0.0,0.0,0.04784893238732195,0.19767250994375782,0.0982753501140219,-0.004434277192054086,-0.011034579325528189,0.04327952198110626
1120,10.0,300.21707000000004,-1120.2277,0.0,0.011199992557443084,0.0,0.0,0.0,0.0,0.05032168414336355,0.1933059491678118,0.096893622495906,-0.005783076715045234,-0.0033708382814758367,0.06260356826249114
1121,10.0,299.91051,-1136.8588,0.0,0.011209988544862659,0.0,0.0,0.0,0.0,0.04451239201378105,0.2047893050686308,0.0962749988593526,0.007623109512392333,-0.00887718241135969,0.05172442656855345
1122,10.0,300.40112,-1079.7143,0.0,0.011220017522339365,0.0,0.0,0.0,0.0,0.054284253998438746,0.18995485750958482,0.08396706408015402,0.0054226322437221355,0.008573485518512142,0.06580411223411023
1123,10.0,300.80324,-1130.4007,0.0,0.011230013509758496,0.0,0.0,0.0,0.0,0.06404258402801094,0.2024055328833708,0.07716548295539023,0.015822209352780486,0.005731058582736444,0.04391384592795916
1124,10.0,300.30456000000004,-1215.4489,0.0,0.01124000949717785,0.0,0.0,0.0,0.0,0.06589561277114063,0.21090389451959382,0.09266660145748151,-0.005738943492364625,0.01081385089724399,0.05591871861549785
1125,10.0,300.62762999999995,-1172.4294,0.0,0.011250005484597203,0.0,0.0,0.0,0.0,0.06583214481137685,0.1938051369620778,0.0967519954631785,0.002086133818735378,0.0014679874229790784,0.045791749961043855
1126,10.0,300.33847000000003,-1242.2038,0.0,0.011260001472016334,0.0,0.0,0.0,0.0,0.07049285006485263,0.2134872161795478,0.09361887213996332,-0.016349128789033385,-0.0012753217668144588,0.047862050936366654
1127,10.0,300.08344,-1260.9889,0.0,0.01126999745943591,0.0,0.0,0.0,0.0,0.05966648451562354,0.20336146342521383,0.12028117658082788,0.002342767777563178,-0.0002960874656565577,0.04685227425770946
1128,10.0,300.00473,-1194.2277,0.0,0.011279993446855041,0.0,0.0,0.0,0.0,0.06665402135173974,0.2061853509239098,0.0901760225791805,-0.018501997488504982,-0.008840662040655412,0.04152552222324996
1129,10.0,300.03796,-1186.1508,0.0,0.011289989434274394,0.0,0.0,0.0,0.0,0.05878493565037144,0.21097995920460078,0.09079534029205241,0.006875141967448683,-0.005324965573208184,0.048950117397250456
1130,10.0,300.25094,-1214.2876,0.0,0.011300018411751322,0.0,0.0,0.0,0.0,0.07302235395899523,0.1964149956421508,0.0996757732097329,-0.01015879787984529,-0.0034293306766235866,0.031339546949222474
1131,10.0,300.21592000000004,-1147.3714,0.0,0.011310014399170454,0.0,0.0,0.0,0.0,0.059623848977915735,0.2154779790485208,0.07367041656395402,0.006925398260483593,-0.005700055257501654,0.07071402330993072
1132,10.0,299.17644,-1134.444,0.0,0.011320010386589807,0.0,0.0,0.0,0.0,0.04308221178913326,0.2065213851870738,0.0952390671558641,-0.0035460852564963667,-0.008100859974292633,0.04720030438880736
1133,10.0,299.93387,-1265.4023,0.0,0.01133000637400916,0.0,0.0,0.0,0.0,0.05559234771853754,0.22589043091864977,0.1031679295468819,0.01055636175533179,-0.004282970175821246,0.08143343929785472
1134,10.0,299.99048999999997,-1341.8325,0.0,0.011340002361428514,0.0,0.0,0.0,0.0,0.08428238244502351,0.22752206755467977,0.0960791366017725,0.0068982650440057545,0.0036370656922504363,0.05000458651131845
1135,10.0,299.67073,-1271.5974,0.0,0.011349998348847867,0.0,0.0,0.0,0.0,0.07035784766127892,0.2116975935879258,0.1044784165637169,-0.0008078207451082003,0.01079574411795699,0.06488758698865624
1136,10.0,299.97621000000004,-1173.4573,0.0,0.011359994336266999,0.0,0.0,0.0,0.0,0.041251582965964255,0.22377231264460776,0.0916778172943961,0.002119703706473468,0.008810337998287662,0.04076251551369706
1137,10.0,300.59179,-1041.5134,0.0,0.011369990323686352,0.0,0.0,0.0,0.0,0.03421119905763247,0.20192693433113681,0.08045593564813262,-0.008308842425593902,0.0008622305934830343,0.06144146564330054
1138,10.0,300.06952,-1202.5839999999998,0.0,0.011379986311105705,0.0,0.0,0.0,0.0,0.04937317363200286,0.2137704905100048,0.1024118423222619,-0.004379231671096516,0.009226194787104531,0.04485112354871126
1139,10.0,300.63436,-1271.0024,0.0,0.011390015288582411,0.0,0.0,0.0,0.0,0.07435920979643264,0.2124035654625998,0.0995902295700404,-0.025243254768565274,0.0012534216831280886,0.06287509801103904
1140,10.0,300.09182999999996,-1212.0771,0.0,0.011400011276001765,0.0,0.0,0.0,0.0,0.06541097018206014,0.2045881647912798,0.09844204394097332,-0.0012943264883400788,-0.008573203632334322,0.04021547394370826
1141,10.0,299.55793,-1133.7626,0.0,0.011410007263420896,0.0,0.0,0.0,0.0,0.04889947617050255,0.2026258337201128,0.0931102114705124,-0.002844824184187287,-0.0073582747125551734,0.05065937203069075
1142,10.0,299.80978999999996,-1256.7791,0.0,0.011420003250840471,0.0,0.0,0.0,0.0,0.06748549033079934,0.21065659056768682,0.10388739791288791,0.014959293143617285,0.0003123052022521237,0.05391886790637795
1143,10.0,299.94315,-1383.3235,0.0,0.011429999238259825,0.0,0.0,0.0,0.0,0.1009909059782764,0.20030110361817982,0.1192037877494979,0.009709482964776361,-0.004387708825408146,0.04349420535929387
1144,10.0,300.06248,-1320.7981,0.0,0.011439995225678956,0.0,0.0,0.0,0.0,0.06431539148493494,0.23128738598628779,0.10588688486522191,0.01773520932957888,0.0014319924224516485,0.06139215684043414
1145,10.0,299.87966,-1187.6163,0.0,0.01144999121309831,0.0,0.0,0.0,0.0,0.061095132706120145,0.2094160786027578,0.09049450431086223,0.014242353849860884,-0.006129452006079814,0.05464399020794195
1146,10.0,300.30251,-1094.5356,0.0,0.011459987200517663,0.0,0.0,0.0,0.0,0.051769858676537245,0.19369677999638382,0.08724486026589733,0.011516222694312689,-0.004762297964152215,0.048342347695768256
1147,10.0,300.41995,-1199.0422,0.0,0.011470016177994369,0.0,0.0,0.0,0.0,0.06083176874012815,0.2235810211582288,0.08006610692390953,-0.011842097098723988,-0.0023468938332953876,0.04561588824718766
1148,10.0,299.98879,-1224.844,0.0,0.011480012165413722,0.0,0.0,0.0,0.0,0.06552251685906893,0.20251801377697182,0.1042814508767779,-0.012562613165333386,-0.0033609155232465367,0.039742591135288365
1149,10.0,300.09199,-1215.1299,0.0,0.011490008152832853,0.0,0.0,0.0,0.0,0.05159867412514266,0.2310898731442948,0.08668060560320973,-0.02077643593497458,0.007006329687045904,0.04756900684844546
1150,10.0,300.66025,-1186.4316,0.0,0.011500004140252429,0.0,0.0,0.0,0.0,0.03784646177265496,0.22452856198924379,0.09827056149404931,-0.012650744645781288,0.006366641796813624,0.06505027037171185
1151,10.0,300.57634,-1266.0062,0.0,0.011510000127671782,0.0,0.0,0.0,0.0,0.07414039337108713,0.20857613479986178,0.1021177464807369,-0.006977329861233843,0.0013487675042879886,0.06426271869173654
1152,10.0,301.13296,-1326.0534,0.0,0.011519996115090914,0.0,0.0,0.0,0.0,0.08163163507041513,0.2277790176475388,0.09367647236839802,0.01026386684896479,0.004578274926040555,0.06482645659687314
1153,10.0,300.86827,-1269.2355,0.0,0.011529992102510267,0.0,0.0,0.0,0.0,0.06597495734672135,0.2183157075435828,0.10152521808725891,0.003949820433041926,0.0026591119568339177,0.05702638741281624
1154,10.0,299.98071,-1046.6234,0.0,0.011539988089929398,0.0,0.0,0.0,0.0,0.04455341851033005,0.1992242822069058,0.07436967565671553,0.012668184706502487,-0.0018194049504862884,0.052021060601578954
1155,10.0,299.9968,-1068.6685,0.0,0.011550017067406326,0.0,0.0,0.0,0.0,0.03757260661512757,0.19461070118908083,0.09266524066259722,0.008314862245763012,0.014366383768101686,0.045270643540614657
1156,10.0,299.51591,-1229.3194,0.0,0.01156001305482568,0.0,0.0,0.0,0.0,0.05481522846159185,0.2079154349396558,0.11095173708008389,0.006403477896249064,0.003361788944832737,0.042734584931575156
1157,10.0,299.77697,-1280.7989,0.0,0.011570009042245033,0.0,0.0,0.0,0.0,0.06751279438124404,0.2198187627419228,0.1019993178090489,0.004857324712855626,0.00891856982759431,0.05036973550285586
1158,10.0,300.00074,-1377.9467,0.0,0.011580005029664164,0.0,0.0,0.0,0.0,0.08846792001110391,0.22792279783672878,0.1024706614905669,0.00030178237704860176,-0.006134446518472734,0.062203178432475734
1159,10.0,300.1809,-1367.3578,0.0,0.01159000101708374,0.0,0.0,0.0,0.0,0.0986532032353131,0.2177396849942338,0.0992497481521875,6.214792387802253e-05,0.005038713807332335,0.03755138105203276
1160,10.0,299.99282999999997,-1274.6733,0.0,0.011599997004502871,0.0,0.0,0.0,0.0,0.08661915299789483,0.2124946769115918,0.08835502368496193,-0.002017714916332958,-0.002187433598807888,0.04403430515284756
1161,10.0,300.01412999999997,-1242.2768,0.0,0.011609992991922224,0.0,0.0,0.0,0.0,0.050956421496257245,0.2111830449221438,0.1154816641696529,-0.013282080518089288,0.017240707817025382,0.03711106410182686
1162,10.0,300.42432,-1232.4926,0.0,0.011619988979341356,0.0,0.0,0.0,0.0,0.04786097587801055,0.2189099584622308,0.1078760366665359,-0.013513391330417885,-0.007577705978061353,0.04915210576493515
1163,10.0,300.39516000000003,-1090.8775,0.0,0.011630017956818284,0.0,0.0,0.0,0.0,0.061464682242841844,0.19257167721784482,0.07756317044738892,-0.005377218171590115,-0.0004716700088452055,0.06266786607408684
1164,10.0,299.8124,-1081.5082,0.0,0.011640013944237637,0.0,0.0,0.0,0.0,0.052531098277915744,0.1935540231897948,0.08266636809903533,0.003199860939726687,-0.004338336897060516,0.06885017102923284
1165,10.0,299.92066,-1197.0127,0.0,0.01165000993165699,0.0,0.0,0.0,0.0,0.06753063872875514,0.2142406892189098,0.08209063635246502,0.016328485844746082,0.006515846319088964,0.06912531402763734
1166,10.0,299.82745,-1337.4157,0.0,0.011660005919076122,0.0,0.0,0.0,0.0,0.06602278072494114,0.2306610859669768,0.10985711286455291,0.017624555325908182,-0.001275831532939769,0.06255653420609923
1167,10.0,299.69257000000005,-1325.6333,0.0,0.011670001906495475,0.0,0.0,0.0,0.0,0.05120965194799915,0.23739329188389377,0.11435648033110589,0.0018575424683501685,0.003466535193795387,0.05696977105022865
1168,10.0,299.70387999999997,-1316.2541,0.0,0.011679997893914829,0.0,0.0,0.0,0.0,0.06259121775702224,0.22923140020837776,0.1082857646094729,0.01849174542399318,-0.006224644421174574,0.040631439454260856
1169,10.0,299.9553,-1236.5039,0.0,0.011689993881334182,0.0,0.0,0.0,0.0,0.07922551362769942,0.2046358382084848,0.09200494002293061,-0.003053979269829287,-0.0023820511799651474,0.04267878626181826
1170,10.0,299.42661,-1140.0498,0.0,0.011699989868753535,0.0,0.0,0.0,0.0,0.04202568679061236,0.2292334672385818,0.07528752623330033,-0.005014218790139865,-0.01209400728558559,0.05370023386605045
1171,10.0,299.67559,-1210.5763,0.0,0.011710018846230241,0.0,0.0,0.0,0.0,0.08120350346591182,0.2048552575176398,0.08192620916598733,-0.02327348542841418,-0.002085502563923078,0.05820387724802544
1172,10.0,300.24532999999997,-1350.6027,0.0,0.011720014833649595,0.0,0.0,0.0,0.0,0.08422077278594313,0.20819795946503883,0.11813077615859988,-0.015238907614713085,-0.0032919515936153266,0.052888252726164146
1173,10.0,301.02722,-1244.9773,0.0,0.011730010821068948,0.0,0.0,0.0,0.0,0.06751534574499585,0.2054846074197518,0.1054420680713219,0.0013585481035282589,0.01097229281538099,0.05547537306074304
1174,10.0,300.31999,-1290.2378,0.0,0.01174000680848808,0.0,0.0,0.0,0.0,0.055171004889704243,0.2128699340861268,0.12415914815855388,0.011454483339219489,-0.0006645532908663034,0.06014260972436344
1175,10.0,300.5632,-1470.3833,0.0,0.011750002795907433,0.0,0.0,0.0,0.0,0.09138370321436931,0.2334962914692898,0.1220798069658389,0.018740160911259882,0.0016935416575145482,0.04003441628333926
1176,10.0,300.33685,-1431.5914,0.0,0.011759998783326786,0.0,0.0,0.0,0.0,0.08112927782983632,0.2288714735078558,0.1251673016105509,0.02042061087085738,-0.004352300699338636,0.06038258990454764
1177,10.0,299.88313999999997,-1308.1446,0.0,0.01176999477074614,0.0,0.0,0.0,0.0,0.09762658026049331,0.2161821068080128,0.08383459581508042,0.012148657942979188,0.0023056183811968178,0.03260846943370537
1178,10.0,299.98183,-1209.3958,0.0,0.011779990758165493,0.0,0.0,0.0,0.0,0.04927004199707455,0.22539973416022177,0.09295635450907791,-0.0009691296746681521,-0.017854019996554584,0.06357509272337314
1179,10.0,300.31633999999997,-1230.4355,0.0,0.011789986745584624,0.0,0.0,0.0,0.0,0.04977825987623175,0.22224722938909378,0.10199618686623989,-0.017412911698020585,-0.005134887453823935,0.03059456494569847
1180,10.0,299.12516,-1273.6514,0.0,0.011800015723061552,0.0,0.0,0.0,0.0,0.061391309763350534,0.22830072999152776,0.0974661807431631,-0.013888735644461485,-0.005375443869340005,0.06037790868908564
1181,10.0,300.42602,-1267.839,0.0,0.011810011710480905,0.0,0.0,0.0,0.0,0.06450278297167904,0.21451127765811479,0.10637734857612689,-0.01063816346240499,0.008775288157453511,0.04337943148071655
1182,10.0,300.66771,-1169.3827,0.0,0.011820007697900037,0.0,0.0,0.0,0.0,0.05731679097097685,0.2143920181213448,0.08375432411565822,-0.0027385271559465874,0.01007745203399208,0.08374512380475023
1183,10.0,299.92559,-1142.8772,0.0,0.01183000368531939,0.0,0.0,0.0,0.0,0.05080803203236236,0.21461796276114378,0.08198014345556022,0.004102057916841596,0.006202138616578424,0.06650425893395934
1184,10.0,300.05113,-1256.8272,0.0,0.011839999672738744,0.0,0.0,0.0,0.0,0.05699735171795065,0.2191475250806768,0.1058992161189389,0.007459902886985092,0.010409970420634091,0.08395822043328122
1185,10.0,300.78446,-1271.8805,0.0,0.011849995660158097,0.0,0.0,0.0,0.0,0.05471096705280205,0.2055334460745718,0.1263754908972899,0.0022091315390993078,0.01817751326323088,0.05258841986257295
1186,10.0,300.05621,-1084.7455,0.0,0.01185999164757745,0.0,0.0,0.0,0.0,0.05109004587969495,0.1990043157426968,0.07964120252097473,0.014433695998744885,-0.012501639827315787,0.06784372186390403
1187,10.0,300.60811,-1141.4734,0.0,0.011869987634996582,0.0,0.0,0.0,0.0,0.027995566280197268,0.2111767425065218,0.10780709512973188,-0.0014238846991264788,0.0015458047266840485,0.03880738459774066
1188,10.0,299.99492999999995,-1410.6155,0.0,0.01188001661247351,0.0,0.0,0.0,0.0,0.1021671829531159,0.2271034128783618,0.09952130829823841,0.014719888489489887,-0.01096578167023839,0.049107959471328254
1189,10.0,300.23659,-1429.2689,0.0,0.011890012599892863,0.0,0.0,0.0,0.0,0.09326202977274572,0.2328443764874508,0.1083556383363689,0.0030458977896817073,-0.00033083292616066767,0.037361564857799366
1190,10.0,300.35656,-1266.3059,0.0,0.011900008587311994,0.0,0.0,0.0,0.0,0.06904419727763174,0.2194989100828558,0.0963822665811891,-0.00041136232548080065,-0.005973231841437084,0.058093903135171855
1191,10.0,299.99318999999997,-1252.4865,0.0,0.011910004574731348,0.0,0.0,0.0,0.0,0.053102877335845955,0.22512738266584278,0.1024943411454039,-0.006920870957711784,-0.0004497905549308716,0.04064954218054746
1192,10.0,299.80281,-1287.0014,0.0,0.011920000562150479,0.0,0.0,0.0,0.0,0.05871154695887854,0.2183121105057278,0.1141926377899359,-0.0033465770210814364,7.385933400534873e-05,0.05263622196254065
1193,10.0,299.63018,-1405.7666,0.0,0.011929996549570054,0.0,0.0,0.0,0.0,0.07662878565567233,0.2249379555596478,0.12575120724567787,-0.011228978449963888,0.018206667508358185,0.055645429864776344
1194,10.0,299.33236,-1361.4107,0.0,0.011939992536989408,0.0,0.0,0.0,0.0,0.086494819104624,0.2140335505009668,0.1133064897824799,-0.0005286805662517095,-0.008941490963406452,0.06808077780429964
1195,10.0,299.70682,-1165.4197,0.0,0.011949988524408539,0.0,0.0,0.0,0.0,0.057402727751708155,0.20230865604130982,0.0945470882650711,-0.022255904697486777,0.00980596717242361,0.04726694686113445
1196,10.0,299.07807,-1194.1483,0.0,0.011960017501885467,0.0,0.0,0.0,0.0,0.039779748029705464,0.22852777907393576,0.0946837432795579,0.0025320951799483373,0.006294822528400614,0.07727142433284583
1197,10.0,299.28572,-1389.7226,0.0,0.01197001348930482,0.0,0.0,0.0,0.0,0.095954106605683,0.21759652288760478,0.1088903304141389,0.0024743338447477375,0.0005857851228699903,0.03930394402124726
1198,10.0,300.17482,-1397.9271,0.0,0.011980009476723952,0.0,0.0,0.0,0.0,0.06305547578059094,0.24991041619923776,0.11196904018048388,0.006039369613889374,-0.00030478106032204874,0.06328273055276924
1199,10.0,300.22544,-1219.0748,0.0,0.011990005464143305,0.0,0.0,0.0,0.0,0.06094603700690554,0.2266615243772508,0.08296074055783763,0.003139397063859367,-0.0037723586959528166,0.04657118753421836
1200,10.0,300.19027,-1242.8039999999999,0.0,0.012000001451562659,0.0,0.0,0.0,0.0,0.04345343420177005,0.23809980078112075,0.09622814009522801,-0.0017471971006599283,-0.009484330889205582,0.06766185461670514
1201,10.0,300.66752,-1357.1973,0.0,0.012009997438982012,0.0,0.0,0.0,0.0,0.07881952255113121,0.22780107610221575,0.10593350450232289,0.011192131610077387,-0.00870627518651746,0.05539334641214765
1202,10.0,300.00577000000004,-1362.1484,0.0,0.012019993426401365,0.0,0.0,0.0,0.0,0.06647741185930973,0.23422576061378275,0.11335591612235789,-0.0005942043192759004,-0.016389405480508382,0.06969722683458072
1203,10.0,300.3477,-1125.1161,0.0,0.012029989413820497,0.0,0.0,0.0,0.0,0.06379312084014084,0.19005191673666383,0.08816215558142732,0.004057556377749636,-0.0063725664727983435,0.04993893803733945
1204,10.0,299.92877000000004,-1082.0728,0.0,0.012040018391297425,0.0,0.0,0.0,0.0,0.025907751276895978,0.21161838782760883,0.09139698388343001,-0.014811536961034884,0.008270615944371241,0.06295556830748085
1205,10.0,299.93143,-1172.5804,0.0,0.012050014378716556,0.0,0.0,0.0,0.0,0.06533838094489614,0.2029062405527868,0.08819054583597923,0.0014102264930785184,0.014571428098087985,0.06374073074372034
1206,10.0,299.95959,-1269.6008,0.0,0.01206001036613591,0.0,0.0,0.0,0.0,0.07298018755608372,0.2151722612283488,0.09777448843059072,-0.016392703609583885,0.013640987889010686,0.05411159516814865
1207,10.0,300.44844,-1392.1192,0.0,0.012070006353555263,0.0,0.0,0.0,0.0,0.07148286228705923,0.23581078774521277,0.11587582859105389,0.008978594662193303,0.0029878846618312574,0.05390617796212555
1208,10.0,300.30675,-1310.2641,0.0,0.012080002340974616,0.0,0.0,0.0,0.0,0.06547657711278503,0.2204274828719988,0.11238352026638988,-0.002061358840540278,-0.00045724899772446256,0.04373784641208936
1209,10.0,300.77806,-1242.5752,0.0,0.01208999832839397,0.0,0.0,0.0,0.0,0.05477930671904665,0.22661318221497978,0.0963193569222304,0.008927957285795783,-0.006581743849942544,0.03397812519012987
1210,10.0,300.0033,-1394.3953,0.0,0.012099994315813323,0.0,0.0,0.0,0.0,0.08592265703815602,0.22017192093177682,0.11776677619267588,-0.0038045487397047263,-0.011883295847789988,0.045208897092770754
1211,10.0,300.47661,-1426.7061,0.0,0.012109990303232454,0.0,0.0,0.0,0.0,0.09469545037121332,0.2150328582795908,0.12395472495087888,-2.5463059112758274e-05,-0.018101115218940984,0.03344040248131076
1212,10.0,300.21997000000005,-1287.4429,0.0,0.012120019280709382,0.0,0.0,0.0,0.0,0.06498661800042985,0.23689731609244474,0.08946655803141182,-0.0020528344687739883,-0.003249473210998037,0.06950717455307404
1213,10.0,299.76204,-1235.6498,0.0,0.012130015268128513,0.0,0.0,0.0,0.0,0.04758690489821186,0.2140538864304738,0.1139659129475599,0.013303175371921185,-0.0060703452773964335,0.052527579260318445
1214,10.0,300.30412,-1214.7777,0.0,0.012140011255547867,0.0,0.0,0.0,0.0,0.06367178414066585,0.21599456434700381,0.08959574133966122,0.0034017437267509663,-0.002116921017723838,0.06862334891484724
1215,10.0,300.28207000000003,-1240.5397,0.0,0.012150007242967442,0.0,0.0,0.0,0.0,0.06886508911045514,0.2085583725256088,0.0996696288611265,0.0036093080097359662,-0.003788902435635556,0.04425278315265966
1216,10.0,299.45536,-1331.506,0.0,0.012160003230386573,0.0,0.0,0.0,0.0,0.07422097309853973,0.22582698119738778,0.1046966301052529,-0.016766109576186183,0.016077109640687186,0.06357635421974765
1217,10.0,300.16891,-1312.8011,0.0,0.012169999217805927,0.0,0.0,0.0,0.0,0.06680747503963444,0.2389756845650638,0.09327558401933342,-0.0020977159766534478,0.00831578876165445,0.056685712464194245
1218,10.0,300.41134,-1322.0916,0.0,0.012179995205225058,0.0,0.0,0.0,0.0,0.06332911916884744,0.23439267330275576,0.1041610362348939,-0.0066085121950593744,0.004269331930800257,0.07081765346390824
1219,10.0,299.73975,-1372.767,0.0,0.012189991192644412,0.0,0.0,0.0,0.0,0.052601032799817746,0.23968161590973375,0.12500422913945688,0.013443796247299387,-0.015876433431881984,0.05181785836027445
1220,10.0,299.85071,-1360.3283,0.0,0.012199987180063765,0.0,0.0,0.0,0.0,0.07702139068516942,0.24180195320149478,0.09468247975668322,0.016721204358254384,-0.005998429243598874,0.04771430488628525
1221,10.0,300.29427000000004,-1304.6869,0.0,0.012210016157540471,0.0,0.0,0.0,0.0,0.05936802663241804,0.23540716970037875,0.1018170341160589,0.016289275092376286,-0.011265284214296989,0.048781865191645256
1222,10.0,299.82105,-1254.0467,0.0,0.012220012144959824,0.0,0.0,0.0,0.0,0.07398120772737672,0.2187552554369628,0.08846243022206211,0.008761212492364352,0.0013643065051715689,0.04875073004257245
1223,10.0,300.64269,-1335.1192,0.0,0.0122300081323794,0.0,0.0,0.0,0.0,0.07939409716608734,0.2128193222436318,0.1136294835168569,-0.007793249402933832,-0.0005280781485372555,0.06033365195121785
1224,10.0,300.92637,-1363.4757,0.0,0.012240004119798531,0.0,0.0,0.0,0.0,0.07669130420009242,0.2187128813177808,0.11905836609514589,-0.0028897477419458973,0.015841080122642882,0.05801314102270124
1225,10.0,300.3112,-1380.2007,0.0,0.012250000107217884,0.0,0.0,0.0,0.0,0.05893957889388354,0.24667599015752478,0.11393097608411189,0.003188948134824677,0.01182156662519779,0.07669883568808572
1226,10.0,300.17896,-1377.9582,0.0,0.012259996094637016,0.0,0.0,0.0,0.0,0.08153702385557772,0.21930622031133878,0.11802162885782788,-0.008834130022560751,0.009596859912186331,0.03966571686345146
1227,10.0,299.91906,-1372.4115,0.0,0.012269992082056369,0.0,0.0,0.0,0.0,0.06669057232259704,0.2338930092809428,0.11659525642705588,-0.012086258962070889,-0.011057003563491291,0.049194368426606155
1228,10.0,299.69456,-1329.3144,0.0,0.012279988069475722,0.0,0.0,0.0,0.0,0.07179912196127163,0.2283252101139438,0.1039540596369669,-0.015504367995161986,-0.0014722810702778285,0.037556302407768465
1229,10.0,299.25838999999996,-1390.4799,0.0,0.012290017046952428,0.0,0.0,0.0,0.0,0.08142791201855923,0.22776833799148477,0.11347492234660289,0.001271901541101909,-0.0004887323805916306,0.05546230213445305
1230,10.0,299.59452000000005,-1389.205,0.0,0.012300013034371782,0.0,0.0,0.0,0.0,0.055654619029933246,0.2552741366635957,0.11135485863236891,0.005371564641332155,0.006950438710204893,0.05997056391038384
1231,10.0,299.59051,-1198.329,0.0,0.012310009021791135,0.0,0.0,0.0,0.0,0.057046625057063545,0.2153120998746498,0.09190337588590701,0.015893016283018587,-0.013205619652293187,0.041949599814103164
1232,10.0,300.01389,-1228.857,0.0,0.012320005009210488,0.0,0.0,0.0,0.0,0.06545364928952223,0.21066640896115582,0.0974217841767815,0.0044774934233941955,-0.01153615231052959,0.05424810326137095
1233,10.0,300.34155,-1411.2968,0.0,0.012330000996629842,0.0,0.0,0.0,0.0,0.07746999804769353,0.2450618827482248,0.1064671124024859,0.02374327377102868,-0.007929052780711583,0.05012594955529605
1234,10.0,300.62949,-1382.9852,0.0,0.012339996984048973,0.0,0.0,0.0,0.0,0.08604439599792073,0.22036903860623078,0.1139795208964029,-0.005463017048982805,-0.004504993537733246,0.059113780904075944
1235,10.0,299.95389,-1219.6937,0.0,0.012349992971468327,0.0,0.0,0.0,0.0,0.05409087420360365,0.23531121491590878,0.08135433790229803,0.007645896797866262,-0.021873438248490275,0.07703197712221423
1236,10.0,299.48511,-1230.4611,0.0,0.01235998895888768,0.0,0.0,0.0,0.0,0.04591538673824586,0.2209075303718758,0.1072065215304599,-0.018169223864162785,0.008426763560306812,0.06859862459915714
1237,10.0,299.98508,-1306.7617,0.0,0.012370017936364386,0.0,0.0,0.0,0.0,0.05774951665143355,0.23508617206869878,0.1043872443197189,-0.002808694117421528,0.01104384651094279,0.08382610883224283
1238,10.0,300.08921000000004,-1387.3668,0.0,0.01238001392378374,0.0,0.0,0.0,0.0,0.07191323114778334,0.2397440929108998,0.11006752438031889,-0.006326024450655004,0.023676030441392274,0.04030376957067236
1239,10.0,299.61784,-1363.6569,0.0,0.012390009911203093,0.0,0.0,0.0,0.0,0.06504049453474703,0.23389586664622478,0.11558129705198589,-0.009419660606873121,0.005302090844250625,0.06032205125082295
1240,10.0,299.51571,-1306.4335,0.0,0.012400005898622446,0.0,0.0,0.0,0.0,0.08735916906267872,0.2140876884538098,0.0956763048390161,-0.013367031406473289,0.001968603697236058,0.01163934068746349
1241,10.0,300.29902999999996,-1330.9429,0.0,0.0124100018860418,0.0,0.0,0.0,0.0,0.06422683139969473,0.23183984033831076,0.10850673419128089,0.01326292299844859,0.001113109950355399,0.07134777173072683
1242,10.0,300.20293,-1480.882,0.0,0.01241999787346093,0.0,0.0,0.0,0.0,0.08681405773413042,0.24425049233314675,0.11908660537543289,-0.0008900327982068982,-0.0026786876447908877,0.04536561648573775
1243,10.0,299.90538,-1465.846,0.0,0.012429993860880284,0.0,0.0,0.0,0.0,0.07981910796028263,0.2533017136214328,0.1124597572039139,0.012144505644069388,-0.024578205025679974,0.06982043602024053
1244,10.0,300.02572000000004,-1287.0076,0.0,0.012439989848299637,0.0,0.0,0.0,0.0,0.07307171849061714,0.2106822865902228,0.1074641606333869,-0.0074727675155547325,-0.006717612683676753,0.04588163740391505
1245,10.0,299.6847,-1151.3681,0.0,0.012450018825776565,0.0,0.0,0.0,0.0,0.04536119060930095,0.2136660345571958,0.09095993365154652,0.016721995706582483,0.004863972950736755,0.06681241564712204
1246,10.0,299.90716000000003,-1218.2386,0.0,0.012460014813195697,0.0,0.0,0.0,0.0,0.07370147166626893,0.2189974019458608,0.07761523529052733,-0.006824968558271954,0.003970591452141866,0.05571616181450704
1247,10.0,300.64223,-1403.5061,0.0,0.01247001080061505,0.0,0.0,0.0,0.0,0.06549465349456904,0.23377610048440478,0.12736005588695887,-0.00973879254114399,-0.0028711475098601976,0.05157782346458485
1248,10.0,300.01897,-1520.5021,0.0,0.012480006788034403,0.0,0.0,0.0,0.0,0.08296229792324132,0.25412066288225676,0.12511170457756388,-0.008982893983692612,-0.005533316746220845,0.06533361968267624
1249,10.0,299.96307,-1376.2885,0.0,0.012490002775453757,0.0,0.0,0.0,0.0,0.07274926887154384,0.2289648445045708,0.11664322368678988,0.0066154415085182446,0.016878169970995685,0.043515526167898055
1250,10.0,300.4673,-1344.4202,0.0,0.012499998762872888,0.0,0.0,0.0,0.0,0.06385934990642714,0.23706265824376277,0.1077481543714149,0.0009329890903663541,0.02073772167515378,0.05562307148806974
1251,10.0,300.41801,-1354.7842,0.0,0.012509994750292242,0.0,0.0,0.0,0.0,0.06976881396739584,0.24305348932751178,0.09899825137136671,-0.003768174479664866,-0.0027341857845681276,0.04403069190299096
1252,10.0,300.18082000000004,-1378.7493,0.0,0.012519990737711595,0.0,0.0,0.0,0.0,0.08628756284966942,0.22848218281943578,0.1043355989621219,-0.005164163795588285,-0.003214569582153317,0.05472391233607965
1253,10.0,299.93982,-1416.1521,0.0,0.012529986725130948,0.0,0.0,0.0,0.0,0.07107878422667983,0.2536529466360968,0.10574315533853688,-0.0014610472677441387,-0.001964213993827828,0.06830518737019714
1254,10.0,299.68692000000004,-1207.8777,0.0,0.012540015702607654,0.0,0.0,0.0,0.0,0.06632607890387433,0.20812068901241282,0.09271788103179242,0.018704328334723484,0.0018502046124509782,0.06676425890961935
1255,10.0,300.1746,-1131.4588,0.0,0.012550011690027008,0.0,0.0,0.0,0.0,0.02258635493934968,0.23791432535031576,0.08343452819859683,0.0022055475721705978,-0.008232482783482794,0.07813162300524083
1256,10.0,299.28258,-1349.4953,0.0,0.012560007677446139,0.0,0.0,0.0,0.0,0.07552232870547353,0.21658135774491577,0.11810918379896888,0.011912592961181388,-0.010993467715970791,0.043699717810826356
1257,10.0,300.22347,-1570.5717,0.0,0.012570003664865714,0.0,0.0,0.0,0.0,0.09752610638057731,0.24374643080589978,0.13614203635867286,-0.00043669961695139663,-0.002177902259092218,0.06468334008649863
1258,10.0,300.14125,-1434.0215,0.0,0.012579999652285068,0.0,0.0,0.0,0.0,0.0961910561548181,0.23240243732383478,0.10731322689849089,0.003293835833501287,0.003633973252945236,0.03726261794578407
1259,10.0,299.31587,-1318.3033,0.0,0.012589995639704199,0.0,0.0,0.0,0.0,0.05534564462393986,0.24324902633180978,0.1021366233300999,-0.011190444548660888,-0.0012517327978614089,0.06458861944065045
1260,10.0,299.74384,-1427.7584,0.0,0.012599991627123552,0.0,0.0,0.0,0.0,0.07776315764612612,0.24122877788492675,0.11501094870319689,-0.00990825760711889,0.003729958029618197,0.027628247920195772
1261,10.0,300.50237999999996,-1615.9392,0.0,0.012609987614542684,0.0,0.0,0.0,0.0,0.08694929217197701,0.2732053095757648,0.13105056606368387,0.004020801540972216,0.026707099214535474,0.055204820085291546
1262,10.0,300.00883,-1546.5471,0.0,0.012620016592019612,0.0,0.0,0.0,0.0,0.09277933161060711,0.2371804181703848,0.14015194323191987,-0.003838213771627206,0.014101552615964885,0.027306461979937975
1263,10.0,300.6927,-1278.7211,0.0,0.012630012579438965,0.0,0.0,0.0,0.0,0.07500836671149942,0.22056041115261782,0.093130502817015,-0.016318572205767684,0.0018449442232318183,0.05765732507783494
1264,10.0,300.39156,-1208.0785,0.0,0.012640008566858096,0.0,0.0,0.0,0.0,0.046114104334607754,0.22305230725604877,0.09805928871569831,-0.001084540451860809,-0.01200986395753129,0.05497363288947514
1265,10.0,300.01113,-1319.7431,0.0,0.01265000455427745,0.0,0.0,0.0,0.0,0.07100057449121114,0.22455190727154778,0.1056164686785339,0.008399845760800231,0.004014606529860816,0.06504188370063413
1266,10.0,300.13955,-1552.3779,0.0,0.012660000541697025,0.0,0.0,0.0,0.0,0.09488745011941221,0.2494435510831618,0.1275531205610129,0.01986423524094738,-0.015080799055858986,0.07214351756426084
1267,10.0,299.585,-1383.1002,0.0,0.012669996529116156,0.0,0.0,0.0,0.0,0.06924393015059384,0.23703184530822177,0.1141521584484409,0.014986105767763486,-0.02073311240044888,0.06643167071004544
1268,10.0,299.4512,-1125.9522,0.0,0.01267999251653551,0.0,0.0,0.0,0.0,0.03204460385905617,0.22896134879172578,0.08125538491078213,0.012195072903559988,-0.015351319607307285,0.05828924154245024
1269,10.0,299.89285,-1243.4159,0.0,0.012689988503954641,0.0,0.0,0.0,0.0,0.06364401196867493,0.23868310859868877,0.07564024771236122,0.009275547159725232,0.0026749068033677472,0.05432915617662024
1270,10.0,299.87669,-1643.473,0.0,0.01270001748143157,0.0,0.0,0.0,0.0,0.1099412835503599,0.25166040044694776,0.13797306034938087,-0.003600136272480786,-0.0006007221518691603,0.03969026791337446
1271,10.0,299.87095,-1690.971,0.0,0.012710013468850923,0.0,0.0,0.0,0.0,0.0990767296181119,0.27852981726125275,0.13640642370726586,-0.023088256217383477,0.0015512099093424987,0.059799878891288544
1272,10.0,299.67437,-1419.6888,0.0,0.012720009456270054,0.0,0.0,0.0,0.0,0.08228636992728242,0.24116544975367674,0.10809811069095289,-0.0043163615288917155,0.004862563317197636,0.04549836947408946
1273,10.0,300.0922,-1256.8411,0.0,0.012730005443689407,0.0,0.0,0.0,0.0,0.05399579790697036,0.2262459297162348,0.10180657737502691,-0.0017960780080090982,0.02253068596560558,0.08183487074897292
1274,10.0,299.93133,-1305.8678,0.0,0.01274000143110876,0.0,0.0,0.0,0.0,0.07823866274580482,0.2123809294553658,0.1063316104666129,0.014173038423769987,8.365121679873232e-05,0.03503457419489327
1275,10.0,299.49016,-1422.8368,0.0,0.012749997418528114,0.0,0.0,0.0,0.0,0.08227497187690751,0.2217574445557558,0.12847444861194088,-0.00986312562381471,-0.006774822709497943,0.06815425059555083
1276,10.0,299.83705,-1355.7773,0.0,0.012759993405947467,0.0,0.0,0.0,0.0,0.07394194631250192,0.2283188266383138,0.10986168262250388,-0.0005171789617165895,-0.010775388936698091,0.03346321175431187
1277,10.0,300.52317999999997,-1149.275,0.0,0.012769989393366599,0.0,0.0,0.0,0.0,0.05291930681522895,0.21508612483734782,0.08134546892417271,0.007934442055343462,0.014533650081359588,0.06805030329429203
1278,10.0,299.88038,-1377.2659,0.0,0.012780018370843527,0.0,0.0,0.0,0.0,0.08645189580388782,0.23052170328322077,0.1016808431701179,0.014328483148111184,-0.01240769431779409,0.04204735818375116
1279,10.0,300.81495,-1680.741,0.0,0.01279001435826288,0.0,0.0,0.0,0.0,0.1031680511368939,0.2728320282389247,0.13490321652141088,-0.008097918610577341,-0.01813444000147988,0.05707171515603974
1280,10.0,300.87736,-1646.8801,0.0,0.012800010345682011,0.0,0.0,0.0,0.0,0.1064951591652539,0.2616271438630888,0.13248812477555988,0.0027098971664210277,-0.01722220890994968,0.056678198201452645
1281,10.0,301.15865,-1290.7096,0.0,0.012810006333101587,0.0,0.0,0.0,0.0,0.062440162432114234,0.23044944841858978,0.0994538886630846,-0.011796105676684989,0.023275949652657377,0.04486984233105866
1282,10.0,300.47601000000003,-1142.2902,0.0,0.012820002320520718,0.0,0.0,0.0,0.0,0.03278131064901347,0.23304357132460982,0.08140283103883393,-0.0001255227193481279,0.01016453996816199,0.07412203530577534
1283,10.0,300.42702,-1309.38,0.0,0.012829998307940071,0.0,0.0,0.0,0.0,0.07277511080209423,0.22486433280738177,0.10037936293342181,-0.02409226547647148,0.007300919690644673,0.03837463257278136
1284,10.0,300.3821,-1393.0648,0.0,0.012839994295359425,0.0,0.0,0.0,0.0,0.05977331957966734,0.24867770626007876,0.1150059027176989,0.010363556473303389,-0.008368174805074553,0.08968328412180102
1285,10.0,300.68522,-1272.3543,0.0,0.012849990282778556,0.0,0.0,0.0,0.0,0.05154809369340075,0.23496802710703876,0.10024781571268909,0.006192444447571683,0.008226288380321451,0.05879652621826535
1286,10.0,299.88487000000003,-1279.8302,0.0,0.012860019260255484,0.0,0.0,0.0,0.0,0.055305722569999854,0.23039316237553478,0.10333753748112091,0.02494674840505238,-0.013897593476835687,0.07548925419570933
1287,10.0,300.01044,-1370.8502,0.0,0.012870015247674838,0.0,0.0,0.0,0.0,0.060991568413399144,0.24163109896963275,0.1140815551814729,-0.0036357390438945068,-0.021570430872335778,0.050251831694719654
1288,10.0,300.01873,-1613.4253,0.0,0.012880011235094191,0.0,0.0,0.0,0.0,0.0900507342043155,0.2633109122167637,0.13707936362867987,-0.003761090544240736,-0.006160206983715094,0.05972744569463995
1289,10.0,300.23868999999996,-1675.1164,0.0,0.012890007222513544,0.0,0.0,0.0,0.0,0.10484474700487091,0.26314396913028776,0.14120484180833287,-0.001020148914630859,0.03766924838316536,0.05495449968783685
1290,10.0,299.99306,-1350.7605,0.0,0.012900003209932676,0.0,0.0,0.0,0.0,0.08224314771776672,0.2330773936129478,0.09527691913984981,0.004753595665668365,0.019814425892531583,0.049890542172813156
1291,10.0,299.77353,-1237.1804,0.0,0.012909999197352029,0.0,0.0,0.0,0.0,0.06258799967470464,0.2218475427546478,0.09163641184230971,-0.015836604596951184,0.006066406267632684,0.060109085331554846
1292,10.0,299.80582000000004,-1414.2693,0.0,0.012919995184771382,0.0,0.0,0.0,0.0,0.10074994801174571,0.22334879436780977,0.10580379835702189,-0.0015189568414343685,-0.011913789609549488,0.04014417558717166
1293,10.0,300.00866,-1522.7679999999998,0.0,0.012929991172190514,0.0,0.0,0.0,0.0,0.08033215498941643,0.24663194417567774,0.13591933411919388,0.0028820665969128277,0.01938707854360568,0.049999980276363855
1294,10.0,299.81992,-1382.3235,0.0,0.012939987159610089,0.0,0.0,0.0,0.0,0.08217198614999362,0.23203183096725877,0.1059880072252019,0.013457592660660989,-0.005209049255143135,0.037983894963218565
1295,10.0,299.59562999999997,-1402.37,0.0,0.012950016137086795,0.0,0.0,0.0,0.0,0.0859544943695481,0.2219155115713558,0.11841545890669589,-0.0017897692089114685,-0.00947244840395787,0.059422270976521537
1296,10.0,299.68998999999997,-1489.0325,0.0,0.012960012124506148,0.0,0.0,0.0,0.0,0.08812478489123911,0.24295176914997277,0.1215521569762639,-0.004518533193519506,-0.011546789410079389,0.07203554968660524
1297,10.0,300.34177999999997,-1604.7564,0.0,0.012970008111925502,0.0,0.0,0.0,0.0,0.1023748586936119,0.2588670708556908,0.12656393515088787,-0.009048518443644241,0.01624641866614668,0.06420629282016774
1298,10.0,299.50158999999996,-1578.0601,0.0,0.012980004099344633,0.0,0.0,0.0,0.0,0.08300148233110852,0.2619717400895978,0.13471764989809687,0.006930869203073534,0.003750125151658536,0.07117126964280743
1299,10.0,299.92145,-1269.4995,0.0,0.012990000086763764,0.0,0.0,0.0,0.0,0.059086687609652036,0.22996359499563976,0.0968458629524425,-0.01049507228328299,0.006866625195058144,0.03841502477476776
1300,10.0,300.41841,-1147.593,0.0,0.01299999607418334,0.0,0.0,0.0,0.0,0.03266586194586957,0.2295726831070598,0.08660108168236132,0.00032256074221176677,0.0001118419684854429,0.07040223409515954
1301,10.0,300.452,-1366.0686,0.0,0.013009992061602693,0.0,0.0,0.0,0.0,0.07560164389680132,0.24493993809868977,0.09470915052581541,-0.0032687422894747465,0.011925170434672687,0.048572722265004455
1302,10.0,299.90606,-1589.5923,0.0,0.013019988049022047,0.0,0.0,0.0,0.0,0.07733404318902583,0.2687614884796937,0.13710084453079988,0.013557039104975587,0.0077300328305198425,0.08523053629234902
1303,10.0,300.01103,-1382.4356,0.0,0.01303001702649853,0.0,0.0,0.0,0.0,0.08461947251479172,0.2283281890692378,0.10727823937253789,0.007057305488976823,-0.00868971260038286,0.06710809013230283
1304,10.0,299.41695,-1262.0595,0.0,0.013040013013918106,0.0,0.0,0.0,0.0,0.05322332136198286,0.23682795912309976,0.0935833050349531,0.006440599833537714,-0.009134614000666211,0.07475407437365272
1305,10.0,299.45157,-1353.6471,0.0,0.01305000900133746,0.0,0.0,0.0,0.0,0.08187327698076333,0.2162760553572848,0.1133255692818629,-0.007895336073034002,0.004400513266921846,0.05620562950056374
1306,10.0,299.31414,-1628.5344,0.0,0.01306000498875659,0.0,0.0,0.0,0.0,0.11211973073535589,0.24785481545636576,0.13505925703681088,-0.0002667227279534838,0.004906271582786306,0.04207453051168286
1307,10.0,299.14418,-1552.7229,0.0,0.013070000976175722,0.0,0.0,0.0,0.0,0.09118365826037642,0.25484733545647376,0.12595801159108788,-0.010237988441410792,-0.004780663527514756,0.05384643774947964
1308,10.0,299.31465,-1371.0639,0.0,0.013079996963595297,0.0,0.0,0.0,0.0,0.07234470141136613,0.23103871414674576,0.11338575633780289,-0.0022371006869096478,-0.015017868118648185,0.046183990220504956
1309,10.0,300.23208999999997,-1446.3995,0.0,0.01308999295101465,0.0,0.0,0.0,0.0,0.08052663517386013,0.25188560541417376,0.1072570928429509,0.005240508846897955,-0.0026041666463112374,0.05630018599989575
1310,10.0,300.63317,-1511.9527,0.0,0.013099988938434004,0.0,0.0,0.0,0.0,0.08746129960650822,0.24831915757969278,0.12381542332713087,0.004073696843892576,0.0066328599870123135,0.040535147257507564
1311,10.0,299.95083999999997,-1628.7886,0.0,0.01311001791591071,0.0,0.0,0.0,0.0,0.09961783354251472,0.25134716431103377,0.14414606366860885,0.0017425331104496283,-0.004859037713474685,0.04526050597336416
1312,10.0,299.63554,-1423.9176,0.0,0.013120013903329841,0.0,0.0,0.0,0.0,0.08676814027934873,0.24667323411725278,0.0993940228074263,-0.0017377430719268884,0.0005786627751345695,0.05346855119093515
1313,10.0,300.34959,-1242.5831,0.0,0.013130009890749417,0.0,0.0,0.0,0.0,0.059525977124256536,0.2229910664200048,0.09519720270148241,0.004856541470528326,0.01005417393016971,0.06023847534282464
1314,10.0,300.14266000000003,-1365.4531,0.0,0.013140005878168548,0.0,0.0,0.0,0.0,0.06769452078667904,0.24234125556721978,0.1050278615629429,-0.0003620927049957676,0.0026996002149297974,0.0885916044110606
1315,10.0,299.98528999999996,-1549.8496,0.0,0.01315000186558768,0.0,0.0,0.0,0.0,0.09397187530255201,0.2529755078842387,0.12416818634944589,0.004343360388406295,-0.01060986946661259,0.06021004354501864
1316,10.0,300.46188,-1453.4424,0.0,0.013159997853007033,0.0,0.0,0.0,0.0,0.06423682103243064,0.2591968533657378,0.11837651970535289,0.0007142479089732803,-0.012954492707758888,0.09716970477715321
1317,10.0,299.97226,-1296.8914,0.0,0.013169993840426608,0.0,0.0,0.0,0.0,0.06409545744472915,0.23065398308377577,0.0994731677727373,0.007922249312915132,-0.003941854058105707,0.03794410260529136
1318,10.0,299.49712999999997,-1321.3618,0.0,0.013179989827845962,0.0,0.0,0.0,0.0,0.06798580181942623,0.23953231350749876,0.09414287645567851,0.00992957507199776,-0.005816098130504194,0.059142466014406946
1319,10.0,299.44627,-1548.8768,0.0,0.013190018805322667,0.0,0.0,0.0,0.0,0.09172582711063432,0.24709448271382678,0.1319995659748429,0.0022163173061584877,0.0033760878289189264,0.03360881883343217
1320,10.0,299.44851,-1583.2721,0.0,0.013200014792741799,0.0,0.0,0.0,0.0,0.08315665043817241,0.2772469311771417,0.12087158728159687,-0.006159948706264603,0.01006081365675,0.07405632097053984
1321,10.0,299.69887,-1376.3322,0.0,0.013210010780161374,0.0,0.0,0.0,0.0,0.07425223085087462,0.23324878486736278,0.11086961315947888,0.018926385133888782,0.009934193060653521,0.037660585094810364
1322,10.0,300.21549,-1295.5042,0.0,0.013220006767580506,0.0,0.0,0.0,0.0,0.05547876440882775,0.23433690401725177,0.1039852373425439,-0.003913015440384557,0.021984848136735582,0.06849952164662643
1323,10.0,299.7654,-1453.5825,0.0,0.013230002754999637,0.0,0.0,0.0,0.0,0.09272792132703332,0.24277255560478575,0.10635229090115389,-0.0037895983358042363,-0.007907826103041672,0.046678883860847155
1324,10.0,300.03148,-1599.9448,0.0,0.013239998742419212,0.0,0.0,0.0,0.0,0.1104723177952689,0.24668051938547175,0.12919042126510188,-0.013566924372951187,-0.00022200130345732274,0.04951300417230305
1325,10.0,300.64292,-1560.515,0.0,0.013249994729838344,0.0,0.0,0.0,0.0,0.08507639562088651,0.25990887434350873,0.12937233005555487,0.0009126460883736561,0.006559308364903333,0.05612205257931536
1326,10.0,300.41276,-1365.332,0.0,0.013259990717257919,0.0,0.0,0.0,0.0,0.07438594946657162,0.2327401637146658,0.1079007194389719,-0.00785950572564782,0.018217526509679883,0.05879021873639285
1327,10.0,300.12336,-1483.1007,0.0,0.01326998670467705,0.0,0.0,0.0,0.0,0.07556585286351902,0.25008982226194376,0.12516991579580888,-0.007866577502070753,-0.005243094863803175,0.06382022832006615
1328,10.0,299.89144,-1614.0555,0.0,0.013280015682153756,0.0,0.0,0.0,0.0,0.09229385207694402,0.2591249936686457,0.13921371416932385,-0.011715834990512888,0.004748472774487776,0.06248086671513144
1329,10.0,299.81734,-1562.6399,0.0,0.01329001166957311,0.0,0.0,0.0,0.0,0.1021188711883479,0.25881391575544477,0.11407071340540288,0.01060656221828619,-0.013735691309607187,0.040015623533734564
1330,10.0,299.34379,-1342.7895,0.0,0.013300007656992463,0.0,0.0,0.0,0.0,0.06456348982492034,0.24674129412646975,0.0968696956080446,0.005275602156161395,0.0014762382172183685,0.05239546563277986
1331,10.0,299.97151,-1251.2352,0.0,0.013310003644411816,0.0,0.0,0.0,0.0,0.04611568703126395,0.23717097467945275,0.09705758054758741,0.010834844426065889,-0.0076602981215375615,0.06185716466907685
1332,10.0,300.34031,-1394.0379999999998,0.0,0.01331999963183117,0.0,0.0,0.0,0.0,0.056773652440373246,0.26262033161110876,0.10435876185940791,0.003153129845114687,0.0013549651498496486,0.08125010486451102
1333,10.0,299.95335,-1556.0032,0.0,0.013329995619250301,0.0,0.0,0.0,0.0,0.07417693420944343,0.26410005165964573,0.13470912846475588,0.0034814007886625063,-0.00012026248211648288,0.07419509671748593
1334,10.0,299.80915,-1525.0382,0.0,0.013339991606669654,0.0,0.0,0.0,0.0,0.07615099770351834,0.26565245213785577,0.12177009694027288,0.0018755193489743485,0.01113434697012449,0.07885282098916752
1335,10.0,299.94152,-1323.6095,0.0,0.013349987594089008,0.0,0.0,0.0,0.0,0.08652562089441392,0.22257161127610778,0.09324698908826132,0.0008430231712749092,-0.004941395086902725,0.05367720978402815
1336,10.0,300.23575,-1378.8816,0.0,0.013360016571565714,0.0,0.0,0.0,0.0,0.07573156687762372,0.24429938165047177,0.09911463530435291,-0.005639183143169045,0.00923033583893822,0.06635470929869994
1337,10.0,300.45148,-1597.5943,0.0,0.013370012558985067,0.0,0.0,0.0,0.0,0.10254337231774291,0.24627349682030178,0.13681189599978286,-0.001174773109041079,0.006458636901217833,0.05472145520458715
1338,10.0,299.92388,-1683.0279999999998,0.0,0.01338000854640442,0.0,0.0,0.0,0.0,0.0930588001736885,0.26434999006181276,0.15418970263483886,-0.0054461818985713055,0.01089913109191049,0.046165149848145556
1339,10.0,299.76455,-1512.9281,0.0,0.013390004533823774,0.0,0.0,0.0,0.0,0.06777475499584752,0.2558764023905348,0.13624121327846087,0.007725326689105382,-0.014980727436232685,0.05666096079075145
1340,10.0,300.39524,-1373.3129,0.0,0.013400000521243127,0.0,0.0,0.0,0.0,0.07285333776281464,0.24202252761576376,0.1025769615585579,-0.00016441519972901686,-0.004522535632739516,0.04196149435702706
1341,10.0,299.89226,-1556.3145,0.0,0.013409996508662259,0.0,0.0,0.0,0.0,0.1024085289944349,0.25834787137194976,0.11232436672555189,0.01882726292960618,-0.0093950090425402,0.04631306815074396
1342,10.0,299.798,-1691.7699,0.0,0.013419992496081612,0.0,0.0,0.0,0.0,0.10883326416850689,0.25754264151747974,0.14787990041960986,-0.005366147400997515,0.0097324851605965,0.038395148860806166
1343,10.0,299.81321,-1613.1218,0.0,0.013429988483500965,0.0,0.0,0.0,0.0,0.09715375115432871,0.26552903827567576,0.12766594595964786,-0.0019715666431784785,-0.013863732684993886,0.06374289200618365
1344,10.0,299.74305,-1370.6848,0.0,0.013440017460977671,0.0,0.0,0.0,0.0,0.06027769622769544,0.24725196204436878,0.1091243101272309,-0.007979657733105902,0.006515157207695953,0.06587899445625053
1345,10.0,300.13924,-1275.2849,0.0,0.013450013448397025,0.0,0.0,0.0,0.0,0.03976986580148016,0.24258610745388476,0.1052987843746809,0.008238694817195873,0.004975978224740815,0.07138968076811293
1346,10.0,299.60815,-1484.4271,0.0,0.013460009435816378,0.0,0.0,0.0,0.0,0.0873641633724216,0.23994936724865876,0.12391524872698288,-0.006722186393303144,0.004891090056538005,0.06176739881621764
1347,10.0,299.91405,-1620.9075,0.0,0.013470005423235731,0.0,0.0,0.0,0.0,0.12002634418067788,0.2554479293207477,0.11724113243829888,-0.0023865233619315175,-0.023659398954250878,0.05422581074592085
1348,10.0,300.55695,-1328.6929,0.0,0.013480001410655085,0.0,0.0,0.0,0.0,0.05942242093753635,0.2466977750346748,0.09776926512632521,-0.0043447826875716656,-0.004733951785979665,0.07216054117919092
1349,10.0,300.5427,-1212.2863,0.0,0.013489997398074216,0.0,0.0,0.0,0.0,0.04045472255732026,0.24356968959095676,0.08448035226281161,0.009917016444958321,-0.007999272937816772,0.06316705488160294
1350,10.0,299.80341,-1596.3579,0.0,0.01349999338549357,0.0,0.0,0.0,0.0,0.06870734025538654,0.28143565642803675,0.13510993980681288,-0.015489807591224985,0.0019734348737128577,0.07536629426957413
1351,10.0,300.23197999999996,-1773.9192,0.0,0.013509989372912923,0.0,0.0,0.0,0.0,0.1039578897223449,0.28146476710340973,0.15380447507931985,-0.009206741398434632,-0.005886734328100444,0.05433407854560604
1352,10.0,300.11305,-1509.8679,0.0,0.013520018350389629,0.0,0.0,0.0,0.0,0.08452122170559512,0.25894153460553976,0.1154993757814009,-0.0018835414526660683,0.01203506652726859,0.06455464719129764
1353,10.0,300.07791000000003,-1171.3998,0.0,0.013530014337808982,0.0,0.0,0.0,0.0,0.06206405210099504,0.20955569433403679,0.08445652973971052,0.025914796404841272,0.012099434253121188,0.04502003335363136
1354,10.0,299.75223,-1243.7047,0.0,0.013540010325228335,0.0,0.0,0.0,0.0,0.055575208593096045,0.22331988634245678,0.09916008869058882,0.01182860871339279,0.011944964275376188,0.059397658118342446
1355,10.0,300.24634,-1561.0608,0.0,0.013550006312647689,0.0,0.0,0.0,0.0,0.10616008748968489,0.24381673009783777,0.12454667579179989,0.004025435133679516,-0.008532218476389401,0.048841090673240356
1356,10.0,300.43984,-1680.9173,0.0,0.013560002300067042,0.0,0.0,0.0,0.0,0.1020928407932789,0.26473050600436676,0.14413353989737288,-0.0043581355000394855,0.006948456995659313,0.06197114010657535
1357,10.0,300.83302000000003,-1475.7979999999998,0.0,0.013569998287486174,0.0,0.0,0.0,0.0,0.08261622843108692,0.2510995969141008,0.11488990584625089,0.0036491256989156663,0.012670694527000186,0.05346313840890095
1358,10.0,300.75595,-1363.2752,0.0,0.013579994274905527,0.0,0.0,0.0,0.0,0.08639566751608851,0.2320487623764298,0.09595718891248722,-0.0012938829887713089,-0.0012476324786817388,0.051980444471320456
1359,10.0,300.25614,-1675.7112,0.0,0.013589990262324658,0.0,0.0,0.0,0.0,0.11553151607457289,0.26768468733342177,0.1261581588833409,-0.01110519475149739,-0.015091288220894184,0.05542360206013365
1360,10.0,299.73919,-1837.3234,0.0,0.013600019239801586,0.0,0.0,0.0,0.0,0.12404212790450488,0.2802404772725818,0.15421783045761486,-0.012692028507855687,-0.00048071865647823753,0.04892573252034386
1361,10.0,300.10362000000003,-1489.0275,0.0,0.01361001522722094,0.0,0.0,0.0,0.0,0.06680863014474843,0.25833258142794074,0.12748597247688587,0.005655485425352954,0.004094168346262956,0.059372534582112946
1362,10.0,299.51907,-1224.1726,0.0,0.013620011214640293,0.0,0.0,0.0,0.0,0.026447368763402077,0.24670576957796378,0.09896477358806272,0.004946704618751735,-0.008260638065336503,0.06229700741823595
1363,10.0,299.34426,-1245.2489,0.0,0.013630007202059424,0.0,0.0,0.0,0.0,0.03970215637679776,0.2416865541476058,0.0971358632370633,0.004695374922872426,-0.003651489408748947,0.07362655702012544
1364,10.0,300.01841,-1429.6131,0.0,0.013640003189479,0.0,0.0,0.0,0.0,0.08032795506775192,0.25064007786124975,0.1035986520318909,0.013727904482588687,0.009689934938547121,0.05702617361704515
1365,10.0,300.30357999999995,-1558.9749,0.0,0.013649999176898131,0.0,0.0,0.0,0.0,0.08940321166166001,0.2622232287644178,0.12226299245141789,-0.0029572016249530776,0.02404108824042068,0.07546147999721822
1366,10.0,299.99672000000004,-1422.0076,0.0,0.013659995164317484,0.0,0.0,0.0,0.0,0.06787578413681834,0.25593388406870776,0.10844512858520089,-0.006251927294692184,0.009695455125091922,0.07348329764148684
1367,10.0,299.96501,-1397.1554,0.0,0.013669991151736838,0.0,0.0,0.0,0.0,0.07203951858724693,0.25328278610956473,0.0993780479063497,-0.015684679903457385,-0.011276728874176488,0.08239108425886692
1368,10.0,299.91569,-1644.2321,0.0,0.013679987139155969,0.0,0.0,0.0,0.0,0.08225021311071402,0.2779313512221887,0.13962392847230887,-0.008975224693685712,0.004331217599207896,0.07295613705171013
1369,10.0,299.91456,-1756.5232,0.0,0.013690016116632897,0.0,0.0,0.0,0.0,0.12412447474013188,0.26825049632176273,0.14156423148630187,-0.009190170402324201,0.011527770705702387,0.051851345262829356
1370,10.0,299.81116000000003,-1622.7854,0.0,0.01370001210405225,0.0,0.0,0.0,0.0,0.09205841227045791,0.25873009970717276,0.14249772867093086,0.01107188618096009,-0.002093735727610628,0.035992712608704173
1371,10.0,300.90886,-1322.8548,0.0,0.013710008091471382,0.0,0.0,0.0,0.0,0.05738565144777285,0.23522889847778478,0.1095002765768359,0.007389394358901443,-0.003732344740228746,0.038736254440720666
1372,10.0,301.28983,-1359.5878,0.0,0.013720004078890735,0.0,0.0,0.0,0.0,0.059098882074605535,0.24129093064606078,0.11289093565146789,0.020532091686609678,-0.005123629029312815,0.04803509480169475
1373,10.0,300.00565,-1683.8506,0.0,0.013730000066310089,0.0,0.0,0.0,0.0,0.10939772553421488,0.26365700805342074,0.13879381319538286,0.01913191177092268,0.009227001638159161,0.04032983441624476
1374,10.0,300.28836,-1649.899,0.0,0.013739996053729442,0.0,0.0,0.0,0.0,0.0961547047942305,0.26146707061229074,0.14390631856244784,-0.0016514074759562286,-0.009269134806467383,0.06584933358607324
1375,10.0,299.93197999999995,-1484.1307,0.0,0.013749992041148795,0.0,0.0,0.0,0.0,0.1023927121603739,0.25087701626463377,0.0978689405651624,0.0009227409775299443,-0.00949179226029196,0.06549034414189374
1376,10.0,299.35003,-1457.13,0.0,0.013759988028567927,0.0,0.0,0.0,0.0,0.08541929667997823,0.2362291080489978,0.12128274390717488,-0.004173187263261516,0.005286284446665655,0.05131437539883455
1377,10.0,299.76251,-1480.7617,0.0,0.013770017006045077,0.0,0.0,0.0,0.0,0.07564941458601593,0.2628206815533818,0.11164449617345389,0.0015346317191563582,0.033350993292486766,0.06750110552809044
1378,10.0,299.70994,-1636.1514,0.0,0.013780012993464208,0.0,0.0,0.0,0.0,0.08601991587550473,0.26245046023184376,0.14887880289819386,-0.01921076188045458,-0.0071456958548252745,0.048553540427361354
1379,10.0,299.46365,-1561.911,0.0,0.01379000898088334,0.0,0.0,0.0,0.0,0.07586931721546863,0.2709990588080247,0.12791358428408786,-0.013248075844733288,-0.009292564391179701,0.08313716361224921
1380,10.0,300.51207,-1233.1547,0.0,0.013800004968302693,0.0,0.0,0.0,0.0,0.044095659472902754,0.24756062842233179,0.08319196423065763,0.01087401464843169,-0.014104674439522987,0.06274790573923615
1381,10.0,300.46057,-1262.4513,0.0,0.013810000955722046,0.0,0.0,0.0,0.0,0.07620506371560422,0.2355351431880088,0.07201348413917753,0.015726927366376882,0.003293566916924747,0.08076161901780123
1382,10.0,300.33204,-1500.0992,0.0,0.0138199969431414,0.0,0.0,0.0,0.0,0.07395048801084493,0.26612792987978173,0.11591426116734689,0.003035697096949977,-0.010996298736750188,0.05212788553312175
1383,10.0,300.1454,-1510.8537,0.0,0.013829992930560753,0.0,0.0,0.0,0.0,0.057540979648352544,0.2698178321064467,0.13190299310781187,-0.009153728051877622,0.0021536980446784483,0.06526197580785553
1384,10.0,300.30804,-1487.8561,0.0,0.013839988917979884,0.0,0.0,0.0,0.0,0.06316924552831914,0.2620703597218308,0.12703148927703187,0.007308487554316562,0.017686197408991782,0.058802594573114236
1385,10.0,300.41652999999997,-1528.305,0.0,0.013850017895457034,0.0,0.0,0.0,0.0,0.07620282949913372,0.27315267123306974,0.11521105546544588,0.010949156262597591,0.03650629564714086,0.06970877281947023
1386,10.0,299.98571,-1633.0046,0.0,0.013860013882876165,0.0,0.0,0.0,0.0,0.10937484634695689,0.2504804808379988,0.13653731535518387,0.007299001304230343,-0.010922640520730689,0.06200274033744404
1387,10.0,299.61664,-1705.4383,0.0,0.013870009870295297,0.0,0.0,0.0,0.0,0.1329027973789849,0.2665776305391638,0.11893024062000089,-0.017895394037887882,-0.019564325370348582,0.057647252358590854
1388,10.0,300.17867,-1617.7047,0.0,0.01388000585771465,0.0,0.0,0.0,0.0,0.1018427098735929,0.25880148317671775,0.13109764166332988,0.0013877735801375887,-0.007061318567322884,0.053002371031926745
1389,10.0,299.96471,-1447.1022,0.0,0.013890001845134003,0.0,0.0,0.0,0.0,0.08317228792696572,0.2294903768014368,0.12722026790316288,0.0041491672577159255,0.02244896734504058,0.03784663098542167
1390,10.0,300.00392,-1443.3249,0.0,0.013899997832553579,0.0,0.0,0.0,0.0,0.05768961431877165,0.26083582593249177,0.12020929661873388,0.0003985818473319656,0.0012429849031230587,0.04718550485784675
1391,10.0,300.13469,-1573.9921,0.0,0.01390999381997271,0.0,0.0,0.0,0.0,0.07228633111285543,0.2679078455354458,0.13826012423521186,-0.014290359613098685,0.007615626559078823,0.04433965414998316
1392,10.0,299.87706000000003,-1768.1742,0.0,0.013919989807391842,0.0,0.0,0.0,0.0,0.11474261981171488,0.28147812173972775,0.14126006393878288,0.005474757273916475,-0.0003992760351079766,0.055351850780802354
1393,10.0,299.8611,-1613.7882,0.0,0.01393001878486877,0.0,0.0,0.0,0.0,0.1042652996701839,0.27489903817792277,0.1113869786605389,0.012754256249497088,0.012487389477909387,0.06733192315889344
1394,10.0,300.56211,-1422.4908,0.0,0.013940014772288123,0.0,0.0,0.0,0.0,0.06893837039743743,0.25133021263686073,0.1121330955041749,0.02110392039379478,-0.024654906031749774,0.06367272443675864
1395,10.0,299.79887,-1521.045,0.0,0.013950010759707254,0.0,0.0,0.0,0.0,0.06478010547104864,0.26690710907418075,0.13067248192136988,-0.005368590448313624,-0.015958179410199683,0.06640746112540614
1396,10.0,300.27519,-1464.5093,0.0,0.013960006747126608,0.0,0.0,0.0,0.0,0.07342801268953064,0.24311072782566076,0.12863552498033787,0.00893344200858708,0.0033325343879455366,0.06084856538703584
1397,10.0,300.11433999999997,-1394.7224,0.0,0.013970002734545961,0.0,0.0,0.0,0.0,0.05662461348316424,0.25467779844974175,0.11265838462101689,-0.010775478102706888,0.009101763824474151,0.07938483099392282
1398,10.0,300.26759,-1340.4529,0.0,0.013979998721965314,0.0,0.0,0.0,0.0,0.08207561998598302,0.2388610758462528,0.08652752580460192,-0.0009695116091608461,-0.005687683879080694,0.07953742443248263
1399,10.0,300.62122999999997,-1321.014,0.0,0.013989994709384668,0.0,0.0,0.0,0.0,0.07306377764958343,0.23393417763250576,0.09455731803808072,-0.022291467749496578,-0.007130711811021463,0.07123523004211983
1400,10.0,300.46766,-1500.3031,0.0,0.013999990696803799,0.0,0.0,0.0,0.0,0.07724563103830022,0.26484136569780775,0.1139676962677359,-0.0050109181279391155,0.005399222012086724,0.07436484549348883
1401,10.0,300.24134,-1753.4987,0.0,0.014010019674280727,0.0,0.0,0.0,0.0,0.1076329174375419,0.27385198605458677,0.15153490631283087,-0.01065907491796879,0.01750197030230998,0.04696803402863405
1402,10.0,300.64271,-1631.182,0.0,0.01402001566170008,0.0,0.0,0.0,0.0,0.083736701669919,0.2617078492335537,0.15039405762773786,-0.0037302590662229066,0.005544134913563515,0.048422037789633054
1403,10.0,299.4486,-1505.0161,0.0,0.014030011649119212,0.0,0.0,0.0,0.0,0.07169207816770723,0.26579816763473674,0.1199970713852889,-0.0037699406759141765,0.00877165413596986,0.038944829947305463
1404,10.0,299.46153,-1483.0989,0.0,0.014040007636538565,0.0,0.0,0.0,0.0,0.0965755795015176,0.2350134308440198,0.1192360293676799,0.01183682414520359,-0.0007042620151302494,0.05559532363408125
1405,10.0,299.64381000000003,-1567.4737,0.0,0.014050003623957918,0.0,0.0,0.0,0.0,0.1072465753069129,0.2520906568369108,0.11713563283788689,0.016857421648697985,0.0066545667425796035,0.05193956185628565
1406,10.0,299.47015,-1514.2783,0.0,0.014059999611377272,0.0,0.0,0.0,0.0,0.06820091481565624,0.27186183113567375,0.12024003862676788,0.014573266133769384,-0.022381033992086078,0.08727759736337821
1407,10.0,300.24359,-1311.8770000000002,0.0,0.014069995598796625,0.0,0.0,0.0,0.0,0.08260878610910243,0.21591021127617882,0.10025885101952821,0.012337714199637589,-0.019848749739669082,0.057873986320217743
1408,10.0,300.40077,-1500.6960000000001,0.0,0.014079991586215757,0.0,0.0,0.0,0.0,0.06623194796958434,0.26974089602635376,0.1202012716779419,-0.003952149895021826,-0.008153884871900783,0.07125575342289533
1409,10.0,299.84481,-1641.7067,0.0,0.01408998757363511,0.0,0.0,0.0,0.0,0.1039692178584629,0.26002243941471676,0.1350461962430219,-0.006569895713873224,0.022461180048495878,0.05239921364489975
1410,10.0,300.46261,-1558.4799,0.0,0.014100016551111816,0.0,0.0,0.0,0.0,0.08706712809235652,0.26090387580920776,0.12576796640233187,-0.019746089266037284,0.004222947266397446,0.05997275759685034
1411,10.0,300.80318,-1594.2379,0.0,0.01411001253853117,0.0,0.0,0.0,0.0,0.07598849366573042,0.2799897789328397,0.1286302459473169,-0.006009676117058854,0.0064967888072331335,0.06345906545442215
1412,10.0,300.58115,-1585.0269,0.0,0.014120008525950745,0.0,0.0,0.0,0.0,0.07570942432318843,0.2702401446156258,0.13585902547324188,0.013068607973771186,0.008597203068902883,0.06173154192167884
1413,10.0,300.87009,-1504.8276,0.0,0.014130004513369876,0.0,0.0,0.0,0.0,0.07763159725314213,0.26856930533322676,0.11122911429495888,0.018721018590370682,0.009249295977459441,0.06887527936671083
1414,10.0,300.37323,-1524.0474,0.0,0.01414000050078923,0.0,0.0,0.0,0.0,0.05922973319251954,0.27640272159132473,0.12763988516707586,0.0029371512293242573,-0.009817147272702002,0.07166550467058463
1415,10.0,300.46079,-1463.5207,0.0,0.014149996488208583,0.0,0.0,0.0,0.0,0.07086177138651234,0.2587587544200008,0.1152532066696059,-0.003679529585391296,-0.011579869999344189,0.07702821391134283
1416,10.0,300.46255,-1371.5823,0.0,0.014159992475627714,0.0,0.0,0.0,0.0,0.07426117886250773,0.24426840659491478,0.09839718634579621,0.001176523397263819,0.001083811621063879,0.06753048370148984
1417,10.0,300.20622000000003,-1544.5203,0.0,0.014169988463047067,0.0,0.0,0.0,0.0,0.08755599390785382,0.2522267059278378,0.12971289354666588,0.012932549763593289,0.015203779246996186,0.07936368446433582
1418,10.0,300.20515,-1711.3655,0.0,0.014180017440523773,0.0,0.0,0.0,0.0,0.1089733966573369,0.2662151504483898,0.14502384223023884,0.009362018125909252,-0.008096672920904402,0.06297034554693924
1419,10.0,299.7299,-1673.0994,0.0,0.014190013427943349,0.0,0.0,0.0,0.0,0.1064150313473459,0.2622776301622868,0.13988778893084988,-0.007162644286597953,-0.01991739338094368,0.052043791854322355
1420,10.0,299.60025,-1585.4558,0.0,0.014200009415362702,0.0,0.0,0.0,0.0,0.08013925344862852,0.2553619955797668,0.14643771115477686,0.007119816940646223,-0.003937191587770557,0.03905256275093786
1421,10.0,299.41792000000004,-1642.234,0.0,0.014210005402781833,0.0,0.0,0.0,0.0,0.11238774551930689,0.26234090763103174,0.1244694762666809,0.0025565971885664973,0.018163001495298682,0.03515306366158726
1422,10.0,299.1925,-1743.3776,0.0,0.014220001390201187,0.0,0.0,0.0,0.0,0.09695487042470072,0.2895276845091577,0.14346069116846788,-0.0014127524242528086,0.013989594559415487,0.05475543454669066
1423,10.0,300.01014,-1679.4944,0.0,0.014229997377620318,0.0,0.0,0.0,0.0,0.08772714299549492,0.28698162005538075,0.13581559757395587,-0.01935810263049598,0.0019057915129369783,0.05285368671225275
1424,10.0,300.56808,-1576.6558,0.0,0.014239993365039672,0.0,0.0,0.0,0.0,0.08446806457884892,0.27080980395434673,0.12398614583647989,0.0049788915214283355,0.015502558330483383,0.07207360736036122
1425,10.0,299.83973,-1404.6977,0.0,0.014249989352459247,0.0,0.0,0.0,0.0,0.07764900387661003,0.23828890364728378,0.1110551291202879,0.0033592101220032266,0.008793901359140491,0.058696718043665046
1426,10.0,300.15095,-1394.4042,0.0,0.01426001832993573,0.0,0.0,0.0,0.0,0.04944033995463165,0.2662150085933757,0.1082086968068669,0.0032997871579636367,-0.013550370906067487,0.08737133515662943
1427,10.0,300.07705,-1612.819,0.0,0.014270014317355084,0.0,0.0,0.0,0.0,0.09253548385479121,0.2599731447973518,0.13774807829717686,-0.01172166725808849,-0.028199266027300874,0.06128396300800623
1428,10.0,299.97591,-1647.2929,0.0,0.01428001030477466,0.0,0.0,0.0,0.0,0.08532336418701042,0.2720170914484968,0.14339545812702986,0.006613126232039744,0.0038994727448479964,0.07607468071923643
1429,10.0,299.79708999999997,-1500.6364,0.0,0.014290006292193791,0.0,0.0,0.0,0.0,0.06182899732954694,0.26761570526661377,0.1267112921129309,0.016394276173739085,0.014070997045949288,0.08267109693725203
1430,10.0,299.48035,-1502.8931,0.0,0.014300002279613144,0.0,0.0,0.0,0.0,0.07792811881540652,0.2649241380984767,0.11398972432490989,0.018020602365994984,0.010904328051673387,0.06518397480190743
1431,10.0,299.64036,-1606.3851,0.0,0.014309998267032276,0.0,0.0,0.0,0.0,0.07573953507641014,0.28467850257808075,0.12788290307105987,-0.01563101817816138,-0.012876475489809186,0.06519413263415993
1432,10.0,299.96565,-1557.5718,0.0,0.014319994254451629,0.0,0.0,0.0,0.0,0.08918296756692361,0.25999311595682273,0.12428684806865689,-0.011762561018874388,-0.006969630984324023,0.056068638087043744
1433,10.0,300.03218,-1606.2504,0.0,0.014329990241871204,0.0,0.0,0.0,0.0,0.0891661263370115,0.27436456901517475,0.12472932425482589,-0.007936368547758591,-0.007501110856627004,0.06040150120441404
1434,10.0,300.25178,-1514.1878,0.0,0.014340019219347688,0.0,0.0,0.0,0.0,0.07199618593347033,0.2670733530180877,0.12120575716457688,-0.00987762442214563,0.0018419523996615482,0.06928971081661203
1435,10.0,300.41797,-1491.9087,0.0,0.014350015206767042,0.0,0.0,0.0,0.0,0.06186709553330694,0.2588790170743697,0.13275688936458488,-0.0033355764687207673,-0.005685182772533854,0.06191054471084504
1436,10.0,300.31084,-1567.8375,0.0,0.014360011194186395,0.0,0.0,0.0,0.0,0.0974646547885125,0.26142379470051974,0.11769500768809288,-0.0005077765276786415,0.018062832603662784,0.06416051215414954
1437,10.0,300.66377,-1728.2684,0.0,0.014370007181605748,0.0,0.0,0.0,0.0,0.1098465649310119,0.25989011908415777,0.15561376485538284,0.015318283601046884,0.013895739229152685,0.045721220661333155
1438,10.0,299.69399,-1671.8645,0.0,0.014380003169025102,0.0,0.0,0.0,0.0,0.1155022027491799,0.2536226808556098,0.1390801880711459,0.012945501126371488,0.004749761425964956,0.06399630889594393
1439,10.0,299.81613,-1533.8157,0.0,0.014389999156444233,0.0,0.0,0.0,0.0,0.08631892294026441,0.2608717557810377,0.11905098963441789,-0.003981080414527046,-0.018941861515916182,0.04201656956621256
1440,10.0,299.55048999999997,-1717.7553,0.0,0.014399995143863586,0.0,0.0,0.0,0.0,0.1017579616352289,0.27856963799018275,0.14182710909224586,-0.012190021851811488,-0.01200431438673359,0.05774543021378024
1441,10.0,299.68068,-1828.3804,0.0,0.014409991131283162,0.0,0.0,0.0,0.0,0.11340015462172388,0.27574815189422375,0.16663367029296283,0.01155149291704359,-0.004972563470578805,0.03738370741223467
1442,10.0,299.77506,-1643.8142,0.0,0.014419987118702293,0.0,0.0,0.0,0.0,0.08260039437177422,0.2958002295182097,0.1212778499091919,-0.00027103922404198873,0.002049601289029898,0.06985030156693803
1443,10.0,299.91696,-1503.9342,0.0,0.014430016096179,0.0,0.0,0.0,0.0,0.054388797090756356,0.26441840470856476,0.13835123568420388,0.013158214746364687,-0.01033764665499629,0.05649817101643535
1444,10.0,299.91602,-1446.6306,0.0,0.014440012083598353,0.0,0.0,0.0,0.0,0.06591036569259665,0.26640944115506476,0.1074197600140049,-0.0015373168319213584,0.001184714511072219,0.06889359183576814
1445,10.0,300.52502999999996,-1459.4496,0.0,0.014450008071017706,0.0,0.0,0.0,0.0,0.07055027398776993,0.2648356610997447,0.10825032112097491,0.01208126566557809,0.003176486374494797,0.08619517369230133
1446,10.0,299.91676,-1653.6261,0.0,0.01446000405843706,0.0,0.0,0.0,0.0,0.08903804037862041,0.28490079951751973,0.12872221865889388,-0.004223113236763826,0.003424580053529736,0.08597617082893741
1447,10.0,299.9945,-1470.0438,0.0,0.01447000004585619,0.0,0.0,0.0,0.0,0.06354865500176393,0.2694918594167757,0.11381610392027489,-0.01305441132662009,0.0006253952477667053,0.08151434225208921
1448,10.0,300.0979,-1289.0009,0.0,0.014479996033275544,0.0,0.0,0.0,0.0,0.05348548057360595,0.24187679185388078,0.09646180975378942,-0.029772365178553674,0.011374041413780489,0.06496670662271474
1449,10.0,299.50031,-1604.9621,0.0,0.014489992020694897,0.0,0.0,0.0,0.0,0.08412279960727392,0.27228907817283976,0.13145653484874986,-0.00957478838658304,0.014227520881646987,0.06761064900965152
1450,10.0,299.21621,-1852.5994,0.0,0.01449998800811425,0.0,0.0,0.0,0.0,0.15326806047637984,0.28057623795821873,0.12929965975838287,-0.01757431534619988,0.005826494177855204,0.050139687200151856
1451,10.0,299.09866,-1750.5574,0.0,0.014510016985590957,0.0,0.0,0.0,0.0,0.11418979055715489,0.27086687019997874,0.14706907742458786,0.006783167229371483,-0.025009332810728976,0.05948508235022054
1452,10.0,298.64488,-1539.1011,0.0,0.01452001297301031,0.0,0.0,0.0,0.0,0.07832899196571963,0.26497173045567374,0.12454757758438889,0.001018526802545769,-0.015699705389190285,0.06623660385379383
1453,10.0,299.49924,-1555.9425,0.0,0.014530008960429663,0.0,0.0,0.0,0.0,0.08052089713854382,0.2565578941427928,0.13588888595368886,0.024279856573485276,-0.003745786921355387,0.05167999656491855
1454,10.0,299.46321,-1708.5742,0.0,0.014540004947849017,0.0,0.0,0.0,0.0,0.1014343396857899,0.26954240033176374,0.14838716381717287,0.01877771195996588,0.015997203724551084,0.06086051565871524
1455,10.0,299.56559,-1599.4061,0.0,0.01455000093526837,0.0,0.0,0.0,0.0,0.09145580609148532,0.26797642230221375,0.12674729288898387,0.008334628931363832,0.00956921784150827,0.054384256717058245
1456,10.0,299.99725,-1459.4089,0.0,0.014559996922687501,0.0,0.0,0.0,0.0,0.09048979067139701,0.25052285495718074,0.1026112296769399,-0.005203060339102075,-0.0008734241294577501,0.05166209750190205
1457,10.0,300.29593,-1454.8953,0.0,0.014569992910106855,0.0,0.0,0.0,0.0,0.07212452317788623,0.24762715842389776,0.12250014363732287,0.00040298138939866664,-0.005986346742781424,0.05944015889378694
1458,10.0,300.46126,-1607.4394,0.0,0.014579988897526208,0.0,0.0,0.0,0.0,0.09341175875327282,0.28124369619659173,0.11396596361006489,-0.011590585119151689,-0.01183044978882449,0.08713942247374142
1459,10.0,300.53772000000004,-1785.1907,0.0,0.014590017875002914,0.0,0.0,0.0,0.0,0.10385812511749891,0.27149198471667274,0.16730327662154784,0.0009118737283524301,-0.025102125241636877,0.06145267928215724
1460,10.0,300.04966,-1810.7694,0.0,0.014600013862422268,0.0,0.0,0.0,0.0,0.09556916782644251,0.3073276212683747,0.14753188954026386,-0.0005735285659503624,0.01137362800773969,0.06630008701230913
1461,10.0,299.89149,-1531.7821,0.0,0.014610009849841399,0.0,0.0,0.0,0.0,0.07028228554832153,0.26373427850604675,0.13160694169359388,0.006423319258382253,0.016341282180258983,0.052560290013296755
1462,10.0,300.15821,-1473.326,0.0,0.014620005837260974,0.0,0.0,0.0,0.0,0.08123755474877242,0.2641858840756168,0.10243089142414191,-0.0015972702323882983,0.019329823833455082,0.06267596498213614
1463,10.0,299.94061,-1696.1248,0.0,0.014630001824680328,0.0,0.0,0.0,0.0,0.08620117517264361,0.2874228702089287,0.14195551827741887,-0.008665884707056232,-0.004750066819545095,0.06064941817263154
1464,10.0,299.57912000000005,-1626.2442,0.0,0.014639997812099459,0.0,0.0,0.0,0.0,0.08983453601722842,0.2714716082571617,0.13303148014168487,0.0006954690510274514,-0.016529471094831785,0.08196153815722401
1465,10.0,299.73397,-1498.9428,0.0,0.014649993799518812,0.0,0.0,0.0,0.0,0.052496176613219245,0.28410846833682274,0.11903653055549088,0.00989842948644893,-0.0026799141840369374,0.06929543669292713
1466,10.0,299.97556000000003,-1522.9409,0.0,0.014659989786937944,0.0,0.0,0.0,0.0,0.07923173295681323,0.2732578465934497,0.1104464191227129,0.013543520322141388,0.0018117955435602983,0.08600271798155742
1467,10.0,300.49986,-1640.5708,0.0,0.014670018764414872,0.0,0.0,0.0,0.0,0.09995834231812031,0.26686558608508276,0.13186862366441987,0.0006742001106958703,-7.756848697066362e-05,0.046457415759989955
1468,10.0,300.32209,-1698.3423,0.0,0.014680014751834225,0.0,0.0,0.0,0.0,0.1108342304659869,0.2774928267114097,0.12792660454787289,-0.025084071151355077,0.009559373914136752,0.05417342774225104
1469,10.0,300.29367,-1739.2415,0.0,0.014690010739253356,0.0,0.0,0.0,0.0,0.09181007277694872,0.2689366490244808,0.16793925317931382,-0.004768944580833185,0.003353912242530367,0.04496099633655486
1470,10.0,300.13484,-1622.6884,0.0,0.01470000672667271,0.0,0.0,0.0,0.0,0.0996046389997125,0.26277284601616074,0.13087927613427885,-0.005205139730957295,-0.01107752491776659,0.060331700431525234
1471,10.0,299.95698,-1638.7614,0.0,0.014710002714092285,0.0,0.0,0.0,0.0,0.08717499565825224,0.2743131972351047,0.13665434574173385,0.004807793197617245,-0.01066793477684319,0.05383265856136975
1472,10.0,300.04738,-1759.0782,0.0,0.014719998701511416,0.0,0.0,0.0,0.0,0.1135195864110109,0.27483131254123877,0.14636493953259486,0.013387584171501687,-0.02066347881382658,0.05241208496092004
1473,10.0,299.86933,-1757.9453,0.0,0.01472999468893077,0.0,0.0,0.0,0.0,0.11844243162435789,0.27841172296209776,0.13751733085190387,0.0017190881243357883,-0.004612116871430496,0.04981160897677305
1474,10.0,299.77296,-1589.4018,0.0,0.014739990676349901,0.0,0.0,0.0,0.0,0.08696530962955781,0.28359146760579873,0.1125816917209479,0.011259782266253989,0.005644289721023025,0.07443364416202873
1475,10.0,300.02072999999996,-1421.5959,0.0,0.014750019653826829,0.0,0.0,0.0,0.0,0.06968856861247623,0.24452598490283578,0.1179151160073159,0.014547969331772785,0.006775781041442524,0.07382279012724213
1476,10.0,299.56487000000004,-1554.2489,0.0,0.014760015641246182,0.0,0.0,0.0,0.0,0.08010483536923173,0.28154285828861675,0.11080517045311888,0.006656838955928853,0.01044406527324899,0.08602072647558473
1477,10.0,299.69061,-1655.9233,0.0,0.014770011628665314,0.0,0.0,0.0,0.0,0.07085998300008584,0.2902033602058417,0.14229598044351988,0.008145167374665432,0.002933918049580167,0.07981615940249163
1478,10.0,300.14799,-1634.5616,0.0,0.01478000761608489,0.0,0.0,0.0,0.0,0.07740901255067473,0.2917428316127757,0.12771406520689688,0.0054388358353463055,0.0013382605060510287,0.08044007119131692
1479,10.0,300.2737,-1583.7191,0.0,0.014790003603504243,0.0,0.0,0.0,0.0,0.08647112121128522,0.27335240309278175,0.12158752953725488,0.003051068810242047,0.008876023354570302,0.05658550000280404
1480,10.0,300.30183,-1541.9865,0.0,0.014799999590923374,0.0,0.0,0.0,0.0,0.07292334118572344,0.25815445206036075,0.13764758415225886,-0.02275216723871408,-0.0027885240569558976,0.05106914253013195
1481,10.0,300.35197,-1604.0701,0.0,0.014809995578342727,0.0,0.0,0.0,0.0,0.06947481134488004,0.28327525251459074,0.13484719392338188,-0.013987788947737287,0.0033499018999595767,0.06844499967199554
1482,10.0,300.42013,-1873.0493,0.0,0.014819991565761859,0.0,0.0,0.0,0.0,0.1060686619331619,0.2968265505444997,0.16646502494631885,-0.017189641025235482,-0.0006690961267621463,0.06883685996266914
1483,10.0,300.22711,-1785.908,0.0,0.014829987553181212,0.0,0.0,0.0,0.0,0.10198535522267091,0.2856339872898797,0.15525209536468887,0.022330910536139278,0.0016785102949310683,0.07047455279454684
1484,10.0,300.05192999999997,-1515.6492,0.0,0.01484001653065814,0.0,0.0,0.0,0.0,0.09355201181886472,0.26008660854354976,0.1070808987830619,0.015471122246130883,-0.01119991641059569,0.05719680290738495
1485,10.0,300.23634,-1508.8047,0.0,0.014850012518077493,0.0,0.0,0.0,0.0,0.08621692918519842,0.26692103113055476,0.1055009986971379,0.024013065795655077,0.01015251775572549,0.06738064123695153
1486,10.0,300.27556,-1668.184,0.0,0.014860008505496847,0.0,0.0,0.0,0.0,0.10702459247500491,0.27626422043515575,0.1237974584028579,0.0017783282980573382,-0.002363417713276168,0.056421426440611246
1487,10.0,299.89808,-1761.6003,0.0,0.014870004492915978,0.0,0.0,0.0,0.0,0.1020810060321109,0.28438664601927677,0.14901486212162185,0.002178921791342838,0.018331875836465283,0.06736841941424535
1488,10.0,300.03157999999996,-1666.4608,0.0,0.014880000480335331,0.0,0.0,0.0,0.0,0.09519269069878711,0.26054436454122676,0.15082540832780886,-0.012033226465086989,0.01105755679804589,0.03977162277715356
1489,10.0,299.4163,-1614.9082,0.0,0.014889996467754685,0.0,0.0,0.0,0.0,0.06716828124124323,0.28927437198415773,0.13444911835659487,-0.011788488062433189,0.011390430734147989,0.07340817629232294
1490,10.0,299.58198,-1680.6244,0.0,0.014899992455173816,0.0,0.0,0.0,0.0,0.09873129746027041,0.2730503532379717,0.13908619664423888,-0.007354217861804794,-0.004753949289953266,0.05489842541405274
1491,10.0,299.76627,-1789.5143,0.0,0.014909988442593392,0.0,0.0,0.0,0.0,0.11313591926064588,0.2863265741307327,0.14450516963654986,-0.008244718183740332,-0.016575887068662684,0.06632351132812093
1492,10.0,299.92756,-1763.5836,0.0,0.014920017420070097,0.0,0.0,0.0,0.0,0.11384700804832489,0.2871278016473077,0.13511054775687287,0.0033388198822908665,-0.0024040367819599577,0.06494904060722123
1493,10.0,300.39845,-1474.2127,0.0,0.01493001340748945,0.0,0.0,0.0,0.0,0.07017900800537884,0.2621810876927588,0.11576374286499189,0.007703704033296393,0.003433348415920106,0.07885630251651113
1494,10.0,301.08936,-1398.5244,0.0,0.014940009394908804,0.0,0.0,0.0,0.0,0.04106564042686316,0.2838446686732877,0.10020619241183121,0.017023685857606986,0.018677093185285584,0.0961771786814485
1495,10.0,300.61512,-1664.3249,0.0,0.014950005382327936,0.0,0.0,0.0,0.0,0.07663190646598032,0.28835143286557074,0.14092988626119687,0.012135231365904088,0.008235037896259961,0.08009978330423312
1496,10.0,300.11508,-1708.172,0.0,0.014960001369747289,0.0,0.0,0.0,0.0,0.11407200023302991,0.2759145376931447,0.12925511728398686,0.011037953448361188,0.006798794889638813,0.06985602845650324
1497,10.0,300.01256,-1461.4574,0.0,0.014969997357166642,0.0,0.0,0.0,0.0,0.06067988862963874,0.27883465355383774,0.1047320026662439,0.0074237277305898835,-0.013262071868364587,0.06675537371949243
1498,10.0,299.75672000000003,-1469.3905,0.0,0.014979993344585996,0.0,0.0,0.0,0.0,0.07122488577184893,0.26776619317146577,0.10766693224339889,-0.00985413617025252,-0.014529632544713086,0.06973435333149484
1499,10.0,300.05231000000003,-1710.0609,0.0,0.014989989332005349,0.0,0.0,0.0,0.0,0.08216771732732234,0.2923621098088937,0.14528600042861187,-0.011343029881219888,0.0036576566568076066,0.053741311025104446
1500,10.0,300.09493,-1906.3594,0.0,0.015000018309482055,0.0,0.0,0.0,0.0,0.1257058440387009,0.29334848851624173,0.16043132325083886,-0.024914824947401774,0.008029240316149322,0.05398404015280994
1501,10.0,300.24085,-1897.0541,0.0,0.015010014296901408,0.0,0.0,0.0,0.0,0.1168150405062469,0.28953826284020173,0.17030377361267382,-0.014136881607201586,0.006591880910567993,0.06011080785672485
1502,10.0,300.34002999999996,-1643.7192,0.0,0.015020010284320762,0.0,0.0,0.0,0.0,0.11948848063009487,0.26621189791556876,0.1139492247184129,-0.0026583720816108977,-0.0017026673932151884,0.058330387602511045
1503,10.0,300.46496,-1494.2965,0.0,0.015030006271739893,0.0,0.0,0.0,0.0,0.06979567421429672,0.26906709484235475,0.1153660422007419,0.0027147005798450878,-0.006368781882349833,0.06488972899936764
1504,10.0,300.50747,-1625.6602,0.0,0.015040002259159024,0.0,0.0,0.0,0.0,0.1188956989240919,0.25942760081101074,0.11583682859470489,0.01931365337510918,-0.01100595095720279,0.04723602652108286
1505,10.0,300.72773,-1858.9895,0.0,0.0150499982465786,0.0,0.0,0.0,0.0,0.11310560281765389,0.28761919754830473,0.16436158866622583,0.005026403021267355,-0.013063037124721386,0.07514053404129332
1506,10.0,300.47919,-1653.6948,0.0,0.015059994233997953,0.0,0.0,0.0,0.0,0.08581892555916852,0.27517870533802374,0.14168430162315188,0.020853331485063582,-0.007140706510007863,0.05722436533660515
1507,10.0,300.22365,-1430.5663,0.0,0.015069990221417306,0.0,0.0,0.0,0.0,0.04538195514360025,0.27963526298785174,0.10983919860278489,0.0024669562694446274,0.0029124157678830573,0.07952648538440302
1508,10.0,300.16033999999996,-1619.5304,0.0,0.015080019198894012,0.0,0.0,0.0,0.0,0.08806588263642592,0.27272004383787274,0.13151088558411386,0.014633778442991486,0.01627630447784618,0.05865930479697265
1509,10.0,299.72277,-1851.4096,0.0,0.015090015186313366,0.0,0.0,0.0,0.0,0.10724014116877789,0.30112365302609073,0.15441848437491784,-0.002824820600713088,-0.0043787377116727665,0.06579115175208114
1510,10.0,299.93517,-1812.2322,0.0,0.01510001117373272,0.0,0.0,0.0,0.0,0.10752608034699791,0.3132502200903897,0.13009703692457786,-0.007661837755064512,-0.003603247355587827,0.07733071364919722
1511,10.0,300.40002000000004,-1582.2477,0.0,0.01511000716115185,0.0,0.0,0.0,0.0,0.07017879015660734,0.28802222790808074,0.12276276793074188,-0.01194604743973309,0.006112084392740765,0.07888135208548332
1512,10.0,299.6948,-1472.506,0.0,0.015120003148570982,0.0,0.0,0.0,0.0,0.06543770985219914,0.27788813610542373,0.1042792115940569,-0.019414064433518983,0.012294647017387188,0.08380071982448713
1513,10.0,299.73195,-1543.3166,0.0,0.015129999135990557,0.0,0.0,0.0,0.0,0.07927804557913393,0.26933256636855474,0.1205190877043079,-0.004000196694888676,0.008682932538663722,0.09214201958920931
1514,10.0,299.88249,-1724.8821,0.0,0.01513999512340991,0.0,0.0,0.0,0.0,0.1050784328754339,0.28578353287213876,0.13345914261139188,-0.007337245618654763,0.011582742563377688,0.08671130201498922
1515,10.0,300.32385,-1648.5027,0.0,0.015149991110829264,0.0,0.0,0.0,0.0,0.07563457959130183,0.2930794604821907,0.13238962673333887,0.02883865622465377,-0.01020416919282309,0.07166143748468323
1516,10.0,300.50552000000005,-1489.4708,0.0,0.015159987098248395,0.0,0.0,0.0,0.0,0.07193326614201064,0.25636097911835876,0.12446766254900189,0.01366330370921309,-0.004238254030358106,0.047421870774924255
1517,10.0,301.13895,-1612.2527,0.0,0.015170016075725323,0.0,0.0,0.0,0.0,0.07540887306527634,0.27705952043864573,0.13761616326665788,0.0061202958728761745,-0.00995298996458363,0.06567217896508944
1518,10.0,300.10377,-1988.3182,0.0,0.015180012063144677,0.0,0.0,0.0,0.0,0.13265120737915487,0.3005750692894497,0.17117280782594083,-0.0005224687453211505,-0.022744068330664776,0.030914144027238473
1519,10.0,300.75436,-1938.9772,0.0,0.015190008050563808,0.0,0.0,0.0,0.0,0.12711351187262687,0.28589424057806473,0.17639287982362184,-0.0036317961837803764,0.0024808907887948575,0.06191254284004224
1520,10.0,299.66311,-1726.0723,0.0,0.01520000403798294,0.0,0.0,0.0,0.0,0.1023627098249129,0.28720657171008174,0.13511360777217488,-0.000966197642986283,0.007385455450462702,0.04341574332455026
1521,10.0,300.03642,-1612.2579,0.0,0.015210000025402515,0.0,0.0,0.0,0.0,0.08954412131331672,0.27123719284652675,0.1293048172013919,-0.003506321269571966,0.0016317334014145483,0.07347278415844923
1522,10.0,299.91507,-1717.683,0.0,0.015219996012821868,0.0,0.0,0.0,0.0,0.1084519376258729,0.27664279093751776,0.1370380230245999,-0.018638796384505982,-0.0038593950556926365,0.05078256703084916
1523,10.0,300.00397000000004,-1763.3917,0.0,0.015229992000241221,0.0,0.0,0.0,0.0,0.10321181340871291,0.2966111031757367,0.13620411819229988,0.0064252983384775735,-0.007560238559587452,0.09045918038587601
1524,10.0,299.88532000000004,-1610.2822,0.0,0.015239987987660353,0.0,0.0,0.0,0.0,0.09468674655285432,0.2612321891066098,0.13356663831450089,0.01027424759623929,0.0002500571753437218,0.05918362423346894
1525,10.0,300.2673,-1352.5257,0.0,0.015250016965137059,0.0,0.0,0.0,0.0,0.03839371308541446,0.27313503054882876,0.09960530774477849,0.019092373738770582,0.016433403839600683,0.09699794469970181
1526,10.0,299.13024,-1514.4919,0.0,0.015260012952556634,0.0,0.0,0.0,0.0,0.05868983098273535,0.2829413156791337,0.11873657812838789,0.012430432663288188,-0.00021310279922410883,0.08004356008268432
1527,10.0,299.85554,-1874.2204,0.0,0.015270008939975765,0.0,0.0,0.0,0.0,0.1016249421621009,0.3012103365721457,0.16688093371486584,0.013430956342032185,0.00903704014386142,0.06615267026851024
1528,10.0,299.30942999999996,-1974.2736,0.0,0.015280004927395119,0.0,0.0,0.0,0.0,0.1136610361249709,0.3308578014506227,0.15561105947761586,0.002402585098541688,0.0036447971958134765,0.06691587658833284
1529,10.0,298.9806,-1626.5044,0.0,0.015290000914814472,0.0,0.0,0.0,0.0,0.06310586977431444,0.2904532378130027,0.14085762126406487,0.00042870563094995166,-0.012328324410960887,0.07005162017630663
1530,10.0,299.32379,-1474.9552,0.0,0.015299996902233604,0.0,0.0,0.0,0.0,0.07652772915694883,0.2671151597172137,0.10470665114874189,-0.012259723326190488,-0.010208751109775292,0.07068389634470743
1531,10.0,299.79112000000003,-1749.8349,0.0,0.015309992889653179,0.0,0.0,0.0,0.0,0.10210483767446289,0.2904124342314757,0.13938883418410686,-0.016599056045449284,-0.01112896661209349,0.06192198937072453
1532,10.0,299.86432,-1922.6375,0.0,0.01531998887707231,0.0,0.0,0.0,0.0,0.13251191588790787,0.2824181239899987,0.16950375186371783,0.0038137524956630663,0.0073766777661714135,0.05849482796124004
1533,10.0,300.43973,-1747.7007,0.0,0.015330017854549016,0.0,0.0,0.0,0.0,0.10367934726985491,0.3004203763966827,0.12715765917948388,-0.016083071604275585,0.0075483550610896425,0.07760655680342082
1534,10.0,300.03627,-1561.1502,0.0,0.01534001384196837,0.0,0.0,0.0,0.0,0.08173018782814152,0.26349996442042173,0.12932054284294386,-0.009244242899210742,0.010610097447885089,0.05408524053304765
1535,10.0,299.7446,-1673.7048,0.0,0.015350009829387723,0.0,0.0,0.0,0.0,0.09316420351534101,0.27062771277887576,0.14497253124517487,-0.021464367904868182,0.0007063520765090224,0.05947275109650354
1536,10.0,299.65842000000004,-2005.2673,0.0,0.015360005816807076,0.0,0.0,0.0,0.0,0.14110473269845286,0.3153532916004467,0.15309317350911986,0.004227275060224566,-0.002334829165679698,0.05259404238737786
1537,10.0,299.81352000000004,-2046.8083,0.0,0.01537000180422643,0.0,0.0,0.0,0.0,0.12988482182363387,0.3050191436980457,0.18727465900756982,0.006857814478813593,-0.018473538332946283,0.06141222121891435
1538,10.0,300.06757999999996,-1666.6826,0.0,0.015379997791645561,0.0,0.0,0.0,0.0,0.09010766062143372,0.2933360762025167,0.12318615448502689,0.016472570008966087,-0.02055075777995188,0.06925560785799634
1539,10.0,299.79537,-1464.6579,0.0,0.015389993779065136,0.0,0.0,0.0,0.0,0.059364282673298546,0.26337157550025075,0.12248356686568689,0.0017879492090818482,-0.004239829938238637,0.06394010999239753
1540,10.0,300.11868,-1689.3336,0.0,0.015399989766484268,0.0,0.0,0.0,0.0,0.099633623018823,0.2800366113524617,0.13384500851447387,0.00098951969146549,0.013252372025157288,0.061005460072270146
1541,10.0,300.69583,-1876.3647,0.0,0.015410018743960974,0.0,0.0,0.0,0.0,0.0958005596987791,0.3180438353859827,0.15652360265017687,0.008463485973081032,0.02626745810214627,0.07947081134440842
1542,10.0,300.53524,-1521.7358,0.0,0.015420014731380327,0.0,0.0,0.0,0.0,0.0897279086694551,0.26403195112042477,0.1088098276936939,-0.0024472756087772973,0.008480761481985993,0.08398260632343792
1543,10.0,300.555,-1403.2691,0.0,0.01543001071879968,0.0,0.0,0.0,0.0,0.04533645210810946,0.27369869144695774,0.1075236384142569,-0.008452502341997034,-0.003206519715408857,0.08264332983151162
1544,10.0,300.28416,-1690.9437,0.0,0.015440006706219034,0.0,0.0,0.0,0.0,0.09295069348076922,0.2974874631872267,0.12356649817506388,-0.008839455361111321,-0.01048858646939289,0.08912655182785581
1545,10.0,299.4455,-1896.1445,0.0,0.015450002693638387,0.0,0.0,0.0,0.0,0.1100472087158139,0.3048610260199407,0.16147235666858084,-0.000979330367399882,-0.004205559286731386,0.07153689587514193
1546,10.0,299.53098,-1781.8958,0.0,0.015459998681057519,0.0,0.0,0.0,0.0,0.09463355294910451,0.3076356695637767,0.13938261282849287,-0.006582182789885864,0.009196179583367261,0.08342660762256512
1547,10.0,299.70295,-1574.3991,0.0,0.015469994668476872,0.0,0.0,0.0,0.0,0.0971945587888561,0.25818900388877075,0.12319445300334587,-0.0013834407200599686,0.001061834733019929,0.04091135790038666
1548,10.0,300.35059,-1489.9345,0.0,0.015479990655896225,0.0,0.0,0.0,0.0,0.07724970126395193,0.2648954631206467,0.11075770981843489,0.011911772228600388,0.002966777446348137,0.05397528668519605
1549,10.0,300.11408,-1780.477,0.0,0.015490019633372931,0.0,0.0,0.0,0.0,0.0971410237198226,0.3066235644363897,0.1374559582933469,0.008297770540426191,-0.00966910778539164,0.062460546997626036
1550,10.0,300.16274,-1968.5765,0.0,0.015500015620792285,0.0,0.0,0.0,0.0,0.11646052456125888,0.2961569847459187,0.18578059133761682,0.017243724262573083,-0.01941792491639998,0.05193453208278925
1551,10.0,300.15047000000004,-1711.7112,0.0,0.015510011608211638,0.0,0.0,0.0,0.0,0.09188855912969472,0.2885699402496357,0.13985895183300387,-0.014753922547098786,-0.010783388546237591,0.05615909396322104
1552,10.0,300.04119,-1501.4118,0.0,0.015520007595630991,0.0,0.0,0.0,0.0,0.07748329796850613,0.2626998008164517,0.11620860018889588,-0.02301141234304958,0.009062321949756542,0.05733406283218145
1553,10.0,300.41562000000005,-1795.8384,0.0,0.015530003583050345,0.0,0.0,0.0,0.0,0.12213720758400388,0.28133380452798473,0.14241901940316287,-0.023513592264860876,0.015568439851985385,0.07033259037603623
1554,10.0,300.82975,-2081.7624,0.0,0.015539999570469476,0.0,0.0,0.0,0.0,0.1278263535829789,0.33874352167888266,0.16623392286351085,-0.02293538413504618,0.01234592659169809,0.07102742359236093
1555,10.0,299.88396,-1859.1681,0.0,0.01554999555788883,0.0,0.0,0.0,0.0,0.1028910386920549,0.29637898784282873,0.16587065243765886,0.005578665261071395,-0.003673352002181616,0.07020578921877194
1556,10.0,300.34595,-1558.0261,0.0,0.015559991545308183,0.0,0.0,0.0,0.0,0.07196527268616942,0.28446450415696073,0.1171712384464009,0.01170221082966829,-0.02088106920655108,0.06636787344399914
1557,10.0,300.93752,-1468.5223,0.0,0.015569987532727536,0.0,0.0,0.0,0.0,0.05047155396565455,0.2814764600095637,0.1144461124349519,0.02533145211026968,-0.00027678838484438675,0.08737246695699111
1558,10.0,299.71528,-1678.5814,0.0,0.015580016510204242,0.0,0.0,0.0,0.0,0.08821548090769012,0.28291097897113976,0.13912037357011187,-0.0016349476333817681,-0.012825877832815588,0.056465909133251356
1559,10.0,299.80682,-1787.3385,0.0,0.015590012497623595,0.0,0.0,0.0,0.0,0.1090376164486749,0.3078009002575837,0.12646775745139588,0.0015081242859402786,0.012489368355354687,0.06651365986838713
1560,10.0,299.80338,-1656.8458,0.0,0.015600008485042949,0.0,0.0,0.0,0.0,0.089926423615797,0.2779060908971957,0.13580724839313188,-0.008594148525151422,0.014704648194735787,0.06778084665544874
1561,10.0,299.97309,-1490.8368,0.0,0.015610004472462302,0.0,0.0,0.0,0.0,0.058767122713613444,0.2871670042936767,0.10724301879906188,0.009471790399342931,0.007409389431074803,0.09341630317997131
1562,10.0,299.90001,-1643.7034,0.0,0.015620000459881433,0.0,0.0,0.0,0.0,0.06247779150107794,0.29907866101176567,0.13808834794575886,0.004197307073941956,-0.005843271370360985,0.08549840820803592
1563,10.0,300.13535,-1989.1274,0.0,0.015629996447300787,0.0,0.0,0.0,0.0,0.11617913487598788,0.3010585415746647,0.18740737450566783,0.009272346809284382,-0.016700165233177983,0.07105018726910753
1564,10.0,299.63454,-1978.0121,0.0,0.01563999243472014,0.0,0.0,0.0,0.0,0.1319393687864019,0.3105703356959057,0.15875658295555484,0.008942975881428,-0.005999211371351064,0.06740387202199423
1565,10.0,299.8072,-1561.3462,0.0,0.015649988422139494,0.0,0.0,0.0,0.0,0.09541742045171621,0.2635341717437978,0.11565866882962188,-0.014187940292990685,0.00945024799294186,0.07146893617768484
1566,10.0,300.25678,-1576.5568,0.0,0.01566001739961642,0.0,0.0,0.0,0.0,0.07849140582424863,0.27198748428057473,0.12875500743212986,-0.009303079900717501,0.01096449382936129,0.06774188110960314
1567,10.0,300.4647,-1871.6807,0.0,0.015670013387035553,0.0,0.0,0.0,0.0,0.11171619375052991,0.2928261783546937,0.16440183496019783,-0.01756280381181378,0.0020300212440974978,0.04822020242271345
1568,10.0,300.27162000000004,-2014.7118,0.0,0.015680009374454684,0.0,0.0,0.0,0.0,0.12796079160624688,0.2986082191228367,0.18585307924977082,0.005546685568040245,0.002268437168777318,0.04692913029104455
1569,10.0,300.68192999999997,-1785.4652,0.0,0.01569000536187426,0.0,0.0,0.0,0.0,0.09013925781255211,0.28661533014423074,0.16598225180367282,0.002631317290690797,-0.007320648885991794,0.05607514213943565
1570,10.0,300.25943,-1512.5216,0.0,0.01570000134929339,0.0,0.0,0.0,0.0,0.07779951407296422,0.26400760272052176,0.11796169511441289,0.004784251040818815,-0.017918255999894182,0.05521314393486304
1571,10.0,299.86498,-1642.9639,0.0,0.015709997336712744,0.0,0.0,0.0,0.0,0.07733109361798472,0.28415337558125475,0.13793552956567687,0.0038843266823531965,-0.006292346449131244,0.060225172382261744
1572,10.0,300.11015,-2017.0721,0.0,0.015719993324132098,0.0,0.0,0.0,0.0,0.1295527392358599,0.32152058018911067,0.16206622255219086,0.009527724034013151,0.011059971373034189,0.07725380897985733
1573,10.0,299.50278,-2010.8994,0.0,0.01572998931155145,0.0,0.0,0.0,0.0,0.11974314077772788,0.3184761689386507,0.17304389572560286,0.00962952922323554,0.027692861865822677,0.0894554609163166
1574,10.0,299.50337,-1487.1086,0.0,0.01574001828902838,0.0,0.0,0.0,0.0,0.05731017140807354,0.28502992811026373,0.1097037979919219,-0.007950988834776502,0.003949756091660576,0.08841301705443541
1575,10.0,299.96114,-1431.8919,0.0,0.01575001427644751,0.0,0.0,0.0,0.0,0.04785534727370505,0.28182071173103873,0.10558333540026389,-0.003821613289938866,-5.754784239127984e-05,0.08204452232716393
1576,10.0,299.87955,-1906.9234,0.0,0.01576001026386664,0.0,0.0,0.0,0.0,0.12759602157024688,0.3002326515506557,0.15182841446929785,-0.007239659298873743,0.0035527738217314762,0.06557748162399353
1577,10.0,299.58324,-2067.903,0.0,0.015770006251286217,0.0,0.0,0.0,0.0,0.1381487275192179,0.33518968880814665,0.15525246013472485,-0.005136973735779836,-0.002394704444563928,0.07477736392720123
1578,10.0,299.94888,-1618.8923,0.0,0.01578000223870535,0.0,0.0,0.0,0.0,0.08446835943462802,0.2865852062187577,0.12104927081913287,-0.005517750488909574,0.0004494041722702386,0.07775945523026072
1579,10.0,299.85107999999997,-1400.5404,0.0,0.015789998226124924,0.0,0.0,0.0,0.0,0.05191632904474275,0.27074865431081174,0.10306431459165591,0.003102706669788307,-0.0006243734762333644,0.06662526126090135
1580,10.0,300.63923,-1626.682,0.0,0.015799994213544055,0.0,0.0,0.0,0.0,0.07153012432472362,0.2917230023083187,0.13121759021016788,0.023526027883338182,0.014474944397065787,0.07180302702715703
1581,10.0,300.14346,-2017.9003,0.0,0.015809990200963187,0.0,0.0,0.0,0.0,0.13047444218932486,0.3055963213525087,0.17732053055517383,0.014601534798309286,0.00048321415975202453,0.05797215201640594
1582,10.0,299.84963999999997,-2008.7679,0.0,0.015820019178440337,0.0,0.0,0.0,0.0,0.13440707860994588,0.3194357877108577,0.15677240621223185,-0.005062334389688505,-0.003336189586356277,0.06401268605731024
1583,10.0,300.2368,-1598.8199,0.0,0.015830015165859468,0.0,0.0,0.0,0.0,0.07964944328403802,0.2757638066082687,0.13058806805553888,-0.012258311868801188,-0.019510110410497983,0.052102215855088355
1584,10.0,300.38982999999996,-1526.095,0.0,0.0158400111532786,0.0,0.0,0.0,0.0,0.08093284004619943,0.27260885990439976,0.11035305825849889,-0.00931972871443561,0.0014497572298298987,0.06922778502350044
1585,10.0,299.90256,-1913.3595,0.0,0.015850007140697953,0.0,0.0,0.0,0.0,0.11752672711148489,0.3121649177757787,0.15192186652602085,-0.008517147090426972,0.010936990168646889,0.06936447448849063
1586,10.0,300.05719,-2044.4434,0.0,0.015860003128117528,0.0,0.0,0.0,0.0,0.13085978120235486,0.3106159015529027,0.17998405096054282,-0.009181509748419461,0.005538903401972204,0.06070601123046685
1587,10.0,299.62637,-1692.4933,0.0,0.01586999911553688,0.0,0.0,0.0,0.0,0.09336544106470161,0.2981578193208857,0.1229524483494619,0.00994182506305674,0.0024566966055570775,0.06134153385218803
1588,10.0,299.55343,-1508.2344,0.0,0.015879995102956013,0.0,0.0,0.0,0.0,0.07343137465336243,0.28321086047073574,0.1018233567966829,0.003239465947710397,0.0022441417618545476,0.05532372701102674
1589,10.0,299.76615,-1774.5887,0.0,0.015889991090375144,0.0,0.0,0.0,0.0,0.0985216104183259,0.29943181920161976,0.14147724396521685,0.005485914170767574,0.009316706493362342,0.07323089805482694
1590,10.0,299.95309,-1983.7153,0.0,0.015900020067852294,0.0,0.0,0.0,0.0,0.1177856327770369,0.3303379129568137,0.15487635183010587,-0.013755903622601987,-0.012928584915951988,0.06650427818571124
1591,10.0,299.76977,-1942.816,0.0,0.015910016055271425,0.0,0.0,0.0,0.0,0.09728604007413459,0.32269673050768766,0.17058477826290683,-0.0017742973865095182,0.0015802651599350285,0.0878880998003801
1592,10.0,300.17277,-1688.5384,0.0,0.015920012042690557,0.0,0.0,0.0,0.0,0.06956332786036594,0.30508323176687074,0.13862696130141586,0.0005740811722899004,0.02085130599811368,0.06990087490592924
1593,10.0,300.54762999999997,-1544.2573,0.0,0.01593000803010991,0.0,0.0,0.0,0.0,0.06598899795335704,0.2917709999655557,0.1116556520570549,-0.0001047715802151499,0.012218680617639888,0.08165086554406302
1594,10.0,299.79793,-1839.1953,0.0,0.015940004017529263,0.0,0.0,0.0,0.0,0.10779698289373389,0.2958351055866517,0.15543736814547385,-0.011817880421333988,-0.004726805940974426,0.05997505463482704
1595,10.0,300.01144,-1897.0686,0.0,0.01595000000494884,0.0,0.0,0.0,0.0,0.1122177018875249,0.31062742220653977,0.15381637063549386,0.005501690677474595,-0.016570181457349585,0.05652246064783255
1596,10.0,299.97527,-1613.7789,0.0,0.01595999599236797,0.0,0.0,0.0,0.0,0.08276246980476983,0.27757088749911374,0.13021515148873486,0.020442761531293478,-0.013333785657442188,0.06669374278215993
1597,10.0,299.98604,-1518.2194,0.0,0.0159699919797871,0.0,0.0,0.0,0.0,0.06054549214962485,0.2872037852723067,0.11375149909389888,0.015106708874166087,-0.010179427651881292,0.08080239929457592
1598,10.0,299.84882000000005,-1781.3778,0.0,0.015979987967206455,0.0,0.0,0.0,0.0,0.08702842903128723,0.31739561876700867,0.13707032543778788,0.002442821969287758,0.004818670336115735,0.08643217289069131
1599,10.0,300.49241,-2042.1805,0.0,0.015990016944683383,0.0,0.0,0.0,0.0,0.14905194707528185,0.2997590787189177,0.17196085295871483,0.0008999893179295302,0.0065325191468344436,0.05751801838783644
1600,10.0,299.78681,-1974.9118,0.0,0.016000012932102514,0.0,0.0,0.0,0.0,0.11612050822520188,0.32118386704837965,0.16301947811376985,-0.0045314857721978265,0.020897617607184282,0.07032992248852293
1601,10.0,299.80529,-1583.4104,0.0,0.016010008919521868,0.0,0.0,0.0,0.0,0.08129781374546952,0.28465552206581274,0.11536387384552789,-0.003699181672405806,0.004831072112039696,0.06911218433284154
1602,10.0,299.98337999999995,-1605.0555,0.0,0.01602000490694122,0.0,0.0,0.0,0.0,0.08076443382657902,0.2649789245313837,0.14215343641945188,0.0017907756702357982,-0.018318306391126082,0.05437091829274185
1603,10.0,300.1309,-1888.7286,0.0,0.016030000894360574,0.0,0.0,0.0,0.0,0.10560595114249591,0.31137322494264474,0.15714715676171687,0.007404069057449723,-0.022047749689693478,0.06305108739440785
1604,10.0,300.23335,-2006.0774,0.0,0.016039996881779928,0.0,0.0,0.0,0.0,0.11780726566667189,0.30624399081642867,0.18574618136422083,0.019248659460694782,-0.0070591442339332944,0.053031028784505045
1605,10.0,299.91506,-1898.2358,0.0,0.01604999286919906,0.0,0.0,0.0,0.0,0.1148127873811399,0.3121886075631167,0.15001487917531586,0.009086833685575663,0.014412208003874185,0.06452356574448015
1606,10.0,299.84934,-1613.26,0.0,0.016059988856618412,0.0,0.0,0.0,0.0,0.09030608640176682,0.2860537058788027,0.1140309737364809,-0.0021036623361903083,0.014660764332904787,0.062426583867524144
1607,10.0,299.70856000000003,-1601.4944,0.0,0.01607001783409534,0.0,0.0,0.0,0.0,0.08453871242882131,0.27265153799861175,0.12962406191039888,-0.010559918263182791,0.006937757277253332,0.06980404467337283
1608,10.0,299.55998999999997,-1837.7243,0.0,0.01608001382151447,0.0,0.0,0.0,0.0,0.1033600215008399,0.30437946877741473,0.15088279881347286,-0.016435874143344485,0.005869074898732595,0.07433666599495772
1609,10.0,300.06608,-1881.558,0.0,0.016090009808934047,0.0,0.0,0.0,0.0,0.08630648529528691,0.3209408694093977,0.16469930492455584,0.0013280356979669188,-0.001068149307643129,0.09167664901703082
1610,10.0,300.48102,-1598.3551,0.0,0.01610000579635318,0.0,0.0,0.0,0.0,0.07366310292473223,0.28815160981334975,0.12404530950981889,0.0025450785614296975,-0.007355005562432533,0.08600351946238652
1611,10.0,300.22701,-1506.2809,0.0,0.016110001783772532,0.0,0.0,0.0,0.0,0.06896152012247213,0.2829360467786137,0.1059742168913409,0.006296243915640895,0.0028924798695155367,0.07772853489020913
1612,10.0,300.29113,-1794.4778,0.0,0.016119997771191885,0.0,0.0,0.0,0.0,0.1109776560176419,0.2952742919213037,0.13922448501788687,0.021756477776197183,0.008026422771596252,0.07228822082429194
1613,10.0,300.29964,-1977.1013,0.0,0.016129993758611016,0.0,0.0,0.0,0.0,0.1326456851661099,0.3135475785972367,0.15479614295218985,0.008285723604687252,0.012799155387928288,0.06254677964738653
1614,10.0,300.26445,-1906.6731,0.0,0.01613998974603037,0.0,0.0,0.0,0.0,0.1019866217852959,0.3250987918572527,0.15249558899764287,0.007407065643295463,-0.004588967653020845,0.07214262387767263
1615,10.0,301.02355,-1720.3211,0.0,0.016150018723507298,0.0,0.0,0.0,0.0,0.08891455457568333,0.2824852720741257,0.15153483538532386,-0.002812994148195907,-0.02135155973148488,0.04626223035347666
1616,10.0,300.30767000000003,-1761.2177,0.0,0.01616001471092665,0.0,0.0,0.0,0.0,0.09507496826241882,0.3107449389531377,0.12954629496522388,-0.0030692886682402074,-0.016855761945034183,0.06954205568776653
1617,10.0,299.61042000000003,-1917.5964,0.0,0.016170010698346005,0.0,0.0,0.0,0.0,0.12379876549548689,0.3119598055580357,0.14714284203186787,-0.004982017195336815,-0.00034579652257745965,0.05288679972552075
1618,10.0,299.90219,-1897.6945,0.0,0.016180006685765136,0.0,0.0,0.0,0.0,0.13318380202921787,0.2908716999718017,0.15279624056731486,0.004862213948563155,0.013271618710806787,0.06805510609976603
1619,10.0,299.77069,-1719.5174,0.0,0.01619000267318449,0.0,0.0,0.0,0.0,0.09820925378349872,0.2996092798241337,0.12487180748388788,-0.01718180758871238,0.008582489461550762,0.06898295441508753
1620,10.0,299.7857,-1563.7054,0.0,0.016199998660603843,0.0,0.0,0.0,0.0,0.061139885936536936,0.28519275740133376,0.12899476267079188,0.004931095703611255,0.0026418334081786577,0.07612514868021723
1621,10.0,299.45664,-1838.6734,0.0,0.016209994648022974,0.0,0.0,0.0,0.0,0.09399450827003572,0.31089569030301567,0.15402060132564985,0.005731523056582285,0.0018092220909563183,0.07407334357221984
1622,10.0,299.60097,-2125.9605,0.0,0.01621999063544255,0.0,0.0,0.0,0.0,0.12506934059088287,0.3411560701669827,0.18001349600844882,0.01221820135034259,-0.0006076018768681364,0.06871976371486263
1623,10.0,300.27782,-1838.3399,0.0,0.016230019612919033,0.0,0.0,0.0,0.0,0.1084351278067139,0.2983183586667297,0.15205593977925286,0.004663955557146576,-0.01044106199995259,0.06085616273628564
1624,10.0,300.71636,-1533.1007,0.0,0.01624001560033861,0.0,0.0,0.0,0.0,0.07469776907884583,0.2879370237071717,0.1033895273437519,0.0003016531572633487,-0.0036546705074378964,0.06717055396121753
1625,10.0,300.21313,-1749.275,0.0,0.016250011587757962,0.0,0.0,0.0,0.0,0.09670268362056181,0.3060787803876237,0.12895446571431488,-0.00843906705097107,0.014501314230918286,0.06608453325228564
1626,10.0,300.27539,-1883.2642,0.0,0.016260007575177093,0.0,0.0,0.0,0.0,0.09540971569795581,0.3143134132878187,0.16274218195890286,-0.016773998741464784,0.0013168391830369088,0.07459188039039542
1627,10.0,299.86535,-1867.2577,0.0,0.016270003562596447,0.0,0.0,0.0,0.0,0.1060087585872499,0.3234298676175427,0.13816109930293885,0.0012917586086116488,-0.0026922398648783876,0.07345842133828173
1628,10.0,300.33158,-1767.0447,0.0,0.016279999550015578,0.0,0.0,0.0,0.0,0.08548665146712561,0.29378432791425574,0.15786649340520983,0.008020792444765583,-0.011252270030012591,0.07466600774121122
1629,10.0,300.25989,-1637.4418,0.0,0.016289995537435153,0.0,0.0,0.0,0.0,0.09348364378161732,0.29562737918365073,0.1086304013659859,0.02009916335613298,-0.0008551373564229861,0.08757336912056861
1630,10.0,299.88009,-1802.5282,0.0,0.016299991524854507,0.0,0.0,0.0,0.0,0.08879619784475241,0.3149236532930447,0.14420370746679786,0.013363870066161288,0.0001781923106762118,0.08088564184329132
1631,10.0,299.2376,-1954.7897,0.0,0.016309987512273638,0.0,0.0,0.0,0.0,0.1175148011578079,0.3114266232229147,0.16526582318796684,0.002235778294204138,0.008016245586266842,0.06657262899770694
1632,10.0,299.03659,-1829.9187,0.0,0.016320016489750344,0.0,0.0,0.0,0.0,0.07849609717221163,0.3208892949793077,0.15686419653879086,-0.012231659338170789,0.021611942715682682,0.08456195638611533
1633,10.0,300.09548,-1631.0635,0.0,0.01633001247716992,0.0,0.0,0.0,0.0,0.09111648585824701,0.2712676714095347,0.13341840995737186,-0.01054200197491459,0.018991094325025083,0.05293825560534904
1634,10.0,300.58775,-1797.8563,0.0,0.01634000846458905,0.0,0.0,0.0,0.0,0.1023900270476089,0.3026822343299107,0.14143117148316986,-0.012133649682497989,0.0014032130798613486,0.06708971990798984
1635,10.0,300.52812,-2025.5081,0.0,0.016350004452008404,0.0,0.0,0.0,0.0,0.13811594887848289,0.3142729744763277,0.16331495197543086,-0.007278300503362332,-0.014741083655081685,0.038652897394743965
1636,10.0,300.33729,-1918.7001,0.0,0.016360000439427536,0.0,0.0,0.0,0.0,0.11997384769299689,0.30034435224167966,0.16291873065632687,0.011488453562072091,-0.01972467017217338,0.06348542312927344
1637,10.0,300.36473,-1859.8306,0.0,0.01636999642684689,0.0,0.0,0.0,0.0,0.0989585005566936,0.3202151695552767,0.14616839941069787,0.005581860443936735,-0.012256120208834887,0.07027965312456173
1638,10.0,300.41867,-1908.1681,0.0,0.016379992414266464,0.0,0.0,0.0,0.0,0.0929093619959401,0.31449630493086866,0.17262980067473485,0.005005517707556135,-0.0007017639584662103,0.06852130652377644
1639,10.0,300.10147,-1835.0878,0.0,0.016389988401685596,0.0,0.0,0.0,0.0,0.1031703005521159,0.3045240291691817,0.15012653933633585,0.006974430142097664,0.007781452537319571,0.07252981308538524
1640,10.0,299.94171,-1841.4994,0.0,0.0164000173791623,0.0,0.0,0.0,0.0,0.09715193743664972,0.3153054357982237,0.14731246009860785,0.007877694780842942,0.016353761368490587,0.08066658629092222
1641,10.0,300.00446,-1720.8575,0.0,0.016410013366581655,0.0,0.0,0.0,0.0,0.1085945829749509,0.2825388122094097,0.13196431500386388,0.014773280690259285,0.021224508301445878,0.08865015709458932
1642,10.0,300.37144,-1525.9331,0.0,0.01642000935400101,0.0,0.0,0.0,0.0,0.06468464920562783,0.28401882610047574,0.1151420835311389,-0.0006450484088263214,0.004179801962564337,0.07203247041955134
1643,10.0,300.17051000000004,-1692.6833,0.0,0.01643000534142036,0.0,0.0,0.0,0.0,0.07169433568893002,0.3028789264393227,0.13996018565049487,-0.010707329940731189,-0.006105131470554564,0.08230850842871733
1644,10.0,300.77639,-1983.9056,0.0,0.016440001328839493,0.0,0.0,0.0,0.0,0.1104376139793439,0.3191206365322547,0.17349953403057083,-0.014548344234309788,-0.007866431391406333,0.061876043544940036
1645,10.0,300.0657,-1970.1994,0.0,0.016449997316258846,0.0,0.0,0.0,0.0,0.11346436428056089,0.32168781711811567,0.16373923018980382,-0.012295227609694488,0.004786334384349425,0.07396262168079243
1646,10.0,299.33235,-1815.4336,0.0,0.016459993303678422,0.0,0.0,0.0,0.0,0.09781487556632659,0.3027161579432587,0.15131544647367184,-0.005610343512197795,0.011838691565137888,0.07438169381615163
1647,10.0,299.18433999999996,-1846.2524,0.0,0.016469989291097553,0.0,0.0,0.0,0.0,0.1104273700208329,0.3095149039942427,0.14127237492749786,-0.00024719137982088976,-0.002060319651237718,0.06737091302274144
1648,10.0,299.5907,-1907.6267,0.0,0.01648001826857426,0.0,0.0,0.0,0.0,0.10732152541680991,0.3194805125702717,0.15306884537421886,0.003316086299072237,-0.005591833459370994,0.08359565725599902
1649,10.0,300.33894,-1903.6808,0.0,0.016490014255993612,0.0,0.0,0.0,0.0,0.09971411864651732,0.3080884099734587,0.17086888345844584,0.00011739599758358289,-0.002087379305758298,0.06471171412904894
1650,10.0,300.47144,-1837.1265,0.0,0.016500010243412966,0.0,0.0,0.0,0.0,0.09646943142104161,0.3150444225724637,0.14692673605053985,0.014081791199264587,-0.0038421608873917563,0.08471794218600993
1651,10.0,299.68851,-1654.9204,0.0,0.01651000623083232,0.0,0.0,0.0,0.0,0.09523522896448532,0.2773853208757997,0.13043394258282787,-0.004224659355091416,-0.008023227892705941,0.054053863217200945
1652,10.0,300.32079,-1554.4961,0.0,0.016520002218251673,0.0,0.0,0.0,0.0,0.07024211423485693,0.2863202311851067,0.11596565321241889,0.005723064140772454,0.01000649392683906,0.08226526088794912
1653,10.0,300.8361,-1871.543,0.0,0.016529998205670804,0.0,0.0,0.0,0.0,0.13074051153308386,0.3025735227266817,0.13558830531152385,0.001998393250176058,0.01819006743196988,0.06428840458177153
1654,10.0,300.53134,-2136.7429,0.0,0.016539994193090157,0.0,0.0,0.0,0.0,0.14280250416850987,0.3147305886189907,0.1919833842097848,-0.0015374022489047887,0.01188211642467359,0.06563332690325503
1655,10.0,299.97983999999997,-1878.0778,0.0,0.01654999018050951,0.0,0.0,0.0,0.0,0.10319267311432391,0.3172573709233647,0.15043870142714386,-0.017663868416538085,-0.007488591746341462,0.07276213917431403
1656,10.0,299.71945,-1728.4561,0.0,0.016560019157986217,0.0,0.0,0.0,0.0,0.07986136352920292,0.30480155837157175,0.14074456281790687,-0.014612654204906685,-0.003952143004921146,0.07432701884075563
1657,10.0,299.77827,-1987.976,0.0,0.01657001514540557,0.0,0.0,0.0,0.0,0.10961064991022888,0.3286354197412907,0.16604899458775985,-0.0018401560085592582,0.007294294960165863,0.07685511634375942
1658,10.0,300.4359,-1919.6432,0.0,0.016580011132824923,0.0,0.0,0.0,0.0,0.11912736842695588,0.3224676447925787,0.14192859622226187,-0.0015087982999067986,0.007934116194111303,0.061798855165572146
1659,10.0,300.10754,-1723.1611,0.0,0.016590007120244277,0.0,0.0,0.0,0.0,0.10106690378877681,0.29473518207309773,0.12799586019220788,0.013291725645791185,-0.004608342413482985,0.07459143253385123
1660,10.0,299.75666,-1557.3229,0.0,0.01660000310766363,0.0,0.0,0.0,0.0,0.05683828361125185,0.30482126608601673,0.11172772453666789,0.001177917933376449,0.001966529270306328,0.08275677128620743
1661,10.0,300.16797,-1568.6591,0.0,0.01660999909508276,0.0,0.0,0.0,0.0,0.06316069572397534,0.28993179904654076,0.12374069613225588,0.015586771572794587,-0.006503890373209004,0.07441148032934133
1662,10.0,299.84606,-1848.8582,0.0,0.016619995082502115,0.0,0.0,0.0,0.0,0.09641207335938082,0.3115159108217267,0.15407876188138983,0.0005043223580877415,-0.004542016075187086,0.07407681294056223
1663,10.0,299.82808,-2076.0917,0.0,0.016629991069921468,0.0,0.0,0.0,0.0,0.12709033884283988,0.34211505059162667,0.16187464735578386,-0.0003902111856058456,-0.01077889579529419,0.06167122111672564
1664,10.0,300.2568,-1968.0468,0.0,0.016640020047398174,0.0,0.0,0.0,0.0,0.12443952459372487,0.32110837991592966,0.15268919069424985,-0.01147247156824479,-0.004725948022114756,0.07420702976391363
1665,10.0,300.31905,-1831.255,0.0,0.016650016034817527,0.0,0.0,0.0,0.0,0.1105796412458609,0.32155352094986167,0.12452264149942789,0.0023136860811430377,0.013732286789271186,0.08097715149957263
1666,10.0,300.38155,-1997.6303,0.0,0.01666001202223666,0.0,0.0,0.0,0.0,0.1085797793909899,0.32859625762492567,0.17005368322299183,-0.01001550222685311,0.01036847073628839,0.08349930426423972
1667,10.0,300.3927,-2098.3622,0.0,0.016670008009656234,0.0,0.0,0.0,0.0,0.15126645583133685,0.3098080879106777,0.17677517908635182,0.0055329167150813645,-0.011988139875387289,0.05221191132416446
1668,10.0,300.22067999999996,-1812.1947,0.0,0.016680003997075588,0.0,0.0,0.0,0.0,0.08265507441342072,0.3147307203415037,0.15347615164941686,-0.006006839523403905,-0.011889683376420388,0.07313970453257684
1669,10.0,300.11557,-1501.4458,0.0,0.01668999998449472,0.0,0.0,0.0,0.0,0.06343791689833493,0.28398498354713575,0.10897913165290289,0.014685717643117486,-0.01092454340441849,0.07080818970797423
1670,10.0,299.4844,-1640.0902,0.0,0.016699995971914072,0.0,0.0,0.0,0.0,0.09042439348344282,0.2811472347870717,0.1269748283314399,0.012319846547374188,-8.066151497417172e-05,0.057841090142471144
1671,10.0,299.22929,-1926.8871,0.0,0.016709991959333426,0.0,0.0,0.0,0.0,0.12112223495883388,0.3217713089263557,0.14283203027642385,0.012936662545749187,0.004056217165092466,0.07792278506688013
1672,10.0,299.6539,-2022.4715,0.0,0.01671998794675278,0.0,0.0,0.0,0.0,0.1104319600437859,0.3304258529329927,0.17392302190986583,0.009954368086044642,0.01105196872374439,0.07014897223266453
1673,10.0,300.13365,-1886.3215,0.0,0.016730016924229485,0.0,0.0,0.0,0.0,0.1079162829605079,0.3352361057952277,0.1302422559289099,-0.0028614646892545772,0.009274232569045492,0.09432940262683721
1674,10.0,300.30009,-1753.5577,0.0,0.016740012911648616,0.0,0.0,0.0,0.0,0.08513327846825042,0.30962940125554267,0.13827508993918886,-0.0038603992878667465,0.004299947485221776,0.06642967967359895
1675,10.0,299.90564,-1922.5431,0.0,0.01675000889906819,0.0,0.0,0.0,0.0,0.11134720859411389,0.3184912967626437,0.15456660127453586,-0.0008898540608892582,-0.013472080110590787,0.07638018575688743
1676,10.0,300.4456,-2063.3641,0.0,0.016760004886487545,0.0,0.0,0.0,0.0,0.13401789937903688,0.3310818918427387,0.16211139324164883,0.0016569725494804584,-0.005567989050067734,0.06352845687427053
1677,10.0,300.47937,-1818.9988,0.0,0.016770000873906676,0.0,0.0,0.0,0.0,0.0969002217938073,0.3028157502955877,0.15321425689606988,0.015171341058294785,-0.011325630350502689,0.08444160760548781
1678,10.0,299.91292999999996,-1483.7648,0.0,0.01677999686132603,0.0,0.0,0.0,0.0,0.05416091106376574,0.27873340960384574,0.11813313703133288,0.0024836072109879477,0.00925489154981168,0.07187974019222802
1679,10.0,300.47777,-1653.3996,0.0,0.01678999284874516,0.0,0.0,0.0,0.0,0.09310193727019582,0.2882416573497367,0.12124859737880488,-0.009537645880317362,0.00975061453536073,0.06367030783527014
1680,10.0,300.02652,-2007.9618,0.0,0.016799988836164736,0.0,0.0,0.0,0.0,0.11289938615730188,0.3135577212307377,0.18391314100581382,-0.005371545186930235,-0.0002398037328117858,0.06571800928036253
1681,10.0,300.06507999999997,-1975.6049,0.0,0.016810017813641442,0.0,0.0,0.0,0.0,0.1139018654087389,0.33553609875233464,0.15109658445207186,0.008831570451483141,0.0005949231492943434,0.07088987590453603
1682,10.0,299.85507,-1844.9166,0.0,0.016820013801060796,0.0,0.0,0.0,0.0,0.08832406382815641,0.3203806839591117,0.15210382597897884,0.016630011849254382,-0.0069952753311049234,0.07431634526420224
1683,10.0,299.83161,-1890.4126,0.0,0.01683000978848015,0.0,0.0,0.0,0.0,0.1036751118844369,0.30636911707127773,0.16459399784166284,0.017091628329812383,-0.012687687744427288,0.060207589453276436
1684,10.0,299.36368,-2048.554,0.0,0.016840005775899503,0.0,0.0,0.0,0.0,0.12078598791314889,0.3407328457327137,0.16119045022575884,0.005859306661143544,-0.001155050094519569,0.08329928768124963
1685,10.0,299.98364,-2069.1172,0.0,0.016850001763318634,0.0,0.0,0.0,0.0,0.13368174352586087,0.32723720553079766,0.16804100375435585,-0.0020460339394028277,-0.006206028787687354,0.06606902241975485
1686,10.0,300.12357000000003,-1936.31,0.0,0.016859997750737987,0.0,0.0,0.0,0.0,0.1112628251257859,0.3130766199507567,0.16425044526275684,-0.004143840297965196,0.015749904838894584,0.07978323586699233
1687,10.0,299.63209,-1706.896,0.0,0.01686999373815712,0.0,0.0,0.0,0.0,0.09055197484328412,0.30885232962135173,0.11944945023624289,-0.014063617545470987,0.0026537350438532578,0.06426805244026294
1688,10.0,299.56021,-1705.4233,0.0,0.016879989725576694,0.0,0.0,0.0,0.0,0.08115606106972963,0.2988121965004677,0.13843782803774987,-0.00016415505789834283,0.005946020402051525,0.08046978475049942
1689,10.0,299.28425,-1938.7726,0.0,0.0168900187030534,0.0,0.0,0.0,0.0,0.1016261985922249,0.32974029804783367,0.15797196260811885,-0.009203052560120571,-0.002119796722832648,0.07097584105627014
1690,10.0,299.26414,-1905.1566,0.0,0.016900014690472753,0.0,0.0,0.0,0.0,0.1100978104258079,0.3130315404538077,0.15599067362758084,0.003107404097251907,-0.0036804578238079063,0.07455528787628403
1691,10.0,299.5473,-1713.7015,0.0,0.016910010677892107,0.0,0.0,0.0,0.0,0.08140615551241202,0.3025511501644737,0.13696516020990887,-0.005304180976556905,-0.0014042764858412985,0.08043965271902562
1692,10.0,300.10236000000003,-1821.075,0.0,0.016920006665311238,0.0,0.0,0.0,0.0,0.08814809065678923,0.3220744429587727,0.14333878704893688,-0.001957312848721738,0.013837300029635185,0.08638252768879173
1693,10.0,299.67194,-2138.5506,0.0,0.01693000265273059,0.0,0.0,0.0,0.0,0.13362900385815588,0.34016810065697767,0.17626887827638385,0.02233146985019448,0.0036948244943257862,0.07952049504981183
1694,10.0,300.04832999999996,-2069.2622,0.0,0.016939998640149945,0.0,0.0,0.0,0.0,0.11489451613420588,0.33360088225384366,0.18050862066981382,0.008114312085270253,-0.00014158020030787785,0.06797683354279115
1695,10.0,300.6111,-1844.2344,0.0,0.016949994627569298,0.0,0.0,0.0,0.0,0.1063286416438199,0.3058957266245577,0.14837682866615284,0.01066703298425419,-0.012170743755408888,0.058984158858533246
1696,10.0,300.06984,-1804.3220000000001,0.0,0.01695999061498865,0.0,0.0,0.0,0.0,0.1030379295590519,0.3009606210850007,0.14447029356810787,-0.018398939820833984,-0.02192845874217038,0.05630965076907986
1697,10.0,299.69024,-1791.6009,0.0,0.016970019592465357,0.0,0.0,0.0,0.0,0.1035056052752079,0.3090975462780527,0.1319987655072639,-0.016090079241967183,0.0038231489717904265,0.07242437934622972
1698,10.0,299.7258,-1865.3493,0.0,0.01698001557988471,0.0,0.0,0.0,0.0,0.1087758838153439,0.3152701442972407,0.14297359144789487,-0.015400719602682685,0.0017733387505899085,0.08404829938042133
1699,10.0,300.40016,-1932.2411,0.0,0.016990011567304064,0.0,0.0,0.0,0.0,0.12496209820029888,0.3171790872206387,0.14521187105129585,0.006801462371852074,0.005486267795052474,0.06530995320009053
1700,10.0,300.71247999999997,-1902.1183,0.0,0.017000007554723195,0.0,0.0,0.0,0.0,0.08819792432320742,0.3340781129184427,0.15592041486564684,0.005416398121156875,-0.0027345303909271372,0.0955530733618541
1701,10.0,300.06347999999997,-1846.8412,0.0,0.01701000354214255,0.0,0.0,0.0,0.0,0.1069648816466119,0.30914837090306874,0.14528035662555486,0.015137919003746286,-0.009312049697227752,0.07582900404699003
1702,10.0,299.551,-1995.3966,0.0,0.017019999529561902,0.0,0.0,0.0,0.0,0.10730295254247689,0.3229370126364017,0.17631075590301684,0.007343180123165452,-0.01000413700578145,0.07732218309660532
1703,10.0,299.77026,-2042.9353,0.0,0.017029995516981256,0.0,0.0,0.0,0.0,0.12868479933270088,0.32441678334744367,0.16789971616041183,0.0036292927467583068,-0.006881438708870123,0.060140287355134235
1704,10.0,300.15648999999996,-1860.2082,0.0,0.01703999150440061,0.0,0.0,0.0,0.0,0.1034878430009549,0.3206458515102817,0.14132314889000885,-0.0007373523315960093,0.004971004585299955,0.08132668225406862
1705,10.0,300.10489,-1763.5379,0.0,0.01704998749181974,0.0,0.0,0.0,0.0,0.09516729054528032,0.3146955099005287,0.12620867953332687,-0.0047546537014227855,0.011848313388087488,0.07989472174899513
1706,10.0,299.83274,-1731.8149,0.0,0.017060016469296668,0.0,0.0,0.0,0.0,0.07168704028821003,0.3097117784886727,0.14502966841831386,-0.001129321344005339,0.004839315813528285,0.08801357461326352
1707,10.0,299.40598,-1766.0699,0.0,0.01707001245671602,0.0,0.0,0.0,0.0,0.09925815103526682,0.3010433833531687,0.13653961543291085,-0.006701640315725403,-0.007915142984663793,0.07148631341689983
1708,10.0,300.28986000000003,-1901.0465,0.0,0.017080008444135153,0.0,0.0,0.0,0.0,0.1014829959555919,0.3210562380657837,0.15533142271501785,-0.007415996834976903,-0.003404882167610707,0.07941710402285793
1709,10.0,300.73852,-1900.1,0.0,0.017090004431554506,0.0,0.0,0.0,0.0,0.11369908366622589,0.3097909133214827,0.15409294738278986,-0.0014903846071645088,-0.0013650650241964287,0.08185353684231512
1710,10.0,300.28961,-1801.8144,0.0,0.01710000041897386,0.0,0.0,0.0,0.0,0.08953820697248302,0.3068273391640007,0.15134105130369885,-0.005855686825161295,-0.005078037942388326,0.08126718623469682
1711,10.0,299.77884,-1964.5873,0.0,0.017109996406393213,0.0,0.0,0.0,0.0,0.11877971218514488,0.3223888038022977,0.15601695733517484,0.0007929023903083734,0.007236978239109144,0.06436761135533864
1712,10.0,299.85266,-2099.1858,0.0,0.017119992393812566,0.0,0.0,0.0,0.0,0.12362708039854288,0.33086731586906165,0.18360566013046783,-0.003696798001545556,0.002129936620558378,0.06782049614511183
1713,10.0,299.85885,-1994.5716,0.0,0.017129988381231698,0.0,0.0,0.0,0.0,0.13723087491613287,0.3228346237137967,0.14623445318471687,0.02460806145312658,0.006622224508662674,0.06047810291197404
1714,10.0,300.2419,-1813.2245,0.0,0.017140017358708626,0.0,0.0,0.0,0.0,0.08033655654785082,0.3136413650264927,0.15719703906413984,0.00997273243350706,-0.013996429944590088,0.06372357034002674
1715,10.0,300.65356,-1814.3776,0.0,0.01715001334612798,0.0,0.0,0.0,0.0,0.10937375203684889,0.3039763877551337,0.13817534559934488,0.010941663278108091,-0.01080161083603599,0.06065938652711535
1716,10.0,300.25742,-1922.1641,0.0,0.01716000933354711,0.0,0.0,0.0,0.0,0.1075870172080119,0.3195255312722147,0.15717733134969483,-0.006498408386192974,-0.01247788721847159,0.08511215524341573
1717,10.0,300.30219,-1899.9503,0.0,0.017170005320966464,0.0,0.0,0.0,0.0,0.12465303665479689,0.3082832174376847,0.14460119534852686,-0.0042996552638929365,0.012481096181538288,0.07707994438194822
1718,10.0,300.5228,-1829.7153,0.0,0.017180001308385817,0.0,0.0,0.0,0.0,0.09422362539589782,0.3195287838050357,0.14243536312727587,-0.0018586542063598883,0.002742002299814557,0.09286071281888882
1719,10.0,300.44575,-1804.3909,0.0,0.01718999729580517,0.0,0.0,0.0,0.0,0.1049641889266589,0.29695500025967675,0.14657058877289086,-0.02155904396771198,0.00990266021091647,0.05796505521270554
1720,10.0,300.0862,-1898.5043,0.0,0.017199993283224524,0.0,0.0,0.0,0.0,0.08831147723541423,0.32866673930188167,0.16011967791758186,-0.00014650194107861589,-0.0015649618410247083,0.08991633468455132
1721,10.0,299.98451,-2107.9665,0.0,0.017209989270643655,0.0,0.0,0.0,0.0,0.12315242338919787,0.3354283700017027,0.1821883765530928,-0.002219138498411918,0.005077429891003315,0.06364976621599285
1722,10.0,300.3325,-2021.3102,0.0,0.017220018248120583,0.0,0.0,0.0,0.0,0.11242551948303489,0.3397344802766827,0.16226782892458785,0.015428170574391884,-0.0052205547100286345,0.08581366172489902
1723,10.0,300.24416,-1741.1014,0.0,0.017230014235539937,0.0,0.0,0.0,0.0,0.08302246876717972,0.31318140014359774,0.13304747936076386,0.015966634982284185,-0.002885277079854677,0.07832182423451223
1724,10.0,299.55677000000003,-1777.9592,0.0,0.017240010222959068,0.0,0.0,0.0,0.0,0.08762461728412642,0.31587029233147074,0.13696028647692787,0.02023767363155288,0.004085189430501806,0.07710031476195862
1725,10.0,299.65677,-2008.0863,0.0,0.01725000621037842,0.0,0.0,0.0,0.0,0.12852620542704887,0.3212646737438547,0.16061720398168386,0.00046678826105591456,0.015764124790797987,0.06917489640803073
1726,10.0,300.10044,-1931.4805,0.0,0.017260002197797775,0.0,0.0,0.0,0.0,0.1046423097673919,0.3181368922751667,0.16434263075685485,-0.009399838800466862,-0.010417389437866291,0.07544896534523313
1727,10.0,299.90235,-1825.3906,0.0,0.017269998185217128,0.0,0.0,0.0,0.0,0.08973626392977972,0.31072121876829667,0.15441567767214084,-0.024200180665121876,-0.006049034601293234,0.07209283074125843
1728,10.0,300.01173,-1876.9698,0.0,0.01727999417263648,0.0,0.0,0.0,0.0,0.0932714722504276,0.3240397529852337,0.15324072298868185,-0.017980441185031382,-0.006206627111871405,0.07984233165257462
1729,10.0,300.12911,-2054.3882,0.0,0.017289990160055613,0.0,0.0,0.0,0.0,0.11745260786666988,0.3299921717576917,0.17703792496978282,-0.014633966907510088,0.013332027668518686,0.06975495067952764
1730,10.0,300.02411,-2142.2785,0.0,0.01730001913753232,0.0,0.0,0.0,0.0,0.1426121144747199,0.3334693927883667,0.17511766404276785,-0.010884009347418091,8.080865510069333e-05,0.06683035827989284
1731,10.0,300.49142,-2122.1457,0.0,0.017310015124951894,0.0,0.0,0.0,0.0,0.13289813642852488,0.34866060570762264,0.16352055055322184,0.004836756951725745,-0.0010842093217281292,0.05445827261036304
1732,10.0,300.04311,-1937.8212,0.0,0.017320011112371025,0.0,0.0,0.0,0.0,0.09075272704584682,0.3298491616385777,0.16844737783946184,0.017125011880857084,0.007154820374625794,0.06769175157415573
1733,10.0,299.64967,-1897.6979,0.0,0.01733000709979038,0.0,0.0,0.0,0.0,0.09434834027120621,0.33349089395548864,0.14901353476399087,0.014995262508917185,0.004823241005991826,0.06746377232815594
1734,10.0,300.09351000000004,-2007.6348,0.0,0.017340003087209732,0.0,0.0,0.0,0.0,0.1000098468339534,0.3326806789105267,0.17758031774831284,0.013076433304293488,-0.01925132126870748,0.08674303802137133
1735,10.0,300.56158,-1973.773,0.0,0.017349999074628863,0.0,0.0,0.0,0.0,0.1108075819883569,0.3198797939046777,0.16929031073015285,-0.0015416546569244685,-0.008143027998404292,0.07221029277235103
1736,10.0,299.98824,-1774.5893,0.0,0.01735999506204844,0.0,0.0,0.0,0.0,0.09278649427556401,0.31744279569166467,0.12920155688370089,0.011236613289467389,0.0010014166053946242,0.088637154056056
1737,10.0,298.90671000000003,-1749.8847,0.0,0.01736999104946757,0.0,0.0,0.0,0.0,0.1045961967553409,0.2988333936925597,0.12849166373113988,-0.007887087203969903,0.021216755924930778,0.07163583164140613
1738,10.0,299.31144,-1952.7857,0.0,0.017380020026944276,0.0,0.0,0.0,0.0,0.0972183600337051,0.33228663607913766,0.16409308752222684,-0.016527033215091184,-0.0037139763397659262,0.07814192978525802
1739,10.0,299.81276,-2039.2573,0.0,0.01739001601436363,0.0,0.0,0.0,0.0,0.13341531954456687,0.3259125735425667,0.16055540585808487,-0.01046181437525069,0.005955762599113005,0.08177627956194042
1740,10.0,299.92384,-2082.3542,0.0,0.017400012001783205,0.0,0.0,0.0,0.0,0.0965916192506006,0.34424711118704465,0.1921449368057288,-0.005904936960846904,0.012778820471671387,0.07023854252825444
1741,10.0,300.18564,-1947.7182,0.0,0.017410007989202336,0.0,0.0,0.0,0.0,0.1078279680817919,0.3373502318638757,0.14687949833087785,0.007703874259313192,0.017895179228866683,0.08348954261277633
1742,10.0,299.80683999999997,-1931.7696,0.0,0.01742000397662169,0.0,0.0,0.0,0.0,0.1104447675250499,0.3132618825990407,0.16350307198899683,-0.0018199355895636585,-0.01997334707796588,0.05480844880517275
1743,10.0,299.44687999999996,-2019.5605,0.0,0.01742999996404082,0.0,0.0,0.0,0.0,0.11952010416571589,0.3354321696895777,0.15894367958651986,0.008103538804907013,-0.0016135092877659683,0.07855242070552033
1744,10.0,300.19009,-1997.1002,0.0,0.017439995951460396,0.0,0.0,0.0,0.0,0.11454150993186689,0.3335772937915157,0.15894978948462285,0.01252235369911009,-0.0077267228464181735,0.06513802593637263
1745,10.0,299.83771,-1917.4534,0.0,0.017449991938879528,0.0,0.0,0.0,0.0,0.10973695153519389,0.3239588348322477,0.14916217855366085,0.005926930972817545,0.006775998991539035,0.07887861428371312
1746,10.0,299.62253,-1871.6698,0.0,0.01745998792629888,0.0,0.0,0.0,0.0,0.08732030281534292,0.3294246909066857,0.15219587975056384,-0.01681240699975538,-0.01070513929401499,0.08172525735315493
1747,10.0,300.14096,-1904.3975,0.0,0.017470016903775587,0.0,0.0,0.0,0.0,0.1090638697587659,0.3293197891238327,0.14050563844432687,-0.0011340707511990691,-0.0064309609879864334,0.08576482813632952
1748,10.0,299.82754,-2050.1743,0.0,0.017480012891195162,0.0,0.0,0.0,0.0,0.1206750167621969,0.3249854294360647,0.17754134814946682,-0.00954240055641161,0.002993362798496907,0.07714576308194403
1749,10.0,299.32833999999997,-2068.7559,0.0,0.017490008878614294,0.0,0.0,0.0,0.0,0.11283962466640389,0.35408607363307465,0.16192442833319684,0.003008505517266377,0.017571601862432083,0.09253695914693681
1750,10.0,299.6161,-1872.7314,0.0,0.017500004866033647,0.0,0.0,0.0,0.0,0.1086504333204629,0.2939575936813557,0.16665556662762385,-0.014956659706607384,-0.005978928029524254,0.06708402848217813
1751,10.0,299.61302,-1916.8869,0.0,0.01751000085345278,0.0,0.0,0.0,0.0,0.1099278073240299,0.3232276735600877,0.14953027204998887,-0.005101398423443825,0.006685735632880734,0.06718728272036853
1752,10.0,299.86279,-2008.4913,0.0,0.017519996840872132,0.0,0.0,0.0,0.0,0.0961716118853991,0.3383522956827717,0.17600730776306883,-0.0009751115891510211,0.015958470212978384,0.07454382295140252
1753,10.0,300.0734,-1996.4502,0.0,0.017529992828291707,0.0,0.0,0.0,0.0,0.12049753587468089,0.3253610817781387,0.16101238165318485,-0.001132514196395449,0.013515908243666287,0.06533901827920904
1754,10.0,300.14968,-1955.8027,0.0,0.01753998881571084,0.0,0.0,0.0,0.0,0.10748559087300188,0.3424436881290607,0.14458589527201687,0.007595102165053223,-0.013159507653492289,0.07530902537392213
1755,10.0,300.41141,-1742.4332,0.0,0.017550017793187545,0.0,0.0,0.0,0.0,0.08639412534943632,0.31177319528711867,0.13148886765944087,6.0681504763548244e-05,-0.010683363536115889,0.08579227809478861
1756,10.0,300.55239,-1779.8471,0.0,0.017560013780606898,0.0,0.0,0.0,0.0,0.0896389706419276,0.3210746994826057,0.13031540245362888,0.01889585692162588,0.0064250956884575735,0.08193865896996602
1757,10.0,299.3143,-2021.2551,0.0,0.01757000976802625,0.0,0.0,0.0,0.0,0.1084282174410319,0.3508339765096177,0.15514889584200384,-0.0026180735039337375,0.011833244332600289,0.0917207588336341
1758,10.0,299.45692,-1992.6902,0.0,0.017580005755445605,0.0,0.0,0.0,0.0,0.12052698092258689,0.3162721574536317,0.16892892494948683,0.004745580553402335,-0.007191296972925754,0.07418001955599793
1759,10.0,300.03917,-1919.7119,0.0,0.017590001742864736,0.0,0.0,0.0,0.0,0.11787905443625689,0.3198015102019517,0.14586392788814886,-0.01014476740571059,-0.001982955371652458,0.07489691426674992
1760,10.0,299.85443,-1954.2106,0.0,0.01759999773028409,0.0,0.0,0.0,0.0,0.09445441235792472,0.3258998065913067,0.17367701491808685,0.005725431295656074,0.008814598410983131,0.06873983518609353
1761,10.0,299.93482,-2041.2199,0.0,0.017609993717703443,0.0,0.0,0.0,0.0,0.10729652853684289,0.33763594812707365,0.17554739354267884,-0.009722104514647011,-0.008977270850937651,0.06899190242672064
1762,10.0,299.57578,-2075.3761,0.0,0.017619989705122796,0.0,0.0,0.0,0.0,0.12323914746525687,0.34157660948848667,0.16604676543753982,-0.0028739607987628467,-0.01976210267061768,0.07684078696084522
1763,10.0,299.7535,-1974.2582,0.0,0.017630018682599724,0.0,0.0,0.0,0.0,0.099634940243953,0.3305398334367417,0.16995041277279985,-0.008411968690296673,-0.00048036227615306555,0.06812927803358623
1764,10.0,300.09431,-1790.501,0.0,0.017640014670018855,0.0,0.0,0.0,0.0,0.08913887902857241,0.31676181056445674,0.13836690053074988,0.009485836072229132,0.019406171215239982,0.07579438635732352
1765,10.0,300.36179,-1868.8326,0.0,0.01765001065743821,0.0,0.0,0.0,0.0,0.10760939990272089,0.33425053768795965,0.12621849792679588,-0.001911776882602688,0.015217798575379787,0.07988102868714372
1766,10.0,300.19831,-2013.4654,0.0,0.017660006644857562,0.0,0.0,0.0,0.0,0.1136547843718539,0.3193026770452207,0.17908573381938583,-0.0004306573532925716,-0.006529317479168463,0.07539697244285183
1767,10.0,299.89189,-2104.9993,0.0,0.017670002632276693,0.0,0.0,0.0,0.0,0.12823766219607188,0.3435231135930917,0.16810645971081584,0.011158479547756188,-0.006713959714416233,0.08200562365582492
1768,10.0,299.44552999999996,-1985.0346,0.0,0.017679998619696047,0.0,0.0,0.0,0.0,0.11097463653234389,0.32872479853261166,0.16370151702108182,0.00990965214323152,0.010373752809059689,0.08545823081507073
1769,10.0,300.19563,-1961.1270000000002,0.0,0.0176899946071154,0.0,0.0,0.0,0.0,0.09764501229306241,0.3311813018100497,0.16730731948944685,0.002481787413808348,-0.002029174470988928,0.08034708826939022
1770,10.0,300.53136,-2095.3284,0.0,0.017699990594534754,0.0,0.0,0.0,0.0,0.1181210692226419,0.35332009708747864,0.16548633680722985,-0.007058196338464743,-0.007529303628734413,0.07024860714149772
1771,10.0,300.53493,-2046.4276,0.0,0.01771001957201168,0.0,0.0,0.0,0.0,0.12288842107564288,0.32154249678877367,0.17763195297340884,-0.005010956732767925,-0.0006716031202920673,0.061575080907487346
1772,10.0,300.09047999999996,-1948.6408,0.0,0.017720015559430813,0.0,0.0,0.0,0.0,0.08993809828344922,0.34836651999859863,0.15403353039692586,0.012660693748513188,-0.006435330223742645,0.07957158109335363
1773,10.0,299.8457,-1906.4968,0.0,0.017730011546850166,0.0,0.0,0.0,0.0,0.10910280896010889,0.32224576328568066,0.14817884972911385,0.004851473598828165,-0.015631414358950484,0.07544756098059453
1774,10.0,299.89912999999996,-1906.9365,0.0,0.01774000753426952,0.0,0.0,0.0,0.0,0.0965313258034001,0.3295098545775907,0.15361989130860285,-0.0022500425251369078,-0.012188305406142089,0.08477326361496972
1775,10.0,300.36954,-1973.9589999999998,0.0,0.01775000352168865,0.0,0.0,0.0,0.0,0.10787125412606388,0.34465712284000966,0.14750585914519487,0.014626241888747686,0.0063711915937376545,0.0875326314002981
1776,10.0,299.44186,-2109.1221,0.0,0.017759999509108226,0.0,0.0,0.0,0.0,0.13328654558935787,0.33570059990606965,0.17213331825823583,-0.003321475675029127,0.02376632014455318,0.07373673682274934
1777,10.0,299.68711,-1934.2577,0.0,0.017769995496527358,0.0,0.0,0.0,0.0,0.1041840471446649,0.32604685957831975,0.15773511539724386,0.014192306387671586,-0.0014754237667879884,0.07880293666024434
1778,10.0,299.95842999999996,-1795.806,0.0,0.01777999148394671,0.0,0.0,0.0,0.0,0.06851322686747903,0.3198521524419497,0.15751479429549983,-0.011488775775603888,-0.016346039389478484,0.07043163456006113
1779,10.0,300.30272,-1979.0283,0.0,0.01779002046142364,0.0,0.0,0.0,0.0,0.12250911090070787,0.3165020233713177,0.16256404245882183,0.011935145881907187,-0.004080822930520866,0.06760011728811215
1780,10.0,300.24121,-2125.1289,0.0,0.01780001644884277,0.0,0.0,0.0,0.0,0.11679274900404689,0.35065592820204566,0.17853745405777482,-0.002788517166855217,0.002374334469853568,0.07519026638270153
1781,10.0,300.21262,-2029.4214,0.0,0.0178100124362619,0.0,0.0,0.0,0.0,0.12670457426476786,0.32767499036900366,0.16251385618136885,0.007718790212710282,-0.005067890141311815,0.07886426767554722
1782,10.0,300.1317,-1922.5128,0.0,0.017820008423681477,0.0,0.0,0.0,0.0,0.12001228026928987,0.3137208950268417,0.15066270062675086,-0.017354491750254983,-0.015062068114510385,0.05804966564905595
1783,10.0,300.67829,-1980.4166,0.0,0.01783000441110083,0.0,0.0,0.0,0.0,0.11588498837195789,0.3289798234502807,0.15713239370775986,-0.0025668430722526874,0.0027383210608762473,0.06999460459317963
1784,10.0,300.01162999999997,-2098.2961,0.0,0.017840000398520184,0.0,0.0,0.0,0.0,0.1164261551178669,0.34409160769419767,0.17731186726681883,-0.002956744243857937,0.02229006845110848,0.08306231989361272
1785,10.0,299.89907999999997,-2093.0402,0.0,0.017849996385939315,0.0,0.0,0.0,0.0,0.1267571416799559,0.34756937587992665,0.16190545015882385,0.004065745059757796,-0.001171866398479209,0.07778668835319842
1786,10.0,299.63542,-1948.9267,0.0,0.017859992373358446,0.0,0.0,0.0,0.0,0.09686688991851772,0.3431349374797817,0.15242322267550085,0.007801474865920623,0.003787544984476586,0.08386278139311212
1787,10.0,299.93958,-1767.3041,0.0,0.017869988360778022,0.0,0.0,0.0,0.0,0.09817659369302541,0.31348668226622667,0.12555304592362088,0.008620999956776452,0.0019092909748073482,0.07616478499762902
1788,10.0,300.03161,-1922.1229,0.0,0.017880017338254728,0.0,0.0,0.0,0.0,0.11985954294921587,0.32880329501785865,0.13561452822411188,0.02015434191682868,0.025863938342571977,0.08373027665103493
1789,10.0,300.83957000000004,-2167.794,0.0,0.01789001332567386,0.0,0.0,0.0,0.0,0.12388407102140588,0.34286783462092063,0.1922033202764908,-0.016785620720111784,-0.0025280712598262076,0.07487044209463734
1790,10.0,300.30869,-2092.0089,0.0,0.017900009313093213,0.0,0.0,0.0,0.0,0.11310770024536089,0.3352241697090497,0.18758660831585683,0.002834799189022898,-0.01160508878108309,0.07863245327791893
1791,10.0,300.60919,-1888.0606,0.0,0.017910005300512788,0.0,0.0,0.0,0.0,0.08313094225663523,0.3271754276722007,0.16361690050523087,-0.005892370734431714,-0.004726511591820376,0.07618609668698233
1792,10.0,299.9013,-2032.7865,0.0,0.01792000128793214,0.0,0.0,0.0,0.0,0.1050965193897189,0.35077669748146467,0.16204312044991084,0.008661863016084322,0.02363996785708318,0.09262679086105251
1793,10.0,299.83727000000005,-2149.1609,0.0,0.017929997275351273,0.0,0.0,0.0,0.0,0.14124793533508587,0.34663587869529766,0.16540742488944182,-0.007367587190249243,-0.00916055745887663,0.07309579331299312
1794,10.0,299.40939,-2030.7292,0.0,0.017939993262770404,0.0,0.0,0.0,0.0,0.13000828634831887,0.3352939421109357,0.15198874103262083,-0.014229615269603688,-0.011176000668485389,0.06833406398479702
1795,10.0,299.7513,-1883.3208,0.0,0.017949989250189757,0.0,0.0,0.0,0.0,0.09209848428541273,0.33159050286293473,0.14879351763727686,0.0008685166451159191,-0.005771131509616334,0.07505995127409043
1796,10.0,299.20722,-1750.4269,0.0,0.017960018227666685,0.0,0.0,0.0,0.0,0.09356447682159491,0.3114272007754717,0.1270943817107389,0.016460553876030185,0.009213293174906241,0.08315278995529142
1797,10.0,299.83022,-1924.4324,0.0,0.017970014215085817,0.0,0.0,0.0,0.0,0.09572481216105341,0.32563632103530266,0.16361825826036483,0.0028669723114981374,0.006040023261528884,0.08136434172053533
1798,10.0,299.59007,-2203.6917,0.0,0.01798001020250517,0.0,0.0,0.0,0.0,0.14196993682634187,0.35107269823317766,0.17682462569123183,-0.004258953311350965,-0.0023705713603071775,0.08324006929240522
1799,10.0,300.01247,-2220.5333,0.0,0.017990006189924523,0.0,0.0,0.0,0.0,0.16809631707731484,0.3300757648909417,0.17681459451524184,0.0039848490969489865,0.001697453208200588,0.06029249170565564
1800,10.0,300.10576000000003,-1948.4129,0.0,0.0180000021773441,0.0,0.0,0.0,0.0,0.11423558946167489,0.3262201456104217,0.15181315492279185,-0.00035977699281972467,0.02072101318100478,0.0928077066664075
1801,10.0,300.00235,-1876.951,0.0,0.01800999816476323,0.0,0.0,0.0,0.0,0.08378195037963472,0.3263282796610937,0.16043601459880186,-0.01723122683583968,-0.012603412693859988,0.06639630017555465
1802,10.0,299.99408999999997,-2064.5849,0.0,0.01801999415218236,0.0,0.0,0.0,0.0,0.12438897354623588,0.33643213608076666,0.16676113715554283,-0.016357329022092686,-0.002354309405477248,0.08201968351421252
1803,10.0,300.31304,-2097.0524,0.0,0.018029990139601715,0.0,0.0,0.0,0.0,0.1035962810266569,0.3518739764122577,0.18198128849765483,-0.0003826521270773246,-0.006394638910326723,0.07463186526584163
1804,10.0,299.76535,-1859.5512,0.0,0.018040019117078643,0.0,0.0,0.0,0.0,0.09630953751551131,0.3336261932413417,0.13532139497018186,0.013519909568311186,0.015684503597939985,0.10391531295314291
1805,10.0,300.19954,-1760.535,0.0,0.018050015104497774,0.0,0.0,0.0,0.0,0.09530196769557191,0.3093373724442217,0.1305193291687549,0.0021292786159434383,0.0005683957753162954,0.06897866228766393
1806,10.0,299.84549,-1925.3147,0.0,0.01806001109191735,0.0,0.0,0.0,0.0,0.10622444913603689,0.33436532879178865,0.14465781576411485,0.001968154016841678,-0.012485474435220387,0.08680385531887352
1807,10.0,299.19686,-2130.167,0.0,0.01807000707933648,0.0,0.0,0.0,0.0,0.12121936511341987,0.3359600223291727,0.19033819028741683,0.014117738273062288,0.0034227016904943564,0.07196900549953784
1808,10.0,299.30268,-2154.4085,0.0,0.018080003066756056,0.0,0.0,0.0,0.0,0.1289284353192459,0.3550336549940937,0.17092428797391385,0.0008984783695129112,0.018552786649767485,0.08591907823880282
1809,10.0,299.58434,-1966.8378,0.0,0.018089999054175188,0.0,0.0,0.0,0.0,0.08551704694362543,0.3336535509940417,0.17869897625621584,0.014650674388408986,-0.006185521416263434,0.08947236496773492
1810,10.0,299.5263,-1982.9938,0.0,0.01809999504159432,0.0,0.0,0.0,0.0,0.1287525857643909,0.3240690156481217,0.14995898829979987,-0.02892264452544277,-0.024911410294564774,0.07026535515240064
1811,10.0,299.95557,-2110.4784,0.0,0.018109991029013672,0.0,0.0,0.0,0.0,0.13882038061300486,0.34328434120702667,0.15942800300181886,0.013167860887316687,-0.006690160293417413,0.08256428517796052
1812,10.0,299.92607999999996,-2123.9854,0.0,0.0181200200064906,0.0,0.0,0.0,0.0,0.12451578179625088,0.3392789027667207,0.18184384112158983,-0.017279933768146682,-0.007417463818471683,0.06192427120994974
1813,10.0,299.75988,-1934.8409,0.0,0.018130015993909954,0.0,0.0,0.0,0.0,0.0935275154844471,0.34023967664404164,0.15437613052073784,0.0007368748476188853,-0.0032037546572109667,0.07621012489985372
1814,10.0,300.21528,-1860.7421,0.0,0.018140011981329307,0.0,0.0,0.0,0.0,0.091455914509246,0.3214064375653457,0.15275678460842088,-0.006317060024370284,-0.00932790027251708,0.06432371837425674
1815,10.0,300.47024,-2076.6949,0.0,0.01815000796874844,0.0,0.0,0.0,0.0,0.10107829778615131,0.34591524509167665,0.18426986583601984,0.022054041972814478,0.009053100765896481,0.07567924770871023
1816,10.0,299.66378,-2202.177,0.0,0.01816000395616779,0.0,0.0,0.0,0.0,0.14874502348749086,0.35574010309631465,0.16492170318900484,0.01844276795390948,0.015609327533270684,0.07718981615654172
1817,10.0,299.63567,-2099.6585,0.0,0.018169999943587145,0.0,0.0,0.0,0.0,0.12792973549068187,0.3396838684341877,0.17063016173488582,0.01144154413544249,-0.0008482490289306612,0.07414689843672913
1818,10.0,299.56793,-1974.3821,0.0,0.018179995931006276,0.0,0.0,0.0,0.0,0.1134475848589049,0.32397040614838973,0.16274486707166785,0.002980455410773047,-0.006195165834690265,0.08212407461901512
1819,10.0,300.05542,-1960.2716,0.0,0.018189991918425852,0.0,0.0,0.0,0.0,0.10986672860800188,0.3287231469349487,0.15728374287519686,0.0018133217008609187,-0.005068930445189485,0.07198294680766373
1820,10.0,300.14808999999997,-2080.0995,0.0,0.018199987905844983,0.0,0.0,0.0,0.0,0.10473694732673189,0.3407781886746887,0.18678317191406382,0.0025325143615147075,0.010365397548735089,0.08593203264133133
1821,10.0,300.14984,-2090.9819,0.0,0.01821001688332191,0.0,0.0,0.0,0.0,0.1049667423169109,0.3568497639433297,0.17378978965421685,-0.011842065687970887,0.004827183866105956,0.07633246876992814
1822,10.0,299.98441,-1901.1577,0.0,0.018220012870741265,0.0,0.0,0.0,0.0,0.10948062965739691,0.3264673077073147,0.14195653152751886,-0.005370416426318835,-0.01015244074871789,0.08729314163316232
1823,10.0,300.30748,-1775.8916,0.0,0.018230008858160396,0.0,0.0,0.0,0.0,0.08059848473845112,0.3215787204798487,0.13764948906244687,0.0025749710605798577,0.0013041820680877488,0.07970472823599423
1824,10.0,299.58576,-2003.6347,0.0,0.01824000484557975,0.0,0.0,0.0,0.0,0.09936714533527372,0.36185205809701765,0.14783572271524986,0.012619459535693689,-0.003046142793555887,0.093191662593051
1825,10.0,299.88569,-2192.544,0.0,0.018250000832999103,0.0,0.0,0.0,0.0,0.1288653098380159,0.36058116889409064,0.17703213931171183,-0.0015123928046365486,-0.009772241142845112,0.07665327489733922
1826,10.0,300.23167,-2136.5466,0.0,0.018259996820418456,0.0,0.0,0.0,0.0,0.11430698306372089,0.35810166483938266,0.17704816892829384,0.004443480036087336,-0.012943861687709687,0.08587063677802202
1827,10.0,299.68433999999996,-2004.5939,0.0,0.01826999280783781,0.0,0.0,0.0,0.0,0.10540431437259591,0.34542236984553365,0.15851979653968584,0.005263157925058245,0.013407982922514885,0.08071497303619762
1828,10.0,299.92343999999997,-1990.4889,0.0,0.01827998879525694,0.0,0.0,0.0,0.0,0.13383109659060086,0.32430830479173767,0.14691951157732686,0.00974953572797926,0.017545182379324682,0.06925965072589534
1829,10.0,299.77772999999996,-2192.3275,0.0,0.01829001777273387,0.0,0.0,0.0,0.0,0.12445388234764189,0.35179065685653466,0.19016828851064882,-0.02194097947365608,0.00995965299591622,0.07431490340930993
1830,10.0,299.87408999999997,-2219.4058,0.0,0.018300013760153222,0.0,0.0,0.0,0.0,0.15809209353997483,0.3317610328547647,0.18479083850743583,-0.011518043504742389,-0.016906645338555983,0.05435919093608444
1831,10.0,300.72317000000004,-2107.6397,0.0,0.018310009747572353,0.0,0.0,0.0,0.0,0.1166633468337759,0.3382495825201347,0.1857569319477818,-0.011912836141205387,-0.016701047774015085,0.06602128516779353
1832,10.0,300.3984,-1968.1818,0.0,0.018320005734991707,0.0,0.0,0.0,0.0,0.11281485070145889,0.3263570458314327,0.15910623530006285,0.009414760326739501,-0.00951357642816689,0.08088638962186512
1833,10.0,300.18341000000004,-1997.9432,0.0,0.018330001722410838,0.0,0.0,0.0,0.0,0.0959515896924346,0.34991694463911366,0.16145630678699682,-0.004382423104936486,-0.016772655171832185,0.08145887795486532
1834,10.0,300.41399,-2085.552,0.0,0.018339997709830413,0.0,0.0,0.0,0.0,0.13396489626630587,0.34915446380636267,0.15083636156138985,0.005411614263459745,-0.004492015627802426,0.07960519667867122
1835,10.0,300.3476,-2119.2052,0.0,0.018349993697249767,0.0,0.0,0.0,0.0,0.1047070361837799,0.36836911048770066,0.17110929730967284,0.009301920033328031,0.014248624854729788,0.08629666386206761
1836,10.0,299.75327000000004,-1958.8896,0.0,0.018359989684668898,0.0,0.0,0.0,0.0,0.1025604759794309,0.35182887665030665,0.14106418242945085,0.006645741638183634,0.015124448856916883,0.08102231104327952
1837,10.0,299.9761,-1846.4618,0.0,0.018370018662145604,0.0,0.0,0.0,0.0,0.07888410508600502,0.3292068117376827,0.15318737537091684,0.0031987009710122073,0.004071343874510356,0.08547454718143101
1838,10.0,299.6457,-2066.2471,0.0,0.01838001464956518,0.0,0.0,0.0,0.0,0.11814032097454187,0.33977302431048667,0.17017418905738482,-0.0027470893219416074,-0.017332962212130182,0.08400442362459112
1839,10.0,299.78392,-2224.9651,0.0,0.01839001063698431,0.0,0.0,0.0,0.0,0.14656906889774088,0.34981606545915767,0.17994869866455385,0.00912636158522676,0.014853763145702288,0.08183216942420633
1840,10.0,299.70346,-2198.8376,0.0,0.018400006624403664,0.0,0.0,0.0,0.0,0.14650035027595887,0.3568178566976806,0.16507350831898684,-0.0016710660477713786,-0.0026230754130523873,0.08975591895521952
1841,10.0,300.18747,-2046.1968,0.0,0.018410002611822796,0.0,0.0,0.0,0.0,0.10691570861925889,0.35312831924105165,0.16194870580559284,-0.008203413752688902,-0.013587893583770686,0.07909993242355552
1842,10.0,300.41354,-2003.5715,0.0,0.01841999859924237,0.0,0.0,0.0,0.0,0.1043787735488829,0.3430117566651247,0.16164515634063484,-0.024022578187593877,-0.024432447985544878,0.06518518158277653
1843,10.0,300.72641,-2106.1739,0.0,0.018429994586661724,0.0,0.0,0.0,0.0,0.10793977009782589,0.34740584744628766,0.18487864676110183,0.0037523540992285163,0.008973272971343092,0.08064647732943762
1844,10.0,300.4145,-2179.5077,0.0,0.018439990574080856,0.0,0.0,0.0,0.0,0.1332127201870719,0.3509029687089267,0.17840021946423082,0.005203912482436175,-0.010638043898893189,0.07435770512003413
1845,10.0,299.99473,-1971.6927,0.0,0.01845001955155756,0.0,0.0,0.0,0.0,0.1186223747096169,0.33904161985830267,0.14168135306536087,0.001970352566908658,-0.013116041250702487,0.08546551304353943
1846,10.0,299.62101,-1871.0159,0.0,0.018460015538977137,0.0,0.0,0.0,0.0,0.11278593254360489,0.31803198035981267,0.13792420142955886,0.0026217073227673676,-0.008826377747370662,0.07026983169134243
1847,10.0,300.23056,-2021.6222,0.0,0.01847001152639627,0.0,0.0,0.0,0.0,0.12211315302662988,0.3324766407378897,0.15993286499664486,0.0036684735069251466,0.016185789833163086,0.08479291965365962
1848,10.0,300.1665,-2255.3064,0.0,0.01848000751381562,0.0,0.0,0.0,0.0,0.15476438769405584,0.34153319172170166,0.1892592410509328,-0.007224327710285633,0.012450629777531488,0.057130865657127446
1849,10.0,300.27974,-2226.8579,0.0,0.018490003501234975,0.0,0.0,0.0,0.0,0.12445454096020689,0.35079729685599764,0.2016573692745328,-0.011967291241329689,-0.0045220251573391355,0.08199578195760363
1850,10.0,300.26003,-2024.8775,0.0,0.018499999488654106,0.0,0.0,0.0,0.0,0.1200639661568909,0.3241837459569447,0.17126450695999085,-0.0009333396546359523,-0.004507953747900396,0.06325408191944183
1851,10.0,300.62389,-1995.8485,0.0,0.018509995476073682,0.0,0.0,0.0,0.0,0.1123235155954679,0.3334476180437177,0.16091697402376884,0.0025385556625859376,0.013012297612713787,0.08655181036974861
1852,10.0,300.23745,-2226.0082,0.0,0.018519991463492813,0.0,0.0,0.0,0.0,0.13225225028478088,0.3725405902218937,0.17185806886857083,-0.0025251109483340473,-0.007516130668159342,0.087220934391286
1853,10.0,300.73567,-2147.9641,0.0,0.01853002044096952,0.0,0.0,0.0,0.0,0.1219435957548959,0.3596184495765776,0.17136540640494882,-0.006214768475099894,-0.014508064503084485,0.09829826780478372
1854,10.0,299.78996,-1896.5998,0.0,0.018540016428388872,0.0,0.0,0.0,0.0,0.09103424237413021,0.33305339282731067,0.15243135907380387,-0.008882517477111222,-0.009472165605854961,0.08310580352165423
1855,10.0,299.59311,-1720.2582,0.0,0.018550012415808226,0.0,0.0,0.0,0.0,0.05905141941342135,0.31768784009584866,0.14617626223147387,0.01048281601007339,0.013919841409281387,0.0971790813935786
1856,10.0,299.25167000000005,-1948.3106,0.0,0.01856000840322758,0.0,0.0,0.0,0.0,0.11566149579740088,0.3269430083642627,0.14963324865765187,0.0016810707779337682,0.006374203682309925,0.07350255344638723
1857,10.0,300.12323,-2122.8358,0.0,0.018570004390646933,0.0,0.0,0.0,0.0,0.13285061499883485,0.34045871091815866,0.17197973994057883,0.0025504785765126377,-0.0035248935359549066,0.07219063369391084
1858,10.0,299.82653,-2091.1023,0.0,0.018580000378066064,0.0,0.0,0.0,0.0,0.12085074472703988,0.3371754259566237,0.17761670355940382,0.004695969802006136,-0.0039912308500538165,0.07303563057505554
1859,10.0,300.10933,-2071.1408,0.0,0.018589996365485417,0.0,0.0,0.0,0.0,0.11890983376298689,0.3368141718984707,0.17385108115276582,0.004289104797226686,0.018170041556993484,0.07285531562700984
1860,10.0,300.35537,-2142.4909,0.0,0.01859999235290477,0.0,0.0,0.0,0.0,0.12950056698821086,0.3424255610847717,0.17933759739674282,-0.003020813162256047,0.0005544278288452665,0.07299107391515813
1861,10.0,300.5415,-2285.6746,0.0,0.018609988340324124,0.0,0.0,0.0,0.0,0.13400605448536787,0.3555941444194096,0.2051877960679588,-0.023983734231760274,-0.00902426984887609,0.07135045684349184
1862,10.0,300.04832000000005,-2227.3313,0.0,0.01862001731780083,0.0,0.0,0.0,0.0,0.15481431052648287,0.3429164402282177,0.17932233785023682,-0.013550084156289185,0.006196326715329834,0.06022606910860025
1863,10.0,299.9868,-2012.2471,0.0,0.018630013305220183,0.0,0.0,0.0,0.0,0.10751772103367288,0.3471645014049687,0.15699065015127084,-0.01029103816364639,0.007472656159368743,0.07080921106407503
1864,10.0,299.93682,-1883.2969,0.0,0.018640009292639537,0.0,0.0,0.0,0.0,0.1015393529261539,0.32468470693888574,0.14625117181136688,0.0017179565266241083,0.0027795542604456473,0.08432697558192451
1865,10.0,299.66839,-2007.7371,0.0,0.01865000528005889,0.0,0.0,0.0,0.0,0.1074431458263129,0.3531504384907347,0.14970837102006584,-0.008529960955166602,-0.014696308133162686,0.0983966006872384
1866,10.0,299.47927999999996,-2173.0901,0.0,0.01866000126747802,0.0,0.0,0.0,0.0,0.12253489811575288,0.36297464801530865,0.17505558220914083,0.012989807513494187,-0.005086555728028965,0.08084521012455102
1867,10.0,299.84549,-2140.8581,0.0,0.018669997254897375,0.0,0.0,0.0,0.0,0.11270785149089889,0.35922873332311567,0.17883083049172882,0.01170660326885179,0.016137226782370284,0.09194105156437532
1868,10.0,300.15021,-2020.2956,0.0,0.018679993242316728,0.0,0.0,0.0,0.0,0.1248932275910019,0.3490908114350807,0.14013536646028385,0.013466210352761488,-0.0028507292031200674,0.08460905731701382
1869,10.0,299.95989,-2147.8443,0.0,0.01868998922973608,0.0,0.0,0.0,0.0,0.11979792721063488,0.3549307695789397,0.17816234887075483,-4.869611282243215e-05,-0.011913028658724387,0.08332931332146291
1870,10.0,299.9872,-2331.3183,0.0,0.018700018207212787,0.0,0.0,0.0,0.0,0.13534570284008088,0.37908009623479266,0.1942367409746738,-0.0013798557398811587,-0.012610837790592789,0.07423310271548683
1871,10.0,300.07397000000003,-2245.8036,0.0,0.01871001419463214,0.0,0.0,0.0,0.0,0.12944475717270287,0.36343987166622266,0.18978359797768282,0.013498462103444487,0.0008395333454129901,0.08207469590189181
1872,10.0,299.72225,-2046.464,0.0,0.018720010182051494,0.0,0.0,0.0,0.0,0.1122905849672179,0.33909931431899665,0.17068405650770485,-0.007402383110608332,-0.004685850777232465,0.0888938903531439
1873,10.0,300.29283,-1908.8554,0.0,0.018730006169470848,0.0,0.0,0.0,0.0,0.1047207555901339,0.3397520399009157,0.13577158198961187,-0.007218720688207263,0.0002566594522003158,0.08204348374581141
1874,10.0,300.26349,-1987.1270000000002,0.0,0.01874000215688998,0.0,0.0,0.0,0.0,0.12916980162556688,0.3289222708446007,0.14594492710114285,-0.01014568642355129,0.014764322546125185,0.07637314772169283
1875,10.0,300.14485,-2249.6652,0.0,0.018749998144309332,0.0,0.0,0.0,0.0,0.1351647769022249,0.37200557390409167,0.17667167558863683,0.007299617968241202,0.03099631253084787,0.07584012750658783
1876,10.0,300.43688,-2222.4745,0.0,0.018759994131728686,0.0,0.0,0.0,0.0,0.13044296050871787,0.3633503712848897,0.1817834311506278,0.00040664282943002263,0.003945704915110757,0.07968422613347083
1877,10.0,300.58218999999997,-2086.8539,0.0,0.01876999011914804,0.0,0.0,0.0,0.0,0.1157721528408219,0.3489183056055557,0.16966100827923783,0.009949681399032101,-0.026143458581408475,0.07638699581080953
1878,10.0,299.74573,-2111.58,0.0,0.018780019096624745,0.0,0.0,0.0,0.0,0.11484871722968588,0.3485655527157417,0.17845333403447283,-0.0011697277314931388,-0.012056770344410588,0.07533011009525302
1879,10.0,299.65321,-2288.3126,0.0,0.018790015084044098,0.0,0.0,0.0,0.0,0.15172940980202687,0.35610448809727663,0.18775600346757482,0.012015150083302988,-0.004864428102681675,0.07335025891660693
1880,10.0,299.34731,-2310.2627,0.0,0.01880001107146345,0.0,0.0,0.0,0.0,0.15782544664365886,0.34603451476094765,0.1984022222682748,-0.01032998851074049,0.00980432884833692,0.06933991026631633
1881,10.0,299.73756000000003,-2113.2798,0.0,0.018810007058882805,0.0,0.0,0.0,0.0,0.12180967448917887,0.3500144395637357,0.17056017655047884,-0.009658658339760361,-0.000817718567252539,0.07734320195667974
1882,10.0,299.92439,-1904.4645,0.0,0.018820003046301936,0.0,0.0,0.0,0.0,0.0966181714694711,0.3226020017558387,0.15968949245512584,-0.0037016792325772967,0.004307275309944976,0.07448616800746244
1883,10.0,300.18392,-1983.7721,0.0,0.01882999903372129,0.0,0.0,0.0,0.0,0.09345196451724082,0.34493617191754966,0.16462904616262183,-0.010296448919180391,0.01090928183141229,0.08956240845112151
1884,10.0,300.33406,-2255.8426,0.0,0.01883999502114042,0.0,0.0,0.0,0.0,0.12465445520493688,0.38577602779812964,0.17528933900721083,0.0037786975885784166,-0.011877932715010689,0.09963893954209772
1885,10.0,300.42626,-2109.9065,0.0,0.018849991008559996,0.0,0.0,0.0,0.0,0.13697525218090487,0.3336585564495357,0.17072508300425385,0.004955340650679045,-0.01941236723960148,0.08619989037151683
1886,10.0,300.26865,-1862.9149,0.0,0.018860019986036702,0.0,0.0,0.0,0.0,0.09217043416176361,0.3410339431324297,0.13307524241350388,0.01025364720845619,0.0035671896348792066,0.09416163272827961
1887,10.0,300.89755,-1918.4225,0.0,0.018870015973456056,0.0,0.0,0.0,0.0,0.09270541602906221,0.3343108564664127,0.15613626753444984,0.008208947618110052,0.007140771459339273,0.08552541537620133
1888,10.0,300.31397999999996,-2261.4152,0.0,0.01888001196087541,0.0,0.0,0.0,0.0,0.13299024086261488,0.35825913403742365,0.19616437836241682,-0.002992424123604267,0.00968551129126054,0.08056112114101362
1889,10.0,300.00015,-2294.0056,0.0,0.018890007948294762,0.0,0.0,0.0,0.0,0.1292320455792099,0.37402112087051065,0.19406724449794582,-0.004924571386217355,-0.012435000394738988,0.07838308736205843
1890,10.0,300.25818,-2102.1069,0.0,0.018900003935713894,0.0,0.0,0.0,0.0,0.1197862444369819,0.33626729042199766,0.18293448326422784,0.007698084446916783,0.0013442623916933686,0.07960289254794384
1891,10.0,300.17535,-2024.0512,0.0,0.018909999923133247,0.0,0.0,0.0,0.0,0.12846398173840787,0.33186523549504865,0.15493181714057985,0.013101213348739088,0.005270917596974066,0.07790922372754172
1892,10.0,299.69423,-2125.2913,0.0,0.0189199959105526,0.0,0.0,0.0,0.0,0.1260279967754949,0.35376890608677264,0.16623858381397083,-0.006829235050468024,-0.00028325873653796077,0.08671985181933302
1893,10.0,299.63372000000004,-2229.2528,0.0,0.018929991897971954,0.0,0.0,0.0,0.0,0.13396287989860686,0.3504971316463737,0.1931771853451038,-0.005346834144816444,-0.015493029726542986,0.07530266925604483
1894,10.0,299.25907,-2139.4715,0.0,0.018939987885391307,0.0,0.0,0.0,0.0,0.11737653304916187,0.35271966534322063,0.18024972513676285,-0.004180348914968316,0.01806795660941848,0.07565171567699303
1895,10.0,300.00087,-1921.3261,0.0,0.018950016862868013,0.0,0.0,0.0,0.0,0.08494182992810592,0.32597287205601766,0.17312045690315883,-0.00016915553833435183,0.004357513161828066,0.07204376309191583
1896,10.0,300.54001,-1936.7797,0.0,0.018960012850287367,0.0,0.0,0.0,0.0,0.11033542770675889,0.3307523018502107,0.14764491758891887,-0.01110122686410579,-0.0039914520425506465,0.0860848844586666
1897,10.0,300.37607,-2269.2335,0.0,0.018970008837706498,0.0,0.0,0.0,0.0,0.14889676782246686,0.35656986373570565,0.18432367954883083,-0.010650919267913889,-0.019569427084602083,0.07121885186750343
1898,10.0,300.00378,-2350.4801,0.0,0.01898000482512585,0.0,0.0,0.0,0.0,0.15770501173677284,0.3605136256424246,0.19626862153270483,-0.006436742187756994,0.0005309541677535965,0.08183116529335722
1899,10.0,300.21524,-2160.8174,0.0,0.018990000812545205,0.0,0.0,0.0,0.0,0.12416651448678089,0.35193517671829766,0.18073285291694383,0.0048300635228901555,0.008163386016763472,0.06705632115819364
1900,10.0,299.99489,-2038.9919,0.0,0.018999996799964558,0.0,0.0,0.0,0.0,0.09867298289051521,0.3585758760186836,0.16255375797030686,-0.003096459780271787,0.0027076031681946273,0.0918734049611991
1901,10.0,300.19337,-2190.835,0.0,0.01900999278738391,0.0,0.0,0.0,0.0,0.1086133990293079,0.36253386395680665,0.19481188199643582,-0.005398899291929875,-0.0022438597743517177,0.06044264219822435
1902,10.0,299.58202,-2339.5009,0.0,0.019019988774803265,0.0,0.0,0.0,0.0,0.14967990882475685,0.38527109487579664,0.17619883229697084,-6.739164817278783e-05,0.01421492212990359,0.1013566234031199
1903,10.0,299.96415,-2156.4942,0.0,0.01903001775227997,0.0,0.0,0.0,0.0,0.13269758383623187,0.34991291190371565,0.17290990353237884,0.016998803474901285,0.016528126511949084,0.07387095497074563
1904,10.0,300.02432999999996,-1878.5357,0.0,0.019040013739699324,0.0,0.0,0.0,0.0,0.09539873814637241,0.34904691744074867,0.12658229524269987,0.006603614042750963,0.0009374313713222731,0.11948102310935887
1905,10.0,300.21898999999996,-1814.9407,0.0,0.019050009727118455,0.0,0.0,0.0,0.0,0.07597010317641543,0.3356153146451527,0.14011122071040086,-0.008526311025656381,-0.015576762688306786,0.08445676886673412
1906,10.0,299.68362,-2057.8016,0.0,0.01906000571453781,0.0,0.0,0.0,0.0,0.11032947992867188,0.3390343345900837,0.17615648857529181,-0.011392421770594489,-0.003048641468302487,0.09606975795884691
1907,10.0,300.54124,-2283.346,0.0,0.019070001701957384,0.0,0.0,0.0,0.0,0.12613949481649886,0.3671732321896767,0.2007674418442038,0.004285378772633956,0.010933494455801888,0.06250282587129864
1908,10.0,301.16071,-2102.7471,0.0,0.019079997689376516,0.0,0.0,0.0,0.0,0.12670243630705688,0.34139532891309565,0.17108483745225883,0.013968072114041387,0.012749591246036687,0.07484667631354183
1909,10.0,300.9039,-2091.0413,0.0,0.01908999367679587,0.0,0.0,0.0,0.0,0.1194469171109929,0.34928128218887866,0.16689614259886684,0.008752461861850731,-0.008261539857925502,0.06720989744935044
1910,10.0,300.12412,-2395.2428,0.0,0.019099989664215,0.0,0.0,0.0,0.0,0.16940377447635083,0.36863024530347266,0.1900599720749588,0.008578958892902321,0.0001001978766682605,0.06931594994120165
1911,10.0,300.1271,-2502.6961,0.0,0.019110018641691928,0.0,0.0,0.0,0.0,0.16691201009543286,0.38695015161650664,0.2068949704989438,0.01001937567933539,0.003123510720841507,0.06468754507441364
1912,10.0,299.96747,-2224.3526,0.0,0.01912001462911128,0.0,0.0,0.0,0.0,0.13571459680398787,0.3589999819805397,0.18143306953104982,0.004228656930710946,0.005967352153756805,0.08004008260834113
1913,10.0,300.10002000000003,-1933.0251,0.0,0.019130010616530413,0.0,0.0,0.0,0.0,0.08761630356705592,0.34205924077611866,0.15791581842007785,-0.00912607108642309,0.003950702467253976,0.08206860626879083
1914,10.0,300.22003,-1828.0615,0.0,0.019140006603949766,0.0,0.0,0.0,0.0,0.09566187311784181,0.32593120721190566,0.13409197809384787,-0.014225911840488187,0.007896939237342223,0.08284331399049852
1915,10.0,299.73216,-2037.4074,0.0,0.01915000259136934,0.0,0.0,0.0,0.0,0.0988441937864124,0.35288681107971664,0.16758997573734286,0.0026418458711548872,0.005206062092523326,0.09082377107660831
1916,10.0,299.67703,-2242.8115,0.0,0.019159998578788473,0.0,0.0,0.0,0.0,0.13812411567428887,0.37114122090628665,0.17249336654876984,-0.0047577806925563956,-0.012680991174516387,0.08862485826609252
1917,10.0,299.90903,-2097.1682,0.0,0.019169994566207826,0.0,0.0,0.0,0.0,0.11535230252938589,0.3555692589969537,0.16656518471870385,0.005571768675590755,-0.028535809955265175,0.08749532049186583
1918,10.0,299.54416000000003,-2020.2228,0.0,0.019179990553626958,0.0,0.0,0.0,0.0,0.0971639768743379,0.35881110202939864,0.15812220733294685,0.010198457502009392,-0.013539311281225987,0.09287625303567251
1919,10.0,299.98935,-2256.2263,0.0,0.019190019531103886,0.0,0.0,0.0,0.0,0.13791685536633386,0.36557370544931567,0.18234590654613983,0.013799566595911186,0.001131135264334359,0.08439076372871991
1920,10.0,300.43172999999996,-2536.2803,0.0,0.01920001551852324,0.0,0.0,0.0,0.0,0.17159360045996985,0.39284482526576564,0.2065274444226718,0.0011301714608392389,0.006985411240056414,0.07607412545818162
1921,10.0,300.08657999999997,-2297.5367,0.0,0.01921001150594237,0.0,0.0,0.0,0.0,0.15102354938486387,0.36394055907063666,0.18342966872059882,-0.01131625981357789,0.008466976822325552,0.07733753687537062
1922,10.0,300.03799,-1900.0418,0.0,0.019220007493361724,0.0,0.0,0.0,0.0,0.08785123370874173,0.34781908123457067,0.14189494618644086,-0.00039470007606636463,0.004639101038818626,0.06806026354277503
1923,10.0,300.82577000000003,-1883.8041,0.0,0.019230003480781077,0.0,0.0,0.0,0.0,0.08820915518731581,0.3361459334575207,0.14827430802103486,0.0009793282902371772,0.006571704263976713,0.08961478740179091
1924,10.0,299.7554,-2190.9979,0.0,0.01923999946820043,0.0,0.0,0.0,0.0,0.11742571620901587,0.3668308347158846,0.18175210145753581,0.0008128186721539571,-0.007093292687478483,0.08625208896366841
1925,10.0,299.85117,-2179.1037,0.0,0.019249995455619784,0.0,0.0,0.0,0.0,0.13510064830339588,0.36606139285494665,0.16123106128976683,0.0031518458545879667,-0.02166741207915708,0.10489262307209589
1926,10.0,299.71342999999996,-2060.6039,0.0,0.019259991443038915,0.0,0.0,0.0,0.0,0.11613263682889888,0.34604130353661766,0.16419820208760083,0.018237035627105283,0.0038215704294596365,0.07835081939937383
1927,10.0,300.0288,-2045.4272,0.0,0.019270020420515843,0.0,0.0,0.0,0.0,0.10931713162126089,0.3551101148466397,0.15733154801491486,0.0003507140583602826,0.014669025360970088,0.09467561296075551
1928,10.0,299.43424,-2246.6747,0.0,0.019280016407935197,0.0,0.0,0.0,0.0,0.13667903864667086,0.36159742834688763,0.18465655247168283,0.003814410500278007,-0.0007519280254770183,0.05768020933134345
1929,10.0,299.90855,-2510.6034,0.0,0.019290012395354328,0.0,0.0,0.0,0.0,0.16346529802526885,0.37558530544738367,0.2241101302279478,-0.01984449510249918,-0.001178641697922879,0.07486507288235743
1930,10.0,299.6509,-2387.6117,0.0,0.01930000838277368,0.0,0.0,0.0,0.0,0.15379717967859985,0.36590274828678965,0.2060744203029618,0.002572021185563728,-0.0013003966670391588,0.052178835801150146
1931,10.0,300.04436,-2058.5759,0.0,0.019310004370193035,0.0,0.0,0.0,0.0,0.1140718583780159,0.35100185178618565,0.16068197092807585,-0.001890351607913178,0.01038970947163449,0.08285415070031803
1932,10.0,299.6786,-2064.9775,0.0,0.019320000357612388,0.0,0.0,0.0,0.0,0.11541169925024788,0.35054258604585964,0.16174732234821784,-0.01200867136216359,-0.009527391890630371,0.08708230860535472
1933,10.0,300.4918,-2256.8463,0.0,0.01932999634503174,0.0,0.0,0.0,0.0,0.13822180311642984,0.37414863839559565,0.17365449036836383,-0.01026188594501929,-0.013024893324706886,0.0937625489776431
1934,10.0,300.13034,-2176.1911,0.0,0.019339992332451095,0.0,0.0,0.0,0.0,0.11154186407082489,0.35799500000135565,0.19197090096855282,-0.01012505016671465,0.007967329113839162,0.07871216667653602
1935,10.0,300.46719,-1895.1742,0.0,0.019349988319870226,0.0,0.0,0.0,0.0,0.06774836388374293,0.3565040430092096,0.15183322740727287,0.009571684700201732,0.00998393624383779,0.09003642508640332
1936,10.0,300.37415,-1918.9334,0.0,0.019360017297347154,0.0,0.0,0.0,0.0,0.07187175578144002,0.3481453578992717,0.16329073529804086,-0.0006040301803981375,-0.008661422049640802,0.10085517910088121
1937,10.0,300.46394,-2150.2862,0.0,0.019370013284766507,0.0,0.0,0.0,0.0,0.13003026374298787,0.35727913880570566,0.16632388933988984,-0.013707703315344988,-0.012119739785125188,0.08821766243515541
1938,10.0,300.73334,-2389.2798,0.0,0.01938000927218564,0.0,0.0,0.0,0.0,0.15430328797104886,0.38819910395476864,0.18377899682507481,0.002165429049036208,-0.012081328487084288,0.08663233842144612
1939,10.0,300.35407000000004,-2375.4353,0.0,0.019390005259604992,0.0,0.0,0.0,0.0,0.16009612998525782,0.37057147037505667,0.19140541622024382,0.002120947774946248,0.014350440277778185,0.07196441648983494
1940,10.0,299.62161000000003,-2143.2477,0.0,0.019400001247024345,0.0,0.0,0.0,0.0,0.12083218198520788,0.35621035246772464,0.17445125958449884,0.009215759222999621,0.0038807757473777464,0.07603812164237833
1941,10.0,299.33347000000003,-2076.3378,0.0,0.0194099972344437,0.0,0.0,0.0,0.0,0.0922352416381596,0.3576747015122446,0.1812449089874798,-0.005392335559107084,-0.012810311271529288,0.07375382832543613
1942,10.0,299.72893,-2261.842,0.0,0.01941999322186283,0.0,0.0,0.0,0.0,0.14118724165409585,0.35173448227099063,0.19462176588017283,0.0031895002548041665,0.0069976275912120725,0.05929590146379985
1943,10.0,300.28321,-2310.4456,0.0,0.019429989209282184,0.0,0.0,0.0,0.0,0.13778295436561885,0.3791692926410956,0.1853655235666528,0.005402833742068175,0.01251988846161679,0.08233563820014483
1944,10.0,299.95096,-2035.8748,0.0,0.01944001818675911,0.0,0.0,0.0,0.0,0.12554976299329687,0.3466342980251417,0.14667102212280286,0.0018204583252902484,-0.0062138180465060935,0.09430222928565542
1945,10.0,300.02547999999996,-1931.9399,0.0,0.019450014174178465,0.0,0.0,0.0,0.0,0.0982472830862519,0.3413724801233407,0.14764172585110386,-0.02022374954867868,-0.015739605151628085,0.08613817938742642
1946,10.0,300.82308,-2100.6787,0.0,0.019460010161597596,0.0,0.0,0.0,0.0,0.12090685851757789,0.34840740464013364,0.16923959756264784,-0.004940231470487885,-0.015064488768999287,0.07353939319352303
1947,10.0,300.80494,-2363.2182,0.0,0.01947000614901695,0.0,0.0,0.0,0.0,0.12335125345632089,0.37394344511784466,0.22106462466737978,-0.007015700325295713,0.015165036616172585,0.07372448156278984
1948,10.0,300.65099,-2282.1552,0.0,0.01948000213643608,0.0,0.0,0.0,0.0,0.13080049593900386,0.3608787705809616,0.2020389389971908,0.011105231228500989,-0.006082783125023954,0.08948827704730532
1949,10.0,300.4403,-2059.6279999999997,0.0,0.019489998123855656,0.0,0.0,0.0,0.0,0.1149030882300519,0.35764926893473464,0.15352313605655388,0.0006323382806319295,-0.006616609380583503,0.08327015066137403
1950,10.0,299.76796,-2112.9315,0.0,0.01949999411127501,0.0,0.0,0.0,0.0,0.13281249653007288,0.3498708924220687,0.15959502714830284,0.014039495100340287,-0.002932211229786717,0.08307595216045813
1951,10.0,299.81817,-2364.1658,0.0,0.01950999009869414,0.0,0.0,0.0,0.0,0.16603998679437085,0.3856506178332526,0.16695675521984885,0.007429063302966463,0.01187754362697229,0.08477527288991801
1952,10.0,300.0553,-2334.0479,0.0,0.019520019076170847,0.0,0.0,0.0,0.0,0.1272466428032659,0.3880562458231696,0.1941894019300018,0.005871798818976425,-0.0013035616550515188,0.09085791861822841
1953,10.0,300.08987,-1983.4467,0.0,0.019530015063590422,0.0,0.0,0.0,0.0,0.09003758525776782,0.3515108782389227,0.16136979549345884,-0.020866849254647678,-0.016999336444453884,0.08386760750333842
1954,10.0,300.41548,-1898.8505,0.0,0.019540011051009554,0.0,0.0,0.0,0.0,0.05752900809842105,0.3621730253311946,0.15750110528664885,0.002968775676870347,-0.0035137375510288973,0.09822085144414332
1955,10.0,299.8772,-2095.5692,0.0,0.019550007038428907,0.0,0.0,0.0,0.0,0.11357912498688688,0.35067755095917963,0.17274402435850783,-0.015363519138511287,0.017063486321534985,0.08487403336391491
1956,10.0,299.8293,-2292.1497,0.0,0.01956000302584804,0.0,0.0,0.0,0.0,0.14480602385624186,0.3808254600620466,0.17112478990370183,0.00964807555041592,0.001963155755423388,0.1028331415813409
1957,10.0,300.06192999999996,-2243.9084,0.0,0.019569999013267392,0.0,0.0,0.0,0.0,0.15310307296259687,0.3542364906104197,0.17475256976673584,-0.011024433652276887,-0.015416060209196685,0.07992361761534693
1958,10.0,300.48703,-2169.9514,0.0,0.019579995000686967,0.0,0.0,0.0,0.0,0.12507263365370788,0.35339431765730367,0.1811440906025298,0.009911182454857552,0.002064178512918558,0.06912438994354614
1959,10.0,300.18498999999997,-2250.0463,0.0,0.0195899909881061,0.0,0.0,0.0,0.0,0.12825687341796788,0.37267013424717865,0.18303087374624083,0.015649165487452384,0.015778648717731384,0.06918987528425903
1960,10.0,300.52977999999996,-2404.0184,0.0,0.019600019965583027,0.0,0.0,0.0,0.0,0.13951850993190487,0.37465465549553567,0.2165884099656118,0.003087004434313617,-0.008250597972745622,0.07033236239476373
1961,10.0,300.56126,-2370.5854,0.0,0.019610015953002158,0.0,0.0,0.0,0.0,0.14571024824548184,0.38661280012821264,0.1882757298413678,0.0005012862048255965,-0.015950107859903084,0.07403290172097853
1962,10.0,301.06906000000004,-2048.496,0.0,0.01962001194042151,0.0,0.0,0.0,0.0,0.12504767730374486,0.3489676711504277,0.14867627446820586,-0.001974774390345058,-0.0022712631233062176,0.06709645903440493
1963,10.0,300.35598999999996,-1942.4083,0.0,0.019630007927840865,0.0,0.0,0.0,0.0,0.11225475644368188,0.3397703290652207,0.13841854588834687,0.006293211663391634,0.023695373385801275,0.09108487042862683
1964,10.0,299.7629,-2082.6493,0.0,0.019640003915259996,0.0,0.0,0.0,0.0,0.10885146214030289,0.36556180989314163,0.15866012154603484,-0.006610927175347714,0.0028838249911363675,0.09289953954947072
1965,10.0,299.23342,-2260.2356,0.0,0.01964999990267935,0.0,0.0,0.0,0.0,0.12299434624109688,0.3772133045155546,0.18684752342791483,-0.015203921102010185,4.165727310725276e-05,0.08746058222543743
1966,10.0,299.93484,-2221.0115,0.0,0.019659995890098703,0.0,0.0,0.0,0.0,0.11961529901261088,0.36725429219767664,0.18826244613255683,-0.0018569255003642782,-0.003515441128422027,0.08895056244448701
1967,10.0,300.06172000000004,-2199.4554,0.0,0.019669991877518056,0.0,0.0,0.0,0.0,0.1260274698854429,0.37418672646685464,0.16836532484636385,0.008737379431462211,0.013890907039425787,0.09313516680722532
1968,10.0,299.89,-2279.8279,0.0,0.019680020854994984,0.0,0.0,0.0,0.0,0.13941628312931587,0.37512501632445666,0.17846944471106282,-0.0044206952837386555,0.0062896812973932134,0.08407918020371902
1969,10.0,299.98505,-2278.0222,0.0,0.019690016842414115,0.0,0.0,0.0,0.0,0.14228706384263987,0.36785122822908967,0.18232355424893382,-0.007502638027177723,-0.01958391048153148,0.07304085995882163
1970,10.0,300.19401,-2218.9506,0.0,0.01970001282983347,0.0,0.0,0.0,0.0,0.12732643624864087,0.36817695773873665,0.17900219134864084,-0.008147633625408832,-0.0035226757341360266,0.08577848269467711
1971,10.0,300.31142,-2145.6586,0.0,0.019710008817252822,0.0,0.0,0.0,0.0,0.1133559667848629,0.34863627757272164,0.19023441321217482,0.014889997982528384,0.006174536771929334,0.07208519488850484
1972,10.0,300.65706,-2124.2604,0.0,0.019720004804671953,0.0,0.0,0.0,0.0,0.1036533878022929,0.37129805175676467,0.17077068939125484,0.016503230956992083,0.007682008727455232,0.1032663363965939
1973,10.0,300.15238999999997,-2160.8934,0.0,0.01973000079209153,0.0,0.0,0.0,0.0,0.1128704578669469,0.36405717402464566,0.17993001433270983,-0.0020483202369284683,-0.01890954289072658,0.07420835509504443
1974,10.0,299.75874,-2249.2745,0.0,0.01973999677951066,0.0,0.0,0.0,0.0,0.1346655789754579,0.3684823513188767,0.1805753330563978,0.012502535540404187,-0.005072790826745475,0.08096249585012623
1975,10.0,299.75512000000003,-2303.188,0.0,0.019749992766930013,0.0,0.0,0.0,0.0,0.14391376595068286,0.37209104155002665,0.18410684402743083,0.0004299923471194406,0.014846049272690986,0.08029385514888651
1976,10.0,299.80172000000005,-2245.3273,0.0,0.019759988754349367,0.0,0.0,0.0,0.0,0.13464508092593486,0.3661226438234917,0.18175568836288983,-0.0039837925810697165,0.0038254269606652464,0.09206045498265951
1977,10.0,299.41528999999997,-2177.6188,0.0,0.019770017731826073,0.0,0.0,0.0,0.0,0.12784788514760387,0.36675307790321066,0.16734077700774883,-0.005218851436610535,-0.00930619787392522,0.0919554518747965
1978,10.0,299.94982000000005,-2190.0978,0.0,0.019780013719245426,0.0,0.0,0.0,0.0,0.1251744652887579,0.36110072301536666,0.17945985615380883,-0.016023691095415182,0.0032684651655723973,0.08470326424506132
1979,10.0,299.87833,-2240.7002,0.0,0.01979000970666478,0.0,0.0,0.0,0.0,0.13745316172307087,0.37500125795724265,0.16866250096819285,0.01137182847556209,0.008829290537433133,0.08194096614044373
1980,10.0,300.40039,-2185.3478,0.0,0.019800005694084133,0.0,0.0,0.0,0.0,0.13255839366999486,0.36002908944460466,0.17170366981833285,0.004783190167964115,-0.0025817703740508976,0.07627872395812393
1981,10.0,300.252,-2186.851,0.0,0.019810001681503486,0.0,0.0,0.0,0.0,0.1262016678426349,0.36410969077732863,0.17443673971056584,0.003136017165500797,-0.018141462837922985,0.07039856511654743
1982,10.0,299.93206000000004,-2134.3211,0.0,0.019819997668922618,0.0,0.0,0.0,0.0,0.10059371092582631,0.35694464468269366,0.19124197897911382,0.007143197788028733,-0.015958596869240883,0.08707433128731742
1983,10.0,299.46551,-2223.4341,0.0,0.01982999365634197,0.0,0.0,0.0,0.0,0.1071518262900619,0.37892211027920064,0.18979450054875882,-0.0023064141878253574,0.02189317332068798,0.096258182960693
1984,10.0,300.09719,-2290.7468,0.0,0.019839989643761324,0.0,0.0,0.0,0.0,0.12354492608043488,0.3747534575127866,0.19803145379168283,0.001061452535082209,0.014006728618606487,0.10351962865659191
1985,10.0,299.90207000000004,-2199.6451,0.0,0.01985001862123803,0.0,0.0,0.0,0.0,0.13116885288035787,0.3662842065519366,0.17118412582955783,-0.004959765615190755,-0.017748735205163783,0.09180005781296031
1986,10.0,299.71022999999997,-2038.6907,0.0,0.01986001460865716,0.0,0.0,0.0,0.0,0.1016006342922019,0.35849755178595366,0.15961287048256384,-0.010918936078365091,-0.0029348022116174274,0.09384562231359182
1987,10.0,299.99172999999996,-2106.7364,0.0,0.019870010596076737,0.0,0.0,0.0,0.0,0.11903678386801589,0.35017680275975965,0.17118167376431584,0.0054004893853118055,-0.0015391120071235286,0.06668207419400835
1988,10.0,300.18273,-2321.795,0.0,0.01988000658349609,0.0,0.0,0.0,0.0,0.13474003259280587,0.38184522536018967,0.18918243669335283,-0.01038662513833009,0.002310044764258668,0.08393711139394792
1989,10.0,300.32237000000003,-2401.3669,0.0,0.019890002570915444,0.0,0.0,0.0,0.0,0.16388742814942983,0.37472734605770963,0.1913408215263688,0.0017878706821990982,-0.017347740464838682,0.07656757116413093
1990,10.0,299.62791,-2411.7857,0.0,0.019899998558334575,0.0,0.0,0.0,0.0,0.14628862153506286,0.3952760580857096,0.19155794075779684,0.015171666311576884,0.01104845882539799,0.08491084271354772
1991,10.0,299.30807000000004,-2324.1691,0.0,0.019909994545753706,0.0,0.0,0.0,0.0,0.16073492337830186,0.3744122151441086,0.17134223337516183,0.013090034160385788,0.026701523299235176,0.09382491249479791
1992,10.0,299.65006,-2367.0331,0.0,0.019919990533173282,0.0,0.0,0.0,0.0,0.13304143025766688,0.3810701295636936,0.2054074078946328,0.0026515510845877177,0.0057077340720594946,0.0855840501329881
1993,10.0,299.87932,-2295.1386,0.0,0.019930019510649988,0.0,0.0,0.0,0.0,0.13869368382050087,0.3606209592255177,0.1983501716106378,-0.007996194177387924,-0.014580468315480186,0.07781993410222952
1994,10.0,300.09442,-2119.3193,0.0,0.01994001549806912,0.0,0.0,0.0,0.0,0.09475320461366321,0.3608513317682537,0.18861561445491182,-0.002171389898049498,0.004374103409690396,0.07094317285979602
1995,10.0,299.74078,-2047.7089999999998,0.0,0.019950011485488472,0.0,0.0,0.0,0.0,0.09859153379447681,0.35444753034124765,0.16941332942479384,0.007930535064282873,0.018174592063192583,0.09355341213050292
1996,10.0,299.98039,-2172.0772,0.0,0.019960007472908048,0.0,0.0,0.0,0.0,0.12291359020812688,0.3628499270604997,0.17449370463118782,-0.016782024695506884,0.01675494153358398,0.08656014435182112
1997,10.0,300.29429,-2345.6989,0.0,0.0199700034603274,0.0,0.0,0.0,0.0,0.15494366203424886,0.3858235998903246,0.17226664170639383,-0.01121365912170199,-0.00924919982002495,0.0964582238616855
1998,10.0,300.44622999999996,-2301.266,0.0,0.019979999447746533,0.0,0.0,0.0,0.0,0.14458080875651486,0.37205929642439367,0.18288727594206883,-0.01032755367075019,-0.0016827391955484285,0.08546229293472161
1999,10.0,300.06498,-2258.3962,0.0,0.019989995435165664,0.0,0.0,0.0,0.0,0.12229871964994389,0.38203730718164663,0.18216002581529483,0.0063917000797366836,0.003540874313882087,0.08307795940890622
2000,10.0,299.94858999999997,-2250.4421,0.0,0.01999999142258524,0.0,0.0,0.0,0.0,0.1208311383376049,0.37199880539342367,0.1912482408647318,-0.0028568949313035777,-0.017082566834168086,0.07798922184943693
2001,10.0,299.7691,-2271.052,0.0,0.020010020400061945,0.0,0.0,0.0,0.0,0.12440016995984086,0.3791032996620826,0.18683962007713484,-0.00907420646150445,-0.017194350611700285,0.09029248554567451
2002,10.0,300.24075,-2297.5703,0.0,0.020020016387481077,0.0,0.0,0.0,0.0,0.14968751833300786,0.38058922080123164,0.16812726173536885,-0.005152579003219955,0.008563271450879092,0.09641283937645641
2003,10.0,299.74482,-2304.1309,0.0,0.020030012374900652,0.0,0.0,0.0,0.0,0.14847890348122686,0.37485992983329464,0.1770594261369048,0.025727568051363274,0.03172212586898007,0.10655222541088591
2004,10.0,299.76172,-2131.2183,0.0,0.020040008362320005,0.0,0.0,0.0,0.0,0.11584975766598088,0.37130193250464766,0.16068544637591883,-0.0059113646141812646,0.018696026776654183,0.1048868171490229
2005,10.0,299.91933,-2030.7749,0.0,0.02005000434973936,0.0,0.0,0.0,0.0,0.1035435109614489,0.3421679827768507,0.17159338767744883,-0.002894645184979237,-0.02226399853928558,0.07218688061554043
2006,10.0,299.67658,-2268.2623,0.0,0.02006000033715849,0.0,0.0,0.0,0.0,0.11310304942740189,0.38029174070437266,0.19610030042609283,-0.023697122255473876,-0.006877439512050432,0.06772852951303543
2007,10.0,299.64564,-2321.9413,0.0,0.02006999632457762,0.0,0.0,0.0,0.0,0.13740682579599786,0.37089796995477964,0.1975073603099588,0.0019246223607454383,0.014379605668656587,0.05946362475285285
2008,10.0,299.96505,-2260.2213,0.0,0.020079992311996975,0.0,0.0,0.0,0.0,0.13721955691251586,0.38144298533549165,0.16838830535863183,-0.004655088706846486,0.004606440644370296,0.08407918932296993
2009,10.0,299.51338,-2320.8518,0.0,0.02008998829941655,0.0,0.0,0.0,0.0,0.14843780605717086,0.37541965932103566,0.1816235402848478,-0.006172678167270905,-0.01060519129090089,0.08196707962202092
2010,10.0,300.52416,-2345.0058,0.0,0.020100017276893256,0.0,0.0,0.0,0.0,0.15163519780772886,0.37889361768638863,0.18229439291105584,0.007406912338555333,0.0002363557845764998,0.08586703163416622
2011,10.0,300.06091000000004,-2360.9474,0.0,0.02011001326431261,0.0,0.0,0.0,0.0,0.13677955305659087,0.3862727331296506,0.1946167705571798,0.015205478467413883,0.00866777056814235,0.08142936400595252
2012,10.0,299.85056000000003,-2250.7844,0.0,0.02012000925173174,0.0,0.0,0.0,0.0,0.11897707303962288,0.36876266695904164,0.1964425256473678,0.014019174369584789,0.0003275229521914987,0.09263293419640882
2013,10.0,300.34801,-2074.9131,0.0,0.020130005239151316,0.0,0.0,0.0,0.0,0.1047430673573359,0.37021433011230964,0.15576436421774584,0.008858858593901271,-0.017519881524327683,0.08535571016995272
2014,10.0,300.21654,-2006.2976,0.0,0.020140001226570448,0.0,0.0,0.0,0.0,0.1073682362464199,0.35549458246458365,0.14700156457042488,0.0006213464827521235,0.011044775661284489,0.09845828532682621
2015,10.0,300.40229,-2239.0956,0.0,0.02014999721398958,0.0,0.0,0.0,0.0,0.13105736497185488,0.37045363952092764,0.1791181578225858,-0.004178448361755746,0.017388736563884684,0.10552216549172691
2016,10.0,299.99273,-2331.8351,0.0,0.020159993201409154,0.0,0.0,0.0,0.0,0.13969717632203787,0.3841969180472836,0.1849255399757298,-0.0035043878870561563,0.0054587739628640455,0.08489121504586061
2017,10.0,299.48927000000003,-2265.6192,0.0,0.020169989188828286,0.0,0.0,0.0,0.0,0.11780747844919288,0.38189618170771866,0.1889879838666618,-0.02176410045669948,-0.013902346633054787,0.07966411210573572
2018,10.0,299.37493,-2211.7241,0.0,0.020180018166305214,0.0,0.0,0.0,0.0,0.1120898601224079,0.3646568356988276,0.19556222409298882,-0.0017183693247148485,-0.012546180275211588,0.05679105095784035
2019,10.0,299.76135,-2310.0252,0.0,0.020190014153724567,0.0,0.0,0.0,0.0,0.14023930565554188,0.3809705473438656,0.18098013660384882,0.007907637334548042,0.0007296203315404203,0.07361937409016653
2020,10.0,299.65193,-2441.6891,0.0,0.0202000101411437,0.0,0.0,0.0,0.0,0.15708501413308384,0.3831222244612197,0.2020052686963678,0.011490177100492188,-0.007643073072487582,0.08621301398681201
2021,10.0,299.90145,-2363.3732,0.0,0.02021000612856305,0.0,0.0,0.0,0.0,0.16400860272888884,0.37938114297200365,0.17501669367030281,0.012183982881215489,-0.02120806325232288,0.09657709127066681
2022,10.0,299.76406000000003,-2221.6229,0.0,0.020220002115982405,0.0,0.0,0.0,0.0,0.1254904675974449,0.3842852734560036,0.16554213649023683,0.0029983030006844667,0.007913917357342832,0.09976923337245672
2023,10.0,300.00928999999996,-2066.2041,0.0,0.02022999810340176,0.0,0.0,0.0,0.0,0.1099452453582509,0.3478798559755687,0.17024935194980284,0.012921831604035487,0.003935009655005216,0.09162368035480321
2024,10.0,300.2641,-2152.5977,0.0,0.020239994090821112,0.0,0.0,0.0,0.0,0.09368148998289322,0.3848584285075696,0.17579603498471782,-0.01229484358790659,-0.0015222144405058686,0.0947532694616696
2025,10.0,299.85481,-2295.4904,0.0,0.020249990078240243,0.0,0.0,0.0,0.0,0.13062867911954687,0.36903245493066766,0.19811063928699782,-0.012271156840318887,-0.01159869618620219,0.07194792077820693
2026,10.0,299.51325,-2320.3451,0.0,0.02026001905571717,0.0,0.0,0.0,0.0,0.1222750298626059,0.37465004520758066,0.2084019165776678,0.01207696948515409,0.006149317483565384,0.09032270876965731
2027,10.0,299.45037,-2222.8104,0.0,0.020270015043136524,0.0,0.0,0.0,0.0,0.13211803517653486,0.3748224902420996,0.16873834273817784,0.0053459564675798245,0.014668674776435487,0.09083277988324741
2028,10.0,299.1017,-2363.0597,0.0,0.020280011030555656,0.0,0.0,0.0,0.0,0.14144556976709086,0.37682726635995567,0.20003829693974282,-0.0024802397756056075,0.008249517544163991,0.08626215256366161
2029,10.0,299.58932000000004,-2538.5614,0.0,0.02029000701797501,0.0,0.0,0.0,0.0,0.15463775169655786,0.4060587008798736,0.21096282514540982,-0.0004177229928510496,-0.0009734568301477092,0.08683754487144842
2030,10.0,300.57031,-2440.2073,0.0,0.020300003005394363,0.0,0.0,0.0,0.0,0.14230443094935388,0.39228053615257463,0.2071771302542908,-0.002225410516530918,0.01227506494595459,0.07514658618414063
2031,10.0,300.72877,-2298.2228,0.0,0.020309998992813716,0.0,0.0,0.0,0.0,0.12426603591160289,0.38089099707851465,0.1934453115865658,0.013899125510986887,0.0019274857042030282,0.08900638036599583
2032,10.0,300.3584,-2117.1353,0.0,0.02031999498023307,0.0,0.0,0.0,0.0,0.1091336624256539,0.36895612680063467,0.16546647710526985,-0.01023028166115019,-0.006723515169484284,0.08633906331250212
2033,10.0,300.58789,-2082.661,0.0,0.0203299909676522,0.0,0.0,0.0,0.0,0.11062765916809988,0.36513022614554763,0.15731905464118184,0.002913010241716727,-0.019376600524321583,0.0979014973041255
2034,10.0,299.95512,-2214.5639,0.0,0.02034001994512913,0.0,0.0,0.0,0.0,0.12353840074979089,0.36809973794861567,0.18153397910850883,0.00965706419337803,-0.008436424798685302,0.09089078439847201
2035,10.0,300.10504,-2264.8949,0.0,0.020350015932548482,0.0,0.0,0.0,0.0,0.12919218432027588,0.37322903286983766,0.18605026785173182,0.00984333360696139,0.011217410173572188,0.09960785505552991
2036,10.0,299.69286,-2182.7353,0.0,0.020360011919967613,0.0,0.0,0.0,0.0,0.11149899345909389,0.3635030478099577,0.18849498703050682,-0.0016970074794815987,-0.0034475899500506367,0.08498571784293732
2037,10.0,299.19117,-2326.1285,0.0,0.020370007907386967,0.0,0.0,0.0,0.0,0.13836871424842886,0.3837709477052436,0.18494532875018282,-0.008148728543466892,-0.00022713671840914878,0.07844531307719962
2038,10.0,298.81703,-2540.8953,0.0,0.02038000389480632,0.0,0.0,0.0,0.0,0.15256013302901286,0.3986373734374456,0.2211712084453988,-0.007474505442126253,0.006515322975412314,0.08643116166709151
2039,10.0,299.56764,-2537.83,0.0,0.020389999882225673,0.0,0.0,0.0,0.0,0.18098731041455682,0.3941111649757436,0.19633846486209783,0.0075223111897943125,-0.004292292786016316,0.07626529636779873
2040,10.0,300.13395,-2374.7583,0.0,0.020399995869645027,0.0,0.0,0.0,0.0,0.13705525840880087,0.4017806778976656,0.18303128917878184,-0.016175793107676487,-0.0034370117203316466,0.1045909785173259
2041,10.0,300.24296,-2206.8914,0.0,0.020409991857064158,0.0,0.0,0.0,0.0,0.14156605533648187,0.36266290135704166,0.16661090256321584,-0.012646097880822688,-0.008640520929228023,0.06927709686611713
2042,10.0,299.99387,-2156.1893,0.0,0.020420020834541086,0.0,0.0,0.0,0.0,0.1143505832155239,0.37433148950864165,0.16674564456151383,-0.0015102939583794086,0.012142539938875388,0.0945137776680336
2043,10.0,300.31748999999996,-2205.1238,0.0,0.02043001682196044,0.0,0.0,0.0,0.0,0.12143738613743689,0.37813250474127263,0.17073266211500182,-0.0011222718590846088,0.014100897043150186,0.07167288822406334
2044,10.0,300.55382000000003,-2248.1017,0.0,0.02044001280937957,0.0,0.0,0.0,0.0,0.1138700189580959,0.3770530691447406,0.19244370373021483,0.014374104733863685,-0.008913756382994263,0.0941379176096891
2045,10.0,301.02752999999996,-2229.3824,0.0,0.020450008796798924,0.0,0.0,0.0,0.0,0.11657853780040589,0.38363864763968664,0.17745938634887784,0.0005005887138542596,-0.01118271446364799,0.07748021059545143
2046,10.0,300.81638,-2148.6293,0.0,0.020460004784218278,0.0,0.0,0.0,0.0,0.1086216570176229,0.36964127638575367,0.17486671239050083,0.009171909811672022,0.004188075554930877,0.09907155494985122
2047,10.0,300.28009,-2407.4032,0.0,0.02047000077163763,0.0,0.0,0.0,0.0,0.14071564466005287,0.39537005729748664,0.1957047579845558,0.004710298576970276,-0.004779919801941355,0.08618298024059792
2048,10.0,300.20556,-2541.6322,0.0,0.020479996759056984,0.0,0.0,0.0,0.0,0.16620207641286786,0.4066300827437646,0.1997605752198338,-0.007100668945556463,-0.0010509392546946292,0.08196285842210432
2049,10.0,300.52868,-2400.1497,0.0,0.020489992746476116,0.0,0.0,0.0,0.0,0.15838175134606183,0.3770368774081426,0.19416694830778583,-0.017562008410485285,-0.004116370074504096,0.07438249732348093
2050,10.0,300.65432999999996,-2225.4253,0.0,0.02049998873389547,0.0,0.0,0.0,0.0,0.13795795279038986,0.36743346521285963,0.17108230432700886,0.00013913706179925886,0.005100232172578724,0.07262003895378984
2051,10.0,300.17663,-2278.6234,0.0,0.020510017711372397,0.0,0.0,0.0,0.0,0.13916422703443987,0.37274056526162963,0.18073983421013284,-0.01003217900627398,-0.003346512477050067,0.07910902229020263
2052,10.0,299.3093,-2304.7385,0.0,0.020520013698791528,0.0,0.0,0.0,0.0,0.12166417177481888,0.3842118533537576,0.1947069092860758,0.005424736662854824,-0.01210496051916659,0.08207444056286663
2053,10.0,299.52259,-2245.0406,0.0,0.02053000968621088,0.0,0.0,0.0,0.0,0.1260495688701239,0.3742888519444337,0.18209786292165983,-0.01247077116301929,-0.009896277849861579,0.09204025888166632
2054,10.0,299.85132999999996,-2269.0836,0.0,0.020540005673630235,0.0,0.0,0.0,0.0,0.1342357684155389,0.38072682016481163,0.17478215666965582,0.003702293971412966,0.01075423632761049,0.09000773997607232
2055,10.0,300.09864,-2176.8521,0.0,0.020550001661049366,0.0,0.0,0.0,0.0,0.12281184976558589,0.36463689493685963,0.17425994783311782,-0.012297482091166987,0.008783717182385391,0.08986526991926161
2056,10.0,299.58698,-2337.88,0.0,0.02055999764846894,0.0,0.0,0.0,0.0,0.12008694666915888,0.4062270422514876,0.1843431542157528,-0.002699735585143157,0.004558139417403336,0.0998588472378009
2057,10.0,300.31779,-2457.541,0.0,0.020569993635888073,0.0,0.0,0.0,0.0,0.13959295341675185,0.39626637833594663,0.2111717573160298,0.006289387353539204,-0.01109816684880379,0.08488956851444812
2058,10.0,300.93003,-2315.9186,0.0,0.020579989623307426,0.0,0.0,0.0,0.0,0.11700012076951288,0.38355889472431565,0.20342242055122978,0.024096881843927078,-0.003906256656917516,0.1017829585151959
2059,10.0,300.75898,-2167.2532,0.0,0.020590018600784132,0.0,0.0,0.0,0.0,0.12095314378214589,0.36980869569977665,0.16802901700567283,-0.002427415197542228,-0.018446875669814882,0.08609642335080542
2060,10.0,300.34893999999997,-2172.6662,0.0,0.020600014588203486,0.0,0.0,0.0,0.0,0.11995021870066487,0.3586749212159586,0.1818111435408628,-0.01174229297712409,-0.008261956506366623,0.09575447809748121
2061,10.0,299.70653,-2316.8568,0.0,0.02061001057562284,0.0,0.0,0.0,0.0,0.14874317937230885,0.3802163548969326,0.17530710128146385,-0.017736712992727284,0.006198718492190884,0.08317233858947072
2062,10.0,299.76429,-2320.2877,0.0,0.020620006563042192,0.0,0.0,0.0,0.0,0.13297361342847389,0.39057132508888864,0.18176458469876783,-0.0006086988315588974,0.02034413075330938,0.09089502383689041
2063,10.0,300.44262000000003,-2253.1352,0.0,0.020630002550461324,0.0,0.0,0.0,0.0,0.1098513069414799,0.38372556423326465,0.19131995870680982,-0.011891560928855687,0.004130085123882667,0.09188769482735941
2064,10.0,300.20065,-2346.6178,0.0,0.020639998537880677,0.0,0.0,0.0,0.0,0.097645565527617,0.4137651366354396,0.2019025251362278,-0.00961686096253528,-0.0025065737404045677,0.10052586065937999
2065,10.0,299.41733,-2465.6905,0.0,0.02064999452530003,0.0,0.0,0.0,0.0,0.14175118626225286,0.3992026048732296,0.20855454244023078,0.0070529940084763125,-0.00906854117754533,0.08899179969705683
2066,10.0,300.2724,-2399.5767,0.0,0.020659990512719384,0.0,0.0,0.0,0.0,0.14373312372285485,0.38716756469046365,0.19851072108898282,0.022856848133045275,0.011929831385132688,0.08797437601989491
2067,10.0,299.9761,-2337.7949,0.0,0.02067001949019609,0.0,0.0,0.0,0.0,0.15727680211201184,0.3698789949917146,0.18347546762511882,0.015926849717107686,0.013555967086369787,0.07520299989670823
2068,10.0,299.99813,-2236.0461,0.0,0.020680015477615443,0.0,0.0,0.0,0.0,0.12823023507283887,0.36983236522211266,0.18163956990142982,0.004468792340810466,0.0011556367663274687,0.07143594171467853
2069,10.0,299.28455,-2284.4476,0.0,0.02069001146503502,0.0,0.0,0.0,0.0,0.12593124152344587,0.3731365535332107,0.19534725295177283,-0.009193734914850992,-0.0057343489097861754,0.08280101991807443
2070,10.0,298.94863,-2476.0128,0.0,0.02070000745245415,0.0,0.0,0.0,0.0,0.13768467923841987,0.39507954836131565,0.21988184769314878,0.003768998049346147,-0.006200014236418764,0.08070358106532333
2071,10.0,299.78846,-2422.6862,0.0,0.02071000343987328,0.0,0.0,0.0,0.0,0.15321808698144787,0.3898342059061406,0.19338380730549581,-0.005768053053162515,-0.017556609813952483,0.08114023106341732
2072,10.0,300.38748,-2298.5172,0.0,0.020719999427292635,0.0,0.0,0.0,0.0,0.13049768614661889,0.4009696522526236,0.16722450655877386,-0.005100354775840825,-0.02293624945063158,0.0980069523215331
2073,10.0,299.9601,-2359.5861,0.0,0.020729995414711988,0.0,0.0,0.0,0.0,0.16261913286675883,0.39083885351279163,0.16379727928803284,0.005412777170599515,-0.0025122703337917777,0.08790224882477651
2074,10.0,300.2698,-2420.4799,0.0,0.02073999140213134,0.0,0.0,0.0,0.0,0.14935253784994784,0.39999041695848064,0.18642248527596683,0.01036246418969559,0.019223468036708585,0.1029045047858839
2075,10.0,299.83325,-2393.6158,0.0,0.020750020379608047,0.0,0.0,0.0,0.0,0.12574370919493788,0.3990034404335736,0.20285227485246082,0.005673959102501165,0.025099440128871876,0.09721551178767401
2076,10.0,300.02241000000004,-2146.4572,0.0,0.0207600163670274,0.0,0.0,0.0,0.0,0.07492176827845283,0.38798710163634564,0.18956052083566682,-0.01095854199827389,0.00907794211197313,0.101282535569058
2077,10.0,300.31737999999996,-2123.8596,0.0,0.020770012354446976,0.0,0.0,0.0,0.0,0.0967547575829511,0.37576373878999364,0.17308178114684183,-0.014536996846439885,0.005314253391825975,0.08352721626474442
2078,10.0,299.58721,-2375.083,0.0,0.020780008341866107,0.0,0.0,0.0,0.0,0.15325828261291485,0.37305525034518666,0.19565240335188883,-0.015042452605824486,-0.003182023380991257,0.08777312225853272
2079,10.0,299.27862999999996,-2434.2108,0.0,0.02079000432928524,0.0,0.0,0.0,0.0,0.17547021428256185,0.3890453197757836,0.17542376689797784,-0.008621892224814512,-0.009123460548865451,0.08321658722133772
2080,10.0,299.84387999999996,-2389.215,0.0,0.020800000316704592,0.0,0.0,0.0,0.0,0.15185810269722785,0.3928624558175056,0.18154114278671582,0.0003890957998957657,-0.014998254636462486,0.09317862915701472
2081,10.0,299.90608,-2362.9147,0.0,0.020809996304123946,0.0,0.0,0.0,0.0,0.12660120248956588,0.3938814713105746,0.1977843930197998,0.0032238949281236566,-0.01963278662660518,0.1001174864185766
2082,10.0,300.26455,-2412.3017,0.0,0.02081999229154352,0.0,0.0,0.0,0.0,0.1338327785857669,0.4010295859960386,0.19841710691224382,0.007723594436734422,-0.002926701378392937,0.09486833312977551
2083,10.0,299.88548,-2511.8197,0.0,0.020830021269020005,0.0,0.0,0.0,0.0,0.15560656064717185,0.39044438511636065,0.2174795127660568,0.005910967926767114,-0.005079303897063265,0.08260942344341533
2084,10.0,299.87814,-2320.0084,0.0,0.020840017256439358,0.0,0.0,0.0,0.0,0.15174734432879686,0.38214784263505563,0.17132943602639883,0.007856824969858253,0.017780529980051682,0.07838548065879462
2085,10.0,300.42786,-2032.1997,0.0,0.02085001324385871,0.0,0.0,0.0,0.0,0.1075025830771789,0.3562925979783416,0.15394278371796985,-0.004942630340099635,0.017272432677656383,0.07492844762311202
2086,10.0,300.04516,-2161.6853,0.0,0.020860009231278065,0.0,0.0,0.0,0.0,0.12355271797370389,0.36631770460024266,0.16722794147661285,0.001330718277606669,0.02096752477133358,0.08447496785178023
2087,10.0,299.83232000000004,-2503.6793,0.0,0.020870005218697196,0.0,0.0,0.0,0.0,0.13664184223549986,0.4028591407741016,0.22155500731827676,-0.008973480484963572,0.005127749005544425,0.08936948461883142
2088,10.0,299.87924,-2504.7638,0.0,0.02088000120611655,0.0,0.0,0.0,0.0,0.13564091325671587,0.4104450909602766,0.21529964703092078,0.0034211189938381566,-0.003606456217329517,0.1004519278525834
2089,10.0,299.518,-2327.0947,0.0,0.020889997193535903,0.0,0.0,0.0,0.0,0.13129267204257788,0.3899298769805826,0.18615612208967883,0.009727657733145071,-0.007825688807535352,0.07923635945676984
2090,10.0,300.18458,-2217.0421,0.0,0.020899993180955256,0.0,0.0,0.0,0.0,0.13908213351133789,0.37214226134258166,0.16270104400484287,0.007451630814493703,-0.0018131693080458782,0.09889420679809831
2091,10.0,299.54217,-2360.2039,0.0,0.02090998916837461,0.0,0.0,0.0,0.0,0.15986582837002886,0.38568319382396765,0.17189403924712082,0.002891829058976307,-0.0018662417270837184,0.08714344001038792
2092,10.0,299.18857,-2418.3661,0.0,0.020920018145851316,0.0,0.0,0.0,0.0,0.14316187358147686,0.4008997075982206,0.19106132661878483,-0.0063436985721493045,-0.010427363871850689,0.11571885588556188
2093,10.0,299.82091,-2226.0051,0.0,0.02093001413327067,0.0,0.0,0.0,0.0,0.1060811553068949,0.38640973467567163,0.18415906693758483,-0.00036223234099204865,-0.004065742729282566,0.09784048140960372
2094,10.0,300.03001,-2073.8918,0.0,0.020940010120690022,0.0,0.0,0.0,0.0,0.07782611391458942,0.37084448048200064,0.1817407327914138,-0.004840838627103576,0.0006194659108315254,0.1030851571462129
2095,10.0,299.37027,-2202.2629,0.0,0.020950006108109154,0.0,0.0,0.0,0.0,0.11501200248330089,0.3830274045168616,0.17139352409522385,-0.0035318078533122963,0.001034755117472379,0.0891308348360285
2096,10.0,300.21925,-2411.9859,0.0,0.020960002095528507,0.0,0.0,0.0,0.0,0.14475421637862887,0.3822075129334446,0.20622176713250379,-0.0013746322329656387,-0.003297972933659587,0.07632371124931382
2097,10.0,299.57489,-2504.9139999999998,0.0,0.02096999808294786,0.0,0.0,0.0,0.0,0.15518150223022187,0.3990067942914046,0.20724299151079079,-0.0003735289447669367,-0.007966258007158453,0.07863079053450482
2098,10.0,300.33132,-2394.1286,0.0,0.020979994070367214,0.0,0.0,0.0,0.0,0.13693078063401587,0.39114569604057464,0.1996788565992688,0.011611250354941188,-4.556203501762276e-05,0.08314845020511312
2099,10.0,300.30978999999996,-2389.7318,0.0,0.020989990057786567,0.0,0.0,0.0,0.0,0.13402718074995287,0.3901744248922176,0.2022172102197848,0.010039217852068662,0.00016926592180024585,0.0976316475242434
2100,10.0,300.38716,-2551.7584,0.0,0.021000019035263273,0.0,0.0,0.0,0.0,0.15836985578988785,0.40677659870822463,0.2105243918271398,-0.011008954230499189,0.009182296131822072,0.08420971214785151
2101,10.0,300.22841,-2528.619,0.0,0.021010015022682627,0.0,0.0,0.0,0.0,0.18267767502638282,0.38267688077726764,0.20328247044741782,-0.013501994293293088,0.01108475648373029,0.07846945173433192
2102,10.0,300.50453,-2368.2274,0.0,0.021020011010101758,0.0,0.0,0.0,0.0,0.16327906265688885,0.37449355886213664,0.18210936331029484,-0.0006558690383667344,0.01906769096633458,0.06896960991127053
2103,10.0,299.79651,-2227.4033,0.0,0.02103000699752111,0.0,0.0,0.0,0.0,0.12760123980826188,0.37628215807115767,0.17319158706017884,-0.0011435772662872889,0.01080601746072089,0.08355053925554622
2104,10.0,300.1515,-2167.616,0.0,0.021040002984940687,0.0,0.0,0.0,0.0,0.1055277079697739,0.37307568759970366,0.18029775319150282,0.002347037106859528,-0.00911779283310609,0.092680285400082
2105,10.0,299.80208999999996,-2439.3617,0.0,0.021049998972359818,0.0,0.0,0.0,0.0,0.11533626278030289,0.4231038777721016,0.2030648952534448,0.00936635412706218,-0.0066816182910993845,0.10600837355221189
2106,10.0,299.73256000000003,-2614.26,0.0,0.02105999495977917,0.0,0.0,0.0,0.0,0.14707430579510386,0.4259467029151666,0.22164875321752878,0.014368593666569788,0.003312783813021307,0.1005963088990827
2107,10.0,299.67319,-2300.1948,0.0,0.021069990947198525,0.0,0.0,0.0,0.0,0.13245061425685786,0.3925831534274406,0.17416802578404583,0.023399601628610874,0.013590216966249987,0.09522490901221681
2108,10.0,299.42079,-2074.1052,0.0,0.02108001992467523,0.0,0.0,0.0,0.0,0.10581320131794991,0.3730094007781617,0.15165358829704387,-0.017096543606047482,0.002964358717034427,0.09150635105947372
2109,10.0,299.79364,-2317.4436,0.0,0.021090015912094584,0.0,0.0,0.0,0.0,0.12753583451430686,0.38396776140466765,0.19294141217933483,-0.016349966746866087,0.005860279482564555,0.07903665495481052
2110,10.0,300.53502000000003,-2600.9352,0.0,0.021100011899513715,0.0,0.0,0.0,0.0,0.15625196043086786,0.4190590948304126,0.21530830018677477,-0.021797080734204378,-0.0018308076618116483,0.08549653977485153
2111,10.0,299.77802,-2487.2396,0.0,0.02111000788693329,0.0,0.0,0.0,0.0,0.14638363399693985,0.40554280459145864,0.2041323035712898,0.0014465252659859285,-0.009337529593517422,0.10769683325384989
2112,10.0,300.01412999999997,-2249.1337,0.0,0.021120003874352644,0.0,0.0,0.0,0.0,0.13402909579264188,0.38412376139006366,0.16552763688130584,-0.003916034520382516,-0.015786960408301687,0.10124183432579109
2113,10.0,301.10955,-2229.8133,0.0,0.021129999861771775,0.0,0.0,0.0,0.0,0.13999354184378687,0.38506440198789765,0.15274963106271486,0.006762274417609525,0.00038189687071778667,0.0997995619744499
2114,10.0,300.46804,-2450.4448,0.0,0.02113999584919113,0.0,0.0,0.0,0.0,0.16120860766755085,0.39662796676663264,0.1870374470266588,0.00888730265203348,0.004166134231965436,0.07837198619396284
2115,10.0,299.63719,-2527.1024,0.0,0.02114999183661026,0.0,0.0,0.0,0.0,0.14677839623589986,0.40893704043894363,0.2124605709132258,0.00875699068449769,0.006174816631606954,0.08593107410673673
2116,10.0,300.39574,-2326.7965,0.0,0.021160020814087188,0.0,0.0,0.0,0.0,0.1079245206838209,0.39528916954200366,0.20407435579807082,0.0045588612567745756,0.002622647720185177,0.07975721965742472
2117,10.0,299.71102,-2192.5618,0.0,0.02117001680150654,0.0,0.0,0.0,0.0,0.08376871530682851,0.37733803560286466,0.2053772941016608,0.0014494385626734488,-0.005089825992726714,0.07969225310076303
2118,10.0,299.9415,-2423.3359,0.0,0.021180012788925673,0.0,0.0,0.0,0.0,0.14898368441604484,0.3936095555137386,0.19404037310529382,0.0007639096572470134,0.016941329902729084,0.08577560607764323
2119,10.0,299.82259,-2747.6715,0.0,0.021190008776345026,0.0,0.0,0.0,0.0,0.20241642532194581,0.4073760374673846,0.22543108411831578,-0.0007473345676061792,0.004442392818730036,0.07511189351396673
2120,10.0,299.92626,-2575.7965,0.0,0.0212000047637646,0.0,0.0,0.0,0.0,0.18187494789965983,0.40273810804965665,0.1983647826770798,-0.0006824152790616444,-0.001223833766957989,0.08405591192842263
2121,10.0,300.15189,-2240.3065,0.0,0.021210000751183733,0.0,0.0,0.0,0.0,0.11446742108455489,0.3917971449273676,0.17473267966727282,-0.006385897196413984,-0.003655954193989587,0.08221451023019043
2122,10.0,300.52308,-2298.746,0.0,0.021219996738603086,0.0,0.0,0.0,0.0,0.12004405579242589,0.38955979751405867,0.18915753100589483,0.003194675632339937,-0.0059201721893505045,0.09922291526303931
2123,10.0,300.09626000000003,-2475.3613,0.0,0.021229992726022218,0.0,0.0,0.0,0.0,0.13304032581505787,0.4191449981738906,0.2002626913068888,0.006601502328217554,-0.013469239970560487,0.10850563988117289
2124,10.0,300.48226,-2352.0122,0.0,0.02123998871344157,0.0,0.0,0.0,0.0,0.14324867871754388,0.39531782425483164,0.17638647608298982,-0.004157991551511816,-0.008316816197255852,0.11586471323745688
2125,10.0,300.15943,-2108.0384,0.0,0.0212500176909185,0.0,0.0,0.0,0.0,0.10643168917898989,0.36972211347873163,0.16463724335593086,0.016569061815989085,0.013774545397941788,0.1061418793853879
2126,10.0,299.99082999999996,-2043.6401,0.0,0.02126001367833763,0.0,0.0,0.0,0.0,0.1070101941910839,0.3639246206465636,0.15028074586905488,-0.00931848454463782,0.027231844216073768,0.0924023367121506
2127,10.0,299.76414,-2330.8784,0.0,0.021270009665756984,0.0,0.0,0.0,0.0,0.11381554663271988,0.3898375800289736,0.2048757150371588,0.0016790477227841083,0.007989332954335772,0.08327168370877532
2128,10.0,299.77034,-2653.7378,0.0,0.021280005653176337,0.0,0.0,0.0,0.0,0.15723483329286986,0.41872288831473164,0.23071230575953178,-0.00952203635722682,-0.004895788497251706,0.08012015773724392
2129,10.0,299.89083,-2586.9685,0.0,0.02129000164059569,0.0,0.0,0.0,0.0,0.14462025458290786,0.41511633604129256,0.22663722663985278,-0.002332212345971438,-0.011707501008440388,0.08151356508926251
2130,10.0,299.78409,-2321.5493,0.0,0.021299997628015044,0.0,0.0,0.0,0.0,0.15213882363743286,0.3822547709181086,0.17129941342593583,0.0021173530675664782,-0.008226151084932904,0.08248927832605793
2131,10.0,299.27967,-2383.4595,0.0,0.021309993615434175,0.0,0.0,0.0,0.0,0.15128136074030785,0.39878277482679564,0.17444803744918083,-0.015003869055266586,-0.012921111183214385,0.09101555601578601
2132,10.0,300.04329,-2608.5563,0.0,0.02131998960285353,0.0,0.0,0.0,0.0,0.1862622600376538,0.4015948782268286,0.20507884128470583,-0.004093823942553965,-0.005244046001672045,0.08230973952758883
2133,10.0,300.11629,-2559.0064,0.0,0.021330018580330457,0.0,0.0,0.0,0.0,0.14718649284617585,0.41111836525422363,0.21956917897729078,-0.008908263452877152,0.0013996096585307187,0.08372802622256283
2134,10.0,299.9485,-2231.5848,0.0,0.02134001456774981,0.0,0.0,0.0,0.0,0.11343870878802888,0.38020364874067863,0.18470370913133682,-0.0024502666217474877,0.01137542551341709,0.08547053369778491
2135,10.0,300.0807,-2123.812,0.0,0.02135001055516894,0.0,0.0,0.0,0.0,0.09624394071728741,0.36306213202894266,0.18627975886688083,0.011446430027424688,-0.0025415651167079475,0.0938223206010421
2136,10.0,300.29196,-2390.0961,0.0,0.021360006542588295,0.0,0.0,0.0,0.0,0.13871407041251285,0.4037940159788666,0.18402145744150383,0.004906219704381185,-0.0007879501101796212,0.09268323193137282
2137,10.0,300.24298,-2586.0128,0.0,0.021370002530007648,0.0,0.0,0.0,0.0,0.16918836763759185,0.4121892287549096,0.2047057220678818,0.021438494563564683,0.008311040367710822,0.09154711613749691
2138,10.0,300.07901,-2577.8231,0.0,0.021379998517427,0.0,0.0,0.0,0.0,0.15243656717931786,0.41674351437688256,0.2144137827334928,0.002247082213644748,0.015085252290048486,0.08054936642660351
2139,10.0,300.12278,-2329.145,0.0,0.021389994504846133,0.0,0.0,0.0,0.0,0.1190165695285209,0.4004479095111316,0.1885374320771958,-0.01028084486764039,0.011418018494620688,0.09487183289562091
2140,10.0,299.9434,-2253.1076,0.0,0.021399990492265486,0.0,0.0,0.0,0.0,0.11252613521796488,0.38779769479515264,0.18456460002510783,-0.012770703325120288,-0.0090423807824885,0.08882464990756041
2141,10.0,300.34862000000004,-2472.3985,0.0,0.021410019469742414,0.0,0.0,0.0,0.0,0.13706018280428686,0.4138913572003966,0.2005958783372718,-0.001793932248272328,0.007979902736980083,0.09791546394350391
2142,10.0,299.74011,-2580.359,0.0,0.021420015457161767,0.0,0.0,0.0,0.0,0.1723341545605568,0.40516852013701965,0.2068620094731908,-0.0007710348724802172,-0.01039707985286189,0.09074182346152072
2143,10.0,299.45833999999996,-2375.8887,0.0,0.0214300114445809,0.0,0.0,0.0,0.0,0.14653889430976286,0.4032203846997536,0.17245158011464584,0.004121271165237796,-0.014661918424768685,0.11623439753644188
2144,10.0,299.25295,-2262.8599,0.0,0.021440007432000252,0.0,0.0,0.0,0.0,0.12697808086426088,0.3813974498759976,0.17947738538053884,-0.0037687935754759662,-0.008426274869783583,0.1034677097214679
2145,10.0,299.79416000000003,-2383.5053,0.0,0.021450003419419605,0.0,0.0,0.0,0.0,0.13067260351138188,0.39487717191884264,0.19897632977493482,0.0052060102141182054,0.007590204316719843,0.1042166231353799
2146,10.0,299.94736,-2580.2031,0.0,0.02145999940683896,0.0,0.0,0.0,0.0,0.14985734918226884,0.42076284447605955,0.2136971312027648,0.002841522914036477,0.006289619286487094,0.07759649826967813
2147,10.0,300.03852,-2616.2315,0.0,0.021469995394258312,0.0,0.0,0.0,0.0,0.15732370545914084,0.4095205610390326,0.2284247822012708,-0.0003061418349413467,0.004675605602821346,0.08933107534729072
2148,10.0,299.87472,-2453.2617,0.0,0.021479991381677443,0.0,0.0,0.0,0.0,0.15903544964807687,0.3895693929925056,0.19712544608226681,0.01053721943444259,-0.0035906426256688364,0.06496527996657395
2149,10.0,300.30751000000004,-2329.8738,0.0,0.02149002035915437,0.0,0.0,0.0,0.0,0.12941595047235988,0.4018034658924146,0.17700405201893984,-0.005509827177102604,0.004379306550278906,0.08397721177990551
2150,10.0,300.15157999999997,-2579.9356,0.0,0.021500016346573725,0.0,0.0,0.0,0.0,0.15720613805003786,0.4054743494147026,0.2215555038108258,0.003359482686280127,-0.010908043639790092,0.06619006932970124
2151,10.0,300.22438,-2767.8182,0.0,0.021510012333992856,0.0,0.0,0.0,0.0,0.1811365722867878,0.4287518250220106,0.23145921293824578,-0.006096995781526634,-0.015982534902853382,0.08742339189376701
2152,10.0,300.09364,-2505.7624,0.0,0.02152000832141221,0.0,0.0,0.0,0.0,0.16018017908105284,0.3986491170061046,0.20285989449321282,-0.004330401020952305,-0.009235844981056932,0.07962648506327222
2153,10.0,299.77281,-2195.2775,0.0,0.02153000430883134,0.0,0.0,0.0,0.0,0.10673795415421589,0.39159322834474264,0.16897838168686782,0.006630847165688664,0.005718624382809285,0.1047535342308689
2154,10.0,299.29258,-2317.4885,0.0,0.021540000296250916,0.0,0.0,0.0,0.0,0.13302554249609885,0.3955339302361596,0.17589915344739482,-0.004001160802358826,-0.004715118202395935,0.09890886852704531
2155,10.0,299.24164,-2583.1405,0.0,0.02154999628367027,0.0,0.0,0.0,0.0,0.15263675500157486,0.4197900635850536,0.21278338226258478,0.0017546655644970085,-0.0036841585171481367,0.09839697356327522
2156,10.0,299.60533,-2526.2394,0.0,0.0215599922710894,0.0,0.0,0.0,0.0,0.14847086840793386,0.4106858898465416,0.20875691888270378,0.005516856599671355,-0.006872698312182514,0.1030876497414589
2157,10.0,299.84091,-2297.1596,0.0,0.02157002124856633,0.0,0.0,0.0,0.0,0.1068956462672789,0.4059317507748446,0.1854517714151648,0.016654577084678785,0.017040764188042484,0.1054193814015829
2158,10.0,299.57132,-2326.4387,0.0,0.021580017235985682,0.0,0.0,0.0,0.0,0.12409310451703588,0.3929144152826336,0.1901717538259908,0.003918659547416587,0.006543338935377275,0.0882389579125071
2159,10.0,299.78035,-2567.0938,0.0,0.021590013223404814,0.0,0.0,0.0,0.0,0.14901155892629586,0.4269062203623636,0.20441463557915382,-0.0048303706389954655,0.010175870130780189,0.10257387114575289
2160,10.0,300.36566,-2612.1071,0.0,0.021600009210824167,0.0,0.0,0.0,0.0,0.17509712546324083,0.4161139314272476,0.20280428732772482,0.007101629709301284,-0.002082846936735988,0.08103362499389613
2161,10.0,300.73851,-2384.8275,0.0,0.0216100051982433,0.0,0.0,0.0,0.0,0.12986812346198587,0.4078525081944086,0.18720736906842883,0.005516798641765635,0.006457617571617234,0.08504474371426272
2162,10.0,299.92197999999996,-2097.8787,0.0,0.02162000118566265,0.0,0.0,0.0,0.0,0.0976270240640371,0.38045171263016064,0.15962399596866184,-0.006512797854838103,-0.008324706882409603,0.08649450398384292
2163,10.0,299.54157000000004,-2279.0299,0.0,0.021629997173082227,0.0,0.0,0.0,0.0,0.11445979131130189,0.38684012278814767,0.19146826812394682,-0.01839432142687818,-0.022071010872239182,0.09837738439909191
2164,10.0,299.81192000000004,-2662.1234,0.0,0.02163999316050136,0.0,0.0,0.0,0.0,0.17642188917398482,0.4179422500401886,0.2148549011645278,-0.013166469694929387,-0.013948529559362688,0.09545684803960741
2165,10.0,300.28202999999996,-2565.7135,0.0,0.021649989147920712,0.0,0.0,0.0,0.0,0.15996091175941285,0.4100225656685766,0.20992935057341378,-0.007469701218102113,0.02016688797956688,0.1099039452841749
2166,10.0,300.76448999999997,-2377.0777,0.0,0.021660018125397418,0.0,0.0,0.0,0.0,0.14436374018759185,0.39279000843535566,0.18541852667938383,0.009367076878358511,0.011915822189250089,0.09228139821996491
2167,10.0,299.89168,-2485.4561,0.0,0.02167001411281677,0.0,0.0,0.0,0.0,0.1301756144698329,0.4101653123426646,0.2151756657486848,-0.005567244311244234,0.01094226818841779,0.0910406147040091
2168,10.0,299.15686,-2646.6056,0.0,0.021680010100236125,0.0,0.0,0.0,0.0,0.15889308800902685,0.41941991319102256,0.2261890154581178,0.00023353360947047275,-0.015399808690842787,0.07239108394794373
2169,10.0,299.92082999999997,-2509.3207,0.0,0.021690006087655256,0.0,0.0,0.0,0.0,0.13316496570985886,0.4150932136740106,0.21451265567825079,0.006014982203857524,-0.004977641373454956,0.07259552438087043
2170,10.0,299.63259,-2388.1221,0.0,0.02170000207507483,0.0,0.0,0.0,0.0,0.13688872062236487,0.3983605737751276,0.1906802027261708,-0.005940678040899274,-0.01125426309295929,0.07156441980085833
2171,10.0,300.39536,-2277.0053,0.0,0.021709998062494185,0.0,0.0,0.0,0.0,0.12947142591533486,0.39507679232104365,0.16760453614127982,0.0007507554215337912,-0.00043577640425528254,0.093417597100349
2172,10.0,300.36807999999996,-2348.3366,0.0,0.021719994049913316,0.0,0.0,0.0,0.0,0.14808897444524385,0.3954196862873846,0.17032702770246885,-0.00980204153756118,0.003565888723075817,0.1052656206989079
2173,10.0,299.7328,-2628.1772,0.0,0.02172999003733267,0.0,0.0,0.0,0.0,0.14320100530033886,0.4378234329023085,0.2178758151451688,-0.004431533513433306,0.024316391332340977,0.11514366420129489
2174,10.0,300.68377000000004,-2492.9991,0.0,0.021740019014809375,0.0,0.0,0.0,0.0,0.13364540837727487,0.41083348998860864,0.21333056771408782,0.005917611605022795,-0.0024288375980326075,0.10729765324445391
2175,10.0,301.10657000000003,-2288.2356,0.0,0.02175001500222873,0.0,0.0,0.0,0.0,0.1052563089304889,0.4038347992953916,0.18647536679868582,0.00010435430355896792,-0.0006040400393216103,0.11552393696382489
2176,10.0,300.0122,-2375.8361,0.0,0.021760010989648082,0.0,0.0,0.0,0.0,0.1376870705086559,0.4001629633180096,0.18434479568091483,-0.0006710719441921444,-0.017168529959401983,0.10450321079366391
2177,10.0,300.16323,-2506.1856,0.0,0.021770006977067435,0.0,0.0,0.0,0.0,0.15411176343714686,0.4102079397743716,0.19749814986654982,-0.0009824710880723471,0.008161740397276062,0.09267674814398291
2178,10.0,299.52099,-2503.004,0.0,0.02178000296448679,0.0,0.0,0.0,0.0,0.15461257243157286,0.4128989496549536,0.19333918377109183,0.0010888288302590388,0.002123224446595938,0.09047581997901823
2179,10.0,299.79705,-2512.8409,0.0,0.02178999895190592,0.0,0.0,0.0,0.0,0.13663118284444786,0.4101189156205856,0.2170907793651918,0.0023447343946822676,0.003150404708970737,0.07871272903034153
2180,10.0,300.36249,-2499.9126,0.0,0.021799994939325273,0.0,0.0,0.0,0.0,0.14733404232573785,0.4018876771082256,0.21068928814841378,-0.004822901871183355,-0.005069039977525295,0.07195538640494373
2181,10.0,299.7523,-2479.9191,0.0,0.021809990926744627,0.0,0.0,0.0,0.0,0.14366223674585887,0.4008320832865466,0.2093391729201678,-0.008339479764892571,0.003575892338663096,0.07159137022701813
2182,10.0,299.53312999999997,-2573.7732,0.0,0.021820019904221333,0.0,0.0,0.0,0.0,0.16659882462202383,0.4086079672039666,0.20715598372470378,0.0029059129313912775,-0.01765623155053438,0.09037527213184492
2183,10.0,299.401,-2687.6369,0.0,0.021830015891640686,0.0,0.0,0.0,0.0,0.1873770276651728,0.4192624439929816,0.2103350559134538,0.001055883509882589,-0.007777294564209212,0.0941774880658444
2184,10.0,299.80098,-2573.5705,0.0,0.02184001187906004,0.0,0.0,0.0,0.0,0.17275891913497785,0.4134057469574706,0.19613649371966482,0.02168776422066568,-0.012064317031155387,0.11102413379972889
2185,10.0,300.67047,-2340.1631,0.0,0.021850007866479393,0.0,0.0,0.0,0.0,0.12596427347670588,0.4009953077451556,0.18439158757053284,-0.0029773563853421974,0.014487376975792788,0.1046566269913049
2186,10.0,300.21835,-2407.3163,0.0,0.021860003853898746,0.0,0.0,0.0,0.0,0.1310715707382569,0.39962021590194463,0.2010722477392858,-0.005340614410402605,0.008108611641532662,0.08648478083588332
2187,10.0,300.15622,-2506.4674,0.0,0.021869999841317878,0.0,0.0,0.0,0.0,0.12446867579910188,0.4151911037661716,0.22224371341124677,-0.014479460452761486,-0.0030964802479238073,0.08374978070220983
2188,10.0,300.50471,-2419.764,0.0,0.02187999582873723,0.0,0.0,0.0,0.0,0.14829910225098186,0.3995879236212576,0.18766078835567782,-0.003214592278955557,-0.015093173879330287,0.08029524836777402
2189,10.0,300.03566,-2447.8607,0.0,0.021889991816156584,0.0,0.0,0.0,0.0,0.13665907761970086,0.4137070672722086,0.19372238482641083,0.01155439587858009,0.0027815360763162374,0.10381668318840889
2190,10.0,299.71142000000003,-2489.3551,0.0,0.02190002079363329,0.0,0.0,0.0,0.0,0.14749780380689986,0.4157809571793856,0.19342303021686683,0.013516329755707884,0.008714664390720411,0.1005734347780752
2191,10.0,299.54696,-2538.785,0.0,0.02191001678105242,0.0,0.0,0.0,0.0,0.1265382087308489,0.4290885989577476,0.21610044898245379,0.005572199509533275,-0.002261147036957838,0.1160579602965289
2192,10.0,299.60417,-2625.2551,0.0,0.021920012768471997,0.0,0.0,0.0,0.0,0.16346119436236384,0.42147967839180556,0.21307113515848378,0.004081092151072436,-0.010569128706591789,0.0999348268097995
2193,10.0,299.73902999999996,-2449.572,0.0,0.02193000875589135,0.0,0.0,0.0,0.0,0.14169278252648887,0.3946665070905516,0.20824944270261983,0.002053702621459668,0.01073214950193069,0.09383237406853431
2194,10.0,299.84661,-2241.1084,0.0,0.021940004743310704,0.0,0.0,0.0,0.0,0.14015377721460087,0.3806042169027117,0.16048300913843985,0.0025407029421978576,0.0004730109338950445,0.08414830817854142
2195,10.0,299.89603,-2335.1094,0.0,0.021950000730729835,0.0,0.0,0.0,0.0,0.12741124528201087,0.39285927421219163,0.18954444055657982,-0.006502889586085234,-0.010119380627105112,0.08346752874110372
2196,10.0,300.33916,-2545.2272,0.0,0.02195999671814919,0.0,0.0,0.0,0.0,0.16817666781024485,0.4020185788886446,0.20349027791042681,-0.00970522194413083,-0.00977164150143593,0.09068874131528191
2197,10.0,300.10232,-2582.5421,0.0,0.021969992705568542,0.0,0.0,0.0,0.0,0.15030766792421185,0.41016731857786265,0.2245533156891868,0.0052357823391564855,0.00922731118606471,0.08762961868662002
2198,10.0,299.66286,-2424.4018,0.0,0.021979988692987895,0.0,0.0,0.0,0.0,0.14389392651372485,0.39766053954603964,0.19540314382728882,-0.01158738223558559,0.018184067978127785,0.08531284462447222
2199,10.0,299.88477,-2475.9454,0.0,0.0219900176704646,0.0,0.0,0.0,0.0,0.13993384114789487,0.4036955179366456,0.20899621815882077,-0.006243166126377524,-0.002105111587808338,0.07660197911102672
2200,10.0,300.51134,-2646.4349,0.0,0.022000013657883954,0.0,0.0,0.0,0.0,0.17865525451440084,0.42096310322582364,0.2048317805128228,0.002354358345457078,-0.0031454718021838974,0.08311503828306561
2201,10.0,300.13748,-2645.4752,0.0,0.022010009645303308,0.0,0.0,0.0,0.0,0.17025314150517684,0.4087333569038416,0.22517188461023477,0.007681788750858523,0.005421012968737325,0.0916259520615274
2202,10.0,300.2567,-2526.2671,0.0,0.02202000563272266,0.0,0.0,0.0,0.0,0.14506996537479086,0.42758490541184463,0.1952672568563778,0.008322457467187603,0.0028713915004842778,0.10452426613074191
2203,10.0,300.00622000000004,-2340.9612,0.0,0.022030001620141793,0.0,0.0,0.0,0.0,0.1073030639999879,0.3994477202049206,0.2048429769264278,-0.010229005979274291,-0.013173743817397289,0.1031628936938849
2204,10.0,299.97315,-2300.1947,0.0,0.022039997607560924,0.0,0.0,0.0,0.0,0.11001138019227788,0.40958566235795757,0.17960472052060583,-0.01218365357493299,-0.004317857693989376,0.1150870944482119
2205,10.0,299.43875,-2455.6339,0.0,0.0220499935949805,0.0,0.0,0.0,0.0,0.12179819436554588,0.4089145260217216,0.21573867816674983,-0.0028150227762211173,0.008918401121452662,0.08877671608507973
2206,10.0,299.46564,-2495.5869,0.0,0.022059989582399853,0.0,0.0,0.0,0.0,0.15177425625145285,0.41609950274582364,0.19072234379782982,0.0001208085023303709,0.016398976640952984,0.08424709499704093
2207,10.0,299.68337,-2484.7988,0.0,0.02207001855987656,0.0,0.0,0.0,0.0,0.12102028173377187,0.42737373395850364,0.2069227639491868,0.0030043816906843873,-0.008093263536967923,0.0937163397068326
2208,10.0,299.89657,-2542.8779,0.0,0.022080014547295912,0.0,0.0,0.0,0.0,0.14744968455965085,0.41522194709921556,0.21029975427996983,-0.004810867803720685,-0.005661883491784395,0.1056776588520729
2209,10.0,300.39114,-2678.6845,0.0,0.022090010534715265,0.0,0.0,0.0,0.0,0.14926256124106785,0.43315698049426554,0.2318336595127008,0.00979460722025247,-0.0064999399137191235,0.0943739238229811
2210,10.0,300.6366,-2588.0568,0.0,0.02210000652213462,0.0,0.0,0.0,0.0,0.16040914320614985,0.4133632816457796,0.21293221856977382,-0.010729540382923189,0.0023245025259605377,0.1071720304970559
2211,10.0,300.00869,-2488.5251,0.0,0.02211000250955375,0.0,0.0,0.0,0.0,0.15598280067430384,0.39201496330136465,0.20845172795258382,-0.016140159128159682,-0.014155877006826287,0.08131289495995793
2212,10.0,300.17654,-2425.0037,0.0,0.02211999849697288,0.0,0.0,0.0,0.0,0.16147322806366685,0.39835266029184657,0.17731468410209683,-0.014189665857910986,-0.0024139284334111877,0.08968077430130332
2213,10.0,299.92905,-2399.2796,0.0,0.022129994484392457,0.0,0.0,0.0,0.0,0.14535140572256686,0.38718350311453664,0.19678616941878282,0.003817642970747027,0.014169879109958186,0.07774627689946012
2214,10.0,299.72829,-2432.3761,0.0,0.02213999047181181,0.0,0.0,0.0,0.0,0.13971464475376186,0.40614833298371966,0.1935185999662988,0.011215459667129689,0.004847952858705696,0.09725006665583431
2215,10.0,300.08598,-2499.3379999999997,0.0,0.022150019449288516,0.0,0.0,0.0,0.0,0.12405708347598088,0.4182073871938556,0.21747188299280382,0.0077117458953650615,-0.02091070373222578,0.09197316044679422
2216,10.0,300.13361000000003,-2564.9452,0.0,0.02216001543670787,0.0,0.0,0.0,0.0,0.15440905101648686,0.40766560408096264,0.21760464915340683,0.0012823350787066188,-0.002952148445379367,0.08621420860867993
2217,10.0,299.35474,-2547.5184,0.0,0.022170011424127,0.0,0.0,0.0,0.0,0.15630519659112185,0.4113570565802806,0.2067197288941488,0.008710009215785982,0.0016584087301721984,0.08050175177790432
2218,10.0,299.77752000000004,-2550.4158,0.0,0.022180007411546576,0.0,0.0,0.0,0.0,0.15971353687999884,0.4245615900284666,0.19098760254150882,0.005160271192679115,0.015703373354552286,0.09174641128641581
2219,10.0,298.96689,-2588.2896,0.0,0.022190003398965708,0.0,0.0,0.0,0.0,0.14174510676165286,0.4196496068561916,0.2253807053233438,-0.01815386704564718,-0.008011609865734333,0.1015427169164859
2220,10.0,299.41375,-2548.4666,0.0,0.02219999938638506,0.0,0.0,0.0,0.0,0.14385736845011687,0.4286722342266556,0.20214060851222482,-0.004515623341882326,0.002179705641620198,0.11567564076879688
2221,10.0,299.63052000000005,-2409.3801,0.0,0.022209995373804414,0.0,0.0,0.0,0.0,0.12110330744696589,0.4118782319017166,0.1994098386977188,-0.008128658693436153,0.002149307530670138,0.1122130206720629
2222,10.0,300.10892,-2362.5966,0.0,0.022219991361223546,0.0,0.0,0.0,0.0,0.13865031671622088,0.4080593226723196,0.17146072284185584,0.005352143271365415,0.004175268377641906,0.10467250462037189
2223,10.0,299.985,-2394.7356,0.0,0.022230020338700474,0.0,0.0,0.0,0.0,0.1341253646846429,0.4149005441674956,0.1789139169999288,-0.01015565376478499,-0.01867014634259998,0.1020606295725999
2224,10.0,300.73382999999995,-2494.259,0.0,0.022240016326119827,0.0,0.0,0.0,0.0,0.15480910242096885,0.40684031187451264,0.19654304005728782,0.008662431550715432,0.003154589431883737,0.07791219559008503
2225,10.0,300.04838,-2643.0562,0.0,0.022250012313538958,0.0,0.0,0.0,0.0,0.15192952669677684,0.43660002459906755,0.21489352625833977,0.024098480752584875,0.01018527207845809,0.0889727414759259
2226,10.0,300.22438,-2582.4864,0.0,0.02226000830095831,0.0,0.0,0.0,0.0,0.14456303634976087,0.4116578196074636,0.2287905148248658,-0.001110321688730219,0.01159534131512109,0.08441440184030283
2227,10.0,300.26162,-2560.7024,0.0,0.022270004288377665,0.0,0.0,0.0,0.0,0.13564730686484686,0.4260430933971796,0.2166991885990448,-0.0020389462549533282,-0.02393348513280108,0.09591682406825351
2228,10.0,299.91471,-2697.9332,0.0,0.02228000027579702,0.0,0.0,0.0,0.0,0.18387499213954883,0.4141904990274196,0.22203885450602878,-0.013480211442643287,-0.0014420341362426886,0.08048102980010922
2229,10.0,299.30459,-2640.5656,0.0,0.02228999626321637,0.0,0.0,0.0,0.0,0.19400675346697582,0.4040544719170716,0.2046047719604188,0.01092397902411279,0.002934882562350357,0.07112765530550302
2230,10.0,299.92547,-2451.2546,0.0,0.022299992250635503,0.0,0.0,0.0,0.0,0.15196944875071686,0.4070592144261166,0.18609152739580384,0.0016160637925930782,0.009333800833149422,0.085534663309864
2231,10.0,299.1673,-2415.6438,0.0,0.02231002122811243,0.0,0.0,0.0,0.0,0.13285075685384887,0.39488122491924266,0.2065634046687208,-0.006935692070899513,-0.013354159077202887,0.09184389607853682
2232,10.0,299.77741000000003,-2458.3819,0.0,0.022320017215531784,0.0,0.0,0.0,0.0,0.13065038293668887,0.4068294498334406,0.2098068790338268,-0.02060628591193208,0.0026004004970145472,0.0972477078096015
2233,10.0,300.10305,-2515.915,0.0,0.022330013202950916,0.0,0.0,0.0,0.0,0.13434078165590288,0.4289403402031156,0.2014942056109298,-0.00026720880429145576,0.0036023916658783767,0.1048969597825239
2234,10.0,299.77277000000004,-2537.1058,0.0,0.02234000919037027,0.0,0.0,0.0,0.0,0.17315744053180884,0.4064168341277186,0.1916425268761448,-0.007898104576282232,0.014061389408501088,0.1007927517489701
2235,10.0,300.2926,-2490.1282,0.0,0.022350005177789845,0.0,0.0,0.0,0.0,0.14430165835396486,0.4331461488506966,0.17948898709418384,-0.007315909712624072,-0.02261699460912358,0.1112361057206489
2236,10.0,300.21803,-2440.3782,0.0,0.022360001165208976,0.0,0.0,0.0,0.0,0.14211541927569984,0.4074937264664996,0.19220488068164482,0.0013656069103499088,0.007075598300982182,0.0928769785227441
2237,10.0,299.2349,-2547.507,0.0,0.02236999715262833,0.0,0.0,0.0,0.0,0.12778269263616987,0.42669390393640955,0.2199019100451288,0.018709495910233482,0.015517318344690086,0.10039541180175571
2238,10.0,299.71082,-2573.5460000000003,0.0,0.02237999314004746,0.0,0.0,0.0,0.0,0.13064913663906588,0.4251107411851636,0.2265338345996488,0.00923369071001932,0.015770621750439185,0.08523167721196162
2239,10.0,300.12111,-2462.1742,0.0,0.022389989127466814,0.0,0.0,0.0,0.0,0.11362574462398789,0.41861145106873365,0.2162022907500048,0.002468947001916098,-0.007843002921269123,0.10278470822656091
2240,10.0,300.27763,-2446.0829,0.0,0.022400018104943742,0.0,0.0,0.0,0.0,0.14879763143268285,0.4069825012610456,0.18776798008375684,-0.009740877911174802,-0.0035445951708993066,0.08703574368375912
2241,10.0,300.17179,-2600.3737,0.0,0.022410014092362873,0.0,0.0,0.0,0.0,0.16819935447998383,0.4233382931827366,0.19891101567348882,-0.003352529358793887,0.0026521547789972975,0.08972634927755123
2242,10.0,300.27258,-2667.6002,0.0,0.022420010079782227,0.0,0.0,0.0,0.0,0.1831570943111978,0.41826605437464565,0.2094606920046608,-0.014596618508824086,0.007969836502536623,0.09008769858121361
2243,10.0,300.33468,-2573.4768,0.0,0.02243000606720158,0.0,0.0,0.0,0.0,0.13814211099606488,0.43371175518901756,0.2104188314317218,5.036648398328495e-05,-0.01024371229122569,0.1036074571752599
2244,10.0,299.63151,-2505.1226,0.0,0.022440002054620933,0.0,0.0,0.0,0.0,0.1288306668170969,0.4073741122921946,0.22528993837938577,-0.007691781828644763,0.004196505897087886,0.09270599864786971
2245,10.0,299.34483,-2519.5206,0.0,0.022449998042040287,0.0,0.0,0.0,0.0,0.1339507107649059,0.4145335652462776,0.21738708409193477,0.014643440795945087,0.005638523112053905,0.09001239687353192
2246,10.0,299.689,-2631.0486,0.0,0.022459994029459418,0.0,0.0,0.0,0.0,0.17779069886657584,0.4223950789296486,0.1995872993202328,0.0005365025935786835,0.01002098563241928,0.08178149070720471
2247,10.0,299.40432000000004,-2610.8482,0.0,0.02246999001687877,0.0,0.0,0.0,0.0,0.17111659271039284,0.41334918733688863,0.2091668900056648,0.002616485437052008,-0.016173052266155983,0.07574667950286522
2248,10.0,299.77821,-2478.5164,0.0,0.0224800189943557,0.0,0.0,0.0,0.0,0.15438751945186185,0.41800473717385556,0.18101484041977384,0.013624075731591587,-0.01062736728258949,0.08434856287530502
2249,10.0,299.88491,-2487.1311,0.0,0.02249001498177483,0.0,0.0,0.0,0.0,0.12211193712650989,0.41319881088954763,0.2207149925878738,0.005343716171608725,-0.01216641413773159,0.0946050917670456
2250,10.0,299.77226,-2695.7479,0.0,0.022500010969194184,0.0,0.0,0.0,0.0,0.14513552265626087,0.4337383124741385,0.24056621364453679,-0.005892380866932714,0.004897630991233546,0.09040612357088972
2251,10.0,300.6579,-2637.7919,0.0,0.022510006956613537,0.0,0.0,0.0,0.0,0.13392282612215387,0.44533032931568156,0.22256972663092178,-0.02217644967764518,-0.008130975996414852,0.12037053510714689
2252,10.0,300.44141,-2431.8599,0.0,0.02252000294403289,0.0,0.0,0.0,0.0,0.14951141546562785,0.4005178845630376,0.18919539616213182,-0.012758507846916687,0.015641868060232187,0.09333851394329411
2253,10.0,299.84252000000004,-2363.6317,0.0,0.022529998931452244,0.0,0.0,0.0,0.0,0.13800953735298085,0.41495084190245957,0.16552462752850883,-0.003777298188865306,0.01017973365341149,0.12219950220015188
2254,10.0,299.71679,-2421.1186,0.0,0.022539994918871376,0.0,0.0,0.0,0.0,0.14691038219392585,0.3981479939041476,0.1909012027054818,-0.001102493115807599,0.0005891114304307716,0.09182894759981151
2255,10.0,299.60352,-2451.4807,0.0,0.02254999090629073,0.0,0.0,0.0,0.0,0.12602694299539088,0.4208551110301656,0.19830686530136382,0.001152716072914219,-0.01157831567369079,0.1235087023893599
2256,10.0,299.83102,-2514.5854,0.0,0.022560019883767657,0.0,0.0,0.0,0.0,0.12506543957799787,0.4229817912675526,0.2163239516895118,0.002867552093205357,-0.002083308066856498,0.08799502403043272
2257,10.0,299.88824,-2552.3334,0.0,0.022570015871186788,0.0,0.0,0.0,0.0,0.14641878364290886,0.4138104897099156,0.2156163484821768,0.010556342503579891,0.004738617093415095,0.0983394756731006
2258,10.0,300.40937,-2622.885,0.0,0.022580011858606364,0.0,0.0,0.0,0.0,0.16670931954542884,0.4283997510097636,0.2021824760063568,0.0009278208461112882,0.006458392606618724,0.08305617655825642
2259,10.0,300.15603,-2651.1243,0.0,0.022590007846025495,0.0,0.0,0.0,0.0,0.16948781343964484,0.4289992809614326,0.20738849422515082,-0.0041961638238541266,0.002370703893420258,0.09358386029600792
2260,10.0,299.7401,-2660.7745,0.0,0.022600003833444626,0.0,0.0,0.0,0.0,0.16726117607989283,0.41852078544978566,0.2230270367985548,-0.004983266634035125,1.6920693037942383e-05,0.07543419621177552
2261,10.0,300.00462000000005,-2565.5485,0.0,0.0226099998208642,0.0,0.0,0.0,0.0,0.14792205162376987,0.41548476391015365,0.21645585658752978,-0.008294299246908603,0.0036506368601148067,0.09036781765085922
2262,10.0,299.61192,-2511.2428,0.0,0.022619995808283333,0.0,0.0,0.0,0.0,0.13255877870503288,0.41495262522263565,0.2158437116721158,-0.007185039950908234,-0.002677209819520037,0.1005123499825466
2263,10.0,299.40088,-2510.7129999999997,0.0,0.022629991795702686,0.0,0.0,0.0,0.0,0.13977586532480385,0.4142832519415736,0.2091349320975108,-0.012150743211684988,-0.0029442667781515073,0.0994132066715696
2264,10.0,299.64655,-2484.7425,0.0,0.022640020773179392,0.0,0.0,0.0,0.0,0.14954543027148487,0.4161891449821706,0.18956510072611882,0.006262556186916175,0.02104139374337388,0.1015733575995099
2265,10.0,299.77115,-2476.4896,0.0,0.022650016760598968,0.0,0.0,0.0,0.0,0.16088028423764783,0.4098530286618446,0.18205768755519483,0.0008000696554207273,0.011788693752203488,0.09593413341971181
2266,10.0,300.24298999999996,-2594.6319,0.0,0.02266001274801832,0.0,0.0,0.0,0.0,0.15782823308143384,0.4288121336679626,0.20206295302456082,0.0005106543200826575,0.0015615607657390484,0.08441176232379233
2267,10.0,300.62016,-2577.7767,0.0,0.022670008735437452,0.0,0.0,0.0,0.0,0.13542150408006187,0.4400322978553066,0.20812595791293279,-0.001149297569726839,-0.01344995579465729,0.1107991416150239
2268,10.0,300.01806,-2561.0495,0.0,0.022680004722856584,0.0,0.0,0.0,0.0,0.12922025134804588,0.4246152112237586,0.2246596258896788,0.004982449143854445,-0.007073414645691673,0.0962454656586879
2269,10.0,300.34632,-2616.2249,0.0,0.02269000071027616,0.0,0.0,0.0,0.0,0.13725089673810886,0.4493028168627356,0.2087133288634018,0.004581984029356615,0.00998914212020157,0.1113651937833889
2270,10.0,300.07712999999995,-2565.3767,0.0,0.02269999669769529,0.0,0.0,0.0,0.0,0.16085938088808485,0.4227169986189196,0.1962340697042948,-0.004161819407739596,0.004810741248783196,0.0955511309614124
2271,10.0,299.96783999999997,-2449.7681,0.0,0.022709992685114866,0.0,0.0,0.0,0.0,0.1284056590626519,0.43129960186845656,0.18496309102443584,0.0019520489131272284,0.01613283535643688,0.1047879442042649
2272,10.0,299.71358,-2344.7252,0.0,0.02272002166259135,0.0,0.0,0.0,0.0,0.13395742861306886,0.40080780581415065,0.17797268871703684,-0.006044602240055795,-0.005595354807443525,0.091850048533144
2273,10.0,300.00583,-2489.9587,0.0,0.022730017650010925,0.0,0.0,0.0,0.0,0.13496462960997188,0.40675008195310763,0.21517054883567976,0.010982545893142888,0.0035621941092361864,0.08734540912632072
2274,10.0,299.89139,-2536.4529,0.0,0.02274001363743028,0.0,0.0,0.0,0.0,0.15456788810216285,0.4127150042317996,0.2037354337721218,-0.007985357366243413,-0.017275172505926785,0.1064310913614309
2275,10.0,300.29419,-2556.9383,0.0,0.02275000962484941,0.0,0.0,0.0,0.0,0.15117716823252486,0.4137904273579356,0.21227782112518978,0.008246219313763481,-0.005509884527058265,0.1017194986614329
2276,10.0,300.71892,-2624.862,0.0,0.02276000561226854,0.0,0.0,0.0,0.0,0.17081112820274583,0.4202077151437726,0.2068736618493408,0.002330277747555508,-0.0007922903061879652,0.0948177729630356
2277,10.0,300.80658999999997,-2666.8657,0.0,0.022770001599687895,0.0,0.0,0.0,0.0,0.16714689160111385,0.42119639392884756,0.2223173057660098,0.0006436109919694593,0.02462771951831668,0.07097190761938194
2278,10.0,300.20021,-2636.3581,0.0,0.02277999758710747,0.0,0.0,0.0,0.0,0.15118208249550988,0.42632987357298263,0.2238750663372488,-0.004157532447891506,0.0034626805877649666,0.07975826837127822
2279,10.0,299.85677999999996,-2596.0279,0.0,0.022789993574526823,0.0,0.0,0.0,0.0,0.1369165850001149,0.4302472403145966,0.2219638334686248,-0.01335431309121809,-0.006586695907156274,0.08830309461733692
2280,10.0,299.77835,-2586.8461,0.0,0.022799989561945955,0.0,0.0,0.0,0.0,0.13997712719216687,0.4266894152384666,0.2196700885547498,0.0058091181545403235,-0.023989510770580376,0.10087951230203271
2281,10.0,299.54502,-2602.1365,0.0,0.02281001853942266,0.0,0.0,0.0,0.0,0.15180465375445287,0.43619919299200854,0.2029806536401308,0.008377086441029061,-0.009260492593714462,0.0965126151270535
2282,10.0,299.77675,-2650.8599,0.0,0.022820014526842236,0.0,0.0,0.0,0.0,0.16009172234732283,0.4366939022208326,0.2090096031926418,0.005989800000447234,-0.004467018139885365,0.1031544229230489
2283,10.0,299.65594,-2583.9808,0.0,0.022830010514261367,0.0,0.0,0.0,0.0,0.16084297636896586,0.4278884650093036,0.1967341896886528,-0.008359360643779661,-0.0006924714924616153,0.1024550371740249
2284,10.0,299.70094,-2408.4112,0.0,0.0228400065016805,0.0,0.0,0.0,0.0,0.1145697390796529,0.42159625281581065,0.1959308951418738,-0.0007289454157813113,0.003345115711787216,0.0968785534404188
2285,10.0,300.42685,-2478.7201,0.0,0.022850002489099852,0.0,0.0,0.0,0.0,0.12755413381111289,0.4122017119961416,0.2137131810843488,0.0024165579187456977,0.017502441463606484,0.0980487387556571
2286,10.0,299.95006,-2706.6328,0.0,0.022859998476519205,0.0,0.0,0.0,0.0,0.16469800796442785,0.43938984662940156,0.21866091172015178,0.00936331701121244,4.095570076451296e-05,0.099496824122822
2287,10.0,299.72868,-2650.6035,0.0,0.02286999446393878,0.0,0.0,0.0,0.0,0.16983305814621782,0.4356036147157296,0.20028060556865682,-0.0017175690597858685,0.002099090045114058,0.10810626735425789
2288,10.0,300.1377,-2479.9945,0.0,0.022879990451357912,0.0,0.0,0.0,0.0,0.15103340830833684,0.4190330847003456,0.1837898993961508,0.003858815172660406,-0.013824809695652486,0.09368583986557251
2289,10.0,300.56147999999996,-2579.8353,0.0,0.022890019428834618,0.0,0.0,0.0,0.0,0.14389457499378885,0.42916282966007363,0.21114812832369778,0.00015844777472257785,0.0009707872707717441,0.08309465371755383
2290,10.0,300.19357,-2624.1996,0.0,0.02290001541625397,0.0,0.0,0.0,0.0,0.13972470632725487,0.4337650622767786,0.2242013835319538,0.00958797533000949,-0.007490534146783164,0.08835671581262891
2291,10.0,300.37874,-2629.7401,0.0,0.022910011403673325,0.0,0.0,0.0,0.0,0.13767170963713987,0.43050206258224555,0.23120154343781577,-0.016783570915159484,0.007680253271656982,0.09401332027139231
2292,10.0,299.8125,-2661.6903,0.0,0.022920007391092456,0.0,0.0,0.0,0.0,0.15130311521995485,0.4402749813867576,0.21750928205399478,-0.0018562045729181283,-0.011565322767658488,0.1041002918913989
2293,10.0,299.86717000000004,-2604.1501,0.0,0.02293000337851181,0.0,0.0,0.0,0.0,0.17762848765806685,0.4154345168376946,0.1985336002762408,-0.008468815871257052,0.008279082864856862,0.09495753257582881
2294,10.0,300.6186,-2595.4906,0.0,0.022939999365931163,0.0,0.0,0.0,0.0,0.17439143729859483,0.4246705448117196,0.18990235088940283,0.018032645856683585,-0.007787051250747123,0.10789351523076089
2295,10.0,300.13842999999997,-2627.6715,0.0,0.022949995353350516,0.0,0.0,0.0,0.0,0.17063647428300882,0.4217139012849216,0.2063961576072148,-0.0006949560222368194,-0.0040086384867718166,0.08886346143939082
2296,10.0,299.46943,-2657.1625,0.0,0.02295999134076987,0.0,0.0,0.0,0.0,0.14898655191382787,0.4258598572490956,0.23286464148945077,0.00954717397763271,-0.008412877980936413,0.08935467394211973
2297,10.0,300.07085,-2541.6949,0.0,0.022970020318246576,0.0,0.0,0.0,0.0,0.1254807201314829,0.4167236749399246,0.23040737827443777,0.0007230215301316693,0.0028306594544143374,0.07683178220720652
2298,10.0,299.86314,-2638.9346,0.0,0.02298001630566593,0.0,0.0,0.0,0.0,0.15281395217906288,0.4351880403197156,0.2141682215717578,0.013980392222007287,-0.002339216031987648,0.10099003255669022
2299,10.0,299.36935,-2765.6395,0.0,0.022990012293085282,0.0,0.0,0.0,0.0,0.18313666718918184,0.4361475375019106,0.2214011351580908,-0.007603030644435702,0.007215368350251414,0.08702997930394021
2300,10.0,299.8658,-2650.9459,0.0,0.023000008280504414,0.0,0.0,0.0,0.0,0.16287925443243084,0.4400477195218286,0.20289439565911782,-0.004242581722860216,-0.008686090535250393,0.1103264908408769
2301,10.0,299.60615,-2560.6192,0.0,0.02301000426792399,0.0,0.0,0.0,0.0,0.13188417705345487,0.4331009376312346,0.21337917332138479,-0.001967773541429128,0.007451176777123893,0.08873039231700791
2302,10.0,299.63796,-2509.6911,0.0,0.02302000025534312,0.0,0.0,0.0,0.0,0.1283694657690799,0.4208041850801396,0.21370976643151177,-0.0020370785310439977,-0.004662264442729676,0.0980200151418223
2303,10.0,299.71594,-2493.5778,0.0,0.023029996242762474,0.0,0.0,0.0,0.0,0.11649558301471889,0.42311706015590256,0.2183727535242128,0.0004372479980380175,0.006376537602590264,0.09731769400725859
2304,10.0,299.82397000000003,-2518.9498,0.0,0.023039992230181827,0.0,0.0,0.0,0.0,0.15769062358535285,0.4126179754022236,0.19538924203591682,-0.018739692789713682,0.0029698558014769473,0.1066503485505699
2305,10.0,300.22733,-2644.2341,0.0,0.023050021207658533,0.0,0.0,0.0,0.0,0.17861577829050485,0.4311658427227556,0.1939995289937628,-0.004171667286786506,0.014002569226945987,0.0959777315450146
2306,10.0,299.97601000000003,-2706.8341,0.0,0.023060017195077886,0.0,0.0,0.0,0.0,0.19056653632995282,0.4233095168798966,0.20893393367517382,0.0017795050867234782,-0.005264968096361895,0.09552551599888441
2307,10.0,299.67114,-2719.6779,0.0,0.02307001318249724,0.0,0.0,0.0,0.0,0.15810223617347585,0.44360912137081154,0.22500281369854877,0.007634251210491931,0.004049982130602116,0.08956433767931192
2308,10.0,300.22072000000003,-2698.9513,0.0,0.023080009169916593,0.0,0.0,0.0,0.0,0.15061005215155487,0.4318030149156396,0.23800073531884378,-0.006768633879212153,-0.015469545628975285,0.08563565800033142
2309,10.0,299.63011,-2808.255,0.0,0.023090005157335947,0.0,0.0,0.0,0.0,0.15315627872534784,0.44637027855581657,0.25411282032648275,-0.0030309485003563274,0.0008749668939275092,0.07733471598709223
2310,10.0,299.16622,-2706.8786,0.0,0.023100001144755078,0.0,0.0,0.0,0.0,0.16508951767056684,0.4358867573236736,0.2218472185146158,0.005640813867879985,0.000925846376303923,0.09515512647782982
2311,10.0,299.51974,-2481.5107,0.0,0.02310999713217443,0.0,0.0,0.0,0.0,0.15921105602290786,0.41091506675415956,0.1841911768332538,0.009829527162423801,0.0013695823971172586,0.10242651418370992
2312,10.0,299.59888,-2417.2316,0.0,0.023119993119593785,0.0,0.0,0.0,0.0,0.15313403788565286,0.4058377616955686,0.17580625867822683,-0.0022773568094076177,0.0034620057631983663,0.10634770087820089
2313,10.0,299.47232,-2443.7594,0.0,0.023129989107012916,0.0,0.0,0.0,0.0,0.13329535073272686,0.4096006483269366,0.19994583786811782,-0.0008008146272917501,-0.003969580431192087,0.0891473112959046
2314,10.0,300.25422000000003,-2539.9572,0.0,0.023140018084489844,0.0,0.0,0.0,0.0,0.13972300406708685,0.42581559848472755,0.2065449635169008,-0.0024088123310062677,-0.008747397333875903,0.1012393751677984
2315,10.0,300.15479,-2697.0449,0.0,0.023150014071908975,0.0,0.0,0.0,0.0,0.15765536248187287,0.42662438484704857,0.23555455705992476,-0.004544428725000196,0.0012392733680067587,0.09323161504449401
2316,10.0,299.67732,-2656.2004,0.0,0.02316001005932855,0.0,0.0,0.0,0.0,0.16119048062326186,0.43983300169313755,0.2063951038271108,-0.002246639929976098,-0.004327947537160166,0.10171892110887591
2317,10.0,299.65682999999996,-2593.0012,0.0,0.023170006046747904,0.0,0.0,0.0,0.0,0.15659810693002985,0.4370564127091096,0.1945530979208958,0.0008733468894026273,0.008661375440136202,0.1041511570464189
2318,10.0,299.95836,-2717.6893,0.0,0.023180002034167035,0.0,0.0,0.0,0.0,0.16934905897095084,0.44763238288037654,0.2091282345143498,0.007802647196286322,0.014465402620874089,0.11269464884209589
2319,10.0,299.83862,-2742.283,0.0,0.02318999802158639,0.0,0.0,0.0,0.0,0.16013319467391585,0.4472698014645926,0.22618257118748178,0.00990403569792722,-0.006066684100810104,0.1086339781388389
2320,10.0,300.46962,-2455.6142,0.0,0.02319999400900552,0.0,0.0,0.0,0.0,0.11995148526328989,0.40885131948048364,0.21764260550215278,-0.005762963092610175,-0.005630423494729535,0.0978722913832431
2321,10.0,300.1742,-2320.6559,0.0,0.023209989996425096,0.0,0.0,0.0,0.0,0.1070058473481549,0.40326345796150465,0.1951521415125168,-0.013307589089356787,-0.008221081186732542,0.1006330767054614
2322,10.0,300.06797,-2407.7691,0.0,0.0232200189739018,0.0,0.0,0.0,0.0,0.14624576105583287,0.39815248260209063,0.18750345088014983,-0.01098141713253149,0.011049408240741689,0.09301959448756922
2323,10.0,299.93835,-2560.5339,0.0,0.023230014961320933,0.0,0.0,0.0,0.0,0.17494180435541182,0.4162480654754856,0.18714848910511783,-0.015310597085788287,0.014189987058192684,0.1041521095015129
2324,10.0,300.32427,-2709.5616,0.0,0.023240010948740286,0.0,0.0,0.0,0.0,0.18133959720932483,0.43098833143773657,0.2113111399997858,-4.725295286400335e-05,0.01059599401974319,0.1064740632981719
2325,10.0,300.03578999999996,-2755.4214,0.0,0.02325000693615986,0.0,0.0,0.0,0.0,0.16422472897521884,0.43717274395309064,0.23618183993183278,-0.015821060327167086,-0.006912151737951264,0.08874218654817191
2326,10.0,299.20851,-2693.9643,0.0,0.023260002923578993,0.0,0.0,0.0,0.0,0.14400785635496888,0.4449973955978236,0.22989261682613477,0.011270389981550888,-0.0026284195980548174,0.09642422932083052
2327,10.0,299.35017999999997,-2720.0678,0.0,0.023269998910998346,0.0,0.0,0.0,0.0,0.16772455561562485,0.4261689795896036,0.23293915590180478,0.005059854156093725,-0.007648314919229913,0.09479993672152531
2328,10.0,299.95801,-2812.4125,0.0,0.023279994898417478,0.0,0.0,0.0,0.0,0.1892005232076378,0.43966642337669753,0.2260362173430378,0.012698721024766187,0.01030864642388419,0.09567078870547172
2329,10.0,300.13361000000003,-2602.1844,0.0,0.023289990885837053,0.0,0.0,0.0,0.0,0.15606158086957886,0.42551682142774055,0.2094206584932098,0.0024373829440759677,-0.0015863343253840086,0.08941887144195551
2330,10.0,300.47172,-2392.0134,0.0,0.02330001986331376,0.0,0.0,0.0,0.0,0.12243271184316788,0.41533156049503356,0.18934806255469883,0.006598491455545405,0.0027426800628064475,0.1070778792977639
2331,10.0,300.56987000000004,-2493.5994,0.0,0.023310015850733112,0.0,0.0,0.0,0.0,0.1181059211336469,0.4244124801437506,0.2154735410130828,-0.008116598585445913,-0.01020819483547039,0.1078556906045279
2332,10.0,300.64193,-2596.9849,0.0,0.023320011838152244,0.0,0.0,0.0,0.0,0.13034018655107488,0.4436371681335796,0.21544121833489283,-0.0018130030337044681,-0.004561616993071545,0.11087417278492889
2333,10.0,300.51014,-2608.3794,0.0,0.023330007825571597,0.0,0.0,0.0,0.0,0.15079048159686187,0.4378366456836125,0.2042550892184078,-0.0029507239170637775,-0.004347702671709846,0.1070955909095119
2334,10.0,300.49226,-2641.0731,0.0,0.02334000381299095,0.0,0.0,0.0,0.0,0.17543090017868182,0.4378385505938006,0.18955081389970882,0.004466679309051926,0.00897766936220198,0.10917927894515589
2335,10.0,299.86265,-2721.6855,0.0,0.023349999800410304,0.0,0.0,0.0,0.0,0.18241381456784184,0.44225105212928056,0.20265955468344082,0.004440368345030235,0.01120040479714389,0.10604463777329089
2336,10.0,299.20871,-2741.5987,0.0,0.023359995787829435,0.0,0.0,0.0,0.0,0.16926242608740083,0.43618597007820353,0.2279291610473568,-0.01042866792472939,0.01815522277428098,0.09451911344306022
2337,10.0,299.65772999999996,-2787.8173,0.0,0.02336999177524879,0.0,0.0,0.0,0.0,0.14574296609121087,0.4587177442744166,0.24296612690388977,0.006198696605988724,-0.006949059778143804,0.08497360646449201
2338,10.0,300.67663,-2673.1679,0.0,0.023380020752725716,0.0,0.0,0.0,0.0,0.14748227068286687,0.4191091899153566,0.24598482186681175,-0.013076690669818886,-0.009581676764737871,0.08674123038319291
2339,10.0,300.22299,-2552.869,0.0,0.02339001674014507,0.0,0.0,0.0,0.0,0.16387553259325582,0.41563609281258856,0.19649679532272382,0.01152734818041069,-0.013882435255339687,0.08039001460987671
2340,10.0,299.56241,-2541.2338,0.0,0.0234000127275642,0.0,0.0,0.0,0.0,0.15745265166686684,0.4254938409154726,0.1895251381421748,0.0028565389765434473,-0.0046483610301575155,0.09916193787202131
2341,10.0,299.96822000000003,-2635.2578,0.0,0.023410008714983555,0.0,0.0,0.0,0.0,0.16242641269773883,0.4229968988265436,0.21562925728845078,0.020057506618021782,-0.001174531752867259,0.08352584939035952
2342,10.0,299.47343,-2696.9712,0.0,0.023420004702402908,0.0,0.0,0.0,0.0,0.14616562310542386,0.45279147748703963,0.2208548109691728,-0.002043659489118488,0.013552336611261488,0.1069321941983859
2343,10.0,299.45736,-2738.9408,0.0,0.02343000068982226,0.0,0.0,0.0,0.0,0.14089598291285088,0.4456543261676576,0.24601929263521377,0.01043254157986169,0.0016427381081006284,0.0980736322841139
2344,10.0,299.70072999999996,-2714.2261,0.0,0.023439996677241615,0.0,0.0,0.0,0.0,0.15907282844426585,0.4460787259720426,0.21990539562547282,-0.015388617343488285,0.014487622182316985,0.10949437946125389
2345,10.0,299.51069,-2665.7129999999997,0.0,0.023449992664660746,0.0,0.0,0.0,0.0,0.17908896608720482,0.44034051840322563,0.19088069452345782,0.005860639490325084,-0.008211605373122353,0.08678781455654042
2346,10.0,299.73296,-2608.3845,0.0,0.023460021642137674,0.0,0.0,0.0,0.0,0.17581435454652583,0.42705025386407863,0.1900191482284298,-0.0053605753360475945,-0.01153955581761549,0.1117696224283029
2347,10.0,299.9279,-2733.4264,0.0,0.023470017629557027,0.0,0.0,0.0,0.0,0.18285039363842884,0.4434001689351896,0.2046428296341748,-0.002563790352351408,-0.0044872302502301465,0.0964194771778615
2348,10.0,300.24672999999996,-2651.2491,0.0,0.02348001361697616,0.0,0.0,0.0,0.0,0.13829951939909987,0.43925959332904657,0.22835442211432677,-0.0053940700406282654,0.003369532911372007,0.09942468274220222
2349,10.0,300.11914,-2492.8729,0.0,0.023490009604395512,0.0,0.0,0.0,0.0,0.10447697774857491,0.4222239105902556,0.23107021609235476,0.0038178079278633065,-0.005827126243267584,0.09573438737449841
2350,10.0,300.15977999999996,-2600.9252,0.0,0.023500005591814865,0.0,0.0,0.0,0.0,0.1258239687353589,0.4342555766501886,0.2305367703122078,0.01307891678028859,0.01994691138285688,0.09616609879160501
2351,10.0,300.21889,-2752.7742,0.0,0.02351000157923422,0.0,0.0,0.0,0.0,0.17517564221348983,0.44353366463586463,0.2180653233113718,0.013367813635550486,-0.0072772084224045535,0.09646258387686582
2352,10.0,299.81208,-2806.4057,0.0,0.023519997566653572,0.0,0.0,0.0,0.0,0.18434780503371184,0.4581772665385756,0.2105522055423848,0.0044356456876391455,-0.005482599931015485,0.1080826687594289
2353,10.0,299.67816,-2678.9622,0.0,0.023529993554072703,0.0,0.0,0.0,0.0,0.1720293993279798,0.4360173855265656,0.2062908302593198,-0.002855343442750457,-0.02283676348956308,0.09695977455518472
2354,10.0,300.1483,-2644.8199,0.0,0.023539989541492057,0.0,0.0,0.0,0.0,0.1341504628896199,0.4412987490227956,0.22850998640217976,-0.005051373556731755,0.00045149703021928755,0.0896253404015824
2355,10.0,299.91852,-2689.3885,0.0,0.023550018518968985,0.0,0.0,0.0,0.0,0.1317000999077879,0.44430604492209264,0.24150082540427578,-0.01233600889971929,-0.0050968488291698155,0.095953083223082
2356,10.0,299.41096,-2646.9635,0.0,0.023560014506388116,0.0,0.0,0.0,0.0,0.15983546126453185,0.4254662298502476,0.21930911820662477,-0.011586498681498388,0.022597244338174376,0.08755312641007082
2357,10.0,300.17437,-2624.5292,0.0,0.02357001049380747,0.0,0.0,0.0,0.0,0.17948280626857385,0.4217076495318046,0.19660089663799782,-0.004301233603573706,0.006400890156818675,0.08307883181724232
2358,10.0,300.2163,-2662.7027,0.0,0.0235800064812266,0.0,0.0,0.0,0.0,0.18013793325322983,0.43126607342264756,0.1979911163052018,0.006258819320547375,0.013829855681150487,0.09901449984997031
2359,10.0,300.05676,-2746.6853,0.0,0.023590002468646176,0.0,0.0,0.0,0.0,0.17291246705513186,0.44531266836643857,0.2166986110464878,0.007369878250050353,-0.011248391308629788,0.0994784083022545
2360,10.0,299.87097,-2777.2596,0.0,0.02359999845606553,0.0,0.0,0.0,0.0,0.14618032536437486,0.4542859200595295,0.24375132480388279,-0.002176790825057528,-0.008827310342762702,0.1020381962153859
2361,10.0,300.51232999999996,-2692.4155,0.0,0.02360999444348466,0.0,0.0,0.0,0.0,0.13528261788885487,0.43852998232953966,0.24461447203406878,-0.005035743667314205,-0.012780234968810988,0.1022718618209469
2362,10.0,300.53112999999996,-2603.3857,0.0,0.023619990430904014,0.0,0.0,0.0,0.0,0.13739676422250488,0.4370585506668206,0.21690895163474683,-0.005772761626377214,0.005951582131850424,0.0964477671206535
2363,10.0,300.24101,-2583.4139,0.0,0.023630019408380942,0.0,0.0,0.0,0.0,0.16111685787099586,0.4381706230490736,0.18600584696734782,-0.0037724340817602564,-0.0007586106024040373,0.1002100761994645
2364,10.0,299.76243,-2621.3672,0.0,0.023640015395800074,0.0,0.0,0.0,0.0,0.16648368901316085,0.4311504615862376,0.19919603279411782,0.0018170181385507285,0.001962759777284308,0.09633630251690281
2365,10.0,299.66675,-2553.6606,0.0,0.023650011383219427,0.0,0.0,0.0,0.0,0.15076394457674286,0.4278609957990926,0.19762412725148282,0.011666044893848988,-0.011494384114907389,0.1102573061240489
2366,10.0,299.7111,-2546.8756,0.0,0.02366000737063856,0.0,0.0,0.0,0.0,0.11442723558558889,0.4282810588930496,0.23147830257012977,0.006641642838879113,0.0021687578795897377,0.09884269721601471
2367,10.0,299.63456,-2712.8736,0.0,0.023670003358058134,0.0,0.0,0.0,0.0,0.14688102833852887,0.44467936678893655,0.2330854388187418,-0.008001246647686562,-0.00873615309486618,0.09816552900193341
2368,10.0,299.69942000000003,-2745.4258,0.0,0.023679999345477487,0.0,0.0,0.0,0.0,0.16908658666504683,0.4449613238942636,0.22049298949096377,-0.017915337839606183,0.011784067252246887,0.09461069605334872
2369,10.0,299.70995,-2730.1221,0.0,0.02368999533289662,0.0,0.0,0.0,0.0,0.18763476809310983,0.43247945054989856,0.2097747286081538,-0.008207136230906282,0.007071454614698233,0.0920788566177256
2370,10.0,300.2719,-2785.3473,0.0,0.023699991320315972,0.0,0.0,0.0,0.0,0.17934161999963982,0.44943081061536755,0.2179036085954118,-0.0012300080064423387,0.01169373195283149,0.10220056954391091
2371,10.0,300.51096,-2708.7106,0.0,0.0237100202977929,0.0,0.0,0.0,0.0,0.16259123809150583,0.4341154846913626,0.22667365298094777,0.003978729876945066,-0.006554880867266373,0.1061284031590579
2372,10.0,299.82196,-2614.6867,0.0,0.02372001628521203,0.0,0.0,0.0,0.0,0.12960190213071188,0.43741216481921963,0.2277853909906678,-0.0072600712221382434,-0.005059842402392566,0.11085818369835089
2373,10.0,300.09029,-2598.5843,0.0,0.023730012272631384,0.0,0.0,0.0,0.0,0.14363311593798486,0.4268103365054006,0.21946128810664278,0.006679031159619055,-0.004192062795399386,0.08987719485968852
2374,10.0,300.1902,-2544.5638,0.0,0.023740008260050738,0.0,0.0,0.0,0.0,0.15395596610177087,0.4145215177025886,0.2050063635050528,0.0018128815450174783,0.006970463977231234,0.09049177664159301
2375,10.0,299.93641,-2621.1441,0.0,0.02375000424747009,0.0,0.0,0.0,0.0,0.16312040795623084,0.43899593552052557,0.19464602308756682,0.014158352376820588,0.009717585216550991,0.09855255001012941
2376,10.0,299.33761,-2793.2486,0.0,0.023760000234889445,0.0,0.0,0.0,0.0,0.17638894841323383,0.4454417969591826,0.22724708161004079,-0.013326507481973887,0.010645932050921689,0.09555251404779891
2377,10.0,299.23365,-2844.6355,0.0,0.023769996222308576,0.0,0.0,0.0,0.0,0.16918461861222184,0.45793736944489954,0.23757618352694376,-0.0031163860527633567,-0.008590091167775992,0.10672654495808989
2378,10.0,299.1678,-2765.7372,0.0,0.02377999220972793,0.0,0.0,0.0,0.0,0.13163838284419688,0.46141532001564656,0.24766135561477276,-0.005870254321848995,-0.014984361964341386,0.09726996080829772
2379,10.0,299.20342999999997,-2685.0689,0.0,0.023790021187204635,0.0,0.0,0.0,0.0,0.15566685916062287,0.43424262731391056,0.2262844028225318,0.0031613368669496564,-0.012642612300478688,0.1118694883581589
2380,10.0,299.49586,-2696.8936,0.0,0.02380001717462399,0.0,0.0,0.0,0.0,0.16864072622354384,0.4502476421834825,0.2008999445597808,-0.001920144707228528,-0.0022121659191737778,0.10267924915615291
2381,10.0,300.08582,-2582.5571,0.0,0.023810013162043342,0.0,0.0,0.0,0.0,0.16887143313881284,0.4404100780225906,0.17575137092030982,-0.0028294273422927374,0.00020777082388538377,0.12092626225699288
2382,10.0,299.94749,-2606.7894,0.0,0.023820009149462695,0.0,0.0,0.0,0.0,0.16426957542464485,0.43567670044544254,0.19245263046359581,0.0092451412467494,0.006012807363842884,0.1038825545774099
2383,10.0,300.17635,-2655.0498,0.0,0.02383000513688205,0.0,0.0,0.0,0.0,0.12841019842309986,0.45623678113956456,0.22242187317632978,0.00033502551189444363,0.0019694556379201383,0.1210227743290179
2384,10.0,300.61887,-2568.4873,0.0,0.02384000112430118,0.0,0.0,0.0,0.0,0.1191193536186649,0.4402386766356746,0.2213979535527768,-0.0003618340729077426,-0.0018677737612349183,0.1085820997337189
2385,10.0,299.93217000000004,-2615.4797,0.0,0.023849997111720533,0.0,0.0,0.0,0.0,0.14740648970788786,0.42717376905126864,0.22046025138023279,-0.023883231980841475,-0.004148807249955396,0.09504147021411281
2386,10.0,299.647,-2817.7714,0.0,0.023859993099139887,0.0,0.0,0.0,0.0,0.18047463626145982,0.4559806923092906,0.22007680714488978,0.0013704284609507588,-0.006529338048145494,0.08725401396730072
2387,10.0,299.97299,-2868.5636,0.0,0.02386998908655924,0.0,0.0,0.0,0.0,0.20816189789397976,0.44456433250508354,0.2192454759678438,0.007803005988146733,-0.009259266662418471,0.08867928803496432
2388,10.0,299.77957999999995,-2832.1574,0.0,0.023880018064035946,0.0,0.0,0.0,0.0,0.18498192734379482,0.4536874742854676,0.2222357188679578,0.016136212519020185,-0.002750467801750037,0.1013263981526369
2389,10.0,300.43928,-2821.1803,0.0,0.0238900140514553,0.0,0.0,0.0,0.0,0.16411236967162982,0.4523890753423256,0.24106693144645375,0.002291211788624998,-0.0028820532220115076,0.0986078653595886
2390,10.0,300.20384,-2762.4183,0.0,0.023900010038874653,0.0,0.0,0.0,0.0,0.13574572384705988,0.4406386469801486,0.2633218046553387,0.01112375141382879,-0.009286666667647641,0.0945610143744455
2391,10.0,299.37574,-2703.4567,0.0,0.023910006026294006,0.0,0.0,0.0,0.0,0.16345845858709385,0.4543762614384456,0.2039486013281598,-0.0037974749367815958,0.0014509414152217685,0.08858641049104801
2392,10.0,299.42167,-2605.438,0.0,0.023920002013713138,0.0,0.0,0.0,0.0,0.15448245085373086,0.4292306059592626,0.20827505766514778,0.005426061588685584,-0.004429445812927266,0.0979982819404274
2393,10.0,299.74602000000004,-2645.4195,0.0,0.02392999800113249,0.0,0.0,0.0,0.0,0.18786893019121984,0.4299239730026926,0.1863485686811718,-0.02098874425492778,0.006971338513392543,0.09130552590290382
2394,10.0,299.8344,-2652.7492,0.0,0.023939993988551844,0.0,0.0,0.0,0.0,0.15476345550396386,0.45137630146987257,0.20022977081113982,-0.0025790066330781377,-0.002793891344060607,0.1030214541124259
2395,10.0,299.53336,-2700.7167,0.0,0.023949989975971198,0.0,0.0,0.0,0.0,0.14633208996435287,0.44400582904996355,0.23061252088968381,-0.005563009128476255,-0.005241682291838765,0.1139022200462739
2396,10.0,299.98135,-2780.4993,0.0,0.023960018953447904,0.0,0.0,0.0,0.0,0.14226184404765088,0.47013160135087656,0.23280892286645177,0.012563701395940789,-0.00965860625870522,0.1063428778077249
2397,10.0,300.29564,-2629.1199,0.0,0.023970014940867257,0.0,0.0,0.0,0.0,0.15174252125832086,0.4286112163056336,0.21883306291214177,-0.002937824939315747,0.0022871110641452877,0.09802550087786371
2398,10.0,300.27262,-2645.2619,0.0,0.02398001092828661,0.0,0.0,0.0,0.0,0.16623308186592783,0.4390405083924246,0.1988199954170058,-0.0009133919113747633,0.0031783220797009667,0.0896427297997986
2399,10.0,300.2514,-2742.1931,0.0,0.023990006915705964,0.0,0.0,0.0,0.0,0.18544676595967083,0.45149782055436555,0.19661365345675683,-0.016685488305479484,0.014150975916092589,0.09728119369890631
2400,10.0,299.57082,-2784.1428,0.0,0.024000002903125095,0.0,0.0,0.0,0.0,0.17187233542997885,0.43968619188614855,0.23475136383815576,-0.007492419095944192,0.003922244527595396,0.0983809449599433
2401,10.0,299.66556,-2607.8995,0.0,0.02400999889054445,0.0,0.0,0.0,0.0,0.12309602588863189,0.43369982923534056,0.23594047362551177,-0.023930220440978877,0.012953510868411988,0.1090513966500349
2402,10.0,299.82502999999997,-2551.1089,0.0,0.0240199948779638,0.0,0.0,0.0,0.0,0.11790443635126188,0.4384743346340476,0.2190946232929558,-0.014153744115365786,-0.008187978913915601,0.0969771203836466
2403,10.0,299.66343,-2691.341,0.0,0.024029990865383155,0.0,0.0,0.0,0.0,0.15675261743777885,0.4386622823950965,0.2226855613823538,-0.006421249695053004,0.004951940689968496,0.0928990876399261
2404,10.0,298.9642,-2864.6281,0.0,0.02404001984285986,0.0,0.0,0.0,0.0,0.1981879604021288,0.4554843112178016,0.21710315114891277,0.010525767681812391,-0.00901903256175921,0.09577326882058572
2405,10.0,299.09317000000004,-2913.8997,0.0,0.024050015830279214,0.0,0.0,0.0,0.0,0.2090873701378168,0.4627170728166196,0.2139483159025548,0.016560095565854183,0.005554752457386385,0.08449343028185233
2406,10.0,298.6999,-2805.7423,0.0,0.024060011817698568,0.0,0.0,0.0,0.0,0.16709956268894283,0.45116918301693154,0.2346068642413948,0.009268122569617482,-0.009042058062331652,0.09596233926274551
2407,10.0,299.03668,-2775.8727,0.0,0.02407000780511792,0.0,0.0,0.0,0.0,0.15161125470786585,0.45310074168256154,0.23908399086825277,0.0035901116826164365,0.0039447888356953465,0.09771960269917392
2408,10.0,299.54359,-2903.0137,0.0,0.024080003792537052,0.0,0.0,0.0,0.0,0.16733119166180285,0.4580011535386945,0.25711132121491176,0.0021480243507434977,0.000956417580768566,0.09408985510444572
2409,10.0,299.74466,-2890.6043,0.0,0.024089999779956406,0.0,0.0,0.0,0.0,0.18158936335897483,0.45063222125893754,0.24644994419271576,-0.0064490441585461035,0.013402009813175388,0.07583697731202693
2410,10.0,299.46599,-2635.4346,0.0,0.02409999576737576,0.0,0.0,0.0,0.0,0.18072247723591983,0.4367668866255356,0.18361694773658183,-0.01952741570895588,-0.008590468299463212,0.09922311183355871
2411,10.0,299.63919,-2466.393,0.0,0.024109991754795113,0.0,0.0,0.0,0.0,0.13751892165456087,0.4210127626132246,0.19119021203150482,-0.007241848223064774,0.0004938051766872766,0.09948706145810851
2412,10.0,300.18225,-2604.7809,0.0,0.02412002073227182,0.0,0.0,0.0,0.0,0.1255533093686469,0.4546765685030836,0.2115584743491958,0.01065281809860129,-0.005688709592156925,0.13432651509449486
2413,10.0,300.32116,-2715.7922,0.0,0.024130016719691172,0.0,0.0,0.0,0.0,0.14110301017328286,0.44170485966287554,0.24272514563260675,-0.0044890716296368755,-0.00034018038124818974,0.1109117643636389
2414,10.0,300.39055,-2668.3584,0.0,0.024140012707110525,0.0,0.0,0.0,0.0,0.13100637822682287,0.46016615489486357,0.2199417814365638,0.007619565670167583,-0.012368776394703188,0.12121512972800187
2415,10.0,299.73931,-2553.241,0.0,0.02415000869452988,0.0,0.0,0.0,0.0,0.15107500222494186,0.4378192279143936,0.1872272794328938,-0.004036629824759346,0.0035190527570784663,0.10224123127042391
2416,10.0,299.84844,-2632.2870000000003,0.0,0.02416000468194901,0.0,0.0,0.0,0.0,0.18551446119885182,0.42869780865917956,0.1859372600680788,0.004888259542383655,0.0018467903649140183,0.08830680817895342
2417,10.0,300.00115,-2790.8452,0.0,0.024170000669368363,0.0,0.0,0.0,0.0,0.18942020596181883,0.4453490339125276,0.21357800338850783,-0.0013425814097774687,0.003621607042099786,0.09436756669185373
2418,10.0,299.75021,-2877.7701,0.0,0.024179996656787717,0.0,0.0,0.0,0.0,0.16627830321789083,0.45401536201782755,0.25447657711238275,-0.0031169459747686173,-0.016934239178529282,0.09106598851301331
2419,10.0,299.31894,-2747.7533,0.0,0.02418999264420707,0.0,0.0,0.0,0.0,0.14602090059364087,0.4505922080124885,0.2386352831939688,-0.006712530018525133,-0.007813156727648532,0.1041350058398249
2420,10.0,299.77715,-2561.2382,0.0,0.024200021621683776,0.0,0.0,0.0,0.0,0.12621566082651586,0.43638752578809553,0.2159492822000348,0.0028342455491682573,-0.000898901431827164,0.10062217210788521
2421,10.0,300.32802000000004,-2636.9963,0.0,0.02421001760910313,0.0,0.0,0.0,0.0,0.17558965620434983,0.4353235017255846,0.1906678613399528,-0.005599632344065684,0.007848527566114363,0.08951188172163492
2422,10.0,300.54007,-2717.5638,0.0,0.02422001359652226,0.0,0.0,0.0,0.0,0.19067263374792381,0.4309364834301196,0.20446243058637079,-0.00022349903909263776,-0.00928805684678484,0.08884200992152372
2423,10.0,300.20817999999997,-2814.3145,0.0,0.024230009583941836,0.0,0.0,0.0,0.0,0.18668559592943385,0.4509778510005486,0.2178178977694528,-0.006039741780651104,-0.0048455484162183956,0.0994170833664522
2424,10.0,299.72693,-2756.9495,0.0,0.024240005571360967,0.0,0.0,0.0,0.0,0.14254466241556285,0.4617194267681595,0.23377970765476078,0.009655938371191922,-0.006739839033895323,0.1066114296142289
2425,10.0,300.21218,-2661.2818,0.0,0.02425000155878032,0.0,0.0,0.0,0.0,0.14367443627706286,0.4466628545221915,0.21862591406169782,-0.0003444565702477167,0.0037574951275858967,0.1020819179572009
2426,10.0,300.02429,-2772.6884,0.0,0.024259997546199674,0.0,0.0,0.0,0.0,0.15007278641853086,0.45870413632557355,0.23405111682654678,-0.000988145055584824,-0.007245107747311463,0.10150937085569489
2427,10.0,299.68258,-2798.2962,0.0,0.024269993533619028,0.0,0.0,0.0,0.0,0.19145179267732082,0.4484296283240585,0.21073074021000482,-0.0034229443638933064,-0.0013649717038622187,0.09370786690949641
2428,10.0,299.9355,-2709.8937,0.0,0.02427998952103838,0.0,0.0,0.0,0.0,0.16874254772609285,0.44638677426744455,0.20861070689327382,0.007512329055109153,0.0007353892811172713,0.09997804192656451
2429,10.0,299.53997999999996,-2545.2064,0.0,0.024290018498515087,0.0,0.0,0.0,0.0,0.14912281378727585,0.4314217187705086,0.1931346693709078,0.014813741793252486,-0.006712605201682555,0.1035150791636429
2430,10.0,299.55219,-2543.3291,0.0,0.024300014485934218,0.0,0.0,0.0,0.0,0.1084672984973889,0.44244375203329855,0.22219747880918378,0.0003151164342570707,-0.024946357290513775,0.1115911384231879
2431,10.0,299.36028,-2705.7132,0.0,0.02431001047335357,0.0,0.0,0.0,0.0,0.13925787160868186,0.4572696680265026,0.2259417216387118,-0.006071966072256394,-0.021254336357889682,0.12412089796727889
2432,10.0,299.3967,-2797.0178,0.0,0.024320006460773147,0.0,0.0,0.0,0.0,0.15279991866517786,0.46203901598220054,0.2353846350181548,0.003556718809670817,-5.8886807815425444e-05,0.11710512387737589
2433,10.0,299.38086,-2721.5834,0.0,0.02433000244819228,0.0,0.0,0.0,0.0,0.1908750709854028,0.44165801711075264,0.19476030756634582,-0.015491201823362588,0.02359718843786118,0.11461202200632588
2434,10.0,299.70637,-2670.5317,0.0,0.02433999843561163,0.0,0.0,0.0,0.0,0.16614092676933284,0.4504042298539365,0.19522980713268182,-0.018891272978173484,0.02096003482659438,0.09256582056278521
2435,10.0,300.36179,-2705.2088,0.0,0.024349994423030763,0.0,0.0,0.0,0.0,0.16715583859949684,0.4481117413701856,0.2070483259015788,-0.01651653290430488,0.004193272109393736,0.11396045152952089
2436,10.0,300.69819,-2881.8541,0.0,0.02435999041045034,0.0,0.0,0.0,0.0,0.16338293092463985,0.46160365281173354,0.2510251027667488,-0.0023823409694937476,-0.0008478581677045862,0.0921337443756426
2437,10.0,300.25147999999996,-2965.8606,0.0,0.024370019387927044,0.0,0.0,0.0,0.0,0.17174180855209684,0.4627636316587146,0.26704213478250677,0.00986309634088682,-0.011324044614096189,0.08782188491959522
2438,10.0,300.04843999999997,-2768.8896,0.0,0.024380015375346176,0.0,0.0,0.0,0.0,0.16738156032427384,0.44096834843018756,0.2333233702072238,0.003728153836490137,-0.01992667576510978,0.08181611954262233
2439,10.0,300.2871,-2733.9363,0.0,0.02439001136276553,0.0,0.0,0.0,0.0,0.18555069502242783,0.43725613443632055,0.2082415494843408,-0.0025369100430985276,-0.012504563053854289,0.08115574189594812
2440,10.0,299.68147,-2915.1312,0.0,0.024400007350185104,0.0,0.0,0.0,0.0,0.20228959680692882,0.44714908284767857,0.23668841431932777,-0.004476931880188776,0.006093068018838994,0.08745738440812181
2441,10.0,299.58763999999996,-2958.3681,0.0,0.024410003337604236,0.0,0.0,0.0,0.0,0.1890560844058828,0.4552193767141546,0.25499456069600374,0.0012131736666309188,0.0019461774327727583,0.08150606197227202
2442,10.0,299.5645,-2810.6437,0.0,0.02441999932502359,0.0,0.0,0.0,0.0,0.14159184255152688,0.46055132165537654,0.2522223286874058,-0.006866484859919294,-0.007271718532037743,0.1130352832607139
2443,10.0,299.23938,-2700.2089,0.0,0.02442999531244272,0.0,0.0,0.0,0.0,0.13384404592687887,0.4630072879102616,0.2239447272816238,0.0009985811364472848,-0.017409730092706584,0.1175912103478489
2444,10.0,299.55061,-2667.4941,0.0,0.024439991299862074,0.0,0.0,0.0,0.0,0.13994566577656187,0.45431586159998455,0.2165900615632748,-0.0059000312091627444,-0.005172268276513135,0.13649645097865087
2445,10.0,299.5008,-2756.0370000000003,0.0,0.024450020277339002,0.0,0.0,0.0,0.0,0.18737597388506883,0.45375758105988656,0.1966328748111538,0.0006814702004283722,0.009175795524480512,0.0976779246828106
2446,10.0,299.52135,-2720.4578,0.0,0.024460016264758133,0.0,0.0,0.0,0.0,0.15498941027626387,0.4546630416142486,0.2172987996107218,-0.0059236052833393235,0.013471124615746486,0.11197587961865889
2447,10.0,300.4109,-2536.6511,0.0,0.024470012252177487,0.0,0.0,0.0,0.0,0.12279907268182487,0.4423937886708676,0.2058857227368388,0.0006481107039410463,-0.0025487726686442775,0.0953902075937805
2448,10.0,300.48875,-2518.9268,0.0,0.02448000823959684,0.0,0.0,0.0,0.0,0.100762636942748,0.4440183325561976,0.2209098709796068,-0.0027724427646187975,0.0033461956337437967,0.11391363937490089
2449,10.0,299.87539,-2801.6386,0.0,0.024490004227016193,0.0,0.0,0.0,0.0,0.15643850990677885,0.4557309362921416,0.23945872115273578,0.018608957182311085,-0.013727997701597888,0.09826600592159972
2450,10.0,299.62519,-2913.6768,0.0,0.024500000214435547,0.0,0.0,0.0,0.0,0.18391956501144782,0.45736683871109257,0.2443985991002638,-0.006011494597013324,-0.004066914654348225,0.10193006216471391
2451,10.0,299.86655,-2848.5843,0.0,0.024509996201854678,0.0,0.0,0.0,0.0,0.2005067021959708,0.4519223520812636,0.21346945390529481,-0.007805739331616492,-0.0074017862049744225,0.09913848113220632
2452,10.0,299.93465,-2728.4383,0.0,0.02451999218927403,0.0,0.0,0.0,0.0,0.1715260268108008,0.4424308837570286,0.21542019339531782,-0.007462683245259493,0.008351769374030461,0.09070445074483233
2453,10.0,299.43731,-2793.7192,0.0,0.02453002116675096,0.0,0.0,0.0,0.0,0.17698496238705583,0.4443005733715526,0.22793534187296677,-0.003047072146547607,0.012484015355076386,0.08474970048389421
2454,10.0,299.06763,-2878.7081,0.0,0.02454001715417009,0.0,0.0,0.0,0.0,0.15823615743919286,0.4648887818884505,0.25193045186359975,-0.016217494428792084,0.014454254843273886,0.09562409307461321
2455,10.0,299.40907999999996,-2834.0384,0.0,0.024550013141589666,0.0,0.0,0.0,0.0,0.16244955533002287,0.4587197910396186,0.24030757142401077,7.141884717224143e-05,-0.00886509899861715,0.09324449244001491
2456,10.0,300.08752999999996,-2693.0491,0.0,0.024560009129008797,0.0,0.0,0.0,0.0,0.15260650948608984,0.45225546818413964,0.2137577032937428,0.001121402186523779,-0.0006672346343409314,0.1023616763098109
2457,10.0,300.26074,-2648.2029,0.0,0.02457000511642815,0.0,0.0,0.0,0.0,0.17859031531549183,0.4265950613891546,0.1998021691364388,0.006319519385013004,-0.004126516051730427,0.08663046289551102
2458,10.0,300.15661,-2792.1047,0.0,0.024580001103847504,0.0,0.0,0.0,0.0,0.17058921629834484,0.44748225974556055,0.23065864403423578,-0.007359706130971442,0.0068219520113992444,0.08710308327215502
2459,10.0,299.90798,-2876.3505,0.0,0.024589997091266635,0.0,0.0,0.0,0.0,0.1751919048775948,0.46919119380056556,0.22995565111485577,-0.007621322037890923,-0.004121155958701426,0.0996344792151575
2460,10.0,299.73131,-2800.507,0.0,0.02459999307868599,0.0,0.0,0.0,0.0,0.14507341042513086,0.46061040426870753,0.24560039477887177,-0.0015734181223842785,-0.0038681831764599568,0.1040331640722739
2461,10.0,299.88951000000003,-2718.2763,0.0,0.024610022056162917,0.0,0.0,0.0,0.0,0.15016283395491786,0.46496007416548657,0.21116520158788282,0.017378145060589382,-0.01146778832628259,0.11513786841072289
2462,10.0,300.46563,-2718.7104,0.0,0.02462001804358227,0.0,0.0,0.0,0.0,0.15019401166049487,0.45688978029901056,0.2193362834418058,0.008874749091244543,0.0025371866603758277,0.1155410507580139
2463,10.0,300.06023999999996,-2813.6368,0.0,0.024630014031001624,0.0,0.0,0.0,0.0,0.17867534726388384,0.4707627143081626,0.2058372792495578,0.0074902609745562026,-0.01767929818906088,0.11654119953422089
2464,10.0,299.97086,-2823.3215,0.0,0.024640010018420755,0.0,0.0,0.0,0.0,0.15394108145780186,0.47483135928970654,0.22944678678213476,-0.0017697806215387483,0.006880736323900804,0.1080125822500119
2465,10.0,299.98224,-2597.6479,0.0,0.024650006005840108,0.0,0.0,0.0,0.0,0.14167972173269985,0.4350238026110066,0.2129165638557288,-0.0014347388368476988,0.006782122568518384,0.09913866858347481
2466,10.0,299.60067999999995,-2595.4814,0.0,0.02466000199325946,0.0,0.0,0.0,0.0,0.12671619624341487,0.4490607007513406,0.2131846293021848,-0.006431453731510064,0.007588049843032213,0.1002814535895089
2467,10.0,299.61244,-2815.8747,0.0,0.024669997980678593,0.0,0.0,0.0,0.0,0.17763569186627784,0.4568852105410595,0.2214347142664048,-0.005208764025239985,-0.01893205325494818,0.1081799914315339
2468,10.0,299.37018,-3042.4227,0.0,0.02467999396809817,0.0,0.0,0.0,0.0,0.2008324317056178,0.48110080375345254,0.2428873061786108,0.0010338493732079891,-6.622764874941004e-05,0.0964420534033396
2469,10.0,299.66527,-2972.1716,0.0,0.0246899899555173,0.0,0.0,0.0,0.0,0.20228878620684881,0.4657019657562056,0.23547519931209276,0.013644397475597186,-0.004119743792037056,0.09820584419691222
2470,10.0,299.24799,-2745.6741,0.0,0.024700018932994228,0.0,0.0,0.0,0.0,0.16274211103139585,0.4439043723174506,0.22796986330387378,0.00031825331471165675,0.007570353328710703,0.09003792672305151
2471,10.0,300.0361,-2715.5944,0.0,0.02471001492041358,0.0,0.0,0.0,0.0,0.15856527120417385,0.4444200760883466,0.22248753178280978,-0.0059627448042270945,-0.006828054512776514,0.09672201541921971
2472,10.0,299.49991,-2893.2001,0.0,0.024720010907832712,0.0,0.0,0.0,0.0,0.17476782931324183,0.45862263048752955,0.24607011726022973,-0.007195171539983144,0.01220676175671359,0.09084231861968882
2473,10.0,300.04573999999997,-2901.3989,0.0,0.024730006895251844,0.0,0.0,0.0,0.0,0.19109159239927181,0.4624830323085216,0.22837819296167278,0.007920525166544973,0.0026313864956726274,0.09019894533619281
2474,10.0,300.2119,-2770.9537,0.0,0.02474000288267142,0.0,0.0,0.0,0.0,0.16716222207512685,0.4613158391208286,0.2138226830226558,0.01123830947013479,0.006270630574313055,0.10433031992910091
2475,10.0,300.63779,-2597.1728,0.0,0.024749998870090772,0.0,0.0,0.0,0.0,0.14456803167275387,0.44379223592888356,0.2011154020610448,0.0026725163437318275,-0.02204389022006258,0.1104230434429059
2476,10.0,299.64894,-2682.5777,0.0,0.024759994857510126,0.0,0.0,0.0,0.0,0.13831632921825887,0.46349872434126255,0.2136215832753088,-0.0027544336626414375,-0.010070258566232141,0.11892473867195788
2477,10.0,300.04616,-2865.9577,0.0,0.024769990844929257,0.0,0.0,0.0,0.0,0.15210973322706187,0.4760359008760855,0.24303396399808477,0.0005705555786994515,-0.00915873705374697,0.0929385821023239
2478,10.0,299.50957,-2797.5777,0.0,0.024780019822406185,0.0,0.0,0.0,0.0,0.16442500798998483,0.45901436310869054,0.22695438405365378,0.003435573918439747,-0.0016541705076539184,0.1175203740333579
2479,10.0,299.64836,-2655.6488,0.0,0.02479001580982554,0.0,0.0,0.0,0.0,0.13974316774407686,0.45941347219057954,0.2080942938473078,0.0067177345776637835,-0.01129844485031969,0.11686365624604488
2480,10.0,299.49403,-2644.0198,0.0,0.02480001179724467,0.0,0.0,0.0,0.0,0.15986705440264987,0.4514237418395546,0.1924251815183868,-0.002746062190315237,0.00015400965822456986,0.13083319351973086
2481,10.0,299.69317,-2857.2958,0.0,0.0248100077846638,0.0,0.0,0.0,0.0,0.16226355300916584,0.4656681333353665,0.24061488004683976,0.007926148704599973,0.003968291475739877,0.1020576810148089
2482,10.0,299.8518,-2921.134,0.0,0.024820003772083155,0.0,0.0,0.0,0.0,0.17293635949248984,0.4713119566573685,0.24370348926666177,-0.010795351990168291,0.008405912697098993,0.11188697705488489
2483,10.0,299.39867000000004,-2760.3361,0.0,0.02482999975950273,0.0,0.0,0.0,0.0,0.14249605680826588,0.4512467169145836,0.24533047508473277,-0.004266745913895036,-0.005638507913302405,0.1017512539195669
2484,10.0,299.92678,-2596.8045,0.0,0.024839995746922083,0.0,0.0,0.0,0.0,0.14392358434415187,0.43539145027729054,0.21004867090518978,-0.004588273779352365,0.011407391527571888,0.09739146165428891
2485,10.0,299.99781,-2692.2798,0.0,0.024849991734341215,0.0,0.0,0.0,0.0,0.16556585667507784,0.43549737544274464,0.21732260085557079,0.01041359988249229,0.017234259493388984,0.0882469463762955
2486,10.0,300.46362,-3021.2434,0.0,0.02486002071181792,0.0,0.0,0.0,0.0,0.2137711187250668,0.46179259355788055,0.24281882060435175,0.0018712333010513483,0.012595402951819488,0.08705990057939322
2487,10.0,300.51514,-3103.8722,0.0,0.024870016699237496,0.0,0.0,0.0,0.0,0.20397504715576983,0.4839403763636966,0.25558422159169875,-0.006600247924593753,-0.013222564233715489,0.09850601447278672
2488,10.0,300.24463,-2860.1026,0.0,0.024880012686656627,0.0,0.0,0.0,0.0,0.16137309868878486,0.4549225653623616,0.25310410958693075,-0.007479593984128453,-0.016316518347814984,0.0940332488743591
2489,10.0,299.36413999999996,-2770.0932,0.0,0.02489000867407576,0.0,0.0,0.0,0.0,0.15064522206252587,0.45615630881662256,0.2352376529586488,-0.00041398496124463456,-0.01045627493695399,0.09546972442187822
2490,10.0,299.80891,-2886.9814,0.0,0.024900004661495112,0.0,0.0,0.0,0.0,0.18241857684331184,0.45884552524452754,0.23630615558660176,-0.003223720041156397,-0.0068777307201291745,0.0955191598810071
2491,10.0,300.17875,-2975.8648,0.0,0.024910000648914465,0.0,0.0,0.0,0.0,0.19305954700849381,0.4779530713902955,0.23357597345715378,0.003489749260211437,-0.0098921703366062,0.1121566637015009
2492,10.0,299.88489,-2757.6392,0.0,0.02491999663633404,0.0,0.0,0.0,0.0,0.16556748800773882,0.45851630002203553,0.21416968065190178,0.012539972091848886,0.008214558591863812,0.12017216100256889
2493,10.0,299.99282,-2524.7406,0.0,0.024929992623753172,0.0,0.0,0.0,0.0,0.11438906645432188,0.45273841357930256,0.20033061959359283,0.020020826964401783,0.018350035304757484,0.1154546205244839
2494,10.0,300.15702000000005,-2675.3586,0.0,0.024940021601229878,0.0,0.0,0.0,0.0,0.12711636923790887,0.46303787793078055,0.2230879533945668,0.0030218843702617673,0.0045876561020914055,0.1165634707714189
2495,10.0,300.04365,-2923.6912,0.0,0.02495001758864923,0.0,0.0,0.0,0.0,0.16219353742725584,0.4885620025873155,0.23797359034866478,-0.008023579794465673,-0.016194322412255182,0.11362125592604488
2496,10.0,300.19207,-2840.0436,0.0,0.024960013576068585,0.0,0.0,0.0,0.0,0.17071103935786786,0.4705414711488276,0.2220498381371128,-0.007711337960874804,-0.0028130641637778174,0.11077836998797388
2497,10.0,299.95286,-2708.5445,0.0,0.024970009563487716,0.0,0.0,0.0,0.0,0.16388488489167882,0.4603144440469985,0.1991305565726558,0.008514872343952472,0.018967055979652682,0.11755894846466489
2498,10.0,300.4759,-2758.0246,0.0,0.02498000555090729,0.0,0.0,0.0,0.0,0.16432891135050084,0.46498274057022354,0.20905895860501278,6.290168265391274e-05,0.013576010186597888,0.1082840522168039
2499,10.0,300.29852999999997,-2883.4202,0.0,0.024990001538326423,0.0,0.0,0.0,0.0,0.16950746035908384,0.47194953415029256,0.23503075742072976,-0.014833788946480986,-0.014025133293422885,0.11292003619433989
2500,10.0,300.54773,-2946.3389,0.0,0.024999997525746,0.0,0.0,0.0,0.0,0.16554267351278984,0.4747790958495485,0.25529168615532777,0.0027005726310507677,-0.013266504837552089,0.08869440876620661
2501,10.0,300.45007999999996,-2765.4501,0.0,0.02500999351316513,0.0,0.0,0.0,0.0,0.15831936553740486,0.4394721326700226,0.24283626877107375,0.014041999854587487,-0.005512714129287524,0.08876110392753891
2502,10.0,300.62369,-2687.7415,0.0,0.02501998950058426,0.0,0.0,0.0,0.0,0.16078905119864384,0.44518259745110156,0.21103465444499878,0.017104064961539784,-0.006722518131385884,0.08865679489599441
2503,10.0,299.4656,-2838.9275,0.0,0.02503001847806119,0.0,0.0,0.0,0.0,0.19664077816193382,0.45204370904574054,0.21427858477264977,-0.011889830297684888,-0.014930326349758487,0.1036991056468049
2504,10.0,299.82894,-2989.9348,0.0,0.025040014465480542,0.0,0.0,0.0,0.0,0.21003753528659078,0.4680266350631325,0.23080132991331778,-0.0013298100002170287,0.008280416605963492,0.09530991968235672
2505,10.0,299.83777000000003,-2846.6125,0.0,0.025050010452899896,0.0,0.0,0.0,0.0,0.16688277783004785,0.46896125695537255,0.2294550954329548,-0.015876723221410587,0.028607987812888574,0.08713302278610982
2506,10.0,299.78676,-2721.9924,0.0,0.02506000644031925,0.0,0.0,0.0,0.0,0.15309624365692284,0.4450632568543235,0.2292582108060238,-0.0019006256599521482,0.004634078358072925,0.0956313773295821
2507,10.0,299.77381,-2807.3954,0.0,0.02507000242773838,0.0,0.0,0.0,0.0,0.15704716924184886,0.45547414831929856,0.24085677324321278,-0.014237093055341685,-0.01048179161422229,0.09733408434087622
2508,10.0,300.09469,-2831.8297,0.0,0.025079998415157734,0.0,0.0,0.0,0.0,0.17781765131923583,0.4663986562599636,0.2165892003006898,0.004703370175436495,-0.017722930764867084,0.10765090262681691
2509,10.0,300.22269,-2830.6178,0.0,0.025089994402577087,0.0,0.0,0.0,0.0,0.17506462040003284,0.4611077276827896,0.22426479272321176,0.010187204346398792,0.00979396603558919,0.1034589856381069
2510,10.0,300.59676,-2713.066,0.0,0.02509999038999622,0.0,0.0,0.0,0.0,0.16530424563175883,0.4507142033245286,0.20868586978569179,0.013777024820936486,0.003627310221612647,0.1211410814106939
2511,10.0,300.60264,-2640.0294,0.0,0.025110019367473146,0.0,0.0,0.0,0.0,0.13167891284819688,0.46065015407013055,0.21017393901505277,-0.006741647381348794,0.011513864861329989,0.11506122617315889
2512,10.0,299.78837000000004,-2726.7246,0.0,0.0251200153548925,0.0,0.0,0.0,0.0,0.13435435920724287,0.4619241640833655,0.23257767892862977,-0.007838872204586452,-0.0035403763014579363,0.1144085816512479
2513,10.0,299.49748999999997,-2882.4615,0.0,0.025130011342311853,0.0,0.0,0.0,0.0,0.16419056218184686,0.4677930809150826,0.24421266770691377,-0.0018007251782677384,0.011155127716425389,0.11048528739654889
2514,10.0,299.50556,-2923.7233,0.0,0.025140007329731207,0.0,0.0,0.0,0.0,0.1820108652680738,0.4816145519516556,0.2251134707419698,0.0035363765980131966,-0.013050352246719488,0.11744615346353289
2515,10.0,299.49496,-2810.337,0.0,0.025150003317150338,0.0,0.0,0.0,0.0,0.17784581967201585,0.46284239158898755,0.2135840727566068,0.00018720828099351883,-0.018841274151988982,0.11781016356195788
2516,10.0,299.74945,-2730.7909,0.0,0.02515999930456969,0.0,0.0,0.0,0.0,0.15470062386526284,0.4722169105866805,0.20317470116678182,0.006263958018429524,-0.017341375227710485,0.11206741663269289
2517,10.0,300.52451,-2845.5519,0.0,0.025169995291989045,0.0,0.0,0.0,0.0,0.16437963465050684,0.44911183948388755,0.25148526016716277,-0.0052359112245692055,0.01959736137660898,0.07869326246942034
2518,10.0,300.44332,-2914.0685,0.0,0.025179991279408398,0.0,0.0,0.0,0.0,0.17814974403951084,0.4582783686335536,0.24937595716899078,-0.004716720556104076,0.008733708223699892,0.09095196849251042
2519,10.0,300.15975,-2804.9421,0.0,0.025190020256885104,0.0,0.0,0.0,0.0,0.16023032482850186,0.44534248831688156,0.24705954585037876,-0.010776063761264689,0.008003932064426593,0.07710038467621552
2520,10.0,300.03442,-2796.4867,0.0,0.025200016244304235,0.0,0.0,0.0,0.0,0.18331024706381283,0.4429659912673396,0.2237858800634468,-0.00842987048908844,-0.016860187821470984,0.09863671360318571
2521,10.0,300.28369,-2904.1047,0.0,0.02521001223172381,0.0,0.0,0.0,0.0,0.19244331869517683,0.45615580219157253,0.2341762025513918,0.006455229239806524,0.0038896327691518664,0.1015880497259599
2522,10.0,300.20648,-3059.1228,0.0,0.025220008219143164,0.0,0.0,0.0,0.0,0.2112380948000768,0.46874686336671356,0.24991198673689277,-0.004046298662513587,-0.006783823815436284,0.11452306878004688
2523,10.0,299.26606,-3035.7421,0.0,0.025230004206562295,0.0,0.0,0.0,0.0,0.18498888837198182,0.4860396279208765,0.25176129989190577,-0.007989119969164751,0.007477294514351513,0.11734298433835089
2524,10.0,299.28055,-2700.7564,0.0,0.02524000019398165,0.0,0.0,0.0,0.0,0.14333817909887686,0.4515838454878556,0.22604047299345778,0.0013524172311481888,-0.01068018294405199,0.11163045252706788
2525,10.0,299.60356,-2537.0119,0.0,0.025249996181401002,0.0,0.0,0.0,0.0,0.1257062189412379,0.4430666070022696,0.2024154424693488,0.007407146601978453,0.024040867351898875,0.10873386433369689
2526,10.0,299.97426,-2664.9309,0.0,0.025259992168820355,0.0,0.0,0.0,0.0,0.15087311214251686,0.4608843465657436,0.19831500169966682,0.005983589486609305,-0.004937451314863505,0.11398398932934391
2527,10.0,299.80917,-2804.6883,0.0,0.02527002114629706,0.0,0.0,0.0,0.0,0.16789209651965986,0.4786316449822655,0.2060314787637238,0.008175725072506242,-0.0036334007666387366,0.12250627380042788
2528,10.0,299.97865,-2775.1573,0.0,0.025280017133716415,0.0,0.0,0.0,0.0,0.14910823311833685,0.4688880699006495,0.22558222050323176,0.0014433358586461587,-0.02172251261959508,0.11560129860895989
2529,10.0,300.08182,-2691.3192,0.0,0.025290013121135546,0.0,0.0,0.0,0.0,0.13129021997733586,0.4673562890619746,0.21944732552026477,0.010208033728704491,0.0038867061988880364,0.12065205651493087
2530,10.0,300.17292000000003,-2842.9886,0.0,0.02530000910855512,0.0,0.0,0.0,0.0,0.13927377963525187,0.4733523789137426,0.2515713965581638,0.004021701205736006,-0.002290737283603168,0.1134128405129759
2531,10.0,300.19297,-2929.1402,0.0,0.025310005095974253,0.0,0.0,0.0,0.0,0.17029893027719584,0.4702664041441805,0.24982015588032974,-0.012689388991345188,0.015204123752030186,0.11493357692556089
2532,10.0,300.18029,-2878.9997,0.0,0.025320001083393606,0.0,0.0,0.0,0.0,0.18322498206789783,0.47782597943025257,0.21409305867933978,0.004081892314676406,-0.002279514221520538,0.1071951629968389
2533,10.0,300.15648,-2711.2286,0.0,0.025329997070812738,0.0,0.0,0.0,0.0,0.17213728006612683,0.43222531729231756,0.2197832179284148,0.020155950957987483,0.01238106103891559,0.1075470140940639
2534,10.0,299.22238,-2720.5044,0.0,0.025339993058232313,0.0,0.0,0.0,0.0,0.16884927335912586,0.4443769217665876,0.21373922161191877,0.014136850196448485,0.0009194284096405191,0.10668583256907191
2535,10.0,299.32237000000003,-2919.2211,0.0,0.02535002203570902,0.0,0.0,0.0,0.0,0.1728892433628398,0.47104540095356157,0.24343568726523176,-0.004790109652897016,-0.004829878199446865,0.0957417911929791
2536,10.0,299.35258,-3018.5129,0.0,0.025360018023128372,0.0,0.0,0.0,0.0,0.18102761750353483,0.46442518957019757,0.2720997321266527,-0.008322040818746481,-0.009307195925273721,0.08767617448896473
2537,10.0,300.10882000000004,-2941.1723,0.0,0.025370014010547504,0.0,0.0,0.0,0.0,0.16780531164859483,0.47785174638029554,0.2483858800987778,-0.012894796064867287,0.007988526812556213,0.08484053126260852
2538,10.0,300.43506,-2866.0743,0.0,0.02538000999796708,0.0,0.0,0.0,0.0,0.18475880967177483,0.46469982087730155,0.22175638064315076,0.0025331789522552973,-0.013725852651136187,0.09059910718493572
2539,10.0,300.12767,-2969.6105,0.0,0.02539000598538621,0.0,0.0,0.0,0.0,0.19070586835120382,0.4818244264448685,0.23015715616224278,-0.01723087523805498,-0.010211598342556291,0.10072100857563959
2540,10.0,299.92402000000004,-3006.2962,0.0,0.025400001972805564,0.0,0.0,0.0,0.0,0.19186770144586782,0.4895660929064115,0.2324051832316058,0.002230835964191368,-0.025054523765188977,0.1149448341341719
2541,10.0,300.48522,-2859.7596,0.0,0.025409997960224917,0.0,0.0,0.0,0.0,0.15078303420862685,0.4678307636863015,0.25068172244035974,0.00955068732102945,-0.01760009749499438,0.1132792333547899
2542,10.0,300.23936000000003,-2721.2039,0.0,0.02541999394764405,0.0,0.0,0.0,0.0,0.13275740612213588,0.4649876345682066,0.22943300658077476,0.026325696678143974,-0.008207573144349403,0.11902602315195389
2543,10.0,299.16184,-2640.188,0.0,0.025429989935063624,0.0,0.0,0.0,0.0,0.13481079797978987,0.44983665781042154,0.2179037707154278,-0.004057896120508166,0.014088807956207088,0.1150726049717819
2544,10.0,299.00881,-2704.4933,0.0,0.02544001891254033,0.0,0.0,0.0,0.0,0.16188776894457885,0.4590282851650646,0.2011823880251558,-0.003928884355500696,0.014583650934044286,0.1130062637778499
2545,10.0,298.9704,-2849.4037,0.0,0.02545001489995946,0.0,0.0,0.0,0.0,0.16154513842326385,0.4845509102114515,0.22005153668739577,-0.015597141174317986,0.020215440897858677,0.11237379306542991
2546,10.0,299.64164,-2856.9262,0.0,0.025460010887378814,0.0,0.0,0.0,0.0,0.15986764208770785,0.4822687771437225,0.22629780812135478,0.0015643628075655885,-0.00033374650655821573,0.1195334891995369
2547,10.0,300.0658,-2847.034,0.0,0.025470006874798168,0.0,0.0,0.0,0.0,0.14413894052040588,0.4864673309205875,0.23482096398752478,-0.00975569203293684,-0.018508175274364682,0.1171101901278759
2548,10.0,300.4825,-2922.3828,0.0,0.02548000286221752,0.0,0.0,0.0,0.0,0.16470179751980185,0.49167557828960157,0.23195401335957877,-0.003217626456380007,-0.018574704262680583,0.12026249224898389
2549,10.0,299.82896,-3017.2607,0.0,0.025489998849636875,0.0,0.0,0.0,0.0,0.18787378365919882,0.47388049499836354,0.2554176230102568,0.01139810711690559,0.003937993068599656,0.09068714443312433
2550,10.0,299.66053999999997,-2953.6362,0.0,0.025499994837056006,0.0,0.0,0.0,0.0,0.1993534918596578,0.4765264861770026,0.2219516643349238,0.017560173414554184,0.008621160354267283,0.0985382094814641
2551,10.0,299.99726,-2834.7352,0.0,0.02550999082447536,0.0,0.0,0.0,0.0,0.18504685641020283,0.4566276018356356,0.2200142693487178,0.00876812387129645,0.0023843219747642576,0.09427449055091781
2552,10.0,299.83439,-2765.4877,0.0,0.025520019801952287,0.0,0.0,0.0,0.0,0.17473450351745284,0.4347479148737786,0.2311567780483978,0.0017103795437013183,-0.017474741232372682,0.1016078385004129
2553,10.0,299.87657,-2898.5272,0.0,0.02553001578937142,0.0,0.0,0.0,0.0,0.16250491931548686,0.46609952456544157,0.25247543856238575,0.004124336854740356,-0.01148335590081899,0.09344788213258791
2554,10.0,300.37434,-2979.053,0.0,0.025540011776790772,0.0,0.0,0.0,0.0,0.17026269645361986,0.46376866430040353,0.27152636429256577,-0.011408828316213688,-0.009617179528366722,0.0985696283405649
2555,10.0,300.33589,-2978.0704,0.0,0.025550007764210125,0.0,0.0,0.0,0.0,0.18636257179755383,0.47810006358230256,0.24079639366975375,0.002774285461250657,0.0020005566404645682,0.09747726671250721
2556,10.0,300.80807000000004,-2837.3985,0.0,0.02556000375162948,0.0,0.0,0.0,0.0,0.17862772450918382,0.4659456726702576,0.21792489698001277,-0.01670268011992618,0.016775273410090587,0.1021239475713489
2557,10.0,301.24304,-2799.8773,0.0,0.025569999739048832,0.0,0.0,0.0,0.0,0.17212814055022485,0.4585763148254586,0.2203883410206358,-0.0007027981119157733,0.011464734390481188,0.10201005826010891
2558,10.0,300.04868999999997,-2939.0847,0.0,0.025579995726467963,0.0,0.0,0.0,0.0,0.17322791207626384,0.48625352501698654,0.23392692276178978,-0.006567737693810243,-0.0014972866641956887,0.11826587279443287
2559,10.0,300.22587999999996,-2971.6222,0.0,0.025589991713887317,0.0,0.0,0.0,0.0,0.16008399124905984,0.4893551545005935,0.2538597915115108,0.01927543662108748,-0.018289795559812284,0.12120849293984688
2560,10.0,299.92208999999997,-2816.5299,0.0,0.025600020691364245,0.0,0.0,0.0,0.0,0.14824137739278484,0.4746437459011905,0.23326962742191978,-0.0071333001584019135,-0.026756999755460274,0.1306696954835949
2561,10.0,299.69857,-2676.4294,0.0,0.025610016678783376,0.0,0.0,0.0,0.0,0.14577393101426686,0.46545711386954053,0.20233666227407382,0.014115029855544985,-0.01033004727924629,0.12102918820215088
2562,10.0,300.19898,-2710.8734,0.0,0.02562001266620273,0.0,0.0,0.0,0.0,0.16135949073994185,0.4535752365718905,0.2091030957793688,-0.006921873264710703,0.008170803311470501,0.1157775635963559
2563,10.0,300.21247,-2905.0641,0.0,0.025630008653622083,0.0,0.0,0.0,0.0,0.17002953747310884,0.4746248589193266,0.23841255055698676,-0.002470282668197918,0.016014110815719684,0.12108592007524989
2564,10.0,300.20063,-2943.2646,0.0,0.025640004641041658,0.0,0.0,0.0,0.0,0.16975980016398784,0.48224449967132654,0.24267463511512177,-0.013467996712687787,0.016874021725086286,0.11713924000824288
2565,10.0,301.09766,-2772.4152,0.0,0.02565000062846079,0.0,0.0,0.0,0.0,0.14119298678216288,0.4575331941125106,0.24401879243277974,0.006853004985888933,0.013185514743808987,0.11335014059678789
2566,10.0,300.28854,-2867.6605,0.0,0.02565999661587992,0.0,0.0,0.0,0.0,0.15904570373908883,0.47144813747080855,0.2412033250424148,-0.004801924453038045,0.016963749074441686,0.0994268196866631
2567,10.0,299.93228999999997,-3032.6295,0.0,0.025669992603299274,0.0,0.0,0.0,0.0,0.19649265112981482,0.4792185599701896,0.24613243214137975,-0.0018717440804267582,-0.0018545057578004682,0.08471296814126901
2568,10.0,299.84337999999997,-3018.1178,0.0,0.025680021580776202,0.0,0.0,0.0,0.0,0.2100820473634838,0.46686562270104953,0.24048476860149876,-0.01090549936878899,0.004483435831255666,0.08228030967843432
2569,10.0,299.0742,-2885.1019,0.0,0.025690017568195334,0.0,0.0,0.0,0.0,0.18257992678923585,0.45752733752693253,0.23689166215688678,-0.01102673980950449,4.962322045193055e-05,0.089441553045444
2570,10.0,299.36519,-2810.0809999999997,0.0,0.025700013555614687,0.0,0.0,0.0,0.0,0.16234789594748986,0.44624034949549357,0.24560619056944374,-0.0014684341649481689,0.006483569135828453,0.08471335216305692
2571,10.0,300.52898999999996,-2890.5144,0.0,0.02571000954303404,0.0,0.0,0.0,0.0,0.15557170484373184,0.47572906848080354,0.24734341799839477,-0.0010533036738029791,-0.010757782702960489,0.12246352477870888
2572,10.0,300.29812999999996,-3018.0504,0.0,0.025720005530453394,0.0,0.0,0.0,0.0,0.19198423533986883,0.47753310962134854,0.24789460578779277,0.0068949472578783135,-0.01116233597763679,0.10964611366372891
2573,10.0,300.4287,-2863.5444,0.0,0.025730001517872747,0.0,0.0,0.0,0.0,0.17801820391152884,0.4738660156544346,0.21856177533036777,0.017602382373969883,-0.013615069964702789,0.1214197251881939
2574,10.0,300.31457,-2676.4161,0.0,0.02573999750529188,0.0,0.0,0.0,0.0,0.15288995606906386,0.4623554539884306,0.1983182542324878,0.019409568642825285,-0.005626590369601235,0.1081988986783999
2575,10.0,299.99111,-2719.6375,0.0,0.02574999349271123,0.0,0.0,0.0,0.0,0.14161121589343886,0.46522532277666456,0.2198653621140218,0.007265350356484254,-0.013674597394827685,0.1113944361812749
2576,10.0,299.69902,-2952.9393,0.0,0.025759989480130363,0.0,0.0,0.0,0.0,0.14866377096197186,0.4972782940550466,0.25167773715615877,-0.007156504396291993,-8.884139386546291e-06,0.10914339975911488
2577,10.0,299.90651,-2981.8464,0.0,0.02577001845760729,0.0,0.0,0.0,0.0,0.15212161865073484,0.49495272295553056,0.2593325174216267,-0.008096599561597162,-0.004446725273507615,0.1156076719520889
2578,10.0,300.10508,-2789.1519,0.0,0.025780014445026644,0.0,0.0,0.0,0.0,0.15952602481649286,0.47230428314280354,0.21600224478276178,-0.003749395307611506,0.012100700815746188,0.11982993578129389
2579,10.0,300.20669,-2726.2825,0.0,0.025790010432445998,0.0,0.0,0.0,0.0,0.15799612862300386,0.4735762970533416,0.1971493993146308,-0.0007403110826830153,-0.009059800375557682,0.13576373943383788
2580,10.0,299.81474,-2887.1635,0.0,0.02580000641986535,0.0,0.0,0.0,0.0,0.18511818921724282,0.47209468222711753,0.22041271981804178,-0.009265881159071272,0.002139518724104058,0.11891910500140189
2581,10.0,300.70214,-2962.8122,0.0,0.025810002407284705,0.0,0.0,0.0,0.0,0.16839099047139683,0.49119978644014456,0.24103016060032476,-0.005623697844540765,-0.01070998364274309,0.1124695451998799
2582,10.0,300.27733,-2856.2439,0.0,0.025819998394703836,0.0,0.0,0.0,0.0,0.14170198283739688,0.46971900591015653,0.25680584657476374,0.0016789296791474583,0.010835911378421189,0.1044638966897839
2583,10.0,300.21437000000003,-2753.6384,0.0,0.02582999438212319,0.0,0.0,0.0,0.0,0.12938398243170487,0.46435193158796756,0.24330140122947877,0.0049520923735084646,-6.381047882760394e-05,0.1103838509290379
2584,10.0,299.7752,-2803.0136,0.0,0.025839990369542543,0.0,0.0,0.0,0.0,0.17856669645566084,0.45913997572358756,0.2143394608386578,0.0012205325981321888,0.014810755745207786,0.1024611166746249
2585,10.0,298.85499,-3075.0092,0.0,0.02585001934701925,0.0,0.0,0.0,0.0,0.22117677118844778,0.47444210913129053,0.2391071233680358,-0.0033528317126237266,0.002158341769886748,0.09516583045188622
2586,10.0,298.70604,-3113.3444,0.0,0.025860015334438824,0.0,0.0,0.0,0.0,0.23023340323226776,0.47827851718991454,0.23786703696814876,0.006484588161454024,-0.005405252572706895,0.08343762671740262
2587,10.0,300.22904,-2959.2501,0.0,0.025870011321857955,0.0,0.0,0.0,0.0,0.18204407960635183,0.47237493707227657,0.24511913137887476,0.018591251650063683,-0.014980478176708086,0.0988105234855894
2588,10.0,300.21996,-2877.4167,0.0,0.02588000730927731,0.0,0.0,0.0,0.0,0.14596975172859286,0.47003769333160855,0.25865539277729976,-0.0004084683413401867,-0.004455925381765596,0.08968685988140392
2589,10.0,300.12736,-2877.8949,0.0,0.02589000329669644,0.0,0.0,0.0,0.0,0.14448425615448585,0.48196694007143354,0.24835700247092776,0.0040934388061909565,-0.004768921884030945,0.11493467123566889
2590,10.0,300.54797,-2940.6035,0.0,0.025899999284115793,0.0,0.0,0.0,0.0,0.17725449704615684,0.4730631770702005,0.24355236301424676,-0.013472854233667187,0.008607706014139441,0.1103567768863659
2591,10.0,300.00181000000003,-2880.1065,0.0,0.025909995271535147,0.0,0.0,0.0,0.0,0.17321920825790485,0.47723083685151657,0.22503042476377377,0.00012970260905815088,0.003728457811520137,0.12967199877262986
2592,10.0,300.26371,-2668.9759,0.0,0.0259199912589545,0.0,0.0,0.0,0.0,0.15554560352115587,0.46652878797030656,0.1892276175153118,-0.02213921476297038,-0.005786285576786925,0.11604641937788988
2593,10.0,299.84247,-2754.5051,0.0,0.025930020236431206,0.0,0.0,0.0,0.0,0.14771412257074887,0.4589151659239005,0.23067150217800475,0.002221911358635578,-0.00940098448235493,0.12176799951256588
2594,10.0,299.43424,-3012.5563,0.0,0.02594001622385078,0.0,0.0,0.0,0.0,0.15696370783111185,0.5044969208149696,0.25428124275810476,-0.00948125344600186,0.005315088512558395,0.12341463225007587
2595,10.0,299.52746,-2923.9976,0.0,0.025950012211269913,0.0,0.0,0.0,0.0,0.15264756638014187,0.49358279868782945,0.24259190324445679,0.02009183046515928,0.01078385666778379,0.12851628570856988
2596,10.0,299.53305,-2832.1974,0.0,0.025960008198689266,0.0,0.0,0.0,0.0,0.16954714936550083,0.4658862962143976,0.22548383391852175,-0.010331505346140189,0.008249129266725674,0.1111402015986839
2597,10.0,299.81692000000004,-2850.0928,0.0,0.025970004186108397,0.0,0.0,0.0,0.0,0.18087609608358082,0.48201251606093154,0.2034684525032728,0.009507025158320331,0.002186414775832338,0.1105866225390499
2598,10.0,300.19818,-2919.1098,0.0,0.02598000017352775,0.0,0.0,0.0,0.0,0.1882189574382648,0.46922694126409353,0.22989061059093677,-0.003970971522254376,-0.0013382274740977686,0.09224154405378161
2599,10.0,300.2716,-3035.9806,0.0,0.025989996160947326,0.0,0.0,0.0,0.0,0.17854606668362483,0.4840479531268136,0.26026827415397874,0.009121238390071142,-0.016746021892953683,0.1029143231793529
2600,10.0,299.98467,-2976.2544,0.0,0.025999992148366458,0.0,0.0,0.0,0.0,0.17553508255396383,0.4685153458513645,0.26065660225480375,-0.014375218295723588,-0.023943955046084375,0.0950253119147681
2601,10.0,300.63781,-2838.4399,0.0,0.026010021125843164,0.0,0.0,0.0,0.0,0.15253874331940184,0.46902781735444155,0.24124828294935177,-0.020133822589053583,-0.01115671851908239,0.09871564578597572
2602,10.0,300.01448999999997,-2896.1751,0.0,0.02602001711326274,0.0,0.0,0.0,0.0,0.17563294224862183,0.47179573291761356,0.23293623774151676,-0.02235221310624168,0.02256844371733198,0.0985596012175753
2603,10.0,300.51139,-2972.2808,0.0,0.02603001310068187,0.0,0.0,0.0,0.0,0.2001142501672388,0.4689132086356306,0.23447166628055174,-0.01005148111670395,0.01984573734712178,0.1069869806312929
2604,10.0,300.30082000000004,-2934.9804,0.0,0.026040009088101224,0.0,0.0,0.0,0.0,0.19833022071616882,0.46451981699703654,0.2293107174262058,0.0014032316223381786,0.015070089002301985,0.09029140643431802
2605,10.0,299.44776,-2795.1614,0.0,0.026050005075520355,0.0,0.0,0.0,0.0,0.16122853829701786,0.46901110886029257,0.21941962326253078,0.014940727362034984,-0.020231689376462282,0.1208541897773799
2606,10.0,298.95932999999997,-2802.6959,0.0,0.02606000106293971,0.0,0.0,0.0,0.0,0.14485087030566787,0.46710978557764654,0.2399889346650638,0.017829529741637585,-0.004083503888960456,0.11124004726353791
2607,10.0,300.05824,-2885.472,0.0,0.026069997050359284,0.0,0.0,0.0,0.0,0.15848329927108384,0.4784837003351645,0.24014445842291277,0.016220736829112088,-0.00952144867216882,0.12024578375483488
2608,10.0,299.55242000000004,-3060.4892,0.0,0.026079993037778415,0.0,0.0,0.0,0.0,0.18353660713615283,0.49717286538214156,0.24960282386638077,0.007025312826344394,-0.0005035240993939595,0.10573712650044191
2609,10.0,300.36804,-2983.1,0.0,0.02609002201525512,0.0,0.0,0.0,0.0,0.18865513120881183,0.47535625323900954,0.24277652754517778,-0.015651399703922885,-0.005349284487533275,0.10733763609339989
2610,10.0,300.18228999999997,-2835.7422,0.0,0.026100018002674474,0.0,0.0,0.0,0.0,0.14853545296930787,0.4824756929466435,0.23098366426881278,-0.006888160610033523,0.003083806414347997,0.11242269251525588
2611,10.0,300.06635,-2739.5171,0.0,0.026110013990093828,0.0,0.0,0.0,0.0,0.14189602023154688,0.4611054073400605,0.2297433752189058,-0.01217616666994409,-0.005744361847274375,0.1160320717564739
2612,10.0,300.40676,-2837.3442,0.0,0.02612000997751318,0.0,0.0,0.0,0.0,0.14263251119923287,0.47720197948866855,0.24264731789242577,-0.006797915287227004,-0.007518854791053193,0.12898145869697886
2613,10.0,301.00658,-2910.2458,0.0,0.026130005964932312,0.0,0.0,0.0,0.0,0.17162019827509484,0.48335835537375554,0.2296635007135228,-0.00023144225113157178,-0.013230163609465488,0.1130784983774789
2614,10.0,300.52561000000003,-2790.5033,0.0,0.026140001952351666,0.0,0.0,0.0,0.0,0.16548530329212785,0.4637455014031176,0.2190125297698538,0.011726625090827789,0.007731411762580931,0.12113642046023389
2615,10.0,300.17101,-2711.9516,0.0,0.02614999793977102,0.0,0.0,0.0,0.0,0.17406974052434585,0.4553311787301886,0.19496465984651382,0.0007251505611092883,0.015360622256475383,0.0980563148266548
2616,10.0,299.84238,-2977.4771,0.0,0.026159993927190373,0.0,0.0,0.0,0.0,0.19654856227033282,0.4747442907086135,0.2337858276853648,0.006704342856392124,0.007492523258054473,0.1050100891561889
2617,10.0,300.08556,-3163.7024,0.0,0.026169989914609726,0.0,0.0,0.0,0.0,0.1903196072805828,0.48416128515049855,0.28720564965249074,0.006305342901538894,0.004129633315663076,0.0952410733910621
2618,10.0,299.84365,-3111.1475,0.0,0.026180018892086432,0.0,0.0,0.0,0.0,0.18257148641590284,0.49281004349906454,0.27032961459945576,0.016875263969708884,-0.008576992174458222,0.11409150529745489
2619,10.0,299.7309,-2994.7684,0.0,0.026190014879505785,0.0,0.0,0.0,0.0,0.17137502214839784,0.4734887927747055,0.26547098917744677,-0.0013451976215356689,-0.017050309003984482,0.1030971337623949
2620,10.0,300.06374,-2870.3255,0.0,0.02620001086692514,0.0,0.0,0.0,0.0,0.18667873622625683,0.45847401709536256,0.2273545165181438,-0.004559359370523736,-0.01872007424127748,0.0966497494088376
2621,10.0,300.60606,-2866.8811,0.0,0.02621000685434427,0.0,0.0,0.0,0.0,0.17201681476173783,0.4690160839182836,0.2304273798314118,-0.012843709008075388,-0.0016482983180243786,0.0996580149884803
2622,10.0,300.01116,-2899.7139,0.0,0.026220002841763623,0.0,0.0,0.0,0.0,0.16346146793989086,0.4818253788999625,0.23615377290406278,-0.000929592341658621,0.005271498493256395,0.10164718300179591
2623,10.0,300.06615,-2849.4807,0.0,0.026229998829182977,0.0,0.0,0.0,0.0,0.13954317243933886,0.49049955969353753,0.2361282592665448,-0.0013827516086669586,0.01163957778798689,0.1186533092351699
2624,10.0,299.60425,-2844.7582,0.0,0.02623999481660233,0.0,0.0,0.0,0.0,0.15324078378368786,0.47958707903155956,0.23190759637249778,0.0023381282066802875,-0.0012338859172250588,0.13240886835273788
2625,10.0,299.43948,-2927.0959999999995,0.0,0.026249990804021683,0.0,0.0,0.0,0.0,0.17561193757404883,0.4950268827303495,0.21912526397597978,0.007271480620914263,0.0018829968307373184,0.13522430534559987
2626,10.0,299.57077000000004,-3027.7824,0.0,0.02626001978149839,0.0,0.0,0.0,0.0,0.19513488586331382,0.5072128971780155,0.2180224526996408,0.0016644714108205387,-0.0039187143642469965,0.13232735238219287
2627,10.0,299.74388999999996,-3006.742,0.0,0.02627001576891752,0.0,0.0,0.0,0.0,0.18858211640660583,0.49309392577958155,0.23229844746607178,-0.006672899780613933,0.005086477403796235,0.1056275536346279
2628,10.0,299.6183,-2939.5541,0.0,0.026280011756337096,0.0,0.0,0.0,0.0,0.16281239005833184,0.4901039564569945,0.24063471948379778,-0.015902079805163085,-0.0033983393077399765,0.11517306871919689
2629,10.0,300.28647,-2920.3413,0.0,0.02629000774375645,0.0,0.0,0.0,0.0,0.15564053492302485,0.4696998250857635,0.26237047426894977,0.002144715075916898,0.005148293968547055,0.09109110900949251
2630,10.0,300.67627999999996,-2909.9322,0.0,0.02630000373117558,0.0,0.0,0.0,0.0,0.15706717079882285,0.4788653713828325,0.24861417547880876,0.0025616725583173976,-0.007938490496118012,0.10945664602752989
2631,10.0,300.68232,-3018.2859,0.0,0.026309999718594934,0.0,0.0,0.0,0.0,0.1844984550585798,0.48737469638513753,0.24561038542485775,0.016729068192280483,-0.0012422830247787887,0.09580335221605471
2632,10.0,300.18512999999996,-3048.0425,0.0,0.026319995706014288,0.0,0.0,0.0,0.0,0.20538081007950781,0.48304276849760946,0.2381052419341578,-0.006827171971939414,-0.02073349743548688,0.1036715148465819
2633,10.0,300.10503,-2969.8815,0.0,0.02632999169343364,0.0,0.0,0.0,0.0,0.18808779221281985,0.4856307004455186,0.22905133553310678,-0.0006622041414369603,-0.005888743096423694,0.091001573164406
2634,10.0,299.62869,-2944.777,0.0,0.026340020670910347,0.0,0.0,0.0,0.0,0.15979884240591785,0.49341896627916054,0.24192085810072975,-0.0012876730828834389,0.005375331195928885,0.1082706063879769
2635,10.0,299.57095,-3037.8166,0.0,0.026350016658329478,0.0,0.0,0.0,0.0,0.17309000873765384,0.49558965196839055,0.25474072128095177,-0.0073980400167047025,0.01813181872347118,0.0996679124154571
2636,10.0,300.17572,-3000.0217,0.0,0.026360012645749054,0.0,0.0,0.0,0.0,0.17380706556842185,0.4975099027629045,0.24061470779432276,-0.005439495461161405,0.01082368246296429,0.11650909977105288
2637,10.0,300.12131,-2859.2371,0.0,0.026370008633168407,0.0,0.0,0.0,0.0,0.17998674620580882,0.47111919595834456,0.2180307410854588,-0.014566165277068588,0.016220178528306987,0.11679720730448688
2638,10.0,300.29461000000003,-2820.9489,0.0,0.026380004620587538,0.0,0.0,0.0,0.0,0.16785742310123786,0.4817509860776205,0.20788961732710778,0.01928158502269428,-0.005644346969653676,0.1143917920970909
2639,10.0,300.47834,-2912.0237,0.0,0.02639000060800689,0.0,0.0,0.0,0.0,0.16847650877983683,0.4770545313341165,0.23965145145425676,0.008490970989993591,-0.006296778506393655,0.1203358211587209
2640,10.0,300.58227,-3022.5517,0.0,0.026399996595426023,0.0,0.0,0.0,0.0,0.15766167502999587,0.49468680559928657,0.26643176305476773,0.012648012923511687,-0.024527478685923677,0.10191676832340191
2641,10.0,300.52796,-2912.2543,0.0,0.0264099925828456,0.0,0.0,0.0,0.0,0.14428409872973186,0.4921581082522235,0.24881037109567175,-0.009433246365538932,-0.013952877415541787,0.1195719116433289
2642,10.0,299.94343,-2819.105,0.0,0.026420021560322304,0.0,0.0,0.0,0.0,0.15499626997944085,0.47683855707530154,0.2251026998934068,0.005921821557863284,0.004212891975055066,0.11304975247214188
2643,10.0,299.78662,-2824.5031,0.0,0.026430017547741436,0.0,0.0,0.0,0.0,0.16301051085038484,0.48679664733558853,0.20877126650411984,-0.012560145901339886,0.018596077760289986,0.12376424406457989
2644,10.0,299.57142000000005,-2960.9313,0.0,0.02644001353516079,0.0,0.0,0.0,0.0,0.19772049746849382,0.49592251475874155,0.2064061583857018,-0.0028469006376172167,0.007995398776059422,0.11247970809838288
2645,10.0,299.78688,-3001.1866,0.0,0.026450009522580364,0.0,0.0,0.0,0.0,0.1874309123054908,0.48787441106945556,0.23698046339565076,-0.014653239937662186,0.011342075399625689,0.1089628385912949
2646,10.0,299.9153,-2823.1927,0.0,0.026460005509999496,0.0,0.0,0.0,0.0,0.15607126754053485,0.4742996360347295,0.22780918210301576,0.002552900548226668,0.0039520059121826165,0.1078948121908889
2647,10.0,299.96348,-2731.4052,0.0,0.02647000149741885,0.0,0.0,0.0,0.0,0.13558423204612188,0.45762874359694056,0.23706600196909275,0.012197302053779988,0.007591769990774363,0.11039848226048189
2648,10.0,299.68975,-2986.7994,0.0,0.02647999748483798,0.0,0.0,0.0,0.0,0.18175774526059282,0.4678979523004326,0.25825674979045676,0.01088636211415029,0.004258339991065436,0.10119383869505431
2649,10.0,299.89099999999996,-3207.344,0.0,0.026489993472257334,0.0,0.0,0.0,0.0,0.2229790898038228,0.49505925607104456,0.2569141528779528,-0.006235967795017104,0.003641062051969846,0.1126659333342619
2650,10.0,300.03706,-3117.2327,0.0,0.026500022449734262,0.0,0.0,0.0,0.0,0.2162450803017278,0.48327369832790057,0.24804213500235275,-0.0034088309045754166,-0.0021258476497798278,0.10036994376049221
2651,10.0,300.07056,-2824.2392,0.0,0.026510018437153393,0.0,0.0,0.0,0.0,0.15575342111666585,0.47348248022658257,0.22926231446892875,-0.016154376040312786,-0.015361656784827486,0.1125946207922239
2652,10.0,300.40606,-2878.8537,0.0,0.02652001442457297,0.0,0.0,0.0,0.0,0.15532698467957984,0.4784075039276446,0.24136515121588578,-0.003462353105332647,-0.027372341474939773,0.09861413028495691
2653,10.0,300.9781,-3070.2774,0.0,0.0265300104119921,0.0,0.0,0.0,0.0,0.17218088021792982,0.4947750191529925,0.2663317654023987,-0.00872548965081378,-0.010854711220776591,0.1045052879563689
2654,10.0,300.79382000000004,-2956.098,0.0,0.026540006399411453,0.0,0.0,0.0,0.0,0.18149614434977482,0.4872107727839595,0.22987308136420678,0.0026160679780108075,0.009034404275051283,0.10794143182798989
2655,10.0,300.30441,-2686.8969,0.0,0.026550002386830807,0.0,0.0,0.0,0.0,0.14713873836896288,0.4660110982292146,0.2035997494512308,0.006252699087293354,0.02027171883491288,0.1127211959947159
2656,10.0,299.88242,-2654.8094,0.0,0.026559998374249938,0.0,0.0,0.0,0.0,0.14583934644072286,0.46158000355439954,0.19957640688165781,0.014364127260128987,0.020884970219436083,0.1184207176747149
2657,10.0,300.23522,-2939.0267,0.0,0.02656999436166929,0.0,0.0,0.0,0.0,0.15753290107478685,0.4945812046738645,0.24127662355464877,-0.002356332865926948,0.00911514308276958,0.12404726508251188
2658,10.0,300.22221,-3103.6027,0.0,0.026579990349088867,0.0,0.0,0.0,0.0,0.18443911913272384,0.4920203366361265,0.26695826807172973,-0.005976458637705545,-0.013840295196930788,0.11899815877420389
2659,10.0,300.01162999999997,-3071.6121,0.0,0.026590019326565573,0.0,0.0,0.0,0.0,0.16905474021440384,0.49910893301071657,0.26552971715324275,-0.002954884828599427,-0.009895620351871689,0.12235140865514389
2660,10.0,299.66431,-2856.7106,0.0,0.026600015313984926,0.0,0.0,0.0,0.0,0.16506349740799883,0.47126750537548157,0.23203768755283677,-0.006014485609983515,-0.016542532901870886,0.1124034508958569
2661,10.0,299.60785,-2923.9521,0.0,0.026610011301404057,0.0,0.0,0.0,0.0,0.18108821999201583,0.4809671560652626,0.22675306139128476,0.007284679622016904,0.007094739304646254,0.11115116496476589
2662,10.0,299.96342000000004,-3120.1438,0.0,0.02662000728882341,0.0,0.0,0.0,0.0,0.19610911570196282,0.5144281295501035,0.23790853969224476,-0.00985442332533086,-0.005958627867745784,0.11353485609001789
2663,10.0,300.91152999999997,-2987.1491,0.0,0.026630003276242764,0.0,0.0,0.0,0.0,0.17168713357670085,0.47881052415491954,0.25752107955535175,0.012184883660554388,0.012899180398049988,0.09765371003192082
2664,10.0,301.20302999999996,-2766.1357,0.0,0.026639999263661895,0.0,0.0,0.0,0.0,0.14760468142744784,0.4651285979221186,0.2281029030420038,0.0060995901070826745,-0.00901746303735431,0.1079260810889749
2665,10.0,300.07464,-2777.3777,0.0,0.02664999525108147,0.0,0.0,0.0,0.0,0.15480277974034484,0.4636446222231616,0.2258060677153238,0.014596080473020986,0.0009016019763911872,0.0985719051135396
2666,10.0,299.93552,-3009.4773,0.0,0.026659991238500602,0.0,0.0,0.0,0.0,0.1976176221858408,0.46713509656514457,0.25005322366833177,-0.013548024218835886,-0.00829290349489585,0.10888767569887689
2667,10.0,299.20761,-3282.5222,0.0,0.02667002021597753,0.0,0.0,0.0,0.0,0.2307133899371388,0.5077339002469345,0.25935750416909276,-0.0072922383664378925,0.006656101917806113,0.1028578344862779
2668,10.0,300.16867,-3140.4555,0.0,0.026680016203396884,0.0,0.0,0.0,0.0,0.19439358195765283,0.4895113064735045,0.2707151765275077,-0.014457450634089286,0.01126710401147659,0.1093803482949999
2669,10.0,300.39029,-2919.8422,0.0,0.026690012190816015,0.0,0.0,0.0,0.0,0.14590540021474188,0.4917298580974585,0.24992387216056575,0.0036897837777283065,0.013260735391482686,0.11964819924335789
2670,10.0,299.87493,-2943.6281,0.0,0.026700008178235368,0.0,0.0,0.0,0.0,0.16162923818156386,0.4884151421178215,0.24474505970695679,0.014993790256521883,-0.00014031335397284985,0.12035687649579888
2671,10.0,299.7625,-2982.7222,0.0,0.02671000416565472,0.0,0.0,0.0,0.0,0.16605657369850785,0.4922039882167515,0.24841252857640778,0.01885449402604368,-0.014470934966420088,0.11947924992168389
2672,10.0,300.18195,-2833.8452,0.0,0.026720000153074075,0.0,0.0,0.0,0.0,0.16858908086594684,0.48169655428224856,0.2111325445371598,0.01976040648995028,-0.02347794713959298,0.1121431976076719
2673,10.0,299.90166,-2763.3619,0.0,0.02672999614049343,0.0,0.0,0.0,0.0,0.15706875146897883,0.48239982077915555,0.2005244442052218,0.01271956256607309,-0.015971722511036287,0.11605125258086689
2674,10.0,299.30613999999997,-2822.9159,0.0,0.02673999212791256,0.0,0.0,0.0,0.0,0.14974716836639484,0.48677269410322455,0.22157608292035677,-0.01146936899643859,0.0016724031326033385,0.11614553550267188
2675,10.0,298.67991,-3033.0447,0.0,0.026750021105389488,0.0,0.0,0.0,0.0,0.15280431617061185,0.5074985323812056,0.26166700512202273,-0.006321435440952103,0.014055309907901088,0.12137936743671089
2676,10.0,298.54753999999997,-3176.4223,0.0,0.02676001709280884,0.0,0.0,0.0,0.0,0.18330396491319284,0.5074514669140605,0.27479762197541374,-0.023538770516595777,0.015510072593224985,0.1004010525650624
2677,10.0,299.87872000000004,-3114.469,0.0,0.026770013080227972,0.0,0.0,0.0,0.0,0.18428694923270583,0.5081775214057166,0.2542563573356487,-0.006988195651331213,0.014763126911007184,0.1172836686774969
2678,10.0,299.71431,-3006.1893,0.0,0.026780009067647104,0.0,0.0,0.0,0.0,0.1954405226234778,0.49608652955242855,0.22227944060977278,0.01044112786120909,0.005385148576147785,0.1024537503463979
2679,10.0,299.93684,-2967.8324,0.0,0.02679000505506668,0.0,0.0,0.0,0.0,0.2000894964672958,0.4664986336473306,0.23555882284284577,0.015803404444174586,-0.008471461467268153,0.0986847092339225
2680,10.0,300.27607,-3106.1022,0.0,0.026800001042486032,0.0,0.0,0.0,0.0,0.18586795376123882,0.5047587446408095,0.2535508110260168,0.006871823066746134,-0.012918392633196088,0.1089302322030769
2681,10.0,299.39251,-3059.4376,0.0,0.026809997029905386,0.0,0.0,0.0,0.0,0.1872036605730628,0.4725771412622325,0.27021182427533075,-0.0006075310506861465,-0.007876108537811392,0.0903766167147276
2682,10.0,300.28652,-2893.1764,0.0,0.026819993017324517,0.0,0.0,0.0,0.0,0.15187449708384587,0.48881112025690154,0.23876777577704475,-0.0055538867365009445,0.015862881211794484,0.1144660126669159
2683,10.0,300.25568,-2882.2313,0.0,0.026830021994801445,0.0,0.0,0.0,0.0,0.17014858422735782,0.4782568539027765,0.22772090775430381,-0.016268748671850485,0.00013434971852178487,0.0971926812364208
2684,10.0,299.61625,-3159.6542,0.0,0.0268400179822208,0.0,0.0,0.0,0.0,0.21789213860427978,0.48648849771517655,0.2560753540476698,-0.00023878974303921275,-0.004252690007182826,0.1091399344437729
2685,10.0,299.60875,-3181.8249,0.0,0.02685001396963993,0.0,0.0,0.0,0.0,0.1988037935479068,0.5228533243966055,0.24553821162023473,0.012244719118709687,-0.013471718380305088,0.11174693575856388
2686,10.0,299.73454,-2901.5489,0.0,0.02686000995705906,0.0,0.0,0.0,0.0,0.15120150649992686,0.4969029862180065,0.2338939212060328,0.023609992879374875,-0.007768812039672053,0.13591008314578087
2687,10.0,300.17399,-2844.948,0.0,0.026870005944478415,0.0,0.0,0.0,0.0,0.13655500670192988,0.4903766220589046,0.23786150462260278,0.015265019069790085,-0.014821272267995685,0.1189779140372059
2688,10.0,301.10452999999995,-2891.9836,0.0,0.02688000193189799,0.0,0.0,0.0,0.0,0.14846190114454885,0.49370216968211056,0.23692675100784977,0.0019664575321992482,-0.007334564660215174,0.12617536387003886
2689,10.0,300.58351,-3050.8751,0.0,0.026889997919317343,0.0,0.0,0.0,0.0,0.1957076254823388,0.4829839594618055,0.24869826510460774,-0.0005873584266977634,0.014419097091304088,0.1130677781914209
2690,10.0,299.70426000000003,-3003.6409,0.0,0.026899993906736475,0.0,0.0,0.0,0.0,0.1997093756922808,0.4992116664383556,0.2141108006885908,-0.008386418373125053,0.016780110666067983,0.1258654005319479
2691,10.0,299.91796,-2807.8790000000004,0.0,0.026909989894155606,0.0,0.0,0.0,0.0,0.15589103061274684,0.4801122465583895,0.2175218159577318,-0.0016385457858118786,-0.003633554071378867,0.11351460122051889
2692,10.0,299.62791,-2794.8369,0.0,0.026920018871632756,0.0,0.0,0.0,0.0,0.14134828762498985,0.47403065866318356,0.2341816741019318,-0.01028014775157159,-0.018580999585551882,0.1220118888116359
2693,10.0,299.39676000000003,-3105.8752,0.0,0.026930014859051887,0.0,0.0,0.0,0.0,0.17879492090818483,0.49773922152553657,0.2675743747950347,0.01166628402087259,-0.005189865390999835,0.10864723145014689
2694,10.0,299.67877000000004,-3171.7955,0.0,0.02694001084647102,0.0,0.0,0.0,0.0,0.18038343361995882,0.5016070808672645,0.28215612791164174,0.008520258274859022,0.016962022496271285,0.1118280768265719
2695,10.0,299.73987,-2944.4332,0.0,0.026950006833890594,0.0,0.0,0.0,0.0,0.1907661668646548,0.48257929776936853,0.22168870566897178,0.004533878460983965,0.014464251568760486,0.0978349328520561
2696,10.0,299.9482,-2841.9518,0.0,0.026960002821309947,0.0,0.0,0.0,0.0,0.16620839909349186,0.4822665986560076,0.2154074061790558,-0.006885118529258294,0.018149204068686982,0.10455762232403389
2697,10.0,300.22487,-3039.6889,0.0,0.0269699988087293,0.0,0.0,0.0,0.0,0.1941338454270188,0.47938620219923456,0.25046947694191274,0.012668437005777387,0.0064012630328554735,0.0985570609995746
2698,10.0,299.88251,-3201.7987,0.0,0.026979994796148432,0.0,0.0,0.0,0.0,0.19202317454121182,0.5089811199275255,0.27226256141772276,0.0007713201226483691,0.0019295868809353983,0.1137191156207029
2699,10.0,299.91525,-2992.4816,0.0,0.026989990783567563,0.0,0.0,0.0,0.0,0.16017108009515485,0.4851582421888906,0.26431036185040174,-0.006481730694847015,-0.02271160075771048,0.1014677364090859
2700,10.0,300.29033,-2785.6247,0.0,0.027000019761044713,0.0,0.0,0.0,0.0,0.14058819806247486,0.47735058274833453,0.22882157094043076,-0.01174714847160329,-0.011073130452082889,0.12257106101182189
2701,10.0,299.87108,-2860.5503,0.0,0.027010015748463845,0.0,0.0,0.0,0.0,0.18494103256975883,0.47871884528587155,0.2058759955358788,0.01105873115491179,0.0057799433404359946,0.10056647374988821
2702,10.0,300.1328,-3072.3717,0.0,0.027020011735883198,0.0,0.0,0.0,0.0,0.1948890612565528,0.5043494118654115,0.23468580655668578,0.012262189576933888,0.024142085970638376,0.12431578649151288
2703,10.0,300.48897,-3136.8726,0.0,0.02703000772330255,0.0,0.0,0.0,0.0,0.1821672604210088,0.5205414220409385,0.25082227036173077,0.016899376282338584,0.01061002044087749,0.1302703634866839
2704,10.0,300.64616,-3026.1186,0.0,0.027040003710721683,0.0,0.0,0.0,0.0,0.15869892902486485,0.5046941094169306,0.2564714436442608,-0.01048257485654959,0.002954059941693017,0.1277511805580599
2705,10.0,300.48266,-2860.2365,0.0,0.027049999698141258,0.0,0.0,0.0,0.0,0.13252840146703487,0.4920685876058885,0.24484350708667277,0.008167785143397633,0.001129646799937459,0.13599578383923888
2706,10.0,300.48741,-2918.8013,0.0,0.02705999568556039,0.0,0.0,0.0,0.0,0.16237117030228684,0.49287568184054253,0.2319958504562078,-0.008253886577270182,0.0036515485825547866,0.1162488667478699
2707,10.0,300.47145,-3046.6221,0.0,0.02706999167297952,0.0,0.0,0.0,0.0,0.1952144057311618,0.4928666639146525,0.23801596446784679,0.0018713414148370184,-0.005952993690564735,0.10836730084501989
2708,10.0,300.13259,-2932.131,0.0,0.02708002065045645,0.0,0.0,0.0,0.0,0.17684241836298784,0.48762956931529156,0.22682261087814876,-0.01129674360340179,0.0030834208726849472,0.10180431782730391
2709,10.0,299.80821000000003,-2778.0143,0.0,0.027090016637875802,0.0,0.0,0.0,0.0,0.14428643933746285,0.4769727417860446,0.2231877889269198,0.01143298825159809,0.015200836768705785,0.12075190217978488
2710,10.0,299.7752,-2933.1223,0.0,0.027100012625295156,0.0,0.0,0.0,0.0,0.16746508253001685,0.48183153946057056,0.24229931714558078,0.005284764368865635,0.013904010389718988,0.09947086972151051
2711,10.0,300.11716,-3115.8316,0.0,0.02711000861271451,0.0,0.0,0.0,0.0,0.17751196389656684,0.5020762967235725,0.2675467434648077,-0.003838903896270316,-0.012908871122006386,0.11768911057251089
2712,10.0,300.29296,-3152.6937,0.0,0.02712000460013364,0.0,0.0,0.0,0.0,0.2053126183477778,0.48512501771811156,0.26790252597242076,-0.008336231893022033,-0.016552623859616786,0.08339769149121132
2713,10.0,299.91504,-3106.2447,0.0,0.027130000587552994,0.0,0.0,0.0,0.0,0.20805820187874582,0.4909522291757125,0.24521038468288078,0.0006481548411154024,-0.006655479883569723,0.09320955861631722
2714,10.0,300.03752000000003,-3009.2054,0.0,0.027139996574972347,0.0,0.0,0.0,0.0,0.18503296475133182,0.49078604602681153,0.23890428083051676,0.004875085669883495,0.020590156996840282,0.10837383630816488
2715,10.0,299.83594,-3016.7494,0.0,0.0271499925623917,0.0,0.0,0.0,0.0,0.18308623773170482,0.48730883512863754,0.24662142663963976,-0.002091518837716838,0.006950028647889423,0.10829306001019288
2716,10.0,299.12419,-3073.4166,0.0,0.027160021539868406,0.0,0.0,0.0,0.0,0.17650984941516581,0.5091154971557875,0.24861655661654375,-0.015669276475437185,0.007384610501204313,0.12159479454047188
2717,10.0,299.25028,-3010.9307,0.0,0.02717001752728776,0.0,0.0,0.0,0.0,0.16877810267210183,0.49820119264362955,0.24826845454468874,-0.0034137932969401665,0.011560088317641888,0.1137134312876419
2718,10.0,299.63338999999996,-2849.7643,0.0,0.027180013514707113,0.0,0.0,0.0,0.0,0.16878188209497483,0.4762718462943716,0.22120347032858279,0.01110497892922609,0.004529081127060506,0.11534796581895788
2719,10.0,300.00091000000003,-2879.7829,0.0,0.027190009502126467,0.0,0.0,0.0,0.0,0.17068389438768883,0.48905987315645155,0.2156383258768458,0.011230025137317188,-0.017288684196010286,0.10023066138849611
2720,10.0,300.51471000000004,-3167.1515,0.0,0.027200005489545598,0.0,0.0,0.0,0.0,0.17380367118058684,0.5146010609446705,0.27433025023428775,0.005979025504183875,-0.019685844454841582,0.1090514878425439
2721,10.0,300.35787,-3231.4873,0.0,0.02721000147696495,0.0,0.0,0.0,0.0,0.18960552940510883,0.5234292354884434,0.26925669420106674,0.005407862806289505,-0.003811633891028976,0.11380828162950289
2722,10.0,300.49212,-3093.6881,0.0,0.027219997464384305,0.0,0.0,0.0,0.0,0.16635449962541082,0.5146628894657725,0.25938654391695876,0.0025076489000856773,0.017947615934791782,0.12553261880160488
2723,10.0,300.66327,-2968.5358,0.0,0.027229993451803658,0.0,0.0,0.0,0.0,0.16665273965984484,0.4869770767808956,0.24873094242033278,-0.01052761990299519,0.003850304479770466,0.1216468553306099
2724,10.0,299.95391,-2948.7237,0.0,0.027240022429280364,0.0,0.0,0.0,0.0,0.19468917740932581,0.4928960886975565,0.2087531191948288,-0.0031348306496336974,-0.008581062096134892,0.1042617938248379
2725,10.0,299.70741,-3061.1447,0.0,0.027250018416699717,0.0,0.0,0.0,0.0,0.19070489563110782,0.5126283744574816,0.2271782819282508,-0.0042664244096383055,-0.014304203649214987,0.11816517599949489
2726,10.0,299.56916,-3034.0837,0.0,0.02726001440411907,0.0,0.0,0.0,0.0,0.18719122799433582,0.49428657180978647,0.2408078940583888,0.006992950631400494,0.008521986980854632,0.10602444369879789
2727,10.0,299.8444,-2914.2689,0.0,0.027270010391538424,0.0,0.0,0.0,0.0,0.15460116323544684,0.49811069927719853,0.23315311379292078,-0.007781903028314033,-0.0014162865392765987,0.1314617024242599
2728,10.0,299.7222,-2910.6246,0.0,0.027280006378957555,0.0,0.0,0.0,0.0,0.15697046620927885,0.4785794524696146,0.24920728142484375,0.01107888672590099,0.017337168213295284,0.1009309114398554
2729,10.0,300.26757000000003,-3071.7167,0.0,0.02729000236637691,0.0,0.0,0.0,0.0,0.17795068092486482,0.5068462323643285,0.24892827287730773,0.0005566480320668835,0.016606692911452982,0.11763235843440989
2730,10.0,300.07355,-3194.8052,0.0,0.027299998353796262,0.0,0.0,0.0,0.0,0.22532907009824776,0.4860821641600745,0.25972976212333176,0.013695192716360289,0.001111560083002439,0.08007121167791333
2731,10.0,299.92431,-3023.5853,0.0,0.027309994341215615,0.0,0.0,0.0,0.0,0.19479181964445583,0.4683771588027266,0.25592547409287775,-0.003482808497026437,-0.012540289239130187,0.1064813890963949
2732,10.0,299.79722000000004,-2862.4084,0.0,0.02731999032863497,0.0,0.0,0.0,0.0,0.14492280093026685,0.4798345451034825,0.24534332309600076,0.0031602134765637865,-0.019731780148125082,0.09460084928887691
2733,10.0,299.39826,-2954.6593,0.0,0.027330019306111675,0.0,0.0,0.0,0.0,0.15903990794851683,0.4942044681541835,0.24489827325457778,0.013282426036373385,-0.00087814182192335,0.12077916873997588
2734,10.0,300.11713,-3119.1177,0.0,0.027340015293531028,0.0,0.0,0.0,0.0,0.17654576913121084,0.5108761711920525,0.26071195610776676,-0.003773607121401027,0.012840933716051488,0.11756480505024289
2735,10.0,300.77927999999997,-3003.8319,0.0,0.02735001128095038,0.0,0.0,0.0,0.0,0.19633684366193782,0.49736656840375854,0.21938646971925882,-0.00971091286331748,0.02154760640058318,0.13417820567735786
2736,10.0,299.92229,-2886.809,0.0,0.027360007268369513,0.0,0.0,0.0,0.0,0.17858589754505583,0.48158465094120456,0.21734731402550977,-0.009343218790178902,0.012775070433051289,0.1123727190203239
2737,10.0,300.19017,-2768.7173,0.0,0.027370003255788866,0.0,0.0,0.0,0.0,0.14203478483274187,0.48962961355518053,0.2099565158085948,0.01091233576721369,0.013482826641151385,0.13253747005542987
2738,10.0,301.46536000000003,-2961.2044,0.0,0.02737999924320822,0.0,0.0,0.0,0.0,0.15738253475994685,0.49578783355544953,0.24696182801073477,0.011889540508156288,-0.01172304527822449,0.11693779575586188
2739,10.0,300.80051000000003,-3219.2489,0.0,0.027389995230627573,0.0,0.0,0.0,0.0,0.18197421601195682,0.5192424455452396,0.27735462953027074,0.004314335535316766,-0.015845679264846785,0.12097050075635889
2740,10.0,300.66503,-3100.0236,0.0,0.027399991218046926,0.0,0.0,0.0,0.0,0.16860506995252483,0.5066954708819494,0.26702922597623274,-0.00972056234799481,-0.008641117024261851,0.1048333175437429
2741,10.0,300.52794,-2923.6294,0.0,0.027410020195523632,0.0,0.0,0.0,0.0,0.17575325556549584,0.4817010429801915,0.23125603602819378,-0.007713528607591003,0.004979820266469995,0.12171907979773788
2742,10.0,299.95409,-2993.5494,0.0,0.027420016182942764,0.0,0.0,0.0,0.0,0.2011325158552338,0.48724763482259753,0.2215841078611488,-0.00945833453933994,0.016742875751393185,0.10843659701935889
2743,10.0,300.0504,-3116.7918,0.0,0.02743001217036234,0.0,0.0,0.0,0.0,0.19209801319359782,0.5076638542675215,0.24766500331513278,-0.005159872985389815,0.003253968596391697,0.11950020393375188
2744,10.0,300.08432,-3065.5809,0.0,0.02744000815778147,0.0,0.0,0.0,0.0,0.18102267284304682,0.4867966270705865,0.26404072586629074,0.0013561273477143488,-0.002056623618847948,0.1023386654000399
2745,10.0,299.26639,-2940.2259,0.0,0.027450004145200824,0.0,0.0,0.0,0.0,0.14997332578871486,0.5080909087871686,0.23569102158339278,0.005159993663476725,0.003936663583143447,0.12624169122158488
2746,10.0,299.98401,-2882.3956,0.0,0.027460000132620177,0.0,0.0,0.0,0.0,0.15630344366844887,0.47531985729541754,0.24455298801800077,0.01008149520586611,-0.007659466344530472,0.1037593636302519
2747,10.0,299.82351,-3081.7931,0.0,0.02746999612003931,0.0,0.0,0.0,0.0,0.2021591712540568,0.49931751054380147,0.2353114682284338,-0.005818069104598715,-0.005991422416507354,0.11232121551774091
2748,10.0,299.31257999999997,-3269.2859,0.0,0.027479992107458884,0.0,0.0,0.0,0.0,0.2160199361295078,0.5151292986193036,0.26263203464976376,-0.007622638249770822,-0.008393975395020872,0.10017324861132991
2749,10.0,299.54693,-3199.2362,0.0,0.02749002108493559,0.0,0.0,0.0,0.0,0.1891745333425728,0.5164652384786506,0.26684814805086177,-0.0037851444936646762,0.009619458327841621,0.10673908899432791
2750,10.0,300.16587000000004,-3050.5487,0.0,0.02750001707235472,0.0,0.0,0.0,0.0,0.16830143942755885,0.5068586345455525,0.25213055862584877,0.0014176953622156388,-0.007202195389676343,0.11522821992213989
2751,10.0,300.40483,-3026.3071,0.0,0.027510013059774074,0.0,0.0,0.0,0.0,0.17016065203604885,0.4994585853552245,0.25030256425293973,0.014015170005189587,-0.014690705873359787,0.1092661347437279
2752,10.0,300.50739,-3036.0577,0.0,0.027520009047193428,0.0,0.0,0.0,0.0,0.18042194725625982,0.4957617626303765,0.2467020104200928,0.004253016679015066,-0.014947660019219185,0.1245573149178499
2753,10.0,299.83432999999997,-3047.8332,0.0,0.027530005034613003,0.0,0.0,0.0,0.0,0.2020176506125898,0.49612315854354355,0.2283243792488618,-0.0006227364693718045,0.003259291097841987,0.1091886211110779
2754,10.0,299.99527,-2942.3403,0.0,0.027540001022032135,0.0,0.0,0.0,0.0,0.17249963856688885,0.48644420855330556,0.23545414397501477,0.002003364255166658,0.014612177977359687,0.1314336860589949
2755,10.0,300.20234,-2902.6262,0.0,0.027549997009451266,0.0,0.0,0.0,0.0,0.15562749439423784,0.49772095262623356,0.22897742907081275,-0.012370738046896788,0.018387654241220183,0.12160126920861089
2756,10.0,299.59135,-2981.4244,0.0,0.02755999299687084,0.0,0.0,0.0,0.0,0.16319447653854086,0.5025417331570075,0.24054236173718277,0.007284565124755603,0.007512168758943332,0.1250622174426799
2757,10.0,299.48728,-3117.486,0.0,0.027570021974347547,0.0,0.0,0.0,0.0,0.15754025727051285,0.5174900092322875,0.2726076237392777,-0.015673386217842786,0.012036866059446188,0.12517328991864188
2758,10.0,299.75164,-3167.1441,0.0,0.02758001796176668,0.0,0.0,0.0,0.0,0.19003272577976982,0.5203119107607875,0.25238809640376575,0.006935096482490733,-0.004018847792129396,0.11306248902589888
2759,10.0,299.66412,-3051.6036,0.0,0.027590013949186032,0.0,0.0,0.0,0.0,0.1973495770043868,0.4918193787437935,0.23844235024242777,-0.015569763156615984,-0.009651913539144701,0.11118065054267588
2760,10.0,299.83284,-2941.6815,0.0,0.027600009936605385,0.0,0.0,0.0,0.0,0.17540360322098783,0.49341917906168153,0.22537495006277578,0.007359438024994982,-0.0006926960590812785,0.1089787770153679
2761,10.0,299.45038999999997,-3075.3658,0.0,0.02761000592402496,0.0,0.0,0.0,0.0,0.17568264216602683,0.5042451180326185,0.25490666124982875,0.001073230959544649,0.017209250454420785,0.1165735627424149
2762,10.0,299.33971,-3164.4375,0.0,0.027620001911444092,0.0,0.0,0.0,0.0,0.19757275547141281,0.4959638654953225,0.26837337316138976,0.02409637116587668,0.017987020217930683,0.09873288117017671
2763,10.0,300.10185,-3036.4682,0.0,0.027629997898863223,0.0,0.0,0.0,0.0,0.17347940075108384,0.4955179341263125,0.2540131773116488,-0.011028344797662888,-0.0016480137973962986,0.12297717165190189
2764,10.0,300.11298,-3000.4235,0.0,0.027639993886282577,0.0,0.0,0.0,0.0,0.1893438980967878,0.48744437759451453,0.23526552746889975,-0.0022522440136291777,-0.02923785751230187,0.1015642586136119
2765,10.0,300.05152999999996,-3063.6068,0.0,0.027650022863759505,0.0,0.0,0.0,0.0,0.19565399415454582,0.5053041467721365,0.23030183814402178,-0.007019325126203453,-0.00949197727976022,0.12009572141502489
2766,10.0,300.24662,-3184.7693,0.0,0.027660018851178636,0.0,0.0,0.0,0.0,0.19209536861083681,0.5247063156494814,0.2512886491177588,0.007256258058036913,0.009949181258782741,0.12062562081982188
2767,10.0,300.17582999999996,-3188.7561,0.0,0.02767001483859799,0.0,0.0,0.0,0.0,0.18524703409995882,0.5091940747010425,0.27486113249168176,0.0020612645069559682,0.02072388270528798,0.10795897118722089
2768,10.0,300.52471,-3055.2689,0.0,0.027680010826017343,0.0,0.0,0.0,0.0,0.15744617699872787,0.5037822856519405,0.26749700301739876,-0.012889103625805488,0.016371054507947284,0.1122185530176089
2769,10.0,300.31652,-2994.6176,0.0,0.027690006813436918,0.0,0.0,0.0,0.0,0.14822003834567887,0.5044977922100555,0.25757113411029176,0.003855287441112246,0.013805655215762089,0.1041855062248089
2770,10.0,299.66931,-3154.2563,0.0,0.02770000280085605,0.0,0.0,0.0,0.0,0.1972282909674168,0.5053721054563435,0.25621475699642776,-0.00036988397004970565,0.001873158982866398,0.1144003033979309
2771,10.0,299.64906,-3183.7322,0.0,0.02770999878827518,0.0,0.0,0.0,0.0,0.2141057547030928,0.5154375191672226,0.23823183740165177,-0.005530228663891075,-0.007310430258733293,0.1081919275177119
2772,10.0,299.99043,-3071.3205,0.0,0.027719994775694534,0.0,0.0,0.0,0.0,0.19068188472133682,0.5124949800818165,0.23042787632396078,-0.013411150342327488,-0.015813000935871686,0.12919161690021988
2773,10.0,299.89506,-2997.9458,0.0,0.027729990763113888,0.0,0.0,0.0,0.0,0.17422342016701284,0.5029009100524555,0.2341763444064058,0.001053942831966059,0.004437584035080446,0.11698803269581988
2774,10.0,300.00989,-3017.1935,0.0,0.027740019740590593,0.0,0.0,0.0,0.0,0.15179039732554586,0.5171063218169205,0.24825477566833878,0.004335580755463506,0.012744641519298189,0.13658951800033586
2775,10.0,299.6163,-3140.1804,0.0,0.027750015728009947,0.0,0.0,0.0,0.0,0.17539704749284085,0.5129430088785335,0.26619638505653775,0.008642427359291173,0.00968753576496034,0.12342881775147588
2776,10.0,299.86784,-3105.9471,0.0,0.0277600117154293,0.0,0.0,0.0,0.0,0.19561566290326282,0.5001179477252986,0.24839675227235075,0.0002146969354739378,-0.010298622340644891,0.12704495537086088
2777,10.0,300.95599,-2988.8793,0.0,0.027770007702848654,0.0,0.0,0.0,0.0,0.18220217701945482,0.5009491775773346,0.22539333041958975,0.0035775264070993665,-0.0027334436801948873,0.11671413092878788
2778,10.0,301.02654,-3057.9562,0.0,0.027780003690268007,0.0,0.0,0.0,0.0,0.17910125681091782,0.49248632022461547,0.25795474046565076,0.004569338262808575,-0.00040117471380786163,0.1014614035959609
2779,10.0,300.10842,-3186.0748,0.0,0.02778999967768714,0.0,0.0,0.0,0.0,0.18169135711404083,0.5114664197728055,0.27532941615789774,-0.0002285296738516228,0.003163128799751507,0.09506982601816132
2780,10.0,299.814,-3162.0328,0.0,0.02779999566510649,0.0,0.0,0.0,0.0,0.16890237779686684,0.5071937163536225,0.28508291095799276,-0.016724506540330284,-0.0011640014498779988,0.09385246377826702
2781,10.0,299.35249,-3184.3983,0.0,0.027809991652525845,0.0,0.0,0.0,0.0,0.19263186427378481,0.5032532779072315,0.27209243672593275,-0.014676174853675686,0.003296894430253147,0.09705911055523841
2782,10.0,299.67519,-3141.1048,0.0,0.02782002063000255,0.0,0.0,0.0,0.0,0.2083206336546458,0.5096869702121875,0.23680981181380878,0.004983611341719146,0.005242633733682665,0.12027061851478588
2783,10.0,299.65552,-3142.8133,0.0,0.027830016617422126,0.0,0.0,0.0,0.0,0.2097258494233298,0.5049783463349825,0.2406325815260868,0.006426274604948924,-0.009890752394416261,0.12088068626749487
2784,10.0,299.8356,-3121.639,0.0,0.027840012604841258,0.0,0.0,0.0,0.0,0.1911453757145798,0.5258751097723325,0.2318798130547558,0.013555940741867188,-0.025787820968559774,0.13999090739352685
2785,10.0,299.92182,-3053.3603,0.0,0.02785000859226061,0.0,0.0,0.0,0.0,0.16351091454477085,0.5061095792766265,0.2585248051044118,0.01117848211798029,-0.016336901900076684,0.11931811275828089
2786,10.0,300.39015,-2926.527,0.0,0.027860004579679964,0.0,0.0,0.0,0.0,0.13164265875961886,0.5008113451662315,0.25713711856245774,0.0033583062015890173,0.006248734138327044,0.13953576558110786
2787,10.0,300.12026000000003,-2992.0933,0.0,0.027870000567099096,0.0,0.0,0.0,0.0,0.15473863087651385,0.5075542510042045,0.24722876874957977,0.004518186256685266,0.02230975995355188,0.11452672661290789
2788,10.0,300.78285,-3062.2981,0.0,0.02787999655451845,0.0,0.0,0.0,0.0,0.18331662040694183,0.49997689317887756,0.24756865336312375,-0.012099550776882689,0.01007775104409659,0.12689215725578087
2789,10.0,300.39207999999996,-3125.5988,0.0,0.027889992541937803,0.0,0.0,0.0,0.0,0.18968109759756682,0.5168254083591965,0.24359748304119977,-0.0027228909843784173,0.013183566263866688,0.1061725504659149
2790,10.0,300.67741,-3114.4362,0.0,0.02790002151941473,0.0,0.0,0.0,0.0,0.18843582335716783,0.5241731130493585,0.23410191105405978,0.0050122021184658356,-0.01158306275040929,0.12067018355921989
2791,10.0,300.71418,-3171.0624,0.0,0.027910017506834084,0.0,0.0,0.0,0.0,0.18260843964704981,0.5190347495397415,0.2622805989850797,-0.0014156090802597385,-0.011924151105072089,0.10025769794091441
2792,10.0,300.52761,-3218.4208,0.0,0.027920013494253215,0.0,0.0,0.0,0.0,0.18244872103378681,0.5354368267260005,0.26043402160533674,0.008570710429138262,-0.01003662220928749,0.11727343485148689
2793,10.0,300.17095,-3194.4390000000003,0.0,0.02793000948167257,0.0,0.0,0.0,0.0,0.21095556014219283,0.5034657564532016,0.2566083945277768,0.00020928531867735276,0.00999298730300606,0.1124236044403459
2794,10.0,299.93852999999996,-3103.4767,0.0,0.027940005469091922,0.0,0.0,0.0,0.0,0.1966271600805898,0.5128945248612485,0.23385772791246076,0.005941826559887625,0.02387950828672398,0.11963311194936888
2795,10.0,299.40307,-2969.8554,0.0,0.027950001456511053,0.0,0.0,0.0,0.0,0.17698399979946083,0.4967865435165145,0.2289913612596878,-0.014223345277984887,0.006686763980407223,0.12514365235321687
2796,10.0,299.79491,-2918.2141,0.0,0.02795999744393063,0.0,0.0,0.0,0.0,0.16530520821935385,0.4925258876410205,0.2292331227335478,0.011595481143634888,-0.005000094185070875,0.12000030365310788
2797,10.0,299.6151,-3069.5702,0.0,0.02796999343134976,0.0,0.0,0.0,0.0,0.16056912526443884,0.5079435619576266,0.26456000641003974,0.004210042614448856,-0.012833673779084988,0.11407593164341788
2798,10.0,299.65186,-3211.5321,0.0,0.027980022408826466,0.0,0.0,0.0,0.0,0.1801879371456648,0.5206544196920905,0.2753831994732057,0.021890390935913377,-0.012964294889226288,0.1088693460045679
2799,10.0,300.8274,-3154.8223,0.0,0.02799001839624604,0.0,0.0,0.0,0.0,0.1982388863521548,0.5107586949754586,0.24998962195955476,-0.012283373596774588,-0.013637457725662286,0.1003332174973676
2800,10.0,300.55461,-3135.7470000000003,0.0,0.028000014383665173,0.0,0.0,0.0,0.0,0.1873535101303518,0.5213887017745585,0.24444657649249873,-0.007170069585980774,-0.001847991674232578,0.11677899920018989
2801,10.0,300.19385,-3236.9861,0.0,0.028010010371084526,0.0,0.0,0.0,0.0,0.21073033490996482,0.5213575342014825,0.2518750777456348,0.007163532400310603,0.017368665092653782,0.099873692365016
2802,10.0,300.6876,-3145.1082,0.0,0.028020006358503657,0.0,0.0,0.0,0.0,0.19693543129101382,0.5118517283883325,0.24724720990139976,0.0049205707708475255,0.0005349518852281404,0.11969725068069888
2803,10.0,300.39718,-3100.1456,0.0,0.028030002345923233,0.0,0.0,0.0,0.0,0.18142463929021782,0.5133964686957865,0.24754575391086378,0.004278163418671856,-0.0025611998771457476,0.11275288032534289
2804,10.0,300.12237999999996,-3014.1811,0.0,0.028039998333342586,0.0,0.0,0.0,0.0,0.16182723738360485,0.5028483932997725,0.25156015961455475,-0.008373424656492672,-0.013728130437360986,0.13052652324446487
2805,10.0,300.0096,-2928.1805,0.0,0.028049994320761718,0.0,0.0,0.0,0.0,0.17708123127905684,0.5039208172056125,0.2090917169807458,-0.002546913962660838,0.015828697193170788,0.13028154976778789
2806,10.0,299.71392000000003,-3069.4645,0.0,0.02805999030818107,0.0,0.0,0.0,0.0,0.17204117329414184,0.5073417217957296,0.2536576683815628,0.00023535916191064077,0.01236753415008059,0.13073682330271988
2807,10.0,300.01067,-3153.0023,0.0,0.028070019285658,0.0,0.0,0.0,0.0,0.2024800776932278,0.5096035189339515,0.24635038223788974,0.005319583492652015,0.014952936012489884,0.11938736840261589
2808,10.0,300.39338,-3018.2179,0.0,0.02808001527307713,0.0,0.0,0.0,0.0,0.14850584580138587,0.5153134466924775,0.25364357407267174,0.0028658856007658874,0.0025847617923211276,0.11709425170380289
2809,10.0,299.55926,-3062.4777,0.0,0.028090011260496484,0.0,0.0,0.0,0.0,0.16175557020403183,0.5096001650761205,0.25956101545167776,0.011603338898160388,0.002022001369555998,0.11048814476183089
2810,10.0,299.55944,-3221.9095,0.0,0.028100007247915615,0.0,0.0,0.0,0.0,0.19161445984837483,0.5153006392112135,0.2724649479926967,0.011157716570430888,-0.016022400214787784,0.10506317332892791
2811,10.0,299.82059,-3280.3379,0.0,0.028110003235334968,0.0,0.0,0.0,0.0,0.2219482496820868,0.5089545322449015,0.26623802963564774,-0.0039817342648165764,-0.025768848873687373,0.1072525940125069
2812,10.0,299.49279,-3257.0111,0.0,0.028119999222754544,0.0,0.0,0.0,0.0,0.2029453621391478,0.5225844280850676,0.2645202667411178,-0.014749931354954884,-0.003118933262189747,0.11078637466376391
2813,10.0,299.2878,-3113.8462,0.0,0.028129995210173675,0.0,0.0,0.0,0.0,0.19713963158366682,0.5184203552091056,0.23097149513511178,-0.012615283932031589,0.01103943887300779,0.10490871348368391
2814,10.0,299.56763,-3141.6943,0.0,0.02813999119759303,0.0,0.0,0.0,0.0,0.18707034725740582,0.5070884092707295,0.26083787269769376,-0.016386058715428087,0.012505971471493288,0.1095232064265989
2815,10.0,299.8488,-3217.7049,0.0,0.028150020175069734,0.0,0.0,0.0,0.0,0.19159514730146882,0.5148222230439975,0.27168457316317973,0.006919283296130094,0.0006496781309182394,0.1110287947501889
2816,10.0,299.92199,-3154.9092,0.0,0.028160016162489088,0.0,0.0,0.0,0.0,0.1947544003182628,0.5156661185222835,0.24859308974422775,0.0033308191581762573,-0.011819873484280688,0.12154286547284687
2817,10.0,299.99241,-3055.0694,0.0,0.02817001214990844,0.0,0.0,0.0,0.0,0.18105022311326585,0.5037127260325756,0.24390187350374076,0.009782309505113782,0.0022374041553145977,0.12152825440640488
2818,10.0,300.03146,-3030.6842,0.0,0.028180008137327572,0.0,0.0,0.0,0.0,0.17403075066049783,0.5076639049300266,0.23955766502500078,-0.006349880309684394,-0.01105781619007149,0.13154580218255987
2819,10.0,300.178,-3107.6090000000004,0.0,0.028190004124746926,0.0,0.0,0.0,0.0,0.1882195957858278,0.5012325532328016,0.25518338998463974,0.00912884982349733,0.008789806714161382,0.11472353017983088
2820,10.0,299.82818,-3210.0625,0.0,0.02820000011216628,0.0,0.0,0.0,0.0,0.17410897356821783,0.5186188002411904,0.28305108106246674,-0.01259958868798259,0.01065973251728369,0.11324804551671189
2821,10.0,299.4273,-3165.9167,0.0,0.028209996099585632,0.0,0.0,0.0,0.0,0.17097387643380782,0.5255717021623886,0.26581403513130275,-0.006547720026159655,0.019281791725714682,0.10213939963537391
2822,10.0,299.87162,-3072.8765,0.0,0.028219992087004986,0.0,0.0,0.0,0.0,0.17815102073463684,0.4987758371728426,0.2571508784988158,-0.021678545671255878,0.005005089204088845,0.1081856554995929
2823,10.0,299.93979,-3154.7259999999997,0.0,0.028230021064481692,0.0,0.0,0.0,0.0,0.19618776417472483,0.5226588411724116,0.24011133527714376,-0.005194236653256246,-0.004128549543356116,0.12219406104711487
2824,10.0,299.74122,-3200.498,0.0,0.028240017051901045,0.0,0.0,0.0,0.0,0.19301145815874782,0.5283461937187095,0.25151382368748176,0.019043149035662482,-0.01785208063586318,0.13731455924189187
2825,10.0,299.69969,-3197.3922,0.0,0.0282500130393204,0.0,0.0,0.0,0.0,0.18884433539998483,0.5328150116947475,0.2502680428220328,0.018465319861385183,-0.0032235145540361167,0.12945440331365488
2826,10.0,299.5077,-3066.0662,0.0,0.028260009026739752,0.0,0.0,0.0,0.0,0.15540072902185784,0.5197986083926285,0.25680823784499973,0.01055829301002239,0.008485788317057102,0.12623560158848388
2827,10.0,299.80976,-2962.3555,0.0,0.028270005014158883,0.0,0.0,0.0,0.0,0.17737728269327485,0.47757308233779355,0.24553174708459674,-0.006436365562694823,0.0017819768090174184,0.10411715237306289
2828,10.0,299.9905,-3078.1555,0.0,0.028280001001578237,0.0,0.0,0.0,0.0,0.1934969164141588,0.4977207499762135,0.24446476433179376,0.0053368787599339254,0.0002680050770150418,0.11209910096331988
2829,10.0,299.68008,-3182.3008,0.0,0.02828999698899759,0.0,0.0,0.0,0.0,0.2023117971166198,0.5127819629076396,0.25224622112476375,-0.0032523134523533464,-0.00016951844399016786,0.12009611658256389
2830,10.0,300.06453999999997,-3150.6653,0.0,0.028299992976416943,0.0,0.0,0.0,0.0,0.20013337019662583,0.5052362286179335,0.25235399040539974,-0.0031254019521531565,-0.0028798400811430877,0.1105172959672079
2831,10.0,299.58209,-3140.3436,0.0,0.02831002195389365,0.0,0.0,0.0,0.0,0.18888679057917482,0.5205880112805366,0.24511123816059577,-0.009303811973914751,0.0006919982033399054,0.12038838857390889
2832,10.0,300.29595,-3203.8831,0.0,0.028320017941313003,0.0,0.0,0.0,0.0,0.17533320260403984,0.5211539317263885,0.27741331697606275,0.0040562591136466064,0.0038618282744827762,0.1051486409748629
2833,10.0,300.81584,-3257.7567,0.0,0.028330013928732356,0.0,0.0,0.0,0.0,0.2024220589925018,0.5197827408960626,0.26807190085913674,0.005532149887405685,0.0019503769491372182,0.1029357027564629
2834,10.0,300.75641,-3183.6290000000004,0.0,0.02834000991615171,0.0,0.0,0.0,0.0,0.17706138170959784,0.5234753991629996,0.26720693991127176,-0.0028853653339383873,-0.005991440148384104,0.1058323010823349
2835,10.0,300.3057,-3026.7361,0.0,0.02835000590357084,0.0,0.0,0.0,0.0,0.1856292928326848,0.5071327186976025,0.22729017513679378,-0.007194812038847663,-0.003595188774892507,0.12351584580256487
2836,10.0,299.76914,-2959.8509999999997,0.0,0.028360001890990194,0.0,0.0,0.0,0.0,0.16520444049690886,0.5030447713016535,0.2314715948544678,0.0032003882350787266,0.0032931537135339663,0.12907446492365787
2837,10.0,299.51915,-3101.1697,0.0,0.028369997878409547,0.0,0.0,0.0,0.0,0.17124539706310485,0.5235238021202765,0.2479089635417098,0.0002777336965251817,0.005454905171332225,0.14116089715149585
2838,10.0,300.62266,-3165.9509999999996,0.0,0.0283799938658289,0.0,0.0,0.0,0.0,0.15749450902849785,0.5177144441294375,0.2871610970455937,0.006434737371109134,0.003823372190787457,0.12424497044202387
2839,10.0,299.71775,-3157.8118,0.0,0.028390022843305607,0.0,0.0,0.0,0.0,0.2016517963989828,0.5147097725478995,0.24353436769247078,0.003301283019086267,0.004631003549319465,0.12161826141278789
2840,10.0,298.98715,-3081.2347,0.0,0.028400018830724738,0.0,0.0,0.0,0.0,0.17520218936610985,0.5102737534775985,0.25114245739333074,0.013429340208122687,0.004797282653004936,0.11732265854134488
2841,10.0,298.98982,-3137.8111,0.0,0.028410014818144314,0.0,0.0,0.0,0.0,0.2088497933868698,0.5170816795744886,0.2278847604279748,0.019105605771826482,-0.010807499845617189,0.12657007544649387
2842,10.0,299.68739,-3332.7942,0.0,0.028420010805563667,0.0,0.0,0.0,0.0,0.21027731079025483,0.5435089647076585,0.25929995156341273,0.015453867610177984,-0.00878583832014473,0.1067171723946649
2843,10.0,299.59495,-3343.1895,0.0,0.028430006792982798,0.0,0.0,0.0,0.0,0.20462048746946981,0.5305327874345095,0.28109287391920673,-0.0016682717066455986,-0.0028633094123866375,0.10207388288390791
2844,10.0,299.85911,-3100.8687,0.0,0.02844000278040215,0.0,0.0,0.0,0.0,0.16687768118204485,0.5100288002659236,0.26568016452809073,-0.016754980037087783,0.0012042171436969788,0.0962661683847311
2845,10.0,299.45089,-2969.0146,0.0,0.028449998767821283,0.0,0.0,0.0,0.0,0.17132560594102084,0.4804976767639285,0.25068300926798676,-0.01139360828646159,0.015219988208845885,0.1018420512610279
2846,10.0,299.97725,-3096.7169,0.0,0.02845999475524086,0.0,0.0,0.0,0.0,0.16882663735189185,0.5112083348398345,0.26128966065228176,-0.015613892224971185,0.01030783785030439,0.1073606875331749
2847,10.0,300.43829,-3250.3636,0.0,0.02846999074266021,0.0,0.0,0.0,0.0,0.21360626293379678,0.5215092684039575,0.25291382121815076,0.004367062537395516,0.004608229841396876,0.1315650741994619
2848,10.0,300.21159,-3245.3032,0.0,0.028480019720136696,0.0,0.0,0.0,0.0,0.21263773769321082,0.5164503437021805,0.25740305618370374,0.01960411367527538,-0.0002079482237128918,0.12300624179727089
2849,10.0,300.60483,-2991.5840000000003,0.0,0.02849001570755627,0.0,0.0,0.0,0.0,0.17261355827563185,0.5036859559649336,0.23306731177445275,0.022910683124108377,-0.0032885625760058564,0.12885229970673187
2850,10.0,300.25606,-3005.3949,0.0,0.028500011694975624,0.0,0.0,0.0,0.0,0.16781923370496885,0.5046028257154215,0.24114293533645478,0.006748707910695614,-0.01789450237779988,0.1066302760660889
2851,10.0,299.96051,-3168.0549,0.0,0.028510007682394756,0.0,0.0,0.0,0.0,0.1968124936563808,0.5086998518322665,0.25749724791299977,-0.0012531340214246988,-0.019528296223292784,0.1030156887193569
2852,10.0,299.90082,-3245.3969,0.0,0.02852000366981411,0.0,0.0,0.0,0.0,0.1996425619806868,0.5211576706192576,0.2657193874394617,-0.007981967943333902,0.004439601922654596,0.10764630247136289
2853,10.0,299.88417999999996,-3173.1581,0.0,0.02852999965723324,0.0,0.0,0.0,0.0,0.1988581949457758,0.5202665880838145,0.24543604561265175,-0.007024214665886014,0.013976279439851386,0.1186782554526319
2854,10.0,299.54627999999997,-3055.5678,0.0,0.028539995644652594,0.0,0.0,0.0,0.0,0.16576776702250484,0.5133316409543885,0.24971690569513977,-0.000908099229874916,0.005483582479637455,0.12367542256081389
2855,10.0,299.81354,-3171.5108,0.0,0.02854999163207217,0.0,0.0,0.0,0.0,0.16564281302017284,0.5359434011134955,0.26247387644165476,-0.00037224087084231365,-0.005204615779330585,0.1259744363752089
2856,10.0,299.74048999999997,-3276.7564,0.0,0.028560020609548875,0.0,0.0,0.0,0.0,0.1991605690406178,0.5254177489421945,0.2714737968773777,0.004403477023464345,0.00934543628802275,0.1207724914218169
2857,10.0,300.15081000000004,-3172.515,0.0,0.02857001659696823,0.0,0.0,0.0,0.0,0.19712247725947382,0.5141985980049505,0.2530442569035238,0.012502530474153686,0.018061927771323483,0.11808441996652488
2858,10.0,300.27647,-3014.2702,0.0,0.02858001258438736,0.0,0.0,0.0,0.0,0.17045030984213586,0.5117229746981256,0.23408956966784178,-0.01088108004137899,0.008296192302070432,0.12239119898657087
2859,10.0,300.08128999999997,-3028.1317,0.0,0.028590008571806713,0.0,0.0,0.0,0.0,0.1908932892222008,0.49859652230264556,0.23098659256160176,0.001939561112269778,0.0013253535236272087,0.12147301201095288
2860,10.0,300.45266000000004,-3204.9113,0.0,0.028600004559226067,0.0,0.0,0.0,0.0,0.1880618124802558,0.5245950405234996,0.26155614542858174,-4.372781016984886e-05,-0.0033914071571808273,0.12644353064150488
2861,10.0,300.5107,-3243.8837,0.0,0.028610000546645198,0.0,0.0,0.0,0.0,0.2056304445066448,0.5129973798788996,0.26743181050596476,0.02016876553200218,-0.007464551374468863,0.11588984183993689
2862,10.0,300.34979,-3142.692,0.0,0.028619996534064773,0.0,0.0,0.0,0.0,0.19009327760574582,0.49809488244313754,0.2671117349318758,-0.0035493116474647865,-0.02238438379691668,0.0956521975926369
2863,10.0,299.71845,-3091.4963,0.0,0.028629992521484127,0.0,0.0,0.0,0.0,0.17630731085267684,0.5127039730474425,0.25072638650476775,-0.0032943139862234763,-0.013221318949342588,0.1068482464276009
2864,10.0,299.36999,-3199.05,0.0,0.028640021498960833,0.0,0.0,0.0,0.0,0.18479214560006482,0.5144205099093515,0.27321864394708073,0.0014310414872327987,0.010707792996026888,0.10535593168032088
2865,10.0,300.04302,-3321.5866,0.0,0.028650017486380186,0.0,0.0,0.0,0.0,0.21100719536728882,0.5378092403776396,0.2608629607701698,-0.0005916175626981074,0.023883849050152377,0.12237393320486688
2866,10.0,299.79809,-3269.9571,0.0,0.028660013473799317,0.0,0.0,0.0,0.0,0.18266769451289783,0.5285247486513315,0.2827928542744817,-0.0019150572798014383,0.013881792854776288,0.11822281979768388
2867,10.0,299.31212999999997,-3082.704,0.0,0.02867000946121867,0.0,0.0,0.0,0.0,0.18083311401433882,0.5105437744967475,0.24568814223753177,-0.023530267321756577,-0.00955215389922419,0.12088195283011988
2868,10.0,300.26552999999996,-2966.4586,0.0,0.028680005448638024,0.0,0.0,0.0,0.0,0.16573995330725985,0.49892044822711457,0.23706892012938077,-0.006331171659837994,-0.0005120175467671975,0.1126934937369819
2869,10.0,300.60195,-3064.5461,0.0,0.028690001436057377,0.0,0.0,0.0,0.0,0.18189813106194783,0.5077214372707045,0.24192593448373076,-0.016365878826436486,-0.0039487007916814264,0.12453611772575789
2870,10.0,300.06466,-3233.4863,0.0,0.02869999742347673,0.0,0.0,0.0,0.0,0.1983463212602578,0.5136692862852116,0.2708834976341198,0.001915644052934348,0.005162883148786895,0.11264464494966091
2871,10.0,300.89538999999996,-3198.6937,0.0,0.028709993410895862,0.0,0.0,0.0,0.0,0.19472097319746381,0.5215238186753934,0.2560782114129518,0.0028112296744717677,0.006887912971709083,0.12804306751436687
2872,10.0,300.15148,-3146.4394,0.0,0.02872002238837279,0.0,0.0,0.0,0.0,0.15849117222436085,0.5266463248209455,0.27130153422787673,0.02147833758399688,0.027445449496154975,0.12933890293475586
2873,10.0,299.68262000000004,-3199.04,0.0,0.028730018375792143,0.0,0.0,0.0,0.0,0.18872740633844481,0.5330979009901665,0.25060297264258774,0.023981412875781177,0.0016218472215138583,0.12922059585307988
2874,10.0,300.09352,-3299.3533,0.0,0.028740014363211275,0.0,0.0,0.0,0.0,0.19230549641657482,0.5248146118201695,0.28580092024385473,0.008352088649136972,-0.02041684664673588,0.11461221452384487
2875,10.0,299.57166,-3286.4832,0.0,0.028750010350630628,0.0,0.0,0.0,0.0,0.19585544853942782,0.5411655908038855,0.26198777983868077,0.0038737997230892667,-0.021190331375572878,0.1179329289440739
2876,10.0,299.5815,-3080.0813,0.0,0.02876000633804998,0.0,0.0,0.0,0.0,0.17693135132426482,0.5226185543484355,0.2367178897647368,-0.0015923448236521986,-0.0027970002993424376,0.1181148174695249
2877,10.0,299.7982,-2989.0593,0.0,0.028770002325469335,0.0,0.0,0.0,0.0,0.17225691450543384,0.5060219230104755,0.23032054274086777,-0.005791817415707875,0.018451440361515383,0.12862852342214687
2878,10.0,299.76816,-3198.4891,0.0,0.028779998312888688,0.0,0.0,0.0,0.0,0.17558536002392583,0.5350818548184675,0.26159360528477876,-0.011019925702581989,0.005047967111220565,0.11055912293133588
2879,10.0,300.18372999999997,-3217.0026,0.0,0.02878999430030782,0.0,0.0,0.0,0.0,0.2036742233335808,0.5107717456367464,0.26344249287474975,0.004161533367236366,-0.0012308729167276988,0.10389066057820992
2880,10.0,299.93621,-3297.1772,0.0,0.028799990287727173,0.0,0.0,0.0,0.0,0.1930402547265898,0.5276364018911585,0.2815828715350657,0.012535099372117988,0.005778114829305535,0.1091197707667829
2881,10.0,300.17602,-3286.5962,0.0,0.0288100192652041,0.0,0.0,0.0,0.0,0.20233560849396984,0.5298535349649725,0.2668540147689407,0.013984072346370486,0.0016050562488067184,0.12150286235889887
2882,10.0,300.33204,-3245.4821,0.0,0.028820015252623232,0.0,0.0,0.0,0.0,0.2095242430509328,0.5198206972448085,0.25720058854872174,-0.002476811747867288,-0.009605278095342142,0.11581210529226489
2883,10.0,299.99227,-3346.3229,0.0,0.028830011240042364,0.0,0.0,0.0,0.0,0.20141692502580283,0.5448519466552004,0.2709297322361828,-0.003140596042702697,-0.006561225130117503,0.12632286268709586
2884,10.0,300.18527,-3288.4033,0.0,0.02884000722746194,0.0,0.0,0.0,0.0,0.19657489664043182,0.5352591837184685,0.2677584114106978,0.01080594855971409,0.008944742482977351,0.11906430374073189
2885,10.0,299.733,-3109.5747,0.0,0.028850003214881292,0.0,0.0,0.0,0.0,0.17083807052290484,0.5328194598626864,0.24157554246664978,-0.004547886846266486,0.01154064100847259,0.12257288486200188
2886,10.0,298.59373,-3123.9932,0.0,0.028859999202300646,0.0,0.0,0.0,0.0,0.16882484389921484,0.5258778658126045,0.25491321697797575,-0.01887928825599068,-0.0033085914907325566,0.1124788873658019
2887,10.0,299.221,-3221.9878,0.0,0.028869995189719777,0.0,0.0,0.0,0.0,0.1894368739259638,0.5245780381868215,0.2653889260518478,-0.004512304846479816,-0.012183351626403188,0.1139838981368349
2888,10.0,300.17077,-3167.7214,0.0,0.02887999117713913,0.0,0.0,0.0,0.0,0.1982510554858558,0.5297600626432475,0.2348970996000388,-0.004397678497117076,0.0053740648359539055,0.11993384457904889
2889,10.0,299.97564,-3165.8367,0.0,0.02889002015461606,0.0,0.0,0.0,0.0,0.17473584100758482,0.5301531834170455,0.25744628143296977,0.01759472828271448,0.006989995588808853,0.12289597992138887
2890,10.0,300.18877000000003,-3170.9106,0.0,0.02890001614203519,0.0,0.0,0.0,0.0,0.1962780548911358,0.5077228456883435,0.2598767441828378,-0.02183070037252238,-8.274542997783812e-05,0.11007578236863388
2891,10.0,300.27772000000004,-3189.0555,0.0,0.028910012129454543,0.0,0.0,0.0,0.0,0.18573568409318483,0.5203230159818835,0.2633345412090957,-0.00906652389792124,-0.0003173120458987607,0.1159093671693639
2892,10.0,300.53036000000003,-3225.5665,0.0,0.028920008116873896,0.0,0.0,0.0,0.0,0.19483501449621882,0.5145308123152375,0.27112585692553876,-0.0036148668011095767,-0.0006876604695293043,0.12197648585314189
2893,10.0,300.46047000000004,-3358.8813,0.0,0.02893000410429325,0.0,0.0,0.0,0.0,0.2106025235423508,0.5355177448789865,0.27489578564510175,0.012062898481015388,0.006960993939146614,0.11734642938869087
2894,10.0,299.85329,-3352.6726,0.0,0.028940000091712603,0.0,0.0,0.0,0.0,0.22147049212743578,0.5478654943076144,0.2497927677301268,0.008353503855551643,-0.017578396717602682,0.12292394562414888
2895,10.0,299.42646,-3194.6357,0.0,0.028949996079131735,0.0,0.0,0.0,0.0,0.19434078149494183,0.5153175908853865,0.2614311103662418,0.013072398542395289,-0.01215618537797209,0.1152963913888679
2896,10.0,299.31579,-3164.5014,0.0,0.028959992066550866,0.0,0.0,0.0,0.0,0.19497030364957083,0.5356784970073515,0.2312805870781168,0.015534530424138786,0.013829584130123687,0.12229989502005989
2897,10.0,299.83521,-3226.7047,0.0,0.028970021044028016,0.0,0.0,0.0,0.0,0.17665001230149882,0.5211270805987385,0.28306055495090177,0.008259090427133763,0.003662596656345147,0.1017390442558619
2898,10.0,300.0102,-3169.2586,0.0,0.028980017031447147,0.0,0.0,0.0,0.0,0.16845061010728085,0.5322683632657975,0.26265649450717776,-0.0074525289593823435,-0.0015833696569164187,0.1250064886871799
2899,10.0,299.6905,-3162.7924,0.0,0.0289900130188665,0.0,0.0,0.0,0.0,0.17714494444534484,0.5254779967931404,0.2587869531702838,-0.025925522670399874,-0.006663632189899294,0.11611462124212088
2900,10.0,299.65621,-3219.8438,0.0,0.029000009006285854,0.0,0.0,0.0,0.0,0.19394081115046782,0.5172253685711695,0.26758593597867575,-0.0008023476138980442,0.008558971724079741,0.13668154137441788
2901,10.0,299.97889,-3290.1482,0.0,0.029010004993705207,0.0,0.0,0.0,0.0,0.1996139174003598,0.5420705244681955,0.25843844579838876,-0.012348757612477487,0.0022810337926955078,0.11897016267394088
2902,10.0,299.81307999999996,-3265.1052,0.0,0.02902000098112456,0.0,0.0,0.0,0.0,0.1985069619311118,0.5246134614103175,0.2693900277817257,0.014703462692118788,-0.015491664878658285,0.11581019024957588
2903,10.0,299.86148,-3300.6456,0.0,0.029029996968543692,0.0,0.0,0.0,0.0,0.19212017297328482,0.5270417760699735,0.2841518861036077,0.005207671437657155,-0.004635169527105616,0.11062655472549089
2904,10.0,300.76038,-3214.9076,0.0,0.029039992955962823,0.0,0.0,0.0,0.0,0.18241711776316782,0.5377463378114316,0.2570881887151288,0.015260144323558985,0.008427601923439552,0.12270825507536189
2905,10.0,300.49101,-3171.8008,0.0,0.029050021933439973,0.0,0.0,0.0,0.0,0.19598783979749382,0.5227232230837655,0.24543718045276378,0.012933359350423187,-0.0008065640920691782,0.1193283263192889
2906,10.0,300.31752,-3295.6329,0.0,0.029060017920859105,0.0,0.0,0.0,0.0,0.1982302027987978,0.5511285345321515,0.25243138244803776,-0.0098137255271143,-2.4107487532723774e-05,0.12562737795095688
2907,10.0,299.81655,-3248.3041,0.0,0.029070013908278458,0.0,0.0,0.0,0.0,0.2003093818714968,0.5331279843856356,0.2539659699894898,-0.006123918748608724,-0.005453345272803275,0.12899229034054788
2908,10.0,299.68708,-3202.8933,0.0,0.02908000989569781,0.0,0.0,0.0,0.0,0.19093539989635683,0.5181707106494675,0.26449346627597276,-0.009777966917835201,0.003188047659460807,0.1073642339085249
2909,10.0,299.306,-3215.8648,0.0,0.029090005883116943,0.0,0.0,0.0,0.0,0.16568736562706984,0.5318152479535785,0.28003998547529474,-0.016889988520162085,0.0014057323235849787,0.1191065258723989
2910,10.0,299.83937000000003,-3251.1469,0.0,0.029100001870536518,0.0,0.0,0.0,0.0,0.18341680044432881,0.5270563770039145,0.27779429901366276,-0.002830100545659177,-0.0034053094551778768,0.1026818937389139
2911,10.0,299.123,-3282.7986,0.0,0.02910999785795565,0.0,0.0,0.0,0.0,0.1933904542261518,0.5281108866479866,0.2763874519123177,0.008216320127162663,0.004446151571300996,0.11708375443276688
2912,10.0,299.88718,-3265.4168,0.0,0.029119993845375003,0.0,0.0,0.0,0.0,0.19793690742485182,0.5417424543508175,0.2529258079668337,0.03459141203840657,0.015630735481383485,0.13909653179525888
2913,10.0,299.79983,-3215.8284,0.0,0.02913002282285171,0.0,0.0,0.0,0.0,0.21316216554746778,0.5184531237173395,0.24591625523254476,0.014607992241196589,-0.006170675985073305,0.1265363747481679
2914,10.0,300.38682,-3185.0893,0.0,0.029140018810271284,0.0,0.0,0.0,0.0,0.2051121569479938,0.5265765321540575,0.23649892641812678,-0.004689739833766285,-0.010969438489849291,0.12732280881328287
2915,10.0,300.05985,-3220.0531,0.0,0.029150014797690416,0.0,0.0,0.0,0.0,0.17915417886364082,0.5303256689815685,0.26933588982888274,-0.0035126432409208967,-0.00920671414200694,0.1140178825451889
2916,10.0,299.90442,-3292.7004,0.0,0.02916001078510977,0.0,0.0,0.0,0.0,0.1930805212855638,0.5371575483108225,0.27066063327462475,-0.0036155829662802563,0.005777077767828183,0.1158819283566559
2917,10.0,300.27032,-3233.8723,0.0,0.0291700067725289,0.0,0.0,0.0,0.0,0.17559793445766683,0.5398833734648405,0.2675351316186617,-0.007753586234394383,0.007008996561309103,0.1086135915468269
2918,10.0,300.33336,-3165.7494,0.0,0.029180002759948254,0.0,0.0,0.0,0.0,0.18823407512975682,0.5201209637794425,0.2539537197957808,-0.014982836009690786,-0.008249562025843381,0.12389934070041289
2919,10.0,299.84166,-3257.7042,0.0,0.029189998747367607,0.0,0.0,0.0,0.0,0.2025213777673038,0.5250580755541975,0.26268128873712476,-4.678628431844676e-05,0.00959819182944278,0.1018728844615709
2920,10.0,299.96789,-3287.1788,0.0,0.02919999473478696,0.0,0.0,0.0,0.0,0.19981039672725082,0.5324694528806435,0.26694041460496776,0.015133913626100984,0.012590981128383088,0.12153184131175888
2921,10.0,299.83895,-3229.9158,0.0,0.029209990722206314,0.0,0.0,0.0,0.0,0.17108169637694884,0.5316777296500065,0.27905433630801874,0.014749682095430285,0.013601662639379588,0.10828112392401489
2922,10.0,299.59547000000003,-3139.1637,0.0,0.02922001969968302,0.0,0.0,0.0,0.0,0.19251290871204482,0.5154592939118715,0.24625518739099475,-0.017773757416383283,-0.016769017603973185,0.11641617460438189
2923,10.0,299.76177,-3179.8958,0.0,0.029230015687102373,0.0,0.0,0.0,0.0,0.18240189874666582,0.5263704877462225,0.25783652457648376,-0.001976329931898578,-0.009854054096994422,0.12267018726910488
2924,10.0,299.72732,-3225.3504,0.0,0.029240011674521726,0.0,0.0,0.0,0.0,0.21768474657381176,0.5318041933949875,0.2309370446317118,-0.01044596613043659,-0.007509464901051483,0.14123920111922386
2925,10.0,299.29662,-3290.0606,0.0,0.029250007661940858,0.0,0.0,0.0,0.0,0.2073326033496348,0.5357788796947586,0.25698478654242374,0.006421106218838844,0.006263941907752934,0.13275785195217987
2926,10.0,299.67949,-3197.2979,0.0,0.02926000364936021,0.0,0.0,0.0,0.0,0.19065554021873682,0.5287880315573155,0.25245515329538376,-0.01077151832131609,-0.010482015542494389,0.12812950788039787
2927,10.0,300.28008,-3122.4433,0.0,0.029269999636779787,0.0,0.0,0.0,0.0,0.15680827526577185,0.5255823311559374,0.26675418936908873,-0.009757057691421621,0.0016806935449215385,0.11505511627505588
2928,10.0,300.6685,-3233.6573,0.0,0.029279995624198918,0.0,0.0,0.0,0.0,0.18724587257222883,0.5474657367456615,0.24823948572432977,0.014643264490427684,0.010994264130549389,0.1105809382059889
2929,10.0,300.40387999999996,-3401.0314,0.0,0.02928999161161827,0.0,0.0,0.0,0.0,0.1944112226418938,0.5470830321828914,0.2923343568886547,0.00999734225193586,0.022253240862973877,0.1132986066967019
2930,10.0,300.10454,-3386.414,0.0,0.029300020589094977,0.0,0.0,0.0,0.0,0.2256370474661428,0.5363515179887736,0.26739674192000373,0.002103485118747818,-0.0004162582081089866,0.11262249530247488
2931,10.0,299.50686,-3326.2262,0.0,0.02931001657651433,0.0,0.0,0.0,0.0,0.1998127879974868,0.5467353962060825,0.26454151459571473,-0.015958594842740682,-0.006737169525181863,0.12193439544398788
2932,10.0,300.16438999999997,-3245.9175,0.0,0.029320012563933684,0.0,0.0,0.0,0.0,0.18817285455871482,0.5284805709469714,0.27002443380183677,-0.012789770665502088,-0.003345895407739167,0.13221067663317787
2933,10.0,299.88479,-3252.3809,0.0,0.029330008551352815,0.0,0.0,0.0,0.0,0.18035780852492983,0.5406082221888775,0.26767653067011676,-0.004359448469519066,0.0037711967007381365,0.13296713876033486
2934,10.0,299.38572,-3292.684,0.0,0.02934000453877217,0.0,0.0,0.0,0.0,0.19894815128965382,0.5305191997506685,0.27142635650769575,0.007181373708071403,-0.006774830714173734,0.1201954758873699
2935,10.0,299.61354,-3235.6319,0.0,0.029350000526191522,0.0,0.0,0.0,0.0,0.19283764523659383,0.5272408391846195,0.26347280931774175,0.005688625391073615,-0.0027900673381832074,0.11799557819775688
2936,10.0,299.71071,-3239.1977,0.0,0.029359996513610875,0.0,0.0,0.0,0.0,0.20667390972462682,0.5318956493490135,0.24606566909229077,0.023337669755998682,0.0050294788432709145,0.10676851377723189
2937,10.0,299.43002,-3285.1145,0.0,0.02936999250103023,0.0,0.0,0.0,0.0,0.18361933900681784,0.5345945321828725,0.28037891763374473,0.007016338267558674,0.0022697864126104777,0.1188904604210749
2938,10.0,299.87327999999997,-3362.5619,0.0,0.029380021478506935,0.0,0.0,0.0,0.0,0.19658362072379282,0.5367045748536174,0.2888466791169477,0.005201166068040125,-0.015832548556800885,0.10985294840664189
2939,10.0,299.51587,-3402.7605,0.0,0.029390017465926288,0.0,0.0,0.0,0.0,0.2026177479843148,0.5402591473969265,0.2914773296890727,-0.024132900858481875,-0.01339172735116059,0.13279024555787688
2940,10.0,299.96714,-3238.3162,0.0,0.02940001345334564,0.0,0.0,0.0,0.0,0.1962473534131058,0.5314662339566335,0.25665366654224475,-0.013804252877623687,-0.006968564234618744,0.11623154017115989
2941,10.0,299.92585,-3100.5258,0.0,0.029410009440764773,0.0,0.0,0.0,0.0,0.18887211871772683,0.5242917241060645,0.22931858024698176,-0.007719433829173803,0.004201582685388926,0.14637980391156186
2942,10.0,300.06625,-3189.3763,0.0,0.029420005428184126,0.0,0.0,0.0,0.0,0.21381437437183579,0.5068675004839275,0.24880889175052576,9.182672452909211e-06,-0.001118667728478909,0.09980872175535391
2943,10.0,300.24776,-3209.0777,0.0,0.02943000141560348,0.0,0.0,0.0,0.0,0.17326286920471382,0.5305014273439145,0.27171518344870077,0.008671580793818391,0.0006712624149459424,0.13412555720216188
2944,10.0,300.36773999999997,-3235.4373,0.0,0.029439997403022833,0.0,0.0,0.0,0.0,0.16451165100603585,0.5378062614223454,0.2811742379022367,0.021670655492727182,0.007490957482674942,0.11289364102923491
2945,10.0,299.93702,-3242.0632,0.0,0.029449993390442186,0.0,0.0,0.0,0.0,0.17631338022077583,0.5337994246969014,0.27539346369671874,0.003445893465408207,0.005679149780113444,0.13698644859450987
2946,10.0,300.41964,-3309.611,0.0,0.029460022367918892,0.0,0.0,0.0,0.0,0.21099658663874182,0.5317175807764395,0.26332493559814774,0.004553957632915625,-0.016423941096916785,0.1052073182881539
2947,10.0,299.49915,-3327.3226,0.0,0.029470018355338023,0.0,0.0,0.0,0.0,0.21985255463275777,0.5268300169315745,0.2647404054578438,-0.01791449988177348,-0.0024974138581755575,0.1229182106285829
2948,10.0,299.58492,-3327.4845,0.0,0.0294800143427576,0.0,0.0,0.0,0.0,0.21590914736357378,0.5282502389342395,0.2673128144142207,0.0016626260797384185,0.0017053434880542984,0.10105900955724771
2949,10.0,299.32563,-3313.7459,0.0,0.02949001033017673,0.0,0.0,0.0,0.0,0.17400684809063885,0.5529841602352875,0.28030501117145074,-0.007256977972232963,0.004793102185742355,0.12554471700779887
2950,10.0,299.63087,-3291.34,0.0,0.029500006317596306,0.0,0.0,0.0,0.0,0.19152623616216782,0.5264743965439774,0.2824845526665547,-0.010958803416799688,0.002065779853376598,0.11567697825892889
2951,10.0,299.4987,-3344.8925,0.0,0.029510002305015437,0.0,0.0,0.0,0.0,0.19312786033023582,0.5478514506612285,0.2757844870428097,0.010899948784741188,0.0013681174401226786,0.1324544544747369
2952,10.0,300.35061,-3366.5199,0.0,0.02951999829243457,0.0,0.0,0.0,0.0,0.21823598502571478,0.5555473688807565,0.24955464382412576,0.024851659949417876,0.017315814980687884,0.1273577456767309
2953,10.0,300.36717000000004,-3223.8226,0.0,0.029529994279854144,0.0,0.0,0.0,0.0,0.1993476758040838,0.5399139736178605,0.24069992212773275,0.01919772743116818,0.004850773746984095,0.13397893991269186
2954,10.0,300.71406,-3117.4827,0.0,0.02954002325733085,0.0,0.0,0.0,0.0,0.1962585396942098,0.5097226568807095,0.24165572094706275,-0.0008404369618521702,-0.013245936873772186,0.1166510155800589
2955,10.0,300.08915,-3196.9639,0.0,0.02955001924474998,0.0,0.0,0.0,0.0,0.16232214926244884,0.5257820832806515,0.28369296486831574,-0.017633540827794985,-0.003207302653761127,0.11075054614022789
2956,10.0,299.92447000000004,-3264.4509,0.0,0.029560015232169334,0.0,0.0,0.0,0.0,0.1878405895859228,0.5365251383934085,0.2679458424141958,-0.015169971144159584,0.003821880483990236,0.11334802290407889
2957,10.0,299.74748,-3374.9418,0.0,0.02957001121958891,0.0,0.0,0.0,0.0,0.18020117019197085,0.5664403039483055,0.27925657089547773,0.007247837949705913,0.007033246068002343,0.11537277018140589
2958,10.0,300.51353,-3285.0646,0.0,0.029580007207008263,0.0,0.0,0.0,0.0,0.2242387724606438,0.5150391700229086,0.25929967798588577,-0.01211892817179509,-0.0003061746135820817,0.11664678019464088
2959,10.0,300.62595,-3275.2003,0.0,0.029590003194427394,0.0,0.0,0.0,0.0,0.2063435901920268,0.5362210113758935,0.2530145078805877,0.012582798120575488,-0.0045014362192821655,0.11699882380938488
2960,10.0,300.17400000000004,-3247.1754,0.0,0.029599999181846526,0.0,0.0,0.0,0.0,0.20809561107243782,0.5290456706602426,0.24991894776507975,-0.0034782339767999663,0.004545503884681306,0.13125689418154687
2961,10.0,299.75208,-3248.8224,0.0,0.0296099951692661,0.0,0.0,0.0,0.0,0.15447778990327085,0.5417179336983975,0.29136515277050173,0.020124413548624983,0.015922909187468786,0.12787810026558588
2962,10.0,299.95679,-3169.0656,0.0,0.029619991156685233,0.0,0.0,0.0,0.0,0.17551688458216783,0.5327434053101805,0.2550565108071178,-0.006333253280843433,-0.00993179236719159,0.12400292525813587
2963,10.0,299.43712,-3141.2562,0.0,0.02963002013416194,0.0,0.0,0.0,0.0,0.17764024135922685,0.5151886953401655,0.26203453119829473,-0.008601213107498642,-0.0048634345096336155,0.11826444411179189
2964,10.0,299.58297999999996,-3260.8665,0.0,0.029640016121581292,0.0,0.0,0.0,0.0,0.22584189623885978,0.5295163759941974,0.23586373006293776,0.0007612875483732313,-0.00042812693342033866,0.12027635351035189
2965,10.0,299.50805,-3366.5001,0.0,0.029650012109000867,0.0,0.0,0.0,0.0,0.21804913157477382,0.5457289146167505,0.2595539328334788,0.0004513615789459196,0.001179221580955109,0.11841716116686389
2966,10.0,299.59047999999996,-3371.4695,0.0,0.02966000809642022,0.0,0.0,0.0,0.0,0.2126127509457448,0.5391902192039315,0.2730395722569077,0.002709769294258407,0.006552386853470233,0.11534841164900189
2967,10.0,299.94208,-3401.518,0.0,0.029670004083839352,0.0,0.0,0.0,0.0,0.18435801859471984,0.5472807578074055,0.3023377698259147,-0.005560579456061464,0.003960613066482077,0.1160471185204589
2968,10.0,300.51345,-3388.6479,0.0,0.029680000071258483,0.0,0.0,0.0,0.0,0.1978794257466788,0.5424763210007445,0.2897085901820117,0.005786808515163535,0.033771601514997564,0.11511883957384487
2969,10.0,299.93827999999996,-3333.6904,0.0,0.029689996058677837,0.0,0.0,0.0,0.0,0.1816106821410788,0.5491132104807545,0.28263474672887773,0.0012243959181134688,0.023189523472127778,0.12846834884633887
2970,10.0,300.15559,-3269.9934,0.0,0.029699992046097412,0.0,0.0,0.0,0.0,0.2105690660240488,0.5313848395761005,0.25204241599964977,-0.0007297002465758073,-0.0016939688437567083,0.11549366105083687
2971,10.0,300.15165,-3321.5728,0.0,0.029710021023573896,0.0,0.0,0.0,0.0,0.21496717940810878,0.5333883187338284,0.26131968325274474,-0.003305591966461527,-0.026514455039272977,0.12429310995427488
2972,10.0,299.92828,-3219.0397,0.0,0.02972001701099325,0.0,0.0,0.0,0.0,0.18217269144154483,0.5375658475711185,0.25876913010102476,-0.0005813050983478465,-0.028903990591101773,0.12480045441184588
2973,10.0,299.80711,-3137.1535,0.0,0.029730012998412603,0.0,0.0,0.0,0.0,0.14695866356119086,0.5503465790324785,0.2563110866834348,-0.003968548537290246,-0.02115284010862278,0.14375685404019686
2974,10.0,299.42098,-3340.9157,0.0,0.029740008985832178,0.0,0.0,0.0,0.0,0.18800377351452782,0.5454622170579295,0.28208896969501374,-0.0034629560904671564,-0.012519100153038988,0.1157532354614549
2975,10.0,299.24377999999996,-3405.8446,0.0,0.02975000497325131,0.0,0.0,0.0,0.0,0.2150845441671918,0.5474849581000585,0.27272221219308673,0.005971971560962704,0.004558524756416366,0.12496089243267988
2976,10.0,299.76696,-3329.6299,0.0,0.02976000096067044,0.0,0.0,0.0,0.0,0.22575196015998378,0.5253583826188355,0.2610140059625768,0.008244846967828042,0.03276852748575187,0.1036421913886879
2977,10.0,299.77585,-3356.9912,0.0,0.029769996948089794,0.0,0.0,0.0,0.0,0.20754820270591282,0.5433442913014065,0.2695490067224157,-0.004266090847705386,0.013832756616186789,0.13183129553073586
2978,10.0,300.15794,-3415.5949,0.0,0.029779992935509148,0.0,0.0,0.0,0.0,0.19020352934912682,0.5562245644525905,0.2918274683936287,-0.016428926287408784,0.005096911752001026,0.11392757156377589
2979,10.0,300.18164,-3441.8176,0.0,0.029790021912985853,0.0,0.0,0.0,0.0,0.2067251903121878,0.5378210143438015,0.3016804035585377,-0.021742257824293777,-0.012343407651949488,0.13410106694724488
2980,10.0,299.55037000000004,-3467.1946,0.0,0.02980001790040543,0.0,0.0,0.0,0.0,0.2138305863734358,0.5603923863539225,0.2797176199559797,0.008679749210824553,0.008224715512191222,0.11152889446954489
2981,10.0,300.40365,-3189.8835,0.0,0.02981001388782456,0.0,0.0,0.0,0.0,0.1984235714478818,0.5218268615153016,0.24939449964582078,-0.015310192798998385,-0.0004266161977862405,0.12135955839725589
2982,10.0,300.38205,-3082.7486,0.0,0.029820009875243914,0.0,0.0,0.0,0.0,0.18763493021312583,0.5157444224900115,0.23369925559682078,0.011532232045892689,0.0011788769745960988,0.10608527923480189
2983,10.0,299.89917,-3331.7948,0.0,0.029830005862663267,0.0,0.0,0.0,0.0,0.2053844577798678,0.5446936465920775,0.26270431991189774,0.01069177249869579,-0.005654321910263125,0.12330094558885589
2984,10.0,299.83932999999996,-3541.3225,0.0,0.029840001850082398,0.0,0.0,0.0,0.0,0.2044258015952558,0.5644445356238385,0.30760328609058074,0.02317559533625318,0.012316869618580388,0.1269430325433019
2985,10.0,300.14501,-3324.4412,0.0,0.02984999783750175,0.0,0.0,0.0,0.0,0.16793045816844582,0.5606222016091035,0.28199443346068376,0.02200801508702198,-0.0034615728014306367,0.13733043687095886
2986,10.0,299.7593,-3183.3034,0.0,0.029859993824921105,0.0,0.0,0.0,0.0,0.17324033452248983,0.5329758246181184,0.26142859750599373,-0.013753646101379188,-0.006975014179455304,0.12920105025865086
2987,10.0,299.96682000000004,-3351.7556,0.0,0.029870022802398033,0.0,0.0,0.0,0.0,0.2053749028314248,0.5351179467870295,0.27835716957671375,-0.013636096930777986,-0.005586549360099495,0.11655265939285189
2988,10.0,299.27747999999997,-3482.2799,0.0,0.029880018789817386,0.0,0.0,0.0,0.0,0.24496351642851677,0.5503434075596655,0.2632192029502127,-0.02188152803728868,0.007804283696522833,0.1167307786279309
2989,10.0,299.14448,-3318.7402,0.0,0.029890014777236518,0.0,0.0,0.0,0.0,0.1910138761166018,0.5386559222937005,0.27914435344690275,0.0067257694483067645,0.00962373535783873,0.12257675547738388
2990,10.0,299.46438,-3119.5491,0.0,0.02990001076465587,0.0,0.0,0.0,0.0,0.17141579533242182,0.5298247687946335,0.24702445699941578,-0.015191110580995886,0.006702736854983624,0.13502376288580786
2991,10.0,299.48351,-3207.3743,0.0,0.029910006752075224,0.0,0.0,0.0,0.0,0.16158987341517886,0.5491940881037365,0.2641777375448127,0.01086994442277999,-0.006473267422061754,0.13235474053239588
2992,10.0,299.72700000000003,-3417.9722,0.0,0.029920002739494356,0.0,0.0,0.0,0.0,0.22874979230334677,0.5479507694360305,0.26227765042728873,0.01039760572966379,0.012438891275122987,0.12130155996153189
2993,10.0,299.91902999999996,-3502.237,0.0,0.02992999872691393,0.0,0.0,0.0,0.0,0.21810212455500377,0.5597511814256404,0.28673930129396574,0.02028394471061948,0.00031360310470271674,0.1137534546665919
2994,10.0,300.13195,-3258.3438,0.0,0.029939994714333062,0.0,0.0,0.0,0.0,0.2112564447593878,0.5254098253264126,0.2537888640045108,-0.002909576843752877,-0.010959146908583592,0.0980650966652715
2995,10.0,299.81905,-3148.2699,0.0,0.029949990701752416,0.0,0.0,0.0,0.0,0.14935526349271686,0.5336534862849984,0.27398669765538175,-0.015361212981283684,-0.03111585071139537,0.1189595640778949
2996,10.0,300.51725,-3285.7299,0.0,0.029960019679229344,0.0,0.0,0.0,0.0,0.18723875955652683,0.5412568339753905,0.27028426152497975,-0.009694351594408011,-0.007293284648491154,0.1341834847103789
2997,10.0,300.2966,-3509.2757,0.0,0.029970015666648475,0.0,0.0,0.0,0.0,0.2110531563918248,0.5454729777739915,0.31020605201995366,0.00955521067212587,-0.006819845667091363,0.1219526846082929
2998,10.0,299.99661000000003,-3353.1755,0.0,0.02998001165406783,0.0,0.0,0.0,0.0,0.2230148676648538,0.5387544507334244,0.2575123250744878,0.0014011293310306986,-0.0008634300992164161,0.1353231782903579
2999,10.0,299.35817000000003,-3192.2448,0.0,0.029990007641487182,0.0,0.0,0.0,0.0,0.19038409051694682,0.5305717570333556,0.24940686129704076,0.004521236747436326,6.792471499739742e-05,0.11131302153573988
3000,10.0,299.46661,-3287.4457,0.0,0.030000003628906535,0.0,0.0,0.0,0.0,0.2069470819515868,0.5398508380041296,0.25250348532515376,0.0013761242437378889,0.024222513710575978,0.12795372925304987
3001,10.0,299.68858,-3528.9286,0.0,0.03000999961632589,0.0,0.0,0.0,0.0,0.2014145742855708,0.5695301290682475,0.3017614635665377,0.013864798624099088,0.029340882755969674,0.11929567940106689
3002,10.0,300.30331,-3563.2285,0.0,0.03001999560374502,0.0,0.0,0.0,0.0,0.2086096227156668,0.5771274580530454,0.2973954195481427,-0.016569863296818182,-0.002991808168868477,0.12887878606434588
3003,10.0,299.29174,-3334.1182,0.0,0.030029991591164373,0.0,0.0,0.0,0.0,0.18483672860446482,0.5595900746597405,0.2690618664718387,-0.004836189531669746,-0.01793813698010628,0.12217388723762389
3004,10.0,299.42669,-3076.2655,0.0,0.0300400205686413,0.0,0.0,0.0,0.0,0.18515039030542083,0.5315143025413775,0.2184431946711648,-0.00994899299691416,-0.007969895271042422,0.13406536001372088
3005,10.0,300.44076,-3211.0266,0.0,0.030050016556060433,0.0,0.0,0.0,0.0,0.20121229916810782,0.5220740540096975,0.25278555388799173,0.012768142842117589,0.00018571049469569883,0.11956291398244087
3006,10.0,300.51569,-3474.3016,0.0,0.030060012543479786,0.0,0.0,0.0,0.0,0.2207130066176778,0.5543625248763214,0.28102540159504774,0.01671247115564248,-0.005742790195044265,0.1189669202736209
3007,10.0,300.4626,-3386.2213,0.0,0.030070008530898917,0.0,0.0,0.0,0.0,0.18750408922771283,0.5403075908842074,0.30151504114221767,-0.0036290774311120567,-0.013977822619753687,0.12102781018201487
3008,10.0,300.344,-3215.756,0.0,0.030080004518318493,0.0,0.0,0.0,0.0,0.18136209136154482,0.5412904941437124,0.25485695119992274,0.015792617383609982,0.001089421176267499,0.11730131949423889
3009,10.0,300.06719,-3281.6466,0.0,0.030090000505737846,0.0,0.0,0.0,0.0,0.1955946379636878,0.5402756633735565,0.26166831221465175,-0.003125694781432057,-0.0007050660189520983,0.13171782165203688
3010,10.0,300.27656,-3494.9174,0.0,0.030099996493156977,0.0,0.0,0.0,0.0,0.24003836100494177,0.5472846182902865,0.27504463208479174,0.006812571037998413,-0.0014062987303908787,0.1097309328295999
3011,10.0,299.90359,-3431.1866,0.0,0.03010999248057633,0.0,0.0,0.0,0.0,0.21810582291786879,0.5588455080887574,0.26604372879647176,-0.022813342213501578,-0.02241748059818308,0.12181321073202789
3012,10.0,300.36881,-3189.8427,0.0,0.03012002145805326,0.0,0.0,0.0,0.0,0.1898373914254918,0.5330864309990345,0.24670871813575476,-0.008196524867909023,0.0048031962845635654,0.11782344727076889
3013,10.0,299.86367,-3108.242,0.0,0.03013001744547239,0.0,0.0,0.0,0.0,0.16081619616882284,0.5247136921102095,0.25929805678572576,-0.02404712214476618,0.002150230601511238,0.12783327408116188
3014,10.0,300.13095,-3216.7631,0.0,0.030140013432891744,0.0,0.0,0.0,0.0,0.17934603777007582,0.5417148027555885,0.25675482943222877,0.0007770837931921992,0.007535331858879353,0.12468246143770087
3015,10.0,300.06297,-3456.9175,0.0,0.030150009420310875,0.0,0.0,0.0,0.0,0.2079210584777108,0.5548145965409375,0.2880809558838767,-0.007646515792352353,0.013167317785263088,0.12480286594708388
3016,10.0,300.10875,-3527.8646,0.0,0.030160005407730228,0.0,0.0,0.0,0.0,0.23778054593961276,0.5545560151154175,0.28004617643340574,0.02207500611738348,0.015654016928931185,0.1186385157837099
3017,10.0,299.77311000000003,-3343.9252,0.0,0.030170001395149804,0.0,0.0,0.0,0.0,0.20348701524510482,0.5449296528053694,0.26805308480477974,0.013834869242645289,0.008984291964855581,0.11869732481951388
3018,10.0,300.35393999999997,-3378.7249,0.0,0.030179997382568935,0.0,0.0,0.0,0.0,0.2036518001088678,0.5400177608256035,0.28337844190477474,9.999161745140431e-05,-0.0036084510028013867,0.12023638079390687
3019,10.0,299.87486,-3537.2439,0.0,0.03018999336998829,0.0,0.0,0.0,0.0,0.2015572601646528,0.5651662432725655,0.3085103374475997,-0.008313442682372912,-0.01125116153440319,0.11982554840836089
3020,10.0,300.24172999999996,-3496.1709,0.0,0.030200022347464994,0.0,0.0,0.0,0.0,0.21038621491100282,0.5620164742767074,0.2903459852899177,-0.0029865389643734474,-0.007079661737858214,0.11961844008792087
3021,10.0,299.96553,-3211.3755,0.0,0.030210018334884348,0.0,0.0,0.0,0.0,0.17592023918197583,0.5263929211034365,0.27386481380085276,0.008641412184015982,0.0008344719990434743,0.1256780303234559
3022,10.0,300.14194,-3086.8892,0.0,0.0302200143223037,0.0,0.0,0.0,0.0,0.18552812994270082,0.5235710803699425,0.2292380268640318,0.0067689979399730826,0.006839146561621212,0.12117475171151687
3023,10.0,300.0075,-3262.2164,0.0,0.030230010309723054,0.0,0.0,0.0,0.0,0.18968263773771882,0.5347793490011125,0.2671703413176597,-0.0008349799919811091,0.00010141532098141292,0.11914479632867589
3024,10.0,300.66438999999997,-3500.1493,0.0,0.030240006297142186,0.0,0.0,0.0,0.0,0.20898122205734082,0.5792370650262474,0.27573970138838977,0.003107133863450237,-0.005717559760929214,0.13227070156910187
3025,10.0,300.40886,-3491.917,0.0,0.03025000228456176,0.0,0.0,0.0,0.0,0.19692248195473583,0.5698111235859795,0.29472196929179373,0.0023068114831895675,0.007769632468278023,0.12738963265737788
3026,10.0,301.18129,-3280.68,0.0,0.030259998271980892,0.0,0.0,0.0,0.0,0.19941129777786282,0.5339579172775435,0.26387557623249175,-0.009013844721247211,-0.0015811756664748887,0.1217644430047149
3027,10.0,300.25051,-3260.6571,0.0,0.030269994259400246,0.0,0.0,0.0,0.0,0.1837552259777288,0.5380496947588704,0.26935340892311177,-0.007680760808632073,0.002373603612556438,0.11901019618539188
3028,10.0,300.31383,-3461.2904,0.0,0.030280023236876952,0.0,0.0,0.0,0.0,0.23979943663136177,0.5347462359878444,0.27760017042700375,-0.015999282913756286,0.006274404626960524,0.11434305476728089
3029,10.0,300.10427999999996,-3574.7071,0.0,0.030290019224296305,0.0,0.0,0.0,0.0,0.22342410924774278,0.5621058226705254,0.3010917761779447,0.005620759824550806,0.010223117982943189,0.10965948856504888
3030,10.0,300.01329,-3249.7498,0.0,0.03030001521171566,0.0,0.0,0.0,0.0,0.1918965486762148,0.5339258580443795,0.26202037609439777,-0.00923916317248441,-0.0015699351764905385,0.13112779598630586
3031,10.0,300.03975,-3134.1946,0.0,0.030310011199135012,0.0,0.0,0.0,0.0,0.15692703830999286,0.5302870033577525,0.26550284576059074,-0.002940948384074007,0.01126035576581059,0.12752834659606788
3032,10.0,300.30011,-3352.1494,0.0,0.030320007186554143,0.0,0.0,0.0,0.0,0.2101465711298518,0.5519542624361444,0.25686889099598575,0.006875336004842833,0.0035449611568354267,0.13588127644543785
3033,10.0,299.62849,-3605.6628,0.0,0.030330003173973497,0.0,0.0,0.0,0.0,0.2290070159737328,0.5781674174256815,0.2888570142679677,0.0058351498668344545,0.018924960504248182,0.11818691021413989
3034,10.0,299.90977000000004,-3438.7343,0.0,0.03033999916139285,0.0,0.0,0.0,0.0,0.23273130790879176,0.5556993867932595,0.25685866730247675,0.0057186429252861146,-0.005447905133016375,0.12133613205494388
3035,10.0,299.9215,-3332.2506,0.0,0.030349995148812203,0.0,0.0,0.0,0.0,0.18707459277532482,0.5508011128948375,0.2750452805648557,0.0024356450175044477,-0.017895813523429283,0.10850837565644289
3036,10.0,300.65206,-3317.2592,0.0,0.030359991136231557,0.0,0.0,0.0,0.0,0.1855458415544488,0.5461893455946915,0.27662878782113576,-0.013471772082560387,-0.014004174215104385,0.12978736742901587
3037,10.0,300.53448,-3393.8148,0.0,0.030370020113708263,0.0,0.0,0.0,0.0,0.19073260802134281,0.5475352862325255,0.2933670512580737,-0.005698373667635694,-0.008142346182412002,0.12092247270161889
3038,10.0,300.95765,-3518.0747,0.0,0.030380016101127616,0.0,0.0,0.0,0.0,0.23417429764120376,0.5577914645397315,0.27744111042630576,0.005415680841411085,0.014543417812323588,0.11744041846796689
3039,10.0,299.95677,-3389.285,0.0,0.03039001208854697,0.0,0.0,0.0,0.0,0.21673436864251677,0.5435389873081216,0.26998465360291074,0.004913863663135586,0.029621372675151872,0.12437675375002988
3040,10.0,299.99695,-3227.2255,0.0,0.0304000080759661,0.0,0.0,0.0,0.0,0.2006392555740528,0.5385345957267265,0.2418221168784848,0.016571147084694884,0.026861682676291677,0.12684669272379387
3041,10.0,299.53701,-3395.9649,0.0,0.030410004063385454,0.0,0.0,0.0,0.0,0.1864657713202388,0.5593226272958455,0.2865001337403617,-0.015712754023978086,0.017269692849385985,0.13259673505377886
3042,10.0,300.56512999999995,-3565.9907,0.0,0.030420000050804807,0.0,0.0,0.0,0.0,0.2059827009039098,0.5773295001229855,0.3006599289853247,-0.0024952409433361073,-0.015164263506346285,0.12176304471957687
3043,10.0,299.72168999999997,-3468.7372,0.0,0.03042999603822416,0.0,0.0,0.0,0.0,0.18661635041759983,0.5796228498693214,0.28817028401269273,-0.013901710311991985,-0.026774265537164273,0.13992077022160487
3044,10.0,299.83339,-3311.3547,0.0,0.030439992025643514,0.0,0.0,0.0,0.0,0.1984207647451048,0.5423002181333645,0.26584815126216976,0.006180608267853545,-0.016764990948075785,0.1111266037823419
3045,10.0,299.88274,-3269.0288,0.0,0.030450021003119998,0.0,0.0,0.0,0.0,0.1918975315288118,0.5515156568653574,0.2502899594216958,-0.006393137273678524,0.0006375631250375814,0.12264295110641688
3046,10.0,299.92586,-3349.6706,0.0,0.030460016990539573,0.0,0.0,0.0,0.0,0.21913535594697578,0.5328224793479844,0.26625838583015676,0.005536413339851454,-0.006265676591924134,0.0959962567965929
3047,10.0,300.07442000000003,-3414.8376,0.0,0.030470012977958927,0.0,0.0,0.0,0.0,0.1964917999997308,0.5498929266977065,0.29164063520768974,-0.0053450606531664155,0.002233772464306178,0.12170238143608987
3048,10.0,300.81086,-3379.3057,0.0,0.030480008965378058,0.0,0.0,0.0,0.0,0.19865659870587982,0.5471588435553735,0.28140911940791774,0.01163929002495849,0.01143858037889999,0.1109525476801639
3049,10.0,299.77207000000004,-3297.7836,0.0,0.03049000495279741,0.0,0.0,0.0,0.0,0.1969180236542958,0.5454457112138005,0.26008014400791174,-0.011607278414549189,0.008124472754623033,0.13517003567024388
3050,10.0,299.80949,-3352.7831,0.0,0.030500000940216543,0.0,0.0,0.0,0.0,0.2004273951106438,0.5521624853316944,0.2665724528311527,0.014274731243556287,0.006750431347790704,0.1187872305008869
3051,10.0,299.98796,-3511.7716,0.0,0.030509996927636118,0.0,0.0,0.0,0.0,0.24137596259445276,0.5609352249624965,0.2651797000386988,-0.022063873538534777,-0.0025681866418852876,0.13080339383428985
3052,10.0,300.34945,-3489.0569,0.0,0.03051999291505547,0.0,0.0,0.0,0.0,0.2210391515598658,0.5514437059757565,0.2881033081810827,0.0016648094310538983,0.012019045016687387,0.12283358398023089
3053,10.0,301.10147,-3186.3699,0.0,0.030530021892532178,0.0,0.0,0.0,0.0,0.17981914450676784,0.5427888478615885,0.2459688834427388,-0.007674238517738373,0.01203901414965819,0.13190791750329786
3054,10.0,300.95131000000003,-3213.2298,0.0,0.03054001787995153,0.0,0.0,0.0,0.0,0.16308842978307483,0.5441419623101305,0.26951122262618676,0.0071584040375794735,0.007003068136299013,0.11609994938067288
3055,10.0,299.92411,-3464.137,0.0,0.030550013867370884,0.0,0.0,0.0,0.0,0.21264452646888082,0.5542602271462255,0.2861063948840027,0.002494126874851158,-0.010877890330064189,0.11121000439807288
3056,10.0,300.17208,-3497.9836,0.0,0.030560009854790016,0.0,0.0,0.0,0.0,0.21277511414176878,0.5623499044871145,0.28817464098812273,0.019159870380931983,-0.01131127158333559,0.12854120152852888
3057,10.0,300.76346,-3387.0717,0.0,0.03057000584220937,0.0,0.0,0.0,0.0,0.22272273752852279,0.5405228660004535,0.26633960795817274,0.020748419569709582,0.006618147291585284,0.11760230543644389
3058,10.0,300.68068,-3325.1588,0.0,0.0305800018296285,0.0,0.0,0.0,0.0,0.19023153558189082,0.5579904567268705,0.2625432435435008,0.002841989617032537,-0.014295406611846785,0.13611421251092687
3059,10.0,299.91256,-3361.7264,0.0,0.030589997817048076,0.0,0.0,0.0,0.0,0.19405433569167183,0.5504276795704826,0.2773988781621377,-0.013121762060767088,-0.008082081511514343,0.12632750337255388
3060,10.0,299.64029,-3484.7719,0.0,0.03059999380446743,0.0,0.0,0.0,0.0,0.2011857114854838,0.5687445157357134,0.2893534054919577,-0.013903924263460486,-0.010915387676514888,0.13498819780729787
3061,10.0,300.11901,-3414.3872,0.0,0.030610022781944135,0.0,0.0,0.0,0.0,0.2033700963160658,0.5599755859252875,0.27454277944276273,0.004289721258587526,0.012537046838810188,0.13501323521726885
3062,10.0,299.8499,-3204.8105,0.0,0.03062001876936349,0.0,0.0,0.0,0.0,0.19497366763990281,0.5229381435624765,0.25627054654693376,-0.0031463054030411667,0.0004029300885461036,0.12787050088983587
3063,10.0,299.8786,-3242.7708,0.0,0.030630014756782842,0.0,0.0,0.0,0.0,0.1971523985349268,0.5403757015559295,0.24819324098976575,0.017636824771369086,0.0024176476692282477,0.1298694812171199
3064,10.0,299.43351,-3469.1713,0.0,0.030640010744201973,0.0,0.0,0.0,0.0,0.22461824475559478,0.5464511390230284,0.2834720763465157,0.0006025471875517774,0.007299529916807513,0.11711232808558689
3065,10.0,299.25552000000005,-3550.3790000000004,0.0,0.030650006731621326,0.0,0.0,0.0,0.0,0.21090075344428377,0.5634841163840525,0.3048417033405337,0.005268460870781605,0.009845513513226531,0.11538928615803588
3066,10.0,299.55544,-3388.4518,0.0,0.03066000271904068,0.0,0.0,0.0,0.0,0.19114602419464383,0.5527855733481885,0.28607312988321976,-0.008707177992356561,-0.009222460352535971,0.10281412287696391
3067,10.0,300.56662,-3395.9912,0.0,0.030669998706460033,0.0,0.0,0.0,0.0,0.19643996212461481,0.5475581451547814,0.28829842975283976,-0.015429425991265785,-0.0051237515312499045,0.1251897856302699
3068,10.0,300.20985,-3538.0717,0.0,0.030679994693879387,0.0,0.0,0.0,0.0,0.2337216484240308,0.5540539395583665,0.2877098631672527,0.00047979079296416456,-0.0005888004234450775,0.1106646934592549
3069,10.0,300.42433,-3539.3818,0.0,0.030689990681298518,0.0,0.0,0.0,0.0,0.2352004565474778,0.5607446326186865,0.2799385996702887,0.02028457799193198,0.00047490348243182446,0.1269533170318169
3070,10.0,299.59002999999996,-3350.2035,0.0,0.030700019658775446,0.0,0.0,0.0,0.0,0.2073366462175338,0.5379142536180035,0.27312730958306675,0.01199140760695979,-0.003301260524934047,0.13296100859722987
3071,10.0,299.91254,-3119.1629,0.0,0.030710015646194577,0.0,0.0,0.0,0.0,0.16669943022445285,0.5336247302471605,0.24782346549827178,0.02195713372000038,-0.005455459317811916,0.13480854856456786
3072,10.0,299.80806,-3138.1437,0.0,0.03072001163361393,0.0,0.0,0.0,0.0,0.16758401782675483,0.5403965238454844,0.24593680394457276,-0.0010743592135309989,-0.0005500587856065754,0.13770869326578986
3073,10.0,299.80748,-3413.8431,0.0,0.030730007621033284,0.0,0.0,0.0,0.0,0.20601613815720982,0.5564494451797845,0.27525747540079776,-0.005085588175508474,0.013938816543904088,0.12657794839977088
3074,10.0,299.52655,-3556.6277,0.0,0.030740003608452637,0.0,0.0,0.0,0.0,0.2193259381582848,0.5744760966488764,0.28732397699916873,-0.008760445259388632,0.006988845245970323,0.13159332361224987
3075,10.0,299.74646,-3411.7417,0.0,0.03074999959587199,0.0,0.0,0.0,0.0,0.2078239992506318,0.5594220676606595,0.2698382186984587,-0.014145043336757089,0.0014275563121888388,0.1187953871641919
3076,10.0,299.88159,-3414.0304,0.0,0.030759995583291122,0.0,0.0,0.0,0.0,0.18056252557513383,0.5730516189957915,0.28416585882248674,-0.007827011200240864,0.0020087307316712885,0.12970639861352487
3077,10.0,300.15011,-3556.9636,0.0,0.030769991570710475,0.0,0.0,0.0,0.0,0.22045357406207378,0.5684347246501394,0.29233983857169576,-0.004841147871034095,-0.0065994025700353235,0.11861964906684788
3078,10.0,299.63004,-3576.2829,0.0,0.030780020548187403,0.0,0.0,0.0,0.0,0.21252059584914978,0.5643316595626985,0.31024843627163673,0.006994013429430383,-0.004296811678812296,0.11833045735580688
3079,10.0,299.54168,-3344.5631,0.0,0.030790016535606535,0.0,0.0,0.0,0.0,0.20850721352805981,0.5423212228079375,0.26583523232339473,5.0158884236546454e-05,0.007149237366574793,0.1197174954176969
3080,10.0,299.71122,-3203.8791,0.0,0.030800012523025888,0.0,0.0,0.0,0.0,0.18696698561470482,0.5343869172373825,0.25254534268678475,0.015668316927592487,0.015800116447600085,0.12702643315903286
3081,10.0,300.00068999999996,-3361.6873,0.0,0.030810008510445464,0.0,0.0,0.0,0.0,0.22243408284003477,0.5454515475343765,0.25398337762620776,1.7970921700341883e-05,-0.00047477151673880054,0.1302083221830609
3082,10.0,300.29227000000003,-3555.0856,0.0,0.030820004497864595,0.0,0.0,0.0,0.0,0.2255756343775818,0.5680344503306355,0.28704717733685076,-0.015107604587254485,0.004032899037891146,0.11987632237087188
3083,10.0,300.74447000000004,-3568.8892,0.0,0.030830000485283948,0.0,0.0,0.0,0.0,0.2268202702704178,0.5711646129370584,0.28686830829669774,-0.026221270109587875,-0.013328683943188688,0.12271566193359289
3084,10.0,300.6713,-3449.8647,0.0,0.03083999647270308,0.0,0.0,0.0,0.0,0.1937080676024978,0.5634714102277986,0.29149324784814373,0.008377708475265451,0.00046491492374103053,0.1155307865345009
3085,10.0,300.48585,-3414.3537,0.0,0.030849992460122433,0.0,0.0,0.0,0.0,0.2146666291634468,0.5581554949031584,0.26505614432150476,-0.008334988229849294,-0.001085812891336389,0.11860579793798089
3086,10.0,299.74555,-3588.336,0.0,0.03086002143759936,0.0,0.0,0.0,0.0,0.22317381620804078,0.5720565162050825,0.2955342007044547,0.019114365318940982,-0.0069809634774174525,0.1154320351797549
3087,10.0,299.52659,-3541.2564,0.0,0.030870017425018714,0.0,0.0,0.0,0.0,0.2276812694103918,0.5540122037867474,0.2947600269655497,0.013627728498202088,0.0076098153671053026,0.1150024779323609
3088,10.0,300.03436,-3258.3161,0.0,0.030880013412437846,0.0,0.0,0.0,0.0,0.16917850871411885,0.5498403998125225,0.27142783585284175,0.02175636530543608,0.020901737482090878,0.13190487775299786
3089,10.0,299.86588,-3126.2902,0.0,0.0308900093998572,0.0,0.0,0.0,0.0,0.16953840501713785,0.5347002243008034,0.24607552801576377,0.014748668845330286,0.012222961599312387,0.1392395115168699
3090,10.0,299.45579,-3308.5847,0.0,0.030900005387276552,0.0,0.0,0.0,0.0,0.18928720675369282,0.5534142139752305,0.26302572284361775,-0.023834001198232774,-0.002070937803010648,0.13809290757120884
3091,10.0,299.7653,-3433.6211,0.0,0.030910001374695906,0.0,0.0,0.0,0.0,0.22866022099450678,0.5580156663893585,0.25705917936476574,-0.012228992463907589,-0.01159955339578679,0.1313787071085689
3092,10.0,299.89486,-3386.1806,0.0,0.030919997362115037,0.0,0.0,0.0,0.0,0.1933237519720688,0.5601750442074724,0.2758155532908757,-0.0004507174457248486,-0.005811792628179275,0.14357386107213688
3093,10.0,300.24517000000003,-3367.2882,0.0,0.03092999334953439,0.0,0.0,0.0,0.0,0.1962838506817078,0.5560733470076665,0.27121433392427075,0.014780258943697985,-0.004531847401158516,0.13356990097982285
3094,10.0,300.39889,-3510.655,0.0,0.03094002232701132,0.0,0.0,0.0,0.0,0.2046663269039938,0.5662133257934044,0.2962717961147497,0.007842231027342942,-0.018776356231332083,0.12851329662077488
3095,10.0,300.10836,-3618.812,0.0,0.03095001831443045,0.0,0.0,0.0,0.0,0.22697118374031178,0.5648600796223494,0.3081972431666997,0.0023957983493718875,-0.012278082404752387,0.11279304555930689
3096,10.0,300.05281,-3567.4297,0.0,0.030960014301849803,0.0,0.0,0.0,0.0,0.22522113869759577,0.5673928299698126,0.29179558141298173,-0.005758439842838765,0.009589835859843111,0.1062789721239179
3097,10.0,299.86917,-3391.8063,0.0,0.030970010289269156,0.0,0.0,0.0,0.0,0.2188956007083138,0.5432455804766645,0.26888323047920876,0.002714836760658528,0.008080976460955283,0.1108934954643359
3098,10.0,299.64743,-3261.8594,0.0,0.03098000627668851,0.0,0.0,0.0,0.0,0.1902755612987358,0.5388366354490355,0.2624116020905088,-0.018414613786630882,0.002443588391663398,0.12287880533219388
3099,10.0,299.87147000000004,-3330.8025,0.0,0.030990002264107863,0.0,0.0,0.0,0.0,0.19193164765967882,0.5440994666009366,0.27644966546845773,-0.006023282748676724,-0.0010701827992688191,0.12039617033467688
3100,10.0,300.10607999999996,-3411.5301,0.0,0.030999998251526995,0.0,0.0,0.0,0.0,0.1992532206297618,0.5546398514286914,0.2831269025674497,-0.016624339675194586,0.006132403299646084,0.13016377970866488
3101,10.0,300.00593,-3408.1583,0.0,0.031009994238946348,0.0,0.0,0.0,0.0,0.1972526191023178,0.5649752253637135,0.2737671668887157,0.00993239018475059,-0.004284732420395166,0.13205479823779387
3102,10.0,300.01138,-3423.2814,0.0,0.031020023216423276,0.0,0.0,0.0,0.0,0.2201513215572438,0.5595871261019494,0.2608536287367488,0.013837808681185386,-0.007631538030699163,0.13319944661076186
3103,10.0,300.13847999999996,-3557.3349,0.0,0.031030019203842407,0.0,0.0,0.0,0.0,0.23435414953395375,0.5694790815282095,0.27750775188538274,0.017012826856285284,0.0007940110784352923,0.11946055545733889
3104,10.0,300.03802,-3581.7014,0.0,0.03104001519126176,0.0,0.0,0.0,0.0,0.21417051151698382,0.5799047664446445,0.29467250242191173,0.004818689790517655,0.0006726256922929873,0.12712336066359886
3105,10.0,299.41576000000003,-3499.552,0.0,0.031050011178681114,0.0,0.0,0.0,0.0,0.19456671600223982,0.5786196917403175,0.29059003670900374,0.006756605587275054,-0.0005972064172021844,0.11609145834483489
3106,10.0,299.71599,-3444.3792,0.0,0.031060007166100467,0.0,0.0,0.0,0.0,0.1847708774804658,0.5692772522407904,0.2929571409301187,-0.0005353309319580496,-0.00985310893730114,0.12519669599595187
3107,10.0,299.3144,-3437.6352,0.0,0.03107000315351982,0.0,0.0,0.0,0.0,0.21567464076042975,0.5595228961781105,0.26975771597801373,0.01121254555984209,-0.014640331131388186,0.12768337386136788
3108,10.0,299.27909,-3362.8646,0.0,0.031079999140938952,0.0,0.0,0.0,0.0,0.20801744895972382,0.5514896467352904,0.2627197719759227,-0.00870281665995113,0.005749547053336114,0.13725474708848887
3109,10.0,299.86402000000004,-3483.8309,0.0,0.031089995128358305,0.0,0.0,0.0,0.0,0.2199887658437008,0.5713401889143864,0.2676686577168398,0.0038855903065529063,0.0038454007545865067,0.13439088687334788
3110,10.0,300.1427,-3484.0962,0.0,0.03109999111577766,0.0,0.0,0.0,0.0,0.1954832817776978,0.5745537622690414,0.2890411826061437,0.015939831477388883,0.0032498430472845366,0.15074582766495487
3111,10.0,300.09803,-3346.7804,0.0,0.031110020093254587,0.0,0.0,0.0,0.0,0.18796433782063582,0.5531846925625784,0.2761886218451947,0.008337090217181741,0.002737898434259537,0.13131884429266089
3112,10.0,300.3735,-3368.3295,0.0,0.031120016080673718,0.0,0.0,0.0,0.0,0.18302138972530482,0.5557674873324805,0.28509919388709976,0.013267339755634487,0.004561184943228905,0.12935362545870888
3113,10.0,299.50281,-3597.9375,0.0,0.03113001206809307,0.0,0.0,0.0,0.0,0.23314740919485777,0.5695923020943835,0.29094343807888173,-0.024157396179649376,0.002668308316066528,0.1052531982526819
3114,10.0,300.10449,-3581.1053,0.0,0.031140008055512203,0.0,0.0,0.0,0.0,0.2214055427960258,0.5721330064551315,0.2950280316169997,-0.011506340466087388,0.0026780764523305677,0.11340863552506089
3115,10.0,299.85286,-3472.9533,0.0,0.031150004042931778,0.0,0.0,0.0,0.0,0.22150336196067977,0.5555740680208915,0.27861367383952873,-0.006516813061009374,-0.015700888865307086,0.11264601283729588
3116,10.0,299.2286,-3491.6992,0.0,0.03116000003035091,0.0,0.0,0.0,0.0,0.20054329065708182,0.5623118569458594,0.2985342214680337,-0.0016016099825665985,0.004051048880307396,0.12004355929987688
3117,10.0,299.51136,-3495.4871,0.0,0.031169996017770263,0.0,0.0,0.0,0.0,0.2105440792765828,0.5704938008408544,0.28150291596967475,0.0005224644694057286,-0.016431483730661185,0.12582249952271388
3118,10.0,300.41319,-3481.1279,0.0,0.031179992005189616,0.0,0.0,0.0,0.0,0.19391589533050882,0.5738572946803054,0.2904027678255217,0.01109615453410519,-0.008281647704834992,0.12904917420116188
3119,10.0,299.99682,-3470.8552,0.0,0.031190020982666322,0.0,0.0,0.0,0.0,0.22666520247511376,0.5674228829677784,0.26096522810276274,-0.0004164267116006166,-0.011732666087923989,0.13281277010759987
3120,10.0,300.24138,-3282.9361,0.0,0.031200016970085676,0.0,0.0,0.0,0.0,0.19000647246967883,0.5410622494261865,0.26686186745721574,0.019292998271820683,-0.0017843292717745884,0.13567747132032387
3121,10.0,299.83369,-3216.0447,0.0,0.03121001295750503,0.0,0.0,0.0,0.0,0.18687527634815382,0.5391397593489515,0.25158223833423377,-0.0017838966139818884,0.008705333775849552,0.15106912537436187
3122,10.0,299.9718,-3438.8251,0.0,0.03122000894492416,0.0,0.0,0.0,0.0,0.18330558611335282,0.5712285287533665,0.2907828379380317,-0.009746197372874792,0.008007615127215083,0.13271045211250188
3123,10.0,300.17366,-3554.2407,0.0,0.031230004932343736,0.0,0.0,0.0,0.0,0.2066855418357748,0.5787110970318384,0.29500377440960573,-0.012596455718673386,-0.000977781310647002,0.1322967420966719
3124,10.0,299.77229,-3514.5018,0.0,0.03124000091976309,0.0,0.0,0.0,0.0,0.2068424942762648,0.5721111303854725,0.28936717556081676,-0.0013228458309547187,0.004483540702641016,0.1070972425071749
3125,10.0,299.47005,-3493.0632,0.0,0.03124999690718222,0.0,0.0,0.0,0.0,0.2200699778392158,0.5727116533222395,0.26902235985043976,0.028530013151443077,-0.004497003452744686,0.11717259620153488
3126,10.0,299.48323999999997,-3544.6189,0.0,0.031259992894601574,0.0,0.0,0.0,0.0,0.2171023202838308,0.5790146160992935,0.28135871021544273,-0.0005522453286598704,-0.011945113223140888,0.10864164844209588
3127,10.0,299.49705,-3641.0082,0.0,0.03127002187207828,0.0,0.0,0.0,0.0,0.22904190217467577,0.5794484188646064,0.2982852456534617,0.0036611103197734573,9.6656653695019e-05,0.13406898744907886
3128,10.0,300.11169,-3570.4995,0.0,0.03128001785949763,0.0,0.0,0.0,0.0,0.21642403040188882,0.5748914886598724,0.2940271735657227,-0.003989421793325276,0.0033749933161609067,0.1319701918544439
3129,10.0,300.30348,-3334.2003,0.0,0.031290013846916986,0.0,0.0,0.0,0.0,0.1971696845816328,0.5483507701780075,0.26799317132636674,0.004109503075926376,0.0044917809590792656,0.14860064548074187
3130,10.0,299.85767999999996,-3265.4246,0.0,0.03130000983433612,0.0,0.0,0.0,0.0,0.1833134894641328,0.5543383284639335,0.25495571268716977,-0.003034044182061847,-0.0077390251211823125,0.13919217247219787
3131,10.0,300.22524,-3346.8105,0.0,0.03131000582175547,0.0,0.0,0.0,0.0,0.2114708991430528,0.5454217883789395,0.26045412448732075,-0.007473870944913633,-0.006569079844892704,0.13272515437145285
3132,10.0,300.38013,-3512.0840000000003,0.0,0.031320001809175047,0.0,0.0,0.0,0.0,0.21170891159154281,0.5660043024302754,0.28987262524070073,0.001136530618466839,-0.0025553948659978376,0.12673077691235388
3133,10.0,300.17472999999995,-3449.8426,0.0,0.03132999779659418,0.0,0.0,0.0,0.0,0.2142777336425658,0.5481953781426715,0.2861928960450398,0.01136017103316159,-0.001057000314142809,0.1178308642615009
3134,10.0,299.79506000000003,-3507.1393,0.0,0.03133999378401353,0.0,0.0,0.0,0.0,0.1916389197057888,0.5727898255674545,0.3016540387909357,0.0011451603682435289,0.003130601445041307,0.1177070349667799
3135,10.0,299.65713999999997,-3618.2326,0.0,0.03135002276149024,0.0,0.0,0.0,0.0,0.21601830479684678,0.5874043978548004,0.2964296604803297,-0.004080057521395327,0.0013520676598636886,0.10899330702180189
3136,10.0,299.61861,-3582.2209,0.0,0.03136001874890959,0.0,0.0,0.0,0.0,0.22030127243954278,0.5784906340750805,0.2901138192945047,-0.0052335837890895055,0.002045732497498078,0.1156914677353589
3137,10.0,299.86011,-3571.5924,0.0,0.031370014736328944,0.0,0.0,0.0,0.0,0.23738763794833576,0.5776839046104625,0.27060336437897275,-0.0033865338294998665,0.007647925425891472,0.12281078585298089
3138,10.0,299.6169,-3436.9819,0.0,0.031380010723748075,0.0,0.0,0.0,0.0,0.20892122751891984,0.5597564503261605,0.27607899831687577,0.002701597432201907,-0.01010419768230667,0.13988011862759286
3139,10.0,299.63472,-3239.6559,0.0,0.03139000671116743,0.0,0.0,0.0,0.0,0.18383303345290783,0.5534753129562605,0.24746614285050675,-0.000956727381986641,-0.002270670169347698,0.14393767865304286
3140,10.0,300.17757,-3270.6703,0.0,0.03140000269858678,0.0,0.0,0.0,0.0,0.17154778129044781,0.5606154837609405,0.26203882737871875,0.0008823202930832332,-0.0024089783013726477,0.15395078839375986
3141,10.0,300.40447,-3480.5702,0.0,0.031409998686006135,0.0,0.0,0.0,0.0,0.2051730431465028,0.5600217597323445,0.29281163821575873,0.012712624842638387,0.010712919028282789,0.14101335780443489
3142,10.0,300.41483999999997,-3451.6945,0.0,0.03141999467342549,0.0,0.0,0.0,0.0,0.2086160061912968,0.5611380573675145,0.2794748654970218,0.009749221316473232,0.004285157985437165,0.1303537539699139
3143,10.0,299.79532,-3419.1756,0.0,0.031430023650902195,0.0,0.0,0.0,0.0,0.2005734956425628,0.5632772107136325,0.27549330936157274,0.014245511137172488,-0.0008689995905110823,0.12701880338577987
3144,10.0,300.03878,-3500.5227,0.0,0.03144001963832155,0.0,0.0,0.0,0.0,0.1996570919871208,0.5764498977111754,0.28796449291738274,0.011436277261422689,-0.008125445373394023,0.1191746061466179
3145,10.0,300.22059,-3714.0559,0.0,0.0314500156257409,0.0,0.0,0.0,0.0,0.2317409167310478,0.5904593165087975,0.3067800305168317,-0.015310228262751885,-0.004395168575294366,0.1118221493134869
3146,10.0,299.98581,-3665.7839,0.0,0.03146001161316003,0.0,0.0,0.0,0.0,0.2282680222782998,0.5731774342607084,0.3128613043045067,-0.0057191642424625645,-0.007421385906958762,0.11862904189527487
3147,10.0,299.81977,-3532.0708,0.0,0.03147000760057961,0.0,0.0,0.0,0.0,0.2199647822138338,0.5742890912104204,0.2794074438353677,-0.008181697472570672,0.007306233072844062,0.11949536059827387
3148,10.0,299.50484,-3339.2548,0.0,0.03148000358799874,0.0,0.0,0.0,0.0,0.19849942335036783,0.5517334549743524,0.2648171895504217,0.007823006025245582,0.01706837018701698,0.12821037537087887
3149,10.0,299.34606,-3329.6306,0.0,0.03148999957541809,0.0,0.0,0.0,0.0,0.2060482683178808,0.5343923685229205,0.27168392468311575,-0.006501221776420634,0.013496802399780686,0.12432727674764688
3150,10.0,299.91682000000003,-3425.9642,0.0,0.031499995562837446,0.0,0.0,0.0,0.0,0.19616305100478582,0.5633511779709325,0.2818933313657057,-0.0065963064830297635,0.011100170044251489,0.14038131265705686
3151,10.0,300.11197000000004,-3341.8342,0.0,0.03150999155025658,0.0,0.0,0.0,0.0,0.2008589180632318,0.5388838326386934,0.27609139036559877,0.005767991751531464,0.007930743793803473,0.1203314033882849
3152,10.0,299.57824,-3301.0589,0.0,0.03152002052773328,0.0,0.0,0.0,0.0,0.16104546426894983,0.5653860070867545,0.27700801693606275,0.015027771625125587,-0.0027575155641455973,0.14981676851576384
3153,10.0,299.77623,-3353.8763,0.0,0.03153001651515286,0.0,0.0,0.0,0.0,0.2027946817167768,0.5511093638402594,0.2655906033517518,0.008532806972047481,-0.011667850505527188,0.13148666890672386
3154,10.0,299.89552000000003,-3584.575,0.0,0.03154001250257221,0.0,0.0,0.0,0.0,0.22555294770784276,0.5696960285071204,0.2943723169472857,0.004519346428049765,-0.016854370752646883,0.1321439642465939
3155,10.0,300.51092,-3627.1897,0.0,0.031550008489991566,0.0,0.0,0.0,0.0,0.2303809121818258,0.5889344359033034,0.28325974978806073,-0.0012887664810663489,-0.007017588314207044,0.11648820655399089
3156,10.0,300.03312,-3470.3102,0.0,0.0315600044774107,0.0,0.0,0.0,0.0,0.1964479769329058,0.5733122978490185,0.2851273723723807,0.005167833280825435,0.0014408702158528188,0.12562882689859986
3157,10.0,300.20333999999997,-3428.5288,0.0,0.03157000046483005,0.0,0.0,0.0,0.0,0.1946339654113768,0.5623426800139014,0.28521049941058474,0.01120561898215849,0.014356392108865587,0.1175668112854409
3158,10.0,300.11506,-3449.2657,0.0,0.031579996452249404,0.0,0.0,0.0,0.0,0.18370967025323282,0.5742694848209855,0.29051150982625373,-0.005356489405019345,0.004890724273251905,0.1232904787153229
3159,10.0,300.07371,-3404.8356,0.0,0.031589992439668535,0.0,0.0,0.0,0.0,0.21490503677947578,0.5500482782030385,0.27003169880505373,-0.0004855207121471636,0.01325427490884509,0.13409808799195086
3160,10.0,299.94158,-3450.9749,0.0,0.03160002141714524,0.0,0.0,0.0,0.0,0.2115845351417678,0.5692439264450015,0.26818173716997673,-0.0034780536182821664,0.01186574432955779,0.14086424791971885
3161,10.0,299.68456000000003,-3423.6271,0.0,0.031610017404564816,0.0,0.0,0.0,0.0,0.2257924395014788,0.5500876024394193,0.26481710849041373,0.004623648468168576,0.003626477330030447,0.13599077838374485
3162,10.0,299.39522999999997,-3493.5299,0.0,0.03162001339198417,0.0,0.0,0.0,0.0,0.2069086493752938,0.5610166902705365,0.29402053677756773,-0.006076416570670624,-0.006427339733454045,0.12942266832052288
3163,10.0,300.05415,-3612.3758,0.0,0.03163000937940352,0.0,0.0,0.0,0.0,0.22770649933788178,0.5721250321768445,0.2982405005290457,-0.005643931739762694,0.006808620375858514,0.1180605984566739
3164,10.0,299.89926,-3657.1173,0.0,0.031640005366822654,0.0,0.0,0.0,0.0,0.21075706444760278,0.5777227526192964,0.3231925239141187,-0.0007051115949415964,0.0011287447033734288,0.1068911575693359
3165,10.0,299.88329,-3571.7923,0.0,0.031650001354241786,0.0,0.0,0.0,0.0,0.23301448091423876,0.5696250807351185,0.28309610989691075,-0.007434504557328473,-0.002274494580525138,0.1051236035648919
3166,10.0,299.84362999999996,-3479.1491,0.0,0.03165999734166136,0.0,0.0,0.0,0.0,0.2073892440302248,0.5722351521977125,0.27795006595153576,0.0024530120228934377,-0.005273703730774035,0.12190361290594989
3167,10.0,300.20504,-3491.728,0.0,0.031669993329080715,0.0,0.0,0.0,0.0,0.24069509905725678,0.5570748130090035,0.26362820135307774,-0.00011718776455553187,0.002059890134520328,0.12100519443978289
3168,10.0,300.19492,-3517.9368,0.0,0.0316800223065572,0.0,0.0,0.0,0.0,0.19693537049600782,0.5851156482639184,0.28731392555817675,-0.0013651874248085088,0.004897295301475415,0.14175857285548185
3169,10.0,300.27312,-3430.1318,0.0,0.03169001829397655,0.0,0.0,0.0,0.0,0.1999472057557528,0.5658984380598274,0.2768287628608717,0.005504811386457584,-0.008198339598838122,0.1320910624588729
3170,10.0,300.5348,-3339.343,0.0,0.03170001428139613,0.0,0.0,0.0,0.0,0.16915292414909383,0.5688932304528904,0.27703073400330475,0.01055067235602029,-0.003839459157325116,0.14854437970268886
3171,10.0,300.70535,-3374.783,0.0,0.03171001026881548,0.0,0.0,0.0,0.0,0.21300504085446081,0.5546946074640955,0.25815011534993276,0.0025253397402066275,0.006608868048494494,0.13360788772607188
3172,10.0,300.21554,-3461.4856,0.0,0.03172000625623461,0.0,0.0,0.0,0.0,0.21252743528732482,0.5628960665560164,0.27678167712872476,4.267838704127886e-05,0.008751652984295902,0.15187388913378586
3173,10.0,300.254,-3555.8695,0.0,0.03173000224365374,0.0,0.0,0.0,0.0,0.2309715255326148,0.5697885078437475,0.28013548429721974,-0.01840082142626968,0.018877919355105584,0.12747319539312488
3174,10.0,299.82671,-3513.0123,0.0,0.0317399982310731,0.0,0.0,0.0,0.0,0.1953708110165978,0.5803826253243054,0.29211458294196474,-0.0017115009075869883,-0.00043257509122683754,0.13844704861365986
3175,10.0,299.874,-3448.6638,0.0,0.03174999421849267,0.0,0.0,0.0,0.0,0.2070841645576158,0.5675981752350784,0.27362535240471975,0.003077042969930497,0.01008695003777946,0.12391722456467787
3176,10.0,299.80201,-3452.7913,0.0,0.031760023195969156,0.0,0.0,0.0,0.0,0.20104845662693782,0.5656551364458156,0.2828587560609857,0.0011583613958463688,-0.005371615202512146,0.11927019616105189
3177,10.0,300.05644,-3590.3216,0.0,0.03177001918338873,0.0,0.0,0.0,0.0,0.2305235777959058,0.5749993086030135,0.28584523980322873,0.0062067908530875635,-0.017791219768606682,0.10281512599456291
3178,10.0,300.06692000000004,-3567.9047,0.0,0.03178001517080786,0.0,0.0,0.0,0.0,0.21791568653660381,0.5740176516411314,0.2926206000419047,-0.002077402338648648,-0.01833583967085648,0.12384742176528889
3179,10.0,300.27704,-3446.914,0.0,0.03179001115822744,0.0,0.0,0.0,0.0,0.21633927203102382,0.5615250175807045,0.26991148681318977,0.014679103146464685,0.005465884040140755,0.12514741151108788
3180,10.0,300.27767,-3439.1712,0.0,0.03180000714564657,0.0,0.0,0.0,0.0,0.19892216142458882,0.5659763265950145,0.28052368067553174,0.008195761586608692,0.01271032172516109,0.14028073745213085
3181,10.0,300.11179,-3460.5012,0.0,0.0318100031330657,0.0,0.0,0.0,0.0,0.2077535783686818,0.5591422079830395,0.2850101697333137,-0.017071466679322585,0.005805626899995765,0.13160735712613486
3182,10.0,300.32082,-3447.7312,0.0,0.031819999120485054,0.0,0.0,0.0,0.0,0.1979023353314398,0.5717063876330275,0.27841546185496674,-0.008287573799369851,0.003042774040948417,0.13571902470692487
3183,10.0,300.5417,-3450.407,0.0,0.03182999510790441,0.0,0.0,0.0,0.0,0.2230016346185478,0.5540032871858674,0.27183264953279374,-2.2322077021767478e-05,0.0048107213890812356,0.12037874243295688
3184,10.0,299.99717999999996,-3473.9572,0.0,0.03183999109532398,0.0,0.0,0.0,0.0,0.2068697912339588,0.5656370701965324,0.2834893826582237,-7.100106895725994e-05,-0.0027321072033129872,0.1276144120595619
3185,10.0,299.53014,-3490.711,0.0,0.03185002007280069,0.0,0.0,0.0,0.0,0.2142166954565418,0.5746327653793385,0.2722395302429497,-0.009467348817529581,-0.012915784527438688,0.12298905707557488
3186,10.0,299.67292000000003,-3618.7924,0.0,0.03186001606021982,0.0,0.0,0.0,0.0,0.19665226841806782,0.5989156080008684,0.3044546519348347,-0.008681077277730622,-0.006285065031262624,0.14042261273113285
3187,10.0,300.01386,-3623.6902,0.0,0.031870012047639174,0.0,0.0,0.0,0.0,0.2247132268199688,0.5895209658561895,0.28727715471204773,-0.00025510460978936476,0.002316113625732618,0.12777399895031186
3188,10.0,300.5897,-3440.9359,0.0,0.03188000803505853,0.0,0.0,0.0,0.0,0.1981240952483258,0.5737546220476725,0.27407988626707874,0.0010932650418468588,0.0030103218693956373,0.14249453693311587
3189,10.0,300.35075,-3360.2265,0.0,0.03189000402247766,0.0,0.0,0.0,0.0,0.21237969329024378,0.5549312013624454,0.2541140362266028,0.00916924820630934,0.005597445547699864,0.12218108131333388
3190,10.0,299.96679,-3432.7122,0.0,0.031900000009897234,0.0,0.0,0.0,0.0,0.1858944401188528,0.5744199423283344,0.28314441152917774,0.00961882524917914,-0.004086687926074696,0.14072539212601487
3191,10.0,299.97646000000003,-3499.15,0.0,0.031909995997316365,0.0,0.0,0.0,0.0,0.20362942754665983,0.5746261691211875,0.28539861942415073,0.00018245976545987682,0.013259684651128987,0.14174652531179285
3192,10.0,299.48254,-3555.7024,0.0,0.03191999198473594,0.0,0.0,0.0,0.0,0.2021570940913518,0.5762021377967235,0.3024855219554967,0.004796664266468905,0.0017176751470713385,0.13415073646714687
3193,10.0,299.12962000000005,-3628.3781,0.0,0.031930020962212646,0.0,0.0,0.0,0.0,0.23411978478582376,0.5894270071744164,0.27938954983860176,-0.0025001211611177477,-0.007517399257284543,0.13444424462361387
3194,10.0,299.56926,-3644.5106,0.0,0.03194001694963178,0.0,0.0,0.0,0.0,0.23120446159810376,0.5770057363185325,0.2996300109211797,-0.0067507063438678435,-0.0016467352784201184,0.12618356106334788
3195,10.0,299.54632999999995,-3720.373,0.0,0.03195001293705113,0.0,0.0,0.0,0.0,0.25764182856976875,0.5927933989091534,0.28046526680726674,0.013517812140604185,0.007769745243014153,0.11751089001242188
3196,10.0,300.2231,-3704.9198,0.0,0.031960008924470484,0.0,0.0,0.0,0.0,0.2286785304238138,0.5918018120962915,0.30572276483248767,-0.005270518781734705,0.009247031667460971,0.11466645380169788
3197,10.0,300.35062999999997,-3528.0148,0.0,0.03197000491188984,0.0,0.0,0.0,0.0,0.22134732144527977,0.5664222883615274,0.2846587847311347,0.0055732285663348344,0.00013033807899086688,0.12049068630400488
3198,10.0,300.23013,-3407.461,0.0,0.03198000089930919,0.0,0.0,0.0,0.0,0.16920598805683085,0.5758515431296225,0.2907255285123757,-0.0011946428421770689,0.00954726750061694,0.12800735044834188
3199,10.0,300.54823999999996,-3403.3537,0.0,0.03198999688672832,0.0,0.0,0.0,0.0,0.20878771155324283,0.5535119115498724,0.2722349402199967,0.004912401948541326,0.010924880816701791,0.13247918790967786
3200,10.0,300.12485,-3535.0984,0.0,0.031999992874147676,0.0,0.0,0.0,0.0,0.2098422515948178,0.5766238727533455,0.2881155178447877,-0.002189952133256448,0.0054900072958715355,0.13420463123996587
3201,10.0,299.73662,-3486.651,0.0,0.032010021851624604,0.0,0.0,0.0,0.0,0.2338648105306598,0.5597396810370054,0.26625034062436276,0.0003875965849153046,0.0023975279672925876,0.1319968909945789
3202,10.0,299.62621,-3454.1123,0.0,0.032020017839043735,0.0,0.0,0.0,0.0,0.19369205825091781,0.5668653117027505,0.28940650992969874,0.006230712877348484,0.003267190598271607,0.12457947469753688
3203,10.0,300.09074,-3533.185,0.0,0.03203001382646309,0.0,0.0,0.0,0.0,0.1994838363525218,0.5830506242951164,0.2914655658554117,0.015012084487077384,-0.006131878132119254,0.13554983220522687
3204,10.0,300.14659,-3695.4037,0.0,0.03204000981388244,0.0,0.0,0.0,0.0,0.20848133512050582,0.6055972831352985,0.30923181204880373,0.0016779009263209283,-0.012309533687856387,0.13674274168045789
3205,10.0,300.66042999999996,-3640.445,0.0,0.032050005801301795,0.0,0.0,0.0,0.0,0.23335005921485777,0.5785712178555334,0.2946831212829597,-0.004409552167088916,-0.025230366227293275,0.1313302940187909
3206,10.0,300.59482,-3440.0684,0.0,0.03206000178872115,0.0,0.0,0.0,0.0,0.2043213355099458,0.5717045536503464,0.26966900593175874,0.01141976533779309,-0.009667565314764412,0.13149602120514686
3207,10.0,300.74492999999995,-3265.0655,0.0,0.03206999777614028,0.0,0.0,0.0,0.0,0.2002206110302358,0.5491979688516194,0.24307979330010776,-0.0029367650797111474,0.012231493165154386,0.1280442124869799
3208,10.0,300.17155,-3367.9174,0.0,0.03207999376355963,0.0,0.0,0.0,0.0,0.1952047190602058,0.5546472481544216,0.27391081535539274,-0.0023497985173570575,0.01232157515204479,0.12340916069953589
3209,10.0,300.28299,-3603.3544,0.0,0.03209002274103656,0.0,0.0,0.0,0.0,0.21498114199448679,0.5791858452336924,0.3011627847449527,-0.028148350209775873,0.008973771794367322,0.13035154508469587
3210,10.0,300.00749,-3568.8106,0.0,0.03210001872845569,0.0,0.0,0.0,0.0,0.1978173439130518,0.5716256721300614,0.3153862830237027,-0.015875069597247382,0.015668301728840983,0.11656100857367589
3211,10.0,299.89695,-3566.1127,0.0,0.032110014715875046,0.0,0.0,0.0,0.0,0.2162068605079558,0.5846381034917885,0.28316425096613573,0.008010502586025052,0.008135611311647322,0.1271086280071449
3212,10.0,299.66827,-3774.906,0.0,0.03212001070329418,0.0,0.0,0.0,0.0,0.23689315163453376,0.5930405711385475,0.3175434316915967,0.02011293241174188,0.003135889901288237,0.11668051129046988
3213,10.0,299.66808,-3802.4040000000005,0.0,0.03213000669071375,0.0,0.0,0.0,0.0,0.26817890006969675,0.5837092571251185,0.3039476925123017,0.017980145316002182,-0.015346525921084184,0.11884104421369789
3214,10.0,300.47404,-3674.1057,0.0,0.032140002678133106,0.0,0.0,0.0,0.0,0.22618888373560478,0.5906266648953135,0.3000208417497517,0.00023923508672316478,-0.0026489602040820175,0.11954224368040088
3215,10.0,300.15252999999996,-3497.7369,0.0,0.03214999866555224,0.0,0.0,0.0,0.0,0.18838913279255984,0.5766173372902004,0.2982181988943447,-0.0057736474096146346,0.004456410120613436,0.13275976699486888
3216,10.0,300.30863,-3363.1543,0.0,0.03215999465297159,0.0,0.0,0.0,0.0,0.16917241908101782,0.5798654219432615,0.27327708821284874,-0.014569504949398186,0.008131302465597071,0.14240101394888585
3217,10.0,300.27502000000004,-3425.9390000000003,0.0,0.03217002363044852,0.0,0.0,0.0,0.0,0.21205728724092482,0.5672602157967245,0.26208239713301873,-0.016474183103125286,0.002023709405249568,0.13608001532005187
3218,10.0,300.25408999999996,-3498.837,0.0,0.03218001961786765,0.0,0.0,0.0,0.0,0.2186360161651948,0.5654614131591965,0.2794616628482187,-0.016851559996869485,0.0023806458020764476,0.14195179964955187
3219,10.0,300.70054,-3384.5301,0.0,0.032190015605287,0.0,0.0,0.0,0.0,0.2163916570611938,0.5652126703921474,0.24720831123006076,-0.0020980893593152976,0.005352725788847905,0.13707676970842386
3220,10.0,300.17302,-3431.0479,0.0,0.03220001159270636,0.0,0.0,0.0,0.0,0.19476346890665783,0.5610258297864384,0.2871635997733407,0.013257693614682488,0.007924805337617392,0.13301390025244986
3221,10.0,299.54385,-3634.1279,0.0,0.03221000758012571,0.0,0.0,0.0,0.0,0.2065183859667778,0.5933263177992484,0.30483944379281075,0.02398165605580518,-0.002844043880285278,0.12963863244683688
3222,10.0,300.0329,-3698.0146,0.0,0.032220003567545064,0.0,0.0,0.0,0.0,0.21501143817247678,0.5967284873950164,0.3123641835404447,-0.0007877624258635983,0.015731592369837285,0.12063318979806889
3223,10.0,300.04937,-3602.1757,0.0,0.032229999554964195,0.0,0.0,0.0,0.0,0.23782918194441277,0.5720021756022194,0.2851401089261377,-0.0013060530343973987,-0.0024457325302000075,0.12218413119613487
3224,10.0,299.92191,-3507.8111,0.0,0.03223999554238355,0.0,0.0,0.0,0.0,0.21478682089030882,0.5808536650307934,0.2706465187007317,-0.003033067712940477,-0.01150791303024259,0.12912760989140287
3225,10.0,300.07604,-3511.5057,0.0,0.03224999152980268,0.0,0.0,0.0,0.0,0.24280538490802578,0.5688750122160925,0.25572967364355376,-0.0036360644998266263,-0.007653837942874992,0.13482137631083388
3226,10.0,299.98456,-3559.2414,0.0,0.03226002050727961,0.0,0.0,0.0,0.0,0.2186184565409618,0.5750989313528454,0.28820312344843374,-0.019579523108598482,-0.0007794071655389984,0.13933286224858288
3227,10.0,299.61767000000003,-3654.4852,0.0,0.03227001649469896,0.0,0.0,0.0,0.0,0.21173307760642782,0.6068410071030444,0.29229815346258176,-0.016277643994478386,0.015882737874004182,0.13909106024471887
3228,10.0,299.52405,-3543.0627,0.0,0.032280012482118314,0.0,0.0,0.0,0.0,0.19474258582209683,0.5844423233074664,0.29781767126231573,-0.022856873464297774,0.00990314393651421,0.13431857121371088
3229,10.0,298.55134,-3508.2432,0.0,0.032290008469537446,0.0,0.0,0.0,0.0,0.20233373398128482,0.5955106823648284,0.2685739156211817,0.026334193793482574,-0.0063846482643407235,0.14027260105382788
3230,10.0,299.202,-3536.9986,0.0,0.03230000445695702,0.0,0.0,0.0,0.0,0.20772994937634984,0.5793956994619035,0.28803361683920475,0.014254684090327787,-0.012590947691129789,0.13500146125110687
3231,10.0,299.12628,-3599.4006,0.0,0.03231000044437615,0.0,0.0,0.0,0.0,0.2368630986365678,0.5747516196160685,0.2825131769818797,0.02296953471641658,-0.007627933494793424,0.12468129620008588
3232,10.0,299.55085,-3673.0472,0.0,0.032319996431795506,0.0,0.0,0.0,0.0,0.2110808687820598,0.6070128036574994,0.29842096037185567,-0.0014171013950070185,-0.012520670690693987,0.13389961256236288
3233,10.0,299.83822999999995,-3630.2683,0.0,0.03232999241921486,0.0,0.0,0.0,0.0,0.2168574177346608,0.5833147684636855,0.3033387190697007,-0.008993197521309492,0.0019141426189361683,0.12620591336055387
3234,10.0,300.97694,-3604.9507,0.0,0.032340021396691565,0.0,0.0,0.0,0.0,0.1997223250285588,0.5958978148305355,0.3001948573219257,-0.008792193222121911,0.01913591208231748,0.13435024541183688
3235,10.0,299.98444,-3568.7061,0.0,0.03235001738411092,0.0,0.0,0.0,0.0,0.22140183430065982,0.5695174026469915,0.29387831699353173,-0.014986099688262885,0.02179112586336668,0.12016346731671089
3236,10.0,300.2577,-3596.9288,0.0,0.03236001337153027,0.0,0.0,0.0,0.0,0.2231800375636548,0.5759477512266175,0.29424874096508974,0.0018128655356658984,0.0063337893914713434,0.12815091785501087
3237,10.0,299.75433,-3587.2740000000003,0.0,0.0323700093589494,0.0,0.0,0.0,0.0,0.22602818226974478,0.5942009654180694,0.2702125740804047,0.008635174717725392,-0.015533156457003185,0.1258826156511469
3238,10.0,299.8133,-3439.3006,0.0,0.032380005346368756,0.0,0.0,0.0,0.0,0.19547063641644982,0.5646419167433184,0.2853489701692507,0.02255248604150708,-0.014018864315054188,0.13500571690152688
3239,10.0,299.59092000000004,-3433.7096,0.0,0.03239000133378811,0.0,0.0,0.0,0.0,0.19989172018027682,0.5661976102843534,0.2776726380741557,-0.0013691308928726988,-0.008698200799120582,0.13513848306212986
3240,10.0,299.24615,-3592.8953,0.0,0.03239999732120746,0.0,0.0,0.0,0.0,0.2082339197110878,0.5888535278828184,0.29506301914295274,-0.011634509510986688,-0.008834061932154032,0.13768366598831988
3241,10.0,299.40634,-3681.9772,0.0,0.03240999330862682,0.0,0.0,0.0,0.0,0.2329549119408598,0.5902122152069105,0.2960620026815447,-0.022837748368660274,0.00016020333184583785,0.1277004369930519
3242,10.0,300.23888999999997,-3580.7823,0.0,0.03242002228610352,0.0,0.0,0.0,0.0,0.21995307917517878,0.5879474999084005,0.2805678279823887,0.0001028710270025799,0.0029554085775761172,0.13120583650900786
3243,10.0,300.57171,-3548.3546,0.0,0.0324300182735231,0.0,0.0,0.0,0.0,0.2235677881119228,0.5702914649283854,0.28475196321033075,0.001183627496364939,0.006880442177396774,0.12222346556501688
3244,10.0,300.63996000000003,-3587.6740000000004,0.0,0.03244001426094223,0.0,0.0,0.0,0.0,0.2122614267385718,0.5708541632389195,0.3074477218027277,0.005620446223644855,-0.008091396724983681,0.13153172813867087
3245,10.0,300.14427,-3582.4968,0.0,0.03245001024836136,0.0,0.0,0.0,0.0,0.2190162382652198,0.5832198775918205,0.2867534665303637,0.0051750286737605655,-0.0012461473580101688,0.12984293406449987
3246,10.0,300.16598999999997,-3481.0775,0.0,0.032460006235780714,0.0,0.0,0.0,0.0,0.1958471398886078,0.5709734937031965,0.29134000390301973,0.017319479906299586,-0.0036945514234238367,0.13641240188285586
3247,10.0,299.81774,-3500.6214,0.0,0.03247000222320007,0.0,0.0,0.0,0.0,0.2079945089774598,0.5788985786978414,0.27720840740833974,0.012805352425539887,0.0003790907252283417,0.13987985518256685
3248,10.0,299.68379,-3600.3639,0.0,0.03247999821061942,0.0,0.0,0.0,0.0,0.2196593481036898,0.5775594065706755,0.29720197997155173,0.0045641983490263055,-0.007043822879171192,0.12961994811499286
3249,10.0,299.91064,-3657.6447,0.0,0.032489994198038774,0.0,0.0,0.0,0.0,0.22080914378716582,0.6026325133426984,0.28839101041447673,-0.012406492603175489,-0.0016637986127541384,0.12457499613209487
3250,10.0,299.92706,-3642.3608,0.0,0.03250002317551548,0.0,0.0,0.0,0.0,0.1949738601574218,0.6136204000771185,0.29859248334878374,-0.0053248587766476455,0.0049146733512904954,0.13618935513834288
3251,10.0,299.2063,-3642.3848,0.0,0.03251001916293483,0.0,0.0,0.0,0.0,0.21594632350974277,0.5849564666732084,0.3062912488010927,-0.016187158734048183,0.012274028391102289,0.11845260465536189
3252,10.0,299.76308,-3618.4939,0.0,0.03252001515035419,0.0,0.0,0.0,0.0,0.2075496617860568,0.5932303427497765,0.29915179740398373,0.004890652433819815,-0.007036200705293943,0.13830384597702688
3253,10.0,299.82454,-3614.4459,0.0,0.03253001113777332,0.0,0.0,0.0,0.0,0.22537303502008676,0.5811657561940944,0.2921625299366967,-0.004920167294657706,0.0032543651824808372,0.13401517373626787
3254,10.0,300.23967999999996,-3614.0927,0.0,0.03254000712519267,0.0,0.0,0.0,0.0,0.22284652629323978,0.5807537889684364,0.2949936115111027,0.021382939073831778,0.0007521040067543863,0.12421578883914387
3255,10.0,300.39304,-3539.6525,0.0,0.032550003112612025,0.0,0.0,0.0,0.0,0.21813642307088882,0.5806805005887035,0.27714906134998274,0.017361254181422384,-0.004493224435171726,0.12766234892179287
3256,10.0,300.0428,-3555.9404,0.0,0.0325599991000316,0.0,0.0,0.0,0.0,0.2097102859017938,0.5620447236894954,0.3091620801769217,0.0035857317064091664,-0.01946145110094568,0.12818353437572988
3257,10.0,299.95288999999997,-3649.9,0.0,0.03256999508745073,0.0,0.0,0.0,0.0,0.23717221084457477,0.5768461291627804,0.2954601118571427,0.005458181819505604,-0.013695058967347089,0.12990207747283689
3258,10.0,299.97592000000003,-3629.9618,0.0,0.03257999107486986,0.0,0.0,0.0,0.0,0.21924357105765582,0.5967802138126215,0.2873939520510747,-0.020731492213538982,-0.005053185045260535,0.14078255969665687
3259,10.0,300.53732,-3582.8385,0.0,0.03259002005234679,0.0,0.0,0.0,0.0,0.22363080213564177,0.5781098952175044,0.2873527431695077,-0.015361411578303286,0.018764994657960783,0.1296095217714639
3260,10.0,300.67415,-3600.4640000000004,0.0,0.032600016039766144,0.0,0.0,0.0,0.0,0.22423124401240077,0.5895349183100664,0.2806849900914517,-0.016513005780706785,0.003364055483981427,0.12894013835790086
3261,10.0,300.16497000000004,-3608.8646,0.0,0.032610012027185276,0.0,0.0,0.0,0.0,0.22230475159727078,0.5917838674370205,0.2829161161491467,-0.0035429662700385465,0.023675876427377077,0.12317092533602388
3262,10.0,300.32923999999997,-3456.6025,0.0,0.03262000801460463,0.0,0.0,0.0,0.0,0.18664853124077582,0.5786247073283124,0.28544762019898673,0.004809392106275045,0.006219446042861535,0.1287544298795729
3263,10.0,300.19355,-3518.2077,0.0,0.03263000400202398,0.0,0.0,0.0,0.0,0.2028108025258678,0.5887682020918974,0.27786828653596474,0.0100410562930501,-0.004344218712566007,0.12706505825284486
3264,10.0,300.04784,-3663.7435,0.0,0.032639999989443336,0.0,0.0,0.0,0.0,0.21658444815772082,0.5927076070231864,0.3043944952763977,-0.006210396908868454,-0.017744398494735785,0.13174336568705786
3265,10.0,300.08071,-3658.5428,0.0,0.03264999597686269,0.0,0.0,0.0,0.0,0.24001992998562277,0.5929457917241934,0.2791399458089677,0.009691061571333311,-0.009238218924716221,0.14575102142950586
3266,10.0,299.62245,-3550.1158,0.0,0.03265999196428182,0.0,0.0,0.0,0.0,0.2061234413427998,0.5948834400229244,0.2781396754427487,0.003362264969729717,0.0025606052006620574,0.14058922144507585
3267,10.0,299.40765,-3605.8835,0.0,0.03267002094175875,0.0,0.0,0.0,0.0,0.22130842277394078,0.5801260602664845,0.29466405191607775,0.0005423624620870074,0.016651154325840984,0.13557037078475387
3268,10.0,300.22496,-3634.1499,0.0,0.0326800169291781,0.0,0.0,0.0,0.0,0.19495643225570183,0.6139893447035304,0.29574504791776374,-0.003548755778459927,0.0021919907924576477,0.13690554057402485
3269,10.0,299.77524,-3564.0657,0.0,0.03269001291659723,0.0,0.0,0.0,0.0,0.2204375748429948,0.5730922199272985,0.2898571833091767,-0.0026360693323347877,0.01884692200804638,0.12347992608651989
3270,10.0,300.26925,-3617.1636,0.0,0.032700008904016586,0.0,0.0,0.0,0.0,0.20878404358788083,0.5971103610927044,0.29363302940932373,0.01156157982178909,-0.003383772419002337,0.12966959736989286
3271,10.0,300.85483999999997,-3539.19,0.0,0.03271000489143594,0.0,0.0,0.0,0.0,0.2265291331191848,0.5825333398540644,0.2667629033199488,0.009304702620752652,0.003172292127030857,0.1161478254478979
3272,10.0,300.82693,-3598.9904,0.0,0.03272000087885529,0.0,0.0,0.0,0.0,0.2081530319556048,0.5891887616784034,0.2966614211757027,-0.003916576406535996,-0.01269536007418449,0.1296701141274439
3273,10.0,300.77247,-3742.9775,0.0,0.03272999686627465,0.0,0.0,0.0,0.0,0.23564759368410676,0.5980069962386955,0.3041170977965207,-0.012767548064308886,-0.0028054244606738376,0.1184031985804859
3274,10.0,300.83173999999997,-3633.3448,0.0,0.03273999285369378,0.0,0.0,0.0,0.0,0.2218666526515338,0.5834551542650405,0.29912428766376875,0.0019028608896727484,0.008491045565200951,0.1278869155414559
3275,10.0,300.36773999999997,-3512.0171,0.0,0.032750021831170706,0.0,0.0,0.0,0.0,0.20366193260986779,0.5776176279214215,0.28628594280172276,-0.0007978299775321882,0.007283376582388304,0.12076755689382988
3276,10.0,300.06097,-3504.4962,0.0,0.03276001781858984,0.0,0.0,0.0,0.0,0.21234734021455082,0.5776401524711444,0.2752918448441898,0.01146096408685909,-0.005885752286103525,0.14376098810060486
3277,10.0,299.77661,-3712.2911,0.0,0.03277001380600919,0.0,0.0,0.0,0.0,0.26267722560422374,0.5838299048145255,0.28193666807248274,-0.006689861891262964,-0.00991237808997555,0.13471912924324286
3278,10.0,299.36584,-3644.6297,0.0,0.032780009793428766,0.0,0.0,0.0,0.0,0.23240161659125377,0.5948657182786754,0.2806090773939597,0.02334085034806258,-0.0031680019247824474,0.14907043888960686
3279,10.0,300.24532999999997,-3436.5335,0.0,0.0327900057808479,0.0,0.0,0.0,0.0,0.1911472907572688,0.5827232735853094,0.27074980941592575,-0.0015685811703819086,0.012650417365998989,0.15041652138245484
3280,10.0,300.38018,-3468.9513,0.0,0.03280000176826725,0.0,0.0,0.0,0.0,0.17941574937695584,0.5878903424702594,0.28716848363882275,0.0057444398675320744,0.003404811949378777,0.13523095226625587
3281,10.0,300.06541,-3593.0902,0.0,0.03280999775568638,0.0,0.0,0.0,0.0,0.1997596227647398,0.6004396476087794,0.29201045122918773,-0.013009127153150887,0.0057651397564749945,0.14294792582286187
3282,10.0,300.43085,-3528.197,0.0,0.032819993743105735,0.0,0.0,0.0,0.0,0.20724484575847382,0.5813004779273904,0.28393848550004674,-0.007891264631482183,0.009959277688079181,0.13364571235230485
3283,10.0,300.32126,-3569.9938,0.0,0.03283002272058266,0.0,0.0,0.0,0.0,0.22341375383172077,0.5785924859751325,0.28318272251545873,-0.0037785515792390064,0.0006837027754337103,0.12644186891134088
3284,10.0,299.54312000000004,-3615.8898,0.0,0.032840018708001795,0.0,0.0,0.0,0.0,0.2038573074941498,0.5965582613782164,0.2987246618243287,0.0036864337702476866,-0.011963934343748388,0.13910760661885185
3285,10.0,300.15154,-3725.2354,0.0,0.03285001469542115,0.0,0.0,0.0,0.0,0.23524694446206576,0.5814124724609434,0.3157191154165507,0.014784040393071185,0.012304727842632089,0.12351567355004787
3286,10.0,299.70229,-3921.6183,0.0,0.03286001068284072,0.0,0.0,0.0,0.0,0.2525668945164118,0.6069818286019424,0.3325253172726937,0.006272149132237924,0.01027663683997509,0.13508580418943086
3287,10.0,299.71066,-3764.4009,0.0,0.032870006670259855,0.0,0.0,0.0,0.0,0.24059074442945777,0.5918942205054114,0.3117989014421557,0.0048334167727710955,0.010485363320824791,0.1120697369754219
3288,10.0,299.50109,-3486.3557,0.0,0.03288000265767921,0.0,0.0,0.0,0.0,0.2069004420494838,0.5720577219727014,0.2808069043434837,-0.006499212501472334,-0.01198956146527759,0.13462961872940887
3289,10.0,299.53917,-3590.0547,0.0,0.03288999864509834,0.0,0.0,0.0,0.0,0.22811435276813377,0.5877490447438145,0.2754235774896907,0.001903027366664178,-0.007786213191589412,0.12157791379380588
3290,10.0,299.7276,-3760.9477,0.0,0.03289999463251769,0.0,0.0,0.0,0.0,0.2325980959181448,0.5961291904908704,0.3145069035269147,-0.006572676274797644,-0.009167815875967981,0.13610974407798587
3291,10.0,300.51698999999996,-3566.8329,0.0,0.03291002360999462,0.0,0.0,0.0,0.0,0.21690555724691182,0.5781992334788214,0.28912335718925375,-0.0013442526644924088,-0.01129371803860319,0.12440412163523089
3292,10.0,300.09722,-3504.0559999999996,0.0,0.03292001959741375,0.0,0.0,0.0,0.0,0.1879557758572908,0.5903389423969174,0.28685079933496976,-0.007869713713780273,-0.006853703925807914,0.13466996634839087
3293,10.0,300.43804,-3578.0918,0.0,0.032930015584833106,0.0,0.0,0.0,0.0,0.2099235547828418,0.5773937705768284,0.3003332267555817,0.003342827894386427,0.010757371323419888,0.13413963124605088
3294,10.0,300.08133,-3682.6813,0.0,0.03294001157225268,0.0,0.0,0.0,0.0,0.23183982007330878,0.5876734765513564,0.29992985189077176,-0.006071126898523574,0.014991979578593185,0.1261586047133849
3295,10.0,299.99291,-3698.5768,0.0,0.03295000755967181,0.0,0.0,0.0,0.0,0.24023723160206878,0.5882228607555765,0.29581489124715676,-0.005796486978793725,0.002926626397885537,0.14701506106175685
3296,10.0,299.58308,-3604.6545,0.0,0.032960003547091166,0.0,0.0,0.0,0.0,0.2049213416891618,0.5878866339748935,0.3029169739805777,-0.013656654762056887,-0.011848388368594889,0.12514539514338888
3297,10.0,299.36294,-3454.7551,0.0,0.0329699995345103,0.0,0.0,0.0,0.0,0.19581303389024182,0.5791056059582734,0.2752406554491377,0.024216824311264477,-0.015994485174532787,0.15312018675678585
3298,10.0,299.52824,-3564.5355,0.0,0.03297999552192965,0.0,0.0,0.0,0.0,0.20258257807334382,0.5852971618868325,0.2956500354558867,0.0008034595241602813,-0.008961405583521872,0.1244740662896339
3299,10.0,300.1958,-3742.5619,0.0,0.032989991509349226,0.0,0.0,0.0,0.0,0.23895461909548477,0.5978484023330435,0.3008423342683267,0.02021532640059738,-0.0010952747220951988,0.14001832594123287
3300,10.0,300.06673,-3719.8179999999998,0.0,0.03300002048682571,0.0,0.0,0.0,0.0,0.24043494709408175,0.5964214928797184,0.2938753481707387,-0.014630853189952787,0.008199741734326502,0.1131100915155969
3301,10.0,300.66505,-3515.5299,0.0,0.03301001647424506,0.0,0.0,0.0,0.0,0.1992989182092718,0.5881922403375545,0.2811421584040707,0.012614258522930388,0.021644083008854682,0.1393327305260699
3302,10.0,300.42752,-3539.8339,0.0,0.033020012461664416,0.0,0.0,0.0,0.0,0.1989189798192748,0.5858055195945034,0.29129661653373773,-0.0008974471646211391,0.012157964645147687,0.1292293604664449
3303,10.0,300.43081,-3777.5624,0.0,0.03303000844908377,0.0,0.0,0.0,0.0,0.2289825966463228,0.6000270926980634,0.3192749545224847,-0.0037243752242172162,-0.005508761643297445,0.1194761088463739
3304,10.0,300.15596,-3618.7349,0.0,0.03304000443650312,0.0,0.0,0.0,0.0,0.20939067642275078,0.5799492379915334,0.3106651252427607,0.0036491992608729262,-0.013032005327158787,0.13084415688581288
3305,10.0,300.01953,-3510.0004,0.0,0.033050000423922254,0.0,0.0,0.0,0.0,0.2178660575467058,0.5811811879931175,0.26790522121768673,0.0012463322761534189,-0.016803299907856586,0.13227115753164687
3306,10.0,299.78157000000004,-3599.3878,0.0,0.03305999641134161,0.0,0.0,0.0,0.0,0.23396484871303277,0.5777361275206164,0.28242303825298376,0.012856775881364987,-0.006756201503135175,0.1222205068747249
3307,10.0,299.89524,-3644.7425,0.0,0.03306999239876096,0.0,0.0,0.0,0.0,0.2362989919083948,0.5857900371329754,0.2858216918709047,0.0015604625039556585,-0.008134021319590403,0.12657258830674187
3308,10.0,299.64522999999997,-3798.7396,0.0,0.03308002137623789,0.0,0.0,0.0,0.0,0.22218234085268976,0.6137901599988724,0.31874949315312573,0.011337802523953989,0.008394108536084011,0.13813503851036688
3309,10.0,299.72871000000004,-3701.0153,0.0,0.03309001736365702,0.0,0.0,0.0,0.0,0.2078452977677338,0.5978762971082965,0.3192946419719277,0.0016006385796957286,0.006087344675649144,0.13073764403530086
3310,10.0,300.3836,-3469.5181,0.0,0.033100013351076374,0.0,0.0,0.0,0.0,0.18582098961910382,0.5949126824208104,0.27391319649312773,0.004170664169187506,0.01044362146970519,0.14113839286677488
3311,10.0,299.84799,-3409.7208,0.0,0.03311000933849573,0.0,0.0,0.0,0.0,0.2007241760649338,0.5761372289953174,0.2596085875438727,-0.016384845855058384,0.003075527958380977,0.14418250014220485
3312,10.0,299.93543,-3497.1778,0.0,0.03312000532591508,0.0,0.0,0.0,0.0,0.21594789404739778,0.5889888069036694,0.25811802571926573,-0.01132871671030729,0.007876103572885903,0.14562045402161986
3313,10.0,300.04939,-3534.7707,0.0,0.03313000131333421,0.0,0.0,0.0,0.0,0.2020172655775518,0.5994240062385434,0.27304074762702374,-0.013437435063171589,0.0037835048523528563,0.15414215080764584
3314,10.0,300.36032,-3441.7236,0.0,0.033139997300753565,0.0,0.0,0.0,0.0,0.19426879007533682,0.5775926310414544,0.2743366033124148,-0.0005023862803266655,0.004435796459254026,0.13963019035792687
3315,10.0,300.69628,-3532.9648,0.0,0.03314999328817292,0.0,0.0,0.0,0.0,0.1917027949920928,0.5821489026336234,0.3000813733107257,0.0075899257742673525,-0.005761212399087395,0.14030732513475486
3316,10.0,300.51428,-3803.1114,0.0,0.03316002226564985,0.0,0.0,0.0,0.0,0.24481255229611779,0.5970462730238795,0.3141920563233417,0.0028884327459661172,0.001249348823026129,0.12914243374036588
3317,10.0,300.48691,-3861.4622,0.0,0.03317001825306898,0.0,0.0,0.0,0.0,0.26502820901624774,0.6033639684573874,0.3053959207477307,0.006271666825190324,-0.003931455578954456,0.13221782004638288
3318,10.0,301.07677,-3744.9154,0.0,0.03318001424048833,0.0,0.0,0.0,0.0,0.25856561881843976,0.6006897683959644,0.2791053939805577,-0.003075291364482627,0.00952026742520224,0.1223033806004039
3319,10.0,300.49428,-3639.3235,0.0,0.03319001022790746,0.0,0.0,0.0,0.0,0.2262237902015498,0.5777197027364954,0.30231996702165775,-0.013011679530152788,0.0061289687871071245,0.11798691490940189
3320,10.0,300.22781000000003,-3538.6066,0.0,0.03320000621532704,0.0,0.0,0.0,0.0,0.1920780724316298,0.5927929733441114,0.29077700161745573,-0.0030640279750460174,0.003328212065668957,0.1169294161775349
3321,10.0,299.92489,-3640.1168,0.0,0.03321000220274639,0.0,0.0,0.0,0.0,0.18603909170312882,0.6013010621812944,0.31916444946657874,0.005317486166270025,-0.006432666490554754,0.13034616472666488
3322,10.0,299.88327000000004,-3653.5825,0.0,0.03321999819016552,0.0,0.0,0.0,0.0,0.21730383546371881,0.5903098722515485,0.3029841423297067,0.011790196402101789,0.0024219695862047878,0.13285895404715786
3323,10.0,299.81399,-3568.3253,0.0,0.033229994177584876,0.0,0.0,0.0,0.0,0.22491311066719577,0.5840741082211264,0.2756945712289357,0.005761054332071795,-0.0037936658256806665,0.13436225242552188
3324,10.0,300.05928,-3575.8113,0.0,0.033240023155061804,0.0,0.0,0.0,0.0,0.2226641108777368,0.5878827633595115,0.27641047295458976,-0.01177343521894759,-0.00910425976344548,0.14065585277165185
3325,10.0,300.0209,-3705.4443,0.0,0.033250019142480935,0.0,0.0,0.0,0.0,0.23734070420370376,0.5869809809030124,0.3020408571491117,0.0014704306729452085,-0.009208109488719652,0.12656910272639788
3326,10.0,300.86867,-3799.3139,0.0,0.03326001512990029,0.0,0.0,0.0,0.0,0.22253912647790178,0.6142030188846185,0.3181544215018967,-0.005817246345517515,-0.0032344396192643373,0.13417880349491687
3327,10.0,299.57912999999996,-3699.9429,0.0,0.03327001111731942,0.0,0.0,0.0,0.0,0.2060640547544388,0.5945017385777535,0.3241244606935937,0.0034190108256800964,-0.00027022650626927974,0.1296398787444599
3328,10.0,299.95453,-3593.4456,0.0,0.033280007104738996,0.0,0.0,0.0,0.0,0.2185889810955528,0.5947083706706464,0.27902038229716775,-0.01190483045216529,-0.007782455654918571,0.13940643433834388
3329,10.0,300.69012999999995,-3531.5684,0.0,0.03329000309215835,0.0,0.0,0.0,0.0,0.2239929985163878,0.5764737800160324,0.2730418318046307,0.003349937971663137,-0.005548426433037055,0.13052122394644186
3330,10.0,299.67733,-3549.6022,0.0,0.03329999907957748,0.0,0.0,0.0,0.0,0.22068682423509378,0.5962554313208295,0.2620481898096428,0.0025962522511051474,-0.0034546603079234264,0.14247707863389286
3331,10.0,299.67983,-3597.9116,0.0,0.033309995066996834,0.0,0.0,0.0,0.0,0.20983451036405382,0.5874972318289625,0.29634354435433075,-0.0016006976521765585,0.0024267201079736277,0.13092832757161987
3332,10.0,299.86871,-3576.0926,0.0,0.03332002404447376,0.0,0.0,0.0,0.0,0.20203725700202482,0.5762929554031865,0.3087126530950667,-0.015055719089383785,-0.0009018028126935081,0.13280076309391486
3333,10.0,299.3001,-3491.2324,0.0,0.03333002003189289,0.0,0.0,0.0,0.0,0.17345920667659084,0.5876243339215065,0.3001639329288737,-0.0006914012369109894,-0.0006084231566041904,0.14202120728140186
3334,10.0,299.97463,-3523.6526,0.0,0.033340016019312246,0.0,0.0,0.0,0.0,0.21302104007353978,0.5696182615619454,0.2884631132915927,-0.000947402785821375,0.014740874925561085,0.12944262934749287
3335,10.0,299.83237,-3787.0914,0.0,0.03335001200673138,0.0,0.0,0.0,0.0,0.24698834476585177,0.6036105023392184,0.3005823748226707,0.005864116154068204,0.005664738627916175,0.12506663521311587
3336,10.0,300.34154,-3852.0733,0.0,0.03336000799415073,0.0,0.0,0.0,0.0,0.26336425983452877,0.6072930889001614,0.3002767481950077,-0.004504860396670106,0.002153118870921288,0.12195021227804889
3337,10.0,300.67695,-3688.9076,0.0,0.033370003981570306,0.0,0.0,0.0,0.0,0.23910082095241375,0.5807636073619055,0.3014713801954087,-0.0017101484213535084,-0.011717826026959388,0.12865909317766389
3338,10.0,300.45437999999996,-3707.8962,0.0,0.03337999996898944,0.0,0.0,0.0,0.0,0.21044800290210078,0.6030126746477175,0.31364718108206674,0.016976623430212286,-0.0001121052919214309,0.12074104013871288
3339,10.0,299.37356,-3736.9181,0.0,0.03338999595640879,0.0,0.0,0.0,0.0,0.2075422549278258,0.5994892392799814,0.3288982770822327,0.01799871616383498,0.0017434505070901686,0.12597425399019088
3340,10.0,300.06694,-3655.3554,0.0,0.03339999194382792,0.0,0.0,0.0,0.0,0.2223311264973738,0.5927815033529795,0.2960241273928067,0.0012182334323302788,-0.0037764547594820665,0.12722387507351887
3341,10.0,299.66465,-3646.4208,0.0,0.03341002092130485,0.0,0.0,0.0,0.0,0.2219631039285528,0.6021682016168745,0.2842895563946947,-0.003976299393930197,-0.003944832912074697,0.13170180216795588
3342,10.0,300.61064,-3461.7935,0.0,0.033420016908724204,0.0,0.0,0.0,0.0,0.20585106958341878,0.5810747359376114,0.26537299776027573,-0.014114697509512187,0.0030197629285273974,0.14882410765779586
3343,10.0,299.90297000000004,-3490.3409,0.0,0.033430012896143335,0.0,0.0,0.0,0.0,0.1891662145592518,0.5954896168952494,0.2763206483332248,-0.0052371151683380255,0.0003481248801147507,0.14183653231817586
3344,10.0,300.23863,-3706.0759999999996,0.0,0.03344000888356291,0.0,0.0,0.0,0.0,0.1990829135529538,0.6114177970097384,0.3160538527195867,-0.016206994118005785,0.0014306937397984788,0.15835407948583086
3345,10.0,299.92742999999996,-3731.925,0.0,0.03345000487098204,0.0,0.0,0.0,0.0,0.21028305591832178,0.5977545044462764,0.3263744534681507,-0.01804191810834868,0.004853451159048336,0.12798435980357287
3346,10.0,300.02255,-3595.8716,0.0,0.033460000858401395,0.0,0.0,0.0,0.0,0.21951281187422778,0.5960770891707284,0.2774652561761887,0.015757218478116387,0.015569925276631985,0.14600797152236486
3347,10.0,299.94152,-3619.7804,0.0,0.03346999684582075,0.0,0.0,0.0,0.0,0.2364609194068758,0.5853652218960494,0.27849672451298674,-0.0007428272562588422,0.004403499720266586,0.11827037162487687
3348,10.0,299.99752,-3815.4685,0.0,0.03347999283323988,0.0,0.0,0.0,0.0,0.26181732077435776,0.5988054170524933,0.29918440379220174,0.006147511871887184,-0.003021240449823217,0.12226315457143387
3349,10.0,300.48194,-3839.9749,0.0,0.03349002181071681,0.0,0.0,0.0,0.0,0.23979392455081777,0.6127496940011864,0.3147128668747417,-0.020457566128504582,-0.0028010673839188273,0.12460006393956888
3350,10.0,300.32534,-3669.7092,0.0,0.03350001779813616,0.0,0.0,0.0,0.0,0.21320072984627378,0.5831457684795065,0.3191534557029937,-0.0025025553931579876,0.016198543612171785,0.13318926344725687
3351,10.0,300.29684,-3575.7963,0.0,0.033510013785555515,0.0,0.0,0.0,0.0,0.20836710130423183,0.5892914647085394,0.28929423168611773,-0.011929696622869388,0.005830252829101155,0.13254620427129188
3352,10.0,300.36454,-3578.2581,0.0,0.03352000977297487,0.0,0.0,0.0,0.0,0.22709524608255577,0.5782404018303844,0.28236546538230173,0.0012363235943156387,0.0007290509457792263,0.12628593985345188
3353,10.0,300.6874,-3586.9606,0.0,0.033530005760394,0.0,0.0,0.0,0.0,0.21371320134935082,0.5940172023799335,0.28261605226453274,-0.004253898003952045,-0.008484313430211542,0.13314928059831088
3354,10.0,300.12928999999997,-3636.7251,0.0,0.03354000174781335,0.0,0.0,0.0,0.0,0.22924318430704077,0.5957591414218495,0.2804712855128607,0.0025295329744204676,-0.010313449229358191,0.12819885471724188
3355,10.0,300.43509,-3606.8094,0.0,0.033549997735232706,0.0,0.0,0.0,0.0,0.2067254537572138,0.5918356850471345,0.29781885676493275,0.013278332505969385,-0.004125450011300216,0.14093506396920788
3356,10.0,300.28517999999997,-3591.5515,0.0,0.03355999372265184,0.0,0.0,0.0,0.0,0.2026724229597108,0.5857854673750243,0.30328408462430867,0.017870458966176984,-0.008321572291900243,0.13892650842847887
3357,10.0,299.88357,-3790.6191,0.0,0.033570022700128765,0.0,0.0,0.0,0.0,0.2275083380158248,0.6136177352293554,0.31112747126339074,0.01660169758845998,-8.938547978491002e-05,0.14481066454169986
3358,10.0,299.56401,-3830.4761,0.0,0.03358001868754812,0.0,0.0,0.0,0.0,0.25189512996511376,0.6039799029281755,0.3084940443859917,0.0026676815195546674,0.00025151703569029874,0.13536280650176885
3359,10.0,299.59379,-3680.0564,0.0,0.03359001467496747,0.0,0.0,0.0,0.0,0.2280491399916978,0.6045959792539773,0.2860001353460157,-0.01116045335895099,0.013164953872779786,0.13081732602316487
3360,10.0,299.55541,-3616.4023,0.0,0.033600010662386826,0.0,0.0,0.0,0.0,0.2126067829026558,0.5891798146800205,0.2975094000518917,-0.027292191365529572,0.0033299918394696067,0.13196563222899388
3361,10.0,299.92323999999996,-3681.6215,0.0,0.03361000664980596,0.0,0.0,0.0,0.0,0.19758355671747882,0.6066794747721024,0.3148579744215627,-0.014581177590550188,-0.001096005174092289,0.12231222627377689
3362,10.0,300.47031,-3769.9206,0.0,0.03362000263722531,0.0,0.0,0.0,0.0,0.2085486959871538,0.6276928025009564,0.3097202289945067,-0.004546310938385956,0.008930632063409763,0.14076255813968286
3363,10.0,300.0923,-3773.7278,0.0,0.033629998624644664,0.0,0.0,0.0,0.0,0.2422805213562258,0.6062402004562494,0.29859830953685873,-0.004160127685372637,0.00046988881649441555,0.13468556026742987
3364,10.0,300.29509,-3623.6063,0.0,0.03363999461206402,0.0,0.0,0.0,0.0,0.2386604320614508,0.5964116238237445,0.26641377786549275,0.008707930330555811,-0.012603984166916387,0.14062021676563485
3365,10.0,300.7905,-3479.538,0.0,0.0336500235895405,0.0,0.0,0.0,0.0,0.21389756220504583,0.5850184269168234,0.25877667881426974,0.015663951846161685,-0.014194835459921186,0.13922086771502987
3366,10.0,299.68642,-3682.8644,0.0,0.033660019576960076,0.0,0.0,0.0,0.0,0.22705548614863177,0.5913351597627364,0.30110818069706374,0.014873831577182884,-0.006977202495696273,0.11810520172607589
3367,10.0,299.42915,-3780.5028,0.0,0.03367001556437943,0.0,0.0,0.0,0.0,0.2097831183189818,0.6117645919889644,0.3276307417371367,0.0029522850314928468,0.0019770500487446482,0.13075191059670888
3368,10.0,299.34632,-3640.9109999999996,0.0,0.03368001155179878,0.0,0.0,0.0,0.0,0.2292004859478268,0.5753568035032954,0.30218875113370774,-0.00965455984443087,0.0014402974255712886,0.11897473243189188
3369,10.0,299.86891,-3621.3277,0.0,0.033690007539217914,0.0,0.0,0.0,0.0,0.22722030140989777,0.5945234525273965,0.27904945244253676,-0.0009074548433413202,0.006887090719252933,0.14933982156119285
3370,10.0,299.61235,-3787.724,0.0,0.033700003526637046,0.0,0.0,0.0,0.0,0.2580093039835357,0.6019043208933315,0.2914598815223507,-0.003328347435882317,0.01058773299167789,0.13671435041265587
3371,10.0,299.9152,-3905.1584,0.0,0.03370999951405662,0.0,0.0,0.0,0.0,0.2555730454430958,0.6140595224054564,0.3174380739461987,0.005560730936951416,0.016363337595185684,0.13963472971837487
3372,10.0,300.28611,-3745.3358,0.0,0.033719995501475974,0.0,0.0,0.0,0.0,0.22135953110898476,0.6067746088239914,0.3103544323645977,-0.016468781466842185,-0.0100474539541815,0.12377586604322688
3373,10.0,300.5982,-3484.7127,0.0,0.03372999148889533,0.0,0.0,0.0,0.0,0.16112732474452884,0.5963436550070365,0.3017946576398137,-0.011386476019007687,0.0053368905136350845,0.13316653624751387
3374,10.0,300.11593999999997,-3524.4770000000003,0.0,0.033740020466372034,0.0,0.0,0.0,0.0,0.18299891583808683,0.5914432026208994,0.2969108732178217,0.008805461732181412,-0.001186580411131369,0.13378503424105487
3375,10.0,300.12998,-3732.0209,0.0,0.03375001645379139,0.0,0.0,0.0,0.0,0.22649984005879376,0.6072097997419414,0.3007315353698917,0.004647094062232475,0.0025571311713691977,0.13955551382555687
3376,10.0,299.91714,-3838.9566,0.0,0.03376001244121074,0.0,0.0,0.0,0.0,0.25701204297011376,0.6125829434322295,0.2973519511188527,0.01078165690181669,-0.017302324568856484,0.14820499158169387
3377,10.0,299.98519,-3714.3047,0.0,0.03377000842862987,0.0,0.0,0.0,0.0,0.22698099200127975,0.6165126414275603,0.2855622593153007,-0.020163586810741083,-0.012717863345655387,0.15010024549624085
3378,10.0,299.97704,-3588.5972,0.0,0.033780004416049,0.0,0.0,0.0,0.0,0.2077188846852578,0.5992562424194864,0.28386880429066974,0.009018633341219811,-0.0015676388477889086,0.14689633854753986
3379,10.0,300.06052,-3745.7014,0.0,0.03379000040346836,0.0,0.0,0.0,0.0,0.2063885784964668,0.6035738834806044,0.32863723345896967,-0.017258314050762984,0.0040267085864051965,0.13911516546459787
3380,10.0,299.72267999999997,-3878.3869,0.0,0.03379999639088793,0.0,0.0,0.0,0.0,0.24799864630806073,0.6088078876671604,0.3221262403038847,0.017406162439104485,-0.0017176452561933884,0.12179100028983589
3381,10.0,300.36767000000003,-3671.1056,0.0,0.033809992378307285,0.0,0.0,0.0,0.0,0.23328637644607278,0.5920310194014125,0.29060702891318074,-0.016708809269781084,-0.004582151215623116,0.12965903930385086
3382,10.0,300.19972,-3507.4621,0.0,0.03382002135578399,0.0,0.0,0.0,0.0,0.2211639941046868,0.5808195995624315,0.26419731353674475,0.012084754285672386,0.009508238829290111,0.13033016550758586
3383,10.0,300.2006,-3585.6241,0.0,0.03383001734320312,0.0,0.0,0.0,0.0,0.2215919504169228,0.5819778153542384,0.2863704478600627,-0.013578201846564187,0.0015633723555928383,0.14237786118410087
3384,10.0,299.89328,-3836.9473,0.0,0.0338400133306227,0.0,0.0,0.0,0.0,0.23126457772653677,0.5991728620687574,0.33589874096312466,-0.006233444194318045,0.0015669712172980185,0.1140557882314299
3385,10.0,300.45078,-3835.7274,0.0,0.03385000931804183,0.0,0.0,0.0,0.0,0.20293817819593882,0.6256567878825174,0.33737037527586367,-0.02114711017930728,0.0007897074506230573,0.13004927231486388
3386,10.0,299.96162000000004,-3688.1052,0.0,0.03386000530546096,0.0,0.0,0.0,0.0,0.21656727356852581,0.5974145185077224,0.3071101068694077,0.0021313204162199477,0.0016851914634404487,0.11073073710077289
3387,10.0,300.4585,-3640.2797,0.0,0.033870001292880536,0.0,0.0,0.0,0.0,0.22644096009548279,0.5911330265002874,0.2889801646851217,0.0036833938172976663,-0.0014744429406911886,0.13447273721642586
3388,10.0,299.536,-3722.0555,0.0,0.03387999728029989,0.0,0.0,0.0,0.0,0.2620147626888437,0.5923770240455604,0.27702015567226074,0.018177716926500984,-0.01286989848341009,0.13709309316753487
3389,10.0,299.96412000000004,-3701.4015,0.0,0.03388999326771924,0.0,0.0,0.0,0.0,0.23486943787230877,0.5973680609906374,0.29289613314159774,0.005298108163407565,-0.004620121445895485,0.15869910127738185
3390,10.0,299.7018,-3587.6547,0.0,0.03390002224519595,0.0,0.0,0.0,0.0,0.2011440162438688,0.6006741238144204,0.28873931513635176,0.007147726509350683,0.006904876095608213,0.15162895618711286
3391,10.0,300.18896,-3493.2229,0.0,0.03391001823261508,0.0,0.0,0.0,0.0,0.18201232434821782,0.5916765541189294,0.2881636472245377,-0.012618767485875388,0.00865730957145993,0.14044624172346487
3392,10.0,300.41503,-3607.2106,0.0,0.033920014220034655,0.0,0.0,0.0,0.0,0.22257028391847677,0.5933028509269325,0.28062882563840874,-0.005217831195084845,0.0004472673595318515,0.13166083646641288
3393,10.0,300.52384,-3794.0001,0.0,0.03393001020745379,0.0,0.0,0.0,0.0,0.23846373995203876,0.6196123254709754,0.2952052389269887,-0.005533007198315295,-0.002419387622299968,0.14156736242911086
3394,10.0,300.25075,-3844.2812,0.0,0.03394000619487314,0.0,0.0,0.0,0.0,0.24174700464857177,0.6303752301531914,0.29644325829667173,0.009209232372480471,0.004410397825622375,0.14716121225618084
3395,10.0,300.34116,-3716.4494,0.0,0.033950002182292494,0.0,0.0,0.0,0.0,0.2057500890784528,0.6258526592593484,0.29810506952067967,-0.002202040713574498,-0.001030635546540809,0.14522303706739786
3396,10.0,299.91022000000004,-3604.2717,0.0,0.033959998169711625,0.0,0.0,0.0,0.0,0.1972222519968208,0.6006435337939015,0.2977428022124267,-0.014777537353929386,-0.009063774747749921,0.13699251796260886
3397,10.0,299.65642,-3619.0103,0.0,0.0339699941571312,0.0,0.0,0.0,0.0,0.2028533185000638,0.5898904981676594,0.3073449377125837,0.003939512842424647,-0.010716826120668389,0.11814663352266488
3398,10.0,299.61011,-3638.1620000000003,0.0,0.033980023134607906,0.0,0.0,0.0,0.0,0.21458896354328177,0.5875588577000445,0.3037625919840337,0.006034319676715984,0.0024982562743086976,0.1096024324519179
3399,10.0,299.69673,-3624.6058,0.0,0.03399001912202704,0.0,0.0,0.0,0.0,0.23348941150111077,0.5863055686513545,0.28199466650820676,0.019669196755698583,-0.0006990885222396653,0.13175670005837387
3400,10.0,300.21807,-3689.2957,0.0,0.03400001510944639,0.0,0.0,0.0,0.0,0.2469834609003698,0.5972346868799745,0.27723562330602575,-0.006004511074674103,0.001025470706806079,0.14399851418904686
3401,10.0,300.09904,-3836.9626,0.0,0.034010011096865744,0.0,0.0,0.0,0.0,0.24344297253345076,0.6207619185044314,0.30213592027349373,0.012707050953838289,-0.0023957352238906577,0.16354743207837485
3402,10.0,300.19428,-3982.8017,0.0,0.0340200070842851,0.0,0.0,0.0,0.0,0.25236786179926873,0.6283996153732134,0.3299047890690677,0.004872173589096095,0.003280328095093177,0.14986666095068785
3403,10.0,300.48731000000004,-3874.583,0.0,0.03403000307170445,0.0,0.0,0.0,0.0,0.2314666299289778,0.6225744709458164,0.3237353827876947,0.0007152383812110323,-0.0008099132078897102,0.12791926861714886
3404,10.0,300.08561000000003,-3559.1314,0.0,0.03403999905912358,0.0,0.0,0.0,0.0,0.2208637478350548,0.5850801946429194,0.27594314174346773,-0.017893451637446184,-0.012437717931507188,0.1134189200135759
3405,10.0,300.2617,-3428.3208,0.0,0.034049995046542936,0.0,0.0,0.0,0.0,0.18557489143481584,0.5784401336900964,0.27810890303721175,-0.0038931641484003863,-0.001150558458151279,0.1178795002663009
3406,10.0,299.69237000000004,-3518.6203,0.0,0.034060024024019864,0.0,0.0,0.0,0.0,0.2053785100017808,0.6018377604942624,0.26235644075506476,0.004854336030360665,0.014960477632984184,0.13257455500908985
3407,10.0,299.15278,-3793.4055,0.0,0.034070020011438995,0.0,0.0,0.0,0.0,0.2114542717089118,0.6260699406107925,0.3155763586099617,0.0006398842581016595,0.006848016654321624,0.14455716963168186
3408,10.0,299.43257,-3789.2602,0.0,0.03408001599885835,0.0,0.0,0.0,0.0,0.23569316967360476,0.6051071233994234,0.3110402000322777,-0.005005077754362715,0.0036242991462904764,0.14479757335040785
3409,10.0,299.94857,-3680.3872,0.0,0.0340900119862777,0.0,0.0,0.0,0.0,0.21618549106334678,0.6135964468447543,0.2889638614910127,-0.0077373595406679315,-0.01097750700039559,0.14647959891391085
3410,10.0,299.82077000000004,-3718.0061,0.0,0.034100007973697055,0.0,0.0,0.0,0.0,0.2225635356728108,0.5986785378749714,0.3089389321073987,0.015127997258767087,-9.424518127852521e-05,0.13401187054094188
3411,10.0,300.13327999999996,-3838.5218,0.0,0.03411000396111641,0.0,0.0,0.0,0.0,0.23115111398033877,0.6262267511962685,0.3094368938690437,0.014975653079731883,-0.008417595774727022,0.13859670565342985
3412,10.0,299.94603,-3857.2452,0.0,0.03411999994853554,0.0,0.0,0.0,0.0,0.23723449532822177,0.6207281772761014,0.3145435426505307,0.00967140218891808,0.0026834515414610473,0.1353191556874609
3413,10.0,300.28153,-3587.1947,0.0,0.03412999593595489,0.0,0.0,0.0,0.0,0.2037299115590768,0.5956671585777715,0.29102052614648977,-0.014670261526092087,0.002223483416165728,0.14162427668722788
3414,10.0,300.52913,-3396.5306,0.0,0.03413999192337425,0.0,0.0,0.0,0.0,0.1913383491961248,0.5863399786247504,0.2547821733425428,-0.008283735607991052,0.022137649291565878,0.13790733081539386
3415,10.0,300.22801,-3646.0657,0.0,0.03415002090085095,0.0,0.0,0.0,0.0,0.21492902040934278,0.5932628072829804,0.3001211129796477,-0.012806826704435387,0.0005134085365044775,0.11957525536865889
3416,10.0,299.89583,-3896.9398,0.0,0.034160016888270306,0.0,0.0,0.0,0.0,0.25813874668381076,0.6128780322588524,0.3135556136705297,-0.015493342820823885,0.0029423582202631475,0.11254629889495489
3417,10.0,299.77449,-3896.5007,0.0,0.03417001287568966,0.0,0.0,0.0,0.0,0.25107667719683874,0.6212213463647733,0.3121409037484087,-0.00923421881597144,-0.006207485132056084,0.12061281333855789
3418,10.0,299.73667,-3800.3078,0.0,0.03418000886310901,0.0,0.0,0.0,0.0,0.23963597912522974,0.6106950051834045,0.3048677134706007,0.0037335983332524663,0.0012995602290816089,0.1345715088361739
3419,10.0,299.84507,-3777.2911,0.0,0.034190004850528366,0.0,0.0,0.0,0.0,0.21415717714566782,0.6209420237097064,0.3131029644533567,0.0005926683942443164,-0.009354284494521001,0.15343528727288386
3420,10.0,299.52804,-3839.7436,0.0,0.0342000008379475,0.0,0.0,0.0,0.0,0.23841434400966374,0.6144407881530844,0.3143310438395587,0.01740800047478588,0.0015463808606909087,0.14333106608317486
3421,10.0,299.40098,-3707.8213,0.0,0.03420999682536685,0.0,0.0,0.0,0.0,0.23075461908370778,0.5915389952853534,0.3047914866655777,0.01050624539213569,0.006719939207231364,0.15129310430896686
3422,10.0,299.73003,-3407.8249,0.0,0.034219992812786204,0.0,0.0,0.0,0.0,0.1987799213755508,0.5808187686973494,0.25629500640434777,0.01988943578418448,0.01044074789242159,0.13354733590009588
3423,10.0,300.27473,-3310.0774,0.0,0.03423002179026291,0.0,0.0,0.0,0.0,0.17587592975510283,0.5727529432638145,0.2575519938159027,0.003929692017155406,-0.007803464787792013,0.14889824716761285
3424,10.0,300.34526,-3659.7141,0.0,0.03424001777768226,0.0,0.0,0.0,0.0,0.20711956751610983,0.6079357731735895,0.2974063727817237,-0.008012969039418472,0.004989746267099616,0.12779011975940288
3425,10.0,300.22832999999997,-3999.5752,0.0,0.03425001376510162,0.0,0.0,0.0,0.0,0.23289369136981777,0.6450147790555024,0.3378625311144357,-0.01096245010390959,-0.0013724123033215486,0.15071106305402385
3426,10.0,300.53504,-3938.8935,0.0,0.03426000975252097,0.0,0.0,0.0,0.0,0.2349183271896338,0.6266726217702724,0.3357343107368967,-0.025743025181638773,0.008195767868759312,0.13284766644104387
3427,10.0,300.17048,-3716.7498,0.0,0.034270005739940324,0.0,0.0,0.0,0.0,0.22960454982270478,0.6154947709071045,0.28469982136018473,-0.017363277641872083,-0.005331841691036805,0.14624165739292785
3428,10.0,300.32032999999996,-3759.5278,0.0,0.034280001727359455,0.0,0.0,0.0,0.0,0.25082739740723675,0.6035165233924434,0.28845864485865175,-0.006298841280947234,-0.0005555306806516094,0.12333279203949889
3429,10.0,299.91476,-3876.5049,0.0,0.03428999771477881,0.0,0.0,0.0,0.0,0.25574646319771077,0.6057716026825024,0.3168426375249337,0.027431853706313177,-0.01143605029340029,0.12797927328807088
3430,10.0,299.48163,-3798.4138,0.0,0.03429999370219816,0.0,0.0,0.0,0.0,0.23456942465019978,0.6116395265291213,0.3084139874955907,0.02209663090101768,-0.003062496447519867,0.13352492280788386
3431,10.0,299.90783,-3577.6538,0.0,0.03431002267967487,0.0,0.0,0.0,0.0,0.1925995922580998,0.5864233995054834,0.30849441928852867,0.014166759312900287,-0.015331052578807085,0.13202435007228888
3432,10.0,300.24839,-3488.9111,0.0,0.03432001866709444,0.0,0.0,0.0,0.0,0.2008690910942358,0.5844440964951414,0.2752286788329557,-0.012496638424822187,0.005898699899856354,0.13939494408220987
3433,10.0,299.39018,-3718.2065,0.0,0.034330014654513574,0.0,0.0,0.0,0.0,0.2359019903867138,0.5962306269583815,0.29810933530360073,0.0005998997372929944,0.013891480538982388,0.13494838721086888
3434,10.0,299.75486,-4041.7831,0.0,0.034340010641932706,0.0,0.0,0.0,0.0,0.28011285842248673,0.6371677953785654,0.31132049540744067,-0.025979921028518576,0.018763765585589485,0.1352000177407029
3435,10.0,299.79117,-3941.2881,0.0,0.03435000662935228,0.0,0.0,0.0,0.0,0.24877275925195974,0.6290395030763654,0.3202408959753157,-0.004105205578277246,0.0019002519733152682,0.13182970472807887
3436,10.0,300.13945,-3556.0613,0.0,0.03436000261677141,0.0,0.0,0.0,0.0,0.1922944317254828,0.5972764733140984,0.2913829251772557,-0.01279857783537129,0.007474851872335443,0.1300052162005159
3437,10.0,300.53873,-3562.6616,0.0,0.034369998604190766,0.0,0.0,0.0,0.0,0.16142528106893483,0.6155390702014765,0.30599582560193667,0.015879371857171982,-0.004802425910512535,0.14138966875907388
3438,10.0,300.48121000000003,-3860.6455,0.0,0.03437999459161012,0.0,0.0,0.0,0.0,0.2316596338080258,0.6178378104383444,0.3240424077004957,-0.0037948127234688567,0.0029020471796097572,0.13129139534745188
3439,10.0,300.03792999999996,-3835.1195,0.0,0.03439002356908705,0.0,0.0,0.0,0.0,0.24027465092826178,0.6174192368220344,0.3080866773157877,0.007268663582986243,-0.006930880450149644,0.13220182082730386
3440,10.0,300.66407000000004,-3470.6085,0.0,0.0344000195565064,0.0,0.0,0.0,0.0,0.2188090590172728,0.5818766423317534,0.2542926418217297,-0.002934033965391607,-0.0026328125438633675,0.13028858172348187
3441,10.0,300.32867000000005,-3424.1827,0.0,0.03441001554392553,0.0,0.0,0.0,0.0,0.1976389207029428,0.5886175115370254,0.25460959658551074,0.01057677165209609,9.247594223916492e-05,0.15534298389865886
3442,10.0,300.08268,-3769.6877,0.0,0.03442001153134466,0.0,0.0,0.0,0.0,0.2215064118434808,0.6209508288530754,0.3034336808690727,0.012014484377987288,-0.012785494750080088,0.14932335624706786
3443,10.0,299.61011,-3951.1138,0.0,0.034430007518764016,0.0,0.0,0.0,0.0,0.2212701117876598,0.6353683949234784,0.3444014393097757,0.023194452933864275,-0.010802994935672591,0.15363657953774987
3444,10.0,299.40559,-3826.0578,0.0,0.03444000350618337,0.0,0.0,0.0,0.0,0.23448466627933479,0.6136813673356355,0.3148600009217627,0.012994580934715288,0.011977734810110389,0.13989925892198188
3445,10.0,299.04615,-3582.0043,0.0,0.034449999493602945,0.0,0.0,0.0,0.0,0.21632974748008382,0.5990429127434325,0.2734671941966107,0.014161622134893286,0.011631284335918389,0.12493377786000387
3446,10.0,299.61989,-3567.4952,0.0,0.03445999548102208,0.0,0.0,0.0,0.0,0.23796505878282276,0.5888164733266614,0.25764793846787176,-0.007733767873038463,0.02009631612335198,0.12871777049095487
3447,10.0,299.24769,-3932.86,0.0,0.03446999146844121,0.0,0.0,0.0,0.0,0.2595415610497578,0.6132062543637454,0.3227434312047967,-0.016433891212898784,-0.008345323380869293,0.11175266062162889
3448,10.0,300.07285,-4048.4238,0.0,0.03448002044591836,0.0,0.0,0.0,0.0,0.25362112045045576,0.6359496053133393,0.3410490304264187,-0.013863605015481286,0.0037682555396728666,0.12872378919654887
3449,10.0,299.96664,-3791.8467,0.0,0.03449001643333749,0.0,0.0,0.0,0.0,0.1999464052881738,0.6225376798346854,0.3301426393975417,-0.02220340517005548,-0.004003451963484946,0.12675423365216887
3450,10.0,300.00388,-3569.2719,0.0,0.03450001242075662,0.0,0.0,0.0,0.0,0.1952925779763768,0.6012955501007504,0.28838139467102775,0.008540077142839992,0.00029913459241728575,0.14366125389326187
3451,10.0,300.59997999999996,-3653.9382,0.0,0.034510008408175974,0.0,0.0,0.0,0.0,0.22508304284146677,0.6011488213537693,0.2844741300329107,0.006725496681379843,-0.014291275591189088,0.13140347094101287
3452,10.0,300.36089,-3803.4424,0.0,0.03452000439559555,0.0,0.0,0.0,0.0,0.25226287895640775,0.6064358793155614,0.2974527593713017,0.03879090509811427,0.011800728123641187,0.13577065993202087
3453,10.0,299.55395,-3763.1746,0.0,0.0345300003830149,0.0,0.0,0.0,0.0,0.23658283365890778,0.6238891730830675,0.2834391051882617,0.03256691199410397,0.008650811598568632,0.14949505147651285
3454,10.0,300.05566,-3562.6308,0.0,0.034539996370434034,0.0,0.0,0.0,0.0,0.1882975147185178,0.6136793712329384,0.28097389809246476,0.01898057577573698,0.006400484350153624,0.16297342589672484
3455,10.0,299.41801,-3525.8355,0.0,0.034549992357853165,0.0,0.0,0.0,0.0,0.18639463103071782,0.5989834653600654,0.2863878453642797,-0.014327972470060787,-0.016470519190763682,0.15801989947034986
3456,10.0,299.81653,-3795.5172,0.0,0.03456002133533009,0.0,0.0,0.0,0.0,0.22422584338936777,0.6207228881105795,0.3087937333680687,-0.026025564905773273,0.011122404804445889,0.13547427414526989
3457,10.0,299.70021,-3989.5527,0.0,0.03457001732274945,0.0,0.0,0.0,0.0,0.26345238219572575,0.6272920722189074,0.32197995738694773,-0.02887257983800177,0.01094475571741329,0.13279217073306687
3458,10.0,299.66909,-3810.3442,0.0,0.03458001331016858,0.0,0.0,0.0,0.0,0.24871069768333479,0.6089016639639154,0.3006371308580747,-0.022888304482399775,0.002260739811742648,0.12228821224640687
3459,10.0,300.09424,-3467.3823,0.0,0.03459000929758793,0.0,0.0,0.0,0.0,0.19463778536425383,0.5849052367481524,0.2744546165515617,-0.012757950559361688,-0.0061849793274599335,0.13713480867415187
3460,10.0,300.27207000000004,-3587.696,0.0,0.034600005285007285,0.0,0.0,0.0,0.0,0.20284721873446182,0.5875378327604694,0.30018494773594767,0.026704259074505174,-0.0024282724071268275,0.13386393602634186
3461,10.0,300.04589,-3980.3715,0.0,0.03461000127242686,0.0,0.0,0.0,0.0,0.22630363430942976,0.6371945046512014,0.3464353868980107,0.03984833695547466,0.005969437726437634,0.13472194607852087
3462,10.0,300.15182999999996,-3985.5673,0.0,0.03461999725984599,0.0,0.0,0.0,0.0,0.25530772590441075,0.6378253744284634,0.3183798189866417,0.01847695399903338,0.005345051736565535,0.13901993008769886
3463,10.0,299.49179,-3709.9758,0.0,0.03462999324726512,0.0,0.0,0.0,0.0,0.22548645823628077,0.6089527419014564,0.2933008150990367,-0.0038635086484486167,-0.005350337862337235,0.12410090654280588
3464,10.0,299.8861,-3556.7495,0.0,0.03464002222474205,0.0,0.0,0.0,0.0,0.23586470278303376,0.5853494354594915,0.2599489078549598,-0.011105589919036388,-0.0038262830556747363,0.12359072498495488
3465,10.0,299.44149,-3806.847,0.0,0.034650018212161404,0.0,0.0,0.0,0.0,0.23843255211396078,0.6077015300154714,0.3110523590334777,-0.0034568189359364663,0.004334054800812905,0.12405207802048689
3466,10.0,299.39292,-4001.3798,0.0,0.034660014199580536,0.0,0.0,0.0,0.0,0.25016192513905977,0.6394641443451974,0.32669348539463666,-0.006000733576976294,-0.008645136587408552,0.15357546029171787
3467,10.0,300.02824,-3789.0103,0.0,0.03467001018699989,0.0,0.0,0.0,0.0,0.2222078038277028,0.6157818753229394,0.3137748404621657,-0.01028884853018029,-0.011807701310829389,0.14996548323294087
3468,10.0,300.10168999999996,-3501.7139,0.0,0.03468000617441924,0.0,0.0,0.0,0.0,0.1962972255830278,0.5865539567808684,0.28158241557252073,-0.0050744969372638555,-0.011905080724939988,0.14809649276098585
3469,10.0,300.07718,-3534.6333,0.0,0.034690002161838596,0.0,0.0,0.0,0.0,0.19239710435811583,0.5951830580774944,0.28686011110338877,-0.0006978885098812333,0.012058474631078788,0.14205326651456587
3470,10.0,300.79753999999997,-3811.3338,0.0,0.03469999814925795,0.0,0.0,0.0,0.0,0.24300207701743778,0.6187100667869294,0.29683816239064575,-0.003009414199956057,-8.781881477179221e-05,0.13289257368547588
3471,10.0,300.06282000000004,-3934.7604,0.0,0.03470999413667708,0.0,0.0,0.0,0.0,0.2330073273685328,0.6329102704458804,0.3301513128183977,0.003244344544291877,0.008025907736570423,0.12063272370302289
3472,10.0,300.01861,-3653.4704,0.0,0.03472002311415401,0.0,0.0,0.0,0.0,0.2090764169042358,0.6082728916143604,0.2932144659255147,-0.005646424841633745,3.0987132484941874e-05,0.14791601265317386
3473,10.0,299.52707000000004,-3606.6484,0.0,0.03473001910157336,0.0,0.0,0.0,0.0,0.19631507904978981,0.5996384606222085,0.3003775159174527,0.006193080464659453,0.007390559596516443,0.13561585558174286
3474,10.0,299.53551,-3876.8613,0.0,0.03474001508899249,0.0,0.0,0.0,0.0,0.2564800562701108,0.6329771753499834,0.28901178822074275,0.0013685673231670784,-0.01136172535881499,0.15357618983178983
3475,10.0,300.31784,-3936.4768,0.0,0.03475001107641207,0.0,0.0,0.0,0.0,0.24775722933923475,0.6253065985154563,0.3235268153871107,0.00968379271776593,0.004759111089937695,0.13294860641600587
3476,10.0,300.27072999999996,-3706.6354,0.0,0.0347600070638312,0.0,0.0,0.0,0.0,0.24938393144727777,0.5878634710776074,0.28947720438917574,0.016459473751423585,-0.01227694655139029,0.12814797942972087
3477,10.0,299.41714,-3629.9672,0.0,0.03477000305125055,0.0,0.0,0.0,0.0,0.20099255561892082,0.5928353879932975,0.3095914651717987,0.007984003968084843,-0.007308169191135142,0.12383846463440487
3478,10.0,299.62493,-3715.0283,0.0,0.034779999038669906,0.0,0.0,0.0,0.0,0.2211516831159718,0.6091439117978235,0.2989802642945547,0.008958377789573051,-0.007192224704717313,0.13925156919305987
3479,10.0,299.49613,-3963.9819,0.0,0.03478999502608904,0.0,0.0,0.0,0.0,0.2448036255627368,0.6289097665335615,0.3312381350081587,-0.013578400443583789,-0.004064232783983547,0.13622809168966588
3480,10.0,299.7295,-3987.2579,0.0,0.034800024003565966,0.0,0.0,0.0,0.0,0.26784809417704875,0.6280446232006784,0.3161341223925087,-0.008815008270648583,0.00949121024943452,0.14132717149290586
3481,10.0,299.41718,-3696.4035,0.0,0.0348100199909851,0.0,0.0,0.0,0.0,0.23836072281437176,0.6045787134722734,0.2806749183854577,-0.03213188623592027,0.016224632775746584,0.12726532713510988
3482,10.0,300.28229,-3627.4963,0.0,0.03482001597840467,0.0,0.0,0.0,0.0,0.21432432288216377,0.6235918247087214,0.26475213889400173,0.001922617544097578,0.00013614969652942885,0.13592490699474388
3483,10.0,300.24375,-3881.1699,0.0,0.034830011965824026,0.0,0.0,0.0,0.0,0.21852913854464678,0.6339305119715705,0.3273190964038797,-0.0009517258072405242,0.004637826471517836,0.13273404057482988
3484,10.0,300.50128,-3965.1364,0.0,0.03484000795324316,0.0,0.0,0.0,0.0,0.2359347892924508,0.6318398325102363,0.33752784447390466,0.04518276435944166,-0.0016442731820021286,0.14178492749058286
3485,10.0,300.30195,-3750.8333,0.0,0.03485000394066251,0.0,0.0,0.0,0.0,0.2125883417508358,0.6174747933250174,0.3100965399491457,0.014970721591495185,-0.004530244338175306,0.14782065568626285
3486,10.0,299.7907,-3628.2893,0.0,0.034859999928081864,0.0,0.0,0.0,0.0,0.2113672639228248,0.6016466817904045,0.2898954031029487,0.019160792438522985,-0.021771788998458278,0.15491544301896387
3487,10.0,299.99087000000003,-3753.7473,0.0,0.034869995915500995,0.0,0.0,0.0,0.0,0.23317796881787378,0.6107634907576635,0.2971040088193827,-0.02229893438948348,-0.0077859512664385615,0.14060609205924085
3488,10.0,299.92347,-3903.9559,0.0,0.03487999190292057,0.0,0.0,0.0,0.0,0.24899015206091477,0.6227219089678674,0.3149930507923937,-0.011269426380705789,-0.0061299262071266136,0.1324992198641549
3489,10.0,299.64644,-3897.1934,0.0,0.034890020880397055,0.0,0.0,0.0,0.0,0.22976656851369476,0.6137844959308134,0.34109841623629267,-0.01990926610189158,0.006166307762567194,0.12505010910398487
3490,10.0,299.97625,-3763.131,0.0,0.03490001686781663,0.0,0.0,0.0,0.0,0.23037644374888477,0.6204566971768084,0.29306473795823773,-0.002440551377138668,-0.007330598596673753,0.13575809563078087
3491,10.0,300.75321,-3673.3736,0.0,0.03491001285523598,0.0,0.0,0.0,0.0,0.2059323727714428,0.6203196753657854,0.29036182238898073,0.005451614742957485,0.008951217657741402,0.13832672516428487
3492,10.0,300.70066,-3793.5378,0.0,0.034920008842655115,0.0,0.0,0.0,0.0,0.24690351546747977,0.6192114026714074,0.2870258382897447,0.026949067391415876,0.0052580364524277955,0.14124472333226887
3493,10.0,300.91702999999995,-3916.5657,0.0,0.03493000483007447,0.0,0.0,0.0,0.0,0.26630172253693374,0.6265954729076585,0.2976409705773767,0.0001920893093752388,0.013222506478459788,0.13050863938019988
3494,10.0,300.45002,-3742.5944,0.0,0.0349400008174936,0.0,0.0,0.0,0.0,0.23538256798795076,0.6099337909132785,0.29233890638160376,0.0025335863801205076,0.00031222429423163867,0.1315873454366599
3495,10.0,300.31989,-3552.0892,0.0,0.034949996804913175,0.0,0.0,0.0,0.0,0.18987479048668282,0.5970918996758825,0.2927797208376087,-0.015397676812632384,0.0002888047204303067,0.13999870941929685
3496,10.0,300.13464,-3676.7947,0.0,0.03495999279233253,0.0,0.0,0.0,0.0,0.2074319525219398,0.5962997407477024,0.31392208596669774,-0.014699037828932088,-0.0014864512716013187,0.12692310191383488
3497,10.0,299.78256,-3892.1932,0.0,0.03497002176980901,0.0,0.0,0.0,0.0,0.23365529067498178,0.6161689875236444,0.3333052564046677,-0.005125040689352135,-0.005733914833443334,0.14331861323944586
3498,10.0,300.2241,-3962.0384,0.0,0.034980017757228365,0.0,0.0,0.0,0.0,0.2511242898190378,0.6286627057616785,0.3245737560529357,-0.006039710065922974,-0.017648836851304583,0.15660523007823285
3499,10.0,299.76776,-3747.5804,0.0,0.03499001374464794,0.0,0.0,0.0,0.0,0.23830216709109278,0.6028131758355284,0.29805552159078974,-0.0002777188118812127,-0.0012159846250583387,0.14387761318711484
3500,10.0,299.35786,-3576.6368,0.0,0.03500000973206707,0.0,0.0,0.0,0.0,0.2053437149933468,0.6158443421916044,0.2660202213941517,-1.123963074826519e-05,0.008633074655568132,0.14781183027789185
3501,10.0,299.77468999999996,-3701.9399,0.0,0.035010005719486426,0.0,0.0,0.0,0.0,0.21106121173011982,0.6092914207473814,0.3049446698156957,0.01739291115429668,0.015524314836630587,0.13452656106173788
3502,10.0,300.0589,-3972.6775,0.0,0.03502000170690556,0.0,0.0,0.0,0.0,0.24629405566483076,0.6416565642490724,0.3196441625939227,0.004269565383623296,0.0001048875770865979,0.14264212694268186
3503,10.0,300.39973,-3885.6017,0.0,0.03502999769432491,0.0,0.0,0.0,0.0,0.2251994146154518,0.6493004723409674,0.3066260165016317,-3.716143479079806e-05,-0.008549028700848442,0.14294565614263785
3504,10.0,300.47558,-3580.2477,0.0,0.035039993681744486,0.0,0.0,0.0,0.0,0.1998155440377588,0.6108998336911193,0.27759054455105375,-0.005867460689998285,-0.011952097556080187,0.15367607602664785
3505,10.0,300.24068,-3707.5476,0.0,0.03505002265922119,0.0,0.0,0.0,0.0,0.22125051553072578,0.6135771748278523,0.2921742127103497,-0.005615564182013036,0.004264320395805656,0.14509202382946784
3506,10.0,300.67971,-3947.8127,0.0,0.03506001864664032,0.0,0.0,0.0,0.0,0.24873039526527876,0.6281606808671324,0.3231454077844687,-0.000950134001465925,-0.005826574325938114,0.13336773731987087
3507,10.0,300.96865,-3904.3268,0.0,0.035070014634059676,0.0,0.0,0.0,0.0,0.23561936453632076,0.6134502348553245,0.3377482669006587,0.011035652357384091,0.004330517342063785,0.12926263559972886
3508,10.0,300.07247,-3732.4590000000003,0.0,0.03508001062147903,0.0,0.0,0.0,0.0,0.21812148776441478,0.6045787641347784,0.3118740947320767,0.0002706057049867037,0.014196361414571786,0.13965504538287984
3509,10.0,299.80437,-3722.2387,0.0,0.03509000660889838,0.0,0.0,0.0,0.0,0.2049244219694658,0.6195479232946194,0.30699528536807574,0.001981357273594738,0.002306329378791988,0.13867815069646786
3510,10.0,299.698,-3815.663,0.0,0.035100002596317514,0.0,0.0,0.0,0.0,0.24637068776989376,0.6146170328754784,0.2988785542495167,-0.01056109363329879,-0.012317772424419489,0.14256724776029187
3511,10.0,299.77574,-3953.0119,0.0,0.03510999858373687,0.0,0.0,0.0,0.0,0.25572596514818774,0.6356403613828193,0.3102505944943497,-0.014504845407516787,-0.02198524127777438,0.13976641170137086
3512,10.0,300.11335,-3866.5255,0.0,0.03511999457115622,0.0,0.0,0.0,0.0,0.24298993828123974,0.6229036049757994,0.3094336514687237,-0.007167503226127494,-0.007966559347738192,0.12726629985520588
3513,10.0,299.7219,-3658.3852,0.0,0.03513002354863315,0.0,0.0,0.0,0.0,0.2032434299210648,0.6153154965669114,0.29349881430107777,-0.0044588573222549555,0.00954287445348338,0.14084421596524188
3514,10.0,299.7703,-3636.7569,0.0,0.03514001953605228,0.0,0.0,0.0,0.0,0.20023281056143982,0.6077977583774684,0.2974527289737987,-0.0032546976298386474,0.008024606824767033,0.13988590428566386
3515,10.0,300.23034,-3945.2354,0.0,0.035150015523471634,0.0,0.0,0.0,0.0,0.23279010681209478,0.6373643355004623,0.3290986168920047,0.005493936781084344,0.0013420394222989787,0.14655578518892984
3516,10.0,300.29875,-4023.8987,0.0,0.03516001151089099,0.0,0.0,0.0,0.0,0.2509522399520578,0.6409935136486344,0.3312189744487677,0.0027405082625421074,0.0026065608549725276,0.14139688309978585
3517,10.0,299.68643,-3729.3501,0.0,0.03517000749831034,0.0,0.0,0.0,0.0,0.2244125144552908,0.6160522307146215,0.2931645836230917,0.0014386782519114885,-0.008096845072096391,0.14705106183780986
3518,10.0,299.76416,-3603.4502,0.0,0.035180003485729694,0.0,0.0,0.0,0.0,0.20352357330871282,0.6105472834513254,0.28128802588846674,-0.012130637289950688,-0.011391525044255989,0.15056555020716286
3519,10.0,299.33996,-3677.1788,0.0,0.035189999473148825,0.0,0.0,0.0,0.0,0.2250106157243188,0.6013386030974994,0.29142130709104375,-0.012208967602181289,-0.015116917368923587,0.14986538425556187
3520,10.0,299.3557,-3842.9927,0.0,0.03519999546056818,0.0,0.0,0.0,0.0,0.22530132731050978,0.6292947813065594,0.3135776923902087,0.004171767497221396,-0.00015314448449418384,0.14269440051534088
3521,10.0,299.30537000000004,-3952.2071,0.0,0.03521002443804511,0.0,0.0,0.0,0.0,0.24276112614365777,0.6558464732870073,0.3027646723580467,-0.00034327203021831173,0.004763226303893836,0.15477660749026184
3522,10.0,300.10744,-3838.8958,0.0,0.03522002042546424,0.0,0.0,0.0,0.0,0.2425975065175098,0.6178825859602634,0.3064483836266007,0.0010626017633456292,0.00879656701750357,0.13645917350747186
3523,10.0,300.15064,-3710.7472,0.0,0.03523001641288359,0.0,0.0,0.0,0.0,0.22135864958139778,0.6223592059620714,0.28425663589894573,0.003575003718325397,0.0039362754070301365,0.14534087805402787
3524,10.0,300.51052000000004,-3793.2859,0.0,0.035240012400302945,0.0,0.0,0.0,0.0,0.2291809099558948,0.6087454207984954,0.31513787462918674,0.014497992797090485,0.014677717020327885,0.1146490360324789
3525,10.0,300.32647000000003,-3958.6381,0.0,0.0352500083877223,0.0,0.0,0.0,0.0,0.23941491835091278,0.6241214100059874,0.33979080684974167,0.012738100989902686,0.001018571081575139,0.13197854103526788
3526,10.0,300.03405,-3854.1087,0.0,0.03526000437514165,0.0,0.0,0.0,0.0,0.22403893927592178,0.6193491742875045,0.3281646840098327,0.0016249362157687184,-0.01078089291124129,0.1252631956000149
3527,10.0,299.75568,-3591.8422,0.0,0.03527000036256078,0.0,0.0,0.0,0.0,0.2033327073873758,0.5965276612251964,0.2919699718876927,-0.019697131047705478,-0.003998306780802156,0.14815227217899088
3528,10.0,299.85384,-3639.5167,0.0,0.035279996349980136,0.0,0.0,0.0,0.0,0.21929566224529679,0.6038235077752404,0.28320303817996373,-0.01072641551961479,-0.0004785983901139836,0.13618736916814686
3529,10.0,299.73341,-3910.2105,0.0,0.03528999233739949,0.0,0.0,0.0,0.0,0.25006454167194875,0.6221393610878745,0.3164024512839907,2.7910228330275072e-05,-0.005162407731839975,0.15527070876902585
3530,10.0,299.41766,-4036.5491,0.0,0.035300021314876195,0.0,0.0,0.0,0.0,0.2569446922359668,0.6411299680396014,0.3289354734934037,-0.008650191388182422,-0.014039370470577985,0.13557361318507385
3531,10.0,299.26739,-3853.423,0.0,0.03531001730229555,0.0,0.0,0.0,0.0,0.23738746569581878,0.6338024878214354,0.30015442864293573,0.013426396716582186,-0.01118090581221949,0.14620313362412587
3532,10.0,298.83075,-3688.3315,0.0,0.03532001328971468,0.0,0.0,0.0,0.0,0.2029716357142408,0.6139730313769204,0.30421601127128267,0.005408912533393105,0.016365079372107585,0.14241938417319885
3533,10.0,298.9943,-3693.9025,0.0,0.035330009277134256,0.0,0.0,0.0,0.0,0.2191933543826998,0.6175953700869173,0.28606539878495674,0.01315738793428309,0.025307900124945274,0.14904104450420586
3534,10.0,299.51363,-3803.1561,0.0,0.03534000526455361,0.0,0.0,0.0,0.0,0.2237555838854568,0.6270306232956043,0.3052782621461187,-0.01741681068440538,0.016603372490875283,0.14058890733754487
3535,10.0,299.76026,-3751.4269,0.0,0.03535000125197274,0.0,0.0,0.0,0.0,0.2303584078971048,0.6020153123092854,0.3079663842639157,-0.015212874179893787,0.0019495871206842682,0.12991917100202385
3536,10.0,299.73692,-3558.9251,0.0,0.035359997239392094,0.0,0.0,0.0,0.0,0.2018967800081608,0.5914609344976495,0.28846664953444173,-0.015084894612763185,-0.0027145067451009577,0.14253710356981686
3537,10.0,300.15485,-3652.4320000000002,0.0,0.035369993226811225,0.0,0.0,0.0,0.0,0.1990716462118418,0.6098058275581494,0.3013706428704667,-0.0024533247118742976,-0.0070186537466871935,0.15039662115049085
3538,10.0,299.89275,-4035.6679999999997,0.0,0.03538002220428815,0.0,0.0,0.0,0.0,0.2380286098290948,0.6472119713673484,0.34150172017359565,0.003283901220245817,-0.012918921549748288,0.15075906071126086
3539,10.0,300.0253,-4158.2673,0.0,0.035390018191707506,0.0,0.0,0.0,0.0,0.2816242931991537,0.6616854485782693,0.3206996956205957,0.016207484531054184,-0.009428945524164472,0.14825319188895086
3540,10.0,299.44881000000004,-3880.5401,0.0,0.03540001417912664,0.0,0.0,0.0,0.0,0.25022014648980573,0.6168687076452014,0.3124984594436967,-0.0043301639204289056,0.008825354364769661,0.14341305828126685
3541,10.0,299.63822000000005,-3641.5178,0.0,0.03541001016654621,0.0,0.0,0.0,0.0,0.2225280111243048,0.6152945729523465,0.2691078984238817,0.015284192801432384,0.008382613213699512,0.13654784302372286
3542,10.0,299.13662999999997,-3755.598,0.0,0.035420006153965566,0.0,0.0,0.0,0.0,0.21518996270759577,0.6208329372039405,0.3055851046739017,-0.014210932964259886,-0.01013128226277971,0.12305138208922589
3543,10.0,299.71485,-3958.6731,0.0,0.0354300021413847,0.0,0.0,0.0,0.0,0.23391474349558775,0.6382645474193064,0.3311584732852967,0.008389669588720922,-0.012619859769483186,0.13247032197130287
3544,10.0,300.47676,-3948.2725,0.0,0.03543999812880405,0.0,0.0,0.0,0.0,0.22319493234012477,0.6522077807203964,0.3247735385751527,0.0006098960574795544,-0.008623355155308892,0.13959584117953686
3545,10.0,300.57975,-3720.6487,0.0,0.03544999411622318,0.0,0.0,0.0,0.0,0.2266893178274938,0.6123536145370965,0.29194136783736974,0.00912017498409119,0.01985070632561218,0.14526158110120188
3546,10.0,300.11465,-3711.3987,0.0,0.03546002309370011,0.0,0.0,0.0,0.0,0.20840232187770777,0.6194820215081154,0.30028817765613575,-0.007894565395007942,0.007649724755419054,0.15085767021099286
3547,10.0,300.22896000000003,-3971.4604,0.0,0.035470019081119464,0.0,0.0,0.0,0.0,0.2572306111491848,0.6391668466333563,0.3108273465837707,-0.005821532596090535,0.015101288999381185,0.14473443773667685
3548,10.0,300.03697999999997,-4098.4879,0.0,0.03548001506853882,0.0,0.0,0.0,0.0,0.24964734607577474,0.6409287669672444,0.3552618693141167,-0.007950022396831121,0.01209815147849459,0.1306241397590989
3549,10.0,300.10586,-3788.3576,0.0,0.03549001105595817,0.0,0.0,0.0,0.0,0.2139998599351418,0.6315062401798134,0.30606000486327073,0.015598919428243487,-0.014408397170248088,0.15015466715911185
3550,10.0,299.58717,-3564.7996,0.0,0.0355000070433773,0.0,0.0,0.0,0.0,0.17512662117365183,0.6105952304460575,0.2978882137342777,-0.00938678003317806,-0.023061874224529776,0.13228623469313489
3551,10.0,299.78952999999996,-3782.1329,0.0,0.035510003030796655,0.0,0.0,0.0,0.0,0.24468916883144076,0.6183443544283365,0.2866404384817087,-0.005249424130552825,-0.03591687894471996,0.14786104383524884
3552,10.0,300.16514,-3972.486,0.0,0.03551999901821601,0.0,0.0,0.0,0.0,0.2550620127551607,0.6415360077521743,0.3109385305172437,-0.006398716836679183,-0.015060555332111087,0.13818886235567887
3553,10.0,299.77692,-3815.9833,0.0,0.03552999500563514,0.0,0.0,0.0,0.0,0.2500546624834738,0.6112600339691684,0.2986489416443557,-0.008160738596902192,0.010043388389480259,0.14950751445274285
3554,10.0,299.50457,-3655.23,0.0,0.03554002398311207,0.0,0.0,0.0,0.0,0.18645398722157583,0.6223595707321073,0.3022850808207147,0.01039787221444009,0.003927393965928606,0.12840817192289988
3555,10.0,298.96772999999996,-3722.8775,0.0,0.03555001997053142,0.0,0.0,0.0,0.0,0.2016178018581278,0.6245600459742774,0.3054839417839177,0.011056148380406888,0.0026769262108170475,0.14765239537465685
3556,10.0,298.88142999999997,-3935.0816,0.0,0.035560015957950775,0.0,0.0,0.0,0.0,0.21771345194914477,0.6362734704428025,0.3421796250204997,0.013153845611933489,0.01249132291479759,0.1311797959814379
3557,10.0,299.58625,-4029.0959,0.0,0.03557001194537013,0.0,0.0,0.0,0.0,0.26469223554808974,0.6473339970768913,0.3127183245828957,0.0061245895201749246,0.005823340132943926,0.14514411501710886
3558,10.0,299.9466,-3901.5039,0.0,0.03558000793278926,0.0,0.0,0.0,0.0,0.24304961871212974,0.6275395078933275,0.3153706485746597,-0.016851641056877482,0.00015730257919455585,0.14157474902233985
3559,10.0,299.84308,-3740.1494,0.0,0.03559000392020861,0.0,0.0,0.0,0.0,0.24660678517569476,0.6122275256946524,0.27807770506663276,-0.02923099476937457,-0.006820780187658594,0.15091543559919385
3560,10.0,300.70072999999996,-3835.9955,0.0,0.035599999907627966,0.0,0.0,0.0,0.0,0.21741847458003277,0.6289524344952724,0.31967594824955964,-0.016125877368000183,-0.002058949230477468,0.14638130352170986
3561,10.0,299.92311,-3973.2666,0.0,0.03560999589504732,0.0,0.0,0.0,0.0,0.24730218885182578,0.6311400819911763,0.3293315732224957,0.005073819174271965,0.008546715856170181,0.1383643978030029
3562,10.0,299.76167999999996,-3822.4327,0.0,0.03561999188246667,0.0,0.0,0.0,0.0,0.2189077495770128,0.6347153653665294,0.3083009594469357,0.02086160669863028,0.0007870327540690852,0.14119864071772087
3563,10.0,300.24748,-3550.8892,0.0,0.03563002085994338,0.0,0.0,0.0,0.0,0.20893468348024782,0.6054446572727354,0.26500230021119076,0.019010968212486483,-0.01127762256076469,0.15032341383076586
3564,10.0,300.65166,-3655.5919,0.0,0.03564001684736273,0.0,0.0,0.0,0.0,0.21464025426334382,0.6136157897891634,0.28295259315274673,0.016188136520394684,-0.00047265752239266555,0.15759701954111485
3565,10.0,300.29767999999996,-3911.7164,0.0,0.035650012834782085,0.0,0.0,0.0,0.0,0.2435007075241488,0.6485879954006514,0.29697539698418973,0.008583196406145532,0.011301181638839789,0.15777962747413685
3566,10.0,300.23717,-3887.6003,0.0,0.03566000882220122,0.0,0.0,0.0,0.0,0.2141874125286518,0.6358567105441714,0.33168931501268667,-0.006066529276194823,0.00953259766566914,0.13854533387335988
3567,10.0,300.38652,-3738.3312,0.0,0.03567000480962057,0.0,0.0,0.0,0.0,0.2051645217131618,0.6217768809971004,0.3094179460921737,-0.011970702854416388,0.00990628460652417,0.13599270355893486
3568,10.0,300.82641,-3625.9390000000003,0.0,0.035680000797039924,0.0,0.0,0.0,0.0,0.20596822155998082,0.6066911980757594,0.2895354966674287,-0.026547980445331677,-0.0008482974825504432,0.13182268290488586
3569,10.0,300.33463,-3825.0075,0.0,0.03568999678445928,0.0,0.0,0.0,0.0,0.24370179713899476,0.6243403936175994,0.29466458893863073,-0.003466713728463007,0.006838161479873993,0.14142705768776387
3570,10.0,299.78135,-4077.7263,0.0,0.03569999277187863,0.0,0.0,0.0,0.0,0.27665248774097473,0.6385578934557573,0.3243165931775557,-0.006391176533410014,-0.007230737327768214,0.14063289252438585
3571,10.0,300.09769,-4006.4497,0.0,0.035710021749355336,0.0,0.0,0.0,0.0,0.26285277118404876,0.6462270922701484,0.3087808144292937,0.0069708465804689925,0.0029679902053928275,0.14791768451583887
3572,10.0,300.0047,-3679.0017,0.0,0.03572001773677469,0.0,0.0,0.0,0.0,0.2025650589791148,0.6137855801084204,0.3019740231725157,0.005206055506397675,0.008176333022566241,0.15275074563782487
3573,10.0,299.98172,-3684.0799,0.0,0.03573001372419404,0.0,0.0,0.0,0.0,0.2164221660217048,0.6178051027251165,0.2856410192455737,0.007814431700249364,0.02244326072047738,0.13549303953712186
3574,10.0,299.61881,-3826.5222,0.0,0.035740009711613174,0.0,0.0,0.0,0.0,0.21978013764811077,0.6291034999526814,0.3142835629398727,-0.008748082088293481,0.001867870425294458,0.14052897359412986
3575,10.0,300.06261,-3785.9858,0.0,0.035750005699032306,0.0,0.0,0.0,0.0,0.22734389765709578,0.6164984559261605,0.3070027834188157,-0.0025262794283493675,-0.007786719613989392,0.13294605302575388
3576,10.0,300.13394,-3728.2704,0.0,0.03576000168645188,0.0,0.0,0.0,0.0,0.2105096389056838,0.6273819171052745,0.29540956080965375,-0.007182135266846562,-0.01846948431929618,0.14741161675339387
3577,10.0,300.29311,-3758.4319,0.0,0.035769997673871234,0.0,0.0,0.0,0.0,0.2228488061059648,0.6185466194132984,0.3010740139036917,-0.0038605916027357264,0.0004516708938039466,0.14262063590806087
3578,10.0,299.63439,-3894.4085,0.0,0.03577999366129059,0.0,0.0,0.0,0.0,0.2170671706378618,0.6404173289792694,0.3263184410026227,0.003736655004829137,-0.01056062449850249,0.14278455950923885
3579,10.0,299.79222000000004,-4040.8003,0.0,0.035790022638767294,0.0,0.0,0.0,0.0,0.25245123201749675,0.6427834098177834,0.3330677303162257,-0.0015221274023222786,0.01997960288408328,0.13409855408699686
3580,10.0,299.77544,-4088.1974,0.0,0.03580001862618665,0.0,0.0,0.0,0.0,0.2598854480011968,0.6511140785624564,0.33171040074726765,0.01114349155227699,0.006494489134806174,0.13540703486863387
3581,10.0,299.31714,-3893.7831,0.0,0.035810014613606,0.0,0.0,0.0,0.0,0.2500150241395618,0.6364575779859725,0.2971402527754597,-0.008265005882542571,0.01076230990440729,0.13865059029374788
3582,10.0,299.59853,-3725.1947,0.0,0.03582001060102513,0.0,0.0,0.0,0.0,0.22556498511903078,0.6140373828907714,0.29276379254603674,-0.016371438529735185,-0.011717177546895389,0.14329376834699387
3583,10.0,300.34418999999997,-3901.7572,0.0,0.035830006588444485,0.0,0.0,0.0,0.0,0.2389790080253918,0.6368402926812433,0.3102174713485807,-0.016213726151670185,-0.003865765055096306,0.14241605058036988
3584,10.0,300.44208,-3958.4271,0.0,0.03584000257586384,0.0,0.0,0.0,0.0,0.23242273272333777,0.6427695181589124,0.32807073546056065,-0.004289226792538726,0.001073790273599849,0.13823660670039087
3585,10.0,300.18144,-3725.5423,0.0,0.03584999856328319,0.0,0.0,0.0,0.0,0.2184461026989518,0.6139597983306144,0.3000659111141997,-0.00026264527782857074,0.019463258739124082,0.14462391241576886
3586,10.0,299.85402999999997,-3664.5759,0.0,0.035859994550702545,0.0,0.0,0.0,0.0,0.2030667393686268,0.6204578928119263,0.2904149572242247,0.016518435787992683,0.0053142499467756345,0.14058038590420385
3587,10.0,300.15168,-3908.6567,0.0,0.03587002352817925,0.0,0.0,0.0,0.0,0.25012237798765674,0.6275858843504044,0.31042577530413873,0.008973914561306412,0.003632768093276296,0.1328919049404099
3588,10.0,300.31447000000003,-4031.8895,0.0,0.035880019515598605,0.0,0.0,0.0,0.0,0.24781097212453876,0.6419364948541993,0.33584627487294666,0.014093948173964387,-0.015817402494306087,0.14364698733185388
3589,10.0,300.33856000000003,-4021.7109,0.0,0.03589001550301796,0.0,0.0,0.0,0.0,0.25480920685521075,0.6446349622555174,0.3230555325005987,-0.004087491230753976,-0.013690117346609387,0.14728389657828886
3590,10.0,300.59721,-3855.4364,0.0,0.03590001149043709,0.0,0.0,0.0,0.0,0.2217846199234378,0.6214048763553864,0.3287668990742667,-0.010078248752545711,-0.02136436315974848,0.14738996359875686
3591,10.0,299.92037,-3609.6436,0.0,0.03591000747785644,0.0,0.0,0.0,0.0,0.2197011041403108,0.6019627347615965,0.27557769282990074,-0.019815219267359883,-0.006850270730494084,0.13943750058640988
3592,10.0,300.00428999999997,-3801.7583,0.0,0.035920003465275796,0.0,0.0,0.0,0.0,0.2271015890281818,0.6288633495464805,0.29967464458808474,0.0014000935867784787,-0.004395907943892336,0.14025797985488486
3593,10.0,299.96476,-4023.2248,0.0,0.03592999945269515,0.0,0.0,0.0,0.0,0.26834197254079073,0.6394073314120904,0.3152105854563627,0.00948166208976719,0.00977541869515871,0.14131595481429887
3594,10.0,299.50138,-3848.3238,0.0,0.0359399954401145,0.0,0.0,0.0,0.0,0.2198886263363178,0.6423010622401794,0.30760464384571473,0.013699911422075989,-0.001075911107384159,0.14858640931683686
3595,10.0,299.98701,-3670.778,0.0,0.03595002441759121,0.0,0.0,0.0,0.0,0.2086204340942338,0.6117392303389614,0.29546519837264473,0.01044773019886069,0.005478980702983295,0.15205452122911287
3596,10.0,300.24111,-3931.73,0.0,0.03596002040501034,0.0,0.0,0.0,0.0,0.2251787037834078,0.6429841751925973,0.3269848758583947,0.014849252156257087,0.008547018210000023,0.15159626873888685
3597,10.0,299.55174,-4095.0989,0.0,0.035970016392429915,0.0,0.0,0.0,0.0,0.25959530383506174,0.6423292103279574,0.34288329681744667,-0.00044883192914376254,0.012623010977294187,0.13673560839975388
3598,10.0,299.79028999999997,-3882.5522,0.0,0.03598001237984905,0.0,0.0,0.0,0.0,0.22985689976010978,0.6389901459484174,0.31135187576303774,0.003945553738195837,-0.007923038837393053,0.13686426076495087
3599,10.0,299.85507,-3793.1599,0.0,0.0359900083672684,0.0,0.0,0.0,0.0,0.22730544481580078,0.6245715767604154,0.30114887282107966,-0.01391915645221379,-0.0023093877728938275,0.13067746711186187
3600,10.0,300.17302,-3794.4319,0.0,0.036000004354687754,0.0,0.0,0.0,0.0,0.2168411348055538,0.6237432752011685,0.3128281507612347,0.0008601184939145862,-0.02172158346925338,0.13491665221773685
3601,10.0,300.62897999999996,-3809.3408,0.0,0.036010000342106885,0.0,0.0,0.0,0.0,0.21952746347067378,0.6432040605967984,0.2952129700252517,0.008166110646282372,-0.01791807564137638,0.15608563542695286
3602,10.0,300.22884,-3935.1728,0.0,0.03601999632952646,0.0,0.0,0.0,0.0,0.23370686510507177,0.6436695679577403,0.3188178470048717,0.013187692218273888,-0.02002155549122368,0.14604029420055487
3603,10.0,300.19801,-3913.2905,0.0,0.03602999231694559,0.0,0.0,0.0,0.0,0.24932778725923674,0.6320848769144204,0.30812991269755474,0.02002141971571028,0.01206590682056229,0.14108162046367187
3604,10.0,299.66272999999995,-3704.0257,0.0,0.0360400212944223,0.0,0.0,0.0,0.0,0.23768597930777977,0.6141535418822355,0.2740917919557538,0.018408460318773585,0.022828269413974776,0.15636209058423686
3605,10.0,299.11035,-3803.3366,0.0,0.03605001728184165,0.0,0.0,0.0,0.0,0.2382331951567858,0.6204129247724883,0.2974732270233217,-0.001793417111921488,0.025108179410984376,0.14570486788745088
3606,10.0,299.74791,-3975.7954,0.0,0.036060013269261226,0.0,0.0,0.0,0.0,0.24068592914385178,0.6381945926324024,0.3296619940801057,-0.004850729771929755,0.0025892766321167077,0.14442832474896586
3607,10.0,299.95772,-3893.7551,0.0,0.03607000925668036,0.0,0.0,0.0,0.0,0.21952255934018977,0.6336125540901905,0.3304692099047717,-0.00843902773686719,0.005690316505490515,0.12836240341588287
3608,10.0,300.02966000000004,-3776.5344,0.0,0.03608000524409971,0.0,0.0,0.0,0.0,0.2059510672357878,0.6308133898939344,0.31120770040630874,-0.017668622586007283,-0.008171063514096182,0.13935186068795788
3609,10.0,300.60745,-3825.9440000000004,0.0,0.03609000123151884,0.0,0.0,0.0,0.0,0.2338492875391278,0.6276690721836145,0.3014730824555767,-0.01045341453192169,-0.019097016450728782,0.13483533889721186
3610,10.0,300.33565,-3905.8309,0.0,0.036099997218938196,0.0,0.0,0.0,0.0,0.25348205187423073,0.6335437544084004,0.3002492587197947,-0.0017262199864896484,-0.005925180684594805,0.15081944028471989
3611,10.0,299.88722,-3903.8867,0.0,0.03610999320635755,0.0,0.0,0.0,0.0,0.24830129398042972,0.6310214608019693,0.3073613219667007,0.009829809251251641,0.02422791534685908,0.14346836147172484
3612,10.0,299.69136000000003,-3842.6168,0.0,0.036120022183834255,0.0,0.0,0.0,0.0,0.22660364753153878,0.6420065408336123,0.2994493686933517,0.016066522190392285,0.02219133229511398,0.16501390894810486
3613,10.0,299.60605,-3847.5033,0.0,0.03613001817125361,0.0,0.0,0.0,0.0,0.2146965605714008,0.6385436978218564,0.3163046827818417,-0.004995419150434484,0.0023043417873958275,0.15180728820471284
3614,10.0,299.38948999999997,-3790.4186,0.0,0.03614001415867296,0.0,0.0,0.0,0.0,0.2137659308845548,0.6408575760152183,0.29756910074778375,0.007495602322458353,-0.021535572029145477,0.15913395782279885
3615,10.0,299.6574,-3943.2168,0.0,0.036150010146092315,0.0,0.0,0.0,0.0,0.2376990704990718,0.6397236072983044,0.32121675714662573,0.011469633454714688,-0.00887405450830099,0.13921985446492985
3616,10.0,299.80127999999996,-4096.0223,0.0,0.03616000613351167,0.0,0.0,0.0,0.0,0.26245994425277974,0.6536166948519454,0.32901187255094366,0.011745211137412089,-0.004491289532780766,0.13495024145855186
3617,10.0,299.76254,-3907.1243,0.0,0.0361700021209308,0.0,0.0,0.0,0.0,0.24309444489655377,0.6330383553910214,0.3115354462836547,-0.0051871721722340355,-0.007969564850184812,0.14306962729237285
3618,10.0,300.39583999999996,-3835.7452,0.0,0.03617999810835015,0.0,0.0,0.0,0.0,0.2065755636699208,0.6381399379220084,0.3212552707829267,-0.016559565636051883,-0.006047758615442305,0.14331436772152686
3619,10.0,300.59779,-3955.2444,0.0,0.03618999409576973,0.0,0.0,0.0,0.0,0.2132006285212638,0.6490664014353663,0.34002848492569865,-0.005902013734308405,0.015435122483327984,0.13810214841212087
3620,10.0,299.92015,-3962.4185,0.0,0.03620002307324621,0.0,0.0,0.0,0.0,0.23035970485723278,0.6471895684076373,0.3269269888801817,0.001787731461635358,0.017721243703450584,0.13098923403513085
3621,10.0,299.55886,-3809.9615,0.0,0.036210019060665566,0.0,0.0,0.0,0.0,0.23946813424616478,0.6260895166027244,0.2925755002799537,0.004338470443423696,-0.003649871147014236,0.14297561794809488
3622,10.0,299.47721,-3772.033,0.0,0.03622001504808492,0.0,0.0,0.0,0.0,0.25064594457932876,0.6158365199008324,0.28012135959082574,-0.0026664042164786074,-0.01992314458851128,0.13771425600883888
3623,10.0,299.76218,-3738.9185,0.0,0.03623001103550427,0.0,0.0,0.0,0.0,0.2480874374143238,0.6100686241040854,0.2783818016866447,-0.004012095189487966,-0.0012025672685591487,0.15098452912351287
3624,10.0,300.07511,-3895.9333,0.0,0.036240007022923626,0.0,0.0,0.0,0.0,0.22960718427296478,0.6416612555970354,0.3129980120079987,0.006891429050881093,0.007942970682760172,0.15660887777859286
3625,10.0,299.97819,-4026.6533,0.0,0.03625000301034276,0.0,0.0,0.0,0.0,0.24106488468125176,0.6427451190965043,0.3401920538893417,-6.966581709473083e-05,-0.0027208425979762573,0.15011319483251886
3626,10.0,300.02519,-3896.653,0.0,0.03625999899776211,0.0,0.0,0.0,0.0,0.2229348614369578,0.6304295808885554,0.33112076011657465,0.005285063176320126,-0.007613827026901223,0.13950716153078488
3627,10.0,300.35517000000004,-3786.1098,0.0,0.036269994985181464,0.0,0.0,0.0,0.0,0.21550081770577478,0.6232429019042854,0.3121391305607337,0.007810537273490012,-0.013796965582904486,0.13425701627013586
3628,10.0,300.28112000000004,-3912.3276,0.0,0.03628002396265817,0.0,0.0,0.0,0.0,0.24879524327167876,0.6281359778296944,0.31231867847845374,0.016225340024316384,0.0031661728057019267,0.13105253176887788
3629,10.0,300.23221,-4005.6592,0.0,0.036290019950077745,0.0,0.0,0.0,0.0,0.26055717202249074,0.6409486368017054,0.3161145565330777,-0.002251082727689568,-0.008363647907602783,0.13961000641593485
3630,10.0,299.78797000000003,-3851.7893,0.0,0.03630001593749688,0.0,0.0,0.0,0.0,0.2087532711823438,0.6402918379543844,0.3218026690169507,-0.018988521683021183,0.0005836264543269465,0.15298961934889987
3631,10.0,299.56232,-3741.3546,0.0,0.03631001192491623,0.0,0.0,0.0,0.0,0.2054385856002098,0.6316817249646325,0.3001580560782937,-0.012715963501717886,0.018178147557793484,0.15245936530656784
3632,10.0,300.49365,-3863.8669,0.0,0.03632000791233558,0.0,0.0,0.0,0.0,0.22309738675299776,0.6395067008493974,0.3119149489761087,-0.019448491632166682,0.027632526875368074,0.14098962748709287
3633,10.0,300.42301000000003,-3990.4803,0.0,0.036330003899754715,0.0,0.0,0.0,0.0,0.25694921133141274,0.6413093437048043,0.31474781387069073,-0.0002872054166049677,0.002298625131656638,0.14616710245056985
3634,10.0,299.66192,-4013.1813,0.0,0.03633999988717407,0.0,0.0,0.0,0.0,0.27205120757936374,0.6413312197744634,0.3065244584441087,0.0010174738330418491,-0.01050008584477779,0.14940052537468385
3635,10.0,299.88365,-3975.0766,0.0,0.03634999587459342,0.0,0.0,0.0,0.0,0.25661007652294276,0.6263882429972064,0.3253257092171477,0.027066733085778574,0.0005635955941600544,0.14473508621674086
3636,10.0,299.96786000000003,-3959.741,0.0,0.03636002485207035,0.0,0.0,0.0,0.0,0.23086133458423977,0.6472875395598063,0.3255135252556837,0.009091964277457011,0.0041265397617827665,0.15681493231892885
3637,10.0,299.7064,-3927.8731,0.0,0.0363700208394897,0.0,0.0,0.0,0.0,0.2152166821127328,0.6387165684214174,0.3400421030070427,0.007482914810006192,-0.002439389280598978,0.13921431198688286
3638,10.0,300.15997000000004,-3973.5571,0.0,0.036380016826908834,0.0,0.0,0.0,0.0,0.23130654654567878,0.6377554297740604,0.33880016235947263,-0.012357659014605988,-0.006589160435374503,0.1326072424573159
3639,10.0,300.69977,-3904.6918,0.0,0.036390012814327966,0.0,0.0,0.0,0.0,0.2288093511442248,0.6386414865890074,0.3194779591800197,-0.008977506938210951,0.0033045582487095065,0.1137153767278339
3640,10.0,300.48354,-3720.1507,0.0,0.03640000880174754,0.0,0.0,0.0,0.0,0.2319260476568188,0.6173065735434153,0.2816003095692867,-0.007471583634137894,0.0028948507734245276,0.13574037388653187
3641,10.0,300.48548999999997,-3901.3025,0.0,0.03641000478916667,0.0,0.0,0.0,0.0,0.23967385441396777,0.6452115420924214,0.30101312770518274,-0.0067235209450098535,-0.014972427904663587,0.13579704496462489
3642,10.0,300.25592,-4129.1399,0.0,0.03642000077658625,0.0,0.0,0.0,0.0,0.26120330134625874,0.6630898436143723,0.3308622698835637,-0.0068230689169844734,0.0015510330972000484,0.16276221391337983
3643,10.0,299.8913,-4062.603,0.0,0.03642999676400538,0.0,0.0,0.0,0.0,0.25271980408900274,0.6558891716462214,0.32632090320036566,0.014942745756234187,0.01175248829963029,0.14083468128180088
3644,10.0,299.99347,-3893.6057,0.0,0.03643999275142473,0.0,0.0,0.0,0.0,0.23085267129588477,0.6381190852349504,0.3145871529348347,0.014397972853219287,0.02462290151409118,0.16379261833757283
3645,10.0,299.6982,-3870.0518,0.0,0.03645002172890166,0.0,0.0,0.0,0.0,0.24102028141184975,0.6272644915511854,0.3081143390435177,0.0015942454781897786,0.005069524716373135,0.14294049869962885
3646,10.0,299.46654,-3741.2583,0.0,0.03646001771632079,0.0,0.0,0.0,0.0,0.22695275272099277,0.6140373423607673,0.29625902916348973,-0.008860808087093672,-0.0024553962003787374,0.14725357000279587
3647,10.0,299.59299,-3757.4499,0.0,0.03647001370373992,0.0,0.0,0.0,0.0,0.21189409317981883,0.6377571117692264,0.2925197411269507,0.004651257304243356,-0.015778455186962283,0.14863470081660285
3648,10.0,300.18978,-3927.5812,0.0,0.036480009691159276,0.0,0.0,0.0,0.0,0.22642476835888478,0.6420700108198764,0.32539182378617265,-0.008052691685738793,-0.0033274416916179266,0.14232285183617185
3649,10.0,300.55062000000004,-3939.4601,0.0,0.03649000567857885,0.0,0.0,0.0,0.0,0.22896778292986078,0.6519962546295204,0.3165334645219207,-0.005024446840624295,-0.01163058215359909,0.13885288567621287
3650,10.0,300.4798,-3855.7861,0.0,0.036500001665998205,0.0,0.0,0.0,0.0,0.22625650804727876,0.6393332932272834,0.3064729042790207,-0.006431302250620114,-0.004668818043051465,0.13856636894543586
3651,10.0,300.55537999999996,-4062.5423,0.0,0.036509997653417336,0.0,0.0,0.0,0.0,0.26648899142041577,0.6429171183009795,0.3255053077973727,0.00935442118195949,0.014465863649669588,0.12667247450159988
3652,10.0,300.74455,-4189.5185,0.0,0.03651999364083647,0.0,0.0,0.0,0.0,0.26989693654175373,0.6737337826023474,0.3298783027114537,0.017104432771326086,0.007248876429733403,0.12972833547818988
3653,10.0,300.33869,-3993.3981,0.0,0.03653002261831362,0.0,0.0,0.0,0.0,0.24881359323098978,0.6506607504677164,0.3144189736832367,0.01064360562869209,-0.008664856562179761,0.14838348571930987
3654,10.0,299.79306,-3879.3408,0.0,0.03654001860573275,0.0,0.0,0.0,0.0,0.22849648991084778,0.6291695537267005,0.3215566822901737,-0.0072698381425021635,-0.01091637762186259,0.14535373619779687
3655,10.0,299.63621,-3786.3095,0.0,0.03655001459315188,0.0,0.0,0.0,0.0,0.22688031547134377,0.6251993966548763,0.29886382159306274,-0.016768588999180885,-0.012652631317467489,0.15357360604403483
3656,10.0,300.40016,-3726.8327,0.0,0.036560010580571234,0.0,0.0,0.0,0.0,0.2120504984652548,0.6082015486748195,0.31261202451490466,-0.010499262072446489,0.01052100743284259,0.14542016487435286
3657,10.0,300.27763,-3902.3769,0.0,0.03657000656799081,0.0,0.0,0.0,0.0,0.2516190294453648,0.6292012988523334,0.3054048170836087,-0.014210161880933787,0.002210710892030178,0.14349490862434486
3658,10.0,299.66298,-3963.7611,0.0,0.03658000255541016,0.0,0.0,0.0,0.0,0.23031989426080376,0.6522012756547544,0.32236322936977374,0.003920773491100216,0.004279106957164975,0.13881099791707888
3659,10.0,299.79575,-3816.2655,0.0,0.036589998542829294,0.0,0.0,0.0,0.0,0.21123065754434278,0.6389888895182934,0.30982986265532675,0.006245458098103724,0.005119916784921445,0.14981070928016585
3660,10.0,299.66575,-3971.7857,0.0,0.036599994530248425,0.0,0.0,0.0,0.0,0.22016728024631876,0.6709669917467864,0.31618939518546374,0.014249436468059887,0.002973501880636787,0.15410884527685884
3661,10.0,299.88319,-4118.6113,0.0,0.036610023507725575,0.0,0.0,0.0,0.0,0.26279871429121376,0.6665679968351393,0.32258828234948467,0.01161997849130259,-0.013238032509742089,0.14136409432654987
3662,10.0,300.34787,-3969.4057,0.0,0.03662001949514471,0.0,0.0,0.0,0.0,0.24756269545253576,0.6434411104576934,0.3155964209619417,-0.005278062935354255,-0.013117023090049387,0.14074715673816285
3663,10.0,300.17987,-3848.1755,0.0,0.03663001548256384,0.0,0.0,0.0,0.0,0.24688626995077775,0.6277127027329203,0.2951502802415647,-0.005583255385349406,-0.004917651901284456,0.14485299813087787
3664,10.0,300.5005,-3895.6733,0.0,0.03664001146998319,0.0,0.0,0.0,0.0,0.2275489389473318,0.6212327656934005,0.3354057035969657,-0.00923569633726726,0.008061653376248243,0.13250043576427487
3665,10.0,300.91612000000003,-3864.9277,0.0,0.036650007457402545,0.0,0.0,0.0,0.0,0.2144449807040718,0.6356024658290794,0.3247940670221787,0.00017381402659660884,0.002326257272483718,0.15239068721478985
3666,10.0,300.28493,-3876.5417,0.0,0.03666000344482212,0.0,0.0,0.0,0.0,0.2112789085141048,0.6361227798879304,0.3309701810192137,0.0010201874181346591,0.0013012898470023087,0.15249711900529384
3667,10.0,300.12397000000004,-3946.0014,0.0,0.03666999943224125,0.0,0.0,0.0,0.0,0.24075189172536177,0.6317056579319944,0.3270283442876847,0.012731652666266288,0.005460516145085984,0.14722074069955585
3668,10.0,299.88836000000003,-3935.8369,0.0,0.03667999541966038,0.0,0.0,0.0,0.0,0.24964422526546676,0.6392794288519673,0.3074724957676727,0.009813008551343542,0.004188974814394626,0.15005028213380986
3669,10.0,299.79107999999997,-3942.6387,0.0,0.03669002439713731,0.0,0.0,0.0,0.0,0.24786317476969075,0.6447552857048924,0.30584524650457573,0.0024837670005287177,-0.0027622664912144773,0.13243895174820688
3670,10.0,299.5726,-4033.7879,0.0,0.036700020384556664,0.0,0.0,0.0,0.0,0.23981583101797974,0.6564537039394364,0.32990128322372164,-0.001969054289555528,0.0013737901208075286,0.14536412201132187
3671,10.0,299.89746,-4031.552,0.0,0.036710016371975795,0.0,0.0,0.0,0.0,0.23226508114027877,0.6589165400299993,0.3343095189762807,-0.00923910217482839,0.004516612983254995,0.1284961220315799
3672,10.0,300.16613,-3864.3211,0.0,0.03672001235939537,0.0,0.0,0.0,0.0,0.22290684507169278,0.6292989558969714,0.32245132133346766,-0.01141228451230479,0.01047803752260179,0.14542054990939088
3673,10.0,300.07808,-3924.7044,0.0,0.0367300083468145,0.0,0.0,0.0,0.0,0.24731402361299376,0.6402589174586354,0.3054391865270007,-0.01024856474595459,0.005228755145737955,0.14214195629581886
3674,10.0,299.77706,-3992.9308,0.0,0.036740004334233856,0.0,0.0,0.0,0.0,0.26362156456492275,0.6318551528517484,0.31827453216875073,-0.005499851831193114,-0.007000579188753374,0.14495083756053387
3675,10.0,300.59916,-3846.9721,0.0,0.03675000032165321,0.0,0.0,0.0,0.0,0.2407568870483548,0.6317915207454684,0.2968350517128387,0.013318528137436387,0.0045831168429684155,0.14708574538873287
3676,10.0,300.83734,-3767.861,0.0,0.03675999630907234,0.0,0.0,0.0,0.0,0.2042869458015518,0.6439323037086704,0.2971164211331077,0.0053442070912821755,-0.0037358000243947562,0.17216940009429682
3677,10.0,300.57032000000004,-3796.5036,0.0,0.036769992296491694,0.0,0.0,0.0,0.0,0.21406452555652378,0.6278008757566224,0.3121768943919607,0.0028151754730111876,-0.0028352013479875874,0.15463192550848287
3678,10.0,300.42967000000004,-3765.0241,0.0,0.03678002127396862,0.0,0.0,0.0,0.0,0.1951330822781358,0.6474611295669384,0.3018791019031477,-0.00991879895453424,-0.007096123910907904,0.15565526757947884
3679,10.0,300.14406,-3880.8542,0.0,0.036790017261387975,0.0,0.0,0.0,0.0,0.23089803450286178,0.6509658299403254,0.2978188871624357,0.006146871700474004,0.0028268404134624272,0.15416069328447585
3680,10.0,300.70531,-3939.4846,0.0,0.03680001324880733,0.0,0.0,0.0,0.0,0.2537864524692727,0.6366203059520325,0.30709819104823166,0.006407909852186464,0.011958425302954687,0.14813134856442586
3681,10.0,300.15957000000003,-3815.6541,0.0,0.03681000923622646,0.0,0.0,0.0,0.0,0.23854223643728575,0.6273185585765214,0.2940027846358157,0.002255719664122198,-0.003439037713906597,0.14067343266088686
3682,10.0,300.09446,-3831.7709999999997,0.0,0.03682000522364581,0.0,0.0,0.0,0.0,0.20868408646551578,0.6359720893330584,0.3201065288795547,0.004453192848895915,-0.001074352222105309,0.14502337613519287
3683,10.0,300.21009,-3988.7832,0.0,0.036830001211065166,0.0,0.0,0.0,0.0,0.24379136844783478,0.6404390125314093,0.32826013216925265,0.0037821229818664763,-0.001032086216708979,0.13660774636963488
3684,10.0,300.20422,-4016.7071,0.0,0.0368399971984843,0.0,0.0,0.0,0.0,0.24417473162316977,0.6429174628060134,0.3338864667945287,0.008207687337635673,0.014065144513371687,0.13510510660383587
3685,10.0,299.79173,-3881.1886,0.0,0.03684999318590387,0.0,0.0,0.0,0.0,0.2474121062226738,0.6303448934451974,0.3020274315852867,-0.017634127499602883,0.006292613541857604,0.14344789381970485
3686,10.0,299.77956,-3839.9427,0.0,0.03686002216338036,0.0,0.0,0.0,0.0,0.2435774510867228,0.6287266621079904,0.2949425842360667,-0.0011677473341726889,0.007160614645322643,0.13716652340228186
3687,10.0,299.56551,-4002.1511,0.0,0.03687001815079993,0.0,0.0,0.0,0.0,0.24700607664260177,0.6560858536231323,0.3134620602887967,-0.002963480837147787,0.0007584130388995392,0.15018042397665388
3688,10.0,300.54498,-4016.5828,0.0,0.036880014138219286,0.0,0.0,0.0,0.0,0.2347696428699598,0.6491885386024204,0.3369826956551027,0.005258182765742235,-0.0020377483906851078,0.14262623918111386
3689,10.0,300.23116,-4040.4313,0.0,0.03689001012563842,0.0,0.0,0.0,0.0,0.24917358072651777,0.6593047566733133,0.3197118780981057,0.0008636298209436273,-0.017102643371649483,0.14671788493992785
3690,10.0,300.24487999999997,-4043.2717,0.0,0.03690000611305777,0.0,0.0,0.0,0.0,0.23445304274371379,0.6569792868988074,0.33762129653062767,0.0016381526447730784,-0.015598406723692884,0.12770157183316388
3691,10.0,299.75552999999996,-3922.8436,0.0,0.036910002100477124,0.0,0.0,0.0,0.0,0.24398608471955174,0.6531379341796955,0.2953224922285607,0.0055272976353268055,0.011780709341415488,0.14725653882558887
3692,10.0,299.62877000000003,-3997.9467,0.0,0.03691999808789648,0.0,0.0,0.0,0.0,0.2413695993838248,0.6461511289101514,0.3277552296444227,0.0034298742853022366,0.007510159990620082,0.13567541442262085
3693,10.0,298.22888,-4077.3836,0.0,0.03692999407531583,0.0,0.0,0.0,0.0,0.24944871865867177,0.6588510739410384,0.3311230095317967,-0.0039037389330690356,0.004511794472404446,0.14615695981706886
3694,10.0,299.10873,-3899.1512,0.0,0.036940023052792315,0.0,0.0,0.0,0.0,0.2143330570980258,0.6457428904448614,0.3251686554516477,-0.016150929976722683,-0.005154369821446695,0.14843823162221284
3695,10.0,299.85882999999995,-3860.7672,0.0,0.03695001904021189,0.0,0.0,0.0,0.0,0.23502955165311076,0.6402014763104664,0.29834579747943774,-0.0057525106072285935,0.0015081438416672084,0.16031929831978284
3696,10.0,300.35368,-3981.1479999999997,0.0,0.03696001502763124,0.0,0.0,0.0,0.0,0.2355382639983168,0.6486945589136683,0.3259367496899527,-0.004898410383210465,0.005974508333913064,0.16545135941377784
3697,10.0,300.07115,-3987.3598,0.0,0.036970011015050375,0.0,0.0,0.0,0.0,0.26416906412395674,0.6418492134905854,0.3060395270787497,-0.0023516820479679477,0.0037316223942324566,0.14994975759138884
3698,10.0,299.88017,-3958.4346,0.0,0.03698000700246973,0.0,0.0,0.0,0.0,0.22986418502832878,0.6452283113815763,0.3281727798781317,0.012336925891059789,-0.004046740236907167,0.14516126934130186
3699,10.0,299.91098,-3927.6232,0.0,0.03699000298988886,0.0,0.0,0.0,0.0,0.2379033113217288,0.6483366789783483,0.3076593796161167,0.003035656769595997,0.006931998875610024,0.14383570516297886
3700,10.0,300.23003,-3913.6705,0.0,0.036999998977308435,0.0,0.0,0.0,0.0,0.22264985444882976,0.6324536391558144,0.3345546140429697,0.02020173669025618,-0.0019242530310839881,0.1173806772420709
3701,10.0,300.41911,-4003.7129,0.0,0.03700999496472779,0.0,0.0,0.0,0.0,0.25565630420381275,0.6487816072297593,0.31259082732281274,0.0034638302213284263,-0.006937514299879353,0.14319166313441686
3702,10.0,300.25147000000004,-4118.2092,0.0,0.037020023942204494,0.0,0.0,0.0,0.0,0.24999514417259977,0.6539912427514104,0.34784636805976366,-0.0036870581349593063,-0.016097213535921286,0.12246605790395888
3703,10.0,300.36953,-4054.6925,0.0,0.037030019929623625,0.0,0.0,0.0,0.0,0.27712036610715074,0.6467823026624433,0.3086226156911807,-0.004901479011138315,-0.0014706286620147487,0.14104817307787088
3704,10.0,300.30236,-3920.0275,0.0,0.0370400159170432,0.0,0.0,0.0,0.0,0.23273878569452977,0.6486143601682534,0.31023732091803974,-0.004388327515919206,0.006160827903376374,0.14538668709104888
3705,10.0,300.7784,-3914.8263,0.0,0.03705001190446233,0.0,0.0,0.0,0.0,0.2405503866779748,0.6367427572266173,0.3127162980826957,-0.0027433371554962975,0.008218222504225414,0.16277732147237084
3706,10.0,300.49942999999996,-4003.6018,0.0,0.037060007891881686,0.0,0.0,0.0,0.0,0.24066092213138376,0.6463961429168323,0.3299379020823357,-0.0073414452363442335,-0.004406540585141696,0.14402929672708487
3707,10.0,300.34916,-3876.3374,0.0,0.03707000387930082,0.0,0.0,0.0,0.0,0.22625739970736677,0.6417457809203774,0.3103065866948757,0.015036618311748686,0.017781919145938786,0.16648114575540987
3708,10.0,299.89457000000004,-3769.324,0.0,0.03707999986672017,0.0,0.0,0.0,0.0,0.2095358852945818,0.6234907428787454,0.3127537478063917,0.003051854889669627,0.01044616067445579,0.15084972633020885
3709,10.0,299.92505,-3829.8944,0.0,0.037089995854139746,0.0,0.0,0.0,0.0,0.22507867573353577,0.6383425980745094,0.3007709811962847,-0.0011597561346090189,0.003572147670268527,0.15056162892927585
3710,10.0,299.67771,-3985.5703,0.0,0.03710002483161645,0.0,0.0,0.0,0.0,0.2185970060363448,0.6568346150495294,0.3360822304237337,-0.019740193163705382,-0.013377335146740188,0.1348122671924349
3711,10.0,300.39471000000003,-4084.9003,0.0,0.03711002081903558,0.0,0.0,0.0,0.0,0.24123183790022876,0.6675720466242314,0.33290379658254665,0.0016353268928941986,-0.002362156216901668,0.14515009319269886
3712,10.0,299.8863,-4154.6149,0.0,0.037120016806454936,0.0,0.0,0.0,0.0,0.25246662328651576,0.6715319394725423,0.3389006058418857,0.007186913349018122,0.0031876963656511373,0.14405336141695987
3713,10.0,300.0293,-3965.1255,0.0,0.03713001279387429,0.0,0.0,0.0,0.0,0.24221562268732078,0.6439503294279494,0.31913318056849266,0.0042822415476743364,-0.007302905255540634,0.14615106270148687
3714,10.0,300.11539,-3855.1052,0.0,0.03714000878129364,0.0,0.0,0.0,0.0,0.22829109398307676,0.6489525425216295,0.29461206205344675,0.0019222638184876683,-0.01150320141727759,0.16067265915965684
3715,10.0,300.80911000000003,-3984.9468,0.0,0.037150004768712996,0.0,0.0,0.0,0.0,0.27068282345181477,0.6364942880370954,0.3041472115894927,0.014439972069864289,0.01091006507373959,0.15023262662180584
3716,10.0,300.73643,-4031.2903,0.0,0.03716000075613213,0.0,0.0,0.0,0.0,0.23894419275195578,0.6423799336279634,0.3440874635012887,0.010728475457068091,0.007933656482540932,0.14603775094280388
3717,10.0,300.13667999999996,-3770.0548,0.0,0.0371699967435517,0.0,0.0,0.0,0.0,0.22292929869390876,0.6298141834403205,0.2932590387974137,-0.007094319312479804,0.004737984521377666,0.14711644686676287
3718,10.0,299.70181,-3681.0833,0.0,0.037179992730970834,0.0,0.0,0.0,0.0,0.19368053759728082,0.6092183248851675,0.3160585339350487,-0.02144548294950438,-0.001108704642895629,0.13421032570552788
3719,10.0,299.86126,-3938.8747,0.0,0.03719002170844754,0.0,0.0,0.0,0.0,0.24551500819294475,0.6329212844744674,0.3188832522988267,-0.011827395853023089,0.015214044483759287,0.13213801646850687
3720,10.0,299.9412,-4130.5739,0.0,0.037200017695866894,0.0,0.0,0.0,0.0,0.25757987845865477,0.6669852329613174,0.3310262238822447,0.002171455354005958,0.006070418535378664,0.14709638451478285
3721,10.0,299.92047,-4066.7541,0.0,0.03721001368328625,0.0,0.0,0.0,0.0,0.26984740887686576,0.6437641447220744,0.3225801459511817,0.0014935149420234487,-0.006570519977259834,0.13536012138900386
3722,10.0,299.49487999999997,-4023.8862,0.0,0.0372200096707056,0.0,0.0,0.0,0.0,0.23972903601441378,0.6592953334473833,0.32413655889978765,-0.003496012159079536,-0.0076323095193253036,0.15128317445798686
3723,10.0,299.44312,-4004.7523,0.0,0.037230005658124954,0.0,0.0,0.0,0.0,0.24038631108928177,0.6568507155936184,0.3201076637196667,0.01221544936307099,0.012979628402989588,0.14551089128830685
3724,10.0,300.26016,-3984.928,0.0,0.037240001645544085,0.0,0.0,0.0,0.0,0.2318102635678918,0.6576753390550023,0.32183301585744567,0.019857574134789984,0.007861423706762113,0.14517374245003287
3725,10.0,300.06646,-4084.9171,0.0,0.03724999763296344,0.0,0.0,0.0,0.0,0.24913007176722377,0.6704478935880553,0.3221348225322317,0.0029200828287397375,-0.002044011897503268,0.15008744814747788
3726,10.0,300.35369,-3906.6375,0.0,0.03725999362038279,0.0,0.0,0.0,0.0,0.23266791898253578,0.6419178915823633,0.3129344204317227,-0.00047435731023042155,-0.0059478186170039945,0.15869573728704983
3727,10.0,300.87722,-3780.3812,0.0,0.0372700225978595,0.0,0.0,0.0,0.0,0.2202960947315318,0.6391896042306024,0.2896557998518017,-0.014542359979219186,-0.0023565705744004076,0.16719732105859084
3728,10.0,299.95395,-4059.1899,0.0,0.03728001858527885,0.0,0.0,0.0,0.0,0.23754636357650075,0.6677346530002793,0.3286113651839167,-0.0023809540327568673,-0.008147278379923774,0.16616695716440183
3729,10.0,299.79876,-4153.0916,0.0,0.037290014572698205,0.0,0.0,0.0,0.0,0.25573113272369774,0.6546885817352324,0.35201643937631766,-0.006171297107384604,-0.013692643379108685,0.13429726256410787
3730,10.0,299.71283999999997,-4011.2205,0.0,0.03730001056011756,0.0,0.0,0.0,0.0,0.21434430417413577,0.6663905767426295,0.3385759807748477,0.0021660271705702377,-0.003970252114683376,0.15005884409715486
3731,10.0,299.77464,-4033.0145,0.0,0.03731000654753691,0.0,0.0,0.0,0.0,0.25159185407768275,0.6479465067623413,0.32639735292041067,0.005400785456991025,0.015868127820812285,0.13338891424696087
3732,10.0,300.18458,-4134.0277,0.0,0.03732000253495604,0.0,0.0,0.0,0.0,0.26618251366266876,0.6602660473081853,0.3301926331574757,-8.739696531790892e-06,0.02156411933746288,0.13999699702662788
3733,10.0,299.93435,-4066.9069,0.0,0.037329998522375396,0.0,0.0,0.0,0.0,0.26092233722602975,0.6716859028252373,0.3036298967509377,-0.006367273152950933,-0.0006135569300908544,0.14273509263935685
3734,10.0,299.50312,-4033.8325,0.0,0.03733999450979475,0.0,0.0,0.0,0.0,0.24902172493403077,0.6534687806023474,0.3236938395335947,-0.013440427190716885,0.0012478540764786087,0.14222501240651586
3735,10.0,300.24674,-4039.0337,0.0,0.037350023487271455,0.0,0.0,0.0,0.0,0.25861598748091075,0.6484860725730923,0.3206633402070077,-0.0098775055679089,0.00043866172510754163,0.14342447760989385
3736,10.0,299.61772,-3933.3768,0.0,0.03736001947469081,0.0,0.0,0.0,0.0,0.23124766658236778,0.6449666902057564,0.3194339739931787,0.005319656851959255,0.0009668350178291872,0.15212932948399585
3737,10.0,299.57362,-3902.6248,0.0,0.03737001546211016,0.0,0.0,0.0,0.0,0.23904243748165177,0.6172328089361354,0.33002525437345664,0.0015803443960928486,-0.01087437941846769,0.14902572416269386
3738,10.0,299.80602999999996,-4080.0145,0.0,0.037380011449529515,0.0,0.0,0.0,0.0,0.24799109759481577,0.6655855698031813,0.32664587277243773,0.01958903448728718,-0.008368302069287112,0.15677261899475287
3739,10.0,299.88524,-4123.1376,0.0,0.03739000743694887,0.0,0.0,0.0,0.0,0.2473266588417408,0.6622714921711074,0.3437327145087777,0.01916433374762248,0.0004192287230296536,0.15871024702848183
3740,10.0,300.66877999999997,-3945.8649,0.0,0.037400003424368,0.0,0.0,0.0,0.0,0.22797689525956777,0.6557522004977034,0.31571530559617467,0.01111058625527949,0.0023351907946403882,0.15686672966404086
3741,10.0,300.60771,-4031.5984,0.0,0.037409999411787354,0.0,0.0,0.0,0.0,0.23985811394465276,0.6710268545626944,0.3146202862131047,-0.004001648175656926,-0.019451156479929683,0.14560600507519386
3742,10.0,300.03581,-4052.4003,0.0,0.037419995399206485,0.0,0.0,0.0,0.0,0.2315495036546568,0.6645477686532584,0.3357312203240917,-0.0042170710237675055,-0.0018057691372655386,0.14046829004564088
3743,10.0,300.35977,-3936.3571,0.0,0.03743002437668341,0.0,0.0,0.0,0.0,0.23071987473777877,0.6609268586259024,0.3049075544645327,-0.00894770228784446,0.009371112146881761,0.14830426982649186
3744,10.0,300.03415,-4066.4694,0.0,0.037440020364102766,0.0,0.0,0.0,0.0,0.24333592266038576,0.6710433300093204,0.3217259153218757,-0.001175850700522429,0.020061657903681484,0.15459230742957286
3745,10.0,299.77948,-4116.5888,0.0,0.03745001635152212,0.0,0.0,0.0,0.0,0.2665158628130677,0.6570908254698153,0.32773350556227865,-0.013233090889004387,0.013744841971260286,0.14545752340553986
3746,10.0,300.06853,-3937.9319,0.0,0.03746001233894147,0.0,0.0,0.0,0.0,0.2259243646644988,0.6539334267007043,0.3171751862077537,0.0018064679758595084,0.0011740445822191789,0.17096075484501283
3747,10.0,299.39186,-4022.2889,0.0,0.037470008326360826,0.0,0.0,0.0,0.0,0.25785890727119276,0.6387251303847624,0.3260913615227117,0.016699846059396485,-0.0033987953716099863,0.14324273093945686
3748,10.0,299.25523,-4081.1813,0.0,0.03748000431377996,0.0,0.0,0.0,0.0,0.24709953883182578,0.6522444705065173,0.3412331987645947,0.015607433768833785,-0.004785026481120345,0.16105728889761683
3749,10.0,300.32686,-3879.4893,0.0,0.03749000030119931,0.0,0.0,0.0,0.0,0.24110390494260275,0.6197861789231334,0.31837780261894266,0.016865670517762086,-0.018116410229200484,0.14220524389706488
3750,10.0,300.36066,-3930.1611,0.0,0.03749999628861844,0.0,0.0,0.0,0.0,0.22780796620289578,0.6425954113942295,0.32426745054770567,-0.010592140629612891,-0.0066911321015883235,0.15082037247481186
3751,10.0,300.4767,-4092.1126,0.0,0.03750999227603802,0.0,0.0,0.0,0.0,0.24704507663895078,0.6651588597885684,0.3316961240533587,0.001060049487668739,0.0003170691293197867,0.12440547939036488
3752,10.0,300.11917,-4033.7883,0.0,0.037520021253514724,0.0,0.0,0.0,0.0,0.24051905698488277,0.6663152517301953,0.3193366107910697,-0.016607050588738285,0.0063307752763988746,0.14643681949468887
3753,10.0,299.56633,-4006.7177,0.0,0.03753001724093408,0.0,0.0,0.0,0.0,0.2503156757092338,0.6491734310434295,0.3184530465713687,-0.009293498607771901,-0.0085234670352757,0.13024508289668887
3754,10.0,300.08454,-4088.8472,0.0,0.03754001322835343,0.0,0.0,0.0,0.0,0.25112804897690877,0.6726957078748974,0.3190836934336087,0.003681530653013786,0.002741661341155907,0.15243510809917385
3755,10.0,300.25109,-4115.932,0.0,0.037550009215772784,0.0,0.0,0.0,0.0,0.25673376396264974,0.6571542245285723,0.3372525444217347,0.016423657386888786,0.008348205368128721,0.13929513894735987
3756,10.0,299.7137,-3973.763,0.0,0.037560005203191915,0.0,0.0,0.0,0.0,0.2351486592023658,0.6550318202066073,0.3177442477289157,0.015559438138096984,0.02019835952767288,0.16308009073475185
3757,10.0,299.74142,-3989.9262,0.0,0.03757000119061127,0.0,0.0,0.0,0.0,0.23083901268453677,0.6522579264678454,0.3297409971904027,0.00038335787603697665,-0.005530799528997416,0.15726008348536186
3758,10.0,299.99815,-3899.0647,0.0,0.03757999717803062,0.0,0.0,0.0,0.0,0.23062430498834677,0.6304812769086574,0.3241127272574357,-0.013342408415793186,0.003215435708338797,0.1729130040776848
3759,10.0,300.39892000000003,-3815.2987,0.0,0.037589993165449975,0.0,0.0,0.0,0.0,0.21160777909906178,0.6492258667361044,0.29892188082379273,-0.005932405765757864,-0.013542097719000988,0.15697241164947087
3760,10.0,300.98396,-3966.1946,0.0,0.0376000221429269,0.0,0.0,0.0,0.0,0.22722581349044177,0.6583653421081004,0.3200329567897937,-0.0008780573675275152,-0.008061865550819182,0.15908646679061186
3761,10.0,300.67347,-4110.8432,0.0,0.037610018130346035,0.0,0.0,0.0,0.0,0.25422258570981576,0.6702657416175783,0.3251053577179007,0.00970754725178532,-0.015922222203900983,0.13013298703812587
3762,10.0,300.79949,-4044.6657,0.0,0.03762001411776539,0.0,0.0,0.0,0.0,0.23953919347567776,0.6762236724705804,0.3137145318162137,0.006761706288278453,-0.0036277519986562465,0.15172963271704884
3763,10.0,300.57254,-4100.0796,0.0,0.03763001010518452,0.0,0.0,0.0,0.0,0.23490075743289976,0.6828680600013304,0.3285530121106577,0.005223531638822435,0.004012296522282836,0.13288798366252288
3764,10.0,300.11815,-4126.0829,0.0,0.03764000609260387,0.0,0.0,0.0,0.0,0.25463263789278473,0.6711086238457644,0.3284848913064347,-0.001917541262421588,0.009216519464549652,0.14853087307885587
3765,10.0,299.91118,-4074.0772,0.0,0.037650002080023226,0.0,0.0,0.0,0.0,0.25924261174025376,0.6414803093941774,0.33769481795788364,-0.010098217378891461,-0.0060694313258062346,0.14168883085109885
3766,10.0,300.03274,-4026.0468,0.0,0.03765999806744258,0.0,0.0,0.0,0.0,0.25726567973514575,0.6486778706845213,0.3178741463917357,-0.008892698411466001,0.013011295508364886,0.17103940331777484
3767,10.0,299.43172000000004,-3990.4614,0.0,0.03766999405486193,0.0,0.0,0.0,0.0,0.26059391247111674,0.6278234611013513,0.3245832502063727,0.002213468756152358,0.005517799023589365,0.14670855290650686
3768,10.0,299.67666,-3878.6717,0.0,0.03768002303233886,0.0,0.0,0.0,0.0,0.22666702632529379,0.6445141828435974,0.3078381371987587,0.01227437086963609,0.001873614945411398,0.16922291946600185
3769,10.0,300.14923999999996,-3962.0447,0.0,0.03769001901975799,0.0,0.0,0.0,0.0,0.2355058399951168,0.6468870524577813,0.3219697640909417,-0.013348194073864185,-0.014383639417304686,0.14866750985484084
3770,10.0,300.47845,-4133.5326,0.0,0.037700015007177345,0.0,0.0,0.0,0.0,0.24817583335304774,0.6686277215059184,0.3396871412320107,-0.00019184900698152285,0.007753854137720822,0.15464428715970285
3771,10.0,300.72024,-4028.0465,0.0,0.03771001099459648,0.0,0.0,0.0,0.0,0.23772199021633378,0.6688609108839323,0.3178426647111287,-0.008488438168718622,0.005238699486194385,0.12815133328755188
3772,10.0,300.48296,-3940.7857,0.0,0.03772000698201583,0.0,0.0,0.0,0.0,0.21746243950187177,0.6703196667879003,0.3101183450912977,0.012916074316967289,0.018104087081484282,0.14472868247610884
3773,10.0,300.13877,-4119.5915,0.0,0.037730002969435406,0.0,0.0,0.0,0.0,0.26824573404629276,0.6706119793092494,0.3133952465772027,-0.01112682460138209,-0.006913973358981044,0.13220428302504686
3774,10.0,300.01912000000004,-4118.8623,0.0,0.03773999895685454,0.0,0.0,0.0,0.0,0.25294079393581276,0.6602588025699704,0.3388316947025847,-0.009070704365183821,-0.002026337776008968,0.14748011246015386
3775,10.0,300.24444,-3977.1671,0.0,0.03774999494427389,0.0,0.0,0.0,0.0,0.23941279052570275,0.6472095902296134,0.3223371179146967,-0.01011609141463049,-0.0023379380196365176,0.14102292288537888
3776,10.0,299.94019,-3828.1663,0.0,0.037760023921750596,0.0,0.0,0.0,0.0,0.21021684002428678,0.6344153014819154,0.31903481424878466,0.004857096934233146,0.004994348145078785,0.15611944758278984
3777,10.0,300.21767,-3844.7839,0.0,0.03777001990916995,0.0,0.0,0.0,0.0,0.22496859624267176,0.6267361322865403,0.3170135626843027,0.005261185735063604,-0.0076990446027115425,0.15729310530612087
3778,10.0,299.72168,-3953.3893,0.0,0.0377800158965893,0.0,0.0,0.0,0.0,0.24395370124635576,0.6470799955418234,0.3106979140159967,0.014238243094205186,-0.0034971960404963764,0.16904574255351584
3779,10.0,299.47629,-4068.5897,0.0,0.037790011884008434,0.0,0.0,0.0,0.0,0.26713424934909774,0.6564099416676173,0.3132054850984747,0.032787369884611464,-0.0007207396706414672,0.15906208799320584
3780,10.0,299.79257,-4062.301,0.0,0.03780000787142779,0.0,0.0,0.0,0.0,0.2442422546098338,0.6706321835162433,0.3199636302179517,-0.0026162809631818276,0.003917315167183906,0.16432933691554286
3781,10.0,300.18178,-3978.7076,0.0,0.03781000385884714,0.0,0.0,0.0,0.0,0.2342704044131888,0.6433397246526874,0.33181763300535067,-0.013152318644032787,-0.01021619039200949,0.13477105831086789
3782,10.0,300.26578,-4014.2855,0.0,0.037819999846266494,0.0,0.0,0.0,0.0,0.22564778791720277,0.6638459713689964,0.3307488061373657,-0.02385578506213268,0.006494249602482534,0.14070882548687985
3783,10.0,300.37032999999997,-4168.9116,0.0,0.03782999583368585,0.0,0.0,0.0,0.0,0.26077039024103377,0.6490176438405544,0.35745700472825964,-0.019880719806824283,0.023717021474187774,0.1121187580152599
3784,10.0,300.13784,-4164.3706,0.0,0.037840024811162554,0.0,0.0,0.0,0.0,0.2614562389687217,0.6670818260933504,0.33732663326904666,-0.004095359117780476,0.016976069182407585,0.13740993647380487
3785,10.0,300.406,-3964.8972,0.0,0.03785002079858191,0.0,0.0,0.0,0.0,0.25693473198748373,0.6485196010189014,0.2997754123105297,-0.010562731045460391,0.0012430288781773988,0.14749263623138986
3786,10.0,300.49577999999997,-3933.8142,0.0,0.03786001678600126,0.0,0.0,0.0,0.0,0.2377498444615828,0.6417427107725744,0.3162887139602657,-0.003143101100924927,-0.007030816800887592,0.16025417673585585
3787,10.0,299.45304,-4058.8354,0.0,0.03787001277342039,0.0,0.0,0.0,0.0,0.25873698980785276,0.6570618971794604,0.3179857356252487,0.007949260027455883,-0.013173221993595788,0.16122552894422085
3788,10.0,299.65109,-4030.7433,0.0,0.037880008760839745,0.0,0.0,0.0,0.0,0.2207287525242318,0.6595143879865024,0.34500218516156467,0.003327244006523417,0.0018169017161142383,0.16032289535763783
3789,10.0,299.69272,-4005.2451,0.0,0.0378900047482591,0.0,0.0,0.0,0.0,0.2249342065342778,0.6695880394206943,0.3229722433423787,0.0031318997223944373,-0.009295420236586551,0.15874071545898885
3790,10.0,299.62915,-4005.9959,0.0,0.03790000073567845,0.0,0.0,0.0,0.0,0.23942020751643478,0.6641257601191094,0.31417675624683167,-0.0007813071310665103,-0.005161213616597125,0.15707173042427286
3791,10.0,299.38909,-4066.1225,0.0,0.037909996723097805,0.0,0.0,0.0,0.0,0.2557694335774778,0.6684024861411895,0.3118277892025067,0.0004241220826650906,0.002448729217370758,0.15420769795661485
3792,10.0,299.80762999999996,-4136.464,0.0,0.03791999271051694,0.0,0.0,0.0,0.0,0.2630842177718907,0.6762243513481474,0.3180732196388827,-0.001019978384639029,-0.006588157824400555,0.15096279490886785
3793,10.0,300.3573,-4179.8749,0.0,0.037930021687993865,0.0,0.0,0.0,0.0,0.26206097702590475,0.6671870115862314,0.3413295993791087,-0.0013497517754351288,-0.006779839108093024,0.14136221981386488
3794,10.0,300.59123,-4045.29,0.0,0.03794001767541322,0.0,0.0,0.0,0.0,0.22992576023690578,0.6635237071746913,0.33621767156460064,-0.013301481217753987,0.0012863696379547987,0.13689597549308086
3795,10.0,300.0836,-3970.5258,0.0,0.03795001366283235,0.0,0.0,0.0,0.0,0.2231746977356278,0.6606785515563963,0.32308744987874866,0.0072288438673063435,0.02103164323766158,0.14070734614173386
3796,10.0,300.25596,-4068.0461,0.0,0.0379600096502517,0.0,0.0,0.0,0.0,0.25668932281326373,0.6498498970751914,0.3300452052679257,0.0012211717562952689,0.02854293006371787,0.14452001375051488
3797,10.0,299.80384,-4080.9164,0.0,0.037970005637671056,0.0,0.0,0.0,0.0,0.26395124574995976,0.6547706549933324,0.3217747945066997,-0.002256945798068208,0.014063154490175287,0.16278849762097386
3798,10.0,299.72325,-3991.3641,0.0,0.03798000162509041,0.0,0.0,0.0,0.0,0.24231009812664475,0.6553640649143974,0.3156008691298807,-0.01399324529952579,-0.0014084257450007985,0.17472414810143083
3799,10.0,299.11863,-4043.86,0.0,0.03798999761250976,0.0,0.0,0.0,0.0,0.2565398481585118,0.6426024737474264,0.33009015304236167,-0.004199451921753636,-0.0064982946995317545,0.15509940870711988
3800,10.0,299.28132999999997,-4146.0173,0.0,0.037999993599928894,0.0,0.0,0.0,0.0,0.24915423778210877,0.6762097402817054,0.3349217753492057,0.006761569094214914,-0.016508084424971085,0.14425151260651586
3801,10.0,300.12498,-4110.1818,0.0,0.0380100225774056,0.0,0.0,0.0,0.0,0.24960124319622476,0.6715887017431444,0.3282027011535847,0.0043723314379155165,-0.024901776312613977,0.13870971343708288
3802,10.0,300.35552,-4171.347,0.0,0.038020018564825175,0.0,0.0,0.0,0.0,0.27210544685721677,0.6578704302292564,0.33800947264393766,0.022068586164749878,-0.014753053178512988,0.13176851455453986
3803,10.0,299.91945,-4165.4454,0.0,0.03803001455224453,0.0,0.0,0.0,0.0,0.25817893218277677,0.6865890588735644,0.3214233993720197,0.0068182916454129945,0.0003480793547877577,0.14062278028838787
3804,10.0,299.78081000000003,-3975.9555,0.0,0.03804001053966366,0.0,0.0,0.0,0.0,0.24889906087692476,0.6490777701014884,0.3106143512802497,0.015863732341878486,0.0026647742010427375,0.15299092644152887
3805,10.0,300.16776,-4002.8709,0.0,0.03805000652708301,0.0,0.0,0.0,0.0,0.2384461195327998,0.6655670779888564,0.3127595942594687,-0.010990520171429888,-0.0007805349331653002,0.16223959977680186
3806,10.0,299.80407,-4164.3741,0.0,0.038060002514502145,0.0,0.0,0.0,0.0,0.24840874915353478,0.6759043163040623,0.34155268665362565,-0.008690412350901922,0.01116557432495639,0.16139588668353383
3807,10.0,300.09601000000004,-3961.7495,0.0,0.03806999850192172,0.0,0.0,0.0,0.0,0.21750338493841279,0.6517497815426954,0.3350197566338757,-0.02236855987010498,0.030983268962310573,0.15458364414121784
3808,10.0,300.35853,-3795.3540000000003,0.0,0.03807999448934085,0.0,0.0,0.0,0.0,0.21457863852476278,0.6422322118958844,0.2968819955899717,-0.011113526707069688,0.016038176518844784,0.15939407938847083
3809,10.0,300.61972000000003,-4009.3984,0.0,0.03809002346681756,0.0,0.0,0.0,0.0,0.23925430807756176,0.6535537010932284,0.32594899988366166,0.00048189381381171653,-0.0017488817302761884,0.15187571298396585
3810,10.0,301.13155,-4008.8721,0.0,0.03810001945423691,0.0,0.0,0.0,0.0,0.2554733213682538,0.6482592160082034,0.3148644896197057,0.01203333893584809,-0.013542400680780886,0.15862578250014583
3811,10.0,301.14896,-4024.1978,0.0,0.038110015441656486,0.0,0.0,0.0,0.0,0.24051064700905275,0.6715881241905873,0.3111568656487917,0.006610055982911734,-0.007786734204790832,0.15139751973177187
3812,10.0,299.90609,-4193.3863,0.0,0.03812001142907562,0.0,0.0,0.0,0.0,0.26696058841445874,0.6566505581688643,0.35107358989326565,0.008856527713371231,-0.00998193396031518,0.13300376775144987
3813,10.0,300.15631,-4131.8285,0.0,0.03813000741649497,0.0,0.0,0.0,0.0,0.2577850109413997,0.6802102340615234,0.3179774573719317,0.007513812047955513,-0.009188976489731372,0.13140990507914788
3814,10.0,299.82167000000004,-4036.5265,0.0,0.0381400034039141,0.0,0.0,0.0,0.0,0.25311516414552176,0.6530093122120014,0.32087880784077266,0.008242873663258292,-0.0008723359799103582,0.13033141180520888
3815,10.0,299.57013,-4161.5979,0.0,0.03814999939133368,0.0,0.0,0.0,0.0,0.26415436186500574,0.6589223763505754,0.3419451184173557,-0.0012017617347296488,0.022070642049202775,0.13721817889237986
3816,10.0,299.87486,-4128.5874,0.0,0.03815999537875303,0.0,0.0,0.0,0.0,0.25358371125676377,0.6734438208212303,0.32795995682712764,-0.015972284864841785,0.0025603018335821175,0.14652070647046786
3817,10.0,299.68188,-3955.0421,0.0,0.038170024356229515,0.0,0.0,0.0,0.0,0.22793933407836078,0.6481766361250534,0.3261180606628467,-0.018234323156587583,0.004652409166957036,0.17541248942436483
3818,10.0,299.9032,-3990.4304,0.0,0.03818002034364887,0.0,0.0,0.0,0.0,0.23285685972868278,0.6636170072438994,0.3165173234478277,-0.0013715589440873286,-0.0025157431471845176,0.17378477406622184
3819,10.0,300.86697999999996,-4010.9829,0.0,0.038190016331068444,0.0,0.0,0.0,0.0,0.24918992445063073,0.6556750111050854,0.3143737219337707,0.006427757192495244,0.0001827609641846028,0.16765082140584786
3820,10.0,300.3901,-3983.281,0.0,0.038200012318487575,0.0,0.0,0.0,0.0,0.24621339082436974,0.6478040437982814,0.3168005065857757,0.0036455904693167666,-0.005614575351240444,0.13912853023341687
3821,10.0,300.27596,-4043.4242,0.0,0.03821000830590693,0.0,0.0,0.0,0.0,0.24983986359477475,0.6597553996552884,0.31950473938016266,0.007893417382644643,-0.007574925923761982,0.14532963097791785
3822,10.0,299.83851,-4246.4325,0.0,0.03822000429332606,0.0,0.0,0.0,0.0,0.27015445405466876,0.6783331578537704,0.34232184480453565,0.0001184455929646699,-0.00100030249637967,0.12476329853067888
3823,10.0,299.30663,-4186.9427,0.0,0.03823000028074541,0.0,0.0,0.0,0.0,0.25415051323020277,0.6798905637874744,0.3386849558231027,0.004286964813015486,0.016319359501095386,0.14905934380101185
3824,10.0,300.00141,-4145.9309,0.0,0.038239996268164766,0.0,0.0,0.0,0.0,0.25122383150886174,0.6802375411517184,0.3287981173098477,-0.006602999709215333,0.003845245524671186,0.14888427444873387
3825,10.0,300.25369,-4167.5581,0.0,0.03825002524564147,0.0,0.0,0.0,0.0,0.26477814902406877,0.6787602427709203,0.32329520667925266,-0.005213822980339265,0.012133379144721288,0.16143029665692984
3826,10.0,299.59878,-4002.2678,0.0,0.03826002123306105,0.0,0.0,0.0,0.0,0.24079913957752477,0.6660681504283084,0.3097221744346987,0.0026293957632011577,0.0046058127332833255,0.15175245110930086
3827,10.0,299.57513,-3848.7274,0.0,0.03827001722048018,0.0,0.0,0.0,0.0,0.2164409314135568,0.6497032899182223,0.3037728055450417,0.023928225351531978,0.011272362779495589,0.16539144593536484
3828,10.0,300.42978999999997,-4025.4355,0.0,0.03828001320789953,0.0,0.0,0.0,0.0,0.23578793895545777,0.6514863871792004,0.3363575507409057,-0.0008077950288206623,-0.0047244215608391055,0.15008309117204785
3829,10.0,300.18709,-4134.9278,0.0,0.038290009195318886,0.0,0.0,0.0,0.0,0.23772063246119976,0.6765449234147854,0.3426492664418497,-0.006026609350080035,-0.016618470930615383,0.16254166989661384
3830,10.0,300.18206000000004,-4106.9318,0.0,0.03830000518273802,0.0,0.0,0.0,0.0,0.25294698489392375,0.6574020655030324,0.3380556667159967,-0.02297584625128948,-0.020842986201542582,0.15787296807334886
3831,10.0,299.93802,-4157.1814,0.0,0.03831000117015737,0.0,0.0,0.0,0.0,0.26487302976343274,0.6708765186453574,0.3279297822391497,-0.002196494486502128,0.01087520623054929,0.15175940200498686
3832,10.0,300.00478,-4185.819,0.0,0.038319997157576724,0.0,0.0,0.0,0.0,0.2754283195001587,0.6687730722327634,0.3281830643666467,-0.008456549668196473,0.01008593557177934,0.1310835980169439
3833,10.0,300.1643,-4126.9594,0.0,0.03832999314499608,0.0,0.0,0.0,0.0,0.25320556631944374,0.6658692899636823,0.33541776127315565,-0.005328281130185405,0.0004167949976144636,0.12785778460108088
3834,10.0,300.69485,-4127.3287,0.0,0.038340022122473005,0.0,0.0,0.0,0.0,0.23727622096733977,0.6817595643919304,0.33556906991058866,0.005277709513719375,0.0026014489068930174,0.13229388473138987
3835,10.0,300.47904,-4145.6645,0.0,0.03835001810989214,0.0,0.0,0.0,0.0,0.23420905211963378,0.6733372674407143,0.3526321711970857,0.014915410295036383,0.007856037066580493,0.14478102697627487
3836,10.0,300.58938,-4026.8604,0.0,0.03836001409731149,0.0,0.0,0.0,0.0,0.24484699266701676,0.6523526754846963,0.3268653326115967,0.025288452815775974,0.00962682029909319,0.15825160950321784
3837,10.0,300.31723,-4054.3515,0.0,0.03837001008473084,0.0,0.0,0.0,0.0,0.25112285100389575,0.6710605147310164,0.3102382632406327,-0.0068890068765170434,-0.008489515861524981,0.16892786103688184
3838,10.0,300.23776000000004,-4148.4314,0.0,0.038380006072149975,0.0,0.0,0.0,0.0,0.27411282702782974,0.6676763201920224,0.3192304221805897,-0.0025910730232189976,-0.019138687374341382,0.15513081946021987
3839,10.0,299.75262000000004,-4024.5134,0.0,0.03839000205956955,0.0,0.0,0.0,0.0,0.24209525870794174,0.6599749608194574,0.3212813417079997,-0.014881737967713186,-0.005167358167853545,0.14358963737619387
3840,10.0,299.7721,-4022.7434,0.0,0.03839999804698868,0.0,0.0,0.0,0.0,0.2304694094455598,0.6629343705190284,0.3294097657327127,-0.006130966105704244,0.0026477051925081576,0.14397472307669887
3841,10.0,299.8113,-4132.2135,0.0,0.038409994034408035,0.0,0.0,0.0,0.0,0.22882232074550476,0.6669412275094744,0.3603261946389266,0.0036820780107178065,-0.007525261571435494,0.14157026032439685
3842,10.0,299.93413,-4102.2118,0.0,0.03842002301188496,0.0,0.0,0.0,0.0,0.25661284269571577,0.6686692444950163,0.3216878475156187,0.016045784000595587,0.007318561692110804,0.15565592619204385
3843,10.0,299.65737,-4109.3313,0.0,0.038430018999304094,0.0,0.0,0.0,0.0,0.24751969311829178,0.6829083569578074,0.3187060449888377,0.02449516917998498,0.019001705080072283,0.15629149744976986
3844,10.0,300.59767999999997,-4140.0535,0.0,0.038440014986723225,0.0,0.0,0.0,0.0,0.2693367814889708,0.6791920393010354,0.3099440660740977,0.01726331646650668,0.014402249781891386,0.14674083505469285
3845,10.0,300.54126,-4121.465999999999,0.0,0.0384500109741428,0.0,0.0,0.0,0.0,0.23905459648285174,0.6776538141917243,0.3361143504519037,-0.005543655038316156,0.008217490937653211,0.15367819371935684
3846,10.0,300.49251,-4037.8551,0.0,0.038460006961562154,0.0,0.0,0.0,0.0,0.2300096269476828,0.6602487105989744,0.33714877747899363,-0.01694171392451698,0.006549709542731004,0.15769944899372385
3847,10.0,300.18679,-4110.3495,0.0,0.03847000294898151,0.0,0.0,0.0,0.0,0.2248702299229638,0.6849885188831034,0.33958484350191465,-0.012472993220488589,0.02156607491015588,0.15703733058337785
3848,10.0,299.76532000000003,-4098.1127,0.0,0.03847999893640064,0.0,0.0,0.0,0.0,0.25913162032429976,0.6535627088866174,0.3330295915824617,-0.016619016059169184,0.012468720344816888,0.14668206654889288
3849,10.0,299.05413,-4007.1423,0.0,0.03848999492381999,0.0,0.0,0.0,0.0,0.2389060641506928,0.6514103934217004,0.3277547432843747,0.0017829495291134183,-0.019870240774290084,0.16114802544407186
3850,10.0,299.5942,-4061.0575,0.0,0.03850002390129692,0.0,0.0,0.0,0.0,0.27259091524512874,0.6612298406708044,0.3006393296107917,0.002345596062567308,-0.016214935972289585,0.15397699104134585
3851,10.0,300.33811000000003,-4185.1951,0.0,0.03851001988871605,0.0,0.0,0.0,0.0,0.2641011763672567,0.6614002997351274,0.3466933502409697,0.006682629919999223,-0.010577578199175689,0.13911501347708286
3852,10.0,300.1899,-4238.5852,0.0,0.03852001587613518,0.0,0.0,0.0,0.0,0.2620122700935978,0.6780772311435124,0.3483345519579437,0.01206708016417809,-0.0018956715762382184,0.14186001945549387
3853,10.0,300.05871,-4194.6106,0.0,0.03853001186355476,0.0,0.0,0.0,0.0,0.23990401417418275,0.6831309477397753,0.3520219109268577,-0.005108260761071085,-0.0010358070737261989,0.14584470653375187
3854,10.0,300.45209,-4169.6033,0.0,0.03854000785097411,0.0,0.0,0.0,0.0,0.2593347060418427,0.6716727001764343,0.3364478921198217,0.0028260503823594576,0.006447129723807165,0.14814300094057586
3855,10.0,299.77772000000004,-4145.6155,0.0,0.038550003838393465,0.0,0.0,0.0,0.0,0.2594990957380668,0.6772549280248574,0.32340956208553867,-0.0012437949965780088,0.018490100919080883,0.15539758794654784
3856,10.0,300.15885,-4043.1999,0.0,0.038559999825812596,0.0,0.0,0.0,0.0,0.24959889245599276,0.6724165169423434,0.3070164015001597,-0.0048324590487765755,0.001787071126545188,0.15614920673822685
3857,10.0,300.04756000000003,-4016.8646,0.0,0.03856999581323173,0.0,0.0,0.0,0.0,0.23342462428971678,0.6605110410498644,0.32709086181885466,-0.00860904867184695,-0.019224926103602484,0.15809503196526484
3858,10.0,299.3146,-4032.6927,0.0,0.03858002479070888,0.0,0.0,0.0,0.0,0.2303422364255088,0.6687457651425684,0.3267498727627017,-0.006557271326902294,-0.002487081848230868,0.15243797559695685
3859,10.0,299.58452,-3905.9833,0.0,0.03859002077812801,0.0,0.0,0.0,0.0,0.21837003801394478,0.6520582554031394,0.31689309737991367,0.02315995987396008,0.014144177007921588,0.16813621886625282
3860,10.0,299.70871,-4049.6204,0.0,0.03860001676554714,0.0,0.0,0.0,0.0,0.23862083424754277,0.6757005719739543,0.3166620763571137,-0.0015021012233708486,0.007206553277031433,0.16406353101680984
3861,10.0,299.65685,-4275.6955,0.0,0.038610012752966494,0.0,0.0,0.0,0.0,0.2783363067571547,0.6828698230565043,0.33849853806970465,-0.0003143102114175027,-0.0059072234610225635,0.16148487030731584
3862,10.0,299.91322,-4236.5307,0.0,0.03862000874038607,0.0,0.0,0.0,0.0,0.27944470104154473,0.6845987114371324,0.32375615441474465,-0.009175153225242122,-0.015114288998164185,0.16083944012611684
3863,10.0,299.64257000000003,-4170.7327,0.0,0.03863000472780542,0.0,0.0,0.0,0.0,0.25748800707208774,0.6809029526248894,0.3294076379075027,0.011373020057679688,0.0023011975710105176,0.14828535244712487
3864,10.0,300.00653,-4086.719,0.0,0.038640000715224554,0.0,0.0,0.0,0.0,0.24780880376932476,0.6494323265764804,0.34501941041326467,0.003694417877060656,0.00048357259697489957,0.13019199872394988
3865,10.0,300.43723,-4009.2267,0.0,0.038649996702643685,0.0,0.0,0.0,0.0,0.23075157933340779,0.6576765042926174,0.3302767126507737,0.0094912424707877,-0.021123023197930083,0.13850001119638686
3866,10.0,299.97171000000003,-4118.0666,0.0,0.03865999269006304,0.0,0.0,0.0,0.0,0.2438653661026378,0.6698891368204104,0.3380349254864497,0.0016990733951104883,-0.0005703211126263115,0.14142301481986486
3867,10.0,300.21682000000004,-4168.0032,0.0,0.03867002166753997,0.0,0.0,0.0,0.0,0.25494273295338876,0.6614028632578803,0.35062331168132665,0.008180958914572782,0.0014571360210331285,0.13419305992382388
3868,10.0,300.37866,-4050.6204,0.0,0.0386800176549591,0.0,0.0,0.0,0.0,0.24546615940562375,0.6714129636458004,0.3144083142921847,-0.00040385013990190563,0.005726217071108625,0.15394384763057484
3869,10.0,299.56052,-3992.1857,0.0,0.03869001364237867,0.0,0.0,0.0,0.0,0.2247928176153238,0.6513534183685774,0.3373785420716697,-0.02274250691226068,-0.00995761393141498,0.14782846784453388
3870,10.0,299.84378,-4134.7702,0.0,0.038700009629797805,0.0,0.0,0.0,0.0,0.2671218066378698,0.6670240505726484,0.3227210282450857,-0.010038789855226422,-0.0012928322484176088,0.15764499693334985
3871,10.0,299.6553,-4207.4332,0.0,0.03871000561721738,0.0,0.0,0.0,0.0,0.25786357835415374,0.6777927713104384,0.34329828352840264,-0.01082088386618809,0.003389790415321267,0.15267693036803984
3872,10.0,298.82791000000003,-4111.3241,0.0,0.03872000160463651,0.0,0.0,0.0,0.0,0.25953957507956177,0.6665888292571954,0.32361146230046467,-0.002996930350773997,0.005511887621180954,0.16133364272989084
3873,10.0,299.04876,-4080.4840000000004,0.0,0.03872999759205564,0.0,0.0,0.0,0.0,0.24088467815096679,0.6780388897597284,0.3214416885363247,-0.0007775957378052243,-0.01922072010243738,0.15447565194555984
3874,10.0,299.95556,-4100.2105,0.0,0.038739993579474996,0.0,0.0,0.0,0.0,0.25479603460391076,0.6627177477801494,0.32884782735975365,0.0026396692072900674,0.008025613792716412,0.15944261406826085
3875,10.0,300.03102,-4159.2301,0.0,0.038750022556951924,0.0,0.0,0.0,0.0,0.23339863442465178,0.6772238415117894,0.3536796286204617,0.01950787416752728,0.01121422958150829,0.14245638806685085
3876,10.0,300.52913,-4108.4623,0.0,0.03876001854437128,0.0,0.0,0.0,0.0,0.24249019319941875,0.6788880034760294,0.3274917542209197,0.01117774548515759,0.002308702815826228,0.15227194443557085
3877,10.0,300.20328,-4106.2836,0.0,0.03877001453179063,0.0,0.0,0.0,0.0,0.2209689333279358,0.6677740177666643,0.35946471927140566,0.0025243908314879775,-0.019432324213571082,0.14523896535896988
3878,10.0,299.55812000000003,-4003.994,0.0,0.03878001051920976,0.0,0.0,0.0,0.0,0.21825067715216478,0.6881336674585053,0.31072985165914874,-0.004877306410127665,-0.019036751374531084,0.16718211217458984
3879,10.0,300.15337,-4043.2035,0.0,0.038790006506629116,0.0,0.0,0.0,0.0,0.2378793783543668,0.6681631666000704,0.32299037038666767,-0.008381384951928292,0.004165634294366096,0.14493832392179887
3880,10.0,300.1215,-4240.9384,0.0,0.03880000249404847,0.0,0.0,0.0,0.0,0.2872359356979797,0.6677622336680014,0.3341412181346707,-0.016501508431822087,-0.0003018028447006217,0.15242801534847386
3881,10.0,299.23873,-4235.4293,0.0,0.0388099984814676,0.0,0.0,0.0,0.0,0.27668454697413875,0.6768177916667153,0.3339624098895237,-0.0018250535158187585,-0.014064307568789087,0.14693376800623387
3882,10.0,300.06612,-4002.3101,0.0,0.038819994468887176,0.0,0.0,0.0,0.0,0.25747251447805874,0.6490911754003115,0.3100386428384317,0.002885826058758857,0.014873170938117684,0.15960630462191586
3883,10.0,299.91145,-4195.2212,0.0,0.03883002344636388,0.0,0.0,0.0,0.0,0.27227963468190775,0.6636338981230664,0.33932897758666264,0.014376912449890786,0.018474194919011082,0.14067170000321585
3884,10.0,299.34162000000003,-4304.035,0.0,0.038840019433783235,0.0,0.0,0.0,0.0,0.2765791385662357,0.6982349806204273,0.3335050389268847,0.0035254347128333167,-0.0025441324898113275,0.15940028047908286
3885,10.0,299.20566,-4120.3087,0.0,0.03885001542120259,0.0,0.0,0.0,0.0,0.2426334768960598,0.6562858387953693,0.35355164500033065,-0.007602830122240913,-0.015154640670146586,0.14420213692914285
3886,10.0,299.76312,-4019.6220000000003,0.0,0.03886001140862172,0.0,0.0,0.0,0.0,0.2243666243582618,0.6722044335639124,0.3252936499839837,0.0025370427788616277,-0.005745548363141474,0.15616462840474885
3887,10.0,299.74881,-3970.0114,0.0,0.03887000739604107,0.0,0.0,0.0,0.0,0.2142608528958998,0.6659011364143254,0.3266223451051157,0.006411606492526294,0.008887118037865262,0.15135555091262984
3888,10.0,300.54354,-3933.7184,0.0,0.038880003383460426,0.0,0.0,0.0,0.0,0.22668154619922679,0.6503496928195174,0.3187209296328067,-0.016897778386930885,-0.00025515565732940273,0.15094867020247385
3889,10.0,299.7972,-4122.4682,0.0,0.03888999937087978,0.0,0.0,0.0,0.0,0.24177185967352477,0.6993826991411983,0.3119728258218207,-0.010546731826381389,-0.028357376612655173,0.16588810060438086
3890,10.0,300.0418,-4207.0276,0.0,0.03889999535829913,0.0,0.0,0.0,0.0,0.27224094879308974,0.6809864343006283,0.3256039578271087,-0.007980327795397032,-0.008368976691203692,0.15648833141419585
3891,10.0,300.77406,-4087.2387,0.0,0.03891002433577584,0.0,0.0,0.0,0.0,0.2502625104764868,0.6810898364733334,0.31106614936733873,0.013122383183078385,0.0010648433765418589,0.17079351791600783
3892,10.0,300.18498,-4160.1285,0.0,0.03892002032319519,0.0,0.0,0.0,0.0,0.26475021371881174,0.6699300315944464,0.3298949301455947,-0.0013695682116158586,-0.015248242687884385,0.15033082068899686
3893,10.0,300.06019,-4367.6941,0.0,0.038930016310614546,0.0,0.0,0.0,0.0,0.2791019489302177,0.6767584354758573,0.37180957080474764,0.006499568050932425,-0.012382172574275289,0.15192732794405986
3894,10.0,300.08599,-4195.1304,0.0,0.03894001229803368,0.0,0.0,0.0,0.0,0.25506425203788174,0.6772016614671004,0.3429489756889287,0.00819102585829131,0.01387602543520709,0.15248864823445785
3895,10.0,299.8644,-4049.5845,0.0,0.03895000828545303,0.0,0.0,0.0,0.0,0.2471510524669098,0.6605577620119755,0.3232637553961487,0.016429872663002183,0.03138339940030037,0.15692315756210984
3896,10.0,299.6249,-4070.6123,0.0,0.038960004272872384,0.0,0.0,0.0,0.0,0.25369665824541077,0.6574200608248083,0.32624777694064866,-0.012760672149130287,0.008105237012074613,0.13645231380429487
3897,10.0,300.04053999999996,-4036.5313,0.0,0.03897000026029174,0.0,0.0,0.0,0.0,0.2372829996105088,0.6720782737939613,0.3176434496089677,-0.017100106193399085,-0.016890202315933182,0.14884622690747887
3898,10.0,299.39443,-4063.0674,0.0,0.03897999624771109,0.0,0.0,0.0,0.0,0.2226897461052668,0.6657766687720413,0.34660463006221365,-0.008197367993317233,-0.00981006343860288,0.14070013180102187
3899,10.0,299.88645,-4151.8746,0.0,0.0389900252251878,0.0,0.0,0.0,0.0,0.24585313988381577,0.6685494783331963,0.3476635878742247,0.017507847152889985,0.007412619165768553,0.14906742953680988
3900,10.0,299.93971,-4177.6502,0.0,0.03900002121260715,0.0,0.0,0.0,0.0,0.24999530629261574,0.6837005260184883,0.33620551256340064,0.006974430952697743,-0.019808718254718284,0.14898918636408784
3901,10.0,299.52615,-4108.3975,0.0,0.0390100172000265,0.0,0.0,0.0,0.0,0.2632802917987418,0.6577702400593683,0.3277997113238127,0.0025532954117906377,-0.017670584238200882,0.15425594892637684
3902,10.0,300.15533,-4331.1107,0.0,0.039020013187445635,0.0,0.0,0.0,0.0,0.28873300258822876,0.6994233608677114,0.3283931415098797,0.005671853670118375,-0.0025757939209860676,0.15567601894152686
3903,10.0,300.48109,-4341.9333,0.0,0.03903000917486499,0.0,0.0,0.0,0.0,0.2878809504466377,0.6765614697889183,0.35539688488994164,0.0024803356290650676,0.011829597645490388,0.15496852719170284
3904,10.0,299.82952,-4105.689,0.0,0.03904000516228412,0.0,0.0,0.0,0.0,0.24683239544296076,0.6556302457156673,0.3455642957870407,-0.0006655154326312594,-0.005359311914497905,0.13580038868995487
3905,10.0,300.12807000000004,-4044.781,0.0,0.039050001149703695,0.0,0.0,0.0,0.0,0.2145194748514238,0.6774852093750844,0.33750775172442166,-0.009737734201414541,-0.006498466242773684,0.16000939577669784
3906,10.0,299.54419,-4110.8607,0.0,0.03905999713712305,0.0,0.0,0.0,0.0,0.23877712807546778,0.6762753684906824,0.33454649790966867,-0.002335453226416288,0.01279124190464729,0.14149596882706486
3907,10.0,299.29305,-4088.563,0.0,0.03906999312454218,0.0,0.0,0.0,0.0,0.24064270389458575,0.6979996938147063,0.3041786730050977,0.00023951785442857178,0.03054579519188527,0.17885036595365683
3908,10.0,299.31865,-4083.8613,0.0,0.039080022102018885,0.0,0.0,0.0,0.0,0.25959293282982776,0.6750629438185254,0.30673598453498474,-0.013734154209205486,-0.0013998259874270687,0.16001635680488485
3909,10.0,299.18761,-4131.4929999999995,0.0,0.03909001808943846,0.0,0.0,0.0,0.0,0.2380059839543618,0.6854809989617073,0.3323837257037197,-0.01977525668341588,-0.0101299568303239,0.16919398104314584
3910,10.0,299.67831,-4001.8338,0.0,0.03910001407685759,0.0,0.0,0.0,0.0,0.2217191538344768,0.6724114000293384,0.3223269854136967,-0.0047756790462978255,-0.014169260014147086,0.15514293793141584
3911,10.0,300.31122999999997,-4072.3509,0.0,0.039110010064276945,0.0,0.0,0.0,0.0,0.2339752142615558,0.6583847255825134,0.34553303702145566,0.008688530542816202,0.0033315654168749064,0.15683855117875986
3912,10.0,300.14553,-4306.4346,0.0,0.0391200060516963,0.0,0.0,0.0,0.0,0.2872199668764038,0.6814151302854374,0.3404134693011937,0.00952146042586998,-0.007673290622269823,0.14567022486653186
3913,10.0,300.20228,-4299.9589,0.0,0.03913000203911565,0.0,0.0,0.0,0.0,0.2899848629542777,0.6822660475869163,0.3348292250850717,0.01066381084893619,-0.015045614959386586,0.14864407338002786
3914,10.0,300.38061,-4139.5414,0.0,0.039139998026535006,0.0,0.0,0.0,0.0,0.2703674392256888,0.6712471756644384,0.3167026266261157,0.01137870844374109,-0.0010971042464757589,0.15434427393759384
3915,10.0,300.0757,-4219.2404,0.0,0.03914999401395414,0.0,0.0,0.0,0.0,0.24282530540499178,0.6885748872145504,0.3511435446801697,0.004093846234056166,0.015516968773405587,0.14486620077968088
3916,10.0,299.42965,-4240.4053,0.0,0.03916002299143084,0.0,0.0,0.0,0.0,0.24740226756420278,0.6725335067988893,0.3690415437840647,-0.009322620327570991,0.0006048749675365114,0.13801447188096788
3917,10.0,299.07731,-4070.1814,0.0,0.03917001897885042,0.0,0.0,0.0,0.0,0.21936335748447777,0.6679017784717733,0.34996836708168866,-0.02085944239641668,-0.004232917039431386,0.13140226517339387
3918,10.0,299.87807000000004,-4067.3347,0.0,0.03918001496626955,0.0,0.0,0.0,0.0,0.23794258489560477,0.6791625537231254,0.3192630589663107,-0.0011218334257663389,0.006085816593173334,0.15961734904800584
3919,10.0,300.22900000000004,-4142.9229,0.0,0.0391900109536889,0.0,0.0,0.0,0.0,0.2815019432495787,0.6649222152277133,0.3129209543378937,-0.007424209328362413,0.022614784710655478,0.14677156693022586
3920,10.0,300.48193,-4153.9082,0.0,0.039200006941108256,0.0,0.0,0.0,0.0,0.27806207061758975,0.6893287959514554,0.29529350314319974,-0.008576531449637752,-0.003757673256953476,0.16778299988139284
3921,10.0,300.21095,-4283.8508,0.0,0.03921000292852739,0.0,0.0,0.0,0.0,0.2602276124274657,0.6908161761707483,0.3511398868473087,-0.014725829174826186,-0.005387046292260075,0.16747578245107284
3922,10.0,300.89788,-4288.1699,0.0,0.03921999891594696,0.0,0.0,0.0,0.0,0.26034745964929373,0.6816530819389214,0.36149602227687966,0.01130657922212249,-0.0072403419254661126,0.14793124180217684
3923,10.0,300.25017,-4115.996,0.0,0.039229994903366094,0.0,0.0,0.0,0.0,0.23330530395794077,0.6736285565794623,0.3442261571749767,0.01979136432025558,0.019925337261727682,0.15117180813949585
3924,10.0,299.88318,-4089.7429,0.0,0.0392400238808428,0.0,0.0,0.0,0.0,0.24631137210903978,0.6650084833412274,0.33185985513701766,0.009563988255092151,-0.01579780623737209,0.14420979709989887
3925,10.0,299.78444,-4192.0438,0.0,0.039250019868262154,0.0,0.0,0.0,0.0,0.2821022230063217,0.6806076712807474,0.3115667455792437,-0.015966690711039684,-0.005045629644564876,0.15632485364306184
3926,10.0,299.33202,-4213.4472,0.0,0.03926001585568151,0.0,0.0,0.0,0.0,0.27369541864913477,0.6851176474758474,0.3219696627659317,-0.01008697719288214,-0.002576831793063497,0.15722379899928085
3927,10.0,299.74073,-4047.7272,0.0,0.03927001184310086,0.0,0.0,0.0,0.0,0.22032118280400778,0.6846310037178193,0.32545583079498974,-0.0033742496919125175,0.00910804364461892,0.17506947386801183
3928,10.0,300.19357,-4009.5164,0.0,0.039280007830520214,0.0,0.0,0.0,0.0,0.22132782651335578,0.6667199843501393,0.3307450571119957,-0.008396682799288072,-0.003505857302351177,0.15329914698944785
3929,10.0,299.67412,-4106.595,0.0,0.039290003817939345,0.0,0.0,0.0,0.0,0.22208154273274178,0.6801681841823733,0.34605262154023464,-0.008182463489646272,0.0005491662743884914,0.15604733457317285
3930,10.0,300.12053,-4112.076,0.0,0.0392999998053587,0.0,0.0,0.0,0.0,0.25362840571867473,0.6833864184874883,0.3129535911236147,0.005328730101304715,0.009200550744298661,0.15307417506974486
3931,10.0,300.40859,-4219.8011,0.0,0.03930999579277805,0.0,0.0,0.0,0.0,0.28715926306291273,0.6812909970156863,0.31426388562293067,0.003379882247893406,0.03712940088888657,0.16161638003779485
3932,10.0,299.51242,-4324.4778,0.0,0.03932002477025476,0.0,0.0,0.0,0.0,0.2951095779850477,0.6795664554779873,0.3398572355262977,-0.007117521625194693,-0.008263507690944713,0.15763523933488685
3933,10.0,299.85017,-4154.4963,0.0,0.03933002075767411,0.0,0.0,0.0,0.0,0.25465151474214776,0.6806385956737994,0.3275730472764427,-0.006856804876413954,-0.007944381633524423,0.16224193025203185
3934,10.0,300.04127,-4223.6259,0.0,0.039340016745093465,0.0,0.0,0.0,0.0,0.24171137877505577,0.6795417423080483,0.3626236885781717,-0.00993963573356567,0.0005442962499028574,0.14067011933305987
3935,10.0,299.78157000000004,-4330.8573,0.0,0.03935001273251304,0.0,0.0,0.0,0.0,0.25619220204920173,0.6836131433298643,0.37666712218165066,0.009501293607804672,0.009280679271481731,0.1271314565318979
3936,10.0,300.36039,-4167.7773,0.0,0.03936000871993217,0.0,0.0,0.0,0.0,0.2535441337078578,0.6820414505697503,0.33131464552320966,0.0014423385165727286,-0.008663162408012562,0.13380965621848487
3937,10.0,300.25924,-4055.6659,0.0,0.0393700047073513,0.0,0.0,0.0,0.0,0.25924680659566773,0.6603626100427153,0.3132117469840927,-0.0067919903072672545,-0.004257847652841846,0.15295316261030184
3938,10.0,300.33393,-4174.1495,0.0,0.039380000694770656,0.0,0.0,0.0,0.0,0.25228064123066074,0.6928767317066094,0.32367984654971366,0.002363235632233198,-0.01033743285922519,0.16138233952969686
3939,10.0,300.27948,-4172.9122,0.0,0.03938999668219001,0.0,0.0,0.0,0.0,0.24788763462710478,0.6833297474093953,0.3372437088808627,-0.0006521756201622224,0.015616874220015486,0.16995312828306786
3940,10.0,300.14087,-4187.1399,0.0,0.03939999266960936,0.0,0.0,0.0,0.0,0.2369991173299918,0.6836121706097683,0.3521746887769357,-0.0016416504854432884,-0.009026440129265281,0.15839605843747384
3941,10.0,299.99979,-4172.0255,0.0,0.03941002164708607,0.0,0.0,0.0,0.0,0.23687531843277376,0.6920170801892683,0.33929917790122166,-0.0024660615696063277,-0.010707745373272189,0.15894656734930485
3942,10.0,300.08974,-4070.6256,0.0,0.03942001763450542,0.0,0.0,0.0,0.0,0.25050897343081074,0.6643288458366523,0.3225307094788027,-0.005679722469069964,0.00027318431503369276,0.14599110090819986
3943,10.0,299.21795,-4150.2355,0.0,0.039430013621924775,0.0,0.0,0.0,0.0,0.2557351553265948,0.6837960653704174,0.3220367399225517,0.0022358993775910877,0.009753164581887401,0.16609298990710183
3944,10.0,300.23002,-4282.0861,0.0,0.03944000960934413,0.0,0.0,0.0,0.0,0.2761666039205217,0.6812302729371933,0.3442503839848677,-0.0025825041697733176,-0.006496061698961373,0.15633573594913586
3945,10.0,300.37338,-4337.4033,0.0,0.03945000559676326,0.0,0.0,0.0,0.0,0.2705833324244957,0.6870352334225983,0.3608437526575056,-0.004540953986432266,-0.0046910379084693955,0.16271952568666684
3946,10.0,299.66934,-4175.2797,0.0,0.039460001584182613,0.0,0.0,0.0,0.0,0.22609911990924578,0.7070888309217344,0.3359928313674107,0.01178684254427079,0.006021978797123034,0.17427015126162482
3947,10.0,299.29342,-4113.7562,0.0,0.03946999757160197,0.0,0.0,0.0,0.0,0.22516377860943476,0.6869664134758063,0.33834896208994264,0.002094991245809538,0.030351174165677675,0.15443878990692184
3948,10.0,298.80332000000004,-4201.2203,0.0,0.03947999355902154,0.0,0.0,0.0,0.0,0.26840343629185676,0.6803004133204233,0.3283622272493287,-0.0018745802687816682,-0.01130798257351099,0.15325121012721685
3949,10.0,298.71317999999997,-4154.1885,0.0,0.039490022536498026,0.0,0.0,0.0,0.0,0.25743109281397075,0.6843652180840883,0.3209732528825937,-0.01020916147606579,-0.02455950549508448,0.15733248020500684
3950,10.0,299.19435,-4068.4723,0.0,0.03950001852391738,0.0,0.0,0.0,0.0,0.2505044746003668,0.6589920068974474,0.3272175079488537,-0.004046661406049387,-0.013822713281195588,0.15913692664559184
3951,10.0,299.39351,-4209.8024,0.0,0.03951001451133673,0.0,0.0,0.0,0.0,0.2551545630192948,0.6766686412519953,0.3478516065627807,0.00944988849180638,0.0053196555347341246,0.15025869754687884
3952,10.0,299.81792,-4269.8691,0.0,0.039520010498756086,0.0,0.0,0.0,0.0,0.25816341932374576,0.6812730219589124,0.3584971363534127,-0.007915571488131082,-0.0033401728751493976,0.15752084339859684
3953,10.0,300.10332,-4326.2493,0.0,0.03953000648617522,0.0,0.0,0.0,0.0,0.27930708141296273,0.6857461969103803,0.35001849256413564,0.005024904525694465,-0.001828032268462738,0.13942016387719888
3954,10.0,300.47335,-4415.3213,0.0,0.03954000247359457,0.0,0.0,0.0,0.0,0.29718190748707074,0.6952377868246273,0.3497277201829387,0.012437287300214688,-0.004199815171914486,0.14333379172594385
3955,10.0,300.79631,-4197.7662,0.0,0.039549998461013924,0.0,0.0,0.0,0.0,0.26421007035550376,0.6729487772198733,0.33885725900260766,0.009128222419035412,0.01682341089584138,0.13542708708811288
3956,10.0,300.08068,-4064.3478,0.0,0.03955999444843328,0.0,0.0,0.0,0.0,0.23420227347646477,0.6758453958107474,0.3254125852807217,0.0025354038468248775,-0.027490480357099178,0.15638456447145485
3957,10.0,299.29001,-4236.2845,0.0,0.039570023425910206,0.0,0.0,0.0,0.0,0.24757938368168275,0.6876550385087684,0.3524902959180837,-0.013353364689124488,-0.027127782417553672,0.15553399167500984
3958,10.0,300.1042,-4163.9808,0.0,0.03958001941332934,0.0,0.0,0.0,0.0,0.22735857965104478,0.6798960556030164,0.35849153308035964,-0.0027762310027676673,-0.0015431147503185685,0.17397820351031182
3959,10.0,299.11289,-4072.965,0.0,0.03959001540074869,0.0,0.0,0.0,0.0,0.24074738276241678,0.6950735795134213,0.3022586957881107,0.010252509328593892,0.014541110641845887,0.18049279370325183
3960,10.0,299.63412,-4129.5441,0.0,0.039600011388168044,0.0,0.0,0.0,0.0,0.2655830445060058,0.6713367875032824,0.3183584596745337,-0.014405170981929685,0.018719705418241084,0.15936691415328985
3961,10.0,300.33335,-4140.6364,0.0,0.039610007375587175,0.0,0.0,0.0,0.0,0.26495809210932775,0.6751733374169204,0.3185186342503417,-0.016173648057214784,-0.01160946804801529,0.15920851276515685
3962,10.0,300.22176,-4118.0494,0.0,0.03962000336300653,0.0,0.0,0.0,0.0,0.23552530452953777,0.6850402655657104,0.3312186096787317,-0.006123847821101724,-0.0018972050289395583,0.15628994717711686
3963,10.0,300.59747000000004,-4208.3844,0.0,0.03962999935042588,0.0,0.0,0.0,0.0,0.24649832688499076,0.6778511142511964,0.3548943432378447,0.003257728767512797,0.01010178189141825,0.15376028724245885
3964,10.0,300.77552000000003,-4285.8143,0.0,0.039639995337845235,0.0,0.0,0.0,0.0,0.24893061348503878,0.6988200413606683,0.35502986543871967,0.007712199426109823,-0.007342779585400924,0.15012650893883286
3965,10.0,299.82887999999997,-4143.437,0.0,0.03965002431532216,0.0,0.0,0.0,0.0,0.27771495139833174,0.6675438073439444,0.3142426377683337,0.006415651690900524,-0.017053164342766287,0.14932489638721988
3966,10.0,299.76043,-4223.1344,0.0,0.039660020302741295,0.0,0.0,0.0,0.0,0.27114802683772676,0.6808608824807374,0.3317185067480677,0.003907788488418697,-0.0035898249328381367,0.14949394703390387
3967,10.0,300.0682,-4403.6483,0.0,0.03967001629016065,0.0,0.0,0.0,0.0,0.28075311089567473,0.7038809115026373,0.35396510170363565,0.024769335405293077,-0.00037327585515695865,0.14687363161279887
3968,10.0,299.37445,-4208.4389,0.0,0.03968001227757978,0.0,0.0,0.0,0.0,0.24502602382718577,0.6796813276418243,0.3545529792791547,-0.007503886452625932,-0.005621097642134145,0.14805533454192385
3969,10.0,299.60022000000004,-4021.5509,0.0,0.03969000826499913,0.0,0.0,0.0,0.0,0.20992787122826778,0.6727603329662754,0.3397628512794827,-0.008097054206917031,-0.006822902439993043,0.16042371374258785
3970,10.0,299.61183,-4201.9153,0.0,0.03970000425241871,0.0,0.0,0.0,0.0,0.24075376623804678,0.6873925358053613,0.34913103746405066,-0.014824225892037185,0.015592533926113287,0.15595036653860286
3971,10.0,300.08518,-4271.1051,0.0,0.03971000023983784,0.0,0.0,0.0,0.0,0.2934678189805187,0.6839931121173644,0.32084836980776865,-0.0035508911017206666,0.035941292192629364,0.16040695458593385
3972,10.0,299.87155,-4267.0909,0.0,0.03971999622725719,0.0,0.0,0.0,0.0,0.2915603250047637,0.6850826295523913,0.32044611965056974,-0.017438545912300485,0.01020269998017809,0.14907519103257585
3973,10.0,299.66222999999997,-4320.7906,0.0,0.03973002520473412,0.0,0.0,0.0,0.0,0.28485702711319977,0.6882773463226853,0.3402780788228317,-0.01276070254663329,-0.024313403257796077,0.15445996683401186
3974,10.0,299.99737000000005,-4278.2408,0.0,0.03974002119215325,0.0,0.0,0.0,0.0,0.24384316579294676,0.6826094380458064,0.3740257716884697,-0.0014172747620991286,0.005262099382678775,0.13264593847863487
3975,10.0,299.78657000000004,-4254.6348,0.0,0.039750017179572605,0.0,0.0,0.0,0.0,0.22167629335524677,0.7001470240891313,0.3714794336571657,0.018849468305547682,0.0064020435394075035,0.17036222801094283
3976,10.0,299.80801,-4393.3755,0.0,0.03976001316699174,0.0,0.0,0.0,0.0,0.2523827971057428,0.7032851407088393,0.3798085217316826,0.005563875761286785,0.008277411610141922,0.14118396885627288
3977,10.0,299.9726,-4240.0589,0.0,0.03977000915441109,0.0,0.0,0.0,0.0,0.2824774497833537,0.6935904650770494,0.3128041266013637,0.016755626490651584,-0.012785192801550289,0.16236292244647285
3978,10.0,300.17028999999997,-3912.6645,0.0,0.039780005141830665,0.0,0.0,0.0,0.0,0.23937767127723678,0.6639774507019723,0.2859971867882247,-0.0026598057291773876,0.007018301642277442,0.17342076396779685
3979,10.0,299.97584,-4020.9592,0.0,0.0397900011292498,0.0,0.0,0.0,0.0,0.23581474955310375,0.6821481762027833,0.3043082474278857,-0.0007955864087632654,0.008227114685778003,0.17320208433121484
3980,10.0,300.43116000000003,-4311.1462,0.0,0.03979999711666915,0.0,0.0,0.0,0.0,0.24490551799279278,0.7075907038287653,0.35798457365782665,-0.022404940614945478,0.0006660552010920303,0.16333923958032784
3981,10.0,300.30127000000005,-4305.5104,0.0,0.03980999310408828,0.0,0.0,0.0,0.0,0.23238612399722477,0.6975998045302403,0.37878171434534463,-0.007161434263328534,-0.017019457564939684,0.15218686182467386
3982,10.0,299.81494,-4188.1952,0.0,0.03982002208156521,0.0,0.0,0.0,0.0,0.26358400338371574,0.6805928778292873,0.3289298702203507,0.006417955416327884,0.02947149879986047,0.14849735476554785
3983,10.0,299.50427,-4311.2878,0.0,0.03983001806898456,0.0,0.0,0.0,0.0,0.3117542171127457,0.6761446693602834,0.3226249620031047,0.011632376619526187,0.026855236379155475,0.13389113165902586
3984,10.0,299.29946,-4381.8129,0.0,0.039840014056403694,0.0,0.0,0.0,0.0,0.30752856902820674,0.6855279732363433,0.3389051654673357,-0.00937875792948634,0.007371654680125674,0.14846746388759785
3985,10.0,299.31439,-4382.6771,0.0,0.03985001004382305,0.0,0.0,0.0,0.0,0.2831128994510677,0.6940308539680123,0.3550806596662327,-0.012791490150921788,-0.012170601900394887,0.14851155039944886
3986,10.0,299.75012000000004,-4387.8994,0.0,0.03986000603124262,0.0,0.0,0.0,0.0,0.24182897658166178,0.7083397894951944,0.3836430856751246,-0.004571368005408896,0.007947354205342793,0.15174069740814086
3987,10.0,300.33256,-4076.462,0.0,0.039870002018661754,0.0,0.0,0.0,0.0,0.2072477233887578,0.6819913960148104,0.34990353934029067,0.003198299521322587,0.008330553943436661,0.15725632432749084
3988,10.0,300.07875,-3892.305,0.0,0.03987999800608111,0.0,0.0,0.0,0.0,0.21351965031524878,0.6551086650941914,0.31453521373470866,0.000993828344998221,0.0009127114227401041,0.15526008990797785
3989,10.0,299.8923,-4167.9332,0.0,0.03988999399350024,0.0,0.0,0.0,0.0,0.27102010401260174,0.6740098324595913,0.32191770330080366,-0.0013902797529349287,-0.037101819207914465,0.14686764330470786
3990,10.0,300.20422,-4198.9234,0.0,0.03990002297097717,0.0,0.0,0.0,0.0,0.28566334114527675,0.6782685732923963,0.3124359419125267,0.017925255531584982,-0.00982628445812877,0.15413366990430885
3991,10.0,300.25155,-4106.8665,0.0,0.03991001895839652,0.0,0.0,0.0,0.0,0.25604946550761476,0.6733775542646904,0.3189578579036897,0.0025574532835759877,0.0033623031692584866,0.16672246139922586
3992,10.0,299.63071,-4302.232,0.0,0.03992001494581565,0.0,0.0,0.0,0.0,0.2386935957372238,0.6996300233581073,0.36944748217162765,-0.0028719993492192677,0.0006584658767830224,0.15836660325706683
3993,10.0,299.49266,-4528.8667,0.0,0.039930010933235005,0.0,0.0,0.0,0.0,0.2681491105167567,0.7234670460681383,0.38504622428110363,-0.010969312846836889,-0.0005710176714075564,0.15994205517505186
3994,10.0,300.01166,-4418.5953,0.0,0.03994000692065436,0.0,0.0,0.0,0.0,0.28676226154123174,0.7028729303031573,0.35350744703096865,-0.007908042837238062,0.02124092903256648,0.13734758106265088
3995,10.0,300.52078,-4216.8735,0.0,0.03995000290807371,0.0,0.0,0.0,0.0,0.27622993205177176,0.6851831743598144,0.3204111321246167,0.0015319216804388985,0.02016697106607508,0.15914332025372285
3996,10.0,299.8168,-4099.2821,0.0,0.039959998895493065,0.0,0.0,0.0,0.0,0.25570959102657176,0.6699624353326444,0.3204073830992467,-0.02105578696104438,0.003139484507342997,0.14758342344034986
3997,10.0,299.47916000000004,-3994.1820000000002,0.0,0.039969994882912196,0.0,0.0,0.0,0.0,0.22511198126432277,0.6658449111662764,0.32317470084485966,-0.009276055304650381,-0.028136543819610674,0.17217836735768183
3998,10.0,299.3426,-4097.8966,0.0,0.039980023860389124,0.0,0.0,0.0,0.0,0.2082090950836378,0.6932618376721164,0.34418731929864366,-0.0018043933462797582,0.0008485024225156692,0.18624277523823082
3999,10.0,298.89952,-4284.1314,0.0,0.03999001984780848,0.0,0.0,0.0,0.0,0.25382759042333275,0.6848614370555614,0.3635799534925477,0.02308609495492018,0.016820580888312085,0.15691985436678385
4000,10.0,299.97156,-4154.2604,0.0,0.04000001583522783,0.0,0.0,0.0,0.0,0.26665735305703175,0.6800172099174734,0.3161168667433057,0.007734844755244742,0.004176835976871616,0.16156943616066186
4001,10.0,300.04437,-4154.6294,0.0,0.04001001182264696,0.0,0.0,0.0,0.0,0.28124174062389873,0.6797125357449043,0.3019493201350777,-0.001130634009509889,-0.017605190089996982,0.15376893026581187
4002,10.0,299.52821,-4429.6985,0.0,0.040020007810066316,0.0,0.0,0.0,0.0,0.30602167361198773,0.6892749721061434,0.35122108871032265,-0.0025543321692929576,0.002068878270857388,0.14053367507459386
4003,10.0,299.76264,-4465.1506,0.0,0.04003000379748567,0.0,0.0,0.0,0.0,0.27530220026021174,0.7149297047005683,0.36706237249623563,0.0008684046708473682,0.00987794156942693,0.14262023060802087
4004,10.0,300.48599,-4302.9104,0.0,0.04003999978490502,0.0,0.0,0.0,0.0,0.23745342827732877,0.6906093718253383,0.37991451782464364,-0.007064687623905383,0.00891496640626368,0.15707206479680585
4005,10.0,300.12894,-4193.7641,0.0,0.040049995772324154,0.0,0.0,0.0,0.0,0.25260426318009976,0.6702825311717354,0.3519127737585867,-0.003925737909965166,-0.013614583604654786,0.14868272887134285
4006,10.0,300.34087,-4149.6845,0.0,0.04006002474980086,0.0,0.0,0.0,0.0,0.26059933335915175,0.6840618307391464,0.3167393164122367,0.006549386113299083,0.00946849034509224,0.15130181825982686
4007,10.0,299.63122999999996,-4202.7293,0.0,0.040070020737220435,0.0,0.0,0.0,0.0,0.27797094903609676,0.6690649490565693,0.3304888568242107,0.016890870047749085,0.014211866167601986,0.14982349649642787
4008,10.0,299.22482,-4286.7992,0.0,0.04008001672463979,0.0,0.0,0.0,0.0,0.27346378967627477,0.7068478192529483,0.3227683166272527,-0.0034683504313495366,-0.01055349020454839,0.15482028870207284
4009,10.0,299.96417,-4159.9766,0.0,0.04009001271205892,0.0,0.0,0.0,0.0,0.2258715642017878,0.6870711227411403,0.35158632484136865,-0.006375067883320214,-0.016075725541050585,0.16425855126355685
4010,10.0,300.33657,-4082.1254,0.0,0.04010000869947827,0.0,0.0,0.0,0.0,0.2156538184708748,0.6834559173118473,0.3417544348810367,-0.008544716511072862,-0.0058632948135371446,0.16574315517757585
4011,10.0,299.81818,-4255.8145,0.0,0.04011000468689763,0.0,0.0,0.0,0.0,0.25844315741135376,0.7057310555227323,0.3294871172453467,0.01058139308580219,0.024527827243958078,0.16577512321823085
4012,10.0,299.31476000000004,-4359.4243,0.0,0.04012000067431698,0.0,0.0,0.0,0.0,0.3042293659076007,0.6740357108671454,0.3468910657329827,0.003500974754094307,0.004290408140830316,0.14182214416675587
4013,10.0,300.24269,-4185.9539,0.0,0.040129996661736334,0.0,0.0,0.0,0.0,0.26702185964800573,0.6818613858944794,0.32354222692113166,0.0070424905566147025,-0.017456305146803183,0.15658494481123086
4014,10.0,300.78002000000004,-4014.4393,0.0,0.04014002563921282,0.0,0.0,0.0,0.0,0.23504635133976878,0.6699223815561913,0.31532057375471767,0.005655791224233135,-0.0028734099960084874,0.15669805391989383
4015,10.0,300.97082,-4275.6794,0.0,0.04015002162663217,0.0,0.0,0.0,0.0,0.22756566770648276,0.6907232611365783,0.38141085517482065,0.01055890501308279,0.003827125167832846,0.14947572879710586
4016,10.0,300.28792000000004,-4350.1161,0.0,0.040160017614051746,0.0,0.0,0.0,0.0,0.24568386632210978,0.7105011127535003,0.3661416929253717,0.006371857197728344,-0.008290560050064571,0.16733892276006584
4017,10.0,300.27688,-4204.1553,0.0,0.04017001360147088,0.0,0.0,0.0,0.0,0.26538230952869474,0.6833998541838144,0.3291760798621497,-0.018281750354018283,-0.008939575414092403,0.15754556670103684
4018,10.0,300.47026,-4107.0007,0.0,0.04018000958889023,0.0,0.0,0.0,0.0,0.26786944335665575,0.6741457194305024,0.3064105083378627,-0.01061480095484929,0.015815486438366985,0.16321081013015284
4019,10.0,300.7378,-4097.5089,0.0,0.04019000557630936,0.0,0.0,0.0,0.0,0.27405429156955274,0.6847762733846563,0.2867098359810577,-0.013248719258546789,0.029192456815071172,0.15235779711654385
4020,10.0,300.60458,-4241.6497,0.0,0.04020000156372894,0.0,0.0,0.0,0.0,0.2669997910608278,0.6774587432824724,0.34489704019868767,-0.01202771438454299,0.00955195813930487,0.15837016989741884
4021,10.0,300.23985,-4415.9277,0.0,0.04020999755114829,0.0,0.0,0.0,0.0,0.2510109881928558,0.7149458660396634,0.3763749109853116,-0.0028037449986330876,-0.01915842548628938,0.15466031677628486
4022,10.0,299.98176,-4281.0053,0.0,0.04021999353856742,0.0,0.0,0.0,0.0,0.24135492752237678,0.6895723812754954,0.37039142596478764,0.02111950114058248,-0.01089922228441949,0.16057499198251785
4023,10.0,299.40985,-4103.3474,0.0,0.04023002251604435,0.0,0.0,0.0,0.0,0.25208383766373776,0.6579603156456273,0.33727098557355467,0.02801708771232127,0.008087795127503232,0.14990426266189885
4024,10.0,299.75475,-4249.5128,0.0,0.040240018503463704,0.0,0.0,0.0,0.0,0.2858493535986347,0.6855237074534224,0.3203727096808247,0.02057135208823438,-0.014357209801696288,0.16546527133765085
4025,10.0,299.71655,-4376.1072,0.0,0.040250014490882835,0.0,0.0,0.0,0.0,0.3050498451760757,0.6779300059039823,0.3472474764556577,-0.01033485717747099,-0.011724453695863488,0.14894572806729886
4026,10.0,299.76313999999996,-4240.5774,0.0,0.04026001047830219,0.0,0.0,0.0,0.0,0.24702909768487377,0.6972568700338954,0.34474368479605266,-0.011359506341095988,-0.006466479963616884,0.15661879749707186
4027,10.0,300.6794,-4063.9864,0.0,0.04027000646572132,0.0,0.0,0.0,0.0,0.18951903837657283,0.7020397955409333,0.34379154380958366,-0.01178569250540729,0.02311467367399068,0.17699348382039684
4028,10.0,300.38976,-4135.338,0.0,0.04028000245314067,0.0,0.0,0.0,0.0,0.23699224749431377,0.6731471513244514,0.34690009379137365,-0.015303176042055885,0.013066831746345887,0.14203963830072086
4029,10.0,300.20227,-4317.4791,0.0,0.04028999844056025,0.0,0.0,0.0,0.0,0.27017576270427174,0.7094358525258674,0.3327942338492337,-0.013696729816761986,-0.0065792253154939835,0.16812046282719784
4030,10.0,300.07892999999996,-4366.1692,0.0,0.04029999442797938,0.0,0.0,0.0,0.0,0.2992714723732947,0.6888526291994613,0.3390823119823187,0.00944050407335521,-0.005095610738872625,0.14642200577822687
4031,10.0,300.16287,-4331.3409,0.0,0.04031002340545631,0.0,0.0,0.0,0.0,0.27939272131141474,0.6951286597888573,0.34209809891745363,0.013406984871166386,0.014531074399605387,0.15573835408767886
4032,10.0,299.55944,-4347.6815,0.0,0.04032001939287544,0.0,0.0,0.0,0.0,0.25521602677036076,0.7134729145017943,0.3528976629882876,0.007164825915388263,-0.016300807905014484,0.15699479434417984
4033,10.0,300.20687999999996,-4367.1886,0.0,0.04033001538029479,0.0,0.0,0.0,0.0,0.24376005901974473,0.6985119424027614,0.3852442842781506,-0.015419872056072885,-0.005500341332316426,0.16492767123209384
4034,10.0,299.85184,-4403.3029,0.0,0.040340011367714146,0.0,0.0,0.0,0.0,0.2721133806054998,0.7109298695333154,0.35545087085526966,-0.001858411127660898,0.0022172084596214377,0.16559741941569286
4035,10.0,299.92638999999997,-4259.0239,0.0,0.04035000735513328,0.0,0.0,0.0,0.0,0.2640772940623997,0.7010775119209633,0.32948211178985265,0.013305473423147987,0.02779952873034987,0.15673299078334185
4036,10.0,300.30842,-4002.9006,0.0,0.04036000334255285,0.0,0.0,0.0,0.0,0.2536263082909677,0.6613114174363554,0.3018441143771947,-0.007975543329749842,-0.005056747733937146,0.16450242029762485
4037,10.0,300.07874,-4095.2048,0.0,0.040369999329971984,0.0,0.0,0.0,0.0,0.26418446552547675,0.6749860482684364,0.3056694881422297,-0.011800073564076589,-0.025574272430484178,0.15432936902862285
4038,10.0,299.93262999999996,-4456.4131,0.0,0.04037999531739134,0.0,0.0,0.0,0.0,0.2739423375660037,0.7034525600228623,0.37724340817602564,-0.008060715005330633,-0.024008812171735276,0.16217250235517983
4039,10.0,300.04003,-4466.8373,0.0,0.040390024294868265,0.0,0.0,0.0,0.0,0.2563421022689958,0.7216016627665394,0.37986324736958366,0.013766804167177788,0.019356797564367183,0.15596027612458085
4040,10.0,299.97105,-4344.465,0.0,0.0404000202822874,0.0,0.0,0.0,0.0,0.26461573516553977,0.7119142014754613,0.34407893193544664,0.003172163444268157,0.005656438387072004,0.16115434812469584
4041,10.0,299.4888,-4319.8371,0.0,0.04041001626970675,0.0,0.0,0.0,0.0,0.26311200108963273,0.6854430527454624,0.36456756836501764,-0.016491121605046986,0.00010145322666765392,0.14118473892634886
4042,10.0,299.40566,-4244.2078,0.0,0.0404200122571261,0.0,0.0,0.0,0.0,0.28930129403931476,0.6867423534811933,0.31408953567822373,-0.013031680073876688,-0.002076887100972798,0.14749987083710386
4043,10.0,299.10713,-4261.4259999999995,0.0,0.04043000824454546,0.0,0.0,0.0,0.0,0.2596713583875678,0.6874969309631643,0.3481988068420466,0.0017857383986886583,0.02251960810226228,0.14714228474431285
4044,10.0,299.89417000000003,-4307.1858,0.0,0.04044000423196481,0.0,0.0,0.0,0.0,0.24266230386140478,0.6979675129915304,0.36864711591763766,0.005186818750599155,0.005892178014262694,0.14457090930303784
4045,10.0,300.08269,-4255.1595,0.0,0.04045000021938394,0.0,0.0,0.0,0.0,0.23449921655077077,0.7069660554071173,0.3519969748418967,-0.0063445276133811245,-0.011836669117938289,0.17261975936624382
4046,10.0,300.249,-4243.8672,0.0,0.040459996206803295,0.0,0.0,0.0,0.0,0.27358218795045974,0.6770229646794643,0.3394245068060907,0.01121936169326479,-0.011291884055922189,0.16059454770944784
4047,10.0,300.13345,-4394.9614,0.0,0.04047002518428022,0.0,0.0,0.0,0.0,0.27927843683263576,0.7209159052313603,0.33576420161484666,0.018564671060190382,0.00969437368326019,0.18214869767917682
4048,10.0,299.99481000000003,-4364.8274,0.0,0.040480021171699354,0.0,0.0,0.0,0.0,0.30454995823924075,0.7076952307090814,0.3145533711765007,0.013495771924428988,-0.009652349439337722,0.15948795701023585
4049,10.0,299.87559,-4191.6837,0.0,0.04049001715911871,0.0,0.0,0.0,0.0,0.25597666348792975,0.6866152513886493,0.33157526358143063,-0.015915640131251386,-0.01835767926351188,0.16216824670475985
4050,10.0,299.96577,-4145.163,0.0,0.04050001314653806,0.0,0.0,0.0,0.0,0.22362388163745878,0.7006053779043674,0.3357968080030647,-0.016922839101654184,-0.004063128138724526,0.16313799797796685
4051,10.0,300.23557999999997,-4187.063,0.0,0.040510009133957414,0.0,0.0,0.0,0.0,0.2217978124397398,0.6960972863544533,0.35486750224269564,-0.023252628688355776,0.03336409866928017,0.14347404580478584
4052,10.0,300.48205,-4211.3304,0.0,0.04052000512137677,0.0,0.0,0.0,0.0,0.24073180910837974,0.6946858897601593,0.34472159594387264,-0.002020500543507878,0.027832618438865572,0.16967801061591584
4053,10.0,300.3151,-4307.0924,0.0,0.0405300011087959,0.0,0.0,0.0,0.0,0.2640055660878207,0.7058901256559313,0.33935287002402065,-0.00977901228796337,0.009559219798796542,0.15456555762693283
4054,10.0,300.16121,-4338.4204,0.0,0.04053999709621525,0.0,0.0,0.0,0.0,0.3006576897026037,0.6832852555975044,0.33482851581000167,0.00894763612261293,-0.014377611592459788,0.15291883369691384
4055,10.0,300.43892,-4250.9389,0.0,0.040549993083634606,0.0,0.0,0.0,0.0,0.25470144770707576,0.7012091027114503,0.3362687393696407,0.011039494601763289,-0.006533499364981183,0.15616989730526887
4056,10.0,300.39585,-4263.4039,0.0,0.04056002206111131,0.0,0.0,0.0,0.0,0.2503020981578938,0.6946074743349204,0.35105876604430264,0.015217982986897985,-0.016455668997298084,0.16246607130665283
4057,10.0,299.60017999999997,-4305.4478,0.0,0.04057001804853044,0.0,0.0,0.0,0.0,0.26866238248741275,0.6865353768832663,0.35355086479775366,-0.004465788560889016,-0.015046384016212486,0.15814958535064885
4058,10.0,299.10902999999996,-4228.3042,0.0,0.04058001403595002,0.0,0.0,0.0,0.0,0.26897182906795275,0.6940940301117473,0.32223302673192367,-0.0005240173765089885,0.0030801082541330174,0.16634692051466285
4059,10.0,299.51866,-4144.093,0.0,0.04059001002336937,0.0,0.0,0.0,0.0,0.2623060923575957,0.6741188581703513,0.3232758333373407,-0.012239953803489387,0.017638980967581885,0.16016165686922484
4060,10.0,300.37169,-4250.3047,0.0,0.040600006010788725,0.0,0.0,0.0,0.0,0.2823623141744907,0.6904237545395193,0.3192004198451287,-0.007498169898211753,0.01013185859943659,0.13864730736342387
4061,10.0,300.8527,-4389.6655,0.0,0.040610001998207856,0.0,0.0,0.0,0.0,0.2504822236281708,0.7130184718319443,0.3708480167248497,-0.018692451017051283,-0.007037467166593933,0.16101688048362886
4062,10.0,300.68382,-4383.4049,0.0,0.04061999798562699,0.0,0.0,0.0,0.0,0.2599207597671817,0.6985121957152863,0.37401267036467667,0.004595175937708556,-0.01095967177213539,0.14013051299230486
4063,10.0,300.36161,-4367.189,0.0,0.04062999397304656,0.0,0.0,0.0,0.0,0.24156521744813075,0.7253499484639664,0.36060124137857164,0.016893218761480883,0.0059255910508853055,0.17032003627677883
4064,10.0,300.61886,-4251.8254,0.0,0.04064002295052327,0.0,0.0,0.0,0.0,0.25331303162504976,0.6903518745774253,0.3487838574497867,0.018570404029256183,-0.006332170319136555,0.15443294345384484
4065,10.0,299.95097999999996,-4228.9077,0.0,0.04065001893794262,0.0,0.0,0.0,0.0,0.26252346490154876,0.7002190459062393,0.32273981390193973,0.007362080986555822,-0.007823422876336722,0.16832048852943884
4066,10.0,299.70686,-4303.4024,0.0,0.040660014925361976,0.0,0.0,0.0,0.0,0.28217131653064076,0.7068142908071393,0.3191412561717897,4.759136319865186e-05,-0.008593977387209533,0.16064055939648883
4067,10.0,299.37023999999997,-4261.2808,0.0,0.04067001091278133,0.0,0.0,0.0,0.0,0.24986119250937977,0.6904120818983673,0.35504967447817465,0.006125221990887344,0.0061984315397625635,0.15757346147628984
4068,10.0,299.74293,-4068.0023,0.0,0.04068000690020068,0.0,0.0,0.0,0.0,0.22845203862896077,0.6876461827028943,0.32047290998321365,0.0006030505803339585,0.007380321514856024,0.17830565283239783
4069,10.0,299.952,-4175.1567,0.0,0.040690002887619814,0.0,0.0,0.0,0.0,0.23556301769825977,0.6816219751608514,0.3519583902780887,-0.01180665057047569,0.012810801684577686,0.16466470243364084
4070,10.0,300.75641,-4387.7124,0.0,0.040699998875038945,0.0,0.0,0.0,0.0,0.26919948610042077,0.7129894016865753,0.35156612063437465,-0.006077175191020494,0.005591412757929474,0.18271147704971882
4071,10.0,300.08496,-4319.2564,0.0,0.0407099948624583,0.0,0.0,0.0,0.0,0.28996033216935674,0.7002873085654764,0.32269846316535866,-0.004233051497719655,0.01840597076327788,0.14891568520183385
4072,10.0,300.45634,-4225.3686,0.0,0.04072002383993523,0.0,0.0,0.0,0.0,0.26372419666755176,0.6838457247578184,0.33683662552068666,-0.0007246454458019372,-0.016123580330023486,0.16083201300288383
4073,10.0,299.89918,-4281.5224,0.0,0.04073001982735458,0.0,0.0,0.0,0.0,0.24819597676503577,0.7091739273750173,0.3441059857131167,-0.0013531994602253889,-0.02726728973107197,0.13709189753241688
4074,10.0,299.91596,-4312.879,0.0,0.04074001581477393,0.0,0.0,0.0,0.0,0.25558318807659675,0.7041691912885883,0.3512551541786847,-0.0030678973745278974,-0.010278034111862991,0.14891253399402285
4075,10.0,300.38937000000004,-4295.0731,0.0,0.040750011802193065,0.0,0.0,0.0,0.0,0.24484077131140278,0.6938303013757192,0.3669239118700706,0.01090541830878099,0.009640452667263601,0.14919289016419185
4076,10.0,300.17764,-4328.8154,0.0,0.04076000778961264,0.0,0.0,0.0,0.0,0.2832685650639307,0.7053312776957773,0.3272519483197527,-0.0014016075850778985,0.014603271508980685,0.15477792471539184
4077,10.0,299.57936,-4283.4093,0.0,0.04077000377703177,0.0,0.0,0.0,0.0,0.27538766790614677,0.6814982775886433,0.34516353510748865,0.007146513750305994,0.0041815131393332155,0.15933895858303085
4078,10.0,299.41229,-4172.4112,0.0,0.0407799997644509,0.0,0.0,0.0,0.0,0.26500494479395176,0.6875339145918143,0.3157699603065687,0.012977881559817186,-0.00011660277474279789,0.15709050594862584
4079,10.0,299.46389,-4291.0409,0.0,0.04078999575187048,0.0,0.0,0.0,0.0,0.24584071743758976,0.7017319701605533,0.35679659871058267,0.0091620831095522,0.0040790286672437856,0.16296472207836585
4080,10.0,300.05854,-4294.0826,0.0,0.040800024729347406,0.0,0.0,0.0,0.0,0.2603467402417228,0.6758707067982453,0.3690764299850076,0.01156560749093659,-0.0007143981435656073,0.13842025828101587
4081,10.0,299.83957000000004,-4193.938,0.0,0.04081002071676654,0.0,0.0,0.0,0.0,0.2195135515468008,0.7080260872642343,0.3473127804246027,-0.005351058384483345,-0.008756749936273931,0.17384093851926483
4082,10.0,299.84252999999995,-4265.6072,0.0,0.04082001670418589,0.0,0.0,0.0,0.0,0.2586041121897387,0.7108561150585363,0.32717785947244066,-0.003597944207214447,0.02068543391699338,0.16809663118484583
4083,10.0,299.92546,-4435.0612,0.0,0.04083001269160502,0.0,0.0,0.0,0.0,0.2774955016916737,0.7188256108050644,0.3518267488250967,-0.017858865358532785,0.005958065007315235,0.15828020342103985
4084,10.0,300.51701,-4336.2818,0.0,0.0408400086790246,0.0,0.0,0.0,0.0,0.26470663383201076,0.7160534902539772,0.3373612661574647,-0.0030718034536633973,0.003547032037389807,0.16353101742675485
4085,10.0,300.15392,-4249.3821,0.0,0.04085000466644373,0.0,0.0,0.0,0.0,0.25130811365217975,0.6820806126861154,0.35831733512316766,-0.0035350597781832363,-0.006979321100330364,0.14331569507915787
4086,10.0,300.62557000000004,-4246.1417,0.0,0.04086000065386308,0.0,0.0,0.0,0.0,0.24835955586117975,0.7104890652098114,0.3318724498357607,0.01820971739115918,0.0025394467147238776,0.17311411395753284
4087,10.0,300.00691,-4214.2372,0.0,0.040869996641282436,0.0,0.0,0.0,0.0,0.24412190076295576,0.6954110728567294,0.34148990567742965,0.014023366185248486,-0.0037851967773698367,0.15272506988029086
4088,10.0,300.12188,-4253.3408,0.0,0.040880025618759364,0.0,0.0,0.0,0.0,0.27163907823368977,0.6992460421002114,0.3220242972113237,0.006113327447963444,-0.01291980105083509,0.17150216477094582
4089,10.0,299.66609,-4370.0508,0.0,0.040890021606178495,0.0,0.0,0.0,0.0,0.2955583667193397,0.7002269289920173,0.3326010475851677,0.0025092180191905377,-0.021274468624126578,0.15829461183746185
4090,10.0,299.68053,-4315.3572,0.0,0.04090001759359785,0.0,0.0,0.0,0.0,0.26090099817892376,0.6963379636507063,0.35452187250108463,0.006278672943006774,0.011972659440359489,0.17097970262188283
4091,10.0,299.86971,-4221.8887,0.0,0.04091001358101698,0.0,0.0,0.0,0.0,0.23681233480655778,0.6921597863333523,0.35437661296674866,0.0016983163959607785,0.017950166285293483,0.15697193542192384
4092,10.0,299.6819,-4326.094,0.0,0.04092000956843633,0.0,0.0,0.0,0.0,0.2480717219052728,0.7050122255042893,0.3619406060232566,-0.014353408087321088,0.014363884080104987,0.15629981623309083
4093,10.0,299.69507999999996,-4390.1408,0.0,0.040930005555855686,0.0,0.0,0.0,0.0,0.2612085094517727,0.7015872071187663,0.37169745468118265,-0.02022482764678508,0.001054444694740589,0.15346485391080186
4094,10.0,300.35494,-4283.2952,0.0,0.04094000154327504,0.0,0.0,0.0,0.0,0.2763957099006327,0.7149234326824493,0.3106956443357727,-0.005576818916739175,0.0025323303552965476,0.16463141716785584
4095,10.0,300.53212,-4226.2568,0.0,0.04094999753069439,0.0,0.0,0.0,0.0,0.26697966791384176,0.6931780621538484,0.3245187973675117,0.001072290663451849,0.0013241162439300987,0.16489229867110286
4096,10.0,300.13041,-4251.2731,0.0,0.040959993518113524,0.0,0.0,0.0,0.0,0.2563438349266668,0.6945462740288804,0.34139076928764567,0.017477213562616684,-0.001962509909809648,0.15204705357587586
4097,10.0,300.11609,-4268.3229,0.0,0.04097002249559045,0.0,0.0,0.0,0.0,0.2501341012913138,0.7058289050848894,0.3415005752009827,0.0099016715827939,-0.014662380466814288,0.16085350403750487
4098,10.0,299.41002000000003,-4283.997,0.0,0.040980018483009806,0.0,0.0,0.0,0.0,0.2543138896763268,0.6876223105305383,0.3602919265205447,0.019900414349017983,0.012218803220901988,0.15427975017122583
4099,10.0,299.84696,-4355.406,0.0,0.04099001447042894,0.0,0.0,0.0,0.0,0.2640611023258017,0.7151322736605603,0.34474129352581667,0.01022996755361919,0.0031657167418319165,0.16488657380803784
4100,10.0,299.89757000000003,-4356.339,0.0,0.04100001045784829,0.0,0.0,0.0,0.0,0.28978679282472974,0.6972525434559683,0.3371789419344707,-0.01068424405045279,-0.0036532871170763667,0.15239185245240486
4101,10.0,299.3461,-4413.0984,0.0,0.041010006445267644,0.0,0.0,0.0,0.0,0.2856398438754577,0.6977272207303153,0.35810465392717766,-0.021833380419036878,-0.02331807755206508,0.15847686513294887
4102,10.0,299.66979,-4466.5317,0.0,0.041020002432687,0.0,0.0,0.0,0.0,0.2703530612067698,0.7215372099276783,0.3658238363690017,-0.003399662916345607,0.002104548119427728,0.15900855799042285
4103,10.0,300.11891,-4289.0953,0.0,0.04102999842010635,0.0,0.0,0.0,0.0,0.25061369282864576,0.6848311307450703,0.36833304891664165,0.007393351505841983,0.012693078234959288,0.13809932144434187
4104,10.0,300.0329,-4169.7481,0.0,0.04103999440752548,0.0,0.0,0.0,0.0,0.2216659582042268,0.6953491835406214,0.35048418231009565,0.002777969942589287,0.012726557031513387,0.14856529318475287
4105,10.0,299.78617,-4318.1554,0.0,0.04105002338500241,0.0,0.0,0.0,0.0,0.2764640029573727,0.6994273936031093,0.3367200105666777,-0.008053044499423612,-0.004407445518806005,0.14473743695697286
4106,10.0,300.2799,-4408.4612,0.0,0.04106001937242176,0.0,0.0,0.0,0.0,0.2974257359911347,0.7025876902675063,0.34004868913269265,-0.004796409940693806,0.002233604366114588,0.15552116392874385
4107,10.0,300.08082,-4283.7004,0.0,0.041070015359840895,0.0,0.0,0.0,0.0,0.2569114880301897,0.7176928275907672,0.3275336419800537,0.002849485742597347,-0.006148102698020495,0.17163248899880781
4108,10.0,299.82201000000003,-4315.1327,0.0,0.04108001134726025,0.0,0.0,0.0,0.0,0.24975864146675877,0.7016188509193894,0.36031509955033164,-0.004062270017214836,-0.008823047599592002,0.16348492467970585
4109,10.0,299.1096,-4323.8499,0.0,0.0410900073346796,0.0,0.0,0.0,0.0,0.25224406290205076,0.6991982572254953,0.3629000930729506,0.013437396559667789,-0.008022578399391841,0.16257041580195083
4110,10.0,298.81747,-4330.3407,0.0,0.041100003322098955,0.0,0.0,0.0,0.0,0.24503531533060277,0.7158261878590443,0.35545395113557365,0.006025748188820045,0.007831613990145122,0.17323196507666383
4111,10.0,299.13029,-4372.4892,0.0,0.04110999930951831,0.0,0.0,0.0,0.0,0.28294932035492376,0.6956377774341033,0.35054043795564765,0.008575756414636261,0.009598057776454552,0.15750650590968185
4112,10.0,300.10053999999997,-4286.9759,0.0,0.04111999529693744,0.0,0.0,0.0,0.0,0.2822607155869637,0.7030502693356593,0.3178226327566517,-0.0015460349371067684,0.002135877103244658,0.16129033642061685
4113,10.0,299.84841,-4232.9867,0.0,0.041130024274414145,0.0,0.0,0.0,0.0,0.24701785060876377,0.7011730107428883,0.33853138763794666,-0.0005986549088826394,-0.004943572054742575,0.16168471362453884
4114,10.0,300.14595,-4285.9646,0.0,0.04114002026183372,0.0,0.0,0.0,0.0,0.2518127425994828,0.7046946526579473,0.34631881247400564,-0.002049473112892248,0.008955712333859993,0.15942523682904586
4115,10.0,300.35342,-4393.9159,0.0,0.04115001624925285,0.0,0.0,0.0,0.0,0.2519095181165338,0.7158549033668783,0.36787630616906464,0.0009227700476753132,0.0074709189420722934,0.15867830938532984
4116,10.0,300.12986,-4351.7974,0.0,0.041160012236672205,0.0,0.0,0.0,0.0,0.26082548064897076,0.6996464076122243,0.3623658569577256,-0.0004937722359265256,0.02359856037849658,0.14896988394968286
4117,10.0,299.91577,-4293.2341,0.0,0.04117000822409156,0.0,0.0,0.0,0.0,0.2823931169775307,0.6969619534597894,0.32568089390720173,-0.009637629752485001,0.0030968878784390368,0.15338060216498686
4118,10.0,300.13989,-4353.7241,0.0,0.04118000421151091,0.0,0.0,0.0,0.0,0.29319674418126573,0.7070120265641543,0.32321463303130066,-0.006865652069662104,0.005763107278099405,0.16861378390338486
4119,10.0,299.60816,-4384.2942,0.0,0.041190000198930266,0.0,0.0,0.0,0.0,0.27636878784547575,0.6950396153700693,0.36130753749327765,0.004867484672933336,-0.004290991772887915,0.15893070998523984
4120,10.0,300.63608,-4228.3115,0.0,0.0411999961863494,0.0,0.0,0.0,0.0,0.24863327524319376,0.6945319568049674,0.3421358830136827,0.005171642493251375,0.006346041307705514,0.16525543737444184
4121,10.0,300.4771,-4281.5574,0.0,0.0412100251638261,0.0,0.0,0.0,0.0,0.2339319383497848,0.6874756527110644,0.3800789581833727,0.002104764245674058,-0.023873655754146374,0.14504052032688486
4122,10.0,300.38685,-4378.4129,0.0,0.04122002115124568,0.0,0.0,0.0,0.0,0.25540348817136177,0.7202245646881303,0.35530014990289466,0.0026226791309382777,-0.0075202604729169235,0.16866020089046582
4123,10.0,300.81467000000004,-4322.1027,0.0,0.04123001713866481,0.0,0.0,0.0,0.0,0.2891857835279147,0.7021723995815203,0.3224531249186457,0.0015579402204817286,0.0007091706444446933,0.15656083959135184
4124,10.0,300.50697,-4365.6575,0.0,0.041240013126084385,0.0,0.0,0.0,0.0,0.2905953765370307,0.7127455630500104,0.3237099198126817,-0.0024194537875314977,0.008813847086033982,0.17543195395878583
4125,10.0,299.57937000000004,-4414.4381,0.0,0.041250009113503516,0.0,0.0,0.0,0.0,0.26594371087910074,0.7252014465293103,0.3507337762072287,-0.013660734106959489,-0.007363471773643083,0.15192058983089485
4126,10.0,299.54954,-4266.5328,0.0,0.04126000510092265,0.0,0.0,0.0,0.0,0.24394862486335478,0.7075285105376273,0.3454423004750007,-0.008065720562149643,-0.005193548757763355,0.1779000386848668
4127,10.0,299.5428,-4317.2555,0.0,0.04127000108834222,0.0,0.0,0.0,0.0,0.2334561566328288,0.7099237020515143,0.36895802157832164,0.014024622615372486,0.009026342553280652,0.15983145892663686
4128,10.0,299.91382999999996,-4386.2675,0.0,0.041279997075761354,0.0,0.0,0.0,0.0,0.27877666525061473,0.7081628051002273,0.34637632454968165,0.005048443440092575,0.015640493079846485,0.15948466394741084
4129,10.0,300.28373,-4258.0422,0.0,0.04128999306318071,0.0,0.0,0.0,0.0,0.2809344522660717,0.6807887390736174,0.3326153141465757,-0.010255968564435291,-0.013594985321220589,0.15019663597825386
4130,10.0,299.85302,-4194.8820000000005,0.0,0.041300022040657414,0.0,0.0,0.0,0.0,0.2559840500811587,0.6962692247639224,0.3228861069513777,-0.009269808415133862,-0.006029323543122905,0.16872775427463282
4131,10.0,299.98859,-4347.7451,0.0,0.04131001802807699,0.0,0.0,0.0,0.0,0.25906549562277376,0.7034720144247824,0.3590684371572957,0.0008662636936510702,0.0059913129854965545,0.16618200392838683
4132,10.0,300.45274,-4384.2392,0.0,0.04132001401549634,0.0,0.0,0.0,0.0,0.2535193394779108,0.6891900921452664,0.38998982085649864,0.016057248925477087,0.008381075302697733,0.14572639945207586
4133,10.0,299.69754,-4362.2753,0.0,0.041330010002915474,0.0,0.0,0.0,0.0,0.23429040597016276,0.7194461251663044,0.3722862340492906,-0.005824723928605495,-0.014535998795091385,0.16037761086303784
4134,10.0,299.21034,-4454.299,0.0,0.041340005990334605,0.0,0.0,0.0,0.0,0.2902873079766267,0.7105207900704423,0.35318756397439866,-3.213989395146057e-05,-0.008356534486600743,0.14278625163690586
4135,10.0,299.24823,-4490.6746,0.0,0.04135000197775396,0.0,0.0,0.0,0.0,0.3311882324407337,0.7055362379260053,0.3283284860209987,0.007459318748302443,0.012867046184378589,0.15255914004391485
4136,10.0,299.54236000000003,-4446.3541,0.0,0.04135999796517331,0.0,0.0,0.0,0.0,0.28953809058768476,0.7213717867163523,0.3406707537665857,-0.004461772240142636,0.016536891125314084,0.15852578484777685
4137,10.0,299.73413,-4392.6239,0.0,0.04136999395259289,0.0,0.0,0.0,0.0,0.2875495973989357,0.6977477897073453,0.34995059467493467,-0.01669781854594638,-0.018595088828192382,0.15481961995700685
4138,10.0,300.0367,-4339.7147,0.0,0.04138002293006937,0.0,0.0,0.0,0.0,0.2291569972535348,0.7219931116776723,0.3680147971927326,-0.017167030349253983,-0.010413017263684791,0.17345251922593083
4139,10.0,299.84927999999996,-4238.4535,0.0,0.041390018917488725,0.0,0.0,0.0,0.0,0.2290185163623678,0.7005537224142693,0.35881180117196765,0.01107396840991559,0.013108807658238589,0.16292750540219283
4140,10.0,300.37041,-4234.1093,0.0,0.0414000149049083,0.0,0.0,0.0,0.0,0.26122344475824677,0.6883346658808424,0.3375054009841897,0.011714819713912689,0.01018147137733299,0.16755938571682383
4141,10.0,300.26277000000005,-4334.5573,0.0,0.04141001089232743,0.0,0.0,0.0,0.0,0.29324379951590973,0.7045028038840133,0.3198505717717937,-0.005901279330635925,-0.016344467838573382,0.16941511274496984
4142,10.0,299.72216000000003,-4372.4341,0.0,0.04142000687974656,0.0,0.0,0.0,0.0,0.26539759947270375,0.7140319448469664,0.3496812525333527,-0.01125462279674479,-0.007598634658876852,0.19363690704797482
4143,10.0,299.48839,-4372.9289,0.0,0.041430002867165916,0.0,0.0,0.0,0.0,0.25744976701331374,0.7260073349963453,0.3458041016882077,0.0017827497161936985,0.00994481921710224,0.17577682376282183
4144,10.0,299.56891,-4380.6563,0.0,0.04143999885458549,0.0,0.0,0.0,0.0,0.23122457461258877,0.7200308211365093,0.38035473446308965,0.007194437034985654,0.02274412811242068,0.16382962223122483
4145,10.0,299.43656,-4356.9276,0.0,0.041449994842004845,0.0,0.0,0.0,0.0,0.24886301957086776,0.7076782992999103,0.36785588917954964,-0.006241390506902284,-0.017026800588414385,0.14647306345076588
4146,10.0,299.10177999999996,-4306.4258,0.0,0.04146002381948133,0.0,0.0,0.0,0.0,0.2863587954839127,0.7023722428987433,0.3203148733651167,-0.01040163643856159,-0.0004902352331399505,0.14203540291530287
4147,10.0,299.5567,-4401.9887,0.0,0.04147001980690068,0.0,0.0,0.0,0.0,0.3042157478262567,0.7014517355803963,0.3324271536030057,-0.009528426216332452,0.01036427385437419,0.16309618114633984
4148,10.0,299.96982,-4473.7336,0.0,0.04148001579432026,0.0,0.0,0.0,0.0,0.2980970851098917,0.7080686842984383,0.3537375561286787,0.002844009328456867,0.009392309642948791,0.14474522885024188
4149,10.0,300.15803,-4388.0167,0.0,0.04149001178173939,0.0,0.0,0.0,0.0,0.26146282509437174,0.7114405577162163,0.36094412521241165,-0.016973092253613785,-0.01224201779394309,0.16950116807596283
4150,10.0,300.36461,-4438.816,0.0,0.04150000776915852,0.0,0.0,0.0,0.0,0.24412211354547678,0.6963217313841044,0.4088453818348976,-0.0068060984976846236,-0.016288674235066983,0.15387570656134986
4151,10.0,299.97462,-4417.1984,0.0,0.04151000375657787,0.0,0.0,0.0,0.0,0.26266563402307974,0.7090880645615434,0.37096430743882663,0.012067743842993589,0.016855607931018982,0.15254705197022186
4152,10.0,299.84966000000003,-4325.103,0.0,0.04151999974399723,0.0,0.0,0.0,0.0,0.29160779577194873,0.6837745642032953,0.33934096433534566,0.006821497670054404,0.01114417448284439,0.14253959616506287
4153,10.0,299.71383,-4348.6594,0.0,0.0415299957314168,0.0,0.0,0.0,0.0,0.28165685905736776,0.6908546188795424,0.3493723835053697,-0.003382022941379677,-0.025829239592897475,0.14908126040067488
4154,10.0,299.46854,-4394.2228,0.0,0.04154002470889351,0.0,0.0,0.0,0.0,0.27975118893179274,0.7210273728748613,0.3349554355175277,-0.01019434573310359,-0.02729846135714837,0.18036072668521783
4155,10.0,299.60652000000005,-4419.0227,0.0,0.04155002069631264,0.0,0.0,0.0,0.0,0.2510409499983127,0.7267823092028294,0.36544928846953667,0.007218310828541813,0.002216083752010438,0.15939760549881885
4156,10.0,299.52466,-4383.1413,0.0,0.04156001668373199,0.0,0.0,0.0,0.0,0.2305157960351378,0.7278441750426273,0.37400553708397266,-0.003358843021491997,0.012325856133717289,0.18547382986984184
4157,10.0,299.29347,-4423.8361,0.0,0.041570012671151346,0.0,0.0,0.0,0.0,0.27035762083221976,0.7110876933688913,0.36329039701147064,-0.014276064680687886,-0.0047982334868987755,0.13939697058240988
4158,10.0,300.0896,-4355.0293,0.0,0.04158000865857048,0.0,0.0,0.0,0.0,0.27792803789436177,0.7068076438864833,0.3390844803375327,-0.003024303606200527,-0.0005634958903502144,0.16418987317177883
4159,10.0,300.30611,-4285.1347,0.0,0.04159000464598983,0.0,0.0,0.0,0.0,0.2598778790229498,0.7200144774123963,0.3226815925511937,-0.007781015117251403,0.017243001815251784,0.17489829539611781
4160,10.0,300.4685,-4337.3514,0.0,0.041600000633409184,0.0,0.0,0.0,0.0,0.26196468786890176,0.7059100664178993,0.35057177778124066,0.006314697327787104,0.012926781330773988,0.17640489696980782
4161,10.0,300.10789,-4376.5287,0.0,0.04160999662082854,0.0,0.0,0.0,0.0,0.2332504567300278,0.7187051758981783,0.3783998001176526,-0.01143620633391569,-0.027728685323108175,0.17568567178382583
4162,10.0,300.41755,-4276.7997,0.0,0.041620025598305466,0.0,0.0,0.0,0.0,0.21726659852254376,0.7105470332480323,0.37222669547341464,0.008621214867122662,-0.011821329524674387,0.17565099836540385
4163,10.0,300.05305,-4292.6686,0.0,0.0416300215857246,0.0,0.0,0.0,0.0,0.27168274931299974,0.6894628996021903,0.3437184276823677,0.00961100741670758,0.00859779652948645,0.14613974469786986
4164,10.0,299.98452000000003,-4406.5127,0.0,0.04164001757314395,0.0,0.0,0.0,0.0,0.30198384156598473,0.7121161726178943,0.3253698058614997,0.010776575452565188,0.012905496999173385,0.14291340439195488
4165,10.0,299.60626,-4521.937,0.0,0.041650013560563304,0.0,0.0,0.0,0.0,0.3166005011485367,0.7202967182277513,0.3376587259893217,-0.014480836446397286,-0.01016984939868599,0.15279223822941987
4166,10.0,299.09657000000004,-4608.1614,0.0,0.041660009547982435,0.0,0.0,0.0,0.0,0.3014328057641017,0.7253654207929933,0.37396777325274566,-0.0007273652826478644,-0.01024853941470209,0.15354519451123086
4167,10.0,300.07537,-4542.4593,0.0,0.04167000553540201,0.0,0.0,0.0,0.0,0.25582010621497875,0.7384824195650403,0.38649169647626064,0.001226288669300269,0.01156825410019779,0.17027167384950584
4168,10.0,299.92098,-4397.8312,0.0,0.04168000152282114,0.0,0.0,0.0,0.0,0.23988143896195474,0.7079414302183794,0.3890080017746006,0.0024438064430849175,0.015571512026288587,0.15881837094665283
4169,10.0,299.70377,-4296.3691,0.0,0.041689997510240495,0.0,0.0,0.0,0.0,0.26874866073342774,0.6950994072584703,0.34214085807167366,-0.013963864086376088,-0.0005739183835288344,0.15670292765287483
4170,10.0,299.68471,-4306.0638,0.0,0.04169999349765985,0.0,0.0,0.0,0.0,0.27224936890142076,0.7077650335084703,0.3289214602445207,-0.015176860231589486,-0.003721305684364277,0.15514227931885086
4171,10.0,300.31185,-4303.2943,0.0,0.041710022475136554,0.0,0.0,0.0,0.0,0.28427964680871676,0.7034738788049663,0.3203404984601457,-0.0053963974761079645,0.0012657370288185188,0.16969778925786785
4172,10.0,300.58938,-4295.3057,0.0,0.04172001846255591,0.0,0.0,0.0,0.0,0.25190283066587377,0.7169151074765123,0.33684775100678466,0.007464160665230303,-0.004795817696010355,0.16596759007472583
4173,10.0,300.91357,-4377.0496,0.0,0.04173001444997504,0.0,0.0,0.0,0.0,0.23416940364322075,0.7250351012603933,0.37130928870037366,-0.005150843204473645,-0.022276795888048578,0.17615077384472783
4174,10.0,299.8251,-4518.6153,0.0,0.041740010437394615,0.0,0.0,0.0,0.0,0.26453558708262975,0.7308224717240622,0.37818816256926563,0.012893854755524388,-0.006197113200057454,0.16777087127769585
4175,10.0,300.0799,-4451.9084,0.0,0.04175000642481397,0.0,0.0,0.0,0.0,0.2997681169098097,0.7269537713847513,0.3265471011526897,0.004734735332281996,0.0051305092001418355,0.16635077086504285
4176,10.0,300.23302,-4432.608,0.0,0.0417600024122331,0.0,0.0,0.0,0.0,0.2947010254122267,0.7168040755305544,0.3358970488354577,0.014023703597531786,0.012214829254009789,0.15435288656344384
4177,10.0,300.17615,-4388.5523,0.0,0.04176999839965245,0.0,0.0,0.0,0.0,0.2960444835873157,0.7203136699019244,0.3176521736923287,-0.015758061502199584,-0.008849261899554152,0.16935995140952584
4178,10.0,299.85202999999996,-4354.0707,0.0,0.041779994387071806,0.0,0.0,0.0,0.0,0.2434192219511068,0.7179533645889804,0.36215619524703363,-0.0070560419661021235,-0.005114418281928785,0.16359338297040987
4179,10.0,299.64976,-4325.5431,0.0,0.04179002336454851,0.0,0.0,0.0,0.0,0.21412046709454477,0.7076744894795343,0.3930621471472136,-0.002025632351289348,0.008071627303607592,0.17909610950040986
4180,10.0,299.5969,-4247.0459,0.0,0.041800019351967865,0.0,0.0,0.0,0.0,0.2242406165758258,0.7027973013156934,0.36395798697235665,0.0025927286738823972,0.01012724091475586,0.15415580941899384
4181,10.0,300.54714,-4153.3844,0.0,0.041810015339387,0.0,0.0,0.0,0.0,0.2619745771898777,0.6685304292313163,0.3320201513028377,-0.006236036392048874,-0.004319712346972416,0.16247595049512784
4182,10.0,300.44397000000004,-4403.2841,0.0,0.04182001132680657,0.0,0.0,0.0,0.0,0.2933267441690957,0.7109899248667423,0.3341717574926847,-0.006532383776621083,-0.0016905818526474381,0.14680805406632688
4183,10.0,299.95803,-4600.5959,0.0,0.041830007314225925,0.0,0.0,0.0,0.0,0.33241748719705166,0.7292031359442462,0.3368456434465767,0.011288899021127589,0.006477495714729054,0.15822941932602783
4184,10.0,299.9529,-4487.7993,0.0,0.04184000330164506,0.0,0.0,0.0,0.0,0.27169436115914575,0.7086125057596092,0.3838720700652236,0.010144070289641791,0.002699021851772717,0.15100999209852586
4185,10.0,300.2941,-4398.1714,0.0,0.04184999928906441,0.0,0.0,0.0,0.0,0.2307875091819538,0.7290067072798603,0.3771400667983266,0.0008861982747934601,-0.013172110458236089,0.16627522293758684
4186,10.0,300.01507999999995,-4468.4934,0.0,0.04185999527648354,0.0,0.0,0.0,0.0,0.2674450536847717,0.7126582715538954,0.3782070698161316,-0.00026942418444259676,-0.015137323212687487,0.14362337860452384
4187,10.0,300.10873,-4444.1021,0.0,0.04187002425396047,0.0,0.0,0.0,0.0,0.3029877798975657,0.7068995456705534,0.34100874360244265,0.007352713793356353,-0.0017264875858410585,0.16029644953002783
4188,10.0,300.30368,-4299.3802,0.0,0.04188002024137982,0.0,0.0,0.0,0.0,0.2906622611761317,0.6943294486399814,0.3219125154602917,-0.0017468482386504983,0.001737393196667358,0.15483805097632583
4189,10.0,299.97489,-4213.78,0.0,0.041890016228798954,0.0,0.0,0.0,0.0,0.2645333275349067,0.7031489497628983,0.3132016246155937,-0.0090646682316881,-0.008948631843486201,0.16532443970625182
4190,10.0,300.53261000000003,-4236.3579,0.0,0.04190001221621831,0.0,0.0,0.0,0.0,0.2002420108723478,0.7166421277670713,0.37086289123631766,-0.010975734825970689,0.002180332134157028,0.1835264138401468
4191,10.0,300.17489,-4430.9289,0.0,0.04191000820363788,0.0,0.0,0.0,0.0,0.23265146380091176,0.7262172398870612,0.38802306188239466,-0.002773958080143347,0.012963720376419588,0.17830919920774782
4192,10.0,299.62779,-4509.9438,0.0,0.041920004191057014,0.0,0.0,0.0,0.0,0.27725305120774574,0.7165171332347353,0.3771401275933326,-9.046576549827591e-05,0.015317348371204588,0.15967620874631486
4193,10.0,299.47754,-4374.0007,0.0,0.04193000017847637,0.0,0.0,0.0,0.0,0.28492035524444975,0.7198542521740834,0.3248123967164877,-0.01126165779218909,-0.01060993330136889,0.16251344074882784
4194,10.0,299.50099,-4270.8227,0.0,0.0419399961658955,0.0,0.0,0.0,0.0,0.2810447040094527,0.7051052013334653,0.3120735428817607,-0.0016261817027916387,-0.008022263582585773,0.15551919822354984
4195,10.0,299.12029,-4430.4327,0.0,0.04195002514337243,0.0,0.0,0.0,0.0,0.2925771721426187,0.7176450123185484,0.3365187284343127,0.0009236783351974541,0.007092793155179183,0.15350619451488184
4196,10.0,300.12637,-4572.4491,0.0,0.04196002113079178,0.0,0.0,0.0,0.0,0.25436508920387974,0.7370303409792314,0.3985149120303596,-0.0024002926201904377,0.012560478247372686,0.17071090763535482
4197,10.0,300.05,-4471.1192,0.0,0.041970017118211134,0.0,0.0,0.0,0.0,0.25432816637023575,0.7089410825020374,0.3958393440813016,-0.0016647109431441782,-0.0037576393130751267,0.15754795797127286
4198,10.0,300.37702,-4246.128,0.0,0.041980013105630265,0.0,0.0,0.0,0.0,0.24629746018516677,0.7053373065338724,0.3390821295973007,0.005306336362169625,-0.008126283229901712,0.16032730299557285
4199,10.0,300.53572,-4303.0776,0.0,0.04199000909304962,0.0,0.0,0.0,0.0,0.28600467470646374,0.6938383060515093,0.3281851617943537,0.014616476184283887,-0.004795251795829506,0.15265471992584786
4200,10.0,300.35142,-4516.4655,0.0,0.04200000508046897,0.0,0.0,0.0,0.0,0.3246552618909797,0.7112169739491503,0.33702048988383265,0.006549740548184063,-0.0027749781190190177,0.14740139305988484
4201,10.0,299.88227,-4534.9611,0.0,0.042010001067888325,0.0,0.0,0.0,0.0,0.29114200470097873,0.7324561449927933,0.35491677659505866,-0.0057033973616314945,-0.012598504510375589,0.15931600846826585
4202,10.0,299.60801000000004,-4382.9653,0.0,0.042019997055307456,0.0,0.0,0.0,0.0,0.22018064501513782,0.7230353508630333,0.3890960228107876,-0.008129402925634601,0.002068704194490208,0.17088618977015382
4203,10.0,299.40644,-4371.5773,0.0,0.042030026032784384,0.0,0.0,0.0,0.0,0.2439188049129118,0.7244654824516763,0.36046604341772864,-0.0024187220183092776,0.018598608859039783,0.16218770110667982
4204,10.0,300.12316,-4516.1476,0.0,0.04204002202020374,0.0,0.0,0.0,0.0,0.2875080845423387,0.7185027487932003,0.36678524859388567,-0.002304271062538848,0.01167469399670259,0.14911684574418685
4205,10.0,299.64606000000003,-4671.5914,0.0,0.04205001800762309,0.0,0.0,0.0,0.0,0.32598089699680965,0.7392318092064992,0.3548344094944296,0.0013792062465670587,-0.013447627345927487,0.14595415780955387
4206,10.0,299.91641,-4405.2809,0.0,0.04206001399504222,0.0,0.0,0.0,0.0,0.2887496604198727,0.7216326884846014,0.3287130346989507,-0.003049585209445627,-0.02010881051033508,0.15855264610792785
4207,10.0,299.67958,-4234.2586,0.0,0.042070009982461576,0.0,0.0,0.0,0.0,0.23509051891162777,0.7106361789918303,0.3413821769267977,0.010058327546304641,-0.003482490133845017,0.16520671017713284
4208,10.0,300.61957,-4334.5372,0.0,0.04208000596988093,0.0,0.0,0.0,0.0,0.2097249172332378,0.7282635693915183,0.37960258878135866,0.004723572457255305,0.009253840302832932,0.18554947912230782
4209,10.0,300.32162999999997,-4456.52,0.0,0.04209000195730028,0.0,0.0,0.0,0.0,0.2659843118106078,0.7208482707871853,0.36783822823030665,-0.00911891591951693,-0.0030312241043835273,0.17820889758034883
4210,10.0,300.97164,-4470.1531,0.0,0.042099997944719636,0.0,0.0,0.0,0.0,0.2645988645513747,0.7380423650466104,0.3561737032116077,-0.006069801263417744,-0.006878845396564183,0.17674931081129883
4211,10.0,301.23846000000003,-4324.8925,0.0,0.04210999393213877,0.0,0.0,0.0,0.0,0.28465436696069873,0.7145866891442153,0.3154182814618607,-0.0018468716275720383,0.015934085336071786,0.16386371809708983
4212,10.0,301.29924,-4269.6898,0.0,0.042120022909615695,0.0,0.0,0.0,0.0,0.26973107763288473,0.7049179932449893,0.3232300040353177,0.004135404686907666,0.0032731666460363972,0.15008579654981485
4213,10.0,300.05467999999996,-4495.1106,0.0,0.04213001889703505,0.0,0.0,0.0,0.0,0.27569511838398975,0.7264433365143753,0.36426292458995163,-0.008836986475917663,-0.016470983259309485,0.16497912407217186
4214,10.0,300.02432999999996,-4642.4131,0.0,0.04214001488445418,0.0,0.0,0.0,0.0,0.25915707316681175,0.7490423297222223,0.4029782685883586,-0.008230784069690142,-0.006730773282600603,0.16110350323467784
4215,10.0,300.32927,-4411.2736,0.0,0.04215001087187353,0.0,0.0,0.0,0.0,0.2722090820774447,0.7087165462798773,0.35999140667338564,0.004221100922065226,0.016013583925667683,0.15858332732095587
4216,10.0,299.91892,-4321.245,0.0,0.04216000685929289,0.0,0.0,0.0,0.0,0.26900152742838374,0.6968756549487723,0.34767340626769366,0.006637776175172503,0.024647879142306272,0.15547230500892184
4217,10.0,300.37977,-4385.9735,0.0,0.04217000284671224,0.0,0.0,0.0,0.0,0.3123953308485187,0.6918987325775883,0.3289323526830957,-0.005044106628339566,-0.006053726658531305,0.15016704907533385
4218,10.0,299.46589,-4477.6791,0.0,0.04217999883413159,0.0,0.0,0.0,0.0,0.2854015882469437,0.7089498775129054,0.3667511628605217,-0.006814136813377943,-0.02823888410621087,0.15093318774094586
4219,10.0,299.46627,-4503.3455,0.0,0.042189994821550725,0.0,0.0,0.0,0.0,0.24209903813081474,0.7290505911416914,0.3977549440578566,0.005261441884688885,0.006075100966740785,0.16348318188953387
4220,10.0,300.25587,-4363.6221,0.0,0.04220002379902765,0.0,0.0,0.0,0.0,0.2309884974717898,0.7131475396296824,0.3822961216546896,0.00986430220983083,-0.006777426863579954,0.16682573184941785
4221,10.0,300.36484,-4360.2148,0.0,0.042210019786447006,0.0,0.0,0.0,0.0,0.2618027806354228,0.7246498534398723,0.3389437804286467,0.003450005436964027,-0.02099936210272568,0.17227439306965883
4222,10.0,299.88186,-4395.8315,0.0,0.04222001577386614,0.0,0.0,0.0,0.0,0.2750334255386857,0.7214678630908343,0.3397217335904247,-0.012620273175523989,-0.008946544750930222,0.17569610825985582
4223,10.0,300.54863,-4433.838,0.0,0.04223001176128549,0.0,0.0,0.0,0.0,0.29370710812413475,0.7356829108637504,0.3183860302097547,0.011708997578838089,0.019729404076640582,0.16437701033274785
4224,10.0,300.39694,-4400.6331,0.0,0.04224000774870462,0.0,0.0,0.0,0.0,0.26869819074594675,0.7287828398027664,0.3402015379102777,-0.014397108550883986,0.013941512802420186,0.16761632023994286
4225,10.0,299.99525,-4205.3240000000005,0.0,0.0422500037361242,0.0,0.0,0.0,0.0,0.2275361314660678,0.7031808367435453,0.34759651071760467,-0.015272031773732184,-0.015760222764662886,0.16963566689423684
4226,10.0,300.03191,-4259.5451,0.0,0.04225999972354355,0.0,0.0,0.0,0.0,0.23030076409891578,0.7139069604471313,0.35058761488030366,-0.01028713208451089,-0.01748934115306358,0.17404673974707582
4227,10.0,299.73347,-4519.1711,0.0,0.04226999571096268,0.0,0.0,0.0,0.0,0.2815713711464307,0.7233392448330254,0.36880455471817564,0.007190254845197904,0.016861485794849085,0.17970557943555984
4228,10.0,299.83664,-4588.6742,0.0,0.04228002468843961,0.0,0.0,0.0,0.0,0.3034367814143787,0.7378955147096173,0.35351008148122864,0.008927935804893662,0.007026737354659984,0.17850397627447084
4229,10.0,299.49047,-4408.7072,0.0,0.042290020675858964,0.0,0.0,0.0,0.0,0.3059667250590647,0.7162416305325453,0.3179285477896047,0.00020950206300624378,-0.019114872957241083,0.16603838585921285
4230,10.0,299.8094,-4358.4692,0.0,0.042300016663278095,0.0,0.0,0.0,0.0,0.25742316919818875,0.7068310499637933,0.36061158666209264,0.010333239017061291,-0.013882867913132386,0.15942260237878586
4231,10.0,300.50364,-4401.7948,0.0,0.04231001265069745,0.0,0.0,0.0,0.0,0.23614205973290678,0.7264138914664693,0.3754797349194646,0.020955145894861877,0.009106220807689022,0.15493532298592586
4232,10.0,300.34724,-4492.2391,0.0,0.04232000863811658,0.0,0.0,0.0,0.0,0.25274877290936176,0.7230627998082423,0.3897169424720676,0.015359209785835983,0.011681592203383388,0.14323307466600388
4233,10.0,300.28906,-4507.9815,0.0,0.042330004625536155,0.0,0.0,0.0,0.0,0.28483629601615373,0.7320842923385943,0.35339322334719564,0.0025605680143833878,-0.011584077013759388,0.16484426048386183
4234,10.0,300.48419,-4430.3595,0.0,0.04234000061295551,0.0,0.0,0.0,0.0,0.3016923599097177,0.7187140317040523,0.3263122703095137,-0.006323256454031824,0.0009717650368532421,0.16018629911165685
4235,10.0,300.43804,-4354.4015,0.0,0.04234999660037464,0.0,0.0,0.0,0.0,0.3022045882327707,0.7099902117880783,0.3114345468386967,-0.0007067886150496053,0.016255330200776182,0.17546474273202184
4236,10.0,300.28033999999997,-4567.8851,0.0,0.04236002557785157,0.0,0.0,0.0,0.0,0.2815705909438537,0.7310931817532793,0.37585923761191864,-0.013144649354025886,0.009220231911591041,0.16906749703316284
4237,10.0,299.89268,-4698.6477,0.0,0.0423700215652707,0.0,0.0,0.0,0.0,0.2782062865043227,0.7422099437679183,0.4078553452946886,-0.02261446249712368,-0.018617686331922585,0.17297717320651784
4238,10.0,299.05279,-4484.7727,0.0,0.04238001755269005,0.0,0.0,0.0,0.0,0.26214995051718576,0.7152961871292373,0.38581276824675564,-0.005867227439825265,-0.012980839236859089,0.15808152534143186
4239,10.0,299.77378999999996,-4308.2352,0.0,0.042390013540109406,0.0,0.0,0.0,0.0,0.24061825416967275,0.7208862474009333,0.34809142259644865,0.01941999498635428,0.002755223693744407,0.17575306304797683
4240,10.0,300.02013999999997,-4301.355,0.0,0.04240000952752876,0.0,0.0,0.0,0.0,0.27252255126088176,0.7073480101648133,0.3276339436074527,0.01813111147490138,0.01040209138785649,0.15775707252691085
4241,10.0,299.93584,-4411.9249,0.0,0.04241000551494811,0.0,0.0,0.0,0.0,0.2861601883318117,0.7175158229307983,0.3374389925726357,-0.007546324913189284,-0.013843340013481286,0.17094248594570985
4242,10.0,300.04273,-4422.4869,0.0,0.042420001502367466,0.0,0.0,0.0,0.0,0.2630119933047627,0.7215007531890802,0.35981284160826266,0.0066319450221720136,-0.013359296255209888,0.16405153413562584
4243,10.0,300.00419,-4340.4205,0.0,0.0424299974897866,0.0,0.0,0.0,0.0,0.2422088744416548,0.7099708080486633,0.3671997692097957,0.01108651649915399,0.01143524779932109,0.15482107903715084
4244,10.0,300.38315,-4405.944,0.0,0.04243999347720595,0.0,0.0,0.0,0.0,0.2427914324541488,0.7340577083658554,0.3624478187583146,0.012514097737295289,0.008288868834322663,0.15772921828166184
4245,10.0,300.0551,-4586.4587,0.0,0.04245002245468266,0.0,0.0,0.0,0.0,0.2952240043188407,0.7291046176370233,0.3698403192353977,-0.013206789956158687,-0.025010442319588478,0.16340327698664783
4246,10.0,300.07215,-4718.7795,0.0,0.04246001844210201,0.0,0.0,0.0,0.0,0.3314449798835727,0.7351428282954483,0.36780332176436165,-0.01120899310499149,-0.01054976549718079,0.16080395610761486
4247,10.0,300.26351,-4546.0048,0.0,0.04247001442952136,0.0,0.0,0.0,0.0,0.3043341866304457,0.7259362757668323,0.3516014830628647,-0.001941024549389208,0.014753966116853087,0.16166279702487585
4248,10.0,300.17789,-4357.0447,0.0,0.04248001041694072,0.0,0.0,0.0,0.0,0.25571347177445475,0.7047410797775294,0.3639782519743566,0.002532224977286148,0.025113787750287875,0.16748348315183284
4249,10.0,299.15969,-4338.7626,0.0,0.04249000640436007,0.0,0.0,0.0,0.0,0.24925439755449377,0.7161811496340763,0.35343994430930664,-0.011944856870865588,0.00019461354842186183,0.15180322507181185
4250,10.0,298.97422,-4427.159000000001,0.0,0.0425000023917792,0.0,0.0,0.0,0.0,0.2606414035033037,0.7130046105705764,0.3720997858983897,-0.006030819910870584,-0.0028180448959693773,0.15962637710639685
4251,10.0,299.74504,-4429.183,0.0,0.042509998379198555,0.0,0.0,0.0,0.0,0.27281955513019374,0.7201168258049973,0.35342465436529763,0.01909690499321778,0.002755975423993597,0.16587056124514984
4252,10.0,300.12699,-4323.1903,0.0,0.04251999436661791,0.0,0.0,0.0,0.0,0.2745667428076277,0.7224404818618243,0.3171346866012567,0.02062732402375838,-0.011651339595147688,0.17248277808522483
4253,10.0,299.69437,-4411.0897,0.0,0.042530023344094614,0.0,0.0,0.0,0.0,0.2560777858479098,0.7353313840065574,0.34945195403572266,0.009378792683964772,-0.03244870218443757,0.16648819797610584
4254,10.0,299.60562000000004,-4583.9056,0.0,0.04254001933151397,0.0,0.0,0.0,0.0,0.27910220224274274,0.7387922410481174,0.3754984091188076,6.098353334010614e-05,-0.012224075161172288,0.17071809157856382
4255,10.0,300.01899,-4582.6644,0.0,0.04255001531893332,0.0,0.0,0.0,0.0,0.28121697679145474,0.7251464878438864,0.38665209396709066,0.0022447016838598077,0.028302959002784574,0.16140150008908785
4256,10.0,300.0751,-4452.8988,0.0,0.042560011306352674,0.0,0.0,0.0,0.0,0.2610188391655538,0.7165594262939092,0.3759917808574996,-0.005054207718586465,0.03328884863735357,0.16262785695011986
4257,10.0,300.30882,-4379.3562,0.0,0.04257000729377203,0.0,0.0,0.0,0.0,0.27219914209396373,0.7233040951870564,0.3357116949946647,-0.02204791586270988,0.0030076149717534867,0.16369926760585984
4258,10.0,300.36117,-4335.8687,0.0,0.04258000328119116,0.0,0.0,0.0,0.0,0.2860852787519187,0.7066751817009103,0.32523536783823165,-0.01820042183474178,-0.00999394776277585,0.16073314005812583
4259,10.0,300.43217999999996,-4445.3209,0.0,0.04258999926861051,0.0,0.0,0.0,0.0,0.27713081271568174,0.7209540844951283,0.3531816567263157,0.0019413470668960384,0.007593496974244804,0.15639044132203486
4260,10.0,300.2806,-4479.3822,0.0,0.042599995256029866,0.0,0.0,0.0,0.0,0.26375960975854673,0.7315303789064272,0.3663303600939916,0.006832497614465014,0.002299049987423568,0.16491900794373884
4261,10.0,299.83912000000004,-4366.5135,0.0,0.04261002423350657,0.0,0.0,0.0,0.0,0.2510597761851708,0.7108801088209044,0.36537117701932764,0.006152170491871954,-0.011219981802325989,0.15115869668320187
4262,10.0,299.63141,-4486.8535,0.0,0.042620020220925925,0.0,0.0,0.0,0.0,0.26264593644113576,0.7417382859788693,0.35950720484809867,0.0059780394091865545,0.005799306549846994,0.17332344129569183
4263,10.0,299.2355,-4598.1297,0.0,0.04263001620834528,0.0,0.0,0.0,0.0,0.3105386716302807,0.7337936857872983,0.35338426621631164,0.008177240084055763,0.019609349138542082,0.15555971809504884
4264,10.0,299.33952,-4558.7155,0.0,0.04264001219576463,0.0,0.0,0.0,0.0,0.2955538374913927,0.7511416319419073,0.33904022157316466,0.01082299243964619,0.002184268610795528,0.17350175304828983
4265,10.0,299.69079,-4558.2728,0.0,0.042650008183183985,0.0,0.0,0.0,0.0,0.27301703757468376,0.7479735332517403,0.36461056056676067,-0.001133859387228209,-0.021258711571821482,0.15546177734038286
4266,10.0,299.80837,-4399.6784,0.0,0.042660004170603116,0.0,0.0,0.0,0.0,0.24332667168697275,0.7294522738788343,0.3646134381970446,0.007973626767185691,-0.015957456962878383,0.16906878386078983
4267,10.0,300.45191,-4284.159000000001,0.0,0.04267000015802225,0.0,0.0,0.0,0.0,0.24748656997252277,0.6988447443981063,0.35594604617913966,-0.004603267550357136,0.016884335597854183,0.16341076490488685
4268,10.0,299.8897,-4511.7028,0.0,0.04267999614544182,0.0,0.0,0.0,0.0,0.27581220956554575,0.7223041389283683,0.37332863535466765,-0.00942807625690368,0.015901841691389584,0.17557055643996483
4269,10.0,300.21905,-4563.0712,0.0,0.04269002512291853,0.0,0.0,0.0,0.0,0.3147527787961807,0.7311136595378003,0.3411932665781537,-0.024621724117474975,0.00018565208082743382,0.17327873670127983
4270,10.0,300.68321000000003,-4413.7754,0.0,0.04270002111033788,0.0,0.0,0.0,0.0,0.27139421621452375,0.7294585864269574,0.3408247069867797,0.001938057145146348,0.0003757087598395676,0.17658838643041683
4271,10.0,300.42661,-4458.9894,0.0,0.042710017097757236,0.0,0.0,0.0,0.0,0.26197394897481574,0.7349033770318163,0.35854411062804864,0.008832685837193223,0.010753280832766188,0.17076173226037084
4272,10.0,300.14603,-4526.8182,0.0,0.04272001308517659,0.0,0.0,0.0,0.0,0.26430684587255476,0.7331151020628273,0.37861776034666367,0.014792106877117286,-0.01040253620465039,0.14641043446208485
4273,10.0,299.81961,-4531.5976,0.0,0.04273000907259594,0.0,0.0,0.0,0.0,0.2719577352576387,0.7363103355906723,0.36922444555961564,-0.007553481802620612,-0.012923987800248287,0.15700782474046585
4274,10.0,299.36262,-4521.9951,0.0,0.042740005060015074,0.0,0.0,0.0,0.0,0.27767917353730076,0.7381730743095103,0.35872134833554065,0.004479384958680876,-0.0037679559216182964,0.15274535514729284
4275,10.0,299.66232,-4465.4122,0.0,0.04275000104743443,0.0,0.0,0.0,0.0,0.3016284440934097,0.7241913679021234,0.3315539954618317,0.007309988886989733,0.017593666396609683,0.16449842809223084
4276,10.0,299.71332,-4515.8654,0.0,0.04275999703485378,0.0,0.0,0.0,0.0,0.28812668386088974,0.7258524394535583,0.3587312072590137,0.002271545617434098,0.0006063112191557584,0.17002181650734682
4277,10.0,299.79747000000003,-4598.3861,0.0,0.042770026012330487,0.0,0.0,0.0,0.0,0.2797721328113597,0.7317417327447863,0.3862806871429356,-0.007007871955023113,-0.02079868184092008,0.15977328823839584
4278,10.0,300.28142,-4532.5132,0.0,0.04278002199974984,0.0,0.0,0.0,0.0,0.2539139598618568,0.7264602375260433,0.3973966284249936,-0.006448886294180524,-0.013712470657065486,0.17124156697772683
4279,10.0,299.1881,-4387.5148,0.0,0.04279001798716919,0.0,0.0,0.0,0.0,0.24885811544038375,0.7143112168395284,0.3705255904105287,0.0030002331407999574,0.01083874645220099,0.16043929752912586
4280,10.0,299.48446,-4297.7036,0.0,0.04280001397458855,0.0,0.0,0.0,0.0,0.2646961162959727,0.7075850093632032,0.3341134449494297,0.002080934123197208,0.0003114041493356967,0.18490680498138082
4281,10.0,300.35575,-4487.03,0.0,0.0428100099620079,0.0,0.0,0.0,0.0,0.31269470572306474,0.7229529938949053,0.32829736911042773,-0.018597153831896182,0.007415724676000043,0.16767705445093684
4282,10.0,299.76984,-4668.6309,0.0,0.04282000594942703,0.0,0.0,0.0,0.0,0.2927062196753547,0.7693763137890303,0.3570646742895397,0.0014588632071535887,0.012484045752579387,0.18855909536433382
4283,10.0,299.84249,-4435.6983,0.0,0.042830001936846385,0.0,0.0,0.0,0.0,0.25427124197961776,0.7309897998455763,0.36308049212075466,0.01319111903011209,0.011404917170827688,0.16143223196462084
4284,10.0,300.39362,-4320.3733,0.0,0.04283999792426574,0.0,0.0,0.0,0.0,0.2249655159623678,0.7208332240232003,0.36748685336062864,0.02049655903210288,-0.0096650553929417,0.16287381327939385
4285,10.0,300.33684,-4556.1402,0.0,0.04284999391168509,0.0,0.0,0.0,0.0,0.25299137538080474,0.7364159365160943,0.39554553194980463,0.002871285311873797,-0.026690270143624576,0.14376967165396184
4286,10.0,300.89189,-4544.377,0.0,0.0428600228891618,0.0,0.0,0.0,0.0,0.27666813232251874,0.7372222505481714,0.3674867317706167,0.007833789438109822,-0.016827079874453484,0.16713984951291883
4287,10.0,300.02893,-4564.9716,0.0,0.04287001887658115,0.0,0.0,0.0,0.0,0.3077776866977927,0.7289248468042814,0.35093484555707266,-0.0013517815180354488,0.007593755049045274,0.16925632632179885
4288,10.0,299.28721,-4523.9008,0.0,0.04288001486400028,0.0,0.0,0.0,0.0,0.28736312898303273,0.7263201556997183,0.36146958658177064,-0.005250486219307645,-0.0045763668747772455,0.18784285926614683
4289,10.0,299.68282999999997,-4277.6308,0.0,0.04289001085141986,0.0,0.0,0.0,0.0,0.25106085023027674,0.6976375683614674,0.3515945321671787,-0.013095366895662087,-0.004030301368609776,0.17567861956312983
4290,10.0,300.00911,-4359.1924,0.0,0.04290000683883899,0.0,0.0,0.0,0.0,0.25332703474143176,0.7050718755376764,0.36668673028666265,-0.009685088867293851,-0.001941833224294018,0.17311405316252684
4291,10.0,299.82515,-4663.0516,0.0,0.04291000282625834,0.0,0.0,0.0,0.0,0.2743081208521037,0.7485054692892382,0.3946376699927056,0.003995897170739345,0.016366686386766187,0.15023176535922086
4292,10.0,300.39047,-4507.4561,0.0,0.042919998813677696,0.0,0.0,0.0,0.0,0.3009616951301067,0.7334567497315453,0.3357356684920307,-0.003155063227630497,-0.0036156839873152263,0.14512135741986287
4293,10.0,300.15934,-4405.6799,0.0,0.04292999480109683,0.0,0.0,0.0,0.0,0.2897594148070277,0.7216282909791674,0.3278289841192017,-0.0038936026830436662,-0.008304308536696442,0.15087200769990786
4294,10.0,300.02518,-4533.8481,0.0,0.042940023778573755,0.0,0.0,0.0,0.0,0.2925013405051347,0.7390819900467133,0.34659328166109366,-0.010492871504065792,-0.0019188083316716384,0.16135064506656885
4295,10.0,299.72927999999996,-4676.9705,0.0,0.04295001976599311,0.0,0.0,0.0,0.0,0.2835214418913877,0.7392446065552624,0.3989161995999636,0.004128533027379486,0.022410451682239377,0.15678537581351185
4296,10.0,300.00838999999996,-4598.7168,0.0,0.04296001575341224,0.0,0.0,0.0,0.0,0.2639135123162357,0.7351584627444913,0.3988231123132766,-0.0025762576855568376,0.0032410809670447866,0.15578046476183485
4297,10.0,300.13191,-4477.4171,0.0,0.04297001174083159,0.0,0.0,0.0,0.0,0.25189850408794673,0.7208029886402163,0.3883215146993496,-0.0033678617579820766,-0.014147556197005088,0.15854384096455884
4298,10.0,299.7392,-4333.3958,0.0,0.04298000772825117,0.0,0.0,0.0,0.0,0.26617493455192076,0.7105574089290564,0.34051176469339467,0.01089758791200819,-0.010683676630396792,0.17240513273006183
4299,10.0,299.61023,-4331.242,0.0,0.0429900037156703,0.0,0.0,0.0,0.0,0.27514649411734476,0.7243659711593553,0.3170769313455567,0.013554065215932089,0.003229433657145287,0.18144630257735583
4300,10.0,299.80022,-4530.7887,0.0,0.04299999970308965,0.0,0.0,0.0,0.0,0.2733175675543438,0.7491758862179033,0.35475318736641365,0.006574466586399334,0.006471890719150884,0.19715093945478282
4301,10.0,300.32566,-4561.9219,0.0,0.043009995690508784,0.0,0.0,0.0,0.0,0.2887010244150727,0.7367597120100223,0.3612496201175616,-0.012867671359690289,-0.007425228151337963,0.17685443550917385
4302,10.0,299.10321,-4446.7832,0.0,0.04302002466798571,0.0,0.0,0.0,0.0,0.24823980996436176,0.7285216137944853,0.37494963286464766,-0.0017375891592366986,0.011547503751399887,0.17573621269881384
4303,10.0,299.55951,-4474.6746,0.0,0.043030020655405066,0.0,0.0,0.0,0.0,0.26250872211259374,0.7431786412610213,0.3545019824016217,0.007005046709769283,0.02192382616271318,0.15487830740279884
4304,10.0,299.13484,-4686.2012,0.0,0.0430400166428242,0.0,0.0,0.0,0.0,0.3094774441380457,0.7493173967268693,0.36569329935861866,-0.0008768412647574951,-0.0015614653175796286,0.13663884301520388
4305,10.0,299.56874,-4768.1872,0.0,0.04305001263024355,0.0,0.0,0.0,0.0,0.3188062351587257,0.7569281411429913,0.37367548099639863,-0.0017163774776682683,-0.02019167815651348,0.14656658643499587
4306,10.0,299.60595,-4609.1485,0.0,0.043060008617662904,0.0,0.0,0.0,0.0,0.2805393657870797,0.7297403712797673,0.39078630636260564,-0.008229682362856412,-0.0049544511184162554,0.15896168504079686
4307,10.0,299.90249,-4454.7606,0.0,0.04307000460508226,0.0,0.0,0.0,0.0,0.26430281313715676,0.7198721157733463,0.36996105811731367,0.016426336420153183,0.01915647295334668,0.16632657445265484
4308,10.0,300.10656,-4491.7992,0.0,0.04308000059250161,0.0,0.0,0.0,0.0,0.2564039713201018,0.7237505027836133,0.38524032247025963,-0.003167909719023347,0.007619633152624242,0.16164412282553284
4309,10.0,300.19082000000003,-4514.8789,0.0,0.04308999657992074,0.0,0.0,0.0,0.0,0.28305669446802073,0.7260999865854894,0.36325377815285664,0.007653891442480272,-0.009662433304332921,0.17296156915497785
4310,10.0,299.94628,-4525.6432,0.0,0.04310002555739767,0.0,0.0,0.0,0.0,0.3087472454534807,0.7180914401801073,0.34884385198820766,-0.005267524931664235,-0.0086004537778737,0.15901412073347185
4311,10.0,299.79213,-4447.4962,0.0,0.04311002154481702,0.0,0.0,0.0,0.0,0.29317779640439573,0.7194568149548592,0.33929319972563166,0.008392231084973722,0.006678290271145934,0.17812630756469783
4312,10.0,299.5905,-4451.4419,0.0,0.043120017532236155,0.0,0.0,0.0,0.0,0.27262781781377077,0.7307343493628653,0.34976499765411767,-0.006024857035357094,-0.014839211861016185,0.16156699422792084
4313,10.0,299.90368,-4569.2421,0.0,0.04313001351965551,0.0,0.0,0.0,0.0,0.28061644372218675,0.7452658959370173,0.36305317489805866,-0.01187109429008579,-0.012242458557736589,0.17559274661715482
4314,10.0,300.11991,-4680.4208,0.0,0.04314000950707486,0.0,0.0,0.0,0.0,0.26940406129561073,0.7522958149983162,0.40103118693119666,-0.003796593105219566,0.018902740942805283,0.15660320357803287
4315,10.0,299.79366,-4501.5431,0.0,0.043150005494494215,0.0,0.0,0.0,0.0,0.27491286904178774,0.7479121100306783,0.3455317197963257,0.019236902719784482,0.023622015091811378,0.17494241230547183
4316,10.0,300.35505,-4398.4289,0.0,0.04316000148191357,0.0,0.0,0.0,0.0,0.27829493575557174,0.7215802527919263,0.3371373581503667,0.008591591284549041,0.005341226413463005,0.15110787205818585
4317,10.0,300.43445,-4423.3901,0.0,0.0431699974693327,0.0,0.0,0.0,0.0,0.2678716826393767,0.7328182299160283,0.3439102359262977,0.006959677220641663,-0.03992425370596706,0.18037203455633383
4318,10.0,300.30912,-4487.5251,0.0,0.04318002644680963,0.0,0.0,0.0,0.0,0.26997536209949374,0.7276926029601682,0.3664276219710907,-0.0006876773097459664,-0.019548275488764585,0.16357341181093885
4319,10.0,300.18944,-4510.5752,0.0,0.04319002243422898,0.0,0.0,0.0,0.0,0.24540850547493376,0.7436697737169923,0.38202395254532867,0.010930270293983689,0.0006001504660302394,0.1945703029075938
4320,10.0,299.75291,-4469.1644,0.0,0.04320001842164811,0.0,0.0,0.0,0.0,0.24843530643865577,0.7300031272956993,0.38007594883057566,-0.007580040100991713,0.0016784448389746084,0.17317351067839484
4321,10.0,299.22339,-4487.6647,0.0,0.04321001440906769,0.0,0.0,0.0,0.0,0.2887688412442657,0.7355128874969703,0.33985628307120364,-0.017370393697324384,0.004108556902982996,0.17378341631108782
4322,10.0,299.49593,-4558.5503,0.0,0.04322001039648682,0.0,0.0,0.0,0.0,0.3161248004915887,0.7345029507247973,0.3350576927176197,-0.022691502941976978,0.028414237168516873,0.16355779762689784
4323,10.0,300.19581,-4621.0899,0.0,0.04323000638390617,0.0,0.0,0.0,0.0,0.3002705673693977,0.7453568148684904,0.35906854861480664,0.011893911669087688,0.025022560790784475,0.16610937416121885
4324,10.0,300.64245,-4564.818,0.0,0.043240002371325525,0.0,0.0,0.0,0.0,0.2798053370171367,0.7307271552871554,0.3770582164552486,-0.005217161842068785,-0.004109659015116766,0.14913156826813984
4325,10.0,300.08535,-4517.4483,0.0,0.04324999835874466,0.0,0.0,0.0,0.0,0.2354961431916598,0.7493211457522393,0.3883741834395476,0.0042692993041470355,-0.035848272793699065,0.16409137512955785
4326,10.0,300.37209,-4582.1241,0.0,0.04325999434616401,0.0,0.0,0.0,0.0,0.24927136949366877,0.7432156654196753,0.4003642657153766,0.005994072977443944,-0.010430616404671689,0.15335809788026586
4327,10.0,299.78589,-4585.4405,0.0,0.04327002332364094,0.0,0.0,0.0,0.0,0.3068965644108327,0.7194594088751153,0.36750341999976366,0.016801324070161584,0.016247437995747283,0.15430941813415386
4328,10.0,300.25417999999996,-4473.5688,0.0,0.04328001931106029,0.0,0.0,0.0,0.0,0.2973151296102187,0.7168250903376283,0.3457129902392157,0.007242449992299164,-0.002133004032586108,0.16604981532034085
4329,10.0,300.21997000000005,-4393.8172,0.0,0.043290015298479645,0.0,0.0,0.0,0.0,0.27836666373015073,0.7106594432141263,0.3465845981077367,-0.009053659168026591,-0.02219759114098168,0.16878281428506683
4330,10.0,299.86503,-4466.6474,0.0,0.043300011285898776,0.0,0.0,0.0,0.0,0.26858098810687975,0.7286519076248442,0.3605163816826966,-0.0023208942410294277,0.007575392525433033,0.16905725307465186
4331,10.0,299.82597000000004,-4493.6039,0.0,0.04331000727331791,0.0,0.0,0.0,0.0,0.23552567943207478,0.7450136169271192,0.38540406368641966,0.007217200711732254,0.01881106207375728,0.18269615670820682
4332,10.0,300.46632999999997,-4447.5152,0.0,0.04332000326073748,0.0,0.0,0.0,0.0,0.25578719585173076,0.7325058651752002,0.36364050531852365,-0.0029665355835492677,0.01926986779853788,0.16725948395222584
4333,10.0,300.70901000000003,-4531.4377,0.0,0.043329999248156614,0.0,0.0,0.0,0.0,0.3091800957636997,0.7408579337619853,0.3274058812749447,-0.015170720949233586,-0.018085690512668683,0.16343903458267686
4334,10.0,300.50352000000004,-4519.2571,0.0,0.04333999523557619,0.0,0.0,0.0,0.0,0.2997252462980787,0.7296267048835493,0.34438935123608266,-0.00031613434530753076,0.00969957064302309,0.16254290606173585
4335,10.0,299.88126,-4530.525,0.0,0.043350024213052674,0.0,0.0,0.0,0.0,0.2950091142376327,0.7371124851648383,0.34504487338827766,0.005600593918410585,0.019564539166119683,0.1761457278592298
4336,10.0,299.6962,-4597.6849,0.0,0.04336002020047225,0.0,0.0,0.0,0.0,0.25655045688705874,0.7391390056298403,0.4018919428911466,-0.008501798985862232,-0.005909699438966925,0.14810506485683186
4337,10.0,299.73922000000005,-4533.862,0.0,0.0433700161878916,0.0,0.0,0.0,0.0,0.2352463871745108,0.7427143092701952,0.40022013088865166,-0.01014386763962179,-0.024915792601247273,0.17260178430946985
4338,10.0,299.32982999999996,-4411.8583,0.0,0.043380012175310734,0.0,0.0,0.0,0.0,0.23537446198715076,0.7312424334930092,0.37447784335308565,-0.0075761174045545715,0.004434727683048546,0.14765922468033088
4339,10.0,300.11255,-4407.846,0.0,0.043390008162729865,0.0,0.0,0.0,0.0,0.2878135186524827,0.7209469816119273,0.3311146198209687,0.022639744100368776,0.025972755323811377,0.17363576550651583
4340,10.0,300.02511,-4508.7993,0.0,0.04340000415014944,0.0,0.0,0.0,0.0,0.2973232254785177,0.7235101699923943,0.3497289968780647,0.004201041001885466,0.006751945447415134,0.16607826738314885
4341,10.0,300.60381,-4449.8229,0.0,0.043410000137568794,0.0,0.0,0.0,0.0,0.30232650248480275,0.7290939379809693,0.3212145887914117,-0.008502169126123763,-0.013863351702956286,0.1803012894343518
4342,10.0,301.23238,-4530.1915,0.0,0.04341999612498815,0.0,0.0,0.0,0.0,0.26580463217037475,0.7352172515152934,0.3760432033000747,0.0013334414885754287,-0.0057283104458152245,0.16549870859095084
4343,10.0,300.62345,-4615.2481,0.0,0.04343002510246463,0.0,0.0,0.0,0.0,0.26108715248729575,0.7511934698170233,0.3906395674831236,0.015713908115841987,0.007290886893454514,0.16848081509276183
4344,10.0,299.86439,-4620.8445,0.0,0.043440021089883984,0.0,0.0,0.0,0.0,0.27531335614381275,0.7435295196381503,0.38577846973087065,-0.0068506672152582136,-0.008791726924425891,0.14763831119826687
4345,10.0,300.21769,-4544.9068,0.0,0.04345001707730356,0.0,0.0,0.0,0.0,0.3022661026463417,0.7257737808482954,0.35349828725006466,-0.010378565747034689,-0.017922552180318182,0.14885892293123185
4346,10.0,299.81567,-4597.0609,0.0,0.04346001306472269,0.0,0.0,0.0,0.0,0.2970441156059717,0.7446979185934623,0.35564968065739067,-0.01091672516664689,0.008791124648566451,0.16222291154765484
4347,10.0,300.30987000000005,-4461.298,0.0,0.04347000905214182,0.0,0.0,0.0,0.0,0.27851259200955275,0.7249022945697863,0.35270829667709863,0.016926755313290683,0.03056036370182307,0.17349243114736984
4348,10.0,299.61843999999996,-4436.9096,0.0,0.043480005039561176,0.0,0.0,0.0,0.0,0.2285043324666218,0.7384244515268192,0.38178093464134466,-0.003407738823617637,0.014465244553858487,0.18370157438493384
4349,10.0,299.89742,-4548.3517,0.0,0.04349000102698075,0.0,0.0,0.0,0.0,0.24945341000663476,0.7484178636855923,0.38471407076582265,-0.006430139039505314,-0.010999784317094188,0.17321521605251083
4350,10.0,300.06282999999996,-4528.6753,0.0,0.043499997014400105,0.0,0.0,0.0,0.0,0.27501213715408473,0.7368560518295303,0.36473601106164166,0.002975794055013007,-0.02103311650330698,0.15914625867901286
4351,10.0,300.03196,-4442.7743,0.0,0.04351002599187681,0.0,0.0,0.0,0.0,0.28859257625686974,0.7327133078681733,0.32918656700068466,0.03177162110986487,0.0017595302795521183,0.16758544650939583
4352,10.0,300.17967000000004,-4488.07,0.0,0.04352002197929594,0.0,0.0,0.0,0.0,0.3047308132495897,0.7174961253488543,0.3420342641611537,0.01740692237667948,-0.016480766189024984,0.15106813238926387
4353,10.0,300.17039,-4554.9934,0.0,0.04353001796671552,0.0,0.0,0.0,0.0,0.2935974339333107,0.7315437538077473,0.35946307780624365,0.005571446056758915,-0.013852558562891087,0.16841710192647386
4354,10.0,300.2388,-4578.1382,0.0,0.04354001395413465,0.0,0.0,0.0,0.0,0.25384183671973876,0.7476609455958902,0.39013690424101466,-0.00953583236528838,0.010197702630684891,0.17083841502793884
4355,10.0,300.7309,-4592.0068,0.0,0.04355000994155378,0.0,0.0,0.0,0.0,0.25760175452831374,0.7488635012120733,0.3893901389173146,0.0004664174723143205,0.027864033244965974,0.17591529452148782
4356,10.0,300.65997000000004,-4481.818,0.0,0.04356000592897313,0.0,0.0,0.0,0.0,0.28024726604825173,0.7313692214780223,0.35074428361076565,-0.015141695386868987,0.000922402521599041,0.16334436662583385
4357,10.0,300.40959,-4316.8312,0.0,0.04357000191639249,0.0,0.0,0.0,0.0,0.26896045026932974,0.7118222287638843,0.33142622462422167,-0.01049471561924779,-0.013585203404755185,0.15893112541778084
4358,10.0,300.16456,-4428.3218,0.0,0.04357999790381206,0.0,0.0,0.0,0.0,0.2891210976415307,0.7127670642171323,0.34421108001348866,0.0006871456979485002,-0.016063821878875784,0.16653464536068985
4359,10.0,300.07167000000004,-4629.2209,0.0,0.043589993891231194,0.0,0.0,0.0,0.0,0.2873622879854497,0.7475336813833303,0.37227160271784665,0.004689646310782056,0.024175539435939978,0.16726740756800784
4360,10.0,300.52648999999997,-4517.279,0.0,0.0436000228687079,0.0,0.0,0.0,0.0,0.24953199768439077,0.7426507784889254,0.38095723323755165,-0.0031007970986498467,0.007521174728482153,0.18707806822316783
4361,10.0,299.52502999999996,-4511.8903,0.0,0.04361001885612725,0.0,0.0,0.0,0.0,0.27182533386707175,0.7313836906894503,0.36829296474268564,-0.009078767404179582,-0.0029531413291523567,0.16254679694211988
4362,10.0,299.57583,-4548.9292,0.0,0.043620014843546606,0.0,0.0,0.0,0.0,0.29292331864178073,0.7374615700892904,0.35237601143930464,0.0007900904692933582,-0.0018520534899084484,0.16159286250297383
4363,10.0,299.52322999999996,-4515.2485,0.0,0.04363001083096574,0.0,0.0,0.0,0.0,0.2967977337116557,0.7414829469536692,0.33424212771212963,0.014018601883278288,0.005000290755590275,0.15071085027150286
4364,10.0,300.28885,-4573.8459,0.0,0.04364000681838531,0.0,0.0,0.0,0.0,0.29426158897635774,0.7396374638840343,0.35643589180748364,0.016267765819253484,-0.018664150941758283,0.15966362418007285
4365,10.0,300.21892,-4683.2211,0.0,0.043650002805804444,0.0,0.0,0.0,0.0,0.28696967383670174,0.7471854171914593,0.38942717320846965,-0.006736519626567724,-0.012275841095531188,0.16203985778458885
4366,10.0,300.84526,-4548.5675,0.0,0.0436599987932238,0.0,0.0,0.0,0.0,0.23917859803008978,0.7489672884198163,0.39450505581961764,0.0033475970599571065,0.002955614064696397,0.18715049534031583
4367,10.0,300.16481,-4503.697,0.0,0.04366999478064315,0.0,0.0,0.0,0.0,0.26844971142392376,0.7379493284224283,0.36261238070705565,-0.0045259501842515055,0.032340653246773966,0.18665342523875883
4368,10.0,300.35197999999997,-4558.9407,0.0,0.04368002375811986,0.0,0.0,0.0,0.0,0.2929446374238847,0.7431947519376113,0.34966474668922365,-0.005469089152857074,0.002293555233456278,0.16948188592655983
4369,10.0,299.44219,-4480.5503,0.0,0.04369001974553921,0.0,0.0,0.0,0.0,0.3041474750345187,0.7201437174626513,0.3376842193618377,-0.011590308501874388,-0.017187517253025884,0.16211151483166084
4370,10.0,299.56532999999996,-4403.5032,0.0,0.043700015732958564,0.0,0.0,0.0,0.0,0.2832978175943177,0.7199336200544163,0.33532356954385967,0.008209346939974462,2.390271171401398e-05,0.15714932511693083
4371,10.0,299.46429,-4580.0452,0.0,0.04371001172037792,0.0,0.0,0.0,0.0,0.2605751369467637,0.7495900116662743,0.38205421832581565,0.011291349059869388,0.01946080768713218,0.16869058826096486
4372,10.0,299.96227999999996,-4738.617,0.0,0.04372000770779727,0.0,0.0,0.0,0.0,0.25480290443958875,0.7806599276976363,0.4049584125962836,-0.006526685156733675,0.0016214227710469684,0.17230960351063385
4373,10.0,299.61539,-4710.3436,0.0,0.0437300036952164,0.0,0.0,0.0,0.0,0.2973703821381717,0.7509860473890523,0.38347039746058165,-0.02318063524225058,0.009872854749949901,0.16042550719526485
4374,10.0,300.41621000000004,-4629.9259,0.0,0.043739999682635755,0.0,0.0,0.0,0.0,0.3027250542791367,0.7456734859222433,0.35898332414889567,0.003889695793308086,-0.005376241499818725,0.15943517681252684
4375,10.0,299.99399,-4582.8998,0.0,0.04374999567005511,0.0,0.0,0.0,0.0,0.3114557642957907,0.7308618972854533,0.35076945274324967,0.01306934359334379,0.005774546061128324,0.14358554384578986
4376,10.0,299.97049,-4446.1116,0.0,0.043760024647531814,0.0,0.0,0.0,0.0,0.26767961095042075,0.7163091028567043,0.36751820331872265,0.01092611394207349,-0.02155098660291678,0.16117333643156986
4377,10.0,300.34463999999997,-4503.1976,0.0,0.04377002063495117,0.0,0.0,0.0,0.0,0.24740863077483075,0.7362070347429773,0.38524396003811867,0.004273022896939526,-0.023323192438569878,0.16048293821093285
4378,10.0,300.64187999999996,-4623.4202,0.0,0.04378001662237052,0.0,0.0,0.0,0.0,0.25988575197622676,0.7399313165455353,0.40558722547584264,-0.0014116814188971085,0.0014248879180504886,0.1851099616264308
4379,10.0,300.65154,-4483.4843,0.0,0.043790012609789875,0.0,0.0,0.0,0.0,0.28754585850606673,0.7270414276509023,0.3482799884400587,0.002766166186874347,0.03542067922499886,0.17300528076429184
4380,10.0,299.90655,-4493.0567,0.0,0.04380000859720923,0.0,0.0,0.0,0.0,0.2877192458631787,0.7500117567553972,0.3280460324231227,-0.004904990834659905,0.002710427298873347,0.19470975651885683
4381,10.0,299.12455,-4722.2693,0.0,0.04381000458462836,0.0,0.0,0.0,0.0,0.3305298225257537,0.7505170037852613,0.3544051359570637,-0.014302706065567187,-0.006615098219384364,0.16019529677254485
4382,10.0,299.60166,-4738.2138,0.0,0.04382000057204771,0.0,0.0,0.0,0.0,0.2996255728857417,0.7623896909045043,0.3782834283436676,0.00046989167385969754,-0.014072618246109286,0.15882022519433586
4383,10.0,300.03275,-4546.032,0.0,0.043829996559467066,0.0,0.0,0.0,0.0,0.2372355693733278,0.7552126479286853,0.38943198614644464,0.013766535655901286,0.014845630800399686,0.18056858481073182
4384,10.0,300.09192,-4510.9832,0.0,0.04384002553694377,0.0,0.0,0.0,0.0,0.2388919901068038,0.7558809268996393,0.3764533162780496,0.00015229807615564983,-0.008903415253798673,0.18243273194720883
4385,10.0,300.03208,-4495.3863,0.0,0.043850021524363125,0.0,0.0,0.0,0.0,0.26721218854678974,0.7335672547874513,0.36570574206984663,-0.0038027347180506965,-0.011285168234259388,0.17142742744356987
4386,10.0,299.88959,-4474.0133,0.0,0.04386001751178226,0.0,0.0,0.0,0.0,0.2869622365809677,0.7312140422252074,0.3418120584142237,-0.007785156169085093,-0.005503118650840525,0.17325191597113282
4387,10.0,300.16472000000005,-4549.5891,0.0,0.04387001349920183,0.0,0.0,0.0,0.0,0.3017210247550467,0.7264386147689093,0.35480184363621564,0.013367132731483286,0.024332528353433577,0.15790818864682485
4388,10.0,300.21175,-4538.7847,0.0,0.043880009486621185,0.0,0.0,0.0,0.0,0.26618443883785875,0.7387789168093023,0.37471384956637765,-0.006074475487454055,-0.005902694233075564,0.16243292789588185
4389,10.0,300.52648,-4561.273,0.0,0.04389000547404032,0.0,0.0,0.0,0.0,0.24043228224631877,0.7420036257825563,0.4040771991168146,-0.00821714997899456,-0.012711057344733687,0.15395708067688085
4390,10.0,300.41114,-4698.855,0.0,0.04390000146145967,0.0,0.0,0.0,0.0,0.27961883820373074,0.7578282720018272,0.3908874895175916,-0.01155053944869949,-0.015075644652600285,0.18085318649881985
4391,10.0,300.10482,-4801.2289,0.0,0.0439099974488788,0.0,0.0,0.0,0.0,0.3280723465282197,0.7574460537991053,0.37393530871954167,0.01169623265407829,0.014164305221158089,0.15433196294887885
4392,10.0,300.27197,-4569.3475,0.0,0.04392002642635573,0.0,0.0,0.0,0.0,0.3152434248921037,0.7312441053556743,0.34248001314514565,0.01089737512948719,0.0028160126202438074,0.19035090657617182
4393,10.0,300.34693,-4427.6217,0.0,0.04393002241377508,0.0,0.0,0.0,0.0,0.2918766110234787,0.7283967104546584,0.3256131176080127,-0.004982219338731766,-0.017791687890152882,0.14562032229910685
4394,10.0,299.84487,-4450.9384,0.0,0.043940018401194436,0.0,0.0,0.0,0.0,0.24385137311875676,0.7257076156167653,0.3834151348001276,-0.003219347259024837,-0.005321563282022405,0.17501162741980283
4395,10.0,300.28539,-4479.3356,0.0,0.04395001438861357,0.0,0.0,0.0,0.0,0.23064569469795776,0.7367284228469343,0.3942320457126736,-0.004287559692149196,0.019481254060900084,0.14874123393211686
4396,10.0,300.1179,-4483.9605,0.0,0.04396001037603314,0.0,0.0,0.0,0.0,0.24140668433748477,0.7558857499701153,0.3657195830662126,0.0003971999464480826,0.009634684234444302,0.1949904774590618
4397,10.0,300.16709,-4580.9483,0.0,0.043970006363452274,0.0,0.0,0.0,0.0,0.2875636106478187,0.7361690175992253,0.36876127880640464,-0.01960961967631878,-0.0026323275010404976,0.16233870576908285
4398,10.0,300.53032,-4647.1678,0.0,0.04398000235087163,0.0,0.0,0.0,0.0,0.3105853824598907,0.7601953154279363,0.3418422735322057,0.009236198807991852,-0.002875488881238657,0.19111150276373684
4399,10.0,299.50446,-4603.749,0.0,0.04398999833829076,0.0,0.0,0.0,0.0,0.3022421899439817,0.7389204779807733,0.3582620724627137,0.003291723105717777,0.01996950280708648,0.16559391357034683
4400,10.0,299.52707000000004,-4572.0956,0.0,0.04399999432571011,0.0,0.0,0.0,0.0,0.25432205647213274,0.7587046928083233,0.37677615802491166,0.010866473027937388,-0.0013976588481131888,0.18061090826740883
4401,10.0,299.0988,-4584.5274,0.0,0.04401002330318704,0.0,0.0,0.0,0.0,0.24571965431564174,0.7498840568452942,0.39797815292238564,-0.005362810160468155,-0.00915691563536721,0.15606775156268785
4402,10.0,299.45265,-4453.7151,0.0,0.044020019290606394,0.0,0.0,0.0,0.0,0.2573378636722698,0.7410834528367423,0.35539685449243863,0.0037898005805241963,-0.008146818972328431,0.16243038463813086
4403,10.0,300.06336,-4497.6073,0.0,0.044030015278025525,0.0,0.0,0.0,0.0,0.2800209769034187,0.7390697499855052,0.3480695971892947,0.0021966181030143275,0.011026818843012291,0.16993434262621385
4404,10.0,300.31379,-4617.9626,0.0,0.04404001126544488,0.0,0.0,0.0,0.0,0.3254761363269937,0.7340936990094074,0.34417549466997666,0.0015441426925450184,-0.01052421234290889,0.15891507553619685
4405,10.0,300.66287,-4548.0224,0.0,0.04405000725286423,0.0,0.0,0.0,0.0,0.2903176142871177,0.7302032543229503,0.3619643768706027,-0.012530232731887688,-0.013885529721145087,0.16068879010124884
4406,10.0,300.87273999999996,-4549.7689,0.0,0.044060003240283585,0.0,0.0,0.0,0.0,0.24986749492500177,0.7351540348415543,0.3979946182365106,0.0016150543928434584,-0.0028184969068389873,0.16992085626738285
4407,10.0,299.76099,-4759.5178,0.0,0.04406999922770294,0.0,0.0,0.0,0.0,0.2812141396911747,0.7628997914023473,0.4026606248145096,0.003118507899797767,0.024865091592743475,0.15776324322001986
4408,10.0,300.22567999999995,-4712.3672,0.0,0.04407999521512207,0.0,0.0,0.0,0.0,0.2951151508605977,0.7579498822788293,0.37937692785158766,0.0009847036428126833,0.014033940463292087,0.16727503734126084
4409,10.0,299.91523,-4573.8336,0.0,0.044090024192599,0.0,0.0,0.0,0.0,0.2933388119777867,0.7524019732112933,0.3445904205859267,-0.02092138541477998,-0.015097640285771088,0.16697343331649483
4410,10.0,299.9574,-4537.72,0.0,0.04410002018001835,0.0,0.0,0.0,0.0,0.3069694069605217,0.7274347916047242,0.34494938469885367,-0.0037164080386809166,-0.0012676629132835889,0.15674275851430583
4411,10.0,299.96042,-4542.8037,0.0,0.04411001616743748,0.0,0.0,0.0,0.0,0.28447530540302673,0.7344068743503154,0.36201670110576667,-0.0015974688294078984,0.01224322862781259,0.16315135261428484
4412,10.0,300.33062,-4496.8437,0.0,0.044120012154856836,0.0,0.0,0.0,0.0,0.2501992431402428,0.7501629944653233,0.36656597113974465,-0.0023453522745932476,-0.011914982204917188,0.17271161048780884
4413,10.0,300.13532999999995,-4563.6694,0.0,0.04413000814227619,0.0,0.0,0.0,0.0,0.27177641415224374,0.7368676636756762,0.3785974750796616,-0.017689522895819983,-0.023286658692964278,0.16097819459481083
4414,10.0,300.80811,-4608.6426,0.0,0.04414000412969554,0.0,0.0,0.0,0.0,0.28617044242282375,0.7494825362281673,0.36525928381078465,0.0006107535203766795,-0.01037353090728779,0.1841863334977758
4415,10.0,300.45579,-4562.6715,0.0,0.044150000117114896,0.0,0.0,0.0,0.0,0.2902634358042707,0.7429515212511063,0.3537232490372667,0.02226576767396018,0.01092017933623779,0.18926389186889184
4416,10.0,301.14225,-4653.6488,0.0,0.04415999610453403,0.0,0.0,0.0,0.0,0.3027350347926217,0.7494992649873182,0.36235873380952266,0.008464758615206633,-0.006489147786904024,0.18008546716305182
4417,10.0,300.57035,-4695.3687,0.0,0.04417002508201118,0.0,0.0,0.0,0.0,0.28649647590750077,0.7484924794229563,0.3922858962456036,-0.0018459770290587484,-0.022015618515772377,0.16964398567755784
4418,10.0,300.16682000000003,-4558.4791,0.0,0.04418002106943031,0.0,0.0,0.0,0.0,0.24977880514374873,0.7541355225423813,0.3817494833582406,-0.003236260531019047,-0.0078114062367757725,0.16781269824182382
4419,10.0,299.53772000000004,-4489.6883,0.0,0.04419001705684944,0.0,0.0,0.0,0.0,0.2605594518352158,0.7427030419290833,0.36149063178634766,0.014667425439062184,0.036487894012074765,0.16994800123756185
4420,10.0,300.13156000000004,-4620.8696,0.0,0.04420001304426879,0.0,0.0,0.0,0.0,0.2934077737795927,0.7512630193038873,0.3599581822026066,-0.016060043469252883,0.009671717107049163,0.16486313733322483
4421,10.0,300.08686,-4642.6705,0.0,0.04421000903168815,0.0,0.0,0.0,0.0,0.30402517574744875,0.7486518130011812,0.35857890563648265,-0.020592697214840982,-0.008351551322608942,0.16798006689334183
4422,10.0,299.79138,-4515.0524,0.0,0.0442200050191075,0.0,0.0,0.0,0.0,0.2918791238837267,0.7319570179935333,0.3486270671293127,-0.02407486999875468,-0.007152651816761773,0.15703696581334184
4423,10.0,299.75464,-4664.1265,0.0,0.04423000100652685,0.0,0.0,0.0,0.0,0.27458331957926374,0.7565358917642794,0.3866587814177506,0.016266417183370383,0.0032929684914156866,0.16637978021540584
4424,10.0,300.38634,-4703.1958,0.0,0.044239996993945985,0.0,0.0,0.0,0.0,0.28458026798088576,0.7500696133361073,0.39500422334888163,0.0008260133669436721,-0.0033185736254177163,0.16710066713155183
4425,10.0,300.91682000000003,-4636.0205,0.0,0.04425002597142291,0.0,0.0,0.0,0.0,0.28766198710002777,0.7425661011780682,0.37900638229001765,-0.0038159564159555765,-0.014733753803858286,0.18043918264046083
4426,10.0,300.40476,-4635.9809,0.0,0.044260021958842266,0.0,0.0,0.0,0.0,0.2924500295200707,0.7346014994295234,0.3821708940748306,-0.003707823074558647,-0.006901278247153133,0.18216138357042883
4427,10.0,299.86913,-4571.4703,0.0,0.0442700179462614,0.0,0.0,0.0,0.0,0.2884151156343557,0.7416791729680353,0.35951853298421665,0.013988072657765287,0.013953353643088785,0.16618095014828282
4428,10.0,300.18335,-4377.0109,0.0,0.04428001393368075,0.0,0.0,0.0,0.0,0.25331680091542175,0.7244624832313803,0.35272272535852267,0.0032519159543391166,-0.006151367288517683,0.16501987699119386
4429,10.0,300.22886,-4527.653,0.0,0.044290009921100104,0.0,0.0,0.0,0.0,0.2539012233080998,0.7360831041232463,0.38630912907324266,-0.01029378305816729,-0.026718669517427376,0.14405756640487485
4430,10.0,299.55993,-4674.4506,0.0,0.04430000590851946,0.0,0.0,0.0,0.0,0.2782847323270647,0.7561641708325932,0.38646736834135964,-0.01024629709223079,-0.009303719464180621,0.15635796665632984
4431,10.0,299.35745,-4529.8373,0.0,0.04431000189593881,0.0,0.0,0.0,0.0,0.26639641075877873,0.7497423234213063,0.36081867471753065,-0.005931886981706665,0.01154001380666069,0.16816399205149385
4432,10.0,299.5413,-4603.0674,0.0,0.04431999788335794,0.0,0.0,0.0,0.0,0.28791064880706874,0.7620173113602533,0.34928960097219963,-0.0008125296526954334,0.007048236292631763,0.18088378665183982
4433,10.0,299.60671,-4727.8903,0.0,0.044329993870777296,0.0,0.0,0.0,0.0,0.31780845738775265,0.7569835051284552,0.3623686433955006,-0.01763154877809838,0.002108048594548198,0.18829916631618082
4434,10.0,300.40812,-4614.8738,0.0,0.044340022848254224,0.0,0.0,0.0,0.0,0.28037540165589775,0.7525110495845583,0.36991994042825566,0.0038308106624215764,0.007377035950081763,0.17802926860262083
4435,10.0,299.52144,-4494.8647,0.0,0.044350018835673355,0.0,0.0,0.0,0.0,0.2347939507398588,0.7455195630995523,0.3860131181890286,0.004390323111991156,0.011432494798799389,0.18703557251397382
4436,10.0,300.07964,-4521.5748,0.0,0.04436001482309271,0.0,0.0,0.0,0.0,0.26004180262412774,0.7402152900185613,0.37418875296705467,0.001033010300800179,-0.0039503344548176555,0.16666664145121685
4437,10.0,300.15333,-4516.6069,0.0,0.04437001081051206,0.0,0.0,0.0,0.0,0.26230683203016875,0.7350378353200864,0.3755910607079516,-0.0047838789753820955,-0.007244310015507733,0.17995995587316482
4438,10.0,299.77519,-4558.6734,0.0,0.044380006797931415,0.0,0.0,0.0,0.0,0.2951855514775457,0.7400593102981673,0.35047801161698666,-0.006212975022422894,0.007697839240392581,0.17158337676646082
4439,10.0,300.28042,-4690.8749,0.0,0.04439000278535077,0.0,0.0,0.0,0.0,0.30956290165147965,0.7561881037999553,0.3601578431348117,0.00888459990871674,0.01029379825691879,0.17763260145347282
4440,10.0,300.21287,-4645.2246,0.0,0.0443999987727699,0.0,0.0,0.0,0.0,0.2802110727546797,0.7540149761779843,0.3778062382090726,-0.0013943194797586187,0.0033598226316886768,0.15297011428447485
4441,10.0,299.42194,-4599.7676,0.0,0.04440999476018925,0.0,0.0,0.0,0.0,0.25580013505550775,0.7623741172504673,0.38004023176455065,0.006878600696665033,-0.01034229645970519,0.15665322773546986
4442,10.0,299.77774,-4703.8781,0.0,0.04442002373766596,0.0,0.0,0.0,0.0,0.28820691300380774,0.7470446868850703,0.3946098866749636,0.004795325155136745,-0.0040313891939171365,0.14112408577536287
4443,10.0,299.82802999999996,-4727.9787,0.0,0.04443001972508531,0.0,0.0,0.0,0.0,0.30116354468252776,0.7539657322231242,0.38205819026620763,0.001358058298429919,0.01132335459077809,0.16141480406290085
4444,10.0,299.74416,-4602.127,0.0,0.044440015712504666,0.0,0.0,0.0,0.0,0.3061650383686367,0.7403602050478633,0.35240645960480965,-0.005724892955877944,-0.006149286680762344,0.17115780159195984
4445,10.0,299.51291000000003,-4582.4256,0.0,0.04445001169992402,0.0,0.0,0.0,0.0,0.2966954967765657,0.7424610068776962,0.3537864657110057,-0.01849905906321498,-0.005412126157410265,0.18278955810242484
4446,10.0,299.1696,-4719.5239,0.0,0.04446000768734337,0.0,0.0,0.0,0.0,0.27144110942915173,0.7648176205291223,0.3983586789974406,-0.0037824068945444965,0.01201676723046259,0.17417763139499381
4447,10.0,299.53047000000004,-4559.0335,0.0,0.044470003674762726,0.0,0.0,0.0,0.0,0.25801501871409976,0.7385939277385453,0.38922339848085863,-0.0006450340612049054,0.006757433716581784,0.17902263873565882
4448,10.0,300.13271000000003,-4452.188,0.0,0.04447999966218186,0.0,0.0,0.0,0.0,0.25032111686227076,0.7428913443276673,0.3601415196757006,-0.0025099878866165176,-0.0023792002994837877,0.16932199506077983
4449,10.0,300.1299,-4535.1779,0.0,0.04448999564960121,0.0,0.0,0.0,0.0,0.27492996257097474,0.7531991679924702,0.3504516873793887,-0.002159806220256278,-0.014766983340887786,0.16975974950148284
4450,10.0,299.83468999999997,-4578.5611,0.0,0.044500024627077917,0.0,0.0,0.0,0.0,0.3041174119040517,0.7519118945354263,0.33573895142235466,0.017909301908760483,-0.002220223587944008,0.17446240533559884
4451,10.0,300.51277000000005,-4620.839,0.0,0.04451002061449727,0.0,0.0,0.0,0.0,0.28242853006852575,0.7718320368638912,0.35035911685025267,0.003710368561459867,0.012534134758022787,0.19049829393571782
4452,10.0,300.23887,-4689.154,0.0,0.044520016601916845,0.0,0.0,0.0,0.0,0.27510946995869073,0.7614372155455023,0.38883906258542766,-0.004816449190571526,-0.007881765107819653,0.17053859432334884
4453,10.0,300.21477999999996,-4550.9642,0.0,0.04453001258933598,0.0,0.0,0.0,0.0,0.24725136422680977,0.7496482228845193,0.38647988198009464,-0.006348031229576905,-0.0016133011661954282,0.16839785017457384
4454,10.0,299.47587000000004,-4461.7712,0.0,0.04454000857675533,0.0,0.0,0.0,0.0,0.26140454294861976,0.7301598061586623,0.36470267513335164,-0.01309739846211259,0.014390052277187588,0.15208935676755087
4455,10.0,299.75804,-4721.3998,0.0,0.04455000456417446,0.0,0.0,0.0,0.0,0.30204787897230473,0.7536694477613832,0.37947031911330464,0.014866252466434885,0.007108653964294523,0.16659261339891085
4456,10.0,299.29202999999995,-4780.9086,0.0,0.044560000551593815,0.0,0.0,0.0,0.0,0.33620678925852665,0.7433000590205043,0.37376999696572666,-0.00938461725083961,-0.007411851426167784,0.15676016615102384
4457,10.0,299.45468,-4627.6481,0.0,0.04456999653901317,0.0,0.0,0.0,0.0,0.2742582993446867,0.7578629960827542,0.37456817459950065,0.01009661613975843,-0.009619477376943502,0.19041024250202782
4458,10.0,299.88858999999997,-4602.1463,0.0,0.044580025516489874,0.0,0.0,0.0,0.0,0.2616503472903787,0.7563341334043673,0.38095308904464265,0.0071424025893502534,-0.002313380484912878,0.17912162313792782
4459,10.0,300.44782999999995,-4615.6025,0.0,0.04459002150390923,0.0,0.0,0.0,0.0,0.27694572231991477,0.7428710793256672,0.38321111689249265,0.0024367839106168476,0.018258762748999582,0.16677956817486184
4460,10.0,300.26862,-4583.2206,0.0,0.0446000174913288,0.0,0.0,0.0,0.0,0.28236570856232573,0.7439861610607172,0.36683274975857366,-0.008190280511517753,0.003326980156197377,0.16173458579446084
4461,10.0,300.46716000000004,-4555.2088,0.0,0.044610013478747934,0.0,0.0,0.0,0.0,0.2967405154785087,0.7476938762241403,0.34023533993361366,-0.014266876528781086,-0.006481124365987174,0.15926003653274184
4462,10.0,300.26341,-4604.6537,0.0,0.04462000946616729,0.0,0.0,0.0,0.0,0.30788793844117374,0.7506353108669372,0.3411764871564977,-0.005418008276890786,0.006612659630368694,0.16683335149016984
4463,10.0,300.08021,-4628.8823,0.0,0.04463000545358642,0.0,0.0,0.0,0.0,0.27227369703632176,0.7610221173770353,0.37376882159561065,0.0011517448726933689,-0.0013111580923762288,0.18216688551847182
4464,10.0,299.88085,-4726.29,0.0,0.04464000144100577,0.0,0.0,0.0,0.0,0.26936219380147874,0.7669983779243462,0.4003135728128736,0.0013377712075777386,-0.009458166441148351,0.1872723994598468
4465,10.0,299.73674,-4706.9663,0.0,0.04464999742842535,0.0,0.0,0.0,0.0,0.27146641028414875,0.7516517324397503,0.4076820795275886,0.0028009448819817373,-0.008882494982959002,0.17394261816679985
4466,10.0,299.56782999999996,-4531.2265,0.0,0.04466002640590183,0.0,0.0,0.0,0.0,0.26693213635165075,0.7478472721567794,0.36260031289836464,0.00960151498579575,0.0033003275242419667,0.16788084944354983
4467,10.0,300.17042000000004,-4462.5649,0.0,0.044670022393321185,0.0,0.0,0.0,0.0,0.2842716117354237,0.7286123706059423,0.34362433727808167,-0.0003647635208018567,0.015222236610817787,0.17355344906839182
4468,10.0,299.96918,-4677.8061,0.0,0.04468001838074054,0.0,0.0,0.0,0.0,0.31584769685424074,0.7505048143865582,0.3555837282083817,-0.017740662641617083,0.0012104600815381087,0.16640091661249184
4469,10.0,300.22727000000003,-4629.3537,0.0,0.04469001436815989,0.0,0.0,0.0,0.0,0.26812850100972274,0.7651368753706304,0.3739425635902576,-0.012756006132419789,-0.010476048512655491,0.1989228706996588
4470,10.0,300.6484,-4453.2883,0.0,0.044700010355579245,0.0,0.0,0.0,0.0,0.24525413682219876,0.7358979326674713,0.3725363953664796,-0.002197320893283688,0.006595884261713094,0.16999289834949283
4471,10.0,300.857,-4592.9235,0.0,0.044710006342998376,0.0,0.0,0.0,0.0,0.25877130858873976,0.7649946353215923,0.37236810465737064,0.0037880972057810864,0.011495722618289489,0.17554367491481182
4472,10.0,300.52723,-4716.2298,0.0,0.04472000233041773,0.0,0.0,0.0,0.0,0.30381887802708873,0.7441907261234063,0.3856065110563996,-0.0033973707419693872,0.004709166371308535,0.13887848037373887
4473,10.0,300.10752,-4744.9671,0.0,0.044729998317837305,0.0,0.0,0.0,0.0,0.33389060085493666,0.7489571660513173,0.35950375979775867,-0.0007379590454908872,0.004391199168027615,0.14919515984441586
4474,10.0,299.69926,-4798.1649,0.0,0.044739994305256436,0.0,0.0,0.0,0.0,0.3176610396307037,0.7630138934961083,0.37784739642813464,0.01048392957193329,0.007411900366147612,0.14984977007152087
4475,10.0,299.8014,-4779.9123,0.0,0.04475002328273314,0.0,0.0,0.0,0.0,0.2944206287120537,0.7568758270403283,0.40167751890498465,0.005460709169230036,0.00894921425964368,0.16522799856173384
4476,10.0,300.0562,-4646.4965,0.0,0.044760019270152496,0.0,0.0,0.0,0.0,0.2650425262401607,0.7498504068094732,0.3975259698002586,-0.0041906223590572255,-0.007421268065972133,0.18058116937697383
4477,10.0,300.03587000000005,-4556.4553,0.0,0.04477001525757185,0.0,0.0,0.0,0.0,0.25784014187934073,0.7405501691766112,0.3866583254552056,-0.022221249517566582,-0.012403049579335688,0.17592516357746182
4478,10.0,299.59353,-4607.8057,0.0,0.0447800112449912,0.0,0.0,0.0,0.0,0.28533597017046775,0.7480180655936353,0.3673038401275666,0.0017477035230599085,0.007343046779452293,0.17075971589267183
4479,10.0,299.56346,-4438.0761,0.0,0.044790007232410334,0.0,0.0,0.0,0.0,0.2910555542024467,0.7361410620289663,0.3218677095408697,0.002193402148521938,0.011228125293379689,0.17376353634412584
4480,10.0,300.23014,-4361.8174,0.0,0.04480000321982969,0.0,0.0,0.0,0.0,0.26226311028835375,0.7359197276771223,0.3277007370540447,-0.0015038996409733386,-0.009129868646472881,0.18949268374147182
4481,10.0,300.33715,-4583.4219,0.0,0.04480999920724904,0.0,0.0,0.0,0.0,0.2584164684037198,0.7593958712315373,0.37543349018490063,-0.016804235137698884,-0.010310121716029791,0.18276486519748783
4482,10.0,300.66706,-4642.1262,0.0,0.044819995194668394,0.0,0.0,0.0,0.0,0.25065652291037277,0.7696753036285383,0.39075863450237464,0.002017861330972408,0.002365242475381258,0.18479193281754383
4483,10.0,300.56323,-4647.4512,0.0,0.0448300241721451,0.0,0.0,0.0,0.0,0.25998010582553877,0.7763634027686023,0.3763655890843916,0.0006802202652375134,0.009505089344004281,0.17834852344412883
4484,10.0,300.55298,-4689.4491,0.0,0.04484002015956445,0.0,0.0,0.0,0.0,0.3183369889049147,0.7530840729136113,0.35405435890494463,-0.0022835172686906076,0.0027737143934942975,0.15784204368029686
4485,10.0,300.80137,-4623.6694,0.0,0.04485001614698381,0.0,0.0,0.0,0.0,0.3199470939763197,0.7460441429413243,0.33948880765743666,-0.02034691415133408,-0.002772512881525717,0.16923199818689785
4486,10.0,300.212,-4580.6411,0.0,0.04486001213440316,0.0,0.0,0.0,0.0,0.27957905800480476,0.7383878124032033,0.37443363525122264,-0.0006231757943501624,-0.0029278239581787273,0.17845726544486085
4487,10.0,299.86686000000003,-4645.407999999999,0.0,0.04487000812182229,0.0,0.0,0.0,0.0,0.25767782934582173,0.7630191117341233,0.39139108494979263,-0.003976480968348116,0.0005496081730221035,0.18088576248953483
4488,10.0,299.92429,-4563.9059,0.0,0.044880004109241645,0.0,0.0,0.0,0.0,0.2552436175705837,0.7407071520146044,0.3913626734169886,0.01058223104363489,-0.017170714526617583,0.17404380132178582
4489,10.0,299.85916000000003,-4483.8163,0.0,0.044890000096661,0.0,0.0,0.0,0.0,0.2518771954383438,0.7448028507738184,0.3662881379623247,-0.002962958405396227,0.0007656449898982772,0.17453938194569585
4490,10.0,299.86936000000003,-4582.7286,0.0,0.04489999608408035,0.0,0.0,0.0,0.0,0.3197817619575027,0.7486335137043753,0.3246197778724777,0.013743212665099487,0.008683971930616301,0.16353084517423785
4491,10.0,300.23404,-4815.8359,0.0,0.04491002506155706,0.0,0.0,0.0,0.0,0.3303853938564997,0.7593616639081613,0.37414680441291465,0.01144496182802979,0.017749488049988084,0.15184303566824087
4492,10.0,299.75239,-4819.1021,0.0,0.04492002104897641,0.0,0.0,0.0,0.0,0.3025292943598167,0.7842050263525103,0.37815237457573364,-0.004713473798808646,-0.005515382422100865,0.17148894185714084
4493,10.0,300.07824,-4673.8135,0.0,0.04493001703639554,0.0,0.0,0.0,0.0,0.25464749213925075,0.7640864491244613,0.40198864748069063,-0.0062006803470345045,-0.007646946423644853,0.15353480869770586
4494,10.0,300.53983999999997,-4682.4938,0.0,0.04494001302381512,0.0,0.0,0.0,0.0,0.25350061461606277,0.7706217906794492,0.39923878803430063,0.004040470346613376,-0.004509979234850295,0.17736714005977383
4495,10.0,300.65695,-4714.3039,0.0,0.04495000901123447,0.0,0.0,0.0,0.0,0.28038480461682574,0.7594177574336973,0.3932280972485916,0.014124367968466587,0.014098596965423186,0.16340836350214982
4496,10.0,300.5271,-4686.891,0.0,0.0449600049986536,0.0,0.0,0.0,0.0,0.31985553669728367,0.7540217244236502,0.3508205813432957,-0.005460932388227064,-0.001201951516473379,0.17914031760227284
4497,10.0,300.57796,-4595.3665,0.0,0.044970000986072955,0.0,0.0,0.0,0.0,0.30594049201397566,0.7465804055567493,0.3443557619952677,-0.004907215526579464,-0.0004560503937836695,0.16993475805875485
4498,10.0,300.42947000000004,-4513.4693,0.0,0.04497999697349209,0.0,0.0,0.0,0.0,0.25582791837324975,0.7581925455452783,0.35796149182054865,-0.01037088733777689,0.002241529805746768,0.2031177362461598
4499,10.0,300.04216,-4585.6977,0.0,0.044990025950969015,0.0,0.0,0.0,0.0,0.24573433630959077,0.7701508117679673,0.37805243771837066,0.009300603213498071,0.010836166717446388,0.18990050677422082
4500,10.0,300.12074,-4746.2651,0.0,0.04500002193838837,0.0,0.0,0.0,0.0,0.2578020031455767,0.7919091924278522,0.39303488058702263,-0.006669857497188684,-0.02250648651346728,0.18879273057239182
4501,10.0,299.62495,-4776.9752,0.0,0.0450100179258075,0.0,0.0,0.0,0.0,0.28918812413564576,0.7858503722623933,0.37704268333121566,0.004462940517507936,-0.027109541889253474,0.16188856941215785
4502,10.0,299.5191,-4503.8828,0.0,0.04502001391322685,0.0,0.0,0.0,0.0,0.2985687935614457,0.7528707229725553,0.3176284028449827,0.006063558224251604,-0.008287971804009132,0.15930466006714586
4503,10.0,299.84888,-4535.3863,0.0,0.04503000990064643,0.0,0.0,0.0,0.0,0.28714010250352173,0.7432161011172183,0.3482879829833477,0.014108143807865386,0.02058073478416038,0.17210455208789685
4504,10.0,299.94665,-4806.6183,0.0,0.04504000588806556,0.0,0.0,0.0,0.0,0.29752843902127074,0.7667104831734333,0.3968530096138426,-0.003187682078824727,0.0025517539544135078,0.16154664816591285
4505,10.0,300.12595,-4823.3101,0.0,0.04505000187548491,0.0,0.0,0.0,0.0,0.27855104485084775,0.7694585694321483,0.41815621806380565,-0.0047688549081993355,0.01053156448563449,0.17532997033622083
4506,10.0,300.1278,-4732.9055,0.0,0.045059997862904044,0.0,0.0,0.0,0.0,0.27415921361740775,0.7523395671376343,0.4121863105946216,0.004526934455398646,0.01319239775173829,0.17505176225626384
4507,10.0,299.96289,-4686.9868,0.0,0.04507002684038097,0.0,0.0,0.0,0.0,0.3029410690679557,0.7528356138565903,0.3689502803475576,0.010826778955269888,0.019153388620042282,0.16766548313479482
4508,10.0,299.95017,-4576.6017,0.0,0.045080022827800326,0.0,0.0,0.0,0.0,0.31520590424090067,0.7358363169288903,0.34013042801825966,-0.001036075078377649,-0.018515403800578083,0.16834167558902982
4509,10.0,299.95951,-4630.6246,0.0,0.04509001881521946,0.0,0.0,0.0,0.0,0.2897368091972967,0.7538729590439682,0.36398447332997064,-0.009285526963935161,-0.027897087489728176,0.17020428258535483
4510,10.0,299.56424,-4722.7684,0.0,0.04510001480263881,0.0,0.0,0.0,0.0,0.2748952587550498,0.7847162008954592,0.37599219629004066,0.0028601620549260176,-0.008408533468482643,0.18017649755203582
4511,10.0,299.24773,-4598.0,0.0,0.045110010790058386,0.0,0.0,0.0,0.0,0.25574434550500175,0.7693709942260052,0.37256185834149264,0.005462578615664535,0.009135956557048712,0.17597008095439481
4512,10.0,299.24872999999997,-4531.0734,0.0,0.04512000677747752,0.0,0.0,0.0,0.0,0.24694386308646177,0.7598982304986163,0.37049106897962164,0.019809597755805083,-0.013813019517488884,0.17748482905888882
4513,10.0,299.92342,-4703.7752,0.0,0.04513000276489687,0.0,0.0,0.0,0.0,0.3191642062865547,0.7497297287225633,0.36093629278913864,-0.01025670621050809,-0.012575293990334887,0.14865755973885886
4514,10.0,300.06189,-4815.2027,0.0,0.045139998752316,0.0,0.0,0.0,0.0,0.3327506742274347,0.7547280813333622,0.37622263976028364,0.01191083699875809,0.004331793834539766,0.17220196595251083
4515,10.0,300.07899,-4601.8396,0.0,0.045149994739735355,0.0,0.0,0.0,0.0,0.28211192994227974,0.7455217821172713,0.3712106285381367,-0.0034276773564354164,0.008362994462613293,0.17309766890840986
4516,10.0,300.46575,-4541.9172,0.0,0.04516002371721228,0.0,0.0,0.0,0.0,0.25900845977464476,0.7471540976308683,0.37446684958950066,-0.004762613388908345,0.0018800639783228682,0.1934332032478708
4517,10.0,300.05861,-4663.0197,0.0,0.045170019704631414,0.0,0.0,0.0,0.0,0.25936700845503075,0.7526312615764224,0.4054432730341356,-0.025553350842419373,-0.011062680803801591,0.18712249924005284
4518,10.0,299.72815,-4638.2547,0.0,0.04518001569205099,0.0,0.0,0.0,0.0,0.27344365639678775,0.7689461992540813,0.3675237559292706,0.0017502072640570084,0.0060152621648601546,0.19772019349346381
4519,10.0,300.14576,-4646.8756,0.0,0.04519001167947012,0.0,0.0,0.0,0.0,0.29512793807685966,0.7547299862435503,0.36267622559585666,-0.002403976493579008,0.002217783884353228,0.16829280653670683
4520,10.0,300.70347999999996,-4616.9024,0.0,0.045200007666889475,0.0,0.0,0.0,0.0,0.3076927966044147,0.7472068879610783,0.34852337111407866,0.009049622987578252,-0.01768258213263498,0.16259376108425486
4521,10.0,300.57842,-4573.938,0.0,0.04521000365430883,0.0,0.0,0.0,0.0,0.2626824641072407,0.7570226469798182,0.37065782968107963,-0.01109376123736899,-0.012320008667390187,0.16486859875126386
4522,10.0,300.08361,-4662.8142,0.0,0.04521999964172796,0.0,0.0,0.0,0.0,0.27875148598562977,0.7575560116999572,0.3810715987763386,0.0014662610474586988,0.0018659506203299882,0.16301905254872787
4523,10.0,299.62568999999996,-4867.0746,0.0,0.04522999562914731,0.0,0.0,0.0,0.0,0.28045951154669874,0.7851626388895192,0.41384699711101863,0.0009352051493950623,0.02123602996833298,0.17230150764233484
4524,10.0,299.77511,-4744.2131,0.0,0.04524002460662424,0.0,0.0,0.0,0.0,0.31568017621520766,0.7524128453848663,0.37402929779881766,-0.0043234011852864756,0.006915429703349773,0.16480716539770085
4525,10.0,299.98093,-4608.0372,0.0,0.045250020594043594,0.0,0.0,0.0,0.0,0.31090971368439974,0.7418668775490603,0.3479516650101557,-0.0008098594549719053,0.0018193707026329085,0.16327352017884184
4526,10.0,299.85781000000003,-4715.7214,0.0,0.04526001658146295,0.0,0.0,0.0,0.0,0.31684607244277274,0.7496305416702743,0.36698493992359366,0.0002906326844057127,0.01122370752294369,0.17303225348195383
4527,10.0,299.75523,-4735.3005,0.0,0.04527001256888208,0.0,0.0,0.0,0.0,0.27795368325439274,0.7637718754984153,0.3976875629262066,0.006290201499994555,0.01102252570233859,0.16754544339544783
4528,10.0,299.85102,-4613.3435,0.0,0.04528000855630143,0.0,0.0,0.0,0.0,0.25873222753238273,0.7496218479844163,0.39398716342850565,-0.016207336596539588,-0.015906990015147685,0.17463333049496782
4529,10.0,300.55073,-4669.5717,0.0,0.045290004543720785,0.0,0.0,0.0,0.0,0.2566725535241087,0.7705762552199553,0.39218439898308666,-0.013036609535613187,-0.008668791721593133,0.18416846989851282
4530,10.0,299.99027,-4610.8847,0.0,0.04530000053113992,0.0,0.0,0.0,0.0,0.28479385096946475,0.7631295053325183,0.35367047897205867,-0.006186139194849404,0.016030551811842285,0.17871093260739584
4531,10.0,299.93609,-4457.2046,0.0,0.04530999651855949,0.0,0.0,0.0,0.0,0.2886664320566587,0.7479652043359183,0.3182472757410607,0.0016105994361287886,0.025632057070437076,0.17338516849178384
4532,10.0,300.27556,-4644.3433,0.0,0.0453200254960362,0.0,0.0,0.0,0.0,0.2949357650628937,0.7683555757707913,0.3484730531141127,-0.027324086452177373,-0.009626824352093591,0.15857954789808285
4533,10.0,300.43697000000003,-4807.6253,0.0,0.04533002148345555,0.0,0.0,0.0,0.0,0.28389396329065275,0.7764913154612263,0.40101277617687964,0.0014379402005386486,-0.02112231594936028,0.16372848973874385
4534,10.0,299.94507000000004,-4705.4213,0.0,0.045340017470874905,0.0,0.0,0.0,0.0,0.2622320541727887,0.7735140421623923,0.39458447436245564,-0.005566807803101155,-0.0031843408866199766,0.17639854389168083
4535,10.0,299.6575,-4687.6861,0.0,0.045350013458294036,0.0,0.0,0.0,0.0,0.26904294909247173,0.7675907239328063,0.3883058599853046,0.02447323940807068,0.0034394886102010968,0.20198383845675283
4536,10.0,299.99456000000004,-4735.5839,0.0,0.04536000944571317,0.0,0.0,0.0,0.0,0.3242176695702927,0.7506539242712742,0.36462766422844867,-0.00916227633634627,-0.007338789305182113,0.17698563113212182
4537,10.0,300.52202,-4640.8614,0.0,0.04537000543313274,0.0,0.0,0.0,0.0,0.3118659279362707,0.7579007801789833,0.34093929544058865,-0.0021459144600602677,0.005823637825823305,0.18353339513333583
4538,10.0,300.57223999999997,-4525.6523,0.0,0.045380001420552096,0.0,0.0,0.0,0.0,0.26855607228692074,0.7485650889251223,0.3585641425825256,-0.004884758661963145,0.017356873901240084,0.15804683165800784
4539,10.0,300.69822,-4556.2515,0.0,0.04538999740797145,0.0,0.0,0.0,0.0,0.25120487359949073,0.7585947450399723,0.37518706776058064,-0.0018781005022790883,0.013977034311175886,0.18140519502079883
4540,10.0,300.81425,-4575.9752,0.0,0.045400026385447934,0.0,0.0,0.0,0.0,0.24172932343432676,0.7569415059118103,0.3923113693531176,-0.01820250507694738,-0.016173540652704183,0.15489869399481085
4541,10.0,300.55311,-4611.8829,0.0,0.04541002237286751,0.0,0.0,0.0,0.0,0.26587496185981574,0.7617398024228653,0.37428247860130465,-0.014025140386173586,-0.03098629250060897,0.18202685435465182
4542,10.0,300.18182,-4846.7434,0.0,0.04542001836028686,0.0,0.0,0.0,0.0,0.3331248269593607,0.7778178523596453,0.36234629109829464,0.008633197258830232,-0.001195773527963659,0.15312779626503686
4543,10.0,300.29847,-4790.6658,0.0,0.045430014347705994,0.0,0.0,0.0,0.0,0.3259373880375157,0.7659082120092552,0.36439718022820167,0.030849536161112173,0.007559692924408603,0.15753263762976086
4544,10.0,300.17165,-4650.667,0.0,0.045440010335125125,0.0,0.0,0.0,0.0,0.29915943730973776,0.7486407584425903,0.36588644509268065,0.009296046121173322,-0.003463011515247627,0.15188958437783487
4545,10.0,300.15065,-4793.4573,0.0,0.0454500063225447,0.0,0.0,0.0,0.0,0.2802455131255787,0.7662780280307533,0.41056778541488564,-0.006472891100974614,-0.010342160684191791,0.16453170322551486
4546,10.0,299.88376,-4811.9256,0.0,0.045460002309964054,0.0,0.0,0.0,0.0,0.2707487151058177,0.7716978825506513,0.42025863096129756,0.010069783047960211,0.009575178386546531,0.16957460844321082
4547,10.0,300.08344,-4574.4601,0.0,0.04546999829738341,0.0,0.0,0.0,0.0,0.25832222601191873,0.7644007390404793,0.3677986912114046,-0.0036922728265989567,0.0094980099682056,0.2017549249941608
4548,10.0,300.10045,-4531.1546,0.0,0.04547999428480254,0.0,0.0,0.0,0.0,0.2982763290525817,0.7424027247319442,0.3366788016851107,0.0005833192267641254,-0.003786301422628856,0.1866925670901218
4549,10.0,301.03087999999997,-4588.2873,0.0,0.045490023262279466,0.0,0.0,0.0,0.0,0.2868964766494777,0.7683811907333192,0.3394471022833207,-0.02063535200430068,-0.00858753737222395,0.1819352261481088
4550,10.0,300.57358999999997,-4644.8864,0.0,0.04550001924969882,0.0,0.0,0.0,0.0,0.2734858481309518,0.7721467219474483,0.36629692284069165,0.002935636724399787,0.018846318110986783,0.17516755647769183
4551,10.0,300.43437,-4663.8906,0.0,0.04551001523711795,0.0,0.0,0.0,0.0,0.25229096624917974,0.7814793531860073,0.38393595548402865,-0.004405440195533096,0.0012028068008827887,0.17802561076975984
4552,10.0,300.79379,-4654.7705,0.0,0.04552001122453708,0.0,0.0,0.0,0.0,0.25294162480089477,0.7733078356345413,0.3886845318126766,-0.00021252566209964982,-0.009585399850905311,0.17296892535070385
4553,10.0,300.90267,-4628.1111,0.0,0.045530007211956436,0.0,0.0,0.0,0.0,0.28110606643550873,0.7607714696997983,0.36495266419802364,-0.004546082450488405,-0.023943982403837077,0.17974652487210083
4554,10.0,299.64064,-4768.2612,0.0,0.04554000319937601,0.0,0.0,0.0,0.0,0.3207743417554627,0.7684667191742602,0.36019129052061266,0.016924449156063087,0.00956534935395148,0.17295137585897186
4555,10.0,299.43494,-4902.9808,0.0,0.045549999186795365,0.0,0.0,0.0,0.0,0.32328240933048974,0.7839628697111113,0.38313845672782165,0.000933910033382244,0.0003587385938522426,0.18520163036297782
4556,10.0,299.54433,-4763.0611,0.0,0.045559995174214496,0.0,0.0,0.0,0.0,0.29742580691864173,0.7542875404548843,0.3961382933908056,-0.008263628673006652,0.003689857542335587,0.15799189323758583
4557,10.0,300.10819,-4474.8151,0.0,0.0455700241516912,0.0,0.0,0.0,0.0,0.24454581420729277,0.7351950410731013,0.38049119898655764,-0.01080513390663369,-0.013409579804672488,0.18423050106963484
4558,10.0,300.08947,-4652.1827,0.0,0.04558002013911078,0.0,0.0,0.0,0.0,0.26263004867956774,0.7544720532980943,0.3970452535553156,0.010074052985206621,0.01095440388486549,0.17122182886577883
4559,10.0,300.36893,-4909.0299,0.0,0.04559001612652991,0.0,0.0,0.0,0.0,0.3155446945443367,0.7765457168590952,0.4001321098524646,0.015095197339779983,0.0004332532291212646,0.17920990761914082
4560,10.0,300.33232999999996,-4706.5127,0.0,0.04560001211394904,0.0,0.0,0.0,0.0,0.3264079920464607,0.7613024127521982,0.34295192424671966,0.0024473515012097876,-0.016024647603509586,0.17174017721943585
4561,10.0,300.31696,-4537.6796,0.0,0.045610008101368615,0.0,0.0,0.0,0.0,0.2834114637255337,0.7440124954308163,0.3519173131190347,-0.0007050071389887874,-0.024014669770563376,0.16786678553216186
4562,10.0,299.68201,-4576.7301,0.0,0.04562000408878775,0.0,0.0,0.0,0.0,0.2734579533556987,0.7585345174540283,0.35921920877217567,-0.010451699099502389,0.020299212363126283,0.16501968447367485
4563,10.0,299.60868999999997,-4687.8651,0.0,0.04563000007620732,0.0,0.0,0.0,0.0,0.25167780808366574,0.7703976800223312,0.4029184361699536,0.0014667938143612786,0.010647834934609489,0.17102666676401784
4564,10.0,299.2262,-4805.3014,0.0,0.04563999606362645,0.0,0.0,0.0,0.0,0.27921537214641173,0.7734180772454212,0.4080581878322076,-0.01097999452939109,0.005754175174492874,0.17393075300812882
4565,10.0,299.11141000000003,-4775.1573,0.0,0.04565002504110316,0.0,0.0,0.0,0.0,0.3063659152009617,0.7585615813641993,0.38660107682455563,0.00031689582302268265,-0.0022823788822032578,0.16952701608601384
4566,10.0,299.66835,-4619.4599,0.0,0.04566002102852251,0.0,0.0,0.0,0.0,0.30397754286024775,0.7454720619348643,0.35475085689118363,0.0012303354888746588,0.009261933334031651,0.18692372996793583
4567,10.0,299.82815,-4720.3965,0.0,0.045670017015941866,0.0,0.0,0.0,0.0,0.2913173273657817,0.7747734613741873,0.3687918890919256,0.015559329720336284,0.0027268334391925076,0.1909232408951568
4568,10.0,299.93989,-4874.6323,0.0,0.04568001300336122,0.0,0.0,0.0,0.0,0.3054425403848317,0.7667762937674283,0.4095476553467066,-0.011552181927111589,-0.013847788181420288,0.18127005785496184
4569,10.0,300.5361,-4685.3444,0.0,0.04569000899078057,0.0,0.0,0.0,0.0,0.26966828652418773,0.7554391194585363,0.3991202985676066,0.01048527212831579,-0.016651140140339585,0.17947994890329183
4570,10.0,300.32049,-4519.1829,0.0,0.045700004978199704,0.0,0.0,0.0,0.0,0.24693982021856276,0.7635788918843692,0.36320006576505565,-0.0056963090692319345,0.016791339503676183,0.18039852091394784
4571,10.0,299.93789,-4589.9911,0.0,0.04571000096561928,0.0,0.0,0.0,0.0,0.2893092480525997,0.7575529010221503,0.3483805332474817,0.02415706484686668,0.0028396031090720075,0.17121688420529083
4572,10.0,301.02691,-4814.2415,0.0,0.04571999695303841,0.0,0.0,0.0,0.0,0.3236152822533417,0.7778625164240532,0.36193140571234866,-0.014075103748604587,-0.007864891757879383,0.16061137779360884
4573,10.0,300.49771,-4890.895,0.0,0.04573002593051512,0.0,0.0,0.0,0.0,0.3143269199116517,0.7801474257970563,0.3922356086431406,-0.012800554686316388,-0.012944025834225886,0.17452695949946984
4574,10.0,300.69175,-4764.7057,0.0,0.04574002191793447,0.0,0.0,0.0,0.0,0.29781118646167576,0.7613956317613982,0.3891447398755956,-0.008515632078877452,0.006991505331457854,0.15445512349853385
4575,10.0,300.3434,-4637.8004,0.0,0.045750017905353824,0.0,0.0,0.0,0.0,0.25440532536535077,0.7632309114025263,0.39213926882363265,0.008525724860473531,0.011360893480482888,0.18483129758392883
4576,10.0,299.73573,-4694.1569,0.0,0.04576001389277318,0.0,0.0,0.0,0.0,0.28912326599674476,0.7461289013121893,0.3916543273257726,-0.0026428306489270775,-0.0008904965526451671,0.16594691977268586
4577,10.0,299.54559,-4805.1696,0.0,0.04577000988019253,0.0,0.0,0.0,0.0,0.31586799225374373,0.7633399067157833,0.3814436844780606,-0.0008371928795370042,-0.012962531834052288,0.17897742751619683
4578,10.0,299.82215,-4733.3411,0.0,0.04578000586761166,0.0,0.0,0.0,0.0,0.3137063751529087,0.7562010734012353,0.36891006445108865,4.7770253517056955e-05,0.00964465096772794,0.17017890067034985
4579,10.0,299.78358,-4464.2581,0.0,0.045790001855031015,0.0,0.0,0.0,0.0,0.26363136269338977,0.7455830330858163,0.34780860422853666,0.013681372998246384,-0.004512833357731976,0.17617937789505084
4580,10.0,300.16777,-4406.2243,0.0,0.04579999784245037,0.0,0.0,0.0,0.0,0.24506681727621177,0.7419420607064803,0.35237329592903666,0.007738562572511662,-0.00874046447404168,0.17425714113034085
4581,10.0,299.76756,-4747.3028,0.0,0.045810026819927074,0.0,0.0,0.0,0.0,0.2743912478903077,0.7699626512243973,0.3987076018018766,-0.011397430265838789,-0.014633424818706586,0.17285832910228885
4582,10.0,300.50248999999997,-4866.7644,0.0,0.04582002280734643,0.0,0.0,0.0,0.0,0.3066494327114427,0.7824061325224733,0.39031929939151566,0.007363224033993633,0.004820969197942615,0.1790771313260368
4583,10.0,300.82096,-4686.0639,0.0,0.04583001879476578,0.0,0.0,0.0,0.0,0.30259355468115867,0.7753660708276733,0.3464867992080847,-0.006431247839089744,0.009736875066654752,0.17701940275795483
4584,10.0,300.39099999999996,-4617.21,0.0,0.045840014782185134,0.0,0.0,0.0,0.0,0.29175808102678075,0.7560001357739043,0.35575834159811465,0.008791253230004143,-0.006665056414239854,0.17412489172728884
4585,10.0,300.16732,-4643.1295,0.0,0.04585001076960449,0.0,0.0,0.0,0.0,0.29108290182264573,0.7533832654031393,0.36692925169809765,-0.005893150734358694,-0.008247726928587273,0.16305863009763386
4586,10.0,300.05138,-4723.4546,0.0,0.04586000675702362,0.0,0.0,0.0,0.0,0.2795832123302147,0.7621724399505633,0.3940566115903596,0.00045547276016666167,0.016143011427191184,0.17089019210804884
4587,10.0,300.20605,-4796.1691,0.0,0.04587000274444297,0.0,0.0,0.0,0.0,0.2756294597775097,0.7622233051055832,0.42006289130697966,-0.004119234937836836,0.014824519734566187,0.16962110649029982
4588,10.0,300.62498,-4769.2382,0.0,0.045879998731862326,0.0,0.0,0.0,0.0,0.30759527128228975,0.7740091870887593,0.36812487668359667,-0.006999981573844394,-7.702120222065084e-05,0.17833375025767084
4589,10.0,300.20355,-4610.0437,0.0,0.04588999471928168,0.0,0.0,0.0,0.0,0.2856834642922627,0.7659503834784173,0.34970433437063064,-0.0039108832581991266,-0.0024845974603106774,0.18831162929241083
4590,10.0,299.72483,-4707.3733,0.0,0.045900023696758385,0.0,0.0,0.0,0.0,0.3085257591141217,0.7728307265599542,0.34956745441462167,0.017396604450911183,0.012491168900782388,0.18127189183764283
4591,10.0,299.74851,-4840.8912,0.0,0.04591001968417774,0.0,0.0,0.0,0.0,0.29293061404250076,0.7905953211556832,0.38798410241604964,-0.01095468050214279,0.002223804616447428,0.18248094238696683
4592,10.0,299.86732,-4692.6517,0.0,0.04592001567159709,0.0,0.0,0.0,0.0,0.2685645937202617,0.7692929131732993,0.38859142426098764,0.00046131046889529866,-0.02600170793216877,0.16618505381118784
4593,10.0,300.17303,-4622.4943,0.0,0.045930011659016445,0.0,0.0,0.0,0.0,0.25220790000598176,0.7712917111155653,0.3816232425282816,-0.015705369457249287,-0.011639679112996888,0.18236242252276982
4594,10.0,300.30965,-4719.7975,0.0,0.04594000764643558,0.0,0.0,0.0,0.0,0.3021172764716537,0.7553713634243493,0.37721193662791963,0.01257845735714709,0.014961358147321087,0.16021340355183183
4595,10.0,300.26919,-4852.3815,0.0,0.04595000363385493,0.0,0.0,0.0,0.0,0.3109520979360827,0.7801619558034903,0.38388875829437064,-0.003805553985128936,0.01027409966172469,0.18321232657414882
4596,10.0,300.73364,-4850.0881,0.0,0.04595999962127406,0.0,0.0,0.0,0.0,0.3116955296669537,0.7806438474185492,0.38196629861463866,-0.008005467239653103,0.001104766545056969,0.17694428039554083
4597,10.0,300.15525,-4734.8119,0.0,0.04596999560869364,0.0,0.0,0.0,0.0,0.28660991938869673,0.7621050284214103,0.39054965166924965,-0.010116175311738772,-2.7814410334568576e-06,0.17171199873415485
4598,10.0,300.70799,-4583.3774,0.0,0.04598002458617034,0.0,0.0,0.0,0.0,0.25378676657680377,0.7581615096947153,0.38128401652730265,0.015020544112162287,0.02096477278406198,0.17543357515894584
4599,10.0,300.21422,-4633.0088,0.0,0.045990020573589696,0.0,0.0,0.0,0.0,0.27660363895365375,0.7572570117279482,0.37445834842116166,0.004246488815245816,0.012316606173554387,0.17645471847722485
4600,10.0,299.50951000000003,-4866.997,0.0,0.04600001656100883,0.0,0.0,0.0,0.0,0.32954148824571267,0.7822044754875712,0.36769960548412567,0.0003371041438120887,-0.022891558028470878,0.1870976543476008
4601,10.0,299.55072,-4834.7390000000005,0.0,0.0460100125484284,0.0,0.0,0.0,0.0,0.3127755630810447,0.7934838641432602,0.3633804952103627,-0.005020899452024195,-0.005130402606231315,0.17334581385789982
4602,10.0,300.15443999999997,-4564.6103,0.0,0.046020008535847534,0.0,0.0,0.0,0.0,0.2865586489336367,0.7581203514756533,0.3428485524715177,0.016163528728466086,0.013316381060474487,0.18675610800389283
4603,10.0,300.2469,-4664.5181,0.0,0.04603000452326689,0.0,0.0,0.0,0.0,0.2601359842209227,0.7677798267989693,0.38998121836314964,0.003829075876925366,0.004629245357745945,0.16451362684373086
4604,10.0,300.16627,-4994.7419,0.0,0.04604000051068624,0.0,0.0,0.0,0.0,0.3088376070973987,0.7959252395967052,0.4135139722006516,-0.01958093861898818,-0.017746809016723684,0.16660845049797382
4605,10.0,300.03337,-4915.4003,0.0,0.046049996498105594,0.0,0.0,0.0,0.0,0.2965897033336247,0.7743766017075202,0.42319262834836063,-0.010393437218752391,-0.004571834303104916,0.15135593594766786
4606,10.0,299.83616,-4698.0674,0.0,0.04606002547558252,0.0,0.0,0.0,0.0,0.30069745976902873,0.7618140331251912,0.36558367583029966,0.007783447120141423,0.01148484233871569,0.17895179228866684
4607,10.0,299.76601,-4710.397,0.0,0.046070021463001654,0.0,0.0,0.0,0.0,0.2781225920460627,0.7750608900300543,0.37865957717829063,0.00994072801717347,0.02190220847182968,0.1869816574761528
4608,10.0,299.61396,-4698.6215,0.0,0.046080017450420785,0.0,0.0,0.0,0.0,0.2978211467101587,0.7615481056364463,0.36889435907453866,-0.015880366868770184,-0.016577842641355683,0.18798562620523682
4609,10.0,300.03662,-4753.9171,0.0,0.04609001343784036,0.0,0.0,0.0,0.0,0.26887215565561573,0.7934220964171643,0.3827778511497327,-0.015717643968960686,0.001090543350753249,0.17915393568361682
4610,10.0,299.99662,-4716.5545,0.0,0.04610000942525949,0.0,0.0,0.0,0.0,0.28574195922053575,0.7560929900130683,0.39187982613552763,-0.007224121311240263,0.015639373438485985,0.15846993450226485
4611,10.0,300.57807,-4614.0854,0.0,0.046110005412678845,0.0,0.0,0.0,0.0,0.27160228712255874,0.7734305300891503,0.35753394080835266,0.0048134723631027354,0.015499535805435087,0.17219851076966985
4612,10.0,300.42663,-4661.5625,0.0,0.0461200014000982,0.0,0.0,0.0,0.0,0.29350199590639175,0.7712257282690532,0.3522708664764277,-0.008027962506448213,-0.028808635650690972,0.16973439798398085
4613,10.0,300.3092,-4920.0754,0.0,0.04612999738751733,0.0,0.0,0.0,0.0,0.3253697551989947,0.7844669211058573,0.3857433910124086,0.010691687385687388,-0.00903802471898359,0.18200886916537684
4614,10.0,300.07147000000003,-4952.9547,0.0,0.04614002636499448,0.0,0.0,0.0,0.0,0.3122890206480267,0.7997522244293992,0.39353331857621465,0.017331068447693283,0.002044962528747088,0.17697248927832482
4615,10.0,300.04301,-4711.6854,0.0,0.04615002235241361,0.0,0.0,0.0,0.0,0.26854371063570076,0.7607705577747083,0.40292045253765263,0.01011834123515253,0.016546820976294088,0.17489721121851085
4616,10.0,299.70957000000004,-4659.1831,0.0,0.04616001833983274,0.0,0.0,0.0,0.0,0.2655202229998057,0.7688643489110033,0.38189075068718265,-0.0013900283655851186,-0.017152613826831184,0.17654374263101083
4617,10.0,299.56185,-4667.4013,0.0,0.046170014327252096,0.0,0.0,0.0,0.0,0.2826902525693557,0.7474097203660963,0.3886734671215846,-0.00876522830648568,-0.0011997455696806688,0.16190508538878784
4618,10.0,299.67091,-4723.3403,0.0,0.04618001031467145,0.0,0.0,0.0,0.0,0.29639826999223173,0.7649264537223632,0.37445279581061364,0.013467985566936687,0.02170630973724598,0.18983734076298683
4619,10.0,300.56442000000004,-4734.5616,0.0,0.046190006302091025,0.0,0.0,0.0,0.0,0.2873355483153107,0.7795548670060752,0.37229809920796164,-0.006967988607236933,0.015837639125303286,0.18472823991625784
4620,10.0,299.82711,-4710.906,0.0,0.046200002289510156,0.0,0.0,0.0,0.0,0.29089961501205674,0.7701233324252552,0.37097482497486467,-0.01107820379533359,-0.02154127764045858,0.18607299505147482
4621,10.0,299.36236,-4739.1508,0.0,0.04620999827692929,0.0,0.0,0.0,0.0,0.27786336214047874,0.7728440609312702,0.38987608353277364,-0.017234804621942785,-0.006781494961406444,0.15604685834562584
4622,10.0,299.97672,-4805.4637,0.0,0.04621999426434864,0.0,0.0,0.0,0.0,0.3008215829062787,0.7714905614476903,0.38842881788493966,0.028585780410446873,0.017972554046252982,0.15715175691717087
4623,10.0,301.04291,-4853.2112,0.0,0.04623002324182557,0.0,0.0,0.0,0.0,0.3066717140811417,0.7694352545473473,0.39914804135534465,-0.0025331775337051575,0.013688872062236486,0.16426758945444883
4624,10.0,300.13712999999996,-4800.3037,0.0,0.0462400192292447,0.0,0.0,0.0,0.0,0.3094272274630897,0.7721809191383233,0.37756433488019864,0.007839387442262303,-0.013925788174118289,0.17382007569970584
4625,10.0,300.13862,-4640.447,0.0,0.04625001521666405,0.0,0.0,0.0,0.0,0.2830150093589067,0.7635124125453082,0.36405259413419366,-0.014894760257998383,0.0055044234129942955,0.1992990600642858
4626,10.0,300.53764,-4651.6941,0.0,0.04626001120408341,0.0,0.0,0.0,0.0,0.2891133260132637,0.7552147250913903,0.36967081262616863,0.034328319623441364,0.021331269398232378,0.17359783955527283
4627,10.0,300.78084,-4702.1699,0.0,0.04627000719150298,0.0,0.0,0.0,0.0,0.2827722548999487,0.7609841610282894,0.3855858002243556,-0.008601166396669031,0.017472085503860584,0.1847888525372398
4628,10.0,300.72435,-4657.5068,0.0,0.04628000317892211,0.0,0.0,0.0,0.0,0.27833891080991174,0.7568091146537442,0.3806177336590456,-0.005316233282521374,-0.012514717846356488,0.16762221735552485
4629,10.0,299.86552,-4707.8075,0.0,0.046289999166341245,0.0,0.0,0.0,0.0,0.2782833137769247,0.7670168292086672,0.3857557931936326,-0.015689897128222285,-0.00951735250731456,0.16900612447460586
4630,10.0,299.68624,-4806.3625,0.0,0.0462999951537606,0.0,0.0,0.0,0.0,0.3000673093993377,0.7871744570955702,0.3737724186334656,0.020325889211759082,0.00977912111102411,0.17627102636659583
4631,10.0,300.2148,-4827.6075,0.0,0.046310024131237526,0.0,0.0,0.0,0.0,0.2935803201391217,0.7884009152816123,0.3854908789549876,0.00100025456964994,0.004032330705910056,0.18459175512778783
4632,10.0,299.5617,-4853.1817,0.0,0.04632002011865666,0.0,0.0,0.0,0.0,0.3129261117809027,0.8003436889102722,0.36197624202927364,-0.008301225925917212,-0.03208394532068887,0.1926786358984008
4633,10.0,298.95277000000004,-4850.105,0.0,0.04633001610607601,0.0,0.0,0.0,0.0,0.2985728364293447,0.7751548081818233,0.40058316826698065,-0.015879133743398485,-0.0023585018290910075,0.14810958395227786
4634,10.0,299.53979,-4640.747,0.0,0.046340012093495364,0.0,0.0,0.0,0.0,0.29211329611433773,0.7519092094226613,0.36664870301040964,0.018488700607442683,0.03272498306270437,0.16819684161973583
4635,10.0,299.69062,-4594.0338,0.0,0.04635000808091472,0.0,0.0,0.0,0.0,0.26627093999889573,0.7579909189078793,0.37220969313673663,0.008860758133863741,0.018098327767915885,0.16703046916462383
4636,10.0,299.83957000000004,-4747.7888,0.0,0.04636000406833407,0.0,0.0,0.0,0.0,0.2984566166428747,0.7653843718400563,0.37936826456323264,-0.003441872787686397,-0.016715166400908484,0.18913494566116582
4637,10.0,299.89047999999997,-4856.9076,0.0,0.0463700000557532,0.0,0.0,0.0,0.0,0.3014739538506627,0.7873211858425512,0.38758349372401263,-0.004247233351419296,-0.01013417691566539,0.1916822564125658
4638,10.0,300.28176,-4811.7468,0.0,0.046379996043172556,0.0,0.0,0.0,0.0,0.3120860565204957,0.7819825939806733,0.36858222738123364,0.009239238862266881,0.011323220841764889,0.19360124064445483
4639,10.0,300.88305,-4696.7084,0.0,0.046390025020649484,0.0,0.0,0.0,0.0,0.2871100596380567,0.7681929085997372,0.37237910855345663,0.007508926257298322,0.00965676234617324,0.17477849883679483
4640,10.0,300.3362,-4727.6038,0.0,0.046400021008068615,0.0,0.0,0.0,0.0,0.2979069183311237,0.7754777309886932,0.36368884748079466,-0.026348881866932176,-0.02074723305384248,0.16711462971792984
4641,10.0,299.64865,-4798.4385,0.0,0.04641001699548797,0.0,0.0,0.0,0.0,0.28906881393637074,0.7738839088463954,0.39565277434038865,-0.008075178846533101,-0.01265715649241409,0.15347935351973285
4642,10.0,300.23926,-4853.3353,0.0,0.04642001298290732,0.0,0.0,0.0,0.0,0.3061450368116627,0.7987006025481123,0.37044710405778264,-0.007069921465971923,0.014545221397501586,0.16218787335919685
4643,10.0,300.06354,-4828.0216,0.0,0.046430008970326675,0.0,0.0,0.0,0.0,0.2846363919039247,0.7908860226093732,0.3920755961873486,0.012790743385598088,0.003687456443573616,0.18337106233481484
4644,10.0,299.78888,-4714.9992,0.0,0.04644000495774603,0.0,0.0,0.0,0.0,0.3015417301498517,0.7671107068304323,0.36458959642219163,-0.0024051074833406276,-0.025313283522726576,0.18651783211037684
4645,10.0,299.82581,-4688.1219,0.0,0.04645000094516516,0.0,0.0,0.0,0.0,0.28036098310697477,0.7748719898139113,0.36983902227526966,0.0007725741615021333,-0.003037182217621547,0.19077584340310982
4646,10.0,299.97217,-4706.0737,0.0,0.04645999693258451,0.0,0.0,0.0,0.0,0.3039403059190727,0.7443502826166533,0.38223829547148264,0.004302737266722106,0.01757267185453768,0.17282953253444683
4647,10.0,300.06992,-4699.7466,0.0,0.04647002591006144,0.0,0.0,0.0,0.0,0.26031134741572975,0.7868741804284353,0.3814200960157326,0.01053078023005709,0.014034898997886685,0.18680879700909284
4648,10.0,299.94786,-4673.0045,0.0,0.04648002189748057,0.0,0.0,0.0,0.0,0.2811457655744267,0.7670971900740983,0.3722337375616096,-0.008472504506921092,-0.009875773822162991,0.17994109928880384
4649,10.0,300.40328,-4746.87,0.0,0.04649001788490015,0.0,0.0,0.0,0.0,0.2812014132699187,0.7679086818141863,0.3938198657044946,0.008182730987672674,-0.015857108725974785,0.17582599679017483
4650,10.0,300.10107,-4774.0981,0.0,0.04650001387231928,0.0,0.0,0.0,0.0,0.2942663715168297,0.7886902691126693,0.36824999280594467,-0.0009116430923646683,0.017333537738186983,0.17449309668112784
4651,10.0,299.92947999999996,-4800.2119,0.0,0.04651000985973863,0.0,0.0,0.0,0.0,0.2856802320244437,0.7829197692631653,0.3905445448887456,0.001012388756354991,-0.0007151686797366534,0.16502520668671986
4652,10.0,300.25892000000005,-4842.7055,0.0,0.046520005847157986,0.0,0.0,0.0,0.0,0.3016788127558807,0.7792930026502313,0.3910897342375516,-0.008295576955284701,-0.021062195767926877,0.15574775704860686
4653,10.0,300.30183,-4839.7077,0.0,0.04653000183457712,0.0,0.0,0.0,0.0,0.3049747126811607,0.7804913735435013,0.38568422733906965,0.001923694527628868,-0.005638213462823344,0.16024242303469582
4654,10.0,300.38366,-4829.2535,0.0,0.04653999782199647,0.0,0.0,0.0,0.0,0.3031730628108517,0.7677102874446062,0.39708913741714663,0.012807457959247686,0.01801715022290428,0.16344743442600584
4655,10.0,300.57489,-4727.8016,0.0,0.046550026799473176,0.0,0.0,0.0,0.0,0.28787152722070775,0.7727248723220073,0.3765372235188306,-0.0025171748695758177,0.005526994470896885,0.18831359499760483
4656,10.0,299.30115,-4729.0191,0.0,0.04656002278689275,0.0,0.0,0.0,0.0,0.2858440644331127,0.7722238505450603,0.3794357976823976,-0.0036731703264386863,-0.01042450042706809,0.18645611504678583
4657,10.0,299.43087,-4580.0692,0.0,0.046570018774312105,0.0,0.0,0.0,0.0,0.27634029525266374,0.7388963220983893,0.3769900449885206,0.005699153870212694,-0.017446202030056084,0.1967669885943898
4658,10.0,300.2714,-4676.1295,0.0,0.04658001476173124,0.0,0.0,0.0,0.0,0.2880796386587467,0.7661155027147133,0.36723146367292364,0.014896413882161588,0.017233975783360982,0.18706861459973484
4659,10.0,299.69088,-4806.5294,0.0,0.04659001074915059,0.0,0.0,0.0,0.0,0.28905082874709576,0.7774453714903842,0.39456872845590163,-0.015165228120441486,0.006841221900476034,0.18613988982307683
4660,10.0,299.49852000000004,-4781.425,0.0,0.04660000673656972,0.0,0.0,0.0,0.0,0.2930547067822477,0.7994647349785263,0.36091437618947564,-0.008667687278984131,-0.007810011599338133,0.16809909338258885
4661,10.0,300.21484,-4800.3048,0.0,0.046610002723989075,0.0,0.0,0.0,0.0,0.28607091086550074,0.7976080453627852,0.3754938393608567,-0.02079919150572038,-0.0045111222822881054,0.18322501246540082
4662,10.0,300.38669,-4928.6489,0.0,0.04661999871140865,0.0,0.0,0.0,0.0,0.31465302432383574,0.7759033466931983,0.4076298262199316,0.00909863460419032,0.022714319307728777,0.14817280062601684
4663,10.0,300.79952000000003,-4803.8265,0.0,0.04662999469882778,0.0,0.0,0.0,0.0,0.27564991729702876,0.8033107587805993,0.38128262837466564,0.0007712539067543343,-0.0008050436292341203,0.18796396291809883
4664,10.0,300.65959,-4697.6139,0.0,0.04664002367630449,0.0,0.0,0.0,0.0,0.28270239130555375,0.7609783449727153,0.3842765797701456,-0.007476412784114493,-0.006499396001065443,0.16463139690285383
4665,10.0,299.88858,-4816.7854,0.0,0.04665001966372406,0.0,0.0,0.0,0.0,0.30184597875737873,0.7778052475284012,0.3845312500502796,0.00024279095622660178,-0.018257877168412182,0.1895451599641508
4666,10.0,300.10919,-4688.8959,0.0,0.046660015651143194,0.0,0.0,0.0,0.0,0.3024666856361377,0.7525055881665192,0.37033498793421765,0.016565181068106085,0.018913557387622782,0.1889392364043508
4667,10.0,299.91123999999996,-4620.6325,0.0,0.04667001163856255,0.0,0.0,0.0,0.0,0.2687804261240628,0.7674329102297313,0.36834358671768164,0.0100655850514709,0.005298794235050275,0.2034635078427848
4668,10.0,299.76864,-4771.9116,0.0,0.04668000762598168,0.0,0.0,0.0,0.0,0.2851063373003047,0.7765642492034243,0.38887137513111664,-0.006963205560139884,-0.0002849637020837277,0.17848096536469985
4669,10.0,300.49545,-4838.2892,0.0,0.046690003613401254,0.0,0.0,0.0,0.0,0.2965558506477837,0.7792969137956173,0.39486633014277267,-0.007214972473437342,-0.0005984237156073224,0.17209343673429983
4670,10.0,299.66168999999996,-4886.3318,0.0,0.04669999960082061,0.0,0.0,0.0,0.0,0.3155103453659467,0.7727247811294983,0.3970877391320086,-0.012359798998817189,0.014269262732766587,0.15548683501535585
4671,10.0,299.2454,-4952.7477,0.0,0.04670999558823974,0.0,0.0,0.0,0.0,0.32895608300043766,0.7922235431388762,0.3843319944181146,0.0010400000039650088,-0.005490469945867194,0.16643299611065784
4672,10.0,300.43343,-4882.1501,0.0,0.046720024565716445,0.0,0.0,0.0,0.0,0.3158182619388357,0.7926596561144172,0.3755738050587486,-0.015522510238202484,-0.015496640949899384,0.16559504841045886
4673,10.0,300.09623999999997,-4736.7994,0.0,0.0467300205531358,0.0,0.0,0.0,0.0,0.2854730223789937,0.7757464955777182,0.3786492217622687,-0.0006039698008246785,-0.008547203938743352,0.16792085255749784
4674,10.0,299.62862,-4741.8009999999995,0.0,0.04674001654055515,0.0,0.0,0.0,0.0,0.29251911291188876,0.7750353257300313,0.3738346625871086,-0.003388463766965337,0.017567152681242985,0.17544498435507183
4675,10.0,300.17102,-4727.4235,0.0,0.046750012527974505,0.0,0.0,0.0,0.0,0.26168001525330675,0.7743100311759502,0.4010286436734456,0.019680205718035082,0.0018920056373764181,0.17878975333267483
4676,10.0,299.6791,-4620.1478,0.0,0.046760008515393636,0.0,0.0,0.0,0.0,0.27816182508993476,0.7708365997006492,0.35541114131884866,-0.004321874420035796,-0.005952804618096074,0.19737367209176482
4677,10.0,300.09648,-4660.1916,0.0,0.04677000450281299,0.0,0.0,0.0,0.0,0.2824394833021067,0.7652046618023203,0.36893772617881865,0.004657047521939806,-0.008334636328089562,0.1986686361170678
4678,10.0,300.28423,-4770.9389,0.0,0.046780000490232565,0.0,0.0,0.0,0.0,0.32348220198520766,0.7604973348852433,0.3662667583852146,-0.0004294209956530526,0.007546417726898443,0.18949848966454483
4679,10.0,299.52662000000004,-4777.7426,0.0,0.046789996477651696,0.0,0.0,0.0,0.0,0.2803313252765477,0.7895099377810643,0.38247319724216566,-0.0007959520096643472,-0.003759674425900976,0.1960211453282808
4680,10.0,299.57807,-4690.8534,0.0,0.0468000254551284,0.0,0.0,0.0,0.0,0.2829828690657347,0.7677883279673082,0.37513108569255565,-0.014482442447805785,-0.016189149770494685,0.16197276036296684
4681,10.0,300.37745,-4877.212,0.0,0.046810021442547756,0.0,0.0,0.0,0.0,0.27535136315506376,0.8037856893674712,0.4034136317588256,0.002294081211583188,-0.012625452910035187,0.16874488833382384
4682,10.0,300.42477,-4904.2925,0.0,0.04682001742996711,0.0,0.0,0.0,0.0,0.3169543179509557,0.7822612782881773,0.3915668737096416,-0.012275401344987788,0.014099811852293087,0.14401213227039086
4683,10.0,301.1861,-4698.5263,0.0,0.04683001341738646,0.0,0.0,0.0,0.0,0.2942751563951967,0.7762050520429742,0.35775445442761566,0.007619488257859942,-0.004757453615424115,0.18210030485440082
4684,10.0,300.8535,-4759.7174,0.0,0.046840009404805594,0.0,0.0,0.0,0.0,0.3129925505899597,0.7780673449317683,0.35577534393479265,-0.003778951205078447,-0.008268914089503284,0.1724473649942298
4685,10.0,300.75861000000003,-4828.4188,0.0,0.04685000539222495,0.0,0.0,0.0,0.0,0.30652900793705773,0.7747466913065453,0.3864430503389596,0.013721917187747786,0.0018343439046606483,0.17586341611636783
4686,10.0,300.35475,-4747.2848,0.0,0.0468600013796443,0.0,0.0,0.0,0.0,0.28326299218838075,0.7704536012953502,0.38933945614731263,0.012723767553988088,0.01965076168337918,0.17701020244704682
4687,10.0,300.19133,-4728.0692,0.0,0.046869997367063654,0.0,0.0,0.0,0.0,0.26681071859216776,0.7722652215466432,0.3981390266407626,0.003446418227634997,0.00992039907909216,0.17968217335824985
4688,10.0,299.90511000000004,-4743.3597,0.0,0.04688002634454036,0.0,0.0,0.0,0.0,0.2858191182156507,0.7712282208642993,0.38481555789583866,-0.020715422066952982,0.008429784058854911,0.17836267854802582
4689,10.0,300.1453,-4663.0613,0.0,0.04689002233195971,0.0,0.0,0.0,0.0,0.29419496778228277,0.7651243921293983,0.35813483864765666,-0.002298871756730978,-0.0001889841132512798,0.17480583632449284
4690,10.0,299.5631,-4900.777,0.0,0.046900018319379067,0.0,0.0,0.0,0.0,0.3252880669759327,0.7929093108065562,0.37151645781581966,0.008570214544539321,0.014303206611116587,0.1862230067287798
4691,10.0,299.58103,-4979.347,0.0,0.04691001430679842,0.0,0.0,0.0,0.0,0.3274985936590947,0.8018125975802423,0.3842859624660716,-0.003190457674823657,-0.005450286878701435,0.17290298303419582
4692,10.0,300.26992,-4695.3721,0.0,0.04692001029421777,0.0,0.0,0.0,0.0,0.26537408193788276,0.7951476512049632,0.3667541316833146,-0.01091010256399329,-0.021293514686256277,0.19105425413308683
4693,10.0,300.19106,-4612.0557,0.0,0.046930006281636905,0.0,0.0,0.0,0.0,0.24559938152877175,0.7735852027169152,0.38276518552348265,-0.006535889014017024,-0.013919185836466686,0.16936241360726884
4694,10.0,300.01631000000003,-4833.9984,0.0,0.04694000226905626,0.0,0.0,0.0,0.0,0.28895269547491076,0.7938323005876483,0.38662981259739165,0.003370742428016377,0.016633893610387484,0.17509839202586583
4695,10.0,300.24559,-4769.2649,0.0,0.04694999825647561,0.0,0.0,0.0,0.0,0.2987431333736517,0.7811186260179062,0.3698756715313866,-0.006189149864871534,0.0027798243929223073,0.18482560311836682
4696,10.0,299.96506,-4668.2927,0.0,0.04696002723395232,0.0,0.0,0.0,0.0,0.30084590090867874,0.7688379233483953,0.34936059940670666,-0.007422003482894713,-0.005939966030054004,0.1915205315641048
4697,10.0,300.46506,-4762.5231,0.0,0.04697002322137167,0.0,0.0,0.0,0.0,0.29273909964109973,0.7834445314899553,0.3715044609346356,-0.00036748970059340965,0.002049122528357648,0.19524044625873183
4698,10.0,300.16927999999996,-4789.0798,0.0,0.0469800192087908,0.0,0.0,0.0,0.0,0.29079286911402175,0.7638428435354192,0.4011249632279516,0.025841336785841374,0.019094148952945783,0.16804386111963784
4699,10.0,299.35476,-4793.854,0.0,0.04699001519621038,0.0,0.0,0.0,0.0,0.28222398527083875,0.7725923392089272,0.4023955991183536,0.009696381944958391,0.006400500359505203,0.1847568844965848
4700,10.0,299.66569,-4807.8975,0.0,0.04700001118362973,0.0,0.0,0.0,0.0,0.2958064306088217,0.7714346300421703,0.3942397160159306,-0.0087959492389176,-0.006351098236304593,0.14981453936554387
4701,10.0,299.40198,-4782.254,0.0,0.04701000717104886,0.0,0.0,0.0,0.0,0.29753017167894175,0.7666509851275612,0.38950463617861464,-0.014957030556143985,-0.0069738321218886425,0.15182025780599287
4702,10.0,299.07266,-4828.0509999999995,0.0,0.047020003158468215,0.0,0.0,0.0,0.0,0.3182024495566367,0.7872003253706232,0.3622041827717697,-0.002047255615048398,0.013621275108315187,0.16995057489281584
4703,10.0,299.67967000000004,-4961.9553,0.0,0.04702999914588757,0.0,0.0,0.0,0.0,0.31901725462455166,0.7868437930579363,0.4024494533611686,0.009561947164090711,-0.005949739029918525,0.17062419369179682
4704,10.0,300.48612,-5004.6813,0.0,0.04703999513330692,0.0,0.0,0.0,0.0,0.30014781211978275,0.8084769258729602,0.4126734204476956,0.0016992382509017584,-0.017071712899096883,0.1867211002129378
4705,10.0,300.10357999999997,-4784.4276,0.0,0.04705002411078363,0.0,0.0,0.0,0.0,0.26887968410385876,0.7782341968257352,0.40723265244573364,-0.008002142056799931,0.009014149608202302,0.15761960488584384
4706,10.0,299.94324,-4643.3852,0.0,0.04706002009820276,0.0,0.0,0.0,0.0,0.2734980071321518,0.7676912788727303,0.37028386946667263,0.01000212337385772,0.011407411792573888,0.19378946198303082
4707,10.0,299.92682,-4791.4549,0.0,0.047070016085622335,0.0,0.0,0.0,0.0,0.30635492143737675,0.7744123491710483,0.3757153662302196,0.004803631576806526,0.014348178703554986,0.15618275544903787
4708,10.0,300.05874,-4724.0719,0.0,0.04708001207304169,0.0,0.0,0.0,0.0,0.2984060048003797,0.7716506954934943,0.36594319723078167,-0.0005869321219831904,-0.012189990441058387,0.20496365501333783
4709,10.0,300.11097,-4739.4802,0.0,0.04709000806046082,0.0,0.0,0.0,0.0,0.2727635933271707,0.7820532783076493,0.38586676434458467,0.010244180412771892,-0.011530646309486189,0.17229740397942983
4710,10.0,299.58215,-4823.2708,0.0,0.04710000404788017,0.0,0.0,0.0,0.0,0.28313229305798177,0.7988658433744202,0.38415574969572064,0.005397636377005235,-0.004604045726433936,0.2073563640644798
4711,10.0,299.57516,-4788.8588,0.0,0.047110000035299304,0.0,0.0,0.0,0.0,0.2793403565462467,0.7805355005853563,0.3958176503966606,0.007643970305451134,0.0014997202882858684,0.17617001546412683
4712,10.0,300.10763,-4710.5208,0.0,0.04711999602271888,0.0,0.0,0.0,0.0,0.27626532487776473,0.7901212416988953,0.36549412478646165,-0.014532871905282786,-0.024745532133943877,0.18562540195230082
4713,10.0,300.80947000000003,-4787.5682,0.0,0.047130025000195586,0.0,0.0,0.0,0.0,0.2940834292112747,0.7852608126917082,0.37595693518656065,-0.008391266369553512,0.004765717581914706,0.16399665651020984
4714,10.0,300.49069,-4814.8126,0.0,0.04714002098761472,0.0,0.0,0.0,0.0,0.30916088454180374,0.7863580105624932,0.3680639094250796,0.0016304742355152785,0.017609241063896785,0.17261205866548382
4715,10.0,300.62504,-4719.152,0.0,0.04715001697503429,0.0,0.0,0.0,0.0,0.28242084963276776,0.7820777786950672,0.37000575257922463,0.012838262788787885,0.023127735481029775,0.1969575505406968
4716,10.0,300.66275,-4672.1302,0.0,0.047160012962453646,0.0,0.0,0.0,0.0,0.2875583518797997,0.7574435105413543,0.3752090654202516,0.007901597654676972,-0.007344598268005414,0.18616521094307584
4717,10.0,300.98404,-4700.3315,0.0,0.04717000894987278,0.0,0.0,0.0,0.0,0.2767280964634367,0.7561687304580432,0.39588659193346465,0.01923794839388768,0.0034721453569490665,0.17910964652174582
4718,10.0,300.21224,-4825.5613,0.0,0.04718000493729213,0.0,0.0,0.0,0.0,0.3021064144305817,0.7770620387125522,0.38768167765870265,-0.0009356420527056811,-0.0038060320365261163,0.16677476536938782
4719,10.0,300.11222000000004,-4979.281,0.0,0.04719000092471126,0.0,0.0,0.0,0.0,0.3253102875506257,0.7816577459986133,0.40660905780418966,-0.012761735048485188,-0.008440039771067071,0.15865501476553084
4720,10.0,300.00232,-4938.6072,0.0,0.047199996912130615,0.0,0.0,0.0,0.0,0.3219639986978727,0.7920193833762272,0.38722988970411465,-0.01817319276480448,-0.026184774867486073,0.15907424699440584
4721,10.0,299.5692,-4830.5575,0.0,0.04721002588960754,0.0,0.0,0.0,0.0,0.29448040033545275,0.7752809983492773,0.39860745216199267,0.0015642117319756785,-0.009137673509343162,0.15610063152843284
4722,10.0,299.93129,-4887.7322,0.0,0.047220021877026896,0.0,0.0,0.0,0.0,0.2860105920870477,0.8006311783611453,0.3991067716787716,0.016092444167700587,0.007410805954714602,0.17603678320847782
4723,10.0,299.91414,-4937.3416,0.0,0.04723001786444625,0.0,0.0,0.0,0.0,0.3171620646189587,0.7939146372907743,0.38975185907051363,-0.003287374438938597,0.012526619482031088,0.17406561659643885
4724,10.0,299.94338,-4738.1825,0.0,0.04724001385186538,0.0,0.0,0.0,0.0,0.28524243705373675,0.7808946673483033,0.37415207331343464,-0.00941629773111623,-0.01764420224534718,0.18664184379011584
4725,10.0,300.12852000000004,-4497.9861,0.0,0.047250009839284735,0.0,0.0,0.0,0.0,0.26871864826546576,0.7636246097288814,0.33493220169273463,-0.006867820222226083,0.004234955192007535,0.18588686100810484
4726,10.0,300.26513,-4663.2377,0.0,0.04726000582670409,0.0,0.0,0.0,0.0,0.26996018361299573,0.7802380407534993,0.36730960552063563,0.023011116474020377,0.018006516163104783,0.19501489678647183
4727,10.0,300.08222,-4878.5153,0.0,0.04727000181412322,0.0,0.0,0.0,0.0,0.2992526157889337,0.7883404850456482,0.39535373383837563,-0.003134072029283827,0.02288724462279518,0.19754040239571982
4728,10.0,301.04661,-4775.6451,0.0,0.047279997801542795,0.0,0.0,0.0,0.0,0.2702175998009007,0.7959867134802722,0.38547254926067864,-0.006641338458549073,-0.005533497712688705,0.2026906310640078
4729,10.0,300.34398999999996,-4743.97,0.0,0.0472900267790195,0.0,0.0,0.0,0.0,0.28487493124246677,0.7715105224746602,0.38566294908696963,-0.005857309545196444,-0.0070910962652367135,0.1894349183532708
4730,10.0,299.59814,-4837.8662,0.0,0.047300022766438854,0.0,0.0,0.0,0.0,0.3015918556322987,0.7895264233601912,0.3794722240234926,0.021645735619767775,0.0004730303578994616,0.16539269223298786
4731,10.0,300.08866,-4778.5723,0.0,0.04731001875385821,0.0,0.0,0.0,0.0,0.3074595970938997,0.7885442091107543,0.35656287231001565,-0.003914400046646207,-0.003164688596955447,0.1844472555310268
4732,10.0,299.59966000000003,-4885.0324,0.0,0.04732001474127734,0.0,0.0,0.0,0.0,0.3100534970848977,0.7803154733261413,0.39455888979743065,-0.0024253861642169776,-0.022924989202270277,0.14457230758817588
4733,10.0,299.99557000000004,-4830.3442,0.0,0.04733001072869669,0.0,0.0,0.0,0.0,0.3000143468166107,0.7799591132659712,0.3883305731552436,-0.01002802447821396,0.0006309115231661194,0.17332240778058983
4734,10.0,299.52771,-4707.1037,0.0,0.047340006716116045,0.0,0.0,0.0,0.0,0.27790405426449477,0.7706889387635762,0.38224900552503965,0.023874977032276774,0.014606052880505186,0.16520156286662482
4735,10.0,299.6044,-4917.7156,0.0,0.0473500027035354,0.0,0.0,0.0,0.0,0.31380186384233266,0.7898401863861572,0.3912206866804756,-0.0035258279551971267,0.007165456156950463,0.19036819262287782
4736,10.0,300.1344,-5068.4384,0.0,0.04735999869095475,0.0,0.0,0.0,0.0,0.3459526137553647,0.7952847236784912,0.3994413772592946,-0.005944052670357324,-0.019727329953685882,0.16857716504477085
4737,10.0,300.52517,-4883.9258,0.0,0.04736999467837388,0.0,0.0,0.0,0.0,0.3170341417938337,0.7786345724702493,0.3889227671761886,-0.007652865932054062,0.004020457238588236,0.1775193504897958
4738,10.0,299.92365,-4733.4377,0.0,0.04738002365585081,0.0,0.0,0.0,0.0,0.28144262758872474,0.7763003279498772,0.38110393158702965,0.010870239278559091,0.01994444006586298,0.17938755062667283
4739,10.0,300.28232,-4769.8258,0.0,0.047390019643270165,0.0,0.0,0.0,0.0,0.27780025692425075,0.7764078945804932,0.3956997688800266,0.005975837414069234,0.019238523919944482,0.17585866397339883
4740,10.0,300.04,-4802.0774,0.0,0.047400015630689296,0.0,0.0,0.0,0.0,0.27506925406222177,0.7774844424142403,0.4071579455158606,-0.007594578821376573,-0.012311492300299688,0.17409450435678983
4741,10.0,299.53752000000003,-4825.1557,0.0,0.04741001161810865,0.0,0.0,0.0,0.0,0.2914877256350987,0.7947396052571922,0.3804995380348806,-0.013966524881138686,-0.012747095611040387,0.16951152349198484
4742,10.0,300.1923,-4902.1892,0.0,0.047420007605528,0.0,0.0,0.0,0.0,0.3153220834973667,0.7922113132101692,0.38260969216313667,0.0018407878713216184,-0.007876653869015211,0.17105049840636985
4743,10.0,299.90592000000004,-4834.3132,0.0,0.047430003592947356,0.0,0.0,0.0,0.0,0.3127419839727307,0.7944082218119872,0.3623602942146767,0.001156011060914409,-0.01075885168181599,0.18553053134543782
4744,10.0,299.72942,-4745.6574,0.0,0.04743999958036671,0.0,0.0,0.0,0.0,0.2804251421033067,0.7923327309696522,0.3698034875942627,-0.001173814169146439,-0.02936666287826397,0.19442991710623883
4745,10.0,299.14252999999997,-4795.0856,0.0,0.04744999556778584,0.0,0.0,0.0,0.0,0.27565986741301074,0.7857466661146583,0.3961797555848976,0.008297991226297971,0.008177004199432483,0.18703494429891182
4746,10.0,299.24801,-4864.274,0.0,0.04746002454526277,0.0,0.0,0.0,0.0,0.28489393981434274,0.7890198489726963,0.4047040462911796,-0.004642429970697166,0.029038255348602677,0.19630463244125881
4747,10.0,299.05014,-4750.1248,0.0,0.04747002053268212,0.0,0.0,0.0,0.0,0.2798511663191597,0.7821350982532242,0.38193307414385963,0.0034766029481139967,0.025667538049188775,0.19774948655385483
4748,10.0,300.11041,-4649.3743,0.0,0.047480016520101254,0.0,0.0,0.0,0.0,0.2925911347289967,0.7530615787613912,0.3676409788333397,-0.016577659243087586,0.0052742262638506045,0.18009825437931382
4749,10.0,300.06437,-4880.2034,0.0,0.047490012507520385,0.0,0.0,0.0,0.0,0.3059524990276607,0.7820559228904103,0.3954515732680316,0.0051296303070050946,-0.00014421258353767384,0.17081734955835984
4750,10.0,299.9417,-4979.022,0.0,0.04750000849493996,0.0,0.0,0.0,0.0,0.3176756304321437,0.7758100668889922,0.42001267463202363,0.0018524899980515283,-0.0007934018212826633,0.16611919255468785
4751,10.0,300.08842000000004,-5022.4754,0.0,0.047510004482359314,0.0,0.0,0.0,0.0,0.3020299647105367,0.8009773856553132,0.4236997701559116,0.0043567656872292955,-0.008636310672412502,0.16733071543425584
4752,10.0,300.63369,-4994.1943,0.0,0.04752000046977867,0.0,0.0,0.0,0.0,0.3121919715534487,0.7893363376414313,0.4165820529734476,-0.0004941703824208195,-0.02906928005341457,0.15352676349191186
4753,10.0,300.20867000000004,-4870.6686,0.0,0.0475299964571978,0.0,0.0,0.0,0.0,0.29798239533107274,0.7912789204681492,0.39130030787333364,0.001905186602627278,-0.0031724256733940367,0.16777948390354583
4754,10.0,299.99138999999997,-4866.8688,0.0,0.047540025434674726,0.0,0.0,0.0,0.0,0.3134868747837457,0.7785107026455242,0.38740902218929363,0.0026447555201420474,0.015003866015516286,0.16975109634562882
4755,10.0,300.23462,-4972.8755,0.0,0.04755002142209408,0.0,0.0,0.0,0.0,0.3241650210950967,0.7947700838202002,0.39269489464846863,-0.0019602291851595582,0.009306684841923282,0.19037818326886383
4756,10.0,300.3409,-4760.6115,0.0,0.04756001740951321,0.0,0.0,0.0,0.0,0.27750924136302973,0.7811338349019072,0.38846394726590666,-0.00887753887274487,-0.001097375392202519,0.18919526443961882
4757,10.0,299.63853,-4554.8009999999995,0.0,0.047570013396932564,0.0,0.0,0.0,0.0,0.2478716455405268,0.7625350213663472,0.37413910371215464,0.004113421719363116,0.0011288585926846689,0.1923677707677208
4758,10.0,299.44183,-4894.624,0.0,0.04758000938435192,0.0,0.0,0.0,0.0,0.2895700282308367,0.7873481078977083,0.41092534111017365,0.012612828827039289,0.014308554545144386,0.17863044001945183
4759,10.0,299.4633,-5069.808,0.0,0.04759000537177127,0.0,0.0,0.0,0.0,0.33923382326977164,0.7963399527301342,0.40552124262933065,-0.0027060745790937674,0.004827183258155896,0.18273888546492384
4760,10.0,299.38954,-4894.5445,0.0,0.047600001359190625,0.0,0.0,0.0,0.0,0.3065443789410747,0.7979979440012652,0.38327699841399465,-0.017760057261781183,-0.01075676641311019,0.17831210723553484
4761,10.0,299.64602,-4719.4729,0.0,0.047609997346609756,0.0,0.0,0.0,0.0,0.28887268924701476,0.7844843388750763,0.36124488823959466,-0.007933972211272093,-0.004864658211779385,0.17974457943190883
4762,10.0,300.18001,-4756.5986,0.0,0.04762002632408646,0.0,0.0,0.0,0.0,0.27915330044528575,0.7841733825518873,0.3825605394007856,0.008427119211091913,0.005670676374827184,0.18471239268469383
4763,10.0,299.7642,-4806.0814,0.0,0.04763002231150604,0.0,0.0,0.0,0.0,0.2868814805479977,0.7945327705142793,0.37951449681766464,0.002802380758698447,-0.014336653996917586,0.18982635713190282
4764,10.0,300.45177,-4793.0333,0.0,0.04764001829892517,0.0,0.0,0.0,0.0,0.28136792065885174,0.7947991742305712,0.38079536653407664,-0.00980745016526997,-0.015737250358395686,0.18690773074885683
4765,10.0,300.36922000000004,-4728.6196,0.0,0.04765001428634452,0.0,0.0,0.0,0.0,0.2951655803180747,0.7774800854388102,0.3647366088792006,-0.00967715542298588,-0.0015688283020812983,0.18595919693274382
4766,10.0,300.23188,-4591.8704,0.0,0.047660010273763875,0.0,0.0,0.0,0.0,0.27345873355827577,0.7623388054844823,0.3600164035533527,0.009569209127557411,0.02813848925980268,0.17825244706964682
4767,10.0,299.81827000000004,-4733.4533,0.0,0.04767000626118301,0.0,0.0,0.0,0.0,0.30059565853148174,0.7712183923383293,0.3670375478687857,0.001924590949992338,0.004426445782031186,0.18565593117781384
4768,10.0,299.78528,-5044.8442,0.0,0.04768000224860258,0.0,0.0,0.0,0.0,0.3264649974970867,0.7901309587673542,0.4169107310408856,-0.0005381281811116165,0.0050244307299477054,0.16561682315510784
4769,10.0,299.84937,-4992.7809,0.0,0.04768999823602171,0.0,0.0,0.0,0.0,0.3121733885466147,0.8023944159201633,0.4031129295266486,-0.014403883141052586,-0.0044783904537077255,0.17689447915312584
4770,10.0,299.79868,-4815.4448,0.0,0.04770002721349842,0.0,0.0,0.0,0.0,0.3040134929737957,0.7699977096778572,0.3897637748916897,0.012676637238836688,0.014979311925842988,0.16598738898167983
4771,10.0,299.30553,-4920.3767,0.0,0.04771002320091777,0.0,0.0,0.0,0.0,0.3349001019295667,0.7956938842013723,0.36507764859785863,-0.02063626798239108,-0.0021386176407901278,0.17794375029418083
4772,10.0,299.81989,-4937.3237,0.0,0.047720019188337126,0.0,0.0,0.0,0.0,0.3101475266941777,0.8043627960944272,0.38631281730360667,-0.007450449060902073,-0.008806890009522372,0.16501321993803683
4773,10.0,300.35957,-4819.0755,0.0,0.04773001517575648,0.0,0.0,0.0,0.0,0.30032043953931975,0.7921444994985752,0.37241369077936964,-0.009000506702230852,-0.011397487007844388,0.18047204234120384
4774,10.0,300.62352999999996,-4873.8339,0.0,0.04774001116317583,0.0,0.0,0.0,0.0,0.27085024276583775,0.8030597362008252,0.40761382700085264,0.005111348134125785,0.024442075887995077,0.1845085470295758
4775,10.0,300.9563,-4800.8638,0.0,0.047750007150594964,0.0,0.0,0.0,0.0,0.28397136546579177,0.7898032128900082,0.38556813927511263,0.01702431812566938,-0.0039007210689711966,0.1943434260777028
4776,10.0,300.5698,-4666.7747,0.0,0.04776000313801454,0.0,0.0,0.0,0.0,0.2650565192240417,0.7681165196746983,0.3854099506695006,0.008045531047282093,-0.013917714597321485,0.20039400851984882
4777,10.0,299.52999,-4794.8936,0.0,0.04776999912543367,0.0,0.0,0.0,0.0,0.29652616241985374,0.7862261968569842,0.37477556662996864,0.0014954385973382986,-0.007127817056810774,0.19544543688646282
4778,10.0,299.95292,-4914.772,0.0,0.047779995112853024,0.0,0.0,0.0,0.0,0.29762625818592475,0.7997954496786652,0.39654625827856865,-0.0006008097980028103,0.014960500937736486,0.18310885347393682
4779,10.0,300.09344,-4798.2383,0.0,0.04779002409032973,0.0,0.0,0.0,0.0,0.30743326272380067,0.7743278947752132,0.37678346355813264,-0.0023105627377097877,0.0017089627160864884,0.17822562633949984
4780,10.0,299.46193999999997,-4814.6398,0.0,0.047800020077749306,0.0,0.0,0.0,0.0,0.2808417196169197,0.7894892877440262,0.39319926015074563,-0.01992251536019918,-0.018767626068470482,0.17818995993597983
4781,10.0,300.03322000000003,-4887.7465,0.0,0.04781001606516844,0.0,0.0,0.0,0.0,0.30958821263897773,0.7852551587561503,0.3909095175747656,-0.007843878166705502,-0.022900947817147577,0.16850818297796283
4782,10.0,300.75465,-4878.8662,0.0,0.04782001205258779,0.0,0.0,0.0,0.0,0.2936977760907137,0.7993850225931592,0.38997070082711166,-0.004586036219156535,0.006030946060508035,0.18088749514720584
4783,10.0,300.30492000000004,-4929.3404,0.0,0.04783000804000692,0.0,0.0,0.0,0.0,0.3224968567929617,0.8004982804780293,0.37540125869921964,0.008680029577127222,-0.007672380318379983,0.18181166029841384
4784,10.0,300.53742,-4870.521,0.0,0.047840004027426275,0.0,0.0,0.0,0.0,0.3010111316024857,0.7845046038770762,0.3950010316110666,-0.002148722885362438,-0.01046299177186689,0.17767609014776484
4785,10.0,300.15108,-4747.2795,0.0,0.04785000001484563,0.0,0.0,0.0,0.0,0.28448884242436273,0.7796305770535472,0.37893501908547467,0.015095305757540686,0.002251737591229198,0.17446025724538683
4786,10.0,299.59545,-4760.713,0.0,0.04785999600226498,0.0,0.0,0.0,0.0,0.2587378409379368,0.7714614001098123,0.4169386258161386,0.004782928648113306,0.029048435472357373,0.17181354665917684
4787,10.0,299.83304,-4921.5009,0.0,0.04787002497974169,0.0,0.0,0.0,0.0,0.3162600997774417,0.7772244931010852,0.4025287908439986,0.01205850502858179,0.0005655903188369185,0.17287681078411282
4788,10.0,300.51256,-4892.0676,0.0,0.04788002096716104,0.0,0.0,0.0,0.0,0.3107642211025407,0.7800387952538352,0.3962633689831496,-0.016959099269732783,-0.019963317928476082,0.18118534001410083
4789,10.0,300.70986,-4777.0682,0.0,0.047890016954580394,0.0,0.0,0.0,0.0,0.3102540294121887,0.7686893099562283,0.37316609990612665,0.0019529680322929383,-0.021981809399685682,0.17333290505162585
4790,10.0,300.53123999999997,-4932.6544,0.0,0.04790001294199975,0.0,0.0,0.0,0.0,0.29422646972789174,0.8229043913968402,0.3822729283599006,-0.008632674219128611,0.0004463762769964086,0.19034983253106583
4791,10.0,300.17816,-5123.2476,0.0,0.04791000892941888,0.0,0.0,0.0,0.0,0.3251570334730007,0.8193901158100082,0.4127922037569186,0.004916918713512095,-0.004754725236879845,0.17138610710449184
4792,10.0,300.00392,-4990.8402,0.0,0.04792000491683823,0.0,0.0,0.0,0.0,0.28699595754429574,0.8170186343484612,0.4130762076274476,-0.022257715375415477,-0.017739233958976083,0.18754542983179281
4793,10.0,299.70166,-4837.0095,0.0,0.047930000904257586,0.0,0.0,0.0,0.0,0.28837298469519773,0.8024546637711092,0.37950246953897765,0.016436569232913086,-0.0034157958844378065,0.17969537600705285
4794,10.0,299.38153,-4751.2757,0.0,0.04793999689167694,0.0,0.0,0.0,0.0,0.26844772545372775,0.7876525186252512,0.3881689293667906,0.0024115816448545776,0.01891485637425098,0.19527000276414883
4795,10.0,299.13255,-4826.0408,0.0,0.047950025869153645,0.0,0.0,0.0,0.0,0.3052371039270567,0.8000018993865402,0.3617569037801267,0.00966209082579912,-0.0036198229113237066,0.18983176788743683
4796,10.0,299.21201,-4938.6779,0.0,0.047960021856573,0.0,0.0,0.0,0.0,0.29089697042929574,0.8096578789970112,0.40067991338652864,-0.004220152013346576,-0.016393851621947182,0.2104438485766908
4797,10.0,300.00576,-4892.6007,0.0,0.04797001784399235,0.0,0.0,0.0,0.0,0.30555921613384673,0.7700872809866972,0.4115819677049776,0.00042082686161737756,0.004902768473215575,0.16635405379536686
4798,10.0,300.57383,-4743.3952,0.0,0.047980013831411705,0.0,0.0,0.0,0.0,0.25335730052191874,0.7874543471706933,0.40106203026424064,0.011153463959761188,0.026562882314552373,0.18837895976155583
4799,10.0,300.31614,-4867.8351,0.0,0.04799000981883084,0.0,0.0,0.0,0.0,0.3207324235988257,0.7737573032464002,0.38521059371232563,-0.005461888389696415,0.02146507920643838,0.16084399975156685
4800,10.0,299.41492,-5119.6997,0.0,0.04800000580625019,0.0,0.0,0.0,0.0,0.3313521256444087,0.8128452193065773,0.4120635249475036,-0.012385674366620887,-0.0037764608389826665,0.17438572256803084
4801,10.0,299.87727,-5037.8062,0.0,0.04801000179366954,0.0,0.0,0.0,0.0,0.34429820938958766,0.8050502457572732,0.38201884576482464,-0.008416280677422233,-0.011391529097256388,0.16375822862917883
4802,10.0,299.94729,-4880.75,0.0,0.0480199977810889,0.0,0.0,0.0,0.0,0.2912897872280637,0.7936694814290792,0.39866685901535565,0.007176699585360102,0.012225452168058187,0.1902809315242658
4803,10.0,299.63915,-4914.6425,0.0,0.048030026758565825,0.0,0.0,0.0,0.0,0.3024499467444857,0.8065111497514532,0.38496750488083464,-0.0035573428704074065,-0.005530739848566525,0.17765165055535284
4804,10.0,300.07882,-4837.5578,0.0,0.048040022745984956,0.0,0.0,0.0,0.0,0.2687383863774137,0.7936472608543862,0.4081111402824336,0.0006425318603479574,-0.014498224831363383,0.17927637682570083
4805,10.0,300.94014,-4700.3208,0.0,0.04805001873340431,0.0,0.0,0.0,0.0,0.28698847975855774,0.7725335403056243,0.3692581462579416,-0.01016978860367999,-0.008641685356242941,0.16779967797803885
4806,10.0,299.93183,-4759.6889,0.0,0.04806001472082366,0.0,0.0,0.0,0.0,0.27695647290347575,0.7934666186265582,0.3764034745056306,0.009196112404885631,0.011355475632198188,0.1893376463436708
4807,10.0,300.53105,-4849.5518,0.0,0.048070010708242794,0.0,0.0,0.0,0.0,0.3140599690403057,0.7775669412373822,0.38251573348136364,0.0024302603024980176,0.0035238005430720362,0.17879603548329484
4808,10.0,300.36537999999996,-4875.8731,0.0,0.04808000669566215,0.0,0.0,0.0,0.0,0.28217665635866773,0.8117085452118962,0.38825845001312564,0.003101963754814987,-0.00940469014062065,0.19938830713309383
4809,10.0,299.67013,-5024.2138,0.0,0.0480900026830815,0.0,0.0,0.0,0.0,0.3061876034483637,0.8167734987517683,0.40427444851378164,-0.0014013018875227287,-0.007608076325958673,0.1806238981336908
4810,10.0,299.95574,-5063.5496,0.0,0.048099998670500854,0.0,0.0,0.0,0.0,0.2927881612109417,0.8128210836891953,0.4335833865338486,-0.005372053230530374,0.01180243848980999,0.18606590230077483
4811,10.0,300.1918,-4915.9388,0.0,0.04810999465792021,0.0,0.0,0.0,0.0,0.31323783817416767,0.8070423258513763,0.37404247005011765,-0.006667489531704983,0.0023026757002563977,0.17540703813882685
4812,10.0,299.44869,-4829.9728,0.0,0.048120023635396914,0.0,0.0,0.0,0.0,0.2886169550542757,0.8017433318034062,0.3778308399215006,-0.009038967750851662,-0.01098416101380229,0.19374827336646583
4813,10.0,300.31178,-4871.1597,0.0,0.048130019622816045,0.0,0.0,0.0,0.0,0.32858739168655066,0.7870081016941523,0.3651154124290857,-0.0055807472873768745,0.0035060925790243967,0.16281610868619883
4814,10.0,300.08357,-4922.9128,0.0,0.04814001561023562,0.0,0.0,0.0,0.0,0.28432784711597375,0.8110946473738092,0.4010200715775996,5.4082579738285056e-05,0.004395648349216716,0.1964400330521218
4815,10.0,299.81203999999997,-4832.6522,0.0,0.04815001159765475,0.0,0.0,0.0,0.0,0.2925339367608517,0.7854658641144452,0.39100579659926765,0.0025070568580522474,-0.0005086440217517566,0.17612269668445682
4816,10.0,299.39378999999997,-4910.4244,0.0,0.04816000758507433,0.0,0.0,0.0,0.0,0.28795689354163273,0.7984032237762633,0.4062862869848346,-0.0048820766902734555,-0.016454185599151683,0.1761147528036728
4817,10.0,299.20155,-5015.6267,0.0,0.04817000357249346,0.0,0.0,0.0,0.0,0.3433704775980277,0.7889799167862552,0.3922748923495176,0.01024449046730249,-0.0015961591023286386,0.14903106399072086
4818,10.0,299.62689,-5024.0127,0.0,0.04817999955991259,0.0,0.0,0.0,0.0,0.3142886393228737,0.8052963844715653,0.4075893975409416,-0.004164604730939487,0.005491752517843775,0.16913202079953082
4819,10.0,299.83148,-5166.805,0.0,0.048189995547332165,0.0,0.0,0.0,0.0,0.36459052861228364,0.8044637158043872,0.4015254503299766,0.00988853793632271,0.01049394149617139,0.17014396380690183
4820,10.0,300.22553,-5151.7247,0.0,0.04820002452480887,0.0,0.0,0.0,0.0,0.3239380632051977,0.8156610818644812,0.4263965048995586,-0.014158024083788185,-0.0038307063989862864,0.18127072660002783
4821,10.0,300.67855,-4812.4839,0.0,0.048210020512228,0.0,0.0,0.0,0.0,0.30232511433216575,0.7892027406157462,0.3713470727966027,0.01947480168426328,-0.0014664520451025485,0.1859313325549938
4822,10.0,299.8914,-4759.3842,0.0,0.048220016499647356,0.0,0.0,0.0,0.0,0.26437971881974676,0.7962847305996842,0.38606950555709363,-0.0012621814328926087,0.005237911582916625,0.18857251079565782
4823,10.0,299.74599,-4916.5316,0.0,0.04823001248706693,0.0,0.0,0.0,0.0,0.3187216895703817,0.7911463265600632,0.38463484474050363,0.0007343550871377043,-0.0025085641689010078,0.18742016172192982
4824,10.0,300.02522,-4765.5917,0.0,0.048240008474486284,0.0,0.0,0.0,0.0,0.27240254191903773,0.8098359880995892,0.36638233982412166,-0.024150555728224273,-0.01959530447890598,0.1984082409738688
4825,10.0,300.15685,-4642.5513,0.0,0.048250004461905416,0.0,0.0,0.0,0.0,0.28664954760010775,0.7820867459584523,0.34248338726797867,0.005687423676455015,0.0013614948374690787,0.18782414453679983
4826,10.0,299.98016,-4798.939,0.0,0.04826000044932455,0.0,0.0,0.0,0.0,0.25978757817403775,0.8014889047032963,0.39748113348333364,-0.006607657315950004,0.014694002989185186,0.2013925867584008
4827,10.0,299.52903,-5055.02,0.0,0.0482699964367439,0.0,0.0,0.0,0.0,0.30703096190409673,0.8276990807375392,0.4018698135089626,0.007619185296080044,0.01141728490154829,0.19371111748529882
4828,10.0,299.82577000000003,-5073.7569,0.0,0.04828002541422083,0.0,0.0,0.0,0.0,0.3012802001665407,0.8134596237697141,0.42755558195395055,-0.014936547705372486,-0.007806118388478903,0.19235404122886582
4829,10.0,299.49213,-4976.82,0.0,0.04829002140163996,0.0,0.0,0.0,0.0,0.3321801434936277,0.7938518867120813,0.3867969887313906,0.007081122844502414,0.01125497743427979,0.17009440574451085
4830,10.0,299.26121,-4897.8939,0.0,0.04830001738905931,0.0,0.0,0.0,0.0,0.3030096559672247,0.7939581563825692,0.3918696429720226,0.004638588334268026,-0.0025834415274408272,0.18077634161123582
4831,10.0,299.66958999999997,-4903.3751,0.0,0.04831001337647867,0.0,0.0,0.0,0.0,0.31820713077209867,0.7855311680833903,0.38676529426826267,0.0033297496726957068,0.0028578543778232674,0.16954905427568884
4832,10.0,300.01808,-5024.5301,0.0,0.04832000936389824,0.0,0.0,0.0,0.0,0.3011131354900527,0.8141449253423483,0.41207362705100065,-0.003009868845275927,-0.02031474447390918,0.17502124316325182
4833,10.0,299.59968,-5047.2324,0.0,0.04833000535131737,0.0,0.0,0.0,0.0,0.32742731151455967,0.7925168182478203,0.41428848031208965,-0.004986931660971835,0.0009378418693352862,0.17367860572074384
4834,10.0,300.7808,-4737.0275,0.0,0.048340001338736505,0.0,0.0,0.0,0.0,0.27713738870883076,0.7861833363777542,0.3766173614692397,0.008492520857346551,-0.0037673913386625764,0.18487265845301082
4835,10.0,300.66451,-4827.2713,0.0,0.04834999732615586,0.0,0.0,0.0,0.0,0.3076712751722907,0.7971535520304303,0.36254510090041564,-0.0034991984253439964,0.006505894581906805,0.17952517025525483
4836,10.0,300.06424,-5201.3057,0.0,0.048360026303632786,0.0,0.0,0.0,0.0,0.3407651177483987,0.8157878293194902,0.42451412939378264,0.004137072293922246,0.0038085685055014467,0.17578976296659884
4837,10.0,300.7231,-5034.6831,0.0,0.04837002229105192,0.0,0.0,0.0,0.0,0.3264853840890987,0.8063271232682913,0.39760543900560164,-0.002525816677028698,0.01251525284240929,0.17764910729760183
4838,10.0,299.92545,-4727.164000000001,0.0,0.04838001827847127,0.0,0.0,0.0,0.0,0.2538715350801698,0.7767700402987342,0.4062982433360146,0.00831868027346482,0.004298169636596316,0.18283161811407583
4839,10.0,299.92118,-4845.3245,0.0,0.048390014265890624,0.0,0.0,0.0,0.0,0.29722630810645273,0.7865484711837902,0.3890829012219926,-0.004730438645232945,-0.01239244490378909,0.18120334546837782
4840,10.0,300.07488,-4970.3746,0.0,0.0484000102533102,0.0,0.0,0.0,0.0,0.2983479354371487,0.8114043270018721,0.4011175158397166,0.009843799600682381,-0.015890392978509683,0.1928481526401308
4841,10.0,299.93158999999997,-5006.3872,0.0,0.04841000624072933,0.0,0.0,0.0,0.0,0.3326871535786657,0.7962897461876792,0.3928398096777706,-0.002698445616440847,-0.00014215444966955186,0.17382369300256284
4842,10.0,299.48096,-5033.6202,0.0,0.04842000222814846,0.0,0.0,0.0,0.0,0.30216496002135973,0.8240244583223822,0.4039054430923636,0.008743733624164321,0.0029300572627241374,0.20248679554139082
4843,10.0,300.20158,-4910.7157,0.0,0.048429998215567815,0.0,0.0,0.0,0.0,0.30168210581870575,0.8048319916857333,0.3862208648570316,-0.007799783447528692,-0.001876756932646488,0.17366343736674683
4844,10.0,300.09713,-4857.0017,0.0,0.048440027193044743,0.0,0.0,0.0,0.0,0.2670973569129568,0.8077597879821842,0.40155008243990764,0.01029033598132709,-0.008411920763566942,0.2027461369044858
4845,10.0,300.68973,-5074.433,0.0,0.048450023180463875,0.0,0.0,0.0,0.0,0.3323439049747897,0.8104078157935243,0.3997492026396746,-0.0019253064058879484,0.008142428458320123,0.17345951065162082
4846,10.0,300.19075,-5062.2447,0.0,0.04846001916788345,0.0,0.0,0.0,0.0,0.3198759942168027,0.8078168542278162,0.41110313610522065,0.0004323606469756737,0.005093716062510635,0.1924075610991478
4847,10.0,300.26619,-4745.095,0.0,0.04847001515530258,0.0,0.0,0.0,0.0,0.31340071812774273,0.7767880660180133,0.3522016209645937,-0.012696740120820688,-0.0027855180478842272,0.17336183334198085
4848,10.0,300.06221,-4792.4885,0.0,0.048480011142721935,0.0,0.0,0.0,0.0,0.2866934618594417,0.7903794887518822,0.37972386468582764,-0.003269371213811817,-0.0027978878051050276,0.1894790960576308
4849,10.0,299.64351,-5058.6231,0.0,0.04849000713014129,0.0,0.0,0.0,0.0,0.3300887344922217,0.7870912287323563,0.4205151352241126,-0.003658535043319296,0.009205692177956082,0.15245582906371885
4850,10.0,299.70252,-5000.1939,0.0,0.04850000311756042,0.0,0.0,0.0,0.0,0.28179099310560574,0.8138571623139482,0.4242859454712626,0.0008208367532427802,-0.005755130871987194,0.17837254760399984
4851,10.0,299.76166,-4933.731,0.0,0.04850999910497977,0.0,0.0,0.0,0.0,0.3123675070007727,0.7912381067541212,0.3961254251145356,-0.007070557989684743,0.0015043775910455086,0.1825795113566948
4852,10.0,299.21614,-4971.7442,0.0,0.048519995092399126,0.0,0.0,0.0,0.0,0.30725410997361974,0.8074652564431163,0.3965667259305886,0.009234160148790652,-0.017461338973299986,0.18768468079303582
4853,10.0,299.64038999999997,-4894.8726,0.0,0.048530024069876054,0.0,0.0,0.0,0.0,0.3305082301661227,0.8009992617249723,0.35641153327507963,0.015205647680180586,0.008593297293742412,0.18569589376175782
4854,10.0,299.98589,-4915.9057,0.0,0.04854002005729541,0.0,0.0,0.0,0.0,0.29475724052777474,0.8119704500977443,0.38758488187664963,0.01001317215692315,-0.007223623704116154,0.19306698426422783
4855,10.0,300.00365,-4973.4887,0.0,0.04855001604471454,0.0,0.0,0.0,0.0,0.3055551530009457,0.8131299831146812,0.39313123053903165,-0.008038080416646772,-0.0019956654795818484,0.18121360969189082
4856,10.0,300.33418,-4813.4845,0.0,0.04856001203213389,0.0,0.0,0.0,0.0,0.26106430369754074,0.7976676244686652,0.4044471772583286,-0.01733922612424838,0.0007443264307092993,0.1921992976735938
4857,10.0,299.87755,-4690.7286,0.0,0.048570008019553246,0.0,0.0,0.0,0.0,0.27689323596473475,0.7680366755668182,0.38093447564030564,-0.0012843206436025788,0.014067690810872986,0.17682111984588583
4858,10.0,300.17487,-4899.5999,0.0,0.04858000400697238,0.0,0.0,0.0,0.0,0.2959367751016857,0.8071486157868663,0.38627063570194364,-0.005908580101581454,0.009245298604489931,0.1975061646748408
4859,10.0,300.39558,-5076.4644,0.0,0.04858999999439195,0.0,0.0,0.0,0.0,0.35362971592053566,0.7968533868208063,0.3926353054100876,0.008833580537031522,-0.003364786037303527,0.16580518634869784
4860,10.0,299.95955,-4935.9596,0.0,0.048599995981811084,0.0,0.0,0.0,0.0,0.29574048829231375,0.8100812655512962,0.3945867237776776,0.004999819796943796,-0.01960983144558968,0.1987168161593228
4861,10.0,300.23286,-4933.6694,0.0,0.04861002495928801,0.0,0.0,0.0,0.0,0.3009042235844347,0.8086389850939542,0.39016910532919263,0.01912831169331738,0.005355198524391944,0.16607239053256886
4862,10.0,300.26743,-5039.8066,0.0,0.048620020946707365,0.0,0.0,0.0,0.0,0.28474382681202776,0.8114297291818793,0.43580180643528965,0.0004434490379875126,0.014982243258382287,0.18891760351471582
4863,10.0,299.83106000000004,-5028.1113,0.0,0.048630016934126497,0.0,0.0,0.0,0.0,0.3128286979162887,0.8104159825893302,0.4051756128877196,-0.008241285697701571,0.007155073889800813,0.16942022965797482
4864,10.0,299.68683,-4963.3231,0.0,0.04864001292154585,0.0,0.0,0.0,0.0,0.30894363358786275,0.8135564499492702,0.38622619455255763,-0.02142126424561418,-0.00904459513925704,0.19795677725931282
4865,10.0,299.20365,-4949.9216,0.0,0.04865000890896498,0.0,0.0,0.0,0.0,0.3429577605672957,0.7901024763070432,0.37159234011580866,0.002189906739651968,-0.0008618045724784893,0.15779703511085483
4866,10.0,299.45819,-4773.1302,0.0,0.04866000489638456,0.0,0.0,0.0,0.0,0.28383343172967873,0.7888098832869743,0.37826910098725364,0.0060287991861961545,0.003512682048399727,0.1912707046194488
4867,10.0,299.54776,-4869.5818,0.0,0.04867000088380391,0.0,0.0,0.0,0.0,0.2974454639705817,0.7879620057357952,0.39482381416857665,0.0016283607984566985,-0.0009436123995822932,0.16561389486231884
4868,10.0,299.79486,-5122.4568,0.0,0.04867999687122304,0.0,0.0,0.0,0.0,0.29645727154555473,0.8231457982331652,0.4374958694099806,0.0025500278828681578,-0.014661757318002785,0.18364578483442784
4869,10.0,300.44735,-5016.5547,0.0,0.04869002584869975,0.0,0.0,0.0,0.0,0.3166820475165847,0.8066040039906173,0.4016213037894366,-0.007999394933128812,0.01052039137678179,0.16548054101665785
4870,10.0,300.48667,-4850.7585,0.0,0.04870002183611932,0.0,0.0,0.0,0.0,0.2912925432683357,0.7999804083519192,0.3832365089399986,-0.0006747327661409394,0.024123225333276977,0.2063180056270018
4871,10.0,300.05382000000003,-4968.6084,0.0,0.048710017823538454,0.0,0.0,0.0,0.0,0.3186617862244697,0.8151390452804602,0.37653204581081967,-0.01232580344471209,-0.0007122765295787203,0.1886833603565978
4872,10.0,299.94222,-4972.9803,0.0,0.04872001381095781,0.0,0.0,0.0,0.0,0.3080504029622077,0.8126301569728522,0.3909812658143466,-0.0009374136901080281,-0.004568348317460876,0.1973723852641378
4873,10.0,299.69802999999996,-4858.6871,0.0,0.04873000979837694,0.0,0.0,0.0,0.0,0.2950702436161657,0.7947845327666262,0.3870647704678186,-0.009031191866934242,-0.012015613138598688,0.17833239250253682
4874,10.0,300.18883,-4756.5073,0.0,0.048740005785796514,0.0,0.0,0.0,0.0,0.25660038985198674,0.7968215099726602,0.39243754938807063,0.012613678943873188,0.005045513830078446,0.19716958325662282
4875,10.0,299.84698,-4760.0328,0.0,0.04875000177321587,0.0,0.0,0.0,0.0,0.2894461381411097,0.7722045076006513,0.38528048770422363,-0.01052940322317119,-0.0035033459619783266,0.16881753836599384
4876,10.0,299.62959,-4874.5243,0.0,0.048759997760635,0.0,0.0,0.0,0.0,0.28807032689032774,0.8154606508622002,0.37820269257569966,0.013998946857838486,-0.004452907618992767,0.19906574909625982
4877,10.0,300.31421,-5103.3397,0.0,0.048770026738111705,0.0,0.0,0.0,0.0,0.3514596685788687,0.8086761713726243,0.39115199845619664,0.008091259936220181,-0.00018739977512991784,0.17730803718144084
4878,10.0,300.17602999999997,-5135.7937,0.0,0.04878002272553128,0.0,0.0,0.0,0.0,0.32744223668853273,0.8047884117989322,0.4289224056763456,0.0072110053966458225,0.015957549168637487,0.18005194884974385
4879,10.0,300.43032999999997,-4973.888,0.0,0.04879001871295041,0.0,0.0,0.0,0.0,0.3026622530379387,0.8181473341648552,0.3911281769463456,-0.016334268463066785,-0.006396269736362674,0.18478819392467483
4880,10.0,300.55678,-4925.2085,0.0,0.048800014700369765,0.0,0.0,0.0,0.0,0.26965432393780975,0.8050790929876203,0.4224069744858226,-0.0076328854506821425,-0.0029199213166737972,0.18983353094261082
4881,10.0,300.17605,-5109.6279,0.0,0.04881001068778912,0.0,0.0,0.0,0.0,0.3393245902137297,0.8001555891617083,0.4137191046833966,-0.01088053491282519,0.0013736182735905689,0.16387143906285184
4882,10.0,300.08724,-4949.9523,0.0,0.04882000667520825,0.0,0.0,0.0,0.0,0.30615458162760467,0.7970514569503543,0.4014558603131086,0.007252096133251164,0.005247374426925535,0.17800725067794781
4883,10.0,300.2538,-4671.472,0.0,0.048830002662627825,0.0,0.0,0.0,0.0,0.2979338403862807,0.7646689362094483,0.3574080647484296,-0.003517552842955437,-0.002154499930807588,0.17290524258191883
4884,10.0,299.60244,-4819.2701,0.0,0.048839998650046956,0.0,0.0,0.0,0.0,0.2869967985418787,0.7915934332991892,0.38634754138453364,-0.0016889099899824386,-0.006247282657558795,0.18209295879117582
4885,10.0,299.76018,-5044.1503,0.0,0.04885002762752366,0.0,0.0,0.0,0.0,0.32665546825088465,0.7907726399231833,0.41586762046043857,0.008446012475106532,-0.005602630551111584,0.17068391465269084
4886,10.0,299.94223999999997,-5065.0806,0.0,0.048860023614943016,0.0,0.0,0.0,0.0,0.2907905183737898,0.8248831776496313,0.42398433131399554,0.0013419438728145487,0.02048780556448898,0.18663860138979582
4887,10.0,300.03462,-5025.8541,0.0,0.04887001960236237,0.0,0.0,0.0,0.0,0.3176767956697587,0.8241305557403532,0.38592678928050866,-0.0013192983410296086,0.003890813306843376,0.18952240236690482
4888,10.0,300.10577,-4995.4376,0.0,0.04888001558978172,0.0,0.0,0.0,0.0,0.2976984522555497,0.8090747332994592,0.4117151189006186,-0.013950015997259386,-0.001090719554945639,0.18699865981283084
4889,10.0,300.50235,-4877.54,0.0,0.048890011577201076,0.0,0.0,0.0,0.0,0.3211736332223697,0.7974993438920572,0.36397738057927065,0.008521952226376202,-0.004827715518433425,0.1935327348051938
4890,10.0,300.17235,-4920.888,0.0,0.04890000756462021,0.0,0.0,0.0,0.0,0.3066267663067057,0.7902947405135182,0.39890557060641463,0.004884923011129365,-0.006137568747330874,0.18206750594866383
4891,10.0,300.30161,-4937.0,0.0,0.04891000355203956,0.0,0.0,0.0,0.0,0.2952599341673867,0.8048884297163033,0.40057635922630863,0.011795560548131188,-0.014924908501473787,0.18901811792463583
4892,10.0,299.61439,-4785.2258,0.0,0.048919999539458914,0.0,0.0,0.0,0.0,0.25870687601488074,0.7977460196289022,0.3981362807329916,-0.012949424430758687,-0.014922127129949288,0.19566611262574182
4893,10.0,299.67236,-4842.69,0.0,0.04892999552687827,0.0,0.0,0.0,0.0,0.2983984560871347,0.7951845233761022,0.3784738484349606,0.0037794849852311263,-0.006751144574536093,0.1931322983656738
4894,10.0,299.98505,-5087.9434,0.0,0.04894002450435497,0.0,0.0,0.0,0.0,0.3238063001621937,0.8187474112715782,0.4040540260870276,-0.01114334767076279,0.016765758991651582,0.17386710063684685
4895,10.0,300.24363,-5058.6508,0.0,0.048950020491774326,0.0,0.0,0.0,0.0,0.34792096353212565,0.8142323992234812,0.37555015580141465,0.012066214848592688,0.005885971046800114,0.18804211489831182
4896,10.0,300.0782,-4968.2259,0.0,0.04896001647919368,0.0,0.0,0.0,0.0,0.2947308656276717,0.7976321201851613,0.4178536311864426,-0.006289882022238024,-0.001985261022255008,0.1765067387373588
4897,10.0,300.06377000000003,-4910.2386,0.0,0.04897001246661303,0.0,0.0,0.0,0.0,0.30547944295347373,0.7980739884212702,0.38903649436741267,0.011320675557513689,-0.0015256221019171786,0.18377075910176183
4898,10.0,300.45001,-4923.096,0.0,0.048980008454032165,0.0,0.0,0.0,0.0,0.28792823882880475,0.7901021014045063,0.41846791405956757,-0.003311034639373677,0.0026127399580573576,0.16451881468424284
4899,10.0,300.66979,-4945.2815,0.0,0.04899000444145152,0.0,0.0,0.0,0.0,0.30881903422306567,0.8024797822410883,0.39194329612179163,0.007170589079307044,-0.004400080609129146,0.1860013582694048
4900,10.0,300.17013,-5125.6140000000005,0.0,0.04900000042887087,0.0,0.0,0.0,0.0,0.3253991495843957,0.8230406127402843,0.4096189070937386,-0.01987764864577118,-0.006891793618267073,0.17469221045827885
4901,10.0,299.53105,-5113.5898,0.0,0.049009996416290225,0.0,0.0,0.0,0.0,0.35757329544223665,0.8092977091164653,0.38753260830399067,0.003049547617866917,-0.0014199696020650886,0.17922876420350184
4902,10.0,299.96626000000003,-4845.1903,0.0,0.04902002539376693,0.0,0.0,0.0,0.0,0.28087607892781075,0.8015346225478082,0.39040618558759066,-0.0006560900180810434,0.013204969145728988,0.18540839417838384
4903,10.0,299.58147,-4833.251,0.0,0.04903002138118606,0.0,0.0,0.0,0.0,0.28043211326399475,0.8019318267195092,0.3868236878715256,0.0030250818836023373,-0.0053839478747792855,0.1883743900036048
4904,10.0,299.32884,-4994.6195,0.0,0.04904001736860564,0.0,0.0,0.0,0.0,0.2846444573747207,0.8111259568018991,0.4224691981744636,-0.01061567437643549,-0.005264966576486745,0.18669588041794882
4905,10.0,299.7989,-4905.8276,0.0,0.04905001335602499,0.0,0.0,0.0,0.0,0.29427397089257973,0.8247925829581901,0.37218252790155565,0.001028849085289499,-0.01116254166740709,0.2043945833596748
4906,10.0,299.83308999999997,-4890.1166,0.0,0.04906000934344412,0.0,0.0,0.0,0.0,0.3105303123169557,0.7840483170920443,0.3918947107794966,0.005244050865272525,0.010984393048075188,0.17332329944067784
4907,10.0,300.23835,-4948.594,0.0,0.049070005330863475,0.0,0.0,0.0,0.0,0.3261201986205577,0.8037474189111942,0.3743813718110646,-0.0032505631641306064,-0.002037269630012858,0.18564367085160383
4908,10.0,300.5821,-4899.3751,0.0,0.04908000131828283,0.0,0.0,0.0,0.0,0.28027316472080777,0.8054529012145122,0.4035616169359306,0.0055237105273227855,-0.008063728613778054,0.17904015782988783
4909,10.0,300.03694,-5067.5325,0.0,0.04908999730570218,0.0,0.0,0.0,0.0,0.31205578060750766,0.8121731913102532,0.41617437179571254,0.007858048368028992,-0.011038520868417188,0.17835432936720183
4910,10.0,299.92207,-5155.0975,0.0,0.04910002628317889,0.0,0.0,0.0,0.0,0.3184514051062067,0.8237815316109072,0.4247879804983096,0.015886699681895183,0.011779435686039789,0.16827484161243383
4911,10.0,300.10481,-4881.7032,0.0,0.04911002227059802,0.0,0.0,0.0,0.0,0.3064303883048247,0.7952787353704003,0.38220676312837065,0.001144192309097989,-0.004340045135404105,0.18891186851914982
4912,10.0,299.93157,-4786.1942,0.0,0.049120018258017595,0.0,0.0,0.0,0.0,0.3012464386732087,0.7894666618692933,0.36417042498832264,0.0032503689240864367,0.002742845526547778,0.17382474678266682
4913,10.0,299.88309,-4986.1722,0.0,0.04913001424543695,0.0,0.0,0.0,0.0,0.33277228685206767,0.8059646127800143,0.3769349343155816,-0.01141040898636969,-0.00941100704571908,0.18442354547868683
4914,10.0,300.70833,-5008.6095,0.0,0.04914001023285608,0.0,0.0,0.0,0.0,0.3094161830369997,0.7945637860998402,0.41851226401644465,-0.0006246127856419824,0.017049720305676384,0.17889056158512384
4915,10.0,300.61107999999996,-4887.5218,0.0,0.04915000622027543,0.0,0.0,0.0,0.0,0.29255455640038674,0.8049593268258003,0.3881707126869666,-0.025259842685952372,0.0012906772681049287,0.18774093643858783
4916,10.0,300.71389,-4928.812,0.0,0.049160002207694564,0.0,0.0,0.0,0.0,0.27820735041692773,0.8145283290476872,0.4055001062322446,-0.0015200558124928284,-0.00989778820046064,0.18368991187628284
4917,10.0,300.86307,-5005.7273,0.0,0.04916999819511414,0.0,0.0,0.0,0.0,0.31821537862791266,0.8097436911479802,0.39365705667842665,-0.003114664743493477,-0.00934480736368568,0.17310021216616084
4918,10.0,300.45193,-4971.4981,0.0,0.049180027172590846,0.0,0.0,0.0,0.0,0.3129055326713717,0.8127799153376322,0.3855258259509366,0.024871432511869275,0.013637243929891189,0.18538402551347882
4919,10.0,299.6387,-5000.2296,0.0,0.0491900231600102,0.0,0.0,0.0,0.0,0.3198688001410927,0.7997925517833793,0.40028359074241465,0.008974114982176191,-0.006067533913668974,0.17709519386543482
4920,10.0,299.68672000000004,-4986.5098,0.0,0.04920001914742955,0.0,0.0,0.0,0.0,0.28608355622674875,0.8154094614671482,0.4142814483563956,-0.002243085043325258,0.0019443788125202482,0.19184340370846983
4921,10.0,299.73767000000004,-4849.2502,0.0,0.049210015134848906,0.0,0.0,0.0,0.0,0.27972844146704773,0.8094819686471503,0.38484057504080765,0.008596261962210002,-0.0012169823724318088,0.19222114334574983
4922,10.0,300.59901,-4995.8975,0.0,0.04922001112226804,0.0,0.0,0.0,0.0,0.2929431580787387,0.8120419146272972,0.41364301973338763,-0.008348125929320882,0.017571799446201585,0.1996048589444658
4923,10.0,300.28612999999996,-5069.8604,0.0,0.04923000710968739,0.0,0.0,0.0,0.0,0.3425826857777787,0.8139743244230112,0.38455394685251965,-0.006437027012360104,-0.0001994980826489278,0.1982352183867928
4924,10.0,299.70732000000004,-4934.0678,0.0,0.04924000309710652,0.0,0.0,0.0,0.0,0.31864719542302966,0.8019849919522563,0.3792012100192456,-0.022585071151472978,-0.001031104174712059,0.18318648869659884
4925,10.0,299.8867,-4894.249,0.0,0.0492499990845261,0.0,0.0,0.0,0.0,0.30101119239749174,0.8033669333661433,0.38335137097133465,-0.007525724221431153,-0.0032871656080929864,0.18500225314080082
4926,10.0,299.79156,-5052.6294,0.0,0.04925999507194545,0.0,0.0,0.0,0.0,0.31000718142282674,0.8102780083232132,0.4155880039628426,-0.003324634178240847,0.015276013846625185,0.17451430400572085
4927,10.0,299.33451,-5090.3116,0.0,0.049270024049422156,0.0,0.0,0.0,0.0,0.29751729327017074,0.8155032377639032,0.4343071004177736,0.012865400666216187,0.0019093102265592481,0.17495081214880084
4928,10.0,299.73567,-4979.425,0.0,0.04928002003684151,0.0,0.0,0.0,0.0,0.28984212641269075,0.8162307918657072,0.4075479556118516,-0.003810474428939546,-0.004115126816631396,0.17896084061205983
4929,10.0,300.1479,-5044.7577,0.0,0.04929001602426064,0.0,0.0,0.0,0.0,0.33585116887092964,0.8080581800041333,0.3895710445901686,0.0049699611403469755,4.213583011623266e-05,0.17119080314771684
4930,10.0,300.44042,-5048.1768,0.0,0.049300012011679994,0.0,0.0,0.0,0.0,0.3345974035946927,0.8023417370474643,0.39758054345064464,0.0015997298970060483,0.003914558417636837,0.17151620841733184
4931,10.0,300.33859,-4936.7121,0.0,0.04931000799909935,0.0,0.0,0.0,0.0,0.3192653590440377,0.7980445940358692,0.38332725561895464,0.008724711778712011,-0.004283585927907016,0.18292144273544084
4932,10.0,300.03375,-4974.5806,0.0,0.0493200039865187,0.0,0.0,0.0,0.0,0.29219794302769175,0.8085042025656523,0.4114461415290726,0.004146255683553576,-0.0036045926477455965,0.19367208709144682
4933,10.0,299.83715,-4910.7166,0.0,0.049329999973938055,0.0,0.0,0.0,0.0,0.2770208548148297,0.8048357508436043,0.4108786100155616,0.0023917290356452775,-0.0038412151197484163,0.18975538909489884
4934,10.0,300.3596,-4758.3284,0.0,0.04933999596135741,0.0,0.0,0.0,0.0,0.26109435669550674,0.8106757596499682,0.37464289166187464,2.8133578036567972e-05,0.0055517059183107145,0.2088721558165768
4935,10.0,300.10871000000003,-4888.2016,0.0,0.049350024938834114,0.0,0.0,0.0,0.0,0.3112837245613117,0.8029625857812372,0.37164490753099666,-0.007771197939682522,0.0031912793193297467,0.18112118101776883
4936,10.0,299.55654,-5021.9545,0.0,0.04936002092625347,0.0,0.0,0.0,0.0,0.3214679418464157,0.8171916569355372,0.38788918114668164,-0.0054943074279709255,-0.012125520376945687,0.2060570227987448
4937,10.0,299.81951000000004,-4942.0222,0.0,0.0493700169136726,0.0,0.0,0.0,0.0,0.29836359015119374,0.8012141923361842,0.4026735538857856,-0.005593188073429684,0.002150783126790768,0.17865867929973883
4938,10.0,300.06921,-4964.56,0.0,0.04938001290109195,0.0,0.0,0.0,0.0,0.2844758221605777,0.8103136645942323,0.41431279831448964,-0.015866772092178485,0.011987190460043588,0.2008775010700658
4939,10.0,299.50817,-5176.642,0.0,0.049390008888511305,0.0,0.0,0.0,0.0,0.30296812284562574,0.8364425070429483,0.4341592773606846,0.002082142018641418,0.00033823266124346466,0.17236613273371285
4940,10.0,299.53873,-5058.5544,0.0,0.04940000487593066,0.0,0.0,0.0,0.0,0.3128953191103637,0.8182471291672042,0.40653177721906264,-0.0016875570984489184,-0.005946109568060324,0.1995295035345288
4941,10.0,300.05704,-4927.2239,0.0,0.04941000086335001,0.0,0.0,0.0,0.0,0.3286305865383137,0.7905723609084173,0.37855008537248463,0.01000298970269322,-0.009140338154456142,0.16459500095926186
4942,10.0,299.80944,-4953.8434,0.0,0.04941999685076914,0.0,0.0,0.0,0.0,0.3264440130875157,0.8019853668547933,0.37741532632049263,0.013018251470301386,0.008261318158803623,0.18579769499930482
4943,10.0,299.73693,-4916.6738,0.0,0.04943002582824607,0.0,0.0,0.0,0.0,0.3113929022595867,0.7867193760781572,0.39643379764996967,-0.011780704275164987,0.0015124584632430285,0.16938236450173785
4944,10.0,299.84531,-4929.3957,0.0,0.049440021815665425,0.0,0.0,0.0,0.0,0.2784081563217457,0.8067813126256163,0.4132237267095066,-0.0013788670104335787,-0.015204232169790886,0.19387198107117481
4945,10.0,300.19599,-5104.9992,0.0,0.049450017803084556,0.0,0.0,0.0,0.0,0.29779669698524575,0.8184763162073232,0.43551928190990663,-0.014512861229057884,-0.006862450705971155,0.17946432458674982
4946,10.0,300.29294,-5120.5182,0.0,0.04946001379050391,0.0,0.0,0.0,0.0,0.3160901169406657,0.8178208953801382,0.4225986510072396,-0.002137465474101418,0.006240314232646063,0.18140993703126684
4947,10.0,300.25245,-5078.6732,0.0,0.049470009777923485,0.0,0.0,0.0,0.0,0.3361090308888787,0.8267822819145582,0.38089854579175964,-0.02889381756009777,0.005131124344277545,0.17987967606774183
4948,10.0,299.74439,-5097.3329,0.0,0.049480005765342616,0.0,0.0,0.0,0.0,0.33300862743789267,0.8211999527411252,0.39525333088596665,-0.011163712984522688,0.0016753556420697287,0.1852918805493848
4949,10.0,300.00446,-4999.2549,0.0,0.04949000175276197,0.0,0.0,0.0,0.0,0.31110503790617666,0.8056525520142163,0.40289108854975464,0.002160937311342908,0.0060818684641586835,0.18080991058704882
4950,10.0,299.43566,-4846.4893,0.0,0.0494999977401811,0.0,0.0,0.0,0.0,0.26473917942522274,0.8070457810342172,0.4014267699027376,0.02266098992846558,0.004741835885007766,0.19432250246313781
4951,10.0,299.35157999999996,-4889.7161,0.0,0.04951002671765803,0.0,0.0,0.0,0.0,0.27437665708886777,0.8061437452651933,0.4058311857024196,-4.934186420391285e-05,0.01007107625906284,0.1960852637946088
4952,10.0,300.00268,-4967.6668,0.0,0.04952002270507738,0.0,0.0,0.0,0.0,0.3077929259792967,0.8251751861959502,0.3770785523847557,0.002181102406883048,-0.016555961505446186,0.19805088792860082
4953,10.0,300.51103,-4912.9498,0.0,0.049530018692496514,0.0,0.0,0.0,0.0,0.3183470910084117,0.7956169177237763,0.37945004397880366,-0.002739000951693347,-0.002243156477457308,0.1861027643394128
4954,10.0,300.39862,-4951.9947,0.0,0.04954001467991587,0.0,0.0,0.0,0.0,0.30221342377364274,0.8222015301999732,0.38086777338622263,0.012410533444574288,-0.008786275537562883,0.20302346345685582
4955,10.0,300.46788,-5064.9661,0.0,0.04955001066733522,0.0,0.0,0.0,0.0,0.3131176768448087,0.8153776758115112,0.41112787967266257,-0.0029894959321402773,0.004599637176573845,0.17858155070212683
4956,10.0,300.10315,-5071.4802,0.0,0.049560006654754574,0.0,0.0,0.0,0.0,0.2925352134559777,0.8171160684780772,0.4319520741378506,-0.015563569158754686,-0.008067551302430321,0.1907181996049208
4957,10.0,300.10132000000004,-4958.5249,0.0,0.04957000264217393,0.0,0.0,0.0,0.0,0.2963103908110587,0.8096655796977713,0.4012917745919146,0.014427764432659487,0.006116313293358124,0.16794879799525583
4958,10.0,299.96021,-4987.9994,0.0,0.04957999862959306,0.0,0.0,0.0,0.0,0.3225748466531587,0.7944458843182042,0.39920654641611864,0.010269150948236291,0.004521751985112176,0.17055424903739383
4959,10.0,299.74276000000003,-5039.4997,0.0,0.049590027607069986,0.0,0.0,0.0,0.0,0.34003606403644665,0.8019987316236122,0.38984726669992964,0.0038728063326912265,0.007613773223320913,0.16606458850679884
4960,10.0,299.37306,-5017.8926,0.0,0.04960002359448934,0.0,0.0,0.0,0.0,0.31120275574582074,0.8168878136280502,0.3972234842479056,-0.00989822318872857,-0.015183368336981787,0.18138581154638583
4961,10.0,299.80766,-5012.1384,0.0,0.04961001958190847,0.0,0.0,0.0,0.0,0.3156718067693817,0.8044630774568242,0.40343002614544365,-0.004537309427147576,0.005763662133854165,0.18327918081574682
4962,10.0,299.59082,-5032.1703,0.0,0.049620015569327824,0.0,0.0,0.0,0.0,0.30031523143380573,0.8200557603307023,0.4092831261430996,0.013802312503682187,-0.001093840061278609,0.1920639679902378
4963,10.0,299.87772,-5004.2719,0.0,0.04963001155674718,0.0,0.0,0.0,0.0,0.2979764779504887,0.8265192320560972,0.39667798079156863,0.00985999123595537,0.003969437461602976,0.2011175298862548
4964,10.0,299.83759,-5044.3369,0.0,0.04964000754416653,0.0,0.0,0.0,0.0,0.3244231668230737,0.8298991810771722,0.37903012273986064,-0.008913229290292242,-0.0073055672662033526,0.19133255340555283
4965,10.0,299.80189,-5057.7515,0.0,0.049650003531585885,0.0,0.0,0.0,0.0,0.3154152214465587,0.8194502116734392,0.4025647206925446,-0.0032524909737708667,0.007970342823611592,0.1908276914107268
4966,10.0,300.0125,-4897.4625,0.0,0.049659999519005016,0.0,0.0,0.0,0.0,0.2967559067475277,0.8027592467511692,0.38919114673017563,-0.0014945013409957983,0.005797187134612824,0.18239776468625782
4967,10.0,300.22482,-4915.7585,0.0,0.04966999550642437,0.0,0.0,0.0,0.0,0.27618547063738375,0.8100133169995902,0.4080690397407786,0.00929530158499984,0.007219401592274462,0.18223571559776483
4968,10.0,300.05464,-5034.1427,0.0,0.0496800244839013,0.0,0.0,0.0,0.0,0.29752902670632875,0.8270953052679512,0.4056293260174976,0.005327626570620805,-0.015433780940195586,0.18190537580016283
4969,10.0,299.93992000000003,-5030.7949,0.0,0.04969002047132043,0.0,0.0,0.0,0.0,0.3026091486001977,0.8180769538129092,0.4085499282382386,-2.319113656628698e-05,0.0007368814540095373,0.18515917518378783
4970,10.0,299.81415,-4992.2977,0.0,0.04970001645873978,0.0,0.0,0.0,0.0,0.3259714940358817,0.8158425245598883,0.37571980426565765,0.003256418432483477,-0.002798729511963097,0.19873184265830582
4971,10.0,299.60992000000005,-5073.2131,0.0,0.049710012446159135,0.0,0.0,0.0,0.0,0.3157703960041117,0.8198422077396262,0.4065175005251536,-0.00019472634342299378,0.0047001958655232155,0.19254703497541284
4972,10.0,299.58227999999997,-5062.9139,0.0,0.04972000843357849,0.0,0.0,0.0,0.0,0.31552802658019174,0.8187731174266153,0.4046982606331086,-0.003830400397456086,0.0008853870971609032,0.19614308997781582
4973,10.0,300.09032,-4945.4351,0.0,0.04973000442099784,0.0,0.0,0.0,0.0,0.28109523479193976,0.8067539447404152,0.41543962361819864,0.004943326138943305,0.004545196971226016,0.17739907770292582
4974,10.0,300.28014,-5005.5569,0.0,0.04974000040841697,0.0,0.0,0.0,0.0,0.3036116177191337,0.8023770184159462,0.41557567270912554,0.017497663989384984,-0.00015756072492253287,0.1783998040316898
4975,10.0,299.84036000000003,-5035.3734,0.0,0.04974999639583633,0.0,0.0,0.0,0.0,0.32686417750648267,0.8067176805193362,0.39704593243288266,0.005718743034395995,-0.001854402000990228,0.16618660408384084
4976,10.0,300.1555,-4934.5509999999995,0.0,0.049760025373313255,0.0,0.0,0.0,0.0,0.32591903807820466,0.8067617771636882,0.36729947301963567,0.01133315271924509,-0.007688579654353733,0.18663891549732683
4977,10.0,300.34382999999997,-5006.8569,0.0,0.049770021360732386,0.0,0.0,0.0,0.0,0.3072372900219597,0.8103264011479893,0.4043957852132566,-0.014824663616080383,0.008427357122215392,0.17244558167405385
4978,10.0,300.59681,-5089.5961,0.0,0.04978001734815174,0.0,0.0,0.0,0.0,0.3237641590905347,0.8079232049583122,0.41542276313653465,-0.015479472440204985,0.005256212602247795,0.18171428696380382
4979,10.0,300.84566,-5053.0942,0.0,0.04979001333557109,0.0,0.0,0.0,0.0,0.2819899751602437,0.8300015598672762,0.42402291587780355,-0.016351103613478284,0.0024957026814066774,0.1901331895271848
4980,10.0,300.14108999999996,-4991.1085,0.0,0.049800009322990224,0.0,0.0,0.0,0.0,0.2966162910162487,0.8189990012714082,0.40155707386559764,0.004437880106759665,-0.0016791326331424884,0.1946230020452948
4981,10.0,299.99403,-4988.9931,0.0,0.0498100053104098,0.0,0.0,0.0,0.0,0.3099721432343687,0.8151938722433713,0.39136331176455164,0.006241390202927254,-0.0013353115429599887,0.2025367893013248
4982,10.0,300.16847,-4904.7685,0.0,0.04982000129782893,0.0,0.0,0.0,0.0,0.3227176135922487,0.7992050187128942,0.36900450949290964,0.01891955076196428,-0.0008067746049099542,0.1910988675349898
4983,10.0,299.79069,-4876.4195,0.0,0.049829997285248284,0.0,0.0,0.0,0.0,0.2963041694554447,0.8101384533869402,0.37586715109519964,-0.002214522333606338,-0.0027162987792278175,0.19787512956625483
4984,10.0,299.70762,-4913.6147,0.0,0.04984002626272499,0.0,0.0,0.0,0.0,0.29180158998607475,0.8052095894679993,0.39660499638686564,0.0015933592896523185,0.0029229391807716375,0.18114808280792383
4985,10.0,299.45696,-4856.4822,0.0,0.049850022250144566,0.0,0.0,0.0,0.0,0.26278862232021777,0.8061387904722043,0.4073219096470426,-0.008803978638010043,0.005663028261747375,0.18341210909636582
4986,10.0,300.19296,-4894.4781,0.0,0.0498600182375637,0.0,0.0,0.0,0.0,0.2932234129238977,0.8013885726783943,0.3931871619445516,0.003655019977397387,0.004541298491466266,0.17897090218555284
4987,10.0,300.18662,-5172.3191,0.0,0.04987001422498305,0.0,0.0,0.0,0.0,0.3498820077756657,0.8214004344059112,0.4009734012779936,-0.014707607898277884,-0.001976475333287928,0.18639759985351084
4988,10.0,300.22688,-5329.5705,0.0,0.04988001021240218,0.0,0.0,0.0,0.0,0.36346589192879064,0.8440034907466591,0.4125869699491636,-0.010688391283112091,-0.0014057985901415185,0.18025405171468983
4989,10.0,300.56928,-5072.1909,0.0,0.049890006199821535,0.0,0.0,0.0,0.0,0.3188431782573717,0.8222279557625812,0.4007482571057736,0.014631991069815086,0.0034161629849490363,0.18693036675609082
4990,10.0,300.21907000000004,-5019.6688,0.0,0.04990000218724111,0.0,0.0,0.0,0.0,0.2994694817078367,0.8079020077662202,0.41848249472850657,0.01023490816110679,0.013509693980802987,0.17185104704537785
4991,10.0,300.09578999999997,-5072.6923,0.0,0.04990999817466024,0.0,0.0,0.0,0.0,0.2989648324955317,0.8241297856702772,0.4188771657749576,0.023891462611403774,0.012266431041852488,0.18026866278113182
4992,10.0,300.30093999999997,-5009.4834,0.0,0.04992002715213695,0.0,0.0,0.0,0.0,0.3128883783471787,0.8146317008228893,0.39523780789443463,-0.005225613665127915,-0.0014435408391413889,0.18191010767812982
4993,10.0,300.12517,-4967.7795,0.0,0.0499300231395563,0.0,0.0,0.0,0.0,0.3181113583726467,0.8165155962038152,0.37545397810192266,-0.003501591316780156,-0.006249473912225055,0.1962602622193798
4994,10.0,299.93138999999996,-4951.3167,0.0,0.049940019126975654,0.0,0.0,0.0,0.0,0.3185530442237377,0.8079030818113262,0.3786205062544346,-0.011136379549825092,-0.013841299327779884,0.1875096621032628
4995,10.0,300.33943999999997,-4907.6546,0.0,0.04995001511439501,0.0,0.0,0.0,0.0,0.2973817001417887,0.8138014132934462,0.38062135096190264,-0.00959111265629412,-0.00942468146376864,0.20263568251108482
4996,10.0,299.53784,-5051.3854,0.0,0.04996001110181414,0.0,0.0,0.0,0.0,0.2967756651244777,0.8162379555439142,0.4224814179706696,-0.007474663103841813,0.011045043159310888,0.18580039024457082
4997,10.0,300.47542999999996,-5145.3394,0.0,0.04997000708923349,0.0,0.0,0.0,0.0,0.28755813909727873,0.8380482855364262,0.4384482637089746,-0.0032094839785764065,0.01152272573345449,0.19268174657620782
4998,10.0,300.84134,-5041.8255,0.0,0.049980003076652846,0.0,0.0,0.0,0.0,0.31092213613062575,0.8203247073047452,0.40134219391689063,0.008960614843143831,0.007140195224007404,0.17390964700854583
4999,10.0,300.24176,-5013.6593,0.0,0.0499899990640722,0.0,0.0,0.0,0.0,0.3216545115873287,0.8100406038247833,0.3923321207151656,0.014050013649628386,0.002272436365597008,0.1915286780949088
5000,10.0,299.749,-5190.1522,0.0,0.04999999505149155,0.0,0.0,0.0,0.0,0.3472641241548007,0.8332552072633862,0.3971573595463796,0.005202473971269206,0.004605015406779636,0.18354179497666484
5001,10.0,299.92686000000003,-5103.2664,0.0,0.05001002402896826,0.0,0.0,0.0,0.0,0.31462257615833067,0.8332669609645462,0.4033760199151136,-0.012206034243141789,-0.017805624132028283,0.1905026914411518
5002,10.0,299.87095,-4975.6366,0.0,0.05002002001638761,0.0,0.0,0.0,0.0,0.28948640470008374,0.8136021373962793,0.4093807527902346,-0.016760797105911884,-0.006231745987150444,0.17200079527765683
5003,10.0,299.93809,-4950.2088,0.0,0.050030016003806965,0.0,0.0,0.0,0.0,0.2913866032751187,0.8116180011829602,0.4017352640281836,-0.004800090571682056,0.001953315678402248,0.18471948543539382
5004,10.0,299.4182,-4997.0942,0.0,0.0500400119912261,0.0,0.0,0.0,0.0,0.32807476819595865,0.7920550599122482,0.3988620211171166,0.009030260487442321,0.016505590816474985,0.17836344861810183
5005,10.0,299.77305,-5028.2736,0.0,0.05005000797864545,0.0,0.0,0.0,0.0,0.3248497653801757,0.8174392851274762,0.38618057803305567,0.0025608969153658474,0.0038881786539333566,0.20185866153939883
5006,10.0,300.27545,-5105.9918,0.0,0.0500600039660648,0.0,0.0,0.0,0.0,0.34093141235481067,0.8163366055736502,0.3948259926562916,0.01138585287019619,0.0004456910564837825,0.18727906664550484
5007,10.0,300.5668,-5146.665,0.0,0.05006999995348416,0.0,0.0,0.0,0.0,0.3172048845681847,0.8271635780596892,0.4200891750145736,0.017241078666561986,-0.010385126541432189,0.19298133423327482
5008,10.0,300.32729,-5066.1428,0.0,0.05007999594090351,0.0,0.0,0.0,0.0,0.2948221391966797,0.8288241733835772,0.4163346172990276,0.016925368173903783,-0.004724105224157885,0.17824113919853082
5009,10.0,300.35404,-5072.1089,0.0,0.050090024918380216,0.0,0.0,0.0,0.0,0.28812808214602775,0.8309631544771782,0.4227032082850586,-0.005841397972251095,-0.018635537772184383,0.18105264478100483
5010,10.0,300.23427999999996,-5110.4908,0.0,0.05010002090579957,0.0,0.0,0.0,0.0,0.3325049306806817,0.8183709483294243,0.40258573549961857,-0.018731215939377086,-0.0013181599545422588,0.16723716205252284
5011,10.0,299.73162,-5020.895,0.0,0.05011001689321892,0.0,0.0,0.0,0.0,0.3242653227224957,0.8186321743377052,0.38332920105914664,-0.01105708158374899,0.0052069989435657845,0.19213000149925483
5012,10.0,299.94396,-4933.5762,0.0,0.050120012880638054,0.0,0.0,0.0,0.0,0.3287331071834317,0.8002872914097062,0.37066358494164764,-0.0005876356113951194,0.027661392344216874,0.1898611724053388
5013,10.0,299.87965,-4995.3729,0.0,0.05013000886805763,0.0,0.0,0.0,0.0,0.2915949274956787,0.8349879865243981,0.3918857232511096,0.01044927439201309,0.003086170428156307,0.2081736515951398
5014,10.0,300.48451,-5066.8339,0.0,0.05014000485547676,0.0,0.0,0.0,0.0,0.2941147487718657,0.8291918007848592,0.4168844372007906,0.001191168407584169,0.006727221638350082,0.19429011898994183
5015,10.0,300.50082000000003,-5105.1859,0.0,0.050150000842896114,0.0,0.0,0.0,0.0,0.2929213529365867,0.8316738278323162,0.4272538664716736,-0.0015255828891383085,-0.01030625616689829,0.2019775259086298
5016,10.0,300.78013,-5049.5074,0.0,0.05015999683031547,0.0,0.0,0.0,0.0,0.3208685334847587,0.8182521548877002,0.39580346489526064,-0.0022902916562091875,0.0022908609001153677,0.18832274464600782
5017,10.0,300.58865,-4944.9017,0.0,0.05017002580779217,0.0,0.0,0.0,0.0,0.3051121600572257,0.8085008284428191,0.3895136642370056,-0.0005476465106960025,-0.010245450015147189,0.18927670948265682
5018,10.0,301.06472,-4891.8142,0.0,0.050180021795211305,0.0,0.0,0.0,0.0,0.3100228260043707,0.7936200854867043,0.3833464769733516,-0.0020304119533360583,0.007060663197158202,0.17890042050859684
5019,10.0,299.87717000000004,-5124.0753,0.0,0.05019001778263088,0.0,0.0,0.0,0.0,0.3056053291458977,0.8294238147927573,0.42256180923360354,0.001171066133550229,-0.007630149168787092,0.18191370471598484
5020,10.0,299.89128,-5220.4294,0.0,0.050200013770050234,0.0,0.0,0.0,0.0,0.3135854032234697,0.8372236418100402,0.43607111817936856,-0.005465647547567416,6.793521632143383e-05,0.16953274094907883
5021,10.0,299.99347,-4990.4572,0.0,0.05021000975746959,0.0,0.0,0.0,0.0,0.28787087874064377,0.8218581600060851,0.4072453484694866,0.002874334485399727,-0.014627971506668386,0.18279937649589384
5022,10.0,300.49719,-5078.3015,0.0,0.05022000574488872,0.0,0.0,0.0,0.0,0.3290121967909757,0.8221301872604323,0.39253446676013565,0.015662823085550285,-0.001002040352023683,0.17998954277608484
5023,10.0,300.02671000000004,-5309.7463,0.0,0.05023000173230785,0.0,0.0,0.0,0.0,0.35962413390963865,0.8399320694598412,0.4144740975979086,0.000929567618356181,0.008348972195804402,0.1920196585633648
5024,10.0,299.53366,-5200.8934,0.0,0.050239997719727425,0.0,0.0,0.0,0.0,0.34678902131541167,0.8325299836368122,0.4016227426045786,-0.01031740191799829,0.01705076901952988,0.19691208600870982
5025,10.0,299.51017,-4954.4205,0.0,0.05025002669720413,0.0,0.0,0.0,0.0,0.27313120046345074,0.8279491913922232,0.4049397485294416,-0.01091797754377049,0.008755189227144902,0.1994042151596638
5026,10.0,299.48828,-4875.6320000000005,0.0,0.05026002268462326,0.0,0.0,0.0,0.0,0.26854655786848175,0.8020067362994022,0.4115170994335756,-0.009185997939737412,0.01188276490473759,0.18193422303050985
5027,10.0,300.20673999999997,-4931.5145,0.0,0.050270018672042616,0.0,0.0,0.0,0.0,0.28059622938269174,0.8130100244353422,0.4054510041323986,-0.0006502623101308934,-0.004734158387675056,0.18745758104812282
5028,10.0,300.02763,-5123.6489,0.0,0.05028001465946219,0.0,0.0,0.0,0.0,0.33803162229112366,0.8234670086473662,0.39596269714847565,0.0051193609159165855,-0.0016826799204175784,0.16854142771374384
5029,10.0,300.73781,-5098.6078,0.0,0.050290010646881544,0.0,0.0,0.0,0.0,0.3258031425317667,0.8333487201151152,0.39069759631635065,0.011357656146413387,-0.005521774105056675,0.2011463872491028
5030,10.0,301.1925,-4972.1279,0.0,0.050300006634300676,0.0,0.0,0.0,0.0,0.30862265622118473,0.8188623948929262,0.38391768658472564,0.015482021777456586,0.0030581637900922672,0.1888100976791058
5031,10.0,300.55316,-5036.6561,0.0,0.05031000262171981,0.0,0.0,0.0,0.0,0.2834129633356817,0.8396350959880322,0.40796963990596863,0.013967186533453987,-0.008054927523409451,0.2187731595662298
5032,10.0,300.23503,-5157.7155,0.0,0.05031999860913938,0.0,0.0,0.0,0.0,0.30674963301383174,0.8375982606370123,0.4234688403256206,0.005195039957935525,-0.009842336568862992,0.19119984803995582
5033,10.0,300.14135,-5038.9063,0.0,0.05033002758661609,0.0,0.0,0.0,0.0,0.31131637147953367,0.8121037026183953,0.4082816094792576,-0.012609048390916188,-0.03264657371696597,0.1954600276879028
5034,10.0,299.61529,-4945.3593,0.0,0.05034002357403522,0.0,0.0,0.0,0.0,0.32042106197559667,0.8104247168051922,0.3724199729299897,-0.009254712609844023,-0.005692704533326194,0.17243574301558282
5035,10.0,300.19568,-4926.735,0.0,0.05035001956145457,0.0,0.0,0.0,0.0,0.31319156304210066,0.8067373071737732,0.37767554921117463,-0.0004554634585307437,0.0016366249675973084,0.19577452025394082
5036,10.0,300.03136,-5114.026,0.0,0.05036001554887415,0.0,0.0,0.0,0.0,0.31983821012057373,0.8257834098334772,0.4089145868167276,-0.0053324740604242145,0.025941673876993875,0.17791788201912784
5037,10.0,299.7496,-5223.5376,0.0,0.0503700115362935,0.0,0.0,0.0,0.0,0.3011291043116287,0.8465532332982992,0.44014266105619854,-0.005127758732745385,0.012647716041232387,0.1882520400540298
5038,10.0,300.2055,-5111.3148,0.0,0.05038000752371263,0.0,0.0,0.0,0.0,0.2992868535098127,0.8318015581399222,0.4226236580197076,-0.005930555976375305,0.0037113521233319365,0.18191556909616882
5039,10.0,300.12681000000003,-5034.8764,0.0,0.050390003511131765,0.0,0.0,0.0,0.0,0.3138421101363047,0.8176684924325972,0.39896609203488764,0.006880494461101933,0.0016451158007852887,0.18233262283732882
5040,10.0,300.16066,-5124.4824,0.0,0.05039999949855112,0.0,0.0,0.0,0.0,0.3486096189625907,0.8171884449327202,0.3919166273791596,0.007434734666426183,-0.006948946192807593,0.18195141788470684
5041,10.0,301.19939,-5165.013,0.0,0.05040999548597069,0.0,0.0,0.0,0.0,0.3438282234632037,0.8261640676310452,0.4000426803986386,0.008368041967986442,-0.013111868686790687,0.19504457488190083
5042,10.0,300.35882000000004,-5227.8943,0.0,0.05042002446344718,0.0,0.0,0.0,0.0,0.32949616556873973,0.8402313734068801,0.4194217978362086,-0.002352011354250448,-0.006209190634624404,0.18631195995505884
5043,10.0,300.20532000000003,-5017.6013,0.0,0.05043002045086675,0.0,0.0,0.0,0.0,0.2797225342189647,0.8299569565978743,0.4155460250111996,-0.00041343207119506854,-0.01141556541612859,0.20194951967586583
5044,10.0,299.77706,-4867.9817,0.0,0.050440016438285884,0.0,0.0,0.0,0.0,0.27560205136230476,0.8063167881172713,0.39782605394987464,0.003975794187430337,-0.002931739055240117,0.1973215403741198
5045,10.0,300.0337,-4968.0088,0.0,0.05045001242570546,0.0,0.0,0.0,0.0,0.3005863771605657,0.8133657765454522,0.3961984804467456,0.014756345228087886,-0.017790741514559484,0.20345866450730682
5046,10.0,300.31755,-5079.0736,0.0,0.05046000841312459,0.0,0.0,0.0,0.0,0.3276856497600557,0.8228064101121702,0.3934194799274796,0.012963383977386387,-0.006485017880821434,0.17963635418872784
5047,10.0,299.65196000000003,-5047.8469,0.0,0.05047000440054372,0.0,0.0,0.0,0.0,0.3033228414406337,0.8344869546149503,0.39660962693982266,0.0023665215009824876,0.004085394309672027,0.2044039356580978
5048,10.0,299.58425,-5006.7999,0.0,0.050480000387963075,0.0,0.0,0.0,0.0,0.30254443231631073,0.8252959352103671,0.3941017822798176,-0.002251504949006238,0.008335009305451372,0.19974715978850982
5049,10.0,299.89774,-5125.3048,0.0,0.05048999637538243,0.0,0.0,0.0,0.0,0.2940739857203427,0.8378481889066782,0.4260425158446226,-0.019983356975703782,0.005992804185668724,0.1961995280083858
5050,10.0,299.88266,-5248.76,0.0,0.05050002535285936,0.0,0.0,0.0,0.0,0.3337889313399027,0.8407098301041002,0.42099322715129667,-0.008561515792430821,0.005931021767446275,0.18057802830166383
5051,10.0,299.52123,-5285.5406,0.0,0.05051002134027871,0.0,0.0,0.0,0.0,0.3398819284312347,0.8407133258169452,0.4260771183355376,-0.004849435648902035,0.003392196681658747,0.18041290906536783
5052,10.0,299.11285,-5138.3549,0.0,0.05052001732769784,0.0,0.0,0.0,0.0,0.3564336829222657,0.8108442428765963,0.3946536489467826,0.001149150243162299,-0.0025085449171491072,0.18224770234644783
5053,10.0,299.53056000000004,-4996.3481,0.0,0.050530013315117195,0.0,0.0,0.0,0.0,0.3033420020000247,0.8121081609188352,0.4033149108015826,0.01814248115427348,-0.00824475212761868,0.18798202916738183
5054,10.0,300.49782999999996,-4976.821,0.0,0.05054000930253655,0.0,0.0,0.0,0.0,0.2999181387196157,0.8112383262379892,0.4016728376895226,0.013647772611680287,-0.013970297211260987,0.1885349090844468
5055,10.0,300.46288,-5102.4601,0.0,0.05055000528995568,0.0,0.0,0.0,0.0,0.2924515595277217,0.8285974485412012,0.4299714539023786,0.006910777162865603,-0.0030062114177149667,0.1842533194618868
5056,10.0,300.49654,-5067.0367,0.0,0.050560001277375255,0.0,0.0,0.0,0.0,0.31195960290801567,0.8200198811446612,0.40827313870842163,-0.0012473380282026787,-0.0023592188048617677,0.1982192900952208
5057,10.0,300.5471,-4945.2933,0.0,0.050569997264794386,0.0,0.0,0.0,0.0,0.3034854174191787,0.8084055424034152,0.3913547194037036,-0.0027894490529721872,0.0017934203543218082,0.18587346584178283
5058,10.0,300.63951000000003,-5024.3832,0.0,0.050580026242271314,0.0,0.0,0.0,0.0,0.3245514848157377,0.8203146355987513,0.38242090340450463,-0.001092708970191979,-0.0015216693119520688,0.18629795683867684
5059,10.0,300.20533,-5245.6343,0.0,0.05059002222969067,0.0,0.0,0.0,0.0,0.32588289544713767,0.8416815470825012,0.4269774113143896,-0.005960291219109944,-0.00018989597754627378,0.17874595053085182
5060,10.0,299.5438,-5327.4823,0.0,0.0506000182171098,0.0,0.0,0.0,0.0,0.34327479639108466,0.8479782682389392,0.4281685172044426,0.0008556744600359942,0.0037237340395539363,0.1918376079178978
5061,10.0,299.74582000000004,-5127.6998,0.0,0.05061001420452915,0.0,0.0,0.0,0.0,0.3065441458935517,0.8322692743860822,0.4198792802563586,-0.0032553383078768768,0.020747037496573178,0.18457861327399083
5062,10.0,299.85792999999995,-4917.5192,0.0,0.050620010191948506,0.0,0.0,0.0,0.0,0.3005891838633427,0.8048328934783222,0.3893809690039096,0.0002032832405174938,0.012909622953580589,0.18828992547526882
5063,10.0,299.59763,-5005.6725,0.0,0.05063000617936786,0.0,0.0,0.0,0.0,0.3061543283150797,0.8261627808034182,0.38928232910667465,0.008591480232338081,0.014511840886207186,0.19333633653831084
5064,10.0,299.64784,-5159.7635,0.0,0.05064000216678721,0.0,0.0,0.0,0.0,0.3408671419009677,0.8384799807415313,0.3890921521954056,-0.0029918169841443468,0.004650659486684355,0.2005507177803148
5065,10.0,300.00066,-5141.8905,0.0,0.050649998154206344,0.0,0.0,0.0,0.0,0.31426816153835274,0.8321924497635002,0.4165457076923606,-0.005515491447811625,-0.007718617352243222,0.2019948119553358
5066,10.0,300.12008,-4937.7142,0.0,0.05066002713168327,0.0,0.0,0.0,0.0,0.28416044806695273,0.8173811651017402,0.3994001987752306,-0.0025398519134388676,-0.02123481102846268,0.18908649204138384
5067,10.0,300.50296000000003,-4938.8583,0.0,0.050670023119102625,0.0,0.0,0.0,0.0,0.27408531728761476,0.8139295792985952,0.41327469318953663,-0.0022991707668354876,-0.007208281577727004,0.1904879385196958
5068,10.0,299.82809,-5332.6262,0.0,0.050680019106521756,0.0,0.0,0.0,0.0,0.3368802864674957,0.8453956963840591,0.4387092364047306,0.0007802177048239923,-0.010817862354389888,0.17397046227954782
5069,10.0,299.66727000000003,-5387.1627,0.0,0.05069001509394111,0.0,0.0,0.0,0.0,0.3576793421977027,0.8487885947414121,0.4310949962757636,0.003014248922808207,0.006063966057416854,0.17933918819939984
5070,10.0,300.03806000000003,-5058.3556,0.0,0.05070001108136046,0.0,0.0,0.0,0.0,0.3262210170055077,0.8174233872334072,0.39396939102175166,1.8937447798480583e-05,-0.0011993215245138188,0.17830703085253383
5071,10.0,300.07637,-5035.6375,0.0,0.05071000706877982,0.0,0.0,0.0,0.0,0.31018369972274773,0.8318966921918113,0.3886276682170646,0.005330168409821666,0.0016396191216428086,0.1880023549643878
5072,10.0,299.6882,-5164.1318,0.0,0.05072000305619917,0.0,0.0,0.0,0.0,0.3112936848097947,0.8310256112133423,0.4274478126733146,-0.005024805328509675,-0.002346620458418408,0.18600084151185384
5073,10.0,299.95498,-5173.3524,0.0,0.0507299990436183,0.0,0.0,0.0,0.0,0.3236074599625697,0.8305294429043742,0.4184330481236266,-0.01978447117982528,0.0010480258566820991,0.18958140392022782
5074,10.0,300.06761,-5155.1272,0.0,0.05074002802109523,0.0,0.0,0.0,0.0,0.3141356486902747,0.8428412928819592,0.4100530037015806,-0.020425586942098478,-0.004467055731464075,0.19402384699616282
5075,10.0,299.92661,-5047.7351,0.0,0.05075002400851458,0.0,0.0,0.0,0.0,0.3174300186079037,0.8157556586288152,0.4011997613503336,-0.01895206494442318,0.002849876857135947,0.19287453767273482
5076,10.0,299.75746000000004,-5099.439,0.0,0.050760019995933714,0.0,0.0,0.0,0.0,0.3152151248168107,0.8405149618448682,0.39437203634648965,0.016090576747766285,-0.0016884507850371184,0.1989074287681348
5077,10.0,299.3522,-5265.5966,0.0,0.05077001598335307,0.0,0.0,0.0,0.0,0.3281245795708747,0.8412853662934012,0.43119994872112155,0.008034577712376083,0.008701278140999292,0.1887602255091838
5078,10.0,299.58975,-5237.6242,0.0,0.0507800119707722,0.0,0.0,0.0,0.0,0.3181860754350207,0.8419365618676692,0.4319843258885336,0.02041024633558448,-0.01093533857098389,0.1863358929224208
5079,10.0,300.15881,-4937.7543,0.0,0.050790007958191774,0.0,0.0,0.0,0.0,0.2770181798345657,0.8166435190289403,0.4072923024791206,0.0008024313083563042,-0.0066720970838847135,0.18582446506694683
5080,10.0,299.89295,-4842.034000000001,0.0,0.05080000394561113,0.0,0.0,0.0,0.0,0.2916114130748057,0.8082834052363612,0.37196261209985165,0.0042580156497084255,-0.002530572467698058,0.18961498302854182
5081,10.0,300.16759,-5057.6614,0.0,0.05080999993303026,0.0,0.0,0.0,0.0,0.3146868668771757,0.8189600519375643,0.40375585698010064,-0.0004524481782206587,-0.008369468928102272,0.18818329103474482
5082,10.0,300.05245,-5298.0271,0.0,0.05081999592044961,0.0,0.0,0.0,0.0,0.35591563854363867,0.8474337577677001,0.4071185604844736,-0.009025142054562172,-0.012845181260470687,0.2041923791697188
5083,10.0,299.77755,-5221.9128,0.0,0.05083002489792654,0.0,0.0,0.0,0.0,0.3140934974861147,0.8432695430367243,0.42996805951454353,-0.01997715588509178,0.0034987198673217665,0.2058069729390668
5084,10.0,299.73548,-5032.5048,0.0,0.05084002088534567,0.0,0.0,0.0,0.0,0.30384437139960474,0.8284252973492112,0.3974861288063266,0.007521791088517982,0.0008479161560078092,0.2024947698196778
5085,10.0,299.75966,-5036.2605,0.0,0.050850016872765025,0.0,0.0,0.0,0.0,0.28647943304081874,0.8291676347699742,0.41525036876452065,-0.0012883028178205887,0.019189831173138883,0.1783180144836178
5086,10.0,300.17625,-5138.4947,0.0,0.05086001286018438,0.0,0.0,0.0,0.0,0.3232264272624647,0.8246173514858962,0.4141303018389786,0.006016425274649944,0.006632800610556454,0.18257523544127283
5087,10.0,300.45297999999997,-5216.1126,0.0,0.05087000884760351,0.0,0.0,0.0,0.0,0.3254724784941327,0.8345083139270583,0.4255872017796866,-0.0027881356781925674,0.00933232412245368,0.16844148072387982
5088,10.0,300.33173999999997,-5058.5285,0.0,0.050880004835023085,0.0,0.0,0.0,0.0,0.32560900381260666,0.8169083724725793,0.3951489863906686,-0.002358418033307738,0.0007324924902738803,0.18672325843565082
5089,10.0,300.91704,-4958.3295,0.0,0.050890000822442216,0.0,0.0,0.0,0.0,0.2902728590302007,0.8199845693786761,0.39695094023600763,-0.008475814085722722,-0.004559071607495336,0.17860208928165383
5090,10.0,300.26669,-5099.4669,0.0,0.05089999680986157,0.0,0.0,0.0,0.0,0.3319337008043057,0.8238636453990112,0.39431324757568764,-0.014910206242522787,-0.014313863975668386,0.20389701676556882
5091,10.0,300.53495,-5310.3562,0.0,0.050910025787338276,0.0,0.0,0.0,0.0,0.3284638258368557,0.8453219115117772,0.44042995798955253,-0.014091008735424286,-0.006508364784325593,0.17129196603770083
5092,10.0,300.22175,-5189.5868,0.0,0.05092002177475763,0.0,0.0,0.0,0.0,0.3365510815100057,0.8333927154344571,0.4075610062731396,-0.005382496292686025,-0.007115557237225823,0.2043242840677368
5093,10.0,299.28797000000003,-5022.8019,0.0,0.05093001776217698,0.0,0.0,0.0,0.0,0.3055783057657307,0.8247629555252662,0.3964651070780596,0.016969678614026883,0.008131200228661982,0.16993640965641785
5094,10.0,299.29672,-4953.0792,0.0,0.050940013749596336,0.0,0.0,0.0,0.0,0.29093897977844174,0.8296511577176943,0.38502226091623865,0.020916140832262377,-0.005695892623440835,0.20969724537300677
5095,10.0,299.40997999999996,-5118.982,0.0,0.05095000973701547,0.0,0.0,0.0,0.0,0.30482634246901774,0.8290233479557343,0.42219299632970464,0.020398822953957084,0.012760887971401588,0.1889743961828208
5096,10.0,299.56356,-5173.9431,0.0,0.05096000572443482,0.0,0.0,0.0,0.0,0.3152281045505917,0.8430046389305802,0.4145167554271186,-0.0008392855348360332,0.0017457122839633884,0.2044192661321108
5097,10.0,300.49006,-5056.1298,0.0,0.050970001711854174,0.0,0.0,0.0,0.0,0.3038089076461047,0.8216407266671262,0.4114875733256616,-0.014857372342558487,0.0034532831997125166,0.18073927692257782
5098,10.0,300.03014,-5014.8283,0.0,0.05097999769927353,0.0,0.0,0.0,0.0,0.3151645535043197,0.8153064747269843,0.39391153444104166,-0.023167434619947774,-0.002987605106128667,0.18638552191231883
5099,10.0,299.48501,-5149.96,0.0,0.05099002667675023,0.0,0.0,0.0,0.0,0.3275138836031037,0.8366557657914953,0.4012895961041996,-0.011952291086849288,0.011906417201821888,0.18719205885941784
5100,10.0,300.5701,-5221.1287,0.0,0.051000022664169586,0.0,0.0,0.0,0.0,0.32677316738250073,0.8459785989015871,0.41434096666726966,0.00907845785627403,0.0005282282919370735,0.19279682139006482
5101,10.0,299.88589,-5281.9587,0.0,0.05101001865158894,0.0,0.0,0.0,0.0,0.3342483389352427,0.8479403625526981,0.4233948528033186,0.01148053501254059,0.0014458300750923186,0.19994153155519281
5102,10.0,300.40962,-5030.38,0.0,0.05102001463900829,0.0,0.0,0.0,0.0,0.3023217908718377,0.8317659727964103,0.3950221477431506,0.005814003337247454,-0.01254702127279459,0.2001352953718158
5103,10.0,300.16513,-4850.4985,0.0,0.051030010626427424,0.0,0.0,0.0,0.0,0.2853069810851067,0.8124953744445502,0.37662807152279665,0.00016093350013289984,-0.0020032841070837483,0.2035267143840228
5104,10.0,299.8185,-5064.0228,0.0,0.05104000661384678,0.0,0.0,0.0,0.0,0.3192096404210387,0.8157117747669843,0.4044150673626596,-0.012942492786824588,0.008813650515514582,0.18054804623120482
5105,10.0,300.12005,-5207.1498,0.0,0.05105000260126613,0.0,0.0,0.0,0.0,0.32821905501019866,0.8337851674631892,0.42083928406360355,-0.012853941820835288,-0.0051815516739293355,0.19710107741736183
5106,10.0,299.91547,-5141.0414,0.0,0.051059998588685485,0.0,0.0,0.0,0.0,0.3171994130176447,0.8223496572320923,0.42319915367900457,-0.020182341056841982,-0.008636782340334053,0.18103669622443083
5107,10.0,299.13568,-5029.8422,0.0,0.05107002756616219,0.0,0.0,0.0,0.0,0.3038294056956277,0.8220390656789393,0.40307795213319664,-0.012730361785638886,-0.0016244336437191184,0.19451288202442682
5108,10.0,299.20406,-5099.7148,0.0,0.051080023553581544,0.0,0.0,0.0,0.0,0.3121673191785157,0.8212736058908943,0.41674504438453364,0.007007478003384233,-0.0037346178655030867,0.18158349664089582
5109,10.0,299.83738999999997,-5318.7887,0.0,0.05109001954100112,0.0,0.0,0.0,0.0,0.34296811598331767,0.8427274744982263,0.43108336416461557,0.013881668225013986,-0.002023649319518638,0.18987932984713082
5110,10.0,299.0601,-5323.5612,0.0,0.05110001552842025,0.0,0.0,0.0,0.0,0.35138363429136465,0.8468780204853532,0.41996801056761557,0.012516090800241988,-0.0075490746713106635,0.1829428020475488
5111,10.0,300.04848,-5012.194,0.0,0.05111001151583938,0.0,0.0,0.0,0.0,0.3009459492235527,0.8330112571693102,0.3896246151229556,0.0004040670564833136,-0.00012328773280755186,0.1937833824824308
5112,10.0,300.28538,-5002.8521,0.0,0.051120007503258735,0.0,0.0,0.0,0.0,0.2879278233962637,0.8344488158811862,0.3983654880381126,0.00011457881780054889,0.012356478578239488,0.1976887016803558
5113,10.0,300.3373,-5115.1643,0.0,0.05113000349067809,0.0,0.0,0.0,0.0,0.3138089869905357,0.8293696565749121,0.4117035779819796,-0.0024102306784962477,0.004489771177505915,0.2005123459990278
5114,10.0,299.6807,-5226.8286,0.0,0.05113999947809744,0.0,0.0,0.0,0.0,0.3137612730433267,0.8468827928933242,0.42818130442070457,-0.006713169683313263,-0.004773551119762816,0.19041361662486084
5115,10.0,299.64727,-5113.9886,0.0,0.051149995465516795,0.0,0.0,0.0,0.0,0.3256108783252917,0.8286187166608002,0.4002952431185646,-0.002852179164013167,-0.00019112572879514082,0.19466532550197183
5116,10.0,299.47524,-5006.6792,0.0,0.0511600244429935,0.0,0.0,0.0,0.0,0.3111615671292557,0.8137921724525342,0.3969517204385846,0.008241710756118523,0.0026382683890268173,0.17443314267271082
5117,10.0,299.67974,-5078.4392,0.0,0.051170020430412855,0.0,0.0,0.0,0.0,0.3111665016572427,0.8248195050133472,0.40773272176758657,0.013711970111516088,-0.006284139629946295,0.18600838009259782
5118,10.0,299.64107,-5290.1105,0.0,0.05118001641783221,0.0,0.0,0.0,0.0,0.33033923018194367,0.8513566467223591,0.4263656109040096,0.00873253528538413,-0.00940898672634469,0.1847675540201378
5119,10.0,299.59744,-5356.8128,0.0,0.05119001240525134,0.0,0.0,0.0,0.0,0.3320457460003637,0.8581969360274432,0.43809465968907657,-0.0012462133205916788,-0.0017964104553669083,0.18792090992134983
5120,10.0,299.83109,-5192.0472,0.0,0.05120000839267069,0.0,0.0,0.0,0.0,0.3224361428469697,0.8421256546013313,0.4136908958006126,-0.007721943143046452,0.006722124787697064,0.19398947755277082
5121,10.0,300.52631,-5033.9124,0.0,0.051210004380090046,0.0,0.0,0.0,0.0,0.3111860776491747,0.8231158161627062,0.39588178912799066,-0.01120428250527659,0.0037663926793640163,0.19136954716670382
5122,10.0,300.9103,-5073.0589,0.0,0.0512200003675094,0.0,0.0,0.0,0.0,0.3263420294649507,0.8207326721925082,0.3950085296618066,-0.01147253033675059,-0.007432537940209382,0.18487442150818484
5123,10.0,300.33146,-5207.4776,0.0,0.05122999635492875,0.0,0.0,0.0,0.0,0.3155599034283377,0.8455230213916252,0.42186022473186263,-0.006640235333165203,-0.0029943239675417673,0.19052991747133882
5124,10.0,299.39799,-5051.8529,0.0,0.05124002533240546,0.0,0.0,0.0,0.0,0.3032258126110577,0.8186064681826681,0.4138048661718606,0.005405027529859684,0.005965372364386414,0.18379634366678682
5125,10.0,299.92823,-5022.1741,0.0,0.05125002131982481,0.0,0.0,0.0,0.0,0.28041329720963776,0.8262967932616442,0.4199054423739406,0.009277057611649302,0.006176485251871634,0.1980817920566508
5126,10.0,299.66607999999997,-5218.5907,0.0,0.051260017307244166,0.0,0.0,0.0,0.0,0.32590102249142666,0.8359351524528763,0.4244850795134156,0.012364720354552888,0.012894494116337488,0.1883187017781088
5127,10.0,300.45218,-5313.741,0.0,0.0512700132946633,0.0,0.0,0.0,0.0,0.34849457454623667,0.8527090721608331,0.4140409331801586,-0.0007503384083226353,0.0034414870433733266,0.19356197720307983
5128,10.0,299.34016,-5326.7044,0.0,0.05128000928208265,0.0,0.0,0.0,0.0,0.35604396666880367,0.8545406331740941,0.4086005299482326,-0.015224067553748487,0.005068266259748935,0.1902013812589148
5129,10.0,299.52398999999997,-5168.6063,0.0,0.051290005269502004,0.0,0.0,0.0,0.0,0.3281722023255747,0.8441555086591622,0.39879955424845165,-0.012793990852168589,-0.006982860585579682,0.19180371470205282
5130,10.0,299.23292000000004,-4987.6888,0.0,0.05130000125692136,0.0,0.0,0.0,0.0,0.2950058211748077,0.8347874035346022,0.38633961776875164,-0.019049194085759082,-0.01819486517119338,0.1953733644068498
5131,10.0,299.54477,-5089.9266,0.0,0.05130999724434071,0.0,0.0,0.0,0.0,0.2919099672167707,0.8466204624424343,0.40868017140609264,0.015453447111386487,-0.012278831196576289,0.19695853339329383
5132,10.0,299.34752000000003,-5235.1241,0.0,0.051320026221817416,0.0,0.0,0.0,0.0,0.3219857329125177,0.8476057265746723,0.42175553573153063,0.004444179381306356,0.01101167886001809,0.18736477747146382
5133,10.0,299.82661,-5143.2227,0.0,0.05133002220923677,0.0,0.0,0.0,0.0,0.32316021136842965,0.8321779501545692,0.4080731028736796,0.016928500129962883,0.014056529861021487,0.18557986649280683
5134,10.0,299.84553999999997,-4980.9193,0.0,0.05134001819665612,0.0,0.0,0.0,0.0,0.3069040928590757,0.8135074390419332,0.39366356174406864,-0.005320986945365525,0.006936227269602332,0.19216754241545983
5135,10.0,300.41325,-5079.5077,0.0,0.051350014184075254,0.0,0.0,0.0,0.0,0.29685099013691174,0.8441199638456542,0.40307255151016363,0.004532951337142465,0.004746651457433026,0.1996375159951888
5136,10.0,299.86659,-5421.0529,0.0,0.05136001017149461,0.0,0.0,0.0,0.0,0.3376168990251937,0.8616117307194572,0.4486360881644346,-0.00934464291319445,0.0017354244517230584,0.17910997076177781
5137,10.0,299.52215,-5456.823,0.0,0.05137000615891396,0.0,0.0,0.0,0.0,0.33375159307371766,0.8717645372514611,0.4532218048045096,-0.006940800776578704,-0.005862436185402405,0.20144692736126382
5138,10.0,300.1406,-5121.2541,0.0,0.051380002146333315,0.0,0.0,0.0,0.0,0.3194741898896477,0.8299858342257243,0.4072733344372486,-0.024266699520936776,-0.01020244058815249,0.17259704229900183
5139,10.0,300.15731,-4971.2085,0.0,0.05138999813375267,0.0,0.0,0.0,0.0,0.3064933415335377,0.8268007534638813,0.37782914779383364,-0.014749379133650384,-0.008051293704575822,0.1986352799237758
5140,10.0,300.36447000000004,-5057.6861,0.0,0.051400027111229374,0.0,0.0,0.0,0.0,0.33204663766045167,0.8156519220835772,0.38971173436655365,0.007783129668885092,0.0068033466117380335,0.17628800843827183
5141,10.0,300.50471,-5189.8928,0.0,0.05141002309864873,0.0,0.0,0.0,0.0,0.33005172046606873,0.8496248807114472,0.39792121839926664,0.015989942774334485,-0.0028344167884351568,0.2027791080627398
5142,10.0,300.64783,-5250.8363,0.0,0.05142001908606786,0.0,0.0,0.0,0.0,0.31789759299904974,0.8446371064316921,0.43358841225434464,0.01795948210671288,-0.002441537370810978,0.19119421436939982
5143,10.0,300.96054,-5045.3117,0.0,0.05143001507348721,0.0,0.0,0.0,0.0,0.27903097076071276,0.8405942891951972,0.4140235154109396,0.003065328886849407,-0.009031653503679802,0.2210790533488038
5144,10.0,300.0741,-5001.3446,0.0,0.05144001106090679,0.0,0.0,0.0,0.0,0.28908320208779076,0.8109135593159372,0.42028713368661064,0.008389255169430022,0.014159222758656486,0.18782181406156984
5145,10.0,300.05187,-5195.2861,0.0,0.05145000704832592,0.0,0.0,0.0,0.0,0.3310777172523267,0.8303854195351603,0.4177741214510956,-0.014145781996079987,0.008733372331291742,0.19746756997853182
5146,10.0,299.81365,-5250.1738,0.0,0.05146000303574527,0.0,0.0,0.0,0.0,0.33453512924354667,0.8323698698560102,0.4290167392606556,-0.006522422616212995,0.011977573703344489,0.1781281516798798
5147,10.0,299.67752,-5075.0779999999995,0.0,0.0514699990231644,0.0,0.0,0.0,0.0,0.3120872724206157,0.8285220424687593,0.4020876622804626,-0.007005975353485933,0.0009372901647883371,0.18923051541059782
5148,10.0,299.77312,-5012.934,0.0,0.05148002800064133,0.0,0.0,0.0,0.0,0.2896156143528357,0.8323326126498332,0.40185852590284865,0.0032905488501768867,0.007387536767493113,0.1928925228620098
5149,10.0,300.4156,-5074.5467,0.0,0.051490023988060685,0.0,0.0,0.0,0.0,0.3143245590389187,0.8268607682673041,0.4013501681951776,0.014029594633613187,-0.006113337073839395,0.19291509807423782
5150,10.0,300.07026,-5240.3055,0.0,0.051500019975479816,0.0,0.0,0.0,0.0,0.33647308151730765,0.8454695116538442,0.4109794081355096,0.002702611290251967,-0.005136245715582985,0.18956941717154482
5151,10.0,300.13873,-5163.2799,0.0,0.05151001596289917,0.0,0.0,0.0,0.0,0.3310518287122717,0.8396105550706103,0.39884576858551263,-0.004948735070627125,-0.0014583556701784986,0.2057063977341408
5152,10.0,300.54907000000003,-5027.2019,0.0,0.051520011950318745,0.0,0.0,0.0,0.0,0.3041297431577687,0.8217232052252662,0.40229088985301964,-0.0003174850279558327,0.007083598923771783,0.18796253423545783
5153,10.0,300.36691,-5096.8231,0.0,0.051530007937737876,0.0,0.0,0.0,0.0,0.3104920317281777,0.8255992921578063,0.4132156308412076,-0.005579608495589484,0.005947877689484824,0.2086935907514538
5154,10.0,300.2274,-5214.8651,0.0,0.05154000392515723,0.0,0.0,0.0,0.0,0.3105120738151557,0.8345963146982431,0.44008037657255156,0.0029793303991870173,-0.006238849579626515,0.1910257514077738
5155,10.0,300.09127,-5255.6126,0.0,0.05154999991257636,0.0,0.0,0.0,0.0,0.31605884804257967,0.8464482707204402,0.43506787899035665,0.0006320009899386414,7.210484991394463e-05,0.2048047470001548
5156,10.0,299.70862,-5113.4744,0.0,0.051559995899995714,0.0,0.0,0.0,0.0,0.3133169831394787,0.8280614696358042,0.4129900915014486,0.0071109045954166426,0.006579724645143265,0.17069079462086986
5157,10.0,300.19428999999997,-5023.1499,0.0,0.05157002487747264,0.0,0.0,0.0,0.0,0.3045651569907407,0.8203176348190473,0.40202932947220565,0.0007762187410518253,-0.001151124155682109,0.18295879113412683
5158,10.0,300.39474,-5181.3967,0.0,0.051580020864891774,0.0,0.0,0.0,0.0,0.3319966844305217,0.8381107017425863,0.40490781088628963,-0.011980769494159889,0.004451681586371766,0.17294414125325785
5159,10.0,299.40935,-5380.5796,0.0,0.05159001685231113,0.0,0.0,0.0,0.0,0.34590446411061265,0.8680320987855982,0.4216252925636766,-0.007031650908369913,-0.008216794024234432,0.18938035483538582
5160,10.0,299.77569,-5301.3823,0.0,0.05160001283973048,0.0,0.0,0.0,0.0,0.3358780098660787,0.8491082346179581,0.4265015991999306,-0.0005047891016138054,0.0094729786377352,0.2004291682983188
5161,10.0,299.77743,-5238.907999999999,0.0,0.051610008827149834,0.0,0.0,0.0,0.0,0.3208047291259617,0.8491074341503793,0.42258504305839667,-0.001140246307908549,0.006029364478426944,0.2047014562849608
5162,10.0,299.84085,-5158.6178,0.0,0.05162000481456919,0.0,0.0,0.0,0.0,0.3298213681883347,0.8338261939597383,0.40444342823295865,-0.005521822538411454,-0.013296181919730986,0.21102944633948478
5163,10.0,300.5334,-5109.4074,0.0,0.05163000080198832,0.0,0.0,0.0,0.0,0.3112233753853557,0.8246961316811712,0.4172127606306936,0.008894070453426411,-0.0055003440680916945,0.18826873841567782
5164,10.0,300.1757,-5114.3161,0.0,0.05163999678940767,0.0,0.0,0.0,0.0,0.3073219065378107,0.8282280378197432,0.4190744557019286,0.009659257677194511,0.003222277578314037,0.19547584452196382
5165,10.0,299.83972,-5061.7296,0.0,0.0516500257668846,0.0,0.0,0.0,0.0,0.29885913024509975,0.8231867234047042,0.4165935432295816,0.024373001615427978,0.001202733137600519,0.17322753717372683
5166,10.0,300.33344,-4966.0341,0.0,0.05166002175430373,0.0,0.0,0.0,0.0,0.29621863088200273,0.8226408653108322,0.3906908784681876,-0.011115500518264489,-0.0009307230071802093,0.20401227396444382
5167,10.0,300.26061,-5065.6297,0.0,0.051670017741723084,0.0,0.0,0.0,0.0,0.3012932913578327,0.8359109965704923,0.40262064196556363,0.003695443792786906,0.0022545381131805877,0.19509757799463182
5168,10.0,300.54773,-5180.6546,0.0,0.05168001372914244,0.0,0.0,0.0,0.0,0.3254402672734537,0.8468864203286822,0.4024629599850016,-0.004081004808913816,0.004531923192265996,0.1982553010037748
5169,10.0,299.78667,-5193.2079,0.0,0.05169000971656179,0.0,0.0,0.0,0.0,0.3313491264241127,0.8391377421764472,0.40811864846567464,-0.011543963455550489,-0.00039193713556118367,0.19090279350813882
5170,10.0,299.21983,-5169.0904,0.0,0.051700005703981144,0.0,0.0,0.0,0.0,0.3294167571584027,0.8412054208605112,0.40065224152629764,-0.007201370806744963,-0.006015489538182595,0.1921627193449838
5171,10.0,299.63048,-5157.58,0.0,0.051710001691400276,0.0,0.0,0.0,0.0,0.3323965230524827,0.8279797408827382,0.4073992510271756,-0.012904207131796089,0.0005411240779472885,0.18475538488643684
5172,10.0,300.00051,-5213.5434,0.0,0.05171999767881963,0.0,0.0,0.0,0.0,0.3254689219862817,0.8451847377132392,0.4141333415892786,0.014804705628860684,0.013048851623321388,0.19675651158835583
5173,10.0,299.95035,-5257.2008,0.0,0.05173002665629656,0.0,0.0,0.0,0.0,0.32204224187059466,0.8465279223108012,0.4294876067146266,0.019844392764239084,0.005318733679793145,0.1956377213579398
5174,10.0,300.27721,-5190.7431,0.0,0.05174002264371591,0.0,0.0,0.0,0.0,0.32193412808492466,0.8349140496646011,0.42100812192776665,0.012866187961543887,-0.009145802308270412,0.19165846530021782
5175,10.0,299.78497999999996,-5073.5551,0.0,0.05175001863113504,0.0,0.0,0.0,0.0,0.2941700620948247,0.8354758259175441,0.41258817571678263,-0.006488360998201374,-0.0072138200027736035,0.19056020351682781
5176,10.0,300.59698,-4957.1061,0.0,0.051760014618554395,0.0,0.0,0.0,0.0,0.28891964325664876,0.8115433753130952,0.4063734568909376,-0.0017916426070213583,-0.007097978665215952,0.1803361351052908
5177,10.0,300.89479,-5183.6075,0.0,0.05177001060597375,0.0,0.0,0.0,0.0,0.3165952525130187,0.8434587472278973,0.4156332354473066,0.004854016045979086,-0.00042065402141531957,0.18615004258907883
5178,10.0,300.40749,-5322.0157,0.0,0.0517800065933931,0.0,0.0,0.0,0.0,0.3377758577008817,0.8594158657652421,0.42056814846934465,0.002805708373351857,0.00040515387867307457,0.19789377336809483
5179,10.0,300.24793999999997,-5140.8665,0.0,0.05179000258081223,0.0,0.0,0.0,0.0,0.3248509103527887,0.8370768016055481,0.4007673163401546,-0.001112621969107239,0.010094759054975151,0.1997077747571228
5180,10.0,299.55182,-5069.6018,0.0,0.05179999856823159,0.0,0.0,0.0,0.0,0.31299817412801473,0.8406561075837982,0.38737807753123965,0.004586622283014376,0.012312488325147988,0.2068623539782248
5181,10.0,299.25015,-5280.4249,0.0,0.051810027545708515,0.0,0.0,0.0,0.0,0.33619934187029166,0.8384533322639012,0.4304646533885536,0.0023727287724200977,0.01215792512839379,0.17408280131813483
5182,10.0,299.84373999999997,-5338.3664,0.0,0.05182002353312787,0.0,0.0,0.0,0.0,0.3406291801149827,0.8517601127796781,0.43034079369632955,0.009431802990771482,-0.0014884760492761483,0.16897628425916084
5183,10.0,300.16822,-5246.4653,0.0,0.051830019520547,0.0,0.0,0.0,0.0,0.33441699441438766,0.8433449389766653,0.4170325135704046,-0.014979947233655684,-0.007875350728061602,0.16864199278616884
5184,10.0,300.14564,-5161.3604,0.0,0.05184001550796635,0.0,0.0,0.0,0.0,0.31194838622940874,0.8297003814075522,0.42727590466134857,-8.551202730263002e-05,0.012866918514865988,0.1974175660860968
5185,10.0,299.72502000000003,-5130.6128,0.0,0.051850011495385484,0.0,0.0,0.0,0.0,0.3122764766117887,0.8425582110690213,0.4047434819850716,-0.015244458198760885,0.007736368987370173,0.20122731553458978
5186,10.0,299.99599,-5234.8192,0.0,0.05186000748280506,0.0,0.0,0.0,0.0,0.3122264828518547,0.8648565020446911,0.4141713283355276,0.016041355084408487,0.005895544031094895,0.2135030735436128
5187,10.0,299.79603,-5138.0348,0.0,0.05187000347022441,0.0,0.0,0.0,0.0,0.3240861395748117,0.8237823827409911,0.4139657601552396,-0.006019754307853494,-0.008006089881839554,0.1920803117143508
5188,10.0,299.91017999999997,-4969.6699,0.0,0.051879999457643544,0.0,0.0,0.0,0.0,0.29070095719745076,0.8291379870720482,0.39081662280559765,0.015607796512369588,-0.005722607874252425,0.1889549417809008
5189,10.0,299.58885,-4968.7179,0.0,0.05189002843512025,0.0,0.0,0.0,0.0,0.2909209844566657,0.8182380504463083,0.4012071276785606,-0.0004205817462856866,-0.004633888373679175,0.18706890844226381
5190,10.0,299.24179,-5266.763000000001,0.0,0.051900024422539826,0.0,0.0,0.0,0.0,0.3214065388903557,0.8646667709634662,0.4148911412065676,-0.003971174273599386,-0.01025658867349649,0.1949521968702838
5191,10.0,299.42134,-5499.9945,0.0,0.05191002040995896,0.0,0.0,0.0,0.0,0.35275601062430767,0.8810961552399201,0.4380088171406045,0.001953233605144148,-0.005035305537970965,0.1911259517101628
5192,10.0,299.9504,-5329.8966,0.0,0.05192001639737831,0.0,0.0,0.0,0.0,0.34008495335377165,0.8388473041677831,0.4412232314928426,-0.013563397249353086,0.00988952453794508,0.1972680812988438
5193,10.0,300.1361,-5208.7699,0.0,0.05193001238479744,0.0,0.0,0.0,0.0,0.32286156603395566,0.8444516310008872,0.41602278958075267,-0.006785720315648452,0.017008314853589983,0.18075615766924383
5194,10.0,300.01364,-5195.6859,0.0,0.051940008372216795,0.0,0.0,0.0,0.0,0.3323127374017137,0.8279296761952972,0.4191163535935636,-0.015423513676932286,-0.008840336382073271,0.18384609424669682
5195,10.0,299.78141,-5207.1641,0.0,0.05195000435963637,0.0,0.0,0.0,0.0,0.3153835472484327,0.8403342486895332,0.4271300675744556,0.014627569246378685,0.0028435638023878974,0.17485382384922885
5196,10.0,299.77426,-5104.4771,0.0,0.0519600003470555,0.0,0.0,0.0,0.0,0.31485766031403173,0.8391985371824472,0.3975773922428336,0.025064063514880476,0.007458180969765153,0.2006818120782528
5197,10.0,299.99003999999996,-5040.6341,0.0,0.051969996334474855,0.0,0.0,0.0,0.0,0.2947050581476247,0.8277198422320882,0.4098020013868086,0.021746266241689377,0.0062704199196172644,0.2009777115049558
5198,10.0,300.58702999999997,-4998.7605,0.0,0.05198002531195156,0.0,0.0,0.0,0.0,0.29213191965117574,0.8371093066687563,0.39025715676288264,-0.0029977301090779273,-0.007051736869077244,0.2136167196748288
5199,10.0,300.41816,-5144.5122,0.0,0.051990021299370914,0.0,0.0,0.0,0.0,0.3177800762524517,0.8417055307123682,0.40431764336554465,-0.016295661607756584,-0.01125464508824699,0.19125369215026983
5200,10.0,299.72569,-5300.23,0.0,0.05200001728679027,0.0,0.0,0.0,0.0,0.3417694613800197,0.8448077377485322,0.4245603842608476,-0.0022253753567524483,-0.0036991675882294163,0.1853394526415798
5201,10.0,299.11467999999996,-5255.6864,0.0,0.0520100132742094,0.0,0.0,0.0,0.0,0.3350476716741307,0.8400404973530422,0.4225092722159186,0.0022387158075690477,-0.005580987528975585,0.1798077859731468
5202,10.0,299.8761,-5241.8535,0.0,0.05202000926162875,0.0,0.0,0.0,0.0,0.3210440486670807,0.8574438885531233,0.4149046376978996,-0.002433332983426268,-0.01078933835082479,0.19536228958325683
5203,10.0,299.5869,-5326.8363,0.0,0.05203000524904833,0.0,0.0,0.0,0.0,0.33424630230254165,0.8594064425393122,0.4255724691232326,0.006096346592187564,0.0032614725239822773,0.19099523231476181
5204,10.0,299.66291,-5328.8726,0.0,0.05204000123646746,0.0,0.0,0.0,0.0,0.33190382005885666,0.8681452686892671,0.4197951298355536,0.014280593908634887,0.019008435087236483,0.21228857170875082
5205,10.0,299.72112999999996,-5156.8314,0.0,0.05204999722388681,0.0,0.0,0.0,0.0,0.32170560978987167,0.8351501876004062,0.41069218212966263,0.018619535513355084,0.01881654882304878,0.1906668176923498
5206,10.0,300.27687000000003,-5014.5629,0.0,0.05206002620136352,0.0,0.0,0.0,0.0,0.2979682503596767,0.8294157594544622,0.39691788801774563,-0.006016777581709714,-0.0026130938863172877,0.20573499165196282
5207,10.0,300.36615,-5016.5235,0.0,0.05207002218878287,0.0,0.0,0.0,0.0,0.3034172054224467,0.8261192718441243,0.3953614142741336,-0.008530860113305342,-0.0008774653153615842,0.18776446410590983
5208,10.0,300.50422000000003,-5093.7653,0.0,0.052080018176202225,0.0,0.0,0.0,0.0,0.3031291992140227,0.8316883173087463,0.41355995349018965,-0.012771665912715289,-0.011251229422159888,0.20231142221408283
5209,10.0,300.59657000000004,-5176.683,0.0,0.052090014163621357,0.0,0.0,0.0,0.0,0.3041465124469237,0.8495144263180463,0.41992143146051863,0.001938986599463078,0.0028908602905556974,0.2026551470455058
5210,10.0,300.2317,-5221.4104,0.0,0.05210001015104093,0.0,0.0,0.0,0.0,0.3212091881683787,0.8335871783936492,0.43238203668528463,-0.0001132346098203859,-0.021305359579925277,0.1983580344314138
5211,10.0,299.75336,-5203.4751,0.0,0.05211000613846006,0.0,0.0,0.0,0.0,0.3305092535487237,0.8354111602961621,0.41580607564936456,-0.0032568540287014665,-0.001897825644625808,0.18923418337595982
5212,10.0,300.12937999999997,-5172.0455,0.0,0.05212000212587942,0.0,0.0,0.0,0.0,0.3377867906694607,0.8226086439576522,0.41177724126424964,0.008385910228199902,0.014407317045641488,0.18239852462383283
5213,10.0,299.67575,-5316.4815,0.0,0.05212999811329877,0.0,0.0,0.0,0.0,0.3549171920275997,0.8338937473439053,0.42726669421793956,0.0027245232289645075,0.002477803517065168,0.17160216242331483
5214,10.0,300.29939,-5253.3125,0.0,0.052140027090775476,0.0,0.0,0.0,0.0,0.3295401507555807,0.8391957507446722,0.42813992328662054,0.014042467976133687,-0.0011852012764202587,0.1866764564135318
5215,10.0,299.77599,-5153.0921,0.0,0.05215002307819483,0.0,0.0,0.0,0.0,0.3095595477936487,0.8370400814219241,0.4198117066071896,-0.015004143646043685,0.0023214617624104377,0.1970401912188528
5216,10.0,299.76062,-5151.5939,0.0,0.05216001906561418,0.0,0.0,0.0,0.0,0.3070155706350777,0.8612610245948451,0.3976793252028936,0.004706143643610216,0.009428189740914882,0.21346322241717977
5217,10.0,299.56233,-5115.1166,0.0,0.052170015053033536,0.0,0.0,0.0,0.0,0.3259327777495607,0.8317211060819822,0.39721383810695365,-0.009343937488474832,0.004068642347093736,0.1971040361076538
5218,10.0,300.2516,-5057.1373,0.0,0.05218001104045289,0.0,0.0,0.0,0.0,0.3002448308168577,0.8470839331706752,0.3899146883615836,0.0015784287454537885,0.006055656292021744,0.20858442318567977
5219,10.0,300.0,-5098.795,0.0,0.05219000702787202,0.0,0.0,0.0,0.0,0.32570120957170673,0.8295932200769762,0.3946119537051676,0.017251748190114984,0.0007865097143674653,0.18198419652544184
5220,10.0,300.14706,-5152.266,0.0,0.052200003015291374,0.0,0.0,0.0,0.0,0.2932383684953737,0.8504890715892361,0.4224327617008676,0.01014864714034349,5.1791815806204254e-05,0.2015694799608588
5221,10.0,300.07024,-5098.7036,0.0,0.05220999900271073,0.0,0.0,0.0,0.0,0.2980773267329417,0.8420342391773091,0.4097670138608556,-0.0018419135921827182,-0.0032984376101554474,0.19325314870510082
5222,10.0,300.8342,-5245.6056,0.0,0.05222002798018743,0.0,0.0,0.0,0.0,0.3170326016536817,0.8504472243601062,0.4270532936143786,-0.006172399624818414,-0.01906413040548318,0.2148235309414318
5223,10.0,300.64197,-5422.798000000001,0.0,0.052230023967606565,0.0,0.0,0.0,0.0,0.3595459312669207,0.8570967186713602,0.4317525347956576,-0.0027659765064556273,0.009100164814491342,0.1950896949088538
5224,10.0,300.01189,-5325.9875,0.0,0.05224001995502614,0.0,0.0,0.0,0.0,0.34681281242775963,0.8584351713909553,0.4137192161409076,0.0040774623852392064,0.00965341781024316,0.1996023460842178
5225,10.0,299.73062000000004,-5094.2248,0.0,0.052250015942445494,0.0,0.0,0.0,0.0,0.3252626546634247,0.8278846372283521,0.39536983438246465,0.0034266200299560667,0.009754229406417491,0.18920636966071483
5226,10.0,299.42967999999996,-5111.3306,0.0,0.05226001192986485,0.0,0.0,0.0,0.0,0.3089405026450537,0.8353962857846942,0.4093800739126676,0.004290263246066016,-0.005818972518387874,0.1864544634491228
5227,10.0,299.5594,-5182.2238,0.0,0.05227000791728398,0.0,0.0,0.0,0.0,0.30839779575899273,0.8514308267621802,0.4154380024180386,0.014407708160180088,0.0024175277004164076,0.2051025614695468
5228,10.0,300.3116,-5149.3767,0.0,0.05228000390470333,0.0,0.0,0.0,0.0,0.3065908465906607,0.8479267748688571,0.4107643356692836,0.01039660970481549,0.0011545355661187887,0.1933755797146838
5229,10.0,299.92533,-5170.9606,0.0,0.052289999892122685,0.0,0.0,0.0,0.0,0.3122686441885157,0.8436037230522052,0.4159705464055966,-0.0035445310321679763,-0.01159477794806549,0.20841694307665082
5230,10.0,300.10081,-5157.4659,0.0,0.05229999587954204,0.0,0.0,0.0,0.0,0.3334655525704877,0.8299873541008742,0.4042879450051136,-0.019832053404521283,-0.012504693763117187,0.17137598473599286
5231,10.0,299.71005,-5229.4123,0.0,0.05231002485701852,0.0,0.0,0.0,0.0,0.33866799401642866,0.8446579692512513,0.4062848076396886,-0.006093733116204634,0.003523900145556867,0.19421274721230583
5232,10.0,300.03014,-5367.2248,0.0,0.052320020844437876,0.0,0.0,0.0,0.0,0.32941427469565765,0.860791626353519,0.4412964286800666,-0.0006369833939928664,0.01217747376257309,0.17588384323838385
5233,10.0,300.36377000000005,-5347.5917,0.0,0.05233001683185745,0.0,0.0,0.0,0.0,0.3259468821909527,0.8654339228791782,0.43415355249761955,0.009282650954851321,0.004197683901654147,0.1910414669168248
5234,10.0,300.31784,-5175.3779,0.0,0.052340012819276804,0.0,0.0,0.0,0.0,0.3081450911840527,0.8412379968512261,0.42380257451105763,-0.009342950076252382,-0.0015275281266802887,0.2033146107405898
5235,10.0,300.07441,-5230.4091,0.0,0.052350008806695936,0.0,0.0,0.0,0.0,0.3250557591255057,0.8573440023582652,0.4075140117335016,0.009118250315526242,0.002995286757786787,0.2041074890763408
5236,10.0,300.03422,-5278.0125,0.0,0.05236000479411507,0.0,0.0,0.0,0.0,0.33930257228905664,0.8563020063529282,0.4087794293858886,-0.003076803437606857,0.015104309497929288,0.2136563985487448
5237,10.0,299.9189,-5082.4079,0.0,0.05237000078153464,0.0,0.0,0.0,0.0,0.3199903597555897,0.8356763177148313,0.3892583961393126,0.018555161708001883,0.004652885698479065,0.2006618814487858
5238,10.0,299.99194,-4989.3316,0.0,0.052379996768953996,0.0,0.0,0.0,0.0,0.27566689936870475,0.8352617768339192,0.4057035465873226,-0.013258419101754088,-0.004639625699720405,0.2073575090370928
5239,10.0,299.63911,-5139.7639,0.0,0.05239002574643048,0.0,0.0,0.0,0.0,0.2924920388692167,0.8507632874637991,0.4191045593623996,-0.0018639156088291482,-0.006377070572142864,0.1895057445352608
5240,10.0,299.16535,-5268.2035,0.0,0.052400021733850055,0.0,0.0,0.0,0.0,0.30802731099242875,0.8659124707689071,0.4274625250647666,0.00015127995232266884,-0.008567468535443311,0.19578989125795782
5241,10.0,299.87732,-5336.339,0.0,0.05241001772126941,0.0,0.0,0.0,0.0,0.33688496768295767,0.8593846576621622,0.4258441924025496,-0.0030546036345409067,-0.01198768796584269,0.18862583814842082
5242,10.0,300.32655,-5421.9023,0.0,0.05242001370868876,0.0,0.0,0.0,0.0,0.36393648580523463,0.8505338977736601,0.43365253072067256,-0.002221601608080008,-0.014796151771516485,0.17618368420797584
5243,10.0,300.14031,-5335.0568,0.0,0.05243000969610789,0.0,0.0,0.0,0.0,0.3534060308284596,0.8382413096804762,0.4300767103227666,0.0032864991935022164,0.01120491274683879,0.19331872625157281
5244,10.0,299.78774,-5232.5470000000005,0.0,0.052440005683527025,0.0,0.0,0.0,0.0,0.3178176475661597,0.8495417840707461,0.4232041996645026,0.001790564610239968,0.025283412909778577,0.17942869871323383
5245,10.0,300.5002,-5216.93,0.0,0.05245000167094638,0.0,0.0,0.0,0.0,0.3092627668393587,0.8544949761245881,0.4220587102939516,0.0062951611565840344,0.009109339591496821,0.2101152414367598
5246,10.0,300.56101,-5235.3263,0.0,0.05245999765836595,0.0,0.0,0.0,0.0,0.3208937735447497,0.8338194153165691,0.43669529037346955,-0.01062430524078729,-0.00902146659114943,0.18173560574590783
5247,10.0,300.11025,-5074.1387,0.0,0.05247002663584266,0.0,0.0,0.0,0.0,0.3102202273888527,0.8337436444740912,0.39844759169371563,-0.007569140974966054,-0.00972684804499016,0.2157127490966908
5248,10.0,299.83616,-5014.7491,0.0,0.05248002262326201,0.0,0.0,0.0,0.0,0.30629382245634673,0.8223307297202243,0.3957339559384006,-0.004471809292983216,-0.005048063167330045,0.18556004732085082
5249,10.0,299.7757,-5151.8242,0.0,0.052490018610681144,0.0,0.0,0.0,0.0,0.3131476183852637,0.8504813810209771,0.40239692647598463,-0.003437529085832707,-0.014181934759647985,0.2054284632317108
5250,10.0,299.40397,-5270.9295,0.0,0.05250001459810072,0.0,0.0,0.0,0.0,0.31388567989060473,0.8554195060458322,0.4329257568214456,0.006614871859312024,-0.026272594266903176,0.1851411089345048
5251,10.0,299.66905,-5326.9103,0.0,0.05251001058551985,0.0,0.0,0.0,0.0,0.32268838132686367,0.8681185492841301,0.4284407977713146,0.021973109634327078,-0.0014875356518583385,0.2029392927710488
5252,10.0,299.55749,-5310.6767,0.0,0.05252000657293898,0.0,0.0,0.0,0.0,0.3293823370525057,0.8492199758389861,0.43571078617880654,0.003993501543527915,0.02920509305706827,0.18477396789327083
5253,10.0,299.50518999999997,-5154.6077,0.0,0.05253000256035856,0.0,0.0,0.0,0.0,0.31348934711398974,0.8540641016520643,0.39931858147967564,-0.0048826110783761955,0.002519363591116827,0.2049998888369138
5254,10.0,299.72918,-5132.349,0.0,0.05253999854777769,0.0,0.0,0.0,0.0,0.3157314264052657,0.8358805382724862,0.4084939765677166,-0.024442256246512875,0.004288736784790366,0.1985876571690758
5255,10.0,300.54889,-5259.9988,0.0,0.05255002752525462,0.0,0.0,0.0,0.0,0.3421393483290247,0.8423348603494781,0.4144340944839606,-0.0014867457220803786,0.007313707312206713,0.2051011631844088
5256,10.0,300.217,-5194.5687,0.0,0.05256002351267397,0.0,0.0,0.0,0.0,0.3105229459887287,0.8583815197981601,0.4101146903676686,0.00017264227378346585,0.02096367138120328,0.2000341324818318
5257,10.0,300.13523,-4985.6001,0.0,0.0525700195000931,0.0,0.0,0.0,0.0,0.2950691493060577,0.8203459652918432,0.40008283550010165,-0.0038506100760006263,-0.0028576706755801375,0.2098216826177878
5258,10.0,299.81127000000004,-5239.0134,0.0,0.052580015487512455,0.0,0.0,0.0,0.0,0.3128787828687317,0.8528692568691423,0.4267812258300276,-0.0024304883850955277,-0.022640988371491578,0.18546250173372383
5259,10.0,299.98278,-5311.4814,0.0,0.05259001147493181,0.0,0.0,0.0,0.0,0.3416233608481007,0.8511721338791493,0.4217622130496896,0.013923964323938288,-0.011397431279088889,0.19164812001669682
5260,10.0,300.22649,-5229.7187,0.0,0.05260000746235116,0.0,0.0,0.0,0.0,0.3248648324091627,0.8389842145212952,0.4258548619261026,0.018096033769689483,0.0019136515979377082,0.17384815285997682
5261,10.0,300.21115,-5248.4906,0.0,0.052610003449770515,0.0,0.0,0.0,0.0,0.3243863250494377,0.8651031271190313,0.40592065568624963,0.0072964345390770236,-0.00999142406075178,0.20183690705975182
5262,10.0,299.7963,-5334.7982,0.0,0.052619999437189646,0.0,0.0,0.0,0.0,0.33149360575587167,0.8501749843232381,0.4399768528098346,-0.013425246677718687,-0.020421023263648082,0.16883310188752984
5263,10.0,299.27103,-5286.3607,0.0,0.052630028414666574,0.0,0.0,0.0,0.0,0.33593303947900965,0.8544916222667572,0.41649698049505157,-0.0014029283565832487,0.0018932850682776884,0.20778054095384282
5264,10.0,299.27749,-5292.482,0.0,0.05264002440208593,0.0,0.0,0.0,0.0,0.33414887830542667,0.8499611074921303,0.42467237879440056,-0.0006911274567339694,0.020127634670692878,0.1911368644137398
5265,10.0,299.80998999999997,-5299.4421,0.0,0.05265002038950506,0.0,0.0,0.0,0.0,0.3392196681658747,0.8519367628021123,0.4197416504952756,-0.003177983350192537,-0.008244496585943461,0.2025001805752118
5266,10.0,300.20524,-5116.9609,0.0,0.05266001637692441,0.0,0.0,0.0,0.0,0.3086291004918207,0.8404689197603241,0.4063303127016796,-0.018691191547176984,-0.001083218363130329,0.19056045682935283
5267,10.0,299.62231,-5143.7365,0.0,0.052670012364343766,0.0,0.0,0.0,0.0,0.30623036260258374,0.8489087358057691,0.4084283584912406,-0.0006498518729128864,0.012088661378057988,0.19729511481151182
5268,10.0,300.30991,-5189.5041,0.0,0.05268000835176312,0.0,0.0,0.0,0.0,0.3168420498398757,0.8477657592954663,0.4128718756122816,0.002996442268200827,0.01992373936631998,0.1963854188717318
5269,10.0,300.16802,-5154.0989,0.0,0.05269000433918247,0.0,0.0,0.0,0.0,0.30943344881870366,0.8576822455066472,0.3996016835576156,-0.0005634149924622305,-0.01954769489645728,0.2108908134608028
5270,10.0,299.88152,-5103.0818,0.0,0.052700000326601604,0.0,0.0,0.0,0.0,0.30065500458983874,0.8446813854610622,0.40587305319655165,-0.02049505232920418,-0.025549070873996976,0.19749885914161983
5271,10.0,299.65561,-5227.313,0.0,0.05270999631402096,0.0,0.0,0.0,0.0,0.3237323734348977,0.8532910728857722,0.4119491594087166,-0.003695805117772567,-0.02169588339371698,0.18718308146353183
5272,10.0,300.27777000000003,-5312.1263,0.0,0.052720025291497885,0.0,0.0,0.0,0.0,0.32649949866299166,0.8598890434294412,0.42836520931385463,-0.002904560343832787,0.004405445971058666,0.1972669869887358
5273,10.0,299.72317000000004,-5275.4673,0.0,0.052730021278917016,0.0,0.0,0.0,0.0,0.31957301217190065,0.8553472005186961,0.4286901282234216,0.01061522246689089,-0.02163561933076938,0.18986055432277782
5274,10.0,300.45839,-5263.9583,0.0,0.05274001726633637,0.0,0.0,0.0,0.0,0.3277148516279377,0.8491847856630133,0.4232122448702966,0.004964226448756006,-0.018164752391471483,0.19860207571799882
5275,10.0,299.96304,-5253.3611,0.0,0.05275001325375572,0.0,0.0,0.0,0.0,0.34373899665939767,0.8443943418402332,0.4087572392086986,0.014208431249762987,-0.0024201000384452775,0.19393162097206082
5276,10.0,299.92269,-5137.912,0.0,0.052760009241175077,0.0,0.0,0.0,0.0,0.3250063935806337,0.8389959783549561,0.39779459253426963,0.006564031832894505,0.017715455005629283,0.2103909974514748
5277,10.0,299.16445,-5115.8003,0.0,0.05277000522859443,0.0,0.0,0.0,0.0,0.32273921608438066,0.8372558327657171,0.3950805008164096,-0.018443894688020684,0.007046045240615524,0.1981536112237388
5278,10.0,299.46091,-5188.505,0.0,0.05278000121601356,0.0,0.0,0.0,0.0,0.30386341036898373,0.8423383155323192,0.43097424726134653,-0.01886861062643688,-0.0011924204807327388,0.18454005910768584
5279,10.0,299.31127999999995,-5261.4082,0.0,0.052789997203432915,0.0,0.0,0.0,0.0,0.30147603101336773,0.8607465671215723,0.43711410716980365,-0.009354910581757792,0.01021130956627779,0.18053137826705984
5280,10.0,299.9425,-5241.9617,0.0,0.05280002618090984,0.0,0.0,0.0,0.0,0.3254489001643057,0.8425818603263552,0.4253947146581896,-0.006796223260885014,0.0037386813023791163,0.1891741888375388
5281,10.0,299.91425,-5338.9164,0.0,0.052810022168328974,0.0,0.0,0.0,0.0,0.3371916480907247,0.8615812521564492,0.42412437261031655,0.01049618989814329,-0.013805926766788885,0.19282810042065182
5282,10.0,300.21632,-5227.0397,0.0,0.05282001815574833,0.0,0.0,0.0,0.0,0.3327133258287487,0.8496815315245382,0.40649468213290163,0.0043715757559909365,-0.02029867736707348,0.19741114208046281
5283,10.0,300.22944,-5248.9211,0.0,0.05283001414316768,0.0,0.0,0.0,0.0,0.33217737732085467,0.8498040739916322,0.4135595076601456,0.01980387187948998,-0.000872994643137863,0.1941364900097798
5284,10.0,300.56152000000003,-5328.6104,0.0,0.052840010130587034,0.0,0.0,0.0,0.0,0.3298412278902947,0.8578536164960603,0.4320696618119556,0.012339520824565887,0.01186539982452379,0.2071535721894658
5285,10.0,300.02502999999996,-5211.5544,0.0,0.05285000611800639,0.0,0.0,0.0,0.0,0.3131820384911607,0.8454581733852252,0.4255421932102446,-0.006730315597530433,-0.012047652106760688,0.17749299585469483
5286,10.0,300.15547999999995,-5055.8825,0.0,0.05286000210542552,0.0,0.0,0.0,0.0,0.3001383280988467,0.8419478596062843,0.3947758570413436,-0.014462502699087887,-0.01341659757486509,0.2082778643679248
5287,10.0,299.47265,-5217.9432,0.0,0.05286999809284487,0.0,0.0,0.0,0.0,0.3178468696990437,0.8435492101968252,0.4247283507299246,-0.007831671238775774,0.0005495186219782654,0.18539749160730784
5288,10.0,299.58754,-5315.9538,0.0,0.0528800270703218,0.0,0.0,0.0,0.0,0.3400484054226647,0.8655632845194452,0.4103055360240036,-0.002716743494696708,0.021542262519555776,0.2196338142011698
5289,10.0,299.44391,-5289.4536,0.0,0.05289002305774093,0.0,0.0,0.0,0.0,0.3352953809260777,0.8626371702181602,0.4099292655993686,-0.009546226183489171,-0.0033020551156624665,0.1945468866977828
5290,10.0,299.74489,-5298.1942,0.0,0.052900019045160285,0.0,0.0,0.0,0.0,0.3067191341858217,0.8670537044890381,0.43674591234846555,-0.007716258607335432,-0.002075172276503558,0.2032075304700218
5291,10.0,299.9849,-5286.8745,0.0,0.05291001503257964,0.0,0.0,0.0,0.0,0.3281065234540927,0.8499209929206711,0.42905033863397163,0.007113709271693443,-0.002927979593394087,0.16983500358640985
5292,10.0,300.53427999999997,-5235.0524,0.0,0.05292001101999877,0.0,0.0,0.0,0.0,0.3120514540295807,0.8524959248697971,0.42677782130969155,0.01041608031873709,0.015545985216519285,0.19995611222413182
5293,10.0,299.55964,-5346.7868,0.0,0.052930007007418345,0.0,0.0,0.0,0.0,0.3520950979815807,0.8458412021880272,0.4273533676314936,-0.01137992434386109,-0.009535311554736981,0.18641259595499082
5294,10.0,300.3912,-5369.7623,0.0,0.052940002994837476,0.0,0.0,0.0,0.0,0.3528767697712257,0.8593094441072392,0.4200874322244016,-0.013298759627985386,-0.01170395361984029,0.2057026284437688
5295,10.0,300.72937,-5193.6058,0.0,0.05294999898225683,0.0,0.0,0.0,0.0,0.33164094245291265,0.8325081278321551,0.4145774085781046,-0.006667974371877833,0.014850985827178184,0.19255301315100282
5296,10.0,299.87556,-5214.2043,0.0,0.052960027959733535,0.0,0.0,0.0,0.0,0.30562111558245575,0.8627348373952992,0.41663193527587056,0.01077117280303199,0.014325514325318187,0.2127696932537338
5297,10.0,299.34646000000004,-5305.1368,0.0,0.05297002394715289,0.0,0.0,0.0,0.0,0.3256083350675407,0.8570699384712173,0.4299508545278456,-0.006842283279955784,-0.009212276378430893,0.16914531464084284
5298,10.0,300.03645,-5219.7549,0.0,0.052980019934572464,0.0,0.0,0.0,0.0,0.29841364470613374,0.8509964768418131,0.4372650307721986,-0.007115134914584144,-0.013831872048849487,0.19358535288288684
5299,10.0,300.33747999999997,-5271.7708,0.0,0.052990015921991596,0.0,0.0,0.0,0.0,0.3201849037747897,0.8615779084311191,0.4207238850097146,0.009702585467370631,-0.004725445044765115,0.19397110732845782
5300,10.0,300.50784,-5392.4605,0.0,0.05300001190941073,0.0,0.0,0.0,0.0,0.3378497945606787,0.8735509681052682,0.4277725897278676,0.00931492590896161,0.015804571708289784,0.2039008265859448
5301,10.0,300.10763,-5381.968000000001,0.0,0.0530100078968303,0.0,0.0,0.0,0.0,0.3382245451101637,0.8718222114471531,0.4259371378342226,-0.005348114183667776,0.003061696689215937,0.1987830523183598
5302,10.0,299.77307,-5267.7205,0.0,0.053020003884249434,0.0,0.0,0.0,0.0,0.33070722235326167,0.8535201180708771,0.4170281464624736,-0.006194399108339594,-0.008090365337706892,0.20211784078247783
5303,10.0,299.81378,-5229.0347,0.0,0.05302999987166879,0.0,0.0,0.0,0.0,0.3252439399340777,0.8266578142722742,0.43759421546468663,-0.007365951095312774,0.014492140264512884,0.17915133163085983
5304,10.0,299.72844,-5186.835,0.0,0.05303999585908814,0.0,0.0,0.0,0.0,0.30389107209671373,0.8534018819167081,0.41937537071662656,0.013189166497169386,0.007347080426775384,0.1995543382944798
5305,10.0,298.89945,-5113.8826,0.0,0.05305002483656507,0.0,0.0,0.0,0.0,0.3141263166568537,0.8275611571339272,0.4128051530931966,0.007758232796702963,-0.01032537011678469,0.18638520780478784
5306,10.0,298.98418,-5221.8378,0.0,0.05306002082398442,0.0,0.0,0.0,0.0,0.3298964702857467,0.8470726151670582,0.41033922658982863,-0.007434165321194993,-0.013864038686524088,0.2029181158439588
5307,10.0,299.2787,-5312.4299,0.0,0.05307001681140355,0.0,0.0,0.0,0.0,0.3409895323805467,0.8540041172461441,0.4198523987312056,0.005858019225566485,-0.003894801459236976,0.1960461219432458
5308,10.0,299.47364,-5251.54,0.0,0.053080012798822684,0.0,0.0,0.0,0.0,0.32570645820722466,0.8575545151990412,0.4130760657724336,0.002132797228240698,0.00946779039192316,0.2076410670775778
5309,10.0,299.6652,-5205.7142,0.0,0.05309000878624204,0.0,0.0,0.0,0.0,0.3143468606736197,0.8402420024004291,0.42781826704237563,0.0007803033649874463,-0.009685895920998501,0.17664528042353184
5310,10.0,299.95474,-5277.6561,0.0,0.05310000477366139,0.0,0.0,0.0,0.0,0.3264418143347987,0.8463806565412672,0.43145318018611356,-0.00047713201456926356,-0.014838886607734086,0.18359942864235282
5311,10.0,300.2942,-5282.648,0.0,0.05311000076108097,0.0,0.0,0.0,0.0,0.3402496672900277,0.8441288196515281,0.4214145872053816,-0.0016245260521282382,-0.0024225556500626277,0.16918093038185783
5312,10.0,300.24844,-5242.3887,0.0,0.0531199967485001,0.0,0.0,0.0,0.0,0.3294412474133197,0.8642991435621843,0.3998148713786556,0.012064046493378687,0.01074767046696249,0.22392885978505778
5313,10.0,299.80564,-5297.1141,0.0,0.053130025725976804,0.0,0.0,0.0,0.0,0.3349744440894037,0.8581713109324142,0.4170446827041056,-0.006375766316614144,0.00029874021521336365,0.1877213300491528
5314,10.0,300.30717999999996,-5088.4127,0.0,0.05314002171339638,0.0,0.0,0.0,0.0,0.3101835578677337,0.8409912805843772,0.3955755748152696,-0.0007227986455071722,-0.01094821191350439,0.21022261554985683
5315,10.0,300.60568,-5049.8639,0.0,0.05315001770081551,0.0,0.0,0.0,0.0,0.2960328818736707,0.8332465034450273,0.4057531350472166,0.005763612180624235,0.008277209264096952,0.2005180404645898
5316,10.0,300.15227000000004,-5254.6146,0.0,0.05316001368823464,0.0,0.0,0.0,0.0,0.31806458674803073,0.8594650691900981,0.4197419544703056,0.007952276979628633,0.012676405204563788,0.2124701866566748
5317,10.0,300.20829,-5298.4019,0.0,0.053170009675653995,0.0,0.0,0.0,0.0,0.32656478236693465,0.8674815797412663,0.4165355042638536,-0.005770192429423655,0.00011164398954840389,0.1962124976096658
5318,10.0,300.28716000000003,-5161.8539,0.0,0.05318000566307335,0.0,0.0,0.0,0.0,0.31337059420226976,0.8530889801533272,0.4026151096200176,-0.018641796618052084,-0.017337385048816684,0.2072562954846038
5319,10.0,299.69878,-5323.6193,0.0,0.053190001650492924,0.0,0.0,0.0,0.0,0.3439951057546737,0.8631267929314822,0.4111254478724226,-0.0003139682293762517,0.004853444370272665,0.1959772918639528
5320,10.0,299.58924,-5324.8431,0.0,0.053199997637912055,0.0,0.0,0.0,0.0,0.3290425233664687,0.8583348900285582,0.4312419378052656,0.004851746365755086,0.007889347359642963,0.19760485523458082
5321,10.0,299.53722999999997,-5163.3683,0.0,0.05321002661538876,0.0,0.0,0.0,0.0,0.3130500930631387,0.8425303061612672,0.4139546448016426,0.0005589240653690105,0.0057771845643887244,0.19383332557985983
5322,10.0,299.26031,-5190.9569,0.0,0.053220022602808115,0.0,0.0,0.0,0.0,0.3138605918181287,0.8416579890176762,0.4224027188354026,0.008053641405057523,-0.022046648286834777,0.18228306477493783
5323,10.0,300.01788999999997,-5258.2168,0.0,0.05323001859022747,0.0,0.0,0.0,0.0,0.3501237489845237,0.8428493178227512,0.4053935325867266,0.01796374282338338,-0.0065868288455693935,0.18837032687070382
5324,10.0,300.16279,-5321.022,0.0,0.0532400145776466,0.0,0.0,0.0,0.0,0.3246957209674727,0.8719216518119671,0.4208404594337196,0.022639464443341178,0.006764005251430343,0.20455879067088079
5325,10.0,300.26885,-5399.9637,0.0,0.05325001056506595,0.0,0.0,0.0,0.0,0.3459208078347257,0.8728008083937332,0.4227325114779506,-0.0018215757375005283,-0.00017507404362596284,0.2023611119989868
5326,10.0,300.56252,-5345.6046,0.0,0.053260006552485306,0.0,0.0,0.0,0.0,0.3251076273981247,0.8577087217317603,0.44211398978825356,-0.016611493690426783,-0.006774131470279724,0.1904499416409458
5327,10.0,300.34274,-5246.1332,0.0,0.05327000253990466,0.0,0.0,0.0,0.0,0.3363660417767437,0.8416859749854383,0.41664145982681056,-0.004449586489139995,0.013936230729648886,0.19050761583663783
5328,10.0,299.09418,-5200.7459,0.0,0.05327999852732401,0.0,0.0,0.0,0.0,0.30946826409213973,0.8424007621359821,0.4290278647467536,0.017944057400440583,0.02067928044913608,0.1884849761195188
5329,10.0,299.21135,-5269.4859,0.0,0.05329002750480072,0.0,0.0,0.0,0.0,0.34209149252680165,0.8474632534781112,0.41223737839966157,-0.015992465767083484,0.0029566130279699873,0.19562983827216182
5330,10.0,299.57982000000004,-5291.7241,0.0,0.05330002349222007,0.0,0.0,0.0,0.0,0.3048169901705947,0.8693855273416712,0.43434946440445454,0.00027130378364309874,-0.016536914430066385,0.19787928389166481
5331,10.0,300.05067,-5180.878,0.0,0.053310019479639426,0.0,0.0,0.0,0.0,0.3312202511438937,0.8528200737092883,0.3908172104906556,-0.0011574924325606088,0.0005952480580714095,0.2094632656599148
5332,10.0,300.10972999999996,-5356.0704,0.0,0.05332001546705856,0.0,0.0,0.0,0.0,0.3235167335486157,0.8741764169944951,0.43041850997899955,0.020271211196612782,0.004721048147281175,0.19287625006540382
5333,10.0,299.66573999999997,-5340.0019,0.0,0.05333001145447791,0.0,0.0,0.0,0.0,0.33771882185275265,0.8657396406993503,0.4197687650679516,0.0007439126295009603,0.0031322277114518068,0.1991021653048538
5334,10.0,300.16933,-5196.1985,0.0,0.053340007441897264,0.0,0.0,0.0,0.0,0.3026006879618627,0.8614261742286441,0.41548772260044564,-0.012758460224161989,-0.015997409414321383,0.18220419338715382
5335,10.0,300.61807000000005,-5288.7331,0.0,0.05335000342931662,0.0,0.0,0.0,0.0,0.33415186739322167,0.8577270412935682,0.4157639041802026,0.0008436660784633592,0.013420645509014588,0.20270011508494382
5336,10.0,299.96024,-5355.3922,0.0,0.05335999941673597,0.0,0.0,0.0,0.0,0.33142102665120865,0.8542387251742981,0.44224574269875655,0.0006917036312708334,0.007029696146276993,0.1984918746371228
5337,10.0,300.11023,-5185.6135,0.0,0.053370028394212676,0.0,0.0,0.0,0.0,0.3283886325469347,0.8457600205900152,0.4021483660939536,-0.005239134170487285,0.0017148931675967784,0.21952694671312278
5338,10.0,299.91844,-5254.7598,0.0,0.05338002438163203,0.0,0.0,0.0,0.0,0.3069655971401457,0.8513934074359871,0.4389567734041606,-0.009041893206540383,-0.02021898828645878,0.18347116131219382
5339,10.0,299.88824,-5345.2363,0.0,0.05339002036905138,0.0,0.0,0.0,0.0,0.33178284812941766,0.8621703557645892,0.43086517088808163,-0.0007626913253267732,0.009421637964443272,0.1919420030757008
5340,10.0,299.65688,-5287.9655,0.0,0.053400016356470514,0.0,0.0,0.0,0.0,0.3246240335228977,0.8582732945549791,0.42451213329108556,0.008201688795718661,0.0006546767875040684,0.1940051018693128
5341,10.0,299.63675,-5275.1731,0.0,0.05341001234389009,0.0,0.0,0.0,0.0,0.33805447108087866,0.8470570111155182,0.4184094292637956,-0.007910169243897923,-0.004268520621445186,0.2007385034213478
5342,10.0,299.14705,-5401.3125,0.0,0.05342000833130922,0.0,0.0,0.0,0.0,0.3401434482820447,0.8762650395581262,0.4254556515192036,-0.0044300314714850655,-0.02350076249209468,0.1913676219915138
5343,10.0,299.87829,-5286.9334,0.0,0.053430004318728574,0.0,0.0,0.0,0.0,0.32672379170512766,0.8588986522516971,0.4214733050486766,0.0034403646662375565,0.012701623986302688,0.18250798603213583
5344,10.0,300.13521000000003,-5258.8597,0.0,0.05344000030614793,0.0,0.0,0.0,0.0,0.3172540778605397,0.8492120724882062,0.4320958847245436,0.0067004500508329335,0.012108928406558188,0.18943935638870882
5345,10.0,299.78731,-5391.3698,0.0,0.05344999629356706,0.0,0.0,0.0,0.0,0.3599494074567407,0.8519764619410302,0.42691592729832156,0.0021782854702800383,-0.0019797926127903182,0.17696986496056583
5346,10.0,299.11892,-5363.8023,0.0,0.05346002527104399,0.0,0.0,0.0,0.0,0.3400184334847067,0.8471457718242783,0.44329776988008357,-0.004136946042959786,-0.009365129512991321,0.18431955562092384
5347,10.0,300.18169,-5247.4086,0.0,0.05347002125846312,0.0,0.0,0.0,0.0,0.3175021316175207,0.8668707925809862,0.4107082421437476,0.002128978288613798,0.01009235592971298,0.2097433887825608
5348,10.0,300.69807000000003,-5327.8173,0.0,0.053480017245882694,0.0,0.0,0.0,0.0,0.32795082744372667,0.8621095810235913,0.42946303539970154,0.003965444546933906,-0.004347721822136736,0.2137727804552308
5349,10.0,299.94897000000003,-5391.7969,0.0,0.05349001323330205,0.0,0.0,0.0,0.0,0.3313680742009827,0.8731245316681823,0.43447902869474153,-0.0028336716443116174,-0.0004788443971057625,0.2071713648612218
5350,10.0,300.42429,-5155.733,0.0,0.05350000922072118,0.0,0.0,0.0,0.0,0.29712072744603274,0.8495189150159892,0.4205744508849666,-0.0027867606978068675,-0.025739151526506476,0.20039068505952082
5351,10.0,300.08702999999997,-5116.2949,0.0,0.05351000520814053,0.0,0.0,0.0,0.0,0.2949249840818297,0.8490708862192722,0.4112300355477446,0.009115700775624621,-0.0016740308175639785,0.18906286304905182
5352,10.0,299.85082,-5198.2821,0.0,0.05352000119555966,0.0,0.0,0.0,0.0,0.3093037122758997,0.8599174549622451,0.41092677992531557,0.005164822914778336,0.002195162062620628,0.18565823125554082
5353,10.0,299.65166,-5204.0755,0.0,0.05352999718297902,0.0,0.0,0.0,0.0,0.3227508481955287,0.8617077969614381,0.39745036107779663,8.677780769855282e-05,0.009436238087784191,0.2052136238130078
5354,10.0,299.68827000000005,-5282.6343,0.0,0.053540026160455945,0.0,0.0,0.0,0.0,0.3384226152397117,0.8455033238096811,0.4218629807721346,-0.001988557124830308,-0.007724468466270682,0.1978159962904188
5355,10.0,298.81277,-5424.5355,0.0,0.053550022147875076,0.0,0.0,0.0,0.0,0.34950070149803364,0.8663095330855941,0.4331130966324345,-0.0026046634428352673,0.016473296509287784,0.2056306268916628
5356,10.0,299.26602,-5290.5796,0.0,0.05356001813529443,0.0,0.0,0.0,0.0,0.3168813740762567,0.8525656263441762,0.43875708207445263,0.012865038935930488,0.015564642190610586,0.1964962177701668
5357,10.0,298.96209,-5342.6399,0.0,0.053570014122714005,0.0,0.0,0.0,0.0,0.34631929883405366,0.8526153059965793,0.4250945089185616,-0.017996239780590582,0.0007503970451059222,0.1906726742779278
5358,10.0,299.30025,-5436.9143,0.0,0.053580010110133136,0.0,0.0,0.0,0.0,0.3478359721137377,0.8601647690466532,0.4446854564220376,-0.012359248804012887,-0.016571127832942983,0.18100904462920184
5359,10.0,299.7832,-5312.5329,0.0,0.05359000609755249,0.0,0.0,0.0,0.0,0.34158721821703364,0.8532619419453973,0.4200281874910546,-0.009899779540882172,-0.003779643052246726,0.18875753026391784
5360,10.0,299.6498,-5242.977,0.0,0.05360000208497162,0.0,0.0,0.0,0.0,0.3200049100270257,0.8657015931580953,0.4080275674141856,0.01215978444232729,0.004319423266718886,0.1962980159181058
5361,10.0,300.11634,-5263.2103,0.0,0.053609998072391196,0.0,0.0,0.0,0.0,0.3261102383720747,0.8506748611275721,0.4230994093391606,0.004080165635180996,-0.0018896175082157283,0.19959943805643082
5362,10.0,300.34827,-5277.2342,0.0,0.0536200270498679,0.0,0.0,0.0,0.0,0.3088147988376477,0.8604523192925322,0.43488030613184464,0.006220652621080614,-0.03457059988135257,0.1835090771309358
5363,10.0,300.19647000000003,-5249.5012,0.0,0.05363002303728703,0.0,0.0,0.0,0.0,0.3269126716562687,0.8606990862218863,0.4081055167443786,0.01957355810525978,-0.013180256989040089,0.2104215165444868
5364,10.0,300.19392999999997,-5280.0642,0.0,0.05364001902470639,0.0,0.0,0.0,0.0,0.3155458293844487,0.8675388182394151,0.4219230158405596,0.017275025584662283,0.0025476916321125875,0.19427562951351182
5365,10.0,300.03741,-5236.4236,0.0,0.05365001501212596,0.0,0.0,0.0,0.0,0.33056971418219067,0.8706109013501062,0.3905614053704096,0.005376469785066255,0.0046735318851666855,0.22029384531630977
5366,10.0,299.51736,-5316.8737,0.0,0.053660010999545094,0.0,0.0,0.0,0.0,0.3374001445638017,0.8672564659665493,0.41154021166835664,-0.022919527784231276,-0.002995807467013177,0.1973790929797998
5367,10.0,300.14147,-5439.2353,0.0,0.05367000698696445,0.0,0.0,0.0,0.0,0.34451250165323666,0.8742915627358591,0.4345876592379626,-0.01026980449455079,0.016172930676143983,0.22127632301077277
5368,10.0,299.49888,-5432.5586,0.0,0.05368000297438358,0.0,0.0,0.0,0.0,0.3209790689381677,0.8828750576454842,0.4475080165631026,-0.0024165168821166476,0.01831733975053068,0.19252962733869483
5369,10.0,299.26135,-5182.9562,0.0,0.05368999896180293,0.0,0.0,0.0,0.0,0.30929781516031774,0.8591425415507673,0.40704890967259966,0.01070666220891529,0.0015613285288161285,0.21219708535722182
5370,10.0,299.74792,-5213.4163,0.0,0.05370002793927986,0.0,0.0,0.0,0.0,0.30967842229538073,0.8522500799980341,0.4228198739015726,-0.008933745578317042,-0.025366516643230277,0.18701761772220182
5371,10.0,299.83224,-5374.816,0.0,0.05371002392669921,0.0,0.0,0.0,0.0,0.35081372164011865,0.8689018828039392,0.41409423013541863,0.008938684665929491,-0.00996734518537538,0.18881006728160282
5372,10.0,299.79455,-5326.6871,0.0,0.053720019914118344,0.0,0.0,0.0,0.0,0.3320499915182827,0.8619475724651021,0.4251822969072256,0.005424939414199834,0.005128440447412665,0.18838186778934282
5373,10.0,299.86807999999996,-5209.3194,0.0,0.0537300159015377,0.0,0.0,0.0,0.0,0.31824202710554267,0.8534736200237881,0.41178735350024764,0.00962836175647032,0.0019186887681598382,0.1974436066136668
5374,10.0,299.63586000000004,-5321.549,0.0,0.05374001188895705,0.0,0.0,0.0,0.0,0.3184673840602837,0.8476850133949971,0.4514656194661876,-0.003211479473323347,-0.015575175938650184,0.18202611468207883
5375,10.0,300.23171,-5409.9283,0.0,0.053750007876376404,0.0,0.0,0.0,0.0,0.35303439095678163,0.8572513305041192,0.4341973958294466,0.006912445479155254,0.007903899150954111,0.19226639509521581
5376,10.0,300.24249,-5459.494000000001,0.0,0.053760003863795536,0.0,0.0,0.0,0.0,0.33792095511520165,0.8738973273869511,0.4477315800651666,0.007908307599489192,0.007788327540573082,0.19440695685897283
5377,10.0,300.01193,-5476.118,0.0,0.05376999985121489,0.0,0.0,0.0,0.0,0.3706863830688976,0.8645571677001491,0.4293595825644916,0.00927084294348596,0.001094239281818009,0.1868443722201038
5378,10.0,299.79749,-5324.170999999999,0.0,0.05378002882869182,0.0,0.0,0.0,0.0,0.3326261660551467,0.8657295689933562,0.4200593145341266,-0.01842049570346138,0.004269399413256916,0.19019411625569782
5379,10.0,300.05435,-5141.9628,0.0,0.05379002481611117,0.0,0.0,0.0,0.0,0.3136790477977117,0.8393794124577981,0.4099698260008716,-0.015962821108907788,0.00897874188743283,0.2084518495425958
5380,10.0,299.57058,-5249.897,0.0,0.0538000208035303,0.0,0.0,0.0,0.0,0.3007061635873877,0.8682945710915021,0.4268368735255196,-0.017635691957757285,0.020104170838127183,0.2007792968703738
5381,10.0,299.4522,-5271.3627,0.0,0.053810016790949655,0.0,0.0,0.0,0.0,0.3080636157435117,0.8726458317909381,0.4216531772064286,-0.01019199701937179,-0.0027679860853789574,0.20087001315182682
5382,10.0,299.00558,-5120.9944,0.0,0.05382001277836901,0.0,0.0,0.0,0.0,0.3009910692505057,0.8487879766588513,0.4068753905929746,-0.0013654145954809288,-0.015529157158858485,0.21007791330307582
5383,10.0,299.6313,-5166.0309,0.0,0.05383000876578836,0.0,0.0,0.0,0.0,0.3215427095712947,0.8574875596324332,0.3913141387371986,0.010764773115400389,-0.013632293189902589,0.2108584198551058
5384,10.0,299.85972999999996,-5310.2137,0.0,0.053840004753207715,0.0,0.0,0.0,0.0,0.3220924990755547,0.8631451530232942,0.42893470653255955,0.017165486156101587,0.0076397097914306525,0.2075092027095638
5385,10.0,299.98009,-5374.009,0.0,0.05385000074062685,0.0,0.0,0.0,0.0,0.3216293627198467,0.8752849024713941,0.4366502818040276,0.009519209085472791,0.0031655295945384474,0.2030872475506508
5386,10.0,299.97739,-5279.7764,0.0,0.0538599967280462,0.0,0.0,0.0,0.0,0.3253957957265647,0.8454512731520442,0.4340731207046816,-0.007480955589612833,0.0017846823894344384,0.1917679875035268
5387,10.0,299.80707,-5287.1617,0.0,0.05387002570552313,0.0,0.0,0.0,0.0,0.3256751589116357,0.8521763153907542,0.42931368233496153,-0.0016852328040445283,0.008790874578441773,0.19047510064092882
5388,10.0,300.03595,-5261.4853,0.0,0.05388002169294226,0.0,0.0,0.0,0.0,0.3363258866752807,0.8530189544389162,0.41001532093036164,-0.014065591356665788,0.01044747688633569,0.18882985605605582
5389,10.0,300.29542000000004,-5353.5463,0.0,0.05389001768036161,0.0,0.0,0.0,0.0,0.34794532206452966,0.8536023737139953,0.42579669123786157,-0.004688067363151226,-0.01057574320324459,0.19115723074074983
5390,10.0,300.29577,-5498.7721,0.0,0.053900013667780744,0.0,0.0,0.0,0.0,0.3476965185024747,0.8735329727834922,0.45025992277469457,-0.016979831380028884,-0.013786982029669185,0.1946605125639968
5391,10.0,300.11425,-5354.4009,0.0,0.05391000965520032,0.0,0.0,0.0,0.0,0.3389243665567307,0.8604938524141312,0.4281859653711646,0.0013589133801893086,-0.0036887006133714062,0.20276371679372082
5392,10.0,299.88698,-5208.2795,0.0,0.05392000564261967,0.0,0.0,0.0,0.0,0.3032226918007497,0.8637240836004303,0.4162401317272026,0.007188568391731463,0.027015970269018676,0.2022467565927008
5393,10.0,299.58842000000004,-5244.0878,0.0,0.053930001630038804,0.0,0.0,0.0,0.0,0.3195823746028247,0.8608404852733411,0.4136488965839676,0.0005030796372375945,0.012482511691927989,0.2036479598909888
5394,10.0,299.62996,-5364.7801,0.0,0.05393999761745816,0.0,0.0,0.0,0.0,0.34349653604296865,0.8621294812555551,0.4251331846748786,9.604420277807481e-05,-0.0015410374862885583,0.2019829974591698
5395,10.0,299.4272,-5274.3763,0.0,0.053950026594935085,0.0,0.0,0.0,0.0,0.3416598986467067,0.8567135074835402,0.40490528789354063,0.005815040601374824,-0.0072231619660455835,0.20330214776435981
5396,10.0,299.88014,-5145.4703,0.0,0.05396002258235422,0.0,0.0,0.0,0.0,0.3000530631029317,0.8527557019304353,0.4112857237732406,0.012740116344351588,0.007641169378199702,0.21918683918455678
5397,10.0,299.97277,-5235.1479,0.0,0.05397001856977357,0.0,0.0,0.0,0.0,0.3194625679110007,0.8527828469006141,0.41910883527782156,0.007281135273167103,-0.013305401482390887,0.2059117024694028
5398,10.0,300.50124,-5345.8467,0.0,0.0539800145571927,0.0,0.0,0.0,0.0,0.3168745447705827,0.8696616278614201,0.4384677282433956,-0.011520226045457788,0.0036700060477013966,0.2020289888812088
5399,10.0,300.14831000000004,-5374.6014,0.0,0.05399001054461228,0.0,0.0,0.0,0.0,0.3349601268654907,0.8688008313714661,0.4299836433010816,-0.016908645494253385,0.003687708033573447,0.2005675782619788
5400,10.0,300.11449,-5226.5597,0.0,0.05400000653203163,0.0,0.0,0.0,0.0,0.3215179457388507,0.8542791842507912,0.4129465217471486,-0.005440280324688865,0.02251993538204458,0.18704190532709883
5401,10.0,299.39742,-5136.3178,0.0,0.05401000251945076,0.0,0.0,0.0,0.0,0.3063686307112297,0.8566176540240802,0.39832607260922265,0.003293617782079767,0.0018697777672826983,0.2021687059374978
5402,10.0,300.35792999999995,-5274.8855,0.0,0.054019998506870115,0.0,0.0,0.0,0.0,0.3178456234014207,0.8589019351820212,0.4266859296581226,-0.001051636472088439,-0.017755062952038284,0.18594409950625382
5403,10.0,300.10222000000005,-5552.145,0.0,0.05403002748434704,0.0,0.0,0.0,0.0,0.36163301369039963,0.8767994073958641,0.44928100158808254,0.01218451585076809,-0.02045766846676468,0.2009284270200918
5404,10.0,299.91541,-5496.9465,0.0,0.054040023471766174,0.0,0.0,0.0,0.0,0.34644522555648166,0.8755322266883032,0.4489570250011085,-0.0026482268136596375,0.00877893393263832,0.1926168580398038
5405,10.0,299.55107000000004,-5137.252,0.0,0.05405001945918553,0.0,0.0,0.0,0.0,0.3213934882290677,0.8351251299254333,0.4050777025305566,0.010559520055893489,0.0038917241173582664,0.2022368368742218
5406,10.0,300.38113,-5130.7362,0.0,0.05406001544660466,0.0,0.0,0.0,0.0,0.3204331703142917,0.8411850140034972,0.3979975161317966,-0.007375094765540183,-6.220884554028504e-05,0.18365761959559582
5407,10.0,299.48095,-5372.3555,0.0,0.054070011434024234,0.0,0.0,0.0,0.0,0.3526896731402607,0.8499433654828792,0.43042888566002363,-0.0005570658356131174,-0.0001174367809001079,0.2034891734678178
5408,10.0,299.83894,-5424.0963,0.0,0.05408000742144359,0.0,0.0,0.0,0.0,0.3384217539771267,0.8735303889957372,0.43683769254252364,0.004818803578503885,0.011070971216119791,0.19283099831593783
5409,10.0,299.61728999999997,-5275.2687,0.0,0.05409000340886272,0.0,0.0,0.0,0.0,0.3232832503280727,0.8581022579380991,0.4221644632068886,0.0017752215719257284,0.00034409419148195267,0.19810405316134783
5410,10.0,300.03457000000003,-5256.6863,0.0,0.05409999939628207,0.0,0.0,0.0,0.0,0.30398599336608173,0.8635042995212392,0.43041108285576657,-0.015849693761742983,-0.005804889659223005,0.19118003900050082
5411,10.0,300.09252000000004,-5312.6667,0.0,0.05411002837375878,0.0,0.0,0.0,0.0,0.3280592452044267,0.8669285377041852,0.41993023660388756,-0.012139412035816689,-0.008220206650571231,0.19307263819978582
5412,10.0,300.04697000000004,-5489.0295,0.0,0.05412002436117813,0.0,0.0,0.0,0.0,0.3532740347379326,0.8873061117902952,0.42794775027265464,-0.006050671506829784,0.009683778734914552,0.19156920809890882
5413,10.0,300.0076,-5393.482,0.0,0.054130020348597485,0.0,0.0,0.0,0.0,0.33841637361909566,0.8769912257722953,0.4240762432305666,0.004564122152618786,0.0016688060947483382,0.1987417421117828
5414,10.0,300.71054,-5064.1456,0.0,0.05414001633601684,0.0,0.0,0.0,0.0,0.3045831117825127,0.8376470283643253,0.3971436806700296,0.017312221995833283,-0.014754789889184385,0.20904897809152778
5415,10.0,300.46894,-5114.3017,0.0,0.05415001232343619,0.0,0.0,0.0,0.0,0.3004338526230127,0.8511337722303632,0.4030523979656746,0.018627722574163084,-0.004795816784085265,0.2042467907000888
5416,10.0,300.24548,-5301.1473,0.0,0.05416000831085532,0.0,0.0,0.0,0.0,0.3258386265502687,0.8630461280910211,0.42253165491062755,0.0038635461387023164,0.012589463279733289,0.2117643769020168
5417,10.0,300.21702,-5314.6328,0.0,0.05417000429827468,0.0,0.0,0.0,0.0,0.3312586735876857,0.8604114549159992,0.42384553631529764,0.0021378182877862376,0.00865040336010334,0.1974249425468248
5418,10.0,299.64739,-5196.698,0.0,0.05418000028569403,0.0,0.0,0.0,0.0,0.32096240097402273,0.8538385521798042,0.40486547729711164,-0.012548362815926988,0.005991045284820135,0.1957776410642488
5419,10.0,299.59179,-5211.0814,0.0,0.05418999627311316,0.0,0.0,0.0,0.0,0.3116495078474117,0.8571878503853542,0.4152012666646746,0.0048245102030670855,0.0002688547176213947,0.19635743290396984
5420,10.0,299.50045,-5407.8265,0.0,0.05420002525059009,0.0,0.0,0.0,0.0,0.3395010477186447,0.8692778391210432,0.4350653458651066,-0.006129289582088785,0.007003946522810703,0.1948401922042298
5421,10.0,299.46339,-5573.8971,0.0,0.05421002123800944,0.0,0.0,0.0,0.0,0.34938035778365667,0.8860458819784202,0.45889929842733457,-0.004639856619418196,-0.005109096489753565,0.18578942687848882
5422,10.0,300.18782000000004,-5438.5844,0.0,0.054220017225428796,0.0,0.0,0.0,0.0,0.3485204225562877,0.8706632863802762,0.4340101472109666,-0.017168514760650486,-0.018906715922947584,0.19301538956913583
5423,10.0,300.54488,-5237.9699,0.0,0.05423001321284815,0.0,0.0,0.0,0.0,0.3308866588134707,0.8446776567006942,0.4166477521099316,0.0002139373322714708,-0.008942963722426802,0.18360771702817083
5424,10.0,300.1439,-5212.9264,0.0,0.05424000920026728,0.0,0.0,0.0,0.0,0.3254000716419867,0.855976651745818,0.4032227151749836,0.00991711918851846,0.01069572924033629,0.2060301007435878
5425,10.0,300.53915,-5386.9604,0.0,0.054250005187686634,0.0,0.0,0.0,0.0,0.3333536897594477,0.8593868057523741,0.44476097395199055,-0.0020068554083862078,0.014687058172999787,0.18127403992785482
5426,10.0,300.5045,-5395.6967,0.0,0.05426000117510599,0.0,0.0,0.0,0.0,0.3435715773453747,0.8621384485189402,0.43444705052158555,0.015296041748101787,-0.0013790144383231287,0.2061586619162758
5427,10.0,299.59902999999997,-5179.983,0.0,0.05426999716252534,0.0,0.0,0.0,0.0,0.3055888942292757,0.8459900080977132,0.4230065753649986,-0.005056755434637905,-0.007906975479582721,0.18401773881363684
5428,10.0,299.66325,-5182.5963,0.0,0.054280026140001825,0.0,0.0,0.0,0.0,0.3108766006711317,0.8571928457083472,0.4073103991259066,0.02050371561755918,-0.003957774648976947,0.21851231859298678
5429,10.0,299.51425,-5457.8961,0.0,0.0542900221274214,0.0,0.0,0.0,0.0,0.35433519130266067,0.8778501984120692,0.42687875115215257,-0.004567292308206655,-0.005666782556017895,0.18264327518548784
5430,10.0,299.60116,-5530.8172,0.0,0.05430001811484075,0.0,0.0,0.0,0.0,0.35880266165606567,0.8860380090251432,0.4363896536133056,-0.008545363065961672,-0.01053277329300379,0.21361295038445682
5431,10.0,299.84125,-5408.3497,0.0,0.05431001410226011,0.0,0.0,0.0,0.0,0.33374324389289367,0.8767531930588032,0.4335068050912906,-0.0030115358443404475,-0.006332180958262604,0.1955993394441518
5432,10.0,299.95018999999996,-5216.9998,0.0,0.05432001008967924,0.0,0.0,0.0,0.0,0.31316378985685966,0.8531120923881083,0.41956179860252557,-0.0017436396808838382,0.014729150608653985,0.21935406598106078
5433,10.0,299.68382,-5258.0878,0.0,0.05433000607709859,0.0,0.0,0.0,0.0,0.3095712103022997,0.8632093018871253,0.4255468744257066,-0.009583979476915132,0.02000263912510678,0.1944315180413968
5434,10.0,300.5439,-5320.8099,0.0,0.054340002064517945,0.0,0.0,0.0,0.0,0.3210720954298487,0.8749661441224351,0.42135511955701255,-0.01057710703787919,-0.0012405075066285588,0.2068273157897668
5435,10.0,299.95822999999996,-5358.6149,0.0,0.0543499980519373,0.0,0.0,0.0,0.0,0.3455243433355977,0.8569908239034092,0.42636997801194054,-0.003240690359131237,0.0069690118885129245,0.1881653463754738
5436,10.0,300.33479,-5257.1862,0.0,0.054360027029414004,0.0,0.0,0.0,0.0,0.3172970599297817,0.8644230843144162,0.4163331784838856,0.015041816284761684,0.006677285228371744,0.1933545851726118
5437,10.0,300.37908,-5208.4213,0.0,0.05437002301683336,0.0,0.0,0.0,0.0,0.3280401758375447,0.8431784113227302,0.4120114337598626,0.025215970983122577,0.0015457248825761687,0.19376886260849782
5438,10.0,300.20345,-5450.6489,0.0,0.05438001900425271,0.0,0.0,0.0,0.0,0.33967552938586465,0.8746429984005433,0.44254261484555557,0.004934479857620245,-0.02080346843439248,0.1948707923572498
5439,10.0,300.13471,-5510.3265,0.0,0.054390014991672064,0.0,0.0,0.0,0.0,0.3460067111782037,0.872708906609663,0.4562860554919275,0.005586077286877904,-0.013655298020172988,0.1960951328505828
5440,10.0,300.30329,-5360.3747,0.0,0.054400010979091196,0.0,0.0,0.0,0.0,0.33071555126908364,0.8734909533018452,0.42521357593781256,0.0014920602188548786,0.003066268878967177,0.2086741870120388
5441,10.0,299.72567999999995,-5247.0126,0.0,0.05441000696651033,0.0,0.0,0.0,0.0,0.3372606909525387,0.8447189263772672,0.41298118503306963,-0.015393184061688986,0.005719899051435084,0.1890714655424008
5442,10.0,299.98576,-5228.0414,0.0,0.0544200029539299,0.0,0.0,0.0,0.0,0.3235009572445587,0.8604505461048573,0.4052425380568246,-0.01052060821230319,-0.007326666274360664,0.19488111737576883
5443,10.0,300.18685,-5312.0533,0.0,0.054429998941349256,0.0,0.0,0.0,0.0,0.3370810011798047,0.8476021599343202,0.4300483899824716,-0.017962587718269384,0.002238430678990908,0.18568291402797682
5444,10.0,299.56457,-5396.6525,0.0,0.05444002791882596,0.0,0.0,0.0,0.0,0.3244001660458037,0.8741235050742732,0.44192394459949763,0.009724036883912721,0.010785235701169888,0.21409939149246482
5445,10.0,299.88937000000004,-5307.4921,0.0,0.054450023906245315,0.0,0.0,0.0,0.0,0.3091523631084627,0.8657080272962302,0.4384846799175686,-0.0036392628237672774,0.015190580651193587,0.1941862811196938
5446,10.0,299.69081,-5244.505999999999,0.0,0.05446001989366467,0.0,0.0,0.0,0.0,0.3148512869709027,0.8670153225752503,0.4123322591390256,0.0003031100994496377,-0.011398719119965988,0.2222473509791058
5447,10.0,299.65042,-5394.8332,0.0,0.05447001588108402,0.0,0.0,0.0,0.0,0.3462098374257507,0.8668432625757692,0.4268414939459756,-0.0100306562940237,0.0050879914020956546,0.1966605568038858
5448,10.0,299.79655,-5456.356,0.0,0.05448001186850315,0.0,0.0,0.0,0.0,0.3606651977248837,0.8835797528250322,0.4143510383732636,-0.0030686852778056568,0.006605904899902053,0.2178094573961198
5449,10.0,299.65788,-5303.8928,0.0,0.054490007855922507,0.0,0.0,0.0,0.0,0.33907879600447166,0.8569973188365502,0.4161748480232596,0.003639690111334447,0.015671914978697583,0.18455737555189483
5450,10.0,299.6514,-5184.0207,0.0,0.05450000384334186,0.0,0.0,0.0,0.0,0.3066104124500917,0.8630676900531492,0.4061347554323796,-0.011578415985450688,-0.018207315988422183,0.2135354671493098
5451,10.0,300.53587000000005,-5290.4329,0.0,0.05450999983076121,0.0,0.0,0.0,0.0,0.3159368729955417,0.8579856632490921,0.43423696324585165,-0.007833331550389632,-0.012247258323460289,0.1891002013152368
5452,10.0,300.74087000000003,-5433.684,0.0,0.05452002880823792,0.0,0.0,0.0,0.0,0.3484780990996107,0.8820632821953681,0.4211628654830386,-7.349073084422043e-05,-0.0025598932911417975,0.20999092578199077
5453,10.0,300.21797000000004,-5443.5693,0.0,0.05453002479565727,0.0,0.0,0.0,0.0,0.34717490748349566,0.871764587913966,0.4357696560096166,-0.009952966355856302,0.017500783786442882,0.18605673238736983
5454,10.0,299.98762999999997,-5282.615,0.0,0.054540020783076404,0.0,0.0,0.0,0.0,0.3332974543788977,0.8529443589665543,0.41954123975799656,0.01030668578494069,-0.008338135384659892,0.2036253745462598
5455,10.0,299.18401,-5259.3786,0.0,0.05455001677049598,0.0,0.0,0.0,0.0,0.3167593281017117,0.8530764057195861,0.4288840338950586,-0.0009102905554686832,0.007149518746127562,0.18163662134363884
5456,10.0,299.9515,-5360.0613,0.0,0.05456001275791511,0.0,0.0,0.0,0.0,0.32315786062819774,0.8829380210066983,0.4232289229669426,0.014580113677945187,0.016971799346486183,0.2123623261835298
5457,10.0,300.04966,-5520.3825,0.0,0.054570008745334464,0.0,0.0,0.0,0.0,0.3508837068245257,0.8754768525703382,0.45169786652160854,-0.006506417216308384,0.0047074436434885155,0.18642974014668282
5458,10.0,299.49253999999996,-5478.4277,0.0,0.05458000473275382,0.0,0.0,0.0,0.0,0.36673236707116663,0.8793952122970501,0.4191776450921126,-0.005188278438693215,-0.012986525596420289,0.2084701083093978
5459,10.0,299.43025,-5280.3699,0.0,0.05459000072017317,0.0,0.0,0.0,0.0,0.32409215828040566,0.8663649477335632,0.4146434826171256,-0.015530790518019685,-0.008482507311908293,0.18920243825032682
5460,10.0,299.25747,-5208.1255,0.0,0.054599996707592524,0.0,0.0,0.0,0.0,0.3373457735634357,0.8529852841380932,0.3928090372722336,0.00948827222944456,0.0003440294650655647,0.2042335069912778
5461,10.0,299.66957,-5502.9185,0.0,0.05461002568506923,0.0,0.0,0.0,0.0,0.35205823594294267,0.8808466829327992,0.4398448871168106,-0.004380641405960646,0.009072219680708371,0.1877178849988128
5462,10.0,300.27098,-5457.7628,0.0,0.05462002167248836,0.0,0.0,0.0,0.0,0.3369515584795297,0.8753623654415392,0.4467096768093126,0.0025033546448368677,-0.024379624218081576,0.21402379290250378
5463,10.0,300.43926,-5261.1386,0.0,0.054630017659907715,0.0,0.0,0.0,0.0,0.3035303449286127,0.8683546568224322,0.4273697620181116,-0.005706700050332444,-0.0024225039743075273,0.2061718037700728
5464,10.0,299.93744,-5193.747,0.0,0.05464001364732707,0.0,0.0,0.0,0.0,0.3086653039178937,0.8615829645491181,0.4085211316703966,0.0017341978111519985,0.009072801590240803,0.2174588019340128
5465,10.0,300.29433,-5240.7709,0.0,0.05465000963474642,0.0,0.0,0.0,0.0,0.3159889439181807,0.8587614784531591,0.41831307931178663,0.005713447789373395,0.017821782431372984,0.1989625901035788
5466,10.0,300.07685,-5365.3314,0.0,0.054660005622165775,0.0,0.0,0.0,0.0,0.3416407786173197,0.8674154145097362,0.4218705801478846,-0.008147099439956113,-0.007837955314570962,0.2055505092062558
5467,10.0,300.21757,-5445.8142,0.0,0.054670001609584906,0.0,0.0,0.0,0.0,0.34223599212356265,0.8732467093652402,0.4399088333306216,0.00037714581192639364,-0.0032894117809146666,0.19936836637112582
5468,10.0,300.62212999999997,-5415.5641,0.0,0.05467999759700448,0.0,0.0,0.0,0.0,0.3125098483748207,0.8852917503264932,0.4483946509306066,0.008971276058046011,0.008695494002803441,0.1983585511889648
5469,10.0,300.20418,-5369.6343,0.0,0.05469002657448119,0.0,0.0,0.0,0.0,0.3293737852216617,0.8792331226785532,0.4236278395313126,-0.007465835567645603,0.008617913698296863,0.2111997027537878
5470,10.0,299.93952,-5466.2473,0.0,0.05470002256190032,0.0,0.0,0.0,0.0,0.3476422690921207,0.8734117272765263,0.4405486805037696,-0.006932974128831274,-0.017810203009230183,0.18462617523368482
5471,10.0,299.6317,-5414.5591,0.0,0.05471001854931967,0.0,0.0,0.0,0.0,0.3553656159918556,0.8612946543656642,0.4292305147667536,-0.01909375682515708,-0.013413332883042887,0.2057798178363868
5472,10.0,299.88775,-5224.1913,0.0,0.05472001453673925,0.0,0.0,0.0,0.0,0.3235323578651577,0.8517263107563422,0.41276502838923657,0.01702943098567398,0.008410145144091703,0.1853041003455908
5473,10.0,299.40245,-5188.9228,0.0,0.05473001052415838,0.0,0.0,0.0,0.0,0.3069739361884687,0.8511494472094102,0.4191795702673026,0.009091188533180451,0.004735479665805456,0.2110008726866648
5474,10.0,300.13637,-5372.1071,0.0,0.05474000651157773,0.0,0.0,0.0,0.0,0.3096371120888037,0.8723577343900051,0.4509915704069026,-0.0014443020939415186,-0.01045448452402729,0.2044666659717888
5475,10.0,300.13752999999997,-5418.1939,0.0,0.054750002498996864,0.0,0.0,0.0,0.0,0.3426189905288617,0.8731024833460063,0.43127416929094653,-0.0013041519745597787,-0.01080046788992319,0.21293871350291477
5476,10.0,300.33308999999997,-5342.7472,0.0,0.05475999848641622,0.0,0.0,0.0,0.0,0.3203579364943667,0.8733058021110721,0.4303979916644746,0.0026592479349973374,0.015242192571537286,0.18900545229838583
5477,10.0,300.19712999999996,-5373.4137,0.0,0.054770027463893145,0.0,0.0,0.0,0.0,0.34184079418705965,0.8702110728606463,0.4213317337447046,0.01979910251126928,0.01987186298770018,0.1910747623151108
5478,10.0,300.24801,-5440.6684,0.0,0.054780023451312276,0.0,0.0,0.0,0.0,0.35423830432809866,0.8588883576306812,0.44070068828377157,-0.007870933869550692,-0.003007218790964387,0.1681790489479798
5479,10.0,300.07948999999996,-5515.5372,0.0,0.05479001943873163,0.0,0.0,0.0,0.0,0.34516673697780464,0.8925583544786512,0.43886048424715757,-0.007643796735709003,-0.014091519413474685,0.2064905013240258
5480,10.0,299.77644,-5522.871,0.0,0.05480001542615098,0.0,0.0,0.0,0.0,0.3329169080388407,0.8918154597703332,0.4540825303669566,-0.008335278120702902,-0.006860037245557962,0.1965291990609218
5481,10.0,299.73758,-5326.5119,0.0,0.054810011413570336,0.0,0.0,0.0,0.0,0.3256977949188697,0.8782580011798162,0.41517080836666864,0.0034189649254505665,0.0027787251178888173,0.22751860223933776
5482,10.0,300.04939,-5248.1731,0.0,0.05482000740098969,0.0,0.0,0.0,0.0,0.31014361554879166,0.8692902007722632,0.4158797693291376,-0.01091092734957469,-0.008088176109540832,0.20090295391257781
5483,10.0,299.98457,-5299.87,0.0,0.05483000338840882,0.0,0.0,0.0,0.0,0.3298656776152077,0.8590455329861931,0.4221169519096996,0.001068748442427259,-0.008377268927372072,0.2148707990585968
5484,10.0,299.9535,-5467.7022,0.0,0.054839999375828175,0.0,0.0,0.0,0.0,0.3395589650943607,0.8824870639171922,0.4399989213970126,-0.00029689414445867074,0.025042685964270676,0.1913081746081468
5485,10.0,300.37109,-5353.1257,0.0,0.0548500283533051,0.0,0.0,0.0,0.0,0.3127075841318357,0.8714741600378031,0.4430347909491295,0.015042309737560386,0.012420659866073687,0.20950539659907277
5486,10.0,300.31718,-5320.1496,0.0,0.054860024340724234,0.0,0.0,0.0,0.0,0.3194866528658777,0.8716821093558262,0.4260238720427826,0.0008979098450143022,-0.00030059772556168576,0.1930013155252468
5487,10.0,300.12868,-5452.2017,0.0,0.05487002032814359,0.0,0.0,0.0,0.0,0.33936175622739767,0.8850351751361712,0.4329362540924816,-0.0036765673487239464,-0.007755604425943562,0.2069151139109318
5488,10.0,299.80778,-5515.2147,0.0,0.05488001631556294,0.0,0.0,0.0,0.0,0.3631974921098017,0.8840784643917511,0.42921158725488556,-0.0005781594634123965,0.007109288056207103,0.1952813410327678
5489,10.0,300.16769,-5478.066999999999,0.0,0.054890012302982294,0.0,0.0,0.0,0.0,0.36510892762844566,0.8855792803073702,0.4145073828636936,-0.004439964058240336,0.0001047938615848489,0.1931941674167798
5490,10.0,300.06102999999996,-5395.722,0.0,0.05490000829040165,0.0,0.0,0.0,0.0,0.34053678183836367,0.8601933730969763,0.4394345816213166,-0.003973486915627626,-0.011649365783952889,0.18368659854845584
5491,10.0,300.05875,-5259.3431,0.0,0.05491000427782078,0.0,0.0,0.0,0.0,0.2988814825423057,0.8662006796273511,0.4336268144331346,-0.007838474807897233,-0.017551422986690584,0.2005057801383798
5492,10.0,300.48933,-5269.2454,0.0,0.05492000026524013,0.0,0.0,0.0,0.0,0.3194233956621347,0.8626906292934361,0.4196050035867896,-0.002177604363562818,0.013241761270110088,0.2117820479837608
5493,10.0,300.50217999999995,-5441.5351,0.0,0.054929996252659485,0.0,0.0,0.0,0.0,0.3341257660706457,0.881811530075522,0.4381534889898826,0.0014453429044442385,0.0032528953618857774,0.2098252999206448
5494,10.0,300.25833,-5378.9931,0.0,0.05494002523013619,0.0,0.0,0.0,0.0,0.34654096755843067,0.8707979169210632,0.41774070446279765,-0.005530502748043125,-0.005939948804802305,0.21585720816344778
5495,10.0,300.62036,-5183.2363,0.0,0.05495002121755577,0.0,0.0,0.0,0.0,0.3122314072473407,0.8582970552698241,0.40504593713992165,0.007714947968331083,-0.008326250366286932,0.2018127106473638
5496,10.0,299.68214,-5228.0093,0.0,0.0549600172049749,0.0,0.0,0.0,0.0,0.3054041990010477,0.8664198253589793,0.41736025944775057,0.01164243717976909,0.01835466889746478,0.2055575411619498
5497,10.0,299.65027000000003,-5450.1762,0.0,0.05497001319239425,0.0,0.0,0.0,0.0,0.31856892185280467,0.8975753508912901,0.4405732112886906,-0.0019003547168754084,0.0014607578835155784,0.2044804056431448
5498,10.0,299.72339,-5407.4566,0.0,0.054980009179813605,0.0,0.0,0.0,0.0,0.34375699198117365,0.8771934400947522,0.42278135013277063,-0.016940666223913586,-0.015301933797433285,0.2017982414359358
5499,10.0,299.93945,-5365.3797,0.0,0.054990005167232736,0.0,0.0,0.0,0.0,0.3264558579811847,0.8838588930950811,0.4206267143251246,-0.014532004563197184,-0.01972006900346928,0.21336889896537078
5500,10.0,299.95222,-5407.9971,0.0,0.05500000115465209,0.0,0.0,0.0,0.0,0.3635052364301737,0.8756453256644651,0.40474550848527163,0.007247962376818193,0.02120294836581808,0.20077384558483582
5501,10.0,300.23058,-5411.8553,0.0,0.05500999714207144,0.0,0.0,0.0,0.0,0.34866352386791066,0.8584760560324902,0.4379292871402556,0.004642973072750766,0.0045444818193054355,0.1978348224772768
5502,10.0,299.53857999999997,-5481.0687,0.0,0.05502002611954837,0.0,0.0,0.0,0.0,0.3363926902543737,0.8948810074178792,0.4348343248423066,-0.016150266297907185,-0.013239466258633589,0.1906852487116688
5503,10.0,299.41131,-5364.1493,0.0,0.055030022106967724,0.0,0.0,0.0,0.0,0.3252836086754927,0.8669322259345492,0.43835161991443655,-0.0005852490223745814,-0.02022088306414578,0.2085951231067358
5504,10.0,299.40115,-5199.3867,0.0,0.055040018094386856,0.0,0.0,0.0,0.0,0.3003454668167897,0.8640899783440412,0.41604830321827063,0.005754548151854684,0.023154496429420877,0.1992729992717138
5505,10.0,299.31355,-5217.3341,0.0,0.05505001408180599,0.0,0.0,0.0,0.0,0.3063862815279717,0.8784977057559732,0.4010553124160776,0.0038798822634395665,0.005366648149196934,0.2237601435109068
5506,10.0,299.60919,-5434.2436,0.0,0.05506001006922556,0.0,0.0,0.0,0.0,0.3571020733507307,0.8617790487084702,0.43299323927810557,-0.016902231621120384,-0.0097900985612825,0.18567200132439982
5507,10.0,299.98334,-5499.1661,0.0,0.055070006056644694,0.0,0.0,0.0,0.0,0.35888013475871167,0.8885602114390652,0.4241688340247046,-0.002318355948203918,-0.02138423704720988,0.19333481666316082
5508,10.0,300.33169,-5395.6839,0.0,0.05508000204406427,0.0,0.0,0.0,0.0,0.3242953959854637,0.8708309894043272,0.4450268001157256,0.00968517154850201,0.020908438105002182,0.1841279297620118
5509,10.0,300.44675,-5322.9894,0.0,0.0550899980314834,0.0,0.0,0.0,0.0,0.3180604121576187,0.8637512691006133,0.4362441812964486,0.0045789287763300865,0.006203361913424154,0.19192452451147582
5510,10.0,299.96164,-5441.1106,0.0,0.05510002700896033,0.0,0.0,0.0,0.0,0.3344614659612767,0.8812246860151052,0.4382755957594336,-0.02374830455777518,-0.004427005400061416,0.19385218216422082
5511,10.0,299.71851000000004,-5524.0681,0.0,0.05511002299637968,0.0,0.0,0.0,0.0,0.3675352563179056,0.8803085052746852,0.4313350048269506,-0.015906885650387382,-0.01685603754906138,0.2210045693339528
5512,10.0,299.85513,-5489.3751,0.0,0.05512001898379881,0.0,0.0,0.0,0.0,0.36238375095449166,0.8854270192148431,0.4208221804019156,-0.00989210538727479,0.04080062587645826,0.2037071438293298
5513,10.0,299.95957999999996,-5284.9156,0.0,0.055130014971217944,0.0,0.0,0.0,0.0,0.3217066433049737,0.8668490988963451,0.4179266257236466,0.013789539472921587,0.00942548638964808,0.21630244038988877
5514,10.0,299.8313,-5161.2714,0.0,0.0551400109586373,0.0,0.0,0.0,0.0,0.2906258854975417,0.8614196590305011,0.41685207399259655,-0.0017198679216127483,-0.015873147461807683,0.19919575921659083
5515,10.0,299.85602,-5278.8257,0.0,0.05515000694605687,0.0,0.0,0.0,0.0,0.3055269441181617,0.8740660943236072,0.42503817221300155,0.009277328858701072,-0.030177882054075074,0.2231489105205828
5516,10.0,299.77743,-5537.51,0.0,0.055160002933476227,0.0,0.0,0.0,0.0,0.33957122542057067,0.9030058445372382,0.44068768828498855,0.01000296467541575,0.004987560686633915,0.19853410690129084
5517,10.0,299.44802000000004,-5467.3598,0.0,0.05516999892089536,0.0,0.0,0.0,0.0,0.34824639919924366,0.8854259451697372,0.4282685249893126,0.016824204270669683,0.014706022161871385,0.20848477003834479
5518,10.0,299.65485,-5402.1554,0.0,0.055180027898372064,0.0,0.0,0.0,0.0,0.3426558120374957,0.8837531807121483,0.4157113570300166,-0.023694257797441182,-0.0049749610229654255,0.1877439863213888
5519,10.0,299.21299,-5511.7227,0.0,0.05519002388579164,0.0,0.0,0.0,0.0,0.35937840049538666,0.874011459878215,0.44203622284307853,0.0014011286217556287,-0.0028526645108110675,0.1980250905810548
5520,10.0,299.23561,-5549.4988,0.0,0.05520001987321077,0.0,0.0,0.0,0.0,0.3531679778499657,0.8777867588233083,0.4559543275416885,-0.015149206609860286,0.015506426919365185,0.1955095857502938
5521,10.0,299.8893,-5451.9629,0.0,0.0552100158606299,0.0,0.0,0.0,0.0,0.3255747660917277,0.8812765441552232,0.4504092859719355,0.01186391034687679,0.005393496845046694,0.2047585934580998
5522,10.0,299.96065,-5355.3541,0.0,0.055220011848049255,0.0,0.0,0.0,0.0,0.3256559274247377,0.8625418537812533,0.4396961521346316,-0.015365616566218284,-0.013864719590591289,0.2106396794235178
5523,10.0,300.15589,-5384.9283,0.0,0.05523000783546861,0.0,0.0,0.0,0.0,0.3417513546007327,0.8745710880409461,0.4205613090311696,0.012050030204745387,-0.016211503080950786,0.2067458606142278
5524,10.0,300.3389,-5298.0933,0.0,0.055240003822888184,0.0,0.0,0.0,0.0,0.33694602613398367,0.8643472729419341,0.4091947808668806,0.003904513258795456,0.025901148939244376,0.2089610583803508
5525,10.0,300.4401,-5289.1642,0.0,0.055249999810307315,0.0,0.0,0.0,0.0,0.3089908409100217,0.8749200209778831,0.4238629743495186,-0.0005025576918460825,0.00989305632249364,0.18636919845320782
5526,10.0,300.35106,-5320.7253,0.0,0.05526002878778402,0.0,0.0,0.0,0.0,0.3163907381128347,0.8738392681562211,0.4271376264202016,-0.003750275923273416,-0.008184707129342703,0.1940314666369148
5527,10.0,299.93807000000004,-5419.2071,0.0,0.055270024775203375,0.0,0.0,0.0,0.0,0.3231029019427737,0.8759456833916083,0.4482550554643296,-0.01061975574783829,-0.018067735720896684,0.18795741732245283
5528,10.0,299.68122999999997,-5538.2276,0.0,0.05528002076262273,0.0,0.0,0.0,0.0,0.3551608584116477,0.8965189971320362,0.4318030554456436,0.0036734463357659263,0.006964732325390562,0.2102514526477028
5529,10.0,299.70236,-5582.4408,0.0,0.05529001675004186,0.0,0.0,0.0,0.0,0.35995616583490764,0.8798668396885962,0.45709961426221957,0.0019190501944705083,-0.0011280328951781787,0.18141768839453182
5530,10.0,299.56228,-5448.5159,0.0,0.05530001273746121,0.0,0.0,0.0,0.0,0.3615984517294886,0.8782037315044601,0.41641059079152565,0.00017916939788014283,-6.064172152487193e-05,0.19910712009784282
5531,10.0,299.62821,-5281.0852,0.0,0.055310008724880566,0.0,0.0,0.0,0.0,0.3151734903702017,0.8621803261455732,0.4279642257192806,0.0012910300817897487,-0.008803785309890962,0.2073756766113858
5532,10.0,300.1456,-5247.6004,0.0,0.05532000471230014,0.0,0.0,0.0,0.0,0.31439761437112873,0.857357154344563,0.42338472030231855,0.007448165195176674,0.016037964749573884,0.2170226281634658
5533,10.0,300.30297,-5304.7192,0.0,0.05533000069971927,0.0,0.0,0.0,0.0,0.3017327480587037,0.8725770017116452,0.43819242819122556,-0.016571582782237883,0.006208540128060203,0.20861780977647482
5534,10.0,300.18313,-5275.94,0.0,0.055339996687138404,0.0,0.0,0.0,0.0,0.32882799805529667,0.8711610860219051,0.4037649458334976,-0.009167143888501662,-0.015613282248410987,0.2136565910662638
5535,10.0,299.90542999999997,-5348.8922,0.0,0.05535002566461533,0.0,0.0,0.0,0.0,0.34330015804108766,0.8780899435182301,0.4045395552699456,-0.022269479209076477,-0.001041758398188549,0.20662517239481681
5536,10.0,300.31304,-5359.6846,0.0,0.055360021652034686,0.0,0.0,0.0,0.0,0.33969474060776067,0.8813704420419901,0.4081451145582866,0.01018101338828779,0.014450422731395685,0.2046014181025878
5537,10.0,299.91452999999996,-5391.1573,0.0,0.05537001763945382,0.0,0.0,0.0,0.0,0.3195914533237207,0.8742608713903303,0.4449248671556656,-0.0014820615681930885,0.003129975661779547,0.1968707656696318
5538,10.0,299.75858999999997,-5535.6842,0.0,0.05538001362687339,0.0,0.0,0.0,0.0,0.3386833346229427,0.8931074448403421,0.4509189913022396,0.011079395377451189,-0.009094650302147102,0.19162748011215983
5539,10.0,299.39153999999996,-5611.954000000001,0.0,0.055390009614292524,0.0,0.0,0.0,0.0,0.3515483887576246,0.8945117385514351,0.4598337480670575,0.007236974692733794,-0.01120899614474179,0.1862840145173008
5540,10.0,299.3927,-5474.4388,0.0,0.05540000560171188,0.0,0.0,0.0,0.0,0.3525843457923657,0.8824940654753831,0.42901427706291256,0.028099636184718172,0.0051434755590215155,0.19801036805710182
5541,10.0,299.65271,-5364.0847,0.0,0.05541000158913123,0.0,0.0,0.0,0.0,0.3503266523170487,0.8709957438705872,0.4092254215499046,0.0017033340104559787,0.009225936104354002,0.1987293804605628
5542,10.0,299.6426,-5395.1812,0.0,0.05541999757655036,0.0,0.0,0.0,0.0,0.3436488579305017,0.8687327612297481,0.42761873783268356,-0.0014529571749707087,-0.005510252843469615,0.2127883167905718
5543,10.0,299.39705,-5429.4746,0.0,0.05543002655402729,0.0,0.0,0.0,0.0,0.3253153436686247,0.8811805995032542,0.44392876124735764,-0.021337385375835977,0.007760978299173923,0.2075504825186378
5544,10.0,299.59606,-5310.6798,0.0,0.05544002254144664,0.0,0.0,0.0,0.0,0.3161162182632417,0.8748261230911161,0.4233717000385336,-0.0060468639156040045,0.012150293328640588,0.2174379593794558
5545,10.0,299.82985,-5300.154,0.0,0.055450018528865996,0.0,0.0,0.0,0.0,0.3199108196227397,0.8567068909603872,0.43449675043899055,-0.0023268394859911777,0.019801515059757382,0.19339618922171783
5546,10.0,299.38982000000004,-5434.9137,0.0,0.05546001451628535,0.0,0.0,0.0,0.0,0.3349803209399837,0.8948381976011541,0.42225953646377157,-0.006216591210704785,-0.012545420337636589,0.19587116404847882
5547,10.0,299.55688,-5493.0592,0.0,0.05547001050370448,0.0,0.0,0.0,0.0,0.3600593450925907,0.8812175223368981,0.4284759575497846,0.001033386723212329,-0.01019663567832959,0.1984871630241578
5548,10.0,299.67126,-5563.7545,0.0,0.055480006491123834,0.0,0.0,0.0,0.0,0.34800816383573163,0.8960908888322852,0.4471434086471186,-0.0019697053027447784,-0.00961586706551219,0.19734073133101382
5549,10.0,299.73112000000003,-5443.6761,0.0,0.05549000247854319,0.0,0.0,0.0,0.0,0.32863413291366367,0.8825323055341572,0.44357517749246156,0.011128910883337988,0.007402454139440342,0.2052658973856668
5550,10.0,300.27197,-5327.3142,0.0,0.05549999846596232,0.0,0.0,0.0,0.0,0.3131739020928577,0.8714567017385801,0.4347399000654875,-0.010623877649245089,-0.01215281125513909,0.19978846999508681
5551,10.0,300.16836,-5371.7399,0.0,0.05551002744343925,0.0,0.0,0.0,0.0,0.3368766792971397,0.8791430447446631,0.4168550630803916,-0.010932443715448189,0.007414987435227283,0.21049424763666477
5552,10.0,299.66263,-5418.380999999999,0.0,0.05552002343085838,0.0,0.0,0.0,0.0,0.35282657336127166,0.8781422576208933,0.41608369604426365,0.004716991093880776,0.004035990565271257,0.19426615562507682
5553,10.0,300.23762999999997,-5212.0964,0.0,0.055530019418277954,0.0,0.0,0.0,0.0,0.3364332101258727,0.8493698253962751,0.39854412403074263,0.00889483312677668,0.01385138319277509,0.2215968038849018
5554,10.0,300.17756,-5216.4365,0.0,0.05554001540569731,0.0,0.0,0.0,0.0,0.3069289478840287,0.8732980304828052,0.4054394530812586,-0.001101891245248199,-0.01030859474812909,0.2157725004550878
5555,10.0,299.54451,-5466.328,0.0,0.05555001139311644,0.0,0.0,0.0,0.0,0.32371451996813566,0.8881761795186641,0.44973650817053756,-0.013163631581399287,-0.003686459405475216,0.21205428802062878
5556,10.0,300.23053,-5550.2941,0.0,0.05556000738053579,0.0,0.0,0.0,0.0,0.3464270275846857,0.8962768708881401,0.4444469069509946,-0.012814616571204187,0.005930504300620204,0.2078123772719848
5557,10.0,299.51342999999997,-5498.1777,0.0,0.055570003367955145,0.0,0.0,0.0,0.0,0.3438034697632607,0.8848253107754592,0.44267994063160854,-0.004987427849545805,0.027637153375324675,0.18130172192058683
5558,10.0,298.81427,-5444.2527,0.0,0.0555799993553745,0.0,0.0,0.0,0.0,0.3510151456274977,0.8754755657427111,0.42842617657237153,-0.001785992825788768,-0.005901270616685064,0.17596520722141382
5559,10.0,299.55861,-5417.6203,0.0,0.055590028332851205,0.0,0.0,0.0,0.0,0.3335444847532777,0.8840505493514962,0.42922626924883456,0.00100029783542921,0.0017971049369854483,0.18709117967946184
5560,10.0,299.5678,-5501.1478,0.0,0.055600024320270336,0.0,0.0,0.0,0.0,0.33651085548103565,0.881016331397042,0.4546843705288536,0.014563747662329986,-0.012736288285473789,0.2085527489875538
5561,10.0,299.77705,-5538.4873,0.0,0.05561002030768969,0.0,0.0,0.0,0.0,0.3349767239021287,0.8881477781183611,0.46043733101912654,0.003229319463859017,0.005360900082704645,0.20202560462587482
5562,10.0,300.22176,-5320.1864,0.0,0.055620016295109265,0.0,0.0,0.0,0.0,0.3150070843062787,0.8775053894030391,0.42469134683627263,0.004535018063371436,-0.023011307978289278,0.2147307476297748
5563,10.0,300.30433,-5302.4399,0.0,0.055630012282528396,0.0,0.0,0.0,0.0,0.3372322388897307,0.8614625600397351,0.41311453887873056,-0.013825709461741286,-0.0006676509889395224,0.2046958023494028
5564,10.0,299.99425,-5460.9727,0.0,0.05564000826994775,0.0,0.0,0.0,0.0,0.3654117779508347,0.8859575670997041,0.40862997499613857,0.01045311967614259,0.017304708746341782,0.2171069407042868
5565,10.0,300.63555,-5488.2253,0.0,0.05565000425736688,0.0,0.0,0.0,0.0,0.3470862278347437,0.8847839803038802,0.4364132623406356,-0.016716007398491484,0.030867231560858573,0.2044255786802338
5566,10.0,299.68048,-5463.6855,0.0,0.055660000244786456,0.0,0.0,0.0,0.0,0.3205669091949907,0.8948603979108452,0.44539666679972856,-0.0016996359515660086,4.905782486963035e-05,0.21660088307434278
5567,10.0,299.43654,-5451.5842,0.0,0.05567002922226316,0.0,0.0,0.0,0.0,0.3086472984636167,0.9000356234591,0.4484625488198076,-0.026963355231075972,-0.008282469146691063,0.19856489957182982
5568,10.0,299.61214,-5385.8368,0.0,0.055680025209682515,0.0,0.0,0.0,0.0,0.33714231294335567,0.8775856996059652,0.4224318801732806,0.01248376913530209,-0.007849344448344982,0.2054481101511498
5569,10.0,300.07455,-5394.5554,0.0,0.05569002119710165,0.0,0.0,0.0,0.0,0.3467201709711167,0.8759269078672551,0.4171630708457897,-0.02233449642824318,0.0008097222001133593,0.19086372258428283
5570,10.0,299.68032999999997,-5451.1393,0.0,0.05570001718452122,0.0,0.0,0.0,0.0,0.36441466892492763,0.8728491505560042,0.4197464127707456,0.005510501900344194,-0.01196885265973379,0.2038947572178458
5571,10.0,300.02707000000004,-5458.7803,0.0,0.055710013171940354,0.0,0.0,0.0,0.0,0.32833247822639267,0.8766538540189991,0.4543465630780145,-0.004100230520286246,-0.0015858838343895483,0.19445653518636583
5572,10.0,300.41747000000004,-5384.6217,0.0,0.05572000915935971,0.0,0.0,0.0,0.0,0.3245945276799857,0.8828231589753621,0.4293728460083006,0.02368804454782798,0.010100064027198711,0.2318411980934448
5573,10.0,300.52353,-5547.5567,0.0,0.05573000514677884,0.0,0.0,0.0,0.0,0.3354810691394037,0.8884161272748451,0.46242152802745157,0.008930453832717171,-0.004944717533980626,0.20158063584445982
5574,10.0,300.56595,-5641.2805,0.0,0.05574000113419819,0.0,0.0,0.0,0.0,0.37303560342574765,0.8976492370885821,0.4441235484465816,0.006906633375256644,-0.02196789848906278,0.2075138940575268
5575,10.0,299.8475,-5457.0326,0.0,0.05574999712161777,0.0,0.0,0.0,0.0,0.35707033835759866,0.8818710483863962,0.4198602716844826,-0.008834234488646061,-0.01023499124761499,0.1976445645059998
5576,10.0,300.24956000000003,-5251.0034,0.0,0.05576002609909447,0.0,0.0,0.0,0.0,0.3301064055739657,0.8614845475669052,0.4045829426392276,0.0009348223435072823,-0.0007136912091033384,0.20185131547617383
5577,10.0,300.1014,-5291.2017,0.0,0.055770022086513604,0.0,0.0,0.0,0.0,0.3152734576250677,0.8748148050874992,0.4183049226484816,-0.010967762574183889,0.01971791280725648,0.19713097842781283
5578,10.0,299.16683,-5426.7562,0.0,0.05578001807393296,0.0,0.0,0.0,0.0,0.3150162238221807,0.8800859854202241,0.4544961694552796,-0.027223695658769576,0.006683458353280984,0.20708019261722382
5579,10.0,299.49376,-5528.2383,0.0,0.05579001406135231,0.0,0.0,0.0,0.0,0.3296454071759687,0.8922089047841631,0.45859211139451755,-0.014723426758839085,-0.0025176730846499873,0.20026645046475983
5580,10.0,300.11522,-5480.5841,0.0,0.055800010048771664,0.0,0.0,0.0,0.0,0.3467528786843447,0.8781926668133682,0.44101519098231057,0.012655113780212487,-0.008673876514569962,0.19789301343051982
5581,10.0,300.30388999999997,-5377.643,0.0,0.05581000603619102,0.0,0.0,0.0,0.0,0.3499543031703007,0.8545989051873452,0.4301160041616446,0.01884591179769668,-0.004652294467045716,0.19139120032134083
5582,10.0,300.0736,-5438.0171,0.0,0.05582000202361015,0.0,0.0,0.0,0.0,0.3374919754203647,0.8838404418107602,0.43168898374938564,0.012583602641154887,-0.017223166431294182,0.21380610625101984
5583,10.0,300.13842,-5674.6124,0.0,0.0558299980110295,0.0,0.0,0.0,0.0,0.36216009625991863,0.9050791366268561,0.45770124164159554,0.007736602845493253,0.004319962721072126,0.20836189319871778
5584,10.0,300.04143,-5557.9904,0.0,0.05584002698850643,0.0,0.0,0.0,0.0,0.3260176982404417,0.9149133671949191,0.4485592230118486,0.0032486696023437266,0.015587627769129087,0.21246877823903582
5585,10.0,300.47744,-5123.068,0.0,0.05585002297592556,0.0,0.0,0.0,0.0,0.2959528351157707,0.8664338994028681,0.3948980246059006,0.005032171251436636,0.012610413238800886,0.2091105735651068
5586,10.0,299.9362,-5151.2377,0.0,0.055860018963344915,0.0,0.0,0.0,0.0,0.3126508927887407,0.8561034903933361,0.3970932410800516,-0.024339889615410077,-0.0065951338486890335,0.2063043672806558
5587,10.0,299.66996,-5452.5821,0.0,0.05587001495076427,0.0,0.0,0.0,0.0,0.3641328536746146,0.8713261545956962,0.4219898092871516,-0.017335100169841182,-0.01995893359529338,0.19524911967958783
5588,10.0,299.86382000000003,-5545.3896,0.0,0.05588001093818362,0.0,0.0,0.0,0.0,0.35442553268157667,0.8969366790882581,0.4342977379868496,-0.004791830354216836,-0.009306875231617072,0.1996792416343068
5589,10.0,299.90682999999996,-5473.3304,0.0,0.055890006925602975,0.0,0.0,0.0,0.0,0.3300529262336877,0.8881752574610733,0.4455275787126486,0.013975712019795387,0.005729504865033105,0.20532273058377581
5590,10.0,299.81788,-5447.5848,0.0,0.05590000291302211,0.0,0.0,0.0,0.0,0.3093364199891277,0.8960831577340221,0.4505101854168936,-0.008861604501672272,-0.0014502734807558487,0.2038797205863618
5591,10.0,299.54672999999997,-5495.2707,0.0,0.05590999890044146,0.0,0.0,0.0,0.0,0.34061150903323867,0.8869370861038751,0.44287647062100455,0.002107274471471798,0.0036500936567361968,0.2051222387864888
5592,10.0,299.93998,-5610.9665,0.0,0.05592002787791839,0.0,0.0,0.0,0.0,0.36616688232285766,0.8996934995628352,0.4397333181482996,-0.007665234979999793,0.007653508636592493,0.20578967675985982
5593,10.0,299.91271,-5573.3371,0.0,0.05593002386533752,0.0,0.0,0.0,0.0,0.3738961770006796,0.8868231765276331,0.43343594851179756,0.013559291559947886,-0.0011068816033157091,0.19396448067280384
5594,10.0,300.19985,-5313.2103,0.0,0.05594001985275687,0.0,0.0,0.0,0.0,0.33233586990149666,0.8646743804717172,0.4180729998330926,0.0015346085157290686,-0.004531278359902356,0.20786538038471578
5595,10.0,300.26114,-5288.7409,0.0,0.055950015840176226,0.0,0.0,0.0,0.0,0.3066442043409267,0.8791305209734271,0.4218704484253716,0.002054340462397618,-0.011686808414898187,0.2060714312151668
5596,10.0,300.66101000000003,-5537.688,0.0,0.05596001182759558,0.0,0.0,0.0,0.0,0.3440199202496227,0.8858795164445011,0.45341945950151663,-0.007909351044442172,0.014465906206173787,0.20451703463425983
5597,10.0,299.99962999999997,-5611.5507,0.0,0.05597000781501493,0.0,0.0,0.0,0.0,0.36031088442991566,0.8945474049549552,0.45091301312664955,-0.00996190241113822,0.01161676547523549,0.1884380829048908
5598,10.0,299.678,-5396.598000000001,0.0,0.055980003802434064,0.0,0.0,0.0,0.0,0.34535876813675664,0.8833871643785252,0.4116851064326566,-0.010729430951912389,-0.00029096573971358267,0.2054589113972158
5599,10.0,299.46096,-5392.5385,0.0,0.05598999978985342,0.0,0.0,0.0,0.0,0.3473687219626237,0.8786325896092851,0.4131957407417446,-0.007215695123408664,-0.016677318469923184,0.19627049604538982
5600,10.0,299.78829,-5472.842,0.0,0.056000028767330345,0.0,0.0,0.0,0.0,0.3335335416521977,0.8906987669676242,0.4393750025154366,0.0012172087325041487,0.007136307586023723,0.20854785498957082
5601,10.0,299.7242,-5569.0553,0.0,0.05601002475474948,0.0,0.0,0.0,0.0,0.32587578243143567,0.9061279619378672,0.46085000751985455,-0.009362622630918912,-0.005869397922864474,0.2101823996533878
5602,10.0,299.51165,-5565.125,0.0,0.05602002074216883,0.0,0.0,0.0,0.0,0.34336848149533067,0.8925462765374591,0.45574426053095657,-0.003258318175095967,0.0011790440595375888,0.2170123639399528
5603,10.0,299.69257000000005,-5348.0749,0.0,0.05603001672958818,0.0,0.0,0.0,0.0,0.32545015659442966,0.8808855208091322,0.4193455608986846,0.005797568825925495,0.0007255907878802353,0.2023413941520408
5604,10.0,299.57012000000003,-5197.893,0.0,0.05604001271700754,0.0,0.0,0.0,0.0,0.3277360285550277,0.8499980505907762,0.40229560146598464,0.01127682817268629,0.018851075320206283,0.2056453088856118
5605,10.0,299.14075,-5394.5258,0.0,0.05605000870442689,0.0,0.0,0.0,0.0,0.34444359051393564,0.8758299499651863,0.41952759127914957,0.004074377140009716,0.0029121917382859473,0.19142356352953482
5606,10.0,299.72534,-5609.4945,0.0,0.05606000469184602,0.0,0.0,0.0,0.0,0.35204332090147067,0.9027330168153122,0.4503699110730496,-0.005429186350668975,-0.011559927210875988,0.2012419468660338
5607,10.0,299.76704,-5649.1573,0.0,0.056070000679265375,0.0,0.0,0.0,0.0,0.3442479724496296,0.9023118796762492,0.4706429278813406,-0.01137601522497529,-0.012334122228033088,0.19317577692746482
5608,10.0,300.06989,-5416.1915,0.0,0.056079996666684506,0.0,0.0,0.0,0.0,0.33343442552741565,0.8903733211680052,0.42257924726782464,-0.006410648160581714,0.009182154682108111,0.21133794046493082
5609,10.0,300.02214,-5425.9762,0.0,0.056090025644161434,0.0,0.0,0.0,0.0,0.3450089030097277,0.8754535579505391,0.4288988273465186,-0.020502011330890982,0.002226623478225628,0.1954605748429568
5610,10.0,299.80102,-5601.3038,0.0,0.05610002163158079,0.0,0.0,0.0,0.0,0.37041764887737566,0.8974842799723021,0.4347545516619336,-0.013650756633224789,0.001759567263180768,0.1999811800316058
5611,10.0,300.19599999999997,-5564.9991,0.0,0.05611001761900014,0.0,0.0,0.0,0.0,0.36410089576646065,0.8947769871626131,0.43274289557589857,0.0003343362687789207,-0.02028419295689398,0.2037051882566368
5612,10.0,300.48701,-5456.6554,0.0,0.056120013606419494,0.0,0.0,0.0,0.0,0.33434045350183367,0.880321758585993,0.44402477682683356,0.01926050435436378,0.01131108615856729,0.20103330853794282
5613,10.0,299.84906,-5291.5541,0.0,0.05613000959383885,0.0,0.0,0.0,0.0,0.3125793168016767,0.8756550629979262,0.4202659263620176,0.017881322020499087,-0.01053498927097249,0.21150831846924578
5614,10.0,299.74325,-5253.3369999999995,0.0,0.05614000558125798,0.0,0.0,0.0,0.0,0.30990178314742467,0.8736796812654712,0.41330180776221265,-0.0056799348462909256,-0.006027664650059184,0.21474170086335578
5615,10.0,299.73465,-5515.0782,0.0,0.05615000156867733,0.0,0.0,0.0,0.0,0.35029458295138366,0.8854315281777881,0.4407199400356716,-0.0025093641298549576,-0.017206816627680584,0.2043918475844048
5616,10.0,299.64105,-5565.2728,0.0,0.056159997556096464,0.0,0.0,0.0,0.0,0.35911573567196364,0.8943647058294241,0.4382235248367946,-0.007044818701369473,0.024632761450814274,0.19832613731826582
5617,10.0,299.7969,-5315.2112,0.0,0.05617002653357339,0.0,0.0,0.0,0.0,0.3227671311246357,0.8811396236692102,0.41178473931498966,0.005834389118659375,0.0055998259761597955,0.2083754302200538
5618,10.0,299.77786000000003,-5340.5217,0.0,0.056180022520992745,0.0,0.0,0.0,0.0,0.2989571013972687,0.8754848369811261,0.44894331572725554,-0.008986137701237741,0.0023314220108934377,0.2101725204649128
5619,10.0,299.85204,-5618.8476,0.0,0.0561900185084121,0.0,0.0,0.0,0.0,0.35337495444789263,0.9132381608045892,0.4413762525229446,0.002009518634949048,-0.0050904182374101655,0.2133858405070428
5620,10.0,300.72457,-5653.5644,0.0,0.05620001449583145,0.0,0.0,0.0,0.0,0.3667415268520707,0.8851524892327491,0.4666483818796095,-0.005820860304649184,0.0026357199637003074,0.19854395569226282
5621,10.0,300.35825,-5415.9627,0.0,0.05621001048325058,0.0,0.0,0.0,0.0,0.35290326626134066,0.8798532621372562,0.4135608958127826,0.007805803166372793,0.007253764145565783,0.2141297788629638
5622,10.0,300.38156000000004,-5373.5849,0.0,0.056220006470669937,0.0,0.0,0.0,0.0,0.3369358024404747,0.8765614253448772,0.41993838313469156,-0.023762747424700578,-6.581607669129103e-05,0.18799817024147483
5623,10.0,300.28235,-5465.6351,0.0,0.05623000245808929,0.0,0.0,0.0,0.0,0.34571244308416166,0.8774322530108213,0.43827188726406757,-0.0007098154464108302,0.0061803308399761645,0.19931051992291682
5624,10.0,299.89794,-5602.6076,0.0,0.05623999844550864,0.0,0.0,0.0,0.0,0.3398738730929397,0.911120285710571,0.45205866461721655,-0.011314846329688388,0.015219045886252886,0.1997374021900468
5625,10.0,299.50701000000004,-5528.6281,0.0,0.05625002742298535,0.0,0.0,0.0,0.0,0.3591197076123557,0.8770386864069792,0.4444064884045056,0.026419440550895772,-0.012120268701677388,0.2004473054751088
5626,10.0,299.57472,-5354.6719,0.0,0.056260023410404925,0.0,0.0,0.0,0.0,0.3193384751712537,0.8921992383782091,0.41614884802569363,0.004645588879208926,-0.024793147795893176,0.2091257520516048
5627,10.0,299.5302,-5286.3514,0.0,0.056270019397824056,0.0,0.0,0.0,0.0,0.32570987286006164,0.8768907518923793,0.40431819052059864,0.004777726926074935,-0.035119655792540165,0.21961790617459978
5628,10.0,299.62337,-5529.3525,0.0,0.05628001538524341,0.0,0.0,0.0,0.0,0.3537747525398497,0.8778947510189661,0.44911557837675653,0.009266782039735182,-0.0013113793861980689,0.2002820849138028
5629,10.0,299.88355,-5672.9789,0.0,0.05629001137266254,0.0,0.0,0.0,0.0,0.3574062307657487,0.9156791613554972,0.4513585391956196,0.006968782083390244,0.01075981224291079,0.1978602043922818
5630,10.0,300.22555,-5436.5796,0.0,0.056300007360081894,0.0,0.0,0.0,0.0,0.32523184172788366,0.8784118328099982,0.4489407724695046,-0.007119193183884664,0.010340659047543591,0.20762076154557382
5631,10.0,300.36687,-5282.0833,0.0,0.05631000334750125,0.0,0.0,0.0,0.0,0.3175597450182067,0.8688897136702382,0.4191719708915526,-0.009034254618011512,-0.011105965834823489,0.2017619569498548
5632,10.0,300.06664,-5420.8028,0.0,0.0563199993349206,0.0,0.0,0.0,0.0,0.3365899599163427,0.8882269433486741,0.4229717803565646,-0.020954229916771483,0.01010715941234897,0.2027302187454148
5633,10.0,300.21518,-5560.2115,0.0,0.05633002831239731,0.0,0.0,0.0,0.0,0.36138154528058164,0.8828448526600032,0.4459390697107596,0.005444331501238684,-0.005572671076129814,0.1953339591104608
5634,10.0,300.14234,-5537.3053,0.0,0.05634002429981688,0.0,0.0,0.0,0.0,0.3489379221274917,0.8993036313218582,0.43496100136980853,0.003276729436038017,0.003439226989025277,0.20275270276513382
5635,10.0,299.86811,-5497.0892,0.0,0.05635002028723601,0.0,0.0,0.0,0.0,0.3239653804278937,0.9001361885315251,0.4468762956557566,0.016659518705416484,0.0005580677778420015,0.2023633411492068
5636,10.0,299.83416,-5302.6023,0.0,0.05636001627465537,0.0,0.0,0.0,0.0,0.3086243382163507,0.8704159115008623,0.43281845363585564,0.02200243613197138,0.016893034349962685,0.2018255485261308
5637,10.0,299.47445,-5425.4775,0.0,0.0563700122620745,0.0,0.0,0.0,0.0,0.3355211330483577,0.8938336918495172,0.4198548507964476,0.007538103503202893,0.003534124750990957,0.2184593864077628
5638,10.0,299.68363,-5727.4641,0.0,0.05638000824949385,0.0,0.0,0.0,0.0,0.37180756456954966,0.8973387164629362,0.47185977032393356,-0.005371691905544714,-0.013409258604390786,0.20814702338251181
5639,10.0,299.85663,-5565.838000000001,0.0,0.05639000423691343,0.0,0.0,0.0,0.0,0.35292411894839865,0.8979691606751561,0.44098249340158363,-0.011100483138532388,-0.028223626586205076,0.2100585500936648
5640,10.0,300.74107000000004,-5300.5151,0.0,0.05640000022433256,0.0,0.0,0.0,0.0,0.3318485877959057,0.8759946639014422,0.4033809848406036,0.0007446072225770113,-0.0005417998043064774,0.21295713438973282
5641,10.0,300.04609,-5402.1566,0.0,0.056410029201809264,0.0,0.0,0.0,0.0,0.3283697354325697,0.8670656912377211,0.4466852878794056,0.0076380830183951035,-0.0018977749821208081,0.2000947653678158
5642,10.0,300.33584,-5533.4192,0.0,0.05642002518922862,0.0,0.0,0.0,0.0,0.3489534856490277,0.9062180398717572,0.4268497316692886,0.007640240227858003,0.009493184972554412,0.2038264742936068
5643,10.0,300.29626,-5585.1128,0.0,0.05643002117664797,0.0,0.0,0.0,0.0,0.3508083615470897,0.8924068735887011,0.4545195856650906,0.00026333554432669473,-0.00044962984333251054,0.2062229222376178
5644,10.0,300.01137,-5574.6928,0.0,0.056440017164067324,0.0,0.0,0.0,0.0,0.35298218831162964,0.8930977885668892,0.4484874241097626,0.004919794519945915,0.016411662532204982,0.19587822640167582
5645,10.0,299.62458,-5451.978,0.0,0.056450013151486456,0.0,0.0,0.0,0.0,0.35234473240871766,0.8919271401963551,0.4129933035042656,-0.004261262609653876,0.010322278690729589,0.2011432056437888
5646,10.0,300.22515,-5405.6532,0.0,0.05646000913890581,0.0,0.0,0.0,0.0,0.3478395184890877,0.8597298010437252,0.43561429437178356,-0.01136257142264849,0.0013917654815565586,0.1969466682346228
5647,10.0,300.52317,-5574.8711,0.0,0.05647000512632516,0.0,0.0,0.0,0.0,0.3488267077965157,0.9080165587992572,0.4377783534053596,-0.01747638472403488,-0.0005076332439820005,0.2101226077649868
5648,10.0,300.51472,-5529.2128,0.0,0.056480001113744516,0.0,0.0,0.0,0.0,0.3484975737665327,0.8846260956732982,0.4476189674490526,0.007053557476856924,0.004604946505772836,0.19525830985799483
5649,10.0,300.38248,-5288.0969,0.0,0.05648999710116387,0.0,0.0,0.0,0.0,0.3239530998366817,0.8613884509274212,0.4221078630563026,0.02048987259469298,-0.005912778807345834,0.21935890931653876
5650,10.0,300.18158999999997,-5332.6517,0.0,0.056500026078640575,0.0,0.0,0.0,0.0,0.31524414429967473,0.8935893060578981,0.4121595303944786,0.004755972750402965,-0.013627126627642688,0.2187958057059648
5651,10.0,299.99492999999995,-5506.1049,0.0,0.05651002206605993,0.0,0.0,0.0,0.0,0.35391634410882367,0.8884217102828961,0.4313803376364246,0.006115655390068193,-0.008907184645495681,0.2091414675606558
5652,10.0,299.82651,-5521.5846,0.0,0.05652001805347928,0.0,0.0,0.0,0.0,0.3333637310679387,0.8933481727991001,0.4517119304329965,0.012985703850589187,0.005573805510941775,0.20051822284960782
5653,10.0,299.36881,-5443.7115,0.0,0.05653001404089841,0.0,0.0,0.0,0.0,0.32751270823298767,0.9028413028534992,0.42439837570235855,0.006727706174547905,0.013917333615283885,0.21044722269952382
5654,10.0,299.5221,-5385.7749,0.0,0.056540010028317766,0.0,0.0,0.0,0.0,0.3254748798968697,0.8776784829176222,0.4339877341187546,-0.014467937772624286,0.0007772725515533283,0.1918138877330568
5655,10.0,299.53663,-5406.9895,0.0,0.05655000601573712,0.0,0.0,0.0,0.0,0.3281801766038617,0.9030882015053662,0.4123214376279576,-0.023463176992885276,0.01238154739896359,0.21667224627888582
5656,10.0,300.40532,-5618.2038,0.0,0.05656000200315647,0.0,0.0,0.0,0.0,0.35575834159811465,0.8983735386575652,0.4536617782629316,-0.010128676588822551,0.016728520023976384,0.19870118171027978
5657,10.0,300.20437000000004,-5624.725,0.0,0.05656999799057583,0.0,0.0,0.0,0.0,0.37797323195805366,0.8876604960127701,0.44414223277842557,0.015219522113799884,0.00975813224315267,0.1994245105591668
5658,10.0,300.20442,-5362.0723,0.0,0.05658002696805253,0.0,0.0,0.0,0.0,0.3069316025992907,0.8971140789157661,0.42589040673961065,0.0049729206412390545,-0.013624405037874088,0.2124797314726168
5659,10.0,300.15187000000003,-5164.5388,0.0,0.056590022955471664,0.0,0.0,0.0,0.0,0.30812907169997167,0.8549446970489722,0.4068170577847176,-0.0012850934494538489,-0.01902336735396018,0.2046001616724638
5660,10.0,300.63035,-5453.7884,0.0,0.05660001894289124,0.0,0.0,0.0,0.0,0.32919977978198867,0.881682188700257,0.4469335138889036,0.008293824539236752,-0.012707257656858687,0.2032382522130538
5661,10.0,299.92342,-5745.4646,0.0,0.05661001493031037,0.0,0.0,0.0,0.0,0.3736844381272827,0.9089606343149301,0.46383271183922453,0.006979294553177743,0.008096145524227353,0.2081868542439428
5662,10.0,299.6996,-5516.4919,0.0,0.056620010917729724,0.0,0.0,0.0,0.0,0.3533981578751827,0.8788589395491242,0.4446187035054496,-0.012230355285292089,-0.015377526307893684,0.2091529071542848
5663,10.0,300.00993,-5411.0745,0.0,0.05663000690514908,0.0,0.0,0.0,0.0,0.3381752606252997,0.9036935981751142,0.40296269493432163,-0.02291724189200568,-0.00957067155142674,0.2109581844599518
5664,10.0,299.7461,-5562.7157,0.0,0.05664000289256843,0.0,0.0,0.0,0.0,0.3452156161626287,0.8899107117023493,0.45580033379149054,-0.014361528273622486,0.006101543754600484,0.2063529728879528
5665,10.0,299.30251,-5563.3402,0.0,0.056649998879987784,0.0,0.0,0.0,0.0,0.35789883243436466,0.8958897181574312,0.43732796373590954,-0.003024329342753067,0.017942997540835982,0.19431608859000482
5666,10.0,299.4028,-5582.8796,0.0,0.05666002785746449,0.0,0.0,0.0,0.0,0.33600051180316864,0.9189487674406822,0.44210670452003453,0.009737246220166381,0.0019125191896259483,0.2075982673933538
5667,10.0,299.73879,-5488.9281,0.0,0.05667002384488362,0.0,0.0,0.0,0.0,0.33164958547626566,0.8784454119183122,0.4584020763382625,0.012280866816027188,0.0069995445590762635,0.1867360659169148
5668,10.0,299.83455,-5362.9531,0.0,0.0566800198323032,0.0,0.0,0.0,0.0,0.3309023135275157,0.8875538615722462,0.4117476543613296,0.02033672693482868,0.005610609794324074,0.21790878630342278
5669,10.0,300.0388,-5564.1695,0.0,0.05669001581972255,0.0,0.0,0.0,0.0,0.35165814400845663,0.8833232181647142,0.4563872285144126,-0.0089704319193877,0.006256313147750034,0.20640406095799482
5670,10.0,300.21885,-5714.2241,0.0,0.05670001180714168,0.0,0.0,0.0,0.0,0.36192218513643865,0.9089684160756982,0.46609084101208453,-0.005848492749451295,-0.02275800355929008,0.2110577565472788
5671,10.0,300.53612000000004,-5475.1901,0.0,0.056710007794561035,0.0,0.0,0.0,0.0,0.3398894568794777,0.8885721880552471,0.4358594299684766,-0.027899566912722874,-0.010247673085866589,0.1995082252824288
5672,10.0,300.69131,-5353.9255,0.0,0.056720003781980166,0.0,0.0,0.0,0.0,0.3188480519903527,0.8757755789648201,0.43283605379009255,0.01244817365928909,0.0012745349781118087,0.20384369954530682
5673,10.0,299.98075,-5520.9692,0.0,0.05672999976939974,0.0,0.0,0.0,0.0,0.33957844989378366,0.9015777901113001,0.43708053819399056,-0.0026303743601477376,0.01113936863762009,0.18598081968987784
5674,10.0,299.70971000000003,-5555.9093,0.0,0.05674002874687645,0.0,0.0,0.0,0.0,0.3539621835433477,0.9073217022781802,0.42757380019074853,0.02245974832610458,-0.006059614249562364,0.21447535794206982
5675,10.0,299.63475,-5489.0901,0.0,0.05675002473429558,0.0,0.0,0.0,0.0,0.32567743872436067,0.9026720495567951,0.44019682940654453,0.01049108311763929,0.006671570193832714,0.2059048123687228
5676,10.0,299.78359,-5446.8329,0.0,0.05676002072171493,0.0,0.0,0.0,0.0,0.3284139232694307,0.9127407158004952,0.4145465449800586,0.021758140519611276,-0.0004120726745959066,0.2268058111914908
5677,10.0,299.69351,-5487.7503,0.0,0.05677001670913451,0.0,0.0,0.0,0.0,0.3472218716256307,0.8810743500977682,0.4398428403516086,-0.0024277739894026378,-0.00014459315014273287,0.18534585638221182
5678,10.0,299.85929,-5464.9245,0.0,0.05678001269655364,0.0,0.0,0.0,0.0,0.3296413947055727,0.8936922421355572,0.4378669621266046,-0.025503950847043974,-0.03220900166128097,0.2114603005470068
5679,10.0,299.95537,-5556.7136,0.0,0.05679000868397299,0.0,0.0,0.0,0.0,0.34390093429037966,0.8962553089260121,0.4489459299125136,-0.033562423124603266,-0.013000980622346886,0.1943629818046328
5680,10.0,300.47556000000003,-5529.4966,0.0,0.056800004671392124,0.0,0.0,0.0,0.0,0.3432944838405277,0.8808704233826422,0.45666398764672655,2.9035455738576372e-06,0.01007092275167269,0.2064418247892218
5681,10.0,300.40976,-5391.8952,0.0,0.05681000065881148,0.0,0.0,0.0,0.0,0.3234348528080347,0.8952195140112872,0.4203471282250316,-0.0067200499554672935,0.023515861945084877,0.21984494512450678
5682,10.0,300.44837,-5431.1312,0.0,0.05681999664623105,0.0,0.0,0.0,0.0,0.3370822069474237,0.8839731978388622,0.42987285453514756,0.008732595573765082,-0.00968203412089237,0.21817788526498078
5683,10.0,300.70654,-5573.4368,0.0,0.056830025623707536,0.0,0.0,0.0,0.0,0.3515184472171697,0.8993257911015451,0.44334138016438757,-0.002983413999740037,-0.004462970915010936,0.2052859597376468
5684,10.0,300.57816,-5593.552,0.0,0.05684002161112689,0.0,0.0,0.0,0.0,0.3381976635850107,0.9245989438408112,0.43750354984573864,0.016315423024456883,0.007234963087310263,0.2038827704691628
5685,10.0,300.1492,-5560.8193,0.0,0.05685001759854624,0.0,0.0,0.0,0.0,0.36190626697736766,0.8826791153411462,0.44576483122356353,0.008855378789082841,0.0028641389602435076,0.18911390045658882
5686,10.0,300.00199,-5519.6316,0.0,0.056860013585965596,0.0,0.0,0.0,0.0,0.3366189490017037,0.9063313718954421,0.4348798805668026,-0.008054263236643893,-0.02414273242420218,0.1961581468743018
5687,10.0,299.88037,-5499.8538,0.0,0.05687000957338495,0.0,0.0,0.0,0.0,0.34217635222267667,0.8909830342831793,0.43865885760975865,-0.02065087904883308,0.0012770602000110288,0.2117995670779898
5688,10.0,299.79759,-5507.361999999999,0.0,0.05688000556080408,0.0,0.0,0.0,0.0,0.3431129904826157,0.8867062981285981,0.4442812506921456,-0.005103691712395155,0.009779119692473972,0.2038060877015948
5689,10.0,299.83985,-5481.5691,0.0,0.056890001548223434,0.0,0.0,0.0,0.0,0.3498698487744657,0.8942603005391201,0.42212999243848653,0.003060131521786467,0.025971491800936674,0.22445069371905882
5690,10.0,300.10142,-5426.8914,0.0,0.05689999753564301,0.0,0.0,0.0,0.0,0.3327484957397197,0.8611552514169061,0.45573573909761556,0.004804141241606826,-0.024877842332001875,0.1970130665136758
5691,10.0,300.0161,-5382.8383,0.0,0.056910026513119494,0.0,0.0,0.0,0.0,0.3313416891683787,0.8886061623311001,0.41630058222816857,0.006316491591064183,-0.008770999272430231,0.21351903223268778
5692,10.0,300.25481,-5517.4394,0.0,0.05692002250053907,0.0,0.0,0.0,0.0,0.3175492376146697,0.9050175208882751,0.4545970486352356,0.012997219437975688,-0.005672741074555954,0.2101988244375088
5693,10.0,300.09725,-5624.4344,0.0,0.0569300184879582,0.0,0.0,0.0,0.0,0.35729337496961067,0.8971151225633691,0.45527909767504854,0.020213082051625877,0.021104551648607084,0.2118004080755728
5694,10.0,300.08987,-5504.6981,0.0,0.056940014475377554,0.0,0.0,0.0,0.0,0.3308830212456117,0.915469702294825,0.42693805668050555,-0.00990816590798484,-0.011724448629612989,0.2199361173685048
5695,10.0,300.68376,-5397.6867,0.0,0.05695001046279691,0.0,0.0,0.0,0.0,0.3362836746761147,0.8753644730017472,0.4291138390177386,-0.014126204990897884,-0.002459382832897188,0.2026085476734068
5696,10.0,300.63256,-5486.4854,0.0,0.05696000645021604,0.0,0.0,0.0,0.0,0.34424447673678465,0.8926249250102211,0.4308851521800536,-0.016454770244459384,0.011441898772977488,0.1979324795219148
5697,10.0,300.13556,-5481.3281,0.0,0.05697000243763539,0.0,0.0,0.0,0.0,0.33924350994072766,0.9023712662646102,0.4245720974320036,-0.014343009101544787,0.018369629535191282,0.2013730816939758
5698,10.0,299.77912000000003,-5452.7119999999995,0.0,0.056979998425054745,0.0,0.0,0.0,0.0,0.3171243818477397,0.8855789155373341,0.45478499639628456,0.005981888847641463,-0.011700347462734389,0.19955666876970982
5699,10.0,299.90162000000004,-5475.4514,0.0,0.05699002740253167,0.0,0.0,0.0,0.0,0.32952610710919467,0.8958676901002571,0.4390067165015896,-0.007088606203115963,-0.0019182151750630982,0.21689155413052977
5700,10.0,299.53366,-5512.4517,0.0,0.05700002338995103,0.0,0.0,0.0,0.0,0.3412719961109237,0.8901463936756091,0.44422928109451654,0.017725538870624485,0.01079090179572909,0.20829441074205782
5701,10.0,299.86929,-5578.1603,0.0,0.05701001937737016,0.0,0.0,0.0,0.0,0.35925119707783265,0.8942703621126131,0.4420998954793626,0.0032257954813362266,0.0014919353864425587,0.2210323627841958
5702,10.0,300.12645,-5569.0478,0.0,0.05702001536478951,0.0,0.0,0.0,0.0,0.3743589891163556,0.899891326512359,0.41860116658021856,-0.008644262557872292,-0.023246131728714578,0.2033705928086148
5703,10.0,300.26003,-5314.4642,0.0,0.057030011352208865,0.0,0.0,0.0,0.0,0.3338213452106017,0.8616563745188631,0.4199867050319606,-0.007658108184096431,-0.021592970620810278,0.19404608783585783
5704,10.0,300.08628999999996,-5291.6694,0.0,0.057040007339627996,0.0,0.0,0.0,0.0,0.30816556896857367,0.8825422151201352,0.4178275805263716,0.004712960486307985,-0.003149979751878797,0.19479078612935383
5705,10.0,300.41606,-5580.1986,0.0,0.05705000332704757,0.0,0.0,0.0,0.0,0.34718477653946966,0.9090287652516541,0.4400275051823336,0.023686026153628775,0.013884137515507686,0.1908791847808088
5706,10.0,300.61722000000003,-5636.7367,0.0,0.0570599993144667,0.0,0.0,0.0,0.0,0.3578510576921497,0.8935357760551151,0.46204038386983554,0.0028946895653336174,-0.00946609238740558,0.19727679524970382
5707,10.0,300.32755,-5460.4179,0.0,0.05707002829194363,0.0,0.0,0.0,0.0,0.3286965592523247,0.9100701026444261,0.42106403306828455,-0.0011947266379603388,0.004097008384968247,0.2198734478498198
5708,10.0,299.67069,-5402.1169,0.0,0.057080024279362984,0.0,0.0,0.0,0.0,0.3491681426827127,0.8640472293223221,0.4288932848684716,-0.00014636429105253088,0.006108818788993474,0.21383607818897782
5709,10.0,299.62744,-5614.6022,0.0,0.057090020266782115,0.0,0.0,0.0,0.0,0.35126238878439864,0.9066900725633431,0.4487464209678236,-0.02089927832409818,0.013850333465671487,0.21641802182879583
5710,10.0,299.626,-5582.4954,0.0,0.05710001625420125,0.0,0.0,0.0,0.0,0.3378229434330287,0.914045103051728,0.44507115007260256,-0.019455468872355282,-0.006039772988754184,0.23319328915938578
5711,10.0,300.06066,-5483.6811,0.0,0.05711001224162082,0.0,0.0,0.0,0.0,0.3361783169307167,0.8806045769539053,0.4501192431308106,-0.004450904930170116,-0.010901252837619889,0.2079120810818248
5712,10.0,300.29859,-5453.2827,0.0,0.057120008229040176,0.0,0.0,0.0,0.0,0.31416113193028977,0.9147445090657542,0.42875613133493556,0.008257830754609442,0.012603856497403788,0.2139075325860298
5713,10.0,299.99048999999997,-5436.9568,0.0,0.05713000421645953,0.0,0.0,0.0,0.0,0.3442975609095237,0.8955492458588291,0.41285228948784863,0.012745920240924385,-0.01029373746191279,0.20498576413051983
5714,10.0,300.34233,-5532.8213,0.0,0.05714000020387866,0.0,0.0,0.0,0.0,0.36388178043233566,0.9015592172369671,0.4163985331153356,0.015309009322881586,-0.008943650402019571,0.2061693517048308
5715,10.0,300.19055,-5715.9591,0.0,0.05715002918135559,0.0,0.0,0.0,0.0,0.3661482587860197,0.9321907607450651,0.4391698092376856,0.010855965624400388,-0.01088616250388059,0.21162915867617182
5716,10.0,299.97697999999997,-5720.1543,0.0,0.05716002516877494,0.0,0.0,0.0,0.0,0.3473251218108207,0.9122556020501181,0.47920335108618856,0.015735853086507785,-0.0005115020152488185,0.19271583230957182
5717,10.0,299.36815,-5619.842,0.0,0.05717002115619407,0.0,0.0,0.0,0.0,0.3400367631790157,0.9116144072543372,0.45664048024440657,0.0027609985100393378,-0.0018624425458337681,0.1991714918766958
5718,10.0,299.04642,-5692.2599,0.0,0.057180017143613204,0.0,0.0,0.0,0.0,0.33269617150455566,0.9174290645431991,0.4801796276900395,-0.02731850851037687,-0.0075463826684449824,0.1978173743105548
5719,10.0,299.26147000000003,-5554.4991,0.0,0.05719001313103256,0.0,0.0,0.0,0.0,0.3574555760456187,0.8785907221151532,0.45238273239669957,-0.007227905293738713,0.007779370511014092,0.19519809240455183
5720,10.0,299.87986,-5327.1015,0.0,0.05720000911845213,0.0,0.0,0.0,0.0,0.3309150500812727,0.8744831480647672,0.4139076603945056,-0.01782073777051988,0.026341075788161777,0.21214278528436278
5721,10.0,299.76957999999996,-5409.4596,0.0,0.057210005105871486,0.0,0.0,0.0,0.0,0.3412283655616177,0.8780611570828892,0.42505111141677854,0.018087198228817485,0.013778366364068886,0.22613335763012476
5722,10.0,300.21744,-5545.1567,0.0,0.05722000109329062,0.0,0.0,0.0,0.0,0.3483870484456247,0.9011022313093662,0.4360998944822086,-0.008250039469290503,-0.0026367702987539674,0.2210815358115488
5723,10.0,300.55598,-5524.2034,0.0,0.05722999708070975,0.0,0.0,0.0,0.0,0.33518155240984365,0.919718574071656,0.4243197576270996,0.017277356059892283,-0.0028903568065810075,0.2175501565630288
5724,10.0,299.68782000000004,-5564.5656,0.0,0.0572400260581869,0.0,0.0,0.0,0.0,0.3293481803916347,0.8991338916651063,0.46300692314022557,-0.006826700101367844,0.010468025598363689,0.1898894522156298
5725,10.0,300.29438,-5671.7535,0.0,0.05725002204560603,0.0,0.0,0.0,0.0,0.3625006394860277,0.9211558592060051,0.4404149416230706,0.00962502431329094,-0.01062605917671039,0.19885610765056982
5726,10.0,299.84959,-5643.4556,0.0,0.05726001803302516,0.0,0.0,0.0,0.0,0.34845038670937567,0.9087856358901591,0.45823356271413157,-0.012083908221838888,-0.02066326096505508,0.20234609563250483
5727,10.0,299.58387,-5576.0366,0.0,0.057270014020444515,0.0,0.0,0.0,0.0,0.34430978070572965,0.9076456991301561,0.44302040279770954,-0.0007235723328860293,-0.013738448363129287,0.22144267841219076
5728,10.0,300.11121,-5521.2908,0.0,0.05728001000786409,0.0,0.0,0.0,0.0,0.33767567766349466,0.9040257212928922,0.4366331274798346,0.0012879294351587388,0.016691312467054284,0.2148708091910978
5729,10.0,301.22211,-5410.9613,0.0,0.057290005995283444,0.0,0.0,0.0,0.0,0.3327417170965507,0.8755715509246843,0.4364838656076036,0.02218194047993708,-0.008822266079789871,0.22005551876028878
5730,10.0,300.40316,-5430.3652,0.0,0.057300001982702575,0.0,0.0,0.0,0.0,0.30762007564473776,0.9009910575083941,0.44208428129532157,-0.0042280850523545065,0.0039558018510322465,0.2078197638652138
5731,10.0,300.25174,-5430.7274,0.0,0.05730999797012171,0.0,0.0,0.0,0.0,0.3368720183466796,0.8855407160085641,0.4283927899815766,-0.002014546077970218,0.016449773908216284,0.20975163663837482
5732,10.0,299.85489,-5541.7913,0.0,0.05732002694759886,0.0,0.0,0.0,0.0,0.3466857609977207,0.8886664101820462,0.44921399535896955,-0.006404415152591563,0.03813237865937276,0.20937500144370377
5733,10.0,299.69056,-5575.4118,0.0,0.05733002293501799,0.0,0.0,0.0,0.0,0.36392335408393867,0.9115876878492001,0.4192749373667146,-0.012895486088185387,0.0026878767086227777,0.21237834566761082
5734,10.0,299.6586,-5683.9788,0.0,0.05734001892243712,0.0,0.0,0.0,0.0,0.3720541389813847,0.9137076806359271,0.4420258066320506,-0.008275231602551773,-0.017537457360562284,0.20872678482472978
5735,10.0,299.36542000000003,-5715.2823,0.0,0.057350014909856695,0.0,0.0,0.0,0.0,0.36421352864757667,0.904896407103822,0.4681931728495686,0.005413313382552434,-0.016101171290811882,0.1902015535114318
5736,10.0,299.22542000000004,-5532.8971,0.0,0.057360010897275826,0.0,0.0,0.0,0.0,0.3340751136981467,0.8934209342887811,0.4543665139724836,0.006458346503739175,-0.0024621049292908375,0.1929106499062988
5737,10.0,300.09959,-5469.2718,0.0,0.0573700068846954,0.0,0.0,0.0,0.0,0.34282669666686066,0.8674318595588593,0.4522635032574326,0.020890014178433877,-0.017938768234918585,0.17375300867558685
5738,10.0,300.76976,-5530.4901,0.0,0.05738000287211453,0.0,0.0,0.0,0.0,0.3353938789682987,0.8925740193251972,0.4531629957687056,0.004723565567154626,-0.012610442623053789,0.1979867289322688
5739,10.0,300.68602999999996,-5537.8104,0.0,0.057389998859533664,0.0,0.0,0.0,0.0,0.3346752110698717,0.9060991349725221,0.4425817262994156,0.024148785580299578,-0.002107673995986228,0.20797105223764484
5740,10.0,300.24172000000004,-5488.4734,0.0,0.05740002783701059,0.0,0.0,0.0,0.0,0.34295042463657166,0.8909261402900641,0.4344823014925646,-0.001042841461220439,0.020369368786800183,0.2226012488415328
5741,10.0,299.74097,-5512.8715,0.0,0.057410023824429945,0.0,0.0,0.0,0.0,0.3405658722487347,0.9083510427897681,0.42685837469264154,-0.003940401057462306,-0.009653609922462121,0.23392910124950478
5742,10.0,300.21702,-5371.2437,0.0,0.0574200198118493,0.0,0.0,0.0,0.0,0.3306297087206117,0.8821295690169102,0.41996469723978863,-0.02125009590622118,-0.010784653082362388,0.22550367335547977
5743,10.0,299.79296,-5384.4449,0.0,0.05743001579926865,0.0,0.0,0.0,0.0,0.3313639198755727,0.8939221587157481,0.4114507112870236,-0.01728049105570168,-0.007403751099568342,0.2190545796490038
5744,10.0,299.68504,-5553.3234,0.0,0.057440011786687784,0.0,0.0,0.0,0.0,0.34505238157151863,0.9072610795246973,0.4357581860184846,-0.004160215331506286,0.02084740802497898,0.20659240388658281
5745,10.0,300.35284,-5590.6087,0.0,0.05745000777410714,0.0,0.0,0.0,0.0,0.36143138705300065,0.8959976191605802,0.44197644108717854,0.0014735306103011486,0.002070580733675408,0.1961524625412408
5746,10.0,300.65285,-5530.1726,0.0,0.05746000376152649,0.0,0.0,0.0,0.0,0.33593028343873765,0.9089161830330432,0.4361879053858946,-0.0014125702418848285,0.004679609967216545,0.22163444612611677
5747,10.0,300.07266,-5532.0971,0.0,0.05746999974894562,0.0,0.0,0.0,0.0,0.33497331938179264,0.8931649974460222,0.4534810651075965,0.00953555747053625,0.0054994175522002555,0.2061457227124988
5748,10.0,300.55756,-5532.6202,0.0,0.05748002872642255,0.0,0.0,0.0,0.0,0.3404653477063137,0.902835821170458,0.43847723252933357,0.008373727111647522,0.011790479098879687,0.2065326322631838
5749,10.0,300.42748,-5583.5858,0.0,0.0574900247138419,0.0,0.0,0.0,0.0,0.3573077428560286,0.8994167809605252,0.4405461271135176,-0.005491916157734925,-0.018327814730064482,0.19050966260183982
5750,10.0,300.1499,-5579.8353,0.0,0.057500020701261256,0.0,0.0,0.0,0.0,0.3480240009347947,0.8939835211418042,0.4541230806359586,-0.016337272749613285,-0.01996875806826298,0.2102610886561538
5751,10.0,299.93363999999997,-5434.882,0.0,0.05751001668868061,0.0,0.0,0.0,0.0,0.3421804862830847,0.8891561240878771,0.4207318187579976,0.006957005381452973,-0.0018604551570876283,0.1938344198899678
5752,10.0,299.68567,-5431.7728,0.0,0.05752001267609974,0.0,0.0,0.0,0.0,0.3336642407825967,0.8837230871841782,0.4337359718664076,0.006634230711747594,0.01960130494599818,0.22495193841102779
5753,10.0,299.34906,-5648.5761,0.0,0.057530008663519094,0.0,0.0,0.0,0.0,0.37581712693776265,0.8873513838047631,0.4538575787122555,0.014005214822957086,0.0069814980681702134,0.2141312075456048
5754,10.0,300.12156,-5594.2405,0.0,0.05754000465093845,0.0,0.0,0.0,0.0,0.36647598439836365,0.9094001720758091,0.4246332572080396,-0.009205498748511991,0.0056115017583871045,0.22101918040039478
5755,10.0,300.38723999999996,-5433.0502,0.0,0.0575500006383578,0.0,0.0,0.0,0.0,0.34061988861156567,0.8880382153850481,0.4228534935398906,-0.0003898275184554806,0.006423387450113983,0.2044010174978098
5756,10.0,300.36054,-5426.2504,0.0,0.05756002961583451,0.0,0.0,0.0,0.0,0.3154011068726657,0.9043669231315661,0.42967658799077757,-0.011095320629272888,0.019406455938518082,0.20615357540077378
5757,10.0,300.5962,-5585.8204,0.0,0.05757002560325364,0.0,0.0,0.0,0.0,0.3521784681998087,0.9008837441903031,0.4448877011419976,-0.005910599306380734,-0.00013946015685864586,0.1993334801701828
5758,10.0,300.56642,-5661.9585,0.0,0.057580021590673214,0.0,0.0,0.0,0.0,0.32933140096997865,0.9123362567580781,0.4794263674331986,-0.02063911926817248,-0.014852054806033686,0.1997316469294788
5759,10.0,300.39128999999997,-5486.6871,0.0,0.05759001757809257,0.0,0.0,0.0,0.0,0.32664205281956066,0.915223168412994,0.4259506647230576,-0.00967710273398068,-0.00951968551566981,0.2255512353151738
5760,10.0,300.3505,-5505.4286,0.0,0.0576000135655117,0.0,0.0,0.0,0.0,0.3383797547604817,0.8944346504838271,0.4406984084710466,0.016426744759943483,0.017158600108421983,0.19923378649284382
5761,10.0,299.96646,-5605.0764,0.0,0.05761000955293105,0.0,0.0,0.0,0.0,0.35719561659996263,0.9075102985192932,0.43909734159053354,-0.00029406394441185173,0.011054595068003591,0.22040750158002678
5762,10.0,299.90031,-5626.5543,0.0,0.057620005540350405,0.0,0.0,0.0,0.0,0.35698269222394863,0.9128460938108951,0.44050322610428355,0.016711564296802983,-0.008165869290108553,0.2116122475320028
5763,10.0,299.65811,-5566.3169,0.0,0.05763000152776976,0.0,0.0,0.0,0.0,0.3535194844421567,0.8954184048734163,0.4430834472189316,0.00866794180740925,0.0028516769972636072,0.2025307300657268
5764,10.0,299.53361,-5477.745,0.0,0.05763999751518911,0.0,0.0,0.0,0.0,0.3182723638135367,0.903819565427546,0.4430057917312676,0.004338738954700196,0.016198593261426687,0.21115019535390178
5765,10.0,300.33984,-5457.7442,0.0,0.05765002649266582,0.0,0.0,0.0,0.0,0.34632529727464567,0.8813774030701771,0.43131526671500253,-0.016990247591056884,-0.014277986816127589,0.2036991492860408
5766,10.0,299.31862,-5729.9109,0.0,0.05766002248008517,0.0,0.0,0.0,0.0,0.3681134168249656,0.9199172622837651,0.4537191687485955,-0.02095666779651208,-0.021753036778857582,0.21170724986137882
5767,10.0,299.75155,-5758.6693,0.0,0.057670018467504525,0.0,0.0,0.0,0.0,0.3767443723692746,0.9261276140016791,0.44761967672412256,-0.011926195843773888,-0.005379822325672125,0.1975650446381518
5768,10.0,300.17395,-5568.5469,0.0,0.057680014454923656,0.0,0.0,0.0,0.0,0.34157613326093966,0.9026045367026322,0.4485185511528345,-0.0025712483797124576,0.01707195101287038,0.19849699155012782
5769,10.0,300.02552000000003,-5486.3823,0.0,0.05769001044234301,0.0,0.0,0.0,0.0,0.3320794466986897,0.9048894359431342,0.4307543517246446,-0.00026126105660195873,0.013365926963864287,0.1987765776502208
5770,10.0,300.41797,-5608.3691,0.0,0.05770000642976214,0.0,0.0,0.0,0.0,0.3241832494643957,0.9139743477972451,0.4666465884269326,0.00941991381807311,0.006599405609785623,0.2063312690708108
5771,10.0,300.51347999999996,-5625.7663,0.0,0.057710002417181716,0.0,0.0,0.0,0.0,0.3643872503772217,0.9013494035387601,0.4443558360320066,0.019155863990036583,0.004031257268754116,0.22222207038911077
5772,10.0,299.91642,-5598.0156,0.0,0.05771999840460107,0.0,0.0,0.0,0.0,0.3454590900291577,0.9172749390704881,0.43892293085082057,0.017928565819661683,0.014868394477146286,0.22692639808589177
5773,10.0,300.46929,-5498.2113,0.0,0.057730027382077775,0.0,0.0,0.0,0.0,0.35285333329641266,0.8919518837637972,0.42651372780362756,-0.01058796502595079,-0.014230847381725286,0.23274395327003977
5774,10.0,300.15468,-5469.2158,0.0,0.05774002336949691,0.0,0.0,0.0,0.0,0.35263431928729766,0.8904432860874101,0.41942743150676454,-0.01194150807928509,-0.02381529558813668,0.22322058783265677
5775,10.0,299.89592999999996,-5529.6025,0.0,0.05775001935691648,0.0,0.0,0.0,0.0,0.3323616571165417,0.9220085902251631,0.42649084861636954,-0.0043512507695850165,-0.013746635423937288,0.23084285290241577
5776,10.0,300.23443,-5557.9324,0.0,0.05776001534433561,0.0,0.0,0.0,0.0,0.32889767926467367,0.903959019038809,0.45661595959198653,0.01924955517378318,0.003158254256170427,0.1970997095297268
5777,10.0,299.64318,-5581.5559,0.0,0.05777001133175497,0.0,0.0,0.0,0.0,0.3366618094809337,0.9232580593209762,0.43673374321476455,0.0002164986056092488,-0.0024593509155190377,0.2064915956341338
5778,10.0,299.64292,-5607.3193,0.0,0.0577800073191741,0.0,0.0,0.0,0.0,0.3477845699361647,0.9068769868092901,0.44982349569162255,0.0026770556028548175,-0.011722963204966387,0.1948875717789058
5779,10.0,299.85022000000004,-5647.8704,0.0,0.05779000330659345,0.0,0.0,0.0,0.0,0.3643896315149566,0.9070446290383352,0.4453773238553196,-0.0001850043910985118,0.0072429087919444425,0.20792392597549378
5780,10.0,299.75846,-5740.7565,0.0,0.05779999929401303,0.0,0.0,0.0,0.0,0.38280882620528967,0.9094328696565362,0.4528049435808686,0.009175074394384341,0.013010091767246088,0.20358066995184781
5781,10.0,299.78606,-5715.8739,0.0,0.05781002827148973,0.0,0.0,0.0,0.0,0.3522856801928897,0.9142335777028292,0.4709636924654975,-0.011466909838445888,0.007336620038043023,0.2002159196822728
5782,10.0,300.35065,-5532.6173,0.0,0.057820024258908864,0.0,0.0,0.0,0.0,0.3463974305492647,0.8914499297967582,0.4439301595324956,-0.01077835471974079,-0.010368382583529689,0.2129699621359988
5783,10.0,300.16376,-5548.7724,0.0,0.05783002024632822,0.0,0.0,0.0,0.0,0.35241027955768667,0.8939458687680881,0.44033209829489456,-0.002390454063044448,0.005730475659953915,0.2026737097873378
5784,10.0,300.54755,-5472.3766,0.0,0.05784001623374757,0.0,0.0,0.0,0.0,0.3382017672479157,0.8827902384796131,0.44247382529626655,0.01056805972773629,0.0038822764721008563,0.2092691776032598
5785,10.0,300.34036000000003,-5432.6019,0.0,0.057850012221166924,0.0,0.0,0.0,0.0,0.34138844894491666,0.9031947042233771,0.40679218249476257,0.00967926065271865,-7.476917585314313e-05,0.2081480163676098
5786,10.0,299.91461,-5505.0019999999995,0.0,0.05786000820858628,0.0,0.0,0.0,0.0,0.34568568314902065,0.8872213128894261,0.4404761419291106,-0.01077998605240179,-0.015165639499982087,0.21051618450132978
5787,10.0,299.95679,-5565.8395,0.0,0.05787000419600541,0.0,0.0,0.0,0.0,0.33832398547497766,0.9228192004376641,0.4307330329425406,0.0024709481708635977,0.001992368667731478,0.22067606351903182
5788,10.0,300.1641,-5617.6882,0.0,0.057880000183424984,0.0,0.0,0.0,0.0,0.34129526033321966,0.91511947239776,0.4512221962621636,0.012122506971148288,0.004115318928850356,0.2022954939225108
5789,10.0,299.38626,-5719.8792,0.0,0.05789002916090169,0.0,0.0,0.0,0.0,0.3545545599493106,0.9194808554656952,0.4646650258688676,-0.011959394983300387,-0.0061324562926263135,0.2044977828823598
5790,10.0,299.64385,-5664.6173,0.0,0.05790002514832082,0.0,0.0,0.0,0.0,0.3387735037493417,0.9287377665242812,0.4543909332998936,-0.004197993652209716,-0.02237104942560068,0.2042051866509828
5791,10.0,299.57502999999997,-5516.375,0.0,0.057910021135740175,0.0,0.0,0.0,0.0,0.34728004231387166,0.8841249928363433,0.4454352310985346,-0.008847196693200332,-0.0006234920094413703,0.2233199370049618
5792,10.0,299.67925,-5536.5358,0.0,0.05792001712315953,0.0,0.0,0.0,0.0,0.3489175659329827,0.8865875958793831,0.4474634740887066,0.02852678291012427,0.01947755468478498,0.20648233452821982
5793,10.0,300.0398,-5468.0406,0.0,0.05793001311057888,0.0,0.0,0.0,0.0,0.3394680562953887,0.8896708652711781,0.4330088635946476,0.02058777687235538,0.0076002702471882734,0.2168727279436718
5794,10.0,300.03685,-5492.3564,0.0,0.057940009097998235,0.0,0.0,0.0,0.0,0.35788426189792666,0.8768043824538552,0.43485055710890863,0.018784292006115283,-0.011059387740976591,0.1971296814676848
5795,10.0,300.13025,-5595.7971,0.0,0.057950005085417367,0.0,0.0,0.0,0.0,0.35152678626549266,0.9067072471525381,0.4427485477958796,-0.008581372555965533,-0.005161458924446335,0.21203899807661983
5796,10.0,300.72371,-5660.9239,0.0,0.05796000107283672,0.0,0.0,0.0,0.0,0.36128985627903265,0.9110786613964631,0.4484109743897176,-0.005715641779814925,0.004717091709615705,0.19506378610379682
5797,10.0,299.67854,-5736.6035,0.0,0.05796999706025607,0.0,0.0,0.0,0.0,0.36707636548011663,0.921013132796919,0.45569473286606854,-0.027303821450177373,0.006155056532131785,0.20068957357401881
5798,10.0,299.491,-5782.5835,0.0,0.05798002603773278,0.0,0.0,0.0,0.0,0.3633307851604567,0.9284494462083261,0.4659807513887196,-0.023530338249263576,-0.018797404475659384,0.2046913440489628
5799,10.0,299.79587999999995,-5744.9994,0.0,0.05799002202515213,0.0,0.0,0.0,0.0,0.36922251025192465,0.9147029050166481,0.46241094969640756,-0.006522835515628744,0.01107746412276059,0.2150309229718998
5800,10.0,299.5564,-5556.0209,0.0,0.058000018012571486,0.0,0.0,0.0,0.0,0.34705161521132766,0.8988941870889492,0.44294581745784856,0.016362292934332584,-0.003443541509276087,0.2031537268897118
5801,10.0,299.76783,-5465.9736,0.0,0.05801001399999106,0.0,0.0,0.0,0.0,0.3350747963793077,0.8967666557214782,0.42967802680591966,0.020020620261381378,8.516445414732722e-05,0.2071026361069388
5802,10.0,300.04945,-5609.5815,0.0,0.05802000998741019,0.0,0.0,0.0,0.0,0.34431969029170767,0.9005364729835301,0.46031652120970357,0.015439276808737985,-0.03171908510542997,0.2066136314761778
5803,10.0,299.71294,-5576.1388,0.0,0.058030005974829324,0.0,0.0,0.0,0.0,0.35958982526125266,0.9043245692773861,0.4310925543430226,0.013976649276137886,-0.001951575421355498,0.21465550367734879
5804,10.0,300.24543,-5501.1636,0.0,0.05804000196224868,0.0,0.0,0.0,0.0,0.32960013516150066,0.9016402367149632,0.44097600860094355,0.010732941863508889,0.01058866416851979,0.21875276284171677
5805,10.0,299.99975,-5645.648,0.0,0.05804999794966803,0.0,0.0,0.0,0.0,0.3680325898644886,0.9166742945437091,0.4314291357612406,-0.01087739687726549,0.006239724926387904,0.2095373342422248
5806,10.0,299.79179,-5730.3399,0.0,0.05806002692714474,0.0,0.0,0.0,0.0,0.3653882401510117,0.9426941416791681,0.4337978510500146,-0.007841578088978502,-0.013616878616131289,0.22257840005177779
5807,10.0,300.0275,-5737.611999999999,0.0,0.05807002291456409,0.0,0.0,0.0,0.0,0.35703026431614365,0.927917925603369,0.45914256964384353,-0.015870822052828186,0.01109503387949459,0.20844632732955082
5808,10.0,299.85215,-5664.1294,0.0,0.05808001890198344,0.0,0.0,0.0,0.0,0.33557492649616666,0.9308122441165162,0.4553667336761976,0.009646240047859772,0.00936719684717035,0.2206855779374708
5809,10.0,300.03215,-5465.9069,0.0,0.0580900148894028,0.0,0.0,0.0,0.0,0.32712807849502773,0.8871656449289321,0.4472055006132466,-0.014450207922374485,0.01102564853914679,0.19566541348317282
5810,10.0,299.66014,-5395.7528,0.0,0.05810001087682215,0.0,0.0,0.0,0.0,0.3198581407500407,0.8879174157081262,0.43239857292691664,-0.009034748881410292,0.002228868637797208,0.21067012758902282
5811,10.0,299.45786,-5585.9495,0.0,0.05811000686424128,0.0,0.0,0.0,0.0,0.36469797365288764,0.8914936819360763,0.4417975011195186,-0.004732864467297355,0.009057627055418191,0.2022368166092198
5812,10.0,300.20264,-5625.406,0.0,0.058120002851660635,0.0,0.0,0.0,0.0,0.3664735019356187,0.905668726595044,0.4378407290815156,0.007911976476776283,0.011906268254057188,0.2075553258541158
5813,10.0,299.46715,-5503.4806,0.0,0.05812999883907999,0.0,0.0,0.0,0.0,0.34204054631177366,0.8980317795313362,0.4328483445138056,0.0028529768958168973,-0.01007849112196963,0.21915186179110477
5814,10.0,298.95931,-5546.474,0.0,0.058140027816556694,0.0,0.0,0.0,0.0,0.35103917991986966,0.8995176804054831,0.4354327503513666,-0.00967107521311081,-0.03853222842708486,0.2170686803805108
5815,10.0,299.66551,-5755.6588,0.0,0.05815002380397605,0.0,0.0,0.0,0.0,0.37219966196074666,0.9201682240685332,0.4572086805029835,0.012717510734620588,-0.00968258188389643,0.20923321735721082
5816,10.0,300.03167,-5738.9676,0.0,0.0581600197913954,0.0,0.0,0.0,0.0,0.36257006738287967,0.9200919162035022,0.4618408647926446,0.030498801665497368,-0.003804197141920027,0.19990380825396983
5817,10.0,299.78019,-5625.5016,0.0,0.058170015778814754,0.0,0.0,0.0,0.0,0.3540171422287717,0.9136281607680792,0.4423667247606966,0.011090034503501189,0.0014775175467946287,0.19800991209455682
5818,10.0,300.27909,-5513.7318,0.0,0.05818001176623411,0.0,0.0,0.0,0.0,0.34842291749916465,0.900031894698732,0.4275819771190556,-0.013746666834690386,-0.007837204394921853,0.2070695332261718
5819,10.0,300.20964,-5453.6281,0.0,0.05819000775365324,0.0,0.0,0.0,0.0,0.3211613424986567,0.8956534079691092,0.4409520148385756,-0.016558048800652186,0.01118321196944709,0.21347964720130078
5820,10.0,300.31192000000004,-5504.1964,0.0,0.05820000374107259,0.0,0.0,0.0,0.0,0.32544681286909966,0.9013440637107331,0.4463473791035566,-0.01990017927499478,0.02064012745202198,0.21467337740911283
5821,10.0,300.64545,-5537.6768,0.0,0.058209999728491946,0.0,0.0,0.0,0.0,0.3247074949336347,0.901408435489586,0.45719953085458054,-0.015215933181945685,0.014808464786731685,0.2123749918097798
5822,10.0,299.90513,-5480.3808,0.0,0.05822002870596865,0.0,0.0,0.0,0.0,0.33569386179290467,0.8944938749521721,0.43571119147884657,-0.01040223324287049,-0.004566036688682736,0.21656008962531678
5823,10.0,299.33165,-5471.6609,0.0,0.05823002469338823,0.0,0.0,0.0,0.0,0.3448522241467647,0.8988788667474371,0.4195172054656246,-0.002395690235586218,0.004489616758190675,0.21680054400654777
5824,10.0,299.83391,-5664.6807,0.0,0.05824002068080736,0.0,0.0,0.0,0.0,0.36490829397614466,0.9255677122614211,0.43144547948535356,0.029234145977185575,0.0069412108388941735,0.22226774770361876
5825,10.0,299.78026,-5809.0098,0.0,0.05825001666822671,0.0,0.0,0.0,0.0,0.38012869863078164,0.9242942088732362,0.46137103085377557,0.017023078920797085,-0.011654441153703789,0.2132876363073508
5826,10.0,299.40058999999997,-5693.531999999999,0.0,0.058260012655646065,0.0,0.0,0.0,0.0,0.3541427649761697,0.9270192538246772,0.44952954170511156,0.016986465128433582,-0.013689493184547787,0.21406437356900881
5827,10.0,299.63997,-5618.9311,0.0,0.058270008643065196,0.0,0.0,0.0,0.0,0.33990926591893267,0.913866821696633,0.45423867220736663,-0.0019068298916394583,-0.005969538747472605,0.19945081453176283
5828,10.0,299.94109,-5685.1563,0.0,0.05828000463048455,0.0,0.0,0.0,0.0,0.3443274720524757,0.9139960921443911,0.4698220027828215,0.0015063537327155386,0.007791925085053132,0.1917192501737168
5829,10.0,299.97421,-5631.7681,0.0,0.0582900006179039,0.0,0.0,0.0,0.0,0.35578828313856964,0.8998570989239811,0.4562714950879906,-0.012862127868393186,-0.005666597029924584,0.17799828341456284
5830,10.0,299.73881,-5661.7118,0.0,0.05830002959538083,0.0,0.0,0.0,0.0,0.3382328132309797,0.9081989336847562,0.47458726734061657,-0.019647588184065982,-0.0002550874453326708,0.2029678562913678
5831,10.0,299.81568,-5699.8689,0.0,0.058310025582800185,0.0,0.0,0.0,0.0,0.3692162483663067,0.9174406662568441,0.4459608849854126,-0.002873539084071227,0.016162196304584587,0.2042039302208588
5832,10.0,300.40623,-5546.0155,0.0,0.058320021570219316,0.0,0.0,0.0,0.0,0.33942417243355766,0.904889689255659,0.44153638656874855,-0.007009119367221223,0.02377443019835358,0.21966783913952778
5833,10.0,299.41938,-5653.72,0.0,0.05833001755763867,0.0,0.0,0.0,0.0,0.3543826215398416,0.9176741596098882,0.4465329355943696,0.01013611424985659,0.005601095477210084,0.22172802990535279
5834,10.0,299.03909,-5726.6718,0.0,0.0583400135450578,0.0,0.0,0.0,0.0,0.36757824851964865,0.9245358791545871,0.44865110453091656,0.0066278352797664135,-0.0070870360707610035,0.2280498897967718
5835,10.0,299.14628999999996,-5580.4808,0.0,0.058350009532477154,0.0,0.0,0.0,0.0,0.3606343037293347,0.9064604498256811,0.42923207517190765,0.011587403513837689,-0.009267765094982202,0.2111991758637358
5836,10.0,298.83397,-5460.764,0.0,0.05836000551989673,0.0,0.0,0.0,0.0,0.3277490994813177,0.9099902889340492,0.4221965325725536,0.004218211538080066,-0.004997940319333306,0.22330927761390978
5837,10.0,299.18679,-5506.0967,0.0,0.05837000150731586,0.0,0.0,0.0,0.0,0.3375454243631397,0.900652875155018,0.43551761004724154,-0.004954813659302035,-0.021986295057878375,0.18912216857740483
5838,10.0,300.04141,-5641.9888,0.0,0.058379997494735214,0.0,0.0,0.0,0.0,0.3400997164077287,0.9218844772204141,0.45303952111151957,-0.018406302096060582,-0.012738402938432487,0.2104709124868618
5839,10.0,299.92586,-5663.0725,0.0,0.05839002647221214,0.0,0.0,0.0,0.0,0.3404380912786237,0.9160142634285692,0.4649802783724805,0.01167038261752709,-0.008038466262284851,0.1995697903585048
5840,10.0,300.53868,-5500.6223,0.0,0.05840002245963127,0.0,0.0,0.0,0.0,0.32783698879499173,0.9074374357046022,0.43677739402907256,-0.00032050897155427264,0.012704894757625488,0.20935105834384082
5841,10.0,300.13985,-5562.8369,0.0,0.05841001844705063,0.0,0.0,0.0,0.0,0.3452212903631887,0.8987961348767721,0.4469460984551456,0.0070819428678083425,-0.007012040161959483,0.1987456329921668
5842,10.0,299.45062,-5740.5175,0.0,0.05842001443446976,0.0,0.0,0.0,0.0,0.36350515537016564,0.9309691053644972,0.4504997084108595,-0.005634953735926635,0.004842417473409395,0.2182827363853288
5843,10.0,299.40909,-5771.7834,0.0,0.05843001042188911,0.0,0.0,0.0,0.0,0.3872057338217306,0.9298692629109511,0.4374030253033176,0.011175970270982388,0.002093518993414238,0.2184402055833698
5844,10.0,299.94054,-5678.665,0.0,0.05844000640930869,0.0,0.0,0.0,0.0,0.36788494919241765,0.9070906812553801,0.4511967332871506,0.002137071725112558,0.016428524027119085,0.2199645896963148
5845,10.0,299.53373,-5511.2402,0.0,0.05845000239672782,0.0,0.0,0.0,0.0,0.34655150535947066,0.8989698768714192,0.42975802290131465,-0.0020229848301030577,-0.004433420691744555,0.2090226031914248
5846,10.0,300.21882,-5484.5806,0.0,0.05845999838414717,0.0,0.0,0.0,0.0,0.33723480241248366,0.892562721586582,0.4373780284233506,-0.01001354229718468,-0.018760758259292683,0.2067797538300728
5847,10.0,300.12367,-5708.3637,0.0,0.05847002736162388,0.0,0.0,0.0,0.0,0.3531227666305037,0.9189158874749371,0.46316136272046754,0.009017295243137751,-0.01105121689217019,0.1954000635469848
5848,10.0,300.38147999999995,-5704.3422,0.0,0.05848002334904323,0.0,0.0,0.0,0.0,0.3544897119429107,0.9183070457548492,0.46118084381000557,0.0001678440583324188,0.008382827212120633,0.2000547622538678
5849,10.0,300.52474,-5552.3534,0.0,0.058490019336462584,0.0,0.0,0.0,0.0,0.3295976324337537,0.9096395422794331,0.4485396267549146,0.00913006075869184,-0.009812313157799912,0.19057128847292182
5850,10.0,300.06787,-5624.5518,0.0,0.058500015323881716,0.0,0.0,0.0,0.0,0.33676857564397067,0.9196297424353892,0.4533249840621925,0.0046822299280001155,-0.002499139119120828,0.21042394834472677
5851,10.0,299.43072,-5781.0851,0.0,0.05851001131130107,0.0,0.0,0.0,0.0,0.3559526525697917,0.9305762176382221,0.47077663636453654,0.003169194520150147,-0.012592455407278588,0.2126461375365398
5852,10.0,299.67661,-5662.7027,0.0,0.05852000729872042,0.0,0.0,0.0,0.0,0.3597857878305927,0.9161045034824752,0.44542991153550954,-0.0070727243183985435,0.0026186711188427177,0.2251452766626088
5853,10.0,299.18472,-5583.7467,0.0,0.058530003286139776,0.0,0.0,0.0,0.0,0.34398232867091266,0.9146708964459891,0.43866633539549654,-0.01907584560313938,-0.001968544726080238,0.2160756750175088
5854,10.0,299.59409,-5445.0193,0.0,0.05853999927355913,0.0,0.0,0.0,0.0,0.3470546853591307,0.8887564577184331,0.4193387619905136,-0.015013284175195785,-0.0029140928994485773,0.22026597080605878
5855,10.0,300.60693,-5461.3085,0.0,0.058550028251035835,0.0,0.0,0.0,0.0,0.3448730869663237,0.8933083318051682,0.4219200064877626,-0.013115042186103886,0.001861668321432358,0.22030548755995877
5856,10.0,300.01735,-5637.9918,0.0,0.05856002423845519,0.0,0.0,0.0,0.0,0.3396362659444897,0.9227274911711131,0.4514449795616506,-0.00016410603685850485,0.014152460327489087,0.22149806266265679
5857,10.0,300.37272,-5638.1775,0.0,0.05857002022587454,0.0,0.0,0.0,0.0,0.3482854701230997,0.9045814079127341,0.4609982966719896,0.009206773315812782,-0.011170149149157888,0.19885966415842082
5858,10.0,300.24312000000003,-5572.6875,0.0,0.05858001621329367,0.0,0.0,0.0,0.0,0.32585124151401373,0.915463683589231,0.45264292488987856,0.00026713357047153076,0.0013011239779609387,0.2023568766135688
5859,10.0,299.80438,-5626.6096,0.0,0.058590012200713026,0.0,0.0,0.0,0.0,0.35163454541362765,0.9090248541062681,0.44968941230588955,0.01195826723593909,-0.004404330990648625,0.2003223210752738
5860,10.0,299.16296,-5804.0527,0.0,0.05860000818813238,0.0,0.0,0.0,0.0,0.3775445562382467,0.9214552847430562,0.46528725262277654,-0.005682565750175574,0.00986649630159737,0.20233856718426182
5861,10.0,299.26479,-5751.2642,0.0,0.05861000417555173,0.0,0.0,0.0,0.0,0.3711813557427477,0.9290944406919821,0.44796491129819455,-0.01008476658513897,-0.011134073392597489,0.19676359420655481
5862,10.0,299.62962000000005,-5510.0632,0.0,0.058620000162971087,0.0,0.0,0.0,0.0,0.3322698566574817,0.8989752470969491,0.44367652276746355,-0.005757177130564145,0.0021639245752877283,0.2196018968230198
5863,10.0,299.71665,-5539.7683,0.0,0.05863002914044779,0.0,0.0,0.0,0.0,0.34953128138605166,0.9006493895746742,0.4337705743573226,0.0004268036895847446,0.007383847219903984,0.21365876955397878
5864,10.0,300.02682000000004,-5623.5519,0.0,0.058640025127867146,0.0,0.0,0.0,0.0,0.35605127220202465,0.9152643874270621,0.43810368774746755,0.00030375689751847173,0.013567897093047187,0.2189666498053258
5865,10.0,300.49841000000004,-5474.0097,0.0,0.0586500211152865,0.0,0.0,0.0,0.0,0.34713722471227665,0.8869639068340222,0.4298611210989896,-0.0038366703890748864,0.002429535423376478,0.21821086655573582
5866,10.0,300.02861,-5504.1291,0.0,0.05866001710270585,0.0,0.0,0.0,0.0,0.3574943936569497,0.8945393293516581,0.4210840852877636,0.004459092294953146,0.006881998124250333,0.2084707365244598
5867,10.0,300.32973,-5588.1444,0.0,0.058670013090124984,0.0,0.0,0.0,0.0,0.3420224293999857,0.9119789543753152,0.4446549778590296,0.012050043376996687,0.007864519793767673,0.2109367339553348
5868,10.0,300.33125,-5565.2554,0.0,0.05868000907754434,0.0,0.0,0.0,0.0,0.3250141652089007,0.918109127612816,0.44857537421844257,-0.003385854951932867,-0.004727541459222016,0.2074836384095408
5869,10.0,299.62334,-5621.1104,0.0,0.05869000506496369,0.0,0.0,0.0,0.0,0.33581311119717366,0.9204494718987901,0.45241461937734656,-0.012864722801899289,-0.016336273685014686,0.21155290147364578
5870,10.0,300.12247,-5661.6053,0.0,0.058700001052383044,0.0,0.0,0.0,0.0,0.3445477931542197,0.9244683865654261,0.4519704510635106,-0.0070932586422751236,-0.022227446555178183,0.19946750276090983
5871,10.0,299.99836,-5567.9451,0.0,0.05871003002985975,0.0,0.0,0.0,0.0,0.3399321755036937,0.9238615510805361,0.4287225522266216,0.001949392374015048,0.0011405153258100989,0.2194926380647368
5872,10.0,299.82407,-5551.8728,0.0,0.05872002601727888,0.0,0.0,0.0,0.0,0.35142780186322364,0.9158527716276311,0.42035013757782863,0.01049915061493549,0.009774004501994142,0.20903262423491378
5873,10.0,300.08196,-5551.9726,0.0,0.05873002200469846,0.0,0.0,0.0,0.0,0.3446063184799957,0.9006331573080721,0.44242156185610854,0.00956022504422075,0.005917882244124505,0.22067850545177278
5874,10.0,299.81262000000004,-5579.0867,0.0,0.05874001799211781,0.0,0.0,0.0,0.0,0.3506548642894407,0.904022924722616,0.4412252478605415,0.0013470753766209886,0.0020693465950536076,0.21907539180605778
5875,10.0,299.78019,-5547.3709,0.0,0.05875001397953694,0.0,0.0,0.0,0.0,0.34961794466710466,0.8952585646701411,0.4413857264113796,0.009088026888893421,0.01153717974613099,0.23107747096307077
5876,10.0,299.78047999999995,-5702.9726,0.0,0.058760009966956295,0.0,0.0,0.0,0.0,0.36018298186979264,0.9270080776760741,0.4463701974958086,-0.00947768680564986,0.003154897155939107,0.22159020762675077
5877,10.0,299.71317999999997,-5704.3974,0.0,0.058770005954375426,0.0,0.0,0.0,0.0,0.3625117649721256,0.9196819552130421,0.45180065061175256,-0.02137606619840348,-0.02093668853104028,0.2147978653163988
5878,10.0,300.17989,-5661.5218,0.0,0.058780001941795,0.0,0.0,0.0,0.0,0.36447619347099963,0.9033921461378632,0.4530929193917896,-0.014568333632282588,-0.023448239659911076,0.19700177890756182
5879,10.0,299.98547,-5765.3268,0.0,0.058789997929214355,0.0,0.0,0.0,0.0,0.3515658571893487,0.9292511904824522,0.47169834945050254,0.002274895016964658,-0.0037359916299886664,0.1925450287402148
5880,10.0,300.10208,-5685.0816,0.0,0.05880002690669084,0.0,0.0,0.0,0.0,0.35864197032270667,0.9196069139106362,0.44987397581160454,0.035409155531611565,0.006137827126106374,0.19758831899294882
5881,10.0,300.64977000000005,-5591.6828,0.0,0.05881002289411019,0.0,0.0,0.0,0.0,0.32859485933978766,0.9064578761704271,0.4646792316352696,0.015173609725268685,0.0010666690505720389,0.2037760853661338
5882,10.0,300.55975,-5638.3216,0.0,0.05882001888152977,0.0,0.0,0.0,0.0,0.35745058072262564,0.9111697829779561,0.4452886036765636,0.0069475309863929234,-0.003245409875447017,0.21127812831152779
5883,10.0,300.19347999999997,-5601.1581,0.0,0.0588300148689489,0.0,0.0,0.0,0.0,0.35979873716687066,0.8962202504725523,0.4465932239753196,-0.003728697951793837,0.005465553720608155,0.20992475041795983
5884,10.0,299.99937,-5513.5679,0.0,0.05884001085636825,0.0,0.0,0.0,0.0,0.34790574451562367,0.911462075234303,0.41661915819210954,-0.006722956463379144,0.006112600846316734,0.22060606820212378
5885,10.0,299.60199,-5576.3838,0.0,0.058850006843787384,0.0,0.0,0.0,0.0,0.3382202691947417,0.9106042273021401,0.44625692626712954,-0.017655813078243085,-0.006198885273157344,0.2123965335069058
5886,10.0,300.01755,-5693.5539,0.0,0.05886000283120696,0.0,0.0,0.0,0.0,0.36227468471372765,0.9033224446634841,0.4651010881819036,-0.014968545130280385,-0.02134411842275048,0.2118401882744988
5887,10.0,299.99752,-5739.2077,0.0,0.05886999881862631,0.0,0.0,0.0,0.0,0.3495436227722697,0.9369998382371842,0.4580323616417745,-0.015915746522511886,0.007897271279399992,0.21767642779049082
5888,10.0,299.92794,-5622.5909,0.0,0.058880027796102796,0.0,0.0,0.0,0.0,0.35596586535109564,0.9145807779820951,0.4385805840395336,0.006920557154155812,-0.0014276667564497385,0.22034498404885677
5889,10.0,300.16421,-5609.6556,0.0,0.05889002378352237,0.0,0.0,0.0,0.0,0.3544253097665546,0.9121704789092171,0.4385994304913936,0.007362993215620853,-0.0040757245599926965,0.2059064943638888
5890,10.0,300.15328,-5596.0947,0.0,0.0589000197709415,0.0,0.0,0.0,0.0,0.3385811483503577,0.9222806377445122,0.4402112783529706,0.009429517402520913,-0.0035550060117017774,0.2050633689556788
5891,10.0,300.56234,-5559.1583,0.0,0.058910015758360856,0.0,0.0,0.0,0.0,0.3298055209567707,0.9203286418243652,0.43971113810361057,0.004720795037406196,0.01114916777933719,0.2158332346660818
5892,10.0,300.3574,-5617.0114,0.0,0.05892001174578021,0.0,0.0,0.0,0.0,0.3409508160942257,0.9194159770617921,0.44706443593432454,0.0033075963778093466,0.007122441562380253,0.21928247986149582
5893,10.0,300.20815,-5632.5485,0.0,0.05893000773319934,0.0,0.0,0.0,0.0,0.3369340089877977,0.92343825571876,0.45178182442489456,-0.021649677162656776,-0.011601673114995988,0.2177598182737208
5894,10.0,300.38487000000003,-5559.3923,0.0,0.058940003720618694,0.0,0.0,0.0,0.0,0.35506392077458065,0.9073902689124472,0.4274622514872396,-0.0031164911267987268,-0.02093371565524688,0.21106985475347279
5895,10.0,300.47966,-5651.6052,0.0,0.05894999970803827,0.0,0.0,0.0,0.0,0.36883475970365664,0.9059213197124731,0.4431907808020246,-0.0027545422830521572,-0.005593957535555625,0.2150435683331478
5896,10.0,299.96756,-5709.3555,0.0,0.058960028685514976,0.0,0.0,0.0,0.0,0.36829344097023264,0.9079391059616132,0.45926895232881654,0.012393070079100788,0.005857174478958115,0.20808865004425078
5897,10.0,299.96796,-5644.6459,0.0,0.05897002467293433,0.0,0.0,0.0,0.0,0.3518738345572437,0.9071628955900071,0.45679468677712554,0.0026081998883342875,0.003655152307860447,0.21107699816667783
5898,10.0,300.21788,-5673.8767,0.0,0.05898002066035346,0.0,0.0,0.0,0.0,0.3427865516978987,0.9197358297208591,0.46219447894504356,0.011075521722318888,0.005859668898054295,0.1973939573587668
5899,10.0,299.77938,-5703.4149,0.0,0.058990016647772814,0.0,0.0,0.0,0.0,0.3545808639219067,0.9271045492180952,0.4520102819249416,-0.001062806642515849,0.022896264575185378,0.2031338874527538
5900,10.0,299.66789,-5610.0071,0.0,0.05900001263519217,0.0,0.0,0.0,0.0,0.3600870169528217,0.9147710359533721,0.4304440134840166,-0.012640411521261488,-0.005965565084555434,0.2006004886252268
5901,10.0,299.2403,-5512.8391,0.0,0.0590100086226113,0.0,0.0,0.0,0.0,0.3443601088381967,0.9083026499649921,0.4231026821369836,-0.026312227544564675,-0.013397995316279186,0.2155889603319738
5902,10.0,299.65181,-5628.9507,0.0,0.059020004610030874,0.0,0.0,0.0,0.0,0.34412166069216366,0.9235170055165322,0.4434218018248246,-0.005984852908158994,-0.016174361385285184,0.20245351027560582
5903,10.0,299.84646000000004,-5706.1952,0.0,0.059030000597450005,0.0,0.0,0.0,0.0,0.35484799717827065,0.9186619771323782,0.46103088279520554,0.014609239552069686,-0.001052256581149639,0.22117074235035278
5904,10.0,300.31847999999997,-5712.776999999999,0.0,0.05904002957492693,0.0,0.0,0.0,0.0,0.3400137117392407,0.9376682590631521,0.4588595790234146,0.018102872194614383,-0.00028823988416206174,0.2219654242712818
5905,10.0,300.14472,-5614.7292,0.0,0.05905002556234629,0.0,0.0,0.0,0.0,0.3433353583495617,0.9136247157177391,0.44977741307707464,-0.00033044836735021465,0.01071312066505269,0.22456471475281178
5906,10.0,300.36201,-5522.9668,0.0,0.05906002154976542,0.0,0.0,0.0,0.0,0.34783859643149667,0.9025506520623141,0.4284547603576926,-0.003915201324825286,0.0071367031588627635,0.2033387463579718
5907,10.0,300.40283999999997,-5587.8483,0.0,0.05907001753718477,0.0,0.0,0.0,0.0,0.3395057188016057,0.9197228601195792,0.43933779597176453,-0.007108574525486682,0.017743603093407286,0.2171912127151038
5908,10.0,299.97074,-5700.1905,0.0,0.059080013524604125,0.0,0.0,0.0,0.0,0.3586554364165357,0.9136971833648911,0.46036297872678855,-0.012521882537813589,-0.008882176822427602,0.2028377853760308
5909,10.0,299.82549,-5660.0013,0.0,0.05909000951202348,0.0,0.0,0.0,0.0,0.34802208589210565,0.9229475994903361,0.4495293795850956,-0.018609652271879683,-0.017067295128660884,0.2071237319740208
5910,10.0,299.78521,-5520.6483,0.0,0.05910000549944283,0.0,0.0,0.0,0.0,0.3194349973757797,0.9128026861766112,0.44590155919205754,-0.02228034226339858,-0.011728645511527188,0.21490223007669879
5911,10.0,299.96471,-5625.195,0.0,0.05911000148686196,0.0,0.0,0.0,0.0,0.35606480922336065,0.9144168239834142,0.4394371856740736,0.0002772458469995347,0.004386275684466706,0.21277526612928377
5912,10.0,299.95691,-5841.1964,0.0,0.059119997474281316,0.0,0.0,0.0,0.0,0.38818221307560163,0.9300415863554581,0.45735406162733155,0.007447526543638644,0.005104731408322766,0.2073138886202878
5913,10.0,300.44947,-5709.5905,0.0,0.059130026451758244,0.0,0.0,0.0,0.0,0.36803692657491666,0.9186114564823921,0.4489245604679046,0.015490413514784784,-0.002692986123577037,0.2076688909253238
5914,10.0,300.24171,-5457.6941,0.0,0.059140022439177375,0.0,0.0,0.0,0.0,0.3362454346173407,0.8926529008454822,0.43010438218299757,0.014845838516670186,0.007005551612294113,0.2104742055496868
5915,10.0,300.11368,-5488.3222,0.0,0.05915001842659651,0.0,0.0,0.0,0.0,0.3278727970535257,0.9052342145546612,0.43520590391897856,0.003146404498900947,0.013227835160735685,0.20968867327716081
5916,10.0,299.76489,-5637.1592,0.0,0.05916001441401608,0.0,0.0,0.0,0.0,0.35209793508186066,0.9104066941951452,0.45105101779026957,-0.004378854134109256,-0.00041601551444503463,0.21749408330249478
5917,10.0,299.56251000000003,-5704.5634,0.0,0.059170010401435436,0.0,0.0,0.0,0.0,0.36518914663886265,0.921678047777541,0.4471776261029956,-0.02707115490921497,-0.008714996128803151,0.2141023501827568
5918,10.0,299.8299,-5642.6855,0.0,0.05918000638885479,0.0,0.0,0.0,0.0,0.35810278954699365,0.9096972468726281,0.4474354577234415,-0.029711299634776974,0.006864895982437484,0.21501861198318478
5919,10.0,300.89431,-5599.5413,0.0,0.05919000237627392,0.0,0.0,0.0,0.0,0.3367742498445307,0.9135425208696271,0.45180397407208056,-0.015445190136321587,0.00907591419322299,0.2099033201783448
5920,10.0,300.82255,-5733.1188,0.0,0.059199998363693274,0.0,0.0,0.0,0.0,0.3540424025537646,0.9411478105690572,0.4475347359682396,0.002351102266260728,0.004826228573911675,0.2183976693441718
5921,10.0,301.1133,-5801.3991,0.0,0.0592100273411702,0.0,0.0,0.0,0.0,0.35931397805402865,0.9321774466387511,0.47198902050668956,0.018846225905227682,-0.009018137456620872,0.21450993003548183
5922,10.0,300.17305,-5643.8642,0.0,0.05922002332858933,0.0,0.0,0.0,0.0,0.3493019828884217,0.921207565358608,0.4450842412638946,0.016190953355672683,5.214264352082825e-05,0.2218907274739098
5923,10.0,300.27175,-5382.6921,0.0,0.059230019316008464,0.0,0.0,0.0,0.0,0.32295913188608466,0.901808699676589,0.4114361711480886,0.0032860055380534966,0.015334617192658885,0.2259020832947998
5924,10.0,300.55311,-5421.2638,0.0,0.05924001530342804,0.0,0.0,0.0,0.0,0.33448187281829067,0.8950859473831052,0.4183609959090156,-0.012826307450857988,0.003575980491421797,0.2246575892569778
5925,10.0,300.12731,-5728.4129,0.0,0.05925001129084739,0.0,0.0,0.0,0.0,0.3648337187687846,0.9268597378614342,0.44960101636716554,-0.014017279591897788,-0.012948188265636687,0.2125357743356478
5926,10.0,299.72207000000003,-5725.2539,0.0,0.059260007278266746,0.0,0.0,0.0,0.0,0.36188524203779265,0.9124667937684612,0.46598220033636256,-0.01079521013515429,0.00014235296562914383,0.2088265392970748
5927,10.0,300.09227000000004,-5639.1163,0.0,0.05927000326568588,0.0,0.0,0.0,0.0,0.3430018774766497,0.9164987388313831,0.4546499402904556,0.006105619958427774,-0.0008407236913654682,0.2028523356474668
5928,10.0,299.80787999999995,-5685.7161,0.0,0.05927999925310501,0.0,0.0,0.0,0.0,0.35247708313677967,0.9273609926859041,0.44847764624629755,-0.006736865854126894,-0.0027163399171818777,0.21750326334840078
5929,10.0,300.43066,-5673.2838,0.0,0.05929002823058216,0.0,0.0,0.0,0.0,0.35677590814354065,0.9150750515133761,0.4526856637790966,-0.001814739136425808,-0.01899313703722668,0.2025948080020508
5930,10.0,300.16527,-5714.5768,0.0,0.05930002421800129,0.0,0.0,0.0,0.0,0.35555692774323666,0.9251549850981882,0.4563767515083786,0.0036706839120182965,0.012642731863990488,0.21010514946576378
5931,10.0,299.96276,-5659.3541,0.0,0.059310020205420644,0.0,0.0,0.0,0.0,0.35314394355759365,0.9171469757153591,0.4500114130551685,0.005335301636153276,0.014372900992744887,0.1961464235706448
5932,10.0,300.74393,-5402.1934,0.0,0.05932001619284,0.0,0.0,0.0,0.0,0.32557203031645765,0.8930822757078583,0.4234776049389856,-0.009406336773358162,0.015318596695327787,0.21243365899056982
5933,10.0,300.66654,-5343.1207,0.0,0.05933001218025935,0.0,0.0,0.0,0.0,0.3115616084012367,0.9031088718074062,0.4095048049999776,-0.017591705757666182,-0.01251481207861579,0.22866787103276176
5934,10.0,300.17776000000003,-5678.3746,0.0,0.059340008167678704,0.0,0.0,0.0,0.0,0.3700805709666086,0.9212038467307411,0.43479968182138756,-0.005361999053763104,0.0014075672181910687,0.2213997774029568
5935,10.0,299.93088,-5814.1494,0.0,0.059350004155097835,0.0,0.0,0.0,0.0,0.37576147924227066,0.9274613753733112,0.46413339380639956,0.014118321905119885,-0.013819928869920787,0.2328889088293458
5936,10.0,300.14963,-5704.6111,0.0,0.05936000014251697,0.0,0.0,0.0,0.0,0.3456350409090227,0.9449642474682101,0.4434600418835986,0.007060495605591664,-0.0020382585621104583,0.22471272019491878
5937,10.0,300.209,-5611.4522,0.0,0.05937002911999412,0.0,0.0,0.0,0.0,0.3327320101605927,0.911369423645159,0.4616399069003116,0.012279723869914386,-0.013691334259979487,0.22037376035169678
5938,10.0,300.06338,-5656.4622,0.0,0.05938002510741325,0.0,0.0,0.0,0.0,0.33606691008222167,0.9212846128962122,0.46207174396043055,0.017085505259458084,0.004292757969137226,0.2013269281519208
5939,10.0,299.90611,-5715.7888,0.0,0.0593900210948326,0.0,0.0,0.0,0.0,0.35889754239542965,0.9152947646650602,0.46326476489317253,0.008970442355863731,0.008339885875532652,0.2027288001952748
5940,10.0,299.92338,-5736.8209,0.0,0.059400017082251955,0.0,0.0,0.0,0.0,0.36335390752773866,0.9226272503387202,0.4578691473156666,-0.004369531827889216,-0.006829456546939883,0.20099279879894483
5941,10.0,299.4727,-5549.5109,0.0,0.059410013069671086,0.0,0.0,0.0,0.0,0.3431877176774907,0.9182863247903043,0.42543868971252957,-0.02175906055070208,-0.015338832313074884,0.21823763662337778
5942,10.0,299.68907,-5498.2027,0.0,0.05942000905709066,0.0,0.0,0.0,0.0,0.3277425133556677,0.9110151407476942,0.4325586664427166,-0.025111383307800578,0.007469039059161763,0.2239480102119478
5943,10.0,299.76647,-5763.7941,0.0,0.05943000504450979,0.0,0.0,0.0,0.0,0.36483806561171367,0.9261535025417342,0.46105791630787357,-0.0014095899693656988,0.004410820553564096,0.21742148393282978
5944,10.0,300.02848,-5906.1031,0.0,0.059440001031928924,0.0,0.0,0.0,0.0,0.38142149430087063,0.945240044012929,0.4686463286917915,0.00028758282186971474,0.013200786449316187,0.22123561062175479
5945,10.0,300.07374,-5670.0908,0.0,0.05945003000940585,0.0,0.0,0.0,0.0,0.3562399495031457,0.9184203169835281,0.44890576467854953,0.010119603643452121,-0.003450161173504397,0.20960590087649178
5946,10.0,300.27859,-5492.8547,0.0,0.059460025996825205,0.0,0.0,0.0,0.0,0.3399437670848377,0.9091814316442213,0.4205654734890806,0.012449441235164187,-0.001954108242630468,0.2096829078840918
5947,10.0,300.73542000000003,-5709.6829,0.0,0.05947002198424456,0.0,0.0,0.0,0.0,0.35309161932242966,0.9171961183452092,0.4653132931503466,0.018785600111994382,-0.012749474722275188,0.1933085228230658
5948,10.0,300.44422000000003,-5867.5812,0.0,0.05948001797166391,0.0,0.0,0.0,0.0,0.37092562155000863,0.9329275962177851,0.4797449636621416,-0.0063523032946485244,-0.02505318830155718,0.2013273537169628
5949,10.0,300.15886,-5754.0151,0.0,0.05949001395908304,0.0,0.0,0.0,0.0,0.35623643352529866,0.9302619986497112,0.4625784804679416,-0.006512229725507035,-0.02318731863991018,0.20495370489735582
5950,10.0,300.30332999999996,-5572.9495,0.0,0.0595000099465024,0.0,0.0,0.0,0.0,0.3380032006258187,0.918469875045919,0.4375644157792456,-0.018215349035214982,0.013170722305599089,0.1992396025484178
5951,10.0,300.16996,-5622.6044,0.0,0.05951000593392175,0.0,0.0,0.0,0.0,0.3417135502395017,0.9307494124778152,0.4366683885833146,0.0032569720723381167,0.014505805968611585,0.2096455088229008
5952,10.0,300.04907000000003,-5788.3655,0.0,0.059520001921341104,0.0,0.0,0.0,0.0,0.36828905359729963,0.9457202941628261,0.4455092186208366,-0.013207028069932188,0.01136423416606259,0.2247933039753718
5953,10.0,299.91465,-5887.5185,0.0,0.05952999790876046,0.0,0.0,0.0,0.0,0.35296422338735667,0.96577295947187,0.47092141967132556,0.014768520441289486,-0.0005835001527019815,0.24085712788074776
5954,10.0,299.45034,-5577.5187,0.0,0.05954002688623716,0.0,0.0,0.0,0.0,0.3387132964283997,0.9237852128180022,0.4329278846466556,0.016387767055096685,0.006411025900218994,0.23021095974255276
5955,10.0,300.00121,-5289.4985,0.0,0.059550022873656516,0.0,0.0,0.0,0.0,0.29050040460515775,0.8916818526121472,0.42569321813764965,0.018757222016443684,-0.0015630267359837285,0.23330910364581578
5956,10.0,300.26375,-5505.3802,0.0,0.05956001886107587,0.0,0.0,0.0,0.0,0.3374569169669047,0.8994875463475092,0.4365536582744916,0.002343502181235658,-0.0058709298556906655,0.2186729086013358
5957,10.0,299.87352999999996,-5825.9483,0.0,0.059570014848495,0.0,0.0,0.0,0.0,0.36754043402591663,0.9314228590242791,0.47197951622075157,-0.014805182869657787,-0.01105753855954409,0.2105718524618238
5958,10.0,300.14002,-5756.3592,0.0,0.059580010835914354,0.0,0.0,0.0,0.0,0.3704017408508056,0.9236707864842092,0.45571693317575956,0.0024337974572721075,0.013007062149447088,0.1951575826655538
5959,10.0,300.48636,-5607.6331,0.0,0.05959000682333371,0.0,0.0,0.0,0.0,0.3279838188669827,0.9150887607872291,0.46150786014727957,-0.007222257235031293,-0.0010566477031080088,0.2047578841830298
5960,10.0,300.69817,-5795.6946,0.0,0.05960000281075306,0.0,0.0,0.0,0.0,0.37375954022469465,0.9334121222831041,0.4545747672655366,0.0010478183430616189,-0.009588274745414042,0.2024875858764688
5961,10.0,300.49897999999996,-6004.0943,0.0,0.059609998798172414,0.0,0.0,0.0,0.0,0.37816845485482065,0.9594215937375392,0.48750469637296756,-0.004447351462069416,-0.011788962263479988,0.20150650646714383
5962,10.0,300.23037,-5909.0532,0.0,0.05962002777564912,0.0,0.0,0.0,0.0,0.3889297586018786,0.937062588815877,0.47021227632383855,0.011798388529160288,0.014288735373188385,0.2013385805280708
5963,10.0,300.94309,-5662.8681,0.0,0.059630023763068474,0.0,0.0,0.0,0.0,0.35750912631340365,0.9188576661241912,0.44500370814594653,0.008153050257793412,0.011915213225939988,0.2044879644888908
5964,10.0,300.29059,-5441.2677,0.0,0.05964001975048783,0.0,0.0,0.0,0.0,0.34341688445260765,0.8867120331241641,0.4238806049012586,-0.01216933128476949,-0.0026381788177179777,0.21374876642786078
5965,10.0,299.90192,-5501.1369,0.0,0.05965001573790696,0.0,0.0,0.0,0.0,0.3229940890145347,0.9268971267901241,0.42231702827444556,-0.008491093289280662,-0.009106028391495031,0.2353652515437418
5966,10.0,299.67717999999996,-5749.2658,0.0,0.05966001172532631,0.0,0.0,0.0,0.0,0.35857175209077663,0.9184195165159491,0.4706419754262466,0.0009397187023630153,0.011159583990365188,0.2134316596765648
5967,10.0,300.02732000000003,-5731.8308,0.0,0.059670007712745665,0.0,0.0,0.0,0.0,0.34951770383471165,0.9288130510067112,0.46400266427849757,0.01998367614948528,0.013214512948420888,0.2262423732083838
5968,10.0,299.78493,-5593.0855,0.0,0.05968000370016502,0.0,0.0,0.0,0.0,0.3406901777710027,0.9244922790027842,0.43497587588127656,-0.0006986886126901974,-0.013345192827067986,0.2132762575087278
5969,10.0,300.02804,-5704.8458,0.0,0.05968999968758437,0.0,0.0,0.0,0.0,0.34591342124149665,0.9447607665831281,0.4434564752432466,0.006728067094233524,-0.022228174068749978,0.22689334586762977
5970,10.0,299.28281,-6002.2546,0.0,0.05970002866506108,0.0,0.0,0.0,0.0,0.37779504179546763,0.9606831610395461,0.4860573091351216,0.004207615171184286,-0.005617321056361425,0.1984637569468478
5971,10.0,299.92485,-5890.7437,0.0,0.05971002465248043,0.0,0.0,0.0,0.0,0.36485156210304565,0.9515415477098391,0.47424589324942557,0.007794234788656082,0.0013220995722560687,0.2291353137013948
5972,10.0,299.71316,-5625.2522,0.0,0.059720020639899785,0.0,0.0,0.0,0.0,0.3474638458820117,0.923092220677109,0.4393801498259446,-0.001962410712624858,-0.0048639693030363956,0.21561762517730282
5973,10.0,300.36478999999997,-5459.8523,0.0,0.059730016627318916,0.0,0.0,0.0,0.0,0.31692983782853973,0.9203325327047491,0.4223963860222776,-0.01699650441042438,-0.02178711339297068,0.23079069078726777
5974,10.0,300.33457999999996,-5466.6031,0.0,0.05974001261473827,0.0,0.0,0.0,0.0,0.34830250285728065,0.9060180344345181,0.4073902837637906,0.004454154929865866,0.006976919596268353,0.2054691148257228
5975,10.0,300.54665,-5657.6486,0.0,0.05975000860215762,0.0,0.0,0.0,0.0,0.36143124519798664,0.9153741426778942,0.44297849477357354,-0.007173645041608644,0.013334200076733088,0.2168944317608138
5976,10.0,300.09427,-5816.7498,0.0,0.059760004589576976,0.0,0.0,0.0,0.0,0.38114042885563165,0.9357196271333371,0.45128664910102456,-0.004231932059009176,0.0034069302500378366,0.2052414476607538
5977,10.0,300.39164,-5753.5736,0.0,0.05977000057699633,0.0,0.0,0.0,0.0,0.35861219090226765,0.930171474885777,0.4601590317466606,0.0007114273044049082,0.0013723361069140287,0.22005836599306983
5978,10.0,300.22667,-5762.3397,0.0,0.059780029554473035,0.0,0.0,0.0,0.0,0.3597212843292267,0.9184982764462222,0.4733878224022406,0.0064407770509802035,0.013494288526282589,0.2165669493284938
5979,10.0,299.88439,-5996.4708,0.0,0.05979002554189217,0.0,0.0,0.0,0.0,0.3824601263158756,0.9495187560052051,0.4907985191355425,0.02463801312608258,0.014220972246250685,0.19843557846156681
5980,10.0,298.8986,-5931.0324,0.0,0.05980002152931174,0.0,0.0,0.0,0.0,0.40181523985857664,0.9290079901934502,0.4720625216689436,-0.014706663549184687,-0.024577188735829678,0.1936692601236678
5981,10.0,299.35931,-5533.1118,0.0,0.05981001751673087,0.0,0.0,0.0,0.0,0.34019402972703666,0.9052158747278511,0.43651792094346453,0.0050324646886655946,-0.03197386481657477,0.20364582193327782
5982,10.0,300.16404,-5384.768,0.0,0.05982001350415023,0.0,0.0,0.0,0.0,0.3245849220690377,0.8958078475493512,0.4164422345921486,-0.005849700138270454,-0.004558330516372196,0.2060256424431478
5983,10.0,300.2902,-5498.9605,0.0,0.05983000949156958,0.0,0.0,0.0,0.0,0.3204239801358847,0.9080908908265932,0.44303181199383557,0.009830911566035432,0.02260338970003088,0.2092128712952028
5984,10.0,299.79373,-5643.9367,0.0,0.05984000547898871,0.0,0.0,0.0,0.0,0.34381828347972265,0.9279283114168941,0.44386922267148154,-0.007142992199583442,0.014456766690271785,0.2273648010066588
5985,10.0,299.65111,-5591.2975,0.0,0.05985000146640829,0.0,0.0,0.0,0.0,0.32800784302685365,0.9185639857152071,0.4530429864268616,-0.01145081132085709,0.019237067879550783,0.23637104412300577
5986,10.0,300.05665,-5549.1431,0.0,0.05985999745382742,0.0,0.0,0.0,0.0,0.36233584448976364,0.9080389820239702,0.41642613404805956,0.009451407252381272,0.024134506859890374,0.2218223634896628
5987,10.0,300.69161,-5610.4011,0.0,0.059870026431304124,0.0,0.0,0.0,0.0,0.3351251650417787,0.9211082668488081,0.4491884209264455,0.004404034108369326,0.005335919617389265,0.2327069696413898
5988,10.0,300.13679,-5894.2657,0.0,0.05988002241872348,0.0,0.0,0.0,0.0,0.3941677448613276,0.944683435335496,0.4528584026561445,-0.002925776483701657,-0.013561519696917787,0.2145097577829648
5989,10.0,299.60785,-5967.9496,0.0,0.05989001840614283,0.0,0.0,0.0,0.0,0.37314487231653165,0.948755231524851,0.4922075447246025,-0.015336581884602787,-0.035800665237750565,0.2205578982923698
5990,10.0,299.96852,-5579.1879,0.0,0.059900014393562406,0.0,0.0,0.0,0.0,0.3412998098261687,0.9162637661331932,0.43837024345127457,0.01840023880746218,0.0063963505937206545,0.2074805986592408
5991,10.0,299.74633,-5414.7711,0.0,0.05991001038098154,0.0,0.0,0.0,0.0,0.3090694792502827,0.9015798064789992,0.4353059117038486,-0.005118202568402266,0.017901827162772783,0.2025496778425968
5992,10.0,299.72868,-5700.776999999999,0.0,0.05992000636840067,0.0,0.0,0.0,0.0,0.3761666678247596,0.9133906144146351,0.44333657735891363,0.01989037506702718,-0.007261428065347153,0.19032995256410382
5993,10.0,299.53652999999997,-5867.1145,0.0,0.059930002355820244,0.0,0.0,0.0,0.0,0.37748599038246666,0.9310558801030612,0.4749144255329045,-0.005998864231866805,-0.009115584657163162,0.20347819996923483
5994,10.0,299.58567,-5675.4836,0.0,0.059939998343239376,0.0,0.0,0.0,0.0,0.36376574303088366,0.9096397854594571,0.45179974881916357,0.02099880886817108,0.006990051925514415,0.2090707629686778
5995,10.0,300.10176,-5570.7626,0.0,0.05995002732071608,0.0,0.0,0.0,0.0,0.3284261937281417,0.915588333616533,0.4493582213782035,0.007650854225305523,0.016938143231164583,0.2158769158778928
5996,10.0,300.11713,-5762.6345,0.0,0.059960023308135435,0.0,0.0,0.0,0.0,0.3538438359316677,0.9233795581404671,0.4744736110768995,-0.019277062887497982,5.494635721003325e-05,0.2246804481792338
5997,10.0,299.83267,-5991.7903,0.0,0.05997001929555501,0.0,0.0,0.0,0.0,0.39346468101444065,0.9503495197621952,0.4775404252870705,-0.012443816683859089,-0.0025438378366822475,0.21224201286665578
5998,10.0,300.62459,-5893.3677,0.0,0.059980015282974364,0.0,0.0,0.0,0.0,0.38909221299041163,0.9396343594246911,0.46271005099342655,-0.0012407073195482789,0.02075505838436478,0.21257894892240878
5999,10.0,300.32627,-5610.3418,0.0,0.059990011270393495,0.0,0.0,0.0,0.0,0.34688275708216265,0.911092036297783,0.4474290235853066,-0.0064107664068683845,0.02271486443628258,0.1893368965385968
6000,10.0,299.81729,-5405.3919,0.0,0.060000007257812626,0.0,0.0,0.0,0.0,0.3308446190668217,0.904880093777212,0.4073794521202216,0.002137761241805608,-0.020155337941676982,0.22919393021967976
6001,10.0,300.31611000000004,-5590.375,0.0,0.06001000324523198,0.0,0.0,0.0,0.0,0.3331551535348537,0.9146119455551711,0.45156729911372256,-0.005043034204433724,-0.027080917573928474,0.2103520481176308
6002,10.0,300.47402,-5869.4674,0.0,0.06001999923265133,0.0,0.0,0.0,0.0,0.3667879134416487,0.9629259496058921,0.45445765581897857,0.027339027838151973,-0.004447509934385056,0.23600867548974275
6003,10.0,300.47098,-5687.3513,0.0,0.06003002821012804,0.0,0.0,0.0,0.0,0.3313933547909777,0.941092628968611,0.4563268084109496,0.0034460976353033563,0.003094306826459307,0.2219823050179478
6004,10.0,299.94212000000005,-5523.103,0.0,0.06004002419754739,0.0,0.0,0.0,0.0,0.33276893299423665,0.9327991059726042,0.4133173408862456,0.0037974638923555064,-0.0036721918308171165,0.24624304865479676
6005,10.0,299.32687999999996,-5725.0759,0.0,0.060050020184966746,0.0,0.0,0.0,0.0,0.36041185480238064,0.9223256159164512,0.45754265786844456,-0.01208481406742829,-0.009085376530606851,0.21426010309082583
6006,10.0,299.76932,-5830.513000000001,0.0,0.06006001617238632,0.0,0.0,0.0,0.0,0.38988710769386165,0.9214660353266171,0.4609772008049075,0.008171476818811972,0.018769263480632084,0.2114479895582918
6007,10.0,299.61906,-5730.8608,0.0,0.06007001215980545,0.0,0.0,0.0,0.0,0.3379387275219557,0.9227454662278871,0.48135439998848056,0.010054077266110172,0.014586308689056589,0.2149041451193878
6008,10.0,299.52256,-5659.3104,0.0,0.060080008147224584,0.0,0.0,0.0,0.0,0.3425783389348497,0.918671785393346,0.45903891415861353,-0.002179134269888808,-0.02332842790183658,0.2000157926550218
6009,10.0,299.4,-5650.9894,0.0,0.06009000413464394,0.0,0.0,0.0,0.0,0.34135071551119267,0.9243734348985552,0.4520355321174336,-0.01259242500977559,-0.016315905331504486,0.21075566616246483
6010,10.0,299.8318,-5741.5927,0.0,0.06010000012206329,0.0,0.0,0.0,0.0,0.37587254158573163,0.9161732525017602,0.45325499887778553,-0.003566793758065137,-0.0065816630939095734,0.1956331212024858
6011,10.0,300.21456,-5908.5258,0.0,0.06011002909954,0.0,0.0,0.0,0.0,0.39051267817310065,0.926134159597325,0.47939746954034657,0.0027829739795331475,0.024623455761895875,0.19448711507438382
6012,10.0,300.33227999999997,-5908.6807,0.0,0.06012002508695935,0.0,0.0,0.0,0.0,0.38886369469535864,0.9415931035905041,0.46563460488955755,-0.021306099252498278,-0.007564018286435483,0.2010559749426798
6013,10.0,299.93654,-5695.3907,0.0,0.0601300210743787,0.0,0.0,0.0,0.0,0.3389860430903177,0.9351452663141522,0.4571252393572486,0.006849980636990453,-0.006047317648998784,0.2242163289709288
6014,10.0,300.18405,-5685.1629,0.0,0.06014001706179806,0.0,0.0,0.0,0.0,0.3560997866168127,0.930168891098022,0.4418788853675506,-0.0008223001700972082,0.001155008247290439,0.2310445403348208
6015,10.0,299.61317,-5816.1656,0.0,0.06015001304921741,0.0,0.0,0.0,0.0,0.36092476200300067,0.935645801731051,0.47139855914341555,0.02432657652234618,0.01048521437306009,0.2137039503759378
6016,10.0,299.47263,-5736.4973,0.0,0.06016000903663654,0.0,0.0,0.0,0.0,0.36122457257508966,0.9470747967640052,0.43545256952332256,0.006633973751522234,-0.004859173691638105,0.2276522499275278
6017,10.0,300.02297000000004,-5544.5759,0.0,0.060170005024055895,0.0,0.0,0.0,0.0,0.3441935609192597,0.9098359000163121,0.4313831747367046,0.003913369976594546,0.001929431651020078,0.20714766494138281
6018,10.0,300.33511,-5536.1352,0.0,0.06018000101147525,0.0,0.0,0.0,0.0,0.3359273551459487,0.9143335348251942,0.4325859634004106,0.01027044689511419,0.01223926681992159,0.2174799889936038
6019,10.0,300.3181,-5676.3382,0.0,0.060190029988951954,0.0,0.0,0.0,0.0,0.3288488304773527,0.9280281368167461,0.46858811747354656,-0.0033162021135586667,0.016304521466630983,0.2237998021198208
6020,10.0,299.64659,-5863.2826,0.0,0.06020002597637153,0.0,0.0,0.0,0.0,0.3493181746250197,0.9634928022418361,0.46948054763162256,-0.016604468827483482,-0.008120457244476732,0.22812063491875378
6021,10.0,299.64974,-5840.3011,0.0,0.06021002196379066,0.0,0.0,0.0,0.0,0.35600308202726866,0.9557932160569461,0.4635094141298175,-0.02192507043383598,-0.028375461100439977,0.24464665285724474
6022,10.0,300.05517000000003,-5616.2155,0.0,0.060220017951210014,0.0,0.0,0.0,0.0,0.3546726035859607,0.9212329776711161,0.4312836938418866,0.0008102382585217901,0.0018009243832373984,0.21975134108026878
6023,10.0,299.67094,-5511.0299,0.0,0.06023001393862937,0.0,0.0,0.0,0.0,0.35468028402171864,0.911622817230167,0.40891236779900864,0.007507672765599612,0.006160245183243864,0.2275865710560458
6024,10.0,299.68804,-5738.4658,0.0,0.0602400099260485,0.0,0.0,0.0,0.0,0.3708644415089707,0.9227349385593482,0.4507509336406536,0.015814941309813185,-0.00936898857732218,0.20202285871810383
6025,10.0,299.81978,-5860.4221,0.0,0.06025000591346785,0.0,0.0,0.0,0.0,0.3559114031582207,0.9539037174029671,0.47160685296647253,0.001978808037668148,0.0002590574808144827,0.22169640636973179
6026,10.0,300.42616,-5681.0773,0.0,0.060260001900887206,0.0,0.0,0.0,0.0,0.36160116723975666,0.9070633640326842,0.45824111142737656,0.02242018597595008,0.009150561240015082,0.2026060348131588
6027,10.0,300.42267000000004,-5738.9166,0.0,0.06026999788830656,0.0,0.0,0.0,0.0,0.3474340157990677,0.9303245668433862,0.4667287630100425,0.0019230584092160884,0.0055775589946122145,0.20630166190288882
6028,10.0,300.1048,-5823.6699,0.0,0.06028002686578349,0.0,0.0,0.0,0.0,0.38549039259493967,0.9286068140813571,0.4561530360187996,-0.01118314104194009,-0.01781552459875538,0.19157728370220584
6029,10.0,300.3373,-5871.5769,0.0,0.06029002285320262,0.0,0.0,0.0,0.0,0.38510169972407865,0.9299743572113232,0.4697367073894036,-0.025451595201126876,-0.026096220861746473,0.2007598019384498
6030,10.0,300.43557999999996,-5878.3009,0.0,0.06030001884062197,0.0,0.0,0.0,0.0,0.3896340687463886,0.938887431980975,0.45833520183166254,0.003395931318877327,0.01067356338114869,0.20609705631019581
6031,10.0,299.78751,-5824.2065,0.0,0.060310014828041325,0.0,0.0,0.0,0.0,0.36627372954590265,0.9390112410106941,0.46512838513959753,0.002385591881114588,0.022994862929166276,0.2051753330917288
6032,10.0,299.49126,-5675.4495,0.0,0.060320010815460456,0.0,0.0,0.0,0.0,0.34016234539640966,0.943737424512132,0.44129515198494057,2.6953258193829473e-05,-0.008245820093224082,0.23415218852402178
6033,10.0,299.98013,-5657.2502,0.0,0.06033000680288003,0.0,0.0,0.0,0.0,0.3301472395529957,0.9434921774579281,0.44602339238408156,-0.008877514048117421,-0.005960755085005724,0.23587965835450977
6034,10.0,299.43172000000004,-5746.1341,0.0,0.06034000279029916,0.0,0.0,0.0,0.0,0.3662960615781066,0.9303740134482661,0.4500112104051486,0.009862942326871621,0.013217332823449187,0.22730291169055078
6035,10.0,299.67876,-5526.7821,0.0,0.060349998777718517,0.0,0.0,0.0,0.0,0.3364350339760527,0.901024241449169,0.44254447922573964,0.004837543740428395,0.00019914810606438778,0.2154457272978378
6036,10.0,299.86126,-5478.9074,0.0,0.060360027755195444,0.0,0.0,0.0,0.0,0.3199433550834507,0.9226863532170532,0.4228213431142176,-0.012946255997695987,-0.00940417318041963,0.22236945774865677
6037,10.0,300.07106,-5745.1143,0.0,0.060370023742614576,0.0,0.0,0.0,0.0,0.33796907436245066,0.9486602190629742,0.4597420185355046,-0.013946565880668886,-0.009374590127850012,0.22130022558063178
6038,10.0,300.31878,-5871.257,0.0,0.06038001973003393,0.0,0.0,0.0,0.0,0.37518603424547864,0.9407429462266,0.46878653210812854,0.005587760396619015,0.014206878950609788,0.2104645391437328
6039,10.0,300.44198,-5763.4915,0.0,0.06039001571745306,0.0,0.0,0.0,0.0,0.34279305676354066,0.948584427955494,0.46058002703070955,0.016553347320188184,0.01022440785032049,0.22178904782637476
6040,10.0,300.09989,-5828.3718,0.0,0.060400011704872636,0.0,0.0,0.0,0.0,0.39543456079885264,0.9216402535488111,0.4546046986734906,0.004229837671052476,-0.019352238952167283,0.19377705980180682
6041,10.0,300.64259,-5898.8882,0.0,0.06041000769229199,0.0,0.0,0.0,0.0,0.36073495999426863,0.969872427521456,0.4625073199134186,0.002122891999238128,-0.009101764939049262,0.22036215863805178
6042,10.0,300.21279,-5760.0842,0.0,0.06042000367971112,0.0,0.0,0.0,0.0,0.3868268188143346,0.9215356456084871,0.44255929294220153,-0.00940623453642307,0.017276311399039183,0.20060182611535882
6043,10.0,299.28505,-5757.3527,0.0,0.060429999667130474,0.0,0.0,0.0,0.0,0.35691366962713666,0.9248617809167511,0.4683160091591916,-0.005789048304509584,0.017533224001644483,0.2143160040988428
6044,10.0,299.4489,-5687.7889,0.0,0.0604400286446074,0.0,0.0,0.0,0.0,0.36762934672219166,0.9114499466306061,0.44986649802586653,-0.025068115502030378,-0.009427372554709232,0.2033198188461038
6045,10.0,300.0085,-5578.6337,0.0,0.06045002463202653,0.0,0.0,0.0,0.0,0.3287474345398457,0.9208147890898442,0.44620311255431855,-0.005396824054400064,-0.0006022124097187374,0.22329630801262979
6046,10.0,300.10061,-5662.5307,0.0,0.06046002061944589,0.0,0.0,0.0,0.0,0.3659929376781907,0.9085382002157392,0.44673679138198863,0.01067981108126529,0.007836748635026872,0.2053914086755538
6047,10.0,299.76788,-5880.0882,0.0,0.06047001660686502,0.0,0.0,0.0,0.0,0.37327757768212866,0.9386023034028351,0.47552009578017956,0.03127551764890327,-0.002007476834672538,0.21609608187452278
6048,10.0,299.94761,-5851.2092,0.0,0.06048001259428437,0.0,0.0,0.0,0.0,0.35872254397065867,0.9442047050607492,0.4756942430748666,0.014938541781569285,-0.02431072321128158,0.20973308402904378
6049,10.0,300.26114,-5713.6708,0.0,0.06049000858170395,0.0,0.0,0.0,0.0,0.3483236797843707,0.9520718625471771,0.4364177003760736,0.02235030312980318,-0.015338080481500685,0.22696870127756677
6050,10.0,300.26878999999997,-5882.3216,0.0,0.06050000456912308,0.0,0.0,0.0,0.0,0.35812921510960166,0.9622981398439321,0.4676515298761125,-0.008346525703437952,0.01218224313079379,0.2130615295475358
6051,10.0,300.02637000000004,-5831.8498,0.0,0.06051000055654243,0.0,0.0,0.0,0.0,0.3773687978759006,0.9382475645428252,0.45712034535926555,-0.017486715822054483,0.01046732848229489,0.2178574145233528
6052,10.0,299.64572999999996,-5727.7439,0.0,0.06052002953401914,0.0,0.0,0.0,0.0,0.35460695511198165,0.9524162865211692,0.4340678619366626,-0.04057546853198696,0.005175138510071405,0.2199271298401178
6053,10.0,299.52032,-5666.2301,0.0,0.06053002552143849,0.0,0.0,0.0,0.0,0.3368179513213437,0.9312922510863892,0.45428225209416756,-0.008642359370209463,0.005048583977881446,0.22503584565180876
6054,10.0,299.81461,-5727.7943,0.0,0.060540021508857844,0.0,0.0,0.0,0.0,0.34966637802188466,0.9415839134120971,0.4498561527423455,0.005520126357744055,0.013794193330630885,0.21917264355065577
6055,10.0,299.41066,-5763.9243,0.0,0.060550017496276975,0.0,0.0,0.0,0.0,0.35124910507558765,0.9346965687723691,0.46614340842727253,0.013863513822972285,0.003950229887407336,0.23422348080105776
6056,10.0,299.09145,-5890.4962,0.0,0.06056001348369633,0.0,0.0,0.0,0.0,0.38368404124416666,0.9323426469350552,0.4745370810631635,-0.007050519145107063,-0.012964008139447987,0.2138876424865668
6057,10.0,299.86227,-5857.8665,0.0,0.060570009471115904,0.0,0.0,0.0,0.0,0.3616508874221636,0.9550738186184472,0.46392042890038154,0.018163480762595982,-0.008291844851191372,0.23212762363171277
6058,10.0,299.93549,-5687.0882,0.0,0.060580005458535036,0.0,0.0,0.0,0.0,0.35656692531041567,0.9218987133843191,0.45026716751290957,0.020958158287409177,0.008752526709857131,0.1897952300888308
6059,10.0,299.8929,-5791.4130000000005,0.0,0.06059000144595439,0.0,0.0,0.0,0.0,0.3474085426915537,0.935899803266119,0.4771366045922166,0.007939902865432403,-0.0029849862599202076,0.2170892594900418
6060,10.0,299.81344,-5885.4576,0.0,0.060600030423431095,0.0,0.0,0.0,0.0,0.38928210619165265,0.9254494254447471,0.4743006087548256,-0.014595181720182286,-0.017875302301654985,0.17595301782271083
6061,10.0,299.99608,-5740.8773,0.0,0.06061002641085045,0.0,0.0,0.0,0.0,0.3518128774312277,0.9318503796389722,0.4614200822911166,-0.01153717265338029,-0.009310873313861651,0.2274589319409488
6062,10.0,300.24134,-5660.4816,0.0,0.0606200223982698,0.0,0.0,0.0,0.0,0.35803370615517566,0.9151832260940521,0.4474281319252185,0.006695926497086494,0.017704099511758584,0.2018268657512608
6063,10.0,300.1362,-5783.2549,0.0,0.060630018385689155,0.0,0.0,0.0,0.0,0.3831551246919666,0.924192174588166,0.4506178027100146,-0.001991509634296698,0.009851810355972981,0.2219959028342898
6064,10.0,299.974,-5854.5303,0.0,0.060640014373108286,0.0,0.0,0.0,0.0,0.38520855707962465,0.9196581742331952,0.4747642821330865,-0.004490574380860186,-0.003701510222460616,0.20979756726540782
6065,10.0,299.72909,-5816.3715,0.0,0.06065001036052764,0.0,0.0,0.0,0.0,0.35362722332528973,0.9484682790965312,0.46593618864932157,-0.004956325732426266,0.004182350995840906,0.2300762582742588
6066,10.0,299.1992,-5761.1904,0.0,0.06066000634794699,0.0,0.0,0.0,0.0,0.3497306383432267,0.9361689326251801,0.46535843344230154,0.01246095479605049,0.01995114980802518,0.2176443482923248
6067,10.0,299.33111,-5603.1843,0.0,0.060670002335366346,0.0,0.0,0.0,0.0,0.32778505972736666,0.92547103806938,0.44997201789128055,0.014402554770171485,0.004209223908368056,0.2156576485562528
6068,10.0,299.40348,-5737.6353,0.0,0.06067999832278548,0.0,0.0,0.0,0.0,0.3606411836975137,0.944686647338313,0.43877004154323157,-0.005655445705949036,-0.006363415608495224,0.23340286981006977
6069,10.0,299.91282,-5825.6595,0.0,0.060690027300262406,0.0,0.0,0.0,0.0,0.36903349857827067,0.944935754875398,0.45688577796111557,-0.005831302252229724,-0.016468093470024286,0.2144262457097228
6070,10.0,299.81133,-5716.7936,0.0,0.06070002328768176,0.0,0.0,0.0,0.0,0.3556293953903887,0.9450614080202991,0.4370716925206176,0.006982723695491174,-0.0015274413924717286,0.2248335300043418
6071,10.0,299.68671,-5538.5891,0.0,0.06071001927510111,0.0,0.0,0.0,0.0,0.3206887119895117,0.9175495197150871,0.4453545561255726,0.006174829195908194,0.006716109324503383,0.2207173129306028
6072,10.0,300.45434,-5738.5396,0.0,0.060720015262520244,0.0,0.0,0.0,0.0,0.35364120617666966,0.940966884631201,0.44976465625831563,0.0008929496919322732,-0.0047348942098976755,0.2190417417702368
6073,10.0,300.17194,-5938.7987,0.0,0.0607300112499396,0.0,0.0,0.0,0.0,0.35574431821673064,0.9534144594596811,0.4960877353200475,-0.0013679151954027187,0.0004766821416573645,0.22702475427309882
6074,10.0,299.83546,-5827.5529,0.0,0.06074000723735895,0.0,0.0,0.0,0.0,0.38850682801013864,0.9326999493178181,0.45022378014362757,-0.004234695293356886,0.02762466101484177,0.2083660677891298
6075,10.0,299.91212,-5742.7383,0.0,0.060750003224778304,0.0,0.0,0.0,0.0,0.36299256227707666,0.9381859589367452,0.4444705258108255,-0.0005756972758018975,0.016967903399851686,0.22409854877930477
6076,10.0,299.64585,-5763.6512,0.0,0.06075999921219766,0.0,0.0,0.0,0.0,0.38029607741480065,0.918011399640671,0.4536985592415616,-0.02047958303992748,-0.0007458736332144963,0.1957709637460898
6077,10.0,299.41058,-5818.2716,0.0,0.06077002818967414,0.0,0.0,0.0,0.0,0.35429349606104565,0.9460719730075342,0.46824381508956653,-0.003204603254169717,-0.009171563482787842,0.22127210789035678
6078,10.0,299.73527,-5811.7235,0.0,0.06078002417709372,0.0,0.0,0.0,0.0,0.36845002864068666,0.9279941625408932,0.47017464421512456,0.0013628534032031588,-0.0026407405166207973,0.19082902890085882
6079,10.0,299.5269,-5822.1946,0.0,0.06079002016451307,0.0,0.0,0.0,0.0,0.34959658535499666,0.9520651953615191,0.46813999748432056,0.014922075454194186,0.007507860520843144,0.21513020121669782
6080,10.0,299.86175,-5714.9689,0.0,0.0608000161519322,0.0,0.0,0.0,0.0,0.37815397551089164,0.9216112847284522,0.4374425825872216,-0.0059121199921308145,-0.012077301831186887,0.2044040065856048
6081,10.0,299.47716,-5778.8754,0.0,0.060810012139351555,0.0,0.0,0.0,0.0,0.36357614367217167,0.9487872400955102,0.4442704494460796,0.016934529981307983,0.0003060756899748187,0.23104730650759378
6082,10.0,299.6743,-5937.1111,0.0,0.060820008126770686,0.0,0.0,0.0,0.0,0.3860633956589906,0.9538893089865451,0.46478082009029553,-0.005075808488193295,0.015787520735606984,0.22152244146006278
6083,10.0,299.89845,-5812.7408,0.0,0.06083000411419026,0.0,0.0,0.0,0.0,0.35453335262471763,0.9373260237093761,0.4750686827281285,0.0071119001136398935,0.016831994137438484,0.20447757867536578
6084,10.0,300.35087000000004,-5588.8518,0.0,0.060840000101609615,0.0,0.0,0.0,0.0,0.31712369283767167,0.9359350846346011,0.44581261609827955,-0.026976768635899775,-0.011253948985428289,0.23867768771065376
6085,10.0,300.29953,-5680.8621,0.0,0.0608500290790861,0.0,0.0,0.0,0.0,0.33199954179580365,0.9347280301879741,0.46011267555458557,-0.004721512013176956,-0.006940134767287973,0.21793875824138081
6086,10.0,299.94522,-5821.4916,0.0,0.060860025066505674,0.0,0.0,0.0,0.0,0.3702886013446397,0.9535616644342091,0.44573782810839857,-0.005860163465428104,-0.001980579198842948,0.2225840134573318
6087,10.0,300.00896,-5777.531,0.0,0.06087002105392503,0.0,0.0,0.0,0.0,0.3606147783999077,0.940169943162549,0.45544042735597057,0.007184363505141472,0.0014882255738514285,0.21708469986459178
6088,10.0,300.64521,-5745.6924,0.0,0.06088001704134416,0.0,0.0,0.0,0.0,0.35880541769633767,0.9376465755110122,0.4500950365859216,-0.004644943641545245,-0.0022947207750463076,0.22954750384207478
6089,10.0,300.16336,-5761.3847,0.0,0.06089001302876351,0.0,0.0,0.0,0.0,0.3534037510157347,0.9325336243139032,0.46537971169440157,-0.003442167643465497,0.006226021022760433,0.2045264071976848
6090,10.0,299.91546,-5822.7809,0.0,0.060900009016182644,0.0,0.0,0.0,0.0,0.3440780909378637,0.9527685023884301,0.47313341556713256,0.015246505977212986,0.020691899465881482,0.2215601140987808
6091,10.0,299.89305,-5880.1809,0.0,0.06091000500360222,0.0,0.0,0.0,0.0,0.37976266203215664,0.9428860309831061,0.4647794826001636,0.007686418999840492,0.015711258466830486,0.2135607984018098
6092,10.0,299.79269,-5939.678000000001,0.0,0.06092000099102157,0.0,0.0,0.0,0.0,0.4052470672847716,0.9475367678820981,0.4527299630734685,0.0028112101187448375,-0.010960715419738387,0.2000454302204468
6093,10.0,299.6711,-5728.422,0.0,0.06093002996849828,0.0,0.0,0.0,0.0,0.36966107529270764,0.9304526112585231,0.4411835526189266,-0.014591319210801087,-0.01941132663174878,0.22886079385180175
6094,10.0,299.79904,-5620.0726,0.0,0.06094002595591763,0.0,0.0,0.0,0.0,0.34973866328401865,0.9115253425705471,0.44709772120010954,0.016882247289398085,0.003619934267509697,0.2033014790192938
6095,10.0,299.79999,-5849.1418,0.0,0.060950021943336985,0.0,0.0,0.0,0.0,0.3540224212617926,0.9367361095011562,0.4872345132338025,0.0024122365083942077,0.014744647255683386,0.2053647804629258
6096,10.0,300.45762,-5872.1179,0.0,0.060960017930756116,0.0,0.0,0.0,0.0,0.36418493472975466,0.930754215283289,0.4900380850679935,0.0035280176899882367,0.0037187480384618565,0.19726526446356582
6097,10.0,300.22878,-5743.6725,0.0,0.06097001391817547,0.0,0.0,0.0,0.0,0.3566110118222667,0.9301672698978621,0.4591547387775446,-0.01967407859468038,0.004289862910951506,0.2199251641349238
6098,10.0,300.15738,-5758.1947,0.0,0.0609800099055946,0.0,0.0,0.0,0.0,0.3761141206745736,0.9364388827168222,0.43779438302194157,0.008071924388536912,0.01140578451291329,0.22341523317686682
6099,10.0,299.97261000000003,-5824.0065,0.0,0.060990005893014176,0.0,0.0,0.0,0.0,0.36505322927044864,0.9434220808160101,0.4618772404712345,0.0049956172408290355,0.011365366979674388,0.21170259904341981
6100,10.0,299.7791,-5724.7482,0.0,0.06100000188043353,0.0,0.0,0.0,0.0,0.35536146166644567,0.9420402711246362,0.4427787629138616,0.001805811693769738,-0.007010911198698063,0.2390419004590988
6101,10.0,299.82566,-5690.5995,0.0,0.06100999786785266,0.0,0.0,0.0,0.0,0.3232525488500427,0.9376454812009042,0.46890212367953654,-0.016472225503932087,-0.008025804891685272,0.2041227587553478
6102,10.0,299.74651,-5651.4497,0.0,0.06102002684532959,0.0,0.0,0.0,0.0,0.3386756136571807,0.9290176160694001,0.45020637250690954,0.0073940848962643635,-0.004018810808500746,0.24184038577778777
6103,10.0,299.54547,-5610.9904,0.0,0.06103002283274872,0.0,0.0,0.0,0.0,0.35990766155262066,0.9131931015726422,0.4325002019119466,0.016680974276283983,0.0039548192010852665,0.2074975402009128
6104,10.0,299.24107999999995,-5799.6749,0.0,0.061040018820168074,0.0,0.0,0.0,0.0,0.37809852033291863,0.951931203168295,0.4329266484815336,0.012185604081375489,-0.01171270303445379,0.24380739806441676
6105,10.0,299.50177,-5955.3698,0.0,0.06105001480758743,0.0,0.0,0.0,0.0,0.3866907697234076,0.954425622264475,0.4691673418932116,-0.007811396205599782,-0.01188122983083609,0.2043157221043918
6106,10.0,299.71395,-5862.7463,0.0,0.06106001079500678,0.0,0.0,0.0,0.0,0.3628392575369467,0.9536441733898521,0.4656450717630906,-0.005442743535681965,0.0063137233917909845,0.23595058586150977
6107,10.0,300.01065,-5800.1036,0.0,0.061070006782426134,0.0,0.0,0.0,0.0,0.3418573304286917,0.9312365121983882,0.4899928333185275,-0.005164478713719365,0.010263846583962791,0.2005731410050278
6108,10.0,300.20589,-5907.265,0.0,0.061080002769845265,0.0,0.0,0.0,0.0,0.37814379234738665,0.9438217978479592,0.47369546539760254,-0.007235145269678243,-0.005523534323130395,0.20802157288763082
6109,10.0,299.75501,-5878.4848,0.0,0.06108999875726462,0.0,0.0,0.0,0.0,0.38196103984661967,0.9421772524056551,0.46277431131476854,-0.012997024893956486,-0.01022775765515109,0.1989416968865168
6110,10.0,300.07007000000004,-5753.181,0.0,0.06110002773474155,0.0,0.0,0.0,0.0,0.38326364377767663,0.927604415889928,0.43795531753532463,0.01059901553154139,-0.006336270030366164,0.2084354652884788
6111,10.0,300.52903,-5835.1995,0.0,0.06111002372216068,0.0,0.0,0.0,0.0,0.3720424359427296,0.937620393128428,0.46409212412982653,0.014339237784672589,0.0067209171962278845,0.19771267517772181
6112,10.0,300.08319,-5814.4823,0.0,0.06112001970958003,0.0,0.0,0.0,0.0,0.36444861280327767,0.9404294466456601,0.4625793721280295,0.016755694378408285,-0.012478882230069788,0.2128477641739388
6113,10.0,299.81081,-5805.3542,0.0,0.061130015696999385,0.0,0.0,0.0,0.0,0.33935448109167965,0.950200389612477,0.4751278464014676,0.011247032540245689,-0.012112928717952989,0.2145835933177518
6114,10.0,299.98916,-5841.6453,0.0,0.06114001168441874,0.0,0.0,0.0,0.0,0.37017039558797366,0.9382806167610871,0.46726329296779656,0.0024441821562219976,0.005061837390514455,0.2345756764033168
6115,10.0,300.19705,-5881.3969,0.0,0.06115000767183809,0.0,0.0,0.0,0.0,0.3887120922153966,0.9315353804478842,0.46755031632362354,-0.0026801705363122376,0.013189576863459887,0.2065541840928108
6116,10.0,300.08436,-5669.3391,0.0,0.06116000365925722,0.0,0.0,0.0,0.0,0.36534451840919663,0.9314172152212222,0.4265757893722526,-0.02142981404995798,-0.003186832671265897,0.24938370853225578
6117,10.0,299.97292999999996,-5744.6148,0.0,0.061169999646676576,0.0,0.0,0.0,0.0,0.35928621500128866,0.9442133176865991,0.44271993361305556,-0.013238908971078588,0.002089983358515298,0.2120418047793968
6118,10.0,300.10352,-5740.2792,0.0,0.061180028624153504,0.0,0.0,0.0,0.0,0.3269272624577087,0.9442498250877022,0.47372444435046257,0.0007253085166673772,-0.0036302466204024466,0.23494446904221378
6119,10.0,299.76819,-5648.1547,0.0,0.061190024611572635,0.0,0.0,0.0,0.0,0.3268409335491887,0.934956963915568,0.4551001070448836,0.004792664056399116,0.012054540180940487,0.20440537447323978
6120,10.0,299.47057,-5759.3241,0.0,0.06120002059899177,0.0,0.0,0.0,0.0,0.34338596005955563,0.9421910934020211,0.4651136626156446,0.002315848660831468,-0.015333625220810984,0.22473037101166077
6121,10.0,298.82903,-5872.5428,0.0,0.06121001658641134,0.0,0.0,0.0,0.0,0.3926625821027796,0.9395427008206451,0.4529011010153586,0.014290118459574886,-0.013735291075817687,0.2115557183089238
6122,10.0,298.92887,-5849.7879,0.0,0.061220012573830696,0.0,0.0,0.0,0.0,0.37357156206614267,0.958342745826065,0.4462751445039275,0.017598415499828383,0.007101703271258544,0.22894936204304275
6123,10.0,299.27268,-5832.8607,0.0,0.06123000856125005,0.0,0.0,0.0,0.0,0.39138639360182964,0.9232591434985831,0.45839847930040756,0.006880415326269124,0.010154118690883491,0.21433545850076283
6124,10.0,299.99514,-5899.7183,0.0,0.06124000454866918,0.0,0.0,0.0,0.0,0.35838582069742664,0.9568664201653632,0.4781147962387565,-0.02309053805660868,-0.014531397626387287,0.2067623259283528
6125,10.0,300.18081,-5720.982,0.0,0.061250000536088534,0.0,0.0,0.0,0.0,0.3357109857195947,0.926409469781996,0.47691522971036854,-0.024685692622788177,-0.014258415890446088,0.2164927490236708
6126,10.0,299.89252,-5706.5331,0.0,0.06126002951356546,0.0,0.0,0.0,0.0,0.35640456211439164,0.9161169360612021,0.46212206196039657,-0.005835913857409854,-0.005536273612662665,0.2039329364816138
6127,10.0,299.96595,-5848.8257,0.0,0.06127002550098459,0.0,0.0,0.0,0.0,0.38788550304881864,0.9373598763952171,0.4526515983107346,0.01064621170794929,0.005447951033245905,0.21625084569479677
6128,10.0,300.17062000000004,-5956.2169,0.0,0.061280021488403946,0.0,0.0,0.0,0.0,0.39916778959979365,0.943250963139122,0.4681224783900916,0.0017871561382285781,0.008422463428207422,0.20001342164978783
6129,10.0,299.79721,-5849.741,0.0,0.0612900174758233,0.0,0.0,0.0,0.0,0.38346407477995764,0.9459444656149502,0.4487666454398196,-0.003949172864903016,0.007912332026236374,0.22979923569691876
6130,10.0,300.24376,-5841.6246,0.0,0.06130001346324265,0.0,0.0,0.0,0.0,0.3361434003322707,0.9581398019635361,0.48142481073792953,0.00953211424404643,0.017559520881489783,0.2079989267478958
6131,10.0,300.28167,-5910.3791,0.0,0.061310009450662006,0.0,0.0,0.0,0.0,0.35751490183897366,0.9616811110630361,0.4774116614643626,-0.006853663091828883,0.011516664471356288,0.21708781054239878
6132,10.0,299.62933,-5826.023,0.0,0.06132000543808114,0.0,0.0,0.0,0.0,0.35952814872766564,0.9427527987274572,0.4686845586180645,-0.008780265951219782,-0.011270232927785388,0.2086159757937938
6133,10.0,300.74381,-5781.0928,0.0,0.06133000142550027,0.0,0.0,0.0,0.0,0.38462974809250067,0.9439612717242242,0.42871684762855855,-0.018562243312950786,-0.017003859592900284,0.21947067080256877
6134,10.0,300.54078,-5687.5007,0.0,0.06134003040297742,0.0,0.0,0.0,0.0,0.3463688670289457,0.9427867426058071,0.43970260653776855,0.013013254120808187,0.003044518249670557,0.23139724256212976
6135,10.0,300.50142,-5593.5589,0.0,0.06135002639039655,0.0,0.0,0.0,0.0,0.34637181558673663,0.9285632848570612,0.4253671339904676,0.012899362783067986,0.003946893862778096,0.22318914668205378
6136,10.0,300.13406000000003,-5828.2596,0.0,0.061360022377815904,0.0,0.0,0.0,0.0,0.3296596129423707,0.9526740978766132,0.48931167593880254,0.01924287278937368,-0.004961181328230475,0.23645934886922076
6137,10.0,299.35848,-5989.7193,0.0,0.06137001836523526,0.0,0.0,0.0,0.0,0.3756392508827076,0.955595105397394,0.48949074762897554,-0.005308631677621155,-0.007217052270592603,0.2176851721388538
6138,10.0,299.5137,-5698.3345,0.0,0.06138001435265461,0.0,0.0,0.0,0.0,0.3437574580762197,0.9349228173871981,0.45347113525661653,0.007764170036988923,-0.0018268965164256483,0.2186680753983588
6139,10.0,300.05691,-5657.9568,0.0,0.061390010340073964,0.0,0.0,0.0,0.0,0.36325734479320865,0.9278750448591372,0.4287452186313586,-0.0019514517035182882,0.008590637005604862,0.2118149076845038
6140,10.0,299.43565,-5974.7353,0.0,0.061400006327493095,0.0,0.0,0.0,0.0,0.3897101536963976,0.9584282033394992,0.46803198502366056,-0.01237842861515579,6.943056980576373e-05,0.2141749191549188
6141,10.0,300.35679,-5938.0347,0.0,0.06141000231491245,0.0,0.0,0.0,0.0,0.38646551409367663,0.9531394228525372,0.46540933912732557,-0.015432060441525786,-0.0075839990717824326,0.2185221268539548
6142,10.0,300.47042000000005,-5770.4242,0.0,0.0614199983023318,0.0,0.0,0.0,0.0,0.32974874855366765,0.955710251138758,0.46860587974779955,-0.015296694281166185,0.002868356309809727,0.21624918396463277
6143,10.0,300.3113,-5767.222,0.0,0.06143002727980851,0.0,0.0,0.0,0.0,0.37222251075050167,0.9283638671048802,0.4525051026112766,0.00024255796949860774,0.004100211167209337,0.20480910397558483
6144,10.0,301.02834,-5735.7715,0.0,0.06144002326722786,0.0,0.0,0.0,0.0,0.37782224756065264,0.9141385145784472,0.4515705415140426,0.01191153614132709,-0.005822304996641764,0.1963182505226028
6145,10.0,300.22818,-5904.7032,0.0,0.061450019254647215,0.0,0.0,0.0,0.0,0.40202381739166165,0.9484891621810921,0.44436935278834055,0.012089794191669789,-0.007142873244021703,0.21629525644667977
6146,10.0,300.39596,-6011.545,0.0,0.061460015242066346,0.0,0.0,0.0,0.0,0.4005066577519296,0.951441256214941,0.4754116577544775,0.0068809853807753835,0.005309960352477285,0.2094319764968268
6147,10.0,300.4634,-5897.6456,0.0,0.06147001122948592,0.0,0.0,0.0,0.0,0.35935137711521964,0.9626466978783321,0.4707389434608165,-0.003368317213902027,0.007373173542025572,0.2247607178521558
6148,10.0,299.58682999999996,-5683.4818,0.0,0.06148000721690505,0.0,0.0,0.0,0.0,0.3093376358892477,0.9389457343917291,0.4793532006434775,-0.014178556583814589,0.0005241459072841735,0.23875825122610475
6149,10.0,299.95463,-5686.8578,0.0,0.061490003204324406,0.0,0.0,0.0,0.0,0.33726311262027764,0.9456204687629741,0.44577918897748053,-0.014108458928646487,-0.009675310598528811,0.23415621112691876
6150,10.0,300.68301,-5738.0295,0.0,0.06149999919174376,0.0,0.0,0.0,0.0,0.3512448088951637,0.9362284610685552,0.4567444093071636,-0.002080944762323258,0.0025085633583009277,0.21946982980498578
6151,10.0,299.77706,-5687.6409,0.0,0.06151002816922069,0.0,0.0,0.0,0.0,0.36493020044330665,0.933127115294976,0.4308434974684426,0.012614222045926788,0.007892759682004731,0.2115860448844168
6152,10.0,299.52555,-5680.7104,0.0,0.06152002415663982,0.0,0.0,0.0,0.0,0.35204087896872965,0.9436355219495751,0.43111769307800357,0.0053872523873304155,0.008542077602512422,0.21627640999481978
6153,10.0,299.79464,-5878.0224,0.0,0.06153002014405917,0.0,0.0,0.0,0.0,0.35881696874747765,0.955734771791178,0.47222030497451556,0.010686666731441889,-0.002208243020086618,0.2216501312376648
6154,10.0,299.48418,-5918.0634,0.0,0.0615400161314783,0.0,0.0,0.0,0.0,0.34663165344238067,0.96530828297601,0.4870035732710105,-0.007584495361681413,0.01043907805625679,0.22272281858853077
6155,10.0,300.12892,-5872.3536,0.0,0.06155001211889788,0.0,0.0,0.0,0.0,0.37821542912945666,0.937264691680823,0.4695687510528275,0.00092934449055166,0.00991502480056176,0.21390391528317282
6156,10.0,300.1182,-5952.9263,0.0,0.06156000810631701,0.0,0.0,0.0,0.0,0.3975816377607526,0.9329412041666281,0.4790181188354075,-0.018084990356849583,-0.01001945065984279,0.2051654539032538
6157,10.0,300.41307,-5736.3591,0.0,0.061570004093736364,0.0,0.0,0.0,0.0,0.3905039946197436,0.9119614454135871,0.44124447934743966,-0.005458213230258704,-0.0029768092302881973,0.2119523347955668
6158,10.0,299.94602000000003,-5694.6825,0.0,0.06158000008115572,0.0,0.0,0.0,0.0,0.3426168019086457,0.9307584911987111,0.4576660008031176,-0.008565956158344051,-0.005679900091812494,0.20640002822259682
6159,10.0,299.79196,-5966.5238,0.0,0.06159002905863242,0.0,0.0,0.0,0.0,0.37160816708237066,0.9489160849782261,0.49315000917261653,0.017626134982814085,-0.0015621947563266186,0.21361729722738582
6160,10.0,299.99532999999997,-5976.4231,0.0,0.061600025046051776,0.0,0.0,0.0,0.0,0.3664720935179796,0.953654143770836,0.49655715382637555,-0.0061146815553970845,0.00035658371486457265,0.2052945824959978
6161,10.0,299.89945,-5736.6409,0.0,0.06161002103347113,0.0,0.0,0.0,0.0,0.3671772243950706,0.940401825447934,0.4362165195687186,-0.0014047550438635286,0.00040197188832403666,0.2185441954411328
6162,10.0,299.66057,-5762.7788,0.0,0.06162001702089026,0.0,0.0,0.0,0.0,0.3639687375559177,0.933937563387461,0.4538345576699836,0.007353933746476753,0.011272444852753688,0.2012920419509778
6163,10.0,299.65781,-5861.3283,0.0,0.061630013008309614,0.0,0.0,0.0,0.0,0.4044246932386096,0.9405701972170512,0.4367025553766866,-0.002383169200125488,0.017246026366800282,0.2114489724108888
6164,10.0,299.26089,-5885.2383,0.0,0.06164000899572919,0.0,0.0,0.0,0.0,0.36285464880596563,0.941305999174669,0.4848048509515135,-0.003206315545513707,0.006987391840026883,0.21069958276942977
6165,10.0,299.66014,-5801.9577,0.0,0.06165000498314832,0.0,0.0,0.0,0.0,0.3443097300432247,0.9629713938728771,0.4563691420001276,-0.024064308892962377,-0.006312217803467394,0.24262080113730877
6166,10.0,300.51277999999996,-5757.9713,0.0,0.061660000970567674,0.0,0.0,0.0,0.0,0.3271010551148607,0.9452511087040212,0.4779273449702566,-0.0015545131046684987,0.008371659270843441,0.2330342190261868
6167,10.0,300.16246,-5773.3445,0.0,0.06167002994804438,0.0,0.0,0.0,0.0,0.35609984741181866,0.9381473338429331,0.4607053863330816,0.007103643138574993,-0.007369617844774653,0.24683877891859077
6168,10.0,300.43986,-5921.6562,0.0,0.061680025935463734,0.0,0.0,0.0,0.0,0.3748083554032046,0.9673270926077511,0.4579001629012276,0.02009095603032298,-0.0031904661861244968,0.2209295280315468
6169,10.0,300.6818,-5992.2634,0.0,0.06169002192288309,0.0,0.0,0.0,0.0,0.4088098674188926,0.9545783494520481,0.4581102501769616,0.001185364612336379,-0.018234067817562382,0.2164353078755018
6170,10.0,300.03049,-5795.1214,0.0,0.06170001791030222,0.0,0.0,0.0,0.0,0.3476942285572487,0.956398095969143,0.45747986675974756,0.009343231253155131,0.0017347287542043982,0.2028337222431298
6171,10.0,300.42102,-5631.0984,0.0,0.06171001389772157,0.0,0.0,0.0,0.0,0.3364153971891147,0.936571810997441,0.4387260968863946,-0.005432172601363694,0.016653555728577983,0.2164177887812728
6172,10.0,299.66995,-5929.015,0.0,0.061720009885140925,0.0,0.0,0.0,0.0,0.3686817082760516,0.951533512636546,0.48205730171535155,-0.008216903455245231,0.0005864876699593264,0.2044342824985928
6173,10.0,299.82792,-6004.6967,0.0,0.06173000587256028,0.0,0.0,0.0,0.0,0.4098724627987626,0.9493308487741602,0.46607453781797553,-0.02135257804783538,-0.008680005056474803,0.22171447261901478
6174,10.0,299.81237999999996,-5784.3792,0.0,0.06174000185997963,0.0,0.0,0.0,0.0,0.37108169246291167,0.92685422578089,0.46037092260757256,-0.005950683277686714,0.004702662521566655,0.2182036319500218
6175,10.0,299.59872,-5744.7696,0.0,0.06174999784739876,0.0,0.0,0.0,0.0,0.3799944227275296,0.9144971240538391,0.4517749647217176,0.008522926162372322,0.011812991489601488,0.2061757554454628
6176,10.0,299.6556,-5860.2767,0.0,0.06176002682487569,0.0,0.0,0.0,0.0,0.36496633294187264,0.936848002709699,0.47956343990672656,0.006660753343715174,-0.005209005381413805,0.2150756883613178
6177,10.0,300.30264,-5908.8974,0.0,0.061770022812295045,0.0,0.0,0.0,0.0,0.3642081584220466,0.9530760440587821,0.47887307208359253,-0.0009415699913557232,-0.016576032976677084,0.21575858853121482
6178,10.0,299.65816,-5930.9613,0.0,0.061780018799714176,0.0,0.0,0.0,0.0,0.35939149168667867,0.9503052103353222,0.4931674269418356,0.0015442403698546585,0.007531454353396673,0.2114063855091858
6179,10.0,300.61554,-5833.1529,0.0,0.06179001478713353,0.0,0.0,0.0,0.0,0.37186089192231264,0.9504603389256321,0.4508116070566416,0.01198563714764029,0.013841391533538987,0.20969585722036982
6180,10.0,300.82495,-5717.8286,0.0,0.06180001077455288,0.0,0.0,0.0,0.0,0.36754565226393165,0.9369749122847241,0.4335565556712006,0.0013421746911873285,-0.002995987217580917,0.2085927926315058
6181,10.0,300.62787000000003,-5791.3343,0.0,0.061810006761972236,0.0,0.0,0.0,0.0,0.3663324372566966,0.9562079494553771,0.4378806106054515,0.002434965025362338,-0.014704472902468485,0.22927944852811977
6182,10.0,300.4495,-5825.8607,0.0,0.06182000274939159,0.0,0.0,0.0,0.0,0.35572966662028466,0.9489180101534161,0.4662685144171196,0.0026142026859017173,-0.002127190611462368,0.2200595920256908
6183,10.0,299.82401,-5695.7221,0.0,0.06182999873681072,0.0,0.0,0.0,0.0,0.3331095876778567,0.9456838576892301,0.4525638711170766,0.0036313317099345363,0.008957666589327862,0.24229789859544076
6184,10.0,299.48028,-5579.2124,0.0,0.06184002771428743,0.0,0.0,0.0,0.0,0.31498335398893673,0.9369476254595311,0.4440102670854016,-0.005242878534906825,-0.0014025959092254386,0.24574096296524475
6185,10.0,299.8411,-5701.1514,0.0,0.061850023701707,0.0,0.0,0.0,0.0,0.3593009577902436,0.9265127706296911,0.4471939394296056,0.005434648174008016,-0.002524279576626998,0.23879492074722378
6186,10.0,300.15092999999996,-5870.6926,0.0,0.06186001968912613,0.0,0.0,0.0,0.0,0.37060300271816865,0.9559430149517301,0.4579979516683786,-0.0018656952813047882,0.02364611727194008,0.23333947075131278
6187,10.0,300.06841000000003,-5827.4406,0.0,0.06187001567654571,0.0,0.0,0.0,0.0,0.37200576642161065,0.9421923194346421,0.4571983453519635,0.018067905946913484,0.025122809729178276,0.2160029641903328
6188,10.0,299.72494,-5811.2235,0.0,0.06188001166396484,0.0,0.0,0.0,0.0,0.35054654785375067,0.9448176099137382,0.47110267998171457,-0.016004179951489585,-0.0031473806640472867,0.21878975660286779
6189,10.0,300.47164,-5844.0226,0.0,0.06189000765138419,0.0,0.0,0.0,0.0,0.36286434560942266,0.9509726584411942,0.46259995123756054,-0.011318540639552989,-0.016080562797027985,0.2045202061070728
6190,10.0,300.26136,-5886.5909,0.0,0.06190000363880355,0.0,0.0,0.0,0.0,0.35199261786646663,0.9494448698079131,0.48793916788334657,-0.0027739476436673175,-0.011710761647262188,0.2003144278569948
6191,10.0,299.35212,-6039.5712,0.0,0.06190999962622268,0.0,0.0,0.0,0.0,0.4051174523319796,0.9582452812989461,0.47251611320870957,0.008764045033018902,0.007045135848650774,0.17964083275416984
6192,10.0,299.29701,-6035.316,0.0,0.061920028603699384,0.0,0.0,0.0,0.0,0.3966240049587416,0.960239144713225,0.47772220235501056,-0.0018767249139433279,-0.009550419823003052,0.20999297254719282
6193,10.0,299.60381,-5764.4529,0.0,0.06193002459111896,0.0,0.0,0.0,0.0,0.38846152559816766,0.9250833989786231,0.4387048085017936,0.008518863029471321,0.0028525125232960673,0.2090271729493758
6194,10.0,299.31536,-5768.3056,0.0,0.06194002057853831,0.0,0.0,0.0,0.0,0.3505382088054277,0.944336022273709,0.45854664686253055,0.002131199028857968,0.012684057269318988,0.23313622291375377
6195,10.0,300.24958,-5914.3276,0.0,0.061950016565957666,0.0,0.0,0.0,0.0,0.37140679375749663,0.9422489398502302,0.48415217603209953,-0.0008591010084291682,0.007569782260954342,0.2179152711040628
6196,10.0,300.25113,-5908.4727,0.0,0.0619600125533768,0.0,0.0,0.0,0.0,0.35308567154434267,0.9649575059238911,0.4779849786359446,-0.015749385041593286,-0.01966527851756188,0.23271756823743575
6197,10.0,299.83926,-5783.3214,0.0,0.06197000854079593,0.0,0.0,0.0,0.0,0.36673374509130263,0.9410409633460122,0.4502105977598265,-0.01025425819826649,-0.015802853236120185,0.22821940653850176
6198,10.0,300.33726,-5683.5438,0.0,0.061980004528215504,0.0,0.0,0.0,0.0,0.34143391347690366,0.942981732455051,0.4432397511793576,0.008619139122967802,0.003142362238952007,0.2282091017849848
6199,10.0,300.24228,-5841.6505,0.0,0.061990000515634636,0.0,0.0,0.0,0.0,0.36033566852736165,0.9589334807668661,0.4564467366927855,0.007665682431243952,0.01056249698468729,0.22165498470564382
6200,10.0,300.20218,-5975.5141,0.0,0.06200002949311134,0.0,0.0,0.0,0.0,0.35011793292894966,0.976187073072163,0.49010206167930753,0.013595406833262188,0.005870295155828025,0.22633505519503078
6201,10.0,300.01501,-5890.0026,0.0,0.062010025480530695,0.0,0.0,0.0,0.0,0.35873295004918565,0.9662156180430571,0.4654651388103326,-0.007495985736296193,-0.007717574515240303,0.22069035034544177
6202,10.0,299.69273,-5683.579000000001,0.0,0.06202002146795027,0.0,0.0,0.0,0.0,0.3261800209064617,0.9504382298084502,0.4510478463174566,0.007603694120601181,-0.0067604306064025545,0.23899556453202578
6203,10.0,299.55736,-5657.3411,0.0,0.062030017455369624,0.0,0.0,0.0,0.0,0.35831111376755365,0.9299985130937072,0.43138081386397165,-0.0007097855960628843,-0.00894959108735587,0.2248553756764978
6204,10.0,300.06984,-5870.5474,0.0,0.062040013442788755,0.0,0.0,0.0,0.0,0.3686275196607037,0.967246863464833,0.44862542877338263,0.003389625458204987,-0.002097076311865318,0.24238144106618575
6205,10.0,299.95658,-5995.0984,0.0,0.062050009430207886,0.0,0.0,0.0,0.0,0.4053534382802696,0.9512371369822961,0.46576963059788357,-0.014975422058709088,-0.007002103522203812,0.21868963736048677
6206,10.0,300.3856,-5817.1799,0.0,0.06206000541762724,0.0,0.0,0.0,0.0,0.3490456002156187,0.95136859605027,0.4678632484845075,-0.0012662361558177786,0.002857133957002167,0.22939585069960777
6207,10.0,300.80801,-5908.6718,0.0,0.062070001405046815,0.0,0.0,0.0,0.0,0.38026337983407366,0.9370200019141741,0.4788053160494055,-0.012738349236177188,-0.0014808829556767686,0.1905900842622768
6208,10.0,300.35967,-6163.4737,0.0,0.0620800303825233,0.0,0.0,0.0,0.0,0.39158129225856464,0.9769926372991661,0.5049681834364795,0.0004920626702253045,-0.005493588831000005,0.21475365721453576
6209,10.0,300.44887,-6094.4549,0.0,0.06209002636994265,0.0,0.0,0.0,0.0,0.4075517958297306,0.9668008915658192,0.47820943379809655,0.0048108620281951155,0.00043532499120323164,0.18637410258369183
6210,10.0,300.11442,-5916.0912,0.0,0.062100022357362006,0.0,0.0,0.0,0.0,0.3696613894002387,0.9539657789715921,0.47471685189590557,0.005384277383711805,0.0018424421034348782,0.22273026597676576
6211,10.0,299.7763,-5763.956999999999,0.0,0.06211001834478158,0.0,0.0,0.0,0.0,0.3565846166571616,0.934628833003184,0.46088554220086153,0.002776499412719157,0.01021734955012389,0.19472437771779982
6212,10.0,299.83538,-5689.4797,0.0,0.06212001433220071,0.0,0.0,0.0,0.0,0.32865146962287467,0.9514426443675782,0.4493656687664386,-0.015242631308830587,-0.00092421491192041,0.23057031902301878
6213,10.0,299.76474,-5859.8907,0.0,0.062130010319619844,0.0,0.0,0.0,0.0,0.37240315297832965,0.942770925771746,0.4660863624466426,-0.011972076821551988,-0.0007472316213960193,0.2240587179178738
6214,10.0,299.80554,-5870.1005,0.0,0.0621400063070392,0.0,0.0,0.0,0.0,0.3573793999031007,0.9688165702547512,0.45816800543266156,-0.018739002766395584,-0.011877547679972688,0.23983482945735474
6215,10.0,299.95103,-5662.1622,0.0,0.06215000229445855,0.0,0.0,0.0,0.0,0.34625412658762167,0.9430171050160422,0.4318846828736996,0.007776106731116982,-0.0073218498913353225,0.23550313461734979
6216,10.0,300.42696,-5688.0739,0.0,0.062159998281878126,0.0,0.0,0.0,0.0,0.3363290986780977,0.9440875328191852,0.44861582316243453,0.010399073929058691,-0.009598332873856702,0.2447211368720958
6217,10.0,299.91848999999996,-5940.2206,0.0,0.06217002725935483,0.0,0.0,0.0,0.0,0.37876071980327264,0.964135020420218,0.4627830050006266,0.011704501788144387,-0.0013918848424183388,0.22558782377628475
6218,10.0,299.92951,-5847.9465,0.0,0.06218002324677396,0.0,0.0,0.0,0.0,0.35168903800400564,0.9389988286969692,0.48694185620741953,0.011335856070511888,-0.0007026823278268464,0.2182790582874658
6219,10.0,300.20852,-5717.4535,0.0,0.06219001923419332,0.0,0.0,0.0,0.0,0.3420269484954317,0.9386522566327651,0.4572838839254056,0.002366725772202648,0.010065107810673801,0.2102950831970088
6220,10.0,300.34924,-5822.1128,0.0,0.06220001522161267,0.0,0.0,0.0,0.0,0.3527643091426267,0.9560398816612901,0.46097272223946556,0.002271694666523808,0.0041119881731216355,0.2071765425692328
6221,10.0,299.79592,-5980.3839,0.0,0.0622100112090318,0.0,0.0,0.0,0.0,0.38754447346266163,0.9641389923606102,0.4662039095907436,-0.015181213154019085,0.0071871558197670535,0.2088279274497118
6222,10.0,299.88526,-5931.9002,0.0,0.062220007196451155,0.0,0.0,0.0,0.0,0.3758728455607616,0.972688563656887,0.45458812190185455,-0.004241867685514746,0.005492792517746415,0.22456064148740978
6223,10.0,300.21492,-5882.019,0.0,0.06223000318387051,0.0,0.0,0.0,0.0,0.38594500751730665,0.940842862818961,0.4611990215167996,-0.009441831734961242,0.007963116830523443,0.2008800341953158
6224,10.0,299.67818,-5840.8711,0.0,0.062239999171290084,0.0,0.0,0.0,0.0,0.35674329162282165,0.9526637829905952,0.46607190336771553,-0.004023010527515226,-0.008894841942052551,0.2247646897925478
6225,10.0,300.15112,-5758.1991,0.0,0.06225002814876679,0.0,0.0,0.0,0.0,0.36762138257640564,0.92059831833848,0.4621290432535855,0.012470696182511887,-0.011093249546068489,0.21755259849576983
6226,10.0,300.15193999999997,-5836.0037,0.0,0.06226002413618592,0.0,0.0,0.0,0.0,0.37111094499329866,0.9332282275224552,0.4696602272718555,0.007196365351250962,-0.0019454909558300085,0.22264370402072278
6227,10.0,300.21465,-5910.8327,0.0,0.062270020123605274,0.0,0.0,0.0,0.0,0.3802649098417247,0.9451212607037061,0.47135937676204853,0.006438743863329544,0.006090918104776814,0.21036763190416882
6228,10.0,299.39909,-5836.684,0.0,0.06228001611102463,0.0,0.0,0.0,0.0,0.35016370143596665,0.9530160596528621,0.4710264227791885,-0.0003764087028761467,0.0007886603579697172,0.2154282892636168
6229,10.0,300.07811,-5798.1083,0.0,0.06229001209844376,0.0,0.0,0.0,0.0,0.36217530514391966,0.9468636557081671,0.4534411734511596,-0.008187085936602471,0.00955563866896811,0.2184414113509888
6230,10.0,299.89477999999997,-5919.7177,0.0,0.062300008085863334,0.0,0.0,0.0,0.0,0.34703759182994365,0.970203973086677,0.48220481066490956,-0.011871781273653589,-0.00036239990216108565,0.2168880584176848
6231,10.0,300.00926,-5856.8073,0.0,0.062310004073282466,0.0,0.0,0.0,0.0,0.36228763405000564,0.9517225445752021,0.4663129859640085,-0.014264403185286986,0.005382942629355075,0.22171268929883878
6232,10.0,300.10554,-5815.9559,0.0,0.06232000006070182,0.0,0.0,0.0,0.0,0.3467811179646317,0.969335100993426,0.4517891502231176,-0.013470217756906986,0.005471216572767035,0.22432354096400978
6233,10.0,300.75327999999996,-5901.4732,0.0,0.06233002903817875,0.0,0.0,0.0,0.0,0.37268527220367265,0.9811041630249421,0.4401110679180806,0.005669244044485824,0.0024190638888930177,0.2449593722356078
6234,10.0,300.48312000000004,-5810.2955,0.0,0.06234002502559788,0.0,0.0,0.0,0.0,0.37480558923043167,0.9466480158218851,0.4447311540015476,0.01003106473513901,0.0007893386883816633,0.2293284391704548
6235,10.0,300.71471,-5762.2135,0.0,0.06235002101301723,0.0,0.0,0.0,0.0,0.36112613532787463,0.9409758924245901,0.44946698364393756,0.0036970055151660363,0.005962315996784775,0.2309657905370488
6236,10.0,300.14173,-5948.1744,0.0,0.062360017000436585,0.0,0.0,0.0,0.0,0.35833990020289463,0.9511994947410811,0.49855710687375554,-0.004917975026741345,0.002299732917990968,0.21597264774734082
6237,10.0,299.69605,-6025.7512,0.0,0.06237001298785594,0.0,0.0,0.0,0.0,0.3860906216891776,0.9506729593266161,0.4949143309092416,-0.005626692809186345,0.006124713947287204,0.2165066508150428
6238,10.0,299.58727000000005,-5918.2762,0.0,0.06238000897527529,0.0,0.0,0.0,0.0,0.3657677124459627,0.9613529598856501,0.47188751311167154,-0.002237651185688978,0.0036168972529849663,0.21146489056995982
6239,10.0,299.81118,-5922.3619,0.0,0.06239000496269442,0.0,0.0,0.0,0.0,0.38597050088982265,0.9459617921916601,0.4683178431418725,-0.007832934356350432,0.00019535539948257682,0.2086427965239408
6240,10.0,299.41482,-5967.3758,0.0,0.062400000950113776,0.0,0.0,0.0,0.0,0.39313073404648263,0.9597682873917551,0.46103421638803455,-0.004977793968920016,-0.004544316963514166,0.2017790910090458
6241,10.0,299.70642000000004,-5869.6139,0.0,0.062410029927590704,0.0,0.0,0.0,0.0,0.37718027256229464,0.954278741529979,0.4527570472486416,-0.006091442259053545,-0.005819258254916074,0.2161878722010818
6242,10.0,300.03781000000004,-5853.7506,0.0,0.062420025915009836,0.0,0.0,0.0,0.0,0.34423418211576867,0.9599301338302281,0.4752297185665216,0.00927825456399243,-0.012935398009624387,0.2131607368648268
6243,10.0,300.44413,-5843.9594,0.0,0.06243002190242919,0.0,0.0,0.0,0.0,0.38143094792430365,0.9464427414841262,0.44854404452535057,0.0016603506239888485,-0.0012536714492777387,0.2171413912076868
6244,10.0,300.16233,-5872.3365,0.0,0.06244001788984832,0.0,0.0,0.0,0.0,0.3614953839293167,0.952382575690342,0.4711656940054335,-0.001216827953116569,0.008186651556284603,0.22776603791375777
6245,10.0,300.07426,-5875.4821,0.0,0.062450013877267896,0.0,0.0,0.0,0.0,0.3739280842463287,0.961518757999513,0.45055302563112154,-0.012260643357281288,0.010972512690652688,0.23647626001338976
6246,10.0,300.06891,-5891.028,0.0,0.06246000986468725,0.0,0.0,0.0,0.0,0.3700509435336847,0.95339985852574,0.4672746109714136,-0.008765208244133701,0.004052491748449796,0.22230516702981182
6247,10.0,299.54257,-5825.986,0.0,0.06247000585210638,0.0,0.0,0.0,0.0,0.3533667167245797,0.942199908677891,0.4753876335946065,0.0071105174325534325,-0.0012789761546251187,0.2234696751047398
6248,10.0,299.40937,-5813.3883,0.0,0.062480001839525734,0.0,0.0,0.0,0.0,0.33726145089011367,0.948996658626178,0.48086675311285354,0.007966797866811733,-0.007653810686447303,0.2247895650825028
6249,10.0,299.61017999999996,-5945.2269,0.0,0.06249003081700266,0.0,0.0,0.0,0.0,0.3747065339006556,0.9597970535620942,0.47269693782155553,-0.00027719691715220575,-0.013670747044447687,0.22739224995186777
6250,10.0,300.07198999999997,-5909.954000000001,0.0,0.0625000268044218,0.0,0.0,0.0,0.0,0.3687286014906796,0.959262533736841,0.46848728895609554,-0.004239685043474336,-0.004339034317104346,0.21643611847558178
6251,10.0,299.87483,-5745.6946,0.0,0.06251002279184115,0.0,0.0,0.0,0.0,0.3640012122216226,0.9505894675183761,0.43195700866583764,-0.0017452599691187482,0.01023374596324209,0.22782897087746878
6252,10.0,299.93894,-5800.191,0.0,0.06252001877926028,0.0,0.0,0.0,0.0,0.3771811135598776,0.939448732006371,0.4464833876644796,-0.0005557146260747634,0.014259873957339988,0.20937008718071878
6253,10.0,299.99793999999997,-5887.9537,0.0,0.06253001476667985,0.0,0.0,0.0,0.0,0.36017545342154966,0.9592969842402411,0.4703184548018176,-0.008546812418904712,-0.003148830118315337,0.22454152145802278
6254,10.0,300.35609,-5826.0707,0.0,0.0625400107540992,0.0,0.0,0.0,0.0,0.35030490796990266,0.947852739793282,0.4728223781839356,-0.006307791015105504,-0.00862533271552906,0.2048214048317988
6255,10.0,300.60213,-5825.9343,0.0,0.06255000674151834,0.0,0.0,0.0,0.0,0.36569314737110364,0.9363135234144502,0.4689318929674746,0.001942912436975528,-0.015610964945432284,0.2154844233191568
6256,10.0,300.6842,-5872.5911,0.0,0.06256000272893769,0.0,0.0,0.0,0.0,0.37700704732519863,0.9338770723564911,0.4742369361185415,0.01652889252902468,-0.0009895100149270352,0.21205452106815179
6257,10.0,299.70453,-5902.2222,0.0,0.06256999871635682,0.0,0.0,0.0,0.0,0.39054765556655263,0.9462746635575381,0.4573058410550726,0.004027538438237096,0.007346056436224323,0.22251843591085982
6258,10.0,299.39056,-5953.9458,0.0,0.06258002769383375,0.0,0.0,0.0,0.0,0.38381414255700663,0.9487460109489412,0.47729068953492354,0.0036278726767431566,0.011033076675629888,0.2162378963585188
6259,10.0,299.37624,-5967.8047,0.0,0.0625900236812531,0.0,0.0,0.0,0.0,0.37119657475924966,0.9561302534377092,0.4867367743871795,-0.009321592284019532,0.002664739953189357,0.2199542545452948
6260,10.0,299.85275,-5803.3023,0.0,0.06260001966867246,0.0,0.0,0.0,0.0,0.3600872500003447,0.9324600826216451,0.47151164798707657,-0.0015946232178270583,-0.0043525463111628755,0.2159718472797618
6261,10.0,299.42162,-5774.1008,0.0,0.06261001565609159,0.0,0.0,0.0,0.0,0.3466781920194737,0.9562177171863412,0.4522865546972076,-0.003102486389216567,-0.006548347531946583,0.22746676436422178
6262,10.0,299.86831,-5845.2498,0.0,0.06262001164351116,0.0,0.0,0.0,0.0,0.3609908968370277,0.9642306509646561,0.4515884355108086,-0.011214909472325387,-0.006968763236938384,0.23172225266420576
6263,10.0,299.7743,-5805.2742,0.0,0.0626300076309303,0.0,0.0,0.0,0.0,0.3674744511794047,0.9636283447077131,0.4335555930836056,-0.011174374402074888,-0.0012198539232152088,0.22583437792311778
6264,10.0,299.95604,-5803.4972,0.0,0.06264000361834965,0.0,0.0,0.0,0.0,0.35319516335014867,0.9512776771187972,0.4596454051384695,-0.007099385157679763,0.013064926836157887,0.23583680800778078
6265,10.0,300.38742,-5837.0024,0.0,0.06264999960576878,0.0,0.0,0.0,0.0,0.34676508834804964,0.9552630025446182,0.4722748786249016,0.011863317595568289,0.0012789782824503288,0.2299305529098788
6266,10.0,300.34816,-5866.5558,0.0,0.06266002858324571,0.0,0.0,0.0,0.0,0.34934201639987267,0.9617512988974631,0.47219316000433653,0.006624249185012494,-0.0008568051762200873,0.22253978509046676
6267,10.0,299.6299,-5942.3163,0.0,0.06267002457066506,0.0,0.0,0.0,0.0,0.3594578798332307,0.9660155416783112,0.48084234391794456,0.012880630828469289,-0.00932992322634173,0.22212411950194377
6268,10.0,299.82046,-5985.4061,0.0,0.06268002055808441,0.0,0.0,0.0,0.0,0.3824828636481196,0.9613357346339501,0.4755954005276115,0.0028551602471323773,-0.011990393343609688,0.2147209495013078
6269,10.0,300.50534,-5885.7035,0.0,0.06269001654550355,0.0,0.0,0.0,0.0,0.3890423712179926,0.9474577242417971,0.4526067923913126,-0.0024946619722289675,-0.004116434415885445,0.2178605555986628
6270,10.0,299.99383,-5755.9828,0.0,0.0627000125329229,0.0,0.0,0.0,0.0,0.35925858367106167,0.938550506057723,0.45186594444819655,-0.004248237482268396,0.006986798987393374,0.2082691605495658
6271,10.0,300.2775,-5796.0868,0.0,0.06271000852034225,0.0,0.0,0.0,0.0,0.36645014652081365,0.9426028478451581,0.45281266454663055,-0.005883535902834785,0.007009505314184313,0.2099129055242908
6272,10.0,299.17675,-6044.1748,0.0,0.0627200045077616,0.0,0.0,0.0,0.0,0.40001265779817563,0.9510751588213101,0.4861904096682575,-0.009357424252605872,0.017673240979963083,0.19749504932124382
6273,10.0,299.54323999999997,-5985.6386,0.0,0.06273000049518096,0.0,0.0,0.0,0.0,0.37566362968011363,0.9755283186521491,0.4682927348043946,-0.002222876884655868,-0.006401345308763594,0.2216986253874508
6274,10.0,299.57464,-5759.4494,0.0,0.06274002947265767,0.0,0.0,0.0,0.0,0.35362246104981965,0.9463126300387851,0.4507937130598756,0.01167977747245429,-0.0007859051789603022,0.22450089012901278
6275,10.0,299.63701000000003,-5888.2275,0.0,0.06275002546007702,0.0,0.0,0.0,0.0,0.36973613686011564,0.9599131416260511,0.4602248524731566,0.004343275782022946,-0.004773483130681105,0.2206309333595778
6276,10.0,298.85665,-6038.9309,0.0,0.06276002144749637,0.0,0.0,0.0,0.0,0.37792510257830364,0.966170832388637,0.4915882563959835,0.0023852402833298876,1.5567294879372387e-05,0.2284905016027568
6277,10.0,299.59712,-5895.6327,0.0,0.0627700174349155,0.0,0.0,0.0,0.0,0.37178226371455264,0.9457534679711,0.4745894154308286,-0.010367850627227188,-0.006735795558046263,0.23201579121817575
6278,10.0,299.79922,-5830.9967,0.0,0.06278001342233486,0.0,0.0,0.0,0.0,0.3509498112610497,0.9577719212497291,0.4637556643016205,-0.007620456924955543,0.0100174647909718,0.2236977880997528
6279,10.0,300.62262999999996,-5719.3199,0.0,0.06279000940975421,0.0,0.0,0.0,0.0,0.33941854889550266,0.949227973491507,0.4498839157950856,0.00980079432801309,-0.004487854310966736,0.22752755937022176
6280,10.0,299.9808,-5854.1882,0.0,0.06280000539717356,0.0,0.0,0.0,0.0,0.3751602774279367,0.9614387923016211,0.4429279639910866,0.01253666585677259,-0.009465953774791902,0.23120662995331778
6281,10.0,300.02236,-6121.3487,0.0,0.06281000138459292,0.0,0.0,0.0,0.0,0.4017663505412516,0.9795744897464751,0.47939632456773357,0.0009159630233710122,-0.022486790958023476,0.22726142923145679
6282,10.0,300.218,-6051.7813,0.0,0.06282003036206962,0.0,0.0,0.0,0.0,0.38219779586498565,0.985586132987278,0.47180647336867354,0.009842281346732542,-0.00894043698065243,0.23027784438165377
6283,10.0,300.25595,-5724.6146,0.0,0.06283002634948898,0.0,0.0,0.0,0.0,0.34008911781168266,0.9402334435463161,0.4598173334154376,-0.0028176968445600276,0.0050848458684852145,0.2183053115975568
6284,10.0,299.68915,-5814.9357,0.0,0.06284002233690833,0.0,0.0,0.0,0.0,0.3436067877863497,0.9626873798698471,0.4613010760668716,-0.0014093870153706687,0.012008580169654589,0.2145796821723658
6285,10.0,299.37521,-5957.4053,0.0,0.06285001832432746,0.0,0.0,0.0,0.0,0.3744326726636276,0.9532512755310761,0.4832184964624525,-0.018282585272100683,0.0017937642514057482,0.21832570832206982
6286,10.0,299.38575,-5897.4392,0.0,0.06286001431174681,0.0,0.0,0.0,0.0,0.3860556037657216,0.9383120173816861,0.4683066365957665,-0.00819197203123469,0.01122437221500929,0.2139451748272448
6287,10.0,300.22328999999996,-5824.871999999999,0.0,0.06287001029916617,0.0,0.0,0.0,0.0,0.3565051981143237,0.9468802628773061,0.4672301900870295,0.0036969011504057363,-0.003447464003063207,0.2173518128559538
6288,10.0,300.42728999999997,-5882.1669,0.0,0.06288000628658552,0.0,0.0,0.0,0.0,0.37756068717983865,0.932013989132619,0.4784571937125485,0.013305279892378886,-0.011834412609965591,0.20941486270263782
6289,10.0,300.04573999999997,-6058.6882,0.0,0.06289000227400487,0.0,0.0,0.0,0.0,0.39412515795962466,0.9589447987704831,0.4886199503605345,0.0035993581977289964,-0.013516694525743885,0.21657564301435178
6290,10.0,299.78969,-6170.5794,0.0,0.062899998261424,0.0,0.0,0.0,0.0,0.3986102892622726,0.9743758175909062,0.5027159412467006,0.008555903602776941,0.016129078225066085,0.21511970394566182
6291,10.0,300.38481,-6094.318,0.0,0.06291002723890093,0.0,0.0,0.0,0.0,0.3875897556096306,0.9766128204991811,0.4883179207707265,-0.004194112397701666,0.015912849640475984,0.21235602376790783
6292,10.0,299.89555,-5877.4901,0.0,0.06292002322632029,0.0,0.0,0.0,0.0,0.38047286929224866,0.959609855606119,0.44652751470633456,-0.014348027729290088,0.005422988806432324,0.21536923704778876
6293,10.0,299.9051,-5836.4697,0.0,0.06293001921373942,0.0,0.0,0.0,0.0,0.35611682948349466,0.9520109763486682,0.4660132260544246,-0.01904154810050448,-0.017380735941095085,0.2328793234833998
6294,10.0,299.24492999999995,-5843.0248,0.0,0.06294001520115877,0.0,0.0,0.0,0.0,0.3594173498292307,0.9497770638531982,0.46693922518831354,-0.015103424930591986,-0.0010836403817969789,0.22401736718129278
6295,10.0,299.6255,-5846.3381,0.0,0.06295001118857813,0.0,0.0,0.0,0.0,0.3520786934624617,0.9592214261802842,0.46584068982739657,0.005946491867323055,0.006644214163657884,0.23395395627445778
6296,10.0,300.03846,-5734.9166,0.0,0.06296000717599748,0.0,0.0,0.0,0.0,0.34083771711806365,0.9459216877527021,0.45651204066173057,0.007748488370491262,0.005369793074857314,0.2301929846857788
6297,10.0,300.38454,-5726.2851,0.0,0.06297000316341683,0.0,0.0,0.0,0.0,0.3532635982619027,0.9493137349799711,0.4380703416866766,0.012691618141565187,-0.003288167712441887,0.23606205350501078
6298,10.0,299.96376000000004,-5916.5959,0.0,0.06297999915083596,0.0,0.0,0.0,0.0,0.38608123899325164,0.9550036409165211,0.4574125362906026,0.007157930140507703,0.0013054317094360788,0.2293341640335198
6299,10.0,300.36709,-5945.2194,0.0,0.06299002812831289,0.0,0.0,0.0,0.0,0.37246705866213664,0.958009964095722,0.47672123284622253,0.006245018144910305,0.0015271809871960286,0.2207705896208608
6300,10.0,300.31372000000005,-5967.5937,0.0,0.06300002411573224,0.0,0.0,0.0,0.0,0.3768635407135356,0.9672657605791981,0.4698701625600745,-0.016005843708153784,-0.013614582591404686,0.21258002296751477
6301,10.0,300.15574,-5954.8249,0.0,0.06301002010315138,0.0,0.0,0.0,0.0,0.3679136849652537,0.9542830883729081,0.48792130428408353,-0.007228776384849683,-0.02869044813252677,0.21827334355690178
6302,10.0,299.93015,-5870.0039,0.0,0.06302001609057073,0.0,0.0,0.0,0.0,0.3676073287975187,0.9532031157538231,0.4635241569187726,-0.0057438624163000844,-0.010222115878594291,0.21134601606822778
6303,10.0,299.91149,-5923.1779,0.0,0.06303001207799008,0.0,0.0,0.0,0.0,0.38118000640453764,0.9535416426122332,0.4657765409635656,0.0024642989197323677,0.012485424785965487,0.2116195226677208
6304,10.0,300.00613,-5960.2686,0.0,0.06304000806540944,0.0,0.0,0.0,0.0,0.39241151899300164,0.9437501002708831,0.4756111970966705,-0.005129632434830306,0.006340766023709884,0.1997885105250908
6305,10.0,299.89106,-5866.3178,0.0,0.06305000405282879,0.0,0.0,0.0,0.0,0.36241601283767566,0.9623262170042032,0.4584718994026536,-0.00993695426850103,-0.0005130537773794653,0.2216708116722058
6306,10.0,299.94397000000004,-5793.3271,0.0,0.06306000004024792,0.0,0.0,0.0,0.0,0.36610038271879464,0.9356611423375651,0.45926523370094957,0.012967075247500688,-0.0027727578853998978,0.2162108932433538
6307,10.0,300.20889,-5836.5993,0.0,0.06307002901772485,0.0,0.0,0.0,0.0,0.34675948507499665,0.9514127737546302,0.4760081986183516,0.00966030345262272,0.004212151998507036,0.23337664689748178
6308,10.0,299.39454,-5902.1518,0.0,0.06308002500514398,0.0,0.0,0.0,0.0,0.37746813691570463,0.9581390825559651,0.4584995509978826,-0.004597234152636686,-0.011849217207176688,0.2246730007909988
6309,10.0,298.69732,-5951.6057,0.0,0.06309002099256333,0.0,0.0,0.0,0.0,0.39008059793295763,0.9655580997881651,0.45350082348454657,-0.014769791056914887,-0.01008454215024182,0.23040595972429778
6310,10.0,298.99313,-5949.2189,0.0,0.06310001697998269,0.0,0.0,0.0,0.0,0.39024027601621664,0.957182797376587,0.4609908999462596,0.005705633401952175,0.01006701180893671,0.2224035434820208
6311,10.0,299.49014,-5884.1481,0.0,0.06311001296740204,0.0,0.0,0.0,0.0,0.35390975798317365,0.962979611331188,0.47174473604008055,0.011389605948566589,0.007689489248968503,0.2175470256202198
6312,10.0,299.43102000000005,-5862.5298,0.0,0.0631200089548214,0.0,0.0,0.0,0.0,0.3475864592766127,0.9577353733186221,0.4767408392356576,0.011661710209921189,-0.007839007169499774,0.21387925277573877
6313,10.0,300.28771,-5936.7723,0.0,0.06313000494224053,0.0,0.0,0.0,0.0,0.34580434486823164,0.9764328470164191,0.4823933359785155,-0.0003541632022306867,-0.024289412535178377,0.2305046097540338
6314,10.0,300.18422000000004,-5897.0493,0.0,0.06314000092965988,0.0,0.0,0.0,0.0,0.36894338011437666,0.9534635210295231,0.4701488468675785,0.012172378127820188,-0.007389358793822932,0.2192108025494218
6315,10.0,300.19074,-5687.5092,0.0,0.0631500299071368,0.0,0.0,0.0,0.0,0.3651357078285887,0.9270446053421791,0.4366804563920056,-0.003559227718243427,0.0025742175064804875,0.22387584653982576
6316,10.0,300.32117,-5821.7993,0.0,0.06316002589455594,0.0,0.0,0.0,0.0,0.36941818911123664,0.9593736264778051,0.4408898114149366,-0.006374099013574594,0.004877376527034585,0.23362086043658375
6317,10.0,300.1867,-6022.6083,0.0,0.06317002188197529,0.0,0.0,0.0,0.0,0.39270442933190963,0.9549661101328172,0.48305198907351954,-0.017779096231160182,-0.002881989691230237,0.2255079087408978
6318,10.0,299.21664,-6058.6449,0.0,0.06318001786939487,0.0,0.0,0.0,0.0,0.37915476263466164,0.967377420740218,0.4951445919944666,-0.002129346909000178,0.023643495993931375,0.21887301536358478
6319,10.0,299.64558,-5902.7016,0.0,0.063190013856814,0.0,0.0,0.0,0.0,0.35838249723709864,0.9499571487934712,0.48593427017547847,0.009538162029918302,0.005104726240747255,0.2105308867602808
6320,10.0,299.7967,-5901.749,0.0,0.06320000984423335,0.0,0.0,0.0,0.0,0.3809141903733036,0.947813496616909,0.46525665246975656,0.015709052621362785,-0.024443321172367975,0.19935804135260682
6321,10.0,299.67924,-6030.2598,0.0,0.06321000583165248,0.0,0.0,0.0,0.0,0.4017233482070076,0.9662286281743411,0.46509643736394457,0.0034421400830627774,-0.03012643529349767,0.2154533368060888
6322,10.0,300.27526,-6049.0783,0.0,0.06322000181907184,0.0,0.0,0.0,0.0,0.3955172014770086,0.966436415372348,0.47681514086549054,0.00973694731138688,-0.008137067048065992,0.2062905161517888
6323,10.0,300.66667,-5938.9743,0.0,0.06323003079654876,0.0,0.0,0.0,0.0,0.3751493951218626,0.9586399827429001,0.4715105030144635,-0.0018541155551869582,0.011821391332930488,0.21647189633661282
6324,10.0,300.60803,-5727.633000000001,0.0,0.0632400267839679,0.0,0.0,0.0,0.0,0.3318642931724557,0.9493889687998961,0.4598041510316366,-0.017259124650842984,0.008624284204325582,0.21417862765028478
6325,10.0,300.69886,-5735.5947,0.0,0.06325002277138725,0.0,0.0,0.0,0.0,0.3227397125769297,0.9560774225774951,0.4646604358459146,-0.01837861098407768,-0.003655974053691546,0.24161251596279876
6326,10.0,300.00366,-5925.2444,0.0,0.06326001875880682,0.0,0.0,0.0,0.0,0.3880726807397917,0.9584628463604181,0.4545908070146196,-0.011674073887641388,0.010738063842764389,0.22894747739785679
6327,10.0,299.66819,-6023.1663,0.0,0.06327001474622596,0.0,0.0,0.0,0.0,0.4018933209112826,0.959959457288122,0.46903937853808253,0.006168501753008724,0.01014669866040119,0.23103980845685376
6328,10.0,299.47021,-5871.7751,0.0,0.06328001073364531,0.0,0.0,0.0,0.0,0.3787512661798397,0.9548149433503981,0.4513067925130126,0.0097184171962081,-0.006019994448127193,0.2345786350936088
6329,10.0,299.64875,-5776.0825,0.0,0.06329000672106444,0.0,0.0,0.0,0.0,0.3548520704436727,0.948025286152811,0.45290749462348956,0.01867946925677008,-0.004242049361257676,0.23114381857961877
6330,10.0,299.91416,-5945.9529,0.0,0.0633000027084838,0.0,0.0,0.0,0.0,0.35859134834771067,0.966487381852378,0.4823424910884975,0.013087538525389488,0.004602615321267766,0.22756433021635078
6331,10.0,299.65729,-6082.3252,0.0,0.06330999869590337,0.0,0.0,0.0,0.0,0.3755502976564286,0.976565268671988,0.4967594289438385,0.002224891935129738,0.0018502078548512982,0.1973957406789428
6332,10.0,299.96867000000003,-6002.3948,0.0,0.06332002767337985,0.0,0.0,0.0,0.0,0.39855469222928563,0.9685732382432362,0.4574502089293206,-0.001056071062476099,-0.0098266860091434,0.21223719992868081
6333,10.0,299.82384,-5912.0795,0.0,0.0633300236607992,0.0,0.0,0.0,0.0,0.3722432925100526,0.957400767738099,0.46748047299423057,-0.0037491935695165967,-0.014414671214867286,0.20620914203625781
6334,10.0,299.69043,-5920.9614,0.0,0.06334001964821856,0.0,0.0,0.0,0.0,0.38525550095675765,0.9620403588859912,0.45252854921859054,-0.0023013772202532478,0.0017799495995423483,0.23242224636328976
6335,10.0,299.79418,-5996.206,0.0,0.06335001563563791,0.0,0.0,0.0,0.0,0.36865674179358765,0.9590047933089041,0.49503537376618756,0.0025297481887417072,0.016953505115930686,0.2102865009686618
6336,10.0,299.73186,-6009.9957,0.0,0.06336001162305727,0.0,0.0,0.0,0.0,0.3778311641615326,0.9607706653181821,0.48828677346265253,-0.0007961507586714623,0.007358831290835104,0.22525639980107576
6337,10.0,299.54554,-5844.4608,0.0,0.0633700076104764,0.0,0.0,0.0,0.0,0.35821283864035464,0.9534084711515902,0.46494881695687557,-0.006450751383639593,0.0026145198331830174,0.2235362152388068
6338,10.0,299.79176,-5648.0412,0.0,0.06338000359789575,0.0,0.0,0.0,0.0,0.37231664168479167,0.9224887491825511,0.4220580922113906,0.0016195050939077082,0.007274407191178093,0.22162899484057877
6339,10.0,299.7113,-5852.0513,0.0,0.0633899995853151,0.0,0.0,0.0,0.0,0.36687737329297765,0.954665539623153,0.45733456669540756,-9.002513748028933e-05,0.008281237541194511,0.22456296183013877
6340,10.0,300.03399,-6094.0861,0.0,0.06340002856279181,0.0,0.0,0.0,0.0,0.41841617750946164,0.9550511522137102,0.47898268547941053,-0.0018681965905016481,-0.02079314746887388,0.21272250619657682
6341,10.0,300.44012999999995,-6032.7144,0.0,0.06341002455021116,0.0,0.0,0.0,0.0,0.3639940890734197,0.982369438822315,0.4874310026931945,-0.004077703032137957,-0.016625996339108086,0.23219478184834078
6342,10.0,300.19648,-5796.1464,0.0,0.06342002053763052,0.0,0.0,0.0,0.0,0.3321714802052727,0.964393257340704,0.4653190484109146,0.008035617914928742,0.002305189371104478,0.21477559407920077
6343,10.0,300.08531,-5812.8588,0.0,0.06343001652504987,0.0,0.0,0.0,0.0,0.34045833601562164,0.958066625041314,0.4684389771913276,0.006385264016426495,0.02164550662524518,0.21270246410959878
6344,10.0,300.34909,-5980.0872,0.0,0.06344001251246922,0.0,0.0,0.0,0.0,0.3927785688417266,0.9646376026023191,0.46038101457856856,0.0029019764547527777,0.009071402291852701,0.21006945266474078
6345,10.0,300.01388,-6001.4562,0.0,0.06345000849988836,0.0,0.0,0.0,0.0,0.38320010286390566,0.9683458851857981,0.47274684038898057,-0.005565185893666084,-0.00950514405950968,0.2221450431165088
6346,10.0,299.61373,-5790.0347,0.0,0.06346000448730771,0.0,0.0,0.0,0.0,0.36464587233274565,0.9498488323577812,0.4455312669430126,0.002966692232014727,-0.0030616297133843275,0.23021552950050378
6347,10.0,299.67273,-5562.5092,0.0,0.06347000047472706,0.0,0.0,0.0,0.0,0.3134463346472447,0.9276881812756952,0.4497293951548355,0.004804361826153595,-0.005631530065163744,0.23366669987110777
6348,10.0,299.95974,-5830.3496,0.0,0.06348002945220399,0.0,0.0,0.0,0.0,0.34143714574472267,0.9596068766508251,0.4712366620424376,0.011010823676933689,-0.007334379032796853,0.23488306608615378
6349,10.0,300.04438999999996,-6171.2297,0.0,0.06349002543962312,0.0,0.0,0.0,0.0,0.40936140984582564,0.981339034398122,0.48519928895044157,-0.010633212722416388,-0.002756290747424717,0.21892942299665177
6350,10.0,300.34341,-6154.1434,0.0,0.06350002142704247,0.0,0.0,0.0,0.0,0.4100339343346986,0.984293621027217,0.4763783591448836,0.01117071859571409,0.015318079937776787,0.21817907076759777
6351,10.0,300.08067,-5866.9057,0.0,0.0635100174144616,0.0,0.0,0.0,0.0,0.3735294615244877,0.9494319103391341,0.46043148456604954,0.0003542719239664167,0.023673949225686875,0.20534914601388282
6352,10.0,300.77312,-5863.4795,0.0,0.06352001340188118,0.0,0.0,0.0,0.0,0.37815696459868664,0.952819357410949,0.45137504503974857,0.010188966388322689,-0.0057896844229223645,0.2100663115894308
6353,10.0,300.28244,-6126.8735,0.0,0.06353000938930031,0.0,0.0,0.0,0.0,0.36864274880970666,0.971100132005121,0.5226736751538755,-0.0024444360766970575,-0.02584469773642308,0.22358720198383877
6354,10.0,299.80185,-6130.8407,0.0,0.06354000537671967,0.0,0.0,0.0,0.0,0.37587984711895267,0.9862226870976011,0.5015199717561675,0.009926416974086081,-0.008616505584632892,0.2158121995940058
6355,10.0,299.72709,-5806.8859999999995,0.0,0.06355000136413902,0.0,0.0,0.0,0.0,0.35196718528895665,0.9579590077481931,0.4552221530194286,-0.0026066020942515974,0.006668501971204903,0.22807770351201678
6356,10.0,299.78267,-5617.4077,0.0,0.06356003034161595,0.0,0.0,0.0,0.0,0.3523616334203856,0.922638264367307,0.4325517864745376,-0.01189415586236179,-0.013056693165845288,0.22009422491410877
6357,10.0,299.29164,-5851.3266,0.0,0.06357002632903508,0.0,0.0,0.0,0.0,0.3645621474769827,0.9690774010954931,0.44501760993731854,-0.02109692390185428,-0.007558874015677783,0.2442096887516198
6358,10.0,300.00635,-6118.9322,0.0,0.06358002231645443,0.0,0.0,0.0,0.0,0.40186492964348064,0.9708765989005601,0.48726108065142454,-0.003258741713637767,0.013529914399798589,0.2211971476479588
6359,10.0,300.07639,-6118.3107,0.0,0.06359001830387356,0.0,0.0,0.0,0.0,0.35589160425126665,0.991392907190362,0.5125291671401906,0.001170528503047169,0.016514142647318982,0.2349266257079528
6360,10.0,300.27486,-5838.6941,0.0,0.06360001429129314,0.0,0.0,0.0,0.0,0.35470031597619567,0.954905973739382,0.46521091436024253,0.00945839705687111,-0.00023186210144300775,0.22403150202018776
6361,10.0,300.32967,-5884.144,0.0,0.06361001027871249,0.0,0.0,0.0,0.0,0.36760943635772664,0.9510647122127791,0.46995869022131154,0.011618729153929289,-0.008035806480772352,0.22258147019958077
6362,10.0,300.08677,-6171.295999999999,0.0,0.06362000626613162,0.0,0.0,0.0,0.0,0.4107127004441876,0.9954006558408961,0.46980652032129355,0.0012356876785528789,-0.0028531150018055273,0.2238096610432938
6363,10.0,300.08007000000003,-6071.4787,0.0,0.06363000225355098,0.0,0.0,0.0,0.0,0.3856663333423036,0.978901914595097,0.4810096720394585,0.002118449505499688,-0.004519668236281526,0.21190157096555678
6364,10.0,299.90803999999997,-5839.1332,0.0,0.06363999824097011,0.0,0.0,0.0,0.0,0.36389607739124663,0.9565278122469452,0.45452680000580253,-0.009274848726431303,-0.006346360886787054,0.2266002430112028
6365,10.0,300.13125,-5730.968000000001,0.0,0.06365002721844704,0.0,0.0,0.0,0.0,0.3131169473047367,0.966435037352212,0.46251918507208956,-0.0014812041559584686,-0.009504043365926052,0.23983652158502175
6366,10.0,300.24891,-5811.3112,0.0,0.06366002320586639,0.0,0.0,0.0,0.0,0.3594868385210887,0.950527507274761,0.45647917082848655,0.0044155668196825155,0.007290746355665643,0.2362807939365988
6367,10.0,299.87685,-5975.8177,0.0,0.06367001919328552,0.0,0.0,0.0,0.0,0.37594474578785764,0.9690671774019841,0.47148743130968657,-0.007599431478755493,0.024908816374308775,0.2224102714626848
6368,10.0,299.78553999999997,-6020.6798,0.0,0.06368001518070487,0.0,0.0,0.0,0.0,0.41299403304433757,0.9559817413705521,0.4611605585430036,0.001074018356197359,0.012594574113237687,0.22597362888436076
6369,10.0,299.43652000000003,-5926.5193,0.0,0.06369001116812445,0.0,0.0,0.0,0.0,0.38945631428134564,0.9418119048170981,0.4702456629146335,-0.003975496899850997,0.0021307946407430577,0.2120033316730998
6370,10.0,299.39144,-5874.9522,0.0,0.06370000715554358,0.0,0.0,0.0,0.0,0.3713168982086247,0.9451342303049861,0.46938763259745253,0.001085950794674999,0.012753285555901288,0.21181368165188277
6371,10.0,299.58357,-6149.0956,0.0,0.06371000314296293,0.0,0.0,0.0,0.0,0.35832946372686464,0.985798135305701,0.5250439204503005,-0.0005070334303203035,-0.0008853535585825931,0.2096206234004448
6372,10.0,300.32084,-6295.3594,0.0,0.06371999913038207,0.0,0.0,0.0,0.0,0.4152902198909536,0.986020259992623,0.5123215825922035,-0.010525824423817989,-0.006307331506185154,0.2026129249138388
6373,10.0,299.6228,-6035.4313,0.0,0.063730028107859,0.0,0.0,0.0,0.0,0.3752946951862026,1.001638172793991,0.45768754250024357,-0.0026109463027303376,-0.01097707028960249,0.22950640641801878
6374,10.0,299.95062,-5658.5548,0.0,0.06374002409527835,0.0,0.0,0.0,0.0,0.36775111911920966,0.9360472412881702,0.41626100467926264,0.007388901716702823,0.008046478841425633,0.2224231093414518
6375,10.0,300.56989,-5643.3221,0.0,0.06375002008269748,0.0,0.0,0.0,0.0,0.3456477875952807,0.9461937656695542,0.42358745138232656,0.0028740111572928173,0.006555227804100613,0.24399467708039976
6376,10.0,300.69903999999997,-5814.7119,0.0,0.06376001607011683,0.0,0.0,0.0,0.0,0.34354417906267065,0.9623053440521432,0.46167770112904155,-0.007263526911604294,0.0006714218802466803,0.23164651221923077
6377,10.0,299.55427000000003,-5912.8597,0.0,0.06377001205753619,0.0,0.0,0.0,0.0,0.3313195192561907,0.9767798953081701,0.4892622799964275,-0.004776198336974075,0.002253149149943508,0.24977723460609375
6378,10.0,299.89428,-5764.7557,0.0,0.06378000804495554,0.0,0.0,0.0,0.0,0.3565904732427397,0.9584283654595152,0.4373229481479146,-0.002170124146024578,0.01856491424021438,0.23002900028959478
6379,10.0,299.89047,-5751.6655,0.0,0.06379000403237489,0.0,0.0,0.0,0.0,0.34810706717799267,0.9515717222978172,0.4486839237016556,0.007079554839972664,0.007161213780106774,0.2277565336278198
6380,10.0,299.68923,-6094.3152,0.0,0.06380000001979402,0.0,0.0,0.0,0.0,0.40900810980095764,0.968526274101101,0.4749852821123976,-0.008350917939971432,-0.004150551863977576,0.2120843916810998
6381,10.0,300.0774,-6288.0231,0.0,0.06381002899727095,0.0,0.0,0.0,0.0,0.41987282585322155,1.000969691173017,0.4905595035694535,-0.0048351305839902355,-0.012558936080720489,0.21777807704052277
6382,10.0,299.71387000000004,-6085.9332,0.0,0.0638200249846903,0.0,0.0,0.0,0.0,0.37651555009919163,0.9791526838623461,0.4943034829539555,0.012284789107164289,-0.0004346974144887946,0.22362906947797076
6383,10.0,299.3169,-5715.5302,0.0,0.06383002097210944,0.0,0.0,0.0,0.0,0.3240545869666977,0.955813886358986,0.4575100008177216,0.00918181747247483,0.0055371060989448245,0.21964937772270576
6384,10.0,299.6669,-5708.2269,0.0,0.06384001695952901,0.0,0.0,0.0,0.0,0.34672887478947567,0.9465290298626422,0.4419005385221875,0.005366039185886835,-0.0030030657827795175,0.22320721293133677
6385,10.0,300.18526,-6033.9747,0.0,0.06385001294694814,0.0,0.0,0.0,0.0,0.3923648486933956,0.965349664110094,0.4764631175157485,-0.007827858175999451,-0.01020727176462929,0.2202653527234978
6386,10.0,300.31038,-6086.6068,0.0,0.0638600089343675,0.0,0.0,0.0,0.0,0.41865792885082054,0.9659850023202972,0.46553353319208257,0.005097196981904174,0.013755661455828088,0.21653178955002378
6387,10.0,300.86337000000003,-5787.3689,0.0,0.06387000492178685,0.0,0.0,0.0,0.0,0.35047213476640665,0.950960560235,0.4577829399971586,-0.002514658260302448,0.0004912110031187515,0.22679045031997477
6388,10.0,299.96572000000003,-5857.9335,0.0,0.06388000090920598,0.0,0.0,0.0,0.0,0.34941348092942565,0.9584697871236031,0.4727822332149736,-0.001201650074568629,-0.0057054426069583445,0.22593367643291778
6389,10.0,300.20687000000004,-6200.2703,0.0,0.06389002988668291,0.0,0.0,0.0,0.0,0.38112172425878565,1.002686643467467,0.5009189725918536,-0.010035124422989672,-0.017214587242697484,0.2340807138619678
6390,10.0,300.22307,-6317.8601,0.0,0.06390002587410226,0.0,0.0,0.0,0.0,0.42983894105430054,0.9901559416007831,0.5004768409107185,-0.0015486599641408385,0.014321527186174686,0.20983613156421382
6391,10.0,300.35754,-6019.4324,0.0,0.06391002186152162,0.0,0.0,0.0,0.0,0.38068147722283663,0.981673741303655,0.46740193597897955,0.006534888733518304,0.004616010994214816,0.2338257801368078
6392,10.0,300.51145,-5653.1425,0.0,0.06392001784894097,0.0,0.0,0.0,0.0,0.37157786077187965,0.935941002015185,0.4108952982447086,-0.0018560822736310584,-0.0015390760367449785,0.20270827174824882
6393,10.0,300.45225,-5693.2617,0.0,0.0639300138363601,0.0,0.0,0.0,0.0,0.3205827564265547,0.9658923203336501,0.44413430916264357,-0.007796361296640953,-0.005752555798183055,0.24803879127702275
6394,10.0,299.54217,-6045.6692,0.0,0.06394000982377945,0.0,0.0,0.0,0.0,0.37295683336297364,0.988019949594977,0.4767557036146245,0.003301230026106037,-0.0015316912673661587,0.23014884751142278
6395,10.0,300.53387000000004,-6011.7221,0.0,0.0639500058111988,0.0,0.0,0.0,0.0,0.3627731328354207,0.973892669545723,0.49074759318551653,0.008891096361732891,-0.021174138625724783,0.2509351565553718
6396,10.0,300.18307999999996,-5711.7042,0.0,0.06396000179861794,0.0,0.0,0.0,0.0,0.35205221723734864,0.949389059992405,0.4347741884488716,0.0012660837630027388,-0.011189350238552888,0.23573918136064578
6397,10.0,299.22675,-5731.6343,0.0,0.06397003077609464,0.0,0.0,0.0,0.0,0.35151663349949064,0.9528003387065722,0.43795673608546465,0.008050492730371773,-0.013037628865213787,0.23447083541546979
6398,10.0,299.55885,-6108.2812,0.0,0.06398002676351422,0.0,0.0,0.0,0.0,0.4145097741339296,0.9667429032625962,0.47551230388691057,0.007674643209828312,0.013893536423435287,0.2033564174397158
6399,10.0,299.8476,-6307.7782,0.0,0.06399002275093357,0.0,0.0,0.0,0.0,0.3937621104487946,0.993169803360728,0.5304751335038196,0.0015354809240651687,0.01161510982457209,0.21507141244589578
6400,10.0,299.7283,-6152.0639,0.0,0.06400001873835293,0.0,0.0,0.0,0.0,0.38479352983866466,0.9795214562362411,0.5057588326220105,0.0012048800119123988,0.01016089024130179,0.2145333462452928
6401,10.0,300.7804,-5848.5074,0.0,0.06401001472577206,0.0,0.0,0.0,0.0,0.36285342277334465,0.9511941245155512,0.4637526549488236,0.0048164872887752844,-0.010739725572928389,0.22363848257139976
6402,10.0,300.38251,-5944.9869,0.0,0.06402001071319119,0.0,0.0,0.0,0.0,0.39033043501011466,0.957581754470961,0.45921537166352855,0.0013382240290474288,0.012377111390025789,0.2281916434857618
6403,10.0,299.7719,-6158.4171,0.0,0.06403000670061076,0.0,0.0,0.0,0.0,0.41515970314557266,0.975684896190102,0.4811604335218375,0.006325318316660313,-0.0003553848272137517,0.21220832230083078
6404,10.0,299.64853,-6044.1764,0.0,0.06404000268803012,0.0,0.0,0.0,0.0,0.4051243120351566,0.9558051926731281,0.47634921807200753,-0.010912696484249291,0.0017781479395395385,0.2042281367657478
6405,10.0,299.27927,-5911.0493,0.0,0.06404999867544947,0.0,0.0,0.0,0.0,0.32718083842773465,0.9758291120768351,0.49380143779440755,0.005067563874779616,0.0001090345665658739,0.23129042573658778
6406,10.0,299.31341000000003,-5796.7167,0.0,0.06406002765292595,0.0,0.0,0.0,0.0,0.3368239092319317,0.9586788611492372,0.46655437253533155,-0.01203520534253229,0.007545396269472633,0.23598405351231277
6407,10.0,299.60035,-6001.693,0.0,0.06407002364034553,0.0,0.0,0.0,0.0,0.35848216051693466,0.9799115271272382,0.4859711119491146,0.004756552734760206,0.0015761283637517585,0.23354859543945178
6408,10.0,299.72101000000004,-6201.7447,0.0,0.06408001962776488,0.0,0.0,0.0,0.0,0.4087130108418336,0.9898346602590751,0.48662787026643156,-0.009235800195402512,-0.013117340237330686,0.23473658051919677
6409,10.0,300.12467999999996,-5935.2434,0.0,0.06409001561518402,0.0,0.0,0.0,0.0,0.38490784471494666,0.9671272188930252,0.45213071683182754,0.010224741209603391,-0.012876081335520288,0.22950319441520178
6410,10.0,300.21245,-5631.9679,0.0,0.06410001160260315,0.0,0.0,0.0,0.0,0.34774228700949167,0.9333400599359921,0.4308952644160516,0.005742299984645884,0.0031237497465400966,0.21339964097340478
6411,10.0,300.48939,-5791.0342,0.0,0.0641100075900225,0.0,0.0,0.0,0.0,0.3176694901365377,0.967093406737188,0.47556689780229855,0.0053264792675325745,0.008413572563879961,0.2305508950186018
6412,10.0,300.90011,-6079.5935,0.0,0.06412000357744208,0.0,0.0,0.0,0.0,0.3720799363289306,0.97245321605616,0.5035114742977135,-0.017579284324690286,0.001064033181761899,0.22349388164962877
6413,10.0,299.88532999999995,-6216.8363,0.0,0.06412999956486143,0.0,0.0,0.0,0.0,0.38609568793967763,1.0050406058347852,0.4986267070231245,-0.006158519618323564,0.0014532294352725785,0.24128560095053478
6414,10.0,299.40532,-6018.7319,0.0,0.06414002854233813,0.0,0.0,0.0,0.0,0.3890920812678986,0.986423320749902,0.45402880784665456,-0.0034099812474139464,0.014520664268077984,0.23689695132240876
6415,10.0,299.72557,-5779.9388,0.0,0.06415002452975727,0.0,0.0,0.0,0.0,0.37556619555049764,0.9428089631805001,0.4385819012646636,0.003820360507515226,0.009150229907232382,0.22814473000613175
6416,10.0,300.23026,-5934.8915,0.0,0.06416002051717684,0.0,0.0,0.0,0.0,0.3772318875223886,0.9615435116994561,0.4652834225373985,-0.01146185676019719,0.0005735762292350665,0.2170819134268168
6417,10.0,299.4398,-6192.2307,0.0,0.06417001650459597,0.0,0.0,0.0,0.0,0.3839343748138726,0.9728339751787382,0.5255151628068085,-0.004060564514646516,-0.019724586072415083,0.21039021724889778
6418,10.0,300.30713,-6070.7803,0.0,0.0641800124920151,0.0,0.0,0.0,0.0,0.38204716610511963,0.969250869512613,0.49406757806567353,0.0038097229013403762,-0.006396525480687914,0.2036078554520308
6419,10.0,300.23201,-5779.5438,0.0,0.06419000847943446,0.0,0.0,0.0,0.0,0.34306787045566267,0.9485738293594481,0.4651953001762016,0.014061229314985286,-0.004754534847186055,0.2181654830837568
6420,10.0,300.33122000000003,-5963.3107,0.0,0.06420000446685403,0.0,0.0,0.0,0.0,0.4043432785930746,0.9524161750636582,0.45593811554008856,0.008175859632119522,-0.01013159069611015,0.2173245158982598
6421,10.0,300.88633,-6296.2361,0.0,0.06421000045427339,0.0,0.0,0.0,0.0,0.4382797906148476,0.980709846616026,0.4949089302862085,-0.004482824233495305,-0.007025348492747914,0.2173514379534168
6422,10.0,301.10106,-6198.3695,0.0,0.06422002943175009,0.0,0.0,0.0,0.0,0.39734191291959364,0.9873813588519531,0.4994262829420365,0.001165756095076169,0.01155182931607679,0.2217898989564588
6423,10.0,300.12613999999996,-5895.9361,0.0,0.06423002541916922,0.0,0.0,0.0,0.0,0.32647356959293267,0.973180253400413,0.4925635501472375,-0.0044324148383702855,0.015745169921177284,0.2206633978927818
6424,10.0,300.6505,-5720.4831,0.0,0.0642400214065888,0.0,0.0,0.0,0.0,0.3299600314645197,0.957806432548135,0.45111756805683756,-0.007328137513505863,-0.0018136440157177284,0.23441086114205079
6425,10.0,300.45336000000003,-5853.7168,0.0,0.06425001739400793,0.0,0.0,0.0,0.0,0.34504509630329966,0.9800147570474261,0.45432387640827554,-0.01190655095083509,-0.01068219221900029,0.2463091024288158
6426,10.0,300.06557000000004,-6056.0849,0.0,0.06426001338142706,0.0,0.0,0.0,0.0,0.4038689964862666,0.9817035409890961,0.45532606181718355,0.0026295082339622576,0.005744087965772344,0.24226326570702275
6427,10.0,300.33646,-5952.98,0.0,0.06427000936884664,0.0,0.0,0.0,0.0,0.3836580209815986,0.9765865469240881,0.44931271631621256,-0.011620916760895189,0.0074017506398959135,0.24031512013725578
6428,10.0,299.8594,-5775.7789,0.0,0.06428000535626577,0.0,0.0,0.0,0.0,0.3360376575518347,0.9566734872138221,0.4629814095027076,0.007820057568779593,-0.013675953123461487,0.24077255189490077
6429,10.0,299.82735,-5874.7087,0.0,0.06429000134368534,0.0,0.0,0.0,0.0,0.3444436614414427,0.9606344237097362,0.4806866479075785,0.0005220008162924695,-0.0023196869535352777,0.2298094999204318
6430,10.0,300.22187,-6181.3773,0.0,0.06430003032116205,0.0,0.0,0.0,0.0,0.39544625370500663,0.992294436334336,0.4912436703019756,0.009537457415798761,0.0028997716225351773,0.22063920148039382
6431,10.0,300.46103999999997,-6238.4709,0.0,0.06431002630858118,0.0,0.0,0.0,0.0,0.3989038987437496,0.9952019574962859,0.5022335227415896,0.0038301032112017562,0.01121045015863529,0.21481609368569782
6432,10.0,300.00195,-5933.9587,0.0,0.06432002229600053,0.0,0.0,0.0,0.0,0.3998999235920496,0.962871163172985,0.4410041972187255,0.0010092617550888799,-0.013625368638719186,0.22736177138885977
6433,10.0,300.12054,-5760.5875,0.0,0.06433001828341989,0.0,0.0,0.0,0.0,0.36276606034972264,0.9446811149927671,0.44362758278763353,-0.006277415296982654,-0.014690215460311384,0.2159424123643568
6434,10.0,299.61933,-5971.8188,0.0,0.06434001427083924,0.0,0.0,0.0,0.0,0.37249682795007466,0.9670653802394221,0.47572161096006754,-0.0017230942112561583,-0.006862574525133373,0.2251246570230738
6435,10.0,299.44259,-6134.9842,0.0,0.0643500102582586,0.0,0.0,0.0,0.0,0.37153046093220166,0.9794260182093221,0.5139255169704995,-0.002114851758369618,0.014165559624781887,0.20155476756940682
6436,10.0,299.68217000000004,-6085.2173,0.0,0.06436000624567773,0.0,0.0,0.0,0.0,0.38083993940597566,0.9862152093118631,0.48269895247367756,-0.003872098070871326,-0.007526440994551894,0.2202004641870938
6437,10.0,299.91884,-5875.3641,0.0,0.06437000223309708,0.0,0.0,0.0,0.0,0.3665628097994326,0.955048639353462,0.46435251927302557,-0.01067845028638099,0.006595907465140384,0.22732282205501578
6438,10.0,299.49877000000004,-5869.4554,0.0,0.064380031210574,0.0,0.0,0.0,0.0,0.4097042227521586,0.946068163187158,0.42839547509434156,0.005226961287760915,0.0037209247023266764,0.23208287850729675
6439,10.0,299.93324,-6144.4472,0.0,0.06439002719799314,0.0,0.0,0.0,0.0,0.40292574170317463,0.981321647026406,0.48351114335633455,0.002830749025723177,0.015982442697094285,0.2291477969426268
6440,10.0,300.04304,-6226.7908,0.0,0.06440002318541249,0.0,0.0,0.0,0.0,0.3927944768682966,0.9939169030569611,0.5060775403084645,-0.006604356755074264,-0.0014325234668290585,0.22689991172827778
6441,10.0,300.48336,-5979.0702,0.0,0.06441001917283184,0.0,0.0,0.0,0.0,0.3543458810912157,0.977283095572832,0.4858590667530565,0.0002844922368121977,-0.003554891210465447,0.22659196475788576
6442,10.0,300.45585,-5725.5492,0.0,0.0644200151602512,0.0,0.0,0.0,0.0,0.3381545193957527,0.951564082392063,0.4507053677836566,-0.004521921501853906,-0.005006216850125135,0.2301681397933268
6443,10.0,300.24501000000004,-5799.9502,0.0,0.06443001114767055,0.0,0.0,0.0,0.0,0.34950396416335566,0.973314245593637,0.44022183641901264,0.007482327631573243,0.008455197688588044,0.23786507126295478
6444,10.0,299.52394,-6032.9598,0.0,0.06444000713508968,0.0,0.0,0.0,0.0,0.40627327685355064,0.9792136511208631,0.4483822183518796,-0.0015064671154017288,-0.01309690703581409,0.23533308085306678
6445,10.0,299.95419,-6020.5771,0.0,0.06445000312250904,0.0,0.0,0.0,0.0,0.36300042509785263,0.9882831717059551,0.47882149765350257,-0.004140973104157226,0.0006673630131286013,0.23395540522210076
6446,10.0,299.45767,-5824.9811,0.0,0.06445999910992839,0.0,0.0,0.0,0.0,0.34545531060628465,0.956886381192333,0.46830712295581456,0.007232116969104373,-0.005345798907189276,0.2343890559998988
6447,10.0,299.27041,-5737.5181,0.0,0.0644700280874051,0.0,0.0,0.0,0.0,0.32412281922843167,0.9439437019674902,0.4759957052446186,0.0014394649392891288,0.02118727541327128,0.2146065535650178
6448,10.0,299.24003,-6004.4686,0.0,0.06448002407482445,0.0,0.0,0.0,0.0,0.3749668378513456,0.9720135567052691,0.47822812826244154,-0.012470114576954487,-0.00019237913943384282,0.2295310689254528
6449,10.0,299.18187,-6292.2529,0.0,0.06449002006224358,0.0,0.0,0.0,0.0,0.4236306563665906,0.9881133307241932,0.5009437870868025,-0.013474060001286188,0.006925599187978425,0.2187410598030618
6450,10.0,299.45217,-6123.5171,0.0,0.06450001604966316,0.0,0.0,0.0,0.0,0.42863424748040657,0.9644750266237742,0.46828700994132955,-0.004541856589621346,0.005513835898473235,0.2122304516830148
6451,10.0,300.1559,-5928.105,0.0,0.06451001203708251,0.0,0.0,0.0,0.0,0.36435291133133263,0.9679680340910071,0.4696749295308066,0.017893315861932782,0.014816895027563686,0.22739595844723376
6452,10.0,300.15397,-5999.472,0.0,0.06452000802450164,0.0,0.0,0.0,0.0,0.36488943739178364,0.9752054161102811,0.48359480741709154,0.02517998135282068,-0.014469140500492986,0.2093259398738618
6453,10.0,300.08542,-6176.0044,0.0,0.064530004011921,0.0,0.0,0.0,0.0,0.38145746467942065,0.9959188724720401,0.49997477548616853,0.003178722110840447,-0.015429216248495088,0.2193276404184528
6454,10.0,300.18352000000004,-6180.4073,0.0,0.06453999999934035,0.0,0.0,0.0,0.0,0.4009199624677196,0.981240293175877,0.4965292489186215,0.0051065848454056855,-0.025217918449814775,0.2189334455995488
6455,10.0,299.93725,-5988.2753,0.0,0.06455002897681705,0.0,0.0,0.0,0.0,0.3899074436233686,0.9710965754972701,0.4592821245801166,-0.009032680635306172,0.013317715510856188,0.2359507378490248
6456,10.0,300.0009,-5945.3794,0.0,0.0645600249642364,0.0,0.0,0.0,0.0,0.37367916922676264,0.9802664382397651,0.4533012740098526,-0.005533080456297525,0.010176687823610892,0.2375869949055108
6457,10.0,300.43946,-5999.491999999999,0.0,0.06457002095165576,0.0,0.0,0.0,0.0,0.35571702125903665,0.9851306264048232,0.48284812315339953,-0.016335747808212786,0.009504919219312492,0.24889117779114678
6458,10.0,299.99947000000003,-6111.7961,0.0,0.06458001693907511,0.0,0.0,0.0,0.0,0.37247408048532965,0.9831953795088291,0.5021639327247215,-0.01030385983041179,0.002187325383697208,0.2286060425116598
6459,10.0,300.09429,-6042.005999999999,0.0,0.06459001292649447,0.0,0.0,0.0,0.0,0.3653852206657136,0.981051484152243,0.49018225029222157,7.193334821526873e-05,0.008689949903556283,0.23175707807014276
6460,10.0,300.23345,-5779.3376,0.0,0.0646000089139136,0.0,0.0,0.0,0.0,0.34414736684720065,0.957840416956489,0.4547865365364365,0.003126246901411547,-0.004764363879781105,0.2317885800157518
6461,10.0,300.05281,-5801.3358,0.0,0.06461000490133295,0.0,0.0,0.0,0.0,0.3689050691280957,0.9642012869767581,0.4303548677402186,-0.0007669057466002043,0.005686561603269934,0.23865954040136278
6462,10.0,299.64802000000003,-6167.4778,0.0,0.06462000088875208,0.0,0.0,0.0,0.0,0.4007032688013336,0.990397145787088,0.4836588245584095,0.007714600727521812,-0.004120435436555316,0.2238036727352028
6463,10.0,299.69563999999997,-6282.2376,0.0,0.06463002986622901,0.0,0.0,0.0,0.0,0.39392303482967667,1.004834622221956,0.5108857160079945,-0.0024749555750090977,0.013052220679903885,0.2277118594309108
6464,10.0,299.38293,-6075.9933,0.0,0.06464002585364836,0.0,0.0,0.0,0.0,0.36374906493423764,0.9863711890322571,0.4968299916808025,0.007591763809948753,-0.0014977034139618188,0.2216814507982558
6465,10.0,299.74482,-5940.8585,0.0,0.06465002184106772,0.0,0.0,0.0,0.0,0.3568202884979207,0.9715987929093352,0.47745356948849854,-0.007010690411501273,-0.002467648116612908,0.22617717056444878
6466,10.0,299.94825,-6095.0071,0.0,0.06466001782848685,0.0,0.0,0.0,0.0,0.4094538081224446,0.9669743802479411,0.47630177770232557,0.005893781279895925,-0.00886910954383796,0.2013265127193798
6467,10.0,299.87852999999996,-6203.6203,0.0,0.06467001381590642,0.0,0.0,0.0,0.0,0.42752746426367555,0.9840722157478661,0.4741459867895656,0.0039032319027189964,0.00996001482752693,0.22395193148983478
6468,10.0,300.50563,-6056.4455,0.0,0.06468000980332556,0.0,0.0,0.0,0.0,0.38439646752197765,0.970774595012993,0.4858371602858945,-0.004237779018711226,0.0012751253989450788,0.20554042736776082
6469,10.0,300.68751000000003,-5825.496999999999,0.0,0.06469000579074491,0.0,0.0,0.0,0.0,0.3376801967589407,0.957457550273703,0.47566787830726454,-0.005104644268814166,-0.0006440836427436064,0.2331777864328558
6470,10.0,300.2004,-5867.5634,0.0,0.06470000177816426,0.0,0.0,0.0,0.0,0.35198971997118067,0.9470232628639191,0.4845797777068005,-0.00040666454337966564,-0.0001284469895342309,0.2075841730844628
6471,10.0,299.92836,-6096.7834,0.0,0.06471003075564097,0.0,0.0,0.0,0.0,0.37994760044040865,0.977736109560041,0.49558619678554955,-0.0019250166163593482,0.008437524073718793,0.22858490611457377
6472,10.0,299.87973,-6189.2179,0.0,0.06472002674306054,0.0,0.0,0.0,0.0,0.4228137944009726,0.9889455636938281,0.4696083286017335,-0.004658977662055296,-0.00870344507766315,0.2174952586726108
6473,10.0,299.77457000000004,-6091.6735,0.0,0.06473002273047967,0.0,0.0,0.0,0.0,0.39684813588086165,0.992755272612317,0.4621132365520255,0.006679500699715395,-0.00932307517554088,0.23675908851380276
6474,10.0,299.8627,-5946.116,0.0,0.0647400187178988,0.0,0.0,0.0,0.0,0.35974039422611265,0.9796071467971981,0.46812324846016756,0.007595680528210303,-0.004293042287115286,0.24023983565482576
6475,10.0,300.03865,-5935.9165,0.0,0.06475001470531816,0.0,0.0,0.0,0.0,0.3393137991001647,0.976048896156026,0.4890076907763015,0.02324976017732268,0.004439217191591626,0.23358111063516077
6476,10.0,300.25922,-5967.7464,0.0,0.06476001069273751,0.0,0.0,0.0,0.0,0.35672968367397867,0.978707471900907,0.47860873539750454,0.0030356792637482167,0.004594623209779006,0.23866408989431176
6477,10.0,300.56286,-5858.5839,0.0,0.06477000668015687,0.0,0.0,0.0,0.0,0.3469222941010647,0.968517539885239,0.46542339290621254,0.002270160605872408,-0.0007456635560712634,0.2347797753709598
6478,10.0,300.05591,-5734.205,0.0,0.06478000266757622,0.0,0.0,0.0,0.0,0.38296824084352266,0.9353131517232212,0.4247737342019036,-0.007736919587474512,-0.0006756634768877934,0.2275540862578398
6479,10.0,300.06066,-5847.5798,0.0,0.06478999865499535,0.0,0.0,0.0,0.0,0.38357080041299063,0.9543598825979871,0.4395875418564126,0.005746370716922635,0.0008845584713616241,0.22062869407685679
6480,10.0,300.64783,-6063.6124,0.0,0.0648000276324725,0.0,0.0,0.0,0.0,0.38331090176234067,0.9761957566255202,0.4836801129430105,-0.007253025486242883,-0.0025378268317890074,0.23325210832769078
6481,10.0,300.5546,-6238.9834,0.0,0.06481002361989163,0.0,0.0,0.0,0.0,0.38195741241126163,1.000151289067247,0.5143864647059915,-0.01010207127564681,-0.013630487578224385,0.22008216723791882
6482,10.0,300.25754,-6232.013000000001,0.0,0.06482001960731076,0.0,0.0,0.0,0.0,0.38566278696695366,0.9939089794411791,0.5148045722272555,-0.003438974892400397,-0.003159986609866397,0.2181600621957218
6483,10.0,300.41625,-6017.9552,0.0,0.06483001559473012,0.0,0.0,0.0,0.0,0.39682784048135866,0.959473320155144,0.47300697208715353,0.012173290052910188,0.011734079571813489,0.2195658555169628
6484,10.0,299.91732,-5974.4411,0.0,0.06484001158214947,0.0,0.0,0.0,0.0,0.41279965114515366,0.9617307805829381,0.4415504808776396,0.008898750250338271,0.002516472484606498,0.2076413305226038
6485,10.0,300.0044,-6042.2729,0.0,0.06485000756956905,0.0,0.0,0.0,0.0,0.39484513295068063,0.9791788865099321,0.4626760767175736,0.01001209284291663,-0.007003464215763103,0.2194994065754048
6486,10.0,299.70985,-6020.2647,0.0,0.06486000355698818,0.0,0.0,0.0,0.0,0.35841456660276366,0.9876499511884611,0.4839456351317155,0.003349732687192877,-0.0033969072813736473,0.22885215082844879
6487,10.0,298.90821,-5934.5608,0.0,0.06486999954440731,0.0,0.0,0.0,0.0,0.34451181264316866,0.9778583683171072,0.4815881061240455,0.007487317077715663,0.006211952247771954,0.24005089490867879
6488,10.0,299.56755,-5829.6454,0.0,0.06488002852188424,0.0,0.0,0.0,0.0,0.3309825426704337,0.9623889777153971,0.47869511496852957,-0.014850121524842887,-0.002150682612380848,0.23184863534917877
6489,10.0,300.19962999999996,-5959.8848,0.0,0.06489002450930359,0.0,0.0,0.0,0.0,0.37565399367166263,0.9730924248817451,0.4629097423231346,-0.00885661627142997,-0.0032671065998383167,0.2411346266856348
6490,10.0,299.68642,-6190.7988,0.0,0.06490002049672272,0.0,0.0,0.0,0.0,0.4267243926319186,0.9958767415328821,0.45924712692166253,-0.01125168133170449,0.008212715793906943,0.23099243901467878
6491,10.0,300.24438,-6137.5804,0.0,0.06491001648414207,0.0,0.0,0.0,0.0,0.4060366322926956,0.9961764609124621,0.46345808287975154,0.005298226105719206,0.007992999602472642,0.2390925832291008
6492,10.0,299.75631,-5939.1112,0.0,0.06492001247156143,0.0,0.0,0.0,0.0,0.34600470494300567,0.9898160468547381,0.46952074326308957,-0.008494981433889394,-0.004904842089545225,0.24723961052564977
6493,10.0,299.85064,-5897.3568,0.0,0.064930008458981,0.0,0.0,0.0,0.0,0.3391996868739027,0.975654255507078,0.47779526781972154,0.0015962165536093085,-0.017526841539264582,0.23113639145638581
6494,10.0,300.53656,-6023.6946,0.0,0.06494000444640013,0.0,0.0,0.0,0.0,0.3380626378766847,0.9976415090995511,0.49534860990210156,0.0035237782515698374,-0.0029787507188048074,0.21665202180688978
6495,10.0,300.66209,-6039.6768,0.0,0.06495000043381927,0.0,0.0,0.0,0.0,0.4046494625082926,0.9687839739990342,0.46247749996297555,0.0017153581480676687,-0.007358262046928923,0.2119852958213198
6496,10.0,299.99737999999996,-5969.2602,0.0,0.0649600294112962,0.0,0.0,0.0,0.0,0.4040037283520636,0.950406758260344,0.46009556176039657,-0.001121671103100319,0.00856748900309533,0.2085200615393278
6497,10.0,300.12764,-5917.6305,0.0,0.06497002539871555,0.0,0.0,0.0,0.0,0.38042854973287465,0.968650974790908,0.44973237411012956,-0.0005652018792785824,-0.008932768703895632,0.23225263842905078
6498,10.0,299.64172,-6057.5679,0.0,0.06498002138613468,0.0,0.0,0.0,0.0,0.36935868093286367,0.9735848644303452,0.4984058590313285,0.016403788565677882,0.003587385634547397,0.23055040865855378
6499,10.0,299.81,-6174.6669999999995,0.0,0.06499001737355403,0.0,0.0,0.0,0.0,0.36878738012898066,0.988197156904966,0.5199600596635625,0.005230204802656025,0.007526539279811593,0.24142034294883277
6500,10.0,299.79053,-6133.964,0.0,0.06500001336097339,0.0,0.0,0.0,0.0,0.38086727689367367,0.9838341729018731,0.49987045125587254,0.0014307966860086388,0.010696256130388292,0.2158700359097138
6501,10.0,299.52662999999995,-5945.6387,0.0,0.06501000934839274,0.0,0.0,0.0,0.0,0.4039870097254136,0.9522152475688281,0.45112344490741757,-0.011857080027952688,-0.0018691188507426683,0.21847553761435679
6502,10.0,298.34157999999996,-5918.6429,0.0,0.06502000533581209,0.0,0.0,0.0,0.0,0.4028084782691016,0.957903745087739,0.43840743986244557,-0.007832686414050962,0.014063133211923186,0.2013839943975528
6503,10.0,299.36395,-5953.7623,0.0,0.06503000132323122,0.0,0.0,0.0,0.0,0.36972660217667463,0.9798083782670581,0.46026010344413554,-0.006918184629046664,-0.0008131257071992592,0.2351069740932518
6504,10.0,299.91476,-6095.7999,0.0,0.06504003030070815,0.0,0.0,0.0,0.0,0.3709083456358036,0.980719350901964,0.5013432609387275,-0.012989115463675887,-0.006737610998250433,0.2257323537705488
6505,10.0,299.85143999999997,-6089.4776,0.0,0.0650500262881275,0.0,0.0,0.0,0.0,0.3462891647760796,1.001253391068516,0.5035065701672296,-0.003233688496965207,-0.015238648222687487,0.2446026170078988
6506,10.0,300.07527999999996,-5941.0578,0.0,0.06506002227554664,0.0,0.0,0.0,0.0,0.3559510516346337,0.9676400754311402,0.48234209592095856,0.014879076159700485,-0.0017780995061847584,0.22883711419696479
6507,10.0,299.98217999999997,-5985.2108,0.0,0.06507001826296599,0.0,0.0,0.0,0.0,0.3800191561624706,0.9836758323087461,0.4556596440151055,0.02266696405105518,0.0017985302759011181,0.22831921167335179
6508,10.0,300.1484,-6044.1463,0.0,0.06508001425038534,0.0,0.0,0.0,0.0,0.3955847447286746,0.9802995512530331,0.46138526701768057,0.0007073522556827323,0.009857587097443101,0.23640687264654178
6509,10.0,300.17311,-6068.9294,0.0,0.0650900102378047,0.0,0.0,0.0,0.0,0.38856926448130064,0.979298672936754,0.4769350590148256,0.0008452885147884812,-0.0028298963757640277,0.23522551422245078
6510,10.0,300.01645,-6037.9825,0.0,0.06510000622522405,0.0,0.0,0.0,0.0,0.3656835822901596,0.9884034748903281,0.48130884426398457,-0.006977826353782844,0.011522658858947888,0.24455276510297877
6511,10.0,299.75076,-5982.3848,0.0,0.06511000221264318,0.0,0.0,0.0,0.0,0.3462820821578807,0.9821667482723111,0.4900467787538515,-0.0007873309231760121,-0.008238761590377463,0.2302421374481298
6512,10.0,299.56748999999996,-6057.1547,0.0,0.06512003119012011,0.0,0.0,0.0,0.0,0.38050202049762566,0.9727981669202042,0.4879235942293095,-0.02285667385402808,-0.015187030222843186,0.2285222771258928
6513,10.0,299.34021,-6153.4245,0.0,0.06513002717753924,0.0,0.0,0.0,0.0,0.42307278112653257,0.9739017482666191,0.47351286759708155,-0.016496111861789484,-0.01656786010137048,0.2062342706387378
6514,10.0,300.35535,-6140.343000000001,0.0,0.0651400231649586,0.0,0.0,0.0,0.0,0.4100838369021236,0.979621595743624,0.47680551498954055,-0.00043601389994622156,0.007255000918637844,0.2190059943067088
6515,10.0,300.94394,-6139.4719,0.0,0.06515001915237817,0.0,0.0,0.0,0.0,0.38569737932536763,0.992152713042849,0.4883960524859375,0.025505918578738178,0.02555721031205027,0.21693904516271678
6516,10.0,300.39603999999997,-6091.7312,0.0,0.0651600151397973,0.0,0.0,0.0,0.0,0.36679023378437764,0.9941602857309811,0.4907836648890765,0.006762665734798144,0.01128615513985679,0.23917335952707278
6517,10.0,300.38425,-6057.0481,0.0,0.06517001112721665,0.0,0.0,0.0,0.0,0.3572009868254927,0.9842408914920131,0.49974949959143555,0.015590124417375485,-0.0074114374121769236,0.2292810494632778
6518,10.0,300.06352000000004,-5995.5912,0.0,0.06518000711463601,0.0,0.0,0.0,0.0,0.3917178479745416,0.9708283783283012,0.45996378858489156,-0.005950040167848244,-0.005494864512875905,0.22858586870216877
6519,10.0,300.01378,-5904.4298,0.0,0.06519000310205514,0.0,0.0,0.0,0.0,0.38902245072102665,0.9512551323040722,0.45452165269529454,0.007898328200579303,-0.0036312367684001663,0.2221479410117948
6520,10.0,300.30838,-5885.4516,0.0,0.06519999908947449,0.0,0.0,0.0,0.0,0.37587257198323465,0.9621607633953742,0.4509969710299355,-0.015081889312966588,-0.016036711359200182,0.23634331146776877
6521,10.0,300.19206,-6091.5542,0.0,0.0652100280669512,0.0,0.0,0.0,0.0,0.38233395641342366,0.983168801958706,0.4861776021869936,-0.0045301518284411755,-0.010959464055864888,0.2308013197808168
6522,10.0,300.84229,-6243.2342,0.0,0.06522002405437077,0.0,0.0,0.0,0.0,0.3794718997834607,1.001957559358012,0.5163578542330525,-0.004843468011113075,0.01030908313467729,0.23035138607391178
6523,10.0,300.08009,-6164.6434,0.0,0.06523002004179013,0.0,0.0,0.0,0.0,0.36994251564048364,1.007247373360076,0.4967077633212395,0.012252498852977488,0.01904694061753668,0.22797689525956777
6524,10.0,299.74033,-6025.4378,0.0,0.06524001602920926,0.0,0.0,0.0,0.0,0.3752808035273317,0.9900396306218041,0.46626220186899653,0.0009141416252562541,0.008550232948592293,0.24031171561691977
6525,10.0,299.70862999999997,-5971.6371,0.0,0.06525001201662861,0.0,0.0,0.0,0.0,0.3913839516690886,0.9703795591965061,0.4534650658885176,-0.0016198348054902484,-0.01206491383546429,0.22146534481692776
6526,10.0,299.75914,-5971.1775,0.0,0.06526000800404774,0.0,0.0,0.0,0.0,0.36561041550043866,0.981705222984262,0.4677732110806216,0.00047059155610127047,0.0050120055479464356,0.24151028916020978
6527,10.0,299.51637,-6011.9515,0.0,0.0652700039914671,0.0,0.0,0.0,0.0,0.37819808228774465,0.9664573795169171,0.4828276656338806,-0.004311997258060996,0.009298093899625421,0.2260517504670708
6528,10.0,300.31192000000004,-6033.3389,0.0,0.06527999997888667,0.0,0.0,0.0,0.0,0.35403871432340067,0.993016083188057,0.4869295654837066,-0.0024077081923722975,0.005403037405338275,0.23667829195082876
6529,10.0,299.46009,-6055.4747,0.0,0.06529002895636316,0.0,0.0,0.0,0.0,0.3720261327486206,0.9773365039856031,0.4913504769950165,-0.01059166541531599,-0.014523318983339986,0.22400662673023278
6530,10.0,300.29019,-6188.889,0.0,0.06530002494378251,0.0,0.0,0.0,0.0,0.4179950505028996,0.9789377937811381,0.4843348852901316,0.014577807520717589,-0.00905775938588125,0.2157020998381398
6531,10.0,300.9881,-6318.4421,0.0,0.06531002093120208,0.0,0.0,0.0,0.0,0.43761958724719063,0.9842196436374161,0.49880939601615454,0.01017533716122759,-0.004627513409350016,0.2070725729764718
6532,10.0,300.33536000000004,-6298.3449,0.0,0.06532001691862122,0.0,0.0,0.0,0.0,0.4106415804196686,1.010409929572196,0.49348806993598054,0.022316356211702876,-0.01088393031391029,0.21406546787911682
6533,10.0,299.91399,-6056.1853,0.0,0.06533001290604057,0.0,0.0,0.0,0.0,0.3787659583062897,0.970104046361815,0.49205911371745353,-0.003312855956428427,-0.013537102396007986,0.21616815435413578
6534,10.0,299.95786,-5929.8666,0.0,0.0653400088934597,0.0,0.0,0.0,0.0,0.3462744625171287,0.974763912644208,0.4814930024696595,0.0030685162676889768,0.018582303638430584,0.2206428390482528
6535,10.0,299.90963,-5952.619000000001,0.0,0.06535000488087905,0.0,0.0,0.0,0.0,0.3660008410289707,0.9728462760349521,0.4706004017746435,-0.0010156210039089892,0.016144868714624484,0.22632771926430678
6536,10.0,300.07741,-5941.0188,0.0,0.06536000086829863,0.0,0.0,0.0,0.0,0.37476461339638767,0.9689340262063432,0.4622227182253305,-0.008468283712304533,0.0035337527868792465,0.23033192153949075
6537,10.0,300.3113,-5923.934,0.0,0.06537002984577511,0.0,0.0,0.0,0.0,0.36818939031746367,0.9823686383547361,0.4501699968283196,-0.01047665240971509,-0.006887650235958154,0.24012491282848375
6538,10.0,300.14844,-5953.4698,0.0,0.06538002583319447,0.0,0.0,0.0,0.0,0.3612624782613307,0.9804227928626962,0.46802086967006357,0.007688046988776163,-0.013720987024155988,0.24193656347727976
6539,10.0,299.58887000000004,-6037.6656,0.0,0.06539002182061382,0.0,0.0,0.0,0.0,0.3760447738377296,0.986316412731851,0.4729383851878845,0.0090491776641593,0.008307140368075923,0.24219152759994275
6540,10.0,299.56939,-6148.4581,0.0,0.06540001780803317,0.0,0.0,0.0,0.0,0.3608846575640427,1.007146159807587,0.5009469180296114,0.002277273520249398,-0.008131615762527992,0.2533393659951488
6541,10.0,299.27123,-6203.7486,0.0,0.06541001379545253,0.0,0.0,0.0,0.0,0.4021394596255746,0.996443543506321,0.4872016636655605,0.0005246733343587265,-0.007057928131163274,0.2223029986745978
6542,10.0,299.16657000000004,-6058.3458,0.0,0.06542000978287166,0.0,0.0,0.0,0.0,0.38972962836331965,0.9849990761443401,0.4668571417977126,-0.012028506746121189,0.003563844592324077,0.2423658572796478
6543,10.0,299.22247999999996,-5979.2616,0.0,0.06543000577029101,0.0,0.0,0.0,0.0,0.38976678424448663,0.9603651119656571,0.46741432802770255,0.0031688755490186667,0.006826707295443554,0.21814636305436977
6544,10.0,300.16387000000003,-6090.5643,0.0,0.06544000175771036,0.0,0.0,0.0,0.0,0.3813175753706146,0.99386187344403,0.4762000068622815,-0.014624637913839384,-0.012518023068182687,0.23247005150300779
6545,10.0,300.10942,-6141.599,0.0,0.06545003073518729,0.0,0.0,0.0,0.0,0.38066844682655065,0.9952373604547801,0.49098692285913653,-0.0008895995223316372,-0.006011565929820365,0.22014676193179378
6546,10.0,300.52329,-6113.5075,0.0,0.06546002672260642,0.0,0.0,0.0,0.0,0.36037510422125363,0.9943201461992581,0.5036583752972115,0.004123987587430886,-0.0024814974216297277,0.23278286207387977
6547,10.0,300.18357000000003,-6145.9212,0.0,0.06547002271002578,0.0,0.0,0.0,0.0,0.4022845266423916,0.9765058618186251,0.4894162028191185,0.003201130440776977,0.012141191302992288,0.21817423756462082
6548,10.0,300.03512,-6104.1924,0.0,0.06548001869744513,0.0,0.0,0.0,0.0,0.3902676439014176,0.9898092986090722,0.47544510514027855,-0.001380903237834539,0.006191118609815834,0.23264507019278077
6549,10.0,299.55962,-6137.626,0.0,0.06549001468486448,0.0,0.0,0.0,0.0,0.4049976355076546,0.9819101730819891,0.4787772388891345,-0.0083501810031737,-0.004723010914049886,0.2168553811019598
6550,10.0,299.78666,-6229.5653,0.0,0.06550001067228362,0.0,0.0,0.0,0.0,0.4121811936816166,0.9862504400178401,0.49520066525500056,0.0045023514880974955,-0.007866135015752082,0.2238646399937198
6551,10.0,300.89004,-6139.9359,0.0,0.06551000665970297,0.0,0.0,0.0,0.0,0.3893046307413756,0.9797061210669661,0.49737644759223354,-0.0009631401912070361,-0.005095161463778285,0.2119002132104228
6552,10.0,300.73762,-5995.5659,0.0,0.06552000264712232,0.0,0.0,0.0,0.0,0.35429224976342266,0.9825019111403891,0.48570816341566353,-0.004791184204628066,-0.02733015480702627,0.23872440867276476
6553,10.0,300.19631,-6080.5331,0.0,0.06553003162459925,0.0,0.0,0.0,0.0,0.38098428701522163,0.9951601609296611,0.47218577341110757,0.0013141922698006786,-0.008088175096290732,0.2251039259260278
6554,10.0,300.39466,-6120.9852,0.0,0.06554002761201838,0.0,0.0,0.0,0.0,0.39155353933832565,0.9938306146784451,0.47524250578278354,-0.004967683962072235,-0.009567219914961091,0.24328897878325276
6555,10.0,300.0552,-6003.7854,0.0,0.06555002359943773,0.0,0.0,0.0,0.0,0.3828684357086726,0.987529810124104,0.45460258098078155,0.014457594515603486,0.01150651474510459,0.2340916670955488
6556,10.0,299.68262999999996,-5877.4518,0.0,0.06556001958685709,0.0,0.0,0.0,0.0,0.3624597751094947,0.985690092447538,0.43844870953901854,0.007823541933223472,0.0002202785959023048,0.24566345946509574
6557,10.0,299.62177,-5930.6864,0.0,0.06557001557427644,0.0,0.0,0.0,0.0,0.34268540907291667,0.985104494684744,0.47499068273543055,0.0042525381209928366,0.014774342576364088,0.23437830541633778
6558,10.0,299.40307,-6021.9652,0.0,0.0655800115616958,0.0,0.0,0.0,0.0,0.35905479881094965,0.9900471692025481,0.4814250944479575,0.004792136761047076,-0.006637894421459174,0.24760741017944876
6559,10.0,299.53451,-6095.6762,0.0,0.06559000754911493,0.0,0.0,0.0,0.0,0.38463210896523364,0.9784483433203331,0.48985289334721654,0.002297825272027698,-0.0013912768923583386,0.22736347364902776
6560,10.0,300.60435,-6087.8145,0.0,0.06560000353653428,0.0,0.0,0.0,0.0,0.3867749201442126,0.9847733949495671,0.47899527004565257,-0.008231962479556442,-0.005079621044344565,0.24316145112566676
6561,10.0,300.58522999999997,-6005.3752,0.0,0.06560999952395363,0.0,0.0,0.0,0.0,0.3902984872344616,0.9695583301229571,0.46562728922383556,-0.015721446696585987,0.01113560238699839,0.21555129782575677
6562,10.0,300.4985,-6044.3769,0.0,0.06562002850143034,0.0,0.0,0.0,0.0,0.3988545534638796,0.9668949313076001,0.47159016473732557,-0.00010430646802174689,0.007056141771236974,0.2198739342098678
6563,10.0,299.94716,-6205.2148,0.0,0.06563002448884969,0.0,0.0,0.0,0.0,0.40945658442771865,0.9785378842316701,0.49823586606205156,-0.007384700173838164,0.006690439443819963,0.2112605990847978
6564,10.0,299.95428,-6198.0029,0.0,0.06564002047626882,0.0,0.0,0.0,0.0,0.3999353468155456,0.9776970589011871,0.5064057016183515,0.014165250583501387,-0.009603278344944781,0.2187785804542648
6565,10.0,299.88481,-6012.9239,0.0,0.0656500164636884,0.0,0.0,0.0,0.0,0.37959496914060664,0.972566608874851,0.47561714487475754,-0.002109748220265938,-0.008328838916317402,0.22541417297414676
6566,10.0,299.91893,-6017.6744,0.0,0.06566001245110775,0.0,0.0,0.0,0.0,0.36203811108037964,0.9971629713423231,0.4700216839800286,0.005534189458531975,-0.006003284738078075,0.23214939837636178
6567,10.0,300.01902,-6136.7694,0.0,0.06567000843852688,0.0,0.0,0.0,0.0,0.4027623044620446,0.9794780891319611,0.48318426887407456,-0.013417115345666187,0.0073131589412525925,0.2217263276451848
6568,10.0,299.91355,-6113.5419,0.0,0.06568000442594624,0.0,0.0,0.0,0.0,0.3861368765562426,0.9966607032677531,0.47556651276726053,-0.016212086713008382,-0.008869903019991273,0.2338632805230088
6569,10.0,299.13827000000003,-6004.793000000001,0.0,0.06569000041336537,0.0,0.0,0.0,0.0,0.3651323134407537,0.9822348792090351,0.4779399498015005,-0.008091869608805351,0.007853801634209873,0.2308771007557958
6570,10.0,299.19503,-6000.8294,0.0,0.0657000293908423,0.0,0.0,0.0,0.0,0.3610407183444447,0.982228708515926,0.4808328801620106,0.0022194450065671683,-0.0074635547416705035,0.23548230219529376
6571,10.0,299.62349,-6081.5621,0.0,0.06571002537826165,0.0,0.0,0.0,0.0,0.36701772869682964,0.9912155884228621,0.49040972493967155,0.0006453451289856054,0.006080182517317295,0.24347132327124874
6572,10.0,299.6263,-6130.5347,0.0,0.06572002136568078,0.0,0.0,0.0,0.0,0.3757059531367906,0.9956867267416291,0.4921367996026205,-0.005414386211758314,-0.013688079700658289,0.24933180986213377
6573,10.0,299.65429,-6174.0753,0.0,0.06573001735310013,0.0,0.0,0.0,0.0,0.4067076977014246,1.002833199961931,0.4672238370089026,0.0009504136483610242,0.012869421242612988,0.23765095125182276
6574,10.0,299.41572,-6021.8832,0.0,0.06574001334051971,0.0,0.0,0.0,0.0,0.3734789611395037,0.989814415522077,0.46720873958241255,-0.0023538048069274477,0.009983719610966411,0.23691960759464478
6575,10.0,299.98815,-5955.096,0.0,0.06575000932793884,0.0,0.0,0.0,0.0,0.3686018540356707,0.974901299225267,0.4666973319919405,0.0017589003419649484,0.019302451895253682,0.21949778537524478
6576,10.0,300.7006,-6129.5926,0.0,0.0657600053153582,0.0,0.0,0.0,0.0,0.37830195055549565,1.000431837754935,0.4845093061623455,-0.0024991179421937374,-0.009896984085181281,0.2281398968031548
6577,10.0,300.0458,-6232.5737,0.0,0.06577000130277733,0.0,0.0,0.0,0.0,0.3922078962529056,0.9970733493709781,0.5052655318108255,0.003478183212969957,-0.01159699291278409,0.21943946269948877
6578,10.0,299.55237999999997,-6055.8712,0.0,0.06578003028025425,0.0,0.0,0.0,0.0,0.36409056061544065,0.9898909463021301,0.4868521126460626,0.006749263678375463,-0.02165706375588578,0.2267901666099468
6579,10.0,299.91674,-5954.8675,0.0,0.06579002626767361,0.0,0.0,0.0,0.0,0.39045106243451966,0.965332236208374,0.4543477283156296,0.004361561298627586,-0.002886678607392997,0.21319229960544178
6580,10.0,300.14866,-6072.5075,0.0,0.06580002225509274,0.0,0.0,0.0,0.0,0.3955799824532046,0.9671676475720151,0.4831430093300025,-0.006118357322784854,-0.007941803317319963,0.23014348741839377
6581,10.0,300.40373999999997,-6182.1158,0.0,0.06581001824251231,0.0,0.0,0.0,0.0,0.40926187828850263,0.983097256369145,0.4868497011108246,-0.002199682373966748,-0.003432716958457787,0.22186967213683179
6582,10.0,300.62946,-6218.9826,0.0,0.06582001422993167,0.0,0.0,0.0,0.0,0.40424528717590363,0.988798308056795,0.4973718373042785,-0.011017670207859388,-0.004507998330904796,0.2274642616364748
6583,10.0,300.86485,-6111.3824,0.0,0.0658300102173508,0.0,0.0,0.0,0.0,0.37847347353242367,0.982432290726018,0.49680187399052755,0.013073096671714189,-0.0019061985355021483,0.2229978551956748
6584,10.0,300.59024,-5998.7196,0.0,0.06584000620477015,0.0,0.0,0.0,0.0,0.37324841634425066,0.989349678231211,0.46086286566362356,-0.0032715930686310966,-0.017755948532625684,0.23471936539999777
6585,10.0,300.74366000000003,-6147.0006,0.0,0.06585000219218928,0.0,0.0,0.0,0.0,0.39312053061797564,0.98968414195672,0.48573000908781955,0.006438029116709004,0.0037987259966800664,0.22740683062080677
6586,10.0,300.57279,-6262.9353,0.0,0.06586003116966621,0.0,0.0,0.0,0.0,0.3989737420731426,1.01142656392753,0.49337563970488457,-0.008106342670583732,0.0015162899671711685,0.2226131747952098
6587,10.0,300.23117,-6042.1485,0.0,0.06587002715708556,0.0,0.0,0.0,0.0,0.37253672973901264,0.977853038621581,0.4862725133238605,0.016462811397252985,0.018728390998098282,0.22885812900403876
6588,10.0,299.41235,-5846.3088,0.0,0.06588002314450492,0.0,0.0,0.0,0.0,0.3417333390139547,0.971284067295774,0.4641144865595336,-0.008281522467122632,0.007808414311880493,0.2326360522668908
6589,10.0,299.77097000000003,-5956.243,0.0,0.06589001913192427,0.0,0.0,0.0,0.0,0.34974898830253764,0.9909909002131869,0.46980924596406254,-0.008796806043202161,-0.01022977199634989,0.2491904412081818
6590,10.0,299.91267999999997,-6145.4,0.0,0.0659000151193434,0.0,0.0,0.0,0.0,0.38665226621960763,0.9912130249001091,0.49018286837478253,-0.006944235897067723,-0.02070266220844368,0.23490736382355176
6591,10.0,300.47642,-6128.1398,0.0,0.06591001110676276,0.0,0.0,0.0,0.0,0.3961682045337576,0.9915760521459371,0.4750572228694976,-0.013304160251018387,-0.014162083163688785,0.24391016188955877
6592,10.0,300.18213,-6072.099,0.0,0.06592000709418211,0.0,0.0,0.0,0.0,0.38395600770350763,0.9807192901069581,0.48109118801000356,-0.0003177206491340867,-0.012213770407655289,0.2372373020309988
6593,10.0,300.07756,-6003.846,0.0,0.06593000308160124,0.0,0.0,0.0,0.0,0.38732443607094563,0.971527166259766,0.46616767576716756,0.00952011412046211,-0.0010480106579305992,0.22907240100268578
6594,10.0,299.98261,-6121.1818,0.0,0.06593999906902082,0.0,0.0,0.0,0.0,0.37954768075843964,0.9973980453655231,0.4837407052989905,0.018352974743297584,0.0063131022694796835,0.23334126420398976
6595,10.0,299.63655,-6334.9967,0.0,0.06595002804649752,0.0,0.0,0.0,0.0,0.4101300613716856,1.000493423096013,0.5150573173321995,0.027645774107175475,-0.0006374852972974004,0.21551441552211678
6596,10.0,299.46262,-6162.281,0.0,0.06596002403391688,0.0,0.0,0.0,0.0,0.3910746976060676,0.988733672832916,0.49337120166944654,0.0039244880659668165,-0.0035368531295352263,0.22250998540502576
6597,10.0,299.55602000000005,-5866.6194,0.0,0.06597002002133623,0.0,0.0,0.0,0.0,0.35910944338884265,0.9700296130094691,0.45416676184776955,0.004819472222244875,-0.005748846593541985,0.2172468806755978
6598,10.0,299.26137,-5968.08,0.0,0.06598001600875536,0.0,0.0,0.0,0.0,0.37434454016992963,0.9632144827043682,0.4765882741681005,-0.006993675206547003,-0.01014725088170569,0.22632361560140177
6599,10.0,300.03257,-6221.4717,0.0,0.06599001199617471,0.0,0.0,0.0,0.0,0.4123248522807946,0.994646443128961,0.4842007613743946,0.001024762546311189,0.004177959671232516,0.21570230248815983
6600,10.0,300.18489,-6283.3106,0.0,0.06600000798359407,0.0,0.0,0.0,0.0,0.3906988020839696,1.0154652673686189,0.5038054384167255,-0.017315494793656284,-0.0037297795962755865,0.24308673406329276
6601,10.0,300.50196,-6061.0797,0.0,0.06601000397101342,0.0,0.0,0.0,0.0,0.38168261898414163,0.9803477920902941,0.4803864725654535,0.006847876521832793,0.012495661651725788,0.24843262132589078
6602,10.0,300.51369,-5939.8661,0.0,0.06601999995843277,0.0,0.0,0.0,0.0,0.3704817268136996,0.9862771391579751,0.44881210997180654,-0.0009929503840515731,0.002843057379987917,0.24283758599620375
6603,10.0,300.13367,-6064.8783,0.0,0.06603002893590948,0.0,0.0,0.0,0.0,0.3814256992887856,0.9807517850376651,0.48139407886239655,0.011661717302671888,0.0014757173053419584,0.23831381946724275
6604,10.0,299.46821,-6141.8973,0.0,0.06604002492332883,0.0,0.0,0.0,0.0,0.38762012271512764,0.9906257451421491,0.48873752790213854,-0.0008029039084679462,-0.006455562903064454,0.22629766626634082
6605,10.0,300.42765,-5988.6869,0.0,0.06605002091074819,0.0,0.0,0.0,0.0,0.36663481135153864,0.987143174150946,0.4666332844531195,-0.0006211045287607444,-0.014728574069347087,0.24098037962291177
6606,10.0,300.42059,-5891.6663,0.0,0.06606001689816732,0.0,0.0,0.0,0.0,0.34633511566811465,0.9651422416821231,0.4794420829422496,0.0014811396119270986,-0.005463998888329704,0.22780210961731778
6607,10.0,300.34604,-6013.3595,0.0,0.06607001288558645,0.0,0.0,0.0,0.0,0.3703701578451887,0.9888277531047011,0.46871322346339356,-0.00015111704197159087,-0.003186938758551367,0.24837103598481275
6608,10.0,299.79175,-6289.9284,0.0,0.06608000887300602,0.0,0.0,0.0,0.0,0.4072694334243636,1.007906148045092,0.4968056128833966,-0.005514391362178055,-0.0005227885169202095,0.2247572728018158
6609,10.0,300.13495,-6285.4297,0.0,0.06609000486042538,0.0,0.0,0.0,0.0,0.3967278934914946,1.015208307143259,0.4986774708531345,-0.008380614780527281,0.007181269444636112,0.23716221006608776
6610,10.0,300.05131,-6015.4822,0.0,0.06610000084784473,0.0,0.0,0.0,0.0,0.3842285821129086,0.9750610482360331,0.4692667417280216,-0.003870306948669556,0.016298319362768883,0.2158739267900978
6611,10.0,299.40417,-5973.7208,0.0,0.06611002982532144,0.0,0.0,0.0,0.0,0.3759137302022966,0.961557717465858,0.4783905117234676,0.004044531959639225,0.006522201525041174,0.22220503765492977
6612,10.0,299.11357999999996,-6145.6334,0.0,0.06612002581274079,0.0,0.0,0.0,0.0,0.3822463001472726,0.995046575593451,0.49082622139327653,-0.007878347009932313,0.009623002474041402,0.22674190550768378
6613,10.0,299.32705,-6123.7176,0.0,0.06613002180016014,0.0,0.0,0.0,0.0,0.39535626696362564,0.986749881124631,0.47935109308326956,0.004312109019547026,-0.004220459534751926,0.23813793951488477
6614,10.0,299.53737,-6087.1292,0.0,0.06614001778757927,0.0,0.0,0.0,0.0,0.38643260373042865,0.9827605128309111,0.48114214435753255,-0.007199561344716384,0.0068741859659793335,0.24066329313661775
6615,10.0,300.0901,-5951.0112,0.0,0.0661500137749984,0.0,0.0,0.0,0.0,0.3749051005227526,0.9651656173619301,0.4688880800331505,0.005944027035129795,-0.0020962752363362577,0.23214851684877477
6616,10.0,300.48142,-5979.7513,0.0,0.06616000976241798,0.0,0.0,0.0,0.0,0.3740061349015317,0.972026516174048,0.4716624297344576,0.004577544980668516,-0.01065629455969439,0.2226913267754228
6617,10.0,299.78623999999996,-6149.3433,0.0,0.06617000574983734,0.0,0.0,0.0,0.0,0.3763468135600387,0.996544878648822,0.4963551218889365,0.01797583900307718,-0.016610032583782585,0.23121604304674678
6618,10.0,299.94675,-6217.9349,0.0,0.06618000173725669,0.0,0.0,0.0,0.0,0.38726159429974366,0.9976800531333551,0.5051553003324465,0.004393052706435545,-0.002326943648101458,0.22062990997697682
6619,10.0,299.56969,-6055.7953,0.0,0.0661900307147334,0.0,0.0,0.0,0.0,0.3847669218910386,0.9866646059962151,0.46937903010410353,0.02268237457182608,-0.0030679398297070873,0.23492184316748074
6620,10.0,299.53769,-5987.0697,0.0,0.06620002670215275,0.0,0.0,0.0,0.0,0.3753351137326917,0.989032834924941,0.4555517430119566,-0.01120338780543829,0.015104947845492286,0.23314725720734278
6621,10.0,299.74577999999997,-6103.0715,0.0,0.0662100226895721,0.0,0.0,0.0,0.0,0.38973326593117863,0.995173464903474,0.47027461146999056,-0.01135992278688709,0.008548782481074142,0.24490946966818275
6622,10.0,300.27769,-6141.9739,0.0,0.06622001867699123,0.0,0.0,0.0,0.0,0.38779621545000664,0.9935676053499881,0.4856428797117205,-0.01763341923778298,0.014737165416944987,0.21635430866250777
6623,10.0,299.64177,-6060.6952,0.0,0.06623001466441059,0.0,0.0,0.0,0.0,0.3596067364054216,0.9982508169146851,0.4844424417882465,-0.005265782648117285,0.005689184401153785,0.25056167256851175
6624,10.0,300.07402,-5994.2104,0.0,0.06624001065182994,0.0,0.0,0.0,0.0,0.37137055993392065,0.9736139751057181,0.47710575112667153,-0.004815971848449415,-0.02075050585166548,0.23190161819690777
6625,10.0,300.39475,-6132.7151,0.0,0.06625000663924929,0.0,0.0,0.0,0.0,0.38469712922415067,0.997789767854183,0.4817053594256176,0.005404810795663295,-0.011823338799622688,0.2548101795753067
6626,10.0,300.86477,-6156.7253,0.0,0.06626000262666865,0.0,0.0,0.0,0.0,0.3880364165187126,0.992132812810885,0.49132151830715853,-0.002204078967475658,-0.0004341150185963166,0.23396537560308478
6627,10.0,300.55107000000004,-6145.6552,0.0,0.06627003160414535,0.0,0.0,0.0,0.0,0.38932099473049064,0.993563400362073,0.4852413388295916,0.011719520181126588,-0.006808848762431054,0.2193126139194698
6628,10.0,300.44541,-6110.0641,0.0,0.06628002759156448,0.0,0.0,0.0,0.0,0.3764779382554796,0.9876448342754561,0.49318414556848555,-0.0009137452823471383,-0.00020767530479845678,0.2116868734018678
6629,10.0,300.0769,-6060.0415,0.0,0.06629002357898406,0.0,0.0,0.0,0.0,0.3652146906738836,0.983801931283691,0.4930846849386695,0.01016344768455419,-0.0024917550590170773,0.2068729323092688
6630,10.0,299.95884,-6143.8693,0.0,0.06630001956640319,0.0,0.0,0.0,0.0,0.39141077239923566,0.986800584159635,0.4893714982247065,0.002070854311202408,0.012759322499997089,0.2266776350538408
6631,10.0,299.43818,-6352.2533,0.0,0.06631001555382254,0.0,0.0,0.0,0.0,0.4253188830207056,1.0048383408498232,0.5007691635645686,-0.004336432189522535,0.006002441004719805,0.20859605529682781
6632,10.0,299.67129,-6259.1857,0.0,0.0663200115412419,0.0,0.0,0.0,0.0,0.4078947404585766,1.005037191181948,0.48970422929254454,-0.007411848994367544,-0.0007306165387737383,0.24948311849956678
6633,10.0,299.17593999999997,-6045.1858,0.0,0.06633000752866103,0.0,0.0,0.0,0.0,0.38766799878235264,0.984465620231692,0.46545191589652757,-0.006720270742664083,-0.001058858108201159,0.23384496096120078
6634,10.0,299.84803,-6065.3088,0.0,0.0663400035160806,0.0,0.0,0.0,0.0,0.37609148466733966,0.98207554563081,0.4855353941411125,0.0009123390533283542,0.020400227318595678,0.24776578117007877
6635,10.0,300.19586,-6091.1044,0.0,0.06634999950349973,0.0,0.0,0.0,0.0,0.37821964424987264,0.9869052731599671,0.4864187050482886,0.0068014166742725625,-0.006887540399647312,0.22412674752958778
6636,10.0,300.42483,-6029.0015,0.0,0.06636002848097644,0.0,0.0,0.0,0.0,0.37020929425931265,0.993655423736155,0.4688011837045746,-0.007612302085500722,-0.005367624820968324,0.24014004065247677
6637,10.0,300.30866000000003,-5962.1978,0.0,0.0663700244683958,0.0,0.0,0.0,0.0,0.3574038192305107,0.990174615800126,0.4647808099577945,0.007545307204788843,0.0033850349286269365,0.24338067791730278
6638,10.0,299.98992999999996,-5986.3202,0.0,0.06638002045581515,0.0,0.0,0.0,0.0,0.36540172650984265,0.995334814849398,0.45895532102536357,0.0025961715963971877,0.01637459683029688,0.24065863218615777
6639,10.0,300.13281,-6059.065,0.0,0.0663900164432345,0.0,0.0,0.0,0.0,0.37185392076162466,0.9938779739881191,0.4760725805297055,0.008374206784244862,0.009833998635115101,0.24198262582682578
6640,10.0,300.33767,-6190.1013,0.0,0.06640001243065385,0.0,0.0,0.0,0.0,0.38456298504341163,1.0039024422624572,0.49317079093216754,-0.0015843343723366285,-0.015986578784002486,0.2280311244049198
6641,10.0,300.10794,-6218.3048,0.0,0.06641000841807299,0.0,0.0,0.0,0.0,0.39637166515383765,1.001831885948109,0.4920058167621935,-0.0012823916180621988,-0.004793168148323866,0.23828808291470277
6642,10.0,299.50278,-6050.4158,0.0,0.06642000440549234,0.0,0.0,0.0,0.0,0.39053562828786564,0.9702111975598902,0.4784284984697165,0.006446016567247304,-0.0030143507544432573,0.2193070917064248
6643,10.0,299.48373,-6102.289000000001,0.0,0.06643000039291169,0.0,0.0,0.0,0.0,0.3892863821070746,0.9907405463784791,0.4749165533581145,-0.014376510189601087,-9.427983949819571e-05,0.23373015972487077
6644,10.0,299.12975,-6303.9991,0.0,0.0664400293703884,0.0,0.0,0.0,0.0,0.40546635487141364,1.003650244312567,0.5071417062259895,-0.014335243552778385,-0.006592826880861354,0.2191290940613578
6645,10.0,299.52681,-6253.2016,0.0,0.06645002535780775,0.0,0.0,0.0,0.0,0.4036606722657066,1.0057576626655529,0.4913988090247865,-0.018874822862799984,0.004838626702135276,0.23035866120962975
6646,10.0,299.93519,-6085.8566,0.0,0.0664600213452271,0.0,0.0,0.0,0.0,0.36547991902005966,0.988764536430962,0.49570397697717355,0.005998771620807665,0.018765209466981982,0.2231043984436898
6647,10.0,299.8015,-6112.18,0.0,0.06647001733264646,0.0,0.0,0.0,0.0,0.4008639905321956,0.972162585529977,0.4849235329357265,0.005100038844459646,0.003620458421786426,0.2103139296488688
6648,10.0,299.85555,-6206.51,0.0,0.06648001332006581,0.0,0.0,0.0,0.0,0.39131915432519365,1.002825418201163,0.4924795010514425,0.016597375063533384,-0.006731826150779513,0.2224739542314698
6649,10.0,300.22983999999997,-6141.6934,0.0,0.06649000930748494,0.0,0.0,0.0,0.0,0.3988631660897296,0.987650822583547,0.4804074569750245,0.010884701397236388,-0.01076255308443129,0.22604235763864378
6650,10.0,299.98283,-6198.9699,0.0,0.0665000052949043,0.0,0.0,0.0,0.0,0.38521828428058463,1.011279916240557,0.48783386080045354,0.012802635902021789,0.007880161335561372,0.24514042989597676
6651,10.0,300.0228,-6129.7261,0.0,0.06651000128232365,0.0,0.0,0.0,0.0,0.3965354671650036,0.981162110798161,0.4855861174411185,-0.01114655866032969,0.013691029271699386,0.2315074740405088
6652,10.0,300.48565,-6028.1509,0.0,0.06652003025980036,0.0,0.0,0.0,0.0,0.3620449505185547,0.9912377279375472,0.4791246722159236,-0.013210793307303789,0.0066130884378110145,0.2511830887223408
6653,10.0,299.99831,-6030.2964,0.0,0.06653002624721971,0.0,0.0,0.0,0.0,0.39286042931730564,0.9853982865512391,0.4548008334953476,-0.006290375677686744,0.0003118769622298597,0.23337676848749378
6654,10.0,299.62786,-6113.1455,0.0,0.06654002223463906,0.0,0.0,0.0,0.0,0.37613954311958264,0.992506590640274,0.4895974529970066,0.002091710544635758,-0.007784503129395643,0.24420148142580977
6655,10.0,300.20016,-6077.4792,0.0,0.06655001822205842,0.0,0.0,0.0,0.0,0.38602313923251763,0.9895582658967971,0.4718205170150595,0.0048452656181154855,-0.00029336170129754576,0.23301460250425077
6656,10.0,299.56904,-5980.2064,0.0,0.06656001420947777,0.0,0.0,0.0,0.0,0.3578385237884127,0.9824738238476171,0.47752107221016055,-0.001096440567660259,-0.013904944606311188,0.24403460926684076
6657,10.0,300.11114,-6034.0176,0.0,0.0665700101968969,0.0,0.0,0.0,0.0,0.3604866630572637,0.9895191139129331,0.4841849040103295,0.005205422934360245,0.0038760979769660864,0.2426053389407828
6658,10.0,300.05776000000003,-6079.590999999999,0.0,0.06658000618431625,0.0,0.0,0.0,0.0,0.37148037597975864,0.990077201935512,0.48648628882995854,0.010836167730696488,0.005043812481835535,0.23060998776443378
6659,10.0,299.51849,-6050.0955,0.0,0.06659000217173561,0.0,0.0,0.0,0.0,0.39642972438456764,0.9777601235874112,0.4648881232758856,0.01082993928233179,6.884809690627813e-05,0.23228627833237075
6660,10.0,299.72177,-6041.964,0.0,0.06660003114921231,0.0,0.0,0.0,0.0,0.3921656234587336,0.9763851735992141,0.46805539110097055,0.004013162243168276,-0.014312481902531985,0.23048928941252178
6661,10.0,300.30421,-6103.8514,0.0,0.06661002713663167,0.0,0.0,0.0,0.0,0.4060451233285336,0.990984010112507,0.45838928912200055,-0.012073314692043388,-0.005039723308406965,0.2413562751450098
6662,10.0,300.14496,-6177.7288,0.0,0.06662002312405102,0.0,0.0,0.0,0.0,0.3973747726203366,0.991309790284659,0.48919073440686656,0.006444546138702183,0.006646811326314203,0.23330961027086577
6663,10.0,300.3484,-6269.5609,0.0,0.06663001911147037,0.0,0.0,0.0,0.0,0.38943793392453163,1.001312321694332,0.5150397070454615,-0.01153159268507959,0.016910683140204486,0.2313820843406338
6664,10.0,299.99262999999996,-6178.3952,0.0,0.06664001509888973,0.0,0.0,0.0,0.0,0.38575779942883065,0.9948543215194771,0.4974657250585446,5.874312996449554e-05,-0.0058880053490258846,0.2226981662135978
6665,10.0,300.16755,-5987.203,0.0,0.06665001108630886,0.0,0.0,0.0,0.0,0.36707379182486266,0.9800718840880641,0.47281452549566055,0.0031007184704420873,-0.011467029401957688,0.21920976903431982
6666,10.0,300.26509,-5968.4355,0.0,0.06666000707372821,0.0,0.0,0.0,0.0,0.36255327782872265,0.9904196095418051,0.46128246266253453,0.014557460445459487,-0.007078803109723473,0.2481588310163698
6667,10.0,299.94183,-6038.6935,0.0,0.06667000306114756,0.0,0.0,0.0,0.0,0.39327872935608865,0.9719815481346101,0.47035176033260456,0.015169068338320487,-0.008231962682206462,0.2171206094481358
6668,10.0,299.46828,-6038.9669,0.0,0.06667999904856692,0.0,0.0,0.0,0.0,0.35804073811086967,0.9905630857559652,0.48709133086217155,0.0026689751359573375,-0.015777512864369285,0.24816087778157178
6669,10.0,298.92103,-6022.4001,0.0,0.06669002802604385,0.0,0.0,0.0,0.0,0.35830385889683763,0.994904365941916,0.4774510363632485,0.0074178924232639835,0.01987895573840018,0.23211722768568677
6670,10.0,299.26595,-6056.8362,0.0,0.06670002401346298,0.0,0.0,0.0,0.0,0.37215016469336165,0.9882983907224571,0.48067842031676655,0.012815126236004488,0.023316825174941477,0.23513711828372677
6671,10.0,299.94594,-6168.9701,0.0,0.06671002000088211,0.0,0.0,0.0,0.0,0.3973802543033776,1.004979577781262,0.4728530391319616,0.0032181250767542168,0.01947586559686828,0.23141042494593078
6672,10.0,299.88292,-6289.0387,0.0,0.06672001598830168,0.0,0.0,0.0,0.0,0.4124048382436886,1.0098025671972541,0.4895033220627166,-0.004837134590038016,-0.015276203324393885,0.23754776186163878
6673,10.0,300.2886,-6231.0615,0.0,0.06673001197572082,0.0,0.0,0.0,0.0,0.4142363688594466,1.003900334702249,0.47595041296514856,-0.018222386057159482,-0.014843902195729088,0.23995591284430476
6674,10.0,300.32379,-6046.3147,0.0,0.06674000796314017,0.0,0.0,0.0,0.0,0.3615347486957017,0.988391467876643,0.4880024656170935,-0.002714394780964907,7.875281320429753e-05,0.2396596689125678
6675,10.0,300.20309,-6044.8715,0.0,0.06675000395055952,0.0,0.0,0.0,0.0,0.3628820876186737,0.981011298653277,0.49359660928669247,-0.004300758997226865,0.007878052660778262,0.23857429567044977
6676,10.0,300.35188999999997,-6091.0627,0.0,0.06675999993797888,0.0,0.0,0.0,0.0,0.3782587455712316,0.9811660827385531,0.4921061386545945,0.0025664639140652677,-0.007673337231774423,0.21280540018725783
6677,10.0,300.12457,-6173.3921,0.0,0.0667700289154558,0.0,0.0,0.0,0.0,0.38441482761378964,0.9970179752530131,0.4951242560649595,-0.02082085175310808,0.004204010837928566,0.2243261044867628
6678,10.0,299.38167999999996,-6114.3047,0.0,0.06678002490287493,0.0,0.0,0.0,0.0,0.39067764542188166,0.983557190854537,0.48436112846772156,0.01669397832806738,0.001106401018793279,0.2142876330960428
6679,10.0,299.23633,-6067.0326,0.0,0.06679002089029407,0.0,0.0,0.0,0.0,0.3882911273288506,0.996315772668711,0.4596195064659136,0.0012426435391643688,0.008530318227151862,0.24413204339645678
6680,10.0,299.37928,-6309.4304,0.0,0.06680001687771342,0.0,0.0,0.0,0.0,0.3895498372655756,1.013230909043105,0.5151285589467305,0.012771806754479188,-0.01091439063841649,0.23329774511219478
6681,10.0,299.71757,-6365.1754,0.0,0.06681001286513277,0.0,0.0,0.0,0.0,0.4107091034063326,1.015904713936989,0.5082405759594396,-0.006564699362060384,-0.005372464711395984,0.24152154636882076
6682,10.0,299.95775,-6226.7981,0.0,0.06682000885255235,0.0,0.0,0.0,0.0,0.38290082931436964,1.008716403620058,0.5011739265820155,-0.004319005706352676,0.003192633933388437,0.2151117499323768
6683,10.0,299.75351,-6020.5788,0.0,0.06683000483997148,0.0,0.0,0.0,0.0,0.37629545191246966,0.981073735124439,0.47273644444295454,0.005179013077128794,0.0011391419666245588,0.2291083612487348
6684,10.0,300.49102999999997,-5945.8747,0.0,0.06684000082739061,0.0,0.0,0.0,0.0,0.36991158111493067,0.967836007602977,0.46964984145833055,0.004719392395292766,-0.014572500116693785,0.22542311997252976
6685,10.0,300.2872,-6142.4418,0.0,0.06685002980486776,0.0,0.0,0.0,0.0,0.39664125047544363,0.9962654749337471,0.47424220501906156,-0.007143116728020733,-0.005309750711031595,0.23292285270769578
6686,10.0,300.04278,-6287.8328,0.0,0.06686002579228689,0.0,0.0,0.0,0.0,0.3730554631277076,1.016127628958989,0.5221610516632835,-0.00027623707546497675,0.008502936764399522,0.23424323917800777
6687,10.0,300.13741,-6132.35,0.0,0.06687002177970602,0.0,0.0,0.0,0.0,0.3807548061325736,1.003559234188585,0.47976722476683853,0.004475314226404126,0.0024644499953222774,0.2389125590838338
6688,10.0,299.42564,-6063.2345,0.0,0.06688001776712538,0.0,0.0,0.0,0.0,0.3661280444465247,0.98827633226778,0.48866750218772753,0.0037457913796558264,-0.008419168440207231,0.23271825724750378
6689,10.0,299.36023,-6202.0076,0.0,0.06689001375454495,0.0,0.0,0.0,0.0,0.3950527478961706,1.005936754620728,0.48426594375332754,-0.003963239816041316,-0.0015927750496446584,0.23205298762934676
6690,10.0,300.02984,-6262.8013,0.0,0.0669000097419643,0.0,0.0,0.0,0.0,0.4085526944110116,1.0047875770198131,0.4903949517532135,4.096985384190976e-05,0.012867627789935988,0.22123162854886178
6691,10.0,300.15205,-6231.4039,0.0,0.06691000572938344,0.0,0.0,0.0,0.0,0.39878774988478666,1.004737512332372,0.49066591509495555,-0.0024881549814117776,0.006453716153432193,0.23361669597867277
6692,10.0,300.6325,-6062.9795,0.0,0.06692000171680257,0.0,0.0,0.0,0.0,0.37086583979410864,0.988427985410247,0.48370055019752756,-0.01091091417732339,-0.006180524573395285,0.23317596258267578
6693,10.0,301.10905,-5943.2911,0.0,0.06693003069427972,0.0,0.0,0.0,0.0,0.37901715313858064,0.967586849403387,0.46000807774676256,-0.009082696382767342,-0.0030215904264077574,0.24337443629668679
6694,10.0,300.04643,-6135.045999999999,0.0,0.06694002668169885,0.0,0.0,0.0,0.0,0.3842083779059146,0.9846122577861641,0.4960801460767985,-0.0024686185062336775,0.003572628153465947,0.2207259964839598
6695,10.0,299.87936,-6180.0965,0.0,0.06695002266911798,0.0,0.0,0.0,0.0,0.39243094299741865,0.995541690122315,0.49062238587065954,-0.0004170272649348867,0.0024142993842727976,0.2273415975793688
6696,10.0,300.17393,-6130.1899,0.0,0.06696001865653733,0.0,0.0,0.0,0.0,0.4004305120069146,0.9685534190712801,0.4944407175474995,-0.008457587134973863,-0.01169489820369659,0.21641511380100878
6697,10.0,299.8594,-6146.4341,0.0,0.06697001464395669,0.0,0.0,0.0,0.0,0.3871599349172107,1.0069355355093,0.47426701951401057,0.001100719522832559,0.007882424227009702,0.2419652283226088
6698,10.0,299.79748,-6174.8437,0.0,0.06698001063137626,0.0,0.0,0.0,0.0,0.3883160938113146,1.001919582744264,0.48676262239723056,0.013326421355715386,0.013737235502759588,0.24011320978982878
6699,10.0,299.28255,-6241.3902,0.0,0.0669900066187954,0.0,0.0,0.0,0.0,0.39945551209818964,1.007786392015773,0.48998487930524254,0.02293851305135498,0.004366994852288837,0.23414047535286578
6700,10.0,299.0496,-6153.6955,0.0,0.06700000260621453,0.0,0.0,0.0,0.0,0.37583603418462863,1.008783338921664,0.4859504112495715,-0.0027963159502248976,-0.015657716305046285,0.23953942652320076
6701,10.0,299.8162,-5983.0471,0.0,0.06701003158369145,0.0,0.0,0.0,0.0,0.3798409052048786,0.97627205435805,0.46258394188598057,0.007738734521053633,-0.007506016101686112,0.23488358284370478
6702,10.0,299.83702999999997,-5962.3412,0.0,0.06702002757111081,0.0,0.0,0.0,0.0,0.3688685718594936,0.9746684543522871,0.4688658087959525,-0.0012199401507987189,0.015376059121748884,0.22763424447325079
6703,10.0,299.55285,-6124.2799,0.0,0.06703002355852994,0.0,0.0,0.0,0.0,0.37404392913026163,1.0086621136797,0.47892214378593556,0.002414646321107038,0.02163951223765358,0.2325727950631478
6704,10.0,299.54991,-6226.0264,0.0,0.06704001954594929,0.0,0.0,0.0,0.0,0.3932913544523346,0.99640047024457,0.5028647268913845,-0.019796276556740378,0.011296541966631888,0.23235909048455677
6705,10.0,300.27999,-6161.9875,0.0,0.06705001553336865,0.0,0.0,0.0,0.0,0.3959789192825766,0.998895993783359,0.47821543223868856,-0.014081519648237787,-0.013481448621015387,0.24620854748889176
6706,10.0,300.24952,-6116.97,0.0,0.067060011520788,0.0,0.0,0.0,0.0,0.3799684227299636,1.000618346700842,0.4788193698282926,-0.002266527394988838,0.004664591979534385,0.24228580038924677
6707,10.0,299.97975,-6132.049,0.0,0.06707000750820735,0.0,0.0,0.0,0.0,0.4037721297767066,0.975330967930172,0.48488668102958954,0.014062745137134887,-0.008212132972449422,0.22879629035043578
6708,10.0,299.99467000000004,-6152.7791,0.0,0.06708000349562648,0.0,0.0,0.0,0.0,0.3823435012293656,0.9957811211209451,0.4921665891555605,0.015730544669233886,-0.002646690827833047,0.21779223214441978
6709,10.0,299.65202,-6132.8162,0.0,0.06708999948304584,0.0,0.0,0.0,0.0,0.3770112725781156,1.0002495540619452,0.4869621617394235,0.0063526280413055735,-0.0009535486441704241,0.23728009158272176
6710,10.0,300.29717999999997,-6038.7905,0.0,0.06710002846052276,0.0,0.0,0.0,0.0,0.37734595921864666,0.9801806159562951,0.47811493809377054,0.006035133620521314,0.014543272917559287,0.22101995047047077
6711,10.0,300.69214,-5945.8794,0.0,0.0671100244479419,0.0,0.0,0.0,0.0,0.3671135821562897,0.98644427476197,0.45384100194061955,0.003200824439246777,0.0027291951225255876,0.24387048301564276
6712,10.0,299.40306,-6069.8856,0.0,0.06712002043536147,0.0,0.0,0.0,0.0,0.37937095980849866,0.973698014069012,0.49202468347905554,-0.015730201177449984,-0.008214377220095912,0.2223507734168128
6713,10.0,299.4189,-6196.5634,0.0,0.0671300164227806,0.0,0.0,0.0,0.0,0.4162793242410706,0.9883651031090411,0.4789561079292875,-0.014313860935918089,-0.025108502637766275,0.24184403347814779
6714,10.0,299.99532,-6203.8735,0.0,0.06714001241019996,0.0,0.0,0.0,0.0,0.39445241747692267,0.997769057022139,0.49360113851463955,-0.012216696673944089,0.010488861060169991,0.23589729903875079
6715,10.0,299.58617000000004,-6188.342,0.0,0.06715000839761931,0.0,0.0,0.0,0.0,0.3860682187294666,0.999856838588187,0.4951763776501035,-0.0015081723139950185,0.013472231084855686,0.2313090391409248
6716,10.0,299.7009,-6233.0533,0.0,0.06716000438503844,0.0,0.0,0.0,0.0,0.3935676069595986,1.0047557305691701,0.49636922633032854,-0.001364179240959009,0.012370905233163289,0.23345419092763478
6717,10.0,300.2488,-6243.4582,0.0,0.0671700003724578,0.0,0.0,0.0,0.0,0.39258963822808063,1.0002483280293242,0.5050174476563416,0.007009336912017692,0.0005449746816398135,0.24063569220389378
6718,10.0,299.55957,-6111.78,0.0,0.06718002934993472,0.0,0.0,0.0,0.0,0.3796960408380816,0.999292843317525,0.47883963483029257,0.012088125368755089,0.0034821113809576365,0.24112191039687977
6719,10.0,299.75501,-5942.3799,0.0,0.06719002533735408,0.0,0.0,0.0,0.0,0.3759287465687786,0.9806643111565321,0.44974206078108553,0.013747133942986487,-0.02500503865680518,0.2360616279399688
6720,10.0,299.8168,-6016.0127,0.0,0.06720002132477343,0.0,0.0,0.0,0.0,0.3603321525495147,0.9910984060487971,0.4772870722320665,0.011777644259862989,-3.469425287055617e-05,0.22942323884981078
6721,10.0,299.79017000000005,-6179.6097,0.0,0.06721001731219256,0.0,0.0,0.0,0.0,0.37756618912788165,1.006963258032036,0.4939175866533705,0.006437197441026925,-0.006676097699254544,0.23338389163569678
6722,10.0,300.34013,-6222.6353,0.0,0.06722001329961191,0.0,0.0,0.0,0.0,0.38746724354003964,1.007043233862429,0.49701528472658957,-0.0028357233744391074,0.026866913073307873,0.22741172461878978
6723,10.0,300.44959,-6147.138000000001,0.0,0.06723000928703127,0.0,0.0,0.0,0.0,0.38310286125180865,0.9941678141792241,0.49130577240060447,-0.017597144884202984,0.0006372264220293514,0.2295016340100478
6724,10.0,299.7795,-6125.8347,0.0,0.0672400052744504,0.0,0.0,0.0,0.0,0.3977145964388746,0.9878729979329741,0.4765131822031896,-0.01044663386225249,0.006271403278839314,0.2258328175179638
6725,10.0,299.69465,-6197.9256,0.0,0.06725000126186997,0.0,0.0,0.0,0.0,0.4193422171733546,0.984755308435282,0.4799171047216305,0.004385943946383966,-0.013151745144476187,0.23618252894190075
6726,10.0,299.49244,-6257.5357,0.0,0.06726003023934646,0.0,0.0,0.0,0.0,0.39605131600222165,1.004567195123063,0.5015161011407855,0.01010699911618315,0.0067069781172522025,0.23577987348466176
6727,10.0,299.36885,-6137.7919,0.0,0.06727002622676603,0.0,0.0,0.0,0.0,0.3813833251696036,1.0007352453648792,0.4836169064017726,0.006860475374901203,-0.010512259031479189,0.23428980815260378
6728,10.0,299.58451,-5906.4688,0.0,0.06728002221418539,0.0,0.0,0.0,0.0,0.36106212831905765,0.9685896123648521,0.4657673001226536,-0.01949950370845118,0.014548870111111684,0.22507571704324378
6729,10.0,299.92394,-6075.1152,0.0,0.06729001820160452,0.0,0.0,0.0,0.0,0.36294514217239665,1.006294300183515,0.4774438828175425,0.0034303088682701263,0.0014720423485542684,0.24353399278993376
6730,10.0,299.48269,-6250.0543,0.0,0.06730001418902387,0.0,0.0,0.0,0.0,0.4095212905791046,1.005048873955601,0.4852902889419225,-0.012363669614199189,0.01068698387872319,0.23235890809953877
6731,10.0,300.68174,-6144.1943,0.0,0.067310010176443,0.0,0.0,0.0,0.0,0.3899785231178836,0.9975214997577071,0.4801816136602356,0.008593418174479341,-0.017442993066989383,0.23643329820914977
6732,10.0,300.48278,-6125.8955,0.0,0.06732000616386258,0.0,0.0,0.0,0.0,0.37885369563244864,1.007976670252052,0.4752889025048625,-0.00967054285150827,-0.014394662565142588,0.24977891660125978
6733,10.0,300.39346,-6182.9821,0.0,0.06733000215128193,0.0,0.0,0.0,0.0,0.38695681880216465,0.998041925274069,0.4944734151282265,0.019562001987869282,-0.0029185611297395573,0.22858039715162876
6734,10.0,300.03424,-6268.3181,0.0,0.06734003112875842,0.0,0.0,0.0,0.0,0.3891430882779326,1.019978283314019,0.49629081090508953,0.003926953607435147,0.016427681003035884,0.24451457570670979
6735,10.0,300.14662999999996,-6253.6438,0.0,0.06735002711617777,0.0,0.0,0.0,0.0,0.3867708063488067,1.006041322031048,0.5081394333344575,0.002968810937973827,0.002801704616906717,0.21853990939320977
6736,10.0,299.78787,-6150.8197,0.0,0.06736002310359734,0.0,0.0,0.0,0.0,0.40639104691267364,0.9800308373265131,0.4832737084604016,-0.020113128982261284,0.007240185580975682,0.2308501584356368
6737,10.0,300.34514,-6159.3513,0.0,0.06737001909101648,0.0,0.0,0.0,0.0,0.3911241948734526,1.004299920011685,0.47686490157790157,-0.0003158424684837247,-0.0012456894702899787,0.23801909541065577
6738,10.0,299.51827000000003,-6218.1884,0.0,0.06738001507843583,0.0,0.0,0.0,0.0,0.38443166783045163,1.00463900415765,0.5011033435800495,0.007997669469533522,0.007075241332971953,0.24710788801264974
6739,10.0,300.01086000000004,-6245.8522,0.0,0.06739001106585518,0.0,0.0,0.0,0.0,0.3921105837133016,1.014274394526089,0.49219812149867254,0.011849948773748889,-0.014345686108308988,0.2335384122759468
6740,10.0,300.36707,-6196.8053,0.0,0.06740000705327431,0.0,0.0,0.0,0.0,0.37374938745869263,1.010570256135519,0.4993544232449445,0.001964191398350598,0.005520040839435614,0.2338597949426648
6741,10.0,300.73654,-6053.5074,0.0,0.06741000304069389,0.0,0.0,0.0,0.0,0.36877600133035765,0.9917926444873131,0.47954644770254956,-0.00046812538641787855,0.0038080116232464866,0.22333447714389681
6742,10.0,300.5516,-6037.3539,0.0,0.0674200320181706,0.0,0.0,0.0,0.0,0.3852967807658316,0.994695454036298,0.4552126082034865,0.0022495570770139977,0.02018466139957098,0.22101808609028678
6743,10.0,300.39384,-6238.5177,0.0,0.06743002800558973,0.0,0.0,0.0,0.0,0.3915117022416966,0.997698696935195,0.5071432159686385,-0.005798725045614604,-0.009053353369146411,0.22277743276892079
6744,10.0,299.9396,-6301.0567,0.0,0.06744002399300908,0.0,0.0,0.0,0.0,0.4185424487369236,0.9993150334947152,0.49750640705005944,0.0008942261945407542,-0.002399167608604408,0.23036710158296278
6745,10.0,299.58628999999996,-6215.3432,0.0,0.06745001998042843,0.0,0.0,0.0,0.0,0.4071718878372366,0.9927101728503661,0.48942706486019055,0.0027141582883915675,-0.011058615644400388,0.24815741246622977
6746,10.0,299.42937,-6159.7655,0.0,0.06746001596784779,0.0,0.0,0.0,0.0,0.38336805920048167,0.99611564564146,0.4929311876810205,0.0010317239797982291,0.001004643117953056,0.24427071680514276
6747,10.0,300.62397000000004,-6087.4443,0.0,0.06747001195526692,0.0,0.0,0.0,0.0,0.3828823172350426,0.9854363340924941,0.48211241238829056,-0.013119373830281387,-0.012289978974176488,0.23737513444210176
6748,10.0,300.14709,-6157.5854,0.0,0.06748000794268627,0.0,0.0,0.0,0.0,0.4011092781164036,0.9970652028401741,0.4735777358684835,-0.00086765731783861,-0.006962259691171533,0.2329740218377458
6749,10.0,299.99424,-6124.5656,0.0,0.06749000393010585,0.0,0.0,0.0,0.0,0.3661019431239486,1.012123061913769,0.48348999682674754,0.012087377590181289,0.008503957917850302,0.23629158505016376
6750,10.0,299.97422,-5978.8541,0.0,0.06749999991752498,0.0,0.0,0.0,0.0,0.36772090400122764,1.00719523150993,0.44250622903446457,0.01899363859602618,0.013043289893522488,0.24567008612074975
6751,10.0,300.05093999999997,-5932.899,0.0,0.06751002889500168,0.0,0.0,0.0,0.0,0.36006608320575567,0.978432252908745,0.4649548255299686,0.0038787313126509757,-0.007936532998249823,0.24705114600704975
6752,10.0,299.5987,-6152.4491,0.0,0.06752002488242104,0.0,0.0,0.0,0.0,0.3776741509260367,1.0097061159202352,0.48281061263469754,-0.002220065216953378,-0.006176408650164074,0.24534157017332778
6753,10.0,299.71016000000003,-6259.7995,0.0,0.06753002086984039,0.0,0.0,0.0,0.0,0.4014359600811446,1.0081443428786,0.4932424277142375,-0.005959695124076114,0.002328717545051528,0.24390415331646578
6754,10.0,299.03118,-6204.9036,0.0,0.06754001685725974,0.0,0.0,0.0,0.0,0.3966237719112186,0.996266184208817,0.49324578157206855,-0.0024694857469942677,0.01092008307747829,0.2185434253710568
6755,10.0,299.93814,-6014.9311,0.0,0.0675500128446791,0.0,0.0,0.0,0.0,0.36422968998667166,0.9917653069996151,0.4723938544516435,-0.01939359982124928,-0.0020608634625663884,0.2273447791846828
6756,10.0,300.20684,-6082.4193,0.0,0.06756000883209823,0.0,0.0,0.0,0.0,0.3953089481839556,0.9653871847612971,0.48820744611232353,0.007020703450314483,0.004034379092312215,0.2224687866559598
6757,10.0,300.16545,-6419.1499,0.0,0.06757000481951758,0.0,0.0,0.0,0.0,0.4089136951566396,1.026694104976819,0.5156534731610355,0.009429045734599361,0.0043544933725550355,0.24154619874375377
6758,10.0,300.33128,-6389.809,0.0,0.06758000080693694,0.0,0.0,0.0,0.0,0.42046819134697966,1.019759927917469,0.5021142530723185,0.023364437797140477,0.005633862161593905,0.24187212077091977
6759,10.0,300.25888,-6155.3771,0.0,0.06759002978441364,0.0,0.0,0.0,0.0,0.4003853514499576,0.987862794504467,0.4828328028118875,0.0014444647205825688,-0.015157562883434986,0.22835109865399877
6760,10.0,299.97219,-6020.0299,0.0,0.067600025771833,0.0,0.0,0.0,0.0,0.38058356686567363,0.9893925083129381,0.4599627044072846,-0.009116686667971921,0.001878400930933738,0.2150025215715968
6761,10.0,299.78137000000004,-6056.7648,0.0,0.06761002175925235,0.0,0.0,0.0,0.0,0.36546394006598265,0.992531820567764,0.4831095112816966,-0.004096870582954646,0.008596117168770711,0.22137037288505482
6762,10.0,299.48541,-6151.7245,0.0,0.0676200177466717,0.0,0.0,0.0,0.0,0.3972837928938576,0.9948346847325391,0.4778521719453376,-0.001945802935535798,0.010192825857953591,0.21728892042224682
6763,10.0,299.21206,-6094.3803,0.0,0.06763001373409105,0.0,0.0,0.0,0.0,0.37223223795146165,1.0018068384056371,0.4785003682993095,-0.004336132976768006,0.007564511739234183,0.24984879032815574
6764,10.0,299.87908,-6008.1444,0.0,0.06764000972151019,0.0,0.0,0.0,0.0,0.37351134461269964,0.9818275830663381,0.47098692629029054,-0.0001919319009722038,-0.013745742750599187,0.2515989366958818
6765,10.0,299.79196,-6199.0522,0.0,0.06765000570892954,0.0,0.0,0.0,0.0,0.3930470294557216,1.009497568784653,0.4818124700936886,-0.005173159227326065,0.002214712621975118,0.2564146205786528
6766,10.0,300.3927,-6380.3647,0.0,0.06766000169634889,0.0,0.0,0.0,0.0,0.41763509340487465,1.016882804258519,0.5049536635625466,-0.0008982667724945283,-0.006738797108817494,0.24442969574583273
6767,10.0,300.52904,-6270.3368,0.0,0.0676700306738256,0.0,0.0,0.0,0.0,0.3945716668811916,0.9969063252244941,0.5145478450494185,-0.0032493146373573866,0.006908738706314423,0.22755849389577476
6768,10.0,300.22418,-6066.5577,0.0,0.06768002666124495,0.0,0.0,0.0,0.0,0.36717787287513465,1.0020093769681262,0.4748948090109685,-0.002132457282832148,-0.0038378783858441065,0.23198397516503577
6769,10.0,300.07059,-5976.8398,0.0,0.06769002264866408,0.0,0.0,0.0,0.0,0.3381799013107577,0.990014603344334,0.48861553259009854,0.0032220969158212073,0.013320975136427885,0.22868607913705877
6770,10.0,300.18057999999996,-6096.2759,0.0,0.06770001863608366,0.0,0.0,0.0,0.0,0.3857555702786106,1.004310437547723,0.4630496518969426,0.0016841064752333682,-0.00047435603353529547,0.24335899436516276
6771,10.0,299.42845,-6286.0083,0.0,0.06771001462350279,0.0,0.0,0.0,0.0,0.4054863260308846,1.013019585602249,0.49228366007211455,-0.0003793313721270917,-0.001911445651144998,0.2261598439877388
6772,10.0,299.51766000000003,-6185.4468,0.0,0.06772001061092214,0.0,0.0,0.0,0.0,0.4147266501853336,0.990805161337356,0.4746895650707125,0.004738135394317555,-0.012033519294365887,0.2340116000726468
6773,10.0,299.87286,-6031.7867,0.0,0.0677300065983415,0.0,0.0,0.0,0.0,0.36467597599321666,0.995469769630217,0.4733667873301645,-0.004487034388985816,0.0045521899167911654,0.21962462402276278
6774,10.0,300.05266,-6127.4069,0.0,0.06774000258576085,0.0,0.0,0.0,0.0,0.39368845729902563,0.9807019837952501,0.48818824502292857,0.0025375831451399577,0.006213037033329014,0.23239660100325876
6775,10.0,300.40922,-6367.7213,0.0,0.06775003156323756,0.0,0.0,0.0,0.0,0.39256108484026264,1.009671300646799,0.5333958775795745,-0.008682634643134322,0.008130922800784602,0.22515551048861876
6776,10.0,300.37,-6323.2474,0.0,0.06776002755065691,0.0,0.0,0.0,0.0,0.4200448655877006,1.0130886183315622,0.48897583419315754,0.006321844591342484,-0.009884067476881512,0.24119776229936576
6777,10.0,299.97311,-6080.7389,0.0,0.06777002353807604,0.0,0.0,0.0,0.0,0.37817753357571665,0.986735239660686,0.48348002644576354,-0.014319342618959086,-0.014348109802548185,0.24369072231540176
6778,10.0,300.32734,-5914.8656,0.0,0.06778001952549562,0.0,0.0,0.0,0.0,0.37778080563156263,0.9798583720269921,0.44033227054741164,0.005805057250789545,-0.006866362864607254,0.23489462726979476
6779,10.0,300.31065,-6028.4739,0.0,0.06779001551291497,0.0,0.0,0.0,0.0,0.3742809080636496,0.9756317613548581,0.4825928651882076,0.0023626520001755976,0.013447364914151588,0.20950028981856883
6780,10.0,300.20224,-6177.2878,0.0,0.0678000115003341,0.0,0.0,0.0,0.0,0.3728568863731096,1.004989679884759,0.4998946679332625,0.02038739957232968,0.0011619149652720789,0.2140135894739968
6781,10.0,300.48087000000004,-6085.5225,0.0,0.06781000748775345,0.0,0.0,0.0,0.0,0.34662173372390165,1.015505797372619,0.4877193128766485,0.0023857061757258675,0.015247448299805986,0.24119219955631677
6782,10.0,300.01498,-6057.1339,0.0,0.06782000347517259,0.0,0.0,0.0,0.0,0.36557926819236464,1.004625892701356,0.4710122879402936,-0.0024478455619585475,0.0047737990620622854,0.24950208654143877
6783,10.0,300.05917,-6166.1824,0.0,0.06782999946259216,0.0,0.0,0.0,0.0,0.39438774172303964,1.003322974662768,0.4766547737721636,-0.01995807638570878,0.01116076746648199,0.26262913675447774
6784,10.0,300.31495,-6244.6085,0.0,0.06784002844006887,0.0,0.0,0.0,0.0,0.4108368337139386,1.006877496543572,0.48049072586824254,-0.01111365032358189,-0.01923403724850168,0.25257253831946874
6785,10.0,299.85221,-6244.5075,0.0,0.06785002442748822,0.0,0.0,0.0,0.0,0.40247893893907866,0.9961214110345292,0.49957400467411556,-0.007874591094461633,-0.0047367121832270955,0.23295067655544177
6786,10.0,299.99349,-6059.786,0.0,0.06786002041490757,0.0,0.0,0.0,0.0,0.37377802190651865,0.990686165245612,0.4775594338589465,0.014579134878348587,-0.02281146871406668,0.23707058185954474
6787,10.0,300.06911,-6018.6734,0.0,0.06787001640232693,0.0,0.0,0.0,0.0,0.35669912405096266,0.976605737880982,0.4962215653932555,0.0033391380428222667,0.01032915663240839,0.21711474273005682
6788,10.0,299.21738,-6335.1669,0.0,0.06788001238974606,0.0,0.0,0.0,0.0,0.4012612251013996,1.018406935058939,0.5060643477921625,0.016415467286330483,-0.014292422590302285,0.2203482973766838
6789,10.0,299.75126,-6494.863,0.0,0.06789000837716541,0.0,0.0,0.0,0.0,0.41939721638878263,1.042773978763779,0.5121049699858254,-0.0024255419007573474,0.004431885313868025,0.2198917674116278
6790,10.0,300.36143,-6340.838000000001,0.0,0.06790000436458454,0.0,0.0,0.0,0.0,0.41573211852456565,1.023239124785839,0.48848515769973155,0.0013660080560644987,0.009341180941577782,0.2293573471958078
6791,10.0,299.84249,-6162.7912,0.0,0.06791000035200412,0.0,0.0,0.0,0.0,0.3942862647255246,1.00039976838927,0.47864860678893956,-0.010036903892815292,0.016101773161371284,0.21916591556999182
6792,10.0,300.19687999999996,-6142.2415,0.0,0.06792002932948082,0.0,0.0,0.0,0.0,0.37949858879109466,1.002438984878025,0.4851504705606235,0.004297045638260387,0.01103186685501049,0.2207918172104558
6793,10.0,300.33241,-6203.3953,0.0,0.06793002531690018,0.0,0.0,0.0,0.0,0.37146993950372864,1.011144262317169,0.5030630807309605,-0.004714893564848766,0.002931597402876137,0.24425076591067377
6794,10.0,299.75102999999996,-6252.4939,0.0,0.06794002130431953,0.0,0.0,0.0,0.0,0.38861298622311563,1.011625302802144,0.5003637419345566,0.01082794216638469,-0.012231657311670589,0.23985269305661774
6795,10.0,300.17168,-6080.3184,0.0,0.06795001729173866,0.0,0.0,0.0,0.0,0.38368410203917264,0.984849500164578,0.4797313557132985,-0.005175840489740686,-0.004699811641085296,0.25454948045707776
6796,10.0,300.14342,-6032.5625,0.0,0.06796001327915802,0.0,0.0,0.0,0.0,0.3960218912193176,0.9794038077671302,0.45832267806042654,0.006164555346519244,-0.018623101140456982,0.23918281315050577
6797,10.0,300.25584,-6207.0391,0.0,0.06797000926657737,0.0,0.0,0.0,0.0,0.39320477223128963,1.0134595387956689,0.48012054507670854,0.001005969016503912,0.006099890029112274,0.24812762291328974
6798,10.0,300.67236,-6418.7038,0.0,0.06798000525399672,0.0,0.0,0.0,0.0,0.4078730265089336,1.029805796033919,0.5134468474907585,0.009684694409029922,-0.0003967306799292696,0.2311599393887098
6799,10.0,300.5256,-6305.6868,0.0,0.06799000124141608,0.0,0.0,0.0,0.0,0.37603075045634565,1.028733676103109,0.5120068569786426,0.007394868543891702,0.006728045208031364,0.22780755077035478
6800,10.0,300.45793,-6039.2521,0.0,0.068000030218893,0.0,0.0,0.0,0.0,0.36663812467936563,0.995516460194825,0.4736272432683696,-0.012430113489506688,-0.015005439592921586,0.21904144792770777
6801,10.0,300.36363,-6036.1927,0.0,0.06801002620631214,0.0,0.0,0.0,0.0,0.36306327700155566,1.008365596170436,0.4634229940287885,-0.009579198760293312,0.004383597968427436,0.23527409956474576
6802,10.0,299.93032,-6162.7618,0.0,0.06802002219373149,0.0,0.0,0.0,0.0,0.4077842151376686,0.9980054482704689,0.4675360396297145,0.007242174996222024,-0.012286372817070589,0.23584925071900878
6803,10.0,299.79007,-6245.4073,0.0,0.06803001818115062,0.0,0.0,0.0,0.0,0.40604174920570063,1.0050944195475962,0.48731171275892154,0.003957081079283497,0.013538895848684989,0.2367717237425498
6804,10.0,299.66366,-6172.7082,0.0,0.06804001416856997,0.0,0.0,0.0,0.0,0.39863159791187563,0.989443940888014,0.4882736316088555,0.009641738886940542,0.0033093053254280073,0.23901752166169277
6805,10.0,299.61264,-6128.8364,0.0,0.06805001015598933,0.0,0.0,0.0,0.0,0.37468699843872766,0.992827010719397,0.49549921939696556,-0.0038292054716131557,0.014297107858764688,0.24212845278121775
6806,10.0,299.81379,-6188.9125,0.0,0.06806000614340868,0.0,0.0,0.0,0.0,0.3979612113807136,0.993154442489212,0.49015922924994954,-0.015766689326801083,0.007009124838771763,0.24177678406901076
6807,10.0,299.70045,-6410.7527,0.0,0.06807000213082803,0.0,0.0,0.0,0.0,0.42149931517874356,1.008638697469889,0.5185707316564465,-0.0097322055035689,0.0024331393513321578,0.2155133516095118
6808,10.0,300.16327,-6383.2298,0.0,0.06808003110830474,0.0,0.0,0.0,0.0,0.43621858659892265,1.0040896908809371,0.5000341924720325,0.0006630403463469874,-0.005853384214309044,0.2122431679717698
6809,10.0,300.77286000000004,-6031.8686,0.0,0.06809002709572409,0.0,0.0,0.0,0.0,0.3672018058424966,1.008144059168572,0.4581915736299876,0.017672819467921482,-0.004567778870904675,0.23468193594130377
6810,10.0,300.01223999999996,-5931.2773,0.0,0.06810002308314345,0.0,0.0,0.0,0.0,0.36243204245425764,0.9797812028993761,0.46074694985218356,0.014996557442544986,-0.013534680728268987,0.2364208453654208
6811,10.0,299.90132,-6226.5998,0.0,0.06811001907056258,0.0,0.0,0.0,0.0,0.37289450834932264,1.027448773651299,0.49238756886986956,0.02196362561339108,-0.013294715746836288,0.23753409311778978
6812,10.0,300.07919,-6256.5232,0.0,0.06812001505798193,0.0,0.0,0.0,0.0,0.3921037240101246,1.025098540044349,0.4846245633612205,0.005528018056147906,-0.0026163482429884676,0.22882357717562876
6813,10.0,299.82069,-6082.4588,0.0,0.0681300110454015,0.0,0.0,0.0,0.0,0.36440531662650466,1.011389337118856,0.47312095259090253,0.0023720900195570577,0.006110771625911204,0.25407268549002177
6814,10.0,299.54932,-6007.2197,0.0,0.06814000703282064,0.0,0.0,0.0,0.0,0.37116358333599364,0.991424784038508,0.46345642114958757,-0.022205780228289878,0.020542537281890583,0.2323524232988988
6815,10.0,300.52058999999997,-6128.9113,0.0,0.06815000302023999,0.0,0.0,0.0,0.0,0.3884848607479706,0.987899595748099,0.4866515296562665,-0.022320438596355775,0.0049102881061827055,0.2536713067279088
6816,10.0,299.44915,-6376.025,0.0,0.0681600319977167,0.0,0.0,0.0,0.0,0.4337812540133766,0.9866005989873982,0.5177705275224725,-0.02108272320170278,0.0008692572701440133,0.2157546875183298
6817,10.0,299.4308,-6316.4046,0.0,0.06817002798513605,0.0,0.0,0.0,0.0,0.39973892828366064,1.023433567480029,0.4968567414834425,-0.006077491122401675,-0.008775201828544991,0.2538131921394118
6818,10.0,299.27777000000003,-6027.283,0.0,0.0681800239725554,0.0,0.0,0.0,0.0,0.36999431298559565,0.9848044814626351,0.4773447261627566,-0.008067532861278502,-0.008960145910997553,0.2176846452488018
6819,10.0,299.70041000000003,-5985.2416,0.0,0.06819001995997453,0.0,0.0,0.0,0.0,0.35926108639880866,0.9963475380593461,0.4637553805915926,-0.0011562065168586988,-0.009615825015633041,0.24369429908825477
6820,10.0,299.75289,-6247.3213,0.0,0.06820001594739389,0.0,0.0,0.0,0.0,0.39528548131163965,1.004072850664275,0.4996713476112225,0.015271449154924685,-0.01151703228114259,0.2111831665121558
6821,10.0,300.17226,-6381.8121,0.0,0.06821001193481324,0.0,0.0,0.0,0.0,0.40527870095289364,1.030560768683429,0.5040720447830375,0.028487069585704874,-0.00872513795170407,0.24715679759497675
6822,10.0,300.02067,-6166.648,0.0,0.0682200079222326,0.0,0.0,0.0,0.0,0.3876949309700106,1.006127823192085,0.48068426676984355,0.02667785985639977,0.004310442223132526,0.22953436198827779
6823,10.0,300.69076,-5975.8229,0.0,0.06823000390965195,0.0,0.0,0.0,0.0,0.3615712560968046,0.9824964091923462,0.4724332901455356,0.0046757990322654356,-0.018401555019342083,0.24504955149450777
6824,10.0,299.88383,-6260.3045,0.0,0.06823999989707108,0.0,0.0,0.0,0.0,0.3985703874733346,1.004809199776947,0.4995966508138506,-0.01038215366563879,0.0026929100284945277,0.2221157196586148
6825,10.0,300.10021,-6331.8401,0.0,0.06825002887454801,0.0,0.0,0.0,0.0,0.4241179080746786,1.000424147186676,0.5001792392238475,-0.013544127258951287,0.007075663250313594,0.24121647702871274
6826,10.0,300.09262,-6235.6821,0.0,0.06826002486196736,0.0,0.0,0.0,0.0,0.3890324717645156,1.01161077279571,0.49484840885773557,-0.013057553415180188,0.019079345368984785,0.2224483797989458
6827,10.0,299.93057999999996,-5955.9563,0.0,0.06827002084938649,0.0,0.0,0.0,0.0,0.3662644076449827,0.9783801211911001,0.4658174762676055,-0.00991144093495806,-0.0034873945683040466,0.24654531129212776
6828,10.0,299.97047000000003,-5990.6789,0.0,0.06828001683680585,0.0,0.0,0.0,0.0,0.36707292042977663,0.9811268800921842,0.4728169876934036,0.0004443723418761356,0.004577171395356646,0.2308302278061698
6829,10.0,299.85483999999997,-6306.7302,0.0,0.0682900128242252,0.0,0.0,0.0,0.0,0.4057530134572046,1.0290595373352691,0.48227598135193356,0.013267255655876185,-0.008511409561735723,0.26162287808016776
6830,10.0,299.33274,-6454.3925,0.0,0.06830000881164455,0.0,0.0,0.0,0.0,0.41646144581404454,1.041836621096269,0.5036760666439576,0.012587351666524887,0.015106984478193287,0.23634372690030978
6831,10.0,299.57038,-6224.423000000001,0.0,0.0683100047990639,0.0,0.0,0.0,0.0,0.3707655888292146,1.026993419056359,0.4943101906696175,0.007166999539502784,-0.013577045728200088,0.24750386615172973
6832,10.0,299.44091000000003,-6068.3989,0.0,0.06832000078648304,0.0,0.0,0.0,0.0,0.36213808846774664,0.994234567095812,0.4882690821159065,-0.0012166997769789188,0.007490878753142173,0.2259557348875948
6833,10.0,299.44222,-6216.5899,0.0,0.06833002976395974,0.0,0.0,0.0,0.0,0.37387134224072865,1.013119471797107,0.5026972873123595,0.0004579994006160216,-0.005930333061353305,0.24246325087925977
6834,10.0,299.60216,-6388.1075,0.0,0.06834002575137932,0.0,0.0,0.0,0.0,0.4145740547202736,1.013172282392319,0.5140788318431305,-0.0017782992177794682,-0.0015613904383972384,0.21669553076618378
6835,10.0,300.04475,-6250.3169,0.0,0.06835002173879845,0.0,0.0,0.0,0.0,0.39112810601883863,1.015571658629119,0.49324049240654655,0.004488465199452027,-0.02384386924095668,0.23747178836914076
6836,10.0,300.39178,-6058.7416,0.0,0.0683600177262178,0.0,0.0,0.0,0.0,0.3983457600586656,0.975726003746659,0.4676344059494225,-0.013470767951711288,-0.004312519183187506,0.23099071648950875
6837,10.0,300.09974,-6170.135,0.0,0.06837001371363716,0.0,0.0,0.0,0.0,0.3895370196518106,1.006813063969713,0.4792168982400255,-0.005370071313334775,-0.0031598105069990173,0.24870335162010976
6838,10.0,300.16634,-6335.4069,0.0,0.06838000970105629,0.0,0.0,0.0,0.0,0.41525461428243965,1.0150795230555492,0.4954713550192155,-0.015864691889723184,0.008735078543135133,0.2271190574599058
6839,10.0,300.12059,-6409.7948,0.0,0.06839000568847586,0.0,0.0,0.0,0.0,0.39627276181157667,1.032860137135359,0.5192846474119045,0.005031958164940605,-0.004674964316833056,0.22839610722344075
6840,10.0,300.13492,-6326.0784,0.0,0.068400001675895,0.0,0.0,0.0,0.0,0.4123267673234836,1.009405677133084,0.5012374168332815,-0.006763155945196523,0.01028562842136249,0.2152502206910428
6841,10.0,300.22643,-6101.1798,0.0,0.0684100306533717,0.0,0.0,0.0,0.0,0.37967521854852665,0.993638056629441,0.4812930476949255,0.007704388889038983,0.004346231027264605,0.2301968046386558
6842,10.0,300.02171,-6095.8108,0.0,0.06842002664079105,0.0,0.0,0.0,0.0,0.3851307800019486,1.0068853289668451,0.4609581618355285,-0.00037251884587474765,0.011029094602736888,0.23603033877688076
6843,10.0,299.69982000000005,-6277.5707,0.0,0.06843002262821063,0.0,0.0,0.0,0.0,0.37616931240752066,1.0255929047681391,0.5064624942864565,0.014010562756984885,-0.002203151944959168,0.2269392562296608
6844,10.0,299.50432,-6345.3709,0.0,0.06844001861562976,0.0,0.0,0.0,0.0,0.4008826951290416,1.0247045884054689,0.5032470869491205,0.003982630180554996,0.01040694384258539,0.23180985826785175
6845,10.0,299.46173,-6196.6252,0.0,0.06845001460304911,0.0,0.0,0.0,0.0,0.3693059513976596,1.012801321398208,0.5015120582728865,0.012920315781885888,-0.015355785000497986,0.2404867444391938
6846,10.0,299.70273,-6069.8842,0.0,0.06846001059046825,0.0,0.0,0.0,0.0,0.38799247186187563,0.990861913475457,0.4662388565866925,-0.0017238674224074684,-0.003827399961259966,0.24148369134508477
6847,10.0,299.9248,-6210.8812,0.0,0.06847000657788782,0.0,0.0,0.0,0.0,0.3906068091073906,1.012601032250941,0.4847449374731005,-0.004838732688095735,-0.023870728474607476,0.24009541711807278
6848,10.0,299.7887,-6380.5868,0.0,0.06848000256530695,0.0,0.0,0.0,0.0,0.4330312158918536,1.021474955036729,0.4850328727540175,-0.014361221258842186,-0.003516760380052227,0.24921406006801278
6849,10.0,299.95277000000004,-6392.5056,0.0,0.06849003154278366,0.0,0.0,0.0,0.0,0.4063149720951656,1.038375156104649,0.4984719634678525,-0.012180605718632187,0.0019111889948946682,0.2526231400294628
6850,10.0,300.04214,-6083.0807,0.0,0.06850002753020301,0.0,0.0,0.0,0.0,0.37590123682856363,0.996956764814472,0.47624662649938254,-0.011230930982906591,0.015851597658680883,0.24395540350652375
6851,10.0,299.90054,-5995.3319,0.0,0.06851002351762259,0.0,0.0,0.0,0.0,0.33658363723571866,1.004773442180918,0.4810741046133175,-0.01101833793967529,0.0033177602895624473,0.2226540594367448
6852,10.0,300.10306,-6266.5975,0.0,0.06852001950504172,0.0,0.0,0.0,0.0,0.39265773876730165,1.00966766307894,0.5025637713466825,0.0073861552009817635,0.01785149092430498,0.20813449961127578
6853,10.0,300.07284,-6484.6425,0.0,0.06853001549246107,0.0,0.0,0.0,0.0,0.41855291561045654,1.035427003613689,0.5171894691201265,0.01024577324192909,0.0018840490909661682,0.22835389522427477
6854,10.0,300.14121,-6331.4761,0.0,0.0685400114798802,0.0,0.0,0.0,0.0,0.4094308681401806,1.014487784997149,0.5006919741719505,0.0009961672403365522,0.00943715163407435,0.23216848800824577
6855,10.0,299.93607000000003,-6080.9316,0.0,0.06855000746729956,0.0,0.0,0.0,0.0,0.37542166555623363,0.991361506569763,0.4816681832794486,-0.007538658460282663,-0.005343526896490046,0.25219494053720276
6856,10.0,299.50186,-6195.2284,0.0,0.06856000345471913,0.0,0.0,0.0,0.0,0.39002036021451264,1.0095080863206911,0.4836662922116466,-0.005616184899024296,0.0035145371066828066,0.24440054454045576
6857,10.0,299.68419,-6383.6912,0.0,0.06856999944213826,0.0,0.0,0.0,0.0,0.42006540416722754,1.015274675024809,0.5051426651036995,-0.008300813026501461,-0.002919828604289647,0.23857676800069375
6858,10.0,299.51998,-6302.3029,0.0,0.06858002841961497,0.0,0.0,0.0,0.0,0.41103021249552363,1.0103515663664362,0.49436091396962356,0.01345207146086609,-0.0006326825222209034,0.2295044305803238
6859,10.0,299.25162,-6019.4038,0.0,0.06859002440703432,0.0,0.0,0.0,0.0,0.3842565478156686,0.9745607762641602,0.47093112660728353,-0.004974143938084785,-0.006814078247522164,0.22639214170566477
6860,10.0,299.78222999999997,-6109.351,0.0,0.06860002039445368,0.0,0.0,0.0,0.0,0.37697272854431163,1.005423209072545,0.47469419562366955,0.00974149690566089,0.0026671066014479273,0.23574069110329476
6861,10.0,299.99732,-6425.1459,0.0,0.06861001638187303,0.0,0.0,0.0,0.0,0.40187162722664166,1.036079638003099,0.5151327031396395,0.0033648981027645866,-0.005903721770001974,0.24744739772365676
6862,10.0,300.48078,-6549.0346,0.0,0.06862001236929216,0.0,0.0,0.0,0.0,0.40875783702625756,1.047357922216179,0.5346272601611025,0.00936894257576764,0.0065398034018033435,0.24619491927504675
6863,10.0,300.6243,-6224.0451,0.0,0.06863000835671151,0.0,0.0,0.0,0.0,0.3885740672867746,1.00338247270864,0.4999977661309375,0.006275562974474844,-0.006541464827992313,0.23403109500457078
6864,10.0,299.91946,-5923.056,0.0,0.06864000434413087,0.0,0.0,0.0,0.0,0.3512442516076087,0.9926529242197161,0.45656396972935553,-0.001162521902081979,-0.00016519327448080682,0.23094710620520478
6865,10.0,299.64033,-6025.0167,0.0,0.06865000033155022,0.0,0.0,0.0,0.0,0.37783344397425767,0.9930353349399571,0.46058585321878454,-0.0001855669475540318,-0.0024028405388918975,0.22886134100685576
6866,10.0,300.32966,-6238.1366,0.0,0.06866002930902715,0.0,0.0,0.0,0.0,0.4039319902449836,0.9991567942265981,0.4931489756575146,0.0006001572142759053,-0.0061140114931059536,0.23511503956404775
6867,10.0,300.15269,-6195.1845,0.0,0.06867002529644628,0.0,0.0,0.0,0.0,0.3944215538788767,0.9966179643785351,0.49214187598562154,-0.002976053649688627,0.0014085622297892685,0.2538059676661988
6868,10.0,299.98257,-6089.897,0.0,0.06868002128386563,0.0,0.0,0.0,0.0,0.38092339068421166,0.992420748091802,0.47783247436339354,-0.0026794848699695675,0.0010133496011598192,0.24868723081101876
6869,10.0,300.13002,-6130.4756,0.0,0.06869001727128499,0.0,0.0,0.0,0.0,0.3820644926818296,1.005576878582711,0.4758701534247275,0.007352842678769073,0.007095475836143943,0.2486527904401198
6870,10.0,300.2625,-6342.5371,0.0,0.06870001325870412,0.0,0.0,0.0,0.0,0.41583079895180464,1.013266413326609,0.4988757132351996,0.00019219643017581083,-0.006714070260002144,0.2366642077744388
6871,10.0,300.29147,-6395.9411,0.0,0.06871000924612347,0.0,0.0,0.0,0.0,0.41073731228911664,1.014096974433579,0.5193721111605365,0.002904754989176997,0.0057718224448595245,0.2139670508969038
6872,10.0,300.07409,-6171.2514,0.0,0.06872000523354282,0.0,0.0,0.0,0.0,0.38691663330319864,1.007614828508841,0.4813748676405006,-0.015525400027487686,-0.009087802150021243,0.2278261641746918
6873,10.0,299.439,-5975.0013,0.0,0.06873000122096218,0.0,0.0,0.0,0.0,0.3465979628765557,0.9968279097992551,0.47282531660922555,0.00043243806941581467,0.007110393410741193,0.2347228509803418
6874,10.0,299.67714,-6092.3696,0.0,0.0687400301984391,0.0,0.0,0.0,0.0,0.3869535460043416,1.0000299726327742,0.4649447031614696,-0.0008704780338644933,-0.005621412053640175,0.25003052686609173
6875,10.0,299.82066000000003,-6366.7107,0.0,0.06875002618585824,0.0,0.0,0.0,0.0,0.4132246082370936,1.010744808730246,0.5113516590664795,0.012258292617049289,0.0023746029811300678,0.2239231045244898
6876,10.0,299.50739,-6283.6095,0.0,0.06876002217327737,0.0,0.0,0.0,0.0,0.4212022505144256,1.000895541530699,0.48796258409315757,0.01066042963335249,-0.01647190430365038,0.24549851248131677
6877,10.0,299.63709,-6096.8716,0.0,0.06877001816069694,0.0,0.0,0.0,0.0,0.37530582067230067,0.9960045934305001,0.4819863235458466,0.007426421455980733,0.0034323533029968966,0.2284340027771808
6878,10.0,300.04846000000003,-6132.3654,0.0,0.06878001414811608,0.0,0.0,0.0,0.0,0.38255661812289865,0.999418385004915,0.4821109533081465,0.0007953335319358083,0.0016208300197384684,0.2577492026828657
6879,10.0,300.23927000000003,-6338.1373,0.0,0.06879001013553565,0.0,0.0,0.0,0.0,0.39049075144093665,1.021084752423219,0.5150600024449645,-0.007526601290717713,0.0039048867427823163,0.2265938291380698
6880,10.0,300.62287000000003,-6389.058000000001,0.0,0.06880000612295478,0.0,0.0,0.0,0.0,0.42086104867575164,1.0247636608862989,0.49648941805719055,-0.00975864170530295,-0.0014497989757340185,0.2585111566255648
6881,10.0,300.24792,-6204.8671,0.0,0.06881000211037414,0.0,0.0,0.0,0.0,0.3930724620332316,1.005397806892538,0.4876544040752425,-0.002330562774808638,0.010243229984178091,0.2285976325358298
6882,10.0,300.46263,-5932.7903,0.0,0.06882003108785106,0.0,0.0,0.0,0.0,0.38020512808582463,0.988324248865009,0.43489072234287257,-0.00017744241440970286,0.0014453849543233888,0.24504954136200674
6883,10.0,300.08595,-6074.8858,0.0,0.0688300270752702,0.0,0.0,0.0,0.0,0.36183324204266065,0.993118786218193,0.4916615650407185,-0.006871211468985774,0.007440715577791452,0.21241185384841782
6884,10.0,300.2545,-6304.746999999999,0.0,0.06884002306268933,0.0,0.0,0.0,0.0,0.3966308950594216,1.0164322119390492,0.5034225109389335,0.00939569653273305,-0.006669742999927383,0.2332173335842588
6885,10.0,300.17582000000004,-6357.0659,0.0,0.0688500190501089,0.0,0.0,0.0,0.0,0.3908141707403556,1.037169793785689,0.5044053736684345,0.006555802012932285,0.0051980258033302055,0.22643692736008478
6886,10.0,300.12725,-6120.2597,0.0,0.06886001503752825,0.0,0.0,0.0,0.0,0.3808318334051756,1.011605149257655,0.46796914325245853,0.01018637550781699,-0.012457943416753289,0.26496808275531375
6887,10.0,299.56272,-6095.7769,0.0,0.06887001102494761,0.0,0.0,0.0,0.0,0.38712854442911265,0.9986463694887231,0.4671890723979715,-0.014295369121593089,0.0002569122074377608,0.23607305740109677
6888,10.0,299.59161,-6293.6048,0.0,0.06888000701236674,0.0,0.0,0.0,0.0,0.42780368637343663,1.0056678076466852,0.47962723413302255,-0.00906036323598823,-0.018699980478544383,0.24877325574450873
6889,10.0,299.97733,-6423.8738,0.0,0.06889000299978587,0.0,0.0,0.0,0.0,0.4098089624149956,1.0254277450018392,0.5174605033893755,-0.005625714212239765,0.012393834069676188,0.24210928208932578
6890,10.0,299.96119,-6213.9495,0.0,0.06890003197726302,0.0,0.0,0.0,0.0,0.37753196153950364,1.0141660780903992,0.4971874561835815,0.004610412787412315,0.002030465655591358,0.23993868759260475
6891,10.0,299.53845,-6019.9321,0.0,0.06891002796468215,0.0,0.0,0.0,0.0,0.35604861748676264,0.999539843294402,0.4743205799142965,-0.0011831721417699989,0.013981339610850787,0.22786725146624676
6892,10.0,300.39427,-6077.4774,0.0,0.06892002395210128,0.0,0.0,0.0,0.0,0.37896927707135564,0.995587711941857,0.47284437584360656,0.0064049495406943045,-0.00917441385664415,0.23295391895576179
6893,10.0,300.4607,-6347.7453,0.0,0.06893001993952064,0.0,0.0,0.0,0.0,0.4215487212536196,1.0292601608550689,0.47874719602366955,-0.0017954481717469383,0.012835054838971289,0.23663517815907378
6894,10.0,300.14295,-6442.0802,0.0,0.06894001592694021,0.0,0.0,0.0,0.0,0.4275455305129586,1.0339823116211089,0.4967037001883385,0.013961650134907588,0.00918363767495447,0.23176561976848575
6895,10.0,299.60141,-6139.4516,0.0,0.06895001191435957,0.0,0.0,0.0,0.0,0.38593889761920364,1.000328151872202,0.47997293480214054,-0.02034157634980728,0.012202853651077887,0.24627247343770078
6896,10.0,299.34537,-6029.1029,0.0,0.0689600079017787,0.0,0.0,0.0,0.0,0.35812964067464365,0.9927568532824731,0.48181024094346847,-0.016945771991167483,-0.008237493305227292,0.2299549114422828
6897,10.0,299.71126,-6295.4221,0.0,0.06897000388919783,0.0,0.0,0.0,0.0,0.3900413243590816,1.012145008910935,0.5114647884401445,-0.02388233221475268,0.0013462917289936485,0.25057638495996376
6898,10.0,299.83376,-6516.4245,0.0,0.06897999987661718,0.0,0.0,0.0,0.0,0.41664401321706257,1.046921616723119,0.5172646928075505,0.006801904756845734,-0.010487910631576189,0.23697302613991678
6899,10.0,299.44116,-6220.0527,0.0,0.06899002885409411,0.0,0.0,0.0,0.0,0.41213962003001364,1.003566529589305,0.47503456659726156,0.015124509651922887,-0.013075251854676886,0.2354440824015218
6900,10.0,299.62721,-6013.1678,0.0,0.06900002484151324,0.0,0.0,0.0,0.0,0.3711938389839796,0.9939130223090781,0.46274600110697456,0.03139791218148267,-0.01142345559465729,0.22808918363564978
6901,10.0,300.22059,-6166.1761,0.0,0.0690100208289326,0.0,0.0,0.0,0.0,0.3868379240354306,1.011694994144022,0.4758306569358295,0.012326058783737288,0.0039088493612733964,0.23788682574260178
6902,10.0,300.63424,-6472.1788,0.0,0.06902001681635195,0.0,0.0,0.0,0.0,0.3975312589657806,1.0516752795672688,0.5181742164948134,0.007053707437871723,0.006631087812587414,0.23503180106833274
6903,10.0,300.13231,-6472.8942,0.0,0.06903001280377152,0.0,0.0,0.0,0.0,0.4038104103654846,1.038615397703359,0.5251724106954815,-0.021834215337119278,0.027155478595787076,0.23892610623767077
6904,10.0,300.33184,-6195.8438,0.0,0.06904000879119065,0.0,0.0,0.0,0.0,0.38004216707224164,1.009317362254368,0.4940222756537025,-0.024059791824016578,0.005166445533488475,0.23055196906370778
6905,10.0,300.26691,-6050.9703,0.0,0.06905000477860979,0.0,0.0,0.0,0.0,0.3921983210394606,0.9936471657478402,0.45349838155180555,-0.024759191758541976,0.01231834592397609,0.2469538435999468
6906,10.0,299.90272000000004,-6251.5188,0.0,0.06906000076602914,0.0,0.0,0.0,0.0,0.39752780378293967,1.014792975927269,0.4879848451978545,-0.0099770999467381,-0.01157890335874879,0.23850108835072478
6907,10.0,299.15992,-6386.1597,0.0,0.06907002974350607,0.0,0.0,0.0,0.0,0.41598242169676863,1.021011291790969,0.5042393425070485,0.014479249696740686,0.000861701899845856,0.23782567609906677
6908,10.0,299.30719,-6264.1345,0.0,0.0690800257309252,0.0,0.0,0.0,0.0,0.37939947266631263,1.0054767593403302,0.5192642304223896,0.004232418216407156,-0.01032355943885599,0.23653410646159878
6909,10.0,299.35377,-6132.4736,0.0,0.06909002171834477,0.0,0.0,0.0,0.0,0.3659759252090116,1.0097454705541191,0.48839745077107555,0.017925859428644584,0.005790743775901915,0.24697406807194278
6910,10.0,299.88038,-6214.1647,0.0,0.0691000177057639,0.0,0.0,0.0,0.0,0.3843291269203316,1.013799281554199,0.4908224825004075,-0.003399161965496167,-0.013053045465485288,0.2400020055913538
6911,10.0,299.47615,-6457.2515,0.0,0.06911001369318326,0.0,0.0,0.0,0.0,0.4231690702835356,1.0366779621871491,0.5029962264893626,0.009038610377541391,-0.0016294126533855087,0.23300715511601577
6912,10.0,299.93147999999997,-6410.0895,0.0,0.06912000968060261,0.0,0.0,0.0,0.0,0.41881217591354364,1.026764323208749,0.5029306793403935,-0.0014351520402384789,-0.01197104938595059,0.22038213993002378
6913,10.0,299.70475,-6243.7853,0.0,0.06913000566802174,0.0,0.0,0.0,0.0,0.3887445162185966,1.017372406706839,0.49183792122062353,-0.001074431964888179,0.006053048388914364,0.23145192767002679
6914,10.0,299.73796,-6180.4582,0.0,0.0691400016554411,0.0,0.0,0.0,0.0,0.38092903448726867,1.015912515962759,0.48186344670621956,-0.022147826375570275,-0.0014267809732123186,0.24647265112745675
6915,10.0,299.78881,-6335.0212,0.0,0.06915003063291802,0.0,0.0,0.0,0.0,0.39519788584049464,1.018591245252129,0.5118991180955095,-0.004577082938622915,0.012914020459014589,0.24880703750284275
6916,10.0,299.91019,-6482.5539,0.0,0.06916002662033738,0.0,0.0,0.0,0.0,0.4310165707180236,1.032089256459279,0.5074286485218086,0.003569242479581807,0.015752857449685985,0.24219034209732576
6917,10.0,299.95971000000003,-6294.3208,0.0,0.06917002260775673,0.0,0.0,0.0,0.0,0.4097025711544956,1.014959047618659,0.48865471497146556,0.018826714761302085,0.005625244570818415,0.2512726093686758
6918,10.0,300.72567999999995,-6014.9677,0.0,0.06918001859517586,0.0,0.0,0.0,0.0,0.37984663006794367,0.9934884097221721,0.45506495739891456,0.005646101513526834,-0.012262136887928689,0.2431082757604188
6919,10.0,300.45825,-6098.2853,0.0,0.06919001458259522,0.0,0.0,0.0,0.0,0.3770027714097766,0.9987531052542571,0.47797059048452456,0.00994956933357104,-0.006012580395820484,0.23947710150954976
6920,10.0,300.17838,-6245.8522,0.0,0.06920001057001457,0.0,0.0,0.0,0.0,0.3795688576855296,1.0069913655898102,0.5120228967277255,-0.007022402772057193,-0.010324173468416591,0.2285723722108368
6921,10.0,300.63039,-6258.6815,0.0,0.0692100065574337,0.0,0.0,0.0,0.0,0.37884394816648664,1.020292390845019,0.5033465779764396,0.005041082988716155,-0.0024525360993214677,0.2359272101817028
6922,10.0,300.86942,-6151.8846,0.0,0.06922000254485328,0.0,0.0,0.0,0.0,0.3828082790502356,1.0015109288464332,0.4857000979448675,-0.011727935223207088,-0.013302045598059687,0.2405227350827458
6923,10.0,301.37363,-6142.4499,0.0,0.06923003152232998,0.0,0.0,0.0,0.0,0.3775886326175966,1.012679234893659,0.4768835251147396,0.0031714365386464167,-0.0020441304477649682,0.24251922281478377
6924,10.0,301.16154,-6334.101,0.0,0.06924002750974934,0.0,0.0,0.0,0.0,0.38877747724434963,1.033883013111309,0.5027481018048745,0.0038843251624780463,0.003838984854953306,0.23514379560188578
6925,10.0,300.79839,-6423.4844,0.0,0.06925002349716869,0.0,0.0,0.0,0.0,0.4151409377537206,1.0277850713594892,0.5096528439488196,0.014975277163944785,-0.0007873181866222552,0.2395816689198698
6926,10.0,300.35022999999995,-6280.9125,0.0,0.06926001948458782,0.0,0.0,0.0,0.0,0.39518675022189564,1.018030411321779,0.49602342433620056,-0.002063025535629768,-0.01145390173366209,0.25239924215486575
6927,10.0,300.09347,-6032.8659,0.0,0.06927001547200717,0.0,0.0,0.0,0.0,0.38125747950718364,0.9957317353110711,0.4568513882527216,-0.019717184280434584,-0.005205318569599945,0.25328089133187776
6928,10.0,300.02317,-6022.4739,0.0,0.06928001145942653,0.0,0.0,0.0,0.0,0.3813458045184006,0.9783385475394971,0.4709973526338196,-0.019443326083156878,0.008256800684557782,0.24774736028326078
6929,10.0,300.03566,-6263.1936,0.0,0.06929000744684588,0.0,0.0,0.0,0.0,0.4039668967109286,1.018793996597139,0.4810935387502356,-0.016975880717888987,-0.0064627913279528435,0.24371338872013876
6930,10.0,299.56954,-6326.5875,0.0,0.06930000343426523,0.0,0.0,0.0,0.0,0.4003926569831786,1.020094705750509,0.5026372522439345,0.01091458011618519,0.0031163037768552368,0.2236619393112148
6931,10.0,300.08247,-6142.5238,0.0,0.06931003241174172,0.0,0.0,0.0,0.0,0.37502263753435267,1.0162520560712691,0.47589919317259355,0.007213207493088154,-0.007164100732291692,0.23710680555061978
6932,10.0,300.20718,-6200.6235,0.0,0.0693200283991613,0.0,0.0,0.0,0.0,0.36062891323880264,1.0179338485872491,0.5062719323401496,0.03232417881339807,0.006166644060275384,0.2251379609968868
6933,10.0,300.00501,-6417.0822,0.0,0.06933002438658065,0.0,0.0,0.0,0.0,0.41755812692727856,1.029007962905179,0.5040666745575075,0.01087899882567359,-0.009302658490000911,0.24520835818268075
6934,10.0,300.03368,-6445.1736,0.0,0.06934002037399978,0.0,0.0,0.0,0.0,0.41358745309790357,1.030815297108549,0.5147691287387575,0.013370058997772088,-0.002374603589080128,0.2272727067050698
6935,10.0,300.27744,-6231.8563,0.0,0.06935001636141913,0.0,0.0,0.0,0.0,0.4079674107557486,1.008386043557454,0.47797525143498454,0.007719010797257053,-0.008834016842524581,0.25042759931527975
6936,10.0,299.97827,-6066.0021,0.0,0.06936001234883826,0.0,0.0,0.0,0.0,0.36004827026899766,1.005638119418755,0.47822677050730755,0.0017926614299969084,0.0017151183117689983,0.22716745028468177
6937,10.0,300.66345,-6085.0315,0.0,0.06937000833625784,0.0,0.0,0.0,0.0,0.37690101070223364,1.005803684485095,0.46699293757611454,-0.009198282077324762,-0.007571331013732192,0.25458873376595176
6938,10.0,300.12638,-6346.3585,0.0,0.06938000432367719,0.0,0.0,0.0,0.0,0.4035898967462216,1.0186469740076292,0.5068976548069035,-0.01824393991328668,-0.0018092943356884483,0.2411480623819608
6939,10.0,300.11122,-6312.2686,0.0,0.06939000031109632,0.0,0.0,0.0,0.0,0.4147722261748316,1.0253471916188892,0.47865259899433354,0.004847620006047845,-0.006745787014632343,0.24796558395729776
6940,10.0,300.09092999999996,-6104.1163,0.0,0.06940002928857303,0.0,0.0,0.0,0.0,0.37240817869882564,1.009386364586178,0.47370439213098353,0.0008395121482208983,0.013568559758612587,0.24647527544521577
6941,10.0,299.81742,-6190.4495,0.0,0.0694100252759926,0.0,0.0,0.0,0.0,0.38193149347370364,1.006753576056342,0.4930570029459375,0.012799712675483287,0.003971036167610757,0.24156431565554176
6942,10.0,299.29201,-6518.4496,0.0,0.06942002126341174,0.0,0.0,0.0,0.0,0.41018563813967057,1.042434641305289,0.5288256231360255,-0.002067150780761898,0.006485667880760583,0.2279408640860118
6943,10.0,299.95437000000004,-6471.465999999999,0.0,0.06943001725083109,0.0,0.0,0.0,0.0,0.4104791057661336,1.027668750248009,0.5290161648173305,0.018607579162175085,0.006046810112023694,0.20957723603116282
6944,10.0,299.91191000000003,-6276.4354,0.0,0.06944001323825022,0.0,0.0,0.0,0.0,0.37822975648587065,1.023035461515739,0.5066144412714525,0.001079499735263329,0.006163554863370504,0.21812727342248578
6945,10.0,300.2057,-6204.7485,0.0,0.0694500092256698,0.0,0.0,0.0,0.0,0.38323493840234363,1.0137649323758091,0.4890887001217965,0.0017343343972654785,-0.024954403509557875,0.23165554027762178
6946,10.0,300.17411,-6362.9623,0.0,0.06946000521308915,0.0,0.0,0.0,0.0,0.4127792240231376,1.023300933041939,0.4981014989662905,-0.026816087435041776,-0.013238059867494788,0.2387998451427098
6947,10.0,300.22086,-6458.4727,0.0,0.06947000120050828,0.0,0.0,0.0,0.0,0.4283302116554006,1.0342030988178992,0.5006811121308785,0.008230224046359872,-0.017423765633091785,0.24450916495117578
6948,10.0,300.61415,-6221.1277,0.0,0.06948003017798499,0.0,0.0,0.0,0.0,0.3965598459624096,1.008969179122505,0.4855384541564145,0.0044195839510289756,0.015470949993613883,0.24630943680134876
6949,10.0,300.59608,-6038.0317,0.0,0.06949002616540456,0.0,0.0,0.0,0.0,0.36132501605750267,1.00003996327876,0.4740458979446875,0.017129806580330285,0.0047841865981124556,0.24821379983429478
6950,10.0,300.33744,-6098.3891,0.0,0.06950002215282369,0.0,0.0,0.0,0.0,0.3833217030084067,0.993270186048135,0.4771661408326316,-0.013975561045530488,-0.0045733387768533956,0.24673323878817477
6951,10.0,300.08296,-6353.5265,0.0,0.06951001814024305,0.0,0.0,0.0,0.0,0.4084739750107426,1.0153853219357292,0.5074541317618235,0.0012456575529118288,-0.0037280333610532467,0.23370746292263078
6952,10.0,299.75641,-6431.1858,0.0,0.0695200141276624,0.0,0.0,0.0,0.0,0.42472558455715154,1.029671945695709,0.5005223662377115,-0.012261210777337288,0.007357855125688763,0.23721004560330877
6953,10.0,299.80936,-6316.8447,0.0,0.06953001011508153,0.0,0.0,0.0,0.0,0.39170543566081667,1.034282031000689,0.49417560065883454,0.008407252517706222,-0.01090045439654109,0.23275429855356078
6954,10.0,300.02167000000003,-6248.3326,0.0,0.0695400061025011,0.0,0.0,0.0,0.0,0.39124450819032663,1.028411462571309,0.47968107824333656,-0.014603902763792986,0.0014809988714882085,0.24522500588182378
6955,10.0,300.29155,-6314.1272,0.0,0.06955000208992024,0.0,0.0,0.0,0.0,0.38429302481926864,1.030826138884619,0.5042178717374295,0.018023933932323783,0.0030347204251785875,0.2279133036832918
6956,10.0,300.06687,-6297.2898,0.0,0.06956003106739694,0.0,0.0,0.0,0.0,0.40059130466528364,1.0252689687111691,0.4883585622322375,0.009175031939205151,0.02069313157800308,0.24351088055515277
6957,10.0,299.8149,-6240.0741,0.0,0.0695700270548163,0.0,0.0,0.0,0.0,0.39060067894428563,1.021258626140379,0.4849674167975575,0.0046687291810176956,-0.01118551610017449,0.23702066915961875
6958,10.0,300.13397000000003,-6153.0901,0.0,0.06958002304223565,0.0,0.0,0.0,0.0,0.3833842509370796,1.0197904267454792,0.4672111004551456,-0.014956117617803886,-0.003511361682194416,0.26158925844184977
6959,10.0,300.59207000000004,-6142.6369,0.0,0.069590019029655,0.0,0.0,0.0,0.0,0.3891777920938576,0.992884299880051,0.4851461338501955,-0.017507053778061683,-0.007149409213791754,0.23813115073921476
6960,10.0,300.17939,-6269.047,0.0,0.06960001501707436,0.0,0.0,0.0,0.0,0.39468966998783767,1.011665822673643,0.4992782471024265,-0.008562136205467051,0.003949224844633147,0.2529096263627368
6961,10.0,300.10109,-6406.6981,0.0,0.06961001100449349,0.0,0.0,0.0,0.0,0.4074922471213536,1.0295003011287691,0.5104836988983186,-0.007784314360902013,-0.009670478104826881,0.22283403291950676
6962,10.0,299.48329,-6339.0349,0.0,0.06962000699191284,0.0,0.0,0.0,0.0,0.40146286187129965,1.026010465134349,0.4994350374229005,0.0028813966359467077,0.002886457617546187,0.23306608574183177
6963,10.0,300.15098,-6282.5824,0.0,0.0696300029793322,0.0,0.0,0.0,0.0,0.4138189706132526,1.006745388995534,0.4891838240411845,0.01090492181623199,-0.004914759882849035,0.22348665717641578
6964,10.0,300.12012999999996,-6344.8225,0.0,0.0696400319568089,0.0,0.0,0.0,0.0,0.40709904528754765,1.023563567467859,0.49800499702676654,0.012414971480012287,0.004974016572547215,0.23001442975315678
6965,10.0,299.78803999999997,-6420.7074,0.0,0.06965002794422825,0.0,0.0,0.0,0.0,0.39978815197351864,1.0428160286429289,0.5091305236547705,0.005697327689557464,-0.01110471953720049,0.2309370851617158
6966,10.0,299.93891,-6326.6055,0.0,0.06966002393164761,0.0,0.0,0.0,0.0,0.38006371890186863,1.031426894868909,0.5116395234198896,-0.0004932898579514185,-9.504966234117131e-05,0.23937256449673278
6967,10.0,299.80496,-6134.3498,0.0,0.06967001991906696,0.0,0.0,0.0,0.0,0.37581032802959163,0.9997267474078481,0.4891520890480525,-0.011657341075489987,0.008065980359475283,0.24664495430696176
6968,10.0,299.89878999999996,-6047.8392,0.0,0.06968001590648631,0.0,0.0,0.0,0.0,0.38464218067122763,0.9831518300195311,0.47059808143191456,-0.02055266978289058,0.025721808737794876,0.2403614763293308
6969,10.0,300.1883,-6178.3535,0.0,0.06969001189390545,0.0,0.0,0.0,0.0,0.40642307574833464,0.991627119950977,0.4800150150787935,-0.03621071539421936,0.0016430780535091783,0.24673329958318077
6970,10.0,299.61713,-6432.6223,0.0,0.0697000078813248,0.0,0.0,0.0,0.0,0.4107598165738376,1.046391990895849,0.49820473901897955,-0.01023769966513229,0.008016969249488264,0.25046947694191274
6971,10.0,300.15099,-6363.8032,0.0,0.06971000386874415,0.0,0.0,0.0,0.0,0.4123512575784006,1.007221292302502,0.5148647086206904,0.004599845602119415,-0.011426056607663989,0.23574344714356676
6972,10.0,300.70707000000004,-6272.7415,0.0,0.0697199998561635,0.0,0.0,0.0,0.0,0.38414380347704163,1.015588579905789,0.5070243819969105,0.02194078188988658,-0.005992519665040644,0.24422994362111874
6973,10.0,300.08022,-6341.4036,0.0,0.06973002883364021,0.0,0.0,0.0,0.0,0.3972114569692186,1.033248718548709,0.4971682044316815,0.013231415986589088,-0.018863170486649983,0.22673604892210578
6974,10.0,300.5277,-6439.969,0.0,0.06974002482105957,0.0,0.0,0.0,0.0,0.4019405890284476,1.035103472856759,0.5205457182213625,0.0041457958706581964,-0.01149152472312519,0.22489347388025777
6975,10.0,300.69144,-6421.3119,0.0,0.06975002080847892,0.0,0.0,0.0,0.0,0.4265073341954965,1.026654588222919,0.49875651449343555,-0.003726429487469957,0.00991890017821923,0.2186067737673088
6976,10.0,299.55284,-6186.5792,0.0,0.06976001679589827,0.0,0.0,0.0,0.0,0.3877885755442526,1.010468221850449,0.4823088005226726,-0.016038576752634284,0.001814100788862808,0.23219126587049377
6977,10.0,300.1611,-5987.3157,0.0,0.0697700127833174,0.0,0.0,0.0,0.0,0.36511533136907764,0.989495829425635,0.4653833188647576,-0.012353298999425688,-0.005980065909386555,0.2332806617155088
6978,10.0,299.81498,-6192.7737,0.0,0.06978000877073676,0.0,0.0,0.0,0.0,0.36424206177039264,1.027031010635069,0.4911754785702455,-0.007730737241989362,-0.018840265968139484,0.24570014925121678
6979,10.0,299.59458,-6379.7379,0.0,0.06979000475815611,0.0,0.0,0.0,0.0,0.41224898011330663,1.0208708553271089,0.5061611638392175,0.02091412041156298,0.004831815027013016,0.2506133888536158
6980,10.0,299.2708,-6280.2191,0.0,0.06980000074557546,0.0,0.0,0.0,0.0,0.40509032762680264,1.017411518160699,0.4865279232765675,0.0043548741519426155,0.012370816067154488,0.24849083254413576
6981,10.0,299.44981,-6072.1244,0.0,0.06981002972305217,0.0,0.0,0.0,0.0,0.39577957245790263,0.994003748723032,0.45599086534029454,-0.002825088605364537,0.01171306780448979,0.2567871318454168
6982,10.0,299.79571,-6134.8238,0.0,0.06982002571047152,0.0,0.0,0.0,0.0,0.37663966310394065,1.0107798469187042,0.47741374875956855,-0.02976947842901877,-0.004807557110343945,0.25388201208620376
6983,10.0,300.09668999999997,-6393.3174,0.0,0.06983002169789088,0.0,0.0,0.0,0.0,0.39745879131862866,1.040421313356589,0.5055288045843086,-0.011245313054825989,0.016842159062441683,0.24372417983370376
6984,10.0,299.72209,-6424.8462,0.0,0.06984001768531023,0.0,0.0,0.0,0.0,0.4023199903958916,1.021727659611669,0.5289452069128275,-0.0031999503083855073,-0.0008197717159301693,0.23273853238200476
6985,10.0,300.20099999999996,-6177.141,0.0,0.06985001367272936,0.0,0.0,0.0,0.0,0.37431186285420465,1.00818872323298,0.4951960347020435,0.006052339519144405,-0.024382923360407177,0.22170529257310878
6986,10.0,299.87559,-6046.1334,0.0,0.06986000966014871,0.0,0.0,0.0,0.0,0.36725086741233864,1.004963386044664,0.4656593484569995,0.01105259389905609,-0.026414465492904774,0.24449830291010377
6987,10.0,300.06985,-6269.3602,0.0,0.06987000564756807,0.0,0.0,0.0,0.0,0.40089778242303065,1.012539983932416,0.4922911783878566,0.017035415240764584,0.00029193262348900674,0.22424488235874676
6988,10.0,300.0095,-6492.8053,0.0,0.06988000163498742,0.0,0.0,0.0,0.0,0.4207985412770826,1.0514806342230592,0.5013715508815195,0.024034171795238077,0.010333903709126891,0.25023474742374674
6989,10.0,299.79631,-6385.9326,0.0,0.06989003061246413,0.0,0.0,0.0,0.0,0.4153905215183526,1.024094915820299,0.5016785960593225,0.0032787291864353773,-0.002962096737511187,0.23811240561236477
6990,10.0,299.99088,-6150.0023,0.0,0.06990002659988348,0.0,0.0,0.0,0.0,0.37556940755331464,0.994791976240824,0.4990857701134305,-0.0022303151536399676,-0.018456820719546383,0.24773363074440574
6991,10.0,299.81861000000004,-6208.1198,0.0,0.06991002258730283,0.0,0.0,0.0,0.0,0.38509974415138565,1.013810123330269,0.48820354509943853,0.0005584009851373865,0.010078580693278471,0.22525312700325278
6992,10.0,299.4931,-6396.3669,0.0,0.06992001857472219,0.0,0.0,0.0,0.0,0.4220246448255896,1.016727878318229,0.5055833174396885,-0.0042426789948698165,0.013262706162927186,0.23919305710901675
6993,10.0,299.67126,-6484.1571,0.0,0.06993001456214132,0.0,0.0,0.0,0.0,0.4301243837399716,1.029957884873929,0.5109395803833106,-0.02092340279572908,-0.007925322196493403,0.2269341089191528
6994,10.0,300.5714,-6323.0527,0.0,0.06994001054956067,0.0,0.0,0.0,0.0,0.4048625895343266,1.0270226006592391,0.4901649034505095,-0.004812783251709725,-0.012931600348249589,0.24238574737911076
6995,10.0,300.36259,-6258.1957,0.0,0.06995000653698003,0.0,0.0,0.0,0.0,0.37803023740867964,1.0246899976040291,0.4996149805081595,0.004086964036726946,0.024633394732126775,0.23218418325229476
6996,10.0,300.41001,-6312.6632,0.0,0.06996000252439938,0.0,0.0,0.0,0.0,0.37512901866235165,1.040442591608689,0.5033203753288535,0.03690384837687626,0.01092255338122209,0.23385975441266077
6997,10.0,299.80439,-6397.5943,0.0,0.0699700315018763,0.0,0.0,0.0,0.0,0.4028638219895636,1.0264631852790291,0.5153819018692335,0.008303847102600901,-0.013682478454105487,0.2349433645996048
6998,10.0,299.89202,-6249.1039,0.0,0.06998002748929544,0.0,0.0,0.0,0.0,0.39649099561811463,1.0171750255873588,0.48590548374013753,0.0055867417762934845,-0.036837955709623164,0.23650400280112777
6999,10.0,300.60421,-6018.5501,0.0,0.06999002347671479,0.0,0.0,0.0,0.0,0.38020410470322363,0.9942347900108341,0.4550500423574426,-0.006720057960143084,-0.006355086793998234,0.25034101709423473
7000,10.0,300.47099,-6146.6877,0.0,0.07000001946413392,0.0,0.0,0.0,0.0,0.39129138113995265,1.001324146322999,0.4758240606776785,0.0015748292757985483,0.00046264337913684664,0.24357741055671875
7001,10.0,299.83914,-6384.6173,0.0,0.07001001545155328,0.0,0.0,0.0,0.0,0.4054368996910066,1.033236559547509,0.5020907659350006,-0.02098173357748588,-0.009104847043203442,0.25628144911800976
7002,10.0,299.70774,-6393.0823,0.0,0.07002001143897263,0.0,0.0,0.0,0.0,0.39594820767204564,1.019232328590399,0.5281568071425186,0.0032189945466650272,-0.003932131011471116,0.23904165727907475
7003,10.0,299.33547000000004,-6367.3435,0.0,0.07003000742639198,0.0,0.0,0.0,0.0,0.4083885073648076,1.029804174833759,0.49732078976424055,0.006164335876547584,0.028077732757306476,0.24009976396100174
7004,10.0,299.73806,-6328.1752,0.0,0.07004000341381134,0.0,0.0,0.0,0.0,0.39284875667615365,1.038892724255729,0.49186581599587653,0.03176190201490567,0.011465587547065389,0.23389478246861778
7005,10.0,300.16826000000003,-6281.3902,0.0,0.07005003239128826,0.0,0.0,0.0,0.0,0.40676120743920563,1.021855734424309,0.48076886302069255,-0.008663423319913311,0.0024498874635600675,0.22917961299576678
7006,10.0,299.67289,-6405.8531,0.0,0.0700600283787074,0.0,0.0,0.0,0.0,0.39854423548825363,1.050648958540979,0.4980261739538565,-0.0054022082627814445,-0.013397285027959088,0.23200488864709978
7007,10.0,299.81325,-6383.4266,0.0,0.07007002436612675,0.0,0.0,0.0,0.0,0.40494971891042564,1.028771571656849,0.5066810219355234,-0.008524570768609633,0.013530713854127486,0.23813285299938275
7008,10.0,300.5221,-6201.0635,0.0,0.07008002035354588,0.0,0.0,0.0,0.0,0.36314259421938366,1.007443001556883,0.5143828879331385,0.0007375716901101584,0.01173742937664409,0.2311887562215538
7009,10.0,300.18247,-6142.3787,0.0,0.07009001634096523,0.0,0.0,0.0,0.0,0.3859552514758176,0.9924150840237431,0.4887594141042985,0.001120750160084429,-0.013033421850798588,0.2376681359735188
7010,10.0,300.97899,-6312.2507,0.0,0.07010001232838481,0.0,0.0,0.0,0.0,0.4010674612847766,1.0094804549904641,0.5082186897572796,-0.0008868296410632712,-0.024016693231013075,0.22576575049384479
7011,10.0,300.40154,-6448.491999999999,0.0,0.07011000831580394,0.0,0.0,0.0,0.0,0.4422665143258066,1.024510348361299,0.4934036560701496,0.015619170244742086,0.003968885645598516,0.24017827057874977
7012,10.0,300.0897,-6430.8778,0.0,0.0701200043032233,0.0,0.0,0.0,0.0,0.4025410714352106,1.043615989596879,0.5086691908842406,0.016664376226395883,-0.007693139786428783,0.23915611401037076
7013,10.0,299.66814,-6289.9763,0.0,0.07013000029064242,0.0,0.0,0.0,0.0,0.4005659328827796,1.018224144740899,0.4932056163381045,-0.0043637127325649155,0.004259454464850426,0.24293210196553175
7014,10.0,300.09116,-6239.923000000001,0.0,0.07014002926811935,0.0,0.0,0.0,0.0,0.3719715084357296,1.021089818673719,0.5037194844107425,-0.007355963083777034,-0.0009102578680204573,0.23869784125514276
7015,10.0,299.66131,-6311.5806,0.0,0.0701500252555387,0.0,0.0,0.0,0.0,0.4012635555766296,1.0104956100006521,0.5068037366551346,0.0003597805189300726,0.023822004317048777,0.23163348182294477
7016,10.0,299.73273,-6316.9045,0.0,0.07016002124295784,0.0,0.0,0.0,0.0,0.40320110255035063,1.0216544016294389,0.49532573071484354,-0.011836624534933888,0.0044879542174265956,0.2299047048998278
7017,10.0,299.87025,-6211.2461,0.0,0.07017001723037719,0.0,0.0,0.0,0.0,0.39667315772109263,1.027926622398459,0.4634638989353255,-0.009784202154975571,-0.005086742672672415,0.24983385502168176
7018,10.0,300.59845,-6157.1223,0.0,0.07018001321779677,0.0,0.0,0.0,0.0,0.36857324998534763,1.021644775753489,0.48139341011733056,-0.011814244879975188,-0.006387262854898764,0.24365655552202978
7019,10.0,300.96389,-6255.1622,0.0,0.0701900092052159,0.0,0.0,0.0,0.0,0.37691858045896764,1.043516184462029,0.4809783220813645,0.012865111889937686,0.02721108880102537,0.26280135887397477
7020,10.0,300.73572,-6348.9482,0.0,0.07020000519263525,0.0,0.0,0.0,0.0,0.39821408820817067,1.026606965468219,0.5051006456220525,0.005346306748139395,0.0064976858375466635,0.24956348949749874
7021,10.0,300.33441,-6293.9563,0.0,0.07021000118005438,0.0,0.0,0.0,0.0,0.4001224941090156,1.014386054687109,0.4986970468450665,0.004332081800218186,-0.009822276851333252,0.24462720858782577
7022,10.0,300.15677,-6117.8644,0.0,0.07022003015753131,0.0,0.0,0.0,0.0,0.3864822428528276,1.0001677239838689,0.47302803755673256,-0.0013958251694072186,-0.028661134807133774,0.24427978539353776
7023,10.0,299.80621,-6149.0562,0.0,0.07023002614495066,0.0,0.0,0.0,0.0,0.3978298232402466,0.99154761021563,0.47978209927830656,0.008774477658698522,0.0014277684867597786,0.24066544122682976
7024,10.0,299.7509,-6356.2928,0.0,0.0702400221323698,0.0,0.0,0.0,0.0,0.4106142429319706,1.0265641049889889,0.4949759669128245,0.003184878618448047,-0.003023421470663467,0.2423240100505178
7025,10.0,300.19765,-6429.5323,0.0,0.07025001811978915,0.0,0.0,0.0,0.0,0.4014795501004466,1.0361553277855688,0.5167823857599505,-0.008673780965085531,-0.008846985734529512,0.23845882568905377
7026,10.0,299.80118999999996,-6306.6157,0.0,0.0702600141072085,0.0,0.0,0.0,0.0,0.38065790902551067,1.022149374303289,0.5142464436746725,-0.011674685890701789,0.008767749374059492,0.2402571622315358
7027,10.0,299.94891,-6183.5899,0.0,0.07027001009462785,0.0,0.0,0.0,0.0,0.37933236511218965,1.015118735834419,0.4852057737510815,0.008280453285617112,0.028091869622701677,0.23282914733844776
7028,10.0,300.25338999999997,-6273.4025,0.0,0.07028000608204721,0.0,0.0,0.0,0.0,0.4031149357618466,1.013811541880409,0.4900312152323155,0.0009168440139354591,0.01248791028846079,0.23211722768568677
7029,10.0,299.67899,-6392.2908,0.0,0.07029000206946634,0.0,0.0,0.0,0.0,0.4155223352238616,1.030795842706629,0.4967785591057265,-0.013780895436318486,-0.01099484269635649,0.2327345300441098
7030,10.0,299.44129,-6302.2939,0.0,0.07030003104694327,0.0,0.0,0.0,0.0,0.40547542345980864,1.026553263212919,0.4837113210460905,-0.0006674021043174594,-0.014005120590697789,0.24858573354850175
7031,10.0,299.8563,-6170.0385,0.0,0.07031002703436262,0.0,0.0,0.0,0.0,0.3785156044715816,0.999176279026021,0.4978457647735515,-0.004876942450691746,0.02045422544292488,0.24802010694517876
7032,10.0,299.80306,-6295.9887,0.0,0.07032002302178175,0.0,0.0,0.0,0.0,0.39229536000153764,1.021919265205579,0.4996086983575395,0.01130633604209849,0.014323376367607185,0.24178340059216374
7033,10.0,300.20329,-6463.1011,0.0,0.0703300190092011,0.0,0.0,0.0,0.0,0.4226358068884066,1.0275515172114391,0.5144340874606915,-0.006798618888096443,-0.003586623670472197,0.23668951876193675
7034,10.0,300.72758999999996,-6464.3555,0.0,0.07034001499662046,0.0,0.0,0.0,0.0,0.42718662719503764,1.031477658698919,0.5063383610167056,0.0012262713427235589,-0.011062709174804388,0.23115619036333976
7035,10.0,299.84053,-6298.562,0.0,0.07035001098403981,0.0,0.0,0.0,0.0,0.39297211987582864,1.038938523160249,0.48269496026828357,0.007054036338854183,0.00947856944781197,0.24700482021247777
7036,10.0,299.71659,-6115.6998,0.0,0.07036000697145917,0.0,0.0,0.0,0.0,0.36665683940871263,1.004022076701764,0.4883411140655155,0.013497227964822686,-0.002933950878883407,0.23992137114839576
7037,10.0,299.89477,-6269.1749,0.0,0.0703700029588783,0.0,0.0,0.0,0.0,0.3631214172922937,1.038548421871749,0.5040027992712035,-0.0017569226804197682,-0.013362089785735587,0.24829646077745277
7038,10.0,300.27988999999997,-6314.0693,0.0,0.070380031936355,0.0,0.0,0.0,0.0,0.38149513731813867,1.038989489640279,0.4988348285936645,0.002268649647323288,-0.0070817350502128335,0.25010740215117877
7039,10.0,299.18907,-6193.4666,0.0,0.07039002792377458,0.0,0.0,0.0,0.0,0.3962309449799496,1.0028499996485891,0.4835782407779565,-0.01020156311356589,0.00964776873828564,0.24091887534184178
7040,10.0,299.47846,-6183.4504,0.0,0.07040002391119393,0.0,0.0,0.0,0.0,0.38890560271949465,1.0136828591177092,0.47702610966881154,0.0019481374637661981,0.014591473224816286,0.24510840106031576
7041,10.0,299.46417,-6216.8531,0.0,0.07041001989861306,0.0,0.0,0.0,0.0,0.40865869050397263,1.002292843816102,0.4788165631255155,-0.014367341289446188,-0.009192176029572141,0.24217858839616574
7042,10.0,299.80142,-6388.1087,0.0,0.07042001588603242,0.0,0.0,0.0,0.0,0.4037503145020536,1.0256516732739391,0.5124235966122715,0.015899205214629383,-0.013491582135265487,0.24180642163443578
7043,10.0,299.87681000000003,-6482.8916,0.0,0.07043001187345177,0.0,0.0,0.0,0.0,0.4096175493386046,1.044307938090169,0.5167117318304776,0.013667661697893187,0.002128204469512428,0.24038227835388376
7044,10.0,300.42009,-6409.4814,0.0,0.07044000786087112,0.0,0.0,0.0,0.0,0.4015249943674316,1.026333894566269,0.5204634119157395,0.013667033482831187,0.002179882453762648,0.2299663206384088
7045,10.0,300.13214,-6245.4863,0.0,0.07045000384829025,0.0,0.0,0.0,0.0,0.3984881926252226,1.024448844080229,0.4755348183041326,-0.0074464166294791025,-0.007876888031113322,0.2408577358308078
7046,10.0,300.40016,-6306.0505,0.0,0.07045999983570961,0.0,0.0,0.0,0.0,0.40071593442758363,1.0285171445567391,0.48764885146469455,-0.015895768270290184,0.013825704395490787,0.2252672821071498
7047,10.0,300.20648,-6430.6145,0.0,0.07047002881318631,0.0,0.0,0.0,0.0,0.4109194135970886,1.0360593730010992,0.5077674185602425,-0.004296428872924516,0.021512067666575777,0.22724609875744378
7048,10.0,299.78092999999996,-6322.2628,0.0,0.07048002480060589,0.0,0.0,0.0,0.0,0.38070021221718564,1.044096067494259,0.4970137952489425,-0.01063813509140219,-3.880473596197926e-05,0.23675859202125377
7049,10.0,299.61149,-6244.9169999999995,0.0,0.07049002078802502,0.0,0.0,0.0,0.0,0.36353515770562667,1.021819358745719,0.5129443058386616,0.016019995772300486,-0.024094619256453776,0.24343419778758477
7050,10.0,299.44725,-6308.2991,0.0,0.07050001677544437,0.0,0.0,0.0,0.0,0.40028464452251866,1.0247635595612892,0.4925171939551626,0.013117180143814888,-0.02076701980179528,0.24809021371959777
7051,10.0,299.36811,-6386.5855,0.0,0.0705100127628635,0.0,0.0,0.0,0.0,0.4064973165831616,1.036720214716319,0.4981449876605825,0.025932418850580476,0.005192593161594045,0.2556520080233888
7052,10.0,299.41798,-6389.6162,0.0,0.07052000875028308,0.0,0.0,0.0,0.0,0.4325819509300146,1.016825049002819,0.4928767761506505,0.004119780370365666,0.006829375790906914,0.2403760772632718
7053,10.0,299.73807999999997,-6363.8934,0.0,0.07053000473770243,0.0,0.0,0.0,0.0,0.40464877349822465,1.0358941119097889,0.4939218220387885,-0.007976230414642653,0.004998850724548155,0.25085295157475873
7054,10.0,300.26517,-6227.1482,0.0,0.07054000072512157,0.0,0.0,0.0,0.0,0.38102817087705265,1.0249245650021792,0.4869448250302126,-0.02372665038988808,0.00015310334654012385,0.24113381608555476
7055,10.0,299.79312999999996,-6226.8887,0.0,0.07055002970259827,0.0,0.0,0.0,0.0,0.36063883295728166,1.0134598427706991,0.5187199935286775,-0.0025773520969898478,-0.0016596887690235285,0.2339292025745148
7056,10.0,300.05584,-6359.2932,0.0,0.07056002569001785,0.0,0.0,0.0,0.0,0.3851194316008286,1.045418257549749,0.5025286318332145,-0.0068426008325371225,-0.004133745996493966,0.23803248044447678
7057,10.0,300.335,-6309.2255,0.0,0.07057002167743698,0.0,0.0,0.0,0.0,0.3941758103321236,1.0251508237495088,0.4985203461601276,0.005573588979395405,-0.016216806431974182,0.23629515169051576
7058,10.0,300.70592999999997,-6271.7866,0.0,0.07058001766485633,0.0,0.0,0.0,0.0,0.40824718937336063,1.028349249015169,0.4698700511025636,-0.0014247762578894687,0.004508199765024676,0.25281176666807875
7059,10.0,300.4592,-6338.3008,0.0,0.07059001365227546,0.0,0.0,0.0,0.0,0.4081829898470246,1.029193590323499,0.4893085652609955,0.013014111330392788,0.01998059586918128,0.2382715568055718
7060,10.0,299.98852999999997,-6419.3736,0.0,0.07060000963969482,0.0,0.0,0.0,0.0,0.4119836605746216,1.021358633925249,0.5179869881413355,-0.0052136759577497555,0.003164042244716657,0.24405812680166178
7061,10.0,299.71521,-6421.5334,0.0,0.07061000562711439,0.0,0.0,0.0,0.0,0.3973549939783846,1.033053059954399,0.5215777641107174,-0.0004652373399228505,-0.01791425872824968,0.22547595083274377
7062,10.0,299.95658,-6357.3953,0.0,0.07062000161453352,0.0,0.0,0.0,0.0,0.3998467076967976,1.0182136069398589,0.5144291225352015,-0.009186375780699701,-0.027716617514417174,0.23718617343095277
7063,10.0,300.25874,-6337.215999999999,0.0,0.07063003059201045,0.0,0.0,0.0,0.0,0.3949582319268426,1.0277156637276392,0.5036815280619965,0.013784324274656885,-0.01229124655005159,0.23438182139418479
7064,10.0,299.5799,-6286.2372,0.0,0.07064002657942958,0.0,0.0,0.0,0.0,0.41339935334933964,1.0157999438766492,0.4816598543636265,-0.003871876270424436,0.005287742817534585,0.24077395018003878
7065,10.0,299.96451,-6369.0892,0.0,0.07065002256684894,0.0,0.0,0.0,0.0,0.4112053527753086,1.025931431626549,0.4989072557108125,0.008769158298323542,0.007963257165662294,0.24486774402906478
7066,10.0,299.81774,-6426.0364,0.0,0.07066001855426829,0.0,0.0,0.0,0.0,0.41230623887645756,1.038669099958659,0.5023792686359735,-0.014249847847600488,0.011183583832233791,0.23600947595732177
7067,10.0,299.86019,-6241.4265,0.0,0.07067001454168742,0.0,0.0,0.0,0.0,0.36537957686265665,1.036159380785969,0.4956987992691625,0.009140720859018911,0.012664693046657887,0.25014928991031277
7068,10.0,299.58643,-6238.6813,0.0,0.07068001052910677,0.0,0.0,0.0,0.0,0.3784479092324006,1.013929686842069,0.5040257392534675,0.005583083842107474,-0.0026073072149961876,0.2347261136456638
7069,10.0,299.4844,-6376.9788,0.0,0.07069000651652613,0.0,0.0,0.0,0.0,0.4052763400801606,1.043194274905259,0.4899716969214415,-0.02043587548361388,-0.015067660241812286,0.26403189032541874
7070,10.0,299.52032,-6402.7246,0.0,0.07070000250394548,0.0,0.0,0.0,0.0,0.4278508632980926,1.0281133643918892,0.49030411388174855,-0.002103606404784788,-0.00956762987595155,0.24018400557431577
7071,10.0,300.68257,-6242.6822,0.0,0.07071003148142241,0.0,0.0,0.0,0.0,0.39685785294932063,1.021546085193749,0.47921559114739654,-0.008191333075721632,0.0041865446353547865,0.25303585706019477
7072,10.0,300.30657,-6267.4673,0.0,0.07072002746884154,0.0,0.0,0.0,0.0,0.3922594909479976,1.020909358830909,0.49198473102761253,0.004342911011986946,0.015789492520301585,0.24474158425911377
7073,10.0,299.9861,-6304.1197,0.0,0.0707300234562609,0.0,0.0,0.0,0.0,0.39171001555126866,1.014396795138169,0.5101881439766495,4.2765645100140564e-05,-0.009123286675148293,0.24282510275497174
7074,10.0,300.58364,-6278.0405,0.0,0.07074001944368025,0.0,0.0,0.0,0.0,0.38342814493141164,1.020675602032839,0.5042638226294646,0.012439423231425488,-0.001026773746434679,0.23938560502551978
7075,10.0,299.58621,-6327.924,0.0,0.07075001543109938,0.0,0.0,0.0,0.0,0.39084092054299563,1.0323972844896792,0.5002926827050435,0.008176158540899023,-0.01046658779647179,0.23825042040848576
7076,10.0,299.71137000000004,-6244.5513,0.0,0.07076001141851895,0.0,0.0,0.0,0.0,0.4040675023133576,1.008821305402911,0.48529886103776854,0.0007761403560240893,-0.007166971979100063,0.23149890194466277
7077,10.0,300.04952000000003,-6278.7492,0.0,0.07077000740593808,0.0,0.0,0.0,0.0,0.4005198300032296,1.016331596204119,0.4917315907551295,-0.0070409435263620234,-0.008708748935311601,0.2402250928658708
7078,10.0,299.61286,-6471.8723,0.0,0.07078000339335744,0.0,0.0,0.0,0.0,0.4177940723455646,1.0357227713178792,0.5137707430177245,-0.008845918883499221,0.0051855928193031645,0.2391484031771098
7079,10.0,299.56942999999995,-6397.4114,0.0,0.07079003237083437,0.0,0.0,0.0,0.0,0.39836571095313467,1.031213504397849,0.5150740562238515,-0.0006388079838454394,0.021729631714797682,0.23825034948097878
7080,10.0,300.00327999999996,-6272.3438,0.0,0.0708000283582535,0.0,0.0,0.0,0.0,0.3943084751677166,1.023563060842809,0.4887643688972875,0.0057125065813555045,0.00896701605065058,0.23015540323956982
7081,10.0,300.00779,-6282.0876,0.0,0.07081002434567285,0.0,0.0,0.0,0.0,0.3985227343211316,1.020262195992039,0.4908128059619526,-0.0015814493453268985,-0.005990808082971724,0.24952389168359076
7082,10.0,300.16856,-6297.3084,0.0,0.0708200203330922,0.0,0.0,0.0,0.0,0.4267475048666996,1.014027870776759,0.4734491544307935,0.008338401666786174,-0.011296884445165689,0.23845590752876578
7083,10.0,300.35542999999996,-6235.0261,0.0,0.07083001632051156,0.0,0.0,0.0,0.0,0.38419867096995663,1.023358688297639,0.4877348561331825,0.011736054396258388,-0.0017884992012361283,0.25048684404862676
7084,10.0,300.3299,-6163.3114,0.0,0.07084001230793091,0.0,0.0,0.0,0.0,0.3829886983630416,1.013541510728759,0.4769625383575376,0.003213483682021147,-0.0034533040726645774,0.2443575726037148
7085,10.0,300.54062999999996,-6225.7356,0.0,0.07085000829535004,0.0,0.0,0.0,0.0,0.37160229023179064,1.022257994714009,0.4986078808362665,-0.006538709193020354,-0.007067315082739693,0.2527710644115618
7086,10.0,300.36787000000004,-6336.5392,0.0,0.0708600042827694,0.0,0.0,0.0,0.0,0.39394260068910764,1.0291442450436292,0.5030628476834375,7.946023909286503e-05,0.0013571363421639286,0.23728553273575875
7087,10.0,299.9364,-6334.5493,0.0,0.07087000027018875,0.0,0.0,0.0,0.0,0.38246053161591564,1.044781835161939,0.49830242646112055,0.006541393089885234,-0.0004942873621448645,0.24182033355830876
7088,10.0,299.53975,-6312.1094,0.0,0.07088002924766545,0.0,0.0,0.0,0.0,0.4007626148596906,1.029338991712849,0.4886219971257365,0.015775162124137283,-0.005885654102168834,0.23997684659137075
7089,10.0,299.14596,-6338.5644,0.0,0.07089002523508459,0.0,0.0,0.0,0.0,0.39095446534920164,1.029722608200709,0.5060882503620215,0.005823256235835645,-0.006327914567391544,0.23205788162732974
7090,10.0,299.50915,-6292.4278,0.0,0.07090002122250416,0.0,0.0,0.0,0.0,0.40277530446082765,1.023277324314609,0.4866882903698945,-0.0005923419149295954,0.003292292856249007,0.2454697564434788
7091,10.0,299.81118,-6360.0757,0.0,0.07091001720992351,0.0,0.0,0.0,0.0,0.4004911347603976,1.028588983988829,0.5042240829605426,-0.003550026698060356,0.01994241356566298,0.24125603431261677
7092,10.0,299.96232000000003,-6406.3066,0.0,0.07092001319734287,0.0,0.0,0.0,0.0,0.42184450922281164,1.025028929762479,0.5004838120714065,-0.024200210049374775,0.006707400642543904,0.2414416718634378
7093,10.0,300.2853,-6417.7438,0.0,0.070930009184762,0.0,0.0,0.0,0.0,0.4241567054210076,1.028782109457889,0.49789507965591856,-0.0025918602172216873,-0.005101644744543135,0.23702182426473278
7094,10.0,300.88308,-6341.2034,0.0,0.07094000517218113,0.0,0.0,0.0,0.0,0.4177307948768196,1.031080262009699,0.4787564368645815,-0.019240181597108084,-0.016719827351368486,0.24280727968571278
7095,10.0,300.40223,-6319.5311,0.0,0.0709500011596007,0.0,0.0,0.0,0.0,0.3979492752945356,1.016266748197719,0.5067635916861725,0.009073378737497763,-0.006653107459785583,0.2214357680465088
7096,10.0,299.97929,-6329.4811,0.0,0.07096003013707741,0.0,0.0,0.0,0.0,0.39707146633540263,1.0281761858980891,0.49875652462593656,0.006456333682415524,-0.009574542673433791,0.22513947073953577
7097,10.0,299.77269,-6388.0637,0.0,0.07097002612449654,0.0,0.0,0.0,0.0,0.3862708890144686,1.036939380712949,0.5186015851219915,0.008875143448183461,0.00830734696977131,0.24381996236565678
7098,10.0,299.81914,-6428.7728,0.0,0.0709800221119159,0.0,0.0,0.0,0.0,0.4080855354524066,1.043913682476259,0.5021872172120195,0.007083910802152563,-0.001051355092535669,0.2382781327987208
7099,10.0,300.24072,-6385.8331,0.0,0.07099001809933547,0.0,0.0,0.0,0.0,0.4057172254636726,1.033080012407059,0.5023365905417615,-0.001834263148627678,0.015168642773278486,0.24421688282732973
7100,10.0,299.84155,-6338.3966,0.0,0.07100001408675483,0.0,0.0,0.0,0.0,0.39524588349773165,1.035454969316449,0.49601349448522053,-0.007632398887984122,0.0038280724553513366,0.25106846987102877
7101,10.0,299.64595,-6357.7782,0.0,0.07101001007417396,0.0,0.0,0.0,0.0,0.3851045469568596,1.039077541073969,0.5084237107825135,-0.011599569607788388,-0.01203817821832569,0.2432804472174108
7102,10.0,299.37509,-6341.0266,0.0,0.07102000606159309,0.0,0.0,0.0,0.0,0.39251331009804763,1.037461103189439,0.4975393174133075,-0.007472977460975453,-0.005821290530641645,0.2500448035600008
7103,10.0,299.6974,-6243.0814,0.0,0.07103000204901244,0.0,0.0,0.0,0.0,0.3753717123263036,1.0238908472501589,0.4984783368109816,-0.01072880678985079,0.001253908144501099,0.24668095508301477
7104,10.0,300.04644,-6219.871999999999,0.0,0.07104003102648937,0.0,0.0,0.0,0.0,0.3974180282671056,1.024251969585799,0.46901577994325355,0.01094558050299469,0.0018951491444866584,0.25194239808227875
7105,10.0,300.09141,-6370.3842,0.0,0.0710500270139085,0.0,0.0,0.0,0.0,0.4067268683933166,1.0344248992647889,0.4952859910459215,-0.0001271969935483659,0.0072998619588652836,0.23550188831972677
7106,10.0,300.17897,-6511.9545,0.0,0.07106002300132808,0.0,0.0,0.0,0.0,0.4238542806636606,1.048726417801239,0.5068909166937384,0.01429768439807159,0.007047292247513594,0.24581808143035577
7107,10.0,300.4539,-6446.352,0.0,0.07107001898874721,0.0,0.0,0.0,0.0,0.40685445684590865,1.0298353829368392,0.5228401926753095,-0.003708081250684127,0.004331298760540905,0.22261678196556578
7108,10.0,300.60233999999997,-6311.5852,0.0,0.07108001497616678,0.0,0.0,0.0,0.0,0.3954966223674776,1.018397613158019,0.5046700953895605,0.01028682810948089,-0.008782876083477381,0.22164357550951777
7109,10.0,300.39312,-6340.2399,0.0,0.07109001096358591,0.0,0.0,0.0,0.0,0.3892573524917096,1.0221724764055689,0.5158447545149135,-0.012606259926640988,-0.006112797720811164,0.24241877933237074
7110,10.0,300.20762,-6361.4714,0.0,0.07110000695100505,0.0,0.0,0.0,0.0,0.4206261773025716,1.026291439387079,0.48681083283698856,-0.0005801641179402405,-0.011344235648838888,0.23433795779735578
7111,10.0,299.66506,-6257.3573,0.0,0.0711100029384244,0.0,0.0,0.0,0.0,0.3999800311449556,1.0097359460031792,0.4923644059725835,0.004530668889967206,0.004995921823809095,0.25418202530831274
7112,10.0,299.50715,-6226.8591,0.0,0.07112003191590133,0.0,0.0,0.0,0.0,0.39968828604366263,1.011750084551959,0.4813712908676475,0.011658586359862888,3.0794320110162766e-05,0.23932081781412579
7113,10.0,299.6589,-6202.5658,0.0,0.07113002790332068,0.0,0.0,0.0,0.0,0.37856407835636563,1.022023123340829,0.4848379234347775,-0.005229871443373125,0.003194697214567067,0.25679298843099474
7114,10.0,300.2349,-6386.3583,0.0,0.07114002389074003,0.0,0.0,0.0,0.0,0.3983531061218906,1.0332558112994088,0.5096845181469455,0.009046414024511552,-0.00978111214747061,0.23754713364657679
7115,10.0,299.55768,-6565.0733,0.0,0.07115001987815917,0.0,0.0,0.0,0.0,0.4051026791455216,1.0617986613163688,0.5287170128578065,-0.012060679463296387,0.005846577605437285,0.25292713532446476
7116,10.0,299.74458,-6454.1004,0.0,0.07116001586557874,0.0,0.0,0.0,0.0,0.4203529037506016,1.0418422952968291,0.49969012313557554,0.003217744297366637,-0.009878894632470991,0.24692967758506174
7117,10.0,300.28067000000004,-6286.880999999999,0.0,0.07117001185299787,0.0,0.0,0.0,0.0,0.3815691653704446,1.026562990413879,0.5029227253271086,-0.01809591116642738,-6.976001591677754e-05,0.2528378781231557
7118,10.0,299.96797999999995,-6253.9719,0.0,0.071180007840417,0.0,0.0,0.0,0.0,0.3980640157358596,1.0333998954636292,0.4695873340596615,4.162075658689886e-05,0.006207298998012714,0.25207749471811175
7119,10.0,300.8048,-6239.0574,0.0,0.07119000382783658,0.0,0.0,0.0,0.0,0.3716731772087867,1.027871298942999,0.49697319431743553,-0.005236548660207115,0.008552275660793893,0.24093273660320977
7120,10.0,301.16071,-6218.5028,0.0,0.07120003280531328,0.0,0.0,0.0,0.0,0.38851271499321965,1.009886707485558,0.4918701628388056,0.006517681821645114,-0.004695139544874195,0.24754471026326078
7121,10.0,300.41706,-6292.4398,0.0,0.07121002879273264,0.0,0.0,0.0,0.0,0.37943667920998464,1.042609730922569,0.49069816684563855,0.0018408692353046481,-0.00046479431658162754,0.23867983580086577
7122,10.0,300.77201,-6302.1230000000005,0.0,0.07122002478015199,0.0,0.0,0.0,0.0,0.4015057324830306,1.026143707522499,0.48803856771815657,0.001889548911183958,-0.007904616430699903,0.25708945527775373
7123,10.0,300.5995,-6504.4428,0.0,0.07123002076757112,0.0,0.0,0.0,0.0,0.4233738582612466,1.039021204368409,0.5147931427661275,-0.008456603674426803,0.01141247095032319,0.23832861291870278
7124,10.0,300.7155,-6654.5796,0.0,0.07124001675499048,0.0,0.0,0.0,0.0,0.4485366072696166,1.049172247845239,0.5251172088300334,-0.008173006826462973,0.00015564524653598983,0.23158266733042976
7125,10.0,300.27724,-6446.3348,0.0,0.07125001274240983,0.0,0.0,0.0,0.0,0.40395968237021657,1.025607900869619,0.5299572208477055,-0.005718268326724145,-0.007069721653052202,0.22611720642353075
7126,10.0,299.63674,-6312.0522,0.0,0.07126000872982918,0.0,0.0,0.0,0.0,0.39346417438939063,1.032474595472309,0.4927675275248685,-0.004775755749330396,-0.015724828925419786,0.2293343565510388
7127,10.0,299.39473,-6332.0124,0.0,0.07127000471724854,0.0,0.0,0.0,0.0,0.3931496210283466,1.0272750012591492,0.5043490369628746,0.007928259608533304,-0.0010209872777635991,0.23440888530435575
7128,10.0,300.15654,-6373.8635,0.0,0.07128000070466767,0.0,0.0,0.0,0.0,0.42073883044868965,1.031076006359279,0.48568054221793755,0.005880593525869395,-0.0033410821657891368,0.24260291727304376
7129,10.0,299.85657000000003,-6366.4327,0.0,0.0712900296821446,0.0,0.0,0.0,0.0,0.4074958340267076,1.0392945792453891,0.4884461273058795,0.012371790813750689,0.014824084037023186,0.25784313096713574
7130,10.0,300.64527000000004,-6289.9577,0.0,0.07130002566956395,0.0,0.0,0.0,0.0,0.4092138502337626,1.014163240990119,0.48861302986235156,0.01038851788951689,0.012673873092563886,0.24020766496415077
7131,10.0,300.09755,-6295.8099,0.0,0.07131002165698308,0.0,0.0,0.0,0.0,0.36504674446980867,1.046503752381879,0.5022184759776046,0.00011228811263697388,0.02409925284916108,0.2591829414418647
7132,10.0,300.28393,-6295.3706,0.0,0.07132001764440243,0.0,0.0,0.0,0.0,0.3937568618132766,1.025283559512609,0.49459503553772954,-0.004722485341223016,-0.008192908882277151,0.24482989913782977
7133,10.0,300.92205,-6372.6384,0.0,0.07133001363182179,0.0,0.0,0.0,0.0,0.3976314491356686,1.043501897635619,0.4959896121803635,-0.014330281667038685,-0.017359606636759783,0.25865964842771977
7134,10.0,300.23717,-6320.6242,0.0,0.07134000961924114,0.0,0.0,0.0,0.0,0.4099878415876496,1.0319642213969389,0.4793598272991315,-0.0015359510721115685,-0.015551695894082883,0.24984141386742775
7135,10.0,299.73779,-6115.5188,0.0,0.0713500056066605,0.0,0.0,0.0,0.0,0.3744808223083796,1.0132960002295293,0.47118817802515256,-0.004603204120900876,-0.002418440030806448,0.25002027277507977
7136,10.0,300.18322,-6185.8454,0.0,0.07136000159407963,0.0,0.0,0.0,0.0,0.38792452331016963,1.015237590071149,0.47718039726153855,0.002998487006902627,0.005893070890250814,0.2294437267668328
7137,10.0,299.92567,-6506.0157,0.0,0.07137003057155655,0.0,0.0,0.0,0.0,0.38410006147022463,1.059289651418749,0.5342766148314965,-0.003421384161389327,0.003436956903501237,0.2393163797786878
7138,10.0,300.13853,-6553.5183,0.0,0.0713800265589759,0.0,0.0,0.0,0.0,0.41697620726234763,1.035535117399359,0.5395945667888374,0.013509722351805788,-0.0003667344239688697,0.2283355553974648
7139,10.0,299.93619,-6348.4448,0.0,0.07139002254639504,0.0,0.0,0.0,0.0,0.3920244979848056,1.038334322125619,0.49940983789291354,0.007652944661586832,0.007697940261427553,0.24831269304405476
7140,10.0,299.77389,-6319.6123,0.0,0.07140001853381439,0.0,0.0,0.0,0.0,0.4139903112051626,1.022842336046679,0.48417168109652453,0.0014254381128547887,0.00855773525498271,0.2368550534307738
7141,10.0,299.42644,-6355.8123,0.0,0.07141001452123374,0.0,0.0,0.0,0.0,0.42534755799853563,1.0162180108679089,0.4904426353029196,-0.017186118967887885,-0.003973858373114285,0.24824956756282474
7142,10.0,299.21765,-6464.0973,0.0,0.0714200105086531,0.0,0.0,0.0,0.0,0.43117585363374356,1.032945148818749,0.5008032290329305,-0.011679240449901289,0.013955580766808588,0.23108335794615179
7143,10.0,299.27345,-6358.6178,0.0,0.07143000649607245,0.0,0.0,0.0,0.0,0.38631435744375864,1.027487682455139,0.5190590168796365,-0.012790703868844188,0.009678611868679621,0.23928022701511978
7144,10.0,299.60937,-6245.7721,0.0,0.07144000248349158,0.0,0.0,0.0,0.0,0.38475283771464863,1.0228827647256689,0.4909231995603476,0.003762658650095496,0.011558384030973689,0.2224351163551368
7145,10.0,300.03623,-6311.2646,0.0,0.07145003146096829,0.0,0.0,0.0,0.0,0.3983798153945266,1.015270723349419,0.5048162567164856,-0.006505205267863775,-0.014539446885181686,0.24530160758938377
7146,10.0,300.27637000000004,-6550.2862,0.0,0.07146002744838786,0.0,0.0,0.0,0.0,0.4416890833588186,1.0360057720708091,0.5134285684589545,0.006840444332349295,-0.002854473871514637,0.23118664866134578
7147,10.0,300.77143,-6514.6023,0.0,0.071470023435807,0.0,0.0,0.0,0.0,0.42172648585116357,1.0503700107884488,0.5081799228084535,0.006571594934290924,-0.0012273879443337587,0.2536060027589638
7148,10.0,299.83919,-6342.4777,0.0,0.07148001942322635,0.0,0.0,0.0,0.0,0.39587490915981166,1.029998617527949,0.5020813325765695,0.0023323989866398578,0.008323012525592382,0.23857284672280676
7149,10.0,299.78737,-6271.2183,0.0,0.0714900154106457,0.0,0.0,0.0,0.0,0.35989681977655064,1.047754204330289,0.4986427265072055,-0.013416753615380488,-0.009103106988806712,0.25505943909990675
7150,10.0,300.05032,-6289.9375,0.0,0.07150001139806506,0.0,0.0,0.0,0.0,0.39445213376689464,1.0209638716862892,0.49656796520494256,-0.004088998845577767,-0.006291131663586354,0.24340414478961875
7151,10.0,300.29625,-6383.9793,0.0,0.07151000738548441,0.0,0.0,0.0,0.0,0.3976961755520566,1.0407961145685791,0.5020780293812435,0.006225074039216974,-0.006541290751625134,0.25617781389778177
7152,10.0,300.20745,-6397.6874,0.0,0.07152000337290354,0.0,0.0,0.0,0.0,0.4188949077842086,1.0359534883656492,0.4898888637257665,0.007439114136008403,-0.0032163385141778973,0.24785931428680977
7153,10.0,300.09817000000004,-6306.1073,0.0,0.07153003235038025,0.0,0.0,0.0,0.0,0.4022221813637386,1.024191985179879,0.4904849688920975,0.012812218208217487,-0.014793491990003987,0.26132283446055576
7154,10.0,299.95392999999996,-6342.8341,0.0,0.07154002833779982,0.0,0.0,0.0,0.0,0.4019598002503436,1.0230095223131792,0.5030939037990025,0.008136726596032392,-0.001890514741179278,0.24964696104073675
7155,10.0,299.83491000000004,-6527.7259,0.0,0.07155002432521895,0.0,0.0,0.0,0.0,0.3985146080553296,1.0584080225067392,0.5273430051922025,0.015398252338689185,0.010019228656745881,0.24467443617498677
7156,10.0,300.20682999999997,-6581.7517,0.0,0.0715600203126383,0.0,0.0,0.0,0.0,0.43277983867454456,1.037011524120069,0.5308968279304376,-0.006757681354906224,0.016510097752919783,0.21536866962773277
7157,10.0,299.28083,-6422.7249,0.0,0.07157001630005766,0.0,0.0,0.0,0.0,0.4072586524432996,1.031321111558469,0.5137682098924745,-0.007349045220044294,-0.01102254394084039,0.23085854814646475
7158,10.0,299.51203,-6328.0184,0.0,0.07158001228747679,0.0,0.0,0.0,0.0,0.42087072521420654,1.022689841906629,0.4799990563897185,-0.01749746539236538,-0.002063792464630458,0.2167418768257578
7159,10.0,299.48741,-6375.2638,0.0,0.07159000827489637,0.0,0.0,0.0,0.0,0.4072038052153866,1.031947604095299,0.4987696158172285,-0.0025528562691972977,-0.012189944844803888,0.24203045123154576
7160,10.0,300.39968,-6492.3171,0.0,0.0716000042623155,0.0,0.0,0.0,0.0,0.41853932792661563,1.037588063426969,0.5173749040209276,0.005879207399732594,-0.005174971931754964,0.24233871230946877
7161,10.0,299.95185,-6424.3572,0.0,0.07161000024973485,0.0,0.0,0.0,0.0,0.38885822314481866,1.041649980427849,0.5223359386305435,0.008410313647583332,-0.018317100623507082,0.25460525987508276
7162,10.0,300.0837,-6329.7999,0.0,0.07162002922721156,0.0,0.0,0.0,0.0,0.41209528020563757,1.021454082084669,0.49055174207368757,0.012656301309329687,0.0012634905520218088,0.24012675694366575
7163,10.0,300.00108,-6226.736999999999,0.0,0.07163002521463091,0.0,0.0,0.0,0.0,0.37879016485117867,1.0231334428004089,0.49084896885802154,0.005679068010830375,0.004302819542630226,0.2555666113049607
7164,10.0,300.80529,-6288.5711,0.0,0.07164002120205049,0.0,0.0,0.0,0.0,0.4178994098259606,1.0111082210111122,0.4825609680750595,-0.011052270672274189,0.011779179333764489,0.23661434573701776
7165,10.0,299.78394,-6502.7651,0.0,0.07165001718946962,0.0,0.0,0.0,0.0,0.39691592231255163,1.0614579053077389,0.5183043988676616,-0.011955421016408188,-0.004547126300741426,0.25572084823518276
7166,10.0,299.56282000000004,-6506.9258,0.0,0.07166001317688875,0.0,0.0,0.0,0.0,0.4108266910804376,1.044995630933039,0.5221206635142975,-0.0038910404775157957,0.01214596371096329,0.24024467899030377
7167,10.0,299.45091,-6331.3907,0.0,0.0716700091643081,0.0,0.0,0.0,0.0,0.37322602351704065,1.0416442049022792,0.5097145103499056,0.004513831611730496,-0.0016472615605220584,0.2468081179705648
7168,10.0,299.59092999999996,-6295.9894,0.0,0.07168000515172746,0.0,0.0,0.0,0.0,0.3983281599044286,1.030264190379159,0.48523117593108855,-0.001136720400210569,0.00016368465653941784,0.23399602641860975
7169,10.0,299.74929,-6431.1505,0.0,0.07169000113914681,0.0,0.0,0.0,0.0,0.3983636439229306,1.046542863835739,0.5100026280158405,0.015647578737795785,-0.004714183479178686,0.24231650186727677
7170,10.0,300.47012,-6410.6434,0.0,0.07170003011662351,0.0,0.0,0.0,0.0,0.4422930716109276,1.023493247910919,0.4828892408424575,0.017392238356230286,0.012867752419698288,0.2335329711229098
7171,10.0,299.6852,-6337.6052,0.0,0.07171002610404287,0.0,0.0,0.0,0.0,0.3872639754374786,1.043131453399059,0.4960783323591196,0.01812284639383568,0.003980750297644466,0.26068945182304576
7172,10.0,300.31862,-6249.8092,0.0,0.07172002209146244,0.0,0.0,0.0,0.0,0.3962604204253586,1.014144090563229,0.48938140781068457,-0.0007427385867425913,-0.0036325861135583374,0.2541394181416078
7173,10.0,300.39315,-6279.5734,0.0,0.07173001807888157,0.0,0.0,0.0,0.0,0.3793779816316916,1.026432585126009,0.5030229357619985,-0.007717011857459773,-0.020405243919840783,0.25174028508483176
7174,10.0,299.98492999999996,-6472.6849,0.0,0.0717400140663007,0.0,0.0,0.0,0.0,0.42538925324015053,1.0344004799373792,0.5077448838780185,-0.0073549028188723935,0.004971872535335616,0.24385767553437876
7175,10.0,299.87842,-6436.0478,0.0,0.07175001005372006,0.0,0.0,0.0,0.0,0.41633437411900365,1.019447036286589,0.5206164126808395,-0.0073847974458477635,-0.004217560423565805,0.22831707371564078
7176,10.0,300.46968,-6323.4714,0.0,0.07176000604113941,0.0,0.0,0.0,0.0,0.4183956591949366,1.0125621133146,0.49121964614210456,-0.0028181773277574473,-0.0030736077481164667,0.22490930084681982
7177,10.0,299.45578,-6420.6633,0.0,0.07177000202855899,0.0,0.0,0.0,0.0,0.37999890129297165,1.0447110089799492,0.5270114089644765,0.0036884935050509665,-0.00920276378384207,0.22875145403351077
7178,10.0,300.03342999999995,-6487.8081,0.0,0.07178003100603547,0.0,0.0,0.0,0.0,0.40181073089563163,1.054426962863839,0.5158940187347755,0.015876368583875585,0.02828991644749737,0.23548376127543777
7179,10.0,300.15986000000004,-6534.2866,0.0,0.07179002699345483,0.0,0.0,0.0,0.0,0.4122949310053416,1.0465880547901991,0.5273770301305605,0.006644228146509263,0.01140787180811929,0.23854066589963077
7180,10.0,300.11832000000004,-6395.4573,0.0,0.0718000229808744,0.0,0.0,0.0,0.0,0.4200175382325036,1.031224548823939,0.49281720717727157,-0.005356285235124194,-0.0005491993975342605,0.25434482420187976
7181,10.0,300.77252000000004,-6179.7511,0.0,0.07181001896829353,0.0,0.0,0.0,0.0,0.3864329988979676,1.027597822741009,0.46445920437605454,-0.007434509623578972,0.0008961997625555302,0.26335618423123175
7182,10.0,300.48773,-6310.9085,0.0,0.07182001495571266,0.0,0.0,0.0,0.0,0.4066512090083496,1.030683067970499,0.4810243236359046,-0.008077462306958461,0.020238900677423982,0.26285562854933076
7183,10.0,300.72297000000003,-6435.9373,0.0,0.07183001094313202,0.0,0.0,0.0,0.0,0.3900411419740636,1.057962496437769,0.5083606055662855,-0.0024727642190178274,0.006333337076626704,0.26968496462083374
7184,10.0,300.50782000000004,-6283.9881,0.0,0.07184000693055137,0.0,0.0,0.0,0.0,0.39447920780956663,1.023165968128619,0.4925302750139536,-0.024831821525709976,-0.007037223175969854,0.24157865314445678
7185,10.0,299.5569,-6177.5128,0.0,0.07185000291797095,0.0,0.0,0.0,0.0,0.36700180040525765,1.022564705519279,0.48824310238334256,0.004920305299321326,-0.014802929401435384,0.24491011814824679
7186,10.0,299.49594,-6253.5804,0.0,0.07186003189544743,0.0,0.0,0.0,0.0,0.39510913526423563,1.0211656097811992,0.4846575243869735,0.005990799369020864,0.01027162125198009,0.2228423821003308
7187,10.0,299.904,-6513.4487,0.0,0.07187002788286678,0.0,0.0,0.0,0.0,0.4295054297838856,1.041573986670349,0.5088463373992236,0.012708043938936289,0.007228832721555243,0.23503146669579977
7188,10.0,299.85733,-6650.852,0.0,0.07188002387028614,0.0,0.0,0.0,0.0,0.4456546200101865,1.057198809837399,0.5188394759804695,-0.002846064199659667,-0.007299879386767003,0.2285329567819468
7189,10.0,300.25637,-6541.2322,0.0,0.07189001985770549,0.0,0.0,0.0,0.0,0.4013342196386036,1.0614488873818488,0.5255880965490065,0.004304219043668346,-0.0035112443478328365,0.24418508703919176
7190,10.0,300.75085,-6326.3587,0.0,0.07190001584512462,0.0,0.0,0.0,0.0,0.3929280130989756,1.031775047603269,0.49835198452351154,0.0020100662966280984,0.024617745084332274,0.24917696498185174
7191,10.0,300.57186,-6281.2354,0.0,0.07191001183254397,0.0,0.0,0.0,0.0,0.38672917190219763,1.0134568030203992,0.5091527340969625,-0.0023216622846052282,0.002468714967643198,0.24658392625343875
7192,10.0,300.47937,-6395.7824,0.0,0.07192000781996333,0.0,0.0,0.0,0.0,0.42795827794119357,1.024310231466549,0.4918896273732265,-0.018371632730638982,-0.013201098530346986,0.24461004413113174
7193,10.0,300.41139,-6291.0491,0.0,0.07193000380738268,0.0,0.0,0.0,0.0,0.4073038839277636,1.0083757793339412,0.49664218577476754,-0.003140451958538477,-0.017844904798654984,0.23536026635324975
7194,10.0,299.61196,-6161.503000000001,0.0,0.07194003278485961,0.0,0.0,0.0,0.0,0.3878896168442246,1.016017286023099,0.46903613613776257,0.011636406315173889,0.01865493137909838,0.2537267619058818
7195,10.0,299.88877,-6299.6292,0.0,0.07195002877227874,0.0,0.0,0.0,0.0,0.3798692660751776,1.025716217305309,0.5093444308833815,0.007557369643254312,0.018586214783816585,0.2352226669896698
7196,10.0,299.40367000000003,-6650.1309,0.0,0.0719600247596981,0.0,0.0,0.0,0.0,0.4331041395015506,1.072787966600929,0.5155816539939475,-0.008017871143402272,-0.008129280221047492,0.24843474915110075
7197,10.0,299.96841,-6675.8019,0.0,0.07197002074711745,0.0,0.0,0.0,0.0,0.4152414015011356,1.076927802534499,0.5371078990559225,-0.006215511288748204,-0.014804812020121186,0.23092659802318077
7198,10.0,299.47398,-6501.6828,0.0,0.07198001673453658,0.0,0.0,0.0,0.0,0.4252377216876956,1.050248420776449,0.5008630614513355,0.015057107242020785,0.0012933972366733688,0.2411902946461288
7199,10.0,300.14435,-6307.4306,0.0,0.07199001272195593,0.0,0.0,0.0,0.0,0.40115131786305264,1.038386808480799,0.4777632997790665,0.0068068226675310935,-0.001999274879088068,0.24837072187728176
7200,10.0,300.42771,-6255.8234,0.0,0.07200000870937528,0.0,0.0,0.0,0.0,0.3961582240202726,1.0134032020901091,0.49205272010932255,-0.0059848567585093744,-0.015937328749641884,0.24749471650332674
7201,10.0,300.69572,-6348.3451,0.0,0.07201000469679464,0.0,0.0,0.0,0.0,0.3827788643998326,1.039493581565029,0.5074659259929875,0.00048415530697490866,-0.0011719441147618789,0.26279443837579175
7202,10.0,300.04207,-6345.6667,0.0,0.07202000068421399,0.0,0.0,0.0,0.0,0.3818034693235687,1.039834945523719,0.5072857802577085,0.004051388521740916,0.017772919458550585,0.24488440186070878
7203,10.0,300.16805,-6163.2754,0.0,0.0720300296616907,0.0,0.0,0.0,0.0,0.3515975313874747,1.0245374021389688,0.49734686068931355,0.0012718275738446089,0.017802315870451783,0.26096312054255477
7204,10.0,299.93582000000004,-6200.4246,0.0,0.07204002564911005,0.0,0.0,0.0,0.0,0.4044559925341986,1.013876389886809,0.4664418612442276,-0.011063816657163689,-0.0063890591446760445,0.22709021022955878
7205,10.0,300.15423,-6602.6961,0.0,0.07205002163652918,0.0,0.0,0.0,0.0,0.4360170612865336,1.062314202967249,0.5087235416196045,-0.012591098665394687,-0.0026514094322237372,0.24507011033903675
7206,10.0,300.2397,-6757.1485,0.0,0.07206001762394854,0.0,0.0,0.0,0.0,0.45321154058099655,1.065581630564719,0.5352112063262335,0.01071264849050609,0.011250320536820188,0.23613378147958977
7207,10.0,299.5069,-6559.4228,0.0,0.07207001361136811,0.0,0.0,0.0,0.0,0.4149089136133216,1.057426183159839,0.5215655949770165,0.0034692518186384964,0.008729716322280923,0.25270029902457775
7208,10.0,299.54691,-6381.9205,0.0,0.07208000959878724,0.0,0.0,0.0,0.0,0.40360699027540864,1.032820924356489,0.5035165304157124,-0.012328179516196589,-0.021041363345870878,0.23465465924861176
7209,10.0,299.38196,-6339.4629,0.0,0.0720900055862066,0.0,0.0,0.0,0.0,0.4036663262012646,1.015365968858819,0.5080061098862996,-0.001080563749193339,-0.010255148845104391,0.2283227985787058
7210,10.0,299.07681,-6428.3835,0.0,0.07210000157362595,0.0,0.0,0.0,0.0,0.44142148400740855,1.022436833356659,0.4902097296349336,0.01163576999411109,0.01786627829626438,0.2137420992422028
7211,10.0,299.74457,-6461.7164,0.0,0.07211003055110266,0.0,0.0,0.0,0.0,0.41840596394845364,1.020626256752969,0.5251682259725685,0.01839364964206188,0.013931443122926386,0.23796172518999378
7212,10.0,299.80134,-6348.7388,0.0,0.07212002653852201,0.0,0.0,0.0,0.0,0.40164052514383364,1.0286615326959891,0.4995559890873375,0.00017983614684344583,-0.007134262745996914,0.24750065414891273
7213,10.0,299.64462000000003,-6240.1954,0.0,0.07213002252594114,0.0,0.0,0.0,0.0,0.38247256902710364,1.021285375943019,0.49310564908323856,-0.009208879558795652,-0.007758633537117513,0.2548256721693357
7214,10.0,299.72547000000003,-6423.6329,0.0,0.07214001851336072,0.0,0.0,0.0,0.0,0.38794370413456264,1.045877158520039,0.5188031914943885,-0.004539092848648586,0.0012951264492940288,0.25780944040131076
7215,10.0,300.38266,-6550.1068,0.0,0.07215001450078007,0.0,0.0,0.0,0.0,0.39951773578683064,1.068581762785809,0.5229694327255645,-0.0021053372386056076,0.0008205375303557492,0.2523166014767098
7216,10.0,300.14524,-6373.5442,0.0,0.0721600104881992,0.0,0.0,0.0,0.0,0.4165519898429806,1.031266902678119,0.48957944754272953,0.0027229594800851774,-0.015548275161745286,0.2295900400812728
7217,10.0,300.12596,-6219.3118,0.0,0.07217000647561855,0.0,0.0,0.0,0.0,0.3828585261226946,1.043455794756069,0.46420117010558853,0.008108951789591232,0.002954701025031287,0.2530905219030897
7218,10.0,299.64006,-6219.3983,0.0,0.07218000246303768,0.0,0.0,0.0,0.0,0.39732652165057464,1.0234148223531792,0.4698004813506976,0.01682264183901548,0.018467735449623584,0.24647157708235076
7219,10.0,300.35337000000004,-6324.5499,0.0,0.07219003144051461,0.0,0.0,0.0,0.0,0.38730114145114664,1.0367099808903089,0.49849414351254157,0.001991388956209788,0.018868489036424883,0.26429570012145476
7220,10.0,299.98183,-6459.5595,0.0,0.07220002742793397,0.0,0.0,0.0,0.0,0.4003742056988576,1.050890416039809,0.5122801203981115,-0.008897788675993373,-0.012506026186998687,0.25612012956958874
7221,10.0,299.86079,-6393.7533,0.0,0.0722100234153531,0.0,0.0,0.0,0.0,0.39835249817183066,1.034761906248049,0.5104269670252195,-0.013682633481370787,-0.009207341850443891,0.24514116956854975
7222,10.0,300.03702999999996,-6263.3786,0.0,0.07222001940277245,0.0,0.0,0.0,0.0,0.4101245087611376,1.0081717006313,0.48561450870892053,-0.004316720320752126,-0.013894091684490087,0.2196128703216028
7223,10.0,299.55486,-6413.8218,0.0,0.07223001539019203,0.0,0.0,0.0,0.0,0.4011445696173866,1.033392093437859,0.5151049502194005,0.0044964491036149756,0.0017847970893457583,0.24219548940783375
7224,10.0,300.17807999999997,-6602.5311,0.0,0.07224001137761116,0.0,0.0,0.0,0.0,0.4373335163464576,1.0410459820432392,0.5286250502787305,0.005433182710388384,-0.015373074086954285,0.22918472990877178
7225,10.0,300.80335,-6522.9274,0.0,0.07225000736503051,0.0,0.0,0.0,0.0,0.4084945541202736,1.055525427297249,0.5187870706852975,0.01032760230675499,0.007518765118419343,0.2456530635190698
7226,10.0,300.233,-6441.1242,0.0,0.07226000335244964,0.0,0.0,0.0,0.0,0.4116682763484956,1.037739037691869,0.5085335673583555,0.009554941147599272,0.01008959077019008,0.2378759333040268
7227,10.0,300.00843,-6342.9158,0.0,0.07227003232992657,0.0,0.0,0.0,0.0,0.4008159523449546,1.030641727366419,0.4966303307485975,-0.007292375661826443,0.006616762887973655,0.2296091803756618
7228,10.0,299.77292,-6372.8169,0.0,0.07228002831734592,0.0,0.0,0.0,0.0,0.4271860496424806,1.0248293194927791,0.48516182909424455,-0.011559690110352589,-0.017650376991456582,0.2161039750928018
7229,10.0,299.4335,-6482.6689,0.0,0.07229002430476505,0.0,0.0,0.0,0.0,0.4097884542329716,1.044482419757389,0.5162986398972086,-0.013501952750038985,-0.00926472250758192,0.22766205818849578
7230,10.0,299.7437,-6389.3647,0.0,0.07230002029218441,0.0,0.0,0.0,0.0,0.3995358425661176,1.042501921111929,0.5001695322878896,-0.0005653458722502935,0.012531054477718788,0.26000512297050776
7231,10.0,299.68416,-6358.8439,0.0,0.07231001627960376,0.0,0.0,0.0,0.0,0.37879284996394363,1.0523576021846088,0.5017792725892586,-0.011256398010919991,0.008457808935420752,0.2759652812581528
7232,10.0,299.99517000000003,-6352.4339,0.0,0.07232001226702311,0.0,0.0,0.0,0.0,0.39305718222172364,1.043535030913889,0.4943890417923995,0.0014082057684040887,-0.0090915548230916,0.26666607714039275
7233,10.0,300.89605,-6412.7895,0.0,0.07233000825444247,0.0,0.0,0.0,0.0,0.4072404950015076,1.062432550578929,0.47965479453574256,-0.006680725719086294,0.0005566442729090125,0.2662279680621547
7234,10.0,300.76828,-6438.5101,0.0,0.0723400042418616,0.0,0.0,0.0,0.0,0.4136579043773566,1.046504562981959,0.49698378278098054,0.023197395412154678,-0.005104329249358075,0.23256665476754176
7235,10.0,300.23567,-6275.3291,0.0,0.07235000022928095,0.0,0.0,0.0,0.0,0.36921724135140466,1.042728787809319,0.4955973324041485,0.008742242120017122,0.0028496388446874574,0.24413723123696876
7236,10.0,300.00663,-6331.0051,0.0,0.07236002920675788,0.0,0.0,0.0,0.0,0.38578510651902564,1.047276254258119,0.49140610442550653,0.0026387010468195173,-0.030613689028085866,0.23369537484893776
7237,10.0,299.10192,-6533.8866,0.0,0.07237002519417723,0.0,0.0,0.0,0.0,0.4007240404283836,1.053872917709159,0.5315413968490516,-0.00990196522267288,-0.0059063210604835045,0.25148085252922775
7238,10.0,299.66649,-6512.9292,0.0,0.07238002118159637,0.0,0.0,0.0,0.0,0.42687136455892355,1.053863291833209,0.4990332229632445,0.0017538472637162485,-0.006464654492236724,0.23698432387853177
7239,10.0,299.87084,-6413.5772,0.0,0.07239001716901572,0.0,0.0,0.0,0.0,0.4205629707613336,1.035217362167999,0.4937870091129835,0.006874905373550333,0.024500323583243677,0.25478198082502374
7240,10.0,299.84282,-6376.7165,0.0,0.07240001315643507,0.0,0.0,0.0,0.0,0.4260543607382916,1.020227137538579,0.49208105058211854,0.000970500419668434,-0.0018205591436751983,0.2182665547812318
7241,10.0,300.0591,-6462.9259,0.0,0.07241000914385443,0.0,0.0,0.0,0.0,0.3985913617504046,1.051627758137579,0.5143489845847925,0.006590926935598843,0.006385590586933723,0.24600935265173277
7242,10.0,300.04204,-6483.1262,0.0,0.07242000513127356,0.0,0.0,0.0,0.0,0.4089213857248986,1.028669436046769,0.5331176796321185,0.007853244144004854,-0.0017768627331126985,0.22974917100947778
7243,10.0,300.36694,-6406.5335,0.0,0.07243000111869291,0.0,0.0,0.0,0.0,0.37931769325074166,1.049582512810729,0.5185259662670285,0.0025175466310375077,0.010794914266125092,0.2604827792001488
7244,10.0,300.53209,-6351.4021,0.0,0.07244003009616984,0.0,0.0,0.0,0.0,0.4077878020430226,1.0272526084319389,0.4956272131495975,-0.013761428875397287,-0.0028305819407816873,0.24372163657595275
7245,10.0,300.40514,-6449.3259,0.0,0.07245002608358919,0.0,0.0,0.0,0.0,0.42892386475648964,1.032483106773149,0.4990271029326406,-0.02024686988946048,-0.0056953744473396935,0.25016226964409377
7246,10.0,299.72195,-6493.941999999999,0.0,0.07246002207100832,0.0,0.0,0.0,0.0,0.4239425246148696,1.0513135492815688,0.4987400897093145,-0.016078101612535086,0.0020256206989131983,0.2403537047010638
7247,10.0,299.62518,-6416.8007,0.0,0.07247001805842768,0.0,0.0,0.0,0.0,0.3945059880097096,1.043666145476829,0.5123750315349785,0.0034231886584924166,-0.004183339927938507,0.2362886060948698
7248,10.0,299.48555,-6418.0687,0.0,0.07248001404584703,0.0,0.0,0.0,0.0,0.3896953703774386,1.0476077896908391,0.5136294148937766,0.005216790080607095,-0.014203512933777588,0.2340136975003538
7249,10.0,299.76292,-6376.5554,0.0,0.07249001003326638,0.0,0.0,0.0,0.0,0.37372787615906966,1.051192465894619,0.5133933174879755,0.010252426242085689,-0.016662521978712885,0.2588573436547308
7250,10.0,299.31816000000003,-6423.9785,0.0,0.07250000602068574,0.0,0.0,0.0,0.0,0.4078712533212586,1.038803355596909,0.5060544382061845,0.005701330635402525,-0.01077775284918139,0.2467903962263158
7251,10.0,299.73483999999996,-6425.9881,0.0,0.07251000200810487,0.0,0.0,0.0,0.0,0.40728014347792063,1.052160727690179,0.49389903404403956,-0.002832036359975227,0.014297470602300487,0.26161894666977975
7252,10.0,300.41757,-6301.9288,0.0,0.0725200309855818,0.0,0.0,0.0,0.0,0.40148302554828963,1.027925811798379,0.4862201586911935,-0.0045085869278878865,0.0039695970484937265,0.24997254869536978
7253,10.0,300.47713,-6258.2769,0.0,0.07253002697300115,0.0,0.0,0.0,0.0,0.38650168712224664,1.0181421728078088,0.49771602823074756,-0.008432427729690821,0.005788350884465754,0.24902461269681575
7254,10.0,300.40552,-6426.8017,0.0,0.07254002296042028,0.0,0.0,0.0,0.0,0.38981677800442066,1.0510069398013089,0.5127635116233186,-0.009544764063594871,-0.006659464084287934,0.2406167950895288
7255,10.0,300.34868,-6456.2921,0.0,0.07255001894783963,0.0,0.0,0.0,0.0,0.3926309281696556,1.039276239418579,0.5306443969330245,-0.01167077474531579,0.005770107215090244,0.25278491554042876
7256,10.0,300.29677000000004,-6482.6446,0.0,0.07256001493525877,0.0,0.0,0.0,0.0,0.4257444683277076,1.039048359471089,0.5057692184355356,-0.0033839004938149768,-0.007686029709152072,0.2254233023575478
7257,10.0,300.37563,-6556.1727,0.0,0.07257001092267834,0.0,0.0,0.0,0.0,0.4358984603623286,1.051813486880909,0.5052008661894436,0.006902584326532034,0.0038181425030463264,0.23830491299886375
7258,10.0,299.6006,-6548.276999999999,0.0,0.0725800069100977,0.0,0.0,0.0,0.0,0.44004275459633857,1.040472786461669,0.5099971665978015,0.011143382121266188,0.008121579013662443,0.2294394913814148
7259,10.0,299.64423999999997,-6478.9896,0.0,0.07259000289751683,0.0,0.0,0.0,0.0,0.4135113276178906,1.050248927401499,0.5056907827452944,0.011644951053267188,0.00015939731165628984,0.22683199357407477
7260,10.0,299.71423,-6428.8802,0.0,0.07260003187499375,0.0,0.0,0.0,0.0,0.3979673922063236,1.033648243063139,0.5226034265244425,-0.00014956649574106385,-0.009928037667621032,0.23359490096902177
7261,10.0,299.63187,-6475.7594,0.0,0.0726100278624131,0.0,0.0,0.0,0.0,0.3908229454862216,1.052424375366199,0.5252218370353595,-0.004748778674692965,-0.017514474821794083,0.24724078589576576
7262,10.0,299.39108999999996,-6376.6838,0.0,0.07262002384983224,0.0,0.0,0.0,0.0,0.41372255986623757,1.039161944807299,0.48546818526197955,0.0018037453728408082,-0.0008028349466661403,0.2613023262785317
7263,10.0,299.9493,-6346.7011,0.0,0.07263001983725159,0.0,0.0,0.0,0.0,0.3979707663291566,1.036401750209889,0.4948661913969905,-0.01168141589786599,0.006161321153525055,0.25787232270251675
7264,10.0,300.12633999999997,-6412.3556,0.0,0.07264001582467072,0.0,0.0,0.0,0.0,0.4209900556784836,1.043225280358319,0.48498068024136654,-0.02029585850529528,0.004058239713617077,0.2657478597672717
7265,10.0,300.39785,-6367.6426,0.0,0.07265001181209008,0.0,0.0,0.0,0.0,0.3974679916295366,1.034597354431809,0.5035390347004335,-0.006764033217133103,0.011637576619039388,0.24707025590393575
7266,10.0,299.81932,-6367.4083,0.0,0.07266000779950965,0.0,0.0,0.0,0.0,0.38168370316174866,1.044416761150909,0.5094326545695885,-0.007966138544971663,0.008839496701715402,0.24734637668868675
7267,10.0,299.64079,-6378.2546,0.0,0.07267000378692878,0.0,0.0,0.0,0.0,0.37803983288712667,1.049849402887069,0.5109408570784365,0.012164296445022588,-0.0015652545689785985,0.24170035461396777
7268,10.0,299.91335,-6417.3319,0.0,0.07268003276440571,0.0,0.0,0.0,0.0,0.40569713271418967,1.049128982065969,0.49588255217479754,0.001189308992325659,-0.01014896428762479,0.23202543735912778
7269,10.0,299.7614,-6491.6644,0.0,0.07269002875182484,0.0,0.0,0.0,0.0,0.4090743256949926,1.048577064736499,0.5156525004409395,0.004659365534193575,-0.013510123598845387,0.24098480752584875
7270,10.0,299.97433,-6480.7928,0.0,0.0727000247392442,0.0,0.0,0.0,0.0,0.4247471363867786,1.0477228949021988,0.4975291747798065,-0.0009467143634384331,-0.0025600095109282674,0.24590834174926374
7271,10.0,299.82632,-6376.7449,0.0,0.07271002072666355,0.0,0.0,0.0,0.0,0.3945258781091726,1.028067261512339,0.5157780725258325,0.006620966153363484,0.0045705435238025255,0.25414692632484875
7272,10.0,300.00445,-6325.7963,0.0,0.07272001671408268,0.0,0.0,0.0,0.0,0.3909680327680406,1.029119217766159,0.5027968290021835,0.0014515258578794489,-0.004516661315284766,0.2543820307455517
7273,10.0,299.65809,-6392.121999999999,0.0,0.07273001270150226,0.0,0.0,0.0,0.0,0.40396163794290957,1.031222218348709,0.5078616001570375,-0.0010810406860154089,-0.0031630093375647167,0.25625905629079976
7274,10.0,299.02403,-6436.9681,0.0,0.07274000868892161,0.0,0.0,0.0,0.0,0.42481747620872057,1.026266817409649,0.5055932270256666,0.007250885400706674,0.0025927772085621876,0.24926214891775877
7275,10.0,299.42264,-6383.4738,0.0,0.07275000467634074,0.0,0.0,0.0,0.0,0.40262060143555956,1.036001617745399,0.5017944308107545,0.01142902847020729,-0.004105943832300106,0.24168579421003075
7276,10.0,299.94685,-6318.3103,0.0,0.0727600006637601,0.0,0.0,0.0,0.0,0.4100474105610286,1.013310895005999,0.49725021689477555,-0.004211781554270476,0.00964873203515571,0.23860363939334578
7277,10.0,299.98066,-6435.795,0.0,0.0727700296412368,0.0,0.0,0.0,0.0,0.3951469598904686,1.040161516030949,0.5210125022774305,-0.01241846212660679,0.0004428307629089937,0.22437824633690878
7278,10.0,299.86734,-6511.4821,0.0,0.07278002562865615,0.0,0.0,0.0,0.0,0.41569101096800865,1.039801710920439,0.5238352752010165,-0.01028714019051169,0.022384638122691775,0.23671196225165175
7279,10.0,300.37153,-6534.6613,0.0,0.0727900216160755,0.0,0.0,0.0,0.0,0.4184640029141816,1.045447033852589,0.5224628076755645,-0.005519239257281505,0.0005688492553985505,0.23293304600370177
7280,10.0,300.16699,-6429.2639,0.0,0.07280001760349486,0.0,0.0,0.0,0.0,0.4087621433391826,1.048552037459029,0.4970214452871975,0.0013327536944075487,-0.008011367192335382,0.25438069325541973
7281,10.0,300.31703,-6258.4525,0.0,0.07281001359091421,0.0,0.0,0.0,0.0,0.3891504850036626,1.024028851913779,0.48923396978863354,0.004197613683422216,-0.013534219699473488,0.25302702151932277
7282,10.0,299.44456,-6353.4634,0.0,0.07282000957833334,0.0,0.0,0.0,0.0,0.4046864562694436,1.036250573294969,0.49035716765698456,0.010009511790936901,0.0034346386885974467,0.26260018819912073
7283,10.0,299.68548,-6316.3394,0.0,0.0728300055657527,0.0,0.0,0.0,0.0,0.38214250280702866,1.0361497549100191,0.5017171907556315,0.012772192802767288,-0.0010401839088581592,0.26926430370931775
7284,10.0,299.84279,-6207.3539,0.0,0.07284000155317205,0.0,0.0,0.0,0.0,0.38727382422845064,1.017492983468739,0.4821138309384305,0.003428280341569927,0.0026834097955569275,0.26301711021776775
7285,10.0,299.16143999999997,-6298.0807,0.0,0.07285003053064876,0.0,0.0,0.0,0.0,0.39779952706225663,1.031146933866279,0.48551274800137756,-0.0057182124966436345,-0.01178346842143779,0.25763920425200976
7286,10.0,299.15296,-6432.2803,0.0,0.07286002651806811,0.0,0.0,0.0,0.0,0.4125813565436096,1.046524726658949,0.49614648356084556,-0.006018986872227755,0.00891932925854426,0.24493573311077477
7287,10.0,300.03885,-6541.2464,0.0,0.07287002250548746,0.0,0.0,0.0,0.0,0.41950000047892666,1.047752177830089,0.5211234025008755,-0.0014205843409007587,-0.010914620646189189,0.23441131710459578
7288,10.0,300.20545,-6605.1006,0.0,0.07288001849290682,0.0,0.0,0.0,0.0,0.43202703438024864,1.053393954386889,0.5223647048008825,-0.0025641886609657173,-0.007402604809730213,0.2300841616250388
7289,10.0,300.27518,-6552.215999999999,0.0,0.07289001448032617,0.0,0.0,0.0,0.0,0.4022752047414716,1.064079183316439,0.5253556063135615,-0.003661747451436337,-0.0032150563475013567,0.2277396528811538
7290,10.0,300.03197,-6447.3263,0.0,0.0729000104677453,0.0,0.0,0.0,0.0,0.4123444485377286,1.031421018018329,0.5160607490387304,0.008950404017911102,0.025424523184955077,0.23310476149814877
7291,10.0,300.26835,-6472.2101,0.0,0.07291000645516466,0.0,0.0,0.0,0.0,0.4163778932107986,1.039645163779989,0.5113672631180195,0.01048034064007909,0.017644751426901382,0.2335646250560338
7292,10.0,300.46751,-6505.1432,0.0,0.07292000244258401,0.0,0.0,0.0,0.0,0.42322590348164457,1.051690275668749,0.5024849404889026,-0.007275687635329463,0.006792905677407593,0.24433823979180674
7293,10.0,300.39862999999997,-6428.4152,0.0,0.07293003142006071,0.0,0.0,0.0,0.0,0.4141754218659316,1.0317596462017489,0.5081426554697756,-0.0014058079120424388,-0.0026012674338001074,0.24693388257297677
7294,10.0,299.7854,-6432.7318,0.0,0.07294002740747985,0.0,0.0,0.0,0.0,0.4136098155276106,1.042718959283349,0.49906111773849754,-0.009078970966124672,0.0014687345936028188,0.25280066144698277
7295,10.0,300.17747,-6494.479,0.0,0.07295002339489942,0.0,0.0,0.0,0.0,0.40533863469630865,1.0454960751574291,0.5233247187406285,0.006696656543783544,-0.005116398273949195,0.2530651399880848
7296,10.0,299.74724,-6456.3067,0.0,0.07296001938231877,0.0,0.0,0.0,0.0,0.4154643367881376,1.044430541352269,0.5026611041512885,-0.009646884880223411,-0.007232387101581034,0.2518094292716557
7297,10.0,299.27416,-6434.0864,0.0,0.07297001536973813,0.0,0.0,0.0,0.0,0.40111173018164564,1.0588451385998792,0.4958447174160635,0.0006710341702284164,-0.0020991437473693577,0.24705795504772177
7298,10.0,299.20228,-6391.8909,0.0,0.07298001135715726,0.0,0.0,0.0,0.0,0.3954099489539236,1.0612811944902991,0.48628406437500055,0.004229006704645466,0.01955600557377748,0.25237489375496275
7299,10.0,299.72404,-6341.3742,0.0,0.07299000734457639,0.0,0.0,0.0,0.0,0.3955161071669006,1.0399986867398792,0.49210455798443853,0.01054418958188049,0.0015376469488039386,0.24600032459334176
7300,10.0,300.03222,-6402.5461,0.0,0.07300000333199597,0.0,0.0,0.0,0.0,0.3981695558662756,1.040716371785709,0.5073282354368985,-0.0012772709560318288,-0.0032513883550120467,0.24942990260431477
7301,10.0,300.1626,-6432.5334,0.0,0.07301003230947267,0.0,0.0,0.0,0.0,0.38731124355464364,1.0452022326284292,0.5228160367929254,-0.008551889713830802,-0.023586033567510278,0.24795256369351273
7302,10.0,300.37807000000004,-6397.1423,0.0,0.07302002829689203,0.0,0.0,0.0,0.0,0.4044759434286676,1.036581095477589,0.5035145039155126,-0.006120896831510484,-0.00014009594089889286,0.26085596934447974
7303,10.0,300.50183,-6430.8785,0.0,0.07303002428431138,0.0,0.0,0.0,0.0,0.40198729985805765,1.042734158034849,0.5101049966734436,-0.003091950918651797,-0.005412056952428434,0.25375029970570473
7304,10.0,299.9416,-6424.8855,0.0,0.07304002027173073,0.0,0.0,0.0,0.0,0.4159155066601646,1.037184384587129,0.49990489162677154,-0.02145621428131348,0.0013285411071167984,0.2542825397182328
7305,10.0,299.59502000000003,-6404.9196,0.0,0.07305001625915009,0.0,0.0,0.0,0.0,0.41034648146054464,1.0341110957088189,0.5024779997257175,-0.014831348026990085,0.00012079416484145587,0.23085602515371578
7306,10.0,300.0212,-6397.7384,0.0,0.07306001224656922,0.0,0.0,0.0,0.0,0.4105284105159996,1.028978376002259,0.5052459051563886,0.007764151697162112,0.017573857357154683,0.23126247016632878
7307,10.0,299.91645,-6533.7928,0.0,0.07307000823398835,0.0,0.0,0.0,0.0,0.4178545937740376,1.045072536615629,0.5231826914741114,0.012730367865139487,0.007032248219303863,0.21750206771328282
7308,10.0,299.7488,-6540.6595,0.0,0.07308000422140792,0.0,0.0,0.0,0.0,0.42856545793111755,1.044907072874299,0.5147246673243695,0.009244415050402731,-0.013297597430120687,0.23456975902273275
7309,10.0,299.23427000000004,-6477.6025,0.0,0.07309003319888463,0.0,0.0,0.0,0.0,0.41548450046512764,1.041869247749489,0.5116756863159585,-0.0016550556829412783,-0.007840864051633034,0.23669650005512577
7310,10.0,299.50577000000004,-6518.1311,0.0,0.07310002918630398,0.0,0.0,0.0,0.0,0.4131836222705486,1.0689561586977592,0.49920933596312556,-0.0016632109276961385,-0.003107317565693367,0.2532981469810808
7311,10.0,300.16512,-6461.7537,0.0,0.07311002517372334,0.0,0.0,0.0,0.0,0.41398942967757557,1.047420946372399,0.5028013480976296,-0.0043655676895229855,0.012575788456383687,0.2526737316069558
7312,10.0,300.31137,-6395.701,0.0,0.07312002116114269,0.0,0.0,0.0,0.0,0.39596337602604265,1.039413737457149,0.5087562695978345,-0.013634983368918087,-0.0007269012546320683,0.25069481363165175
7313,10.0,300.22845,-6272.143,0.0,0.07313001714856204,0.0,0.0,0.0,0.0,0.3788170362438306,1.018168821285439,0.5095889686625155,-0.006122472536740995,-0.0066451150443217945,0.24856916690936678
7314,10.0,300.49323,-6155.9521,0.0,0.07314001313598117,0.0,0.0,0.0,0.0,0.3586482930033306,1.026617908569299,0.48598950243842953,0.0005722587811900444,0.004859583348653535,0.2568344202275838
7315,10.0,300.36681,-6243.7418,0.0,0.07315000912340053,0.0,0.0,0.0,0.0,0.37627577459552763,1.034497346646939,0.4871684391947815,0.012295432286214688,-0.001042294306166439,0.25992969663306376
7316,10.0,300.25759,-6424.7453,0.0,0.07316000511081988,0.0,0.0,0.0,0.0,0.4139878692724216,1.045060276289419,0.4939140200130186,-0.000909678592938287,0.0028064616234761974,0.2588365314976767
7317,10.0,299.69007,-6502.1949,0.0,0.07317000109823923,0.0,0.0,0.0,0.0,0.4143868466317976,1.0614014672771688,0.5007165556193766,-0.01121538772637259,0.0002898633742672877,0.2509028744071858
7318,10.0,299.24015,-6447.1931,0.0,0.07318003007571594,0.0,0.0,0.0,0.0,0.41235896841166164,1.0427206818085188,0.5047060455031086,0.004137420142681577,0.012852229428166289,0.24508668711067277
7319,10.0,299.38641,-6431.0566,0.0,0.0731900260631353,0.0,0.0,0.0,0.0,0.4068537779683416,1.051615700461389,0.49641115461946655,-0.013570203250274788,0.01786008733815338,0.24290829058818178
7320,10.0,299.69948,-6446.7113,0.0,0.07320002205055443,0.0,0.0,0.0,0.0,0.4099482944362466,1.0503905797654791,0.4993004170146146,-0.006511635960948434,-0.0055479037986354745,0.24639977818026476
7321,10.0,299.45125,-6527.8696,0.0,0.073210018037974,0.0,0.0,0.0,0.0,0.4295681600975766,1.039390838004889,0.5153503391286185,0.00046536002424495864,-0.01024151860475919,0.24602495670327276
7322,10.0,299.47623,-6484.2517,0.0,0.07322001402539313,0.0,0.0,0.0,0.0,0.42713578230501964,1.0357925842497688,0.5081221979502565,0.004683224027673225,-0.004042607595049306,0.23968998535555977
7323,10.0,300.15008,-6382.2026,0.0,0.07323001001281249,0.0,0.0,0.0,0.0,0.4049071826712276,1.033058227529909,0.5020648165999396,0.020080937013334178,0.0001801494944368708,0.23930718960028077
7324,10.0,300.11831,-6329.5509999999995,0.0,0.07324000600023184,0.0,0.0,0.0,0.0,0.39858824094009665,1.0216694990559292,0.5037677556455065,-0.01117319700545869,-0.012869633011883886,0.2301832777498208
7325,10.0,300.27857,-6474.632,0.0,0.07325000198765097,0.0,0.0,0.0,0.0,0.4157411567154576,1.032885975012909,0.5194993449755935,-0.006665587559942274,0.0005823442065903985,0.22799229666108778
7326,10.0,300.36924,-6668.8102,0.0,0.0732600309651279,0.0,0.0,0.0,0.0,0.4335918269071816,1.067566891485649,0.5259930824814755,-0.005856624588128845,0.002561192379095008,0.2503373187313698
7327,10.0,300.19415,-6475.044,0.0,0.07327002695254725,0.0,0.0,0.0,0.0,0.4229515052220636,1.047633424918369,0.49766671334838053,0.012593497028381386,0.02328287724359108,0.2535338390868418
7328,10.0,299.74904,-6381.7649,0.0,0.07328002293996638,0.0,0.0,0.0,0.0,0.40264416963288563,1.057588809800889,0.4796642481591755,0.003073406617971617,-0.00902655270135139,0.26597971165515377
7329,10.0,300.88386,-6374.9407,0.0,0.07329001892738574,0.0,0.0,0.0,0.0,0.4031919934319516,1.037740658892029,0.4968901787367425,0.006670479227450043,-0.003266318899210577,0.24185150113138476
7330,10.0,300.37412,-6385.4107,0.0,0.07330001491480509,0.0,0.0,0.0,0.0,0.39445718988489364,1.042146878276889,0.5044013915955414,0.012114345241592788,0.012938422561172886,0.25699079511551676
7331,10.0,300.32882,-6310.8897,0.0,0.07331001090222444,0.0,0.0,0.0,0.0,0.3818352651117066,1.031573512158379,0.5049441288791056,0.005322377935102806,0.012024070737183387,0.24660155680517876
7332,10.0,299.98652000000004,-6245.130999999999,0.0,0.0733200068896438,0.0,0.0,0.0,0.0,0.3687091268237576,1.037893051707069,0.4917617349456045,-0.014392828582461588,-0.014324489929467088,0.2538987307128538
7333,10.0,300.00579,-6378.9045,0.0,0.07333000287706293,0.0,0.0,0.0,0.0,0.39495673231669465,1.050486534549949,0.4935844097554885,-0.02179979320472208,-0.012454819566694988,0.25347476660601176
7334,10.0,299.41396000000003,-6591.3862,0.0,0.07334003185453986,0.0,0.0,0.0,0.0,0.4307466712888866,1.045592232591919,0.5272778633432735,0.0018120494640353581,-0.004103570091290837,0.25320926468230875
7335,10.0,299.60399,-6686.0992,0.0,0.07335002784195921,0.0,0.0,0.0,0.0,0.43746092241403156,1.072706399967879,0.5222399331835684,-0.001920436827232358,0.006443599560458764,0.2502841838961258
7336,10.0,299.87237000000005,-6518.7407,0.0,0.07336002382937834,0.0,0.0,0.0,0.0,0.41178124360214463,1.056024655621519,0.5137284600910516,0.0026424576715652673,-0.027132403851259774,0.23695218358535977
7337,10.0,299.66252000000003,-6365.1871,0.0,0.0733700198167977,0.0,0.0,0.0,0.0,0.3954609255664546,1.0287602232557291,0.5106367503259236,0.01005019459305198,-0.005461236160607045,0.23480063819051877
7338,10.0,300.09121,-6521.8925,0.0,0.07338001580421705,0.0,0.0,0.0,0.0,0.4112466832468876,1.057734211190239,0.5135116144371505,0.025882090718113475,0.0024535902847255078,0.2325488013007798
7339,10.0,300.18672000000004,-6633.0361,0.0,0.0733900117916364,0.0,0.0,0.0,0.0,0.44433799269774554,1.0483525285143391,0.5235868465414986,0.025291510804577776,0.015123790244351886,0.24577834176143376
7340,10.0,300.81265,-6450.7526,0.0,0.07340000777905575,0.0,0.0,0.0,0.0,0.4217210143006236,1.0350634494778088,0.5040832310641415,-0.009082243358647631,-0.007224692986946682,0.23640380249873877
7341,10.0,300.54989,-6355.3369999999995,0.0,0.07341000376647489,0.0,0.0,0.0,0.0,0.3966700369107846,1.032341454409169,0.5028522841801565,-0.013450460393207088,-0.005551083985399335,0.24343625468528776
7342,10.0,300.3932,-6435.6886,0.0,0.07342003274395181,0.0,0.0,0.0,0.0,0.40523011561059863,1.019025929545029,0.5320325799675275,-0.007403053679524514,-0.002155331201189628,0.23950945458524278
7343,10.0,299.85512,-6519.6432,0.0,0.07343002873137117,0.0,0.0,0.0,0.0,0.4117596816400166,1.046344469466159,0.5237046064681206,-0.014884029939439384,0.013163636647649789,0.25049414958184774
7344,10.0,299.50896,-6556.7346,0.0,0.0734400247187903,0.0,0.0,0.0,0.0,0.40616364319273063,1.075705924238909,0.5112140597028995,-0.0035077192507349366,-0.015922392429917786,0.25901425556521673
7345,10.0,299.83365,-6417.3148,0.0,0.07345002070620965,0.0,0.0,0.0,0.0,0.40960784240264664,1.0520810862323189,0.48901450994947454,-0.0035798435074280463,-0.0067048418820663735,0.25789503976975875
7346,10.0,300.14617999999996,-6372.3761,0.0,0.073460016693629,0.0,0.0,0.0,0.0,0.3982143313881946,1.060131966226879,0.4786969084212066,0.026841315336031575,0.009820817872514261,0.26739252679958775
7347,10.0,300.12297,-6538.0157,0.0,0.07347001268104836,0.0,0.0,0.0,0.0,0.4124874383918406,1.0635974842188989,0.5113085756722274,0.017688600838228985,0.014291213782932985,0.24948885349513278
7348,10.0,300.0002,-6526.3401,0.0,0.07348000866846771,0.0,0.0,0.0,0.0,0.4019603980679026,1.060055161869299,0.5218288880155014,0.01069781450904209,-0.013859950222370587,0.24275597883314978
7349,10.0,300.45874,-6354.8436,0.0,0.07349000465588684,0.0,0.0,0.0,0.0,0.3826256204547086,1.045422918500209,0.5036652856628935,0.004242675853794506,-0.016901575035055585,0.24643765346900273
7350,10.0,300.39902,-6291.3451,0.0,0.0735000006433062,0.0,0.0,0.0,0.0,0.37330361820969865,1.032046801280089,0.5070614061555645,0.019503142289560283,-0.012060464654275188,0.24422520161065076
7351,10.0,300.49577,-6454.8501,0.0,0.07351002962078312,0.0,0.0,0.0,0.0,0.4122532864262316,1.052784991076789,0.4970749752899805,0.013194571173202788,0.006566755550488313,0.26382127615963274
7352,10.0,300.40447,-6535.2722,0.0,0.07352002560820226,0.0,0.0,0.0,0.0,0.4212216339888386,1.049782629705479,0.5155552892263455,0.0034901812087290668,-0.015699803674449984,0.25902073023335576
7353,10.0,299.79325,-6525.576999999999,0.0,0.07353002159562161,0.0,0.0,0.0,0.0,0.4195927635255816,1.052092839933479,0.5119268608832476,-0.026750984089616577,-0.004521850675671916,0.25228070202566677
7354,10.0,300.30325,-6372.7149,0.0,0.07354001758304096,0.0,0.0,0.0,0.0,0.40337076114709464,1.028812912260929,0.5049625700309255,-0.009173957184824081,0.008096420115004452,0.23882460897515378
7355,10.0,300.34989,-6389.8524,0.0,0.07355001357046032,0.0,0.0,0.0,0.0,0.4079619797352126,1.028617861616679,0.5057757336336786,0.0005080234161980075,0.022938061141810375,0.24218292510659378
7356,10.0,300.78022999999996,-6576.5328,0.0,0.07356000955787967,0.0,0.0,0.0,0.0,0.4257462313828816,1.054546222400609,0.5188092811274895,-0.006679847231249593,-0.002916057490067467,0.23870238061559076
7357,10.0,300.48747000000003,-6605.0004,0.0,0.0735700055452988,0.0,0.0,0.0,0.0,0.4341511612273836,1.0589131276815889,0.5146909260960395,-0.005985075113905925,-0.008582033802980792,0.24501328727342878
7358,10.0,300.25806,-6476.8287,0.0,0.07358000153271815,0.0,0.0,0.0,0.0,0.3986556828667526,1.049719909524289,0.5204185958638164,-0.0023999191362035774,0.0015351445250319686,0.24239757200777776
7359,10.0,299.93807000000004,-6342.1651,0.0,0.07359003051019508,0.0,0.0,0.0,0.0,0.39463984848042066,1.036448967664549,0.4967710002599805,0.009348253325950772,0.0067528020490496745,0.24894907490186075
7360,10.0,299.89425,-6439.8961,0.0,0.07360002649761421,0.0,0.0,0.0,0.0,0.39651397613038264,1.044906262274219,0.5161473717897795,-0.0003287549224580847,-0.00928528246668603,0.25014711142259777
7361,10.0,299.90736,-6501.3706,0.0,0.07361002248503379,0.0,0.0,0.0,0.0,0.3982136221131246,1.053215723694299,0.5248249571036905,-0.004151376345583946,-0.004765327176651175,0.2511086857674978
7362,10.0,300.16046,-6398.1124,0.0,0.07362001847245292,0.0,0.0,0.0,0.0,0.40036321193527263,1.047746098329489,0.49675708833610754,0.009744744270906382,0.0023911564480137673,0.2587643779580558
7363,10.0,300.24806,-6372.4853,0.0,0.07363001445987205,0.0,0.0,0.0,0.0,0.4008983701080886,1.0409475954585292,0.49523045480794053,0.003772179046710087,0.02183171463587248,0.26154027793201573
7364,10.0,299.68597,-6452.0945,0.0,0.07364001044729163,0.0,0.0,0.0,0.0,0.39549242751206365,1.061465504683489,0.5043176768722796,-0.010822609431108389,-0.004719183260472126,0.26073521019756174
7365,10.0,300.64479,-6500.8671,0.0,0.07365000643471076,0.0,0.0,0.0,0.0,0.41292012658204363,1.052312005930109,0.5108691696338615,-0.008529541368300192,0.0018637826704160283,0.25783343416367877
7366,10.0,300.58446000000004,-6556.0109,0.0,0.07366000242213011,0.0,0.0,0.0,0.0,0.4043656410227816,1.061965543607839,0.5265324659072085,-0.01116606980425529,0.006823214926323883,0.24176773574561777
7367,10.0,300.54659,-6427.293000000001,0.0,0.07367003139960682,0.0,0.0,0.0,0.0,0.4026864728245606,1.0478312113378891,0.5032188983313385,0.014493758424922586,0.026234845634427677,0.24667133933956575
7368,10.0,300.7138,-6359.6308,0.0,0.07368002738702639,0.0,0.0,0.0,0.0,0.4119432420281326,1.0323327404583091,0.48889299086498156,-0.001234539564864569,0.004389024328012975,0.2300555271772128
7369,10.0,300.69229,-6578.5486,0.0,0.07369002337444575,0.0,0.0,0.0,0.0,0.43349783782790563,1.060902036302879,0.5053146339106716,0.0005968414951786694,-0.003504689227635897,0.24370453291426478
7370,10.0,300.43266,-6647.8203,0.0,0.07370001936186488,0.0,0.0,0.0,0.0,0.4198506154110296,1.0672123552756592,0.5337083841754164,0.004903209034359055,0.007050890298618692,0.23714979775236278
7371,10.0,300.12357000000003,-6524.7531,0.0,0.07371001534928401,0.0,0.0,0.0,0.0,0.42435767344584163,1.0428483513211189,0.5161560148131324,0.0016107715873207786,0.014320816897854588,0.24360232637667778
7372,10.0,299.37302999999997,-6432.3194,0.0,0.07372001133670358,0.0,0.0,0.0,0.0,0.3919345213759256,1.045201118053319,0.5181287924928305,-0.0030223474255574668,-0.001142154359171859,0.24568189048441474
7373,10.0,300.04404,-6324.4788,0.0,0.07373000732412271,0.0,0.0,0.0,0.0,0.4097413685008246,1.019844027675769,0.49289821652276655,-0.011236206976177289,-0.018734215159673082,0.24076905618205574
7374,10.0,299.54472999999996,-6406.6814,0.0,0.07374000331154229,0.0,0.0,0.0,0.0,0.4025166115777966,1.041931359980619,0.5030232093395255,0.008175559608764912,0.007602340722442613,0.24682194883442973
7375,10.0,299.73725,-6451.1665,0.0,0.07375003228901877,0.0,0.0,0.0,0.0,0.4105735204104516,1.056338459177489,0.49408154065205157,0.004824904661331016,0.007082444730582872,0.2510966280913077
7376,10.0,300.13015,-6406.0885,0.0,0.07376002827643813,0.0,0.0,0.0,0.0,0.4003846219098856,1.043900206249929,0.5030060854128355,-0.0005999890248918065,-0.0024867693619000275,0.25881773570832173
7377,10.0,300.35892,-6409.8828,0.0,0.0737700242638577,0.0,0.0,0.0,0.0,0.40353536362583964,1.059988895312759,0.4849200574878836,-0.010297116650996292,-0.01278551704158229,0.25747776311357673
7378,10.0,300.35161,-6505.2949,0.0,0.07378002025127683,0.0,0.0,0.0,0.0,0.3946667806680786,1.054903089085829,0.5278773628974396,-0.01084486242980459,0.00966909208001509,0.24945909433969576
7379,10.0,300.4416,-6606.6166,0.0,0.07379001623869597,0.0,0.0,0.0,0.0,0.42682278934912954,1.0691669147185592,0.5122568156458115,-0.004649847974679266,0.018400134442701884,0.24828755430907376
7380,10.0,299.19075,-6535.6025,0.0,0.07380001222611532,0.0,0.0,0.0,0.0,0.4191236996567886,1.0491521854932588,0.5183841213855295,0.003430133981302867,-0.007911177123772394,0.23672537768297577
7381,10.0,299.65749,-6354.5024,0.0,0.0738100082135349,0.0,0.0,0.0,0.0,0.3966727929510566,1.034859482232679,0.5000777824913345,0.0003601343458649926,-0.0012029866527755388,0.24496743770640378
7382,10.0,299.68429,-6312.3144,0.0,0.07382000420095425,0.0,0.0,0.0,0.0,0.3782611469739687,1.043264797112219,0.49726005555324654,0.012121846332083089,0.0075162007850662635,0.2526688072114697
7383,10.0,299.39327000000003,-6488.4249,0.0,0.07383003317843073,0.0,0.0,0.0,0.0,0.40065831089439663,1.044628125121769,0.5270327378790814,0.007082821862270093,0.01056417492685289,0.2586348643302738
7384,10.0,300.01448999999997,-6565.156,0.0,0.07384002916585009,0.0,0.0,0.0,0.0,0.4159947428179846,1.062303158541159,0.5173456210930375,-0.00910674060499032,-0.0039141321433197665,0.2619640495213387
7385,10.0,300.07678,-6406.9099,0.0,0.07385002515326966,0.0,0.0,0.0,0.0,0.4236074326742986,1.038338375126019,0.48559484152447957,-0.005363834151019214,-0.02209014610037768,0.25080133661466475
7386,10.0,299.70712000000003,-6324.6578,0.0,0.07386002114068879,0.0,0.0,0.0,0.0,0.41580999692725157,1.023100106872119,0.48362792043035957,-7.560536049816813e-05,0.0030538225200388174,0.24024037267737877
7387,10.0,300.17396,-6560.2321,0.0,0.07387001712810792,0.0,0.0,0.0,0.0,0.4208761663672436,1.0630555980654188,0.5102149849717985,-0.007969444577397941,0.008803551147792852,0.24695420836998278
7388,10.0,300.16022000000004,-6741.1251,0.0,0.07388001311552728,0.0,0.0,0.0,0.0,0.4535578998626796,1.051497656824739,0.5440781174213296,0.0032586016824739466,0.004940860800124996,0.2332758994400388
7389,10.0,300.38391,-6666.1812,0.0,0.07389000910294663,0.0,0.0,0.0,0.0,0.42343459247224063,1.059714304535659,0.5432036825850295,-0.011086703950422489,-0.014462346658572486,0.22754551416199378
7390,10.0,300.19284,-6467.7358,0.0,0.0739000050903662,0.0,0.0,0.0,0.0,0.3983061521122566,1.058614928177159,0.5091090934151555,0.0043220433288274655,0.014468567000936385,0.2402326821091198
7391,10.0,300.52454,-6472.2717,0.0,0.07391000107778534,0.0,0.0,0.0,0.0,0.4263570996031696,1.038598273776669,0.5024536715908164,0.006237573999075624,-0.004138223852660896,0.23240409905399878
7392,10.0,300.53756,-6515.4248,0.0,0.07392003005526204,0.0,0.0,0.0,0.0,0.4136061576947496,1.0681575149689388,0.49876280677655654,0.0019371615333829582,0.0005652709120078954,0.25357057953546774
7393,10.0,300.203,-6387.8018,0.0,0.0739300260426814,0.0,0.0,0.0,0.0,0.4044150369651566,1.0473824428685992,0.48993478422029857,-0.0007326522494171473,-0.00979355830374895,0.25955413548349876
7394,10.0,299.86855,-6255.6091,0.0,0.07394002203010075,0.0,0.0,0.0,0.0,0.36616225176990064,1.0389010329065491,0.49648569942932347,0.0011900989221036188,0.007053471046623394,0.2754484021171408
7395,10.0,300.07041,-6201.3216,0.0,0.07395001801751988,0.0,0.0,0.0,0.0,0.35716952540988767,1.044835740067259,0.48304164378999853,-0.00025353857096480873,0.006288561858682734,0.27629487125068075
7396,10.0,299.9206,-6448.6218,0.0,0.07396001400493923,0.0,0.0,0.0,0.0,0.39441712597593964,1.051819262406479,0.5139836471287366,-0.014746780147143885,-0.0001915882065382838,0.2694581181884457
7397,10.0,299.87101,-6645.6865,0.0,0.07397000999235859,0.0,0.0,0.0,0.0,0.44906736793699853,1.0607834860411791,0.5102719296274185,-0.0071605164613879535,-0.00994792837503409,0.24827401728773776
7398,10.0,299.97501,-6577.8227,0.0,0.07398000597977794,0.0,0.0,0.0,0.0,0.4208126051884706,1.067952230498679,0.5107290371450315,0.00964087276075506,-0.0008385120298421942,0.24760086458380273
7399,10.0,299.65267,-6477.8492,0.0,0.0739900019671973,0.0,0.0,0.0,0.0,0.4226778567675566,1.0433224510429089,0.5031040970950085,0.021971620156680083,0.003604479265059406,0.22919832772511378
7400,10.0,300.32999,-6572.2168,0.0,0.074000030944674,0.0,0.0,0.0,0.0,0.4057798037898486,1.079957825633539,0.5120522201856195,0.006463095708282884,-0.004422513155743066,0.24095765242316874
7401,10.0,300.42789,-6622.932,0.0,0.07401002693209335,0.0,0.0,0.0,0.0,0.4164664614020397,1.0665213187074591,0.5302181631459585,0.0036049884232346565,-0.02269389826521338,0.23523963892884478
7402,10.0,300.23836,-6481.1903,0.0,0.0740200229195127,0.0,0.0,0.0,0.0,0.4044515443662596,1.051810041830569,0.5138584094163765,0.011775095935861488,-0.002007527801152568,0.2400135971724978
7403,10.0,300.02535,-6288.5465,0.0,0.07403001890693184,0.0,0.0,0.0,0.0,0.4014937963968526,1.0358630051317188,0.4742043601278265,0.007288188101813164,0.003762799491859397,0.24670036895493078
7404,10.0,300.53497000000004,-6331.7464,0.0,0.07404001489435141,0.0,0.0,0.0,0.0,0.4097478735664666,1.0231703251040491,0.4917745525593695,0.003037743355526927,0.014022895023951985,0.25551708364007275
7405,10.0,300.06284,-6596.8774,0.0,0.07405001088177054,0.0,0.0,0.0,0.0,0.4441538750220746,1.044258592810299,0.5168735276064454,-0.015820733047384787,0.001129330767231269,0.24276139972118477
7406,10.0,299.90832,-6654.7703,0.0,0.0740600068691899,0.0,0.0,0.0,0.0,0.41506586605381157,1.069276041754329,0.5385420937774664,-0.0059811705546455735,0.016247067146210683,0.2604619873080967
7407,10.0,300.05532999999997,-6551.6792,0.0,0.07407000285660925,0.0,0.0,0.0,0.0,0.3988842315593086,1.055951600289309,0.5367110191242535,0.001335016889830909,0.007736669922649873,0.23914308361408476
7408,10.0,299.97697,-6402.8655,0.0,0.07408003183408596,0.0,0.0,0.0,0.0,0.38464993203449266,1.062124117248489,0.49953718316548157,-0.008334325766933912,-0.0016555854100935583,0.24782094250552275
7409,10.0,299.77656,-6467.52,0.0,0.07409002782150531,0.0,0.0,0.0,0.0,0.41394500879319157,1.054689293314729,0.49733029405017853,0.0073385399443325035,-0.019185396177451183,0.24090603746307476
7410,10.0,299.48082999999997,-6535.8055,0.0,0.07410002380892466,0.0,0.0,0.0,0.0,0.4176927169380616,1.071574802256199,0.49745418413990555,0.0030772753081784268,-0.01068901949817409,0.2547841187827347
7411,10.0,299.66156,-6466.5597,0.0,0.07411001979634402,0.0,0.0,0.0,0.0,0.4121336621194256,1.059478217262359,0.4940607487599995,0.02138824343810528,-0.0035318587184673166,0.24607578132828875
7412,10.0,300.00108,-6458.5484,0.0,0.07412001578376337,0.0,0.0,0.0,0.0,0.3712701772465137,1.0740662829270888,0.5179009328103426,-0.007913910467242153,-0.0007175719063238333,0.26534741319525074
7413,10.0,300.30859,-6522.0611,0.0,0.0741300117711825,0.0,0.0,0.0,0.0,0.4001963600413056,1.063518552036109,0.5188287963244155,-0.001994733796114898,-0.0034916137417204465,0.2624894906256957
7414,10.0,299.7781,-6571.5342,0.0,0.07414000775860186,0.0,0.0,0.0,0.0,0.4124941258425006,1.057263455193779,0.5278247752172496,5.541045007383565e-05,0.013941623246681085,0.2608934393331777
7415,10.0,299.92728999999997,-6502.3871,0.0,0.07415000374602121,0.0,0.0,0.0,0.0,0.4067978364303206,1.0482068231499588,0.5215586035513265,-0.006250575821708805,0.018585608860256782,0.24630427935833976
7416,10.0,299.92529,-6428.5907,0.0,0.07416003272349792,0.0,0.0,0.0,0.0,0.4135274788244846,1.048340268188129,0.49226331401010653,-0.012698423129236788,0.004118360604325546,0.24005561665414477
7417,10.0,300.37087,-6409.2118,0.0,0.07417002871091727,0.0,0.0,0.0,0.0,0.42524977936388564,1.0240242922883291,0.49896630792664054,-0.02293065225707918,-0.007662137981069143,0.23282014967755976
7418,10.0,300.60134,-6514.7668,0.0,0.0741800246983364,0.0,0.0,0.0,0.0,0.40806906000578064,1.053823673754299,0.5184337301104255,-0.0007849183138929064,0.002179792274503748,0.2390319503431168
7419,10.0,300.84195,-6649.4239,0.0,0.07419002068575598,0.0,0.0,0.0,0.0,0.4276896248096796,1.064104717218959,0.5294644773240754,0.0016160511269668282,0.003674566686401496,0.22924295125951777
7420,10.0,300.36724,-6699.3067,0.0,0.07420001667317533,0.0,0.0,0.0,0.0,0.4306667967835036,1.0681789958710592,0.5375762131196415,0.0086142988272401,0.005391112464911375,0.23879826447255378
7421,10.0,300.16258999999997,-6707.8628,0.0,0.07421001266059446,0.0,0.0,0.0,0.0,0.44164198749417055,1.070147234190309,0.5272336248439075,-0.0007005790840642724,-0.007768371478528572,0.23278133206622875
7422,10.0,299.7573,-6609.5569,0.0,0.07422000864801381,0.0,0.0,0.0,0.0,0.43686266915748856,1.055838116278109,0.5164394208661025,0.025226133881625576,0.008205549177274653,0.24514798874172278
7423,10.0,299.70295,-6552.7809,0.0,0.07423000463543294,0.0,0.0,0.0,0.0,0.4213558085670806,1.045774313634889,0.5247516180614525,0.012791885318460788,0.006565488987863313,0.24685378515257175
7424,10.0,299.72106,-6440.4189,0.0,0.07424003361290987,0.0,0.0,0.0,0.0,0.38391060396652665,1.060239168087459,0.5135767765510815,-0.003733030913196466,-0.007785519520570953,0.26596912319160876
7425,10.0,299.81387,-6396.9549,0.0,0.07425002960032923,0.0,0.0,0.0,0.0,0.40091358912459063,1.050651086366189,0.49294988214536556,-0.01805886066327078,-0.014692794181815886,0.2545904157611178
7426,10.0,299.80143,-6377.5681,0.0,0.07426002558774836,0.0,0.0,0.0,0.0,0.3941281369149186,1.049430119995689,0.49506317734893157,-0.006119487501946394,0.004472033626555356,0.25855032887443075
7427,10.0,300.50284,-6320.1484,0.0,0.07427002157516771,0.0,0.0,0.0,0.0,0.40287855464601763,1.029619459340529,0.48866930577290557,-0.009303098240544311,0.012956653970222188,0.24411211276698977
7428,10.0,300.44378,-6400.6329,0.0,0.07428001756258729,0.0,0.0,0.0,0.0,0.4079354731125966,1.0505284831040889,0.4871686621098036,-0.004414144013892095,0.007673672516232514,0.25477459423179477
7429,10.0,300.03506,-6594.1304,0.0,0.07429001355000642,0.0,0.0,0.0,0.0,0.4209853643305206,1.0676143115903292,0.5158513102430605,-0.004844824043721905,-0.003992924396270956,0.25279697321661876
7430,10.0,299.6876,-6654.0163,0.0,0.07430000953742577,0.0,0.0,0.0,0.0,0.41865108941264567,1.071292004153289,0.5327117007145515,0.009186726365234302,0.008147191139090163,0.26207704717249075
7431,10.0,300.45736,-6491.7792,0.0,0.0743100055248449,0.0,0.0,0.0,0.0,0.4192929225559896,1.056880649305999,0.49716523560888853,0.008905034731433501,0.016342062382835986,0.25238547208600676
7432,10.0,300.23434,-6468.7826,0.0,0.07432000151226426,0.0,0.0,0.0,0.0,0.4029379918968836,1.055593315053949,0.5078171083451465,0.003872791843214796,0.0035557557154507666,0.25176034743681175
7433,10.0,299.88777999999996,-6435.5697,0.0,0.07433003048974118,0.0,0.0,0.0,0.0,0.42341319263012855,1.035339053505009,0.4975002566219526,-0.015130543556268385,-0.0062066681485004535,0.23288513953897377
7434,10.0,299.78814,-6334.9911,0.0,0.07434002647716054,0.0,0.0,0.0,0.0,0.4153381364881826,1.027930675398859,0.48241028765268856,-0.002105569678178548,-0.0011063377919870389,0.23223429860224076
7435,10.0,300.12214,-6364.0805,0.0,0.07435002246457967,0.0,0.0,0.0,0.0,0.40332567151764465,1.022438353231809,0.5087575260279585,0.01750169672478298,0.004224824413532706,0.24234628128771576
7436,10.0,300.39526,-6442.3097,0.0,0.07436001845199902,0.0,0.0,0.0,0.0,0.4120368359398696,1.028710472675819,0.5175539453135976,-0.0005264963435411434,-0.013125303369866588,0.2531858890025018
7437,10.0,300.55127000000005,-6540.4436,0.0,0.07437001443941837,0.0,0.0,0.0,0.0,0.4209020346422966,1.055260057096059,0.5119694680499525,0.002961329200560437,-0.021785797181090777,0.2578656048543537
7438,10.0,299.77021,-6554.7285,0.0,0.07438001042683773,0.0,0.0,0.0,0.0,0.4182877277942846,1.0560805870270389,0.5181055384030355,0.0017908042438886183,-0.008469314795606293,0.25269767470681875
7439,10.0,299.61806,-6502.6482,0.0,0.07439000641425686,0.0,0.0,0.0,0.0,0.4337936561946006,1.045168086100059,0.4976809393797845,0.007981379751650851,0.013621015716289589,0.24420544323370078
7440,10.0,299.8297,-6463.5206,0.0,0.07440000240167621,0.0,0.0,0.0,0.0,0.4174171129108616,1.047234407028989,0.5000973078207616,0.004723310329454436,-0.001138092746146009,0.24755841953711377
7441,10.0,299.82957999999996,-6385.7155,0.0,0.07441003137915314,0.0,0.0,0.0,0.0,0.38691379620291866,1.0536567914628292,0.5005275135482196,-0.014056598762028288,0.003641364203149666,0.25397229267011373
7442,10.0,300.48131,-6420.9934,0.0,0.0744200273665725,0.0,0.0,0.0,0.0,0.3962336402252156,1.052447984093529,0.5031400370760555,-0.006143739643089894,0.010994684629340888,0.25542746166872776
7443,10.0,300.34238999999997,-6517.5249,0.0,0.07443002335399163,0.0,0.0,0.0,0.0,0.4078429532459656,1.0665296273582792,0.5067922362664995,-0.005379767407516704,0.024011181150469078,0.2598936249295038
7444,10.0,299.96549,-6447.5681,0.0,0.07444001934141098,0.0,0.0,0.0,0.0,0.39760532754809064,1.053683237290439,0.5086111417860115,-0.0018119289885984683,0.010935095390959888,0.26473569384487877
7445,10.0,300.1819,-6361.0286,0.0,0.07445001532883033,0.0,0.0,0.0,0.0,0.4110044658104826,1.036786278622839,0.4858030948175326,-0.0017059264108368283,-0.008311695129925443,0.25832501244969375
7446,10.0,300.2826,-6484.0416,0.0,0.07446001131624969,0.0,0.0,0.0,0.0,0.40762910681236064,1.058449565760839,0.5049080369105435,0.009600386427834371,0.007732153157679103,0.24820609913353478
7447,10.0,299.89544,-6512.6717,0.0,0.07447000730366904,0.0,0.0,0.0,0.0,0.40434609542835265,1.0498967216667392,0.5254467380275556,0.01022391237102159,0.013903778355446088,0.24875780368048378
7448,10.0,299.8005,-6549.3106,0.0,0.07448000329108817,0.0,0.0,0.0,0.0,0.4146522573629916,1.054892247309759,0.5212823915740664,0.006431590621598574,-0.013331136008430687,0.25016832887969176
7449,10.0,299.26558,-6576.2378,0.0,0.0744900322685651,0.0,0.0,0.0,0.0,0.41524846385433256,1.065606657842189,0.5181569608456105,-0.008391437608820412,-0.02045663596491278,0.24915733832741477
7450,10.0,299.41287,-6501.2092,0.0,0.07450002825598445,0.0,0.0,0.0,0.0,0.4145295122458776,1.055599698529579,0.5060760913608215,-0.0020743354332459682,-0.011411783966755388,0.25048405761085174
7451,10.0,299.8863,-6521.0994,0.0,0.07451002424340358,0.0,0.0,0.0,0.0,0.4337429430270956,1.047310502111499,0.5011979608743875,0.01098997909587649,0.016969435434002884,0.2301449363660368
7452,10.0,299.89001,-6643.3936,0.0,0.07452002023082294,0.0,0.0,0.0,0.0,0.4310554187268576,1.052281000477049,0.5360893192603965,-0.0034290848621493265,0.01110753029297789,0.22948514843092077
7453,10.0,300.26087,-6589.4974,0.0,0.07453001621824229,0.0,0.0,0.0,0.0,0.41763049324942064,1.058396876755639,0.5270152897123594,0.003758205010605957,-0.0034816672734388067,0.23212145293860378
7454,10.0,300.08505,-6427.3564,0.0,0.07454001220566164,0.0,0.0,0.0,0.0,0.40284419533512666,1.046572146763629,0.5043395124119345,-0.008602370441762862,0.0017475850741232185,0.23905944995083075
7455,10.0,300.05747,-6479.1447,0.0,0.074550008193081,0.0,0.0,0.0,0.0,0.41375562221700063,1.0465268544841588,0.5092157177231785,0.0015201607852031887,0.02408963710571208,0.24436604337455078
7456,10.0,300.71702999999997,-6594.6416,0.0,0.07456000418050013,0.0,0.0,0.0,0.0,0.4356725461200326,1.055136035283819,0.5137978474578995,-0.0071956812047834435,0.0018696377361188783,0.2504405182540547
7457,10.0,300.54792000000003,-6507.9935,0.0,0.07457003315797706,0.0,0.0,0.0,0.0,0.43005914056603256,1.048801702283669,0.4994067069501046,-0.01052181094017189,-0.006734672572960433,0.2511383942604297
7458,10.0,300.48618999999997,-6443.845,0.0,0.07458002914539641,0.0,0.0,0.0,0.0,0.38654947199696266,1.058359791801979,0.5138587235239075,0.014310197023556487,-0.008603007877400773,0.2596823926811567
7459,10.0,299.63732999999996,-6468.725,0.0,0.07459002513281554,0.0,0.0,0.0,0.0,0.3885071015876656,1.063955262829209,0.5138684709898695,0.015170491954710987,-0.0028253574206160673,0.2525144385587348
7460,10.0,299.74076,-6475.7369,0.0,0.0746000211202349,0.0,0.0,0.0,0.0,0.3942271010521856,1.057024226845169,0.5172110108172525,0.011714885575169188,-0.007990224209123731,0.2607320691222517
7461,10.0,300.05002,-6541.3022,0.0,0.07461001710765403,0.0,0.0,0.0,0.0,0.41524062129855854,1.070078941133569,0.5030729801844375,-0.01733293384112738,-0.01813577242536138,0.25852074197151076
7462,10.0,300.06162,-6499.3951,0.0,0.0746200130950736,0.0,0.0,0.0,0.0,0.41924754921651164,1.0612507969872989,0.49515550469804354,0.003244930912124747,0.005189524837641225,0.25213144015343575
7463,10.0,299.43318999999997,-6408.3108,0.0,0.07463000908249295,0.0,0.0,0.0,0.0,0.40688913026433066,1.0546292075837989,0.48644807916868754,-0.0009831412516884872,0.022443425880243683,0.24920418087953775
7464,10.0,299.63838,-6457.0664,0.0,0.07464000506991209,0.0,0.0,0.0,0.0,0.4057025130722206,1.047577696162869,0.5095067535494016,0.001076038371596719,0.002401242542159188,0.26493601338964873
7465,10.0,299.74969,-6650.2764,0.0,0.07465000105733144,0.0,0.0,0.0,0.0,0.43013212497073555,1.0626582013761992,0.5287276317188545,-0.013212848178506589,-0.007576090452101914,0.24823707418909177
7466,10.0,300.17087000000004,-6623.9258,0.0,0.07466003003480837,0.0,0.0,0.0,0.0,0.4195197993858806,1.064664031274159,0.5293242637752374,0.0017747399741531986,-0.00878037781403082,0.25318071129449077
7467,10.0,299.84039,-6462.8694,0.0,0.0746700260222275,0.0,0.0,0.0,0.0,0.4159464918482226,1.038858071102309,0.5097463973305525,0.01044683144602199,0.01139315739016709,0.25540691295669976
7468,10.0,299.54791,-6501.5085,0.0,0.07468002200964685,0.0,0.0,0.0,0.0,0.4328292852794246,1.0418330747209188,0.5016339015974116,0.002406640125441888,-0.008463041662912183,0.24486542368633576
7469,10.0,300.13571,-6597.286999999999,0.0,0.0746900179970662,0.0,0.0,0.0,0.0,0.4317963679949836,1.053004562373459,0.5206096441701715,0.00034719171730265467,-0.008039777914539303,0.23206085045012276
7470,10.0,300.303,-6638.2841,0.0,0.07470001398448556,0.0,0.0,0.0,0.0,0.41133760217836063,1.071904412513729,0.5346305836214306,-0.0030397138229963975,-0.001046526854484159,0.23862802832325278
7471,10.0,299.83142000000004,-6651.8132,0.0,0.07471000997190491,0.0,0.0,0.0,0.0,0.4210010697070706,1.0625089496364688,0.5384750571508505,0.01019423224909239,0.01860128485255388,0.2229824537941548
7472,10.0,299.69732,-6539.5124,0.0,0.07472000595932404,0.0,0.0,0.0,0.0,0.3985732853686206,1.066706338175719,0.5225688746960325,0.01154512362691499,-0.0018614376043845882,0.2501073008261688
7473,10.0,299.71982,-6440.5021,0.0,0.0747300019467434,0.0,0.0,0.0,0.0,0.42330143114409857,1.038049700172529,0.49640070801093555,-0.013686880012539888,-0.013508276443913088,0.24513711656814977
7474,10.0,299.91073,-6558.638000000001,0.0,0.0747400309242201,0.0,0.0,0.0,0.0,0.4262215672697936,1.0641452472229591,0.5032953885813874,0.003330811862775537,-0.007012824924161933,0.26195677438562076
7475,10.0,299.95017,-6585.3633,0.0,0.07475002691163946,0.0,0.0,0.0,0.0,0.4176414971455066,1.069506353502059,0.5146381762958335,0.0004329657194053896,0.011761066474976888,0.26104618678575275
7476,10.0,299.99835,-6418.823,0.0,0.07476002289905881,0.0,0.0,0.0,0.0,0.37744450792337264,1.059878957676909,0.5138384686544085,0.007772159311377403,0.005802092784971975,0.27164280699405774
7477,10.0,300.15537,-6304.0722,0.0,0.07477001888647816,0.0,0.0,0.0,0.0,0.37522074819390466,1.043212310757039,0.49784749743122253,0.006409092416378174,-0.0018994409679352283,0.26381332214634773
7478,10.0,300.77041,-6440.2839,0.0,0.07478001487389752,0.0,0.0,0.0,0.0,0.39027106868675565,1.064625629095369,0.5027888040613915,0.001077737592014419,0.00023583837854543582,0.26151332547935574
7479,10.0,300.50921,-6558.704000000001,0.0,0.07479001086131687,0.0,0.0,0.0,0.0,0.4325484123517046,1.058295450420629,0.5028383823887845,0.00935677658314195,0.014819827373353087,0.24607596371330676
7480,10.0,299.94079,-6524.0239,0.0,0.074800006848736,0.0,0.0,0.0,0.0,0.4202467455376246,1.065764826182799,0.49712879913529257,-0.004997655494730195,-0.007372292723713643,0.24293229448305076
7481,10.0,300.09864,-6583.0984,0.0,0.07481000283615535,0.0,0.0,0.0,0.0,0.4211347883227676,1.0667643974064491,0.5131983783012365,-0.000976145104253021,-0.011932815406677188,0.24077687847282778
7482,10.0,300.16057,-6579.1674,0.0,0.07482003181363206,0.0,0.0,0.0,0.0,0.4058590298151676,1.061695613781199,0.5323479641936535,-0.0005050985785918485,-0.018163641869361882,0.24587354674082978
7483,10.0,299.75959,-6671.951,0.0,0.07483002780105141,0.0,0.0,0.0,0.0,0.41733419865517857,1.074257584545969,0.5365147019173785,0.016625466409305786,0.01137859901273029,0.24077322063996678
7484,10.0,299.25282999999996,-6678.9104,0.0,0.07484002378847077,0.0,0.0,0.0,0.0,0.42501634680584754,1.077353570226519,0.5278520519099416,-0.00015951009652492084,0.006077812727983415,0.24940938428978973
7485,10.0,299.66053999999997,-6485.2184,0.0,0.07485001977589012,0.0,0.0,0.0,0.0,0.44963931722094563,1.029220644101169,0.49248444571193056,-0.004943382982273915,-0.005135359324395505,0.23633415168686475
7486,10.0,300.20141,-6414.2699,0.0,0.07486001576330947,0.0,0.0,0.0,0.0,0.4181996864930956,1.0418574940483292,0.4897207351366736,-0.006751411261962413,-0.005282651641082125,0.25620638755060177
7487,10.0,300.36388999999997,-6557.3293,0.0,0.0748700117507286,0.0,0.0,0.0,0.0,0.4302477469396466,1.0576417014561088,0.5053748918941185,0.004510542703230906,0.003156188847166587,0.24267830308048377
7488,10.0,299.87626,-6673.9557,0.0,0.07488000773814796,0.0,0.0,0.0,0.0,0.4089936405895296,1.0799070618035291,0.5398151412031065,0.004533686754065046,-0.006399371396243784,0.25360230439609877
7489,10.0,300.28695,-6527.3607,0.0,0.07489000372556731,0.0,0.0,0.0,0.0,0.4159744271534796,1.046876324443649,0.5213039130061905,-0.006121543487724305,-0.013266089405011089,0.24969120967260378
7490,10.0,300.42715,-6461.1551,0.0,0.07490003270304402,0.0,0.0,0.0,0.0,0.3844201775743176,1.072010702449219,0.5075989758636185,0.005741589898975805,-0.012519498360328288,0.25750651915141476
7491,10.0,300.3185,-6557.3153,0.0,0.07491002869046337,0.0,0.0,0.0,0.0,0.4360970168519246,1.0562362222423989,0.5009268962076355,-0.0002301052068296158,-9.295186783763511e-05,0.23340864533563976
7492,10.0,299.85281000000003,-6611.3384,0.0,0.07492002467788295,0.0,0.0,0.0,0.0,0.4140894374624456,1.0854957440550888,0.5100965866976136,-0.0018846437674498579,-0.006661691815957794,0.2522495344525908
7493,10.0,299.55138,-6582.1436,0.0,0.07493002066530208,0.0,0.0,0.0,0.0,0.4157257046514326,1.0695308741544791,0.5155506586733885,-0.009841582913438611,-0.01311143197599759,0.2408317459657428
7494,10.0,299.75352000000004,-6450.3852,0.0,0.07494001665272143,0.0,0.0,0.0,0.0,0.39386940350188365,1.050536791754909,0.5163498394247615,0.009007061822427791,-0.0031812636460662774,0.26313727154712674
7495,10.0,299.67314,-6338.1906,0.0,0.07495001264014056,0.0,0.0,0.0,0.0,0.3758738993408656,1.045109418919269,0.5056683493880806,0.018705698248858683,0.010819955729096489,0.25402855844816674
7496,10.0,299.78779,-6458.4128,0.0,0.07496000862755992,0.0,0.0,0.0,0.0,0.4017466326943056,1.060396728478009,0.5010528330625645,0.005278853979707325,0.0025436754126912176,0.26867969893162175
7497,10.0,300.04517000000004,-6660.7569,0.0,0.07497000461497927,0.0,0.0,0.0,0.0,0.44652786934386957,1.069229026949689,0.5089468822066465,-0.006566039587967654,-0.008689910488127393,0.25807007872453375
7498,10.0,300.4404,-6540.0409,0.0,0.07498003359245597,0.0,0.0,0.0,0.0,0.43276398131047955,1.055376783507579,0.4998683538281655,-0.004907191309902075,-0.0032576573333807472,0.25608492926111476
7499,10.0,300.16887,-6431.0817,0.0,0.07499002957987533,0.0,0.0,0.0,0.0,0.39035988005802064,1.058211350662329,0.5063170624996035,0.004482556836793915,-0.0013737786710813988,0.25320985236736676
7500,10.0,300.15526,-6512.6216,0.0,0.07500002556729468,0.0,0.0,0.0,0.0,0.4081404029453216,1.0510124113518489,0.5205214914114715,0.02078748745381528,-0.01098443155157899,0.2400914857076848
7501,10.0,300.22488,-6694.8335,0.0,0.07501002155471403,0.0,0.0,0.0,0.0,0.4194610815425856,1.073011388247979,0.5425897340844374,-0.002483162596844068,-0.020543893010524377,0.23924552319919476
7502,10.0,300.34456,-6603.9745,0.0,0.07502001754213339,0.0,0.0,0.0,0.0,0.4320750928324916,1.050269192403499,0.5250990716532435,0.005901644303321943,0.00014112247470770387,0.2330377147390318
7503,10.0,300.32339,-6394.229,0.0,0.07503001352955252,0.0,0.0,0.0,0.0,0.42384139212238864,1.031590028135009,0.4882544710494645,-0.008003957902304142,0.01217828436265309,0.24127695792718176
7504,10.0,300.16134,-6458.8845,0.0,0.07504000951697187,0.0,0.0,0.0,0.0,0.40997675663155564,1.0578551932521791,0.4955077104328035,0.0012356297206471587,0.01084578955364609,0.24725478901214779
7505,10.0,299.96125,-6553.518,0.0,0.07505000550439145,0.0,0.0,0.0,0.0,0.4198153948375536,1.068159946769179,0.5041304687838035,-0.013736055066393088,-0.005462469285978745,0.2586297170197657
7506,10.0,300.09,-6603.3,0.0,0.07506000149181058,0.0,0.0,0.0,0.0,0.4115152654508946,1.0796913408572388,0.5160317396883675,-0.0032692020010451164,-0.006993687872173254,0.2676826405682198
7507,10.0,299.26417000000004,-6515.2927,0.0,0.07507003046928729,0.0,0.0,0.0,0.0,0.4041280136093296,1.063476400831949,0.5128818389699965,0.0037604388217764165,-0.0001058066861198069,0.2581603289109407
7508,10.0,298.98645,-6350.9923,0.0,0.07508002645670664,0.0,0.0,0.0,0.0,0.38571646895725165,1.0525969318582291,0.49222969437178854,-0.004292036129765986,-0.0036319799873485168,0.27203184436995276
7509,10.0,299.05536,-6402.6174,0.0,0.07509002244412599,0.0,0.0,0.0,0.0,0.40620673671948365,1.0641987468282388,0.47583035296079956,-0.001181191845774559,-0.004692173052556425,0.2592817839891198
7510,10.0,299.2643,-6599.2602,0.0,0.07510001843154535,0.0,0.0,0.0,0.0,0.4195872413125366,1.060399768228309,0.5260233685269645,0.003012819936192177,-0.002170832813144518,0.2587418534083327
7511,10.0,299.6768,-6584.8689,0.0,0.07511001441896448,0.0,0.0,0.0,0.0,0.41880182049752157,1.062802994815489,0.5200309669055605,0.008549559542575831,0.013574565291955287,0.24114708966186474
7512,10.0,300.01858,-6417.2026,0.0,0.07512001040638383,0.0,0.0,0.0,0.0,0.3792575467248056,1.057412098983449,0.5139996767453185,0.004319926750693576,-0.002953160884879287,0.24904495875882376
7513,10.0,300.01414,-6455.2228,0.0,0.07513000639380318,0.0,0.0,0.0,0.0,0.3942562522575626,1.041985670185979,0.5259846015781385,-0.0011874908163462187,-0.01765149764606718,0.2429696124842338
7514,10.0,300.49509,-6605.1497,0.0,0.07514000238122254,0.0,0.0,0.0,0.0,0.43018659729611164,1.055554203600089,0.5220597671832875,-0.008332512657204971,-0.002762568541069287,0.2360170955980738
7515,10.0,300.06392999999997,-6663.5272,0.0,0.07515003135869924,0.0,0.0,0.0,0.0,0.4442537105544276,1.064088910517399,0.5172032493214865,-0.0007602265133985153,0.0035315425844361166,0.24758097448433974
7516,10.0,299.84862999999996,-6628.2254,0.0,0.0751600273461186,0.0,0.0,0.0,0.0,0.4338320887708936,1.0556640399109292,0.5253188658649355,-0.00016254311884425683,0.01062018131288029,0.2287304392264368
7517,10.0,300.14717,-6593.598000000001,0.0,0.07517002333353795,0.0,0.0,0.0,0.0,0.43298638970742953,1.062940999479109,0.5083617708039004,-0.003089729874432597,-0.0005874416449284765,0.2503947294820357
7518,10.0,300.18065,-6480.1437,0.0,0.0751800193209573,0.0,0.0,0.0,0.0,0.4095947208138516,1.036423231112009,0.5237838831559445,0.014601671587072786,0.005769861704591014,0.23561929360881378
7519,10.0,299.90893,-6510.8295,0.0,0.07519001530837643,0.0,0.0,0.0,0.0,0.4155651247755846,1.048314328985569,0.5152501793562335,0.0018051972589090985,0.007658336368018953,0.25342382039098377
7520,10.0,300.48941,-6680.9617,0.0,0.07520001129579579,0.0,0.0,0.0,0.0,0.4361396240186296,1.063814725040339,0.5308911739948795,-0.0005948860947381865,-0.0023502933887058976,0.23981005549240977
7521,10.0,300.71347000000003,-6555.7423,0.0,0.07521000728321514,0.0,0.0,0.0,0.0,0.4216613541347356,1.0687458079769991,0.5023748407330365,-0.015754561736354186,-0.009834161667056189,0.2559301350433377
7522,10.0,300.15845,-6431.4168,0.0,0.0752200032706345,0.0,0.0,0.0,0.0,0.3880104773161526,1.065071763114399,0.5019079148219545,-0.02126887447032448,0.007029978235104833,0.25825167340745575
7523,10.0,299.44251,-6438.3368,0.0,0.0752300322481112,0.0,0.0,0.0,0.0,0.4041086402674176,1.047430977548389,0.5055540243792975,-0.002198369708462198,0.008741193406163621,0.24700448583994475
7524,10.0,299.96006,-6482.5471,0.0,0.07524002823553055,0.0,0.0,0.0,0.0,0.38408479179121763,1.0661712407979091,0.5202764571397885,-0.0064389405351739535,0.0005363175133154175,0.25834775991443876
7525,10.0,299.81592,-6370.0473,0.0,0.07525002422294969,0.0,0.0,0.0,0.0,0.3886532527820897,1.043564719141819,0.5041172965325035,0.004774159576447865,-0.0038800983896858966,0.2543345397133647
7526,10.0,299.92672000000005,-6405.9259999999995,0.0,0.07526002021036926,0.0,0.0,0.0,0.0,0.4012834558085936,1.050866402012439,0.49509169020674554,0.0007838034550728783,-0.0022828518673499378,0.2573952237604307
7527,10.0,299.99681,-6567.6211,0.0,0.07527001619778839,0.0,0.0,0.0,0.0,0.41923348530512355,1.0771546692318887,0.5000047170266235,0.004614408235206636,0.008029303542955562,0.24575767145939378
7528,10.0,300.2232,-6607.7390000000005,0.0,0.07528001218520775,0.0,0.0,0.0,0.0,0.43123785440736256,1.0675607106600389,0.5097890754247645,0.0062908669013352235,-0.002110520924792198,0.25655853249035576
7529,10.0,300.84557,-6671.9224,0.0,0.0752900081726271,0.0,0.0,0.0,0.0,0.42917798788156963,1.0723108271288389,0.5266090473497665,-0.012377721366585989,-0.01075885168181599,0.2531430994507788
7530,10.0,301.15019,-6672.5171,0.0,0.07530000416004623,0.0,0.0,0.0,0.0,0.4151268839748336,1.075019953921209,0.5381317984144735,-0.0002303360049373938,0.005650084498344925,0.24599856153816776
7531,10.0,300.31503,-6522.5823,0.0,0.07531003313752316,0.0,0.0,0.0,0.0,0.42590786503883354,1.053232340995939,0.5035619949476996,-0.004125911040095716,0.001290064353119439,0.25437510011486775
7532,10.0,299.96089,-6595.8499,0.0,0.07532002912494251,0.0,0.0,0.0,0.0,0.4414709914072946,1.054603167056229,0.5088995127644714,-0.005671342282792905,0.011560579743940388,0.2291407751194338
7533,10.0,299.74593,-6637.7305,0.0,0.07533002511236164,0.0,0.0,0.0,0.0,0.4332326196142306,1.0758035002235389,0.5086682586941484,-0.01186650730688309,-0.008194586621792732,0.2513904807528088
7534,10.0,300.22815,-6457.8044,0.0,0.075340021099781,0.0,0.0,0.0,0.0,0.4075923967612376,1.049762364703479,0.5056565754219186,0.002329953203548478,0.01031808687506589,0.23198658935029376
7535,10.0,300.26812,-6458.5272,0.0,0.07535001708720057,0.0,0.0,0.0,0.0,0.3958551406503606,1.0691206091889889,0.49825520900646053,-0.014152450194988087,0.001181755719455209,0.25631836181915274
7536,10.0,299.56712999999996,-6635.0284,0.0,0.0753600130746197,0.0,0.0,0.0,0.0,0.4062454631383056,1.070853874810049,0.5397836696550005,0.01002241137663499,-0.0037531681443588563,0.24245696872863978
7537,10.0,300.07877,-6623.1857,0.0,0.07537000906203906,0.0,0.0,0.0,0.0,0.4112552654752346,1.0764220894095888,0.5256056865707425,0.006198614735380644,-0.02312818029782368,0.25431886473431775
7538,10.0,300.54125,-6573.2691,0.0,0.07538000504945819,0.0,0.0,0.0,0.0,0.4121441492579606,1.076639228906019,0.5093262329115855,0.008979682487500662,-0.01206144649362209,0.26006902865431475
7539,10.0,300.52263999999997,-6628.170999999999,0.0,0.07539000103687776,0.0,0.0,0.0,0.0,0.4301875902812096,1.078024848417769,0.5065859790761436,0.008432797059352272,-0.0025159684940067577,0.25698666105510876
7540,10.0,300.5224,-6519.2119,0.0,0.07540003001435447,0.0,0.0,0.0,0.0,0.4219707500527706,1.061083306745769,0.49862357608031554,-0.00012231237826129188,0.006498462899048353,0.2612859318919138
7541,10.0,299.71963,-6435.1096,0.0,0.0754100260017736,0.0,0.0,0.0,0.0,0.3993143866242616,1.054873603507919,0.5019246233161034,-0.002091711253910828,-0.0028897171417928773,0.2535165023776308
7542,10.0,299.85696,-6535.6491,0.0,0.07542002198919295,0.0,0.0,0.0,0.0,0.3993026835856066,1.068394210192299,0.5189772779940696,-0.0007641210718803783,0.012729353601789386,0.25985967091865275
7543,10.0,300.48648,-6538.3096,0.0,0.07543001797661253,0.0,0.0,0.0,0.0,0.4199824797790436,1.064026595636249,0.5034738320564985,-0.006064438333288464,0.00961303563943275,0.2470704078914508
7544,10.0,299.98431,-6443.4226,0.0,0.07544001396403166,0.0,0.0,0.0,0.0,0.40979702632881765,1.0557120679656689,0.4931305345056945,-0.008126067610280431,0.0015730123157192285,0.25395415549332373
7545,10.0,299.6396,-6466.1443,0.0,0.07545000995145101,0.0,0.0,0.0,0.0,0.4242678285594746,1.048955513648849,0.49232310589850753,-0.015319240109141286,-0.022860937610448877,0.2432678727836698
7546,10.0,299.52617999999995,-6565.5517,0.0,0.07546000593887014,0.0,0.0,0.0,0.0,0.41560928221494264,1.068381544566049,0.5117729279280555,-0.005513944012258905,-0.007209194921367143,0.24022557922591875
7547,10.0,299.73287999999997,-6527.8484,0.0,0.0754700019262895,0.0,0.0,0.0,0.0,0.40748320893046164,1.056926448210519,0.5198932864819725,0.0016973396228643783,-0.0018234490342854085,0.24998675446177177
7548,10.0,300.55582999999996,-6579.0796,0.0,0.07548003090376643,0.0,0.0,0.0,0.0,0.4077709314288576,1.055238981493979,0.5368660261245515,0.013956653798664485,-0.0001113244712618699,0.24111725957892077
7549,10.0,300.20779,-6637.2344,0.0,0.07549002689118556,0.0,0.0,0.0,0.0,0.4402849213702386,1.050316815158199,0.5269517690635904,0.007161266671761993,-0.012055329502768388,0.2577962985475138
7550,10.0,299.66117,-6523.2706,0.0,0.07550002287860491,0.0,0.0,0.0,0.0,0.4200445210826666,1.051954632619839,0.5109121719681055,0.007494555635105054,-0.004328970007836076,0.23935076948708178
7551,10.0,300.49416,-6433.2773,0.0,0.07551001886602426,0.0,0.0,0.0,0.0,0.41075565211592663,1.056799386647979,0.48800057083940657,0.01872437954095238,0.0006689178859370554,0.2560183789945467
7552,10.0,300.80311,-6565.5517,0.0,0.07552001485344362,0.0,0.0,0.0,0.0,0.42010914617404455,1.0499011799671791,0.5257534893628294,-0.0005357068984076545,-0.007708127680582972,0.23953026674229677
7553,10.0,300.53005,-6615.2904,0.0,0.07553001084086297,0.0,0.0,0.0,0.0,0.41854747445741963,1.072765371123699,0.5195702927475956,-0.005669877021823295,-0.013602115562174288,0.25302326236145173
7554,10.0,300.00866,-6475.8274,0.0,0.0755400068282821,0.0,0.0,0.0,0.0,0.40069701704821664,1.057161927533759,0.5106308633428426,-0.014248341144701786,-0.0021099639412122282,0.26091051259736275
7555,10.0,299.60862000000003,-6593.1551,0.0,0.07555000281570146,0.0,0.0,0.0,0.0,0.41979925376346056,1.071891240262429,0.5124640455562636,-0.0018314029462453982,0.01221225863850609,0.2635970540450037
7556,10.0,299.82874,-6531.7762,0.0,0.07556003179317838,0.0,0.0,0.0,0.0,0.4080633554077176,1.072931240165069,0.5045023011730005,-0.009141167499662992,0.012652932252747188,0.2658838784606957
7557,10.0,300.2581,-6435.9525,0.0,0.07557002778059752,0.0,0.0,0.0,0.0,0.4143154023672466,1.048040954108589,0.49401249779023754,-0.007834859734190453,-0.005765075009793605,0.26195596378554076
7558,10.0,299.91271,-6516.1573,0.0,0.07558002376801709,0.0,0.0,0.0,0.0,0.4045724960306966,1.053937056440489,0.5222395988110355,-0.006076429438946894,0.004914727560170845,0.2596544877734027
7559,10.0,299.51471000000004,-6483.1452,0.0,0.07559001975543622,0.0,0.0,0.0,0.0,0.4050146986393386,1.0548715770077188,0.5108280114147995,0.013717298793791986,-0.0014344017285394285,0.25743250123160977
7560,10.0,299.90582,-6495.347,0.0,0.07560001574285558,0.0,0.0,0.0,0.0,0.3969089714168656,1.058130797279379,0.5193835507541654,0.009683120021024541,-0.015178193668721087,0.24610175092835176
7561,10.0,299.72402,-6580.6645,0.0,0.07561001173027493,0.0,0.0,0.0,0.0,0.4368561438268446,1.054708342416609,0.5087931721664766,0.004770028859765196,-0.030171509724196174,0.25305682120476375
7562,10.0,299.92126,-6683.0317,0.0,0.07562000771769406,0.0,0.0,0.0,0.0,0.4380681530664606,1.0779158227070091,0.5154907451949755,-0.004362207042916315,-0.004494498293197446,0.2445329560635238
7563,10.0,299.90982,-6670.7572,0.0,0.07563000370511341,0.0,0.0,0.0,0.0,0.44556800739163854,1.0601006567987892,0.5220749659347875,-0.008442339544819042,0.01195546053316209,0.24439314781472576
7564,10.0,300.02518,-6643.1955,0.0,0.07564003268259034,0.0,0.0,0.0,0.0,0.4144001911356146,1.0804840064104688,0.5244813133322755,-0.013707380088563089,0.006009542368045654,0.25206368411924873
7565,10.0,300.14597000000003,-6597.7544,0.0,0.0756500286700097,0.0,0.0,0.0,0.0,0.42659303488895456,1.0574420911864089,0.5215174453322645,-0.0004748266882067456,-0.002062860375863468,0.23520604968802977
7566,10.0,300.4632,-6484.5857,0.0,0.07566002465742905,0.0,0.0,0.0,0.0,0.4076172923161946,1.053627305884919,0.5099075344939555,-0.004368585756270846,0.002270181478824468,0.25108963666561773
7567,10.0,300.22184,-6452.674,0.0,0.07567002064484818,0.0,0.0,0.0,0.0,0.41760585100698866,1.046918678297829,0.49692724342540057,0.00888013218505081,0.0091058720470046,0.24406156171950077
7568,10.0,300.38534,-6512.721,0.0,0.07568001663226731,0.0,0.0,0.0,0.0,0.4106805500185146,1.062231927059129,0.5067920336164795,-0.0068905485365441934,-0.0014852234151301387,0.25432267455469376
7569,10.0,300.22853,-6555.2293,0.0,0.07569001261968689,0.0,0.0,0.0,0.0,0.42636385798133664,1.060083431547089,0.5061787437284525,-0.004794700891750135,-0.018160330568035083,0.2409763975500188
7570,10.0,300.10344,-6552.0464,0.0,0.07570000860710602,0.0,0.0,0.0,0.0,0.41242163793034664,1.059878147076829,0.5193586855967115,-0.005419039968142605,-0.003071599891718307,0.25983362025858175
7571,10.0,299.40828,-6693.7152,0.0,0.07571000459452559,0.0,0.0,0.0,0.0,0.4309442753233886,1.0757553708437888,0.5280226629617795,-0.0017875946728718583,0.011159899111146291,0.24335025001679975
7572,10.0,299.77312,-6630.545999999999,0.0,0.07572003357200208,0.0,0.0,0.0,0.0,0.42306679281844156,1.082281208112839,0.5101724284675985,0.0036894633880466864,-0.002343361035496728,0.2651487047181397
7573,10.0,299.79046,-6599.1396,0.0,0.07573002955942165,0.0,0.0,0.0,0.0,0.42521374819032953,1.079361223974659,0.5013986755866966,0.007857640534863743,-0.014409532010360089,0.24736558791058277
7574,10.0,299.8152,-6573.0346,0.0,0.075740025546841,0.0,0.0,0.0,0.0,0.4167365229511926,1.081876617347909,0.49942518863192853,0.011941414860275888,0.0026106686722029374,0.26509453636779373
7575,10.0,300.14817999999997,-6523.3974,0.0,0.07575002153426014,0.0,0.0,0.0,0.0,0.40463085923645664,1.058111545527479,0.5202075460004875,-0.0027586394611565173,0.006734332728876895,0.24418318212900378
7576,10.0,300.49568,-6426.7908,0.0,0.07576001752167927,0.0,0.0,0.0,0.0,0.3682607737870086,1.070934630843019,0.5143885621336984,-0.012269763621431387,0.0033922080300598668,0.25616824881683775
7577,10.0,300.31979,-6509.1565,0.0,0.07577001350909884,0.0,0.0,0.0,0.0,0.39365420944564566,1.068180414421199,0.5167863779653444,-0.014000882165529487,-0.012067184528938388,0.2650671786150937
7578,10.0,300.13056,-6597.3842,0.0,0.0757800094965182,0.0,0.0,0.0,0.0,0.4306562184524596,1.063681381327179,0.5111024603368856,0.0021411580614408483,0.007153015674872683,0.26063355081502876
7579,10.0,299.87171,-6518.846,0.0,0.07579000548393755,0.0,0.0,0.0,0.0,0.4307958139187366,1.044618195270789,0.5061523789608505,-0.007553117235234633,0.019782062684337583,0.25203202005362374
7580,10.0,299.28126000000003,-6598.593000000001,0.0,0.07580000147135668,0.0,0.0,0.0,0.0,0.42655106606981263,1.075156540034689,0.5040998483657815,0.0008188396474281812,-0.004145667795845556,0.24872410298215775
7581,10.0,299.15288,-6733.1593,0.0,0.07581003044883361,0.0,0.0,0.0,0.0,0.4445352927572176,1.061827133644179,0.5403499143408844,-0.004400152752536266,0.0036453466813427065,0.2292611694963158
7582,10.0,299.5279,-6710.9896,0.0,0.07582002643625296,0.0,0.0,0.0,0.0,0.42356934460303963,1.074994420018689,0.5414095105004585,0.0006078161792642864,0.008777123558684652,0.2415519337393198
7583,10.0,299.97029,-6635.1025,0.0,0.0758300224236721,0.0,0.0,0.0,0.0,0.4195778079541056,1.062429308178609,0.5348984261528645,0.015093274191090187,0.0070157787508534535,0.23252141315057676
7584,10.0,299.47049,-6608.5215,0.0,0.07584001841109123,0.0,0.0,0.0,0.0,0.42295115058452865,1.069140671540969,0.5167336788276435,-0.004139755278862036,-0.006640877835053614,0.25086251665570275
7585,10.0,299.83599,-6592.3571,0.0,0.07585001439851058,0.0,0.0,0.0,0.0,0.42477027901906256,1.0756084495792888,0.5035332794398656,0.0016277782809742082,-0.012058197000551388,0.24165511299700276
7586,10.0,300.27058,-6545.4082,0.0,0.07586001038593015,0.0,0.0,0.0,0.0,0.42363327055184863,1.059012730166419,0.5069946127089725,-0.0014383875504577984,-0.0013361016753879688,0.2575252642782648
7587,10.0,299.80807000000004,-6581.4326,0.0,0.07587000637334951,0.0,0.0,0.0,0.0,0.4084754442233876,1.062179542028959,0.5299361857756295,-0.01042683394204839,0.010977761326170688,0.2420414652601328
7588,10.0,300.10371000000004,-6552.6174,0.0,0.07588000236076864,0.0,0.0,0.0,0.0,0.39623997303834063,1.066640578244229,0.5289515093284495,-0.01344596662901359,-0.002256239056123458,0.26124944475581274
7589,10.0,299.90612999999996,-6507.9205,0.0,0.07589003133824535,0.0,0.0,0.0,0.0,0.3947449123832896,1.0735997825810488,0.5099005937307706,-0.0013776669170151388,0.001057798248596559,0.26842876754435674
7590,10.0,299.91491,-6592.1174,0.0,0.07590002732566492,0.0,0.0,0.0,0.0,0.4186870091286906,1.085206967776589,0.49994506699323654,4.8470962570711555e-05,0.011139080874591688,0.26308892938485573
7591,10.0,300.54154,-6666.0908,0.0,0.07591002331308405,0.0,0.0,0.0,0.0,0.4422735260164986,1.080006258988319,0.5040453659079045,0.016681969287882185,0.013816184910801287,0.26259079537069374
7592,10.0,300.27725,-6558.6877,0.0,0.07592001930050318,0.0,0.0,0.0,0.0,0.4128045654081386,1.0787774905920489,0.5020952850304465,0.0039511823425013365,0.005219634780262845,0.2544263807024288
7593,10.0,299.77263999999997,-6516.076,0.0,0.07593001528792254,0.0,0.0,0.0,0.0,0.3902609159207536,1.065718520653229,0.5247449812732975,0.0011686425406360387,-0.0040857794460350365,0.25345539326409977
7594,10.0,299.62489,-6551.0981,0.0,0.07594001127534189,0.0,0.0,0.0,0.0,0.3937883130963806,1.0686661665191388,0.5289157415999195,0.0018877063158771082,0.005272289942909505,0.2459294781463498
7595,10.0,299.77107,-6569.1065,0.0,0.07595000726276147,0.0,0.0,0.0,0.0,0.4175432017533056,1.056466635315139,0.5228344576797435,0.004918714699314345,0.0008416309149750043,0.24957406782854277
7596,10.0,299.92977,-6582.9484,0.0,0.0759600032501806,0.0,0.0,0.0,0.0,0.4333939999576576,1.061052807917759,0.5066050991055305,0.00010598103606451391,-0.006216924468662675,0.24849781383732478
7597,10.0,300.04497000000003,-6549.6516,0.0,0.0759700322276573,0.0,0.0,0.0,0.0,0.44963637879565554,1.0503020217067391,0.4909921816271556,-0.0028972825736645275,0.005812592082508175,0.25151955868304776
7598,10.0,299.45006,-6521.4007,0.0,0.07598002821507666,0.0,0.0,0.0,0.0,0.4110844517733766,1.067990227377429,0.5032682537437095,0.004185793513055655,0.014287858911851886,0.24940944508479576
7599,10.0,300.02932999999996,-6494.2718,0.0,0.07599002420249601,0.0,0.0,0.0,0.0,0.4136588163024466,1.0405247661917991,0.5199129232689105,3.055763907230417e-05,0.012908321940452187,0.24805030179815876
7600,10.0,300.15945,-6539.8996,0.0,0.07600002018991514,0.0,0.0,0.0,0.0,0.4076417116436046,1.0450564259390391,0.5352680699218455,-0.02188248758513338,-0.003617177416637617,0.24479389836177678
7601,10.0,300.68782000000004,-6560.5365,0.0,0.07601001617733472,0.0,0.0,0.0,0.0,0.4093416312038736,1.065322137214109,0.5195755211181116,-0.009867374586784052,-0.017366902037479787,0.24739998775147778
7602,10.0,300.61517000000003,-6489.2957,0.0,0.07602001216475385,0.0,0.0,0.0,0.0,0.42053607910367957,1.062613719696809,0.4894341069483855,0.0012729217826275988,-0.0013006732843164589,0.26424503761645474
7603,10.0,300.47036,-6596.3354,0.0,0.07603000815217342,0.0,0.0,0.0,0.0,0.4361170285413996,1.0668598455658689,0.5021444175277955,0.006088385283501844,0.0025455643135276376,0.24245557044350174
7604,10.0,299.97512,-6669.703,0.0,0.07604000413959255,0.0,0.0,0.0,0.0,0.4316020468908056,1.0691197985889092,0.5267013240363735,0.008719157850938882,-0.0003697327526047816,0.25498618111767674
7605,10.0,300.54242999999997,-6593.8183,0.0,0.07605003311706926,0.0,0.0,0.0,0.0,0.3905948527562106,1.086240685528609,0.5275205468747245,-0.006186386225223784,0.005333532704128694,0.25737939679386873
7606,10.0,300.68138999999996,-6490.4028,0.0,0.07606002910448861,0.0,0.0,0.0,0.0,0.3756399398927756,1.0770516216967188,0.5202287837225835,-0.003293940299586597,0.016476555121609383,0.26207372371216275
7607,10.0,299.64746,-6568.3103,0.0,0.07607002509190797,0.0,0.0,0.0,0.0,0.39738703294654665,1.077060132997559,0.5221551545477014,-0.007884855520624654,0.0055670311234231945,0.25802773500285475
7608,10.0,300.17047,-6624.004,0.0,0.07608002107932732,0.0,0.0,0.0,0.0,0.43156625889727357,1.074899985109369,0.5070656111434795,-0.006208930330673714,-0.010251510263995291,0.26078599429257376
7609,10.0,300.17888,-6609.6088,0.0,0.07609001706674667,0.0,0.0,0.0,0.0,0.4316521217107476,1.072137662686749,0.5053662286057635,-0.005588186873586105,-0.00982196487162746,0.2669660802300008
7610,10.0,299.35672,-6656.7925,0.0,0.0761000130541658,0.0,0.0,0.0,0.0,0.4352307386789296,1.0761045368282491,0.5121633939865915,0.001116916224356049,0.01051439698919019,0.25397521083040175
7611,10.0,299.64307,-6592.9077,0.0,0.07611000904158516,0.0,0.0,0.0,0.0,0.3979550406876046,1.0729441084413387,0.5331801870307875,0.007702733441025602,0.008926248743477161,0.25263495452562873
7612,10.0,300.10643,-6656.7751,0.0,0.07612000502900451,0.0,0.0,0.0,0.0,0.43295318550165257,1.0559042815096389,0.5346359234494575,-0.004097316210348626,-0.009052336370021043,0.23888211091832875
7613,10.0,299.47319,-6857.8741,0.0,0.07613003400648122,0.0,0.0,0.0,0.0,0.43934763463023563,1.097967940860999,0.5473068996599855,0.005518873575320415,-0.014106972490749789,0.23876433072670478
7614,10.0,300.06599,-6705.243,0.0,0.07614002999390057,0.0,0.0,0.0,0.0,0.4600390831998225,1.0666268993678791,0.5115604899120895,0.02143663930263158,6.746056843133974e-05,0.24297423290468978
7615,10.0,300.22143,-6532.0025,0.0,0.07615002598131992,0.0,0.0,0.0,0.0,0.4218337789042526,1.056202683664089,0.5075292642567385,0.02033752132290708,0.0046454555354957655,0.23453819628211778
7616,10.0,299.80821000000003,-6533.7374,0.0,0.07616002196873928,0.0,0.0,0.0,0.0,0.4215186277256496,1.052164578040559,0.5124097758809075,0.008069901536037273,-0.012692728663674789,0.2365985998304638
7617,10.0,300.08025,-6605.1659,0.0,0.07617001795615863,0.0,0.0,0.0,0.0,0.3976313376781576,1.059047383319839,0.5511268120069814,-0.0011625107563308788,-0.008791023222231442,0.23911408439622278
7618,10.0,300.11172,-6622.6188,0.0,0.07618001394357776,0.0,0.0,0.0,0.0,0.4154523905694586,1.077046859421249,0.5206115288153574,-0.0059815653168845346,-0.00041249664883524957,0.2620727307270647
7619,10.0,299.54101,-6587.6751,0.0,0.07619000993099712,0.0,0.0,0.0,0.0,0.4057569448675926,1.072968426443739,0.5237633243114155,-0.006219976884588925,0.01031873028887939,0.26295671037930674
7620,10.0,299.86805,-6603.0588,0.0,0.07620000591841647,0.0,0.0,0.0,0.0,0.4334367793768796,1.073664529262439,0.5000636476524396,-0.010715123860500388,-0.006773979685414744,0.26660258688912675
7621,10.0,299.20526,-6626.8532,0.0,0.07621000190583582,0.0,0.0,0.0,0.0,0.42561155017958957,1.079518379065169,0.5092679305008315,0.0017610362731757484,-8.80582923799268e-05,0.27127577741033476
7622,10.0,299.91213999999997,-6571.3319,0.0,0.07622003088331253,0.0,0.0,0.0,0.0,0.4152415636211516,1.071669845115579,0.5106094331032275,0.00920512739235034,0.01200955795600109,0.25745630247645873
7623,10.0,299.99453,-6557.9301,0.0,0.07623002687073166,0.0,0.0,0.0,0.0,0.38914219661784466,1.075835620251709,0.5284691516183445,0.0048266295169762455,0.013978513656321887,0.24576605103772078
7624,10.0,300.34737,-6486.9973,0.0,0.07624002285815124,0.0,0.0,0.0,0.0,0.3986215566033846,1.0639634701550191,0.5093001619865125,-0.012576722672975887,-0.0073940652392124225,0.24047431186046675
7625,10.0,300.84691000000004,-6562.6877,0.0,0.07625001884557059,0.0,0.0,0.0,0.0,0.40005467727982263,1.070022705753019,0.5248158378527905,-0.012970103852049589,-0.013147906953097387,0.25059520101432076
7626,10.0,300.53024,-6794.3763,0.0,0.07626001483298972,0.0,0.0,0.0,0.0,0.4591511113421866,1.088603078136759,0.5175665906748455,0.006082144878785964,-0.0059211730777992844,0.25126034904246575
7627,10.0,299.78423,-6718.3627,0.0,0.07627001082040907,0.0,0.0,0.0,0.0,0.4342814854552456,1.0735660413527188,0.5343669460779115,0.02869753784347647,0.007370169863429133,0.24667810785023378
7628,10.0,300.32477,-6492.1038,0.0,0.0762800068078282,0.0,0.0,0.0,0.0,0.4104241166832066,1.053397196787209,0.5096161541626986,0.004472891342765006,-0.002764902360024617,0.2568610484402118
7629,10.0,299.61683999999997,-6595.7626,0.0,0.07629000279524778,0.0,0.0,0.0,0.0,0.4115839638076746,1.063671958101249,0.5296911717689485,-0.0020673057067021883,-0.0035479987793102167,0.2442400963871208
7630,10.0,299.54072,-6648.8942,0.0,0.07630003177272449,0.0,0.0,0.0,0.0,0.44260148467636556,1.0658439610156092,0.5126523783523504,0.002194587752463948,0.01160560553863409,0.25773939442189775
7631,10.0,300.00208,-6608.5374,0.0,0.07631002776014384,0.0,0.0,0.0,0.0,0.4278667611921616,1.077676999658439,0.5032865631730166,0.004856301938204685,0.02229483072657848,0.2537816597962998
7632,10.0,299.6775,-6675.1351,0.0,0.07632002374756297,0.0,0.0,0.0,0.0,0.45902839662257555,1.064732830955949,0.5053131241680225,0.00023997669460385575,-0.00014265447846140088,0.24462231458984277
7633,10.0,299.80016,-6663.4282,0.0,0.07633001973498255,0.0,0.0,0.0,0.0,0.4226835714981206,1.072449439742519,0.5303828061547075,0.0001155039050093479,-0.010162387824949591,0.24402157887055476
7634,10.0,300.19617999999997,-6612.7786,0.0,0.07634001572240168,0.0,0.0,0.0,0.0,0.4061467421810626,1.078573118046879,0.5253997637529195,-0.0017033524516077982,-0.001092264457373109,0.2372674158239708
7635,10.0,299.71297000000004,-6696.5051,0.0,0.07635001170982103,0.0,0.0,0.0,0.0,0.4000605946604066,1.087724083675009,0.5477856704647365,-0.003799740462680186,0.005173064285791695,0.24739746475872876
7636,10.0,300.19979,-6683.911,0.0,0.07636000769724016,0.0,0.0,0.0,0.0,0.42088809232092056,1.087325673735689,0.5235283110832215,-0.002837008276890917,-0.017356681383721085,0.24055279821321277
7637,10.0,299.84918999999996,-6491.6265,0.0,0.07637000368465974,0.0,0.0,0.0,0.0,0.4133254164895426,1.058980812788269,0.5009861308084815,-0.003045537984571197,-0.008629822224072142,0.27762275577173273
7638,10.0,299.66146000000003,-6459.6472,0.0,0.07638003266213644,0.0,0.0,0.0,0.0,0.41397552788620356,1.067317631961049,0.48227833209216553,0.020854359933915084,-0.004612583878401586,0.26594860487708377
7639,10.0,299.86022,-6420.3957,0.0,0.0763900286495558,0.0,0.0,0.0,0.0,0.38199061661703865,1.066074880713399,0.5035744984539335,0.013643696306527989,0.009120267797800351,0.27948388342291175
7640,10.0,300.36397999999997,-6490.1492,0.0,0.07640002463697493,0.0,0.0,0.0,0.0,0.4053154920640246,1.053820735329009,0.5137070197189355,0.006150828442114504,-0.0027549728130196478,0.26570308424535277
7641,10.0,300.73058,-6577.6764,0.0,0.0764100206243945,0.0,0.0,0.0,0.0,0.40413048593957357,1.073580936129189,0.5217380096140325,-0.00922426110061369,-0.00860603050377408,0.2603090878680067
7642,10.0,300.39472,-6625.0302,0.0,0.07642001661181363,0.0,0.0,0.0,0.0,0.4384745980790736,1.066839783213889,0.5085293421054384,-0.004403577740524286,0.0018552604264749483,0.2540167034219968
7643,10.0,300.00054,-6607.0913,0.0,0.07643001259923299,0.0,0.0,0.0,0.0,0.4300649160916025,1.075008909495119,0.5033169201460126,-0.02145016517821648,0.015618117477888183,0.24926669841070775
7644,10.0,299.88234,-6720.4433,0.0,0.07644000858665234,0.0,0.0,0.0,0.0,0.45160851812779057,1.081562408491899,0.5096759865811035,-0.012350682787667489,0.005479124483172485,0.2399385457375908
7645,10.0,299.86228,-6903.9831,0.0,0.07645000457407147,0.0,0.0,0.0,0.0,0.43522434507079855,1.0881894694459389,0.5752246250277504,0.002098039102110338,0.002563667039814238,0.23981353094025276
7646,10.0,299.49138,-6870.4918,0.0,0.07646003355154862,0.0,0.0,0.0,0.0,0.4318993851326505,1.089159251116649,0.5673993350354545,0.012501833358084887,0.01127565584232059,0.2355140675859288
7647,10.0,299.58153,-6510.5621,0.0,0.07647002953896775,0.0,0.0,0.0,0.0,0.3819829969762867,1.060988061236369,0.5360772413192045,0.005444925671097324,-0.002706145101300727,0.24033490891170878
7648,10.0,299.61259,-6426.9403,0.0,0.07648002552638689,0.0,0.0,0.0,0.0,0.4114492623393806,1.0355000589458991,0.5066800086854235,0.004520253793514316,-0.014195057361693087,0.2355044822399828
7649,10.0,300.23663,-6619.9314,0.0,0.07649002151380624,0.0,0.0,0.0,0.0,0.44009942567443155,1.067631030216979,0.5045634204190325,0.011675029382485689,-0.01899468224362918,0.25850199684466074
7650,10.0,300.27535,-6652.5232,0.0,0.07650001750122559,0.0,0.0,0.0,0.0,0.4551223782820816,1.059279113617709,0.5077994271309014,0.02164048394449948,-0.009206193331455542,0.26487669772879474
7651,10.0,300.02294,-6540.6871,0.0,0.07651001348864495,0.0,0.0,0.0,0.0,0.38865751856501063,1.078503710415029,0.5210443588605745,0.016467462215211982,0.0007497376726033473,0.28217795331879575
7652,10.0,300.52643,-6490.5197,0.0,0.0765200094760643,0.0,0.0,0.0,0.0,0.3930411424726406,1.0713024406293188,0.5086123982161355,-0.004695917416975965,-0.0018482660623596583,0.2575174622524947
7653,10.0,299.98514,-6674.3485,0.0,0.07653000546348343,0.0,0.0,0.0,0.0,0.4130706955469036,1.0831367964972791,0.5326277529437665,-0.003225442465001387,0.0020950102949114182,0.2594425158524828
7654,10.0,300.14313,-6787.59,0.0,0.07654000145090278,0.0,0.0,0.0,0.0,0.4558121077576526,1.093756974770409,0.5136888217471395,-0.009468810836098872,0.0046655904361829256,0.24547734568672774
7655,10.0,300.2521,-6621.2828,0.0,0.07655003042837971,0.0,0.0,0.0,0.0,0.4291656363628506,1.070352518660569,0.5131865232750665,-0.0018267442249356182,0.01119598094720729,0.24582254986329674
7656,10.0,300.13025,-6416.9489,0.0,0.07656002641579884,0.0,0.0,0.0,0.0,0.4115491080042346,1.048679605646619,0.49036353086761253,-0.018770453036249482,0.0040773518396532964,0.24373059370683678
7657,10.0,299.99304,-6498.5834,0.0,0.0765700224032182,0.0,0.0,0.0,0.0,0.36599821671121163,1.083677568075649,0.5257312991856395,-0.003114824229059217,-0.006591989429653703,0.26408675781833374
7658,10.0,300.6311,-6661.5381,0.0,0.07658001839063755,0.0,0.0,0.0,0.0,0.41528238746768065,1.078397521804549,0.5312613750514155,0.006893774826187603,-0.0059088887375619145,0.26326043209678174
7659,10.0,300.10945,-6689.3716,0.0,0.0765900143780569,0.0,0.0,0.0,0.0,0.4034583971482436,1.0839656350790792,0.5459778802988214,0.0003113913215894307,-0.00981891529280149,0.24887257451931075
7660,10.0,300.17441,-6511.5702,0.0,0.07660001036547626,0.0,0.0,0.0,0.0,0.42742034346310365,1.058195341310749,0.4937390013232455,0.0065868651199229725,-0.007391146572299372,0.25279662871158476
7661,10.0,299.83993,-6539.323,0.0,0.07661000635289539,0.0,0.0,0.0,0.0,0.4278348438140116,1.052850953658299,0.5071051582948826,0.004104614346843897,-0.014240757980953384,0.24759640628336277
7662,10.0,300.18331,-6736.1276,0.0,0.07662000234031474,0.0,0.0,0.0,0.0,0.46789687825532655,1.071720203645549,0.5079975580554555,0.011236339711940388,0.003379813042911577,0.25479430194623975
7663,10.0,299.94186,-6764.1696,0.0,0.07663003131779167,0.0,0.0,0.0,0.0,0.42581289310696063,1.0686930176467888,0.5616327260663344,0.014770430417727985,0.0028153477255281876,0.24873437733817175
7664,10.0,299.96999,-6647.972,0.0,0.0766400273052108,0.0,0.0,0.0,0.0,0.42434261654935557,1.072784825525619,0.5236900460641835,-0.0008434476014767972,0.008055336775124843,0.23700676736824677
7665,10.0,299.76015,-6600.4505,0.0,0.07665002329263015,0.0,0.0,0.0,0.0,0.39621245316562465,1.074943554863669,0.5352161712517235,-0.014334675119472286,-0.006785389692140823,0.23775802138988977
7666,10.0,300.96137999999996,-6635.9925,0.0,0.07666001928004951,0.0,0.0,0.0,0.0,0.4423687715258986,1.077356407326799,0.49745086067957756,-0.011439633145753888,0.0016006357425954484,0.23270672646136575
7667,10.0,300.67017999999996,-6728.0165,0.0,0.07667001526746886,0.0,0.0,0.0,0.0,0.43049792852183755,1.101217737906729,0.5134333104694225,-0.0015057703033079584,0.013739456546978788,0.25541438060993676
7668,10.0,301.24551,-6710.4973,0.0,0.07668001125488821,0.0,0.0,0.0,0.0,0.4292612263772846,1.085682283398499,0.5248800779091305,0.01046845622965619,0.017932701906569884,0.25865951670520676
7669,10.0,300.49376,-6559.2759,0.0,0.07669000724230735,0.0,0.0,0.0,0.0,0.37437291117272964,1.0898450187843292,0.5296381585237164,0.005704606270325805,0.000978781550615718,0.2885203213922387
7670,10.0,300.22332,-6379.9085,0.0,0.0767000032297267,0.0,0.0,0.0,0.0,0.37634813078516866,1.062215816382539,0.5007689305170455,0.010525232685759589,-0.002089367201129488,0.2740430951559477
7671,10.0,300.2542,-6502.6361,0.0,0.07671003220720363,0.0,0.0,0.0,0.0,0.38912460659610865,1.071879993186319,0.5156344037941535,0.006347085157958534,-0.00959587969403959,0.26302768854881176
7672,10.0,300.39292,-6588.3337,0.0,0.07672002819462276,0.0,0.0,0.0,0.0,0.4409149298849156,1.0575493943719991,0.5042246402480975,0.005617435148322684,0.003117266161800217,0.24165937877992377
7673,10.0,299.87407,-6597.2765,0.0,0.07673002418204211,0.0,0.0,0.0,0.0,0.4309869432850996,1.069835051834499,0.5045853674161985,0.0005769641727994304,-0.011879901459954989,0.25201450095939476
7674,10.0,299.61585,-6658.33,0.0,0.07674002016946146,0.0,0.0,0.0,0.0,0.4231091770701246,1.0807851443401888,0.5200717400895845,0.004683524152352845,-0.005192476637832544,0.2527135624683867
7675,10.0,300.04389,-6701.0183,0.0,0.07675001615688082,0.0,0.0,0.0,0.0,0.42743844010988963,1.0768184728487091,0.5326853764769535,0.004213212466061696,0.004642835676037206,0.2444919295669748
7676,10.0,300.35053999999997,-6797.9567,0.0,0.07676001214430017,0.0,0.0,0.0,0.0,0.42671733027872155,1.0922929297009187,0.5473988217090575,-0.0061774501699418645,0.01885203385480088,0.24073096811079675
7677,10.0,300.25514,-6754.6617,0.0,0.0767700081317193,0.0,0.0,0.0,0.0,0.43904913115077554,1.0798106003940091,0.5343887309550615,-0.016170638704417786,0.006365924111767795,0.2369993402450138
7678,10.0,300.02475,-6630.9607,0.0,0.07678000411913866,0.0,0.0,0.0,0.0,0.44687192854782554,1.067179525972419,0.5015950535885775,-0.017262906100216184,0.007872257680806342,0.23577486802916778
7679,10.0,299.87511,-6440.3746,0.0,0.07679003309661558,0.0,0.0,0.0,0.0,0.4180495734907806,1.038552474872149,0.5011109936183046,0.0037821830675974066,-0.0015613515295933985,0.25057777311260077
7680,10.0,299.96935,-6477.0782,0.0,0.07680002908403472,0.0,0.0,0.0,0.0,0.39672931204163464,1.056309581549639,0.5158312073610765,0.0008154217724558633,0.0036850915178402157,0.25530263938890874
7681,10.0,299.99507,-6627.2004,0.0,0.07681002507145407,0.0,0.0,0.0,0.0,0.4057531958422226,1.0692036956971889,0.5395465589990994,0.005837028533844864,-0.010852614806319688,0.26668526809728677
7682,10.0,299.82728,-6639.8311,0.0,0.07682002105887342,0.0,0.0,0.0,0.0,0.4157592026997386,1.079759633913979,0.5228240110712125,0.0067606082291450835,0.003695026333745707,0.2503752041526088
7683,10.0,299.63145,-6497.9499,0.0,0.07683001704629278,0.0,0.0,0.0,0.0,0.4047139052146526,1.068771848504569,0.5017288026017775,0.007164159298147473,0.0018694133012217282,0.25726246773232875
7684,10.0,299.74172999999996,-6640.41,0.0,0.07684001303371213,0.0,0.0,0.0,0.0,0.4482311832919736,1.068089323237209,0.5021983123006145,0.004883574679221295,0.009331716780343741,0.2329382743742178
7685,10.0,300.41581,-6793.4501,0.0,0.07685000902113126,0.0,0.0,0.0,0.0,0.4290600759674326,1.1059026010690889,0.5300765107819785,-0.003809043213173296,-0.0017818970662345482,0.2629054804542507
7686,10.0,300.86804,-6725.9859,0.0,0.07686000500855061,0.0,0.0,0.0,0.0,0.4287993971142056,1.0899938652240189,0.5257385236588525,0.003706634126891307,0.01086204917800079,0.26225396063995077
7687,10.0,300.36562000000004,-6655.6609,0.0,0.07687003398602732,0.0,0.0,0.0,0.0,0.4009754277781936,1.089508923726159,0.5326704006404754,0.013544906448278186,0.005735002253450655,0.2697675647689857
7688,10.0,299.95707999999996,-6481.8733,0.0,0.07688002997344667,0.0,0.0,0.0,0.0,0.40963996243081663,1.052619932635499,0.5080677053598786,-0.0036834968648328365,0.01006663609579963,0.2541142591416248
7689,10.0,299.83216,-6419.4415,0.0,0.07689002596086625,0.0,0.0,0.0,0.0,0.4031555772233576,1.0497449368017588,0.4984494085206266,-0.016329085688805284,-0.016142202853611384,0.25002767963331074
7690,10.0,299.68519,-6490.01,0.0,0.07690002194828538,0.0,0.0,0.0,0.0,0.4291525046415546,1.0533542349829688,0.49029428535577857,-0.021041592340393482,-0.004143358092242606,0.2384238178980988
7691,10.0,299.9695,-6582.9627,0.0,0.07691001793570473,0.0,0.0,0.0,0.0,0.40648241167419064,1.064713376554029,0.5298605263906625,0.009105120418080422,-0.0034673038453212467,0.24550965823241677
7692,10.0,299.75716,-6599.632,0.0,0.07692001392312386,0.0,0.0,0.0,0.0,0.4121101445846046,1.067278115207149,0.5267350449997015,0.011618813253687589,0.012124119052057387,0.25623758552118076
7693,10.0,299.54522000000003,-6646.7948,0.0,0.07693000991054322,0.0,0.0,0.0,0.0,0.4086455081201716,1.076498691117149,0.5353154900265256,0.005584029407100795,-0.0014888226821353583,0.25736390419983973
7694,10.0,300.05118999999996,-6781.0717,0.0,0.07694000589796257,0.0,0.0,0.0,0.0,0.4509261144504425,1.095789655796019,0.5145606829281855,-0.007494730724722332,0.006265914604372624,0.2650840694942608
7695,10.0,300.71542,-6741.8315,0.0,0.07695000188538192,0.0,0.0,0.0,0.0,0.44953945129108963,1.084537108135479,0.5152718933058765,0.009401128566519153,0.007766332110052303,0.23893521535606976
7696,10.0,300.76158,-6618.9288,0.0,0.07696003086285863,0.0,0.0,0.0,0.0,0.4510454246497176,1.067540141683009,0.4934035547451395,-0.003167767864009347,0.007213102317727774,0.2402514880309758
7697,10.0,300.18532000000005,-6591.022,0.0,0.0769700268502782,0.0,0.0,0.0,0.0,0.4041444789234546,1.067799432383599,0.5315622495361095,0.0004569485285398086,-0.006636914507287463,0.24178761571257976
7698,10.0,299.52164,-6524.1294,0.0,0.07698002283769734,0.0,0.0,0.0,0.0,0.3969037531788506,1.072475378945079,0.5137932675674476,-0.009331050872378021,-0.0007190324354154763,0.2534558694916467
7699,10.0,299.30003999999997,-6516.7395,0.0,0.07699001882511669,0.0,0.0,0.0,0.0,0.38006991999248063,1.0671716226216388,0.5336845424005635,-0.0023544832791944077,0.0008569760507169512,0.26047291014417473
7700,10.0,299.63698,-6585.8989,0.0,0.07700001481253582,0.0,0.0,0.0,0.0,0.4240397358294636,1.0632906720886188,0.5146183469913765,-0.002244843538873808,0.0035181849083678165,0.2601649530412818
7701,10.0,300.15675,-6634.1689,0.0,0.07701001079995518,0.0,0.0,0.0,0.0,0.4229809705349716,1.0894117530415688,0.5042289769585255,-0.00874274236159149,-0.006010624417827444,0.2628828849770207
7702,10.0,300.54347,-6655.2378,0.0,0.07702000678737475,0.0,0.0,0.0,0.0,0.4395649362466816,1.0793607173496091,0.5041004461833405,0.00015597114829815384,-0.001836678736866078,0.26058586726532273
7703,10.0,300.4218,-6754.4541,0.0,0.07703000277479388,0.0,0.0,0.0,0.0,0.4131605201682686,1.1061612838196189,0.5338635938257346,0.014121996963232589,-0.006157886235686055,0.25364110174242777
7704,10.0,300.50551,-6686.0278,0.0,0.07704003175227059,0.0,0.0,0.0,0.0,0.4216346549946006,1.0836888151517592,0.5270620106744706,0.019381932246347783,-0.002188768555814638,0.25388711886670773
7705,10.0,300.07616,-6657.4890000000005,0.0,0.07705002773968994,0.0,0.0,0.0,0.0,0.40443456229458363,1.0848798906443091,0.5343959554282746,0.015049246447744984,-0.01043324984168159,0.25818259001563776
7706,10.0,300.00815,-6704.8692,0.0,0.0770600237271093,0.0,0.0,0.0,0.0,0.44499689910527457,1.0880545045326189,0.5050614429756836,-0.004753441651653165,0.005946163574290654,0.25189899044799474
7707,10.0,299.55582000000004,-6687.0288,0.0,0.07707001971452865,0.0,0.0,0.0,0.0,0.4535786005622226,1.075598823703339,0.5035123051627955,-0.006057554109459045,0.01090145650088999,0.25138617443988376
7708,10.0,299.66719,-6624.4071,0.0,0.07708001570194778,0.0,0.0,0.0,0.0,0.4437939483215526,1.0606783106807989,0.5091820676873575,-0.012635270290254089,0.01085819072161999,0.24254247690457875
7709,10.0,299.86306,-6588.2611,0.0,0.07709001168936713,0.0,0.0,0.0,0.0,0.4027568430440056,1.0672694012562889,0.5326406414850384,-0.0029558597778456476,0.005918187232404604,0.2623965350615218
7710,10.0,300.11991,-6559.0905,0.0,0.07710000767678671,0.0,0.0,0.0,0.0,0.3996798558028306,1.0709049426150887,0.5232149026947904,0.002029756076546328,-4.045876643846936e-05,0.26455863852240474
7711,10.0,300.10231,-6510.5461,0.0,0.07711000366420584,0.0,0.0,0.0,0.0,0.3922750544695336,1.060845496947299,0.5259229149120506,0.014325451503811986,0.008280098850732132,0.26945024523516875
7712,10.0,300.79186,-6561.4507,0.0,0.07712003264168255,0.0,0.0,0.0,0.0,0.4306448092563336,1.070564085281449,0.4933082991032386,-0.0017075898635259983,-0.013255747161240387,0.25380993960659076
7713,10.0,300.36735,-6621.0605,0.0,0.0771300286291019,0.0,0.0,0.0,0.0,0.4459366176455176,1.054702566891039,0.5119979201127605,-0.001049074975835639,-0.013002115462458887,0.24581139397969576
7714,10.0,300.00716,-6707.7106,0.0,0.07714002461652125,0.0,0.0,0.0,0.0,0.43785595823051865,1.0813689790478092,0.5197516138529905,-0.008049829355531304,-0.004806627149402165,0.23849679217030076
7715,10.0,300.34187000000003,-6622.1713,0.0,0.0771500206039406,0.0,0.0,0.0,0.0,0.40506910003720764,1.0738884575345389,0.5340171924083935,0.010000009531499099,0.0019308283149579181,0.24556587334796476
7716,10.0,299.94662,-6643.5899,0.0,0.07716001659135974,0.0,0.0,0.0,0.0,0.4069975682900326,1.078086454023849,0.5344013560513075,0.005674995556028454,-0.001118580588970309,0.2292265670054008
7717,10.0,300.16308,-6694.5747,0.0,0.07717001257877909,0.0,0.0,0.0,0.0,0.40103274733635064,1.1001566624020092,0.5337940848688745,-0.00022668719000228376,-0.006146678372354925,0.2691902047295047
7718,10.0,300.54142,-6656.9148,0.0,0.07718000856619844,0.0,0.0,0.0,0.0,0.4466324570191916,1.0752081144647792,0.5016953349509745,0.0012704619153598288,0.0032195797999227866,0.24724646009632575
7719,10.0,300.88809,-6591.1713,0.0,0.0771900045536178,0.0,0.0,0.0,0.0,0.4321774209600906,1.076518956119149,0.4948551165733975,0.002369677268418938,0.021711318232490277,0.26937308624005374
7720,10.0,300.43617,-6446.1769,0.0,0.0772000335310945,0.0,0.0,0.0,0.0,0.4154677210434716,1.046631320569469,0.4973777850823655,-0.002255470100622568,0.01805024398442038,0.2565787670948527
7721,10.0,300.83306,-6356.14,0.0,0.07721002951851386,0.0,0.0,0.0,0.0,0.36774146284575665,1.054700844365869,0.5096654994425686,-0.011486830335411887,-0.004545874024942836,0.2645869487301987
7722,10.0,300.16469,-6596.4299,0.0,0.07722002550593321,0.0,0.0,0.0,0.0,0.4011808946334716,1.077696960685409,0.5262721416915165,-0.008347831580166833,-0.0074374747986716136,0.2557904382520508
7723,10.0,300.38141,-6685.334,0.0,0.07723002149335256,0.0,0.0,0.0,0.0,0.4057471872691296,1.086214948976069,0.5402124365673165,0.006375322310420323,-0.005998480412728924,0.25269858663190875
7724,10.0,299.92883,-6624.8601,0.0,0.0772400174807717,0.0,0.0,0.0,0.0,0.44996904906848756,1.067818177510449,0.49600480079936254,0.008815541240201182,-0.006651295667281774,0.24010735320425075
7725,10.0,300.03155,-6646.7569,0.0,0.07725001346819105,0.0,0.0,0.0,0.0,0.43128246780926555,1.0839923848817188,0.5051732956542225,-0.004361454806042077,-0.005256705852396475,0.24515688507760075
7726,10.0,299.87897999999996,-6686.5405,0.0,0.0772600094556104,0.0,0.0,0.0,0.0,0.44855432901386555,1.0711012091594592,0.5128858514403926,0.0019210513634180082,-0.006242349244146904,0.2578080117186698
7727,10.0,300.31691,-6694.1071,0.0,0.07727000544302975,0.0,0.0,0.0,0.0,0.41046145494939157,1.085376788493349,0.5390031833679725,0.006094346132515135,0.01198381329746029,0.24948295637955079
7728,10.0,300.11821000000003,-6600.9507,0.0,0.07728000143044911,0.0,0.0,0.0,0.0,0.39850339137672264,1.079933912931179,0.5280869030181194,0.005798216799364444,-0.0075062681983109935,0.26587265164958773
7729,10.0,300.68295,-6448.7688,0.0,0.07729003040792581,0.0,0.0,0.0,0.0,0.38490417674958466,1.065069635289189,0.5102908368742846,0.0026808848776327374,-0.01047431382848429,0.2623700487039078
7730,10.0,300.01613,-6553.7336,0.0,0.07730002639534495,0.0,0.0,0.0,0.0,0.43670704407462957,1.066805940660549,0.4886583424068235,-0.011708625716051389,-0.017546672870221783,0.2632910626473048
7731,10.0,300.14799,-6643.1935,0.0,0.07731002238276452,0.0,0.0,0.0,0.0,0.43174434773484954,1.0749386912631889,0.5126818639302605,0.0002080790950958078,0.01008191165165721,0.2651276899110658
7732,10.0,299.56788,-6646.4412,0.0,0.07732001837018387,0.0,0.0,0.0,0.0,0.44624298394575357,1.067927203221209,0.5061819354662676,-0.012077863171742288,0.0036439387703287567,0.2645860165401067
7733,10.0,299.50538,-6732.7364,0.0,0.077330014357603,0.0,0.0,0.0,0.0,0.4107617316165266,1.100857831471209,0.5349641759518535,-0.012263922234604888,0.00851819053537995,0.2569006361216188
7734,10.0,299.68259,-6696.713000000001,0.0,0.07734001034502236,0.0,0.0,0.0,0.0,0.4166169087768876,1.0890518466060488,0.5299647898259525,-0.005186198844187974,0.006315292308245823,0.25500593949462674
7735,10.0,300.49386,-6818.0795,0.0,0.07735000633244171,0.0,0.0,0.0,0.0,0.4336804862909316,1.098168159080759,0.5406772954481944,0.0036192000664872367,0.011544771015880188,0.24154490178362575
7736,10.0,299.78625,-6879.2464,0.0,0.07736000231986107,0.0,0.0,0.0,0.0,0.46269145785409155,1.0908115580547189,0.5376161149085795,0.004072947748093646,-0.004635813751519196,0.2244226266912888
7737,10.0,300.18412,-6681.7335,0.0,0.07737003129733777,0.0,0.0,0.0,0.0,0.4276176435225756,1.077426828208749,0.5260356997806814,-2.118361960691048e-05,-0.018651047591465086,0.24874757998697478
7738,10.0,300.5313,-6510.7898,0.0,0.0773800272847569,0.0,0.0,0.0,0.0,0.4184146576343116,1.062870477272149,0.4978323493422275,0.007726110539382743,-0.014003299780268088,0.25908925633761876
7739,10.0,300.45043,-6617.1017,0.0,0.07739002327217648,0.0,0.0,0.0,0.0,0.39930341312567863,1.081458145056609,0.5306721498532635,3.357776981061787e-05,0.00978412251351771,0.27255073987866374
7740,10.0,300.27626000000004,-6703.2762,0.0,0.07740001925959583,0.0,0.0,0.0,0.0,0.4105993684205026,1.0959192504838091,0.5311099752214735,-0.004119114057099906,0.0036968489680255863,0.26973490771826275
7741,10.0,300.22371,-6687.9664,0.0,0.07741001524701496,0.0,0.0,0.0,0.0,0.4257733358230566,1.093217925717209,0.5139835762012295,-0.006478930983495704,0.006378630774646844,0.26332475321312976
7742,10.0,299.43155,-6652.0939,0.0,0.07742001123443432,0.0,0.0,0.0,0.0,0.43065204386204764,1.085004925706649,0.5064134935116205,0.001262355002634739,0.0054961867029313955,0.25838904985601374
7743,10.0,300.23913999999996,-6542.2080000000005,0.0,0.07743000722185345,0.0,0.0,0.0,0.0,0.42798492641882363,1.060492379287449,0.5001905470949636,0.0030287025301846673,0.02349020239955248,0.25729737419827375
7744,10.0,300.10556,-6731.3841,0.0,0.07744000320927302,0.0,0.0,0.0,0.0,0.4364220066889986,1.081175549603719,0.5285750970488006,-0.011415046632077389,0.005586909165210005,0.24537419682654774
7745,10.0,299.98888999999997,-6833.0437,0.0,0.07745003218674973,0.0,0.0,0.0,0.0,0.42995707588345955,1.1016332717727388,0.5454843261751114,-0.011928873863788188,0.0026461337429280678,0.26296097616222774
7746,10.0,299.76574,-6735.3717,0.0,0.07746002817416886,0.0,0.0,0.0,0.0,0.41625791426645764,1.092556982676979,0.5385698872277095,0.0004215616401923946,-0.005454230448090635,0.2508809375425208
7747,10.0,299.86417,-6581.1866,0.0,0.07747002416158821,0.0,0.0,0.0,0.0,0.4251067591122706,1.0703110767314792,0.5050985380618446,0.00939469473235918,-0.0026435595810490172,0.25778358225875875
7748,10.0,299.83128,-6552.2279,0.0,0.07748002014900779,0.0,0.0,0.0,0.0,0.4160819025915866,1.064867086594199,0.5107647035485515,0.007244405970292202,-0.012813954918888888,0.24682266824200078
7749,10.0,300.0688,-6501.4573,0.0,0.07749001613642692,0.0,0.0,0.0,0.0,0.4060468255887016,1.068999221827009,0.5012346506605085,-0.0016628438271849082,-0.008550086837927873,0.26228505728551976
7750,10.0,299.62466,-6547.9711,0.0,0.07750001212384627,0.0,0.0,0.0,0.0,0.4074576344979376,1.072545597177009,0.5104164798866845,0.010125493564958411,-0.00955522587087737,0.25610683572827675
7751,10.0,300.41832999999997,-6549.9875,0.0,0.0775100081112654,0.0,0.0,0.0,0.0,0.39681550922764164,1.070154732241049,0.5240624458734365,0.0006450751687614623,0.023518434587088775,0.28149510381140375
7752,10.0,300.33628,-6683.2332,0.0,0.07752000409868476,0.0,0.0,0.0,0.0,0.4361510028172526,1.079134357277269,0.5162506118424686,0.002963681055367547,0.007696917588101623,0.25498600886515976
7753,10.0,300.06807000000003,-6816.5724,0.0,0.07753003307616169,0.0,0.0,0.0,0.0,0.4517654401707776,1.0988479485728488,0.5214543806460404,-0.024237655720070375,-0.00010705937735093788,0.2705159208953427
7754,10.0,300.16004,-6741.031,0.0,0.07754002906358082,0.0,0.0,0.0,0.0,0.44767383494196755,1.074960070840299,0.5264711440111566,-0.00034632680701729467,-0.008928329756532542,0.24206189238214876
7755,10.0,299.8925,-6732.1354,0.0,0.07755002505100039,0.0,0.0,0.0,0.0,0.43925816464640555,1.077950475860429,0.5291924703347305,0.0026431221609808475,0.002189337698395808,0.24126364382086776
7756,10.0,299.30331,-6727.9371,0.0,0.07756002103841952,0.0,0.0,0.0,0.0,0.4131809675552866,1.0843772172696988,0.5475666868531245,0.011759451354317487,0.0032669144876193565,0.23509629443719776
7757,10.0,299.65692,-6688.9758,0.0,0.07757001702583888,0.0,0.0,0.0,0.0,0.4018536319048656,1.095388003456379,0.5360399942455285,-0.011020750488163387,0.004441164658283826,0.2503509874752188
7758,10.0,299.43776,-6694.0632,0.0,0.07758001301325823,0.0,0.0,0.0,0.0,0.4218190259827966,1.093267372322089,0.5197416029420026,-0.007532573690782143,0.001787190082106928,0.25999096786661074
7759,10.0,299.35329,-6656.8238,0.0,0.07759000900067736,0.0,0.0,0.0,0.0,0.43621405737097557,1.068883508665589,0.5184106989356525,0.008325883873725763,0.013084542344843787,0.26498210613669776
7760,10.0,299.80262,-6577.4911,0.0,0.07760000498809672,0.0,0.0,0.0,0.0,0.4196101914273016,1.070364475011749,0.5094184184056835,0.02092318697345778,0.002103335056408008,0.26915641283866976
7761,10.0,299.89994,-6570.6705,0.0,0.07761003396557364,0.0,0.0,0.0,0.0,0.4113807159701156,1.072041505252259,0.5138975614002405,0.0025578788486179875,-0.012590243482310288,0.27083368625920373
7762,10.0,299.93492000000003,-6674.0146,0.0,0.077620029952993,0.0,0.0,0.0,0.0,0.3992601169489056,1.086702626249199,0.5427710754548345,-0.005461029862886684,-0.02149617179900698,0.26415252788232474
7763,10.0,300.53664,-6677.0549,0.0,0.07763002594041235,0.0,0.0,0.0,0.0,0.4104991782506146,1.087218066575069,0.5319407187134615,-0.004407281777589846,-6.618376083457863e-05,0.2516276420712148
7764,10.0,300.02086,-6622.0547,0.0,0.07764002192783148,0.0,0.0,0.0,0.0,0.44942817616510755,1.0721413103871091,0.49136975914441955,0.00989917554249756,0.0009048124188030332,0.2567437039461308
7765,10.0,299.74397999999997,-6667.9032,0.0,0.07765001791525084,0.0,0.0,0.0,0.0,0.4415138113565206,1.074505425520429,0.5108568282476436,-0.003300038545313447,0.003139264733396307,0.25472473219437375
7766,10.0,299.85136,-6658.5757,0.0,0.07766001390267019,0.0,0.0,0.0,0.0,0.44248357276222855,1.0782731960172791,0.5032839591202595,-0.007339787863155664,-0.003240084232921417,0.26272994500692676
7767,10.0,300.144,-6742.1925,0.0,0.07767000989008932,0.0,0.0,0.0,0.0,0.4209219855367656,1.091571495629719,0.5369646761542874,-0.004142648006572526,0.0087690839257662,0.2529876871504408
7768,10.0,300.05247,-6834.3695,0.0,0.0776800058775089,0.0,0.0,0.0,0.0,0.4320544123979506,1.0934500613151188,0.5519731798155114,0.0013205984422329188,0.009650667140196691,0.2504841589358618
7769,10.0,300.24487,-6699.104,0.0,0.07769000186492803,0.0,0.0,0.0,0.0,0.4007911074525026,1.0931329140338188,0.5424362773567925,-0.003169940170898737,-0.011852476832748387,0.25696033681751074
7770,10.0,299.96598,-6499.5192,0.0,0.07770003084240495,0.0,0.0,0.0,0.0,0.4205670440267356,1.0602020831337988,0.4949224065125385,0.0027184438296895177,-0.017856042443754182,0.26656725485813976
7771,10.0,299.38376,-6563.8571,0.0,0.07771002682982431,0.0,0.0,0.0,0.0,0.4171912493310706,1.083286149562019,0.49477125999512156,0.0018784213985857585,-0.0060541424963723445,0.2780422210481307
7772,10.0,299.49,-6603.8152,0.0,0.07772002281724344,0.0,0.0,0.0,0.0,0.4326317319074276,1.0679662133500591,0.5067969478794645,0.01096872516177889,0.0025743646303950075,0.26262832615439774
7773,10.0,299.89932999999996,-6623.6282,0.0,0.07773001880466279,0.0,0.0,0.0,0.0,0.4078412915158016,1.084092595316609,0.5214836534414296,-0.002326189182076998,-0.002010552352701068,0.2640838599230477
7774,10.0,300.23569,-6617.6856,0.0,0.07774001479208215,0.0,0.0,0.0,0.0,0.4045071110017436,1.081816126316939,0.5252878908093785,-0.0035755049731498664,0.001925450996677218,0.25741981534035774
7775,10.0,300.05067,-6678.8009999999995,0.0,0.0777500107795015,0.0,0.0,0.0,0.0,0.4145407998519916,1.0830574590144488,0.5325904957375895,0.002482687281222158,0.005174051191389095,0.2400634693424198
7776,10.0,300.15507,-6812.5616,0.0,0.07776000676692085,0.0,0.0,0.0,0.0,0.4550991140597856,1.0886835301946989,0.5270660028798645,-0.004387512153563735,0.013735957794383488,0.24471726625671378
7777,10.0,300.24985,-6863.8493,0.0,0.07777000275433998,0.0,0.0,0.0,0.0,0.4605220083299836,1.087296289482789,0.5386204788052025,-0.0014236123374995987,-0.0003796824328892386,0.25219833492503774
7778,10.0,300.12467000000004,-6799.2661,0.0,0.07778003173181691,0.0,0.0,0.0,0.0,0.44151178485632053,1.0953288296505388,0.5299664920861206,0.008888096330836811,0.00022986989975889275,0.25111564679568477
7779,10.0,300.42067000000003,-6549.8187,0.0,0.07779002771923627,0.0,0.0,0.0,0.0,0.3999711652065806,1.071690008792569,0.5193202124904145,0.0058362619088192045,0.01108800699005109,0.26697399371328173
7780,10.0,300.38004,-6526.9293,0.0,0.0778000237066554,0.0,0.0,0.0,0.0,0.39052039913886266,1.077797677745349,0.5157054528911655,0.009167918416878102,0.010243122579667491,0.2595675103848188
7781,10.0,299.80635,-6622.5859,0.0,0.07781001969407453,0.0,0.0,0.0,0.0,0.4128078888684666,1.0834294231261592,0.5168633951054455,-0.01059750984189279,-0.014933201953542287,0.25746177402699877
7782,10.0,299.47787,-6636.6048,0.0,0.0778200156814941,0.0,0.0,0.0,0.0,0.4298899075343306,1.0773913644552489,0.5100808610560615,6.159219672817654e-05,-0.01728878450777018,0.2589906063078828
7783,10.0,300.18313,-6603.3271,0.0,0.07783001166891346,0.0,0.0,0.0,0.0,0.4184536880281636,1.0867990876587188,0.5019937269729235,0.007744652509587692,-0.008106581392307292,0.2727758739183827
7784,10.0,299.97188,-6692.378000000001,0.0,0.07784000765633281,0.0,0.0,0.0,0.0,0.43370414568076654,1.076647942856879,0.5239637249161935,0.007607848446011182,0.006585663000004334,0.24883375690797974
7785,10.0,299.67195,-6746.831,0.0,0.07785000364375194,0.0,0.0,0.0,0.0,0.4260380879416856,1.0950466394976888,0.5297833876605496,-0.009233095526910581,-0.005184299101575485,0.26908378307150177
7786,10.0,299.64724,-6763.2275,0.0,0.07786003262122887,0.0,0.0,0.0,0.0,0.4216180680904636,1.089663647016429,0.5445705468374284,-0.004475668357314075,0.003991620343392257,0.24405306055116177
7787,10.0,299.5676,-6751.803000000001,0.0,0.07787002860864822,0.0,0.0,0.0,0.0,0.43432324149186663,1.0899856578982092,0.5280705592940065,0.0026786583618629975,0.011184133013787989,0.2571543438141578
7788,10.0,300.05773999999997,-6634.8958,0.0,0.07788002459606735,0.0,0.0,0.0,0.0,0.4292525225589256,1.0782631648412888,0.5093269320541545,0.010790239130163689,0.014933678181089285,0.23764469949870579
7789,10.0,300.4447,-6538.3314,0.0,0.07789002058348649,0.0,0.0,0.0,0.0,0.41867105043961556,1.0665928541645189,0.5022255889933066,-0.0009099250862901143,0.0002783652350475097,0.2693164556919647
7790,10.0,300.01081,-6686.6915,0.0,0.07790001657090584,0.0,0.0,0.0,0.0,0.4151450008866216,1.089842789634109,0.5275994891900154,0.0021446428311847677,-0.001920115626950658,0.25746196654451775
7791,10.0,300.16774,-6719.2842,0.0,0.07791001255832541,0.0,0.0,0.0,0.0,0.4100576139895356,1.096992788964759,0.5354442234517305,-0.007217121678224453,0.012579787754528388,0.26823275431251176
7792,10.0,300.78917,-6609.9456,0.0,0.07792000854574477,0.0,0.0,0.0,0.0,0.4147073883009326,1.0726239214097388,0.5219271124801954,-0.003308099760459027,0.016847099669929283,0.25466413983839375
7793,10.0,300.38572,-6590.4028,0.0,0.0779300045331639,0.0,0.0,0.0,0.0,0.4267513754820816,1.060244335662969,0.5163221776970315,-0.0047945297538082455,-0.004905272822162735,0.24932609513156978
7794,10.0,300.10354,-6647.1103,0.0,0.0779400335106406,0.0,0.0,0.0,0.0,0.4386032808417735,1.0659276554738688,0.5160246165401645,-0.0047122959968924055,-0.0033518877688305665,0.24466516493657178
7795,10.0,299.99227,-6711.3067,0.0,0.07795002949806018,0.0,0.0,0.0,0.0,0.4303854476282366,1.086748931778769,0.5229352456671905,0.002897015582263177,-0.0091402404771465,0.24423232475885379
7796,10.0,300.03562999999997,-6807.4413,0.0,0.07796002548547931,0.0,0.0,0.0,0.0,0.4347619585201646,1.097920419431309,0.5366098258367665,0.01980447375004938,0.00016363598000461384,0.25481093951288175
7797,10.0,300.16845,-6796.5223,0.0,0.07797002147289867,0.0,0.0,0.0,0.0,0.42941647655760656,1.0972735605674688,0.5392830025155885,0.02042164438595938,-0.00040802770926919957,0.25856206231058876
7798,10.0,299.6048,-6626.0987,0.0,0.07798001746031802,0.0,0.0,0.0,0.0,0.4201737813979236,1.087110054114409,0.5068846649406216,-0.004021467550262946,8.233897280622393e-06,0.2676338728409068
7799,10.0,300.02802,-6571.299,0.0,0.07799001344773715,0.0,0.0,0.0,0.0,0.41387617871389865,1.0808994389514688,0.5027352132636026,0.0007350775445915052,0.003556178747367517,0.26591652537891775
7800,10.0,299.9733,-6681.9956,0.0,0.07800000943515673,0.0,0.0,0.0,0.0,0.4339252368525866,1.072181232441049,0.5250533740737335,-0.01003136212404336,0.014133632114130887,0.25377425293806877
7801,10.0,299.82864,-6732.6777,0.0,0.07801000542257586,0.0,0.0,0.0,0.0,0.43320052998356356,1.084726788554199,0.5286385873000665,0.015836782928968788,-0.0012377665637830488,0.26376471653905076
7802,10.0,300.47914,-6589.1083,0.0,0.07802003440005256,0.0,0.0,0.0,0.0,0.4082323148618926,1.067382986592499,0.5273091525063615,-0.012747875813617386,-0.007751998775462712,0.25578873599188273
7803,10.0,300.38547,-6649.724,0.0,0.07803003038747192,0.0,0.0,0.0,0.0,0.4048446246100536,1.0905315970520888,0.5259738712595795,-0.0025364237843755375,-0.002045491850599328,0.25988045267820375
7804,10.0,300.45052000000004,-6757.8314,0.0,0.07804002637489127,0.0,0.0,0.0,0.0,0.44650166669628355,1.084740771405579,0.5229695137855725,-0.006608049241088684,-0.002257134465236828,0.24171874510328278
7805,10.0,300.65117000000004,-6755.1725,0.0,0.07805002236231062,0.0,0.0,0.0,0.0,0.45163713231061453,1.0728886836608689,0.5288779372386886,0.007641018302609793,0.0027900667302331477,0.2510015953644288
7806,10.0,300.27428,-6768.0553,0.0,0.07806001834972998,0.0,0.0,0.0,0.0,0.4424107808750446,1.091071051405329,0.5238379400487795,0.006144822402146755,0.005696116957012974,0.25341805499791475
7807,10.0,300.53102,-6679.4525,0.0,0.07807001433714911,0.0,0.0,0.0,0.0,0.42227250606505157,1.073499673471169,0.5346145945348525,0.004897867078506845,-0.0023309979657265877,0.2570149408653998
7808,10.0,300.37437,-6592.1388,0.0,0.07808001032456868,0.0,0.0,0.0,0.0,0.4021605960226606,1.0803731568495292,0.5213118163569705,-0.008902519844685302,0.005266641478902045,0.2530006466192198
7809,10.0,299.13126,-6739.2011,0.0,0.07809000631198781,0.0,0.0,0.0,0.0,0.42656138095583057,1.0831533124739092,0.5388341833837935,-0.005859024774965724,-0.01143809807185239,0.26381278512379475
7810,10.0,299.71078,-6691.533,0.0,0.07810000229940695,0.0,0.0,0.0,0.0,0.44184937952463854,1.067654841594329,0.5245546929045175,-4.922124285900845e-05,0.0028651146187647974,0.25347948835147777
7811,10.0,299.96815,-6522.8298,0.0,0.07811003127688387,0.0,0.0,0.0,0.0,0.4233704030784056,1.069865044037459,0.48954196742153055,-0.0013033060120512887,-0.00023933828624584977,0.26260455530705173
7812,10.0,300.34801,-6555.8187,0.0,0.07812002726430323,0.0,0.0,0.0,0.0,0.4106214268751796,1.076567592123949,0.5056161366104276,0.0015273038944331587,-0.0031953117507527167,0.2620681407041118
7813,10.0,300.45398,-6731.8369,0.0,0.07813002325172258,0.0,0.0,0.0,0.0,0.42150278049408557,1.097667512206349,0.5271400511971726,-0.0006371842809576924,-0.015314764583449585,0.26830140200678676
7814,10.0,300.13232,-6806.161,0.0,0.07814001923914193,0.0,0.0,0.0,0.0,0.4104744752131766,1.1131623353855689,0.5452661835610825,-0.0036942342761425366,0.0023515571142306174,0.2666605042648428
7815,10.0,300.15072000000004,-6648.2136,0.0,0.07815001522656106,0.0,0.0,0.0,0.0,0.4200730035429776,1.0898420803590387,0.5109758750018926,0.005195549825385845,0.0002970270828717907,0.2675885197664307
7816,10.0,300.1083,-6550.9789,0.0,0.07816001121398042,0.0,0.0,0.0,0.0,0.4119919996229446,1.0766438898564792,0.5026981080449405,-0.009038057548286831,0.004558499526488876,0.2529413309583658
7817,10.0,299.3789,-6634.8557,0.0,0.07817000720139977,0.0,0.0,0.0,0.0,0.4395735894025356,1.072579338405339,0.5046775123802926,-0.0015764683091603086,-0.0004159581746218757,0.25287401062172177
7818,10.0,299.37973999999997,-6786.6044,0.0,0.07818000318881912,0.0,0.0,0.0,0.0,0.4295148226123126,1.092403981911879,0.5410395222264435,-0.002134269987261048,0.006746911924893364,0.25944357976508775
7819,10.0,300.16092000000003,-6706.0206,0.0,0.07819003216629583,0.0,0.0,0.0,0.0,0.4243111551337506,1.091686803491099,0.5224648341757645,0.020739224325052083,0.013998054184500385,0.26197341195226276
7820,10.0,299.72876,-6602.6738,0.0,0.07820002815371518,0.0,0.0,0.0,0.0,0.3914954598425936,1.0741470389600591,0.5414054473675575,0.008823138184150942,0.01094117793131019,0.25806376617641075
7821,10.0,299.68723,-6592.1259,0.0,0.07821002414113454,0.0,0.0,0.0,0.0,0.4249555923298516,1.0690244517544991,0.5098616545294274,0.0021538755660959683,-0.01035731383943729,0.26745852991110175
7822,10.0,300.27402,-6656.9273,0.0,0.07822002012855389,0.0,0.0,0.0,0.0,0.43081482249061265,1.075906142458669,0.5168186905110335,-0.01042676301454139,-0.0006234778644699744,0.25609259956437175
7823,10.0,300.37772,-6730.8755,0.0,0.07823001611597302,0.0,0.0,0.0,0.0,0.4646691092667705,1.063863057070109,0.5174859663643885,0.0006127554391292535,-0.014340458751043087,0.24982453312076175
7824,10.0,300.34857999999997,-6657.7472,0.0,0.07824001210339238,0.0,0.0,0.0,0.0,0.4298965443224856,1.0778305070485887,0.5160619142763455,0.008010433178393202,-0.005076478753134445,0.24371384468268376
7825,10.0,300.17834,-6636.0144,0.0,0.07825000809081173,0.0,0.0,0.0,0.0,0.42294429088135155,1.072943196516249,0.5212952091878315,0.004925252492934575,-0.01935779764221588,0.2560407920867588
7826,10.0,300.0454,-6795.7322,0.0,0.07826000407823108,0.0,0.0,0.0,0.0,0.4206113331886066,1.0932040441908388,0.5519175118550175,0.012009590380004289,-0.0008512290380047651,0.24442246114011876
7827,10.0,299.96718,-6854.7592,0.0,0.07827003305570779,0.0,0.0,0.0,0.0,0.44331463036174756,1.106767308704429,0.5335936741315955,0.0034416867549680362,-0.0017477274357622682,0.2466027119102928
7828,10.0,299.66775,-6736.608,0.0,0.07828002904312714,0.0,0.0,0.0,0.0,0.43339898514814956,1.080532946390299,0.5338286873597895,0.0026303881403490974,0.011236623421968388,0.24264942545263374
7829,10.0,299.18194,-6688.8158,0.0,0.0782900250305465,0.0,0.0,0.0,0.0,0.43475437940941664,1.088022384504449,0.5104562499531095,0.0093593284535188,0.002110791158593868,0.25667155040650974
7830,10.0,299.34281,-6670.8726,0.0,0.07830002101796585,0.0,0.0,0.0,0.0,0.4171656850310476,1.088541472530679,0.5220714904869445,-0.007718672574373673,0.008480983991707951,0.2740584762924657
7831,10.0,300.19131,-6654.0252,0.0,0.07831001700538498,0.0,0.0,0.0,0.0,0.41456307108918966,1.085067949862869,0.5230265293686995,-0.002118806473509918,0.01119142841450799,0.2745273780412427
7832,10.0,300.46243,-6673.7373,0.0,0.07832001299280433,0.0,0.0,0.0,0.0,0.4019797714098146,1.089839445908779,0.5368302381310195,-0.012912744777138687,-0.005228936314855835,0.2864307869035177
7833,10.0,299.80762000000004,-6625.1752,0.0,0.07833000898022369,0.0,0.0,0.0,0.0,0.4221219877626966,1.0763278571502888,0.5154379852622685,-0.0004425384909176486,-0.008321095051103143,0.26414965025204074
7834,10.0,299.91002000000003,-6559.4291,0.0,0.07834000496764304,0.0,0.0,0.0,0.0,0.4200390900621306,1.079251488988829,0.49461212906691654,-0.011591213334213687,-0.008305737827287501,0.2696953706993607
7835,10.0,300.03806000000003,-6716.2572,0.0,0.07835003394511975,0.0,0.0,0.0,0.0,0.44886745369226855,1.0818417615444689,0.5108652686209766,-0.0021871568802055777,-0.0005129842177601004,0.24241887052487976
7836,10.0,300.36008,-6897.3358,0.0,0.0783600299325391,0.0,0.0,0.0,0.0,0.4568343960485446,1.1051488443196988,0.5346346264893296,0.0038482516350678664,0.002242820281074128,0.24654478440207578
7837,10.0,300.08738999999997,-6960.8197,0.0,0.07837002591995845,0.0,0.0,0.0,0.0,0.4487705160552016,1.116355593075719,0.5507892274711644,0.021938773628188378,0.0027654550879541674,0.24592564806097178
7838,10.0,300.29336,-6908.184,0.0,0.0783800219073778,0.0,0.0,0.0,0.0,0.4278379240943156,1.118261516513819,0.5538159676398804,0.02116040503386938,0.011080562641566387,0.25603977883665874
7839,10.0,300.50748,-6776.1554,0.0,0.07839001789479694,0.0,0.0,0.0,0.0,0.4269895703155896,1.106820301684659,0.5259721487344095,0.001909298574183098,0.004395268684404246,0.24991475290966578
7840,10.0,300.34407999999996,-6633.1728,0.0,0.07840001388221629,0.0,0.0,0.0,0.0,0.4284829996379796,1.0683953247674092,0.5194406271322985,-0.01014885080361359,-0.0019742949203977378,0.25599384820962573
7841,10.0,300.11999,-6643.3568,0.0,0.07841000986963564,0.0,0.0,0.0,0.0,0.4428477247156675,1.066350282090579,0.5102165453769526,-0.009541138857387091,-0.015720071716200285,0.26203272761311674
7842,10.0,299.6313,-6597.8487,0.0,0.078420005857055,0.0,0.0,0.0,0.0,0.41692504826479865,1.076238589816479,0.5124176589666856,-0.005500101090717714,-0.005626616916753854,0.26272829340926374
7843,10.0,299.42912,-6520.6831,0.0,0.07843000184447435,0.0,0.0,0.0,0.0,0.4125812146885956,1.0706855739684389,0.49885806241845754,0.003643581093043457,0.005434736428091724,0.26921289139924376
7844,10.0,299.78881,-6576.3641,0.0,0.07844003082195106,0.0,0.0,0.0,0.0,0.39827710223188967,1.071380055586979,0.5293932863720495,-0.007466925520778173,0.0025349185000269774,0.27171005640319473
7845,10.0,300.18875,-6881.9878,0.0,0.07845002680937019,0.0,0.0,0.0,0.0,0.4559001794563446,1.1049344405985388,0.5311178583072514,0.004374337673113515,0.005816051217024564,0.2620319778080427
7846,10.0,300.06743,-6979.1273,0.0,0.07846002279678976,0.0,0.0,0.0,0.0,0.44733360582338955,1.1264514144220987,0.5476954506758325,-0.006803331210336514,0.0067271748261954626,0.2628377548175667
7847,10.0,300.77103,-6835.5543,0.0,0.0784700187842089,0.0,0.0,0.0,0.0,0.4431293069184576,1.111760503872219,0.5229479822209475,0.01230591030549879,-0.0016714128832806083,0.2403124958194968
7848,10.0,300.53055,-6745.5976,0.0,0.07848001477162825,0.0,0.0,0.0,0.0,0.4164342197838576,1.095831300375129,0.5382276924039374,-0.0028020812419688877,-0.01978807531043098,0.24767481157610075
7849,10.0,299.93567,-6690.2224,0.0,0.0784900107590476,0.0,0.0,0.0,0.0,0.4188814214253776,1.0833527200935889,0.5314264132277036,0.006635527570550583,-0.02066511622598818,0.2421714044529568
7850,10.0,300.09132999999997,-6614.5798,0.0,0.07850000674646673,0.0,0.0,0.0,0.0,0.39567213754979963,1.0879905684513091,0.5270044276712875,0.015102344805985386,-0.013774372132174686,0.25456815465642074
7851,10.0,299.92666,-6636.2441,0.0,0.07851000273388631,0.0,0.0,0.0,0.0,0.42104822636672457,1.071953555143579,0.5242507178745175,-5.059054904414845e-05,0.0077837787568991535,0.2501036227283057
7852,10.0,299.85781000000003,-6615.1063,0.0,0.07852003171136301,0.0,0.0,0.0,0.0,0.41756794532074765,1.074366812906749,0.5188923777681905,6.1012866930501146e-05,0.007825112268228452,0.25933397650177076
7853,10.0,299.85991,-6578.9316,0.0,0.07853002769878215,0.0,0.0,0.0,0.0,0.44226957434110853,1.060113119775019,0.49744821609681655,-0.02731391646092368,0.002106132943909138,0.26920445102591073
7854,10.0,299.81753,-6783.6630000000005,0.0,0.0785400236862015,0.0,0.0,0.0,0.0,0.43506313697988863,1.094464122015199,0.5325369150723015,-0.005643427951812974,0.01217268311610029,0.2620352100758618
7855,10.0,299.93177000000003,-6805.4086,0.0,0.07855001967362085,0.0,0.0,0.0,0.0,0.4424783950542176,1.101326560967469,0.5248692867955654,-0.016663786514837683,0.01981288473912948,0.2644750352566537
7856,10.0,300.17416000000003,-6682.4913,0.0,0.07856001566104043,0.0,0.0,0.0,0.0,0.4181893412095746,1.0860509037848791,0.5270702686627855,0.01037298172573359,-0.0008525985063099212,0.24592586084349274
7857,10.0,300.6601,-6731.3174,0.0,0.07857001164845956,0.0,0.0,0.0,0.0,0.43571173863390056,1.0886543485918188,0.5217863315113015,-0.019329008167124583,-0.0015962120953088685,0.24592398633080778
7858,10.0,300.61849,-6750.3465,0.0,0.07858000763587869,0.0,0.0,0.0,0.0,0.42707720631673857,1.0838496179426291,0.5410099454560244,0.0037526573649834466,-0.006057716938750114,0.2359641127503448
7859,10.0,300.68269,-6659.6855,0.0,0.07859000362329804,0.0,0.0,0.0,0.0,0.4245157404614416,1.075847880577919,0.5240144988787045,0.0044506703627719656,0.016438794330132685,0.24134821980671475
7860,10.0,300.27154,-6610.8229,0.0,0.07860003260077497,0.0,0.0,0.0,0.0,0.4073848932732586,1.072691910491449,0.5294483261174815,0.017255954191280082,-0.013021694494141187,0.2508548868824497
7861,10.0,300.25946,-6676.4755,0.0,0.0786100285881941,0.0,0.0,0.0,0.0,0.4227091763281476,1.086481535077379,0.5202911290012365,0.01919672228706898,-0.02084498838374018,0.27614540672842974
7862,10.0,300.51465,-6664.2469,0.0,0.07862002457561346,0.0,0.0,0.0,0.0,0.42431491429162155,1.079514528714789,0.5219352488784985,-0.002993306259141327,-0.021527473121096184,0.27806943694581676
7863,10.0,299.9502,-6657.6518,0.0,0.07863002056303281,0.0,0.0,0.0,0.0,0.4228778216747916,1.095513241168739,0.5053688529235225,-0.0014614456776834584,0.003104608540226007,0.28251709825976673
7864,10.0,299.48863,-6672.295,0.0,0.07864001655045239,0.0,0.0,0.0,0.0,0.4177904043802026,1.095869905203939,0.5145507328122035,-0.01048387181667759,-0.01050949488520639,0.27241563311032974
7865,10.0,300.02008,-6634.8198,0.0,0.07865001253787152,0.0,0.0,0.0,0.0,0.43388524387113964,1.0742889952990688,0.5086453389768865,-0.01183829842409909,0.010696601648672388,0.25592425819275777
7866,10.0,300.03681,-6699.5427,0.0,0.07866000852529065,0.0,0.0,0.0,0.0,0.4132484500119466,1.1018389615430388,0.5214062613987915,-0.0014548167928792384,0.014095957448912686,0.25314316024578476
7867,10.0,299.90518,-6798.471,0.0,0.07867000451271,0.0,0.0,0.0,0.0,0.4487082518365566,1.0876610595187888,0.5301961249562834,-0.006330948035540925,0.024837223161993077,0.2343220801682888
7868,10.0,300.301,-6809.1938,0.0,0.07868003349018693,0.0,0.0,0.0,0.0,0.4338772493278506,1.1028890939466789,0.5330585463562825,-0.003925233514065386,0.01184507098776749,0.24881652152377876
7869,10.0,299.51227,-6816.6755,0.0,0.07869002947760606,0.0,0.0,0.0,0.0,0.44381181192081565,1.093536491548649,0.5347508057457955,-0.013556766540698687,0.0007772880745448602,0.2443799654309248
7870,10.0,300.07036,-6786.3892,0.0,0.07870002546502541,0.0,0.0,0.0,0.0,0.42790843616877455,1.0774439521354389,0.5575404520924585,-0.00011719765387650788,0.012816492097139288,0.25322846577170377
7871,10.0,301.05141000000003,-6718.3188,0.0,0.07871002145244477,0.0,0.0,0.0,0.0,0.4308542379195026,1.078715884985969,0.5326310764040945,-0.004927958377326625,0.01992914201585318,0.24805407108853075
7872,10.0,300.5261,-6613.3183,0.0,0.07872001743986434,0.0,0.0,0.0,0.0,0.40052574738381364,1.0799112161289388,0.5298466549967935,0.01154512869316549,-0.012932326848571289,0.2651393929497207
7873,10.0,300.51837,-6546.5722,0.0,0.07873001342728347,0.0,0.0,0.0,0.0,0.41536141084297956,1.079494567687819,0.4951384618313615,0.017686531781524784,-0.02324753406685298,0.26576042406851175
7874,10.0,299.985,-6533.566999999999,0.0,0.0787400094147026,0.0,0.0,0.0,0.0,0.4089282656930776,1.080824458444069,0.4962885006948616,0.02024546957782228,-0.02230976096680198,0.27780347905956876
7875,10.0,299.76689,-6614.6699,0.0,0.07875000540212196,0.0,0.0,0.0,0.0,0.4297081102013886,1.073285979025079,0.5077004224636305,0.01942331540693198,0.0018168516615592982,0.25143550958725275
7876,10.0,300.17035,-6692.0235,0.0,0.07876003437959889,0.0,0.0,0.0,0.0,0.41971910568055054,1.0865480042839388,0.5279408936787096,-0.018730983905104182,-0.0024770167283625173,0.2581409859665318
7877,10.0,300.16727000000003,-6814.2687,0.0,0.07877003036701802,0.0,0.0,0.0,0.0,0.44551567302397355,1.0932116435665888,0.5326402260524975,-0.006121878265557343,0.016035444796575184,0.24382958824160675
7878,10.0,299.85536,-6855.2186,0.0,0.07878002635443737,0.0,0.0,0.0,0.0,0.4364794073071636,1.097741074163609,0.5495947373257775,-0.016708146604215685,0.013895696672648486,0.24858929005635275
7879,10.0,299.97298,-6841.4312,0.0,0.07879002234185672,0.0,0.0,0.0,0.0,0.4562934015551526,1.091756008472929,0.5315748746323555,-0.0016047709175785584,0.02316139868910208,0.2544742162396498
7880,10.0,299.94523,-6790.8724,0.0,0.07880001832927608,0.0,0.0,0.0,0.0,0.43058887785081357,1.1025355709867888,0.5311311825460665,-0.019382033571357784,-0.010320846968338291,0.2621995491095807
7881,10.0,299.74476,-6659.6162,0.0,0.07881001431669543,0.0,0.0,0.0,0.0,0.4211424991560286,1.092249663921649,0.5109648508408046,-0.01016526545523359,-0.007476615028834452,0.26502114666305077
7882,10.0,299.55924,-6560.4214,0.0,0.07882001030411456,0.0,0.0,0.0,0.0,0.3967528802389606,1.081799812990329,0.5156516290458535,0.028064164325217373,-0.005796495287444545,0.26846185016012175
7883,10.0,299.23219,-6550.484,0.0,0.07883000629153392,0.0,0.0,0.0,0.0,0.4175505376840296,1.0604663387598792,0.5131666838381086,0.018729249220932984,0.0013841572905306887,0.2631310501915127
7884,10.0,299.87108,-6603.6316,0.0,0.07884000227895327,0.0,0.0,0.0,0.0,0.40265452504890764,1.084803086286729,0.5198815631783156,0.012185023489068187,-0.006138995099496644,0.26567574675765476
7885,10.0,299.76858,-6693.9093,0.0,0.07885003125642998,0.0,0.0,0.0,0.0,0.44186381833856353,1.0898788613376689,0.5030385904760435,-0.01209040011522959,-0.02180246210548548,0.26498564237954675
7886,10.0,300.13891,-6815.0255,0.0,0.07886002724384955,0.0,0.0,0.0,0.0,0.4415816079207116,1.1017534432345988,0.5282625093929505,0.009160979274893262,0.004843861152151876,0.25924533738302274
7887,10.0,301.02661,-6886.084,0.0,0.07887002323126868,0.0,0.0,0.0,0.0,0.46211042984924855,1.107528867479589,0.5235582931536805,0.0027508602335137677,0.014789149200075385,0.25031581756424776
7888,10.0,300.44995,-6870.7737,0.0,0.07888001921868804,0.0,0.0,0.0,0.0,0.43843303455997157,1.100007714637309,0.5501029126484305,-0.01132053370249969,-0.0011546488474799689,0.24103349419315376
7889,10.0,300.16501,-6848.2702,0.0,0.07889001520610739,0.0,0.0,0.0,0.0,0.44541452026649053,1.105621322841329,0.5306672659877815,-0.025393738620416873,-0.0025573575314415376,0.24566199025245078
7890,10.0,299.66301,-6700.0392,0.0,0.07890001119352652,0.0,0.0,0.0,0.0,0.4125919348746536,1.089227949473429,0.5348246818105864,0.00908079126992932,0.003390479932014317,0.2506931822989908
7891,10.0,299.87784,-6622.2721,0.0,0.07891000718094587,0.0,0.0,0.0,0.0,0.4336990490327636,1.065387187870529,0.5139191030973665,0.014108194470370384,0.013264035547058385,0.24694991218955875
7892,10.0,299.70311,-6704.1055,0.0,0.07892000316836523,0.0,0.0,0.0,0.0,0.41705945589056365,1.0979004584043388,0.5229207764557625,0.011487818254259388,-0.008333592883136582,0.26003620948357575
7893,10.0,299.52775,-6630.1163,0.0,0.07893003214584215,0.0,0.0,0.0,0.0,0.4267882476532206,1.0713563455346389,0.5172451674781234,0.0011610406317607888,-0.015452685147311287,0.2605847932202167
7894,10.0,300.08472,-6591.3004,0.0,0.07894002813326151,0.0,0.0,0.0,0.0,0.39719707895029965,1.089899936939749,0.5164936702764565,-0.007362138944461544,0.00035846919091565464,0.27285297211849174
7895,10.0,300.6576,-6627.8784,0.0,0.07895002412068064,0.0,0.0,0.0,0.0,0.4292488849910666,1.0814957366353188,0.5039648733199605,-0.003281564361540187,0.012015562476093688,0.26074418759344775
7896,10.0,300.01707000000005,-6794.8017,0.0,0.07896002010809999,0.0,0.0,0.0,0.0,0.43348107867125163,1.0937417760189092,0.5382271655138855,-0.004620052038263636,-0.004629912076311746,0.2566766673195148
7897,10.0,300.13433,-6850.4382,0.0,0.07897001609551912,0.0,0.0,0.0,0.0,0.4672307372420836,1.099029117690729,0.5161023429553355,-0.00979647859186216,-0.013393882534123288,0.24724389657357276
7898,10.0,300.25491,-6795.1594,0.0,0.07898001208293848,0.0,0.0,0.0,0.0,0.42842177906693757,1.112744876344369,0.5243921371909744,0.012200118889057988,0.004699437853123405,0.26023635677582874
7899,10.0,299.96488999999997,-6829.7928,0.0,0.07899000807035805,0.0,0.0,0.0,0.0,0.4564814911712156,1.086718432950759,0.5328865268868055,0.01172774473218829,0.009736412112684062,0.24583323965185175
7900,10.0,300.03659,-6743.4475,0.0,0.07900000405777718,0.0,0.0,0.0,0.0,0.41461098768641863,1.103354378392599,0.5318742900369055,0.005329750646805434,0.008335530014677761,0.27391786757608877
7901,10.0,299.84168,-6722.4577,0.0,0.07901003303525389,0.0,0.0,0.0,0.0,0.4178939078779176,1.092721838468249,0.5328434941550585,-0.00048543455549116053,-0.016552525574357085,0.25643318332048476
7902,10.0,299.90105,-6692.9726,0.0,0.07902002902267347,0.0,0.0,0.0,0.0,0.4018549795274986,1.1044221413479791,0.5282194462637005,-0.0006941413083614135,0.0007775135936196173,0.28264706785009375
7903,10.0,300.16937,-6570.6231,0.0,0.0790300250100926,0.0,0.0,0.0,0.0,0.4174451394086276,1.075076493276789,0.5047836604607685,0.0013646500982804788,0.004281138118315436,0.25393228955616576
7904,10.0,299.64168,-6594.0181,0.0,0.07904002099751195,0.0,0.0,0.0,0.0,0.40211220319788465,1.0810164693380189,0.5212882076296406,-0.015125371927757985,-0.016588976233454483,0.27323062056326275
7905,10.0,299.01896,-6808.2118,0.0,0.07905001698493108,0.0,0.0,0.0,0.0,0.4421880989005676,1.0999415494057792,0.5273967682425085,0.005453154680459465,-0.014408755860783487,0.24750242733658778
7906,10.0,299.65882,-6798.6288,0.0,0.07906001297235066,0.0,0.0,0.0,0.0,0.4271586817572796,1.106084378137029,0.5333703538095556,-0.00029085815281796473,0.005234664622971175,0.26872271139836673
7907,10.0,300.04393999999996,-6841.7072,0.0,0.07907000895977001,0.0,0.0,0.0,0.0,0.4463011445014936,1.0971491334551888,0.5362578734145315,0.02393647422059608,0.01987647631540548,0.24086681455170378
7908,10.0,299.18768,-6846.1376,0.0,0.07908000494718914,0.0,0.0,0.0,0.0,0.44591418428830354,1.1040111671074189,0.5311295613459065,-0.007210322972703473,-0.0005921442298350854,0.26508455585430873
7909,10.0,299.23141,-6859.2674,0.0,0.07909003392466585,0.0,0.0,0.0,0.0,0.4580676024802526,1.093601643530079,0.5333767474176865,0.0014762140005409787,-0.002710280073633817,0.24135491738987577
7910,10.0,299.81841000000003,-6834.4642,0.0,0.07910002991208542,0.0,0.0,0.0,0.0,0.43347387446304064,1.114425148985199,0.5296074671781875,-0.0008793892949164661,0.005039474150207375,0.2721606993851698
7911,10.0,300.22264,-6747.1399,0.0,0.07911002589950455,0.0,0.0,0.0,0.0,0.4327060031397576,1.083997045832179,0.5342590349422615,0.008195051298288592,0.013058427850016489,0.24740625976959676
7912,10.0,300.27457999999996,-6672.3923,0.0,0.07912002188692391,0.0,0.0,0.0,0.0,0.4010735711828796,1.0866742552463988,0.5404927927374855,-0.016580260256094284,-0.008730283539686901,0.2731665020969347
7913,10.0,299.85742,-6616.4893,0.0,0.07913001787434304,0.0,0.0,0.0,0.0,0.4129262567451486,1.077962432211609,0.5203588546379204,-0.0018137292300511385,-0.02324994560209098,0.26166972063229077
7914,10.0,299.86428,-6660.0805,0.0,0.07914001386176239,0.0,0.0,0.0,0.0,0.4033207369896576,1.1032571063829988,0.5179202858872525,0.013312621902603487,-0.0029228833506911274,0.27499116287701475
7915,10.0,299.75534,-6712.8026,0.0,0.07915000984918197,0.0,0.0,0.0,0.0,0.44210465775483254,1.079228184236529,0.5191914891977105,0.032883419914590865,-0.0026270648826711178,0.25556621613742175
7916,10.0,299.79071,-6737.059,0.0,0.0791600058366011,0.0,0.0,0.0,0.0,0.4297760891505976,1.102144253798169,0.5159773382904985,0.015151782291614485,-0.008236838644337682,0.2719648178758377
7917,10.0,299.61665,-6744.8324,0.0,0.07917000182402045,0.0,0.0,0.0,0.0,0.4399434560865386,1.088955689171559,0.5213614960093735,-0.006147352690296474,-0.015092441299507984,0.24537541272666777
7918,10.0,299.66228,-6812.6705,0.0,0.07918003080149716,0.0,0.0,0.0,0.0,0.4229244311793916,1.1070582128081388,0.5408990654975815,0.0034144567731056465,0.013720713446628988,0.2664840366274267
7919,10.0,300.06116000000003,-6875.6148,0.0,0.07919002678891651,0.0,0.0,0.0,0.0,0.44941003898831755,1.095614464853729,0.5449907416538985,-0.003413765533887427,0.023957638988684877,0.2390363883785548
7920,10.0,300.09089,-6857.5271,0.0,0.07920002277633587,0.0,0.0,0.0,0.0,0.44668014056889754,1.100349382571029,0.5374874321458796,-0.02044740323000158,0.006350772679047463,0.26347143129760575
7921,10.0,300.2653,-6815.6867,0.0,0.079210018763755,0.0,0.0,0.0,0.0,0.4501687606631976,1.089432423343609,0.5321973850962924,-0.01816431872042868,-0.010774830635892988,0.25710781536956573
7922,10.0,300.07817,-6680.8225,0.0,0.07922001475117435,0.0,0.0,0.0,0.0,0.4196792545541176,1.0886802877943789,0.5224436673811754,-0.00029802118254490073,0.012976398161670788,0.2686934284704767
7923,10.0,299.93799,-6625.3672,0.0,0.0792300107385937,0.0,0.0,0.0,0.0,0.4110777035277106,1.078462369810949,0.5244061200423544,0.031009484782147868,0.01264100021956959,0.2732446338121457
7924,10.0,299.87751000000003,-6588.2078,0.0,0.07924000672601306,0.0,0.0,0.0,0.0,0.3869181734433506,1.091158089588919,0.5245743904864615,0.008500886148847142,-0.006736676173708174,0.2739319720174807
7925,10.0,299.60918,-6495.3555,0.0,0.07925000271343241,0.0,0.0,0.0,0.0,0.4123936316975826,1.064286494286899,0.4977457772536836,-0.005261261728821105,-0.026145190225829375,0.26665707947950473
7926,10.0,299.73843999999997,-6509.4747,0.0,0.07926003169090912,0.0,0.0,0.0,0.0,0.4010009008857076,1.0835986358928589,0.49411817977566747,0.0027469745207052776,-0.01111742670670459,0.26297444225605676
7927,10.0,299.60119,-6724.5797,0.0,0.07927002767832847,0.0,0.0,0.0,0.0,0.44709608986744853,1.088208822522849,0.5087994137870926,0.0010978292269223089,0.003161624326003027,0.24694113744369275
7928,10.0,299.29522000000003,-6909.135,0.0,0.07928002366574782,0.0,0.0,0.0,0.0,0.45107029993967257,1.102780878835999,0.5463532793283704,0.0007352494627359723,-0.004794022926108225,0.24985006702328175
7929,10.0,299.68502,-6941.4712,0.0,0.07929001965316718,0.0,0.0,0.0,0.0,0.4556785309969696,1.107591486335769,0.5467638887988945,-0.004959949418758896,-0.008401089727948003,0.2462108576991198
7930,10.0,300.74612,-6844.8968,0.0,0.07930001564058631,0.0,0.0,0.0,0.0,0.4214179106657096,1.1026135912444888,0.5566461676866995,0.002368768788379278,0.01991097646806038,0.26453671179024074
7931,10.0,300.14064,-6776.7974,0.0,0.07931001162800566,0.0,0.0,0.0,0.0,0.44183153619037757,1.076417023159089,0.5417285930894494,-0.005244998051466006,0.025622349121228974,0.24248550185145576
7932,10.0,299.99715,-6731.741999999999,0.0,0.07932000761542501,0.0,0.0,0.0,0.0,0.4232800313019866,1.098643272052649,0.5243581527826205,-0.008849472351599922,0.018453749558493285,0.2758689718361477
7933,10.0,299.7566,-6603.5044,0.0,0.07933000360284437,0.0,0.0,0.0,0.0,0.4442893870904486,1.0652611395580889,0.49774989104908957,-0.008655195019826242,-0.00855115672870846,0.25730621987164676
7934,10.0,299.94703,-6527.7773,0.0,0.07934003258032107,0.0,0.0,0.0,0.0,0.4051711748522816,1.0866172092657689,0.49249291648276655,0.007066914950275203,-0.0007627360096561834,0.28029480774294374
7935,10.0,299.8069,-6588.4848,0.0,0.07935002856774043,0.0,0.0,0.0,0.0,0.3967946869380866,1.093276187597959,0.5126640104634985,0.0052420403744241045,0.006564953282535443,0.2585991877942527
7936,10.0,300.28607999999997,-6631.845,0.0,0.07936002455515978,0.0,0.0,0.0,0.0,0.3985529393066126,1.101053794040549,0.5163085292181845,-0.007456481749347452,-0.015334600980657287,0.27921462234133776
7937,10.0,300.5566,-6860.5801,0.0,0.07937002054257913,0.0,0.0,0.0,0.0,0.4448567260864406,1.1093653832858388,0.5312229424751225,-0.0025374524358770575,-0.022984863163929378,0.25688542723761776
7938,10.0,300.76486,-6945.9581,0.0,0.07938001652999827,0.0,0.0,0.0,0.0,0.4641312153186845,1.105690426498149,0.5415762104069105,-0.006481024358202304,0.00027491820886981475,0.2584058799401747
7939,10.0,300.98572,-6854.9323,0.0,0.07939001251741762,0.0,0.0,0.0,0.0,0.4580156227501226,1.095470583339529,0.5302420353183145,0.035816664456829565,0.015074312228718786,0.25574975626053575
7940,10.0,300.7721,-6835.2367,0.0,0.07940000850483697,0.0,0.0,0.0,0.0,0.4474778419751246,1.092468019318199,0.5377953791162715,-0.004544060408588846,0.0038694890531888364,0.2544696262166968
7941,10.0,299.93145,-6873.9332,0.0,0.07941000449225633,0.0,0.0,0.0,0.0,0.42661435367105854,1.1069379400212689,0.5559517468631655,0.014000635945755187,0.0030172897876833173,0.26458150757716176
7942,10.0,299.5923,-6686.1413,0.0,0.07942003346973303,0.0,0.0,0.0,0.0,0.4209304461751006,1.0806443025762889,0.5308452737653495,-0.01059257632715589,0.0012274843044182688,0.2544144142187478
7943,10.0,299.63669,-6602.5327,0.0,0.07943002945715216,0.0,0.0,0.0,0.0,0.4114829529052056,1.079166679955459,0.5163554426978145,0.003961355880130387,0.02009753506322228,0.2563028185626188
7944,10.0,299.66569,-6626.3586,0.0,0.07944002544457174,0.0,0.0,0.0,0.0,0.4207039037177426,1.093335969353859,0.5002076304916495,-0.03464663315560647,-0.013047494881437489,0.2627424890431647
7945,10.0,299.93844,-6739.3625,0.0,0.07945002143199109,0.0,0.0,0.0,0.0,0.4444807089743306,1.097244176314569,0.5068730429619746,-0.01278578555285879,-0.013954554344457287,0.2688455477079898
7946,10.0,300.12102999999996,-6878.767,0.0,0.07946001741941022,0.0,0.0,0.0,0.0,0.4390864187544556,1.113209248865199,0.5386777375683535,-0.008556811272216523,0.002164857981279848,0.2720431319760667
7947,10.0,299.89622,-6900.4776,0.0,0.07947001340682958,0.0,0.0,0.0,0.0,0.4386416222255576,1.0970291646433488,0.5619021391354235,0.026894799742560076,0.01863879233150558,0.25151169586227173
7948,10.0,300.06386000000003,-6836.9772,0.0,0.07948000939424871,0.0,0.0,0.0,0.0,0.4353531899535146,1.093710263940799,0.5492069259825034,0.0035812802960698466,0.005937260956262035,0.25502802834680677
7949,10.0,300.08344,-6791.2093,0.0,0.07949000538166828,0.0,0.0,0.0,0.0,0.44756964243418457,1.0844119717481289,0.5323764770514675,0.0027570891885035174,-0.007521419124406272,0.23707623579510276
7950,10.0,300.99549,-6774.1166,0.0,0.07950003435914499,0.0,0.0,0.0,0.0,0.4475013696424466,1.084887996645109,0.5267729506859424,0.012883971514048987,0.0068819799870735434,0.24555425136931774
7951,10.0,300.61851,-6775.3821,0.0,0.07951003034656412,0.0,0.0,0.0,0.0,0.4572245682645516,1.086390849193429,0.5159315596509805,0.016565587381396185,0.005309412792123245,0.24301064911328377
7952,10.0,300.39834,-6684.4463,0.0,0.0795200263339837,0.0,0.0,0.0,0.0,0.4143243291006276,1.098911276704099,0.5186691182411566,0.009494379290447282,-0.0037119312970890963,0.2779570979072297
7953,10.0,300.04005,-6669.2993,0.0,0.07953002232140305,0.0,0.0,0.0,0.0,0.4043634828000686,1.1053994210694291,0.5175375205294764,-0.017848860527045384,-0.01047377984568159,0.28348530939282174
7954,10.0,299.61929,-6639.3633,0.0,0.07954001830882218,0.0,0.0,0.0,0.0,0.3986033991615926,1.1020116193600789,0.5175855992467215,-0.009029035265421401,0.020383740726218583,0.26986334730093875
7955,10.0,300.01606,-6582.8686,0.0,0.07955001429624153,0.0,0.0,0.0,0.0,0.41299405330933964,1.0920986896567488,0.4959348865424625,-0.01959185233581528,0.013475616353439787,0.26890002003336577
7956,10.0,300.0855,-6657.47,0.0,0.07956001028366066,0.0,0.0,0.0,0.0,0.43422221032439556,1.080357958098029,0.5091244846841745,-0.013950712100078089,-0.0027062834099393774,0.25201601070204377
7957,10.0,299.8904,-6712.3041,0.0,0.07957000627108002,0.0,0.0,0.0,0.0,0.44356703096165756,1.093365556256779,0.5034402630806855,-0.013759585773465387,-0.00975738740300416,0.2694941696270038
7958,10.0,299.69145,-6727.5947,0.0,0.0795800022584996,0.0,0.0,0.0,0.0,0.4205343464460086,1.0912011527181689,0.5332852610661575,0.019314023211395682,0.0017760335905558683,0.2532933441756068
7959,10.0,299.77037,-6840.3856,0.0,0.0795900312359763,0.0,0.0,0.0,0.0,0.43580323511793057,1.081770530062439,0.5617326527911964,0.018383039900264783,0.006489069969296344,0.25514565655091576
7960,10.0,299.83811000000003,-6942.594,0.0,0.07960002722339565,0.0,0.0,0.0,0.0,0.4499233413564766,1.106611470839049,0.5538403869672904,0.008061891186046713,-0.018549820866724784,0.24427461781802776
7961,10.0,299.67282,-6867.1634,0.0,0.07961002321081478,0.0,0.0,0.0,0.0,0.44010871717784855,1.106453910448499,0.5408835526385505,-0.01012760487419178,-0.013808824662074887,0.2546809496575527
7962,10.0,299.35707,-6757.8824,0.0,0.07962001919823414,0.0,0.0,0.0,0.0,0.4478804163723556,1.0896597966660488,0.5166873125030675,0.005902386002395145,0.004776181111722376,0.2542537228853888
7963,10.0,300.18171,-6717.5316,0.0,0.07963001518565349,0.0,0.0,0.0,0.0,0.4304857695206376,1.0978888060281888,0.5135872434246146,0.013932551618535786,0.021678470690748478,0.26842522116900674
7964,10.0,300.80311,-6644.6074,0.0,0.07964001117307262,0.0,0.0,0.0,0.0,0.40588305397503865,1.0843419561662189,0.5295697134794616,0.0064913350898948945,-0.001921527793615028,0.27177139856424876
7965,10.0,300.13172000000003,-6671.4496,0.0,0.0796500071604922,0.0,0.0,0.0,0.0,0.4062711794258436,1.103575570889429,0.5181073521207145,-0.006743902065471313,-0.009844998579525711,0.2709849543666328
7966,10.0,300.37953,-6735.0698,0.0,0.07966000314791155,0.0,0.0,0.0,0.0,0.42642647683751655,1.0895701240321989,0.5312964639023785,-0.00862851584071821,-0.005524007105627055,0.24691683970629477
7967,10.0,299.9938,-6737.9461,0.0,0.07967003212538826,0.0,0.0,0.0,0.0,0.4454851944609656,1.080817669668399,0.5218645037565165,-0.016491867357120587,-0.0013909614676022085,0.24653352719346477
7968,10.0,299.64935,-6871.8204,0.0,0.07968002811280761,0.0,0.0,0.0,0.0,0.4790063043392416,1.082198830879709,0.5276566668931585,-0.016246120770617285,0.00040931540829128565,0.24032168599790377
7969,10.0,299.63308,-6969.1741,0.0,0.07969002410022674,0.0,0.0,0.0,0.0,0.4605289288281666,1.1029045966732092,0.5550214211513494,-0.002011303272350178,0.003915682010672726,0.2723997656137638
7970,10.0,299.12422000000004,-6921.328,0.0,0.0797000200876461,0.0,0.0,0.0,0.0,0.4337073678160846,1.109701883644049,0.5605016552447064,0.014035187774165184,0.018608626862778484,0.2655318449784527
7971,10.0,299.54649,-6770.9562,0.0,0.07971001607506545,0.0,0.0,0.0,0.0,0.41848893899914263,1.0924663981180387,0.5472462971715044,0.019349304579877682,0.017697536690860882,0.26658285890967975
7972,10.0,300.01276,-6748.3048,0.0,0.0797200120624848,0.0,0.0,0.0,0.0,0.4218549558313426,1.094201386264269,0.5352597916685284,-0.0006645806992815084,-0.008633445809079762,0.25396720615461177
7973,10.0,300.27749,-6632.9339,0.0,0.07973000804990416,0.0,0.0,0.0,0.0,0.4096289889322336,1.104100637091249,0.5025166653495335,0.0001989223336771058,-0.015744176936079286,0.2735498956697727
7974,10.0,300.3075,-6489.7192,0.0,0.07974000403732329,0.0,0.0,0.0,0.0,0.4107892008267376,1.0752226039412092,0.4867008040086296,-0.004560441116330496,-0.012137358177863988,0.2568625075203558
7975,10.0,300.85323999999997,-6568.0062,0.0,0.07975003301480021,0.0,0.0,0.0,0.0,0.4028676115449376,1.085379726918639,0.5082625330891065,3.656649790183236e-05,-0.0027471721044747778,0.27000325687474674
7976,10.0,300.31388,-6765.2297,0.0,0.07976002900221957,0.0,0.0,0.0,0.0,0.42555422048893166,1.095591058776419,0.5353156014840365,-0.02006997364725218,-0.01729879237900788,0.26724811839533574
7977,10.0,299.96415,-6781.68,0.0,0.0797700249896387,0.0,0.0,0.0,0.0,0.4350815274692036,1.0909533117437091,0.5354265523699865,-0.006587925688802643,0.008237361785364312,0.26152044862755874
7978,10.0,299.67941,-6828.1267,0.0,0.07978002097705805,0.0,0.0,0.0,0.0,0.44490329506103654,1.0995292579400888,0.5311475060051775,-0.016532103518591586,0.006360420542524634,0.25503750223524174
7979,10.0,299.92251,-6921.7296,0.0,0.0797900169644774,0.0,0.0,0.0,0.0,0.48460521028431053,1.087707061073329,0.5317207421167515,-0.0038525648380935465,0.015406634956766484,0.2536717829554557
7980,10.0,299.86135,-6796.2704,0.0,0.07980001295189676,0.0,0.0,0.0,0.0,0.4667562828827585,1.069191638020999,0.5299485879568535,-0.007103955726230843,-0.0016407317715776183,0.24653971815157577
7981,10.0,299.87214,-6689.7732,0.0,0.07981000893931611,0.0,0.0,0.0,0.0,0.42183270485914665,1.096256054817049,0.5154352190894955,0.003247042120033107,0.0056011155395620646,0.27652329835322476
7982,10.0,299.40142000000003,-6678.0507,0.0,0.07982000492673524,0.0,0.0,0.0,0.0,0.3931028190062276,1.0861946839740688,0.5506631690262235,0.02469165965262708,-0.0021944669730520282,0.25654678892169674
7983,10.0,299.50572999999997,-6596.8326,0.0,0.07983003390421217,0.0,0.0,0.0,0.0,0.4019004339269846,1.088120061814089,0.5152518512188985,0.017313843195993286,0.0005008245072850305,0.26205992324580074
7984,10.0,299.72879,-6632.4786,0.0,0.07984002989163153,0.0,0.0,0.0,0.0,0.3972686346723616,1.084134746520769,0.5347045103487265,0.005768035929235824,-0.015837903583579387,0.2505046772503868
7985,10.0,299.55401,-6738.8863,0.0,0.07985002587905066,0.0,0.0,0.0,0.0,0.4514827231278755,1.0952880969965189,0.5016823552171935,-0.01733627756645738,-0.013482850959153787,0.26538337344129975
7986,10.0,300.11199,-6717.2052,0.0,0.07986002186646979,0.0,0.0,0.0,0.0,0.43772498552259254,1.095504121917839,0.5086335447457225,0.0016550899307946584,0.00929892527133247,0.24862633448000876
7987,10.0,300.38036,-6727.7344,0.0,0.07987001785388936,0.0,0.0,0.0,0.0,0.42401658306467854,1.089899227664679,0.5311474350776705,-0.00958731388034421,0.01032580581432769,0.27567225946173374
7988,10.0,300.29456,-6910.5872,0.0,0.07988001384130872,0.0,0.0,0.0,0.0,0.43554887894532757,1.1167841978680189,0.5483128746242675,0.017751719226708283,0.006194124314912474,0.26309265814522376
7989,10.0,300.29832000000005,-6861.8797,0.0,0.07989000982872807,0.0,0.0,0.0,0.0,0.44079522451810155,1.111520870223569,0.5335240131872205,-0.016937014470553183,0.0024595885226674874,0.27668073715376273
7990,10.0,300.4655,-6622.7576,0.0,0.0799000058161472,0.0,0.0,0.0,0.0,0.42660378547251554,1.0681990582230387,0.5183500964471716,0.004038180502712386,0.002951457307486157,0.25999842538734674
7991,10.0,300.30505,-6616.7769,0.0,0.07991003479362413,0.0,0.0,0.0,0.0,0.4409915214599746,1.077081613899679,0.4932618415861535,-0.015972908013653284,0.008396346298929862,0.25704992839135277
7992,10.0,299.59164,-6757.6155,0.0,0.07992003078104348,0.0,0.0,0.0,0.0,0.4340647816563586,1.098054776394569,0.5220268264225365,0.007168861994511593,-0.009327636320866032,0.2523511026426148
7993,10.0,299.3872,-6710.1964,0.0,0.07993002676846261,0.0,0.0,0.0,0.0,0.4110043948829756,1.096881939403819,0.5318458582390995,-0.0026084273629817375,-0.02186488337789598,0.2641992285794338
7994,10.0,299.8454,-6748.4369,0.0,0.07994002275588197,0.0,0.0,0.0,0.0,0.40334072841413066,1.1140074872939791,0.5340081136874975,0.018944049122882084,-0.016169787574333787,0.25244746272712476
7995,10.0,299.95625,-6741.819,0.0,0.07995001874330132,0.0,0.0,0.0,0.0,0.41390954503969163,1.097751510639639,0.5376835872327385,0.0024032623549085277,-0.0012518233824203489,0.25181810269251176
7996,10.0,299.97141,-6735.9096,0.0,0.07996001473072067,0.0,0.0,0.0,0.0,0.4362017058522566,1.082413741225919,0.5289328655266095,0.014011620590089287,-0.0005085705813845085,0.25325195290902175
7997,10.0,299.57058,-6850.0748,0.0,0.07997001071814003,0.0,0.0,0.0,0.0,0.4698340199290076,1.1060822503118188,0.5063354023264136,-0.010957140673385591,0.006947664127456063,0.26817061168387873
7998,10.0,300.05297,-6915.8138,0.0,0.07998000670555916,0.0,0.0,0.0,0.0,0.4604019077956306,1.089744909674449,0.5520879101243344,-0.006474253010434024,0.008046160275594192,0.26439868686161877
7999,10.0,300.69895,-6826.2889,0.0,0.07999000269297829,0.0,0.0,0.0,0.0,0.43955717475091555,1.0954058366581387,0.5400583820221124,-0.015968822589250083,0.0012550178560106187,0.2677057021404957
8000,10.0,300.37915,-6746.6468,0.0,0.08000003167045544,0.0,0.0,0.0,0.0,0.4344684604961985,1.079692455432349,0.5366512576333555,-0.0006674895579335903,-0.012302601030672189,0.25854749177415076
8001,10.0,299.89024,-6782.67,0.0,0.08001002765787457,0.0,0.0,0.0,0.0,0.42805089913283456,1.104556093011199,0.5291553144535635,0.010391664031077389,-0.02045769481126728,0.27525893448094174
8002,10.0,299.31252,-6699.9299,0.0,0.08002002364529393,0.0,0.0,0.0,0.0,0.4359271049426556,1.093891433058679,0.5067928746140625,0.002055324328244718,-0.0010697987774809191,0.26258161532478774
8003,10.0,299.1771,-6633.2461,0.0,0.08003001963271328,0.0,0.0,0.0,0.0,0.4290559317745236,1.085638409669169,0.5016468914636935,0.012734189844516687,0.005024630441542415,0.25808615900362075
8004,10.0,299.32376,-6718.9202,0.0,0.08004001562013263,0.0,0.0,0.0,0.0,0.4018539561448976,1.118073558620269,0.5224564849949405,0.008090073724328111,0.006545488140164384,0.2640879838509547
8005,10.0,299.06622999999996,-6843.7342,0.0,0.08005001160755199,0.0,0.0,0.0,0.0,0.42106129729301456,1.108203084096129,0.5510599577653835,0.006242285004090563,0.002629575817743927,0.2635712161674537
8006,10.0,299.2485,-6851.0249,0.0,0.08006000759497112,0.0,0.0,0.0,0.0,0.4177119585574606,1.113274198196609,0.5515543528866764,-0.0029804538908978977,-0.00028606635124005074,0.26728460553143674
8007,10.0,299.51144,-6831.6467,0.0,0.08007000358239047,0.0,0.0,0.0,0.0,0.43327043410796257,1.101477737882389,0.5419018284590464,-0.006256921604435084,-0.006261938509655214,0.25586013972642974
8008,10.0,299.87244,-6794.2727,0.0,0.0800800325598674,0.0,0.0,0.0,0.0,0.45778657756501756,1.087715268399139,0.5197874119790235,-0.020232229438765584,-0.00013068463079006888,0.25730395019142277
8009,10.0,299.95418,-6755.9047,0.0,0.08009002854728653,0.0,0.0,0.0,0.0,0.45559974066919356,1.087972836574559,0.5100537363508845,-0.0061378013895538345,0.005072117218078995,0.2512095649474537
8010,10.0,300.23437,-6766.3502,0.0,0.08010002453470588,0.0,0.0,0.0,0.0,0.43071005243027255,1.0927584167968591,0.5333330459408735,-0.006686007183907534,0.01142131054419559,0.27528522832103675
8011,10.0,300.34029,-6787.1503,0.0,0.08011002052212524,0.0,0.0,0.0,0.0,0.4365093995101235,1.084925081598769,0.5416896741531085,0.008318873804233922,0.0013002548120251587,0.24256554860935575
8012,10.0,300.33757,-6807.7666,0.0,0.08012001650954437,0.0,0.0,0.0,0.0,0.4164170350621616,1.1082026787960888,0.5447713426097455,0.0013014993871229888,-0.01162128963693199,0.2715641382562937
8013,10.0,300.40038,-6837.9127,0.0,0.08013001249696394,0.0,0.0,0.0,0.0,0.4274888594348656,1.109965429995059,0.5411003982924515,0.005494636835578434,-0.014684557471752985,0.2558790571057967
8014,10.0,300.2481,-6807.7169,0.0,0.08014000848438307,0.0,0.0,0.0,0.0,0.45921870525635755,1.097865095975849,0.5122921375442975,0.005327431519976555,-0.005122509691927344,0.25215345807810874
8015,10.0,299.72488,-6734.5741,0.0,0.08015000447180243,0.0,0.0,0.0,0.0,0.4257367270969436,1.093237076144099,0.5281685811086805,-0.007107463902052073,0.008031342607456802,0.2423303428636428
8016,10.0,299.16715,-6741.5919,0.0,0.08016003344927913,0.0,0.0,0.0,0.0,0.4196154197978176,1.112523075897479,0.5171370638249545,-0.014000664316757987,0.00895936206072019,0.26155315634078674
8017,10.0,299.76707000000005,-6862.5565,0.0,0.08017002943669871,0.0,0.0,0.0,0.0,0.4351227262182696,1.1047832636836188,0.5461398280623044,-0.015542067991632685,-0.005150309120345935,0.25920682374672177
8018,10.0,299.45137,-6878.5333,0.0,0.08018002542411784,0.0,0.0,0.0,0.0,0.43960628698326254,1.113993301792579,0.5373027470501525,0.007472722729900312,-0.0013200723627809989,0.27595502716714077
8019,10.0,299.74804,-6745.1943,0.0,0.0801900214115372,0.0,0.0,0.0,0.0,0.43141058315190955,1.093945945914059,0.5250141511623625,0.007866485397636663,-0.0011908740584301188,0.2679016039148297
8020,10.0,299.25407,-6647.6216,0.0,0.08020001739895632,0.0,0.0,0.0,0.0,0.4463583323371376,1.081765058511899,0.49258755404210647,0.007391010391485932,-0.0013243799929311287,0.27531992200446076
8021,10.0,300.03177,-6714.3526,0.0,0.08021001338637568,0.0,0.0,0.0,0.0,0.42643872703122554,1.0922943482510592,0.5222624881307945,-0.02162316040753978,0.01294871920868909,0.26973529275330077
8022,10.0,300.29138,-6825.3228,0.0,0.08022000937379503,0.0,0.0,0.0,0.0,0.4318788566856246,1.1178108228693389,0.5250379929372155,-0.014494297473975787,0.020506689506602678,0.2695431602693387
8023,10.0,300.43582000000004,-6783.1292,0.0,0.08023000536121438,0.0,0.0,0.0,0.0,0.42093945396848964,1.0982116275100489,0.5427508611153395,-0.014894918325013985,0.0001302555396377209,0.25454522480665775
8024,10.0,300.02295,-6770.7142,0.0,0.08024003433869109,0.0,0.0,0.0,0.0,0.4071528286028556,1.118145398052359,0.5328298152787084,-0.0018603387346511385,0.0007022435094735384,0.26863836846004274
8025,10.0,300.00212,-6757.4224,0.0,0.08025003032611044,0.0,0.0,0.0,0.0,0.4322389759036656,1.100246841660909,0.5216018693305965,-0.003814208052908027,-0.016605418242827186,0.25801479579907777
8026,10.0,300.25032999999996,-6780.9133,0.0,0.0802600263135298,0.0,0.0,0.0,0.0,0.44630149913902856,1.1002932485154888,0.5146335964053815,0.015096940129951986,-0.00916279866677282,0.25237957497042474
8027,10.0,299.87964,-6888.7954,0.0,0.08027002230094915,0.0,0.0,0.0,0.0,0.44960896024794955,1.0975073173655387,0.5469055310303735,0.011966410726992789,-0.009926488306893121,0.24101328998615976
8028,10.0,299.22828,-6892.5108,0.0,0.08028001828836828,0.0,0.0,0.0,0.0,0.45173530611280355,1.100066888443149,0.5433489421193655,0.016199397782006086,0.0017784179706911883,0.25029859231254775
8029,10.0,299.69615,-6740.5714,0.0,0.08029001427578764,0.0,0.0,0.0,0.0,0.43092280455376963,1.077175238208919,0.5408673305044495,0.003925835181974766,0.00943122027063897,0.2521846560486878
8030,10.0,299.89821,-6687.5128,0.0,0.08030001026320721,0.0,0.0,0.0,0.0,0.41788070522911464,1.091248268847819,0.5237079805909535,-0.012067875565506588,0.00869500642685532,0.27571092508554973
8031,10.0,299.66474,-6741.445,0.0,0.08031000625062634,0.0,0.0,0.0,0.0,0.45612637740866857,1.071986181796799,0.5211183970453815,-0.01222389784240479,-0.0034124484100824365,0.24360384625182777
8032,10.0,300.26437999999996,-6746.967,0.0,0.0803200022380457,0.0,0.0,0.0,0.0,0.4387308287643616,1.094595844528199,0.5175828229414475,-0.012456379971848988,-0.006959644796638463,0.2792511500074427
8033,10.0,300.41445,-6751.825,0.0,0.0803300312155224,0.0,0.0,0.0,0.0,0.42579144260234364,1.0942991648989189,0.5322955791634835,-0.003298167072378747,-0.004328882868327475,0.25531748350287375
8034,10.0,300.33964,-6681.4577,0.0,0.08034002720294176,0.0,0.0,0.0,0.0,0.4191107503205106,1.0936813863129489,0.5182041377702665,0.003261868400796347,0.0012295052317427189,0.26650592282958674
8035,10.0,300.45588,-6691.6266,0.0,0.08035002319036111,0.0,0.0,0.0,0.0,0.4008834651991176,1.0989899049118592,0.5342140770353245,0.006395121825324384,0.004309024179617576,0.2541272287429048
8036,10.0,300.00461,-6801.5772,0.0,0.08036001917778024,0.0,0.0,0.0,0.0,0.42354667819830255,1.1111063496076592,0.5328565752138495,-0.0013617455155438187,0.01066754771530499,0.2706027260314097
8037,10.0,300.07088999999996,-6836.0348,0.0,0.0803700151651996,0.0,0.0,0.0,0.0,0.4529768617253355,1.097587465448449,0.5274195866347605,0.004816594794610896,0.002322449478607918,0.24982674200597976
8038,10.0,299.75854,-6703.137,0.0,0.08038001115261895,0.0,0.0,0.0,0.0,0.42670543472254757,1.1022582444344189,0.5086225509821376,-0.002701589832826157,0.002101968688648158,0.27800145799660775
8039,10.0,299.64035,-6682.5402,0.0,0.0803900071400383,0.0,0.0,0.0,0.0,0.4201845015839816,1.0844430785261991,0.5266977675285225,0.003831006726315926,-0.015744861893146885,0.24881112090074575
8040,10.0,299.7622,-6753.901999999999,0.0,0.08040000312745765,0.0,0.0,0.0,0.0,0.4355209233750686,1.0986738722056688,0.5188227776188216,-0.005088049157351355,-0.004444085351697076,0.27177130737173977
8041,10.0,299.84893,-6791.6585,0.0,0.08041003210493436,0.0,0.0,0.0,0.0,0.41171638546324363,1.108854907885459,0.5439233232035525,0.01025083543942869,-0.00851234823662836,0.2747763335908127
8042,10.0,299.28102,-6772.4957,0.0,0.08042002809235371,0.0,0.0,0.0,0.0,0.4327342626850466,1.1104982982226488,0.5154370733371785,0.0051401832054715855,0.007859809700677822,0.2873136317156477
8043,10.0,299.58225,-6771.5954,0.0,0.08043002407977307,0.0,0.0,0.0,0.0,0.4382063097175956,1.092901386385969,0.5272881984942935,-0.004950762381427206,0.012174603225039788,0.24552460367139178
8044,10.0,300.01155,-6788.6311,0.0,0.0804400200671922,0.0,0.0,0.0,0.0,0.43052653257216056,1.116262678041549,0.5167851418002225,-0.00874141318011031,0.012650191411226688,0.26552524872030175
8045,10.0,299.86172,-6816.0685,0.0,0.08045001605461155,0.0,0.0,0.0,0.0,0.43449979018929064,1.100078236844269,0.5373366098684945,-0.0012141588497031487,0.008447193012798043,0.23483681121908875
8046,10.0,299.5393,-6846.3073,0.0,0.0804600120420309,0.0,0.0,0.0,0.0,0.4513481229845916,1.097364347776429,0.5323939353506905,-0.014476622339231384,0.002030446910464508,0.24109456277668076
8047,10.0,299.46574,-6844.6277,0.0,0.08047000802945026,0.0,0.0,0.0,0.0,0.41952192721109055,1.107026700730029,0.5540473230352134,0.003445370831006627,-0.008284696169085852,0.24011654338265778
8048,10.0,300.0963,-6740.0767,0.0,0.08048000401686961,0.0,0.0,0.0,0.0,0.44502781336582553,1.077286999694949,0.5265002242890264,-0.006469885902503024,-0.0065462846560679945,0.2538037790459828
8049,10.0,300.15771,-6818.5945,0.0,0.08049003299434632,0.0,0.0,0.0,0.0,0.4341726319970026,1.103753801582019,0.5347560645138145,0.015509635882431884,-0.008979007865584082,0.26604357680895674
8050,10.0,300.57878999999997,-6890.2164,0.0,0.08050002898176545,0.0,0.0,0.0,0.0,0.4531929981041665,1.106358259639059,0.5349024791532645,0.016858117751516685,-0.0027173967370361773,0.2685663567754357
8051,10.0,300.47091,-6767.1990000000005,0.0,0.08051002496918502,0.0,0.0,0.0,0.0,0.4360668625289486,1.079978293285559,0.5410143530939595,0.008747890584024582,0.002430322313404138,0.26090579085189675
8052,10.0,300.37699,-6678.5368,0.0,0.08052002095660415,0.0,0.0,0.0,0.0,0.4176934870081376,1.095032150021259,0.5173827972392064,-0.004661023414007196,-0.0025296011661521977,0.2684593271673727
8053,10.0,299.77197,-6745.5137,0.0,0.08053001694402373,0.0,0.0,0.0,0.0,0.4039613744978836,1.107321657834139,0.5391846767258844,-0.014680494338851985,-0.006798246214709664,0.26726123998413076
8054,10.0,299.62341000000004,-6779.4884,0.0,0.08054001293144286,0.0,0.0,0.0,0.0,0.42956621465738465,1.123006060107069,0.5082228846126935,-0.016311145082534683,0.008945212225723712,0.2708373440920647
8055,10.0,299.2698,-6797.4034,0.0,0.08055000891886199,0.0,0.0,0.0,0.0,0.4187204463819906,1.1161392641793688,0.5313812121407425,-0.0034387631231294967,0.000907593638340018,0.25917375126345776
8056,10.0,299.66807,-6808.3161,0.0,0.08056000490628157,0.0,0.0,0.0,0.0,0.42674114165607163,1.108238345199609,0.5345786241563024,0.0049848006946865255,0.006030644111978234,0.2587454099161837
8057,10.0,300.15869,-6685.6527,0.0,0.08057003388375827,0.0,0.0,0.0,0.0,0.4297872450341986,1.091936974940789,0.5105472600770915,0.008075462860536132,-0.005219939768542945,0.26343922007692677
8058,10.0,299.79261,-6707.6751,0.0,0.0805800298711774,0.0,0.0,0.0,0.0,0.42379816687312255,1.0878884328412288,0.5272791400383995,0.012039127633669388,-0.0013445484321965987,0.26768521422347374
8059,10.0,300.03873,-6862.0187,0.0,0.08059002585859676,0.0,0.0,0.0,0.0,0.4490013850904866,1.090376367136769,0.5465045575683005,0.009617520183050341,-0.0026216890842655676,0.25484548120879075
8060,10.0,300.77678,-6833.4376,0.0,0.08060002184601633,0.0,0.0,0.0,0.0,0.4589930139290836,1.091853685782569,0.5263476693539705,0.02068147210910238,0.005425656592620614,0.26746737558447475
8061,10.0,300.19794,-6813.2328,0.0,0.08061001783343569,0.0,0.0,0.0,0.0,0.43322534447851263,1.0860206076068888,0.5518066825590795,0.0046827214556236256,0.001919983600462628,0.25842099763166676
8062,10.0,300.15117999999995,-6815.7336,0.0,0.08062001382085482,0.0,0.0,0.0,0.0,0.43838780307550756,1.105274791307129,0.5281502108843675,-0.013667842056410986,0.0041415075935849754,0.26997720621467575
8063,10.0,299.78333,-6800.9331,0.0,0.08063000980827395,0.0,0.0,0.0,0.0,0.4418985930819956,1.086118588891559,0.5392966307294335,-0.01149290173001109,-0.007281748390802614,0.24743488408492179
8064,10.0,299.01018999999997,-6783.9254,0.0,0.08064000579569353,0.0,0.0,0.0,0.0,0.4265582601455226,1.103660886547849,0.5319247600243865,-0.021487225813874078,-0.0028675796536080773,0.25041670687670475
8065,10.0,299.3468,-6744.9756,0.0,0.08065003477317023,0.0,0.0,0.0,0.0,0.4164588316287866,1.1177879234170789,0.5160574255784025,0.006500561947955514,-0.003843167551366106,0.25410447114565876
8066,10.0,299.32899,-6818.0522,0.0,0.08066003076058936,0.0,0.0,0.0,0.0,0.4401699782788946,1.114553325122849,0.5177942781048165,0.007249640724283833,0.006171340677138905,0.24498747979338178
8067,10.0,299.15839,-6861.8394,0.0,0.08067002674800872,0.0,0.0,0.0,0.0,0.4113218562718066,1.1200400744143488,0.5544659067840245,-0.002225320742572058,0.0064308329131737944,0.27087294970057874
8068,10.0,299.57543,-6815.8163,0.0,0.08068002273542829,0.0,0.0,0.0,0.0,0.4390588583517356,1.101920325526069,0.5308587499916795,-0.006761017176885443,0.0043611758582895455,0.2547765700694898
8069,10.0,299.54028999999997,-6807.633000000001,0.0,0.08069001872284765,0.0,0.0,0.0,0.0,0.4348295726993376,1.093200700465509,0.5413201418416385,-0.004367825514720816,0.003968361187346756,0.27822956085911976
8070,10.0,300.12712999999997,-6687.7627,0.0,0.08070001471026678,0.0,0.0,0.0,0.0,0.42637820560275264,1.089808541780729,0.5167260997168954,0.0004282905327814846,0.007935881275785503,0.2787964641575687
8071,10.0,300.19376,-6669.5233,0.0,0.08071001069768591,0.0,0.0,0.0,0.0,0.42517921662692165,1.085302111960979,0.5168871862177935,-0.007599634128775493,-0.013628904881568187,0.28529507539643173
8072,10.0,299.63315,-6807.5272,0.0,0.08072000668510526,0.0,0.0,0.0,0.0,0.4499289952920345,1.099614776248529,0.5197744727752465,-0.0014141825254439487,-0.01731498816860628,0.26124050788993075
8073,10.0,300.00059,-6723.3021,0.0,0.08073000267252484,0.0,0.0,0.0,0.0,0.40480794495643363,1.1099185165154288,0.5289895467372036,0.013460079176406386,-0.00038506047057750963,0.2780848484798377
8074,10.0,300.3728,-6637.6456,0.0,0.08074003165000132,0.0,0.0,0.0,0.0,0.42081744852394865,1.078879727527139,0.5179813240732765,0.01077642042529989,-0.0007084545704665224,0.2523558953155877
8075,10.0,300.48041,-6733.113,0.0,0.08075002763742067,0.0,0.0,0.0,0.0,0.41578573971985766,1.100149265676279,0.5307631903747485,0.00026288916712764076,-0.010208627493263091,0.25491492937064475
8076,10.0,299.90987,-6863.5579,0.0,0.08076002362484003,0.0,0.0,0.0,0.0,0.44030243033196664,1.111628680034209,0.5344190676630555,-0.01039312108472119,-0.00939026115522162,0.2550084219573718
8077,10.0,299.68547,-6957.7742,0.0,0.0807700196122596,0.0,0.0,0.0,0.0,0.4605182289071106,1.112183941089009,0.5422873903870985,0.001123963480126559,0.0028090473364063874,0.24664596755706178
8078,10.0,299.92537999999996,-6964.5229,0.0,0.08078001559967873,0.0,0.0,0.0,0.0,0.4655205838558046,1.1198399575195987,0.5316805262202825,0.0013848879451777985,0.005332024380029834,0.2587373748428908
8079,10.0,300.14462000000003,-6686.9579,0.0,0.08079001158709787,0.0,0.0,0.0,0.0,0.42818108150568257,1.074037709274269,0.5304494070837805,-0.009189637230121582,0.0012763647051423888,0.26346981009744574
8080,10.0,299.51668,-6671.59,0.0,0.08080000757451722,0.0,0.0,0.0,0.0,0.43977408119982253,1.082361660170779,0.5058610695571005,-0.015935441064705586,0.0008773999303326312,0.25856730081360574
8081,10.0,299.5079,-6800.137,0.0,0.08081000356193657,0.0,0.0,0.0,0.0,0.43748580783648755,1.0889551825465091,0.5406308987261155,0.0003125675124380117,0.01836655026813738,0.2761984605036657
8082,10.0,299.23552,-6831.1479,0.0,0.08082003253941328,0.0,0.0,0.0,0.0,0.44554955610731756,1.0933752834577388,0.5375735584043795,0.009753486390119161,0.005530154493983755,0.27089020534978175
8083,10.0,300.36467999999996,-6632.1633,0.0,0.08083002852683285,0.0,0.0,0.0,0.0,0.41705106617973564,1.099582149595309,0.4993788020423505,0.0044298973171718265,-0.013625659441497885,0.27184564953157675
8084,10.0,300.13243,-6643.125,0.0,0.08084002451425198,0.0,0.0,0.0,0.0,0.4073938098741386,1.092265267973189,0.5196850331889195,0.005714096370762405,-0.011399643204057189,0.26004390005183475
8085,10.0,299.60459,-6894.1591,0.0,0.08085002050167134,0.0,0.0,0.0,0.0,0.4210932957311726,1.1328378284773888,0.5417210849062085,0.0017737529672307885,0.006703389793348062,0.26480856679207077
8086,10.0,299.89792,-6907.3484,0.0,0.08086001648909069,0.0,0.0,0.0,0.0,0.4467630345595786,1.1105322421009989,0.5423662009798764,-0.004468216916078675,0.007163855424442482,0.24062768752810376
8087,10.0,300.14714,-6802.7155,0.0,0.08087001247650982,0.0,0.0,0.0,0.0,0.41181983829845364,1.1209376113529288,0.5350981782775784,-0.016362529021605884,-0.0012582249952271388,0.26074161393819373
8088,10.0,300.23838,-6741.4443,0.0,0.08088000846392918,0.0,0.0,0.0,0.0,0.4241306243634336,1.1024411360774689,0.5226590032924275,-0.007213436892910793,-0.007808490609613024,0.2453843495925498
8089,10.0,300.16972999999996,-6708.1859,0.0,0.08089000445134853,0.0,0.0,0.0,0.0,0.4338450077096686,1.095112298104169,0.5101637651792436,0.006158760974497385,0.010809408808805591,0.27728623514852074
8090,10.0,300.07459,-6808.0105,0.0,0.08090003342882546,0.0,0.0,0.0,0.0,0.4382967321565196,1.099567660118879,0.5316007733049115,0.01082712548680409,-0.006278143519829524,0.2766017441759667
8091,10.0,299.69117,-6812.007,0.0,0.08091002941624481,0.0,0.0,0.0,0.0,0.43589834890481755,1.106797908857449,0.5279837845554425,0.012998104005312986,-0.0094954423924522,0.2887844351633047
8092,10.0,299.66219,-6665.5299,0.0,0.08092002540366394,0.0,0.0,0.0,0.0,0.4259494386904366,1.077187903835169,0.5230173290577915,0.0009759259483888923,-0.006684712351604744,0.25762909201601175
8093,10.0,299.31903,-6721.8577,0.0,0.0809300213910833,0.0,0.0,0.0,0.0,0.4096497706917846,1.0973742776274091,0.5362528679590375,-5.111911501181385e-05,0.014533506199845387,0.2736313913753157
8094,10.0,298.82198999999997,-6943.9478,0.0,0.08094001737850265,0.0,0.0,0.0,0.0,0.46035414318591655,1.109907776064369,0.5405247709106414,-0.006353331135549963,0.002696452452169138,0.24439427252233678
8095,10.0,299.60892,-6930.4734,0.0,0.08095001336592178,0.0,0.0,0.0,0.0,0.44878564387919456,1.109627004461659,0.5482782620008515,-0.02290068437212158,-0.012134832145364687,0.24695103689716977
8096,10.0,300.23961,-6839.7777,0.0,0.08096000935334136,0.0,0.0,0.0,0.0,0.4309776517816826,1.113456583214609,0.5346873661570345,-0.004404999735714625,-0.010159126172877689,0.24428686801173674
8097,10.0,300.12025,-6817.2573,0.0,0.08097000534076049,0.0,0.0,0.0,0.0,0.4418115447659046,1.0982272315615889,0.5322372159577234,0.00865660890901578,0.005209962294808245,0.24825429944079178
8098,10.0,300.24844,-6865.6013,0.0,0.08098003431823741,0.0,0.0,0.0,0.0,0.4406821559394426,1.106155305644029,0.5401338792870635,0.007513092539059503,0.0033296813796389667,0.24455110337281477
8099,10.0,300.27858,-6810.2289,0.0,0.08099003030565677,0.0,0.0,0.0,0.0,0.4197783504138976,1.112721368942049,0.5376398249609194,-0.001039302786571199,-0.001919447793809748,0.27107145552766976
8100,10.0,300.09672,-6838.6575,0.0,0.0810000262930759,0.0,0.0,0.0,0.0,0.44742959100536256,1.093160575761549,0.5381909924853155,0.007591362157609113,-0.0018639741746849282,0.25069009188618574
8101,10.0,300.71463,-6763.1999,0.0,0.08101002228049525,0.0,0.0,0.0,0.0,0.4237588629017436,1.108136412239549,0.5239486173572026,-0.003789047229074846,0.007969045356858544,0.3007076024025297
8102,10.0,299.64162999999996,-6787.6562,0.0,0.0810200182679146,0.0,0.0,0.0,0.0,0.43218021753036656,1.096742009565009,0.5343558307243145,-0.0038914263231538764,0.005713315661560354,0.27787459908408774
8103,10.0,299.3172,-6817.9929,0.0,0.08103001425533396,0.0,0.0,0.0,0.0,0.42927427703857257,1.113317261325859,0.5299080579528535,-0.03183069561719507,-0.005452555039050285,0.28205039526370673
8104,10.0,299.21199,-6796.4059,0.0,0.08104001024275331,0.0,0.0,0.0,0.0,0.42100358256731857,1.105456061750019,0.5394780835573415,-0.01072055386778629,-0.01196737027483749,0.25200390236334874
8105,10.0,299.70122000000003,-6799.8931,0.0,0.08105000623017244,0.0,0.0,0.0,0.0,0.4151728247343676,1.1224730905544689,0.5293517735154525,-0.003251860934858687,0.014819156601786884,0.2606758641392048
8106,10.0,300.01273,-6854.2613,0.0,0.08106003520764937,0.0,0.0,0.0,0.0,0.44642856070156856,1.118867034773579,0.5182286482901856,0.005535050518466954,-0.0013406014177570586,0.24422250636538478
8107,10.0,299.91274,-6868.661999999999,0.0,0.08107003119506873,0.0,0.0,0.0,0.0,0.42606931630976763,1.1264516170721188,0.5353808041279715,-0.001748075081871578,-0.004640033330235636,0.2661455806965237
8108,10.0,299.30879,-6832.4706,0.0,0.08108002718248786,0.0,0.0,0.0,0.0,0.4423042781570336,1.101921845401219,0.5326743117858614,0.005113578905545945,-0.007334937434926963,0.2586975237164577
8109,10.0,299.68262999999996,-6765.3825,0.0,0.08109002316990721,0.0,0.0,0.0,0.0,0.4365078897674746,1.097556763970419,0.5224426541310755,0.018954925349455483,0.009120782427526142,0.27004811345667373
8110,10.0,300.12914,-6862.8228,0.0,0.08110001915732634,0.0,0.0,0.0,0.0,0.4446453215855766,1.1042960930355388,0.5371853721585684,0.004619621812271176,0.0014084666803048386,0.26384784357725477
8111,10.0,300.00774,-6832.4872,0.0,0.08111001514474592,0.0,0.0,0.0,0.0,0.4411018947933676,1.0994899438362091,0.5363136123025325,-0.012143022245922988,-0.007729704030862393,0.27281961592519977
8112,10.0,299.80925,-6744.5513,0.0,0.08112001113216527,0.0,0.0,0.0,0.0,0.4289202677186346,1.089961542545829,0.5312934241520785,-0.012778106130350887,-0.019115361343789283,0.26889447755531876
8113,10.0,300.0158,-6734.8918,0.0,0.0811300071195844,0.0,0.0,0.0,0.0,0.4244440631493676,1.0876395786166688,0.5351552951857155,0.0006145223547861344,-0.0005380357929674985,0.27012849458710675
8114,10.0,300.46591,-6693.3121,0.0,0.08114000310700376,0.0,0.0,0.0,0.0,0.4374903573294366,1.078442712759009,0.5186666256459105,0.006126415599505145,-0.011707903268730089,0.26506549661992773
8115,10.0,300.04744,-6759.2678,0.0,0.08115003208448068,0.0,0.0,0.0,0.0,0.4305379417682866,1.099812562668049,0.5242981683767005,0.006285063004762424,-0.020863383939305678,0.25814545439947273
8116,10.0,300.34364,-6799.0403,0.0,0.08116002807189981,0.0,0.0,0.0,0.0,0.4232663118956326,1.100289600815129,0.5431825765854466,-0.0036778209417476664,-0.012660569118750888,0.2521496583902338
8117,10.0,300.10084,-6799.6129,0.0,0.08117002405931917,0.0,0.0,0.0,0.0,0.4248932571836996,1.115649256431009,0.5263699811211725,-0.0030809310132142165,-0.0007412649056646502,0.25985689461337874
8118,10.0,299.78191,-6874.9641,0.0,0.0811800200467383,0.0,0.0,0.0,0.0,0.4311082698520736,1.119913215501829,0.5387959838550235,-0.0024115683712782675,0.013065725277236687,0.2566250118294167
8119,10.0,299.9291,-6867.2672,0.0,0.08119001603415765,0.0,0.0,0.0,0.0,0.4305648232934396,1.115649661731049,0.5412632377160225,-0.006463002387948674,0.005452629006307584,0.2785789598911027
8120,10.0,299.84092999999996,-6751.9212,0.0,0.08120001202157723,0.0,0.0,0.0,0.0,0.4387104320398486,1.0899895082485889,0.5237155597017015,0.0016510847557993785,0.009228542690236251,0.26052612603942676
8121,10.0,299.50527999999997,-6760.0254,0.0,0.08121000800899636,0.0,0.0,0.0,0.0,0.42060999569847457,1.0995561090677388,0.5347127987345445,0.007456091141433903,0.02199973379395468,0.27200544920484776
8122,10.0,299.92367,-6699.6402,0.0,0.08122000399641571,0.0,0.0,0.0,0.0,0.42597707002066354,1.085572953712709,0.5249733475808355,0.006365339162485063,-0.0006856855640243963,0.2635286495307527
8123,10.0,300.03358,-6710.3913,0.0,0.08123003297389242,0.0,0.0,0.0,0.0,0.42318610301771664,1.0838180045395092,0.5327872993045125,0.004711751881588706,-0.01358302897004059,0.2641772917147688
8124,10.0,300.1292,-6736.7655,0.0,0.08124002896131177,0.0,0.0,0.0,0.0,0.4235165745378316,1.091291230652059,0.5330007404380774,-0.010403777436022891,-0.011960131616123089,0.25981230147647777
8125,10.0,300.55532999999997,-6772.7077,0.0,0.08125002494873113,0.0,0.0,0.0,0.0,0.4231093898526456,1.0977991333943389,0.5378255030417445,0.0005468063439780845,-0.0007223684195147123,0.2609229755735928
8126,10.0,301.03676,-6888.0489,0.0,0.08126002093615048,0.0,0.0,0.0,0.0,0.4514007613272865,1.111205344142429,0.5311887554167485,-0.013638301762995587,-0.004278423621297536,0.25941613081987874
8127,10.0,300.17791,-6908.9643,0.0,0.08127001692356961,0.0,0.0,0.0,0.0,0.43538570514922365,1.122814454513159,0.5419524808315455,-0.002206166060031638,-0.006145627632001224,0.24505398952994575
8128,10.0,299.33072999999996,-6825.3711,0.0,0.08128001291098896,0.0,0.0,0.0,0.0,0.4309513174115836,1.1122688514473889,0.5315221754946545,0.009382484967329172,-0.013083075158698988,0.25375171825584475
8129,10.0,299.06519,-6820.5194,0.0,0.08129000889840832,0.0,0.0,0.0,0.0,0.43848360587246255,1.1027285951308388,0.5320553375647735,0.01035858546831279,0.0027325359094302975,0.2400745644310148
8130,10.0,299.63443,-6827.4219,0.0,0.08130000488582767,0.0,0.0,0.0,0.0,0.4462994625063276,1.105673910521519,0.5233924545098134,0.016678638734803485,0.012114982575905688,0.26305388106389677
8131,10.0,300.12072,-6779.0654,0.0,0.08131003386330438,0.0,0.0,0.0,0.0,0.4465096612395726,1.0919900692460291,0.5221668575863565,0.0028762004867838877,0.004223311124508356,0.26257714689184675
8132,10.0,300.16041,-6788.1579,0.0,0.08132002985072373,0.0,0.0,0.0,0.0,0.45196269970024555,1.096347044676029,0.5151207467884594,-0.004353729989929696,0.012206686776206187,0.2669512462485368
8133,10.0,300.05368,-6798.2862,0.0,0.08133002583814308,0.0,0.0,0.0,0.0,0.4274465258456876,1.099464815233729,0.5395978801166645,-0.009364904267494091,0.015365056238912985,0.2772091673459147
8134,10.0,299.98652000000004,-6785.0708,0.0,0.08134002182556244,0.0,0.0,0.0,0.0,0.4243883749238716,1.110921431464409,0.5271823138588435,-0.008675426483247931,0.005568820523099795,0.2849398096463697
8135,10.0,300.27547000000004,-6751.8233,0.0,0.08135001781298157,0.0,0.0,0.0,0.0,0.4285752763245866,1.104251712681159,0.5195587518289565,-0.01977741794587918,-0.017833574636036784,0.2691927479872558
8136,10.0,300.88821,-6738.6476,0.0,0.08136001380040092,0.0,0.0,0.0,0.0,0.41542358386911565,1.108849233684899,0.5241078090804135,-0.004931484386349615,-0.007270486014616102,0.25865356892711977
8137,10.0,300.53035,-6698.0786,0.0,0.08137000978782027,0.0,0.0,0.0,0.0,0.4238965635903336,1.103703443052049,0.5084486266024725,0.014856170627939886,0.004364207299938726,0.25802671162025376
8138,10.0,299.97581,-6801.2575,0.0,0.08138000577523963,0.0,0.0,0.0,0.0,0.4318542245756936,1.1169911035384388,0.5185670738235855,0.014652760670364886,0.004723901459562776,0.2519049078285788
8139,10.0,299.97918,-6912.3952,0.0,0.08139003475271633,0.0,0.0,0.0,0.0,0.42587559302314865,1.130666636163109,0.5446533597681015,0.008711332723066602,-0.007772200246681442,0.26419581392659675
8140,10.0,299.41801,-6835.4713,0.0,0.08140003074013569,0.0,0.0,0.0,0.0,0.43820590441755564,1.1073930919661887,0.5322135768328905,-0.016190644314392183,-0.004576446009610056,0.2673480349876967
8141,10.0,299.92098,-6789.4012,0.0,0.08141002672755504,0.0,0.0,0.0,0.0,0.43473184472719256,1.094575883501229,0.5345007254886145,0.004276895538821725,0.013578167396060787,0.26169513294479874
8142,10.0,300.06104,-6801.1026,0.0,0.0814200227149744,0.0,0.0,0.0,0.0,0.43673751250513665,1.1040476441110187,0.5265801899869185,-0.023791849994072776,0.016844954619467587,0.27438892754757876
8143,10.0,299.30143,-6836.4022,0.0,0.08143001870239353,0.0,0.0,0.0,0.0,0.46689054865350954,1.097886779527989,0.5133182660530685,-0.007595569172024312,0.01118678266279949,0.25652416304696374
8144,10.0,299.91553999999996,-6841.8903,0.0,0.08144001468981288,0.0,0.0,0.0,0.0,0.4392054756412056,1.1030683378893689,0.5374900361986364,-0.025996342772889272,-0.0016516527838054383,0.26392134473950873
8145,10.0,300.04908,-6820.6528,0.0,0.08145001067723223,0.0,0.0,0.0,0.0,0.42396851447993456,1.105863996240279,0.5434755882493645,3.104629514503077e-05,0.00877647669982081,0.2536702833453078
8146,10.0,299.8681,-6870.5454,0.0,0.08146000666465159,0.0,0.0,0.0,0.0,0.4288580338974926,1.125665740294559,0.5339505205518136,-0.0025136767249305777,0.003718894757076337,0.26101715717038776
8147,10.0,300.41312,-6838.0152,0.0,0.08147000265207094,0.0,0.0,0.0,0.0,0.4278843613463986,1.114062506774409,0.5366389871746445,-0.0047812253746952055,-0.009608837338968411,0.25487036663124674
8148,10.0,298.91568,-6889.9618,0.0,0.08148003162954764,0.0,0.0,0.0,0.0,0.4451254400129605,1.123584423264149,0.5256664613117406,-0.006850392219181074,-0.0019027521679370182,0.2579883094414638
8149,10.0,298.89192,-6916.4211,0.0,0.081490027616967,0.0,0.0,0.0,0.0,0.45635145065338156,1.1146148294039189,0.5314530009103275,0.00023464642152529877,-0.0015769020815281185,0.24991979889516375
8150,10.0,299.81576,-6756.9341,0.0,0.08150002360438635,0.0,0.0,0.0,0.0,0.42466202337837866,1.109462047345379,0.5198152054292665,0.006312459159641214,0.0024726155752281577,0.28307500389732776
8151,10.0,299.81255,-6735.9541,0.0,0.08151001959180548,0.0,0.0,0.0,0.0,0.40422107049851363,1.099152734202929,0.5441880753221815,-0.002970904819305477,-0.009581339453779581,0.26946537305916174
8152,10.0,300.29807999999997,-6648.7167,0.0,0.08152001557922484,0.0,0.0,0.0,0.0,0.41641706545966467,1.084332330290269,0.5202944119315606,0.005342988455386905,-0.006371610471328994,0.2716764874273817
8153,10.0,300.8387,-6659.8826,0.0,0.08153001156664397,0.0,0.0,0.0,0.0,0.4163871441842116,1.087270451605239,0.5207804173420255,0.005179164254043715,0.0058375888611501645,0.26770729294315276
8154,10.0,299.74885,-6887.2751,0.0,0.08154000755406354,0.0,0.0,0.0,0.0,0.45805741931674754,1.112083730654119,0.5234185153023855,-0.009232985386624712,0.01315963734950509,0.26911661237474177
8155,10.0,300.19867,-6943.7126,0.0,0.0815500035414829,0.0,0.0,0.0,0.0,0.4542243549834536,1.119109100222469,0.5373818312204575,-0.007705433955192123,-0.00013289641390335486,0.2616994595227257
8156,10.0,300.09477999999996,-6920.5231,0.0,0.0815600325189596,0.0,0.0,0.0,0.0,0.4374160253021006,1.117958048108869,0.5482921536597225,-0.010655534622119388,-0.004504475665607135,0.25924555016554374
8157,10.0,299.47258999999997,-6952.1483,0.0,0.08157002850637896,0.0,0.0,0.0,0.0,0.42697666150931557,1.124325919687329,0.5619768764627995,-0.00031093890541978073,0.004836331386683745,0.24694029644610976
8158,10.0,299.9165,-6904.7880000000005,0.0,0.08158002449379831,0.0,0.0,0.0,0.0,0.4477648045359456,1.115848258750649,0.5352700964220455,-0.011536413729055388,-0.01094554909224159,0.2631707391979297
8159,10.0,299.90909,-6939.8708,0.0,0.08159002048121744,0.0,0.0,0.0,0.0,0.4445487791160486,1.114713519963659,0.5502851355464145,0.002397469198786788,-0.014793228544977987,0.2523006833176388
8160,10.0,300.05518,-6761.8276,0.0,0.0816000164686368,0.0,0.0,0.0,0.0,0.4571437109065715,1.083316952365059,0.5149660640281936,-0.0012419366958946088,-0.005614583761216274,0.25735037731100474
8161,10.0,300.16673,-6754.0083,0.0,0.08161001245605615,0.0,0.0,0.0,0.0,0.4389428614802876,1.087111776639579,0.5269951868303755,0.01821761060943818,0.008929850948907673,0.24682758250498577
8162,10.0,300.62404,-6887.9234,0.0,0.0816200084434755,0.0,0.0,0.0,0.0,0.4344357730479726,1.097441354784029,0.5618795639231955,0.0029564657014054473,0.0097779111890797,0.27042211420108475
8163,10.0,300.327,-6854.4222,0.0,0.08163000443089485,0.0,0.0,0.0,0.0,0.4267490754043545,1.103915820273009,0.5529082678027974,-0.00950504303847471,-0.011773915499494988,0.25829369288910276
8164,10.0,300.28789,-6878.2821,0.0,0.08164003340837156,0.0,0.0,0.0,0.0,0.4212879106778796,1.1201666293518389,0.5493714271362384,-0.011317828324732689,-0.013716780009740786,0.27544937483723675
8165,10.0,300.10416000000004,-6927.1943,0.0,0.08165002939579091,0.0,0.0,0.0,0.0,0.4378580455257246,1.1328953810830689,0.5349406989470364,-0.003739899735624366,0.00017737406055795681,0.25914892663600775
8166,10.0,300.45111,-6880.7126,0.0,0.08166002538321027,0.0,0.0,0.0,0.0,0.4550872691661166,1.1261188657392789,0.5103586942334816,-0.0026890543078889975,-0.0004885171358728875,0.2726012909261527
8167,10.0,300.14507000000003,-6936.7578,0.0,0.0816700213706294,0.0,0.0,0.0,0.0,0.45212180023094756,1.1198609317966688,0.5366184587276185,-0.011938116731200387,-0.007561339962446153,0.27343856988128573
8168,10.0,300.13749,-6863.2219,0.0,0.08168001735804875,0.0,0.0,0.0,0.0,0.4213528093467846,1.129941250416519,0.5349540637158555,-0.006270961197820684,0.002939827425488377,0.2773336045906957
8169,10.0,300.13478,-6687.6256,0.0,0.0816900133454681,0.0,0.0,0.0,0.0,0.4020534650895876,1.100647176775419,0.5301705707887615,0.008256492453877362,0.028871590905904174,0.2727031326937037
8170,10.0,299.60405,-6717.71,0.0,0.08170000933288746,0.0,0.0,0.0,0.0,0.4087213296251546,1.095335010476149,0.5379597485474935,0.008186698165789201,0.012476670305101488,0.27266380845732274
8171,10.0,300.20075,-6769.9616,0.0,0.08171000532030681,0.0,0.0,0.0,0.0,0.4288552981222226,1.110336583506689,0.5187073886974335,0.01167254995949099,-0.00930059379027214,0.26062407692659373
8172,10.0,300.20731,-6783.8275,0.0,0.08172003429778352,0.0,0.0,0.0,0.0,0.44703263001368554,1.0971449791297792,0.5179365688163594,-0.005563095660034795,-0.014123180439349386,0.25312429352892274
8173,10.0,299.66785,-6853.8938,0.0,0.08173003028520287,0.0,0.0,0.0,0.0,0.44327618765295357,1.108249288300689,0.5318871380481734,0.013658025689442186,0.007939269989419942,0.27290011864564473
8174,10.0,299.49616000000003,-6859.6191,0.0,0.081740026272622,0.0,0.0,0.0,0.0,0.44184747461445056,1.111096926381729,0.5322084801848875,-0.0007802751459721612,-0.006910416445830004,0.2773332600856618
8175,10.0,299.78927000000004,-6860.976,0.0,0.08175002226004136,0.0,0.0,0.0,0.0,0.4412465058476396,1.100885189223909,0.5434337410202346,-0.006836448580579944,-0.013119493393793188,0.27161032219585174
8176,10.0,299.68686,-6836.7435,0.0,0.08176001824746071,0.0,0.0,0.0,0.0,0.42821591704412054,1.1054562644000387,0.5445270784081385,-0.015986961792540284,-0.015520777580531483,0.25555668145398075
8177,10.0,300.23452000000003,-6863.1632,0.0,0.08177001423488006,0.0,0.0,0.0,0.0,0.45031548941017857,1.1072967318816789,0.5286179980580344,0.01140299098238759,0.008441592576845323,0.24266949793711476
8178,10.0,300.13929,-6892.353,0.0,0.08178001022229942,0.0,0.0,0.0,0.0,0.4581314068390495,1.100646467500349,0.5363253862686944,0.008621264212402533,0.007244958292921713,0.2376138966956658
8179,10.0,299.94023,-6834.9317,0.0,0.08179000620971855,0.0,0.0,0.0,0.0,0.43925099083569763,1.1120131071221488,0.5263844402000996,0.002103110418860838,-0.0056390563855815345,0.2584721363642138
8180,10.0,300.11242000000004,-6735.579000000001,0.0,0.08180003518719547,0.0,0.0,0.0,0.0,0.41730853303014565,1.101229187632859,0.5289101484593676,0.0002148233789539168,-0.004665867053460225,0.26618539129295277
8181,10.0,299.83691,-6760.9148,0.0,0.08181003117461483,0.0,0.0,0.0,0.0,0.4195439957982686,1.105980216026749,0.5296250977299275,0.00020765696497164682,0.00955600060190383,0.2746196749928517
8182,10.0,299.78288,-6904.3393,0.0,0.08182002716203396,0.0,0.0,0.0,0.0,0.43663953122046656,1.1321984676642887,0.5299087570954225,0.0007662373156417351,0.006659715876937785,0.28592103091070875
8183,10.0,300.15546,-6807.8937,0.0,0.08183002314945331,0.0,0.0,0.0,0.0,0.45078443168895954,1.091386070861419,0.5272592094089324,-0.016720119167397286,-0.010947410432675289,0.26418540784806976
8184,10.0,299.28709,-6753.2743,0.0,0.08184001913687289,0.0,0.0,0.0,0.0,0.4354173084198426,1.101582203967699,0.5158272759506886,-0.009395800897493351,-0.003158528036347447,0.26567271713985574
8185,10.0,299.43172000000004,-6770.4827,0.0,0.08185001512429202,0.0,0.0,0.0,0.0,0.4269449974436906,1.092072041179119,0.5390406229591674,-0.01045993479631519,0.01212021499942209,0.26781731163901074
8186,10.0,299.69057000000004,-6879.1308,0.0,0.08186001111171137,0.0,0.0,0.0,0.0,0.4452750970527306,1.1058707850159488,0.5399381295002446,0.008133253681314644,0.0028566774878321173,0.26640136555176774
8187,10.0,299.86933999999997,-6975.2918,0.0,0.0818700070991305,0.0,0.0,0.0,0.0,0.4336338362563276,1.133709932838459,0.5529707549364644,-0.014406589532069688,-0.008842431985930092,0.27405985431260177
8188,10.0,300.34482,-6803.1401,0.0,0.08188000308654986,0.0,0.0,0.0,0.0,0.43353976611704353,1.0967428201650888,0.5377021702395725,0.004002551285471056,-0.008565381037587293,0.24439362404227277
8189,10.0,300.33057,-6743.9454,0.0,0.08189003206402679,0.0,0.0,0.0,0.0,0.4215848942821896,1.1180527869932189,0.5103532936104485,0.0004915910124362555,0.01085099664590999,0.2569145379129908
8190,10.0,299.93405,-6846.5389,0.0,0.08190002805144592,0.0,0.0,0.0,0.0,0.44465804800683256,1.1124734266425789,0.5240453523442495,0.015393215472442087,0.004177737668135606,0.24897683795460074
8191,10.0,300.60857999999996,-6842.9487,0.0,0.08191002403886527,0.0,0.0,0.0,0.0,0.44684496596266454,1.098045555818659,0.5351949841921325,-0.0042573224853150165,-0.013348766560170686,0.26858167711694775
8192,10.0,300.10972999999996,-6731.0109,0.0,0.08192002002628462,0.0,0.0,0.0,0.0,0.4288225701439926,1.087754886478049,0.5294817633707815,2.025296357556188e-05,-0.0035379851325469465,0.27487651362819976
8193,10.0,299.33871,-6706.8484,0.0,0.08193001601370398,0.0,0.0,0.0,0.0,0.4090155977191966,1.0950149247695589,0.5346838704441895,0.0034425614937793666,0.005933648010380464,0.2827113788339407
8194,10.0,299.54233,-6837.4731,0.0,0.08194001200112333,0.0,0.0,0.0,0.0,0.44912267112745663,1.100112991322699,0.5291854282465355,0.0014972703508690783,0.0008204177135314243,0.27349497751435276
8195,10.0,300.01116,-6998.1633,0.0,0.08195000798854246,0.0,0.0,0.0,0.0,0.46135713919490456,1.125797057507519,0.5401127023599736,-0.015581989032322587,-0.014561231762331686,0.2598933716169788
8196,10.0,299.96741000000003,-6944.6336,0.0,0.08196000397596181,0.0,0.0,0.0,0.0,0.45927469745688354,1.108536139403999,0.5431843295081195,-0.016654482852419484,-0.008755960310471001,0.24523175412748974
8197,10.0,299.46335,-6801.4057,0.0,0.08197003295343874,0.0,0.0,0.0,0.0,0.4397070749707096,1.1018105905402389,0.5259398868512255,0.00011944584306588687,0.013453883152044885,0.23751386864579377
8198,10.0,299.64121,-6863.8541,0.0,0.08198002894085787,0.0,0.0,0.0,0.0,0.4210877836506286,1.126994111175659,0.5383583206068295,0.009574230693728002,0.0017682814166907887,0.25954277694987776
8199,10.0,299.73446,-6979.057,0.0,0.08199002492827723,0.0,0.0,0.0,0.0,0.44018072886245563,1.1384218497784888,0.5428565127032664,-0.0007254956538283463,-0.0091789993199717,0.26131475885725874
8200,10.0,299.87831,-6877.3413,0.0,0.08200002091569658,0.0,0.0,0.0,0.0,0.4410579400040296,1.116453169060349,0.5330289087908575,-0.006128437945379734,-0.002388764569827708,0.2725744296660017
8201,10.0,300.01267,-6677.6611,0.0,0.08201001690311593,0.0,0.0,0.0,0.0,0.4186665009466666,1.097157644756029,0.5140180874996355,0.00982591624304243,0.01943427269351338,0.26586945991177274
8202,10.0,300.0939,-6713.0965,0.0,0.08202001289053529,0.0,0.0,0.0,0.0,0.4298983479076636,1.092861768307059,0.5178536140306724,0.008206259566919763,0.01070188068169339,0.27946791460133574
8203,10.0,300.52257000000003,-6867.2557,0.0,0.08203000887795442,0.0,0.0,0.0,0.0,0.43671196847011556,1.112330051753429,0.5384322675991275,-0.01040861165224999,-0.0012758025539869088,0.28132016618163874
8204,10.0,300.4929,-6965.4418,0.0,0.08204000486537377,0.0,0.0,0.0,0.0,0.4453726223748556,1.113240456968279,0.5587073311726205,-0.008522087089964513,-0.012639459066167487,0.2652845612915477
8205,10.0,300.3694,-6996.1732,0.0,0.0820500338428507,0.0,0.0,0.0,0.0,0.43784189431913056,1.1390642503418889,0.5497558440916775,-0.007329473889062753,0.0016849378469404187,0.2804124663445557
8206,10.0,300.03821,-6892.293000000001,0.0,0.08206002983026983,0.0,0.0,0.0,0.0,0.4531976793196286,1.119294626315779,0.5225926455433786,0.0016343036116182085,-0.006951303519165243,0.25638634076836175
8207,10.0,300.1325,-6829.0659,0.0,0.08207002581768919,0.0,0.0,0.0,0.0,0.4407269821238666,1.110551493852899,0.5245870054502065,-0.00927441748718874,-0.00961200293493083,0.2754711394493848
8208,10.0,299.83024,-6837.4584,0.0,0.08208002180510854,0.0,0.0,0.0,0.0,0.44983112546487564,1.103161354248549,0.5254241121528225,-0.004212979013238655,2.785875522519507e-05,0.24194899605600675
8209,10.0,299.86622,-6717.3457,0.0,0.08209001779252789,0.0,0.0,0.0,0.0,0.4171995782468926,1.0947416512175887,0.5299641109483855,0.00945145902946138,0.017560472323333683,0.25625493236289276
8210,10.0,299.86884,-6787.0845,0.0,0.08210001377994725,0.0,0.0,0.0,0.0,0.4121255459861246,1.1089186413167489,0.5420600474621615,0.014012142413890788,0.00938645954217143,0.25655395259990377
8211,10.0,299.73852,-6837.3543,0.0,0.08211000976736638,0.0,0.0,0.0,0.0,0.4273677456504126,1.1179964502876591,0.5330208129225585,-0.0017102446801130083,-0.0029105114656451173,0.2802495458609767
8212,10.0,299.34393,-6853.4581,0.0,0.08212000575478573,0.0,0.0,0.0,0.0,0.4454544625854326,1.1067696391796589,0.5310560399186505,-0.0053885975781631755,-0.008231396478050582,0.27170752327794473
8213,10.0,299.62998999999996,-6912.1679,0.0,0.08213003473226266,0.0,0.0,0.0,0.0,0.44993129536976156,1.1084032009908789,0.5427919788043974,-0.016007483146815583,0.005115420892902735,0.27239017013531674
8214,10.0,299.59217,-6890.518,0.0,0.08214003071968201,0.0,0.0,0.0,0.0,0.4449732701129425,1.1069804965254688,0.5425916491271265,0.0004321598816008596,-0.004488795822959656,0.2598307932908028
8215,10.0,299.96488,-6839.8822,0.0,0.08215002670710114,0.0,0.0,0.0,0.0,0.43222941082272165,1.110035344251959,0.5368886519992845,-0.016131710648825882,-0.014862609832325385,0.25431348437628676
8216,10.0,299.8216,-6869.9773,0.0,0.0821600226945205,0.0,0.0,0.0,0.0,0.4257027122910866,1.1063855160667488,0.5562133173764805,-0.0013979088169128585,-0.013115285366127886,0.24858304843573675
8217,10.0,300.19593,-6853.1992,0.0,0.08217001868193963,0.0,0.0,0.0,0.0,0.4335580552813486,1.120102490620509,0.5295408662491146,0.01062006276261859,0.01222692239395329,0.25432998008791474
8218,10.0,300.44102000000004,-6913.7936,0.0,0.0821800146693592,0.0,0.0,0.0,0.0,0.44482314697812664,1.1156820857342489,0.5411153741289295,0.019712067367429583,0.012660237785968188,0.2638927102916827
8219,10.0,300.77137,-6890.73,0.0,0.08219001065677833,0.0,0.0,0.0,0.0,0.44119795090284764,1.125031243081939,0.5283806847521135,-0.001959791461116358,0.005752009048429095,0.2862748071831237
8220,10.0,300.20982999999995,-6807.5982,0.0,0.08220000664419769,0.0,0.0,0.0,0.0,0.4336006928455566,1.104448181875549,0.5312910227493415,0.005408045089982495,0.0015496535571888985,0.27186422240590974
8221,10.0,300.13858,-6745.8346,0.0,0.08221000263161704,0.0,0.0,0.0,0.0,0.4158677623154526,1.1010045500856889,0.5336929827738964,-0.0008823885152124661,0.012791576277180288,0.2819657888803567
8222,10.0,299.89555,-6847.3042,0.0,0.08222003160909397,0.0,0.0,0.0,0.0,0.4252069188846556,1.1159104723067887,0.5402921590851845,-0.001827761224060988,0.0026119979550091274,0.2736202354917147
8223,10.0,299.60935,-6963.504,0.0,0.0822300275965131,0.0,0.0,0.0,0.0,0.4493967552795066,1.119041212465769,0.5482933290298385,-0.0077024723264748325,-0.016318980545557984,0.27788863259797275
8224,10.0,299.72066,-6902.0927,0.0,0.08224002358393245,0.0,0.0,0.0,0.0,0.45372750779691856,1.100287776964949,0.5440485305184094,-0.012194475086000987,-0.00986864996468492,0.25732556281605573
8225,10.0,299.64312,-6846.0378,0.0,0.08225001957135158,0.0,0.0,0.0,0.0,0.43275249105434554,1.113386263657669,0.5348857605266145,0.005000553288691185,0.004847539857964935,0.2611386458573777
8226,10.0,299.73486,-6854.8195,0.0,0.08226001555877094,0.0,0.0,0.0,0.0,0.4467340556067186,1.101785360612749,0.5351745165401125,-0.0036812701464130765,0.0038384538105758963,0.2539504672629598
8227,10.0,299.98883,-6945.891,0.0,0.08227001154619051,0.0,0.0,0.0,0.0,0.4424322111146595,1.1296790212906387,0.5392661521664255,0.007020895866508473,-0.011234596921768389,0.26790159378232875
8228,10.0,300.42911000000004,-6913.154,0.0,0.08228000753360964,0.0,0.0,0.0,0.0,0.4440430963886416,1.129129637086419,0.5282534509370566,-0.00023478302790378079,-0.0052346098061407656,0.26956143930114274
8229,10.0,299.9476,-6780.1795,0.0,0.082290003521029,0.0,0.0,0.0,0.0,0.43774767219233157,1.098232500462109,0.5250250739984406,0.00937174826529454,0.015822822369090984,0.2611160402476468
8230,10.0,299.64884,-6787.7864,0.0,0.0823000324985057,0.0,0.0,0.0,0.0,0.4293334407119116,1.1200520307655288,0.5139321233611516,-0.0022750108314510877,0.010807915278158189,0.28078382250620576
8231,10.0,300.45637999999997,-6887.5271,0.0,0.08231002848592506,0.0,0.0,0.0,0.0,0.43950646158341056,1.118075483795459,0.5360543013369404,-0.02126611539030218,-0.013138337819152988,0.2754570958029987
8232,10.0,300.77511,-6888.4265,0.0,0.08232002447334441,0.0,0.0,0.0,0.0,0.4394236182552346,1.1063820710164092,0.5481039120561444,-0.015579021222779686,-0.008093250466041634,0.26645257521182175
8233,10.0,300.61526000000003,-6819.6802,0.0,0.08233002046076354,0.0,0.0,0.0,0.0,0.4304798217425506,1.110303551553429,0.5322291403544265,-0.016511397752798085,0.005909955993892244,0.2687679226178288
8234,10.0,300.68556,-6681.6584,0.0,0.0823400164481829,0.0,0.0,0.0,0.0,0.4202502615154716,1.077350023851169,0.5334570880181155,0.0029527527477390073,0.013852239389109587,0.2683412632657207
8235,10.0,300.68669,-6715.4432,0.0,0.08235001243560247,0.0,0.0,0.0,0.0,0.42890246491437756,1.1020667401655189,0.5103578735009006,-0.008407373803743191,-0.00945410543607256,0.2710386566219327
8236,10.0,300.44978,-6925.4022,0.0,0.0823600084230216,0.0,0.0,0.0,0.0,0.4498104652953366,1.129575264480399,0.5257635712013244,0.008004921604474252,0.000904686086780565,0.26678072638920775
8237,10.0,300.01918,-6912.6464,0.0,0.08237000441044096,0.0,0.0,0.0,0.0,0.45077884868090856,1.1101865211668789,0.5403065371041035,0.0030142280498561473,0.014838110458157487,0.2581359298485328
8238,10.0,299.56934,-6858.4236,0.0,0.08238003338791766,0.0,0.0,0.0,0.0,0.44049793693876155,1.1215785933661888,0.5227129993902565,0.0043725882968158655,0.01927318619261538,0.2600736997372758
8239,10.0,299.69184,-6908.0868,0.0,0.08239002937533701,0.0,0.0,0.0,0.0,0.4234011349539386,1.125775171305359,0.5507096062783066,-0.001999820615591928,-0.014105468827601386,0.27247141252833473
8240,10.0,299.79789,-6958.9435,0.0,0.08240002536275637,0.0,0.0,0.0,0.0,0.45393815236020757,1.111779147674059,0.5496277996765404,-0.002686349335422037,-0.007985494256331922,0.24746731822062276
8241,10.0,300.31827000000004,-6893.0941,0.0,0.0824100213501755,0.0,0.0,0.0,0.0,0.4456874898434306,1.110868438484179,0.5387725372477095,0.013230200086469088,0.011233726539932489,0.2680014799771867
8242,10.0,299.63597000000004,-6758.125,0.0,0.08242001733759485,0.0,0.0,0.0,0.0,0.43616035511567564,1.082443733428879,0.5356972016041974,0.01013237049338711,0.008809550804284971,0.25547910702632476
8243,10.0,299.75293999999997,-6694.6319,0.0,0.0824300133250142,0.0,0.0,0.0,0.0,0.4231516829118196,1.101087231293849,0.5107619981707845,-0.010727139993436292,-0.00924392575192944,0.27723629205109174
8244,10.0,299.57426,-6833.1406,0.0,0.08244000931243356,0.0,0.0,0.0,0.0,0.43673821164770554,1.117508165064469,0.5228577522995426,-0.008483850678890872,-0.00928128205396622,0.26531162520171875
8245,10.0,299.92826,-6972.0642,0.0,0.08245000529985291,0.0,0.0,0.0,0.0,0.4503161074927396,1.109546349753699,0.5594709772429864,0.0018718248364597283,0.004935320044603165,0.26181942833456573
8246,10.0,299.7319,-6987.0726,0.0,0.08246003427732962,0.0,0.0,0.0,0.0,0.46109553828408656,1.126827431534209,0.5359726232463796,0.0018182197518443182,0.01107416802018529,0.26533414975144176
8247,10.0,300.03046,-6859.0222,0.0,0.08247003026474897,0.0,0.0,0.0,0.0,0.43747642514056156,1.113596817028449,0.5338981963166495,-0.0028803629181946874,-0.00898905008600017,0.2700725327840837
8248,10.0,299.51395,-6889.9121,0.0,0.08248002625216833,0.0,0.0,0.0,0.0,0.4341434706591246,1.127675521867909,0.5325422549003285,-0.01080503663462409,-0.0009181027036071822,0.2673882306191637
8249,10.0,299.87192999999996,-6927.4375,0.0,0.08249002223958746,0.0,0.0,0.0,0.0,0.4395335052285796,1.130878405434009,0.5353560808255315,0.0007135426463736762,0.015548498076767284,0.26116615559759276
8250,10.0,299.89024,-6845.0553,0.0,0.08250001822700703,0.0,0.0,0.0,0.0,0.4201961438276306,1.1050171218066989,0.5555126042698255,-0.004044275202063886,0.015741427988557984,0.25479800030910477
8251,10.0,300.48862,-6723.3379,0.0,0.08251001421442616,0.0,0.0,0.0,0.0,0.4095773435746366,1.108258812851629,0.5258907138238725,-0.002017634666925038,-0.0027206099557532974,0.27022332466396576
8252,10.0,299.8639,-6768.8771,0.0,0.08252001020184552,0.0,0.0,0.0,0.0,0.4297936386423296,1.1047055474009488,0.5230704537605345,-0.018238578807007584,-0.007930980894326872,0.26011314556366877
8253,10.0,300.76697,-6838.8928,0.0,0.08253000618926487,0.0,0.0,0.0,0.0,0.44031282627799256,1.0978918457784888,0.5406479314602964,0.0017032650081241687,0.004457104095606926,0.2656950086420557
8254,10.0,300.46324,-7023.2892,0.0,0.08254003516674158,0.0,0.0,0.0,0.0,0.46479189491388856,1.129029933276579,0.5410827170782065,-0.01137375466400219,0.010714530095941789,0.27455645831911274
8255,10.0,300.37992,-7043.0572,0.0,0.08255003115416071,0.0,0.0,0.0,0.0,0.4646816634355095,1.127813830506559,0.5484179790571405,-0.00041077022265236456,-0.008611430113556981,0.26651648089562874
8256,10.0,299.58632,-6891.816999999999,0.0,0.08256002714158028,0.0,0.0,0.0,0.0,0.44243537245497155,1.1198284064684592,0.5326764700085745,-0.007905051520292842,-0.00035751978570445564,0.26385309221277276
8257,10.0,299.66357999999997,-6823.2809,0.0,0.08257002312899964,0.0,0.0,0.0,0.0,0.42668446044547764,1.120146263024829,0.5272763434681235,0.012653871535589887,0.01034927977939439,0.25258600441329776
8258,10.0,299.61136,-6908.9009,0.0,0.08258001911641899,0.0,0.0,0.0,0.0,0.4557225871113176,1.104757020506029,0.5396537709921805,0.01778365788311038,0.007529614899165133,0.24147660872688576
8259,10.0,300.3396,-7039.3496,0.0,0.08259001510383812,0.0,0.0,0.0,0.0,0.45658145842608155,1.137107765723799,0.5460972614256036,0.017471696415822184,-0.009602149786983401,0.26826440824563574
8260,10.0,300.24739,-6899.3108,0.0,0.08260001109125747,0.0,0.0,0.0,0.0,0.4475287172626456,1.109386256237899,0.5403032643062805,-0.0005141111241238175,-0.0077099161683344825,0.26132783991604974
8261,10.0,300.85822,-6726.5451,0.0,0.08261000707867683,0.0,0.0,0.0,0.0,0.4091682742442646,1.1053100524106092,0.5302234016489755,-0.005456459193010595,0.009170778416610362,0.28368329846236173
8262,10.0,300.15681,-6809.7897,0.0,0.08262000306609596,0.0,0.0,0.0,0.0,0.4165755884378096,1.107065710858879,0.5463646682594945,-0.014169561962676887,0.011976587810997188,0.2679785501274238
8263,10.0,300.13147999999995,-6870.2069,0.0,0.08263003204357267,0.0,0.0,0.0,0.0,0.4414006515853525,1.1095531385293689,0.5374175482864825,-0.02166152104307568,-0.0051963368167385155,0.27194829176670676
8264,10.0,300.07304,-6818.4063,0.0,0.08264002803099202,0.0,0.0,0.0,0.0,0.44670246246860057,1.107869522163209,0.5180532344328735,-0.01091566733354249,-0.0030213926399882372,0.2758905439307767
8265,10.0,299.72947999999997,-6801.2712,0.0,0.0826500240184116,0.0,0.0,0.0,0.0,0.44302618845578057,1.0991045034981688,0.5252858744416795,-0.0006589780139135664,0.005962794250831974,0.26616903743633874
8266,10.0,300.03425,-6826.7801,0.0,0.08266002000583095,0.0,0.0,0.0,0.0,0.4450540464109146,1.104253333881319,0.5258632648786635,0.0087301082474196,0.007131340836683544,0.26894557575786177
8267,10.0,301.00128,-6950.7151,0.0,0.08267001599325008,0.0,0.0,0.0,0.0,0.44392035127152757,1.127700346495359,0.5412231231445634,0.006044118818433084,-0.007186171548619913,0.27516447930661975
8268,10.0,299.78767,-7073.0145,0.0,0.08268001198066921,0.0,0.0,0.0,0.0,0.4577650358678916,1.1332990599229091,0.5589557496996375,0.008969071124503403,-0.0030444165193605176,0.26792043010168776
8269,10.0,299.66161,-6872.7774,0.0,0.08269000796808879,0.0,0.0,0.0,0.0,0.4366599482099816,1.111079397154999,0.5414134216458445,0.007717438334426863,0.015121511444876985,0.25718392058457673
8270,10.0,299.85585,-6645.1403,0.0,0.08270000395550814,0.0,0.0,0.0,0.0,0.4152703500564926,1.092143171336139,0.5125431905215745,0.006451543238592743,0.014631026455719886,0.2543578343331638
8271,10.0,299.75401,-6803.6299,0.0,0.08271003293298462,0.0,0.0,0.0,0.0,0.4383382044831126,1.099749842486859,0.5300455863889265,-0.005860338960345425,-0.02112837214520798,0.26154298330978276
8272,10.0,300.08236,-6978.6627,0.0,0.08272002892040398,0.0,0.0,0.0,0.0,0.4565066400386976,1.1149749384894592,0.5498575946667195,-0.004767720878687416,-0.01919813881070878,0.26165196849053873
8273,10.0,300.86208,-6901.3845,0.0,0.08273002490782355,0.0,0.0,0.0,0.0,0.4241075627911576,1.1120272926235488,0.5617137354118296,0.004570652650838295,0.002730030445908028,0.28577846662163875
8274,10.0,300.36078,-6849.4347,0.0,0.0827400208952429,0.0,0.0,0.0,0.0,0.4240142627219496,1.1242487100297092,0.5337941456638805,0.006993873499591573,0.004558517866315686,0.2726412636425977
8275,10.0,300.72853,-6846.8386,0.0,0.08275001688266204,0.0,0.0,0.0,0.0,0.4350656701051386,1.116176349133029,0.5300259394694875,0.0005082853210838555,0.0034723794177221666,0.27897871745305575
8276,10.0,300.20402,-6940.7421,0.0,0.08276001287008117,0.0,0.0,0.0,0.0,0.46173856706254857,1.1209569644298387,0.5271167565773734,0.0011882013073163387,0.01061888536600239,0.2550225365312647
8277,10.0,300.72227999999996,-6951.3859,0.0,0.08277000885750052,0.0,0.0,0.0,0.0,0.4637452582230936,1.124356317190329,0.5249461722131535,0.0035479437598297863,0.03037273207480527,0.2604679350861837
8278,10.0,300.56417999999996,-6836.649,0.0,0.0827800048449201,0.0,0.0,0.0,0.0,0.4429979795729965,1.100674129228079,0.5344985064708955,-0.0017743335595380883,0.01911559844431268,0.25779379581976675
8279,10.0,299.72042999999996,-6818.1914,0.0,0.08279003382239658,0.0,0.0,0.0,0.0,0.40477791222346965,1.1256321003912388,0.5421499126135305,-0.005927250146599045,-0.016056132323866885,0.2843097302041857
8280,10.0,299.73036,-6847.8909,0.0,0.08280002980981616,0.0,0.0,0.0,0.0,0.4252613810775306,1.112872647181979,0.5434537729747114,-0.007122406706576813,-0.019154446453146682,0.2906802058354027
8281,10.0,300.2846,-6938.9017,0.0,0.08281002579723529,0.0,0.0,0.0,0.0,0.44428624601513855,1.1128314079029091,0.5521352086390025,0.002385767983981968,0.012903793725755288,0.26649150428066376
8282,10.0,299.89566,-6891.5197,0.0,0.08282002178465486,0.0,0.0,0.0,0.0,0.4457947828965196,1.129406153038709,0.5196489209553555,0.011054111747705889,0.0020592744837595683,0.27789049697815676
8283,10.0,299.8677,-6785.7903,0.0,0.082830017772074,0.0,0.0,0.0,0.0,0.44498079856118555,1.097771674316629,0.5199583574033945,0.008004911269323232,-0.011169711425114689,0.2504805112355018
8284,10.0,299.5284,-6840.8258,0.0,0.08284001375949313,0.0,0.0,0.0,0.0,0.43869513196333854,1.109127674812379,0.5316173804740505,-0.0035213723905323973,-0.012296389807559188,0.27114399410232876
8285,10.0,299.97342000000003,-6923.597,0.0,0.08285000974691248,0.0,0.0,0.0,0.0,0.43364144576457864,1.123715031202039,0.5472440882862865,0.011732653928922789,0.008251255166760483,0.25993213856580477
8286,10.0,300.83372,-6967.4841,0.0,0.08286000573433183,0.0,0.0,0.0,0.0,0.4468221982329176,1.1226116018431387,0.5485073375834595,-0.0035479485221052566,0.0011636252301158688,0.2742693640357788
8287,10.0,300.85114,-6954.3605,0.0,0.08287003471180876,0.0,0.0,0.0,0.0,0.4493212276170525,1.128862037735009,0.5357686762662516,-0.012172384207320789,-0.004106977347402106,0.26867635520629174
8288,10.0,300.42352,-6877.0801,0.0,0.08288003069922811,0.0,0.0,0.0,0.0,0.4632907750232396,1.108442616419769,0.5187272382668925,-0.009575897287492481,-0.005480922799449965,0.26389236578664876
8289,10.0,300.56167999999997,-6814.6601,0.0,0.08289002668664724,0.0,0.0,0.0,0.0,0.4458877789906976,1.095422960584829,0.5301757687617745,-0.0014364796005194985,0.03132757134629057,0.25289659596645075
8290,10.0,300.29224,-6882.2132,0.0,0.0829000226740666,0.0,0.0,0.0,0.0,0.43159461976757263,1.124895872868579,0.5355304307702385,0.0018543583299109182,0.008596120816471072,0.26590594704787374
8291,10.0,300.09867,-6937.6553,0.0,0.08291001866148595,0.0,0.0,0.0,0.0,0.4201364937942436,1.117679708306399,0.5710577657140135,-0.0008167601846454541,-0.012655492735749887,0.25979989929525377
8292,10.0,299.37185,-6876.7884,0.0,0.08292001464890508,0.0,0.0,0.0,0.0,0.43048387474295063,1.1210903081429988,0.5387977367776965,0.003212129777237527,-0.026456494093802678,0.2721373541028657
8293,10.0,299.56178,-6820.4945,0.0,0.08293001063632466,0.0,0.0,0.0,0.0,0.42534374817815956,1.109477651396919,0.5384386206772545,-0.0006234053157628144,0.0005049992496845455,0.26071193584276475
8294,10.0,300.24625,-6905.8179,0.0,0.08294000662374379,0.0,0.0,0.0,0.0,0.4568338083634865,1.110587768206479,0.5317745963595665,-0.001760760669148548,-0.004558832176496706,0.24706352792327177
8295,10.0,300.13687000000004,-6964.56,0.0,0.08295003560122072,0.0,0.0,0.0,0.0,0.45796004598213763,1.1300917180563688,0.5290005708982916,-0.014463577757443988,-0.012495494465459289,0.2635983206076288
8296,10.0,300.41332,-6903.7859,0.0,0.08296003158864007,0.0,0.0,0.0,0.0,0.4304319152778226,1.1070212291794888,0.5611253613437615,-0.007751677473856002,-0.01202800620057179,0.27661140044941973
8297,10.0,300.25976,-6933.5058,0.0,0.0829700275760592,0.0,0.0,0.0,0.0,0.43044995112960255,1.1259502609226388,0.5512123809779265,-0.005955235405085974,0.02325064575791008,0.27058143764680875
8298,10.0,300.0814,-6887.3143,0.0,0.08298002356347856,0.0,0.0,0.0,0.0,0.42641443942632856,1.124955147999429,0.5422019835361694,0.006562217912565484,0.01441410683456159,0.2746695876927777
8299,10.0,300.16228,-6887.4807,0.0,0.08299001955089791,0.0,0.0,0.0,0.0,0.44475682975908154,1.1144475418124091,0.5344178416304345,-0.010659878425298091,0.0056940797163619146,0.26849144719554274
8300,10.0,299.90764,-6950.5852,0.0,0.08300001553831726,0.0,0.0,0.0,0.0,0.4673638681727225,1.123543386635099,0.5218971202772356,0.008528683854740562,0.006306561841409194,0.26204847351967075
8301,10.0,299.39747,-6846.07,0.0,0.08301001152573662,0.0,0.0,0.0,0.0,0.4456513168148606,1.1020921727430288,0.5332908744717114,0.0037185804468953163,0.03145918341502967,0.25784063837188975
8302,10.0,299.8687,-6787.6432,0.0,0.08302000751315575,0.0,0.0,0.0,0.0,0.4125646987119656,1.114821431099309,0.5358879256705205,-0.009272143348664302,0.016836970208679587,0.2735698566967428
8303,10.0,299.76714,-6953.7169,0.0,0.0830300035005751,0.0,0.0,0.0,0.0,0.43383253460093757,1.133112115279459,0.5468116331436065,-0.01839687177737988,-0.00979949068043443,0.27296374061942374
8304,10.0,299.86532,-7077.3621,0.0,0.08304003247805203,0.0,0.0,0.0,0.0,0.4553549698425366,1.133391772307059,0.5625946651812704,-0.007901170569759822,-0.03505663872907086,0.26806086656554773
8305,10.0,300.11484,-6922.0968,0.0,0.08305002846547116,0.0,0.0,0.0,0.0,0.4558527289541615,1.1150183055937388,0.5332735073649975,-0.0026327910629612475,-0.0027600097805917574,0.26598783792095576
8306,10.0,300.52114,-6830.8156,0.0,0.08306002445289051,0.0,0.0,0.0,0.0,0.4505133974197105,1.104949943325069,0.5209340665871895,0.011666389398882988,-0.012402539914535387,0.25647123086173973
8307,10.0,299.90987,-6975.3006,0.0,0.08307002044030987,0.0,0.0,0.0,0.0,0.4439435648313186,1.121816403164659,0.5545572411480385,0.004201990011929126,0.001382861343652789,0.27160051393488377
8308,10.0,299.54052,-7049.8705,0.0,0.08308001642772922,0.0,0.0,0.0,0.0,0.44045419493194454,1.1429647566018388,0.5595656350673285,0.013054887554167088,0.0025585005788793477,0.26945436916307575
8309,10.0,299.89884,-6942.2377,0.0,0.08309001241514857,0.0,0.0,0.0,0.0,0.4463332543971626,1.117524782366109,0.5464089067588604,0.0006937701041872784,0.021996056709341776,0.26884279166771774
8310,10.0,300.11325,-6871.3956,0.0,0.0831000084025677,0.0,0.0,0.0,0.0,0.43749946644783555,1.110139607687249,0.5410936196492825,0.003537651063988976,0.012919379538793487,0.26467380452877076
8311,10.0,299.45299,-6770.1982,0.0,0.08311000438998706,0.0,0.0,0.0,0.0,0.43532119151535664,1.1200837454936592,0.5025663146044336,-0.013827776491945287,-0.012963216791119886,0.2751304037057567
8312,10.0,300.24422000000004,-6760.4971,0.0,0.08312003336746399,0.0,0.0,0.0,0.0,0.4327516399242616,1.095669484334159,0.5266012149264935,0.0012201255755670188,-0.017314857459343382,0.2560008295028148
8313,10.0,300.31131,-6939.6199,0.0,0.08313002935488312,0.0,0.0,0.0,0.0,0.43505262957635155,1.131469940842389,0.5429486374023584,0.0077917816088389725,0.010664952781798888,0.2648173111404338
8314,10.0,300.47528,-6910.4933,0.0,0.08314002534230247,0.0,0.0,0.0,0.0,0.4325467404890396,1.124136745893659,0.5439339420646006,0.00914263326725765,0.0021676173652771776,0.2845401027469217
8315,10.0,300.82615,-6781.5721,0.0,0.0831500213297216,0.0,0.0,0.0,0.0,0.42241932600454163,1.115341735025659,0.5236675620444645,-0.010742318479934291,-0.0005365091290418286,0.28593915795499775
8316,10.0,300.12402000000003,-6925.8338,0.0,0.08316001731714118,0.0,0.0,0.0,0.0,0.4458675950487056,1.1277825210784689,0.5316304210028375,0.004815079681736366,-0.0009848637261959821,0.28967226516592676
8317,10.0,299.84404,-7009.56,0.0,0.08317001330456053,0.0,0.0,0.0,0.0,0.4840932960687885,1.1025096317842291,0.5441282226387745,0.009019218797127592,0.012504493139597386,0.25129022978791477
8318,10.0,300.17017999999996,-6791.5679,0.0,0.08318000929197966,0.0,0.0,0.0,0.0,0.4385260914491556,1.106493224552379,0.5194477806780046,0.0019231888145039581,0.0017149723024295885,0.2684315843796347
8319,10.0,299.72592000000003,-6788.7634,0.0,0.08319000527939902,0.0,0.0,0.0,0.0,0.4163400888495676,1.111207877267679,0.5360665616631505,-0.005049843143780715,-0.01058001709216639,0.2582167466765088
8320,10.0,299.72878,-6856.213000000001,0.0,0.08320003425687594,0.0,0.0,0.0,0.0,0.4176111199075086,1.120962030680339,0.5455443713760375,0.0024525733869251477,-0.006506268065893664,0.26921710651965974
8321,10.0,300.49149,-6783.732,0.0,0.08321003024429507,0.0,0.0,0.0,0.0,0.42380451995124957,1.111779654299109,0.5265009234315955,0.008216679222998102,0.021546049035179482,0.2681656467583888
8322,10.0,299.79361,-6936.3096,0.0,0.08322002623171443,0.0,0.0,0.0,0.0,0.4450845655039266,1.128513885000649,0.5348664986422135,0.018363105217797382,0.0056672865466176345,0.28099638211218375
8323,10.0,299.92822,-6978.7571,0.0,0.08323002221913378,0.0,0.0,0.0,0.0,0.47983233621826454,1.1117366924948688,0.5297988194595725,-0.01241212424723129,-0.020801412549939582,0.26108714235479474
8324,10.0,300.6518,-6857.5026,0.0,0.08324001820655291,0.0,0.0,0.0,0.0,0.4371035288387596,1.1052848224831189,0.5421211869731954,-0.007686040246953112,-0.020341777986577183,0.2726808310590027
8325,10.0,299.89912999999996,-6972.7584,0.0,0.08325001419397249,0.0,0.0,0.0,0.0,0.44538973616904454,1.119488866359949,0.5546658311612555,0.0020873075676512177,0.003040058328030397,0.25597713971547675
8326,10.0,299.83383,-7077.2169,0.0,0.08326001018139162,0.0,0.0,0.0,0.0,0.4508512454005536,1.1259070964683788,0.5745388370950685,0.0028102380065988977,0.0016846522117372283,0.25641792377397876
8327,10.0,299.8639,-6994.896,0.0,0.08327000616881097,0.0,0.0,0.0,0.0,0.4579466508158156,1.1273154127823688,0.5410116274511905,-0.015854905920257387,-0.008457446394534971,0.27137390055001875
8328,10.0,299.68157,-6770.9323,0.0,0.08328003514628768,0.0,0.0,0.0,0.0,0.4312914046751476,1.1031640900238189,0.5237388644540015,0.0046668735147845555,-0.0010074151777091371,0.2647739440361538
8329,10.0,300.50145,-6811.2264,0.0,0.08329003113370703,0.0,0.0,0.0,0.0,0.45169791718411356,1.109163037240869,0.5095818252493105,0.02059058053538208,0.024816002665148773,0.25670336645964975
8330,10.0,300.5023,-7001.1794,0.0,0.08330002712112639,0.0,0.0,0.0,0.0,0.4296932458224216,1.1445274922310689,0.5539630104943924,0.020203865528716284,0.011621921904994389,0.2541543635805828
8331,10.0,299.53435,-6982.1389,0.0,0.08331002310854574,0.0,0.0,0.0,0.0,0.43263809511805557,1.129849855257499,0.5599079312161105,0.015346641431595587,-0.01979967803732608,0.2670070357990428
8332,10.0,300.08352,-6870.1663,0.0,0.08332001909596487,0.0,0.0,0.0,0.0,0.4078250085866946,1.127868951311999,0.5526649965862884,0.0005422729110431694,-0.009311797499277862,0.2809828349583467
8333,10.0,299.74901,-6859.647,0.0,0.08333001508338445,0.0,0.0,0.0,0.0,0.43813811798586555,1.1170899967481989,0.5299332777478425,0.0007986466875102912,0.011440024260292489,0.28647689991556874
8334,10.0,299.58804,-6817.3719,0.0,0.08334001107080358,0.0,0.0,0.0,0.0,0.4447444579753606,1.114763574518599,0.5128027649321925,-0.006104890013055734,0.003084451348036647,0.2935720317533037
8335,10.0,298.79603,-6850.148,0.0,0.08335000705822293,0.0,0.0,0.0,0.0,0.46429952629279553,1.1138589448293188,0.5041154321523195,-0.012223669861132288,-0.016000712609647385,0.2748279890809108
8336,10.0,299.20484,-6877.2607,0.0,0.08336000304564228,0.0,0.0,0.0,0.0,0.4339449952295366,1.120202295755359,0.5363682467479245,-0.01120206551405779,-0.008897801544269642,0.26627522604681875
8337,10.0,299.86325,-6737.7081,0.0,0.08337003202311899,0.0,0.0,0.0,0.0,0.41962548137131056,1.097199188010129,0.5312702916522954,0.022871526073993877,0.004483970624658446,0.24456489370667578
8338,10.0,300.25601,-6892.7948,0.0,0.08338002801053856,0.0,0.0,0.0,0.0,0.41000956566979363,1.1327590989446188,0.5524688414994295,0.010308068871327191,0.01052573120480879,0.2578990015776497
8339,10.0,299.92206,-7185.7249,0.0,0.0833900239979577,0.0,0.0,0.0,0.0,0.47885931214723454,1.134710922612249,0.5707107376872644,0.005316586197531204,-0.011772521267357389,0.26134809478554877
8340,10.0,300.28779,-7205.7398,0.0,0.08340001998537683,0.0,0.0,0.0,0.0,0.48765534639783553,1.1492734543744592,0.5534361711048975,0.0032158965344842774,0.014185038344704286,0.2763107691447497
8341,10.0,299.88632,-6906.8988,0.0,0.08341001597279618,0.0,0.0,0.0,0.0,0.46041588051450955,1.127092599085379,0.5120162498070695,0.00025970950725383275,0.026159995836290573,0.26848000760191376
8342,10.0,300.36805,-6765.6344,0.0,0.08342001196021553,0.0,0.0,0.0,0.0,0.41473287154094757,1.1101363652869292,0.5317147234111574,-0.007924733396860293,0.008805507429760922,0.26741996561229575
8343,10.0,299.94892000000004,-6772.4863,0.0,0.08343000794763489,0.0,0.0,0.0,0.0,0.41561862438086467,1.1092108626455888,0.5338371885281284,-0.02065552176079128,-0.025644127918878375,0.2609086076871748
8344,10.0,299.67447999999996,-6734.0097,0.0,0.08344000393505424,0.0,0.0,0.0,0.0,0.40516252169642764,1.107205539372679,0.5346026888461775,0.003167124348870837,-0.012562301084302589,0.2695895063289127
8345,10.0,299.76869,-6823.3297,0.0,0.08345003291253095,0.0,0.0,0.0,0.0,0.43623158659770556,1.112953403214949,0.5249368199147305,0.012111695592581288,0.008761285649021571,0.26499221837269576
8346,10.0,300.10598999999996,-6864.2838,0.0,0.08346002889995052,0.0,0.0,0.0,0.0,0.45528614989574456,1.113355562179639,0.5179291315606255,-0.0013764120067662887,0.009679029125070801,0.2697647985962127
8347,10.0,299.95564,-7009.0106,0.0,0.08347002488736965,0.0,0.0,0.0,0.0,0.46242710090300154,1.1297461997722689,0.5383908763325425,-0.013429902561928189,-0.015203867399754885,0.27049977982124973
8348,10.0,300.20247,-7210.0926,0.0,0.08348002087478879,0.0,0.0,0.0,0.0,0.4666597404132305,1.1565079587634488,0.5685204557411004,0.0013405572400526989,0.01083553647588419,0.27744002624869873
8349,10.0,299.95839,-7203.5168,0.0,0.08349001686220814,0.0,0.0,0.0,0.0,0.46073902623640156,1.1475441404287887,0.5814060484553094,0.012723829362244187,0.015954302715317087,0.24255685492349777
8350,10.0,300.51237000000003,-6841.7645,0.0,0.08350001284962749,0.0,0.0,0.0,0.0,0.4115176871186336,1.120626138272189,0.5475817944121154,0.0019005676007214183,0.0061677809268875835,0.27083781018711073
8351,10.0,300.09317999999996,-6655.6754,0.0,0.08351000883704707,0.0,0.0,0.0,0.0,0.4162025604134946,1.094275657496599,0.5126809621376716,-0.015445927782394384,-0.01739998060024438,0.25764526348760775
8352,10.0,300.42807,-6748.8978,0.0,0.0835200048244662,0.0,0.0,0.0,0.0,0.43196825574194764,1.110093504807699,0.5094346608047865,-0.01037160471884769,-0.0006004973825994773,0.2801704312931687
8353,10.0,299.77842000000004,-6819.7783,0.0,0.0835300338019429,0.0,0.0,0.0,0.0,0.44166094540354156,1.109087448783409,0.5222938988838945,0.011584473194548488,0.01022634011826119,0.26042382830933075
8354,10.0,299.6481,-6770.6392,0.0,0.08354002978936226,0.0,0.0,0.0,0.0,0.4102063793692176,1.121473215355789,0.5264256186841635,0.0006570538418411654,0.006493586531617093,0.2927109515533217
8355,10.0,299.8221,-6888.0864,0.0,0.08355002577678161,0.0,0.0,0.0,0.0,0.4283677323066036,1.118877167274579,0.5465613299714035,-0.013699815163316486,-0.02353952234816998,0.25523216784445374
8356,10.0,299.77868,-7014.2586,0.0,0.08356002176420074,0.0,0.0,0.0,0.0,0.4449234587380266,1.1247819835573387,0.5624540260673905,-0.0007644884966316403,-0.0022098744540726277,0.2831572899379487
8357,10.0,299.31514,-7122.8186,0.0,0.0835700177516201,0.0,0.0,0.0,0.0,0.4805003416116916,1.138048264466619,0.5466103915412455,0.013163132049099987,0.002738562214400047,0.25120022278153176
8358,10.0,299.9429,-7093.694,0.0,0.08358001373903945,0.0,0.0,0.0,0.0,0.47672356332145255,1.126878094039209,0.5527042093651585,-0.0013824662774387987,0.016052901069297985,0.26589256201405276
8359,10.0,300.04465,-6974.4291,0.0,0.0835900097264588,0.0,0.0,0.0,0.0,0.4600521541261125,1.123507517581559,0.5364926535952025,-0.016943993737241984,-0.014053718091993987,0.2559055637284128
8360,10.0,300.32597000000004,-6794.6577,0.0,0.08360000571387816,0.0,0.0,0.0,0.0,0.4199138422172696,1.114854361727559,0.5306380641198994,-0.0026032778233235176,0.0043678104172943264,0.26964011817140776
8361,10.0,300.60578,-6810.1759,0.0,0.08361003469135486,0.0,0.0,0.0,0.0,0.42835629271297454,1.098861526124189,0.5429056350681145,0.008222919121088931,0.003346603264259027,0.26061340740304073
8362,10.0,299.89153999999996,-6864.4983,0.0,0.08362003067877422,0.0,0.0,0.0,0.0,0.42432232114985263,1.122844244066099,0.5394694810639925,0.0038968853093926366,0.008368226886129692,0.27196478747833475
8363,10.0,299.59202999999997,-6767.4368,0.0,0.08363002666619357,0.0,0.0,0.0,0.0,0.43566582827186956,1.110550480602799,0.5109155460909385,0.005767848173992294,-0.023088527768410277,0.2717978139943557
8364,10.0,299.77361,-6834.2149,0.0,0.0836400226536127,0.0,0.0,0.0,0.0,0.4360062093779626,1.1177368556120388,0.5236876142639435,-0.01096668244957729,-0.0028873087476301872,0.26668673730993175
8365,10.0,300.35634,-7022.2793,0.0,0.08365001864103205,0.0,0.0,0.0,0.0,0.4626003058750956,1.138264694687979,0.5337325501903015,0.015962156416842184,0.009283314836316841,0.2773546801927757
8366,10.0,300.84598,-7012.2156,0.0,0.0836600146284514,0.0,0.0,0.0,0.0,0.43676699808304653,1.1337583661932389,0.5610131134976835,-0.011480159096753489,0.014662124114538986,0.2623787626547677
8367,10.0,300.51397000000003,-6876.7945,0.0,0.08367001061587076,0.0,0.0,0.0,0.0,0.43483921884028964,1.1189977440364791,0.5365367907695585,-0.012852226388415988,-0.006489430281031904,0.27507448243273774
8368,10.0,300.29481,-6929.4697,0.0,0.08368000660329011,0.0,0.0,0.0,0.0,0.43689201288038454,1.117819334170179,0.5516743622285205,-0.01869122093142988,0.006451020604191164,0.2649372596872717
8369,10.0,299.73582000000005,-6882.4429,0.0,0.08369003558076682,0.0,0.0,0.0,0.0,0.4597923568004726,1.106894674241999,0.5254037660908145,0.009057246883980671,0.010992651036390189,0.25768684727171176
8370,10.0,300.14423999999997,-6865.4908,0.0,0.08370003156818617,0.0,0.0,0.0,0.0,0.4326585323725726,1.1230951247908592,0.5311840640687855,-0.0008631987539535844,0.01060956042533209,0.25933291258916574
8371,10.0,299.69462999999996,-6987.8045,0.0,0.08371002755560553,0.0,0.0,0.0,0.0,0.45402036747332153,1.1276553581909188,0.5424423264598895,-2.8281125489629775e-05,-0.03014308907214127,0.26496301650481374
8372,10.0,299.72184,-6921.8321,0.0,0.08372002354302466,0.0,0.0,0.0,0.0,0.4304592122355166,1.1266874003703888,0.5469175279115576,0.00896783161565607,-0.01837436343965848,0.2767319164163138
8373,10.0,299.68192,-6798.772,0.0,0.08373001953044401,0.0,0.0,0.0,0.0,0.42375957217681365,1.119647237350579,0.5232501334007675,0.019062938823365582,0.006265472320703974,0.28625581887624973
8374,10.0,300.16359,-6908.446,0.0,0.08374001551786336,0.0,0.0,0.0,0.0,0.44544540412953865,1.1118273783788188,0.5427222570650164,0.017860010331145783,0.013787611257981286,0.27203947414320573
8375,10.0,300.28072000000003,-6996.7377,0.0,0.08375001150528272,0.0,0.0,0.0,0.0,0.47425973424579154,1.1234183515727592,0.5291554867060805,-0.005781494828989114,-0.022686453916728678,0.26787784319998476
8376,10.0,300.25199,-6973.453,0.0,0.08376000749270207,0.0,0.0,0.0,0.0,0.44477683131605555,1.1317708761220888,0.5432078470429405,-0.0071638821742451226,-0.006770584993604713,0.2691516100331957
8377,10.0,300.08173,-6828.3578,0.0,0.0837700034801212,0.0,0.0,0.0,0.0,0.43892916233893564,1.0985524848436887,0.5381686503206105,0.008196706543651951,0.006787335334982843,0.2646511077265307
8378,10.0,299.57788999999997,-6870.2829,0.0,0.08378003245759813,0.0,0.0,0.0,0.0,0.4271940745832726,1.1145750086749888,0.5466253471127215,0.003592415813343837,0.014108862202186287,0.25730674676169873
8379,10.0,299.80849,-6935.094,0.0,0.08379002844501726,0.0,0.0,0.0,0.0,0.4356360184539275,1.120042810189619,0.5524166084567744,0.0002831954185392117,-0.004204324844134556,0.26965498255037473
8380,10.0,299.30746,-6975.214,0.0,0.08380002443243662,0.0,0.0,0.0,0.0,0.45727953708247654,1.123244781830629,0.5397665963908155,-0.004751243000261175,0.004281723270248186,0.27236595345792675
8381,10.0,300.06516,-6992.8027,0.0,0.08381002041985619,0.0,0.0,0.0,0.0,0.4644166985343595,1.1371918654820987,0.5240287958376155,0.020528216004977177,0.02349463232898968,0.27923258726561073
8382,10.0,299.89006,-6797.7809,0.0,0.08382001640727532,0.0,0.0,0.0,0.0,0.42960567061627863,1.1060089923295888,0.5307409596675545,-0.004479793602446206,-0.0006378806269564163,0.27804735822613774
8383,10.0,300.58821,-6843.151,0.0,0.08383001239469468,0.0,0.0,0.0,0.0,0.41885856250312165,1.132586947752629,0.5287015303962785,-0.00931145502074406,-0.017837504019924583,0.2747097833242447
8384,10.0,300.11994,-7083.5965,0.0,0.0838400083821138,0.0,0.0,0.0,0.0,0.4456693526666406,1.139085832569019,0.5684812530947315,-0.018357696488763585,-0.023255583325647377,0.26981547123371374
8385,10.0,300.45543,-7007.8853,0.0,0.08385000436953316,0.0,0.0,0.0,0.0,0.44901228766156254,1.1265143372533089,0.5546954889916825,0.0006922503404947893,-0.003039749590724927,0.2601419826615147
8386,10.0,299.62517,-6787.8243,0.0,0.08386003334701009,0.0,0.0,0.0,0.0,0.4392172496073675,1.1058711903159888,0.5182406350388685,0.00040918034205295555,0.0019638848901953484,0.27104584056514175
8387,10.0,299.36632000000003,-6913.4942,0.0,0.08387002933442922,0.0,0.0,0.0,0.0,0.45915623838769254,1.108003980451479,0.5343693474806486,-0.0068378727035954935,-0.0025614141795418975,0.25761625413724476
8388,10.0,299.32684,-7033.7797,0.0,0.08388002532184857,0.0,0.0,0.0,0.0,0.46537486835892355,1.1241872057486388,0.5485313212133265,0.008072223398641424,0.01382532746645359,0.26264545008108775
8389,10.0,299.26939,-6979.5284,0.0,0.08389002130926815,0.0,0.0,0.0,0.0,0.44413870666807753,1.134585583574879,0.5428780847978955,0.01061256977812909,0.01955709481763498,0.26268015389701277
8390,10.0,299.56425,-6857.9158,0.0,0.08390001729668728,0.0,0.0,0.0,0.0,0.4315435013000276,1.1113630058579889,0.5417286032219505,0.014568620382060884,0.01206110198858809,0.2734839938832687
8391,10.0,300.07566,-6841.6478,0.0,0.08391001328410663,0.0,0.0,0.0,0.0,0.43353342317141763,1.112347479655149,0.5338091721628635,-0.014657410475073789,-0.015331344394835883,0.2709679621624558
8392,10.0,300.05984,-6894.3463,0.0,0.08392000927152576,0.0,0.0,0.0,0.0,0.4488745464429686,1.127792754904479,0.5190418321579405,-0.007737412533648163,-0.007093391783338263,0.28907160037414575
8393,10.0,299.80483,-6971.9436,0.0,0.08393000525894512,0.0,0.0,0.0,0.0,0.45484362304707054,1.127391203889849,0.5370619481638874,0.0017965327546539784,0.01011253966905496,0.27710064826020475
8394,10.0,299.94082000000003,-6867.2317,0.0,0.08394003423642205,0.0,0.0,0.0,0.0,0.43297316679362463,1.1343032920970189,0.5201905031338055,-0.015286342918144586,-0.00038052903374529166,0.27268492458940674
8395,10.0,300.09976,-6697.9818,0.0,0.08395003022384118,0.0,0.0,0.0,0.0,0.4117899778180066,1.098428564356459,0.5258007270824915,-0.004522324572743686,-0.01046756659606839,0.26539259401720977
8396,10.0,299.89052999999996,-6906.852,0.0,0.08396002621126053,0.0,0.0,0.0,0.0,0.4366793114193926,1.110703380042889,0.5521278625757775,-0.004698689973224595,-0.01099051003892889,0.25497037441611675
8397,10.0,300.09743,-7141.6473,0.0,0.0839700221986801,0.0,0.0,0.0,0.0,0.47266712800361355,1.135972216336729,0.5622431079265745,0.030105226955654568,0.00995432421231531,0.25753359319408675
8398,10.0,299.71596,-7087.5877,0.0,0.08398001818609924,0.0,0.0,0.0,0.0,0.4732313360567965,1.1210063097097092,0.5602120481011245,0.014790626518721185,-0.017343753325695183,0.25286357414569177
8399,10.0,299.88047,-6934.87,0.0,0.08399001417351859,0.0,0.0,0.0,0.0,0.4470625512891385,1.1256614846441388,0.5353033107603234,0.0023600234267661777,-0.007950947088872383,0.27518847306898775
8400,10.0,300.12118,-6956.9161,0.0,0.08400001016093772,0.0,0.0,0.0,0.0,0.4500531386942866,1.126028483830359,0.5386471880778385,-0.006877931951599034,-0.015272547518033088,0.26912835594340073
8401,10.0,299.91955,-7032.7315,0.0,0.08401000614835707,0.0,0.0,0.0,0.0,0.44267197648582257,1.138868085122529,0.5562347070860915,-0.002098331931389238,0.021696862193313578,0.26979274403397074
8402,10.0,299.30435,-6943.323,0.0,0.084020035125834,0.0,0.0,0.0,0.0,0.42624067716667957,1.141441740376529,0.5429143692839765,-0.004725995543544446,0.013936277339153485,0.2670251932408348
8403,10.0,299.23679,-6802.4374,0.0,0.08403003111325313,0.0,0.0,0.0,0.0,0.43127339922087055,1.108202070846029,0.5282957034662265,-0.014744698931438484,-0.014034424796839884,0.26673070223177076
8404,10.0,299.41757,-6834.4534,0.0,0.08404002710067249,0.0,0.0,0.0,0.0,0.43186240150400057,1.1156723585332888,0.5299684577913145,0.008212329340318804,-0.026652624862659274,0.26162345563272477
8405,10.0,300.36836,-6944.6113,0.0,0.08405002308809184,0.0,0.0,0.0,0.0,0.4560307164667276,1.1239742205776189,0.5309835317414945,-0.0015967802246399385,0.006712748779221724,0.27170516240521175
8406,10.0,300.5799,-7128.7493,0.0,0.0840600190755112,0.0,0.0,0.0,0.0,0.4539714173609906,1.145401217792299,0.5675891674416894,0.01089505985300869,0.004931965984122145,0.25806064536610274
8407,10.0,299.85124,-7078.4545,0.0,0.08407001506293055,0.0,0.0,0.0,0.0,0.4613673122259086,1.1356404782539888,0.5546655575837285,-0.025723543421966075,-0.005519152016447895,0.25852036706897374
8408,10.0,300.32215,-6897.6441,0.0,0.08408001105034968,0.0,0.0,0.0,0.0,0.4277459919127426,1.122053503688059,0.5469120158310135,-0.015629124413724483,-0.0036481279515421967,0.26922457417289675
8409,10.0,299.87535,-6919.6418,0.0,0.08409000703776903,0.0,0.0,0.0,0.0,0.4643386782766596,1.1192187338832889,0.5198409521143075,0.012748819149460487,0.020120940127282178,0.26425654813759075
8410,10.0,300.08209,-7029.7592,0.0,0.08410000302518839,0.0,0.0,0.0,0.0,0.44660368071635154,1.144101319239009,0.5461662840224155,0.018594984463432083,-0.0016262428017726688,0.27816223038997473
8411,10.0,300.05278,-6898.6419,0.0,0.08411003200266531,0.0,0.0,0.0,0.0,0.43576917978206964,1.127471453297769,0.5337741846369105,0.008590462929237682,-0.02146104849754058,0.2816982199264497
8412,10.0,299.20999,-6798.1699,0.0,0.08412002799008444,0.0,0.0,0.0,0.0,0.42210702205871964,1.124259349155759,0.5201075280831166,0.0035938968810150062,-0.037089767611225066,0.28701040649072174
8413,10.0,299.14243,-6819.4484,0.0,0.0841300239775038,0.0,0.0,0.0,0.0,0.4211060120199276,1.1184394432313791,0.5333966375171495,0.014994866328128085,0.014028120354717686,0.26460216774670076
8414,10.0,299.50805,-6907.9858,0.0,0.08414001996492315,0.0,0.0,0.0,0.0,0.44392399897188756,1.115918679632599,0.5400124716600815,0.003200230472038157,0.0034661014214275765,0.25945549558626374
8415,10.0,299.2691,-6987.3212,0.0,0.0841500159523425,0.0,0.0,0.0,0.0,0.4527166084371506,1.1272687019527592,0.5439858508672234,-0.011441308048169188,-0.0023629242604774675,0.25057961722778277
8416,10.0,300.14399,-6919.7519,0.0,0.08416001193976164,0.0,0.0,0.0,0.0,0.45356797156867357,1.117561360694719,0.5323024388666605,-0.014253128751424286,-0.02269191026851718,0.2668534169513817
8417,10.0,300.01459,-6950.9672,0.0,0.08417000792718099,0.0,0.0,0.0,0.0,0.44971642555355557,1.126718000523409,0.5364860674695524,-0.006567366236323584,0.015325108853720485,0.26927609794048174
8418,10.0,299.35238,-6934.3812,0.0,0.08418000391460034,0.0,0.0,0.0,0.0,0.4644782737429366,1.1076061784622189,0.5357942912287795,0.015306101295094585,0.013159334387725189,0.27546040913082576
8419,10.0,299.6486,-7019.8359,0.0,0.08419003289207727,0.0,0.0,0.0,0.0,0.44196454553100456,1.135720423686879,0.5561698185496874,-0.005984624318936434,0.01013381721187989,0.26109102310267773
8420,10.0,299.7362,-6941.809,0.0,0.0842000288794964,0.0,0.0,0.0,0.0,0.44915641235578657,1.117224049736429,0.5437560964070485,0.002092585182122078,-0.019754286459346283,0.2662343920677887
8421,10.0,300.06487000000004,-6813.6496,0.0,0.08421002486691576,0.0,0.0,0.0,0.0,0.4324079150928386,1.1012152047814792,0.5375562216951685,0.007652923585984753,0.013505849709923587,0.2536213129679748
8422,10.0,301.05792,-6844.5597,0.0,0.08422002085433489,0.0,0.0,0.0,0.0,0.43513400369188254,1.123845031189869,0.5215962052625376,0.01121642022822449,-0.004497602891503845,0.28608903790978973
8423,10.0,300.37564,-6933.6829,0.0,0.08423001684175446,0.0,0.0,0.0,0.0,0.4387782083390376,1.117396099603409,0.5514921190655345,-0.005534135553626655,-0.013129233767004487,0.26747728517045277
8424,10.0,300.05298,-6933.8771,0.0,0.08424001282917382,0.0,0.0,0.0,0.0,0.43302908806664353,1.1450979520373687,0.5295984897823015,-0.015294321249431985,-0.031203790687574368,0.2851884105584047
8425,10.0,300.25128,-6860.7286,0.0,0.08425000881659295,0.0,0.0,0.0,0.0,0.4338682719319646,1.1106283995354889,0.5409934902744005,-0.009203387743253652,0.016600937650884984,0.2617955460297087
8426,10.0,299.83611,-6839.7957,0.0,0.0842600048040123,0.0,0.0,0.0,0.0,0.4499761418191876,1.093045267900169,0.5361057136470145,-0.0072664039339382334,0.01091688120716229,0.25795473033314975
8427,10.0,299.25795,-6876.2302,0.0,0.08427003378148923,0.0,0.0,0.0,0.0,0.43505325779141363,1.1238291231632989,0.5313199003771915,-0.007658256118611034,0.009373605856702872,0.26097643464886877
8428,10.0,299.3906,-7065.5233,0.0,0.08428002976890836,0.0,0.0,0.0,0.0,0.4618520916037525,1.143381911668009,0.5425086132814315,-0.007550299386706533,-0.009241382696828462,0.2795544866898797
8429,10.0,299.79854,-7114.7042,0.0,0.08429002575632771,0.0,0.0,0.0,0.0,0.46687930157739954,1.134191226635959,0.5616219248202684,0.008503260092506432,0.01988695332143948,0.27664428041516476
8430,10.0,300.18604,-6920.1984,0.0,0.08430002174374684,0.0,0.0,0.0,0.0,0.44535391777800953,1.129058506929399,0.5291551219360445,0.004868871710995225,0.007837440279545133,0.2852723380641877
8431,10.0,300.2104,-6817.5243,0.0,0.08431001773116642,0.0,0.0,0.0,0.0,0.42109590991643064,1.112233792993929,0.5390274507078675,-0.01132471437241229,-0.005094621806775025,0.2788381188691797
8432,10.0,299.99174,-6906.0364,0.0,0.08432001371858577,0.0,0.0,0.0,0.0,0.4421790303121726,1.118993893686099,0.5380896370778124,-0.014283612380682785,-0.016639674202207983,0.2596518533231428
8433,10.0,299.85949,-6903.8899,0.0,0.0843300097060049,0.0,0.0,0.0,0.0,0.4385668038381736,1.122201235552639,0.5378420798133805,-0.014579441893128885,0.016452879519772784,0.26349530346996175
8434,10.0,300.3818,-6748.1052,0.0,0.08434000569342426,0.0,0.0,0.0,0.0,0.43659523192609456,1.090795346053119,0.5238648722364375,0.009770553270828531,0.011426142733922489,0.24915451135963576
8435,10.0,299.76356,-6802.2474,0.0,0.08435003467090119,0.0,0.0,0.0,0.0,0.4374196426049575,1.117041158093379,0.5132525263865805,-0.011260286864803789,-0.008314702962847292,0.2713691180095467
8436,10.0,300.33956,-6965.0498,0.0,0.08436003065832032,0.0,0.0,0.0,0.0,0.4415586375409446,1.1230270343841389,0.5526155398489074,0.008431699709493973,-0.02009080910905848,0.26741560863686575
8437,10.0,300.25331,-7074.481,0.0,0.08437002664573967,0.0,0.0,0.0,0.0,0.4692427074356495,1.129253760223669,0.5519691166826104,-0.0003238676828532517,0.013526645654975987,0.27688298187372273
8438,10.0,300.68709,-7138.5781,0.0,0.0843800226331588,0.0,0.0,0.0,0.0,0.48212826975235556,1.131456971241109,0.5563642105813725,0.005565579845304964,0.002157242494853258,0.26838578547511477
8439,10.0,300.45524,-6987.4424,0.0,0.08439001862057816,0.0,0.0,0.0,0.0,0.45683072808318254,1.119961952831639,0.5472153221159475,-0.014778750214299087,-0.002005921090468998,0.26222441426703474
8440,10.0,300.45009,-6803.9802,0.0,0.08440001460799773,0.0,0.0,0.0,0.0,0.41903118992265864,1.125728764450779,0.5234801715709705,-0.014101547549714386,-0.004449673020698535,0.28296065862354275
8441,10.0,299.88049,-6858.5292,0.0,0.08441001059541686,0.0,0.0,0.0,0.0,0.43906995344033056,1.113699965888629,0.5320517202619165,0.007099063653423033,0.027128539315378376,0.27795757413477673
8442,10.0,300.36156,-7043.1565,0.0,0.08442000658283622,0.0,0.0,0.0,0.0,0.4439931634237136,1.128763043200239,0.5681875118907415,0.0027671482288712675,0.00940873209659456,0.2711738748477777
8443,10.0,300.21717,-6777.9087,0.0,0.08443003556031292,0.0,0.0,0.0,0.0,0.43606010415078156,1.109404697389719,0.5148501786142565,-0.0007537267065245343,-0.02124812006852618,0.26881644716511777
8444,10.0,299.94421,-6690.7266,0.0,0.08444003154773227,0.0,0.0,0.0,0.0,0.4122684345152266,1.1069055160180687,0.5146398380259976,0.006399201980827064,-0.017754237153206783,0.26985883833799373
8445,10.0,299.8902,-7012.4364,0.0,0.08445002753515163,0.0,0.0,0.0,0.0,0.4554519784071106,1.132075053802109,0.5440785429863715,0.008935664775331451,0.02232706423875968,0.27157649990751376
8446,10.0,299.7496,-7184.380999999999,0.0,0.08446002352257076,0.0,0.0,0.0,0.0,0.4841727956716345,1.140800150413209,0.5588994535240814,0.009512417270052491,0.015618918958717283,0.25746748875756276
8447,10.0,299.11455,-7128.661999999999,0.0,0.08447001950999034,0.0,0.0,0.0,0.0,0.4748585853198936,1.143155450270659,0.5489212502493095,-0.018916251619638683,-0.002061188715848488,0.27889283437457973
8448,10.0,300.03562,-6964.2551,0.0,0.08448001549740947,0.0,0.0,0.0,0.0,0.43503261788687664,1.122897844996389,0.5590292103318875,-0.027821144394733176,0.0026269305257078574,0.26508990581483677
8449,10.0,300.51968,-6860.3708,0.0,0.08449001148482882,0.0,0.0,0.0,0.0,0.43310572017170657,1.1187045094575387,0.5335711901118765,0.0018483408402170385,0.02023140060018378,0.28767952645925876
8450,10.0,300.31217000000004,-6938.9222,0.0,0.08450000747224817,0.0,0.0,0.0,0.0,0.4448939630276156,1.1100987737082189,0.5542663978393345,0.001932490146446928,0.01987877335338218,0.2574046064563567
8451,10.0,300.52851,-7004.7846,0.0,0.0845100034596673,0.0,0.0,0.0,0.0,0.4512583591582326,1.1304667219183788,0.5475545683819285,-0.0013157768916320688,-0.008932758470069621,0.2798241530714937
8452,10.0,300.45286,-6848.4122,0.0,0.08452003243714423,0.0,0.0,0.0,0.0,0.44224150731333856,1.1089155002414388,0.5305892963925866,0.0005241622712732886,-0.02101276537504848,0.24809979906554377
8453,10.0,300.00092,-6689.7194,0.0,0.08453002842456359,0.0,0.0,0.0,0.0,0.40289719844785765,1.1136854764121988,0.5169249500490205,0.012895082814645588,0.013979128699132589,0.28463266314355673
8454,10.0,300.48751,-6892.6,0.0,0.08454002441198294,0.0,0.0,0.0,0.0,0.4404701333560176,1.118535094040819,0.5361730643811615,0.0033572580956855768,0.007046938521903683,0.2660350655081168
8455,10.0,300.33939,-7248.8469,0.0,0.08455002039940229,0.0,0.0,0.0,0.0,0.4823168153309636,1.144160797019879,0.5769908010120585,0.0015133328980793284,-0.025173867401717273,0.26600367502001876
8456,10.0,299.34623999999997,-7204.3857,0.0,0.08456001638682142,0.0,0.0,0.0,0.0,0.46083136371801453,1.1733209189977591,0.5558011069707984,-0.020047296096764082,-0.01904905425724528,0.27551834677154374
8457,10.0,299.32957000000005,-6954.9674,0.0,0.08457001237424078,0.0,0.0,0.0,0.0,0.44473071830400457,1.138813876242179,0.5305918903128425,0.016998340419605584,0.005510590965027985,0.27344983722239774
8458,10.0,299.121,-6991.1551,0.0,0.08458000836166013,0.0,0.0,0.0,0.0,0.4642807305034406,1.1311733625381188,0.5296824983480924,0.007104038812739044,0.017623693050073084,0.27229344528077076
8459,10.0,300.04665,-7002.5116,0.0,0.08459000434907926,0.0,0.0,0.0,0.0,0.4542968530281086,1.128701336269149,0.5455905046530906,0.005892336283928314,-0.005234456602725646,0.26780496012029176
8460,10.0,300.27269,-6946.5595,0.0,0.08460003332655597,0.0,0.0,0.0,0.0,0.44248493051736254,1.1152443616910488,0.5538513604658735,0.0004742760678374036,-0.0009281694345431911,0.2804891693771257
8461,10.0,299.89047999999997,-6941.1177,0.0,0.08461002931397554,0.0,0.0,0.0,0.0,0.43277002028107564,1.129890993211559,0.5472654577308955,0.007075285105376273,0.014267352756328087,0.26006916037682776
8462,10.0,299.98622,-6782.1661,0.0,0.0846200253013949,0.0,0.0,0.0,0.0,0.41671888226695164,1.108128407563759,0.5367618336167685,0.007486081013918674,0.00998158215988046,0.2702266886542977
8463,10.0,300.32937999999996,-6790.1784,0.0,0.08463002128881425,0.0,0.0,0.0,0.0,0.4375923510845026,1.1065850250114388,0.5198673371469116,-0.006597374853935203,-0.023067125899798077,0.2654848909688187
8464,10.0,299.55469,-7139.8327,0.0,0.08464001727623338,0.0,0.0,0.0,0.0,0.4737040172284465,1.137841561446219,0.5587852399728095,-0.018235358698189784,-0.02066550227427628,0.2620719505244878
8465,10.0,300.30006000000003,-7210.6143,0.0,0.08465001326365273,0.0,0.0,0.0,0.0,0.4667427559939235,1.1615757291385989,0.5635281724984005,-0.0025429641111210173,-0.0028804123647995675,0.27122868154568675
8466,10.0,300.36505,-6922.9789,0.0,0.08466000925107209,0.0,0.0,0.0,0.0,0.4519482304888176,1.122797634561499,0.5296668537665485,-0.008959003775484831,0.016121307610049183,0.2631821078640518
8467,10.0,300.49987000000004,-6931.2213,0.0,0.08467000523849144,0.0,0.0,0.0,0.0,0.4369647541050636,1.1388404233947989,0.5311129744417694,0.005594344495768814,0.0024334743318152174,0.27640019859857573
8468,10.0,300.36806,-7064.1619,0.0,0.08468003421596793,0.0,0.0,0.0,0.0,0.45527563235970653,1.129776597275269,0.5622766465048845,0.005769775983632555,0.0061105723196165345,0.25499011252806475
8469,10.0,299.50359,-6970.0076,0.0,0.0846900302033875,0.0,0.0,0.0,0.0,0.4469687648598826,1.132446409963759,0.5392930438240795,0.018871801351001784,0.016885812916499984,0.27720261161776777
8470,10.0,299.6144,-6836.7457,0.0,0.08470002619080685,0.0,0.0,0.0,0.0,0.4259978720452166,1.113619615155699,0.5385825021914544,0.014737415689719686,0.019913911853600082,0.25870595395728974
8471,10.0,300.10319,-6843.103,0.0,0.08471002217822621,0.0,0.0,0.0,0.0,0.45140522976022757,1.091234995271509,0.5374921640238465,-0.009999109461435271,-0.016129811818138485,0.27036184608513675
8472,10.0,300.1706,-6891.8983,0.0,0.08472001816564534,0.0,0.0,0.0,0.0,0.4289533604669006,1.123429497323859,0.5425821549736896,-0.016445173752762283,-0.00036432407423348667,0.2668552813315657
8473,10.0,299.98951,-7034.2984,0.0,0.08473001415306447,0.0,0.0,0.0,0.0,0.4408305464165876,1.148285940826999,0.5491346103228665,-0.009009483388841782,0.0016858730767827185,0.28185376394930073
8474,10.0,300.41181,-7148.7722,0.0,0.08474001014048405,0.0,0.0,0.0,0.0,0.44557284059461555,1.1612400393804687,0.5662354045130834,0.006805467952147395,0.01077185370709919,0.27325342882301373
8475,10.0,299.96646,-6965.5918,0.0,0.0847500061279034,0.0,0.0,0.0,0.0,0.4625152029991966,1.1323372829279887,0.5225134600480635,0.0030786577866148673,-0.019400540584434283,0.27306483258190073
8476,10.0,300.1723,-6788.3418,0.0,0.0847600351053801,0.0,0.0,0.0,0.0,0.41913998258589563,1.1159903164146687,0.5283560627746835,0.005039974898406795,-0.0012648405051300386,0.27754463418902275
8477,10.0,300.38109,-6927.3775,0.0,0.08477003109279946,0.0,0.0,0.0,0.0,0.46495953714293353,1.116337151923899,0.5244531145819925,0.014732702050254487,0.005020966022555765,0.25971717755708973
8478,10.0,300.69813,-7134.9844,0.0,0.08478002708021881,0.0,0.0,0.0,0.0,0.46318832530562853,1.139401358650159,0.5662674232162435,0.01072601224607499,0.014759646396913685,0.25308015635456677
8479,10.0,300.43426,-6974.4569,0.0,0.08479002306763816,0.0,0.0,0.0,0.0,0.4564372222743465,1.118933098680099,0.5446904041917575,-0.003548884359897617,-0.004033746520274786,0.2716568911704478
8480,10.0,299.97042000000005,-6879.5868,0.0,0.0848000190550573,0.0,0.0,0.0,0.0,0.4348809343469066,1.1112310806949688,0.5451106294057304,-0.019650381714591682,-0.003386325707929327,0.26858814165258577
8481,10.0,300.00197000000003,-6885.2125,0.0,0.08481001504247643,0.0,0.0,0.0,0.0,0.44309890941545754,1.118402459602729,0.5314313072256864,-0.001825193648307588,0.004758284277856095,0.28330824393784676
8482,10.0,300.41154,-6896.5172,0.0,0.08482001102989578,0.0,0.0,0.0,0.0,0.4369455226181656,1.120015351111909,0.5394081794329424,-0.014527155148218587,0.003171061433459397,0.2743558955943187
8483,10.0,300.01583999999997,-6974.0003,0.0,0.08483000701731536,0.0,0.0,0.0,0.0,0.45588217400206754,1.129345662007739,0.5346940941376985,0.007335839531490994,-0.016549131186522084,0.28439060782716774
8484,10.0,299.85128,-6909.0268,0.0,0.08484003599479206,0.0,0.0,0.0,0.0,0.4443938633082596,1.1225651949885591,0.5332125806364845,-0.01165297498080909,-0.003963180540910466,0.2615557806585458
8485,10.0,299.54702000000003,-6756.6413,0.0,0.08485003198221142,0.0,0.0,0.0,0.0,0.4033524213202846,1.133341819077129,0.5171559812043215,0.01950665826740728,0.005393124880934985,0.2876601632498477
8486,10.0,299.9824,-6896.4998,0.0,0.08486002796963055,0.0,0.0,0.0,0.0,0.43883027926167656,1.1264987332017689,0.5310347312690475,0.005482272245933144,0.017033843689859485,0.25580393474338275
8487,10.0,299.99397999999997,-7185.983,0.0,0.08487002395705012,0.0,0.0,0.0,0.0,0.46662308102461253,1.1513523396046288,0.5663839469777435,0.003141211288163417,-0.010627421998094888,0.26266115545763774
8488,10.0,300.28891,-7066.754,0.0,0.08488001994446925,0.0,0.0,0.0,0.0,0.4710597688399795,1.131365474757079,0.5456915155555594,0.0065393669949852734,-0.0041715201628719865,0.2632467836179348
8489,10.0,300.13039,-6870.9363,0.0,0.08489001593188861,0.0,0.0,0.0,0.0,0.4511217021172455,1.118643815776549,0.5188275297617906,0.006360773052234424,-0.0048763027859036155,0.26829366077602274
8490,10.0,301.01781,-6957.3024,0.0,0.08490001191930796,0.0,0.0,0.0,0.0,0.4507963171126325,1.1230685776382388,0.5409813110081986,0.003434259023784977,0.006075427638573024,0.2813782152798677
8491,10.0,300.06472,-7071.4859,0.0,0.08491000790672731,0.0,0.0,0.0,0.0,0.4467276721310886,1.139941623603479,0.5628858631275094,-0.004991691403316585,-0.004096874129329996,0.27727940584284677
8492,10.0,300.46816,-6881.8508,0.0,0.08492000389414667,0.0,0.0,0.0,0.0,0.44665298546621757,1.125429855671279,0.5198279318505226,0.007132886853686123,0.008364780518564562,0.2954575888643937
8493,10.0,300.2787,-6801.1204,0.0,0.08493003287162337,0.0,0.0,0.0,0.0,0.4238402978122806,1.111898001910789,0.5316325285630455,0.014712876798797887,0.0019221921817055981,0.2694059459407967
8494,10.0,300.16616,-6815.8,0.0,0.0849400288590425,0.0,0.0,0.0,0.0,0.4293678608178086,1.114508032843379,0.5279570955478085,0.005334555377454624,0.01087019368230459,0.28105470478793976
8495,10.0,299.73104,-6944.0411,0.0,0.08495002484646186,0.0,0.0,0.0,0.0,0.4443433933207786,1.120873776596629,0.5455979013788205,-0.005337691285189115,-0.014270893052177486,0.2432691900087998
8496,10.0,300.15398999999996,-7144.6648,0.0,0.08496002083388121,0.0,0.0,0.0,0.0,0.46312189662907255,1.1468900874892387,0.5617877533316344,-0.010194162334835489,-0.007740150842043413,0.27478377084654676
8497,10.0,299.9754,-7124.3175,0.0,0.08497001682130056,0.0,0.0,0.0,0.0,0.4476316432078035,1.1462175933978689,0.5717653993188514,-0.0005706993284911385,0.011323454902537989,0.24915702421988378
8498,10.0,300.34258,-6850.1769,0.0,0.08498001280871992,0.0,0.0,0.0,0.0,0.4380477360769456,1.116567058371589,0.5276679443667716,-0.0007235603056073422,0.012056581879891988,0.27870941584147774
8499,10.0,299.82228,-6913.5064,0.0,0.08499000879613905,0.0,0.0,0.0,0.0,0.43313597581969254,1.131643713234539,0.5367536262909585,-0.0012302112644123988,0.0003919212174021126,0.2723097890048838
8500,10.0,299.10205,-7041.5523,0.0,0.08500000478355862,0.0,0.0,0.0,0.0,0.47001631375449854,1.126497618626659,0.5439421392579095,0.007714084071295822,-0.008985566329506351,0.2783974766656917
8501,10.0,299.36169,-6984.6899,0.0,0.08501003376103533,0.0,0.0,0.0,0.0,0.45111721341930255,1.123976145752809,0.5480779019260774,0.021298493797247683,-0.013755769873588787,0.27425709357706773
8502,10.0,299.91442,-6843.8653,0.0,0.08502002974845446,0.0,0.0,0.0,0.0,0.43075749279995457,1.115894158980179,0.5337125385008264,0.008756994230873042,-0.008038592715897332,0.2792069419055797
8503,10.0,299.23291,-6868.6652,0.0,0.08503002573587382,0.0,0.0,0.0,0.0,0.43772852176544164,1.1232596766070988,0.5269144713274095,-0.006923920232562723,-0.02823963391128487,0.26289903618361476
8504,10.0,299.54618999999997,-6894.5742,0.0,0.08504002172329317,0.0,0.0,0.0,0.0,0.4443139584053736,1.130830782679309,0.5206336885950446,-0.013882111015307685,0.0003444178032988907,0.27411429624047473
8505,10.0,299.95131000000003,-6983.8322,0.0,0.08505001771071252,0.0,0.0,0.0,0.0,0.43097843198425956,1.1454742731245091,0.5464578670036925,-0.005859493200486954,0.011726201552285988,0.27516633355430276
8506,10.0,300.31717000000003,-7105.4947,0.0,0.08506001369813188,0.0,0.0,0.0,0.0,0.46387869312876256,1.137729901285199,0.5582844107133815,0.012081947582895387,0.013415717060528186,0.25716339213755074
8507,10.0,300.21293,-6993.4566,0.0,0.085070009685551,0.0,0.0,0.0,0.0,0.44872528457073757,1.1350203691927887,0.5420905665551734,-0.012995791768584787,-0.006143838738949675,0.26392642112250975
8508,10.0,299.96711,-6898.2185,0.0,0.08508000567297036,0.0,0.0,0.0,0.0,0.4242762385353046,1.128918678415599,0.5436911977381435,0.003250898043288657,-0.01009606705952924,0.2769676490520787
8509,10.0,299.76248,-6987.6565,0.0,0.08509003465044729,0.0,0.0,0.0,0.0,0.44774018255851555,1.129545170952429,0.5467877204412465,0.00991758052128899,0.004753873093545745,0.26838795383032876
8510,10.0,300.1381,-7024.5973,0.0,0.08510003063786642,0.0,0.0,0.0,0.0,0.4462004477065556,1.1378995193519388,0.5512021876819205,0.012788751335901486,0.007581544068115143,0.2831841208005967
8511,10.0,300.2966,-6882.9195,0.0,0.08511002662528577,0.0,0.0,0.0,0.0,0.43408957588630565,1.116183239233709,0.5419628261150665,0.0066188805806826545,0.003278070269895347,0.26877209720824075
8512,10.0,300.08361,-6814.9606,0.0,0.08512002261270513,0.0,0.0,0.0,0.0,0.43896474768244764,1.108341088759749,0.5242720467891225,-0.01291467907157959,-0.008091725321991112,0.2788323129461068
8513,10.0,300.31142,-6886.7358,0.0,0.08513001860012448,0.0,0.0,0.0,0.0,0.4392071171063676,1.120904680724679,0.5332839235760255,0.0011923744791781988,0.00022507103582778182,0.27353538592834076
8514,10.0,300.48305,-6994.1028,0.0,0.08514001458754383,0.0,0.0,0.0,0.0,0.44130467653588057,1.136094008998749,0.5486339533159554,0.004155279384969146,-0.024130573423002177,0.2730425309471997
8515,10.0,300.42764,-7039.8912,0.0,0.08515001057496296,0.0,0.0,0.0,0.0,0.4659433523275286,1.1391820913285189,0.5348256849281855,0.005977519206585214,-0.018586823747126682,0.26936772614702476
8516,10.0,300.92946,-7052.9534,0.0,0.08516000656238232,0.0,0.0,0.0,0.0,0.44130338970825356,1.147128910537809,0.5554894312400385,-0.002279041033723838,-0.014102175764776386,0.2677208907594948
8517,10.0,300.5548,-6953.5229,0.0,0.08517003553985925,0.0,0.0,0.0,0.0,0.44133605689147754,1.1350179373925489,0.5373433277166575,-0.0013794671584678086,0.018441020097486983,0.2687292367290107
8518,10.0,300.0222,-7013.4999,0.0,0.08518003152727838,0.0,0.0,0.0,0.0,0.4544758943207786,1.127477735448389,0.5499752127383275,-0.0008240654645539291,0.027050227241649575,0.2544867400108858
8519,10.0,299.88358999999997,-7070.7808,0.0,0.08519002751469773,0.0,0.0,0.0,0.0,0.4653470343786765,1.122590019616009,0.5614037214112335,-0.016852378702950283,0.011231798324992189,0.2662152112433957
8520,10.0,299.61506,-6920.0115,0.0,0.08520002350211708,0.0,0.0,0.0,0.0,0.44057161035353254,1.127460206221659,0.5354789374001565,-0.012903536360229888,-0.00977134208603138,0.2692302889034608
8521,10.0,299.69087,-6860.2715,0.0,0.08521001948953644,0.0,0.0,0.0,0.0,0.4296574983588936,1.128130369837799,0.5275633161614455,-0.017124740329830284,-0.012077889516244888,0.27804556477346076
8522,10.0,300.21894,-7004.2253,0.0,0.08522001547695579,0.0,0.0,0.0,0.0,0.4367048250569106,1.137950789806999,0.5544539403003435,0.007345202469040043,-0.002138406175494258,0.2859030558539347
8523,10.0,300.75433,-7124.9768,0.0,0.08523001146437492,0.0,0.0,0.0,0.0,0.46272278754718354,1.145884436764989,0.5572078730121355,-0.0028279191195188873,-0.004859750433595026,0.26886783921018975
8524,10.0,300.32581,-7090.2268,0.0,0.08524000745179428,0.0,0.0,0.0,0.0,0.46227664339565255,1.145713400148109,0.5472618505605394,0.012898169174450188,-0.013280717696704789,0.28540542846482275
8525,10.0,300.06063,-6943.946999999999,0.0,0.08525000343921363,0.0,0.0,0.0,0.0,0.4281160004517595,1.1431661907217188,0.5395043469999335,0.0031537848099793273,0.006538889247563124,0.26722998121854574
8526,10.0,300.17886,-6902.3884,0.0,0.08526003241669033,0.0,0.0,0.0,0.0,0.4356029358381626,1.1371499169279589,0.5254008479305265,0.01014293848928009,-0.012203145467106689,0.27030564110208977
8527,10.0,300.46941,-6993.8565,0.0,0.08527002840410969,0.0,0.0,0.0,0.0,0.46255084913771455,1.1187907370410488,0.5446161734894315,0.004429184799701506,-0.004870603760716165,0.2532192958582988
8528,10.0,300.44096,-7014.3343,0.0,0.08528002439152904,0.0,0.0,0.0,0.0,0.44773489339299355,1.132098358554409,0.5523491969276215,-0.005488258831498975,-0.01858910153335148,0.2761176639406917
8529,10.0,299.93917999999996,-6951.9802,0.0,0.0852900203789484,0.0,0.0,0.0,0.0,0.4439937511087716,1.129899099212359,0.5393355091357706,0.001000838140912534,0.008252031721637123,0.26686937564045676
8530,10.0,299.65036000000003,-6901.1197,0.0,0.08530001636636775,0.0,0.0,0.0,0.0,0.43459743710142756,1.1199450315549688,0.5432256397146964,-0.0028694578139934375,0.016858556488809982,0.27732217512956775
8531,10.0,299.9302,-6971.646,0.0,0.08531001235378688,0.0,0.0,0.0,0.0,0.44994112389573154,1.1197920307898688,0.5494731675787795,-0.02048952808965898,0.026662535461887373,0.27063058027665876
8532,10.0,300.03187,-7083.0926,0.0,0.08532000834120623,0.0,0.0,0.0,0.0,0.4687954081790045,1.139346237844719,0.5449416598190545,-0.02119051274734078,-0.0026840531080454173,0.2754540256551957
8533,10.0,299.61936000000003,-6992.6339,0.0,0.08533000432862536,0.0,0.0,0.0,0.0,0.4488084116089415,1.133500291392769,0.5432774066623055,-0.015166563584073285,0.004423194262460285,0.2725724031658017
8534,10.0,299.15022,-6842.2308,0.0,0.08534003330610229,0.0,0.0,0.0,0.0,0.42328780293025364,1.128025194477419,0.5285543355542515,0.017704770283324785,-0.01045309839789049,0.28306927903426277
8535,10.0,299.53803999999997,-6924.5726,0.0,0.08535002929352187,0.0,0.0,0.0,0.0,0.45507585996999056,1.114571968924689,0.5352493551924985,0.004702811368006345,-0.017197415693252782,0.25957279955034074
8536,10.0,300.71087,-6934.0578,0.0,0.085360025280941,0.0,0.0,0.0,0.0,0.4534233402493995,1.1116080097321688,0.5427490170001575,0.006664150264675424,-0.024679303067657577,0.26570828221836573
8537,10.0,300.99982,-6917.8691,0.0,0.08537002126836013,0.0,0.0,0.0,0.0,0.4335599500590355,1.136618163275479,0.5326813842715595,0.000951988340341434,0.00018707359979022682,0.26701812075513676
8538,10.0,300.70045,-6861.0378,0.0,0.0853800172557797,0.0,0.0,0.0,0.0,0.42851099573824264,1.1239678371019888,0.5331053585109025,0.023524833261470274,0.013957676168015385,0.2784848593543157
8539,10.0,300.42179,-6945.8988,0.0,0.08539001324319884,0.0,0.0,0.0,0.0,0.4303386658711196,1.129822294854779,0.5512187847185585,-0.0038547431231585267,0.015106532568648684,0.26575195329767576
8540,10.0,299.90775,-6939.8321,0.0,0.08540000923061819,0.0,0.0,0.0,0.0,0.4424019959966776,1.131462442791649,0.5356712218716335,-0.02223370641429598,-0.0051463244130026745,0.2957807953812917
8541,10.0,299.87265,-6940.6317,0.0,0.08541000521803754,0.0,0.0,0.0,0.0,0.45203968644284354,1.127937649668779,0.5298014032473275,-0.017971498239648782,0.002091905392629988,0.27405590263721175
8542,10.0,300.33159,-7011.1269,0.0,0.08542003419551447,0.0,0.0,0.0,0.0,0.4466860376844796,1.141396954722109,0.5431244970897144,0.002382400852574658,-0.006326810428757573,0.2784655873374137
8543,10.0,299.88437000000005,-6984.0744,0.0,0.08543003018293382,0.0,0.0,0.0,0.0,0.45393157636705855,1.1264399646959689,0.5426126335366974,0.004150566252128996,-0.002156470600927078,0.26655024238896075
8544,10.0,299.45248,-6951.4638,0.0,0.08544002617035296,0.0,0.0,0.0,0.0,0.4523032327938536,1.119923044027799,0.5408451403272595,-0.005473121786930064,-0.007691263855193642,0.26583557682842873
8545,10.0,299.70791,-7014.6987,0.0,0.08545002215777209,0.0,0.0,0.0,0.0,0.4526655406321106,1.1404083265995388,0.5392194008068115,-0.0016528508507236783,-0.0017090212819422682,0.2749528924207377
8546,10.0,298.87831,-7058.15,0.0,0.08546001814519144,0.0,0.0,0.0,0.0,0.4512187816093266,1.1422036031267189,0.5520789529934504,0.028504783223953074,-0.0016387364794806986,0.26155474714344373
8547,10.0,299.57139,-6944.7197,0.0,0.0854700141326108,0.0,0.0,0.0,0.0,0.4487416485598526,1.1292428171225888,0.5330368830691444,0.013893240554406086,-0.0024669898080229378,0.2657434926593407
8548,10.0,299.14697,-7001.9837,0.0,0.08548001012003037,0.0,0.0,0.0,0.0,0.4439208578965776,1.134965349712359,0.5495419672605695,0.012538391421692887,-0.0091937441354269,0.26704714023800075
8549,10.0,299.34302,-7048.1,0.0,0.0854900061074495,0.0,0.0,0.0,0.0,0.45275980328891363,1.133865365403799,0.5558212199852834,-0.015918320177765885,-0.0017795922262320782,0.2721878747528517
8550,10.0,299.36118999999997,-6989.2748,0.0,0.08550003508492621,0.0,0.0,0.0,0.0,0.4395085488786166,1.133154063833599,0.5519023738985235,0.004907142977872305,0.01115199981336669,0.2792032942052197
8551,10.0,299.97494,-7004.5246,0.0,0.08551003107234578,0.0,0.0,0.0,0.0,0.4496295292249795,1.1294868077466689,0.5500842080515844,-0.0011548156284464288,-0.005416878705679306,0.27657949320377073
8552,10.0,300.16331,-7059.7362,0.0,0.08552002705976491,0.0,0.0,0.0,0.0,0.47012585622280956,1.120472326907009,0.5553853400572655,0.001160725308329669,-0.01734959673902188,0.27280630181888577
8553,10.0,300.40353999999996,-6925.5156,0.0,0.08553002304718405,0.0,0.0,0.0,0.0,0.45475907745872657,1.1215725138655888,0.5288522412161525,-0.0028586757183543276,-0.01210440728461199,0.27413522998754075
8554,10.0,299.79467,-6898.8166,0.0,0.0855400190346034,0.0,0.0,0.0,0.0,0.42367055815552856,1.128580050232179,0.5448173846942895,0.0027717666228270674,-0.003134424640318627,0.27304689805513077
8555,10.0,300.34263,-7043.4094,0.0,0.08555001502202275,0.0,0.0,0.0,0.0,0.4712652052977545,1.132971476165579,0.5367839123364475,0.005538315007639135,0.0014682577581057587,0.2681747254792847
8556,10.0,300.37573,-7095.2405,0.0,0.08556001100944233,0.0,0.0,0.0,0.0,0.45850608646102753,1.139462254981169,0.5588075517400114,-0.002088826125576088,0.005102007184103905,0.26825661635236675
8557,10.0,299.83416,-7012.6968,0.0,0.08557000699686146,0.0,0.0,0.0,0.0,0.4585363725065166,1.144241451727839,0.5289069465890515,0.00010047887523899292,0.008745543694142962,0.2820516415613297
8558,10.0,299.98951,-6974.1718,0.0,0.08558003597433816,0.0,0.0,0.0,0.0,0.4338028970355126,1.143539877358599,0.5426312570735355,-0.001114810184023199,0.011147926547964688,0.26556495799172075
8559,10.0,299.5999,-6980.7539,0.0,0.08559003196175752,0.0,0.0,0.0,0.0,0.44094793144067257,1.1400852011426488,0.5409417537242945,0.0004171718861216596,-0.011260408454815789,0.2777873177204737
8560,10.0,299.43821,-6937.1042,0.0,0.08560002794917687,0.0,0.0,0.0,0.0,0.42776833407744763,1.123426457573559,0.5575116149946124,0.008277572108957762,-0.022547718699786577,0.2730657242419887
8561,10.0,299.93672999999995,-6866.3769,0.0,0.085610023936596,0.0,0.0,0.0,0.0,0.4379087890907326,1.116378087227939,0.5329202579826345,0.0009371741679168891,-0.012370161507589886,0.28962897912165475
8562,10.0,299.96918999999997,-6922.7667,0.0,0.08562001992401536,0.0,0.0,0.0,0.0,0.43135448962637357,1.1311397226347988,0.5418540334518296,-0.005895466112162204,0.01059178700532799,0.2761243513913518
8563,10.0,300.25543,-6881.1173,0.0,0.08563001591143471,0.0,0.0,0.0,0.0,0.4395142737416816,1.113409061784919,0.5387645325719194,-0.02070803648697408,0.007239331208491363,0.2704889583101817
8564,10.0,300.77206,-6957.6514,0.0,0.08564001189885428,0.0,0.0,0.0,0.0,0.46290106890227856,1.1272796450538387,0.5247715588234205,-0.016577776780099182,0.0075412162075100915,0.2669764964410287
8565,10.0,300.29071,-7131.0518,0.0,0.08565000788627342,0.0,0.0,0.0,0.0,0.4670392532381855,1.140860540119169,0.5597619117441994,-0.01004440903630599,-0.006044939247039055,0.26941384929157675
8566,10.0,299.60114,-6993.4679,0.0,0.08566000387369255,0.0,0.0,0.0,0.0,0.4401265199821056,1.140900158198079,0.5448129770563546,0.016627128139469784,-0.002446213418697468,0.27632767015641774
8567,10.0,300.33761,-6917.2865,0.0,0.08567003285116948,0.0,0.0,0.0,0.0,0.4333391527297446,1.1333981557826887,0.5359450121811544,0.005420750536961426,-0.014691897455477386,0.2643773680795148
8568,10.0,299.58347000000003,-7092.3217,0.0,0.08568002883858883,0.0,0.0,0.0,0.0,0.46077929279537555,1.126876067539009,0.5682333310602634,0.009225978154233152,-0.010740619259516592,0.26998333637778077
8569,10.0,299.51072999999997,-7044.3743,0.0,0.08569002482600796,0.0,0.0,0.0,0.0,0.46821583925430554,1.1255272290058889,0.5475707803835285,0.01058018630493309,0.001988783991527698,0.2570970039909988
8570,10.0,298.98087000000004,-6860.4044,0.0,0.08570002081342731,0.0,0.0,0.0,0.0,0.4326935300310266,1.126307228932869,0.5263908743382345,0.007408800327466663,0.01981928037376068,0.27098726457686073
8571,10.0,299.19626,-6929.9251,0.0,0.08571001680084667,0.0,0.0,0.0,0.0,0.42379720428552764,1.1301255606097091,0.5526014151425135,0.01023874331273529,0.004000219391690916,0.2762022905890437
8572,10.0,299.59262,-7038.8836,0.0,0.08572001278826602,0.0,0.0,0.0,0.0,0.44049624481109456,1.139891163748499,0.5592574145194095,-0.016771255873444087,-0.0007815438668198742,0.27832466451350574
8573,10.0,299.87768,-7038.7886,0.0,0.08573000877568537,0.0,0.0,0.0,0.0,0.45674215989194156,1.134037212620759,0.5488366134684565,-0.005261841409203315,-0.008968983478369752,0.2884397274792847
8574,10.0,300.01971000000003,-7039.8141,0.0,0.0857400047631045,0.0,0.0,0.0,0.0,0.4545048631411376,1.137386916126349,0.5480359229744345,-0.0014826949508305986,0.006844973661621304,0.2799872356750887
8575,10.0,300.42422,-6926.2552,0.0,0.08575003374058143,0.0,0.0,0.0,0.0,0.45513160899049254,1.1315974077049689,0.5186795952471905,-0.002480094880841308,-0.0002957380666245747,0.27344714197713177
8576,10.0,299.85115,-6845.8788,0.0,0.08576002972800079,0.0,0.0,0.0,0.0,0.4362830799677876,1.119078297419429,0.5256147855566405,-0.012712785949404287,0.0015792392442087785,0.27841027401445473
8577,10.0,299.848,-6968.2169,0.0,0.08577002571541992,0.0,0.0,0.0,0.0,0.4353608197267676,1.134188085560649,0.5486150156715864,0.0002629965716382408,-0.005197851321662985,0.28256199537169774
8578,10.0,300.31543,-6991.7679,0.0,0.08578002170283949,0.0,0.0,0.0,0.0,0.42991160121897165,1.151728255391729,0.5436830309423375,0.007562761248361423,0.019861961507722983,0.27628513391721976
8579,10.0,300.46091,-6954.882,0.0,0.08579001769025862,0.0,0.0,0.0,0.0,0.43064448501630154,1.135354032450719,0.5481118964669325,0.002308071459688918,0.006981374654308034,0.26633492674271075
8580,10.0,300.24006,-6999.727,0.0,0.08580001367767798,0.0,0.0,0.0,0.0,0.4432813856259666,1.143297811909709,0.5411630576786355,-0.009902168277992921,-0.0056912228577049645,0.27572922438235575
8581,10.0,299.87885,-7117.134,0.0,0.08581000966509733,0.0,0.0,0.0,0.0,0.4818150538814436,1.1371335022763387,0.5444824751387365,-0.016884351809855785,-0.01016392695185149,0.26764794688479576
8582,10.0,299.5599,-7119.374,0.0,0.08582000565251646,0.0,0.0,0.0,0.0,0.4596457192460005,1.1381632683529688,0.5663029578972504,0.007123592411843833,0.008487247397201102,0.2707578647542207
8583,10.0,299.68525,-6996.3556,0.0,0.08583003462999339,0.0,0.0,0.0,0.0,0.43960800950843265,1.143159199296029,0.5439502047287055,0.015000912391474787,0.002583922111963258,0.27572230388417274
8584,10.0,299.43145,-6966.3656,0.0,0.08584003061741252,0.0,0.0,0.0,0.0,0.4368016107064626,1.124395327319179,0.5564042339603225,-0.003980196455139806,-0.0023375025247435377,0.2571976906534358
8585,10.0,299.77146,-7004.6942,0.0,0.0858500266048321,0.0,0.0,0.0,0.0,0.45814073887247053,1.1280394813038288,0.5430718790120215,-0.00958693046650637,-0.006792497641592323,0.26257971041459977
8586,10.0,299.45538999999997,-6912.4916,0.0,0.08586002259225145,0.0,0.0,0.0,0.0,0.45163590627799355,1.1191045405970188,0.5304844452722385,0.002684862492225297,0.021280325209704583,0.2667476235084407
8587,10.0,299.35247999999996,-6966.0366,0.0,0.08587001857967058,0.0,0.0,0.0,0.0,0.4692028360442146,1.114704907337809,0.5335934917465774,0.010881071935378189,0.017166311954933084,0.2689333255641528
8588,10.0,299.91742,-7034.0328,0.0,0.08588001456708994,0.0,0.0,0.0,0.0,0.43499226013539355,1.1520820823266489,0.5510960396014445,-0.004540782139215306,0.006054397227447484,0.2780431633707237
8589,10.0,300.04731,-7050.1803,0.0,0.08589001055450929,0.0,0.0,0.0,0.0,0.4422288011570846,1.151712043390129,0.5491378932531904,0.00036533903672615565,-0.0016187743379355885,0.29512785701685174
8590,10.0,300.25621,-7137.1022,0.0,0.08590000654192842,0.0,0.0,0.0,0.0,0.4412903795769696,1.154213555237009,0.5739969306765864,-0.004611551376549686,0.015039923533574886,0.27765042763196374
8591,10.0,299.95857,-7055.0249,0.0,0.08591003551940535,0.0,0.0,0.0,0.0,0.4524032000487196,1.1413531823177887,0.5507950131292355,0.012845213684473887,-0.007824099119453462,0.2680228190242927
8592,10.0,299.78782,-6942.1699,0.0,0.08592003150682448,0.0,0.0,0.0,0.0,0.4477372542657265,1.119052966166929,0.5434560527874365,0.006093388408520614,-0.019557948987469282,0.2631453876804278
8593,10.0,299.37475,-6987.3925,0.0,0.08593002749424383,0.0,0.0,0.0,0.0,0.45914156652624455,1.130786706299959,0.5340645517180675,-0.0008836058034851032,-0.023323470069097275,0.27190239153717677
8594,10.0,299.68236,-7065.6322,0.0,0.08594002348166341,0.0,0.0,0.0,0.0,0.4643009651079376,1.138024351764259,0.5454505038867734,0.002756242212744927,0.008639684693920492,0.28516137704573674
8595,10.0,299.47283999999996,-7087.3286,0.0,0.08595001946908254,0.0,0.0,0.0,0.0,0.4679401440345966,1.138818131892599,0.5476126276126585,-0.008964739480325902,0.013076918651091386,0.2729487546504447
8596,10.0,299.2341,-7094.3241,0.0,0.08596001545650189,0.0,0.0,0.0,0.0,0.4466155864050266,1.164056874658469,0.5458248896662224,-0.023881125433883578,0.012602628438282588,0.2705901110676648
8597,10.0,299.56229,-7142.728,0.0,0.08597001144392102,0.0,0.0,0.0,0.0,0.4620370502770066,1.1516984658387888,0.5574754217010405,-0.006430680317708734,-0.0003585112610598067,0.2646289580793447
8598,10.0,300.3948,-7085.6816,0.0,0.0859800074313406,0.0,0.0,0.0,0.0,0.4594029242570386,1.1309893563199591,0.5634779659559455,-0.00042809538081222455,0.01057670984383999,0.26922941750837476
8599,10.0,299.92434,-7002.2329,0.0,0.08599000341875995,0.0,0.0,0.0,0.0,0.44757224648694155,1.1355345936185388,0.5453971562690084,0.008205005163295961,-5.348337605314825e-05,0.26885543702896575
8600,10.0,299.45454,-7025.4839,0.0,0.08600003239623644,0.0,0.0,0.0,0.0,0.4371955724778435,1.121306637039349,0.5770694393523195,0.006049490462513224,-0.020506767526860377,0.2665488238388207
8601,10.0,299.4419,-7011.0848,0.0,0.08601002838365579,0.0,0.0,0.0,0.0,0.45454667997276454,1.1340896989759388,0.5425583233313375,0.01136717461785279,-0.010656581309472689,0.2691191454999918
8602,10.0,299.12732,-6940.2928,0.0,0.08602002437107537,0.0,0.0,0.0,0.0,0.44334801695254256,1.1298482340573388,0.5364794813439024,0.01063883423397119,0.013261472024305387,0.2640325489379838
8603,10.0,299.75003,-6930.2006,0.0,0.0860300203584945,0.0,0.0,0.0,0.0,0.46278080624790957,1.108251010825859,0.5355761384822495,-0.0028214001723505175,0.012180874229908687,0.26048696392306175
8604,10.0,300.08201,-7001.6956,0.0,0.08604001634591385,0.0,0.0,0.0,0.0,0.46912564665159656,1.123603675016049,0.5356113185257214,-0.021723812619473377,0.0022765676902297377,0.25711327678760476
8605,10.0,299.66275,-7113.8994,0.0,0.08605001233333298,0.0,0.0,0.0,0.0,0.45477512734031056,1.147758949449989,0.5599137472716844,-0.004882988514038445,-0.013557181973239687,0.28677442054243174
8606,10.0,300.1542,-7121.0948,0.0,0.08606000832075233,0.0,0.0,0.0,0.0,0.45457240639280355,1.165209851947259,0.5448526863277735,0.014564596765913785,0.007378179504144623,0.2953973916759527
8607,10.0,300.29592,-7103.469,0.0,0.08607000430817191,0.0,0.0,0.0,0.0,0.45596441951268457,1.1398311793425788,0.5634816136563056,0.019270288297329383,0.0020526026371511076,0.2836575619098217
8608,10.0,299.97452000000004,-6921.8621,0.0,0.08608003328564862,0.0,0.0,0.0,0.0,0.43287541855647754,1.128502333949509,0.5426954667323725,-0.00043578209872084466,0.003219824094521897,0.27892153974991274
8609,10.0,299.94617,-6727.5658,0.0,0.08609002927306775,0.0,0.0,0.0,0.0,0.4197189942230396,1.107329662509929,0.5179634098115085,-0.005237013539352995,0.0024210960632935776,0.26133599657935475
8610,10.0,299.43846,-6833.1326,0.0,0.0861000252604871,0.0,0.0,0.0,0.0,0.42951287717212056,1.1182672920393888,0.5293215381324685,0.010373572450541891,0.012149729961584988,0.27261735094023776
8611,10.0,299.30237999999997,-6924.1021,0.0,0.08611002124790645,0.0,0.0,0.0,0.0,0.42677453837936763,1.1221071046183488,0.5558724803078425,0.006506838525699964,0.006711990158871854,0.26191026620603075
8612,10.0,299.94445,-6955.9415,0.0,0.08612001723532581,0.0,0.0,0.0,0.0,0.4384586900525036,1.130719325168309,0.5452544906549285,-0.00971478580917471,-0.02521370130289858,0.2848579593032917
8613,10.0,300.07395,-7113.1562,0.0,0.08613001322274494,0.0,0.0,0.0,0.0,0.4634353658125096,1.150940250788959,0.5478462324232135,-0.004414057887633595,-0.017697340120341486,0.27657393046072176
8614,10.0,299.90632999999997,-7175.1714,0.0,0.08614000921016429,0.0,0.0,0.0,0.0,0.4739358083213226,1.158878254722379,0.5482588886589395,-0.0013576322267628686,0.004971340072408065,0.2885458958247627
8615,10.0,299.76115,-7067.6317,0.0,0.08615000519758365,0.0,0.0,0.0,0.0,0.47927402528066354,1.132104640705029,0.5370049123157584,0.01015852835531869,0.010009865415221801,0.26106102076721677
8616,10.0,300.03303,-7041.3744,0.0,0.08616003417506057,0.0,0.0,0.0,0.0,0.46260617259317455,1.125688741071829,0.5521070605512245,-0.009446460768043091,-0.006842812905783055,0.26338255913133474
8617,10.0,300.24125,-7039.754,0.0,0.0861700301624797,0.0,0.0,0.0,0.0,0.4401775067271376,1.139863907320809,0.5598680598246755,-0.011432656918815388,-0.0019976666485293482,0.25161701307766576
8618,10.0,300.23595,-6903.2539,0.0,0.08618002614989906,0.0,0.0,0.0,0.0,0.42294177802110355,1.1357106964859187,0.5397643469755935,0.007360273348377423,-0.0013859261212302587,0.26858087664936875
8619,10.0,300.16564,-6849.6316,0.0,0.08619002213731841,0.0,0.0,0.0,0.0,0.4137451148134636,1.119627985598679,0.5487439112168074,0.007752015088789322,-0.0027511686668442075,0.26960903165833977
8620,10.0,300.19158999999996,-6940.4228,0.0,0.08620001812473777,0.0,0.0,0.0,0.0,0.44572415936454957,1.110945749466809,0.5530452997463214,0.003430061939220757,-0.006104970566438684,0.27041173852006073
8621,10.0,299.46831000000003,-7029.4838,0.0,0.08621001411215712,0.0,0.0,0.0,0.0,0.46359518575078257,1.129243931697699,0.5439484416735314,-0.01901455613109058,-0.010196140199030689,0.26676123145728375
8622,10.0,299.73008,-7077.8058,0.0,0.08622001009957625,0.0,0.0,0.0,0.0,0.4630056059150956,1.1537589099171388,0.5347117246894385,0.001983541536835308,0.023712299728721777,0.2790238780100127
8623,10.0,299.51145,-7221.0729,0.0,0.0862300060869956,0.0,0.0,0.0,0.0,0.4681401596043365,1.1594597589547688,0.5674259125855774,0.004304885964884166,0.017754912991023483,0.27022207836634277
8624,10.0,300.35661,-7148.0804,0.0,0.08624003506447253,0.0,0.0,0.0,0.0,0.4656680421428575,1.154299681495509,0.5528702303940435,0.014997214028609788,-9.634511475302251e-05,0.27026393572797375
8625,10.0,299.62592,-7035.2731,0.0,0.08625003105189166,0.0,0.0,0.0,0.0,0.4478899611882976,1.1496885829404289,0.5409687872369624,0.0048271578255783855,-0.01132541858123179,0.28533641600051174
8626,10.0,300.41977,-7032.9495,0.0,0.08626002703931102,0.0,0.0,0.0,0.0,0.4493481902022136,1.151680632637029,0.5368121820142374,0.012393637499156788,-0.006105833450223844,0.28129203835886274
8627,10.0,300.03546,-6889.7601,0.0,0.08627002302673037,0.0,0.0,0.0,0.0,0.45119070444905557,1.1166798331077188,0.5264444854010255,0.006571932751874263,0.004363285444997746,0.27192128865154175
8628,10.0,300.97632999999996,-6774.1447,0.0,0.08628001901414972,0.0,0.0,0.0,0.0,0.40391495751080264,1.1181019296230688,0.5371539918029715,0.0009015849841870102,-0.006718781771642133,0.2838868604074517
8629,10.0,300.06363999999996,-6927.9295,0.0,0.08629001500156908,0.0,0.0,0.0,0.0,0.43038028005272666,1.1364675943106188,0.5390697235020395,-0.011751878323070088,-0.003985724342385366,0.27990414916688877
8630,10.0,300.83426000000003,-7050.8024,0.0,0.08630001098898821,0.0,0.0,0.0,0.0,0.4338070918909266,1.161425464148769,0.5480353555543784,-0.0028813147653386274,0.00024703916939086776,0.2916337451070097
8631,10.0,299.58717,-7029.0893,0.0,0.08631000697640756,0.0,0.0,0.0,0.0,0.4377935420243586,1.1424249982735688,0.5564491513372555,0.00940443135654511,0.013490709726929385,0.28096813269939575
8632,10.0,300.10527,-7080.6968,0.0,0.08632003595388449,0.0,0.0,0.0,0.0,0.4733121022222676,1.1365377112175388,0.5425052492910994,0.00033231558463449475,-0.013913673755922687,0.28301821122922277
8633,10.0,299.66735,-7192.0644,0.0,0.08633003194130362,0.0,0.0,0.0,0.0,0.4904677943029025,1.1391957702048687,0.5565443765816535,-0.0005781978047961805,-0.015300763493567784,0.25990051503018374
8634,10.0,299.88605,-7063.7826,0.0,0.08634002792872297,0.0,0.0,0.0,0.0,0.45370178137687955,1.142704047351109,0.5508076990204874,0.009526084899326381,0.004870123986793816,0.27764410495133973
8635,10.0,299.38395,-6986.4959,0.0,0.0863500239161421,0.0,0.0,0.0,0.0,0.4590498065971885,1.128555124279719,0.5361153496554655,0.004612031859747105,0.022841993886579277,0.2520362351740398
8636,10.0,300.52377,-7051.9389,0.0,0.08636001990356168,0.0,0.0,0.0,0.0,0.46360268380152253,1.132444079488529,0.5475665753956135,0.007613222623216572,0.01139449893329949,0.27130834326854875
8637,10.0,300.10375,-7029.1286,0.0,0.08637001589098103,0.0,0.0,0.0,0.0,0.4481229985787966,1.140967539329729,0.5475890492828315,-0.008571707163261631,-0.017833540185533382,0.26238153896004174
8638,10.0,300.52022,-6889.5917,0.0,0.08638001187840016,0.0,0.0,0.0,0.0,0.4417008370599786,1.128636082962709,0.5239269236725614,0.0023617298412595875,-0.006401649081143573,0.28156137036794376
8639,10.0,299.96655,-6998.8918,0.0,0.08639000786581952,0.0,0.0,0.0,0.0,0.4350307433741916,1.133648023257349,0.5588095579752095,-0.0037943221077704364,0.007309119822378963,0.2643749565442768
8640,10.0,300.66547,-6990.4356,0.0,0.08640000385323865,0.0,0.0,0.0,0.0,0.44042179119374664,1.131985482493269,0.5525105874035494,0.005880845419844254,0.005042008997982544,0.2752235416549488
8641,10.0,300.05581,-6996.2336,0.0,0.08641003283071558,0.0,0.0,0.0,0.0,0.44168928600883856,1.1316739080875189,0.5533170736881435,-0.003587176905026796,0.003968863860721366,0.2768247605229767
8642,10.0,300.21837999999997,-7061.0502,0.0,0.08642002881813493,0.0,0.0,0.0,0.0,0.4457969512517335,1.139798248714329,0.5607877970729465,0.016449763775715283,0.0026244267847107573,0.28398357512949673
8643,10.0,300.14111,-7024.1481,0.0,0.08643002480555406,0.0,0.0,0.0,0.0,0.44403087659243556,1.161572892038319,0.5295618810561885,0.019290012223775983,0.020216992183761783,0.2822820951640737
8644,10.0,300.30147,-6942.6478,0.0,0.08644002079297364,0.0,0.0,0.0,0.0,0.4659448519376766,1.1328558643291688,0.5115908468850855,0.015550889347003287,-0.014969706314894984,0.28128773204593777
8645,10.0,299.893,-6996.7743,0.0,0.08645001678039299,0.0,0.0,0.0,0.0,0.4516044448623886,1.136841382272509,0.5383987999483245,-0.01022794004016909,-0.01835358168010748,0.2831780615649987
8646,10.0,300.03193999999996,-6998.3424,0.0,0.08646001276781212,0.0,0.0,0.0,0.0,0.45247311430561954,1.1507827917234188,0.5240654653587344,-0.0006444626590760124,-0.014864592762771087,0.29131822915837075
8647,10.0,299.97508999999997,-6860.3507,0.0,0.08647000875523148,0.0,0.0,0.0,0.0,0.43365360476577863,1.1150491083967788,0.5366726270779645,0.0036419430729317964,0.02238081715656468,0.25845843722286177
8648,10.0,299.83127,-6901.9863,0.0,0.0864800047426506,0.0,0.0,0.0,0.0,0.4222081545512006,1.138952184880829,0.5368711126400535,0.002875640868753657,0.01052356892909539,0.2815665278109527
8649,10.0,300.25591000000003,-7061.829000000001,0.0,0.08649003372012753,0.0,0.0,0.0,0.0,0.4563013251709346,1.126733300599919,0.5635850462265134,-0.016417983186328786,0.0016908425618981683,0.2548683806610508
8650,10.0,299.93777,-7048.2811,0.0,0.08650002970754689,0.0,0.0,0.0,0.0,0.4504362890871006,1.142887952244259,0.5491772073570704,0.007898671793688214,-0.012718621256730187,0.29186013557685275
8651,10.0,299.97365,-7074.4715,0.0,0.08651002569496624,0.0,0.0,0.0,0.0,0.4399271528924295,1.154678637032909,0.5558569471838094,0.01771144962798398,-0.0007118867829277553,0.26801859377137577
8652,10.0,300.0461,-7111.9879,0.0,0.0865200216823856,0.0,0.0,0.0,0.0,0.4709081460950155,1.138289620640439,0.5526689685266805,0.022745244714030877,0.006251066032107184,0.2685118135225527
8653,10.0,299.96668999999997,-7089.1179,0.0,0.08653001766980473,0.0,0.0,0.0,0.0,0.4718091382164365,1.1341152328784592,0.5489904349661375,-0.007724297024353763,-0.008930573294903961,0.26093066614185173
8654,10.0,299.17544,-7032.7842,0.0,0.08654001365722408,0.0,0.0,0.0,0.0,0.45498643051616455,1.139273385162529,0.5435310130298345,-0.01144072441611159,0.00937236148425506,0.27502157051251575
8655,10.0,299.5078,-6993.3366,0.0,0.08655000964464343,0.0,0.0,0.0,0.0,0.4569904466964455,1.1277270962979988,0.5410822003206555,-0.0032162823801223568,0.008166543608050102,0.26374382332198876
8656,10.0,300.08085,-7056.058000000001,0.0,0.08656000563206256,0.0,0.0,0.0,0.0,0.4543098327618896,1.147292550428959,0.5432630387758876,0.006615267229501043,0.0007439571821078572,0.2615415140971378
8657,10.0,300.19552000000004,-7110.1675,0.0,0.08657003460953949,0.0,0.0,0.0,0.0,0.4467910509248436,1.148667226839629,0.5658551216180525,-0.005208518616065765,-0.011956087734973989,0.2824357038792337
8658,10.0,300.37823,-7143.2581,0.0,0.08658003059695885,0.0,0.0,0.0,0.0,0.4706109699731865,1.146368162362729,0.5543930034393295,0.004954718109817605,-0.01014160809189879,0.26377963158052276
8659,10.0,300.38254,-7029.3933,0.0,0.0865900265843782,0.0,0.0,0.0,0.0,0.4332840623218076,1.159202798729409,0.5442731376680765,0.01146148084441009,0.005416965034587824,0.2832883842358867
8660,10.0,299.63523,-6931.8257,0.0,0.08660002257179755,0.0,0.0,0.0,0.0,0.43143550910436956,1.131972816867019,0.5436936194058826,0.016511339997542385,0.014614887408127088,0.27149760825472774
8661,10.0,299.85149,-7027.0798,0.0,0.08661001855921668,0.0,0.0,0.0,0.0,0.44609857554150156,1.1501005704310887,0.5398576267797994,0.0016276468624362385,0.010941273176819592,0.2908121816609277
8662,10.0,299.62696,-7123.543000000001,0.0,0.08662001454663604,0.0,0.0,0.0,0.0,0.44745368609274055,1.1634269370712989,0.5544985739672484,-0.01179390287096759,0.012403431574623387,0.2833187209438807
8663,10.0,299.33351,-7026.7687,0.0,0.08663001053405539,0.0,0.0,0.0,0.0,0.44425297088185456,1.142714179852109,0.5489950553865934,-0.012158340560934788,0.01170406406410119,0.2761725719636107
8664,10.0,299.77536000000003,-6953.661,0.0,0.08664000652147474,0.0,0.0,0.0,0.0,0.43859946088889656,1.139582426443029,0.5355574440179045,-0.0024891719805371477,-0.003796913798876216,0.27751433801103276
8665,10.0,299.56367,-7009.1579,0.0,0.08665003549895145,0.0,0.0,0.0,0.0,0.45079604353510555,1.129712559868949,0.5501003389931765,-0.006150781731284895,-0.007695846785395943,0.26674614416329473
8666,10.0,300.21251,-7122.9911,0.0,0.08666003148637103,0.0,0.0,0.0,0.0,0.4595639094329266,1.152798855447389,0.5528487089619194,0.0022031656238355175,-0.002898493508859037,0.27716320632137875
8667,10.0,300.4454,-7117.2553,0.0,0.08667002747379016,0.0,0.0,0.0,0.0,0.4841223054191516,1.1336011097777188,0.5457444274757814,0.003910997147510366,0.005087914496413066,0.26417425196446875
8668,10.0,300.01532000000003,-7073.2618,0.0,0.08668002346120951,0.0,0.0,0.0,0.0,0.4465254476761305,1.1476409058133388,0.5559286042308815,0.004120577190244306,0.002138604265888808,0.27121981560731173
8669,10.0,299.53195,-6968.071,0.0,0.08669001944862864,0.0,0.0,0.0,0.0,0.4540120790875036,1.128987680747409,0.5351198314322154,5.441489537358205e-05,-0.018637566298884585,0.26718640133174476
8670,10.0,300.01003,-7057.7687,0.0,0.086700015436048,0.0,0.0,0.0,0.0,0.4550857188934636,1.1370041102385688,0.5532956333160275,0.004763798080925266,-0.014849482164029785,0.2727211381479807
8671,10.0,300.31036,-7200.2839,0.0,0.08671001142346735,0.0,0.0,0.0,0.0,0.47203641021386655,1.148075286131209,0.5685948080334384,-0.002181286818401248,-0.003197924821435607,0.26772101234950674
8672,10.0,300.24549,-7107.7903,0.0,0.0867200074108867,0.0,0.0,0.0,0.0,0.46559729702087554,1.141495949256879,0.5534974930009495,-0.014471401061466087,0.009615441196495161,0.25465102838209974
8673,10.0,299.90803,-6947.7141,0.0,0.08673003638836341,0.0,0.0,0.0,0.0,0.4382260275645416,1.1351312187537288,0.5385743151306465,-0.015217280804578686,0.004804639558006005,0.26662198049604074
8674,10.0,299.71135,-6983.0051,0.0,0.08674003237578276,0.0,0.0,0.0,0.0,0.4487655207322086,1.130443214516059,0.5434504900443875,-0.001063741568383119,0.02218974047920688,0.2735084436081818
8675,10.0,300.20002999999997,-7085.5535,0.0,0.08675002836320211,0.0,0.0,0.0,0.0,0.4596850130848786,1.1416085213429887,0.5525377931687344,-0.009131628357921551,0.017466328216792382,0.2831885588360347
8676,10.0,300.07721000000004,-7035.2853,0.0,0.08676002435062147,0.0,0.0,0.0,0.0,0.4551117695535346,1.1396704778767188,0.5437688228283045,-0.005984460071095224,0.009530499933987111,0.2776869046355637
8677,10.0,299.47573,-6966.9654,0.0,0.0867700203380406,0.0,0.0,0.0,0.0,0.42111336821565365,1.145129970740529,0.5515401673852764,-0.009946170487435601,-0.01912843328332938,0.3007340684951417
8678,10.0,299.15328999999997,-6896.7119999999995,0.0,0.08678001632545973,0.0,0.0,0.0,0.0,0.4361446801366286,1.1316190912571091,0.5286645062376245,0.003943720566114917,-0.013087086615844885,0.26989191082125774
8679,10.0,299.97416,-6935.1385,0.0,0.0867900123128793,0.0,0.0,0.0,0.0,0.4248121161156916,1.1425802281888888,0.5407165791545715,0.015296830056679585,-0.012100739319249989,0.2939560636737047
8680,10.0,300.32467,-7093.5739,0.0,0.08680000830029866,0.0,0.0,0.0,0.0,0.4506100412142486,1.1457151226732791,0.5599441346421834,0.008303785699644841,-0.0006197603410455835,0.2738966197214917
8681,10.0,300.29142,-7064.311,0.0,0.08681000428771801,0.0,0.0,0.0,0.0,0.4513729476120416,1.1530068756929188,0.5429943653793715,0.004792604274643215,-0.004107003185279656,0.27636455246005776
8682,10.0,300.15162999999995,-6876.6990000000005,0.0,0.08682003326519472,0.0,0.0,0.0,0.0,0.4296708023327066,1.1306806190144887,0.5299933533462715,-0.004933023817226546,0.004172302391949186,0.28455196790559273
8683,10.0,300.31797,-6863.3381,0.0,0.08683002925261407,0.0,0.0,0.0,0.0,0.44148234994091556,1.110132312286529,0.5346687932827014,0.01139681015677759,-0.0002636658841242968,0.27773562170037175
8684,10.0,300.19858999999997,-7072.3908,0.0,0.08684002524003342,0.0,0.0,0.0,0.0,0.47949820686528855,1.131197275240479,0.5391346829659505,-0.01131474905767879,0.0045265951179401555,0.26782604585487274
8685,10.0,300.25387,-7145.6648,0.0,0.08685002122745256,0.0,0.0,0.0,0.0,0.4708474524140256,1.1460775622340489,0.5551786573018676,-0.015628967359958987,0.003189510184655147,0.2741396376254757
8686,10.0,299.73003,-7056.3932,0.0,0.08686001721487191,0.0,0.0,0.0,0.0,0.4553511498896595,1.138712551232179,0.5509036538049574,-0.03185508556035217,0.009063636540436282,0.27759410105890475
8687,10.0,299.6689,-7021.0858,0.0,0.08687001320229126,0.0,0.0,0.0,0.0,0.45595694172694656,1.134346963176329,0.5439308111217914,-0.002779394876204917,0.002785731539680297,0.27319735556247976
8688,10.0,300.34999,-7049.5175,0.0,0.08688000918971062,0.0,0.0,0.0,0.0,0.44513342442374854,1.135007298266499,0.5627366012552785,0.0017446451289580684,0.006415671246627454,0.27048823890261076
8689,10.0,299.81082999999995,-7059.5502,0.0,0.08689000517712997,0.0,0.0,0.0,0.0,0.4504356000770326,1.1434243668471988,0.5520670169072724,0.007897679923165321,-0.008330068393988742,0.27233878822274576
8690,10.0,299.39749,-6996.8965,0.0,0.08690003415460668,0.0,0.0,0.0,0.0,0.4507489172729546,1.1268662390130388,0.5492666976059024,-0.008154026422939753,0.0006792940127910994,0.25405754753352777
8691,10.0,300.23176,-6844.9629,0.0,0.08691003014202581,0.0,0.0,0.0,0.0,0.4328772525391586,1.112871937906909,0.5349485617678125,-5.2308780060224654e-05,-0.008225616088880101,0.27919828874972574
8692,10.0,299.65647,-6897.1978,0.0,0.08692002612944538,0.0,0.0,0.0,0.0,0.4418080287880576,1.127472263897849,0.5272956357500275,0.0064026027521376936,0.007542500603336853,0.2603519584797378
8693,10.0,299.92529,-7116.3768,0.0,0.08693002211686451,0.0,0.0,0.0,0.0,0.45120636929560154,1.1622398132541387,0.5497546180590565,-0.005660926983689994,-0.008754450669147013,0.2933792305242757
8694,10.0,300.48055,-7270.1191,0.0,0.08694001810428387,0.0,0.0,0.0,0.0,0.46045423203079455,1.1617502108058189,0.5877301982919544,-0.005282935351110125,0.005312137826942185,0.26639740374387677
8695,10.0,300.55554,-7053.4984,0.0,0.08695001409170322,0.0,0.0,0.0,0.0,0.45466678050711756,1.149108497258179,0.5403120593171484,-0.007703457408222054,0.001852546233432078,0.2912353047701867
8696,10.0,300.48039,-6853.3562,0.0,0.08696001007912257,0.0,0.0,0.0,0.0,0.4310351030623526,1.110904206212709,0.5413098066906185,0.0048998710845546255,0.002984385605260927,0.26439792692404374
8697,10.0,299.60641,-7059.977,0.0,0.08697000606654193,0.0,0.0,0.0,0.0,0.46201949065277353,1.1492700093241188,0.5347671899999125,0.006278910246180194,-0.007522982366660554,0.2888722738144737
8698,10.0,299.0604,-7183.0642,0.0,0.08698003504401863,0.0,0.0,0.0,0.0,0.4681908626393406,1.153980203738979,0.5613011298386085,-0.0008335965914870782,0.0018805117335420581,0.2618080292709407
8699,10.0,300.15621,-7013.4604,0.0,0.08699003103143776,0.0,0.0,0.0,0.0,0.44136732578956356,1.148001825498959,0.5425476639402854,-0.0014411491636053487,0.007878169083214752,0.2830284146577297
8700,10.0,299.79548,-7015.331,0.0,0.08700002701885734,0.0,0.0,0.0,0.0,0.4332223756557196,1.147745878523699,0.5515171767405075,-0.009348231642398631,0.022747837621036774,0.26126796696764076
8701,10.0,299.72755,-7042.2065,0.0,0.08701002300627647,0.0,0.0,0.0,0.0,0.4600192640278665,1.131954882340249,0.5486808060005796,-0.0034624798629201564,0.0019063581223928983,0.2686554315917268
8702,10.0,300.33923,-7157.5793,0.0,0.08702001899369582,0.0,0.0,0.0,0.0,0.45862596408035855,1.153513500742919,0.5635859074890984,-0.00934393475269956,-0.009184754073914652,0.26882670125612973
8703,10.0,300.42745,-7275.4974,0.0,0.08703001498111518,0.0,0.0,0.0,0.0,0.49141765547664656,1.163770226205179,0.5563816891455975,-0.0017474605456859282,-0.003026870776653887,0.2734013430726117
8704,10.0,300.85013,-7033.073,0.0,0.08704001096853431,0.0,0.0,0.0,0.0,0.4650830421976226,1.128580759507249,0.5442147339323126,0.006082914948861964,0.006022518859426334,0.2704146870778517
8705,10.0,300.09075,-6766.4076,0.0,0.08705000695595388,0.0,0.0,0.0,0.0,0.4100014495364926,1.128418132866199,0.5183993505345326,0.0037424039832465164,-0.004270072413973336,0.3003708588642957
8706,10.0,299.44245,-7023.7438,0.0,0.08706003593343059,0.0,0.0,0.0,0.0,0.44212852992718854,1.140439940002659,0.5524742319899615,0.003923542906273536,0.009115960674275272,0.27380384654233575
8707,10.0,299.60587000000004,-7230.2266,0.0,0.08707003192084972,0.0,0.0,0.0,0.0,0.4715192372303255,1.164784692205299,0.5615044486036745,-0.002182631603933968,-0.00967806076195023,0.28015676254931976
8708,10.0,299.73097,-7145.781,0.0,0.08708002790826908,0.0,0.0,0.0,0.0,0.4509527933255756,1.1573367973452489,0.5638493829126014,-0.005178562383484315,0.004102709132680866,0.27545246525004174
8709,10.0,299.71449,-6982.2549,0.0,0.08709002389568865,0.0,0.0,0.0,0.0,0.4447676918001536,1.141397967972209,0.5362654829227825,-0.0092659534038034,-0.020162135836597882,0.28349608024138473
8710,10.0,300.10895,-6999.238,0.0,0.08710001988310778,0.0,0.0,0.0,0.0,0.4539782264016626,1.1510987231045988,0.5225166315208765,0.0061331641491461746,-0.0009086618369929412,0.27222112962113376
8711,10.0,300.70776,-7128.8532,0.0,0.08711001587052714,0.0,0.0,0.0,0.0,0.4402412198934256,1.1765980737961887,0.5501541223084845,0.0015188451812733488,0.01204560128855829,0.2875983448612467
8712,10.0,300.34562999999997,-7127.6326,0.0,0.08712001185794627,0.0,0.0,0.0,0.0,0.4645189962644556,1.1488933842619489,0.5532099528875715,0.00934055434771594,0.022989169476854376,0.2616084493987438
8713,10.0,300.20727,-6998.7836,0.0,0.08713000784536562,0.0,0.0,0.0,0.0,0.4403040717971286,1.1386634086023288,0.5484879338440445,0.0013103928859007088,0.009184980433986991,0.27761955390141674
8714,10.0,300.25383999999997,-6863.4325,0.0,0.08714000383278497,0.0,0.0,0.0,0.0,0.4448988975556026,1.112596029904679,0.5288171523651896,-0.010205455007199991,-0.0020045092277796582,0.27335003208754777
8715,10.0,300.00275,-6960.3688,0.0,0.08715003281026168,0.0,0.0,0.0,0.0,0.45351869721631055,1.130664609662909,0.5315950383093454,0.02004536889507388,-0.00960224290466759,0.27682708086570573
8716,10.0,299.34434,-7317.5503,0.0,0.08716002879768103,0.0,0.0,0.0,0.0,0.5063098380263905,1.152198606088149,0.5658440873244635,-0.004189974892243326,-0.015993790084964186,0.2749091200164177
8717,10.0,299.32476,-7332.9543,0.0,0.08717002478510039,0.0,0.0,0.0,0.0,0.4716895848371376,1.161594778240479,0.5957506503860115,0.007739617771165804,-0.004417077980881656,0.2674481339650757
8718,10.0,299.41188999999997,-6990.9371,0.0,0.08718002077251974,0.0,0.0,0.0,0.0,0.4465460774481666,1.146085161609799,0.5324390756426456,-0.022005455617269378,-0.0023408213241210775,0.27278037274882677
8719,10.0,299.85347,-6987.4917,0.0,0.08719001675993909,0.0,0.0,0.0,0.0,0.42709181738318064,1.1380245544142789,0.5589066475997915,0.012103664572288689,0.008475159931458164,0.26218000351515175
8720,10.0,300.55691,-7162.169,0.0,0.08720001274735822,0.0,0.0,0.0,0.0,0.4671282368619675,1.1508922227342189,0.5591000871763824,0.005662112587632005,0.004244707521570017,0.2631221943856388
8721,10.0,300.36605,-7153.397,0.0,0.08721000873477758,0.0,0.0,0.0,0.0,0.47750007766808855,1.155101567624649,0.5418523919866675,0.012054864420972488,-0.010670462835842689,0.26274910556631775
8722,10.0,301.07762,-7051.8431,0.0,0.08722000472219715,0.0,0.0,0.0,0.0,0.4673015735565746,1.130054329127679,0.5462283354585395,0.0027966844692862676,-0.005660877334435095,0.27412962671448776
8723,10.0,300.61697999999996,-6891.2873,0.0,0.08723003369967364,0.0,0.0,0.0,0.0,0.4291597493797696,1.1473978271143488,0.5182217480570045,0.0013794217648633285,0.006738542175092333,0.28136745456380574
8724,10.0,300.2359,-6875.5241,0.0,0.08724002968709299,0.0,0.0,0.0,0.0,0.4314347390342936,1.125273916480889,0.5332789687830365,-0.007398059369781613,0.015504207901646186,0.28492745812765075
8725,10.0,299.28056000000004,-7200.4308,0.0,0.08725002567451234,0.0,0.0,0.0,0.0,0.45553841877314155,1.156256166113599,0.5769565734236805,-0.013611630993863385,0.001704691562939958,0.2906658480814857
8726,10.0,299.76684,-7282.2782,0.0,0.0872600216619317,0.0,0.0,0.0,0.0,0.4806916736280745,1.177799180464729,0.5551399308830455,-0.01016924144862599,0.004151239252845416,0.28848113901087175
8727,10.0,299.95997,-7001.4793,0.0,0.08727001764935105,0.0,0.0,0.0,0.0,0.4496378480083006,1.133581655375799,0.5450553870102784,0.004919158604183156,0.004785855421027155,0.2906124700662177
8728,10.0,300.26474,-6870.6731,0.0,0.08728001363677018,0.0,0.0,0.0,0.0,0.4269862975177666,1.1443275779863387,0.5171992165860885,0.02849135360712767,-0.016007046436022486,0.28944132520313476
8729,10.0,300.12154,-7116.937,0.0,0.08729000962418954,0.0,0.0,0.0,0.0,0.4536097782677995,1.1537837345445887,0.5559775847407155,0.012101720145346788,-0.032185424344704075,0.27840879466930873
8730,10.0,300.20172,-7306.8115,0.0,0.08730000561160889,0.0,0.0,0.0,0.0,0.4736031279159896,1.164138238641499,0.5833469391543604,0.008363261656664662,-0.019553817966811583,0.25495868150996276
8731,10.0,299.87663,-7083.5197,0.0,0.0873100345890856,0.0,0.0,0.0,0.0,0.4291360190624276,1.1541832590590189,0.5698938351916425,-0.010345340263005591,0.011907870202465289,0.27431466644774977
8732,10.0,300.14988999999997,-6929.2961,0.0,0.08732003057650517,0.0,0.0,0.0,0.0,0.4495273733498976,1.1093052975549091,0.5475002885740714,-0.005940178508599974,0.008899563687518552,0.25041494382153073
8733,10.0,299.25919,-7112.7952,0.0,0.0873300265639243,0.0,0.0,0.0,0.0,0.47199545464482456,1.142825333388079,0.5472913766684535,-0.013690525686399687,0.007009861978219513,0.27095727237390077
8734,10.0,299.30236,-7349.4411,0.0,0.08734002255134365,0.0,0.0,0.0,0.0,0.49804381463809755,1.1652632502275289,0.5707395342551065,0.0005462149808222215,-0.0072463373263078135,0.27622683150646576
8735,10.0,299.70784,-7304.1325,0.0,0.08735001853876301,0.0,0.0,0.0,0.0,0.4982210219480865,1.153643095430709,0.5684097480351744,0.005551306393796284,0.00990875187051767,0.29001073122933074
8736,10.0,299.40302,-7064.4303,0.0,0.08736001452618214,0.0,0.0,0.0,0.0,0.46102733641985555,1.1407300335062889,0.5456530931117675,0.014034541320601385,0.003487017537941837,0.27220790670732875
8737,10.0,299.9969,-6867.4304,0.0,0.08737001051360149,0.0,0.0,0.0,0.0,0.4260695594897916,1.128308701855399,0.5331491005177195,0.0037228737902190363,-0.004269176194259886,0.27376719728621873
8738,10.0,299.94458,-7069.7295,0.0,0.08738000650102085,0.0,0.0,0.0,0.0,0.4569593297858745,1.137016370564779,0.5550455162387274,0.007775593013316283,-0.0025582680379813974,0.25945033814325474
8739,10.0,299.44649,-7308.8004,0.0,0.08739003547849777,0.0,0.0,0.0,0.0,0.4788468593035055,1.1716777313105888,0.5711682505049175,-0.009537262669129541,0.018415374737455983,0.2691710441701137
8740,10.0,300.19178999999997,-7119.4575,0.0,0.08740003146591713,0.0,0.0,0.0,0.0,0.4460436371210796,1.146841451484439,0.5712522286732055,0.002751773678478917,0.004651698675986915,0.27310081309295176
8741,10.0,299.8243,-6890.1413,0.0,0.08741002745333626,0.0,0.0,0.0,0.0,0.4261698712496915,1.140784445036659,0.5274765718203844,-0.011326147108053687,-0.002438434596354758,0.28487584316755676
8742,10.0,299.47654,-6977.7562,0.0,0.08742002344075539,0.0,0.0,0.0,0.0,0.4332978121256646,1.148571170730149,0.5391946876368724,0.002803191865403497,-0.012584345353478188,0.28153135789998174
8743,10.0,300.14789,-7093.9205,0.0,0.08743001942817497,0.0,0.0,0.0,0.0,0.44174578483441457,1.1543967508550887,0.5602321712481104,0.007721011966204553,0.00990050249482852,0.27795211271673775
8744,10.0,299.81254,-7040.8779,0.0,0.0874400154155941,0.0,0.0,0.0,0.0,0.4540748701962006,1.146960812346219,0.5392153680714136,0.004003059633046226,0.004867605958970305,0.27650691409910777
8745,10.0,299.78727000000003,-6941.2939,0.0,0.08745001140301367,0.0,0.0,0.0,0.0,0.43214395330928757,1.1284925054235388,0.5493435323609855,0.01051261062926389,0.005095679437229404,0.28519721570177375
8746,10.0,300.67984,-6902.3781,0.0,0.0874600073904328,0.0,0.0,0.0,0.0,0.44572575016720656,1.1239640880766189,0.5284607923050195,4.262251136451436e-05,-0.018145703289591482,0.28071076717399573
8747,10.0,300.95281,-7081.2377,0.0,0.08747003636790973,0.0,0.0,0.0,0.0,0.46573677089714055,1.130794103025689,0.5559885987693025,0.016055068411261884,0.0060924026174983235,0.2815680071560987
8748,10.0,300.45531,-7276.8744,0.0,0.08748003235532908,0.0,0.0,0.0,0.0,0.48507984702865353,1.1513098844254388,0.5755983521946344,0.006167280989288245,-0.013634949931664789,0.2688079561292797
8749,10.0,300.52331000000004,-7099.7296,0.0,0.08749002834274822,0.0,0.0,0.0,0.0,0.4524500729983456,1.1419555595022388,0.5637348552537984,-0.013902035565274088,0.0014840741868667187,0.2664326547148557
8750,10.0,300.1739,-6895.9822,0.0,0.08750002433016735,0.0,0.0,0.0,0.0,0.4447505070784576,1.125241188502659,0.5262146802783455,-0.008537015101037793,-0.01067089245388509,0.26230736905272173
8751,10.0,300.18185,-6968.6426,0.0,0.0875100203175867,0.0,0.0,0.0,0.0,0.4338819001458096,1.1377848194406188,0.5466265832778434,0.005015176818109415,0.03141707274087367,0.25735623389658274
8752,10.0,300.13139,-7115.6912,0.0,0.08752001630500628,0.0,0.0,0.0,0.0,0.4643291537257196,1.149339011655929,0.5493243211390896,0.007160566211967863,0.016314359111851882,0.27242899787914876
8753,10.0,299.81189,-7158.7922,0.0,0.08753001229242563,0.0,0.0,0.0,0.0,0.4664509197001216,1.1485880920068188,0.5610550519193225,-0.004920606031951005,0.006363533652131874,0.26216863484902975
8754,10.0,299.54398,-7012.9899,0.0,0.08754000827984476,0.0,0.0,0.0,0.0,0.4335198354875766,1.1498930568106092,0.5483609533415125,-0.014641730429776288,-0.022435640066475276,0.30172740823067673
8755,10.0,299.44833,-6953.133000000001,0.0,0.08755000426726389,0.0,0.0,0.0,0.0,0.4386893767027706,1.132744001518129,0.5421454340480885,-0.0039010807727566962,-0.005532942350308895,0.2719984679116587
8756,10.0,299.41912,-7031.5532,0.0,0.08756003324474104,0.0,0.0,0.0,0.0,0.45365507054726956,1.140428996901579,0.5433325882627514,0.00927521866404281,-0.013038003767750788,0.2897037063165297
8757,10.0,299.91681,-7160.7208,0.0,0.08757002923216017,0.0,0.0,0.0,0.0,0.45039061177259254,1.165754473876009,0.5605352039555175,-0.0018374622831684082,0.012100199256946689,0.28040582955640075
8758,10.0,299.74119,-7141.2783,0.0,0.0875800252195793,0.0,0.0,0.0,0.0,0.4591922391637456,1.1547604063159789,0.5568176703986255,-0.0037728361393999364,0.007453421835370462,0.29562043842046576
8759,10.0,300.0538,-6895.0764,0.0,0.08759002120699866,0.0,0.0,0.0,0.0,0.4168957146744036,1.1379744998593389,0.5410608815385515,-0.004238143890072236,0.028107349044479375,0.26823054542729374
8760,10.0,300.80924,-6868.783,0.0,0.08760001719441823,0.0,0.0,0.0,0.0,0.41663510674868365,1.150568084027229,0.5207353581100784,0.01164071465459909,0.00011710255022212188,0.2934918026103857
8761,10.0,300.58387999999997,-7089.3459,0.0,0.08761001318183759,0.0,0.0,0.0,0.0,0.45041982377297557,1.1440885522877489,0.5604756957771445,-0.001076464240613749,-0.012197061913506288,0.2565038169849558
8762,10.0,300.08387,-7195.0443,0.0,0.08762000916925672,0.0,0.0,0.0,0.0,0.4780973987345396,1.158863258620899,0.5501531191908855,-0.006749832314331583,-0.030359402769739766,0.2723065668695657
8763,10.0,300.10156,-7093.5931,0.0,0.08763000515667585,0.0,0.0,0.0,0.0,0.4445024229239736,1.145536182705619,0.5662366204132034,-0.0005818641286930185,0.004245910046788696,0.2575507475182798
8764,10.0,299.48553,-7031.3716,0.0,0.087640034134153,0.0,0.0,0.0,0.0,0.47292163616373156,1.136190571733279,0.5282492054191376,0.006369737681169164,0.01108552452730609,0.27308453016384476
8765,10.0,299.11586,-7214.9499,0.0,0.08765003012157213,0.0,0.0,0.0,0.0,0.4566122916266246,1.157236282935329,0.5793160681365445,-0.006296673736333314,0.018131896743728882,0.26553259478352675
8766,10.0,299.51946,-7281.468000000001,0.0,0.08766002610899126,0.0,0.0,0.0,0.0,0.4764542718423756,1.152306821198829,0.5846233201728295,-0.0061285988494956135,-0.006607846591068682,0.2811218630045677
8767,10.0,299.99301,-7223.7348,0.0,0.08767002209641062,0.0,0.0,0.0,0.0,0.4797087703685695,1.1555258154415189,0.5606004065994525,-0.018172899935525583,0.0022124761763543978,0.26960690383312974
8768,10.0,300.0096,-7074.4542,0.0,0.08768001808382997,0.0,0.0,0.0,0.0,0.4623052981084806,1.1444420752476387,0.5437100644550055,0.007734916189376793,-0.013318071161641288,0.2715146612539107
8769,10.0,300.21092000000004,-6945.5052,0.0,0.08769001407124954,0.0,0.0,0.0,0.0,0.4343131292558686,1.129713370469029,0.5472336011477514,0.003181082274298377,-0.002451563480550478,0.26361816004458677
8770,10.0,300.1996,-7007.7189,0.0,0.08770001005866868,0.0,0.0,0.0,0.0,0.4459704196688536,1.1539747321884388,0.5302263806042694,-0.0005801087539547765,-0.007198977307358742,0.27637117911571174
8771,10.0,299.72922,-7249.8988,0.0,0.08771000604608781,0.0,0.0,0.0,0.0,0.4545857002341156,1.1631709900960387,0.5860315351618094,-0.010184362179868291,0.017808896929851284,0.25987885174304576
8772,10.0,299.9337,-7176.4677,0.0,0.08772003502356474,0.0,0.0,0.0,0.0,0.45498851781137056,1.174352610249579,0.5521258360755774,-0.004860800363348646,0.005391792761028516,0.2955132770898897
8773,10.0,300.47125,-6960.9066,0.0,0.08773003101098409,0.0,0.0,0.0,0.0,0.43992625109984057,1.149183883065619,0.5268316887942395,-0.006051132434300275,0.008854448422841022,0.2875116207851877
8774,10.0,299.77586,-7103.1823,0.0,0.08774002699840322,0.0,0.0,0.0,0.0,0.4507027130683946,1.1627773424321888,0.5457099668398805,-0.003979979214318366,-0.005057410095527516,0.30662772889430073
8775,10.0,300.26229,-7196.2116,0.0,0.0877500229858228,0.0,0.0,0.0,0.0,0.4673068627220966,1.1725173103434487,0.5476445145933055,0.00917862776116003,0.01119244166460799,0.2813267421747877
8776,10.0,300.12872000000004,-7063.7552,0.0,0.08776001897324193,0.0,0.0,0.0,0.0,0.4482879860925795,1.1603374361913887,0.5385797360186815,0.00963325889552863,0.01034211407468719,0.2956362349895247
8777,10.0,300.41888,-6957.6298,0.0,0.08777001496066128,0.0,0.0,0.0,0.0,0.42576821891005157,1.1356172748266988,0.5535602030496385,-0.003088170583853707,-0.0018519448694977283,0.28626029744169174
8778,10.0,300.26427,-6936.1595,0.0,0.08778001094808063,0.0,0.0,0.0,0.0,0.4297499878280216,1.140720812930379,0.5379484508088784,-0.02091014948442108,-0.011614245522236789,0.28545019385424075
8779,10.0,299.96619,-7160.4208,0.0,0.08779000693549976,0.0,0.0,0.0,0.0,0.4717239137505255,1.141989098080549,0.5628760953965455,-0.008866332225313862,0.004940481945912605,0.2651163516424468
8780,10.0,299.76241,-7348.7518,0.0,0.08780003591297669,0.0,0.0,0.0,0.0,0.48574376902417754,1.165665003892179,0.5824282354211915,-0.006751796398325425,-0.003715001951517147,0.26875894522194277
8781,10.0,299.58041000000003,-7215.0713,0.0,0.08781003190039605,0.0,0.0,0.0,0.0,0.48560579475806054,1.144752332428259,0.5628434079483194,0.013083775314518088,-0.006108091984696745,0.25439872910719974
8782,10.0,299.29176,-7011.6741,0.0,0.0878200278878154,0.0,0.0,0.0,0.0,0.45017694772400557,1.1342343910902188,0.5469625567460015,-0.001970424811640788,-0.010577699789187689,0.25421048750362174
8783,10.0,300.08858,-7072.3128,0.0,0.08783002387523475,0.0,0.0,0.0,0.0,0.4626477259797756,1.139526596362519,0.5476321529420854,0.017970023960753284,0.013453899364046487,0.27153466281088473
8784,10.0,300.29253,-7280.3324,0.0,0.08784001986265388,0.0,0.0,0.0,0.0,0.4864075288996855,1.1567860959158989,0.5698456450168864,-0.004964746955332376,0.0076781486498742725,0.25864810750908074
8785,10.0,300.07816,-7250.6589,0.0,0.08785001585007324,0.0,0.0,0.0,0.0,0.4789745288161055,1.151502097969409,0.5735426703917544,-0.0014634478598810586,0.0037567606225884062,0.26911075578916377
8786,10.0,300.23261,-7012.2458,0.0,0.08786001183749259,0.0,0.0,0.0,0.0,0.4381376417583186,1.1479291754667886,0.5454807696672604,-0.0069720702826147635,-0.02139176144245248,0.28334057674853774
8787,10.0,300.4925,-6914.274,0.0,0.08787000782491172,0.0,0.0,0.0,0.0,0.44472940107887454,1.112877206807429,0.5441599880294095,-0.0014861409130956886,0.0007283817548831823,0.26838145889718773
8788,10.0,300.30201,-7160.7209,0.0,0.0878800038123313,0.0,0.0,0.0,0.0,0.44796851846855057,1.1745051043896289,0.5542066971434424,0.007325694466189752,-0.01024580363943209,0.2927804503776807
8789,10.0,299.78337999999997,-7213.6024,0.0,0.087890032789808,0.0,0.0,0.0,0.0,0.45225937932952553,1.1681542554128488,0.5723414016031985,0.0025465821232530873,-0.00019550709315504781,0.28272066020485676
8790,10.0,299.60524,-6998.6931,0.0,0.08790002877722736,0.0,0.0,0.0,0.0,0.4441074479024926,1.1459774531241689,0.5373430440066296,-0.012661373639330288,0.004907024630260625,0.2776033013698127
8791,10.0,300.28821,-6853.6115,0.0,0.08791002476464671,0.0,0.0,0.0,0.0,0.41829190238469655,1.148915067814089,0.5161197607245546,0.003533597759613947,0.018378713322337783,0.27932560362479075
8792,10.0,300.40561,-6878.433000000001,0.0,0.08792002075206584,0.0,0.0,0.0,0.0,0.44305726483634755,1.118212981834029,0.5296016105926095,0.005192811415665586,0.016454757072208087,0.2793448047141857
8793,10.0,300.15667,-7147.8854,0.0,0.0879300167394852,0.0,0.0,0.0,0.0,0.4685813894928826,1.150375971808269,0.5538212973354064,0.006270996256274144,-0.004081035307741826,0.27520618468073577
8794,10.0,299.84309,-7280.0536,0.0,0.08794001272690455,0.0,0.0,0.0,0.0,0.47844540961388554,1.170656071234759,0.5638530711429655,0.003538197408442897,-0.00975081100455512,0.2770095570762148
8795,10.0,300.40758,-7109.0302,0.0,0.0879500087143239,0.0,0.0,0.0,0.0,0.4621099333566996,1.1377412496863188,0.5611165156703884,-0.007504350014546682,0.001837685704815458,0.28342212311658577
8796,10.0,300.81622000000004,-6958.8502,0.0,0.08796000470174326,0.0,0.0,0.0,0.0,0.4644351802161836,1.131918202686629,0.5189632748776875,0.00012933394814176687,0.01163696258947879,0.27470843570161174
8797,10.0,300.32846,-7057.4153,0.0,0.08797003367921974,0.0,0.0,0.0,0.0,0.44784259174612256,1.1363869396026591,0.5610484961911755,0.0005308167305100325,-0.001042906613201869,0.27015194119442076
8798,10.0,300.04092,-7100.0587,0.0,0.08798002966663931,0.0,0.0,0.0,0.0,0.47631733109136054,1.137980376709919,0.5439428384004784,0.006428379024081614,-0.009327299719182811,0.25532771732888376
8799,10.0,300.19377000000003,-7037.9838,0.0,0.08799002565405867,0.0,0.0,0.0,0.0,0.4492582541233376,1.1442997136085888,0.5458133082175796,0.008416328908126993,-0.0022834385391578378,0.26267860362435974
8800,10.0,300.34358,-6972.126,0.0,0.0880000216414778,0.0,0.0,0.0,0.0,0.45187113228870857,1.123043854335799,0.5444372639192745,0.01002816430672776,0.007731377109427512,0.26011278079363276
8801,10.0,299.71756,-7015.5037,0.0,0.08801001762889715,0.0,0.0,0.0,0.0,0.4533546722901226,1.136841787572549,0.5423414878099375,0.015326166686824884,-0.0010414017341533492,0.26411949592906475
8802,10.0,299.81606,-7225.8761,0.0,0.08802001361631628,0.0,0.0,0.0,0.0,0.4829618604771245,1.155929494281359,0.5575945191177945,-0.01055157718835959,0.0004582398347322505,0.26794035059865373
8803,10.0,300.0814,-7323.3962,0.0,0.08803000960373586,0.0,0.0,0.0,0.0,0.48060959023747357,1.1642656041790689,0.5812544257103455,-0.018333086670334783,0.01886372777420498,0.27023049847467373
8804,10.0,300.20463,-7172.0997,0.0,0.08804000559115521,0.0,0.0,0.0,0.0,0.48193446540572854,1.164784996180329,0.5334197700169325,-0.011489629945438187,0.015333190536518087,0.28743612352023673
8805,10.0,299.88802000000004,-6932.1279,0.0,0.08805003456863192,0.0,0.0,0.0,0.0,0.4349976708909276,1.1347667526927592,0.5374293222526445,-0.005971351451901505,-0.0004501880326800996,0.28273912162167875
8806,10.0,300.09304,-6989.9804,0.0,0.08806003055605105,0.0,0.0,0.0,0.0,0.4368316029094226,1.158925573502049,0.5290223051129365,0.008679724386197102,-0.01091393771562179,0.2966858810331167
8807,10.0,300.54798,-7145.996,0.0,0.08807002654347063,0.0,0.0,0.0,0.0,0.4611298773299755,1.167111823709969,0.5439626575724344,0.004911715370273565,-0.01148157866014359,0.27879382970730876
8808,10.0,300.73971,-6967.9598,0.0,0.08808002253088976,0.0,0.0,0.0,0.0,0.44197122284916357,1.129396324512739,0.5467182216168874,0.00924893830017414,0.008301644600858533,0.2891161732460447
8809,10.0,300.53721,-6895.1638,0.0,0.08809001851830911,0.0,0.0,0.0,0.0,0.4165705424523116,1.159404840799349,0.5199822701057545,0.009710926339543811,-0.007964236066583903,0.2885550758706687
8810,10.0,300.2523,-7068.3174,0.0,0.08810001450572824,0.0,0.0,0.0,0.0,0.45206410577025363,1.1458327610098888,0.5506950864043735,0.0028053224263887675,-0.008659614006162362,0.26700319558116375
8811,10.0,300.31993,-7253.1709,0.0,0.0881100104931476,0.0,0.0,0.0,0.0,0.4611147495059825,1.168486196145609,0.5751818861385324,0.013257815204694486,0.008918934394980291,0.26970773235058076
8812,10.0,299.66404,-7296.7396,0.0,0.08812000648056717,0.0,0.0,0.0,0.0,0.47878141347954656,1.1742573647401788,0.5649879011224644,-0.0027795048138407673,0.001991028543149218,0.25487131908634075
8813,10.0,299.07866,-7137.1424,0.0,0.08813003545804388,0.0,0.0,0.0,0.0,0.48047031901122855,1.136919402530209,0.5521233130828285,-0.0008221585683957333,-0.01191524666319329,0.26775669901802873
8814,10.0,299.45451,-7048.6604,0.0,0.08814003144546301,0.0,0.0,0.0,0.0,0.46158000355439954,1.138538474864999,0.5424983186604154,-0.017093389358486186,-0.010721211467101189,0.26074467395349576
8815,10.0,299.85127,-7129.3956,0.0,0.08815002743288236,0.0,0.0,0.0,0.0,0.4748249656815755,1.1347599639170889,0.5575732712631974,0.012907608612381789,0.006485733843342094,0.28416367020227074
8816,10.0,300.88298,-7198.1133,0.0,0.08816002342030171,0.0,0.0,0.0,0.0,0.4842850536502135,1.1446318569913687,0.5591297754043125,-0.015469923571262586,0.016218589752150184,0.25906846444556675
8817,10.0,299.97332,-7050.2704,0.0,0.08817001940772107,0.0,0.0,0.0,0.0,0.4495212229217906,1.140959433328929,0.5526255406273944,0.0100887195777541,0.0027861457563211774,0.2852693084463887
8818,10.0,300.23447000000004,-6882.8282,0.0,0.08818001539514042,0.0,0.0,0.0,0.0,0.4251306616821296,1.1322410241684888,0.5348361619342195,-0.006981262994147014,-0.01156009743689279,0.26251815547102475
8819,10.0,300.55413,-6919.6944,0.0,0.08819001138255955,0.0,0.0,0.0,0.0,0.4394848185612745,1.139453541030309,0.5244759228417435,0.01176326725419409,-0.004552532395324966,0.2851144736986077
8820,10.0,299.99179,-7224.3952,0.0,0.08820000736997913,0.0,0.0,0.0,0.0,0.4531132249237935,1.1800697726138187,0.5628527298492395,0.002062535527881408,-0.006536324407584993,0.27502019249237974
8821,10.0,299.33277000000004,-7207.9089,0.0,0.08821003634745583,0.0,0.0,0.0,0.0,0.4687156755286355,1.1688122600277888,0.5534964189558434,0.004172153646834506,-0.025321387497026376,0.2782332693544858
8822,10.0,299.57117,-7015.2809,0.0,0.08822003233487496,0.0,0.0,0.0,0.0,0.43505345030893255,1.1557286681115388,0.5416880833504515,-0.006848181611437904,0.0069618789117839525,0.2829362392961327
8823,10.0,299.34561,-7052.62,0.0,0.08823002832229432,0.0,0.0,0.0,0.0,0.4302714671244876,1.156164973604599,0.5573839860120164,0.019635495044122483,0.01087288386132009,0.2817523680117937
8824,10.0,299.26198,-7213.1392,0.0,0.08824002430971367,0.0,0.0,0.0,0.0,0.47815241821496957,1.1589391510533888,0.5555226759758194,0.0043895601346658555,0.02094003225637028,0.27571152290310874
8825,10.0,299.15457000000004,-7226.967,0.0,0.08825002029713302,0.0,0.0,0.0,0.0,0.4717563377537255,1.1664760092722188,0.5585851737405645,-0.008531542131947652,-0.014718084904311887,0.2908254045747327
8826,10.0,298.96285,-7146.5894,0.0,0.08826001628455238,0.0,0.0,0.0,0.0,0.4638302901714856,1.147842339933219,0.5607120768929735,-0.008714926822496312,-0.026099835124853178,0.2834443639562807
8827,10.0,300.90992,-6888.7478,0.0,0.08827001227197151,0.0,0.0,0.0,0.0,0.4442047097795916,1.131722949392359,0.5180796397304794,-0.002081422712395428,-0.004841871027630465,0.2961098078212627
8828,10.0,300.18685,-7010.518,0.0,0.08828000825939086,0.0,0.0,0.0,0.0,0.44725582874571357,1.147158294790709,0.5366083363591194,-0.0014002320980671488,0.006676708790389853,0.26945757103339174
8829,10.0,299.51633,-7216.7356,0.0,0.08829000424681022,0.0,0.0,0.0,0.0,0.4560934974429236,1.169764917771809,0.5678489951648324,0.009571475464056081,0.0014727108909702487,0.27974508916619073
8830,10.0,299.86339,-7108.8221,0.0,0.08830003322428692,0.0,0.0,0.0,0.0,0.4701194018196726,1.1396890203535488,0.5510960092039414,-0.005644460858964915,0.013056820835357886,0.24300746750796978
8831,10.0,300.40402,-6985.3109,0.0,0.08831002921170628,0.0,0.0,0.0,0.0,0.4384369659703596,1.142258217307109,0.5426649172418575,0.01222485739024949,0.010387919058707791,0.2738750476268627
8832,10.0,299.85228,-7077.4698,0.0,0.08832002519912563,0.0,0.0,0.0,0.0,0.46361883500811657,1.139273689137559,0.5484815301034125,0.0013949760658234188,0.004054543275927266,0.26600765709291174
8833,10.0,300.13079,-7274.1538,0.0,0.08833002118654498,0.0,0.0,0.0,0.0,0.4873198187597216,1.162535378308309,0.5613059326440825,-0.0026317596756844576,-0.015333100357259185,0.27860973229663977
8834,10.0,300.05249,-7334.1478,0.0,0.08834001717396434,0.0,0.0,0.0,0.0,0.49318606061117454,1.1612625335326887,0.5749491729880655,0.002728484023605407,-0.003842208611471466,0.26800579642261274
8835,10.0,300.34722,-7156.9119,0.0,0.08835001316138347,0.0,0.0,0.0,0.0,0.4619758499709666,1.149860430157389,0.5636861989839964,3.1423370090245172e-06,0.002727662683074347,0.27973036664223777
8836,10.0,300.68158999999997,-6949.414000000001,0.0,0.08836000914880282,0.0,0.0,0.0,0.0,0.44112762121340654,1.126229006025149,0.5450917424238665,-0.0012242079602199187,0.008496065206196352,0.2696773348475807
8837,10.0,299.7962,-6982.3218,0.0,0.08837000513622217,0.0,0.0,0.0,0.0,0.42955964879673664,1.155420336106109,0.5374714937218065,-0.006353865321002683,-0.018241473662543285,0.29195525949624074
8838,10.0,299.13797999999997,-7100.2247,0.0,0.08838003411369888,0.0,0.0,0.0,0.0,0.44680733385395055,1.159737288157159,0.5517463941781295,-0.0090340285619142,-0.008715335567586652,0.2874731780763937
8839,10.0,299.80178,-7092.2466,0.0,0.08839003010111823,0.0,0.0,0.0,0.0,0.4490175160320786,1.166525253227079,0.5403231442732425,-0.0024942335700866877,-0.00982942198706342,0.2784321906141177
8840,10.0,299.51948,-7002.2283,0.0,0.08840002608853759,0.0,0.0,0.0,0.0,0.42417211695502866,1.164789251830749,0.5395412090385715,-0.0038146003833467463,0.015513989818111586,0.2939453232226447
8841,10.0,299.5999,-6978.415,0.0,0.08841002207595694,0.0,0.0,0.0,0.0,0.4271313544020826,1.1575872727699688,0.5365453020703984,-0.0075865610746602835,0.008616003823183373,0.28807630506591775
8842,10.0,299.85479,-7181.1568,0.0,0.0884200180633763,0.0,0.0,0.0,0.0,0.4635357079699125,1.161074980939179,0.5582817053356145,0.003997332844806036,0.013448696324782987,0.2777050215473517
8843,10.0,300.4376,-7350.4949,0.0,0.08843001405079542,0.0,0.0,0.0,0.0,0.4862840846400025,1.1584799461080688,0.5896028972592754,0.0006874880650247893,0.016192352654060785,0.2779441283059497
8844,10.0,300.02907999999996,-7224.8031,0.0,0.08844001003821478,0.0,0.0,0.0,0.0,0.47821222023587157,1.156407647003549,0.5615399326221765,-0.004579251699136956,-0.002286245647234878,0.2710118865542907
8845,10.0,300.34635,-7028.0564,0.0,0.08845000602563391,0.0,0.0,0.0,0.0,0.4470157897970236,1.1573333522949092,0.5320045129397575,0.0029284552129910275,-0.019583253895466682,0.28878784981614175
8846,10.0,300.27799,-7070.4566,0.0,0.08846003500311084,0.0,0.0,0.0,0.0,0.4572250951546036,1.1319507280148389,0.5600664237967524,-0.006771796030124234,-0.01050297766056319,0.26624161654100176
8847,10.0,300.23286,-7199.6707,0.0,0.08847003099053019,0.0,0.0,0.0,0.0,0.4747685479160076,1.1522572732689387,0.5614943161026744,0.018967755122221684,-0.010686938282468689,0.27848031999386774
8848,10.0,300.04977,-7169.9452,0.0,0.08848002697794954,0.0,0.0,0.0,0.0,0.4691201649685555,1.147403703964929,0.5629604585998714,0.0005631322247568234,0.007756393241146413,0.26385158247012375
8849,10.0,300.05284,-7037.2922,0.0,0.0884900229653689,0.0,0.0,0.0,0.0,0.43687000508821255,1.1572748877641388,0.5450162147614125,-0.002658236002122467,0.002647705091183147,0.2890989378618437
8850,10.0,299.91717,-7057.486,0.0,0.08850001895278825,0.0,0.0,0.0,0.0,0.45350897001535057,1.157998753635579,0.5337918354536525,-0.0024882346228696376,0.004908159267722605,0.2716886565610827
8851,10.0,299.70254,-7159.6978,0.0,0.08851001494020738,0.0,0.0,0.0,0.0,0.4644410570667636,1.1570824715701489,0.5548458350415205,0.002001645580347038,0.015942424384394787,0.28930248967443273
8852,10.0,299.33751,-7242.8165,0.0,0.08852001092762674,0.0,0.0,0.0,0.0,0.4695570682791745,1.163581255061529,0.5684970597962915,-0.0027332105313468773,0.006963571242100974,0.2732527094154427
8853,10.0,299.77262,-7111.2151,0.0,0.08853000691504609,0.0,0.0,0.0,0.0,0.4679963591501446,1.1579295486537489,0.5357059560850614,0.0005545872941460045,0.002734477600596927,0.28468488605371073
8854,10.0,300.19316000000003,-6922.6625,0.0,0.0885400358925228,0.0,0.0,0.0,0.0,0.4311590640795866,1.131552014100489,0.5416055135998025,-0.011988885627460887,0.001936468976939608,0.26938746425897275
8855,10.0,300.87862,-6935.2148,0.0,0.08855003187994215,0.0,0.0,0.0,0.0,0.43078764712293055,1.1408607427691888,0.5364837369943225,0.011778195467917389,0.008047114554538371,0.2904189494296187
8856,10.0,300.26839,-7206.501,0.0,0.0885600278673615,0.0,0.0,0.0,0.0,0.4690725827438595,1.1614669060778589,0.5600569195108145,-0.010424493334317391,0.004920953070110256,0.28249463450504975
8857,10.0,300.45297,-7142.0926,0.0,0.08857002385478085,0.0,0.0,0.0,0.0,0.45267403166794856,1.162807942585209,0.5555357874321135,0.0019064868051555984,-0.0017796146190592883,0.2919556749287817
8858,10.0,300.09423,-6981.4833,0.0,0.08858001984220021,0.0,0.0,0.0,0.0,0.4284307058003186,1.160895635671479,0.5328702946202035,-0.009580382337735121,-0.023536517048373378,0.28609029433991373
8859,10.0,300.00826,-6959.5698,0.0,0.08859001582961934,0.0,0.0,0.0,0.0,0.44937690571004757,1.123866309441969,0.5422922438550775,-0.0018073018806918082,0.0023084502125762974,0.2817840726074227
8860,10.0,299.51007999999996,-7129.7817,0.0,0.08860001181703869,0.0,0.0,0.0,0.0,0.45214676671341153,1.1532868366955489,0.5618420534044936,0.003983481715939036,0.0015611035872939284,0.27088317339408774
8861,10.0,299.31372000000005,-7239.8419,0.0,0.08861000780445805,0.0,0.0,0.0,0.0,0.4804303766922865,1.161632065844159,0.5586686756813055,-0.007976067788001601,0.006894477211156924,0.2636729464774938
8862,10.0,299.26046,-7250.7282,0.0,0.08862003678193475,0.0,0.0,0.0,0.0,0.47206036344623054,1.157514318762769,0.5744656804378484,-0.0025140173796141976,0.009629843837391591,0.25831300543600877
8863,10.0,299.9498,-7117.855,0.0,0.08863003276935433,0.0,0.0,0.0,0.0,0.46119363102626754,1.153970780513049,0.5484857654888304,-0.006487328597674483,0.01891701054396358,0.27478732735439776
8864,10.0,300.15551,-7182.6554,0.0,0.08864002875677346,0.0,0.0,0.0,0.0,0.4711511336014965,1.148859136408569,0.5633376612145985,0.012498125875968989,0.02004205962024728,0.27015488975221175
8865,10.0,300.33065,-7332.0053,0.0,0.08865002474419281,0.0,0.0,0.0,0.0,0.4965701842226615,1.1709351203122988,0.5612412568901995,0.003304972769325417,-0.006843024371078923,0.27539010983888773
8866,10.0,300.18604,-7257.6061,0.0,0.08866002073161194,0.0,0.0,0.0,0.0,0.4682253131427405,1.1598177402150989,0.5780880090153444,0.018291602184740584,-0.026956023353352374,0.2758193327137487
8867,10.0,300.21257,-7051.5615,0.0,0.0886700167190313,0.0,0.0,0.0,0.0,0.4701788086730356,1.134856425326609,0.5384633845096984,0.004189388625735466,-0.005329067310937995,0.27429646847595374
8868,10.0,299.97556000000003,-6956.08,0.0,0.08868001270645065,0.0,0.0,0.0,0.0,0.43354737562529455,1.143174904672579,0.5377522855895185,0.003984398301979496,-0.0035696339994204466,0.28261114813404875
8869,10.0,299.60062,-7086.4821,0.0,0.08869000869387,0.0,0.0,0.0,0.0,0.4474085761982886,1.1659009898404689,0.5408039821081975,-0.014125977009625385,0.0007061139627355223,0.2879644625198797
8870,10.0,299.98652999999996,-7053.4166,0.0,0.08870000468128936,0.0,0.0,0.0,0.0,0.4466927656651436,1.152729143840509,0.5446406333468454,-0.0016437470012251986,-0.002067809899951948,0.2794692419589667
8871,10.0,300.25903,-6986.6665,0.0,0.08871003365876629,0.0,0.0,0.0,0.0,0.43392901627545954,1.1560579743940387,0.5337851784004956,-0.002688505632959847,0.01061645964526299,0.2904901201166427
8872,10.0,300.10062,-6963.5577,0.0,0.08872002964618542,0.0,0.0,0.0,0.0,0.4435852289334536,1.1340261681946688,0.5391362028411004,0.012312502510649389,-0.001953035008124548,0.27650385408380573
8873,10.0,300.83009,-6998.1386,0.0,0.08873002563360477,0.0,0.0,0.0,0.0,0.44621959813344564,1.156735433410899,0.5243043188048075,0.008054812519523101,0.002049767968671348,0.28393590171229177
8874,10.0,300.93306,-7146.2815,0.0,0.0887400216210239,0.0,0.0,0.0,0.0,0.46052493662277255,1.1576330716744887,0.5541331554511845,0.0035239450325362967,-0.01003303256815822,0.28306513484135376
8875,10.0,300.5206,-7230.4837,0.0,0.08875001760844325,0.0,0.0,0.0,0.0,0.4770329288419846,1.1488643039840791,0.5719893174584504,-0.0036422672116387866,0.003753750053891286,0.28309602883690277
8876,10.0,299.90379,-7083.5542,0.0,0.08876001359586283,0.0,0.0,0.0,0.0,0.4589917878964626,1.144744834377519,0.5494869883101435,-0.002425078034861568,0.0024529194118342976,0.2715860852534597
8877,10.0,299.82527999999996,-6916.380999999999,0.0,0.08877000958328196,0.0,0.0,0.0,0.0,0.43858247881722057,1.1218970578726188,0.5419275447465844,-0.005353885554912365,-0.0024279597181459675,0.28388269594954074
8878,10.0,299.79884,-7021.9911,0.0,0.08878000557070131,0.0,0.0,0.0,0.0,0.45174565139632455,1.1307548902468187,0.5520094440365905,0.012290510930478988,-0.013297906471401187,0.2671460334477607
8879,10.0,300.29545,-7096.0528,0.0,0.08879003454817802,0.0,0.0,0.0,0.0,0.45671058701882555,1.156552744417869,0.5437595718548914,-0.001111808227951929,-0.0037797957490367964,0.26247640956690477
8880,10.0,300.14506,-7088.4207,0.0,0.08880003053559737,0.0,0.0,0.0,0.0,0.4589919601489796,1.136406697979609,0.5593042165415285,0.004150811559978206,0.0036461289104199063,0.26561387770654876
8881,10.0,300.08936,-7033.3711,0.0,0.08881002652301673,0.0,0.0,0.0,0.0,0.4438184993714756,1.147962815370109,0.5461878865145475,0.0001256716671128279,0.015121681670893786,0.26743579257885775
8882,10.0,300.39859,-7073.0761,0.0,0.08882002251043586,0.0,0.0,0.0,0.0,0.45517006183178754,1.1412719196597687,0.5535964875357194,-0.004654590187797285,0.0018974526672639984,0.2667460124407817
8883,10.0,300.36136,-7272.3698,0.0,0.08883001849785521,0.0,0.0,0.0,0.0,0.4693219435934695,1.1607369607058189,0.5805599339593045,0.010377735895202791,0.005361358274399865,0.2714024134078327
8884,10.0,299.30034,-7385.2016,0.0,0.08884001448527457,0.0,0.0,0.0,0.0,0.49737436029702753,1.1746969126335591,0.5728455543229545,0.0015989033888994786,-0.0004131730236745026,0.2773896069237227
8885,10.0,299.40634,-7176.6784,0.0,0.08885001047269392,0.0,0.0,0.0,0.0,0.47272143820897355,1.146495629225309,0.5623139239760634,0.014873700867919986,-0.004730566010770516,0.28073673677405875
8886,10.0,299.61163,-6952.8947,0.0,0.08886000646011327,0.0,0.0,0.0,0.0,0.4390252387134176,1.1439818570522189,0.5304992387236984,-0.0012986800187197388,-0.015189013153288885,0.28975283881387875
8887,10.0,299.61143,-6878.3888,0.0,0.08887003543758998,0.0,0.0,0.0,0.0,0.4233314233470586,1.141712987428299,0.5258140310563045,0.00014604336434835788,-0.0015516084206068283,0.29156227044495575
8888,10.0,299.90127,-7016.3667,0.0,0.08888003142500933,0.0,0.0,0.0,0.0,0.4403898636830955,1.1524903207919388,0.5399201037809654,-0.004906715487655115,0.0016020153839316083,0.28292174981970275
8889,10.0,300.06441,-7104.3488,0.0,0.08889002741242868,0.0,0.0,0.0,0.0,0.4468518661958456,1.1560518948934388,0.5566408379911735,0.003511342126467487,0.0012959009776704689,0.2922510981279377
8890,10.0,300.07063,-6944.1958,0.0,0.08890002339984782,0.0,0.0,0.0,0.0,0.4352712990804326,1.140420080300699,0.5351707168522375,-0.004217693868603976,-0.024379278699797478,0.2836470038437797
8891,10.0,300.33684,-6963.6637,0.0,0.08891001938726717,0.0,0.0,0.0,0.0,0.42561878478530357,1.150448723165449,0.5407123437691534,0.003787920697613666,-0.009546867368152452,0.2922297692133327
8892,10.0,299.90282,-7196.4542,0.0,0.08892001537468652,0.0,0.0,0.0,0.0,0.4538810658495736,1.163361886414879,0.5702994290741714,-0.002831392236886657,0.017940159427305882,0.2802447835855067
8893,10.0,300.3311,-7287.3949,0.0,0.08893001136210588,0.0,0.0,0.0,0.0,0.48056141019521853,1.1648251208842888,0.5697995421373364,0.006484870047631844,0.017949951476272284,0.27063400506199675
8894,10.0,300.46587,-7249.9173,0.0,0.08894000734952523,0.0,0.0,0.0,0.0,0.46656897346927256,1.170316429801239,0.5669083950970025,-0.012450662201534688,0.017444415670129783,0.27260346941386776
8895,10.0,300.0185,-7150.7217,0.0,0.08895003632700194,0.0,0.0,0.0,0.0,0.47273793392060154,1.1496618331377888,0.5512411066182615,-0.0025287456790927675,0.01177558736215999,0.26162718439309274
8896,10.0,300.16787999999997,-7046.6934,0.0,0.08896003231442129,0.0,0.0,0.0,0.0,0.46746784789798457,1.1354431984595188,0.5391077811757955,-0.00033339036941306766,-0.004689592608526756,0.2745332346268207
8897,10.0,299.57273,-7161.0143,0.0,0.08897002830184064,0.0,0.0,0.0,0.0,0.4797222060648955,1.153520492168609,0.5435268789694264,0.005925076117184484,-0.009009561713074512,0.26155971206893375
8898,10.0,299.53742,-7191.6241,0.0,0.08898002428925977,0.0,0.0,0.0,0.0,0.4764880333357076,1.1494532049421988,0.5601329031358134,-0.005388996089427505,-0.01843508650490138,0.28497299358714473
8899,10.0,299.79348999999996,-7135.696,0.0,0.08899002027667913,0.0,0.0,0.0,0.0,0.4571196867467006,1.159161762100359,0.5527919770888204,0.013103455671210386,-0.015292267391479287,0.27231707427310275
8900,10.0,299.36341,-7167.9144,0.0,0.08900001626409848,0.0,0.0,0.0,0.0,0.4413823826860495,1.1737408098391988,0.5637438427821855,-0.004805099776201425,0.005541939099271805,0.30551030655151973
8901,10.0,299.33099,-7220.8146,0.0,0.08901001225151783,0.0,0.0,0.0,0.0,0.45901591338134357,1.1523487697529688,0.5835826312601214,0.024927199770873078,0.008974814935345271,0.27004156786102773
8902,10.0,299.91662,-7168.2683,0.0,0.08902000823893719,0.0,0.0,0.0,0.0,0.4579364372548076,1.1667877863279887,0.5542503175602475,-0.0024766962373558876,0.0021241243140097477,0.28954275153814474
8903,10.0,299.73707,-7128.0083,0.0,0.08903000422635632,0.0,0.0,0.0,0.0,0.44434145801308755,1.160511309908549,0.5618837587786094,0.002201049653651688,0.0031793210429745568,0.27340740230820976
8904,10.0,300.20547,-7029.3335,0.0,0.08904003320383302,0.0,0.0,0.0,0.0,0.4503987177733925,1.1548634538511489,0.5314796493879574,-0.01195637448475229,0.014622439161122385,0.28604132396258075
8905,10.0,299.84084,-7006.8311,0.0,0.0890500291912526,0.0,0.0,0.0,0.0,0.4453052513757066,1.1416105478431888,0.5429858844760345,-0.01910934263819528,0.018880177889578482,0.27609030618799174
8906,10.0,299.7295,-7129.5453,0.0,0.08906002517867195,0.0,0.0,0.0,0.0,0.46338706418024256,1.1575119882875389,0.5463047041185765,-0.004795769769280625,0.006046917719184313,0.2936343567669547
8907,10.0,299.94046000000003,-7220.4493,0.0,0.08907002116609108,0.0,0.0,0.0,0.0,0.47052509702721157,1.1724092978827887,0.5519019280684796,-0.005222412200111955,-0.02074741543886048,0.2836466593387457
8908,10.0,299.75091000000003,-7209.5123,0.0,0.08908001715351044,0.0,0.0,0.0,0.0,0.4753506904959605,1.1626886830484389,0.5534723643984695,0.0035211177607822673,-0.011014645656310888,0.28513432326806676
8909,10.0,299.75116,-7080.7537,0.0,0.08909001314092957,0.0,0.0,0.0,0.0,0.4509888751616366,1.145131287965659,0.5562521755178155,0.011547484499647988,-0.026491820045289074,0.28430076294080076
8910,10.0,300.37314,-7091.104,0.0,0.08910000912834914,0.0,0.0,0.0,0.0,0.4565844069838726,1.1470218100022387,0.5519123240145055,0.014161268510608387,-0.0012760976124160288,0.27932745787247376
8911,10.0,299.74618,-7223.7363,0.0,0.08911000511576828,0.0,0.0,0.0,0.0,0.45509860743473557,1.1555126431902187,0.5852241673496285,0.0006745053218909924,0.002678544675201778,0.25140058285630573
8912,10.0,299.75487000000004,-7115.5973,0.0,0.08912003409324498,0.0,0.0,0.0,0.0,0.4460501827167256,1.155520850516029,0.5613928796351635,0.004657212985681136,0.01767734565611818,0.27220808909234673
8913,10.0,299.42618999999996,-6961.3971,0.0,0.08913003008066434,0.0,0.0,0.0,0.0,0.44476170349206257,1.123977159002909,0.5473519994219365,-0.014869950829299886,0.018501875898492982,0.24525357953464375
8914,10.0,299.31256,-7080.8115,0.0,0.08914002606808391,0.0,0.0,0.0,0.0,0.46703165386243556,1.137597672147149,0.5477605621272585,-0.00010334613997446989,0.005454355685802995,0.2615892685743508
8915,10.0,299.4975,-7208.4823,0.0,0.08915002205550304,0.0,0.0,0.0,0.0,0.47985798157829557,1.158714310856199,0.5526263106974705,0.0013222185278178088,-0.009596266248952741,0.25963347296632877
8916,10.0,300.13792,-7296.5575,0.0,0.0891600180429224,0.0,0.0,0.0,0.0,0.4910988363326816,1.174118853451509,0.5527535951750325,-0.01060711950584119,-0.003240549314717317,0.29688861211312473
8917,10.0,299.98278999999997,-7336.6639,0.0,0.08917001403034153,0.0,0.0,0.0,0.0,0.47960281480561257,1.175352384123249,0.5752074200410525,-0.0036744760005175464,0.001908638847042988,0.2829023359477867
8918,10.0,300.51518,-7091.6391,0.0,0.0891800100177611,0.0,0.0,0.0,0.0,0.44395154924210656,1.1621684804470989,0.5495611480849625,-0.013850626294950385,0.0027163477192076475,0.3124919645105557
8919,10.0,300.17665,-6910.6272,0.0,0.08919000600518046,0.0,0.0,0.0,0.0,0.43525905901922457,1.1347236895635089,0.5306753010610745,0.013854657003848185,0.0012171406420974288,0.2906884840887198
8920,10.0,300.04992000000004,-6971.4932,0.0,0.08920003498265694,0.0,0.0,0.0,0.0,0.42749625616059556,1.1496415681357888,0.5420219999209065,0.015659627294734885,0.003463862240031587,0.3001075252958067
8921,10.0,299.83675,-6984.0669,0.0,0.08921003097007629,0.0,0.0,0.0,0.0,0.4314143727072836,1.145949994046459,0.5456175989607644,0.016049359760198483,0.006394894350676934,0.26911266069935175
8922,10.0,299.92922999999996,-6901.3196,0.0,0.08922002695749565,0.0,0.0,0.0,0.0,0.4243506617551496,1.1454167205188288,0.5280613995131025,-0.007746717614616502,-0.0037960916477450765,0.28672366684492273
8923,10.0,299.77098,-7045.4731,0.0,0.089230022944915,0.0,0.0,0.0,0.0,0.4336508385930055,1.161011551482919,0.5469855372582694,-0.006879448786998733,-0.009101744978022292,0.27449552145809875
8924,10.0,300.09302,-7277.9326,0.0,0.08924001893233435,0.0,0.0,0.0,0.0,0.46212510171069654,1.1791467017727189,0.5710379668070594,-0.0050973766311469045,0.007999913717180012,0.2937544573013077
8925,10.0,299.34366,-7367.0808,0.0,0.08925001491975348,0.0,0.0,0.0,0.0,0.49601951319081455,1.174820225170729,0.5685688384333755,-0.006027721392064784,0.0004278633972018296,0.26769429294436975
8926,10.0,299.74703,-7208.6184,0.0,0.08926001090717284,0.0,0.0,0.0,0.0,0.4847547254690665,1.149034428675869,0.5574508503861155,-0.007769010839341673,0.002982634101138067,0.2881568888463707
8927,10.0,299.83691,-7130.6851,0.0,0.08927000689459241,0.0,0.0,0.0,0.0,0.48856524498763554,1.131990143443729,0.5469947882316825,0.008200799263455872,-0.00880639047722307,0.2613498477082218
8928,10.0,300.01998,-7039.2796,0.0,0.0892800358720689,0.0,0.0,0.0,0.0,0.46171865669808354,1.1388691996976388,0.5391773813251645,0.005691342218566745,0.007889971623029573,0.2758142056682428
8929,10.0,299.86519,-7091.6453,0.0,0.08929003185948847,0.0,0.0,0.0,0.0,0.44688263860138255,1.135543003594369,0.5732573999586005,0.003600976662113726,-0.002845299702459217,0.26023176675287574
8930,10.0,300.22799,-7212.4490000000005,0.0,0.0893000278469076,0.0,0.0,0.0,0.0,0.47162728008848853,1.1556678731055388,0.5651092276894385,-0.006050420930080055,-0.0055404287486727445,0.27290525582365177
8931,10.0,300.05109,-7127.775,0.0,0.08931002383432696,0.0,0.0,0.0,0.0,0.45766442013296155,1.152133859406759,0.5568672892560225,-0.0001829214528679418,-0.006994184668697284,0.2609610535123507
8932,10.0,300.76777000000004,-7001.1318,0.0,0.08932001982174631,0.0,0.0,0.0,0.0,0.4430252056031836,1.1426246085432687,0.5425194449250005,0.002138736697676878,0.004734051895089545,0.2793311765003407
8933,10.0,299.93639,-7191.2841,0.0,0.08933001580916544,0.0,0.0,0.0,0.0,0.4604929787146186,1.171079103151509,0.5543986675073885,0.008632511693812572,0.00931083754613312,0.26672085344079877
8934,10.0,300.39288999999997,-7280.695,0.0,0.0893400117965848,0.0,0.0,0.0,0.0,0.4635153720404056,1.182104277489609,0.5675298517808355,-0.0024483261464809778,0.0008779155327785172,0.2868872966035717
8935,10.0,300.30285,-7083.1776,0.0,0.08935000778400415,0.0,0.0,0.0,0.0,0.43802736974993556,1.164789555805779,0.5502922080321124,0.002004051441384478,-0.005448350963060375,0.29574297075505873
8936,10.0,300.81982999999997,-6990.946999999999,0.0,0.08936003676148108,0.0,0.0,0.0,0.0,0.4419410685261876,1.150195005340409,0.5329372096568075,0.001116404127755509,-0.007618974033434192,0.2973068310918997
8937,10.0,300.17165,-7040.7306,0.0,0.08937003274890043,0.0,0.0,0.0,0.0,0.44461681886026355,1.153896813255749,0.5416926835059055,-0.0034684828631376063,-0.003925540731495707,0.2928090442955027
8938,10.0,300.19206,-7050.2404,0.0,0.08938002873631956,0.0,0.0,0.0,0.0,0.44576156855824156,1.159947537552909,0.5373879309860594,-0.008287488179736404,0.006629200532951154,0.29598277665622574
8939,10.0,299.97024,-7115.5251,0.0,0.08939002472373891,0.0,0.0,0.0,0.0,0.46818969740172556,1.1468318256084888,0.5479204529930385,-0.01084210841603279,0.004349104908523235,0.28295649416563173
8940,10.0,300.18091,-7125.6868,0.0,0.08940002071115827,0.0,0.0,0.0,0.0,0.4439700613214336,1.1625286908576489,0.5595320660915155,-0.00039386010186596564,0.006803477928950994,0.27672382054801475
8941,10.0,299.33066,-7016.4109,0.0,0.0894100166985774,0.0,0.0,0.0,0.0,0.4317997522503176,1.1468439846096887,0.5541700073573215,-0.017368072341345284,-0.0028094141329425876,0.2714679504243007
8942,10.0,300.12331,-7114.3532,0.0,0.08942001268599697,0.0,0.0,0.0,0.0,0.43835486231475657,1.158603866595299,0.5656269984905384,0.005126371492033475,-0.00035544777030996366,0.27395868129011675
8943,10.0,300.1792,-7272.0496,0.0,0.0894300086734161,0.0,0.0,0.0,0.0,0.4793523799108966,1.167388238337249,0.5637809277358454,-0.0012983999563920988,-0.0038500907853243767,0.2614308874512198
8944,10.0,300.75562,-7186.3904,0.0,0.08944000466083546,0.0,0.0,0.0,0.0,0.48423150338242854,1.147546268253999,0.5527055063252865,0.01079711403209219,0.001108837986608789,0.2691410722321557
8945,10.0,300.45117999999997,-7107.7909,0.0,0.08945003363831239,0.0,0.0,0.0,0.0,0.47709902314600755,1.1353629490515988,0.5481289697311175,-0.004845477387386386,-0.005976298037564694,0.2593361043269808
8946,10.0,300.02034,-7219.298000000001,0.0,0.08946002962573152,0.0,0.0,0.0,0.0,0.4694282335289595,1.151102776104999,0.5739553063624785,-0.0007406240351089013,0.010075248113699569,0.2812466650193848
8947,10.0,299.67509,-7254.4642,0.0,0.08947002561315065,0.0,0.0,0.0,0.0,0.49190682222742355,1.1436738290218187,0.5695953519771845,-0.01000478680307058,-0.007992094972783362,0.2663914357007877
8948,10.0,299.99942999999996,-7123.6351,0.0,0.08948002160057023,0.0,0.0,0.0,0.0,0.4640247328656756,1.147011576176229,0.5543709449846524,-0.005894291147346245,-0.005501632415593844,0.28659972609269074
8949,10.0,299.79566,-7124.0033,0.0,0.08949001758798958,0.0,0.0,0.0,0.0,0.4706270806497766,1.146053852181709,0.5488381434761075,-0.001020291884219969,-0.008140248552054983,0.27366555816868776
8950,10.0,299.80102,-7105.9905,0.0,0.08950001357540893,0.0,0.0,0.0,0.0,0.45206234271507956,1.1589946771588688,0.5489866352782624,0.012118595825762288,0.0009225995683459882,0.28080892071118274
8951,10.0,300.32035,-6974.4271,0.0,0.08951000956282806,0.0,0.0,0.0,0.0,0.4235206782007366,1.158528987412909,0.5380020618716694,0.008775564876055821,0.0027407182079628276,0.2831627310909857
8952,10.0,300.63494,-7033.2772,0.0,0.08952000555024742,0.0,0.0,0.0,0.0,0.41611112472447065,1.157752331211259,0.5640772121975864,0.006588695758878644,0.017376722457448982,0.2970395661130227
8953,10.0,300.74966,-7089.9317,0.0,0.08953003452772434,0.0,0.0,0.0,0.0,0.4482007351264685,1.160710514878209,0.5462509512007715,-0.008268642842451513,0.00925012805844156,0.29079736794446576
8954,10.0,300.95825,-6998.4052,0.0,0.08954003051514348,0.0,0.0,0.0,0.0,0.43221030092583557,1.1664265626673387,0.5287035568964785,-0.010167755010729291,0.01100159398177279,0.3018892445366487
8955,10.0,300.6078,-7125.4025,0.0,0.08955002650256261,0.0,0.0,0.0,0.0,0.47234163154148956,1.154637296428829,0.5389655107292545,0.004704548686627805,-0.010760482001226888,0.28619883369062576
8956,10.0,300.06804,-7199.0077,0.0,0.08956002248998218,0.0,0.0,0.0,0.0,0.47225377262531854,1.1669806078220188,0.5490841808653896,0.012067775253746688,-0.01032235164473679,0.28291310679634973
8957,10.0,300.07649,-7136.4203,0.0,0.08957001847740154,0.0,0.0,0.0,0.0,0.47145055913854755,1.137674273854709,0.5601686809968445,0.005223812714400175,-0.004813027546308835,0.27030977516249777
8958,10.0,299.96152,-7143.4415,0.0,0.08958001446482089,0.0,0.0,0.0,0.0,0.45150000917458155,1.154653711080449,0.5652741544082155,0.007277223823806072,-0.004841689858512585,0.28407634830865275
8959,10.0,300.07207,-7218.5206,0.0,0.08959001045224002,0.0,0.0,0.0,0.0,0.4730205800359965,1.1608440612413888,0.5603853746632305,-0.008939542382139141,-0.006451788647766964,0.27092039007026075
8960,10.0,300.13925,-7277.9175,0.0,0.08960000643965915,0.0,0.0,0.0,0.0,0.4587561565857076,1.1752799367410989,0.5782690970732165,-0.0056036458277117845,7.060997164391162e-05,0.27930215701747674
8961,10.0,299.98323,-7254.5548,0.0,0.0896100354171363,0.0,0.0,0.0,0.0,0.4843317847448256,1.164578090509909,0.5562936275794065,0.0014252730544134986,0.0067449645595261745,0.25911336155749776
8962,10.0,299.62843,-7298.1479,0.0,0.08962003140455543,0.0,0.0,0.0,0.0,0.47589313393699556,1.175345088722529,0.5672164737899075,6.618917462986294e-05,0.013474898972368986,0.2655457163723217
8963,10.0,299.96301,-7234.9739,0.0,0.08963002739197456,0.0,0.0,0.0,0.0,0.4688078711552346,1.162905417244829,0.5675381199016515,0.0015879371857171985,-0.0020950285334132178,0.26323545548181676
8964,10.0,299.38455,-7111.0745,0.0,0.08964002337939392,0.0,0.0,0.0,0.0,0.4541756176536436,1.151902433083919,0.5555110337321705,0.002005372922164898,-0.005685266365667105,0.2776563754100507
8965,10.0,300.08615,-7112.953,0.0,0.0896500193668135,0.0,0.0,0.0,0.0,0.4665980132171385,1.141570017839189,0.5539920806397615,-0.0027829149070523174,0.00962107030742571,0.27313993467931275
8966,10.0,299.81158999999997,-7067.2186,0.0,0.08966001535423285,0.0,0.0,0.0,0.0,0.44516571670443555,1.145431919270329,0.5576603702417935,0.0028186448413535874,0.007829524161813872,0.27492663911064674
8967,10.0,299.9433,-7025.7219,0.0,0.08967001134165198,0.0,0.0,0.0,0.0,0.4548778202379456,1.1543681772022687,0.5263980076189385,0.002145297694724398,-0.011970768715672887,0.29853683565329175
8968,10.0,300.38841,-7105.0631,0.0,0.08968000732907111,0.0,0.0,0.0,0.0,0.45288413920868453,1.1509942570192888,0.5558833727464175,0.013974289416654987,-0.008643996275746012,0.2854198166162427
8969,10.0,300.63401,-7134.4091,0.0,0.08969003630654826,0.0,0.0,0.0,0.0,0.4465892013724226,1.1694884018195189,0.5526046474103324,0.0023884011170168377,-0.0049831235631210054,0.2944363847511087
8970,10.0,300.00603,-7156.3067,0.0,0.08970003229396739,0.0,0.0,0.0,0.0,0.44820236645912953,1.1693285109537388,0.5578076157463254,0.004881642411280595,0.012792735435294687,0.28403888845245573
8971,10.0,299.92782,-7208.5929,0.0,0.08971002828138652,0.0,0.0,0.0,0.0,0.4546936721647716,1.1822392424029289,0.5542993386000855,-0.015715482706497384,0.0011374916861866889,0.28910704386264374
8972,10.0,299.8853,-7193.7348,0.0,0.0897200242688061,0.0,0.0,0.0,0.0,0.44358958590888353,1.1909932166418788,0.5521329389587785,0.004696509256359375,0.004079982743537946,0.2865658936718517
8973,10.0,299.80318,-7117.1151,0.0,0.08973002025622523,0.0,0.0,0.0,0.0,0.4685336451481706,1.1502342181192788,0.5446574431660044,0.0013043388178782186,-0.005699992537320464,0.2631167836301047
8974,10.0,299.62248999999997,-7101.5851,0.0,0.0897400162436448,0.0,0.0,0.0,0.0,0.4548584063660296,1.1546809675081386,0.5491651192833775,0.026288029105676475,-0.013458814640281588,0.2794120439908217
8975,10.0,299.60008,-7180.7353,0.0,0.08975001223106394,0.0,0.0,0.0,0.0,0.48079077962035555,1.1482629400497288,0.5537104781719694,-0.0017751340271170883,-0.01895491521695448,0.27262907424389476
8976,10.0,299.63245,-7164.0331,0.0,0.08976000821848307,0.0,0.0,0.0,0.0,0.4722298801879605,1.1341484674817388,0.5713088693537954,0.012162977193392387,-0.009347783684529421,0.2792388288862267
8977,10.0,300.13947,-7180.6227,0.0,0.08977003719596,0.0,0.0,0.0,0.0,0.47635147761973057,1.156146836427809,0.5502316359411346,-0.011959232863284387,0.013185013185009486,0.2769804160033387
8978,10.0,300.50245,-7333.9082,0.0,0.08978003318337935,0.0,0.0,0.0,0.0,0.47703237155442957,1.1737769828677689,0.5785156410875485,-0.002348935126946848,0.014035102661156786,0.27419716996615373
8979,10.0,300.5971,-7256.9238,0.0,0.0897900291707987,0.0,0.0,0.0,0.0,0.4944106645495336,1.151110071505719,0.5604029038899605,-0.024538189752730772,-0.01038692404710959,0.26779342933415373
8980,10.0,300.19167999999996,-7151.9763,0.0,0.08980002515821806,0.0,0.0,0.0,0.0,0.4426262485088095,1.1675745750306388,0.5638213462823345,0.0024511625374859076,-0.011106822031157988,0.27718113071564776
8981,10.0,300.33678,-7077.3185,0.0,0.08981002114563719,0.0,0.0,0.0,0.0,0.44704583266248854,1.147317071081379,0.5569652198781875,0.00951230175954109,0.003157489353669937,0.25902279726355976
8982,10.0,299.9049,-7048.4786,0.0,0.08982001713305654,0.0,0.0,0.0,0.0,0.44278335293681453,1.1506598844862888,0.5491182058037475,0.02296837353180198,0.004379025576026176,0.26519419964762975
8983,10.0,300.16369,-7148.1049,0.0,0.0898300131204759,0.0,0.0,0.0,0.0,0.4458361133680986,1.176790287340159,0.5502190311098905,-0.01814521186329298,-0.004189402405936827,0.28799653188554475
8984,10.0,299.45418,-7197.8475,0.0,0.08984000910789502,0.0,0.0,0.0,0.0,0.46328131126730554,1.167222673270909,0.5574619454747104,-0.0016845206918742485,-0.003369958273763987,0.27806838316571275
8985,10.0,299.98814,-7141.6443,0.0,0.0898500050953146,0.0,0.0,0.0,0.0,0.4585744909752786,1.171145369708049,0.5411616897910004,-0.01040605724874789,0.003970713852753946,0.29247487441252273
8986,10.0,299.35174,-7087.7906,0.0,0.0898600340727913,0.0,0.0,0.0,0.0,0.4454658515165566,1.152900585757429,0.5561448925972274,-0.0015377477671888887,-0.005483672557571344,0.2954296738241387
8987,10.0,299.76173,-7159.0413,0.0,0.08987003006021066,0.0,0.0,0.0,0.0,0.4637395840225335,1.1620566176360592,0.5503736328101485,0.002880382676571637,-0.015546179760538487,0.3061630321334387
8988,10.0,300.43248,-7189.7642,0.0,0.08988002604763001,0.0,0.0,0.0,0.0,0.4721372184663155,1.1590809047423791,0.5542906145167245,-0.005599491299651765,-0.008064430492122321,0.2919932259774877
8989,10.0,300.39901000000003,-7049.8385,0.0,0.08989002203504914,0.0,0.0,0.0,0.0,0.4568086088334996,1.1509121837611889,0.5352540364079604,0.0023916289265353977,0.01902500071312138,0.29981583085701874
8990,10.0,300.01189,-7016.6109,0.0,0.0899000180224685,0.0,0.0,0.0,0.0,0.44995087136169354,1.1514424175385187,0.5314812300581134,-0.003319395776548857,0.0023650512750873877,0.27428792677761077
8991,10.0,300.50501,-7135.0943,0.0,0.08991001400988785,0.0,0.0,0.0,0.0,0.45553299788510654,1.1626699379215888,0.5506875782211325,0.0009777524431516533,0.008926384316340543,0.27360389176760175
8992,10.0,299.95218,-7214.6585,0.0,0.0899200099973072,0.0,0.0,0.0,0.0,0.44264116355028155,1.167004723174399,0.5834301472525725,0.0036628237256925568,0.0007348919577031893,0.2546942637638668
8993,10.0,299.97417,-7211.3354,0.0,0.08993000598472656,0.0,0.0,0.0,0.0,0.4568399182615896,1.173351721800799,0.5618743152876774,0.005303430867507875,0.018174737971206983,0.25764444275502674
8994,10.0,300.27631,-7277.8691,0.0,0.08994003496220326,0.0,0.0,0.0,0.0,0.46995845717378854,1.157548667941159,0.5847833427611224,-0.014320325471556088,-0.004754443553352045,0.25718291746697775
8995,10.0,300.21974,-7251.6958,0.0,0.08995003094962262,0.0,0.0,0.0,0.0,0.4921384208027806,1.157767631287769,0.5544284469278274,-0.027343876239880473,-0.00989811598686799,0.2816943087810637
8996,10.0,299.61219,-7184.8837,0.0,0.08996002693704197,0.0,0.0,0.0,0.0,0.47372796032830955,1.159452058254009,0.5508451994066884,0.0025629892768223475,-0.012906955066067288,0.29329064206803274
8997,10.0,299.63707999999997,-7104.6951,0.0,0.0899700229244611,0.0,0.0,0.0,0.0,0.46672344344701755,1.140143260373379,0.5527831618129505,0.005724548349518934,0.009000294730309931,0.2884806830483267
8998,10.0,299.2042,-7114.9418,0.0,0.08998001891188045,0.0,0.0,0.0,0.0,0.4518487293289976,1.154543570794579,0.5563723773771785,0.026563025182816478,-0.012268077573264988,0.28594046504762677
8999,10.0,299.53591,-7042.9372,0.0,0.08999001489929981,0.0,0.0,0.0,0.0,0.4578958768533046,1.1410427224871489,0.5419384371851594,0.007141891404674803,-0.009300308864344022,0.2872283971172357
9000,10.0,299.73842,-7011.5294,0.0,0.09000001088671916,0.0,0.0,0.0,0.0,0.43627812517479864,1.1466504538405888,0.5484012806954924,0.014642092160061987,-0.0026762433815746573,0.27960904007526377
9001,10.0,300.10837999999995,-7135.946,0.0,0.09001000687413852,0.0,0.0,0.0,0.0,0.4503522703888086,1.1786755404762188,0.5401215784308495,-0.008906114450740061,0.02040081095065328,0.2863480854303557
9002,10.0,300.23976,-7100.4,0.0,0.09002003585161522,0.0,0.0,0.0,0.0,0.4479892698305986,1.158266454311999,0.5520886092669035,-0.019571357326042583,0.01955925911984858,0.27235578042692277
9003,10.0,300.1713,-7116.8805,0.0,0.09003003183903457,0.0,0.0,0.0,0.0,0.4298656503269366,1.182715469949929,0.5507728330845465,-0.03028684089032847,0.0012417268517988988,0.29577101751782675
9004,10.0,299.67576,-7191.0419999999995,0.0,0.09004002782645393,0.0,0.0,0.0,0.0,0.4545751725655766,1.157198894006639,0.5741231715065455,-0.0016591870075740086,0.0056497260104595454,0.26155033950550877
9005,10.0,300.24348,-7118.6868,0.0,0.09005002381387306,0.0,0.0,0.0,0.0,0.4505928868900556,1.151764428420299,0.5615456777502434,0.017399387848935882,0.01018664604559369,0.28063433771895274
9006,10.0,300.45956,-7127.6461,0.0,0.09006001980129241,0.0,0.0,0.0,0.0,0.4582121122095146,1.1515272265718888,0.5568870982954774,0.007651855113754303,-0.00900068918857386,0.2743370694074607
9007,10.0,299.76621,-7283.2348,0.0,0.09007001578871177,0.0,0.0,0.0,0.0,0.4989524973277775,1.152368629454929,0.5626004001768364,-0.01830729438903928,-0.01975773049643618,0.2923480965600107
9008,10.0,299.89682999999997,-7239.2213,0.0,0.09008001177613112,0.0,0.0,0.0,0.0,0.48009681475936655,1.157278332814479,0.5631673946677944,-0.0005927866101334835,-0.015060440834849786,0.2884290984857357
9009,10.0,299.6126,-7053.3615,0.0,0.09009000776355047,0.0,0.0,0.0,0.0,0.45560337823705255,1.141626354544749,0.5468160103840385,0.012535611063418488,0.013631417741816188,0.29381403640718773
9010,10.0,299.21232000000003,-7103.7493,0.0,0.09010003674102718,0.0,0.0,0.0,0.0,0.4563999346706666,1.1453100252832988,0.5576524668910134,0.02077636399421748,0.007197642451677003,0.27355158779743977
9011,10.0,299.17512,-7187.0668,0.0,0.09011003272844631,0.0,0.0,0.0,0.0,0.46139553124119353,1.174368112976109,0.5489251917921985,-0.00013569502081205588,-0.01894450609867718,0.26539047632450075
9012,10.0,299.07313999999997,-7095.3425,0.0,0.09012002871586589,0.0,0.0,0.0,0.0,0.44290987747680155,1.158338293744089,0.5555587375468785,0.0075287718750819315,-0.006822127911616603,0.27038697468761674
9013,10.0,299.0314,-7094.4743,0.0,0.09013002470328502,0.0,0.0,0.0,0.0,0.46996481025191555,1.1492973670768187,0.5372808507154915,-0.003129539254961477,0.012440151758247387,0.2611261220861418
9014,10.0,299.62899,-7232.4761,0.0,0.09014002069070437,0.0,0.0,0.0,0.0,0.4613126980455186,1.173878206552759,0.5633012348735035,0.0069028889095120935,0.012898046571188088,0.2854199888687597
9015,10.0,299.56699,-7248.7149,0.0,0.09015001667812372,0.0,0.0,0.0,0.0,0.46915214314171155,1.157270530788709,0.5770056856560274,-0.015218655784964384,-0.0018518018999086183,0.27927839630263174
9016,10.0,299.7485,-7213.7104,0.0,0.09016001266554285,0.0,0.0,0.0,0.0,0.4677884402296245,1.157633274324509,0.5673660902996736,-0.0027656908712524373,0.00010692359170503689,0.28684525685692275
9017,10.0,299.74162,-7114.3494,0.0,0.09017000865296243,0.0,0.0,0.0,0.0,0.4575869065003116,1.1492767980997889,0.5557208980928825,-0.004164222634326776,0.0050110102323732055,0.27593935218809373
9018,10.0,300.4086,-7018.9343,0.0,0.09018000464038156,0.0,0.0,0.0,0.0,0.4389329822918126,1.149686961740269,0.5449608305109465,0.0021452540236450877,-0.0007606324315210763,0.2833120740232247
9019,10.0,300.05269,-7096.4739,0.0,0.09019003361785827,0.0,0.0,0.0,0.0,0.4614178430083956,1.1662651519264091,0.5294679021094134,-0.003484100897528987,-0.018440476995433382,0.2890345762154917
9020,10.0,300.65488999999997,-7168.6947,0.0,0.09020002960527762,0.0,0.0,0.0,0.0,0.46726859226581957,1.1584280677029488,0.5534075366570714,-0.0006843490466124924,-0.006738664778354433,0.28673906824644274
9021,10.0,300.491,-7185.8305,0.0,0.09021002559269697,0.0,0.0,0.0,0.0,0.4557688521108835,1.178856709594099,0.5496874801074304,0.015027003581549786,0.012129260283064788,0.29540897312459574
9022,10.0,299.84016,-7121.0811,0.0,0.09022002158011633,0.0,0.0,0.0,0.0,0.4497888830682066,1.1575348877397988,0.5573070701969255,0.01186571393205479,0.005322360507201085,0.2799826659171377
9023,10.0,298.93377000000004,-7156.3472,0.0,0.09023001756753568,0.0,0.0,0.0,0.0,0.44456703788285057,1.162465869351449,0.5683179577086155,0.011326821932620289,-0.015275556870830086,0.2811473563770837
9024,10.0,299.86187,-7169.9593,0.0,0.09024001355495481,0.0,0.0,0.0,0.0,0.46801383771436955,1.1549516066098489,0.5565231591245595,-0.004158953328506736,-0.013112992381151588,0.26371004156365474
9025,10.0,299.4077,-7151.6135,0.0,0.09025000954237439,0.0,0.0,0.0,0.0,0.4711271601041305,1.144598014438029,0.5581867131387395,-0.006107170332405785,-0.001372327088988139,0.2670708502903407
9026,10.0,300.51829,-7123.4906,0.0,0.09026000552979352,0.0,0.0,0.0,0.0,0.45541375861333855,1.157715347582609,0.5522341727762694,-0.022902953039095477,0.01062884156148499,0.27549479883921973
9027,10.0,300.06519,-7189.4097,0.0,0.09027003450727022,0.0,0.0,0.0,0.0,0.4682668665293415,1.156346649347529,0.5607875538929225,-0.015969392035806284,0.0006701770417038243,0.2813604834031177
9028,10.0,300.28074,-7176.773,0.0,0.09028003049468958,0.0,0.0,0.0,0.0,0.4732541848465516,1.1433395578138288,0.5649660757153104,-0.004313531622687427,0.015858865701648184,0.2829864661035898
9029,10.0,301.11521,-7122.9093,0.0,0.09029002648210893,0.0,0.0,0.0,0.0,0.46065029592514456,1.1492588635730188,0.5552774491866175,0.01078912050205329,0.020487985923006782,0.27300666189365974
9030,10.0,301.1183,-7156.0217,0.0,0.09030002246952851,0.0,0.0,0.0,0.0,0.46198312510668454,1.156787413141029,0.5564813321604315,0.01028132616143789,0.00934120019332968,0.28541698964846374
9031,10.0,300.49032,-7116.8843,0.0,0.09031001845694764,0.0,0.0,0.0,0.0,0.45510697688056156,1.160315043364179,0.5479331591492924,-0.0019180386668956782,-0.008902509813509311,0.27297234311277274
9032,10.0,300.92781,-7094.1375,0.0,0.09032001444436677,0.0,0.0,0.0,0.0,0.44311625625716966,1.1694848554441688,0.5438395476852845,0.007204589091712583,-0.007611585515030004,0.2962824757708037
9033,10.0,300.74046,-7176.0948,0.0,0.09033001043178612,0.0,0.0,0.0,0.0,0.4569322962732066,1.1552930718935488,0.5691282335485834,0.018135496821334182,-0.008574873468499122,0.2658705542218807
9034,10.0,300.52387999999996,-7191.3565,0.0,0.09034000641920548,0.0,0.0,0.0,0.0,0.44167469520739855,1.1822614325801188,0.5620566496431725,0.003326599579459817,0.0018440042311140483,0.29095441157746477
9035,10.0,300.38159,-7078.5465,0.0,0.09035003539668218,0.0,0.0,0.0,0.0,0.4447612272645156,1.1513882086581688,0.5555519285062065,-0.006549101795321023,-0.007533241625248063,0.2814688201038097
9036,10.0,299.39421,-7115.5833,0.0,0.09036003138410154,0.0,0.0,0.0,0.0,0.4709081359625146,1.1405952712429888,0.5514561993494895,-2.155405371096948e-05,0.004016568790004476,0.2853598828728277
9037,10.0,299.34843,-7143.9924,0.0,0.09037002737152089,0.0,0.0,0.0,0.0,0.4733780344062745,1.145218427474259,0.5529988726267395,0.005857087947399574,0.008059461310981904,0.28093735016135774
9038,10.0,300.21222,-7155.2816,0.0,0.09038002335894046,0.0,0.0,0.0,0.0,0.47503649177245155,1.154598184974969,0.5453922318735225,-0.0006686601049791143,-0.002137048825660298,0.2885307578682687
9039,10.0,300.28356,-7305.7004,0.0,0.0903900193463596,0.0,0.0,0.0,0.0,0.4782199209366315,1.1759134207036188,0.5666171768857615,-0.011597654565099388,-0.012610073800017387,0.2792700775193107
9040,10.0,300.21967,-7167.0831,0.0,0.09040001533377873,0.0,0.0,0.0,0.0,0.46023902784205556,1.168652875787059,0.5497223663083736,-0.00012208069862592688,0.0018441277463012381,0.27924383434172073
9041,10.0,300.47157999999996,-7060.4096,0.0,0.09041001132119808,0.0,0.0,0.0,0.0,0.44179573806434463,1.148536517576729,0.5558559643312124,0.01130264578523429,0.0067032878603880035,0.2690729007654278
9042,10.0,300.2377,-7164.0921,0.0,0.09042000730861743,0.0,0.0,0.0,0.0,0.4530182529919206,1.170803701774329,0.5538831866515145,0.004806472730086925,0.005748263164134405,0.27644141761264374
9043,10.0,299.67347,-7184.3384,0.0,0.09043003628609414,0.0,0.0,0.0,0.0,0.44980722289501657,1.172132376630459,0.5619199318071796,-0.013220352308747187,-0.010734311777644091,0.2818713235735337
9044,10.0,299.78809,-7077.0103,0.0,0.0904400322735135,0.0,0.0,0.0,0.0,0.45629131425994657,1.1444126909947387,0.5505304028656205,-0.01026844775266689,-0.0025355085155602075,0.2886177251243517
9045,10.0,299.3858,-7151.5164,0.0,0.09045002826093285,0.0,0.0,0.0,0.0,0.46307583427952653,1.151502705919469,0.5593038517714924,0.012214259807453588,0.0006186167768502224,0.26828044799471873
9046,10.0,299.31642999999997,-7223.1468,0.0,0.0904600242483522,0.0,0.0,0.0,0.0,0.4622330027138456,1.158993663908769,0.5744295884692865,0.011218401132169991,-0.0025574475080504177,0.28650731768357074
9047,10.0,299.26777999999996,-7239.4537,0.0,0.09047002023577155,0.0,0.0,0.0,0.0,0.46893305820508957,1.163644076567729,0.5680359702057854,-0.0007874261585529112,-0.014398965838317287,0.27374656751418275
9048,10.0,299.61003,-7202.7199,0.0,0.09048001622319068,0.0,0.0,0.0,0.0,0.46534662907863655,1.174888720877489,0.5492117085229755,-0.008838906179557121,-0.006126029348567024,0.2881804165136927
9049,10.0,300.6408,-7187.1202,0.0,0.09049001221061004,0.0,0.0,0.0,0.0,0.46707662190187355,1.1581415205746688,0.5594869055345585,-0.006181098984876974,0.01087163452394679,0.27074440879289274
9050,10.0,300.3594,-7177.4782,0.0,0.09050000819802939,0.0,0.0,0.0,0.0,0.46861154381585857,1.174562150370259,0.5386004873807295,-0.008005399453221413,0.0006208484500629714,0.2995180569176307
9051,10.0,300.1618,-7103.3125,0.0,0.0905100371755061,0.0,0.0,0.0,0.0,0.4488820951562136,1.1653006391562188,0.5450468858419395,-0.003915853148614617,-0.007625590759237212,0.28541148770042074
9052,10.0,300.27046,-7136.6993,0.0,0.09052003316292545,0.0,0.0,0.0,0.0,0.4380811125352396,1.172840841100379,0.5584564403153595,0.005270046303213075,-0.004952218117845876,0.2804086565241797
9053,10.0,300.43867,-7075.1974,0.0,0.0905300291503448,0.0,0.0,0.0,0.0,0.45346667695617654,1.146163891142569,0.5510528042196775,0.01850100247690678,0.01063561615165359,0.26903369811905875
9054,10.0,299.55,-7171.2101,0.0,0.09054002513776416,0.0,0.0,0.0,0.0,0.4534076956678556,1.166143156614369,0.5603179428690754,0.014371204812077487,0.0014659169477247386,0.2730140788843917
9055,10.0,299.36219,-7355.4516,0.0,0.09055002112518351,0.0,0.0,0.0,0.0,0.49006387228303855,1.1752063747838386,0.5706034142366725,0.0021459854888922778,-0.014275256107108088,0.2874181180659597
9056,10.0,299.59309,-7303.0454,0.0,0.09056001711260264,0.0,0.0,0.0,0.0,0.48793829648826054,1.171650778857929,0.5603543793426715,-0.0023310929072609577,-0.014270222280611287,0.28889849672706175
9057,10.0,300.08249,-7185.2071,0.0,0.090570013100022,0.0,0.0,0.0,0.0,0.4661058573785666,1.1583645369216788,0.5596531393459644,-0.0018289391273022383,-0.0027021982895112074,0.29005925577661973
9058,10.0,300.3403,-7177.7533,0.0,0.09058000908744135,0.0,0.0,0.0,0.0,0.4603344760014756,1.162803990909819,0.5587193381863055,0.0029250535297553073,-0.013672840419154286,0.28162570161679273
9059,10.0,299.78738,-7250.7978,0.0,0.0905900050748607,0.0,0.0,0.0,0.0,0.4774371041743735,1.1663313171579388,0.5602930067841145,-0.002306553104414068,-0.014131839674703987,0.27616823525318274
9060,10.0,299.96677999999997,-7222.6213,0.0,0.09060003405233763,0.0,0.0,0.0,0.0,0.4642422776621456,1.1723533664772687,0.5589009126042255,0.0059915574827456835,-0.005554507352187194,0.25834937098209776
9061,10.0,299.83094,-7228.7405,0.0,0.09061003003975676,0.0,0.0,0.0,0.0,0.46965595135643357,1.176287309990519,0.5514133692677625,0.009720081459497352,0.024597197385554374,0.27795471676949474
9062,10.0,299.48868,-7323.9577,0.0,0.09062002602717611,0.0,0.0,0.0,0.0,0.48406689077118253,1.1693265857785489,0.5729068052914994,-0.008358815312575842,0.007563069681691863,0.2733827600657777
9063,10.0,298.71238999999997,-7237.4278,0.0,0.09063002201459547,0.0,0.0,0.0,0.0,0.4582340389416786,1.179477426605359,0.5622859278758005,-0.005022122748869925,-0.0014989323850081084,0.2937628267471337
9064,10.0,299.66569,-7105.0767,0.0,0.0906400180020146,0.0,0.0,0.0,0.0,0.44487859202359864,1.1623046612605388,0.5525826294856595,0.011525376395716089,-0.005556133719922704,0.27990467605694075
9065,10.0,300.21168,-7145.5488,0.0,0.09065001398943395,0.0,0.0,0.0,0.0,0.4601590418791615,1.1580057450612689,0.5539035935085285,0.012872982816714488,0.008518592491694621,0.27220631590467176
9066,10.0,300.31016,-7184.1637,0.0,0.0906600099768533,0.0,0.0,0.0,0.0,0.46384242890768357,1.1678704440598386,0.5520935032648865,0.0013768772912122087,-0.0022953422013326378,0.28125053563476676
9067,10.0,299.59871,-7238.4458,0.0,0.09067000596427266,0.0,0.0,0.0,0.0,0.4848679359027396,1.1721545668076487,0.5432842461004804,-0.003201926855355577,-0.012691119622515987,0.2884053985658967
9068,10.0,299.63873,-7202.4037,0.0,0.09068003494174959,0.0,0.0,0.0,0.0,0.4723817258479466,1.162302837410359,0.5546663276538045,-0.0022606456808083575,-0.0038620968870842864,0.2863957081850557
9069,10.0,300.05775,-7151.0273,0.0,0.09069003092916872,0.0,0.0,0.0,0.0,0.45403417807218455,1.1600279896108487,0.5596716108952875,0.014415452430694387,0.0053167563222229946,0.2948199809739667
9070,10.0,300.36107000000004,-7139.8958,0.0,0.09070002691658807,0.0,0.0,0.0,0.0,0.45797476850609053,1.1470861513835888,0.5652891505096955,0.005542426269919885,-0.007650181325914113,0.2818010648115997
9071,10.0,299.61557999999997,-7233.1393,0.0,0.0907100229040072,0.0,0.0,0.0,0.0,0.4669342703953246,1.1680601244785591,0.5636993915002985,0.0013167471799278288,-0.016287993330999784,0.27087915079119074
9072,10.0,299.63282999999996,-7221.6019,0.0,0.09072001889142656,0.0,0.0,0.0,0.0,0.4646490063847865,1.1621961421748288,0.5683415056409394,0.004374550354309506,-0.00941647038893327,0.25526104547230377
9073,10.0,298.66337000000004,-7062.7639,0.0,0.09073001487884613,0.0,0.0,0.0,0.0,0.45489264408690855,1.1591300473722288,0.5328811971912796,0.0097170827458264,0.02011846982353838,0.2669005938760377
9074,10.0,299.31158,-7076.1397,0.0,0.09074001086626526,0.0,0.0,0.0,0.0,0.45432842590122463,1.152301653623319,0.5443396879346445,0.004566978099350646,0.015764205850805985,0.27767075342896974
9075,10.0,299.4379,-7287.5082,0.0,0.09075000685368462,0.0,0.0,0.0,0.0,0.4710917875431396,1.1815418223590988,0.5625869644805104,-0.02081580982061048,0.005169508993840815,0.2988938644585277
9076,10.0,299.84626000000003,-7350.6501,0.0,0.09076003583116155,0.0,0.0,0.0,0.0,0.5016517651966744,1.1685173029236788,0.5642449760166435,0.0014682469163296887,-0.005291303885011035,0.27739067083632774
9077,10.0,299.95294,-7234.0069,0.0,0.09077003181858068,0.0,0.0,0.0,0.0,0.4687855087255276,1.171539625321959,0.5586323607977215,0.0034020957298357066,0.014961581062343085,0.28218082081657875
9078,10.0,300.16282,-7119.9547,0.0,0.09078002780600003,0.0,0.0,0.0,0.0,0.4745997708468505,1.154773882542309,0.5349147901419795,0.018921300644886983,-0.003330540109098716,0.27799512518348274
9079,10.0,299.73719,-7167.8231,0.0,0.09079002379341916,0.0,0.0,0.0,0.0,0.4597679982680685,1.155595324398379,0.5634759394557455,-0.0025073383389300277,-0.01900421084756958,0.2884232722976607
9080,10.0,300.27627,-7182.9404,0.0,0.09080001978083851,0.0,0.0,0.0,0.0,0.4588863288260545,1.1595612866147889,0.5649868574748614,-0.0030835570534983874,-0.012503702804519387,0.28658882352161474
9081,10.0,299.8944,-7121.3975,0.0,0.09081001576825809,0.0,0.0,0.0,0.0,0.43648453435266954,1.1650651598329789,0.5631773143862735,0.003026924174934157,0.010761687768845889,0.28981546780255973
9082,10.0,299.61494,-7038.1717,0.0,0.09082001175567722,0.0,0.0,0.0,0.0,0.4459855880228506,1.1540838592242089,0.5393589861405874,0.013740747427606186,0.005177521167681555,0.2900017031709397
9083,10.0,299.9424,-7081.6965,0.0,0.09083000774309657,0.0,0.0,0.0,0.0,0.4387850883072166,1.178488494507759,0.5353852928259145,0.003158358924905757,-0.008213380789947572,0.3021292429553347
9084,10.0,299.99541,-7208.0083,0.0,0.09084003672057328,0.0,0.0,0.0,0.0,0.47928045941879854,1.1617089715267488,0.5500651082871995,-0.003572317288335267,0.0024443886565923777,0.27682136613514174
9085,10.0,299.27882999999997,-7344.8167,0.0,0.09085003270799263,0.0,0.0,0.0,0.0,0.4803571491075595,1.1883639339573888,0.5639197835295494,-0.002450150807261058,0.011642316603007187,0.2844550606660287
9086,10.0,299.18006,-7242.9826,0.0,0.09086002869541199,0.0,0.0,0.0,0.0,0.4616434228781585,1.1796890945512488,0.5603533154300665,-0.0003219512317466127,0.013347832343578489,0.28476057583618075
9087,10.0,298.75045,-7185.2777,0.0,0.09087002468283112,0.0,0.0,0.0,0.0,0.4607421774442126,1.155973064035659,0.5674298135984625,-0.0002736314927003258,-0.01054490189670079,0.28974696196329874
9088,10.0,299.98062999999996,-7221.9049,0.0,0.09088002067025047,0.0,0.0,0.0,0.0,0.47404644509974153,1.161000811031859,0.5602314518405395,-0.001141539822986209,-0.009120619294260042,0.27801934186087274
9089,10.0,300.32817,-7156.2679,0.0,0.09089001665767005,0.0,0.0,0.0,0.0,0.46869599821169355,1.140417243200419,0.5662135081784225,0.002346699897226248,0.006476776408483063,0.27591746598593375
9090,10.0,300.50917000000004,-7141.4144,0.0,0.09090001264508918,0.0,0.0,0.0,0.0,0.4703943674993095,1.160929072924779,0.5394882059258405,0.011478804381369789,0.004113117035058046,0.2734787351152497
9091,10.0,299.88343,-7054.4945,0.0,0.09091000863250853,0.0,0.0,0.0,0.0,0.4507162500897306,1.1554659323606091,0.5382079644244905,-0.01060385481401899,-0.006073137085396964,0.2937552172388827
9092,10.0,300.18481,-7039.2047,0.0,0.09092000461992766,0.0,0.0,0.0,0.0,0.43900568298648757,1.1544097204563688,0.5463270462832814,0.009081307014230221,0.006129893175173354,0.28420606458645475
9093,10.0,299.7993,-7241.7857,0.0,0.09093003359740459,0.0,0.0,0.0,0.0,0.4500929087607116,1.1794580735284488,0.5717710735194115,0.0006499572610557874,0.014898878106404787,0.2748050389661457
9094,10.0,300.73676,-7353.7574,0.0,0.09094002958482394,0.0,0.0,0.0,0.0,0.4699705857774855,1.1891076595307888,0.5762803911019464,0.009497418432797222,0.0022326475540451578,0.2636141678391927
9095,10.0,300.27254,-7259.9518,0.0,0.09095002557224308,0.0,0.0,0.0,0.0,0.4714748163459415,1.1750854940469089,0.5602837355456994,-0.00097680461861061,-0.01178422633251259,0.2839803124641747
9096,10.0,299.80111,-7138.986999999999,0.0,0.09096002155966243,0.0,0.0,0.0,0.0,0.48695291076601055,1.149124709259779,0.5339961370713154,0.0011530964470017587,-0.0013004931284486788,0.28024806651583073
9097,10.0,300.07186,-7098.0667,0.0,0.09097001754708178,0.0,0.0,0.0,0.0,0.4579342182370885,1.1496185673585189,0.5500822322138895,0.002254054286257838,0.012152337054092289,0.2872040081873287
9098,10.0,300.21587,-7222.1462,0.0,0.09098001353450114,0.0,0.0,0.0,0.0,0.46359722238348355,1.166064427081599,0.5656904684768025,-0.0100933339187095,0.01174744940688299,0.2891655083934137
9099,10.0,299.52565,-7218.77,0.0,0.09099000952192049,0.0,0.0,0.0,0.0,0.4366015951367226,1.175941082431349,0.5817830990825215,-0.01121493176382759,-0.008904358285666741,0.29788968294692275
9100,10.0,299.76448999999997,-7040.0984,0.0,0.09100000550933962,0.0,0.0,0.0,0.0,0.44602212582145656,1.1527145530390688,0.5412774333499235,-0.012270800176283687,-0.006314788824271134,0.2799927274906307
9101,10.0,299.79113,-7039.5064,0.0,0.09101003448681655,0.0,0.0,0.0,0.0,0.44776116696808654,1.157345713946129,0.5347272578134715,0.026361671109694375,0.003040638515037657,0.2861084213842027
9102,10.0,299.48668,-7116.0721,0.0,0.0910200304742359,0.0,0.0,0.0,0.0,0.4802308170850916,1.1565199151146288,0.5263574978799405,0.01093707122865489,0.008071524256072424,0.27670659529631475
9103,10.0,299.87838,-7294.1678,0.0,0.09103002646165526,0.0,0.0,0.0,0.0,0.4599191245204835,1.200593558689359,0.5567321723551875,0.0015260350013329284,0.0036897963420295466,0.29834865484471973
9104,10.0,300.34356,-7371.0474,0.0,0.09104002244907439,0.0,0.0,0.0,0.0,0.47558720333430254,1.1887154304170788,0.5763117207950385,-0.015589294565543586,0.007209161889413883,0.28174060417813274
9105,10.0,300.27688,-7269.4957,0.0,0.09105001843649374,0.0,0.0,0.0,0.0,0.44615191302676555,1.179741074281379,0.5838522064492264,0.0044624389587084356,0.022834835274622774,0.2720760828693187
9106,10.0,300.3774,-7209.6792,0.0,0.0910600144239131,0.0,0.0,0.0,0.0,0.4618032428164316,1.1674993918732188,0.5622598062882225,0.0015567014209094687,0.013567555627763487,0.27162993871778773
9107,10.0,300.31812,-7268.4605,0.0,0.09107001041133245,0.0,0.0,0.0,0.0,0.4789743970935926,1.157188457530609,0.5732676033871075,-0.01180712578477259,-0.013378989784153486,0.2648510422362627
9108,10.0,300.35527,-7315.4075,0.0,0.09108000639875158,0.0,0.0,0.0,0.0,0.5043943292423445,1.158954045829859,0.5603527885400145,-0.01264440170015529,-0.017812888121995184,0.27402465400412773
9109,10.0,300.29646,-7143.0121,0.0,0.09109003537622828,0.0,0.0,0.0,0.0,0.46702286898406853,1.1430021455305288,0.5612723434032675,0.0013130388872118488,-0.004031647775342656,0.27166887791913075
9110,10.0,299.98104,-7042.4392,0.0,0.09110003136364786,0.0,0.0,0.0,0.0,0.4448866878918976,1.1449940939021188,0.5508449156966605,0.01071159775015239,0.005752126281465666,0.28939701577626176
9111,10.0,299.36483,-7157.9029,0.0,0.09111002735106721,0.0,0.0,0.0,0.0,0.42720932399727757,1.179373568470109,0.5692408461646974,-0.008397774677595832,-0.015545784592999485,0.2884484718276477
9112,10.0,299.35489,-7238.2324,0.0,0.09112002333848634,0.0,0.0,0.0,0.0,0.46293351317048054,1.1711532730588288,0.5661551855026665,-0.01096626904353649,-0.0012492865081449786,0.2883359909340467
9113,10.0,299.95172,-7318.4222,0.0,0.0911300193259057,0.0,0.0,0.0,0.0,0.4721723478472825,1.1941721875056188,0.5582730927097644,0.005572674825155184,0.007404762931118202,0.27359272575149973
9114,10.0,299.85699,-7226.2463,0.0,0.09114001531332483,0.0,0.0,0.0,0.0,0.4795313097460555,1.1750812383964888,0.5419858775548415,0.009687647121146331,0.02195387308117858,0.2833676001287047
9115,10.0,299.86977,-7202.8206,0.0,0.0911500113007444,0.0,0.0,0.0,0.0,0.45070757666887457,1.1881185247831687,0.5506514862525704,-0.005360091407799835,-0.011548952699042889,0.28572819928417775
9116,10.0,299.73498,-7248.1269999999995,0.0,0.09116000728816376,0.0,0.0,0.0,0.0,0.4576872182602116,1.1854587432706687,0.5601036303404244,-0.01225383634310949,-0.011224656938287388,0.27118388575876573
9117,10.0,300.34615,-7270.621999999999,0.0,0.09117003626564024,0.0,0.0,0.0,0.0,0.4608070153181116,1.161223928703879,0.5880565560166634,-0.0009755944636186772,-0.004068705269924946,0.27376987226648275
9118,10.0,300.08745,-7202.2549,0.0,0.0911800322530596,0.0,0.0,0.0,0.0,0.47144444924044454,1.148186439667179,0.5696747198575175,0.008464550898936132,0.012471062979048089,0.26120730368415374
9119,10.0,300.43996,-7022.4389,0.0,0.09119002824047917,0.0,0.0,0.0,0.0,0.45435638147148355,1.145974312048859,0.5343153311178175,0.006302263533159984,-0.016980195136814785,0.2935626389248767
9120,10.0,300.46492,-7025.8886,0.0,0.0912000242278983,0.0,0.0,0.0,0.0,0.45845417765840457,1.1400856064426887,0.5371549543905665,0.003072609291467927,-0.01126592965461069,0.2861159700974477
9121,10.0,300.81855,-7189.2133,0.0,0.09121002021531766,0.0,0.0,0.0,0.0,0.4572237171344675,1.1730786508988489,0.5550389199805765,-0.0002989107857351977,-0.0033562000599311565,0.3095887395290297
9122,10.0,300.98967000000005,-7264.9822,0.0,0.09122001620273679,0.0,0.0,0.0,0.0,0.4585003312004595,1.187324440679799,0.5625483799167025,0.01944459365903198,0.013649988589648988,0.29394069266968775
9123,10.0,300.93518,-7166.0665,0.0,0.09123001219015636,0.0,0.0,0.0,0.0,0.4373215397302756,1.182214417775479,0.5587692610187325,-0.004459688693962006,-0.011921988829358687,0.2977505738406937
9124,10.0,300.31982999999997,-7098.5848,0.0,0.09124000817757572,0.0,0.0,0.0,0.0,0.44936962044182854,1.1714579573638988,0.5369649294668125,0.013767633005759589,-0.015861072560365983,0.27207955831716174
9125,10.0,300.06431000000003,-7138.8454,0.0,0.0912500371550522,0.0,0.0,0.0,0.0,0.4739266080104146,1.1447433145023689,0.5513608626475804,0.0015001451440527984,-0.0048146947480233755,0.25535596674167177
9126,10.0,300.37181,-7422.0845,0.0,0.09126003314247177,0.0,0.0,0.0,0.0,0.5046802380230615,1.1719613400135789,0.5794867501158895,0.013695189676609987,0.01899592651475198,0.25315234029169076
9127,10.0,300.36515,-7369.8705,0.0,0.09127002912989113,0.0,0.0,0.0,0.0,0.4767546498345206,1.1787175903553688,0.5847843965412264,0.0011054934506787091,-0.00014345620247052486,0.26955848061085075
9128,10.0,300.04145,-7212.2186,0.0,0.09128002511731026,0.0,0.0,0.0,0.0,0.4615757073739756,1.1586861425034187,0.5720724951591595,-0.008660863140885643,0.0007071062790884563,0.28392785650649777
9129,10.0,299.58477,-7140.0018,0.0,0.09129002110472961,0.0,0.0,0.0,0.0,0.4475865535783536,1.1561967896577388,0.5665989181189595,-0.0005303473120037046,0.003347545282876997,0.29544546026069674
9130,10.0,299.49863,-7136.8151,0.0,0.09130001709214874,0.0,0.0,0.0,0.0,0.47280508200472854,1.1513308587025088,0.5452777042147194,-0.007871714680077753,0.001248764886993499,0.2945375679060947
9131,10.0,299.21196000000003,-7141.5668,0.0,0.0913100130795681,0.0,0.0,0.0,0.0,0.45462053577255357,1.1739305915829288,0.5423068042590145,0.011188402849709388,-0.015920057901687386,0.3059899994138617
9132,10.0,299.77775,-7052.4263,0.0,0.09132000906698767,0.0,0.0,0.0,0.0,0.44919262591436054,1.1676858298916188,0.5268830099118046,-0.013990182244473487,-0.023762680550193975,0.29185024625587674
9133,10.0,300.61731000000003,-7054.1892,0.0,0.0913300050544068,0.0,0.0,0.0,0.0,0.4366528757242836,1.1695830393788589,0.5380614281950286,0.018532154851231282,-0.0047125602525184855,0.29721407817774576
9134,10.0,300.11893,-7192.1617,0.0,0.09134003403188373,0.0,0.0,0.0,0.0,0.4672120529102396,1.1688655569830488,0.5501599991590644,0.005686750979713624,0.014021100558024887,0.2779761571416107
9135,10.0,300.65762,-7258.9967,0.0,0.09135003001930286,0.0,0.0,0.0,0.0,0.4580935518153135,1.1816099127658188,0.5668502345412625,0.013553287039855288,0.004034314244305816,0.28249818088039974
9136,10.0,300.13051,-7289.2109,0.0,0.09136002600672222,0.0,0.0,0.0,0.0,0.47600080189262156,1.166054902530659,0.5736824279780475,-0.006647680188274953,-0.009977728769750161,0.25632579907488673
9137,10.0,300.31502,-7306.2416,0.0,0.09137002199414157,0.0,0.0,0.0,0.0,0.4801538810049985,1.1597699148103788,0.5809911833343655,0.01035758032421359,0.00025622802044023674,0.26397300022960674
9138,10.0,299.96097000000003,-7355.1738,0.0,0.0913800179815607,0.0,0.0,0.0,0.0,0.4893791077329575,1.164982883924859,0.5814272152498984,0.011371847727313988,0.014944828998439784,0.26678520495464975
9139,10.0,299.78037,-7419.4273,0.0,0.09139001396898028,0.0,0.0,0.0,0.0,0.4735181364976015,1.1945715093700289,0.5872309598351835,0.003866747907693306,-0.0035071317683269564,0.2896160095203747
9140,10.0,299.63607,-7275.0833,0.0,0.09140000995639941,0.0,0.0,0.0,0.0,0.47079891773423554,1.171322384500519,0.5693223114727375,-0.02002117045618568,-0.008013956046340882,0.2937660286174497
9141,10.0,300.56,-7093.6024,0.0,0.09141000594381876,0.0,0.0,0.0,0.0,0.44468475727946855,1.1524432046622888,0.5591500404063124,-0.005166022400246714,-0.0042634527497450265,0.2928285898899317
9142,10.0,299.5279,-7026.9085,0.0,0.09142003492129569,0.0,0.0,0.0,0.0,0.4553371569057786,1.154216088362259,0.5264514362967114,0.007053493236800583,0.017896511652748182,0.2924803155655597
9143,10.0,299.74941,-7026.0864,0.0,0.09143003090871482,0.0,0.0,0.0,0.0,0.4555549448822725,1.152274295870619,0.5279255632046964,0.013311059470949288,0.014677021930759286,0.2790786137804147
9144,10.0,299.84144,-7089.0117,0.0,0.09144002689613417,0.0,0.0,0.0,0.0,0.4520638220602256,1.166983546247309,0.5358351556053125,-0.0012795893735856388,-0.006855932062777813,0.28115244289258573
9145,10.0,300.11685,-7215.6016,0.0,0.09145002288355353,0.0,0.0,0.0,0.0,0.4594623311104016,1.1672690801254888,0.5666313522546604,0.008941372109169721,0.002918823156215417,0.2595974215277707
9146,10.0,300.20514,-7346.308000000001,0.0,0.09146001887097288,0.0,0.0,0.0,0.0,0.4835121667389356,1.1730555487965688,0.5765264487562304,-0.001861321283273108,0.01054173751663849,0.26638832502298077
9147,10.0,300.46693,-7362.7523,0.0,0.09147001485839223,0.0,0.0,0.0,0.0,0.48363990717904254,1.184621190738009,0.5698318040205205,0.0059693229252013045,-0.0063720021938176545,0.27558629532324974
9148,10.0,299.71623,-7328.5055,0.0,0.09148001084581137,0.0,0.0,0.0,0.0,0.47951409462685657,1.180977036753359,0.5671915377049465,-0.014566291933331088,-0.016621886596702485,0.28065964870645077
9149,10.0,300.61061,-7252.5255,0.0,0.09149000683323072,0.0,0.0,0.0,0.0,0.46976729740992257,1.1687859155251887,0.5660334232381494,-0.006936612709940374,-0.004097000684267486,0.28814916788060874
9150,10.0,300.41775,-7123.7131,0.0,0.09150003581070765,0.0,0.0,0.0,0.0,0.45392400738881156,1.165338534709959,0.5461683713176215,0.014293085255867685,0.003573794404331046,0.29251044962353373
9151,10.0,300.05758,-6982.3505,0.0,0.09151003179812678,0.0,0.0,0.0,0.0,0.42972295431535357,1.161292627060659,0.5314446415970026,-0.002597331159811628,-0.0033404447301512265,0.31291451006725773
9152,10.0,299.85442,-6901.5464,0.0,0.09152002778554613,0.0,0.0,0.0,0.0,0.4327440506810126,1.141045458262419,0.5241082346454555,0.006342890707844574,-0.014912839679532686,0.29332352203377776
9153,10.0,300.43507999999997,-6917.7284,0.0,0.09153002377296549,0.0,0.0,0.0,0.0,0.4257247808782646,1.151329237502349,0.5257627403362426,-0.02291246239128398,0.004979074311746375,0.3048841990497277
9154,10.0,300.22165,-7216.3856,0.0,0.09154001976038484,0.0,0.0,0.0,0.0,0.4716012902234236,1.165796219780129,0.5562034685855085,0.011531676784837889,0.026143459594658577,0.26774063900394374
9155,10.0,300.18856,-7483.1993,0.0,0.09155001574780419,0.0,0.0,0.0,0.0,0.49784417397089453,1.1950834033205489,0.5817781746870354,-0.015716415909839486,0.008743891995154952,0.27610554546949573
9156,10.0,300.21288,-7451.8255,0.0,0.09156001173522332,0.0,0.0,0.0,0.0,0.5003629212019756,1.177915197601179,0.5868908117766134,0.006430093240600794,-0.011502989648006688,0.26158840731176575
9157,10.0,300.17404,-7329.8301,0.0,0.09157000772264268,0.0,0.0,0.0,0.0,0.47396947862214556,1.1763952211261688,0.5777206450590885,-0.0013772678991257588,-0.012892828333173088,0.2691902047295047
9158,10.0,299.94493,-7335.2727,0.0,0.0915800367001196,0.0,0.0,0.0,0.0,0.4800327672205456,1.179495969082189,0.5702110128704455,0.014826708354782185,0.002383658194623748,0.26890191481105274
9159,10.0,300.70626,-7307.8683,0.0,0.09159003268753874,0.0,0.0,0.0,0.0,0.4754763436408615,1.1741853226580687,0.5717477890321134,0.0007405758348016443,-0.007732203516209072,0.27449028295508177
9160,10.0,300.61995,-7105.9335,0.0,0.09160002867495787,0.0,0.0,0.0,0.0,0.4552853899581696,1.159895051197729,0.5448458772871015,0.001838757216796208,-0.014646186703716087,0.28631538784962873
9161,10.0,300.18014,-6972.8793,0.0,0.09161002466237744,0.0,0.0,0.0,0.0,0.4338044270431636,1.149317024128759,0.5364597837619585,-0.008299711015692702,0.014096679896233987,0.28896781316640274
9162,10.0,300.94527999999997,-7012.0999,0.0,0.0916200206497968,0.0,0.0,0.0,0.0,0.43360819089629665,1.1557841942170188,0.5421108720871776,-0.0027936447189862673,0.018292037882283584,0.3066692518833987
9163,10.0,299.85627999999997,-7192.34,0.0,0.09163001663721615,0.0,0.0,0.0,0.0,0.47230541798291553,1.1708722988060989,0.5431140606136844,-0.0027135210554036773,0.0061173897702643636,0.2998742143277807
9164,10.0,299.91348999999997,-7317.5254,0.0,0.09164001262463528,0.0,0.0,0.0,0.0,0.4691236404163986,1.186447776693279,0.5687736061460845,-0.017864742209112786,-0.022652876834914876,0.2964575755205847
9165,10.0,300.17692,-7238.9313,0.0,0.09165000861205441,0.0,0.0,0.0,0.0,0.46716298120789657,1.176240092535859,0.5570513157391844,-0.001065184841825559,-0.02008934090966358,0.27341050285351576
9166,10.0,299.4718,-7262.7859,0.0,0.09166003758953156,0.0,0.0,0.0,0.0,0.46554199383041756,1.1761731167042488,0.5659904209039054,-0.003913308573638486,-0.0006894293407588783,0.26118714000716375
9167,10.0,299.52357,-7303.0477,0.0,0.0916700335769507,0.0,0.0,0.0,0.0,0.47051761924147356,1.1779603885556387,0.5714661055043135,0.0028314615431934975,0.007886046798767223,0.2652531404059468
9168,10.0,300.28564,-7304.4038,0.0,0.09168002956437005,0.0,0.0,0.0,0.0,0.4825216134411755,1.1637686050050189,0.5740661964534225,-0.0026638694700284477,-0.006909235198863424,0.2694571556008507
9169,10.0,300.04706,-7324.9215,0.0,0.0916900255517894,0.0,0.0,0.0,0.0,0.48363589470864654,1.1715262504206387,0.5714311382433624,0.0008944047089433722,0.0020046018388387983,0.28639573858255873
9170,10.0,300.32635,-7122.995,0.0,0.09170002153920875,0.0,0.0,0.0,0.0,0.4527846684463676,1.1589060177751187,0.5535219123283595,-0.008267643473877883,0.010070236984005011,0.29465449696763474
9171,10.0,300.08032000000003,-7095.8958,0.0,0.09171001752662811,0.0,0.0,0.0,0.0,0.4528251072578586,1.164516788878859,0.5396332628101564,-0.00977586938880319,0.003349735321643137,0.30689792216596673
9172,10.0,299.87176,-7269.8395,0.0,0.09172001351404724,0.0,0.0,0.0,0.0,0.4712307041318496,1.1718122909238688,0.5668066749194635,-0.015928306770751487,-0.017544897656046585,0.28601790775276975
9173,10.0,300.195,-7174.973000000001,0.0,0.09173000950146637,0.0,0.0,0.0,0.0,0.44539284684685154,1.173549305570299,0.5620704906395385,0.008043782582909532,-0.002884776129005237,0.28722566134196575
9174,10.0,300.03946,-7085.454000000001,0.0,0.09174000548888572,0.0,0.0,0.0,0.0,0.4535514555920435,1.1592356280326488,0.5410139984564245,0.01052602099433739,0.007153540943724523,0.2762508354013347
9175,10.0,299.13119,-7264.085999999999,0.0,0.09175003446636265,0.0,0.0,0.0,0.0,0.4792654835823206,1.166685144092859,0.5621501523624005,0.020765144275860178,0.009012786077542731,0.27798627951010974
9176,10.0,299.8352,-7345.971,0.0,0.091760030453782,0.0,0.0,0.0,0.0,0.48141809288976656,1.175996912511859,0.5755767699675045,-0.002433397831432668,-0.01941128204874438,0.27733845805867474
9177,10.0,299.68548,-7418.5429,0.0,0.09177002644120136,0.0,0.0,0.0,0.0,0.48903474455397156,1.184102305361799,0.5819147608005154,0.013208236877301488,-0.008872761297198361,0.26980078923976475
9178,10.0,299.91803,-7364.4337,0.0,0.09178002242862049,0.0,0.0,0.0,0.0,0.4710524734392595,1.1900763266263887,0.5774751446923594,0.015716913415638585,0.003046473315738507,0.2761107839725127
9179,10.0,299.81199,-7222.0819,0.0,0.09179001841604006,0.0,0.0,0.0,0.0,0.46344441413590254,1.1719613400135789,0.5599268485954775,-0.003847081432527376,0.0018140902510617681,0.28765056777140074
9180,10.0,298.94673,-7195.635,0.0,0.0918000144034592,0.0,0.0,0.0,0.0,0.4715479730031616,1.1560061973139288,0.5597392048094585,-0.014017782163947386,-0.01162874715766799,0.2908790257700247
9181,10.0,298.97179,-7175.9617,0.0,0.09181001039087855,0.0,0.0,0.0,0.0,0.4531900191488726,1.1703775287822689,0.5577456453702094,-0.017866941975079882,0.004508632220167356,0.2926002843773997
9182,10.0,299.60176,-7097.0198,0.0,0.0918200063782979,0.0,0.0,0.0,0.0,0.4457173908538816,1.1639675059996488,0.5476318894970595,-0.0026180909318354578,0.01050867111287509,0.2948115304681327
9183,10.0,299.54904,-7015.191999999999,0.0,0.09183003535577461,0.0,0.0,0.0,0.0,0.4325688090762176,1.1554609674351188,0.5444133917469185,-0.01147942651693119,0.004170142953336066,0.2966991647419277
9184,10.0,299.42248,-7065.3225,0.0,0.09184003134319396,0.0,0.0,0.0,0.0,0.44605422558462454,1.158016282862309,0.5436111104502395,-0.0034640778596528666,-0.012382168521274889,0.27937274001944273
9185,10.0,300.09887000000003,-7265.3896,0.0,0.09185002733061332,0.0,0.0,0.0,0.0,0.4619602357869256,1.1705310361724188,0.5760057192648385,0.001149046385027049,0.0003414036476964167,0.2733329486908618
9186,10.0,299.85542999999996,-7404.2437,0.0,0.09186002331803245,0.0,0.0,0.0,0.0,0.4958563697922136,1.1826528510937488,0.5721959292863414,0.016937613301362286,0.009353779895971201,0.26038617593561475
9187,10.0,300.22822,-7350.9584,0.0,0.09187001930545202,0.0,0.0,0.0,0.0,0.48279845363349755,1.1837571923777388,0.5679521642900145,-0.01319052121255309,0.0010536320681603889,0.27656380809222275
9188,10.0,300.07574,-7323.5562,0.0,0.09188001529287115,0.0,0.0,0.0,0.0,0.4893708902746466,1.1763498275216888,0.5604574572753445,-0.003359551587286927,-0.022140735651370477,0.27691065373395374
9189,10.0,300.55001,-7242.8885,0.0,0.0918900112802905,0.0,0.0,0.0,0.0,0.4687870083356756,1.1685790098547688,0.5642912410162094,-0.02335899867060368,0.0019420259444630382,0.28002507043382274
9190,10.0,300.2897,-7245.8161,0.0,0.09190000726770986,0.0,0.0,0.0,0.0,0.46203971512476955,1.168055260878079,0.5724522106341344,0.01022434300231409,0.0021123042449681982,0.28096352241144074
9191,10.0,300.41832,-7186.7228,0.0,0.09191003624518679,0.0,0.0,0.0,0.0,0.4600965040829896,1.155139361853379,0.5693484229278145,-0.003423595073107527,-0.007235693741957373,0.27925594268041576
9192,10.0,300.22846,-7022.8976,0.0,0.09192003223260592,0.0,0.0,0.0,0.0,0.4491393289591006,1.1481979907183189,0.5374482092345084,0.01082828667141869,-0.01147214226196229,0.29110728062005176
9193,10.0,299.87037999999995,-7003.2128,0.0,0.09193002822002527,0.0,0.0,0.0,0.0,0.4493102439859685,1.1426994877256589,0.5367921196622575,0.006638628926456665,0.015528269551770883,0.2914110428675307
9194,10.0,299.37383,-7274.3986,0.0,0.0919400242074444,0.0,0.0,0.0,0.0,0.4693634868475696,1.1815285487827887,0.5603435071690984,0.004614988016913855,0.02037508959686478,0.2920379711019037
9195,10.0,299.5973,-7429.6986,0.0,0.09195002019486376,0.0,0.0,0.0,0.0,0.48756341421626254,1.2025603784584689,0.5683190418862225,-0.02004328362636808,0.01072546711752119,0.28614485785779875
9196,10.0,300.06224,-7307.6266,0.0,0.09196001618228311,0.0,0.0,0.0,0.0,0.46847709566008955,1.1838923599410789,0.5689665796276295,-0.011147497943172388,-0.01024297667165309,0.28956276322761976
9197,10.0,299.99674,-7233.2839,0.0,0.09197001216970246,0.0,0.0,0.0,0.0,0.4696498313258295,1.179654745372859,0.5494331138023264,-0.014383246276265884,-0.004146531692880816,0.27690496940089276
9198,10.0,300.02601,-7289.5198,0.0,0.09198000815712182,0.0,0.0,0.0,0.0,0.46850193042004057,1.1770361018144189,0.5702939575236314,0.012024215631947688,-0.003424885345784867,0.27533903190134673
9199,10.0,299.90262,-7360.3666,0.0,0.09199003713459852,0.0,0.0,0.0,0.0,0.4914995058197245,1.1762659304134089,0.5696022522103655,-0.0061263201513457235,-0.00890117799757787,0.2910257038545007
9200,10.0,299.70234,-7292.7674,0.0,0.09200003312201788,0.0,0.0,0.0,0.0,0.4842376335455335,1.175053171368719,0.5575284146812705,0.0022595279646230476,-0.016102141984407684,0.2971231491137717
9201,10.0,300.631,-7006.4037,0.0,0.09201002910943723,0.0,0.0,0.0,0.0,0.4508081518738006,1.1331968229878189,0.5457667493754844,0.0027114416635484577,0.007762717846945602,0.29392734816587074
9202,10.0,300.89325,-6961.4296,0.0,0.09202002509685636,0.0,0.0,0.0,0.0,0.4273187246105746,1.153652316006619,0.5351297004881895,0.003870604540223926,0.0005294442325870774,0.29079744900447374
9203,10.0,300.36387,-7208.6196,0.0,0.09203002108427571,0.0,0.0,0.0,0.0,0.46614457366488754,1.167938737116579,0.5571570990496244,0.006440579264560683,-0.004478817538624876,0.2895127188051807
9204,10.0,300.22628,-7325.7866,0.0,0.09204001707169507,0.0,0.0,0.0,0.0,0.4798249597575366,1.1821866547227389,0.5648445870283204,-0.008653879821196442,-0.02069126111831848,0.28518857267842074
9205,10.0,300.19595,-7258.4067,0.0,0.09205001305911442,0.0,0.0,0.0,0.0,0.47812958969021657,1.170654247384579,0.5575905269124005,-0.0030361894351735672,0.005174643233422526,0.28479567481964474
9206,10.0,299.27151000000003,-7228.1606,0.0,0.09206000904653378,0.0,0.0,0.0,0.0,0.4679595984365166,1.174798744268609,0.5544220127896925,-0.006104915445633244,0.013698205108907588,0.28123072659531173
9207,10.0,299.802,-7349.7208,0.0,0.0920700050339529,0.0,0.0,0.0,0.0,0.48489115959503154,1.1911540194327488,0.5580864621738455,-0.006315081146924984,0.018728586555367584,0.2775832086203297
9208,10.0,299.75084,-7518.0897,0.0,0.09208003401142983,0.0,0.0,0.0,0.0,0.5013494620293395,1.1912162329888887,0.5927458977444655,-0.003975202955996986,-0.007579237100287463,0.27200449674975374
9209,10.0,299.69127000000003,-7344.9909,0.0,0.09209002999884919,0.0,0.0,0.0,0.0,0.4880553978023175,1.1624628296011488,0.5821756220387605,0.01982620391169398,0.0002656974911048007,0.26430628858499977
9210,10.0,299.92271,-7098.1686,0.0,0.09210002598626832,0.0,0.0,0.0,0.0,0.4412265650856716,1.1635960485129888,0.5528434096638964,0.013070784434985988,-0.010207660852667689,0.28415496638391174
9211,10.0,300.56057000000004,-7097.1314,0.0,0.09211002197368767,0.0,0.0,0.0,0.0,0.4561888949398386,1.152834420525899,0.5483274046307015,0.01094518634870579,-0.013581226398112687,0.2946164798238827
9212,10.0,300.19693,-7200.5754,0.0,0.09212001796110703,0.0,0.0,0.0,0.0,0.4666586055731185,1.1690411532253788,0.5530953745662635,-0.016699134757826285,-0.007980532269267211,0.3049665053553507
9213,10.0,300.70711,-7165.1989,0.0,0.09213001394852638,0.0,0.0,0.0,0.0,0.4561890570598545,1.1790342310116189,0.5428182219819875,-0.008608778843345322,0.01027213496978079,0.3047996635938847
9214,10.0,299.58443,-7051.5483,0.0,0.09214000993594573,0.0,0.0,0.0,0.0,0.44657215850574056,1.158199985105439,0.5387224725602685,0.005227012862191005,0.012259154892884387,0.2898656743450147
9215,10.0,299.45569,-7079.6024,0.0,0.09215000592336486,0.0,0.0,0.0,0.0,0.4339926078517356,1.1796306300204789,0.5383990937908535,0.00998936797364886,0.015621890821260585,0.2906630819087127
9216,10.0,299.76057000000003,-7260.7445,0.0,0.09216003490084157,0.0,0.0,0.0,0.0,0.4592991167842936,1.175906125302899,0.5718797344601355,0.0027888503234880973,-0.014252733583885287,0.2873918748883697
9217,10.0,299.50355,-7470.641,0.0,0.09217003088826115,0.0,0.0,0.0,0.0,0.5031756122870665,1.171993561366759,0.5957191484404024,-0.00023945826519019078,-0.011725171076934288,0.2708522895310398
9218,10.0,299.36645,-7442.956999999999,0.0,0.09218002687568028,0.0,0.0,0.0,0.0,0.4904179322654815,1.1902244637910089,0.5818306813072175,-0.009032257096764371,0.004177042071941956,0.28015527307167276
9219,10.0,299.5765,-7262.2498,0.0,0.09219002286309963,0.0,0.0,0.0,0.0,0.47636628120369157,1.159804871938829,0.5713714375474704,-0.0006773045874122585,0.013556704732442589,0.27839933091337477
9220,10.0,299.50792,-7236.2325,0.0,0.09220001885051898,0.0,0.0,0.0,0.0,0.47019711810234255,1.1737084871610088,0.5557283758786205,-0.006880305489958284,0.012152640015872188,0.2868909949664367
9221,10.0,300.40677,-7256.3406,0.0,0.09221001483793834,0.0,0.0,0.0,0.0,0.4708622661304875,1.162651395444759,0.5722327305299735,-0.005665851480501004,0.014256172554724684,0.2817226088563567
9222,10.0,300.37005,-7235.0612,0.0,0.09222001082535769,0.0,0.0,0.0,0.0,0.4654745519037615,1.161410062747249,0.5723933509358254,0.015855545281070485,-0.0034306061558494667,0.2874475732463667
9223,10.0,300.14693,-7154.7945,0.0,0.09223000681277682,0.0,0.0,0.0,0.0,0.47100016946909756,1.161353827366699,0.5425248658130355,0.003002786125751917,-0.0065987635131972535,0.29082780597746977
9224,10.0,300.32516,-7115.2095,0.0,0.09224003579025353,0.0,0.0,0.0,0.0,0.4481501131514725,1.167512462799509,0.5471834857978055,0.013503411830182988,-0.02418127949775648,0.29741147956222774
9225,10.0,299.96959,-7231.545999999999,0.0,0.0922500317776731,0.0,0.0,0.0,0.0,0.4817175792218235,1.168752275621869,0.5477395270551825,0.0028932850993700072,-0.013659205112558586,0.2927665587188097
9226,10.0,299.36772,-7395.9415,0.0,0.09226002776509223,0.0,0.0,0.0,0.0,0.47440952300807454,1.1964715559575487,0.5773004401101175,0.018526295225902982,0.015061746914228683,0.28280178100786274
9227,10.0,299.81678999999997,-7382.2171,0.0,0.09227002375251181,0.0,0.0,0.0,0.0,0.4772275640536935,1.1823219236110887,0.5844601869067295,0.0040858717531191465,0.009176799452679591,0.2821158613526677
9228,10.0,299.7238,-7291.9036,0.0,0.09228001973993094,0.0,0.0,0.0,0.0,0.4514464893042996,1.1850865765089387,0.5800235700188694,-0.006364792210081084,-0.0009398815417865861,0.2809578482108807
9229,10.0,299.28764,-7261.9402,0.0,0.09229001572735007,0.0,0.0,0.0,0.0,0.4730382612502415,1.1673406155825488,0.5670695829229105,-0.01964454843376598,0.006379974445604454,0.27355576238785173
9230,10.0,299.01804,-7397.6699,0.0,0.09230001171476965,0.0,0.0,0.0,0.0,0.4760180474093235,1.176973989583289,0.5957149434524874,-0.0036336775865660567,0.01167055689654429,0.2782646091800787
9231,10.0,299.18532000000005,-7357.7390000000005,0.0,0.09231000770218878,0.0,0.0,0.0,0.0,0.4968334569961445,1.1862772467014489,0.5534582498245765,-0.0006113283472909104,0.0033642238861480464,0.29139274357072475
9232,10.0,299.86234,-7088.9754,0.0,0.09232003667966548,0.0,0.0,0.0,0.0,0.4508375361267006,1.1556984732585591,0.5483354802339985,0.01106950504322509,-0.01130075911354809,0.2948005063070447
9233,10.0,299.92177000000004,-7001.3126,0.0,0.09233003266708484,0.0,0.0,0.0,0.0,0.44363381427574855,1.156231341486149,0.5283590721274805,0.022331143583662276,-0.003637807695298666,0.3039969162021597
9234,10.0,300.05978999999996,-7175.3997,0.0,0.09234002865450441,0.0,0.0,0.0,0.0,0.45118828278131656,1.1794180501494989,0.5505360162711745,0.016454756058957985,0.007883595645450311,0.2920822602637747
9235,10.0,300.0671,-7286.304,0.0,0.09235002464192377,0.0,0.0,0.0,0.0,0.4793247688456716,1.1661620030662287,0.5693677152097184,-0.002904422947119227,0.0020662916460021078,0.29433553596865575
9236,10.0,300.35972999999996,-7316.5755,0.0,0.0923600206293429,0.0,0.0,0.0,0.0,0.46541894473827355,1.1951444009765688,0.5634928911299185,-0.012079050700859488,-0.012367334539810888,0.28931615841828173
9237,10.0,300.53244,-7175.4332,0.0,0.09237001661676203,0.0,0.0,0.0,0.0,0.4658078605241565,1.158604170570329,0.5567404911385085,-0.008395295457251152,0.002476950157830948,0.2652044841361448
9238,10.0,299.87897000000004,-7179.9435,0.0,0.09238001260418138,0.0,0.0,0.0,0.0,0.4530904875915495,1.1571739680541788,0.5722590750325734,-0.002531909856505047,0.017708083611151785,0.27562162735423673
9239,10.0,299.60482,-7469.3295,0.0,0.09239000859160074,0.0,0.0,0.0,0.0,0.5070182822313085,1.1783001313141688,0.5851712554294064,-0.01110852023832559,0.007964666089926343,0.2658684567941737
9240,10.0,299.42906,-7553.0135,0.0,0.09240003756907744,0.0,0.0,0.0,0.0,0.5010335002506565,1.1847195773227188,0.6101744074145253,-0.005893578123250874,-0.007202944992100322,0.2697315031979267
9241,10.0,299.45797999999996,-7262.3011,0.0,0.0924100335564968,0.0,0.0,0.0,0.0,0.4822440741062845,1.172173818559549,0.5531403122081985,0.0042446927281185555,-0.00978217302032531,0.27254281626288174
9242,10.0,299.09991,-7139.893,0.0,0.09242002954391615,0.0,0.0,0.0,0.0,0.4475885699460526,1.164635541790579,0.5581251075326594,0.005944869349937925,-0.003964586830724256,0.28754108609809576
9243,10.0,299.38607,-7214.5058,0.0,0.09243002553133572,0.0,0.0,0.0,0.0,0.47260238132222354,1.1834389305213289,0.5369882950141185,0.017631088762552982,-0.007634261342992932,0.29511055070514375
9244,10.0,300.32552000000004,-7220.6263,0.0,0.09244002151875486,0.0,0.0,0.0,0.0,0.4515586662228705,1.187156342488209,0.5561751279802115,-0.0037324707885411862,-0.0096390604616262,0.3057789394180317
9245,10.0,299.85175,-7139.5087,0.0,0.09245001750617399,0.0,0.0,0.0,0.0,0.46766567484750854,1.164630475540079,0.5379361904826685,0.015394754599343986,0.019387653056412383,0.2957322708340027
9246,10.0,299.95308,-6990.0186,0.0,0.09246001349359334,0.0,0.0,0.0,0.0,0.4291250962263496,1.1656730085679687,0.5299930291062395,-0.01136989418112119,0.019129271241162083,0.2886709004895997
9247,10.0,300.07935,-7027.2933,0.0,0.09247000948101292,0.0,0.0,0.0,0.0,0.45008185420212055,1.153679775084329,0.5323600927973505,0.006914730054155723,0.004655961520482626,0.28871101506105873
9248,10.0,300.21585,-7350.4661,0.0,0.09248000546843227,0.0,0.0,0.0,0.0,0.4575607443827296,1.1969379549785788,0.5798594336351705,-0.00949021148881095,-0.014304690009262986,0.2855482258014157
9249,10.0,299.95159,-7491.9838,0.0,0.09249003444590875,0.0,0.0,0.0,0.0,0.4959241866214065,1.190536747471829,0.5909150662712764,0.02098638439544488,-0.01132005038220199,0.27196626682348074
9250,10.0,300.10727,-7312.428000000001,0.0,0.0925000304333281,0.0,0.0,0.0,0.0,0.44986627511084454,1.1857120557956689,0.5872171695013224,0.0037375616610186165,0.002970950111584947,0.27814748760101976
9251,10.0,299.65688,-7223.5279,0.0,0.09251002642074746,0.0,0.0,0.0,0.0,0.4680669928146155,1.1720262893449889,0.5556788076837285,0.006464229940444824,0.0007223500290253973,0.28110703915560475
9252,10.0,299.353,-7224.8405,0.0,0.09252002240816681,0.0,0.0,0.0,0.0,0.47364581614270257,1.1738130545713288,0.5487122876811865,-0.003589543451960356,0.0060234986722730345,0.2901425854648437
9253,10.0,299.72798,-7230.4308,0.0,0.09253001839558594,0.0,0.0,0.0,0.0,0.4830381886071575,1.1684502257670588,0.5463819948362045,-0.0018123001421100982,-0.0012964704242266686,0.27693122271098375
9254,10.0,299.30251,-7119.7372,0.0,0.0925400143830053,0.0,0.0,0.0,0.0,0.45892533895490456,1.161238418180309,0.5440585515618985,0.015171550801065485,0.008073294809297162,0.2945965390619147
9255,10.0,300.00113999999996,-7078.2781,0.0,0.09255001037042465,0.0,0.0,0.0,0.0,0.4497950436288146,1.155961411659509,0.5458633526400185,0.009145694903759811,-0.013420864371036187,0.28042199089549574
9256,10.0,300.33262,-7197.7987,0.0,0.09256000635784423,0.0,0.0,0.0,0.0,0.4429426155875326,1.178190598978359,0.5668178409355654,0.015186808321071287,-0.008696814672983782,0.3005153685935577
9257,10.0,300.51957000000004,-7311.9697,0.0,0.09257003533532093,0.0,0.0,0.0,0.0,0.48855313664894057,1.171926484210139,0.5621765779250084,-0.003577688628440377,-0.0014206413868813887,0.27936786628646176
9258,10.0,300.13514,-7389.1586,0.0,0.09258003132274006,0.0,0.0,0.0,0.0,0.48598711116819354,1.1730157280676388,0.5871168577414225,-0.009409515946871921,0.019883007725550083,0.27616036229990576
9259,10.0,300.11697000000004,-7420.0748,0.0,0.09259002731015942,0.0,0.0,0.0,0.0,0.4954614150357346,1.1904324840365388,0.5696236115224734,-0.017629500999646285,0.01828903562223728,0.2739502510492847
9260,10.0,300.37793999999997,-7234.9728,0.0,0.09260002329757877,0.0,0.0,0.0,0.0,0.45478258486104656,1.176825143143599,0.5676432952620315,-0.021679860869885683,0.007864598725950463,0.28409141533763976
9261,10.0,300.00382,-7214.9671,0.0,0.0926100192849979,0.0,0.0,0.0,0.0,0.4517010481269225,1.184634565639329,0.5568342573027625,-0.005973663587304694,0.0007253190038059123,0.2830681441941508
9262,10.0,299.78692,-7287.1986,0.0,0.09262001527241726,0.0,0.0,0.0,0.0,0.4455024805076716,1.1973144787157388,0.5723094740925474,0.0037671072233345358,-0.003156709049767927,0.2955167018752277
9263,10.0,299.90115,-7174.3681,0.0,0.09263001125983661,0.0,0.0,0.0,0.0,0.47274354732615553,1.1676312157112287,0.5404540055236574,0.004696882436371206,-0.012627178474955487,0.28837266045516574
9264,10.0,299.94132,-7124.6379,0.0,0.09264000724725596,0.0,0.0,0.0,0.0,0.4428671183225816,1.1923576592265388,0.5304872317100136,0.011838360232355188,-0.016782818070335184,0.31100940736173865
9265,10.0,299.5883,-7161.2408,0.0,0.09265003622473289,0.0,0.0,0.0,0.0,0.4603102897215886,1.1632035154242488,0.5533245818713844,0.0092500879337376,-0.004709626386853935,0.28542119463637877
9266,10.0,300.0937,-7196.4437,0.0,0.09266003221215202,0.0,0.0,0.0,0.0,0.4570697841792756,1.1653847389145189,0.5650846462420124,0.024918398680504477,0.014434213769545986,0.2930092118527577
9267,10.0,299.54762,-7317.2907,0.0,0.09267002819957137,0.0,0.0,0.0,0.0,0.4717296487460915,1.1740930155739588,0.5784509653336655,0.001046000876357249,-0.0028304250896662073,0.2683083326374707
9268,10.0,299.68171,-7374.3579,0.0,0.09268002418699073,0.0,0.0,0.0,0.0,0.4706726059767695,1.1782041765296989,0.5927438712442654,0.0015757600473404086,-0.011600806786160489,0.2836917591006967
9269,10.0,300.2006,-7313.4052,0.0,0.09269002017440986,0.0,0.0,0.0,0.0,0.48756656542407356,1.1691902023150886,0.5663357973329916,-0.01926376499318558,-0.008133625138801302,0.25535847960191976
9270,10.0,300.26829,-7277.6472,0.0,0.09270001616182943,0.0,0.0,0.0,0.0,0.4739526485379845,1.161690327724909,0.5765800800840234,0.004169877481809866,0.014687558718549185,0.26881331622230875
9271,10.0,300.5507,-7323.5083,0.0,0.09271001214924857,0.0,0.0,0.0,0.0,0.4994517256520476,1.170775533421549,0.5559364467866555,-0.004660799789710126,-8.480417584902052e-05,0.26780851662814276
9272,10.0,300.60561,-7249.3353,0.0,0.09272000813666792,0.0,0.0,0.0,0.0,0.4676260162385945,1.1755577699185187,0.5604331291404434,-0.005294126698464625,-0.0039460596539707665,0.28583127721685075
9273,10.0,300.25402,-7132.4355,0.0,0.09273003711414485,0.0,0.0,0.0,0.0,0.4506228588280136,1.167283974901959,0.5501755018855945,0.01011161457171366,0.004756401456520276,0.28952840391672874
9274,10.0,300.62628,-7148.7745,0.0,0.09274003310156398,0.0,0.0,0.0,0.0,0.44751748031903654,1.1683201244542187,0.5572113585924795,0.008355036497652901,0.013784217883396385,0.29441267469876875
9275,10.0,300.60551,-7239.0322,0.0,0.09275002908898333,0.0,0.0,0.0,0.0,0.4846530458215315,1.169468744767579,0.5463632902393585,0.018016075164548184,-0.01064903664922809,0.29087631025975674
9276,10.0,299.70797000000005,-7212.0457,0.0,0.09276002507640246,0.0,0.0,0.0,0.0,0.4681157808069306,1.1665993218093886,0.5575666851375475,-0.02108249826018058,-0.03245031831834707,0.2900305301362847
9277,10.0,299.56275,-7137.443,0.0,0.09277002106382204,0.0,0.0,0.0,0.0,0.46533236251722854,1.1582800318633388,0.5459920658002215,0.004558094935723946,-0.012212858482565288,0.28620004959074574
9278,10.0,300.22794,-7178.0319,0.0,0.09278001705124139,0.0,0.0,0.0,0.0,0.44265168108631964,1.169656196036079,0.5696345951535575,-0.013395097420993186,0.011492585595979888,0.29180074898849173
9279,10.0,299.90949,-7294.4451,0.0,0.09279001303866052,0.0,0.0,0.0,0.0,0.4553633494208636,1.1772236544079289,0.5847421338795554,0.02016718587509628,0.013091984666828288,0.28392697497891073
9280,10.0,300.21249,-7276.0659,0.0,0.09280000902607988,0.0,0.0,0.0,0.0,0.45569449981854554,1.1961784227036187,0.5598694074473084,-0.003391773143116947,-0.012144049681524388,0.2971177788882417
9281,10.0,299.93289,-7219.0989,0.0,0.09281000501349923,0.0,0.0,0.0,0.0,0.47891657091038553,1.1650702260834789,0.5504389874415985,0.00933771856466107,-0.005066168528066905,0.27345262366017276
9282,10.0,300.22874,-7157.4764,0.0,0.09282003399097594,0.0,0.0,0.0,0.0,0.4550424227166906,1.173749523790059,0.5469021062450354,0.017278974220301984,0.004085336250441296,0.28254867113288273
9283,10.0,300.6551,-7148.0434,0.0,0.09283002997839529,0.0,0.0,0.0,0.0,0.4737674973472115,1.1600965866426187,0.5389626128339685,0.0019023382552711685,0.000993398372318286,0.27834556786306874
9284,10.0,300.65008,-7304.8015,0.0,0.09284002596581442,0.0,0.0,0.0,0.0,0.45317572218996155,1.1886102550566988,0.5786912575948804,-0.006980542978625953,-0.01157726999958759,0.2954949980580857
9285,10.0,299.88063999999997,-7306.8829,0.0,0.092850021953234,0.0,0.0,0.0,0.0,0.4674927738504446,1.1795592972134388,0.5740578472725985,-0.003505434675734466,0.004161908067123346,0.28187637969153273
9286,10.0,300.3279,-7078.0695,0.0,0.09286001794065335,0.0,0.0,0.0,0.0,0.45201326088023563,1.1432965960095889,0.5562465317147585,0.007755931300425822,0.015123324149305884,0.2891920656785347
9287,10.0,300.26871,-7152.1387,0.0,0.09287001392807248,0.0,0.0,0.0,0.0,0.4690182725384996,1.164786110755439,0.5402672027352216,0.0035690760025903767,-0.0025244101845648876,0.27077751167365977
9288,10.0,299.85907000000003,-7292.5147,0.0,0.09288000991549183,0.0,0.0,0.0,0.0,0.4750528456290656,1.168326305279829,0.5733632845940505,-0.0030179507307235474,-0.015437094268022585,0.26966236914360375
9289,10.0,300.50777,-7320.2262,0.0,0.09289000590291097,0.0,0.0,0.0,0.0,0.4903027966566185,1.1700652451014488,0.5647978761987105,0.005753480186249284,0.004458786192097936,0.26223231761781474
9290,10.0,299.90577,-7276.2235,0.0,0.0929000348803879,0.0,0.0,0.0,0.0,0.4561472098307246,1.1769451119554388,0.5786979653105424,0.015732174988644786,0.011691305218841989,0.28586270823495274
9291,10.0,299.89051,-7307.4075,0.0,0.09291003086780725,0.0,0.0,0.0,0.0,0.47382232431012256,1.192447838485439,0.5549992715041635,0.0006474829853715953,0.017784435045937082,0.29152069679335274
9292,10.0,300.04647,-7350.2584,0.0,0.09292002685522638,0.0,0.0,0.0,0.0,0.48076921765822755,1.1931042219002188,0.5604215375592995,-0.024527753276700776,-0.016819811831486182,0.29260514797787973
9293,10.0,300.06591000000003,-7298.1308,0.0,0.09293002284264573,0.0,0.0,0.0,0.0,0.4717975061052886,1.1833279796353788,0.5633239924707495,-0.01178140645748429,0.001074796025649109,0.29175291345127075
9294,10.0,299.6942,-7143.4896,0.0,0.09294001883006531,0.0,0.0,0.0,0.0,0.4674115010599236,1.152530040195859,0.5515008735463985,-0.0025794485114467476,0.013562397171504386,0.28281316993898675
9295,10.0,300.12831,-7037.8866,0.0,0.09295001481748444,0.0,0.0,0.0,0.0,0.43699045012759963,1.1559818793115288,0.5463694406674655,0.006165804582567535,0.0005731915387021004,0.28698607835582074
9296,10.0,300.31926,-7177.8106,0.0,0.09296001080490379,0.0,0.0,0.0,0.0,0.4241966376074486,1.1910639414988589,0.5666146234955094,0.0012966330508677188,-0.009354320160924521,0.30683033838429674
9297,10.0,300.34233,-7359.0558,0.0,0.09297000679232292,0.0,0.0,0.0,0.0,0.46933155933691856,1.1850105827514388,0.5826270452233124,0.00921861861478182,-0.0070131431860183426,0.2941165219595407
9298,10.0,300.73154,-7353.3268,0.0,0.09298003576979985,0.0,0.0,0.0,0.0,0.48127250911539854,1.1853321883331789,0.5686230371812245,0.02332247404424898,0.02095797691564128,0.28952551615394373
9299,10.0,300.42221,-7260.8686,0.0,0.0929900317572192,0.0,0.0,0.0,0.0,0.4806910859430165,1.179126234120699,0.5473054405798414,-0.009229487039329451,0.008661654590538751,0.27902386787751177
9300,10.0,300.15185,-7267.0021,0.0,0.09300002774463856,0.0,0.0,0.0,0.0,0.47337166106314554,1.1748707863507188,0.5607447643411995,-0.003963513697543346,-0.02087101979205928,0.2773745702922387
9301,10.0,299.91843,-7369.5134,0.0,0.09301002373205769,0.0,0.0,0.0,0.0,0.4948988079177095,1.1790008950833288,0.5662483133193574,-0.01914109688307918,0.001269414518731459,0.26136627249234273
9302,10.0,299.65252000000004,-7394.4417,0.0,0.09302001971947704,0.0,0.0,0.0,0.0,0.46215339165348857,1.190299646948429,0.5952725787238295,0.009079132579515621,0.009550789355314521,0.27845196925606974
9303,10.0,299.17872,-7219.9605,0.0,0.0930300157068964,0.0,0.0,0.0,0.0,0.4816844155460505,1.1683869989608189,0.5446163052119445,-0.003681829967093326,0.0027301219423920575,0.2828605799111657
9304,10.0,299.46505,-7162.4703,0.0,0.09304001169431575,0.0,0.0,0.0,0.0,0.4552930602614266,1.1644485971471288,0.5574704365105485,-0.008138582160940523,-0.0069785751456067436,0.29353288990194076
9305,10.0,299.80562000000003,-7271.5799,0.0,0.09305000768173488,0.0,0.0,0.0,0.0,0.49109986984778353,1.1603231493649788,0.5589556889046314,0.008441392358625562,0.00982638021026322,0.27987874698688175
9306,10.0,300.20101,-7313.3679,0.0,0.09306003665921181,0.0,0.0,0.0,0.0,0.4752854270570196,1.1614107720223188,0.5863850783867014,0.007204501749553963,0.016209559667258983,0.27822515322118474
9307,10.0,299.93455,-7269.2135,0.0,0.09307003264663116,0.0,0.0,0.0,0.0,0.45831204906687756,1.1702288849925988,0.5811184982094305,0.003939294791003126,0.01243385643537609,0.2763881105248827
9308,10.0,299.8471,-7105.6566,0.0,0.09308002863405052,0.0,0.0,0.0,0.0,0.4274934494578186,1.1704324469376888,0.5620163020241905,-0.01117352225874079,-0.027067382579092674,0.28276839441706775
9309,10.0,299.44707,-7143.3554,0.0,0.09309002462146965,0.0,0.0,0.0,0.0,0.4603479724928076,1.1745801862220389,0.5364735436983165,0.0012199325514229689,-0.004967443619148516,0.2864672740396187
9310,10.0,299.97357999999997,-7287.82,0.0,0.093100020608889,0.0,0.0,0.0,0.0,0.4693695967456725,1.1924704339626688,0.5534752217637515,0.0028104315373679973,0.005252125050019385,0.28279958225514573
9311,10.0,300.22851,-7319.0993,0.0,0.09311001659630835,0.0,0.0,0.0,0.0,0.49374607380894353,1.1911902937863288,0.5398870718277055,-0.0026071723514078777,-0.0061380153879749535,0.2834538277122147
9312,10.0,300.19753,-7222.8859999999995,0.0,0.09312001258372771,0.0,0.0,0.0,0.0,0.46621608885694554,1.185225087797609,0.5441358524120274,-0.013654614076355487,-0.004058856276302925,0.2899304615564087
9313,10.0,299.57288,-7209.0954,0.0,0.09313000857114706,0.0,0.0,0.0,0.0,0.4589068978030846,1.1790745583655988,0.5534035545841786,0.0061759823758470046,0.009392363649179121,0.3028203200535387
9314,10.0,299.89034,-7278.9739,0.0,0.09314003754862354,0.0,0.0,0.0,0.0,0.45506073214599757,1.1782435919585887,0.5793220159146315,0.004696001820709295,0.017056376345583286,0.2907267140149927
9315,10.0,299.99452,-7289.9652,0.0,0.09315003353604312,0.0,0.0,0.0,0.0,0.47578052132088156,1.1820066001799687,0.5581802587356025,0.001006347982173813,-0.00035643321682721967,0.2995646765547317
9316,10.0,299.88844,-7225.0249,0.0,0.09316002952346247,0.0,0.0,0.0,0.0,0.4582484878881045,1.176140692701049,0.5618379598740896,-0.015436739630487585,-0.023903004543292878,0.2918312680815037
9317,10.0,299.58731,-7140.2982,0.0,0.0931700255108816,0.0,0.0,0.0,0.0,0.4679356249391506,1.161690327724909,0.5408463764923814,-0.0013763490839350785,0.005650813227816845,0.2803099659644398
9318,10.0,299.17599,-7148.1258,0.0,0.09318002149830096,0.0,0.0,0.0,0.0,0.44859132277501657,1.164306944783149,0.5599534666756044,0.008444311329513642,0.008597997153006251,0.27454959861593575
9319,10.0,299.54842,-7291.5804,0.0,0.09319001748572031,0.0,0.0,0.0,0.0,0.45851160867407253,1.180437987700159,0.5775087440656754,0.013645190850425487,0.007385747671791543,0.2649976493932317
9320,10.0,299.15729,-7469.9927,0.0,0.09320001347313966,0.0,0.0,0.0,0.0,0.47765624990600153,1.1972763805119788,0.5957585841342945,-0.01016234830819569,-0.018849114681262782,0.2751564644983287
9321,10.0,299.97609,-7462.6711,0.0,0.09321000946055902,0.0,0.0,0.0,0.0,0.5044683066321456,1.1887910188745388,0.5752063054659424,0.018997582165415382,-0.006522439132189624,0.28011172358237474
9322,10.0,299.66272999999995,-7329.9173,0.0,0.09322000544797815,0.0,0.0,0.0,0.0,0.49641273528962254,1.166853748909499,0.5648453773633985,-0.0052788699890589045,0.004232227218763306,0.2921567848086297
9323,10.0,300.37431000000004,-7190.3528,0.0,0.09323003442545508,0.0,0.0,0.0,0.0,0.48550526008313855,1.1597786287612388,0.5404038800412105,0.014291567407217886,0.006347108462710834,0.28497956958029375
9324,10.0,299.62089,-7234.6837,0.0,0.09324003041287443,0.0,0.0,0.0,0.0,0.4661585666487686,1.1719974117171388,0.5610071859845984,-0.02034798515668978,0.005053026674269905,0.27834397706041175
9325,10.0,300.12756,-7267.795,0.0,0.09325002640029356,0.0,0.0,0.0,0.0,0.4585677629946146,1.180640131095109,0.5700202685391205,-0.002631917540050038,0.01013912461590369,0.28438659535677174
9326,10.0,300.73852999999997,-7098.0294,0.0,0.09326002238771292,0.0,0.0,0.0,0.0,0.4511212461547005,1.153817374447909,0.5526851298657754,0.0015005423380919987,0.012998138455816386,0.27999973918132276
9327,10.0,300.59754,-7118.6972,0.0,0.09327001837513205,0.0,0.0,0.0,0.0,0.4555727983490346,1.1655431099051488,0.5427902664117285,0.004388201568931776,-0.0025882523375906174,0.2964689745842097
9328,10.0,299.88362,-7336.1177,0.0,0.09328001436255162,0.0,0.0,0.0,0.0,0.46934324211057155,1.1979188824003888,0.5627344329000645,-0.0012555588302390088,-0.014440423979408885,0.29092351758191576
9329,10.0,299.65764,-7408.7516,0.0,0.09329001034997098,0.0,0.0,0.0,0.0,0.48647829428666955,1.199133161320229,0.5664640140006454,0.005172666078502395,-0.008220239074574432,0.29708881006788274
9330,10.0,299.75228,-7355.3791,0.0,0.0933000063373901,0.0,0.0,0.0,0.0,0.45708645214342053,1.2001437769699688,0.5786213737354834,0.006106446770509374,0.012867926698715488,0.28243950356710873
9331,10.0,299.9669,-7137.6897,0.0,0.09331003531486703,0.0,0.0,0.0,0.0,0.4441159186733286,1.1682970223519389,0.5572664793979194,-0.0010473161763120589,-0.0037619564677761966,0.2895497632288367
9332,10.0,299.86999,-7116.8375,0.0,0.09332003130228639,0.0,0.0,0.0,0.0,0.4477174654912736,1.1663486437346489,0.5492748238717045,-0.015516614135870587,-0.007828214232084593,0.28556795378086275
9333,10.0,299.38613,-7236.022,0.0,0.09333002728970552,0.0,0.0,0.0,0.0,0.46492570472209455,1.181524090482349,0.5531201687962105,0.00016644287529913286,-0.003959567493703886,0.2859642358949727
9334,10.0,299.52968,-7238.3449,0.0,0.09334002327712487,0.0,0.0,0.0,0.0,0.47896370730503757,1.157015698388559,0.5642967024342485,0.0037383431808207467,-0.001976421023082568,0.2855721385037757
9335,10.0,300.51892000000004,-7226.6133,0.0,0.09335001926454423,0.0,0.0,0.0,0.0,0.47812821167008057,1.1598928220475089,0.5586890014783115,0.006799541756287525,-0.008057172176355981,0.2765864542319577
9336,10.0,300.60519,-7274.9001,0.0,0.09336001525196358,0.0,0.0,0.0,0.0,0.4674238627111436,1.173559944696349,0.5704041586045074,0.0001397556712503109,-0.01276720558577509,0.27667138485533976
9337,10.0,300.19757999999996,-7447.8582,0.0,0.09337001123938293,0.0,0.0,0.0,0.0,0.48799976023932656,1.1865116114495788,0.5894515784893414,0.0006623864251299504,0.0044187479183714655,0.26711002253920674
9338,10.0,299.28472999999997,-7544.2434,0.0,0.09338000722680206,0.0,0.0,0.0,0.0,0.5030114353733636,1.187435391565749,0.6028148173006904,0.004857106661434105,0.012272231898674988,0.2574045152638477
9339,10.0,300.13507999999996,-7427.0445,0.0,0.09339003620427899,0.0,0.0,0.0,0.0,0.49597806112922355,1.1825091722295689,0.5791488818700444,-0.0096126075412655,0.0069737771024082134,0.27317640155041173
9340,10.0,299.56842,-7296.1417,0.0,0.09340003219169812,0.0,0.0,0.0,0.0,0.47764208466960356,1.1790929995174189,0.5611097674247225,-0.01188897106160009,0.005736551512853555,0.27732220552707076
9341,10.0,299.18158,-7159.2866,0.0,0.09341002817911748,0.0,0.0,0.0,0.0,0.4605542499481656,1.1805168185579389,0.5351732803749905,-0.007277058360064742,0.004697128656145505,0.2967861826605157
9342,10.0,299.04601,-7158.1289,0.0,0.09342002416653683,0.0,0.0,0.0,0.0,0.4389043782414896,1.174857411449399,0.5621306776954784,0.015224512370542384,0.01016379218958819,0.28122180999443175
9343,10.0,299.56302,-7176.9438,0.0,0.09343002015395618,0.0,0.0,0.0,0.0,0.4547483370076666,1.176316288943379,0.5505470404322625,-0.002878294064140507,-0.015502476257225286,0.2902110609066017
9344,10.0,300.23759,-7087.2216,0.0,0.09344001614137554,0.0,0.0,0.0,0.0,0.44785954342029555,1.165324045233529,0.5411547895578194,0.012313866345283989,-0.011009902632592791,0.2885325209234427
9345,10.0,300.33466,-7140.6481,0.0,0.09345001212879467,0.0,0.0,0.0,0.0,0.4476525060273625,1.175311043519169,0.5476151708704095,-0.0028840742506609667,-0.0021799153843908977,0.2954564438917807
9346,10.0,300.01766000000003,-7251.9488,0.0,0.09346000811621402,0.0,0.0,0.0,0.0,0.47419218086162457,1.1724450656113188,0.5577741683605244,0.01097369312701919,0.008348037979212202,0.3016618306842047
9347,10.0,300.06347999999997,-7397.4675,0.0,0.09347003709369095,0.0,0.0,0.0,0.0,0.47806154994600153,1.1959943151604489,0.5745895705275754,-0.01061372893624349,0.000836132422114845,0.28431723838742673
9348,10.0,300.43658999999997,-7354.0841,0.0,0.09348003308111008,0.0,0.0,0.0,0.0,0.47051694036390657,1.1891264046576389,0.5758145595009725,-0.01282086224482059,0.006587396974900464,0.2968620953580077
9349,10.0,300.35954,-7219.5246,0.0,0.09349002906852943,0.0,0.0,0.0,0.0,0.4732060554668015,1.163569400035359,0.5577797817660785,-0.0008831521916803351,0.011236993258254889,0.2729720796677467
9350,10.0,300.86604,-7162.246,0.0,0.09350002505594879,0.0,0.0,0.0,0.0,0.4699916715120665,1.163893842717379,0.5432584487529345,-0.01694655928649518,0.00997475407010658,0.27883878761424574
9351,10.0,300.20243999999997,-7285.7806,0.0,0.09351002104336814,0.0,0.0,0.0,0.0,0.48718959585686955,1.168426819689749,0.5590789913093004,0.008328147677099182,-0.008077971161158682,0.2547324024976308
9352,10.0,299.5574,-7359.2704,0.0,0.0935200170307875,0.0,0.0,0.0,0.0,0.4923172391804286,1.1799811132300688,0.5647360375451075,3.489319540844027e-05,-0.004989945877369315,0.28263409824881375
9353,10.0,299.44624,-7236.5511,0.0,0.09353001301820663,0.0,0.0,0.0,0.0,0.45624417786529453,1.1773772631230888,0.5661093967306474,0.018966430804340982,-0.0007965427648701502,0.2794548740725487
9354,10.0,299.62458,-7156.2242,0.0,0.09354000900562598,0.0,0.0,0.0,0.0,0.4494661831763586,1.160935659050429,0.5649116033899344,-0.005325132658149675,-0.006266485672128984,0.28641584146454274
9355,10.0,300.04188999999997,-7319.0264,0.0,0.09355003798310291,0.0,0.0,0.0,0.0,0.48476567870264753,1.158556851790659,0.5814787592824855,0.004161298597188196,-0.009044663229663762,0.27795751333977076
9356,10.0,300.07982000000004,-7438.6298,0.0,0.09356003397052204,0.0,0.0,0.0,0.0,0.49503213136586754,1.190145632933229,0.5759799320497935,-0.014156792984916686,-0.0068065589185300635,0.27722778075025173
9357,10.0,300.21962,-7313.6357,0.0,0.09357002995794139,0.0,0.0,0.0,0.0,0.4742197007343406,1.1777439583342788,0.5711989722479495,0.008111932974035452,0.0034648275634018566,0.28635614076865074
9358,10.0,300.11272,-7302.9131,0.0,0.09358002594536097,0.0,0.0,0.0,0.0,0.4743216742244045,1.1844228976934388,0.5611586466095465,-0.005861063434166925,0.008516354526198752,0.27535420025534374
9359,10.0,300.6355,-7238.0005,0.0,0.0935900219327801,0.0,0.0,0.0,0.0,0.4454137907264185,1.187414214638659,0.5673433630999304,0.004364738242991126,-0.006972153470447973,0.3000238815000517
9360,10.0,299.7057,-7198.3518,0.0,0.09360001792019945,0.0,0.0,0.0,0.0,0.45501748663172953,1.1768032569414386,0.5562984303848805,-0.0015749252305830184,0.006322088379316544,0.27646655634762474
9361,10.0,299.95189,-7100.9763,0.0,0.09361001390761858,0.0,0.0,0.0,0.0,0.4439716825215935,1.1774039116007189,0.5371438491694706,-0.00039911653940973566,0.0006925965984514624,0.30394718588725167
9362,10.0,299.39011,-7053.4135,0.0,0.09362000989503794,0.0,0.0,0.0,0.0,0.4541618678497865,1.152219681690229,0.5376800509898896,-0.006055046214136535,0.0014864278655240086,0.29020916612891473
9363,10.0,300.29481,-7065.5126,0.0,0.09363000588245729,0.0,0.0,0.0,0.0,0.45150413310248855,1.1621362590939188,0.5340990528839724,-0.003594155665090547,-0.010491713359201491,0.2989513360041997
9364,10.0,300.3174,-7227.3538,0.0,0.093640034859934,0.0,0.0,0.0,0.0,0.4648432464289566,1.1757617371636488,0.5563301552455114,0.01061133462625719,0.002189262819213418,0.2960078748612027
9365,10.0,300.58707999999996,-7422.0088,0.0,0.09365003084735335,0.0,0.0,0.0,0.0,0.4630863619480656,1.196111750847039,0.5969072145801554,0.01135543915519459,0.005271840566490155,0.29656495976618275
9366,10.0,300.7676,-7321.0075,0.0,0.0936600268347727,0.0,0.0,0.0,0.0,0.47766733486209556,1.1727544108668488,0.5749817388462796,0.005800310478046074,0.0068448071846298735,0.28358598592275774
9367,10.0,300.8318,-7207.8078,0.0,0.09367002282219206,0.0,0.0,0.0,0.0,0.4748980311462866,1.1526444361321488,0.5634511553582995,-0.001016577917303429,-0.015846390566416985,0.2718647290309597
9368,10.0,299.60513,-7272.388000000001,0.0,0.09368001880961141,0.0,0.0,0.0,0.0,0.49020138045410955,1.1678411611319488,0.5525818290180805,-0.005114808585867305,-0.002887442192668357,0.2777498882617797
9369,10.0,299.9045,-7223.28,0.0,0.09369001479703054,0.0,0.0,0.0,0.0,0.4776697869273375,1.1689447931408687,0.5490821442326885,-0.004150908629337786,-0.0004847739873534675,0.26278791304514776
9370,10.0,300.03525,-7220.3599,0.0,0.09370001078444967,0.0,0.0,0.0,0.0,0.4640120773719265,1.169337022254579,0.5614600581167934,-0.002290811352185478,0.0016562590187600384,0.28609351647523174
9371,10.0,299.77615,-7266.5678,0.0,0.09371000677186925,0.0,0.0,0.0,0.0,0.4525359054143166,1.175751705987659,0.5805676143950624,-0.005892997834918604,-0.005717123252786134,0.27260667128418375
9372,10.0,299.95517,-7255.53,0.0,0.09372003574934595,0.0,0.0,0.0,0.0,0.4715497157933336,1.175415712254499,0.5585345112355644,0.007830541566239283,-0.004234791856091416,0.28339314416372574
9373,10.0,299.65509,-7342.3892,0.0,0.0937300317367653,0.0,0.0,0.0,0.0,0.46998226855113856,1.1835959842868289,0.5783247245037065,-0.004567821123433845,0.007331323577120304,0.2921208448275827
9374,10.0,299.55922000000004,-7365.6882,0.0,0.09374002772418466,0.0,0.0,0.0,0.0,0.48943414747838954,1.1881096081822888,0.5614414852424605,0.004344353778804337,0.006865108866283493,0.2908179470539967
9375,10.0,299.93814,-7251.4085,0.0,0.09375002371160401,0.0,0.0,0.0,0.0,0.4666922657414406,1.1766111447224787,0.5609437463958376,-0.016087610964723588,-0.01032660932165699,0.2942049584282687
9376,10.0,299.7984,-7215.9521,0.0,0.09376001969902337,0.0,0.0,0.0,0.0,0.45243729591458454,1.1798400688161488,0.5611919318753315,0.003717314390895366,-0.006236798761424114,0.2931319873673747
9377,10.0,299.7234,-7198.3154,0.0,0.0937700156864425,0.0,0.0,0.0,0.0,0.4358624190562716,1.1978830133468488,0.5543627376588425,-0.0021121459753025776,-0.01026267324034699,0.3062355504430957
9378,10.0,300.10576000000003,-7184.3634,0.0,0.09378001167386185,0.0,0.0,0.0,0.0,0.46385915766683455,1.1613596028922688,0.5586483296192974,0.003932819616239077,0.005140044592857905,0.28133386532299076
9379,10.0,299.80255,-7298.306,0.0,0.0937900076612812,0.0,0.0,0.0,0.0,0.4603484689853566,1.1879561007921389,0.5701981648591775,-0.006938769311453214,-0.01013932523942349,0.2871862763105787
9380,10.0,299.63262000000003,-7288.6347,0.0,0.09380003663875791,0.0,0.0,0.0,0.0,0.4845930208856076,1.1789362497269489,0.5520336911114835,0.01201668009095399,0.005632478872557385,0.28310105455739876
9381,10.0,299.81113999999997,-7334.4198,0.0,0.09381003262617726,0.0,0.0,0.0,0.0,0.4666559001953516,1.188048509201259,0.5747760389434784,0.004920866133251676,0.00957252660970982,0.28688222022057075
9382,10.0,299.83561000000003,-7366.8643,0.0,0.09382002861359662,0.0,0.0,0.0,0.0,0.47586129761885354,1.1905470826228488,0.5729343960917225,0.0025574419351748674,0.013230019727951289,0.28945412255189773
9383,10.0,299.94774,-7394.2786,0.0,0.09383002460101597,0.0,0.0,0.0,0.0,0.4812532269659955,1.1787034048539689,0.5877193970458884,-0.012521930160568288,-0.012395615363351988,0.2818579689372157
9384,10.0,300.14308,-7395.4921,0.0,0.09384002058843532,0.0,0.0,0.0,0.0,0.4950855904411436,1.174551713894229,0.5784076286268884,-0.012355636567406387,-0.017405547396293783,0.27803530054994774
9385,10.0,299.81067,-7252.3769999999995,0.0,0.09385001657585446,0.0,0.0,0.0,0.0,0.4667426546689136,1.168420537539129,0.5693783442032675,0.011896862253378888,-0.006979536618626634,0.28161424175816174
9386,10.0,300.23798999999997,-7228.1822,0.0,0.09386001256327381,0.0,0.0,0.0,0.0,0.48313428524664154,1.1675862274067887,0.5464663884370335,0.002959394500819497,-0.004433144581092305,0.2772355827760217
9387,10.0,300.13493,-7389.2636,0.0,0.09387000855069316,0.0,0.0,0.0,0.0,0.4870679349173625,1.1824120015449788,0.5766717386880694,0.018340775212093582,-0.003418556484335257,0.2826018464981307
9388,10.0,299.86199,-7450.8126,0.0,0.09388003752817009,0.0,0.0,0.0,0.0,0.48278872643253756,1.205618367260269,0.5764539405790745,-0.002836073756323687,-0.004854200862797326,0.2943302366706327
9389,10.0,299.5851,-7315.5672,0.0,0.09389003351558922,0.0,0.0,0.0,0.0,0.46934141826039155,1.1894481115643887,0.5649602292622334,0.022385099151487276,0.019447499660318782,0.29538730983745776
9390,10.0,299.90177,-7210.1008,0.0,0.09390002950300858,0.0,0.0,0.0,0.0,0.4616876208475205,1.180438696975229,0.5495642992927735,-0.011171001292491989,0.008190955741384393,0.29164845749846174
9391,10.0,299.16795,-7271.6587,0.0,0.0939100254904277,0.0,0.0,0.0,0.0,0.46488626902820257,1.1854800215227688,0.5600364113287905,-0.012768145881867888,0.0045821344969964655,0.28982694792619274
9392,10.0,299.48796,-7327.3782,0.0,0.09392002147784728,0.0,0.0,0.0,0.0,0.4807922285679985,1.1848906139395987,0.5616571149962415,-0.018651164115226583,-0.004998127567951785,0.2901184802449647
9393,10.0,299.45016,-7275.7513,0.0,0.09393001746526641,0.0,0.0,0.0,0.0,0.4488000421631156,1.1976715480509788,0.5651751294759424,-0.004247688706014236,0.006454731227382373,0.3021168407741107
9394,10.0,300.04418,-7138.8247,0.0,0.09394001345268577,0.0,0.0,0.0,0.0,0.4363722358440866,1.169466515617359,0.5641857312832965,0.005897589073771724,-0.002045061624606868,0.2998055362360027
9395,10.0,300.51021000000003,-7153.769,0.0,0.09395000944010512,0.0,0.0,0.0,0.0,0.44822556988641954,1.1676156116596887,0.5587259851069615,0.0070419191848833124,-0.01256694176976059,0.29052551294263573
9396,10.0,300.6322,-7376.0123,0.0,0.09396000542752425,0.0,0.0,0.0,0.0,0.4803478880016456,1.1837070364977886,0.5780686356734325,0.006198387868683254,-0.008401735978861782,0.28314416834915374
9397,10.0,299.79332,-7432.988,0.0,0.09397003440500118,0.0,0.0,0.0,0.0,0.4883008373740405,1.185123256162559,0.5860186162230344,0.006803823244585073,-0.01046360681467759,0.2805487890130097
9398,10.0,299.74246,-7289.5713,0.0,0.09398003039242053,0.0,0.0,0.0,0.0,0.47822225141186153,1.1788812302465188,0.5587441121512505,0.002765108556419967,0.0015042138498293485,0.27126608060687774
9399,10.0,300.06389,-7228.0496,0.0,0.09399002637983966,0.0,0.0,0.0,0.0,0.4526583465564005,1.1769835141342289,0.5675046826483515,-0.0019953832894289984,-0.0016354494961562983,0.2755060256503277
9400,10.0,300.55529,-7349.4502,0.0,0.09400002236725902,0.0,0.0,0.0,0.0,0.48389371619659155,1.1786966160782988,0.5714589722236094,0.0012676318065055188,0.006778066629693094,0.27514154945685676
9401,10.0,300.17021,-7450.3956,0.0,0.09401001835467859,0.0,0.0,0.0,0.0,0.4972869877409046,1.1883021257012887,0.5791451429771755,-0.005200612124210456,0.013230617545510288,0.29277445193708873
9402,10.0,300.27094,-7359.5167,0.0,0.09402001434209772,0.0,0.0,0.0,0.0,0.4842533591870855,1.1814710975021188,0.5713848833762974,-0.0025300739486488577,-0.007327439181536942,0.2843598151566287
9403,10.0,300.3711,-7172.755,0.0,0.09403001032951708,0.0,0.0,0.0,0.0,0.46694185963857354,1.160011372309209,0.5533852147573685,-0.00964568569873006,-0.013538562489402089,0.28603519379947573
9404,10.0,300.00928999999996,-7210.0858,0.0,0.09404000631693621,0.0,0.0,0.0,0.0,0.4782951648890576,1.1614733908784989,0.5519174307950095,0.0034713868379242074,-0.006269464728747994,0.27248429093710574
9405,10.0,299.89059,-7311.1853,0.0,0.09405003529441314,0.0,0.0,0.0,0.0,0.44934629542452653,1.1916605431577387,0.5814109627182944,0.0006165363818774034,0.004019035648697936,0.28517535989711673
9406,10.0,299.76036,-7328.2708,0.0,0.09406003128183249,0.0,0.0,0.0,0.0,0.4706883417508226,1.185517106476429,0.5714058779183694,0.0036584363527595565,0.014921779585164987,0.28241036249423274
9407,10.0,299.4903,-7270.6659,0.0,0.09407002726925162,0.0,0.0,0.0,0.0,0.4544852770167046,1.1813996633700687,0.5742159446857015,-0.004650408808609615,-0.001044290307538429,0.28957889416921173
9408,10.0,300.09782,-7110.5145,0.0,0.09408002325667097,0.0,0.0,0.0,0.0,0.4555253883768555,1.1641921435468188,0.5417012859992545,0.004450839575538666,0.0017765196466288382,0.3017977480526187
9409,10.0,299.39805,-7170.6172,0.0,0.09409001924409033,0.0,0.0,0.0,0.0,0.46160319684918855,1.1720535457726788,0.5460318662641495,-0.013114018803502886,-0.003666173023898106,0.2997620779392137
9410,10.0,299.42346000000003,-7235.0594,0.0,0.09410001523150968,0.0,0.0,0.0,0.0,0.4591122329358496,1.1797128046035887,0.5604523808923435,0.01066285130109149,-0.0007393669463723363,0.2988301310272377
9411,10.0,300.20636,-7179.5078,0.0,0.09411001121892903,0.0,0.0,0.0,0.0,0.43020510937543854,1.1908753756552488,0.5613106138595444,-0.0067527886741483535,-0.008797822941002521,0.29076479195375077
9412,10.0,300.80393,-7205.3788,0.0,0.09412000720634817,0.0,0.0,0.0,0.0,0.46807434901034156,1.1688419482557189,0.5533389092277985,0.017551363204934684,0.005361525561991375,0.29241419086403375
9413,10.0,299.62595,-7298.8998,0.0,0.0941300361838251,0.0,0.0,0.0,0.0,0.46994000588946755,1.1845214869281688,0.5642218536493615,0.006719659752853784,-0.0035371222487617865,0.28691133089594373
9414,10.0,299.68088,-7307.1637,0.0,0.09414003217124445,0.0,0.0,0.0,0.0,0.48845827617457854,1.178736234157209,0.5540007945906215,-0.001033770947650249,0.0016590772725881785,0.29012178344029077
9415,10.0,299.74159,-7341.7976,0.0,0.09415002815866358,0.0,0.0,0.0,0.0,0.48554553677461354,1.168898791586329,0.5772787768229796,-0.014357031469678686,-0.01045665693224169,0.26564068830419474
9416,10.0,300.73065,-7286.1879,0.0,0.09416002414608293,0.0,0.0,0.0,0.0,0.48141734308469253,1.170915463260359,0.5624863487455805,-0.013254842328901088,0.00019311678550664282,0.27080699725156976
9417,10.0,300.59168999999997,-7249.8766,0.0,0.09417002013350229,0.0,0.0,0.0,0.0,0.4553795310249606,1.1706184796560488,0.5777834564327875,-0.005548661000435205,0.0067159467991873435,0.2745694988478997
9418,10.0,300.02279,-7269.0198,0.0,0.09418001612092164,0.0,0.0,0.0,0.0,0.48260295715920354,1.1630809121621488,0.5639165917917345,0.0030673556910244372,0.004568271310453276,0.2733989518023757
9419,10.0,300.19716,-7343.075,0.0,0.09419001210834099,0.0,0.0,0.0,0.0,0.47017609316276754,1.1840956179111388,0.5778397120783394,0.0055823932108393145,0.0016188867073716783,0.28083461673371873
9420,10.0,299.57982999999996,-7322.1038,0.0,0.09420000809576012,0.0,0.0,0.0,0.0,0.4916725892018065,1.172358027427729,0.5617061360360794,-0.0074741684351429935,-0.005926225446772915,0.2843706569326987
9421,10.0,299.49141000000003,-7231.475,0.0,0.09421003707323705,0.0,0.0,0.0,0.0,0.46339781476380354,1.177864433771169,0.5569256119317785,-0.00026895556640384774,-0.001090220529271389,0.2993582471118587
9422,10.0,299.7926,-7213.8051,0.0,0.0942200330606564,0.0,0.0,0.0,0.0,0.4520946248632656,1.181371089717249,0.5593509273711385,0.0013976535792126687,0.001048516573705529,0.2936414900476587
9423,10.0,299.81607,-7234.224,0.0,0.09423002904807554,0.0,0.0,0.0,0.0,0.4414324372409896,1.183173661645149,0.5744173180105755,0.001105080449937949,-0.005835730459141755,0.28559340662337473
9424,10.0,299.24877999999995,-7273.0897,0.0,0.09424002503549511,0.0,0.0,0.0,0.0,0.4739985690325165,1.180653708646449,0.5561853516737204,-0.0003111167814748357,0.0033791731754734267,0.2922026749056587
9425,10.0,300.27492,-7287.0438,0.0,0.09425002102291424,0.0,0.0,0.0,0.0,0.47937895746101955,1.177891386223829,0.5578089836339605,0.0036916251571350363,0.006941782818575624,0.29516206434022774
9426,10.0,299.95982999999995,-7261.7555,0.0,0.0942600170103336,0.0,0.0,0.0,0.0,0.47385091822794456,1.1868199434550089,0.5467215248122135,0.0012096387410070488,0.0028902745306728875,0.3023960823691697
9427,10.0,300.53121,-7199.8115,0.0,0.09427001299775295,0.0,0.0,0.0,0.0,0.45507033775694555,1.173779110692979,0.5597134986544215,-0.005660162283839525,0.0017534913089561183,0.2877028616090617
9428,10.0,300.21927,-7250.6054,0.0,0.09428000898517208,0.0,0.0,0.0,0.0,0.44417648063180554,1.1822323523022489,0.5775941306516024,0.0037019302146270665,0.005006978003600255,0.2963421258041907
9429,10.0,299.46162000000004,-7358.2412,0.0,0.09429003796264879,0.0,0.0,0.0,0.0,0.4719260064829705,1.1926518057305688,0.5721437570386925,0.003635899441385337,0.012913659741978988,0.28128963695612574
9430,10.0,299.76871,-7285.2567,0.0,0.09430003395006836,0.0,0.0,0.0,0.0,0.4760789944028386,1.1788923759976186,0.5595647636722425,-0.0005690502335558854,0.006829247817419283,0.2966839963879307
9431,10.0,300.32502,-7243.9682,0.0,0.09431002993748772,0.0,0.0,0.0,0.0,0.4774851626266165,1.1683790956100388,0.5561211724123865,-0.0017549557593256482,-0.011877456487463687,0.26689313635530176
9432,10.0,299.94481,-7372.1701,0.0,0.09432002592490707,0.0,0.0,0.0,0.0,0.49306967870468854,1.1830016117781688,0.5648843672272464,-0.01976996143839328,-0.006295213744264224,0.27965607514490576
9433,10.0,299.97706,-7384.3073,0.0,0.0943300219123262,0.0,0.0,0.0,0.0,0.48983528306047847,1.177721160207029,0.5770885897792094,-0.003974673532819736,-0.0010992491956124488,0.27481019640915477
9434,10.0,299.55251,-7350.4077,0.0,0.09434001789974533,0.0,0.0,0.0,0.0,0.4793392785871035,1.1846412530899888,0.5703598491776345,0.003485051123472767,0.010821120966711489,0.2854435266685827
9435,10.0,299.55405,-7255.7825,0.0,0.09435001388716491,0.0,0.0,0.0,0.0,0.46730092507651055,1.1686306856098687,0.5696450721595915,0.006344216646925433,0.003305927960194687,0.2830927256415767
9436,10.0,299.36251,-7262.181,0.0,0.09436000987458404,0.0,0.0,0.0,0.0,0.47819979778964555,1.1740690015465889,0.5552528880041935,0.0023925289965992277,-0.005708730907507875,0.28071405010431977
9437,10.0,299.05303,-7337.7901,0.0,0.09437000586200361,0.0,0.0,0.0,0.0,0.47259552161904655,1.1958928888254388,0.5620165857342185,-0.006697129832905254,-0.0012013941275933688,0.2952885888802147
9438,10.0,299.75919,-7329.143,0.0,0.0943800348394801,0.0,0.0,0.0,0.0,0.4915773436924066,1.192686864184029,0.5436122148928485,-0.005686888984377245,0.007854536139207363,0.2848123731812927
9439,10.0,300.6099,-7252.4915,0.0,0.09439003082689967,0.0,0.0,0.0,0.0,0.4626602700160135,1.185169561692129,0.5567465199766034,-0.012588359850374388,0.004985829650163075,0.2923031690505767
9440,10.0,300.17959,-7227.6403,0.0,0.09440002681431903,0.0,0.0,0.0,0.0,0.44915051524020455,1.182664706119919,0.5652069353965814,-0.016100297869225684,0.01051253666200659,0.2953551492792837
9441,10.0,299.84594,-7253.5838,0.0,0.09441002280173816,0.0,0.0,0.0,0.0,0.46052609172788656,1.1810341840589988,0.5633480774256265,-0.008752799071484012,0.005845636802719434,0.2937638399972337
9442,10.0,300.21226,-7270.7758,0.0,0.09442001878915729,0.0,0.0,0.0,0.0,0.46630470771069155,1.1976123742451388,0.5462172302374434,0.001992343133828958,0.004722005465975655,0.3116422935066997
9443,10.0,300.35605,-7264.1257,0.0,0.09443001477657664,0.0,0.0,0.0,0.0,0.46917657260162254,1.175388354501799,0.5635479410078514,0.007778625468215562,0.0011087102157711789,0.28752083122859673
9444,10.0,299.62902,-7277.0373,0.0,0.09444001076399622,0.0,0.0,0.0,0.0,0.4706955966215386,1.190673029610279,0.5506689850817975,0.014618586784242184,-0.01080286827941009,0.3096892742039517
9445,10.0,299.40726,-7438.161999999999,0.0,0.09445000675141557,0.0,0.0,0.0,0.0,0.47918807127468055,1.208369645256799,0.5734578208283805,-0.002797626589229247,-0.0005572261013814345,0.27645073951356375
9446,10.0,299.72004,-7409.2037,0.0,0.09446003572889206,0.0,0.0,0.0,0.0,0.4757384511767295,1.203184945820109,0.5732895605167744,0.008707796480217602,0.004870815732637086,0.29376947366778977
9447,10.0,299.82724,-7332.7624,0.0,0.09447003171631141,0.0,0.0,0.0,0.0,0.4798787430728445,1.1794088295735887,0.5696890776114345,-0.01067796392633299,0.005709958865304064,0.2607948906284518
9448,10.0,300.49773999999996,-7300.4523,0.0,0.09448002770373098,0.0,0.0,0.0,0.0,0.47864662081874354,1.171727988515549,0.5687805671742715,-0.013468994764036287,-0.003965334609298056,0.2918307918539567
9449,10.0,300.59373999999997,-7308.1217,0.0,0.09449002369115012,0.0,0.0,0.0,0.0,0.4829408254050485,1.1717071155634886,0.5668385821651125,-0.015407933943394686,-0.003235820172525587,0.2751757871777357
9450,10.0,300.39411,-7310.8026,0.0,0.09450001967856925,0.0,0.0,0.0,0.0,0.48779309774893054,1.1706972091888188,0.5638111225888255,-0.0025338104097176175,0.004980270656139446,0.29285322199986275
9451,10.0,300.41938999999996,-7349.8852,0.0,0.0945100156659886,0.0,0.0,0.0,0.0,0.46983599576670254,1.179879382920029,0.5844662157448245,-0.007839892243462121,4.2865233399469155e-05,0.2713956550296658
9452,10.0,300.13174,-7293.1526,0.0,0.09452001165340818,0.0,0.0,0.0,0.0,0.4605815671708615,1.1789910665573589,0.5773636365188545,0.01074144505834809,0.00857683907236811,0.27530975910595773
9453,10.0,299.93928999999997,-7246.3241,0.0,0.09453000764082753,0.0,0.0,0.0,0.0,0.45440225130351053,1.1821008324392688,0.5661985424744455,0.01879173230159958,0.0024345905281253776,0.28077687161051973
9454,10.0,299.82701000000003,-7292.6856,0.0,0.09454003661830424,0.0,0.0,0.0,0.0,0.4747688518910375,1.1819880577031388,0.5600374549763935,0.019895161660499584,0.0006302738038181814,0.28756996372594573
9455,10.0,299.64797000000004,-7365.4009,0.0,0.09455003260572337,0.0,0.0,0.0,0.0,0.4903913445828575,1.1830304894060188,0.5654760951531455,-0.0037415399848862462,-0.012334761588846187,0.2918026032361747
9456,10.0,300.48372,-7310.5976,0.0,0.09456002859314294,0.0,0.0,0.0,0.0,0.4876084937132116,1.180964776427149,0.5536658343725634,-0.01204229606673209,-0.024905368284218476,0.29806112486384273
9457,10.0,300.71804,-7217.8778,0.0,0.09457002458056207,0.0,0.0,0.0,0.0,0.45133547762334353,1.188836311154009,0.5538828218814784,-0.0063674063953390835,-0.0037076698711435265,0.30483106421448375
9458,10.0,300.73524,-7112.8691,0.0,0.0945800205679812,0.0,0.0,0.0,0.0,0.43991269381350256,1.177575556167659,0.5446462974149044,-0.008311064077763162,0.001068561193808779,0.3002615798410107
9459,10.0,300.54589,-7167.7742,0.0,0.09459001655540056,0.0,0.0,0.0,0.0,0.4559097040072846,1.1607450667066188,0.5621696270293225,-0.000932434548719125,0.015786366643743086,0.2861899069572447
9460,10.0,300.02924,-7260.3403,0.0,0.09460001254281991,0.0,0.0,0.0,0.0,0.45973239265955457,1.1853470831096489,0.5618826644685014,-0.009606587822421402,-0.00013647133250867187,0.29430256481040173
9461,10.0,300.06041,-7285.355,0.0,0.09461000853023949,0.0,0.0,0.0,0.0,0.4788635576651536,1.180786545734559,0.5549158708884325,0.003988783445762276,0.007228871630359082,0.2898525730212217
9462,10.0,299.65655,-7259.034000000001,0.0,0.09462003750771619,0.0,0.0,0.0,0.0,0.46711924933358057,1.1838241682093489,0.5556216907755914,0.01045499418882759,0.00938791740641531,0.29939862512834375
9463,10.0,299.70265,-7297.2207,0.0,0.09463003349513532,0.0,0.0,0.0,0.0,0.4645563953256465,1.1778231944920987,0.5757933015138744,0.008191336824747002,0.0027019287649846075,0.2802717056406637
9464,10.0,299.93538,-7306.7004,0.0,0.09464002948255468,0.0,0.0,0.0,0.0,0.4675773802337946,1.167464333419759,0.5860127393724545,-0.0018838603224725383,-0.01182742625052609,0.27164891689216075
9465,10.0,299.92226,-7331.5968,0.0,0.09465002546997403,0.0,0.0,0.0,0.0,0.4774710987152285,1.1657312704487188,0.5854199475339504,-0.0024585284604128677,-0.01011283715928432,0.26750040753773474
9466,10.0,300.34776,-7369.2441,0.0,0.09466002145739316,0.0,0.0,0.0,0.0,0.47305887075727554,1.1930373473936189,0.5739700187539305,0.0014061530250264985,-0.0026036592106611577,0.27060347583648375
9467,10.0,300.02702,-7309.436,0.0,0.09467001744481274,0.0,0.0,0.0,0.0,0.5030333925030305,1.1595732429659689,0.5592793513840745,0.002067087047330608,-0.009372659582434481,0.27984107434816374
9468,10.0,299.67329,-7346.4592,0.0,0.09468001343223187,0.0,0.0,0.0,0.0,0.4848112546921456,1.1870977766324289,0.5612310939916965,0.006040035825830124,-0.011494245299643688,0.27913308610579074
9469,10.0,299.69026,-7315.2701,0.0,0.09469000941965122,0.0,0.0,0.0,0.0,0.47326744829036055,1.1906250015555386,0.5597670286572045,0.010077048760452281,0.0004936600286104516,0.30167050410506074
9470,10.0,299.74253999999996,-7294.0541,0.0,0.09470000540707058,0.0,0.0,0.0,0.0,0.4546045973484806,1.192823652947529,0.5697820331756085,0.0014080796187666389,0.01020778649568009,0.2826994326152617
9471,10.0,299.68453999999997,-7233.0463,0.0,0.09471003438454728,0.0,0.0,0.0,0.0,0.4571401847962236,1.183295960932219,0.5582293101729434,-0.005494629742827734,0.0026719819556290875,0.28427996091624774
9472,10.0,300.27187000000004,-7284.6065,0.0,0.09472003037196663,0.0,0.0,0.0,0.0,0.47545303888856155,1.1708964141584788,0.5679889959311495,-0.0075812890330649715,-0.006481471404146425,0.27794581030111576
9473,10.0,300.70415,-7340.6348,0.0,0.09473002635938599,0.0,0.0,0.0,0.0,0.4830810896163915,1.1986622026737488,0.5496264520539075,-0.0025547435488335575,-0.00014842021603543484,0.2967195209364367
9474,10.0,300.99231000000003,-7301.8201,0.0,0.09474002234680534,0.0,0.0,0.0,0.0,0.4608011486000326,1.1910660693240689,0.5677038065580035,-0.0009466871678057492,0.0054847731498299645,0.3020497636174907
9475,10.0,300.0068,-7273.4233,0.0,0.0947500183342247,0.0,0.0,0.0,0.0,0.4548662590543046,1.1868608787590489,0.5692119584043465,0.000864178465475274,0.0007648638855286883,0.3000067170433577
9476,10.0,299.81195,-7221.8587,0.0,0.09476001432164383,0.0,0.0,0.0,0.0,0.4544876480219386,1.175324823720529,0.5654522736432944,0.006585826335920453,-0.008764949156083132,0.2874081071549717
9477,10.0,299.38518,-7303.5019,0.0,0.09477001030906318,0.0,0.0,0.0,0.0,0.47418706394861954,1.1812062339259788,0.5646889518129604,0.016036996082478286,-0.006812883119029213,0.2886500579350427
9478,10.0,299.59082,-7327.5148,0.0,0.09478000629648253,0.0,0.0,0.0,0.0,0.4792437797651785,1.1897801536221588,0.5583575673706015,0.01002328976314668,0.006766649834191343,0.28652182742500276
9479,10.0,299.8477,-7358.1062,0.0,0.09479003527395924,0.0,0.0,0.0,0.0,0.49077869996358653,1.1971401996985387,0.5487616836235615,-0.006280897229626294,-0.004016769008224236,0.2873486192416007
9480,10.0,300.06352000000004,-7363.4806,0.0,0.09480003126137859,0.0,0.0,0.0,0.0,0.47049861066959753,1.184651182940969,0.5831644528113505,-0.001787748382912028,-0.005672619585868964,0.29158499764469875
9481,10.0,299.94788,-7396.3419,0.0,0.09481002724879772,0.0,0.0,0.0,0.0,0.48387504199724857,1.192770659967299,0.5716575895082114,-0.012434121906902289,-0.0020052155644243678,0.28382091809094373
9482,10.0,300.72078999999997,-7362.6187,0.0,0.0948200232362173,0.0,0.0,0.0,0.0,0.4690202787736976,1.1904939883176089,0.5785379933847544,0.0005598408743244924,0.014546390688116986,0.28473863897151575
9483,10.0,300.43357000000003,-7244.7364,0.0,0.09483001922363665,0.0,0.0,0.0,0.0,0.47854819370402957,1.163416297945249,0.5602544222203065,-0.01043556511816009,0.0017574147146683283,0.27164114526389377
9484,10.0,300.00142,-7257.8142,0.0,0.09484001521105578,0.0,0.0,0.0,0.0,0.4825483125813105,1.1635426502327189,0.5601033668953984,0.00966850064593172,0.0029473819142589474,0.27117075403746976
9485,10.0,299.45302000000004,-7269.9571,0.0,0.09485001119847514,0.0,0.0,0.0,0.0,0.4831426344274656,1.173655696830799,0.5530870355179405,0.00913751260522728,-0.0038280519876993167,0.2737049735975777
9486,10.0,299.32563999999996,-7319.6453,0.0,0.09486000718589449,0.0,0.0,0.0,0.0,0.4746618628129785,1.1892474880445887,0.5610800690642914,0.017829146733099783,-0.002408416656842218,0.3021771696850647
9487,10.0,299.57122000000004,-7392.3855,0.0,0.0948700361633712,0.0,0.0,0.0,0.0,0.4754049905688196,1.197315694615859,0.5743798682868795,-0.0015397128644328284,-0.011986502463225688,0.2897915449676987
9488,10.0,299.97796,-7397.0096,0.0,0.09488003215079055,0.0,0.0,0.0,0.0,0.4891747655852905,1.1944077681538687,0.5649237218611304,-0.007551000961075772,-0.0038316021120746863,0.2969384032230387
9489,10.0,300.04934,-7304.0775,0.0,0.09489002813820968,0.0,0.0,0.0,0.0,0.47557872243096555,1.1879555941670887,0.5567228605867686,-0.014174243178138887,0.0002059745543731058,0.3016328618638457
9490,10.0,299.95451,-7168.8962,0.0,0.09490002412562926,0.0,0.0,0.0,0.0,0.47367297124538255,1.1709130314601188,0.5345794246238815,-0.005855011088669604,0.006101368867633224,0.28983852937483573
9491,10.0,299.86093,-7134.2108,0.0,0.09491002011304861,0.0,0.0,0.0,0.0,0.44131473810937355,1.1861277923116988,0.5411794014027486,-0.004560450032931376,0.002050160907060128,0.29774915529055374
9492,10.0,300.14232000000004,-7197.4902,0.0,0.09492001610046774,0.0,0.0,0.0,0.0,0.44991497191065055,1.1759926568614387,0.5619496808301154,-0.002959588639538657,0.0027536505216391475,0.2906164014766057
9493,10.0,300.00511,-7328.4089,0.0,0.0949300120878871,0.0,0.0,0.0,0.0,0.46364291996299356,1.1984180093996488,0.5655924365296275,0.011426826677739988,0.002208469481483968,0.2955111897946837
9494,10.0,300.05506,-7308.9476,0.0,0.09494000807530623,0.0,0.0,0.0,0.0,0.46506207805305355,1.186314331655109,0.5703611157402595,0.008008058728108863,0.0010852047386263688,0.2972465224459477
9495,10.0,299.70037,-7261.56,0.0,0.09495003705278315,0.0,0.0,0.0,0.0,0.47959851862518854,1.176479726184509,0.5512546335070965,0.004548974570248836,-0.004285869287007366,0.2977108240392707
9496,10.0,300.28421000000003,-7332.7417,0.0,0.09496003304020251,0.0,0.0,0.0,0.0,0.4966628358118055,1.176278089414609,0.5560295138083404,-0.008952766309194242,-0.009499827738885,0.2764357332795827
9497,10.0,299.87768,-7420.2349,0.0,0.09497002902762186,0.0,0.0,0.0,0.0,0.4903577756070445,1.185280917878119,0.5799273821868765,-0.0018584445649141982,-0.014146406158141587,0.2942450020722207
9498,10.0,299.61759,-7367.9366,0.0,0.09498002501504099,0.0,0.0,0.0,0.0,0.4841590458677775,1.1886071139813887,0.5669025993064305,-0.006075267545057224,-0.015150090163947484,0.2864324081036777
9499,10.0,299.61883,-7266.9075,0.0,0.09499002100246057,0.0,0.0,0.0,0.0,0.46108321716287054,1.179449764877629,0.5684254331467224,0.00957199992230784,-0.007499965782688993,0.2740078847149727
9500,10.0,299.83997999999997,-7249.6037,0.0,0.0950000169898797,0.0,0.0,0.0,0.0,0.45778575683243655,1.1749575205592788,0.5709552450688955,0.004207746691047266,0.005210148732826645,0.27943014063760774
9501,10.0,299.58436,-7348.3661,0.0,0.09501001297729905,0.0,0.0,0.0,0.0,0.5007218650499006,1.1628614421904888,0.5701365187230935,0.004183693349573386,0.014733583577841488,0.2710195872550507
9502,10.0,299.69139,-7383.63,0.0,0.09502000896471818,0.0,0.0,0.0,0.0,0.4834407832693905,1.181970933776449,0.5790273830505535,0.004881358802577606,0.004994724162190896,0.28900843436291174
9503,10.0,299.75374,-7308.9398,0.0,0.09503003794219511,0.0,0.0,0.0,0.0,0.48111998457784555,1.175718775359409,0.5648964755659415,0.00868700813454095,-0.011824989384035589,0.2800652863302917
9504,10.0,300.3306,-7289.4081,0.0,0.09504003392961446,0.0,0.0,0.0,0.0,0.44636417879021456,1.1962403322847288,0.5731934942747935,-0.0017562586976292381,0.004743709080467636,0.2860496326134007
9505,10.0,300.56798,-7271.2986,0.0,0.09505002991703382,0.0,0.0,0.0,0.0,0.4691488906088906,1.174921347530709,0.5662229921993585,-0.0035957295464708766,-0.002034270612366878,0.2990050483920007
9506,10.0,300.59134,-7334.7519999999995,0.0,0.09506002590445295,0.0,0.0,0.0,0.0,0.44916331258896763,1.202759786078149,0.5776583707079425,-0.014906194785376884,-0.0025382544233312075,0.3008306717596757
9507,10.0,300.48892,-7223.2747,0.0,0.0950700218918723,0.0,0.0,0.0,0.0,0.4813358777766525,1.1910254379950589,0.5233338683890315,-0.012666458128332088,-0.012388843812933687,0.3043798234149497
9508,10.0,300.04492999999997,-7115.5145,0.0,0.09508001787929166,0.0,0.0,0.0,0.0,0.43695667850176656,1.170319064251499,0.5556629908496675,-0.0034579658337246565,0.0013876300025984188,0.2948251080194727
9509,10.0,300.24871,-7222.3753,0.0,0.09509001386671101,0.0,0.0,0.0,0.0,0.46992440183792755,1.189727667266979,0.5357697300463554,0.014351982444430384,9.620076917027671e-06,0.3072894116071037
9510,10.0,300.33199,-7347.8299,0.0,0.09510000985413036,0.0,0.0,0.0,0.0,0.45365101754686954,1.2027598874031589,0.5771459701323725,0.016012536225064284,-0.0008150050125572321,0.2984680055739987
9511,10.0,300.09454,-7383.305,0.0,0.0951100058415495,0.0,0.0,0.0,0.0,0.47672933884702257,1.1888295223783387,0.5787815077812875,0.010326425923388892,-0.007030844158640294,0.29062886445283576
9512,10.0,300.97602,-7297.0761,0.0,0.09512003481902664,0.0,0.0,0.0,0.0,0.4648252207096776,1.1826003647385688,0.5707033510940355,-0.003967310041693016,0.0038668878375321164,0.28687292871715375
9513,10.0,300.63342,-7312.5206,0.0,0.09513003080644578,0.0,0.0,0.0,0.0,0.49902032428947146,1.1672030162189688,0.5566003383846765,-0.0058912297134941045,0.0013970682246298985,0.2774803738676807
9514,10.0,300.73232,-7382.0503,0.0,0.0951400267938649,0.0,0.0,0.0,0.0,0.48222765945466456,1.185398758864749,0.5763325430845935,-0.0025922522436853776,0.0024772348811090473,0.28114557305690774
9515,10.0,301.25251000000003,-7342.1062,0.0,0.09515002278128426,0.0,0.0,0.0,0.0,0.4822433952287175,1.1890033960954989,0.5605701914814705,-0.007715621678322572,-0.0024655646717572878,0.27748906755353875
9516,10.0,300.60995,-7343.4678,0.0,0.09516001876870361,0.0,0.0,0.0,0.0,0.4650606696354146,1.1838445345363589,0.5833256710347614,0.0036661155726174367,0.017418586911830684,0.28454303103971074
9517,10.0,300.3689,-7277.4006,0.0,0.09517001475612297,0.0,0.0,0.0,0.0,0.4705039403651235,1.181259936181279,0.5603841688956115,-0.00047693140118196454,0.0013713614616428387,0.2732677561794277
9518,10.0,299.88989,-7299.9229,0.0,0.09518001074354232,0.0,0.0,0.0,0.0,0.47540778713909554,1.1958508389462887,0.5477356868373036,0.008889375964388102,0.003321262993833137,0.3008653755756007
9519,10.0,299.41357,-7412.9936,0.0,0.09519000673096145,0.0,0.0,0.0,0.0,0.4970027812203555,1.1835342773557387,0.5728278933737114,-0.010777928141448689,-0.014247598432378487,0.2639300384253668
9520,10.0,300.09361,-7336.0348,0.0,0.09520003570843838,0.0,0.0,0.0,0.0,0.4709136176455555,1.1909960537421589,0.5680617168908264,0.004780993745722345,0.002782402911776787,0.30267703635689774
9521,10.0,300.34821,-7196.6873,0.0,0.09521003169585773,0.0,0.0,0.0,0.0,0.45527681786232355,1.1745275985418488,0.5578088620439485,-0.0040573897994331965,-0.00012877721787432189,0.2806689604748697
9522,10.0,300.20295,-7248.5759,0.0,0.09522002768327686,0.0,0.0,0.0,0.0,0.4385556580870736,1.1957498179113188,0.5690806310588855,0.008079066079216742,0.007132109792184433,0.3204257026610547
9523,10.0,300.81142,-7336.0684,0.0,0.09523002367069622,0.0,0.0,0.0,0.0,0.46545770155459854,1.201264836880609,0.5632590938018445,-0.0019057605074839182,-0.001970625637810608,0.2943964829621707
9524,10.0,300.12187,-7327.1618,0.0,0.09524001965811557,0.0,0.0,0.0,0.0,0.4741193281794346,1.1845145968274888,0.5686403434929325,-0.0054641039623650745,0.005389067320909535,0.3081209150366667
9525,10.0,299.71969,-7320.9203,0.0,0.09525001564553492,0.0,0.0,0.0,0.0,0.4818051746929686,1.204538850603729,0.5390329425234094,-0.0026237826616221874,-0.008123592341611143,0.28795019595847177
9526,10.0,299.65211,-7258.4174,0.0,0.09526001163295406,0.0,0.0,0.0,0.0,0.4697859209467605,1.190941540886779,0.5456502256139845,0.0013879835255583086,-0.0012055441973529489,0.3034675943499197
9527,10.0,299.45534,-7362.8312,0.0,0.09527000762037341,0.0,0.0,0.0,0.0,0.4721825816732926,1.1901242533561187,0.5758099694780194,0.01124459972675559,-0.0027994398002831977,0.26991485080352173
9528,10.0,300.06897999999995,-7420.1166,0.0,0.09528003659785034,0.0,0.0,0.0,0.0,0.47186448193689856,1.197659186399759,0.5860064572218344,-0.004319141177891046,0.004566065262335555,0.28879093009644574
9529,10.0,299.93635,-7428.2691,0.0,0.09529003258526969,0.0,0.0,0.0,0.0,0.48606210180809456,1.184485415224609,0.5874608156203684,-0.012950088109574187,0.002955430565103287,0.27827082040319173
9530,10.0,299.69576,-7294.6614,0.0,0.09530002857268882,0.0,0.0,0.0,0.0,0.4787237088863515,1.173073888623379,0.5655972798651054,-0.022436149731275577,-0.0004911632081115346,0.28197420898868775
9531,10.0,300.32048,-7263.1833,0.0,0.09531002456010818,0.0,0.0,0.0,0.0,0.4857221057370396,1.1776680659017886,0.5444361797416675,-0.004466405427549896,-0.006819838979640703,0.27797806205179876
9532,10.0,300.55663,-7342.6562,0.0,0.09532002054752753,0.0,0.0,0.0,0.0,0.46287013437672553,1.1758451276468789,0.5932688361210755,0.004356236162727035,0.008507172960417602,0.27482378409299574
9533,10.0,300.32817,-7457.4147,0.0,0.09533001653494688,0.0,0.0,0.0,0.0,0.49676521460190953,1.1957007766064789,0.5744018558140495,0.015613261983408986,0.0036891511043658665,0.27484907481549176
9534,10.0,299.88502,-7404.5989,0.0,0.09534001252236624,0.0,0.0,0.0,0.0,0.4560601007196276,1.196617970596999,0.5981351115813395,0.011354080386810489,0.004364514821344076,0.2873744571191507
9535,10.0,299.55461,-7261.1633,0.0,0.09535000850978537,0.0,0.0,0.0,0.0,0.49182840680218454,1.159596953018309,0.5557869923969054,-0.001926652609970808,0.0055378181097900945,0.2823917490898957
9536,10.0,299.5547,-7336.9384,0.0,0.0953600374872623,0.0,0.0,0.0,0.0,0.46673977703862957,1.195880932474259,0.5676253303377584,-0.009776830355198031,0.011238715783424887,0.2909237100994347
9537,10.0,300.28413,-7481.308000000001,0.0,0.09537003347468165,0.0,0.0,0.0,0.0,0.5115298694940675,1.194695632507279,0.5679053420028934,-0.006100255609748354,-0.006660348246325193,0.28605428343135975
9538,10.0,300.96247,-7380.0093,0.0,0.09538002946210078,0.0,0.0,0.0,0.0,0.4565213524301496,1.2100371509463688,0.5767800044612544,-0.015606455982487286,-0.0030378157015840675,0.3039819201006797
9539,10.0,300.65904,-7169.9268,0.0,0.09539002544952013,0.0,0.0,0.0,0.0,0.4619133628372995,1.1772159537071687,0.5403493671858305,0.011793868420464189,-0.0012777405974531788,0.28945942184992074
9540,10.0,300.35577,-7083.9582,0.0,0.09540002143693949,0.0,0.0,0.0,0.0,0.4068076446912886,1.1717368037914189,0.5748020085435415,-0.005077698604929836,0.004591934550638656,0.2974587274143907
9541,10.0,299.93471,-7202.2596,0.0,0.09541001742435884,0.0,0.0,0.0,0.0,0.4621523784033885,1.1840348229051387,0.5431198665367575,0.008681452686892672,0.0014934496887170088,0.2963685007042937
9542,10.0,299.95083,-7330.8867,0.0,0.09542001341177819,0.0,0.0,0.0,0.0,0.4539421850956055,1.1952348842104987,0.5792294352529944,-0.01073166314188269,-0.0074877856045619025,0.2852004479695927
9543,10.0,299.78927999999996,-7265.9397,0.0,0.09543000939919732,0.0,0.0,0.0,0.0,0.4890580999687765,1.1798066315628488,0.5397995270190655,0.00955356181023814,-0.0007494974310046372,0.2986297608199627
9544,10.0,299.25616,-7249.8505,0.0,0.09544003837667425,0.0,0.0,0.0,0.0,0.45975052983634457,1.177448393280109,0.5665746102490605,0.013340959468150186,0.007936259116747793,0.2798975123787337
9545,10.0,299.52747,-7339.8473,0.0,0.09545003436409338,0.0,0.0,0.0,0.0,0.4885415653327986,1.185744581123879,0.5568441871537425,0.016669556974157184,-1.253569718967699e-06,0.29817860108043676
9546,10.0,300.35681,-7497.9721,0.0,0.09546003035151274,0.0,0.0,0.0,0.0,0.47960786079111056,1.2018085468842687,0.5977799066262834,0.00030653028463218366,0.011978428886428888,0.27154861526476176
9547,10.0,300.29618999999997,-7489.1997,0.0,0.09547002633893209,0.0,0.0,0.0,0.0,0.5227626182476536,1.180875914393379,0.5728911911074585,-0.01624856979610898,0.003885815754700156,0.2857865219599337
9548,10.0,300.1079,-7265.6669,0.0,0.09548002232635144,0.0,0.0,0.0,0.0,0.4625381227164586,1.166530116827559,0.5795130743534874,-0.00964413623667714,0.007520719677862243,0.26487384036351275
9549,10.0,299.5239,-7213.5935,0.0,0.0954900183137708,0.0,0.0,0.0,0.0,0.48143034308347554,1.1693877860845887,0.5419341815347395,-0.02114117557347158,-0.006739038262341294,0.2884351475888327
9550,10.0,299.41975,-7497.8169,0.0,0.09550001430119015,0.0,0.0,0.0,0.0,0.48373967178388855,1.2035503238061689,0.5918591417869494,-0.0007552709706044413,-0.0025637726204746575,0.2772010208151108
9551,10.0,300.03435,-7434.2915,0.0,0.09551001028860928,0.0,0.0,0.0,0.0,0.48847239074847154,1.186050380004059,0.5853162008562114,0.004136111631502436,-0.004239989829104416,0.28247456202056875
9552,10.0,299.3786,-7279.0794,0.0,0.09552000627602864,0.0,0.0,0.0,0.0,0.4568884630738806,1.182863505789539,0.5729064607864655,0.01986746852201648,0.01116544260244339,0.28326163443324676
9553,10.0,298.69716,-7236.3958,0.0,0.09553003525350534,0.0,0.0,0.0,0.0,0.47549936468313353,1.1828175042349989,0.5413667209487355,0.01041292607117579,0.008793586339684403,0.28143230257020574
9554,10.0,299.44965,-7271.3186,0.0,0.0955400312409247,0.0,0.0,0.0,0.0,0.4429968143353816,1.208583947652949,0.5587184971887225,0.009148980063234032,0.0008810097452713923,0.3038710705397397
9555,10.0,299.63928,-7387.632,0.0,0.09555002722834427,0.0,0.0,0.0,0.0,0.4851317153012725,1.2012500434291489,0.5592739406285404,0.004925227465657105,-0.003105940254832437,0.2884939566246367
9556,10.0,299.63831,-7317.8378,0.0,0.0955600232157634,0.0,0.0,0.0,0.0,0.46176942052809355,1.198570098239659,0.5641004156248765,0.007954669567089763,-0.002858456248382667,0.3137456284617827
9557,10.0,300.08824,-7171.4667,0.0,0.09557001920318275,0.0,0.0,0.0,0.0,0.4563438006151266,1.184714916372259,0.5388881085541155,0.004280414353769006,-0.013634237616844487,0.3089088487119297
9558,10.0,299.48195,-7203.4264,0.0,0.09558001519060189,0.0,0.0,0.0,0.0,0.44819198064560456,1.1808877694195488,0.5605819857126345,-0.003761289850535406,-0.023297887530572478,0.3100282367599047
9559,10.0,299.7746,-7353.061,0.0,0.09559001117802124,0.0,0.0,0.0,0.0,0.4858845601255726,1.1896011123294887,0.5596613061417705,-0.007772966365082052,-0.013342741775076088,0.28454634436753773
9560,10.0,300.03237,-7346.9631,0.0,0.09560000716544059,0.0,0.0,0.0,0.0,0.47717508783101453,1.1720778637750788,0.5840403872577985,-0.0026081465913790278,0.004896967616393076,0.2840139726324967
9561,10.0,299.99107999999995,-7317.8988,0.0,0.0956100361429173,0.0,0.0,0.0,0.0,0.48435770368238357,1.1907658433194388,0.5493349501326384,-0.010777121594369091,0.004434463224772446,0.2769081915362107
9562,10.0,300.4043,-7184.9489,0.0,0.09562003213033665,0.0,0.0,0.0,0.0,0.44738548422850954,1.1769642623823289,0.5596953614776315,0.004350268524938076,0.006411941675659374,0.2853259288619767
9563,10.0,300.74188,-7313.0305,0.0,0.09563002811775623,0.0,0.0,0.0,0.0,0.4711595942398315,1.178704722079099,0.5731143594419835,-0.00094927339749349,0.0051223703700385955,0.27351526278135474
9564,10.0,299.62687,-7462.6863,0.0,0.09564002410517536,0.0,0.0,0.0,0.0,0.49768723166290557,1.1900039805692488,0.5807790492934295,0.00013130605707639887,0.008792331024135512,0.27654982524084276
9565,10.0,300.12285,-7520.931,0.0,0.09565002009259471,0.0,0.0,0.0,0.0,0.5090383786906765,1.198745086531929,0.5783917206003184,-0.0036416384899517363,-0.004479159307883606,0.27708252121591576
9566,10.0,299.93052,-7358.7546,0.0,0.09566001608001384,0.0,0.0,0.0,0.0,0.4816181185920075,1.183044573582409,0.5722149783882214,-0.009381810953362652,-0.008217050781809773,0.2917330030868057
9567,10.0,299.6141,-7302.1609,0.0,0.0956700120674332,0.0,0.0,0.0,0.0,0.4890577453312416,1.170582407952489,0.5600344050935925,-3.750862696406326e-05,-0.008995163935778561,0.2846948159046907
9568,10.0,299.55172000000005,-7401.024,0.0,0.09568000805485277,0.0,0.0,0.0,0.0,0.4749522704241396,1.1901981192884088,0.5845761229831715,0.010486416087678689,-0.001995776329142788,0.29398863966441974
9569,10.0,300.07294,-7281.9032,0.0,0.09569003703232926,0.0,0.0,0.0,0.0,0.47746267860689756,1.1665750038069889,0.5694790916607104,0.02005826756884688,0.007631922964412154,0.28248920348451373
9570,10.0,299.9583,-7106.8953,0.0,0.09570003301974861,0.0,0.0,0.0,0.0,0.4439585913303016,1.180512664232529,0.5358475071240315,-0.004649738442343456,-0.012544854944080789,0.3095209936273437
9571,10.0,300.33196,-7111.134,0.0,0.09571002900716796,0.0,0.0,0.0,0.0,0.45168395459773564,1.1676360793117089,0.5422871573395754,-0.007460526947721682,-0.007205431102545682,0.2936627379022557
9572,10.0,300.14182,-7337.5283,0.0,0.09572002499458732,0.0,0.0,0.0,0.0,0.4535354057104595,1.2189301430990387,0.5579598363088485,-0.016276556777121084,0.005789182661472845,0.3082270732496437
9573,10.0,300.03022000000004,-7478.443,0.0,0.09573002098200667,0.0,0.0,0.0,0.0,0.49506144469126057,1.2090009000690989,0.5691975297229225,0.0012394777405519287,0.014568685230067288,0.2933196412858947
9574,10.0,299.89365,-7382.8085,0.0,0.0957400169694258,0.0,0.0,0.0,0.0,0.45142709569738554,1.205259271424829,0.5875030782820395,-0.006037402287495214,0.0038726623498520165,0.3038764711627727
9575,10.0,299.82794,-7220.9057,0.0,0.09575001295684515,0.0,0.0,0.0,0.0,0.4544825817714386,1.199862498742209,0.5406299462710216,0.014131208419891687,0.007930550769659423,0.2913285035143847
9576,10.0,299.66294,-7242.0433,0.0,0.09576000894426451,0.0,0.0,0.0,0.0,0.45846148319162555,1.171584714951409,0.5713541616332655,0.008959823190840701,-0.006922717707344044,0.28719351091629275
9577,10.0,299.41808,-7375.7772,0.0,0.09577003792174121,0.0,0.0,0.0,0.0,0.49724712648197056,1.185047363730069,0.5597576054312744,0.011052865450082888,-0.00984826610844819,0.2931017519843907
9578,10.0,299.51953,-7401.98,0.0,0.09578003390916057,0.0,0.0,0.0,0.0,0.48852693400135455,1.1895468021241289,0.5719433260364114,0.0018890592074106282,-0.012283123323999888,0.2861259506109327
9579,10.0,299.80292000000003,-7320.7599,0.0,0.09579002989657992,0.0,0.0,0.0,0.0,0.49086669060227056,1.1741027427749189,0.5603587869806065,-0.003657393718406656,-0.007901815300798452,0.2833582174327787
9580,10.0,300.05216,-7361.7449,0.0,0.09580002588399927,0.0,0.0,0.0,0.0,0.46713457980759354,1.1955034968120088,0.5751485806077454,-0.005012449452815246,0.004383824733799816,0.27635123835374376
9581,10.0,300.42275,-7519.309,0.0,0.09581002187141863,0.0,0.0,0.0,0.0,0.5056232496261296,1.192165040382529,0.5878938584481065,-0.004570890055336726,0.01998210966483068,0.28148255977516573
9582,10.0,300.32195,-7652.2678,0.0,0.09582001785883776,0.0,0.0,0.0,0.0,0.4979619744275205,1.2108980082313288,0.6172383412816814,-0.0001197798001663459,-0.0038873592385774863,0.26477436960119577
9583,10.0,300.17056,-7397.286999999999,0.0,0.09583001384625711,0.0,0.0,0.0,0.0,0.4774949607550835,1.2052410329230288,0.5658544934029904,-0.003459230673824487,-0.007983313032841654,0.29634169010664774
9584,10.0,300.2824,-7174.7774,0.0,0.09584000983367646,0.0,0.0,0.0,0.0,0.4437806342152386,1.1826086733893888,0.5545638272736885,0.0043078603605527154,0.0026706772948003276,0.28309815666211274
9585,10.0,299.78065,-7193.3619,0.0,0.09585000582109582,0.0,0.0,0.0,0.0,0.46743559614730157,1.179303147588159,0.5398635948228885,0.013061570951826687,0.013149452159499888,0.29778375778146876
9586,10.0,299.91874,-7319.2076,0.0,0.09586003479857252,0.0,0.0,0.0,0.0,0.45555468143724653,1.2061454599622887,0.5631562387841934,0.010498187014090391,0.004264835430831486,0.2985273212348527
9587,10.0,300.04517999999996,-7366.1473,0.0,0.09587003078599188,0.0,0.0,0.0,0.0,0.47648566233047357,1.195801392341409,0.5668378222275375,-0.0012278958866088889,0.004329205081859276,0.27961322479817674
9588,10.0,299.95069,-7365.6019,0.0,0.09588002677341123,0.0,0.0,0.0,0.0,0.45313956942639355,1.2076655377623091,0.5781539715968544,0.004242642923166256,0.0001057456884637869,0.30406495594637467
9589,10.0,300.33321,-7413.9023,0.0,0.09589002276083058,0.0,0.0,0.0,0.0,0.4816397717466445,1.1947548063131188,0.5772466365298075,-0.01077400483706149,-0.002805808279811717,0.2913928955582397
9590,10.0,299.61121,-7497.9891,0.0,0.09590001874824972,0.0,0.0,0.0,0.0,0.48493443550680254,1.2082908143990188,0.5859762319713514,0.0013507563115842686,-0.016047089066724383,0.3108354627170717
9591,10.0,299.49136,-7541.1674,0.0,0.09591001473566907,0.0,0.0,0.0,0.0,0.4927584589364735,1.2296610696080987,0.5699071087679525,-0.004429629515170396,-0.009599044783376962,0.28603418054937574
9592,10.0,299.19962000000004,-7338.7316,0.0,0.09592001072308842,0.0,0.0,0.0,0.0,0.46392170559550755,1.1831310038159388,0.5837383880654934,0.003298399917251727,0.006387100633557754,0.29343930612270475
9593,10.0,299.62613,-7121.1246,0.0,0.09593000671050778,0.0,0.0,0.0,0.0,0.45251209403696663,1.180190957325779,0.5319410125559906,-0.002051382886680728,0.005339246928067645,0.2734708925594757
9594,10.0,299.88855,-7089.4627,0.0,0.09594003568798448,0.0,0.0,0.0,0.0,0.44379554925671055,1.165713943872009,0.5455101336551585,0.008256722461650061,0.0017551429066191184,0.29261242311359775
9595,10.0,300.2276,-7349.6976,0.0,0.09595003167540384,0.0,0.0,0.0,0.0,0.46602684413576856,1.1857971688040687,0.5823005760410924,0.0045743456434777655,-0.002345356834218698,0.27738177450044976
9596,10.0,300.00717000000003,-7440.6468,0.0,0.09596002766282297,0.0,0.0,0.0,0.0,0.48967187621685154,1.199384244695009,0.5727147336025434,0.00022239891292906376,0.005437678095782045,0.2860090924768997
9597,10.0,300.58624,-7380.6564,0.0,0.09597002365024254,0.0,0.0,0.0,0.0,0.4829830880667196,1.1695296410985887,0.5910224809143774,-0.008541719013302033,0.009237014575647361,0.29282429370950774
9598,10.0,300.22585,-7349.295,0.0,0.0959800196376619,0.0,0.0,0.0,0.0,0.5018312117893845,1.1758799834503189,0.5562909728641444,-0.02001260950609078,0.0007233979120138152,0.28762346333122574
9599,10.0,300.0267,-7542.2384,0.0,0.09599001562508103,0.0,0.0,0.0,0.0,0.5119302147410785,1.1957131382576989,0.5850087402458675,-0.0028877583266995574,-0.004097309928198006,0.2771880208163277
9600,10.0,299.4957,-7542.1385,0.0,0.09600001161250038,0.0,0.0,0.0,0.0,0.49598348201725856,1.196802078140169,0.5998361761142215,-0.008726987538436612,-0.0003001499298124917,0.26180065281021275
9601,10.0,299.16995,-7435.5937,0.0,0.09601000759991951,0.0,0.0,0.0,0.0,0.48352145824235254,1.203954509271059,0.5727589011744024,0.0034874651918360166,0.0018760364105003782,0.2737829735902757
9602,10.0,299.53258999999997,-7274.6937,0.0,0.09602003657739644,0.0,0.0,0.0,0.0,0.4549544219455055,1.2002128806267887,0.5561578824635094,-0.005483869229415754,-0.0076014302159027524,0.28974511784811674
9603,10.0,299.81116000000003,-7149.3796,0.0,0.09603003256481579,0.0,0.0,0.0,0.0,0.4336167832571446,1.1942465600629588,0.5453695857337876,0.011780009185596388,-0.01186244113423179,0.29656265968845574
9604,10.0,299.54461000000003,-7314.7704,0.0,0.09604002855223492,0.0,0.0,0.0,0.0,0.4572273952323306,1.2100617729237988,0.5562184342894855,0.007046768701186924,-0.00034908860254986265,0.3203746044585117
9605,10.0,299.99052,-7374.7102,0.0,0.09605002453965428,0.0,0.0,0.0,0.0,0.48235196497693256,1.1910358744710887,0.5683398844407795,0.005971978451063385,0.005269482024232385,0.2925769998901017
9606,10.0,299.98648,-7241.253000000001,0.0,0.09606002052707385,0.0,0.0,0.0,0.0,0.4416964496870456,1.206115771734359,0.5533478764911836,-0.002276897401812278,-0.0012738381660180387,0.31908017745576167
9607,10.0,299.61112,-7140.8544,0.0,0.09607001651449298,0.0,0.0,0.0,0.0,0.4489767327155536,1.1726253228041088,0.5490393546809654,-0.01030087682211739,0.004612999108292566,0.28949099472303674
9608,10.0,299.72092999999995,-7292.1952,0.0,0.09608001250191234,0.0,0.0,0.0,0.0,0.46202786009859953,1.1791790244509088,0.5754383802688464,0.003618910783583686,0.005859615702424045,0.2996153694572347
9609,10.0,299.95081,-7543.1364,0.0,0.09609000848933147,0.0,0.0,0.0,0.0,0.4920818105196935,1.217153307723679,0.5836899648432144,0.0011963422652447888,0.004714476105807566,0.2936123591072837
9610,10.0,300.06791,-7492.2546,0.0,0.0961000374668084,0.0,0.0,0.0,0.0,0.5037125639125595,1.1947907766916688,0.5789549660659065,-0.008445612646617072,0.001046229668229829,0.2858712803307987
9611,10.0,300.18936,-7363.2693,0.0,0.09611003345422775,0.0,0.0,0.0,0.0,0.49811531969765455,1.1850249709028589,0.5551097765600694,0.001020385711179229,-0.0022803556244035774,0.29108886986573473
9612,10.0,300.29999,-7341.278,0.0,0.09612002944164688,0.0,0.0,0.0,0.0,0.4754977434829736,1.1903580101541889,0.5657094567836765,-0.006334562703947664,0.0044488394198412655,0.26696680977007275
9613,10.0,299.46795,-7387.3169,0.0,0.09613002542906623,0.0,0.0,0.0,0.0,0.5010877293960085,1.177500676985269,0.5669714800482285,-0.002091325306947738,0.005112521173766555,0.27493471471394376
9614,10.0,299.20499,-7491.1369,0.0,0.09614002141648581,0.0,0.0,0.0,0.0,0.48573150869796755,1.2081433865094688,0.5832437092341725,-0.00961356040165954,-0.002165856539253398,0.2678900629961907
9615,10.0,299.32547999999997,-7411.7939,0.0,0.09615001740390494,0.0,0.0,0.0,0.0,0.49275441606857456,1.185691081518599,0.5745547552541396,0.0001023081665720299,0.004989233663874026,0.2969116128903947
9616,10.0,299.89756,-7207.5934,0.0,0.0961600133913243,0.0,0.0,0.0,0.0,0.45924485724143854,1.1723670453536188,0.5593165072652414,0.0034822973123509867,0.0036840988367172465,0.28192568444139876
9617,10.0,299.718,-7317.8019,0.0,0.09617000937874343,0.0,0.0,0.0,0.0,0.4819869821584115,1.1969708856068288,0.5454712045863165,0.014049105777538788,-0.004529394930616475,0.2978423236372487
9618,10.0,300.12583,-7506.5192,0.0,0.09618003835622035,0.0,0.0,0.0,0.0,0.49315716271832255,1.2006314542430987,0.5880057415241484,-0.0030340181415342777,-0.005959042793661735,0.2822812946964947
9619,10.0,300.33794,-7440.1365,0.0,0.09619003434363971,0.0,0.0,0.0,0.0,0.5008492407199715,1.190366825430059,0.5703996192440595,-0.007078986305341554,-0.0025555877888168775,0.27826507527512473
9620,10.0,300.4728,-7304.9644,0.0,0.09620003033105884,0.0,0.0,0.0,0.0,0.45539030187352353,1.1956323822247288,0.5695040480106734,-0.005355216154943684,0.015138706299073984,0.29200051124570675
9621,10.0,300.49947000000003,-7248.1796,0.0,0.09621002631847841,0.0,0.0,0.0,0.0,0.4563292604761916,1.1828251036107489,0.5641112472684455,-0.007068521660958774,0.008949425522289532,0.28469538332474675
9622,10.0,300.04789,-7355.594,0.0,0.09622002230589755,0.0,0.0,0.0,0.0,0.4728559572922496,1.2178072593382188,0.5452537307173534,-0.006375044781217934,-0.003254437427212967,0.3206027478510277
9623,10.0,299.214,-7410.4777,0.0,0.0962300182933169,0.0,0.0,0.0,0.0,0.48510999121912857,1.205382989262039,0.5621071804256594,0.006472132277974723,0.0007709792247847252,0.2955336332843987
9624,10.0,299.55352999999997,-7240.183000000001,0.0,0.09624001428073625,0.0,0.0,0.0,0.0,0.46777071848537555,1.1912018448374688,0.5418623015726455,0.02041297096510338,0.0007430308384689342,0.3060202449293467
9625,10.0,299.67506000000003,-7116.517,0.0,0.09625001026815538,0.0,0.0,0.0,0.0,0.43976816381923856,1.177112906171999,0.5463623783142685,0.013117731351869288,-0.0039519262707247566,0.2818968878735567
9626,10.0,299.88487000000003,-7212.5846,0.0,0.09626000625557474,0.0,0.0,0.0,0.0,0.4609460737618356,1.172024465494809,0.5594750302433865,-0.011808734825931389,-0.008348259273034042,0.2936112850621777
9627,10.0,299.91511,-7397.4835,0.0,0.09627003523305167,0.0,0.0,0.0,0.0,0.47423744274359153,1.188778657223319,0.5856341587375915,-0.00046915732084972254,0.008115770760114212,0.27586346988810473
9628,10.0,300.08661,-7463.1574,0.0,0.09628003122047102,0.0,0.0,0.0,0.0,0.5024527394007245,1.1854541836452188,0.5807065917787785,-0.0010278067549116291,0.004232479822013236,0.2866465990423167
9629,10.0,300.30757,-7489.2186,0.0,0.09629002720789037,0.0,0.0,0.0,0.0,0.4943309825616696,1.1966239487725887,0.5855805578073014,0.002006029102929658,0.001015606413107549,0.27887783827309975
9630,10.0,300.47328,-7387.4659,0.0,0.0963000231953095,0.0,0.0,0.0,0.0,0.49932971007500554,1.1949683994341989,0.5513070691997715,-0.013016617097890088,-0.007444140768429493,0.2981965153422047
9631,10.0,300.0427,-7403.4844,0.0,0.09631001918272886,0.0,0.0,0.0,0.0,0.48711406819441555,1.182540886957699,0.5808194374424155,-0.008342405423231312,-0.008615365374295362,0.26697094383048076
9632,10.0,300.35609,-7340.2063,0.0,0.09632001517014821,0.0,0.0,0.0,0.0,0.4748950116609885,1.1861194836608788,0.5702248943968155,-0.000907280817636645,0.0076285371892030026,0.28537119074394374
9633,10.0,300.02699,-7369.9615,0.0,0.09633001115756734,0.0,0.0,0.0,0.0,0.4644843127135325,1.2036272294887589,0.5721727359915525,0.001041995701361969,-0.002056107874547048,0.2715057750505337
9634,10.0,299.74836,-7280.0213,0.0,0.09634000714498692,0.0,0.0,0.0,0.0,0.4712879426299985,1.194372203075359,0.5472845574952805,0.0048974565095663255,-0.01172214956513609,0.3038399637616697
9635,10.0,300.15872,-7151.7378,0.0,0.09635003612246362,0.0,0.0,0.0,0.0,0.4489680491621965,1.1813469743648688,0.5436346887800665,0.015547835411201884,-0.015270021485533787,0.2927320474204037
9636,10.0,299.21146,-7286.3593,0.0,0.09636003210988298,0.0,0.0,0.0,0.0,0.48077082872588656,1.190295391298009,0.5438050262543774,0.03059576868681727,0.002224290875170418,0.3136362481134877
9637,10.0,299.28421000000003,-7431.9209,0.0,0.09637002809730233,0.0,0.0,0.0,0.0,0.4718811499010436,1.1943241750206188,0.5929131042759674,0.016349185531038986,-0.002202788289498278,0.2915549649117347
9638,10.0,300.56241,-7395.8893,0.0,0.09638002408472146,0.0,0.0,0.0,0.0,0.47358750359944757,1.2102527705676487,0.5643253571470764,-0.007628185996718342,-0.009891553875245361,0.3121569738949947
9639,10.0,300.36325,-7335.4042,0.0,0.09639002007214059,0.0,0.0,0.0,0.0,0.4672167138606995,1.1807834046592487,0.5817795425746705,-0.010015497869877679,-0.0011405061052341889,0.2791298031754667
9640,10.0,300.14678,-7369.2292,0.0,0.09640001605956017,0.0,0.0,0.0,0.0,0.4860579272176825,1.2006127091162488,0.5533910409454434,-0.007884063766996512,0.01051070673232599,0.28230207645604577
9641,10.0,300.47781000000003,-7455.9293,0.0,0.09641001204697952,0.0,0.0,0.0,0.0,0.4919313530123445,1.2011425375935387,0.5733424116419904,0.0018108426831662586,-0.0033445485957062466,0.2731243610252757
9642,10.0,300.33553,-7465.5404,0.0,0.09642000803439887,0.0,0.0,0.0,0.0,0.49955632345987055,1.206638608785959,0.5631429145453785,-0.015711113572066185,-0.01097629110027559,0.2851993941894887
9643,10.0,300.28261000000003,-7333.088000000001,0.0,0.09643003701187536,0.0,0.0,0.0,0.0,0.46609753859524555,1.2006932624991988,0.5622848639631954,0.009316266033543871,-0.006233813726629515,0.29482712438717174
9644,10.0,300.28242,-7241.7795,0.0,0.09644003299929493,0.0,0.0,0.0,0.0,0.4634856939449766,1.1668339905325489,0.5710004765533594,0.0050228283762395656,0.0001700067900083638,0.27512720183544076
9645,10.0,300.45167000000004,-7310.9153,0.0,0.09645002898671429,0.0,0.0,0.0,0.0,0.4745360779455645,1.185694729218959,0.5621049107454354,0.023403463124741977,0.0059347969346688545,0.2889506081797047
9646,10.0,299.71516,-7473.5213,0.0,0.09646002497413342,0.0,0.0,0.0,0.0,0.4880986027865815,1.2038529816110388,0.5798122668430155,-0.0027371412324598073,-0.004709344196701086,0.28305578254293073
9647,10.0,299.56142,-7436.4041,0.0,0.09647002096155255,0.0,0.0,0.0,0.0,0.5058157772776305,1.1881590547871688,0.5665063374573224,0.004492635838188636,-0.00953790051006749,0.2951558733821167
9648,10.0,299.5284,-7289.4815,0.0,0.09648001694897212,0.0,0.0,0.0,0.0,0.4833281605207755,1.1736138496016688,0.5588783475244984,0.0015812208574293486,-0.0013973836493860285,0.29056443187897674
9649,10.0,299.59417,-7293.6274,0.0,0.09649001293639148,0.0,0.0,0.0,0.0,0.4684454822569696,1.185750457974459,0.5628846674923914,-0.004682441494620995,0.0019091766801960684,0.29924476310065873
9650,10.0,300.12153,-7470.3974,0.0,0.09650000892381083,0.0,0.0,0.0,0.0,0.4949201266998135,1.1957967313909488,0.5800973852886544,-0.024485463257277077,-0.004619365561320886,0.28022743674379474
9651,10.0,300.76187999999996,-7477.7887,0.0,0.09651003790128754,0.0,0.0,0.0,0.0,0.4977485434264565,1.2051277515618488,0.5701847595603544,-0.00976772427654933,-0.002968153439983937,0.2916489742560127
9652,10.0,300.17215,-7363.0471,0.0,0.09652003388870689,0.0,0.0,0.0,0.0,0.47551498899967554,1.1930912522989388,0.5695761812852925,-0.004955302552475285,-0.0032573005680205367,0.2708801539087898
9653,10.0,301.09738,-7198.5176,0.0,0.09653002987612624,0.0,0.0,0.0,0.0,0.44930276620023063,1.1955554765421388,0.5433113302756535,0.005859028827966124,0.005065488738574816,0.2952557697094757
9654,10.0,300.41405,-7329.6373,0.0,0.09654002586354538,0.0,0.0,0.0,0.0,0.46500246854967053,1.2012013060993387,0.5618229232426054,-0.005593012578512364,-0.0077941832142259925,0.2956530245436817
9655,10.0,300.31928999999997,-7426.5518,0.0,0.09655002185096451,0.0,0.0,0.0,0.0,0.46530881458490453,1.2074571122167388,0.5847204097974115,0.01157322206543809,-0.0010486545783691488,0.31570760489541466
9656,10.0,299.60429,-7346.7143,0.0,0.09656001783838386,0.0,0.0,0.0,0.0,0.4701973714148675,1.1939801766116689,0.5690401618498915,-0.0019440400830118183,0.0006858899973645724,0.3002647715788257
9657,10.0,299.76029,-7239.1165,0.0,0.09657001382580344,0.0,0.0,0.0,0.0,0.46155719529464856,1.1824617521248888,0.5564917078414554,0.007968197773149893,0.0003393484623860857,0.3102703022087947
9658,10.0,299.6215,-7322.064,0.0,0.09658000981322279,0.0,0.0,0.0,0.0,0.48529961084284257,1.189069257351999,0.5513558065295815,-0.0007256330910719103,-0.007729008941293793,0.2854878664929587
9659,10.0,299.97517,-7437.1813,0.0,0.0965900387906995,0.0,0.0,0.0,0.0,0.4866333924794765,1.2140899486963488,0.5599940372096085,0.008509385290685942,-0.00846313032229593,0.2955427322702967
9660,10.0,299.8544,-7601.9505,0.0,0.09660003477811863,0.0,0.0,0.0,0.0,0.5200453043944755,1.195042164041479,0.5957156527275574,0.004381257462021446,0.002021871268243158,0.2615759646005378
9661,10.0,300.35902000000004,-7493.8551,0.0,0.0966100307655382,0.0,0.0,0.0,0.0,0.47328569692466155,1.214890922900399,0.5897682090130905,-0.003961273300247236,0.014069078963509986,0.2861448071952937
9662,10.0,299.9587,-7370.916,0.0,0.09662002675295733,0.0,0.0,0.0,0.0,0.4932017153252195,1.1851788835930488,0.5621938133092094,-0.0052366672104688155,0.006412799189219004,0.27256450994752274
9663,10.0,300.12836,-7440.7997,0.0,0.09663002274037669,0.0,0.0,0.0,0.0,0.4872254649104096,1.1945653285444189,0.5800265388416624,-0.015521900261642286,-0.001035481313819049,0.2965471062994207
9664,10.0,299.64227,-7453.1672,0.0,0.09664001872779604,0.0,0.0,0.0,0.0,0.5104003084150885,1.1861996317437888,0.5689768033211385,-0.003059863415810007,-0.0026750854393603773,0.27749526864415075
9665,10.0,299.74827,-7357.8946,0.0,0.09665001471521517,0.0,0.0,0.0,0.0,0.47327942490654257,1.1834715571745489,0.5798652091607405,0.0012672239733402689,-0.008927306373931541,0.29684183035600775
9666,10.0,299.56449,-7284.4864,0.0,0.09666001070263475,0.0,0.0,0.0,0.0,0.4599881369847946,1.187494869346619,0.5668189352456735,0.018370512076028384,-0.013007915306031287,0.29014798608787673
9667,10.0,299.82002,-7271.5211,0.0,0.09667000669005388,0.0,0.0,0.0,0.0,0.44000520354763256,1.206786036675509,0.5635696448249934,0.007617165787305732,-0.006828686476863884,0.3055968178450577
9668,10.0,299.99228,-7306.898,0.0,0.09668003566753058,0.0,0.0,0.0,0.0,0.47773533407630653,1.1813227576874787,0.5620564469931525,0.012907161769087688,-0.0029120380282457773,0.2865624790190147
9669,10.0,299.75675,-7455.7621,0.0,0.09669003165494994,0.0,0.0,0.0,0.0,0.48583721094839954,1.2148854513498588,0.5656428659871044,-0.006329321566480404,0.008556780672063502,0.3086863288574687
9670,10.0,299.98632000000003,-7529.7495,0.0,0.09670002764236929,0.0,0.0,0.0,0.0,0.5134584188069005,1.207043300875899,0.5683541611346884,-0.019638903617458882,-0.006183189117183255,0.29793624178901773
9671,10.0,300.71365,-7407.3106,0.0,0.09671002362978864,0.0,0.0,0.0,0.0,0.4732447818856235,1.2048477905592188,0.5735448387469685,-0.0034552827474598567,0.0012442753784504188,0.3037555802933417
9672,10.0,300.18307000000004,-7368.4678,0.0,0.096720019617208,0.0,0.0,0.0,0.0,0.4700209949699606,1.198165406149719,0.5716438194393525,-0.011840317831548389,-0.0013452870915194987,0.2832910490836497
9673,10.0,300.1635,-7449.6033,0.0,0.09673001560462713,0.0,0.0,0.0,0.0,0.47342061117547657,1.1932653286661188,0.5978074163664985,-0.002030857986030078,0.003927097083649306,0.2737297374300217
9674,10.0,299.79624,-7368.7862,0.0,0.09674001159204648,0.0,0.0,0.0,0.0,0.4808236697186016,1.194154252978849,0.5649490429811295,-0.004907969891278915,0.0025338752577240176,0.2908659041812297
9675,10.0,299.94742,-7193.6555,0.0,0.09675000757946584,0.0,0.0,0.0,0.0,0.47113591458499454,1.1747405837128688,0.5408151177267965,0.006288337525110594,0.017159320529243086,0.2994043803889117
9676,10.0,300.40731,-7164.8332,0.0,0.09676003655694254,0.0,0.0,0.0,0.0,0.48362839665790647,1.1484112798643689,0.5458907610552235,0.004499889391679506,0.0027700033650030474,0.28337510831194573
9677,10.0,300.26734,-7338.2385,0.0,0.0967700325443619,0.0,0.0,0.0,0.0,0.46934941280368053,1.195062935668529,0.5662289095799425,0.014819394715560385,-0.0009322105191220151,0.3004564481002427
9678,10.0,299.6331,-7482.8824,0.0,0.09678002853178125,0.0,0.0,0.0,0.0,0.48061226521773753,1.1888609331314388,0.6051361631472895,0.008504754839053951,-0.01098862134074249,0.2794615311257057
9679,10.0,299.7831,-7531.2929,0.0,0.0967900245192006,0.0,0.0,0.0,0.0,0.4941488913861985,1.2108492709015188,0.5843268229285674,0.0037669089302899664,-0.0059772149275801835,0.2897761942286837
9680,10.0,299.58215,-7404.736999999999,0.0,0.09680002050661995,0.0,0.0,0.0,0.0,0.48930157383530554,1.182839897062209,0.5787137213495974,-0.007325163624462362,-0.001999803592990248,0.2626368982502437
9681,10.0,300.53819,-7205.5583,0.0,0.09681001649403909,0.0,0.0,0.0,0.0,0.4772918547725385,1.1653317459342887,0.5476861895699184,-0.006803928115970424,0.0012288926207322589,0.2928553396925717
9682,10.0,300.52434,-7365.1814,0.0,0.09682001248145844,0.0,0.0,0.0,0.0,0.49572013831626854,1.1895117436706688,0.5535993145034985,-0.0007284749536273802,0.005940591408015724,0.2837902368779157
9683,10.0,299.90127,-7484.9297,0.0,0.09683000846887779,0.0,0.0,0.0,0.0,0.4814128543867496,1.2103871275309088,0.5834317380552294,0.01081679742853479,0.014012702741196087,0.3059248069024277
9684,10.0,301.04553,-7197.2227,0.0,0.0968400374463545,0.0,0.0,0.0,0.0,0.4542514796886305,1.1739685884616788,0.5595559179988694,0.006601116989204524,0.004750348807047926,0.2845785251907137
9685,10.0,300.55092,-7111.4342,0.0,0.09685003343377385,0.0,0.0,0.0,0.0,0.4374778031606976,1.1777301781329188,0.5464904024644035,0.005337557130875875,0.009346051026858421,0.3050097913996227
9686,10.0,300.10357999999997,-7329.5403,0.0,0.0968600294211932,0.0,0.0,0.0,0.0,0.47059584214919353,1.1881339261846888,0.5692674541123235,-0.005784096044645835,-0.008555681397030012,0.2908304505602307
9687,10.0,299.98863,-7402.4127,0.0,0.09687002540861256,0.0,0.0,0.0,0.0,0.48513604187919956,1.209201827563929,0.5558107531117505,-0.01071705308869079,-0.00021796341061631376,0.3081714154216507
9688,10.0,299.55613,-7443.9546,0.0,0.09688002139603191,0.0,0.0,0.0,0.0,0.4924456483656015,1.2046537531650687,0.5656768909254625,-0.0039240215656207765,-0.01038932443659649,0.2932291985819687
9689,10.0,299.83669,-7268.001,0.0,0.09689001738345104,0.0,0.0,0.0,0.0,0.45992510269607356,1.181513248706279,0.5678525111426794,-0.0042892378369648165,-0.01033860316309069,0.29719037825790673
9690,10.0,299.91251,-7164.3745,0.0,0.0969000133708704,0.0,0.0,0.0,0.0,0.45802953467399554,1.176356514972349,0.5434048735248854,0.01013792492778529,-0.007964362418871372,0.29780883572144373
9691,10.0,299.95215,-7318.0281,0.0,0.09691000935828975,0.0,0.0,0.0,0.0,0.46945731380682953,1.1752823685413387,0.5797581694201764,0.0076620308805335725,0.009446820775803621,0.2818462658985607
9692,10.0,300.24155,-7518.9617,0.0,0.09692003833576646,0.0,0.0,0.0,0.0,0.5128538530022345,1.1993220311388688,0.5734007343177464,0.0101279039856213,0.0029500665203988975,0.27307242182514974
9693,10.0,300.49714,-7400.6142,0.0,0.09693003432318581,0.0,0.0,0.0,0.0,0.49990258141654353,1.1853536692352988,0.5643456829440825,-0.013874493401055886,-0.012767343387788687,0.2764283770838567
9694,10.0,300.40289,-7281.0438,0.0,0.09694003031060516,0.0,0.0,0.0,0.0,0.49045196733634056,1.172618432703429,0.5501851581590474,-0.0049486528960440155,-0.006467041405497294,0.2898331996793097
9695,10.0,300.51732000000004,-7344.8675,0.0,0.09695002629802452,0.0,0.0,0.0,0.0,0.4582476671555235,1.213306199743999,0.5611024416264995,-0.006679013630392323,0.003867893690906386,0.3037981874600467
9696,10.0,299.43822,-7437.3128,0.0,0.09696002228544387,0.0,0.0,0.0,0.0,0.4971554476129225,1.183079226735829,0.5805226868856285,0.0006831444847611115,0.0027101984056757578,0.28806869555766673
9697,10.0,299.36281,-7411.2336,0.0,0.096970018272863,0.0,0.0,0.0,0.0,0.45645326202342956,1.2032485779263888,0.5931281159471874,-0.00929602626147136,0.004552856230056926,0.2946270885524297
9698,10.0,299.69872999999995,-7253.8059,0.0,0.09698001426028235,0.0,0.0,0.0,0.0,0.4806561693445705,1.1811588138212987,0.5431608829008056,-0.007305402511737093,0.006368622498109104,0.2890125886883217
9699,10.0,299.39185,-7222.7644,0.0,0.09699001024770171,0.0,0.0,0.0,0.0,0.4538779754367686,1.178921658925509,0.5627403806781515,0.013886802363270685,0.008006030201408663,0.2877240486686527
9700,10.0,299.67307999999997,-7289.9706,0.0,0.09700000623512106,0.0,0.0,0.0,0.0,0.47818219763540853,1.1935446817186888,0.5442421930100225,0.009881742473202051,-0.0016864454617642082,0.28917454658430575
9701,10.0,300.4877,-7566.5835,0.0,0.09701003521259777,0.0,0.0,0.0,0.0,0.4797022754354286,1.2068555456323689,0.6134946658722094,0.0058605364427899145,-0.007573185261415192,0.27969516633376373
9702,10.0,299.96584,-7523.8992,0.0,0.09702003120001712,0.0,0.0,0.0,0.0,0.49915101328736955,1.207918343662259,0.5800081787498504,-0.007760495485501273,-0.01052968895969939,0.29660323022245966
9703,10.0,300.01783,-7266.9314,0.0,0.09703002718743625,0.0,0.0,0.0,0.0,0.45110565223566157,1.1970245878621288,0.5608355008876545,-0.0045116325550384655,0.01850452960050488,0.29694579994876874
9704,10.0,300.52506,-7298.1165,0.0,0.09704002317485583,0.0,0.0,0.0,0.0,0.5000023764188926,1.187005064248279,0.5314377818938255,-0.015750469219200286,0.004223825247609096,0.29650677894544075
9705,10.0,299.87131,-7499.687,0.0,0.09705001916227496,0.0,0.0,0.0,0.0,0.49448564505693354,1.2107048827622688,0.5745270327314035,-0.0037331251454557667,-0.018762689513983282,0.2871750798969737
9706,10.0,299.3925,-7452.8229,0.0,0.09706001514969431,0.0,0.0,0.0,0.0,0.48828183893466554,1.218794063610609,0.5583961418019084,-0.00010652274996547688,-0.01907578987438388,0.3062872160656947
9707,10.0,299.70775,-7326.2794,0.0,0.09707001113711367,0.0,0.0,0.0,0.0,0.4486540024262025,1.191858532227279,0.5864934150873935,0.02108736490041088,0.0009515639709345522,0.2920046149086117
9708,10.0,299.68324,-7266.8125,0.0,0.09708000712453302,0.0,0.0,0.0,0.0,0.4511637823938986,1.1916380490055187,0.5661276960274534,0.016817155089723982,-0.0024017420744584877,0.3028754003289747
9709,10.0,300.06868,-7306.2132,0.0,0.09709003610200995,0.0,0.0,0.0,0.0,0.4551301904403525,1.1836865688457687,0.5820896173702724,0.007192061368801193,-0.0018552918372280482,0.27295800562385775
9710,10.0,299.39884,-7519.8143,0.0,0.09710003208942908,0.0,0.0,0.0,0.0,0.5178994939952005,1.2019645873996687,0.5659716757770555,-0.010782862669435688,0.011191138624979387,0.2836382392304147
9711,10.0,300.14878999999996,-7619.6041,0.0,0.09711002807684821,0.0,0.0,0.0,0.0,0.5077674996202505,1.2192461758052289,0.5891557094601414,-0.007463119449427544,0.014312004661734887,0.2854687059335677
9712,10.0,300.45906,-7342.3646,0.0,0.09712002406426756,0.0,0.0,0.0,0.0,0.49157301711447954,1.177482235833449,0.5628402466080075,-0.0044189635379927455,-0.0012886052729754389,0.2763020349288878
9713,10.0,299.62807999999995,-7258.0391,0.0,0.09713002005168692,0.0,0.0,0.0,0.0,0.4442707939511136,1.1911766149099787,0.5708152747000815,-0.002727647484322847,-0.012861467229327989,0.2938669888574137
9714,10.0,299.42851,-7449.1156,0.0,0.09714001603910627,0.0,0.0,0.0,0.0,0.47394491743972156,1.2079202688374489,0.5824799517062955,0.00946465022853825,-0.0017492531877628485,0.29954849495063474
9715,10.0,299.92706,-7441.4375,0.0,0.09715001202652562,0.0,0.0,0.0,0.0,0.4807376143876086,1.2062462783472387,0.5750273249682785,0.007418517294600654,0.013775848437570385,0.3030122194899777
9716,10.0,299.76995,-7238.6168,0.0,0.09716000801394475,0.0,0.0,0.0,0.0,0.48591372146345047,1.1844105360422188,0.5300344609028285,0.006206315841440684,0.012321406952528188,0.2959705973900237
9717,10.0,300.93285,-7203.1209,0.0,0.0971700369914219,0.0,0.0,0.0,0.0,0.4555939144811186,1.173428627483389,0.5605463699716194,-0.016236583047425986,-0.008260480504945952,0.2989884513553627
9718,10.0,300.40088,-7383.544,0.0,0.09718003297884104,0.0,0.0,0.0,0.0,0.4771287012414365,1.204711305770749,0.5625729714966295,-0.0035804923927920864,-0.002757807988124458,0.2900014397259137
9719,10.0,299.6286,-7393.9504,0.0,0.09719002896626017,0.0,0.0,0.0,0.0,0.4516412967685256,1.1971443540239488,0.5987906033360314,0.011886334584839888,0.005392045566928464,0.29611248280152674
9720,10.0,300.2666,-7388.8744,0.0,0.09720002495367952,0.0,0.0,0.0,0.0,0.4576849384474866,1.193198758134549,0.5951496512216974,0.02102976365872608,-0.0011304311568398689,0.28928899318310075
9721,10.0,300.2899,-7404.8324,0.0,0.09721002094109887,0.0,0.0,0.0,0.0,0.48184966650485955,1.1954919457608688,0.5735425690667445,-0.007271616193777643,-0.00931907496547109,0.28461785955959573
9722,10.0,299.74508,-7306.6265,0.0,0.09722001692851845,0.0,0.0,0.0,0.0,0.4787972404461085,1.184173840818859,0.5580609282713255,0.01050332925834789,0.012240210155764687,0.28673026310307376
9723,10.0,299.96085,-7305.72,0.0,0.09723001291593758,0.0,0.0,0.0,0.0,0.4757201316149215,1.1923946428551888,0.5526416715689865,0.0038120603679960663,0.021456336884575582,0.29654082414880073
9724,10.0,299.6731,-7518.5365,0.0,0.09724000890335671,0.0,0.0,0.0,0.0,0.4999517037813915,1.1998038315614188,0.5856918126682814,-0.0063893843979581436,0.0040144728821726264,0.2900026961560377
9725,10.0,300.22046,-7339.7137,0.0,0.09725003788083386,0.0,0.0,0.0,0.0,0.45480482570074154,1.182106709289849,0.5941781774233204,-0.014318165222342886,-0.02105826435753888,0.28936111632521877
9726,10.0,299.60916000000003,-7251.3334,0.0,0.09726003386825299,0.0,0.0,0.0,0.0,0.4513851268782436,1.197176778027149,0.5556623930321085,-0.004480318060697965,0.0036993715554745465,0.3044168779711067
9727,10.0,300.25313,-7413.3271,0.0,0.09727002985567212,0.0,0.0,0.0,0.0,0.4942635203700115,1.194396217102729,0.5648066306795745,-0.0028245140925578375,0.014923396732324587,0.28450273408323373
9728,10.0,300.49424,-7401.9378,0.0,0.09728002584309148,0.0,0.0,0.0,0.0,0.5061549526161045,1.1872200759194989,0.5566292362775285,-0.015995364675619586,0.003477035707231707,0.2762831074170198
9729,10.0,299.84506,-7385.8697,0.0,0.09729002183051083,0.0,0.0,0.0,0.0,0.47149817176074654,1.196770566062059,0.5768512156782825,-0.019654885611286182,-0.014788899940550788,0.2809407344166917
9730,10.0,299.45504,-7465.2055,0.0,0.0973000178179304,0.0,0.0,0.0,0.0,0.4834983358750705,1.2032979232062588,0.5824397966048325,0.009953729231856591,0.002207556948443908,0.28026441023994375
9731,10.0,300.43301,-7473.2457,0.0,0.09731001380534954,0.0,0.0,0.0,0.0,0.4577579836471956,1.2137515231629488,0.6001705587797225,0.02981351326511467,0.008577969048879633,0.2941237869627577
9732,10.0,300.15188,-7414.5415,0.0,0.09732000979276867,0.0,0.0,0.0,0.0,0.48078863153014356,1.194100145423509,0.5789466675475874,0.013666583599786787,0.008611065546171002,0.2978197078950167
9733,10.0,299.89027999999996,-7397.9275,0.0,0.0973300387702456,0.0,0.0,0.0,0.0,0.4861585328201115,1.1962037539561188,0.5664229571065934,-0.01087855806188009,-0.01916630350581688,0.2891470571090927
9734,10.0,299.88414,-7363.6548,0.0,0.09734003475766495,0.0,0.0,0.0,0.0,0.49013846775540054,1.2051618980902188,0.5430668532915255,-0.012538901086493187,0.007782857915208273,0.29753429560684874
9735,10.0,299.57325,-7173.1363,0.0,0.09735003074508408,0.0,0.0,0.0,0.0,0.45148218610532254,1.181118587792329,0.5478535784864385,-0.0026500470161392774,0.02182948143265208,0.2970625972877957
9736,10.0,299.62267,-7103.2851,0.0,0.09736002673250344,0.0,0.0,0.0,0.0,0.44102216214299855,1.1840879172103789,0.5341111612226676,-0.011229393882504888,0.016786337087932483,0.30703351529434875
9737,10.0,300.04442,-7341.7184,0.0,0.09737002271992279,0.0,0.0,0.0,0.0,0.44160276458279957,1.1988870428709388,0.5912092837028134,-0.0007505967161706283,-0.02096810435039078,0.2946743971995987
9738,10.0,299.24276000000003,-7514.1968,0.0,0.09738001870734214,0.0,0.0,0.0,0.0,0.49348853603102655,1.2106599957828388,0.5799796658920364,0.005573340935770926,-0.00945089900613111,0.29232546055277675
9739,10.0,299.87279,-7429.7984,0.0,0.0973900146947615,0.0,0.0,0.0,0.0,0.49271524381970855,1.2087819367224888,0.5569759704617485,0.018693963799450583,-0.0008821696329258642,0.2851698680815747
9740,10.0,300.29554,-7394.5853,0.0,0.09740001068218063,0.0,0.0,0.0,0.0,0.5065117382413165,1.172789367995299,0.5684681821684414,-0.0030881873024803572,-0.007067906314173044,0.2819736922311367
9741,10.0,299.97536,-7466.1608,0.0,0.09741000666959998,0.0,0.0,0.0,0.0,0.49114948870518055,1.1913857497306188,0.5869912248615234,-0.008698767611226522,-0.001949208165146868,0.26880692261417777
9742,10.0,300.16505,-7406.9635,0.0,0.09742003564707691,0.0,0.0,0.0,0.0,0.4778423028893635,1.192920722307109,0.5807688965274275,-0.025410690294589873,0.015467192862243087,0.29281635996122474
9743,10.0,300.27654,-7491.5263,0.0,0.09743003163449604,0.0,0.0,0.0,0.0,0.47473451284514856,1.2078037450759487,0.5946986738671894,-0.00045046991885791955,0.024507618983963676,0.2862015998633987
9744,10.0,299.6522,-7351.0293,0.0,0.09744002762191539,0.0,0.0,0.0,0.0,0.4963593167443505,1.1814862962536188,0.5566836883379024,-0.0062030082891392545,0.005505763132276515,0.2838122649350897
9745,10.0,300.44423,-7105.2594,0.0,0.09745002360933475,0.0,0.0,0.0,0.0,0.4626200135895406,1.163583078911709,0.5336182961090256,-0.0043045622314772155,-0.016144796773867383,0.2882009044307147
9746,10.0,299.56764,-7268.7835,0.0,0.0974600195967541,0.0,0.0,0.0,0.0,0.4732942487555055,1.1914057107575886,0.5448287736254135,0.007403208808114822,-0.002912717919062877,0.28724444699881974
9747,10.0,299.13208,-7537.8435,0.0,0.09747001558417345,0.0,0.0,0.0,0.0,0.4944272919836746,1.2079609001664589,0.5889279916326675,-0.004321639852637646,0.004616742358136995,0.28487867013533574
9748,10.0,300.07148,-7425.6445,0.0,0.09748001157159258,0.0,0.0,0.0,0.0,0.4650555831199125,1.1920611822472789,0.6000937442896415,0.0075743065239758526,0.013088219429456687,0.2879053393765447
9749,10.0,299.52832,-7309.4649,0.0,0.09749000755901194,0.0,0.0,0.0,0.0,0.4437369935334316,1.2042614227263488,0.5738963960016645,-0.01077878839078359,-0.006297955396384804,0.30573023248572473
9750,10.0,300.24447000000004,-7442.0229,0.0,0.09750003653648887,0.0,0.0,0.0,0.0,0.49330313152772853,1.199437541650269,0.5694484611101874,0.00940222176205204,0.017258526833283983,0.2922585961786777
9751,10.0,300.60954,-7454.9493,0.0,0.097510032523908,0.0,0.0,0.0,0.0,0.4959449987784605,1.204631866962909,0.5655416119046114,0.003434172694876457,0.0002373291227550608,0.30513049988403573
9752,10.0,300.21725,-7378.5821,0.0,0.09752002851132757,0.0,0.0,0.0,0.0,0.4898276735522275,1.204987213772979,0.5480898076147525,0.00889910164547295,-0.005286914890877875,0.29249405523691574
9753,10.0,300.207,-7298.6286,0.0,0.0975300244987467,0.0,0.0,0.0,0.0,0.4628557259603035,1.1754927192620988,0.5802524024214535,-0.0034696396907767774,-0.02328321161612408,0.2862020558259437
9754,10.0,300.20375,-7281.9539,0.0,0.09754002048616606,0.0,0.0,0.0,0.0,0.4452133799891396,1.202046255357729,0.5662725097317455,0.01204075086032959,0.0034222949719042166,0.29193700072943873
9755,10.0,299.64813,-7352.5913,0.0,0.09755001647358541,0.0,0.0,0.0,0.0,0.4579232042085015,1.2120935420243186,0.5649873944974144,0.005941284268434105,0.01193580348122209,0.3052464967554837
9756,10.0,299.73722000000004,-7430.6192,0.0,0.09756001246100454,0.0,0.0,0.0,0.0,0.5031029014598905,1.1892135441662388,0.5664062080824405,-0.005540303105660344,0.0006572669992647023,0.2915630506475327
9757,10.0,300.00128,-7347.9973,0.0,0.0975700084484239,0.0,0.0,0.0,0.0,0.4890271958407265,1.198412740499129,0.5461677735000625,-0.01113521228570989,-0.008808175823899271,0.28904838681435474
9758,10.0,299.46894,-7278.1287,0.0,0.0975800374259006,0.0,0.0,0.0,0.0,0.4754472329654885,1.183499016252259,0.5534231609736134,-0.005881882481321605,0.007189978025270583,0.28886956843670675
9759,10.0,299.99236,-7393.5258,0.0,0.09759003341332018,0.0,0.0,0.0,0.0,0.4735271848209946,1.1938760145013887,0.5800439768758834,0.003019272414153987,0.013388917608633286,0.2863717346876897
9760,10.0,299.97488,-7531.5105,0.0,0.09760002940073953,0.0,0.0,0.0,0.0,0.4843226046989195,1.2030737922841388,0.6019947635972575,-0.005181852913184065,0.0011425046397314288,0.28216690889270574
9761,10.0,300.14462000000003,-7396.0314,0.0,0.09761002538815866,0.0,0.0,0.0,0.0,0.47733824136211656,1.184902975590819,0.5859676396105035,0.0028072105166251074,-0.004297650751220105,0.28563689531766673
9762,10.0,300.11506,-7306.6616,0.0,0.09762002137557801,0.0,0.0,0.0,0.0,0.48979822850432153,1.184798509505509,0.5464459714475185,0.01077061855522729,0.018379224000388182,0.2915256718513437
9763,10.0,300.75063,-7339.6807,0.0,0.09763001736299715,0.0,0.0,0.0,0.0,0.48705746804382954,1.1971616806006589,0.5468604819309275,0.009048785029745552,0.013211990968921988,0.2950085164200737
9764,10.0,300.10717999999997,-7332.776,0.0,0.0976400133504165,0.0,0.0,0.0,0.0,0.48148259639113256,1.192711688811479,0.5547865295131674,-0.0034520669956174866,-0.0008672445096153692,0.2860249498409647
9765,10.0,300.32822999999996,-7312.8848,0.0,0.09765000933783607,0.0,0.0,0.0,0.0,0.45213262174201563,1.2072904325752887,0.5635113424142395,-0.017791859129419784,-0.02049621452706888,0.30101522513288975
9766,10.0,299.76353,-7429.6598,0.0,0.09766003831531256,0.0,0.0,0.0,0.0,0.4633907726756086,1.193642359028329,0.6013979592883574,-0.002070125784380508,-0.010737911855249388,0.29358656175973774
9767,10.0,299.54197,-7333.1763,0.0,0.09767003430273191,0.0,0.0,0.0,0.0,0.4546339816013806,1.2024600666985688,0.5720084273553364,0.00030898036390398766,0.002448572568905298,0.31306465346707574
9768,10.0,300.1438,-7191.2114,0.0,0.09768003029015149,0.0,0.0,0.0,0.0,0.4630739091043365,1.1797844413856589,0.5430903606938455,-0.004131535287425786,0.0024464214389429977,0.30256026941537373
9769,10.0,299.92942999999997,-7424.1516,0.0,0.09769002627757062,0.0,0.0,0.0,0.0,0.4921260084890555,1.1915297325698289,0.5731009541431604,0.001903486470284488,-0.007063272214840693,0.2978847585514367
9770,10.0,299.84884,-7487.5351,0.0,0.09770002226498997,0.0,0.0,0.0,0.0,0.4929781011606505,1.210311133773409,0.5727344919794934,-0.0006187228844006943,0.011725671622483688,0.2896271755364767
9771,10.0,300.50479,-7255.1047,0.0,0.0977100182524091,0.0,0.0,0.0,0.0,0.44892300006275054,1.1885974881054389,0.5678501300049444,0.014342816584025787,0.016536238592249685,0.29252172709714674
9772,10.0,299.70235,-7315.1503,0.0,0.09772001423982846,0.0,0.0,0.0,0.0,0.46110738317775557,1.1823333733372188,0.5801823260445375,-0.003846093615004887,-0.005584162852138965,0.29039181459194074
9773,10.0,299.86319,-7362.9976,0.0,0.09773001022724803,0.0,0.0,0.0,0.0,0.4871157299245795,1.193804783019359,0.5572468831409855,-0.0096301023174921,-0.012672565999934887,0.28847354976762274
9774,10.0,299.50816000000003,-7362.3715,0.0,0.09774000621466716,0.0,0.0,0.0,0.0,0.4919222641589475,1.1888071295511289,0.5572477140060674,-0.01189997191793579,-0.005359504229366885,0.3097727457471897
9775,10.0,299.24676,-7524.8015,0.0,0.09775003519214387,0.0,0.0,0.0,0.0,0.5059845644792885,1.2221425512160788,0.5592246156136724,-0.0071063468951418325,0.015533843440570985,0.29540956080965375
9776,10.0,299.45376,-7524.3155,0.0,0.09776003117956322,0.0,0.0,0.0,0.0,0.4943639841174265,1.2041954601448388,0.5886445551821945,-0.007992294785703083,-0.006003602290659414,0.28083301579856074
9777,10.0,299.85663999999997,-7336.3309,0.0,0.09777002716698258,0.0,0.0,0.0,0.0,0.4529882810539626,1.194629872575789,0.5824432619201745,-0.011787751429610489,-0.015502061837934384,0.28129105550626576
9778,10.0,299.80984,-7360.3046,0.0,0.09778002315440193,0.0,0.0,0.0,0.0,0.4600509483584936,1.192057635871929,0.5852402374962145,0.014937524478468885,-0.007771344050346942,0.28851718031692875
9779,10.0,300.06764,-7493.2203,0.0,0.09779001914182106,0.0,0.0,0.0,0.0,0.4922033903991925,1.1971331069478388,0.5884153377445724,0.013701917657273986,0.01102622001220319,0.28243474129163876
9780,10.0,300.55114,-7392.1198,0.0,0.09780001512924041,0.0,0.0,0.0,0.0,0.4848741876558565,1.2013583598648387,0.5607873309779005,0.01124942178398149,-0.00042836247353858454,0.2957308725488647
9781,10.0,300.28092000000004,-7307.693,0.0,0.09781001111665999,0.0,0.0,0.0,0.0,0.48223797434068255,1.1882195458181388,0.5508987091444694,-0.013477455402371288,-0.005118227595679735,0.3026914143758167
9782,10.0,300.38602000000003,-7442.3222,0.0,0.09782000710407912,0.0,0.0,0.0,0.0,0.4893754904301006,1.1993029820369887,0.5736016111500715,0.0005147905589783726,0.006643261607238874,0.29302067171138874
9783,10.0,299.69162,-7413.0583,0.0,0.09783003608155583,0.0,0.0,0.0,0.0,0.4563214888479245,1.2149214217284088,0.5821417288229154,-0.011857592732503289,0.016100149934711087,0.3057061779283507
9784,10.0,299.73012,-7300.828,0.0,0.09784003206897518,0.0,0.0,0.0,0.0,0.4606819701232706,1.195426692454429,0.5631607882771424,-0.0037460623227325665,-0.002267930138427278,0.29340190706151376
9785,10.0,299.53831,-7401.4225,0.0,0.09785002805639453,0.0,0.0,0.0,0.0,0.4795098795064406,1.200817182986429,0.5695205741198044,-0.014643489431949885,-0.018968966969341285,0.2949782709045887
9786,10.0,300.10131,-7400.8568,0.0,0.09786002404381389,0.0,0.0,0.0,0.0,0.4922078183021295,1.2054890765475088,0.5519787425585605,0.015053495005414285,-0.0034095337961697865,0.3082345003728767
9787,10.0,299.73442,-7301.129,0.0,0.09787002003123302,0.0,0.0,0.0,0.0,0.48449482681841655,1.190541611072309,0.5443244486531404,0.013155534699850186,0.017319843663085484,0.28635867389390074
9788,10.0,299.92046,-7390.1451,0.0,0.09788001601865237,0.0,0.0,0.0,0.0,0.4812350897892056,1.198835265790829,0.5663491924993135,0.00024558206508456273,-0.0009611190409675641,0.2849691938992697
9789,10.0,299.96733,-7466.7164,0.0,0.09789001200607172,0.0,0.0,0.0,0.0,0.4698827167288136,1.1954103791278188,0.6044022660998594,-0.011258521783129591,-0.012377834850597187,0.26345509770599373
9790,10.0,299.99002,-7362.0081,0.0,0.09790000799349108,0.0,0.0,0.0,0.0,0.4668384169358646,1.178876974596099,0.5921512820557814,-0.005183240457871005,0.004768650333004146,0.28391928441065173
9791,10.0,300.27108,-7408.1302,0.0,0.09791003697096778,0.0,0.0,0.0,0.0,0.4835968237847905,1.201064213360809,0.5672255221133005,0.008833625322685942,0.016607515670534184,0.2857835734021427
9792,10.0,299.56367,-7549.2048,0.0,0.09792003295838714,0.0,0.0,0.0,0.0,0.5114816185243055,1.2037633089771889,0.5795248584521505,0.006519115266561583,-0.007744027840901043,0.28865477968050873
9793,10.0,299.79789,-7399.9934,0.0,0.09793002894580649,0.0,0.0,0.0,0.0,0.5138736284328785,1.1805405286102788,0.5549990181916384,-0.011316855604636689,-0.013676657332280987,0.28972294793592873
9794,10.0,300.23671,-7278.3423,0.0,0.09794002493322584,0.0,0.0,0.0,0.0,0.46512023860879353,1.187312585653629,0.5600014440678395,0.004704269130925215,-0.01007598971144776,0.2926016826625377
9795,10.0,300.76747,-7326.7907,0.0,0.0979500209206452,0.0,0.0,0.0,0.0,0.4668602423430186,1.1889645886166689,0.5713365918765314,0.0029447432083485273,0.013560568255073888,0.28632928964100074
9796,10.0,300.77171,-7163.8209,0.0,0.09796001690806433,0.0,0.0,0.0,0.0,0.44389523280154863,1.182292438033179,0.5514350021573975,0.007679170613925133,-0.0038243328532072667,0.2886198732145637
9797,10.0,300.44464,-7281.2175,0.0,0.09797001289548368,0.0,0.0,0.0,0.0,0.4620921812149476,1.1847281899485689,0.5664879672330094,-0.008001321628193963,-0.018554677374454084,0.2969096877152047
9798,10.0,300.21922,-7545.7202,0.0,0.09798000888290304,0.0,0.0,0.0,0.0,0.4944148695374485,1.2235956531844887,0.5757000318421694,0.0036185403393471263,-0.0026202739791759077,0.2991919727704487
9799,10.0,300.56953,-7433.8018,0.0,0.09799003786037974,0.0,0.0,0.0,0.0,0.48259231803315356,1.2150707747931488,0.5620270424752505,0.0053598626159272545,0.017668449320240184,0.29644550771189376
9800,10.0,299.82388,-7369.0284,0.0,0.0980000338477991,0.0,0.0,0.0,0.0,0.4553173478663236,1.2074037139364688,0.5772795874230594,0.005815790507773834,0.0018915786537842781,0.2970617056277077
9801,10.0,299.67512999999997,-7449.5336,0.0,0.09801002983521823,0.0,0.0,0.0,0.0,0.4757796499257955,1.1981915480022989,0.5905010016179114,-0.014445002856610786,-0.012736065370451789,0.2832078207204357
9802,10.0,300.0432,-7415.4112,0.0,0.0980200258226378,0.0,0.0,0.0,0.0,0.4844520676641966,1.1936417510782689,0.5760059928423654,0.010956966394368389,0.0033392976297130167,0.2864785819107347
9803,10.0,300.33745,-7369.6168,0.0,0.09803002181005716,0.0,0.0,0.0,0.0,0.4830886079321335,1.2025024205527488,0.5545884289861165,0.016629261030930285,0.01845658564552318,0.28897355829446975
9804,10.0,300.4246,-7326.5835,0.0,0.09804001779747629,0.0,0.0,0.0,0.0,0.4860019856796615,1.197987986057209,0.5431084674731325,0.011763774892494189,-0.0012782008156485987,0.29921676700039573
9805,10.0,299.97602,-7335.1643,0.0,0.09805001378489564,0.0,0.0,0.0,0.0,0.49594811958876855,1.1799738178293488,0.5537848000668045,-0.013931134081645886,-0.026254520924869473,0.2935794082140317
9806,10.0,300.12967000000003,-7365.3376,0.0,0.098060009772315,0.0,0.0,0.0,0.0,0.46303133233513455,1.194836474271179,0.5810108707838084,-0.007742369150487342,-0.01699917939068838,0.2996772993033467
9807,10.0,300.17991,-7464.4163,0.0,0.0980700387497917,0.0,0.0,0.0,0.0,0.48143215680115453,1.200743114404119,0.5868209279172164,-0.00989130755414605,0.0068249553860206535,0.28370913633991174
9808,10.0,299.82346,-7523.7558,0.0,0.09808003473721105,0.0,0.0,0.0,0.0,0.47277358005911957,1.205438515367519,0.6088217691935305,0.010770869841252091,0.0025812866484531574,0.27384443734134173
9809,10.0,299.59841,-7354.0479,0.0,0.09809003072463018,0.0,0.0,0.0,0.0,0.48028165184260857,1.1872086261933688,0.5679566023254524,-0.002088374823981548,-0.0022594981750701077,0.28033038295395474
9810,10.0,299.38966,-7460.7032,0.0,0.09810002671204954,0.0,0.0,0.0,0.0,0.5012246093520175,1.198302802863279,0.5683400870907994,0.01112925842812229,-0.0003485004919268207,0.2872551469198757
9811,10.0,299.48854,-7611.991999999999,0.0,0.09811002269946911,0.0,0.0,0.0,0.0,0.5026735671275185,1.219715918551589,0.5914659804831475,0.014843747168463787,0.021434897525709682,0.28946289729776375
9812,10.0,300.27171,-7378.5564,0.0,0.09812001868688824,0.0,0.0,0.0,0.0,0.46550699617196356,1.2024642210239789,0.5749256757182465,-0.0006886718552491203,0.004813321692812866,0.2980011100604197
9813,10.0,300.50282000000004,-7254.7744,0.0,0.0981300146743076,0.0,0.0,0.0,0.0,0.46522872729700054,1.183097161262599,0.5569443469261275,-0.006725491615129343,-0.007883320649373173,0.2962072419508787
9814,10.0,300.35787,-7327.3769999999995,0.0,0.09814001066172673,0.0,0.0,0.0,0.0,0.4720361467688406,1.2034917579503888,0.5518117082795755,-0.014012707807446588,-0.006840618003416433,0.2995051481113567
9815,10.0,300.33937000000003,-7298.4194,0.0,0.0981500066491463,0.0,0.0,0.0,0.0,0.47132376102103357,1.1954621562079288,0.5517513591036194,0.0027735329204013875,0.006715763198269223,0.3058554398005817
9816,10.0,300.79467999999997,-7334.3807,0.0,0.09816003562662301,0.0,0.0,0.0,0.0,0.4709042349496295,1.2065482268770389,0.5520161517522525,-0.01183950115196779,-0.012219600648730688,0.3020685290093427
9817,10.0,300.56462999999997,-7464.9054,0.0,0.09817003161404214,0.0,0.0,0.0,0.0,0.47927623416588155,1.212407953530349,0.5774606450834284,-0.0037688313697046964,-0.026137647592084978,0.3008147333356027
9818,10.0,299.87309,-7363.5869999999995,0.0,0.09818002760146172,0.0,0.0,0.0,0.0,0.4662120662540486,1.188733972893909,0.5834004894221455,0.0037619242464230164,-0.0017225151388240085,0.2893946549035287
9819,10.0,299.49044,-7341.5279,0.0,0.09819002358888107,0.0,0.0,0.0,0.0,0.46755801702438354,1.1996458658708289,0.5644372503556194,0.01969937640992708,0.025532695739130876,0.2880997820707347
9820,10.0,299.93665,-7551.7031,0.0,0.0982000195763002,0.0,0.0,0.0,0.0,0.4892902051691835,1.207022326598829,0.5992166851355823,0.019605653815427383,0.026953103166564175,0.2853316638575427
9821,10.0,300.16886,-7556.9623,0.0,0.09821001556371955,0.0,0.0,0.0,0.0,0.5149312487547575,1.195355359647389,0.5868412233167194,0.0005148492970866695,0.005358535460946274,0.27051942674068874
9822,10.0,300.05311,-7306.7321,0.0,0.09822001155113869,0.0,0.0,0.0,0.0,0.47416868359180553,1.1888576907311188,0.5580376741815305,0.010184585094890291,0.02273599678036818,0.29818245143081673
9823,10.0,299.32627,-7405.6227,0.0,0.09823000753855804,0.0,0.0,0.0,0.0,0.4753862859719735,1.198636162146179,0.5771019545480284,0.007512555313856482,0.013806695823614788,0.28854963471763173
9824,10.0,299.27395,-7425.9693,0.0,0.09824003651603497,0.0,0.0,0.0,0.0,0.4807455076058876,1.1950628343435188,0.5815009393271744,-0.013741791075209186,-0.006774295211495884,0.29149511222832775
9825,10.0,299.39473,-7406.3587,0.0,0.09825003250345432,0.0,0.0,0.0,0.0,0.48823994104303053,1.1974497476040888,0.5656584396411415,-0.018522012217730283,-0.022215156844715277,0.28674712358473775
9826,10.0,299.8239,-7492.3149,0.0,0.09826002849087367,0.0,0.0,0.0,0.0,0.4903444513682296,1.2022614696789689,0.5848706849197425,-0.0010450224820606892,-0.0015226740507512286,0.3064004872943737
9827,10.0,299.61194,-7411.6678,0.0,0.0982700244782928,0.0,0.0,0.0,0.0,0.5001388612073625,1.1917252898391288,0.5610978009410414,0.01162940171723259,0.02030103621330628,0.28213672417222674
9828,10.0,299.71563,-7274.0919,0.0,0.09828002046571216,0.0,0.0,0.0,0.0,0.45935797648260257,1.1968928653491289,0.5548914819585254,0.003420907224567257,0.00016791192582411683,0.2984678839839867
9829,10.0,300.23136,-7300.0943,0.0,0.09829001645313151,0.0,0.0,0.0,0.0,0.4558121178901536,1.195644135925889,0.5675901300292845,-0.001041511266489159,-0.018713128411841983,0.28924206957096976
9830,10.0,300.63948999999997,-7486.8569,0.0,0.09830001244055064,0.0,0.0,0.0,0.0,0.4839400318586625,1.2160524114900289,0.5758251276995154,0.0004284178881865536,0.004138612535399256,0.2934126272475717
9831,10.0,299.99244,-7471.1388,0.0,0.09831000842797022,0.0,0.0,0.0,0.0,0.4832054761986675,1.2074842673194188,0.5803499074785764,0.013466415029281685,0.025806131411116876,0.2886754905125527
9832,10.0,300.17731000000003,-7256.4173,0.0,0.09832003740544693,0.0,0.0,0.0,0.0,0.44817404611883455,1.2055807756815589,0.5520148345271225,-0.001954665732835488,0.01152868567054269,0.3155316033530447
9833,10.0,299.60202999999996,-7356.7321,0.0,0.09833003339286628,0.0,0.0,0.0,0.0,0.48547418370257156,1.1989088277480888,0.5518798797463035,-0.015477408449751286,-0.0017114929029111985,0.3093715392375937
9834,10.0,299.56645,-7436.2409,0.0,0.09834002938028563,0.0,0.0,0.0,0.0,0.4807729058885915,1.1999578455766189,0.5797007688020115,0.0005217891280815775,0.017374917859020882,0.3023589771505077
9835,10.0,299.32675,-7288.6676,0.0,0.09835002536770476,0.0,0.0,0.0,0.0,0.46071925772695055,1.2027287806250886,0.5521249342829885,-0.0017311362759748483,0.015258671057913587,0.3044285911422627
9836,10.0,299.50516,-7289.9316,0.0,0.09836002135512412,0.0,0.0,0.0,0.0,0.46335593713717055,1.180963965827069,0.5716372231812015,-0.004058614514829066,-0.0001232614389674569,0.2952753760989107
9837,10.0,298.78707,-7415.8669,0.0,0.09837001734254347,0.0,0.0,0.0,0.0,0.4785385678280795,1.193178290482529,0.5825215152253974,-0.018686108071425282,-0.025299103087577077,0.2752403818716107
9838,10.0,298.971,-7350.7911,0.0,0.09838001332996282,0.0,0.0,0.0,0.0,0.4764024542322616,1.202168351994779,0.5558861287866894,0.008598284814709641,-0.0035438808295788064,0.2981273407578777
9839,10.0,298.90441,-7450.1547,0.0,0.09839000931738218,0.0,0.0,0.0,0.0,0.5115916473526645,1.1895602783504589,0.5635091132640194,0.006712779379374745,0.01050985256249169,0.28335069911703675
9840,10.0,299.48042000000004,-7575.0879,0.0,0.09840003829485888,0.0,0.0,0.0,0.0,0.49321385406141754,1.2124474702842487,0.5969762777069714,0.01035326185228739,0.003421316172307617,0.2832150654586507
9841,10.0,299.52218,-7473.522,0.0,0.09841003428227824,0.0,0.0,0.0,0.0,0.48679654601057853,1.2048513369345688,0.5801162114755125,0.008513090138351581,-0.005497972860207675,0.2810991560698267
9842,10.0,300.22339,-7413.6336,0.0,0.09842003026969759,0.0,0.0,0.0,0.0,0.4646937413767015,1.1991681184486789,0.5896976260111244,0.003986895355525937,0.013482202479089786,0.27693677532153177
9843,10.0,299.92476,-7483.9807,0.0,0.09843002625711672,0.0,0.0,0.0,0.0,0.4885664912852585,1.199210978927909,0.5871658078537534,0.020886492121086283,0.016158593187228985,0.28195550439184175
9844,10.0,299.81945,-7412.6072,0.0,0.09844002224453607,0.0,0.0,0.0,0.0,0.47910865273184255,1.201971274850329,0.5721675380185395,-0.005976530578462645,-0.0028232942407624474,0.28696098015084376
9845,10.0,300.02803,-7216.7613,0.0,0.09845001823195543,0.0,0.0,0.0,0.0,0.48344385341719354,1.173305314946219,0.5369660845719264,-0.001890471070099968,-0.010671362601931491,0.2973950243806037
9846,10.0,299.95676000000003,-7411.2411,0.0,0.09846001421937478,0.0,0.0,0.0,0.0,0.4751723179483565,1.2148612346724688,0.5627986830889055,-0.01757302345232238,-0.004691141361304605,0.3035898429744847
9847,10.0,300.24377000000004,-7503.387,0.0,0.09847001020679413,0.0,0.0,0.0,0.0,0.5001124356447545,1.2155478129402288,0.5651820297091235,-0.003135983626922487,0.01032001002375569,0.29796953718730373
9848,10.0,300.39377,-7331.3163,0.0,0.09848003918427084,0.0,0.0,0.0,0.0,0.45625212174607854,1.2015511813588686,0.5707338296570434,-0.018010520527499983,0.0009862016925555291,0.2951629357353137
9849,10.0,299.56007,-7392.5563,0.0,0.0984900351716902,0.0,0.0,0.0,0.0,0.46331538686816853,1.206357634533229,0.5774795421977935,-0.0031630924240729167,-0.014013218485496987,0.29179008959743974
9850,10.0,299.62682,-7414.4959,0.0,0.09850003115910955,0.0,0.0,0.0,0.0,0.46925747048960653,1.202671228019409,0.5818929252608604,0.011039821881545592,0.01098197138033619,0.28168184580483374
9851,10.0,299.81815,-7397.616,0.0,0.09851002714652868,0.0,0.0,0.0,0.0,0.4919341293176186,1.217424858750479,0.5393316081228855,0.015602441485591086,0.019947774671942083,0.3098183116041867
9852,10.0,299.87958,-7485.7288,0.0,0.09852002313394781,0.0,0.0,0.0,0.0,0.4891353197588975,1.1987222884046789,0.5876169979907825,0.010763086053983888,0.004914903764363235,0.3033346863343027
9853,10.0,299.56881,-7405.844,0.0,0.09853001912136738,0.0,0.0,0.0,0.0,0.49307152281987054,1.194076840671209,0.5640433291142424,0.0007423141768057053,-0.016126831849594382,0.29022020042250374
9854,10.0,299.32717,-7207.8122,0.0,0.09854001510878674,0.0,0.0,0.0,0.0,0.4439247893069656,1.1875771452547388,0.5594929850351585,0.0015079539585984684,0.004641092176590136,0.2928906615910577
9855,10.0,299.27762,-7264.5686,0.0,0.09855001109620609,0.0,0.0,0.0,0.0,0.4622635724693626,1.184982921023709,0.5610009950264875,0.0026353346246872776,0.0013513623364690786,0.2879043058614427
9856,10.0,300.07048,-7508.0284,0.0,0.09856000708362522,0.0,0.0,0.0,0.0,0.5040452240528905,1.202537782981239,0.5756701814942234,-0.010416636593041989,-0.007454373378539373,0.28343388695024674
9857,10.0,299.96391,-7571.4819,0.0,0.09857003606110215,0.0,0.0,0.0,0.0,0.5182343123582445,1.2075488113507888,0.5757582937229194,-0.012059520305181988,-0.02975173844626797,0.2872850175328237
9858,10.0,299.7963,-7452.2352,0.0,0.0985800320485215,0.0,0.0,0.0,0.0,0.4843037785120615,1.2104841968904887,0.5705054633495055,-0.0006384555450631564,-0.0016176472998493583,0.2925516787701027
9859,10.0,299.79674,-7538.0787,0.0,0.09859002803594064,0.0,0.0,0.0,0.0,0.5157974661327465,1.2050486167290386,0.5705416566430774,0.0081470395568752,0.02062516174804498,0.2870332046179717
9860,10.0,300.36282,-7432.3986,0.0,0.09860002402335999,0.0,0.0,0.0,0.0,0.4626866347836156,1.196544104664709,0.6000328175611285,0.002090270918893678,0.015906482376847587,0.2938362569818807
9861,10.0,300.33783,-7291.4919,0.0,0.09861002001077934,0.0,0.0,0.0,0.0,0.4625694625420516,1.1834744955998386,0.5703874703753605,0.0032106383744153373,-0.0015733414193517085,0.2825693920974277
9862,10.0,299.94421,-7424.7047,0.0,0.0986200159981987,0.0,0.0,0.0,0.0,0.4735010834984186,1.206083043756129,0.5773407168015925,0.010605013972133391,0.01112886832683379,0.2885241210801137
9863,10.0,300.04843999999997,-7355.5673,0.0,0.09863001198561805,0.0,0.0,0.0,0.0,0.47928008451626153,1.2064862159709187,0.5501424597998334,0.01026090511892249,0.0008710409956200532,0.2958215483003137
9864,10.0,300.02256,-7193.0109,0.0,0.09864000797303718,0.0,0.0,0.0,0.0,0.45340417969000857,1.1948112443436887,0.5382802598191254,-0.007146930905372164,-0.006003428923567305,0.3223283229038287
9865,10.0,299.9697,-7442.8258,0.0,0.09865003695051389,0.0,0.0,0.0,0.0,0.49699162533675456,1.200429310848149,0.5650122900523714,-0.016042967165317584,-0.019128561966092084,0.3093650341719517
9866,10.0,299.54559,-7623.8058,0.0,0.09866003293793346,0.0,0.0,0.0,0.0,0.47671171842778354,1.2310352393937187,0.6096995984176654,-0.005722490539890845,0.0026963284303568977,0.30531557001480075
9867,10.0,298.67162,-7421.8616,0.0,0.0986700289253526,0.0,0.0,0.0,0.0,0.47091810634349857,1.217468225854759,0.5676742804500895,0.0006323891255219473,0.008660702743394812,0.3036319840461437
9868,10.0,299.0745,-7307.8549,0.0,0.09868002491277195,0.0,0.0,0.0,0.0,0.45784993609377056,1.1914789687398188,0.5720765481595594,7.253618440201403e-05,0.0028625093501076773,0.28494581821946274
9869,10.0,299.73103,-7410.9739,0.0,0.0986900209001913,0.0,0.0,0.0,0.0,0.48612673703197357,1.2007596303807488,0.5658646360364914,-0.0068803338609610834,-0.014530895054337687,0.28676213995121974
9870,10.0,299.60075,-7412.0467,0.0,0.09870001688761043,0.0,0.0,0.0,0.0,0.48948391832330157,1.1894973555192487,0.5740958137538454,0.009732716688244351,0.003429539102169157,0.2741624864152307
9871,10.0,299.76236,-7408.9545,0.0,0.09871001287503,0.0,0.0,0.0,0.0,0.4933350083758745,1.1897860304727388,0.5690161275575194,0.015612073441041686,0.01254031558363279,0.28775627002183274
9872,10.0,300.7622,-7483.0285,0.0,0.09872000886244914,0.0,0.0,0.0,0.0,0.4730641193927936,1.206129450610709,0.5954602123773475,0.005860508679737175,0.005556256424509814,0.2804750750682347
9873,10.0,300.07261,-7408.2284,0.0,0.09873003783992584,0.0,0.0,0.0,0.0,0.49033163375446454,1.1806434748204389,0.5809413415619464,0.005053056261172825,-0.007845215454187482,0.2913567529271727
9874,10.0,299.61786,-7440.3869,0.0,0.0987400338273452,0.0,0.0,0.0,0.0,0.4857116084660036,1.2015014307789589,0.5744788526891484,0.01043256589786409,0.0019283461561879483,0.2931552617221717
9875,10.0,300.28045,-7572.507,0.0,0.09875002981476455,0.0,0.0,0.0,0.0,0.5198911079942575,1.204755686125129,0.5772062686458235,0.014151806781174586,-0.004289244727065496,0.2965346534556917
9876,10.0,299.27383,-7437.1388,0.0,0.0987600258021839,0.0,0.0,0.0,0.0,0.4835759407002296,1.203297315256199,0.5738311832252284,-0.0018534668724729385,-0.018704268552967585,0.28578338088462374
9877,10.0,298.99255,-7222.7688,0.0,0.09877002178960326,0.0,0.0,0.0,0.0,0.4508324901412025,1.1936817744572188,0.5510270980646405,-0.015535082645443286,-0.017499226421039182,0.2982920952241377
9878,10.0,299.93633,-7378.8201,0.0,0.09878001777702239,0.0,0.0,0.0,0.0,0.4581475681781446,1.196989529408669,0.5878399332777845,-0.002108901143182338,0.0020758101174415083,0.29403459055645476
9879,10.0,299.87556,-7535.8759,0.0,0.09879001376444196,0.0,0.0,0.0,0.0,0.4977268092118115,1.2219975551267688,0.5709937080426915,-0.0003778824244840917,0.025424250620678178,0.2987555558198777
9880,10.0,300.47303999999997,-7303.1162,0.0,0.0988000097518611,0.0,0.0,0.0,0.0,0.46428486456384854,1.1996115166924388,0.5560685644671944,0.0041208019291164855,0.009735487825942841,0.3096028034404177
9881,10.0,301.04961000000003,-7328.4391,0.0,0.0988100387293378,0.0,0.0,0.0,0.0,0.4856593652908475,1.2020547666585688,0.5399483227962505,-0.003706230245401447,-0.007007918564527714,0.3062440820089377
9882,10.0,300.31071000000003,-7477.6266,0.0,0.09882003471675715,0.0,0.0,0.0,0.0,0.48850596985678557,1.2173797691210289,0.5671260918809874,0.02067546353600938,-0.0048829121149809055,0.3078765292450477
9883,10.0,300.02744,-7372.746999999999,0.0,0.09883003070417673,0.0,0.0,0.0,0.0,0.4662004138778985,1.200063628887059,0.5748669477424505,0.024663757784623378,0.003227840524013057,0.3103972016513187
9884,10.0,300.26172,-7418.3064,0.0,0.09884002669159586,0.0,0.0,0.0,0.0,0.4564422986573476,1.2108807829796289,0.5876567781897085,0.016085801300044986,-0.00998893399863103,0.3126884033074427
9885,10.0,299.62192000000005,-7507.2264,0.0,0.09885002267901521,0.0,0.0,0.0,0.0,0.49527371045470947,1.203653270016329,0.5830823592882484,-0.0063481939575429636,-0.017843047511221684,0.28604782902822273
9886,10.0,300.10512,-7327.395,0.0,0.09886001866643435,0.0,0.0,0.0,0.0,0.4725012184322396,1.193434136132779,0.5614097299843265,-0.0016099121485859584,0.0037867013524433266,0.2929810333674767
9887,10.0,299.98208999999997,-7381.5825,0.0,0.0988700146538537,0.0,0.0,0.0,0.0,0.5030819677128245,1.1926796701083189,0.5480551037988275,-0.001064678419425579,0.016730096641131984,0.28640396617337077
9888,10.0,300.14612,-7588.7062,0.0,0.09888001064127305,0.0,0.0,0.0,0.0,0.5017232803887326,1.2175981245175789,0.5874558000323734,-0.005228027024216095,-0.009059605730213471,0.27811543850035675
9889,10.0,300.20993,-7514.668000000001,0.0,0.0988900066286924,0.0,0.0,0.0,0.0,0.48358918387903654,1.209915459609359,0.5907668277816465,-0.004878106067106586,-0.023577752274442976,0.26931360845918373
9890,10.0,300.0743,-7435.092,0.0,0.09890003560616911,0.0,0.0,0.0,0.0,0.47243803215600355,1.2101017963027487,0.5775424548965025,0.01878456153064188,0.002662222128015867,0.29382565838583474
9891,10.0,300.42056,-7567.0257,0.0,0.09891003159358847,0.0,0.0,0.0,0.0,0.5118127486569855,1.2115367610943688,0.5768373949469184,0.026472780062659972,0.01827362104846598,0.28341149412303673
9892,10.0,300.62054,-7502.9502,0.0,0.09892002758100782,0.0,0.0,0.0,0.0,0.5058611607496094,1.209864189154299,0.5649841520970944,0.0025270358195490176,0.0014401935674360387,0.2972465832409537
9893,10.0,300.38858999999997,-7454.8433,0.0,0.09893002356842717,0.0,0.0,0.0,0.0,0.5046591016259755,1.2068940491361688,0.5545330650006525,-0.004569960904995026,-0.016446655124408485,0.29362182286321775
9894,10.0,299.88425,-7501.0606,0.0,0.0989400195558463,0.0,0.0,0.0,0.0,0.4872376137791085,1.205430814666759,0.5874666722059464,0.0008821537350317952,-0.004131947781541496,0.3058096915585667
9895,10.0,300.43187,-7360.485,0.0,0.09895001554326566,0.0,0.0,0.0,0.0,0.45963420872486455,1.2089436514384488,0.5688258087912365,0.01060933751031009,0.015366361305041785,0.3038941219795147
9896,10.0,299.99515,-7202.4268,0.0,0.09896001153068501,0.0,0.0,0.0,0.0,0.43084353799844655,1.2024926933517888,0.5560216307225625,-0.004022417269581677,-0.005367063277762906,0.3180041565120667
9897,10.0,299.59584,-7424.714,0.0,0.09897000751810436,0.0,0.0,0.0,0.0,0.47453446687790557,1.2176934713519887,0.5646997429265255,-0.010663701417925388,-0.014981566407315485,0.3063383953282457
9898,10.0,299.78779,-7532.5571,0.0,0.09898003649558107,0.0,0.0,0.0,0.0,0.4778243683625935,1.2366197673198687,0.5752651448992495,-0.0026545401723827174,-0.0026755397807052173,0.30163896162944775
9899,10.0,299.89114,-7324.7372,0.0,0.09899003248300042,0.0,0.0,0.0,0.0,0.48095047796861656,1.1933055546950886,0.5522811774484084,0.002461278623834288,0.031305721621134174,0.2957247018557557
9900,10.0,299.90098,-7388.5332,0.0,0.09900002847041978,0.0,0.0,0.0,0.0,0.4635563782719526,1.2249825899213687,0.5573905721376665,-0.013670963879969087,0.005680671377788615,0.30839194930591574
9901,10.0,300.23681,-7560.9855,0.0,0.09901002445783913,0.0,0.0,0.0,0.0,0.4913822119881486,1.206669208938979,0.6002993732649354,-0.006124516363517704,-0.008661454270993981,0.28290036011009173
9902,10.0,299.91241,-7516.3495,0.0,0.09902002044525826,0.0,0.0,0.0,0.0,0.49379719227648855,1.1956662247780687,0.5953191578309265,0.000868838372287671,-0.0014419569265850685,0.2950673963833847
9903,10.0,300.35298,-7407.7261,0.0,0.09903001643267761,0.0,0.0,0.0,0.0,0.5024114393266484,1.1976884693276488,0.5516638446924825,0.01815132581439638,0.016510148415424787,0.2944594260583827
9904,10.0,300.80723,-7436.1365,0.0,0.09904001242009697,0.0,0.0,0.0,0.0,0.4965253073757325,1.186551330853499,0.5773232078398645,0.006999805167001984,-0.015210412995400883,0.2940678352922357
9905,10.0,300.004,-7437.1828,0.0,0.09905000840751632,0.0,0.0,0.0,0.0,0.5059287242662776,1.1902972151481888,0.5644918848010114,-0.005288230190832685,-0.03178875922205627,0.28523562801306473
9906,10.0,299.96524,-7497.7855,0.0,0.09906003738499325,0.0,0.0,0.0,0.0,0.46919309871075354,1.220954008848779,0.5889925153990354,0.004793899613571056,-0.016815125549773685,0.29122369292404077
9907,10.0,299.93476,-7665.2735,0.0,0.09907003337241238,0.0,0.0,0.0,0.0,0.5070518613396225,1.2181839857253989,0.6048158747906794,0.010836043100934188,0.008267129046802112,0.2847999710000687
9908,10.0,299.62737000000004,-7552.7395,0.0,0.09908002935983151,0.0,0.0,0.0,0.0,0.4851710598026555,1.210092778376859,0.6005803576501665,0.006439435710497823,-0.0019339686809928482,0.2802700844405037
9909,10.0,300.41422,-7278.1249,0.0,0.09909002534725109,0.0,0.0,0.0,0.0,0.4682245126751616,1.192180036484009,0.5519636856620745,-0.013110547408660288,-0.015400403468651486,0.28602820237378573
9910,10.0,300.04908,-7366.0803,0.0,0.09910002133467022,0.0,0.0,0.0,0.0,0.47280132284685755,1.1911459134319489,0.5751572033660964,-0.010676934464231388,0.005056890804851266,0.28482684239272077
9911,10.0,299.43334,-7476.8437,0.0,0.09911001732208957,0.0,0.0,0.0,0.0,0.5026899209841326,1.2042267695729287,0.5658570974557475,-0.0015467516089024986,0.02957966020828517,0.2967315583476247
9912,10.0,299.10651,-7368.0689,0.0,0.09912001330950893,0.0,0.0,0.0,0.0,0.44835750518194056,1.2164134325006588,0.5749380475019674,0.005197670659170155,0.010074930155818191,0.32568508876261565
9913,10.0,299.21177,-7291.1542,0.0,0.09913000929692828,0.0,0.0,0.0,0.0,0.45368636984285854,1.2052188427458388,0.5574236142234275,-0.007050447609650004,-0.004179015883136756,0.3218717929387727
9914,10.0,299.39987,-7380.9044,0.0,0.0991400382744052,0.0,0.0,0.0,0.0,0.46035778075377554,1.2196427618943688,0.5636100431064806,0.01173481215163579,-0.013885865106928187,0.3125788000441257
9915,10.0,300.05492000000004,-7438.9834,0.0,0.09915003426182434,0.0,0.0,0.0,0.0,0.48384186818897457,1.2125107984154988,0.5649125457125275,0.009192302280534602,-0.0018592843465970782,0.3097628462937127
9916,10.0,299.41988,-7495.9116,0.0,0.09916003024924347,0.0,0.0,0.0,0.0,0.4917845330728545,1.2225760196088589,0.5642094413356364,-0.0001104832406313469,-0.013973093781536985,0.3001546211604547
9917,10.0,299.68037999999996,-7402.1347,0.0,0.09917002623666304,0.0,0.0,0.0,0.0,0.4697315094163906,1.2014985936786788,0.5788339637389645,-0.021012424923014878,-0.019494122337170083,0.28202275380097874
9918,10.0,299.92502,-7275.4531,0.0,0.09918002222408218,0.0,0.0,0.0,0.0,0.4376908693917256,1.1933557105750388,0.5805094842368255,-0.009301117843223862,-0.0018596619849093484,0.3004298604176187
9919,10.0,300.37004,-7392.9543,0.0,0.09919001821150175,0.0,0.0,0.0,0.0,0.47747160534027855,1.1958587422970688,0.5739431270962765,-0.004969083564435366,0.030368335582621368,0.28252962203100274
9920,10.0,300.31681000000003,-7599.1425,0.0,0.09920001419892088,0.0,0.0,0.0,0.0,0.5123190292019515,1.1996346187947189,0.5979958808850985,0.006096753209452694,0.011138764740560489,0.28346859076617176
9921,10.0,300.09354,-7523.2241,0.0,0.09921001018634001,0.0,0.0,0.0,0.0,0.5204997267993234,1.1935670745458988,0.5728054397514954,-0.005612632950798745,-0.0037961122167221063,0.2660861333131568
9922,10.0,300.27885,-7373.7898,0.0,0.09922003916381716,0.0,0.0,0.0,0.0,0.48920176870045556,1.1905778854258888,0.5616682911448444,0.013692991937143089,-0.004840785532798336,0.2831784364675357
9923,10.0,300.4452,-7484.754,0.0,0.0992300351512363,0.0,0.0,0.0,0.0,0.4861645717907076,1.202562404958669,0.5864513145457385,0.01037062085300059,0.010968694764275888,0.2934641611476577
9924,10.0,300.09766,-7576.8643,0.0,0.09924003113865543,0.0,0.0,0.0,0.0,0.49106154872900154,1.2035390767300589,0.6085769578368694,0.005235263048480235,-0.00024489548681680276,0.3086574208321157
9925,10.0,299.6621,-7502.6736,0.0,0.09925002712607478,0.0,0.0,0.0,0.0,0.49064153629754953,1.2131862309321588,0.5767976856754995,-0.012989130662427387,-0.016123119301227985,0.29762266114806973
9926,10.0,299.54041,-7388.3985,0.0,0.09926002311349436,0.0,0.0,0.0,0.0,0.4824637568604655,1.2005528260353389,0.5628720930586505,-0.005620895397414184,-0.0017892023968055283,0.30289075106798974
9927,10.0,299.99309,-7333.5773,0.0,0.09927001910091371,0.0,0.0,0.0,0.0,0.48832805327172657,1.187017729874529,0.5538786270260645,-0.0015324620467172287,0.01075111551730249,0.2936870356396537
9928,10.0,299.8206,-7294.6572,0.0,0.09928001508833284,0.0,0.0,0.0,0.0,0.4651265410244156,1.2059315628661789,0.5463355069216165,-0.01179487052481309,-0.004646889183062256,0.3032108570395817
9929,10.0,299.51005,-7401.7589,0.0,0.09929001107575197,0.0,0.0,0.0,0.0,0.44976668275851556,1.2105043605674788,0.5896788302217694,-0.0034771190977149367,-0.018799310399097484,0.29712972510692076
9930,10.0,299.64241,-7517.1144,0.0,0.09930000706317132,0.0,0.0,0.0,0.0,0.46068200052077357,1.229861693127899,0.5944714221347615,-0.001093122072257749,-0.005414713998165665,0.3037982279900507
9931,10.0,300.07173,-7417.2477,0.0,0.09931003604064825,0.0,0.0,0.0,0.0,0.46141533014814756,1.2191725125229589,0.5740702089238184,0.027278961358973876,0.02005820170759038,0.3131617633566597
9932,10.0,300.02684,-7341.1576,0.0,0.09932003202806738,0.0,0.0,0.0,0.0,0.4812243797356486,1.1826216429906689,0.5676825587034064,0.004843503576191586,0.007278313371638603,0.31013319933776373
9933,10.0,300.1807,-7474.1533,0.0,0.09933002801548674,0.0,0.0,0.0,0.0,0.5118838686815045,1.1966284070730289,0.5634437485000685,-0.0026801897880641373,-0.006564088676225113,0.28866286541630676
9934,10.0,299.65922,-7488.9953,0.0,0.09934002400290609,0.0,0.0,0.0,0.0,0.49760243276203653,1.200278336583249,0.5785867611120674,-0.01067821014610729,-0.0014921961970182985,0.2873350822202647
9935,10.0,300.15064,-7354.1736,0.0,0.09935001999032567,0.0,0.0,0.0,0.0,0.46620256196811055,1.1948831851007888,0.5743994341463105,0.011467029401957688,0.010660288791588592,0.2925252734724967
9936,10.0,300.1851,-7334.5911,0.0,0.0993600159777448,0.0,0.0,0.0,0.0,0.46891202313301356,1.1910800521754488,0.5695404743517685,-0.007212179246886673,-0.0055578919114962246,0.2846263911254377
9937,10.0,300.10305,-7387.5228,0.0,0.09937001196516393,0.0,0.0,0.0,0.0,0.4924374005097875,1.1799576058277488,0.5732274280206424,-0.007296858077618823,-0.018508471143393882,0.27714184700927075
9938,10.0,299.99577,-7459.3222,0.0,0.09938000795258328,0.0,0.0,0.0,0.0,0.5038721913333135,1.1913713615791988,0.5722040960821474,0.00021600071477511084,-0.001032128671888169,0.27927544774484075
9939,10.0,300.40477999999996,-7551.852,0.0,0.09939003693006021,0.0,0.0,0.0,0.0,0.5216234008952215,1.1957763650639388,0.5781746824288985,0.00994775693311717,0.015509880075705987,0.27392389641418374
9940,10.0,299.51059,-7509.2561,0.0,0.09940003291747934,0.0,0.0,0.0,0.0,0.48004296051655154,1.2019561774238388,0.6006272508647945,-0.0045758323853494955,0.01041800549392709,0.28071308751672475
9941,10.0,299.89821,-7353.0575,0.0,0.0994100289048987,0.0,0.0,0.0,0.0,0.46465048572993256,1.1998990770708189,0.5705963012209705,-0.02029429100739058,-0.010923329530798689,0.29194514726024273
9942,10.0,299.64646,-7438.8455,0.0,0.09942002489231805,0.0,0.0,0.0,0.0,0.46900581969477056,1.2108332615499386,0.5813841926506524,-0.004200588180415776,0.0025076449484102876,0.3035210230276927
9943,10.0,299.54603,-7483.8841,0.0,0.09943002087973762,0.0,0.0,0.0,0.0,0.49403087814705154,1.206919684363699,0.5739633718332745,0.011644452534217989,0.014702463627520184,0.3038234984475447
9944,10.0,299.16402,-7288.9018,0.0,0.09944001686715676,0.0,0.0,0.0,0.0,0.4700247541278315,1.2082157325666087,0.5374036464951104,0.007971215941222761,0.013147609057567988,0.3118890807010557
9945,10.0,299.1597,-7154.1425,0.0,0.09945001285457589,0.0,0.0,0.0,0.0,0.47810407605269856,1.167610140109149,0.5289664446349235,-0.015811835698256685,-0.016208843299438284,0.3000574099458607
9946,10.0,299.35213,-7345.2685,0.0,0.09946000884199524,0.0,0.0,0.0,0.0,0.45289553827230955,1.2117905802444187,0.5680920434663195,-0.010870239278559091,-0.003078120054786797,0.3036055179535317
9947,10.0,300.11131,-7465.311,0.0,0.09947003781947217,0.0,0.0,0.0,0.0,0.4688947573513095,1.2257924807262988,0.5745808971067194,-0.0001807651148001278,0.006402754942302714,0.3153241201300677
9948,10.0,300.48904,-7461.1881,0.0,0.0994800338068913,0.0,0.0,0.0,0.0,0.4547443853322766,1.2188359108397386,0.5944345499636224,0.0004239279236809285,0.01113952265163529,0.30043610203823473
9949,10.0,300.09797000000003,-7438.1312,0.0,0.09949002979431087,0.0,0.0,0.0,0.0,0.48069473364337656,1.2223830967898188,0.5579283039657364,-0.017934547035001983,-0.013671678221289589,0.3030073862870007
9950,10.0,300.16564,-7319.2504,0.0,0.09950002578173,0.0,0.0,0.0,0.0,0.4789931219554405,1.1847030613460887,0.5611731360859765,0.0006773185499986364,0.0012941228250699787,0.28815598705378176
9951,10.0,300.35429,-7352.4304,0.0,0.09951002176914936,0.0,0.0,0.0,0.0,0.4963218163581495,1.1951095451731288,0.5435238797491304,-0.0016564256984014885,0.01059562114370639,0.2951166504707457
9952,10.0,300.62965,-7585.1996,0.0,0.09952001775656871,0.0,0.0,0.0,0.0,0.4834555868533516,1.2214546557231887,0.6008010333894455,0.005486937452043564,0.006319254318786843,0.2818221708111827
9953,10.0,300.22226,-7581.266,0.0,0.09953001374398784,0.0,0.0,0.0,0.0,0.4975537156972285,1.2068592946577388,0.6001025291680084,-0.005438324346695824,-0.017677187589102583,0.2826122728416597
9954,10.0,300.58353,-7429.2861,0.0,0.0995400097314072,0.0,0.0,0.0,0.0,0.4755755712231545,1.2027465125018388,0.5799953814010874,0.008850233606400052,-0.002212762014207608,0.2796432170011367
9955,10.0,300.13254,-7486.3869,0.0,0.09955003870888413,0.0,0.0,0.0,0.0,0.5016715742361295,1.2046415941638686,0.5693615546491105,0.02303125785950818,-0.006664743826584004,0.27675970986655674
9956,10.0,299.52823,-7610.6789,0.0,0.09956003469630348,0.0,0.0,0.0,0.0,0.5216458342524355,1.208877080906879,0.5829334520535525,0.007031247736155123,-0.008408920935320882,0.2880995287582097
9957,10.0,300.0147,-7572.8325,0.0,0.09957003068372283,0.0,0.0,0.0,0.0,0.5071444116037565,1.2060816252059887,0.5887259090327234,-0.01094887255256959,-0.039400058899233065,0.28457920406828074
9958,10.0,299.68841000000003,-7500.9205,0.0,0.09958002667114196,0.0,0.0,0.0,0.0,0.47013869410157655,1.215181928329119,0.5947718811869144,-0.021959251412709376,-0.010033184555673222,0.30635303679219067
9959,10.0,299.68669,-7373.5654,0.0,0.09959002265856132,0.0,0.0,0.0,0.0,0.4565625613117166,1.2088091931501788,0.5760080294750665,0.00010506867527697089,0.02063716572197968,0.3001202314520607
9960,10.0,300.3644,-7200.9949,0.0,0.09960001864598067,0.0,0.0,0.0,0.0,0.4389252917235536,1.2051404171880988,0.5448569419781936,-0.01066060999187029,0.032580583777703266,0.3140192363862857
9961,10.0,300.04777,-7349.1197,0.0,0.0996100146333998,0.0,0.0,0.0,0.0,0.4775867004191376,1.197729100656659,0.5586331106027954,0.0024824397442227276,0.0005387575411462296,0.2947949435639957
9962,10.0,300.31786,-7388.9088,0.0,0.09962001062081938,0.0,0.0,0.0,0.0,0.4831172727774625,1.209238811192579,0.5536876395147154,-0.0033255134766776266,0.0053860295971097346,0.2998943172097647
9963,10.0,300.08936,-7247.1666,0.0,0.09963000660823851,0.0,0.0,0.0,0.0,0.4655373632774606,1.191835430124999,0.5455849216450395,0.022139310008479778,0.009152686126799791,0.2902323188936997
9964,10.0,300.17834,-7362.3134,0.0,0.09964003558571544,0.0,0.0,0.0,0.0,0.44908427908116755,1.2167129492302187,0.5721621880580114,-0.0016977128028762083,0.008130330758751173,0.3119398343985647
9965,10.0,300.19235,-7521.3323,0.0,0.09965003157313479,0.0,0.0,0.0,0.0,0.47759858584281056,1.2191647104971888,0.5895338847949645,-0.008453927275612663,-0.02170082501445468,0.29866832511876873
9966,10.0,299.89013,-7461.6978,0.0,0.09966002756055392,0.0,0.0,0.0,0.0,0.4784218414165595,1.201778554681309,0.5879693759780594,-0.011279554828705388,-0.006843732835548843,0.3097961619570007
9967,10.0,299.68576,-7429.2665,0.0,0.09967002354797327,0.0,0.0,0.0,0.0,0.49205495939204347,1.2007770582824688,0.5654794388784755,0.007890265566883582,0.006285167876147774,0.2868813589579857
9968,10.0,300.30863999999997,-7377.2179,0.0,0.0996800195353924,0.0,0.0,0.0,0.0,0.4901007140566745,1.1920308860692888,0.5603583918130675,0.0005605595016929155,-0.0033834994494253974,0.28749861065390375
9969,10.0,299.56442000000004,-7368.3782,0.0,0.09969001552281198,0.0,0.0,0.0,0.0,0.4778310152832495,1.188402234811169,0.5735697646994284,-0.006610747830080014,-0.024458263571592677,0.27155983194336875
9970,10.0,300.41792000000004,-7321.2123,0.0,0.09970001151023133,0.0,0.0,0.0,0.0,0.45542872431731557,1.194697659007479,0.5753393452040725,0.0063493178545538835,-0.0006852539802768024,0.2897133524574817
9971,10.0,299.98938,-7542.746,0.0,0.09971000749765047,0.0,0.0,0.0,0.0,0.4959152902855285,1.207029925974579,0.5898612152397694,0.018205823471024882,0.016619002886917884,0.27831149226220575
9972,10.0,299.49024,-7580.9329,0.0,0.09972003647512717,0.0,0.0,0.0,0.0,0.4918841558226865,1.2167266281065687,0.5958035319087304,0.008352352398138002,0.013806679611613186,0.29533516798731174
9973,10.0,299.50432,-7393.7203,0.0,0.09973003246254675,0.0,0.0,0.0,0.0,0.49527624357995953,1.196342467894809,0.5558875878668335,0.003006118198705767,-0.014216914179600188,0.2921051394510327
9974,10.0,299.61598,-7536.5775,0.0,0.09974002844996588,0.0,0.0,0.0,0.0,0.49406476123039555,1.213438226232029,0.5834284044624004,-0.0036505003753263365,-0.010199769660888891,0.2874927642008267
9975,10.0,299.57749,-7602.0088,0.0,0.09975002443738523,0.0,0.0,0.0,0.0,0.4957644376106405,1.2120747968974688,0.6029815780021485,0.012344059171763788,0.00014919064074896986,0.2928166335387517
9976,10.0,300.08605,-7354.3248,0.0,0.09976002042480436,0.0,0.0,0.0,0.0,0.44181499994874557,1.2132204787855387,0.5804955824454534,-0.0063592809401371644,0.0030124218302278872,0.30078095157726875
9977,10.0,299.93993,-7303.566999999999,0.0,0.09977001641222394,0.0,0.0,0.0,0.0,0.4595882375678276,1.1967401685590588,0.5637736222026244,-0.008805700656554992,-0.013571362408389187,0.3038894002340487
9978,10.0,300.16139,-7373.3562,0.0,0.09978001239964329,0.0,0.0,0.0,0.0,0.45826184252442254,1.2097028797383789,0.5733514498328824,-0.012625908872580187,0.013274990807139586,0.3060454241943317
9979,10.0,300.19669,-7357.6615,0.0,0.09979000838706242,0.0,0.0,0.0,0.0,0.5017439810882754,1.1980958971928588,0.5367055273087115,0.006383550205207354,0.006718240797413744,0.3017978493776287
9980,10.0,300.13847999999996,-7520.4902,0.0,0.09980003736453913,0.0,0.0,0.0,0.0,0.49161100386072853,1.2119686082869887,0.5824616118794854,0.012947073690526688,0.0014242709500645989,0.2992636196850197
9981,10.0,300.52976,-7560.1903,0.0,0.0998100333519587,0.0,0.0,0.0,0.0,0.4918972672789806,1.2219793166249688,0.5842324285492514,-0.0025582348033781174,-0.02912818838772837,0.2992962564707407
9982,10.0,299.89583999999996,-7457.9377,0.0,0.09982002933937784,0.0,0.0,0.0,0.0,0.4678377855094945,1.2113610635270289,0.5878280275891095,0.005715464359722415,0.004386485325912396,0.28969759641842674
9983,10.0,299.38129,-7396.6605,0.0,0.09983002532679719,0.0,0.0,0.0,0.0,0.48237882623708356,1.1899405511129888,0.5760807504347435,0.0024393597950210675,-0.0031134417506227773,0.2938957246302497
9984,10.0,299.6844,-7499.0205,0.0,0.09984002131421632,0.0,0.0,0.0,0.0,0.5045101437287745,1.2051287648119489,0.5698760830498905,0.0056163109473367345,0.01175033716966799,0.2929518517645967
9985,10.0,299.74331,-7469.5689,0.0,0.09985001730163567,0.0,0.0,0.0,0.0,0.5231757203134235,1.1831073950886088,0.5642793555925365,-0.0028954259955062973,-0.00020739909282119678,0.27942566207216574
9986,10.0,299.99406,-7304.5143,0.0,0.09986001328905525,0.0,0.0,0.0,0.0,0.46324663784888354,1.200103145640959,0.5570402003855874,0.006324911496745164,0.004783343776679275,0.28546085324529274
9987,10.0,299.98201,-7370.3992,0.0,0.09987000927647438,0.0,0.0,0.0,0.0,0.47143929179743554,1.1957270197840688,0.5732510367479725,0.005733602347112494,-0.00015999557504533385,0.2859858282546037
9988,10.0,300.42399,-7496.7043,0.0,0.09988003825395109,0.0,0.0,0.0,0.0,0.4763995968669796,1.198776193309999,0.6036351445816505,-0.006157665144514234,-0.01198409498098809,0.28032797141871674
9989,10.0,300.2467,-7470.1988,0.0,0.09989003424137044,0.0,0.0,0.0,0.0,0.4812106096667895,1.2088463794288489,0.5806969051078225,-0.004798213019246755,-0.024358123050959576,0.29815091908770475
9990,10.0,300.70131000000003,-7399.7885,0.0,0.0999000302287898,0.0,0.0,0.0,0.0,0.48766452644374153,1.196220067282729,0.5654663375546825,-0.010922911058507389,-0.0013834289663588086,0.30164017752956773
9991,10.0,300.0804,-7391.74,0.0,0.09991002621620915,0.0,0.0,0.0,0.0,0.5143156689215045,1.192687573459099,0.5399012066666005,0.005136900883097645,0.011922394129398687,0.29899916140891974
9992,10.0,299.95587,-7367.0168,0.0,0.0999200222036285,0.0,0.0,0.0,0.0,0.4680116288291516,1.207010471572659,0.5643670321236895,-0.005932231486740665,0.0041626927280007855,0.2926133755686917
9993,10.0,299.98951,-7425.0114,0.0,0.09993001819104763,0.0,0.0,0.0,0.0,0.4739394560216826,1.207687018664429,0.5753915377167235,-0.016104876746427587,-0.0044359780336719465,0.2930304090448497
9994,10.0,300.05247,-7540.4582,0.0,0.09994001417846698,0.0,0.0,0.0,0.0,0.4679027449734056,1.2308843664538287,0.5933238859990084,-0.0012288500642280587,0.01050933783144089,0.2869704337742767
9995,10.0,299.80582999999996,-7405.6494,0.0,0.09995001016588634,0.0,0.0,0.0,0.0,0.4674050770542896,1.2104340410105388,0.5732934007346535,0.0037203856532734766,0.006489811263069504,0.3000233444774987
9996,10.0,299.84294,-7332.9101,0.0,0.09996003914336304,0.0,0.0,0.0,0.0,0.4847669148677695,1.2040493494804188,0.5402052526241075,0.012019124050195187,-0.0014892371014262587,0.2990489018563287
9997,10.0,300.00299,-7503.5468,0.0,0.0999700351307824,0.0,0.0,0.0,0.0,0.5132205279484225,1.2054071046144188,0.5622631905435564,-0.009556414109269641,-0.01998171753704198,0.3002428651116637
9998,10.0,299.89068,-7479.1844,0.0,0.09998003111820175,0.0,0.0,0.0,0.0,0.48470992968214555,1.2093752959810489,0.5794000868348365,0.00981160064032959,-0.006840600676839723,0.3003287177926367
9999,10.0,299.6875,-7302.9278,0.0,0.0999900271056211,0.0,0.0,0.0,0.0,0.45313049070549755,1.1972870196380287,0.5694901968818065,-0.002279802085873948,0.016597650667560585,0.3004654660261327
10000,10.0,299.87034,-7361.4032,0.0,0.10000002309304046,0.0,0.0,0.0,0.0,0.46017184936042554,1.1867624921743387,0.5907483764973255,-0.006528549232942643,0.0029160704596687473,0.2969074990949887
10001,10.0,300.30186000000003,-7468.1604,0.0,0.10001001908045959,0.0,0.0,0.0,0.0,0.48513592028918756,1.2031476582164289,0.5818506929966925,-0.015785997820706686,-0.004131743105021296,0.29660580387771374
10002,10.0,300.23839,-7546.7312,0.0,0.10002001506787894,0.0,0.0,0.0,0.0,0.5218426884818634,1.199497728706209,0.5726774257338615,-0.004402707257363376,-0.005733953843572184,0.29157457130116976
10003,10.0,300.12743,-7679.0415,0.0,0.1000300110552983,0.0,0.0,0.0,0.0,0.5334276733677126,1.227015878897039,0.5737933383339935,0.018348781914383782,0.009117320759884502,0.2914730132436467
10004,10.0,300.53835,-7515.3525,0.0,0.10004000704271765,0.0,0.0,0.0,0.0,0.4994866929129985,1.204292934804459,0.5806998739306154,-0.001040820939196029,-0.016426149982134784,0.27771093892793575
10005,10.0,300.05194,-7352.4413,0.0,0.10005003602019436,0.0,0.0,0.0,0.0,0.45670943191371155,1.2127647188905588,0.5654843734064625,-0.0007202002365532293,-0.016944610806552882,0.2805157266622468
10006,10.0,300.15882,-7313.2367,0.0,0.10006003200761349,0.0,0.0,0.0,0.0,0.4444537767866726,1.1980352035118689,0.5805523953785604,-0.016915618681441584,-0.014463940500979787,0.2948270737246667
10007,10.0,299.82916,-7446.1231,0.0,0.10007002799503306,0.0,0.0,0.0,0.0,0.4914696960017825,1.2076246024582689,0.5643412347761435,0.0036052317045836666,0.020056294770902178,0.3014944822976887
10008,10.0,299.63488,-7427.4151,0.0,0.10008002398245242,0.0,0.0,0.0,0.0,0.49926570306618856,1.2027518827273687,0.5557311015213895,-0.0024812938596846376,0.0005691842865441154,0.30752165866252473
10009,10.0,300.05451,-7340.0232,0.0,0.10009001996987155,0.0,0.0,0.0,0.0,0.48782526843960555,1.1930552819203888,0.5503032524582026,-0.013284248873303288,-0.002232948691974878,0.3180843653899827
10010,10.0,299.84936,-7517.2258,0.0,0.1001000159572909,0.0,0.0,0.0,0.0,0.4781348484582355,1.221700064897409,0.5852140652461314,-0.008372639590315192,-0.0023421192974991778,0.30386386633152873
10011,10.0,299.0737,-7554.6841,0.0,0.10011001194471025,0.0,0.0,0.0,0.0,0.4659460475727945,1.2248673833849988,0.6056218747152254,-0.005072861652927465,0.01838594995455198,0.3096585828584227
10012,10.0,299.58206,-7447.1914,0.0,0.1001200079321296,0.0,0.0,0.0,0.0,0.45707516453730657,1.218774811858709,0.5879102325697225,0.0005054310158171575,0.010103620636374721,0.2957242256282087
10013,10.0,299.83659,-7426.3569,0.0,0.10013003690960631,0.0,0.0,0.0,0.0,0.4936917737360846,1.2086248829569888,0.5551103642451275,-0.008618981157277212,0.004461010681367476,0.29459026704379576
10014,10.0,300.62579,-7427.8888,0.0,0.10014003289702567,0.0,0.0,0.0,0.0,0.4957215264689055,1.2012175181009388,0.5609537269093225,0.005518339592517714,-0.007812072144741492,0.27526730392676774
10015,10.0,300.21379,-7405.1,0.0,0.10015002888444502,0.0,0.0,0.0,0.0,0.4872954602273175,1.213879496650579,0.5497904972450974,0.0001104387386869549,0.0012613714407626688,0.3134808054156467
10016,10.0,300.30273,-7528.2249,0.0,0.10016002487186437,0.0,0.0,0.0,0.0,0.4809388661224705,1.2089533786394089,0.5985001957248705,0.0027763211820265674,-0.018484270678005482,0.2770762593302977
10017,10.0,300.54562999999996,-7523.9016,0.0,0.1001700208592835,0.0,0.0,0.0,0.0,0.4858592288730726,1.2056165434100887,0.5956025030888905,-0.0008475699081836371,-0.00985419392550822,0.31372004389675767
10018,10.0,300.37068999999997,-7468.9768,0.0,0.10018001684670286,0.0,0.0,0.0,0.0,0.47281241793545253,1.209537618647069,0.5880324203992815,0.006875568951040824,0.0014121325178416287,0.2848935345143027
10019,10.0,299.6529,-7413.6801,0.0,0.10019001283412199,0.0,0.0,0.0,0.0,0.5024706739274946,1.1891221490072188,0.5619808078731875,0.00798977939232983,0.03167438152426807,0.3135192582569417
10020,10.0,299.93082000000004,-7549.2062,0.0,0.10020000882154156,0.0,0.0,0.0,0.0,0.5111450877685925,1.198065195714829,0.5855598672402594,0.01063136455423399,-0.0027081629888748775,0.27849813293062575
10021,10.0,299.76497,-7495.5867,0.0,0.10021003779901827,0.0,0.0,0.0,0.0,0.5073054271771474,1.199369248593529,0.5717964655669174,-0.007814570211538033,0.002197934517544248,0.3069532253564247
10022,10.0,299.58545,-7385.6504,0.0,0.10022003378643762,0.0,0.0,0.0,0.0,0.47069071275605656,1.195879513924119,0.5784830245668295,-0.0036629920265341667,-0.008892637312484972,0.28149649196404075
10023,10.0,300.11355,-7437.1802,0.0,0.10023002977385698,0.0,0.0,0.0,0.0,0.4565101458840436,1.2205554975844488,0.5836514816044165,-0.004732646517200845,0.007427038119991593,0.2969115014328837
10024,10.0,299.96382,-7491.4776,0.0,0.10024002576127633,0.0,0.0,0.0,0.0,0.46886026631790556,1.2141391926512088,0.5942227097652154,-0.0043443281435768056,-0.012609581360468788,0.28919599708892274
10025,10.0,300.23697999999996,-7469.9548,0.0,0.10025002174869546,0.0,0.0,0.0,0.0,0.4979334007747005,1.2092869405723288,0.5634594133466145,-0.004976469043089255,0.007274687658805774,0.29019805077531774
10026,10.0,300.23021,-7550.2585,0.0,0.10026001773611481,0.0,0.0,0.0,0.0,0.5117826348640135,1.219897188994479,0.5634101896567565,0.010722440539472489,0.0025524802520851876,0.2957799645162097
10027,10.0,299.8142,-7433.4568,0.0,0.10027001372353417,0.0,0.0,0.0,0.0,0.4820784685099405,1.2123708685766887,0.5651359268295735,0.0034154908961577073,0.009360946512603491,0.3086603389924037
10028,10.0,299.60129,-7348.7242,0.0,0.10028000971095352,0.0,0.0,0.0,0.0,0.4579753967211526,1.2035817345592688,0.5722714974787995,0.005461716339829434,-0.006312981692717784,0.3113277198806537
10029,10.0,299.87515,-7516.2947,0.0,0.10029003868843023,0.0,0.0,0.0,0.0,0.46449115215170755,1.2138258957202888,0.6064489198443485,-0.003472434842502637,-0.0070676322300209935,0.29390716422387875
10030,10.0,300.13687000000004,-7569.969,0.0,0.10030003467584958,0.0,0.0,0.0,0.0,0.4949651859317605,1.2161452251991889,0.5899711022131144,0.006778613176797034,-0.00042647122196193255,0.28890194177740175
10031,10.0,300.27451,-7412.8253,0.0,0.10031003066326893,0.0,0.0,0.0,0.0,0.4886978996907275,1.203237938800339,0.5613779645936915,0.0036609623852588563,0.008191603917473362,0.2886527633128097
10032,10.0,300.16182000000003,-7449.1824,0.0,0.10032002665068807,0.0,0.0,0.0,0.0,0.5028125242462326,1.1972444631338288,0.5643084358704065,-0.01028698414999629,-0.018411180895292083,0.2846985345325577
10033,10.0,299.99077,-7611.1436,0.0,0.10033002263810742,0.0,0.0,0.0,0.0,0.5041141959871975,1.215488233834349,0.5939951641902584,-0.01115848056100629,-0.014723969860892685,0.2843657021397097
10034,10.0,299.90979,-7528.9627,0.0,0.10034001862552677,0.0,0.0,0.0,0.0,0.49367328192175947,1.2077936125749489,0.5871497478396684,-0.0017168494495648486,-0.0027321110536633673,0.2868181828142507
10035,10.0,299.19939,-7507.3032,0.0,0.10035001461294613,0.0,0.0,0.0,0.0,0.4628859613432876,1.2161697458516088,0.6029770082441974,0.014753456452052786,0.02132461335832548,0.3006991214991927
10036,10.0,299.05231000000003,-7479.9179,0.0,0.10036001060036548,0.0,0.0,0.0,0.0,0.49752595264448857,1.207545467625459,0.5686368275150855,0.004867794220838885,0.009426300434778422,0.2886651756265347
10037,10.0,299.81346,-7365.7901,0.0,0.10037003957784241,0.0,0.0,0.0,0.0,0.4846145321852306,1.1956385630503388,0.5587631916506335,0.008471856026857091,0.0025984392501209874,0.2960993713452327
10038,10.0,299.44467000000003,-7408.2976,0.0,0.10038003556526154,0.0,0.0,0.0,0.0,0.49761461202823853,1.2100377588964288,0.5442851142842585,0.0015072945354333886,-0.009277937416711131,0.2981400165166287
10039,10.0,299.88748,-7554.1581,0.0,0.10039003155268089,0.0,0.0,0.0,0.0,0.49130103039013656,1.2195804470132188,0.5853939272713824,0.0039210052213980865,-0.007081230147688003,0.3009396164104277
10040,10.0,299.88746000000003,-7389.5099,0.0,0.10040002754010002,0.0,0.0,0.0,0.0,0.45964046047798157,1.2105288812198989,0.5760571518399145,-0.005757528829673854,-0.018149947794260383,0.3050925638002917
10041,10.0,300.06951000000004,-7370.1173,0.0,0.10041002352751938,0.0,0.0,0.0,0.0,0.45332093106179255,1.2041605030163889,0.5828501527628315,-0.010017573310057511,-0.01232421466855529,0.2992469213233717
10042,10.0,299.90491000000003,-7598.6321,0.0,0.10042001951493873,0.0,0.0,0.0,0.0,0.5099618548318166,1.225729760545109,0.5741028457095395,-0.006354971992761904,0.0016174215477270783,0.29957580204082973
10043,10.0,300.15266,-7583.2628,0.0,0.10043001550235808,0.0,0.0,0.0,0.0,0.5105049670179175,1.224419121540759,0.5701984384367045,0.0066759296010629535,0.01146901435890359,0.2858224822059827
10044,10.0,299.69345,-7432.0922,0.0,0.10044001148977744,0.0,0.0,0.0,0.0,0.4843799951845836,1.219386510944079,0.5554039737266044,-0.003571959104424916,0.006585763210439223,0.3111744252730247
10045,10.0,299.65893,-7437.7987,0.0,0.10045000747719657,0.0,0.0,0.0,0.0,0.4792612583294036,1.2026786247451389,0.5789651796269144,0.01117381914102009,0.0025552454116080877,0.2841864379320177
10046,10.0,300.06791,-7515.3556,0.0,0.1004600364546735,0.0,0.0,0.0,0.0,0.45728956825846656,1.2317442104886887,0.5954466956210134,0.0032607413627101173,0.007437827511031424,0.3048982730936167
10047,10.0,299.88504,-7439.9261,0.0,0.10047003244209285,0.0,0.0,0.0,0.0,0.46840510424048454,1.2132882652172288,0.5798583291925614,0.016412430575780786,0.004476323828803766,0.2871410042961107
10048,10.0,299.49997,-7454.3417,0.0,0.10048002842951198,0.0,0.0,0.0,0.0,0.4947213979577005,1.202457634898329,0.5687547090317194,-0.012147127935328189,-0.007391812885565134,0.2907014030274947
10049,10.0,299.51268999999996,-7412.9905,0.0,0.10049002441693133,0.0,0.0,0.0,0.0,0.5067162121114965,1.191378656979919,0.5552691101382945,0.0002741993383213677,-0.005055825169721095,0.2989674770782927
10050,10.0,299.82856,-7363.2278,0.0,0.10050002040435091,0.0,0.0,0.0,0.0,0.4941511610664226,1.196736824833729,0.5473494358991834,-0.0064848962908094325,-0.005654811918011485,0.2990809509569917
10051,10.0,300.22617,-7538.0135,0.0,0.10051001639177004,0.0,0.0,0.0,0.0,0.49587936043698255,1.212005997215679,0.5834825120177404,0.01025701727828879,0.0029630132222266373,0.3016812445561207
10052,10.0,300.59357,-7675.0461,0.0,0.1005200123791894,0.0,0.0,0.0,0.0,0.48583503246068455,1.233243820636689,0.6139434850040044,0.0018344448243706082,-0.005251953304127435,0.2853974035240307
10053,10.0,299.84462,-7508.6258,0.0,0.10053000836660853,0.0,0.0,0.0,0.0,0.48880990435678157,1.1976735745511788,0.5959513043033144,0.00987700715018471,-0.0101182821626717,0.2809248871851277
10054,10.0,299.9462,-7372.3875,0.0,0.10054003734408545,0.0,0.0,0.0,0.0,0.4903963500383516,1.1914609328880388,0.5591644589552355,0.016786804196228584,-0.0013600742608288786,0.28810599329384773
10055,10.0,300.33834,-7488.4153,0.0,0.1005500333315048,0.0,0.0,0.0,0.0,0.5055152675629725,1.210837922500399,0.5599380551415835,0.015058472089905487,-0.015720917780033785,0.2867749271674817
10056,10.0,299.64744,-7480.061,0.0,0.10056002931892394,0.0,0.0,0.0,0.0,0.48764023883884455,1.2131949448830188,0.5729166236849684,0.008263023965346972,-0.0076079042760916924,0.2901890125844257
10057,10.0,300.10456,-7325.6223,0.0,0.10057002530634329,0.0,0.0,0.0,0.0,0.4418567863828696,1.207670604012809,0.5772788072204825,-0.0034083433286272967,-0.007535158694437262,0.3027744299565097
10058,10.0,299.65575,-7336.3905,0.0,0.10058002129376264,0.0,0.0,0.0,0.0,0.43967813654785354,1.2129370727325688,0.5774643029162895,0.005311788660957725,0.0007574222018917514,0.3239145862003807
10059,10.0,299.41161,-7351.1972,0.0,0.100590017281182,0.0,0.0,0.0,0.0,0.4759243927025805,1.2010997784393187,0.5575561777340104,-0.01044650011323929,0.012342335633343688,0.3069767631562477
10060,10.0,299.90954,-7299.5275,0.0,0.10060001326860135,0.0,0.0,0.0,0.0,0.4798206534446115,1.1923834971040888,0.5466699807796265,-0.003575419758816457,0.015253457886149088,0.3332573195424367
10061,10.0,299.79314,-7500.51,0.0,0.10061000925602048,0.0,0.0,0.0,0.0,0.5059258972984986,1.2046410875388187,0.5694007876929825,-0.009197779099975122,0.005442763699358954,0.2975012028585827
10062,10.0,300.00529,-7582.3246,0.0,0.10062003823349741,0.0,0.0,0.0,0.0,0.5136901896347745,1.2299329246099289,0.5612142537750344,-0.008779575623926651,0.006982984202091884,0.30500448196909874
10063,10.0,300.78348,-7459.227,0.0,0.10063003422091676,0.0,0.0,0.0,0.0,0.4637500103660626,1.207269863598259,0.5963989075349894,-0.00015117876916768286,-0.007703759863376903,0.2877005210013307
10064,10.0,300.57808,-7551.5306,0.0,0.1006400302083359,0.0,0.0,0.0,0.0,0.48026578434604256,1.2247598775493886,0.5904510281229796,0.004196337900221306,-0.016665805922286985,0.2917215229631727
10065,10.0,300.54557,-7630.8517,0.0,0.10065002619575525,0.0,0.0,0.0,0.0,0.49875976702625646,1.2094384214622789,0.6113901454145094,0.013474903025369387,-0.008517146685126932,0.26573791978379074
10066,10.0,300.1016,-7498.3788,0.0,0.1006600221831746,0.0,0.0,0.0,0.0,0.4980981755059625,1.2127605645651487,0.5684612008752525,0.015731109049539584,-3.2835048368066964e-05,0.2887444016518537
10067,10.0,299.54972999999995,-7431.1343,0.0,0.10067001817059396,0.0,0.0,0.0,0.0,0.4944646809123645,1.204747884099359,0.5596666662347994,0.017298715372000284,0.0033478137941534963,0.2915249017812677
10068,10.0,300.34602,-7408.2769,0.0,0.10068001415801331,0.0,0.0,0.0,0.0,0.48966259484593555,1.1924820863388188,0.5697865624035554,-0.005322109727801334,0.0043059577808399465,0.2992725058883967
10069,10.0,299.67025,-7464.5831,0.0,0.10069001014543244,0.0,0.0,0.0,0.0,0.45566253177789057,1.2172947574376387,0.5960895622794594,-0.008806062184190671,-0.0068304893527668135,0.2977597842841027
10070,10.0,299.61266,-7481.7068,0.0,0.10070003912290915,0.0,0.0,0.0,0.0,0.4748308526646565,1.2111287252790988,0.5882924406399433,-0.013050439386228088,-0.001032766816801149,0.31137928417824273
10071,10.0,300.341,-7447.4913,0.0,0.10071003511032872,0.0,0.0,0.0,0.0,0.48474118844773056,1.200301337360519,0.5788088959314904,0.0028926088562532676,-0.0027614530540341978,0.29196282847448773
10072,10.0,299.70982999999995,-7406.0958,0.0,0.10072003109774785,0.0,0.0,0.0,0.0,0.5061349713241325,1.1930324837931388,0.5521007277380995,-0.002231803820686888,-0.005529805125349275,0.29831202585360467
10073,10.0,300.33377,-7531.6002,0.0,0.1007300270851672,0.0,0.0,0.0,0.0,0.5028189583843675,1.2149056150268487,0.5716937726692825,-0.007608261548076952,0.0017332126280797683,0.28423417214422875
10074,10.0,300.50136000000003,-7634.8983,0.0,0.10074002307258656,0.0,0.0,0.0,0.0,0.4989731574973166,1.2407103592985789,0.5811348925960484,-0.007984393664073304,0.006472359144672114,0.29445470431291676
10075,10.0,300.16076,-7539.5585,0.0,0.10075001906000591,0.0,0.0,0.0,0.0,0.4670642906481566,1.229830586349829,0.5949426138287645,0.00873647844947329,0.01117811228169379,0.3013011643111097
10076,10.0,300.24536,-7349.4104,0.0,0.10076001504742527,0.0,0.0,0.0,0.0,0.4653711497310566,1.196630433573229,0.5720356939155274,0.0004803737157466946,0.015960061015635383,0.2953231609736267
10077,10.0,300.02865,-7431.5948,0.0,0.1007700110348444,0.0,0.0,0.0,0.0,0.4840021339572915,1.215776098187759,0.5592410100002905,0.01111607401782109,0.0096203305335277,0.30593860736878975
10078,10.0,299.12769,-7531.6028,0.0,0.10078000702226375,0.0,0.0,0.0,0.0,0.49582452334157057,1.2176322710459488,0.5759624332205665,-0.005902757966506854,0.007217158459203082,0.2953906636952887
10079,10.0,299.74335,-7320.1207,0.0,0.10079003599974068,0.0,0.0,0.0,0.0,0.46993396691887157,1.209376106581129,0.5458238865486235,0.0008967214951645212,-0.0022706251810432577,0.31874268411245366
10080,10.0,299.92624,-7261.814,0.0,0.10080003198716003,0.0,0.0,0.0,0.0,0.44272266938832555,1.1999433561001887,0.5647440928834024,-0.00982079345318685,-0.012190247806583789,0.3099395368461507
10081,10.0,299.90431,-7385.77,0.0,0.10081002797457916,0.0,0.0,0.0,0.0,0.46685650345014956,1.194789358141529,0.5834438058639204,-0.003448902007605127,-0.01091770497949359,0.3034062623213667
10082,10.0,299.8832,-7513.1994,0.0,0.10082002396199852,0.0,0.0,0.0,0.0,0.48871525666494053,1.2086811183375388,0.5864285974784964,-0.0026226613990615274,0.005268040979940165,0.28487857894282675
10083,10.0,300.00577999999996,-7573.7063,0.0,0.10083001994941765,0.0,0.0,0.0,0.0,0.5062856720115055,1.210596566326579,0.5853354120781075,0.01087558214633639,0.008776627167460662,0.2940287441033777
10084,10.0,300.18429,-7635.3362,0.0,0.10084001593683722,0.0,0.0,0.0,0.0,0.5257485345698405,1.204897845114159,0.5903051505060825,0.014330574496317586,0.011037112450778189,0.26929829825017276
10085,10.0,300.24062999999995,-7588.3301,0.0,0.10085001192425636,0.0,0.0,0.0,0.0,0.5095448213556585,1.2192060511012688,0.5779119669429704,0.0022252613661161978,-0.007188518134526502,0.28768998320029077
10086,10.0,300.10722000000004,-7604.3835,0.0,0.10086000791167571,0.0,0.0,0.0,0.0,0.48387142469439154,1.221901904317329,0.6057693633997814,-0.01068981692600279,-0.0014114375295980388,0.28122613657235873
10087,10.0,299.99859,-7630.514,0.0,0.10087003688915241,0.0,0.0,0.0,0.0,0.49573515468275053,1.2254546631429588,0.5982959346372114,-0.007922868408726231,-0.008613755927836522,0.2965076402080257
10088,10.0,299.3165,-7480.3369,0.0,0.10088003287657199,0.0,0.0,0.0,0.0,0.48098576946959953,1.2010902538883788,0.5917595595671215,0.0036655702414136165,0.0015875932886332586,0.27740260692250573
10089,10.0,299.10626,-7262.994000000001,0.0,0.10089002886399112,0.0,0.0,0.0,0.0,0.46630318783554153,1.1932670511912888,0.5481986408079935,0.009264483887183372,0.01138501997861399,0.30543231669132276
10090,10.0,298.8387,-7344.9468,0.0,0.10090002485141047,0.0,0.0,0.0,0.0,0.4829776975761876,1.2030360993804188,0.5466665965242925,0.0073385703418355035,0.01044491539008289,0.2995194754677707
10091,10.0,299.2058,-7432.5779,0.0,0.1009100208388296,0.0,0.0,0.0,0.0,0.47532512619593753,1.2117992941952789,0.5721937305336244,-0.0001232097733448579,-0.006059888941664474,0.32775155154655966
10092,10.0,299.53047000000004,-7442.8923,0.0,0.10092001682624896,0.0,0.0,0.0,0.0,0.4698895966969926,1.2216752402699589,0.5708885529473134,0.0016608704212901482,-0.008787971819555292,0.31471150911960766
10093,10.0,299.67900000000003,-7452.6507,0.0,0.10093001281366853,0.0,0.0,0.0,0.0,0.4711880969651446,1.2097075406888387,0.5845241331205405,-0.009468788240621641,-0.006340723365880674,0.3059134888988107
10094,10.0,299.63784,-7429.3153,0.0,0.10094000880108767,0.0,0.0,0.0,0.0,0.4835026016579916,1.191326069299729,0.5834976803717374,-0.0016829600840702283,0.018376756736394682,0.28309274590657874
10095,10.0,300.39811000000003,-7410.0444,0.0,0.10095003777856437,0.0,0.0,0.0,0.0,0.4762184986766066,1.2158270646677887,0.5604229459769385,-0.008114912739929533,0.010127511148557531,0.3051655887349987
10096,10.0,299.74891,-7630.6140000000005,0.0,0.10096003376598373,0.0,0.0,0.0,0.0,0.5170644340577865,1.2134198864052188,0.5890318295029154,0.0019146650506877282,0.005840534075215834,0.28106139223859977
10097,10.0,299.94203999999996,-7664.5594,0.0,0.10097002975340308,0.0,0.0,0.0,0.0,0.5032435203087685,1.2273983808097888,0.5991927420357194,-0.010712369846728591,-0.005170609586099435,0.2911486009591297
10098,10.0,299.94486,-7414.0855,0.0,0.10098002574082243,0.0,0.0,0.0,0.0,0.47764437461482956,1.207417696787849,0.5686347908823844,0.01084997225005889,-0.0003581494699791007,0.29188633822443877
10099,10.0,299.59828999999996,-7318.2631,0.0,0.10099002172824156,0.0,0.0,0.0,0.0,0.4551256814774075,1.1966962948297288,0.5727472690632545,0.00954569189671144,-0.0056842522036420155,0.30034769596700966
10100,10.0,300.14239,-7461.7436,0.0,0.10100001771566092,0.0,0.0,0.0,0.0,0.49659843363544953,1.204367611336829,0.5672177200875305,0.0036366274615821865,0.004590965984868066,0.28247604136571475
10101,10.0,300.21038,-7473.2375,0.0,0.10101001370308027,0.0,0.0,0.0,0.0,0.4938599023251775,1.2060988504576886,0.5717188506092574,0.007324212486593493,0.002128304679947318,0.29533139869693975
10102,10.0,299.74579,-7385.6748,0.0,0.10102000969049962,0.0,0.0,0.0,0.0,0.5029898430137325,1.1928977215298386,0.5491731239591675,-0.0007006738736111273,0.014774049747085185,0.29366057967954273
10103,10.0,300.2342,-7421.8844,0.0,0.10103003866797655,0.0,0.0,0.0,0.0,0.46339055989308753,1.2196657626716387,0.5730112004493024,-0.009950935397355861,-0.001838507247996538,0.3097179795792847
10104,10.0,300.37582000000003,-7553.6201,0.0,0.10104003465539568,0.0,0.0,0.0,0.0,0.49732704151735757,1.2091792320866988,0.5896055925045415,-0.010689913184762291,-0.015502788338256088,0.2856593185423797
10105,10.0,300.81502,-7606.3346,0.0,0.10105003064281504,0.0,0.0,0.0,0.0,0.4854853497186735,1.2272964478497288,0.5993540311866374,0.0017819658659163384,-0.004521207160533405,0.29272337399954773
10106,10.0,300.43327999999997,-7568.766,0.0,0.10106002663023439,0.0,0.0,0.0,0.0,0.5038122981199026,1.206638811435979,0.5902648028871005,0.014400333725952286,0.011033827493953988,0.28099511554955875
10107,10.0,299.9409,-7438.7363,0.0,0.10107002261765352,0.0,0.0,0.0,0.0,0.4721570883007765,1.218427976349479,0.5706050151718305,0.015595386225144784,0.013554881895512686,0.2995981340730337
10108,10.0,299.22589,-7305.1733,0.0,0.10108001860507287,0.0,0.0,0.0,0.0,0.46785575043376754,1.2076747583382188,0.5450597135882055,-0.0034467595915936866,0.005154413087225964,0.3109143645023587
10109,10.0,299.56462999999997,-7433.8266,0.0,0.10109001459249223,0.0,0.0,0.0,0.0,0.4598884534399566,1.223775910377279,0.5760332695350574,-0.011636449884928188,-0.01070921154616689,0.31138112829342474
10110,10.0,299.52442,-7557.6144,0.0,0.10110001057991158,0.0,0.0,0.0,0.0,0.4987567779384615,1.2166425283482687,0.5819267272841965,0.0028126433610112874,0.002917369040996907,0.30863183626709073
10111,10.0,299.89566,-7390.3449,0.0,0.10111003955738851,0.0,0.0,0.0,0.0,0.4613271267269426,1.2177693637844789,0.5673838627064274,-0.0058475084783041545,0.004298833518061836,0.3130747758355747
10112,10.0,299.43028,-7300.1669,0.0,0.10112003554480764,0.0,0.0,0.0,0.0,0.4708185241236706,1.1967734031623387,0.5514765048814935,-0.0007340877816288234,-0.013311683633010885,0.3005633054557887
10113,10.0,299.88027,-7485.3928,0.0,0.101130031532227,0.0,0.0,0.0,0.0,0.49081715280488153,1.2157581636609887,0.5687971946084125,-0.01033473558745899,-0.005141625161688895,0.2987642495057357
10114,10.0,300.52119,-7581.2024,0.0,0.10114002751964635,0.0,0.0,0.0,0.0,0.5040107735494905,1.2155018113856888,0.5849835913783854,0.005551703486510474,0.012409857606757588,0.29876750203855673
10115,10.0,300.46635,-7552.439,0.0,0.10115002350706548,0.0,0.0,0.0,0.0,0.49256360080974254,1.210516722218699,0.5926725181722234,0.0017209189659414784,0.008650696088057233,0.2984837210830497
10116,10.0,300.79582,-7533.9627,0.0,0.10116001949448505,0.0,0.0,0.0,0.0,0.4979194179233205,1.204595592609329,0.5876215576162325,-0.002992328675444847,-0.0011317745238224488,0.29286939347145874
10117,10.0,300.80647999999997,-7492.8072,0.0,0.10117001548190419,0.0,0.0,0.0,0.0,0.4961350338347155,1.1898150094255988,0.5916762400113984,0.005827347131789385,-0.015130380423002287,0.2792807774403667
10118,10.0,300.13277999999997,-7523.6751,0.0,0.10118001146932354,0.0,0.0,0.0,0.0,0.4958159208482215,1.2037789130287289,0.5874144999582975,0.0012591114877396289,-0.01057506128592729,0.27790505738209376
10119,10.0,300.31237999999996,-7537.7618,0.0,0.10119000745674289,0.0,0.0,0.0,0.0,0.5067782128851155,1.2074795050439489,0.5770336716237895,0.004844912399130625,0.008216630586993302,0.2859664245151887
10120,10.0,300.31951000000004,-7466.7464,0.0,0.1012000364342196,0.0,0.0,0.0,0.0,0.4864882849326555,1.2139737289098789,0.5692424268348534,-0.0034539330983266565,-0.003507470193860357,0.2950560074522607
10121,10.0,299.71533999999997,-7365.6385,0.0,0.10121003242163873,0.0,0.0,0.0,0.0,0.46381002516948555,1.2077573382213687,0.5674028104832975,-0.0095692971789911,0.005579097209589025,0.30564598073990973
10122,10.0,299.39957000000004,-7441.2178,0.0,0.1012200284090583,0.0,0.0,0.0,0.0,0.4763171791038456,1.2114742435631989,0.5741529509269845,-0.0019862698140545683,0.022070215470910683,0.29518663565515274
10123,10.0,299.93572,-7489.5905,0.0,0.10123002439647766,0.0,0.0,0.0,0.0,0.4873468624048905,1.2058804950611388,0.5834211090616804,0.000874163437260714,0.009890411942382661,0.31152450318257474
10124,10.0,299.91219,-7459.3888,0.0,0.10124002038389701,0.0,0.0,0.0,0.0,0.4794047244110626,1.213944547306999,0.5741186524110994,0.0018367010283682783,-0.001057998162841289,0.29356555708516474
10125,10.0,300.11804,-7488.8935,0.0,0.10125001637131614,0.0,0.0,0.0,0.0,0.4807559542144185,1.2172145080297188,0.5784661235551615,0.0044518795754413054,-0.017998536818567282,0.3112605616640257
10126,10.0,299.96361,-7612.5717,0.0,0.10126001235873527,0.0,0.0,0.0,0.0,0.4875562708030575,1.236711770428949,0.5897636189901374,0.00037828561696388364,-0.01064416392949719,0.30037836704753673
10127,10.0,299.60822,-7470.7938,0.0,0.10127000834615485,0.0,0.0,0.0,0.0,0.46733123138700156,1.2237474380494688,0.5798560797773394,-0.0035510539310117367,-0.003249377864163627,0.32770231772420066
10128,10.0,299.47123,-7431.9488,0.0,0.10128003732363156,0.0,0.0,0.0,0.0,0.46742630464388457,1.2256999709921688,0.5660006344649134,-0.004943259264436705,0.0009657044232351059,0.3034009731558447
10129,10.0,300.20382,-7421.8962,0.0,0.10129003331105069,0.0,0.0,0.0,0.0,0.47275119736441057,1.205110830285179,0.5782091227997974,-0.005791583861559824,0.010231621177782391,0.30160286966088573
10130,10.0,299.62851,-7446.7661,0.0,0.10130002929847004,0.0,0.0,0.0,0.0,0.4951583316658225,1.2021096848139887,0.5663629423031705,0.004875945209943325,0.007018193933791813,0.29097832427982473
10131,10.0,299.46278,-7488.4462,0.0,0.10131002528588962,0.0,0.0,0.0,0.0,0.49745154968964556,1.208944259388509,0.5699048593527305,-0.0006996276219553703,0.005223702371464285,0.2979445909698417
10132,10.0,300.16501,-7533.3297,0.0,0.10132002127330897,0.0,0.0,0.0,0.0,0.49080497353867947,1.2142927000413588,0.5848464479773504,0.0025174033574733674,-0.011574255580540089,0.2913748901039627
10133,10.0,299.95468999999997,-7661.2785,0.0,0.1013300172607281,0.0,0.0,0.0,0.0,0.4972984881295396,1.225915691938459,0.6056231716753534,0.003470209643958027,-0.0002870805943251487,0.28462590476538974
10134,10.0,299.94824,-7712.5158,0.0,0.10134001324814723,0.0,0.0,0.0,0.0,0.5115645733099925,1.226544920250559,0.6063027078549185,0.004712538163666305,0.0070865381596618635,0.2894313852196537
10135,10.0,300.07691,-7745.8659,0.0,0.10135000923556681,0.0,0.0,0.0,0.0,0.5268718236307005,1.2223826914897788,0.6052952535454904,-0.007652940912561462,0.014721749829923586,0.2792160307589767
10136,10.0,300.23877000000005,-7595.1729,0.0,0.10136003821304351,0.0,0.0,0.0,0.0,0.5297990221095925,1.207351936856359,0.5715919207692305,-0.007250648198858263,-0.007540230720462832,0.2882186768374687
10137,10.0,299.95346,-7423.593000000001,0.0,0.10137003420046264,0.0,0.0,0.0,0.0,0.4922170692755425,1.1985165986343789,0.5658532673703695,-0.004345776584594756,-0.013589101377889887,0.27186769785375275
10138,10.0,300.08767,-7498.3948,0.0,0.101380030187882,0.0,0.0,0.0,0.0,0.4790697844580065,1.2243274224067089,0.5759275976821285,0.005728078310217315,-0.011250198946808189,0.3071618535520147
10139,10.0,299.99798,-7555.8537,0.0,0.10139002617530135,0.0,0.0,0.0,0.0,0.47891625680285455,1.228886946531699,0.5889876416660544,0.008085438510420652,-0.003048394133953077,0.3053695458476277
10140,10.0,300.46148999999997,-7402.6215,0.0,0.10140002216272093,0.0,0.0,0.0,0.0,0.46925543385690555,1.2206952247732388,0.5602614845735034,0.0023700962473352876,0.007573150912236804,0.3287729785748667
10141,10.0,300.52301,-7334.1311,0.0,0.10141001815014006,0.0,0.0,0.0,0.0,0.4641504873355865,1.1995966219159688,0.5656456524248795,-0.0017022571282496986,0.017229746477443585,0.3092125400319017
10142,10.0,300.2212,-7451.6848,0.0,0.10142001413755919,0.0,0.0,0.0,0.0,0.4964155419923995,1.2180438532365687,0.5506666748715694,0.008222888824910941,0.016495842337262884,0.31135074092292575
10143,10.0,299.71936,-7513.2736,0.0,0.10143001012497854,0.0,0.0,0.0,0.0,0.4846514854163776,1.224640719337629,0.5745553429391974,-7.945876988022002e-05,0.0019246892352520384,0.30553384435134273
10144,10.0,299.70861,-7419.1045,0.0,0.10144003910245547,0.0,0.0,0.0,0.0,0.46774905519823756,1.2211941491224787,0.5662793390374193,-0.014996188619508587,-0.021756860784734978,0.3200190144684177
10145,10.0,300.02027000000004,-7447.6874,0.0,0.1014500350898746,0.0,0.0,0.0,0.0,0.4547479418401276,1.215581554168559,0.5935815453669374,-0.006020486381050744,-0.016941973316542583,0.2929106732805327
10146,10.0,299.67929,-7420.995,0.0,0.10146003107729418,0.0,0.0,0.0,0.0,0.48041913974867756,1.198096809117949,0.5772812795507264,-0.003028819053946167,-0.0005072536500970374,0.2959748631729447
10147,10.0,299.42282,-7513.3324,0.0,0.10147002706471331,0.0,0.0,0.0,0.0,0.49408606987999854,1.2140772830700988,0.5757020380773674,0.014479814077046385,0.01934177106538418,0.2845522617481217
10148,10.0,299.91061,-7560.1218,0.0,0.10148002305213288,0.0,0.0,0.0,0.0,0.5393331482630375,1.1965216105124887,0.5622335327131295,-0.010446792942518188,0.00944474280249854,0.28610395295126173
10149,10.0,300.46414,-7577.4838,0.0,0.10149001903955202,0.0,0.0,0.0,0.0,0.5007794176555805,1.2228624654121287,0.5797239823618024,-0.004897624202457876,0.008921649094648211,0.2736854077381467
10150,10.0,300.60435,-7468.3713,0.0,0.10150001502697115,0.0,0.0,0.0,0.0,0.48815804003744756,1.207179380364329,0.5748609290368565,-0.007304539121326882,-0.010340747200302291,0.2983467499345317
10151,10.0,300.21698,-7613.1361,0.0,0.1015100110143905,0.0,0.0,0.0,0.0,0.4945850955542485,1.2181758797245987,0.6014422991127334,0.0039011955739930264,-0.011366116784748389,0.2929130544182677
10152,10.0,299.98301000000004,-7630.4456,0.0,0.10152000700180985,0.0,0.0,0.0,0.0,0.5011440053065624,1.2264645695176288,0.5918563350841725,-0.004374667688671086,-0.020268603090855382,0.3035740869354297
10153,10.0,300.02167000000003,-7506.4339,0.0,0.10153003597928678,0.0,0.0,0.0,0.0,0.5061384366394746,1.1911533101576788,0.5844767028833594,-0.006354322904747843,0.005157448075250495,0.26984293031142376
10154,10.0,299.82578,-7396.2191,0.0,0.10154003196670613,0.0,0.0,0.0,0.0,0.49914353550163154,1.201114571890779,0.5480078154166605,-0.0052256961436860545,0.018395862580280285,0.2921989157477877
10155,10.0,300.05294,-7385.0589,0.0,0.10155002795412527,0.0,0.0,0.0,0.0,0.4703309988380555,1.2105753893994886,0.5639670617792154,0.007871721874153461,0.005435892242480795,0.29065466180038174
10156,10.0,299.7986,-7458.5695,0.0,0.10156002394154462,0.0,0.0,0.0,0.0,0.4665178144717236,1.222489994675369,0.5782110175774844,0.0013915939383146287,0.0016959769028048887,0.3206335202565647
10157,10.0,299.5217,-7446.6548,0.0,0.10157001992896397,0.0,0.0,0.0,0.0,0.45541066820053355,1.2171639468497288,0.5910225113118804,-0.003419749181027966,-0.005229001365512255,0.30844783004893067
10158,10.0,299.66402999999997,-7447.682,0.0,0.1015800159163831,0.0,0.0,0.0,0.0,0.46120792798517857,1.2284282482114288,0.5742731831838505,-0.0030885792276190366,-0.0022830030442648574,0.3146556385090937
10159,10.0,300.16256,-7400.5112,0.0,0.10159001190380268,0.0,0.0,0.0,0.0,0.4796621507314685,1.2117848047188489,0.5581236484525154,-0.00957879731060369,0.015555058871164784,0.3071896773997607
10160,10.0,300.33547000000004,-7437.8715,0.0,0.10160000789122181,0.0,0.0,0.0,0.0,0.4952228351671885,1.214180735905309,0.5515236210111435,-0.008668704784734553,0.007420659710612093,0.3086697014233277
10161,10.0,300.79672999999997,-7511.5261,0.0,0.10161003686869874,0.0,0.0,0.0,0.0,0.49314418298454155,1.2123883978034187,0.5777838212028235,-0.0006913921480575923,0.005558565013537655,0.3051027976263017
10162,10.0,300.23312999999996,-7514.0322,0.0,0.10162003285611809,0.0,0.0,0.0,0.0,0.4931831525833876,1.206724735044459,0.5841702757881175,-0.017041646728879586,0.005260990684419355,0.2914848986673197
10163,10.0,299.92724,-7474.2991,0.0,0.10163002884353722,0.0,0.0,0.0,0.0,0.4763703443365926,1.2209861288769488,0.5746438402029315,0.02232474794903108,-0.0019159561339651481,0.3119417089112497
10164,10.0,299.82865,-7432.8034,0.0,0.10164002483095658,0.0,0.0,0.0,0.0,0.4865828009019836,1.196787588663739,0.5760162570658784,0.012820139797499288,-0.014858550752424787,0.28269777088509773
10165,10.0,299.77701,-7479.2026,0.0,0.10165002081837593,0.0,0.0,0.0,0.0,0.5134037134340015,1.1883468100306989,0.5717403213788764,0.016549291280037882,-0.011031399746714389,0.27975756227492177
10166,10.0,298.97142,-7594.8694,0.0,0.10166001680579528,0.0,0.0,0.0,0.0,0.5170303888544264,1.2092179382405188,0.5824023367486354,-0.01040548070944099,-0.013313057600146486,0.26840581742959174
10167,10.0,299.55116,-7538.188,0.0,0.10167001279321464,0.0,0.0,0.0,0.0,0.48028229019017155,1.2219687788239288,0.5891698848290404,-0.005326004965160765,0.0018868522473678181,0.29147857598669574
10168,10.0,300.25387,-7477.244000000001,0.0,0.10168000878063377,0.0,0.0,0.0,0.0,0.48512073167018854,1.2051026229593689,0.5826721652502654,-0.005383509137485985,0.006251083561333914,0.2904916197267907
10169,10.0,300.56857,-7495.5657,0.0,0.1016900377581107,0.0,0.0,0.0,0.0,0.48492172935054856,1.201747650553259,0.5917954590181644,-0.0009431448859861531,0.0018273567346210684,0.3008438034809717
10170,10.0,300.18016,-7513.4822,0.0,0.10170003374553005,0.0,0.0,0.0,0.0,0.4935989296294216,1.2136415855270988,0.5766704923904465,0.01177040053489809,0.007836001768378164,0.29748192070917967
10171,10.0,300.51734,-7501.1724,0.0,0.10171002973294918,0.0,0.0,0.0,0.0,0.4983114139895075,1.209901983383029,0.5719556876876315,0.0006627642255622364,0.004645951926719755,0.2955524088087517
10172,10.0,300.17298999999997,-7350.706999999999,0.0,0.10172002572036853,0.0,0.0,0.0,0.0,0.4686292756926086,1.2127249994866387,0.5530770752694575,0.0036958314622751666,0.0008934959755911872,0.32022213058346366
10173,10.0,300.26491,-7297.6568,0.0,0.10173002170778789,0.0,0.0,0.0,0.0,0.45748190339244854,1.2026382973911591,0.5581852844560985,-0.008021989599758732,-0.010312895994803591,0.3073997950729977
10174,10.0,299.9447,-7499.2403,0.0,0.10174001769520724,0.0,0.0,0.0,0.0,0.4825173273932526,1.225398833062449,0.5716656448465065,-0.008119948896901562,-0.002051680174260068,0.3160727397014507
10175,10.0,299.85462,-7592.6348,0.0,0.1017500136826266,0.0,0.0,0.0,0.0,0.47740586567379056,1.2439127362396287,0.5866527891956224,0.001983278193134318,0.01100072258668679,0.3099031611675607
10176,10.0,299.70517,-7474.9056,0.0,0.10176000967004573,0.0,0.0,0.0,0.0,0.48647285313363253,1.2149941730855889,0.5707176176554435,-0.01188367379007729,0.01334121176742509,0.3207835623313727
10177,10.0,299.5133,-7427.9619999999995,0.0,0.10177003864752243,0.0,0.0,0.0,0.0,0.4849156802474516,1.2046988427945189,0.5683004183493845,-0.003139277500347567,-0.0045358390999274655,0.3031055904866927
10178,10.0,300.04148,-7422.4955,0.0,0.10178003463494201,0.0,0.0,0.0,0.0,0.48274205613293153,1.204554454655269,0.5689568017641645,0.00012353998141994687,-0.012544230782019187,0.3051454858530147
10179,10.0,300.62309,-7501.5213,0.0,0.10179003062236114,0.0,0.0,0.0,0.0,0.4772968298305295,1.213330821721429,0.5896475207936794,0.016491779204361883,-0.0002859542553814877,0.28926060191529873
10180,10.0,300.6028,-7530.3159,0.0,0.10180002660978049,0.0,0.0,0.0,0.0,0.4954104282907026,1.2089389904879888,0.5846786233632875,0.003690957729294166,-0.006640367764953275,0.2936414900476587
10181,10.0,301.14075,-7555.7654,0.0,0.10181002259719962,0.0,0.0,0.0,0.0,0.48833542973245453,1.2155255214380287,0.5929030528349754,0.006767934533993133,0.004249301192223377,0.29144250428313573
10182,10.0,301.30812000000003,-7516.3379,0.0,0.1018200185846192,0.0,0.0,0.0,0.0,0.5215609137615544,1.1913297170000887,0.5718883977484905,-0.01243055222679999,0.01015295953276909,0.2881728576679467
10183,10.0,300.91261000000003,-7583.2426,0.0,0.10183001457203855,0.0,0.0,0.0,0.0,0.5037502061537745,1.2250582797038387,0.5763078704446585,-0.006126334944797184,0.006223137920925895,0.29257888453528774
10184,10.0,300.85129,-7571.8297,0.0,0.10184001055945768,0.0,0.0,0.0,0.0,0.5033797416522126,1.214341032071129,0.5839264067540494,-0.014390889221770186,-0.008039660073552673,0.29708970172797067
10185,10.0,300.35962,-7495.0329,0.0,0.10185003953693439,0.0,0.0,0.0,0.0,0.47964453031222953,1.2199287010725886,0.5787296091111654,-0.007419664699013894,-0.014206472637319684,0.29285172238971474
10186,10.0,299.90541,-7488.8116,0.0,0.10186003552435396,0.0,0.0,0.0,0.0,0.48048493007767057,1.2114807283638387,0.5844461027303395,0.014242357902861286,-0.002288675522299688,0.2912899392155787
10187,10.0,300.26437999999996,-7520.4102,0.0,0.1018700315117731,0.0,0.0,0.0,0.0,0.47598032410810054,1.223926175367109,0.5861103964170925,0.019094710293501183,0.006920999539149473,0.2974320384067567
10188,10.0,300.31206000000003,-7474.6891,0.0,0.10188002749919245,0.0,0.0,0.0,0.0,0.4901313750047005,1.2226084436120588,0.5593790349289125,0.01983226922679258,0.003911083780393916,0.3026595983226767
10189,10.0,299.7785,-7414.768,0.0,0.1018900234866118,0.0,0.0,0.0,0.0,0.47651502631837156,1.2107436902410988,0.5666456390810705,-0.008540837283065013,-0.0025567779523843373,0.3062122152932927
10190,10.0,299.69081,-7405.9881,0.0,0.10190001947403093,0.0,0.0,0.0,0.0,0.4721032340579615,1.207161141862529,0.5719711397516564,-0.014508432312870786,0.0029205916829399573,0.3123250214240797
10191,10.0,300.01153999999997,-7423.5732,0.0,0.10191001546145051,0.0,0.0,0.0,0.0,0.46669988538219254,1.2215415925817688,0.5683394082132325,-0.014822678659134487,0.0025133010117934975,0.3073232744254457
10192,10.0,299.79819,-7527.6696,0.0,0.10192001144886964,0.0,0.0,0.0,0.0,0.4688820511950556,1.2366656675493988,0.5826758636131305,-0.012173827075463188,0.0005999975564576485,0.3077070935633257
10193,10.0,299.53443,-7490.2656,0.0,0.101930007436289,0.0,0.0,0.0,0.0,0.49231800925050456,1.2193173059622489,0.5652183445927075,-0.0032976590287786068,-0.006565157655080614,0.31117408076799075
10194,10.0,300.27218,-7527.755999999999,0.0,0.1019400364137657,0.0,0.0,0.0,0.0,0.5113816512694396,1.2163326764676887,0.5605354977980465,0.007091049047782055,0.013852169474852688,0.29848649738832367
10195,10.0,300.04868999999997,-7538.4232,0.0,0.10195003240118505,0.0,0.0,0.0,0.0,0.5018330052420615,1.2124639862608788,0.5771954471347555,0.006100676007214844,0.012039415396697789,0.3071400889398667
10196,10.0,300.61303,-7561.8935,0.0,0.1019600283886044,0.0,0.0,0.0,0.0,0.4885908092876586,1.2294821296404388,0.5805538848562074,0.011853239810073687,-0.005644224974341635,0.2934666334779017
10197,10.0,300.41487,-7494.8203,0.0,0.10197002437602376,0.0,0.0,0.0,0.0,0.4885896440500435,1.2032319606247488,0.5864165600673084,0.01093986475918059,-0.006433840644770634,0.2890817024776427
10198,10.0,300.03385,-7386.6441,0.0,0.10198002036344289,0.0,0.0,0.0,0.0,0.46966051098188355,1.176477395709279,0.5992174957356625,0.009179936576314201,-0.003587369118570767,0.28100307969534477
10199,10.0,299.2593,-7375.2539,0.0,0.10199001635086224,0.0,0.0,0.0,0.0,0.4854187183920975,1.1932673551663189,0.5632069316866966,0.0014886264155909883,0.002915395736427157,0.30500101665375673
10200,10.0,299.65182000000004,-7479.0413,0.0,0.1020000123382816,0.0,0.0,0.0,0.0,0.4953709419343055,1.1955179862884389,0.5825528347859884,-0.01111599802406359,-0.007788167852357322,0.28140360732737374
10201,10.0,299.26792,-7529.5686,0.0,0.10201000832570095,0.0,0.0,0.0,0.0,0.49525513758037654,1.2213041880833386,0.5722414951433384,-0.013108197681678388,-0.00958828812031536,0.3034855998041967
10202,10.0,299.85362000000003,-7586.8047,0.0,0.10202003730317766,0.0,0.0,0.0,0.0,0.5022693816626285,1.219051327810999,0.5848784362830074,-0.01310214047258059,0.0040480658720129965,0.2919761223157997
10203,10.0,299.99252,-7607.4395,0.0,0.10203003329059701,0.0,0.0,0.0,0.0,0.5033694368986955,1.213930868430649,0.5951713854363424,-0.013353518703139687,0.011904909485673089,0.2984765472723417
10204,10.0,300.36965,-7605.9584,0.0,0.10204002927801659,0.0,0.0,0.0,0.0,0.48371973102192056,1.2470624241754789,0.5812392978863524,0.004035386161586606,-0.005905616952989015,0.2950049599122227
10205,10.0,300.83804,-7490.3338,0.0,0.10205002526543572,0.0,0.0,0.0,0.0,0.4891663252119576,1.2160865580183988,0.5716215785996575,0.0015344505500384787,0.003918682041568806,0.2993952206080077
10206,10.0,300.01462000000004,-7409.7661,0.0,0.10206002125285485,0.0,0.0,0.0,0.0,0.4852602156789545,1.2110169637930688,0.5561066829359564,0.00836673913100786,0.0032116201124372267,0.30185966776622974
10207,10.0,299.19811,-7415.045999999999,0.0,0.1020700172402742,0.0,0.0,0.0,0.0,0.4633709231061495,1.2192807276336388,0.5713371187665834,0.002747037342211477,0.0014120367657071786,0.30246179163815473
10208,10.0,299.56764,-7424.0026,0.0,0.10208001322769356,0.0,0.0,0.0,0.0,0.46272383119478655,1.2205513432590387,0.5734362284687494,-0.006967283486492343,0.0017644802089406384,0.3057238692750967
10209,10.0,300.28508999999997,-7487.1513,0.0,0.10209000921511291,0.0,0.0,0.0,0.0,0.46260515934307456,1.223498786474929,0.5898031053465345,-0.005817853890277474,-0.003298652216526627,0.30610562138277275
10210,10.0,299.72004,-7515.893,0.0,0.10210003819258961,0.0,0.0,0.0,0.0,0.49581492786312353,1.207400572861159,0.5814283196925074,0.017838863801558785,-0.0015304101139397186,0.30424277120642373
10211,10.0,299.87082000000004,-7431.7399,0.0,0.10211003418000897,0.0,0.0,0.0,0.0,0.4989320803382625,1.188068368903219,0.5720628895482115,0.011758521190725688,0.005720031888523194,0.2927581487429797
10212,10.0,299.9308,-7527.0445,0.0,0.10212003016742854,0.0,0.0,0.0,0.0,0.4963864718470305,1.221999885601999,0.5696471999848014,0.013193552856852288,-0.018043831124537484,0.3126867922397837
10213,10.0,300.46067999999997,-7537.0372,0.0,0.10213002615484768,0.0,0.0,0.0,0.0,0.4820772627423216,1.2130502527687388,0.5959436238675564,0.008295819324708622,-0.008966961031170152,0.2911021029120407
10214,10.0,300.5592,-7467.9477,0.0,0.1021400221422668,0.0,0.0,0.0,0.0,0.4904198675731725,1.209995506367259,0.5696542420729964,-0.0015616882326016286,-0.0038943175309892157,0.3005570233051687
10215,10.0,300.35944,-7499.2489,0.0,0.10215001812968616,0.0,0.0,0.0,0.0,0.48335596410351955,1.2222612028027886,0.5739672323161554,-0.002577337810163438,0.004711112622100615,0.2942865757238237
10216,10.0,300.48077,-7483.776999999999,0.0,0.10216001411710551,0.0,0.0,0.0,0.0,0.5052742964241905,1.197991937732599,0.5716151545940235,-0.0005509545696224824,0.0009431091385226249,0.28570377995676777
10217,10.0,300.13626,-7511.5016,0.0,0.10217001010452509,0.0,0.0,0.0,0.0,0.5063488481552405,1.2061874085164288,0.5707726979308795,0.0034091139053283462,0.00030393320303587174,0.2867804392480257
10218,10.0,299.86253999999997,-7463.9114,0.0,0.10218003908200157,0.0,0.0,0.0,0.0,0.4959448062609415,1.1952573783627187,0.5776405577711844,0.018524066075682983,-0.006793310268172524,0.2926441581067297
10219,10.0,299.97015,-7515.1983,0.0,0.10219003506942093,0.0,0.0,0.0,0.0,0.47444653703422757,1.2115858023992088,0.5984002791325095,0.008972649315906541,0.0008547902574687302,0.2970784546518607
10220,10.0,299.68694,-7494.5365,0.0,0.10220003105684028,0.0,0.0,0.0,0.0,0.4723233727746875,1.2182071891526887,0.5876213650987134,-0.005807873072817444,-0.012726770827284488,0.3041500689547747
10221,10.0,299.72853,-7435.513000000001,0.0,0.10221002704425963,0.0,0.0,0.0,0.0,0.46849372309423054,1.2068213991039989,0.5848951650421584,-0.016105135125203084,-0.004071862151936507,0.3162627646252047
10222,10.0,299.61921,-7510.5292,0.0,0.10222002303167876,0.0,0.0,0.0,0.0,0.49276850024496455,1.221090797612279,0.5691540714261335,-0.002068640562383928,0.012284683729153888,0.3019525118728927
10223,10.0,299.57504,-7546.48,0.0,0.10223001901909812,0.0,0.0,0.0,0.0,0.5123208733171335,1.2204320837222686,0.5611885070899935,-0.0015028691656216386,0.01137684811655749,0.3005362618106197
10224,10.0,300.78545,-7446.1059,0.0,0.10224001500651747,0.0,0.0,0.0,0.0,0.46910624291218156,1.2227071341717988,0.5716168872516945,-0.0016079264823649884,-0.0024956321591997174,0.31239727628871067
10225,10.0,300.389,-7428.1122,0.0,0.10225001099393682,0.0,0.0,0.0,0.0,0.46642934760549254,1.2212644686794187,0.5702667618909475,-0.02055839363270548,-0.018768404244547284,0.3078667716465847
10226,10.0,300.24494,-7514.8568,0.0,0.10226003997141353,0.0,0.0,0.0,0.0,0.47097673299428455,1.2192055444762189,0.5941465336226974,0.0003526080558447056,-0.012706439964027988,0.29166174120727273
10227,10.0,300.40108,-7527.7247,0.0,0.10227003595883288,0.0,0.0,0.0,0.0,0.5015873731528195,1.2087902453733088,0.5778627635181144,-0.0005802714008608285,0.01044213097880809,0.3063129323532327
10228,10.0,300.12772,-7576.8228,0.0,0.10228003194625224,0.0,0.0,0.0,0.0,0.5077760413185936,1.2176173762694789,0.5777715000816074,0.01191033240020829,0.0032035728801430275,0.28994425189026973
10229,10.0,299.74171,-7506.6708,0.0,0.10229002793367159,0.0,0.0,0.0,0.0,0.5120842895512845,1.204090690084499,0.5656654715968354,0.0038409569436229363,0.0003845383326684786,0.2858040106566597
10230,10.0,300.10659,-7521.3197,0.0,0.10230002392109072,0.0,0.0,0.0,0.0,0.4731741583536535,1.2187419825554686,0.5943772405379664,0.0007028214470655764,-0.0033541312058769763,0.28994252936509973
10231,10.0,299.62835,-7590.6285,0.0,0.10231001990851007,0.0,0.0,0.0,0.0,0.49991419326268954,1.2231024030358089,0.5843449702378585,-0.0028724579462145274,-0.010548218264278089,0.29038996034425774
10232,10.0,299.99935,-7595.6651,0.0,0.10232001589592943,0.0,0.0,0.0,0.0,0.4811059814614635,1.2233163001319187,0.6044702551815694,-0.002966437703589607,-0.02382875965546548,0.2883448264749187
10233,10.0,300.11357999999996,-7495.2593,0.0,0.10233001188334878,0.0,0.0,0.0,0.0,0.5010760263573535,1.207931515913559,0.5693641384368655,-0.004963757617934735,-0.015789639441566087,0.30026384952123475
10234,10.0,300.04471,-7474.6917,0.0,0.10234000787076813,0.0,0.0,0.0,0.0,0.5123891461088715,1.1988354684408489,0.5608950394635305,0.007182409958948675,0.0038506156488761763,0.28843817720663173
10235,10.0,300.90017,-7496.3377,0.0,0.10235003684824484,0.0,0.0,0.0,0.0,0.5064291482256655,1.205830541831209,0.5664397973232554,0.007334980194081183,0.020314406048375783,0.3127185880279217
10236,10.0,300.67777,-7466.0958,0.0,0.1023600328356642,0.0,0.0,0.0,0.0,0.48052693942681657,1.2165214449613189,0.5724583509297405,0.005500439516251115,0.013976080842831785,0.3004358588582107
10237,10.0,300.50849,-7376.5864,0.0,0.10237002882308333,0.0,0.0,0.0,0.0,0.4505154644499146,1.2280549668745888,0.5637276713105894,-0.014014152702089187,0.0025232098884964277,0.3121590814552027
10238,10.0,299.57052000000004,-7391.4739,0.0,0.10238002481050268,0.0,0.0,0.0,0.0,0.44872877015108154,1.2199938530540189,0.5781008367616105,-0.012344069304264788,-0.012344063224764189,0.2946786629825197
10239,10.0,299.5471,-7488.7943,0.0,0.10239002079792203,0.0,0.0,0.0,0.0,0.48290958690446556,1.2217817328554688,0.5717151522463925,-0.018469973719094483,-0.005067003952774355,0.3084317599023447
10240,10.0,299.3777,-7545.8293,0.0,0.10240001678534139,0.0,0.0,0.0,0.0,0.5036617392875435,1.2247054660190189,0.5653764926683155,0.0018510021416046883,0.007372553027664332,0.3064998567316807
10241,10.0,299.69774,-7539.9187,0.0,0.10241001277276074,0.0,0.0,0.0,0.0,0.49110489556827946,1.2244285447666887,0.5764136233575955,-0.0015709973665703684,0.004455353503409155,0.31602488389922767
10242,10.0,299.66114,-7584.7832,0.0,0.10242000876018009,0.0,0.0,0.0,0.0,0.4916963701816535,1.233920367728459,0.5799679932508844,-0.002818973539686028,0.008913592033828042,0.30500254666140775
10243,10.0,300.10679,-7538.9534,0.0,0.1024300377376568,0.0,0.0,0.0,0.0,0.4873385132240665,1.222142449891069,0.5821726228184644,5.751658970519544e-06,0.006101324284628824,0.30116087983476475
10244,10.0,299.93891,-7474.6383,0.0,0.10244003372507615,0.0,0.0,0.0,0.0,0.4753911191749506,1.2083976109595589,0.5883147017446404,0.007147675441545644,-0.01032946466043879,0.3058065504832567
10245,10.0,300.4298,-7426.8678,0.0,0.10245002971249528,0.0,0.0,0.0,0.0,0.4914674161890576,1.2027054758727886,0.5634094702491854,0.007961257415264933,-0.0030906366319470874,0.2813220710918267
10246,10.0,300.11595,-7412.02,0.0,0.10246002569991464,0.0,0.0,0.0,0.0,0.4817783539628215,1.2049787024721388,0.5663119656906395,0.006366523753176974,-0.005338657115184435,0.2938687519125877
10247,10.0,299.73641000000003,-7497.1165,0.0,0.10247002168733421,0.0,0.0,0.0,0.0,0.48512042769515856,1.2161497848246388,0.5776660207461974,0.007577206648412072,0.004179661222125446,0.2884249238953237
10248,10.0,299.57111000000003,-7622.3577,0.0,0.10248001767475334,0.0,0.0,0.0,0.0,0.4944618032820805,1.2359955039332589,0.5865491033128896,-0.00918292799458443,0.013399591185186688,0.3025620122055457
10249,10.0,300.16934,-7611.0914,0.0,0.1024900136621727,0.0,0.0,0.0,0.0,0.48479112141265857,1.2153665424973388,0.6134240423402395,-0.008622164890416423,0.003289164649215277,0.28904577262909675
10250,10.0,300.14611,-7605.6903,0.0,0.10250000964959183,0.0,0.0,0.0,0.0,0.4953248289222545,1.2154547965810487,0.6011603014774025,-0.0059695195970457145,-0.0020595941641661183,0.2959862622365697
10251,10.0,299.97447,-7629.7152,0.0,0.10251003862706876,0.0,0.0,0.0,0.0,0.5089744324768655,1.223305863655889,0.5869625904136975,-0.004127637314291086,-0.002283562864945108,0.29016239450429876
10252,10.0,299.65337,-7560.8599,0.0,0.10252003461448811,0.0,0.0,0.0,0.0,0.5168459570712245,1.2050587492300389,0.5764079086270314,0.006556070726858805,-0.007386939557884173,0.3002196920818767
10253,10.0,300.03179,-7510.1777,0.0,0.10253003060190724,0.0,0.0,0.0,0.0,0.48251811772833053,1.2326662680796887,0.5677220957223084,-0.012046051171602687,0.002051450571787408,0.3165640038799347
10254,10.0,299.91344,-7412.8068,0.0,0.1025400265893266,0.0,0.0,0.0,0.0,0.4790399645075636,1.2052945325283089,0.5689736217158246,0.005308351007343455,0.006184699670432334,0.29739082952518975
10255,10.0,300.17732,-7403.5628,0.0,0.10255002257674617,0.0,0.0,0.0,0.0,0.4549026752628985,1.2178447495919187,0.5777507689845615,-0.008700381921285841,0.014884732121758686,0.3180516374117527
10256,10.0,299.71684,-7358.4036,0.0,0.1025600185641653,0.0,0.0,0.0,0.0,0.4572437490889446,1.2120434874693788,0.5674837286362834,0.007691769163018512,0.006044367166032594,0.30524401429273873
10257,10.0,299.66107,-7453.5896,0.0,0.10257001455158465,0.0,0.0,0.0,0.0,0.4874719177322325,1.2063180164543188,0.5719151982136355,0.0038732474004597567,-0.0022877197234803573,0.2972551756018017
10258,10.0,299.64655,-7622.6627,0.0,0.10258001053900379,0.0,0.0,0.0,0.0,0.4907622447819625,1.241385690490229,0.5849511369776824,0.0090075827343042,-0.02199743675597798,0.30229575034426776
10259,10.0,300.32896,-7577.5021,0.0,0.10259003951648071,0.0,0.0,0.0,0.0,0.5041743222481315,1.2179992702321687,0.5811978559572625,0.004463514523689586,-0.018624353517580582,0.3035416325347267
10260,10.0,300.28353,-7565.7995,0.0,0.10260003550390007,0.0,0.0,0.0,0.0,0.48934336026942954,1.225080773856059,0.5853900059934954,-0.005427782593980434,-0.005538207096503485,0.3053872067968707
10261,10.0,300.44173,-7566.0166,0.0,0.1026100314913192,0.0,0.0,0.0,0.0,0.5078610732669855,1.2108758180541388,0.5811432417768724,-0.007870672349699884,0.014340690785315986,0.2950976925613747
10262,10.0,300.17016,-7498.8529,0.0,0.10262002747873855,0.0,0.0,0.0,0.0,0.48939297912682656,1.2066090218830388,0.5834619937032155,-0.01905278808386378,0.01752885182746298,0.2926848806282487
10263,10.0,299.95902,-7473.4203,0.0,0.1026300234661579,0.0,0.0,0.0,0.0,0.5072526875094425,1.2034079621671188,0.5610725000860445,-0.006683732336108023,0.013851158251252887,0.28113479207584374
10264,10.0,300.20872,-7587.7784,0.0,0.10264001945357726,0.0,0.0,0.0,0.0,0.4942423535754225,1.227614912356159,0.5846379312392714,0.002942723902224237,0.011768587830469189,0.2896131926850967
10265,10.0,300.05822,-7577.9264,0.0,0.10265001544099661,0.0,0.0,0.0,0.0,0.49551775174129453,1.224305637529559,0.5836770560369404,0.013021636738885489,-0.003914726718478446,0.2833110101106197
10266,10.0,299.68282,-7505.4481,0.0,0.10266001142841574,0.0,0.0,0.0,0.0,0.4703000237824985,1.2339788322592289,0.5771899553192135,0.017068000350730483,-0.013855815148712487,0.3012265992362507
10267,10.0,299.1492,-7502.5099,0.0,0.1026700074158351,0.0,0.0,0.0,0.0,0.4749353086174656,1.2164754434067788,0.5891649097710494,0.0005500410334648235,-0.018968064163502184,0.31008774493827773
10268,10.0,300.106,-7495.3863,0.0,0.10268003639331202,0.0,0.0,0.0,0.0,0.4808556377592565,1.2254572975932188,0.5720972893891065,0.006309643337613313,0.005035467556661955,0.3061295543501347
10269,10.0,300.47839,-7440.713000000001,0.0,0.10269003238073116,0.0,0.0,0.0,0.0,0.49349719931938146,1.2152239782082688,0.5530697596037355,-0.002158655573442718,0.01114709872263299,0.3162131457678077
10270,10.0,300.64324,-7485.825,0.0,0.10270002836815051,0.0,0.0,0.0,0.0,0.48706994115256047,1.2200077345803888,0.5684261626867945,-0.016694294462098584,0.02106161314911938,0.3006645798032837
10271,10.0,300.44857,-7524.5415,0.0,0.10271002435556986,0.0,0.0,0.0,0.0,0.49446269494216855,1.2263957698358388,0.5664142735532365,-0.02228182870129528,-0.0026184592482468077,0.3120046216099587
10272,10.0,300.53307,-7442.927,0.0,0.10272002034298922,0.0,0.0,0.0,0.0,0.47050659508038556,1.2130617024948687,0.5788956402725514,-0.01243395269413559,-0.007742971426346783,0.29888427911258175
10273,10.0,300.30187,-7491.8336,0.0,0.10273001633040857,0.0,0.0,0.0,0.0,0.48569606520946956,1.2088587410800689,0.5827755471579684,-0.0023757761220958478,7.403259673269844e-05,0.30228482750818975
10274,10.0,300.44899,-7620.8562,0.0,0.1027400123178277,0.0,0.0,0.0,0.0,0.5076455752357175,1.221315637809469,0.5875888195055015,-0.0018327298985763582,0.009506058213749901,0.2891548591348627
10275,10.0,299.90347,-7587.7771,0.0,0.10275000830524705,0.0,0.0,0.0,0.0,0.5131960174285035,1.2203426137384388,0.5729561607038705,0.004951602365760105,0.018522094290988382,0.28172137269123476
10276,10.0,299.47595,-7503.1939,0.0,0.10276003728272398,0.0,0.0,0.0,0.0,0.48490096785599957,1.235114989596359,0.5607676637934594,-0.006559172082764885,0.007121821655969073,0.3014969343629307
10277,10.0,299.88417999999996,-7478.9733,0.0,0.10277003327014334,0.0,0.0,0.0,0.0,0.4866177681629345,1.2137528403880788,0.5730504841556795,0.01173286468494359,-0.004495292275975805,0.28130603134274373
10278,10.0,299.70582,-7509.3731,0.0,0.10278002925756247,0.0,0.0,0.0,0.0,0.4726797936298635,1.214789699215409,0.5951923799784145,-0.006110336131018224,-0.014181801010634787,0.3146325262743127
10279,10.0,299.71245,-7528.0288,0.0,0.10279002524498182,0.0,0.0,0.0,0.0,0.4813228777778696,1.2127965349436989,0.5942134081292975,-0.0044210082766945455,-0.013519359373506887,0.2826729462576477
10280,10.0,300.62034,-7482.5112,0.0,0.10280002123240117,0.0,0.0,0.0,0.0,0.49845449503612854,1.2122097618107888,0.5638323501784205,-0.01008671496375626,0.004627340852857985,0.31752336933961667
10281,10.0,300.75636000000003,-7524.9808,0.0,0.10281001721982053,0.0,0.0,0.0,0.0,0.5118894314245535,1.2014382039727187,0.5740785986346465,-0.005088358198631854,0.012866147431539887,0.2864469178451097
10282,10.0,300.7121,-7507.3994,0.0,0.10282001320723966,0.0,0.0,0.0,0.0,0.4983267647285225,1.2164818268824091,0.5672533864910504,0.007779043737856843,0.01935675804761328,0.3158030834523377
10283,10.0,300.43217999999996,-7565.2066,0.0,0.10283000919465901,0.0,0.0,0.0,0.0,0.49553562547305857,1.2288570556537488,0.5752412017993864,-0.0014154645907954787,-0.0010386432620811089,0.2932993357538907
10284,10.0,300.04502,-7547.8874,0.0,0.10284003817213594,0.0,0.0,0.0,0.0,0.4733736976958466,1.236083859341979,0.5849117012837904,0.001046889800669979,0.0009598739187146802,0.30625309993482774
10285,10.0,300.10253,-7425.6044,0.0,0.10285003415955529,0.0,0.0,0.0,0.0,0.46085207455005855,1.2095922328274589,0.5867539926156105,0.008999001316557282,-0.014706568303675286,0.2857668142454887
10286,10.0,300.05588,-7418.4048,0.0,0.10286003014697442,0.0,0.0,0.0,0.0,0.4854236833175875,1.2002506748555188,0.5693354431940335,-0.012637915886265188,0.005401281341589965,0.29264887985219573
10287,10.0,299.68889,-7560.6191,0.0,0.10287002613439378,0.0,0.0,0.0,0.0,0.4932074908507896,1.227893758783679,0.5771381782391034,-0.0014618243292458283,-0.005135957749904565,0.2969991475665337
10288,10.0,300.12949,-7493.1508,0.0,0.10288002212181291,0.0,0.0,0.0,0.0,0.49757756760458255,1.2232002829954687,0.5569529392869755,-0.023731523109618978,0.009653250522651651,0.29629593173213176
10289,10.0,299.85151,-7487.2663,0.0,0.10289001810923248,0.0,0.0,0.0,0.0,0.48029240242616955,1.2134398474321888,0.5822097888321325,0.004495184871465206,0.01038880058629479,0.31151804877943773
10290,10.0,300.26235,-7469.5278,0.0,0.10290001409665184,0.0,0.0,0.0,0.0,0.4782686076039365,1.2016386248424988,0.5906426641143925,0.0004330272034214576,0.003688540418530596,0.2997935190898167
10291,10.0,300.21592000000004,-7491.2702,0.0,0.10291001008407097,0.0,0.0,0.0,0.0,0.4848488969333606,1.2043783517878888,0.5879318350618544,0.01099783786365209,-0.010115552466902301,0.29272822746752675
10292,10.0,299.78028,-7531.7454,0.0,0.10292003906154767,0.0,0.0,0.0,0.0,0.49698838293643455,1.2108590994274888,0.5816151123484424,-0.006651896727241093,-0.005235879611166085,0.3058843680909367
10293,10.0,299.3269,-7535.959,0.0,0.10293003504896725,0.0,0.0,0.0,0.0,0.49484351485975253,1.2180051470827489,0.5778947112937675,0.014142871941792787,-0.0067303519732090245,0.2911061964424447
10294,10.0,299.63764,-7482.2192,0.0,0.10294003103638638,0.0,0.0,0.0,0.0,0.5019796022665296,1.2066930203163289,0.5657351426737114,-0.011564095721787388,0.0069778016304804045,0.3037238250352077
10295,10.0,299.50475,-7537.4684,0.0,0.10295002702380573,0.0,0.0,0.0,0.0,0.4850302687012606,1.2201189894413687,0.5860528742089154,-0.0033710992947015967,-0.0076600721667652635,0.28224264933768073
10296,10.0,299.91006,-7573.2882,0.0,0.10296002301122487,0.0,0.0,0.0,0.0,0.48813346872252256,1.2345645921420387,0.5793924469290824,-0.013245646070993485,-0.0027676083457416774,0.30382714614790474
10297,10.0,299.64155,-7554.3414,0.0,0.10297001899864422,0.0,0.0,0.0,0.0,0.5010193552792604,1.2117012115855987,0.5836105665653785,0.0014739690436194187,0.0006736079268074263,0.27739991167723976
10298,10.0,300.05946,-7556.0444,0.0,0.1029800149860638,0.0,0.0,0.0,0.0,0.48777719985486157,1.2221419432660188,0.5869296901829505,0.009680098306576321,-0.0028571848221571874,0.2951339973124577
10299,10.0,300.13839,-7557.2390000000005,0.0,0.10299001097348293,0.0,0.0,0.0,0.0,0.5010467130319606,1.2213728864401188,0.5747923928000924,0.01082633312522589,-0.02235286462605598,0.30002483395514573
10300,10.0,300.75934,-7552.3666,0.0,0.10300003995095985,0.0,0.0,0.0,0.0,0.49333717673108857,1.2163072438901787,0.5860864229197265,0.010213299589474189,-0.007642359440442153,0.3141514351268327
10301,10.0,300.38754,-7476.4999,0.0,0.10301003593837899,0.0,0.0,0.0,0.0,0.4821458800390935,1.215999519834809,0.5745239119210954,0.013758854206893188,-0.012079748830178387,0.3162693912808587
10302,10.0,299.70699,-7363.9503,0.0,0.10302003192579834,0.0,0.0,0.0,0.0,0.45599834312603255,1.2124687485363488,0.5699899723611304,-0.0037933659036510662,0.01170267489821409,0.3055510088080367
10303,10.0,299.83232000000004,-7383.0792,0.0,0.10303002791321769,0.0,0.0,0.0,0.0,0.4840861729205856,1.1958842761995887,0.5643012519271975,-0.0076018432166435135,-0.0004789136223525945,0.2999569461984457
10304,10.0,299.95997,-7515.713000000001,0.0,0.10304002390063682,0.0,0.0,0.0,0.0,0.47620720093799157,1.2314711395867388,0.5769107339891564,-0.01285830386251579,0.016669874121438482,0.28691197937600776
10305,10.0,299.52666,-7547.2245,0.0,0.10305001988805618,0.0,0.0,0.0,0.0,0.49942739751714654,1.2226049985617187,0.5721353875928664,0.0034982365470240667,0.010229630141335891,0.30343827089202574
10306,10.0,300.01183,-7588.2952,0.0,0.10306001587547575,0.0,0.0,0.0,0.0,0.4926771152184456,1.228564530349879,0.5854105648380244,0.004405983804211745,-0.007414736149202484,0.2771032320479597
10307,10.0,299.83095,-7633.6983,0.0,0.10307001186289488,0.0,0.0,0.0,0.0,0.5110414930783685,1.2309562058859187,0.5784559606566585,0.003855104144169156,-0.016387493477569685,0.3073752541555757
10308,10.0,299.73822,-7614.4859,0.0,0.10308000785031424,0.0,0.0,0.0,0.0,0.4894966751420606,1.2152445471852988,0.6098723778247175,-0.0045144823209447155,-0.008870641881964191,0.28970289571644975
10309,10.0,300.24872999999997,-7602.3921,0.0,0.10309003682779094,0.0,0.0,0.0,0.0,0.5088558112876586,1.222270018078659,0.5798115575679454,0.010175825547775791,0.005608647027555365,0.30016440915642073
10310,10.0,300.18131,-7573.3073,0.0,0.1031000328152103,0.0,0.0,0.0,0.0,0.4908950109425655,1.2127439472635089,0.5984573555106424,0.010905690873057889,0.002604615820080568,0.2889629293009207
10311,10.0,299.97099,-7450.1292,0.0,0.10311002880262965,0.0,0.0,0.0,0.0,0.49091096963164055,1.206482466945549,0.5672598104966844,-0.0005050683026788605,-0.013624738397156987,0.29336594681546474
10312,10.0,300.09141,-7391.3626,0.0,0.10312002479004878,0.0,0.0,0.0,0.0,0.4633858178826195,1.222724663398529,0.5606792070597295,-0.006282988881807724,-0.0069551911571489235,0.3023621182258177
10313,10.0,299.92546,-7433.9924,0.0,0.10313002077746836,0.0,0.0,0.0,0.0,0.4804921849483866,1.2077469017453388,0.5715089761160445,-0.0026836893512595175,0.005682437675362934,0.29594212506221373
10314,10.0,299.94067,-7497.6263,0.0,0.10314001676488749,0.0,0.0,0.0,0.0,0.4881041148671255,1.217410369274049,0.5735766750651105,-0.0015426724666499187,0.008647190546686261,0.3034785779810037
10315,10.0,300.13315,-7502.1703,0.0,0.10315001275230684,0.0,0.0,0.0,0.0,0.49452160530298256,1.2239229329667887,0.5620279240028375,-0.006312771747297064,0.008637618474316572,0.30163663115421774
10316,10.0,300.455,-7513.456999999999,0.0,0.1031600087397262,0.0,0.0,0.0,0.0,0.48606201061558557,1.218933790799399,0.5789075155637234,0.0004784247089143425,0.011522459248678188,0.3096675095918037
10317,10.0,300.16328,-7518.0912,0.0,0.1031700377172029,0.0,0.0,0.0,0.0,0.4902714466985245,1.2321133375001188,0.5629271935990885,0.010935310199981091,0.013658480638737086,0.3112825491911957
10318,10.0,299.95857,-7503.3795,0.0,0.10318003370462225,0.0,0.0,0.0,0.0,0.47806352578369654,1.221446752372409,0.5813297608552805,0.008194514174410581,-0.007032536488957314,0.30679040619785575
10319,10.0,299.76921,-7563.9912,0.0,0.10319002969204161,0.0,0.0,0.0,0.0,0.4842071245850226,1.220960392324409,0.5940969654278054,0.007468155201099533,-0.011706041928296388,0.3089737473808347
10320,10.0,299.53837000000004,-7567.5716,0.0,0.10320002567946096,0.0,0.0,0.0,0.0,0.4910154661144535,1.2210739776606188,0.5882634008920774,0.0026047173477405875,-0.0020397704325846684,0.29574162313242575
10321,10.0,299.45485,-7446.8353,0.0,0.10321002166688031,0.0,0.0,0.0,0.0,0.4729258006216426,1.213546340017699,0.5771798228182135,-0.00015344546030388785,0.02128659621457348,0.28791832924282673
10322,10.0,299.44677,-7445.1044,0.0,0.10322001765429945,0.0,0.0,0.0,0.0,0.4903586976646355,1.206331492680649,0.5664356632628474,-0.0020981373873700383,0.016983423351633383,0.2893660711182077
10323,10.0,299.60954,-7598.7566,0.0,0.1032300136417188,0.0,0.0,0.0,0.0,0.5025117308215465,1.225289807351689,0.5820307171419594,-0.0006558504857574034,0.00021298492783997582,0.2866263948353227
10324,10.0,300.57697,-7542.7376,0.0,0.10324000962913815,0.0,0.0,0.0,0.0,0.4885513634612655,1.2205670486355888,0.5836854356152674,-0.0013114311632781786,-0.014625113128136285,0.2979062293210557
10325,10.0,300.43036,-7493.1186,0.0,0.10325003860661486,0.0,0.0,0.0,0.0,0.4725980547442965,1.2209704235003989,0.5841524729838604,0.0023839872982562276,0.0001145150539717559,0.2990793398893327
10326,10.0,300.55942000000005,-7525.3314,0.0,0.10326003459403399,0.0,0.0,0.0,0.0,0.4890751124379556,1.2155751706929288,0.5828625245465525,0.004675542376015106,0.0034262879878982967,0.3005566078726277
10327,10.0,300.66276,-7558.7567,0.0,0.10327003058145356,0.0,0.0,0.0,0.0,0.49471728416229455,1.221277944905749,0.5816780959746585,-0.004575301442297095,0.007341390014213783,0.30001025328620673
10328,10.0,300.33707999999996,-7511.8234,0.0,0.10328002656887292,0.0,0.0,0.0,0.0,0.49310798969096953,1.2225475472810488,0.5677512165301825,-0.0008474559580773913,0.01034288414476319,0.3138531545623947
10329,10.0,299.76081,-7521.456,0.0,0.10329002255629227,0.0,0.0,0.0,0.0,0.48994084345589656,1.2239336734178488,0.5724603166349345,-0.0024801397678207377,0.01897349518403818,0.2948133745833147
10330,10.0,299.81951000000004,-7422.8355,0.0,0.1033000185437114,0.0,0.0,0.0,0.0,0.46486939841403757,1.206804984452379,0.5846822406661444,-0.002176141635718458,-0.004077565230124356,0.29790434467586974
10331,10.0,299.98836,-7468.8889,0.0,0.10331001453113053,0.0,0.0,0.0,0.0,0.48949447638934357,1.201272638906379,0.5795885918834405,-0.00991386209607201,-0.008329490436131702,0.2966376604608577
10332,10.0,299.99273999999997,-7690.6027,0.0,0.10332001051855011,0.0,0.0,0.0,0.0,0.5077043032115135,1.2274020285101488,0.6026448344639144,0.005945528773103005,-0.01803795832695788,0.2953335163896487
10333,10.0,299.75419,-7682.8806,0.0,0.10333003949602682,0.0,0.0,0.0,0.0,0.5233067031538505,1.2317239454866888,0.5803732324958785,0.0006891856034473234,0.005915222158636975,0.29571998011028977
10334,10.0,299.90021,-7461.6156,0.0,0.10334003548344595,0.0,0.0,0.0,0.0,0.48244822373643254,1.2140318894656188,0.5716647126564144,0.007220658326373493,-0.0003457818608485127,0.3032831625667177
10335,10.0,300.13241,-7461.2773,0.0,0.1033500314708653,0.0,0.0,0.0,0.0,0.4827253577712835,1.2220401116309687,0.5632765115710634,-0.016164726390084285,-0.0022557381052740176,0.3139378420057527
10336,10.0,300.22303999999997,-7563.9921,0.0,0.10336002745828488,0.0,0.0,0.0,0.0,0.4663639727090405,1.2357861664625989,0.5971145458156175,0.0001251572704345609,0.0019056028457683579,0.30963285643838373
10337,10.0,300.46119,-7486.8746,0.0,0.10337002344570423,0.0,0.0,0.0,0.0,0.4787340541698725,1.2221877421705387,0.5749011449333254,-0.0005532739902938914,0.01108303598506049,0.31206302534572267
10338,10.0,300.01887,-7520.965,0.0,0.10338001943312336,0.0,0.0,0.0,0.0,0.47763877134177657,1.2247974691280987,0.5837493412990745,0.017178299716866182,0.0005739859977080074,0.30204758512977575
10339,10.0,299.79753999999997,-7587.6793,0.0,0.10339001542054249,0.0,0.0,0.0,0.0,0.5118552443661795,1.2119386160840289,0.5826711621326665,-0.00969320094759445,-0.0002154097771842898,0.30444918038429475
10340,10.0,300.34832,-7616.7083,0.0,0.10340001140796207,0.0,0.0,0.0,0.0,0.5015526490718926,1.2352080059555386,0.5785284890988165,0.003399115153341547,-0.007875546184005893,0.2931294643746257
10341,10.0,299.85265,-7627.5835,0.0,0.10341000739538142,0.0,0.0,0.0,0.0,0.5163785751975974,1.2233656454117887,0.5788507228956185,-0.0059392504728333845,0.007126981632103322,0.30425702763533075
10342,10.0,299.89883,-7652.9426,0.0,0.10342003637285813,0.0,0.0,0.0,0.0,0.49160143877978457,1.2308126283467486,0.6038894095617444,0.008123625981514462,0.006962591935879323,0.28663587885625874
10343,10.0,299.81259,-7569.7883,0.0,0.10343003236027748,0.0,0.0,0.0,0.0,0.5153905144950834,1.2184952561561186,0.5671408549349445,-0.011717271779154688,0.0006295605365427874,0.2972352449723347
10344,10.0,299.77551,-7514.7569,0.0,0.10344002834769683,0.0,0.0,0.0,0.0,0.4817700655770035,1.2134912192122589,0.5890371997284455,0.004188242639872366,-0.015201745654045485,0.29546381022000767
10345,10.0,300.12134,-7505.7388,0.0,0.10345002433511619,0.0,0.0,0.0,0.0,0.5117280713461285,1.213374391475729,0.5564547242128055,0.005338404410609495,0.0035145046826796063,0.3066407694230877
10346,10.0,300.18664,-7511.3512,0.0,0.10346002032253532,0.0,0.0,0.0,0.0,0.4859372389982715,1.2149945783856289,0.5823314193741365,0.022484200077517776,-0.009076558620286591,0.3042122318484097
10347,10.0,299.99147999999997,-7492.7721,0.0,0.10347001630995445,0.0,0.0,0.0,0.0,0.5007964706547635,1.210565966173559,0.5662532174498415,-0.0007892523290756403,-0.002242719057389138,0.3157571832228077
10348,10.0,300.05287000000004,-7508.2163,0.0,0.1034800122973738,0.0,0.0,0.0,0.0,0.4684692024418105,1.2241330810375288,0.5897080320896514,-0.005074703133659205,-0.013102054346322087,0.30863619324252073
10349,10.0,300.05492999999996,-7465.4159,0.0,0.10349000828479338,0.0,0.0,0.0,0.0,0.49214607084103557,1.197394728123659,0.5797591826702764,-0.004694344447520725,0.0013705226932100587,0.28851272201648875
10350,10.0,300.57967,-7415.5374,0.0,0.10350003726227008,0.0,0.0,0.0,0.0,0.4663482571999895,1.2054995130235389,0.5822904739375955,0.0052827463799664754,-0.0009265632102196692,0.2996424637649087
10351,10.0,300.51291000000003,-7540.7514,0.0,0.10351003324968944,0.0,0.0,0.0,0.0,0.5067648886463005,1.218953143876309,0.5664820397199245,-0.002223359597003508,-0.004413311426284926,0.29533956549274576
10352,10.0,299.39599999999996,-7654.7425,0.0,0.10352002923710857,0.0,0.0,0.0,0.0,0.4913998020098846,1.2356710612512387,0.5997797279511504,-0.005241166446212855,-0.008059672269652722,0.3045669605759187
10353,10.0,299.64834,-7522.249,0.0,0.10353002522452814,0.0,0.0,0.0,0.0,0.49075990417423154,1.2258008907021287,0.5700150401686044,-0.01136942605957499,0.005773696957544525,0.29436811195937074
10354,10.0,300.03202999999996,-7485.3329,0.0,0.10354002121194728,0.0,0.0,0.0,0.0,0.4853282756881716,1.221978404699879,0.5680476529794385,0.008158879080318673,0.004153343266678066,0.32093876184918974
10355,10.0,300.01678,-7596.9586,0.0,0.10355001719936663,0.0,0.0,0.0,0.0,0.5050408638661525,1.2179194261242887,0.5863254182208134,0.006509208315033843,0.0034053771402845563,0.29184586901544474
10356,10.0,300.01822999999996,-7498.9741,0.0,0.10356001318678598,0.0,0.0,0.0,0.0,0.4804167484784415,1.222809573756909,0.5762745142513664,-0.0026185945171351577,-0.0007476699736542814,0.3176234885819977
10357,10.0,299.43979,-7463.5404,0.0,0.10357000917420511,0.0,0.0,0.0,0.0,0.48160689178089955,1.209346519678209,0.5777765460671055,-0.008525347931436332,0.014732096126694684,0.28341394618827875
10358,10.0,299.48013,-7486.3014,0.0,0.10358003815168204,0.0,0.0,0.0,0.0,0.4774808461811905,1.212491850638629,0.5856759958342204,-0.009999517395925531,0.003909847412621896,0.2938035594011537
10359,10.0,299.89198999999996,-7509.6879,0.0,0.1035900341391014,0.0,0.0,0.0,0.0,0.4880891187656455,1.2081013366303188,0.5865671492971705,0.003792992419664207,0.001295512801557159,0.2926747683922507
10360,10.0,300.50262999999995,-7596.6651,0.0,0.10360003012652053,0.0,0.0,0.0,0.0,0.5007397894441695,1.2107644618681488,0.5976923010226374,-0.006449051555271834,-0.012257151697436687,0.29826590270905273
10361,10.0,300.52299,-7665.5316,0.0,0.10361002611393988,0.0,0.0,0.0,0.0,0.5160602221486785,1.2272737510474887,0.5867962350122794,0.004735209432003785,0.0008116034711765262,0.3012476951033327
10362,10.0,300.64808999999997,-7535.2032,0.0,0.10362002210135923,0.0,0.0,0.0,0.0,0.5079734629680774,1.2054650625201389,0.5770751338178814,-0.005671113389595314,-0.01007034033551521,0.29435962092353274
10363,10.0,300.35286,-7448.8883,0.0,0.10363001808877859,0.0,0.0,0.0,0.0,0.4894170944792065,1.217857313893159,0.5570016563517834,-0.0008341788860545463,0.0035631822307337067,0.3014754939908147
10364,10.0,300.14566,-7511.1028,0.0,0.10364001407619794,0.0,0.0,0.0,0.0,0.4892800524031815,1.2232223718476487,0.5706853152422554,0.0024903396499523878,0.00988017102362196,0.3043905030710037
10365,10.0,299.51473,-7606.6269999999995,0.0,0.10365001006361707,0.0,0.0,0.0,0.0,0.4928255158280915,1.223856869060269,0.5955422957679484,-0.01082783982812459,0.026655905766483075,0.28414211837264375
10366,10.0,299.32889,-7415.0482,0.0,0.103660039041094,0.0,0.0,0.0,0.0,0.48138751300174853,1.2014613060749988,0.5711406394396924,-0.01216063861216159,0.01133954024787549,0.3134576121208577
10367,10.0,299.65405,-7401.8346,0.0,0.10367003502851335,0.0,0.0,0.0,0.0,0.47765275419315656,1.2065026306225388,0.5658174996418395,-0.011617588234316687,-0.006137874647536064,0.3031293106715337
10368,10.0,299.67803,-7513.3711,0.0,0.10368003101593248,0.0,0.0,0.0,0.0,0.4794020392982976,1.2299021218068886,0.5745729836234384,0.004927905992296456,-0.007824273499795673,0.3200061360596467
10369,10.0,300.31845,-7548.6774,0.0,0.10369002700335184,0.0,0.0,0.0,0.0,0.4753441145028116,1.2429697043715588,0.5762956202509495,-0.0026073431853747375,0.001129018686200469,0.3019054261407457
10370,10.0,300.38826,-7596.6737,0.0,0.10370002299077119,0.0,0.0,0.0,0.0,0.4771391377174665,1.2488240607993388,0.5832359173409034,0.004163370288342656,-0.006909113507526415,0.3174879866461247
10371,10.0,300.1947,-7547.2176,0.0,0.10371001897819054,0.0,0.0,0.0,0.0,0.5063498208753365,1.217700361452669,0.5701155241810215,-0.013987597443468386,-0.01072800936202209,0.28958408200972374
10372,10.0,300.302,-7436.9395,0.0,0.1037200149656099,0.0,0.0,0.0,0.0,0.4783285109498486,1.228026798521809,0.5542886184140274,0.006319208418557314,-0.006949836738320484,0.3186279538036307
10373,10.0,299.71886,-7436.8144,0.0,0.10373001095302903,0.0,0.0,0.0,0.0,0.5030629186109445,1.201649770593599,0.5558931506098824,0.00956883442767043,0.003219059394671427,0.2954213347758157
10374,10.0,300.00023,-7653.5057,0.0,0.10374003993050596,0.0,0.0,0.0,0.0,0.5067793679902295,1.2306284194785688,0.5890668474263715,0.012690172233672487,-0.001079424754755929,0.2958865888242327
10375,10.0,300.40474,-7616.3434,0.0,0.10375003591792531,0.0,0.0,0.0,0.0,0.5099007659832875,1.216323658541799,0.5889537788477125,0.0015572966040182084,-0.0027875245870572574,0.29086722140635973
10376,10.0,300.40629,-7454.2065,0.0,0.10376003190534444,0.0,0.0,0.0,0.0,0.4606679163443836,1.2131373922773387,0.5920873561069724,0.002001807801688048,0.0010641000562684989,0.2927380863909997
10377,10.0,299.84514,-7533.7305,0.0,0.1037700278927638,0.0,0.0,0.0,0.0,0.4921204761435095,1.2215661132341888,0.5763793451067124,0.004788447416107965,0.010636467281737592,0.3054080696164297
10378,10.0,300.32245,-7621.3773,0.0,0.10378002388018315,0.0,0.0,0.0,0.0,0.5006301861808525,1.2183257394143887,0.5977524779460763,-0.0032331876474407774,0.0014149572564704086,0.2969983268339527
10379,10.0,299.43195,-7565.8409,0.0,0.1037900198676025,0.0,0.0,0.0,0.0,0.5037635303925895,1.2322017942338488,0.5638613797937855,-0.004604394588443366,-0.006643067873819753,0.3160397381456937
10380,10.0,299.88961,-7481.0379,0.0,0.10380001585502185,0.0,0.0,0.0,0.0,0.48604381264378954,1.2203098857602088,0.5676950622096405,-0.00894855331660345,0.007341462157620904,0.2990226181487347
10381,10.0,299.87582000000003,-7525.9807,0.0,0.10381001184244099,0.0,0.0,0.0,0.0,0.48541678308440656,1.2272728391223988,0.5750205665901115,0.0027500062663294873,0.01253662026051809,0.29650464098772966
10382,10.0,299.70476,-7529.8916,0.0,0.10382000782986034,0.0,0.0,0.0,0.0,0.48757199644460947,1.2228932682151687,0.5784337704794684,0.01076956984137379,0.0072191885057784335,0.28987530022096475
10383,10.0,300.40217,-7559.8769,0.0,0.10383003680733727,0.0,0.0,0.0,0.0,0.5087404122337695,1.2152648121872989,0.5740085729202355,0.009174479717900651,-0.01163367256640409,0.29756470324234974
10384,10.0,300.74927,-7578.3442,0.0,0.1038400327947564,0.0,0.0,0.0,0.0,0.4921377925877185,1.226179238289469,0.5853104050656395,0.0023820444925144874,-0.006463642660686864,0.3099674417539047
10385,10.0,300.09387999999996,-7528.2262,0.0,0.10385002878217575,0.0,0.0,0.0,0.0,0.48999076628832355,1.2311527764053187,0.5672492625631435,0.01024699724804989,-0.01127718483672149,0.3132608693489407
10386,10.0,299.91474,-7477.1505,0.0,0.1038600247695951,0.0,0.0,0.0,0.0,0.4628356230783196,1.224026183151979,0.5860052919842194,0.001092120170558869,-0.01153943422760349,0.3282628578120217
10387,10.0,300.53589,-7481.0805,0.0,0.10387002075701446,0.0,0.0,0.0,0.0,0.4781061430829025,1.2228158559075288,0.5731396704294814,-0.0005956412801702174,-0.015218770282225683,0.30650386920207673
10388,10.0,300.38937000000004,-7466.9625,0.0,0.10388001674443381,0.0,0.0,0.0,0.0,0.4539606971749326,1.2298866190803588,0.5859228742210854,-0.014103873971943987,-0.004373051250786556,0.3215181585213717
10389,10.0,300.31448,-7311.1734,0.0,0.10389001273185294,0.0,0.0,0.0,0.0,0.4650493921618015,1.1953035825672789,0.5620611383411155,0.0025275939177040975,0.008664756655719903,0.2984375574084937
10390,10.0,299.86206,-7365.7767,0.0,0.1039000087192723,0.0,0.0,0.0,0.0,0.4639844460416996,1.222653229266479,0.5523745180476205,-0.007931887145216313,0.01020136856954669,0.3159527404921077
10391,10.0,299.7051,-7504.0248,0.0,0.10391003769674922,0.0,0.0,0.0,0.0,0.5028273176976925,1.210895272456059,0.5673135330169865,0.0075662597983067025,0.006425086163906634,0.29260551274791574
10392,10.0,299.77115,-7593.3833,0.0,0.10392003368416836,0.0,0.0,0.0,0.0,0.49076768593499953,1.2319816149871188,0.5854496458943814,-0.016692523300923783,-0.0009720361927125031,0.3130321990663727
10393,10.0,300.21075,-7687.6741,0.0,0.10393002967158771,0.0,0.0,0.0,0.0,0.5035603433500365,1.236479533506029,0.5968211491166614,0.008174850333694913,0.0002605988469991038,0.28906538915103275
10394,10.0,299.94728,-7669.6633,0.0,0.10394002565900706,0.0,0.0,0.0,0.0,0.5194303730412865,1.2161470490493689,0.5958087400142444,-0.020034358919487284,-0.003244754302632317,0.29241090793370966
10395,10.0,299.68219,-7581.6604,0.0,0.1039500216464262,0.0,0.0,0.0,0.0,0.5001273506862265,1.218041218786309,0.5864668983322765,0.014721220913371386,-0.01959685981780948,0.28857124734226475
10396,10.0,299.96437000000003,-7508.3746,0.0,0.10396001763384577,0.0,0.0,0.0,0.0,0.5058546151539635,1.199884790244409,0.5766190395503684,0.0034928359239910665,-0.001965157937620988,0.28454508793741373
10397,10.0,300.10033,-7599.9688,0.0,0.1039700136212649,0.0,0.0,0.0,0.0,0.4943499202060385,1.2304248575334789,0.5854259662395445,0.024236608019466976,0.002909886796958467,0.3028564626846057
10398,10.0,300.16393999999997,-7479.4592,0.0,0.10398000960868425,0.0,0.0,0.0,0.0,0.48482312998331756,1.2117047579609488,0.5770409062295034,0.012812747124769687,0.0049338681585348754,0.2943214315272637
10399,10.0,300.04381,-7393.4463,0.0,0.10399003858616096,0.0,0.0,0.0,0.0,0.46252953035561056,1.2134399487571987,0.5714536121305804,0.005936133512875765,-0.020194394680031584,0.3042440276365477
10400,10.0,299.75761,-7399.3632,0.0,0.10400003457358031,0.0,0.0,0.0,0.0,0.47897827784147556,1.2022465749024989,0.5679967776919174,-0.007813371739319752,-0.012360655195151688,0.3001924457866877
10401,10.0,300.19107,-7482.5537,0.0,0.10401003056099989,0.0,0.0,0.0,0.0,0.47862977046958055,1.225773836924459,0.5701058172450635,-0.0049616375947505054,-0.005956871905322484,0.3093938408722947
10402,10.0,300.48811,-7504.3943,0.0,0.10402002654841902,0.0,0.0,0.0,0.0,0.4790896441599665,1.2259310933399787,0.5761277044443774,-0.026763840206885374,0.015434929965808987,0.3076982782874557
10403,10.0,301.50051,-7561.644,0.0,0.10403002253583815,0.0,0.0,0.0,0.0,0.4824534217094455,1.241400889241729,0.5746966204006404,-0.012018602226393688,0.011511517160848288,0.30490770645204773
10404,10.0,301.32756,-7561.0761,0.0,0.10404001852325773,0.0,0.0,0.0,0.0,0.48041418495568855,1.2316823009075788,0.5862818282015114,-0.015173235835981784,0.02366081547789068,0.3222215364757897
10405,10.0,300.2046,-7446.7704,0.0,0.10405001451067686,0.0,0.0,0.0,0.0,0.47907279381080353,1.2132172363852187,0.5713422356795884,0.002020044884937908,0.019326697956896583,0.3019105025237467
10406,10.0,299.93646,-7441.7643,0.0,0.10406001049809621,0.0,0.0,0.0,0.0,0.4713302458216736,1.2224734786987388,0.5683068626200204,0.004115044236748246,-0.0015679818329477585,0.3127635763323617
10407,10.0,300.18729,-7430.9114,0.0,0.10407003947557292,0.0,0.0,0.0,0.0,0.4948407588194805,1.1968722963720988,0.5670984909482635,0.008380167227958112,-0.02880638420896877,0.29137871005683974
10408,10.0,300.04028999999997,-7480.3913,0.0,0.10408003546299227,0.0,0.0,0.0,0.0,0.48613886563567055,1.2186448118708788,0.5690685125876895,0.010526280386362991,-0.02272369389765398,0.2964075817606507
10409,10.0,300.17652000000004,-7550.391,0.0,0.10409003145041185,0.0,0.0,0.0,0.0,0.49248672552465556,1.221165068844609,0.5814785262349624,0.004638040773913985,-0.006367765592499534,0.29545359665899973
10410,10.0,299.75523,-7649.5061,0.0,0.10410002743783098,0.0,0.0,0.0,0.0,0.48328648554416254,1.238112690017209,0.6038596706713094,-0.005567288083648555,-0.0028411678712014373,0.2944123200612337
10411,10.0,299.67206,-7572.1764,0.0,0.10411002342525011,0.0,0.0,0.0,0.0,0.4865607221823045,1.2329710537097687,0.5822207623307155,-0.01771403240248888,-0.009237458379191162,0.3047519091166717
10412,10.0,300.1263,-7510.2018,0.0,0.10412001941266946,0.0,0.0,0.0,0.0,0.49958729851542755,1.2069965900462887,0.5763298681043295,-0.009464012387600302,0.017564051122686882,0.2833716429966038
10413,10.0,300.45035,-7526.4894,0.0,0.10413001540008882,0.0,0.0,0.0,0.0,0.5049922481263546,1.2080382111490888,0.5748343616192344,0.005506118783061615,0.011652585892770687,0.30449610399642574
10414,10.0,300.54251,-7524.5006,0.0,0.10414001138750839,0.0,0.0,0.0,0.0,0.4967910828769625,1.205139201287979,0.5853299709250704,-0.0004571675628139256,0.012210532060335687,0.2707348335794478
10415,10.0,300.39373,-7553.7474,0.0,0.10415004036498487,0.0,0.0,0.0,0.0,0.4889049573486625,1.2188978204208487,0.5883477944929064,-0.006846173653714733,-0.007060276642245054,0.3021602889383987
10416,10.0,300.73564,-7543.0294,0.0,0.10416003635240423,0.0,0.0,0.0,0.0,0.4890819721411325,1.2076438542101688,0.5961667516720774,-0.005181756857074586,-0.004915461558543285,0.2849548462778537
10417,10.0,300.11145,-7548.9857,0.0,0.1041700323398238,0.0,0.0,0.0,0.0,0.4951560315880955,1.218835302889679,0.5807117796192904,-0.0015052675286083385,0.002739602619602727,0.3151024210081877
10418,10.0,300.35456,-7554.9483,0.0,0.10418002832724294,0.0,0.0,0.0,0.0,0.48902826988583253,1.2276065023803289,0.5798808334772825,-0.004499679344933776,-0.007493920529942372,0.3126697392406007
10419,10.0,300.10816,-7544.8673,0.0,0.10419002431466207,0.0,0.0,0.0,0.0,0.4934896911361405,1.2385384577092289,0.5614230744881434,0.014892619260537086,-0.01013406444490429,0.3203842911294677
10420,10.0,300.13145,-7520.3285,0.0,0.10420002030208142,0.0,0.0,0.0,0.0,0.4804019752919836,1.2346748337529188,0.5709153331474565,0.0013077252010374287,-0.005977768162134785,0.3066372331802387
10421,10.0,299.8009,-7376.1092,0.0,0.10421001628950077,0.0,0.0,0.0,0.0,0.4669883576856626,1.2157956539146888,0.5593689936204215,0.00954487298798062,-0.001274949498727719,0.30557872119827173
10422,10.0,300.35803,-7365.5516,0.0,0.10422001227692035,0.0,0.0,0.0,0.0,0.4531915086265196,1.218823447863509,0.5669287715565134,-0.002229212332231128,-0.0034521071203214466,0.3082393335758537
10423,10.0,299.88364,-7470.1964,0.0,0.10423000826433948,0.0,0.0,0.0,0.0,0.4775288337059266,1.2132468232881386,0.5799774570068184,-0.006305417071446214,0.004911862595513095,0.2910875830381077
10424,10.0,300.38875,-7552.3216,0.0,0.10424003724181619,0.0,0.0,0.0,0.0,0.4934018220874685,1.2221317094400088,0.5801836534021685,-0.005792858428860614,0.0075058375670184925,0.3108038493139517
10425,10.0,299.85849,-7671.3677,0.0,0.10425003322923554,0.0,0.0,0.0,0.0,0.5227374389826684,1.219764453231379,0.5894023345344814,-0.008715752925302842,0.01073052931502079,0.29509277829838976
10426,10.0,300.30085,-7753.7072,0.0,0.10426002921665489,0.0,0.0,0.0,0.0,0.5252179056249715,1.2405055814533688,0.5912098612553703,0.004990320070631245,0.0016650043803731387,0.3009313685546137
10427,10.0,300.84276,-7687.1548,0.0,0.10427002520407402,0.0,0.0,0.0,0.0,0.4982799323089005,1.2313509681248789,0.6070722409083654,0.015332860216985487,-0.007084107372671964,0.29541629892281873
10428,10.0,300.13787,-7596.2311,0.0,0.10428002119149338,0.0,0.0,0.0,0.0,0.49729230730392954,1.218994383155379,0.5927778657851204,0.014930757994301085,0.0014253415501202587,0.2910924061085837
10429,10.0,299.64588,-7482.3006,0.0,0.10429001717891273,0.0,0.0,0.0,0.0,0.48318910207705157,1.2154790132584388,0.5757644441510265,0.008021150426025912,-0.005709701195803635,0.2948298094999367
10430,10.0,299.86845,-7397.2373,0.0,0.10430001316633208,0.0,0.0,0.0,0.0,0.4847863895346915,1.2035508304312188,0.5602381798212035,-0.004616846824222306,-0.0014214637406625484,0.2934002048013457
10431,10.0,300.0805,-7503.6782,0.0,0.10431000915375144,0.0,0.0,0.0,0.0,0.4964836121341175,1.2207103221997289,0.5637369222840025,0.002376215568664218,-0.00987479542786643,0.2952409661255147
10432,10.0,299.94012999999995,-7535.4127,0.0,0.10432003813122814,0.0,0.0,0.0,0.0,0.5045713136373116,1.216557820639909,0.5694481672676585,-0.007834607840215592,-0.0013759224043179688,0.2946736169970217
10433,10.0,299.99178,-7554.366999999999,0.0,0.1043300341186475,0.0,0.0,0.0,0.0,0.4792683308151015,1.2290238366202089,0.5880467882856995,-0.004411239228505416,-0.003561500438217727,0.29943728061965874
10434,10.0,299.26547999999997,-7537.5854,0.0,0.10434003010606685,0.0,0.0,0.0,0.0,0.4940143925679245,1.2127833626923987,0.5844400130972385,-0.008052151015485431,-0.00881067652514607,0.30125935761198375
10435,10.0,300.00959,-7605.346,0.0,0.10435002609348598,0.0,0.0,0.0,0.0,0.48389900536211355,1.2277878741482289,0.6001483888675344,0.008686886037903902,0.007692697300110113,0.30275483369957573
10436,10.0,300.30888999999996,-7578.8893,0.0,0.10436002208090533,0.0,0.0,0.0,0.0,0.49934070383859047,1.2301489495312488,0.5743034692293395,-0.004919557622072535,0.016707842629185683,0.31443304772712566
10437,10.0,300.04182000000003,-7505.5254,0.0,0.10437001806832469,0.0,0.0,0.0,0.0,0.4947961555500785,1.2265818025541988,0.5601143505264824,0.0003035272747808097,0.01940513972663818,0.30496338454504274
10438,10.0,300.47071,-7449.5102,0.0,0.10438001405574404,0.0,0.0,0.0,0.0,0.4798917430716276,1.219977438402399,0.5645959151887785,-0.019836314121191783,-0.004197927284328166,0.3207122193918317
10439,10.0,300.79665,-7386.1254,0.0,0.1043900100431634,0.0,0.0,0.0,0.0,0.47103685925521854,1.218898934995959,0.5552618957975826,0.0027720913694841173,0.0005781769521091225,0.3011490957361017
10440,10.0,300.21415,-7442.8509,0.0,0.1044000390206401,0.0,0.0,0.0,0.0,0.47106050851255254,1.223236152049009,0.5681441346539604,0.01195672709578709,-0.008827994083930181,0.3042463986417817
10441,10.0,299.74462,-7544.5023,0.0,0.10441003500805945,0.0,0.0,0.0,0.0,0.48354794459996653,1.2179551938528188,0.5918371542597795,0.0024287970680286074,-0.0012159339625533389,0.29900831105732273
10442,10.0,299.82613,-7546.5738,0.0,0.10442003099547881,0.0,0.0,0.0,0.0,0.49145251128008655,1.2293485832772588,0.5731689432248704,-0.0045512087867193365,-0.008443070706091202,0.30685934773465967
10443,10.0,299.93417,-7512.9801,0.0,0.10443002698289794,0.0,0.0,0.0,0.0,0.49753191055507656,1.2086829421877188,0.5775435492066104,-0.012165211409862887,0.004959789831868146,0.3035142545170247
10444,10.0,299.90268,-7611.4084,0.0,0.10444002297031751,0.0,0.0,0.0,0.0,0.4871296621134546,1.2335436413412788,0.5930048236750194,0.020772512630587377,0.010700807649837489,0.31266634485276573
10445,10.0,299.48601,-7647.7499,0.0,0.10445001895773665,0.0,0.0,0.0,0.0,0.5075840000271405,1.2281673363106789,0.5889736284171715,0.004191717479765306,0.012321054341493387,0.30320639873914174
10446,10.0,299.42686000000003,-7528.0911,0.0,0.104460014945156,0.0,0.0,0.0,0.0,0.49633363085431553,1.205937946341809,0.5860801711666095,-0.0006242096235596934,-0.004940235827463315,0.28839056458443274
10447,10.0,299.96949,-7426.8956,0.0,0.10447001093257535,0.0,0.0,0.0,0.0,0.48368385183587953,1.2079971745200389,0.5659097864609475,-0.010026949723832891,-0.009518043847857791,0.2830600685908537
10448,10.0,300.05158,-7438.5037,0.0,0.10448003991005206,0.0,0.0,0.0,0.0,0.4859376949608165,1.2057558652988387,0.5694258251029535,-0.002260823202225878,-0.0030434049917856874,0.2725979573333237
10449,10.0,299.80886,-7593.6691,0.0,0.10449003589747141,0.0,0.0,0.0,0.0,0.4976745356391525,1.229338957401309,0.5812722791771074,-0.00947362549659904,0.006503760879846224,0.29746611400761974
10450,10.0,299.57097999999996,-7666.7868,0.0,0.10450003188489054,0.0,0.0,0.0,0.0,0.5032398523434065,1.2423312554835488,0.5849405991766424,0.002163124006383718,-0.004152655269860166,0.3059221015246607
10451,10.0,300.19014,-7577.9254,0.0,0.10451002787231012,0.0,0.0,0.0,0.0,0.4990823351955915,1.2147458254860788,0.5896719907835944,-0.006617660120937204,0.011154624131125689,0.3134009613077667
10452,10.0,300.67537000000004,-7484.5763,0.0,0.10452002385972947,0.0,0.0,0.0,0.0,0.47592935762807054,1.2235153024515588,0.5756796249851555,0.02095209297231058,0.014887470936778986,0.3116629840737417
10453,10.0,300.18487000000005,-7484.1694,0.0,0.1045300198471486,0.0,0.0,0.0,0.0,0.4828744271259955,1.2153751551231888,0.5767510153758935,0.0005028557494954985,0.013715407055855288,0.3079097537158267
10454,10.0,300.41386,-7550.863,0.0,0.10454001583456796,0.0,0.0,0.0,0.0,0.49127209196728056,1.226180352864579,0.5778214026490325,-0.007209585630605703,-0.014630851163452587,0.2998907201719097
10455,10.0,300.1533,-7424.4546,0.0,0.10455001182198731,0.0,0.0,0.0,0.0,0.47546806538754455,1.2157121621064488,0.5656685620096404,-0.017804464973913883,-0.0019862177329994283,0.3125794789216927
10456,10.0,299.64662999999996,-7323.4247,0.0,0.10456000780940644,0.0,0.0,0.0,0.0,0.4504581854217616,1.217040836962579,0.5586392610309024,0.00015589104074524785,0.006749265502225644,0.30353238156131374
10457,10.0,299.71474,-7462.5214,0.0,0.10457003678688337,0.0,0.0,0.0,0.0,0.47672899434198857,1.219301600585699,0.5723896019104555,-0.009010900115131601,0.02001142400347378,0.3106125983575767
10458,10.0,299.7013,-7660.3637,0.0,0.1045800327743025,0.0,0.0,0.0,0.0,0.5029823348304916,1.2332737115146388,0.5923031986432745,-0.00873291565947167,-0.021546747164498378,0.3050634936549227
10459,10.0,299.58248,-7741.7565,0.0,0.10459002876172185,0.0,0.0,0.0,0.0,0.5132203556959055,1.2382901101097188,0.6017902491970735,-0.015019870300845785,-0.010994180030791091,0.29245103263766975
10460,10.0,299.51564,-7675.093000000001,0.0,0.10460002474914143,0.0,0.0,0.0,0.0,0.5104327324182886,1.236566774339639,0.5860371080373594,0.00902307542965821,-0.0025500984050751173,0.2911513873969047
10461,10.0,299.85534,-7601.3347,0.0,0.10461002073656056,0.0,0.0,0.0,0.0,0.5003850708491615,1.2292352005910687,0.5809956922973104,0.0030305944707713873,0.011737888378939387,0.29558864263232776
10462,10.0,300.2596,-7549.318,0.0,0.10462001672397991,0.0,0.0,0.0,0.0,0.4977786470869275,1.215672442702529,0.5813531162700855,0.0053642251642328055,-0.011516533762093387,0.3048714827609727
10463,10.0,300.08801,-7505.4242,0.0,0.10463001271139905,0.0,0.0,0.0,0.0,0.4959739270688155,1.2147728792637489,0.5707146893626545,0.0054575132770896245,-0.0041617785737605665,0.3045768194993917
10464,10.0,300.07523,-7448.7195,0.0,0.1046400086988184,0.0,0.0,0.0,0.0,0.49097235232269854,1.2001364815692488,0.5731158691846325,0.011533082162726591,0.016994318829958683,0.3037075218410987
10465,10.0,300.7012,-7455.0985,0.0,0.10465003767629533,0.0,0.0,0.0,0.0,0.48426342076057854,1.2107324431649888,0.5711679566623885,0.005425743022854145,0.0030950889542114973,0.3023439607840257
10466,10.0,300.09076,-7575.4129,0.0,0.10466003366371446,0.0,0.0,0.0,0.0,0.5046831156533456,1.2211387243420089,0.5769145032795284,-0.01174213085710809,-0.014431976513325185,0.2996818386637947
10467,10.0,300.09373,-7734.3856,0.0,0.10467002965113381,0.0,0.0,0.0,0.0,0.5064114062164145,1.2355813886173888,0.6090672999577624,-0.013206745373154288,-0.00897790696935043,0.2869248679172797
10468,10.0,299.79247000000004,-7699.8633,0.0,0.10468002563855316,0.0,0.0,0.0,0.0,0.49184697967651747,1.251335299847179,0.5973838372946945,0.011697260089679688,0.012680295071697687,0.3015727457354127
10469,10.0,298.93487000000005,-7650.4631,0.0,0.10469002162597252,0.0,0.0,0.0,0.0,0.4842471580964735,1.2423696576623386,0.5989329649750814,0.009720450485183772,0.015439051867215784,0.2946869311033357
10470,10.0,299.37369,-7632.9265,0.0,0.10470001761339187,0.0,0.0,0.0,0.0,0.5029147206513186,1.2328329477211388,0.5844713630553324,-0.004071055199556866,-0.014556779541392286,0.3200541945118897
10471,10.0,299.23681,-7587.7108,0.0,0.104710013600811,0.0,0.0,0.0,0.0,0.5022155578173165,1.2319380452328188,0.5723210454086896,0.004354937176098837,-0.018117703136328083,0.3059678598991767
10472,10.0,299.17832000000004,-7414.5706,0.0,0.10472000958823036,0.0,0.0,0.0,0.0,0.4896060757553575,1.2110978211510488,0.5531404337982105,0.008514578906723512,-0.004121631578298366,0.3150087257714407
10473,10.0,299.96077,-7314.8361,0.0,0.10473003856570728,0.0,0.0,0.0,0.0,0.44945896883564657,1.2231766742681387,0.5508918595737935,0.021881903953075776,0.009348762585451031,0.3132444546973207
10474,10.0,300.1257,-7385.2014,0.0,0.10474003455312664,0.0,0.0,0.0,0.0,0.4676526140537196,1.210797899121449,0.5664662532833664,-0.0036898583529356662,-0.007522293863217603,0.30787450274484773
10475,10.0,300.06363999999996,-7586.3242,0.0,0.10475003054054577,0.0,0.0,0.0,0.0,0.4735067880964815,1.2340074059120487,0.5985389018786904,0.0033039636735508267,0.004991148706563025,0.30774696495476067
10476,10.0,300.06276,-7669.5972,0.0,0.10476002652796512,0.0,0.0,0.0,0.0,0.5020781205737525,1.2389885434036487,0.5902993749805124,-0.0007200993168432693,0.017003558657620585,0.30047711840228275
10477,10.0,300.10819,-7657.066999999999,0.0,0.10477002251538448,0.0,0.0,0.0,0.0,0.5078227825457066,1.222608139637029,0.5971262387217714,0.007945348274119822,0.013510411361873786,0.30210104420505174
10478,10.0,300.23702000000003,-7700.4212,0.0,0.10478001850280383,0.0,0.0,0.0,0.0,0.5260632703159025,1.2340665797178887,0.5806059051163415,-0.0072984973136306025,-0.022241308829796278,0.2861864720394057
10479,10.0,300.45697,-7723.7056,0.0,0.10479001449022296,0.0,0.0,0.0,0.0,0.5193943216027285,1.236058021464429,0.5923612882715075,-0.015382395987874286,-0.012303399471750989,0.2953115288624787
10480,10.0,300.22863,-7709.4791,0.0,0.10480001047764231,0.0,0.0,0.0,0.0,0.5101714050849975,1.229787827195609,0.6035298780287613,0.003939536045851936,-0.0011121976199653589,0.2668047809465817
10481,10.0,299.93797,-7489.7255,0.0,0.10481003945511924,0.0,0.0,0.0,0.0,0.46394820208562254,1.2256597449631987,0.5870815358429364,0.0006524024868596124,0.01026723083929679,0.2901576119638267
10482,10.0,299.57596,-7426.2634,0.0,0.1048200354425386,0.0,0.0,0.0,0.0,0.48032102674149457,1.2046651015661887,0.5724125418927194,0.001147513236300739,-0.003583483608412297,0.2876984134411227
10483,10.0,299.2889,-7493.5985,0.0,0.10483003142995773,0.0,0.0,0.0,0.0,0.4996170374058625,1.2088327005524988,0.5694171516820974,-0.004703818133305705,-0.00969306659063119,0.3141439066785897
10484,10.0,299.34756,-7552.1186,0.0,0.10484002741737708,0.0,0.0,0.0,0.0,0.4971881553261505,1.2294584195880989,0.5690089030843064,0.018835402367659484,0.011410726133650989,0.32062433007815766
10485,10.0,299.5057,-7561.4837,0.0,0.10485002340479643,0.0,0.0,0.0,0.0,0.48852565730622854,1.229978824839459,0.5799977625388225,0.014772873363719085,0.0031767209418929474,0.33023649675430466
10486,10.0,300.10242,-7592.3938,0.0,0.10486001939221579,0.0,0.0,0.0,0.0,0.47824803862690657,1.2382999386356888,0.5913502065267214,0.01251853374623309,-0.008811376275665132,0.3184148065125947
10487,10.0,299.99747,-7574.4488,0.0,0.10487001537963514,0.0,0.0,0.0,0.0,0.4751149477276946,1.2434825102471687,0.5838458432385984,-0.014624133315289589,-0.015027472716346088,0.3080205830117647
10488,10.0,300.86792,-7537.7678,0.0,0.10488001136705427,0.0,0.0,0.0,0.0,0.48323127354621354,1.222576222258879,0.5854857175979414,-0.00933029640635356,0.0073276055572033625,0.2902558465610217
10489,10.0,300.36762000000004,-7565.8525,0.0,0.1048900403445312,0.0,0.0,0.0,0.0,0.5023474424503326,1.235541567888459,0.5619412607217844,-0.013190731968573887,0.00994641538998477,0.2958621492318207
10490,10.0,299.95524,-7521.3075,0.0,0.10490003633195055,0.0,0.0,0.0,0.0,0.5036421734281126,1.225511810448599,0.5571356890750114,-0.010258782359962991,-0.0045840937173898255,0.29264903183971075
10491,10.0,299.4569,-7399.2955,0.0,0.10491003231936968,0.0,0.0,0.0,0.0,0.4921213070085915,1.205705912068909,0.5513738829113655,-0.003379581413938716,0.0032310653951063274,0.3126247610686617
10492,10.0,300.02648,-7475.4902,0.0,0.10492002830678904,0.0,0.0,0.0,0.0,0.4844798205844355,1.215110494197069,0.5727720024981955,0.008584090092733731,0.015839708182007486,0.30169415336239475
10493,10.0,300.38021000000003,-7581.4518,0.0,0.10493002429420817,0.0,0.0,0.0,0.0,0.47638482368052154,1.227781591997609,0.6004056125379204,0.014125925333870288,0.01098990512861919,0.3101007550695617
10494,10.0,300.92214,-7603.0531,0.0,0.10494002028162774,0.0,0.0,0.0,0.0,0.4954820549402716,1.2229277187185688,0.5927285509027534,-0.0006550406962774834,-0.016686106388040484,0.29981765470719873
10495,10.0,300.12827999999996,-7606.4819,0.0,0.1049500162690471,0.0,0.0,0.0,0.0,0.4981064841567825,1.2222832916549689,0.5917907271401974,-0.0028145797832773976,-0.02114977300057008,0.3020739498973777
10496,10.0,300.25428999999997,-7580.3738,0.0,0.10496001225646623,0.0,0.0,0.0,0.0,0.5105565819780115,1.2154924894847687,0.5781952412734275,0.02069068964526208,0.005988312954600474,0.2980270593954807
10497,10.0,300.01099999999997,-7528.105,0.0,0.10497000824388558,0.0,0.0,0.0,0.0,0.4905346384119995,1.221606947213219,0.5762143373279275,0.010895431715795389,0.0026983367933801072,0.3067946010532697
10498,10.0,299.98868999999996,-7597.6408,0.0,0.10498003722136251,0.0,0.0,0.0,0.0,0.4956535981822015,1.237972861503409,0.5758666709536154,-0.004037533745173556,-0.008930981026744202,0.3048295747368367
10499,10.0,299.17748,-7634.9072,0.0,0.10499003320878164,0.0,0.0,0.0,0.0,0.4866692108705115,1.2300598848474589,0.6040920190517405,-0.011604398757764988,-0.01046962754677179,0.2884672980145057
10500,10.0,299.61392,-7474.3784,0.0,0.105000029196201,0.0,0.0,0.0,0.0,0.4829647178424066,1.215623097422659,0.5734366236362884,-0.005234942253498576,0.014474513765773286,0.28874903220481074
10501,10.0,299.80716,-7477.4985,0.0,0.10501002518362013,0.0,0.0,0.0,0.0,0.47238927456119156,1.2275802592027387,0.5730033274960254,0.003490215557907457,0.002307163790249338,0.2861350090668267
10502,10.0,300.26942,-7646.1954,0.0,0.1050200211710397,0.0,0.0,0.0,0.0,0.5102358173938546,1.2377374835051789,0.5762791954668284,-0.02203665460109848,0.002741695183709247,0.3182286319392207
10503,10.0,299.95249,-7656.7159,0.0,0.10503001715845905,0.0,0.0,0.0,0.0,0.5012112749807015,1.2393856361178388,0.5868535444379355,-0.0025015281602066074,-0.0009882647102891333,0.3228212488124767
10504,10.0,300.50513,-7468.8743,0.0,0.10504001314587819,0.0,0.0,0.0,0.0,0.4828196710905915,1.2162290209824589,0.5713026074681774,-0.0025964332175730078,0.00903807538148859,0.34014260728446166
10505,10.0,299.97709,-7418.8006,0.0,0.10505000913329754,0.0,0.0,0.0,0.0,0.4528137689892396,1.2260984822564989,0.5762179242332814,0.017733148378875484,0.008710035864263612,0.3149227515004557
10506,10.0,300.39633,-7398.6779,0.0,0.10506003811077425,0.0,0.0,0.0,0.0,0.47772710648549455,1.2111702685331989,0.5601159919916444,-0.0056456957068617844,-0.009173263919105662,0.3029367323575277
10507,10.0,299.9336,-7497.9966,0.0,0.1050700340981936,0.0,0.0,0.0,0.0,0.47484098516565654,1.216899792548659,0.5874629535780795,0.011964234265777989,-0.00990242989916874,0.28834881868031276
10508,10.0,299.94506,-7565.2252,0.0,0.10508003008561295,0.0,0.0,0.0,0.0,0.5088535314749335,1.2174904160319489,0.5732956501498755,0.006461707656970894,0.0024693436893302475,0.28415115656353573
10509,10.0,299.95145,-7576.1152,0.0,0.10509002607303208,0.0,0.0,0.0,0.0,0.4867031344838595,1.228124070531409,0.5881226300556844,0.026617829854225273,-0.0024468659517618676,0.2903199751598507
10510,10.0,299.88191,-7583.1318,0.0,0.10510002206045166,0.0,0.0,0.0,0.0,0.5061314452137845,1.2305935636751288,0.5683576973775375,-0.002914136367877867,-0.010316758504184792,0.3084237146965507
10511,10.0,299.60155,-7704.3428,0.0,0.10511001804787101,0.0,0.0,0.0,0.0,0.5074243219438815,1.2226872744698387,0.6118162474790624,-0.007234917795030793,-0.023603559754489977,0.3000296164956177
10512,10.0,299.85174,-7632.5699,0.0,0.10512001403529014,0.0,0.0,0.0,0.0,0.5154408527600515,1.223652597840109,0.5810171934644325,-0.005898395519526313,0.005993817942393774,0.29525654991205275
10513,10.0,299.85356,-7465.6017,0.0,0.1051300100227095,0.0,0.0,0.0,0.0,0.47446760250380654,1.213832887145979,0.5810560110757634,-0.0015492084364199686,0.011377518888123689,0.29240955017857573
10514,10.0,299.74195,-7473.6354,0.0,0.1051400390001862,0.0,0.0,0.0,0.0,0.48489680339808855,1.220036510883229,0.5668652610402455,0.0014885407959575386,0.013248677715292687,0.3056110033464577
10515,10.0,300.15415,-7567.052,0.0,0.10515003498760556,0.0,0.0,0.0,0.0,0.49116302572651654,1.2225340710547188,0.5864977517978214,-0.005426755158379035,0.014425180644904487,0.3104965305586217
10516,10.0,299.9012,-7617.3758,0.0,0.10516003097502491,0.0,0.0,0.0,0.0,0.49098238349868856,1.2306551692812089,0.5938544237513684,0.0027455152379112576,0.03251537404101757,0.3184301268541067
10517,10.0,299.72857999999997,-7653.8175,0.0,0.10517002696244426,0.0,0.0,0.0,0.0,0.49883555813373653,1.2450138351232989,0.5827200413174904,0.006040514687827385,0.002397136954078998,0.3053274655709747
10518,10.0,300.34472999999997,-7558.9765,0.0,0.10518002294986362,0.0,0.0,0.0,0.0,0.48602501685443456,1.240395035867459,0.5713200455023985,-0.0004770086817670915,-0.016180211891362584,0.3104604993850657
10519,10.0,300.22721,-7515.3978,0.0,0.10519001893728275,0.0,0.0,0.0,0.0,0.4804880407554776,1.2270515453005588,0.5769537059258975,-0.004029563925186996,-0.03668040950457457,0.2850917566313657
10520,10.0,299.74979,-7635.7546,0.0,0.1052000149247021,0.0,0.0,0.0,0.0,0.4916202345691396,1.2423935703646987,0.5870649084087954,0.0013857297533608787,-0.013152464552047188,0.2993772860812377
10521,10.0,299.74029,-7684.7844,0.0,0.10521001091212145,0.0,0.0,0.0,0.0,0.4929902500293496,1.233259424688229,0.6097329242134545,0.003079841262731667,-0.004825029595068345,0.2987776649370597
10522,10.0,299.08099,-7569.4472,0.0,0.10522003988959816,0.0,0.0,0.0,0.0,0.48359801941990854,1.234677873503219,0.5826470670452885,-0.0026365811249602976,0.012308573126761589,0.3154514958001387
10523,10.0,299.33808,-7509.2028,0.0,0.10523003587701751,0.0,0.0,0.0,0.0,0.48758849215623756,1.216772123036059,0.5782495008162825,-0.0038100546394231162,0.015206268802491884,0.31219250857600167
10524,10.0,300.0823,-7629.6295,0.0,0.10524003186443687,0.0,0.0,0.0,0.0,0.5192694081304006,1.2146834092799188,0.5852639880785584,-0.0007597854152324822,0.028255649342365477,0.30376781022204874
10525,10.0,300.13658,-7676.6581,0.0,0.10525002785185622,0.0,0.0,0.0,0.0,0.5114974961533725,1.2224177499432387,0.5995970693556234,-0.0012575084247564187,0.014349511127436487,0.29477869103239174
10526,10.0,299.78291,-7542.8084,0.0,0.10526002383927557,0.0,0.0,0.0,0.0,0.4936988158242795,1.2182594728578489,0.5808671817871275,-0.014836195415468486,0.0006035261290033915,0.29713934085036975
10527,10.0,300.43362,-7533.3024,0.0,0.1052700198266947,0.0,0.0,0.0,0.0,0.4756430435473135,1.2225297140792886,0.5917630248824635,-0.00899331343712093,-0.006447922389360394,0.3000210747972747
10528,10.0,300.302,-7679.5298,0.0,0.10528001581411406,0.0,0.0,0.0,0.0,0.5048711343419016,1.2386586291710886,0.5908555074303984,-0.0025039106151667377,0.008580377139067293,0.29983970302937474
10529,10.0,300.32871,-7745.3424,0.0,0.10529001180153341,0.0,0.0,0.0,0.0,0.5182303809478566,1.2379017313463887,0.5982586267685295,0.005196768359956105,-0.0015859888070999084,0.30281659129317073
10530,10.0,299.40965,-7695.7105,0.0,0.10530004077901012,0.0,0.0,0.0,0.0,0.5168743483390265,1.2492633047176886,0.5731661365220935,0.00940677429475134,-0.00956863887040113,0.3048164632805427
10531,10.0,300.05407,-7501.1905,0.0,0.10531003676642925,0.0,0.0,0.0,0.0,0.49080597665627856,1.225262145623959,0.5641064849929754,0.014243778479501487,-0.008840485329837972,0.2980030858981147
10532,10.0,299.97078,-7459.0345,0.0,0.10532003275384882,0.0,0.0,0.0,0.0,0.49029490343833954,1.206202404617909,0.5708629582497874,0.02011640684633478,0.008032788717999523,0.3024461571891117
10533,10.0,300.0018,-7561.7434,0.0,0.10533002874126818,0.0,0.0,0.0,0.0,0.47576534283438354,1.2286014126535187,0.5942143909818944,0.009394628668452662,0.0016327822165930583,0.3085228004238297
10534,10.0,300.11572,-7616.4841,0.0,0.10534002472868753,0.0,0.0,0.0,0.0,0.48996173667295856,1.2344801884087089,0.5907790678428544,-0.017791501452134484,0.002191336942168118,0.3238955877610057
10535,10.0,300.03018,-7557.1057,0.0,0.10535002071610666,0.0,0.0,0.0,0.0,0.47779782120997355,1.234187055154779,0.5851865960359204,-0.008835259796422251,-0.0024183721430497476,0.3130973510478027
10536,10.0,299.42806,-7505.3324,0.0,0.10536001670352602,0.0,0.0,0.0,0.0,0.5016157644206215,1.2239482642192887,0.5558696533400634,-0.013796204632079387,0.002155129361769708,0.3189957534574297
10537,10.0,300.11787000000004,-7531.4363,0.0,0.10537001269094537,0.0,0.0,0.0,0.0,0.49953125565239653,1.206425218314899,0.5834121215332934,0.01173222836388079,0.004651632004130336,0.2956046823814107
10538,10.0,300.15159,-7600.3036,0.0,0.10538000867836472,0.0,0.0,0.0,0.0,0.4972716066043865,1.243356259284709,0.5696746691950124,-0.007144993976481003,-0.0009008284713973482,0.2998913686519737
10539,10.0,300.41053,-7548.1476,0.0,0.10539003765584143,0.0,0.0,0.0,0.0,0.46453008122054956,1.2401460803178888,0.5897722721459914,0.0063823399792879145,0.004193863239502076,0.3021432562042177
10540,10.0,300.67186,-7495.6443,0.0,0.10540003364326078,0.0,0.0,0.0,0.0,0.4845892515952356,1.215201281406029,0.5786981780930635,-0.006698927743882694,0.005338023935196944,0.2982315636631637
10541,10.0,300.49217000000004,-7523.7047,0.0,0.10541002963068014,0.0,0.0,0.0,0.0,0.47916560751996357,1.2313769073274388,0.5764758774437394,0.0026660461338932676,0.006107177323831474,0.3135735380647987
10542,10.0,299.90096,-7689.3398,0.0,0.10542002561809949,0.0,0.0,0.0,0.0,0.5255184356046315,1.236127125121249,0.5757217863218165,-0.003239153056079517,-0.0034164571314530667,0.2999374310015197
10543,10.0,300.50698,-7720.9612,0.0,0.10543002160551862,0.0,0.0,0.0,0.0,0.5188612912551226,1.2345909366446388,0.5935272047640745,0.0008262368493857283,-0.0026459326127832175,0.3062423189537637
10544,10.0,300.42521,-7604.1401,0.0,0.10544001759293775,0.0,0.0,0.0,0.0,0.5120270713181375,1.2164825361574787,0.5829590670160805,0.002814215114566407,0.0014900756672090185,0.2923795275781127
10545,10.0,299.81433,-7536.5904,0.0,0.10545001358035733,0.0,0.0,0.0,0.0,0.4826755159988645,1.216894219673109,0.5913656079282414,0.008520793980186892,0.0019238273647169783,0.3037057283884217
10546,10.0,299.5821,-7512.7443,0.0,0.10546000956777668,0.0,0.0,0.0,0.0,0.4803501880793725,1.2199490673995987,0.5833873779658515,0.013404247069396186,-0.007966594406191652,0.30120538177915673
10547,10.0,299.61876,-7579.0401,0.0,0.10547003854525339,0.0,0.0,0.0,0.0,0.48225069062943754,1.2401400008172887,0.5814482097919704,0.004927788860584896,-0.006072916602175204,0.30168232873372774
10548,10.0,299.84181,-7524.7182,0.0,0.10548003453267274,0.0,0.0,0.0,0.0,0.5069547919800425,1.2055142051499887,0.5748574535890134,0.0038375991341165466,-0.0024963499455705578,0.3049520361439227
10549,10.0,300.08342000000005,-7487.7178,0.0,0.10549003052009209,0.0,0.0,0.0,0.0,0.4922299578168145,1.2278201968264189,0.5560291389058034,0.003849459023887027,-0.0027846531375988674,0.3082072338126857
10550,10.0,300.16282,-7487.4008,0.0,0.10550002650751145,0.0,0.0,0.0,0.0,0.4847244799535815,1.217118857220279,0.5741396064231674,0.00013569811122486088,-0.005746704785480604,0.3115182108994537
10551,10.0,300.28609,-7581.4021,0.0,0.1055100224949308,0.0,0.0,0.0,0.0,0.4723095621758246,1.2418353708846088,0.5904120483916324,-0.026179020620168178,0.007657276609739363,0.3000722945898297
10552,10.0,300.48311,-7650.1286,0.0,0.10552001848234993,0.0,0.0,0.0,0.0,0.4858732218569535,1.2460652847520688,0.5935096046098375,-0.008118211882255132,0.009475708333504602,0.3108968960706347
10553,10.0,299.70679,-7633.0755,0.0,0.10553001446976928,0.0,0.0,0.0,0.0,0.4919949141911175,1.2250222080002788,0.6032472015158634,-0.009367804999880372,0.0055838793447609844,0.2956091508143517
10554,10.0,299.99357000000003,-7450.0597,0.0,0.10554001045718864,0.0,0.0,0.0,0.0,0.49667889582589053,1.2185978983912489,0.5493553164596485,0.01836088923982868,0.00909413202472095,0.31433721453266766
10555,10.0,299.99372,-7402.6556,0.0,0.10555003943466534,0.0,0.0,0.0,0.0,0.4866115974698256,1.200024112133159,0.5635867687516835,0.011757697418394388,0.00837051804725581,0.3014581066190987
10556,10.0,299.09963999999997,-7553.4455,0.0,0.1055600354220847,0.0,0.0,0.0,0.0,0.5056487328661445,1.2156110397464688,0.5747990295882475,0.017433750199577182,0.01048191421748439,0.2883826004386467
10557,10.0,299.56815,-7613.6236,0.0,0.10557003140950383,0.0,0.0,0.0,0.0,0.49691985683217155,1.232699907983009,0.5847316771385234,-0.006176659632213844,-0.0033300382463241868,0.30608766659100073
10558,10.0,300.56387,-7563.9866,0.0,0.1055800273969234,0.0,0.0,0.0,0.0,0.49341631156389854,1.231898933778959,0.5739478285767404,-0.014043404219226088,-0.023143368916822678,0.2932848564099617
10559,10.0,300.08824,-7520.2547,0.0,0.10559002338434254,0.0,0.0,0.0,0.0,0.48070139069653356,1.2367134929541188,0.5685547542569854,-0.014701672279192087,-0.016384282488002784,0.3069581092219067
10560,10.0,300.3444,-7655.811,0.0,0.10560001937176189,0.0,0.0,0.0,0.0,0.5150180437583235,1.2277229248168187,0.5844343895591834,0.0053638925142249745,-0.017483374123224683,0.2844126966793477
10561,10.0,300.14893,-7744.2,0.0,0.10561001535918124,0.0,0.0,0.0,0.0,0.5194358141943235,1.2380420664852387,0.5965655365139344,0.013469569276842988,-0.00022107135264804378,0.30678671796749174
10562,10.0,300.15396,-7586.2548,0.0,0.10562001134660037,0.0,0.0,0.0,0.0,0.49887552071768054,1.227952729939499,0.5792037898929635,0.008202019317901283,-0.008059945847179723,0.29382770515103673
10563,10.0,300.45092999999997,-7274.1578,0.0,0.1056300403240773,0.0,0.0,0.0,0.0,0.4479764623493346,1.1939642685850989,0.5692215944127975,0.01166268799626769,0.012679755009394387,0.31422725663181567
10564,10.0,299.74077,-7296.5686,0.0,0.10564003631149665,0.0,0.0,0.0,0.0,0.46067013536210255,1.2019959981527688,0.5553085053021826,0.0017951966830721184,0.01172143218406529,0.2987478145891137
10565,10.0,299.44558,-7558.4342,0.0,0.10565003229891579,0.0,0.0,0.0,0.0,0.4833771308981086,1.2329591986835988,0.5812389027188135,-0.006622733058887864,0.01936541019021718,0.3047763183115807
10566,10.0,299.71809,-7625.765,0.0,0.10566002828633514,0.0,0.0,0.0,0.0,0.5147325098801435,1.2294577103130289,0.5738519751172805,-0.014672392391052386,-0.0015336422804337086,0.3132529457331587
10567,10.0,300.04152,-7518.5191,0.0,0.10567002427375449,0.0,0.0,0.0,0.0,0.4981721427632625,1.2159147108014388,0.5713552255458705,-0.010938109810007389,0.00012980809852606188,0.3046875170728167
10568,10.0,299.88773,-7538.5156,0.0,0.10568002026117385,0.0,0.0,0.0,0.0,0.4949946613771696,1.2341405469751887,0.5623853479756125,0.007575096960378862,0.004476992472544756,0.3179598369526927
10569,10.0,299.64099,-7662.9714,0.0,0.1056900162485932,0.0,0.0,0.0,0.0,0.5142270500677585,1.2205911639879687,0.5945337674134145,0.0004647289720826786,-0.0005053549308671486,0.3069068185018447
10570,10.0,300.1297,-7795.5235,0.0,0.10570001223601233,0.0,0.0,0.0,0.0,0.5141617359663125,1.2626017290340887,0.5928809842477974,0.011621199457673089,-0.013431210667807288,0.31328226919105273
10571,10.0,300.99377999999996,-7555.0486,0.0,0.1057100082234319,0.0,0.0,0.0,0.0,0.49290303959324255,1.2094476420381888,0.5941954026750204,0.004830332236816675,-0.008908052494206332,0.2866887299814747
10572,10.0,300.41212,-7403.6247,0.0,0.10572003720090861,0.0,0.0,0.0,0.0,0.47785066220268857,1.198195398352679,0.5744710202658755,0.016301234483306584,-0.007474522464727932,0.2888139916687217
10573,10.0,299.80708,-7494.5662,0.0,0.10573003318832774,0.0,0.0,0.0,0.0,0.4752491628359406,1.2230721068578188,0.5798397563182285,0.013632653906938186,0.0013346172639914688,0.28120263930253975
10574,10.0,300.22041,-7598.1886,0.0,0.1057400291757471,0.0,0.0,0.0,0.0,0.49686095660385854,1.2165951082435886,0.5962035529157095,-0.003106311104369037,-0.01082777599336829,0.3029948827807667
10575,10.0,300.04229,-7626.9901,0.0,0.10575002516316667,0.0,0.0,0.0,0.0,0.5057996058060346,1.2304694405378789,0.5821455082457885,-0.010388038622219589,-0.0007787923456433202,0.3031687970279307
10576,10.0,300.04939,-7556.1145,0.0,0.1057600211505858,0.0,0.0,0.0,0.0,0.5089893373858365,1.224284865902509,0.5635959285325874,-0.012600552288827688,-0.01206527353924979,0.3203925288527807
10577,10.0,300.20062,-7559.8765,0.0,0.10577001713800516,0.0,0.0,0.0,0.0,0.5002705431903585,1.2201935646487287,0.5775495577797035,0.0017599980971232882,0.012580868892385088,0.3056345411462807
10578,10.0,300.21426,-7656.6559,0.0,0.10578001312542429,0.0,0.0,0.0,0.0,0.5129432216610544,1.2307563929661989,0.5837326125399235,0.015430248750346985,-0.007622995015131032,0.3140269269545447
10579,10.0,299.60292999999996,-7698.7515,0.0,0.10579000911284364,0.0,0.0,0.0,0.0,0.5027211898822185,1.2328209913699588,0.6046859862603604,0.0036280610399367468,0.001063719783505969,0.2915263405964097
10580,10.0,299.2571,-7491.4054,0.0,0.10580003809032057,0.0,0.0,0.0,0.0,0.4859731891118195,1.210381757305379,0.5808451942599574,0.007537157836884562,-0.0018181570316631284,0.2983206182144527
10581,10.0,299.44006,-7492.1791,0.0,0.1058100340777397,0.0,0.0,0.0,0.0,0.4719868825489785,1.2311803368080387,0.5742681068008495,-0.009531652505975862,0.00011122805038235389,0.2928473856792867
10582,10.0,299.77317,-7525.6778,0.0,0.10582003006515905,0.0,0.0,0.0,0.0,0.4877009933148405,1.225850945257069,0.5740662065859234,-0.005793004944825074,-0.013311029073446288,0.3104477830963107
10583,10.0,300.06062000000003,-7606.5179,0.0,0.10583002605257841,0.0,0.0,0.0,0.0,0.48832603690402754,1.231239510613879,0.5926259998601324,-0.01010944753372479,-0.011511040933301289,0.3105289444293207
10584,10.0,299.98562000000004,-7610.0665,0.0,0.10584002203999776,0.0,0.0,0.0,0.0,0.49230003419373053,1.2348090893911687,0.5861610487895915,0.02129825467022408,-0.01237114638668709,0.30371372293171073
10585,10.0,299.80458,-7490.1153,0.0,0.10585001802741711,0.0,0.0,0.0,0.0,0.47528190094667155,1.2189305483990789,0.5825955939402085,0.014076631729755385,-0.0038190010298560567,0.3022274471550267
10586,10.0,300.01097999999996,-7480.1094,0.0,0.10586001401483625,0.0,0.0,0.0,0.0,0.48469688915335857,1.2219050453926388,0.5671645345897814,0.03394093384520937,-0.0044657861290887755,0.3123578304623177
10587,10.0,299.98118,-7563.0677,0.0,0.1058700100022556,0.0,0.0,0.0,0.0,0.5139497437803905,1.212675248906729,0.5723587079149065,-1.6127416494902084e-05,-0.0010208734897773689,0.3125831367545537
10588,10.0,300.92736,-7625.5177,0.0,0.10588003897973253,0.0,0.0,0.0,0.0,0.5259304636252955,1.215377586923429,0.5766588602792985,-0.0018277411617090083,0.0051310061993158846,0.31243584058751667
10589,10.0,300.20878999999996,-7625.4029,0.0,0.10589003496715166,0.0,0.0,0.0,0.0,0.5022838711390585,1.2388681692917687,0.5767800145937555,-0.02340432033432658,0.011401935175783388,0.3158555698075177
10590,10.0,300.48978999999997,-7553.8741,0.0,0.10590003095457101,0.0,0.0,0.0,0.0,0.48261684881807454,1.2242578121248386,0.5893144654858095,-0.008414096312856651,-0.0030384073383174573,0.2904073679809757
10591,10.0,300.084,-7543.909000000001,0.0,0.10591002694199037,0.0,0.0,0.0,0.0,0.4714850603044526,1.2239110779406188,0.5977638567446995,-0.0016877753525204582,0.005141686564644955,0.28178320121233674
10592,10.0,299.70826,-7640.7267,0.0,0.10592002292940972,0.0,0.0,0.0,0.0,0.4922008876714455,1.215779847213129,0.6146094132347264,0.0004745776110671636,-0.0034465940265273466,0.26620896962277973
10593,10.0,299.36989,-7661.4239,0.0,0.10593001891682907,0.0,0.0,0.0,0.0,0.5038393012350675,1.2292368217912288,0.5958054773489225,0.011706872793378387,0.0007969597983463083,0.29371342067225775
10594,10.0,299.97944,-7591.1611,0.0,0.1059400149042482,0.0,0.0,0.0,0.0,0.4966975801577346,1.2356230331964988,0.5752028502831015,0.0026282021545833575,-0.008006997247304101,0.3020306537206047
10595,10.0,299.66769,-7590.6103,0.0,0.10595001089166756,0.0,0.0,0.0,0.0,0.5085376304912564,1.2279124025855188,0.5709059301865285,0.01126571991183999,-0.008303316260873512,0.3323287771507967
10596,10.0,299.42737,-7611.9169999999995,0.0,0.10596003986914448,0.0,0.0,0.0,0.0,0.5041929660499715,1.2211679059448888,0.5884718264376474,0.01140144577598509,-0.00925361627323582,0.3098119787910617
10597,10.0,300.39191,-7529.3332,0.0,0.10597003585656362,0.0,0.0,0.0,0.0,0.4891822433710285,1.2267089654417487,0.5728380562722144,-0.0023534392262913677,-0.006082544909925444,0.3187402523122137
10598,10.0,300.28448,-7499.8766,0.0,0.10598003184398319,0.0,0.0,0.0,0.0,0.47459591036396953,1.2287458007927687,0.5764335235895595,-0.0065929096633945234,-0.01320457499144009,0.2921177848122807
10599,10.0,300.40038,-7414.8016,0.0,0.10599002783140232,0.0,0.0,0.0,0.0,0.4845655212778935,1.2080690139521288,0.5612800643690294,-0.009046250384620402,-0.002384914422097728,0.30532805325603274
10600,10.0,300.1132,-7443.4855,0.0,0.10600002381882168,0.0,0.0,0.0,0.0,0.48039892540918255,1.2117621079166088,0.5704726948412715,-0.004628773588499386,0.0002470675707911708,0.2982046416080067
10601,10.0,300.3306,-7608.3656,0.0,0.10601001980624103,0.0,0.0,0.0,0.0,0.5035694727334374,1.242182611693879,0.5670010770836494,0.0017090913988491885,-0.0019525043690471783,0.31239640489362475
10602,10.0,299.74849,-7679.3421,0.0,0.10602001579366016,0.0,0.0,0.0,0.0,0.48318580901422653,1.254078167867879,0.5970642784781565,0.007606708336998663,5.0785253156864255e-05,0.3102938602736197
10603,10.0,300.02051,-7573.1192,0.0,0.10603001178107951,0.0,0.0,0.0,0.0,0.4879091148853805,1.2312098223859487,0.5829202088747454,0.02018301993440898,-0.0021800620016803676,0.2974066666242527
10604,10.0,299.50375,-7491.1319,0.0,0.10604004075855622,0.0,0.0,0.0,0.0,0.47175858716894753,1.211462388537029,0.5938960581979774,0.013242945759476987,0.008441938703079481,0.2964198218218587
10605,10.0,299.6675,-7547.8553,0.0,0.1060500367459758,0.0,0.0,0.0,0.0,0.5033667315209285,1.2197243285274189,0.5712684913373105,-0.003364183052169017,-0.00012147180624333387,0.3066179105008317
10606,10.0,299.89934,-7607.1328,0.0,0.10606003273339515,0.0,0.0,0.0,0.0,0.5073066329447665,1.231408014105509,0.5736637943087084,-0.02665114957051368,-0.003924767216369366,0.31420753878486973
10607,10.0,299.94965,-7595.1371,0.0,0.10607002872081428,0.0,0.0,0.0,0.0,0.5240819306728595,1.222774312653429,0.5618758351628275,-0.017518759856466986,8.974283181692791e-05,0.3190974432374657
10608,10.0,300.41868999999997,-7528.3421,0.0,0.10608002470823341,0.0,0.0,0.0,0.0,0.5022903559396985,1.208793791748659,0.5773438173468984,-0.004668271799922556,0.0007224758240253123,0.3009335065123247
10609,10.0,300.2624,-7498.4044,0.0,0.10609002069565299,0.0,0.0,0.0,0.0,0.48668186636426053,1.2118729574775489,0.5807728684678194,0.011570233990893188,-0.011887928427247188,0.2973334491720267
10610,10.0,300.04292999999996,-7614.5744,0.0,0.10610001668307212,0.0,0.0,0.0,0.0,0.48253490728248755,1.2398237654610789,0.5922817684036594,0.008328479415181923,-0.007818699408345554,0.2926080053431617
10611,10.0,299.77719,-7631.7203,0.0,0.1061100126704917,0.0,0.0,0.0,0.0,0.49030465090430153,1.234796018464879,0.5947517884374314,0.004762095922082276,-0.010824460639041092,0.2984877234209447
10612,10.0,299.96718,-7520.7665,0.0,0.10612000865791082,0.0,0.0,0.0,0.0,0.4960309629169445,1.2165884207929287,0.5735058387506194,-0.010253485088440189,0.004333507848408926,0.30277400439146773
10613,10.0,300.31986,-7554.3942,0.0,0.10613003763538775,0.0,0.0,0.0,0.0,0.4755358011567295,1.246364294856579,0.5744471075635155,-0.007243698924372424,0.0008948359887159361,0.3292996558443457
10614,10.0,300.36508,-7544.651999999999,0.0,0.1061400336228071,0.0,0.0,0.0,0.0,0.48656954759067556,1.241235526825409,0.5655807132259705,-0.009561426961489372,0.013262962515202488,0.3148126618770907
10615,10.0,300.06277,-7524.1081,0.0,0.10615002961022624,0.0,0.0,0.0,0.0,0.4888954834602275,1.2221109378129589,0.5761346148100593,-0.01051582972483159,0.009213489948075661,0.31506921680241073
10616,10.0,299.91132000000005,-7518.3938,0.0,0.10616002559764537,0.0,0.0,0.0,0.0,0.49337473791229547,1.2089262235367289,0.5831030397227895,0.0005519752671107176,0.005851132367286805,0.29509321399593275
10617,10.0,299.98076000000003,-7475.1877,0.0,0.10617002158506472,0.0,0.0,0.0,0.0,0.49013458700751755,1.2228331824842387,0.5593026662688755,-0.006308475364223045,-0.009566577919697731,0.3104983442763007
10618,10.0,299.67655,-7544.4272,0.0,0.1061800175724843,0.0,0.0,0.0,0.0,0.4974589970778805,1.224086775507959,0.5717717523969784,0.005148511108043485,0.002090446211160978,0.3113773184730487
10619,10.0,299.64628999999996,-7614.2822,0.0,0.10619001355990365,0.0,0.0,0.0,0.0,0.4921211246235735,1.2449383479908487,0.5774921976915425,0.004785625818554495,-0.007374289535685713,0.3185555976139897
10620,10.0,299.39857,-7639.8261,0.0,0.10620000954732278,0.0,0.0,0.0,0.0,0.5030384587535306,1.2212563626786188,0.5980215971726365,0.004999610966098186,0.006995084029486044,0.3102277862345987
10621,10.0,299.88621,-7590.0391,0.0,0.10621003852479949,0.0,0.0,0.0,0.0,0.48718802531921457,1.229189705661579,0.5908046726728814,-0.0006709778031253534,-0.012528626730479189,0.3072444233026637
10622,10.0,299.97725,-7540.5117,0.0,0.10622003451221906,0.0,0.0,0.0,0.0,0.48485716505417653,1.232923329630059,0.5743468262011184,-0.007920430731635652,0.006822789665256915,0.2945638921436927
10623,10.0,300.40783999999996,-7523.5221,0.0,0.1062300304996382,0.0,0.0,0.0,0.0,0.49189858450411056,1.2172342664066689,0.5778300152748824,-0.006743543881560963,0.005341244753289814,0.28079077340189174
10624,10.0,300.2688,-7619.0054,0.0,0.10624002648705733,0.0,0.0,0.0,0.0,0.5108054058050685,1.2237383187985689,0.5814436704315225,-0.020879976922943282,0.017052155145666683,0.29452640188999274
10625,10.0,300.18293,-7731.8249,0.0,0.10625002247447668,0.0,0.0,0.0,0.0,0.5117335023666646,1.2415892524353187,0.5969589308652594,-0.011236010405657889,0.0035044667179139365,0.3078742392998217
10626,10.0,300.27885,-7699.1722,0.0,0.10626001846189603,0.0,0.0,0.0,0.0,0.5075986820210896,1.2435240535012688,0.5892333548153045,-0.0016073823670612886,0.015157853686213685,0.3155058668005047
10627,10.0,300.39763999999997,-7610.8642,0.0,0.10627001444931561,0.0,0.0,0.0,0.0,0.4937372686655745,1.2359510222538688,0.5838243623364784,0.02051760727643018,-0.0026110624211917975,0.3139959924289917
10628,10.0,299.9717,-7596.0924,0.0,0.10628001043673474,0.0,0.0,0.0,0.0,0.5010368743734895,1.2345452390651288,0.5734402713366484,0.005183513427447945,-0.0023499982289517675,0.2971102403074977
10629,10.0,300.2044,-7559.2902,0.0,0.10629003941421145,0.0,0.0,0.0,0.0,0.49617591847625053,1.218750595181319,0.5829089314011324,0.004319695223045726,-0.01703161757938978,0.30963310975090874
10630,10.0,299.60425,-7548.6509,0.0,0.1063000354016308,0.0,0.0,0.0,0.0,0.47166404080211655,1.2447639676486388,0.5781734158662735,-0.02101673224918998,-0.005051869137355665,0.3122835997599917
10631,10.0,299.12041,-7480.5038,0.0,0.10631003138905015,0.0,0.0,0.0,0.0,0.4685760293998535,1.229270461694549,0.5760399164557134,-0.01011425662134941,0.007839253693249103,0.3107356373172197
10632,10.0,300.10263,-7537.1263,0.0,0.10632002737646928,0.0,0.0,0.0,0.0,0.4720780649254776,1.2275739770521188,0.5914461106486865,-0.023541359370601277,0.014374841366686385,0.3042895225660377
10633,10.0,299.61438,-7691.8282,0.0,0.10633002336388864,0.0,0.0,0.0,0.0,0.5039090331069495,1.2465873112035886,0.5876273736718064,-0.0001990621723234068,0.0013075984434499188,0.3136190633917917
10634,10.0,299.46986,-7695.5817,0.0,0.10634001935130799,0.0,0.0,0.0,0.0,0.5173570505541655,1.234271154913079,0.5876364625252035,-0.0006618754937670253,0.014700508054827185,0.3053415497473647
10635,10.0,300.13405,-7649.6261,0.0,0.10635001533872757,0.0,0.0,0.0,0.0,0.5188040223594705,1.2372002583021589,0.5692910628396535,0.0007033158928493743,-0.002458444765954607,0.2917427606852687
10636,10.0,300.5027,-7644.1512,0.0,0.1063600113261467,0.0,0.0,0.0,0.0,0.5020403871400285,1.2295298537201487,0.5920608596168575,-0.002107665383360378,-0.0026493873903241775,0.29649078985886274
10637,10.0,299.79523,-7689.5666,0.0,0.1063700403036234,0.0,0.0,0.0,0.0,0.5060403945597985,1.2213078357836988,0.6100879569159934,-0.011963950555749989,-0.016045107149528785,0.2919472345554487
10638,10.0,300.1435,-7682.4375,0.0,0.10638003629104276,0.0,0.0,0.0,0.0,0.4923030131490245,1.249608519026759,0.5933576272273384,-0.003885798225473426,0.009313973859167652,0.3181618080951257
10639,10.0,300.16614,-7648.5402,0.0,0.10639003227846211,0.0,0.0,0.0,0.0,0.5011510676597595,1.2238073211303788,0.6000068276960634,-0.002280531625945948,0.002994062549015967,0.3077532673703827
10640,10.0,300.00228,-7582.7043,0.0,0.10640002826588124,0.0,0.0,0.0,0.0,0.5015864206977255,1.2187714681333788,0.5845949187725265,-0.01018179865711529,-0.0013241355970070087,0.3010255298864067
10641,10.0,299.50887,-7544.1491,0.0,0.10641002425330082,0.0,0.0,0.0,0.0,0.5000092259895685,1.2243535642592887,0.5688701587481134,0.003089202579080557,-0.015819075370221185,0.29817868214044474
10642,10.0,299.46693999999997,-7621.0031,0.0,0.10642002024071995,0.0,0.0,0.0,0.0,0.48470590707924854,1.2311792222329287,0.6007094761104095,-0.0014060837187196587,0.011581110217466589,0.3000269617803557
10643,10.0,299.97467,-7632.8267,0.0,0.1064300162281393,0.0,0.0,0.0,0.0,0.48739236746688147,1.2336959328313089,0.5991004552166114,0.014843636724202884,0.01108873146387259,0.29627246485981573
10644,10.0,300.0061,-7629.519,0.0,0.10644001221555865,0.0,0.0,0.0,0.0,0.4841331573277225,1.2338936179258189,0.6011564815245254,0.0016278199255533186,-0.0001085055689536659,0.2971333120122747
10645,10.0,300.41385,-7582.715999999999,0.0,0.10645000820297779,0.0,0.0,0.0,0.0,0.49563189436505944,1.234280578139009,0.5750438510774094,0.0015201767945547686,-0.002239994326545228,0.32023877828260666
10646,10.0,300.17536,-7624.5652,0.0,0.10646003718045471,0.0,0.0,0.0,0.0,0.5152377062475024,1.2459193767376688,0.5565203321567804,0.0005630527150214765,-0.006197515359022144,0.3143848271548667
10647,10.0,300.31735,-7653.224,0.0,0.10647003316787407,0.0,0.0,0.0,0.0,0.5178011884704985,1.2317538363646388,0.5768340005590835,0.003167420825850097,-0.0004939319342747865,0.3042543019925617
10648,10.0,299.89107,-7621.5221,0.0,0.10648002915529342,0.0,0.0,0.0,0.0,0.5069040585475355,1.224850158133299,0.5849981923123264,-0.014834449585546186,-0.0032773864274028572,0.2975585528142427
10649,10.0,299.92692,-7567.1547,0.0,0.10649002514271277,0.0,0.0,0.0,0.0,0.4761603786508705,1.2377441709558388,0.5863215577379325,-0.008829451846849053,-0.01008526895453855,0.3090027668636987
10650,10.0,299.99574,-7582.5161,0.0,0.1065000211301319,0.0,0.0,0.0,0.0,0.4712219597834865,1.231184288483429,0.6024893411035684,0.002229645192673848,0.00965232805976061,0.3131593518214217
10651,10.0,299.53327,-7661.5926,0.0,0.10651001711755126,0.0,0.0,0.0,0.0,0.49149919171219353,1.2490018861918886,0.5884317523961925,0.009897945558201171,0.005493921987632885,0.3102247262192967
10652,10.0,300.09582,-7598.25,0.0,0.10652001310497061,0.0,0.0,0.0,0.0,0.5082256102554625,1.2252740006501288,0.5761787013219104,0.01035430043363989,0.0012683767479790388,0.3124536433917737
10653,10.0,300.24592,-7549.8016,0.0,0.10653000909238974,0.0,0.0,0.0,0.0,0.5012089546379725,1.223919082616409,0.5698231407321654,-0.012903782580004188,-0.004151260936397555,0.3016788431533837
10654,10.0,300.48436,-7532.578,0.0,0.10654003806986667,0.0,0.0,0.0,0.0,0.49400922499241456,1.235028559362829,0.5606777986420904,0.005706687384706194,-0.002902630912992367,0.31456233843988574
10655,10.0,300.59074,-7570.2768,0.0,0.1065500340572858,0.0,0.0,0.0,0.0,0.48907213348266154,1.215911367076109,0.5961916269620324,-0.0030555333928326666,0.00832316512105744,0.2872066021075847
10656,10.0,300.33648,-7576.8196,0.0,0.10656003004470538,0.0,0.0,0.0,0.0,0.48231526505831057,1.2313747795022287,0.5894738902565435,0.0031980646499494064,0.007060940726360593,0.30557685681808766
10657,10.0,299.25722,-7562.2519,0.0,0.10657002603212473,0.0,0.0,0.0,0.0,0.4986396056968975,1.2243924730631288,0.5757036694100285,0.01261226647323379,-0.006835070763093963,0.2949029053621507
10658,10.0,299.55036,-7529.3761,0.0,0.10658002201954386,0.0,0.0,0.0,0.0,0.4941291938042546,1.2264634549425188,0.5681496366020035,0.009522254205998322,-0.003491203578079966,0.30863345746725074
10659,10.0,300.0727,-7542.1,0.0,0.10659001800696322,0.0,0.0,0.0,0.0,0.5085480770997876,1.2136465504525886,0.5704154968731265,0.013834773997135888,-0.008049250992374222,0.3009954566234387
10660,10.0,299.86917,-7575.076999999999,0.0,0.10660001399438235,0.0,0.0,0.0,0.0,0.5032596208528575,1.204538343978679,0.5948363137607734,0.001044524773611569,-0.0008399912635306833,0.3025506435394237
10661,10.0,299.91732,-7547.1152,0.0,0.10661000998180192,0.0,0.0,0.0,0.0,0.48197342487207356,1.2278730884816387,0.5842880661122424,-0.003262740707807437,0.004836245969700315,0.3056028061531487
10662,10.0,300.33513,-7486.8128,0.0,0.10662003895927863,0.0,0.0,0.0,0.0,0.46262676183520657,1.2346957067049789,0.5784816870766974,0.004462954399034306,-0.016139879471132088,0.3091311659163707
10663,10.0,300.41136,-7464.4572,0.0,0.10663003494669776,0.0,0.0,0.0,0.0,0.4810845208243455,1.214169792804229,0.5737543180726424,0.005856801096296264,0.0020973416820665083,0.3000144582741217
10664,10.0,300.33448,-7535.5766,0.0,0.10664003093411711,0.0,0.0,0.0,0.0,0.4868748094483025,1.231744109163679,0.5720082044403144,0.012747033802784288,-0.007059177468536572,0.3038675140318887
10665,10.0,300.43591000000004,-7614.616,0.0,0.10665002692153669,0.0,0.0,0.0,0.0,0.5131601686399655,1.2203904391431588,0.5811024989903515,0.003725995816427156,-1.8175627604794782e-05,0.30524585840792073
10666,10.0,299.81316,-7679.9974,0.0,0.10666002290895582,0.0,0.0,0.0,0.0,0.5148174607685275,1.2382918326348888,0.5814181669265054,-0.0006425029320576024,0.004457559348876856,0.2981832113683917
10667,10.0,299.5427,-7572.8254,0.0,0.10667001889637517,0.0,0.0,0.0,0.0,0.5001183428928375,1.2230364404542988,0.5787950448026234,0.004890623454866956,0.009978622051038319,0.3113044860558607
10668,10.0,299.8278,-7476.578,0.0,0.1066800148837943,0.0,0.0,0.0,0.0,0.48430732488741157,1.1997202384281687,0.5886654078692525,-0.0018236244278777183,0.0024835980917370477,0.2891874047280747
10669,10.0,299.91575,-7538.8641,0.0,0.10669001087121388,0.0,0.0,0.0,0.0,0.49090405926595854,1.2278575857551088,0.5728647858098525,-0.0052197814988773255,0.0035558811558131466,0.3128240774958327
10670,10.0,299.98871,-7538.3856,0.0,0.10670003984869059,0.0,0.0,0.0,0.0,0.4839896101860555,1.2271060581559388,0.5803853712320765,0.002929891596332787,-0.012459039753361488,0.30305800826199675
10671,10.0,300.17875,-7424.9625,0.0,0.10671003583610994,0.0,0.0,0.0,0.0,0.4855764814326676,1.208012778571579,0.5634139285496255,0.0060292230287129845,0.0024096890963177975,0.3077708269946157
10672,10.0,300.47462,-7371.278,0.0,0.10672003182352907,0.0,0.0,0.0,0.0,0.47275975932775555,1.2057171591450189,0.5622074820530585,0.007903263843141413,-0.004230351996803236,0.3093845392363767
10673,10.0,299.79348,-7514.5548,0.0,0.10673002781094865,0.0,0.0,0.0,0.0,0.4851737347829196,1.2215212262547588,0.5775420698614644,-0.0023653456242414377,-0.0037131904629883667,0.3087877754574807
10674,10.0,299.71087,-7708.1998,0.0,0.10674002379836778,0.0,0.0,0.0,0.0,0.5003324933014724,1.2558642238191489,0.5869035179328674,0.005025286723632186,-0.004625245451651185,0.31854565763050874
10675,10.0,299.74889,-7761.9406,0.0,0.10675001978578713,0.0,0.0,0.0,0.0,0.5150127241952985,1.243283406602519,0.6011399858128974,0.009080490030674591,0.006726918271270144,0.28286290025389477
10676,10.0,299.26706,-7697.3726,0.0,0.10676001577320626,0.0,0.0,0.0,0.0,0.5015870286477855,1.241548621106309,0.5966734375170835,0.006746777466605094,0.0022460160718895277,0.2951627026877907
10677,10.0,299.46485,-7586.0942,0.0,0.10677001176062562,0.0,0.0,0.0,0.0,0.5017781884116516,1.222212465472979,0.5819925986731974,-0.005352324744458324,0.003350236272492577,0.28366609347566374
10678,10.0,299.54544,-7657.693,0.0,0.10678004073810254,0.0,0.0,0.0,0.0,0.5106159786988734,1.2338954417759989,0.5832360693284184,0.00020808785970917278,-0.015930033348921884,0.3110405749348147
10679,10.0,300.19539,-7668.7858,0.0,0.10679003672552168,0.0,0.0,0.0,0.0,0.5131932208582275,1.2227830266042887,0.5951431765535584,0.0042461302260354255,-0.0017201264017132584,0.3044971071140247
10680,10.0,300.12236,-7559.4249,0.0,0.10680003271294103,0.0,0.0,0.0,0.0,0.48926430649662755,1.226041334950859,0.5825707186502534,0.013930913193124088,-0.0016534641710092084,0.3062509011821107
10681,10.0,300.23076000000003,-7445.7849,0.0,0.10681002870036038,0.0,0.0,0.0,0.0,0.46857071996932953,1.2256406958613189,0.5691213231829015,0.002239728753694018,0.002569860531050487,0.3096278915128937
10682,10.0,300.33305,-7527.5715,0.0,0.10682002468777974,0.0,0.0,0.0,0.0,0.47265357071727554,1.2360145530351387,0.5795256893172324,0.0027891563250182975,-0.01004225405599331,0.3080199649292037
10683,10.0,300.17213,-7574.2427,0.0,0.10683002067519909,0.0,0.0,0.0,0.0,0.4883069472721435,1.2315347716930187,0.5825389633921194,-0.002998010475380597,0.007829454956832044,0.3078738745297857
10684,10.0,299.73963,-7602.8155,0.0,0.10684001666261844,0.0,0.0,0.0,0.0,0.4987697475397415,1.2201098701904687,0.5921864013042474,-0.0031789502947629665,0.009410970872690511,0.29917672335644374
10685,10.0,300.12362,-7642.946,0.0,0.10685001265003757,0.0,0.0,0.0,0.0,0.4962893112949415,1.2487409742911388,0.5782344844498004,-0.015692690658747985,0.0058170919262022745,0.3163939399831507
10686,10.0,298.92536,-7602.1777,0.0,0.10686000863745693,0.0,0.0,0.0,0.0,0.5034976839638525,1.229247764892309,0.5781267253016654,-0.0069912634686589824,-0.022161834558202777,0.3110368765719497
10687,10.0,299.18823,-7604.3838,0.0,0.10687003761493385,0.0,0.0,0.0,0.0,0.5037210448158965,1.2389480133996489,0.5688737557859684,0.0009067191021787082,-0.006105943489184704,0.3063681747486847
10688,10.0,299.89871,-7627.7192,0.0,0.10688003360235299,0.0,0.0,0.0,0.0,0.5029099786408505,1.2214668147243888,0.5942593691538334,0.021116989293584583,0.004966443743949836,0.2969196074336837
10689,10.0,299.70899,-7666.609,0.0,0.10689002958977234,0.0,0.0,0.0,0.0,0.5068932066389645,1.2286238054807288,0.5949406481235705,0.0031879037779466066,-0.0011255291541810788,0.28690276893259875
10690,10.0,300.16867,-7585.815,0.0,0.10690002557719169,0.0,0.0,0.0,0.0,0.4730772916440935,1.2489053234573588,0.5839156865679915,0.008230358909948181,-0.003226842472664557,0.31195972449802767
10691,10.0,300.10334,-7532.4712,0.0,0.10691002156461105,0.0,0.0,0.0,0.0,0.49414933721624255,1.2125093798653588,0.5830244419125324,-0.01234387172049529,0.00953741333941941,0.29477480015200774
10692,10.0,300.26412999999997,-7564.1537,0.0,0.1069200175520304,0.0,0.0,0.0,0.0,0.48605741046013157,1.2381819963240488,0.5750744107004254,0.004688733676416985,0.001071510663524869,0.3120802100674187
10693,10.0,300.72818,-7569.0236,0.0,0.10693001353944953,0.0,0.0,0.0,0.0,0.49739240628130854,1.220651452368919,0.5827503374954804,-0.011181261463004591,-0.0037521581366591764,0.3024632304532967
10694,10.0,300.0142,-7613.1084,0.0,0.10694000952686888,0.0,0.0,0.0,0.0,0.4830213179929925,1.243481496997069,0.5876920088956854,0.011764673645332888,-0.01192643801054779,0.3132368147915667
10695,10.0,299.67815,-7564.764,0.0,0.10695003850434581,0.0,0.0,0.0,0.0,0.4934752523222155,1.2234445775945788,0.5825795845886285,0.013527025623763487,-0.001220502403279209,0.2954547922941177
10696,10.0,300.04336,-7517.7576,0.0,0.10696003449176494,0.0,0.0,0.0,0.0,0.4796652918067785,1.212902419579149,0.5926428299442934,0.02645648497455177,0.003383707469670927,0.29256316902623675
10697,10.0,300.02482000000003,-7596.649,0.0,0.1069700304791843,0.0,0.0,0.0,0.0,0.5114593270221055,1.2322427295378886,0.5654895308494714,-0.0029885524949721668,-0.007736956672428174,0.30047110982918973
10698,10.0,300.02193,-7698.9778,0.0,0.10698002646660343,0.0,0.0,0.0,0.0,0.5094534261966385,1.2483636399538987,0.5824800023688005,-0.0015507161525687683,-0.012969930586282489,0.3065067974948657
10699,10.0,299.88471,-7753.1388,0.0,0.106990022454023,0.0,0.0,0.0,0.0,0.5278006598648695,1.2412543732772687,0.5877055459170214,-0.01008077336649487,0.00846979750795393,0.3154827241682207
10700,10.0,299.62769,-7598.0352,0.0,0.10700001844144236,0.0,0.0,0.0,0.0,0.49657778359841154,1.2311691910569387,0.5818659829407015,0.013338301713137888,0.0002774129319410248,0.3051638358123257
10701,10.0,299.75723999999997,-7487.3245,0.0,0.10701001442886149,0.0,0.0,0.0,0.0,0.4794010868432035,1.2286226909056188,0.5679359725534164,-0.009001137450418101,-0.009762937480426911,0.3135713494445827
10702,10.0,299.55171,-7547.4292,0.0,0.10702001041628084,0.0,0.0,0.0,0.0,0.47076712194609754,1.229405730582899,0.5940571244338734,-0.003080276858949657,-0.010669490115746688,0.30516319746476267
10703,10.0,299.61076,-7550.3031,0.0,0.10703003939375777,0.0,0.0,0.0,0.0,0.49884421128959056,1.2299837897649488,0.5662756508070554,-0.003374066800269467,0.005589024122143735,0.32028483049965173
10704,10.0,299.71421000000004,-7585.6748,0.0,0.1070400353811769,0.0,0.0,0.0,0.0,0.5011351191031855,1.220934453121849,0.5837861222777044,-0.003148571435564807,0.0071118266530076435,0.2927878572359117
10705,10.0,300.51542,-7604.4469,0.0,0.10705003136859625,0.0,0.0,0.0,0.0,0.5008795875604665,1.246155767985999,0.5645266088819385,-0.012787615482539387,-0.012776822342474188,0.3059704132894287
10706,10.0,300.48717,-7628.8525,0.0,0.10706002735601561,0.0,0.0,0.0,0.0,0.5016426763432775,1.2370489800622289,0.5802889706175625,-0.007471657804045212,-0.0059139809272644745,0.30174419778483375
10707,10.0,300.19697,-7667.9548,0.0,0.10707002334343496,0.0,0.0,0.0,0.0,0.5037519996064516,1.2270610698514988,0.6000537209106914,-0.005100725118752375,0.007384196993838503,0.29166106232970573
10708,10.0,300.32896,-7604.5928,0.0,0.10708001933085431,0.0,0.0,0.0,0.0,0.49116315744902955,1.2313062837954687,0.5891369136707865,-0.0021438450993810382,0.008431411541165532,0.29676879528879974
10709,10.0,300.3592,-7523.6449,0.0,0.10709001531827345,0.0,0.0,0.0,0.0,0.5013567979600635,1.2106885694356588,0.5749548370561245,-0.010013203972976292,-0.013557692651290087,0.2974165863427317
10710,10.0,299.75831,-7553.613,0.0,0.1071000113056928,0.0,0.0,0.0,0.0,0.4935822211352725,1.2377145840529187,0.5648129736252004,-0.0014928837885361584,-0.014921786677915687,0.3234860827330907
10711,10.0,300.33584,-7508.9748,0.0,0.10711004028316973,0.0,0.0,0.0,0.0,0.5022125687295215,1.2267453411203388,0.5535829809118864,0.019455547905863083,-9.29803067281918e-05,0.3205501703033387
10712,10.0,299.51024,-7576.3582,0.0,0.10712003627058886,0.0,0.0,0.0,0.0,0.4905030554063825,1.2233200491572889,0.5892006268370745,0.015989513156292087,0.007928840403490622,0.3111080979214787
10713,10.0,299.9743,-7523.3421,0.0,0.10713003225800821,0.0,0.0,0.0,0.0,0.47886275719757454,1.2289982013926788,0.5790472022225095,0.012252508985478488,-0.008354160745591472,0.29929795873090875
10714,10.0,300.10585,-7478.0881,0.0,0.10714002824542757,0.0,0.0,0.0,0.0,0.46706928597114955,1.2195795350881289,0.5865032233483615,-0.004268432873986526,0.0035854277313791664,0.2976918154673947
10715,10.0,300.07763,-7595.1230000000005,0.0,0.10715002423284692,0.0,0.0,0.0,0.0,0.5084869071912506,1.2251175548346886,0.5751233000177505,-0.001170029376047909,0.021598396575095775,0.28093426988105374
10716,10.0,299.99667999999997,-7684.2228,0.0,0.10716002022026627,0.0,0.0,0.0,0.0,0.5020961462930316,1.2443982856875488,0.5893174140436004,-0.011720785730501488,0.017744713615516883,0.2954890300149967
10717,10.0,299.20767,-7738.1328,0.0,0.1071700162076854,0.0,0.0,0.0,0.0,0.5190715811808765,1.2383468521153187,0.5947807673902914,-0.019645114840571878,-0.005477633992275385,0.3014571440315037
10718,10.0,299.26436,-7681.7596,0.0,0.10718001219510476,0.0,0.0,0.0,0.0,0.5127210564441286,1.244793959851599,0.5775480581695555,-0.007057125839734093,-0.003958167891340756,0.3220484936237117
10719,10.0,299.76687000000004,-7592.7673,0.0,0.10719004117258146,0.0,0.0,0.0,0.0,0.49554176576866454,1.2356018562694089,0.5768680052324395,0.010934228048874289,0.005304470867410515,0.3171712649298667
10720,10.0,299.73548999999997,-7547.4073,0.0,0.10720003716000082,0.0,0.0,0.0,0.0,0.4977415317357645,1.207637572059549,0.5888442262469005,-0.002530345195700628,0.01171199882563429,0.3010014955940347
10721,10.0,299.65816,-7568.6803,0.0,0.10721003314742017,0.0,0.0,0.0,0.0,0.4953418717889365,1.2294104928583687,0.5759374870031044,-0.017114610868580585,-0.025730561192158677,0.3041018686475177
10722,10.0,300.00503,-7527.025,0.0,0.10722002913483952,0.0,0.0,0.0,0.0,0.4841614067405105,1.2312709213669788,0.5725953626082624,-0.01231364950976259,-0.014448168249923187,0.3007715587488417
10723,10.0,300.20936,-7493.9031,0.0,0.10723002512225888,0.0,0.0,0.0,0.0,0.4831540841535955,1.2195749754626788,0.5752303296258134,0.005585340046105145,-0.0016362295974082885,0.3118113745508867
10724,10.0,300.82086,-7552.6706,0.0,0.10724002110967801,0.0,0.0,0.0,0.0,0.4875892318288105,1.227284592823559,0.5809494272977445,0.006080700389443404,0.004415244302175686,0.3040586332657507
10725,10.0,299.83992,-7700.7561,0.0,0.10725001709709736,0.0,0.0,0.0,0.0,0.5112623410701644,1.2296377648557988,0.5999375213892235,-0.005005658042694985,-0.017661442695798682,0.31214821941413073
10726,10.0,299.67615,-7661.6624,0.0,0.10726001308451671,0.0,0.0,0.0,0.0,0.49867857529574355,1.2431458072389387,0.5871296348251834,-0.0064978205998099635,0.012361983566032788,0.3074555035634957
10727,10.0,300.06843,-7554.5657,0.0,0.10727000907193607,0.0,0.0,0.0,0.0,0.49349736143939754,1.2365348569614887,0.5663671675560874,0.005665532610694535,0.012017093496994789,0.31119622028267574
10728,10.0,299.72471,-7581.0740000000005,0.0,0.10728003804941277,0.0,0.0,0.0,0.0,0.4970200773995625,1.2210268615309687,0.5864102373866844,-0.008032842217604804,0.03207900167345097,0.2969437025210617
10729,10.0,299.53585,-7662.0797,0.0,0.10729003403683235,0.0,0.0,0.0,0.0,0.5045575942309575,1.2492328058896789,0.5752905065492524,-0.00881057823988637,-0.009291980860447111,0.30408518041837074
10730,10.0,299.43492000000003,-7660.4818,0.0,0.10730003002425148,0.0,0.0,0.0,0.0,0.5029499918872995,1.241232993700159,0.5844122297794965,-0.015857076301971584,-0.0022374274600668975,0.3201186270857487
10731,10.0,299.96327,-7624.3594,0.0,0.10731002601167083,0.0,0.0,0.0,0.0,0.5096221120732866,1.2222768068543288,0.5857159584181645,0.01077839930274519,0.00012956422949199386,0.30632951925736973
10732,10.0,300.4624,-7589.8702,0.0,0.10732002199908997,0.0,0.0,0.0,0.0,0.48897332133290955,1.2257807270251388,0.5923769733830554,0.0006700165631529864,0.008556167554427993,0.3055456791125107
10733,10.0,300.45646,-7587.6103,0.0,0.10733001798650932,0.0,0.0,0.0,0.0,0.5067706844368725,1.2067910016009988,0.5928824129304384,-0.0029812383491253174,-0.015832663054062182,0.29163913559754173
10734,10.0,299.99694,-7706.0808,0.0,0.10734001397392867,0.0,0.0,0.0,0.0,0.49349312605397955,1.251583343471659,0.5973796627042824,-0.005753799258705774,-0.0063234900081798745,0.3081320202577627
10735,10.0,300.22876,-7652.5099,0.0,0.10735000996134803,0.0,0.0,0.0,0.0,0.4902146337654175,1.2510374043177788,0.5849198883445984,0.01942803107289738,0.003769228665068906,0.30325348447128875
10736,10.0,300.07164,-7490.7379,0.0,0.10736003893882473,0.0,0.0,0.0,0.0,0.47373838667183854,1.2266238524333488,0.5766350083719444,0.0034921538040237465,0.009696014945772172,0.3161292081295237
10737,10.0,299.08128999999997,-7527.1118,0.0,0.10737003492624408,0.0,0.0,0.0,0.0,0.49832643035598956,1.225792582051309,0.5639349822810494,0.003082086523628257,-0.011678368041565189,0.3139502543194777
10738,10.0,299.45646,-7589.2703,0.0,0.10738003091366344,0.0,0.0,0.0,0.0,0.5016002515615905,1.2327197676849688,0.5726286174765444,-0.011427061751763189,0.011125590462760291,0.3107551626466467
10739,10.0,300.16441000000003,-7551.666,0.0,0.10739002690108279,0.0,0.0,0.0,0.0,0.5011321806778956,1.2191501196957488,0.5752356491888384,-0.007665119976113442,0.01906473126279248,0.30568895267665075
10740,10.0,300.2729,-7576.3305,0.0,0.10740002288850192,0.0,0.0,0.0,0.0,0.4918862025878885,1.2291995341875488,0.5819295745169775,-0.007285617283659442,0.014431374642765787,0.2880687867501757
10741,10.0,300.71497,-7619.0721,0.0,0.10741001887592128,0.0,0.0,0.0,0.0,0.5020684237702955,1.219564538986649,0.5943746972802154,-0.014262222671071786,-0.02148615784826868,0.30059345977876467
10742,10.0,299.86995,-7674.6647,0.0,0.10742001486334085,0.0,0.0,0.0,0.0,0.4930136054441545,1.2356360027977789,0.6042567937830025,-0.006118524103751313,-0.014279760003802587,0.3109716435305117
10743,10.0,300.48177000000004,-7657.0109,0.0,0.10743001085075998,0.0,0.0,0.0,0.0,0.5003942002325625,1.2481485269576689,0.5789973807150924,0.013969384272920885,-0.004363057362400236,0.3223707172880127
10744,10.0,300.62869,-7566.5903,0.0,0.10744003982823669,0.0,0.0,0.0,0.0,0.4983025480511325,1.2206247025662789,0.5811272020277894,0.007724914701614723,0.006068559322770175,0.3003077131180637
10745,10.0,299.99357000000003,-7475.2367,0.0,0.10745003581565604,0.0,0.0,0.0,0.0,0.49540366991253554,1.210778242069509,0.5661033678925524,0.0015096581439416586,-0.017667518143398283,0.2931728416114067
10746,10.0,299.87602000000004,-7407.2749,0.0,0.1074600318030754,0.0,0.0,0.0,0.0,0.4776970636200295,1.2233571341109488,0.5505724324797684,-0.0017752896623324484,0.001064322971290499,0.3092705688651287
10747,10.0,300.61428,-7501.9717,0.0,0.10747002779049475,0.0,0.0,0.0,0.0,0.47973803303145757,1.2191116161919489,0.5815623929457395,0.009074534551886832,0.01243060390255509,0.2981763111352107
10748,10.0,299.93737000000004,-7599.0249,0.0,0.10748002377791388,0.0,0.0,0.0,0.0,0.47547728596345457,1.2500614418214588,0.5843750637658285,0.0006873039473491184,0.011637402340022187,0.3171105509838747
10749,10.0,300.33052999999995,-7610.014,0.0,0.10749001976533323,0.0,0.0,0.0,0.0,0.5080699345100985,1.2302299082142387,0.5749544317560845,-0.0016738696094730685,-0.014668862227703985,0.30195184312782675
10750,10.0,300.16483,-7679.6222,0.0,0.10750001575275259,0.0,0.0,0.0,0.0,0.5063812417609375,1.2419568595715988,0.5860753075661295,-0.008939453520105372,0.0003196093777179897,0.3252783904374777
10751,10.0,299.90427999999997,-7688.3311,0.0,0.10751001174017194,0.0,0.0,0.0,0.0,0.5148774654394495,1.2392665792310886,0.5829166523668945,0.0013385393524785484,0.007381453619192753,0.3006643264907587
10752,10.0,300.11273,-7642.0367,0.0,0.10752004071764865,0.0,0.0,0.0,0.0,0.5022129334995575,1.2289258553355387,0.5918495260435004,-0.011154119532575888,0.00960702544513959,0.3072377459845047
10753,10.0,299.02594,-7670.4958,0.0,0.107530036705068,0.0,0.0,0.0,0.0,0.49813631423972654,1.2360237736110489,0.5974791233340984,-0.002662885806831367,-0.012573453928153289,0.28573564667241275
10754,10.0,300.06068,-7590.5846,0.0,0.10754003269248735,0.0,0.0,0.0,0.0,0.46648376926836355,1.2488785736547188,0.5919857980494494,-0.00038319700231859963,-0.0013745800505854887,0.31212823812215873
10755,10.0,300.11477,-7491.5001,0.0,0.1075500286799067,0.0,0.0,0.0,0.0,0.48070184665907856,1.221936658795759,0.5745904723201645,0.026805169665214273,0.01200774930457259,0.3072878815994527
10756,10.0,299.83274,-7529.6063,0.0,0.10756002466732584,0.0,0.0,0.0,0.0,0.5033104049478695,1.231861342200249,0.5536405639150694,0.011960261312135886,0.00027848185000151873,0.30955930461362474
10757,10.0,299.66127,-7575.9508,0.0,0.10757002065474519,0.0,0.0,0.0,0.0,0.5159095113288046,1.219931132872829,0.5670592376393895,0.0062654514477519145,-0.019516336832362483,0.3005628900232477
10758,10.0,300.18802,-7592.3064,0.0,0.10758001664216454,0.0,0.0,0.0,0.0,0.5109321329950754,1.2226628551424288,0.5742765269091804,-0.01069221224923919,-0.016286421780094682,0.30865250656913074
10759,10.0,299.8576,-7682.6974,0.0,0.1075900126295839,0.0,0.0,0.0,0.0,0.4842703412587615,1.252493242061459,0.5985845893256994,-0.0021177951485851078,-0.004859348477280355,0.3180046327396137
10760,10.0,300.11065,-7601.3548,0.0,0.10760000861700325,0.0,0.0,0.0,0.0,0.47716275657729756,1.2231358402891088,0.6103234261067324,-0.005996596476817995,-0.005271539327235425,0.30066484324830967
10761,10.0,299.83259,-7733.9719,0.0,0.10761003759447996,0.0,0.0,0.0,0.0,0.5048592083882245,1.2486834216854588,0.5973917102479714,-0.007988162346495242,-0.015299799892722683,0.2990741925788247
10762,10.0,300.44599,-7735.938,0.0,0.10762003358189909,0.0,0.0,0.0,0.0,0.5276125499838045,1.2380768209636688,0.5858426248131654,-0.01063727990831779,-2.7559912306951573e-05,0.30675536800939773
10763,10.0,300.46457000000004,-7620.2493,0.0,0.10763002956931866,0.0,0.0,0.0,0.0,0.5242997490468565,1.2271830651635387,0.5648826750995796,-0.005743425502856964,0.014150990101593987,0.2927833584054677
10764,10.0,300.14012,-7563.0442,0.0,0.1076400255567378,0.0,0.0,0.0,0.0,0.49090136402069257,1.2388806322679988,0.5691945609001295,0.006690799350255484,0.01808336206393888,0.3001209913896357
10765,10.0,299.42405,-7573.4112,0.0,0.10765002154415715,0.0,0.0,0.0,0.0,0.4886855380395075,1.2244209453909387,0.5890214538218914,-0.004950003355777295,-0.01000943447995427,0.2972594515172237
10766,10.0,300.37265,-7636.5732,0.0,0.1076600175315765,0.0,0.0,0.0,0.0,0.4738248473028715,1.2572242081033687,0.5902785324259554,0.005588449102711984,-0.0047885290840660255,0.3236858855203097
10767,10.0,300.16612000000003,-7641.0456,0.0,0.10767001351899586,0.0,0.0,0.0,0.0,0.4994825588525905,1.239755877704379,0.5834486491993984,0.01096309554422329,-0.005476353649449025,0.30556200257162175
10768,10.0,299.42962,-7616.2336,0.0,0.10768000950641521,0.0,0.0,0.0,0.0,0.5021873185370295,1.234200024756059,0.5787574937539175,0.02111436902882598,-0.0002281884720129488,0.3200030861768457
10769,10.0,299.20479,-7627.8533,0.0,0.10769003848389191,0.0,0.0,0.0,0.0,0.5255744683351615,1.2126558958298188,0.5804465715381165,-0.0013004787402972587,-0.01277170948246959,0.29232015112225274
10770,10.0,299.77709,-7648.2839,0.0,0.10770003447131105,0.0,0.0,0.0,0.0,0.5044976098250376,1.2319732050112888,0.5884164624521834,0.00886807501548586,-0.006034866629119964,0.3147399510499147
10771,10.0,299.75565,-7644.4235,0.0,0.10771003045873062,0.0,0.0,0.0,0.0,0.49417447595122355,1.2270331041487388,0.6025062826452404,-0.006408871223881343,0.011881276440340689,0.29684367447118976
10772,10.0,300.52085,-7648.1688,0.0,0.10772002644614997,0.0,0.0,0.0,0.0,0.4835381566040005,1.237673952723909,0.6036401703021465,-0.006823056454008243,0.0024220042393582075,0.2947692070114557
10773,10.0,300.02439,-7635.4205,0.0,0.1077300224335691,0.0,0.0,0.0,0.0,0.5013788969447446,1.2376235941939386,0.5819746945439305,-0.007535198413841183,-0.007504852687921293,0.2860353761844937
10774,10.0,300.44462999999996,-7522.1899,0.0,0.10774001842098846,0.0,0.0,0.0,0.0,0.5001687723503145,1.2238847334380187,0.5625044251273644,-0.0022574041924134478,-0.0005112123574427316,0.3069458894257007
10775,10.0,300.6023,-7545.5712,0.0,0.10775001440840759,0.0,0.0,0.0,0.0,0.5023048150186256,1.2294685520890989,0.5618918343819065,0.0005108862428980465,0.013264594861113588,0.31280303229125567
10776,10.0,299.84871,-7593.2101,0.0,0.10776001039582717,0.0,0.0,0.0,0.0,0.49988689630499555,1.2340969772208887,0.5741623538879125,-0.005976757749135064,0.004663282455105146,0.3118186902166087
10777,10.0,300.22943,-7592.7717,0.0,0.10777003937330387,0.0,0.0,0.0,0.0,0.4841651355008786,1.2349968446346988,0.5888510251550715,-0.002702144587255907,-0.007505199320780503,0.3135911990140417
10778,10.0,300.56751,-7578.5702,0.0,0.107780035360723,0.0,0.0,0.0,0.0,0.4887761935259546,1.2355759170668488,0.5793440135743024,0.004807953899083106,-0.00988950792064344,0.3193484556847387
10779,10.0,299.54382000000004,-7626.9612,0.0,0.10779003134814236,0.0,0.0,0.0,0.0,0.49804050131027056,1.2346966186300687,0.5856685991084905,0.016657606702477786,-0.004203502996978446,0.3102997776542037
10780,10.0,299.36286,-7586.7233,0.0,0.10780002733556193,0.0,0.0,0.0,0.0,0.49412258741360254,1.223411039016269,0.5886407858918224,0.005663192610913594,-0.009987657404830041,0.3013378844947337
10781,10.0,299.24225,-7602.6322,0.0,0.10781002332298106,0.0,0.0,0.0,0.0,0.5134428046228595,1.2111360206798187,0.5864315156387844,-0.0042714686726111365,-0.01179892453846319,0.2896052690693147
10782,10.0,299.60157999999996,-7633.4728,0.0,0.10782001931040042,0.0,0.0,0.0,0.0,0.49686185839644753,1.238879720342909,0.5846435243798235,-0.007529621789265813,0.00932357876084058,0.3153326719609117
10783,10.0,300.05879,-7533.4805,0.0,0.10783001529781955,0.0,0.0,0.0,0.0,0.48564024526146055,1.2293453408769388,0.5750044052510165,-0.003266189101872767,0.014807663305902587,0.3167976998829987
10784,10.0,299.67841,-7623.1722,0.0,0.1078400112852389,0.0,0.0,0.0,0.0,0.47961313982413156,1.2453687766333288,0.5922720412026995,-0.006994396843268223,0.008719353914833233,0.3136757142048827
10785,10.0,300.1704,-7739.668000000001,0.0,0.10785004026271583,0.0,0.0,0.0,0.0,0.5119317751462326,1.2501747231826388,0.5905592736311625,-0.0024882315831193376,0.005077857381220505,0.31082978851651166
10786,10.0,300.91742,-7656.0945,0.0,0.10786003625013496,0.0,0.0,0.0,0.0,0.5044889262716805,1.2402700008051186,0.5825026181110324,0.016096838633384285,0.001095715891188739,0.3108421400352307
10787,10.0,299.96387000000004,-7495.0408,0.0,0.10787003223755431,0.0,0.0,0.0,0.0,0.49377288440658956,1.2186411641705188,0.5658911831891115,0.025873984717313475,0.00871714654949038,0.3111034369710187
10788,10.0,299.55772,-7446.2868,0.0,0.10788002822497367,0.0,0.0,0.0,0.0,0.4790358912421615,1.2062386789714887,0.5782107338674565,0.012636812456906288,-0.005148704132187535,0.2971238279913387
10789,10.0,299.40294,-7653.1379,0.0,0.10789002421239302,0.0,0.0,0.0,0.0,0.5029941898566614,1.220456300399659,0.6029123020928114,-0.005404927826049844,-0.013619900127929485,0.30467766828184467
10790,10.0,299.88058,-7812.1904,0.0,0.10790002019981237,0.0,0.0,0.0,0.0,0.5236999759151636,1.2368303206906488,0.6141805044673965,-0.012246365650122187,-0.017493718393495585,0.3135165022166697
10791,10.0,299.91874,-7746.6163,0.0,0.1079100161872315,0.0,0.0,0.0,0.0,0.5153852253295614,1.2453410135805887,0.5940517238108405,-0.002042147415994258,0.007920789624821073,0.3104825477072417
10792,10.0,300.01693,-7573.7082,0.0,0.10792001217465086,0.0,0.0,0.0,0.0,0.5004379726368825,1.2249088253140887,0.5768713388252684,-0.001926062290462548,-0.006484551481800404,0.2887378459237067
10793,10.0,299.85299,-7693.1244,0.0,0.10793004115212779,0.0,0.0,0.0,0.0,0.5029422709215375,1.245697981590819,0.5898774171088684,-0.00981863593974892,-0.003246397895619527,0.2999964528198447
10794,10.0,300.03767,-7809.5915,0.0,0.10794003713954692,0.0,0.0,0.0,0.0,0.5129243853416955,1.252674005879299,0.6083224294117494,-0.01187407121887959,0.0016644054482390285,0.2972572628970077
10795,10.0,299.8415,-7683.5256,0.0,0.1079500331269665,0.0,0.0,0.0,0.0,0.5045736441125416,1.2546074897201187,0.5764188111981075,0.0020490577816762584,0.019810937272437282,0.3126561616892607
10796,10.0,299.7492,-7517.0626,0.0,0.10796002911438562,0.0,0.0,0.0,0.0,0.4862032171495215,1.223108482536409,0.5756875891309414,0.004630712037265696,0.020949075513512782,0.3068341583371737
10797,10.0,299.94534,-7529.5351,0.0,0.10797002510180498,0.0,0.0,0.0,0.0,0.4994825689850916,1.226743010645109,0.5625650478808474,0.00039665255834655963,-0.0063107940857518845,0.3086728424986377
10798,10.0,300.48946,-7657.6592,0.0,0.10798002108922433,0.0,0.0,0.0,0.0,0.5059187437527926,1.2336610770278689,0.5881573845341145,-0.00019666667683448984,-0.016586819023991586,0.3103820738273257
10799,10.0,299.68093,-7727.0654,0.0,0.10799001707664346,0.0,0.0,0.0,0.0,0.5075591247371856,1.231180742108079,0.6100950800641964,-0.012132589822893386,-0.0039500881337183455,0.3069592947245237
10800,10.0,299.94337,-7610.5543,0.0,0.10800001306406282,0.0,0.0,0.0,0.0,0.47991325437125054,1.234765418311859,0.5987397685785144,0.008620097049612342,-0.007767446989137332,0.2988490180091017
10801,10.0,300.57023,-7540.4396,0.0,0.10801000905148217,0.0,0.0,0.0,0.0,0.4883584913047305,1.2259542967672687,0.5777925148886814,-0.017122580080617084,-0.013373061257818385,0.3149630889869367
10802,10.0,300.59306000000004,-7706.0024,0.0,0.1080200380289591,0.0,0.0,0.0,0.0,0.5085372353237175,1.2521059778732386,0.5817890772581115,0.0036762464524172766,-0.0018073764558991685,0.3252578518579507
10803,10.0,300.04129,-7741.9036,0.0,0.10803003401637845,0.0,0.0,0.0,0.0,0.5271262811283135,1.260924496143559,0.5652945916627324,-0.0038350552684154864,0.016168425766199385,0.3088611043672177
10804,10.0,299.15873,-7600.6529,0.0,0.10804003000379758,0.0,0.0,0.0,0.0,0.49950279345708753,1.238422339247769,0.5724835909897315,0.01900196447209788,0.015108291570822286,0.2790841258609587
10805,10.0,299.44338999999997,-7468.9524,0.0,0.10805002599121694,0.0,0.0,0.0,0.0,0.47826346029342853,1.2207629098799189,0.5713487002152265,-0.0015161642228337586,-0.002114774143411958,0.2800750641937567
10806,10.0,300.05596,-7478.4199,0.0,0.10806002197863629,0.0,0.0,0.0,0.0,0.4737936695972946,1.2216099869635186,0.5778492771592835,0.007843360699879433,-0.005868693308744934,0.2818596104023777
10807,10.0,300.40146,-7681.6455,0.0,0.10807001796605542,0.0,0.0,0.0,0.0,0.5093350684524575,1.2322620826147987,0.5934312297146024,-0.0039509854680069055,0.00905246707928394,0.3097918556440757
10808,10.0,299.60111,-7754.1594,0.0,0.108080013953475,0.0,0.0,0.0,0.0,0.5279212872892745,1.2362124407796686,0.5929371487008405,-0.002231057156688198,0.004280845187711526,0.3158766656745997
10809,10.0,299.55338,-7641.7058,0.0,0.10809000994089413,0.0,0.0,0.0,0.0,0.5177749655579106,1.2241943826685788,0.5809184319771855,-0.019792232675591284,-0.0027419933832136772,0.3179230965040667
10810,10.0,300.2732,-7519.3354,0.0,0.10810003891837106,0.0,0.0,0.0,0.0,0.4931267652153225,1.2227501973010488,0.5698132311461874,0.0014636045083465186,-0.014292951506854487,0.31283418973183075
10811,10.0,300.7231,-7536.2714,0.0,0.10811003490579041,0.0,0.0,0.0,0.0,0.4775496762604835,1.2324753717608488,0.5808132667493064,0.014349979248982686,0.00897726244096182,0.30803473811566173
10812,10.0,300.62632,-7596.1077,0.0,0.10812003089320954,0.0,0.0,0.0,0.0,0.4862245359316255,1.2287043588636788,0.5940981407979214,0.005282320308299425,-0.005108866988605915,0.2943247752525937
10813,10.0,300.27937000000003,-7588.1738,0.0,0.10813002688062867,0.0,0.0,0.0,0.0,0.5013715610140206,1.2304056057815789,0.5748381309096064,0.0018716772059201583,-0.01641664164319638,0.2985401489811187
10814,10.0,299.73787999999996,-7490.5765,0.0,0.10814002286804825,0.0,0.0,0.0,0.0,0.4959651523229495,1.2319020748542688,0.5490810093925765,-0.0035948828746873167,-0.0026599505226166773,0.3172704722471577
10815,10.0,299.81254,-7465.9536,0.0,0.1081500188554676,0.0,0.0,0.0,0.0,0.5052138661882265,1.2169876413323288,0.5472619316205475,0.00034339255631770667,0.017030750237304184,0.3125354734698497
10816,10.0,300.24557000000004,-7668.8657,0.0,0.10816001484288695,0.0,0.0,0.0,0.0,0.5022163886823985,1.2482164147143688,0.5807108575616995,-0.018424214331328383,0.01050863970212199,0.3175584379255777
10817,10.0,300.18493,-7765.535,0.0,0.10817001083030608,0.0,0.0,0.0,0.0,0.49893603201365255,1.2418007177311887,0.6197920253762105,-0.025253883762114276,-0.0006860820082585223,0.29702867367444774
10818,10.0,299.90442,-7652.2038,0.0,0.10818003980778301,0.0,0.0,0.0,0.0,0.4840068455702565,1.2385442332347987,0.6035277806010544,-0.01039569473997519,0.0017954142278685883,0.3071846922092687
10819,10.0,299.5077,-7534.556,0.0,0.10819003579520237,0.0,0.0,0.0,0.0,0.4817146509290346,1.225453041942799,0.5831491831323434,0.016031372544423286,0.013192518328500187,0.30441457789337967
10820,10.0,300.3184,-7549.4005,0.0,0.1082000317826215,0.0,0.0,0.0,0.0,0.4981119962373265,1.2188069318868788,0.5779103457428104,0.009217321857303841,0.010555015145948891,0.3208064009886267
10821,10.0,300.70021,-7615.4519,0.0,0.10821002777004063,0.0,0.0,0.0,0.0,0.5196211579026155,1.2284662450901789,0.5668198471707635,0.003022134947011497,-0.007303163836966153,0.3242127451748067
10822,10.0,300.18897000000004,-7594.0971,0.0,0.10822002375745998,0.0,0.0,0.0,0.0,0.5058271763412555,1.2235639384563588,0.5790247891302974,0.0021977522338512577,-0.006635358763083924,0.3162575463871897
10823,10.0,300.28553,-7414.5133,0.0,0.10823001974487956,0.0,0.0,0.0,0.0,0.4750309391619036,1.2161337754730588,0.5626622084329365,0.010411165042501992,0.007954749309872633,0.3036539715733137
10824,10.0,300.00138,-7375.2088,0.0,0.10824001573229891,0.0,0.0,0.0,0.0,0.4614908274130986,1.2050526697294388,0.5753357582987184,-0.005898279603714874,-0.0008183643723362752,0.28595331305889476
10825,10.0,299.57876,-7689.5141,0.0,0.10825001171971804,0.0,0.0,0.0,0.0,0.5004138066219975,1.2406454099671687,0.5963611234387605,-0.010802474125121189,0.0002393721997266968,0.2919332922340727
10826,10.0,299.83949,-7905.9517,0.0,0.10826004069719475,0.0,0.0,0.0,0.0,0.5390370867163186,1.2596813395958688,0.6044934687413603,-0.013755586475320688,0.0007620205740255753,0.2957117930494817
10827,10.0,299.52853999999996,-7832.0041,0.0,0.10827003668461432,0.0,0.0,0.0,0.0,0.5234033976108935,1.2669094605092288,0.5904208231374984,-0.003925123069804486,0.013431114409047786,0.3243117295770757
10828,10.0,300.11044,-7566.8425,0.0,0.10828003267203345,0.0,0.0,0.0,0.0,0.4809805107015805,1.231216205861579,0.5879344391146114,0.013602639412475987,0.004774682008199425,0.3199077089449327
10829,10.0,300.15488,-7492.7424,0.0,0.10829002865945259,0.0,0.0,0.0,0.0,0.46577846613875556,1.2217966276319387,0.5900315020515754,-0.004262448314920896,-0.007337345525114622,0.3145922293178357
10830,10.0,300.2329,-7579.3205,0.0,0.10830002464687194,0.0,0.0,0.0,0.0,0.4958182006609465,1.222783837204369,0.5853221486342984,0.0027945317181238072,-0.01137710345558269,0.3024600589804837
10831,10.0,300.48900000000003,-7532.5199,0.0,0.10831002063429152,0.0,0.0,0.0,0.0,0.4930559086358295,1.2118134796966789,0.5848285641130855,-0.010435063559360589,-0.007677955625730222,0.3007685291310427
10832,10.0,300.98935,-7370.9673,0.0,0.10832001662171087,0.0,0.0,0.0,0.0,0.47932038147273853,1.214898724926169,0.5463709200126114,0.0055288884379838055,-0.004997597030199425,0.31074944791608267
10833,10.0,300.71676,-7487.6188,0.0,0.10833001260913,0.0,0.0,0.0,0.0,0.48861909923045055,1.2170984908932687,0.5703315491023414,-0.0008539839535691542,-0.005099657457122005,0.3117384813386927
10834,10.0,299.9485,-7782.8042,0.0,0.10834000859654913,0.0,0.0,0.0,0.0,0.5095447909581555,1.2727990780404888,0.5834342914454814,0.0077175334786112534,0.01105038400058799,0.3283014626408317
10835,10.0,298.83282,-7952.7696,0.0,0.10835003757402606,0.0,0.0,0.0,0.0,0.5246320444171515,1.2800735044834186,0.6127378592400184,-0.003046710720236937,0.0063748888420275445,0.3098054433279167
10836,10.0,299.77341,-7755.3014,0.0,0.10836003356144541,0.0,0.0,0.0,0.0,0.5057348793896466,1.2494601792121187,0.6022228867247714,0.0027815078066384473,0.010871255568409389,0.29828257067319774
10837,10.0,299.67556,-7479.8377,0.0,0.10837002954886454,0.0,0.0,0.0,0.0,0.47809649694195056,1.2191609614718186,0.5764264916338654,9.50857259387305e-05,-0.015980086890611787,0.29455687032049976
10838,10.0,299.59976,-7520.9962,0.0,0.10838002553628412,0.0,0.0,0.0,0.0,0.49609506111827056,1.223673876092209,0.5664260779169015,0.006043564975928424,-0.010380611498986591,0.3024746396494227
10839,10.0,299.67136,-7705.3192,0.0,0.10839002152370325,0.0,0.0,0.0,0.0,0.5178418400645105,1.2356581929749688,0.5887245614100904,-0.0045585109762150055,-0.015180364050435286,0.3125472879660157
10840,10.0,299.89356000000004,-7632.659000000001,0.0,0.10840001751112283,0.0,0.0,0.0,0.0,0.49568515079031555,1.229769183393769,0.5946834143206834,-0.004006421900853057,0.0027143694497124074,0.3130461211227467
10841,10.0,300.49809,-7492.4675,0.0,0.10841001349854196,0.0,0.0,0.0,0.0,0.4787045381944595,1.2236778277675988,0.5751406671244644,-0.0007551075434958121,0.0030850162349673974,0.3161917661906977
10842,10.0,300.19759,-7622.8118,0.0,0.10842000948596109,0.0,0.0,0.0,0.0,0.5032123223381896,1.2279055124848386,0.5860266208988244,0.003410721426611997,0.015729161582847383,0.3002642446887737
10843,10.0,300.05304,-7839.0987,0.0,0.10843003846343802,0.0,0.0,0.0,0.0,0.5288946963953425,1.2462183868421788,0.6077771792679375,0.007041810767122614,0.016497688478945085,0.2950278492319817
10844,10.0,300.59772000000004,-7871.2583,0.0,0.10844003445085737,0.0,0.0,0.0,0.0,0.5224748146892495,1.2557905605368789,0.6144006026541184,0.0075173971294593325,0.004948015663056125,0.2909005472021487
10845,10.0,300.82937000000004,-7764.1754,0.0,0.10845003043827672,0.0,0.0,0.0,0.0,0.4996223164388835,1.2603415733610288,0.6001516008703515,0.0037091100035106564,-0.010518379062083189,0.2991578363745797
10846,10.0,300.57669,-7641.9398,0.0,0.10846002642569608,0.0,0.0,0.0,0.0,0.4854788649180335,1.2453864071850689,0.5920936281250915,0.01028319864762269,-0.0003963477727164797,0.3131055887711157
10847,10.0,300.221,-7546.2014,0.0,0.10847002241311521,0.0,0.0,0.0,0.0,0.49028320039968454,1.2328395338467886,0.5707340323070634,-0.004380792785525586,-0.002784731461831597,0.3102341291802247
10848,10.0,299.48318,-7546.6423,0.0,0.10848001840053456,0.0,0.0,0.0,0.0,0.5087275338249985,1.2130082028895888,0.5722551030921815,-0.00980875431947368,0.0005284331001797866,0.3162186983783557
10849,10.0,300.2629,-7499.9476,0.0,0.10849001438795391,0.0,0.0,0.0,0.0,0.49567449139926356,1.211799800820329,0.5723224740913304,-0.009823128184067272,-0.006995580420710033,0.29290406688988074
10850,10.0,299.96011,-7512.3237,0.0,0.10850001037537305,0.0,0.0,0.0,0.0,0.48875203764357056,1.2390779120624689,0.5557289027686725,-0.0035050487287713763,-0.002313145613539698,0.3225752316881967
10851,10.0,299.82281,-7677.0717,0.0,0.10851003935284997,0.0,0.0,0.0,0.0,0.4979597452773005,1.2439705928203388,0.5917077520895084,0.0073921610382994924,-0.014010423941721186,0.3192182834443917
10852,10.0,299.81846,-7842.9209,0.0,0.10852003534026933,0.0,0.0,0.0,0.0,0.5005319617161585,1.267449421487519,0.6160707529264494,-0.007067654420198183,-0.004485916470150486,0.3226193587300517
10853,10.0,299.93604,-7832.057,0.0,0.10853003132768868,0.0,0.0,0.0,0.0,0.5107623224108165,1.2584117372205688,0.6115756613753184,0.003248685713020317,0.0006923422017488553,0.3013404176199837
10854,10.0,299.9944,-7645.6443,0.0,0.10854002731510803,0.0,0.0,0.0,0.0,0.5159231395426496,1.2359349115772789,0.5722269347394014,-0.0054567218274365155,0.009931930675830241,0.2993291161714837
10855,10.0,299.85246,-7542.5992,0.0,0.10855002330252717,0.0,0.0,0.0,0.0,0.5083088994136825,1.2214273992954987,0.5630255193887924,0.02397232908863468,3.203273262088457e-06,0.29123394701505273
10856,10.0,300.06327999999996,-7562.8159,0.0,0.10856001928994652,0.0,0.0,0.0,0.0,0.5021473863505885,1.2183661680933788,0.5783936255105064,-0.001764129117780988,-0.0022994642040644483,0.2818329315272447
10857,10.0,300.60852,-7621.7776,0.0,0.10857001527736587,0.0,0.0,0.0,0.0,0.47534984949837755,1.2453006862266087,0.5961795287558384,0.014622607360638985,-0.011678551439833288,0.3120962092864977
10858,10.0,300.12496,-7687.2361,0.0,0.10858001126478523,0.0,0.0,0.0,0.0,0.4967022613731965,1.2475554716741386,0.5924700910672454,-0.014729964248484287,-0.0035738875220152366,0.3106799592242247
10859,10.0,300.03325,-7620.5826,0.0,0.10859004024226193,0.0,0.0,0.0,0.0,0.49974052219554954,1.233978021659149,0.5827482603327755,0.023226790810805774,0.0006422321916308825,0.3337076788143837
10860,10.0,300.0954,-7545.8046,0.0,0.10860003622968128,0.0,0.0,0.0,0.0,0.5099539818785396,1.2151532533512888,0.5686289038993034,-0.0022964059112876175,0.016879836767410183,0.3145574241769007
10861,10.0,299.73535,-7714.8397,0.0,0.10861003221710064,0.0,0.0,0.0,0.0,0.5127435911263525,1.2480427436472288,0.5843322742141055,-0.003152998426576717,0.012685657191226888,0.2994431169402347
10862,10.0,299.51351,-7785.6088,0.0,0.10862002820451999,0.0,0.0,0.0,0.0,0.5231509564809795,1.2481953391122886,0.5952843628224924,-0.007080840553024554,0.0030589390277437774,0.30032297266456975
10863,10.0,299.55631,-7642.2695,0.0,0.10863002419193912,0.0,0.0,0.0,0.0,0.4832235525804515,1.2471080204299787,0.5927274971226495,-0.00948516286886269,-0.005577484723379885,0.3154647085814427
10864,10.0,299.87447000000003,-7491.6185,0.0,0.10864002017935848,0.0,0.0,0.0,0.0,0.4617349902896956,1.2229469704704687,0.5925830177908904,0.007184420145822063,-0.006343112406966453,0.3117610970809247
10865,10.0,299.66045,-7612.6708,0.0,0.10865001616677783,0.0,0.0,0.0,0.0,0.48428285489749656,1.232409814479379,0.5973691147707414,-0.0023671671439462077,-0.01007164975861944,0.29618802059648175
10866,10.0,299.58202,-7757.5525,0.0,0.10866001215419718,0.0,0.0,0.0,0.0,0.5166795003447965,1.2550016440090188,0.5864210994277564,0.0019552828021463884,0.015618110385137484,0.31159483287201567
10867,10.0,300.14492,-7744.4890000000005,0.0,0.10867004113167389,0.0,0.0,0.0,0.0,0.5361671267355755,1.2433031649794688,0.5746609742621225,0.0021550490110367783,0.0009061227943623572,0.2992910990277317
10868,10.0,299.76391,-7648.374,0.0,0.10868003711909324,0.0,0.0,0.0,0.0,0.5114054322492866,1.2329594013336187,0.5805498521208095,0.014834084815510185,0.013435795624509786,0.3232180882141417
10869,10.0,300.21676,-7563.3761,0.0,0.1086900331065126,0.0,0.0,0.0,0.0,0.47892164729338654,1.2289908046669489,0.5911650654684495,-0.0011420964012661388,-0.014211909737356285,0.3148194911827647
10870,10.0,300.33367000000004,-7644.0633,0.0,0.10870002909393195,0.0,0.0,0.0,0.0,0.48480404035143354,1.2450223464241388,0.5937780044288264,-0.00015411435735740285,-0.012421447161401387,0.3237997748315497
10871,10.0,300.41927999999996,-7742.9269,0.0,0.10871002508135108,0.0,0.0,0.0,0.0,0.5122014111303435,1.2388981614947288,0.6025568539577314,-0.022689265685756178,-0.015742289251142984,0.30665887620237475
10872,10.0,300.47742,-7533.9327,0.0,0.10872002106877043,0.0,0.0,0.0,0.0,0.5087829586054685,1.2110471586460487,0.5702972708514585,-0.012531244968737589,-0.0022162711019539276,0.2915516718489097
10873,10.0,300.48773,-7381.65,0.0,0.10873001705618979,0.0,0.0,0.0,0.0,0.48607244709161557,1.2080749921277187,0.5496899017751694,-0.0013959607422705986,0.0024677043519934576,0.2967708825840057
10874,10.0,299.70383,-7626.8604,0.0,0.10874001304360914,0.0,0.0,0.0,0.0,0.5076827311168846,1.2262422624456888,0.5844501050682345,0.004195475624386206,0.016061220865869086,0.29272823760002775
10875,10.0,299.95923999999997,-7833.1156,0.0,0.1087500090310285,0.0,0.0,0.0,0.0,0.5060759089758035,1.2692930300444687,0.6057025902181914,0.012668262726760186,0.0027079778680816073,0.3130088537840687
10876,10.0,300.00003,-7729.3805,0.0,0.1087600380085052,0.0,0.0,0.0,0.0,0.49890874518845946,1.2500277005931288,0.6006022337198255,0.011429152086719489,-0.009339354760922552,0.3030989435660367
10877,10.0,299.83877,-7577.5595,0.0,0.10877003399592433,0.0,0.0,0.0,0.0,0.4790680720653376,1.2353969770991888,0.5889238069097544,0.013150287077582288,-0.006743189649326004,0.3101206654340267
10878,10.0,299.44764,-7579.9995,0.0,0.1087800299833439,0.0,0.0,0.0,0.0,0.5128602871403696,1.2319130179553488,0.5593573007142675,0.017744837232029083,-0.011921550092065388,0.2997855448115297
10879,10.0,299.72745,-7584.7954,0.0,0.10879002597076304,0.0,0.0,0.0,0.0,0.5150779369717345,1.2266542499363489,0.5638562020857745,0.0017703528038702182,0.005432049592801555,0.3180620840202837
10880,10.0,300.40681,-7516.9129,0.0,0.10880002195818239,0.0,0.0,0.0,0.0,0.48692777203102955,1.2257597527480688,0.5722662792407844,-0.007891368286967413,0.012663501464540289,0.31794544880127273
10881,10.0,299.93469,-7464.4182,0.0,0.10881001794560174,0.0,0.0,0.0,0.0,0.4568897499015076,1.223670329716859,0.5884366261291735,-0.016000339733610588,0.010119933760334699,0.3158300055074947
10882,10.0,300.99045,-7493.7011,0.0,0.10882001393302088,0.0,0.0,0.0,0.0,0.46734238727060257,1.2296569152826886,0.5808986837327365,-0.0063029182953746035,0.007048757305833183,0.32311914434187666
10883,10.0,300.94518,-7668.7819,0.0,0.10883000992044045,0.0,0.0,0.0,0.0,0.5006662882819155,1.2433136014554989,0.5871383690410454,0.005317551926201515,-0.0027421258150017473,0.3068346548297227
10884,10.0,300.77695,-7814.0107,0.0,0.10884003889791716,0.0,0.0,0.0,0.0,0.5372084033333415,1.248604489502669,0.5894512643818104,-0.01088892462365319,0.00024224283858500682,0.29336849007321575
10885,10.0,299.96245,-7796.8415,0.0,0.10885003488533629,0.0,0.0,0.0,0.0,0.5218794390629905,1.2452062513172888,0.6029594080899604,0.005579719446475433,-0.0004212727321913817,0.2819118130475297
10886,10.0,300.43643,-7719.2303,0.0,0.10886003087275564,0.0,0.0,0.0,0.0,0.5093424347806845,1.2545736471667788,0.5825371902044444,0.002504170108517348,0.002187113310451278,0.3119431781238947
10887,10.0,299.86569,-7757.2612,0.0,0.108870026860175,0.0,0.0,0.0,0.0,0.5014252734018215,1.2502089710360187,0.6063794615499933,0.02206646340579038,-0.008721248996495262,0.3078049735229857
10888,10.0,299.85936,-7694.4472,0.0,0.10888002284759435,0.0,0.0,0.0,0.0,0.5006986008276045,1.2440262202508288,0.5941950176399825,-0.008243033959424112,-0.010398014069454089,0.31358987165641067
10889,10.0,299.46245,-7544.5736,0.0,0.1088900188350137,0.0,0.0,0.0,0.0,0.47580453534825157,1.235242152483909,0.5823152884325444,0.007751052602519333,-0.006679802344270165,0.3056639963266877
10890,10.0,300.17322,-7576.8939,0.0,0.10890001482243283,0.0,0.0,0.0,0.0,0.5054999573539616,1.224418310940679,0.5732683126621775,-0.018311145752669383,-0.008441510300937202,0.3070727990007257
10891,10.0,300.43493,-7605.7969,0.0,0.10891001080985219,0.0,0.0,0.0,0.0,0.49966387995798556,1.2293917477315188,0.5829167334269024,0.01042666472928169,0.0035621783025346267,0.3104506404615927
10892,10.0,300.3084,-7589.8416,0.0,0.10892003978732911,0.0,0.0,0.0,0.0,0.5041236192131275,1.214737314185239,0.5882613439943745,-0.0028703529191317773,0.004068047974585076,0.3102887230956127
10893,10.0,299.81976000000003,-7769.1679,0.0,0.10893003577474825,0.0,0.0,0.0,0.0,0.4818503352499255,1.259266818979959,0.6205159115126524,0.005936123886999814,0.015701055038323485,0.3080246562771667
10894,10.0,299.69738,-7773.5534,0.0,0.1089400317621676,0.0,0.0,0.0,0.0,0.5130232886839565,1.2517791033909789,0.5981637662941675,-0.001099465321858779,0.014552249300195186,0.3107066482318587
10895,10.0,299.63111000000004,-7666.5209,0.0,0.10895002774958695,0.0,0.0,0.0,0.0,0.49568456310525755,1.2445170385992688,0.5902293290010994,-0.003448794704419536,0.00949058922844823,0.3036865982265337
10896,10.0,299.76772,-7637.5205,0.0,0.10896002373700653,0.0,0.0,0.0,0.0,0.5228079206596244,1.2373999698968687,0.5614076224241185,0.006114244439303944,0.0034215004825008067,0.2956757618759257
10897,10.0,299.87564,-7629.2195,0.0,0.10897001972442566,0.0,0.0,0.0,0.0,0.49337535599485655,1.2440514501783189,0.5816654202159074,0.0013893220289404088,0.008309253197184441,0.28475508402063876
10898,10.0,300.12029,-7607.1333,0.0,0.10898001571184479,0.0,0.0,0.0,0.0,0.49256753222013056,1.2415576390321987,0.5782534524916725,0.0003356051517466497,-0.00013996682243864987,0.3116977486846727
10899,10.0,300.1945,-7664.4381,0.0,0.10899001169926414,0.0,0.0,0.0,0.0,0.4798326604582966,1.2433810839121588,0.6065840266126824,-0.0030807766952239872,-0.0062455927590420145,0.3181335080198327
10900,10.0,300.80901,-7672.5986,0.0,0.10900004067674107,0.0,0.0,0.0,0.0,0.5150603266849966,1.2312597756158787,0.5859582771795795,0.009953039715163542,-0.006155776446327834,0.3186018423485537
10901,10.0,299.93972,-7643.278,0.0,0.1090100366641602,0.0,0.0,0.0,0.0,0.4972566814304135,1.2315465253941789,0.5945624221262424,0.02023797760658288,-0.00907977153502868,0.3044981102316237
10902,10.0,300.43268,-7631.9529,0.0,0.10902003265157956,0.0,0.0,0.0,0.0,0.5186244643092496,1.2299997991165288,0.5712988787078095,0.019825509835375482,-0.013679699109081187,0.31174605031693975
10903,10.0,300.52952,-7708.8488,0.0,0.10903002863899891,0.0,0.0,0.0,0.0,0.5017206864684766,1.2402745604305687,0.6013022882139154,-0.00939229981442282,-0.0054574152958049545,0.2937975001655557
10904,10.0,299.34943,-7627.8145,0.0,0.10904002462641849,0.0,0.0,0.0,0.0,0.5067016517075594,1.2302957694707386,0.5816677304261354,0.00038790010398275963,-0.0026029658436177274,0.2917077022318087
10905,10.0,299.62766,-7558.1089,0.0,0.10905002061383762,0.0,0.0,0.0,0.0,0.4707784500822155,1.2395216142812588,0.5871762747272864,-0.014023866730797885,0.02820172214554327,0.3076606765762447
10906,10.0,299.57894,-7697.1707,0.0,0.10906001660125675,0.0,0.0,0.0,0.0,0.5047107064535685,1.2484334528857888,0.5866035047107584,-0.005382733291884416,0.02909683741638427,0.3103948509110867
10907,10.0,298.93292,-7783.1867,0.0,0.1090700125886761,0.0,0.0,0.0,0.0,0.5136463767004505,1.2570120335324289,0.5952360003952194,-0.026229233242123774,0.02730154569045277,0.3189753567329167
10908,10.0,299.14739,-7626.0621,0.0,0.10908004156615303,0.0,0.0,0.0,0.0,0.5181957176619355,1.2337553092871687,0.5661814793427615,-0.005125331593455845,0.007356811782060793,0.3117158554639597
10909,10.0,299.54902999999996,-7571.2884,0.0,0.10909003755357216,0.0,0.0,0.0,0.0,0.48283632892223555,1.2382275925785489,0.5804187071603664,0.0036106522886436366,0.0008302079589126461,0.30948237866603273
10910,10.0,299.67886,-7691.1085,0.0,0.10910003354099151,0.0,0.0,0.0,0.0,0.5046426971068565,1.236977748580199,0.5962844913336974,0.025958961950200077,-0.016503037426222982,0.3057576409009297
10911,10.0,299.91822,-7695.493,0.0,0.10911002952841087,0.0,0.0,0.0,0.0,0.47323613886227056,1.2512735929160888,0.6147280141589314,0.004742324980831035,-0.014782814360450185,0.3171331363286037
10912,10.0,300.3294,-7719.9264,0.0,0.10912002551583022,0.0,0.0,0.0,0.0,0.5120145272818994,1.241983508049229,0.5926668338391624,0.01140308217489659,-0.015457169792253884,0.3055356580690217
10913,10.0,300.47087,-7640.4758,0.0,0.10913002150324957,0.0,0.0,0.0,0.0,0.5023908298196146,1.234864615496649,0.5852584456005114,-0.004175050630195415,0.02058627523570718,0.3058790485279117
10914,10.0,300.13085,-7511.4736,0.0,0.1091400174906687,0.0,0.0,0.0,0.0,0.5091929905234356,1.2248481316330988,0.5492592502176675,0.014819634855834086,0.017076832851852183,0.29533874476016475
10915,10.0,300.02804,-7685.4195,0.0,0.10915001347808806,0.0,0.0,0.0,0.0,0.5094747956412474,1.2381877718496188,0.5885130859817194,0.0009263405687751959,0.009743056804189841,0.2927872898158557
10916,10.0,300.18431,-7929.2116,0.0,0.10916000946550741,0.0,0.0,0.0,0.0,0.5336711776317445,1.2593467644128489,0.6172643919417524,-0.006364479723750244,0.0007078731270291384,0.28986172266962473
10917,10.0,299.82237000000003,-7766.2741,0.0,0.10917003844298412,0.0,0.0,0.0,0.0,0.49710842267578154,1.2450404836009288,0.6186044455965054,0.0025986391643657175,0.027103458335653075,0.3075725947450517
10918,10.0,300.1679,-7594.2026,0.0,0.10918003443040347,0.0,0.0,0.0,0.0,0.48656589989031557,1.241102791062309,0.5807792722084514,-0.0035768190572045564,0.007386158950007133,0.3237677155983857
10919,10.0,299.36609,-7635.6261,0.0,0.10919003041782283,0.0,0.0,0.0,0.0,0.5095770832388424,1.2328489570727188,0.5786136426372205,0.001216681133177079,0.0016584119725725184,0.3231334210357857
10920,10.0,299.70329,-7691.6805,0.0,0.10920002640524218,0.0,0.0,0.0,0.0,0.5258381869386886,1.235150149374829,0.5770904541593934,-0.005928809234527915,-0.007327946009236963,0.3092916748647117
10921,10.0,298.95355,-7595.4877,0.0,0.10921002239266153,0.0,0.0,0.0,0.0,0.4891014772055575,1.2409880911509887,0.5787490533805845,0.003113370721790767,0.014252914955653187,0.2971085076498267
10922,10.0,299.92332000000005,-7481.8017,0.0,0.10922001838008066,0.0,0.0,0.0,0.0,0.4769066981445265,1.2249593864940789,0.5724148318379455,0.0022667249787583377,-0.016135198255670086,0.2987938769386597
10923,10.0,299.88034,-7534.2393,0.0,0.10923001436750002,0.0,0.0,0.0,0.0,0.4647940126065976,1.240777740430229,0.5846488743403515,-0.00047713811433486547,-0.014733922003374885,0.30455968544020073
10924,10.0,300.07372999999995,-7656.5072,0.0,0.10924001035491937,0.0,0.0,0.0,0.0,0.5037186535456605,1.2417833911544789,0.5818849205850705,-0.001312220383781069,-0.011117639489225591,0.3076566742383497
10925,10.0,300.29362000000003,-7848.3288,0.0,0.10925003933239608,0.0,0.0,0.0,0.0,0.5109896552032526,1.2812724833267488,0.5934338540323615,0.004647499362272475,0.02443860955940298,0.3278168149855007
10926,10.0,300.638,-7874.9791,0.0,0.10926003531981565,0.0,0.0,0.0,0.0,0.5557643259921685,1.251462969359779,0.5865697432174264,-0.0037894121004358565,0.0029119401482861173,0.30540641801876667
10927,10.0,299.51324,-7608.3048,0.0,0.10927003130723478,0.0,0.0,0.0,0.0,0.49176440992586856,1.2461027750057687,0.5748674847650035,-0.0013401966243421085,-0.005252964021102185,0.3162505346964977
10928,10.0,300.47245,-7449.439,0.0,0.10928002729465414,0.0,0.0,0.0,0.0,0.49168532575556356,1.2059113991891888,0.5668466881659124,-0.005897281856341405,-0.01085410225746649,0.3012955813030587
10929,10.0,299.66977,-7684.2077,0.0,0.10929002328207327,0.0,0.0,0.0,0.0,0.4849196015253386,1.2416817621694487,0.6092059227039435,0.0013950038288761588,0.020447458958757082,0.3037226699300937
10930,10.0,299.48963,-7645.6285,0.0,0.10930001926949262,0.0,0.0,0.0,0.0,0.5026748438226445,1.2411896265958788,0.5802157430328354,-0.008483024778734362,0.005087742243896066,0.30058741067566774
10931,10.0,299.66409,-7482.0571,0.0,0.10931001525691197,0.0,0.0,0.0,0.0,0.47091116558031354,1.2296978505867289,0.5737495456646715,-0.016921644479786287,0.009280420892706231,0.31143862010409873
10932,10.0,300.03423,-7544.9048,0.0,0.10932001124433133,0.0,0.0,0.0,0.0,0.5163475190820325,1.2246707115405888,0.5524444930995265,0.0012580681441116588,0.003975141654365936,0.2948213589941027
10933,10.0,300.00464,-7681.0026,0.0,0.10933004022180803,0.0,0.0,0.0,0.0,0.49421382045260653,1.2473417772280488,0.5932773879519193,0.011474580141702889,0.02165529462121118,0.3013922858926027
10934,10.0,300.1615,-7779.8881,0.0,0.10934003620922761,0.0,0.0,0.0,0.0,0.5137802979661675,1.2492860015199287,0.6018254191080444,0.017901923421532285,-0.007125765428008295,0.3029169942455797
10935,10.0,299.36663,-7833.9775,0.0,0.10935003219664674,0.0,0.0,0.0,0.0,0.5107836411929205,1.2558620959939386,0.6146877779974604,0.0028863704780375875,-0.026754176840681678,0.30693417625454467
10936,10.0,300.19444,-7643.3736,0.0,0.1093600281840661,0.0,0.0,0.0,0.0,0.5026438991645905,1.2291943666120388,0.5915564333195745,0.013493525548957287,-0.026404736265444578,0.3102446872462667
10937,10.0,299.9042,-7479.2855,0.0,0.10937002417148523,0.0,0.0,0.0,0.0,0.4913237170598756,1.2202862770328788,0.5619059996183045,0.0012825822104060088,0.01325552627271859,0.3109098555394137
10938,10.0,300.40209,-7660.0154,0.0,0.10938002015890458,0.0,0.0,0.0,0.0,0.5215458264675654,1.245877124208499,0.5610305008693994,0.0052549092586441646,0.01203359934112379,0.3057176479194827
10939,10.0,299.83893,-7729.7935,0.0,0.10939001614632415,0.0,0.0,0.0,0.0,0.5083944683846275,1.2465461732495289,0.5947235390246434,-0.017743104574358085,0.0075868866319174135,0.2972599176122698
10940,10.0,299.24425,-7504.3885,0.0,0.10940001213374329,0.0,0.0,0.0,0.0,0.4938974939038875,1.2206428397430686,0.5666064161696995,-0.0021726417685480476,-0.004714992255408505,0.3065766914867637
10941,10.0,300.25128,-7411.4812,0.0,0.10941004111121999,0.0,0.0,0.0,0.0,0.44510336129328154,1.229308053273259,0.5784938663428995,-0.006531908460999175,0.005306128341924095,0.3151783235731787
10942,10.0,300.68836,-7611.0003,0.0,0.10942003709863957,0.0,0.0,0.0,0.0,0.4952096223858845,1.240329377260979,0.5780150651406454,0.008750308908038252,-0.012006843458983188,0.3166239477558507
10943,10.0,300.45963,-7833.1088,0.0,0.1094300330860587,0.0,0.0,0.0,0.0,0.5104562195556065,1.2615857431588187,0.6090275501563395,-0.007969768412129902,-0.007470601186840932,0.32734868330679967
10944,10.0,300.34892,-7725.99,0.0,0.10944002907347805,0.0,0.0,0.0,0.0,0.5252437131050185,1.2368632513188988,0.5864010370757764,-0.01049361725613939,0.0004384960587161916,0.31251675874050266
10945,10.0,300.33205,-7541.2879,0.0,0.10945002506089718,0.0,0.0,0.0,0.0,0.47323049505921355,1.2337460887112588,0.5853866420031634,-0.0020224818527534182,0.024086416996894275,0.3114035616506387
10946,10.0,300.74211,-7476.4807,0.0,0.10946002104831654,0.0,0.0,0.0,0.0,0.4885994827085145,1.2154611800566788,0.5686027721792244,0.001153567912273289,0.01120930214627199,0.2890088295304507
10947,10.0,300.3596,-7698.5775,0.0,0.10947001703573611,0.0,0.0,0.0,0.0,0.49228236311198653,1.2465584335757387,0.6013345399645984,0.004514367823683416,-0.01961932255927638,0.3029719934610077
10948,10.0,299.77481,-8022.8772,0.0,0.10948001302315524,0.0,0.0,0.0,0.0,0.5546073261004815,1.2574381051994787,0.6267089467863574,0.002027682460216678,-0.01976617289626938,0.2860071571692087
10949,10.0,299.68406,-7882.0298,0.0,0.1094900090105746,0.0,0.0,0.0,0.0,0.5323291582717975,1.2674030146329387,0.5962081125411595,0.003925631214729637,-0.0013911326055440988,0.30672691594658974
10950,10.0,299.63586000000004,-7566.0082,0.0,0.1095000379880513,0.0,0.0,0.0,0.0,0.4943351166220775,1.2356076317949787,0.5699348515556905,0.005318579260477905,0.004146850664012295,0.3046664009407327
10951,10.0,299.16893999999996,-7661.1455,0.0,0.10951003397547066,0.0,0.0,0.0,0.0,0.5045370556514306,1.237319821813959,0.5869400354664714,0.0009066484279842331,0.005271628290594205,0.3060688201391407
10952,10.0,300.03167,-7903.0682,0.0,0.10952002996289001,0.0,0.0,0.0,0.0,0.5326631052397555,1.2478387764020986,0.6218335419426924,-0.0045410249139392666,0.00955768259706983,0.2964981055245847
10953,10.0,299.90072000000004,-7691.4409,0.0,0.10953002595030914,0.0,0.0,0.0,0.0,0.5000689368179615,1.2393605075153589,0.5985765339874044,-0.0028377890874179772,0.013883644062708988,0.3094332765661867
10954,10.0,300.0499,-7484.4173,0.0,0.1095400219377285,0.0,0.0,0.0,0.0,0.4824448597461005,1.225646167411859,0.5669849765395605,-5.865199318425104e-05,-0.0002913966445836097,0.3151399517918917
10955,10.0,300.63015,-7500.4707,0.0,0.10955001792514785,0.0,0.0,0.0,0.0,0.4803469152815495,1.2285347407969387,0.5710741297031284,0.008359638983582132,-0.019481033172378284,0.3204632638422617
10956,10.0,300.79042000000004,-7693.3465,0.0,0.1095600139125672,0.0,0.0,0.0,0.0,0.5156693710551046,1.2373034071623388,0.5856124650529505,0.00998195736639249,-0.011317967139996388,0.3114606886912767
10957,10.0,300.21936,-7816.8671,0.0,0.10957000989998655,0.0,0.0,0.0,0.0,0.5173570201566625,1.2549832028571988,0.6037921679496474,0.008407699259675312,0.01183600239937249,0.31306714606232167
10958,10.0,300.50826,-7710.4098,0.0,0.10958003887746326,0.0,0.0,0.0,0.0,0.5049783767324855,1.2415427442557287,0.5972509090140754,-0.0052164336192219145,0.00993132556287052,0.2918100810219127
10959,10.0,299.89016000000004,-7515.5324,0.0,0.10959003486488261,0.0,0.0,0.0,0.0,0.4661905042919206,1.244559493778459,0.5737841785530895,0.003805585294557027,-0.0025381873461745876,0.31799364910852973
10960,10.0,299.96751,-7519.0549,0.0,0.10960003085230197,0.0,0.0,0.0,0.0,0.4979173711581185,1.222376004039119,0.5653115230719035,0.004503851199570506,-0.009795171600558171,0.3119855015805717
10961,10.0,300.29523,-7809.5108,0.0,0.1096100268397211,0.0,0.0,0.0,0.0,0.5092559640171506,1.2591367176671187,0.6055035980310525,0.01172527746819479,-0.0024776042107704974,0.3273258750470487
10962,10.0,299.78671,-7765.4433,0.0,0.10962002282714045,0.0,0.0,0.0,0.0,0.5174411807099685,1.252895603676169,0.5901640959596615,-0.014499242134463788,0.0017852223504127283,0.2998068331961307
10963,10.0,299.73184,-7439.0539,0.0,0.1096300188145598,0.0,0.0,0.0,0.0,0.4716253447807976,1.2174125984242687,0.5722486588215454,-0.002032471992114368,-0.009332433958764522,0.31263351554952573
10964,10.0,300.65514,-7519.2822,0.0,0.10964001480197916,0.0,0.0,0.0,0.0,0.49990925873470254,1.2016852343470987,0.5840795797716665,-0.01855280691476948,-0.0012097493879179688,0.28238394706412573
10965,10.0,299.78287,-7815.6434,0.0,0.10965001078939851,0.0,0.0,0.0,0.0,0.5159211738374555,1.2550341693372289,0.6048050532796114,0.011888130064017089,0.0008705401663606251,0.30512796675878573
10966,10.0,300.51681,-7825.5411,0.0,0.10966003976687522,0.0,0.0,0.0,0.0,0.5317217857643545,1.251159298304809,0.5958880268345694,-0.008504308603709912,0.017986802369159182,0.3002028012027097
10967,10.0,300.23362000000003,-7734.1254,0.0,0.10967003575429457,0.0,0.0,0.0,0.0,0.5112168968031795,1.2521390098264988,0.5876251141240835,0.007314797164014273,-0.01100377449598799,0.31461949587802673
10968,10.0,300.25027,-7649.6334,0.0,0.10968003174171392,0.0,0.0,0.0,0.0,0.5194555624387726,1.221107313588909,0.5847346966238215,0.007425515610391333,-0.007425869437326253,0.2925977613846507
10969,10.0,300.14752000000004,-7541.6411,0.0,0.10969002772913328,0.0,0.0,0.0,0.0,0.4819108870759015,1.212388296478409,0.5981713555374164,0.01615675312504738,0.0019087975220086482,0.29590518196356774
10970,10.0,299.89258,-7696.8527,0.0,0.10970002371655241,0.0,0.0,0.0,0.0,0.4989662673966365,1.241795550155679,0.5988892128357635,0.004015072219606776,0.010612822077403989,0.2904912954867587
10971,10.0,299.58654,-7787.2529,0.0,0.10971001970397176,0.0,0.0,0.0,0.0,0.49860120351810755,1.2557050422284388,0.6128241982810394,-0.008651697787106092,-0.01149335971905629,0.30002059856972774
10972,10.0,299.76716,-7593.5365,0.0,0.10972001569139112,0.0,0.0,0.0,0.0,0.5079226991380675,1.228375052581179,0.5719477336743465,-0.013946788795690885,-0.0016314710709636583,0.3152609946488377
10973,10.0,299.52027000000004,-7556.6685,0.0,0.10973001167881047,0.0,0.0,0.0,0.0,0.4926462820179025,1.241044427856549,0.5633478545106044,0.014473504568673684,0.00031196047430310175,0.3198313605498977
10974,10.0,299.60247000000004,-7719.4755,0.0,0.10974004065628717,0.0,0.0,0.0,0.0,0.5081428885172985,1.2533173183677886,0.5850675999441765,0.006415459578681564,0.007772453660531453,0.3191791517255297
10975,10.0,299.80204,-7718.8730000000005,0.0,0.1097500366437063,0.0,0.0,0.0,0.0,0.5030315686528505,1.248800350746999,0.5945127627388415,-0.005293074843535815,-0.010503971658911291,0.3086975556685767
10976,10.0,300.08496,-7602.015,0.0,0.10976003263112588,0.0,0.0,0.0,0.0,0.4911922377268995,1.2288681000798387,0.5907623897462084,-0.008684612304679502,-0.0034853342255507067,0.3157876617858157
10977,10.0,300.50219,-7553.4471,0.0,0.10977002861854523,0.0,0.0,0.0,0.0,0.4916800872525466,1.2318691442260188,0.5725100469498424,0.005625636495957095,0.015074745899761587,0.3127332396243677
10978,10.0,299.62799,-7581.5001,0.0,0.10978002460596437,0.0,0.0,0.0,0.0,0.4962824515917645,1.2341271720738687,0.5741770460143625,0.012814406828433487,0.014250557122670487,0.3167621145394867
10979,10.0,299.77075,-7691.0704,0.0,0.10979002059338372,0.0,0.0,0.0,0.0,0.5026265219253755,1.2547528911094687,0.5805139425372654,-0.004362047861325605,-0.015068764684421285,0.31770393050743667
10980,10.0,300.24331,-7801.6121,0.0,0.10980001658080285,0.0,0.0,0.0,0.0,0.5305706829882495,1.2369614352535887,0.6039631235065194,-0.019082985976594084,-0.015316222650343485,0.29575220146346975
10981,10.0,300.11843999999996,-7720.5578,0.0,0.10981001256822243,0.0,0.0,0.0,0.0,0.5099561806312565,1.2343487698707387,0.6025518485022374,-0.016746924698792784,-0.014951984570645987,0.29502237768144174
10982,10.0,299.8626,-7530.1407,0.0,0.10982004154569913,0.0,0.0,0.0,0.0,0.48684440181280153,1.2222875473053887,0.5798427555385245,-0.004005096772372276,0.0074992720103455235,0.2852274105547537
10983,10.0,299.83539,-7682.4988,0.0,0.10983003753311826,0.0,0.0,0.0,0.0,0.4950640588765185,1.2453664461580987,0.5948572576403404,0.0013441237790796886,-0.0021276755529602283,0.3059339666833317
10984,10.0,299.46398999999997,-7905.6256,0.0,0.10984003352053762,0.0,0.0,0.0,0.0,0.5470445590765944,1.2583000770595487,0.5977681529251234,-0.0031327798314312967,0.008904866633241911,0.29735017793117774
10985,10.0,299.50164,-7624.549,0.0,0.10985002950795719,0.0,0.0,0.0,0.0,0.5067721637820185,1.233677896979529,0.5772224401174194,0.0035869158918010366,0.010239380647048189,0.3214950361540897
10986,10.0,299.67618999999996,-7386.7416,0.0,0.10986002549537632,0.0,0.0,0.0,0.0,0.48016215925831557,1.2059893181218788,0.5592335018170494,0.015583025587174884,0.012723599354471487,0.3062918567511527
10987,10.0,299.89172,-7507.2669,0.0,0.10987002148279568,0.0,0.0,0.0,0.0,0.47595486113308755,1.2221409300159187,0.5839258393339934,-0.0010608991992025992,-0.013044485528640487,0.3169293919984957
10988,10.0,299.98191,-7596.3675,0.0,0.10988001747021481,0.0,0.0,0.0,0.0,0.4931651369966095,1.2261181393084388,0.5898227725309755,-0.005114150074627315,-0.01079823975295329,0.3060382605161247
10989,10.0,299.99841000000004,-7739.0285,0.0,0.10989001345763416,0.0,0.0,0.0,0.0,0.5098011432334555,1.2590246522060589,0.5836456351513395,-0.010470595200617291,0.0017102913909426184,0.3217804281772557
10990,10.0,299.42615,-7802.2575,0.0,0.10990000944505374,0.0,0.0,0.0,0.0,0.5270773918109884,1.2644737085938387,0.5801403572253955,-0.01033730518971259,0.028528696939563176,0.32204182643805374
10991,10.0,299.98992999999996,-7552.1482,0.0,0.10991003842253022,0.0,0.0,0.0,0.0,0.48043590903783256,1.239608956439879,0.5756195899167305,0.005322269922642145,0.00012670523287733288,0.3226468684702667
10992,10.0,299.86487,-7589.8607,0.0,0.1099200344099498,0.0,0.0,0.0,0.0,0.48076002747982055,1.2457846144743687,0.5805834514941254,-0.008854868415007471,-0.014630488419916788,0.31181750471399167
10993,10.0,300.0221,-7799.4324,0.0,0.10993003039736893,0.0,0.0,0.0,0.0,0.5057938505454666,1.241413858843009,0.6236249478544904,0.008449481336823881,-0.0008749344496593072,0.2946532810675147
10994,10.0,300.50241,-7643.7189,0.0,0.10994002638478828,0.0,0.0,0.0,0.0,0.5003760529232715,1.231331311072939,0.5917922976778524,6.646391030172723e-05,0.01051839020783429,0.2978812628385917
10995,10.0,300.42101,-7365.3144,0.0,0.10995002237220763,0.0,0.0,0.0,0.0,0.4793547002536256,1.2126238771266589,0.5468930680541434,-0.0027146642041664974,0.006453112357697604,0.3089353553345457
10996,10.0,299.35102,-7485.9732,0.0,0.10996001835962677,0.0,0.0,0.0,0.0,0.5073256820466465,1.2142322090103888,0.5539910775221625,-0.011666381292882187,0.006731655924762714,0.3134682107169037
10997,10.0,299.92547,-7729.5756,0.0,0.10997001434704612,0.0,0.0,0.0,0.0,0.5248065666143755,1.2364650440295988,0.5883264149157965,0.0034090553394725666,0.00969395683216905,0.3088188822355507
10998,10.0,299.19903,-7796.1973,0.0,0.1099800103344657,0.0,0.0,0.0,0.0,0.5264571712922774,1.2456619098872588,0.5977302067088784,-0.016339782570110983,0.01064362386719389,0.3057837118260027
10999,10.0,299.44343,-7690.9256,0.0,0.1099900393119424,0.0,0.0,0.0,0.0,0.4974288427549045,1.223735380373279,0.6166850560645764,0.0005393436860640775,-0.02093755080687538,0.2966102824431557
11000,10.0,299.72982,-7639.8194,0.0,0.11000003529936175,0.0,0.0,0.0,0.0,0.49664647182269056,1.239766212855399,0.5859016466314904,-0.004904341240020795,-0.031868010578627766,0.2906531115277287
11001,10.0,299.39103,-7614.4206,0.0,0.11001003128678088,0.0,0.0,0.0,0.0,0.5024936443072615,1.2281566971846287,0.5839433888257255,0.023509548383711776,-0.007942457167609492,0.29607172988250474
11002,10.0,300.07911,-7709.5015,0.0,0.11002002727420024,0.0,0.0,0.0,0.0,0.5168686032109595,1.246050896600649,0.5805764904659384,0.00926178327169184,0.01142929495498359,0.30951087125884474
11003,10.0,300.67795,-7756.1329,0.0,0.11003002326161959,0.0,0.0,0.0,0.0,0.5065782277128785,1.2564776454296886,0.5946148375539154,0.0015889086899130785,0.00979197540444273,0.3149925542998447
11004,10.0,299.97776,-7555.6764,0.0,0.11004001924903872,0.0,0.0,0.0,0.0,0.48309513326277753,1.2349410145541888,0.5787007821458204,-0.00972620169275137,0.014738567755083386,0.31025730221001174
11005,10.0,299.92869,-7478.1778,0.0,0.1100500152364583,0.0,0.0,0.0,0.0,0.4647273103525146,1.232251646138769,0.5762004051390525,0.0007993402470712403,0.011203444547443887,0.3111529443709047
11006,10.0,299.64515,-7648.7462,0.0,0.11006001122387743,0.0,0.0,0.0,0.0,0.5008087917759795,1.2388324015632386,0.5853866217381615,0.0023855634087867777,0.015318715245589486,0.30493272359701673
11007,10.0,299.97275,-7717.2839,0.0,0.11007004020135436,0.0,0.0,0.0,0.0,0.5180901066040126,1.249254894741859,0.5785165935426424,-0.0069511729112273525,-0.004903709377258435,0.3160378940305117
11008,10.0,299.96927,-7580.8434,0.0,0.11008003618877371,0.0,0.0,0.0,0.0,0.4958710213886595,1.238404202070979,0.5701118764806615,-0.013441116200784885,-0.013891941567777887,0.33674842209948164
11009,10.0,299.63445,-7623.1945,0.0,0.11009003217619284,0.0,0.0,0.0,0.0,0.5013587636652576,1.2340256444138489,0.5818763687542264,-0.0012438647081848887,0.008837524410395751,0.3112232031328387
11010,10.0,300.04816,-7705.8491,0.0,0.1101000281636122,0.0,0.0,0.0,0.0,0.49607540406633055,1.2414378728703788,0.6048724344112614,0.0056808611595323445,0.016650087373485684,0.3051616370596087
11011,10.0,300.11827,-7672.5696,0.0,0.11011002415103155,0.0,0.0,0.0,0.0,0.4831527162659605,1.250939423033109,0.5981774654355194,-0.0018742971667037283,0.0016673223926269084,0.29848582864325773
11012,10.0,299.62625,-7761.6525,0.0,0.1101200201384509,0.0,0.0,0.0,0.0,0.5154869049770966,1.2533395085449788,0.5905221380149974,-0.005005161651470995,-0.012707747056656988,0.2865280082506127
11013,10.0,299.70738,-7775.1416,0.0,0.11013001612587026,0.0,0.0,0.0,0.0,0.5196376232167406,1.2497546296911788,0.5940566786038295,0.0007961849963923413,-0.01041136971902219,0.28171765406336774
11014,10.0,299.73895,-7641.8651,0.0,0.11014001211328939,0.0,0.0,0.0,0.0,0.5017994058687455,1.2429051603401886,0.5782316270845185,0.018971711863862182,-0.002019210777455588,0.30459286938097574
11015,10.0,299.96061000000003,-7750.0024,0.0,0.11015004109076632,0.0,0.0,0.0,0.0,0.5124395553013464,1.2428551057852488,0.6005125306884724,0.001907488504204458,0.0007650536267424143,0.3092059640387527
11016,10.0,300.29042999999996,-7874.3431,0.0,0.11016003707818567,0.0,0.0,0.0,0.0,0.5210459901932355,1.2608273254589688,0.6117303238705823,0.0003440410566467087,-0.012469992986942487,0.31834911750861167
11017,10.0,300.41191000000003,-7719.2789,0.0,0.1101700330656048,0.0,0.0,0.0,0.0,0.5065143828240775,1.2440440534525887,0.5959096191942005,-0.008832284286178592,0.01054237079795099,0.3151328387761897
11018,10.0,300.44095,-7597.8526,0.0,0.11018002905302393,0.0,0.0,0.0,0.0,0.5069962440416336,1.2306406798047789,0.5719205380416624,0.002835349890452247,0.016202906667102383,0.31070079164628067
11019,10.0,300.48543,-7628.7609999999995,0.0,0.1101900250404435,0.0,0.0,0.0,0.0,0.4981465480657365,1.2443911929368487,0.5764150925702404,0.005420063148093584,-0.003249716897647087,0.3134565988707577
11020,10.0,300.37414,-7648.5279,0.0,0.11020002102786286,0.0,0.0,0.0,0.0,0.49004410377358754,1.242911138515779,0.5920062758339705,-0.009373850657927032,-0.012522159155090888,0.3176038213975567
11021,10.0,300.04961000000003,-7699.1485,0.0,0.11021001701528221,0.0,0.0,0.0,0.0,0.4841335626277626,1.258111409890929,0.5981039136107604,-0.01087456788298629,-0.0014521110098121989,0.3216697204713297
11022,10.0,299.56291,-7762.3978,0.0,0.11022001300270134,0.0,0.0,0.0,0.0,0.49089126191719556,1.263637878586349,0.6050459129608825,0.0024564329578810576,0.014772646395696686,0.3099850925706467
11023,10.0,299.91847,-7664.8330000000005,0.0,0.1102300089901207,0.0,0.0,0.0,0.0,0.4855231034173995,1.2489285268846488,0.5954662614804445,0.01937335508425128,0.024749720909857276,0.3049706900782637
11024,10.0,299.77815,-7598.8294,0.0,0.11024003796759763,0.0,0.0,0.0,0.0,0.49059356903781554,1.246498550494829,0.5727622651647345,0.005449538998802625,-0.009015537254214253,0.3115395600790607
11025,10.0,300.12801,-7760.8149,0.0,0.11025003395501676,0.0,0.0,0.0,0.0,0.5162585354582505,1.2552520181087288,0.5875833479549614,0.007858437962692442,-0.0004319181606570036,0.3051677672227137
11026,10.0,300.1131,-7762.903,0.0,0.11026002994243589,0.0,0.0,0.0,0.0,0.5187377152729264,1.246626523982459,0.5943644229242014,-0.0045736702109611055,-0.01052852878833489,0.3072013601734137
11027,10.0,300.34869,-7614.7286,0.0,0.11027002592985524,0.0,0.0,0.0,0.0,0.4923807192991935,1.2340961666208088,0.5882104383093504,0.013095403372665687,-0.0023150652158541478,0.32000636910716973
11028,10.0,300.01592,-7689.7391,0.0,0.11028002191727482,0.0,0.0,0.0,0.0,0.49853888863695756,1.2359679435305386,0.6029818921096795,-0.01064307367238959,-0.01188515009547299,0.3162875081926467
11029,10.0,299.87827000000004,-7792.6019,0.0,0.11029001790469417,0.0,0.0,0.0,0.0,0.5368685187197975,1.2327865408665588,0.5991013468766995,-0.0033934922232366064,0.01030836068735599,0.2948411781660587
11030,10.0,299.81397000000004,-7727.6811,0.0,0.1103000138921133,0.0,0.0,0.0,0.0,0.5174698252902955,1.2415668596081089,0.5899853789070234,0.0007613859856204462,0.012524265702048789,0.2989236438789667
11031,10.0,299.92359,-7638.7574,0.0,0.11031000987953243,0.0,0.0,0.0,0.0,0.5163372548585194,1.2232921847795388,0.5823621107196654,0.01053943237266099,0.02313979923672038,0.2978999167729327
11032,10.0,299.25631,-7746.6312,0.0,0.11032003885700958,0.0,0.0,0.0,0.0,0.4968915567568785,1.2666612142347289,0.5912296804273264,0.013646828262587089,-0.005634874702418835,0.3019124074339347
11033,10.0,300.34097,-7725.3681,0.0,0.11033003484442871,0.0,0.0,0.0,0.0,0.49125809898339956,1.2486769368848187,0.6083839336928193,0.0006453274883013643,0.002443453021450038,0.3012221713333137
11034,10.0,300.02617999999995,-7702.9127,0.0,0.11034003083184807,0.0,0.0,0.0,0.0,0.4888189932101785,1.2464298521380488,0.6062442534566495,-0.002355954113039568,0.005638541654530735,0.3209905287967987
11035,10.0,299.82786,-7753.7659,0.0,0.11035002681926742,0.0,0.0,0.0,0.0,0.5190990706560895,1.2430591743553887,0.5947929567889945,-0.011293390758820888,0.00977442196103534,0.30015269598526473
11036,10.0,300.61093,-7583.148,0.0,0.11036002280668677,0.0,0.0,0.0,0.0,0.4983534436036555,1.231682807532629,0.5750513896581535,-0.014584514223129487,-0.00995709899771416,0.3271523762324257
11037,10.0,300.40053,-7590.4607,0.0,0.11037001879410613,0.0,0.0,0.0,0.0,0.5120369707716145,1.232283968816959,0.5629895186127395,0.0021115367080174483,-0.016031671453202785,0.3150234381628927
11038,10.0,300.0211,-7842.4562,0.0,0.11038001478152526,0.0,0.0,0.0,0.0,0.5188377534552995,1.2574752914781488,0.6075978137352355,0.011145443071969591,-0.007653693048110692,0.3246850413114187
11039,10.0,300.35206,-7837.7691,0.0,0.11039001076894439,0.0,0.0,0.0,0.0,0.5165817115776455,1.249779758293659,0.6161246476992684,0.008827293218836012,0.005757985805468954,0.31385869704044167
11040,10.0,299.83415,-7622.224,0.0,0.11040003974642154,0.0,0.0,0.0,0.0,0.4783320674576996,1.2583668502411387,0.5802668311028775,0.0040911603106910865,-0.02077206376079308,0.3326764637901107
11041,10.0,299.9999,-7571.7327,0.0,0.11041003573384067,0.0,0.0,0.0,0.0,0.49726270013600754,1.2316200873514387,0.5727348770145314,0.0033966065487439664,0.0020284371288911583,0.3011121931674597
11042,10.0,299.85625,-7630.1125,0.0,0.11042003172126003,0.0,0.0,0.0,0.0,0.49490889988870557,1.2420302188788386,0.5824245370583264,0.00044839696114083456,0.00983311285187768,0.3066856564025177
11043,10.0,299.60756000000003,-7670.8461,0.0,0.11043002770867938,0.0,0.0,0.0,0.0,0.5077515915936804,1.2388810375680386,0.5851130847411655,-0.0002594589406366037,0.025243795844118677,0.3006527855721197
11044,10.0,299.83976,-7673.3466,0.0,0.11044002369609851,0.0,0.0,0.0,0.0,0.4970644374889406,1.2409774520249386,0.5944638632890155,-0.00962439863135419,-0.001942882343447558,0.3081683351413467
11045,10.0,300.26214,-7720.9644,0.0,0.11045001968351809,0.0,0.0,0.0,0.0,0.5062860671790445,1.2425272180528888,0.5981670694894935,-0.0066027934114949735,-0.006708062092209183,0.3013911611849917
11046,10.0,300.05214,-7674.3614,0.0,0.11046001567093722,0.0,0.0,0.0,0.0,0.5053224460689425,1.2291752161851488,0.5983165542767463,0.0017285498537695885,-0.014360924376562886,0.3109600722143697
11047,10.0,300.11523,-7652.9838,0.0,0.11047001165835657,0.0,0.0,0.0,0.0,0.5219331007882865,1.2257083809679987,0.5786745085707274,-0.0006643761342188195,0.005721580033350985,0.3089576873667497
11048,10.0,299.73964,-7753.446999999999,0.0,0.11048004063583328,0.0,0.0,0.0,0.0,0.5250630100821845,1.2392124716757489,0.5925788026704744,0.0064612745938781545,-0.006176048541078534,0.3042713853892477
11049,10.0,300.29542000000004,-7613.469,0.0,0.11049003662325263,0.0,0.0,0.0,0.0,0.5218838669659276,1.224720563445509,0.5677000879301365,0.0012193798234934189,0.012999496210950388,0.3033747806407597
11050,10.0,300.37673,-7490.9417,0.0,0.11050003261067198,0.0,0.0,0.0,0.0,0.47692758122908757,1.229640500631069,0.5704911663905945,0.018119806643535682,0.01897143828633518,0.3118160557663487
11051,10.0,300.51083,-7638.4227,0.0,0.11051002859809134,0.0,0.0,0.0,0.0,0.48077709061150453,1.2474098676347687,0.5937027706089014,0.0074352018760472935,0.0017508582772462584,0.30167703956820574
11052,10.0,300.53213,-7686.2323,0.0,0.11052002458551047,0.0,0.0,0.0,0.0,0.4769475523885585,1.258344254763909,0.6011308564294965,-0.008732394646270252,-0.008723599838052272,0.3179257917493327
11053,10.0,300.80408,-7613.8955,0.0,0.11053002057292982,0.0,0.0,0.0,0.0,0.5032018757296586,1.233992916435619,0.5772392904665825,-0.020216949627257584,-0.011530431500464988,0.3108283598338707
11054,10.0,299.82847000000004,-7700.6185,0.0,0.11054001656034917,0.0,0.0,0.0,0.0,0.5094549460717885,1.246506149870579,0.5848346030836814,0.0038198174054616266,-0.0021867917048695377,0.3171648105267297
11055,10.0,299.56662,-7604.2238,0.0,0.11055001254776853,0.0,0.0,0.0,0.0,0.5065585605284375,1.2338140777929687,0.5711215194103054,0.010844633435281989,0.014521186091879487,0.3107738469784907
11056,10.0,299.77352,-7531.87,0.0,0.11056004152524523,0.0,0.0,0.0,0.0,0.4712260634463915,1.2374389800257188,0.5808353353364845,0.01195388391600649,0.004821835932078155,0.33149922929392667
11057,10.0,300.0162,-7669.3167,0.0,0.11057003751266459,0.0,0.0,0.0,0.0,0.4993786804523385,1.2508050660698489,0.5810970781023165,7.391671638501193e-05,0.007756098081392282,0.3165845221944597
11058,10.0,299.77576,-7622.8199,0.0,0.11058003350008394,0.0,0.0,0.0,0.0,0.4935814611976975,1.2336469928514788,0.5899185044004235,-0.0038929160034508964,0.006068959961859714,0.3084977326163557
11059,10.0,300.08968,-7555.6814,0.0,0.1105900294875033,0.0,0.0,0.0,0.0,0.5005689960073135,1.2277851383729588,0.5683843661201694,-0.0006887086970227564,-0.004137502114614666,0.3063880547156467
11060,10.0,299.84912,-7703.4503,0.0,0.11060002547492243,0.0,0.0,0.0,0.0,0.5113674252380356,1.2462498989202886,0.5840392017551815,-0.0004647358723158596,-0.017240301503735282,0.2953333542696327
11061,10.0,300.01725,-7893.4819,0.0,0.11061002146234178,0.0,0.0,0.0,0.0,0.5470830423153925,1.2499116834566788,0.6024267222473885,-0.0006244098924419585,-0.006431762874115574,0.30526707586501467
11062,10.0,300.06337,-7804.5611,0.0,0.11062001744976113,0.0,0.0,0.0,0.0,0.5014083521251516,1.2582860942081686,0.6126972279110084,-0.0005003377925994955,0.006260045353168374,0.2988470725689097
11063,10.0,300.18906,-7632.1869,0.0,0.11063001343718049,0.0,0.0,0.0,0.0,0.4958880845203435,1.243494871898389,0.5806112753418715,-0.002014777504293058,0.012416226896886188,0.3092511043307077
11064,10.0,299.90612999999996,-7618.9221,0.0,0.11064000942459984,0.0,0.0,0.0,0.0,0.4701793760930915,1.2553968115480187,0.5903858964065515,-0.0027425083169144975,-0.0023650295915352477,0.3051902613749337
11065,10.0,300.09814,-7570.1726,0.0,0.11065003840207654,0.0,0.0,0.0,0.0,0.5056542348141876,1.2385718949625288,0.5569172931484575,0.0067918292005013535,-0.0028040529253384773,0.30192613697278975
11066,10.0,299.84319,-7604.8584,0.0,0.1106600343894959,0.0,0.0,0.0,0.0,0.5103133107615025,1.2214313509708887,0.5799424289508615,0.00014213142862727987,0.01134936573409519,0.30439188109113974
11067,10.0,299.55047,-7669.0218,0.0,0.11067003037691525,0.0,0.0,0.0,0.0,0.5234224061827695,1.236135028472029,0.5716337072033545,-0.008483244147381011,-0.00020476933390915983,0.30329708462309174
11068,10.0,299.45775,-7661.439,0.0,0.11068002636433438,0.0,0.0,0.0,0.0,0.4819578106880325,1.2538703502723687,0.5930579787752654,-0.0028724103234598272,-0.0036130566298059265,0.3301185645751657
11069,10.0,300.07951,-7709.7649,0.0,0.11069002235175374,0.0,0.0,0.0,0.0,0.5034876122578585,1.2571664528476687,0.5829219921949215,-0.004093958603492256,-0.0014000068525699188,0.3227223657352177
11070,10.0,300.11614,-7807.9248,0.0,0.11070001833917309,0.0,0.0,0.0,0.0,0.5002329921416525,1.2731671918018186,0.6000140217717734,0.0028251334923439673,0.017432760254229483,0.33019335256504667
11071,10.0,300.3207,-7740.4739,0.0,0.11071001432659244,0.0,0.0,0.0,0.0,0.5229668894678134,1.2371492918221287,0.5927946249417744,0.0024483223974556077,0.009154104980914821,0.2961435895795967
11072,10.0,300.35695,-7545.8508,0.0,0.1107200103140118,0.0,0.0,0.0,0.0,0.4793178382149876,1.245359150757379,0.5690732545981575,0.0070735536636053935,-0.002238692502816748,0.3185728937931967
11073,10.0,300.64092,-7513.8786,0.0,0.1107300392914885,0.0,0.0,0.0,0.0,0.4879920291410635,1.2312649431913887,0.5647745106514045,0.015267412366526284,-0.01125531788631339,0.31250474159431674
11074,10.0,300.37143,-7620.394,0.0,0.11074003527890786,0.0,0.0,0.0,0.0,0.4771347098145295,1.235162308376029,0.6041124968362614,0.013292577789125288,0.008074428838809081,0.31032314320150967
11075,10.0,300.00383999999997,-7610.0752,0.0,0.11075003126632721,0.0,0.0,0.0,0.0,0.49530690452798554,1.241260858077909,0.5767050847488604,0.0025712688473644774,-0.0016255405181283581,0.32057990919377366
11076,10.0,299.86494,-7709.7436,0.0,0.11076002725374634,0.0,0.0,0.0,0.0,0.48758931288881857,1.2559667647292687,0.6000134442192164,-0.017202938919547883,-0.006356658142253314,0.3153815410132347
11077,10.0,300.01302999999996,-7835.9037,0.0,0.1107700232411657,0.0,0.0,0.0,0.0,0.5420253233812344,1.2486293141301188,0.5912643943757525,-0.0060344318435020545,-0.004694260955712486,0.3102209569289247
11078,10.0,300.10355,-7780.3404,0.0,0.11078001922858505,0.0,0.0,0.0,0.0,0.5257311775956275,1.2388548957154588,0.6004430926591193,-0.0015686704377157186,-0.0005273642631793005,0.3005185400663707
11079,10.0,300.04469,-7726.5412,0.0,0.1107900152160044,0.0,0.0,0.0,0.0,0.5307696954403905,1.2260371806254489,0.5918687271328954,0.014049530329330687,-0.0026006257425117774,0.3063952994538617
11080,10.0,300.01916,-7700.3748,0.0,0.11080001120342375,0.0,0.0,0.0,0.0,0.49355657577524154,1.2456155030326788,0.6015495921658224,0.003971532862809777,-0.014071517856500687,0.3091074558640307
11081,10.0,300.13054,-7622.2275,0.0,0.11081004018090046,0.0,0.0,0.0,0.0,0.49505013682014454,1.242483850948609,0.5794328452105695,0.01046498686131379,-0.004163047061560756,0.3084867185877687
11082,10.0,300.56495,-7554.607,0.0,0.11082003616831959,0.0,0.0,0.0,0.0,0.4674230318460616,1.236860920843669,0.5921278962434734,0.00980910520798331,0.016270921080064886,0.3139734172167637
11083,10.0,300.2737,-7623.7769,0.0,0.11083003215573917,0.0,0.0,0.0,0.0,0.5069526742873335,1.2294679441390386,0.5810171529344285,0.01739251294700738,-0.003029992600211987,0.29577627628584574
11084,10.0,300.90616,-7711.7246,0.0,0.1108400281431583,0.0,0.0,0.0,0.0,0.4855191922720135,1.2589751042761688,0.5996774099560525,-0.01220294180383659,0.0016517473200397682,0.31451042963726267
11085,10.0,300.25261,-7712.6118,0.0,0.11085002413057765,0.0,0.0,0.0,0.0,0.5069621380432675,1.2458338584292288,0.5916454270758574,-0.012286300876313489,-0.017912054909282184,0.3106350519797927
11086,10.0,300.59984,-7724.5143,0.0,0.110860020117997,0.0,0.0,0.0,0.0,0.4893014218477905,1.2621104040605988,0.5966476199045354,-0.012370967041419387,0.005651361902745995,0.3395538076513517
11087,10.0,300.1319,-7785.8065,0.0,0.11087001610541614,0.0,0.0,0.0,0.0,0.5282865639503245,1.2422785664783487,0.5961256035855165,0.007080979570938274,-0.00018040415458450384,0.3117709560043977
11088,10.0,299.9465,-7674.6866,0.0,0.11088001209283571,0.0,0.0,0.0,0.0,0.48698872915704555,1.2579711760770886,0.5879531741089604,0.003456347470664937,0.012881987570353188,0.3415889002121997
11089,10.0,299.97483,-7583.5584,0.0,0.11089004107031242,0.0,0.0,0.0,0.0,0.5033023192120715,1.240149728018249,0.5617603753139324,-0.0024321766624121476,-0.006914353327768544,0.30460363009703767
11090,10.0,299.77839,-7595.134,0.0,0.11090003705773155,0.0,0.0,0.0,0.0,0.4977904311855906,1.2269736263678688,0.5839670684805625,-0.004838553140178016,0.017003659982630585,0.3071954326603287
11091,10.0,299.4681,-7658.3818,0.0,0.1109100330451509,0.0,0.0,0.0,0.0,0.5176595563715205,1.2353595881704988,0.5749376928644324,0.01179968852903859,-0.005635404125596085,0.29795058941043373
11092,10.0,300.01623,-7739.8058,0.0,0.11092002903257026,0.0,0.0,0.0,0.0,0.4883041709668695,1.2603207004089687,0.6040827984758305,0.008238996056450603,0.003864564252402796,0.3131189940699387
11093,10.0,300.26162,-7821.3979,0.0,0.11093002501998983,0.0,0.0,0.0,0.0,0.5155180522851706,1.265758611045649,0.5962329574336115,-0.0025731321129733673,-0.004220162247172587,0.31523703128397274
11094,10.0,300.43084,-7763.1828,0.0,0.11094002100740896,0.0,0.0,0.0,0.0,0.4986378527742245,1.2543540758701088,0.6068217654836454,-0.006613028858705133,0.009430600465552802,0.3063457717889737
11095,10.0,300.40771,-7666.0019999999995,0.0,0.1109500169948281,0.0,0.0,0.0,0.0,0.5154846758268765,1.2341897909300488,0.5805986806431285,-0.006313448091738814,0.01116991812813509,0.31259963246618166
11096,10.0,300.31192000000004,-7654.9259,0.0,0.11096001298224767,0.0,0.0,0.0,0.0,0.5115176699628635,1.2238150218311388,0.5915736788362764,0.005283810089921455,0.0017720896158666284,0.2942771423653927
11097,10.0,300.35681,-7695.8811,0.0,0.11097004195972437,0.0,0.0,0.0,0.0,0.5252462158327655,1.2314537116850188,0.5826557708636475,-0.0025751098758435577,-0.007100903816929643,0.3082004146395127
11098,10.0,300.37986,-7625.5249,0.0,0.1109800379471435,0.0,0.0,0.0,0.0,0.48782201590678453,1.2337109289327888,0.5964361850061685,-0.0038585109949803866,0.005402020811512944,0.30253605273798373
11099,10.0,300.34013999999996,-7707.7946,0.0,0.11099003393456286,0.0,0.0,0.0,0.0,0.5259236039221186,1.2382563688813888,0.5787971523628315,-0.01047355085115899,0.002205488094389728,0.3166924434626107
11100,10.0,299.92415,-7800.5233,0.0,0.11100002992198243,0.0,0.0,0.0,0.0,0.5030207370092815,1.2637977694521287,0.6043458280692894,-0.0065179246976940835,0.004861688781036325,0.3117492825847587
11101,10.0,299.73047,-7709.6731,0.0,0.11101002590940179,0.0,0.0,0.0,0.0,0.5233604358066535,1.2533897657499387,0.5667979609686035,-0.0021198147586844276,-0.003085881651877807,0.3079628986835717
11102,10.0,300.13729,-7685.5322,0.0,0.11102002189682092,0.0,0.0,0.0,0.0,0.4905752697410095,1.2560356657360687,0.5895989151863824,-0.00046901686412086053,0.010705078499008988,0.3116528515727417
11103,10.0,300.14211,-7703.3974,0.0,0.11103001788424005,0.0,0.0,0.0,0.0,0.5154755261784735,1.2448435077814888,0.5813214218069575,0.0006664767536636343,-0.002888654951713047,0.2964425490216017
11104,10.0,299.52378,-7683.2132,0.0,0.1110400138716594,0.0,0.0,0.0,0.0,0.48261676775806656,1.2518817456261089,0.6010065002447234,0.004990920319990485,-0.004937076918951555,0.3255064527699857
11105,10.0,300.07974,-7630.5194,0.0,0.11105000985907876,0.0,0.0,0.0,0.0,0.5057610516397295,1.2421988236954788,0.5715275591228784,0.011259039553930688,-0.023672940028587275,0.3149705769051757
11106,10.0,299.61227,-7662.1481,0.0,0.11106003883655546,0.0,0.0,0.0,0.0,0.4975490344817665,1.2517967339427187,0.5797559098724534,0.003570929135698267,0.013999429164886086,0.3284602490640027
11107,10.0,299.75581,-7567.4811,0.0,0.11107003482397482,0.0,0.0,0.0,0.0,0.5279467097342835,1.2200738998119187,0.5523046949832295,-0.014027056442112688,0.012137984366425788,0.30269418054858976
11108,10.0,299.91496,-7562.2883,0.0,0.11108003081139417,0.0,0.0,0.0,0.0,0.48951444754881457,1.2324358550069487,0.5767965508353875,-0.025471569400348178,0.012336833685300688,0.3164091893971557
11109,10.0,300.14071,-7738.6585,0.0,0.11109002679881375,0.0,0.0,0.0,0.0,0.5263104121477935,1.242302479180709,0.5837460988987545,-0.01058622324902889,0.0003477829386035037,0.3058489955299457
11110,10.0,300.20122000000003,-7792.1735,0.0,0.11110002278623288,0.0,0.0,0.0,0.0,0.5040844368317605,1.2563732806693886,0.6081684255290504,-0.006514992959854743,0.013833279453238385,0.30519251079015575
11111,10.0,300.43046,-7694.4257,0.0,0.11111001877365201,0.0,0.0,0.0,0.0,0.5076918807652875,1.2525938577963887,0.5786275342960915,0.013076317793782087,-0.00029354021570016374,0.3211432357193697
11112,10.0,300.08833,-7719.3101,0.0,0.11112001476107136,0.0,0.0,0.0,0.0,0.5027476053123255,1.2490325876699189,0.5946973566420595,-0.004048058272637246,-0.008151686524483821,0.29511751173333073
11113,10.0,299.83185,-7685.2232,0.0,0.11113001074849072,0.0,0.0,0.0,0.0,0.5002445127952896,1.2608656263127487,0.5750058440661584,0.0070176272230108834,-0.008819823336448792,0.3016797044159687
11114,10.0,299.70453,-7549.0128,0.0,0.11114003972596742,0.0,0.0,0.0,0.0,0.48191723002152753,1.2329990194125289,0.5797952037113314,0.008630136230278132,-0.0005977273594760974,0.30080838025747575
11115,10.0,299.47868,-7641.891,0.0,0.11115003571338677,0.0,0.0,0.0,0.0,0.5069159946337135,1.2213070251836187,0.5947210666943994,0.01037876738380459,0.005074688340207746,0.3025299833698847
11116,10.0,299.73843,-7729.7489,0.0,0.11116003170080613,0.0,0.0,0.0,0.0,0.5115603480570755,1.2556209424701388,0.5824693227127464,-0.005311923321896015,-0.013500316351127488,0.3148415699024437
11117,10.0,299.78697999999997,-7723.2722,0.0,0.11117002768822548,0.0,0.0,0.0,0.0,0.5258045166378655,1.2390480211845187,0.5828293304732765,-0.0009675726841669891,-0.014191746060366286,0.3202510892713217
11118,10.0,300.34114,-7659.2036,0.0,0.11118002367564483,0.0,0.0,0.0,0.0,0.5043868615891075,1.237751162381529,0.5860686809104755,0.005029141532312625,-0.0029270381827261774,0.3301272075985187
11119,10.0,300.13498,-7734.9578,0.0,0.11119001966306397,0.0,0.0,0.0,0.0,0.5226664810781655,1.2482737646700288,0.5802938342180424,0.007630229215544993,-0.007039051585775304,0.3020786919078457
11120,10.0,300.56844,-7738.0185,0.0,0.11120001565048332,0.0,0.0,0.0,0.0,0.4906456298279535,1.2488578020276688,0.6126609332924264,-0.003787266340699086,0.004658233531181856,0.31527740930045767
11121,10.0,301.13672,-7700.1685,0.0,0.11121001163790267,0.0,0.0,0.0,0.0,0.5034664961257745,1.2558527740930188,0.5813397008387614,-0.007849871541047002,0.006226976922904774,0.28148073592498574
11122,10.0,300.34348,-7759.9316,0.0,0.11122004061537938,0.0,0.0,0.0,0.0,0.4971263673350525,1.2585162033058788,0.6031829006645174,-0.005750107481966425,0.02319808847522308,0.30810348713494673
11123,10.0,299.93206000000004,-7698.9716,0.0,0.11123003660279895,0.0,0.0,0.0,0.0,0.5194055788113395,1.2270771805280887,0.5938123333422144,-0.0007501082586949214,0.009804915114844782,0.2865328819835937
11124,10.0,300.43476,-7685.4402,0.0,0.11124003259021809,0.0,0.0,0.0,0.0,0.5034782802244375,1.253664660502069,0.5790389341016934,0.004152464272216316,-0.009673688993068771,0.3130412676547677
11125,10.0,299.92356,-7857.4522,0.0,0.11125002857763744,0.0,0.0,0.0,0.0,0.5367839224689485,1.2438063449791288,0.6078790007704864,-0.0033173057455675873,-0.007251059578398863,0.29171225172475773
11126,10.0,300.09467,-7710.8555,0.0,0.11126002456505679,0.0,0.0,0.0,0.0,0.49756217633556354,1.2393124794606187,0.6070328964069824,0.003935351930888996,-0.006547496807162624,0.3117800549902957
11127,10.0,299.91121,-7509.3258,0.0,0.11127002055247592,0.0,0.0,0.0,0.0,0.4912685759894335,1.2242223483713386,0.5671566312390015,0.018944413892918083,-0.005773454182820564,0.3109147596698977
11128,10.0,299.45376,-7653.0606,0.0,0.11128001653989528,0.0,0.0,0.0,0.0,0.4980330539220355,1.2386519417204287,0.5896543197018504,0.004623574703561295,-0.010785877088483189,0.3128618109295567
11129,10.0,299.91577,-7709.9512,0.0,0.11129001252731463,0.0,0.0,0.0,0.0,0.5153551621990945,1.2569967334559187,0.5712807719285224,0.01002976838296107,0.0006515766069681044,0.3286449848222347
11130,10.0,300.13503,-7663.0109999999995,0.0,0.11130004150479156,0.0,0.0,0.0,0.0,0.5012969554091575,1.2420386288546688,0.5860284244840025,-0.001918879056528618,-0.0014871607493213384,0.3061970064092917
11131,10.0,298.89026,-7828.2407,0.0,0.11131003749221091,0.0,0.0,0.0,0.0,0.5130422161958246,1.2610380814797686,0.6055093634241214,-0.013573150794815686,0.005833078277005005,0.3030362233848467
11132,10.0,299.07538999999997,-7749.2896,0.0,0.11132003347963004,0.0,0.0,0.0,0.0,0.49957567653678053,1.2491470849312187,0.6068677974356884,-0.0054995275911611146,-0.005794364523809254,0.2939317659363067
11133,10.0,299.10967999999997,-7680.4405,0.0,0.1113300294670494,0.0,0.0,0.0,0.0,0.5020875032696784,1.2402970545827887,0.5922775532832435,-0.010913401706318888,0.013046699480108987,0.3033322444015617
11134,10.0,298.60607999999996,-7680.5952,0.0,0.11134002545446875,0.0,0.0,0.0,0.0,0.49913341313313253,1.2506937098838589,0.5848820231883615,0.013786586862130187,0.009558046556505752,0.31382471263208767
11135,10.0,299.65022999999997,-7591.4388,0.0,0.11135002144188788,0.0,0.0,0.0,0.0,0.5042404266846555,1.2387043267505988,0.5646630835379074,0.006893034241689514,0.005201796410927335,0.3186761946408917
11136,10.0,299.56876,-7513.4084,0.0,0.11136001742930746,0.0,0.0,0.0,0.0,0.4875697976918925,1.2251382251367289,0.5711805209636285,0.017605313706509185,-0.018116588561218085,0.3282794751136617
11137,10.0,299.89784,-7518.5582,0.0,0.11137001341672659,0.0,0.0,0.0,0.0,0.5038321375568605,1.2284366581872588,0.5531851890551275,0.012762698649330289,-0.018570271293493083,0.32234450450792573
11138,10.0,300.70146,-7692.8031,0.0,0.11138000940414594,0.0,0.0,0.0,0.0,0.4907899875697005,1.2434184728408488,0.6042115724310394,0.0019379837858391079,-0.014701277111653088,0.3143050539744937
11139,10.0,300.56532000000004,-7759.0293,0.0,0.11139003838162287,0.0,0.0,0.0,0.0,0.5154106883045746,1.2525080355129188,0.5906324606858855,-0.007136695052861962,-0.0015960816900209985,0.2951914080631237
11140,10.0,300.1377,-7818.3531,0.0,0.111400034369042,0.0,0.0,0.0,0.0,0.5092783467118595,1.258660895420159,0.6086448861235734,-0.0026921466458691874,0.005347532578110375,0.3178103622979407
11141,10.0,300.30394,-7757.3773,0.0,0.11141003035646135,0.0,0.0,0.0,0.0,0.5277297931528755,1.242111988161909,0.5882071959090305,-0.0013143881310450087,0.01890267812129908,0.29536971981572174
11142,10.0,299.68266,-7711.4589,0.0,0.11142002634388048,0.0,0.0,0.0,0.0,0.49992725405647853,1.2615600066062789,0.5826037303385114,0.013323116133889187,0.007765770060221833,0.3159867046354597
11143,10.0,299.85126,-7661.4476,0.0,0.11143002233130006,0.0,0.0,0.0,0.0,0.5029616037334456,1.2355044829347988,0.5904226571201795,0.002868422069741217,0.006453562038091984,0.29841476941374473
11144,10.0,300.15117000000004,-7726.9311,0.0,0.11144001831871941,0.0,0.0,0.0,0.0,0.49637410006330956,1.2608220565584487,0.5915979461761715,-0.008816881770083482,-0.0067131519514365134,0.3036309100010377
11145,10.0,300.18467000000004,-7607.4758,0.0,0.11145001430613855,0.0,0.0,0.0,0.0,0.4974346790754805,1.2380626354622688,0.5769853395940193,-0.0056915543931376844,0.0030374097935940074,0.3114648734141897
11146,10.0,300.37287000000003,-7450.8816,0.0,0.1114600102935579,0.0,0.0,0.0,0.0,0.4751294372041246,1.2243899399378788,0.5653626111419454,-0.0004644840796660096,-0.001024365250946979,0.3210203690122437
11147,10.0,299.81837,-7690.2519999999995,0.0,0.11147003927103483,0.0,0.0,0.0,0.0,0.5057859978571915,1.2569529610515988,0.5749056336312685,0.00023520510736543677,0.007915785993177252,0.32861852886212367
11148,10.0,300.36582000000004,-7887.3222,0.0,0.11148003525845396,0.0,0.0,0.0,0.0,0.5313816681032875,1.2595453614324488,0.6066219829614284,-4.092525259900796e-05,-0.005364913262375714,0.31168018906043976
11149,10.0,300.58351,-7728.0988,0.0,0.11149003124587331,0.0,0.0,0.0,0.0,0.5096948634304665,1.2536247384481287,0.5858294728268675,-0.001163764450679609,-0.0026876534896257474,0.3258897551503147
11150,10.0,299.69858,-7641.8589,0.0,0.11150002723329244,0.0,0.0,0.0,0.0,0.4997299641295075,1.2412052306474188,0.5819990834738374,0.016808388449858786,-0.007741483873874972,0.2967033494648407
11151,10.0,299.36611,-7681.0957,0.0,0.1115100232207118,0.0,0.0,0.0,0.0,0.5087612953183305,1.2376788163243886,0.5884212044626514,0.008880242021361652,-0.0022530267493314276,0.2907086275007077
11152,10.0,299.8554,-7671.7111,0.0,0.11152001920813137,0.0,0.0,0.0,0.0,0.5033354930203455,1.2495697115479287,0.5791034274705584,0.016108779785812783,0.0008374891741312463,0.30292230367610373
11153,10.0,299.67916,-7854.6844,0.0,0.1115300151955505,0.0,0.0,0.0,0.0,0.5292065646436215,1.2538766324229886,0.6045447087989174,-0.004747661971757755,0.011373476020224689,0.30645075463183474
11154,10.0,300.16718,-7770.1852,0.0,0.11154001118296986,0.0,0.0,0.0,0.0,0.5086722205020395,1.253198565456069,0.6000714831849444,-0.004982541754913586,-0.0015258031697100484,0.31107270509548574
11155,10.0,300.29652999999996,-7543.274,0.0,0.11155004016044656,0.0,0.0,0.0,0.0,0.4842069016700006,1.2406342642160688,0.5681257745621484,-0.01181714176201109,0.008836092890654472,0.3107322429293847
11156,10.0,300.04502,-7712.4047,0.0,0.11156003614786592,0.0,0.0,0.0,0.0,0.5060009386009046,1.2421194862126488,0.5962580556385885,-0.012539198982022588,-0.002054350594898618,0.3196643870659187
11157,10.0,300.69142,-7828.3581,0.0,0.11157003213528527,0.0,0.0,0.0,0.0,0.5273884798566905,1.2547549176096686,0.5974820516268874,-0.012713578310982488,0.0013423945664590288,0.3023482265669467
11158,10.0,301.17962,-7724.4737,0.0,0.1115800281227044,0.0,0.0,0.0,0.0,0.5136020368760745,1.2476167733051886,0.5868283550404495,-0.006429434628035794,0.000938172340855401,0.32124597927950965
11159,10.0,299.79142,-7595.688,0.0,0.11159002411012375,0.0,0.0,0.0,0.0,0.4992196103191396,1.2261458010361688,0.5835341472428365,0.007082120186575842,0.0019791231584492482,0.3089949547054277
11160,10.0,299.98794,-7588.0356,0.0,0.1116000200975431,0.0,0.0,0.0,0.0,0.4901010686942095,1.246537357973659,0.5699349731457025,0.016115645568490385,-0.003945929856632956,0.31444921919872165
11161,10.0,299.59078,-7707.135,0.0,0.11161001608496246,0.0,0.0,0.0,0.0,0.5093850115498865,1.2360287385365387,0.5973628427526224,0.01114420184059709,-0.0015851320028153486,0.3025294159498287
11162,10.0,299.78578999999996,-7804.3414,0.0,0.11162001207238181,0.0,0.0,0.0,0.0,0.5254630513541655,1.2483207794746687,0.5985411006314074,0.003129352107668007,-0.010123010088963309,0.3050471195333067
11163,10.0,300.07281,-7855.8474,0.0,0.11163004104985852,0.0,0.0,0.0,0.0,0.5251764839608835,1.2706821959315686,0.5921227084029614,0.00974186846447256,-0.002008087824482838,0.30013277548829875
11164,10.0,299.85267999999996,-7726.7833,0.0,0.11164003703727787,0.0,0.0,0.0,0.0,0.5175945867751085,1.2404186445947887,0.5907359236535964,0.002156788254833428,-0.004812040134086386,0.30388120304073973
11165,10.0,300.09449,-7664.3321,0.0,0.11165003302469723,0.0,0.0,0.0,0.0,0.49147665702996957,1.2669541448386388,0.5713348085563554,-0.003038803924406597,0.013771447892386088,0.3288248468474857
11166,10.0,300.6112,-7762.1815,0.0,0.11166002901211658,0.0,0.0,0.0,0.0,0.5132744531187445,1.2411276156897588,0.6051072348569344,-0.014885772729611385,0.018447504898126982,0.3167443320002317
11167,10.0,300.30203,-7772.2742,0.0,0.11167002499953571,0.0,0.0,0.0,0.0,0.5072011232118535,1.258416702146059,0.5969594982853155,-0.009085832290501831,0.01839127053082708,0.3200675896782117
11168,10.0,299.80471,-7465.0947,0.0,0.11168002098695506,0.0,0.0,0.0,0.0,0.4829195268879466,1.2267423013700387,0.5595405773923554,-0.0016534328615811183,0.004122742201732975,0.3135860213060307
11169,10.0,300.49055,-7454.3181,0.0,0.11169001697437442,0.0,0.0,0.0,0.0,0.48028906883334055,1.2111269014289188,0.5745105370197755,0.005263596865001565,-0.0016668229616526183,0.3051905349524607
11170,10.0,299.8106,-7701.2083,0.0,0.11170001296179377,0.0,0.0,0.0,0.0,0.5167044668272605,1.2414126429428887,0.5828579446561004,0.009412936780534531,-0.012853705733561987,0.3100914939636477
11171,10.0,300.24359,-7821.5581,0.0,0.11171004193927048,0.0,0.0,0.0,0.0,0.5164137653735705,1.2523957674018387,0.6087488151863304,0.01260451510996879,0.004161198082778277,0.3070429790502827
11172,10.0,300.27162999999996,-7831.6298,0.0,0.11172003792668983,0.0,0.0,0.0,0.0,0.5043650361819535,1.2725400913149287,0.6037148164370134,0.004394702784223396,0.0015611095654695184,0.3231937600792407
11173,10.0,300.5817,-7710.7494,0.0,0.11173003391410918,0.0,0.0,0.0,0.0,0.5018003076613345,1.2514455414580588,0.5906293905380824,0.0076992350937303425,0.005654282089534194,0.3075774380805297
11174,10.0,300.20887,-7634.1481,0.0,0.11174002990152854,0.0,0.0,0.0,0.0,0.5049451927917105,1.226838256154509,0.5888069589082224,-0.004455568109780336,0.019992369835343284,0.3069573391518307
11175,10.0,300.19281,-7675.1191,0.0,0.11175002588894767,0.0,0.0,0.0,0.0,0.5027578492708366,1.2498391347495188,0.5804475949207174,-0.006029629848628135,0.003153979050023497,0.3102116350280047
11176,10.0,299.87163,-7773.6901,0.0,0.11176002187636702,0.0,0.0,0.0,0.0,0.5180995298299426,1.2536743877030287,0.5912337435602274,0.01096030201369759,-0.005542127969090444,0.3119129630059127
11177,10.0,299.44202,-7634.9927,0.0,0.11177001786378638,0.0,0.0,0.0,0.0,0.49189320414607957,1.2383465481402887,0.5906074030109124,-0.0066761573796854335,-0.012075969407305388,0.3105009685940597
11178,10.0,299.67689,-7499.773,0.0,0.11178001385120573,0.0,0.0,0.0,0.0,0.4765775539820426,1.2359172810255385,0.5672488673956044,0.002814362137155917,-0.005712077064638115,0.3177631955057857
11179,10.0,299.97603,-7678.1032,0.0,0.11179000983862508,0.0,0.0,0.0,0.0,0.49659298234991156,1.2363875303969487,0.6009711884787384,-0.013747655766787987,0.014298415964643787,0.3102408875583917
11180,10.0,299.7661,-7887.9262,0.0,0.11180003881610157,0.0,0.0,0.0,0.0,0.5299935965262955,1.256559820012799,0.6111791563461865,-0.006927417363957863,0.013182305780742289,0.29769473362768273
11181,10.0,300.26991,-7791.6226,0.0,0.11181003480352114,0.0,0.0,0.0,0.0,0.5116787159337575,1.2619973253494388,0.5947827128304835,0.008845617238944451,0.0012701102162501188,0.3176714761067337
11182,10.0,300.61341,-7631.7975,0.0,0.1118200307909405,0.0,0.0,0.0,0.0,0.5172282056714496,1.2180237908845888,0.5846238166653784,0.0101080290849098,-0.0010085339882045551,0.2996542478635717
11183,10.0,300.44698999999997,-7716.4807,0.0,0.11183002677835963,0.0,0.0,0.0,0.0,0.5036832607196675,1.2606678398932287,0.5812663617965235,0.013484331317549884,-0.001170297380699359,0.3237762167667247
11184,10.0,300.53733,-7750.4842,0.0,0.11184002276577898,0.0,0.0,0.0,0.0,0.5048361468159486,1.2516007713733788,0.5995167287551945,0.004308723143012866,-0.004144257250381346,0.3040350549359237
11185,10.0,300.18194,-7739.8322,0.0,0.11185001875319811,0.0,0.0,0.0,0.0,0.5014995446341516,1.2511558532544689,0.6000603880963494,0.0035558714286121865,0.004331357326396686,0.3050870314547457
11186,10.0,299.10951,-7676.1236,0.0,0.11186001474061769,0.0,0.0,0.0,0.0,0.5059959027479075,1.2432380129980387,0.5841159453177555,0.007277582818316503,0.0016948744866960882,0.3002789570802257
11187,10.0,299.75764,-7529.2646,0.0,0.11187001072803704,0.0,0.0,0.0,0.0,0.4900388551380695,1.215739925159189,0.5829296118356735,-0.0008351532374832072,-0.0029586253426685874,0.30441994811890966
11188,10.0,299.67702,-7608.8137,0.0,0.11188003970551375,0.0,0.0,0.0,0.0,0.5049944367465705,1.2419388237198188,0.5659560818580165,-0.011034757657545791,0.005207087298974506,0.3307491709074017
11189,10.0,299.99917,-7788.3267,0.0,0.1118900356929331,0.0,0.0,0.0,0.0,0.5144608473958325,1.2468397118034988,0.6061562628179654,-0.003956343230560676,-0.01064899409272389,0.3232584155681217
11190,10.0,299.89232000000004,-7741.4388,0.0,0.11190003168035245,0.0,0.0,0.0,0.0,0.5112771851841295,1.2426373583387589,0.5992895479502734,-0.010928131323022592,0.0011935025305145287,0.3194350480382847
11191,10.0,299.7487,-7625.6354,0.0,0.11191002766777158,0.0,0.0,0.0,0.0,0.47880299570667656,1.2566539509470886,0.5825457623002904,0.005412569353004005,-0.007662438004423753,0.3124615872725577
11192,10.0,300.16981,-7693.2604,0.0,0.11192002365519094,0.0,0.0,0.0,0.0,0.5016909273130395,1.2457006160410788,0.5911675074011904,-0.001243676446316309,0.01091222329645259,0.29881252074049974
11193,10.0,300.61444,-7735.371999999999,0.0,0.11193001964261007,0.0,0.0,0.0,0.0,0.5184505297970835,1.2472655808205289,0.5856438758060504,0.018627416572632883,0.011559036564038089,0.2921678798972247
11194,10.0,299.87747,-7791.0159,0.0,0.11194001563002964,0.0,0.0,0.0,0.0,0.5234796142834155,1.2621969356191387,0.5825977521629214,0.006581102766604274,-0.0012907534645124486,0.30155168026583373
11195,10.0,299.63953,-7756.5227,0.0,0.111950011617449,0.0,0.0,0.0,0.0,0.5139742441678085,1.2458208888279487,0.5979940975649224,0.0057362411543479255,-0.011675888618570489,0.31238545166004367
11196,10.0,299.47555,-7713.2721,0.0,0.1119600405949257,0.0,0.0,0.0,0.0,0.5136414219074614,1.252517560063859,0.5784831056268375,-0.016272065039427786,-0.008890594397633352,0.32207507117383466
11197,10.0,299.10724,-7708.1709,0.0,0.11197003658234506,0.0,0.0,0.0,0.0,0.48797478362436153,1.2568963203710088,0.5982204272397594,-0.0019579880785883783,0.0007590886234037143,0.3214425903289137
11198,10.0,299.71506,-7694.8462,0.0,0.11198003256976441,0.0,0.0,0.0,0.0,0.5068030273800646,1.229266408694149,0.6029716481511684,-0.028564741285370475,0.010656760654740388,0.30103181203702667
11199,10.0,299.77095,-7800.3276,0.0,0.11199002855718354,0.0,0.0,0.0,0.0,0.5236320982909645,1.2541489940498687,0.5933237948064994,0.002010232469644498,0.014705887399608089,0.31162860449784874
11200,10.0,299.77075,-7685.3871,0.0,0.1120000245446029,0.0,0.0,0.0,0.0,0.5166588705727605,1.236204740078909,0.5833021636324415,-0.0023758099646491878,0.011891797016128988,0.30075485025469273
11201,10.0,299.8986,-7581.79,0.0,0.11201002053202225,0.0,0.0,0.0,0.0,0.4886314608816705,1.241621473788499,0.5744219181660295,0.01098703053808549,0.011293837602114989,0.32300997677610266
11202,10.0,300.09927999999996,-7839.9344,0.0,0.1120200165194416,0.0,0.0,0.0,0.0,0.5210503573011664,1.2663366702276988,0.5957573074391684,-0.0018877224265536985,0.003039612396661387,0.3069408941027077
11203,10.0,299.78085,-7941.3804,0.0,0.11203001250686095,0.0,0.0,0.0,0.0,0.5216322263035925,1.2669373248869789,0.6254117941408384,0.00025286115247795274,-0.008520238212507043,0.3000440654420437
11204,10.0,300.01819,-7802.811,0.0,0.11204004148433766,0.0,0.0,0.0,0.0,0.5166123117306656,1.2661345268327489,0.5891128692459134,0.01649102939928788,0.0037308340856546563,0.3041933651315477
11205,10.0,300.43956000000003,-7711.5219,0.0,0.11205003747175701,0.0,0.0,0.0,0.0,0.5037257969588655,1.2402755736806688,0.6001087403911214,0.017212440165735584,-0.0060079395077124636,0.2864371602466467
11206,10.0,301.01797999999997,-7649.6123,0.0,0.11206003345917614,0.0,0.0,0.0,0.0,0.5079568355339364,1.2332897208662188,0.5840445314507074,0.012874511811115387,0.009724697421652911,0.31830203177646466
11207,10.0,300.91691000000003,-7673.6413,0.0,0.1120700294465955,0.0,0.0,0.0,0.0,0.49701831434438853,1.252384824300759,0.5831922462615934,0.002236451294920558,-0.013724409782993786,0.3189717090325567
11208,10.0,300.30356,-7744.1313,0.0,0.11208002543401485,0.0,0.0,0.0,0.0,0.5148619120504145,1.2390146852562287,0.6001459975972985,0.0016497415914668184,0.004590396943611906,0.3248490763701077
11209,10.0,300.3837,-7626.753000000001,0.0,0.1120900214214342,0.0,0.0,0.0,0.0,0.48914248343710454,1.241328441859579,0.5878715466809045,-0.002154018231710048,-0.01168913382387769,0.3190674105045017
11210,10.0,299.85205,-7441.2745,0.0,0.11210001740885356,0.0,0.0,0.0,0.0,0.47451892362137155,1.219848249014649,0.5675945275347184,-0.0028420787830413376,0.0041879874021721756,0.3225395348871737
11211,10.0,300.04058,-7552.153,0.0,0.11211001339627269,0.0,0.0,0.0,0.0,0.4873707447097475,1.2292959955970688,0.5789991539027675,-0.02090259975792598,0.004422407777732665,0.3012933014903337
11212,10.0,299.82587,-7830.343000000001,0.0,0.11212004237374962,0.0,0.0,0.0,0.0,0.5318940180163525,1.2677211751643387,0.5806135450220955,-0.01036366995731459,0.01060127913226479,0.30525631514895274
11213,10.0,299.34056,-7786.536999999999,0.0,0.11213003836116897,0.0,0.0,0.0,0.0,0.5153591746694904,1.257670950072459,0.5938827339591625,-0.005186869311779145,0.0005565728083794595,0.3025692772087627
11214,10.0,299.82838,-7689.6095,0.0,0.1121400343485881,0.0,0.0,0.0,0.0,0.5103424011718735,1.2493790178791089,0.5777278188697964,0.003055321319586737,-0.005407075814936835,0.3093093560789567
11215,10.0,300.67671,-7767.3589,0.0,0.11215003033600746,0.0,0.0,0.0,0.0,0.5045746877601446,1.2551442082980888,0.6013642281925284,0.016503901728558285,-0.02120044462482098,0.3124859660699637
11216,10.0,300.55235,-7783.4263,0.0,0.11216002632342681,0.0,0.0,0.0,0.0,0.5324598574021965,1.2375587461875388,0.5959486090580485,0.014510827636107186,-0.02171400638500558,0.2978017024407397
11217,10.0,300.30196,-7698.2849,0.0,0.11217002231084616,0.0,0.0,0.0,0.0,0.5086967411544595,1.2296712021090987,0.6017184300299854,0.014476243383693988,-0.023390675908479975,0.3106737277361097
11218,10.0,300.43582999999995,-7594.5001,0.0,0.11218001829826552,0.0,0.0,0.0,0.0,0.5048560774454155,1.2257564090227389,0.5779259295293485,0.00012003054916859289,0.0014768458633033386,0.3056008911104597
11219,10.0,300.1884,-7490.7634,0.0,0.11219001428568465,0.0,0.0,0.0,0.0,0.4793494617506086,1.2261825820147987,0.5714730260024965,-0.01216655497949549,0.004959155030680495,0.3175277465800487
11220,10.0,299.69293999999996,-7530.2239,0.0,0.112200010273104,0.0,0.0,0.0,0.0,0.4820911240036896,1.2413932898659787,0.5655155713770414,-0.018565974099818982,0.027039831295623578,0.31960314622987473
11221,10.0,299.89576,-7796.9472,0.0,0.11221003925058093,0.0,0.0,0.0,0.0,0.5141343275511076,1.2477509276184289,0.6081920545213824,-0.010787823541925291,0.013735747038362688,0.3113117915890817
11222,10.0,300.17469,-7880.0497,0.0,0.11222003523800006,0.0,0.0,0.0,0.0,0.5363002880637174,1.2600263512549188,0.5990117350378554,0.0017046941973902184,0.010537104937181291,0.3191241727751037
11223,10.0,299.96699,-7656.4608,0.0,0.11223003122541919,0.0,0.0,0.0,0.0,0.5002506632233966,1.2478848792816488,0.5792373284712735,0.02110655281755458,-0.006805664218691764,0.2988836711625217
11224,10.0,299.53243,-7637.3019,0.0,0.11224002721283877,0.0,0.0,0.0,0.0,0.5045765521403285,1.2491399921805189,0.5678325906457135,0.012616787595179986,-0.008067183999269072,0.3166437466628047
11225,10.0,300.29242,-7868.5295,0.0,0.11225002320025812,0.0,0.0,0.0,0.0,0.5231091295168515,1.2615147143268088,0.6072127077697284,0.011161529430557189,-0.011246700194212887,0.2999327396535567
11226,10.0,300.13541000000004,-7846.0951,0.0,0.11226001918767747,0.0,0.0,0.0,0.0,0.5146867515056275,1.2633230617802789,0.6070071902519454,-0.008111711477563592,-0.004562557795789396,0.31913090075576767
11227,10.0,301.22367,-7587.1691,0.0,0.1122700151750966,0.0,0.0,0.0,0.0,0.48731162156641256,1.2254362219911388,0.5935620605675145,0.013715216564836489,-0.002814070422452127,0.3086564278470177
11228,10.0,300.80177000000003,-7494.1644,0.0,0.11228001116251596,0.0,0.0,0.0,0.0,0.49592763167174647,1.217983463530609,0.5641277429800735,0.0028028115926409672,0.001979784202814488,0.3291443651340197
11229,10.0,300.07398,-7599.5113,0.0,0.11229004013999289,0.0,0.0,0.0,0.0,0.4988644154965845,1.225787009175759,0.5854102203329905,0.00839234092128456,-0.006664538947413785,0.29993564768134373
11230,10.0,300.03684,-7791.9253,0.0,0.11230003612741202,0.0,0.0,0.0,0.0,0.5295182403743814,1.2585931089884688,0.5804393571974045,-0.015003998751279383,-0.010579104153826291,0.3159291621622807
11231,10.0,299.91291,-7874.7142,0.0,0.11231003211483137,0.0,0.0,0.0,0.0,0.5160012611253595,1.2679763115395186,0.6097389125215454,-0.002954102903497257,0.002635297843708647,0.3099194440966677
11232,10.0,299.39067,-7711.9701,0.0,0.11232002810225072,0.0,0.0,0.0,0.0,0.5042686760974435,1.2577635611315987,0.5822141052775585,-0.013963702979610184,0.002758718190689287,0.3101906202209307
11233,10.0,299.3697,-7605.6845,0.0,0.11233002408967008,0.0,0.0,0.0,0.0,0.48659711812589657,1.2387440461545187,0.5865969996451165,-0.004489614225065426,0.016988631457147383,0.3116685873467947
11234,10.0,299.65894,-7809.2871,0.0,0.11234002007708943,0.0,0.0,0.0,0.0,0.5314419362192355,1.2514592203344088,0.5909271239474664,-0.012739509407541687,0.014103784805935188,0.2945498180998037
11235,10.0,300.24948,-7929.8436,0.0,0.11235001606450856,0.0,0.0,0.0,0.0,0.5369748897152955,1.2673855867312187,0.6061139900237934,-0.0016031920712727384,0.003344916912117596,0.30422980160514373
11236,10.0,300.1911,-7739.7629,0.0,0.1123600120519277,0.0,0.0,0.0,0.0,0.5238950164269125,1.2354330488027487,0.5933665944907235,0.004703341601783676,-0.009661324403423481,0.2989933858833497
11237,10.0,299.81799,-7585.1809,0.0,0.11237004102940484,0.0,0.0,0.0,0.0,0.49905312319520856,1.2405457061573288,0.5661068028103915,0.0013371767337440688,-0.01101673599126719,0.3163752455188057
11238,10.0,300.4021,-7592.0205,0.0,0.11238003701682397,0.0,0.0,0.0,0.0,0.49155131329733753,1.232507795764049,0.5837255704517283,0.013014461914927387,-0.013461156261262687,0.3188608696041177
11239,10.0,300.60637,-7682.8554,0.0,0.11239003300424333,0.0,0.0,0.0,0.0,0.4927745898780655,1.2501195010521888,0.5925021604329105,0.003041906800187827,-0.006747020140004044,0.31728178011827374
11240,10.0,300.10974,-7784.5188,0.0,0.11240002899166268,0.0,0.0,0.0,0.0,0.5057851264621056,1.272429545729019,0.5880846331769345,0.007975040453725213,-0.005904405207194425,0.3286437891871167
11241,10.0,300.39353,-7659.1392,0.0,0.11241002497908203,0.0,0.0,0.0,0.0,0.5097705025504315,1.2395799774870186,0.5788365677917214,-0.006579438300665003,-0.011959536838314388,0.30844325015847873
11242,10.0,300.34065,-7582.5206,0.0,0.11242002096650139,0.0,0.0,0.0,0.0,0.5020622328121845,1.2456123619573687,0.5572223320910625,0.0017245601815008384,-0.004966937399398555,0.3162294185644137
11243,10.0,300.20058,-7748.9294,0.0,0.11243001695392052,0.0,0.0,0.0,0.0,0.5090475486040815,1.255400560573389,0.5910328869929045,-0.02254016492029108,0.005317792471775255,0.2995205089828727
11244,10.0,299.83725,-7927.8135,0.0,0.11244001294133987,0.0,0.0,0.0,0.0,0.5296086729458065,1.255247458483279,0.6250011948028155,-0.013527041835765087,0.017818496461298683,0.30193805279396574
11245,10.0,300.1986,-7813.231,0.0,0.1124500419188168,0.0,0.0,0.0,0.0,0.5202277096774776,1.252349563197279,0.6024498648796724,-0.008140466704801513,0.02310559495309468,0.29021128382162376
11246,10.0,299.55598,-7565.3344,0.0,0.11246003790623593,0.0,0.0,0.0,0.0,0.49863745760668554,1.2237381161485488,0.5772971673122945,0.012208341413619487,0.007895424833742764,0.3023756957771577
11247,10.0,299.0483,-7580.255,0.0,0.11247003389365529,0.0,0.0,0.0,0.0,0.5029081142606665,1.225856923432659,0.5754431830743204,0.00030359735115772574,0.0036096930447739664,0.30746920270484773
11248,10.0,299.66466,-7802.8318,0.0,0.11248002988107464,0.0,0.0,0.0,0.0,0.5248640685575505,1.257037668759959,0.5899643337024465,0.0028671292639386274,-0.022216384903836477,0.3063892503507647
11249,10.0,300.10007,-7860.432,0.0,0.11249002586849377,0.0,0.0,0.0,0.0,0.5283284719744605,1.2580436234592387,0.6030029373142564,0.011759874892859288,-0.02043252466553318,0.3303435972898747
11250,10.0,299.97548,-7768.4911,0.0,0.11250002185591335,0.0,0.0,0.0,0.0,0.5090506998118925,1.2529150580780888,0.5994615370222475,0.010888735145884489,-0.014555856470551184,0.3111778297933607
11251,10.0,300.04082,-7594.0204,0.0,0.11251001784333248,0.0,0.0,0.0,0.0,0.48113288325161857,1.2533241071434589,0.5739356189130355,-0.001072570725779489,0.005311748232278735,0.32715904341808366
11252,10.0,300.15914,-7574.6081,0.0,0.11252001383075183,0.0,0.0,0.0,0.0,0.4908918394697525,1.220723190475999,0.5908767248874924,-0.008538739044757932,0.0036054424606044664,0.28979925580095967
11253,10.0,300.29629,-7831.302,0.0,0.11253000981817118,0.0,0.0,0.0,0.0,0.5178119593190615,1.2772837229830887,0.5854245476894044,-0.007357378492841723,0.007479565309150623,0.3051034258413637
11254,10.0,300.24793999999997,-7864.9623,0.0,0.11254003879564811,0.0,0.0,0.0,0.0,0.5401965488057484,1.258902555569009,0.5916530467166095,0.007526398742022722,-0.015576580303288786,0.2919042322212047
11255,10.0,300.43899,-7695.785,0.0,0.11255003478306724,0.0,0.0,0.0,0.0,0.5014852983377455,1.2380223081082888,0.5998189002000164,0.007732144747703272,-0.0024127097975159177,0.3215213705241887
11256,10.0,299.83355,-7672.8629,0.0,0.1125600307704866,0.0,0.0,0.0,0.0,0.49497199497243255,1.2512608259648288,0.5861259295411255,0.01080415713353729,-0.003043922559936767,0.3231878224336547
11257,10.0,299.79228,-7807.7712,0.0,0.11257002675790573,0.0,0.0,0.0,0.0,0.5063872503340305,1.2520288695406288,0.6149513750109754,-0.0007609291922103643,0.005693546544159295,0.3117707128243737
11258,10.0,299.89013,-7896.9726,0.0,0.11258002274532508,0.0,0.0,0.0,0.0,0.5245203943886325,1.2688381820745789,0.6071238862659625,0.0007708216542616743,0.002287351913694058,0.3234927195212457
11259,10.0,299.7784,-7796.9146,0.0,0.11259001873274443,0.0,0.0,0.0,0.0,0.5232726072879855,1.2612405288497488,0.5855542437022044,-0.00018591565757594683,-0.0016995456709820982,0.32212720289147967
11260,10.0,300.11618,-7588.3006,0.0,0.11260001472016379,0.0,0.0,0.0,0.0,0.5074395206953816,1.2259073832876388,0.5733069580209914,-0.0018090176170861383,-3.7095746800065164e-05,0.3151772596605737
11261,10.0,300.26164,-7426.5216,0.0,0.11261001070758314,0.0,0.0,0.0,0.0,0.47292583101914554,1.2277791601973687,0.5567721552041335,-0.007832851776467283,0.007041915334532934,0.3176634916959457
11262,10.0,300.24285,-7685.8331,0.0,0.11262003968505985,0.0,0.0,0.0,0.0,0.4972887001335735,1.250161753581359,0.5888509136975604,0.001164285666531049,-0.0033842500650994763,0.30770587766320573
11263,10.0,300.15321,-7893.137,0.0,0.1126300356724792,0.0,0.0,0.0,0.0,0.5127564695351234,1.2660485018992589,0.6205115342722204,-0.012655634590763886,0.019268132101116584,0.3009841690173247
11264,10.0,301.19986,-7715.1835,0.0,0.11264003165989855,0.0,0.0,0.0,0.0,0.5042277610584056,1.2499552532109788,0.5910401013336165,0.0019420521876406282,-0.002188132336076848,0.2940530013107717
11265,10.0,300.96332,-7590.1319,0.0,0.11265002764731769,0.0,0.0,0.0,0.0,0.49055810528431554,1.2381099542419387,0.5785425530102044,-0.005999910412595055,0.0023926857463896977,0.30292930523429473
11266,10.0,300.03369,-7762.2839,0.0,0.11266002363473704,0.0,0.0,0.0,0.0,0.5312307546333935,1.2364102271991888,0.5918994387434264,-0.005196946894623725,-0.006114954828949055,0.2988608629027707
11267,10.0,299.15381,-7942.9055,0.0,0.11267001962215661,0.0,0.0,0.0,0.0,0.5336174348464405,1.2721964982060188,0.6086310045972034,0.002061348404064248,0.001016409008511759,0.3292161944336087
11268,10.0,299.81642999999997,-7762.8785,0.0,0.11268001560957575,0.0,0.0,0.0,0.0,0.5392338497532375,1.2159350771284487,0.6045523183071685,0.006091882617547005,-0.0007330054481370053,0.30502099794572873
11269,10.0,299.61885,-7488.883000000001,0.0,0.1126900115969951,0.0,0.0,0.0,0.0,0.4719341530137745,1.2389478107496288,0.5655514910930864,0.0005063042955483436,0.010343972375370589,0.3302385131220037
11270,10.0,299.43809,-7412.133000000001,0.0,0.1127000405744718,0.0,0.0,0.0,0.0,0.48485005203847453,1.2152844692392388,0.5529688094962725,0.0006827627022559324,-0.012162470568342389,0.3014329780166187
11271,10.0,299.7734,-7618.9144,0.0,0.11271003656189116,0.0,0.0,0.0,0.0,0.49831510221987146,1.2406925260968187,0.5769520847257374,-0.005945633948463385,0.0008271419046400501,0.31383804700340373
11272,10.0,300.43782000000004,-7782.0586,0.0,0.11272003254931051,0.0,0.0,0.0,0.0,0.5311831116136915,1.2523139981187688,0.5820543461342914,0.014272339973320287,-0.008182887636138132,0.3051126869472777
11273,10.0,300.68978,-7716.8668,0.0,0.11273002853672964,0.0,0.0,0.0,0.0,0.4857055694954075,1.2500469523450288,0.6099822951955655,0.01046336667440389,0.0009307204943199611,0.31268113830422567
11274,10.0,300.40131,-7572.9723,0.0,0.112740024524149,0.0,0.0,0.0,0.0,0.47808497628831353,1.2463503120051989,0.5775592241856575,-0.0013131262293704688,-0.001285279380847199,0.32298977256910866
11275,10.0,300.1555,-7716.5468,0.0,0.11275002051156835,0.0,0.0,0.0,0.0,0.48542535518025254,1.263553373528009,0.5966588771131465,-0.006811297585272733,-0.000987796011190376,0.32203536190241566
11276,10.0,299.80037000000004,-7979.927,0.0,0.1127600164989877,0.0,0.0,0.0,0.0,0.5439838243670235,1.248185105286279,0.6335295790395015,-0.012001536054959388,0.006284205896502834,0.2980621279814417
11277,10.0,300.00487000000004,-7759.5912,0.0,0.11277001248640706,0.0,0.0,0.0,0.0,0.5240032619350955,1.2514211221306488,0.5832975938744904,-0.001762886569183358,0.002849096857208967,0.3055673930621537
11278,10.0,300.62358,-7433.9846,0.0,0.11278004146388376,0.0,0.0,0.0,0.0,0.4735820421814086,1.2195350534087388,0.5666285759493864,0.00960653888244157,0.000976027212603886,0.3090568237565337
11279,10.0,299.62807999999995,-7496.7515,0.0,0.11279003745130312,0.0,0.0,0.0,0.0,0.47836673074362057,1.2228448348603886,0.5776136661135305,0.003157657553186537,0.0023980877879728377,0.3371371757653487
11280,10.0,300.57543,-7797.4484,0.0,0.11280003343872247,0.0,0.0,0.0,0.0,0.5089111752731225,1.2600884634860487,0.6012299624217775,0.014133809432898384,0.004284874478059185,0.3119007938722117
11281,10.0,300.53869,-7835.9077,0.0,0.1128100294261416,0.0,0.0,0.0,0.0,0.5186386802081525,1.2593656108647089,0.6039160073768695,-0.002745754263609847,0.001190798267322639,0.3319847888743477
11282,10.0,300.26039,-7702.2414,0.0,0.11282002541356095,0.0,0.0,0.0,0.0,0.5080480584404395,1.247723367215709,0.5855176552410934,0.0003075344154812837,-0.007893228816801032,0.29700584514969475
11283,10.0,299.88116,-7498.9332,0.0,0.11283002140098031,0.0,0.0,0.0,0.0,0.4877033136575696,1.231487250263329,0.5602978501195925,-0.015825883397643084,0.003702712038404226,0.3151501045578937
11284,10.0,299.89207000000005,-7598.3966,0.0,0.11284001738839966,0.0,0.0,0.0,0.0,0.4947807034860536,1.2258306802550687,0.5891114101657694,-0.005282035686346336,0.013428866007075888,0.2904715067123057
11285,10.0,299.6016,-7944.5886,0.0,0.11285001337581901,0.0,0.0,0.0,0.0,0.5230032347489004,1.2700486106440387,0.6219047430272194,-0.006538952170394333,0.012459392364396289,0.3085693187359207
11286,10.0,299.62512000000004,-7999.2622,0.0,0.11286004235329572,0.0,0.0,0.0,0.0,0.5400778060265295,1.261921939541999,0.6295762115218344,0.0010098859880779871,0.0026752617448777775,0.30233104184525067
11287,10.0,299.64167000000003,-7695.655,0.0,0.11287003834071485,0.0,0.0,0.0,0.0,0.4948535764332455,1.2536411530997489,0.5907922603591564,-0.007943674080979592,0.0014699934555270585,0.3261930614352487
11288,10.0,300.19409,-7542.2124,0.0,0.11288003432813443,0.0,0.0,0.0,0.0,0.4930672469044486,1.2253519195828189,0.5742251247316075,0.0052397746458754954,-0.004762924558014055,0.30887417529350775
11289,10.0,300.39281,-7773.7353,0.0,0.11289003031555356,0.0,0.0,0.0,0.0,0.5152323258894714,1.2435333754021887,0.6042557400028984,0.0029795083259045773,-0.005955732302935015,0.3063603524579127
11290,10.0,299.47191000000004,-7830.5688,0.0,0.11290002630297313,0.0,0.0,0.0,0.0,0.5209352216923036,1.2596141611142386,0.5997479422955134,0.008438765001116262,-0.0077593738176405715,0.3123384773854077
11291,10.0,300.57136,-7604.2756,0.0,0.11291002229039226,0.0,0.0,0.0,0.0,0.4845673147305705,1.2541853697284588,0.5727572394442384,0.007350422834880253,-0.008982739969677411,0.32559511215373566
11292,10.0,300.58019,-7428.1835,0.0,0.11292001827781162,0.0,0.0,0.0,0.0,0.4808300227967285,1.2271301735083189,0.5500220552904505,-0.0038979516537978763,-0.0013890352791621086,0.3295026098393757
11293,10.0,300.05883,-7582.5912,0.0,0.11293001426523097,0.0,0.0,0.0,0.0,0.4912540155854965,1.2497044738112288,0.5639598778360064,-0.004303523346149685,0.0015717254880922287,0.3287034797505077
11294,10.0,300.34507,-7875.2033,0.0,0.1129400102526501,0.0,0.0,0.0,0.0,0.5353110519910875,1.265178525363399,0.5933755820191104,-0.01149550780926829,0.0026844138250810175,0.3114982093424797
11295,10.0,299.33505,-7924.6592,0.0,0.11295003923012681,0.0,0.0,0.0,0.0,0.5329028402134155,1.2693025545954089,0.6066931029859474,0.007034118071038403,0.009523350745256542,0.3103469748438617
11296,10.0,300.10217,-7754.1352,0.0,0.11296003521754638,0.0,0.0,0.0,0.0,0.5114365592923584,1.2495427590952688,0.5960841413914244,0.006868782303196033,0.007239756469558333,0.2977136712720517
11297,10.0,299.95094,-7643.6647,0.0,0.11297003120496574,0.0,0.0,0.0,0.0,0.49564194580605153,1.2325097209392388,0.5953315194821465,0.002000561909365088,-0.003138714842567037,0.30676776005812073
11298,10.0,299.39802000000003,-7929.225,0.0,0.11298002719238509,0.0,0.0,0.0,0.0,0.5337100763030835,1.2696569894803886,0.6069193718657785,-0.006225296548938934,-0.009415823023444382,0.30275621171971173
11299,10.0,299.79812000000004,-7995.7147,0.0,0.11299002317980422,0.0,0.0,0.0,0.0,0.5343661050803286,1.2729949392848188,0.6231365410412883,-0.008414409508462561,-0.007497248043270774,0.3138553127851077
11300,10.0,300.41517999999996,-7564.9262,0.0,0.11300001916722335,0.0,0.0,0.0,0.0,0.5182577994955625,1.2246109297846888,0.5566799595775345,-0.003269470410996607,0.004438474985893376,0.31699822207778866
11301,10.0,299.5495,-7398.9244,0.0,0.11301001515464293,0.0,0.0,0.0,0.0,0.4625732014349206,1.2127567142147688,0.5737583710730424,-0.0025727683561874676,0.001984288200833998,0.3172472485548657
11302,10.0,299.82655,-7575.7839,0.0,0.11302001114206206,0.0,0.0,0.0,0.0,0.4996995058315015,1.2329885829364988,0.5701610697730165,0.0007687785570250362,0.007971733509373843,0.3157749454970607
11303,10.0,299.84083,-7905.6605,0.0,0.11303004011953877,0.0,0.0,0.0,0.0,0.5109194065738195,1.2850446107990288,0.6071594006819674,0.0031509444672990074,0.003102995243416787,0.3050651249875837
11304,10.0,300.12782999999996,-7904.0633,0.0,0.11304003610695812,0.0,0.0,0.0,0.0,0.5218624569913145,1.2700793121220688,0.6106961298910154,0.009631670727321892,0.0014073312322427786,0.3113131290792137
11305,10.0,300.84679,-7725.7269,0.0,0.1130500320943777,0.0,0.0,0.0,0.0,0.5170920957855165,1.2526800853798987,0.5786559458288955,-0.009537136722142112,-0.015151585721095087,0.2987986392141297
11306,10.0,299.98557999999997,-7682.8622,0.0,0.11306002808179705,0.0,0.0,0.0,0.0,0.5099157114222626,1.2436844509920988,0.5817981154490035,-0.011624195638218789,-0.007428515539962404,0.3119578398528417
11307,10.0,300.54183,-7838.7873,0.0,0.11307002406921618,0.0,0.0,0.0,0.0,0.5145114997683315,1.2639971770718088,0.6042868873109725,-0.005258075969181695,-0.006467297251147545,0.31181944002168266
11308,10.0,300.85127,-7944.0998,0.0,0.11308002005663531,0.0,0.0,0.0,0.0,0.5272962639650896,1.2615888842341287,0.6259227964312704,-0.0012696319622029187,-0.00016602414969530785,0.3088767996112667
11309,10.0,300.01769,-7778.3112,0.0,0.11309001604405466,0.0,0.0,0.0,0.0,0.5112727268836895,1.2342877722147187,0.6188519218009295,0.001891846455785708,0.00048821408290047863,0.3087587559746167
11310,10.0,300.02873,-7364.2691,0.0,0.11310001203147424,0.0,0.0,0.0,0.0,0.45444397694262856,1.2267853644992888,0.5573245892911545,-0.003069161302702637,0.0021635894934796582,0.3298589091045397
11311,10.0,300.20816,-7356.2618,0.0,0.11311004100895072,0.0,0.0,0.0,0.0,0.47867567069911054,1.216186160503229,0.5412581106705164,-0.0029111238740055574,0.00956448515294119,0.3182733669311357
11312,10.0,299.24206000000004,-7822.1737,0.0,0.11312003699637008,0.0,0.0,0.0,0.0,0.5195582958664116,1.264489312645379,0.5936978766109184,-0.006077073562035464,0.004027339841217496,0.3168665299622917
11313,10.0,300.01685,-7881.2607,0.0,0.11313003298378943,0.0,0.0,0.0,0.0,0.5323520070615525,1.2593383544370187,0.6040160658242444,0.009684637261724282,-0.013428622827051888,0.3094661565319317
11314,10.0,299.81397999999996,-7682.7697,0.0,0.113140028971209,0.0,0.0,0.0,0.0,0.5051551179474285,1.2516000620983088,0.5786149902598534,0.013006772359918487,-0.0043033153259041555,0.3134818389307487
11315,10.0,299.97368,-7693.6611,0.0,0.11315002495862814,0.0,0.0,0.0,0.0,0.4931860403461725,1.2481310990559487,0.5973637040152074,0.011625060953804188,-0.0014051655114790387,0.30589426754441373
11316,10.0,300.9377,-7769.9039,0.0,0.11316002094604727,0.0,0.0,0.0,0.0,0.5105030114452245,1.2491508339565889,0.6022028851677974,0.014805566891445684,0.013633857648056988,0.3105702141058937
11317,10.0,300.61463,-7967.319,0.0,0.11317001693346662,0.0,0.0,0.0,0.0,0.5462526737259414,1.2588671931405189,0.6167461550456064,-0.011590303435623889,-0.006020160925118624,0.2849394651413357
11318,10.0,300.07411,-7912.2486,0.0,0.11318001292088598,0.0,0.0,0.0,0.0,0.5248021184464364,1.257716242351929,0.6226076346215894,-0.006582890038455664,0.0010323338550334191,0.31052337155377074
11319,10.0,300.66438,-7562.953,0.0,0.11319004189836268,0.0,0.0,0.0,0.0,0.5024956606749605,1.2143110398681687,0.5821421341229555,-0.0035330599264608666,-0.0028068445306889873,0.3035381976168877
11320,10.0,299.90116,-7565.3537,0.0,0.11320003788578226,0.0,0.0,0.0,0.0,0.49413570900239756,1.2315829010727688,0.5739599571804375,-0.005948606114981714,0.018644916415109982,0.3114272109079727
11321,10.0,299.96521,-7838.0417,0.0,0.11321003387320139,0.0,0.0,0.0,0.0,0.5148646478256845,1.2630688373301886,0.6046354858753764,-0.006914299726838254,-0.004684912102339825,0.3139076167552697
11322,10.0,300.00971,-7892.9654,0.0,0.11322002986062074,0.0,0.0,0.0,0.0,0.5336313974328185,1.2662341293175787,0.5993989080335664,-0.005696712038796704,0.004037555327400686,0.3155586571307147
11323,10.0,300.02432999999996,-7689.3248,0.0,0.1132300258480401,0.0,0.0,0.0,0.0,0.49721818805911455,1.2613454002350988,0.5787991180680254,0.014961604367095385,0.0012607072553221187,0.3230976735722577
11324,10.0,300.1451,-7593.7588,0.0,0.11324002183545923,0.0,0.0,0.0,0.0,0.4816234077575295,1.2484856352659388,0.5782039653567884,0.007889376946545882,0.01069274319229159,0.3167685182801187
11325,10.0,300.00885,-7767.4029,0.0,0.11325001782287858,0.0,0.0,0.0,0.0,0.5145600749781255,1.2526235460243187,0.5939129085471404,0.004649850710454535,-0.008761223131490402,0.3084679227984137
11326,10.0,299.6655,-7921.0668,0.0,0.11326001381029793,0.0,0.0,0.0,0.0,0.5262470232215375,1.2724290391039688,0.6091304862339985,0.0007817279034355373,-0.017619641062923182,0.3104914237781177
11327,10.0,300.37642,-7843.4281,0.0,0.11327000979771751,0.0,0.0,0.0,0.0,0.5114536933515494,1.2578874816188288,0.6148651271624634,0.013587863186267686,-0.001115650776306159,0.31635979345478066
11328,10.0,300.14194,-7641.5333,0.0,0.11328003877519421,0.0,0.0,0.0,0.0,0.49962203272885547,1.2454611850424488,0.5777520862096914,-0.008511628119782292,0.020320731768750083,0.31727510280011473
11329,10.0,300.45899,-7580.3523,0.0,0.11329003476261335,0.0,0.0,0.0,0.0,0.48860398153895856,1.2383273977133988,0.5773064588157115,-0.02290901632769388,0.010128886128943231,0.3144367156924877
11330,10.0,300.36157000000003,-7872.0455,0.0,0.1133000307500327,0.0,0.0,0.0,0.0,0.5352283606504264,1.254809227815029,0.6028677089559104,-0.02867284493853947,0.004160269641711647,0.3166871644295897
11331,10.0,300.50957999999997,-7980.6453,0.0,0.11331002673745205,0.0,0.0,0.0,0.0,0.5524273185103314,1.2643905207606287,0.6090990045533915,0.0028073368689125774,-0.002297859013256028,0.3025058781500057
11332,10.0,300.0322,-7664.5513,0.0,0.11332002272487118,0.0,0.0,0.0,0.0,0.5103014253378294,1.2443891664366489,0.5751416702420634,0.01943412070599838,0.016131572846812284,0.3289929957015807
11333,10.0,300.13857,-7424.8477,0.0,0.11333001871229076,0.0,0.0,0.0,0.0,0.47219007972403254,1.218900049571069,0.5658781325278235,0.006771429233588034,-0.0058714390138659145,0.3150773532007137
11334,10.0,299.88863,-7711.3045,0.0,0.11334001469970989,0.0,0.0,0.0,0.0,0.5096366623447226,1.2519551049333488,0.5824522595810625,-0.007884687219783044,-0.006949295460117063,0.3159410070559497
11335,10.0,299.64222,-8061.0646,0.0,0.11335001068712924,0.0,0.0,0.0,0.0,0.5400737428936285,1.2683811049544689,0.6419075564313433,-0.004775428773523126,0.0015699946542714084,0.2969749207566427
11336,10.0,300.02427,-7915.6243,0.0,0.11336003966460617,0.0,0.0,0.0,0.0,0.5339831573375344,1.2633346128314187,0.6088343334947705,-0.007109154611168932,0.023982027918591876,0.2996540654785537
11337,10.0,300.20866,-7609.9162,0.0,0.1133700356520253,0.0,0.0,0.0,0.0,0.49002356519406054,1.241449322596509,0.5817516376669165,0.004407923975503226,0.0007893311801984222,0.30048339042040173
11338,10.0,300.02111,-7553.0889,0.0,0.11338003163944466,0.0,0.0,0.0,0.0,0.4991607303558286,1.2184523956768887,0.5783373394674515,-0.0075038041767178125,-0.005185265539520865,0.3063392363258287
11339,10.0,299.81137,-7796.0497,0.0,0.11339002762686401,0.0,0.0,0.0,0.0,0.5085308315830855,1.2633213392551088,0.5979522402032914,0.013216048022322385,-0.015353686559540884,0.3353143489679497
11340,10.0,300.20224,-7904.1586,0.0,0.11340002361428336,0.0,0.0,0.0,0.0,0.5360699661834865,1.2667992188983488,0.5997976523454194,0.01990379759110188,-0.011730102565170989,0.3216511475969967
11341,10.0,299.75343,-7665.4214,0.0,0.11341001960170272,0.0,0.0,0.0,0.0,0.48618123975485256,1.2523538188476988,0.5915616414250884,0.006425480622170563,-0.0092035544228951,0.3276289381519587
11342,10.0,299.84955,-7332.4822,0.0,0.11342001558912185,0.0,0.0,0.0,0.0,0.46999164111456354,1.2082372134687287,0.5506626421361714,-0.003885084796078016,0.007721940204621164,0.3134385427539757
11343,10.0,299.1184,-7574.1447,0.0,0.1134300115765412,0.0,0.0,0.0,0.0,0.4834308838159136,1.2396956906484387,0.5792243183399894,-0.013151645845966387,0.019032262676588082,0.3184227402608777
11344,10.0,299.29151,-8008.4293,0.0,0.11344004055401813,0.0,0.0,0.0,0.0,0.5375748452320065,1.2782937306827689,0.6184939405405995,0.0024969819096579277,0.02771459912021797,0.3042008429172857
11345,10.0,299.47891,-7983.5666,0.0,0.11345003654143726,0.0,0.0,0.0,0.0,0.5351753372726935,1.2851060137550885,0.6065235355817125,-0.01133740229016449,0.0027536127274104174,0.31201322410330773
11346,10.0,300.14677,-7672.4934,0.0,0.11346003252885661,0.0,0.0,0.0,0.0,0.5068090359531575,1.2381104608669886,0.5873269551496574,-0.004939669015357375,-0.010110434034022151,0.3098737769146607
11347,10.0,300.48807999999997,-7595.2258,0.0,0.11347002851627574,0.0,0.0,0.0,0.0,0.5011799858176136,1.2395462362586886,0.5680327582029685,0.004593857800653465,-0.018605303402450483,0.3158539182098547
11348,10.0,300.20165,-7814.7762,0.0,0.11348002450369532,0.0,0.0,0.0,0.0,0.5270955289877784,1.2404696110748188,0.6079317404381914,0.015859290253440086,-0.004184839943386546,0.29806308043653573
11349,10.0,300.10713,-7880.0523,0.0,0.11349002049111467,0.0,0.0,0.0,0.0,0.5387326962537775,1.245295822626129,0.6113106255466614,0.01178214410355709,-0.01205586855182159,0.3022126739685687
11350,10.0,300.32435,-7790.4778,0.0,0.1135000164785338,0.0,0.0,0.0,0.0,0.5156531691860055,1.247867654029949,0.6045899605483834,0.01764147254957778,-0.0027259048968008674,0.30730976780161273
11351,10.0,299.71616,-7539.1399,0.0,0.11351001246595316,0.0,0.0,0.0,0.0,0.49008209051983653,1.2309653251368187,0.5706628312225365,-0.004046798802762946,0.012465179035717387,0.32647954776852267
11352,10.0,299.13347000000005,-7625.8502,0.0,0.11352004144343009,0.0,0.0,0.0,0.0,0.5037253207313186,1.2484605066634589,0.5658822463232295,-0.012908077747178089,0.0094986837795221,0.3200131578828397
11353,10.0,299.25313,-7931.1143,0.0,0.11353003743084922,0.0,0.0,0.0,0.0,0.5244959953262246,1.2744382127272589,0.6119265296199464,-0.021268503620787877,0.0026940276433548276,0.3220902901903367
11354,10.0,299.58648,-7916.9206,0.0,0.11354003341826857,0.0,0.0,0.0,0.0,0.5421277832313465,1.2541191031719188,0.6102993208868535,-0.01010145785403627,0.01018153419883919,0.27976004473766675
11355,10.0,299.72829,-7612.6795,0.0,0.1135500294056877,0.0,0.0,0.0,0.0,0.4907203772878305,1.2441173114348187,0.5792267704052314,0.009530880916024711,0.01009322975659922,0.3222914102026857
11356,10.0,299.30681,-7550.4865,0.0,0.11356002539310706,0.0,0.0,0.0,0.0,0.4877842723405595,1.2285203526455188,0.5788547151010125,0.015678966186143485,0.0014201721507600786,0.2920935985323937
11357,10.0,299.48438,-7743.1034,0.0,0.11357002138052663,0.0,0.0,0.0,0.0,0.5131245934289544,1.254794738338599,0.5857907160105424,0.01074268223672019,-0.013525228118086086,0.3266258306854597
11358,10.0,300.17502,-7979.3716,0.0,0.11358001736794576,0.0,0.0,0.0,0.0,0.5320496329667105,1.2689791251634885,0.6245009430959444,0.0038249994704480563,-0.01939038275218178,0.3033221625630667
11359,10.0,300.31882,-7893.3187,0.0,0.11359001335536512,0.0,0.0,0.0,0.0,0.5154839462868045,1.2837100590923187,0.6001777629879333,0.006352429748261004,-0.008641715247120893,0.3340485969430297
11360,10.0,300.68644,-7566.451999999999,0.0,0.11360004233284182,0.0,0.0,0.0,0.0,0.4968123712615635,1.2310544911456187,0.5721455808888725,0.0028222747085118274,0.006164991145387254,0.30592513114245967
11361,10.0,299.79231,-7500.2501,0.0,0.11361003832026118,0.0,0.0,0.0,0.0,0.48439820328888056,1.2318577958248988,0.5636327905712254,-0.004868104174044475,0.009073720912056531,0.3325930327768767
11362,10.0,299.58903,-7717.3748,0.0,0.11362003430768053,0.0,0.0,0.0,0.0,0.5039159434726316,1.245475978493909,0.5964972839871985,0.00016451765957912882,0.010346498407869891,0.3114838515885627
11363,10.0,299.59902,-7901.5126,0.0,0.11363003029509988,0.0,0.0,0.0,0.0,0.5223514920195785,1.270577628521249,0.6089333888245464,0.0034579157791697164,0.012855404953979688,0.31199141896115573
11364,10.0,299.18065,-7645.4025,0.0,0.11364002628251901,0.0,0.0,0.0,0.0,0.49449220078508055,1.2392863376080387,0.5902328855089504,0.009943213519668771,0.001098414986805119,0.3131673463647107
11365,10.0,299.07916,-7440.6763,0.0,0.11365002226993859,0.0,0.0,0.0,0.0,0.4829925720876555,1.2106858336603887,0.5681014362947464,-0.0069077601093678435,-0.006644391279775363,0.2990618815901097
11366,10.0,299.64831000000004,-7817.514,0.0,0.11366001825735772,0.0,0.0,0.0,0.0,0.5277920573715206,1.2440876232068887,0.6044494328920145,-0.0047314968836373855,-0.00953105326986672,0.28879840788218375
11367,10.0,299.49697000000003,-8116.5352,0.0,0.11367001424477707,0.0,0.0,0.0,0.0,0.5535016878563636,1.2822851254766887,0.6314371567879954,-0.0009031862131875391,0.006399780951934203,0.3020227908998287
11368,10.0,299.50293999999997,-7918.7373,0.0,0.1136800102321962,0.0,0.0,0.0,0.0,0.5384346386043615,1.261769242751929,0.6068945675033304,0.002503625790563628,0.004092741791447165,0.3048089348322997
11369,10.0,299.50222,-7581.9522,0.0,0.11369003920967313,0.0,0.0,0.0,0.0,0.48936746548930854,1.2365449894624887,0.5788117330317705,-0.016063406446334784,-0.0038149024332015564,0.3235444662038527
11370,10.0,299.83718,-7539.8344,0.0,0.11370003519709249,0.0,0.0,0.0,0.0,0.4877217852068925,1.2306179830025388,0.5735816602556024,0.00012882082815862588,-0.009394778224167422,0.31398327614023674
11371,10.0,299.57752999999997,-7730.9778,0.0,0.11371003118451184,0.0,0.0,0.0,0.0,0.5091346475826775,1.261854862385379,0.5790347392462795,-0.0023406204979512578,0.010180592889496291,0.3336161316678487
11372,10.0,299.83849,-7785.8698,0.0,0.11372002717193097,0.0,0.0,0.0,0.0,0.5193963886329326,1.2564774427796688,0.5908361746184905,0.02384819075263318,-0.007863214727638873,0.3063554989899337
11373,10.0,300.32268999999997,-7583.4186,0.0,0.11373002315935032,0.0,0.0,0.0,0.0,0.4843133334605046,1.2442543028483386,0.5766023107912175,0.00865493268937535,-0.0066324119278180944,0.3276827113347657
11374,10.0,300.10495,-7455.5588,0.0,0.11374001914676968,0.0,0.0,0.0,0.0,0.47435189947488754,1.2260098228727487,0.5659420179466285,0.005278843239256266,-0.006158456188867304,0.3075281637281667
11375,10.0,299.56099,-7693.0923,0.0,0.11375001513418903,0.0,0.0,0.0,0.0,0.4923902438501335,1.2670743163004987,0.5790433417396285,-0.00832340698385631,0.013346416833188789,0.3318439065804437
11376,10.0,299.94979,-8012.1573,0.0,0.11376001112160838,0.0,0.0,0.0,0.0,0.5383726783607465,1.2671426093572387,0.6299804172517264,-0.01111943699490299,0.024217262035307677,0.29916153473744467
11377,10.0,299.91818,-7860.9588,0.0,0.11377004009908509,0.0,0.0,0.0,0.0,0.5241644294960015,1.2663123522252988,0.5990583749399584,-0.015516046715814585,0.014365982521062089,0.3092387325469867
11378,10.0,299.64123,-7514.4906,0.0,0.11378003608650467,0.0,0.0,0.0,0.0,0.47981040948610054,1.231156728080709,0.5732503376054034,-0.0062404083635803536,-0.012590001315536387,0.3005003116970717
11379,10.0,299.56485,-7534.3364,0.0,0.1137900320739238,0.0,0.0,0.0,0.0,0.4950095966836436,1.2382126978020789,0.5570278286018665,0.01067390585968249,-0.005739137935058814,0.3107751236736167
11380,10.0,299.79277,-7807.5585,0.0,0.11380002806134293,0.0,0.0,0.0,0.0,0.5344037777190465,1.2525131017634186,0.5863860004442925,0.030187333651007873,-0.012870393962708988,0.30738198213623974
11381,10.0,299.35188,-7904.911999999999,0.0,0.11381002404876228,0.0,0.0,0.0,0.0,0.5364312101091384,1.255421534850459,0.6110431781827664,0.02147096314976908,-0.002687954627555467,0.3119126995608867
11382,10.0,299.64173999999997,-7763.5024,0.0,0.11382002003618163,0.0,0.0,0.0,0.0,0.5181391276438505,1.2566928597509288,0.5850788368877854,0.008190637783503011,-0.010948353768518389,0.3107478976434297
11383,10.0,299.50689,-7644.6305,0.0,0.11383001602360099,0.0,0.0,0.0,0.0,0.5139972753425815,1.2375557064372387,0.5722238037965924,-0.00024973214497664377,0.013779259037406988,0.3125897836752097
11384,10.0,299.48446,-7741.8699,0.0,0.11384001201102034,0.0,0.0,0.0,0.0,0.5077849477869725,1.246811948750759,0.5987382689683665,-0.01146645184940069,0.007462797742520792,0.30676016068237066
11385,10.0,299.6162,-7907.8812,0.0,0.11385004098849705,0.0,0.0,0.0,0.0,0.5313899564891055,1.2623200455062886,0.6100884331435403,-0.01038142919181729,0.006805612846911693,0.3029266707840347
11386,10.0,300.25164,-7889.5691,0.0,0.1138600369759164,0.0,0.0,0.0,0.0,0.5227399822404195,1.2621610665655987,0.6133309347885504,-0.013606787658385385,-0.0035866911529288566,0.2983657889039107
11387,10.0,299.64414,-7637.7332,0.0,0.11387003296333575,0.0,0.0,0.0,0.0,0.49455398877617857,1.2525541383924688,0.5745720716983485,-0.003103184721185487,-0.001764396717132398,0.3154752463824827
11388,10.0,300.01681,-7497.5367,0.0,0.11388002895075489,0.0,0.0,0.0,0.0,0.4744033016524606,1.2331103755985187,0.5715502660576194,0.0020880916205785983,-0.004787339325798605,0.3173382789438497
11389,10.0,300.40586,-7750.1493,0.0,0.11389002493817424,0.0,0.0,0.0,0.0,0.5090549047998075,1.2554491965781887,0.5913477240639765,0.0036673042163097463,0.0013254400551857488,0.31655943412198373
11390,10.0,299.89682,-8007.3711,0.0,0.11390002092559359,0.0,0.0,0.0,0.0,0.5294611741287495,1.2777894361079987,0.6267902398418804,0.016396135487672586,-0.01116949661609349,0.3147823251690967
11391,10.0,299.78837999999996,-7832.7064,0.0,0.11391001691301295,0.0,0.0,0.0,0.0,0.5211260470836365,1.2684444330857187,0.5913766422218305,0.01038686426535369,-0.009057856759215862,0.3261859990820517
11392,10.0,299.90254,-7589.1073,0.0,0.1139200129004323,0.0,0.0,0.0,0.0,0.5035110993951766,1.235113368396199,0.5682746716643434,0.004305772356071646,-0.00920302236526759,0.3207240744180017
11393,10.0,300.00304,-7630.2428,0.0,0.113930041877909,0.0,0.0,0.0,0.0,0.4982012939686396,1.2438863917370289,0.5773156388616174,-0.0003125448662982767,0.003333018214868287,0.32734749780418265
11394,10.0,299.3395,-7859.7219,0.0,0.11394003786532836,0.0,0.0,0.0,0.0,0.5226574327547725,1.2617092583460088,0.6047924889783715,-0.013389316829172687,0.006069875332000055,0.3185086537368567
11395,10.0,299.37392,-7900.8275,0.0,0.11395003385274771,0.0,0.0,0.0,0.0,0.5152779930714785,1.262135532663079,0.6242407303377634,-0.003955962957798147,0.014223696875769586,0.3047049551070377
11396,10.0,300.17354,-7617.2126,0.0,0.11396002984016684,0.0,0.0,0.0,0.0,0.48715680708363357,1.2409121987184988,0.5873734329317445,-0.0025032811842046177,0.014105268204081589,0.3063942355412567
11397,10.0,300.59592000000004,-7539.394,0.0,0.1139700258275862,0.0,0.0,0.0,0.0,0.4962037727214995,1.2237938449040489,0.5717899301037724,-0.00026415854658791877,0.011648358613353489,0.2938229428755667
11398,10.0,300.02533999999997,-7888.8991,0.0,0.11398002181500555,0.0,0.0,0.0,0.0,0.5453500502718595,1.262732640947009,0.5899456595031035,0.004499984231888865,-0.011360022085396888,0.2972870727149497
11399,10.0,300.14857,-8108.7591,0.0,0.1139900178024249,0.0,0.0,0.0,0.0,0.5496154177603185,1.2878920462300487,0.6273528064299014,-0.0024627471272042176,-0.008299845575305982,0.3070711271380607
11400,10.0,300.72436,-7891.5806,0.0,0.11400001378984426,0.0,0.0,0.0,0.0,0.5209394165477176,1.2613320253337788,0.6165720381484224,0.01139669768601649,-0.0026406861050904274,0.3131384383393577
11401,10.0,300.07353,-7610.1074,0.0,0.11401004276732096,0.0,0.0,0.0,0.0,0.4842862898153355,1.2427773895025789,0.5862189357678044,-0.014081933054278588,0.0029155278642401974,0.3225301420587467
11402,10.0,299.25094,-7613.1789,0.0,0.11402003875474032,0.0,0.0,0.0,0.0,0.49285766625376454,1.234793586664639,0.5865650113394595,0.0014210259152943386,-0.0023956926673864578,0.32010922412482073
11403,10.0,299.78118,-7727.241,0.0,0.11403003474215967,0.0,0.0,0.0,0.0,0.5219072325132336,1.2324537895337189,0.5945273028777764,0.0015511401977356186,-0.004912670155842795,0.31558492057330667
11404,10.0,299.85335,-7805.5451,0.0,0.1140400307295788,0.0,0.0,0.0,0.0,0.5226349386025525,1.256307115437859,0.5937487620309405,0.021130016650120282,-0.006953188367001264,0.3172053101332267
11405,10.0,300.42016,-7691.2056,0.0,0.11405002671699815,0.0,0.0,0.0,0.0,0.4957918764233485,1.2490553857971687,0.5930872110406504,0.015810567109131486,-0.005816028216247295,0.31858502239689374
11406,10.0,300.25583,-7598.4298,0.0,0.11406002270441751,0.0,0.0,0.0,0.0,0.4874619169537455,1.2476265005061489,0.5746444582854924,0.006372840354300374,-0.0058888831275875145,0.3272539038924457
11407,10.0,299.59959,-7804.2097,0.0,0.11407001869183686,0.0,0.0,0.0,0.0,0.4936832320377415,1.2720320477147886,0.6065696283287614,-0.012678937316563686,0.007076656032761573,0.3100909974710987
11408,10.0,300.23222000000004,-7978.8366,0.0,0.11408001467925621,0.0,0.0,0.0,0.0,0.5263378408280005,1.2740224762112287,0.6250067474133634,-0.015849488071972683,0.03082562041900187,0.3009891542078167
11409,10.0,301.09733,-7839.4642,0.0,0.11409001066667535,0.0,0.0,0.0,0.0,0.5273353855514504,1.260011557803459,0.5956543713615094,-0.01170492330018599,0.016910256561912383,0.30237134893422873
11410,10.0,300.50732,-7616.6298,0.0,0.11410003964415227,0.0,0.0,0.0,0.0,0.5030297448026705,1.2428919880888887,0.5693435491948334,-0.016527927914929484,-0.005312324872910645,0.3264879982743567
11411,10.0,300.18581,-7634.7179,0.0,0.1141100356315714,0.0,0.0,0.0,0.0,0.5018405843528095,1.2287174297899688,0.5902055581537534,0.0038539019229255067,-0.017146430974720985,0.3252726351769097
11412,10.0,299.90884,-7765.4108,0.0,0.11412003161899076,0.0,0.0,0.0,0.0,0.5157377451718526,1.2598017137077488,0.5849515118802194,0.01021702024384139,-0.00874331809029831,0.3273902468259017
11413,10.0,299.89536,-7776.3347,0.0,0.11413002760641011,0.0,0.0,0.0,0.0,0.49998738031741247,1.2465368513486088,0.6172873319240164,0.02090399297681348,-0.0029588486629906273,0.30969211130423174
11414,10.0,299.99627999999996,-7722.3966,0.0,0.11414002359382946,0.0,0.0,0.0,0.0,0.5018600792847335,1.2555383625869887,0.5900173165501754,0.0026020297018503375,0.0048916582871940855,0.30885098199871874
11415,10.0,300.22139,-7678.8428,0.0,0.11415001958124882,0.0,0.0,0.0,0.0,0.5086366250260266,1.2453572255821888,0.5801826604170705,-0.005020392826974195,0.00014789894952148985,0.29320068572415475
11416,10.0,300.07164,-7706.2117,0.0,0.11416001556866795,0.0,0.0,0.0,0.0,0.5092582032998715,1.245056594277519,0.5881811148514564,-0.0025878646681023573,0.01319066509406729,0.30766005849368366
11417,10.0,299.49312000000003,-7926.4236,0.0,0.1141700115560873,0.0,0.0,0.0,0.0,0.5372756020799735,1.2757255469793087,0.5964337025434234,0.002126915514060218,0.006440337401761813,0.30258014938233574
11418,10.0,299.31757999999996,-7931.3675,0.0,0.11418004053356423,0.0,0.0,0.0,0.0,0.5215263112706395,1.2807732550024788,0.6086380872154024,0.0002836978892638018,-0.004806780859442335,0.3221489675036277
11419,10.0,299.70874,-7605.9127,0.0,0.11419003652098336,0.0,0.0,0.0,0.0,0.49586110167018055,1.2369460338520688,0.5792004360351324,-0.00921662595713516,-0.01114706427212959,0.3113158648544837
11420,10.0,299.60397,-7504.2256,0.0,0.11420003250840272,0.0,0.0,0.0,0.0,0.4919928167634105,1.226030391849779,0.5630739426110715,-0.013500472391642886,0.003125003542213837,0.3161319236397917
11421,10.0,300.49576,-7673.0987,0.0,0.11421002849582229,0.0,0.0,0.0,0.0,0.5153005176212015,1.2299169152583487,0.5872129746459085,-0.003406043554875327,0.0024753972507276876,0.2953800853642447
11422,10.0,300.11213,-7830.9925,0.0,0.11422002448324142,0.0,0.0,0.0,0.0,0.5055159667055414,1.2776599427452187,0.5972503213290173,-0.0006929381447951704,-0.004423409476781526,0.3261593303394197
11423,10.0,300.04874,-7830.0744,0.0,0.11423002047066078,0.0,0.0,0.0,0.0,0.5188306708371005,1.2620223526269088,0.5992941177082245,0.023998299701947775,-0.00964558943997056,0.31777804975225166
11424,10.0,300.75566000000003,-7746.4059,0.0,0.11424001645807991,0.0,0.0,0.0,0.0,0.49646117877690354,1.2582340131530287,0.6000187536497404,0.008286308351319962,0.0005909624357134515,0.3339552056813127
11425,10.0,300.16252000000003,-7779.6919,0.0,0.11425001244549926,0.0,0.0,0.0,0.0,0.5020139109149155,1.2644586111673488,0.5983595160809864,0.011127122496911489,-0.0015809739283799786,0.3116689419843297
11426,10.0,299.6406,-7872.7372,0.0,0.11426004142297619,0.0,0.0,0.0,0.0,0.5191197206931275,1.2784000206182589,0.5955957649757255,-0.006332077404102384,0.00897367290115756,0.3107539771440297
11427,10.0,299.80582000000004,-7916.2849,0.0,0.11427003741039532,0.0,0.0,0.0,0.0,0.5393529167724884,1.2662534823944886,0.6007465306665664,-0.0006004700147142764,0.0023842543909825876,0.2955576777092717
11428,10.0,299.79151,-7706.8144,0.0,0.11428003339781467,0.0,0.0,0.0,0.0,0.5082661503919635,1.247000413269359,0.5874125747831075,0.0074460544938933625,0.01930398291615478,0.3018131089241347
11429,10.0,299.49715,-7567.4357,0.0,0.11429002938523425,0.0,0.0,0.0,0.0,0.5006659336443805,1.229306229423079,0.5703392802006044,-0.0070390826925533735,-0.004790744555409675,0.3091159367673677
11430,10.0,300.28907000000004,-7746.9267,0.0,0.11430002537265338,0.0,0.0,0.0,0.0,0.4994558090499505,1.2537496721854589,0.6016667644073864,0.0015916918852877586,-0.004129522466102136,0.3245390421045096
11431,10.0,299.9356,-7980.521,0.0,0.11431002136007273,0.0,0.0,0.0,0.0,0.5338989258567215,1.2761301377442387,0.6158500467896675,-0.01158400405975219,-0.016042042067976284,0.3167461051879067
11432,10.0,300.41041,-7815.8089,0.0,0.11432001734749186,0.0,0.0,0.0,0.0,0.5258706920018965,1.2543087835906386,0.5956312388617264,-0.0021470692611992377,0.01147784382027499,0.3160386134380827
11433,10.0,300.46008,-7688.7722,0.0,0.11433001333491122,0.0,0.0,0.0,0.0,0.4983474248980615,1.2484867498410488,0.5903605854190535,-0.00847559360250096,0.0013610696777271185,0.30632263928919073
11434,10.0,300.77224,-7716.3329,0.0,0.11434004231238815,0.0,0.0,0.0,0.0,0.5049528934924705,1.2520938188720387,0.5885258225354765,-0.0025644800716944777,0.02064673080292368,0.3058649238215177
11435,10.0,300.74418,-7751.755999999999,0.0,0.11435003829980728,0.0,0.0,0.0,0.0,0.5165612033956215,1.2482495479926388,0.5915295112644174,0.023324768042475377,0.008556015566912992,0.3038898663290947
11436,10.0,300.22657000000004,-7818.6395,0.0,0.11436003428722663,0.0,0.0,0.0,0.0,0.5033678258310365,1.272463286957349,0.6008400941808004,0.02124477532994608,0.0063270705300582444,0.32243100566896266
11437,10.0,299.68709,-7751.6609,0.0,0.11437003027464598,0.0,0.0,0.0,0.0,0.5090208190664435,1.2602167409487088,0.5870737946121725,0.02072129283803238,-0.013977279517700086,0.3066811879695767
11438,10.0,299.77704,-7622.1159,0.0,0.11438002626206534,0.0,0.0,0.0,0.0,0.4963338233718345,1.2509450972336689,0.5696539887604715,-0.011527393776665189,-0.013054447803623687,0.31915935281857566
11439,10.0,300.04901,-7750.2671,0.0,0.11439002224948469,0.0,0.0,0.0,0.0,0.5046405692816466,1.265204464565959,0.5860426606479074,-0.005955379286600174,-0.009423099881687552,0.3164455954732487
11440,10.0,300.22834,-7968.7393,0.0,0.11440001823690382,0.0,0.0,0.0,0.0,0.5332639321515525,1.281710207369949,0.6073236181256745,-0.008300799246300103,0.0012985425206811687,0.3181846872823837
11441,10.0,299.95132,-7805.3824,0.0,0.11441001422432318,0.0,0.0,0.0,0.0,0.5162718596970656,1.2498807793286288,0.6064887405732784,0.004456015763674516,-0.0014810812487213386,0.3119780440598357
11442,10.0,299.79485,-7582.8747,0.0,0.11442001021174253,0.0,0.0,0.0,0.0,0.47624873405959056,1.2550945590431888,0.5736613118459635,-0.0039374237233684665,0.02013626046879418,0.3476170796946347
11443,10.0,299.61462,-7562.5982,0.0,0.11443003918921923,0.0,0.0,0.0,0.0,0.4909428262147845,1.2315929322487589,0.5763052967894045,0.002863608625141167,0.005080156547022415,0.3159649805533157
11444,10.0,300.04573999999997,-7634.1331,0.0,0.11444003517663859,0.0,0.0,0.0,0.0,0.4981580991168766,1.2357419887582386,0.5866857400888744,0.008116665763927543,0.017413839835112185,0.3110595835066907
11445,10.0,300.09875,-7699.0501,0.0,0.11445003116405794,0.0,0.0,0.0,0.0,0.5015283918644985,1.2505993762995489,0.5881911662924484,0.014675618579370787,-0.0061832300524872945,0.30943887983923973
11446,10.0,300.37199,-7704.3605,0.0,0.1144600271514773,0.0,0.0,0.0,0.0,0.5163200093418175,1.2352833917629789,0.5903297623510114,0.013344082304958387,-0.005526993761621814,0.29772207111538074
11447,10.0,300.51529,-7803.3951,0.0,0.11447002313889665,0.0,0.0,0.0,0.0,0.5204377868207105,1.2642012456419487,0.5873982474266934,0.007484225752985573,-0.009306727499752492,0.3096612679711877
11448,10.0,300.36939,-7829.6004,0.0,0.114480019126316,0.0,0.0,0.0,0.0,0.5161469158272345,1.2616602170411688,0.6021959241396104,-0.00022736836764701083,-0.002105211088968158,0.3103738259715117
11449,10.0,300.3867,-7909.5578,0.0,0.11449001511373513,0.0,0.0,0.0,0.0,0.5364879825122415,1.2603898040657888,0.6074302221686955,0.0012053288817066988,-0.012136491849028489,0.3117842093157057
11450,10.0,300.04902000000004,-7880.9864,0.0,0.11450001110115449,0.0,0.0,0.0,0.0,0.5214869667692564,1.2638708247843387,0.6102653060809964,0.00035242655235429265,-0.009674492601723081,0.3126796589590797
11451,10.0,299.78454,-7577.6779,0.0,0.11451004007863141,0.0,0.0,0.0,0.0,0.4966857859265706,1.2306461513553189,0.5760929398334464,0.0018455640283179882,-0.007210494515945403,0.3125352809523307
11452,10.0,299.48507,-7477.6289,0.0,0.11452003606605055,0.0,0.0,0.0,0.0,0.48410250651219755,1.212015116466579,0.5768948664925905,-0.005920829079390334,0.002776132210882917,0.3055245832454287
11453,10.0,299.22926,-7670.3915,0.0,0.1145300320534699,0.0,0.0,0.0,0.0,0.4951395460089685,1.244025207000729,0.5924427029170425,0.012926763092272187,-0.0003049893440126047,0.31587094081153466
11454,10.0,299.60926,-7734.2904,0.0,0.11454002804088903,0.0,0.0,0.0,0.0,0.4952007260500065,1.250870218051279,0.6049602325324264,0.004607687448618346,0.0046760870992688655,0.3238886166003177
11455,10.0,300.49224,-7706.0161,0.0,0.1145500240283086,0.0,0.0,0.0,0.0,0.5062899985894325,1.2630499908783288,0.5730965363727245,0.0026648093608212077,0.006640086790700544,0.32833936832707267
11456,10.0,299.61225,-7760.2872,0.0,0.11456002001572774,0.0,0.0,0.0,0.0,0.4988325791784425,1.2592651977797988,0.6008357676028735,-0.009299570002371102,0.01093500115870059,0.3233907865611857
11457,10.0,299.9067,-7764.4961,0.0,0.11457001600314709,0.0,0.0,0.0,0.0,0.5225159019808046,1.2558864139963386,0.5818105986902354,-0.015025127042364587,-0.0016161513374017185,0.3127609824121057
11458,10.0,299.86782999999997,-7767.9742,0.0,0.11458001199056644,0.0,0.0,0.0,0.0,0.5073670733132315,1.2654739890925588,0.5884291382109345,0.005487394731813694,-0.01034156489313299,0.3155478558846487
11459,10.0,300.35809,-7753.0925,0.0,0.11459004096804337,0.0,0.0,0.0,0.0,0.5223685450187615,1.2491872096351788,0.5851907706263325,0.0028155283880210175,-0.016336517878288784,0.3142096058150737
11460,10.0,299.97647,-7710.8344,0.0,0.1146000369554625,0.0,0.0,0.0,0.0,0.5012312765376755,1.2479860016416289,0.5946839006807314,0.02048655014761508,0.007603042398136863,0.3044737213017167
11461,10.0,299.45446,-7638.2979,0.0,0.11461003294288186,0.0,0.0,0.0,0.0,0.5066151100165185,1.2435615437549687,0.5716751997949494,0.005675719016599854,-0.0024738701815019775,0.3177876857607027
11462,10.0,299.65671000000003,-7715.1656,0.0,0.11462002893030099,0.0,0.0,0.0,0.0,0.4989004162726375,1.2415480131562489,0.6047693159485844,0.004255980840857606,-0.007927861705219034,0.3038648593166267
11463,10.0,300.86085,-7821.5763,0.0,0.11463002491772056,0.0,0.0,0.0,0.0,0.5243694910512395,1.2576156266169989,0.5955787423740454,-0.005298596347305745,-0.009692495218899802,0.3210228008124837
11464,10.0,300.64337,-7742.8502,0.0,0.11464002090513992,0.0,0.0,0.0,0.0,0.5103463528472635,1.243358792409959,0.5999280171032854,0.0029887933445209374,-0.005143908115489205,0.3103352515402047
11465,10.0,300.38567,-7684.5148,0.0,0.11465001689255905,0.0,0.0,0.0,0.0,0.49782443585894653,1.249815019397139,0.5882611413443544,-0.0033319377862866565,0.005425027262983505,0.32160480153742266
11466,10.0,300.13844,-7755.606,0.0,0.1146600128799784,0.0,0.0,0.0,0.0,0.5091503529592275,1.2596367565914688,0.5887234974974854,-0.008096503505487681,0.000987737495997101,0.3129560026588527
11467,10.0,300.30762000000004,-7729.3105,0.0,0.11467004185745533,0.0,0.0,0.0,0.0,0.5209709995533345,1.251688721482059,0.5768576599489185,0.0009255828096879112,0.00984107264068825,0.3127732224733137
11468,10.0,300.28547000000003,-7755.3206,0.0,0.11468003784487446,0.0,0.0,0.0,0.0,0.5094311549594405,1.2628127890299188,0.5851798680552565,-0.0038113419736751667,0.0023391277779039378,0.30811437957352167
11469,10.0,299.29512,-7809.58,0.0,0.11469003383229381,0.0,0.0,0.0,0.0,0.5353093092009155,1.2540156503367088,0.5845922944547675,-0.0050492822085253545,8.806633353272042e-05,0.3010950084457637
11470,10.0,299.58725,-7746.3577,0.0,0.11470002981971295,0.0,0.0,0.0,0.0,0.5031065390277495,1.2482334373160489,0.6033593683019335,-0.0062315817393092336,-0.009327758214853061,0.3002141293388277
11471,10.0,300.1074,-7705.5937,0.0,0.1147100258071323,0.0,0.0,0.0,0.0,0.5010285859876715,1.264287979850509,0.5769915305521305,-0.003698831189196216,-0.011866515412883888,0.3269044238004547
11472,10.0,300.2755,-7858.1181,0.0,0.11472002179455187,0.0,0.0,0.0,0.0,0.5168572750748415,1.2649831707441188,0.6068312697695835,0.013794991771709687,-0.0028520713542025274,0.3157705986541317
11473,10.0,300.09192,-7813.4062,0.0,0.114730017781971,0.0,0.0,0.0,0.0,0.5183795820250815,1.2691113543015387,0.5875894679855654,0.002443165866371698,0.007545258670109053,0.3311694873138837
11474,10.0,300.20437999999996,-7615.7609999999995,0.0,0.11474001376939036,0.0,0.0,0.0,0.0,0.4828014933837975,1.2484427747867088,0.5837569406748244,-0.0006098355765810854,0.002257092415357678,0.3167174910050827
11475,10.0,300.27751,-7596.5846,0.0,0.11475004274686706,0.0,0.0,0.0,0.0,0.5028158477065605,1.237045940311929,0.5693102841940505,-0.021563748487926276,0.0037631401465430163,0.3210363277013187
11476,10.0,300.73376,-7665.6091,0.0,0.11476003873428642,0.0,0.0,0.0,0.0,0.48853188879434356,1.251754582738559,0.5898672744753675,-0.00013854921462124286,0.007212729137715943,0.3041722287344617
11477,10.0,299.68003999999996,-7751.0166,0.0,0.11477003472170577,0.0,0.0,0.0,0.0,0.5089767730845965,1.257272945433179,0.5898657748652194,0.011493087154779388,0.006818054139589553,0.3203597907420497
11478,10.0,299.51681,-7847.9751,0.0,0.1147800307091249,0.0,0.0,0.0,0.0,0.5380301896944455,1.2481016134780387,0.5994566227592625,0.00039735820598120166,-0.01148104873034129,0.2994054341690157
11479,10.0,299.47612000000004,-7875.9742,0.0,0.11479002669654426,0.0,0.0,0.0,0.0,0.5354557339728665,1.2659006687096688,0.5927430403791834,-0.013174325422954686,-0.012546772013269989,0.30957788762045874
11480,10.0,299.40655,-7826.0163,0.0,0.11480002268396361,0.0,0.0,0.0,0.0,0.5246037646068605,1.2559725402548387,0.5983372043137845,-0.02020238821007048,0.00013232568051952789,0.29739837823843474
11481,10.0,299.46897,-7844.7223,0.0,0.11481001867138296,0.0,0.0,0.0,0.0,0.5254969851000145,1.2599856186008989,0.5991171029157544,-0.003284166691772017,0.015837984643587384,0.3022822639854367
11482,10.0,300.06691,-7870.9466,0.0,0.11482001465880232,0.0,0.0,0.0,0.0,0.5133315497618796,1.2548562426196688,0.6243834060843444,-0.006333989609691104,-0.0013234584419651787,0.3000812618532147
11483,10.0,300.35217,-7729.713000000001,0.0,0.11483001064622145,0.0,0.0,0.0,0.0,0.5018636763225885,1.2534488382307687,0.5943272265130305,0.008639201373622792,0.0055504477656615455,0.3178111526330187
11484,10.0,300.29019,-7567.0462,0.0,0.11484003962369838,0.0,0.0,0.0,0.0,0.4883767298065306,1.2443135779791887,0.5675028081356664,0.0038048589968853463,0.007184965882325924,0.3193624588011207
11485,10.0,300.12389,-7643.6457,0.0,0.11485003561111773,0.0,0.0,0.0,0.0,0.49266611132235955,1.2623880345879988,0.5684232647915084,0.01076651185257199,0.015509190052387883,0.32761785319586467
11486,10.0,299.91551,-7725.0099,0.0,0.11486003159853686,0.0,0.0,0.0,0.0,0.5068348940957095,1.2501605376812388,0.5912147045908485,-0.01008419511208257,0.003272216521417627,0.31270502060908273
11487,10.0,299.82468,-7627.9082,0.0,0.11487002758595644,0.0,0.0,0.0,0.0,0.4996219212713445,1.2427116295710887,0.5763600933548125,-0.009253316351206221,0.0018802828403444683,0.32760431617452873
11488,10.0,299.59111,-7685.6027,0.0,0.11488002357337557,0.0,0.0,0.0,0.0,0.49227572632383154,1.2547746759866187,0.5891808887251264,-0.02052510026091968,0.005272321454987615,0.30102908639425774
11489,10.0,299.04722999999996,-7777.7128,0.0,0.11489001956079492,0.0,0.0,0.0,0.0,0.5088478572743735,1.2620093830256287,0.5933732008813755,-0.018379990017463783,0.009654784380653031,0.3248104107462917
11490,10.0,299.77221000000003,-7827.1064,0.0,0.11490001554821427,0.0,0.0,0.0,0.0,0.5170001737364446,1.2656596165108787,0.5965851530358705,-0.003130347828541277,-0.016800320952562585,0.3124872528975907
11491,10.0,300.10427999999996,-7914.9439,0.0,0.1149100115356334,0.0,0.0,0.0,0.0,0.5291697735324905,1.2696818141078388,0.6070937420754874,-0.008952750502492682,-0.020307105581405284,0.32940543915478565
11492,10.0,300.93942000000004,-7780.2409,0.0,0.11492004051311011,0.0,0.0,0.0,0.0,0.5161819540156926,1.252206998908209,0.5966100181933245,0.01876286075325018,0.0064581169012665135,0.30891535377757173
11493,10.0,300.55244,-7506.5016,0.0,0.11493003650052969,0.0,0.0,0.0,0.0,0.47616104739593657,1.2274819739430387,0.5781459973185674,-0.0023086506334460775,0.024062858932069275,0.3146770586162077
11494,10.0,299.91553,-7628.3338,0.0,0.11494003248794904,0.0,0.0,0.0,0.0,0.48052234940386357,1.244625962985019,0.5936747238461334,0.0026638262042491777,0.014144162822420186,0.3005206374940777
11495,10.0,300.15215,-7787.7744,0.0,0.1149500284753684,0.0,0.0,0.0,0.0,0.5224764865519145,1.2477805145213487,0.5970319152699625,-0.002037923986927438,0.0004380261031873106,0.2979375995441517
11496,10.0,300.64929,-7739.5504,0.0,0.11496002446278752,0.0,0.0,0.0,0.0,0.5197524041880685,1.2511929382081288,0.5816847226303125,-0.0025591407502925274,0.0012164036039746889,0.3114253262627867
11497,10.0,299.22179,-7687.7945,0.0,0.11497002045020688,0.0,0.0,0.0,0.0,0.5090714613064415,1.248816562748599,0.5790095498487934,-0.007504201776057054,0.0024931632740060575,0.31854803876824367
11498,10.0,299.95526,-7700.1894,0.0,0.11498001643762623,0.0,0.0,0.0,0.0,0.5204049473849696,1.233470180709029,0.5867901859091824,-0.01817680196166068,-0.015095703964829985,0.3182549359118167
11499,10.0,300.16029,-7847.4548,0.0,0.11499001242504536,0.0,0.0,0.0,0.0,0.5186878228380025,1.2647883227498888,0.6019541525332494,-0.011761102951980488,-0.0034933347470152963,0.3281595063018217
11500,10.0,299.73699,-7909.9086,0.0,0.11500004140252207,0.0,0.0,0.0,0.0,0.5152141177851745,1.2720729830188289,0.6171275829132504,0.01042107462847999,0.013400017763478787,0.3088262282987757
11501,10.0,300.20925,-7826.2226,0.0,0.11501003738994164,0.0,0.0,0.0,0.0,0.5158712611375295,1.265177106813259,0.5979279019358894,0.02452595374452318,0.01872166605718458,0.3117065538280417
11502,10.0,299.95772,-7693.7172,0.0,0.115020033377361,0.0,0.0,0.0,0.0,0.49577080082126856,1.2571690872979289,0.5857580690923204,-0.002136005583357338,-0.007722484522574883,0.30551300179678575
11503,10.0,299.96432000000004,-7640.44,0.0,0.11503002936478035,0.0,0.0,0.0,0.0,0.49855261817581253,1.2403023234833088,0.5836480568190785,-0.002730370593966597,-0.012988564255621489,0.32014166839302266
11504,10.0,300.40792999999996,-7720.4388,0.0,0.11504002535219948,0.0,0.0,0.0,0.0,0.5043570213736625,1.2570584403870089,0.5854051236849874,0.0014822695884386186,-0.013761326537137186,0.3130795786410487
11505,10.0,300.06243,-7731.3051,0.0,0.11505002133961861,0.0,0.0,0.0,0.0,0.49474756007528253,1.251079251546909,0.6042968374269544,0.01069270772853809,0.010719574054939592,0.32916408298096567
11506,10.0,300.85573999999997,-7641.9483,0.0,0.11506001732703819,0.0,0.0,0.0,0.0,0.4889848521190476,1.2541273104977289,0.5798492606041664,0.002757474426191537,-0.001888232901954078,0.3277657167829577
11507,10.0,300.9396,-7671.7033,0.0,0.11507001331445754,0.0,0.0,0.0,0.0,0.5150944022858595,1.2451042170322189,0.5718076417155205,-0.01015608034307709,-0.001935934690161878,0.3178808845049007
11508,10.0,300.45507000000003,-7827.5723,0.0,0.11508004229193403,0.0,0.0,0.0,0.0,0.5348982944303515,1.2576493678453289,0.5868388725764875,0.0035442872441939165,0.01017627239106989,0.3200454805610297
11509,10.0,299.80939,-7827.6639,0.0,0.11509003827935338,0.0,0.0,0.0,0.0,0.5254712485474745,1.2552120960547888,0.5987310748926564,0.0042331332670027255,0.01867619443244688,0.30885075908369675
11510,10.0,300.09721,-7726.2223,0.0,0.11510003426677295,0.0,0.0,0.0,0.0,0.4984135192020845,1.2482842011460589,0.6018809148160215,-0.008513431806285303,-0.003319522128836327,0.31142315790757275
11511,10.0,300.02747,-7802.1094,0.0,0.11511003025419231,0.0,0.0,0.0,0.0,0.5036980237736245,1.2555038107585788,0.6124445638660724,-0.029099094937607074,-0.01173202267411049,0.2982775145551987
11512,10.0,300.29552,-7819.3937,0.0,0.11512002624161144,0.0,0.0,0.0,0.0,0.5164573655253736,1.259187278847109,0.6012557901668265,-0.01202233402651199,0.00042570502250131463,0.3040707010744417
11513,10.0,299.76822999999996,-7798.5192,0.0,0.11513002222903057,0.0,0.0,0.0,0.0,0.5355913980287555,1.2539756269577589,0.5809880523915565,0.01708570588297788,0.012417627208524388,0.3032122249272167
11514,10.0,299.67427000000004,-7724.4988,0.0,0.11514001821644992,0.0,0.0,0.0,0.0,0.5098290684062114,1.2507520730896187,0.5874736231016324,0.01269374191377479,-0.004904212759908115,0.3130445100550877
11515,10.0,299.7674,-7569.7497,0.0,0.1151500142038695,0.0,0.0,0.0,0.0,0.49691180149387654,1.2431012242345387,0.5610018866865755,0.015289838630989587,-0.00974020825418371,0.3225066853189317
11516,10.0,300.1989,-7615.2752,0.0,0.11516001019128885,0.0,0.0,0.0,0.0,0.4818557460054595,1.2458702341078187,0.5871274968674725,0.0009491777466840499,-0.005480963836079015,0.3221842792696127
11517,10.0,299.77647,-7786.6337,0.0,0.11517003916876556,0.0,0.0,0.0,0.0,0.5017400598103885,1.2615789543831488,0.6036231983629714,0.016633793298627585,0.012776481890440589,0.3233221489994117
11518,10.0,299.97312999999997,-7780.3916,0.0,0.11518003515618469,0.0,0.0,0.0,0.0,0.5184191899714905,1.2547427586084687,0.5918827809117824,-0.0042446631412156365,-0.0012922996841650488,0.3125207104158927
11519,10.0,300.73843,-7675.9152,0.0,0.11519003114360427,0.0,0.0,0.0,0.0,0.5152633921375376,1.2461084492063288,0.5719147017210864,-0.008859357720900532,-0.0028532896861227673,0.3190072234485617
11520,10.0,300.27623,-7737.0134,0.0,0.1152000271310234,0.0,0.0,0.0,0.0,0.5157180374574075,1.2527607400878589,0.5833801433601374,-0.02126088499328598,0.0001132834687402079,0.31216119914791174
11521,10.0,300.3004,-7816.5243,0.0,0.11521002311844253,0.0,0.0,0.0,0.0,0.5198542560881205,1.255884488821149,0.6002894535464565,0.0009471737102387673,0.01230189479535249,0.3121629216730817
11522,10.0,300.72728,-7780.6684,0.0,0.11522001910586188,0.0,0.0,0.0,0.0,0.4864973028585455,1.2618701624618887,0.6167613943271104,0.0071271196367669425,0.01105661447545289,0.30962460858256974
11523,10.0,300.48323999999997,-7729.2538,0.0,0.11523001509328146,0.0,0.0,0.0,0.0,0.48484677924065156,1.2682401618655588,0.5964132450239045,0.012398020819089388,-0.002180909382738998,0.3136815707904607
11524,10.0,299.88107,-7725.5288,0.0,0.11524001108070081,0.0,0.0,0.0,0.0,0.5148865340278445,1.249737607089499,0.5837436772310154,0.023150667357292976,0.006369498250170534,0.3071321653240847
11525,10.0,299.41292999999996,-7716.2496,0.0,0.11525004005817752,0.0,0.0,0.0,0.0,0.5269957846479345,1.2460838272288988,0.5724675715056504,0.017392497748255884,0.0023899369001934077,0.3104232016488847
11526,10.0,299.66661,-7777.5842,0.0,0.11526003604559665,0.0,0.0,0.0,0.0,0.5305893571875925,1.2615427813545788,0.5720592621128534,0.019850067978049182,-0.008333893514441252,0.3173439430119087
11527,10.0,299.782,-7797.2375,0.0,0.11527003203301622,0.0,0.0,0.0,0.0,0.5194946941576345,1.2459164383123789,0.6047543299796054,-0.006389313875751183,-0.02467471203145448,0.30212376127229373
11528,10.0,299.92682,-7721.9671,0.0,0.11528002802043535,0.0,0.0,0.0,0.0,0.48430726409240554,1.2579307473980987,0.6050472301860125,-0.0009224193212856991,-0.006796893525826164,0.3175783482900427
11529,10.0,299.94982000000005,-7731.4772,0.0,0.11529002400785471,0.0,0.0,0.0,0.0,0.5014982172765206,1.2381285980437788,0.6105492592890205,-0.007716532488837462,-0.0025280880797778674,0.3032854727769457
11530,10.0,300.42441,-7767.2341,0.0,0.11530001999527406,0.0,0.0,0.0,0.0,0.5330585564887834,1.2366675927245887,0.5913191301461544,-0.0035447833314428768,-0.0006740440296504665,0.3116923885916437
11531,10.0,300.63752999999997,-7680.478,0.0,0.11531001598269319,0.0,0.0,0.0,0.0,0.5218059581657385,1.2428740535621188,0.5699934984714784,0.001952509739272708,-0.006134057937059384,0.3173053179180967
11532,10.0,300.52289,-7565.4009,0.0,0.11532001197011277,0.0,0.0,0.0,0.0,0.5014730481440365,1.240892744316579,0.5573271528139074,0.013741019991883088,0.011783894999729887,0.3141945083885837
11533,10.0,300.07806,-7685.8072,0.0,0.11533004094758947,0.0,0.0,0.0,0.0,0.49625686702673955,1.2492248012138887,0.5908118363510885,0.012235172276267489,0.01911402993315788,0.3076948028396127
11534,10.0,299.58294,-7788.47,0.0,0.1153400369350086,0.0,0.0,0.0,0.0,0.4914350732458655,1.2676974651119988,0.6083678838112354,0.0013562062798971389,0.006346066132332963,0.3108881719872737
11535,10.0,299.62694,-7722.9945,0.0,0.11535003292242796,0.0,0.0,0.0,0.0,0.5005932532147075,1.2602337635503886,0.5867704275322324,0.0029198854476202574,-0.008041106386745413,0.3162010171641107
11536,10.0,299.59354,-7702.4435,0.0,0.11536002890984731,0.0,0.0,0.0,0.0,0.5176567901987474,1.260953779071449,0.5627398740531014,0.009049705567461402,0.0007043754991414493,0.3219152512355617
11537,10.0,299.78584,-7744.1597,0.0,0.11537002489726667,0.0,0.0,0.0,0.0,0.5286128507475265,1.255208752329459,0.5702095740553034,0.008931520278447421,-0.003603687004806216,0.3206380089545077
11538,10.0,300.03944,-7691.8075,0.0,0.11538002088468602,0.0,0.0,0.0,0.0,0.5121215264924596,1.2498909118296289,0.5761049468471314,-0.0028641612517457072,-0.0097440382382367,0.3226030251384397
11539,10.0,300.29032,-7747.2633,0.0,0.11539001687210515,0.0,0.0,0.0,0.0,0.4889156268722155,1.259347372362909,0.6067116251977754,-0.0014859276239496387,-0.02108019007645278,0.3128706870004327
11540,10.0,300.02894,-7756.6001,0.0,0.1154000128595245,0.0,0.0,0.0,0.0,0.47881822485567954,1.2667037707389288,0.6122907525008924,0.013770053660248485,-0.012278888951831988,0.3171458222198557
11541,10.0,300.60537,-7577.286,0.0,0.11541004183700143,0.0,0.0,0.0,0.0,0.4908200608326685,1.2288922154322188,0.5835934325061874,0.01913224310370538,0.006783767478730723,0.3007778206344597
11542,10.0,300.60737,-7664.6481,0.0,0.11542003782442056,0.0,0.0,0.0,0.0,0.5028571173831335,1.2535593838166788,0.5734451552021305,0.003259897426701827,0.001994509867842798,0.3152266353379467
11543,10.0,299.86713,-7887.8548,0.0,0.11543003381183992,0.0,0.0,0.0,0.0,0.5525542888803624,1.2532540915615489,0.5919024886262274,-0.004941737464111516,-0.006044541546374805,0.29500244705197476
11544,10.0,299.31835,-7821.9551,0.0,0.11544002979925927,0.0,0.0,0.0,0.0,0.5290223963054456,1.2566448316961887,0.5920117980470154,-0.021270410557476083,0.01141707921177799,0.3215006900896477
11545,10.0,299.40197,-7725.8742,0.0,0.11545002578667862,0.0,0.0,0.0,0.0,0.4944263901910855,1.2483061886732287,0.6057402628569094,0.006502933763789594,0.02025855671611388,0.3027499397015927
11546,10.0,299.36837,-7718.8932,0.0,0.11546002177409798,0.0,0.0,0.0,0.0,0.4864942023132396,1.2533836862493388,0.6064728730767124,-0.01275111010793659,0.013311682619760788,0.3103106295627747
11547,10.0,300.04213,-7786.2058,0.0,0.11547001776151711,0.0,0.0,0.0,0.0,0.5170696522958016,1.2602046832725189,0.5895378162053524,0.009504397902136042,-0.005717771935500155,0.3079468893319917
11548,10.0,299.79481,-7831.6454,0.0,0.11548001374893646,0.0,0.0,0.0,0.0,0.5289374555495625,1.2694670050866386,0.5822202050431604,0.006252196819218785,-0.0049472405267296255,0.32123257398068666
11549,10.0,300.1388,-7745.6971,0.0,0.11549004272641339,0.0,0.0,0.0,0.0,0.5354652179938024,1.2402275456259289,0.5788057649886814,0.028624837148801475,-0.00971328467915156,0.31262871274405174
11550,10.0,299.93221,-7676.5631,0.0,0.11550003871383252,0.0,0.0,0.0,0.0,0.5073037553144826,1.246869197381409,0.5793105155259964,0.015326356164593586,-0.010687831969056889,0.3321039977486127
11551,10.0,300.2025,-7662.3304,0.0,0.11551003470125187,0.0,0.0,0.0,0.0,0.4761724971220665,1.250305128470509,0.6026794572198314,0.005260175119413865,-0.007955249348796982,0.3292230136067817
11552,10.0,299.93282999999997,-7778.6363,0.0,0.11552003068867123,0.0,0.0,0.0,0.0,0.47927803775105954,1.2653270678280588,0.6199061072049693,-0.01992894139233338,0.016218417499633184,0.3189456786374877
11553,10.0,299.93925,-7774.2019,0.0,0.11553002667609058,0.0,0.0,0.0,0.0,0.5162254528424854,1.2560766010401088,0.5908611613659565,-0.007597790520218544,0.016712898747184683,0.3141862402677677
11554,10.0,299.1619,-7605.0516,0.0,0.11554002266350993,0.0,0.0,0.0,0.0,0.5127769270546425,1.2419073116417088,0.5570615900951985,-0.014200988927778487,0.014114392521232087,0.3183559873442897
11555,10.0,299.33095,-7697.0659,0.0,0.11555001865092906,0.0,0.0,0.0,0.0,0.5258426249741265,1.254994956558359,0.5588782461994884,0.013185599856817385,-0.0100492311948569,0.3049401000577447
11556,10.0,299.44489,-7911.6447,0.0,0.11556001463834842,0.0,0.0,0.0,0.0,0.5217697750046675,1.2754021175473886,0.6077705728772854,0.006622917065106025,-0.005990234684740134,0.3212804500479117
11557,10.0,299.83072000000004,-7886.4222,0.0,0.11557001062576777,0.0,0.0,0.0,0.0,0.5044667968894966,1.2638628201085487,0.6289458585021235,0.009560160094889341,-0.007644522729405653,0.3121801367922807
11558,10.0,300.09354,-7683.6938,0.0,0.11558003960324448,0.0,0.0,0.0,0.0,0.4853570317260095,1.2457818786990988,0.6045121733382064,0.0015440607206119285,-0.0043515881818683155,0.3247721706875177
11559,10.0,300.27828,-7596.0787,0.0,0.11559003559066383,0.0,0.0,0.0,0.0,0.5010718011044365,1.2220071810027187,0.5859392990052065,-0.003894862152917966,0.0017032877049264086,0.3100496062045137
11560,10.0,300.029,-7716.5445,0.0,0.11560003157808318,0.0,0.0,0.0,0.0,0.5247003070763885,1.244991847596129,0.5759447013438165,0.0002076589104118388,0.014728686540108185,0.3225635286495417
11561,10.0,300.34769,-7807.6032,0.0,0.11561002756550254,0.0,0.0,0.0,0.0,0.5280172420737445,1.2547298903321988,0.5905692744096495,-0.01121846699342649,0.0024579228408280977,0.3034183402625587
11562,10.0,300.29936000000004,-7816.3077,0.0,0.11562002355292189,0.0,0.0,0.0,0.0,0.5105687207142094,1.2570958293156989,0.6082978074343194,-0.0025744232975757975,0.0025798128761827075,0.32115740095576767
11563,10.0,300.02303,-7669.604,0.0,0.11563001954034102,0.0,0.0,0.0,0.0,0.4886964203455816,1.2452689714984788,0.5974026837465544,-0.018331119951890684,-0.005389067016934505,0.3117525148525777
11564,10.0,299.77197,-7659.2198,0.0,0.11564001552776038,0.0,0.0,0.0,0.0,0.4783512482820926,1.2578146289366388,0.5920457013953614,0.014198407166523685,0.011971740422518789,0.3171611628263697
11565,10.0,300.06813999999997,-7926.4438,0.0,0.11565001151517973,0.0,0.0,0.0,0.0,0.5323462821984875,1.2692688133670789,0.6078258558027414,-0.01132303541699659,0.014219772558132287,0.3041590362181597
11566,10.0,299.66732,-7903.3512,0.0,0.11566004049265644,0.0,0.0,0.0,0.0,0.5504302836232395,1.266262500320379,0.5857286240444144,-0.003047655271980157,0.005901568309564444,0.3111183114824867
11567,10.0,299.84671000000003,-7615.4996,0.0,0.11567003648007579,0.0,0.0,0.0,0.0,0.49773553329517256,1.240106259588959,0.5770798758283494,-0.018822089274595583,-0.007523033029165554,0.3156624544709587
11568,10.0,299.51966,-7580.9703,0.0,0.11568003246749514,0.0,0.0,0.0,0.0,0.4779046380355155,1.2392717468065988,0.5872493503244984,0.012784756090757188,-0.006216333541204354,0.33544265682811264
11569,10.0,299.11096000000003,-7804.272,0.0,0.11569002845491427,0.0,0.0,0.0,0.0,0.49094852068034656,1.267429764435579,0.6139254998147295,0.007146619736266453,-0.0002793752832771937,0.3240712042683377
11570,10.0,299.44025,-7836.5740000000005,0.0,0.11570002444233385,0.0,0.0,0.0,0.0,0.5115281976314026,1.2666828977868687,0.6039117314614474,-0.0036755062732192266,-0.00024064297747211275,0.33260099692266265
11571,10.0,300.00112,-7735.3752,0.0,0.11571002042975298,0.0,0.0,0.0,0.0,0.5181407893740145,1.2453091975274488,0.5879108709172854,-0.004764848314653915,-0.003954943020247487,0.3182166654555397
11572,10.0,300.61412,-7599.8302,0.0,0.11572001641717233,0.0,0.0,0.0,0.0,0.5158323725986915,1.241937709144709,0.5523885616940065,-0.001059538606968319,0.006181334261550194,0.3208541149358357
11573,10.0,300.13305,-7661.9779,0.0,0.11573001240459169,0.0,0.0,0.0,0.0,0.5030393098836146,1.2432219023214488,0.5827887700717734,0.01051559465080839,0.01879771655669018,0.3088761612637037
11574,10.0,300.23588,-7868.2273,0.0,0.11574004138206839,0.0,0.0,0.0,0.0,0.5068514708673455,1.2753068720379888,0.6095862765264813,-0.0047607711989015354,0.0037193246790937664,0.3152838535710937
11575,10.0,300.29173,-7991.8948,0.0,0.11575003736948797,0.0,0.0,0.0,0.0,0.5234857849765245,1.2797437929008788,0.6261068837094385,-0.014595175640681687,-0.002633551405836288,0.3056057040484347
11576,10.0,300.57543,-7777.6015,0.0,0.1157600333569071,0.0,0.0,0.0,0.0,0.5062357795765815,1.2530233745137789,0.6049374952001824,-0.012677319156153987,0.004852320675911765,0.30987964363273973
11577,10.0,299.69219,-7635.2393,0.0,0.11577002934432623,0.0,0.0,0.0,0.0,0.5113128414551485,1.2497977941454388,0.5598114900715925,0.004040509052767196,0.012915526148663188,0.2993602837445597
11578,10.0,299.29328,-7785.8698,0.0,0.11578002533174558,0.0,0.0,0.0,0.0,0.5349583396312775,1.2443542093081987,0.5873974672241165,-0.0059122299297666644,-7.928391027071272e-05,0.3058300882830797
11579,10.0,299.21778,-7962.6858,0.0,0.11579002131916494,0.0,0.0,0.0,0.0,0.5286636855050435,1.2659013779847386,0.6258926015782904,0.00039412421563703165,-0.008299730875394663,0.3059036401078387
11580,10.0,300.03955,-7816.3501,0.0,0.11580001730658429,0.0,0.0,0.0,0.0,0.4950842428185105,1.2729789299332386,0.6079121239162555,-0.008501649328822462,-0.009614799099906791,0.3267290099431427
11581,10.0,299.99151,-7597.1786,0.0,0.11581001329400364,0.0,0.0,0.0,0.0,0.46985200511828257,1.2521031407729588,0.5873974165616114,0.014535260135768486,0.0032330895648310966,0.3299340922619597
11582,10.0,300.62496,-7608.0205,0.0,0.11582004227148035,0.0,0.0,0.0,0.0,0.4912180452069465,1.251686897631879,0.5697433776842935,-0.001204182895843599,-0.009991207225230381,0.3315341661573747
11583,10.0,300.38657,-7793.3818,0.0,0.11583003825889993,0.0,0.0,0.0,0.0,0.5430583014606815,1.2567182923284388,0.5692168625348305,0.005834587817003984,-0.010547361054693491,0.3233035761250787
11584,10.0,300.53721,-7869.5740000000005,0.0,0.11584003424631906,0.0,0.0,0.0,0.0,0.5363684493979445,1.2771984073246687,0.5785870853520995,-0.006517770379703853,-0.008339915563760581,0.3058630898388367
11585,10.0,300.43976000000004,-7794.5056,0.0,0.11585003023373819,0.0,0.0,0.0,0.0,0.5068843305680886,1.2693857424286188,0.5930649600684544,0.003146797234639707,0.018043294101984485,0.3088705174606467
11586,10.0,299.82693,-7705.1140000000005,0.0,0.11586002622115754,0.0,0.0,0.0,0.0,0.47617983305279055,1.2539983237599988,0.6119841632856344,-0.007991678324342243,0.0027956401124081976,0.3146300134140647
11587,10.0,299.79641000000004,-7782.7361,0.0,0.1158700222085769,0.0,0.0,0.0,0.0,0.4820911746661945,1.2636173096093186,0.6200489552040673,-0.0038241353707627766,0.009831487801367302,0.3202168312854407
11588,10.0,299.89151,-8000.5855,0.0,0.11588001819599647,0.0,0.0,0.0,0.0,0.5299966160115934,1.2892567927897387,0.6127248389762334,-0.017018136286809284,0.007437196762844174,0.3219798864594407
11589,10.0,299.70195,-7847.0405,0.0,0.1158900141834156,0.0,0.0,0.0,0.0,0.5617473955801514,1.2484039673078788,0.5751529983781815,-0.0029044129159432374,0.015639870944285084,0.3082384013857617
11590,10.0,300.19723,-7580.1457,0.0,0.11590004316089231,0.0,0.0,0.0,0.0,0.5091165610683924,1.228450539713629,0.5666079563098515,-0.003769821011077366,-0.014844602351548185,0.3169173849848107
11591,10.0,300.16339,-7615.9338,0.0,0.11591003914831166,0.0,0.0,0.0,0.0,0.49445097163851154,1.2427461813994989,0.5778565624275024,0.004760396397689545,-0.02251767583432158,0.3161871153727387
11592,10.0,300.16936,-7757.6431,0.0,0.11592003513573101,0.0,0.0,0.0,0.0,0.49198067802721257,1.2479596571390288,0.6181895196805554,0.016625939597102485,-0.018074144527779182,0.3159657100933877
11593,10.0,300.12795,-7817.1604,0.0,0.11593003112315015,0.0,0.0,0.0,0.0,0.4981652627950835,1.2728080959663788,0.6052482488733515,0.012670153451446788,0.008149192206712652,0.32579853224381167
11594,10.0,300.06765,-7761.3497,0.0,0.1159400271105695,0.0,0.0,0.0,0.0,0.5244990148115225,1.2455461967258388,0.5892113064931285,0.012965272675572789,0.008826507240733441,0.3069908777301407
11595,10.0,300.35692,-7689.1021,0.0,0.11595002309798885,0.0,0.0,0.0,0.0,0.5374247524946935,1.2263893863602089,0.5734808824006564,-0.005528365195632165,0.0017446867735371782,0.30999555944417967
11596,10.0,301.04595,-7737.3587,0.0,0.11596001908540843,0.0,0.0,0.0,0.0,0.5230924615527065,1.2595216513801089,0.5693497097554415,0.004695385967298515,0.01040184922108259,0.3049808529767667
11597,10.0,300.66351000000003,-7822.6719,0.0,0.11597001507282756,0.0,0.0,0.0,0.0,0.5042246503805985,1.2480973578276187,0.6255749375394395,-0.018316030631401484,0.00951621523540232,0.3010843693197137
11598,10.0,300.50152,-7840.5001,0.0,0.11598001106024669,0.0,0.0,0.0,0.0,0.49369938324433554,1.2738334037425687,0.6157834661255964,-0.0057618779017530744,0.0036808152984431864,0.3141084834550937
11599,10.0,300.3548,-7637.715,0.0,0.11599004003772362,0.0,0.0,0.0,0.0,0.4731353407423225,1.2427418244240687,0.6057974912225574,-0.02317225667717368,-0.006923574612953612,0.3306919729392567
11600,10.0,300.35071,-7505.4356,0.0,0.11600003602514297,0.0,0.0,0.0,0.0,0.49583690525779256,1.233024350665029,0.5526038064127494,0.0027120456619330676,-0.005826350701641045,0.3365720760520777
11601,10.0,299.82475,-7754.5754,0.0,0.1160100320125621,0.0,0.0,0.0,0.0,0.5430252391099185,1.256736226855209,0.5574357934896296,-0.001226319472103309,0.003881870158810756,0.3260620380648177
11602,10.0,299.66742999999997,-7796.2444,0.0,0.11602002799998146,0.0,0.0,0.0,0.0,0.5332598892836534,1.247536422572259,0.5890672932564154,0.009337935906807522,-0.006470503174463943,0.32072064963266367
11603,10.0,299.74332999999996,-7633.4297,0.0,0.11603002398740081,0.0,0.0,0.0,0.0,0.4877621328258745,1.2621641063158988,0.5704457930511165,-0.004305623408306946,-0.004148563259331316,0.3254720326640887
11604,10.0,299.81647999999996,-7629.7362,0.0,0.11604001997482016,0.0,0.0,0.0,0.0,0.46744574891330354,1.2539861647587986,0.5978173766149815,0.014925237807756286,-0.009532823924416471,0.3239117997626057
11605,10.0,299.57282000000004,-7724.2115,0.0,0.11605001596223952,0.0,0.0,0.0,0.0,0.48674381647537457,1.2620298506776488,0.5991937552858194,0.012552526260587888,0.022593677697822376,0.3212280954152447
11606,10.0,299.72837999999996,-7817.6113,0.0,0.11606001194965865,0.0,0.0,0.0,0.0,0.5219579963432436,1.2581532571200589,0.5962473861150355,0.005815797397874515,0.004015311954580436,0.3090812734814467
11607,10.0,299.90166,-7847.9155,0.0,0.11607004092713558,0.0,0.0,0.0,0.0,0.5507380380761124,1.2437626738998189,0.5910696274415305,-0.01046321975313939,-0.007256186319929833,0.30978314169321575
11608,10.0,300.65866,-7722.153,0.0,0.11608003691455493,0.0,0.0,0.0,0.0,0.5189232818962405,1.2365881539167487,0.5918302844241015,-0.014527557408508286,-0.016141719533313684,0.2996200810701997
11609,10.0,300.69908,-7607.7448,0.0,0.11609003290197406,0.0,0.0,0.0,0.0,0.48791568074602853,1.231463236235959,0.5931855165653523,-0.004687886194033345,-0.001786696730633238,0.3139607921205177
11610,10.0,300.75646,-7734.4146,0.0,0.11610002888939341,0.0,0.0,0.0,0.0,0.49541196843085455,1.2434951758734187,0.6121617860281644,0.004138118677300516,0.004370567065516386,0.3113939864371937
11611,10.0,300.03781000000004,-7950.5777,0.0,0.11611002487681277,0.0,0.0,0.0,0.0,0.5206789403445106,1.2777506286291687,0.6183475664311534,-0.006464111390183124,-0.0006474183400152153,0.3222742862759957
11612,10.0,300.26622000000003,-7848.2422,0.0,0.11612002086423212,0.0,0.0,0.0,0.0,0.5441705055654474,1.2649270366885788,0.5765721362032395,-0.006011142492603574,0.005775777362649844,0.30578590044621873
11613,10.0,299.59029,-7629.5349,0.0,0.11613001685165147,0.0,0.0,0.0,0.0,0.5204065989826324,1.2396641785703288,0.5591173529580864,0.0014299763587276785,0.009666323171466821,0.3214138950860817
11614,10.0,299.78989,-7698.5484,0.0,0.1161400128390706,0.0,0.0,0.0,0.0,0.5200226481222395,1.2439115203395088,0.5762323022522005,0.014371233183080288,0.01038917751533199,0.31302620062578074
11615,10.0,299.6929,-7795.1696,0.0,0.11615004181654753,0.0,0.0,0.0,0.0,0.5054261724816795,1.2610527736062187,0.6030579669271874,0.002131518911914538,-0.004754159741999035,0.3180714869812117
11616,10.0,299.79657000000003,-7762.6515,0.0,0.11616003780396666,0.0,0.0,0.0,0.0,0.48350823532854753,1.2757172383284887,0.6004267489350064,-0.0071828738248444525,-0.011406303296964489,0.3214729169044067
11617,10.0,299.6486,-7724.8039,0.0,0.11617003379138602,0.0,0.0,0.0,0.0,0.49785956523991354,1.255815689139359,0.5944722327348414,0.004980865332623135,0.0038263405069554057,0.3222833852618937
11618,10.0,300.2465,-7683.8539,0.0,0.1161800297788056,0.0,0.0,0.0,0.0,0.5163638425411435,1.2357622537602388,0.5835736437317345,-0.006962304375500943,-0.004685007955799286,0.31304904941553574
11619,10.0,300.37982,-7670.26,0.0,0.11619002576622472,0.0,0.0,0.0,0.0,0.49781698847071154,1.2585038416546588,0.5752467341449324,-0.0011349159031074788,-0.004405151317929586,0.3279654891726737
11620,10.0,300.97717,-7765.9906,0.0,0.11620002175364408,0.0,0.0,0.0,0.0,0.5106873216384146,1.244562533528759,0.6054173299175384,-0.017823983210590182,-0.018188731968338083,0.3151264147705557
11621,10.0,300.30435,-7745.5509999999995,0.0,0.11621001774106343,0.0,0.0,0.0,0.0,0.49048580988968055,1.2670547605735687,0.5969134764657734,0.007167054660308223,0.00931653606469552,0.3186541463187157
11622,10.0,300.18827999999996,-7566.9547,0.0,0.11622001372848256,0.0,0.0,0.0,0.0,0.48216001487798854,1.2362355428819487,0.5817697039161994,0.006835887341349553,0.009131259332235131,0.32425931414940273
11623,10.0,299.9081,-7664.2122,0.0,0.11623004270595949,0.0,0.0,0.0,0.0,0.5126181304989705,1.2478878177069388,0.5692231649504524,0.019500167387266683,0.0031410154269190874,0.3187107768668047
11624,10.0,300.03747999999996,-7892.0403,0.0,0.11624003869337862,0.0,0.0,0.0,0.0,0.5491828207626245,1.2665098346697887,0.5832905213887924,0.015275460612070585,-0.004518181494409796,0.3031862857246567
11625,10.0,299.44575,-7837.3439,0.0,0.11625003468079798,0.0,0.0,0.0,0.0,0.5343997956461535,1.2530566091170587,0.5949004524921034,0.013556746275696687,0.0025779148560953874,0.2971940056932647
11626,10.0,299.87387,-7724.469,0.0,0.11626003066821755,0.0,0.0,0.0,0.0,0.5163042634352635,1.245060241977879,0.5866812412584305,0.009076892182219512,-0.0012509474277088988,0.30289075106798974
11627,10.0,299.87481,-7771.463000000001,0.0,0.11627002665563668,0.0,0.0,0.0,0.0,0.49634338845277853,1.2535850190442088,0.6124022302768944,-0.0024182270456354275,-0.01039260331392009,0.30923505444912375
11628,10.0,300.26695,-7824.0639,0.0,0.11628002264305604,0.0,0.0,0.0,0.0,0.5053073182449495,1.2589942547030588,0.6140185263064104,0.007047972847605763,4.401697553638726e-05,0.3061671155313417
11629,10.0,299.80604,-7821.644,0.0,0.11629001863047517,0.0,0.0,0.0,0.0,0.5294936285294525,1.2524143098786689,0.5956765108761944,-0.0056969289756431144,0.0024642366048512176,0.3209481850751197
11630,10.0,300.68933,-7810.3327,0.0,0.11630001461789452,0.0,0.0,0.0,0.0,0.5309629526319635,1.2467926969988588,0.5963904164991515,-0.007042788958769154,0.018257079740583482,0.3068456789908107
11631,10.0,300.4382,-7641.2983,0.0,0.1163100106053141,0.0,0.0,0.0,0.0,0.5023394377745426,1.240640951666729,0.5797834702751734,-0.01829180280826038,-0.007167189523896534,0.3203549068765677
11632,10.0,300.44026,-7520.5414,0.0,0.11632003958279058,0.0,0.0,0.0,0.0,0.4794071055487975,1.2431486443392188,0.5635010781907265,0.0028343688617054274,-0.008528256465848382,0.3283015031708357
11633,10.0,299.91078,-7713.5475,0.0,0.11633003557020993,0.0,0.0,0.0,0.0,0.4889048154936485,1.2571158916676788,0.5987050951600924,0.008259733435647221,0.0055976012842402344,0.3232590843131877
11634,10.0,298.93528,-7850.5306,0.0,0.11634003155762951,0.0,0.0,0.0,0.0,0.5213108031068705,1.2742322189819288,0.5908222221646134,0.022661803568295877,0.007514003754874433,0.3211258787451567
11635,10.0,299.36929,-7667.6497,0.0,0.11635002754504864,0.0,0.0,0.0,0.0,0.5054311880696745,1.259370170490159,0.5659726991596564,0.01180606085891749,-0.005117080191266495,0.32189246324081267
11636,10.0,299.86624,-7678.06,0.0,0.116360023532468,0.0,0.0,0.0,0.0,0.5105993006022275,1.2487627591682888,0.5745764894687845,0.00047318115991184454,-0.006836441386504233,0.3117154602964207
11637,10.0,299.99845,-7922.7569,0.0,0.11637001951988712,0.0,0.0,0.0,0.0,0.5115642997324655,1.276642538319809,0.6201133675129243,0.01048190307173329,-0.007986785440934353,0.30598592614845965
11638,10.0,300.04328,-7886.7477,0.0,0.11638001550730648,0.0,0.0,0.0,0.0,0.5180414604667115,1.255218783505449,0.6241140842077644,0.0001981924491000718,-0.002227378856175178,0.3068242082211917
11639,10.0,300.46065,-7860.3124,0.0,0.11639001149472605,0.0,0.0,0.0,0.0,0.5013167340511095,1.266519663195759,0.6215022496899965,-0.01315669892421509,-0.03260142430576007,0.31634650974596973
11640,10.0,299.97952000000004,-7761.1603,0.0,0.11640004047220254,0.0,0.0,0.0,0.0,0.5240321598279475,1.2486324552054289,0.5865342997289285,-0.007806543142920821,-0.010490653499596889,0.3125281071416227
11641,10.0,300.24932,-7605.3739,0.0,0.11641003645962189,0.0,0.0,0.0,0.0,0.5243340070327375,1.2281840549373289,0.5593256467811435,0.003161136344754867,0.014500240185812287,0.3245865128716947
11642,10.0,299.75952,-7778.8735,0.0,0.11642003244704124,0.0,0.0,0.0,0.0,0.5367270791383385,1.252711597458009,0.5751446390648565,0.02201136286535238,0.02107114073980968,0.3180797449695267
11643,10.0,299.70436,-7961.6368,0.0,0.1164300284344606,0.0,0.0,0.0,0.0,0.5313452113646895,1.2728220788177589,0.6159714848141524,-0.008639210188898662,0.006689111782213933,0.3140909035658587
11644,10.0,299.86807999999996,-7788.4713,0.0,0.11644002442187995,0.0,0.0,0.0,0.0,0.4994586258852285,1.259074301460959,0.6089678291954455,0.0009619715592042011,0.0011952242450844488,0.2972480625860997
11645,10.0,299.38752,-7679.8959,0.0,0.11645002040929908,0.0,0.0,0.0,0.0,0.4909200787500395,1.251421223455659,0.5921553451886824,0.014477516025819589,0.002855154471606807,0.3172505314851897
11646,10.0,300.2912,-7892.8989,0.0,0.11646001639671844,0.0,0.0,0.0,0.0,0.5327818784164775,1.2603916279159688,0.6060706431845154,0.015500887481068487,0.005218528209828635,0.2937290551213007
11647,10.0,300.51957999999996,-7919.4213,0.0,0.11647001238413779,0.0,0.0,0.0,0.0,0.5464727212501586,1.2683154463479887,0.5925181393869875,0.0007115320339352443,-0.025592691290801974,0.3200356925650637
11648,10.0,300.36017999999996,-7738.7338,0.0,0.11648004136161472,0.0,0.0,0.0,0.0,0.5085974629096615,1.2541464609246187,0.5896379050502305,-0.013781936044171187,-0.015702160494182587,0.3207391515794897
11649,10.0,300.66171,-7622.6476,0.0,0.11649003734903385,0.0,0.0,0.0,0.0,0.48098771490979153,1.2486171551289187,0.5874896425857135,-0.002007915673290848,0.0025945896090160576,0.32986975088060966
11650,10.0,300.64912999999996,-7641.6207,0.0,0.1165000333364532,0.0,0.0,0.0,0.0,0.48486714556766153,1.2567872946602487,0.5812074818332124,-0.0006165743787561534,0.006289022178203165,0.31796078940778666
11651,10.0,300.3839,-7668.5312,0.0,0.11651002932387255,0.0,0.0,0.0,0.0,0.4888743875931455,1.2579147380465188,0.5842529265987744,-0.0038719117341779363,-0.011681957986669489,0.3341286031709257
11652,10.0,300.20074,-7786.0341,0.0,0.11652002531129191,0.0,0.0,0.0,0.0,0.5289786137686245,1.2661259142068988,0.5716554211529974,-0.0050205672073164054,-0.008060779042736952,0.32758799271541766
11653,10.0,299.85919,-7848.1111,0.0,0.11653002129871104,0.0,0.0,0.0,0.0,0.5285168149030485,1.2760289140592487,0.5810840578385315,0.012440686754300188,0.0021029256020425983,0.3382404936667377
11654,10.0,299.87081,-7740.0154,0.0,0.11654001728613039,0.0,0.0,0.0,0.0,0.5172867411297265,1.2590478556333486,0.5764367862548815,-0.005091109780603415,0.007246696726118283,0.3276062920122237
11655,10.0,299.97058,-7735.3236,0.0,0.11655001327354975,0.0,0.0,0.0,0.0,0.4902327810747086,1.2593682453149688,0.6017441868475274,-0.006635699316442534,-0.011096600364149188,0.3236592573076817
11656,10.0,299.7094,-7920.7704,0.0,0.11656004225102667,0.0,0.0,0.0,0.0,0.5103315796608056,1.2660174964461988,0.6313673945186105,-0.01117025250066809,-0.0034503377829968266,0.2905681403743427
11657,10.0,299.38956,-7862.1912,0.0,0.1165700382384458,0.0,0.0,0.0,0.0,0.5107519365972915,1.2582506304546688,0.6209072388337734,0.008073805791322592,0.015445865974138285,0.29908912788529873
11658,10.0,299.82129,-7710.4322,0.0,0.11658003422586516,0.0,0.0,0.0,0.0,0.5220048591603685,1.242248675600399,0.5795253853422024,0.008147795542774812,0.007467593353919083,0.3003318183379427
11659,10.0,300.00311,-7805.2435,0.0,0.11659003021328451,0.0,0.0,0.0,0.0,0.5274165164869575,1.2516960168827789,0.5934866240975694,0.0008127833097254671,-0.016632637180263483,0.3195295741401137
11660,10.0,300.50314,-7858.9603,0.0,0.11660002620070387,0.0,0.0,0.0,0.0,0.5412224138694935,1.248978480114579,0.5987268293747374,-0.011454384040709689,-0.01918354598276858,0.31703751591666673
11661,10.0,300.19122999999996,-7801.6672,0.0,0.11661002218812322,0.0,0.0,0.0,0.0,0.5067877070385526,1.2556092900939888,0.6091149936399693,-0.006583771363392644,0.007531682942619233,0.3307779573427427
11662,10.0,300.46426,-7732.5593,0.0,0.11662001817554235,0.0,0.0,0.0,0.0,0.5069872159832426,1.2466955263142687,0.5968222028967655,-0.009153604334040413,0.025587047487744975,0.3115093854910827
11663,10.0,300.51332,-7603.5325,0.0,0.1166300141629617,0.0,0.0,0.0,0.0,0.49540805728546855,1.2412621753030386,0.5746137568074624,-0.003645422675100207,0.006523144252934214,0.31387775627482273
11664,10.0,300.19992,-7569.3648,0.0,0.11664004314043863,0.0,0.0,0.0,0.0,0.5180288759004695,1.2313060811454488,0.5515629351150235,-0.013639419377855887,-0.0014048424873471586,0.3136354071159047
11665,10.0,299.81962999999996,-7870.0274,0.0,0.11665003912785776,0.0,0.0,0.0,0.0,0.5193926801375665,1.2688597643017088,0.6040393604440435,0.012746461316477789,-0.004522463691982415,0.3132636963167197
11666,10.0,300.20855,-7956.2235,0.0,0.11666003511527712,0.0,0.0,0.0,0.0,0.5303664826955965,1.2819356555171988,0.6061910983564034,0.008069383258611123,-0.005289662926474085,0.3191969443972857
11667,10.0,299.94517,-7742.7137,0.0,0.11667003110269625,0.0,0.0,0.0,0.0,0.4710951616659726,1.2715345419156887,0.6109619256572474,0.008318578441829773,-0.02363229147432558,0.31966670740864767
11668,10.0,299.69267,-7652.7649,0.0,0.11668002709011582,0.0,0.0,0.0,0.0,0.47792985783050457,1.2502630785913589,0.5980565441685853,0.01120698990954379,-0.01008642740337788,0.32505654946058365
11669,10.0,299.63063,-7760.1729,0.0,0.11669002307753518,0.0,0.0,0.0,0.0,0.49966821666841355,1.2490420108958487,0.6101886131809274,0.008432299046928122,1.096035774245309e-05,0.3071624513695737
11670,10.0,299.73699,-7751.6535,0.0,0.11670001906495431,0.0,0.0,0.0,0.0,0.5322388168928814,1.253554621541209,0.5705156971755154,0.00952602481359545,0.02076680600602418,0.31755778944551366
11671,10.0,300.37077,-7734.0008,0.0,0.11671001505237366,0.0,0.0,0.0,0.0,0.5133800844416696,1.2591706615454688,0.5783923893453844,-0.023411754550310276,-0.006081790849201025,0.33155414744934664
11672,10.0,299.91565,-7759.8531,0.0,0.11672001103979279,0.0,0.0,0.0,0.0,0.5377165381259905,1.2439148640648388,0.5771701564122594,-0.006743676110699013,-0.008208422957208273,0.32505262818269665
11673,10.0,300.07288,-7736.1656,0.0,0.11673004001726972,0.0,0.0,0.0,0.0,0.5054612815976446,1.2471723618113288,0.5989675370684935,-0.0029646945081175675,-0.0017610345506505782,0.3204216901906587
11674,10.0,300.20867999999996,-7757.3167,0.0,0.11674003600468907,0.0,0.0,0.0,0.0,0.5102536505956144,1.2494633202874288,0.5983136158514565,0.022212839541736577,0.02153485667457488,0.3124786504042417
11675,10.0,300.74859,-7927.8807,0.0,0.1167500319921082,0.0,0.0,0.0,0.0,0.5246628269551895,1.266645812833209,0.6185691642280233,-0.005628234874513535,0.0038788614139638163,0.2933982593611537
11676,10.0,300.29964,-7906.8905,0.0,0.11676002797952756,0.0,0.0,0.0,0.0,0.5400246306612815,1.2585285649570987,0.6049441015908344,0.0025276874406883277,0.005795889363884745,0.29513473698503073
11677,10.0,300.39538,-7771.4554,0.0,0.11677002396694713,0.0,0.0,0.0,0.0,0.5138507289806185,1.252312275593599,0.5961653837844424,-0.011672673576003188,0.0030486841261316974,0.3051715263805847
11678,10.0,299.57395,-7904.1339,0.0,0.11678001995436627,0.0,0.0,0.0,0.0,0.5334989859097504,1.2732619306861688,0.5958984227805953,0.006733653446009853,0.002165543343647488,0.3025310878124937
11679,10.0,300.18287999999995,-7906.1413,0.0,0.11679001594178562,0.0,0.0,0.0,0.0,0.5137282169110274,1.271968111633479,0.6175731697772264,-0.012605036933770289,-0.007072125892889483,0.31935395763278174
11680,10.0,299.40271,-7714.3449,0.0,0.11680001192920475,0.0,0.0,0.0,0.0,0.5061256088932085,1.2613329372588686,0.5775096357257634,-0.006898297974634003,-0.014106677634970687,0.3217976432964547
11681,10.0,299.26251,-7628.6132,0.0,0.11681004090668168,0.0,0.0,0.0,0.0,0.5037237299286615,1.2327359796865687,0.5824482572431674,0.006493384996172204,-0.0025641844053152976,0.3225790415085727
11682,10.0,299.35106,-7634.2085,0.0,0.11682003689410103,0.0,0.0,0.0,0.0,0.5153509572111794,1.2433588937349687,0.5618989271326065,0.017028919294373484,0.013484742697090487,0.32942990914470066
11683,10.0,300.00726000000003,-7697.3962,0.0,0.11683003288152016,0.0,0.0,0.0,0.0,0.4962464913457155,1.2750846662910589,0.5684850933126104,0.008316291536354072,0.010093326420658761,0.3415929734776017
11684,10.0,299.96322000000004,-7859.4165,0.0,0.11684002886893974,0.0,0.0,0.0,0.0,0.5207045147770345,1.2711832481060188,0.5971786338844425,-0.018467041373305085,-0.0025684947712406978,0.32909380395402965
11685,10.0,300.36998,-7780.7298,0.0,0.11685002485635887,0.0,0.0,0.0,0.0,0.4993812135775885,1.2638448855817788,0.6019214549525225,-0.02131135498076698,0.006526839474723904,0.33452456104500367
11686,10.0,299.84148,-7646.8405,0.0,0.11686002084377822,0.0,0.0,0.0,0.0,0.4813581591463515,1.243611699634919,0.5994787217439435,-0.010372795287715189,0.014993099219953687,0.3066805496220137
11687,10.0,300.22047000000003,-7730.101,0.0,0.11687001683119758,0.0,0.0,0.0,0.0,0.5040078756542046,1.2457888701247888,0.5999609781290385,-0.011873273791050888,0.005501894746044734,0.30319329741534873
11688,10.0,300.19521000000003,-7993.3019,0.0,0.11688001281861671,0.0,0.0,0.0,0.0,0.5345060450516396,1.2815600437051289,0.6136980656972834,-0.013914316156486087,-0.004785567151373705,0.2877495825711727
11689,10.0,299.68194,-7936.0872,0.0,0.11689004179609364,0.0,0.0,0.0,0.0,0.5368279380532925,1.2615083308511787,0.6140360555331403,-0.005355974572643535,-0.007961981281136373,0.2972782574390797
11690,10.0,299.88428,-7762.8335,0.0,0.11690003778351299,0.0,0.0,0.0,0.0,0.5082082330162475,1.2563652759935988,0.5951339863751515,0.005717349612858474,0.0018705396300328883,0.3072229727980467
11691,10.0,300.27099,-7802.2066,0.0,0.11691003377093234,0.0,0.0,0.0,0.0,0.5127398826309865,1.2544539823299687,0.6044821304727414,0.03371700861285967,-0.0035276018521471966,0.3165626967873057
11692,10.0,299.78595,-7905.0069,0.0,0.1169200297583517,0.0,0.0,0.0,0.0,0.5392891225461925,1.2643813001847188,0.5992542564492904,0.00019977188309094982,-0.02069367164030638,0.32296683258684467
11693,10.0,300.35397,-7876.8185,0.0,0.11693002574577083,0.0,0.0,0.0,0.0,0.5360979420187475,1.2716322192253289,0.5866259785979765,0.017842324050650286,-0.007073132860838863,0.3140558552448997
11694,10.0,300.00864,-7816.6515,0.0,0.11694002173319018,0.0,0.0,0.0,0.0,0.5326841707093345,1.2618656028364386,0.5815171614612754,-0.006829676624861603,0.009114271383708551,0.32617181358065167
11695,10.0,299.56478,-7675.9492,0.0,0.11695001772060953,0.0,0.0,0.0,0.0,0.49038518402224957,1.2502927668192887,0.5926189172419335,-0.004750988877136096,0.025190224298081577,0.30551621379960275
11696,10.0,300.00518,-7508.9314,0.0,0.11696001370802867,0.0,0.0,0.0,0.0,0.46913409715743054,1.243500647423959,0.5698929536640555,-0.022229525744383378,-0.0020278401219322377,0.3266382024691807
11697,10.0,300.05586,-7722.8973,0.0,0.11697004268550559,0.0,0.0,0.0,0.0,0.4840577107252765,1.2563895939959988,0.6071206438656425,-0.014458209558414186,0.012449912396460688,0.3061358466332557
11698,10.0,299.7588,-7892.1616,0.0,0.11698003867292495,0.0,0.0,0.0,0.0,0.5252116437393536,1.2669308400863386,0.6068775449016505,-0.0011263184760089788,0.0023828023022642777,0.3145439175530677
11699,10.0,299.98402000000004,-7732.4881,0.0,0.1169900346603443,0.0,0.0,0.0,0.0,0.4934928423439515,1.2629538334438386,0.5940366871793564,0.006912793226589573,0.0035072215422858165,0.3158354973230367
11700,10.0,299.26281,-7694.9537,0.0,0.11700003064776365,0.0,0.0,0.0,0.0,0.5133858903647425,1.2547784250119887,0.5709094765618784,0.0025698438124238374,-0.013465744257715486,0.32846541663951273
11701,10.0,299.95058,-7848.7849,0.0,0.11701002663518278,0.0,0.0,0.0,0.0,0.5168036741445515,1.2793457882615988,0.5896851630348944,0.00023270292677349082,-0.015602031119300586,0.3214770104348107
11702,10.0,300.49526000000003,-7771.6787,0.0,0.11702002262260214,0.0,0.0,0.0,0.0,0.5199686621569115,1.249416710782829,0.5930109437056235,0.014075014582595788,-0.0028582093193332972,0.3347909951587987
11703,10.0,299.9879,-7776.1058,0.0,0.11703001861002149,0.0,0.0,0.0,0.0,0.5035284867668925,1.2603426879361388,0.5998708090026394,-0.001802598779027648,0.011581756671030388,0.3259216421309617
11704,10.0,299.89306,-7697.2972,0.0,0.11704001459744084,0.0,0.0,0.0,0.0,0.5273799280258465,1.2461632660367388,0.5662429126963244,0.007977114981979951,0.001936276155445578,0.30869888302620774
11705,10.0,300.30341,-7671.7862,0.0,0.1170500105848602,0.0,0.0,0.0,0.0,0.5040416371475366,1.2425799070580887,0.5854099467554634,-0.004808447655856836,-0.003336593163871107,0.30252555546694776
11706,10.0,300.01997,-7762.5454,0.0,0.1170600395623369,0.0,0.0,0.0,0.0,0.5230371583622485,1.247967763139829,0.5886150290742804,0.018769116559367582,-0.004244507506000276,0.31109359831254774
11707,10.0,300.62085,-7906.8975,0.0,0.11707003554975626,0.0,0.0,0.0,0.0,0.5217702512322144,1.2635659378292488,0.6181632055754585,-0.0009271294143755491,0.0042535323219909564,0.29492846966217373
11708,10.0,300.65237,-7875.9619999999995,0.0,0.11708003153717561,0.0,0.0,0.0,0.0,0.5128684742011775,1.2714263268050088,0.6098010146201744,0.0026857286184107775,-0.004030252327304936,0.3164428293004757
11709,10.0,300.19471,-7789.7114,0.0,0.11709002752459474,0.0,0.0,0.0,0.0,0.5033376107130546,1.2692197720622387,0.5953204345260524,-0.00020861524625372178,0.012621733268918089,0.3029745772487627
11710,10.0,300.09402,-7862.6606,0.0,0.11710002351201387,0.0,0.0,0.0,0.0,0.5360405920630875,1.2590908174375885,0.5949210822641395,0.012000240108081489,0.006404657015390433,0.32798470039456973
11711,10.0,299.44894,-7918.2994,0.0,0.11711001949943345,0.0,0.0,0.0,0.0,0.5383775318287255,1.2567251824291188,0.6118626340686404,-0.005305739051235675,0.014033421679240887,0.30986954152924273
11712,10.0,299.5145,-7652.6361,0.0,0.1171200154868528,0.0,0.0,0.0,0.0,0.5024124829742515,1.2559231949749687,0.5678745797298574,-0.0036160180558731966,-0.011807805675589688,0.33499628976155965
11713,10.0,299.57832,-7556.721,0.0,0.11713001147427216,0.0,0.0,0.0,0.0,0.4874755654325925,1.2309969385399386,0.5785819684390944,-0.01169069726878199,-0.003876745646430006,0.3121230198841437
11714,10.0,299.96587999999997,-7734.732,0.0,0.11714004045174886,0.0,0.0,0.0,0.0,0.4808517063488686,1.2608081750320788,0.6095055306260124,0.017620130462721484,-0.008043159940723082,0.32379681614125766
11715,10.0,300.09182999999996,-7752.2762,0.0,0.11715003643916821,0.0,0.0,0.0,0.0,0.5099147994971726,1.253569313667659,0.5930142975634545,0.0056497314820100845,0.004720253657877766,0.3128388000197857
11716,10.0,300.16797,-7844.9843,0.0,0.11716003242658757,0.0,0.0,0.0,0.0,0.5144035075726735,1.2710054227134688,0.5992704481858884,0.015922221190650884,-0.0027758677526068176,0.31075695609932374
11717,10.0,300.15755,-7862.5549,0.0,0.1171700284140067,0.0,0.0,0.0,0.0,0.5282870503103725,1.2707782520410487,0.5909550896502265,-0.0003482708387916557,-0.0013443662498286186,0.3094658018943967
11718,10.0,300.23749,-7678.7469,0.0,0.11718002440142583,0.0,0.0,0.0,0.0,0.5199325904533515,1.2380003205811188,0.5762144285204365,0.006150665511498425,-0.011525085592937388,0.3206669879073677
11719,10.0,300.14346,-7744.7517,0.0,0.1171900203888454,0.0,0.0,0.0,0.0,0.5124691422042665,1.2378531966665989,0.6038887712141814,-0.005039518733211776,-0.01030336840411329,0.3145303703992307
11720,10.0,300.73978999999997,-7923.7036,0.0,0.11720001637626476,0.0,0.0,0.0,0.0,0.5210214188783105,1.276640511819609,0.6109460885581844,-0.02112708329108078,-0.003644421482676397,0.3068285753291227
11721,10.0,301.04413999999997,-7779.281,0.0,0.11721001236368411,0.0,0.0,0.0,0.0,0.5183603201406806,1.2486415744563288,0.5977053111539214,-0.016918160925942484,0.008106012553701154,0.3072309673413357
11722,10.0,300.42759,-7583.9048,0.0,0.11722004134116082,0.0,0.0,0.0,0.0,0.4964098373943365,1.241654911041799,0.5672529406610065,-0.012769391166240788,0.002281037440395868,0.32253984899470467
11723,10.0,300.1772,-7657.8324,0.0,0.11723003732857995,0.0,0.0,0.0,0.0,0.5080736328729636,1.244264334024329,0.5754518767601784,0.0027575285337468774,0.018866220369450983,0.31491025812672274
11724,10.0,299.63437000000005,-7830.6596,0.0,0.11724003331599953,0.0,0.0,0.0,0.0,0.5307982893582125,1.2485581839730988,0.6009685134984745,0.013703296690660088,-0.008345741447860553,0.31744394066427767
11725,10.0,299.58575,-7756.758000000001,0.0,0.11725002930341866,0.0,0.0,0.0,0.0,0.4949746902176986,1.2624857118976387,0.6004003841674044,0.02781154587653587,-0.00039688803766979965,0.3144104725148977
11726,10.0,300.08612999999997,-7694.705,0.0,0.11726002529083801,0.0,0.0,0.0,0.0,0.48831515459795355,1.2569977467060187,0.5936852717796745,0.004222017406780676,-0.005175152492922785,0.33081389732378974
11727,10.0,299.39385,-7731.8667,0.0,0.11727002127825736,0.0,0.0,0.0,0.0,0.5224125504706044,1.2288026441233788,0.5990792377595174,0.012990632299075587,0.006227498848031285,0.3021080558957437
11728,10.0,299.57641,-7730.852,0.0,0.11728001726567672,0.0,0.0,0.0,0.0,0.5036078546472256,1.2681237394290688,0.5782543846817644,-0.01097212056286399,-0.006716466393838623,0.33056852867957365
11729,10.0,300.02307,-7795.5634,0.0,0.11729001325309607,0.0,0.0,0.0,0.0,0.5309651412521795,1.2500557676208988,0.5886357399063245,-0.007292887150476923,0.005635525411633055,0.29330683380463074
11730,10.0,300.55182,-7851.3014,0.0,0.11730004223057278,0.0,0.0,0.0,0.0,0.5172727785433485,1.2712325933858888,0.5980942472048064,-0.01064759986058629,-0.002380574874569448,0.32745176123947267
11731,10.0,300.91708,-7754.6658,0.0,0.11731003821799191,0.0,0.0,0.0,0.0,0.5009737286272575,1.2651025316058988,0.5911484785643124,-0.0006926495914316923,0.007433470940901463,0.3120436013413057
11732,10.0,300.3179,-7791.5056,0.0,0.11732003420541148,0.0,0.0,0.0,0.0,0.5101076615212066,1.2605740129339686,0.5977414639174894,0.009194880799389082,0.003739039486289466,0.32109611958971973
11733,10.0,299.70284,-7947.401,0.0,0.11733003019283061,0.0,0.0,0.0,0.0,0.5333983904398225,1.2814191006162188,0.6009940068709905,0.002320678013458088,0.004002664972132276,0.3154838184783287
11734,10.0,299.47057,-7804.2028,0.0,0.11734002618024997,0.0,0.0,0.0,0.0,0.5211628888572725,1.2627158209953488,0.5884040298734564,0.007260078416213952,0.0027745337075251574,0.3150206111951137
11735,10.0,299.34211,-7700.9999,0.0,0.11735002216766932,0.0,0.0,0.0,0.0,0.4989474817397825,1.2486668043838187,0.5932974300388975,-0.004410218581679686,0.01088545829506109,0.30676189334004167
11736,10.0,299.81082999999995,-7763.4591,0.0,0.11736001815508845,0.0,0.0,0.0,0.0,0.5101806256609075,1.2523109583684688,0.5974061490618964,-0.003502116382981977,0.002182623092633128,0.3166499781509197
11737,10.0,299.70115,-7802.9032,0.0,0.11737001414250803,0.0,0.0,0.0,0.0,0.49227901938665647,1.2536364921492886,0.6259722430361504,-0.0030261082046286274,-0.0005251511324433816,0.3080556718627277
11738,10.0,299.50383999999997,-7729.8232,0.0,0.11738004311998473,0.0,0.0,0.0,0.0,0.5030568695078476,1.257715533076859,0.5889007858674825,-0.006754194659987113,0.003210396004991417,0.31923776824381467
11739,10.0,300.21644,-7830.3955,0.0,0.11739003910740387,0.0,0.0,0.0,0.0,0.5246577911021925,1.2668938564576886,0.5886930594644815,0.00014588752648297785,0.004052083712634527,0.3189459218175117
11740,10.0,300.38888,-7792.5274,0.0,0.11740003509482322,0.0,0.0,0.0,0.0,0.5363757549311655,1.2427747550523187,0.5895832908698404,-0.005713933845446364,0.01085176164973549,0.3119509700171637
11741,10.0,299.80793,-7780.0546,0.0,0.11741003108224257,0.0,0.0,0.0,0.0,0.5187783364694355,1.2573102330368588,0.5888537406653395,0.0003175114028559357,-0.0016713743797768083,0.3166397443249097
11742,10.0,300.50592,-7846.368,0.0,0.11742002706966193,0.0,0.0,0.0,0.0,0.5040381718321946,1.2693140043215387,0.6117477821698054,0.002228795683790008,0.005689751111934715,0.31705011061540966
11743,10.0,300.28529,-7865.5439,0.0,0.11743002305708128,0.0,0.0,0.0,0.0,0.5221842145605695,1.2664505595389386,0.6022941182068015,-0.0017644157662342784,-0.007957685404687402,0.3113190869898017
11744,10.0,299.65499,-7775.9522,0.0,0.11744001904450041,0.0,0.0,0.0,0.0,0.5063231622652055,1.261173958318179,0.5961982434851855,-0.002255985338298418,0.0076222048827030535,0.3254645852758537
11745,10.0,299.73686000000004,-7720.6684,0.0,0.11745001503191976,0.0,0.0,0.0,0.0,0.5247122532950675,1.241292775456059,0.5808853898914245,-0.011118694282579689,-0.004516290668398186,0.30425493020762373
11746,10.0,300.23014,-7776.177,0.0,0.11746001101933912,0.0,0.0,0.0,0.0,0.5055888801827375,1.2733489688697588,0.5848257675428095,0.009364078873962631,0.002149457086384898,0.3141630469729787
11747,10.0,300.36061,-7798.9154,0.0,0.11747003999681582,0.0,0.0,0.0,0.0,0.5116442147678525,1.2598510589876186,0.5991802283969845,-0.001161598020640799,-0.008670362765873182,0.29765467985122973
11748,10.0,300.41279,-7751.791,0.0,0.11748003598423518,0.0,0.0,0.0,0.0,0.4956875825905555,1.253793748564809,0.6068695503583614,0.004290830666122016,0.002160512151600948,0.3191379732414657
11749,10.0,299.49347,-7788.8247,0.0,0.11749003197165453,0.0,0.0,0.0,0.0,0.5157877287992856,1.2586927114732989,0.5931277613096524,0.004100010847664566,0.004489662962395236,0.3201674961380717
11750,10.0,299.471,-7743.7836,0.0,0.11750002795907388,0.0,0.0,0.0,0.0,0.4971224460571655,1.2632349090215789,0.5935595375747654,0.005690641961422635,0.013311700858262587,0.3188654190970667
11751,10.0,299.86868,-7693.4193,0.0,0.11751002394649324,0.0,0.0,0.0,0.0,0.5164598175906155,1.2602246442994887,0.5619228702324695,-0.004686444440466056,-0.0005126403612061646,0.34454106517355565
11752,10.0,299.50946,-7868.8274,0.0,0.11752001993391237,0.0,0.0,0.0,0.0,0.5258351573208895,1.255860778768809,0.6102311392876244,-0.01705483316568098,-0.004041439013708976,0.3062551264350277
11753,10.0,299.77582,-7754.9363,0.0,0.11753001592133172,0.0,0.0,0.0,0.0,0.5258830739181185,1.2358177798657188,0.5956061609217514,-0.01060542231192369,-0.005391991459373125,0.3181586366223127
11754,10.0,300.00998,-7682.3202,0.0,0.11754001190875107,0.0,0.0,0.0,0.0,0.4845610629774535,1.252808362842559,0.5978640671795894,-0.012158885689488589,-0.004064916322501006,0.3004455860591707
11755,10.0,300.27963,-7809.6056,0.0,0.11755004088622778,0.0,0.0,0.0,0.0,0.5109987643216516,1.2632021810433487,0.5997241106531614,0.012901377124266788,-0.007136710555588494,0.3253009251197017
11756,10.0,300.46954,-7919.1829,0.0,0.11756003687364713,0.0,0.0,0.0,0.0,0.5235146626043745,1.268799678570779,0.6149194677653264,-0.0015589455672309486,-0.0012904638776338687,0.3043891453158697
11757,10.0,300.68133,-7848.6329,0.0,0.11757003286106649,0.0,0.0,0.0,0.0,0.5366145171847295,1.265851424754809,0.5833224185019404,0.012502878018937989,-0.011724808333398489,0.32715997560817567
11758,10.0,300.39022,-7780.7728,0.0,0.11758002884848584,0.0,0.0,0.0,0.0,0.5056752698862635,1.2614149091919589,0.5980704358274564,0.0060811322366360245,0.012506078876003888,0.3077311582532007
11759,10.0,300.08609,-7748.6757,0.0,0.1175900248359052,0.0,0.0,0.0,0.0,0.5066200040145016,1.2635985644824688,0.5851853700032994,0.007034755202701285,-0.0018510917129135281,0.3176220295018537
11760,10.0,299.51504,-7728.126,0.0,0.11760002082332432,0.0,0.0,0.0,0.0,0.4848935103352635,1.2553686431952387,0.6088951994282774,-0.01068261170454169,0.009757028915118782,0.3192174221818067
11761,10.0,299.6846,-7771.5758,0.0,0.11761001681074368,0.0,0.0,0.0,0.0,0.5228887172225986,1.248296360147259,0.5911799095824144,-0.006217894149008374,0.005374609457882655,0.3194590215356507
11762,10.0,300.00158999999996,-7889.9693,0.0,0.11762001279816303,0.0,0.0,0.0,0.0,0.5249464660556825,1.2724555862565887,0.6009515618243014,-0.00966468221292987,0.006441539521680454,0.3225383291195547
11763,10.0,300.23907,-7830.7691,0.0,0.11763004177563974,0.0,0.0,0.0,0.0,0.5284887580077795,1.2665337473721487,0.5853357667156425,-0.013576617123407787,-0.0017093120847209682,0.3220394554328197
11764,10.0,300.04829,-7822.1976,0.0,0.11764003776305909,0.0,0.0,0.0,0.0,0.5147198847838975,1.2646450491857488,0.5983878566862834,-0.016664808884188583,-0.010669036179701889,0.3316320258520327
11765,10.0,299.94514,-7911.8114,0.0,0.11765003375047844,0.0,0.0,0.0,0.0,0.5300369737630766,1.2593342001116088,0.6156219236621534,0.010439980862095891,-0.013828109851228185,0.3022320169129777
11766,10.0,299.87535,-7889.4172,0.0,0.1176600297378978,0.0,0.0,0.0,0.0,0.5142658474140875,1.2729648457568488,0.6109551064840745,0.005281918453309766,0.004145596260388496,0.3061296658076457
11767,10.0,299.71449,-7759.7841,0.0,0.11767002572531715,0.0,0.0,0.0,0.0,0.5092612126526684,1.2628266705562887,0.5866927213820634,0.027704524374473672,0.0002373693791815338,0.3139766697495847
11768,10.0,298.7032,-7777.5803,0.0,0.11768002171273628,0.0,0.0,0.0,0.0,0.5036848211248216,1.2607771695790189,0.5997282649785715,0.007164261433757554,-0.004914635253086735,0.3083235549241657
11769,10.0,299.47845,-7831.6486,0.0,0.11769001770015564,0.0,0.0,0.0,0.0,0.5265272172716905,1.2682176677133388,0.5858807838119314,0.008019606232873512,0.0012865540494729987,0.31761829060898467
11770,10.0,299.87493,-7833.2731,0.0,0.11770001368757499,0.0,0.0,0.0,0.0,0.5251598869242455,1.2669499905132289,0.5890095785307193,-0.00844122790813433,0.004826881005651065,0.3235313142175547
11771,10.0,300.12039,-7802.3085,0.0,0.1177100426650517,0.0,0.0,0.0,0.0,0.5117774470235015,1.2691045655258688,0.5908249174098794,-0.013081705244563788,-0.005096520130837375,0.3264472048253307
11772,10.0,300.3516,-7757.8994,0.0,0.11772003865247127,0.0,0.0,0.0,0.0,0.5139637975592776,1.2546030314196788,0.5896408333430194,-0.01939745726437998,0.00034276218303299364,0.32776783447566665
11773,10.0,300.30575,-7723.0019,0.0,0.1177300346398904,0.0,0.0,0.0,0.0,0.5176723638527846,1.2401330093915988,0.5897943407331694,-0.011937537152143188,-0.009083612766157781,0.3196396131009737
11774,10.0,299.8711,-7728.8145,0.0,0.11774003062730953,0.0,0.0,0.0,0.0,0.5316024350350755,1.239753243254119,0.5780109412127384,-0.01011287130581269,0.015423730512453685,0.3109849069743207
11775,10.0,300.35075,-7797.6263,0.0,0.11775002661472911,0.0,0.0,0.0,0.0,0.5178364799714815,1.2618666160865386,0.5905805822807655,-0.006704643183721764,-0.003358580285741067,0.3120904742909317
11776,10.0,300.34617000000003,-7745.0118,0.0,0.11776002260214824,0.0,0.0,0.0,0.0,0.49950188153199754,1.259858151738319,0.5949301812500375,-0.004591669180437465,0.01198591984441819,0.3135453697120187
11777,10.0,299.68721,-7804.4975,0.0,0.1177700185895676,0.0,0.0,0.0,0.0,0.49849942254556256,1.2686506294810689,0.6052223400682945,0.0061956733716653535,-0.006457905435970644,0.3136569893430347
11778,10.0,299.87781,-7825.3639,0.0,0.11778001457698695,0.0,0.0,0.0,0.0,0.5113394899327786,1.2579086585459187,0.6094671081822204,0.016343707900998383,0.002058272379410668,0.3131550556409977
11779,10.0,299.33515,-7747.2933,0.0,0.11779004355446387,0.0,0.0,0.0,0.0,0.5062498738854725,1.260698744021279,0.5880350953795455,0.004700002740054155,-0.010748087926003689,0.3173872290561807
11780,10.0,299.60667,-7731.0549,0.0,0.11780003954188323,0.0,0.0,0.0,0.0,0.5035194384434996,1.2665573560994787,0.5799707999536615,-0.0017767988983563984,-0.017941327704671182,0.3283210285002627
11781,10.0,299.80052,-7816.108,0.0,0.11781003552930236,0.0,0.0,0.0,0.0,0.5249869656621795,1.2483945440819488,0.6025201641716105,-0.02352822055655458,-0.013424228361368187,0.30601097369093166
11782,10.0,299.60828,-7826.994000000001,0.0,0.11782003151672149,0.0,0.0,0.0,0.0,0.5211735583808255,1.2588810746668886,0.5991561130446045,-0.004589187426967536,-0.002667914972377708,0.3186957402353207
11783,10.0,299.77087,-7724.9653,0.0,0.11783002750414084,0.0,0.0,0.0,0.0,0.5054612309351395,1.2506257208021487,0.5921095462841625,-0.0026262139552371377,0.004001447957437166,0.3155070928331257
11784,10.0,299.83645,-7762.8812,0.0,0.1178400234915602,0.0,0.0,0.0,0.0,0.4982997210833535,1.2510360870926487,0.6103862172154295,0.007481545909121093,-0.004626479995573026,0.3071826150465637
11785,10.0,300.03777,-7800.0921,0.0,0.11785001947897977,0.0,0.0,0.0,0.0,0.5392978567620544,1.2504608650108788,0.5812744880623255,-0.0060956951736982744,-0.00021408733381627482,0.3111482631554427
11786,10.0,300.52333,-7750.0468,0.0,0.1178600154663989,0.0,0.0,0.0,0.0,0.5266634386151345,1.235693555403459,0.5934636942478064,0.0013244538588634187,0.007952014345202712,0.3108110737871647
11787,10.0,300.06242000000003,-7722.6686,0.0,0.11787001145381804,0.0,0.0,0.0,0.0,0.5121196418472735,1.257028549509059,0.5783502280087235,-0.008193477112933233,0.008362284376943212,0.3288407346090537
11788,10.0,299.78117000000003,-7717.4459,0.0,0.11788004043129519,0.0,0.0,0.0,0.0,0.4822245791743605,1.260912337142359,0.6027739123941535,-0.003846261105246416,-0.0013324323928008387,0.3195979482568617
11789,10.0,300.57792,-7688.5434,0.0,0.11789003641871432,0.0,0.0,0.0,0.0,0.4856133333388046,1.253733966808909,0.5977779003910854,-0.001047863027391029,-0.004749321574096545,0.32325170785245966
11790,10.0,300.56486,-7776.264,0.0,0.11790003240613345,0.0,0.0,0.0,0.0,0.5017755539613915,1.2551791654265387,0.6068354038299915,0.0033086353644618868,-0.01023788103690019,0.3043281273948477
11791,10.0,300.7946,-7751.8065,0.0,0.1179100283935528,0.0,0.0,0.0,0.0,0.5335985681295785,1.240045363257949,0.5827117124016684,0.018179776863954285,-0.010007400380378522,0.3100560200776467
11792,10.0,300.50083,-7727.4166,0.0,0.11792002438097238,0.0,0.0,0.0,0.0,0.5101635118667185,1.2544328054028788,0.5843453552728964,0.009212503853078341,-0.018142601731035383,0.3065578551674047
11793,10.0,299.67354,-7772.7943,0.0,0.11793002036839173,0.0,0.0,0.0,0.0,0.5234656212995344,1.2549835068322288,0.5842862827920664,0.006716000096142604,-0.01055156908235879,0.32376916454602866
11794,10.0,299.75948999999997,-7850.1754,0.0,0.11794001635581086,0.0,0.0,0.0,0.0,0.5287651625025586,1.2411201176390187,0.6163720529761854,-0.005395399323434454,0.003216833993476797,0.3081243499545057
11795,10.0,299.71636,-7838.5246,0.0,0.11795001234322999,0.0,0.0,0.0,0.0,0.5179869982738365,1.271370800699529,0.5933579413348693,-0.006465642816384264,0.018136084506392182,0.3278464221534227
11796,10.0,299.51937000000004,-7763.9388,0.0,0.11796004132070714,0.0,0.0,0.0,0.0,0.4982683204627545,1.2645669276030387,0.5972083119798713,-0.007367023620543623,0.009104296443099102,0.30778965318147367
11797,10.0,300.23062999999996,-7804.2721,0.0,0.11797003730812627,0.0,0.0,0.0,0.0,0.5244308636097965,1.2667733810207988,0.5810995706975625,0.0016166263490485985,0.02109204915562318,0.32117585224008866
11798,10.0,299.90992,-7904.7183,0.0,0.1179800332955454,0.0,0.0,0.0,0.0,0.5343643014951505,1.2787324679760688,0.5897401926478254,0.008064580858437162,0.005135720548056155,0.3177626280857297
11799,10.0,299.88032000000004,-7807.245,0.0,0.11799002928296476,0.0,0.0,0.0,0.0,0.5218076300284035,1.2513301322716688,0.6000698113222794,-0.0015274600362735688,0.0014496502306193385,0.32595337712409367
11800,10.0,300.74564,-7780.7880000000005,0.0,0.11800002527038411,0.0,0.0,0.0,0.0,0.4937203372564036,1.2671348073314688,0.6043101616657693,-0.004470418911195996,-0.028472227498240073,0.3176445337865747
11801,10.0,300.64267,-7774.7621,0.0,0.11801002125780369,0.0,0.0,0.0,0.0,0.4884981475660135,1.2736940818538187,0.6011413334355304,0.004465415178227166,-0.009058576977386941,0.3083717754964247
11802,10.0,300.56163,-7720.5375,0.0,0.11802001724522282,0.0,0.0,0.0,0.0,0.5074626734601665,1.2450367345755589,0.5943511898778955,0.004949916317593705,-0.006462052972604973,0.3105099662549477
11803,10.0,300.69451000000004,-7785.1079,0.0,0.11803001323264195,0.0,0.0,0.0,0.0,0.5375456534966254,1.2482851130711488,0.5806476206229585,0.0008396743290319042,0.015329689757422585,0.3013584534717637
11804,10.0,299.68059,-7839.0876,0.0,0.11804004221011888,0.0,0.0,0.0,0.0,0.5335244184872605,1.2584391962982788,0.5909232431995834,-0.0072799474400748725,-0.008296693658219913,0.3206990268755297
11805,10.0,299.65501,-7764.1332,0.0,0.11805003819753823,0.0,0.0,0.0,0.0,0.5101606545014364,1.2689973636652887,0.5809446244922705,0.0011610014189819189,0.00845741701028207,0.3324240631902007
11806,10.0,299.63302999999996,-7790.8442,0.0,0.11806003418495736,0.0,0.0,0.0,0.0,0.5072337194675705,1.2734716734568687,0.5875167064958844,0.007826664466056643,-0.0006759019554313294,0.33985195649327665
11807,10.0,299.46547000000004,-7897.017,0.0,0.11807003017237672,0.0,0.0,0.0,0.0,0.5203724423217615,1.268574027773509,0.6115494891252354,0.004861988601740915,0.011851536536655589,0.32857704640302965
11808,10.0,300.06307000000004,-7835.9601,0.0,0.11808002615979607,0.0,0.0,0.0,0.0,0.5267538103915534,1.2703926090529887,0.5847898174292614,0.006175808198154813,-0.005677345688310395,0.3199027744169457
11809,10.0,300.19365,-7810.1499,0.0,0.11809002214721542,0.0,0.0,0.0,0.0,0.5195075320364015,1.266913310859609,0.5876697072609844,-0.008417986078665543,0.016101181423312884,0.31286234795210965
11810,10.0,299.99973,-7809.7331,0.0,0.11810001813463478,0.0,0.0,0.0,0.0,0.5239891169636995,1.2592710746303788,0.5907036921679154,-0.0016906538947295481,0.007671809959898692,0.2993685417328747
11811,10.0,300.38211,-7813.7896,0.0,0.11811001412205391,0.0,0.0,0.0,0.0,0.5110171041484615,1.2643684319084487,0.5998113717517733,-0.018438821344769984,0.0002761347270723757,0.31055377918927174
11812,10.0,300.38998,-7827.5058,0.0,0.11812004309953084,0.0,0.0,0.0,0.0,0.5122392154915746,1.2516884175070289,0.6154386976465704,-0.0042489317612369164,-0.017740936219144084,0.3019631915289467
11813,10.0,299.44006,-7896.2384,0.0,0.11813003908695019,0.0,0.0,0.0,0.0,0.5126794625275235,1.275566669363629,0.6120131726359974,-0.012145263555144187,-0.004404347101325215,0.3151391006618077
11814,10.0,299.5202,-7814.5738,0.0,0.11814003507436932,0.0,0.0,0.0,0.0,0.5336218019543715,1.2612253300982488,0.5805882036370944,0.04493352307334345,-0.0030686738280795273,0.30791018941336973
11815,10.0,299.22493,-7764.1968,0.0,0.1181500310617889,0.0,0.0,0.0,0.0,0.5369822053810175,1.242073180683079,0.5810665488768034,0.002170753070361648,0.002813307242476807,0.3238573679672337
11816,10.0,299.60005,-7833.7786,0.0,0.11816002704920803,0.0,0.0,0.0,0.0,0.5382510984812474,1.2593076529589888,0.5837143335081194,0.025314946266140677,-0.016417065181738185,0.3206566122263437
11817,10.0,299.68074,-7811.1533,0.0,0.11817002303662738,0.0,0.0,0.0,0.0,0.5165123850058035,1.2650702089277088,0.5928129647685845,-0.018304768356539984,0.0016100072927703484,0.3295050517721167
11818,10.0,299.96641,-7734.843000000001,0.0,0.11818001902404673,0.0,0.0,0.0,0.0,0.4795211367150515,1.2699975428389987,0.6016804027537325,0.003017008306805537,0.013713199183887387,0.3262649008673387
11819,10.0,299.2952,-7728.2438,0.0,0.11819001501146587,0.0,0.0,0.0,0.0,0.4993506539545725,1.266357543179759,0.5834849742154834,-0.019076035080908084,0.016989243460207786,0.31699984327794867
11820,10.0,300.07549,-7780.0064,0.0,0.11820001099888522,0.0,0.0,0.0,0.0,0.5182211907694495,1.2457043650664488,0.6010021635342955,-0.005908594084432834,-0.01037296348723179,0.30648226670994466
11821,10.0,300.54994,-7769.4455,0.0,0.11821003997636192,0.0,0.0,0.0,0.0,0.5285474961160764,1.2626386113377288,0.5705312910945545,-0.01086522673031439,0.008602827721532992,0.3049348919522307
11822,10.0,300.32877,-7845.8946,0.0,0.1182200359637815,0.0,0.0,0.0,0.0,0.5116242334758805,1.2786695451448589,0.5946622779235975,0.012751248923200289,-0.008514101057976352,0.3181434784008167
11823,10.0,299.3663,-7963.6767,0.0,0.11823003195120085,0.0,0.0,0.0,0.0,0.5352300122480895,1.2817768792265287,0.6037519621856794,0.0005033859630078266,0.013000820528831088,0.3211972824797037
11824,10.0,299.87479,-7860.7539,0.0,0.11824002793861998,0.0,0.0,0.0,0.0,0.4999266157089155,1.2812009478696886,0.6083453795265145,0.0024298949245119576,-0.027608224071719575,0.3386488841195427
11825,10.0,299.50937999999996,-7791.4732,0.0,0.11825002392603934,0.0,0.0,0.0,0.0,0.5213980946029855,1.2517994697179886,0.5952157353932194,0.007472783828881343,0.001976124140803268,0.32696795458172473
11826,10.0,299.44478,-7762.0354,0.0,0.11826001991345869,0.0,0.0,0.0,0.0,0.5181554511029615,1.2561390172462688,0.5851704853593305,0.0025356587805500375,0.0004086176336099206,0.31667444814083473
11827,10.0,300.02328,-7651.8156,0.0,0.11827001590087782,0.0,0.0,0.0,0.0,0.5271302834662085,1.2400771793110887,0.5587534340521705,-0.0014861734384238985,0.008112880362878952,0.3217878249029857
11828,10.0,300.13867,-7653.7416,0.0,0.1182800118882974,0.0,0.0,0.0,0.0,0.5119391516069606,1.2293434157017487,0.5852637347660334,-0.01018175610061109,-0.020545003532633978,0.3065884553204247
11829,10.0,300.36068,-7761.7068,0.0,0.11829004086577388,0.0,0.0,0.0,0.0,0.5064811380882965,1.2579527349252688,0.5949312248976405,-0.0073362294301294725,0.0030460827078249574,0.3223294374789387
11830,10.0,300.86469,-7913.8184,0.0,0.11830003685319346,0.0,0.0,0.0,0.0,0.4997577677122515,1.2792125458734487,0.6266328922338513,0.005505708416771115,0.0009157993226848561,0.3012013186462557
11831,10.0,300.54462,-8000.081999999999,0.0,0.11831003284061281,0.0,0.0,0.0,0.0,0.5334873841961055,1.2849861462682588,0.6133516557530954,-0.0036248088110907768,0.01041413589179519,0.31495932982906566
11832,10.0,300.06734,-7989.8622,0.0,0.11832002882803194,0.0,0.0,0.0,0.0,0.5390135691814975,1.2835763100791189,0.6061287226802474,0.0005427003100678504,-0.009095525648908491,0.3017987410377167
11833,10.0,299.8992,-7865.861999999999,0.0,0.1183300248154513,0.0,0.0,0.0,0.0,0.5410325409332545,1.2603559615124489,0.5896371045826514,0.0003421390443539947,0.003057599916411617,0.3102913676783737
11834,10.0,299.63462000000004,-7704.8527,0.0,0.11834002080287043,0.0,0.0,0.0,0.0,0.5085903296289576,1.2529158686781687,0.5805766829834574,-0.0031310079609814267,0.0016441005241850885,0.32790191786139966
11835,10.0,300.27623,-7715.9412,0.0,0.11835001679029,0.0,0.0,0.0,0.0,0.5017782492066575,1.2599380971712089,0.5837371316353693,-0.007337160708296383,0.007633530485695804,0.3314190508135137
11836,10.0,299.84346,-7804.1144,0.0,0.11836001277770936,0.0,0.0,0.0,0.0,0.49925922839804954,1.262750575473779,0.6102460948591004,-0.005480655402748574,-0.015164022352822486,0.34533217032163166
11837,10.0,300.09276,-7691.5664,0.0,0.11837004175518584,0.0,0.0,0.0,0.0,0.5073407389431325,1.2434569763446488,0.5872463916342064,0.01176792820465409,0.008891797125502051,0.3209743471927017
11838,10.0,299.68127000000004,-7646.2807,0.0,0.1183800377426052,0.0,0.0,0.0,0.0,0.5029640051361826,1.2467359549932588,0.5745784551739784,0.01013828463157079,-0.005897967421359064,0.32667696941800667
11839,10.0,299.80598,-7842.9294,0.0,0.11839003373002477,0.0,0.0,0.0,0.0,0.5241515612197315,1.2553272012661487,0.6045759169019974,0.004655742759786035,0.0013586316966615088,0.28840228788808975
11840,10.0,299.56731,-7897.3928,0.0,0.1184000297174439,0.0,0.0,0.0,0.0,0.5266370029200255,1.2671170754547187,0.6068561045295344,-0.004724580235804765,-0.016359699014076585,0.3131886144843097
11841,10.0,300.34722999999997,-7901.3652,0.0,0.11841002570486325,0.0,0.0,0.0,0.0,0.5169410201956065,1.2640618224281888,0.6208149418821645,-0.0046036755861724055,0.008493322540825672,0.3038260923678007
11842,10.0,299.75796,-7890.0837,0.0,0.11842002169228238,0.0,0.0,0.0,0.0,0.5186444456012215,1.2775311586575089,0.6022128555487815,0.004847036677965276,0.014424629436850089,0.3192836583408437
11843,10.0,300.27017,-7781.4268,0.0,0.11843001767970174,0.0,0.0,0.0,0.0,0.5225330157749934,1.2499850427639188,0.5928414066988914,-0.014085739834904288,0.0026275272286917476,0.3076208558473147
11844,10.0,300.33584,-7784.6863,0.0,0.11844001366712131,0.0,0.0,0.0,0.0,0.5231561645864935,1.252600342597029,0.5905937342670634,-0.007353608493194653,-0.006296797656820545,0.3126018616164017
11845,10.0,299.77952,-7835.4169999999995,0.0,0.11845004264459802,0.0,0.0,0.0,0.0,0.5320163983634305,1.2518302725210289,0.5979244771505514,-0.020057954474565983,-0.012908284450198489,0.3028487721163467
11846,10.0,299.56125,-7694.5215,0.0,0.11846003863201715,0.0,0.0,0.0,0.0,0.5075913663553675,1.2403037420334488,0.5910473258068295,0.01887689191950418,-0.0002704900830177927,0.3220026947191917
11847,10.0,300.20436,-7611.3867,0.0,0.1184700346194365,0.0,0.0,0.0,0.0,0.47583776995153154,1.253070794618459,0.5847629055066055,-0.004754176764600715,-0.0002529119365729647,0.3343451144522937
11848,10.0,300.047,-7753.0516,0.0,0.11848003060685586,0.0,0.0,0.0,0.0,0.5033357260678685,1.2736943858288488,0.5797039706723274,0.014045114585394886,0.0055635607418306945,0.33789287795493067
11849,10.0,299.28188,-7898.9992,0.0,0.11849002659427521,0.0,0.0,0.0,0.0,0.5289333417541564,1.2689654462871387,0.6031996800861734,0.0006629011257832473,0.0018035662302231283,0.31693340446889173
11850,10.0,299.06753,-7787.0541,0.0,0.11850002258169434,0.0,0.0,0.0,0.0,0.5150600936374735,1.2783028499336688,0.5737070195579744,0.004780920183765086,0.016844238251646885,0.3175694722191667
11851,10.0,298.96306,-7747.3397,0.0,0.1185100185691137,0.0,0.0,0.0,0.0,0.5129657360782764,1.2603684244886788,0.5816636267632304,-0.0019299842776246182,-0.002019966560705178,0.29931518398260876
11852,10.0,299.85281000000003,-7775.2774,0.0,0.11852001455653327,0.0,0.0,0.0,0.0,0.4954055748227235,1.2703015178689987,0.5977831388941024,-0.018544969425245982,-0.0017517817533873985,0.3232253734823607
11853,10.0,299.82329,-7926.1798,0.0,0.11853004353400998,0.0,0.0,0.0,0.0,0.5194400901097455,1.2772252584523187,0.6126953331333214,-0.01100673419953009,-0.0061036305431814335,0.3104868033576617
11854,10.0,300.25411,-7946.4005,0.0,0.11854003952142911,0.0,0.0,0.0,0.0,0.5302460275237085,1.2752097013533987,0.6100515711049025,-0.0035078569514235274,-0.0035699687772534866,0.33799625986263365
11855,10.0,300.00444,-7795.5902,0.0,0.11855003550884846,0.0,0.0,0.0,0.0,0.5366913215423095,1.2514071392792687,0.5815663142236264,0.013854436115326387,-0.0039086348562272265,0.31776157430562574
11856,10.0,299.58288999999996,-7648.3399,0.0,0.11856003149626781,0.0,0.0,0.0,0.0,0.5017936810056806,1.250473327987109,0.5726373415599054,0.003835321246566736,-0.005023158087822105,0.31907144323989967
11857,10.0,300.1298,-7673.7080000000005,0.0,0.11857002748368717,0.0,0.0,0.0,0.0,0.5107014666098105,1.2367094399537188,0.5852047230802094,0.004357201790072336,-0.0037709298106617965,0.3006510731794507
11858,10.0,300.23868,-7869.7553,0.0,0.11858002347110652,0.0,0.0,0.0,0.0,0.5076984466259356,1.2647452596206386,0.6197653667660794,-0.003239368777025807,0.012904948830869288,0.3164245401361707
11859,10.0,299.83693,-7821.0984,0.0,0.11859001945852565,0.0,0.0,0.0,0.0,0.5169465221436494,1.251968885134709,0.6085031830970884,0.002171513615886708,-0.002177792524106388,0.3124954703559017
11860,10.0,300.50275,-7617.9383,0.0,0.118600015445945,0.0,0.0,0.0,0.0,0.47929392551262756,1.2621447532389887,0.5742242938665255,-0.003993931364220336,0.007251296678922264,0.3259942313681257
11861,10.0,300.56787,-7656.3208,0.0,0.11861001143336436,0.0,0.0,0.0,0.0,0.5184811907451095,1.2455776074789386,0.5632714959830685,0.008854495032345621,-0.002956193745078607,0.3199937744084267
11862,10.0,300.51865,-7910.764,0.0,0.11862004041084107,0.0,0.0,0.0,0.0,0.5392577219255935,1.2756086179177688,0.5898083641145534,-0.004045440034378846,0.005066644046338835,0.3081593172154567
11863,10.0,301.05967999999996,-7863.4446,0.0,0.11863003639826042,0.0,0.0,0.0,0.0,0.5354255999148925,1.2601755016696388,0.5946897268688064,0.01029068251286129,-0.015715170625466585,0.30323656319461867
11864,10.0,300.24019,-7793.9537,0.0,0.11864003238567977,0.0,0.0,0.0,0.0,0.49760768139755457,1.2666532095589387,0.6049064492171184,-0.0071865171682290235,-0.011639322448961688,0.3183078680970407
11865,10.0,299.87358,-7784.5104,0.0,0.11865002837309913,0.0,0.0,0.0,0.0,0.5135244624484185,1.2529767650091788,0.5997955650502134,0.007649570944053873,-0.014375647913765987,0.3106645780877067
11866,10.0,300.65671000000003,-7798.8331,0.0,0.11866002436051848,0.0,0.0,0.0,0.0,0.5060950188726896,1.2676956412618188,0.5968598654029825,-0.015403048051412486,0.013273748562516988,0.3305803026457357
11867,10.0,300.12457,-7873.3429,0.0,0.11867002034793761,0.0,0.0,0.0,0.0,0.5401355004872235,1.263987247220829,0.5891769167847345,-0.0015739127910830986,0.005977330843391624,0.3287232786574617
11868,10.0,299.88719,-7694.2876,0.0,0.11868001633535696,0.0,0.0,0.0,0.0,0.5040357602969565,1.2544406074286487,0.5803949160480185,-0.015615096979340087,0.0058991966963803846,0.32765103713663973
11869,10.0,299.5166,-7503.746,0.0,0.11869001232277632,0.0,0.0,0.0,0.0,0.47505831717960556,1.2478033126485988,0.5580897451041694,0.015886632807388584,0.0005654400639795894,0.3193180176517347
11870,10.0,300.08439,-7539.9483,0.0,0.11870004130025302,0.0,0.0,0.0,0.0,0.47007071515236754,1.2449620580431888,0.5769232476278915,4.3501120791226355e-05,0.0015902039275159086,0.3282816434688757
11871,10.0,300.2655,-7736.2445,0.0,0.11871003728767238,0.0,0.0,0.0,0.0,0.5102587067136135,1.2536896877795387,0.5876767290841775,0.008733955760699321,-0.014283794765700786,0.3208220759676737
11872,10.0,300.07812,-7849.3192,0.0,0.11872003327509151,0.0,0.0,0.0,0.0,0.5170340264222856,1.2693504813251386,0.5996125923471555,-0.007565785799909924,-0.007015670231767744,0.33129516072378673
11873,10.0,299.93478,-7811.2033,0.0,0.11873002926251108,0.0,0.0,0.0,0.0,0.5301978880114575,1.2565433040361689,0.5876695350084674,0.016718786743515787,-0.010877226651248689,0.3094067294135667
11874,10.0,300.2665,-7797.3966,0.0,0.11874002524993044,0.0,0.0,0.0,0.0,0.5265171354331954,1.2625971694086389,0.5810995504325605,0.0012041911031694089,0.016135864974235883,0.3199053886022037
11875,10.0,300.59749,-7903.531999999999,0.0,0.11875002123734957,0.0,0.0,0.0,0.0,0.5412417770789045,1.253036749415099,0.6081978807094575,-0.008136510875086102,-0.001256720825453689,0.29340989147230173
11876,10.0,300.28181,-7938.4602,0.0,0.11876001722476892,0.0,0.0,0.0,0.0,0.5244143780306695,1.264788221424879,0.6238911083907583,-0.02527140690934368,-0.0005884283073458523,0.3104437199634097
11877,10.0,300.87252,-7802.691,0.0,0.11877001321218805,0.0,0.0,0.0,0.0,0.5248411083102845,1.2349601649810789,0.6120219473818633,-0.000996917926938139,0.000982019462237775,0.2896913244003077
11878,10.0,300.27822000000003,-7712.3640000000005,0.0,0.11878004218966498,0.0,0.0,0.0,0.0,0.5057064779893435,1.2510710442210988,0.5875885053979704,0.008935357051276082,0.015316552969876086,0.3108694369929247
11879,10.0,300.45493999999997,-7667.3061,0.0,0.11879003817708433,0.0,0.0,0.0,0.0,0.5101949124873175,1.253117302798049,0.5673573358188094,0.016702377158146285,-0.004090793412829876,0.30713668441953074
11880,10.0,300.01349,-7705.0866,0.0,0.11880003416450369,0.0,0.0,0.0,0.0,0.5149972923962755,1.2502454480396188,0.5769112000842024,0.002497303211264638,-0.005055629409801776,0.3346718673445417
11881,10.0,299.67144,-7777.4353,0.0,0.11881003015192304,0.0,0.0,0.0,0.0,0.5069911271286285,1.2708731935754187,0.5862818282015114,0.016628112005316883,-0.008597405718922882,0.31401860817122373
11882,10.0,299.66958999999997,-7655.901999999999,0.0,0.1188200261393424,0.0,0.0,0.0,0.0,0.47798705579864953,1.2619844570731686,0.5872315475202414,0.013753738307138288,0.004898012175921165,0.34546568628730867
11883,10.0,299.88137,-7654.6265,0.0,0.11883002212676153,0.0,0.0,0.0,0.0,0.49098668981161353,1.2480717226000886,0.5877568974320895,0.008290787423387012,-0.0010881517765422189,0.3220558092894337
11884,10.0,299.90238999999997,-7810.6989,0.0,0.11884001811418088,0.0,0.0,0.0,0.0,0.5167381675255864,1.2579799913529588,0.5995392330399154,-0.02072320281447088,-0.000984287582056621,0.3361688025122777
11885,10.0,300.46508,-7934.5692,0.0,0.11885001410160001,0.0,0.0,0.0,0.0,0.5412402166737506,1.267991408966009,0.6026792647023125,-0.016144513063839384,0.0005667700357958474,0.3168628822619317
11886,10.0,301.19293,-7867.1351,0.0,0.11886004307907694,0.0,0.0,0.0,0.0,0.5305282075440575,1.262508408699879,0.5983759712626104,-0.007995915533610422,0.024684393636159974,0.3173041729454837
11887,10.0,300.31023,-7840.5381,0.0,0.11887003906649629,0.0,0.0,0.0,0.0,0.5233158426697525,1.2722811045893687,0.5877308265070164,-0.006859729014877543,-0.002976948957476987,0.3069221084458537
11888,10.0,300.23977,-7745.2333,0.0,0.11888003505391564,0.0,0.0,0.0,0.0,0.5005919055920746,1.243357779159859,0.6104078805025674,0.006644176268104145,-0.008930844541955732,0.3106014323414747
11889,10.0,299.98394,-7794.8161,0.0,0.118890031041335,0.0,0.0,0.0,0.0,0.5181819070630725,1.251944567132309,0.5993030140441024,-0.002043152762743478,-0.012289213970350989,0.3216270221121157
11890,10.0,300.12924,-7879.0931,0.0,0.11890002702875435,0.0,0.0,0.0,0.0,0.5164874185233395,1.2657474652945488,0.6128127384224084,0.014609322638577884,0.005787219692054114,0.3124688421432737
11891,10.0,299.43647000000004,-7870.2872,0.0,0.11891002301617348,0.0,0.0,0.0,0.0,0.5420011877638524,1.2624397103430987,0.5879298794891614,0.007172136210884733,-0.005503738253276675,0.3089739196333517
11892,10.0,299.85659,-7801.496,0.0,0.11892001900359284,0.0,0.0,0.0,0.0,0.5149937764184285,1.268194970911099,0.5882712029178475,0.004826222595736085,-0.006005593529755934,0.31984826156156565
11893,10.0,300.04634,-7846.4627,0.0,0.11893001499101219,0.0,0.0,0.0,0.0,0.5359611735202494,1.243147935064149,0.6060196463069825,0.00974501126230773,-0.005590593038598574,0.30225406523515375
11894,10.0,300.3578,-8083.7303,0.0,0.11894001097843154,0.0,0.0,0.0,0.0,0.5286143402251735,1.2915269796387887,0.6371108507229454,0.0027479086359724673,-0.003822334521360046,0.31563750825349673
11895,10.0,300.17732,-8027.0518,0.0,0.11895003995590825,0.0,0.0,0.0,0.0,0.5406927373797185,1.278470948125259,0.6208596059465724,0.007108198204399544,-0.006036318312538235,0.3086882135026547
11896,10.0,299.88565,-7795.8240000000005,0.0,0.1189600359433276,0.0,0.0,0.0,0.0,0.5066865036185645,1.2534583627817089,0.6095909780069454,-0.012663137707754388,-0.0051287096679642355,0.31514965872784967
11897,10.0,299.61085,-7735.6214,0.0,0.11897003193074696,0.0,0.0,0.0,0.0,0.5145460617292424,1.266929016236159,0.5699606793007395,-0.0004516439717487896,0.0008368803830736633,0.3081384239983947
11898,10.0,300.13622999999995,-7767.0216,0.0,0.11898002791816609,0.0,0.0,0.0,0.0,0.4980941123730615,1.2687387822397687,0.5941477697878194,-0.01071228777347049,0.00947004467074564,0.3186160481149557
11899,10.0,300.51718,-7802.198,0.0,0.11899002390558544,0.0,0.0,0.0,0.0,0.5128756581443865,1.2771938476992186,0.5816038754048335,0.005030485912545305,0.011561416688522988,0.3216570244475767
11900,10.0,300.70078,-7739.5901,0.0,0.1190000198930048,0.0,0.0,0.0,0.0,0.4760308447580865,1.2715328193905187,0.6050784585540944,-0.007881220080590863,0.004421265540894936,0.34194304125465064
11901,10.0,300.27693,-7660.8676,0.0,0.11901001588042415,0.0,0.0,0.0,0.0,0.4970029332078705,1.2444624244188789,0.5872470907767754,0.007122188959130323,-0.013611561079606486,0.34447441358197767
11902,10.0,300.08088,-7715.7209,0.0,0.1190200118678435,0.0,0.0,0.0,0.0,0.49609444303570954,1.258008058380729,0.5912840007651874,-0.003069694069605217,-0.01864038718716298,0.3393164234179237
11903,10.0,300.25654,-7890.5747,0.0,0.11903004084532043,0.0,0.0,0.0,0.0,0.5373757517198575,1.2759152273980288,0.5852467425618565,0.008503382898418552,-0.015665688556833087,0.3253460147491517
11904,10.0,300.29503,-7936.4222,0.0,0.11904003683273956,0.0,0.0,0.0,0.0,0.5263022757494905,1.2707806838412887,0.6153912370118864,0.005454110276628775,-0.012422565789511788,0.30513264797424766
11905,10.0,299.68361,-7842.2617,0.0,0.11905003282015891,0.0,0.0,0.0,0.0,0.5216081616137175,1.257706413825959,0.6045371600856724,0.01164386079615959,-0.0016907395143629983,0.3108061291266767
11906,10.0,299.44637,-7808.9283,0.0,0.11906002880757804,0.0,0.0,0.0,0.0,0.5002670069475096,1.267752383267419,0.6056998443104203,0.0031978982742829867,0.002340959531434718,0.2960216955925667
11907,10.0,299.19448,-7854.9918,0.0,0.1190700247949974,0.0,0.0,0.0,0.0,0.5238147771514935,1.262730614446809,0.6011759865889504,-0.008425677660174642,0.01216961600804759,0.3080906492561797
11908,10.0,299.64369,-7900.1793,0.0,0.11908002078241675,0.0,0.0,0.0,0.0,0.5278278048350485,1.271449327582279,0.6021800465105435,-0.008541791460684182,0.00014423040660693288,0.31178363176314866
11909,10.0,300.40297999999996,-7878.5226,0.0,0.1190900167698361,0.0,0.0,0.0,0.0,0.5377357898778905,1.259011986579809,0.5981263469679744,-0.004066369120494386,0.005855608399603555,0.30686909520062167
11910,10.0,300.00112,-7746.1922,0.0,0.11910001275725546,0.0,0.0,0.0,0.0,0.5013282952347505,1.2559640289539988,0.5973566416620104,-0.00035587314283444467,-0.003564340882223057,0.32980272438649466
11911,10.0,300.21266,-7624.342,0.0,0.11911004173473216,0.0,0.0,0.0,0.0,0.48605326626722256,1.2499156351320688,0.5816406563834635,0.0007605128376117733,-0.004439880971732136,0.3153670718018067
11912,10.0,299.98964,-7750.5814,0.0,0.11912003772215152,0.0,0.0,0.0,0.0,0.5064775410504415,1.2503935852042387,0.5991121379902644,-0.005978592846391175,-0.005126926246463224,0.33535387585435067
11913,10.0,299.82826,-7882.111999999999,0.0,0.11913003370957087,0.0,0.0,0.0,0.0,0.5294558748307264,1.2762697636080187,0.5902395628271093,-0.001076879977129779,-0.0010277604493820589,0.3106431985105967
11914,10.0,299.53312,-7731.9438,0.0,0.11914002969699,0.0,0.0,0.0,0.0,0.5140270750280226,1.2603406614359387,0.5759501019668495,0.008552286198594931,-0.00094911806625316,0.33091212178848367
11915,10.0,299.58779,-7728.1481,0.0,0.11915002568440913,0.0,0.0,0.0,0.0,0.5065876306738065,1.2628580813093886,0.5797183689562484,-0.002289584204989368,9.80362311964227e-05,0.3171344028912287
11916,10.0,299.3823,-7880.6184,0.0,0.11916002167182871,0.0,0.0,0.0,0.0,0.5036150081929315,1.281400760789409,0.6104954557087104,0.020611122154659378,-0.016445678351312085,0.3175500583472507
11917,10.0,299.57849,-7881.6125,0.0,0.11917001765924806,0.0,0.0,0.0,0.0,0.5106664182888515,1.268223139263879,0.6169238689806453,-0.012054957639981687,-0.008034458148864283,0.3157559673226877
11918,10.0,300.08342000000005,-7812.4162,0.0,0.11918001364666742,0.0,0.0,0.0,0.0,0.49928088155268646,1.2754113381232988,0.6000872392239994,0.01119604072896319,0.004787955685834435,0.3231491264123357
11919,10.0,300.76971000000003,-7780.7319,0.0,0.11919004262414412,0.0,0.0,0.0,0.0,0.5133054180418005,1.2617675202267589,0.5900752947208974,-0.01889904460644048,0.008375995373321383,0.3220182683732287
11920,10.0,300.08263999999997,-7712.3592,0.0,0.11920003861156347,0.0,0.0,0.0,0.0,0.5067523750075655,1.2626190556107988,0.5749931683074074,-0.0026286462621021877,0.008511782133797491,0.3203450378205937
11921,10.0,300.01534,-7692.9608,0.0,0.11921003459898283,0.0,0.0,0.0,0.0,0.5166332758752346,1.242035487779359,0.5797992161817275,-0.017837551642679285,0.0026577842952278876,0.3215542808874367
11922,10.0,300.27184,-7836.5188,0.0,0.11922003058640196,0.0,0.0,0.0,0.0,0.5174466725255105,1.266912500259529,0.5977468848055244,0.017242621846464284,-0.0025278494593793176,0.3173085501859157
11923,10.0,300.0225,-7902.0012,0.0,0.11923002657382131,0.0,0.0,0.0,0.0,0.5396615628854495,1.2572848004593487,0.6050647188827384,0.005341852298049775,-0.009037272178134322,0.3127008257536687
11924,10.0,299.60958999999997,-7853.8461,0.0,0.11924002256124067,0.0,0.0,0.0,0.0,0.5173664535150935,1.2577274894280386,0.6122791305222454,0.013137998380369487,-0.01978691615231658,0.30941441998182573
11925,10.0,300.11786,-7892.0734,0.0,0.11925001854866002,0.0,0.0,0.0,0.0,0.5428387504290134,1.2664469118385788,0.5897075457296034,-0.012207757781561886,0.005710162325924145,0.3098841829931877
11926,10.0,300.01007999999996,-7946.1849,0.0,0.11926001453607937,0.0,0.0,0.0,0.0,0.5364240059009275,1.2728468021201989,0.6061709346794134,0.005795377976559274,0.011882146822176589,0.3183392079226337
11927,10.0,299.99955,-7864.3942,0.0,0.11927004351355608,0.0,0.0,0.0,0.0,0.5260872032832645,1.2663041448994887,0.5981880944290684,-0.010235088519624591,0.016008914869206883,0.3126691110255387
11928,10.0,300.13811,-7713.8765,0.0,0.11928003950097543,0.0,0.0,0.0,0.0,0.4932418400291795,1.2655274886978387,0.5860565523067784,0.011704481523142388,-0.00016732788846647684,0.3245439867649977
11929,10.0,300.25566000000003,-7732.2543,0.0,0.11929003548839479,0.0,0.0,0.0,0.0,0.5024143676194375,1.255473109280549,0.5925247356451384,-0.013345591034357288,0.002737268901972407,0.3080275643049537
11930,10.0,300.06743,-7792.8541,0.0,0.11930003147581392,0.0,0.0,0.0,0.0,0.4948721999700835,1.2699654228108288,0.6039954664497115,0.005654423539248155,-0.0003282409412123587,0.3287861305611647
11931,10.0,300.1604,-7871.9466,0.0,0.11931002746323327,0.0,0.0,0.0,0.0,0.5232285005111325,1.2809515870200787,0.5886951163621844,-0.015666272188890686,0.008033581180902732,0.3323997350552997
11932,10.0,300.15352,-7959.6493,0.0,0.11932002345065262,0.0,0.0,0.0,0.0,0.5290434516425235,1.2761864744497988,0.6143047086646545,0.0037249678742007067,6.130028646711724e-05,0.3323838776912347
11933,10.0,300.47541,-7770.8708,0.0,0.11933001943807198,0.0,0.0,0.0,0.0,0.5216439597397504,1.2575424699597788,0.5829642852540955,-0.012397301411518388,0.01118032420666209,0.32786543072529867
11934,10.0,300.31664,-7704.3781,0.0,0.11934001542549133,0.0,0.0,0.0,0.0,0.4951340035309215,1.259415969394679,0.5873885404907354,0.0064132039826339535,0.0006262394269550194,0.3184088992645117
11935,10.0,299.69638,-7884.0928,0.0,0.11935001141291046,0.0,0.0,0.0,0.0,0.5283264049442564,1.2644147374380188,0.6038262334180093,0.009066819766950441,-0.006075192868524854,0.3229477530874617
11936,10.0,300.30987999999996,-7942.7633,0.0,0.11936004039038717,0.0,0.0,0.0,0.0,0.5177644581543734,1.2815080639749987,0.6151292206685274,-0.004481536291293196,-0.013387829378025887,0.30530622784887873
11937,10.0,300.12534,-7858.4806,0.0,0.11937003637780674,0.0,0.0,0.0,0.0,0.5338329024802054,1.2639412456662886,0.5910076874629174,0.006121297977225074,-0.0018366535069385883,0.3185836038467537
11938,10.0,300.11447000000004,-7793.766,0.0,0.11938003236522587,0.0,0.0,0.0,0.0,0.5108840238803275,1.2728501458455288,0.5853760940696224,-0.01076251052792709,0.008851253746600733,0.3119253854521387
11939,10.0,300.01981,-7829.3757,0.0,0.11939002835264523,0.0,0.0,0.0,0.0,0.5291839792988925,1.269423840632379,0.5813268629599945,-0.007795838256939333,0.022730897092614877,0.3290464649093577
11940,10.0,299.35051,-7984.4841,0.0,0.11940002434006458,0.0,0.0,0.0,0.0,0.5317623360333564,1.269678673032529,0.6256427645011334,-0.014715817250588086,-0.0005761042173070594,0.3160155619983077
11941,10.0,299.9902,-7917.7277,0.0,0.11941002032748371,0.0,0.0,0.0,0.0,0.5300479269966575,1.2736637856758288,0.6030798531293474,-0.004732862238147136,0.009156583188009403,0.31560555034534266
11942,10.0,300.17112000000003,-7667.4116,0.0,0.11942001631490329,0.0,0.0,0.0,0.0,0.4869401134172475,1.2371288241701088,0.6066327031474864,-0.003080465424793267,0.005020017519137155,0.3114585000710607
11943,10.0,300.06931000000003,-7607.6634,0.0,0.11943001230232242,0.0,0.0,0.0,0.0,0.4974524210847316,1.2408909204663987,0.5741963990912725,-0.006795239699012944,-0.0027167825048255573,0.3264710364676827
11944,10.0,300.26192000000003,-7792.1521,0.0,0.11944004127979913,0.0,0.0,0.0,0.0,0.5090366460330055,1.2649856025443589,0.5945973893871934,-0.00878374818783845,-0.00964780602588932,0.33303432346042866
11945,10.0,300.58575,-7985.0563,0.0,0.11945003726721848,0.0,0.0,0.0,0.0,0.5450589435181294,1.2802647047772888,0.6019340293862634,-0.008648599166975282,0.0013695488585389489,0.3148254186958497
11946,10.0,300.04262,-7883.8676,0.0,0.11946003325463805,0.0,0.0,0.0,0.0,0.5175539858436015,1.2787593191037188,0.6001856258087095,0.012727450718101588,0.006358053691616045,0.32160914838035165
11947,10.0,299.91364,-7641.5285,0.0,0.11947002924205719,0.0,0.0,0.0,0.0,0.4897799697375196,1.2555745356155588,0.5774793192827715,-0.0013919105789708787,0.003017509156329967,0.3195625756958707
11948,10.0,300.17205,-7779.8135,0.0,0.11948002522947654,0.0,0.0,0.0,0.0,0.5007333147760306,1.2651783227133788,0.5989574450974974,0.008414777115598841,-0.00871313975329494,0.3196207362516107
11949,10.0,300.04832999999996,-7972.8727,0.0,0.11949002121689567,0.0,0.0,0.0,0.0,0.5336070794304185,1.2777599505300885,0.6121871578106683,-0.013196854025678089,-0.0040517438685509855,0.3151448052598707
11950,10.0,299.93975,-7934.0234,0.0,0.11950001720431525,0.0,0.0,0.0,0.0,0.5236616142663776,1.2859899731423288,0.6020934440244965,0.009411448620112662,0.008492275448172333,0.3225021864884877
11951,10.0,299.63672,-7733.8962,0.0,0.11951001319173438,0.0,0.0,0.0,0.0,0.4996661395057085,1.2565198979588588,0.5947253324773204,-0.0037114254826391764,0.01090534535477379,0.3287731609598847
11952,10.0,299.99277,-7615.1734,0.0,0.11952004216921108,0.0,0.0,0.0,0.0,0.4869177611200416,1.239895706218179,0.5880090345869734,-0.001093449656015079,-0.0017526680432498683,0.3190526981130497
11953,10.0,300.03403,-7755.204000000001,0.0,0.11953003815663044,0.0,0.0,0.0,0.0,0.5060493922206865,1.2553038965138488,0.5960351203515865,-0.01835386944313588,0.003074318036436567,0.32016018047234973
11954,10.0,299.8908,-7934.3521,0.0,0.11954003414404979,0.0,0.0,0.0,0.0,0.5349753622329575,1.2693834119533889,0.6074861941042193,0.003141162145533567,0.016494022540083284,0.30319806982331976
11955,10.0,300.10935,-7878.2832,0.0,0.11955003013146914,0.0,0.0,0.0,0.0,0.5356817900701766,1.2648063586016687,0.5943132233966484,-0.004761100809159066,0.006627128943121703,0.3170750467003707
11956,10.0,300.31136000000004,-7739.0976,0.0,0.1195600261188885,0.0,0.0,0.0,0.0,0.5170626203401075,1.2527493916867387,0.5826804536360835,-0.0028307414263474273,-0.01086591270063209,0.3140940345086677
11957,10.0,300.74715,-7768.6945,0.0,0.11957002210630763,0.0,0.0,0.0,0.0,0.5001171067277155,1.2667788525713386,0.5945931843992784,0.0025690976550501975,-0.012894414069579588,0.32143137365030666
11958,10.0,300.66532,-7965.106,0.0,0.11958001809372698,0.0,0.0,0.0,0.0,0.5231875854720945,1.2716285715249687,0.6263771884386155,0.017876109861984683,0.008071083694928942,0.3098409374789197
11959,10.0,300.1198,-7989.2275,0.0,0.11959001408114656,0.0,0.0,0.0,0.0,0.5223642488383375,1.2787748218302488,0.6273866287182395,0.013630646658490087,0.003537198749144337,0.32479201012447567
11960,10.0,299.65362000000005,-7710.0667,0.0,0.11960004305862304,0.0,0.0,0.0,0.0,0.5012522102847415,1.251047840793809,0.5913677154884495,0.005154453515904956,-0.0006819654973422544,0.3178001791344357
11961,10.0,300.53852,-7592.5257,0.0,0.1196100390460424,0.0,0.0,0.0,0.0,0.4944989794282495,1.2365342490114288,0.5769050395235944,-0.01121059201364929,-0.007614299910722893,0.31182626932735674
11962,10.0,300.02349,-7748.6889,0.0,0.11962003503346175,0.0,0.0,0.0,0.0,0.5061855325041225,1.2662423366433888,0.5829800412931504,-0.010942655249955989,0.01128430595842429,0.31454849744351976
11963,10.0,300.06535,-7864.0801,0.0,0.1196300310208811,0.0,0.0,0.0,0.0,0.5242206243465475,1.2600425632565189,0.6062207561868305,-0.012260586615275687,0.014340462804043486,0.3213673869064917
11964,10.0,299.57827000000003,-7898.5858,0.0,0.11964002700830045,0.0,0.0,0.0,0.0,0.5254822929735645,1.2713385793463488,0.6041519629276564,-0.017366497750689883,0.003938589568933526,0.32454064303966773
11965,10.0,300.14681,-7768.4509,0.0,0.11965002299571958,0.0,0.0,0.0,0.0,0.5191675562303485,1.2600422592814888,0.5822052900016884,0.0010710932044836689,-0.001022998984512139,0.32221557856520167
11966,10.0,300.11496,-7713.9515,0.0,0.11966001898313894,0.0,0.0,0.0,0.0,0.5101233871627585,1.2641251505594386,0.5706001110413464,0.003180811229896627,0.010469434016002688,0.3205068943915677
11967,10.0,300.33844,-7840.4231,0.0,0.11967001497055829,0.0,0.0,0.0,0.0,0.5326545128789075,1.2719752043841788,0.5786630892421005,0.008490652525487162,0.0077278470474041235,0.3255753639092867
11968,10.0,300.1318,-7940.3126,0.0,0.119680043948035,0.0,0.0,0.0,0.0,0.5260381113159196,1.2771395374938588,0.6104791221170984,0.000938003584051246,-0.016327610396659684,0.31354178280666467
11969,10.0,300.72091,-7736.1042,0.0,0.11969003993545457,0.0,0.0,0.0,0.0,0.49575581485228953,1.2667391331674187,0.5890875379934135,0.007355623746318544,-0.024205976455693876,0.32165989194535966
11970,10.0,300.24202,-7580.9647,0.0,0.1197000359228737,0.0,0.0,0.0,0.0,0.47957281247015154,1.2334310692551689,0.5914201106511204,0.009598942647766881,0.0010768498836018089,0.3062934982163147
11971,10.0,300.81904,-7615.6012,0.0,0.11971003191029306,0.0,0.0,0.0,0.0,0.49281118847167754,1.236279720586309,0.5858617347100514,0.013049538606889186,0.014516422803159386,0.3233648980211307
11972,10.0,300.92416000000003,-7801.8572,0.0,0.11972002789771241,0.0,0.0,0.0,0.0,0.5273649015268634,1.2504781915875887,0.5937267441062675,-0.017339606093035885,-0.0063317869052987134,0.3088139983700687
11973,10.0,300.10452000000004,-7949.7183,0.0,0.11973002388513154,0.0,0.0,0.0,0.0,0.5499817178039694,1.2574786352034788,0.6090555158590995,-0.005317546758626004,-0.016799096946441786,0.32362487773178866
11974,10.0,299.73272000000003,-7902.1074,0.0,0.1197400198725509,0.0,0.0,0.0,0.0,0.5309444506851375,1.2747805899360487,0.5963183338870375,-0.005396989619466405,0.008137635684022112,0.3061793251950467
11975,10.0,300.3908,-7820.7341,0.0,0.11975001585997025,0.0,0.0,0.0,0.0,0.5163916967863925,1.268376950629059,0.5925392048565664,0.014683670877915486,0.00011069411824215888,0.3278801735142537
11976,10.0,299.70173,-7933.004,0.0,0.1197600118473896,0.0,0.0,0.0,0.0,0.5323381255351824,1.2668100606744186,0.6122869325480154,-0.016250302453779984,0.0056457935868214435,0.3042528226474157
11977,10.0,300.11508,-7905.8058,0.0,0.11977004082486653,0.0,0.0,0.0,0.0,0.5302508505941844,1.2642064132174589,0.6087102508875244,0.009910013873517219,-0.003883513245172916,0.3096301105306127
11978,10.0,299.70971000000003,-7728.706,0.0,0.11978003681228566,0.0,0.0,0.0,0.0,0.5095160349203175,1.256993592380609,0.5828240210427524,-0.0044568807752848865,0.016157677209138587,0.3074523320906827
11979,10.0,299.96193,-7579.931,0.0,0.1197900327997048,0.0,0.0,0.0,0.0,0.4864715967035086,1.2451680517885186,0.5724701046309005,0.008536663908553132,0.02066379596110788,0.32856237454158166
11980,10.0,300.02724,-7743.3027,0.0,0.11980002878712437,0.0,0.0,0.0,0.0,0.5059971895755345,1.271298353317379,0.5764751276386655,-0.01172019905869359,-0.0033321072017033766,0.3241128995099527
11981,10.0,299.96308999999997,-7924.4411,0.0,0.1198100247745435,0.0,0.0,0.0,0.0,0.5278290308676695,1.270774806990709,0.6102284136448555,0.003969653993149346,-0.02091778939017508,0.3220513915189977
11982,10.0,300.33407,-7889.1734,0.0,0.11982002076196308,0.0,0.0,0.0,0.0,0.5131405014555245,1.2766370667692688,0.6083341425829054,0.006328297677254354,0.0035361444624152864,0.3252588245780467
11983,10.0,300.23149,-7782.5303,0.0,0.1198300167493822,0.0,0.0,0.0,0.0,0.5168546000945775,1.2584933038536188,0.5903470180002144,0.02268926973875658,0.0012187251626038088,0.3236617195054247
11984,10.0,299.95727,-7800.4332,0.0,0.11984001273680156,0.0,0.0,0.0,0.0,0.5230111786296845,1.2584275439221289,0.5896982238286834,-0.00943427825944077,-0.0016545706401184083,0.3261637582423567
11985,10.0,300.33955,-7808.9892,0.0,0.11985004171427849,0.0,0.0,0.0,0.0,0.5201860043033615,1.2622269278220988,0.5913248043467145,-0.012778028110093188,-0.016538561974728985,0.3282963862578307
11986,10.0,300.46151000000003,-7895.6299,0.0,0.11986003770169762,0.0,0.0,0.0,0.0,0.5274564689384005,1.2692440900646387,0.6033738071158584,-0.0026718378714648675,0.00889247367259382,0.3208670237421097
11987,10.0,299.83311000000003,-7828.0919,0.0,0.11987003368911675,0.0,0.0,0.0,0.0,0.5062444023349325,1.274480262606409,0.5988198254689154,0.01195549599691559,0.013853348897969088,0.3094969289374687
11988,10.0,300.18631,-7607.6034,0.0,0.11988002967653633,0.0,0.0,0.0,0.0,0.4964783432335975,1.240433032746209,0.5756101058957944,0.002733357148636347,0.005527807502777125,0.30753462826380473
11989,10.0,299.40285,-7750.342,0.0,0.11989002566395568,0.0,0.0,0.0,0.0,0.5026184361895776,1.246679618287699,0.6066123874829814,-0.00950158542383347,-0.009775811025597431,0.29385080725331675
11990,10.0,300.12703,-7942.9542,0.0,0.11990002165137503,0.0,0.0,0.0,0.0,0.5443221789729165,1.2670429055473988,0.6030946769783104,-0.003766977628646746,0.014139759237485587,0.3091382687995717
11991,10.0,300.0537,-8013.4913,0.0,0.11991001763879416,0.0,0.0,0.0,0.0,0.5184942515388985,1.2971727078709787,0.6202343191773615,0.0045574171727320555,0.008719355637358402,0.3279427011779247
11992,10.0,300.22115,-7866.4349,0.0,0.1199200136262133,0.0,0.0,0.0,0.0,0.5374105771257944,1.2692641524166188,0.5845250349131295,0.0025722566648869673,0.005556393618573355,0.3304083946337697
11993,10.0,299.79084,-7710.4235,0.0,0.11993004260369045,0.0,0.0,0.0,0.0,0.5091366335528735,1.2504949102142386,0.5841446608255895,0.0022504008103722676,-0.018611580486819983,0.3304126908141937
11994,10.0,300.32908,-7705.9559,0.0,0.11994003859110958,0.0,0.0,0.0,0.0,0.5258350559958794,1.2443027362031187,0.5722803938146775,0.009015333084319102,-0.0036383554583027263,0.3169595767189747
11995,10.0,300.18625,-7868.2376,0.0,0.11995003457852871,0.0,0.0,0.0,0.0,0.5048477586620945,1.2817196305958787,0.6051803611166514,0.003129985186330487,-0.005950553682998925,0.3166347591344177
11996,10.0,300.44972,-7896.1391,0.0,0.11996003056594806,0.0,0.0,0.0,0.0,0.5215582286487895,1.2840183910977487,0.5946525000601324,-0.004943098765620865,-0.0005364664712126186,0.3155611193284577
11997,10.0,300.12551,-7767.3377,0.0,0.11997002655336764,0.0,0.0,0.0,0.0,0.4829367116096425,1.2708919387022686,0.6072480701982184,-0.008552505161941542,-0.012057769409009187,0.33438325318605766
11998,10.0,300.46013999999997,-7675.9414,0.0,0.11998002254078699,0.0,0.0,0.0,0.0,0.5008625548262855,1.2573946367701887,0.5750372852167615,-0.015868699293868683,0.014500888665876286,0.3353933014157417
11999,10.0,299.95621,-7886.4501,0.0,0.11999001852820612,0.0,0.0,0.0,0.0,0.5029852935207836,1.292747338059229,0.6015513045584914,0.003935449202898596,0.012583558058150488,0.3254967964965327
12000,10.0,299.9897,-8001.1039,0.0,0.12000001451562525,0.0,0.0,0.0,0.0,0.5339017325594985,1.2885840960483488,0.6096499390302644,6.871226161112224e-05,-0.006099328789881884,0.3194990449146007
12001,10.0,300.02853999999996,-7901.9341,0.0,0.1200100434931024,0.0,0.0,0.0,0.0,0.5182624300485195,1.2682608321675988,0.6154673928894024,0.012685667323727888,-0.01160352432292869,0.3025041252273327
12002,10.0,299.60587999999996,-7815.6203,0.0,0.12002003948052153,0.0,0.0,0.0,0.0,0.5280873387156625,1.2503886202787489,0.5972774257691924,0.0005557687437626046,0.006069645020252324,0.3086250677564227
12003,10.0,299.5816,-7874.7979,0.0,0.12003003546794067,0.0,0.0,0.0,0.0,0.5134532816288935,1.2719206915287986,0.6083679648712433,0.009525652140208672,0.0014746048580571687,0.3181644526778867
12004,10.0,300.36361,-7971.4451,0.0,0.12004003145536002,0.0,0.0,0.0,0.0,0.5431594136881605,1.274401735723659,0.6055591140040314,-0.023934330183384478,0.0025279325458875176,0.3120132950308147
12005,10.0,300.32441,-7996.9066,0.0,0.12005002744277937,0.0,0.0,0.0,0.0,0.5423388736246796,1.2619550728202689,0.6265659265347424,-0.0008783150674254483,-0.0019962243883370084,0.3106012904864607
12006,10.0,300.23835,-7825.1088,0.0,0.12006002343019895,0.0,0.0,0.0,0.0,0.5315802549903865,1.259800801782659,0.5872566761227215,-0.006296363985777744,0.012264340706896188,0.30770863370347773
12007,10.0,300.39782,-7667.3622,0.0,0.12007001941761808,0.0,0.0,0.0,0.0,0.4969140509090985,1.2535400307397686,0.5802325427194935,0.007208374999386222,-0.0021772849871312975,0.3134785357354227
12008,10.0,299.91181,-7808.329000000001,0.0,0.12008001540503721,0.0,0.0,0.0,0.0,0.5052817336799246,1.2797490618013987,0.5885062870735485,-0.005319546205048335,-0.020687672186464282,0.3161834068773727
12009,10.0,300.19535,-7893.1678,0.0,0.12009001139245656,0.0,0.0,0.0,0.0,0.5176843303364655,1.2752125384536788,0.6064289892148814,0.004054550064702936,-0.014161089165340687,0.3261745290909197
12010,10.0,300.21704,-7822.1691,0.0,0.12010004036993349,0.0,0.0,0.0,0.0,0.5214329402739245,1.2655050958706289,0.5908060608255185,0.0016976616337461582,0.003554823424033757,0.3245626913618437
12011,10.0,299.7645,-7702.210999999999,0.0,0.12011003635735262,0.0,0.0,0.0,0.0,0.4895318551855325,1.2745649703147688,0.5771830246885294,0.0044094057524494655,0.008353189241395591,0.3438198641498787
12012,10.0,299.86045,-7754.2914,0.0,0.1201200323447722,0.0,0.0,0.0,0.0,0.5141541771205665,1.2678970753816987,0.5750596577789694,-0.012825839329311788,-0.0005570825035772624,0.3195025710249487
12013,10.0,299.73004,-7817.2553,0.0,0.12013002833219133,0.0,0.0,0.0,0.0,0.5182268953675125,1.2559126571739287,0.6021108921912184,-0.00992322513494607,0.0009592413061472459,0.3209230970026437
12014,10.0,299.94596,-7877.2516,0.0,0.12014002431961068,0.0,0.0,0.0,0.0,0.5207105334826285,1.2692583768910488,0.6045188911863694,0.010304641046238891,0.005824197241203515,0.3089772126961767
12015,10.0,300.10468,-7820.3599,0.0,0.12015002030703004,0.0,0.0,0.0,0.0,0.5028791454403075,1.266446405213529,0.6078685744269574,0.010418703623245991,-0.006883910633814083,0.32076884993992066
12016,10.0,300.04077,-7800.6477,0.0,0.12016001629444917,0.0,0.0,0.0,0.0,0.5131461655235835,1.278752125028009,0.5793038382078375,0.0066739280268154145,-0.016275766442043083,0.3185152601275087
12017,10.0,299.49631,-7847.4479,0.0,0.12017001228186852,0.0,0.0,0.0,0.0,0.5115951531980105,1.271814300268299,0.6020187877571285,0.0018859848039572082,-0.007379969917071323,0.31746400301625766
12018,10.0,299.87891,-7914.1113,0.0,0.12018004125934545,0.0,0.0,0.0,0.0,0.5514429156406785,1.2570308799842886,0.5972184343483704,0.0013214958778464889,0.011420021690068387,0.3087450061707597
12019,10.0,300.17208,-7822.9611,0.0,0.1201900372467648,0.0,0.0,0.0,0.0,0.5117491368157076,1.2688121415470088,0.5974235870961174,-0.0013453690634525886,0.005527031555850545,0.3093791892758487
12020,10.0,300.7167,-7608.8055,0.0,0.12020003323418416,0.0,0.0,0.0,0.0,0.5026068243434315,1.2314537116850188,0.5788263643632144,-0.002825304731610867,-0.01202045039457609,0.3060889128886237
12021,10.0,300.57097999999996,-7702.7349,0.0,0.12021002922160329,0.0,0.0,0.0,0.0,0.5113984712210995,1.237408379872699,0.5926322212157464,-0.004596511603990376,-0.0012375069691074286,0.3123092755175257
12022,10.0,300.32414,-7920.1895,0.0,0.12022002520902264,0.0,0.0,0.0,0.0,0.5487590289082994,1.2561766088249788,0.6026041626049005,0.006509838353946025,0.0072324674523139626,0.31305263632088975
12023,10.0,300.11871,-7853.701,0.0,0.120230021196442,0.0,0.0,0.0,0.0,0.5135576666541956,1.2735300366626288,0.6002413444317084,-0.005968268334497224,0.002138032387532368,0.32635108792084466
12024,10.0,300.30536,-7751.7807,0.0,0.12024001718386113,0.0,0.0,0.0,0.0,0.5241789189724315,1.256432758450259,0.5757360528832245,0.017226225433346086,-0.014062574911118087,0.3251448136767947
12025,10.0,300.04325,-7825.3722,0.0,0.1202500131712807,0.0,0.0,0.0,0.0,0.5023753068280825,1.269581097047899,0.6067613453801824,0.01153754046316659,-0.004955098990530195,0.3288055646980827
12026,10.0,299.56917000000004,-7846.3374,0.0,0.1202600421487574,0.0,0.0,0.0,0.0,0.5287826714642866,1.2723573009968887,0.5839506740939445,0.019366001928275582,-0.003269984027472297,0.3253856632255647
12027,10.0,299.35517000000004,-7898.4184,0.0,0.12027003813617676,0.0,0.0,0.0,0.0,0.5102702172347495,1.288338686874129,0.6023130558511705,-0.014930202733246285,0.0013406863281154387,0.3261573950317287
12028,10.0,299.48075,-7808.3247,0.0,0.12028003412359611,0.0,0.0,0.0,0.0,0.5093797831793705,1.2812379314983386,0.5829179999895274,-0.006911617957798583,-0.01071946462392879,0.3370719731214137
12029,10.0,299.46566,-7635.5054,0.0,0.12029003011101524,0.0,0.0,0.0,0.0,0.4683873622312336,1.2604010511418988,0.5922146203195324,-0.016870449005233684,0.01084054294462829,0.3264074347589057
12030,10.0,300.09069,-7705.6743,0.0,0.1203000260984346,0.0,0.0,0.0,0.0,0.5133914733727936,1.257786967208909,0.5711541055335215,-0.000992848836126551,0.02102720621547368,0.33142045923115265
12031,10.0,300.22897,-7850.3359,0.0,0.12031002208585395,0.0,0.0,0.0,0.0,0.5042434563024545,1.2679957659414387,0.6140668178061764,-0.017865184999406484,0.013203991359382489,0.3170074933162037
12032,10.0,300.07541000000003,-7771.9821,0.0,0.1203200180732733,0.0,0.0,0.0,0.0,0.5348598010590525,1.2480436555723189,0.5795849948455855,-0.0024471436836142777,-0.010347215788940689,0.3284077525763217
12033,10.0,300.08279,-7773.6454,0.0,0.12033001406069266,0.0,0.0,0.0,0.0,0.5154316524491435,1.2414671557982688,0.6060953259569515,-0.004817530328428225,-0.006536762334278213,0.3128192240278537
12034,10.0,299.93757,-7840.0432,0.0,0.12034004303816936,0.0,0.0,0.0,0.0,0.5335197372717985,1.2558494303676886,0.5938081587518025,0.013996492766096288,-0.0064671956221625145,0.32673925390165365
12035,10.0,299.5641,-7993.7677,0.0,0.12035003902558872,0.0,0.0,0.0,0.0,0.5265541494593485,1.2815565986547888,0.6217949877763874,-0.006058630991665324,-0.016966032940167085,0.3083569617799627
12036,10.0,300.51665,-7955.2618,0.0,0.12036003501300807,0.0,0.0,0.0,0.0,0.5457969036984605,1.2680227183940989,0.6043813424852944,0.0008503676436972523,-0.019198273572972085,0.30517975397139674
12037,10.0,300.25313,-7858.6869,0.0,0.1203700310004272,0.0,0.0,0.0,0.0,0.5098411362149026,1.268275828269079,0.6107276014391214,0.006120482108244555,-0.005120560198734945,0.3066224194637767
12038,10.0,299.9849,-7716.5546,0.0,0.12038002698784656,0.0,0.0,0.0,0.0,0.5236357966538295,1.2356855507276687,0.5863185889151394,0.022135374545091378,0.013109599006566686,0.2992171419029327
12039,10.0,299.75195,-7764.674,0.0,0.12039002297526569,0.0,0.0,0.0,0.0,0.5035393386754635,1.2776985475740288,0.5790291866357314,0.005327618261969985,0.007378113946863153,0.3209613167964157
12040,10.0,299.58723,-7927.4761,0.0,0.12040001896268526,0.0,0.0,0.0,0.0,0.5347037706761535,1.2772953753592386,0.5977556696838914,-0.0017191551001673982,-0.012054684062454689,0.3128872333745657
12041,10.0,299.41615,-7897.2497,0.0,0.12041001495010462,0.0,0.0,0.0,0.0,0.5073284684844216,1.2814142370157386,0.6118240292398305,-0.006832341573949614,0.008445169248373312,0.32928746644564266
12042,10.0,299.1976,-7762.4015,0.0,0.12042004392758132,0.0,0.0,0.0,0.0,0.5064905511817255,1.2609696870980187,0.5921160006872994,0.004163960405200896,0.005670901012374355,0.3214023845649457
12043,10.0,299.60607000000005,-7765.0784,0.0,0.12043003991500045,0.0,0.0,0.0,0.0,0.4941459732259105,1.2636544958879887,0.6025894806109514,-0.008880805895042301,0.0049936397819338755,0.35174176753920966
12044,10.0,299.41985,-7861.7493,0.0,0.12044003590242003,0.0,0.0,0.0,0.0,0.5402550842640256,1.2694497798349387,0.5800706658835175,-0.013095579678183089,-0.006083120132007214,0.3285049232609117
12045,10.0,300.42644,-7712.7126,0.0,0.12045003188983916,0.0,0.0,0.0,0.0,0.5197776645130615,1.2440186208750788,0.5806757788432375,-0.00993446126795499,0.015464043680932286,0.3439138734941567
12046,10.0,300.2811,-7683.1798,0.0,0.12046002787725851,0.0,0.0,0.0,0.0,0.5120783113756945,1.252489189061059,0.5709272692336345,0.01042850175171299,0.013206700790149888,0.3285294641783337
12047,10.0,300.5113,-7670.5452,0.0,0.12047002386467764,0.0,0.0,0.0,0.0,0.48990389022474956,1.2718210890439687,0.5699291976201324,0.0024134634529402975,-0.0015676445219894686,0.3272442476189927
12048,10.0,299.53053,-7754.7613,0.0,0.12048001985209722,0.0,0.0,0.0,0.0,0.4936458532415526,1.2739062564247587,0.5897016891440254,0.012502964145196489,-0.016961782355997584,0.30340510721625275
12049,10.0,300.2874,-7859.8093,0.0,0.12049001583951657,0.0,0.0,0.0,0.0,0.5081871675466685,1.2693856411036089,0.6116129793765014,0.00043361691497965753,-0.006667536647834634,0.3027996294864967
12050,10.0,299.51411,-8029.0603,0.0,0.1205000118269357,0.0,0.0,0.0,0.0,0.5553020812965486,1.2761364198948588,0.6091953139753965,0.0061530525260840045,0.007687054611628223,0.29838174759298575
12051,10.0,300.18715,-7861.6347,0.0,0.12051004080441241,0.0,0.0,0.0,0.0,0.5340488463415175,1.2603963901914386,0.5952953565860775,-0.008880579028344911,-0.007467866931446082,0.3144959300283317
12052,10.0,299.74408999999997,-7845.7104,0.0,0.12052003679183176,0.0,0.0,0.0,0.0,0.5369963706174156,1.2564968971815889,0.5914068168098084,-0.008404476516407253,-0.015033154009656786,0.3195329381304457
12053,10.0,299.62441,-7963.9472,0.0,0.12053003277925112,0.0,0.0,0.0,0.0,0.5360452124835435,1.2588522983640489,0.6259435883233224,-0.01940692709981458,0.0008975750874462642,0.3250782228802227
12054,10.0,300.00594,-7843.7001,0.0,0.12054002876667047,0.0,0.0,0.0,0.0,0.5229690375580255,1.243092003658629,0.6182279319918463,0.0005419102688323795,0.008385935356802382,0.3080559353077537
12055,10.0,300.30312999999995,-7709.9522,0.0,0.12055002475408982,0.0,0.0,0.0,0.0,0.4914478401971255,1.261366779812209,0.5908183515492315,-0.00967315105859068,0.0012674007854827187,0.3257973264761927
12056,10.0,300.25132,-7641.5015,0.0,0.12056002074150896,0.0,0.0,0.0,0.0,0.5190236544511465,1.2380625341372589,0.5657394591191375,0.007742671504317181,-0.00995014050265241,0.3003694808441597
12057,10.0,300.687,-7635.2345,0.0,0.12057001672892853,0.0,0.0,0.0,0.0,0.5009383256687635,1.2522704283644688,0.5677118416312965,-0.002208305740267808,0.010681135399145988,0.3280294556514867
12058,10.0,300.16692,-7936.9048,0.0,0.12058001271634766,0.0,0.0,0.0,0.0,0.5427859094362985,1.2838652890076387,0.5859696559782025,0.007076786742024474,0.0009986467038612561,0.3213681975065717
12059,10.0,300.42544,-8034.9805,0.0,0.12059004169382437,0.0,0.0,0.0,0.0,0.5083123748615256,1.3135589884881789,0.6205620751872084,-0.013974118177388088,-0.009014210200558282,0.3296832621997047
12060,10.0,299.90621,-7855.6109,0.0,0.12060003768124372,0.0,0.0,0.0,0.0,0.5100054347186175,1.2890506977193987,0.5888534164253075,0.004085846117891616,-0.016458429090570485,0.3305989565800767
12061,10.0,299.39797999999996,-7721.45,0.0,0.12061003366866307,0.0,0.0,0.0,0.0,0.4792737010406315,1.2507507558644886,0.6171035182233754,0.002342291955316218,-0.00973555257262423,0.3211448163895257
12062,10.0,299.58612,-7700.901999999999,0.0,0.12062002965608243,0.0,0.0,0.0,0.0,0.5275338305835355,1.245250530346659,0.5680975454143625,0.013513073169886487,0.0026887306758070577,0.3123637174453987
12063,10.0,300.54379,-7798.5821,0.0,0.12063002564350178,0.0,0.0,0.0,0.0,0.5066334498433286,1.2712278311104188,0.5927129063212094,-0.0012760516108614888,0.0028441203806678274,0.3266818431509877
12064,10.0,299.50971,-7763.6086,0.0,0.12064002163092091,0.0,0.0,0.0,0.0,0.5367227829579145,1.243366087810679,0.5798542457946585,0.005940321275539064,-0.009284769762135431,0.3305575146509867
12065,10.0,299.96415,-7603.8681,0.0,0.12065001761834027,0.0,0.0,0.0,0.0,0.47088306815504055,1.255377661121129,0.5851253045373714,0.005148452947487745,0.004825627311302336,0.3327410179539817
12066,10.0,300.28853,-7656.7072,0.0,0.12066001360575962,0.0,0.0,0.0,0.0,0.5036882155126565,1.242468246897069,0.5812913485439895,0.003978647905011976,0.0011261309234154688,0.3241383320874627
12067,10.0,299.61651,-8005.1428,0.0,0.12067004258323633,0.0,0.0,0.0,0.0,0.5174680419701195,1.2877694429679487,0.6281260581112155,-0.006021912125266453,-0.01045129481271249,0.3135333930958367
12068,10.0,299.65269,-8032.0759,0.0,0.12068003857065568,0.0,0.0,0.0,0.0,0.5670812454315615,1.2800494904560487,0.5944197362471604,-0.007145092667040743,-0.008741210124790273,0.2990466017786017
12069,10.0,299.63349,-7873.7001,0.0,0.12069003455807503,0.0,0.0,0.0,0.0,0.5158374591141934,1.2613458055351388,0.6162249695916694,-0.0009741447256405991,0.010070663055672061,0.29983248868866275
12070,10.0,299.60918,-7743.6471,0.0,0.12070003054549461,0.0,0.0,0.0,0.0,0.5413036663950125,1.2422004448956387,0.5703712786387625,0.003357884892197437,0.013273073737950386,0.2927440848315917
12071,10.0,299.78924,-7878.0171,0.0,0.12071002653291374,0.0,0.0,0.0,0.0,0.4924201752580875,1.2830952189316387,0.6192051306532884,0.0007884002465365464,0.0007648545636277682,0.31676513402478473
12072,10.0,300.65082,-7999.9987,0.0,0.12072002252033287,0.0,0.0,0.0,0.0,0.5433264884971495,1.2707113775344487,0.6177619990658624,-0.0005513773786242105,0.00039225149640470866,0.31356932294438267
12073,10.0,299.93937,-7894.1374,0.0,0.12073001850775222,0.0,0.0,0.0,0.0,0.5132653237353435,1.2725010811860789,0.6138541974051924,0.003486354973701447,-0.005481357787717895,0.32226400178748066
12074,10.0,299.79143999999997,-7638.9188,0.0,0.12074001449517158,0.0,0.0,0.0,0.0,0.5224911685458635,1.2432527051244886,0.5562966571972054,0.003706509902429046,-0.0012285129559197888,0.31693178326873167
12075,10.0,299.76408,-7649.719,0.0,0.12075004347264828,0.0,0.0,0.0,0.0,0.4779117713162196,1.258286195533179,0.5891255450046645,0.0023866582255198275,-0.011229082814724189,0.33846858639674865
12076,10.0,300.80062999999996,-7851.0556,0.0,0.12076003946006764,0.0,0.0,0.0,0.0,0.5285758569863755,1.284479723868279,0.5734693110845145,-0.016729772401099987,-0.005469363743634176,0.3388539862047847
12077,10.0,300.17257,-7904.3402,0.0,0.12077003544748699,0.0,0.0,0.0,0.0,0.4875891001062975,1.2835752968290188,0.6315576119598835,0.0009385505769852301,0.00992339009206235,0.3392984280961477
12078,10.0,299.80071,-7700.106,0.0,0.12078003143490634,0.0,0.0,0.0,0.0,0.4939472748813006,1.2652447919199388,0.5814478855519385,0.00011364032529292689,0.012893237686213489,0.3361747300253627
12079,10.0,300.05437,-7651.2909,0.0,0.1207900274223257,0.0,0.0,0.0,0.0,0.4798257906226186,1.2634088840637487,0.5825667365773605,0.013044372044629288,0.009296411296509361,0.3294680782759677
12080,10.0,299.7611,-7835.5718,0.0,0.12080002340974483,0.0,0.0,0.0,0.0,0.5349100987940165,1.2608522514114289,0.5860558328992074,-0.006833158456180233,0.004527958952574756,0.30595235717264674
12081,10.0,300.1554,-8033.2862,0.0,0.12081001939716418,0.0,0.0,0.0,0.0,0.5413777755073265,1.2834363802403088,0.6171042680284494,-0.0004925373171021486,0.007859387985986201,0.3044658888784437
12082,10.0,300.39091,-8039.3677,0.0,0.12082001538458353,0.0,0.0,0.0,0.0,0.5494209548011264,1.2662689851210187,0.6280771282638864,-0.01336333810985879,0.0061832486962891346,0.2926982048670637
12083,10.0,299.58726,-7946.7139,0.0,0.12083004436206024,0.0,0.0,0.0,0.0,0.5191342709645635,1.274205874479329,0.6222624709750244,-0.003191925772893547,-0.008799106424904191,0.3166612961545367
12084,10.0,299.76066000000003,-7849.0622,0.0,0.1208400403494796,0.0,0.0,0.0,0.0,0.5242400990134695,1.2696701617316888,0.5920086063092005,-0.0015930806458748187,-0.012962801358578887,0.3208587049587887
12085,10.0,300.03905,-7836.7834,0.0,0.12085003633689895,0.0,0.0,0.0,0.0,0.5346684893076715,1.2449424009912489,0.6025755382895754,0.0008705194149985772,-0.005475792004918594,0.3161648340030397
12086,10.0,300.27759,-7989.2551,0.0,0.1208600323243183,0.0,0.0,0.0,0.0,0.5589981440838214,1.270878361150929,0.5986575939954044,-0.0023580736295987477,0.005057564920142795,0.3104603980600557
12087,10.0,300.02518,-7838.2218,0.0,0.12087002831173765,0.0,0.0,0.0,0.0,0.5220219020270506,1.2570177077329887,0.6035840970416124,-0.003542245545242416,-0.007589722820272322,0.3179239780316537
12088,10.0,300.16298,-7668.6807,0.0,0.12088002429915679,0.0,0.0,0.0,0.0,0.49159828757197355,1.2553109892645489,0.5841781994038995,0.0061809943161416445,-0.0047811208072848855,0.3087242446762107
12089,10.0,300.25374,-7723.871,0.0,0.12089002028657614,0.0,0.0,0.0,0.0,0.4750591075146835,1.266737714617279,0.6060670562791614,0.007268255243195943,0.0006600248329893793,0.31844725078079666
12090,10.0,300.56932,-7899.1035,0.0,0.12090001627399549,0.0,0.0,0.0,0.0,0.5269463279105535,1.2779899583027887,0.5961939979672665,-0.003650773446228286,0.015398829891246184,0.3190620605439737
12091,10.0,300.00139,-7917.0985,0.0,0.12091001226141485,0.0,0.0,0.0,0.0,0.5292586456987615,1.2771993192497588,0.6001422485719284,-0.010684675694995389,0.004808419183529026,0.3395525106912237
12092,10.0,299.62666,-7862.9885,0.0,0.12092004123889155,0.0,0.0,0.0,0.0,0.5406222050402575,1.2821626235395986,0.5673673264647954,-0.015966814327551884,0.004239535994384626,0.33194883876079967
12093,10.0,299.25842,-7718.1917,0.0,0.1209300372263109,0.0,0.0,0.0,0.0,0.49854265792732955,1.2631097726342289,0.5844851432566924,-0.0018561614084638682,0.006374387992503114,0.3322871933666927
12094,10.0,299.5774,-7757.9977,0.0,0.12094003321373026,0.0,0.0,0.0,0.0,0.4989983266298005,1.2699240822067488,0.5893151646283785,-0.0030405668782555874,0.006238697592111515,0.32746104261038866
12095,10.0,300.32623,-7917.8429,0.0,0.12095002920114961,0.0,0.0,0.0,0.0,0.49782987701198356,1.278280963731509,0.6307156416567874,0.006711788116801914,-0.004739716267123576,0.3360850979215167
12096,10.0,300.1411,-7834.7424,0.0,0.12096002518856874,0.0,0.0,0.0,0.0,0.5247459134633895,1.266837317102109,0.5899828255167714,-0.0014490268791578186,-0.01195742623835609,0.3223858045820017
12097,10.0,299.93754,-7669.4143,0.0,0.1209700211759881,0.0,0.0,0.0,0.0,0.5048587524256796,1.2562395316561887,0.5702121173130545,0.007383660781885583,0.00013580443155785385,0.32150761058783073
12098,10.0,300.63964,-7629.5027,0.0,0.12098001716340745,0.0,0.0,0.0,0.0,0.5272364822091895,1.225279877500709,0.5666619422751794,-7.400851684407192e-05,0.012196423565943288,0.3097583981257737
12099,10.0,300.27617999999995,-7888.6758,0.0,0.1209900131508268,0.0,0.0,0.0,0.0,0.5357929132086435,1.2687577300166386,0.5934098298724905,-0.007982817249567722,-0.006755298494646054,0.3129187657176777
12100,10.0,299.33927,-8012.6859,0.0,0.12100004212830373,0.0,0.0,0.0,0.0,0.5496165526004304,1.2634925785220088,0.6225473462406395,-0.01116444151134459,-0.011975278691867989,0.3039326660133187
12101,10.0,299.1243,-7910.03,0.0,0.12101003811572286,0.0,0.0,0.0,0.0,0.5044807189458705,1.2632593283489888,0.6367115491235373,-0.0024717680928445173,-0.005241133008959555,0.2905470343747597
12102,10.0,299.07855,-7886.4579,0.0,0.12102003410314222,0.0,0.0,0.0,0.0,0.5438645040352474,1.2603538336872386,0.5930679288912474,0.02001192049602278,-0.0008289795552864122,0.3099455555517447
12103,10.0,299.67452000000003,-7930.1046,0.0,0.12103003009056135,0.0,0.0,0.0,0.0,0.5316613149983865,1.2629711600205489,0.6159212985366994,0.00016845413621762885,-0.0054190498979935844,0.3118266138323907
12104,10.0,299.95427,-7935.5667,0.0,0.1210400260779807,0.0,0.0,0.0,0.0,0.5686019919766474,1.2779973550285186,0.5656147888268335,-0.00933834323334772,-0.006808361895758004,0.3376052365165427
12105,10.0,299.80652000000003,-7832.9609,0.0,0.12105002206540005,0.0,0.0,0.0,0.0,0.5104698680344535,1.2640535137773687,0.6065011123569994,-0.004032197260871886,0.0037778059284904165,0.3096714004721877
12106,10.0,300.3767,-7499.5209,0.0,0.12106001805281941,0.0,0.0,0.0,0.0,0.48188308349315756,1.2366801570258288,0.5611037993816335,-0.009287113308291722,0.028240932897913074,0.32914917807199473
12107,10.0,300.46759,-7423.9229,0.0,0.12107001404023876,0.0,0.0,0.0,0.0,0.43043023328265656,1.2480819564260988,0.5781750066689305,-0.0007257674683001723,0.009332412275212382,0.3270435329066837
12108,10.0,300.05742000000004,-7665.5957,0.0,0.12108004301771569,0.0,0.0,0.0,0.0,0.5058962597330735,1.250470896186869,0.5737824762929215,-0.022473206313932778,-0.009037798054936222,0.3292773542096447
12109,10.0,299.83412000000004,-7848.4127,0.0,0.12109003900513482,0.0,0.0,0.0,0.0,0.5087383553360666,1.2879209238578988,0.5890621763434104,0.0014790842340992485,0.0006541084352579764,0.3256326429374397
12110,10.0,299.62485,-7669.241999999999,0.0,0.12110003499255417,0.0,0.0,0.0,0.0,0.5322710990410674,1.2516914572573288,0.5472954803313586,-0.0038205519104591162,0.0006813909946680553,0.3305472301624717
12111,10.0,299.71007000000003,-7702.1794,0.0,0.1211100309799733,0.0,0.0,0.0,0.0,0.5032578780626855,1.2653192658022887,0.5726930399179024,0.017292598381146582,-0.009421857231764912,0.33881688098612267
12112,10.0,300.68514,-7890.3427,0.0,0.12112002696739266,0.0,0.0,0.0,0.0,0.5393343945606605,1.2745989141931189,0.5845338400564984,-0.009336946873384912,-0.016878718139299784,0.32217795658898873
12113,10.0,300.33637000000004,-7950.8456,0.0,0.12113002295481223,0.0,0.0,0.0,0.0,0.5134176658878785,1.2748717824450486,0.6285690510549354,0.020013845671212782,-0.010457205100545791,0.3069640266024907
12114,10.0,300.57035,-7852.8891,0.0,0.12114001894223136,0.0,0.0,0.0,0.0,0.5310513789681904,1.2555816283662589,0.6004492532197274,0.0033705360289710065,0.005868497143525574,0.30412819288511567
12115,10.0,300.73544,-7705.5452,0.0,0.12115001492965072,0.0,0.0,0.0,0.0,0.49358315332536457,1.2530002724114988,0.5957099379969935,0.004434321065783416,-0.01173756008590699,0.3155719611045277
12116,10.0,300.10997000000003,-7597.9353,0.0,0.12116004390712742,0.0,0.0,0.0,0.0,0.5269694097478315,1.2321082712496187,0.5505049601556095,-0.012941953737771386,-0.006251401721865314,0.30902931401631867
12117,10.0,300.32536,-7694.9398,0.0,0.12117003989454678,0.0,0.0,0.0,0.0,0.5078789773962525,1.2466543883602088,0.5845361705317283,-0.004940106435425545,0.007942895296952733,0.3094089484312857
12118,10.0,299.82665,-7928.6533,0.0,0.12118003588196613,0.0,0.0,0.0,0.0,0.5432485492994575,1.2534538031562588,0.6134102317413764,0.006608212880979834,0.01819516002697248,0.3063784187071957
12119,10.0,299.48741,-7906.4716,0.0,0.12119003186938526,0.0,0.0,0.0,0.0,0.5174931300425956,1.2601385180409885,0.6257383139855635,-0.00045140631393783456,0.004242136602091285,0.3128950252678347
12120,10.0,299.80755,-7789.1966,0.0,0.12120002785680462,0.0,0.0,0.0,0.0,0.5083761082928155,1.268478275639059,0.5908668760965204,-0.0027520516129813473,-0.0034420218367761063,0.3161008067292207
12121,10.0,300.26501,-7885.5241,0.0,0.12121002384422419,0.0,0.0,0.0,0.0,0.5262457465264115,1.2598396092614887,0.6109170893403224,-0.0008198840144387523,0.0005090032189122065,0.3129509566733547
12122,10.0,300.33131000000003,-7975.7159,0.0,0.12122001983164332,0.0,0.0,0.0,0.0,0.5502316562061365,1.2751641050988987,0.5990226781389355,-0.014161979812178588,0.006041481835047834,0.32380130483920067
12123,10.0,300.4035,-7807.153,0.0,0.12123001581906268,0.0,0.0,0.0,0.0,0.5212596035793176,1.2674855945160886,0.5844343895591834,-0.016632121435962585,-0.0017866562006292382,0.34009388008715263
12124,10.0,300.53104,-7689.0186,0.0,0.1212400118064818,0.0,0.0,0.0,0.0,0.4954277346024106,1.2626419550630588,0.5791999395425834,-0.018691901835497085,-0.001894305208478368,0.3311814841950677
12125,10.0,300.60405,-7616.9533,0.0,0.12125004078395873,0.0,0.0,0.0,0.0,0.47994309458669554,1.252118035549429,0.5833024473424694,0.0011860277845268288,-0.0070249362012822225,0.3263401042897607
12126,10.0,300.75093,-7664.6793,0.0,0.12126003677137809,0.0,0.0,0.0,0.0,0.4838851542332466,1.2587143950254387,0.5872715810316924,0.013248217699747288,-0.013707077126783188,0.3132742847802647
12127,10.0,300.55917,-7870.9912,0.0,0.12127003275879722,0.0,0.0,0.0,0.0,0.5022704557077345,1.3014440636675288,0.5888702262444665,0.0051743718850457456,-0.014448651570220884,0.3337703483330687
12128,10.0,300.19861000000003,-7948.7938,0.0,0.12128002874621657,0.0,0.0,0.0,0.0,0.5425472991702495,1.2855223582211788,0.5881651561623814,-0.006788180385566243,-0.01040049551894899,0.3142701779060517
12129,10.0,300.18329,-7831.2941,0.0,0.12129002473363593,0.0,0.0,0.0,0.0,0.5235118862991005,1.2625366783776688,0.5944693247070545,-0.0002882922995897347,0.007197525218640433,0.3258300544544227
12130,10.0,300.21455,-7819.1872,0.0,0.12130002072105528,0.0,0.0,0.0,0.0,0.5344764784137215,1.2522124704587487,0.5901487350881454,-0.004318546906707396,0.017200716862078587,0.3133725599074637
12131,10.0,299.46401000000003,-7946.5021,0.0,0.12131001670847463,0.0,0.0,0.0,0.0,0.5236955480122265,1.270166856930709,0.6216758295646274,-0.016692391578410785,0.006163484341163545,0.3189314222085807
12132,10.0,299.36626,-7940.0758,0.0,0.12132001269589376,0.0,0.0,0.0,0.0,0.5357170714386584,1.2763065445866488,0.6015611229519604,-0.02288909785722808,0.0033209568909779268,0.3062999830169547
12133,10.0,299.90826,-7769.8239,0.0,0.12133004167337069,0.0,0.0,0.0,0.0,0.5175814753188146,1.2483085191484589,0.5959425092924464,-0.004805219035738196,0.00031863632324945673,0.3095166366519137
12134,10.0,300.04337999999996,-7741.5830000000005,0.0,0.12134003766079005,0.0,0.0,0.0,0.0,0.5323782502391425,1.2412734223791488,0.5795961912591905,0.01177001955286049,-0.0048477530457859755,0.2947254447396367
12135,10.0,300.50458,-7850.0232,0.0,0.12135003364820918,0.0,0.0,0.0,0.0,0.5137670547873605,1.2858191391754688,0.5866248032278605,0.016129560532113684,-0.013375408958300087,0.3162723499711507
12136,10.0,300.11177000000004,-7921.3485,0.0,0.12136002963562853,0.0,0.0,0.0,0.0,0.5341589460973835,1.2717035520323687,0.6020296903282044,6.253858549382785e-05,-0.008985215440996721,0.3238879174577487
12137,10.0,299.77018,-7934.4888,0.0,0.12137002562304788,0.0,0.0,0.0,0.0,0.5188617674826694,1.2769703247271589,0.6160543889373344,0.0016442775389775583,-0.0004454399021814956,0.3185807971439767
12138,10.0,300.04792000000003,-7810.1941,0.0,0.12138002161046724,0.0,0.0,0.0,0.0,0.5286358211272935,1.2566801941246788,0.5887879604688474,0.007332897863800673,0.008001333280570112,0.3254169118586487
12139,10.0,300.53688,-7684.4436,0.0,0.12139001759788659,0.0,0.0,0.0,0.0,0.49159715273186155,1.2669912297922987,0.5772905609216424,0.002012416327585028,0.004530373122263016,0.3271290208176207
12140,10.0,300.25068999999996,-7847.5333,0.0,0.12140001358530572,0.0,0.0,0.0,0.0,0.5228129362476195,1.2858466995781888,0.5767945446001895,-0.01179071619940309,-0.0060000161959054945,0.3352179483534357
12141,10.0,300.34974,-7915.5806,0.0,0.12141004256278243,0.0,0.0,0.0,0.0,0.5081849890589536,1.2803172924574788,0.6176365283059795,-0.005866692342447454,0.0038480884004767567,0.3176156966887287
12142,10.0,299.8316,-7731.88,0.0,0.121420038550202,0.0,0.0,0.0,0.0,0.5158662151520315,1.2475532425239189,0.5868789972804475,-0.0032420496341403872,-0.004256484831457346,0.3254420809911327
12143,10.0,299.69942000000003,-7739.4762,0.0,0.12143003453762136,0.0,0.0,0.0,0.0,0.47981730971928155,1.2827423039218089,0.5900479167031955,0.0009666290240838571,0.0025887977701194477,0.3311745434318827
12144,10.0,299.9074,-7888.5264,0.0,0.12144003052504049,0.0,0.0,0.0,0.0,0.5327699423302995,1.2736021800697488,0.5915429266957415,-0.008411317778432433,-0.004966405747071086,0.3237806649346637
12145,10.0,299.82241,-7967.1201,0.0,0.12145002651245984,0.0,0.0,0.0,0.0,0.5232359580318685,1.2828756476349688,0.6156939961417665,-0.012756114550180489,0.004153592323552647,0.3181282897818177
12146,10.0,300.12205,-7877.9913,0.0,0.12146002249987897,0.0,0.0,0.0,0.0,0.5366831344815015,1.2621199286115388,0.5959095482666934,-0.004043837376695676,-0.0018586473162592082,0.30298588511987873
12147,10.0,300.24702,-7758.9394,0.0,0.12147001848729855,0.0,0.0,0.0,0.0,0.4955624259382035,1.2557871154865388,0.6071743055909384,0.007205101998913202,-0.005046488981974686,0.3084063881198407
12148,10.0,300.63432,-7793.4908,0.0,0.12148001447471768,0.0,0.0,0.0,0.0,0.5224967515539145,1.257095930640709,0.5894338770100944,0.007026336006295373,-0.025922579178859376,0.3086950326758277
12149,10.0,300.17382000000003,-7943.2684,0.0,0.12149004345219439,0.0,0.0,0.0,0.0,0.5274739880326295,1.2664260388865187,0.6206552334014024,0.005430712609294605,-0.003411272026716337,0.3195994073370057
12150,10.0,300.39982000000003,-7964.9559,0.0,0.12150003943961374,0.0,0.0,0.0,0.0,0.5539030362209735,1.2566112931178788,0.6106333489148195,0.012767317043286089,0.0012836856397649087,0.2946670207388707
12151,10.0,300.02411,-7866.7127,0.0,0.12151003542703331,0.0,0.0,0.0,0.0,0.5280770136971434,1.2749108938989089,0.5882962909903234,-0.002962105046162007,0.0028489237940918875,0.3192368765837267
12152,10.0,300.10868999999997,-7776.643,0.0,0.12152003141445245,0.0,0.0,0.0,0.0,0.5218274694653614,1.2500828213985689,0.5919949882278565,0.004674507847663005,-0.00861862418926698,0.3012269032112807
12153,10.0,299.90666,-7834.191,0.0,0.1215300274018718,0.0,0.0,0.0,0.0,0.5134756339260995,1.262431705667309,0.6054910539948144,-0.005387882932867645,-0.004497131628882336,0.31360781631568174
12154,10.0,299.71185,-7976.2527,0.0,0.12154002338929093,0.0,0.0,0.0,0.0,0.5350588033786925,1.2565528285871088,0.6329700623342814,-0.0024201768428028575,-0.01131679075663029,0.3042130728459927
12155,10.0,299.64166,-7882.7684,0.0,0.1215500193767105,0.0,0.0,0.0,0.0,0.5092622866977745,1.2821434731127088,0.6047590010625664,-0.0005983593742259724,0.0067926400032313735,0.3320179120201167
12156,10.0,299.6061,-7681.0116,0.0,0.12156001536412986,0.0,0.0,0.0,0.0,0.4891807741583835,1.272546677440579,0.5731082495438805,-0.0003993116711139936,0.004461036823220056,0.3410025830418347
12157,10.0,299.49877000000004,-7709.4702,0.0,0.12157004434160634,0.0,0.0,0.0,0.0,0.5086074028931425,1.2641117756581188,0.5707672466453415,-0.0027953931833588274,0.018129112332454084,0.34001164470903666
12158,10.0,299.65962,-7762.063,0.0,0.1215800403290257,0.0,0.0,0.0,0.0,0.5124575404906215,1.2595983544126788,0.5874173978535835,0.003949054821266366,0.0055064937869236255,0.3210544243481047
12159,10.0,299.83625,-7739.7705,0.0,0.12159003631644527,0.0,0.0,0.0,0.0,0.49795073748391155,1.2704694134105687,0.5842768595661364,-0.007089966288725192,0.002264787644567138,0.3358277627936197
12160,10.0,300.19851,-7793.9384,0.0,0.1216000323038644,0.0,0.0,0.0,0.0,0.4954669879112845,1.2670638798244689,0.6066317405598914,0.007884402091204902,-0.019264431711751382,0.3185427800002247
12161,10.0,299.98393,-7778.9155,0.0,0.12161002829128376,0.0,0.0,0.0,0.0,0.5067865519334385,1.2605592194825088,0.5972502909315144,-0.013786505802122187,-0.01266926685760929,0.3391654896830277
12162,10.0,300.16705,-7885.302,0.0,0.12162002427870289,0.0,0.0,0.0,0.0,0.5355863520432574,1.2589786506515188,0.6023699498442855,0.002971090446723797,-0.008752630669317392,0.30699046229759974
12163,10.0,300.44378,-8077.4178,0.0,0.12163002026612224,0.0,0.0,0.0,0.0,0.5744642010927025,1.2650405206997788,0.6158286266825534,-0.01240573773185099,0.01128063596656209,0.31781488139338665
12164,10.0,300.16732,-8088.7333,0.0,0.12164001625354182,0.0,0.0,0.0,0.0,0.5576571987689805,1.2880939869749788,0.6130217820505395,-0.0036387944995710567,-0.0017844560293620983,0.28854577423475075
12165,10.0,299.71012,-7742.479,0.0,0.12165001224096095,0.0,0.0,0.0,0.0,0.5073582884348645,1.2456528919613687,0.6005091261681363,-0.0022929288422444574,0.0008051463626617592,0.3125885981725927
12166,10.0,300.06732,-7653.6811,0.0,0.12166004121843788,0.0,0.0,0.0,0.0,0.49778522308007656,1.222731046874159,0.6060117024261984,0.008909511270375302,-0.005746346398920235,0.2898442238403977
12167,10.0,300.06332000000003,-7869.0557,0.0,0.121670037205857,0.0,0.0,0.0,0.0,0.5187696934460825,1.2680279872946187,0.6051988022684714,-0.0010565481006231789,-0.0024310795152038675,0.3311999152143867
12168,10.0,299.93153,-7931.3098,0.0,0.12168003319327636,0.0,0.0,0.0,0.0,0.5424665532697805,1.266403139434259,0.6020504011602484,0.0044169608491700955,-0.012968849448425789,0.31179077517635373
12169,10.0,300.03713999999997,-7771.6745,0.0,0.12169002918069571,0.0,0.0,0.0,0.0,0.5280584104253075,1.262719671345729,0.5716169075166965,0.008532951360186732,-0.0031371243438850674,0.3416949874976697
12170,10.0,299.99883,-7695.4969,0.0,0.12170002516811484,0.0,0.0,0.0,0.0,0.5163407201738615,1.2388060570606387,0.5840921744704095,0.0030708713648964067,-0.0045617664474612955,0.30497131829332574
12171,10.0,300.52706,-7749.0326,0.0,0.1217100211555342,0.0,0.0,0.0,0.0,0.5010932718740555,1.2567399758805788,0.5976791591688404,0.004550739854573055,0.004623120868841506,0.3332393546181637
12172,10.0,300.04404,-7968.2981,0.0,0.12172001714295355,0.0,0.0,0.0,0.0,0.5150150749355306,1.2782501609284687,0.6288983674699364,0.0015107022981697086,-0.003386426323664257,0.31885185167822766
12173,10.0,300.16873,-8038.0257,0.0,0.1217300131303729,0.0,0.0,0.0,0.0,0.5262198579863565,1.2877389441399387,0.6294003011719734,0.002047474173094968,0.004329431137956586,0.3293049652748697
12174,10.0,300.22641,-7874.590999999999,0.0,0.12174004210784983,0.0,0.0,0.0,0.0,0.5381077945196046,1.2675223754947187,0.5880488958459075,-0.006632163478893573,-0.001925355041892748,0.3203795795165027
12175,10.0,300.42787000000004,-7674.9655,0.0,0.12175003809526896,0.0,0.0,0.0,0.0,0.5178982071675735,1.2562112619783987,0.5588883381704844,0.00899684724816969,0.005019180473229545,0.3346391393663117
12176,10.0,300.40911,-7743.1174,0.0,0.12176003408268832,0.0,0.0,0.0,0.0,0.5194998921306475,1.2670490863730088,0.5671653654548634,0.005941305040061154,-0.0025765535545860373,0.3300671218675887
12177,10.0,299.60053999999997,-7844.0446,0.0,0.12177003007010767,0.0,0.0,0.0,0.0,0.49270269978347053,1.287427775034229,0.6042632583186404,0.005037147018702706,0.004888193478477135,0.3234820297326907
12178,10.0,299.67282,-7693.315,0.0,0.1217800260575268,0.0,0.0,0.0,0.0,0.49079776933046854,1.2501071394009688,0.5976707289280084,0.0008121558444685413,-0.005270408641448835,0.31601798366604666
12179,10.0,299.84035,-7640.2122,0.0,0.12179002204494638,0.0,0.0,0.0,0.0,0.4888507383358115,1.2474808964667787,0.5861020978987734,-0.0005272305749611066,0.002030150433485248,0.3227034382233497
12180,10.0,299.71542999999997,-7783.2568,0.0,0.12180001803236551,0.0,0.0,0.0,0.0,0.5493339470150395,1.245866079782409,0.5707157228777565,-0.0031182877205510368,-0.003086518074265617,0.3187866996967977
12181,10.0,299.77426,-7878.3997,0.0,0.12181001401978486,0.0,0.0,0.0,0.0,0.5529229497967464,1.257423919698079,0.5844899055321624,-0.003329251356296527,0.009326521036480961,0.3202316348694017
12182,10.0,299.81829,-7952.0085,0.0,0.12182004299726179,0.0,0.0,0.0,0.0,0.5623235802495165,1.2455062746718988,0.6093821876913394,-0.006257069640274693,-0.0005573084482170615,0.3031861641346447
12183,10.0,300.14784,-7950.1396,0.0,0.12183003898468092,0.0,0.0,0.0,0.0,0.5259240598846635,1.2733690312217387,0.6173508627052864,0.011719520181126588,-0.013733291933370386,0.3082713624115147
12184,10.0,300.62724,-7787.9188,0.0,0.12184003497210028,0.0,0.0,0.0,0.0,0.5008127839813735,1.256593561241129,0.6099264651150554,0.005099923536598265,-0.010148579252586791,0.29788749432670675
12185,10.0,300.79062000000005,-7781.1268,0.0,0.12185003095951963,0.0,0.0,0.0,0.0,0.4987947950822136,1.2617586036258788,0.6047148436232084,0.004763918961662196,-0.003920800747527906,0.31443270322209166
12186,10.0,300.232,-7853.3918,0.0,0.12186002694693898,0.0,0.0,0.0,0.0,0.5336973701468296,1.2633449479824386,0.5901927304074874,-0.003074141224294117,0.0075697911775552225,0.3010334636346897
12187,10.0,299.77705,-7694.7272,0.0,0.12187002293435834,0.0,0.0,0.0,0.0,0.5261599546404445,1.2495970693006289,0.5632478872557385,-0.013333774511691087,0.009022084167085382,0.3383032847754347
12188,10.0,299.49806,-7600.6705,0.0,0.12188001892177747,0.0,0.0,0.0,0.0,0.5004152960996445,1.245479930169299,0.5645187967236674,-0.0005356976069042374,0.012081595985110688,0.3281449965603897
12189,10.0,300.63334,-7720.5229,0.0,0.12189001490919682,0.0,0.0,0.0,0.0,0.4843541674395345,1.2733573788455887,0.5891346439905625,0.004342048736151846,0.011694904283197189,0.3401833804684857
12190,10.0,299.95861,-7814.4325,0.0,0.12190004388667375,0.0,0.0,0.0,0.0,0.49544149453876857,1.263582757780909,0.6163680911682944,-0.0008144963002120263,-0.006526693060084453,0.3215307329551127
12191,10.0,300.04783,-7794.3346,0.0,0.12191003987409288,0.0,0.0,0.0,0.0,0.5160343842711285,1.2607674423780588,0.5924812469508465,-0.0007520383177504034,-0.012580882064636386,0.3248984216499777
12192,10.0,300.38806,-7799.6023,0.0,0.12192003586151201,0.0,0.0,0.0,0.0,0.5272260659981615,1.2736172774962389,0.5700410502986715,0.0014604734642125088,-0.011852216427472688,0.31690928911651167
12193,10.0,299.7477,-7748.2886,0.0,0.12193003184893159,0.0,0.0,0.0,0.0,0.5347295072286935,1.240468699149729,0.5800880329902314,0.006678838236800014,0.006797330844569322,0.31540277873533074
12194,10.0,299.81142,-7824.6819,0.0,0.12194002783635094,0.0,0.0,0.0,0.0,0.5200320105531635,1.262084160883009,0.5963917033267784,0.005899707678405814,0.009554520750132783,0.3161237973739897
12195,10.0,299.98537000000005,-7990.5555,0.0,0.12195002382377029,0.0,0.0,0.0,0.0,0.5393383867660545,1.272434510654509,0.6171564706736015,-0.005420494286011135,0.01000896635840807,0.31094768016564667
12196,10.0,299.53735,-7970.1893,0.0,0.12196001981118942,0.0,0.0,0.0,0.0,0.5212792302337546,1.2701467945787288,0.6313124662306895,0.0028036474226484577,0.01214391491926109,0.3052240026032637
12197,10.0,300.13619,-7696.4194,0.0,0.12197001579860856,0.0,0.0,0.0,0.0,0.5076197474906685,1.2527154478083888,0.5791841024435205,-0.002458483066808388,0.008618221118377203,0.3144452675233317
12198,10.0,300.4917,-7690.8047,0.0,0.12198001178602813,0.0,0.0,0.0,0.0,0.5068813718777965,1.248602665652489,0.5823285012138485,0.002427892235689308,-0.0016613442170369086,0.3105710652359777
12199,10.0,300.79075,-7868.9609,0.0,0.12199004076350484,0.0,0.0,0.0,0.0,0.5414267154871565,1.2629819004716087,0.5875589995550584,-0.014514197705939785,-0.01970817750029568,0.3197328017126707
12200,10.0,301.0926,-7807.5266,0.0,0.12200003675092397,0.0,0.0,0.0,0.0,0.5195738593879474,1.2562550343827188,0.5974642792201335,-0.009881697687547632,-0.0005422787777612485,0.3247278916581477
12201,10.0,300.99829,-7677.7756,0.0,0.12201003273834332,0.0,0.0,0.0,0.0,0.5010284340001565,1.2429323154428689,0.5898912986352385,-0.004583234987930076,2.5361011655436978e-05,0.3242452299730127
12202,10.0,300.75892000000005,-7800.0364,0.0,0.1220200287257629,0.0,0.0,0.0,0.0,0.49818031969156956,1.269071736222629,0.6037642731743945,0.0012066866368406989,0.003156964996743187,0.3172431144944577
12203,10.0,300.72673,-7917.9816,0.0,0.12203002471318225,0.0,0.0,0.0,0.0,0.5339687083911084,1.2752372617561187,0.5976626735897135,0.0008945651976267112,-0.003835584691592736,0.3067874373750627
12204,10.0,299.96338,-8061.5406,0.0,0.12204002070060138,0.0,0.0,0.0,0.0,0.5471465933616645,1.293376059746279,0.6099843622257693,0.014110870463884487,0.007098395111007053,0.3110737386105877
12205,10.0,300.09259,-8037.928000000001,0.0,0.12205001668802051,0.0,0.0,0.0,0.0,0.5495579462146465,1.3001026218601386,0.5936687963330485,0.011122595295464688,0.005232579860890425,0.3175760279473137
12206,10.0,299.58752000000004,-7796.7587,0.0,0.12206001267543987,0.0,0.0,0.0,0.0,0.5056774078439745,1.2688048461462886,0.5955377462749994,0.016389981006565184,-0.005131020790117326,0.3282570113589447
12207,10.0,299.96986,-7663.5572,0.0,0.1220700416529168,0.0,0.0,0.0,0.0,0.4833737061127706,1.2674108166587088,0.5787454664752305,0.0009276097455854542,-0.007618425561155062,0.3387316058577067
12208,10.0,299.98787000000004,-7814.0813,0.0,0.12208003764033615,0.0,0.0,0.0,0.0,0.5029552202578156,1.2828773701601388,0.5894530173044834,-0.014066397903745385,0.013225882627792987,0.3424060357553447
12209,10.0,299.82964,-7803.1141,0.0,0.1220900336277555,0.0,0.0,0.0,0.0,0.5227658505154725,1.2574160163472987,0.5917699555131475,-0.01007159919743945,0.015395390920406787,0.32538645356064266
12210,10.0,299.88793,-7592.7569,0.0,0.12210002961517463,0.0,0.0,0.0,0.0,0.4843306499047136,1.2483521902277688,0.5753256359302195,-0.02337218916040548,0.010886319557646091,0.3317995262260637
12211,10.0,300.50484,-7619.3782,0.0,0.12211002560259421,0.0,0.0,0.0,0.0,0.4886233954108745,1.2545358529380488,0.5729414584449194,-0.011453904773412387,-0.016665443178751186,0.3145281615140127
12212,10.0,300.96558,-7901.1553,0.0,0.12212002159001334,0.0,0.0,0.0,0.0,0.5205933511085634,1.260047224206979,0.6211133541691154,-0.010202751655933191,-0.005167261301143985,0.31402113116397273
12213,10.0,300.77338,-8118.8971,0.0,0.12213001757743247,0.0,0.0,0.0,0.0,0.5468902208213625,1.2915576811168186,0.6294940369387244,0.017039357796903683,0.005929341089505405,0.2972967695184067
12214,10.0,300.353,-8077.3135,0.0,0.12214001356485182,0.0,0.0,0.0,0.0,0.5593880629873035,1.271146365802379,0.6247671441622165,0.016486213421562586,-0.002250387435470948,0.31636337022763367
12215,10.0,300.05724,-7959.3978,0.0,0.12215004254232875,0.0,0.0,0.0,0.0,0.5459545654140205,1.2759490699513687,0.5975545598040435,0.01143832200012449,-0.018738882189633682,0.2929995758443067
12216,10.0,300.22462,-7777.164000000001,0.0,0.1221600385297481,0.0,0.0,0.0,0.0,0.5270176100550885,1.2657539500951887,0.5712920797996385,-0.0016773142545130283,0.0013438126099739789,0.31520107103792366
12217,10.0,300.29922999999997,-7793.8528,0.0,0.12217003451716746,0.0,0.0,0.0,0.0,0.5301127243405525,1.2348795102731187,0.6041444040819104,0.00903026443911771,0.01057217757614269,0.3054510010231667
12218,10.0,300.06647999999996,-7884.4436,0.0,0.12218003050458659,0.0,0.0,0.0,0.0,0.5146902370859715,1.270184082182409,0.6117996099124204,-0.013724112900714487,0.01159137646747979,0.32702197094455565
12219,10.0,299.77653,-7743.4658,0.0,0.12219002649200617,0.0,0.0,0.0,0.0,0.49071169373447354,1.2664127653102089,0.5966957999467905,-0.005379196339760345,-0.02047500720247588,0.3167390934972147
12220,10.0,299.72676,-7598.3485,0.0,0.1222000224794253,0.0,0.0,0.0,0.0,0.4781996255371286,1.2592270995760388,0.5722815083897874,-0.011966958895296888,-0.004234425160880226,0.3358358789269207
12221,10.0,299.48094,-7751.4911,0.0,0.12221001846684465,0.0,0.0,0.0,0.0,0.5135893205873195,1.2622583385751989,0.5804120399747085,-0.0045333957486363265,0.012161831207529289,0.3326713164796027
12222,10.0,299.7652,-7974.3945,0.0,0.122220014454264,0.0,0.0,0.0,0.0,0.5350630387641105,1.280152132691179,0.6088016561790454,-0.01134837274899719,0.015327604488716786,0.32384392213840674
12223,10.0,300.24782999999996,-7991.6172,0.0,0.12223004343174071,0.0,0.0,0.0,0.0,0.5187876178403515,1.3002586623755386,0.6102057979026234,-0.018989794325146782,-0.003916833164111336,0.3162438472458377
12224,10.0,300.7293,-7875.0109999999995,0.0,0.12224003941916006,0.0,0.0,0.0,0.0,0.4942051672967525,1.2943883979211885,0.6052131397573864,-0.0038679337142853367,0.007444621454276932,0.3254030911272847
12225,10.0,300.59111,-7858.5599,0.0,0.12225003540657942,0.0,0.0,0.0,0.0,0.5232054592038585,1.259570490034929,0.6060300523855093,0.0066623185111446435,0.00982356935316081,0.2961916075018357
12226,10.0,300.42486,-7837.71,0.0,0.12226003139399855,0.0,0.0,0.0,0.0,0.5260646078060345,1.260323638834259,0.5960798452110004,0.013673664191485588,0.003647125644543277,0.3213703151992807
12227,10.0,300.3493,-7802.2656,0.0,0.1222700273814179,0.0,0.0,0.0,0.0,0.5429990972573385,1.259065587510099,0.5696292046630255,-0.004078462564412916,-0.022489438580534777,0.31794431396116074
12228,10.0,300.68334,-7782.3287,0.0,0.12228002336883725,0.0,0.0,0.0,0.0,0.5189701143158625,1.263577590205399,0.5830859461936024,-0.008576361628920991,-0.01076988597540499,0.3264458166726937
12229,10.0,299.69804,-7773.9034,0.0,0.12229001935625661,0.0,0.0,0.0,0.0,0.5141639752490336,1.2615644649067186,0.5873440588113454,-0.002396415418682788,-0.005526849981432625,0.3227494397778897
12230,10.0,299.43256,-7812.1712,0.0,0.12230001534367596,0.0,0.0,0.0,0.0,0.4897291248475016,1.2664897723178088,0.6184860473223204,-0.006578955385667343,0.006536403643742814,0.3285546029133147
12231,10.0,299.75182,-7962.9025,0.0,0.12231004432115267,0.0,0.0,0.0,0.0,0.5357136770508235,1.268178860234509,0.6166310295692444,-0.01247276523921609,-0.013501857504529587,0.30736482781204666
12232,10.0,299.83667,-7998.7263,0.0,0.12232004030857202,0.0,0.0,0.0,0.0,0.5255123865015345,1.2933914611477988,0.6125092294874545,-0.013260632039972488,-0.004114577736402207,0.3204267463086577
12233,10.0,299.71161,-7852.1071,0.0,0.12233003629599137,0.0,0.0,0.0,0.0,0.5524543925530034,1.243299010654059,0.5910910779461475,-0.006521402678662334,0.014720816626581486,0.3161808230896177
12234,10.0,299.87079,-7801.6486,0.0,0.1223400322834105,0.0,0.0,0.0,0.0,0.5196700674849425,1.2635668497543386,0.5882694702601765,0.0013200131889751587,0.01087408050968819,0.3221751093562077
12235,10.0,300.32751,-7884.9079,0.0,0.12235002827082986,0.0,0.0,0.0,0.0,0.5342368245000695,1.2661836694625987,0.5963945809570624,0.006149736057181694,-0.004331520662312806,0.3091090770641907
12236,10.0,300.06748,-7881.5739,0.0,0.12236002425824921,0.0,0.0,0.0,0.0,0.49082907875855847,1.285387899932909,0.6195846840082474,0.007814899112520493,-0.0035352402380260466,0.3241452931156497
12237,10.0,300.46103,-7843.2587,0.0,0.12237002024566856,0.0,0.0,0.0,0.0,0.5265142882004146,1.2729261396030287,0.5847144012243184,0.015933310199745285,0.0038256002264323457,0.30925239115833475
12238,10.0,300.32219,-7834.2346,0.0,0.12238001623308792,0.0,0.0,0.0,0.0,0.5157026563208895,1.2666172391803887,0.5990918121932585,0.015146439423837187,-0.0024491847746157176,0.3239580850271737
12239,10.0,300.16845,-7749.3607,0.0,0.12239001222050705,0.0,0.0,0.0,0.0,0.5254198767674045,1.2611963511453887,0.5689959436155275,-0.006017871891817714,-0.018587949467987783,0.3307032706778717
12240,10.0,299.95952,-7823.3728,0.0,0.12240004119798398,0.0,0.0,0.0,0.0,0.5091121939604615,1.2804443540200188,0.5885534032031985,-0.007782314610504653,-0.008683979428667042,0.34427619146491467
12241,10.0,299.98114,-7939.3684,0.0,0.12241003718540333,0.0,0.0,0.0,0.0,0.5306846634919985,1.2734703562317387,0.6092147278473125,-0.006034211866905344,0.007849298446790443,0.3223250501060057
12242,10.0,299.44005,-7774.8006,0.0,0.12242003317282246,0.0,0.0,0.0,0.0,0.4956071609301186,1.2709477687827788,0.5967903564461224,-0.008933425695260473,0.021822591331972077,0.32874788036988967
12243,10.0,299.445,-7637.1184,0.0,0.12243002916024182,0.0,0.0,0.0,0.0,0.5051483190392575,1.2346077565962987,0.5817371785879895,-0.0060997604344244834,0.00026960057102000477,0.31091949154786475
12244,10.0,299.05217000000005,-7839.3095,0.0,0.12244002514766117,0.0,0.0,0.0,0.0,0.5242109579405935,1.2625273564767487,0.5962160462894425,-0.007895299393380384,-0.003038175709344597,0.3052807648738657
12245,10.0,299.11957,-8039.7234,0.0,0.12245002113508052,0.0,0.0,0.0,0.0,0.5593289297114675,1.2766589529714287,0.6078872384937994,0.00887698989384069,0.01134370774553679,0.3062443555864647
12246,10.0,300.14522,-8039.5025,0.0,0.12246001712249988,0.0,0.0,0.0,0.0,0.5438106193949295,1.2758029592869486,0.6241944552056964,0.001883459987358028,0.015513934089356087,0.3128180587902387
12247,10.0,300.46493,-7971.8399,0.0,0.12247001310991901,0.0,0.0,0.0,0.0,0.5427212032849125,1.2720898029704888,0.6084292867672954,0.014387315488667486,-0.00014166669133641385,0.3142705933385927
12248,10.0,299.81498999999997,-7939.1264,0.0,0.12248004208739571,0.0,0.0,0.0,0.0,0.5113547798767875,1.2909003857769488,0.6110409996950513,0.0005864456808751824,-0.01872941032769888,0.32472940140079665
12249,10.0,299.57782000000003,-7838.0711,0.0,0.12249003807481529,0.0,0.0,0.0,0.0,0.5318858512205464,1.2627765146763386,0.5879155825302504,0.019167221510407482,-0.002456012357764547,0.31992195524133865
12250,10.0,299.97604,-7798.5842,0.0,0.12250003406223442,0.0,0.0,0.0,0.0,0.5175460723603206,1.2644509104665889,0.5885778731931134,0.0027817445018618074,-0.0019952315045640183,0.32696206759864366
12251,10.0,300.46202,-7749.8384,0.0,0.12251003004965377,0.0,0.0,0.0,0.0,0.5265206108810385,1.2532046449566687,0.5760321346949454,-0.004629932037338715,-0.007958043183297712,0.3180991588414427
12252,10.0,300.1821,-7598.2757,0.0,0.12252002603707313,0.0,0.0,0.0,0.0,0.4846084121546265,1.253494839785309,0.5715828420483344,-0.013589281736407686,-0.004332431067527656,0.33923740004262465
12253,10.0,300.22899,-7763.9185,0.0,0.12253002202449248,0.0,0.0,0.0,0.0,0.4975115239630645,1.2686131392273687,0.5939127464271244,-0.010370631998751689,0.022656434356015977,0.3202897650276387
12254,10.0,299.49544,-8031.6785,0.0,0.12254001801191183,0.0,0.0,0.0,0.0,0.5209146527152735,1.2927173458562689,0.6277976840188074,0.0017515857908180581,0.023492353529514776,0.32629405207271567
12255,10.0,300.07242,-7931.6364,0.0,0.12255001399933096,0.0,0.0,0.0,0.0,0.5352080044559175,1.272713863707079,0.6030975242110914,-0.003061912511487237,0.01044330330917379,0.3150682136848117
12256,10.0,299.3678,-7811.4906,0.0,0.12256004297680767,0.0,0.0,0.0,0.0,0.5089545525099035,1.2847766061475787,0.5807669713522374,0.002275779989601998,-0.0041388306881457865,0.3376258156260737
12257,10.0,298.61861,-7947.4967,0.0,0.12257003896422725,0.0,0.0,0.0,0.0,0.5494828035872305,1.2725907538199288,0.5937669600027364,0.006415610755596484,0.001079918004904609,0.3094328510011447
12258,10.0,299.38425,-7838.2265,0.0,0.12258003495164638,0.0,0.0,0.0,0.0,0.5187952273486025,1.2676450800818289,0.5961848179213604,0.015476771115438383,0.016341064331487486,0.32476273732908667
12259,10.0,300.00822999999997,-7712.0457,0.0,0.12259003093906573,0.0,0.0,0.0,0.0,0.5053459028087575,1.2551021584189386,0.5838212415261704,0.0026068499352260577,-0.012611633191921288,0.3181007699091017
12260,10.0,299.93451,-7814.7384,0.0,0.12260002692648508,0.0,0.0,0.0,0.0,0.5105331860332025,1.2568085729123488,0.6081435401065944,-0.007285696621142273,-0.01868175312249548,0.3292928974661787
12261,10.0,299.90701,-7811.9384,0.0,0.12261002291390422,0.0,0.0,0.0,0.0,0.5354550044327945,1.2546394070982687,0.5845398182320884,0.0026919930371540274,-9.962181764190792e-05,0.31789388450368367
12262,10.0,300.37119,-7773.8812,0.0,0.12262001890132379,0.0,0.0,0.0,0.0,0.5111469521487765,1.2707776440909886,0.5811411747466685,0.009193668749619462,0.007371293152489992,0.3229086213685997
12263,10.0,300.20631000000003,-7966.2789,0.0,0.12263001488874292,0.0,0.0,0.0,0.0,0.5593285244114274,1.2610505444559987,0.6011707784834365,-0.005349283068983135,-0.000964352899589221,0.3032300479964757
12264,10.0,300.47219,-7995.3057,0.0,0.12264004386621963,0.0,0.0,0.0,0.0,0.5117050503038565,1.2913157169929388,0.6273525531173764,-0.01112668983911879,-0.014099718633283886,0.3109896591172897
12265,10.0,300.26003,-7845.7233,0.0,0.12265003985363898,0.0,0.0,0.0,0.0,0.5213188685776665,1.2688902631297188,0.5946948133843085,-0.0020248434347614882,0.02042751414378868,0.3132233385652367
12266,10.0,299.75309,-7923.6599,0.0,0.12266003584105833,0.0,0.0,0.0,0.0,0.5039915927250975,1.273282297013179,0.6313208154115134,-0.000911215277907446,0.021231140023350376,0.3062306361801107
12267,10.0,299.26398,-7936.4084,0.0,0.12267003182847791,0.0,0.0,0.0,0.0,0.5411313530830064,1.2823219064553186,0.5890166712814194,-0.01159530585136759,-0.002416232868113618,0.3125502263913057
12268,10.0,299.30311,-7769.766,0.0,0.12268002781589704,0.0,0.0,0.0,0.0,0.5016863879525916,1.259018775355479,0.6011097098999094,-0.0037995454120359363,-0.014238089080189987,0.3282326832240437
12269,10.0,299.87167,-7824.8246,0.0,0.12269002380331617,0.0,0.0,0.0,0.0,0.5391691233368495,1.2632722979502689,0.5761099117726215,-0.0014315319002811988,0.0015310812908059584,0.3205110791144807
12270,10.0,299.71699,-7859.1784,0.0,0.12270001979073553,0.0,0.0,0.0,0.0,0.5087269664049425,1.2765970433903187,0.6036700003850904,0.008701700868941013,0.0031736459304894664,0.3344516880978117
12271,10.0,300.03697,-7692.8879,0.0,0.12271001577815488,0.0,0.0,0.0,0.0,0.5093346124899125,1.2514353076320488,0.5776759505971775,-0.016031237782159986,-0.014629086081778386,0.3215481608568327
12272,10.0,299.68145,-7737.9645,0.0,0.12272004475563159,0.0,0.0,0.0,0.0,0.4984795425786005,1.2740946196183487,0.5795738288294835,-0.005182330964581245,-0.016841797332155982,0.34636498628106266
12273,10.0,299.93923,-7972.3412,0.0,0.12273004074305094,0.0,0.0,0.0,0.0,0.5425444924674725,1.2867439325417387,0.5941042608285254,-0.004703910237739795,0.01089440529344409,0.3244960296377647
12274,10.0,299.92514,-7891.0299,0.0,0.12274003673047029,0.0,0.0,0.0,0.0,0.5185237067193055,1.2767890542842688,0.6033633199773234,0.0018173571720341885,0.015727330639916683,0.3207520705182647
12275,10.0,299.81273,-7713.786,0.0,0.12275003271788987,0.0,0.0,0.0,0.0,0.5168807622121595,1.256301238587279,0.5716163502291415,-0.006296784889869284,0.00017375370781815585,0.3112263036781447
12276,10.0,299.83819,-7811.0418,0.0,0.122760028705309,0.0,0.0,0.0,0.0,0.4924520115762295,1.2740761784665289,0.6078335159734974,0.004583864013592155,-0.008572079228698352,0.3158437350463497
12277,10.0,300.50518999999997,-7848.6656,0.0,0.12277002469272813,0.0,0.0,0.0,0.0,0.5242688753163094,1.2576100537414487,0.6039194828247124,0.010823623694458488,0.017231006960567983,0.3017273575681717
12278,10.0,300.50897000000003,-7771.0327,0.0,0.12278002068014748,0.0,0.0,0.0,0.0,0.49872259088008747,1.261025821153559,0.6024514556823295,0.005755262087875144,0.0076552743262167525,0.3157391271060257
12279,10.0,301.17214,-7844.4959,0.0,0.12279001666756684,0.0,0.0,0.0,0.0,0.5334164870866085,1.251065471345549,0.6000489485027204,-0.007858729474746211,0.0007774661633824363,0.3126059348818037
12280,10.0,301.01271,-7941.2712,0.0,0.12280001265498641,0.0,0.0,0.0,0.0,0.5304833610946315,1.2844743536427488,0.5989904263882525,-0.0014823518643467385,-0.01941068423118538,0.3261097824095297
12281,10.0,300.35509,-7799.3506,0.0,0.1228100416324629,0.0,0.0,0.0,0.0,0.5337529773123174,1.263966779568809,0.5730880858668904,0.008513681775084972,0.008320767163370782,0.3273560395025257
12282,10.0,300.21377,-7821.7687,0.0,0.12282003761988225,0.0,0.0,0.0,0.0,0.5061328333664216,1.2582465774542688,0.6132430049448724,0.01045605404843219,-0.002185719888913758,0.3271858337507277
12283,10.0,300.31605,-7942.7782,0.0,0.1228300336073016,0.0,0.0,0.0,0.0,0.5420990271935086,1.2729680881571686,0.5993391668076704,-0.0054926598833083245,-0.01146480531798819,0.3113359778689687
12284,10.0,299.80771,-7796.7625,0.0,0.12284002959472096,0.0,0.0,0.0,0.0,0.49826117704954953,1.2678403333760988,0.6039196044147244,0.003316881903050757,-0.01814958403747448,0.3352025672169177
12285,10.0,300.03874,-7722.2007,0.0,0.12285002558214009,0.0,0.0,0.0,0.0,0.5084922470192775,1.2588849250172687,0.5799789768819684,0.01125025872856409,0.018972165799906984,0.3171626320390147
12286,10.0,299.55675,-7837.085999999999,0.0,0.12286002156955944,0.0,0.0,0.0,0.0,0.5103580761509205,1.2735759368921589,0.5983443983894944,0.014647281013824086,0.018482965611876682,0.3298899348226017
12287,10.0,299.5298,-7898.2189,0.0,0.1228700175569788,0.0,0.0,0.0,0.0,0.5353072725682145,1.2615431866546187,0.6040108475862295,-0.016578288471399683,0.004680161276595956,0.3110631602795437
12288,10.0,299.87486,-7887.2028,0.0,0.12288001354439837,0.0,0.0,0.0,0.0,0.5046106682711955,1.2881769721581686,0.6047250673167174,-0.014931763138400288,-0.014544555692185886,0.33836519435654466
12289,10.0,300.30826,-7973.635,0.0,0.12289004252187485,0.0,0.0,0.0,0.0,0.5268368867672525,1.2835482430513487,0.6134008389129494,-0.0009426382102736482,-0.0018426202328024582,0.3066265129941807
12290,10.0,300.00494,-7881.0579,0.0,0.12290003850929421,0.0,0.0,0.0,0.0,0.5084227583274196,1.2718330453951487,0.6153889571991614,0.014358282833552186,0.0015929585492377683,0.3226568591162527
12291,10.0,300.47938,-7765.6436,0.0,0.12291003449671356,0.0,0.0,0.0,0.0,0.5268877417897715,1.2635707001047187,0.5701033043848155,0.0006979830157180603,-0.02085231215546298,0.3247661215844207
12292,10.0,299.94546,-7904.0869999999995,0.0,0.12292003048413291,0.0,0.0,0.0,0.0,0.5274799560757185,1.275873481493909,0.5992916859079844,0.0058454876523047145,-0.02296732988419898,0.3303561210611107
12293,10.0,300.01205,-7843.8124,0.0,0.12293002647155205,0.0,0.0,0.0,0.0,0.5433817612901045,1.251648394128079,0.5892929440536854,0.006616313106254264,0.017989249368150682,0.3235449728289027
12294,10.0,300.15384,-7626.28,0.0,0.1229400224589714,0.0,0.0,0.0,0.0,0.4908504988656725,1.2500566795459886,0.5772915032442355,0.02050623455730778,0.017058900351582383,0.32896539476885667
12295,10.0,299.31067,-7806.5946,0.0,0.12295001844639075,0.0,0.0,0.0,0.0,0.5267878353299116,1.245128433709609,0.6010935688258164,-0.012335409055660088,0.0005955673230454184,0.3146021895663187
12296,10.0,299.96707999999995,-8031.3934,0.0,0.1229600144338101,0.0,0.0,0.0,0.0,0.5269843855843095,1.2887156159113287,0.6256430583436624,-0.0026026651109880474,-0.011885250407232888,0.30792798208512573
12297,10.0,299.77916,-7962.3259,0.0,0.12297004341128703,0.0,0.0,0.0,0.0,0.5453443862038005,1.274984354531159,0.6000194629248105,-0.0088973613884262,0.007792420868327062,0.3089158908001247
12298,10.0,299.71566,-7851.9554,0.0,0.12298003939870616,0.0,0.0,0.0,0.0,0.5115628001223175,1.2723473711459088,0.6028882171379344,0.014867263690034684,0.012717046666074788,0.31721563515174567
12299,10.0,299.82322,-7817.7869,0.0,0.12299003538612552,0.0,0.0,0.0,0.0,0.5263060754373655,1.2628342699320387,0.5872716519591995,-0.00910463922560793,-0.002250098760517458,0.32334329552899865
12300,10.0,299.59055,-7868.1042,0.0,0.12300003137354487,0.0,0.0,0.0,0.0,0.5081290779184355,1.2734798807826788,0.6100982515370095,0.008128755458820702,-0.012654753063176887,0.3252323686179357
12301,10.0,299.29226,-7851.6679,0.0,0.123010027360964,0.0,0.0,0.0,0.0,0.5192709584030535,1.271542546591479,0.5958974399279985,0.0026476876632814273,0.0032306615136164668,0.3210068522559097
12302,10.0,300.2995,-7782.727,0.0,0.12302002334838336,0.0,0.0,0.0,0.0,0.5083556102432926,1.2597025165229587,0.5976965262755545,0.015573031901438585,0.004129822489456746,0.3189140753668687
12303,10.0,299.97382999999996,-7735.6619,0.0,0.12303001933580271,0.0,0.0,0.0,0.0,0.5266452203783365,1.2479065628337886,0.5768963053077324,-0.0033500021103944665,-0.017071678448593485,0.31993281728241074
12304,10.0,300.42777,-7763.456999999999,0.0,0.12304001532322206,0.0,0.0,0.0,0.0,0.5146561209551045,1.2728420398447289,0.5723988934138725,-0.008105590535034502,-0.001036143472759399,0.3358816575664387
12305,10.0,300.53319,-7993.643,0.0,0.12305004430069899,0.0,0.0,0.0,0.0,0.5416899477306355,1.2764808236038487,0.6116970588697994,-0.004919825930699015,0.01893706985619328,0.32822815399609667
12306,10.0,300.0269,-8033.2109,0.0,0.12306004028811812,0.0,0.0,0.0,0.0,0.5355435422265324,1.276628555468429,0.6297234063638614,-0.0005363027806589636,0.02258947878940798,0.3176376234208927
12307,10.0,300.05803,-7796.8312,0.0,0.12307003627553748,0.0,0.0,0.0,0.0,0.5113415670954835,1.2635919783568186,0.5951085132676374,-0.007923560357219523,-0.002854128961180597,0.33118437195785266
12308,10.0,300.47301,-7775.6169,0.0,0.1230800322629566,0.0,0.0,0.0,0.0,0.5050661849861515,1.258448822174229,0.6000783327556204,-0.0034516864188799262,-0.017448958070328084,0.31464562759810566
12309,10.0,299.65438,-7913.6479,0.0,0.12309002825037596,0.0,0.0,0.0,0.0,0.5433068618427125,1.2759751104789385,0.5862693854902834,-0.006301227687582754,0.0023605573082438676,0.3064309455923797
12310,10.0,299.59427999999997,-7884.4641,0.0,0.12310002423779554,0.0,0.0,0.0,0.0,0.5306016783088086,1.2608083776820986,0.6052701654730144,-0.007340500887251033,0.02085023904575838,0.2981879229813567
12311,10.0,299.66864,-7777.2416,0.0,0.12311002022521467,0.0,0.0,0.0,0.0,0.5196385047443275,1.2536710439776988,0.5907776594252154,-0.006288887618589884,0.002198966918071138,0.3091436491576027
12312,10.0,299.72571,-7823.4506,0.0,0.12312001621263402,0.0,0.0,0.0,0.0,0.5085557676680464,1.261284402579079,0.6082934301938874,-0.0033718083671215766,-0.005633652216173185,0.3119060627727317
12313,10.0,300.0402,-7855.1277,0.0,0.12313001220005337,0.0,0.0,0.0,0.0,0.5254605182289155,1.2608047299817386,0.6014974705806784,0.016495278970207285,0.004156407638955496,0.3263559717863267
12314,10.0,299.86534,-7924.4245,0.0,0.12314004117753008,0.0,0.0,0.0,0.0,0.5268254269086214,1.274119646895819,0.6078821013157925,0.014448192567925589,-0.0031315989897647573,0.33412212850278666
12315,10.0,299.28231,-7938.9014,0.0,0.12315003716494943,0.0,0.0,0.0,0.0,0.5441683676077365,1.2746640661745487,0.5943953067872495,0.009301062621093412,-0.019331501775620683,0.3180026670344197
12316,10.0,299.91038,-7656.7067,0.0,0.12316003315236856,0.0,0.0,0.0,0.0,0.49579075171573755,1.2554581131790687,0.5761988244688965,0.004625334820310006,-0.006604787285041755,0.3336329921495127
12317,10.0,300.5807,-7584.797,0.0,0.12317002913978814,0.0,0.0,0.0,0.0,0.48822531984408757,1.2536709426526886,0.5636925925921275,0.011584394161040689,0.02052696666760388,0.3136589550482287
12318,10.0,300.40062,-7860.0705,0.0,0.1231800251272075,0.0,0.0,0.0,0.0,0.5058793384564035,1.2679891798157887,0.6153966578999214,-0.007328591145575633,0.02994474840481657,0.3120665717210727
12319,10.0,300.53472999999997,-7959.1223,0.0,0.12319002111462662,0.0,0.0,0.0,0.0,0.5268737386733895,1.2795148997032888,0.6129858522019934,-0.024582889280892275,0.0010926980270908988,0.3198338328801417
12320,10.0,299.88496000000004,-7811.1347,0.0,0.12320001710204598,0.0,0.0,0.0,0.0,0.5108470301191765,1.2855594431748387,0.5779834314725235,-0.02138973899525288,-0.0015181004424498486,0.33436810509706266
12321,10.0,300.05836,-7818.6985,0.0,0.12321001308946511,0.0,0.0,0.0,0.0,0.5313462651447936,1.2655310350731888,0.5798117602179654,0.01112167019812339,-0.004345162859009186,0.3203965311906757
12322,10.0,299.80735,-7969.8117,0.0,0.12322004206694204,0.0,0.0,0.0,0.0,0.5342869297175146,1.2808324288083188,0.6075043718110134,0.005021296848713415,0.013029199637631887,0.32426524166248766
12323,10.0,299.46236,-7980.826,0.0,0.12323003805436139,0.0,0.0,0.0,0.0,0.5411111286110105,1.2734580959055288,0.6114026286557415,-0.01145517234928749,-0.006714863330855414,0.3183904885101947
12324,10.0,299.51878999999997,-7896.8965,0.0,0.12324003404178052,0.0,0.0,0.0,0.0,0.5106189576541675,1.2804947125499888,0.6093456498927334,-0.007396476571800403,-0.0019412111900576283,0.3200964977035647
12325,10.0,299.6021,-7788.4705,0.0,0.12325003002919988,0.0,0.0,0.0,0.0,0.5055269300716235,1.2695360074184487,0.5924375657390354,0.004340260653700375,0.011924955625651488,0.3342236764278087
12326,10.0,299.35004,-7715.0789,0.0,0.12326002601661945,0.0,0.0,0.0,0.0,0.5088439562614885,1.2420077247266188,0.5943396286942545,0.008450934134817262,0.0036148534262082565,0.3260225922384247
12327,10.0,299.70711,-7853.005999999999,0.0,0.12327002200403858,0.0,0.0,0.0,0.0,0.5319278403046905,1.2778580331397686,0.5773318812607204,0.004075078613053946,-0.020606290978182583,0.3219689332258597
12328,10.0,300.26802000000004,-7987.4161,0.0,0.12328001799145794,0.0,0.0,0.0,0.0,0.5395707250139845,1.2693002241201787,0.6191040893533164,-0.0016286252567327985,-0.016444194953165684,0.3054516596357317
12329,10.0,300.27846,-7904.1518,0.0,0.12329001397887707,0.0,0.0,0.0,0.0,0.5255564020858785,1.2771479474696887,0.5999603904439804,0.013134326362007087,0.004062207702333686,0.2995178137376067
12330,10.0,300.07962000000003,-7871.9371,0.0,0.123300042956354,0.0,0.0,0.0,0.0,0.5037281274340956,1.2747999430129588,0.6143442254185544,0.012312964552694988,0.01905686641551628,0.3176141261510737
12331,10.0,299.70463,-8072.378000000001,0.0,0.12331003894377335,0.0,0.0,0.0,0.0,0.5450617502209064,1.2887577671154886,0.6199817969874395,-0.008759284480074072,0.002105721969668578,0.3134441764245317
12332,10.0,300.17911000000004,-8042.626,0.0,0.12332003493119248,0.0,0.0,0.0,0.0,0.5422227247657165,1.2995360124042186,0.6029987525913434,-0.008518009771562111,0.008481780912911602,0.3412056383618747
12333,10.0,300.3274,-7789.853,0.0,0.12333003091861183,0.0,0.0,0.0,0.0,0.5292544407108465,1.2679167324336387,0.5707496059611005,-0.0057896417650931545,0.015007828836657385,0.33455494841550265
12334,10.0,300.37561,-7712.0392,0.0,0.12334002690603119,0.0,0.0,0.0,0.0,0.5106983356670015,1.2521663675791987,0.5814026743324764,0.013960316697775987,0.01015034433426099,0.33126320281563265
12335,10.0,300.00966,-7683.5164,0.0,0.12335002289345054,0.0,0.0,0.0,0.0,0.5060293602662095,1.2511120808501488,0.5784557174766344,-0.0069557619209302535,-0.01759992929547778,0.3222102286046737
12336,10.0,299.89816,-7782.3279,0.0,0.12336001888086989,0.0,0.0,0.0,0.0,0.46817403255517953,1.2793826705652387,0.6180766740169183,0.00921800732099649,-0.004964158662324315,0.3306623657713347
12337,10.0,299.75671,-7943.2743,0.0,0.12337001486828902,0.0,0.0,0.0,0.0,0.5233423594248695,1.2855925764531089,0.6056221280277504,-0.000978812079841231,0.005660583491906094,0.3258790349642567
12338,10.0,299.43854,-7983.1725,0.0,0.12338004384576595,0.0,0.0,0.0,0.0,0.5230834334943155,1.2931614533750988,0.6104402031807574,-0.0009674954441118661,0.018804536743113283,0.3202519302689047
12339,10.0,299.53734,-7807.8216,0.0,0.1233900398331853,0.0,0.0,0.0,0.0,0.5278792678076275,1.2631044024086988,0.5823991855408245,-0.0036198174397731667,-0.006855755655935403,0.3241525986488707
12340,10.0,300.05354,-7834.1899,0.0,0.12340003582060466,0.0,0.0,0.0,0.0,0.5177540115458426,1.280840940109159,0.5828031582231935,-0.0002082571940658848,0.002080836141912538,0.32698457188336466
12341,10.0,300.32734,-7973.6972,0.0,0.12341003180802379,0.0,0.0,0.0,0.0,0.5432428750988975,1.2780728421609688,0.6024891587185504,-0.0014911863919686388,0.00010513779919879289,0.32077652024317765
12342,10.0,299.60656,-7846.5296,0.0,0.12342002779544314,0.0,0.0,0.0,0.0,0.49843063299627355,1.2708970049527688,0.6158214731368474,-0.011386611794521091,0.006190491408003933,0.3048172840131237
12343,10.0,300.16542000000004,-7629.3987,0.0,0.1234300237828625,0.0,0.0,0.0,0.0,0.4968018131955215,1.2483060873482188,0.5740388184357205,-0.011801480968465488,-0.01991926992012888,0.3159275510946217
12344,10.0,301.01277999999996,-7749.6397,0.0,0.12344001977028185,0.0,0.0,0.0,0.0,0.5112128134052765,1.239228278377309,0.6052558989116065,-0.0066807642225900936,-0.004974577203827545,0.31190624515774973
12345,10.0,300.50759,-7944.213000000001,0.0,0.12345001575770098,0.0,0.0,0.0,0.0,0.5428891596214885,1.2830820466803388,0.5888711483020574,0.02139309487958408,0.011780698195664388,0.3330835370177857
12346,10.0,299.72716,-7944.2099,0.0,0.12346004473517769,0.0,0.0,0.0,0.0,0.5320870117628995,1.2730070982860187,0.6097472819673714,0.008069023453500614,0.00970721814815284,0.3237969579962717
12347,10.0,300.11939,-7982.2383,0.0,0.12347004072259726,0.0,0.0,0.0,0.0,0.5380365427725725,1.267859686453009,0.6205049278815684,0.007474479401598681,-0.017206928085191586,0.3137787009450467
12348,10.0,300.14896,-7884.3087,0.0,0.12348003671001662,0.0,0.0,0.0,0.0,0.5023295383210655,1.2886172293266187,0.6056862160965754,0.005696538773029605,-0.018811388340289482,0.32811595681252365
12349,10.0,300.3248,-7737.8946,0.0,0.12349003269743575,0.0,0.0,0.0,0.0,0.5088368432457865,1.261103233461199,0.5821866664648504,0.018318602260155286,-0.0005075769174089415,0.3144047780493357
12350,10.0,299.86169,-7839.4069,0.0,0.1235000286848551,0.0,0.0,0.0,0.0,0.5209379574675735,1.273551112264709,0.5884949285399275,-0.005676924581568834,0.008743595822150722,0.3266660161844257
12351,10.0,299.88235,-7807.1224,0.0,0.12351002467227445,0.0,0.0,0.0,0.0,0.5260318798278045,1.2700009878893388,0.5771374183015284,-0.01921920326703768,-0.01136547641068519,0.3080957155066797
12352,10.0,299.6988,-7594.0671,0.0,0.12352002065969381,0.0,0.0,0.0,0.0,0.49599427313082356,1.2423312554835488,0.5700812661951404,-0.005311328037462266,-0.01098507192564219,0.3588800435662027
12353,10.0,299.58862,-7706.0321,0.0,0.12353001664711316,0.0,0.0,0.0,0.0,0.49648462538421756,1.2698130299957888,0.5761437441934604,0.01889887235392348,0.006126776012565714,0.3319679081276817
12354,10.0,299.51915,-7930.4815,0.0,0.12354001263453229,0.0,0.0,0.0,0.0,0.5171586359195836,1.283894774585549,0.6096149413718104,0.01206342435781729,0.015359983908912385,0.3419121371266007
12355,10.0,300.0981,-7882.1559,0.0,0.12355004161200922,0.0,0.0,0.0,0.0,0.5377940517586405,1.252540864816159,0.6056437001223794,-0.00948741025758449,0.0015200459839668585,0.30968568729859774
12356,10.0,299.68526,-7957.1125,0.0,0.12356003759942857,0.0,0.0,0.0,0.0,0.5317028278549836,1.284509310771199,0.6025513520096885,-0.019227104591317483,0.010817941387897689,0.3297449488657927
12357,10.0,300.30759,-7997.063,0.0,0.1235700335868477,0.0,0.0,0.0,0.0,0.5415513959119616,1.2776641983956387,0.6116918608967865,0.0014044965637630186,0.025469837755927274,0.3125716161009167
12358,10.0,300.2831,-7766.8003,0.0,0.12358002957426706,0.0,0.0,0.0,0.0,0.5183263458648275,1.254681355652409,0.5879056222817675,0.005756304012952974,0.023528259060058378,0.31908015719075966
12359,10.0,300.29374,-7761.7978,0.0,0.12359002556168619,0.0,0.0,0.0,0.0,0.5080782330284175,1.2593599366641488,0.5919545494163654,-0.002302374055701628,-0.013460570602704886,0.3059077944332487
12360,10.0,300.37924,-7840.5484,0.0,0.12360002154910577,0.0,0.0,0.0,0.0,0.5273995141502795,1.254940443702979,0.6009909468556884,-0.013146227997681687,-0.031172852109020974,0.3076574240434237
12361,10.0,299.98994,-7760.0847,0.0,0.12361001753652512,0.0,0.0,0.0,0.0,0.5202056309577986,1.261520793827409,0.5771455749648334,0.011747271074865388,-0.013428741377313588,0.3167348074492917
12362,10.0,299.33536000000004,-7704.1843,0.0,0.12362001352394425,0.0,0.0,0.0,0.0,0.5062843446538745,1.253412766527209,0.5821825121394404,0.02021806521561768,-0.0038970454029084362,0.3248265619528857
12363,10.0,300.33866,-7916.8384,0.0,0.12363004250142118,0.0,0.0,0.0,0.0,0.5323493928762945,1.2666365922572989,0.6075352050115564,0.008263751884218812,-0.012037869177045189,0.3148418029499667
12364,10.0,299.72123999999997,-8024.5909,0.0,0.12364003848884053,0.0,0.0,0.0,0.0,0.5369558000834115,1.2872828802699288,0.6150365589468824,-0.0032386738901072267,-0.005770691455097904,0.3303813813861037
12365,10.0,299.42019,-7773.5795,0.0,0.12365003447625966,0.0,0.0,0.0,0.0,0.5054015809017525,1.2669887979920589,0.5905837132235744,-0.0073845640943497335,0.021981082899363978,0.3248453273447377
12366,10.0,299.81732999999997,-7604.922,0.0,0.12366003046367902,0.0,0.0,0.0,0.0,0.4917945946463475,1.257155408421579,0.5627564001622324,0.011211454289484389,0.016633111381310284,0.3356114338972697
12367,10.0,300.47193,-7723.1625,0.0,0.12367002645109815,0.0,0.0,0.0,0.0,0.5141492324600785,1.2538316441185489,0.5796676456562425,-0.02014062251047468,0.0017621492270855881,0.3071892315697167
12368,10.0,299.77333,-7844.3484,0.0,0.1236800224385175,0.0,0.0,0.0,0.0,0.5148888847680766,1.2883194351222287,0.5812777507276474,-0.0011292087719192289,-0.007163606164917884,0.33704404794865767
12369,10.0,300.48123,-7900.5661,0.0,0.12369001842593708,0.0,0.0,0.0,0.0,0.5302442442035324,1.2940137993592187,0.5773167433042264,-0.006704805405062774,0.012292602278685387,0.3187694339150937
12370,10.0,299.97269,-7922.6273,0.0,0.12370001441335621,0.0,0.0,0.0,0.0,0.5219673385091654,1.2840102850969488,0.6023032678552044,0.01976500360565398,0.014438146193184087,0.3320403555098317
12371,10.0,300.26277000000005,-7710.4539,0.0,0.12371004339083314,0.0,0.0,0.0,0.0,0.5020005968086015,1.2495723459981887,0.5922124722293204,0.0013652231925370389,-0.002031942467612108,0.3180536031169467
12372,10.0,300.18093999999996,-7757.0359,0.0,0.12372003937825227,0.0,0.0,0.0,0.0,0.5149411887382386,1.2617846441534488,0.5812193571243844,0.0046622797428061856,-0.01945624502193188,0.3326248285650147
12373,10.0,299.54141,-7968.2196,0.0,0.12373003536567162,0.0,0.0,0.0,0.0,0.5524657004241194,1.272475547283559,0.5971984935864024,-0.019054829782815284,0.01111356825032379,0.3178583700876787
12374,10.0,299.28521,-7803.9838,0.0,0.12374003135309097,0.0,0.0,0.0,0.0,0.5152482440485425,1.2698641991258386,0.5871037057551244,0.006648678442273473,0.009168898837674862,0.3228775956505377
12375,10.0,299.64191,-7619.6174,0.0,0.1237500273405101,0.0,0.0,0.0,0.0,0.5137069285264265,1.2363752700707387,0.5660911886263505,-0.004701248835027136,0.0069632246092417634,0.3199023387194027
12376,10.0,299.43813,-7810.5815,0.0,0.12376002332792968,0.0,0.0,0.0,0.0,0.5166403584934335,1.2590791650614386,0.5985022019600684,0.008041413705500744,-0.005441598259093934,0.3033931103350687
12377,10.0,299.96603,-7897.043000000001,0.0,0.12377001931534881,0.0,0.0,0.0,0.0,0.5276464229346475,1.2644740125688687,0.6083834372002704,0.006223108637998004,0.016865363502981786,0.3109303333239347
12378,10.0,300.27244,-7850.4456,0.0,0.12378001530276816,0.0,0.0,0.0,0.0,0.5325982471008545,1.2593917527172886,0.5943494369552224,0.005212741741157555,0.01780945725715658,0.3007581534500187
12379,10.0,300.0536,-7972.8213,0.0,0.12379004428024509,0.0,0.0,0.0,0.0,0.5425581206813175,1.2752620863835689,0.6057183969197514,-0.012573596796417386,-0.0029682056223640876,0.3104889514478737
12380,10.0,300.32685,-7894.9739,0.0,0.12380004026766422,0.0,0.0,0.0,0.0,0.5272430784673404,1.2786882902717087,0.5939435796276674,-0.006226246774882714,-0.016780639582620185,0.32689880026239965
12381,10.0,299.77689,-7799.7497,0.0,0.12381003625508358,0.0,0.0,0.0,0.0,0.5140084514911845,1.2636727343897887,0.5932479834340174,8.249794060116283e-05,0.007517552865999703,0.3343667068119247
12382,10.0,300.01763,-7844.5124,0.0,0.12382003224250293,0.0,0.0,0.0,0.0,0.5035164696207065,1.2728930063247588,0.6081264263124054,-0.003218522169468407,0.008165727637744572,0.3310776463248197
12383,10.0,300.58475,-7808.1562,0.0,0.12383002822992228,0.0,0.0,0.0,0.0,0.5141118840613925,1.2497793529936188,0.6095932679521714,-0.006870730175188274,0.005376439488888265,0.30456829806605074
12384,10.0,299.96078,-7582.9331,0.0,0.12384002421734164,0.0,0.0,0.0,0.0,0.5044381928391736,1.239356049214919,0.5612280441088955,-0.003247194411523137,-0.01143090804914279,0.3251650077512877
12385,10.0,300.1347,-7642.0198,0.0,0.12385002020476077,0.0,0.0,0.0,0.0,0.49410331539670055,1.254992423433109,0.5738874692682835,0.013583628814099786,0.014718724265124985,0.3271697534716407
12386,10.0,300.57787,-7904.5798,0.0,0.12386001619218012,0.0,0.0,0.0,0.0,0.5220236549497235,1.2786942684472988,0.6020769888428724,0.01897994452092468,-0.005464053401185084,0.3288884181587597
12387,10.0,300.32156000000003,-7950.3237,0.0,0.12387001217959948,0.0,0.0,0.0,0.0,0.5340559492247184,1.283789497900159,0.5988544380923314,0.004139187858806036,0.005302623813803225,0.3166118596821577
12388,10.0,300.19698,-7919.0876,0.0,0.12388004115707618,0.0,0.0,0.0,0.0,0.5222930680188125,1.279462818648149,0.6054490142481654,-0.008498857824796962,-0.012645939813807088,0.3352231564589497
12389,10.0,300.25826,-7827.8288,0.0,0.12389003714449554,0.0,0.0,0.0,0.0,0.5186541322721775,1.2649109260119886,0.5958994664281985,0.007138538458768894,0.016016815180236586,0.3099560629552817
12390,10.0,299.83563,-7749.3335,0.0,0.12390003313191489,0.0,0.0,0.0,0.0,0.5150407405605636,1.2541904359789589,0.5863727066029805,-0.008777847323231081,0.010059586610878902,0.31392102205409267
12391,10.0,299.94961,-7785.2301,0.0,0.12391002911933424,0.0,0.0,0.0,0.0,0.5137868739593165,1.253002602886729,0.5997260966233574,-0.013217471638712888,0.0025351787026526573,0.31440573050442966
12392,10.0,299.10882999999995,-7916.7595,0.0,0.1239200251067536,0.0,0.0,0.0,0.0,0.5466415489818205,1.2611971617454687,0.5986585565829995,-0.012953648670425588,-0.005888963782295474,0.3113814120034527
12393,10.0,299.07728,-7833.8509,0.0,0.12393002109417273,0.0,0.0,0.0,0.0,0.5179968065348045,1.2652250335429887,0.5980732425302334,0.022887685386588683,0.012423609437114787,0.31788421809772965
12394,10.0,299.90614,-7606.4315,0.0,0.12394001708159208,0.0,0.0,0.0,0.0,0.49085071164819355,1.2514026809788288,0.5699118811759235,0.02136860969091758,0.008997404839699722,0.3285948390747857
12395,10.0,300.44212000000005,-7867.9644,0.0,0.12395001306901143,0.0,0.0,0.0,0.0,0.5305304569592795,1.2620153612012188,0.5991189368984354,0.002764157621201117,-0.004495946835540406,0.32033692168729266
12396,10.0,300.27026,-8037.8436,0.0,0.12396004204648814,0.0,0.0,0.0,0.0,0.5557779846035165,1.2750237699600486,0.6125019644842373,-0.0016411778042716386,-0.007898177530289431,0.31856677376259274
12397,10.0,300.44538,-7747.1781,0.0,0.12397003803390727,0.0,0.0,0.0,0.0,0.5007336288835615,1.2752139570038188,0.5790011094754604,-0.006079991519673444,0.006357015920863624,0.33742513131126767
12398,10.0,299.98171,-7631.0889,0.0,0.12398003402132685,0.0,0.0,0.0,0.0,0.4946988024804705,1.2474456353632988,0.5775160192013935,0.004647940328715996,0.002134080408167338,0.32577923996190766
12399,10.0,300.15677999999997,-7784.5452,0.0,0.1239900300087462,0.0,0.0,0.0,0.0,0.5152267023514165,1.2643665067332588,0.5867141820191815,-0.009184735024812773,-0.011174439250081289,0.3265498774579637
12400,10.0,299.95123,-7880.351,0.0,0.12400002599616555,0.0,0.0,0.0,0.0,0.5218651015740755,1.2729498496553688,0.6006150310685885,-0.006602161447407604,-0.010544199714381489,0.3218461779762447
12401,10.0,299.60641,-7972.334,0.0,0.12401002198358468,0.0,0.0,0.0,0.0,0.5400435784381515,1.2825910256818789,0.6007558221699835,-0.004928703521450165,0.0077542022904551824,0.32274152629460867
12402,10.0,299.79564,-7977.4973,0.0,0.12402001797100382,0.0,0.0,0.0,0.0,0.5268214245707264,1.2898596765992387,0.6082788191274454,0.0075715792600066925,-0.0005008141012065035,0.3177471658892037
12403,10.0,300.06181000000004,-7748.1595,0.0,0.12403001395842339,0.0,0.0,0.0,0.0,0.5066024139927655,1.2555337016365289,0.5931108906954874,0.0014223437483743987,0.0012034128257675989,0.32170569084987966
12404,10.0,299.23996,-7745.7229,0.0,0.1240400429359001,0.0,0.0,0.0,0.0,0.5083008440753876,1.2633717991100886,0.5828337381112114,0.01117389209502729,-0.009990045736640751,0.32555287988956766
12405,10.0,299.45243,-7924.6,0.0,0.12405003892331945,0.0,0.0,0.0,0.0,0.5340467691788124,1.2798306284344487,0.5950030947272335,-0.00048214285042129455,0.009247196827227272,0.33145617629717766
12406,10.0,299.91097,-7862.9084,0.0,0.1240600349107388,0.0,0.0,0.0,0.0,0.5241175464138745,1.2658385564785388,0.6001717442823394,0.009301914967077532,0.0037971383350983764,0.3316108894549467
12407,10.0,299.81205,-7666.5605,0.0,0.12407003089815816,0.0,0.0,0.0,0.0,0.5129748046666714,1.2447761266498387,0.5726920773303075,-0.00989239467017834,-0.008585292415302393,0.3261757551235407
12408,10.0,300.19948,-7819.5328,0.0,0.12408002688557751,0.0,0.0,0.0,0.0,0.5231069003666315,1.2595850808363687,0.5942507565279834,-0.003010890302701737,-0.011206831842528188,0.31113053127869267
12409,10.0,300.86238,-7946.8477,0.0,0.12409002287299664,0.0,0.0,0.0,0.0,0.5345974199456576,1.2746832166014386,0.6063625909358284,0.00030922175047531073,0.0029658770723092775,0.3163168316505407
12410,10.0,300.0997,-7984.0206,0.0,0.12410001886041577,0.0,0.0,0.0,0.0,0.5266811603593835,1.2946055374176186,0.6056562340261165,0.010056294865279031,0.01066982347502959,0.3157674069163167
12411,10.0,299.76546,-8011.2089,0.0,0.12411001484783535,0.0,0.0,0.0,0.0,0.5278845772381515,1.2847215866671489,0.6226012714109614,0.005999345221689274,-0.01066417359247199,0.3322155059221177
12412,10.0,299.7193,-7937.523,0.0,0.12412004382531205,0.0,0.0,0.0,0.0,0.5401666376627965,1.2663856102075288,0.6062565441803623,0.011779888608834489,-0.019257182920535982,0.30549152089466575
12413,10.0,299.66145,-7821.7903,0.0,0.12413003981273141,0.0,0.0,0.0,0.0,0.5176575501363225,1.2767012055005986,0.5832702057242874,0.006670804075432104,0.004438049319526366,0.3375044079990917
12414,10.0,299.48429,-7890.9061,0.0,0.12414003580015076,0.0,0.0,0.0,0.0,0.5132322208545765,1.2651474185853289,0.6202587689022744,-0.005919876218996295,0.005185481361792164,0.3009184800133417
12415,10.0,299.51189,-7909.9979,0.0,0.12415003178757011,0.0,0.0,0.0,0.0,0.5259125594960284,1.2777903480330888,0.6007389312908163,-0.011363650534004989,-0.0018469039502502283,0.3237139626805807
12416,10.0,299.67118999999997,-7742.495,0.0,0.12416002777498947,0.0,0.0,0.0,0.0,0.5121275451980535,1.2561537093727186,0.5852439257265785,-0.005473490812616485,-0.005750749983854834,0.3181585352973027
12417,10.0,299.85024,-7712.9279,0.0,0.1241700237624086,0.0,0.0,0.0,0.0,0.5007394348066345,1.2672363349914888,0.5765617301247125,0.014029716223625185,0.016118127017985286,0.3436699132675797
12418,10.0,300.41841,-7943.8098,0.0,0.12418001974982795,0.0,0.0,0.0,0.0,0.5423766374559065,1.2765231774580288,0.5958199870903544,0.007474291849005173,0.005468234172422694,0.3308478310696387
12419,10.0,300.14288999999997,-7964.5454,0.0,0.1241900157372473,0.0,0.0,0.0,0.0,0.5434480075816425,1.2739971449587288,0.6035778250234934,0.008009442523770432,-0.0024188221274191574,0.3263781416985147
12420,10.0,299.59348,-7887.3207,0.0,0.12420004471472401,0.0,0.0,0.0,0.0,0.5275099482786785,1.2757158197783487,0.5943227479475884,-0.013003191534065088,-0.01958030635092578,0.3248614886838327
12421,10.0,299.77592999999996,-7932.7728,0.0,0.12421004070214337,0.0,0.0,0.0,0.0,0.5226285044644174,1.2775839489877188,0.6111524065435464,0.014685354899581685,0.012677314089903488,0.3169169188897647
12422,10.0,300.10354,-7918.6984,0.0,0.12422003668956272,0.0,0.0,0.0,0.0,0.5169423171557346,1.2783825927165386,0.6117616535636744,-0.002844028073583717,0.015027956036643786,0.3262387894122617
12423,10.0,299.50782000000004,-7893.8066,0.0,0.12423003267698185,0.0,0.0,0.0,0.0,0.5108476482017374,1.2846274557328587,0.6040449434520944,-0.007482168753957562,0.003517869888911726,0.3164469633608837
12424,10.0,299.06484,-7972.9088,0.0,0.12424002866440143,0.0,0.0,0.0,0.0,0.5493449103811214,1.2767325149286886,0.5974877764899524,-0.01794097306713618,-0.013654984925892089,0.3198809591422927
12425,10.0,298.63426,-7886.5409,0.0,0.12425002465182056,0.0,0.0,0.0,0.0,0.5185064004075974,1.2723497016211387,0.6064553742474854,0.010867474119036189,0.0075207337620386335,0.3202862895797957
12426,10.0,299.04046,-7658.9332,0.0,0.12426002063923991,0.0,0.0,0.0,0.0,0.5064208497073465,1.2493732423535386,0.5723303065146035,0.017031860759413785,0.007890701568401612,0.3307843205533707
12427,10.0,299.48694,-7788.6856,0.0,0.12427001662665926,0.0,0.0,0.0,0.0,0.5099939444624836,1.258389344393359,0.5991826905947274,0.01190906381108309,-0.0013189809910982887,0.3234454514040807
12428,10.0,299.51562,-7994.334,0.0,0.1242800126140784,0.0,0.0,0.0,0.0,0.5430752430023534,1.2716159058987186,0.6153867280489413,-0.009956632294718099,-0.005827459399900464,0.3255372555730257
12429,10.0,299.98262,-7900.5157,0.0,0.12429004159155532,0.0,0.0,0.0,0.0,0.5094877956400305,1.2967990212340987,0.5952726597838374,0.006577940210392154,0.01094656639534199,0.33794358098993466
12430,10.0,300.04889,-7723.129,0.0,0.12430003757897468,0.0,0.0,0.0,0.0,0.5237803570455964,1.2447571788729688,0.5791008132853005,0.01022313723469509,0.016146750320060185,0.3267620722939057
12431,10.0,299.83583,-7820.812,0.0,0.12431003356639381,0.0,0.0,0.0,0.0,0.5113376559500975,1.2719588910575688,0.5940349747866874,-0.005321572603923325,-0.003192136731564367,0.31741937948185367
12432,10.0,300.04202999999995,-7809.5746,0.0,0.12432002955381316,0.0,0.0,0.0,0.0,0.5326407225450466,1.254155174875479,0.5871197455042074,-0.00903195302040936,-0.011528338125758387,0.30515564875151774
12433,10.0,300.01193,-7861.4576,0.0,0.12433002554123251,0.0,0.0,0.0,0.0,0.5146503656945365,1.2742543078341089,0.6007821464075814,0.0023859733697772375,-0.00046125646266496857,0.32105833549349067
12434,10.0,300.14785,-7885.2303,0.0,0.12434002152865187,0.0,0.0,0.0,0.0,0.5222440672439765,1.2714133572037287,0.6032557533467074,0.022318186141383478,0.012245233849760489,0.3193209864745277
12435,10.0,300.09724,-7663.7938,0.0,0.12435001751607122,0.0,0.0,0.0,0.0,0.4988540398155605,1.2520856115462287,0.5786623495695274,0.007047525295036593,0.0026002631003009874,0.3267793887381147
12436,10.0,299.80303,-7731.2669,0.0,0.12436001350349035,0.0,0.0,0.0,0.0,0.5138066627337695,1.2613986971903588,0.5749066975438735,-0.003710897680662087,-0.006628713058328043,0.33299794778183867
12437,10.0,299.64507000000003,-7995.5556,0.0,0.12437004248096728,0.0,0.0,0.0,0.0,0.5358376380680575,1.2811214077368387,0.6134902379692725,-0.007301128622815294,0.004513656218138185,0.3319554147539487
12438,10.0,299.85592,-7832.0526,0.0,0.12438003846838663,0.0,0.0,0.0,0.0,0.5254012532305665,1.2548250345165888,0.6005221768294244,-0.01136518155490609,0.007897310796153894,0.3144777624540387
12439,10.0,299.69423,-7532.4663,0.0,0.12439003445580576,0.0,0.0,0.0,0.0,0.4775090854614775,1.2291118880538987,0.5830606656036075,-0.0005764891712850515,0.004802462894141186,0.3218897882605487
12440,10.0,299.48,-7735.4976,0.0,0.12440003044322512,0.0,0.0,0.0,0.0,0.5085874216011705,1.2540547617905686,0.5887559113681845,-0.01183534885305799,-0.010437575406358491,0.3185041751714147
12441,10.0,299.83467,-7914.0439,0.0,0.12441002643064447,0.0,0.0,0.0,0.0,0.5262242453592895,1.2794475185716387,0.5999999679928865,0.0039519868630807364,-0.0058269806392282145,0.33133667358038366
12442,10.0,299.53303,-7922.8336,0.0,0.12442002241806382,0.0,0.0,0.0,0.0,0.5245350358525775,1.2859491391632987,0.5978594264941314,0.025885371621937273,0.008307371490423732,0.3222748739610537
12443,10.0,299.92621,-7850.8387,0.0,0.12443001840548318,0.0,0.0,0.0,0.0,0.5254860723964375,1.2702044485094186,0.5907684185843035,0.014558993492860786,0.005035209076561445,0.32867085309728766
12444,10.0,300.36281,-7834.7146,0.0,0.12444001439290231,0.0,0.0,0.0,0.0,0.5243891683681815,1.2640658754285887,0.5931025212496615,0.007304023478350993,-0.0012083641737062588,0.2978735216078277
12445,10.0,300.74882,-7718.7144,0.0,0.12445004337037924,0.0,0.0,0.0,0.0,0.5049669168738545,1.2559273493003789,0.5854021345971924,-0.01075859127654029,0.01056666042934819,0.3332719508738807
12446,10.0,300.31572,-7883.4081,0.0,0.12446003935779859,0.0,0.0,0.0,0.0,0.5355559950702615,1.2580129219812088,0.6027902865157694,-0.0015313990460373186,0.025442302684459774,0.3163702299308107
12447,10.0,300.36039,-8024.454000000001,0.0,0.12447003534521772,0.0,0.0,0.0,0.0,0.5414752906969504,1.2759347831249588,0.6218235715617084,-0.007021923302109874,-0.006296580112024074,0.3265475672477357
12448,10.0,299.83111,-7750.3913,0.0,0.12448003133263708,0.0,0.0,0.0,0.0,0.5191560761067154,1.2515581135441687,0.5852112382783524,-0.0018810445004446383,-0.013373802956891587,0.3101251845294727
12449,10.0,300.18359,-7522.3084,0.0,0.12449002732005643,0.0,0.0,0.0,0.0,0.4872540486957305,1.2365686995148288,0.5627711530836885,0.013847554120647186,-0.01625746005248638,0.3309492675371497
12450,10.0,299.94755,-7822.2609999999995,0.0,0.12450002330747578,0.0,0.0,0.0,0.0,0.5311776197981495,1.247821247175369,0.5987732058318144,0.016822461480497684,0.015377647897905685,0.28870075083754576
12451,10.0,299.64055,-8049.0786,0.0,0.12451001929489514,0.0,0.0,0.0,0.0,0.5324147779052475,1.287313784397979,0.6269903060741253,0.00990544968844177,0.013304282854280489,0.3182053778494257
12452,10.0,299.61372,-7903.6201,0.0,0.12452001528231427,0.0,0.0,0.0,0.0,0.5324144435327145,1.2722424997605588,0.5978462035803264,-0.015661483568918087,-0.0028264524399991375,0.3191132904690297
12453,10.0,299.73859,-7790.0216,0.0,0.1245300442597912,0.0,0.0,0.0,0.0,0.5085576219157295,1.2703487353236589,0.5890656619237544,0.002192761571808718,0.0005234225683027854,0.3302237500680467
12454,10.0,299.87838,-7721.0157,0.0,0.12454004024721055,0.0,0.0,0.0,0.0,0.5169527029692594,1.2554569986039588,0.5745862470672475,-0.013963129480053587,0.0030618072348018465,0.3263700559627167
12455,10.0,300.21963,-7734.1013,0.0,0.12455003623462968,0.0,0.0,0.0,0.0,0.5116425327726865,1.2509225017564387,0.5884085894989064,-0.0038169342023020767,-0.001156611411598659,0.3165655845500907
12456,10.0,299.97123999999997,-7953.2753,0.0,0.12456003222204903,0.0,0.0,0.0,0.0,0.5342710419559464,1.2787794827807089,0.6045465326490974,-0.02837217817011597,-0.006998608822608913,0.30330952733431976
12457,10.0,301.44495,-7756.5683,0.0,0.12457002820946839,0.0,0.0,0.0,0.0,0.4980701692731986,1.262086187383209,0.5976467351656404,0.006871029691917834,0.008437039233545942,0.3105655328904317
12458,10.0,301.06969,-7518.4841,0.0,0.12458002419688774,0.0,0.0,0.0,0.0,0.5045433074045476,1.2239632603207689,0.5569248722592055,0.017546981911502283,0.015713294086281384,0.3299062177517087
12459,10.0,300.42109,-7777.6682,0.0,0.1245900201843071,0.0,0.0,0.0,0.0,0.5080056133937505,1.2714262254799988,0.5847850551537914,0.004777823995434516,0.0018407589936937682,0.3395866774845957
12460,10.0,300.32666,-8056.9119,0.0,0.12460001617172622,0.0,0.0,0.0,0.0,0.5629869854874895,1.2832583521977388,0.6028546481621214,-0.01150033594599479,-0.014404952119908089,0.3299016175962547
12461,10.0,300.47365,-7886.1195,0.0,0.12461004514920293,0.0,0.0,0.0,0.0,0.5226981248787884,1.2732769267876487,0.6012083396646434,0.0004531164774566146,-0.02006640599365008,0.3272010831647327
12462,10.0,299.77686,-7685.6990000000005,0.0,0.1246200411366225,0.0,0.0,0.0,0.0,0.5048194889843045,1.2473014498740687,0.5841396553700955,0.01892274148652918,0.004022334588373516,0.3109727378406197
12463,10.0,299.91722999999996,-7798.2396,0.0,0.12463003712404164,0.0,0.0,0.0,0.0,0.4995645105206785,1.2522421586866788,0.6186634066198244,0.006674871767958553,-0.006198046808699594,0.3043617672981677
12464,10.0,299.48394,-7960.9577,0.0,0.12464003311146121,0.0,0.0,0.0,0.0,0.5413406905536664,1.2708979168778587,0.6076936874596974,-0.0038787850149062763,-0.0013732459041788188,0.3031664361551977
12465,10.0,299.63268,-7997.6467,0.0,0.12465002909888034,0.0,0.0,0.0,0.0,0.5275412475742676,1.2934141579500387,0.6101294393750873,-0.005844134152821135,-0.0037231955984507966,0.3293785373646307
12466,10.0,300.32715,-7903.9909,0.0,0.12466002508629948,0.0,0.0,0.0,0.0,0.5515889553775916,1.2585307941073187,0.5924961214623145,0.00882417068600284,0.010447781874615791,0.30659304534337767
12467,10.0,300.0411,-7766.264,0.0,0.12467002107371905,0.0,0.0,0.0,0.0,0.5096332983543905,1.2585911838132788,0.5925258907502524,0.027193749052064075,-0.005115628811823256,0.3255898939157207
12468,10.0,300.30771,-7685.1764,0.0,0.12468001706113818,0.0,0.0,0.0,0.0,0.5013151736459555,1.2411650046184488,0.5936215282158834,-0.013206146542345186,-0.005601965757720975,0.3097051011705137
12469,10.0,300.72898,-7955.9158,0.0,0.12469001304855754,0.0,0.0,0.0,0.0,0.5207658569380885,1.2781300907916189,0.6195037861202634,-0.0054219184090266844,-0.0025115981436754377,0.32881397467391266
12470,10.0,300.45267,-7988.1741,0.0,0.12470004202603424,0.0,0.0,0.0,0.0,0.5374318452453934,1.2839722882181988,0.6068012775666234,-0.010075671854891392,0.015405412977145885,0.3157604864181337
12471,10.0,300.1659,-7711.2978,0.0,0.12471003801345382,0.0,0.0,0.0,0.0,0.5110195460812025,1.256416647773669,0.5766057355765555,-0.006166321137468515,0.010881123611133291,0.3407149416034467
12472,10.0,300.21172,-7783.8507,0.0,0.12472003400087317,0.0,0.0,0.0,0.0,0.5226018255892845,1.2739936999083887,0.5695006941528424,-0.002585618089980638,-0.008391653735066743,0.3407796984173377
12473,10.0,299.98868999999996,-7938.6054,0.0,0.1247300299882923,0.0,0.0,0.0,0.0,0.5333893015864255,1.270283785992249,0.6094647169119844,-0.008927514090202043,-0.005557027710485934,0.3236638371981337
12474,10.0,299.70982000000004,-7897.8459,0.0,0.12474002597571143,0.0,0.0,0.0,0.0,0.5220907726363475,1.2753048455377887,0.6033522856837344,0.01008832309298997,0.0075728020502273735,0.32464967888292867
12475,10.0,299.98139,-7780.8855,0.0,0.12475002196313079,0.0,0.0,0.0,0.0,0.5028624572111605,1.262356421184879,0.5999759640980175,-0.00029685328008213774,-0.0043994122693631855,0.3088713381932277
12476,10.0,299.79863,-7761.4148,0.0,0.12476001795055014,0.0,0.0,0.0,0.0,0.5109009654219995,1.2532676691128888,0.5951076824025555,0.011160766453231889,-0.01018286864922089,0.3057608123737427
12477,10.0,300.13035,-7709.8552,0.0,0.12477001393796971,0.0,0.0,0.0,0.0,0.5037588694421294,1.2684516271614288,0.5713929488470935,-0.017441287767071083,-0.0055126781589089745,0.3261476475657667
12478,10.0,300.00739,-7894.5468,0.0,0.1247800429154462,0.0,0.0,0.0,0.0,0.5361941602482435,1.271284978416059,0.5922659313045965,0.003056551607858157,0.013300012005108986,0.3223738380983207
12479,10.0,299.82691,-8090.4421,0.0,0.12479003890286555,0.0,0.0,0.0,0.0,0.5492023764895545,1.277804634859499,0.6322853383142044,-0.012655212065472187,0.004207566737829506,0.3198848601551777
12480,10.0,300.30187,-7837.8619,0.0,0.12480003489028513,0.0,0.0,0.0,0.0,0.5189950706658255,1.2612222903479489,0.6022969249095784,0.005863525530584915,-0.004575349166376806,0.31686580042221973
12481,10.0,300.47496,-7631.3137,0.0,0.12481003087770426,0.0,0.0,0.0,0.0,0.48936026128109755,1.235196758879429,0.5951717704713805,0.008289314765691672,-0.011747083623596888,0.3325384084639857
12482,10.0,300.58157,-7889.3239,0.0,0.12482002686512339,0.0,0.0,0.0,0.0,0.5250557653439695,1.2673063505733988,0.6057954039273514,0.014856493854721787,0.013242225338655886,0.3047481702238027
12483,10.0,300.23753999999997,-7946.4467,0.0,0.12483002285254274,0.0,0.0,0.0,0.0,0.5371664851767045,1.2834983911464288,0.5948564875702644,0.01207335116904699,0.013619887968928287,0.3235312534225487
12484,10.0,300.3647,-7676.9648,0.0,0.12484001883996232,0.0,0.0,0.0,0.0,0.5147811864149475,1.2481721356849989,0.5706522934214965,-0.004038955132413836,-0.00015437536045066186,0.3172269936853667
12485,10.0,300.19392999999997,-7727.1557,0.0,0.12485001482738167,0.0,0.0,0.0,0.0,0.5053598957926385,1.2709488833578886,0.5725535863066396,0.004994801169198495,-0.0038458371614045763,0.33710541037471364
12486,10.0,300.07826,-7875.9347,0.0,0.12486004380485816,0.0,0.0,0.0,0.0,0.5261839382703115,1.268478984914129,0.5994245736585994,-0.0059152699840416935,0.004352437488102136,0.31159527870205966
12487,10.0,299.51205,-7798.1181,0.0,0.12487003979227751,0.0,0.0,0.0,0.0,0.49648131205639057,1.2701468959037387,0.6038049349009074,-0.00097976594335287,0.007154175238287123,0.3272488680394487
12488,10.0,299.79979,-7902.8882,0.0,0.12488003577969709,0.0,0.0,0.0,0.0,0.5290279083859896,1.2798277913341687,0.5934249475639825,-0.01196661135051259,-0.0047598010119307855,0.3231826852556477
12489,10.0,299.83797999999996,-7971.9488,0.0,0.12489003176711622,0.0,0.0,0.0,0.0,0.5340573677748585,1.2653398347793188,0.6238761325542804,0.005586166959511755,-0.0019789269932298883,0.31731675751172567
12490,10.0,300.15764,-7738.1646,0.0,0.12490002775453535,0.0,0.0,0.0,0.0,0.5067988831871556,1.2639695153440789,0.5814404584287055,0.01871094992412698,-0.005265641401053345,0.3473348490117807
12491,10.0,300.2854,-7744.7476,0.0,0.1249100237419547,0.0,0.0,0.0,0.0,0.5044220618975815,1.250776492417029,0.5990113601353184,0.011520726591007188,0.0067339629939154036,0.32767185942619464
12492,10.0,300.23115,-7909.6778,0.0,0.12492001972937405,0.0,0.0,0.0,0.0,0.5455769574992535,1.2585563280098386,0.6002112205062354,0.00030893454473446567,-0.00976546898447675,0.3161997809989887
12493,10.0,300.18342,-7693.3973,0.0,0.12493001571679363,0.0,0.0,0.0,0.0,0.49144548945689354,1.2634355325413789,0.5837196429386435,-0.00964668182490337,-0.013992728541974789,0.3082925393386047
12494,10.0,299.87381,-7557.1327,0.0,0.12494004469427034,0.0,0.0,0.0,0.0,0.4967041662833845,1.2380960727155688,0.5623793596675215,-0.006912148495550942,-0.00042058027707304164,0.3201830697921087
12495,10.0,299.78041,-7874.7226,0.0,0.12495004068168947,0.0,0.0,0.0,0.0,0.5126606971356715,1.2835307138246188,0.5975276276163854,-0.006814332066672214,0.01868560752587588,0.30775029854758973
12496,10.0,300.16019,-7999.535,0.0,0.12496003666910882,0.0,0.0,0.0,0.0,0.5474822628547925,1.2755586646878387,0.6086179336709134,-0.021858705592036277,0.008993752985014312,0.3209700104822737
12497,10.0,300.04994,-7979.7697,0.0,0.12497003265652817,0.0,0.0,0.0,0.0,0.5323734170361655,1.2712696783395487,0.6220076385748744,-0.007573055666727403,0.016322045627110485,0.3372997314788917
12498,10.0,300.15414,-7912.1597,0.0,0.1249800286439473,0.0,0.0,0.0,0.0,0.5446639178341435,1.2669257738358386,0.5935092905023065,0.008155518940337054,0.004692353005774186,0.3180987332764007
12499,10.0,299.86725,-7855.8421,0.0,0.12499002463136666,0.0,0.0,0.0,0.0,0.5160282642405245,1.2642993282516288,0.6076522252656054,0.029890474676460176,-0.0034376279790424664,0.3272673193237697
12500,10.0,300.19961,-7785.1118,0.0,0.125000020618786,0.0,0.0,0.0,0.0,0.5328446999226775,1.2603926411660689,0.5732422721346074,-0.0008969151069936291,-0.02328542962059298,0.3133574016859677
12501,10.0,300.3587,-7906.4364,0.0,0.12501001660620537,0.0,0.0,0.0,0.0,0.5244557692972545,1.2821514777884988,0.5967520049298374,0.004296264118458256,-0.025525195661890678,0.3308554709753927
12502,10.0,300.42635,-7854.3214,0.0,0.12502001259362472,0.0,0.0,0.0,0.0,0.5205475015415385,1.2730577607910187,0.5939122904645795,-0.0062227807502656446,-0.004484384233349265,0.3214511117622547
12503,10.0,299.65192,-7538.4684,0.0,0.12503004157110142,0.0,0.0,0.0,0.0,0.46754657743075456,1.260523147778949,0.5634364328343464,0.01129305537303779,0.016834709647706482,0.3390543361470577
12504,10.0,299.59424,-7754.201999999999,0.0,0.12504003755852078,0.0,0.0,0.0,0.0,0.5144535215976095,1.253514091537209,0.5891161420437364,-0.002214473292301498,0.00956972507450833,0.3228904031318017
12505,10.0,299.73895,-8125.7204,0.0,0.12505003354594013,0.0,0.0,0.0,0.0,0.5483430086822414,1.2971082651646186,0.6245647677197435,-0.00897540951050395,0.015875327976022886,0.3168239329280877
12506,10.0,300.31333,-7860.8514,0.0,0.12506002953335926,0.0,0.0,0.0,0.0,0.5367790993984726,1.2757621253079188,0.5769613356991504,0.0034876750359317268,0.01837356803832998,0.3282503441732867
12507,10.0,300.06236,-7727.06,0.0,0.12507002552077884,0.0,0.0,0.0,0.0,0.5047644492388725,1.2562740834845987,0.5877947625883264,0.002157457810499508,0.014185060636206488,0.3218976713463267
12508,10.0,299.71443999999997,-7969.0856,0.0,0.12508002150819797,0.0,0.0,0.0,0.0,0.5311350734264505,1.2870291624448886,0.6042388389912304,0.0049968637411020545,-0.0032323296272560964,0.3264466475377757
12509,10.0,300.11316,-7942.5049,0.0,0.12509001749561732,0.0,0.0,0.0,0.0,0.5442635421896296,1.2633709885100088,0.6066885838905014,-0.018952182481434782,-0.002383715544579408,0.3079295830202837
12510,10.0,300.51982000000004,-7854.7064,0.0,0.12510001348303668,0.0,0.0,0.0,0.0,0.5194462810678565,1.2687841758442486,0.5994041161390804,-0.0026393892462874373,0.0009105460464813982,0.32224175081528467
12511,10.0,300.8396,-7903.7666,0.0,0.12511004246051338,0.0,0.0,0.0,0.0,0.5412196882267245,1.2710942847472386,0.5902337265065335,-0.0052741356792916656,0.011024203644504188,0.30666584736306274
12512,10.0,301.15227000000004,-7780.1352,0.0,0.12512003844793274,0.0,0.0,0.0,0.0,0.5273043193033845,1.2457263525936186,0.5919361589270504,0.006509392827877055,-0.011800952051913288,0.3153630897289137
12513,10.0,300.50872000000004,-7701.1706,0.0,0.1251300344353521,0.0,0.0,0.0,0.0,0.5087986031870125,1.2661880264380287,0.5659768838825694,-0.0009159415323363911,-0.003825863874108366,0.3427365376729627
12514,10.0,299.79946,-7970.3471,0.0,0.12514003042277144,0.0,0.0,0.0,0.0,0.5242407576260345,1.2809682043217185,0.6175775470176584,0.011638593922139789,-0.007247775330849733,0.3169699422674977
12515,10.0,299.85686,-7947.8498,0.0,0.1251500264101908,0.0,0.0,0.0,0.0,0.5284211438286065,1.2658548698051488,0.6216718474917344,0.015391393648762285,0.008345940855480233,0.31740217449515573
12516,10.0,299.45097000000004,-7700.2475,0.0,0.12516002239760993,0.0,0.0,0.0,0.0,0.4898762791595246,1.268665118957499,0.5821415768354005,0.010021611010381001,-0.0030088045273708873,0.31757066785428467
12517,10.0,299.83464,-7803.1575,0.0,0.12517001838502928,0.0,0.0,0.0,0.0,0.5203400284510625,1.2656247607074387,0.5860002763962244,-0.003146171147402917,-0.0016813903570153084,0.3168565899788107
12518,10.0,299.8044,-8020.4964,0.0,0.12518001437244863,0.0,0.0,0.0,0.0,0.5500121558369735,1.2922449686596489,0.5957735498382714,-0.015931821735348385,-0.0013265889794741388,0.3066388138503947
12519,10.0,299.67791,-7888.5765,0.0,0.12519004334992534,0.0,0.0,0.0,0.0,0.5212753292208695,1.2785707532601087,0.5980841653663114,-0.015671261432383083,0.007730522736943192,0.3469903642427827
12520,10.0,300.02071,-7814.4847,0.0,0.1252000393373447,0.0,0.0,0.0,0.0,0.5071631465981055,1.2666593903845489,0.6015857043993864,-0.02148008341391918,-0.004672822204796646,0.3248474551699477
12521,10.0,300.55256,-7819.3117,0.0,0.12521003532476382,0.0,0.0,0.0,0.0,0.5146684319438196,1.2702077922347488,0.5919992438782764,-0.004165209235949146,0.005613885631897375,0.3340209352152997
12522,10.0,299.78206,-7751.2588,0.0,0.1252200313121834,0.0,0.0,0.0,0.0,0.49767477881917654,1.262765774225279,0.5957485326933024,0.002937764650934797,0.01110147308388009,0.3239515495640287
12523,10.0,300.03454,-7798.7869,0.0,0.12523002729960275,0.0,0.0,0.0,0.0,0.5216042099383276,1.2636169043092789,0.5854153372459954,0.023390084170421578,0.019769751695622582,0.3190989023176097
12524,10.0,299.92681,-8007.7226,0.0,0.12524002328702188,0.0,0.0,0.0,0.0,0.5450589131206265,1.290728133259949,0.5983606711861004,0.00010117055116800599,-0.005598267597505995,0.3194601158457587
12525,10.0,300.25322,-7836.8605,0.0,0.12525001927444124,0.0,0.0,0.0,0.0,0.5202049014177266,1.263022633125629,0.5989823305199534,0.007455928920092892,-0.004721740703724525,0.3221880890899887
12526,10.0,300.55177000000003,-7591.1965,0.0,0.12526001526186037,0.0,0.0,0.0,0.0,0.4816835036209605,1.2503359312735487,0.5755147691938854,-0.004131977469769426,-0.00826301484609607,0.33171361275008465
12527,10.0,300.06612,-7939.0126,0.0,0.1252700442393373,0.0,0.0,0.0,0.0,0.5266951938732685,1.2700681663709688,0.6164982735411424,0.006841728525526033,0.01023518579163419,0.3051659839025377
12528,10.0,299.54389,-8096.9332,0.0,0.12528004022675665,0.0,0.0,0.0,0.0,0.5519857745142545,1.262238681523259,0.6470410259429774,-0.014724476485942686,-0.007847969771934311,0.3049000766787947
12529,10.0,299.60233999999997,-7794.3028,0.0,0.12529003621417578,0.0,0.0,0.0,0.0,0.5276986661098035,1.2688330144990687,0.5727417265852075,-0.014256492741756287,-0.0052017295364207355,0.3095326054734897
12530,10.0,299.78784,-7805.1104,0.0,0.12530003220159514,0.0,0.0,0.0,0.0,0.5290105514117766,1.252164138428979,0.5913839984175564,-0.01039278164593769,-0.003746253421701426,0.32147385922699967
12531,10.0,299.68273,-7959.6503,0.0,0.1253100281890147,0.0,0.0,0.0,0.0,0.5221458934417875,1.2828013764026387,0.6145876688875804,0.008907314240183472,0.006440279849156134,0.3214628755959157
12532,10.0,300.27641,-7919.8897,0.0,0.12532002417643384,0.0,0.0,0.0,0.0,0.5322352705175315,1.2797297087244885,0.5954837299121685,-0.004623100299864475,-0.009437776708061042,0.33363705528241366
12533,10.0,300.19392999999997,-7930.1565,0.0,0.1253300201638532,0.0,0.0,0.0,0.0,0.5111600230750665,1.2757820863348888,0.6236274404497364,-0.005940574284089035,-0.0037976753576513768,0.3313199954837377
12534,10.0,299.90181,-7760.5043,0.0,0.12534001615127233,0.0,0.0,0.0,0.0,0.5222254133096355,1.259829172785459,0.5769448906500275,0.011148450398266388,-0.0028118906175119973,0.3093032664458557
12535,10.0,299.81789,-7585.9547,0.0,0.12535004512874925,0.0,0.0,0.0,0.0,0.4853181735846745,1.249513881467419,0.5711087625915464,0.004312629830098426,0.021277836667458982,0.32208760507757167
12536,10.0,300.02637999999996,-7778.4871,0.0,0.1253600411161686,0.0,0.0,0.0,0.0,0.5146241123844455,1.2685293434440987,0.5813123836160654,-0.006972384998095824,-0.006329327443330984,0.3267971003498627
12537,10.0,300.17658,-8133.6571,0.0,0.12537003710358796,0.0,0.0,0.0,0.0,0.5395983563442115,1.3182111236723089,0.6146191809656903,-0.014149836009730087,-0.0027685534041099473,0.33365204125139264
12538,10.0,300.19673,-8019.8206,0.0,0.1253800330910071,0.0,0.0,0.0,0.0,0.5405925573423315,1.2841908462647686,0.6130418038725154,0.007903175690382713,0.0012292612411186389,0.3260994371260087
12539,10.0,300.04746,-7780.1915,0.0,0.12539002907842645,0.0,0.0,0.0,0.0,0.4946277736484605,1.2756473240715887,0.5947088570306944,0.02075787217989248,-0.004922088112872276,0.3333323608448427
12540,10.0,300.53614,-7870.0166,0.0,0.1254000250658458,0.0,0.0,0.0,0.0,0.5244302353947345,1.2626678942656189,0.6051903821601404,0.007199439856029393,-0.00961089991087197,0.3159965331614297
12541,10.0,300.07277999999997,-7975.298000000001,0.0,0.12541002105326515,0.0,0.0,0.0,0.0,0.5507731471920775,1.2581004667898488,0.6154178449595124,-0.00884284599992095,-0.018442045506588182,0.2997517630531957
12542,10.0,299.86773999999997,-7828.6759,0.0,0.12542001704068428,0.0,0.0,0.0,0.0,0.5129089535426725,1.2661017988545187,0.6007112492980844,-0.005574032580289184,0.0013322329851811587,0.3313560266572937
12543,10.0,299.65747000000005,-7773.1353,0.0,0.12543001302810364,0.0,0.0,0.0,0.0,0.5153845261869925,1.251276227366349,0.5961782824582155,-0.0006701249707811854,0.013830859811999588,0.3071139166897837
12544,10.0,299.53326,-7781.8319,0.0,0.12544004200558057,0.0,0.0,0.0,0.0,0.5062445036599426,1.261478338648219,0.5977597530817944,0.007241122432018143,-4.184021439955766e-06,0.33695187258706066
12545,10.0,299.75316000000004,-7799.0062,0.0,0.12545003799299992,0.0,0.0,0.0,0.0,0.5196985904752576,1.2726400990997988,0.5783644641726284,-0.007875457119322103,-0.001135815365221249,0.3231078567357627
12546,10.0,300.23498,-7984.3513,0.0,0.12546003398041905,0.0,0.0,0.0,0.0,0.5415498760368115,1.2809698255218789,0.6045237243893464,0.0025861781133109077,0.0076208206817414414,0.32023394507962966
12547,10.0,300.36776000000003,-8059.5806,0.0,0.1254700299678384,0.0,0.0,0.0,0.0,0.5650967343157055,1.2774913379285788,0.6073232229581355,0.015358226933238987,0.0014101710682980486,0.30398212275069975
12548,10.0,300.21795,-7815.0257,0.0,0.12548002595525776,0.0,0.0,0.0,0.0,0.5053797858921015,1.2807981809549387,0.5893947250262305,0.0027158939858128676,0.0021603394937839077,0.3194096965207827
12549,10.0,300.02436,-7757.9006,0.0,0.1254900219426771,0.0,0.0,0.0,0.0,0.5146374872857655,1.2484367966111187,0.5951337229301255,-0.0024423755312936975,-0.008301241124668712,0.3348434207189727
12550,10.0,300.16004,-7988.9106,0.0,0.12550001793009646,0.0,0.0,0.0,0.0,0.5282989357340455,1.2784882747019688,0.6216421086012994,-0.0035160737004594567,-0.012024084922684789,0.3293483729091537
12551,10.0,300.19942000000003,-7856.8079,0.0,0.1255100139175156,0.0,0.0,0.0,0.0,0.5212995053682555,1.2637262339950688,0.6032476878759114,-0.011073450639114489,-0.0027489288774981573,0.3394031981564877
12552,10.0,299.69191,-7679.0598,0.0,0.12552004289499252,0.0,0.0,0.0,0.0,0.49981260480766354,1.2556822441011888,0.5787475537704365,-0.002044707189721888,-0.0033275760485811873,0.3219550010369847
12553,10.0,299.39533,-7776.7485,0.0,0.12553003888241188,0.0,0.0,0.0,0.0,0.5184260294096655,1.2665215883709486,0.5789897610743405,-0.003151972308200447,-0.004671030778619845,0.32302032205962367
12554,10.0,299.42823,-7842.4542,0.0,0.125540034869831,0.0,0.0,0.0,0.0,0.5106920433838805,1.2636200453845887,0.6095981619501545,0.002795749948719037,0.005378276207344535,0.3111709295601797
12555,10.0,299.81658999999996,-7936.4454,0.0,0.12555003085725036,0.0,0.0,0.0,0.0,0.5208310697145245,1.2958133315368185,0.5958367969095134,0.01043916722226559,0.005047664149440665,0.33362659854138166
12556,10.0,300.22792999999996,-8059.4637,0.0,0.12556002684466971,0.0,0.0,0.0,0.0,0.5231405605349535,1.2978835028161289,0.6288516667728274,-0.004229674943086416,0.005493668472457865,0.3286612373538387
12557,10.0,300.31973999999997,-7846.4025,0.0,0.12557002283208907,0.0,0.0,0.0,0.0,0.5246116476926385,1.2833859203853288,0.5771128571191044,0.0028755102608157674,-0.008810440032572732,0.33945791366188766
12558,10.0,299.78405,-7649.996,0.0,0.12558001881950842,0.0,0.0,0.0,0.0,0.5074400475854335,1.252302143092599,0.5656655627893445,-0.01225415855664129,-0.00992034122251145,0.3284692163273877
12559,10.0,300.11728999999997,-7830.9843,0.0,0.12559001480692755,0.0,0.0,0.0,0.0,0.5364708687180525,1.2469775138170986,0.5969753252518774,0.007603978742554273,-0.0041103304959580365,0.30028031483535966
12560,10.0,300.23888,-8012.2628,0.0,0.12560004378440448,0.0,0.0,0.0,0.0,0.5360189287759495,1.2732087350559187,0.6263001712985143,-0.00961288811021819,-0.004756464278026475,0.2977680625374197
12561,10.0,299.7675,-7834.6553,0.0,0.12561003977182383,0.0,0.0,0.0,0.0,0.5235287366482635,1.2501625641814387,0.6078482283649494,0.0060378772991420936,-0.0009260238875889423,0.31063616655490267
12562,10.0,299.70669,-7856.773,0.0,0.12562003575924297,0.0,0.0,0.0,0.0,0.5141887796114815,1.257474379553059,0.6165996289486454,-0.0030959302557695273,0.0069125380902143934,0.32256449123713665
12563,10.0,300.33468999999997,-8042.2836,0.0,0.12563003174666232,0.0,0.0,0.0,0.0,0.5522780363730985,1.2862626387442386,0.6061127437261704,0.014242443015869686,0.013162510926788686,0.3185434994077957
12564,10.0,300.18743,-7974.3934,0.0,0.12564002773408145,0.0,0.0,0.0,0.0,0.5463033666284445,1.286834821075709,0.5908782548951435,-0.00025187666854829176,0.011170551409447591,0.3239610335849647
12565,10.0,300.53533,-7853.1753,0.0,0.12565002372150103,0.0,0.0,0.0,0.0,0.5237723827673095,1.2793654453135388,0.5840313389344054,0.0013830691612482986,-0.002364370776320228,0.3246410358595757
12566,10.0,300.23697999999996,-7766.6368,0.0,0.12566001970892038,0.0,0.0,0.0,0.0,0.5154771271136315,1.261526569352979,0.5838599476799905,-0.009956616285366522,0.0001854409499040968,0.3247134123142187
12567,10.0,299.68087,-7582.0749,0.0,0.1256700156963395,0.0,0.0,0.0,0.0,0.4784688866187025,1.251777076890779,0.5745154310177584,0.004700901391567845,-0.008890020087476672,0.3227041677634217
12568,10.0,299.44347999999997,-7697.5574,0.0,0.12568004467381644,0.0,0.0,0.0,0.0,0.4888150820647925,1.2662199438161788,0.5848302359757505,-0.00024410054145084778,0.0038789026532428865,0.32657514791545766
12569,10.0,299.49806,-8060.7154,0.0,0.1256900406612358,0.0,0.0,0.0,0.0,0.5466480540474624,1.288385093728709,0.6152230780252904,-0.004937076311001495,-0.003002510927024757,0.3205347992993217
12570,10.0,300.01347999999996,-8005.9918,0.0,0.12570003664865492,0.0,0.0,0.0,0.0,0.5485722058548615,1.2734255705773188,0.6116237603575654,0.0024051781068725976,0.0027921964806183375,0.3290063402053977
12571,10.0,300.54689,-7780.1665,0.0,0.12571003263607428,0.0,0.0,0.0,0.0,0.5169411721831215,1.2705364905671888,0.5774987128896855,0.0012823733795603986,0.0043454390709864454,0.3268091377610507
12572,10.0,300.34362000000004,-7879.5667,0.0,0.12572002862349363,0.0,0.0,0.0,0.0,0.5245606812126086,1.2644298348645089,0.6062009978098803,0.006557717967546374,0.001093740357468769,0.3154014615102007
12573,10.0,300.15218,-8031.9148,0.0,0.12573002461091298,0.0,0.0,0.0,0.0,0.5220558560379015,1.3016513746379887,0.6177942609490464,-0.010411813522565991,-0.0056663101788212746,0.3181865719275697
12574,10.0,300.67781,-7805.6614,0.0,0.12574002059833234,0.0,0.0,0.0,0.0,0.5017741252787505,1.272306841141909,0.5986451715491785,-0.004474161857065396,-0.0035686367586720267,0.32988779686489067
12575,10.0,299.96002000000004,-7740.986999999999,0.0,0.12575001658575147,0.0,0.0,0.0,0.0,0.5210154812327245,1.2643690398585088,0.5676822141983725,0.00016997223817995382,0.0002847917332767557,0.3182974721510147
12576,10.0,299.97531000000004,-7805.6715,0.0,0.12576001257317082,0.0,0.0,0.0,0.0,0.5281515990370045,1.2765303715337388,0.5680472578118995,-0.0033347612076903067,0.0027712732713533776,0.3136307866954487
12577,10.0,299.61857000000003,-7812.5034,0.0,0.12577004155064753,0.0,0.0,0.0,0.0,0.5411013811450485,1.2558363594413988,0.5778682452011554,-0.005680175087889635,-0.009279860666725941,0.31790340905462366
12578,10.0,299.50552999999996,-8013.3532,0.0,0.12578003753806688,0.0,0.0,0.0,0.0,0.5485148862967045,1.2771551415453988,0.6101892920584945,5.887976876698074e-05,-0.0006571279002909743,0.31122122729514373
12579,10.0,300.06466,-8071.6899,0.0,0.12579003352548623,0.0,0.0,0.0,0.0,0.5474912098531756,1.269797223294229,0.6363037463557903,0.0005202576410854316,-0.0027861569020722777,0.32153333700786974
12580,10.0,300.2982,-7784.2368,0.0,0.1258000295129056,0.0,0.0,0.0,0.0,0.5006916499319185,1.2588390247877388,0.6066828995574404,0.017741468175446584,-0.0014378524530799886,0.3114287713131267
12581,10.0,300.15576,-7756.736,0.0,0.12581002550032494,0.0,0.0,0.0,0.0,0.5038315397393015,1.271746007211559,0.5822765214837184,-0.006223799573241194,-0.005901325838815514,0.3325971871022867
12582,10.0,300.4576,-7978.8136,0.0,0.1258200214877443,0.0,0.0,0.0,0.0,0.5365360409644845,1.2684415959854387,0.6203825070044864,-0.0005957639340948225,7.547461779801483e-05,0.3013561635265377
12583,10.0,300.03738,-7849.1155,0.0,0.12583001747516342,0.0,0.0,0.0,0.0,0.5271002507332445,1.283613192382759,0.5752216764699595,-0.008881708599556393,-0.0026510439529126677,0.3368573464852317
12584,10.0,299.51807,-7651.4864,0.0,0.12584001346258278,0.0,0.0,0.0,0.0,0.5007017419029145,1.2487518160672089,0.5764072297494645,0.00982611575198712,0.008907108347763152,0.3208242747203907
12585,10.0,299.96045,-7779.7562,0.0,0.12585004244005948,0.0,0.0,0.0,0.0,0.5016763669091024,1.2797553439520186,0.5834199438240655,0.007033199762472774,0.0038316859078579564,0.34431552583379665
12586,10.0,299.90508,-7960.0542,0.0,0.12586003842747884,0.0,0.0,0.0,0.0,0.5245517038167226,1.3008151393304588,0.5942908710994425,0.0012901409548269987,0.011351907978596091,0.3241721543758007
12587,10.0,299.98616,-7903.8552,0.0,0.1258700344148982,0.0,0.0,0.0,0.0,0.5331350062088285,1.2805482121552687,0.5888914234365584,0.0005551098677525785,0.008179717784525293,0.3420657053117567
12588,10.0,299.37485,-7952.5579,0.0,0.12588003040231754,0.0,0.0,0.0,0.0,0.5400972097659446,1.2803131381320687,0.5969686985962235,-0.008000171386680443,-0.001999804403590328,0.3162506056240047
12589,10.0,299.625,-7884.706,0.0,0.1258900263897369,0.0,0.0,0.0,0.0,0.5351419709469005,1.2791910649713287,0.5824207475029525,-0.01148836236956309,-8.570931013685031e-05,0.3363807643006967
12590,10.0,299.5623,-7838.4286,0.0,0.12590002237715603,0.0,0.0,0.0,0.0,0.5176778860658294,1.2568143484379188,0.6081943140691054,-0.007084458565156624,-0.008707469605735343,0.3241747989585617
12591,10.0,300.39264,-7967.0012,0.0,0.12591001836457538,0.0,0.0,0.0,0.0,0.5319778543296265,1.2916889983297788,0.5981025355906244,0.0021237228643201283,0.007368854968774363,0.33191079121954464
12592,10.0,299.73561,-8034.7191,0.0,0.12592001435199474,0.0,0.0,0.0,0.0,0.5352428095968526,1.2816079704348589,0.6255031892998584,0.0028060341332590073,-0.002044348600511498,0.3127891811623887
12593,10.0,299.92304,-7770.0212,0.0,0.12593004332947144,0.0,0.0,0.0,0.0,0.5187848010050735,1.2591493832933687,0.5839581924096865,0.020310071364447978,-0.013052342269915886,0.3233372058958977
12594,10.0,299.84331000000003,-7792.8615,0.0,0.1259400393168908,0.0,0.0,0.0,0.0,0.5049357695657805,1.278219155475409,0.5856803629421514,0.0014274226645006485,-0.006901147233915203,0.3199579864148947
12595,10.0,300.28456,-7934.4673,0.0,0.12595003530431037,0.0,0.0,0.0,0.0,0.5463842543839275,1.256861768542599,0.6086338822274875,0.011455571569826888,0.0007723350851410383,0.3070099369645217
12596,10.0,300.11384,-7879.0369,0.0,0.1259600312917295,0.0,0.0,0.0,0.0,0.5236249548777595,1.263977621344879,0.6074279322234694,-0.004577155791305105,0.001204985896547849,0.3231705971819547
12597,10.0,300.63646,-7782.3366,0.0,0.12597002727914886,0.0,0.0,0.0,0.0,0.5156741637280775,1.2656440124593387,0.5843178252676794,0.0016645648324797586,-0.002292844742486158,0.32002781961178667
12598,10.0,300.08586,-7877.6176,0.0,0.125980023266568,0.0,0.0,0.0,0.0,0.5312267016329935,1.2632445348975287,0.6001278604205085,-0.007186015406779503,-0.004804276611820185,0.3227063563836377
12599,10.0,300.20806,-7915.2763,0.0,0.12599001925398734,0.0,0.0,0.0,0.0,0.5299454164840405,1.2861141976045887,0.5899866859996524,0.000984157085576242,0.009161185572613622,0.32273854733931473
12600,10.0,299.77626000000004,-7884.4739,0.0,0.1260000152414067,0.0,0.0,0.0,0.0,0.5249234855434145,1.2694821025131289,0.6022775718326684,0.002086572252053648,0.010851958220254889,0.32966957319085366
12601,10.0,299.9388,-7954.408,0.0,0.12601004421888362,0.0,0.0,0.0,0.0,0.5271082554090345,1.2750855782161488,0.6157475970720565,0.009812104022979272,-0.001189408088185439,0.3217808436097967
12602,10.0,299.97182000000004,-7822.7428,0.0,0.12602004020630275,0.0,0.0,0.0,0.0,0.5118069528664135,1.268349491551349,0.5977619923645154,0.004682341486836126,0.0019182128445878683,0.3396302573713967
12603,10.0,300.11659,-7662.8272,0.0,0.1260300361937221,0.0,0.0,0.0,0.0,0.49377052353385653,1.2579798900279489,0.5775577448405115,0.009781849286918361,0.012538887914241887,0.3345809078830647
12604,10.0,299.44908,-7819.6287,0.0,0.12604003218114146,0.0,0.0,0.0,0.0,0.5219944834793445,1.2809858348734589,0.5739915908485594,-0.0036293403695130066,0.004557103267851075,0.33653808151122266
12605,10.0,299.89864,-7873.6572,0.0,0.1260500281685608,0.0,0.0,0.0,0.0,0.5234326906712845,1.2742373865574386,0.5957250455559845,-0.004092109827359796,-0.020638358317347377,0.3278668087454347
12606,10.0,300.19395,-7660.9055,0.0,0.12606002415597994,0.0,0.0,0.0,0.0,0.4918230061791516,1.2585782142119988,0.5783228094610174,-0.0033685867384286266,-0.02228746439835148,0.3273054175275297
12607,10.0,299.91326000000004,-7778.2404,0.0,0.1260700201433993,0.0,0.0,0.0,0.0,0.5055449456584015,1.2671027886283088,0.5917431043854974,0.0007055410103339763,-0.0014396023360026887,0.3235383968357537
12608,10.0,299.48253,-7976.1559,0.0,0.12608001613081865,0.0,0.0,0.0,0.0,0.5311268964981435,1.2718027492171589,0.6216225934043734,0.01050884336539209,0.002889278303174567,0.3161730615938517
12609,10.0,299.4151,-7919.2445,0.0,0.12609004510829536,0.0,0.0,0.0,0.0,0.5331931262345645,1.2638987904870986,0.6101607082731734,0.00044352398809740964,0.0005466207773547703,0.3214391047485697
12610,10.0,299.06425,-7960.4758,0.0,0.1261000410957147,0.0,0.0,0.0,0.0,0.5448560300531035,1.2728444716449687,0.6020853582886984,-0.003364940456618767,0.002475663228878938,0.3242171224152387
12611,10.0,299.94762000000003,-7976.3807,0.0,0.12611003708313406,0.0,0.0,0.0,0.0,0.5562032051404825,1.2594062421937187,0.6090111253722184,-0.006139311537502874,0.002356714962539658,0.3073866329541987
12612,10.0,299.62684,-7860.241,0.0,0.12612003307055342,0.0,0.0,0.0,0.0,0.5283093418125725,1.2615078242261288,0.5994998378760273,-0.004104410582248786,0.006934804869111953,0.3200692007458707
12613,10.0,300.05759,-7818.0468,0.0,0.12613002905797277,0.0,0.0,0.0,0.0,0.5083797053306706,1.2612017213709186,0.6069095534723093,-0.012258735407342989,-0.005501454792851314,0.3118307884228027
12614,10.0,300.56536,-7886.2173,0.0,0.1261400250453919,0.0,0.0,0.0,0.0,0.5166508557644696,1.2722793820641989,0.6082829430553524,0.013788715700590289,-0.007959137088105672,0.3197772529945577
12615,10.0,300.60992999999996,-7873.9612,0.0,0.12615002103281125,0.0,0.0,0.0,0.0,0.5293997610401885,1.2793866222406287,0.5847011783105135,-0.006763870793142073,0.00027885551637339673,0.3182489476037257
12616,10.0,300.06542,-7795.7928,0.0,0.1261600170202306,0.0,0.0,0.0,0.0,0.5193381368846834,1.2796709402186888,0.5707173136804135,0.02081126640716208,-0.005033212365914386,0.3341013467432357
12617,10.0,300.12678999999997,-7861.5004,0.0,0.12617001300764996,0.0,0.0,0.0,0.0,0.5180598306910245,1.2831407138611288,0.5884992956478584,-0.0035932172941729366,-0.01780912592437388,0.32709007148377667
12618,10.0,299.52803,-7887.5892,0.0,0.12618004198512667,0.0,0.0,0.0,0.0,0.5181486420622895,1.2759395454004288,0.6035419458374524,0.011823386422377388,-0.0038826106419838366,0.3308113540660387
12619,10.0,299.89306,-7749.03,0.0,0.12619003797254602,0.0,0.0,0.0,0.0,0.4927371300218685,1.2571782065488288,0.6055962597526974,-0.0004413682275821526,0.003947550246192876,0.3291511133796857
12620,10.0,300.25518999999997,-7821.5036,0.0,0.12620003395996537,0.0,0.0,0.0,0.0,0.5042097860016315,1.264024230849479,0.6093077340739914,-0.007058919495061113,0.013268443184993385,0.3341295353610177
12621,10.0,299.78358,-7991.7384,0.0,0.12621002994738473,0.0,0.0,0.0,0.0,0.5501851176290435,1.2665720482259288,0.6125317135071735,-0.015411839009280087,0.00037870051248233065,0.32314349274177967
12622,10.0,300.27956,-7854.0168,0.0,0.12622002593480386,0.0,0.0,0.0,0.0,0.5212935981201725,1.2781951414480386,0.5879362426997895,-0.012854558890146188,-0.005503511589229305,0.3364300082555567
12623,10.0,299.63312,-7802.7372,0.0,0.1262300219222232,0.0,0.0,0.0,0.0,0.5276082842008835,1.2658908401836988,0.5783381298025295,-0.006638161514185534,-0.007236225495609853,0.3318249689360747
12624,10.0,299.6863,-7987.2916,0.0,0.12624001790964257,0.0,0.0,0.0,0.0,0.5322593149424045,1.2789363338961885,0.6167415346251504,0.003140768396544707,-0.007954683752591164,0.3121354727278727
12625,10.0,299.72295,-7932.3923,0.0,0.12625001389706192,0.0,0.0,0.0,0.0,0.5191654284051385,1.2896878293822789,0.6023959498418514,0.003931728852506426,-0.0008172123779000822,0.3078992564447907
12626,10.0,300.10004,-7866.3392,0.0,0.12626004287453862,0.0,0.0,0.0,0.0,0.5154043250939465,1.2688803332787388,0.6068860562024905,0.007378503541526603,0.005503533576756475,0.3195016590998587
12627,10.0,300.38962000000004,-7988.4826,0.0,0.12627003886195798,0.0,0.0,0.0,0.0,0.5549529963720965,1.2627742855261188,0.6105719966212645,0.017169365890734485,0.01048544235433259,0.3047591639873877
12628,10.0,300.84385,-7829.7518,0.0,0.1262800348493771,0.0,0.0,0.0,0.0,0.5277047354779024,1.2657902244487689,0.5865540581058785,0.004833039033133816,-0.0029393696390931975,0.33026232449935367
12629,10.0,300.51788,-7786.0019999999995,0.0,0.12629003083679669,0.0,0.0,0.0,0.0,0.5309620913693784,1.249732642164009,0.5860554579966704,-0.0016718312542468984,-0.018078920988750583,0.31799686111134673
12630,10.0,299.48892,-7983.925,0.0,0.12630002682421582,0.0,0.0,0.0,0.0,0.5263381042730265,1.2774086567204188,0.6231670398692984,-0.00871789199758895,-0.018256339054760384,0.3283298843061367
12631,10.0,300.21576,-7910.7393,0.0,0.12631002281163517,0.0,0.0,0.0,0.0,0.5195778921233455,1.272990278334359,0.6120989949194674,-0.0031706739666211565,-0.0093813423251914,0.3151253204604477
12632,10.0,299.84219,-7720.7413,0.0,0.12632001879905452,0.0,0.0,0.0,0.0,0.4949421851544905,1.265119351557559,0.5868510315776875,-0.002959289224134107,-0.0005489839501654976,0.32983142976182767
12633,10.0,299.95108,-7742.6304,0.0,0.12633001478647365,0.0,0.0,0.0,0.0,0.5157428519523565,1.2709278077558088,0.5668956180132415,0.0028096271181136073,0.0005329364699842345,0.3145354873122357
12634,10.0,300.10059,-7932.4075,0.0,0.12634004376395058,0.0,0.0,0.0,0.0,0.5342658845129375,1.282020869850609,0.5949670838186795,-0.0005653979229079303,0.012706572699791089,0.3370991687540977
12635,10.0,299.86197999999996,-7877.7746,0.0,0.12635003975136994,0.0,0.0,0.0,0.0,0.5379621094202265,1.2772296154277487,0.5794550759177635,0.01934264752672068,0.01118268710589529,0.3369584485802096
12636,10.0,300.04534,-7727.6651,0.0,0.12636003573878907,0.0,0.0,0.0,0.0,0.4984842947215695,1.2734517124298987,0.5770811727884774,-0.0036323590442109265,0.0017362205623266285,0.34070527519749266
12637,10.0,300.38781,-7764.2245,0.0,0.12637003172620842,0.0,0.0,0.0,0.0,0.49676084749397853,1.257398284470549,0.6059712230847034,-0.002190008976587058,-0.015880391186772584,0.32601192271487167
12638,10.0,299.63114,-7899.1381,0.0,0.126380027713628,0.0,0.0,0.0,0.0,0.5139436440147885,1.278190987122629,0.6090060895192214,-0.009722684499004252,-0.01038221851364519,0.3227174514722327
12639,10.0,299.38272,-8048.6959,0.0,0.12639002370104713,0.0,0.0,0.0,0.0,0.5420604426297004,1.2876502847561886,0.6168918604099864,0.01136729924761509,0.0003479906346090017,0.3123517914917217
12640,10.0,299.06993,-8090.0434,0.0,0.12640001968846648,0.0,0.0,0.0,0.0,0.5657895136740775,1.2727717202877886,0.6206099512544334,-0.004762678338239756,0.00900092943017257,0.30489324737312073
12641,10.0,299.46358,-7881.6759,0.0,0.1264100156758856,0.0,0.0,0.0,0.0,0.5369068499710805,1.2639863352957386,0.5949394626209534,-0.005847489125227244,-0.005323752003563415,0.3141502293592137
12642,10.0,300.27184,-7832.5419,0.0,0.12642004465336254,0.0,0.0,0.0,0.0,0.5146388754384025,1.2581607551707987,0.6080975284195534,-0.002118736052627968,0.007057751217695812,0.3245521940908077
12643,10.0,300.21948,-8100.0633,0.0,0.1264300406407819,0.0,0.0,0.0,0.0,0.5496958596857574,1.2872846027950988,0.6252365626685444,0.0015850403036812984,0.004205542365454716,0.3110424595800007
12644,10.0,299.76947,-8040.7898,0.0,0.12644003662820102,0.0,0.0,0.0,0.0,0.5628265373341544,1.266633856482029,0.6147389673925124,0.013777537525487087,0.0024999026030711772,0.3118523706499327
12645,10.0,300.24402000000003,-7739.9275,0.0,0.12645003261562038,0.0,0.0,0.0,0.0,0.5297973401144265,1.2507330239877388,0.5722143299081575,-0.002140511202577008,-0.014199415350373185,0.3109836809416997
12646,10.0,299.98598,-7730.2121,0.0,0.12646002860303995,0.0,0.0,0.0,0.0,0.5275656770341786,1.2490231644439886,0.5732026439231964,0.007070654451094263,-0.011885803641787488,0.3271147846537157
12647,10.0,300.35491,-7950.9777,0.0,0.12647002459045908,0.0,0.0,0.0,0.0,0.5351371580089255,1.2774660066760788,0.6042954695393195,-0.004552745887121035,-0.0026800423601745877,0.3210739800750347
12648,10.0,300.41921,-7934.8856,0.0,0.12648002057787844,0.0,0.0,0.0,0.0,0.5106161914813946,1.2813908309384288,0.6200000658867424,0.013042007118895886,0.004510340762485975,0.34520236285132067
12649,10.0,300.10773,-7903.5987,0.0,0.12649001656529757,0.0,0.0,0.0,0.0,0.5084714855247285,1.2826081496085688,0.6114169560121555,-0.002355986841017798,-0.005402327319668194,0.3159720226415107
12650,10.0,300.64781,-7789.1103,0.0,0.1265000455427745,0.0,0.0,0.0,0.0,0.49531852650663255,1.2765795141635887,0.5957970268430884,0.013407183468185988,0.002229688559778128,0.3355194814506947
12651,10.0,300.97477000000003,-7682.2945,0.0,0.12651004153019385,0.0,0.0,0.0,0.0,0.5089661238260454,1.2569239820987388,0.5693356053140495,-0.0016536611468286483,0.004883775809366145,0.3281946964777947
12652,10.0,300.79661,-7851.9076,0.0,0.12652003751761298,0.0,0.0,0.0,0.0,0.5337823615652175,1.270064214695579,0.5829372922714315,0.015785897508946784,0.004572278917248795,0.34073750668317365
12653,10.0,300.20937000000004,-8017.0902,0.0,0.12653003350503234,0.0,0.0,0.0,0.0,0.5537652544723755,1.2789726082497688,0.6042573612030585,-0.018951587703626083,-0.013389998746489988,0.3289106893959577
12654,10.0,300.59148999999996,-7804.9192,0.0,0.1265400294924517,0.0,0.0,0.0,0.0,0.4913378924287745,1.2857345327921188,0.5954281430116825,-0.008768738508807111,0.009170430466526021,0.35152491175280765
12655,10.0,300.68585,-7729.656999999999,0.0,0.12655002547987104,0.0,0.0,0.0,0.0,0.5056045348967825,1.2635024070479788,0.5805157967849485,-0.007761216007647383,0.004803689534712245,0.3317016462664037
12656,10.0,300.32639,-7941.9297,0.0,0.1265600214672904,0.0,0.0,0.0,0.0,0.5332964372147605,1.279944213770659,0.6009076576974685,0.01266970762140279,0.01018998166492289,0.31799099439326767
12657,10.0,300.00744,-7900.0843,0.0,0.12657001745470953,0.0,0.0,0.0,0.0,0.5520434081799425,1.246332073503399,0.6030529209416894,0.0002311247390802358,-0.010008609390397839,0.3073485752804427
12658,10.0,299.95887999999997,-7781.1663,0.0,0.12658001344212888,0.0,0.0,0.0,0.0,0.5118001336932405,1.254633935547729,0.5988461699715154,0.006921662913989943,0.005264535337244185,0.3120966247190387
12659,10.0,299.91004,-7796.9229,0.0,0.1265900424196058,0.0,0.0,0.0,0.0,0.5165929079912506,1.255114216095129,0.5983627078188014,0.0014856807962252785,0.0005979996805729735,0.3182749172037887
12660,10.0,300.29142,-7880.1256,0.0,0.12660003840702494,0.0,0.0,0.0,0.0,0.5102411572218815,1.2542241772072888,0.6308960609695934,-0.0054006118872488955,0.003483740281818397,0.3309567858528917
12661,10.0,300.19166,-8047.0861,0.0,0.12661003439444452,0.0,0.0,0.0,0.0,0.5518029335337095,1.270546319093159,0.6237639759007114,-0.004565176844647876,-0.015700952700063383,0.3237094030551307
12662,10.0,300.16138,-8103.6209,0.0,0.12662003038186365,0.0,0.0,0.0,0.0,0.5460397290849255,1.2937292787311387,0.6235293781050584,-0.01146335535709509,-0.01155130242602479,0.3223279176037887
12663,10.0,301.04508,-7885.9035,0.0,0.126630026369283,0.0,0.0,0.0,0.0,0.5430639148662355,1.2712703876146187,0.5827834302437465,0.003714802138597426,-0.0049261358443717556,0.3132361055164967
12664,10.0,301.06462,-7699.6124,0.0,0.12664002235670235,0.0,0.0,0.0,0.0,0.5137846853391005,1.2599301938204288,0.5667750919138465,-0.005412051278227875,-0.006387853782357083,0.33063730809636166
12665,10.0,300.20052000000004,-7845.4947,0.0,0.12665001834412148,0.0,0.0,0.0,0.0,0.5202886566709924,1.2741811511768886,0.5903646282869525,0.002086166445388598,-0.0012317686298160989,0.3215670073086927
12666,10.0,300.02222,-7960.7478,0.0,0.12666001433154084,0.0,0.0,0.0,0.0,0.5088459928941895,1.3039544921152886,0.6070680257879494,-0.005848919327743395,0.009321838199818801,0.33744809155853367
12667,10.0,299.96812,-7842.7334,0.0,0.12667004330901777,0.0,0.0,0.0,0.0,0.5012059554176765,1.2891160523508487,0.5936730722484704,0.007359611493412103,0.02088500163018918,0.3273977347441407
12668,10.0,300.35945,-7729.9041,0.0,0.12668003929643712,0.0,0.0,0.0,0.0,0.49395218914428557,1.2706118763746288,0.5851337550432054,-0.008492445775514142,0.01069340383135679,0.3538515670299307
12669,10.0,299.60701,-7794.2855,0.0,0.12669003528385647,0.0,0.0,0.0,0.0,0.5202275475574615,1.256438027350779,0.5926025937828224,-0.0027562713943478073,-0.023646582353735977,0.3325139080765677
12670,10.0,299.18417999999997,-7905.7647,0.0,0.1267000312712756,0.0,0.0,0.0,0.0,0.5212021320336455,1.2835785392293386,0.5983744209899574,-0.007254739297462023,-0.01735254934981328,0.3336700365731687
12671,10.0,299.62155,-7888.3409,0.0,0.12671002725869474,0.0,0.0,0.0,0.0,0.4995518955569335,1.2752819460855287,0.6230247694227574,0.002307311116813878,-0.018274543106056983,0.32694958435741167
12672,10.0,300.46196000000003,-7837.8937,0.0,0.1267200232461143,0.0,0.0,0.0,0.0,0.5042079520189505,1.2665063896194488,0.6118096106909074,-0.0031376299556849668,0.0019233259072424882,0.33068539694610766
12673,10.0,299.94062,-7835.6957,0.0,0.12673001923353344,0.0,0.0,0.0,0.0,0.5296352099659255,1.2454005926864686,0.6068200733559784,0.004583105494567296,-0.003951779653435286,0.3078829735156837
12674,10.0,300.16462,-7884.1859,0.0,0.12674001522095302,0.0,0.0,0.0,0.0,0.5414623514931735,1.2655446126245289,0.5895886813603725,0.013630416650717386,0.02022103099866038,0.3105325414671757
12675,10.0,300.01777999999996,-8010.7977,0.0,0.1267500441984295,0.0,0.0,0.0,0.0,0.5631118989598174,1.2757671915584186,0.5962033907956935,0.01120605974595199,0.006237814848624394,0.30591148266361273
12676,10.0,299.99949,-7918.1684,0.0,0.12676004018584908,0.0,0.0,0.0,0.0,0.5423856553817965,1.2726688754026387,0.5918709968131194,0.006921268759701045,0.0019928616139051284,0.31238168236967173
12677,10.0,300.18307999999996,-7785.6066,0.0,0.12677003617326843,0.0,0.0,0.0,0.0,0.4928575142662495,1.267009062994059,0.6067634630728914,-0.008780336878726782,-0.020154482758592582,0.3203749692285477
12678,10.0,299.81883,-7860.4819,0.0,0.12678003216068756,0.0,0.0,0.0,0.0,0.5106830051929885,1.265341455979479,0.6133657500619865,-0.013199526979441885,-0.004428999881558256,0.3262679000876347
12679,10.0,298.82857,-7910.7588,0.0,0.1267900281481067,0.0,0.0,0.0,0.0,0.5171128066175604,1.2798161389580187,0.6077441878446814,-0.004037530604098246,0.0012796200750636688,0.3291155786986787
12680,10.0,299.25877,-7760.0124,0.0,0.12680002413552627,0.0,0.0,0.0,0.0,0.5240841294255766,1.257388151969549,0.5773777409602464,-0.01143429534422709,0.007219645886873573,0.3360991719654057
12681,10.0,299.6496,-7810.4228,0.0,0.12681002012294562,0.0,0.0,0.0,0.0,0.5323630514876425,1.2689032327309988,0.5729071700615355,-0.0041951800593320356,-0.0073967371797261225,0.3210822988583557
12682,10.0,300.28979,-7893.9703,0.0,0.12682001611036497,0.0,0.0,0.0,0.0,0.5263097535352285,1.2780652427852186,0.5951948827061615,0.003938015562751877,-0.008354806895180242,0.3278383060201217
12683,10.0,300.11599,-7889.5636,0.0,0.12683004508784146,0.0,0.0,0.0,0.0,0.4986565776360725,1.2902926383669688,0.6092811362588664,0.008297259153100723,0.0038733292710678366,0.32809270272272867
12684,10.0,299.94819,-7902.3153,0.0,0.12684004107526103,0.0,0.0,0.0,0.0,0.5009869920710666,1.2979080234685487,0.6032115249798424,0.010358804330334391,0.0009689686185647571,0.33497919623237266
12685,10.0,299.61075,-7889.8973,0.0,0.1268500370626804,0.0,0.0,0.0,0.0,0.5179277434079885,1.2834285782145387,0.5969753961793844,-0.00978246098600373,-0.005773104003586004,0.3176007512497537
12686,10.0,300.3213,-7819.3330000000005,0.0,0.12686003305009952,0.0,0.0,0.0,0.0,0.5321017545518545,1.2647754544736187,0.5800047438320115,-0.008268233084111072,0.0069067459473427534,0.3217824344124537
12687,10.0,300.50448,-7803.9893,0.0,0.12687002903751865,0.0,0.0,0.0,0.0,0.5347240762081575,1.2647227654684188,0.5727710399106004,-0.01202071079985179,-0.006636585504979994,0.3204990113057897
12688,10.0,300.63015,-7859.3395,0.0,0.126880025024938,0.0,0.0,0.0,0.0,0.5070739400593015,1.2821533016386788,0.5998157489922054,0.003044462115615017,0.0038933066113644465,0.32820621713143167
12689,10.0,300.25444,-7829.1456,0.0,0.12689002101235758,0.0,0.0,0.0,0.0,0.4922262087914446,1.272759459961579,0.6148791100138434,-0.001969419971516618,-0.01081852805970559,0.3274152335733677
12690,10.0,301.005,-7860.2074,0.0,0.12690001699977693,0.0,0.0,0.0,0.0,0.5142766283951515,1.2674132484589489,0.6076169033671194,0.010086766031561301,-0.0014436081189480286,0.3210737875575157
12691,10.0,300.79152999999997,-7929.6459,0.0,0.12691001298719606,0.0,0.0,0.0,0.0,0.5328354590817654,1.2711882130315089,0.6063906782286004,-0.004912445619620636,0.012351476162495788,0.3224726097180687
12692,10.0,300.43826,-7919.0971,0.0,0.12692004196467277,0.0,0.0,0.0,0.0,0.5656774988755225,1.2612906847296987,0.5802395848076884,-0.005073850787675085,0.02057165910301468,0.2988498995366887
12693,10.0,299.64223,-8015.9619,0.0,0.12693003795209234,0.0,0.0,0.0,0.0,0.5592144223176665,1.2842903474245886,0.5931474690240974,-0.02067843742505288,-0.006890328863922514,0.3139705091889767
12694,10.0,299.80252,-7998.7604,0.0,0.12694003393951148,0.0,0.0,0.0,0.0,0.5447781212529145,1.269268712042069,0.6173765891253253,-0.013848198547710789,-0.015204688132335883,0.3063574646951277
12695,10.0,300.16508,-7908.6361,0.0,0.1269500299269306,0.0,0.0,0.0,0.0,0.5061264194932885,1.2869747509145186,0.6109267253487735,-0.0005340457153987085,-0.015491555447647484,0.32808650163211667
12696,10.0,300.23329,-7828.1666,0.0,0.12696002591434996,0.0,0.0,0.0,0.0,0.5030179505715066,1.2738992649990688,0.6026499817744224,0.01794220619250788,-0.014501063958143587,0.3227509191230357
12697,10.0,299.77027000000004,-7804.9117,0.0,0.12697002190176931,0.0,0.0,0.0,0.0,0.5057462075257645,1.2788481811374888,0.5879038997565975,0.010620170167129189,-0.007196581680147313,0.3412759984488187
12698,10.0,299.8303,-7808.8133,0.0,0.1269800178891889,0.0,0.0,0.0,0.0,0.5366683815600455,1.2531282458991289,0.5838876296727225,0.01835831355807448,-0.009035936815827532,0.3255910591533357
12699,10.0,299.69898,-7791.9646,0.0,0.12699001387660802,0.0,0.0,0.0,0.0,0.5257617676161465,1.2637142776438888,0.5790866075188985,0.006179742344318084,0.013649372533588187,0.3333042532870687
12700,10.0,299.94299,-7840.7078,0.0,0.12700004285408473,0.0,0.0,0.0,0.0,0.4884222551335235,1.2889900040384088,0.6059671700843035,0.0008860156060654322,0.016913456405728184,0.3334796164818757
